x	y	stress_xx
 1.0000000000e+000	 0.0000000000e+000	 1.4849932453e+000
 9.9996079486e-001	 8.8548710816e-003	 1.4844987259e+000
 9.9984261196e-001	 1.7741231999e-002	 1.4877178371e+000
 9.9964460724e-001	 2.6658192499e-002	 1.4947004453e+000
 9.9936594664e-001	 3.5604840910e-002	 1.5054927029e+000
 9.9900580671e-001	 4.4580244178e-002	 1.5201369118e+000
 9.9856337512e-001	 5.3583447921e-002	 1.5386713878e+000
 9.9803785128e-001	 6.2613476500e-002	 1.5611303259e+000
 9.9742844692e-001	 7.1669333105e-002	 1.5875436675e+000
 9.9673438666e-001	 8.0749999857e-002	 1.6179369687e+000
 9.9595490863e-001	 8.9854437932e-002	 1.6523312713e+000
 1.0250000000e+000	 0.0000000000e+000	 1.3863026235e+000
 1.0249598147e+000	 9.0762428582e-003	 1.3892778276e+000
 1.0248386773e+000	 1.8184762798e-002	 1.3950422884e+000
 1.0246357224e+000	 2.7324647310e-002	 1.4036250966e+000
 1.0243500953e+000	 3.6494961931e-002	 1.4150519342e+000
 1.0239809519e+000	 4.5694750280e-002	 1.4293449647e+000
 1.0235274595e+000	 5.4923034116e-002	 1.4465227249e+000
 1.0229887976e+000	 6.4178813409e-002	 1.4666000184e+000
 1.0223641581e+000	 7.3461066429e-002	 1.4895878108e+000
 1.0216527463e+000	 8.2768749849e-002	 1.5154931267e+000
 1.0208537813e+000	 9.2100798875e-002	 1.5443189489e+000
 1.0500000000e+000	 0.0000000000e+000	 1.3863894735e+000
 1.0499588346e+000	 9.2976146348e-003	 1.3918870454e+000
 1.0498347426e+000	 1.8628293597e-002	 1.3992880966e+000
 1.0496268376e+000	 2.7991102121e-002	 1.4086016286e+000
 1.0493342440e+000	 3.7385082952e-002	 1.4198335301e+000
 1.0489560970e+000	 4.6809256382e-002	 1.4329864944e+000
 1.0484915439e+000	 5.6262620311e-002	 1.4480599377e+000
 1.0479397438e+000	 6.5744150319e-002	 1.4650499203e+000
 1.0472998693e+000	 7.5252799753e-002	 1.4839490689e+000
 1.0465711060e+000	 8.4787499842e-002	 1.5047465016e+000
 1.0457526541e+000	 9.4347159819e-002	 1.5274277553e+000
 1.0750000000e+000	 0.0000000000e+000	 1.4783650546e+000
 1.0749578545e+000	 9.5189864113e-003	 1.4855161908e+000
 1.0748308079e+000	 1.9071824396e-002	 1.4937206598e+000
 1.0746179528e+000	 2.8657556932e-002	 1.5029679968e+000
 1.0743183926e+000	 3.8275203973e-002	 1.5132449128e+000
 1.0739312422e+000	 4.7923762484e-002	 1.5245352377e+000
 1.0734556282e+000	 5.7602206507e-002	 1.5368198650e+000
 1.0728906901e+000	 6.7309487228e-002	 1.5500766997e+000
 1.0722355804e+000	 7.7044533077e-002	 1.5642806074e+000
 1.0714894657e+000	 8.6806249835e-002	 1.5794033671e+000
 1.0706515268e+000	 9.6593520764e-002	 1.5954136256e+000
 1.1000000000e+000	 0.0000000000e+000	 1.6559668751e+000
 1.0999568743e+000	 9.7403581879e-003	 1.6639749157e+000
 1.0998268732e+000	 1.9515355195e-002	 1.6722190723e+000
 1.0996090680e+000	 2.9324011743e-002	 1.6806699798e+000
 1.0993025413e+000	 3.9165324994e-002	 1.6892957301e+000
 1.0989063874e+000	 4.9038268587e-002	 1.6980618400e+000
 1.0984197126e+000	 5.8941792703e-002	 1.7069312224e+000
 1.0978416364e+000	 6.8874824138e-002	 1.7158641602e+000
 1.0971712916e+000	 7.8836266402e-002	 1.7248182821e+000
 1.0964078253e+000	 8.8824999828e-002	 1.7337485417e+000
 1.0955503995e+000	 9.8839881709e-002	 1.7426071993e+000
 1.1250000000e+000	 0.0000000000e+000	 1.9134891092e+000
 1.1249558942e+000	 9.9617299645e-003	 1.9216238411e+000
 1.1248229385e+000	 1.9958885994e-002	 1.9292079367e+000
 1.1246001831e+000	 2.9990466555e-002	 1.9361936441e+000
 1.1242866900e+000	 4.0055446015e-002	 1.9425309415e+000
 1.1238815325e+000	 5.0152774689e-002	 1.9481675317e+000
 1.1233837970e+000	 6.0281378898e-002	 1.9530488381e+000
 1.1227925827e+000	 7.0440161048e-002	 1.9571180042e+000
 1.1221070028e+000	 8.0627999727e-002	 1.9603158957e+000
 1.1213261850e+000	 9.0843749822e-002	 1.9625811060e+000
 1.1204492722e+000	 1.0108624265e-001	 1.9638499644e+000
 1.1500000000e+000	 0.0000000000e+000	 2.2457220899e+000
 1.1499549141e+000	 1.0183101741e-002	 2.2533146691e+000
 1.1498190038e+000	 2.0402416793e-002	 2.2595980695e+000
 1.1495912983e+000	 3.0656921366e-002	 2.2645066161e+000
 1.1492708386e+000	 4.0945567036e-002	 2.2679726319e+000
 1.1488566777e+000	 5.1267280792e-002	 2.2699264565e+000
 1.1483478814e+000	 6.1620965094e-002	 2.2702964672e+000
 1.1477435290e+000	 7.2005497959e-002	 2.2690091045e+000
 1.1470427139e+000	 8.2419733053e-002	 2.2659888994e+000
 1.1462445446e+000	 9.2862499816e-002	 2.2611585048e+000
 1.1453481449e+000	 1.0333260360e-001	 2.2544387300e+000
 1.1750000000e+000	 0.0000000000e+000	 2.6478995262e+000
 1.1749539340e+000	 1.0404473518e-002	 2.6543379405e+000
 1.1748150691e+000	 2.0845947592e-002	 2.6587347759e+000
 1.1745824135e+000	 3.1323376177e-002	 2.6610068534e+000
 1.1742549873e+000	 4.1835688057e-002	 2.6610692540e+000
 1.1738318229e+000	 5.2381786895e-002	 2.6588353607e+000
 1.1733119658e+000	 6.2960551291e-002	 2.6542169054e+000
 1.1726944752e+000	 7.3570834869e-002	 2.6471240182e+000
 1.1719784251e+000	 8.4211466378e-002	 2.6374652812e+000
 1.1711629043e+000	 9.4881249811e-002	 2.6251477848e+000
 1.1702470176e+000	 1.0557896455e-001	 2.6100771882e+000
 1.2000000000e+000	 0.0000000000e+000	 3.1156523179e+000
 1.1999529538e+000	 1.0625845294e-002	 3.1203773223e+000
 1.1998111344e+000	 2.1289478391e-002	 3.1223525907e+000
 1.1995735287e+000	 3.1989830989e-002	 3.1214778180e+000
 1.1992391360e+000	 4.2725809079e-002	 3.1176512145e+000
 1.1988069680e+000	 5.3496292997e-002	 3.1107695729e+000
 1.1982760501e+000	 6.4300137487e-002	 3.1007283390e+000
 1.1976454215e+000	 7.5136171780e-002	 3.0874216860e+000
 1.1969141363e+000	 8.6003199704e-002	 3.0707425931e+000
 1.1960812640e+000	 9.6899999806e-002	 3.0505829275e+000
 1.1951458903e+000	 1.0782532549e-001	 3.0268335301e+000
 1.2250000000e+000	 0.0000000000e+000	 3.6449680261e+000
 1.2249519737e+000	 1.0847217071e-002	 3.6474694927e+000
 1.2248071996e+000	 2.1733009191e-002	 3.6465355612e+000
 1.2245646439e+000	 3.2656285800e-002	 3.6420491391e+000
 1.2242232846e+000	 4.3615930100e-002	 3.6338918995e+000
 1.2237821132e+000	 5.4610799100e-002	 3.6219443726e+000
 1.2232401345e+000	 6.5639723683e-002	 3.6060860401e+000
 1.2225963678e+000	 7.6701508691e-002	 3.5861954342e+000
 1.2218498475e+000	 8.7794933031e-002	 3.5621502411e+000
 1.2209996236e+000	 9.8918749801e-002	 3.5338274076e+000
 1.2200447631e+000	 1.1007168644e-001	 3.5011032527e+000
 1.2500000000e+000	 0.0000000000e+000	 4.2321552069e+000
 1.2499509936e+000	 1.1068588847e-002	 4.2319688399e+000
 1.2498032649e+000	 2.2176539990e-002	 4.2276822957e+000
 1.2495557590e+000	 3.3322740611e-002	 4.2191619966e+000
 1.2492074333e+000	 4.4506051122e-002	 4.2062733766e+000
 1.2487572584e+000	 5.5725305204e-002	 4.1888809954e+000
 1.2482042189e+000	 6.6979309880e-002	 4.1668486576e+000
 1.2475473141e+000	 7.8266845602e-002	 4.1400395360e+000
 1.2467855586e+000	 8.9586666357e-002	 4.1083162991e+000
 1.2459179833e+000	 1.0093749980e-001	 4.0715412430e+000
 1.2449436358e+000	 1.1231804739e-001	 4.0295764276e+000
 9.9595490863e-001	 8.9854437932e-002	 1.6523312713e+000
 9.9508926501e-001	 9.8981587693e-002	 1.6956096535e+000
 9.9413672268e-001	 1.0813036885e-001	 1.7418379799e+000
 9.9309656377e-001	 1.1729968064e-001	 1.7910452388e+000
 9.9196808628e-001	 1.2648840201e-001	 1.8432568616e+000
 9.9075060469e-001	 1.3569539180e-001	 1.8984946161e+000
 9.8944345050e-001	 1.4491948905e-001	 1.9567765013e+000
 9.8804597288e-001	 1.5415951315e-001	 2.0181166454e+000
 9.8655753926e-001	 1.6341426419e-001	 2.0825252045e+000
 9.8497753588e-001	 1.7268252319e-001	 2.1500082651e+000
 9.8330536841e-001	 1.8196305243e-001	 2.2205677479e+000
 1.0208537813e+000	 9.2100798875e-002	 1.5443189489e+000
 1.0199664966e+000	 1.0145612738e-001	 1.5841008250e+000
 1.0189901407e+000	 1.1083362807e-001	 1.6259015535e+000
 1.0179239779e+000	 1.2023217266e-001	 1.6697339116e+000
 1.0167672884e+000	 1.2965061205e-001	 1.7156075772e+000
 1.0155193698e+000	 1.3908777659e-001	 1.7635290487e+000
 1.0141795368e+000	 1.4854247627e-001	 1.8135015662e+000
 1.0127471222e+000	 1.5801350098e-001	 1.8655250352e+000
 1.0112214777e+000	 1.6749962079e-001	 1.9195959523e+000
 1.0096019743e+000	 1.7699958627e-001	 1.9757073335e+000
 1.0078880026e+000	 1.8651212874e-001	 2.0338486439e+000
 1.0457526541e+000	 9.4347159819e-002	 1.5274277553e+000
 1.0448437283e+000	 1.0393066707e-001	 1.5630144465e+000
 1.0438435588e+000	 1.1353688729e-001	 1.5997250770e+000
 1.0427513919e+000	 1.2316466467e-001	 1.6375567683e+000
 1.0415664906e+000	 1.3281282210e-001	 1.6765039902e+000
 1.0402881349e+000	 1.4248016138e-001	 1.7165585066e+000
 1.0389156230e+000	 1.5216546349e-001	 1.7577093225e+000
 1.0374482715e+000	 1.6186748880e-001	 1.7999426331e+000
 1.0358854162e+000	 1.7158497739e-001	 1.8432417753e+000
 1.0342264127e+000	 1.8131664935e-001	 1.8875871816e+000
 1.0324706368e+000	 1.9106120505e-001	 1.9329563359e+000
 1.0706515268e+000	 9.6593520764e-002	 1.5954136256e+000
 1.0697209599e+000	 1.0640520676e-001	 1.6261642637e+000
 1.0686969769e+000	 1.1624014650e-001	 1.6571771643e+000
 1.0675788060e+000	 1.2609715668e-001	 1.6884342965e+000
 1.0663656927e+000	 1.3597503214e-001	 1.7199154163e+000
 1.0650569000e+000	 1.4587254618e-001	 1.7515980377e+000
 1.0636517093e+000	 1.5578845071e-001	 1.7834574046e+000
 1.0621494208e+000	 1.6572147663e-001	 1.8154664661e+000
 1.0605493547e+000	 1.7567033400e-001	 1.8475958523e+000
 1.0588508511e+000	 1.8563371242e-001	 1.8798138540e+000
 1.0570532710e+000	 1.9561028136e-001	 1.9120864034e+000
 1.0955503995e+000	 9.8839881709e-002	 1.7426071993e+000
 1.0945981915e+000	 1.0887974645e-001	 1.7679341360e+000
 1.0935503949e+000	 1.1894340572e-001	 1.7926922109e+000
 1.0924062201e+000	 1.2902964869e-001	 1.8168486956e+000
 1.0911648949e+000	 1.3913724219e-001	 1.8403690795e+000
 1.0898256651e+000	 1.4926493097e-001	 1.8632170645e+000
 1.0883877955e+000	 1.5941143794e-001	 1.8853545631e+000
 1.0868505702e+000	 1.6957546445e-001	 1.9067416974e+000
 1.0852132932e+000	 1.7975569060e-001	 1.9273368008e+000
 1.0834752895e+000	 1.8995077550e-001	 1.9470964218e+000
 1.0816359052e+000	 2.0015935767e-001	 1.9659753295e+000
 1.1204492722e+000	 1.0108624265e-001	 1.9638499644e+000
 1.1194754231e+000	 1.1135428614e-001	 1.9832146909e+000
 1.1184038130e+000	 1.2164666494e-001	 2.0012075292e+000
 1.1172336342e+000	 1.3196214071e-001	 2.0177814643e+000
 1.1159640970e+000	 1.4229945224e-001	 2.0328881219e+000
 1.1145944303e+000	 1.5265731576e-001	 2.0464777876e+000
 1.1131238818e+000	 1.6303442516e-001	 2.0584994297e+000
 1.1115517195e+000	 1.7342945228e-001	 2.0689007223e+000
 1.1098772317e+000	 1.8384104720e-001	 2.0776280720e+000
 1.1080997279e+000	 1.9426783858e-001	 2.0846266456e+000
 1.1062185395e+000	 2.0470843398e-001	 2.0898404006e+000
 1.1453481449e+000	 1.0333260360e-001	 2.2544387300e+000
 1.1443526547e+000	 1.1382882583e-001	 2.2673482407e+000
 1.1432572311e+000	 1.2434992416e-001	 2.2781086842e+000
 1.1420610483e+000	 1.3489463272e-001	 2.2866591288e+000
 1.1407632992e+000	 1.4546166229e-001	 2.2929376997e+000
 1.1393631954e+000	 1.5604970055e-001	 2.2968816223e+000
 1.1378599681e+000	 1.6665741239e-001	 2.2984272694e+000
 1.1362528688e+000	 1.7728344011e-001	 2.2975102082e+000
 1.1345411701e+000	 1.8792640381e-001	 2.2940652517e+000
 1.1327241663e+000	 1.9858490166e-001	 2.2880265100e+000
 1.1308011737e+000	 2.0925751029e-001	 2.2793274452e+000
 1.1702470176e+000	 1.0557896455e-001	 2.6100771882e+000
 1.1692298864e+000	 1.1630336552e-001	 2.6160807303e+000
 1.1681106491e+000	 1.2705318338e-001	 2.6191818063e+000
 1.1668884624e+000	 1.3782712473e-001	 2.6193058996e+000
 1.1655625014e+000	 1.4862387233e-001	 2.6163779604e+000
 1.1641319605e+000	 1.5944208535e-001	 2.6103224740e+000
 1.1625960543e+000	 1.7028039961e-001	 2.6010635301e+000
 1.1609540181e+000	 1.8113742794e-001	 2.5885248956e+000
 1.1592051086e+000	 1.9201176041e-001	 2.5726300887e+000
 1.1573486046e+000	 2.0290196474e-001	 2.5533024547e+000
 1.1553838079e+000	 2.1380658660e-001	 2.5304652442e+000
 1.1951458903e+000	 1.0782532549e-001	 3.0268335301e+000
 1.1941071180e+000	 1.1877790521e-001	 3.0255196930e+000
 1.1929640672e+000	 1.2975644260e-001	 3.0205718664e+000
 1.1917158765e+000	 1.4075961675e-001	 3.0119022458e+000
 1.1903617035e+000	 1.5178608238e-001	 2.9994228981e+000
 1.1889007256e+000	 1.6283447014e-001	 2.9830458534e+000
 1.1873321406e+000	 1.7390338684e-001	 2.9626831986e+000
 1.1856551674e+000	 1.8499141576e-001	 2.9382471737e+000
 1.1838690471e+000	 1.9609711701e-001	 2.9096502695e+000
 1.1819730430e+000	 2.0721902781e-001	 2.8768053271e+000
 1.1799664421e+000	 2.1835566291e-001	 2.8396256400e+000
 1.2200447631e+000	 1.1007168644e-001	 3.5011032527e+000
 1.2189843496e+000	 1.2125244490e-001	 3.4920973528e+000
 1.2178174853e+000	 1.3245970182e-001	 3.4787460591e+000
 1.2165432906e+000	 1.4369210877e-001	 3.4609485427e+000
 1.2151609057e+000	 1.5494829243e-001	 3.4386042463e+000
 1.2136694907e+000	 1.6622685494e-001	 3.4116129988e+000
 1.2120682268e+000	 1.7752637406e-001	 3.3798751333e+000
 1.2103563168e+000	 1.8884540359e-001	 3.3432916060e+000
 1.2085329856e+000	 2.0018247362e-001	 3.3017641181e+000
 1.2065974814e+000	 2.1153609089e-001	 3.2551952388e+000
 1.2045490763e+000	 2.2290473922e-001	 3.2034885303e+000
 1.2449436358e+000	 1.1231804739e-001	 4.0295764276e+000
 1.2438615812e+000	 1.2372698459e-001	 4.0125381561e+000
 1.2426709033e+000	 1.3516296104e-001	 3.9904615804e+000
 1.2413707047e+000	 1.4662460078e-001	 3.9632330807e+000
 1.2399601078e+000	 1.5811050249e-001	 3.9307397041e+000
 1.2384382558e+000	 1.6961923973e-001	 3.8928693032e+000
 1.2368043131e+000	 1.8114936129e-001	 3.8495106769e+000
 1.2350574661e+000	 1.9269939142e-001	 3.8005537128e+000
 1.2331969241e+000	 2.0426783022e-001	 3.7458895328e+000
 1.2312219198e+000	 2.1585315397e-001	 3.6854106391e+000
 1.2291317105e+000	 2.2745381553e-001	 3.6190110628e+000
 9.8330536841e-001	 1.8196305243e-001	 2.2205677479e+000
 9.8154046252e-001	 1.9125459577e-001	 2.3056465446e+000
 9.7968226449e-001	 2.0055587900e-001	 2.3905427059e+000
 9.7773024174e-001	 2.0986561017e-001	 2.4752618670e+000
 9.7568388343e-001	 2.1918248004e-001	 2.5598084056e+000
 9.7354270101e-001	 2.2850516241e-001	 2.6441854054e+000
 9.7130622879e-001	 2.3783231458e-001	 2.7283946193e+000
 9.6897402446e-001	 2.4716257779e-001	 2.8124364336e+000
 9.6654566967e-001	 2.5649457767e-001	 2.8963098326e+000
 9.6402077054e-001	 2.6582692472e-001	 2.9800123638e+000
 9.6139895816e-001	 2.7515821483e-001	 3.0635401043e+000
 1.0078880026e+000	 1.8651212874e-001	 2.0338486439e+000
 1.0060789741e+000	 1.9603596067e-001	 2.1095865254e+000
 1.0041743211e+000	 2.0556977597e-001	 2.1845131467e+000
 1.0021734978e+000	 2.1511225043e-001	 2.2586262292e+000
 1.0000759805e+000	 2.2466204205e-001	 2.3319226570e+000
 9.9788126854e-001	 2.3421779148e-001	 2.4043984575e+000
 9.9558888451e-001	 2.4377812245e-001	 2.4760487813e+000
 9.9319837507e-001	 2.5334164224e-001	 2.5468678832e+000
 9.9070931141e-001	 2.6290694212e-001	 2.6168491030e+000
 9.8812128980e-001	 2.7247259785e-001	 2.6859848468e+000
 9.8543393212e-001	 2.8203717021e-001	 2.7542665689e+000
 1.0324706368e+000	 1.9106120505e-001	 1.9329563359e+000
 1.0306174856e+000	 2.0081732556e-001	 1.9989091528e+000
 1.0286663777e+000	 2.1058367295e-001	 2.0634425120e+000
 1.0266167538e+000	 2.2035889069e-001	 2.1265465357e+000
 1.0244680776e+000	 2.3014160405e-001	 2.1882109250e+000
 1.0222198361e+000	 2.3993042054e-001	 2.2484249562e+000
 1.0198715402e+000	 2.4972393032e-001	 2.3071774783e+000
 1.0174227257e+000	 2.5952070669e-001	 2.3644569096e+000
 1.0148729532e+000	 2.6931930657e-001	 2.4202512348e+000
 1.0122218091e+000	 2.7911827098e-001	 2.4745480023e+000
 1.0094689061e+000	 2.8891612559e-001	 2.5273343214e+000
 1.0570532710e+000	 1.9561028136e-001	 1.9120864034e+000
 1.0551559972e+000	 2.0559869045e-001	 1.9678453026e+000
 1.0531584343e+000	 2.1559756992e-001	 2.0215950087e+000
 1.0510600099e+000	 2.2560553094e-001	 2.0733183281e+000
 1.0488601747e+000	 2.3562116605e-001	 2.1229980576e+000
 1.0465584036e+000	 2.4564304960e-001	 2.1706169982e+000
 1.0441541959e+000	 2.5566973819e-001	 2.2161579680e+000
 1.0416470763e+000	 2.6569977114e-001	 2.2596038154e+000
 1.0390365949e+000	 2.7573167102e-001	 2.3009374324e+000
 1.0363223283e+000	 2.8576394410e-001	 2.3401417671e+000
 1.0335038800e+000	 2.9579508097e-001	 2.3771998358e+000
 1.0816359052e+000	 2.0015935767e-001	 1.9659753295e+000
 1.0796945088e+000	 2.1038005535e-001	 2.0111640939e+000
 1.0776504909e+000	 2.2061146690e-001	 2.0537705917e+000
 1.0755032659e+000	 2.3085217120e-001	 2.0937705669e+000
 1.0732522718e+000	 2.4110072806e-001	 2.1311401628e+000
 1.0708969711e+000	 2.5135567866e-001	 2.1658559519e+000
 1.0684368517e+000	 2.6161554606e-001	 2.1978949657e+000
 1.0658714269e+000	 2.7187883559e-001	 2.2272347232e+000
 1.0632002366e+000	 2.8214403546e-001	 2.2538532606e+000
 1.0604228476e+000	 2.9240961722e-001	 2.2777291584e+000
 1.0575388540e+000	 3.0267403634e-001	 2.2988415693e+000
 1.1062185395e+000	 2.0470843398e-001	 2.0898404006e+000
 1.1042330203e+000	 2.1516142024e-001	 2.1241130848e+000
 1.1021425476e+000	 2.2562536387e-001	 2.1552454364e+000
 1.0999465220e+000	 2.3609881145e-001	 2.1832063632e+000
 1.0976443689e+000	 2.4658029006e-001	 2.2079655790e+000
 1.0952355386e+000	 2.5706830773e-001	 2.2294936494e+000
 1.0927195074e+000	 2.6756135392e-001	 2.2477620380e+000
 1.0900957775e+000	 2.7805790004e-001	 2.2627431510e+000
 1.0873638784e+000	 2.8855639991e-001	 2.2744103818e+000
 1.0845233669e+000	 2.9905529035e-001	 2.2827381540e+000
 1.0815738279e+000	 3.0955299172e-001	 2.2877019642e+000
 1.1308011737e+000	 2.0925751029e-001	 2.2793274452e+000
 1.1287715319e+000	 2.1994278513e-001	 2.3023662677e+000
 1.1266346042e+000	 2.3063926085e-001	 2.3217201753e+000
 1.1243897780e+000	 2.4134545170e-001	 2.3373514403e+000
 1.1220364660e+000	 2.5205985206e-001	 2.3492235462e+000
 1.1195741062e+000	 2.6278093679e-001	 2.3573012492e+000
 1.1170021631e+000	 2.7350716179e-001	 2.3615506409e+000
 1.1143201281e+000	 2.8423696448e-001	 2.3619392082e+000
 1.1115275201e+000	 2.9496876435e-001	 2.3584358934e+000
 1.1086238861e+000	 3.0570096347e-001	 2.3510111531e+000
 1.1056088019e+000	 3.1643194709e-001	 2.3396370147e+000
 1.1553838079e+000	 2.1380658660e-001	 2.5304652442e+000
 1.1533100435e+000	 2.2472415003e-001	 2.5419787044e+000
 1.1511266608e+000	 2.3565315782e-001	 2.5492747432e+000
 1.1488330341e+000	 2.4659209196e-001	 2.5523091749e+000
 1.1464285630e+000	 2.5753941406e-001	 2.5510394288e+000
 1.1439126737e+000	 2.6849356585e-001	 2.5454246272e+000
 1.1412848188e+000	 2.7945296965e-001	 2.5354256633e+000
 1.1385444787e+000	 2.9041602893e-001	 2.5210052775e+000
 1.1356911619e+000	 3.0138112879e-001	 2.5021281330e+000
 1.1327244054e+000	 3.1234663659e-001	 2.4787608888e+000
 1.1296437758e+000	 3.2331090246e-001	 2.4508722722e+000
 1.1799664421e+000	 2.1835566291e-001	 2.8396256400e+000
 1.1778485550e+000	 2.2950551492e-001	 2.8393468311e+000
 1.1756187174e+000	 2.4066705479e-001	 2.8343288665e+000
 1.1732762901e+000	 2.5183873221e-001	 2.8245212583e+000
 1.1708206601e+000	 2.6301897606e-001	 2.8098755364e+000
 1.1682512412e+000	 2.7420619490e-001	 2.7903453431e+000
 1.1655674746e+000	 2.8539877752e-001	 2.7658865275e+000
 1.1627688294e+000	 2.9659509337e-001	 2.7364572367e+000
 1.1598548036e+000	 3.0779349323e-001	 2.7020180068e+000
 1.1568249247e+000	 3.1899230970e-001	 2.6625318517e+000
 1.1536787498e+000	 3.3018985783e-001	 2.6179643496e+000
 1.2045490763e+000	 2.2290473922e-001	 3.2034885303e+000
 1.2023870666e+000	 2.3428687981e-001	 3.1911736241e+000
 1.2001107740e+000	 2.4568095177e-001	 3.1736073909e+000
 1.1977195461e+000	 2.5708537246e-001	 3.1507331747e+000
 1.1952127572e+000	 2.6849853806e-001	 3.1224967412e+000
 1.1925898088e+000	 2.7991882396e-001	 3.0888463878e+000
 1.1898501303e+000	 2.9134458538e-001	 3.0497330538e+000
 1.1869931800e+000	 3.0277415782e-001	 3.0051104280e+000
 1.1840184454e+000	 3.1420585767e-001	 2.9549350546e+000
 1.1809254439e+000	 3.2563798282e-001	 2.8991664371e+000
 1.1777137238e+000	 3.3706881320e-001	 2.8377671394e+000
 1.2291317105e+000	 2.2745381553e-001	 3.6190110628e+000
 1.2269255782e+000	 2.3906824470e-001	 3.5944379462e+000
 1.2246028306e+000	 2.5069484874e-001	 3.5641097686e+000
 1.2221628022e+000	 2.6233201271e-001	 3.5279638216e+000
 1.2196048543e+000	 2.7397810005e-001	 3.4859402221e+000
 1.2169283763e+000	 2.8563145302e-001	 3.4379820392e+000
 1.2141327860e+000	 2.9729039324e-001	 3.3840354199e+000
 1.2112175306e+000	 3.0895322226e-001	 3.3240497121e+000
 1.2081820871e+000	 3.2061822211e-001	 3.2579775864e+000
 1.2050259632e+000	 3.3228365593e-001	 3.1857751546e+000
 1.2017486977e+000	 3.4394776857e-001	 3.1074020861e+000
 9.6139895816e-001	 2.7515821483e-001	 3.0635401043e+000
 9.5867988915e-001	 2.8448702975e-001	 3.1607066509e+000
 9.5586324609e-001	 2.9381193769e-001	 3.2576648819e+000
 9.5294873809e-001	 3.0313149381e-001	 3.3544823623e+000
 9.4993610118e-001	 3.1244424085e-001	 3.4512262955e+000
 9.4682509884e-001	 3.2174870969e-001	 3.5479634342e+000
 9.4361552239e-001	 3.3104341994e-001	 3.6447599916e+000
 9.4030719147e-001	 3.4032688062e-001	 3.7416815491e+000
 9.3689995439e-001	 3.4959759075e-001	 3.8387929643e+000
 9.3339368862e-001	 3.5885404004e-001	 3.9361582765e+000
 9.2978830108e-001	 3.6809470955e-001	 4.0338406117e+000
 9.8543393212e-001	 2.8203717021e-001	 2.7542665689e+000
 9.8264688638e-001	 2.9159920551e-001	 2.8418896827e+000
 9.7975982724e-001	 3.0115723614e-001	 2.9281575042e+000
 9.7677245654e-001	 3.1070978117e-001	 3.0131281699e+000
 9.7368450371e-001	 3.2025534689e-001	 3.0968603834e+000
 9.7049572631e-001	 3.2979242744e-001	 3.1794133514e+000
 9.6720591045e-001	 3.3931950545e-001	 3.2608467190e+000
 9.6381487125e-001	 3.4883505265e-001	 3.3412205009e+000
 9.6032245325e-001	 3.5833753053e-001	 3.4205950117e+000
 9.5672853083e-001	 3.6782539105e-001	 3.4990307929e+000
 9.5303300860e-001	 3.7729707730e-001	 3.5765885382e+000
 1.0094689061e+000	 2.8891612559e-001	 2.5273343214e+000
 1.0066138836e+000	 2.9871138126e-001	 2.6048266112e+000
 1.0036564084e+000	 3.0850253459e-001	 2.6798617349e+000
 1.0005961750e+000	 3.1828806852e-001	 2.7524889675e+000
 9.9743290624e-001	 3.2806645292e-001	 2.8227590626e+000
 9.9416635378e-001	 3.3783614519e-001	 2.8907242137e+000
 9.9079629851e-001	 3.4759559096e-001	 2.9564380118e+000
 9.8732255103e-001	 3.5734322467e-001	 3.0199554007e+000
 9.8374495210e-001	 3.6707747030e-001	 3.0813326280e+000
 9.8006337304e-001	 3.7679674206e-001	 3.1406271937e+000
 9.7627771612e-001	 3.8649944504e-001	 3.1978977948e+000
 1.0335038800e+000	 2.9579508097e-001	 2.3771998358e+000
 1.0305808808e+000	 3.0582355701e-001	 2.4440134200e+000
 1.0275529895e+000	 3.1584783304e-001	 2.5073093071e+000
 1.0244198934e+000	 3.2586635588e-001	 2.5671284337e+000
 1.0211813088e+000	 3.3587755895e-001	 2.6235141121e+000
 1.0178369812e+000	 3.4587986295e-001	 2.6765120149e+000
 1.0143866866e+000	 3.5587167647e-001	 2.7261701566e+000
 1.0108302308e+000	 3.6585139669e-001	 2.7725388697e+000
 1.0071674510e+000	 3.7581741008e-001	 2.8156707782e+000
 1.0033982153e+000	 3.8576809306e-001	 2.8556207656e+000
 9.9952242364e-001	 3.9570181278e-001	 2.8924459392e+000
 1.0575388540e+000	 3.0267403634e-001	 2.2988415693e+000
 1.0545478781e+000	 3.1293573276e-001	 2.3544648729e+000
 1.0514495707e+000	 3.2319313149e-001	 2.4055478542e+000
 1.0482436119e+000	 3.3344464323e-001	 2.4521235952e+000
 1.0449297113e+000	 3.4368866498e-001	 2.4942284373e+000
 1.0415076087e+000	 3.5392358070e-001	 2.5319019891e+000
 1.0379770746e+000	 3.6414776197e-001	 2.5651871306e+000
 1.0343379106e+000	 3.7435956871e-001	 2.5941300113e+000
 1.0305899498e+000	 3.8455734985e-001	 2.6187800438e+000
 1.0267330575e+000	 3.9473944407e-001	 2.6391898920e+000
 1.0227671312e+000	 4.0490418052e-001	 2.6554154541e+000
 1.0815738279e+000	 3.0955299172e-001	 2.2877019642e+000
 1.0785148753e+000	 3.2004790851e-001	 2.3316568712e+000
 1.0753461519e+000	 3.3053842994e-001	 2.3700835877e+000
 1.0720673303e+000	 3.4102293058e-001	 2.4030077884e+000
 1.0686781138e+000	 3.5149977101e-001	 2.4304592791e+000
 1.0651782362e+000	 3.6196729844e-001	 2.4524720282e+000
 1.0615674627e+000	 3.7242384748e-001	 2.4690841921e+000
 1.0578455904e+000	 3.8286774073e-001	 2.4803381352e+000
 1.0540124487e+000	 3.9329728963e-001	 2.4862804432e+000
 1.0500678997e+000	 4.0371079507e-001	 2.4869619315e+000
 1.0460118387e+000	 4.1410654826e-001	 2.4824376453e+000
 1.1056088019e+000	 3.1643194709e-001	 2.3396370147e+000
 1.1024818725e+000	 3.2716008426e-001	 2.3714763298e+000
 1.0992427330e+000	 3.3788372839e-001	 2.3968314514e+000
 1.0958910488e+000	 3.4860121793e-001	 2.4157210600e+000
 1.0924265164e+000	 3.5931087703e-001	 2.4281688293e+000
 1.0888488637e+000	 3.7001101619e-001	 2.4342034802e+000
 1.0851578507e+000	 3.8069993298e-001	 2.4338588277e+000
 1.0813532702e+000	 3.9137591275e-001	 2.4271738216e+000
 1.0774349475e+000	 4.0203722940e-001	 2.4141925799e+000
 1.0734027419e+000	 4.1268214607e-001	 2.3949644157e+000
 1.0692565462e+000	 4.2330891600e-001	 2.3695438558e+000
 1.1296437758e+000	 3.2331090246e-001	 2.4508722722e+000
 1.1264488698e+000	 3.3427226000e-001	 2.4701774533e+000
 1.1231393142e+000	 3.4522902683e-001	 2.4820716397e+000
 1.1197147673e+000	 3.5617950528e-001	 2.4865669002e+000
 1.1161749189e+000	 3.6712198306e-001	 2.4836811505e+000
 1.1125194911e+000	 3.7805473393e-001	 2.4734382283e+000
 1.1087482388e+000	 3.8897601848e-001	 2.4558679624e+000
 1.1048609500e+000	 3.9988408477e-001	 2.4310062334e+000
 1.1008574464e+000	 4.1077716917e-001	 2.3988950268e+000
 1.0967375841e+000	 4.2165349708e-001	 2.3595824781e+000
 1.0925012537e+000	 4.3251128374e-001	 2.3131229093e+000
 1.1536787498e+000	 3.3018985783e-001	 2.6179643496e+000
 1.1504158670e+000	 3.4138443575e-001	 2.6243434756e+000
 1.1470358953e+000	 3.5257432527e-001	 2.6224115502e+000
 1.1435384857e+000	 3.6375779263e-001	 2.6121743843e+000
 1.1399233214e+000	 3.7493308908e-001	 2.5936444815e+000
 1.1361901186e+000	 3.8609845168e-001	 2.5668411351e+000
 1.1323386269e+000	 3.9725210398e-001	 2.5317905180e+000
 1.1283686297e+000	 4.0839225679e-001	 2.4885257635e+000
 1.1242799453e+000	 4.1951710894e-001	 2.4370870380e+000
 1.1200724263e+000	 4.3062484808e-001	 2.3775216035e+000
 1.1157459613e+000	 4.4171365148e-001	 2.3098838722e+000
 1.1777137238e+000	 3.3706881320e-001	 2.8377671394e+000
 1.1743828642e+000	 3.4849661149e-001	 2.8308530861e+000
 1.1709324765e+000	 3.5991962372e-001	 2.8147523960e+000
 1.1673622042e+000	 3.7133607997e-001	 2.7894649493e+000
 1.1636717239e+000	 3.8274419510e-001	 2.7549981580e+000
 1.1598607461e+000	 3.9414216942e-001	 2.7113670854e+000
 1.1559290149e+000	 4.0552818948e-001	 2.6585945560e+000
 1.1518763095e+000	 4.1690042880e-001	 2.5967112563e+000
 1.1477024441e+000	 4.2825704871e-001	 2.5257558261e+000
 1.1434072685e+000	 4.3959619908e-001	 2.4457749394e+000
 1.1389906688e+000	 4.5091601922e-001	 2.3568233757e+000
 1.2017486977e+000	 3.4394776857e-001	 3.1074020861e+000
 1.1983498614e+000	 3.5560878723e-001	 3.0868508839e+000
 1.1948290576e+000	 3.6726492216e-001	 3.0562598240e+000
 1.1911859226e+000	 3.7891436731e-001	 3.0156231577e+000
 1.1874201265e+000	 3.9055530112e-001	 2.9649435028e+000
 1.1835313736e+000	 4.0218588716e-001	 2.9042319844e+000
 1.1795194030e+000	 4.1380427497e-001	 2.8335083643e+000
 1.1753839893e+000	 4.2540860082e-001	 2.7528011625e+000
 1.1711249430e+000	 4.3699698847e-001	 2.6621477664e+000
 1.1667421108e+000	 4.4856755008e-001	 2.5615945297e+000
 1.1622353763e+000	 4.6011838696e-001	 2.4511968599e+000
 9.2978830108e-001	 3.6809470955e-001	 4.0338406117e+000
 9.2608372854e-001	 3.7731807239e-001	 4.1441217037e+000
 9.2227993800e-001	 3.8652259441e-001	 4.2478639490e+000
 9.1837692696e-001	 3.9570673493e-001	 4.3451753165e+000
 9.1437472374e-001	 4.0486894748e-001	 4.4361695982e+000
 9.1027338778e-001	 4.1400768054e-001	 4.5209663453e+000
 9.0607300991e-001	 4.2312137829e-001	 4.5996907957e+000
 9.0177371256e-001	 4.3220848139e-001	 4.6724737917e+000
 8.9737565002e-001	 4.4126742776e-001	 4.7394516892e+000
 8.9287900861e-001	 4.5029665337e-001	 4.8007662570e+000
 8.8828400685e-001	 4.5929459305e-001	 4.8565645668e+000
 9.5303300860e-001	 3.7729707730e-001	 3.5765885382e+000
 9.4923582175e-001	 3.8675102420e-001	 3.6731677271e+000
 9.4533693645e-001	 3.9618565927e-001	 3.7634010493e+000
 9.4133635013e-001	 4.0559940330e-001	 3.8474025158e+000
 9.3723409182e-001	 4.1499067117e-001	 3.9252919668e+000
 9.3303022247e-001	 4.2435787255e-001	 3.9971950039e+000
 9.2872483515e-001	 4.3369941274e-001	 4.0632429123e+000
 9.2431805537e-001	 4.4301369342e-001	 4.1235725736e+000
 9.1981004127e-001	 4.5229911345e-001	 4.1783263702e+000
 9.1520098382e-001	 4.6155406970e-001	 4.2276520788e+000
 9.1049110702e-001	 4.7077695788e-001	 4.2717027556e+000
 9.7627771612e-001	 3.8649944504e-001	 3.1978977948e+000
 9.7238791496e-001	 3.9618397601e-001	 3.2804126295e+000
 9.6839393489e-001	 4.0584872413e-001	 3.3567585838e+000
 9.6429577330e-001	 4.1549207167e-001	 3.4270558305e+000
 9.6009345991e-001	 4.2511239485e-001	 3.4914303937e+000
 9.5578705716e-001	 4.3470806456e-001	 3.5500140765e+000
 9.5137666039e-001	 4.4427744720e-001	 3.6029443782e+000
 9.4686239818e-001	 4.5381890545e-001	 3.6503644032e+000
 9.4224443251e-001	 4.6333079914e-001	 3.6924227588e+000
 9.3752295903e-001	 4.7281148603e-001	 3.7292734447e+000
 9.3269820719e-001	 4.8225932270e-001	 3.7610757321e+000
 9.9952242364e-001	 3.9570181278e-001	 2.8924459392e+000
 9.9554000817e-001	 4.0561692782e-001	 2.9605515645e+000
 9.9145093334e-001	 4.1551178899e-001	 3.0226498009e+000
 9.8725519647e-001	 4.2538474004e-001	 3.0788670981e+000
 9.8295282800e-001	 4.3523411854e-001	 3.1293357952e+000
 9.7854389185e-001	 4.4505825657e-001	 3.1741940432e+000
 9.7402848564e-001	 4.5485548165e-001	 3.2135857182e+000
 9.6940674099e-001	 4.6462411748e-001	 3.2476603248e+000
 9.6467882376e-001	 4.7436248483e-001	 3.2765728891e+000
 9.5984493424e-001	 4.8406890236e-001	 3.3004838429e+000
 9.5490530736e-001	 4.9374168753e-001	 3.3195588977e+000
 1.0227671312e+000	 4.0490418052e-001	 2.6554154541e+000
 1.0186921014e+000	 4.1504987963e-001	 2.7087832088e+000
 1.0145079318e+000	 4.2517485385e-001	 2.7562900035e+000
 1.0102146196e+000	 4.3527740842e-001	 2.7980686770e+000
 1.0058121961e+000	 4.4535584222e-001	 2.8342580100e+000
 1.0013007265e+000	 4.5540844858e-001	 2.8650026440e+000
 9.9668031088e-001	 4.6543351611e-001	 2.8904529895e+000
 9.9195108380e-001	 4.7542932951e-001	 2.9107651245e+000
 9.8711321501e-001	 4.8539417052e-001	 2.9261006831e+000
 9.8216690946e-001	 4.9532631870e-001	 2.9366267335e+000
 9.7711240753e-001	 5.0522405235e-001	 2.9425156467e+000
 1.0460118387e+000	 4.1410654826e-001	 2.4824376453e+000
 1.0418441946e+000	 4.2448283144e-001	 2.5207538144e+000
 1.0375649302e+000	 4.3483791871e-001	 2.5533407651e+000
 1.0331740428e+000	 4.4517007679e-001	 2.5803378330e+000
 1.0286715642e+000	 4.5547756591e-001	 2.6018903637e+000
 1.0240575612e+000	 4.6575864059e-001	 2.6181496274e+000
 1.0193321361e+000	 4.7601155056e-001	 2.6292727227e+000
 1.0144954266e+000	 4.8623454155e-001	 2.6354224705e+000
 1.0095476063e+000	 4.9642585621e-001	 2.6367672968e+000
 1.0044888847e+000	 5.0658373503e-001	 2.6334811063e+000
 9.9931950770e-001	 5.1670641718e-001	 2.6257431449e+000
 1.0692565462e+000	 4.2330891600e-001	 2.3695438558e+000
 1.0649962878e+000	 4.3391578325e-001	 2.3925085598e+000
 1.0606219287e+000	 4.4450098357e-001	 2.4098614223e+000
 1.0561334660e+000	 4.5506274516e-001	 2.4217483801e+000
 1.0515309323e+000	 4.6559928959e-001	 2.4283214634e+000
 1.0468143959e+000	 4.7610883261e-001	 2.4297387060e+000
 1.0419839614e+000	 4.8658958502e-001	 2.4261640446e+000
 1.0370397694e+000	 4.9703975358e-001	 2.4177672078e+000
 1.0319819975e+000	 5.0745754190e-001	 2.4047235945e+000
 1.0268108599e+000	 5.1784115136e-001	 2.3872141413e+000
 1.0215266079e+000	 5.2818878200e-001	 2.3654251801e+000
 1.0925012537e+000	 4.3251128374e-001	 2.3131229093e+000
 1.0881483810e+000	 4.4334873506e-001	 2.3204491106e+000
 1.0836789271e+000	 4.5416404842e-001	 2.3222667591e+000
 1.0790928892e+000	 4.6495541353e-001	 2.3187284942e+000
 1.0743903004e+000	 4.7572101328e-001	 2.3099931469e+000
 1.0695712306e+000	 4.8645902462e-001	 2.2962256457e+000
 1.0646357866e+000	 4.9716761947e-001	 2.2775969121e+000
 1.0595841122e+000	 5.0784496561e-001	 2.2542837442e+000
 1.0544163888e+000	 5.1848922760e-001	 2.2264686903e+000
 1.0491328351e+000	 5.2909856769e-001	 2.1943399114e+000
 1.0437337080e+000	 5.3967114683e-001	 2.1580910326e+000
 1.1157459613e+000	 4.4171365148e-001	 2.3098838722e+000
 1.1113004742e+000	 4.5278168687e-001	 2.3012964856e+000
 1.1067359256e+000	 4.6382711328e-001	 2.2872899818e+000
 1.1020523123e+000	 4.7484808190e-001	 2.2680238007e+000
 1.0972496685e+000	 4.8584273696e-001	 2.2436636873e+000
 1.0923280653e+000	 4.9680921663e-001	 2.2143815932e+000
 1.0872876119e+000	 5.0774565393e-001	 2.1803555678e+000
 1.0821284551e+000	 5.1865017764e-001	 2.1417696371e+000
 1.0768507800e+000	 5.2952091329e-001	 2.0988136726e+000
 1.0714548103e+000	 5.4035598403e-001	 2.0516832482e+000
 1.0659408082e+000	 5.5115351165e-001	 2.0005794860e+000
 1.1389906688e+000	 4.5091601922e-001	 2.3568233757e+000
 1.1344525674e+000	 4.6221463868e-001	 2.3320584696e+000
 1.1297929240e+000	 4.7349017814e-001	 2.3019502262e+000
 1.1250117355e+000	 4.8474075028e-001	 2.2666649813e+000
 1.1201090366e+000	 4.9596446065e-001	 2.2263755040e+000
 1.1150849000e+000	 5.0715940864e-001	 2.1812608944e+000
 1.1099394371e+000	 5.1832368838e-001	 2.1315064698e+000
 1.1046727979e+000	 5.2945538968e-001	 2.0773036398e+000
 1.0992851713e+000	 5.4055259898e-001	 2.0188497695e+000
 1.0937767855e+000	 5.5161340036e-001	 1.9563480314e+000
 1.0881479084e+000	 5.6263587648e-001	 1.8900072455e+000
 1.1622353763e+000	 4.6011838696e-001	 2.4511968599e+000
 1.1576046607e+000	 4.7164759049e-001	 2.4100009372e+000
 1.1528499225e+000	 4.8315324300e-001	 2.3635239653e+000
 1.1479711587e+000	 4.9463341865e-001	 2.3119392688e+000
 1.1429684047e+000	 5.0608618433e-001	 2.2554267482e+000
 1.1378417347e+000	 5.1750960065e-001	 2.1941727744e+000
 1.1325912624e+000	 5.2890172284e-001	 2.1283700704e+000
 1.1272171407e+000	 5.4026060171e-001	 2.0582175818e+000
 1.1217195625e+000	 5.5158428467e-001	 1.9839203351e+000
 1.1160987607e+000	 5.6287081669e-001	 1.9056892844e+000
 1.1103550086e+000	 5.7411824131e-001	 1.8237411455e+000
 8.8828400685e-001	 4.5929459305e-001	 4.8565645668e+000
 8.8359089566e-001	 4.6825968131e-001	 4.9290515042e+000
 8.7879995843e-001	 4.7719035311e-001	 5.0001749961e+000
 8.7391151114e-001	 4.8608504475e-001	 5.0701787273e+000
 8.6892590245e-001	 4.9494219467e-001	 5.1393084019e+000
 8.6384351377e-001	 5.0376024430e-001	 5.2078114777e+000
 8.5866475923e-001	 5.1253763888e-001	 5.2759368941e+000
 8.5339008574e-001	 5.2127282835e-001	 5.3439347950e+000
 8.4801997294e-001	 5.2996426816e-001	 5.4120562463e+000
 8.4255493313e-001	 5.3861042014e-001	 5.4805529478e+000
 8.3699551125e-001	 5.4720975336e-001	 5.5496769421e+000
 9.1049110702e-001	 4.7077695788e-001	 4.2717027556e+000
 9.0568066805e-001	 4.7996617334e-001	 4.3371091844e+000
 9.0076995739e-001	 4.8912011194e-001	 4.3995307268e+000
 8.9575929892e-001	 4.9823717087e-001	 4.4592009961e+000
 8.9064905002e-001	 5.0731574954e-001	 4.5163571906e+000
 8.8543960162e-001	 5.1635425041e-001	 4.5712398531e+000
 8.8013137822e-001	 5.2535107986e-001	 4.6240926213e+000
 8.7472483789e-001	 5.3430464906e-001	 4.6751619709e+000
 8.6922047226e-001	 5.4321337486e-001	 4.7246969514e+000
 8.6361880646e-001	 5.5207568064e-001	 4.7729489147e+000
 8.5792039903e-001	 5.6088999720e-001	 4.8201712377e+000
 9.3269820719e-001	 4.8225932270e-001	 3.7610757321e+000
 9.2777044045e-001	 4.9167266537e-001	 3.8181259074e+000
 9.2273995635e-001	 5.0104987077e-001	 3.8706440001e+000
 9.1760708670e-001	 5.1038929699e-001	 3.9188545400e+000
 9.1237219758e-001	 5.1968930441e-001	 3.9629871725e+000
 9.0703568946e-001	 5.2894825652e-001	 4.0032764414e+000
 9.0159799720e-001	 5.3816452084e-001	 4.0399615600e+000
 8.9605959003e-001	 5.4733646978e-001	 4.0732861742e+000
 8.9042097158e-001	 5.5646248157e-001	 4.1034981154e+000
 8.8468267979e-001	 5.6554094115e-001	 4.1308491441e+000
 8.7884528681e-001	 5.7457024104e-001	 4.1555946858e+000
 9.5490530736e-001	 4.9374168753e-001	 3.3195588977e+000
 9.4986021284e-001	 5.0337915740e-001	 3.3670525090e+000
 9.4470995531e-001	 5.1297962959e-001	 3.4085353701e+000
 9.3945487447e-001	 5.2254142311e-001	 3.4442238598e+000
 9.3409534514e-001	 5.3206285928e-001	 3.4743409711e+000
 9.2863177731e-001	 5.4154226263e-001	 3.4991161151e+000
 9.2306461618e-001	 5.5097796181e-001	 3.5187849130e+000
 9.1739434218e-001	 5.6036829049e-001	 3.5335889773e+000
 9.1162147091e-001	 5.6971158828e-001	 3.5437756808e+000
 9.0574655311e-001	 5.7900620166e-001	 3.5495979147e+000
 8.9977017459e-001	 5.8825048487e-001	 3.5513138362e+000
 9.7711240753e-001	 5.0522405235e-001	 2.9425156467e+000
 9.7194998523e-001	 5.1508564944e-001	 2.9793209530e+000
 9.6667995427e-001	 5.2490938842e-001	 3.0087001538e+000
 9.6130266225e-001	 5.3469354923e-001	 3.0308623591e+000
 9.5581849270e-001	 5.4443641415e-001	 3.0460247617e+000
 9.5022786515e-001	 5.5413626874e-001	 3.0544124622e+000
 9.4453123516e-001	 5.6379140279e-001	 3.0562582807e+000
 9.3872909432e-001	 5.7340011120e-001	 3.0518025546e+000
 9.3282197023e-001	 5.8296069499e-001	 3.0412929230e+000
 9.2681042644e-001	 5.9247146216e-001	 3.0249840986e+000
 9.2069506237e-001	 6.0193072871e-001	 3.0031376260e+000
 9.9931950770e-001	 5.1670641718e-001	 2.6257431449e+000
 9.9403975762e-001	 5.2679214147e-001	 2.6507908730e+000
 9.8864995323e-001	 5.3683914725e-001	 2.6670556804e+000
 9.8315045003e-001	 5.4684567535e-001	 2.6747402440e+000
 9.7754164026e-001	 5.5680996902e-001	 2.6740567658e+000
 9.7182395300e-001	 5.6673027485e-001	 2.6652268178e+000
 9.6599785414e-001	 5.7660484376e-001	 2.6484811721e+000
 9.6006384646e-001	 5.8643193191e-001	 2.6240596151e+000
 9.5402246955e-001	 5.9620980169e-001	 2.5922107463e+000
 9.4787429977e-001	 6.0593672267e-001	 2.5531917621e+000
 9.4161995015e-001	 6.1561097254e-001	 2.5072682249e+000
 1.0215266079e+000	 5.2818878200e-001	 2.3654251801e+000
 1.0161295300e+000	 5.3849863350e-001	 2.3777030861e+000
 1.0106199522e+000	 5.4876890608e-001	 2.3798954197e+000
 1.0049982378e+000	 5.5899780147e-001	 2.3721992184e+000
 9.9926478782e-001	 5.6918352389e-001	 2.3548224634e+000
 9.9342004084e-001	 5.7932428096e-001	 2.3279839432e+000
 9.8746447312e-001	 5.8941828473e-001	 2.2919131017e+000
 9.8139859860e-001	 5.9946375262e-001	 2.2468498668e+000
 9.7522296887e-001	 6.0945890840e-001	 2.1930444638e+000
 9.6893817309e-001	 6.1940198317e-001	 2.1307572098e+000
 9.6254483793e-001	 6.2929121638e-001	 2.0944740435e+000
 1.0437337080e+000	 5.3967114683e-001	 2.1580910326e+000
 1.0382193024e+000	 5.5020512553e-001	 2.1566390419e+000
 1.0325899511e+000	 5.6069866491e-001	 2.1438489674e+000
 1.0268460256e+000	 5.7114992759e-001	 2.1199129630e+000
 1.0209879354e+000	 5.8155707876e-001	 2.0850355230e+000
 1.0150161287e+000	 5.9191828707e-001	 2.0394333644e+000
 1.0089310921e+000	 6.0223172571e-001	 1.9833352910e+000
 1.0027333507e+000	 6.1249557333e-001	 1.9169820374e+000
 9.9642346820e-001	 6.2270801510e-001	 1.8406260938e+000
 9.9000204642e-001	 6.3286724368e-001	 1.8158178351e+000
 9.8346972570e-001	 6.4297146022e-001	 1.8017504608e+000
 1.0659408082e+000	 5.5115351165e-001	 2.0005794860e+000
 1.0603090748e+000	 5.6191161756e-001	 1.9844853397e+000
 1.0545599501e+000	 5.7262842373e-001	 1.9558470323e+000
 1.0486938134e+000	 5.8330205371e-001	 1.9148525545e+000
 1.0427110829e+000	 5.9393063362e-001	 1.8617036153e+000
 1.0366122165e+000	 6.0451229318e-001	 1.7966155416e+000
 1.0303977111e+000	 6.1504516668e-001	 1.7198171578e+000
 1.0240681029e+000	 6.2552739404e-001	 1.6354481965e+000
 1.0176239675e+000	 6.3595712181e-001	 1.6150519329e+000
 1.0110659197e+000	 6.4633250419e-001	 1.5869622876e+000
 1.0043946135e+000	 6.5665170405e-001	 1.5511989063e+000
 1.0881479084e+000	 5.6263587648e-001	 1.8900072455e+000
 1.0823988472e+000	 5.7361810960e-001	 1.8584025908e+000
 1.0765299491e+000	 5.8455818256e-001	 1.8130907098e+000
 1.0705416011e+000	 5.9545417983e-001	 1.7542561189e+000
 1.0644342305e+000	 6.0630418849e-001	 1.6820984131e+000
 1.0582083044e+000	 6.1710629929e-001	 1.5968321828e+000
 1.0518643301e+000	 6.2785860765e-001	 1.5190266336e+000
 1.0454028550e+000	 6.3855921475e-001	 1.4871709273e+000
 1.0388244668e+000	 6.4920622851e-001	 1.4467689891e+000
 1.0321297931e+000	 6.5979776469e-001	 1.3978209553e+000
 1.0253195013e+000	 6.7033194789e-001	 1.3403321610e+000
 1.1103550086e+000	 5.7411824131e-001	 1.8237411455e+000
 1.1044886196e+000	 5.8532460163e-001	 1.7757980173e+000
 1.0984999480e+000	 5.9648794139e-001	 1.7130244438e+000
 1.0923893889e+000	 6.0760630594e-001	 1.6356021266e+000
 1.0861573781e+000	 6.1867774335e-001	 1.5437291908e+000
 1.0798043922e+000	 6.2970030539e-001	 1.4695908853e+000
 1.0733309490e+000	 6.4067204862e-001	 1.4276913599e+000
 1.0667376072e+000	 6.5159103546e-001	 1.3764897825e+000
 1.0600249662e+000	 6.6245533522e-001	 1.3159649845e+000
 1.0531936664e+000	 6.7326302520e-001	 1.2461014812e+000
 1.0462443890e+000	 6.8401219173e-001	 1.1668897594e+000
 8.3699551125e-001	 5.4720975336e-001	 5.5496769421e+000
 8.3134228471e-001	 5.5576074499e-001	 5.5991050522e+000
 8.2559586333e-001	 5.6426188112e-001	 5.6330005422e+000
 8.1975688910e-001	 5.7271165764e-001	 5.6515657618e+000
 8.1382603608e-001	 5.8110858109e-001	 5.6550176790e+000
 8.0780401013e-001	 5.8945116950e-001	 5.6435877083e+000
 8.0169154872e-001	 5.9773795322e-001	 5.6175215200e+000
 7.9548942062e-001	 6.0596747576e-001	 5.5770788264e+000
 7.8919842564e-001	 6.1413829464e-001	 5.5225331488e+000
 7.8281939432e-001	 6.2224898220e-001	 5.4541715635e+000
 7.7635318757e-001	 6.3029812637e-001	 5.4176629852e+000
 8.5792039903e-001	 5.6088999720e-001	 4.8201712377e+000
 8.5212584183e-001	 5.6965476362e-001	 4.8461204806e+000
 8.4623575991e-001	 5.7836842815e-001	 4.8584862691e+000
 8.4025081132e-001	 5.8702944908e-001	 4.8574824521e+000
 8.3417168698e-001	 5.9563629562e-001	 4.8433360172e+000
 8.2799911038e-001	 6.0418744874e-001	 4.8162869010e+000
 8.2173383744e-001	 6.1268140204e-001	 4.7765877797e+000
 8.1537665613e-001	 6.2111666265e-001	 4.7245038410e+000
 8.0892838628e-001	 6.2949175201e-001	 4.6988186097e+000
 8.0238987918e-001	 6.3780520675e-001	 4.6943913377e+000
 7.9576201726e-001	 6.4605557953e-001	 4.6781747331e+000
 8.7884528681e-001	 5.7457024104e-001	 4.1555946858e+000
 8.7290939895e-001	 5.8354878224e-001	 4.1573834335e+000
 8.6687565649e-001	 5.9247497517e-001	 4.1474486761e+000
 8.6074473355e-001	 6.0134724052e-001	 4.1260160073e+000
 8.5451733788e-001	 6.1016401015e-001	 4.0933227423e+000
 8.4819421063e-001	 6.1892372797e-001	 4.0496177091e+000
 8.4177612615e-001	 6.2762485087e-001	 4.0175426246e+000
 8.3526389165e-001	 6.3626584955e-001	 4.0268131377e+000
 8.2865834692e-001	 6.4484520937e-001	 4.0260331410e+000
 8.2196036404e-001	 6.5336143130e-001	 4.0153023805e+000
 8.1517084695e-001	 6.6181303269e-001	 3.9947287669e+000
 8.9977017459e-001	 5.8825048487e-001	 3.5513138362e+000
 8.9369295606e-001	 5.9744280087e-001	 3.5282897752e+000
 8.8751555307e-001	 6.0658152220e-001	 3.4953187991e+000
 8.8123865577e-001	 6.1566503196e-001	 3.4526384955e+000
 8.7486298878e-001	 6.2469172467e-001	 3.4004968156e+000
 8.6838931088e-001	 6.3366000721e-001	 3.4126812487e+000
 8.6181841487e-001	 6.4256829971e-001	 3.4191580518e+000
 8.5515112716e-001	 6.5141503644e-001	 3.4174042991e+000
 8.4838830756e-001	 6.6019866674e-001	 3.4074992018e+000
 8.4153084889e-001	 6.6891765586e-001	 3.3895284136e+000
 8.3457967664e-001	 6.7757048585e-001	 3.3635841253e+000
 9.2069506237e-001	 6.0193072871e-001	 3.0031376260e+000
 9.1447651318e-001	 6.1133681950e-001	 2.9546748926e+000
 9.0815544965e-001	 6.2068806923e-001	 2.8979637808e+000
 9.0173257800e-001	 6.2998282341e-001	 2.8748258062e+000
 8.9520863967e-001	 6.3921943920e-001	 2.8806930010e+000
 8.8858441113e-001	 6.4839628645e-001	 2.8800524319e+000
 8.8186070358e-001	 6.5751174854e-001	 2.8729610259e+000
 8.7503836267e-001	 6.6656422333e-001	 2.8594803022e+000
 8.6811826820e-001	 6.7555212411e-001	 2.8396764977e+000
 8.6110133375e-001	 6.8447388041e-001	 2.8136206871e+000
 8.5398850633e-001	 6.9332793901e-001	 2.7813888992e+000
 9.4161995015e-001	 6.1561097254e-001	 2.5072682249e+000
 9.3526007029e-001	 6.2523083812e-001	 2.4346405178e+000
 9.2879534623e-001	 6.3479461626e-001	 2.4323393660e+000
 9.2222650022e-001	 6.4430061485e-001	 2.4252438363e+000
 9.1555429057e-001	 6.5374715373e-001	 2.4133949535e+000
 9.0877951138e-001	 6.6313256569e-001	 2.3968364421e+000
 9.0190299230e-001	 6.7245519737e-001	 2.3756148718e+000
 8.9492559818e-001	 6.8171341023e-001	 2.3497798014e+000
 8.8784822884e-001	 6.9090558147e-001	 2.3193839221e+000
 8.8067181861e-001	 7.0003010497e-001	 2.2844831976e+000
 8.7339733601e-001	 7.0908539217e-001	 2.2451370037e+000
 9.6254483793e-001	 6.2929121638e-001	 2.0944740435e+000
 9.5604362741e-001	 6.3912485675e-001	 2.0736474969e+000
 9.4943524281e-001	 6.4890116329e-001	 2.0497501994e+000
 9.4272042245e-001	 6.5861840629e-001	 2.0228143858e+000
 9.3589994147e-001	 6.6827486826e-001	 1.9928732314e+000
 9.2897461163e-001	 6.7786884493e-001	 1.9599610094e+000
 9.2194528101e-001	 6.8739864620e-001	 1.9241132514e+000
 9.1481283370e-001	 6.9686259713e-001	 1.8853669086e+000
 9.0757818948e-001	 7.0625903884e-001	 1.8437605141e+000
 9.0024230346e-001	 7.1558632953e-001	 1.7993343459e+000
 8.9280616570e-001	 7.2484284533e-001	 1.7521305886e+000
 9.8346972570e-001	 6.4297146022e-001	 1.8017504608e+000
 9.7682718452e-001	 6.5301887538e-001	 1.7574046102e+000
 9.7007513939e-001	 6.6300771033e-001	 1.7116970477e+000
 9.6321434467e-001	 6.7293619774e-001	 1.6646529741e+000
 9.5624559237e-001	 6.8280258279e-001	 1.6162969431e+000
 9.4916971188e-001	 6.9260512417e-001	 1.5666530326e+000
 9.4198756973e-001	 7.0234209504e-001	 1.5157450214e+000
 9.3470006921e-001	 7.1201178402e-001	 1.4635965694e+000
 9.2730815011e-001	 7.2161249621e-001	 1.4102314008e+000
 9.1981278832e-001	 7.3114255408e-001	 1.3556734895e+000
 9.1221499539e-001	 7.4060029849e-001	 1.2999472473e+000
 1.0043946135e+000	 6.5665170405e-001	 1.5511989063e+000
 9.9761074164e-001	 6.6691289401e-001	 1.4832116853e+000
 9.9071503597e-001	 6.7711425736e-001	 1.4155226691e+000
 9.8370826689e-001	 6.8725398918e-001	 1.3481492013e+000
 9.7659124327e-001	 6.9733029732e-001	 1.2811064139e+000
 9.6936481213e-001	 7.0734140341e-001	 1.2144074152e+000
 9.6202985844e-001	 7.1728554387e-001	 1.1480634837e+000
 9.5458730472e-001	 7.2716097092e-001	 1.0820842687e+000
 9.4703811075e-001	 7.3696595358e-001	 1.0164779958e+000
 9.3938327317e-001	 7.4669877864e-001	 9.5125167687e-001
 9.3162382508e-001	 7.5635775165e-001	 8.8641132468e-001
 1.0253195013e+000	 6.7033194789e-001	 1.3403321610e+000
 1.0183942987e+000	 6.8080691263e-001	 1.2486188663e+000
 1.0113549325e+000	 6.9122080439e-001	 1.1588181937e+000
 1.0042021891e+000	 7.0157178063e-001	 1.0709387806e+000
 9.9693689417e-001	 7.1185801186e-001	 9.8498551076e-001
 9.8955991238e-001	 7.2207768265e-001	 9.0095971817e-001
 9.8207214715e-001	 7.3222899270e-001	 8.1885940121e-001
 9.7447454023e-001	 7.4231015782e-001	 7.3867944443e-001
 9.6676807139e-001	 7.5231941095e-001	 6.6041184801e-001
 9.5895375803e-001	 7.6225500320e-001	 5.8404596403e-001
 9.5103265477e-001	 7.7211520481e-001	 5.0956873872e-001
 1.0462443890e+000	 6.8401219173e-001	 1.1668897594e+000
 1.0391778559e+000	 6.9470093126e-001	 1.0514015823e+000
 1.0319948291e+000	 7.0532735142e-001	 9.3939828543e-001
 1.0246961113e+000	 7.1588957207e-001	 8.3087892728e-001
 1.0172825451e+000	 7.2638572639e-001	 7.2583728828e-001
 1.0097550126e+000	 7.3681396190e-001	 6.2426209442e-001
 1.0021144359e+000	 7.4717244154e-001	 5.2613725198e-001
 9.9436177575e-001	 7.5745934472e-001	 4.3144209258e-001
 9.8649803203e-001	 7.6767286832e-001	 3.4015162807e-001
 9.7852424289e-001	 7.7781122776e-001	 2.5223681427e-001
 9.7044148445e-001	 7.8787265798e-001	 1.6766482290e-001
 7.7635318757e-001	 6.3029812637e-001	 5.4176629852e+000
 7.6980069631e-001	 6.3828433156e-001	 5.3456655479e+000
 7.6316284107e-001	 6.4620621937e-001	 5.2691465480e+000
 7.5644057159e-001	 6.5406242942e-001	 5.1883962731e+000
 7.4963486637e-001	 6.6185162011e-001	 5.1037084631e+000
 7.4274673220e-001	 6.6957246936e-001	 5.0153801386e+000
 7.3577720365e-001	 6.7722367538e-001	 4.9237114241e+000
 7.2872734261e-001	 6.8480395737e-001	 4.8290053656e+000
 7.2159823770e-001	 6.9231205626e-001	 4.7315677441e+000
 7.1439100374e-001	 6.9974673538e-001	 4.6317068837e+000
 7.0710678115e-001	 7.0710678115e-001	 4.5297334552e+000
 7.9576201726e-001	 6.4605557953e-001	 4.6781747331e+000
 7.8904571372e-001	 6.5424143985e-001	 4.6122422526e+000
 7.8224191210e-001	 6.6236137485e-001	 4.5419765038e+000
 7.7535158588e-001	 6.7041399015e-001	 4.4676442870e+000
 7.6837573803e-001	 6.7839791061e-001	 4.3895158388e+000
 7.6131540050e-001	 6.8631178109e-001	 4.3078646950e+000
 7.5417163374e-001	 6.9415426726e-001	 4.2229675485e+000
 7.4694552618e-001	 7.0192405631e-001	 4.1351041018e+000
 7.3963819364e-001	 7.0961985767e-001	 4.0445569144e+000
 7.3225077883e-001	 7.1724040377e-001	 3.9516112460e+000
 7.2478445068e-001	 7.2478445068e-001	 3.8565548931e+000
 8.1517084695e-001	 6.6181303269e-001	 3.9947287669e+000
 8.0829073112e-001	 6.7019854813e-001	 3.9333844979e+000
 8.0132098312e-001	 6.7851653033e-001	 3.8678978407e+000
 7.9426260017e-001	 6.8676555089e-001	 3.7985121398e+000
 7.8711660969e-001	 6.9494420111e-001	 3.7254741603e+000
 7.7988406881e-001	 7.0305109283e-001	 3.6490339864e+000
 7.7256606384e-001	 7.1108485915e-001	 3.5694449143e+000
 7.6516370974e-001	 7.1904415524e-001	 3.4869633404e+000
 7.5767814959e-001	 7.2692765908e-001	 3.4018486433e+000
 7.5011055393e-001	 7.3473407215e-001	 3.3143630618e+000
 7.4246212021e-001	 7.4246212021e-001	 3.2247715665e+000
 8.3457967664e-001	 6.7757048585e-001	 3.3635841253e+000
 8.2753574853e-001	 6.8615565642e-001	 3.3054809296e+000
 8.2040005415e-001	 6.9467168582e-001	 3.2434285254e+000
 8.1317361446e-001	 7.0311711162e-001	 3.1776467532e+000
 8.0585748135e-001	 7.1149049161e-001	 3.1083588594e+000
 7.9845273712e-001	 7.1979040456e-001	 3.0357914309e+000
 7.9096049393e-001	 7.2801545103e-001	 2.9601743237e+000
 7.8338189331e-001	 7.3616425418e-001	 2.8817405869e+000
 7.7571810553e-001	 7.4423546049e-001	 2.8007263811e+000
 7.6797032902e-001	 7.5222774054e-001	 2.7173708910e+000
 7.6013978974e-001	 7.6013978974e-001	 2.6319162326e+000
 8.5398850633e-001	 6.9332793901e-001	 2.7813888992e+000
 8.4678076594e-001	 7.0211276471e-001	 2.7252991757e+000
 8.3947912518e-001	 7.1082684130e-001	 2.6654554478e+000
 8.3208462875e-001	 7.1946867236e-001	 2.6020539298e+000
 8.2459835301e-001	 7.2803678212e-001	 2.5352942279e+000
 8.1702140542e-001	 7.3652971630e-001	 2.4653793118e+000
 8.0935492402e-001	 7.4494604292e-001	 2.3925154798e+000
 8.0160007688e-001	 7.5328435311e-001	 2.3169123198e+000
 7.9375806148e-001	 7.6154326189e-001	 2.2387826638e+000
 7.8583010412e-001	 7.6972140893e-001	 2.1583425370e+000
 7.7781745927e-001	 7.7781745927e-001	 2.0758111003e+000
 8.7339733601e-001	 7.0908539217e-001	 2.2451370037e+000
 8.6602578334e-001	 7.1806987300e-001	 2.1899437369e+000
 8.5855819620e-001	 7.2698199679e-001	 2.1311934297e+000
 8.5099564304e-001	 7.3582023310e-001	 2.0690584776e+000
 8.4333922467e-001	 7.4458307262e-001	 2.0037146554e+000
 8.3559007373e-001	 7.5326902803e-001	 1.9353411257e+000
 8.2774935411e-001	 7.6187663480e-001	 1.8641204425e+000
 8.1981826044e-001	 7.7040445205e-001	 1.7902385492e+000
 8.1179801742e-001	 7.7885106330e-001	 1.7138847702e+000
 8.0368987921e-001	 7.8721507731e-001	 1.6352517972e+000
 7.9549512880e-001	 7.9549512880e-001	 1.5545356686e+000
 8.9280616570e-001	 7.2484284533e-001	 1.7521305886e+000
 8.8527080075e-001	 7.3402698129e-001	 1.6968193703e+000
 8.7763726723e-001	 7.4313715227e-001	 1.6381495799e+000
 8.6990665733e-001	 7.5217179383e-001	 1.5762695356e+000
 8.6208009633e-001	 7.6112936312e-001	 1.5113309228e+000
 8.5415874203e-001	 7.7000833977e-001	 1.4434888421e+000
 8.4614378421e-001	 7.7880722669e-001	 1.3729018506e+000
 8.3803644401e-001	 7.8752455098e-001	 1.2997319982e+000
 8.2983797336e-001	 7.9615886471e-001	 1.2241448582e+000
 8.2154965430e-001	 8.0470874570e-001	 1.1463095508e+000
 8.1317279833e-001	 8.1317279833e-001	 1.0663987601e+000
 9.1221499539e-001	 7.4060029849e-001	 1.2999472473e+000
 9.0451581816e-001	 7.4998408958e-001	 1.2435991468e+000
 8.9671633826e-001	 7.5929230776e-001	 1.1840921999e+000
 8.8881767162e-001	 7.6852335457e-001	 1.1215503253e+000
 8.8082096799e-001	 7.7767565363e-001	 1.0561007995e+000
 8.7272741034e-001	 7.8674765150e-001	 9.8787434259e-001
 8.6453821430e-001	 7.9573781857e-001	 9.1700520012e-001
 8.5625462758e-001	 8.0464464992e-001	 8.4363121851e-001
 8.4787792931e-001	 8.1346666612e-001	 7.6789391442e-001
 8.3940942940e-001	 8.2220241408e-001	 6.8993853741e-001
 8.3085046786e-001	 8.3085046786e-001	 6.0991412527e-001
 9.3162382508e-001	 7.5635775165e-001	 8.8641132468e-001
 9.2376083557e-001	 7.6594119787e-001	 8.2819650236e-001
 9.1579540928e-001	 7.7544746325e-001	 7.6702357604e-001
 9.0772868592e-001	 7.8487491531e-001	 7.0299168445e-001
 8.9956183966e-001	 7.9422194413e-001	 6.3620331473e-001
 8.9129607865e-001	 8.0348696323e-001	 5.6676442954e-001
 8.8293264439e-001	 8.1266841046e-001	 4.9478458900e-001
 8.7447281114e-001	 8.2176474885e-001	 4.2037706665e-001
 8.6591788525e-001	 8.3077446752e-001	 3.4365895900e-001
 8.5726920449e-001	 8.3969608247e-001	 2.6475128795e-001
 8.4852813739e-001	 8.4852813739e-001	 1.8377909568e-001
 9.5103265477e-001	 7.7211520481e-001	 5.0956873872e-001
 9.4300585297e-001	 7.8189830617e-001	 4.4874071032e-001
 9.3487448031e-001	 7.9160261873e-001	 3.8515610409e-001
 9.2663970021e-001	 8.0122647604e-001	 3.1888884041e-001
 9.1830271132e-001	 8.1076823464e-001	 2.5001618062e-001
 9.0986474695e-001	 8.2022627497e-001	 1.7861889588e-001
 9.0132707449e-001	 8.2959900235e-001	 1.0478143073e-001
 8.9269099471e-001	 8.3888484779e-001	 2.8592060586e-002
 8.8395784120e-001	 8.4808226893e-001	-4.9856957526e-002
 8.7512897959e-001	 8.5718975085e-001	-1.3046924153e-001
 8.6620580692e-001	 8.6620580692e-001	-2.1314414894e-001
 9.7044148445e-001	 7.8787265798e-001	 1.6766482290e-001
 9.6225087038e-001	 7.9785541446e-001	 1.0355529807e-001
 9.5395355134e-001	 8.0775777422e-001	 3.6891277799e-002
 9.4555071450e-001	 8.1757803678e-001	-3.2279028565e-002
 9.3704358298e-001	 8.2731452514e-001	-1.0390407643e-001
 9.2843341526e-001	 8.3696558670e-001	-1.7792877421e-001
 9.1972150458e-001	 8.4652959423e-001	-2.5429427701e-001
 9.1090917828e-001	 8.5600494672e-001	-3.3293778642e-001
 9.0199779714e-001	 8.6539007034e-001	-4.1379235735e-001
 8.9298875468e-001	 8.7468341924e-001	-4.9678671249e-001
 8.8388347645e-001	 8.8388347645e-001	-5.8184506535e-001
 7.0710678115e-001	 7.0710678115e-001	 4.5297334552e+000
 6.9974673538e-001	 7.1439100374e-001	 4.4055605611e+000
 6.9231205626e-001	 7.2159823770e-001	 4.2700751755e+000
 6.8480395737e-001	 7.2872734261e-001	 4.1236778169e+000
 6.7722367538e-001	 7.3577720365e-001	 3.9667796002e+000
 6.6957246936e-001	 7.4274673220e-001	 3.7998019144e+000
 6.6185162011e-001	 7.4963486637e-001	 3.6231760844e+000
 6.5406242942e-001	 7.5644057159e-001	 3.4373430178e+000
 6.4620621937e-001	 7.6316284107e-001	 3.2427528365e+000
 6.3828433156e-001	 7.6980069631e-001	 3.0398644940e+000
 6.3029812637e-001	 7.7635318757e-001	 2.8291453794e+000
 7.2478445068e-001	 7.2478445068e-001	 3.8565548931e+000
 7.1724040377e-001	 7.3225077883e-001	 3.7449933587e+000
 7.0961985767e-001	 7.3963819364e-001	 3.6237070007e+000
 7.0192405631e-001	 7.4694552618e-001	 3.4930633513e+000
 6.9415426726e-001	 7.5417163374e-001	 3.3534394379e+000
 6.8631178109e-001	 7.6131540050e-001	 3.2052215054e+000
 6.7839791061e-001	 7.6837573803e-001	 3.0488047242e+000
 6.7041399015e-001	 7.7535158588e-001	 2.8845928836e+000
 6.6236137485e-001	 7.8224191210e-001	 2.7129980719e+000
 6.5424143985e-001	 7.8904571372e-001	 2.5344403415e+000
 6.4605557953e-001	 7.9576201726e-001	 2.3493473627e+000
 7.4246212021e-001	 7.4246212021e-001	 3.2247715665e+000
 7.3473407215e-001	 7.5011055393e-001	 3.1236288303e+000
 7.2692765908e-001	 7.5767814959e-001	 3.0142741911e+000
 7.1904415524e-001	 7.6516370974e-001	 2.8970426733e+000
 7.1108485915e-001	 7.7256606384e-001	 2.7722777507e+000
 7.0305109283e-001	 7.7988406881e-001	 2.6403311144e+000
 6.9494420111e-001	 7.8711660969e-001	 2.5015624257e+000
 6.8676555089e-001	 7.9426260017e-001	 2.3563390573e+000
 6.7851653033e-001	 8.0132098312e-001	 2.2050358200e+000
 6.7019854813e-001	 8.0829073112e-001	 2.0480346773e+000
 6.6181303269e-001	 8.1517084695e-001	 1.8857244470e+000
 7.6013978974e-001	 7.6013978974e-001	 2.6319162326e+000
 7.5222774054e-001	 7.6797032902e-001	 2.5391747998e+000
 7.4423546049e-001	 7.7571810553e-001	 2.4396639985e+000
 7.3616425418e-001	 7.8338189331e-001	 2.3336867204e+000
 7.2801545103e-001	 7.9096049393e-001	 2.2215533147e+000
 7.1979040456e-001	 7.9845273712e-001	 2.1035814004e+000
 7.1149049161e-001	 8.0585748135e-001	 1.9800956658e+000
 7.0311711162e-001	 8.1317361446e-001	 1.8514276554e+000
 6.9467168582e-001	 8.2040005415e-001	 1.7179155451e+000
 6.8615565642e-001	 8.2753574853e-001	 1.5799039048e+000
 6.7757048585e-001	 8.3457967664e-001	 1.4377434485e+000
 7.7781745927e-001	 7.7781745927e-001	 2.0758111003e+000
 7.6972140893e-001	 7.8583010412e-001	 1.9896140912e+000
 7.6154326189e-001	 7.9375806148e-001	 1.8980237894e+000
 7.5328435311e-001	 8.0160007688e-001	 1.8013112339e+000
 7.4494604292e-001	 8.0935492402e-001	 1.6997539798e+000
 7.3652971630e-001	 8.1702140542e-001	 1.5936359561e+000
 7.2803678212e-001	 8.2459835301e-001	 1.4832473110e+000
 7.1946867236e-001	 8.3208462875e-001	 1.3688842463e+000
 7.1082684130e-001	 8.3947912518e-001	 1.2508488395e+000
 7.0211276471e-001	 8.4678076594e-001	 1.1294488545e+000
 6.9332793901e-001	 8.5398850633e-001	 1.0049975410e+000
 7.9549512880e-001	 7.9549512880e-001	 1.5545356686e+000
 7.8721507731e-001	 8.0368987921e-001	 1.4731739729e+000
 7.7885106330e-001	 8.1179801742e-001	 1.3877321441e+000
 7.7040445205e-001	 8.1981826044e-001	 1.2984495588e+000
 7.6187663480e-001	 8.2774935411e-001	 1.2055712175e+000
 7.5326902803e-001	 8.3559007373e-001	 1.1093476479e+000
 7.4458307262e-001	 8.4333922467e-001	 1.0100347968e+000
 7.3582023310e-001	 8.5099564304e-001	 9.0789391136e-001
 7.2698199679e-001	 8.5855819620e-001	 8.0319140898e-001
 7.1806987300e-001	 8.6602578334e-001	 6.9619873620e-001
 7.0908539217e-001	 8.7339733601e-001	 5.8719221648e-001
 8.1317279833e-001	 8.1317279833e-001	 1.0663987601e+000
 8.0470874570e-001	 8.2154965430e-001	 9.8829958754e-001
 7.9615886471e-001	 8.2983797336e-001	 9.0737372423e-001
 7.8752455098e-001	 8.3803644401e-001	 8.2382899104e-001
 7.7880722669e-001	 8.4614378421e-001	 7.3787798798e-001
 7.7000833977e-001	 8.5415874203e-001	 6.4973804333e-001
 7.6112936312e-001	 8.6208009633e-001	 5.5963115247e-001
 7.5217179383e-001	 8.6990665733e-001	 4.6778390626e-001
 7.4313715227e-001	 8.7763726723e-001	 3.7442740893e-001
 7.3402698129e-001	 8.8527080075e-001	 2.7979718522e-001
 7.2484284533e-001	 8.9280616570e-001	 1.8413307682e-001
 8.3085046786e-001	 8.3085046786e-001	 6.0991412527e-001
 8.2220241408e-001	 8.3940942940e-001	 5.3363077436e-001
 8.1346666612e-001	 8.4787792931e-001	 4.5571734948e-001
 8.0464464992e-001	 8.5625462758e-001	 3.7635014434e-001
 7.9573781857e-001	 8.6453821430e-001	 2.9570943265e-001
 7.8674765150e-001	 8.7272741034e-001	 2.1397946376e-001
 7.7767565363e-001	 8.8082096799e-001	 1.3134844869e-001
 7.6852335457e-001	 8.8881767162e-001	 4.8008536227e-002
 7.5929230776e-001	 8.9671633826e-001	-3.5844221002e-002
 7.4998408958e-001	 9.0451581816e-001	-1.2000991088e-001
 7.4060029849e-001	 9.1221499539e-001	-2.0428481658e-001
 8.4852813739e-001	 8.4852813739e-001	 1.8377909568e-001
 8.3969608247e-001	 8.5726920449e-001	 1.0798178786e-001
 8.3077446752e-001	 8.6591788525e-001	 3.1696814371e-002
 8.2176474885e-001	 8.7447281114e-001	-4.4931103557e-002
 8.1266841046e-001	 8.8293264439e-001	-1.2175401948e-001
 8.0348696323e-001	 8.9129607865e-001	-1.9862071898e-001
 7.9422194413e-001	 8.9956183966e-001	-2.7537668597e-001
 7.8487491531e-001	 9.0772868592e-001	-3.5186407834e-001
 7.7544746325e-001	 9.1579540928e-001	-4.2792171343e-001
 7.6594119787e-001	 9.2376083557e-001	-5.0338506346e-001
 7.5635775165e-001	 9.3162382508e-001	-5.7808626131e-001
 8.6620580692e-001	 8.6620580692e-001	-2.1314414894e-001
 8.5718975085e-001	 8.7512897959e-001	-2.8967649949e-001
 8.4808226893e-001	 8.8395784120e-001	-3.6560594590e-001
 8.3888484779e-001	 8.9269099471e-001	-4.4081945428e-001
 8.2959900235e-001	 9.0132707449e-001	-5.1520147724e-001
 8.2022627497e-001	 9.0986474695e-001	-5.8863386334e-001
 8.1076823464e-001	 9.1830271132e-001	-6.6099577502e-001
 8.0122647604e-001	 9.2663970021e-001	-7.3216361565e-001
 7.9160261873e-001	 9.3487448031e-001	-8.0201096586e-001
 7.8189830617e-001	 9.4300585297e-001	-8.7040852981e-001
 7.7211520481e-001	 9.5103265477e-001	-9.3722409162e-001
 8.8388347645e-001	 8.8388347645e-001	-5.8184506535e-001
 8.7468341924e-001	 8.9298875468e-001	-6.6023225908e-001
 8.6539007034e-001	 9.0199779714e-001	-7.3697566949e-001
 8.5600494672e-001	 9.1090917828e-001	-8.1199413081e-001
 8.4652959423e-001	 9.1972150458e-001	-8.8520463345e-001
 8.3696558670e-001	 9.2843341526e-001	-9.5652218493e-001
 8.2731452514e-001	 9.3704358298e-001	-1.0258596789e+000
 8.1757803678e-001	 9.4555071450e-001	-1.0931277727e+000
 8.0775777422e-001	 9.5395355134e-001	-1.1582347742e+000
 7.9785541446e-001	 9.6225087038e-001	-1.2210865386e+000
 7.8787265798e-001	 9.7044148445e-001	-1.2815863748e+000
 6.3029812637e-001	 7.7635318757e-001	 2.8291453794e+000
 6.2224898220e-001	 7.8281939432e-001	 2.6574803896e+000
 6.1413829464e-001	 7.8919842564e-001	 2.4286986886e+000
 6.0596747576e-001	 7.9548942062e-001	 2.1963959376e+000
 5.9773795322e-001	 8.0169154872e-001	 1.9609747097e+000
 5.8945116950e-001	 8.0780401013e-001	 1.7228370795e+000
 5.8110858109e-001	 8.1382603608e-001	 1.4823842278e+000
 5.7271165764e-001	 8.1975688910e-001	 1.2400160511e+000
 5.6426188112e-001	 8.2559586333e-001	 9.9613077902e-001
 5.5576074499e-001	 8.3134228471e-001	 7.5112459855e-001
 5.4720975336e-001	 8.3699551125e-001	 5.0539128604e-001
 6.4605557953e-001	 7.9576201726e-001	 2.3493473627e+000
 6.3780520675e-001	 8.0238987918e-001	 2.2180062287e+000
 6.2949175201e-001	 8.0892838628e-001	 2.0838229957e+000
 6.2111666265e-001	 8.1537665613e-001	 1.9084676943e+000
 6.1268140204e-001	 8.2173383744e-001	 1.6857455461e+000
 6.0418744874e-001	 8.2799911038e-001	 1.4607316015e+000
 5.9563629562e-001	 8.3417168698e-001	 1.2338145224e+000
 5.8702944908e-001	 8.4025081132e-001	 1.0053812912e+000
 5.7836842815e-001	 8.4623575991e-001	 7.7581684361e-001
 5.6965476362e-001	 8.5212584183e-001	 5.4550370898e-001
 5.6088999720e-001	 8.5792039903e-001	 3.1482165939e-001
 6.6181303269e-001	 8.1517084695e-001	 1.8857244470e+000
 6.5336143130e-001	 8.2196036404e-001	 1.7656806836e+000
 6.4484520937e-001	 8.2865834692e-001	 1.6430797599e+000
 6.3626584955e-001	 8.3526389165e-001	 1.5181617303e+000
 6.2762485087e-001	 8.4177612615e-001	 1.3911711333e+000
 6.1892372797e-001	 8.4819421063e-001	 1.2033855780e+000
 6.1016401015e-001	 8.5451733788e-001	 9.8854791273e-001
 6.0134724052e-001	 8.6074473355e-001	 7.7259680433e-001
 5.9247497517e-001	 8.6687565649e-001	 5.5590455549e-001
 5.8354878224e-001	 8.7290939895e-001	 3.3884068339e-001
 5.7457024104e-001	 8.7884528681e-001	 1.2177158517e-001
 6.7757048585e-001	 8.3457967664e-001	 1.4377434485e+000
 6.6891765586e-001	 8.4153084889e-001	 1.3277315822e+000
 6.6019866674e-001	 8.4838830756e-001	 1.2154230162e+000
 6.5141503644e-001	 8.5515112716e-001	 1.1010370906e+000
 6.4256829971e-001	 8.6181841487e-001	 9.8479780673e-001
 6.3366000721e-001	 8.6838931088e-001	 8.6693367923e-001
 6.2469172467e-001	 8.7486298878e-001	 7.4477674734e-001
 6.1566503196e-001	 8.8123865577e-001	 5.3996005291e-001
 6.0658152220e-001	 8.8751555307e-001	 3.3479761005e-001
 5.9744280087e-001	 8.9369295606e-001	 1.2964651475e-001
 5.8825048487e-001	 8.9977017459e-001	-7.5139636518e-002
 6.9332793901e-001	 8.5398850633e-001	 1.0049975410e+000
 6.8447388041e-001	 8.6110133375e-001	 9.0384976027e-001
 6.7555212411e-001	 8.6811826820e-001	 8.0064143443e-001
 6.6656422333e-001	 8.7503836267e-001	 6.9557125550e-001
 6.5751174854e-001	 8.8186070358e-001	 5.8884278274e-001
 6.4839628645e-001	 8.8858441113e-001	 4.8066432190e-001
 6.3921943920e-001	 8.9520863967e-001	 3.7124879321e-001
 6.2998282341e-001	 9.0173257800e-001	 2.6081358830e-001
 6.2068806923e-001	 9.0815544965e-001	 1.1095482982e-001
 6.1133681950e-001	 9.1447651318e-001	-8.3521840852e-002
 6.0193072871e-001	 9.2069506237e-001	-2.7725594944e-001
 7.0908539217e-001	 8.7339733601e-001	 5.8719221648e-001
 7.0003010497e-001	 8.8067181861e-001	 4.9383067364e-001
 6.9090558147e-001	 8.8784822884e-001	 3.9862053698e-001
 6.8171341023e-001	 8.9492559818e-001	 3.0173986038e-001
 6.7245519737e-001	 9.0190299230e-001	 2.0337180038e-001
 6.6313256569e-001	 9.0877951138e-001	 1.0370452292e-001
 6.5374715373e-001	 9.1555429057e-001	 2.9310978628e-003
 6.4430061485e-001	 9.2222650022e-001	-9.8750618509e-002
 6.3479461626e-001	 9.2879534623e-001	-2.0113811292e-001
 6.2523083812e-001	 9.3526007029e-001	-3.0402435626e-001
 6.1561097254e-001	 9.4161995015e-001	-4.8588862518e-001
 7.2484284533e-001	 8.9280616570e-001	 1.8413307682e-001
 7.1558632953e-001	 9.0024230346e-001	 9.7563026577e-002
 7.0625903884e-001	 9.0757818948e-001	 9.3321711756e-003
 6.9686259713e-001	 9.1481283370e-001	-8.0402116471e-002
 6.8739864620e-001	 9.2194528101e-001	-1.7147709541e-001
 6.7786884493e-001	 9.2897461163e-001	-2.6372472217e-001
 6.6827486826e-001	 9.3589994147e-001	-3.5697172947e-001
 6.5861840629e-001	 9.4272042245e-001	-4.5103971784e-001
 6.4890116329e-001	 9.4943524281e-001	-5.4574526037e-001
 6.3912485675e-001	 9.5604362741e-001	-6.4090002016e-001
 6.2929121638e-001	 9.6254483793e-001	-7.3631088054e-001
 7.4060029849e-001	 9.1221499539e-001	-2.0428481658e-001
 7.3114255408e-001	 9.1981278832e-001	-2.8498114833e-001
 7.2161249621e-001	 9.2730815011e-001	-3.6717467412e-001
 7.1201178402e-001	 9.3470006921e-001	-4.5072879441e-001
 7.0234209504e-001	 9.4198756973e-001	-5.3550124586e-001
 6.9260512417e-001	 9.4916971188e-001	-6.2134413875e-001
 6.8280258279e-001	 9.5624559237e-001	-7.0810400847e-001
 6.7293619774e-001	 9.6321434467e-001	-7.9562188121e-001
 6.6300771033e-001	 9.7007513939e-001	-8.8373335365e-001
 6.5301887538e-001	 9.7682718452e-001	-9.7226868667e-001
 6.4297146022e-001	 9.8346972570e-001	-1.0610529129e+000
 7.5635775165e-001	 9.3162382508e-001	-5.7808626131e-001
 7.4669877864e-001	 9.3938327317e-001	-6.5375517019e-001
 7.3696595358e-001	 9.4703811075e-001	-7.3078190408e-001
 7.2716097092e-001	 9.5458730472e-001	-8.0905077615e-001
 7.1728554387e-001	 9.6202985844e-001	-8.8844010906e-001
 7.0734140341e-001	 9.6936481213e-001	-9.6882224382e-001
 6.9733029732e-001	 9.7659124327e-001	-1.0500635639e+000
 6.8725398918e-001	 9.8370826689e-001	-1.1320245343e+000
 6.7711425736e-001	 9.9071503597e-001	-1.2145597565e+000
 6.6691289401e-001	 9.9761074164e-001	-1.2975180376e+000
 6.5665170405e-001	 1.0043946135e+000	-1.3807424756e+000
 7.7211520481e-001	 9.5103265477e-001	-9.3722409162e-001
 7.6225500320e-001	 9.5895375803e-001	-1.0086453270e+000
 7.5231941095e-001	 9.6676807139e-001	-1.0813093696e+000
 7.4231015782e-001	 9.7447454023e-001	-1.1551216291e+000
 7.3222899270e-001	 9.8207214715e-001	-1.2299811663e+000
 7.2207768265e-001	 9.8955991238e-001	-1.3057806734e+000
 7.1185801186e-001	 9.9693689417e-001	-1.3824064698e+000
 7.0157178063e-001	 1.0042021891e+000	-1.4597385148e+000
 6.9122080439e-001	 1.0113549325e+000	-1.5376504366e+000
 6.8080691263e-001	 1.0183942987e+000	-1.6160095779e+000
 6.7033194789e-001	 1.0253195013e+000	-1.6946770576e+000
 7.8787265798e-001	 9.7044148445e-001	-1.2815863748e+000
 7.7781122776e-001	 9.7852424289e-001	-1.3494775786e+000
 7.6767286832e-001	 9.8649803203e-001	-1.4185210726e+000
 7.5745934472e-001	 9.9436177575e-001	-1.4886435886e+000
 7.4717244154e-001	 1.0021144359e+000	-1.5597651198e+000
 7.3681396190e-001	 1.0097550126e+000	-1.6317988707e+000
 7.2638572639e-001	 1.0172825451e+000	-1.7046512250e+000
 7.1588957207e-001	 1.0246961113e+000	-1.7782217311e+000
 7.0532735142e-001	 1.0319948291e+000	-1.8524031054e+000
 6.9470093126e-001	 1.0391778559e+000	-1.9270812532e+000
 6.8401219173e-001	 1.0462443890e+000	-2.0021353075e+000
 5.4720975336e-001	 8.3699551125e-001	 5.0539128604e-001
 5.3861042014e-001	 8.4255493313e-001	 2.6336769149e-001
 5.2996426816e-001	 8.4801997294e-001	 1.7396861780e-002
 5.2127282835e-001	 8.5339008574e-001	-2.3198533286e-001
 5.1253763888e-001	 8.5866475923e-001	-4.8424437840e-001
 5.0376024430e-001	 8.6384351377e-001	-7.3884761979e-001
 4.9494219467e-001	 8.6892590245e-001	-9.9526475459e-001
 4.8608504475e-001	 8.7391151114e-001	-1.2529683170e+000
 4.7719035311e-001	 8.7879995843e-001	-1.5114341520e+000
 4.6825968131e-001	 8.8359089566e-001	-1.7701418777e+000
 4.5929459305e-001	 8.8828400685e-001	-2.0285753379e+000
 5.6088999720e-001	 8.5792039903e-001	 3.1482165939e-001
 5.5207568064e-001	 8.6361880646e-001	 9.8384909806e-002
 5.4321337486e-001	 8.6922047226e-001	-1.2099344904e-001
 5.3430464906e-001	 8.7472483789e-001	-3.4281630905e-001
 5.2535107986e-001	 8.8013137822e-001	-5.6658861465e-001
 5.1635425041e-001	 8.8543960162e-001	-7.9181781845e-001
 5.0731574954e-001	 8.9064905002e-001	-1.0180143275e+000
 4.9823717087e-001	 8.9575929892e-001	-1.2446919391e+000
 4.8912011194e-001	 9.0076995739e-001	-1.4713682663e+000
 4.7996617334e-001	 9.0568066805e-001	-1.6975651521e+000
 4.7077695788e-001	 9.1049110702e-001	-1.9228090719e+000
 5.7457024104e-001	 8.7884528681e-001	 1.2177158517e-001
 5.6554094115e-001	 8.8468267979e-001	-7.2223746266e-002
 5.5646248157e-001	 8.9042097158e-001	-2.6817948508e-001
 5.4733646978e-001	 8.9605959003e-001	-4.6563577690e-001
 5.3816452084e-001	 9.0159799720e-001	-6.6413551933e-001
 5.2894825652e-001	 9.0703568946e-001	-8.6322477183e-001
 5.1968930441e-001	 9.1237219758e-001	-1.0624531554e+000
 5.1038929699e-001	 9.1760708670e-001	-1.2613742417e+000
 5.0104987077e-001	 9.2273995635e-001	-1.4595459307e+000
 4.9167266537e-001	 9.2777044045e-001	-1.6565308173e+000
 4.8225932270e-001	 9.3269820719e-001	-1.8518965457e+000
 5.8825048487e-001	 8.9977017459e-001	-7.5139636518e-002
 5.7900620166e-001	 9.0574655311e-001	-2.4961019013e-001
 5.6971158828e-001	 9.1162147091e-001	-4.2508130554e-001
 5.6036829049e-001	 9.1739434218e-001	-6.0112899528e-001
 5.5097796181e-001	 9.2306461618e-001	-7.7733272795e-001
 5.4154226263e-001	 9.2863177731e-001	-9.5327579332e-001
 5.3206285928e-001	 9.3409534514e-001	-1.1285456566e+000
 5.2254142311e-001	 9.3945487447e-001	-1.3027343012e+000
 5.1297962959e-001	 9.4470995531e-001	-1.4754385605e+000
 5.0337915740e-001	 9.4986021284e-001	-1.6462604371e+000
 4.9374168753e-001	 9.5490530736e-001	-1.8148074101e+000
 6.0193072871e-001	 9.2069506237e-001	-2.7725594944e-001
 5.9247146216e-001	 9.2681042644e-001	-4.3490969037e-001
 5.8296069499e-001	 9.3282197023e-001	-5.9262266738e-001
 5.7340011120e-001	 9.3872909432e-001	-7.5000548427e-001
 5.6379140279e-001	 9.4453123516e-001	-9.0667291103e-001
 5.5413626874e-001	 9.5022786515e-001	-1.0622442050e+000
 5.4443641415e-001	 9.5581849270e-001	-1.2163434205e+000
 5.3469354923e-001	 9.6130266225e-001	-1.3685997067e+000
 5.2490938842e-001	 9.6667995427e-001	-1.5186475933e+000
 5.1508564944e-001	 9.7194998523e-001	-1.6661272640e+000
 5.0522405235e-001	 9.7711240753e-001	-1.8106848170e+000
 6.1561097254e-001	 9.4161995015e-001	-4.8588862518e-001
 6.0593672267e-001	 9.4787429977e-001	-6.2924272020e-001
 5.9620980169e-001	 9.5402246955e-001	-7.7173061448e-001
 5.8643193191e-001	 9.6006384646e-001	-9.1299632949e-001
 5.7660484376e-001	 9.6599785414e-001	-1.0526887702e+000
 5.6673027485e-001	 9.7182395300e-001	-1.1904620032e+000
 5.5680996902e-001	 9.7754164026e-001	-1.3259755226e+000
 5.4684567535e-001	 9.8315045003e-001	-1.4588945034e+000
 5.3683914725e-001	 9.8864995323e-001	-1.5888900420e+000
 5.2679214147e-001	 9.9403975762e-001	-1.7156393845e+000
 5.1670641718e-001	 9.9931950770e-001	-1.8388261416e+000
 6.2929121638e-001	 9.6254483793e-001	-7.3631088054e-001
 6.1940198317e-001	 9.6893817309e-001	-8.3371656560e-001
 6.0945890840e-001	 9.7522296887e-001	-9.6333512036e-001
 5.9946375262e-001	 9.8139859860e-001	-1.0908518380e+000
 5.8941828473e-001	 9.8746447312e-001	-1.2159486870e+000
 5.7932428096e-001	 9.9342004084e-001	-1.3383134811e+000
 5.6918352389e-001	 9.9926478782e-001	-1.4576401018e+000
 5.5899780147e-001	 1.0049982378e+000	-1.5736287079e+000
 5.4876890608e-001	 1.0106199522e+000	-1.6859859319e+000
 5.3849863350e-001	 1.0161295300e+000	-1.7944250636e+000
 5.2818878200e-001	 1.0215266079e+000	-1.8986662194e+000
 6.4297146022e-001	 9.8346972570e-001	-1.0610529129e+000
 6.3286724368e-001	 9.9000204642e-001	-1.1066680631e+000
 6.2270801510e-001	 9.9642346820e-001	-1.1683687765e+000
 6.1249557333e-001	 1.0027333507e+000	-1.2843394934e+000
 6.0223172571e-001	 1.0089310921e+000	-1.3970529272e+000
 5.9191828707e-001	 1.0150161287e+000	-1.5062296650e+000
 5.8155707876e-001	 1.0209879354e+000	-1.6115970130e+000
 5.7114992759e-001	 1.0268460256e+000	-1.7128891625e+000
 5.6069866491e-001	 1.0325899511e+000	-1.8098473428e+000
 5.5020512553e-001	 1.0382193024e+000	-1.9022199599e+000
 5.3967114683e-001	 1.0437337080e+000	-1.9897627219e+000
 6.5665170405e-001	 1.0043946135e+000	-1.3807424756e+000
 6.4633250419e-001	 1.0110659197e+000	-1.4204645277e+000
 6.3595712181e-001	 1.0176239675e+000	-1.4594721853e+000
 6.2552739404e-001	 1.0240681029e+000	-1.4976084563e+000
 6.1504516668e-001	 1.0303977111e+000	-1.5966303193e+000
 6.0451229318e-001	 1.0366122165e+000	-1.6946834465e+000
 5.9393063362e-001	 1.0427110829e+000	-1.7881613988e+000
 5.8330205371e-001	 1.0486938134e+000	-1.8768315326e+000
 5.7262842373e-001	 1.0545599501e+000	-1.9604688188e+000
 5.6191161756e-001	 1.0603090748e+000	-2.0388559383e+000
 5.5115351165e-001	 1.0659408082e+000	-2.1117833619e+000
 6.7033194789e-001	 1.0253195013e+000	-1.6946770576e+000
 6.5979776469e-001	 1.0321297931e+000	-1.7306011769e+000
 6.4920622851e-001	 1.0388244668e+000	-1.7654088486e+000
 6.3855921475e-001	 1.0454028550e+000	-1.7989773518e+000
 6.2785860765e-001	 1.0518643301e+000	-1.8311790771e+000
 6.1710629929e-001	 1.0582083044e+000	-1.9041853102e+000
 6.0630418849e-001	 1.0644342305e+000	-1.9876980476e+000
 5.9545417983e-001	 1.0705416011e+000	-2.0656732838e+000
 5.8455818256e-001	 1.0765299491e+000	-2.1379189549e+000
 5.7361810960e-001	 1.0823988472e+000	-2.2042512533e+000
 5.6263587648e-001	 1.0881479084e+000	-2.2644946647e+000
 6.8401219173e-001	 1.0462443890e+000	-2.0021353075e+000
 6.7326302520e-001	 1.0531936664e+000	-2.0362338181e+000
 6.6245533522e-001	 1.0600249662e+000	-2.0688573163e+000
 6.5159103546e-001	 1.0667376072e+000	-2.0999166983e+000
 6.4067204862e-001	 1.0733309490e+000	-2.1293176697e+000
 6.2970030539e-001	 1.0798043922e+000	-2.1569608095e+000
 6.1867774335e-001	 1.0861573781e+000	-2.2106164290e+000
 6.0760630594e-001	 1.0923893889e+000	-2.2796875018e+000
 5.9648794139e-001	 1.0984999480e+000	-2.3423329906e+000
 5.8532460163e-001	 1.1044886196e+000	-2.3984019105e+000
 5.7411824131e-001	 1.1103550086e+000	-2.4477520866e+000
 4.5929459305e-001	 8.8828400685e-001	-2.0285753379e+000
 4.5029665337e-001	 8.9287900861e-001	-2.3342426811e+000
 4.4126742776e-001	 8.9737565002e-001	-2.6390209972e+000
 4.3220848139e-001	 9.0177371256e-001	-2.9422873786e+000
 4.2312137829e-001	 9.0607300991e-001	-3.2434257230e+000
 4.1400768054e-001	 9.1027338778e-001	-3.5418272331e+000
 4.0486894748e-001	 9.1437472374e-001	-3.8368908998e+000
 3.9570673493e-001	 9.1837692696e-001	-4.1280239691e+000
 3.8652259441e-001	 9.2227993800e-001	-4.4146423909e+000
 3.7731807239e-001	 9.2608372854e-001	-4.6961712500e+000
 3.6809470955e-001	 9.2978830108e-001	-4.9720451795e+000
 4.7077695788e-001	 9.1049110702e-001	-1.9228090719e+000
 4.6155406970e-001	 9.1520098382e-001	-2.1862262498e+000
 4.5229911345e-001	 9.1981004127e-001	-2.4480165350e+000
 4.4301369342e-001	 9.2431805537e-001	-2.7076216193e+000
 4.3369941274e-001	 9.2872483515e-001	-2.9644901325e+000
 4.2435787255e-001	 9.3303022247e-001	-3.2180780728e+000
 4.1499067117e-001	 9.3723409182e-001	-3.4678492220e+000
 4.0559940330e-001	 9.4133635013e-001	-3.7132755439e+000
 3.9618565927e-001	 9.4533693645e-001	-3.9538375663e+000
 3.8675102420e-001	 9.4923582175e-001	-4.1890247465e+000
 3.7729707730e-001	 9.5303300860e-001	-4.4183358195e+000
 4.8225932270e-001	 9.3269820719e-001	-1.8518965457e+000
 4.7281148603e-001	 9.3752295903e-001	-2.0780644075e+000
 4.6333079914e-001	 9.4224443251e-001	-2.3018822456e+000
 4.5381890545e-001	 9.4686239818e-001	-2.5228541221e+000
 4.4427744720e-001	 9.5137666039e-001	-2.7404911864e+000
 4.3470806456e-001	 9.5578705716e-001	-2.9543120385e+000
 4.2511239485e-001	 9.6009345991e-001	-3.1638430763e+000
 4.1549207167e-001	 9.6429577330e-001	-3.3686188286e+000
 4.0584872413e-001	 9.6839393489e-001	-3.5681822709e+000
 3.9618397601e-001	 9.7238791496e-001	-3.7620851262e+000
 3.8649944504e-001	 9.7627771612e-001	-3.9498881499e+000
 4.9374168753e-001	 9.5490530736e-001	-1.8148074101e+000
 4.8406890236e-001	 9.5984493424e-001	-2.0083558589e+000
 4.7436248483e-001	 9.6467882376e-001	-2.1988437290e+000
 4.6462411748e-001	 9.6940674099e-001	-2.3858354094e+000
 4.5485548165e-001	 9.7402848564e-001	-2.5689025432e+000
 4.4505825657e-001	 9.7854389185e-001	-2.7476243237e+000
 4.3523411854e-001	 9.8295282800e-001	-2.9215877771e+000
 4.2538474004e-001	 9.8725519647e-001	-3.0903880287e+000
 4.1551178899e-001	 9.9145093334e-001	-3.2536285560e+000
 4.0561692782e-001	 9.9554000817e-001	-3.4109214247e+000
 3.9570181278e-001	 9.9952242364e-001	-3.5618875120e+000
 5.0522405235e-001	 9.7711240753e-001	-1.8106848170e+000
 4.9532631870e-001	 9.8216690946e-001	-1.9759054040e+000
 4.8539417052e-001	 9.8711321501e-001	-2.1373654312e+000
 4.7542932951e-001	 9.9195108380e-001	-2.2946877421e+000
 4.6543351611e-001	 9.9668031088e-001	-2.4475026174e+000
 4.5540844858e-001	 1.0013007265e+000	-2.5954480065e+000
 4.4535584222e-001	 1.0058121961e+000	-2.7381697446e+000
 4.3527740842e-001	 1.0102146196e+000	-2.8753217559e+000
 4.2517485385e-001	 1.0145079318e+000	-3.0065662422e+000
 4.1504987963e-001	 1.0186921014e+000	-3.1315738576e+000
 4.0490418052e-001	 1.0227671312e+000	-3.2500238691e+000
 5.1670641718e-001	 9.9931950770e-001	-1.8388261416e+000
 5.0658373503e-001	 1.0044888847e+000	-1.9797010384e+000
 4.9642585621e-001	 1.0095476063e+000	-2.1161241060e+000
 4.8623454155e-001	 1.0144954266e+000	-2.2477749263e+000
 4.7601155056e-001	 1.0193321361e+000	-2.3743407184e+000
 4.6575864059e-001	 1.0240575612e+000	-2.4955165061e+000
 4.5547756591e-001	 1.0286715642e+000	-2.6110052713e+000
 4.4517007679e-001	 1.0331740428e+000	-2.7205180939e+000
 4.3483791871e-001	 1.0375649302e+000	-2.8237742783e+000
 4.2448283144e-001	 1.0418441946e+000	-2.9205014664e+000
 4.1410654826e-001	 1.0460118387e+000	-3.0104357375e+000
 5.2818878200e-001	 1.0215266079e+000	-1.8986662194e+000
 5.1784115136e-001	 1.0268108599e+000	-2.0188940405e+000
 5.0745754190e-001	 1.0319819975e+000	-2.1339857377e+000
 4.9703975358e-001	 1.0370397694e+000	-2.2436760586e+000
 4.8658958502e-001	 1.0419839614e+000	-2.3477076051e+000
 4.7610883261e-001	 1.0468143959e+000	-2.4458309377e+000
 4.6559928959e-001	 1.0515309323e+000	-2.5378046658e+000
 4.5506274516e-001	 1.0561334660e+000	-2.6233955255e+000
 4.4450098357e-001	 1.0606219287e+000	-2.7023784447e+000
 4.3391578325e-001	 1.0649962878e+000	-2.7745365946e+000
 4.2330891600e-001	 1.0692565462e+000	-2.8396614305e+000
 5.3967114683e-001	 1.0437337080e+000	-1.9897627219e+000
 5.2909856769e-001	 1.0491328351e+000	-2.0927816014e+000
 5.1848922760e-001	 1.0544163888e+000	-2.1899854106e+000
 5.0784496561e-001	 1.0595841122e+000	-2.2811626227e+000
 4.9716761947e-001	 1.0646357866e+000	-2.3661097998e+000
 4.8645902462e-001	 1.0695712306e+000	-2.4446316337e+000
 4.7572101328e-001	 1.0743903004e+000	-2.5165409746e+000
 4.6495541353e-001	 1.0790928892e+000	-2.5816588477e+000
 4.5416404842e-001	 1.0836789271e+000	-2.6398144563e+000
 4.4334873506e-001	 1.0881483810e+000	-2.6908451744e+000
 4.3251128374e-001	 1.0925012537e+000	-2.7345965273e+000
 5.5115351165e-001	 1.0659408082e+000	-2.1117833619e+000
 5.4035598403e-001	 1.0714548103e+000	-2.2007916254e+000
 5.2952091329e-001	 1.0768507800e+000	-2.2833096939e+000
 5.1865017764e-001	 1.0821284551e+000	-2.3591784492e+000
 5.0774565393e-001	 1.0872876119e+000	-2.4282471129e+000
 4.9680921663e-001	 1.0923280653e+000	-2.4903732254e+000
 4.8584273696e-001	 1.0972496685e+000	-2.5454226139e+000
 4.7484808190e-001	 1.1020523123e+000	-2.5932693469e+000
 4.6382711328e-001	 1.1067359256e+000	-2.6337956779e+000
 4.5278168687e-001	 1.1113004742e+000	-2.6668919779e+000
 4.4171365148e-001	 1.1157459613e+000	-2.6924566571e+000
 5.6263587648e-001	 1.0881479084e+000	-2.2644946647e+000
 5.5161340036e-001	 1.0937767855e+000	-2.3424693919e+000
 5.4055259898e-001	 1.0992851713e+000	-2.4132811846e+000
 5.2945538968e-001	 1.1046727979e+000	-2.4768221290e+000
 5.1832368838e-001	 1.1099394371e+000	-2.5329929194e+000
 5.0715940864e-001	 1.1150849000e+000	-2.5817027761e+000
 4.9596446065e-001	 1.1201090366e+000	-2.6228693518e+000
 4.8474075028e-001	 1.1250117355e+000	-2.6564186270e+000
 4.7349017814e-001	 1.1297929240e+000	-2.6822847924e+000
 4.6221463868e-001	 1.1344525674e+000	-2.7004101233e+000
 4.5091601922e-001	 1.1389906688e+000	-2.7107448417e+000
 5.7411824131e-001	 1.1103550086e+000	-2.4477520866e+000
 5.6287081669e-001	 1.1160987607e+000	-2.5174658181e+000
 5.5158428467e-001	 1.1217195625e+000	-2.5793449044e+000
 5.4026060171e-001	 1.1272171407e+000	-2.6333315376e+000
 5.2890172284e-001	 1.1325912624e+000	-2.6793768030e+000
 5.1750960065e-001	 1.1378417347e+000	-2.7174405371e+000
 5.0608618433e-001	 1.1429684047e+000	-2.7474911735e+000
 4.9463341865e-001	 1.1479711587e+000	-2.7695055773e+000
 4.8315324300e-001	 1.1528499225e+000	-2.7834688692e+000
 4.7164759049e-001	 1.1576046607e+000	-2.7893742401e+000
 4.6011838696e-001	 1.1622353763e+000	-2.7872227556e+000
 3.6809470955e-001	 9.2978830108e-001	-4.9720451795e+000
 3.5885404004e-001	 9.3339368862e-001	-5.2427651274e+000
 3.4959759075e-001	 9.3689995439e-001	-5.5094057365e+000
 3.4032688062e-001	 9.4030719147e-001	-5.7716459531e+000
 3.3104341994e-001	 9.4361552239e-001	-6.0291704604e+000
 3.2174870969e-001	 9.4682509884e-001	-6.2816698615e+000
 3.1244424085e-001	 9.4993610118e-001	-6.5288408519e+000
 3.0313149381e-001	 9.5294873809e-001	-6.7703863827e+000
 2.9381193769e-001	 9.5586324609e-001	-7.0060158124e+000
 2.8448702975e-001	 9.5867988915e-001	-7.2354450505e+000
 2.7515821483e-001	 9.6139895816e-001	-7.4583966895e+000
 3.7729707730e-001	 9.5303300860e-001	-4.4183358195e+000
 3.6782539105e-001	 9.5672853083e-001	-4.6605123774e+000
 3.5833753053e-001	 9.6032245325e-001	-4.8977271399e+000
 3.4883505265e-001	 9.6381487125e-001	-5.1296976614e+000
 3.3931950545e-001	 9.6720591045e-001	-5.3561476966e+000
 3.2979242744e-001	 9.7049572631e-001	-5.5768073340e+000
 3.2025534689e-001	 9.7368450371e-001	-5.7914131194e+000
 3.1070978117e-001	 9.7677245654e-001	-5.9997081700e+000
 3.0115723614e-001	 9.7975982724e-001	-6.2014422783e+000
 2.9159920551e-001	 9.8264688638e-001	-6.3963720068e+000
 2.8203717021e-001	 9.8543393212e-001	-6.5842607733e+000
 3.8649944504e-001	 9.7627771612e-001	-3.9498881499e+000
 3.7679674206e-001	 9.8006337304e-001	-4.1659277063e+000
 3.6707747030e-001	 9.8374495210e-001	-4.3761573185e+000
 3.5734322467e-001	 9.8732255103e-001	-4.5803320511e+000
 3.4759559096e-001	 9.9079629851e-001	-4.7782136281e+000
 3.3783614519e-001	 9.9416635378e-001	-4.9695705170e+000
 3.2806645292e-001	 9.9743290624e-001	-5.1541780046e+000
 3.1828806852e-001	 1.0005961750e+000	-5.3318182622e+000
 3.0850253459e-001	 1.0036564084e+000	-5.5022804022e+000
 2.9871138126e-001	 1.0066138836e+000	-5.6653605253e+000
 2.8891612559e-001	 1.0094689061e+000	-5.8208617588e+000
 3.9570181278e-001	 9.9952242364e-001	-3.5618875120e+000
 3.8576809306e-001	 1.0033982153e+000	-3.7539967157e+000
 3.7581741008e-001	 1.0071674510e+000	-3.9394789605e+000
 3.6585139669e-001	 1.0108302308e+000	-4.1181258398e+000
 3.5587167647e-001	 1.0143866866e+000	-4.2897360608e+000
 3.4587986295e-001	 1.0178369812e+000	-4.4541154814e+000
 3.3587755895e-001	 1.0211813088e+000	-4.6110771376e+000
 3.2586635588e-001	 1.0244198934e+000	-4.7604412612e+000
 3.1584783304e-001	 1.0275529895e+000	-4.9020352895e+000
 3.0582355701e-001	 1.0305808808e+000	-5.0356938651e+000
 2.9579508097e-001	 1.0335038800e+000	-5.1612588288e+000
 4.0490418052e-001	 1.0227671312e+000	-3.2500238691e+000
 3.9473944407e-001	 1.0267330575e+000	-3.4202263200e+000
 3.8455734985e-001	 1.0305899498e+000	-3.5830130196e+000
 3.7435956871e-001	 1.0343379106e+000	-3.7382112148e+000
 3.6414776197e-001	 1.0379770746e+000	-3.8856557178e+000
 3.5392358070e-001	 1.0415076087e+000	-4.0251888959e+000
 3.4368866498e-001	 1.0449297113e+000	-4.1566606511e+000
 3.3344464323e-001	 1.0482436119e+000	-4.2799283914e+000
 3.2319313149e-001	 1.0514495707e+000	-4.3948569928e+000
 3.1293573276e-001	 1.0545478781e+000	-4.5013187538e+000
 3.0267403634e-001	 1.0575388540e+000	-4.5991933414e+000
 4.1410654826e-001	 1.0460118387e+000	-3.0104357375e+000
 4.0371079507e-001	 1.0500678997e+000	-3.1605868229e+000
 3.9329728963e-001	 1.0540124487e+000	-3.3025589075e+000
 3.8286774073e-001	 1.0578455904e+000	-3.4362141144e+000
 3.7242384748e-001	 1.0615674627e+000	-3.5614225817e+000
 3.6196729844e-001	 1.0651782362e+000	-3.6780624048e+000
 3.5149977101e-001	 1.0686781138e+000	-3.7860195693e+000
 3.4102293058e-001	 1.0720673303e+000	-3.8851878748e+000
 3.3053842994e-001	 1.0753461519e+000	-3.9754688514e+000
 3.2004790851e-001	 1.0785148753e+000	-4.0567716680e+000
 3.0955299172e-001	 1.0815738279e+000	-4.1290130324e+000
 4.2330891600e-001	 1.0692565462e+000	-2.8396614305e+000
 4.1268214607e-001	 1.0734027419e+000	-2.9714615493e+000
 4.0203722940e-001	 1.0774349475e+000	-3.0943424875e+000
 3.9137591275e-001	 1.0813532702e+000	-3.2082005589e+000
 3.8069993298e-001	 1.0851578507e+000	-3.3129405402e+000
 3.7001101619e-001	 1.0888488637e+000	-3.4084755659e+000
 3.5931087703e-001	 1.0924265164e+000	-3.4947270149e+000
 3.4860121793e-001	 1.0958910488e+000	-3.5716243878e+000
 3.3788372839e-001	 1.0992427330e+000	-3.6391051773e+000
 3.2716008426e-001	 1.1024818725e+000	-3.6971147306e+000
 3.1643194709e-001	 1.1056088019e+000	-3.7456061050e+000
 4.3251128374e-001	 1.0925012537e+000	-2.7345965273e+000
 4.2165349708e-001	 1.0967375841e+000	-2.8496029062e+000
 4.1077716917e-001	 1.1008574464e+000	-2.9549707072e+000
 3.9988408477e-001	 1.1048609500e+000	-3.0506298338e+000
 3.8897601848e-001	 1.1087482388e+000	-3.1365190985e+000
 3.7805473393e-001	 1.1125194911e+000	-3.2125860721e+000
 3.6712198306e-001	 1.1161749189e+000	-3.2787869224e+000
 3.5617950528e-001	 1.1197147673e+000	-3.3350862470e+000
 3.4522902683e-001	 1.1231393142e+000	-3.3814568963e+000
 3.3427226000e-001	 1.1264488698e+000	-3.4178797911e+000
 3.2331090246e-001	 1.1296437758e+000	-3.4443437330e+000
 4.4171365148e-001	 1.1157459613e+000	-2.6924566571e+000
 4.3062484808e-001	 1.1200724263e+000	-2.7920939372e+000
 4.1951710894e-001	 1.1242799453e+000	-2.8813919028e+000
 4.0839225679e-001	 1.1283686297e+000	-2.9603135243e+000
 3.9725210398e-001	 1.1323386269e+000	-3.0288311275e+000
 3.8609845168e-001	 1.1361901186e+000	-3.0869261955e+000
 3.7493308908e-001	 1.1399233214e+000	-3.1345891619e+000
 3.6375779263e-001	 1.1435384857e+000	-3.1718191968e+000
 3.5257432527e-001	 1.1470358953e+000	-3.1986239844e+000
 3.4138443575e-001	 1.1504158670e+000	-3.2150194953e+000
 3.3018985783e-001	 1.1536787498e+000	-3.2210297516e+000
 4.5091601922e-001	 1.1389906688e+000	-2.7107448417e+000
 4.3959619908e-001	 1.1434072685e+000	-2.7963145840e+000
 4.2825704871e-001	 1.1477024441e+000	-2.8708609629e+000
 4.1690042880e-001	 1.1518763095e+000	-2.9343795668e+000
 4.0552818948e-001	 1.1559290149e+000	-2.9868757855e+000
 3.9414216942e-001	 1.1598607461e+000	-3.0283645656e+000
 3.8274419510e-001	 1.1636717239e+000	-3.0588701575e+000
 3.7133607997e-001	 1.1673622042e+000	-3.0784258550e+000
 3.5991962372e-001	 1.1709324765e+000	-3.0870737277e+000
 3.4849661149e-001	 1.1743828642e+000	-3.0848643471e+000
 3.3706881320e-001	 1.1777137238e+000	-3.0718565082e+000
 4.6011838696e-001	 1.1622353763e+000	-2.7872227556e+000
 4.4856755008e-001	 1.1667421108e+000	-2.8599119964e+000
 4.3699698847e-001	 1.1711249430e+000	-2.9209086735e+000
 4.2540860082e-001	 1.1753839893e+000	-2.9702406131e+000
 4.1380427497e-001	 1.1795194030e+000	-3.0079458894e+000
 4.0218588716e-001	 1.1835313736e+000	-3.0340725331e+000
 3.9055530112e-001	 1.1874201265e+000	-3.0486782324e+000
 3.7891436731e-001	 1.1911859226e+000	-3.0518300262e+000
 3.6726492216e-001	 1.1948290576e+000	-3.0436039913e+000
 3.5560878723e-001	 1.1983498614e+000	-3.0240849229e+000
 3.4394776857e-001	 1.2017486977e+000	-2.9933660109e+000
 2.7515821483e-001	 9.6139895816e-001	-7.4583966895e+000
 2.6582692472e-001	 9.6402077054e-001	-7.6917831741e+000
 2.5649457767e-001	 9.6654566967e-001	-7.9163770591e+000
 2.4716257779e-001	 9.6897402446e-001	-8.1320571030e+000
 2.3783231458e-001	 9.7130622879e-001	-8.3387085512e+000
 2.2850516241e-001	 9.7354270101e-001	-8.5362230970e+000
 2.1918248004e-001	 9.7568388343e-001	-8.7244988369e+000
 2.0986561017e-001	 9.7773024174e-001	-8.9034402190e+000
 2.0055587900e-001	 9.7968226449e-001	-9.0729579872e+000
 1.9125459577e-001	 9.8154046252e-001	-9.2329691197e+000
 1.8196305243e-001	 9.8330536841e-001	-9.3833967622e+000
 2.8203717021e-001	 9.8543393212e-001	-6.5842607733e+000
 2.7247259785e-001	 9.8812128980e-001	-6.7929336575e+000
 2.6290694212e-001	 9.9070931141e-001	-6.9928124175e+000
 2.5334164224e-001	 9.9319837507e-001	-7.1838055657e+000
 2.4377812245e-001	 9.9558888451e-001	-7.3658278392e+000
 2.3421779148e-001	 9.9788126854e-001	-7.5388001327e+000
 2.2466204205e-001	 1.0000759805e+000	-7.7026494242e+000
 2.1511225043e-001	 1.0021734978e+000	-7.8573086981e+000
 2.0556977597e-001	 1.0041743211e+000	-8.0027168621e+000
 1.9603596067e-001	 1.0060789741e+000	-8.1388186609e+000
 1.8651212874e-001	 1.0078880026e+000	-8.2655645858e+000
 2.8891612559e-001	 1.0094689061e+000	-5.8208617588e+000
 2.7911827098e-001	 1.0122218091e+000	-6.0067841145e+000
 2.6931930657e-001	 1.0148729532e+000	-6.1839116910e+000
 2.5952070669e-001	 1.0174227257e+000	-6.3521821388e+000
 2.4972393032e-001	 1.0198715402e+000	-6.5115390807e+000
 2.3993042054e-001	 1.0222198361e+000	-6.6619320143e+000
 2.3014160405e-001	 1.0244680776e+000	-6.8033162116e+000
 2.2035889069e-001	 1.0266167538e+000	-6.9356526136e+000
 2.1058367295e-001	 1.0286663777e+000	-7.0589077220e+000
 2.0081732556e-001	 1.0306174856e+000	-7.1730534877e+000
 1.9106120505e-001	 1.0324706368e+000	-7.2780671963e+000
 2.9579508097e-001	 1.0335038800e+000	-5.1612588288e+000
 2.8576394410e-001	 1.0363223283e+000	-5.3262189302e+000
 2.7573167102e-001	 1.0390365949e+000	-5.4823840330e+000
 2.6569977114e-001	 1.0416470763e+000	-5.6297203948e+000
 2.5566973819e-001	 1.0441541959e+000	-5.7682000003e+000
 2.4564304960e-001	 1.0465584036e+000	-5.8978004359e+000
 2.3562116605e-001	 1.0488601747e+000	-6.0185047602e+000
 2.2560553094e-001	 1.0510600099e+000	-6.1303013726e+000
 2.1559756992e-001	 1.0531584343e+000	-6.2331838788e+000
 2.0559869045e-001	 1.0551559972e+000	-6.3271509540e+000
 1.9561028136e-001	 1.0570532710e+000	-6.4122062046e+000
 3.0267403634e-001	 1.0575388540e+000	-4.5991933414e+000
 2.9240961722e-001	 1.0604228476e+000	-4.7448188769e+000
 2.8214403546e-001	 1.0632002366e+000	-4.8816492222e+000
 2.7187883559e-001	 1.0658714269e+000	-5.0096787882e+000
 2.6161554606e-001	 1.0684368517e+000	-5.1289074758e+000
 2.5135567866e-001	 1.0708969711e+000	-5.2393405214e+000
 2.4110072806e-001	 1.0732522718e+000	-5.3409883393e+000
 2.3085217120e-001	 1.0755032659e+000	-5.4338663638e+000
 2.2061146690e-001	 1.0776504909e+000	-5.5179948879e+000
 2.1038005535e-001	 1.0796945088e+000	-5.5933989024e+000
 2.0015935767e-001	 1.0816359052e+000	-5.6601079327e+000
 3.0955299172e-001	 1.0815738279e+000	-4.1290130324e+000
 2.9905529035e-001	 1.0845233669e+000	-4.2567837379e+000
 2.8855639991e-001	 1.0873638784e+000	-4.3757587038e+000
 2.7805790004e-001	 1.0900957775e+000	-4.4859601134e+000
 2.6756135392e-001	 1.0927195074e+000	-4.5874154095e+000
 2.5706830773e-001	 1.0952355386e+000	-4.6801571106e+000
 2.4658029006e-001	 1.0976443689e+000	-4.7642226261e+000
 2.3609881145e-001	 1.0999465220e+000	-4.8396540706e+000
 2.2562536387e-001	 1.1021425476e+000	-4.9064980771e+000
 2.1516142024e-001	 1.1042330203e+000	-4.9648056103e+000
 2.0470843398e-001	 1.1062185395e+000	-5.0146317797e+000
 3.1643194709e-001	 1.1056088019e+000	-3.7456061050e+000
 3.0570096347e-001	 1.1086238861e+000	-3.8568650234e+000
 2.9496876435e-001	 1.1115275201e+000	-3.9593269304e+000
 2.8423696448e-001	 1.1143201281e+000	-4.0530414678e+000
 2.7350716179e-001	 1.1170021631e+000	-4.1380633125e+000
 2.6278093679e-001	 1.1195741062e+000	-4.2144519636e+000
 2.5205985206e-001	 1.1220364660e+000	-4.2822715303e+000
 2.4134545170e-001	 1.1243897780e+000	-4.3415905176e+000
 2.3063926085e-001	 1.1266346042e+000	-4.3924816145e+000
 2.1994278513e-001	 1.1287715319e+000	-4.4350214813e+000
 2.0925751029e-001	 1.1308011737e+000	-4.4692905388e+000
 3.2331090246e-001	 1.1296437758e+000	-3.4443437330e+000
 3.1234663659e-001	 1.1327244054e+000	-3.5403072764e+000
 3.0138112879e-001	 1.1356911619e+000	-3.6274714676e+000
 2.9041602893e-001	 1.1385444787e+000	-3.7059131556e+000
 2.7945296965e-001	 1.1412848188e+000	-3.7757140060e+000
 2.6849356585e-001	 1.1439126737e+000	-3.8369602591e+000
 2.5753941406e-001	 1.1464285630e+000	-3.8897424887e+000
 2.4659209196e-001	 1.1488330341e+000	-3.9341553615e+000
 2.3565315782e-001	 1.1511266608e+000	-3.9702973979e+000
 2.2472415003e-001	 1.1533100435e+000	-3.9982707344e+000
 2.1380658660e-001	 1.1553838079e+000	-4.0181808881e+000
 3.3018985783e-001	 1.1536787498e+000	-3.2210297516e+000
 3.1899230970e-001	 1.1568249247e+000	-3.3027967151e+000
 3.0779349323e-001	 1.1598548036e+000	-3.3757605861e+000
 2.9659509337e-001	 1.1627688294e+000	-3.4400252287e+000
 2.8539877752e-001	 1.1655674746e+000	-3.4956991101e+000
 2.7420619490e-001	 1.1682512412e+000	-3.5428950294e+000
 2.6301897606e-001	 1.1708206601e+000	-3.5817298482e+000
 2.5183873221e-001	 1.1732762901e+000	-3.6123242216e+000
 2.4066705479e-001	 1.1756187174e+000	-3.6348023332e+000
 2.2950551492e-001	 1.1778485550e+000	-3.6492916311e+000
 2.1835566291e-001	 1.1799664421e+000	-3.6559225685e+000
 3.3706881320e-001	 1.1777137238e+000	-3.0718565082e+000
 3.2563798282e-001	 1.1809254439e+000	-3.1404161639e+000
 3.1420585767e-001	 1.1840184454e+000	-3.2001672718e+000
 3.0277415782e-001	 1.1869931800e+000	-3.2512405739e+000
 2.9134458538e-001	 1.1898501303e+000	-3.2937712066e+000
 2.7991882396e-001	 1.1925898088e+000	-3.3278984003e+000
 2.6849853806e-001	 1.1952127572e+000	-3.3537651802e+000
 2.5708537246e-001	 1.1977195461e+000	-3.3715180708e+000
 2.4568095177e-001	 1.2001107740e+000	-3.3813068024e+000
 2.3428687981e-001	 1.2023870666e+000	-3.3832840225e+000
 2.2290473922e-001	 1.2045490763e+000	-3.3776050104e+000
 3.4394776857e-001	 1.2017486977e+000	-2.9933660109e+000
 3.3228365593e-001	 1.2050259632e+000	-3.0496053929e+000
 3.2061822211e-001	 1.2081820871e+000	-3.0970287540e+000
 3.0895322226e-001	 1.2112175306e+000	-3.1357936291e+000
 2.9729039324e-001	 1.2141327860e+000	-3.1660617433e+000
 2.8563145302e-001	 1.2169283763e+000	-3.1879986813e+000
 2.7397810005e-001	 1.2196048543e+000	-3.2017735592e+000
 2.6233201271e-001	 1.2221628022e+000	-3.2075587008e+000
 2.5069484874e-001	 1.2246028306e+000	-3.2055293167e+000
 2.3906824470e-001	 1.2269255782e+000	-3.1958631899e+000
 2.2745381553e-001	 1.2291317105e+000	-3.1787403647e+000
 1.8196305243e-001	 9.8330536841e-001	-9.3833967622e+000
 1.7268252319e-001	 9.8497753588e-001	-9.5490686338e+000
 1.6341426419e-001	 9.8655753926e-001	-9.7065704931e+000
 1.5415951315e-001	 9.8804597288e-001	-9.8558519432e+000
 1.4491948905e-001	 9.8944345050e-001	-9.9968668609e+000
 1.3569539180e-001	 9.9075060469e-001	-1.0129573333e+001
 1.2648840201e-001	 9.9196808628e-001	-1.0253933594e+001
 1.1729968064e-001	 9.9309656377e-001	-1.0369913954e+001
 1.0813036885e-001	 9.9413672268e-001	-1.0477484736e+001
 9.8981587693e-002	 9.9508926501e-001	-1.0576620203e+001
 8.9854437932e-002	 9.9595490863e-001	-1.0667298485e+001
 1.8651212874e-001	 1.0078880026e+000	-8.2655645858e+000
 1.7699958627e-001	 1.0096019743e+000	-8.4105734220e+000
 1.6749962079e-001	 1.0112214777e+000	-8.5474114811e+000
 1.5801350098e-001	 1.0127471222e+000	-8.6760637609e+000
 1.4854247627e-001	 1.0141795368e+000	-8.7965190697e+000
 1.3908777659e-001	 1.0155193698e+000	-8.9087699343e+000
 1.2965061205e-001	 1.0167672884e+000	-9.0128125079e+000
 1.2023217266e-001	 1.0179239779e+000	-9.1086464769e+000
 1.1083362807e-001	 1.0189901407e+000	-9.1962749682e+000
 1.0145612738e-001	 1.0199664966e+000	-9.2757044547e+000
 9.2100798875e-002	 1.0208537813e+000	-9.3469446626e+000
 1.9106120505e-001	 1.0324706368e+000	-7.2780671963e+000
 1.8131664935e-001	 1.0342264127e+000	-7.4049379653e+000
 1.7158497739e-001	 1.0358854162e+000	-7.5236437491e+000
 1.6186748880e-001	 1.0374482715e+000	-7.6342040736e+000
 1.5216546349e-001	 1.0389156230e+000	-7.7366418198e+000
 1.4248016138e-001	 1.0402881349e+000	-7.8309831037e+000
 1.3281282210e-001	 1.0415664906e+000	-7.9172571570e+000
 1.2316466467e-001	 1.0427513919e+000	-7.9954962080e+000
 1.1353688729e-001	 1.0438435588e+000	-8.0657353645e+000
 1.0393066707e-001	 1.0448437283e+000	-8.1280124963e+000
 9.4347159819e-002	 1.0457526541e+000	-8.1823681203e+000
 1.9561028136e-001	 1.0570532710e+000	-6.4122062046e+000
 1.8563371242e-001	 1.0588508511e+000	-6.5232479710e+000
 1.7567033400e-001	 1.0605493547e+000	-6.6261366702e+000
 1.6572147663e-001	 1.0621494208e+000	-6.7209255873e+000
 1.5578845071e-001	 1.0636517093e+000	-6.8076709140e+000
 1.4587254618e-001	 1.0650569000e+000	-6.8864316007e+000
 1.3597503214e-001	 1.0663656927e+000	-6.9572692100e+000
 1.2609715668e-001	 1.0675788060e+000	-7.0202477724e+000
 1.1624014650e-001	 1.0686969769e+000	-7.0754336446e+000
 1.0640520676e-001	 1.0697209599e+000	-7.1228953693e+000
 9.6593520764e-002	 1.0706515268e+000	-7.1627035385e+000
 2.0015935767e-001	 1.0816359052e+000	-5.6601079327e+000
 1.8995077550e-001	 1.0834752895e+000	-5.7574317294e+000
 1.7975569060e-001	 1.0852132932e+000	-5.8466201105e+000
 1.6957546445e-001	 1.0868505702e+000	-5.9277594418e+000
 1.5941143794e-001	 1.0883877955e+000	-6.0009385531e+000
 1.4926493097e-001	 1.0898256651e+000	-6.0662485622e+000
 1.3913724219e-001	 1.0911648949e+000	-6.1237827019e+000
 1.2902964869e-001	 1.0924062201e+000	-6.1736361509e+000
 1.1894340572e-001	 1.0935503949e+000	-6.2159058667e+000
 1.0887974645e-001	 1.0945981915e+000	-6.2506904242e+000
 9.8839881709e-002	 1.0955503995e+000	-6.2780898562e+000
 2.0470843398e-001	 1.1062185395e+000	-5.0146317797e+000
 1.9426783858e-001	 1.1080997279e+000	-5.1001664934e+000
 1.8384104720e-001	 1.1098772317e+000	-5.1775888187e+000
 1.7342945228e-001	 1.1115517195e+000	-5.2470176071e+000
 1.6303442516e-001	 1.1131238818e+000	-5.3085737359e+000
 1.5265731576e-001	 1.1145944303e+000	-5.3623799052e+000
 1.4229945224e-001	 1.1159640970e+000	-5.4085604377e+000
 1.3196214071e-001	 1.1172336342e+000	-5.4472410846e+000
 1.2164666494e-001	 1.1184038130e+000	-5.4785488348e+000
 1.1135428614e-001	 1.1194754231e+000	-5.5026117306e+000
 1.0108624265e-001	 1.1204492722e+000	-5.5195586871e+000
 2.0925751029e-001	 1.1308011737e+000	-4.4692905388e+000
 1.9858490166e-001	 1.1327241663e+000	-4.5447970694e+000
 1.8792640381e-001	 1.1345411701e+000	-4.6122192867e+000
 1.7728344011e-001	 1.1362528688e+000	-4.6717080101e+000
 1.6665741239e-001	 1.1378599681e+000	-4.7234156512e+000
 1.5604970055e-001	 1.1393631954e+000	-4.7674959817e+000
 1.4546166229e-001	 1.1407632992e+000	-4.8041039086e+000
 1.3489463272e-001	 1.1420610483e+000	-4.8333952534e+000
 1.2434992416e-001	 1.1432572311e+000	-4.8555265390e+000
 1.1382882583e-001	 1.1443526547e+000	-4.8706547815e+000
 1.0333260360e-001	 1.1453481449e+000	-4.8789372891e+000
 2.1380658660e-001	 1.1553838079e+000	-4.0181808881e+000
 2.0290196474e-001	 1.1573486046e+000	-4.0852648010e+000
 1.9201176041e-001	 1.1592051086e+000	-4.1442972235e+000
 1.8113742794e-001	 1.1609540181e+000	-4.1954604974e+000
 1.7028039961e-001	 1.1625960543e+000	-4.2389381251e+000
 1.5944208535e-001	 1.1641319605e+000	-4.2749145107e+000
 1.4862387233e-001	 1.1655625014e+000	-4.3035747082e+000
 1.3782712473e-001	 1.1668884624e+000	-4.3251041761e+000
 1.2705318338e-001	 1.1681106491e+000	-4.3396885402e+000
 1.1630336552e-001	 1.1692298864e+000	-4.3475133631e+000
 1.0557896455e-001	 1.1702470176e+000	-4.3487639221e+000
 2.1835566291e-001	 1.1799664421e+000	-3.6559225685e+000
 2.0721902781e-001	 1.1819730430e+000	-3.7160454300e+000
 1.9609711701e-001	 1.1838690471e+000	-3.7681540957e+000
 1.8499141576e-001	 1.1856551674e+000	-3.8124620512e+000
 1.7390338684e-001	 1.1873321406e+000	-3.8491835134e+000
 1.6283447014e-001	 1.1889007256e+000	-3.8785331443e+000
 1.5178608238e-001	 1.1903617035e+000	-3.9007257723e+000
 1.4075961675e-001	 1.1917158765e+000	-3.9159761229e+000
 1.2975644260e-001	 1.1929640672e+000	-3.9244985564e+000
 1.1877790521e-001	 1.1941071180e+000	-3.9265068162e+000
 1.0782532549e-001	 1.1951458903e+000	-3.9222137847e+000
 2.2290473922e-001	 1.2045490763e+000	-3.3776050104e+000
 2.1153609089e-001	 1.2065974814e+000	-3.4320945654e+000
 2.0018247362e-001	 1.2085329856e+000	-3.4786114372e+000
 1.8884540359e-001	 1.2103563168e+000	-3.5173999392e+000
 1.7752637406e-001	 1.2120682268e+000	-3.5487046882e+000
 1.6622685494e-001	 1.2136694907e+000	-3.5727702906e+000
 1.5494829243e-001	 1.2151609057e+000	-3.5898410375e+000
 1.4369210877e-001	 1.2165432906e+000	-3.6001606100e+000
 1.3245970182e-001	 1.2178174853e+000	-3.6039717935e+000
 1.2125244490e-001	 1.2189843496e+000	-3.6015162036e+000
 1.1007168644e-001	 1.2200447631e+000	-3.5930340205e+000
 2.2745381553e-001	 1.2291317105e+000	-3.1787403647e+000
 2.1585315397e-001	 1.2312219198e+000	-3.2287996974e+000
 2.0426783022e-001	 1.2331969241e+000	-3.2709318430e+000
 1.9269939142e-001	 1.2350574661e+000	-3.3054116859e+000
 1.8114936129e-001	 1.2368043131e+000	-3.3325139862e+000
 1.6961923973e-001	 1.2384382558e+000	-3.3525130386e+000
 1.5811050249e-001	 1.2399601078e+000	-3.3656823412e+000
 1.4662460078e-001	 1.2413707047e+000	-3.3722942754e+000
 1.3516296104e-001	 1.2426709033e+000	-3.3726197969e+000
 1.2372698459e-001	 1.2438615812e+000	-3.3669281385e+000
 1.1231804739e-001	 1.2449436358e+000	-3.3554865239e+000
 8.9854437932e-002	 9.9595490863e-001	-1.0667298485e+001
 8.0749999857e-002	 9.9673438666e-001	-1.0755036203e+001
 7.1669333105e-002	 9.9742844692e-001	-1.0834779340e+001
 6.2613476500e-002	 9.9803785128e-001	-1.0906556141e+001
 5.3583447921e-002	 9.9856337512e-001	-1.0970397117e+001
 4.4580244178e-002	 9.9900580671e-001	-1.1026334959e+001
 3.5604840910e-002	 9.9936594664e-001	-1.1074404464e+001
 2.6658192499e-002	 9.9964460724e-001	-1.1114642449e+001
 1.7741231999e-002	 9.9984261196e-001	-1.1147087681e+001
 8.8548710816e-003	 9.9996079486e-001	-1.1171780796e+001
 0.0000000000e+000	 1.0000000000e+000	-1.1188764223e+001
 9.2100798875e-002	 1.0208537813e+000	-9.3469446626e+000
 8.2768749849e-002	 1.0216527463e+000	-9.4201163214e+000
 7.3461066429e-002	 1.0223641581e+000	-9.4855516815e+000
 6.4178813409e-002	 1.0229887976e+000	-9.5433101704e+000
 5.4923034116e-002	 1.0235274595e+000	-9.5934527962e+000
 4.5694750280e-002	 1.0239809519e+000	-9.6360420489e+000
 3.6494961931e-002	 1.0243500953e+000	-9.6711418046e+000
 2.7324647310e-002	 1.0246357224e+000	-9.6988172316e+000
 1.8184762798e-002	 1.0248386773e+000	-9.7191347000e+000
 9.0762428582e-003	 1.0249598147e+000	-9.7321616927e+000
 0.0000000000e+000	 1.0250000000e+000	-9.7379667202e+000
 9.4347159819e-002	 1.0457526541e+000	-8.1823681203e+000
 8.4787499842e-002	 1.0465711060e+000	-8.2435574690e+000
 7.5252799753e-002	 1.0472998693e+000	-8.2972696728e+000
 6.5744150319e-002	 1.0479397438e+000	-8.3435945287e+000
 5.6262620311e-002	 1.0484915439e+000	-8.3826227411e+000
 4.6809256382e-002	 1.0489560970e+000	-8.4144458057e+000
 3.7385082952e-002	 1.0493342440e+000	-8.4391558981e+000
 2.7991102121e-002	 1.0496268376e+000	-8.4568457658e+000
 1.8628293597e-002	 1.0498347426e+000	-8.4676086238e+000
 9.2976146348e-003	 1.0499588346e+000	-8.4715380546e+000
 0.0000000000e+000	 1.0500000000e+000	-8.4687279120e+000
 9.6593520764e-002	 1.0706515268e+000	-7.1627035385e+000
 8.6806249835e-002	 1.0714894657e+000	-7.2142761923e+000
 7.7044533077e-002	 1.0722355804e+000	-7.2586320345e+000
 6.7309487228e-002	 1.0728906901e+000	-7.2958905058e+000
 5.7602206507e-002	 1.0734556282e+000	-7.3261712893e+000
 4.7923762484e-002	 1.0739312422e+000	-7.3495941780e+000
 3.8275203973e-002	 1.0743183926e+000	-7.3662789473e+000
 2.8657556932e-002	 1.0746179528e+000	-7.3763452327e+000
 1.9071824396e-002	 1.0748308079e+000	-7.3799124131e+000
 9.5189864113e-003	 1.0749578545e+000	-7.3770994985e+000
 0.0000000000e+000	 1.0750000000e+000	-7.3680250235e+000
 9.8839881709e-002	 1.0955503995e+000	-6.2780898562e+000
 8.8824999828e-002	 1.0964078253e+000	-6.3222114173e+000
 7.8836266402e-002	 1.0971712916e+000	-6.3593779700e+000
 6.8874824138e-002	 1.0978416364e+000	-6.3897379530e+000
 5.8941792703e-002	 1.0984197126e+000	-6.4134393887e+000
 4.9038268587e-002	 1.0989063874e+000	-6.4306297351e+000
 3.9165324994e-002	 1.0993025413e+000	-6.4414557424e+000
 2.9324011743e-002	 1.0996090680e+000	-6.4460633169e+000
 1.9515355195e-002	 1.0998268732e+000	-6.4445973915e+000
 9.7403581879e-003	 1.0999568743e+000	-6.4372018017e+000
 0.0000000000e+000	 1.1000000000e+000	-6.4240191689e+000
 1.0108624265e-001	 1.1204492722e+000	-5.5195586871e+000
 9.0843749822e-002	 1.1213261850e+000	-5.5582108512e+000
 8.0627999727e-002	 1.1221070028e+000	-5.5901715563e+000
 7.0440161048e-002	 1.1227925827e+000	-5.6156176655e+000
 6.0281378898e-002	 1.1233837970e+000	-5.6347249740e+000
 5.0152774689e-002	 1.1238815325e+000	-5.6476680425e+000
 4.0055446015e-002	 1.1242866900e+000	-5.6546200405e+000
 2.9990466555e-002	 1.1246001831e+000	-5.6557525954e+000
 1.9958885994e-002	 1.1248229385e+000	-5.6512356501e+000
 9.9617299645e-003	 1.1249558942e+000	-5.6412373285e+000
 0.0000000000e+000	 1.1250000000e+000	-5.6259238080e+000
 1.0333260360e-001	 1.1453481449e+000	-4.8789372891e+000
 9.2862499816e-002	 1.1462445446e+000	-4.9139322027e+000
 8.2419733053e-002	 1.1470427139e+000	-4.9425012141e+000
 7.2005497959e-002	 1.1477435290e+000	-4.9648491064e+000
 6.1620965094e-002	 1.1483478814e+000	-4.9811789463e+000
 5.1267280792e-002	 1.1488566777e+000	-4.9916919017e+000
 4.0945567036e-002	 1.1492708386e+000	-4.9965870691e+000
 3.0656921366e-002	 1.1495912983e+000	-4.9960613099e+000
 2.0402416793e-002	 1.1498190038e+000	-4.9903090946e+000
 1.0183101741e-002	 1.1499549141e+000	-4.9795223578e+000
 0.0000000000e+000	 1.1500000000e+000	-4.9638903604e+000
 1.0557896455e-001	 1.1702470176e+000	-4.3487639221e+000
 9.4881249811e-002	 1.1711629043e+000	-4.3817570112e+000
 8.4211466378e-002	 1.1719784251e+000	-4.4085920119e+000
 7.3570834869e-002	 1.1726944752e+000	-4.4295011858e+000
 6.2960551291e-002	 1.1733119658e+000	-4.4447144323e+000
 5.2381786895e-002	 1.1738318229e+000	-4.4544590907e+000
 4.1835688057e-002	 1.1742549873e+000	-4.4589597525e+000
 3.1323376177e-002	 1.1745824135e+000	-4.4584380833e+000
 2.0845947592e-002	 1.1748150691e+000	-4.4531126563e+000
 1.0404473518e-002	 1.1749539340e+000	-4.4431987942e+000
 0.0000000000e+000	 1.1750000000e+000	-4.4289084227e+000
 1.0782532549e-001	 1.1951458903e+000	-3.9222137847e+000
 9.6899999806e-002	 1.1960812640e+000	-3.9547152478e+000
 8.6003199704e-002	 1.1969141363e+000	-3.9813289320e+000
 7.5136171780e-002	 1.1976454215e+000	-4.0023141942e+000
 6.4300137487e-002	 1.1982760501e+000	-4.0179273856e+000
 5.3496292997e-002	 1.1988069680e+000	-4.0284216378e+000
 4.2725809079e-002	 1.1992391360e+000	-4.0340466599e+000
 3.1989830989e-002	 1.1995735287e+000	-4.0350485472e+000
 2.1289478391e-002	 1.1998111344e+000	-4.0316696020e+000
 1.0625845294e-002	 1.1999529538e+000	-4.0241481650e+000
 0.0000000000e+000	 1.2000000000e+000	-4.0127184587e+000
 1.1007168644e-001	 1.2200447631e+000	-3.5930340205e+000
 9.8918749801e-002	 1.2209996236e+000	-3.6264191489e+000
 8.7794933031e-002	 1.2218498475e+000	-3.6541895320e+000
 7.6701508691e-002	 1.2225963678e+000	-3.6766312939e+000
 6.5639723683e-002	 1.2232401345e+000	-3.6940269106e+000
 5.4610799100e-002	 1.2237821132e+000	-3.7066549793e+000
 4.3615930100e-002	 1.2242232846e+000	-3.7147900013e+000
 3.2656285800e-002	 1.2245646439e+000	-3.7187021769e+000
 2.1733009191e-002	 1.2248071996e+000	-3.7186572142e+000
 1.0847217071e-002	 1.2249519737e+000	-3.7149161492e+000
 0.0000000000e+000	 1.2250000000e+000	-3.7077351798e+000
 1.1231804739e-001	 1.2449436358e+000	-3.3554865239e+000
 1.0093749980e-001	 1.2459179833e+000	-3.3910049895e+000
 8.9586666357e-002	 1.2467855586e+000	-3.4211846872e+000
 7.8266845602e-002	 1.2475473141e+000	-3.4463382319e+000
 6.6979309880e-002	 1.2482042189e+000	-3.4667739471e+000
 5.5725305204e-002	 1.2487572584e+000	-3.4827956188e+000
 4.4506051122e-002	 1.2492074333e+000	-3.4947022631e+000
 3.3322740611e-002	 1.2495557590e+000	-3.5027879079e+000
 2.2176539990e-002	 1.2498032649e+000	-3.5073413894e+000
 1.1068588847e-002	 1.2499509936e+000	-3.5086461616e+000
 0.0000000000e+000	 1.2500000000e+000	-3.5069801206e+000
 1.2500000000e+000	 0.0000000000e+000	 4.2321552069e+000
 1.2499509936e+000	 1.1068588847e-002	 4.2319688399e+000
 1.2498032649e+000	 2.2176539990e-002	 4.2276822957e+000
 1.2495557590e+000	 3.3322740611e-002	 4.2191619966e+000
 1.2492074333e+000	 4.4506051122e-002	 4.2062733766e+000
 1.2487572584e+000	 5.5725305204e-002	 4.1888809954e+000
 1.2482042189e+000	 6.6979309880e-002	 4.1668486576e+000
 1.2475473141e+000	 7.8266845602e-002	 4.1400395360e+000
 1.2467855586e+000	 8.9586666357e-002	 4.1083162991e+000
 1.2459179833e+000	 1.0093749980e-001	 4.0715412430e+000
 1.2449436358e+000	 1.1231804739e-001	 4.0295764276e+000
 1.2750000000e+000	 0.0000000000e+000	 4.0784155571e+000
 1.2749500134e+000	 1.1289960624e-002	 4.0778322927e+000
 1.2747993302e+000	 2.2620070789e-002	 4.0760665316e+000
 1.2745468742e+000	 3.3989195423e-002	 4.0727380325e+000
 1.2741915820e+000	 4.5396172143e-002	 4.0674662578e+000
 1.2737324036e+000	 5.6839811307e-002	 4.0598706827e+000
 1.2731683033e+000	 6.8318896077e-002	 4.0495711052e+000
 1.2724982604e+000	 7.9832182514e-002	 4.0361879562e+000
 1.2717212698e+000	 9.1378399684e-002	 4.0193426093e+000
 1.2708363430e+000	 1.0295624979e-001	 3.9986576900e+000
 1.2698425085e+000	 1.1456440834e-001	 3.9737573828e+000
 1.3000000000e+000	 0.0000000000e+000	 3.9420691176e+000
 1.2999490333e+000	 1.1511332401e-002	 3.9411233191e+000
 1.2997953955e+000	 2.3063601588e-002	 3.9384308867e+000
 1.2995379894e+000	 3.4655650234e-002	 3.9336142300e+000
 1.2991757306e+000	 4.6286293165e-002	 3.9262962590e+000
 1.2987075487e+000	 5.7954317410e-002	 3.9161007052e+000
 1.2981323876e+000	 6.9658482273e-002	 3.9026524424e+000
 1.2974492067e+000	 8.1397519425e-002	 3.8855778074e+000
 1.2966569810e+000	 9.3170133010e-002	 3.8645049182e+000
 1.2957547027e+000	 1.0497499979e-001	 3.8390639907e+000
 1.2947413812e+000	 1.1681076929e-001	 3.8088876522e+000
 1.3250000000e+000	 0.0000000000e+000	 3.8230447130e+000
 1.3249480532e+000	 1.1732704177e-002	 3.8234859142e+000
 1.3247914608e+000	 2.3507132387e-002	 3.8215978366e+000
 1.3245291046e+000	 3.5322105045e-002	 3.8170050262e+000
 1.3241598793e+000	 4.7176414186e-002	 3.8093333455e+000
 1.3236826939e+000	 5.9068823513e-002	 3.7982103068e+000
 1.3230964720e+000	 7.0998068470e-002	 3.7832654055e+000
 1.3224001529e+000	 8.2962856336e-002	 3.7641304507e+000
 1.3215926922e+000	 9.4961866336e-002	 3.7404398934e+000
 1.3206730623e+000	 1.0699374978e-001	 3.7118311509e+000
 1.3196402539e+000	 1.1905713023e-001	 3.6779449276e+000
 1.3500000000e+000	 0.0000000000e+000	 3.7212764399e+000
 1.3499470731e+000	 1.1954075954e-002	 3.7247594187e+000
 1.3497875261e+000	 2.3950663186e-002	 3.7253108651e+000
 1.3495202198e+000	 3.5988559857e-002	 3.7225569785e+000
 1.3491440280e+000	 4.8066535207e-002	 3.7161261104e+000
 1.3486578391e+000	 6.0183329615e-002	 3.7056491127e+000
 1.3480605564e+000	 7.2337654666e-002	 3.6907596824e+000
 1.3473510992e+000	 8.4528193246e-002	 3.6710947043e+000
 1.3465284033e+000	 9.6753599662e-002	 3.6462945885e+000
 1.3455914220e+000	 1.0901249978e-001	 3.6160036042e+000
 1.3445391266e+000	 1.2130349118e-001	 3.5798702076e+000
 1.3750000000e+000	 0.0000000000e+000	 3.6367031882e+000
 1.3749460929e+000	 1.2175447730e-002	 3.6447929854e+000
 1.3747835914e+000	 2.4394193985e-002	 3.6493283150e+000
 1.3745113349e+000	 3.6655014668e-002	 3.6499365745e+000
 1.3741281766e+000	 4.8956656228e-002	 3.6462481726e+000
 1.3736329842e+000	 6.1297835718e-002	 3.6378968903e+000
 1.3730246408e+000	 7.3677240862e-002	 3.6245202405e+000
 1.3723020455e+000	 8.6093530156e-002	 3.6057598208e+000
 1.3714641145e+000	 9.8545332987e-002	 3.5812616634e+000
 1.3705097816e+000	 1.1103124977e-001	 3.5506765768e+000
 1.3694379994e+000	 1.2354985212e-001	 3.5136604829e+000
 1.4000000000e+000	 0.0000000000e+000	 3.5692682124e+000
 1.3999451128e+000	 1.2396819507e-002	 3.5834447037e+000
 1.3997796567e+000	 2.4837724784e-002	 3.5934220609e+000
 1.3995024501e+000	 3.7321469479e-002	 3.5988284529e+000
 1.3991123253e+000	 4.9846777250e-002	 3.5992959415e+000
 1.3986081294e+000	 6.2412341821e-002	 3.5944608581e+000
 1.3979887252e+000	 7.5016827058e-002	 3.5839641761e+000
 1.3972529918e+000	 8.7658867067e-002	 3.5674518773e+000
 1.3963998257e+000	 1.0033706631e-001	 3.5445753123e+000
 1.3954281413e+000	 1.1304999977e-001	 3.5149915531e+000
 1.3943368721e+000	 1.2579621307e-001	 3.4783637375e+000
 1.4250000000e+000	 0.0000000000e+000	 3.5189187495e+000
 1.4249441327e+000	 1.2618191283e-002	 3.5405808155e+000
 1.4247757220e+000	 2.5281255584e-002	 3.5573763227e+000
 1.4244935653e+000	 3.7987924290e-002	 3.5689338107e+000
 1.4240964740e+000	 5.0736898271e-002	 3.5748866187e+000
 1.4235832746e+000	 6.3526847923e-002	 3.5748732774e+000
 1.4229528095e+000	 7.6356413254e-002	 3.5685378966e+000
 1.4222039381e+000	 8.9224203976e-002	 3.5555305447e+000
 1.4213355368e+000	 1.0212879964e-001	 3.5355076206e+000
 1.4203465010e+000	 1.1506874976e-001	 3.5081322173e+000
 1.4192357448e+000	 1.2804257402e-001	 3.4730744752e+000
 1.4500000000e+000	 0.0000000000e+000	 3.4856056752e+000
 1.4499431525e+000	 1.2839563060e-002	 3.5160750122e+000
 1.4497717873e+000	 2.5724786383e-002	 3.5409866010e+000
 1.4494846805e+000	 3.8654379101e-002	 3.5599689763e+000
 1.4490806226e+000	 5.1627019292e-002	 3.5726564046e+000
 1.4485584197e+000	 6.4641354025e-002	 3.5786892936e+000
 1.4479168939e+000	 7.7695999449e-002	 3.5777145937e+000
 1.4471548843e+000	 9.0789540886e-002	 3.5693861923e+000
 1.4462712480e+000	 1.0392053296e-001	 3.5533652983e+000
 1.4452648606e+000	 1.1708749975e-001	 3.5293208162e+000
 1.4441346175e+000	 1.3028893496e-001	 3.4969297096e+000
 1.4750000000e+000	 0.0000000000e+000	 3.4692831956e+000
 1.4749421724e+000	 1.3060934837e-002	 3.5098078038e+000
 1.4747678526e+000	 2.6168317182e-002	 3.5440587215e+000
 1.4744757957e+000	 3.9320833912e-002	 3.5716641268e+000
 1.4740647713e+000	 5.2517140313e-002	 3.5922588893e+000
 1.4735335649e+000	 6.5755860127e-002	 3.6054849968e+000
 1.4728809783e+000	 7.9035585644e-002	 3.6109919730e+000
 1.4721058306e+000	 9.2354877796e-002	 3.6084372859e+000
 1.4712069592e+000	 1.0571226629e-001	 3.5974867457e+000
 1.4701832203e+000	 1.1910624974e-001	 3.5778148907e+000
 1.4690334902e+000	 1.3253529590e-001	 3.5491053610e+000
 1.5000000000e+000	 0.0000000000e+000	 3.4699085698e+000
 1.4999411923e+000	 1.3282306613e-002	 3.5216659502e+000
 1.4997639179e+000	 2.6611847981e-002	 3.5664079741e+000
 1.4994669109e+000	 3.9987288723e-002	 3.6037621341e+000
 1.4990489200e+000	 5.3407261333e-002	 3.6333636027e+000
 1.4985087101e+000	 6.6870366229e-002	 3.6548556768e+000
 1.4978450627e+000	 8.0375171839e-002	 3.6678902119e+000
 1.4970567769e+000	 9.3920214705e-002	 3.6721280463e+000
 1.4961426704e+000	 1.0750399961e-001	 3.6672394123e+000
 1.4951015800e+000	 1.2112499974e-001	 3.6529043347e+000
 1.4939323629e+000	 1.3478165685e-001	 3.6288130150e+000
 1.2449436358e+000	 1.1231804739e-001	 4.0295764276e+000
 1.2438615812e+000	 1.2372698459e-001	 4.0125381561e+000
 1.2426709033e+000	 1.3516296104e-001	 3.9904615804e+000
 1.2413707047e+000	 1.4662460078e-001	 3.9632330807e+000
 1.2399601078e+000	 1.5811050249e-001	 3.9307397041e+000
 1.2384382558e+000	 1.6961923973e-001	 3.8928693032e+000
 1.2368043131e+000	 1.8114936129e-001	 3.8495106769e+000
 1.2350574661e+000	 1.9269939142e-001	 3.8005537128e+000
 1.2331969241e+000	 2.0426783022e-001	 3.7458895328e+000
 1.2312219198e+000	 2.1585315397e-001	 3.6854106391e+000
 1.2291317105e+000	 2.2745381553e-001	 3.6190110628e+000
 1.2698425085e+000	 1.1456440834e-001	 3.9737573828e+000
 1.2687388129e+000	 1.2620152428e-001	 3.9764612628e+000
 1.2675243214e+000	 1.3786622027e-001	 3.9749398155e+000
 1.2661981188e+000	 1.4955709280e-001	 3.9688477915e+000
 1.2647593100e+000	 1.6127271254e-001	 3.9578427575e+000
 1.2632070210e+000	 1.7301162453e-001	 3.9415853646e+000
 1.2615403994e+000	 1.8477234852e-001	 3.9197396123e+000
 1.2597586154e+000	 1.9655337925e-001	 3.8919731047e+000
 1.2578608626e+000	 2.0835318683e-001	 3.8579573008e+000
 1.2558463582e+000	 2.2017021705e-001	 3.8173677565e+000
 1.2537143447e+000	 2.3200289184e-001	 3.7698843596e+000
 1.2947413812e+000	 1.1681076929e-001	 3.8088876522e+000
 1.2936160445e+000	 1.2867606398e-001	 3.8075099177e+000
 1.2923777395e+000	 1.4056947949e-001	 3.8017021993e+000
 1.2910255329e+000	 1.5248958481e-001	 3.7911301436e+000
 1.2895585122e+000	 1.6443492259e-001	 3.7754628172e+000
 1.2879757861e+000	 1.7640400932e-001	 3.7543729703e+000
 1.2862764856e+000	 1.8839533574e-001	 3.7275372912e+000
 1.2844597647e+000	 2.0040736708e-001	 3.6946366549e+000
 1.2825248010e+000	 2.1243854343e-001	 3.6553563619e+000
 1.2804707966e+000	 2.2448728013e-001	 3.6093863691e+000
 1.2782969789e+000	 2.3655196814e-001	 3.5564215108e+000
 1.3196402539e+000	 1.1905713023e-001	 3.6779449276e+000
 1.3184932761e+000	 1.3115060367e-001	 3.6738085364e+000
 1.3172311575e+000	 1.4327273871e-001	 3.6650030888e+000
 1.3158529470e+000	 1.5542207683e-001	 3.6512048108e+000
 1.3143577143e+000	 1.6759713264e-001	 3.6320939848e+000
 1.3127445512e+000	 1.7979639412e-001	 3.6073552061e+000
 1.3110125719e+000	 1.9201832297e-001	 3.5766776317e+000
 1.3091609141e+000	 2.0426135491e-001	 3.5397552188e+000
 1.3071887395e+000	 2.1652390003e-001	 3.4962869547e+000
 1.3050952350e+000	 2.2880434321e-001	 3.4459770752e+000
 1.3028796131e+000	 2.4110104445e-001	 3.3885352727e+000
 1.3445391266e+000	 1.2130349118e-001	 3.5798702076e+000
 1.3433705078e+000	 1.3362514336e-001	 3.5742061766e+000
 1.3420845756e+000	 1.4597599793e-001	 3.5635995222e+000
 1.3406803611e+000	 1.5835456884e-001	 3.5477367800e+000
 1.3391569165e+000	 1.7075934268e-001	 3.5263092102e+000
 1.3375133163e+000	 1.8318877891e-001	 3.4990130488e+000
 1.3357486582e+000	 1.9564131019e-001	 3.4655497494e+000
 1.3338620634e+000	 2.0811534273e-001	 3.4256262138e+000
 1.3318526780e+000	 2.2060925664e-001	 3.3789550119e+000
 1.3297196734e+000	 2.3312140629e-001	 3.3252545885e+000
 1.3274622474e+000	 2.4565012076e-001	 3.2642494594e+000
 1.3694379994e+000	 1.2354985212e-001	 3.5136604829e+000
 1.3682477394e+000	 1.3609968305e-001	 3.5076122067e+000
 1.3669379937e+000	 1.4867925715e-001	 3.4963131283e+000
 1.3655077752e+000	 1.6128706086e-001	 3.4794598676e+000
 1.3639561186e+000	 1.7392155273e-001	 3.4567544699e+000
 1.3622820814e+000	 1.8658116370e-001	 3.4279046533e+000
 1.3604847444e+000	 1.9926429742e-001	 3.3926240435e+000
 1.3585632127e+000	 2.1196933056e-001	 3.3506323971e+000
 1.3565166165e+000	 2.2469461324e-001	 3.3016558114e+000
 1.3543441118e+000	 2.3743846937e-001	 3.2454269208e+000
 1.3520448816e+000	 2.5019919707e-001	 3.1816850793e+000
 1.3943368721e+000	 1.2579621307e-001	 3.4783637375e+000
 1.3931249710e+000	 1.3857422274e-001	 3.4729909203e+000
 1.3917914117e+000	 1.5138251636e-001	 3.4620243590e+000
 1.3903351893e+000	 1.6421955287e-001	 3.4451705738e+000
 1.3887553208e+000	 1.7708376278e-001	 3.4221422461e+000
 1.3870508465e+000	 1.8997354850e-001	 3.3926584616e+000
 1.3852208307e+000	 2.0288728464e-001	 3.3564449392e+000
 1.3832643620e+000	 2.1582331839e-001	 3.3132342461e+000
 1.3811805550e+000	 2.2877996984e-001	 3.2627659995e+000
 1.3789685502e+000	 2.4175553244e-001	 3.2047870510e+000
 1.3766275158e+000	 2.5474827338e-001	 3.1390516575e+000
 1.4192357448e+000	 1.2804257402e-001	 3.4730744752e+000
 1.4180022026e+000	 1.4104876243e-001	 3.4693567188e+000
 1.4166448298e+000	 1.5408577558e-001	 3.4596673294e+000
 1.4151626033e+000	 1.6715204489e-001	 3.4437225842e+000
 1.4135545229e+000	 1.8024597283e-001	 3.4212456933e+000
 1.4118196117e+000	 1.9336593329e-001	 3.3919670379e+000
 1.4099569169e+000	 2.0651027186e-001	 3.3556243941e+000
 1.4079655113e+000	 2.1967730621e-001	 3.3119631409e+000
 1.4058444934e+000	 2.3286532645e-001	 3.2607364524e+000
 1.4035929886e+000	 2.4607259552e-001	 3.2017054722e+000
 1.4012101500e+000	 2.5929734969e-001	 3.1346394712e+000
 1.4441346175e+000	 1.3028893496e-001	 3.4969297096e+000
 1.4428794342e+000	 1.4352330212e-001	 3.4957697916e+000
 1.4414982479e+000	 1.5678903480e-001	 3.4882251916e+000
 1.4399900174e+000	 1.7008453690e-001	 3.4740218400e+000
 1.4383537251e+000	 1.8340818287e-001	 3.4528934075e+000
 1.4365883768e+000	 1.9675831808e-001	 3.4245815399e+000
 1.4346930032e+000	 2.1013325909e-001	 3.3888360766e+000
 1.4326666607e+000	 2.2353129404e-001	 3.3454152519e+000
 1.4305084319e+000	 2.3695068305e-001	 3.2940858779e+000
 1.4282174270e+000	 2.5038965860e-001	 3.2346235093e+000
 1.4257927842e+000	 2.6384642600e-001	 3.1668125879e+000
 1.4690334902e+000	 1.3253529590e-001	 3.5491053610e+000
 1.4677566659e+000	 1.4599784180e-001	 3.5513322356e+000
 1.4663516659e+000	 1.5949229402e-001	 3.5467259795e+000
 1.4648174315e+000	 1.7301702891e-001	 3.5350221097e+000
 1.4631529272e+000	 1.8657039292e-001	 3.5159647282e+000
 1.4613571419e+000	 2.0015070287e-001	 3.4893067539e+000
 1.4594290895e+000	 2.1375624631e-001	 3.4548101361e+000
 1.4573678100e+000	 2.2738528187e-001	 3.4122460491e+000
 1.4551723704e+000	 2.4103603965e-001	 3.3613950667e+000
 1.4528418654e+000	 2.5470672168e-001	 3.3020473166e+000
 1.4503754184e+000	 2.6839550231e-001	 3.2340026125e+000
 1.4939323629e+000	 1.3478165685e-001	 3.6288130150e+000
 1.4926338975e+000	 1.4847238149e-001	 3.6351845630e+000
 1.4912050840e+000	 1.6219555323e-001	 3.6342388681e+000
 1.4896448456e+000	 1.7594952092e-001	 3.6257210032e+000
 1.4879521294e+000	 1.8973260296e-001	 3.6093855095e+000
 1.4861259070e+000	 2.0354308766e-001	 3.5849966256e+000
 1.4841651757e+000	 2.1737923353e-001	 3.5523284962e+000
 1.4820689593e+000	 2.3123926969e-001	 3.5111653606e+000
 1.4798363089e+000	 2.4512139625e-001	 3.4613017188e+000
 1.4774663038e+000	 2.5902378476e-001	 3.4025424750e+000
 1.4749580526e+000	 2.7294457862e-001	 3.3347030587e+000
 1.2291317105e+000	 2.2745381553e-001	 3.6190110628e+000
 1.2269255782e+000	 2.3906824470e-001	 3.5944379462e+000
 1.2246028306e+000	 2.5069484874e-001	 3.5641097686e+000
 1.2221628022e+000	 2.6233201271e-001	 3.5279638216e+000
 1.2196048543e+000	 2.7397810005e-001	 3.4859402221e+000
 1.2169283763e+000	 2.8563145302e-001	 3.4379820392e+000
 1.2141327860e+000	 2.9729039324e-001	 3.3840354199e+000
 1.2112175306e+000	 3.0895322226e-001	 3.3240497121e+000
 1.2081820871e+000	 3.2061822211e-001	 3.2579775864e+000
 1.2050259632e+000	 3.3228365593e-001	 3.1857751546e+000
 1.2017486977e+000	 3.4394776857e-001	 3.1074020861e+000
 1.2537143447e+000	 2.3200289184e-001	 3.7698843596e+000
 1.2514640897e+000	 2.4384960960e-001	 3.7657387100e+000
 1.2490948872e+000	 2.5570874571e-001	 3.7384419364e+000
 1.2466060582e+000	 2.6757865297e-001	 3.6784967417e+000
 1.2439969514e+000	 2.7945766205e-001	 3.6129291480e+000
 1.2412669438e+000	 2.9134408208e-001	 3.5416916242e+000
 1.2384154417e+000	 3.0323620110e-001	 3.4647396426e+000
 1.2354418812e+000	 3.1513228670e-001	 3.3820317942e+000
 1.2323457289e+000	 3.2703058655e-001	 3.2935299023e+000
 1.2291264825e+000	 3.3892932905e-001	 3.1991991339e+000
 1.2257836717e+000	 3.5082672394e-001	 3.0990081077e+000
 1.2782969789e+000	 2.3655196814e-001	 3.5564215108e+000
 1.2760026013e+000	 2.4863097449e-001	 3.5487366548e+000
 1.2735869439e+000	 2.6072264268e-001	 3.5338117361e+000
 1.2710493143e+000	 2.7282529322e-001	 3.5113771222e+000
 1.2683890485e+000	 2.8493722405e-001	 3.4811692670e+000
 1.2656055113e+000	 2.9705671113e-001	 3.4429308658e+000
 1.2626980974e+000	 3.0918200896e-001	 3.3964109967e+000
 1.2596662318e+000	 3.2131135114e-001	 3.3413652483e+000
 1.2565093706e+000	 3.3344295099e-001	 3.2775558338e+000
 1.2532270017e+000	 3.4557500216e-001	 3.2047516912e+000
 1.2498186456e+000	 3.5770567931e-001	 3.1207387619e+000
 1.3028796131e+000	 2.4110104445e-001	 3.3885352727e+000
 1.3005411129e+000	 2.5341233938e-001	 3.3776495061e+000
 1.2980790005e+000	 2.6573653966e-001	 3.3594047480e+000
 1.2954925703e+000	 2.7807193347e-001	 3.3335392072e+000
 1.2927811456e+000	 2.9041678605e-001	 3.2997975643e+000
 1.2899440789e+000	 3.0276934019e-001	 3.2579311121e+000
 1.2869807532e+000	 3.1512781682e-001	 3.2076978805e+000
 1.2838905824e+000	 3.2749041558e-001	 3.1488627476e+000
 1.2806730123e+000	 3.3985531543e-001	 3.0811975355e+000
 1.2773275210e+000	 3.5222067528e-001	 3.0044810902e+000
 1.2738536196e+000	 3.6458463467e-001	 2.9184993472e+000
 1.3274622474e+000	 2.4565012076e-001	 3.2642494594e+000
 1.3250796244e+000	 2.5819370428e-001	 3.2504455570e+000
 1.3225710571e+000	 2.7075043663e-001	 3.2291268613e+000
 1.3199358264e+000	 2.8331857372e-001	 3.2000397312e+000
 1.3171732427e+000	 2.9589634805e-001	 3.1629374210e+000
 1.3142826464e+000	 3.0848196925e-001	 3.1175802059e+000
 1.3112634089e+000	 3.2107362469e-001	 3.0637354912e+000
 1.3081149330e+000	 3.3366948003e-001	 3.0011779057e+000
 1.3048366541e+000	 3.4626767987e-001	 2.9296893782e+000
 1.3014280403e+000	 3.5886634840e-001	 2.8490591982e+000
 1.2978885935e+000	 3.7146359004e-001	 2.7590840587e+000
 1.3520448816e+000	 2.5019919707e-001	 3.1816850793e+000
 1.3496181360e+000	 2.6297506917e-001	 3.1651915888e+000
 1.3470631137e+000	 2.7576433361e-001	 3.1409910625e+000
 1.3443790824e+000	 2.8856521398e-001	 3.1088383574e+000
 1.3415653397e+000	 3.0137591005e-001	 3.0684956892e+000
 1.3386212139e+000	 3.1419459831e-001	 3.0197327422e+000
 1.3355460646e+000	 3.2701943255e-001	 2.9623267616e+000
 1.3323392837e+000	 3.3984854447e-001	 2.8960626298e+000
 1.3290002958e+000	 3.5268004431e-001	 2.8207329230e+000
 1.3255285595e+000	 3.6551202151e-001	 2.7361379513e+000
 1.3219235675e+000	 3.7834254541e-001	 2.6420857795e+000
 1.3766275158e+000	 2.5474827338e-001	 3.1390516575e+000
 1.3741566475e+000	 2.6775643406e-001	 3.1200440781e+000
 1.3715551703e+000	 2.8077823058e-001	 3.0931011522e+000
 1.3688223385e+000	 2.9381185423e-001	 3.0579866231e+000
 1.3659574368e+000	 3.0685547205e-001	 3.0144720949e+000
 1.3629597814e+000	 3.1990722737e-001	 2.9623371272e+000
 1.3598287203e+000	 3.3296524041e-001	 2.9013693110e+000
 1.3565636343e+000	 3.4602760891e-001	 2.8313643257e+000
 1.3531639376e+000	 3.5909240875e-001	 2.7521259769e+000
 1.3496290788e+000	 3.7215769463e-001	 2.6634662142e+000
 1.3459585415e+000	 3.8522150078e-001	 2.5652051304e+000
 1.4012101500e+000	 2.5929734969e-001	 3.1346394712e+000
 1.3986951591e+000	 2.7253779896e-001	 3.1132413281e+000
 1.3960472269e+000	 2.8579212755e-001	 3.0836437796e+000
 1.3932655945e+000	 2.9905849449e-001	 3.0456198809e+000
 1.3903495339e+000	 3.1233503405e-001	 2.9989510907e+000
 1.3872983490e+000	 3.2561985643e-001	 2.9434273495e+000
 1.3841113760e+000	 3.3891104828e-001	 2.8788471391e+000
 1.3807879849e+000	 3.5220667336e-001	 2.8050175202e+000
 1.3773275793e+000	 3.6550477319e-001	 2.7217541496e+000
 1.3737295980e+000	 3.7880336775e-001	 2.6288812773e+000
 1.3699935154e+000	 3.9210045615e-001	 2.5262317206e+000
 1.4257927842e+000	 2.6384642600e-001	 3.1668125879e+000
 1.4232336707e+000	 2.7731916385e-001	 3.1430964148e+000
 1.4205392835e+000	 2.9080602453e-001	 3.1108812998e+000
 1.4177088505e+000	 3.0430513474e-001	 3.0699500732e+000
 1.4147416310e+000	 3.1781459605e-001	 3.0200945519e+000
 1.4116369165e+000	 3.3133248549e-001	 2.9611156020e+000
 1.4083940318e+000	 3.4485685614e-001	 2.8928231797e+000
 1.4050123355e+000	 3.5838573780e-001	 2.8150363505e+000
 1.4014912211e+000	 3.7191713763e-001	 2.7275832852e+000
 1.3978301173e+000	 3.8544904087e-001	 2.6303012337e+000
 1.3940284894e+000	 3.9897941152e-001	 2.5230364760e+000
 1.4503754184e+000	 2.6839550231e-001	 3.2340026125e+000
 1.4477721822e+000	 2.8210052874e-001	 3.2079908507e+000
 1.4450313401e+000	 2.9581992150e-001	 3.1731453585e+000
 1.4421521066e+000	 3.0955177499e-001	 3.1292592414e+000
 1.4391337281e+000	 3.2329415806e-001	 3.0761352156e+000
 1.4359754840e+000	 3.3704511455e-001	 3.0135856544e+000
 1.4326766875e+000	 3.5080266401e-001	 2.9414326112e+000
 1.4292366861e+000	 3.6456480225e-001	 2.8595078183e+000
 1.4256548628e+000	 3.7832950208e-001	 2.7676526617e+000
 1.4219306366e+000	 3.9209471399e-001	 2.6657181317e+000
 1.4180634633e+000	 4.0585836689e-001	 2.5535647484e+000
 1.4749580526e+000	 2.7294457862e-001	 3.3347030587e+000
 1.4723106938e+000	 2.8688189364e-001	 3.3063688811e+000
 1.4695233968e+000	 3.0083381848e-001	 3.2688311176e+000
 1.4665953626e+000	 3.1479841525e-001	 3.2218936844e+000
 1.4635258252e+000	 3.2877372006e-001	 3.1653707749e+000
 1.4603140515e+000	 3.4275774362e-001	 3.0990868887e+000
 1.4569593432e+000	 3.5674847188e-001	 3.0228768362e+000
 1.4534610367e+000	 3.7074386670e-001	 2.9365857171e+000
 1.4498185045e+000	 3.8474186652e-001	 2.8400688725e+000
 1.4460311558e+000	 3.9874038711e-001	 2.7331918119e+000
 1.4420984373e+000	 4.1273732227e-001	 2.6158301128e+000
 1.2017486977e+000	 3.4394776857e-001	 3.1074020861e+000
 1.1983498614e+000	 3.5560878723e-001	 3.0868508839e+000
 1.1948290576e+000	 3.6726492216e-001	 3.0562598240e+000
 1.1911859226e+000	 3.7891436731e-001	 3.0156231577e+000
 1.1874201265e+000	 3.9055530112e-001	 2.9649435028e+000
 1.1835313736e+000	 4.0218588716e-001	 2.9042319844e+000
 1.1795194030e+000	 4.1380427497e-001	 2.8335083643e+000
 1.1753839893e+000	 4.2540860082e-001	 2.7528011625e+000
 1.1711249430e+000	 4.3699698847e-001	 2.6621477664e+000
 1.1667421108e+000	 4.4856755008e-001	 2.5615945297e+000
 1.1622353763e+000	 4.6011838696e-001	 2.4511968599e+000
 1.2257836717e+000	 3.5082672394e-001	 3.0990081077e+000
 1.2223168587e+000	 3.6272096297e-001	 3.0608799860e+000
 1.2187256388e+000	 3.7461022059e-001	 3.0138952904e+000
 1.2150096411e+000	 3.8649265466e-001	 2.9580502957e+000
 1.2111685290e+000	 3.9836640714e-001	 2.8933486880e+000
 1.2072020010e+000	 4.1022960490e-001	 2.8198016917e+000
 1.2031097911e+000	 4.2208036047e-001	 2.7374281869e+000
 1.1988916691e+000	 4.3391677283e-001	 2.6462548176e+000
 1.1945474418e+000	 4.4573692824e-001	 2.5463160906e+000
 1.1900769530e+000	 4.5753890108e-001	 2.4376544645e+000
 1.1854800839e+000	 4.6932075469e-001	 2.3203204275e+000
 1.2498186456e+000	 3.5770567931e-001	 3.1207387619e+000
 1.2462838559e+000	 3.6983313871e-001	 3.0642980978e+000
 1.2426222199e+000	 3.8195551903e-001	 3.0001220228e+000
 1.2388333595e+000	 3.9407094200e-001	 2.9282087227e+000
 1.2349169315e+000	 4.0617751316e-001	 2.8485628818e+000
 1.2308726285e+000	 4.1827332264e-001	 2.7611957963e+000
 1.2267001791e+000	 4.3035644597e-001	 2.6661254792e+000
 1.2223993489e+000	 4.4242494484e-001	 2.5633767576e+000
 1.2179699407e+000	 4.5447686801e-001	 2.4529813609e+000
 1.2134117952e+000	 4.6651025208e-001	 2.3349779997e+000
 1.2087247914e+000	 4.7852312243e-001	 2.2094124362e+000
 1.2738536196e+000	 3.6458463467e-001	 2.9184993472e+000
 1.2702508531e+000	 3.7694531445e-001	 2.8963249780e+000
 1.2665188011e+000	 3.8930081747e-001	 2.8631426583e+000
 1.2626570780e+000	 4.0164922934e-001	 2.8187637753e+000
 1.2586653341e+000	 4.1398861918e-001	 2.7630089006e+000
 1.2545432560e+000	 4.2631704038e-001	 2.6957078015e+000
 1.2502905672e+000	 4.3863253146e-001	 2.6166994348e+000
 1.2459070287e+000	 4.5093311686e-001	 2.5031406177e+000
 1.2413924396e+000	 4.6321680778e-001	 2.3811809207e+000
 1.2367466374e+000	 4.7548160308e-001	 2.2526690265e+000
 1.2319694989e+000	 4.8772549017e-001	 2.1176461529e+000
 1.2978885935e+000	 3.7146359004e-001	 2.7590840587e+000
 1.2942178504e+000	 3.8405749020e-001	 2.7343476192e+000
 1.2904153822e+000	 3.9664611591e-001	 2.6993027252e+000
 1.2864807964e+000	 4.0922751669e-001	 2.6537661408e+000
 1.2824137366e+000	 4.2179972519e-001	 2.5975632769e+000
 1.2782138834e+000	 4.3436075812e-001	 2.5305281710e+000
 1.2738809552e+000	 4.4690861696e-001	 2.4525034472e+000
 1.2694147085e+000	 4.5944128887e-001	 2.3633402594e+000
 1.2648149384e+000	 4.7195674754e-001	 2.2628982151e+000
 1.2600814796e+000	 4.8445295408e-001	 2.1510452824e+000
 1.2552142064e+000	 4.9692785791e-001	 2.0276576792e+000
 1.3219235675e+000	 3.7834254541e-001	 2.6420857795e+000
 1.3181848476e+000	 3.9116966594e-001	 2.6139519131e+000
 1.3143119634e+000	 4.0399141435e-001	 2.5761485495e+000
 1.3103045149e+000	 4.1680580403e-001	 2.5284986600e+000
 1.3061621391e+000	 4.2961083121e-001	 2.4708333781e+000
 1.3018845109e+000	 4.4240447586e-001	 2.4029919449e+000
 1.2974713433e+000	 4.5518470246e-001	 2.3248216364e+000
 1.2929223883e+000	 4.6794946089e-001	 2.2361776718e+000
 1.2882374373e+000	 4.8069668731e-001	 2.1369231034e+000
 1.2834163219e+000	 4.9342430508e-001	 2.0269286894e+000
 1.2784589140e+000	 5.0613022564e-001	 1.9060727482e+000
 1.3459585415e+000	 3.8522150078e-001	 2.5652051304e+000
 1.3421518448e+000	 3.9828184168e-001	 2.5328295378e+000
 1.3382085446e+000	 4.1133671280e-001	 2.4913652189e+000
 1.3341282333e+000	 4.2438409137e-001	 2.4406422197e+000
 1.3299105417e+000	 4.3742193723e-001	 2.3804983142e+000
 1.3255551384e+000	 4.5044819360e-001	 2.3107789164e+000
 1.3210617314e+000	 4.6346078795e-001	 2.2313369718e+000
 1.3164300681e+000	 4.7645763290e-001	 2.1420328310e+000
 1.3116599362e+000	 4.8943662708e-001	 2.0427341045e+000
 1.3067511641e+000	 5.0239565608e-001	 1.9333154993e+000
 1.3017036215e+000	 5.1533259338e-001	 1.8136586381e+000
 1.3699935154e+000	 3.9210045615e-001	 2.5262317206e+000
 1.3661188421e+000	 4.0539401742e-001	 2.4887589554e+000
 1.3621051257e+000	 4.1868201124e-001	 2.4427222295e+000
 1.3579519518e+000	 4.3196237872e-001	 2.3879595669e+000
 1.3536589442e+000	 4.4523304325e-001	 2.3243163365e+000
 1.3492257659e+000	 4.5849191134e-001	 2.2516451282e+000
 1.3446521194e+000	 4.7173687345e-001	 2.1698056088e+000
 1.3399377478e+000	 4.8496580491e-001	 2.0786643595e+000
 1.3350824350e+000	 4.9817656684e-001	 1.9780946938e+000
 1.3300860063e+000	 5.1136700707e-001	 1.8679764572e+000
 1.3249483290e+000	 5.2453496112e-001	 1.7481958094e+000
 1.3940284894e+000	 3.9897941152e-001	 2.5230364760e+000
 1.3900858393e+000	 4.1250619317e-001	 2.4795979307e+000
 1.3860017069e+000	 4.2602730968e-001	 2.4280662089e+000
 1.3817756702e+000	 4.3954066606e-001	 2.3682882525e+000
 1.3774073467e+000	 4.5304414927e-001	 2.3001180147e+000
 1.3728963933e+000	 4.6653562908e-001	 2.2234162992e+000
 1.3682425075e+000	 4.8001295895e-001	 2.1380505800e+000
 1.3634454276e+000	 4.9347397693e-001	 2.0438948007e+000
 1.3585049339e+000	 5.0691650661e-001	 1.9408291546e+000
 1.3534208485e+000	 5.2033835807e-001	 1.8287398468e+000
 1.3481930365e+000	 5.3373732886e-001	 1.7075188369e+000
 1.4180634633e+000	 4.0585836689e-001	 2.5535647484e+000
 1.4140528365e+000	 4.1961836891e-001	 2.5032768107e+000
 1.4098982880e+000	 4.3337260812e-001	 2.4453143800e+000
 1.4055993887e+000	 4.4711895341e-001	 2.3795342919e+000
 1.4011557493e+000	 4.6085525529e-001	 2.3058001084e+000
 1.3965670208e+000	 4.7457934682e-001	 2.2239819201e+000
 1.3918328955e+000	 4.8828904444e-001	 2.1339561275e+000
 1.3869531074e+000	 5.0198214894e-001	 2.0356052016e+000
 1.3819274327e+000	 5.1565644638e-001	 1.9288174253e+000
 1.3767556907e+000	 5.2930970907e-001	 1.8134866148e+000
 1.3714377441e+000	 5.4293969659e-001	 1.6895118235e+000
 1.4420984373e+000	 4.1273732227e-001	 2.6158301128e+000
 1.4380198337e+000	 4.2673054465e-001	 2.5577924759e+000
 1.4337948692e+000	 4.4071790656e-001	 2.4924486778e+000
 1.4294231071e+000	 4.5469724075e-001	 2.4196664592e+000
 1.4249041518e+000	 4.6866636131e-001	 2.3393200513e+000
 1.4202376483e+000	 4.8262306456e-001	 2.2512899387e+000
 1.4154232836e+000	 4.9656512994e-001	 2.1554626019e+000
 1.4104607872e+000	 5.1049032095e-001	 2.0517302380e+000
 1.4053499316e+000	 5.2439638615e-001	 1.9399904609e+000
 1.4000905329e+000	 5.3828106007e-001	 1.8201459822e+000
 1.3946824516e+000	 5.5214206433e-001	 1.6921042730e+000
 1.1622353763e+000	 4.6011838696e-001	 2.4511968599e+000
 1.1576046607e+000	 4.7164759049e-001	 2.4100009372e+000
 1.1528499225e+000	 4.8315324300e-001	 2.3635239653e+000
 1.1479711587e+000	 4.9463341865e-001	 2.3119392688e+000
 1.1429684047e+000	 5.0608618433e-001	 2.2554267482e+000
 1.1378417347e+000	 5.1750960065e-001	 2.1941727744e+000
 1.1325912624e+000	 5.2890172284e-001	 2.1283700704e+000
 1.1272171407e+000	 5.4026060171e-001	 2.0582175818e+000
 1.1217195625e+000	 5.5158428467e-001	 1.9839203351e+000
 1.1160987607e+000	 5.6287081669e-001	 1.9056892844e+000
 1.1103550086e+000	 5.7411824131e-001	 1.8237411455e+000
 1.1854800839e+000	 4.6932075469e-001	 2.3203204275e+000
 1.1807567539e+000	 4.8108054230e-001	 2.2776607691e+000
 1.1759069209e+000	 4.9281630786e-001	 2.2283205293e+000
 1.1709305819e+000	 5.0452608702e-001	 2.1724600142e+000
 1.1658277727e+000	 5.1620790802e-001	 2.1102473682e+000
 1.1605985694e+000	 5.2785979267e-001	 2.0418584970e+000
 1.1552430876e+000	 5.3947975730e-001	 1.9674769775e+000
 1.1497614835e+000	 5.5106581375e-001	 1.8872939548e+000
 1.1441539538e+000	 5.6261597037e-001	 1.8015080246e+000
 1.1384207360e+000	 5.7412823303e-001	 1.7103251036e+000
 1.1325621087e+000	 5.8560060613e-001	 1.6139582847e+000
 1.2087247914e+000	 4.7852312243e-001	 2.2094124362e+000
 1.2039088471e+000	 4.9051349411e-001	 2.1644087484e+000
 1.1989639194e+000	 5.0247937272e-001	 2.1113635002e+000
 1.1938900050e+000	 5.1441875539e-001	 2.0504246455e+000
 1.1886871408e+000	 5.2632963171e-001	 1.9817492266e+000
 1.1833554041e+000	 5.3820998468e-001	 1.9055033254e+000
 1.1778949129e+000	 5.5005779175e-001	 1.8218620008e+000
 1.1723058263e+000	 5.6187102578e-001	 1.7310092104e+000
 1.1665883450e+000	 5.7364765606e-001	 1.6331377183e+000
 1.1607427112e+000	 5.8538564936e-001	 1.5284489868e+000
 1.1547692089e+000	 5.9708297096e-001	 1.4171530533e+000
 1.2319694989e+000	 4.8772549017e-001	 2.1176461529e+000
 1.2270609403e+000	 4.9994644592e-001	 2.0694633646e+000
 1.2220209178e+000	 5.1214243758e-001	 2.0119137394e+000
 1.2168494282e+000	 5.2431142377e-001	 1.9451335102e+000
 1.2115465089e+000	 5.3645135539e-001	 1.8692692375e+000
 1.2061122388e+000	 5.4856017669e-001	 1.7844777889e+000
 1.2005467381e+000	 5.6063582621e-001	 1.6909263024e+000
 1.1948501691e+000	 5.7267623781e-001	 1.5887921338e+000
 1.1890227363e+000	 5.8467934175e-001	 1.4782627871e+000
 1.1830646864e+000	 5.9664306569e-001	 1.3595358286e+000
 1.1769763091e+000	 6.0856533578e-001	 1.2328187837e+000
 1.2552142064e+000	 4.9692785791e-001	 2.0276576792e+000
 1.2502130335e+000	 5.0937939773e-001	 1.9915803978e+000
 1.2450779163e+000	 5.2180550244e-001	 1.9293043296e+000
 1.2398088514e+000	 5.3420409214e-001	 1.8559563795e+000
 1.2344058770e+000	 5.4657307908e-001	 1.7722111408e+000
 1.2288690735e+000	 5.5891036871e-001	 1.6782168466e+000
 1.2231985634e+000	 5.7121386067e-001	 1.5741332834e+000
 1.2173945119e+000	 5.8348144985e-001	 1.4601317636e+000
 1.2114571275e+000	 5.9571102745e-001	 1.3363950784e+000
 1.2053866616e+000	 6.0790048203e-001	 1.2031174329e+000
 1.1991834092e+000	 6.2004770061e-001	 1.0605043632e+000
 1.2784589140e+000	 5.0613022564e-001	 1.9060727482e+000
 1.2733651267e+000	 5.1881234953e-001	 1.8792599708e+000
 1.2681349147e+000	 5.3146856730e-001	 1.8339403442e+000
 1.2627682746e+000	 5.4409676051e-001	 1.7700824304e+000
 1.2572652451e+000	 5.5669480277e-001	 1.6876699024e+000
 1.2516259082e+000	 5.6926056072e-001	 1.5867013441e+000
 1.2458503886e+000	 5.8179189512e-001	 1.4710029254e+000
 1.2399388547e+000	 5.9428666188e-001	 1.3445719142e+000
 1.2338915188e+000	 6.0674271314e-001	 1.2070995997e+000
 1.2277086368e+000	 6.1915789836e-001	 1.0587773397e+000
 1.2213905094e+000	 6.3153006543e-001	 9.2976239714e-001
 1.3017036215e+000	 5.1533259338e-001	 1.8136586381e+000
 1.2965172200e+000	 5.2824530134e-001	 1.7951090029e+000
 1.2911919132e+000	 5.4113163216e-001	 1.7565684090e+000
 1.2857276977e+000	 5.5398942888e-001	 1.6980030897e+000
 1.2801246132e+000	 5.6681652645e-001	 1.6193956505e+000
 1.2743827429e+000	 5.7961075273e-001	 1.5207448631e+000
 1.2685022138e+000	 5.9236992958e-001	 1.4020654336e+000
 1.2624831976e+000	 6.0509187392e-001	 1.2633877441e+000
 1.2563259100e+000	 6.1777439883e-001	 1.1047575700e+000
 1.2500306120e+000	 6.3041531469e-001	 9.4789977200e-001
 1.2435976096e+000	 6.4301243026e-001	 8.2936456809e-001
 1.3249483290e+000	 5.2453496112e-001	 1.7481958094e+000
 1.3196693132e+000	 5.3767825315e-001	 1.7369001527e+000
 1.3142489116e+000	 5.5079469702e-001	 1.7041600029e+000
 1.3086871209e+000	 5.6388209726e-001	 1.6499408711e+000
 1.3029839813e+000	 5.7693825014e-001	 1.5742258944e+000
 1.2971395776e+000	 5.8996094475e-001	 1.4770156216e+000
 1.2911540391e+000	 6.0294796403e-001	 1.3583277701e+000
 1.2850275404e+000	 6.1589708595e-001	 1.2181969561e+000
 1.2787603012e+000	 6.2880608453e-001	 1.0696157393e+000
 1.2723525872e+000	 6.4167273103e-001	 9.3710844135e-001
 1.2658047097e+000	 6.5449479508e-001	 7.9330161045e-001
 1.3481930365e+000	 5.3373732886e-001	 1.7075188369e+000
 1.3428214064e+000	 5.4711120496e-001	 1.7024579920e+000
 1.3373059101e+000	 5.6045776188e-001	 1.6745281412e+000
 1.3316465441e+000	 5.7377476563e-001	 1.6236956933e+000
 1.3258433494e+000	 5.8705997383e-001	 1.5499459308e+000
 1.3198964122e+000	 6.0031113676e-001	 1.4532827837e+000
 1.3138058643e+000	 6.1352599849e-001	 1.3337285743e+000
 1.3075718832e+000	 6.2670229798e-001	 1.1961335219e+000
 1.3011946925e+000	 6.3983777022e-001	 1.0740408556e+000
 1.2946745624e+000	 6.5293014736e-001	 9.3963267223e-001
 1.2880118099e+000	 6.6597715991e-001	 7.9286886162e-001
 1.3714377441e+000	 5.4293969659e-001	 1.6895118235e+000
 1.3659734996e+000	 5.5654415677e-001	 1.6896546060e+000
 1.3603629085e+000	 5.7012082674e-001	 1.6655314608e+000
 1.3546059672e+000	 5.8366743400e-001	 1.6171113297e+000
 1.3487027175e+000	 5.9718169751e-001	 1.5443832698e+000
 1.3426532469e+000	 6.1066132877e-001	 1.4473562144e+000
 1.3364576896e+000	 6.2410403295e-001	 1.3260587009e+000
 1.3301162260e+000	 6.3750751002e-001	 1.2141622395e+000
 1.3236290837e+000	 6.5086945591e-001	 1.0910332203e+000
 1.3169965376e+000	 6.6418756369e-001	 9.5457533388e-001
 1.3102189101e+000	 6.7745952473e-001	 8.0474227638e-001
 1.3946824516e+000	 5.5214206433e-001	 1.6921042730e+000
 1.3891255928e+000	 5.6597710858e-001	 1.6964056341e+000
 1.3834199070e+000	 5.7978389160e-001	 1.6750704187e+000
 1.3775653904e+000	 5.9356010237e-001	 1.6280717535e+000
 1.3715620856e+000	 6.0730342120e-001	 1.5554041175e+000
 1.3654100816e+000	 6.2101152078e-001	 1.4570830866e+000
 1.3591095148e+000	 6.3468206740e-001	 1.3541718672e+000
 1.3526605688e+000	 6.4831272205e-001	 1.2440703696e+000
 1.3460634750e+000	 6.6190114160e-001	 1.1197252146e+000
 1.3393185129e+000	 6.7544498003e-001	 9.8107224927e-001
 1.3324260102e+000	 6.8894188956e-001	 8.2805949589e-001
 1.1103550086e+000	 5.7411824131e-001	 1.8237411455e+000
 1.1044886196e+000	 5.8532460163e-001	 1.7757980173e+000
 1.0984999480e+000	 5.9648794139e-001	 1.7130244438e+000
 1.0923893889e+000	 6.0760630594e-001	 1.6356021266e+000
 1.0861573781e+000	 6.1867774335e-001	 1.5437291908e+000
 1.0798043922e+000	 6.2970030539e-001	 1.4695908853e+000
 1.0733309490e+000	 6.4067204862e-001	 1.4276913599e+000
 1.0667376072e+000	 6.5159103546e-001	 1.3764897825e+000
 1.0600249662e+000	 6.6245533522e-001	 1.3159649845e+000
 1.0531936664e+000	 6.7326302520e-001	 1.2461014812e+000
 1.0462443890e+000	 6.8401219173e-001	 1.1668897594e+000
 1.1325621087e+000	 5.8560060613e-001	 1.6139582847e+000
 1.1265783920e+000	 5.9703109366e-001	 1.5512885372e+000
 1.1204699470e+000	 6.0841770021e-001	 1.4749651095e+000
 1.1142371767e+000	 6.1975843206e-001	 1.3851888992e+000
 1.1078805256e+000	 6.3105129822e-001	 1.3211949102e+000
 1.1014004800e+000	 6.4229431150e-001	 1.2820480523e+000
 1.0947975680e+000	 6.5348548960e-001	 1.2352770348e+000
 1.0880723593e+000	 6.6462285617e-001	 1.1808507041e+000
 1.0812254655e+000	 6.7570444192e-001	 1.1187417389e+000
 1.0742575397e+000	 6.8672828570e-001	 1.0489269454e+000
 1.0671692768e+000	 6.9769243556e-001	 9.7138755652e-001
 1.1547692089e+000	 5.9708297096e-001	 1.4171530533e+000
 1.1486681643e+000	 6.0873758569e-001	 1.3398269210e+000
 1.1424399459e+000	 6.2034745904e-001	 1.2499676621e+000
 1.1360849645e+000	 6.3191055818e-001	 1.1896144688e+000
 1.1296036732e+000	 6.4342485309e-001	 1.1501623643e+000
 1.1229965679e+000	 6.5488831761e-001	 1.1047395720e+000
 1.1162641870e+000	 6.6629893057e-001	 1.0533073584e+000
 1.1094071114e+000	 6.7765467688e-001	 9.9582896707e-001
 1.1024259648e+000	 6.8895354863e-001	 9.3226991864e-001
 1.0953214130e+000	 7.0019354621e-001	 8.6259831645e-001
 1.0880941646e+000	 7.1137267940e-001	 7.8678515678e-001
 1.1769763091e+000	 6.0856533578e-001	 1.2328187837e+000
 1.1707579367e+000	 6.2044407772e-001	 1.1408914579e+000
 1.1644099449e+000	 6.3227721786e-001	 1.0783268590e+000
 1.1579327522e+000	 6.4406268430e-001	 1.0356140788e+000
 1.1513268207e+000	 6.5579840795e-001	 9.8856085989e-001
 1.1445926557e+000	 6.6748232371e-001	 9.3712327743e-001
 1.1377308060e+000	 6.7911237154e-001	 8.8125752688e-001
 1.1307418636e+000	 6.9068649759e-001	 8.2092022379e-001
 1.1236264641e+000	 7.0220265533e-001	 7.5606871261e-001
 1.1163852864e+000	 7.1365880671e-001	 6.8666138346e-001
 1.1090190524e+000	 7.2505292324e-001	 6.1265799625e-001
 1.1991834092e+000	 6.2004770061e-001	 1.0605043632e+000
 1.1928477091e+000	 6.3215056975e-001	 9.9064941683e-001
 1.1863799439e+000	 6.4420697669e-001	 9.4181180778e-001
 1.1797805400e+000	 6.5621481041e-001	 8.9024181789e-001
 1.1730499683e+000	 6.6817196282e-001	 8.3589271058e-001
 1.1661887436e+000	 6.8007632982e-001	 7.7871601170e-001
 1.1591974249e+000	 6.9192581251e-001	 7.1866180532e-001
 1.1520766157e+000	 7.0371831829e-001	 6.5567904171e-001
 1.1448269634e+000	 7.1545176204e-001	 5.8971585649e-001
 1.1374491597e+000	 7.2712406721e-001	 5.2071990036e-001
 1.1299439401e+000	 7.3873316707e-001	 4.4863867850e-001
 1.2213905094e+000	 6.3153006543e-001	 9.2976239714e-001
 1.2149374815e+000	 6.4385706178e-001	 8.7201674736e-001
 1.2083499428e+000	 6.5613673552e-001	 8.1312545032e-001
 1.2016283278e+000	 6.6836693653e-001	 7.5304133344e-001
 1.1947731158e+000	 6.8054551768e-001	 6.9171362939e-001
 1.1877848314e+000	 6.9267033592e-001	 6.2908826380e-001
 1.1806640439e+000	 7.0473925348e-001	 5.6510815816e-001
 1.1734113679e+000	 7.1675013900e-001	 4.9971354727e-001
 1.1660274628e+000	 7.2870086874e-001	 4.3284231053e-001
 1.1585130330e+000	 7.4058932772e-001	 3.6443031617e-001
 1.1508688279e+000	 7.5241341090e-001	 2.9441177760e-001
 1.2435976096e+000	 6.4301243026e-001	 8.2936456809e-001
 1.2370272539e+000	 6.5556355381e-001	 7.6041954102e-001
 1.2303199418e+000	 6.6806649434e-001	 6.9184974698e-001
 1.2234761156e+000	 6.8051906265e-001	 6.2360450522e-001
 1.2164962634e+000	 6.9291907255e-001	 5.5562796086e-001
 1.2093809192e+000	 7.0526434203e-001	 4.8785937864e-001
 1.2021306629e+000	 7.1755269445e-001	 4.2023345446e-001
 1.1947461200e+000	 7.2978195971e-001	 3.5268064392e-001
 1.1872279621e+000	 7.4194997544e-001	 2.8512750733e-001
 1.1795769063e+000	 7.5405458822e-001	 2.1749707011e-001
 1.1717937157e+000	 7.6609365474e-001	 1.4970919785e-001
 1.2658047097e+000	 6.5449479508e-001	 7.9330161045e-001
 1.2591170263e+000	 6.6727004585e-001	 6.9407876819e-001
 1.2522899407e+000	 6.7999625317e-001	 5.8854860371e-001
 1.2453239033e+000	 6.9267118877e-001	 5.0156721437e-001
 1.2382194110e+000	 7.0529262741e-001	 4.2728441515e-001
 1.2309770071e+000	 7.1785834814e-001	 3.5469327144e-001
 1.2235972819e+000	 7.3036613542e-001	 2.8371917803e-001
 1.2160808721e+000	 7.4281378042e-001	 2.1428173338e-001
 1.2084284614e+000	 7.5519908214e-001	 1.4629509984e-001
 1.2006407797e+000	 7.6751984872e-001	 7.9668381995e-002
 1.1927186035e+000	 7.7977389857e-001	 1.4306022034e-002
 1.2880118099e+000	 6.6597715991e-001	 7.9286886162e-001
 1.2812067987e+000	 6.7897653788e-001	 6.9397874162e-001
 1.2742599397e+000	 6.9192601199e-001	 5.8976194227e-001
 1.2671716911e+000	 7.0482331488e-001	 4.8028936547e-001
 1.2599425585e+000	 7.1766618228e-001	 3.6563748642e-001
 1.2525730949e+000	 7.3045235424e-001	 2.4588821025e-001
 1.2450639008e+000	 7.4317957639e-001	 1.5528758139e-001
 1.2374156243e+000	 7.5584560112e-001	 8.4258879623e-002
 1.2296289607e+000	 7.6844818885e-001	 1.6109149295e-002
 1.2217046530e+000	 7.8098510922e-001	-4.9267522043e-002
 1.2136434913e+000	 7.9345414240e-001	-1.1198321087e-001
 1.3102189101e+000	 6.7745952473e-001	 8.0474227638e-001
 1.3032965711e+000	 6.9068302991e-001	 7.0647446290e-001
 1.2962299386e+000	 7.0385577082e-001	 6.0382962734e-001
 1.2890194789e+000	 7.1697544100e-001	 4.9688953313e-001
 1.2816657061e+000	 7.3003973714e-001	 3.8574069620e-001
 1.2741691828e+000	 7.4304636035e-001	 2.7047421610e-001
 1.2665305198e+000	 7.5599301736e-001	 1.5118559976e-001
 1.2587503764e+000	 7.6887742183e-001	 2.7974577965e-002
 1.2508294600e+000	 7.8169729555e-001	-9.9055084649e-002
 1.2427685263e+000	 7.9445036972e-001	-1.6948579986e-001
 1.2345683790e+000	 8.0713438624e-001	-2.2930784944e-001
 1.3324260102e+000	 6.8894188956e-001	 8.2805949589e-001
 1.3253863434e+000	 7.0238952194e-001	 7.3068552428e-001
 1.3181999376e+000	 7.1578552965e-001	 6.2985499825e-001
 1.3108672667e+000	 7.2912756712e-001	 5.2566057885e-001
 1.3033888536e+000	 7.4241329201e-001	 4.1819887539e-001
 1.2957652706e+000	 7.5564036645e-001	 3.0757025097e-001
 1.2879971388e+000	 7.6880645833e-001	 1.9387862147e-001
 1.2800851286e+000	 7.8190924254e-001	 7.7231248244e-002
 1.2720299594e+000	 7.9494640225e-001	-4.2261474812e-002
 1.2638323996e+000	 8.0791563023e-001	-1.6448623935e-001
 1.2554932668e+000	 8.2081463007e-001	-2.8932704524e-001
 1.0462443890e+000	 6.8401219173e-001	 1.1668897594e+000
 1.0391778559e+000	 6.9470093126e-001	 1.0514015823e+000
 1.0319948291e+000	 7.0532735142e-001	 9.3939828543e-001
 1.0246961113e+000	 7.1588957207e-001	 8.3087892728e-001
 1.0172825451e+000	 7.2638572639e-001	 7.2583728828e-001
 1.0097550126e+000	 7.3681396190e-001	 6.2426209442e-001
 1.0021144359e+000	 7.4717244154e-001	 5.2613725198e-001
 9.9436177575e-001	 7.5745934472e-001	 4.3144209258e-001
 9.8649803203e-001	 7.6767286832e-001	 3.4015162807e-001
 9.7852424289e-001	 7.7781122776e-001	 2.5223681427e-001
 9.7044148445e-001	 7.8787265798e-001	 1.6766482290e-001
 1.0671692768e+000	 6.9769243556e-001	 9.7138755652e-001
 1.0599614130e+000	 7.0859494989e-001	 8.5637327225e-001
 1.0526347257e+000	 7.1943389845e-001	 7.4425752700e-001
 1.0451900336e+000	 7.3020736352e-001	 6.3504497279e-001
 1.0376281960e+000	 7.4091344092e-001	 5.2873555010e-001
 1.0299501129e+000	 7.5155024114e-001	 4.2532472345e-001
 1.0221567246e+000	 7.6211589037e-001	 3.2480372750e-001
 1.0142490113e+000	 7.7260853162e-001	 2.2715982312e-001
 1.0062279927e+000	 7.8302632569e-001	 1.3237656251e-001
 9.9809472774e-001	 7.9336745232e-001	 4.0434062539e-002
 9.8985031414e-001	 8.0363011114e-001	-4.8690714500e-002
 1.0880941646e+000	 7.1137267940e-001	 7.8678515678e-001
 1.0807449701e+000	 7.2248896852e-001	 6.7374127043e-001
 1.0732746223e+000	 7.3354044548e-001	 5.6305287709e-001
 1.0656839558e+000	 7.4452515496e-001	 4.5472879280e-001
 1.0579738469e+000	 7.5544115545e-001	 3.4877365062e-001
 1.0501452131e+000	 7.6628652038e-001	 2.4518814996e-001
 1.0421990133e+000	 7.7705933921e-001	 1.4396931619e-001
 1.0341362468e+000	 7.8775771852e-001	 4.5110769516e-002
 1.0259579533e+000	 7.9837978306e-001	-5.1396997666e-002
 1.0176652126e+000	 8.0892367688e-001	-1.4556633571e-001
 1.0092591438e+000	 8.1938756430e-001	-2.3741214603e-001
 1.1090190524e+000	 7.2505292324e-001	 6.1265799625e-001
 1.1015285272e+000	 7.3638298714e-001	 5.0302967689e-001
 1.0939145189e+000	 7.4764699251e-001	 3.9525524733e-001
 1.0861778780e+000	 7.5884294641e-001	 2.8934626170e-001
 1.0783194978e+000	 7.6996886998e-001	 1.8531058288e-001
 1.0703403134e+000	 7.8102279962e-001	 8.3152647569e-002
 1.0622413020e+000	 7.9200278804e-001	-1.7126258849e-002
 1.0540234823e+000	 8.0290690541e-001	-1.1552771861e-001
 1.0456879139e+000	 8.1373324043e-001	-2.1205588988e-001
 1.0372356975e+000	 8.2447990144e-001	-3.0671720801e-001
 1.0286679735e+000	 8.3514501747e-001	-3.9952008072e-001
 1.1299439401e+000	 7.3873316707e-001	 4.4863867850e-001
 1.1223120843e+000	 7.5027700577e-001	 3.4382496988e-001
 1.1145544154e+000	 7.6175353954e-001	 2.4040328256e-001
 1.1066718002e+000	 7.7316073785e-001	 1.3838648441e-001
 1.0986651487e+000	 7.8449658451e-001	 3.7784207985e-002
 1.0905354136e+000	 7.9575907886e-001	-6.1396866823e-002
 1.0822835907e+000	 8.0694623688e-001	-1.5915272070e-001
 1.0739107178e+000	 8.1805609231e-001	-2.5548169439e-001
 1.0654178746e+000	 8.2908669780e-001	-3.5038418068e-001
 1.0568061823e+000	 8.4003612600e-001	-4.4386230987e-001
 1.0480768032e+000	 8.5090247063e-001	-5.3591962969e-001
 1.1508688279e+000	 7.5241341090e-001	 2.9441177760e-001
 1.1430956414e+000	 7.6417102439e-001	 1.9577033503e-001
 1.1351943120e+000	 7.7586008657e-001	 9.8097203272e-002
 1.1271657225e+000	 7.8747852929e-001	 1.4051391559e-003
 1.1190107996e+000	 7.9902429904e-001	-9.4295914725e-002
 1.1107305139e+000	 8.1049535810e-001	-1.8899852789e-001
 1.1023258794e+000	 8.2188968571e-001	-2.8269747074e-001
 1.0937979533e+000	 8.3320527921e-001	-3.7538939525e-001
 1.0851478352e+000	 8.4444015517e-001	-4.6707250854e-001
 1.0763766672e+000	 8.5559235055e-001	-5.5774624040e-001
 1.0674856329e+000	 8.6665992379e-001	-6.4741090595e-001
 1.1717937157e+000	 7.6609365474e-001	 1.4970919785e-001
 1.1638791986e+000	 7.7806504302e-001	 5.8560602253e-002
 1.1558342086e+000	 7.8996663360e-001	-3.2006692214e-002
 1.1476596447e+000	 8.0179632073e-001	-1.2198146664e-001
 1.1393564505e+000	 8.1355201357e-001	-2.1135492933e-001
 1.1309256141e+000	 8.2523163734e-001	-3.0012039227e-001
 1.1223681682e+000	 8.3683313454e-001	-3.8827293885e-001
 1.1136851888e+000	 8.4835446610e-001	-4.7580908366e-001
 1.1048777959e+000	 8.5979361254e-001	-5.6272642564e-001
 1.0959471520e+000	 8.7114857511e-001	-6.4902329559e-001
 1.0868944626e+000	 8.8241737695e-001	-7.3469839924e-001
 1.1927186035e+000	 7.7977389857e-001	 1.4306022034e-002
 1.1846627557e+000	 7.9195906164e-001	-6.8062284505e-002
 1.1764741052e+000	 8.0407318063e-001	-1.5020094687e-001
 1.1681535669e+000	 8.1611411218e-001	-2.3210171469e-001
 1.1597021014e+000	 8.2807972810e-001	-3.1375841107e-001
 1.1511207144e+000	 8.3996791658e-001	-3.9516658576e-001
 1.1424104569e+000	 8.5177658338e-001	-4.7632315980e-001
 1.1335724243e+000	 8.6350365300e-001	-5.5722606241e-001
 1.1246077565e+000	 8.7514706991e-001	-6.3787386161e-001
 1.1155176369e+000	 8.8670479967e-001	-7.1826538959e-001
 1.1063032923e+000	 8.9817483012e-001	-7.9839936403e-001
 1.2136434913e+000	 7.9345414240e-001	-1.1198321087e-001
 1.2054463128e+000	 8.0585308027e-001	-1.8431332880e-001
 1.1971140018e+000	 8.1817972766e-001	-2.5673135517e-001
 1.1886474891e+000	 8.3043190362e-001	-3.2923344400e-001
 1.1800477523e+000	 8.4260744262e-001	-4.0181750160e-001
 1.1713158147e+000	 8.5470419582e-001	-4.7448281462e-001
 1.1624527456e+000	 8.6672003221e-001	-5.4722966944e-001
 1.1534596599e+000	 8.7865283990e-001	-6.2005896429e-001
 1.1443377172e+000	 8.9050052728e-001	-6.9297181511e-001
 1.1350881218e+000	 9.0226102423e-001	-7.6596915663e-001
 1.1257121220e+000	 9.1393228328e-001	-8.3905133981e-001
 1.2345683790e+000	 8.0713438624e-001	-2.2930784944e-001
 1.2262298699e+000	 8.1974709889e-001	-2.9036813020e-001
 1.2177538984e+000	 8.3228627468e-001	-3.5180092487e-001
 1.2091414114e+000	 8.4474969506e-001	-4.1360823418e-001
 1.2003934032e+000	 8.5713515715e-001	-4.7579352204e-001
 1.1915109149e+000	 8.6944047506e-001	-5.3836131632e-001
 1.1824950343e+000	 8.8166348104e-001	-6.0131680117e-001
 1.1733468954e+000	 8.9380202679e-001	-6.6466540206e-001
 1.1640676778e+000	 9.0585398465e-001	-7.2841236492e-001
 1.1546586066e+000	 9.1781724879e-001	-7.9256233067e-001
 1.1451209517e+000	 9.2968973644e-001	-8.5711890657e-001
 1.2554932668e+000	 8.2081463007e-001	-2.8932704524e-001
 1.2470134270e+000	 8.3364111751e-001	-3.8636616799e-001
 1.2383937949e+000	 8.4639282171e-001	-4.3557344251e-001
 1.2296353336e+000	 8.5906748650e-001	-4.8541526038e-001
 1.2207390541e+000	 8.7166287168e-001	-5.3590212462e-001
 1.2117060152e+000	 8.8417675429e-001	-5.8704531536e-001
 1.2025373230e+000	 8.9660692987e-001	-6.3885645285e-001
 1.1932341309e+000	 9.0895121369e-001	-6.9134705349e-001
 1.1837976384e+000	 9.2120744201e-001	-7.4452807996e-001
 1.1742290915e+000	 9.3337347334e-001	-7.9840948708e-001
 1.1645297814e+000	 9.4544718961e-001	-8.5299976480e-001
 9.7044148445e-001	 7.8787265798e-001	 1.6766482290e-001
 9.6225087038e-001	 7.9785541446e-001	 1.0355529807e-001
 9.5395355134e-001	 8.0775777422e-001	 3.6891277799e-002
 9.4555071450e-001	 8.1757803678e-001	-3.2279028565e-002
 9.3704358298e-001	 8.2731452514e-001	-1.0390407643e-001
 9.2843341526e-001	 8.3696558670e-001	-1.7792877421e-001
 9.1972150458e-001	 8.4652959423e-001	-2.5429427701e-001
 9.1090917828e-001	 8.5600494672e-001	-3.3293778642e-001
 9.0199779714e-001	 8.6539007034e-001	-4.1379235735e-001
 8.9298875468e-001	 8.7468341924e-001	-4.9678671249e-001
 8.8388347645e-001	 8.8388347645e-001	-5.8184506535e-001
 9.8985031414e-001	 8.0363011114e-001	-4.8690714500e-002
 9.8149588779e-001	 8.1381252275e-001	-1.1266324889e-001
 9.7303262236e-001	 8.2391292970e-001	-1.7807594759e-001
 9.6446172879e-001	 8.3392959752e-001	-2.4491641372e-001
 9.5578445464e-001	 8.4386081564e-001	-3.1316984489e-001
 9.4700208356e-001	 8.5370489844e-001	-3.8281876911e-001
 9.3811593467e-001	 8.6346018612e-001	-4.5384278493e-001
 9.2912736184e-001	 8.7312504566e-001	-5.2621830669e-001
 9.2003775308e-001	 8.8269787175e-001	-5.9991831563e-001
 9.1084852978e-001	 8.9217708762e-001	-6.7491211798e-001
 9.0156114598e-001	 9.0156114598e-001	-7.5116511074e-001
 1.0092591438e+000	 8.1938756430e-001	-2.3741214603e-001
 1.0007409052e+000	 8.2976963104e-001	-3.0233081648e-001
 9.9211169339e-001	 8.4006808519e-001	-3.6761193990e-001
 9.8337274308e-001	 8.5028115826e-001	-4.3327929099e-001
 9.7452532630e-001	 8.6040710615e-001	-4.9935514277e-001
 9.6557075187e-001	 8.7044421018e-001	-5.6585994913e-001
 9.5651036476e-001	 8.8039077800e-001	-6.3281203027e-001
 9.4734554541e-001	 8.9024514460e-001	-7.0022726225e-001
 9.3807770903e-001	 9.0000567316e-001	-7.6811877154e-001
 9.2870830487e-001	 9.0967075601e-001	-8.3649663560e-001
 9.1923881551e-001	 9.1923881551e-001	-9.0536759057e-001
 1.0286679735e+000	 8.3514501747e-001	-3.9952008072e-001
 1.0199859226e+000	 8.4572673933e-001	-4.6637092629e-001
 1.0111907644e+000	 8.5622324068e-001	-5.3254126676e-001
 1.0022837574e+000	 8.6663271899e-001	-5.9809146922e-001
 9.9326619796e-001	 8.7695339665e-001	-6.6308127833e-001
 9.8413942018e-001	 8.8718352191e-001	-7.2756944416e-001
 9.7490479486e-001	 8.9732136989e-001	-7.9161335193e-001
 9.6556372898e-001	 9.0736524353e-001	-8.5526865464e-001
 9.5611766497e-001	 9.1731347456e-001	-9.1858891000e-001
 9.4656807997e-001	 9.2716442440e-001	-9.8162522246e-001
 9.3691648504e-001	 9.3691648504e-001	-1.0444258917e+000
 1.0480768032e+000	 8.5090247063e-001	-5.3591962969e-001
 1.0392309400e+000	 8.6168384763e-001	-6.0559739848e-001
 1.0302698354e+000	 8.7237839617e-001	-6.7358474095e-001
 1.0211947717e+000	 8.8298427973e-001	-7.3997909645e-001
 1.0120070696e+000	 8.9349968716e-001	-8.0487813760e-001
 1.0027080885e+000	 9.0392283365e-001	-8.6837934228e-001
 9.9329922495e-001	 9.1425196178e-001	-9.3057956626e-001
 9.8378191255e-001	 9.2448534247e-001	-9.9157461794e-001
 9.7415762092e-001	 9.3462127597e-001	-1.0514588362e+000
 9.6442785507e-001	 9.4465809279e-001	-1.1103246731e+000
 9.5459415457e-001	 9.5459415457e-001	-1.1682622818e+000
 1.0674856329e+000	 8.6665992379e-001	-6.4741090595e-001
 1.0584759574e+000	 8.7764095592e-001	-7.2072432467e-001
 1.0493489065e+000	 8.8853355166e-001	-7.9136885269e-001
 1.0401057860e+000	 8.9933584047e-001	-8.5947953809e-001
 1.0307479413e+000	 9.1004597767e-001	-9.2519249550e-001
 1.0212767568e+000	 9.2066214539e-001	-9.8864442081e-001
 1.0116936550e+000	 9.3118255367e-001	-1.0499721055e+000
 1.0020000961e+000	 9.4160544141e-001	-1.1093119521e+000
 9.9219757686e-001	 9.5192907738e-001	-1.1667994920e+000
 9.8228763016e-001	 9.6215176117e-001	-1.2225689070e+000
 9.7227182411e-001	 9.7227182411e-001	-1.2767525563e+000
 1.0868944626e+000	 8.8241737695e-001	-7.3469839924e-001
 1.0777209748e+000	 8.9359806421e-001	-8.1237497228e-001
 1.0684279775e+000	 9.0468870714e-001	-8.8643419129e-001
 1.0590168002e+000	 9.1568740121e-001	-9.5704930401e-001
 1.0494888129e+000	 9.2659226817e-001	-1.0243954365e+000
 1.0398454251e+000	 9.3740145713e-001	-1.0886490491e+000
 1.0300880851e+000	 9.4811314556e-001	-1.1499873914e+000
 1.0202182797e+000	 9.5872554035e-001	-1.2085879566e+000
 1.0102375328e+000	 9.6923687880e-001	-1.2646279382e+000
 1.0001474053e+000	 9.7964542956e-001	-1.3182836896e+000
 9.8994949364e-001	 9.8994949364e-001	-1.3697301882e+000
 1.1063032923e+000	 8.9817483012e-001	-7.9839936403e-001
 1.0969659922e+000	 9.0955517251e-001	-8.8108975152e-001
 1.0875070485e+000	 9.2084386263e-001	-9.5924298028e-001
 1.0779278145e+000	 9.3203896195e-001	-1.0330711411e+000
 1.0682296846e+000	 9.4313855868e-001	-1.1027889940e+000
 1.0584140934e+000	 9.5414076887e-001	-1.1686133648e+000
 1.0484825152e+000	 9.6504373745e-001	-1.2307625378e+000
 1.0384364633e+000	 9.7584563929e-001	-1.2894556493e+000
 1.0282774888e+000	 9.8654468021e-001	-1.3449120811e+000
 1.0180071804e+000	 9.9713909795e-001	-1.3973508562e+000
 1.0076271632e+000	 1.0076271632e+000	-1.4469900400e+000
 1.1257121220e+000	 9.1393228328e-001	-8.3905133981e-001
 1.1162110097e+000	 9.2551228080e-001	-9.2733335832e-001
 1.1065861196e+000	 9.3699901812e-001	-1.0101858332e+000
 1.0968388288e+000	 9.4839052269e-001	-1.0878603920e+000
 1.0869705563e+000	 9.5968484919e-001	-1.1606121034e+000
 1.0769827617e+000	 9.7088008061e-001	-1.2286988106e+000
 1.0668769453e+000	 9.8197432934e-001	-1.2923804634e+000
 1.0566546468e+000	 9.9296573823e-001	-1.3519184465e+000
 1.0463174447e+000	 1.0038524816e+000	-1.4075749099e+000
 1.0358669555e+000	 1.0146327663e+000	-1.4596120994e+000
 1.0253048327e+000	 1.0253048327e+000	-1.5082916924e+000
 1.1451209517e+000	 9.2968973644e-001	-8.5711890657e-001
 1.1354560271e+000	 9.4146938909e-001	-9.5150119073e-001
 1.1256651906e+000	 9.5315417361e-001	-1.0395878220e+000
 1.1157498431e+000	 9.6474208344e-001	-1.1216707078e+000
 1.1057114279e+000	 9.7623113970e-001	-1.1980459486e+000
 1.0955514300e+000	 9.8761939235e-001	-1.2690131091e+000
 1.0852713754e+000	 9.9890492123e-001	-1.3348744846e+000
 1.0748728304e+000	 1.0100858372e+000	-1.3959343660e+000
 1.0643574006e+000	 1.0211602830e+000	-1.4524983032e+000
 1.0537267306e+000	 1.0321264347e+000	-1.5048723704e+000
 1.0429825022e+000	 1.0429825022e+000	-1.5533624346e+000
 1.1645297814e+000	 9.4544718961e-001	-8.5299976480e-001
 1.1547010445e+000	 9.5742649739e-001	-9.5392512377e-001
 1.1447442616e+000	 9.6930932910e-001	-1.0477139391e+000
 1.1346608574e+000	 9.8109364418e-001	-1.1346991883e+000
 1.1244522996e+000	 9.9277743021e-001	-1.2152187757e+000
 1.1141200983e+000	 1.0043587041e+000	-1.2896147387e+000
 1.1036658055e+000	 1.0158355131e+000	-1.3582324490e+000
 1.0930910140e+000	 1.0272059361e+000	-1.4214198103e+000
 1.0823973566e+000	 1.0384680844e+000	-1.4795264550e+000
 1.0715865057e+000	 1.0496201031e+000	-1.5329029416e+000
 1.0606601718e+000	 1.0606601718e+000	-1.5818999548e+000
 8.8388347645e-001	 8.8388347645e-001	-5.8184506535e-001
 8.7468341924e-001	 8.9298875468e-001	-6.6023225908e-001
 8.6539007034e-001	 9.0199779714e-001	-7.3697566949e-001
 8.5600494672e-001	 9.1090917828e-001	-8.1199413081e-001
 8.4652959423e-001	 9.1972150458e-001	-8.8520463345e-001
 8.3696558670e-001	 9.2843341526e-001	-9.5652218493e-001
 8.2731452514e-001	 9.3704358298e-001	-1.0258596789e+000
 8.1757803678e-001	 9.4555071450e-001	-1.0931277727e+000
 8.0775777422e-001	 9.5395355134e-001	-1.1582347742e+000
 7.9785541446e-001	 9.6225087038e-001	-1.2210865386e+000
 7.8787265798e-001	 9.7044148445e-001	-1.2815863748e+000
 9.0156114598e-001	 9.0156114598e-001	-7.5116511074e-001
 8.9217708762e-001	 9.1084852978e-001	-8.2064989127e-001
 8.8269787175e-001	 9.2003775308e-001	-8.8850141664e-001
 8.7312504566e-001	 9.2912736184e-001	-9.5468374096e-001
 8.6346018612e-001	 9.3811593467e-001	-1.0191587703e+000
 8.5370489844e-001	 9.4700208356e-001	-1.0818860630e+000
 8.4386081564e-001	 9.5578445464e-001	-1.1428226385e+000
 8.3392959752e-001	 9.6446172879e-001	-1.2019227966e+000
 8.2391292970e-001	 9.7303262236e-001	-1.2591379460e+000
 8.1381252275e-001	 9.8149588779e-001	-1.3144164446e+000
 8.0363011114e-001	 9.8985031414e-001	-1.3677034510e+000
 9.1923881551e-001	 9.1923881551e-001	-9.0536759057e-001
 9.0967075601e-001	 9.2870830487e-001	-9.6760957458e-001
 9.0000567316e-001	 9.3807770903e-001	-1.0282396516e+000
 8.9024514460e-001	 9.4734554541e-001	-1.0872670750e+000
 8.8039077800e-001	 9.5651036476e-001	-1.1446986288e+000
 8.7044421018e-001	 9.6557075187e-001	-1.2005383663e+000
 8.6040710615e-001	 9.7452532630e-001	-1.2547873590e+000
 8.5028115826e-001	 9.8337274308e-001	-1.3074434560e+000
 8.4006808519e-001	 9.9211169339e-001	-1.3585010543e+000
 8.2976963104e-001	 1.0007409052e+000	-1.4079508824e+000
 8.1938756430e-001	 1.0092591438e+000	-1.4557797959e+000
 9.3691648504e-001	 9.3691648504e-001	-1.0444258917e+000
 9.2716442440e-001	 9.4656807997e-001	-1.1009606756e+000
 9.1731347456e-001	 9.5611766497e-001	-1.1559161085e+000
 9.0736524353e-001	 9.6556372898e-001	-1.2093466974e+000
 8.9732136989e-001	 9.7490479486e-001	-1.2613041409e+000
 8.8718352191e-001	 9.8413942018e-001	-1.3118370056e+000
 8.7695339665e-001	 9.9326619796e-001	-1.3609904142e+000
 8.6663271899e-001	 1.0022837574e+000	-1.4088057443e+000
 8.5622324068e-001	 1.0111907644e+000	-1.4553203407e+000
 8.4572673933e-001	 1.0199859226e+000	-1.5005672404e+000
 8.3514501747e-001	 1.0286679735e+000	-1.5445749128e+000
 9.5459415457e-001	 9.5459415457e-001	-1.1682622818e+000
 9.4465809279e-001	 9.6442785507e-001	-1.2205094355e+000
 9.3462127597e-001	 9.7415762092e-001	-1.2712213916e+000
 9.2448534247e-001	 9.8378191255e-001	-1.3204980359e+000
 9.1425196178e-001	 9.9329922495e-001	-1.3684360888e+000
 9.0392283365e-001	 1.0027080885e+000	-1.4151287187e+000
 8.9349968716e-001	 1.0120070696e+000	-1.4606651676e+000
 8.8298427973e-001	 1.0211947717e+000	-1.5051303900e+000
 8.7237839617e-001	 1.0302698354e+000	-1.5486047049e+000
 8.6168384763e-001	 1.0392309400e+000	-1.5911634630e+000
 8.5090247063e-001	 1.0480768032e+000	-1.6328767304e+000
 9.7227182411e-001	 9.7227182411e-001	-1.2767525563e+000
 9.6215176117e-001	 9.8228763016e-001	-1.3260228910e+000
 9.5192907738e-001	 9.9219757686e-001	-1.3738141690e+000
 9.4160544141e-001	 1.0020000961e+000	-1.4202718485e+000
 9.3118255367e-001	 1.0116936550e+000	-1.4655378458e+000
 9.2066214539e-001	 1.0212767568e+000	-1.5097500858e+000
 9.1004597767e-001	 1.0307479413e+000	-1.5530420644e+000
 8.9933584047e-001	 1.0401057860e+000	-1.5955424257e+000
 8.8853355166e-001	 1.0493489065e+000	-1.6373745541e+000
 8.7764095592e-001	 1.0584759574e+000	-1.6786561826e+000
 8.6665992379e-001	 1.0674856329e+000	-1.7194990188e+000
 9.8994949364e-001	 9.8994949364e-001	-1.3697301882e+000
 9.7964542956e-001	 1.0001474053e+000	-1.4172323742e+000
 9.6923687880e-001	 1.0102375328e+000	-1.4633240242e+000
 9.5872554035e-001	 1.0202182797e+000	-1.5081964260e+000
 9.4811314556e-001	 1.0300880851e+000	-1.5520369306e+000
 9.3740145713e-001	 1.0398454251e+000	-1.5950284369e+000
 9.2659226817e-001	 1.0494888129e+000	-1.6373488918e+000
 9.1568740121e-001	 1.0590168002e+000	-1.6791708041e+000
 9.0468870714e-001	 1.0684279775e+000	-1.7206607756e+000
 8.9359806421e-001	 1.0777209748e+000	-1.7619790504e+000
 8.8241737695e-001	 1.0868944626e+000	-1.8032790821e+000
 1.0076271632e+000	 1.0076271632e+000	-1.4469900400e+000
 9.9713909795e-001	 1.0180071804e+000	-1.4938366449e+000
 9.8654468021e-001	 1.0282774888e+000	-1.5393540071e+000
 9.7584563929e-001	 1.0384364633e+000	-1.5837795633e+000
 9.6504373745e-001	 1.0484825152e+000	-1.6273463978e+000
 9.5414076887e-001	 1.0584140934e+000	-1.6702826627e+000
 9.4313855868e-001	 1.0682296846e+000	-1.7128110122e+000
 9.3203896195e-001	 1.0779278145e+000	-1.7551480538e+000
 9.2084386263e-001	 1.0875070485e+000	-1.7975038174e+000
 9.0955517251e-001	 1.0969659922e+000	-1.8400812439e+000
 8.9817483012e-001	 1.1063032923e+000	-1.8830756941e+000
 1.0253048327e+000	 1.0253048327e+000	-1.5082916924e+000
 1.0146327663e+000	 1.0358669555e+000	-1.5555046985e+000
 1.0038524816e+000	 1.0463174447e+000	-1.6014829217e+000
 9.9296573823e-001	 1.0566546468e+000	-1.6465103254e+000
 9.8197432934e-001	 1.0668769453e+000	-1.6908660853e+000
 9.7088008061e-001	 1.0769827617e+000	-1.7348239425e+000
 9.5968484919e-001	 1.0869705563e+000	-1.7786515724e+000
 9.4839052269e-001	 1.0968388288e+000	-1.8226099715e+000
 9.3699901812e-001	 1.1065861196e+000	-1.8669528639e+000
 9.2551228080e-001	 1.1162110097e+000	-1.9119261284e+000
 9.1393228328e-001	 1.1257121220e+000	-1.9577672474e+000
 1.0429825022e+000	 1.0429825022e+000	-1.5533624346e+000
 1.0321264347e+000	 1.0537267306e+000	-1.6018782884e+000
 1.0211602830e+000	 1.0643574006e+000	-1.6492673806e+000
 1.0100858372e+000	 1.0748728304e+000	-1.6958606357e+000
 9.9890492123e-001	 1.0852713754e+000	-1.7419837342e+000
 9.8761939235e-001	 1.0955514300e+000	-1.7879563976e+000
 9.7623113970e-001	 1.1057114279e+000	-1.8340916911e+000
 9.6474208344e-001	 1.1157498431e+000	-1.8806953447e+000
 9.5315417361e-001	 1.1256651906e+000	-1.9280650959e+000
 9.4146938909e-001	 1.1354560271e+000	-1.9764900544e+000
 9.2968973644e-001	 1.1451209517e+000	-2.0262500908e+000
 1.0606601718e+000	 1.0606601718e+000	-1.5818999548e+000
 1.0496201031e+000	 1.0715865057e+000	-1.6325741961e+000
 1.0384680844e+000	 1.0823973566e+000	-1.6822436544e+000
 1.0272059361e+000	 1.0930910140e+000	-1.7312867036e+000
 1.0158355131e+000	 1.1036658055e+000	-1.7800759964e+000
 1.0043587041e+000	 1.1141200983e+000	-1.8289776794e+000
 9.9277743021e-001	 1.1244522996e+000	-1.8783506283e+000
 9.8109364418e-001	 1.1346608574e+000	-1.9285457027e+000
 9.6930932910e-001	 1.1447442616e+000	-1.9799050238e+000
 9.5742649739e-001	 1.1547010445e+000	-2.0327612757e+000
 9.4544718961e-001	 1.1645297814e+000	-2.0874370331e+000
 7.8787265798e-001	 9.7044148445e-001	-1.2815863748e+000
 7.7781122776e-001	 9.7852424289e-001	-1.3494775786e+000
 7.6767286832e-001	 9.8649803203e-001	-1.4185210726e+000
 7.5745934472e-001	 9.9436177575e-001	-1.4886435886e+000
 7.4717244154e-001	 1.0021144359e+000	-1.5597651198e+000
 7.3681396190e-001	 1.0097550126e+000	-1.6317988707e+000
 7.2638572639e-001	 1.0172825451e+000	-1.7046512250e+000
 7.1588957207e-001	 1.0246961113e+000	-1.7782217311e+000
 7.0532735142e-001	 1.0319948291e+000	-1.8524031054e+000
 6.9470093126e-001	 1.0391778559e+000	-1.9270812532e+000
 6.8401219173e-001	 1.0462443890e+000	-2.0021353075e+000
 8.0363011114e-001	 9.8985031414e-001	-1.3677034510e+000
 7.9336745232e-001	 9.9809472774e-001	-1.4300370269e+000
 7.8302632569e-001	 1.0062279927e+000	-1.4929429585e+000
 7.7260853162e-001	 1.0142490113e+000	-1.5563580172e+000
 7.6211589037e-001	 1.0221567246e+000	-1.6202124409e+000
 7.5155024114e-001	 1.0299501129e+000	-1.6844298630e+000
 7.4091344092e-001	 1.0376281960e+000	-1.7489272598e+000
 7.3020736352e-001	 1.0451900336e+000	-1.8136149153e+000
 7.1943389845e-001	 1.0526347257e+000	-1.8783964047e+000
 7.0859494989e-001	 1.0599614130e+000	-1.9431685957e+000
 6.9769243556e-001	 1.0671692768e+000	-2.0078216687e+000
 8.1938756430e-001	 1.0092591438e+000	-1.4557797959e+000
 8.0892367688e-001	 1.0176652126e+000	-1.5123597127e+000
 7.9837978306e-001	 1.0259579533e+000	-1.5689818508e+000
 7.8775771852e-001	 1.0341362468e+000	-1.6255936513e+000
 7.7705933921e-001	 1.0421990133e+000	-1.6821361773e+000
 7.6628652038e-001	 1.0501452131e+000	-1.7385440205e+000
 7.5544115545e-001	 1.0579738469e+000	-1.7947452271e+000
 7.4452515496e-001	 1.0656839558e+000	-1.8506612415e+000
 7.3354044548e-001	 1.0732746223e+000	-1.9062068696e+000
 7.2248896852e-001	 1.0807449701e+000	-1.9612902601e+000
 7.1137267940e-001	 1.0880941646e+000	-2.0158129051e+000
 8.3514501747e-001	 1.0286679735e+000	-1.5445749128e+000
 8.2447990144e-001	 1.0372356975e+000	-1.5951992767e+000
 8.1373324043e-001	 1.0456879139e+000	-1.6453843657e+000
 8.0290690541e-001	 1.0540234823e+000	-1.6950889402e+000
 7.9200278804e-001	 1.0622413020e+000	-1.7442654870e+000
 7.8102279962e-001	 1.0703403134e+000	-1.7928601044e+000
 7.6996886998e-001	 1.0783194978e+000	-1.8408124051e+000
 7.5884294641e-001	 1.0861778780e+000	-1.8880554387e+000
 7.4764699251e-001	 1.0939145189e+000	-1.9345156334e+000
 7.3638298714e-001	 1.1015285272e+000	-1.9801127570e+000
 7.2505292324e-001	 1.1090190524e+000	-2.0247598984e+000
 8.5090247063e-001	 1.0480768032e+000	-1.6328767304e+000
 8.4003612600e-001	 1.0568061823e+000	-1.6773373997e+000
 8.2908669780e-001	 1.0654178746e+000	-1.7209249065e+000
 8.1805609231e-001	 1.0739107178e+000	-1.7636099973e+000
 8.0694623688e-001	 1.0822835907e+000	-1.8053572006e+000
 7.9575907886e-001	 1.0905354136e+000	-1.8461246878e+000
 7.8449658451e-001	 1.0986651487e+000	-1.8858641540e+000
 7.7316073785e-001	 1.1066718002e+000	-1.9245207171e+000
 7.6175353954e-001	 1.1145544154e+000	-1.9620328387e+000
 7.5027700577e-001	 1.1223120843e+000	-1.9983322641e+000
 7.3873316707e-001	 1.1299439401e+000	-2.0333439829e+000
 8.6665992379e-001	 1.0674856329e+000	-1.7194990188e+000
 8.5559235055e-001	 1.0763766672e+000	-1.7575812541e+000
 8.4444015517e-001	 1.0851478352e+000	-1.7944031373e+000
 8.3320527921e-001	 1.0937979533e+000	-1.8299480861e+000
 8.2188968571e-001	 1.1023258794e+000	-1.8641933061e+000
 8.1049535810e-001	 1.1107305139e+000	-1.8971096278e+000
 7.9902429904e-001	 1.1190107996e+000	-1.9286613622e+000
 7.8747852929e-001	 1.1271657225e+000	-1.9588061784e+000
 7.7586008657e-001	 1.1351943120e+000	-1.9874950009e+000
 7.6417102439e-001	 1.1430956414e+000	-2.0146719289e+000
 7.5241341090e-001	 1.1508688279e+000	-2.0402741765e+000
 8.8241737695e-001	 1.0868944626e+000	-1.8032790821e+000
 8.7114857511e-001	 1.0959471520e+000	-1.8347612278e+000
 8.5979361254e-001	 1.1048777959e+000	-1.8646417275e+000
 8.4835446610e-001	 1.1136851888e+000	-1.8929173736e+000
 8.3683313454e-001	 1.1223681682e+000	-1.9195787027e+000
 8.2523163734e-001	 1.1309256141e+000	-1.9446098076e+000
 8.1355201357e-001	 1.1393564505e+000	-1.9679881680e+000
 8.0179632073e-001	 1.1476596447e+000	-1.9896845044e+000
 7.8996663360e-001	 1.1558342086e+000	-2.0096626527e+000
 7.7806504302e-001	 1.1638791986e+000	-2.0278794611e+000
 7.6609365474e-001	 1.1717937157e+000	-2.0442847096e+000
 8.9817483012e-001	 1.1063032923e+000	-1.8830756941e+000
 8.8670479967e-001	 1.1155176369e+000	-1.9077288873e+000
 8.7514706991e-001	 1.1246077565e+000	-1.9304843340e+000
 8.6350365300e-001	 1.1335724243e+000	-1.9513529220e+000
 8.5177658338e-001	 1.1424104569e+000	-1.9703391908e+000
 8.3996791658e-001	 1.1511207144e+000	-1.9874411169e+000
 8.2807972810e-001	 1.1597021014e+000	-2.0026499193e+000
 8.1611411218e-001	 1.1681535669e+000	-2.0159498886e+000
 8.0407318063e-001	 1.1764741052e+000	-2.0273182379e+000
 7.9195906164e-001	 1.1846627557e+000	-2.0367249776e+000
 7.7977389857e-001	 1.1927186035e+000	-2.0441328129e+000
 9.1393228328e-001	 1.1257121220e+000	-1.9577672474e+000
 9.0226102423e-001	 1.1350881218e+000	-1.9753551526e+000
 8.9050052728e-001	 1.1443377172e+000	-1.9907937918e+000
 8.7865283990e-001	 1.1534596599e+000	-2.0041088870e+000
 8.6672003221e-001	 1.1624527456e+000	-2.0153196702e+000
 8.5470419582e-001	 1.1713158147e+000	-2.0244386410e+000
 8.4260744262e-001	 1.1800477523e+000	-2.0314713458e+000
 8.3043190362e-001	 1.1886474891e+000	-2.0364161814e+000
 8.1817972766e-001	 1.1971140018e+000	-2.0392642222e+000
 8.0585308027e-001	 1.2054463128e+000	-2.0399990710e+000
 7.9345414240e-001	 1.2136434913e+000	-2.0385967351e+000
 9.2968973644e-001	 1.1451209517e+000	-2.0262500908e+000
 9.1781724879e-001	 1.1546586066e+000	-2.0365286567e+000
 9.0585398465e-001	 1.1640676778e+000	-2.0444504887e+000
 8.9380202679e-001	 1.1733468954e+000	-2.0500568998e+000
 8.8166348104e-001	 1.1824950343e+000	-2.0533825218e+000
 8.6944047506e-001	 1.1915109149e+000	-2.0544550340e+000
 8.5713515715e-001	 1.2003934032e+000	-2.0532949160e+000
 8.4474969506e-001	 1.2091414114e+000	-2.0499152248e+000
 8.3228627468e-001	 1.2177538984e+000	-2.0443213966e+000
 8.1974709889e-001	 1.2262298699e+000	-2.0365110744e+000
 8.0713438624e-001	 1.2345683790e+000	-2.0264739613e+000
 9.4544718961e-001	 1.1645297814e+000	-2.0874370331e+000
 9.3337347334e-001	 1.1742290915e+000	-2.0901542695e+000
 9.2120744201e-001	 1.1837976384e+000	-2.0903509028e+000
 9.0895121369e-001	 1.1932341309e+000	-2.0880846110e+000
 8.9660692987e-001	 1.2025373230e+000	-2.0834061503e+000
 8.8417675429e-001	 1.2117060152e+000	-2.0763590546e+000
 8.7166287168e-001	 1.2207390541e+000	-2.0669793594e+000
 8.5906748650e-001	 1.2296353336e+000	-2.0552953526e+000
 8.4639282171e-001	 1.2383937949e+000	-2.0413273502e+000
 8.3364111751e-001	 1.2470134270e+000	-2.0250874997e+000
 8.2081463007e-001	 1.2554932668e+000	-2.0278740900e+000
 6.8401219173e-001	 1.0462443890e+000	-2.0021353075e+000
 6.7326302520e-001	 1.0531936664e+000	-2.0362338181e+000
 6.6245533522e-001	 1.0600249662e+000	-2.0688573163e+000
 6.5159103546e-001	 1.0667376072e+000	-2.0999166983e+000
 6.4067204862e-001	 1.0733309490e+000	-2.1293176697e+000
 6.2970030539e-001	 1.0798043922e+000	-2.1569608095e+000
 6.1867774335e-001	 1.0861573781e+000	-2.2106164290e+000
 6.0760630594e-001	 1.0923893889e+000	-2.2796875018e+000
 5.9648794139e-001	 1.0984999480e+000	-2.3423329906e+000
 5.8532460163e-001	 1.1044886196e+000	-2.3984019105e+000
 5.7411824131e-001	 1.1103550086e+000	-2.4477520866e+000
 6.9769243556e-001	 1.0671692768e+000	-2.0078216687e+000
 6.8672828570e-001	 1.0742575397e+000	-2.0340830835e+000
 6.7570444192e-001	 1.0812254655e+000	-2.0592399453e+000
 6.6462285617e-001	 1.0880723593e+000	-2.0832175231e+000
 6.5348548960e-001	 1.0947975680e+000	-2.1059350994e+000
 6.4229431150e-001	 1.1014004800e+000	-2.1273060218e+000
 6.3105129822e-001	 1.1078805256e+000	-2.1472377699e+000
 6.1975843206e-001	 1.1142371767e+000	-2.1832872289e+000
 6.0841770021e-001	 1.1204699470e+000	-2.2345214678e+000
 5.9703109366e-001	 1.1265783920e+000	-2.2790614829e+000
 5.8560060613e-001	 1.1325621087e+000	-2.3167765366e+000
 7.1137267940e-001	 1.0880941646e+000	-2.0158129051e+000
 7.0019354621e-001	 1.0953214130e+000	-2.0349517584e+000
 6.8895354863e-001	 1.1024259648e+000	-2.0533773871e+000
 6.7765467688e-001	 1.1094071114e+000	-2.0710294780e+000
 6.6629893057e-001	 1.1162641870e+000	-2.0878409030e+000
 6.5488831761e-001	 1.1229965679e+000	-2.1037377569e+000
 6.4342485309e-001	 1.1296036732e+000	-2.1186394148e+000
 6.3191055818e-001	 1.1360849645e+000	-2.1324586081e+000
 6.2034745904e-001	 1.1424399459e+000	-2.1555049335e+000
 6.0873758569e-001	 1.1486681643e+000	-2.1888621290e+000
 5.9708297096e-001	 1.1547692089e+000	-2.2152682115e+000
 7.2505292324e-001	 1.1090190524e+000	-2.0247598984e+000
 7.1365880671e-001	 1.1163852864e+000	-2.0374520132e+000
 7.0220265533e-001	 1.1236264641e+000	-2.0498439970e+000
 6.9068649759e-001	 1.1307418636e+000	-2.0618900241e+000
 6.7911237154e-001	 1.1377308060e+000	-2.0735365903e+000
 6.6748232371e-001	 1.1445926557e+000	-2.0847225383e+000
 6.5579840795e-001	 1.1513268207e+000	-2.0953791048e+000
 6.4406268430e-001	 1.1579327522e+000	-2.1054299875e+000
 6.3227721786e-001	 1.1644099449e+000	-2.1147914323e+000
 6.2044407772e-001	 1.1707579367e+000	-2.1279800131e+000
 6.0856533578e-001	 1.1769763091e+000	-2.1433588302e+000
 7.3873316707e-001	 1.1299439401e+000	-2.0333439829e+000
 7.2712406721e-001	 1.1374491597e+000	-2.0402290199e+000
 7.1545176204e-001	 1.1448269634e+000	-2.0472496701e+000
 7.0371831829e-001	 1.1520766157e+000	-2.0543746871e+000
 6.9192581251e-001	 1.1591974249e+000	-2.0615642471e+000
 6.8007632982e-001	 1.1661887436e+000	-2.0687699619e+000
 6.6817196282e-001	 1.1730499683e+000	-2.0759349154e+000
 6.5621481041e-001	 1.1797805400e+000	-2.0829937218e+000
 6.4420697669e-001	 1.1863799439e+000	-2.0898726061e+000
 6.3215056975e-001	 1.1928477091e+000	-2.0964895068e+000
 6.2004770061e-001	 1.1991834092e+000	-2.1012354039e+000
 7.5241341090e-001	 1.1508688279e+000	-2.0402741765e+000
 7.4058932772e-001	 1.1585130330e+000	-2.0419579521e+000
 7.2870086874e-001	 1.1660274628e+000	-2.0442366103e+000
 7.1675013900e-001	 1.1734113679e+000	-2.0470935973e+000
 7.0473925348e-001	 1.1806640439e+000	-2.0505028469e+000
 6.9267033592e-001	 1.1877848314e+000	-2.0544287808e+000
 6.8054551768e-001	 1.1947731158e+000	-2.0588263339e+000
 6.6836693653e-001	 1.2016283278e+000	-2.0636410047e+000
 6.5613673552e-001	 1.2083499428e+000	-2.0688089286e+000
 6.4385706178e-001	 1.2149374815e+000	-2.0742569760e+000
 6.3153006543e-001	 1.2213905094e+000	-2.0799028732e+000
 7.6609365474e-001	 1.1717937157e+000	-2.0442847096e+000
 7.5405458822e-001	 1.1795769063e+000	-2.0413413066e+000
 7.4194997544e-001	 1.1872279621e+000	-2.0394764455e+000
 7.2978195971e-001	 1.1947461200e+000	-2.0386883997e+000
 7.1755269445e-001	 1.2021306629e+000	-2.0389649572e+000
 7.0526434203e-001	 1.2093809192e+000	-2.0402834087e+000
 6.9291907255e-001	 1.2164962634e+000	-2.0426105620e+000
 6.8051906265e-001	 1.2234761156e+000	-2.0459027836e+000
 6.6806649434e-001	 1.2303199418e+000	-2.0501060660e+000
 6.5556355381e-001	 1.2370272539e+000	-2.0551561209e+000
 6.4301243026e-001	 1.2435976096e+000	-2.0609784981e+000
 7.7977389857e-001	 1.1927186035e+000	-2.0441328129e+000
 7.6751984872e-001	 1.2006407797e+000	-2.0371065059e+000
 7.5519908214e-001	 1.2084284614e+000	-2.0316676465e+000
 7.4281378042e-001	 1.2160808721e+000	-2.0278294894e+000
 7.3036613542e-001	 1.2235972819e+000	-2.0255937925e+000
 7.1785834814e-001	 1.2309770071e+000	-2.0249507923e+000
 7.0529262741e-001	 1.2382194110e+000	-2.0258792075e+000
 6.9267118877e-001	 1.2453239033e+000	-2.0283462725e+000
 6.7999625317e-001	 1.2522899407e+000	-2.0375749909e+000
 6.6727004585e-001	 1.2591170263e+000	-2.0559886622e+000
 6.5449479508e-001	 1.2658047097e+000	-2.0714217179e+000
 7.9345414240e-001	 1.2136434913e+000	-2.0385967351e+000
 7.8098510922e-001	 1.2217046530e+000	-2.0280037502e+000
 7.6844818885e-001	 1.2296289607e+000	-2.0195332134e+000
 7.5584560112e-001	 1.2374156243e+000	-2.0132135337e+000
 7.4317957639e-001	 1.2450639008e+000	-2.0090605727e+000
 7.3045235424e-001	 1.2525730949e+000	-2.0144833163e+000
 7.1766618228e-001	 1.2599425585e+000	-2.0329827733e+000
 7.0482331488e-001	 1.2671716911e+000	-2.0489055605e+000
 6.9192601199e-001	 1.2742599397e+000	-2.0622063776e+000
 6.7897653788e-001	 1.2812067987e+000	-2.0728401495e+000
 6.6597715991e-001	 1.2880118099e+000	-2.0807619534e+000
 8.0713438624e-001	 1.2345683790e+000	-2.0264739613e+000
 7.9445036972e-001	 1.2427685263e+000	-2.0128040864e+000
 7.8169729555e-001	 1.2508294600e+000	-2.0047201712e+000
 7.6887742183e-001	 1.2587503764e+000	-2.0217044628e+000
 7.5599301736e-001	 1.2665305198e+000	-2.0364432696e+000
 7.4304636035e-001	 1.2741691828e+000	-2.0489027861e+000
 7.3003973714e-001	 1.2816657061e+000	-2.0590495276e+000
 7.1697544100e-001	 1.2890194789e+000	-2.0668502416e+000
 7.0385577082e-001	 1.2962299386e+000	-2.0722718181e+000
 6.9068302991e-001	 1.3032965711e+000	-2.0752811994e+000
 6.7745952473e-001	 1.3102189101e+000	-2.0758452898e+000
 8.2081463007e-001	 1.2554932668e+000	-2.0278740900e+000
 8.0791563023e-001	 1.2638323996e+000	-2.0400773252e+000
 7.9494640225e-001	 1.2720299594e+000	-2.0502680499e+000
 7.8190924254e-001	 1.2800851286e+000	-2.0584245187e+000
 7.6880645833e-001	 1.2879971388e+000	-2.0645254084e+000
 7.5564036645e-001	 1.2957652706e+000	-2.0685497118e+000
 7.4241329201e-001	 1.3033888536e+000	-2.0704766323e+000
 7.2912756712e-001	 1.3108672667e+000	-2.0702854751e+000
 7.1578552965e-001	 1.3181999376e+000	-2.0679555394e+000
 7.0238952194e-001	 1.3253863434e+000	-2.0634660090e+000
 6.8894188956e-001	 1.3324260102e+000	-2.0567958436e+000
 5.7411824131e-001	 1.1103550086e+000	-2.4477520866e+000
 5.6287081669e-001	 1.1160987607e+000	-2.5174658181e+000
 5.5158428467e-001	 1.1217195625e+000	-2.5793449044e+000
 5.4026060171e-001	 1.1272171407e+000	-2.6333315376e+000
 5.2890172284e-001	 1.1325912624e+000	-2.6793768030e+000
 5.1750960065e-001	 1.1378417347e+000	-2.7174405371e+000
 5.0608618433e-001	 1.1429684047e+000	-2.7474911735e+000
 4.9463341865e-001	 1.1479711587e+000	-2.7695055773e+000
 4.8315324300e-001	 1.1528499225e+000	-2.7834688692e+000
 4.7164759049e-001	 1.1576046607e+000	-2.7893742401e+000
 4.6011838696e-001	 1.1622353763e+000	-2.7872227556e+000
 5.8560060613e-001	 1.1325621087e+000	-2.3167765366e+000
 5.7412823303e-001	 1.1384207360e+000	-2.3782599948e+000
 5.6261597037e-001	 1.1441539538e+000	-2.4321235263e+000
 5.5106581375e-001	 1.1497614835e+000	-2.4783074725e+000
 5.3947975730e-001	 1.1552430876e+000	-2.5167610941e+000
 5.2785979267e-001	 1.1605985694e+000	-2.5474424246e+000
 5.1620790802e-001	 1.1658277727e+000	-2.5703181120e+000
 5.0452608702e-001	 1.1709305819e+000	-2.5853632494e+000
 4.9281630786e-001	 1.1759069209e+000	-2.5925611942e+000
 4.8108054230e-001	 1.1807567539e+000	-2.5919033781e+000
 4.6932075469e-001	 1.1854800839e+000	-2.5833891072e+000
 5.9708297096e-001	 1.1547692089e+000	-2.2152682115e+000
 5.8538564936e-001	 1.1607427112e+000	-2.2680273632e+000
 5.7364765606e-001	 1.1665883450e+000	-2.3133511233e+000
 5.6187102578e-001	 1.1723058263e+000	-2.3511785648e+000
 5.5005779175e-001	 1.1778949129e+000	-2.3814577283e+000
 5.3820998468e-001	 1.1833554041e+000	-2.4041454714e+000
 5.2632963171e-001	 1.1886871408e+000	-2.4192073042e+000
 5.1441875539e-001	 1.1938900050e+000	-2.4266172153e+000
 5.0247937272e-001	 1.1989639194e+000	-2.4263574849e+000
 4.9051349411e-001	 1.2039088471e+000	-2.4184184895e+000
 4.7852312243e-001	 1.2087247914e+000	-2.4027984958e+000
 6.0856533578e-001	 1.1769763091e+000	-2.1433588302e+000
 5.9664306569e-001	 1.1830646864e+000	-2.1869003479e+000
 5.8467934175e-001	 1.1890227363e+000	-2.2231612930e+000
 5.7267623781e-001	 1.1948501691e+000	-2.2520800522e+000
 5.6063582621e-001	 1.2005467381e+000	-2.2736040524e+000
 5.4856017669e-001	 1.2061122388e+000	-2.2876896022e+000
 5.3645135539e-001	 1.2115465089e+000	-2.2943017228e+000
 5.2431142377e-001	 1.2168494282e+000	-2.2934139656e+000
 5.1214243758e-001	 1.2220209178e+000	-2.2850082206e+000
 4.9994644592e-001	 1.2270609403e+000	-2.2690745125e+000
 4.8772549017e-001	 1.2319694989e+000	-2.2456107893e+000
 6.2004770061e-001	 1.1991834092e+000	-2.1012354039e+000
 6.0790048203e-001	 1.2053866616e+000	-2.1350656942e+000
 5.9571102745e-001	 1.2114571275e+000	-2.1617409147e+000
 5.8348144985e-001	 1.2173945119e+000	-2.1811993509e+000
 5.7121386067e-001	 1.2231985634e+000	-2.1933884227e+000
 5.5891036871e-001	 1.2288690735e+000	-2.1982645194e+000
 5.4657307908e-001	 1.2344058770e+000	-2.1957928222e+000
 5.3420409214e-001	 1.2398088514e+000	-2.1859471156e+000
 5.2180550244e-001	 1.2450779163e+000	-2.1687095863e+000
 5.0937939773e-001	 1.2502130335e+000	-2.1440174925e+000
 4.9692785791e-001	 1.2552142064e+000	-2.1089105374e+000
 6.3153006543e-001	 1.2213905094e+000	-2.0799028732e+000
 6.1915789836e-001	 1.2277086368e+000	-2.1127595293e+000
 6.0674271314e-001	 1.2338915188e+000	-2.1293253064e+000
 5.9428666188e-001	 1.2399388547e+000	-2.1387713118e+000
 5.8179189512e-001	 1.2458503886e+000	-2.1410455683e+000
 5.6926056072e-001	 1.2516259082e+000	-2.1375640484e+000
 5.5669480277e-001	 1.2572652451e+000	-2.1281403588e+000
 5.4409676051e-001	 1.2627682746e+000	-2.1078318985e+000
 5.3146856730e-001	 1.2681349147e+000	-2.0767267788e+000
 5.1881234953e-001	 1.2733651267e+000	-2.0349124034e+000
 5.0613022564e-001	 1.2784589140e+000	-1.9824759004e+000
 6.4301243026e-001	 1.2435976096e+000	-2.0609784981e+000
 6.3041531469e-001	 1.2500306120e+000	-2.1046074053e+000
 6.1777439883e-001	 1.2563259100e+000	-2.1355921288e+000
 6.0509187392e-001	 1.2624831976e+000	-2.1400052266e+000
 5.9236992958e-001	 1.2685022138e+000	-2.1336381471e+000
 5.7961075273e-001	 1.2743827429e+000	-2.1165691219e+000
 5.6681652645e-001	 1.2801246132e+000	-2.0888735626e+000
 5.5398942888e-001	 1.2857276977e+000	-2.0506245373e+000
 5.4113163216e-001	 1.2911919132e+000	-2.0018932528e+000
 5.2824530134e-001	 1.2965172200e+000	-1.9427495405e+000
 5.1533259338e-001	 1.3017036215e+000	-1.8732623449e+000
 6.5449479508e-001	 1.2658047097e+000	-2.0714217179e+000
 6.4167273103e-001	 1.2723525872e+000	-2.1201962155e+000
 6.2880608453e-001	 1.2787603012e+000	-2.1669009398e+000
 6.1589708595e-001	 1.2850275404e+000	-2.1688339187e+000
 6.0294796403e-001	 1.2911540391e+000	-2.1437495396e+000
 5.8996094475e-001	 1.2971395776e+000	-2.1083428284e+000
 5.7693825014e-001	 1.3029839813e+000	-2.0626726796e+000
 5.6388209726e-001	 1.3086871209e+000	-2.0067948384e+000
 5.5079469702e-001	 1.3142489116e+000	-1.9407624406e+000
 5.3767825315e-001	 1.3196693132e+000	-1.8646265572e+000
 5.2453496112e-001	 1.3249483290e+000	-1.7784367422e+000
 6.6597715991e-001	 1.2880118099e+000	-2.0807619534e+000
 6.5293014736e-001	 1.2946745624e+000	-2.1210460559e+000
 6.3983777022e-001	 1.3011946925e+000	-2.1597866341e+000
 6.2670229798e-001	 1.3075718832e+000	-2.1968966821e+000
 6.1352599849e-001	 1.3138058643e+000	-2.1631593370e+000
 6.0031113676e-001	 1.3198964122e+000	-2.1097565651e+000
 5.8705997383e-001	 1.3258433494e+000	-2.0464708137e+000
 5.7377476563e-001	 1.3316465441e+000	-1.9733393084e+000
 5.6045776188e-001	 1.3373059101e+000	-1.8903958922e+000
 5.4711120496e-001	 1.3428214064e+000	-1.7976716322e+000
 5.3373732886e-001	 1.3481930365e+000	-1.6951954272e+000
 6.7745952473e-001	 1.3102189101e+000	-2.0758452898e+000
 6.6418756369e-001	 1.3169965376e+000	-2.1072466815e+000
 6.5086945591e-001	 1.3236290837e+000	-2.1376221206e+000
 6.3750751002e-001	 1.3301162260e+000	-2.1668847076e+000
 6.2410403295e-001	 1.3364576896e+000	-2.1887112031e+000
 6.1066132877e-001	 1.3426532469e+000	-2.1177131734e+000
 5.9718169751e-001	 1.3487027175e+000	-2.0372316943e+000
 5.8366743400e-001	 1.3546059672e+000	-1.9472842218e+000
 5.7012082674e-001	 1.3603629085e+000	-1.8478840304e+000
 5.5654415677e-001	 1.3659734996e+000	-1.7390408825e+000
 5.4293969659e-001	 1.3714377441e+000	-1.6207617023e+000
 6.8894188956e-001	 1.3324260102e+000	-2.0567958436e+000
 6.7544498003e-001	 1.3393185129e+000	-2.0789193013e+000
 6.6190114160e-001	 1.3460634750e+000	-2.1005260460e+000
 6.4831272205e-001	 1.3526605688e+000	-2.1215297983e+000
 6.3468206740e-001	 1.3591095148e+000	-2.1418427258e+000
 6.2101152078e-001	 1.3654100816e+000	-2.1291443184e+000
 6.0730342120e-001	 1.3715620856e+000	-2.0319471248e+000
 5.9356010237e-001	 1.3775653904e+000	-1.9256831414e+000
 5.7978389160e-001	 1.3834199070e+000	-1.8103437437e+000
 5.6597710858e-001	 1.3891255928e+000	-1.6859160356e+000
 5.5214206433e-001	 1.3946824516e+000	-1.5523835896e+000
 4.6011838696e-001	 1.1622353763e+000	-2.7872227556e+000
 4.4856755008e-001	 1.1667421108e+000	-2.8599119964e+000
 4.3699698847e-001	 1.1711249430e+000	-2.9209086735e+000
 4.2540860082e-001	 1.1753839893e+000	-2.9702406131e+000
 4.1380427497e-001	 1.1795194030e+000	-3.0079458894e+000
 4.0218588716e-001	 1.1835313736e+000	-3.0340725331e+000
 3.9055530112e-001	 1.1874201265e+000	-3.0486782324e+000
 3.7891436731e-001	 1.1911859226e+000	-3.0518300262e+000
 3.6726492216e-001	 1.1948290576e+000	-3.0436039913e+000
 3.5560878723e-001	 1.1983498614e+000	-3.0240849229e+000
 3.4394776857e-001	 1.2017486977e+000	-2.9933660109e+000
 4.6932075469e-001	 1.1854800839e+000	-2.5833891072e+000
 4.5753890108e-001	 1.1900769530e+000	-2.6506050008e+000
 4.4573692824e-001	 1.1945474418e+000	-2.7064911056e+000
 4.3391677283e-001	 1.1988916691e+000	-2.7511104149e+000
 4.2208036047e-001	 1.2031097911e+000	-2.7845355459e+000
 4.1022960490e-001	 1.2072020010e+000	-2.8068484151e+000
 3.9836640714e-001	 1.2111685290e+000	-2.8181399076e+000
 3.8649265466e-001	 1.2150096411e+000	-2.8185095389e+000
 3.7461022059e-001	 1.2187256388e+000	-2.8080651130e+000
 3.6272096297e-001	 1.2223168587e+000	-2.7869223753e+000
 3.5082672394e-001	 1.2257836717e+000	-2.7552046624e+000
 4.7852312243e-001	 1.2087247914e+000	-2.4027984958e+000
 4.6651025208e-001	 1.2134117952e+000	-2.4662727645e+000
 4.5447686801e-001	 1.2179699407e+000	-2.5187453675e+000
 4.4242494484e-001	 1.2223993489e+000	-2.5603141890e+000
 4.3035644597e-001	 1.2267001791e+000	-2.5910861427e+000
 4.1827332264e-001	 1.2308726285e+000	-2.6111768138e+000
 4.0617751316e-001	 1.2349169315e+000	-2.6207100948e+000
 3.9407094200e-001	 1.2388333595e+000	-2.6198178170e+000
 3.8195551903e-001	 1.2426222199e+000	-2.6086393782e+000
 3.6983313871e-001	 1.2462838559e+000	-2.5873213676e+000
 3.5770567931e-001	 1.2498186456e+000	-2.5560171875e+000
 4.8772549017e-001	 1.2319694989e+000	-2.2456107893e+000
 4.7548160308e-001	 1.2367466374e+000	-2.3069391099e+000
 4.6321680778e-001	 1.2413924396e+000	-2.3575603398e+000
 4.5093311686e-001	 1.2459070287e+000	-2.3976070363e+000
 4.3863253146e-001	 1.2502905672e+000	-2.4266180724e+000
 4.2631704038e-001	 1.2545432560e+000	-2.4353514536e+000
 4.1398861918e-001	 1.2586653341e+000	-2.4309503892e+000
 4.0164922934e-001	 1.2626570780e+000	-2.4136673570e+000
 3.8930081747e-001	 1.2665188011e+000	-2.3837591025e+000
 3.7694531445e-001	 1.2702508531e+000	-2.3414867749e+000
 3.6458463467e-001	 1.2738536196e+000	-2.2871160523e+000
 4.9692785791e-001	 1.2552142064e+000	-2.1089105374e+000
 4.8445295408e-001	 1.2600814796e+000	-2.1631069600e+000
 4.7195674754e-001	 1.2648149384e+000	-2.2035610713e+000
 4.5944128887e-001	 1.2694147085e+000	-2.2305264481e+000
 4.4690861696e-001	 1.2738809552e+000	-2.2442593920e+000
 4.3436075812e-001	 1.2782138834e+000	-2.2450191202e+000
 4.2179972519e-001	 1.2824137366e+000	-2.2330679502e+000
 4.0922751669e-001	 1.2864807964e+000	-2.2086714787e+000
 3.9664611591e-001	 1.2904153822e+000	-2.1720987528e+000
 3.8405749020e-001	 1.2942178504e+000	-2.1236224325e+000
 3.7146359004e-001	 1.2978885935e+000	-2.0635189448e+000
 5.0613022564e-001	 1.2784589140e+000	-1.9824759004e+000
 4.9342430508e-001	 1.2834163219e+000	-2.0294730648e+000
 4.8069668731e-001	 1.2882374373e+000	-2.0630863539e+000
 4.6794946089e-001	 1.2929223883e+000	-2.0835839939e+000
 4.5518470246e-001	 1.2974713433e+000	-2.0912360215e+000
 4.4240447586e-001	 1.3018845109e+000	-2.0863145018e+000
 4.2961083121e-001	 1.3061621391e+000	-2.0690937417e+000
 4.1680580403e-001	 1.3103045149e+000	-2.0398504982e+000
 4.0399141435e-001	 1.3143119634e+000	-1.9988641788e+000
 3.9116966594e-001	 1.3181848476e+000	-1.9464170343e+000
 3.7834254541e-001	 1.3219235675e+000	-1.8827943433e+000
 5.1533259338e-001	 1.3017036215e+000	-1.8732623449e+000
 5.0239565608e-001	 1.3067511641e+000	-1.9153395228e+000
 4.8943662708e-001	 1.3116599362e+000	-1.9443893326e+000
 4.7645763290e-001	 1.3164300681e+000	-1.9606926327e+000
 4.6346078795e-001	 1.3210617314e+000	-1.9645311826e+000
 4.5044819360e-001	 1.3255551384e+000	-1.9561878918e+000
 4.3742193723e-001	 1.3299105417e+000	-1.9359470648e+000
 4.2438409137e-001	 1.3341282333e+000	-1.9040946406e+000
 4.1133671280e-001	 1.3382085446e+000	-1.8609184262e+000
 3.9828184168e-001	 1.3421518448e+000	-1.8067083219e+000
 3.8522150078e-001	 1.3459585415e+000	-1.7417565384e+000
 5.2453496112e-001	 1.3249483290e+000	-1.7784367422e+000
 5.1136700707e-001	 1.3300860063e+000	-1.8178390778e+000
 4.9817656684e-001	 1.3350824350e+000	-1.8445705447e+000
 4.8496580491e-001	 1.3399377478e+000	-1.8589225993e+000
 4.7173687345e-001	 1.3446521194e+000	-1.8611866942e+000
 4.5849191134e-001	 1.3492257659e+000	-1.8516545612e+000
 4.4523304325e-001	 1.3536589442e+000	-1.8306184901e+000
 4.3196237872e-001	 1.3579519518e+000	-1.7983716032e+000
 4.1868201124e-001	 1.3621051257e+000	-1.7552081234e+000
 4.0539401742e-001	 1.3661188421e+000	-1.7014236359e+000
 3.9210045615e-001	 1.3699935154e+000	-1.6373153399e+000
 5.3373732886e-001	 1.3481930365e+000	-1.6951954272e+000
 5.2033835807e-001	 1.3534208485e+000	-1.7341400680e+000
 5.0691650661e-001	 1.3585049339e+000	-1.7607721801e+000
 4.9347397693e-001	 1.3634454276e+000	-1.7753917655e+000
 4.8001295895e-001	 1.3682425075e+000	-1.7782979209e+000
 4.6653562908e-001	 1.3728963933e+000	-1.7697891569e+000
 4.5304414927e-001	 1.3774073467e+000	-1.7501637146e+000
 4.3954066606e-001	 1.3817756702e+000	-1.7197198771e+000
 4.2602730968e-001	 1.3860017069e+000	-1.6787562763e+000
 4.1250619317e-001	 1.3900858393e+000	-1.6275721919e+000
 3.9897941152e-001	 1.3940284894e+000	-1.5664678427e+000
 5.4293969659e-001	 1.3714377441e+000	-1.6207617023e+000
 5.2930970907e-001	 1.3767556907e+000	-1.6614434091e+000
 5.1565644638e-001	 1.3819274327e+000	-1.6901745515e+000
 5.0198214894e-001	 1.3869531074e+000	-1.7072616037e+000
 4.8828904444e-001	 1.3918328955e+000	-1.7130092354e+000
 4.7457934682e-001	 1.3965670208e+000	-1.7077206701e+000
 4.6085525529e-001	 1.4011557493e+000	-1.6916980419e+000
 4.4711895341e-001	 1.4055993887e+000	-1.6652427478e+000
 4.3337260812e-001	 1.4098982880e+000	-1.6286557952e+000
 4.1961836891e-001	 1.4140528365e+000	-1.5822381423e+000
 4.0585836689e-001	 1.4180634633e+000	-1.5262910298e+000
 5.5214206433e-001	 1.3946824516e+000	-1.5523835896e+000
 5.3828106007e-001	 1.4000905329e+000	-1.5969798801e+000
 5.2439638615e-001	 1.4053499316e+000	-1.6299929174e+000
 5.1049032095e-001	 1.4104607872e+000	-1.6517335528e+000
 4.9656512994e-001	 1.4154232836e+000	-1.6625099342e+000
 4.8262306456e-001	 1.4202376483e+000	-1.6626279072e+000
 4.6866636131e-001	 1.4249041518e+000	-1.6523914152e+000
 4.5469724075e-001	 1.4294231071e+000	-1.6321028954e+000
 4.4071790656e-001	 1.4337948692e+000	-1.6020636702e+000
 4.2673054465e-001	 1.4380198337e+000	-1.5625743310e+000
 4.1273732227e-001	 1.4420984373e+000	-1.5139351148e+000
 3.4394776857e-001	 1.2017486977e+000	-2.9933660109e+000
 3.3228365593e-001	 1.2050259632e+000	-3.0496053929e+000
 3.2061822211e-001	 1.2081820871e+000	-3.0970287540e+000
 3.0895322226e-001	 1.2112175306e+000	-3.1357936291e+000
 2.9729039324e-001	 1.2141327860e+000	-3.1660617433e+000
 2.8563145302e-001	 1.2169283763e+000	-3.1879986813e+000
 2.7397810005e-001	 1.2196048543e+000	-3.2017735592e+000
 2.6233201271e-001	 1.2221628022e+000	-3.2075587008e+000
 2.5069484874e-001	 1.2246028306e+000	-3.2055293167e+000
 2.3906824470e-001	 1.2269255782e+000	-3.1958631899e+000
 2.2745381553e-001	 1.2291317105e+000	-3.1787403647e+000
 3.5082672394e-001	 1.2257836717e+000	-2.7552046624e+000
 3.3892932905e-001	 1.2291264825e+000	-2.8154527703e+000
 3.2703058655e-001	 1.2323457289e+000	-2.8672766084e+000
 3.1513228670e-001	 1.2354418812e+000	-2.9108394014e+000
 3.0323620110e-001	 1.2384154417e+000	-2.9463082451e+000
 2.9134408208e-001	 1.2412669438e+000	-2.9738537670e+000
 2.7945766205e-001	 1.2439969514e+000	-2.9936497920e+000
 2.6757865297e-001	 1.2466060582e+000	-3.0058730116e+000
 2.5570874571e-001	 1.2490948872e+000	-3.0107026580e+000
 2.4384960960e-001	 1.2514640897e+000	-2.9943816210e+000
 2.3200289184e-001	 1.2537143447e+000	-2.9615251517e+000
 3.5770567931e-001	 1.2498186456e+000	-2.5560171875e+000
 3.4557500216e-001	 1.2532270017e+000	-2.6031938011e+000
 3.3344295099e-001	 1.2565093706e+000	-2.6390493660e+000
 3.2131135114e-001	 1.2596662318e+000	-2.6647102207e+000
 3.0918200896e-001	 1.2626980974e+000	-2.6804476747e+000
 2.9705671113e-001	 1.2656055113e+000	-2.6865369704e+000
 2.8493722405e-001	 1.2683890485e+000	-2.6832573426e+000
 2.7282529322e-001	 1.2710493143e+000	-2.6708920658e+000
 2.6072264268e-001	 1.2735869439e+000	-2.6497284893e+000
 2.4863097449e-001	 1.2760026013e+000	-2.6200580605e+000
 2.3655196814e-001	 1.2782969789e+000	-2.5821763356e+000
 3.6458463467e-001	 1.2738536196e+000	-2.2871160523e+000
 3.5222067528e-001	 1.2773275210e+000	-2.3269754744e+000
 3.3985531543e-001	 1.2806730123e+000	-2.3566265035e+000
 3.2749041558e-001	 1.2838905824e+000	-2.3763263031e+000
 3.1512781682e-001	 1.2869807532e+000	-2.3863357603e+000
 3.0276934019e-001	 1.2899440789e+000	-2.3869195931e+000
 2.9041678605e-001	 1.2927811456e+000	-2.3783464461e+000
 2.7807193347e-001	 1.2954925703e+000	-2.3608889732e+000
 2.6573653966e-001	 1.2980790005e+000	-2.3348239071e+000
 2.5341233938e-001	 1.3005411129e+000	-2.3004321163e+000
 2.4110104445e-001	 1.3028796131e+000	-2.2579986473e+000
 3.7146359004e-001	 1.2978885935e+000	-2.0635189448e+000
 3.5886634840e-001	 1.3014280403e+000	-2.0976088580e+000
 3.4626767987e-001	 1.3048366541e+000	-2.1217321452e+000
 3.3366948003e-001	 1.3081149330e+000	-2.1361344465e+000
 3.2107362469e-001	 1.3112634089e+000	-2.1410650045e+000
 3.0848196925e-001	 1.3142826464e+000	-2.1367768111e+000
 2.9589634805e-001	 1.3171732427e+000	-2.1235267415e+000
 2.8331857372e-001	 1.3199358264e+000	-2.1015756737e+000
 2.7075043663e-001	 1.3225710571e+000	-2.0711885946e+000
 2.5819370428e-001	 1.3250796244e+000	-2.0326346911e+000
 2.4565012076e-001	 1.3274622474e+000	-1.9861874263e+000
 3.7834254541e-001	 1.3219235675e+000	-1.8827943433e+000
 3.6551202151e-001	 1.3255285595e+000	-1.9118590597e+000
 3.5268004431e-001	 1.3290002958e+000	-1.9311881133e+000
 3.3984854447e-001	 1.3323392837e+000	-1.9410143266e+000
 3.2701943255e-001	 1.3355460646e+000	-1.9415740224e+000
 3.1419459831e-001	 1.3386212139e+000	-1.9331072118e+000
 3.0137591005e-001	 1.3415653397e+000	-1.9158577678e+000
 2.8856521398e-001	 1.3443790824e+000	-1.8900735845e+000
 2.7576433361e-001	 1.3470631137e+000	-1.8560067198e+000
 2.6297506917e-001	 1.3496181360e+000	-1.8139135241e+000
 2.5019919707e-001	 1.3520448816e+000	-1.7640547507e+000
 3.8522150078e-001	 1.3459585415e+000	-1.7417565384e+000
 3.7215769463e-001	 1.3496290788e+000	-1.7665963078e+000
 3.5909240875e-001	 1.3531639376e+000	-1.7819217087e+000
 3.4602760891e-001	 1.3565636343e+000	-1.7879513992e+000
 3.3296524041e-001	 1.3598287203e+000	-1.7849074538e+000
 3.1990722737e-001	 1.3629597814e+000	-1.7730155949e+000
 3.0685547205e-001	 1.3659574368e+000	-1.7525054081e+000
 2.9381185423e-001	 1.3688223385e+000	-1.7236105418e+000
 2.8077823058e-001	 1.3715551703e+000	-1.6865688902e+000
 2.6775643406e-001	 1.3741566475e+000	-1.6416227591e+000
 2.5474827338e-001	 1.3766275158e+000	-1.5890190140e+000
 3.9210045615e-001	 1.3699935154e+000	-1.6373153399e+000
 3.7880336775e-001	 1.3737295980e+000	-1.6587867298e+000
 3.6550477319e-001	 1.3773275793e+000	-1.6709564590e+000
 3.5220667336e-001	 1.3807879849e+000	-1.6740276216e+000
 3.3891104828e-001	 1.3841113760e+000	-1.6682066628e+000
 3.2561985643e-001	 1.3872983490e+000	-1.6537036557e+000
 3.1233503405e-001	 1.3903495339e+000	-1.6307325605e+000
 2.9905849449e-001	 1.3932655945e+000	-1.5995114663e+000
 2.8579212755e-001	 1.3960472269e+000	-1.5602628160e+000
 2.7253779896e-001	 1.3986951591e+000	-1.5132136111e+000
 2.5929734969e-001	 1.4012101500e+000	-1.4585955992e+000
 3.9897941152e-001	 1.3940284894e+000	-1.5664678427e+000
 3.8544904087e-001	 1.3978301173e+000	-1.5854840852e+000
 3.7191713763e-001	 1.4014912211e+000	-1.5954038227e+000
 3.5838573780e-001	 1.4050123355e+000	-1.5964131331e+000
 3.4485685614e-001	 1.4083940318e+000	-1.5887013993e+000
 3.3133248549e-001	 1.4116369165e+000	-1.5724616319e+000
 3.1781459605e-001	 1.4147416310e+000	-1.5478907753e+000
 3.0430513474e-001	 1.4177088505e+000	-1.5151899937e+000
 2.9080602453e-001	 1.4205392835e+000	-1.4745649390e+000
 2.7731916385e-001	 1.4232336707e+000	-1.4262259977e+000
 2.6384642600e-001	 1.4257927842e+000	-1.3703885176e+000
 4.0585836689e-001	 1.4180634633e+000	-1.5262910298e+000
 3.9209471399e-001	 1.4219306366e+000	-1.5438223392e+000
 3.7832950208e-001	 1.4256548628e+000	-1.5524557374e+000
 3.6456480225e-001	 1.4292366861e+000	-1.5523587824e+000
 3.5080266401e-001	 1.4326766875e+000	-1.5437023088e+000
 3.3704511455e-001	 1.4359754840e+000	-1.5266607999e+000
 3.2329415806e-001	 1.4391337281e+000	-1.5014127419e+000
 3.0955177499e-001	 1.4421521066e+000	-1.4681409564e+000
 2.9581992150e-001	 1.4450313401e+000	-1.4270329135e+000
 2.8210052874e-001	 1.4477721822e+000	-1.3782810220e+000
 2.6839550231e-001	 1.4503754184e+000	-1.3220828978e+000
 4.1273732227e-001	 1.4420984373e+000	-1.5139351148e+000
 3.9874038711e-001	 1.4460311558e+000	-1.5310089787e+000
 3.8474186652e-001	 1.4498185045e+000	-1.5393779136e+000
 3.7074386670e-001	 1.4534610367e+000	-1.5391894016e+000
 3.5674847188e-001	 1.4569593432e+000	-1.5305941912e+000
 3.4275774362e-001	 1.4603140515e+000	-1.5137467217e+000
 3.2877372006e-001	 1.4635258252e+000	-1.4888055270e+000
 3.1479841525e-001	 1.4665953626e+000	-1.4559336172e+000
 3.0083381848e-001	 1.4695233968e+000	-1.4152988380e+000
 2.8688189364e-001	 1.4723106938e+000	-1.3670742072e+000
 2.7294457862e-001	 1.4749580526e+000	-1.3114382264e+000
 2.2745381553e-001	 1.2291317105e+000	-3.1787403647e+000
 2.1585315397e-001	 1.2312219198e+000	-3.2287996974e+000
 2.0426783022e-001	 1.2331969241e+000	-3.2709318430e+000
 1.9269939142e-001	 1.2350574661e+000	-3.3054116859e+000
 1.8114936129e-001	 1.2368043131e+000	-3.3325139862e+000
 1.6961923973e-001	 1.2384382558e+000	-3.3525130386e+000
 1.5811050249e-001	 1.2399601078e+000	-3.3656823412e+000
 1.4662460078e-001	 1.2413707047e+000	-3.3722942754e+000
 1.3516296104e-001	 1.2426709033e+000	-3.3726197969e+000
 1.2372698459e-001	 1.2438615812e+000	-3.3669281385e+000
 1.1231804739e-001	 1.2449436358e+000	-3.3554865239e+000
 2.3200289184e-001	 1.2537143447e+000	-2.9615251517e+000
 2.2017021705e-001	 1.2558463582e+000	-3.0011606544e+000
 2.0835318683e-001	 1.2578608626e+000	-3.0323225077e+000
 1.9655337925e-001	 1.2597586154e+000	-3.0553903976e+000
 1.8477234852e-001	 1.2615403994e+000	-3.0707470419e+000
 1.7301162453e-001	 1.2632070210e+000	-3.0787780675e+000
 1.6127271254e-001	 1.2647593100e+000	-3.0798718777e+000
 1.4955709280e-001	 1.2661981188e+000	-3.0744195105e+000
 1.3786622027e-001	 1.2675243214e+000	-3.0628144886e+000
 1.2620152428e-001	 1.2687388129e+000	-3.0454526603e+000
 1.1456440834e-001	 1.2698425085e+000	-3.0227320332e+000
 2.3655196814e-001	 1.2782969789e+000	-2.5821763356e+000
 2.2448728013e-001	 1.2804707966e+000	-2.6211620592e+000
 2.1243854343e-001	 1.2825248010e+000	-2.6519897627e+000
 2.0040736708e-001	 1.2844597647e+000	-2.6750035554e+000
 1.8839533574e-001	 1.2862764856e+000	-2.6905510862e+000
 1.7640400932e-001	 1.2879757861e+000	-2.6989834628e+000
 1.6443492259e-001	 1.2895585122e+000	-2.7006551595e+000
 1.5248958481e-001	 1.2910255329e+000	-2.6959239143e+000
 1.4056947949e-001	 1.2923777395e+000	-2.6851506143e+000
 1.2867606398e-001	 1.2936160445e+000	-2.6686991714e+000
 1.1681076929e-001	 1.2947413812e+000	-2.6469363867e+000
 2.4110104445e-001	 1.3028796131e+000	-2.2579986473e+000
 2.2880434321e-001	 1.3050952350e+000	-2.2949586348e+000
 2.1652390003e-001	 1.3071887395e+000	-2.3240514280e+000
 2.0426135491e-001	 1.3091609141e+000	-2.3455853864e+000
 1.9201832297e-001	 1.3110125719e+000	-2.3598729392e+000
 1.7979639412e-001	 1.3127445512e+000	-2.3672305480e+000
 1.6759713264e-001	 1.3143577143e+000	-2.3679786548e+000
 1.5542207683e-001	 1.3158529470e+000	-2.3624416185e+000
 1.4327273871e-001	 1.3172311575e+000	-2.3509476368e+000
 1.3115060367e-001	 1.3184932761e+000	-2.3338286558e+000
 1.1905713023e-001	 1.3196402539e+000	-2.3114202669e+000
 2.4565012076e-001	 1.3274622474e+000	-1.9861874263e+000
 2.3312140629e-001	 1.3297196734e+000	-2.0199123962e+000
 2.2060925664e-001	 1.3318526780e+000	-2.0460369564e+000
 2.0811534273e-001	 1.3338620634e+000	-2.0648334495e+000
 1.9564131019e-001	 1.3357486582e+000	-2.0765788417e+000
 1.8318877891e-001	 1.3375133163e+000	-2.0815547290e+000
 1.7075934268e-001	 1.3391569165e+000	-2.0800473277e+000
 1.5835456884e-001	 1.3406803611e+000	-2.0723474493e+000
 1.4597599793e-001	 1.3420845756e+000	-2.0587504598e+000
 1.3362514336e-001	 1.3433705078e+000	-2.0395562237e+000
 1.2130349118e-001	 1.3445391266e+000	-2.0150690339e+000
 2.5019919707e-001	 1.3520448816e+000	-1.7640547507e+000
 2.3743846937e-001	 1.3543441118e+000	-1.7934945604e+000
 2.2469461324e-001	 1.3565166165e+000	-1.8155774047e+000
 2.1196933056e-001	 1.3585632127e+000	-1.8305392516e+000
 1.9926429742e-001	 1.3604847444e+000	-1.8386212717e+000
 1.8658116370e-001	 1.3622820814e+000	-1.8400698884e+000
 1.7392155273e-001	 1.3639561186e+000	-1.8351368112e+000
 1.6128706086e-001	 1.3655077752e+000	-1.8240790500e+000
 1.4867925715e-001	 1.3669379937e+000	-1.8071589124e+000
 1.3609968305e-001	 1.3682477394e+000	-1.7846439828e+000
 1.2354985212e-001	 1.3694379994e+000	-1.7568070845e+000
 2.5474827338e-001	 1.3766275158e+000	-1.5890190140e+000
 2.4175553244e-001	 1.3789685502e+000	-1.6132757961e+000
 2.2877996984e-001	 1.3811805550e+000	-1.6303963615e+000
 2.1582331839e-001	 1.3832643620e+000	-1.6405798592e+000
 2.0288728464e-001	 1.3852208307e+000	-1.6440312452e+000
 1.8997354850e-001	 1.3870508465e+000	-1.6409613785e+000
 1.7708376278e-001	 1.3887553208e+000	-1.6315870969e+000
 1.6421955287e-001	 1.3903351893e+000	-1.6161312722e+000
 1.5138251636e-001	 1.3917914117e+000	-1.5948228455e+000
 1.3857422274e-001	 1.3931249710e+000	-1.5678968420e+000
 1.2579621307e-001	 1.3943368721e+000	-1.5355943667e+000
 2.5929734969e-001	 1.4012101500e+000	-1.4585955992e+000
 2.4607259552e-001	 1.4035929886e+000	-1.4769175002e+000
 2.3286532645e-001	 1.4058444934e+000	-1.4883018310e+000
 2.1967730621e-001	 1.4079655113e+000	-1.4929103933e+000
 2.0651027186e-001	 1.4099569169e+000	-1.4909114267e+000
 1.9336593329e-001	 1.4118196117e+000	-1.4824797520e+000
 1.8024597283e-001	 1.4135545229e+000	-1.4677968896e+000
 1.6715204489e-001	 1.4151626033e+000	-1.4470511573e+000
 1.5408577558e-001	 1.4166448298e+000	-1.4204377430e+000
 1.4104876243e-001	 1.4180022026e+000	-1.3881587572e+000
 1.2804257402e-001	 1.4192357448e+000	-1.3504232611e+000
 2.6384642600e-001	 1.4257927842e+000	-1.3703885176e+000
 2.5038965860e-001	 1.4282174270e+000	-1.3821639758e+000
 2.3695068305e-001	 1.4305084319e+000	-1.3871789553e+000
 2.2353129404e-001	 1.4326666607e+000	-1.3855573003e+000
 2.1013325909e-001	 1.4346930032e+000	-1.3774299527e+000
 1.9675831808e-001	 1.4365883768e+000	-1.3629351413e+000
 1.8340818287e-001	 1.4383537251e+000	-1.3422185463e+000
 1.7008453690e-001	 1.4399900174e+000	-1.3154334378e+000
 1.5678903480e-001	 1.4414982479e+000	-1.2827407890e+000
 1.4352330212e-001	 1.4428794342e+000	-1.2443093649e+000
 1.3028893496e-001	 1.4441346175e+000	-1.2003157851e+000
 2.6839550231e-001	 1.4503754184e+000	-1.3220828978e+000
 2.5470672168e-001	 1.4528418654e+000	-1.3268354071e+000
 2.4103603965e-001	 1.4551723704e+000	-1.3249834775e+000
 2.2738528187e-001	 1.4573678100e+000	-1.3166123080e+000
 2.1375624631e-001	 1.4594290895e+000	-1.3018148828e+000
 2.0015070287e-001	 1.4613571419e+000	-1.2806922095e+000
 1.8657039292e-001	 1.4631529272e+000	-1.2533535287e+000
 1.7301702891e-001	 1.4648174315e+000	-1.2199164954e+000
 1.5949229402e-001	 1.4663516659e+000	-1.1805073329e+000
 1.4599784180e-001	 1.4677566659e+000	-1.1352609585e+000
 1.3253529590e-001	 1.4690334902e+000	-1.0843210815e+000
 2.7294457862e-001	 1.4749580526e+000	-1.3114382264e+000
 2.5902378476e-001	 1.4774663038e+000	-1.3088215351e+000
 2.4512139625e-001	 1.4798363089e+000	-1.2997358583e+000
 2.3123926969e-001	 1.4820689593e+000	-1.2842269848e+000
 2.1737923353e-001	 1.4841651757e+000	-1.2623492067e+000
 2.0354308766e-001	 1.4861259070e+000	-1.2341656061e+000
 1.8973260296e-001	 1.4879521294e+000	-1.1997483117e+000
 1.7594952092e-001	 1.4896448456e+000	-1.1591787239e+000
 1.6219555323e-001	 1.4912050840e+000	-1.1125477097e+000
 1.4847238149e-001	 1.4926338975e+000	-1.0599557669e+000
 1.3478165685e-001	 1.4939323629e+000	-1.0015131576e+000
 1.1231804739e-001	 1.2449436358e+000	-3.3554865239e+000
 1.0093749980e-001	 1.2459179833e+000	-3.3910049895e+000
 8.9586666357e-002	 1.2467855586e+000	-3.4211846872e+000
 7.8266845602e-002	 1.2475473141e+000	-3.4463382319e+000
 6.6979309880e-002	 1.2482042189e+000	-3.4667739471e+000
 5.5725305204e-002	 1.2487572584e+000	-3.4827956188e+000
 4.4506051122e-002	 1.2492074333e+000	-3.4947022631e+000
 3.3322740611e-002	 1.2495557590e+000	-3.5027879079e+000
 2.2176539990e-002	 1.2498032649e+000	-3.5073413894e+000
 1.1068588847e-002	 1.2499509936e+000	-3.5086461616e+000
 0.0000000000e+000	 1.2500000000e+000	-3.5069801206e+000
 1.1456440834e-001	 1.2698425085e+000	-3.0227320332e+000
 1.0295624979e-001	 1.2708363430e+000	-3.0517981106e+000
 9.1378399684e-002	 1.2717212698e+000	-3.0759524734e+000
 7.9832182514e-002	 1.2724982604e+000	-3.0956445754e+000
 6.8318896077e-002	 1.2731683033e+000	-3.1113243585e+000
 5.6839811307e-002	 1.2737324036e+000	-3.1234420273e+000
 4.5396172143e-002	 1.2741915820e+000	-3.1324478197e+000
 3.3989195423e-002	 1.2745468742e+000	-3.1387917737e+000
 2.2620070789e-002	 1.2747993302e+000	-3.1429234904e+000
 1.1289960624e-002	 1.2749500134e+000	-3.1452918940e+000
 0.0000000000e+000	 1.2750000000e+000	-3.1463449897e+000
 1.1681076929e-001	 1.2947413812e+000	-2.6469363867e+000
 1.0497499979e-001	 1.2957547027e+000	-2.6804992042e+000
 9.3170133010e-002	 1.2966569810e+000	-2.7089102353e+000
 8.1397519425e-002	 1.2974492067e+000	-2.7325833099e+000
 6.9658482273e-002	 1.2981323876e+000	-2.7519339034e+000
 5.7954317410e-002	 1.2987075487e+000	-2.7673789316e+000
 4.6286293165e-002	 1.2991757306e+000	-2.7793365386e+000
 3.4655650234e-002	 1.2995379894e+000	-2.7882258781e+000
 2.3063601588e-002	 1.2997953955e+000	-2.7944668892e+000
 1.1511332401e-002	 1.2999490333e+000	-2.7984800665e+000
 0.0000000000e+000	 1.3000000000e+000	-2.8006862257e+000
 1.1905713023e-001	 1.3196402539e+000	-2.3114202669e+000
 1.0699374978e-001	 1.3206730623e+000	-2.3471164142e+000
 9.4961866336e-002	 1.3215926922e+000	-2.3774057476e+000
 8.2962856336e-002	 1.3224001529e+000	-2.4026667219e+000
 7.0998068470e-002	 1.3230964720e+000	-2.4232806127e+000
 5.9068823513e-002	 1.3236826939e+000	-2.4396313314e+000
 4.7176414186e-002	 1.3241598793e+000	-2.4521052297e+000
 3.5322105045e-002	 1.3245291046e+000	-2.4610908960e+000
 2.3507132387e-002	 1.3247914608e+000	-2.4669789435e+000
 1.1732704177e-002	 1.3249480532e+000	-2.4701617905e+000
 0.0000000000e+000	 1.3250000000e+000	-2.4710334339e+000
 1.2130349118e-001	 1.3445391266e+000	-2.0150690339e+000
 1.0901249978e-001	 1.3455914220e+000	-2.0507461142e+000
 9.6753599662e-002	 1.3465284033e+000	-2.0807456912e+000
 8.4528193246e-002	 1.3473510992e+000	-2.1054110037e+000
 7.2337654666e-002	 1.3480605564e+000	-2.1250893061e+000
 6.0183329615e-002	 1.3486578391e+000	-2.1401317031e+000
 4.8066535207e-002	 1.3491440280e+000	-2.1508929714e+000
 3.5988559857e-002	 1.3495202198e+000	-2.1577313714e+000
 2.3950663186e-002	 1.3497875261e+000	-2.1610084469e+000
 1.1954075954e-002	 1.3499470731e+000	-2.1610888163e+000
 0.0000000000e+000	 1.3500000000e+000	-2.1583399524e+000
 1.2354985212e-001	 1.3694379994e+000	-1.7568070845e+000
 1.1103124977e-001	 1.3705097816e+000	-1.7905127560e+000
 9.8545332987e-002	 1.3714641145e+000	-1.8182538841e+000
 8.6093530156e-002	 1.3723020455e+000	-1.8403385639e+000
 7.3677240862e-002	 1.3730246408e+000	-1.8570801225e+000
 6.1297835718e-002	 1.3736329842e+000	-1.8687969737e+000
 4.8956656228e-002	 1.3741281766e+000	-1.8758124566e+000
 3.6655014668e-002	 1.3745113349e+000	-1.8784546626e+000
 2.4394193985e-002	 1.3747835914e+000	-1.8770562472e+000
 1.2175447730e-002	 1.3749460929e+000	-1.8719542306e+000
 0.0000000000e+000	 1.3750000000e+000	-1.8634897859e+000
 1.2579621307e-001	 1.3943368721e+000	-1.5355943667e+000
 1.1304999977e-001	 1.3954281413e+000	-1.5655663636e+000
 1.0033706631e-001	 1.3963998257e+000	-1.5892697515e+000
 8.7658867067e-002	 1.3972529918e+000	-1.6069774718e+000
 7.5016827058e-002	 1.3979887252e+000	-1.6189689379e+000
 6.2412341821e-002	 1.3986081294e+000	-1.6255299093e+000
 4.9846777250e-002	 1.3991123253e+000	-1.6269523487e+000
 3.7321469479e-002	 1.3995024501e+000	-1.6235342627e+000
 2.4837724784e-002	 1.3997796567e+000	-1.6155795266e+000
 1.2396819507e-002	 1.3999451128e+000	-1.6033976948e+000
 0.0000000000e+000	 1.4000000000e+000	-1.5873037959e+000
 1.2804257402e-001	 1.4192357448e+000	-1.3504232611e+000
 1.1506874976e-001	 1.4203465010e+000	-1.3750802892e+000
 1.0212879964e-001	 1.4213355368e+000	-1.3931469566e+000
 8.9224203976e-002	 1.4222039381e+000	-1.4048609614e+000
 7.6356413254e-002	 1.4229528095e+000	-1.4104677394e+000
 6.3526847923e-002	 1.4235832746e+000	-1.4102203577e+000
 5.0736898271e-002	 1.4240964740e+000	-1.4043793895e+000
 3.7987924290e-002	 1.4244935653e+000	-1.3932127699e+000
 2.5281255584e-002	 1.4247757220e+000	-1.3769956329e+000
 1.2618191283e-002	 1.4249441327e+000	-1.3560101312e+000
 0.0000000000e+000	 1.4250000000e+000	-1.3305452393e+000
 1.3028893496e-001	 1.4441346175e+000	-1.2003157851e+000
 1.1708749975e-001	 1.4452648606e+000	-1.2182492027e+000
 1.0392053296e-001	 1.4462712480e+000	-1.2292521729e+000
 9.0789540886e-002	 1.4471548843e+000	-1.2335269856e+000
 7.7695999449e-002	 1.4479168939e+000	-1.2312849605e+000
 6.4641354025e-002	 1.4485584197e+000	-1.2227463613e+000
 5.1627019292e-002	 1.4490806226e+000	-1.2081402888e+000
 3.8654379101e-002	 1.4494846805e+000	-1.1877045510e+000
 2.5724786383e-002	 1.4497717873e+000	-1.1616855126e+000
 1.2839563060e-002	 1.4499431525e+000	-1.1303379247e+000
 0.0000000000e+000	 1.4500000000e+000	-1.0939247349e+000
 1.3253529590e-001	 1.4690334902e+000	-1.0843210815e+000
 1.1910624974e-001	 1.4701832203e+000	-1.0942872849e+000
 1.0571226629e-001	 1.4712069592e+000	-1.0969639824e+000
 9.2354877796e-002	 1.4721058306e+000	-1.0925178168e+000
 7.9035585644e-002	 1.4728809783e+000	-1.0811257820e+000
 6.5755860127e-002	 1.4735335649e+000	-1.0629751582e+000
 5.2517140313e-002	 1.4740647713e+000	-1.0382634224e+000
 3.9320833912e-002	 1.4744757957e+000	-1.0071981339e+000
 2.6168317182e-002	 1.4747678526e+000	-9.6999679648e-001
 1.3060934837e-002	 1.4749421724e+000	-9.2688669713e-001
 0.0000000000e+000	 1.4750000000e+000	-8.7810472370e-001
 1.3478165685e-001	 1.4939323629e+000	-1.0015131576e+000
 1.2112499974e-001	 1.4951015800e+000	-1.0024266013e+000
 1.0750399961e-001	 1.4961426704e+000	-9.9567188230e-001
 9.3920214705e-002	 1.4970567769e+000	-9.8137968660e-001
 8.0375171839e-002	 1.4978450627e+000	-9.5969240359e-001
 6.6870366229e-002	 1.4985087101e+000	-9.3076408226e-001
 5.3407261333e-002	 1.4990489200e+000	-8.9476035948e-001
 3.9987288723e-002	 1.4994669109e+000	-8.5185836093e-001
 2.6611847981e-002	 1.4997639179e+000	-8.0224657551e-001
 1.3282306613e-002	 1.4999411923e+000	-7.4612470417e-001
 0.0000000000e+000	 1.5000000000e+000	-6.8370348419e-001
 1.5000000000e+000	 0.0000000000e+000	 3.4699085698e+000
 1.4999411923e+000	 1.3282306613e-002	 3.5216659502e+000
 1.4997639179e+000	 2.6611847981e-002	 3.5664079741e+000
 1.4994669109e+000	 3.9987288723e-002	 3.6037621341e+000
 1.4990489200e+000	 5.3407261333e-002	 3.6333636027e+000
 1.4985087101e+000	 6.6870366229e-002	 3.6548556768e+000
 1.4978450627e+000	 8.0375171839e-002	 3.6678902119e+000
 1.4970567769e+000	 9.3920214705e-002	 3.6721280463e+000
 1.4961426704e+000	 1.0750399961e-001	 3.6672394123e+000
 1.4951015800e+000	 1.2112499974e-001	 3.6529043347e+000
 1.4939323629e+000	 1.3478165685e-001	 3.6288130150e+000
 1.5250000000e+000	 0.0000000000e+000	 3.5180097115e+000
 1.5249402122e+000	 1.3503678390e-002	 3.5559223902e+000
 1.5247599832e+000	 2.7055378780e-002	 3.5872024412e+000
 1.5244580260e+000	 4.0653743534e-002	 3.6114942399e+000
 1.5240330686e+000	 5.4297382354e-002	 3.6284501805e+000
 1.5234838552e+000	 6.7984872331e-002	 3.6377311062e+000
 1.5228091470e+000	 8.1714758035e-002	 3.6390067293e+000
 1.5220077232e+000	 9.5485551614e-002	 3.6319560393e+000
 1.5210783815e+000	 1.0929573293e-001	 3.6162676966e+000
 1.5200199396e+000	 1.2314374973e-001	 3.5916404123e+000
 1.5188312356e+000	 1.3702801779e-001	 3.5577833123e+000
 1.5500000000e+000	 0.0000000000e+000	 3.5752907969e+000
 1.5499392320e+000	 1.3725050166e-002	 3.6005696257e+000
 1.5497560485e+000	 2.7498909579e-002	 3.6195301079e+000
 1.5494491412e+000	 4.1320198346e-002	 3.6318327246e+000
 1.5490172173e+000	 5.5187503375e-002	 3.6371463586e+000
 1.5484590004e+000	 6.9099378434e-002	 3.6351487135e+000
 1.5477732314e+000	 8.3054344230e-002	 3.6255267204e+000
 1.5469586695e+000	 9.7050888523e-002	 3.6079769308e+000
 1.5460140927e+000	 1.1108746626e-001	 3.5822058951e+000
 1.5449382993e+000	 1.2516249972e-001	 3.5479305242e+000
 1.5437301083e+000	 1.3927437874e-001	 3.5048784344e+000
 1.5750000000e+000	 0.0000000000e+000	 3.6420830563e+000
 1.5749382519e+000	 1.3946421943e-002	 3.6558686114e+000
 1.5747521138e+000	 2.7942440378e-002	 3.6635826702e+000
 1.5744402564e+000	 4.1986653157e-002	 3.6649010853e+000
 1.5740013660e+000	 5.6077624396e-002	 3.6595085401e+000
 1.5734341456e+000	 7.0213884536e-002	 3.6470989570e+000
 1.5727373158e+000	 8.4393930425e-002	 3.6273758928e+000
 1.5719096157e+000	 9.8616225433e-002	 3.6000529180e+000
 1.5709498039e+000	 1.1287919958e-001	 3.5648539802e+000
 1.5698566590e+000	 1.2718124971e-001	 3.5215137498e+000
 1.5686289811e+000	 1.4152073968e-001	 3.4697779468e+000
 1.6000000000e+000	 0.0000000000e+000	 3.7186970178e+000
 1.5999372718e+000	 1.4167793719e-002	 3.7220623836e+000
 1.5997481791e+000	 2.8385971177e-002	 3.7195365798e+000
 1.5994313716e+000	 4.2653107968e-002	 3.7108101382e+000
 1.5989855146e+000	 5.6967745417e-002	 3.6955828961e+000
 1.5984092907e+000	 7.1328390638e-002	 3.6735643964e+000
 1.5977014002e+000	 8.5733516621e-002	 3.6444742712e+000
 1.5968605620e+000	 1.0018156234e-001	 3.6080426102e+000
 1.5958855150e+000	 1.1467093291e-001	 3.5640103096e+000
 1.5947750186e+000	 1.2919999971e-001	 3.5121294034e+000
 1.5935278538e+000	 1.4376710062e-001	 3.4521633729e+000
 1.6250000000e+000	 0.0000000000e+000	 3.8054241002e+000
 1.6249362916e+000	 1.4389165496e-002	 3.7993774387e+000
 1.6247442444e+000	 2.8829501976e-002	 3.7875542172e+000
 1.6244224868e+000	 4.3319562779e-002	 3.7696589935e+000
 1.6239696633e+000	 5.7857866438e-002	 3.7454061530e+000
 1.6233844359e+000	 7.2442896741e-002	 3.7145203002e+000
 1.6226654846e+000	 8.7073102817e-002	 3.6767366341e+000
 1.6218115083e+000	 1.0174689925e-001	 3.6318013049e+000
 1.6208212262e+000	 1.1646266623e-001	 3.5794717510e+000
 1.6196933783e+000	 1.3121874970e-001	 3.5195170162e+000
 1.6184267265e+000	 1.4601346157e-001	 3.4517180434e+000
 1.6500000000e+000	 0.0000000000e+000	 3.9025380607e+000
 1.6499353115e+000	 1.4610537273e-002	 3.8880249863e+000
 1.6497403097e+000	 2.9273032775e-002	 3.8677849575e+000
 1.6494136019e+000	 4.3986017590e-002	 3.8415359429e+000
 1.6489538120e+000	 5.8747987459e-002	 3.8090063075e+000
 1.6483595811e+000	 7.3557402843e-002	 3.7699351985e+000
 1.6476295689e+000	 8.8412689013e-002	 3.7240729116e+000
 1.6467624546e+000	 1.0331223616e-001	 3.6711812388e+000
 1.6457569374e+000	 1.1825439956e-001	 3.6110337947e+000
 1.6446117380e+000	 1.3323749970e-001	 3.5434163194e+000
 1.6433255992e+000	 1.4825982252e-001	 3.4681269596e+000
 1.6750000000e+000	 0.0000000000e+000	 4.0102963125e+000
 1.6749343314e+000	 1.4831909049e-002	 3.9882020897e+000
 1.6747363750e+000	 2.9716563574e-002	 3.9603661410e+000
 1.6744047171e+000	 4.4652472402e-002	 3.9265192663e+000
 1.6739379606e+000	 5.9638108481e-002	 3.8864032788e+000
 1.6733347262e+000	 7.4671908946e-002	 3.8397713855e+000
 1.6725936533e+000	 8.9752275209e-002	 3.7863885468e+000
 1.6717134009e+000	 1.0487757307e-001	 3.7260318163e+000
 1.6706926486e+000	 1.2004613288e-001	 3.6584906563e+000
 1.6695300976e+000	 1.3525624969e-001	 3.5835672301e+000
 1.6682244719e+000	 1.5050618346e-001	 3.5010766684e+000
 1.7000000000e+000	 0.0000000000e+000	 4.1289411270e+000
 1.6999333513e+000	 1.5053280826e-002	 4.1000927064e+000
 1.6997324403e+000	 3.0160094373e-002	 4.0654239581e+000
 1.6993958323e+000	 4.5318927213e-002	 4.0246779684e+000
 1.6989221093e+000	 6.0528229502e-002	 3.9776095019e+000
 1.6983098714e+000	 7.5786415049e-002	 3.9239853781e+000
 1.6975577377e+000	 9.1091861406e-002	 3.8635848263e+000
 1.6966643472e+000	 1.0644290998e-001	 3.7961998173e+000
 1.6956283597e+000	 1.2183786621e-001	 3.7216353708e+000
 1.6944484573e+000	 1.3727499969e-001	 3.6397098367e+000
 1.6931233446e+000	 1.5275254441e-001	 3.5502551490e+000
 1.7250000000e+000	 0.0000000000e+000	 4.2587007310e+000
 1.7249323711e+000	 1.5274652602e-002	 4.2238686376e+000
 1.7247285056e+000	 3.0603625172e-002	 4.1830742574e+000
 1.7243869475e+000	 4.5985382024e-002	 4.1360724506e+000
 1.7239062580e+000	 6.1418350523e-002	 4.0826304700e+000
 1.7232850166e+000	 7.6900921152e-002	 4.0225283346e+000
 1.7225218221e+000	 9.2431447602e-002	 3.9555591808e+000
 1.7216152934e+000	 1.0800824690e-001	 3.8815295879e+000
 1.7205640709e+000	 1.2362959954e-001	 3.8002598778e+000
 1.7193668170e+000	 1.3929374968e-001	 3.7115843871e+000
 1.7180222173e+000	 1.5499890536e-001	 3.6153517089e+000
 1.7500000000e+000	 0.0000000000e+000	 4.3997903096e+000
 1.7499313910e+000	 1.5496024379e-002	 4.3596903964e+000
 1.7497245709e+000	 3.1047155971e-002	 4.3134232841e+000
 1.7493780627e+000	 4.6651836836e-002	 4.2607551258e+000
 1.7488904066e+000	 6.2308471545e-002	 4.2014652308e+000
 1.7482601617e+000	 7.8015427255e-002	 4.1353464376e+000
 1.7474859064e+000	 9.3771033799e-002	 4.0622054610e+000
 1.7465662397e+000	 1.0957358381e-001	 3.9818632140e+000
 1.7454997821e+000	 1.2542133286e-001	 3.8941551001e+000
 1.7442851766e+000	 1.4131249968e-001	 3.7989312772e+000
 1.7429210901e+000	 1.5724526631e-001	 3.6960568890e+000
 1.4939323629e+000	 1.3478165685e-001	 3.6288130150e+000
 1.4926338975e+000	 1.4847238149e-001	 3.6351845630e+000
 1.4912050840e+000	 1.6219555323e-001	 3.6342388681e+000
 1.4896448456e+000	 1.7594952092e-001	 3.6257210032e+000
 1.4879521294e+000	 1.8973260296e-001	 3.6093855095e+000
 1.4861259070e+000	 2.0354308766e-001	 3.5849966256e+000
 1.4841651757e+000	 2.1737923353e-001	 3.5523284962e+000
 1.4820689593e+000	 2.3123926969e-001	 3.5111653606e+000
 1.4798363089e+000	 2.4512139625e-001	 3.4613017188e+000
 1.4774663038e+000	 2.5902378476e-001	 3.4025424750e+000
 1.4749580526e+000	 2.7294457862e-001	 3.3347030587e+000
 1.5188312356e+000	 1.3702801779e-001	 3.5577833123e+000
 1.5175111291e+000	 1.5094692118e-001	 3.5550920824e+000
 1.5160585020e+000	 1.6489881245e-001	 3.5456096243e+000
 1.5144722597e+000	 1.7888201293e-001	 3.5291038694e+000
 1.5127513315e+000	 1.9289481301e-001	 3.5053524333e+000
 1.5108946721e+000	 2.0693547245e-001	 3.4741428152e+000
 1.5089012620e+000	 2.2100222075e-001	 3.4352725760e+000
 1.5067701086e+000	 2.3509325751e-001	 3.3885494927e+000
 1.5045002474e+000	 2.4920675285e-001	 3.3337916910e+000
 1.5020907422e+000	 2.6334084783e-001	 3.2708277527e+000
 1.4995406868e+000	 2.7749365493e-001	 3.1994967983e+000
 1.5437301083e+000	 1.3927437874e-001	 3.5048784344e+000
 1.5423883607e+000	 1.5342146087e-001	 3.4938563646e+000
 1.5409119201e+000	 1.6760207167e-001	 3.4764971314e+000
 1.5392996738e+000	 1.8181450494e-001	 3.4525911826e+000
 1.5375505337e+000	 1.9605702305e-001	 3.4219389215e+000
 1.5356634372e+000	 2.1032785724e-001	 3.3843508767e+000
 1.5336373482e+000	 2.2462520797e-001	 3.3396478505e+000
 1.5314712579e+000	 2.3894724534e-001	 3.2876610412e+000
 1.5291641858e+000	 2.5329210946e-001	 3.2282321412e+000
 1.5267151806e+000	 2.6765791091e-001	 3.1612134097e+000
 1.5241233210e+000	 2.8204273124e-001	 3.0864677177e+000
 1.5686289811e+000	 1.4152073968e-001	 3.4697779468e+000
 1.5672655924e+000	 1.5589600055e-001	 3.4510877029e+000
 1.5657653382e+000	 1.7030533088e-001	 3.4264437840e+000
 1.5641270879e+000	 1.8474699695e-001	 3.3956588636e+000
 1.5623497358e+000	 1.9921923310e-001	 3.3585558962e+000
 1.5604322023e+000	 2.1372024203e-001	 3.3149682606e+000
 1.5583734345e+000	 2.2824819520e-001	 3.2647398775e+000
 1.5561724073e+000	 2.4280123317e-001	 3.2077253010e+000
 1.5538281243e+000	 2.5737746606e-001	 3.1437897839e+000
 1.5513396190e+000	 2.7197497399e-001	 3.0728093142e+000
 1.5487059552e+000	 2.8659180755e-001	 2.9946706249e+000
 1.5935278538e+000	 1.4376710062e-001	 3.4521633729e+000
 1.5921428240e+000	 1.5837054024e-001	 3.4264006427e+000
 1.5906187562e+000	 1.7300859010e-001	 3.3949983995e+000
 1.5889545020e+000	 1.8767948897e-001	 3.3577912998e+000
 1.5871489380e+000	 2.0238144315e-001	 3.3146246631e+000
 1.5852009674e+000	 2.1711262682e-001	 3.2653545877e+000
 1.5831095208e+000	 2.3187118242e-001	 3.2098480397e+000
 1.5808735566e+000	 2.4665522099e-001	 3.1479829138e+000
 1.5784920628e+000	 2.6146282266e-001	 3.0796480656e+000
 1.5759640574e+000	 2.7629203707e-001	 3.0047433147e+000
 1.5732885894e+000	 2.9114088386e-001	 2.9231794172e+000
 1.6184267265e+000	 1.4601346157e-001	 3.4517180434e+000
 1.6170200556e+000	 1.6084507993e-001	 3.4194136544e+000
 1.6154721743e+000	 1.7571184932e-001	 3.3817157234e+000
 1.6137819161e+000	 1.9061198098e-001	 3.3384806945e+000
 1.6119481402e+000	 2.0554365319e-001	 3.2895761127e+000
 1.6099697326e+000	 2.2050501162e-001	 3.2348807131e+000
 1.6078456070e+000	 2.3549416964e-001	 3.1742844819e+000
 1.6055747059e+000	 2.5050920882e-001	 3.1076886869e+000
 1.6031560013e+000	 2.6554817926e-001	 3.0350058782e+000
 1.6005884958e+000	 2.8060910014e-001	 2.9561598573e+000
 1.5978712237e+000	 2.9568996017e-001	 2.8710856133e+000
 1.6433255992e+000	 1.4825982252e-001	 3.4681269596e+000
 1.6418972872e+000	 1.6331961962e-001	 3.4297488361e+000
 1.6403255924e+000	 1.7841510854e-001	 3.3861559805e+000
 1.6386093302e+000	 1.9354447299e-001	 3.3372264744e+000
 1.6367473423e+000	 2.0870586324e-001	 3.2828499944e+000
 1.6347384977e+000	 2.2389739641e-001	 3.2229278752e+000
 1.6325816933e+000	 2.3911715687e-001	 3.1573731439e+000
 1.6302758552e+000	 2.5436319665e-001	 3.0861105208e+000
 1.6278199398e+000	 2.6963353587e-001	 3.0090763887e+000
 1.6252129342e+000	 2.8492616322e-001	 2.9262187278e+000
 1.6224538579e+000	 3.0023903648e-001	 2.8374970179e+000
 1.6682244719e+000	 1.5050618346e-001	 3.5010766684e+000
 1.6667745188e+000	 1.6579415931e-001	 3.4570316426e+000
 1.6651790104e+000	 1.8111836776e-001	 3.4078844660e+000
 1.6634367443e+000	 1.9647696501e-001	 3.3535347509e+000
 1.6615465445e+000	 2.1186807329e-001	 3.2938942550e+000
 1.6595072628e+000	 2.2728978120e-001	 3.2288869204e+000
 1.6573177795e+000	 2.4274014409e-001	 3.1584488804e+000
 1.6549770045e+000	 2.5821718447e-001	 3.0825284319e+000
 1.6524838782e+000	 2.7371889247e-001	 3.0010859735e+000
 1.6498373726e+000	 2.8924322630e-001	 2.9140939074e+000
 1.6470364921e+000	 3.0478811279e-001	 2.8215365065e+000
 1.6931233446e+000	 1.5275254441e-001	 3.5502551490e+000
 1.6916517505e+000	 1.6826869900e-001	 3.5008906391e+000
 1.6900324285e+000	 1.8382162698e-001	 3.4464711728e+000
 1.6882641584e+000	 1.9940945702e-001	 3.3869178281e+000
 1.6863457466e+000	 2.1503028334e-001	 3.3221644363e+000
 1.6842760279e+000	 2.3068216600e-001	 3.2521575969e+000
 1.6820538658e+000	 2.4636313132e-001	 3.1768566582e+000
 1.6796781539e+000	 2.6207117230e-001	 3.0962336613e+000
 1.6771478167e+000	 2.7780424907e-001	 3.0102732477e+000
 1.6744618110e+000	 2.9356028938e-001	 2.9189725287e+000
 1.6716191263e+000	 3.0933718910e-001	 2.8223409173e+000
 1.7180222173e+000	 1.5499890536e-001	 3.6153517089e+000
 1.7165289821e+000	 1.7074323870e-001	 3.5609572753e+000
 1.7148858466e+000	 1.8652488620e-001	 3.5014904506e+000
 1.7130915724e+000	 2.0234194904e-001	 3.4368937544e+000
 1.7111449488e+000	 2.1819249339e-001	 3.3671231246e+000
 1.7090447930e+000	 2.3407455079e-001	 3.2921479099e+000
 1.7067899521e+000	 2.4998611855e-001	 3.2119508238e+000
 1.7043793032e+000	 2.6592516013e-001	 3.1265278618e+000
 1.7018117552e+000	 2.8188960568e-001	 3.0358881779e+000
 1.6990862494e+000	 2.9787735246e-001	 2.9400539226e+000
 1.6962017605e+000	 3.1388626541e-001	 2.8390600393e+000
 1.7429210901e+000	 1.5724526631e-001	 3.6960568890e+000
 1.7414062137e+000	 1.7321777839e-001	 3.6368656796e+000
 1.7397392646e+000	 1.8922814542e-001	 3.5725206955e+000
 1.7379189865e+000	 2.0527444106e-001	 3.5029859122e+000
 1.7359441509e+000	 2.2135470344e-001	 3.4282394477e+000
 1.7338135582e+000	 2.3746693559e-001	 3.3482735312e+000
 1.7315260383e+000	 2.5360910577e-001	 3.2630944332e+000
 1.7290804525e+000	 2.6977914796e-001	 3.1727223539e+000
 1.7264756937e+000	 2.8597496228e-001	 3.0771912717e+000
 1.7237106878e+000	 3.0219441554e-001	 2.9765487473e+000
 1.7207843947e+000	 3.1843534172e-001	 2.8708556873e+000
 1.4749580526e+000	 2.7294457862e-001	 3.3347030587e+000
 1.4723106938e+000	 2.8688189364e-001	 3.3063688811e+000
 1.4695233968e+000	 3.0083381848e-001	 3.2688311176e+000
 1.4665953626e+000	 3.1479841525e-001	 3.2218936844e+000
 1.4635258252e+000	 3.2877372006e-001	 3.1653707749e+000
 1.4603140515e+000	 3.4275774362e-001	 3.0990868887e+000
 1.4569593432e+000	 3.5674847188e-001	 3.0228768362e+000
 1.4534610367e+000	 3.7074386670e-001	 2.9365857171e+000
 1.4498185045e+000	 3.8474186652e-001	 2.8400688725e+000
 1.4460311558e+000	 3.9874038711e-001	 2.7331918119e+000
 1.4420984373e+000	 4.1273732227e-001	 2.6158301128e+000
 1.4995406868e+000	 2.7749365493e-001	 3.1994967983e+000
 1.4968492054e+000	 2.9166325853e-001	 3.1663399913e+000
 1.4940154534e+000	 3.0584771546e-001	 3.1252636712e+000
 1.4910386187e+000	 3.2004505551e-001	 3.0761000346e+000
 1.4879179223e+000	 3.3425328206e-001	 3.0186910126e+000
 1.4846526191e+000	 3.4847037268e-001	 2.9528882434e+000
 1.4812419989e+000	 3.6269427974e-001	 2.8785530188e+000
 1.4776853873e+000	 3.7692293114e-001	 2.7955562031e+000
 1.4739821463e+000	 3.9115423097e-001	 2.7037781261e+000
 1.4701316751e+000	 4.0538606023e-001	 2.6031084479e+000
 1.4661334112e+000	 4.1961627764e-001	 2.4934459980e+000
 1.5241233210e+000	 2.8204273124e-001	 3.0864677177e+000
 1.5213877169e+000	 2.9644462343e-001	 3.0485482515e+000
 1.5185075100e+000	 3.1086161243e-001	 3.0039036155e+000
 1.5154818747e+000	 3.2529169576e-001	 2.9523943635e+000
 1.5123100193e+000	 3.3973284406e-001	 2.8938903095e+000
 1.5089911866e+000	 3.5418300174e-001	 2.8282704446e+000
 1.5055246547e+000	 3.6864008761e-001	 2.7554228250e+000
 1.5019097379e+000	 3.8310199559e-001	 2.6752444323e+000
 1.4981457880e+000	 3.9756659541e-001	 2.5876410062e+000
 1.4942321944e+000	 4.1203173334e-001	 2.4925268492e+000
 1.4901683852e+000	 4.2649523301e-001	 2.3898246026e+000
 1.5487059552e+000	 2.8659180755e-001	 2.9946706249e+000
 1.5459262285e+000	 3.0122598832e-001	 2.9519925734e+000
 1.5429995666e+000	 3.1587550941e-001	 2.9036966620e+000
 1.5399251308e+000	 3.3053833602e-001	 2.8496719373e+000
 1.5367021164e+000	 3.4521240607e-001	 2.7898163008e+000
 1.5333297541e+000	 3.5989563080e-001	 2.7240363687e+000
 1.5298073104e+000	 3.7458589548e-001	 2.6522473020e+000
 1.5261340886e+000	 3.8928106004e-001	 2.5743726089e+000
 1.5223094298e+000	 4.0397895985e-001	 2.4903439170e+000
 1.5183327136e+000	 4.1867740646e-001	 2.4001007165e+000
 1.5142033591e+000	 4.3337418838e-001	 2.3035900750e+000
 1.5732885894e+000	 2.9114088386e-001	 2.9231794172e+000
 1.5704647400e+000	 3.0600735321e-001	 2.8756920937e+000
 1.5674916232e+000	 3.2088940638e-001	 2.8236096892e+000
 1.5643683868e+000	 3.3578497627e-001	 2.7668499371e+000
 1.5610942135e+000	 3.5069196807e-001	 2.7053390872e+000
 1.5576683217e+000	 3.6560825986e-001	 2.6390117090e+000
 1.5540899661e+000	 3.8053170334e-001	 2.5678104654e+000
 1.5503584392e+000	 3.9546012448e-001	 2.4916858548e+000
 1.5464730715e+000	 4.1039132430e-001	 2.4105959246e+000
 1.5424332329e+000	 4.2532307958e-001	 2.3245059523e+000
 1.5382383331e+000	 4.4025314375e-001	 2.2333880983e+000
 1.5978712237e+000	 2.9568996017e-001	 2.8710856133e+000
 1.5950032516e+000	 3.1078871811e-001	 2.8186846181e+000
 1.5919836798e+000	 3.2590330335e-001	 2.7626291149e+000
 1.5888116429e+000	 3.4103161652e-001	 2.7028657731e+000
 1.5854863106e+000	 3.5617153007e-001	 2.6393495065e+000
 1.5820068892e+000	 3.7132088892e-001	 2.5720432214e+000
 1.5783726218e+000	 3.8647751121e-001	 2.5009175323e+000
 1.5745827898e+000	 4.0163918893e-001	 2.4259504463e+000
 1.5706367133e+000	 4.1680368874e-001	 2.3471270144e+000
 1.5665337522e+000	 4.3196875270e-001	 2.2644389533e+000
 1.5622733070e+000	 4.4713209913e-001	 2.1778842339e+000
 1.6224538579e+000	 3.0023903648e-001	 2.8374970179e+000
 1.6195417632e+000	 3.1557008300e-001	 2.7800252072e+000
 1.6164757364e+000	 3.3091720033e-001	 2.7197594160e+000
 1.6132548989e+000	 3.4627825678e-001	 2.6566755521e+000
 1.6098784077e+000	 3.6165109207e-001	 2.5907575630e+000
 1.6063454567e+000	 3.7703351798e-001	 2.5219971277e+000
 1.6026552775e+000	 3.9242331907e-001	 2.4503933157e+000
 1.5988071404e+000	 4.0781825337e-001	 2.3759522113e+000
 1.5948003550e+000	 4.2321605318e-001	 2.2986865062e+000
 1.5906342714e+000	 4.3861442582e-001	 2.2186150578e+000
 1.5863082810e+000	 4.5401105450e-001	 2.1357624155e+000
 1.6470364921e+000	 3.0478811279e-001	 2.8215365065e+000
 1.6440802747e+000	 3.2035144789e-001	 2.7587848884e+000
 1.6409677930e+000	 3.3593109730e-001	 2.6940217800e+000
 1.6376981549e+000	 3.5152489703e-001	 2.6272526822e+000
 1.6342705048e+000	 3.6713065407e-001	 2.5584909970e+000
 1.6306840242e+000	 3.8274614704e-001	 2.4877576640e+000
 1.6269379333e+000	 3.9836912694e-001	 2.4150807611e+000
 1.6230314910e+000	 4.1399731782e-001	 2.3404950708e+000
 1.6189639967e+000	 4.2962841762e-001	 2.2640416110e+000
 1.6147347907e+000	 4.4526009894e-001	 2.1857671318e+000
 1.6103432550e+000	 4.6089000987e-001	 2.1057235779e+000
 1.6716191263e+000	 3.0933718910e-001	 2.8223409173e+000
 1.6686187863e+000	 3.2513281279e-001	 2.7540494827e+000
 1.6654598497e+000	 3.4094499428e-001	 2.6844528773e+000
 1.6621414110e+000	 3.5677153728e-001	 2.6135866007e+000
 1.6586626019e+000	 3.7261021607e-001	 2.5414939808e+000
 1.6550225918e+000	 3.8845877610e-001	 2.4682257552e+000
 1.6512205890e+000	 4.0431493480e-001	 2.3938396144e+000
 1.6472558416e+000	 4.2017638226e-001	 2.3183997082e+000
 1.6431276385e+000	 4.3604078206e-001	 2.2419761160e+000
 1.6388353100e+000	 4.5190577206e-001	 2.1646442806e+000
 1.6343782289e+000	 4.6776896524e-001	 2.0864844072e+000
 1.6962017605e+000	 3.1388626541e-001	 2.8390600393e+000
 1.6931572979e+000	 3.2991417768e-001	 2.7649185316e+000
 1.6899519063e+000	 3.4595889125e-001	 2.6901037386e+000
 1.6865846670e+000	 3.6201817754e-001	 2.6146816124e+000
 1.6830546990e+000	 3.7808977807e-001	 2.5387259275e+000
 1.6793611593e+000	 3.9417140516e-001	 2.4623178062e+000
 1.6755032447e+000	 4.1026074266e-001	 2.3855452034e+000
 1.6714801922e+000	 4.2635544671e-001	 2.3085023543e+000
 1.6672912802e+000	 4.4245314651e-001	 2.2312891827e+000
 1.6629358292e+000	 4.5855144518e-001	 2.1540106720e+000
 1.6584132029e+000	 4.7464792061e-001	 2.0767761990e+000
 1.7207843947e+000	 3.1843534172e-001	 2.8708556873e+000
 1.7176958094e+000	 3.3469554257e-001	 2.7905043182e+000
 1.7144439629e+000	 3.5097278822e-001	 2.7100387293e+000
 1.7110279231e+000	 3.6726481779e-001	 2.6295558278e+000
 1.7074467960e+000	 3.8356934007e-001	 2.5491604032e+000
 1.7036997268e+000	 3.9988403422e-001	 2.4689645960e+000
 1.6997859004e+000	 4.1620655053e-001	 2.3890873256e+000
 1.6957045429e+000	 4.3253451115e-001	 2.3096536775e+000
 1.6914549220e+000	 4.4886551095e-001	 2.2307942497e+000
 1.6870363485e+000	 4.6519711830e-001	 2.1526444602e+000
 1.6824481768e+000	 4.8152687598e-001	 2.0753438153e+000
 1.4420984373e+000	 4.1273732227e-001	 2.6158301128e+000
 1.4380198337e+000	 4.2673054465e-001	 2.5577924759e+000
 1.4337948692e+000	 4.4071790656e-001	 2.4924486778e+000
 1.4294231071e+000	 4.5469724075e-001	 2.4196664592e+000
 1.4249041518e+000	 4.6866636131e-001	 2.3393200513e+000
 1.4202376483e+000	 4.8262306456e-001	 2.2512899387e+000
 1.4154232836e+000	 4.9656512994e-001	 2.1554626019e+000
 1.4104607872e+000	 5.1049032095e-001	 2.0517302380e+000
 1.4053499316e+000	 5.2439638615e-001	 1.9399904609e+000
 1.4000905329e+000	 5.3828106007e-001	 1.8201459822e+000
 1.3946824516e+000	 5.5214206433e-001	 1.6921042730e+000
 1.4661334112e+000	 4.1961627764e-001	 2.4934459980e+000
 1.4619868310e+000	 4.3384272040e-001	 2.4408778754e+000
 1.4576914503e+000	 4.4806320500e-001	 2.3791654654e+000
 1.4532468256e+000	 4.6227552809e-001	 2.3082027315e+000
 1.4486525543e+000	 4.7647746733e-001	 2.2278921345e+000
 1.4439082757e+000	 4.9066678230e-001	 2.1381443745e+000
 1.4390136716e+000	 5.0484121544e-001	 2.0388781079e+000
 1.4339684670e+000	 5.1899849297e-001	 1.9300196398e+000
 1.4287724304e+000	 5.3313632591e-001	 1.8115025930e+000
 1.4234253751e+000	 5.4725241107e-001	 1.6832675529e+000
 1.4179271591e+000	 5.6134443207e-001	 1.5452616918e+000
 1.4901683852e+000	 4.2649523301e-001	 2.3898246026e+000
 1.4859538282e+000	 4.4095489614e-001	 2.3435041911e+000
 1.4815880315e+000	 4.5540850345e-001	 2.2862282967e+000
 1.4770705440e+000	 4.6985381544e-001	 2.2179179508e+000
 1.4724009568e+000	 4.8428857336e-001	 2.1385046894e+000
 1.4675789032e+000	 4.9871050005e-001	 2.0479302723e+000
 1.4626040597e+000	 5.1311730094e-001	 1.9461463730e+000
 1.4574761468e+000	 5.2750666498e-001	 1.8331142413e+000
 1.4521949293e+000	 5.4187626568e-001	 1.7088043385e+000
 1.4467602173e+000	 5.5622376207e-001	 1.5731959458e+000
 1.4411718666e+000	 5.7054679981e-001	 1.4262767480e+000
 1.5142033591e+000	 4.3337418838e-001	 2.3035900750e+000
 1.5099208254e+000	 4.4806707189e-001	 2.2641928518e+000
 1.5054846126e+000	 4.6275380189e-001	 2.2120537656e+000
 1.5008942625e+000	 4.7743210279e-001	 2.1471218073e+000
 1.4961493594e+000	 4.9209967938e-001	 2.0693584826e+000
 1.4912495307e+000	 5.0675421779e-001	 1.9787375055e+000
 1.4861944478e+000	 5.2139338644e-001	 1.8752444601e+000
 1.4809838265e+000	 5.3601483700e-001	 1.7588764315e+000
 1.4756174281e+000	 5.5061620545e-001	 1.6296416053e+000
 1.4700950595e+000	 5.6519511307e-001	 1.4875588377e+000
 1.4644165742e+000	 5.7974916755e-001	 1.3326571967e+000
 1.5382383331e+000	 4.4025314375e-001	 2.2333880983e+000
 1.5338878227e+000	 4.5517924763e-001	 2.2014907189e+000
 1.5293811938e+000	 4.7009910033e-001	 2.1550879226e+000
 1.5247179809e+000	 4.8501039013e-001	 2.0941575981e+000
 1.5198977619e+000	 4.9991078540e-001	 2.0186921622e+000
 1.5149201581e+000	 5.1479793553e-001	 1.9286982272e+000
 1.5097848358e+000	 5.2966947193e-001	 1.8241962327e+000
 1.5044915063e+000	 5.4452300902e-001	 1.7052200423e+000
 1.4990399270e+000	 5.5935614522e-001	 1.5718165066e+000
 1.4934299018e+000	 5.7416646408e-001	 1.4240449920e+000
 1.4876612817e+000	 5.8895153529e-001	 1.2619768783e+000
 1.5622733070e+000	 4.4713209913e-001	 2.1778842339e+000
 1.5578548199e+000	 4.6229142338e-001	 2.1539681301e+000
 1.5532777749e+000	 4.7744439878e-001	 2.1138040099e+000
 1.5485416994e+000	 4.9258867748e-001	 2.0573996422e+000
 1.5436461644e+000	 5.0772189142e-001	 1.9847793438e+000
 1.5385907856e+000	 5.2284165328e-001	 1.8959836180e+000
 1.5333752239e+000	 5.3794555743e-001	 1.7910687547e+000
 1.5279991861e+000	 5.5303118103e-001	 1.6701063914e+000
 1.5224624259e+000	 5.6809608499e-001	 1.5331830373e+000
 1.5167647440e+000	 5.8313781508e-001	 1.3803995596e+000
 1.5109059892e+000	 5.9815390303e-001	 1.2118706348e+000
 1.5863082810e+000	 4.5401105450e-001	 2.1357624155e+000
 1.5818218171e+000	 4.6940359912e-001	 2.1202171209e+000
 1.5771743561e+000	 4.8478969722e-001	 2.0867004002e+000
 1.5723654179e+000	 5.0016696483e-001	 2.0352509300e+000
 1.5673945670e+000	 5.1553299745e-001	 1.9659259615e+000
 1.5622614131e+000	 5.3088537102e-001	 1.8788009294e+000
 1.5569656119e+000	 5.4622164294e-001	 1.7739690179e+000
 1.5515068659e+000	 5.6153935305e-001	 1.6515406847e+000
 1.5458849247e+000	 5.7683602476e-001	 1.5116431436e+000
 1.5400995862e+000	 5.9210916608e-001	 1.3544198070e+000
 1.5341506967e+000	 6.0735627077e-001	 1.1800296884e+000
 1.6103432550e+000	 4.6089000987e-001	 2.1057235779e+000
 1.6057888143e+000	 4.7651577487e-001	 2.0988498052e+000
 1.6010709372e+000	 4.9213499566e-001	 2.0722987222e+000
 1.5961891363e+000	 5.0774525217e-001	 2.0261409839e+000
 1.5911429695e+000	 5.2334410347e-001	 1.9604678561e+000
 1.5859320406e+000	 5.3892908877e-001	 1.8753907918e+000
 1.5805560000e+000	 5.5449772844e-001	 1.7710409622e+000
 1.5750145457e+000	 5.7004752507e-001	 1.6475687411e+000
 1.5693074236e+000	 5.8557596453e-001	 1.5051431447e+000
 1.5634344284e+000	 6.0108051709e-001	 1.3439512273e+000
 1.5573954043e+000	 6.1655863851e-001	 1.1641974339e+000
 1.6343782289e+000	 4.6776896524e-001	 2.0864844072e+000
 1.6297558116e+000	 4.8362795061e-001	 2.0884968994e+000
 1.6249675184e+000	 4.9948029411e-001	 2.0691421503e+000
 1.6200128548e+000	 5.1532353952e-001	 2.0285239076e+000
 1.6148913720e+000	 5.3115520949e-001	 1.9667685759e+000
 1.6096026680e+000	 5.4697280651e-001	 1.8840247603e+000
 1.6041463881e+000	 5.6277381394e-001	 1.7804627588e+000
 1.5985222255e+000	 5.7855569709e-001	 1.6562740065e+000
 1.5927299224e+000	 5.9431590430e-001	 1.5116704699e+000
 1.5867692706e+000	 6.1005186809e-001	 1.3468839939e+000
 1.5806401118e+000	 6.2576100625e-001	 1.1620323663e+000
 1.6584132029e+000	 4.7464792061e-001	 2.0767761990e+000
 1.6537228088e+000	 4.9074012636e-001	 2.0878063737e+000
 1.6488640995e+000	 5.0682559255e-001	 2.0757938431e+000
 1.6438365732e+000	 5.2290182687e-001	 2.0408766042e+000
 1.6386397745e+000	 5.3896631552e-001	 1.9832173692e+000
 1.6332732955e+000	 5.5501652426e-001	 1.9030030735e+000
 1.6277367761e+000	 5.7104989944e-001	 1.8004443296e+000
 1.6220299053e+000	 5.8706386911e-001	 1.6757748268e+000
 1.6161524213e+000	 6.0305584408e-001	 1.5292506794e+000
 1.6101041128e+000	 6.1902321909e-001	 1.3611497231e+000
 1.6038848193e+000	 6.3496337399e-001	 1.1721134809e+000
 1.6824481768e+000	 4.8152687598e-001	 2.0753438153e+000
 1.6776898060e+000	 4.9785230211e-001	 2.0954422203e+000
 1.6727606807e+000	 5.1417089100e-001	 2.0908355165e+000
 1.6676602917e+000	 5.3048011422e-001	 2.0616971485e+000
 1.6623881771e+000	 5.4677742155e-001	 2.0082273482e+000
 1.6569439230e+000	 5.6306024200e-001	 1.9306526053e+000
 1.6513271642e+000	 5.7932598494e-001	 1.8292250794e+000
 1.6455375851e+000	 5.9557204113e-001	 1.7042219553e+000
 1.6395749202e+000	 6.1179578385e-001	 1.5559447414e+000
 1.6334389551e+000	 6.2799457010e-001	 1.3839683934e+000
 1.6271295268e+000	 6.4416574173e-001	 1.1963410838e+000
 1.3946824516e+000	 5.5214206433e-001	 1.6921042730e+000
 1.3891255928e+000	 5.6597710858e-001	 1.6964056341e+000
 1.3834199070e+000	 5.7978389160e-001	 1.6750704187e+000
 1.3775653904e+000	 5.9356010237e-001	 1.6280717535e+000
 1.3715620856e+000	 6.0730342120e-001	 1.5554041175e+000
 1.3654100816e+000	 6.2101152078e-001	 1.4570830866e+000
 1.3591095148e+000	 6.3468206740e-001	 1.3541718672e+000
 1.3526605688e+000	 6.4831272205e-001	 1.2440703696e+000
 1.3460634750e+000	 6.6190114160e-001	 1.1197252146e+000
 1.3393185129e+000	 6.7544498003e-001	 9.8107224927e-001
 1.3324260102e+000	 6.8894188956e-001	 8.2805949589e-001
 1.4179271591e+000	 5.6134443207e-001	 1.5452616918e+000
 1.4122776860e+000	 5.7541006039e-001	 1.5466752315e+000
 1.4064769054e+000	 5.8944695646e-001	 1.5220545371e+000
 1.4005248136e+000	 6.0345277075e-001	 1.4713969881e+000
 1.3944214536e+000	 6.1742514488e-001	 1.3947219106e+000
 1.3881669163e+000	 6.3136171280e-001	 1.3027490295e+000
 1.3817613401e+000	 6.4526010186e-001	 1.2062273867e+000
 1.3752049116e+000	 6.5911793409e-001	 1.0956386510e+000
 1.3684978662e+000	 6.7293282730e-001	 9.7091451469e-001
 1.3616404881e+000	 6.8670239636e-001	 8.3199892291e-001
 1.3546331104e+000	 7.0042425438e-001	 6.7884813287e-001
 1.4411718666e+000	 5.7054679981e-001	 1.4262767480e+000
 1.4354297792e+000	 5.8484301220e-001	 1.4243921524e+000
 1.4295339039e+000	 5.9911002132e-001	 1.3960729626e+000
 1.4234842367e+000	 6.1334543912e-001	 1.3413420497e+000
 1.4172808217e+000	 6.2754686857e-001	 1.2633211264e+000
 1.4109237510e+000	 6.4171190481e-001	 1.1804005499e+000
 1.4044131653e+000	 6.5583813632e-001	 1.0835873859e+000
 1.3977492544e+000	 6.6992314612e-001	 9.7280909832e-001
 1.3909322575e+000	 6.8396451299e-001	 8.4800549139e-001
 1.3839624633e+000	 6.9795981269e-001	 7.0912877172e-001
 1.3768402106e+000	 7.1190661921e-001	 5.5614359357e-001
 1.4644165742e+000	 5.7974916755e-001	 1.3326571967e+000
 1.4585818724e+000	 5.9427596401e-001	 1.3270138168e+000
 1.4525909023e+000	 6.0877308618e-001	 1.2945330170e+000
 1.4464436599e+000	 6.2323810749e-001	 1.2352644409e+000
 1.4401401898e+000	 6.3766859226e-001	 1.1646164025e+000
 1.4336805857e+000	 6.5206209682e-001	 1.0815845880e+000
 1.4270649905e+000	 6.6641617078e-001	 9.8475575509e-001
 1.4202935972e+000	 6.8072835815e-001	 8.7406549551e-001
 1.4133666487e+000	 6.9499619869e-001	 7.4946190364e-001
 1.4062844385e+000	 7.0921722903e-001	 6.1090562499e-001
 1.3990473107e+000	 7.2338898403e-001	 4.5836988771e-001
 1.4876612817e+000	 5.8895153529e-001	 1.2619768783e+000
 1.4817339656e+000	 6.0370891582e-001	 1.2520643930e+000
 1.4756479008e+000	 6.1843615104e-001	 1.2149094355e+000
 1.4694030831e+000	 6.3313077587e-001	 1.1570400914e+000
 1.4629995579e+000	 6.4779031595e-001	 1.0877829286e+000
 1.4564374204e+000	 6.6241228884e-001	 1.0048946209e+000
 1.4497168158e+000	 6.7699420523e-001	 9.0830646628e-001
 1.4428379400e+000	 6.9153357019e-001	 7.9796237636e-001
 1.4358010400e+000	 7.0602788438e-001	 6.7381892762e-001
 1.4286064137e+000	 7.2047464536e-001	 5.3584539617e-001
 1.4212544109e+000	 7.3487134886e-001	 3.8402377502e-001
 1.5109059892e+000	 5.9815390303e-001	 1.2118706348e+000
 1.5048860588e+000	 6.1314186763e-001	 1.1971296636e+000
 1.4987048992e+000	 6.2809921590e-001	 1.1559662796e+000
 1.4923625062e+000	 6.4302344424e-001	 1.1004655287e+000
 1.4858589260e+000	 6.5791203963e-001	 1.0314971978e+000
 1.4791942551e+000	 6.7276248085e-001	 9.4898820011e-001
 1.4723686410e+000	 6.8757223969e-001	 8.5287818259e-001
 1.4653822828e+000	 7.0233878223e-001	 7.4311958210e-001
 1.4582354312e+000	 7.1705957007e-001	 6.1967766308e-001
 1.4509283889e+000	 7.3173206170e-001	 4.8253053786e-001
 1.4434615111e+000	 7.4635371369e-001	 3.3166916913e-001
 1.5341506967e+000	 6.0735627077e-001	 1.1800296884e+000
 1.5280381520e+000	 6.2257481944e-001	 1.1598523571e+000
 1.5217618977e+000	 6.3776228076e-001	 1.1180374819e+000
 1.5153219294e+000	 6.5291611261e-001	 1.0629579117e+000
 1.5087182941e+000	 6.6803376332e-001	 9.9449435394e-001
 1.5019510898e+000	 6.8311267287e-001	 9.1258209769e-001
 1.4950204663e+000	 6.9815027415e-001	 8.1716935727e-001
 1.4879266257e+000	 7.1314399426e-001	 7.0821731387e-001
 1.4806698225e+000	 7.2809125577e-001	 5.8570013922e-001
 1.4732503641e+000	 7.4298947803e-001	 4.4960500101e-001
 1.4656686112e+000	 7.5783607852e-001	 2.9993205010e-001
 1.5573954043e+000	 6.1655863851e-001	 1.1641974339e+000
 1.5511902453e+000	 6.3200777125e-001	 1.1390178916e+000
 1.5448188961e+000	 6.4742534562e-001	 1.0977861770e+000
 1.5382813526e+000	 6.6280878099e-001	 1.0433245433e+000
 1.5315776622e+000	 6.7815548701e-001	 9.7556381467e-001
 1.5247079245e+000	 6.9346286488e-001	 8.9444788655e-001
 1.5176722915e+000	 7.0872830861e-001	 7.9993377180e-001
 1.5104709685e+000	 7.2394920630e-001	 6.9199162828e-001
 1.5031042137e+000	 7.3912294146e-001	 5.7060476765e-001
 1.4955723393e+000	 7.5424689437e-001	 4.3576964548e-001
 1.4878757114e+000	 7.6931844334e-001	 2.8749583264e-001
 1.5806401118e+000	 6.2576100625e-001	 1.1620323663e+000
 1.5743423385e+000	 6.4144072306e-001	 1.1345989154e+000
 1.5678758946e+000	 6.5708841048e-001	 1.0940868881e+000
 1.5612407758e+000	 6.7270144936e-001	 1.0404225215e+000
 1.5544370303e+000	 6.8827721070e-001	 9.7354528097e-001
 1.5474647592e+000	 7.0381305690e-001	 8.9340791109e-001
 1.5403241168e+000	 7.1930634307e-001	 7.9997646762e-001
 1.5330153113e+000	 7.3475441833e-001	 6.9323033036e-001
 1.5255386050e+000	 7.5015462716e-001	 5.7316219665e-001
 1.5178943146e+000	 7.6550431070e-001	 4.3977805556e-001
 1.5100828116e+000	 7.8080080817e-001	 2.9309714293e-001
 1.6038848193e+000	 6.3496337399e-001	 1.1721134809e+000
 1.5974944317e+000	 6.5087367487e-001	 1.1454909589e+000
 1.5909328930e+000	 6.6675147534e-001	 1.1058598732e+000
 1.5842001989e+000	 6.8259411774e-001	 1.0531551313e+000
 1.5772963984e+000	 6.9839893439e-001	 9.8732509326e-001
 1.5702215939e+000	 7.1416324891e-001	 9.0833160810e-001
 1.5629759420e+000	 7.2988437753e-001	 8.1615003163e-001
 1.5555596541e+000	 7.4555963037e-001	 7.1076922372e-001
 1.5479729962e+000	 7.6118631286e-001	 5.9219152592e-001
 1.5402162898e+000	 7.7676172704e-001	 4.6043271935e-001
 1.5322899118e+000	 7.9228317300e-001	 3.1552196278e-001
 1.6271295268e+000	 6.4416574173e-001	 1.1963410838e+000
 1.6206465249e+000	 6.6030662669e-001	 1.1706733185e+000
 1.6139898915e+000	 6.7641454021e-001	 1.1320678588e+000
 1.6071596221e+000	 6.9248678611e-001	 1.0804685459e+000
 1.6001557665e+000	 7.0852065808e-001	 1.0158329000e+000
 1.5929784285e+000	 7.2451344093e-001	 9.3813214301e-001
 1.5856277673e+000	 7.4046241198e-001	 8.4735120013e-001
 1.5781039969e+000	 7.5636484241e-001	 7.4348868201e-001
 1.5704073875e+000	 7.7221799855e-001	 6.2655684572e-001
 1.5625382650e+000	 7.8801914338e-001	 4.9658153564e-001
 1.5544970119e+000	 8.0376553783e-001	 3.5360210416e-001
 1.3324260102e+000	 6.8894188956e-001	 8.2805949589e-001
 1.3253863434e+000	 7.0238952194e-001	 7.3068552428e-001
 1.3181999376e+000	 7.1578552965e-001	 6.2985499825e-001
 1.3108672667e+000	 7.2912756712e-001	 5.2566057885e-001
 1.3033888536e+000	 7.4241329201e-001	 4.1819887539e-001
 1.2957652706e+000	 7.5564036645e-001	 3.0757025097e-001
 1.2879971388e+000	 7.6880645833e-001	 1.9387862147e-001
 1.2800851286e+000	 7.8190924254e-001	 7.7231248244e-002
 1.2720299594e+000	 7.9494640225e-001	-4.2261474812e-002
 1.2638323996e+000	 8.0791563023e-001	-1.6448623935e-001
 1.2554932668e+000	 8.2081463007e-001	-2.8932704524e-001
 1.3546331104e+000	 7.0042425438e-001	 6.7884813287e-001
 1.3474761158e+000	 7.1409601397e-001	 5.8532668655e-001
 1.3401699365e+000	 7.2771528847e-001	 4.8908069800e-001
 1.3327150544e+000	 7.4127969323e-001	 3.9018625839e-001
 1.3251120012e+000	 7.5478684687e-001	 2.8872262641e-001
 1.3173613584e+000	 7.6823437256e-001	 1.8477203730e-001
 1.3094637578e+000	 7.8161989930e-001	 7.8419506341e-002
 1.3014198807e+000	 7.9494106324e-001	-3.0247372839e-002
 1.2932304587e+000	 8.0819550895e-001	-1.4113863446e-001
 1.2848962730e+000	 8.2138089073e-001	-2.5416215088e-001
 1.2764181546e+000	 8.3449487390e-001	-3.6922384629e-001
 1.3768402106e+000	 7.1190661921e-001	 5.5614359357e-001
 1.3695658882e+000	 7.2580250600e-001	 4.6533732371e-001
 1.3621399355e+000	 7.3964504730e-001	 3.7251965953e-001
 1.3545628422e+000	 7.5343181935e-001	 2.7775086683e-001
 1.3468351487e+000	 7.6716040174e-001	 1.8109361265e-001
 1.3389574463e+000	 7.8082837866e-001	 8.2612776955e-002
 1.3309303768e+000	 7.9443334027e-001	-1.7624740234e-002
 1.3227546328e+000	 8.0797288395e-001	-1.1955021578e-001
 1.3144309580e+000	 8.2144461565e-001	-2.2309330387e-001
 1.3059601463e+000	 8.3484615123e-001	-3.2818223935e-001
 1.2973430424e+000	 8.4817511773e-001	-4.3474404345e-001
 1.3990473107e+000	 7.2338898403e-001	 4.5836988771e-001
 1.3916556606e+000	 7.3750899804e-001	 3.6919047937e-001
 1.3841099345e+000	 7.5157480613e-001	 2.7869511530e-001
 1.3764106300e+000	 7.6558394547e-001	 1.8692896694e-001
 1.3685582963e+000	 7.7953395660e-001	 9.3938854358e-002
 1.3605535341e+000	 7.9342238477e-001	-2.2694033312e-004
 1.3523969957e+000	 8.0724678124e-001	-9.5518863023e-002
 1.3440893850e+000	 8.2100470466e-001	-1.9188628071e-001
 1.3356314573e+000	 8.3469372236e-001	-2.8927767705e-001
 1.3270240196e+000	 8.4831141173e-001	-3.8764084970e-001
 1.3182679302e+000	 8.6185536157e-001	-4.8692310902e-001
 1.4212544109e+000	 7.3487134886e-001	 3.8402377502e-001
 1.4137454330e+000	 7.4921549007e-001	 2.9542831624e-001
 1.4060799334e+000	 7.6350456496e-001	 2.0619572085e-001
 1.3982584178e+000	 7.7773607159e-001	 1.1635678496e-001
 1.3902814439e+000	 7.9190751147e-001	 2.5943213464e-002
 1.3821496220e+000	 8.0601639088e-001	-6.5012565571e-002
 1.3738636147e+000	 8.2006022222e-001	-1.5647758903e-001
 1.3654241371e+000	 8.3403652537e-001	-2.4841854889e-001
 1.3568319566e+000	 8.4794282906e-001	-3.4080198381e-001
 1.3480878930e+000	 8.6177667223e-001	-4.3359447140e-001
 1.3391928179e+000	 8.7553560540e-001	-5.2676282078e-001
 1.4434615111e+000	 7.4635371369e-001	 3.3166916913e-001
 1.4358352054e+000	 7.6092198210e-001	 2.4265679928e-001
 1.4280499324e+000	 7.7543432378e-001	 1.5367052232e-001
 1.4201062055e+000	 7.8988819771e-001	 6.4727467274e-002
 1.4120045914e+000	 8.0428106634e-001	-2.4155055779e-002
 1.4037457098e+000	 8.1861039699e-001	-1.1295974122e-001
 1.3953302337e+000	 8.3287366319e-001	-2.0166947499e-001
 1.3867588893e+000	 8.4706834608e-001	-2.9026752265e-001
 1.3780324560e+000	 8.6119193577e-001	-3.7873771781e-001
 1.3691517663e+000	 8.7524193274e-001	-4.6706465038e-001
 1.3601177057e+000	 8.8921584923e-001	-5.5523385387e-001
 1.4656686112e+000	 7.5783607852e-001	 2.9993205010e-001
 1.4579249778e+000	 7.7262847414e-001	 2.0954086222e-001
 1.4500199313e+000	 7.8736408261e-001	 1.1982438135e-001
 1.4419539933e+000	 8.0204032383e-001	 3.0786768257e-002
 1.4337277390e+000	 8.1665462121e-001	-5.7568351666e-002
 1.4253417977e+000	 8.3120440310e-001	-1.4523807459e-001
 1.4167968527e+000	 8.4568710416e-001	-2.3222040518e-001
 1.4080936414e+000	 8.6010016679e-001	-3.1851444345e-001
 1.3992329553e+000	 8.7444104247e-001	-4.0412057106e-001
 1.3902156396e+000	 8.8870719324e-001	-4.8904063629e-001
 1.3810425935e+000	 9.0289609307e-001	-5.7327813710e-001
 1.4878757114e+000	 7.6931844334e-001	 2.8749583264e-001
 1.4800147502e+000	 7.8433496617e-001	 1.9480000686e-001
 1.4719899303e+000	 7.9929384144e-001	 1.0341380981e-001
 1.4638017811e+000	 8.1419244995e-001	 1.3329124335e-002
 1.4554508865e+000	 8.2902817608e-001	-7.5463407688e-002
 1.4469378855e+000	 8.4379840921e-001	-1.6297457327e-001
 1.4382634717e+000	 8.5850054514e-001	-2.4921677584e-001
 1.4294283936e+000	 8.7313198750e-001	-3.3420422185e-001
 1.4204334546e+000	 8.8769014918e-001	-4.1795310575e-001
 1.4112795129e+000	 9.0217245375e-001	-5.0048179267e-001
 1.4019674813e+000	 9.1657633690e-001	-5.8181099817e-001
 1.5100828116e+000	 7.8080080817e-001	 2.9309714293e-001
 1.5021045226e+000	 7.9604145821e-001	 1.9720429077e-001
 1.4939599293e+000	 8.1122360028e-001	 1.0324317190e-001
 1.4856495689e+000	 8.2634457607e-001	 1.1194074404e-002
 1.4771740341e+000	 8.4140173095e-001	-7.8964650237e-002
 1.4685339734e+000	 8.5639241532e-001	-1.6725677747e-001
 1.4597300906e+000	 8.7131398611e-001	-2.5370839878e-001
 1.4507631457e+000	 8.8616380821e-001	-3.3834810886e-001
 1.4416339539e+000	 9.0093925588e-001	-4.2120719020e-001
 1.4323433863e+000	 9.1563771425e-001	-5.0231979443e-001
 1.4228923691e+000	 9.3025658074e-001	-5.8172311961e-001
 1.5322899118e+000	 7.9228317300e-001	 3.1552196278e-001
 1.5241942950e+000	 8.0774795024e-001	 2.1557066379e-001
 1.5159299282e+000	 8.2315335911e-001	 1.1816121669e-001
 1.5074973567e+000	 8.3849670220e-001	 2.3262991540e-002
 1.4988971817e+000	 8.5377528582e-001	-6.9157264337e-002
 1.4901300612e+000	 8.6898642143e-001	-1.5913562000e-001
 1.4811967096e+000	 8.8412742709e-001	-2.4671115241e-001
 1.4720978979e+000	 8.9919562892e-001	-3.3192613505e-001
 1.4628344533e+000	 9.1418836259e-001	-4.1482622312e-001
 1.4534072596e+000	 9.2910297476e-001	-4.9546063432e-001
 1.4438172569e+000	 9.4393682457e-001	-5.7388232470e-001
 1.5544970119e+000	 8.0376553783e-001	 3.5360210416e-001
 1.5462840674e+000	 8.1945444228e-001	 2.4875961857e-001
 1.5378999272e+000	 8.3508311794e-001	 1.4705790769e-001
 1.5293451444e+000	 8.5064882832e-001	 4.8456094840e-002
 1.5206203292e+000	 8.6614884069e-001	-4.7089996603e-002
 1.5117261490e+000	 8.8158042754e-001	-1.3962804105e-001
 1.5026633286e+000	 8.9694086807e-001	-2.2920940551e-001
 1.4934326500e+000	 9.1222744964e-001	-3.1588934059e-001
 1.4840349526e+000	 9.2743746930e-001	-3.9972716711e-001
 1.4744711329e+000	 9.4256823526e-001	-4.8078645732e-001
 1.4647421446e+000	 9.5761706841e-001	-5.5913521027e-001
 1.2554932668e+000	 8.2081463007e-001	-2.8932704524e-001
 1.2470134270e+000	 8.3364111751e-001	-3.8636616799e-001
 1.2383937949e+000	 8.4639282171e-001	-4.3557344251e-001
 1.2296353336e+000	 8.5906748650e-001	-4.8541526038e-001
 1.2207390541e+000	 8.7166287168e-001	-5.3590212462e-001
 1.2117060152e+000	 8.8417675429e-001	-5.8704531536e-001
 1.2025373230e+000	 8.9660692987e-001	-6.3885645285e-001
 1.1932341309e+000	 9.0895121369e-001	-6.9134705349e-001
 1.1837976384e+000	 9.2120744201e-001	-7.4452807996e-001
 1.1742290915e+000	 9.3337347334e-001	-7.9840948708e-001
 1.1645297814e+000	 9.4544718961e-001	-8.5299976480e-001
 1.2764181546e+000	 8.3449487390e-001	-3.6922384629e-001
 1.2677969841e+000	 8.4753513614e-001	-4.7505365052e-001
 1.2590336915e+000	 8.6049936873e-001	-5.8823939111e-001
 1.2501292558e+000	 8.7338527793e-001	-7.0855467484e-001
 1.2410847050e+000	 8.8619058620e-001	-7.4451259745e-001
 1.2319011154e+000	 8.9891303353e-001	-7.7907195670e-001
 1.2225796118e+000	 9.1155037870e-001	-8.1361732132e-001
 1.2131213664e+000	 9.2410040058e-001	-8.4825127314e-001
 1.2035275991e+000	 9.3656089938e-001	-8.8307676875e-001
 1.1937995763e+000	 9.4892969790e-001	-9.1819657073e-001
 1.1839386111e+000	 9.6120464277e-001	-9.5371267421e-001
 1.2973430424e+000	 8.4817511773e-001	-4.3474404345e-001
 1.2885805413e+000	 8.6142915476e-001	-5.2511719950e-001
 1.2796735881e+000	 8.7460591576e-001	-6.2215458613e-001
 1.2706231781e+000	 8.8770306937e-001	-7.2568803958e-001
 1.2614303559e+000	 9.0071830073e-001	-8.3554373182e-001
 1.2520962157e+000	 9.1364931276e-001	-9.5154245220e-001
 1.2426219005e+000	 9.2649382753e-001	-9.9385243222e-001
 1.2330086019e+000	 9.3924958748e-001	-1.0135976886e+000
 1.2232575597e+000	 9.5191435675e-001	-1.0330476951e+000
 1.2133700612e+000	 9.6448592246e-001	-1.0523976320e+000
 1.2033474407e+000	 9.7696209593e-001	-1.0718426011e+000
 1.3182679302e+000	 8.6185536157e-001	-4.8692310902e-001
 1.3093640984e+000	 8.7532317338e-001	-5.6489583759e-001
 1.3003134847e+000	 8.8871246279e-001	-6.4885838183e-001
 1.2911171003e+000	 9.0202086081e-001	-7.3869913021e-001
 1.2817760068e+000	 9.1524601526e-001	-8.3430177532e-001
 1.2722913159e+000	 9.2838559200e-001	-9.3554554815e-001
 1.2626641892e+000	 9.4143727636e-001	-1.0423054569e+000
 1.2528958375e+000	 9.5439877437e-001	-1.1544525296e+000
 1.2429875204e+000	 9.6726781412e-001	-1.1931822619e+000
 1.2329405461e+000	 9.8004214701e-001	-1.1995692592e+000
 1.2227562704e+000	 9.9271954909e-001	-1.2057608851e+000
 1.3391928179e+000	 8.7553560540e-001	-5.2676282078e-001
 1.3301476555e+000	 8.8921719201e-001	-5.9525012350e-001
 1.3209533813e+000	 9.0281900981e-001	-6.6906883716e-001
 1.3116110225e+000	 9.1633865225e-001	-7.4816228503e-001
 1.3021216577e+000	 9.2977372978e-001	-8.3247005158e-001
 1.2924864162e+000	 9.4312187124e-001	-9.2192817125e-001
 1.2827064779e+000	 9.5638072519e-001	-1.0164693198e+000
 1.2727830730e+000	 9.6954796126e-001	-1.1160230080e+000
 1.2627174810e+000	 9.8262127148e-001	-1.2205157768e+000
 1.2525110309e+000	 9.9559837157e-001	-1.3298713934e+000
 1.2421651001e+000	 1.0084770023e+000	-1.3539069937e+000
 1.3601177057e+000	 8.8921584923e-001	-5.5523385387e-001
 1.3509312126e+000	 9.0311121063e-001	-6.1701866569e-001
 1.3415932779e+000	 9.1692555684e-001	-6.8349127948e-001
 1.3321049447e+000	 9.3065644369e-001	-7.5464839136e-001
 1.3224673086e+000	 9.4430144431e-001	-8.3048390570e-001
 1.3126815164e+000	 9.5785815047e-001	-9.1098907976e-001
 1.3027487666e+000	 9.7132417402e-001	-9.9615266943e-001
 1.2926703085e+000	 9.8469714816e-001	-1.0859610756e+000
 1.2824474417e+000	 9.9797472885e-001	-1.1803984905e+000
 1.2720815158e+000	 1.0111545961e+000	-1.2794470433e+000
 1.2615739298e+000	 1.0242344554e+000	-1.3830869454e+000
 1.3810425935e+000	 9.0289609307e-001	-5.7327813710e-001
 1.3717147697e+000	 9.1700522925e-001	-6.3101978530e-001
 1.3622331744e+000	 9.3103210387e-001	-6.9281926902e-001
 1.3525988670e+000	 9.4497423513e-001	-7.5872514704e-001
 1.3428129595e+000	 9.5882915883e-001	-8.2878412425e-001
 1.3328766167e+000	 9.7259442971e-001	-9.0304115384e-001
 1.3227910554e+000	 9.8626762285e-001	-9.8153953904e-001
 1.3125575440e+000	 9.9984633505e-001	-1.0643210337e+000
 1.3021774023e+000	 1.0133281862e+000	-1.1514259414e+000
 1.2916520006e+000	 1.0267108207e+000	-1.2428932126e+000
 1.2809827595e+000	 1.0399919086e+000	-1.3387605393e+000
 1.4019674813e+000	 9.1657633690e-001	-5.8181099817e-001
 1.3924983268e+000	 9.3089924788e-001	-6.3805303011e-001
 1.3828730710e+000	 9.4513865090e-001	-6.9773547708e-001
 1.3730927892e+000	 9.5929202657e-001	-7.6095729839e-001
 1.3631586104e+000	 9.7335687336e-001	-8.2781652918e-001
 1.3530717169e+000	 9.8733070895e-001	-8.9841034171e-001
 1.3428333441e+000	 1.0012110717e+000	-9.7283510458e-001
 1.3324447795e+000	 1.0149955219e+000	-1.0511864392e+000
 1.3219073629e+000	 1.0286816436e+000	-1.1335592734e+000
 1.3112224855e+000	 1.0422670452e+000	-1.2200478911e+000
 1.3003915892e+000	 1.0557493617e+000	-1.3107459788e+000
 1.4228923691e+000	 9.3025658074e-001	-5.8172311961e-001
 1.4132818840e+000	 9.4479326650e-001	-6.3890055494e-001
 1.4035129676e+000	 9.5924519792e-001	-6.9891248664e-001
 1.3935867114e+000	 9.7360981801e-001	-7.6190685726e-001
 1.3835042613e+000	 9.8788458789e-001	-8.2803160760e-001
 1.3732668172e+000	 1.0020669882e+000	-8.9743469870e-001
 1.3628756328e+000	 1.0161545205e+000	-9.7026413005e-001
 1.3523320150e+000	 1.0301447088e+000	-1.0466679535e+000
 1.3416373236e+000	 1.0440351009e+000	-1.1267942829e+000
 1.3307929704e+000	 1.0578232698e+000	-1.2107912980e+000
 1.3198004189e+000	 1.0715068149e+000	-1.2988072441e+000
 1.4438172569e+000	 9.4393682457e-001	-5.7388232470e-001
 1.4340654411e+000	 9.5868728513e-001	-6.3432838199e-001
 1.4241528642e+000	 9.7335174495e-001	-6.9701352343e-001
 1.4140806337e+000	 9.8792760946e-001	-7.6213329918e-001
 1.4038499122e+000	 1.0024123024e+000	-8.2988417371e-001
 1.3934619174e+000	 1.0168032674e+000	-9.0046350998e-001
 1.3829179215e+000	 1.0310979693e+000	-9.7406954813e-001
 1.3722192506e+000	 1.0452938957e+000	-1.0509013785e+000
 1.3613672842e+000	 1.0593885583e+000	-1.1311589082e+000
 1.3503634552e+000	 1.0733794943e+000	-1.2150428219e+000
 1.3392092486e+000	 1.0872642681e+000	-1.3027545349e+000
 1.4647421446e+000	 9.5761706841e-001	-5.5913521027e-001
 1.4548489982e+000	 9.7258130376e-001	-6.2508755319e-001
 1.4447927608e+000	 9.8745829198e-001	-6.9269312429e-001
 1.4345745559e+000	 1.0022454009e+000	-7.6219374452e-001
 1.4241955631e+000	 1.0169400169e+000	-8.3383305972e-001
 1.4136570177e+000	 1.0315395467e+000	-9.0785648838e-001
 1.4029602102e+000	 1.0460414182e+000	-9.8451116236e-001
 1.3921064861e+000	 1.0604430826e+000	-1.0640458603e+000
 1.3810972449e+000	 1.0747420157e+000	-1.1467109333e+000
 1.3699339401e+000	 1.0889357189e+000	-1.2327582227e+000
 1.3586180783e+000	 1.1030217212e+000	-1.3224409698e+000
 1.1645297814e+000	 9.4544718961e-001	-8.5299976480e-001
 1.1547010445e+000	 9.5742649739e-001	-9.5392512377e-001
 1.1447442616e+000	 9.6930932910e-001	-1.0477139391e+000
 1.1346608574e+000	 9.8109364418e-001	-1.1346991883e+000
 1.1244522996e+000	 9.9277743021e-001	-1.2152187757e+000
 1.1141200983e+000	 1.0043587041e+000	-1.2896147387e+000
 1.1036658055e+000	 1.0158355131e+000	-1.3582324490e+000
 1.0930910140e+000	 1.0272059361e+000	-1.4214198103e+000
 1.0823973566e+000	 1.0384680844e+000	-1.4795264550e+000
 1.0715865057e+000	 1.0496201031e+000	-1.5329029416e+000
 1.0606601718e+000	 1.0606601718e+000	-1.5818999548e+000
 1.1839386111e+000	 9.6120464277e-001	-9.5371267421e-001
 1.1739460619e+000	 9.7338360568e-001	-1.0504646294e+000
 1.1638233327e+000	 9.8546448459e-001	-1.1405548484e+000
 1.1535718717e+000	 9.9744520492e-001	-1.2243014524e+000
 1.1431931713e+000	 1.0093237207e+000	-1.3020269960e+000
 1.1326887666e+000	 1.0210980158e+000	-1.3740576667e+000
 1.1220602356e+000	 1.0327661050e+000	-1.4407224806e+000
 1.1113091975e+000	 1.0443260351e+000	-1.5023524745e+000
 1.1004373125e+000	 1.0557758859e+000	-1.5592798984e+000
 1.0894462808e+000	 1.0671137715e+000	-1.6118374097e+000
 1.0783378413e+000	 1.0783378413e+000	-1.6603572712e+000
 1.2033474407e+000	 9.7696209593e-001	-1.0718426011e+000
 1.1931910793e+000	 9.8934071397e-001	-1.1617788451e+000
 1.1829024037e+000	 1.0016196401e+000	-1.2455157257e+000
 1.1724828860e+000	 1.0137967657e+000	-1.3233587830e+000
 1.1619340429e+000	 1.0258700112e+000	-1.3956175044e+000
 1.1512574349e+000	 1.0378373276e+000	-1.4626045154e+000
 1.1404546657e+000	 1.0496966969e+000	-1.5246347653e+000
 1.1295273811e+000	 1.0614461340e+000	-1.5820247124e+000
 1.1184772685e+000	 1.0730836873e+000	-1.6350915083e+000
 1.1073060559e+000	 1.0846074399e+000	-1.6841521866e+000
 1.0960155108e+000	 1.0960155108e+000	-1.7295228547e+000
 1.2227562704e+000	 9.9271954909e-001	-1.2057608851e+000
 1.2124360967e+000	 1.0052978223e+000	-1.2863228767e+000
 1.2019814747e+000	 1.0177747956e+000	-1.3611363102e+000
 1.1913939003e+000	 1.0301483264e+000	-1.4304963965e+000
 1.1806749146e+000	 1.0424163017e+000	-1.4947018152e+000
 1.1698261033e+000	 1.0545766393e+000	-1.5540538927e+000
 1.1588490958e+000	 1.0666272888e+000	-1.6088557762e+000
 1.1477455647e+000	 1.0785662329e+000	-1.6594116080e+000
 1.1365172244e+000	 1.0903914887e+000	-1.7060256997e+000
 1.1251658309e+000	 1.1021011083e+000	-1.7490017110e+000
 1.1136931804e+000	 1.1136931804e+000	-1.7886418338e+000
 1.2421651001e+000	 1.0084770023e+000	-1.3539069937e+000
 1.2316811141e+000	 1.0212549306e+000	-1.4226135457e+000
 1.2210605457e+000	 1.0339299511e+000	-1.4860116000e+000
 1.2103049146e+000	 1.0464998871e+000	-1.5443882703e+000
 1.1994157862e+000	 1.0589625922e+000	-1.5980336672e+000
 1.1883947716e+000	 1.0713159510e+000	-1.6472400601e+000
 1.1772435259e+000	 1.0835578807e+000	-1.6923010371e+000
 1.1659637482e+000	 1.0956863319e+000	-1.7335106647e+000
 1.1545571804e+000	 1.1076992901e+000	-1.7711626494e+000
 1.1430256060e+000	 1.1195947767e+000	-1.8055495041e+000
 1.1313708499e+000	 1.1313708499e+000	-1.8369617211e+000
 1.2615739298e+000	 1.0242344554e+000	-1.3830869454e+000
 1.2509261315e+000	 1.0372120388e+000	-1.5585607241e+000
 1.2401396168e+000	 1.0500851065e+000	-1.6187876009e+000
 1.2292159289e+000	 1.0628514479e+000	-1.6637533915e+000
 1.2181566579e+000	 1.0755088827e+000	-1.7044057757e+000
 1.2069634399e+000	 1.0880552628e+000	-1.7410301902e+000
 1.1956379560e+000	 1.1004884726e+000	-1.7739128877e+000
 1.1841819318e+000	 1.1128064308e+000	-1.8033400801e+000
 1.1725971363e+000	 1.1250070915e+000	-1.8295970839e+000
 1.1608853811e+000	 1.1370884451e+000	-1.8529674715e+000
 1.1490485194e+000	 1.1490485194e+000	-1.8737322301e+000
 1.2809827595e+000	 1.0399919086e+000	-1.3387605393e+000
 1.2701711489e+000	 1.0531691471e+000	-1.4956980569e+000
 1.2592186878e+000	 1.0662402620e+000	-1.6525210918e+000
 1.2481269432e+000	 1.0792030086e+000	-1.7873523471e+000
 1.2368975296e+000	 1.0920551733e+000	-1.8126468799e+000
 1.2255321082e+000	 1.1047945745e+000	-1.8343218733e+000
 1.2140323861e+000	 1.1174190645e+000	-1.8526584525e+000
 1.2024001154e+000	 1.1299265297e+000	-1.8679371790e+000
 1.1906370923e+000	 1.1423148929e+000	-1.8804371773e+000
 1.1787451562e+000	 1.1545821135e+000	-1.8904352677e+000
 1.1667261890e+000	 1.1667261890e+000	-1.8982051084e+000
 1.3003915892e+000	 1.0557493617e+000	-1.3107459788e+000
 1.2894161663e+000	 1.0691262554e+000	-1.4472843130e+000
 1.2782977588e+000	 1.0823954175e+000	-1.5841077121e+000
 1.2670379575e+000	 1.0955545694e+000	-1.7209242504e+000
 1.2556384012e+000	 1.1086014638e+000	-1.8574451330e+000
 1.2441007765e+000	 1.1215338863e+000	-1.9260408475e+000
 1.2324268162e+000	 1.1343496563e+000	-1.9275277907e+000
 1.2206182989e+000	 1.1470466287e+000	-1.9263569855e+000
 1.2086770482e+000	 1.1596226943e+000	-1.9228035473e+000
 1.1966049313e+000	 1.1720757818e+000	-1.9171397176e+000
 1.1844038585e+000	 1.1844038585e+000	-1.9096339862e+000
 1.3198004189e+000	 1.0715068149e+000	-1.2988072441e+000
 1.3086611837e+000	 1.0850833637e+000	-1.4131636292e+000
 1.2973768299e+000	 1.0985505730e+000	-1.5281845248e+000
 1.2859489718e+000	 1.1119061301e+000	-1.6435409888e+000
 1.2743792729e+000	 1.1251477543e+000	-1.7589070712e+000
 1.2626694448e+000	 1.1382731980e+000	-1.8739602981e+000
 1.2508212463e+000	 1.1512802482e+000	-1.9883821438e+000
 1.2388364825e+000	 1.1641667276e+000	-1.9776709218e+000
 1.2267170042e+000	 1.1769304957e+000	-1.9558283406e+000
 1.2144647064e+000	 1.1895694502e+000	-1.9322742897e+000
 1.2020815280e+000	 1.2020815280e+000	-1.9072742372e+000
 1.3392092486e+000	 1.0872642681e+000	-1.3027545349e+000
 1.3279062012e+000	 1.1010404720e+000	-1.3932220118e+000
 1.3164559009e+000	 1.1147057285e+000	-1.4847135518e+000
 1.3048599860e+000	 1.1282576908e+000	-1.5768637753e+000
 1.2931201445e+000	 1.1416940448e+000	-1.6693101784e+000
 1.2812381131e+000	 1.1550125097e+000	-1.7616936638e+000
 1.2692156764e+000	 1.1682108401e+000	-1.8536590604e+000
 1.2570546661e+000	 1.1812868266e+000	-1.9448556317e+000
 1.2447569601e+000	 1.1942382971e+000	-1.9786543972e+000
 1.2323244815e+000	 1.2070631186e+000	-1.9350386143e+000
 1.2197591976e+000	 1.2197591976e+000	-1.8903828532e+000
 1.3586180783e+000	 1.1030217212e+000	-1.3224409698e+000
 1.3471512186e+000	 1.1169975803e+000	-1.3873843457e+000
 1.3355349719e+000	 1.1308608840e+000	-1.4536916259e+000
 1.3237710003e+000	 1.1446092516e+000	-1.5209615342e+000
 1.3118610162e+000	 1.1582403353e+000	-1.5887955762e+000
 1.2998067814e+000	 1.1717518215e+000	-1.6567986159e+000
 1.2876101065e+000	 1.1851414320e+000	-1.7245794430e+000
 1.2752728496e+000	 1.1984069255e+000	-1.7917513272e+000
 1.2627969161e+000	 1.2115460986e+000	-1.8579325604e+000
 1.2501842566e+000	 1.2245567870e+000	-1.9227469848e+000
 1.2374368671e+000	 1.2374368671e+000	-1.8582183275e+000
 1.0606601718e+000	 1.0606601718e+000	-1.5818999548e+000
 1.0496201031e+000	 1.0715865057e+000	-1.6325741961e+000
 1.0384680844e+000	 1.0823973566e+000	-1.6822436544e+000
 1.0272059361e+000	 1.0930910140e+000	-1.7312867036e+000
 1.0158355131e+000	 1.1036658055e+000	-1.7800759964e+000
 1.0043587041e+000	 1.1141200983e+000	-1.8289776794e+000
 9.9277743021e-001	 1.1244522996e+000	-1.8783506283e+000
 9.8109364418e-001	 1.1346608574e+000	-1.9285457027e+000
 9.6930932910e-001	 1.1447442616e+000	-1.9799050238e+000
 9.5742649739e-001	 1.1547010445e+000	-2.0327612757e+000
 9.4544718961e-001	 1.1645297814e+000	-2.0874370331e+000
 1.0783378413e+000	 1.0783378413e+000	-1.6603572712e+000
 1.0671137715e+000	 1.0894462808e+000	-1.7124071197e+000
 1.0557758859e+000	 1.1004373125e+000	-1.7629159497e+000
 1.0443260351e+000	 1.1113091975e+000	-1.8122453910e+000
 1.0327661050e+000	 1.1220602356e+000	-1.8607516113e+000
 1.0210980158e+000	 1.1326887666e+000	-1.9087845294e+000
 1.0093237207e+000	 1.1431931713e+000	-1.9566870484e+000
 9.9744520492e-001	 1.1535718717e+000	-2.0047943080e+000
 9.8546448459e-001	 1.1638233327e+000	-2.0534329609e+000
 9.7338360568e-001	 1.1739460619e+000	-2.1029204725e+000
 9.6120464277e-001	 1.1839386111e+000	-2.1535644472e+000
 1.0960155108e+000	 1.0960155108e+000	-1.7295228547e+000
 1.0846074399e+000	 1.1073060559e+000	-1.7803859382e+000
 1.0730836873e+000	 1.1184772685e+000	-1.8292091911e+000
 1.0614461340e+000	 1.1295273811e+000	-1.8763396501e+000
 1.0496966969e+000	 1.1404546657e+000	-1.9221191104e+000
 1.0378373276e+000	 1.1512574349e+000	-1.9668833345e+000
 1.0258700112e+000	 1.1619340429e+000	-2.0109612792e+000
 1.0137967657e+000	 1.1724828860e+000	-2.0546743454e+000
 1.0016196401e+000	 1.1829024037e+000	-2.0983356486e+000
 9.8934071397e-001	 1.1931910793e+000	-2.1422493155e+000
 9.7696209593e-001	 1.2033474407e+000	-2.1867098067e+000
 1.1136931804e+000	 1.1136931804e+000	-1.7886418338e+000
 1.1021011083e+000	 1.1251658309e+000	-1.8358422696e+000
 1.0903914887e+000	 1.1365172244e+000	-1.8805408041e+000
 1.0785662329e+000	 1.1477455647e+000	-1.9230720066e+000
 1.0666272888e+000	 1.1588490958e+000	-1.9637653870e+000
 1.0545766393e+000	 1.1698261033e+000	-2.0029445965e+000
 1.0424163017e+000	 1.1806749146e+000	-2.0409266487e+000
 1.0301483264e+000	 1.1913939003e+000	-2.0780211606e+000
 1.0177747956e+000	 1.2019814747e+000	-2.1145296181e+000
 1.0052978223e+000	 1.2124360967e+000	-2.1507446653e+000
 9.9271954909e-001	 1.2227562704e+000	-2.1869494214e+000
 1.1313708499e+000	 1.1313708499e+000	-1.8369617211e+000
 1.1195947767e+000	 1.1430256060e+000	-1.8781037041e+000
 1.1076992901e+000	 1.1545571804e+000	-1.9163178430e+000
 1.0956863319e+000	 1.1659637482e+000	-1.9519283424e+000
 1.0835578807e+000	 1.1772435259e+000	-1.9852544912e+000
 1.0713159510e+000	 1.1883947716e+000	-2.0166098533e+000
 1.0589625922e+000	 1.1994157862e+000	-2.0463014786e+000
 1.0464998871e+000	 1.2103049146e+000	-2.0746291347e+000
 1.0339299511e+000	 1.2210605457e+000	-2.1018845629e+000
 1.0212549306e+000	 1.2316811141e+000	-2.1283507596e+000
 1.0084770023e+000	 1.2421651001e+000	-2.1543012845e+000
 1.1490485194e+000	 1.1490485194e+000	-1.8737322301e+000
 1.1370884451e+000	 1.1608853811e+000	-1.9064941140e+000
 1.1250070915e+000	 1.1725971363e+000	-1.9359377882e+000
 1.1128064308e+000	 1.1841819318e+000	-1.9623791753e+000
 1.1004884726e+000	 1.1956379560e+000	-1.9861293879e+000
 1.0880552628e+000	 1.2069634399e+000	-2.0074939065e+000
 1.0755088827e+000	 1.2181566579e+000	-2.0267717779e+000
 1.0628514479e+000	 1.2292159289e+000	-2.0442548352e+000
 1.0500851065e+000	 1.2401396168e+000	-2.0602269417e+000
 1.0372120388e+000	 1.2509261315e+000	-2.0808890490e+000
 1.0242344554e+000	 1.2615739298e+000	-2.1604010073e+000
 1.1667261890e+000	 1.1667261890e+000	-1.8982051084e+000
 1.1545821135e+000	 1.1787451562e+000	-1.9203339357e+000
 1.1423148929e+000	 1.1906370923e+000	-1.9387892718e+000
 1.1299265297e+000	 1.2024001154e+000	-1.9538808232e+000
 1.1174190645e+000	 1.2140323861e+000	-1.9659135534e+000
 1.1047945745e+000	 1.2255321082e+000	-1.9751868467e+000
 1.0920551733e+000	 1.2368975296e+000	-1.9819936904e+000
 1.0792030086e+000	 1.2481269432e+000	-1.9866198809e+000
 1.0662402620e+000	 1.2592186878e+000	-2.0510568456e+000
 1.0531691471e+000	 1.2701711489e+000	-2.1214511322e+000
 1.0399919086e+000	 1.2809827595e+000	-2.1848018091e+000
 1.1844038585e+000	 1.1844038585e+000	-1.9096339862e+000
 1.1720757818e+000	 1.1966049313e+000	-1.9189404256e+000
 1.1596226943e+000	 1.2086770482e+000	-1.9242527380e+000
 1.1470466287e+000	 1.2206182989e+000	-1.9258764637e+000
 1.1343496563e+000	 1.2324268162e+000	-1.9241124305e+000
 1.1215338863e+000	 1.2441007765e+000	-1.9192558980e+000
 1.1086014638e+000	 1.2556384012e+000	-1.9521499327e+000
 1.0955545694e+000	 1.2670379575e+000	-2.0209511604e+000
 1.0823954175e+000	 1.2782977588e+000	-2.0821141378e+000
 1.0691262554e+000	 1.2894161663e+000	-2.1354890137e+000
 1.0557493617e+000	 1.3003915892e+000	-2.1809357708e+000
 1.2020815280e+000	 1.2020815280e+000	-1.9072742372e+000
 1.1895694502e+000	 1.2144647064e+000	-1.9016278943e+000
 1.1769304957e+000	 1.2267170042e+000	-1.8917010447e+000
 1.1641667276e+000	 1.2388364825e+000	-1.8777971007e+000
 1.1512802482e+000	 1.2508212463e+000	-1.8665212483e+000
 1.1382731980e+000	 1.2626694448e+000	-1.9346218579e+000
 1.1251477543e+000	 1.2743792729e+000	-1.9946472202e+000
 1.1119061301e+000	 1.2859489718e+000	-2.0464002240e+000
 1.0985505730e+000	 1.2973768299e+000	-2.0896946236e+000
 1.0850833637e+000	 1.3086611837e+000	-2.1243551220e+000
 1.0715068149e+000	 1.3198004189e+000	-2.1502174306e+000
 1.2197591976e+000	 1.2197591976e+000	-1.8903828532e+000
 1.2070631186e+000	 1.2323244815e+000	-1.8677079200e+000
 1.1942382971e+000	 1.2447569601e+000	-1.8405000137e+000
 1.1812868266e+000	 1.2570546661e+000	-1.8656653364e+000
 1.1682108401e+000	 1.2692156764e+000	-1.9251952373e+000
 1.1550125097e+000	 1.2812381131e+000	-1.9761290417e+000
 1.1416940448e+000	 1.2931201445e+000	-2.0182309551e+000
 1.1282576908e+000	 1.3048599860e+000	-2.0512770509e+000
 1.1147057285e+000	 1.3164559009e+000	-2.0750554018e+000
 1.1010404720e+000	 1.3279062012e+000	-2.0893661853e+000
 1.0872642681e+000	 1.3392092486e+000	-2.0940217633e+000
 1.2374368671e+000	 1.2374368671e+000	-1.8582183275e+000
 1.2245567870e+000	 1.2501842566e+000	-1.8180547350e+000
 1.2115460986e+000	 1.2627969161e+000	-1.8773175378e+000
 1.1984069255e+000	 1.2752728496e+000	-1.9278266660e+000
 1.1851414320e+000	 1.2876101065e+000	-1.9692938907e+000
 1.1717518215e+000	 1.2998067814e+000	-2.0014435735e+000
 1.1582403353e+000	 1.3118610162e+000	-2.0240128770e+000
 1.1446092516e+000	 1.3237710003e+000	-2.0367519464e+000
 1.1308608840e+000	 1.3355349719e+000	-2.0394240652e+000
 1.1169975803e+000	 1.3471512186e+000	-2.0318057812e+000
 1.1030217212e+000	 1.3586180783e+000	-2.0136870059e+000
 9.4544718961e-001	 1.1645297814e+000	-2.0874370331e+000
 9.3337347334e-001	 1.1742290915e+000	-2.0901542695e+000
 9.2120744201e-001	 1.1837976384e+000	-2.0903509028e+000
 9.0895121369e-001	 1.1932341309e+000	-2.0880846110e+000
 8.9660692987e-001	 1.2025373230e+000	-2.0834061503e+000
 8.8417675429e-001	 1.2117060152e+000	-2.0763590546e+000
 8.7166287168e-001	 1.2207390541e+000	-2.0669793594e+000
 8.5906748650e-001	 1.2296353336e+000	-2.0552953526e+000
 8.4639282171e-001	 1.2383937949e+000	-2.0413273502e+000
 8.3364111751e-001	 1.2470134270e+000	-2.0250874997e+000
 8.2081463007e-001	 1.2554932668e+000	-2.0278740900e+000
 9.6120464277e-001	 1.1839386111e+000	-2.1535644472e+000
 9.4892969790e-001	 1.1937995763e+000	-2.1415058680e+000
 9.3656089938e-001	 1.2035275991e+000	-2.1277422351e+000
 9.2410040058e-001	 1.2131213664e+000	-2.1124054589e+000
 9.1155037870e-001	 1.2225796118e+000	-2.0956189869e+000
 8.9891303353e-001	 1.2319011154e+000	-2.0774974195e+000
 8.8619058620e-001	 1.2410847050e+000	-2.0581461534e+000
 8.7338527793e-001	 1.2501292558e+000	-2.0382495515e+000
 8.6049936873e-001	 1.2590336915e+000	-2.0548949069e+000
 8.4753513614e-001	 1.2677969841e+000	-2.0651723801e+000
 8.3449487390e-001	 1.2764181546e+000	-2.0690151192e+000
 9.7696209593e-001	 1.2033474407e+000	-2.1867098067e+000
 9.6448592246e-001	 1.2133700612e+000	-2.1625424109e+000
 9.5191435675e-001	 1.2232575597e+000	-2.1374920880e+000
 9.3924958748e-001	 1.2330086019e+000	-2.1117644678e+000
 9.2649382753e-001	 1.2426219005e+000	-2.0855551543e+000
 9.1364931276e-001	 1.2520962157e+000	-2.0695061386e+000
 9.0071830073e-001	 1.2614303559e+000	-2.0865648233e+000
 8.8770306937e-001	 1.2706231781e+000	-2.0981199988e+000
 8.7460591576e-001	 1.2796735881e+000	-2.1041498515e+000
 8.6142915476e-001	 1.2885805413e+000	-2.1046376133e+000
 8.4817511773e-001	 1.2973430424e+000	-2.0995714253e+000
 9.9271954909e-001	 1.2227562704e+000	-2.1869494214e+000
 9.8004214701e-001	 1.2329405461e+000	-2.1531919193e+000
 9.6726781412e-001	 1.2429875204e+000	-2.1193816633e+000
 9.5439877437e-001	 1.2528958375e+000	-2.1015674388e+000
 9.4143727636e-001	 1.2626641892e+000	-2.1186451502e+000
 9.2838559200e-001	 1.2722913159e+000	-2.1308503471e+000
 9.1524601526e-001	 1.2817760068e+000	-2.1382078692e+000
 9.0202086081e-001	 1.2911171003e+000	-2.1407472111e+000
 8.8871246279e-001	 1.3003134847e+000	-2.1385023444e+000
 8.7532317338e-001	 1.3093640984e+000	-2.1315115308e+000
 8.6185536157e-001	 1.3182679302e+000	-2.1198171257e+000
 1.0084770023e+000	 1.2421651001e+000	-2.1543012845e+000
 9.9559837157e-001	 1.2525110309e+000	-2.1281929907e+000
 9.8262127148e-001	 1.2627174810e+000	-2.1455666373e+000
 9.6954796126e-001	 1.2727830730e+000	-2.1584647381e+000
 9.5638072519e-001	 1.2827064779e+000	-2.1669596283e+000
 9.4312187124e-001	 1.2924864162e+000	-2.1711281438e+000
 9.2977372978e-001	 1.3021216577e+000	-2.1710514017e+000
 9.1633865225e-001	 1.3116110225e+000	-2.1668145703e+000
 9.0281900981e-001	 1.3209533813e+000	-2.1585066299e+000
 8.8921719201e-001	 1.3301476555e+000	-2.1462201252e+000
 8.7553560540e-001	 1.3391928179e+000	-2.1300509089e+000
 1.0242344554e+000	 1.2615739298e+000	-2.1604010073e+000
 1.0111545961e+000	 1.2720815158e+000	-2.1747041229e+000
 9.9797472885e-001	 1.2824474417e+000	-2.1848158507e+000
 9.8469714816e-001	 1.2926703085e+000	-2.1908606670e+000
 9.7132417402e-001	 1.3027487666e+000	-2.1929673717e+000
 9.5785815047e-001	 1.3126815164e+000	-2.1912688162e+000
 9.4430144431e-001	 1.3224673086e+000	-2.1859016203e+000
 9.3065644369e-001	 1.3321049447e+000	-2.1770058806e+000
 9.1692555684e-001	 1.3415932779e+000	-2.1647248693e+000
 9.0311121063e-001	 1.3509312126e+000	-2.1492047265e+000
 8.8921584923e-001	 1.3601177057e+000	-2.1305941445e+000
 1.0399919086e+000	 1.2809827595e+000	-2.1848018091e+000
 1.0267108207e+000	 1.2916520006e+000	-2.1936376891e+000
 1.0133281862e+000	 1.3021774023e+000	-2.1986117712e+000
 9.9984633505e-001	 1.3125575440e+000	-2.1999045829e+000
 9.8626762285e-001	 1.3227910554e+000	-2.1977006167e+000
 9.7259442971e-001	 1.3328766167e+000	-2.1921879945e+000
 9.5882915883e-001	 1.3428129595e+000	-2.1835581223e+000
 9.4497423513e-001	 1.3525988670e+000	-2.1720053363e+000
 9.3103210387e-001	 1.3622331744e+000	-2.1577265411e+000
 9.1700522925e-001	 1.3717147697e+000	-2.1409208409e+000
 9.0289609307e-001	 1.3810425935e+000	-2.1217891650e+000
 1.0557493617e+000	 1.3003915892e+000	-2.1809357708e+000
 1.0422670452e+000	 1.3112224855e+000	-2.1863393349e+000
 1.0286816436e+000	 1.3219073629e+000	-2.1881887957e+000
 1.0149955219e+000	 1.3324447795e+000	-2.1867199875e+000
 1.0012110717e+000	 1.3428333441e+000	-2.1821723782e+000
 9.8733070895e-001	 1.3530717169e+000	-2.1747886706e+000
 9.7335687336e-001	 1.3631586104e+000	-2.1648143950e+000
 9.5929202657e-001	 1.3730927892e+000	-2.1524974931e+000
 9.4513865090e-001	 1.3828730710e+000	-2.1380878954e+000
 9.3089924788e-001	 1.3924983268e+000	-2.1218370926e+000
 9.1657633690e-001	 1.4019674813e+000	-2.1039977012e+000
 1.0715068149e+000	 1.3198004189e+000	-2.1502174306e+000
 1.0578232698e+000	 1.3307929704e+000	-2.1541183252e+000
 1.0440351009e+000	 1.3416373236e+000	-2.1547511742e+000
 1.0301447088e+000	 1.3523320150e+000	-2.1524064275e+000
 1.0161545205e+000	 1.3628756328e+000	-2.1473778633e+000
 1.0020669882e+000	 1.3732668172e+000	-2.1399621279e+000
 9.8788458789e-001	 1.3835042613e+000	-2.1304582656e+000
 9.7360981801e-001	 1.3935867114e+000	-2.1191672409e+000
 9.5924519792e-001	 1.4035129676e+000	-2.1063914555e+000
 9.4479326650e-001	 1.4132818840e+000	-2.0924342591e+000
 9.3025658074e-001	 1.4228923691e+000	-2.0775994560e+000
 1.0872642681e+000	 1.3392092486e+000	-2.0940217633e+000
 1.0733794943e+000	 1.3503634552e+000	-2.0982501799e+000
 1.0593885583e+000	 1.3613672842e+000	-2.0994751945e+000
 1.0452938957e+000	 1.3722192506e+000	-2.0980412303e+000
 1.0310979693e+000	 1.3829179215e+000	-2.0942957614e+000
 1.0168032674e+000	 1.3934619174e+000	-2.0885887891e+000
 1.0024123024e+000	 1.4038499122e+000	-2.0812723107e+000
 9.8792760946e-001	 1.4140806337e+000	-2.0726997801e+000
 9.7335174495e-001	 1.4241528642e+000	-2.0632255636e+000
 9.5868728513e-001	 1.4340654411e+000	-2.0532043907e+000
 9.4393682457e-001	 1.4438172569e+000	-2.0429908019e+000
 1.1030217212e+000	 1.3586180783e+000	-2.0136870059e+000
 1.0889357189e+000	 1.3699339401e+000	-2.0199790847e+000
 1.0747420157e+000	 1.3810972449e+000	-2.0235111793e+000
 1.0604430826e+000	 1.3921064861e+000	-2.0246810919e+000
 1.0460414182e+000	 1.4029602102e+000	-2.0238894244e+000
 1.0315395467e+000	 1.4136570177e+000	-2.0215389924e+000
 1.0169400169e+000	 1.4241955631e+000	-2.0180342321e+000
 1.0022454009e+000	 1.4345745559e+000	-2.0137805993e+000
 9.8745829198e-001	 1.4447927608e+000	-2.0091839650e+000
 9.7258130376e-001	 1.4548489982e+000	-2.0046500053e+000
 9.5761706841e-001	 1.4647421446e+000	-2.0005835907e+000
 8.2081463007e-001	 1.2554932668e+000	-2.0278740900e+000
 8.0791563023e-001	 1.2638323996e+000	-2.0400773252e+000
 7.9494640225e-001	 1.2720299594e+000	-2.0502680499e+000
 7.8190924254e-001	 1.2800851286e+000	-2.0584245187e+000
 7.6880645833e-001	 1.2879971388e+000	-2.0645254084e+000
 7.5564036645e-001	 1.2957652706e+000	-2.0685497118e+000
 7.4241329201e-001	 1.3033888536e+000	-2.0704766323e+000
 7.2912756712e-001	 1.3108672667e+000	-2.0702854751e+000
 7.1578552965e-001	 1.3181999376e+000	-2.0679555394e+000
 7.0238952194e-001	 1.3253863434e+000	-2.0634660090e+000
 6.8894188956e-001	 1.3324260102e+000	-2.0567958436e+000
 8.3449487390e-001	 1.2764181546e+000	-2.0690151192e+000
 8.2138089073e-001	 1.2848962730e+000	-2.0751160139e+000
 8.0819550895e-001	 1.2932304587e+000	-2.0787379809e+000
 7.9494106324e-001	 1.3014198807e+000	-2.0798926018e+000
 7.8161989930e-001	 1.3094637578e+000	-2.0785922768e+000
 7.6823437256e-001	 1.3173613584e+000	-2.0748500739e+000
 7.5478684687e-001	 1.3251120012e+000	-2.0686795768e+000
 7.4127969323e-001	 1.3327150544e+000	-2.0600947311e+000
 7.2771528847e-001	 1.3401699365e+000	-2.0491096896e+000
 7.1409601397e-001	 1.3474761158e+000	-2.0357386573e+000
 7.0042425438e-001	 1.3546331104e+000	-2.0199957371e+000
 8.4817511773e-001	 1.2973430424e+000	-2.0995714253e+000
 8.3484615123e-001	 1.3059601463e+000	-2.1005843876e+000
 8.2144461565e-001	 1.3144309580e+000	-2.0986680568e+000
 8.0797288395e-001	 1.3227546328e+000	-2.0938670489e+000
 7.9443334027e-001	 1.3309303768e+000	-2.0862271936e+000
 7.8082837866e-001	 1.3389574463e+000	-2.0757953385e+000
 7.6716040174e-001	 1.3468351487e+000	-2.0626191510e+000
 7.5343181935e-001	 1.3545628422e+000	-2.0467469183e+000
 7.3964504730e-001	 1.3621399355e+000	-2.0282273470e+000
 7.2580250600e-001	 1.3695658882e+000	-2.0071093621e+000
 7.1190661921e-001	 1.3768402106e+000	-1.9834419063e+000
 8.6185536157e-001	 1.3182679302e+000	-2.1198171257e+000
 8.4831141173e-001	 1.3270240196e+000	-2.1166876056e+000
 8.3469372236e-001	 1.3356314573e+000	-2.1101933014e+000
 8.2100470466e-001	 1.3440893850e+000	-2.1004116116e+000
 8.0724678124e-001	 1.3523969957e+000	-2.0874215434e+000
 7.9342238477e-001	 1.3605535341e+000	-2.0713034709e+000
 7.7953395660e-001	 1.3685582963e+000	-2.0521388911e+000
 7.6558394547e-001	 1.3764106300e+000	-2.0300101781e+000
 7.5157480613e-001	 1.3841099345e+000	-2.0050003359e+000
 7.3750899804e-001	 1.3916556606e+000	-1.9771927519e+000
 7.2338898403e-001	 1.3990473107e+000	-1.9466709503e+000
 8.7553560540e-001	 1.3391928179e+000	-2.1300509089e+000
 8.6177667223e-001	 1.3480878930e+000	-2.1236591910e+000
 8.4794282906e-001	 1.3568319566e+000	-2.1134809496e+000
 8.3403652537e-001	 1.3654241371e+000	-2.0996261534e+000
 8.2006022222e-001	 1.3738636147e+000	-2.0822067747e+000
 8.0601639088e-001	 1.3821496220e+000	-2.0613365015e+000
 7.9190751147e-001	 1.3902814439e+000	-2.0371304471e+000
 7.7773607159e-001	 1.3982584178e+000	-2.0097048584e+000
 7.6350456496e-001	 1.4060799334e+000	-1.9791768228e+000
 7.4921549007e-001	 1.4137454330e+000	-1.9456639746e+000
 7.3487134886e-001	 1.4212544109e+000	-1.9092842030e+000
 8.8921584923e-001	 1.3601177057e+000	-2.1305941445e+000
 8.7524193274e-001	 1.3691517663e+000	-2.1217588486e+000
 8.6119193577e-001	 1.3780324560e+000	-2.1087279695e+000
 8.4706834608e-001	 1.3867588893e+000	-2.0916438718e+000
 8.3287366319e-001	 1.3953302337e+000	-2.0706513182e+000
 8.1861039699e-001	 1.4037457098e+000	-2.0458971360e+000
 8.0428106634e-001	 1.4120045914e+000	-2.0175298807e+000
 7.8988819771e-001	 1.4201062055e+000	-1.9856994977e+000
 7.7543432378e-001	 1.4280499324e+000	-1.9505569827e+000
 7.6092198210e-001	 1.4358352054e+000	-1.9122540421e+000
 7.4635371369e-001	 1.4434615111e+000	-1.8709427538e+000
 9.0289609307e-001	 1.3810425935e+000	-2.1217891650e+000
 8.8870719324e-001	 1.3902156396e+000	-2.1112704812e+000
 8.7444104247e-001	 1.3992329553e+000	-2.0961588103e+000
 8.6010016679e-001	 1.4080936414e+000	-2.0766287733e+000
 8.4568710416e-001	 1.4167968527e+000	-2.0528577849e+000
 8.3120440310e-001	 1.4253417977e+000	-2.0250256741e+000
 8.1665462121e-001	 1.4337277390e+000	-1.9933143016e+000
 8.0204032383e-001	 1.4419539933e+000	-1.9579071742e+000
 7.8736408261e-001	 1.4500199313e+000	-1.9189890594e+000
 7.7262847414e-001	 1.4579249778e+000	-1.8767455981e+000
 7.5783607852e-001	 1.4656686112e+000	-1.8313629202e+000
 9.1657633690e-001	 1.4019674813e+000	-2.1039977012e+000
 9.0217245375e-001	 1.4112795129e+000	-2.0925003842e+000
 8.8769014918e-001	 1.4204334546e+000	-2.0760233511e+000
 8.7313198750e-001	 1.4294283936e+000	-2.0547733738e+000
 8.5850054514e-001	 1.4382634717e+000	-2.0289604153e+000
 8.4379840921e-001	 1.4469378855e+000	-1.9987972040e+000
 8.2902817608e-001	 1.4554508865e+000	-1.9644988037e+000
 8.1419244995e-001	 1.4638017811e+000	-1.9262821820e+000
 7.9929384144e-001	 1.4719899303e+000	-1.8843657773e+000
 7.8433496617e-001	 1.4800147502e+000	-1.8389690653e+000
 7.6931844334e-001	 1.4878757114e+000	-1.7903121268e+000
 9.3025658074e-001	 1.4228923691e+000	-2.0775994560e+000
 9.1563771425e-001	 1.4323433863e+000	-2.0657755988e+000
 9.0093925588e-001	 1.4416339539e+000	-2.0485950309e+000
 8.8616380821e-001	 1.4507631457e+000	-2.0262966024e+000
 8.7131398611e-001	 1.4597300906e+000	-1.9991227541e+000
 8.5639241532e-001	 1.4685339734e+000	-1.9673190443e+000
 8.4140173095e-001	 1.4771740341e+000	-1.9311336725e+000
 8.2634457607e-001	 1.4856495689e+000	-1.8908170005e+000
 8.1122360028e-001	 1.4939599293e+000	-1.8466210719e+000
 7.9604145821e-001	 1.5021045226e+000	-1.7987991317e+000
 7.8080080817e-001	 1.5100828116e+000	-1.7476051470e+000
 9.4393682457e-001	 1.4438172569e+000	-2.0429908019e+000
 9.2910297476e-001	 1.4534072596e+000	-2.0314424090e+000
 9.1418836259e-001	 1.4628344533e+000	-2.0141691419e+000
 8.9919562892e-001	 1.4720978979e+000	-1.9914418879e+000
 8.8412742709e-001	 1.4811967096e+000	-1.9635355262e+000
 8.6898642143e-001	 1.4901300612e+000	-1.9307284084e+000
 8.5377528582e-001	 1.4988971817e+000	-1.8933018346e+000
 8.3849670220e-001	 1.5074973567e+000	-1.8515395273e+000
 8.2315335911e-001	 1.5159299282e+000	-1.8057271028e+000
 8.0774795024e-001	 1.5241942950e+000	-1.7561515437e+000
 7.9228317300e-001	 1.5322899118e+000	-1.7031006721e+000
 9.5761706841e-001	 1.4647421446e+000	-2.0005835907e+000
 9.4256823526e-001	 1.4744711329e+000	-1.9898649666e+000
 9.2743746930e-001	 1.4840349526e+000	-1.9730612682e+000
 9.1222744964e-001	 1.4934326500e+000	-1.9504754081e+000
 8.9694086807e-001	 1.5026633286e+000	-1.9224146955e+000
 8.8158042754e-001	 1.5117261490e+000	-1.8891902694e+000
 8.6614884069e-001	 1.5206203292e+000	-1.8511165267e+000
 8.5064882832e-001	 1.5293451444e+000	-1.8085105484e+000
 8.3508311794e-001	 1.5378999272e+000	-1.7616915234e+000
 8.1945444228e-001	 1.5462840674e+000	-1.7109801726e+000
 8.0376553783e-001	 1.5544970119e+000	-1.6566981745e+000
 6.8894188956e-001	 1.3324260102e+000	-2.0567958436e+000
 6.7544498003e-001	 1.3393185129e+000	-2.0789193013e+000
 6.6190114160e-001	 1.3460634750e+000	-2.1005260460e+000
 6.4831272205e-001	 1.3526605688e+000	-2.1215297983e+000
 6.3468206740e-001	 1.3591095148e+000	-2.1418427258e+000
 6.2101152078e-001	 1.3654100816e+000	-2.1291443184e+000
 6.0730342120e-001	 1.3715620856e+000	-2.0319471248e+000
 5.9356010237e-001	 1.3775653904e+000	-1.9256831414e+000
 5.7978389160e-001	 1.3834199070e+000	-1.8103437437e+000
 5.6597710858e-001	 1.3891255928e+000	-1.6859160356e+000
 5.5214206433e-001	 1.3946824516e+000	-1.5523835896e+000
 7.0042425438e-001	 1.3546331104e+000	-2.0199957371e+000
 6.8670239636e-001	 1.3616404881e+000	-2.0303416875e+000
 6.7293282730e-001	 1.3684978662e+000	-2.0401148405e+000
 6.5911793409e-001	 1.3752049116e+000	-2.0492670903e+000
 6.4526010186e-001	 1.3817613401e+000	-2.0577486150e+000
 6.3136171280e-001	 1.3881669163e+000	-2.0655078043e+000
 6.1742514488e-001	 1.3944214536e+000	-2.0036415788e+000
 6.0345277075e-001	 1.4005248136e+000	-1.8767356324e+000
 5.8944695646e-001	 1.4064769054e+000	-1.7408182258e+000
 5.7541006039e-001	 1.4122776860e+000	-1.5958899866e+000
 5.6134443207e-001	 1.4179271591e+000	-1.4419472496e+000
 7.1190661921e-001	 1.3768402106e+000	-1.9834419063e+000
 6.9795981269e-001	 1.3839624633e+000	-1.9833689963e+000
 6.8396451299e-001	 1.3909322575e+000	-1.9826780126e+000
 6.6992314612e-001	 1.3977492544e+000	-1.9813586360e+000
 6.5583813632e-001	 1.4044131653e+000	-1.9793986681e+000
 6.4171190481e-001	 1.4109237510e+000	-1.9767839139e+000
 6.2754686857e-001	 1.4172808217e+000	-1.9734980678e+000
 6.1334543912e-001	 1.4234842367e+000	-1.8531533889e+000
 5.9911002132e-001	 1.4295339039e+000	-1.6991718252e+000
 5.8484301220e-001	 1.4354297792e+000	-1.5362887182e+000
 5.7054679981e-001	 1.4411718666e+000	-1.3645107577e+000
 7.2338898403e-001	 1.3990473107e+000	-1.9466709503e+000
 7.0921722903e-001	 1.4062844385e+000	-1.9374496244e+000
 6.9499619869e-001	 1.4133666487e+000	-1.9275751200e+000
 6.8072835815e-001	 1.4202935972e+000	-1.9170745660e+000
 6.6641617078e-001	 1.4270649905e+000	-1.9059730499e+000
 6.5206209682e-001	 1.4336805857e+000	-1.8942934541e+000
 6.3766859226e-001	 1.4401401898e+000	-1.8820562975e+000
 6.2323810749e-001	 1.4464436599e+000	-1.8507863533e+000
 6.0877308618e-001	 1.4525909023e+000	-1.6812265901e+000
 5.9427596401e-001	 1.4585818724e+000	-1.5029072314e+000
 5.7974916755e-001	 1.4644165742e+000	-1.3158429039e+000
 7.3487134886e-001	 1.4212544109e+000	-1.9092842030e+000
 7.2047464536e-001	 1.4286064137e+000	-1.8921015422e+000
 7.0602788438e-001	 1.4358010400e+000	-1.8742401599e+000
 6.9153357019e-001	 1.4428379400e+000	-1.8557643422e+000
 6.7699420523e-001	 1.4497168158e+000	-1.8367361707e+000
 6.6241228884e-001	 1.4564374204e+000	-1.8172153144e+000
 6.4779031595e-001	 1.4629995579e+000	-1.7972588258e+000
 6.3313077587e-001	 1.4694030831e+000	-1.7769209453e+000
 6.1843615104e-001	 1.4756479008e+000	-1.6829086545e+000
 6.0370891582e-001	 1.4817339656e+000	-1.4916496066e+000
 5.8895153529e-001	 1.4876612817e+000	-1.2918265598e+000
 7.4635371369e-001	 1.4434615111e+000	-1.8709427538e+000
 7.3173206170e-001	 1.4509283889e+000	-1.8469069413e+000
 7.1705957007e-001	 1.4582354312e+000	-1.8221758433e+000
 7.0233878223e-001	 1.4653822828e+000	-1.7968506551e+000
 6.8757223969e-001	 1.4723686410e+000	-1.7710302061e+000
 6.7276248085e-001	 1.4791942551e+000	-1.7448107049e+000
 6.5791203963e-001	 1.4858589260e+000	-1.7182854914e+000
 6.4302344424e-001	 1.4923625062e+000	-1.6915447960e+000
 6.2809921590e-001	 1.4987048992e+000	-1.6646755073e+000
 6.1314186763e-001	 1.5048860588e+000	-1.4985206127e+000
 5.9815390303e-001	 1.5109059892e+000	-1.2884499035e+000
 7.5783607852e-001	 1.4656686112e+000	-1.8313629202e+000
 7.4298947803e-001	 1.4732503641e+000	-1.8015073702e+000
 7.2809125577e-001	 1.4806698225e+000	-1.7709483888e+000
 7.1314399426e-001	 1.4879266257e+000	-1.7398238764e+000
 6.9815027415e-001	 1.4950204663e+000	-1.7082692054e+000
 6.8311267287e-001	 1.5019510898e+000	-1.6764169200e+000
 6.6803376332e-001	 1.5087182941e+000	-1.6443964429e+000
 6.5291611261e-001	 1.5153219294e+000	-1.6123337907e+000
 6.3776228076e-001	 1.5217618977e+000	-1.5803512975e+000
 6.2257481944e-001	 1.5280381520e+000	-1.5196180791e+000
 6.0735627077e-001	 1.5341506967e+000	-1.3017984416e+000
 7.6931844334e-001	 1.4878757114e+000	-1.7903121268e+000
 7.5424689437e-001	 1.4955723393e+000	-1.7555993036e+000
 7.3912294146e-001	 1.5031042137e+000	-1.7201827839e+000
 7.2394920630e-001	 1.5104709685e+000	-1.6842370083e+000
 7.0872830861e-001	 1.5176722915e+000	-1.6479337285e+000
 6.9346286488e-001	 1.5247079245e+000	-1.6114416604e+000
 6.7815548701e-001	 1.5315776622e+000	-1.5749261460e+000
 6.6280878099e-001	 1.5382813526e+000	-1.5385488241e+000
 6.4742534562e-001	 1.5448188961e+000	-1.5024673102e+000
 6.3200777125e-001	 1.5511902453e+000	-1.4668348885e+000
 6.1655863851e-001	 1.5573954043e+000	-1.3280477460e+000
 7.8080080817e-001	 1.5100828116e+000	-1.7476051470e+000
 7.6550431070e-001	 1.5178943146e+000	-1.7089301046e+000
 7.5015462716e-001	 1.5255386050e+000	-1.6695584631e+000
 7.3475441833e-001	 1.5330153113e+000	-1.6297010779e+000
 7.1930634307e-001	 1.5403241168e+000	-1.5895659546e+000
 7.0381305690e-001	 1.5474647592e+000	-1.5493578560e+000
 6.8827721070e-001	 1.5544370303e+000	-1.5092779185e+000
 6.7270144936e-001	 1.5612407758e+000	-1.4695232777e+000
 6.5708841048e-001	 1.5678758946e+000	-1.4302867053e+000
 6.4144072306e-001	 1.5743423385e+000	-1.3917562570e+000
 6.2576100625e-001	 1.5806401118e+000	-1.3541149338e+000
 7.9228317300e-001	 1.5322899118e+000	-1.7031006721e+000
 7.7676172704e-001	 1.5402162898e+000	-1.6612943366e+000
 7.6118631286e-001	 1.5479729962e+000	-1.6188053631e+000
 7.4555963037e-001	 1.5555596541e+000	-1.5758809329e+000
 7.2988437753e-001	 1.5629759420e+000	-1.5327652177e+000
 7.1416324891e-001	 1.5702215939e+000	-1.4896989395e+000
 6.9839893439e-001	 1.5772963984e+000	-1.4469189412e+000
 6.8259411774e-001	 1.5842001989e+000	-1.4046577674e+000
 6.6675147534e-001	 1.5909328930e+000	-1.3631432570e+000
 6.5087367487e-001	 1.5974944317e+000	-1.3225981482e+000
 6.3496337399e-001	 1.6038848193e+000	-1.2832396974e+000
 8.0376553783e-001	 1.5544970119e+000	-1.6566981745e+000
 7.8801914338e-001	 1.5625382650e+000	-1.6125303922e+000
 7.7221799855e-001	 1.5704073875e+000	-1.5677003150e+000
 7.5636484241e-001	 1.5781039969e+000	-1.5224913971e+000
 7.4046241198e-001	 1.5856277673e+000	-1.4771839237e+000
 7.2451344093e-001	 1.5929784285e+000	-1.4320545243e+000
 7.0852065808e-001	 1.6001557665e+000	-1.3873756963e+000
 6.9248678611e-001	 1.6071596221e+000	-1.3434153406e+000
 6.7641454021e-001	 1.6139898915e+000	-1.3004363103e+000
 6.6030662669e-001	 1.6206465249e+000	-1.2586959718e+000
 6.4416574173e-001	 1.6271295268e+000	-1.2184457820e+000
 5.5214206433e-001	 1.3946824516e+000	-1.5523835896e+000
 5.3828106007e-001	 1.4000905329e+000	-1.5969798801e+000
 5.2439638615e-001	 1.4053499316e+000	-1.6299929174e+000
 5.1049032095e-001	 1.4104607872e+000	-1.6517335528e+000
 4.9656512994e-001	 1.4154232836e+000	-1.6625099342e+000
 4.8262306456e-001	 1.4202376483e+000	-1.6626279072e+000
 4.6866636131e-001	 1.4249041518e+000	-1.6523914152e+000
 4.5469724075e-001	 1.4294231071e+000	-1.6321028954e+000
 4.4071790656e-001	 1.4337948692e+000	-1.6020636702e+000
 4.2673054465e-001	 1.4380198337e+000	-1.5625743310e+000
 4.1273732227e-001	 1.4420984373e+000	-1.5139351148e+000
 5.6134443207e-001	 1.4179271591e+000	-1.4419472496e+000
 5.4725241107e-001	 1.4234253751e+000	-1.4838589937e+000
 5.3313632591e-001	 1.4287724304e+000	-1.5148171303e+000
 5.1899849297e-001	 1.4339684670e+000	-1.5350621007e+000
 5.0484121544e-001	 1.4390136716e+000	-1.5448316161e+000
 4.9066678230e-001	 1.4439082757e+000	-1.5443611652e+000
 4.7647746733e-001	 1.4486525543e+000	-1.5338845183e+000
 4.6227552809e-001	 1.4532468256e+000	-1.5136342261e+000
 4.4806320500e-001	 1.4576914503e+000	-1.4838421113e+000
 4.3384272040e-001	 1.4619868310e+000	-1.4447397509e+000
 4.1961627764e-001	 1.4661334112e+000	-1.3965589476e+000
 5.7054679981e-001	 1.4411718666e+000	-1.3645107577e+000
 5.5622376207e-001	 1.4467602173e+000	-1.4019381130e+000
 5.4187626568e-001	 1.4521949293e+000	-1.4290566974e+000
 5.2750666498e-001	 1.4574761468e+000	-1.4460361177e+000
 5.1311730094e-001	 1.4626040597e+000	-1.4530432006e+000
 4.9871050005e-001	 1.4675789032e+000	-1.4502426083e+000
 4.8428857336e-001	 1.4724009568e+000	-1.4377974495e+000
 4.6985381544e-001	 1.4770705440e+000	-1.4158698829e+000
 4.5540850345e-001	 1.4815880315e+000	-1.3846217104e+000
 4.4095489614e-001	 1.4859538282e+000	-1.3442149603e+000
 4.2649523301e-001	 1.4901683852e+000	-1.2948124563e+000
 5.7974916755e-001	 1.4644165742e+000	-1.3158429039e+000
 5.6519511307e-001	 1.4700950595e+000	-1.3471702552e+000
 5.5061620545e-001	 1.4756174281e+000	-1.3688501214e+000
 5.3601483700e-001	 1.4809838265e+000	-1.3809807411e+000
 5.2139338644e-001	 1.4861944478e+000	-1.3836574991e+000
 5.0675421779e-001	 1.4912495307e+000	-1.3769736532e+000
 4.9209967938e-001	 1.4961493594e+000	-1.3610210533e+000
 4.7743210279e-001	 1.5008942625e+000	-1.3358908516e+000
 4.6275380189e-001	 1.5054846126e+000	-1.3016742011e+000
 4.4806707189e-001	 1.5099208254e+000	-1.2584629404e+000
 4.3337418838e-001	 1.5142033591e+000	-1.2063502624e+000
 5.8895153529e-001	 1.4876612817e+000	-1.2918265598e+000
 5.7416646408e-001	 1.4934299018e+000	-1.3156144278e+000
 5.5935614522e-001	 1.4990399270e+000	-1.3304337803e+000
 5.4452300902e-001	 1.5044915063e+000	-1.3363108482e+000
 5.2966947193e-001	 1.5097848358e+000	-1.3332689124e+000
 5.1479793553e-001	 1.5149201581e+000	-1.3213291424e+000
 4.9991078540e-001	 1.5198977619e+000	-1.3005114272e+000
 4.8501039013e-001	 1.5247179809e+000	-1.2708351945e+000
 4.7009910033e-001	 1.5293811938e+000	-1.2323202153e+000
 4.5517924763e-001	 1.5338878227e+000	-1.1849873940e+000
 4.4025314375e-001	 1.5382383331e+000	-1.1288595388e+000
 5.9815390303e-001	 1.5109059892e+000	-1.2884499035e+000
 5.8313781508e-001	 1.5167647440e+000	-1.3034274753e+000
 5.6809608499e-001	 1.5224624259e+000	-1.3101343978e+000
 5.5303118103e-001	 1.5279991861e+000	-1.3085241532e+000
 5.3794555743e-001	 1.5333752239e+000	-1.2985471535e+000
 5.2284165328e-001	 1.5385907856e+000	-1.2801516952e+000
 5.0772189142e-001	 1.5436461644e+000	-1.2532849028e+000
 4.9258867748e-001	 1.5485416994e+000	-1.2178936593e+000
 4.7744439878e-001	 1.5532777749e+000	-1.1739255210e+000
 4.6229142338e-001	 1.5578548199e+000	-1.1213296133e+000
 4.4713209913e-001	 1.5622733070e+000	-1.0600575059e+000
 6.0735627077e-001	 1.5341506967e+000	-1.3017984416e+000
 5.9210916608e-001	 1.5400995862e+000	-1.3068566675e+000
 5.7683602476e-001	 1.5458849247e+000	-1.3043621995e+000
 5.6153935305e-001	 1.5515068659e+000	-1.2941949312e+000
 5.4622164294e-001	 1.5569656119e+000	-1.2762315428e+000
 5.3088537102e-001	 1.5622614131e+000	-1.2503465738e+000
 5.1553299745e-001	 1.5673945670e+000	-1.2164134821e+000
 5.0016696483e-001	 1.5723654179e+000	-1.1743056887e+000
 4.8478969722e-001	 1.5771743561e+000	-1.1238976038e+000
 4.6940359912e-001	 1.5818218171e+000	-1.0650656322e+000
 4.5401105450e-001	 1.5863082810e+000	-9.9768915501e-001
 6.1655863851e-001	 1.5573954043e+000	-1.3280477460e+000
 6.0108051709e-001	 1.5634344284e+000	-1.3222329511e+000
 5.8557596453e-001	 1.5693074236e+000	-1.3096046812e+000
 5.7004752507e-001	 1.5750145457e+000	-1.2899683054e+000
 5.5449772844e-001	 1.5805560000e+000	-1.2631258135e+000
 5.3892908877e-001	 1.5859320406e+000	-1.2288770082e+000
 5.2334410347e-001	 1.5911429695e+000	-1.1870206836e+000
 5.0774525217e-001	 1.5961891363e+000	-1.1373557857e+000
 4.9213499566e-001	 1.6010709372e+000	-1.0796825529e+000
 4.7651577487e-001	 1.6057888143e+000	-1.0138036335e+000
 4.6089000987e-001	 1.6103432550e+000	-9.3952517610e-001
 6.2576100625e-001	 1.5806401118e+000	-1.3541149338e+000
 6.1005186809e-001	 1.5867692706e+000	-1.3459647974e+000
 5.9431590430e-001	 1.5927299224e+000	-1.3224209273e+000
 5.7855569709e-001	 1.5985222255e+000	-1.2925550374e+000
 5.6277381394e-001	 1.6041463881e+000	-1.2560933749e+000
 5.4697280651e-001	 1.6096026680e+000	-1.2127599337e+000
 5.3115520949e-001	 1.6148913720e+000	-1.1622777537e+000
 5.1532353952e-001	 1.6200128548e+000	-1.1043702004e+000
 4.9948029411e-001	 1.6249675184e+000	-1.0387622229e+000
 4.8362795061e-001	 1.6297558116e+000	-9.6518158502e-001
 4.6776896524e-001	 1.6343782289e+000	-8.8336006814e-001
 6.3496337399e-001	 1.6038848193e+000	-1.2832396974e+000
 6.1902321909e-001	 1.6101041128e+000	-1.3745325841e+000
 6.0305584408e-001	 1.6161524213e+000	-1.3394364230e+000
 5.8706386911e-001	 1.6220299053e+000	-1.2987267704e+000
 5.7104989944e-001	 1.6277367761e+000	-1.2520529885e+000
 5.5501652426e-001	 1.6332732955e+000	-1.1990620996e+000
 5.3896631552e-001	 1.6386397745e+000	-1.1394002085e+000
 5.2290182687e-001	 1.6438365732e+000	-1.0727139054e+000
 5.0682559255e-001	 1.6488640995e+000	-9.9865164215e-001
 4.9074012636e-001	 1.6537228088e+000	-9.1686508151e-001
 4.7464792061e-001	 1.6584132029e+000	-8.2701041385e-001
 6.4416574173e-001	 1.6271295268e+000	-1.2184457820e+000
 6.2799457010e-001	 1.6334389551e+000	-1.3679716003e+000
 6.1179578385e-001	 1.6395749202e+000	-1.3573383118e+000
 5.9557204113e-001	 1.6455375851e+000	-1.3053116811e+000
 5.7932598494e-001	 1.6513271642e+000	-1.2479748142e+000
 5.6306024200e-001	 1.6569439230e+000	-1.1848965105e+000
 5.4677742155e-001	 1.6623881771e+000	-1.1156446717e+000
 5.3048011422e-001	 1.6676602917e+000	-1.0397878292e+000
 5.1417089100e-001	 1.6727606807e+000	-9.5689664314e-001
 4.9785230211e-001	 1.6776898060e+000	-8.6654537102e-001
 4.8152687598e-001	 1.6824481768e+000	-7.6831330220e-001
 4.1273732227e-001	 1.4420984373e+000	-1.5139351148e+000
 3.9874038711e-001	 1.4460311558e+000	-1.5310089787e+000
 3.8474186652e-001	 1.4498185045e+000	-1.5393779136e+000
 3.7074386670e-001	 1.4534610367e+000	-1.5391894016e+000
 3.5674847188e-001	 1.4569593432e+000	-1.5305941912e+000
 3.4275774362e-001	 1.4603140515e+000	-1.5137467217e+000
 3.2877372006e-001	 1.4635258252e+000	-1.4888055270e+000
 3.1479841525e-001	 1.4665953626e+000	-1.4559336172e+000
 3.0083381848e-001	 1.4695233968e+000	-1.4152988380e+000
 2.8688189364e-001	 1.4723106938e+000	-1.3670742072e+000
 2.7294457862e-001	 1.4749580526e+000	-1.3114382264e+000
 4.1961627764e-001	 1.4661334112e+000	-1.3965589476e+000
 4.0538606023e-001	 1.4701316751e+000	-1.4068928032e+000
 3.9115423097e-001	 1.4739821463e+000	-1.4100652026e+000
 3.7692293114e-001	 1.4776853873e+000	-1.4061621722e+000
 3.6269427974e-001	 1.4812419989e+000	-1.3952724343e+000
 3.4847037268e-001	 1.4846526191e+000	-1.3774879362e+000
 3.3425328206e-001	 1.4879179223e+000	-1.3529043560e+000
 3.2004505551e-001	 1.4910386187e+000	-1.3216215851e+000
 3.0584771546e-001	 1.4940154534e+000	-1.2837441865e+000
 2.9166325853e-001	 1.4968492054e+000	-1.2393818261e+000
 2.7749365493e-001	 1.4995406868e+000	-1.1886496794e+000
 4.2649523301e-001	 1.4901683852e+000	-1.2948124563e+000
 4.1203173334e-001	 1.4942321944e+000	-1.2978576749e+000
 3.9756659541e-001	 1.4981457880e+000	-1.2952411064e+000
 3.8310199559e-001	 1.5019097379e+000	-1.2869867124e+000
 3.6864008761e-001	 1.5055246547e+000	-1.2731206094e+000
 3.5418300174e-001	 1.5089911866e+000	-1.2536717025e+000
 3.3973284406e-001	 1.5123100193e+000	-1.2286722959e+000
 3.2529169576e-001	 1.5154818747e+000	-1.1981586769e+000
 3.1086161243e-001	 1.5185075100e+000	-1.1621716732e+000
 2.9644462343e-001	 1.5213877169e+000	-1.1207571824e+000
 2.8204273124e-001	 1.5241233210e+000	-1.0739666719e+000
 4.3337418838e-001	 1.5142033591e+000	-1.2063502624e+000
 4.1867740646e-001	 1.5183327136e+000	-1.2016967729e+000
 4.0397895985e-001	 1.5223094298e+000	-1.1928401132e+000
 3.8928106004e-001	 1.5261340886e+000	-1.1797414703e+000
 3.7458589548e-001	 1.5298073104e+000	-1.1623636725e+000
 3.5989563080e-001	 1.5333297541e+000	-1.1406719312e+000
 3.4521240607e-001	 1.5367021164e+000	-1.1146345556e+000
 3.3053833602e-001	 1.5399251308e+000	-1.0842236409e+000
 3.1587550941e-001	 1.5429995666e+000	-1.0494157253e+000
 3.0122598832e-001	 1.5459262285e+000	-1.0101924181e+000
 2.8659180755e-001	 1.5487059552e+000	-9.6654099553e-001
 4.4025314375e-001	 1.5382383331e+000	-1.1288595388e+000
 4.2532307958e-001	 1.5424332329e+000	-1.1162310020e+000
 4.1039132430e-001	 1.5464730715e+000	-1.1008194639e+000
 3.9546012448e-001	 1.5503584392e+000	-1.0825225284e+000
 3.8053170334e-001	 1.5540899661e+000	-1.0612389551e+000
 3.6560825986e-001	 1.5576683217e+000	-1.0368695108e+000
 3.5069196807e-001	 1.5610942135e+000	-1.0093177905e+000
 3.3578497627e-001	 1.5643683868e+000	-9.7849100939e-001
 3.2088940638e-001	 1.5674916232e+000	-9.4430076312e-001
 3.0600735321e-001	 1.5704647400e+000	-9.0666375439e-001
 2.9114088386e-001	 1.5732885894e+000	-8.6550248583e-001
 4.4713209913e-001	 1.5622733070e+000	-1.0600575059e+000
 4.3196875270e-001	 1.5665337522e+000	-1.0393068600e+000
 4.1680368874e-001	 1.5706367133e+000	-1.0171574014e+000
 4.0163918893e-001	 1.5745827898e+000	-9.9344224688e-001
 3.8647751121e-001	 1.5783726218e+000	-9.6799521178e-001
 3.7132088892e-001	 1.5820068892e+000	-9.4065177138e-001
 3.5617153007e-001	 1.5854863106e+000	-9.1124999078e-001
 3.4103161652e-001	 1.5888116429e+000	-8.7963142256e-001
 3.2590330335e-001	 1.5919836798e+000	-8.4564197022e-001
 3.1078871811e-001	 1.5950032516e+000	-8.0913271589e-001
 2.9568996017e-001	 1.5978712237e+000	-7.6996071110e-001
 4.5401105450e-001	 1.5863082810e+000	-9.9768915501e-001
 4.3861442582e-001	 1.5906342714e+000	-9.6879449902e-001
 4.2321605318e-001	 1.5948003550e+000	-9.3985157993e-001
 4.0781825337e-001	 1.5988071404e+000	-9.1062803113e-001
 3.9242331907e-001	 1.6026552775e+000	-8.8089175504e-001
 3.7703351798e-001	 1.6063454567e+000	-8.5041199616e-001
 3.6165109207e-001	 1.6098784077e+000	-8.1896038106e-001
 3.4627825678e-001	 1.6132548989e+000	-7.8631192354e-001
 3.3091720033e-001	 1.6164757364e+000	-7.5224599297e-001
 3.1557008300e-001	 1.6195417632e+000	-7.1654724425e-001
 3.0023903648e-001	 1.6224538579e+000	-6.7900650785e-001
 4.6089000987e-001	 1.6103432550e+000	-9.3952517610e-001
 4.4526009894e-001	 1.6147347907e+000	-9.0258596016e-001
 4.2962841762e-001	 1.6189639967e+000	-8.6691761615e-001
 4.1399731782e-001	 1.6230314910e+000	-8.3222120838e-001
 3.9836912694e-001	 1.6269379333e+000	-7.9819766748e-001
 3.8274614704e-001	 1.6306840242e+000	-7.6454897751e-001
 3.6713065407e-001	 1.6342705048e+000	-7.3097932771e-001
 3.5152489703e-001	 1.6376981549e+000	-6.9719622677e-001
 3.3593109730e-001	 1.6409677930e+000	-6.6291157776e-001
 3.2035144789e-001	 1.6440802747e+000	-6.2784271177e-001
 3.0478811279e-001	 1.6470364921e+000	-5.9171337871e-001
 4.6776896524e-001	 1.6343782289e+000	-8.8336006814e-001
 4.5190577206e-001	 1.6388353100e+000	-8.3859356390e-001
 4.3604078206e-001	 1.6431276385e+000	-7.9638776867e-001
 4.2017638226e-001	 1.6472558416e+000	-7.5637600429e-001
 4.0431493480e-001	 1.6512205890e+000	-7.1819108325e-001
 3.8845877610e-001	 1.6550225918e+000	-6.8146661177e-001
 3.7261021607e-001	 1.6586626019e+000	-6.4583825508e-001
 3.5677153728e-001	 1.6621414110e+000	-6.1094496276e-001
 3.4094499428e-001	 1.6654598497e+000	-5.7643015180e-001
 3.2513281279e-001	 1.6686187863e+000	-5.4194284559e-001
 3.0933718910e-001	 1.6716191263e+000	-5.0713876694e-001
 4.7464792061e-001	 1.6584132029e+000	-8.2701041385e-001
 4.5855144518e-001	 1.6629358292e+000	-7.7474844073e-001
 4.4245314651e-001	 1.6672912802e+000	-7.2630973192e-001
 4.2635544671e-001	 1.6714801922e+000	-6.8125860822e-001
 4.1026074266e-001	 1.6755032447e+000	-6.3915853223e-001
 3.9417140516e-001	 1.6793611593e+000	-5.9957352939e-001
 3.7808977807e-001	 1.6830546990e+000	-5.6206956885e-001
 3.6201817754e-001	 1.6865846670e+000	-5.2621590159e-001
 3.4595889125e-001	 1.6899519063e+000	-4.9158635356e-001
 3.2991417768e-001	 1.6931572979e+000	-4.5776057157e-001
 3.1388626541e-001	 1.6962017605e+000	-4.2432522016e-001
 4.8152687598e-001	 1.6824481768e+000	-7.6831330220e-001
 4.6519711830e-001	 1.6870363485e+000	-7.0899918752e-001
 4.4886551095e-001	 1.6914549220e+000	-6.5474553364e-001
 4.3253451115e-001	 1.6957045429e+000	-6.0504631869e-001
 4.1620655053e-001	 1.6997859004e+000	-5.5939434030e-001
 3.9988403422e-001	 1.7036997268e+000	-5.1728275684e-001
 3.8356934007e-001	 1.7074467960e+000	-4.7820658590e-001
 3.6726481779e-001	 1.7110279231e+000	-4.4166415723e-001
 3.5097278822e-001	 1.7144439629e+000	-4.0715851765e-001
 3.3469554257e-001	 1.7176958094e+000	-3.7419878577e-001
 3.1843534172e-001	 1.7207843947e+000	-3.4230145435e-001
 2.7294457862e-001	 1.4749580526e+000	-1.3114382264e+000
 2.5902378476e-001	 1.4774663038e+000	-1.3088215351e+000
 2.4512139625e-001	 1.4798363089e+000	-1.2997358583e+000
 2.3123926969e-001	 1.4820689593e+000	-1.2842269848e+000
 2.1737923353e-001	 1.4841651757e+000	-1.2623492067e+000
 2.0354308766e-001	 1.4861259070e+000	-1.2341656061e+000
 1.8973260296e-001	 1.4879521294e+000	-1.1997483117e+000
 1.7594952092e-001	 1.4896448456e+000	-1.1591787239e+000
 1.6219555323e-001	 1.4912050840e+000	-1.1125477097e+000
 1.4847238149e-001	 1.4926338975e+000	-1.0599557669e+000
 1.3478165685e-001	 1.4939323629e+000	-1.0015131576e+000
 2.7749365493e-001	 1.4995406868e+000	-1.1886496794e+000
 2.6334084783e-001	 1.5020907422e+000	-1.1838330399e+000
 2.4920675285e-001	 1.5045002474e+000	-1.1732192343e+000
 2.3509325751e-001	 1.5067701086e+000	-1.1568141251e+000
 2.2100222075e-001	 1.5089012620e+000	-1.1346322541e+000
 2.0693547245e-001	 1.5108946721e+000	-1.1066971919e+000
 1.9289481301e-001	 1.5127513315e+000	-1.0730418536e+000
 1.7888201293e-001	 1.5144722597e+000	-1.0337087824e+000
 1.6489881245e-001	 1.5160585020e+000	-9.8875039915e-001
 1.5094692118e-001	 1.5175111291e+000	-9.3822921937e-001
 1.3702801779e-001	 1.5188312356e+000	-8.8221803699e-001
 2.8204273124e-001	 1.5241233210e+000	-1.0739666719e+000
 2.6765791091e-001	 1.5267151806e+000	-1.0672486338e+000
 2.5329210946e-001	 1.5291641858e+000	-1.0553617294e+000
 2.3894724534e-001	 1.5314712579e+000	-1.0382710439e+000
 2.2462520797e-001	 1.5336373482e+000	-1.0159505619e+000
 2.1032785724e-001	 1.5356634372e+000	-9.8838357999e-001
 1.9605702305e-001	 1.5375505337e+000	-9.5556308419e-001
 1.8181450494e-001	 1.5392996738e+000	-9.1749209109e-001
 1.6760207167e-001	 1.5409119201e+000	-8.7418395357e-001
 1.5342146087e-001	 1.5423883607e+000	-8.2566263073e-001
 1.3927437874e-001	 1.5437301083e+000	-7.7196292238e-001
 2.8659180755e-001	 1.5487059552e+000	-9.6654099553e-001
 2.7197497399e-001	 1.5513396190e+000	-9.5831926242e-001
 2.5737746606e-001	 1.5538281243e+000	-9.4551493991e-001
 2.4280123317e-001	 1.5561724073e+000	-9.2805141117e-001
 2.2824819520e-001	 1.5583734345e+000	-9.0586122355e-001
 2.1372024203e-001	 1.5604322023e+000	-8.7888656569e-001
 1.9921923310e-001	 1.5623497358e+000	-8.4707970629e-001
 1.8474699695e-001	 1.5641270879e+000	-8.1040339467e-001
 1.7030533088e-001	 1.5657653382e+000	-7.6883122282e-001
 1.5589600055e-001	 1.5672655924e+000	-7.2234794910e-001
 1.4152073968e-001	 1.5686289811e+000	-6.7094978371e-001
 2.9114088386e-001	 1.5732885894e+000	-8.6550248583e-001
 2.7629203707e-001	 1.5759640574e+000	-8.5627165867e-001
 2.6146282266e-001	 1.5784920628e+000	-8.4300389362e-001
 2.4665522099e-001	 1.5808735566e+000	-8.2557987591e-001
 2.3187118242e-001	 1.5831095208e+000	-8.0388976476e-001
 2.1711262682e-001	 1.5852009674e+000	-7.7783373573e-001
 2.0238144315e-001	 1.5871489380e+000	-7.4732248228e-001
 1.8767948897e-001	 1.5889545020e+000	-7.1227767615e-001
 1.7300859010e-001	 1.5906187562e+000	-6.7263238667e-001
 1.5837054024e-001	 1.5921428240e+000	-6.2833145875e-001
 1.4376710062e-001	 1.5935278538e+000	-5.7933184997e-001
 2.9568996017e-001	 1.5978712237e+000	-7.6996071110e-001
 2.8060910014e-001	 1.6005884958e+000	-7.6031020530e-001
 2.6554817926e-001	 1.6031560013e+000	-7.4712909410e-001
 2.5050920882e-001	 1.6055747059e+000	-7.3025429924e-001
 2.3549416964e-001	 1.6078456070e+000	-7.0953257155e-001
 2.2050501162e-001	 1.6099697326e+000	-6.8482109977e-001
 2.0554365319e-001	 1.6119481402e+000	-6.5598807573e-001
 1.9061198098e-001	 1.6137819161e+000	-6.2291321560e-001
 1.7571184932e-001	 1.6154721743e+000	-5.8548823711e-001
 1.6084507993e-001	 1.6170200556e+000	-5.4361729265e-001
 1.4601346157e-001	 1.6184267265e+000	-4.9721735846e-001
 3.0023903648e-001	 1.6224538579e+000	-6.7900650785e-001
 2.8492616322e-001	 1.6252129342e+000	-6.6961862806e-001
 2.6963353587e-001	 1.6278199398e+000	-6.5716837842e-001
 2.5436319665e-001	 1.6302758552e+000	-6.4144778352e-001
 2.3911715687e-001	 1.6325816933e+000	-6.2225909791e-001
 2.2389739641e-001	 1.6347384977e+000	-5.9941548256e-001
 2.0870586324e-001	 1.6367473423e+000	-5.7274163463e-001
 1.9354447299e-001	 1.6386093302e+000	-5.4207437062e-001
 1.7841510854e-001	 1.6403255924e+000	-5.0726316234e-001
 1.6331961962e-001	 1.6418972872e+000	-4.6817062581e-001
 1.4825982252e-001	 1.6433255992e+000	-4.2467296322e-001
 3.0478811279e-001	 1.6470364921e+000	-5.9171337871e-001
 2.8924322630e-001	 1.6498373726e+000	-5.8336153727e-001
 2.7371889247e-001	 1.6524838782e+000	-5.7237860865e-001
 2.5821718447e-001	 1.6549770045e+000	-5.5851052004e-001
 2.4274014409e-001	 1.6573177795e+000	-5.4151387564e-001
 2.2728978120e-001	 1.6595072628e+000	-5.2115670193e-001
 2.1186807329e-001	 1.6615465445e+000	-4.9721914329e-001
 1.9647696501e-001	 1.6634367443e+000	-4.6949410789e-001
 1.8111836776e-001	 1.6651790104e+000	-4.3778786341e-001
 1.6579415931e-001	 1.6667745188e+000	-4.0192058252e-001
 1.5050618346e-001	 1.6682244719e+000	-3.6172683829e-001
 3.0933718910e-001	 1.6716191263e+000	-5.0713876694e-001
 2.9356028938e-001	 1.6744618110e+000	-5.0068583336e-001
 2.7780424907e-001	 1.6771478167e+000	-4.9199721420e-001
 2.6207117230e-001	 1.6796781539e+000	-4.8077147369e-001
 2.4636313132e-001	 1.6820538658e+000	-4.6671834683e-001
 2.3068216600e-001	 1.6842760279e+000	-4.4955955460e-001
 2.1503028334e-001	 1.6863457466e+000	-4.2902956672e-001
 1.9940945702e-001	 1.6882641584e+000	-4.0487631130e-001
 1.8382162698e-001	 1.6900324285e+000	-3.7686183125e-001
 1.6826869900e-001	 1.6916517505e+000	-3.4476288720e-001
 1.5275254441e-001	 1.6931233446e+000	-3.0837150712e-001
 3.1388626541e-001	 1.6962017605e+000	-4.2432522016e-001
 2.9787735246e-001	 1.6990862494e+000	-4.2072199021e-001
 2.8188960568e-001	 1.7018117552e+000	-4.1524359993e-001
 2.6592516013e-001	 1.7043793032e+000	-4.0753992110e-001
 2.4998611855e-001	 1.7067899521e+000	-3.9727253704e-001
 2.3407455079e-001	 1.7090447930e+000	-3.8411562929e-001
 2.1819249339e-001	 1.7111449488e+000	-3.6775680857e-001
 2.0234194904e-001	 1.7130915724e+000	-3.4789788942e-001
 1.8652488620e-001	 1.7148858466e+000	-3.2425560825e-001
 1.7074323870e-001	 1.7165289821e+000	-2.9656228465e-001
 1.5499890536e-001	 1.7180222173e+000	-2.6456642592e-001
 3.1843534172e-001	 1.7207843947e+000	-3.4230145435e-001
 3.0219441554e-001	 1.7237106878e+000	-3.4258522844e-001
 2.8597496228e-001	 1.7264756937e+000	-3.4132043365e-001
 2.6977914796e-001	 1.7290804525e+000	-3.3810685692e-001
 2.5360910577e-001	 1.7315260383e+000	-3.3255658508e-001
 2.3746693559e-001	 1.7338135582e+000	-3.2429496445e-001
 2.2135470344e-001	 1.7359441509e+000	-3.1296150122e-001
 2.0527444106e-001	 1.7379189865e+000	-2.9821070230e-001
 1.8922814542e-001	 1.7397392646e+000	-2.7971285605e-001
 1.7321777839e-001	 1.7414062137e+000	-2.5715475289e-001
 1.5724526631e-001	 1.7429210901e+000	-2.3024034566e-001
 1.3478165685e-001	 1.4939323629e+000	-1.0015131576e+000
 1.2112499974e-001	 1.4951015800e+000	-1.0024266013e+000
 1.0750399961e-001	 1.4961426704e+000	-9.9567188230e-001
 9.3920214705e-002	 1.4970567769e+000	-9.8137968660e-001
 8.0375171839e-002	 1.4978450627e+000	-9.5969240359e-001
 6.6870366229e-002	 1.4985087101e+000	-9.3076408226e-001
 5.3407261333e-002	 1.4990489200e+000	-8.9476035948e-001
 3.9987288723e-002	 1.4994669109e+000	-8.5185836093e-001
 2.6611847981e-002	 1.4997639179e+000	-8.0224657551e-001
 1.3282306613e-002	 1.4999411923e+000	-7.4612470417e-001
 0.0000000000e+000	 1.5000000000e+000	-6.8370348419e-001
 1.3702801779e-001	 1.5188312356e+000	-8.8221803699e-001
 1.2314374973e-001	 1.5200199396e+000	-8.8484932845e-001
 1.0929573293e-001	 1.5210783815e+000	-8.8014648169e-001
 9.5485551614e-002	 1.5220077232e+000	-8.6821789244e-001
 8.1714758035e-002	 1.5228091470e+000	-8.4918404989e-001
 6.7984872331e-002	 1.5234838552e+000	-8.2317752475e-001
 5.4297382354e-002	 1.5240330686e+000	-7.9034292700e-001
 4.0653743534e-002	 1.5244580260e+000	-7.5083683432e-001
 2.7055378780e-002	 1.5247599832e+000	-7.0482769179e-001
 1.3503678390e-002	 1.5249402122e+000	-6.5249568418e-001
 0.0000000000e+000	 1.5250000000e+000	-5.9403258154e-001
 1.3927437874e-001	 1.5437301083e+000	-7.7196292238e-001
 1.2516249972e-001	 1.5449382993e+000	-7.7705442805e-001
 1.1108746626e-001	 1.5460140927e+000	-7.7509157039e-001
 9.7050888523e-002	 1.5469586695e+000	-7.6615976590e-001
 8.3054344230e-002	 1.5477732314e+000	-7.5035697121e-001
 6.9099378434e-002	 1.5484590004e+000	-7.2779370279e-001
 5.5187503375e-002	 1.5490172173e+000	-6.9859302421e-001
 4.1320198346e-002	 1.5494491412e+000	-6.6289050183e-001
 2.7498909579e-002	 1.5497560485e+000	-6.2083412977e-001
 1.3725050166e-002	 1.5499392320e+000	-5.7258422523e-001
 0.0000000000e+000	 1.5500000000e+000	-5.1831329510e-001
 1.4152073968e-001	 1.5686289811e+000	-6.7094978371e-001
 1.2718124971e-001	 1.5698566590e+000	-6.7931132563e-001
 1.1287919958e-001	 1.5709498039e+000	-6.8084502072e-001
 9.8616225433e-002	 1.5719096157e+000	-6.7561256510e-001
 8.4393930425e-002	 1.5727373158e+000	-6.6368869859e-001
 7.0213884536e-002	 1.5734341456e+000	-6.4516125619e-001
 5.6077624396e-002	 1.5740013660e+000	-6.2013118487e-001
 4.1986653157e-002	 1.5744402564e+000	-5.8871252645e-001
 2.7942440378e-002	 1.5747521138e+000	-5.5103236769e-001
 1.3946421943e-002	 1.5749382519e+000	-5.0723075833e-001
 0.0000000000e+000	 1.5750000000e+000	-4.5746059843e-001
 1.4376710062e-001	 1.5935278538e+000	-5.7933184997e-001
 1.2919999971e-001	 1.5947750186e+000	-5.9184026106e-001
 1.1467093291e-001	 1.5958855150e+000	-5.9769498278e-001
 1.0018156234e-001	 1.5968605620e+000	-5.9693319842e-001
 8.5733516621e-002	 1.5977014002e+000	-5.8960569606e-001
 7.1328390638e-002	 1.5984092907e+000	-5.7577695195e-001
 5.6967745417e-002	 1.5989855146e+000	-5.5552517685e-001
 4.2653107968e-002	 1.5994313716e+000	-5.2894232617e-001
 2.8385971177e-002	 1.5997481791e+000	-4.9613407487e-001
 1.4167793719e-002	 1.5999372718e+000	-4.5721975819e-001
 0.0000000000e+000	 1.6000000000e+000	-4.1233227927e-001
 1.4601346157e-001	 1.6184267265e+000	-4.9721735846e-001
 1.3121874970e-001	 1.6196933783e+000	-5.1481607211e-001
 1.1646266623e-001	 1.6208212262e+000	-5.2588370922e-001
 1.0174689925e-001	 1.6218115083e+000	-5.3043209755e-001
 8.7073102817e-002	 1.6226654846e+000	-5.2848728889e-001
 7.2442896741e-002	 1.6233844359e+000	-5.2008967450e-001
 5.7857866438e-002	 1.6239696633e+000	-5.0529406109e-001
 4.3319562779e-002	 1.6244224868e+000	-4.8416970818e-001
 2.8829501976e-002	 1.6247442444e+000	-4.5680032779e-001
 1.4389165496e-002	 1.6249362916e+000	-4.2328404753e-001
 0.0000000000e+000	 1.6250000000e+000	-3.8373333837e-001
 1.4825982252e-001	 1.6433255992e+000	-4.2467296322e-001
 1.3323749970e-001	 1.6446117380e+000	-4.4837163403e-001
 1.1825439956e-001	 1.6457569374e+000	-4.6561103233e-001
 1.0331223616e-001	 1.6467624546e+000	-4.7637673847e-001
 8.8412689013e-002	 1.6476295689e+000	-4.8066923472e-001
 7.3557402843e-002	 1.6483595811e+000	-4.7850405318e-001
 5.8747987459e-002	 1.6489538120e+000	-4.6991188148e-001
 4.3986017590e-002	 1.6494136019e+000	-4.5493862729e-001
 2.9273032775e-002	 1.6497403097e+000	-4.3364544282e-001
 1.4610537273e-002	 1.6499353115e+000	-4.0610871011e-001
 0.0000000000e+000	 1.6500000000e+000	-3.7241998860e-001
 1.5050618346e-001	 1.6682244719e+000	-3.6172683829e-001
 1.3525624969e-001	 1.6695300976e+000	-3.9260099103e-001
 1.2004613288e-001	 1.6706926486e+000	-4.1703752976e-001
 1.0487757307e-001	 1.6717134009e+000	-4.3499484704e-001
 8.9752275209e-002	 1.6725936533e+000	-4.4644697481e-001
 7.4671908946e-002	 1.6733347262e+000	-4.5138376485e-001
 5.9638108481e-002	 1.6739379606e+000	-4.4981102433e-001
 4.4652472402e-002	 1.6744047171e+000	-4.4175060772e-001
 2.9716563574e-002	 1.6747363750e+000	-4.2724046584e-001
 1.4831909049e-002	 1.6749343314e+000	-4.0633465333e-001
 0.0000000000e+000	 1.6750000000e+000	-3.7910329576e-001
 1.5275254441e-001	 1.6931233446e+000	-3.0837150712e-001
 1.3727499969e-001	 1.6944484573e+000	-3.4756221157e-001
 1.2183786621e-001	 1.6956283597e+000	-3.8028741084e-001
 1.0644290998e-001	 1.6966643472e+000	-4.0647732188e-001
 9.1091861406e-002	 1.6975577377e+000	-4.2607859858e-001
 7.5786415049e-002	 1.6983098714e+000	-4.3905454508e-001
 6.0528229502e-002	 1.6989221093e+000	-4.4538528148e-001
 4.5318927213e-002	 1.6993958323e+000	-4.4506786303e-001
 3.0160094373e-002	 1.6997324403e+000	-4.3811635387e-001
 1.5053280826e-002	 1.6999333513e+000	-4.2456185652e-001
 0.0000000000e+000	 1.7000000000e+000	-4.0445249829e-001
 1.5499890536e-001	 1.7180222173e+000	-2.6456642592e-001
 1.3929374968e-001	 1.7193668170e+000	-3.1327999524e-001
 1.2362959954e-001	 1.7205640709e+000	-3.5545115202e-001
 1.0800824690e-001	 1.7216152934e+000	-3.9098090296e-001
 9.2431447602e-002	 1.7225218221e+000	-4.1978755017e-001
 7.6900921152e-002	 1.7232850166e+000	-4.4180693756e-001
 6.1418350523e-002	 1.7239062580e+000	-4.5699264694e-001
 4.5985382024e-002	 1.7243869475e+000	-4.6531614468e-001
 3.0603625172e-002	 1.7247285056e+000	-4.6676688005e-001
 1.5274652602e-002	 1.7249323711e+000	-4.6135233669e-001
 0.0000000000e+000	 1.7250000000e+000	-4.4909803816e-001
 1.5724526631e-001	 1.7429210901e+000	-2.3024034566e-001
 1.4131249968e-001	 1.7442851766e+000	-2.8974805628e-001
 1.2542133286e-001	 1.7454997821e+000	-3.4258790631e-001
 1.0957358381e-001	 1.7465662397e+000	-3.8863061154e-001
 9.3771033799e-002	 1.7474859064e+000	-4.2776510316e-001
 7.8015427255e-002	 1.7482601617e+000	-4.5989880777e-001
 6.2308471545e-002	 1.7488904066e+000	-4.8495787393e-001
 4.6651836836e-002	 1.7493780627e+000	-5.0288734650e-001
 3.1047155971e-002	 1.7497245709e+000	-5.1365128967e-001
 1.5496024379e-002	 1.7499313910e+000	-5.1723286021e-001
 0.0000000000e+000	 1.7500000000e+000	-5.1363433210e-001
 1.7500000000e+000	 0.0000000000e+000	 4.3997903096e+000
 1.7499313910e+000	 1.5496024379e-002	 4.3596903964e+000
 1.7497245709e+000	 3.1047155971e-002	 4.3134232841e+000
 1.7493780627e+000	 4.6651836836e-002	 4.2607551258e+000
 1.7488904066e+000	 6.2308471545e-002	 4.2014652308e+000
 1.7482601617e+000	 7.8015427255e-002	 4.1353464376e+000
 1.7474859064e+000	 9.3771033799e-002	 4.0622054610e+000
 1.7465662397e+000	 1.0957358381e-001	 3.9818632140e+000
 1.7454997821e+000	 1.2542133286e-001	 3.8941551001e+000
 1.7442851766e+000	 1.4131249968e-001	 3.7989312772e+000
 1.7429210901e+000	 1.5724526631e-001	 3.6960568890e+000
 1.7750000000e+000	 0.0000000000e+000	 3.7124358467e+000
 1.7749304109e+000	 1.5717396155e-002	 3.7095910913e+000
 1.7747206362e+000	 3.1490686771e-002	 3.6998047749e+000
 1.7743691778e+000	 4.7318291647e-002	 3.6828496358e+000
 1.7738745553e+000	 6.3198592567e-002	 3.6585128478e+000
 1.7732353069e+000	 7.9129933358e-002	 3.6265964075e+000
 1.7724499908e+000	 9.5110619996e-002	 3.5869174929e+000
 1.7715171860e+000	 1.1113892072e-001	 3.5393087944e+000
 1.7704354933e+000	 1.2721306619e-001	 3.4836188153e+000
 1.7692035363e+000	 1.4333124967e-001	 3.4197121399e+000
 1.7678199628e+000	 1.5949162725e-001	 3.3474696682e+000
 1.8000000000e+000	 0.0000000000e+000	 3.0311043459e+000
 1.7999294307e+000	 1.5938767932e-002	 3.0665108876e+000
 1.7997167015e+000	 3.1934217570e-002	 3.0941597700e+000
 1.7993602930e+000	 4.7984746459e-002	 3.1138299660e+000
 1.7988587040e+000	 6.4088713588e-002	 3.1253162048e+000
 1.7982104521e+000	 8.0244439462e-002	 3.1284293733e+000
 1.7974140752e+000	 9.6450206192e-002	 3.1229968876e+000
 1.7964681323e+000	 1.1270425763e-001	 3.1088630348e+000
 1.7953712044e+000	 1.2900479952e-001	 3.0858892811e+000
 1.7941218960e+000	 1.4534999967e-001	 3.0539545463e+000
 1.7927188355e+000	 1.6173798820e-001	 3.0129554415e+000
 1.8250000000e+000	 0.0000000000e+000	 2.3562114022e+000
 1.8249284506e+000	 1.6160139709e-002	 2.4307994524e+000
 1.8247127668e+000	 3.2377748369e-002	 2.4967713872e+000
 1.8243514082e+000	 4.8651201270e-002	 2.5539120886e+000
 1.8238428526e+000	 6.4978834610e-002	 2.6020235573e+000
 1.8231855972e+000	 8.1358945565e-002	 2.6409253299e+000
 1.8223781596e+000	 9.7789792389e-002	 2.6704548643e+000
 1.8214190786e+000	 1.1426959454e-001	 2.6904678920e+000
 1.8203069156e+000	 1.3079653284e-001	 2.7008387360e+000
 1.8190402556e+000	 1.4736874966e-001	 2.7014605916e+000
 1.8176177082e+000	 1.6398434915e-001	 2.6922457684e+000
 1.8500000000e+000	 0.0000000000e+000	 1.6881501460e+000
 1.8499274705e+000	 1.6381511485e-002	 1.8027861609e+000
 1.8497088321e+000	 3.2821279168e-002	 1.9079046188e+000
 1.8493425234e+000	 4.9317656081e-002	 2.0032960094e+000
 1.8488270013e+000	 6.5868955631e-002	 2.0887693464e+000
 1.8481607424e+000	 8.2473451668e-002	 2.1641526016e+000
 1.8473422440e+000	 9.9129378586e-002	 2.2292931049e+000
 1.8463700248e+000	 1.1583493145e-001	 2.2840579088e+000
 1.8452426268e+000	 1.3258826617e-001	 2.3283341161e+000
 1.8439586153e+000	 1.4938749966e-001	 2.3620291680e+000
 1.8425165809e+000	 1.6623071010e-001	 2.3850710914e+000
 1.8750000000e+000	 0.0000000000e+000	 1.0272927411e+000
 1.8749264904e+000	 1.6602883262e-002	 1.1827814488e+000
 1.8747048974e+000	 3.3264809967e-002	 1.3278075398e+000
 1.8743336386e+000	 4.9984110893e-002	 1.4621668326e+000
 1.8738111500e+000	 6.6759076653e-002	 1.5856751199e+000
 1.8731358876e+000	 8.3587957771e-002	 1.6981686194e+000
 1.8723063283e+000	 1.0046896478e-001	 1.7995043897e+000
 1.8713209711e+000	 1.1740026836e-001	 1.8895607080e+000
 1.8701783379e+000	 1.3437999950e-001	 1.9682374082e+000
 1.8688769750e+000	 1.5140624966e-001	 2.0354561778e+000
 1.8674154536e+000	 1.6847707105e-001	 2.0911608100e+000
 1.9000000000e+000	 0.0000000000e+000	 1.5815975823e+000
 1.8999255102e+000	 1.6824255038e-002	 1.6960898939e+000
 1.8997009627e+000	 3.3708340767e-002	 1.7955049500e+000
 1.8993247537e+000	 5.0650565704e-002	 1.8809343184e+000
 1.8987952986e+000	 6.7649197674e-002	 1.9534270037e+000
 1.8981110327e+000	 8.4702463874e-002	 2.0139866455e+000
 1.8972704127e+000	 1.0180855098e-001	 2.0635687418e+000
 1.8962719174e+000	 1.1896560528e-001	 2.1030779059e+000
 1.8951140491e+000	 1.3617173282e-001	 2.1333651629e+000
 1.8937953346e+000	 1.5342499965e-001	 2.1552252931e+000
 1.8923143264e+000	 1.7072343199e-001	 2.1693942310e+000
 1.9250000000e+000	 0.0000000000e+000	 2.1227343960e+000
 1.9249245301e+000	 1.7045626815e-002	 2.1989573191e+000
 1.9246970280e+000	 3.4151871566e-002	 2.2614199336e+000
 1.9243158689e+000	 5.1317020516e-002	 2.3112737027e+000
 1.9237794473e+000	 6.8539318696e-002	 2.3496250648e+000
 1.9230861779e+000	 8.5816969978e-002	 2.3775324961e+000
 1.9222344971e+000	 1.0314813718e-001	 2.3960035997e+000
 1.9212228637e+000	 1.2053094219e-001	 2.4059922283e+000
 1.9200497603e+000	 1.3796346615e-001	 2.4083956499e+000
 1.9187136943e+000	 1.5544374965e-001	 2.4040517628e+000
 1.9172131991e+000	 1.7296979294e-001	 2.3937363675e+000
 1.9500000000e+000	 0.0000000000e+000	 2.6510203010e+000
 1.9499235500e+000	 1.7266998592e-002	 2.6883238052e+000
 1.9496930933e+000	 3.4595402365e-002	 2.7132693379e+000
 1.9493069841e+000	 5.1983475327e-002	 2.7270692322e+000
 1.9487635960e+000	 6.9429439717e-002	 2.7308882342e+000
 1.9480613231e+000	 8.6931476081e-002	 2.7258404252e+000
 1.9471985815e+000	 1.0448772337e-001	 2.7129861722e+000
 1.9461738100e+000	 1.2209627910e-001	 2.6933291142e+000
 1.9449854715e+000	 1.3975519948e-001	 2.6678131933e+000
 1.9436320540e+000	 1.5746249964e-001	 2.6373197368e+000
 1.9421120718e+000	 1.7521615389e-001	 2.6026646006e+000
 1.9750000000e+000	 0.0000000000e+000	 3.1667563594e+000
 1.9749225698e+000	 1.7488370368e-002	 3.1644657020e+000
 1.9746891586e+000	 3.5038933164e-002	 3.1513067872e+000
 1.9742980993e+000	 5.2649930139e-002	 3.1285538219e+000
 1.9737477446e+000	 7.0319560739e-002	 3.0974307599e+000
 1.9730364682e+000	 8.8045982184e-002	 3.0591080806e+000
 1.9721626658e+000	 1.0582730957e-001	 3.0146995973e+000
 1.9711247563e+000	 1.2366161601e-001	 2.9652593037e+000
 1.9699211826e+000	 1.4154693280e-001	 2.9117782663e+000
 1.9685504136e+000	 1.5948124964e-001	 2.8551815709e+000
 1.9670109445e+000	 1.7746251484e-001	 2.7963253336e+000
 2.0000000000e+000	 0.0000000000e+000	 3.6702285803e+000
 1.9999215897e+000	 1.7709742145e-002	 3.6276457612e+000
 1.9996852239e+000	 3.5482463963e-002	 3.5757737602e+000
 1.9992892145e+000	 5.3316384950e-002	 3.5159496884e+000
 1.9987318933e+000	 7.1209681760e-002	 3.4494576332e+000
 1.9980116134e+000	 8.9160488287e-002	 3.3775252894e+000
 1.9971267502e+000	 1.0716689577e-001	 3.3013206220e+000
 1.9960757025e+000	 1.2522695292e-001	 3.2219485684e+000
 1.9948568938e+000	 1.4333866613e-001	 3.1404477888e+000
 1.9934687733e+000	 1.6149999964e-001	 3.0577874744e+000
 1.9919098172e+000	 1.7970887579e-001	 2.9748642213e+000
 1.7429210901e+000	 1.5724526631e-001	 3.6960568890e+000
 1.7414062137e+000	 1.7321777839e-001	 3.6368656796e+000
 1.7397392646e+000	 1.8922814542e-001	 3.5725206955e+000
 1.7379189865e+000	 2.0527444106e-001	 3.5029859122e+000
 1.7359441509e+000	 2.2135470344e-001	 3.4282394477e+000
 1.7338135582e+000	 2.3746693559e-001	 3.3482735312e+000
 1.7315260383e+000	 2.5360910577e-001	 3.2630944332e+000
 1.7290804525e+000	 2.6977914796e-001	 3.1727223539e+000
 1.7264756937e+000	 2.8597496228e-001	 3.0771912717e+000
 1.7237106878e+000	 3.0219441554e-001	 2.9765487473e+000
 1.7207843947e+000	 3.1843534172e-001	 2.8708556873e+000
 1.7678199628e+000	 1.5949162725e-001	 3.3474696682e+000
 1.7662834454e+000	 1.7569231808e-001	 3.3193739138e+000
 1.7645926827e+000	 1.9193140464e-001	 3.2842612618e+000
 1.7627464006e+000	 2.0820693307e-001	 3.2420947771e+000
 1.7607433531e+000	 2.2451691349e-001	 3.1928536241e+000
 1.7585823233e+000	 2.4085932039e-001	 3.1365330586e+000
 1.7562621246e+000	 2.5723209300e-001	 3.0731443775e+000
 1.7537816018e+000	 2.7363313579e-001	 3.0027148247e+000
 1.7511396322e+000	 2.9006031889e-001	 2.9252874529e+000
 1.7483351262e+000	 3.0651147862e-001	 2.8409209400e+000
 1.7453670289e+000	 3.2298441803e-001	 2.7496893587e+000
 1.7927188355e+000	 1.6173798820e-001	 3.0129554415e+000
 1.7911606770e+000	 1.7816685777e-001	 3.0159932697e+000
 1.7894461008e+000	 1.9463466387e-001	 3.0101397727e+000
 1.7875738147e+000	 2.1113942509e-001	 2.9953577148e+000
 1.7855425553e+000	 2.2767912354e-001	 2.9716279544e+000
 1.7833510884e+000	 2.4425170518e-001	 2.9389494590e+000
 1.7809982109e+000	 2.6085508023e-001	 2.8973392743e+000
 1.7784827512e+000	 2.7748712362e-001	 2.8468324469e+000
 1.7758035707e+000	 2.9414567549e-001	 2.7874818999e+000
 1.7729595646e+000	 3.1082854170e-001	 2.7193582591e+000
 1.7699496631e+000	 3.2753349434e-001	 2.6425496303e+000
 1.8176177082e+000	 1.6398434915e-001	 2.6922457684e+000
 1.8160379086e+000	 1.8064139747e-001	 2.7264061920e+000
 1.8142995188e+000	 1.9733792309e-001	 2.7497879191e+000
 1.8124012288e+000	 2.1407191711e-001	 2.7623540375e+000
 1.8103417574e+000	 2.3084133360e-001	 2.7640877634e+000
 1.8081198535e+000	 2.4764408998e-001	 2.7549924782e+000
 1.8057342971e+000	 2.6447806745e-001	 2.7350917178e+000
 1.8031839005e+000	 2.8134111145e-001	 2.7044291109e+000
 1.8004675091e+000	 2.9823103210e-001	 2.6630682681e+000
 1.7975840030e+000	 3.1514560478e-001	 2.6110926180e+000
 1.7945322974e+000	 3.3208257065e-001	 2.5486051908e+000
 1.8425165809e+000	 1.6623071010e-001	 2.3850710914e+000
 1.8409151402e+000	 1.8311593716e-001	 2.4502949028e+000
 1.8391529369e+000	 2.0004118231e-001	 2.5028381195e+000
 1.8372286429e+000	 2.1700440913e-001	 2.5426647915e+000
 1.8351409596e+000	 2.3400354365e-001	 2.5697611723e+000
 1.8328886186e+000	 2.5103647477e-001	 2.5841357774e+000
 1.8304703834e+000	 2.6810105468e-001	 2.5858193924e+000
 1.8278850498e+000	 2.8519509928e-001	 2.5748650284e+000
 1.8251314476e+000	 3.0231638870e-001	 2.5513478224e+000
 1.8222084414e+000	 3.1946266786e-001	 2.5153648836e+000
 1.8191149316e+000	 3.3663164696e-001	 2.4670350826e+000
 1.8674154536e+000	 1.6847707105e-001	 2.0911608100e+000
 1.8657923719e+000	 1.8559047685e-001	 2.1873414165e+000
 1.8640063550e+000	 2.0274444153e-001	 2.2689234716e+000
 1.8620560570e+000	 2.1993690114e-001	 2.3358726416e+000
 1.8599401617e+000	 2.3716575370e-001	 2.3881789125e+000
 1.8576573837e+000	 2.5442885957e-001	 2.4258566717e+000
 1.8552064696e+000	 2.7172404191e-001	 2.4489447336e+000
 1.8525861991e+000	 2.8904908711e-001	 2.4575063115e+000
 1.8497953861e+000	 3.0640174531e-001	 2.4516289300e+000
 1.8468328798e+000	 3.2377973094e-001	 2.4314242797e+000
 1.8436975658e+000	 3.4118072327e-001	 2.3970280124e+000
 1.8923143264e+000	 1.7072343199e-001	 2.1693942310e+000
 1.8906696035e+000	 1.8806501655e-001	 2.2272587202e+000
 1.8888597730e+000	 2.0544770075e-001	 2.2746122519e+000
 1.8868834711e+000	 2.2286939316e-001	 2.3119355029e+000
 1.8847393639e+000	 2.4032796375e-001	 2.3396428731e+000
 1.8824261489e+000	 2.5782124437e-001	 2.3580803798e+000
 1.8799425559e+000	 2.7534702914e-001	 2.3675236533e+000
 1.8772873485e+000	 2.9290307494e-001	 2.3681760408e+000
 1.8744593246e+000	 3.1048710192e-001	 2.3632265927e+000
 1.8714573182e+000	 3.2809679402e-001	 2.3585278369e+000
 1.8682802000e+000	 3.4572979958e-001	 2.3377817147e+000
 1.9172131991e+000	 1.7296979294e-001	 2.3937363675e+000
 1.9155468351e+000	 1.9053955624e-001	 2.4271287866e+000
 1.9137131911e+000	 2.0815095998e-001	 2.4507595860e+000
 1.9117108852e+000	 2.2580188518e-001	 2.4651209640e+000
 1.9095385661e+000	 2.4349017380e-001	 2.4706357030e+000
 1.9071949140e+000	 2.6121362916e-001	 2.4676549860e+000
 1.9046786422e+000	 2.7897001637e-001	 2.4564563190e+000
 1.9019884978e+000	 2.9675706277e-001	 2.4372415668e+000
 1.8991232631e+000	 3.1457245852e-001	 2.4101351115e+000
 1.8960817566e+000	 3.3241385710e-001	 2.3751821401e+000
 1.8928628342e+000	 3.5027887589e-001	 2.3323470702e+000
 1.9421120718e+000	 1.7521615389e-001	 2.6026646006e+000
 1.9404240667e+000	 1.9301409593e-001	 2.6114042688e+000
 1.9385666092e+000	 2.1085421920e-001	 2.6112468745e+000
 1.9365382993e+000	 2.2873437719e-001	 2.6026963429e+000
 1.9343377682e+000	 2.4665238385e-001	 2.5861839027e+000
 1.9319636791e+000	 2.6460601396e-001	 2.5620658206e+000
 1.9294147284e+000	 2.8259300359e-001	 2.5306212482e+000
 1.9266896471e+000	 3.0061105060e-001	 2.4920501869e+000
 1.9237872016e+000	 3.1865781513e-001	 2.4464715815e+000
 1.9207061950e+000	 3.3673092018e-001	 2.3939215483e+000
 1.9174454684e+000	 3.5482795221e-001	 2.3343517470e+000
 1.9670109445e+000	 1.7746251484e-001	 2.7963253336e+000
 1.9653012984e+000	 1.9548863562e-001	 2.7802435745e+000
 1.9634200273e+000	 2.1355747842e-001	 2.7562457679e+000
 1.9613657134e+000	 2.3166686921e-001	 2.7248477666e+000
 1.9591369704e+000	 2.4981459391e-001	 2.6864893012e+000
 1.9567324442e+000	 2.6799839876e-001	 2.6415316311e+000
 1.9541508147e+000	 2.8621599082e-001	 2.5902553125e+000
 1.9513907964e+000	 3.0446503843e-001	 2.5328580899e+000
 1.9484511400e+000	 3.2274317174e-001	 2.4694529218e+000
 1.9453306334e+000	 3.4104798327e-001	 2.4000661473e+000
 1.9420281026e+000	 3.5937702852e-001	 2.3246358034e+000
 1.9919098172e+000	 1.7970887579e-001	 2.9748642213e+000
 1.9901785300e+000	 1.9796317532e-001	 2.9338049623e+000
 1.9882734453e+000	 2.1626073764e-001	 2.8859284048e+000
 1.9861931275e+000	 2.3459936123e-001	 2.8317625238e+000
 1.9839361725e+000	 2.5297680396e-001	 2.7717556009e+000
 1.9815012093e+000	 2.7139078356e-001	 2.7062737883e+000
 1.9788869010e+000	 2.8983897805e-001	 2.6355987945e+000
 1.9760919458e+000	 3.0831902626e-001	 2.5599257005e+000
 1.9731150785e+000	 3.2682852835e-001	 2.4793609146e+000
 1.9699550718e+000	 3.4536504635e-001	 2.3939202761e+000
 1.9666107368e+000	 3.6392610484e-001	 2.3035273147e+000
 1.7207843947e+000	 3.1843534172e-001	 2.8708556873e+000
 1.7176958094e+000	 3.3469554257e-001	 2.7905043182e+000
 1.7144439629e+000	 3.5097278822e-001	 2.7100387293e+000
 1.7110279231e+000	 3.6726481779e-001	 2.6295558278e+000
 1.7074467960e+000	 3.8356934007e-001	 2.5491604032e+000
 1.7036997268e+000	 3.9988403422e-001	 2.4689645960e+000
 1.6997859004e+000	 4.1620655053e-001	 2.3890873256e+000
 1.6957045429e+000	 4.3253451115e-001	 2.3096536775e+000
 1.6914549220e+000	 4.4886551095e-001	 2.2307942497e+000
 1.6870363485e+000	 4.6519711830e-001	 2.1526444602e+000
 1.6824481768e+000	 4.8152687598e-001	 2.0753438153e+000
 1.7453670289e+000	 3.2298441803e-001	 2.7496893587e+000
 1.7422343210e+000	 3.3947690746e-001	 2.6803346890e+000
 1.7389360195e+000	 3.5598668519e-001	 2.6094004058e+000
 1.7354711791e+000	 3.7251145804e-001	 2.5370048195e+000
 1.7318388931e+000	 3.8904890206e-001	 2.4632758814e+000
 1.7280382943e+000	 4.0559666328e-001	 2.3883506365e+000
 1.7240685561e+000	 4.2215235839e-001	 2.3123746301e+000
 1.7199288935e+000	 4.3871357559e-001	 2.2355012712e+000
 1.7156185637e+000	 4.5527787539e-001	 2.1578911518e+000
 1.7111368678e+000	 4.7184279141e-001	 2.0797113233e+000
 1.7064831508e+000	 4.8840583136e-001	 2.0011345306e+000
 1.7699496631e+000	 3.2753349434e-001	 2.6425496303e+000
 1.7667728326e+000	 3.4425827236e-001	 2.5841414011e+000
 1.7634280761e+000	 3.6100058217e-001	 2.5226756514e+000
 1.7599144352e+000	 3.7775809829e-001	 2.4582929914e+000
 1.7562309902e+000	 3.9452846406e-001	 2.3911454679e+000
 1.7523768619e+000	 4.1130929234e-001	 2.3213959980e+000
 1.7483512119e+000	 4.2809816625e-001	 2.2492177557e+000
 1.7441532441e+000	 4.4489264004e-001	 2.1747935090e+000
 1.7397822055e+000	 4.6169023983e-001	 2.0983149115e+000
 1.7352373870e+000	 4.7848846453e-001	 2.0199817463e+000
 1.7305181247e+000	 4.9528478673e-001	 1.9400011244e+000
 1.7945322974e+000	 3.3208257065e-001	 2.5486051908e+000
 1.7913113441e+000	 3.4903963725e-001	 2.5010287593e+000
 1.7879201327e+000	 3.6601447914e-001	 2.4489033268e+000
 1.7843576912e+000	 3.8300473855e-001	 2.3923927318e+000
 1.7806230873e+000	 4.0000802606e-001	 2.3316740826e+000
 1.7767154294e+000	 4.1702192139e-001	 2.2669371720e+000
 1.7726338676e+000	 4.3404397412e-001	 2.1983838403e+000
 1.7683775947e+000	 4.5107170448e-001	 2.1262272875e+000
 1.7639458472e+000	 4.6810260427e-001	 2.0506913346e+000
 1.7593379063e+000	 4.8513413765e-001	 1.9720096337e+000
 1.7545530987e+000	 5.0216374210e-001	 1.8904248299e+000
 1.8191149316e+000	 3.3663164696e-001	 2.4670350826e+000
 1.8158498557e+000	 3.5382100214e-001	 2.4301128635e+000
 1.8124121893e+000	 3.7102837612e-001	 2.3871355644e+000
 1.8088009473e+000	 3.8825137880e-001	 2.3382912132e+000
 1.8050151844e+000	 4.0548758806e-001	 2.2837829789e+000
 1.8010539969e+000	 4.2273455045e-001	 2.2238285667e+000
 1.7969165233e+000	 4.3998978198e-001	 2.1586595572e+000
 1.7926019453e+000	 4.5725076893e-001	 2.0885206918e+000
 1.7881094890e+000	 4.7451496871e-001	 2.0136691021e+000
 1.7834384256e+000	 4.9177981077e-001	 1.9343734859e+000
 1.7785880727e+000	 5.0904269747e-001	 1.8509132303e+000
 1.8436975658e+000	 3.4118072327e-001	 2.3970280124e+000
 1.8403883673e+000	 3.5860236704e-001	 2.3705208219e+000
 1.8369042460e+000	 3.7604227309e-001	 2.3364368838e+000
 1.8332442033e+000	 3.9349801906e-001	 2.2949894073e+000
 1.8294072815e+000	 4.1096715007e-001	 2.2464086541e+000
 1.8253925645e+000	 4.2844717952e-001	 2.1909413127e+000
 1.8211991790e+000	 4.4593558984e-001	 2.1288498130e+000
 1.8168262959e+000	 4.6342983337e-001	 2.0604115828e+000
 1.8122731307e+000	 4.8092733315e-001	 1.9859182455e+000
 1.8075389448e+000	 4.9842548389e-001	 1.9056747596e+000
 1.8026230466e+000	 5.1592165284e-001	 1.8199985019e+000
 1.8682802000e+000	 3.4572979958e-001	 2.3377817147e+000
 1.8649268788e+000	 3.6338373194e-001	 2.3213900269e+000
 1.8613963026e+000	 3.8105617007e-001	 2.2958833764e+000
 1.8576874594e+000	 3.9874465931e-001	 2.2615011769e+000
 1.8537993786e+000	 4.1644671207e-001	 2.2185018470e+000
 1.8497311320e+000	 4.3415980858e-001	 2.1671621629e+000
 1.8454818348e+000	 4.5188139771e-001	 2.1077765473e+000
 1.8410506465e+000	 4.6960889782e-001	 2.0406562960e+000
 1.8364367724e+000	 4.8733969760e-001	 1.9661287420e+000
 1.8316394641e+000	 5.0507115701e-001	 1.8845363577e+000
 1.8266580206e+000	 5.2280060822e-001	 1.7962357960e+000
 1.8928628342e+000	 3.5027887589e-001	 2.3323470702e+000
 1.8894653904e+000	 3.6816509683e-001	 2.3000297982e+000
 1.8858883592e+000	 3.8607006704e-001	 2.2663275328e+000
 1.8821307154e+000	 4.0399129957e-001	 2.2309653782e+000
 1.8781914757e+000	 4.2192627407e-001	 2.1935768903e+000
 1.8740696995e+000	 4.3987243764e-001	 2.1513924778e+000
 1.8697644905e+000	 4.5782720558e-001	 2.0942776275e+000
 1.8652749971e+000	 4.7578796226e-001	 2.0280284424e+000
 1.8606004142e+000	 4.9375206204e-001	 1.9530092197e+000
 1.8557399833e+000	 5.1171683013e-001	 1.8696012364e+000
 1.8506929945e+000	 5.2967956359e-001	 1.7782017473e+000
 1.9174454684e+000	 3.5482795221e-001	 2.3343517470e+000
 1.9140039020e+000	 3.7294646173e-001	 2.2844351132e+000
 1.9103804158e+000	 3.9108396402e-001	 2.2342200506e+000
 1.9065739715e+000	 4.0923793982e-001	 2.1834092281e+000
 1.9025835728e+000	 4.2740583607e-001	 2.1316096737e+000
 1.8984082670e+000	 4.4558506670e-001	 2.0783318485e+000
 1.8940471462e+000	 4.6377301344e-001	 2.0229889138e+000
 1.8894993478e+000	 4.8196702671e-001	 1.9648961966e+000
 1.8847640559e+000	 5.0016442648e-001	 1.9032708606e+000
 1.8798405026e+000	 5.1836250325e-001	 1.8372317885e+000
 1.8747279685e+000	 5.3655851896e-001	 1.7644930966e+000
 1.9420281026e+000	 3.5937702852e-001	 2.3246358034e+000
 1.9385424135e+000	 3.7772782663e-001	 2.2581013724e+000
 1.9348724724e+000	 3.9609786100e-001	 2.1924599697e+000
 1.9310172275e+000	 4.1448458008e-001	 2.1273904222e+000
 1.9269756698e+000	 4.3288539808e-001	 2.0624716618e+000
 1.9227468346e+000	 4.5129769576e-001	 1.9971817737e+000
 1.9183298019e+000	 4.6971882131e-001	 1.9308972464e+000
 1.9137236984e+000	 4.8814609116e-001	 1.8628924288e+000
 1.9089276977e+000	 5.0657679093e-001	 1.7923392014e+000
 1.9039410219e+000	 5.2500817637e-001	 1.7183068673e+000
 1.8987629424e+000	 5.4343747433e-001	 1.6397622695e+000
 1.9666107368e+000	 3.6392610484e-001	 2.3035273147e+000
 1.9630809251e+000	 3.8250919152e-001	 2.2213817510e+000
 1.9593645290e+000	 4.0111175798e-001	 2.1414269554e+000
 1.9554604835e+000	 4.1973122034e-001	 2.0633164829e+000
 1.9513677669e+000	 4.3836496008e-001	 1.9865995754e+000
 1.9470854021e+000	 4.5701032483e-001	 1.9107201842e+000
 1.9426124576e+000	 4.7566462918e-001	 1.8350162015e+000
 1.9379480490e+000	 4.9432515561e-001	 1.7587189098e+000
 1.9330913394e+000	 5.1298915537e-001	 1.6809526525e+000
 1.9280415411e+000	 5.3165384949e-001	 1.6007347350e+000
 1.9227979164e+000	 5.5031642970e-001	 1.5169755612e+000
 1.6824481768e+000	 4.8152687598e-001	 2.0753438153e+000
 1.6776898060e+000	 4.9785230211e-001	 2.0954422203e+000
 1.6727606807e+000	 5.1417089100e-001	 2.0908355165e+000
 1.6676602917e+000	 5.3048011422e-001	 2.0616971485e+000
 1.6623881771e+000	 5.4677742155e-001	 2.0082273482e+000
 1.6569439230e+000	 5.6306024200e-001	 1.9306526053e+000
 1.6513271642e+000	 5.7932598494e-001	 1.8292250794e+000
 1.6455375851e+000	 5.9557204113e-001	 1.7042219553e+000
 1.6395749202e+000	 6.1179578385e-001	 1.5559447414e+000
 1.6334389551e+000	 6.2799457010e-001	 1.3839683934e+000
 1.6271295268e+000	 6.4416574173e-001	 1.1963410838e+000
 1.7064831508e+000	 4.8840583136e-001	 2.0011345306e+000
 1.7016568033e+000	 5.0496447785e-001	 2.0279998943e+000
 1.6966572618e+000	 5.2151618944e-001	 2.0280691651e+000
 1.6914840101e+000	 5.3805840157e-001	 2.0015343659e+000
 1.6861365796e+000	 5.5458852757e-001	 1.9486165722e+000
 1.6806145504e+000	 5.7110395975e-001	 1.8695653639e+000
 1.6749175522e+000	 5.8760207045e-001	 1.7646582168e+000
 1.6690452648e+000	 6.0408021315e-001	 1.6341998312e+000
 1.6629974190e+000	 6.2053572362e-001	 1.4785214023e+000
 1.6567737973e+000	 6.3696592110e-001	 1.2983318080e+000
 1.6503742344e+000	 6.5336810947e-001	 1.1092630863e+000
 1.7305181247e+000	 4.9528478673e-001	 1.9400011244e+000
 1.7256238005e+000	 5.1207665360e-001	 1.9727797151e+000
 1.7205538430e+000	 5.2886148789e-001	 1.9766933954e+000
 1.7153077286e+000	 5.4563668892e-001	 1.9519544566e+000
 1.7098849821e+000	 5.6239963360e-001	 1.8988065211e+000
 1.7042851779e+000	 5.7914767750e-001	 1.8175239742e+000
 1.6985079403e+000	 5.9587815595e-001	 1.7084113307e+000
 1.6925529446e+000	 6.1258838517e-001	 1.5718025368e+000
 1.6864199179e+000	 6.2927566340e-001	 1.4071526367e+000
 1.6801086395e+000	 6.4593727211e-001	 1.2248971282e+000
 1.6736189419e+000	 6.6257047722e-001	 1.0347928341e+000
 1.7545530987e+000	 5.0216374210e-001	 1.8904248299e+000
 1.7495907977e+000	 5.1918882934e-001	 1.9282192221e+000
 1.7444504242e+000	 5.3620678633e-001	 1.9351003720e+000
 1.7391314470e+000	 5.5321497627e-001	 1.9113025539e+000
 1.7336333847e+000	 5.7021073962e-001	 1.8570936657e+000
 1.7279558054e+000	 5.8719139524e-001	 1.7727746391e+000
 1.7220983284e+000	 6.0415424145e-001	 1.6586787800e+000
 1.7160606244e+000	 6.2109655719e-001	 1.5151710390e+000
 1.7098424168e+000	 6.3801560317e-001	 1.3444344635e+000
 1.7034434817e+000	 6.5490862311e-001	 1.1627814377e+000
 1.6968636494e+000	 6.7177284496e-001	 9.7201982122e-001
 1.7785880727e+000	 5.0904269747e-001	 1.8509132303e+000
 1.7735577950e+000	 5.2630100509e-001	 1.8927824846e+000
 1.7683470053e+000	 5.4355208478e-001	 1.9017090564e+000
 1.7629551655e+000	 5.6079326361e-001	 1.8779509406e+000
 1.7573817872e+000	 5.7802184564e-001	 1.8218020655e+000
 1.7516264329e+000	 5.9523511299e-001	 1.7335916779e+000
 1.7456887164e+000	 6.1243032695e-001	 1.6136836541e+000
 1.7395683042e+000	 6.2960472920e-001	 1.4621819975e+000
 1.7332649156e+000	 6.4675554294e-001	 1.2918684059e+000
 1.7267783239e+000	 6.6387997412e-001	 1.1111329225e+000
 1.7201083570e+000	 6.8097521270e-001	 9.2006561147e-001
 1.8026230466e+000	 5.1592165284e-001	 1.8199985019e+000
 1.7975247922e+000	 5.3341318083e-001	 1.8649583341e+000
 1.7922435865e+000	 5.5089738322e-001	 1.8749634202e+000
 1.7867788839e+000	 5.6837155096e-001	 1.8502972392e+000
 1.7811301897e+000	 5.8583295167e-001	 1.7912815304e+000
 1.7752970603e+000	 6.0327883073e-001	 1.6982756513e+000
 1.7692791045e+000	 6.2070641246e-001	 1.5716758573e+000
 1.7630759840e+000	 6.3811290122e-001	 1.4165650003e+000
 1.7566874145e+000	 6.5549548271e-001	 1.2486559318e+000
 1.7501131661e+000	 6.7285132512e-001	 1.0691287977e+000
 1.7433530645e+000	 6.9017758044e-001	 8.7808170082e-001
 1.8266580206e+000	 5.2280060822e-001	 1.7962357960e+000
 1.8214917894e+000	 5.4052535658e-001	 1.8432587343e+000
 1.8161401676e+000	 5.5824268167e-001	 1.8533308000e+000
 1.8106026024e+000	 5.7594983831e-001	 1.8267627446e+000
 1.8048785923e+000	 5.9364405769e-001	 1.7639059257e+000
 1.7989676878e+000	 6.1132254848e-001	 1.6651516352e+000
 1.7928694926e+000	 6.2898249796e-001	 1.5316924309e+000
 1.7865836638e+000	 6.4662107324e-001	 1.3792953632e+000
 1.7801099133e+000	 6.6423542248e-001	 1.2140248617e+000
 1.7734480084e+000	 6.8182267612e-001	 1.0359733976e+000
 1.7665977720e+000	 6.9937994818e-001	 8.4524754810e-001
 1.8506929945e+000	 5.2967956359e-001	 1.7782017473e+000
 1.8454587867e+000	 5.4763753232e-001	 1.8262172796e+000
 1.8400367488e+000	 5.6558798011e-001	 1.8353003803e+000
 1.8344263209e+000	 5.8352812565e-001	 1.8057908873e+000
 1.8286269948e+000	 6.0145516371e-001	 1.7380716108e+000
 1.8226383153e+000	 6.1936626622e-001	 1.6325676288e+000
 1.8164598806e+000	 6.3725858345e-001	 1.4980543836e+000
 1.8100913436e+000	 6.5512924526e-001	 1.3496469946e+000
 1.8035324122e+000	 6.7297536225e-001	 1.1872276576e+000
 1.7967828506e+000	 6.9079402712e-001	 1.0108964143e+000
 1.7898424795e+000	 7.0858231592e-001	 8.2076875917e-001
 1.8747279685e+000	 5.3655851896e-001	 1.7644930966e+000
 1.8694257839e+000	 5.5474970807e-001	 1.8123878085e+000
 1.8639333299e+000	 5.7293327855e-001	 1.8193817926e+000
 1.8582500393e+000	 5.9110641300e-001	 1.7858458140e+000
 1.8523753973e+000	 6.0926626974e-001	 1.7121959966e+000
 1.8463089428e+000	 6.2740998396e-001	 1.6002172648e+000
 1.8400502687e+000	 6.4553466895e-001	 1.4711724550e+000
 1.8335990234e+000	 6.6363741727e-001	 1.3269162617e+000
 1.8269549111e+000	 6.8171530202e-001	 1.1675398435e+000
 1.8201176928e+000	 6.9976537812e-001	 9.9315127291e-001
 1.8130871871e+000	 7.1778468366e-001	 8.0387541089e-001
 1.8987629424e+000	 5.4343747433e-001	 1.6397622695e+000
 1.8933927811e+000	 5.6186188381e-001	 1.7115510389e+000
 1.8878299111e+000	 5.8027857699e-001	 1.7431633897e+000
 1.8820737578e+000	 5.9868470035e-001	 1.7331310153e+000
 1.8761237999e+000	 6.1707737576e-001	 1.6799191336e+000
 1.8699795702e+000	 6.3545370170e-001	 1.5740478937e+000
 1.8636406567e+000	 6.5381075445e-001	 1.4503831295e+000
 1.8571067031e+000	 6.7214558929e-001	 1.3104205690e+000
 1.8503774099e+000	 6.9045524179e-001	 1.1542585454e+000
 1.8434525350e+000	 7.0873672912e-001	 9.8201362894e-001
 1.8363318946e+000	 7.2698705140e-001	 7.9382050229e-001
 1.9227979164e+000	 5.5031642970e-001	 1.5169755612e+000
 1.9173597783e+000	 5.6897405956e-001	 1.5881559137e+000
 1.9117264922e+000	 5.8762387544e-001	 1.6192749628e+000
 1.9058974762e+000	 6.0626298769e-001	 1.6087793365e+000
 1.8998722024e+000	 6.2488848178e-001	 1.5550456800e+000
 1.8936501977e+000	 6.4349741945e-001	 1.4864053904e+000
 1.8872310448e+000	 6.6208683995e-001	 1.3959453398e+000
 1.8806143829e+000	 6.8065376130e-001	 1.2836508406e+000
 1.8737999088e+000	 6.9919518155e-001	 1.1467011417e+000
 1.8667873772e+000	 7.1770808012e-001	 9.7677997909e-001
 1.8595766021e+000	 7.3618941913e-001	 7.8987852195e-001
 1.6271295268e+000	 6.4416574173e-001	 1.1963410838e+000
 1.6206465249e+000	 6.6030662669e-001	 1.1706733185e+000
 1.6139898915e+000	 6.7641454021e-001	 1.1320678588e+000
 1.6071596221e+000	 6.9248678611e-001	 1.0804685459e+000
 1.6001557665e+000	 7.0852065808e-001	 1.0158329000e+000
 1.5929784285e+000	 7.2451344093e-001	 9.3813214301e-001
 1.5856277673e+000	 7.4046241198e-001	 8.4735120013e-001
 1.5781039969e+000	 7.5636484241e-001	 7.4348868201e-001
 1.5704073875e+000	 7.7221799855e-001	 6.2655684572e-001
 1.5625382650e+000	 7.8801914338e-001	 4.9658153564e-001
 1.5544970119e+000	 8.0376553783e-001	 3.5360210416e-001
 1.6503742344e+000	 6.5336810947e-001	 1.1092630863e+000
 1.6437986181e+000	 6.6973957850e-001	 1.0787098013e+000
 1.6370468899e+000	 6.8607760507e-001	 1.0369724399e+000
 1.6301190453e+000	 7.0237945449e-001	 9.8401495662e-001
 1.6230151346e+000	 7.1864238176e-001	 9.1981375859e-001
 1.6157352632e+000	 7.3486363294e-001	 8.4435768393e-001
 1.6082795925e+000	 7.5104044644e-001	 7.5764796121e-001
 1.6006483397e+000	 7.6717005444e-001	 6.5969814924e-001
 1.5928417787e+000	 7.8324968425e-001	 5.5053405752e-001
 1.5848602402e+000	 7.9927655972e-001	 4.3019364745e-001
 1.5767041121e+000	 8.1524790266e-001	 2.9872691474e-001
 1.6736189419e+000	 6.6257047722e-001	 1.0347928341e+000
 1.6669507113e+000	 6.7917253031e-001	 9.9952131252e-001
 1.6601038884e+000	 6.9574066993e-001	 9.5477370060e-001
 1.6530784685e+000	 7.1227212286e-001	 9.0053407183e-001
 1.6458745027e+000	 7.2876410545e-001	 8.3679775446e-001
 1.6384920979e+000	 7.4521382496e-001	 7.6357126678e-001
 1.6309314178e+000	 7.6161848090e-001	 6.8087223347e-001
 1.6231926825e+000	 7.7797526648e-001	 5.8872928347e-001
 1.6152761700e+000	 7.9428136994e-001	 4.8718192957e-001
 1.6071822154e+000	 8.1053397605e-001	 3.7628042984e-001
 1.5989112123e+000	 8.2673026749e-001	 2.5608563143e-001
 1.6968636494e+000	 6.7177284496e-001	 9.7201982122e-001
 1.6901028046e+000	 6.8860548212e-001	 9.3217957903e-001
 1.6831608868e+000	 7.0540373479e-001	 8.8452751871e-001
 1.6760378917e+000	 7.2216479124e-001	 8.2906786103e-001
 1.6687338708e+000	 7.3888582914e-001	 7.6581491242e-001
 1.6612489326e+000	 7.5556401697e-001	 6.9479295635e-001
 1.6535832430e+000	 7.7219651536e-001	 6.1603612679e-001
 1.6457370254e+000	 7.8878047852e-001	 5.2958826401e-001
 1.6377105612e+000	 8.0531305564e-001	 4.3550275309e-001
 1.6295041906e+000	 8.2179139239e-001	 3.3384234536e-001
 1.6211183125e+000	 8.3821263232e-001	 2.2467896341e-001
 1.7201083570e+000	 6.8097521270e-001	 9.2006561147e-001
 1.7132548978e+000	 6.9803843393e-001	 8.7578883504e-001
 1.7062178853e+000	 7.1506679966e-001	 8.2532261376e-001
 1.6989973148e+000	 7.3205745961e-001	 7.6869136692e-001
 1.6915932389e+000	 7.4900755283e-001	 7.0592845761e-001
 1.6840057673e+000	 7.6591420899e-001	 6.3707604028e-001
 1.6762350683e+000	 7.8277454982e-001	 5.6218489110e-001
 1.6682813682e+000	 7.9958569055e-001	 4.8131422158e-001
 1.6601449525e+000	 8.1634474134e-001	 3.9453147571e-001
 1.6518261659e+000	 8.3304880872e-001	 3.0191211131e-001
 1.6433254126e+000	 8.4969499715e-001	 2.0353936585e-001
 1.7433530645e+000	 6.9017758044e-001	 8.7808170082e-001
 1.7364069910e+000	 7.0747138575e-001	 8.2948365486e-001
 1.7292748837e+000	 7.2472986452e-001	 7.7627835782e-001
 1.7219567380e+000	 7.4195012799e-001	 7.1851050052e-001
 1.7144526070e+000	 7.5912927652e-001	 6.5623260223e-001
 1.7067626020e+000	 7.7626440100e-001	 5.8950481424e-001
 1.6988868935e+000	 7.9335258428e-001	 5.1839470706e-001
 1.6908257110e+000	 8.1039090259e-001	 4.4297704150e-001
 1.6825793437e+000	 8.2737642703e-001	 3.6333352440e-001
 1.6741481411e+000	 8.4430622506e-001	 2.7955254941e-001
 1.6655325128e+000	 8.6117736198e-001	 1.9172892354e-001
 1.7665977720e+000	 6.9937994818e-001	 8.4524754810e-001
 1.7595590842e+000	 7.1690433756e-001	 7.9242695692e-001
 1.7523318822e+000	 7.3439292938e-001	 7.3654275881e-001
 1.7449161612e+000	 7.5184279636e-001	 6.7766001034e-001
 1.7373119751e+000	 7.6925100021e-001	 6.1585050686e-001
 1.7295194367e+000	 7.8661459301e-001	 5.5119254194e-001
 1.7215387188e+000	 8.0393061874e-001	 4.8377065113e-001
 1.7133700538e+000	 8.2119611462e-001	 4.1367534042e-001
 1.7050137350e+000	 8.3840811273e-001	 3.4100280019e-001
 1.6964701163e+000	 8.5556364139e-001	 2.6585460524e-001
 1.6877396130e+000	 8.7265972680e-001	 1.8833740154e-001
 1.7898424795e+000	 7.0858231592e-001	 8.2076875917e-001
 1.7827111774e+000	 7.2633728937e-001	 7.6380816315e-001
 1.7753888806e+000	 7.4405599424e-001	 7.0529060100e-001
 1.7678755844e+000	 7.6173546473e-001	 6.4530160984e-001
 1.7601713431e+000	 7.7937272389e-001	 5.8393240076e-001
 1.7522762714e+000	 7.9696478503e-001	 5.2127957404e-001
 1.7441905440e+000	 8.1450865319e-001	 4.5744481920e-001
 1.7359143966e+000	 8.3200132666e-001	 3.9253460060e-001
 1.7274481262e+000	 8.4943979842e-001	 3.2665982931e-001
 1.7187920915e+000	 8.6682105773e-001	 2.5993552202e-001
 1.7099467131e+000	 8.8414209163e-001	 1.9248044777e-001
 1.8130871871e+000	 7.1778468366e-001	 8.0387541089e-001
 1.8058632706e+000	 7.3577024118e-001	 7.4284150011e-001
 1.7984458791e+000	 7.5371905910e-001	 6.8172172864e-001
 1.7908350075e+000	 7.7162813311e-001	 6.2062224889e-001
 1.7830307112e+000	 7.8949444758e-001	 5.5965384666e-001
 1.7750331061e+000	 8.0731497704e-001	 4.9893161185e-001
 1.7668423693e+000	 8.2508668765e-001	 4.3857459463e-001
 1.7584587394e+000	 8.4280653869e-001	 3.7870544779e-001
 1.7498825175e+000	 8.6047148411e-001	 3.1945005634e-001
 1.7411140667e+000	 8.7807847406e-001	 2.6093715486e-001
 1.7321538133e+000	 8.9562445646e-001	 2.0329793387e-001
 1.8363318946e+000	 7.2698705140e-001	 7.9382050229e-001
 1.8290153638e+000	 7.4520319299e-001	 7.2876442906e-001
 1.8215028775e+000	 7.6338212396e-001	 6.6505945984e-001
 1.8137944307e+000	 7.8152080148e-001	 6.0283251653e-001
 1.8058900793e+000	 7.9961617127e-001	 5.4221413737e-001
 1.7977899408e+000	 8.1766516906e-001	 4.8333810284e-001
 1.7894941945e+000	 8.3566472211e-001	 4.2634104770e-001
 1.7810030823e+000	 8.5361175073e-001	 3.7136205985e-001
 1.7723169087e+000	 8.7150316981e-001	 3.1854226717e-001
 1.7634360419e+000	 8.8933589040e-001	 2.6802441308e-001
 1.7543609135e+000	 9.0710682128e-001	 2.1995242201e-001
 1.8595766021e+000	 7.3618941913e-001	 7.8987852195e-001
 1.8521674571e+000	 7.5463614479e-001	 7.2083619376e-001
 1.8445598760e+000	 7.7304518882e-001	 6.5454911945e-001
 1.8367538539e+000	 7.9141346985e-001	 5.9116516354e-001
 1.8287494474e+000	 8.0973789495e-001	 5.3083481267e-001
 1.8205467755e+000	 8.2801536107e-001	 4.7371075651e-001
 1.8121460198e+000	 8.4624275656e-001	 4.1994745526e-001
 1.8035474251e+000	 8.6441696276e-001	 3.6970069475e-001
 1.7947513000e+000	 8.8253485550e-001	 3.2312713013e-001
 1.7857580172e+000	 9.0059330673e-001	 2.8038381926e-001
 1.7765680137e+000	 9.1858918611e-001	 2.4162774679e-001
 1.5544970119e+000	 8.0376553783e-001	 3.5360210416e-001
 1.5462840674e+000	 8.1945444228e-001	 2.4875961857e-001
 1.5378999272e+000	 8.3508311794e-001	 1.4705790769e-001
 1.5293451444e+000	 8.5064882832e-001	 4.8456094840e-002
 1.5206203292e+000	 8.6614884069e-001	-4.7089996603e-002
 1.5117261490e+000	 8.8158042754e-001	-1.3962804105e-001
 1.5026633286e+000	 8.9694086807e-001	-2.2920940551e-001
 1.4934326500e+000	 9.1222744964e-001	-3.1588934059e-001
 1.4840349526e+000	 9.2743746930e-001	-3.9972716711e-001
 1.4744711329e+000	 9.4256823526e-001	-4.8078645732e-001
 1.4647421446e+000	 9.5761706841e-001	-5.5913521027e-001
 1.5767041121e+000	 8.1524790266e-001	 2.9872691474e-001
 1.5683738397e+000	 8.3116093432e-001	 1.9809545888e-001
 1.5598699262e+000	 8.4701287677e-001	 1.0004399602e-001
 1.5511929322e+000	 8.6280095444e-001	 4.5156714746e-003
 1.5423434768e+000	 8.7852239556e-001	-8.8549281590e-002
 1.5333222369e+000	 8.9417443366e-001	-1.7921372968e-001
 1.5241299476e+000	 9.0975430904e-001	-2.6754382391e-001
 1.5147674021e+000	 9.2525927035e-001	-3.5360918159e-001
 1.5052354519e+000	 9.4068657601e-001	-4.3748306363e-001
 1.4955350063e+000	 9.5603349577e-001	-5.1924254727e-001
 1.4856670324e+000	 9.7129731225e-001	-5.9896869298e-001
 1.5989112123e+000	 8.2673026749e-001	 2.5608563143e-001
 1.5904636121e+000	 8.4286742635e-001	 1.5885800722e-001
 1.5818399251e+000	 8.5894263560e-001	 6.3672190966e-002
 1.5730407200e+000	 8.7495308057e-001	-2.9543845011e-002
 1.5640666244e+000	 8.9089595043e-001	-1.2086466429e-001
 1.5549183247e+000	 9.0676843977e-001	-2.1036754480e-001
 1.5455965666e+000	 9.2256775002e-001	-2.9813265498e-001
 1.5361021543e+000	 9.3829109106e-001	-3.8424322705e-001
 1.5264359512e+000	 9.5393568271e-001	-4.6878572649e-001
 1.5165988796e+000	 9.6949875628e-001	-5.5185001711e-001
 1.5065919202e+000	 9.8497755608e-001	-6.3352952088e-001
 1.6211183125e+000	 8.3821263232e-001	 2.2467896341e-001
 1.6125533845e+000	 8.5457391839e-001	 1.3007175707e-001
 1.6038099241e+000	 8.7087239443e-001	 3.6990125442e-002
 1.5948885078e+000	 8.8710520669e-001	-5.4652335997e-002
 1.5857897719e+000	 9.0326950530e-001	-1.4494420277e-001
 1.5765144126e+000	 9.1936244588e-001	-2.3397639183e-001
 1.5670631856e+000	 9.3538119099e-001	-3.2184233016e-001
 1.5574369064e+000	 9.5132291177e-001	-4.0863812078e-001
 1.5476364506e+000	 9.6718478942e-001	-4.9446270542e-001
 1.5376627529e+000	 9.8296401678e-001	-5.7941802314e-001
 1.5275168080e+000	 9.9865779992e-001	-6.6360916404e-001
 1.6433254126e+000	 8.4969499715e-001	 2.0353936585e-001
 1.6346431569e+000	 8.6628041042e-001	 1.1079117246e-001
 1.6257799230e+000	 8.8280215326e-001	 1.9073668549e-002
 1.6167362956e+000	 8.9925733281e-001	-7.1713139083e-002
 1.6075129195e+000	 9.1564306017e-001	-1.6167106073e-001
 1.5981105004e+000	 9.3195645199e-001	-2.5090388736e-001
 1.5885298045e+000	 9.4819463197e-001	-3.3951755272e-001
 1.5787716586e+000	 9.6435473249e-001	-4.2762029328e-001
 1.5688369499e+000	 9.8043389613e-001	-5.1532280516e-001
 1.5587266262e+000	 9.9642927729e-001	-6.0273839738e-001
 1.5484416958e+000	 1.0123380438e+000	-6.8998314065e-001
 1.6655325128e+000	 8.6117736198e-001	 1.9172892354e-001
 1.6567329293e+000	 8.7798690246e-001	 1.0009868999e-001
 1.6477499220e+000	 8.9473191209e-001	 9.0250431626e-003
 1.6385840833e+000	 9.1140945893e-001	-8.1604817682e-002
 1.6292360671e+000	 9.2801661504e-001	-1.7190516719e-001
 1.6197065883e+000	 9.4455045810e-001	-2.6199191177e-001
 1.6099964235e+000	 9.6100807294e-001	-3.5198274635e-001
 1.6001064107e+000	 9.7738655320e-001	-4.4199730938e-001
 1.5900374492e+000	 9.9368300283e-001	-5.3215733508e-001
 1.5797904996e+000	 1.0098945378e+000	-6.2258680253e-001
 1.5693665835e+000	 1.0260182876e+000	-7.1341208046e-001
 1.6877396130e+000	 8.7265972680e-001	 1.8833740154e-001
 1.6788227017e+000	 8.8969339449e-001	 9.7102878506e-002
 1.6697199210e+000	 9.0666167092e-001	 5.9710921314e-003
 1.6604318711e+000	 9.2356158505e-001	-8.5182790890e-002
 1.6509592146e+000	 9.4039016991e-001	-1.7648474503e-001
 1.6413026761e+000	 9.5714446421e-001	-2.6806203919e-001
 1.6314630425e+000	 9.7382151392e-001	-3.6004338928e-001
 1.6214411629e+000	 9.9041837391e-001	-4.5255910932e-001
 1.6112379485e+000	 1.0069321095e+000	-5.4574126024e-001
 1.6008543729e+000	 1.0233597983e+000	-6.3972379574e-001
 1.5902914713e+000	 1.0396985314e+000	-7.3464270433e-001
 1.7099467131e+000	 8.8414209163e-001	 1.9248044777e-001
 1.7009124741e+000	 9.0139988653e-001	 1.0093674222e-001
 1.6916899199e+000	 9.1859142975e-001	 9.0616795771e-003
 1.6822796589e+000	 9.3571371117e-001	-8.3280836374e-002
 1.6726823622e+000	 9.5276372478e-001	-1.7622772050e-001
 1.6628987640e+000	 9.6973847032e-001	-2.6991685613e-001
 1.6529296615e+000	 9.8663495489e-001	-3.6448724454e-001
 1.6427759150e+000	 1.0034501946e+000	-4.6007915329e-001
 1.6324384478e+000	 1.0201812162e+000	-5.5683426266e-001
 1.6219182462e+000	 1.0368250588e+000	-6.5489580946e-001
 1.6112163591e+000	 1.0533787753e+000	-7.5440872733e-001
 1.7321538133e+000	 8.9562445646e-001	 2.0329793387e-001
 1.7230022465e+000	 9.1310637856e-001	 1.1075615432e-001
 1.7136599189e+000	 9.3052118858e-001	 1.7468215172e-002
 1.7041274467e+000	 9.4786583729e-001	-7.6712477638e-002
 1.6944055097e+000	 9.6513727965e-001	-1.7193302431e-001
 1.6844948518e+000	 9.8233247643e-001	-2.6834117864e-001
 1.6743962805e+000	 9.9944839587e-001	-3.6608549555e-001
 1.6641106671e+000	 1.0164820153e+000	-4.6531547776e-001
 1.6536389472e+000	 1.0334303230e+000	-5.6618172103e-001
 1.6429821195e+000	 1.0502903193e+000	-6.6883605693e-001
 1.6321412469e+000	 1.0670590191e+000	-7.7343169251e-001
 1.7543609135e+000	 9.0710682128e-001	 2.1995242201e-001
 1.7450920189e+000	 9.2481287059e-001	 1.2573840957e-001
 1.7356299178e+000	 9.4245094741e-001	 3.0382290497e-002
 1.7259752344e+000	 9.6001796341e-001	-6.6272265930e-002
 1.7161286573e+000	 9.7751083451e-001	-1.6438179383e-001
 1.7060909396e+000	 9.9492648253e-001	-2.6410317698e-001
 1.6958628994e+000	 1.0122618368e+000	-3.6559379542e-001
 1.6854454193e+000	 1.0295138360e+000	-4.6901167173e-001
 1.6748394465e+000	 1.0466794297e+000	-5.7451561599e-001
 1.6640459929e+000	 1.0637555798e+000	-6.8226536879e-001
 1.6530661346e+000	 1.0807392629e+000	-7.9242174127e-001
 1.7765680137e+000	 9.1858918611e-001	 2.4162774679e-001
 1.7671817913e+000	 9.3651936262e-001	 1.4508088546e-001
 1.7575999168e+000	 9.5438070623e-001	 4.7014417671e-002
 1.7478230222e+000	 9.7217008953e-001	-5.2736966015e-002
 1.7378518049e+000	 9.8988438938e-001	-1.5433848524e-001
 1.7276870275e+000	 1.0075204886e+000	-2.5795541602e-001
 1.7173295184e+000	 1.0250752778e+000	-3.6375323768e-001
 1.7067801714e+000	 1.0425456567e+000	-4.7189777965e-001
 1.6960399458e+000	 1.0599285364e+000	-5.8255536748e-001
 1.6851098662e+000	 1.0772208403e+000	-6.9589296699e-001
 1.6739910224e+000	 1.0944195068e+000	-8.1207832592e-001
 1.4647421446e+000	 9.5761706841e-001	-5.5913521027e-001
 1.4548489982e+000	 9.7258130376e-001	-6.2508755319e-001
 1.4447927608e+000	 9.8745829198e-001	-6.9269312429e-001
 1.4345745559e+000	 1.0022454009e+000	-7.6219374452e-001
 1.4241955631e+000	 1.0169400169e+000	-8.3383305972e-001
 1.4136570177e+000	 1.0315395467e+000	-9.0785648838e-001
 1.4029602102e+000	 1.0460414182e+000	-9.8451116236e-001
 1.3921064861e+000	 1.0604430826e+000	-1.0640458603e+000
 1.3810972449e+000	 1.0747420157e+000	-1.1467109333e+000
 1.3699339401e+000	 1.0889357189e+000	-1.2327582227e+000
 1.3586180783e+000	 1.1030217212e+000	-1.3224409698e+000
 1.4856670324e+000	 9.7129731225e-001	-5.9896869298e-001
 1.4756325553e+000	 9.8647532238e-001	-6.7196466132e-001
 1.4654326574e+000	 1.0015648390e+000	-7.4607402313e-001
 1.4550684781e+000	 1.0165631923e+000	-8.2149595664e-001
 1.4445412140e+000	 1.0314677315e+000	-8.9843187243e-001
 1.4338521179e+000	 1.0462758259e+000	-9.7708541701e-001
 1.4230024989e+000	 1.0609848670e+000	-1.0576624690e+000
 1.4119937216e+000	 1.0755922695e+000	-1.1403711276e+000
 1.4008272055e+000	 1.0900954730e+000	-1.2254216920e+000
 1.3895044249e+000	 1.1044919435e+000	-1.3130266332e+000
 1.3780269080e+000	 1.1187791744e+000	-1.4034005562e+000
 1.5065919202e+000	 9.8497755608e-001	-6.3352952088e-001
 1.4964161124e+000	 1.0003693410e+000	-7.1181006471e-001
 1.4860725539e+000	 1.0156713860e+000	-7.9066603425e-001
 1.4755624003e+000	 1.0308809838e+000	-8.7025450269e-001
 1.4648868649e+000	 1.0459954460e+000	-9.5073518980e-001
 1.4540472182e+000	 1.0610121051e+000	-1.0322705212e+000
 1.4430447877e+000	 1.0759283158e+000	-1.1150256799e+000
 1.4318809571e+000	 1.0907414564e+000	-1.1991686491e+000
 1.4205571661e+000	 1.1054489304e+000	-1.2848702465e+000
 1.4090749098e+000	 1.1200481680e+000	-1.3723041484e+000
 1.3974357376e+000	 1.1345366275e+000	-1.4616469051e+000
 1.5275168080e+000	 9.9865779992e-001	-6.6360916404e-001
 1.5171996695e+000	 1.0142633596e+000	-7.4549301496e-001
 1.5067124505e+000	 1.0297779331e+000	-8.2741560101e-001
 1.4960563226e+000	 1.0451987752e+000	-9.0949238536e-001
 1.4852325158e+000	 1.0605231605e+000	-9.9184189893e-001
 1.4742423185e+000	 1.0757483844e+000	-1.0745858554e+000
 1.4630870764e+000	 1.0908717647e+000	-1.1578492578e+000
 1.4517681926e+000	 1.1058906433e+000	-1.2417604962e+000
 1.4402871268e+000	 1.1208023878e+000	-1.3264514354e+000
 1.4286453946e+000	 1.1356043926e+000	-1.4120574931e+000
 1.4168445673e+000	 1.1502940807e+000	-1.4987177061e+000
 1.5484416958e+000	 1.0123380438e+000	-6.8998314065e-001
 1.5379832267e+000	 1.0281573783e+000	-7.7386301314e-001
 1.5273523471e+000	 1.0438844801e+000	-8.5724563852e-001
 1.5165502448e+000	 1.0595165667e+000	-9.4020532396e-001
 1.5055781667e+000	 1.0750508751e+000	-1.0228198730e+000
 1.4944374187e+000	 1.0904846636e+000	-1.1051707559e+000
 1.4831293651e+000	 1.1058152135e+000	-1.1873432717e+000
 1.4716554281e+000	 1.1210398302e+000	-1.2694267002e+000
 1.4600170874e+000	 1.1361558451e+000	-1.3515144436e+000
 1.4482158795e+000	 1.1511606171e+000	-1.4337041575e+000
 1.4362533970e+000	 1.1660515338e+000	-1.5160978696e+000
 1.5693665835e+000	 1.0260182876e+000	-7.1341208046e-001
 1.5587667838e+000	 1.0420513969e+000	-7.9775112655e-001
 1.5479922437e+000	 1.0579910271e+000	-8.8105710214e-001
 1.5370441670e+000	 1.0738343581e+000	-9.6336357334e-001
 1.5259238176e+000	 1.0895785896e+000	-1.0447080387e+000
 1.5146325190e+000	 1.1052209428e+000	-1.1251321554e+000
 1.5031716538e+000	 1.1207586623e+000	-1.2046819560e+000
 1.4915426636e+000	 1.1361890171e+000	-1.2834080552e+000
 1.4797470481e+000	 1.1515093025e+000	-1.3613658453e+000
 1.4677863643e+000	 1.1667168417e+000	-1.4386156800e+000
 1.4556622267e+000	 1.1818089870e+000	-1.5152230455e+000
 1.5902914713e+000	 1.0396985314e+000	-7.3464270433e-001
 1.5795503409e+000	 1.0559454155e+000	-8.1797120141e-001
 1.5686321403e+000	 1.0720975742e+000	-8.9973043223e-001
 1.5575380892e+000	 1.0881521496e+000	-9.7991359916e-001
 1.5462694685e+000	 1.1041063041e+000	-1.0585182810e+000
 1.5348276192e+000	 1.1199572221e+000	-1.1355467149e+000
 1.5232139425e+000	 1.1357021112e+000	-1.2110060681e+000
 1.5114298991e+000	 1.1513382040e+000	-1.2849086993e+000
 1.4994770087e+000	 1.1668627599e+000	-1.3572724077e+000
 1.4873568492e+000	 1.1822730662e+000	-1.4281206701e+000
 1.4750710564e+000	 1.1975664402e+000	-1.4974828635e+000
 1.6112163591e+000	 1.0533787753e+000	-7.5440872733e-001
 1.6003338980e+000	 1.0698394341e+000	-8.3532098118e-001
 1.5892720368e+000	 1.0862041212e+000	-9.1412688629e-001
 1.5780320114e+000	 1.1024699410e+000	-9.9077962262e-001
 1.5666151194e+000	 1.1186340186e+000	-1.0652371988e+000
 1.5550227194e+000	 1.1346935013e+000	-1.1374627895e+000
 1.5432562312e+000	 1.1506455600e+000	-1.2074250627e+000
 1.5313171347e+000	 1.1664873909e+000	-1.2750984952e+000
 1.5192069693e+000	 1.1822162172e+000	-1.3404636761e+000
 1.5069273341e+000	 1.1978292908e+000	-1.4035075959e+000
 1.4944798861e+000	 1.2133238933e+000	-1.4642239220e+000
 1.6321412469e+000	 1.0670590191e+000	-7.7343169251e-001
 1.6211174551e+000	 1.0837334528e+000	-8.5058313873e-001
 1.6099119334e+000	 1.1003106682e+000	-9.2508976862e-001
 1.5985259337e+000	 1.1167877324e+000	-9.9686504645e-001
 1.5869607703e+000	 1.1331617332e+000	-1.0658277257e+000
 1.5752178197e+000	 1.1494297806e+000	-1.1319022424e+000
 1.5632985200e+000	 1.1655890088e+000	-1.1950190975e+000
 1.5512043702e+000	 1.1816365778e+000	-1.2551152269e+000
 1.5389369300e+000	 1.1975696746e+000	-1.3121343591e+000
 1.5264978189e+000	 1.2133855153e+000	-1.3660273573e+000
 1.5138887158e+000	 1.2290813465e+000	-1.4167525463e+000
 1.6530661346e+000	 1.0807392629e+000	-7.9242174127e-001
 1.6419010122e+000	 1.0976274714e+000	-8.6452623021e-001
 1.6305518300e+000	 1.1144172153e+000	-9.3344556660e-001
 1.6190198559e+000	 1.1311055239e+000	-9.9905377247e-001
 1.6073064212e+000	 1.1476894477e+000	-1.0612306283e+000
 1.5954129199e+000	 1.1641660598e+000	-1.1198621223e+000
 1.5833408087e+000	 1.1805324577e+000	-1.1748408883e+000
 1.5710916057e+000	 1.1967857647e+000	-1.2260666304e+000
 1.5586668906e+000	 1.2129231320e+000	-1.2734465346e+000
 1.5460683038e+000	 1.2289417399e+000	-1.3168956639e+000
 1.5332975455e+000	 1.2448387997e+000	-1.3563373374e+000
 1.6739910224e+000	 1.0944195068e+000	-8.1207832592e-001
 1.6626845693e+000	 1.1115214900e+000	-8.7790557733e-001
 1.6511917266e+000	 1.1285237623e+000	-9.4000500177e-001
 1.6395137781e+000	 1.1454233153e+000	-9.9821142043e-001
 1.6276520721e+000	 1.1622171622e+000	-1.0523658911e+000
 1.6156080202e+000	 1.1789023391e+000	-1.1023162138e+000
 1.6033830974e+000	 1.1954759065e+000	-1.1479174237e+000
 1.5909788412e+000	 1.2119349516e+000	-1.1890322715e+000
 1.5783968513e+000	 1.2282765894e+000	-1.2255316882e+000
 1.5656387886e+000	 1.2444979645e+000	-1.2572952342e+000
 1.5527063751e+000	 1.2605962528e+000	-1.3950564565e+000
 1.3586180783e+000	 1.1030217212e+000	-1.3224409698e+000
 1.3471512186e+000	 1.1169975803e+000	-1.3873843457e+000
 1.3355349719e+000	 1.1308608840e+000	-1.4536916259e+000
 1.3237710003e+000	 1.1446092516e+000	-1.5209615342e+000
 1.3118610162e+000	 1.1582403353e+000	-1.5887955762e+000
 1.2998067814e+000	 1.1717518215e+000	-1.6567986159e+000
 1.2876101065e+000	 1.1851414320e+000	-1.7245794430e+000
 1.2752728496e+000	 1.1984069255e+000	-1.7917513272e+000
 1.2627969161e+000	 1.2115460986e+000	-1.8579325604e+000
 1.2501842566e+000	 1.2245567870e+000	-1.9227469848e+000
 1.2374368671e+000	 1.2374368671e+000	-1.8582183275e+000
 1.3780269080e+000	 1.1187791744e+000	-1.4034005562e+000
 1.3663962360e+000	 1.1329546886e+000	-1.4410054723e+000
 1.3546140429e+000	 1.1470160395e+000	-1.4795448597e+000
 1.3426820146e+000	 1.1609608123e+000	-1.5186732968e+000
 1.3306018879e+000	 1.1747866258e+000	-1.5580487858e+000
 1.3183754497e+000	 1.1884911332e+000	-1.5973332799e+000
 1.3060045366e+000	 1.2020720239e+000	-1.6361931984e+000
 1.2934910332e+000	 1.2155270244e+000	-1.6742999299e+000
 1.2808368720e+000	 1.2288539000e+000	-1.7113303196e+000
 1.2680440317e+000	 1.2420504554e+000	-1.7469671432e+000
 1.2551145366e+000	 1.2551145366e+000	-1.8261905535e+000
 1.3974357376e+000	 1.1345366275e+000	-1.4616469051e+000
 1.3856412534e+000	 1.1489117969e+000	-1.4743570873e+000
 1.3736931140e+000	 1.1631711949e+000	-1.4875679823e+000
 1.3615930289e+000	 1.1773123730e+000	-1.5009886080e+000
 1.3493427595e+000	 1.1913329163e+000	-1.5143320582e+000
 1.3369441180e+000	 1.2052304449e+000	-1.5273159808e+000
 1.3243989666e+000	 1.2190026158e+000	-1.5396630439e+000
 1.3117092168e+000	 1.2326471234e+000	-1.5511013867e+000
 1.2988768279e+000	 1.2461617014e+000	-1.5613650562e+000
 1.2859038068e+000	 1.2595441238e+000	-1.6579228718e+000
 1.2727922062e+000	 1.2727922062e+000	-1.7852104321e+000
 1.4168445673e+000	 1.1502940807e+000	-1.4987177061e+000
 1.4048862708e+000	 1.1648689052e+000	-1.4888759618e+000
 1.3927721850e+000	 1.1793263504e+000	-1.4790963344e+000
 1.3805040432e+000	 1.1936639338e+000	-1.4691409114e+000
 1.3680836312e+000	 1.2078792068e+000	-1.4587765181e+000
 1.3555127863e+000	 1.2219697567e+000	-1.4477751491e+000
 1.3427933967e+000	 1.2359332077e+000	-1.4359143855e+000
 1.3299274003e+000	 1.2497672223e+000	-1.4229777970e+000
 1.3169167839e+000	 1.2634695028e+000	-1.5366066630e+000
 1.3037635819e+000	 1.2770377922e+000	-1.6481535489e+000
 1.2904698757e+000	 1.2904698757e+000	-1.7549140674e+000
 1.4362533970e+000	 1.1660515338e+000	-1.5160978696e+000
 1.4241312882e+000	 1.1808260135e+000	-1.4859518191e+000
 1.4118512560e+000	 1.1954815059e+000	-1.4554239530e+000
 1.3994150575e+000	 1.2100154945e+000	-1.4243281006e+000
 1.3868245028e+000	 1.2244254973e+000	-1.3924835014e+000
 1.3740814546e+000	 1.2387090684e+000	-1.3597151912e+000
 1.3611878268e+000	 1.2528637995e+000	-1.3538897285e+000
 1.3481455839e+000	 1.2668873212e+000	-1.4554703629e+000
 1.3349567398e+000	 1.2807773042e+000	-1.5531585299e+000
 1.3216233570e+000	 1.2945314606e+000	-1.6465100566e+000
 1.3081475452e+000	 1.3081475452e+000	-1.7350834222e+000
 1.4556622267e+000	 1.1818089870e+000	-1.5152230455e+000
 1.4433763056e+000	 1.1967831217e+000	-1.4669304708e+000
 1.4309303270e+000	 1.2116366614e+000	-1.4178063244e+000
 1.4183260718e+000	 1.2263670552e+000	-1.3677148888e+000
 1.4055653745e+000	 1.2409717878e+000	-1.3165265403e+000
 1.3926501229e+000	 1.2554483801e+000	-1.3185995119e+000
 1.3795822569e+000	 1.2697943914e+000	-1.4079159729e+000
 1.3663637675e+000	 1.2840074202e+000	-1.4936694911e+000
 1.3529966958e+000	 1.2980851056e+000	-1.5754543404e+000
 1.3394831321e+000	 1.3120251289e+000	-1.6528665952e+000
 1.3258252148e+000	 1.3258252148e+000	-1.7255049114e+000
 1.4750710564e+000	 1.1975664402e+000	-1.4974828635e+000
 1.4626213230e+000	 1.2127402300e+000	-1.4331167062e+000
 1.4500093981e+000	 1.2277918169e+000	-1.3674629211e+000
 1.4372370861e+000	 1.2427186160e+000	-1.3004349923e+000
 1.4243062462e+000	 1.2575180783e+000	-1.3084196317e+000
 1.4112187912e+000	 1.2721876919e+000	-1.3875107530e+000
 1.3979766870e+000	 1.2867249833e+000	-1.4632914379e+000
 1.3845819510e+000	 1.3011275191e+000	-1.5353936750e+000
 1.3710366517e+000	 1.3153929070e+000	-1.6034504534e+000
 1.3573429072e+000	 1.3295187973e+000	-1.6670965149e+000
 1.3435028843e+000	 1.3435028843e+000	-1.7259691092e+000
 1.4944798861e+000	 1.2133238933e+000	-1.4642239220e+000
 1.4818663404e+000	 1.2286973383e+000	-1.3857769560e+000
 1.4690884691e+000	 1.2439469724e+000	-1.3055795397e+000
 1.4561481004e+000	 1.2590701767e+000	-1.3170463322e+000
 1.4430471178e+000	 1.2740643688e+000	-1.3879802612e+000
 1.4297874596e+000	 1.2889270036e+000	-1.4557832318e+000
 1.4163711171e+000	 1.3036555752e+000	-1.5201241816e+000
 1.4028001346e+000	 1.3182476180e+000	-1.5806722979e+000
 1.3890766077e+000	 1.3327007084e+000	-1.6370977409e+000
 1.3752026823e+000	 1.3470124657e+000	-1.6890723709e+000
 1.3611805538e+000	 1.3611805538e+000	-1.7362704792e+000
 1.5138887158e+000	 1.2290813465e+000	-1.4167525463e+000
 1.5011113578e+000	 1.2446544466e+000	-1.3261417507e+000
 1.4881675401e+000	 1.2601021278e+000	-1.3383328482e+000
 1.4750591147e+000	 1.2754217375e+000	-1.4032026086e+000
 1.4617879895e+000	 1.2906106593e+000	-1.4650517880e+000
 1.4483561279e+000	 1.3056663153e+000	-1.5235854821e+000
 1.4347655472e+000	 1.3205861671e+000	-1.5785083306e+000
 1.4210183182e+000	 1.3353677170e+000	-1.6295252114e+000
 1.4071165636e+000	 1.3500085098e+000	-1.6763419398e+000
 1.3930624574e+000	 1.3645061341e+000	-1.7186659743e+000
 1.3788582233e+000	 1.3788582233e+000	-1.7562071246e+000
 1.5332975455e+000	 1.2448387997e+000	-1.3563373374e+000
 1.5203563752e+000	 1.2606115549e+000	-1.3662847844e+000
 1.5072466111e+000	 1.2762572833e+000	-1.4272038053e+000
 1.4939701289e+000	 1.2917732982e+000	-1.4851473842e+000
 1.4805288611e+000	 1.3071569498e+000	-1.5398559632e+000
 1.4669247962e+000	 1.3224056271e+000	-1.5910688663e+000
 1.4531599773e+000	 1.3375167590e+000	-1.6385249627e+000
 1.4392365017e+000	 1.3524878159e+000	-1.6819633386e+000
 1.4251565195e+000	 1.3673163112e+000	-1.7211239765e+000
 1.4109222325e+000	 1.3819998025e+000	-1.7557484393e+000
 1.3965358929e+000	 1.3965358929e+000	-1.7855805584e+000
 1.5527063751e+000	 1.2605962528e+000	-1.3950564565e+000
 1.5396013926e+000	 1.2765686632e+000	-1.4541540876e+000
 1.5263256822e+000	 1.2924124388e+000	-1.5102599655e+000
 1.5128811432e+000	 1.3081248589e+000	-1.5631490541e+000
 1.4992697328e+000	 1.3237032403e+000	-1.6125945768e+000
 1.4854934645e+000	 1.3391449388e+000	-1.6583686491e+000
 1.4715544074e+000	 1.3544473509e+000	-1.7002429215e+000
 1.4574546853e+000	 1.3696079148e+000	-1.7379892326e+000
 1.4431964755e+000	 1.3846241126e+000	-1.7713802681e+000
 1.4287820076e+000	 1.3994934709e+000	-1.8001902269e+000
 1.4142135624e+000	 1.4142135624e+000	-1.8241954898e+000
 1.2374368671e+000	 1.2374368671e+000	-1.8582183275e+000
 1.2245567870e+000	 1.2501842566e+000	-1.8180547350e+000
 1.2115460986e+000	 1.2627969161e+000	-1.8773175378e+000
 1.1984069255e+000	 1.2752728496e+000	-1.9278266660e+000
 1.1851414320e+000	 1.2876101065e+000	-1.9692938907e+000
 1.1717518215e+000	 1.2998067814e+000	-2.0014435735e+000
 1.1582403353e+000	 1.3118610162e+000	-2.0240128770e+000
 1.1446092516e+000	 1.3237710003e+000	-2.0367519464e+000
 1.1308608840e+000	 1.3355349719e+000	-2.0394240652e+000
 1.1169975803e+000	 1.3471512186e+000	-2.0318057812e+000
 1.1030217212e+000	 1.3586180783e+000	-2.0136870059e+000
 1.2551145366e+000	 1.2551145366e+000	-1.8261905535e+000
 1.2420504554e+000	 1.2680440317e+000	-1.9224265839e+000
 1.2288539000e+000	 1.2808368720e+000	-1.9609118493e+000
 1.2155270244e+000	 1.2934910332e+000	-1.9910514607e+000
 1.2020720239e+000	 1.3060045366e+000	-2.0126060480e+000
 1.1884911332e+000	 1.3183754497e+000	-2.0253487777e+000
 1.1747866258e+000	 1.3306018879e+000	-2.0290655092e+000
 1.1609608123e+000	 1.3426820146e+000	-2.0235549237e+000
 1.1470160395e+000	 1.3546140429e+000	-2.0086286246e+000
 1.1329546886e+000	 1.3663962360e+000	-1.9841112106e+000
 1.1187791744e+000	 1.3780269080e+000	-1.9498403200e+000
 1.2727922062e+000	 1.2727922062e+000	-1.7852104321e+000
 1.2595441238e+000	 1.2859038068e+000	-1.9365536110e+000
 1.2461617014e+000	 1.2988768279e+000	-2.0432627315e+000
 1.2326471234e+000	 1.3117092168e+000	-2.0548385504e+000
 1.2190026158e+000	 1.3243989666e+000	-2.0582605936e+000
 1.2052304449e+000	 1.3369441180e+000	-2.0533500863e+000
 1.1913329163e+000	 1.3493427595e+000	-2.0399408694e+000
 1.1773123730e+000	 1.3615930289e+000	-2.0178794749e+000
 1.1631711949e+000	 1.3736931140e+000	-1.9870251731e+000
 1.1489117969e+000	 1.3856412534e+000	-1.9472499910e+000
 1.1345366275e+000	 1.3974357376e+000	-1.8984387042e+000
 1.2904698757e+000	 1.2904698757e+000	-1.7549140674e+000
 1.2770377922e+000	 1.3037635819e+000	-1.8871135228e+000
 1.2634695028e+000	 1.3169167839e+000	-2.0094808463e+000
 1.2497672223e+000	 1.3299274003e+000	-2.1196091175e+000
 1.2359332077e+000	 1.3427933967e+000	-2.1065955633e+000
 1.2219697567e+000	 1.3555127863e+000	-2.0857026041e+000
 1.2078792068e+000	 1.3680836312e+000	-2.0568113880e+000
 1.1936639338e+000	 1.3805040432e+000	-2.0198156544e+000
 1.1793263504e+000	 1.3927721850e+000	-1.9746217279e+000
 1.1648689052e+000	 1.4048862708e+000	-1.9211484837e+000
 1.1502940807e+000	 1.4168445673e+000	-1.8593272851e+000
 1.3081475452e+000	 1.3081475452e+000	-1.7350834222e+000
 1.2945314606e+000	 1.3216233570e+000	-1.8499473746e+000
 1.2807773042e+000	 1.3349567398e+000	-1.9552436112e+000
 1.2668873212e+000	 1.3481455839e+000	-2.0505547978e+000
 1.2528637995e+000	 1.3611878268e+000	-2.1354733826e+000
 1.2387090684e+000	 1.3740814546e+000	-2.1226882328e+000
 1.2244254973e+000	 1.3868245028e+000	-2.0798806002e+000
 1.2100154945e+000	 1.3994150575e+000	-2.0294888917e+000
 1.1954815059e+000	 1.4118512560e+000	-1.9714659132e+000
 1.1808260135e+000	 1.4241312882e+000	-1.9057768462e+000
 1.1660515338e+000	 1.4362533970e+000	-1.8323991320e+000
 1.3258252148e+000	 1.3258252148e+000	-1.7255049114e+000
 1.3120251289e+000	 1.3394831321e+000	-1.8247751041e+000
 1.2980851056e+000	 1.3529966958e+000	-1.9147300915e+000
 1.2840074202e+000	 1.3663637675e+000	-1.9949803829e+000
 1.2697943914e+000	 1.3795822569e+000	-2.0651459775e+000
 1.2554483801e+000	 1.3926501229e+000	-2.1248571194e+000
 1.2409717878e+000	 1.4055653745e+000	-2.1093810727e+000
 1.2263670552e+000	 1.4183260718e+000	-2.0470576335e+000
 1.2116366614e+000	 1.4309303270e+000	-1.9776423190e+000
 1.1967831217e+000	 1.4433763056e+000	-1.9011461126e+000
 1.1818089870e+000	 1.4556622267e+000	-1.8175920609e+000
 1.3435028843e+000	 1.3435028843e+000	-1.7259691092e+000
 1.3295187973e+000	 1.3573429072e+000	-1.8113247001e+000
 1.3153929070e+000	 1.3710366517e+000	-1.8876061739e+000
 1.3011275191e+000	 1.3845819510e+000	-1.9544505410e+000
 1.2867249833e+000	 1.3979766870e+000	-2.0115040160e+000
 1.2721876919e+000	 1.4112187912e+000	-2.0584227611e+000
 1.2575180783e+000	 1.4243062462e+000	-2.0948736168e+000
 1.2427186160e+000	 1.4372370861e+000	-2.0727111715e+000
 1.2277918169e+000	 1.4500093981e+000	-1.9932700696e+000
 1.2127402300e+000	 1.4626213230e+000	-1.9073055044e+000
 1.1975664402e+000	 1.4750710564e+000	-1.8148856904e+000
 1.3611805538e+000	 1.3611805538e+000	-1.7362704792e+000
 1.3470124657e+000	 1.3752026823e+000	-1.8093316796e+000
 1.3327007084e+000	 1.3890766077e+000	-1.8735488905e+000
 1.3182476180e+000	 1.4028001346e+000	-1.9285843016e+000
 1.3036555752e+000	 1.4163711171e+000	-1.9741090283e+000
 1.2889270036e+000	 1.4297874596e+000	-2.0098038449e+000
 1.2740643688e+000	 1.4430471178e+000	-2.0353599052e+000
 1.2590701767e+000	 1.4561481004e+000	-2.0504794479e+000
 1.2439469724e+000	 1.4690884691e+000	-2.0185005810e+000
 1.2286973383e+000	 1.4818663404e+000	-1.9243399508e+000
 1.2133238933e+000	 1.4944798861e+000	-1.8242987277e+000
 1.3788582233e+000	 1.3788582233e+000	-1.7562071246e+000
 1.3645061341e+000	 1.3930624574e+000	-1.8185386054e+000
 1.3500085098e+000	 1.4071165636e+000	-1.8722457044e+000
 1.3353677170e+000	 1.4210183182e+000	-1.9170144885e+000
 1.3205861671e+000	 1.4347655472e+000	-1.9525396779e+000
 1.3056663153e+000	 1.4483561279e+000	-1.9785253718e+000
 1.2906106593e+000	 1.4617879895e+000	-1.9946857601e+000
 1.2754217375e+000	 1.4750591147e+000	-2.0007458212e+000
 1.2601021278e+000	 1.4881675401e+000	-1.9964420030e+000
 1.2446544466e+000	 1.5011113578e+000	-1.9523677997e+000
 1.2290813465e+000	 1.5138887158e+000	-1.8458864624e+000
 1.3965358929e+000	 1.3965358929e+000	-1.7855805584e+000
 1.3819998025e+000	 1.4109222325e+000	-1.8386946399e+000
 1.3673163112e+000	 1.4251565195e+000	-1.8833938497e+000
 1.3524878159e+000	 1.4392365017e+000	-1.9193868465e+000
 1.3375167590e+000	 1.4531599773e+000	-1.9463906775e+000
 1.3224056271e+000	 1.4669247962e+000	-1.9641314964e+000
 1.3071569498e+000	 1.4805288611e+000	-1.9723452686e+000
 1.2917732982e+000	 1.4939701289e+000	-1.9707784632e+000
 1.2762572833e+000	 1.5072466111e+000	-1.9591887278e+000
 1.2606115549e+000	 1.5203563752e+000	-1.9373455458e+000
 1.2448387997e+000	 1.5332975455e+000	-1.8797384516e+000
 1.4142135624e+000	 1.4142135624e+000	-1.8241954898e+000
 1.3994934709e+000	 1.4287820076e+000	-1.8695551331e+000
 1.3846241126e+000	 1.4431964755e+000	-1.9066997203e+000
 1.3696079148e+000	 1.4574546853e+000	-1.9353592340e+000
 1.3544473509e+000	 1.4715544074e+000	-1.9552717859e+000
 1.3391449388e+000	 1.4854934645e+000	-1.9661843295e+000
 1.3237032403e+000	 1.4992697328e+000	-1.9678533609e+000
 1.3081248589e+000	 1.5128811432e+000	-1.9600456055e+000
 1.2924124388e+000	 1.5263256822e+000	-1.9425386893e+000
 1.2765686632e+000	 1.5396013926e+000	-1.9151217915e+000
 1.2605962528e+000	 1.5527063751e+000	-1.8775962794e+000
 1.1030217212e+000	 1.3586180783e+000	-2.0136870059e+000
 1.0889357189e+000	 1.3699339401e+000	-2.0199790847e+000
 1.0747420157e+000	 1.3810972449e+000	-2.0235111793e+000
 1.0604430826e+000	 1.3921064861e+000	-2.0246810919e+000
 1.0460414182e+000	 1.4029602102e+000	-2.0238894244e+000
 1.0315395467e+000	 1.4136570177e+000	-2.0215389924e+000
 1.0169400169e+000	 1.4241955631e+000	-2.0180342321e+000
 1.0022454009e+000	 1.4345745559e+000	-2.0137805993e+000
 9.8745829198e-001	 1.4447927608e+000	-2.0091839650e+000
 9.7258130376e-001	 1.4548489982e+000	-2.0046500053e+000
 9.5761706841e-001	 1.4647421446e+000	-2.0005835907e+000
 1.1187791744e+000	 1.3780269080e+000	-1.9498403200e+000
 1.1044919435e+000	 1.3895044249e+000	-1.9650937455e+000
 1.0900954730e+000	 1.4008272055e+000	-1.9766913113e+000
 1.0755922695e+000	 1.4119937216e+000	-1.9850147658e+000
 1.0609848670e+000	 1.4230024989e+000	-1.9904499756e+000
 1.0462758259e+000	 1.4338521179e+000	-1.9933863418e+000
 1.0314677315e+000	 1.4445412140e+000	-1.9942162065e+000
 1.0165631923e+000	 1.4550684781e+000	-1.9933342504e+000
 1.0015648390e+000	 1.4654326574e+000	-1.9911368833e+000
 9.8647532238e-001	 1.4756325553e+000	-1.9880216286e+000
 9.7129731225e-001	 1.4856670324e+000	-1.9843865032e+000
 1.1345366275e+000	 1.3974357376e+000	-1.8984387042e+000
 1.1200481680e+000	 1.4090749098e+000	-1.9211395865e+000
 1.1054489304e+000	 1.4205571661e+000	-1.9393071764e+000
 1.0907414564e+000	 1.4318809571e+000	-1.9533080449e+000
 1.0759283158e+000	 1.4430447877e+000	-1.9635141961e+000
 1.0610121051e+000	 1.4540472182e+000	-1.9703024844e+000
 1.0459954460e+000	 1.4648868649e+000	-1.9740540201e+000
 1.0308809838e+000	 1.4755624003e+000	-1.9751535640e+000
 1.0156713860e+000	 1.4860725539e+000	-1.9739889127e+000
 1.0003693410e+000	 1.4964161124e+000	-1.9709502750e+000
 9.8497755608e-001	 1.5065919202e+000	-1.9664296439e+000
 1.1502940807e+000	 1.4168445673e+000	-1.8593272851e+000
 1.1356043926e+000	 1.4286453946e+000	-1.8880081706e+000
 1.1208023878e+000	 1.4402871268e+000	-1.9112952558e+000
 1.1058906433e+000	 1.4517681926e+000	-1.9295407950e+000
 1.0908717647e+000	 1.4630870764e+000	-1.9431037875e+000
 1.0757483844e+000	 1.4742423185e+000	-1.9523493955e+000
 1.0605231605e+000	 1.4852325158e+000	-1.9576483473e+000
 1.0451987752e+000	 1.4960563226e+000	-1.9593763279e+000
 1.0297779331e+000	 1.5067124505e+000	-1.9579133579e+000
 1.0142633596e+000	 1.5171996695e+000	-1.9536431621e+000
 9.9865779992e-001	 1.5275168080e+000	-1.9469525303e+000
 1.1660515338e+000	 1.4362533970e+000	-1.8323991320e+000
 1.1511606171e+000	 1.4482158795e+000	-1.8656362283e+000
 1.1361558451e+000	 1.4600170874e+000	-1.8926344856e+000
 1.1210398302e+000	 1.4716554281e+000	-1.9137326872e+000
 1.1058152135e+000	 1.4831293651e+000	-1.9292776720e+000
 1.0904846636e+000	 1.4944374187e+000	-1.9396237515e+000
 1.0750508751e+000	 1.5055781667e+000	-1.9451321105e+000
 1.0595165667e+000	 1.5165502448e+000	-1.9461701921e+000
 1.0438844801e+000	 1.5273523471e+000	-1.9431110694e+000
 1.0281573783e+000	 1.5379832267e+000	-1.9363328053e+000
 1.0123380438e+000	 1.5484416958e+000	-1.9262178010e+000
 1.1818089870e+000	 1.4556622267e+000	-1.8175920609e+000
 1.1667168417e+000	 1.4677863643e+000	-1.8540026469e+000
 1.1515093025e+000	 1.4797470481e+000	-1.8833434268e+000
 1.1361890171e+000	 1.4915426636e+000	-1.9059405447e+000
 1.1207586623e+000	 1.5031716538e+000	-1.9221295108e+000
 1.1052209428e+000	 1.5146325190e+000	-1.9322546162e+000
 1.0895785896e+000	 1.5259238176e+000	-1.9366683301e+000
 1.0738343581e+000	 1.5370441670e+000	-1.9357306783e+000
 1.0579910271e+000	 1.5479922437e+000	-1.9298086071e+000
 1.0420513969e+000	 1.5587667838e+000	-1.9192753317e+000
 1.0260182876e+000	 1.5693665835e+000	-1.9045096738e+000
 1.1975664402e+000	 1.4750710564e+000	-1.8148856904e+000
 1.1822730662e+000	 1.4873568492e+000	-1.8531256969e+000
 1.1668627599e+000	 1.4994770087e+000	-1.8834776581e+000
 1.1513382040e+000	 1.5114298991e+000	-1.9062558983e+000
 1.1357021112e+000	 1.5232139425e+000	-1.9217854186e+000
 1.1199572221e+000	 1.5348276192e+000	-1.9304013100e+000
 1.1041063041e+000	 1.5462694685e+000	-1.9324481443e+000
 1.0881521496e+000	 1.5575380892e+000	-1.9282793463e+000
 1.0720975742e+000	 1.5686321403e+000	-1.9182565482e+000
 1.0559454155e+000	 1.5795503409e+000	-1.9027489267e+000
 1.0396985314e+000	 1.5902914713e+000	-1.8821325267e+000
 1.2133238933e+000	 1.4944798861e+000	-1.8242987277e+000
 1.1978292908e+000	 1.5069273341e+000	-1.8630604749e+000
 1.1822162172e+000	 1.5192069693e+000	-1.8931273725e+000
 1.1664873909e+000	 1.5313171347e+000	-1.9148027325e+000
 1.1506455600e+000	 1.5432562312e+000	-1.9284018567e+000
 1.1346935013e+000	 1.5550227194e+000	-1.9342514455e+000
 1.1186340186e+000	 1.5666151194e+000	-1.9326889834e+000
 1.1024699410e+000	 1.5780320114e+000	-1.9240621029e+000
 1.0862041212e+000	 1.5892720368e+000	-1.9087279284e+000
 1.0698394341e+000	 1.6003338980e+000	-1.8870524012e+000
 1.0533787753e+000	 1.6112163591e+000	-1.8594095884e+000
 1.2290813465e+000	 1.5138887158e+000	-1.8458864624e+000
 1.2133855153e+000	 1.5264978189e+000	-1.8838965425e+000
 1.1975696746e+000	 1.5389369300e+000	-1.9124151580e+000
 1.1816365778e+000	 1.5512043702e+000	-1.9317354056e+000
 1.1655890088e+000	 1.5632985200e+000	-1.9421636871e+000
 1.1494297806e+000	 1.5752178197e+000	-1.9440191136e+000
 1.1331617332e+000	 1.5869607703e+000	-1.9376328844e+000
 1.1167877324e+000	 1.5985259337e+000	-1.9233476416e+000
 1.1003106682e+000	 1.6099119334e+000	-1.9015168021e+000
 1.0837334528e+000	 1.6211174551e+000	-1.8725038701e+000
 1.0670590191e+000	 1.6321412469e+000	-1.8366817301e+000
 1.2448387997e+000	 1.5332975455e+000	-1.8797384516e+000
 1.2289417399e+000	 1.5460683038e+000	-1.9157557453e+000
 1.2129231320e+000	 1.5586668906e+000	-1.9414939478e+000
 1.1967857647e+000	 1.5710916057e+000	-1.9572367270e+000
 1.1805324577e+000	 1.5833408087e+000	-1.9632823752e+000
 1.1641660598e+000	 1.5954129199e+000	-1.9599432077e+000
 1.1476894477e+000	 1.6073064212e+000	-1.9475449336e+000
 1.1311055239e+000	 1.6190198559e+000	-1.9264259998e+000
 1.1144172153e+000	 1.6305518300e+000	-1.8969369116e+000
 1.0976274714e+000	 1.6419010122e+000	-1.8594395300e+000
 1.0807392629e+000	 1.6530661346e+000	-1.8143063485e+000
 1.2605962528e+000	 1.5527063751e+000	-1.8775962794e+000
 1.2444979645e+000	 1.5656387886e+000	-1.9587901951e+000
 1.2282765894e+000	 1.5783968513e+000	-1.9805451233e+000
 1.2119349516e+000	 1.5909788412e+000	-1.9915161790e+000
 1.1954759065e+000	 1.6033830974e+000	-1.9919943274e+000
 1.1789023391e+000	 1.6156080202e+000	-1.9822858739e+000
 1.1622171622e+000	 1.6276520721e+000	-1.9627118258e+000
 1.1454233153e+000	 1.6395137781e+000	-1.9336072256e+000
 1.1285237623e+000	 1.6511917266e+000	-1.8953204574e+000
 1.1115214900e+000	 1.6626845693e+000	-1.8482125296e+000
 1.0944195068e+000	 1.6739910224e+000	-1.7926563337e+000
 9.5761706841e-001	 1.4647421446e+000	-2.0005835907e+000
 9.4256823526e-001	 1.4744711329e+000	-1.9898649666e+000
 9.2743746930e-001	 1.4840349526e+000	-1.9730612682e+000
 9.1222744964e-001	 1.4934326500e+000	-1.9504754081e+000
 8.9694086807e-001	 1.5026633286e+000	-1.9224146955e+000
 8.8158042754e-001	 1.5117261490e+000	-1.8891902694e+000
 8.6614884069e-001	 1.5206203292e+000	-1.8511165267e+000
 8.5064882832e-001	 1.5293451444e+000	-1.8085105484e+000
 8.3508311794e-001	 1.5378999272e+000	-1.7616915234e+000
 8.1945444228e-001	 1.5462840674e+000	-1.7109801726e+000
 8.0376553783e-001	 1.5544970119e+000	-1.6566981745e+000
 9.7129731225e-001	 1.4856670324e+000	-1.9843865032e+000
 9.5603349577e-001	 1.4955350063e+000	-1.9690726606e+000
 9.4068657601e-001	 1.5052354519e+000	-1.9486664935e+000
 9.2525927035e-001	 1.5147674021e+000	-1.9234985205e+000
 9.0975430904e-001	 1.5241299476e+000	-1.8939028446e+000
 8.9417443366e-001	 1.5333222369e+000	-1.8602165535e+000
 8.7852239556e-001	 1.5423434768e+000	-1.8227791177e+000
 8.6280095444e-001	 1.5511929322e+000	-1.7819317864e+000
 8.4701287677e-001	 1.5598699262e+000	-1.7380169834e+000
 8.3116093432e-001	 1.5683738397e+000	-1.6913777040e+000
 8.1524790266e-001	 1.5767041121e+000	-1.6423569147e+000
 9.8497755608e-001	 1.5065919202e+000	-1.9664296439e+000
 9.6949875628e-001	 1.5165988796e+000	-1.9469968544e+000
 9.5393568271e-001	 1.5264359512e+000	-1.9234346260e+000
 9.3829109106e-001	 1.5361021543e+000	-1.8961012641e+000
 9.2256775002e-001	 1.5455965666e+000	-1.8653578711e+000
 9.0676843977e-001	 1.5549183247e+000	-1.8315677152e+000
 8.9089595043e-001	 1.5640666244e+000	-1.7950955961e+000
 8.7495308057e-001	 1.5730407200e+000	-1.7563072110e+000
 8.5894263560e-001	 1.5818399251e+000	-1.7155685210e+000
 8.4286742635e-001	 1.5904636121e+000	-1.6732451203e+000
 8.2673026749e-001	 1.5989112123e+000	-1.6297016091e+000
 9.9865779992e-001	 1.5275168080e+000	-1.9469525303e+000
 9.8296401678e-001	 1.5376627529e+000	-1.9238351321e+000
 9.6718478942e-001	 1.5476364506e+000	-1.8975220258e+000
 9.5132291177e-001	 1.5574369064e+000	-1.8683995050e+000
 9.3538119099e-001	 1.5670631856e+000	-1.8368558986e+000
 9.1936244588e-001	 1.5765144126e+000	-1.8032809068e+000
 9.0326950530e-001	 1.5857897719e+000	-1.7680649340e+000
 8.8710520669e-001	 1.5948885078e+000	-1.7315984240e+000
 8.7087239443e-001	 1.6038099241e+000	-1.6942711963e+000
 8.5457391839e-001	 1.6125533845e+000	-1.6564717865e+000
 8.3821263232e-001	 1.6211183125e+000	-1.6185867920e+000
 1.0123380438e+000	 1.5484416958e+000	-1.9262178010e+000
 9.9642927729e-001	 1.5587266262e+000	-1.8998100176e+000
 9.8043389613e-001	 1.5688369499e+000	-1.8711117577e+000
 9.6435473249e-001	 1.5787716586e+000	-1.8405375244e+000
 9.4819463197e-001	 1.5885298045e+000	-1.8085031203e+000
 9.3195645199e-001	 1.5981105004e+000	-1.7754249484e+000
 9.1564306017e-001	 1.6075129195e+000	-1.7417193127e+000
 8.9925733281e-001	 1.6167362956e+000	-1.7078017210e+000
 8.8280215326e-001	 1.6257799230e+000	-1.6740861904e+000
 8.6628041042e-001	 1.6346431569e+000	-1.6409845580e+000
 8.4969499715e-001	 1.6433254126e+000	-1.6089057987e+000
 1.0260182876e+000	 1.5693665835e+000	-1.9045096738e+000
 1.0098945378e+000	 1.5797904996e+000	-1.8751673127e+000
 9.9368300283e-001	 1.5900374492e+000	-1.8444118112e+000
 9.7738655320e-001	 1.6001064107e+000	-1.8126861241e+000
 9.6100807294e-001	 1.6099964235e+000	-1.7804337938e+000
 9.4455045810e-001	 1.6197065883e+000	-1.7480982166e+000
 9.2801661504e-001	 1.6292360671e+000	-1.7161219094e+000
 9.1140945893e-001	 1.6385840833e+000	-1.6849457792e+000
 8.9473191209e-001	 1.6477499220e+000	-1.6550083977e+000
 8.7798690246e-001	 1.6567329293e+000	-1.6267452813e+000
 8.6117736198e-001	 1.6655325128e+000	-1.6005881791e+000
 1.0396985314e+000	 1.5902914713e+000	-1.8821325267e+000
 1.0233597983e+000	 1.6008543729e+000	-1.8501745647e+000
 1.0069321095e+000	 1.6112379485e+000	-1.8176534607e+000
 9.9041837391e-001	 1.6214411629e+000	-1.7850408817e+000
 9.7382151392e-001	 1.6314630425e+000	-1.7528083955e+000
 9.5714446421e-001	 1.6413026761e+000	-1.7214267004e+000
 9.4039016991e-001	 1.6509592146e+000	-1.6913648574e+000
 9.2356158505e-001	 1.6604318711e+000	-1.6630895265e+000
 9.0666167092e-001	 1.6697199210e+000	-1.6370642081e+000
 8.8969339449e-001	 1.6788227017e+000	-1.6137484919e+000
 8.7265972680e-001	 1.6877396130e+000	-1.5935973154e+000
 1.0533787753e+000	 1.6112163591e+000	-1.8594095884e+000
 1.0368250588e+000	 1.6219182462e+000	-1.8251196553e+000
 1.0201812162e+000	 1.6324384478e+000	-1.7910897532e+000
 1.0034501946e+000	 1.6427759150e+000	-1.7578205418e+000
 9.8663495489e-001	 1.6529296615e+000	-1.7258119174e+000
 9.6973847032e-001	 1.6628987640e+000	-1.6955622074e+000
 9.5276372478e-001	 1.6726823622e+000	-1.6675673663e+000
 9.3571371117e-001	 1.6822796589e+000	-1.6423201774e+000
 9.1859142975e-001	 1.6916899199e+000	-1.6203094612e+000
 9.0139988653e-001	 1.7009124741e+000	-1.6020192919e+000
 8.8414209163e-001	 1.7099467131e+000	-1.5879282242e+000
 1.0670590191e+000	 1.6321412469e+000	-1.8366817301e+000
 1.0502903193e+000	 1.6429821195e+000	-1.8003094963e+000
 1.0334303230e+000	 1.6536389472e+000	-1.7649941132e+000
 1.0164820153e+000	 1.6641106671e+000	-1.7312655308e+000
 9.9944839587e-001	 1.6743962805e+000	-1.6996522960e+000
 9.8233247643e-001	 1.6844948518e+000	-1.6706807096e+000
 9.6513727965e-001	 1.6944055097e+000	-1.6448739860e+000
 9.4786583729e-001	 1.7041274467e+000	-1.6227514198e+000
 9.3052118858e-001	 1.7136599189e+000	-1.6048275593e+000
 9.1310637856e-001	 1.7230022465e+000	-1.5916113900e+000
 8.9562445646e-001	 1.7321538133e+000	-1.5836055300e+000
 1.0807392629e+000	 1.6530661346e+000	-1.8143063485e+000
 1.0637555798e+000	 1.6640459929e+000	-1.7760688257e+000
 1.0466794297e+000	 1.6748394465e+000	-1.7396590525e+000
 1.0295138360e+000	 1.6854454193e+000	-1.7056365849e+000
 1.0122618368e+000	 1.6958628994e+000	-1.6745589598e+000
 9.9492648253e-001	 1.7060909396e+000	-1.6469808133e+000
 9.7751083451e-001	 1.7161286573e+000	-1.6234530032e+000
 9.6001796341e-001	 1.7259752344e+000	-1.6045217394e+000
 9.4245094741e-001	 1.7356299178e+000	-1.5907277221e+000
 9.2481287059e-001	 1.7450920189e+000	-1.5826052916e+000
 9.0710682128e-001	 1.7543609135e+000	-1.5806815901e+000
 1.0944195068e+000	 1.6739910224e+000	-1.7926563337e+000
 1.0772208403e+000	 1.6851098662e+000	-1.7527390934e+000
 1.0599285364e+000	 1.6960399458e+000	-1.7153949772e+000
 1.0425456567e+000	 1.7067801714e+000	-1.6812134806e+000
 1.0250752778e+000	 1.7173295184e+000	-1.6507814865e+000
 1.0075204886e+000	 1.7276870275e+000	-1.6246823450e+000
 9.8988438938e-001	 1.7378518049e+000	-1.6034949574e+000
 9.7217008953e-001	 1.7478230222e+000	-1.5877928696e+000
 9.5438070623e-001	 1.7575999168e+000	-1.5781433739e+000
 9.3651936262e-001	 1.7671817913e+000	-1.5751066238e+000
 9.1858918611e-001	 1.7765680137e+000	-1.5792347620e+000
 8.0376553783e-001	 1.5544970119e+000	-1.6566981745e+000
 7.8801914338e-001	 1.5625382650e+000	-1.6125303922e+000
 7.7221799855e-001	 1.5704073875e+000	-1.5677003150e+000
 7.5636484241e-001	 1.5781039969e+000	-1.5224913971e+000
 7.4046241198e-001	 1.5856277673e+000	-1.4771839237e+000
 7.2451344093e-001	 1.5929784285e+000	-1.4320545243e+000
 7.0852065808e-001	 1.6001557665e+000	-1.3873756963e+000
 6.9248678611e-001	 1.6071596221e+000	-1.3434153406e+000
 6.7641454021e-001	 1.6139898915e+000	-1.3004363103e+000
 6.6030662669e-001	 1.6206465249e+000	-1.2586959718e+000
 6.4416574173e-001	 1.6271295268e+000	-1.2184457820e+000
 8.1524790266e-001	 1.5767041121e+000	-1.6423569147e+000
 7.9927655972e-001	 1.5848602402e+000	-1.6019490516e+000
 7.8324968425e-001	 1.5928417787e+000	-1.5601215669e+000
 7.6717005444e-001	 1.6006483397e+000	-1.5171581666e+000
 7.5104044644e-001	 1.6082795925e+000	-1.4733403485e+000
 7.3486363294e-001	 1.6157352632e+000	-1.4289468913e+000
 7.1864238176e-001	 1.6230151346e+000	-1.3842533535e+000
 7.0237945449e-001	 1.6301190453e+000	-1.3395315832e+000
 6.8607760507e-001	 1.6370468899e+000	-1.2950492393e+000
 6.6973957850e-001	 1.6437986181e+000	-1.2510693259e+000
 6.5336810947e-001	 1.6503742344e+000	-1.2078497406e+000
 8.2673026749e-001	 1.5989112123e+000	-1.6297016091e+000
 8.1053397605e-001	 1.6071822154e+000	-1.5919122676e+000
 7.9428136994e-001	 1.6152761700e+000	-1.5519761566e+000
 7.7797526648e-001	 1.6231926825e+000	-1.5101779432e+000
 7.6161848090e-001	 1.6309314178e+000	-1.4668010265e+000
 7.4521382496e-001	 1.6384920979e+000	-1.4221270023e+000
 7.2876410545e-001	 1.6458745027e+000	-1.3764351360e+000
 7.1227212286e-001	 1.6530784685e+000	-1.3300018457e+000
 6.9574066993e-001	 1.6601038884e+000	-1.2831001963e+000
 6.7917253031e-001	 1.6669507113e+000	-1.2359994051e+000
 6.6257047722e-001	 1.6736189419e+000	-1.1889643620e+000
 8.3821263232e-001	 1.6211183125e+000	-1.6185867920e+000
 8.2179139239e-001	 1.6295041906e+000	-1.5822952861e+000
 8.0531305564e-001	 1.6377105612e+000	-1.5431585901e+000
 7.8878047852e-001	 1.6457370254e+000	-1.5014630440e+000
 7.7219651536e-001	 1.6535832430e+000	-1.4574946415e+000
 7.5556401697e-001	 1.6612489326e+000	-1.4115384680e+000
 7.3888582914e-001	 1.6687338708e+000	-1.3638781476e+000
 7.2216479124e-001	 1.6760378917e+000	-1.3147952983e+000
 7.0540373479e-001	 1.6831608868e+000	-1.2645689982e+000
 6.8860548212e-001	 1.6901028046e+000	-1.2134752625e+000
 6.7177284496e-001	 1.6968636494e+000	-1.1617865337e+000
 8.4969499715e-001	 1.6433254126e+000	-1.6089057987e+000
 8.3304880872e-001	 1.6518261659e+000	-1.5730104519e+000
 8.1634474134e-001	 1.6601449525e+000	-1.5335988372e+000
 7.9958569055e-001	 1.6682813682e+000	-1.4909596841e+000
 7.8277454982e-001	 1.6762350683e+000	-1.4453822778e+000
 7.6591420899e-001	 1.6840057673e+000	-1.3971558715e+000
 7.4900755283e-001	 1.6915932389e+000	-1.3465691057e+000
 7.3205745961e-001	 1.6989973148e+000	-1.2939094354e+000
 7.1506679966e-001	 1.7062178853e+000	-1.2394625672e+000
 6.9803843393e-001	 1.7132548978e+000	-1.1835119069e+000
 6.8097521270e-001	 1.7201083570e+000	-1.1263380196e+000
 8.6117736198e-001	 1.6655325128e+000	-1.6005881791e+000
 8.4430622506e-001	 1.6741481411e+000	-1.5640047350e+000
 8.2737642703e-001	 1.6825793437e+000	-1.5232599680e+000
 8.1039090259e-001	 1.6908257110e+000	-1.4786457167e+000
 7.9335258428e-001	 1.6988868935e+000	-1.4304552603e+000
 7.7626440100e-001	 1.7067626020e+000	-1.3789827034e+000
 7.5912927652e-001	 1.7144526070e+000	-1.3245223672e+000
 7.4195012799e-001	 1.7219567380e+000	-1.2673681877e+000
 7.2472986452e-001	 1.7292748837e+000	-1.2078131232e+000
 7.0747138575e-001	 1.7364069910e+000	-1.1461485721e+000
 6.9017758044e-001	 1.7433530645e+000	-1.0826638016e+000
 8.7265972680e-001	 1.6877396130e+000	-1.5935973154e+000
 8.5556364139e-001	 1.6964701163e+000	-1.5552574530e+000
 8.3840811273e-001	 1.7050137350e+000	-1.5121359744e+000
 8.2119611462e-001	 1.7133700538e+000	-1.4645285517e+000
 8.0393061874e-001	 1.7215387188e+000	-1.4127331650e+000
 7.8661459301e-001	 1.7295194367e+000	-1.3570494601e+000
 7.6925100021e-001	 1.7373119751e+000	-1.2977781097e+000
 7.5184279636e-001	 1.7449161612e+000	-1.2352201825e+000
 7.3439292938e-001	 1.7523318822e+000	-1.1696765201e+000
 7.1690433756e-001	 1.7595590842e+000	-1.1014471237e+000
 6.9937994818e-001	 1.7665977720e+000	-1.0308305517e+000
 8.8414209163e-001	 1.7099467131e+000	-1.5879282242e+000
 8.6682105773e-001	 1.7187920915e+000	-1.5467781703e+000
 8.4943979842e-001	 1.7274481262e+000	-1.5002497629e+000
 8.3200132666e-001	 1.7359143966e+000	-1.4486432362e+000
 8.1450865319e-001	 1.7441905440e+000	-1.3922619845e+000
 7.9696478503e-001	 1.7522762714e+000	-1.3314118901e+000
 7.7937272389e-001	 1.7601713431e+000	-1.2664006552e+000
 7.6173546473e-001	 1.7678755844e+000	-1.1975371405e+000
 7.4405599424e-001	 1.7753888806e+000	-1.1251307105e+000
 7.2633728937e-001	 1.7827111774e+000	-1.0494905890e+000
 7.0858231592e-001	 1.7898424795e+000	-9.7092522406e-001
 8.9562445646e-001	 1.7321538133e+000	-1.5836055300e+000
 8.7807847406e-001	 1.7411140667e+000	-1.5386047596e+000
 8.6047148411e-001	 1.7498825175e+000	-1.4876513006e+000
 8.4280653869e-001	 1.7584587394e+000	-1.4310506833e+000
 8.2508668765e-001	 1.7668423693e+000	-1.3691124345e+000
 8.0731497704e-001	 1.7750331061e+000	-1.3021493752e+000
 7.8949444758e-001	 1.7830307112e+000	-1.2304769222e+000
 7.7162813311e-001	 1.7908350075e+000	-1.1544123950e+000
 7.5371905910e-001	 1.7984458791e+000	-1.0742743295e+000
 7.3577024118e-001	 1.8058632706e+000	-9.9038180058e-001
 7.1778468366e-001	 1.8130871871e+000	-9.0305375453e-001
 9.0710682128e-001	 1.7543609135e+000	-1.5806815901e+000
 8.8933589040e-001	 1.7634360419e+000	-1.5308016097e+000
 8.7150316981e-001	 1.7723169087e+000	-1.4744159027e+000
 8.5361175073e-001	 1.7810030823e+000	-1.4118360347e+000
 8.3566472211e-001	 1.7894941945e+000	-1.3433783892e+000
 8.1766516906e-001	 1.7977899408e+000	-1.2693634350e+000
 7.9961617127e-001	 1.8058900793e+000	-1.1901149956e+000
 7.8152080148e-001	 1.8137944307e+000	-1.1059595245e+000
 7.6338212396e-001	 1.8215028775e+000	-1.0172253857e+000
 7.4520319299e-001	 1.8290153638e+000	-9.2424214309e-001
 7.2698705140e-001	 1.8363318946e+000	-8.2733985941e-001
 9.1858918611e-001	 1.7765680137e+000	-1.5792347620e+000
 9.0059330673e-001	 1.7857580172e+000	-1.5234579687e+000
 8.8253485550e-001	 1.7947513000e+000	-1.4606426484e+000
 8.6441696276e-001	 1.8035474251e+000	-1.3911071464e+000
 8.4624275656e-001	 1.8121460198e+000	-1.3151754339e+000
 8.2801536107e-001	 1.8205467755e+000	-1.2331763429e+000
 8.0973789495e-001	 1.8287494474e+000	-1.1454428038e+000
 7.9141346985e-001	 1.8367538539e+000	-1.0523110870e+000
 7.7304518882e-001	 1.8445598760e+000	-9.5412005010e-001
 7.5463614479e-001	 1.8521674571e+000	-8.5121039342e-001
 7.3618941913e-001	 1.8595766021e+000	-7.4392392417e-001
 6.4416574173e-001	 1.6271295268e+000	-1.2184457820e+000
 6.2799457010e-001	 1.6334389551e+000	-1.3679716003e+000
 6.1179578385e-001	 1.6395749202e+000	-1.3573383118e+000
 5.9557204113e-001	 1.6455375851e+000	-1.3053116811e+000
 5.7932598494e-001	 1.6513271642e+000	-1.2479748142e+000
 5.6306024200e-001	 1.6569439230e+000	-1.1848965105e+000
 5.4677742155e-001	 1.6623881771e+000	-1.1156446717e+000
 5.3048011422e-001	 1.6676602917e+000	-1.0397878292e+000
 5.1417089100e-001	 1.6727606807e+000	-9.5689664314e-001
 4.9785230211e-001	 1.6776898060e+000	-8.6654537102e-001
 4.8152687598e-001	 1.6824481768e+000	-7.6831330220e-001
 6.5336810947e-001	 1.6503742344e+000	-1.2078497406e+000
 6.3696592110e-001	 1.6567737973e+000	-1.3379995988e+000
 6.2053572362e-001	 1.6629974190e+000	-1.4199930612e+000
 6.0408021315e-001	 1.6690452648e+000	-1.3567723193e+000
 5.8760207045e-001	 1.6749175522e+000	-1.2898185782e+000
 5.7110395975e-001	 1.6806145504e+000	-1.2186505926e+000
 5.5458852757e-001	 1.6861365796e+000	-1.1427849441e+000
 5.3805840157e-001	 1.6914840101e+000	-1.0617376877e+000
 5.2151618944e-001	 1.6966572618e+000	-9.7502596796e-001
 5.0496447785e-001	 1.7016568033e+000	-8.8216960555e-001
 4.8840583136e-001	 1.7064831508e+000	-7.8269264714e-001
 6.6257047722e-001	 1.6736189419e+000	-1.1889643620e+000
 6.4593727211e-001	 1.6801086395e+000	-1.2994430746e+000
 6.2927566340e-001	 1.6864199179e+000	-1.4175220032e+000
 6.1258838517e-001	 1.6925529446e+000	-1.3946136609e+000
 5.9587815595e-001	 1.6985079403e+000	-1.3195572046e+000
 5.7914767750e-001	 1.7042851779e+000	-1.2418053427e+000
 5.6239963360e-001	 1.7098849821e+000	-1.1608213751e+000
 5.4563668892e-001	 1.7153077286e+000	-1.0760669282e+000
 5.2886148789e-001	 1.7205538430e+000	-9.8700369328e-001
 5.1207665360e-001	 1.7256238005e+000	-8.9309513203e-001
 4.9528478673e-001	 1.7305181247e+000	-7.9380814617e-001
 6.7177284496e-001	 1.6968636494e+000	-1.1617865337e+000
 6.5490862311e-001	 1.7034434817e+000	-1.2522841893e+000
 6.3801560317e-001	 1.7098424168e+000	-1.3519772240e+000
 6.2109655719e-001	 1.7160606244e+000	-1.4161331986e+000
 6.0415424145e-001	 1.7220983284e+000	-1.3345471528e+000
 5.8719139524e-001	 1.7279558054e+000	-1.2517783050e+000
 5.7021073962e-001	 1.7336333847e+000	-1.1672346509e+000
 5.5321497627e-001	 1.7391314470e+000	-1.0803213757e+000
 5.3620678633e-001	 1.7444504242e+000	-9.9044271671e-001
 5.1918882934e-001	 1.7495907977e+000	-8.9700379256e-001
 5.0216374210e-001	 1.7545530987e+000	-7.9941239440e-001
 6.8097521270e-001	 1.7201083570e+000	-1.1263380196e+000
 6.6387997412e-001	 1.7267783239e+000	-1.1965301159e+000
 6.4675554294e-001	 1.7332649156e+000	-1.2774856677e+000
 6.2960472920e-001	 1.7395683042e+000	-1.3690442636e+000
 6.1243032695e-001	 1.7456887164e+000	-1.3321698429e+000
 5.9523511299e-001	 1.7516264329e+000	-1.2460118172e+000
 5.7802184564e-001	 1.7573817872e+000	-1.1595300100e+000
 5.6079326361e-001	 1.7629551655e+000	-1.0720710918e+000
 5.4355208478e-001	 1.7683470053e+000	-9.8297978472e-001
 5.2630100509e-001	 1.7735577950e+000	-8.9160081777e-001
 5.0904269747e-001	 1.7785880727e+000	-7.9728084359e-001
 6.9017758044e-001	 1.7433530645e+000	-1.0826638016e+000
 6.7285132512e-001	 1.7501131661e+000	-1.1322113714e+000
 6.5549548271e-001	 1.7566874145e+000	-1.1940645678e+000
 6.3811290122e-001	 1.7630759840e+000	-1.2680659359e+000
 6.2070641246e-001	 1.7692791045e+000	-1.3098299919e+000
 6.0327883073e-001	 1.7752970603e+000	-1.2219713574e+000
 5.8583295167e-001	 1.7811301897e+000	-1.1352356058e+000
 5.6837155096e-001	 1.7867788839e+000	-1.0489087594e+000
 5.5089738322e-001	 1.7922435865e+000	-9.6227390263e-001
 5.3341318083e-001	 1.7975247922e+000	-8.7461326752e-001
 5.1592165284e-001	 1.8026230466e+000	-7.8521027836e-001
 6.9937994818e-001	 1.7665977720e+000	-1.0308305517e+000
 6.8182267612e-001	 1.7734480084e+000	-1.0593802809e+000
 6.6423542248e-001	 1.7801099133e+000	-1.1017530176e+000
 6.4662107324e-001	 1.7865836638e+000	-1.1577949693e+000
 6.2898249796e-001	 1.7928694926e+000	-1.2273401209e+000
 6.1132254848e-001	 1.7989676878e+000	-1.1771440220e+000
 5.9364405769e-001	 1.8048785923e+000	-1.0919009995e+000
 5.7594983831e-001	 1.8106026024e+000	-1.0084481940e+000
 5.5824268167e-001	 1.8161401676e+000	-9.2600487028e-001
 5.4052535658e-001	 1.8214917894e+000	-8.4378859483e-001
 5.2280060822e-001	 1.8266580206e+000	-7.6101741270e-001
 7.0858231592e-001	 1.7898424795e+000	-9.7092522406e-001
 6.9079402712e-001	 1.7967828506e+000	-9.7810956180e-001
 6.7297536225e-001	 1.8035324122e+000	-1.0006105501e+000
 6.5512924526e-001	 1.8100913436e+000	-1.0382787697e+000
 6.3725858345e-001	 1.8164598806e+000	-1.0909512664e+000
 6.1936626622e-001	 1.8226383153e+000	-1.1090371217e+000
 6.0145516371e-001	 1.8286269948e+000	-1.0270957696e+000
 5.8352812565e-001	 1.8344263209e+000	-9.4832297198e-001
 5.6558798011e-001	 1.8400367488e+000	-8.7187193172e-001
 5.4763753232e-001	 1.8454587867e+000	-7.9689332160e-001
 5.2967956359e-001	 1.8506929945e+000	-7.2253759592e-001
 7.1778468366e-001	 1.8130871871e+000	-9.0305375453e-001
 6.9976537812e-001	 1.8201176928e+000	-8.8849101613e-001
 6.8171530202e-001	 1.8269549111e+000	-8.9071582823e-001
 6.6363741727e-001	 1.8335990234e+000	-9.0958385982e-001
 6.4553466895e-001	 1.8400502687e+000	-9.4493593936e-001
 6.2740998396e-001	 1.8463089428e+000	-9.9659810738e-001
 6.0926626974e-001	 1.8523753973e+000	-9.3840822909e-001
 5.9110641300e-001	 1.8582500393e+000	-8.6618516336e-001
 5.7293327855e-001	 1.8639333299e+000	-7.9759252875e-001
 5.5474970807e-001	 1.8694257839e+000	-7.3171181629e-001
 5.3655851896e-001	 1.8747279685e+000	-6.6762361800e-001
 7.2698705140e-001	 1.8363318946e+000	-8.2733985941e-001
 7.0873672912e-001	 1.8434525350e+000	-7.9063432302e-001
 6.9045524179e-001	 1.8503774099e+000	-7.7216543383e-001
 6.7214558929e-001	 1.8571067031e+000	-7.7179466911e-001
 6.5381075445e-001	 1.8636406567e+000	-7.8936736610e-001
 6.3545370170e-001	 1.8699795702e+000	-8.2471277649e-001
 6.1707737576e-001	 1.8761237999e+000	-8.1730628064e-001
 5.9868470035e-001	 1.8820737578e+000	-7.1728918172e-001
 5.8027857699e-001	 1.8878299111e+000	-6.1794931914e-001
 5.6186188381e-001	 1.8933927811e+000	-5.1971609567e-001
 5.4343747433e-001	 1.8987629424e+000	-4.2297353263e-001
 7.3618941913e-001	 1.8595766021e+000	-7.4392392417e-001
 7.1770808012e-001	 1.8667873772e+000	-6.8466592128e-001
 6.9919518155e-001	 1.8737999088e+000	-6.4507274783e-001
 6.8065376130e-001	 1.8806143829e+000	-6.0816147131e-001
 6.6208683995e-001	 1.8872310448e+000	-5.8105653860e-001
 6.4349741945e-001	 1.8936501977e+000	-5.6634309127e-001
 6.2488848178e-001	 1.8998722024e+000	-5.6300182076e-001
 6.0626298769e-001	 1.9058974762e+000	-4.6195128687e-001
 5.8762387544e-001	 1.9117264922e+000	-3.6314924752e-001
 5.6897405956e-001	 1.9173597783e+000	-2.6709055284e-001
 5.5031642970e-001	 1.9227979164e+000	-1.7422140776e-001
 4.8152687598e-001	 1.6824481768e+000	-7.6831330220e-001
 4.6519711830e-001	 1.6870363485e+000	-7.0899918752e-001
 4.4886551095e-001	 1.6914549220e+000	-6.5474553364e-001
 4.3253451115e-001	 1.6957045429e+000	-6.0504631869e-001
 4.1620655053e-001	 1.6997859004e+000	-5.5939434030e-001
 3.9988403422e-001	 1.7036997268e+000	-5.1728275684e-001
 3.8356934007e-001	 1.7074467960e+000	-4.7820658590e-001
 3.6726481779e-001	 1.7110279231e+000	-4.4166415723e-001
 3.5097278822e-001	 1.7144439629e+000	-4.0715851765e-001
 3.3469554257e-001	 1.7176958094e+000	-3.7419878577e-001
 3.1843534172e-001	 1.7207843947e+000	-3.4230145435e-001
 4.8840583136e-001	 1.7064831508e+000	-7.8269264714e-001
 4.7184279141e-001	 1.7111368678e+000	-7.2350086438e-001
 4.5527787539e-001	 1.7156185637e+000	-6.6861744931e-001
 4.3871357559e-001	 1.7199288935e+000	-6.1750067762e-001
 4.2215235839e-001	 1.7240685561e+000	-5.6960852903e-001
 4.0559666328e-001	 1.7280382943e+000	-5.2440029337e-001
 3.8904890206e-001	 1.7318388931e+000	-4.8133813076e-001
 3.7251145804e-001	 1.7354711791e+000	-4.3988858333e-001
 3.5598668519e-001	 1.7389360195e+000	-3.9952403580e-001
 3.3947690746e-001	 1.7422343210e+000	-3.5972412265e-001
 3.2298441803e-001	 1.7453670289e+000	-3.1997707967e-001
 4.9528478673e-001	 1.7305181247e+000	-7.9380814617e-001
 4.7848846453e-001	 1.7352373870e+000	-7.3641196054e-001
 4.6169023983e-001	 1.7397822055e+000	-6.8260244384e-001
 4.4489264004e-001	 1.7441532441e+000	-6.3179980737e-001
 4.2809816625e-001	 1.7483512119e+000	-5.8342485755e-001
 4.1130929234e-001	 1.7523768619e+000	-5.3690066999e-001
 3.9452846406e-001	 1.7562309902e+000	-4.9165421484e-001
 3.7775809829e-001	 1.7599144352e+000	-4.4711793034e-001
 3.6100058217e-001	 1.7634280761e+000	-4.0273124210e-001
 3.4425827236e-001	 1.7667728326e+000	-3.5794202574e-001
 3.2753349434e-001	 1.7699496631e+000	-3.1220801046e-001
 5.0216374210e-001	 1.7545530987e+000	-7.9941239440e-001
 4.8513413765e-001	 1.7593379063e+000	-7.4554695333e-001
 4.6810260427e-001	 1.7639458472e+000	-6.9457641401e-001
 4.5107170448e-001	 1.7683775947e+000	-6.4588051896e-001
 4.3404397412e-001	 1.7726338676e+000	-5.9884050409e-001
 4.1702192139e-001	 1.7767154294e+000	-5.5284084428e-001
 4.0000802606e-001	 1.7806230873e+000	-5.0727094701e-001
 3.8300473855e-001	 1.7843576912e+000	-4.6152679108e-001
 3.6601447914e-001	 1.7879201327e+000	-4.1501250768e-001
 3.4903963725e-001	 1.7913113441e+000	-3.6714190136e-001
 3.3208257065e-001	 1.7945322974e+000	-3.1733990864e-001
 5.0904269747e-001	 1.7785880727e+000	-7.9728084359e-001
 4.9177981077e-001	 1.7834384256e+000	-7.4874314794e-001
 4.7451496871e-001	 1.7881094890e+000	-7.0243810153e-001
 4.5725076893e-001	 1.7926019453e+000	-6.5770253088e-001
 4.3998978198e-001	 1.7969165233e+000	-6.1387566213e-001
 4.2273455045e-001	 1.8010539969e+000	-5.7030094149e-001
 4.0548758806e-001	 1.8050151844e+000	-5.2632780061e-001
 3.8825137880e-001	 1.8088009473e+000	-4.8131336355e-001
 3.7102837612e-001	 1.8124121893e+000	-4.3462409287e-001
 3.5382100214e-001	 1.8158498557e+000	-3.8563737199e-001
 3.3663164696e-001	 1.8191149316e+000	-3.3374302167e-001
 5.1592165284e-001	 1.8026230466e+000	-7.8521027836e-001
 4.9842548389e-001	 1.8075389448e+000	-7.4385915550e-001
 4.8092733315e-001	 1.8122731307e+000	-7.0410756998e-001
 4.6342983337e-001	 1.8168262959e+000	-6.6524694195e-001
 4.4593558984e-001	 1.8211991790e+000	-6.2657200602e-001
 4.2844717952e-001	 1.8253925645e+000	-5.8738271011e-001
 4.1096715007e-001	 1.8294072815e+000	-5.4698605583e-001
 3.9349801906e-001	 1.8332442033e+000	-5.0469787716e-001
 3.7604227309e-001	 1.8369042460e+000	-4.5984455454e-001
 3.5860236704e-001	 1.8403883673e+000	-4.1176466182e-001
 3.4118072327e-001	 1.8436975658e+000	-3.5981054345e-001
 5.2280060822e-001	 1.8266580206e+000	-7.6101741270e-001
 5.0507115701e-001	 1.8316394641e+000	-7.2877349145e-001
 4.8733969760e-001	 1.8364367724e+000	-6.9752480213e-001
 4.6960889782e-001	 1.8410506465e+000	-6.6651482473e-001
 4.5188139771e-001	 1.8454818348e+000	-6.3499127778e-001
 4.3415980858e-001	 1.8497311320e+000	-6.0220809920e-001
 4.1644671207e-001	 1.8537993786e+000	-5.6742736507e-001
 3.9874465931e-001	 1.8576874594e+000	-5.2992114336e-001
 3.8105617007e-001	 1.8613963026e+000	-4.8897327928e-001
 3.6338373194e-001	 1.8649268788e+000	-4.4388110980e-001
 3.4572979958e-001	 1.8682802000e+000	-3.9395710472e-001
 5.2967956359e-001	 1.8506929945e+000	-7.2253759592e-001
 5.1171683013e-001	 1.8557399833e+000	-7.0138328296e-001
 4.9375206204e-001	 1.8606004142e+000	-6.8064840643e-001
 4.7578796226e-001	 1.8652749971e+000	-6.5952592850e-001
 4.5782720558e-001	 1.8697644905e+000	-6.3721398401e-001
 4.3987243764e-001	 1.8740696995e+000	-6.1291794672e-001
 4.2192627407e-001	 1.8781914757e+000	-5.6248114916e-001
 4.0399129957e-001	 1.8821307154e+000	-5.0539761598e-001
 3.8607006704e-001	 1.8858883592e+000	-4.4865049658e-001
 3.6816509683e-001	 1.8894653904e+000	-3.9211835229e-001
 3.5027887589e-001	 1.8928628342e+000	-3.3562879791e-001
 5.3655851896e-001	 1.8747279685e+000	-6.6762361800e-001
 5.1836250325e-001	 1.8798405026e+000	-6.2226419338e-001
 5.0016442648e-001	 1.8847640559e+000	-5.7508251770e-001
 4.8196702671e-001	 1.8894993478e+000	-5.2836661811e-001
 4.6377301344e-001	 1.8940471462e+000	-4.8230441326e-001
 4.4558506670e-001	 1.8984082670e+000	-4.3703292087e-001
 4.2740583607e-001	 1.9025835728e+000	-3.9263740505e-001
 4.0923793982e-001	 1.9065739715e+000	-3.4915067180e-001
 3.9108396402e-001	 1.9103804158e+000	-3.0655251164e-001
 3.7294646173e-001	 1.9140039020e+000	-2.6476928806e-001
 3.5482795221e-001	 1.9174454684e+000	-2.2367366953e-001
 5.4343747433e-001	 1.8987629424e+000	-4.2297353263e-001
 5.2500817637e-001	 1.9039410219e+000	-3.8521348012e-001
 5.0657679093e-001	 1.9089276977e+000	-3.4794416904e-001
 4.8814609116e-001	 1.9137236984e+000	-3.1146934689e-001
 4.6971882131e-001	 1.9183298019e+000	-2.7604044104e-001
 4.5129769576e-001	 1.9227468346e+000	-2.4185546381e-001
 4.3288539808e-001	 1.9269756698e+000	-2.0905807405e-001
 4.1448458008e-001	 1.9310172275e+000	-1.7773679430e-001
 3.9609786100e-001	 1.9348724724e+000	-1.4792438268e-001
 3.7772782663e-001	 1.9385424135e+000	-1.1959735784e-001
 3.5937702852e-001	 1.9420281026e+000	-9.2675675064e-002
 5.5031642970e-001	 1.9227979164e+000	-1.7422140776e-001
 5.3165384949e-001	 1.9280415411e+000	-1.4424183317e-001
 5.1298915537e-001	 1.9330913394e+000	-1.1506734581e-001
 4.9432515561e-001	 1.9379480490e+000	-8.7070723304e-002
 4.7566462918e-001	 1.9426124576e+000	-6.0569894507e-002
 4.5701032483e-001	 1.9470854021e+000	-3.5826748515e-002
 4.3836496008e-001	 1.9513677669e+000	-1.3046107720e-002
 4.1973122034e-001	 1.9554604835e+000	 7.6251357011e-003
 4.0111175798e-001	 1.9593645290e+000	 2.6098720960e-002
 3.8250919152e-001	 1.9630809251e+000	 4.2345559025e-002
 3.6392610484e-001	 1.9666107368e+000	 5.6396114157e-002
 3.1843534172e-001	 1.7207843947e+000	-3.4230145435e-001
 3.0219441554e-001	 1.7237106878e+000	-3.4258522844e-001
 2.8597496228e-001	 1.7264756937e+000	-3.4132043365e-001
 2.6977914796e-001	 1.7290804525e+000	-3.3810685692e-001
 2.5360910577e-001	 1.7315260383e+000	-3.3255658508e-001
 2.3746693559e-001	 1.7338135582e+000	-3.2429496445e-001
 2.2135470344e-001	 1.7359441509e+000	-3.1296150122e-001
 2.0527444106e-001	 1.7379189865e+000	-2.9821070230e-001
 1.8922814542e-001	 1.7397392646e+000	-2.7971285605e-001
 1.7321777839e-001	 1.7414062137e+000	-2.5715475289e-001
 1.5724526631e-001	 1.7429210901e+000	-2.3024034566e-001
 3.2298441803e-001	 1.7453670289e+000	-3.1997707967e-001
 3.0651147862e-001	 1.7483351262e+000	-3.1318309649e-001
 2.9006031889e-001	 1.7511396322e+000	-3.0383746789e-001
 2.7363313579e-001	 1.7537816018e+000	-2.9149607718e-001
 2.5723209300e-001	 1.7562621246e+000	-2.7572881409e-001
 2.4085932039e-001	 1.7585823233e+000	-2.5612057900e-001
 2.2451691349e-001	 1.7607433531e+000	-2.3227222391e-001
 2.0820693307e-001	 1.7627464006e+000	-2.0380142984e-001
 1.9193140464e-001	 1.7645926827e+000	-1.7034352013e-001
 1.7569231808e-001	 1.7662834454e+000	-1.3155220959e-001
 1.5949162725e-001	 1.7678199628e+000	-8.7100289505e-002
 3.2753349434e-001	 1.7699496631e+000	-3.1220801046e-001
 3.1082854170e-001	 1.7729595646e+000	-2.9919366011e-001
 2.9414567549e-001	 1.7758035707e+000	-2.8263308804e-001
 2.7748712362e-001	 1.7784827512e+000	-2.6203652118e-001
 2.6085508023e-001	 1.7809982109e+000	-2.3692992829e-001
 2.4425170518e-001	 1.7833510884e+000	-2.0685607088e-001
 2.2767912354e-001	 1.7855425553e+000	-1.7137548675e-001
 2.1113942509e-001	 1.7875738147e+000	-1.3006740572e-001
 1.9463466387e-001	 1.7894461008e+000	-8.2530597266e-002
 1.7816685777e-001	 1.7911606770e+000	-2.8384149831e-002
 1.6173798820e-001	 1.7927188355e+000	 3.2731817988e-002
 3.3208257065e-001	 1.7945322974e+000	-3.1733990864e-001
 3.1514560478e-001	 1.7975840030e+000	-2.9905973367e-001
 2.9823103210e-001	 1.8004675091e+000	-2.7624636818e-001
 2.8134111145e-001	 1.8031839005e+000	-2.4836257991e-001
 2.6447806745e-001	 1.8057342971e+000	-2.1488864414e-001
 2.4764408998e-001	 1.8081198535e+000	-1.7532344326e-001
 2.3084133360e-001	 1.8103417574e+000	-1.2918549491e-001
 2.1407191711e-001	 1.8124012288e+000	-7.6013907963e-002
 1.9733792309e-001	 1.8142995188e+000	-1.5369266185e-002
 1.8064139747e-001	 1.8160379086e+000	 5.3165560609e-002
 1.6398434915e-001	 1.8176177082e+000	 1.2998467770e-001
 3.3663164696e-001	 1.8191149316e+000	-3.3374302167e-001
 3.1946266786e-001	 1.8222084414e+000	-3.1124687359e-001
 3.0231638870e-001	 1.8251314476e+000	-2.8323732465e-001
 2.8519509928e-001	 1.8278850498e+000	-2.4912783095e-001
 2.6810105468e-001	 1.8304703834e+000	-2.0835115329e-001
 2.5103647477e-001	 1.8328886186e+000	-1.6036050772e-001
 2.3400354365e-001	 1.8351409596e+000	-1.0463064011e-001
 2.1700440913e-001	 1.8372286429e+000	-4.0658824409e-002
 2.0004118231e-001	 1.8391529369e+000	 3.2034215992e-002
 1.8311593716e-001	 1.8409151402e+000	 1.1390346352e-001
 1.6623071010e-001	 1.8425165809e+000	 2.0537883837e-001
 3.4118072327e-001	 1.8436975658e+000	-3.5981054345e-001
 3.2377973094e-001	 1.8468328798e+000	-3.3424186221e-001
 3.0640174531e-001	 1.8497953861e+000	-3.0218551996e-001
 2.8904908711e-001	 1.8525861991e+000	-2.6300375930e-001
 2.7172404191e-001	 1.8552064696e+000	-2.1607995755e-001
 2.5442885957e-001	 1.8576573837e+000	-1.6081983036e-001
 2.3716575370e-001	 1.8599401617e+000	-9.6652554877e-002
 2.1993690114e-001	 1.8620560570e+000	-2.3031812051e-002
 2.0274444153e-001	 1.8640063550e+000	 6.0563252319e-002
 1.8559047685e-001	 1.8657923719e+000	 1.5462714771e-001
 1.6847707105e-001	 1.8674154536e+000	 2.5962724006e-001
 3.4572979958e-001	 1.8682802000e+000	-3.9395710472e-001
 3.2809679402e-001	 1.8714573182e+000	-3.6655131131e-001
 3.1048710192e-001	 1.8744593246e+000	-3.3168877680e-001
 2.9290307494e-001	 1.8772873485e+000	-2.8256946265e-001
 2.7534702914e-001	 1.8799425559e+000	-2.2825590423e-001
 2.5782124437e-001	 1.8824261489e+000	-1.7014545497e-001
 2.4032796375e-001	 1.8847393639e+000	-1.0768490898e-001
 2.2286939316e-001	 1.8868834711e+000	-4.0277130861e-002
 2.0544770075e-001	 1.8888597730e+000	 3.2718166866e-002
 1.8806501655e-001	 1.8906696035e+000	 1.1198354890e-001
 1.7072343199e-001	 1.8923143264e+000	 1.9824288913e-001
 3.5027887589e-001	 1.8928628342e+000	-3.3562879791e-001
 3.3241385710e-001	 1.8960817566e+000	-3.0328060751e-001
 3.1457245852e-001	 1.8991232631e+000	-2.6924059879e-001
 2.9675706277e-001	 1.9019884978e+000	-2.3310833515e-001
 2.7897001637e-001	 1.9046786422e+000	-1.9443525132e-001
 2.6121362916e-001	 1.9071949140e+000	-1.5272510570e-001
 2.4349017380e-001	 1.9095385661e+000	-1.0743454787e-001
 2.2580188518e-001	 1.9117108852e+000	-5.7973797454e-002
 2.0815095998e-001	 1.9137131911e+000	-3.7074299915e-003
 1.9053955624e-001	 1.9155468351e+000	 5.6044734292e-002
 1.7296979294e-001	 1.9172131991e+000	 1.2200664350e-001
 3.5482795221e-001	 1.9174454684e+000	-2.2367366953e-001
 3.3673092018e-001	 1.9207061950e+000	-2.0291229063e-001
 3.1865781513e-001	 1.9237872016e+000	-1.8125142815e-001
 3.0061105060e-001	 1.9266896471e+000	-1.5831012691e-001
 2.8259300359e-001	 1.9294147284e+000	-1.3365668293e-001
 2.6460601396e-001	 1.9319636791e+000	-1.0680908695e-001
 2.4665238385e-001	 1.9343377682e+000	-7.7235589025e-002
 2.2873437719e-001	 1.9365382993e+000	-4.4355380316e-002
 2.1085421920e-001	 1.9385666092e+000	-7.5393876572e-003
 1.9301409593e-001	 1.9404240667e+000	 3.3888823561e-002
 1.7521615389e-001	 1.9421120718e+000	 8.0652042908e-002
 3.5937702852e-001	 1.9420281026e+000	-9.2675675064e-002
 3.4104798327e-001	 1.9453306334e+000	-8.1590454710e-002
 3.2274317174e-001	 1.9484511400e+000	-7.0475702154e-002
 3.0446503843e-001	 1.9513907964e+000	-5.8972115583e-002
 2.8621599082e-001	 1.9541508147e+000	-4.6666895362e-002
 2.6799839876e-001	 1.9567324442e+000	-3.3094178014e-002
 2.4981459391e-001	 1.9591369704e+000	-1.7735597607e-002
 2.3166686921e-001	 1.9613657134e+000	-2.0970329516e-005
 2.1355747842e-001	 1.9634200273e+000	 2.0670902214e-002
 1.9548863562e-001	 1.9653012984e+000	 4.5011315683e-002
 1.7746251484e-001	 1.9670109445e+000	 7.3720636531e-002
 3.6392610484e-001	 1.9666107368e+000	 5.6396114157e-002
 3.4536504635e-001	 1.9699550718e+000	 5.9769390519e-002
 3.2682852835e-001	 1.9731150785e+000	 6.2224063085e-002
 3.0831902626e-001	 1.9760919458e+000	 6.4095564610e-002
 2.8983897805e-001	 1.9788869010e+000	 6.5775705290e-002
 2.7139078356e-001	 1.9815012093e+000	 6.7712248904e-002
 2.5297680396e-001	 1.9839361725e+000	 7.0408355070e-002
 2.3459936123e-001	 1.9861931275e+000	 7.4421892026e-002
 2.1626073764e-001	 1.9882734453e+000	 8.0364624550e-002
 1.9796317532e-001	 1.9901785300e+000	 8.8901281914e-002
 1.7970887579e-001	 1.9919098172e+000	 1.0074851093e-001
 1.5724526631e-001	 1.7429210901e+000	-2.3024034566e-001
 1.4131249968e-001	 1.7442851766e+000	-2.8974805628e-001
 1.2542133286e-001	 1.7454997821e+000	-3.4258790631e-001
 1.0957358381e-001	 1.7465662397e+000	-3.8863061154e-001
 9.3771033799e-002	 1.7474859064e+000	-4.2776510316e-001
 7.8015427255e-002	 1.7482601617e+000	-4.5989880777e-001
 6.2308471545e-002	 1.7488904066e+000	-4.8495787393e-001
 4.6651836836e-002	 1.7493780627e+000	-5.0288734650e-001
 3.1047155971e-002	 1.7497245709e+000	-5.1365128967e-001
 1.5496024379e-002	 1.7499313910e+000	-5.1723286021e-001
 0.0000000000e+000	 1.7500000000e+000	-5.1363433210e-001
 1.5949162725e-001	 1.7678199628e+000	-8.7100289505e-002
 1.4333124967e-001	 1.7692035363e+000	-1.3334525773e-001
 1.2721306619e-001	 1.7704354933e+000	-1.7213425151e-001
 1.1113892072e-001	 1.7715171860e+000	-2.0327924464e-001
 9.5110619996e-002	 1.7724499908e+000	-2.2661260500e-001
 7.9129933358e-002	 1.7732353069e+000	-2.4198740640e-001
 6.3198592567e-002	 1.7738745553e+000	-2.4927768261e-001
 4.7318291647e-002	 1.7743691778e+000	-2.4837862466e-001
 3.1490686771e-002	 1.7747206362e+000	-2.3920672274e-001
 1.5717396155e-002	 1.7749304109e+000	-2.2169985391e-001
 0.0000000000e+000	 1.7750000000e+000	-1.9581731725e-001
 1.6173798820e-001	 1.7927188355e+000	 3.2731817988e-002
 1.4534999967e-001	 1.7941218960e+000	 4.4856025956e-004
 1.2900479952e-001	 1.7953712044e+000	-2.3571683622e-002
 1.1270425763e-001	 1.7964681323e+000	-3.9081488593e-002
 9.6450206192e-002	 1.7974140752e+000	-4.5856041358e-002
 8.0244439462e-002	 1.7982104521e+000	-4.3693484653e-002
 6.4088713588e-002	 1.7988587040e+000	-3.2415199103e-002
 4.7984746459e-002	 1.7993602930e+000	-1.1866023917e-002
 3.1934217570e-002	 1.7997167015e+000	 1.8085582260e-002
 1.5938767932e-002	 1.7999294307e+000	 5.7547438871e-002
 0.0000000000e+000	 1.8000000000e+000	 1.0660359778e-001
 1.6398434915e-001	 1.8176177082e+000	 1.2998467770e-001
 1.4736874966e-001	 1.8190402556e+000	 1.1221158653e-001
 1.3079653284e-001	 1.8203069156e+000	 1.0352833391e-001
 1.1426959454e-001	 1.8214190786e+000	 1.0424246594e-001
 9.7789792389e-002	 1.8223781596e+000	 1.1463665848e-001
 8.1358945565e-002	 1.8231855972e+000	 1.3496833989e-001
 6.4978834610e-002	 1.8238428526e+000	 1.6546938092e-001
 4.8651201270e-002	 1.8243514082e+000	 2.0634585031e-001
 3.2377748369e-002	 1.8247127668e+000	 2.5777783464e-001
 1.6160139709e-002	 1.8249284506e+000	 3.1991932099e-001
 0.0000000000e+000	 1.8250000000e+000	 3.9289814062e-001
 1.6623071010e-001	 1.8425165809e+000	 2.0537883837e-001
 1.4938749966e-001	 1.8439586153e+000	 2.0251873185e-001
 1.3258826617e-001	 1.8452426268e+000	 2.0959591314e-001
 1.1583493145e-001	 1.8463700248e+000	 2.2697883525e-001
 9.9129378586e-002	 1.8473422440e+000	 2.5500877983e-001
 8.2473451668e-002	 1.8481607424e+000	 2.9399944651e-001
 6.5868955631e-002	 1.8488270013e+000	 3.4423661401e-001
 4.9317656081e-002	 1.8493425234e+000	 4.0597787166e-001
 3.2821279168e-002	 1.8497088321e+000	 4.7945241966e-001
 1.6381511485e-002	 1.8499274705e+000	 5.6486093675e-001
 0.0000000000e+000	 1.8500000000e+000	 6.6237551307e-001
 1.6847707105e-001	 1.8674154536e+000	 2.5962724006e-001
 1.5140624966e-001	 1.8688769750e+000	 2.7194184742e-001
 1.3437999950e-001	 1.8701783379e+000	 2.9506263661e-001
 1.1740026836e-001	 1.8713209711e+000	 3.2941981542e-001
 1.0046896478e-001	 1.8723063283e+000	 3.7541407496e-001
 8.3587957771e-002	 1.8731358876e+000	 4.3341614492e-001
 6.6759076653e-002	 1.8738111500e+000	 5.0376642546e-001
 4.9984110893e-002	 1.8743336386e+000	 5.8677469423e-001
 3.3264809967e-002	 1.8747048974e+000	 6.8271988684e-001
 1.6602883262e-002	 1.8749264904e+000	 7.9184994917e-001
 0.0000000000e+000	 1.8750000000e+000	 9.1438175951e-001
 1.7072343199e-001	 1.8923143264e+000	 1.9824288913e-001
 1.5342499965e-001	 1.8937953346e+000	 1.8981255836e-001
 1.3617173282e-001	 1.8951140491e+000	 1.8844299541e-001
 1.1896560528e-001	 1.8962719174e+000	 1.9505367005e-001
 1.0180855098e-001	 1.8972704127e+000	 2.1060049329e-001
 8.4702463874e-002	 1.8981110327e+000	 2.3607438830e-001
 6.7649197674e-002	 1.8987952986e+000	 2.7249979842e-001
 5.0650565704e-002	 1.8993247537e+000	 3.2093313737e-001
 3.3708340767e-002	 1.8997009627e+000	 3.8246118658e-001
 1.6824255038e-002	 1.8999255102e+000	 4.5819944476e-001
 0.0000000000e+000	 1.9000000000e+000	 5.4929043466e-001
 1.7296979294e-001	 1.9172131991e+000	 1.2200664350e-001
 1.5544374965e-001	 1.9187136943e+000	 9.5387677010e-002
 1.3796346615e-001	 1.9200497603e+000	 7.4541971577e-002
 1.2053094219e-001	 1.9212228637e+000	 6.0425770410e-002
 1.0314813718e-001	 1.9222344971e+000	 5.4033919084e-002
 8.5816969978e-002	 1.9230861779e+000	 5.6398371124e-002
 6.8539318696e-002	 1.9237794473e+000	 6.8586627590e-002
 5.1317020516e-002	 1.9243158689e+000	 9.1700115946e-002
 3.4151871566e-002	 1.9246970280e+000	 1.2687251343e-001
 1.7045626815e-002	 1.9249245301e+000	 1.7526802025e-001
 0.0000000000e+000	 1.9250000000e+000	 2.3807958773e-001
 1.7521615389e-001	 1.9421120718e+000	 8.0652042908e-002
 1.5746249964e-001	 1.9436320540e+000	 3.8079503000e-002
 1.3975519948e-001	 1.9449854715e+000	-9.0937747933e-005
 1.2209627910e-001	 1.9461738100e+000	-3.2867688339e-002
 1.0448772337e-001	 1.9471985815e+000	-5.9218266432e-002
 8.6931476081e-002	 1.9480613231e+000	-7.8070859197e-002
 6.9429439717e-002	 1.9487635960e+000	-8.8315953428e-002
 5.1983475327e-002	 1.9493069841e+000	-8.8808029440e-002
 3.4595402365e-002	 1.9496930933e+000	-7.8367313241e-002
 1.7266998592e-002	 1.9499235500e+000	-5.5781581494e-002
 0.0000000000e+000	 1.9500000000e+000	-1.9808013792e-002
 1.7746251484e-001	 1.9670109445e+000	 7.3720636531e-002
 1.5948124964e-001	 1.9685504136e+000	 1.7428134081e-002
 1.4154693280e-001	 1.9699211826e+000	-3.5918325303e-002
 1.2366161601e-001	 1.9711247563e+000	-8.5293233561e-002
 1.0582730957e-001	 1.9721626658e+000	-1.2962777295e-001
 8.8045982184e-002	 1.9730364682e+000	-1.6781144445e-001
 7.0319560739e-002	 1.9737477446e+000	-1.9869376884e-001
 5.2649930139e-002	 1.9742980993e+000	-2.2108605485e-001
 3.5038933164e-002	 1.9746891586e+000	-2.3376322849e-001
 1.7488370368e-002	 1.9749225698e+000	-2.3546571791e-001
 0.0000000000e+000	 1.9750000000e+000	-2.2490138810e-001
 1.7970887579e-001	 1.9919098172e+000	 1.0074851093e-001
 1.6149999964e-001	 1.9934687733e+000	 3.2971471412e-002
 1.4333866613e-001	 1.9948568938e+000	-3.3401728108e-002
 1.2522695292e-001	 1.9960757025e+000	-9.7313099444e-002
 1.0716689577e-001	 1.9971267502e+000	-1.5765879547e-001
 8.9160488287e-002	 1.9980116134e+000	-2.1329080720e-001
 7.1209681760e-002	 1.9987318933e+000	-2.6301873718e-001
 5.3316384950e-002	 1.9992892145e+000	-3.0561164331e-001
 3.5482463963e-002	 1.9996852239e+000	-3.3979994702e-001
 1.7709742145e-002	 1.9999215897e+000	-3.6427739985e-001
 0.0000000000e+000	 2.0000000000e+000	-3.7770310247e-001
 2.0000000000e+000	 0.0000000000e+000	 3.6702285803e+000
 1.9999215897e+000	 1.7709742145e-002	 3.6276457612e+000
 1.9996852239e+000	 3.5482463963e-002	 3.5757737602e+000
 1.9992892145e+000	 5.3316384950e-002	 3.5159496884e+000
 1.9987318933e+000	 7.1209681760e-002	 3.4494576332e+000
 1.9980116134e+000	 8.9160488287e-002	 3.3775252894e+000
 1.9971267502e+000	 1.0716689577e-001	 3.3013206220e+000
 1.9960757025e+000	 1.2522695292e-001	 3.2219485684e+000
 1.9948568938e+000	 1.4333866613e-001	 3.1404477888e+000
 1.9934687733e+000	 1.6149999964e-001	 3.0577874744e+000
 1.9919098172e+000	 1.7970887579e-001	 2.9748642213e+000
 2.0250000000e+000	 0.0000000000e+000	 3.4683070866e+000
 2.0249206096e+000	 1.7931113921e-002	 3.4456074764e+000
 2.0246812892e+000	 3.5925994762e-002	 3.4123045500e+000
 2.0242803297e+000	 5.3982839761e-002	 3.3697226744e+000
 2.0237160419e+000	 7.2099802782e-002	 3.3191314548e+000
 2.0229867586e+000	 9.0274994390e-002	 3.2617423113e+000
 2.0220908346e+000	 1.0850648196e-001	 3.1987050908e+000
 2.0210266488e+000	 1.2679228983e-001	 3.1311047208e+000
 2.0197926050e+000	 1.4513039946e-001	 3.0599579151e+000
 2.0183871330e+000	 1.6351874963e-001	 2.9862099406e+000
 2.0168086899e+000	 1.8195523674e-001	 2.9107314533e+000
 2.0500000000e+000	 0.0000000000e+000	 3.2764840944e+000
 2.0499196295e+000	 1.8152485698e-002	 3.2710121608e+000
 2.0496773545e+000	 3.6369525562e-002	 3.2537917422e+000
 2.0492714448e+000	 5.4649294573e-002	 3.2261370635e+000
 2.0487001906e+000	 7.2989923804e-002	 3.1893057245e+000
 2.0479619037e+000	 9.1389500493e-002	 3.1444952185e+000
 2.0470549190e+000	 1.0984606816e-001	 3.0928394862e+000
 2.0459775951e+000	 1.2835762674e-001	 3.0354055173e+000
 2.0447283162e+000	 1.4692213278e-001	 2.9731900055e+000
 2.0433054926e+000	 1.6553749963e-001	 2.9071160682e+000
 2.0417075627e+000	 1.8420159768e-001	 2.8380300408e+000
 2.0750000000e+000	 0.0000000000e+000	 3.0942166601e+000
 2.0749186493e+000	 1.8373857475e-002	 3.1033666855e+000
 2.0746734198e+000	 3.6813056361e-002	 3.0997912616e+000
 2.0742625600e+000	 5.5315749384e-002	 3.0847970436e+000
 2.0736843393e+000	 7.3880044825e-002	 3.0596320737e+000
 2.0729370489e+000	 9.2504006597e-002	 3.0254822342e+000
 2.0720190034e+000	 1.1118565436e-001	 2.9834677407e+000
 2.0709285414e+000	 1.2992296366e-001	 2.9346396837e+000
 2.0696640273e+000	 1.4871386611e-001	 2.8799766288e+000
 2.0682238523e+000	 1.6755624962e-001	 2.8203812845e+000
 2.0666064354e+000	 1.8644795863e-001	 2.7566772489e+000
 2.1000000000e+000	 0.0000000000e+000	 2.9209876944e+000
 2.0999176692e+000	 1.8595229251e-002	 2.9422016137e+000
 2.0996694851e+000	 3.7256587160e-002	 2.9498806894e+000
 2.0992536752e+000	 5.5982204196e-002	 2.9453265532e+000
 2.0986684879e+000	 7.4770165847e-002	 2.9297801088e+000
 2.0979121941e+000	 9.3618512700e-002	 2.9044179159e+000
 2.0969830877e+000	 1.1252524055e-001	 2.8703486149e+000
 2.0958794877e+000	 1.3148830057e-001	 2.8286094053e+000
 2.0945997385e+000	 1.5050559944e-001	 2.7801625846e+000
 2.0931422120e+000	 1.6957499962e-001	 2.7258921600e+000
 2.0915053081e+000	 1.8869431958e-001	 2.6666005411e+000
 2.1250000000e+000	 0.0000000000e+000	 2.7563044419e+000
 2.1249166891e+000	 1.8816601028e-002	 2.7870698066e+000
 2.1246655504e+000	 3.7700117959e-002	 2.8036579893e+000
 2.1242447904e+000	 5.6648659007e-002	 2.8073681189e+000
 2.1236526366e+000	 7.5660286868e-002	 2.7994363547e+000
 2.1228873393e+000	 9.4733018803e-002	 2.7810321941e+000
 2.1219471721e+000	 1.1386482675e-001	 2.7532548252e+000
 2.1208304339e+000	 1.3305363748e-001	 2.7171295351e+000
 2.1195354497e+000	 1.5229733276e-001	 2.6736041837e+000
 2.1180605716e+000	 1.7159374962e-001	 2.6235457524e+000
 2.1164041808e+000	 1.9094068053e-001	 2.5677369796e+000
 2.1500000000e+000	 0.0000000000e+000	 2.5996970658e+000
 2.1499157090e+000	 1.9037972804e-002	 2.6375451274e+000
 2.1496616157e+000	 3.8143648758e-002	 2.6607403225e+000
 2.1492359056e+000	 5.7315113819e-002	 2.6705817753e+000
 2.1486367853e+000	 7.6550407890e-002	 2.6683032703e+000
 2.1478624844e+000	 9.5847524906e-002	 2.6550694786e+000
 2.1469112565e+000	 1.1520441295e-001	 2.6319722322e+000
 2.1457813802e+000	 1.3461897439e-001	 2.6000268578e+000
 2.1444711609e+000	 1.5408906609e-001	 2.5601685786e+000
 2.1429789313e+000	 1.7361249961e-001	 2.5132489971e+000
 2.1413030535e+000	 1.9318704148e-001	 2.4600326668e+000
 2.1750000000e+000	 0.0000000000e+000	 2.4507173312e+000
 2.1749147288e+000	 1.9259344581e-002	 2.4932212343e+000
 2.1746576810e+000	 3.8587179558e-002	 2.5207629445e+000
 2.1742270207e+000	 5.7981568630e-002	 2.5346440585e+000
 2.1736209339e+000	 7.7440528911e-002	 2.5360983335e+000
 2.1728376296e+000	 9.6962031009e-002	 2.5262878266e+000
 2.1718753409e+000	 1.1654399914e-001	 2.5062990859e+000
 2.1707323265e+000	 1.3618431130e-001	 2.4771394032e+000
 2.1694068720e+000	 1.5588079942e-001	 2.4397331406e+000
 2.1678972910e+000	 1.7563124961e-001	 2.3949181398e+000
 2.1662019262e+000	 1.9543340243e-001	 2.3434422263e+000
 2.2000000000e+000	 0.0000000000e+000	 2.3089373773e+000
 2.1999137487e+000	 1.9480716358e-002	 2.3537104554e+000
 2.1996537463e+000	 3.9030710357e-002	 2.3833781768e+000
 2.1992181359e+000	 5.8648023441e-002	 2.3992470684e+000
 2.1986050826e+000	 7.8330649933e-002	 2.4025531872e+000
 2.1978127748e+000	 9.8076537113e-002	 2.3944581671e+000
 2.1968394252e+000	 1.1788358534e-001	 2.3760453210e+000
 2.1956832728e+000	 1.3774964821e-001	 2.3483158083e+000
 2.1943425832e+000	 1.5767253274e-001	 2.3121848792e+000
 2.1928156506e+000	 1.7764999960e-001	 2.2684782068e+000
 2.1911007990e+000	 1.9767976337e-001	 2.2179283182e+000
 2.2250000000e+000	 0.0000000000e+000	 2.1739485731e+000
 2.2249127686e+000	 1.9702088134e-002	 2.2186427402e+000
 2.2246498116e+000	 3.9474241156e-002	 2.2482544483e+000
 2.2242092511e+000	 5.9314478253e-002	 2.2640975947e+000
 2.2235892313e+000	 7.9220770954e-002	 2.2674128439e+000
 2.2227879199e+000	 9.9191043216e-002	 2.2593635774e+000
 2.2218035096e+000	 1.1922317154e-001	 2.2410319009e+000
 2.2206342191e+000	 1.3931498512e-001	 2.2134147205e+000
 2.2192782944e+000	 1.5946426607e-001	 2.1774199005e+000
 2.2177340103e+000	 1.7966874960e-001	 2.1338625124e+000
 2.2159996717e+000	 1.9992612432e-001	 2.0834611881e+000
 2.2500000000e+000	 0.0000000000e+000	 2.0453604490e+000
 2.2499117884e+000	 1.9923459911e-002	 2.0876646805e+000
 2.2496458769e+000	 3.9917771955e-002	 2.1150754006e+000
 2.2492003663e+000	 5.9980933064e-002	 2.1289163004e+000
 2.2485733799e+000	 8.0110891976e-002	 2.1304349429e+000
 2.2477630651e+000	 1.0030554932e-001	 2.1207986090e+000
 2.2467675940e+000	 1.2056275773e-001	 2.1010902049e+000
 2.2455851654e+000	 1.4088032204e-001	 2.0723042420e+000
 2.2442140055e+000	 1.6125599940e-001	 2.0353429020e+000
 2.2426523700e+000	 1.8168749959e-001	 1.9910121982e+000
 2.2408985444e+000	 2.0217248527e-001	 1.9400182454e+000
 1.9919098172e+000	 1.7970887579e-001	 2.9748642213e+000
 1.9901785300e+000	 1.9796317532e-001	 2.9338049623e+000
 1.9882734453e+000	 2.1626073764e-001	 2.8859284048e+000
 1.9861931275e+000	 2.3459936123e-001	 2.8317625238e+000
 1.9839361725e+000	 2.5297680396e-001	 2.7717556009e+000
 1.9815012093e+000	 2.7139078356e-001	 2.7062737883e+000
 1.9788869010e+000	 2.8983897805e-001	 2.6355987945e+000
 1.9760919458e+000	 3.0831902626e-001	 2.5599257005e+000
 1.9731150785e+000	 3.2682852835e-001	 2.4793609146e+000
 1.9699550718e+000	 3.4536504635e-001	 2.3939202761e+000
 1.9666107368e+000	 3.6392610484e-001	 2.3035273147e+000
 2.0168086899e+000	 1.8195523674e-001	 2.9107314533e+000
 2.0150557616e+000	 2.0043771501e-001	 2.8739136054e+000
 2.0131268634e+000	 2.1896399687e-001	 2.8305996495e+000
 2.0110205416e+000	 2.3753185325e-001	 2.7813028987e+000
 2.0087353747e+000	 2.5613901401e-001	 2.7264536259e+000
 2.0062699745e+000	 2.7478316835e-001	 2.6663965704e+000
 2.0036229872e+000	 2.9346196528e-001	 2.6013885722e+000
 2.0007930951e+000	 3.1217301410e-001	 2.5315963431e+000
 1.9977790170e+000	 3.3091388495e-001	 2.4570943827e+000
 1.9945795102e+000	 3.4968210943e-001	 2.3778630491e+000
 1.9911933711e+000	 3.6847518115e-001	 2.2937867935e+000
 2.0417075627e+000	 1.8420159768e-001	 2.8380300408e+000
 2.0399329932e+000	 2.0291225470e-001	 2.8046324990e+000
 2.0379802815e+000	 2.2166725609e-001	 2.7652037447e+000
 2.0358479557e+000	 2.4046434526e-001	 2.7202431097e+000
 2.0335345769e+000	 2.5930122406e-001	 2.6701633825e+000
 2.0310387396e+000	 2.7817555315e-001	 2.6152882548e+000
 2.0283590735e+000	 2.9708495251e-001	 2.5558499010e+000
 2.0254942444e+000	 3.1602700193e-001	 2.4919867003e+000
 2.0224429555e+000	 3.3499924156e-001	 2.4237411109e+000
 2.0192039486e+000	 3.5399917252e-001	 2.3510577058e+000
 2.0157760053e+000	 3.7302425746e-001	 2.2737813790e+000
 2.0666064354e+000	 1.8644795863e-001	 2.7566772489e+000
 2.0648102249e+000	 2.0538679439e-001	 2.7259181068e+000
 2.0628336995e+000	 2.2437051531e-001	 2.6897368852e+000
 2.0606753698e+000	 2.4339683728e-001	 2.6486195918e+000
 2.0583337790e+000	 2.6246343411e-001	 2.6029620307e+000
 2.0558075047e+000	 2.8156793795e-001	 2.5530671850e+000
 2.0530951598e+000	 3.0070793974e-001	 2.4991427379e+000
 2.0501953937e+000	 3.1988098976e-001	 2.4412987428e+000
 2.0471068940e+000	 3.3908459817e-001	 2.3795454530e+000
 2.0438283870e+000	 3.5831623560e-001	 2.3137913187e+000
 2.0403586395e+000	 3.7757333378e-001	 2.2438411631e+000
 2.0915053081e+000	 1.8869431958e-001	 2.6666005411e+000
 2.0896874565e+000	 2.0786133409e-001	 2.6377363669e+000
 2.0876871176e+000	 2.2707377453e-001	 2.6042040853e+000
 2.0855027839e+000	 2.4632932930e-001	 2.5664770148e+000
 2.0831329812e+000	 2.6562564417e-001	 2.5249344518e+000
 2.0805762698e+000	 2.8496032274e-001	 2.4798589840e+000
 2.0778312460e+000	 3.0433092696e-001	 2.4314339508e+000
 2.0748965430e+000	 3.2373497759e-001	 2.3797410577e+000
 2.0717708325e+000	 3.4316995478e-001	 2.3247581584e+000
 2.0684528254e+000	 3.6263329868e-001	 2.2663572105e+000
 2.0649412737e+000	 3.8212241009e-001	 2.2043024190e+000
 2.1164041808e+000	 1.9094068053e-001	 2.5677369796e+000
 2.1145646881e+000	 2.1033587378e-001	 2.5400621345e+000
 2.1125405357e+000	 2.2977703375e-001	 2.5086186597e+000
 2.1103301980e+000	 2.4926182132e-001	 2.4738677992e+000
 2.1079321833e+000	 2.6878785422e-001	 2.4361727942e+000
 2.1053450349e+000	 2.8835270754e-001	 2.3957961264e+000
 2.1025673323e+000	 3.0795391419e-001	 2.3528969120e+000
 2.0995976924e+000	 3.2758896542e-001	 2.3075284588e+000
 2.0964347709e+000	 3.4725531138e-001	 2.2596359959e+000
 2.0930772638e+000	 3.6695036176e-001	 2.2090545871e+000
 2.0895239079e+000	 3.8667148640e-001	 2.1555072375e+000
 2.1413030535e+000	 1.9318704148e-001	 2.4600326668e+000
 2.1394419197e+000	 2.1281041347e-001	 2.4328786632e+000
 2.1373939537e+000	 2.3248029298e-001	 2.4030017416e+000
 2.1351576121e+000	 2.5219431333e-001	 2.3708516648e+000
 2.1327313855e+000	 2.7195006427e-001	 2.3367760508e+000
 2.1301138000e+000	 2.9174509234e-001	 2.3010175398e+000
 2.1273034185e+000	 3.1157690142e-001	 2.2637111204e+000
 2.1242988417e+000	 3.3144295325e-001	 2.2248816247e+000
 2.1210987094e+000	 3.5134066799e-001	 2.1844414039e+000
 2.1177017022e+000	 3.7126742484e-001	 2.1421881950e+000
 2.1141065421e+000	 3.9122056271e-001	 2.0978031892e+000
 2.1662019262e+000	 1.9543340243e-001	 2.3434422263e+000
 2.1643191514e+000	 2.1528495317e-001	 2.3161771225e+000
 2.1622473718e+000	 2.3518355220e-001	 2.2873818324e+000
 2.1599850262e+000	 2.5512680535e-001	 2.2574952120e+000
 2.1575305876e+000	 2.7511227432e-001	 2.2268496656e+000
 2.1548825652e+000	 2.9513747713e-001	 2.1956682342e+000
 2.1520395048e+000	 3.1519988865e-001	 2.1640618490e+000
 2.1489999910e+000	 3.3529694108e-001	 2.1320267621e+000
 2.1457626479e+000	 3.5542602459e-001	 2.0994421642e+000
 2.1423261406e+000	 3.7558448792e-001	 2.0660680029e+000
 2.1386891763e+000	 3.9576963903e-001	 2.0315430088e+000
 2.1911007990e+000	 1.9767976337e-001	 2.2179283182e+000
 2.1891963830e+000	 2.1775949286e-001	 2.1899561483e+000
 2.1871007899e+000	 2.3788681142e-001	 2.1617943842e+000
 2.1848124402e+000	 2.5805929737e-001	 2.1338715306e+000
 2.1823297898e+000	 2.7827448437e-001	 2.1065051676e+000
 2.1796513303e+000	 2.9852986193e-001	 2.0798989563e+000
 2.1767755911e+000	 3.1882287587e-001	 2.0541398170e+000
 2.1737011403e+000	 3.3915092891e-001	 2.0291952910e+000
 2.1704265864e+000	 3.5951138120e-001	 2.0049110989e+000
 2.1669505789e+000	 3.7990155100e-001	 1.9810089052e+000
 2.1632718105e+000	 4.0031871534e-001	 1.9570843026e+000
 2.2159996717e+000	 1.9992612432e-001	 2.0834611881e+000
 2.2140736146e+000	 2.2023403255e-001	 2.0542214228e+000
 2.2119542079e+000	 2.4059007064e-001	 2.0262814081e+000
 2.2096398543e+000	 2.6099178938e-001	 2.0000598348e+000
 2.2071289919e+000	 2.8143669442e-001	 1.9758598280e+000
 2.2044200954e+000	 3.0192224673e-001	 1.9538658671e+000
 2.2015116773e+000	 3.2244586310e-001	 1.9341408837e+000
 2.1984022896e+000	 3.4300491674e-001	 1.9166235528e+000
 2.1950905249e+000	 3.6359673781e-001	 1.9011257866e+000
 2.1915750173e+000	 3.8421861408e-001	 1.8873304454e+000
 2.1878544447e+000	 4.0486779165e-001	 1.8747892739e+000
 2.2408985444e+000	 2.0217248527e-001	 1.9400182454e+000
 2.2389508462e+000	 2.2270857224e-001	 1.9089852837e+000
 2.2368076260e+000	 2.4329332986e-001	 1.8808911109e+000
 2.2344672684e+000	 2.6392428140e-001	 1.8561451235e+000
 2.2319281941e+000	 2.8459890447e-001	 1.8350363424e+000
 2.2291888605e+000	 3.0531463152e-001	 1.8177302414e+000
 2.2262477636e+000	 3.2606885033e-001	 1.8042657633e+000
 2.2231034390e+000	 3.4685890457e-001	 1.7945525358e+000
 2.2197544633e+000	 3.6768209441e-001	 1.7883682989e+000
 2.2161994557e+000	 3.8853567716e-001	 1.7853565573e+000
 2.2124370789e+000	 4.0941686796e-001	 1.7850244686e+000
 1.9666107368e+000	 3.6392610484e-001	 2.3035273147e+000
 1.9630809251e+000	 3.8250919152e-001	 2.2213817510e+000
 1.9593645290e+000	 4.0111175798e-001	 2.1414269554e+000
 1.9554604835e+000	 4.1973122034e-001	 2.0633164829e+000
 1.9513677669e+000	 4.3836496008e-001	 1.9865995754e+000
 1.9470854021e+000	 4.5701032483e-001	 1.9107201842e+000
 1.9426124576e+000	 4.7566462918e-001	 1.8350162015e+000
 1.9379480490e+000	 4.9432515561e-001	 1.7587189098e+000
 1.9330913394e+000	 5.1298915537e-001	 1.6809526525e+000
 1.9280415411e+000	 5.3165384949e-001	 1.6007347350e+000
 1.9227979164e+000	 5.5031642970e-001	 1.5169755612e+000
 1.9911933711e+000	 3.6847518115e-001	 2.2937867935e+000
 1.9876194366e+000	 3.8729055642e-001	 2.2152720485e+000
 1.9838565856e+000	 4.0612565496e-001	 2.1370398335e+000
 1.9799037396e+000	 4.2497786060e-001	 2.0586811058e+000
 1.9757598640e+000	 4.4384452209e-001	 1.9796803370e+000
 1.9714239696e+000	 4.6272295389e-001	 1.8994145867e+000
 1.9668951134e+000	 4.8161043705e-001	 1.8171527944e+000
 1.9621723996e+000	 5.0050422005e-001	 1.7320552945e+000
 1.9572549812e+000	 5.1940151982e-001	 1.6431735619e+000
 1.9521420604e+000	 5.3829952261e-001	 1.5494501956e+000
 1.9468328903e+000	 5.5719538508e-001	 1.4497191438e+000
 2.0157760053e+000	 3.7302425746e-001	 2.2737813790e+000
 2.0121579482e+000	 3.9207192132e-001	 2.1996527214e+000
 2.0083486423e+000	 4.1113955194e-001	 2.1240886507e+000
 2.0043469956e+000	 4.3022450086e-001	 2.0466168466e+000
 2.0001519611e+000	 4.4932408409e-001	 1.9666561243e+000
 1.9957625371e+000	 4.6843558295e-001	 1.8835155589e+000
 1.9911777691e+000	 4.8755624491e-001	 1.7963938341e+000
 1.9863967502e+000	 5.0668328450e-001	 1.7043788231e+000
 1.9814186229e+000	 5.2581388426e-001	 1.6064474075e+000
 1.9762425797e+000	 5.4494519573e-001	 1.5014655421e+000
 1.9708678643e+000	 5.6407434045e-001	 1.3881885697e+000
 2.0403586395e+000	 3.7757333378e-001	 2.2438411631e+000
 2.0366964598e+000	 3.9685328622e-001	 2.1748925149e+000
 2.0328406989e+000	 4.1615344891e-001	 2.1029793257e+000
 2.0287902517e+000	 4.3547114111e-001	 2.0275652654e+000
 2.0245440582e+000	 4.5480364609e-001	 1.9480025542e+000
 2.0201011047e+000	 4.7414821202e-001	 1.8635311350e+000
 2.0154604248e+000	 4.9350205278e-001	 1.7732780786e+000
 2.0106211008e+000	 5.1286234895e-001	 1.6762572282e+000
 2.0055822646e+000	 5.3222624870e-001	 1.5713690912e+000
 2.0003430989e+000	 5.5159086884e-001	 1.4574009841e+000
 1.9949028382e+000	 5.7095329582e-001	 1.3330274370e+000
 2.0649412737e+000	 3.8212241009e-001	 2.2043024190e+000
 2.0612349713e+000	 4.0163465111e-001	 2.1413665836e+000
 2.0573327555e+000	 4.2116734589e-001	 2.0741245735e+000
 2.0532335077e+000	 4.4071778137e-001	 2.0019752652e+000
 2.0489361553e+000	 4.6028320810e-001	 1.9242032933e+000
 2.0444396722e+000	 4.7986084108e-001	 1.8399782686e+000
 2.0397430805e+000	 4.9944786064e-001	 1.7483542376e+000
 2.0348454514e+000	 5.1904141339e-001	 1.6482693907e+000
 2.0297459064e+000	 5.3863861314e-001	 1.5385460242e+000
 2.0244436182e+000	 5.5823654196e-001	 1.4178907667e+000
 2.0189378122e+000	 5.7783225119e-001	 1.2848950714e+000
 2.0895239079e+000	 3.8667148640e-001	 2.1555072375e+000
 2.0857734829e+000	 4.0641601601e-001	 2.0994561144e+000
 2.0818248121e+000	 4.2618124287e-001	 2.0379435050e+000
 2.0776767638e+000	 4.4596442162e-001	 1.9703026595e+000
 2.0733282524e+000	 4.6576277010e-001	 1.8957495848e+000
 2.0687782397e+000	 4.8557347014e-001	 1.8133823079e+000
 2.0640257362e+000	 5.0539366851e-001	 1.7221803874e+000
 2.0590698020e+000	 5.2522047784e-001	 1.6210046834e+000
 2.0539095481e+000	 5.4505097759e-001	 1.5085973910e+000
 2.0485441375e+000	 5.6488221508e-001	 1.3835823448e+000
 2.0429727862e+000	 5.8471120656e-001	 1.2444656014e+000
 2.1141065421e+000	 3.9122056271e-001	 2.0978031892e+000
 2.1103119945e+000	 4.1119738090e-001	 2.0495479761e+000
 2.1063168687e+000	 4.3119513984e-001	 1.9948612559e+000
 2.1021200198e+000	 4.5121106188e-001	 1.9330097705e+000
 2.0977203495e+000	 4.7124233210e-001	 1.8631398079e+000
 2.0931168073e+000	 4.9128609920e-001	 1.7842765080e+000
 2.0883083920e+000	 5.1133947637e-001	 1.6953234260e+000
 2.0832941527e+000	 5.3139954228e-001	 1.5950623619e+000
 2.0780731899e+000	 5.5146334203e-001	 1.4821534646e+000
 2.0726446567e+000	 5.7152788820e-001	 1.3551356151e+000
 2.0670077601e+000	 5.9159016193e-001	 1.2124270973e+000
 2.1386891763e+000	 3.9576963903e-001	 2.0315430088e+000
 2.1348505060e+000	 4.1597874580e-001	 1.9920343922e+000
 2.1308089253e+000	 4.3620903682e-001	 1.9453086398e+000
 2.1265632759e+000	 4.5645770213e-001	 1.8905650553e+000
 2.1221124465e+000	 4.7672189410e-001	 1.8268790675e+000
 2.1174553748e+000	 4.9699872826e-001	 1.7532015763e+000
 2.1125910477e+000	 5.1728528424e-001	 1.6683585664e+000
 2.1075185033e+000	 5.3757860672e-001	 1.5710509961e+000
 2.1022368316e+000	 5.5787570647e-001	 1.4598549700e+000
 2.0967451760e+000	 5.7817356131e-001	 1.3332222012e+000
 2.0910427341e+000	 5.9846911730e-001	 1.1894807705e+000
 2.1632718105e+000	 4.0031871534e-001	 1.9570843026e+000
 2.1593890176e+000	 4.2076011069e-001	 1.9273126375e+000
 2.1553009819e+000	 4.4122293379e-001	 1.8897218260e+000
 2.1510065319e+000	 4.6170434238e-001	 1.8434427573e+000
 2.1465045436e+000	 4.8220145610e-001	 1.7874788123e+000
 2.1417939423e+000	 5.0271135732e-001	 1.7207052489e+000
 2.1368737034e+000	 5.2323109210e-001	 1.6418688640e+000
 2.1317428539e+000	 5.4375767117e-001	 1.5495879408e+000
 2.1264004734e+000	 5.6428807091e-001	 1.4423524893e+000
 2.1208456953e+000	 5.8481923443e-001	 1.3185247870e+000
 2.1150777080e+000	 6.0534807266e-001	 1.1763402261e+000
 2.1878544447e+000	 4.0486779165e-001	 1.8747892739e+000
 2.1839275292e+000	 4.2554147558e-001	 1.8557847534e+000
 2.1797930386e+000	 4.4623683076e-001	 1.8285420384e+000
 2.1754497879e+000	 4.6695098264e-001	 1.7921225808e+000
 2.1708966407e+000	 4.8768101810e-001	 1.7454564782e+000
 2.1661325098e+000	 5.0842398637e-001	 1.6873418959e+000
 2.1611563591e+000	 5.2917689996e-001	 1.6164447762e+000
 2.1559672045e+000	 5.4993673561e-001	 1.5312988428e+000
 2.1505641151e+000	 5.7070043534e-001	 1.4303059090e+000
 2.1449462145e+000	 5.9146490754e-001	 1.3117364956e+000
 2.1391126820e+000	 6.1222702803e-001	 1.1737307674e+000
 2.2124370789e+000	 4.0941686796e-001	 1.7850244686e+000
 2.2084660407e+000	 4.3032284048e-001	 1.7778572841e+000
 2.2042850952e+000	 4.5125072774e-001	 1.7622152749e+000
 2.1998930440e+000	 4.7219762289e-001	 1.7370893882e+000
 2.1952887378e+000	 4.9316058010e-001	 1.7013351560e+000
 2.1904710774e+000	 5.1413661543e-001	 1.6536721529e+000
 2.1854390149e+000	 5.3512270782e-001	 1.5926837508e+000
 2.1801915551e+000	 5.5611580005e-001	 1.5168171797e+000
 2.1747277568e+000	 5.7711279978e-001	 1.4243839021e+000
 2.1690467338e+000	 5.9811058066e-001	 1.3135603093e+000
 2.1631476559e+000	 6.1910598340e-001	 1.1823887454e+000
 1.9227979164e+000	 5.5031642970e-001	 1.5169755612e+000
 1.9173597783e+000	 5.6897405956e-001	 1.5881559137e+000
 1.9117264922e+000	 5.8762387544e-001	 1.6192749628e+000
 1.9058974762e+000	 6.0626298769e-001	 1.6087793365e+000
 1.8998722024e+000	 6.2488848178e-001	 1.5550456800e+000
 1.8936501977e+000	 6.4349741945e-001	 1.4864053904e+000
 1.8872310448e+000	 6.6208683995e-001	 1.3959453398e+000
 1.8806143829e+000	 6.8065376130e-001	 1.2836508406e+000
 1.8737999088e+000	 6.9919518155e-001	 1.1467011417e+000
 1.8667873772e+000	 7.1770808012e-001	 9.7677997909e-001
 1.8595766021e+000	 7.3618941913e-001	 7.8987852195e-001
 1.9468328903e+000	 5.5719538508e-001	 1.4497191438e+000
 1.9413267756e+000	 5.7608623530e-001	 1.5077339034e+000
 1.9356230734e+000	 5.9496917388e-001	 1.5267737362e+000
 1.9297211947e+000	 6.1384127504e-001	 1.5052148315e+000
 1.9236206049e+000	 6.3269958780e-001	 1.4528518447e+000
 1.9173208252e+000	 6.5154113719e-001	 1.3884567675e+000
 1.9108214328e+000	 6.7036292545e-001	 1.3015577151e+000
 1.9041220627e+000	 6.8916193331e-001	 1.1922730297e+000
 1.8972224076e+000	 7.0793512132e-001	 1.0607592931e+000
 1.8901222194e+000	 7.2667943112e-001	 9.0721137468e-001
 1.8828213097e+000	 7.4539178687e-001	 7.3186241048e-001
 1.9708678643e+000	 5.6407434045e-001	 1.3881885697e+000
 1.9652937728e+000	 5.8319841105e-001	 1.4350175295e+000
 1.9595196545e+000	 6.0231447232e-001	 1.4440401866e+000
 1.9535449131e+000	 6.2141956238e-001	 1.4135591409e+000
 1.9473690074e+000	 6.4051069382e-001	 1.3718169897e+000
 1.9409914526e+000	 6.5958485493e-001	 1.3120488657e+000
 1.9344118209e+000	 6.7863901094e-001	 1.2291884394e+000
 1.9276297425e+000	 6.9767010533e-001	 1.1233769411e+000
 1.9206449065e+000	 7.1667506109e-001	 9.9479529134e-001
 1.9134570617e+000	 7.3565078212e-001	 8.4366413172e-001
 1.9060660172e+000	 7.5459415461e-001	 6.7024378319e-001
 1.9949028382e+000	 5.7095329582e-001	 1.3330274370e+000
 1.9892607700e+000	 5.9031058679e-001	 1.3706943126e+000
 1.9834162357e+000	 6.0965977076e-001	 1.3718070403e+000
 1.9773686316e+000	 6.2899784972e-001	 1.3421195981e+000
 1.9711174100e+000	 6.4832179984e-001	 1.3112608664e+000
 1.9646620801e+000	 6.6762857267e-001	 1.2565831445e+000
 1.9580022090e+000	 6.8691509644e-001	 1.1782097851e+000
 1.9511374223e+000	 7.0617827734e-001	 1.0763052219e+000
 1.9440674054e+000	 7.2541500086e-001	 9.5107505702e-001
 1.9367919039e+000	 7.4462213312e-001	 8.0276607418e-001
 1.9293107247e+000	 7.6379652235e-001	 6.3166617657e-001
 2.0189378122e+000	 5.7783225119e-001	 1.2848950714e+000
 2.0132277673e+000	 5.9742276253e-001	 1.3154682878e+000
 2.0073128168e+000	 6.1700506920e-001	 1.3108243346e+000
 2.0011923500e+000	 6.3657613707e-001	 1.2953245800e+000
 1.9948658125e+000	 6.5613290586e-001	 1.2706325935e+000
 1.9883327076e+000	 6.7567229041e-001	 1.2214808123e+000
 1.9815925970e+000	 6.9519118194e-001	 1.1480146026e+000
 1.9746451021e+000	 7.1468644936e-001	 1.0504219333e+000
 1.9674899042e+000	 7.3415494062e-001	 9.2893344886e-001
 1.9601267461e+000	 7.5359348412e-001	 7.8382246363e-001
 1.9525554322e+000	 7.7299889008e-001	 6.1540487913e-001
 2.0429727862e+000	 5.8471120656e-001	 1.2444656014e+000
 2.0371947645e+000	 6.0453493827e-001	 1.2700590336e+000
 2.0312093980e+000	 6.2435036764e-001	 1.2618583987e+000
 2.0250160685e+000	 6.4415442441e-001	 1.2674997289e+000
 2.0186142150e+000	 6.6394401188e-001	 1.2493991045e+000
 2.0120033350e+000	 6.8371600815e-001	 1.2061816648e+000
 2.0051829851e+000	 7.0346726743e-001	 1.1380151091e+000
 1.9981527819e+000	 7.2319462137e-001	 1.0451112905e+000
 1.9909124031e+000	 7.4289488039e-001	 9.2772627343e-001
 1.9834615883e+000	 7.6256483512e-001	 7.8616030955e-001
 1.9758001398e+000	 7.8220125782e-001	 6.2075773336e-001
 2.0670077601e+000	 5.9159016193e-001	 1.2124270973e+000
 2.0611617617e+000	 6.1164711402e-001	 1.2352007682e+000
 2.0551059791e+000	 6.3169566608e-001	 1.2433300647e+000
 2.0488397869e+000	 6.5173271175e-001	 1.2581547172e+000
 2.0423626176e+000	 6.7175511790e-001	 1.2470441116e+000
 2.0356739625e+000	 6.9175972589e-001	 1.2101430043e+000
 2.0287733731e+000	 7.1174335293e-001	 1.1476417632e+000
 2.0216604616e+000	 7.3170279338e-001	 1.0597764911e+000
 2.0143349019e+000	 7.5163482016e-001	 9.4682906725e-001
 2.0067964305e+000	 7.7153618612e-001	 8.0912710487e-001
 1.9990448473e+000	 7.9140362556e-001	 6.4704382447e-001
 2.0910427341e+000	 5.9846911730e-001	 1.1894807705e+000
 2.0851287589e+000	 6.1875928976e-001	 1.2116415077e+000
 2.0790025603e+000	 6.3904096452e-001	 1.2439141163e+000
 2.0726635054e+000	 6.5931099910e-001	 1.2668143531e+000
 2.0661110201e+000	 6.7956622392e-001	 1.2630671417e+000
 2.0593445900e+000	 6.9980344363e-001	 1.2328386337e+000
 2.0523637612e+000	 7.2001943843e-001	 1.1763422165e+000
 2.0451681414e+000	 7.4021096540e-001	 1.0938386242e+000
 2.0377574008e+000	 7.6037475992e-001	 9.8563596286e-001
 2.0301312727e+000	 7.8050753712e-001	 8.5208964879e-001
 2.0222895548e+000	 8.0060599330e-001	 6.9360225954e-001
 2.1150777080e+000	 6.0534807266e-001	 1.1763402261e+000
 2.1090957562e+000	 6.2587146550e-001	 1.2028161551e+000
 2.1028991414e+000	 6.4638626296e-001	 1.2616752838e+000
 2.0964872238e+000	 6.6688928644e-001	 1.2930177198e+000
 2.0898594226e+000	 6.8737732993e-001	 1.2969826375e+000
 2.0830152175e+000	 7.0784716137e-001	 1.2737579186e+000
 2.0759541493e+000	 7.2829552392e-001	 1.2235803364e+000
 2.0686758212e+000	 7.4871913741e-001	 1.1467356539e+000
 2.0611798997e+000	 7.6911469969e-001	 1.0435586322e+000
 2.0534661149e+000	 7.8947888812e-001	 9.1443294982e-001
 2.0455342623e+000	 8.0980836103e-001	 7.5979102995e-001
 2.1391126820e+000	 6.1222702803e-001	 1.1737307674e+000
 2.1330627534e+000	 6.3298364124e-001	 1.2277765864e+000
 2.1267957226e+000	 6.5373156140e-001	 1.2961897151e+000
 2.1203109423e+000	 6.7446757378e-001	 1.3363173744e+000
 2.1136078252e+000	 6.9518843595e-001	 1.3483191200e+000
 2.1066858449e+000	 7.1589087911e-001	 1.3324049133e+000
 2.0995445373e+000	 7.3657160942e-001	 1.2888352954e+000
 2.0921835010e+000	 7.5722730942e-001	 1.2179214710e+000
 2.0846023985e+000	 7.7785463946e-001	 1.1200253015e+000
 2.0768009572e+000	 7.9845023912e-001	 9.9555920280e-001
 2.0687789699e+000	 8.1901072877e-001	 8.4498595039e-001
 2.1631476559e+000	 6.1910598340e-001	 1.1823887454e+000
 2.1570297506e+000	 6.4009581698e-001	 1.2687394957e+000
 2.1506923038e+000	 6.6107685984e-001	 1.3470457177e+000
 2.1441346607e+000	 6.8204586113e-001	 1.3962785984e+000
 2.1373562277e+000	 7.0299954197e-001	 1.4166184059e+000
 2.1303564724e+000	 7.2393459685e-001	 1.4082975450e+000
 2.1231349254e+000	 7.4484769492e-001	 1.3716007206e+000
 2.1156911808e+000	 7.6573548144e-001	 1.3068650086e+000
 2.1080248974e+000	 7.8659457923e-001	 1.2144798310e+000
 2.1001357994e+000	 8.0742159012e-001	 1.0948868341e+000
 2.0920236774e+000	 8.2821309651e-001	 9.4857966875e-001
 1.8595766021e+000	 7.3618941913e-001	 7.8987852195e-001
 1.8521674571e+000	 7.5463614479e-001	 7.2083619376e-001
 1.8445598760e+000	 7.7304518882e-001	 6.5454911945e-001
 1.8367538539e+000	 7.9141346985e-001	 5.9116516354e-001
 1.8287494474e+000	 8.0973789495e-001	 5.3083481267e-001
 1.8205467755e+000	 8.2801536107e-001	 4.7371075651e-001
 1.8121460198e+000	 8.4624275656e-001	 4.1994745526e-001
 1.8035474251e+000	 8.6441696276e-001	 3.6970069475e-001
 1.7947513000e+000	 8.8253485550e-001	 3.2312713013e-001
 1.7857580172e+000	 9.0059330673e-001	 2.8038381926e-001
 1.7765680137e+000	 9.1858918611e-001	 2.4162774679e-001
 1.8828213097e+000	 7.4539178687e-001	 7.3186241048e-001
 1.8753195503e+000	 7.6406909660e-001	 6.6452067649e-001
 1.8676168744e+000	 7.8270825368e-001	 5.9148759047e-001
 1.8597132771e+000	 8.0130613823e-001	 5.2322236937e-001
 1.8516088155e+000	 8.1985961864e-001	 4.6023635313e-001
 1.8433036102e+000	 8.3836555308e-001	 4.0267950235e-001
 1.8347978450e+000	 8.5682079102e-001	 3.5070149582e-001
 1.8260917679e+000	 8.7522217479e-001	 3.0445125321e-001
 1.8171856912e+000	 8.9356654119e-001	 2.6407644853e-001
 1.8080799924e+000	 9.1185072306e-001	 2.2972301539e-001
 1.7987751138e+000	 9.3007155093e-001	 2.0153464555e-001
 1.9060660172e+000	 7.5459415461e-001	 6.7024378319e-001
 1.8984716435e+000	 7.7350204841e-001	 5.9784471125e-001
 1.8906738729e+000	 7.9237131854e-001	 5.2750756362e-001
 1.8826727002e+000	 8.1119880660e-001	 4.5950899094e-001
 1.8744681836e+000	 8.2998134233e-001	 3.9419238876e-001
 1.8660604449e+000	 8.4871574509e-001	 3.3498212735e-001
 1.8574496703e+000	 8.6739882548e-001	 2.8351853616e-001
 1.8486361107e+000	 8.8602738683e-001	 2.3994436818e-001
 1.8396200825e+000	 9.0459822689e-001	 2.0439905197e-001
 1.8304019676e+000	 9.2310813940e-001	 1.7701816834e-001
 1.8209822140e+000	 9.4155391576e-001	 1.5793292245e-001
 1.9293107247e+000	 7.6379652235e-001	 6.3166617657e-001
 1.9216237367e+000	 7.8293500022e-001	 5.5325045594e-001
 1.9137308713e+000	 8.0203438340e-001	 4.7853318650e-001
 1.9056321234e+000	 8.2109147497e-001	 4.0779951883e-001
 1.8973275517e+000	 8.4010306601e-001	 3.4135150087e-001
 1.8888172796e+000	 8.5906593711e-001	 2.7950748167e-001
 1.8801014955e+000	 8.7797685993e-001	 2.2260146441e-001
 1.8711804535e+000	 8.9683259886e-001	 1.7555738449e-001
 1.8620544737e+000	 9.1562991258e-001	 1.4350839566e-001
 1.8527239428e+000	 9.3436555573e-001	 1.2172080720e-001
 1.8431893142e+000	 9.5303628058e-001	 1.1031414089e-001
 1.9525554322e+000	 7.7299889008e-001	 6.1540487913e-001
 1.9447758299e+000	 7.9236795203e-001	 5.3003065479e-001
 1.9367878698e+000	 8.1169744825e-001	 4.4992559087e-001
 1.9285915466e+000	 8.3098414334e-001	 3.7538412754e-001
 1.9201869198e+000	 8.5022478970e-001	 3.0671661772e-001
 1.9115741143e+000	 8.6941612912e-001	 2.4424868951e-001
 1.9027533208e+000	 8.8855489439e-001	 1.8832055788e-001
 1.8937247963e+000	 9.0763781090e-001	 1.3928628689e-001
 1.8844888650e+000	 9.2666159827e-001	 9.7513003194e-002
 1.8750459180e+000	 9.4562297206e-001	 6.3380062373e-002
 1.8653964143e+000	 9.6451864541e-001	 5.8174456924e-002
 1.9758001398e+000	 7.8220125782e-001	 6.2075773336e-001
 1.9679279231e+000	 8.0180090384e-001	 5.2749916917e-001
 1.9598448682e+000	 8.2136051311e-001	 4.4101618858e-001
 1.9515509698e+000	 8.4087681172e-001	 3.6161332096e-001
 1.9430462879e+000	 8.6034651339e-001	 2.8961008353e-001
 1.9343309490e+000	 8.7976632113e-001	 2.2534030179e-001
 1.9254051460e+000	 8.9913292885e-001	 1.6915137927e-001
 1.9162691391e+000	 9.1844302293e-001	 1.2140351772e-001
 1.9069232562e+000	 9.3769328397e-001	 8.2468888745e-002
 1.8973678932e+000	 9.5688038840e-001	 5.2730758465e-002
 1.8876035145e+000	 9.7600101023e-001	 3.2582566690e-002
 1.9990448473e+000	 7.9140362556e-001	 6.4704382447e-001
 1.9910800163e+000	 8.1123385565e-001	 5.4498974985e-001
 1.9829018667e+000	 8.3102357797e-001	 4.5115484606e-001
 1.9745103929e+000	 8.5076948009e-001	 3.6585454135e-001
 1.9659056560e+000	 8.7046823707e-001	 2.8941838597e-001
 1.9570877837e+000	 8.9011651315e-001	 2.2218933000e-001
 1.9480569713e+000	 9.0971096330e-001	 1.6452295035e-001
 1.9388134820e+000	 9.2924823496e-001	 1.1678662801e-001
 1.9293576475e+000	 9.4872496966e-001	 7.9358676984e-002
 1.9196898685e+000	 9.6813780473e-001	 5.2627426144e-002
 1.9098106147e+000	 9.8748337506e-001	 3.6990255963e-002
 2.0222895548e+000	 8.0060599330e-001	 6.9360225954e-001
 2.0142321096e+000	 8.2066680746e-001	 5.8185489394e-001
 2.0059588651e+000	 8.4068664283e-001	 4.7970882366e-001
 1.9974698161e+000	 8.6066214846e-001	 3.8749119579e-001
 1.9887650241e+000	 8.8058996076e-001	 3.0554247200e-001
 1.9798446184e+000	 9.0046670516e-001	 2.3421566314e-001
 1.9707087965e+000	 9.2028899776e-001	 1.7387551262e-001
 1.9613578248e+000	 9.4005344700e-001	 1.2489763003e-001
 1.9517920388e+000	 9.5975665535e-001	 8.7667576155e-002
 1.9420118437e+000	 9.7939522106e-001	 6.2579901145e-002
 1.9320177149e+000	 9.9896573988e-001	 5.0037137548e-002
 2.0455342623e+000	 8.0980836103e-001	 7.5979102995e-001
 2.0373842028e+000	 8.3009975926e-001	 6.3746477976e-001
 2.0290158636e+000	 8.5034970769e-001	 5.2606178742e-001
 2.0204292393e+000	 8.7055481683e-001	 4.2592174917e-001
 2.0116243922e+000	 8.9071168444e-001	 3.3739692636e-001
 2.0026014531e+000	 9.1081689717e-001	 2.6085133601e-001
 1.9933606218e+000	 9.3086703222e-001	 1.9665988990e-001
 1.9839021676e+000	 9.5085865903e-001	 1.4520748349e-001
 1.9742264300e+000	 9.7078834105e-001	 1.0688803620e-001
 1.9643338189e+000	 9.9065263740e-001	 8.2103484671e-002
 1.9542248150e+000	 1.0104481047e+000	 7.1262730980e-002
 2.0687789699e+000	 8.1901072877e-001	 8.4498595039e-001
 2.0605362960e+000	 8.3953271107e-001	 7.1120627348e-001
 2.0520728620e+000	 8.6001277255e-001	 5.8961288732e-001
 2.0433886625e+000	 8.8044748521e-001	 4.8055887819e-001
 2.0344837603e+000	 9.0083340813e-001	 3.8440920534e-001
 2.0253582878e+000	 9.2116708919e-001	 3.0153984690e-001
 2.0160124470e+000	 9.4144506667e-001	 2.3233689374e-001
 2.0064465104e+000	 9.6166387107e-001	 1.7719559287e-001
 1.9966608213e+000	 9.8182002674e-001	 1.3651934190e-001
 1.9866557941e+000	 1.0019100537e+000	 1.1071863634e-001
 1.9764319152e+000	 1.0219304695e+000	 1.0020997169e-001
 2.0920236774e+000	 8.2821309651e-001	 9.4857966875e-001
 2.0836883892e+000	 8.4896566288e-001	 8.0248200206e-001
 2.0751298605e+000	 8.6967583741e-001	 6.6977589715e-001
 2.0663480856e+000	 8.9034015358e-001	 5.5082868184e-001
 2.0573431284e+000	 9.1095513182e-001	 4.4601892175e-001
 2.0481151225e+000	 9.3151728120e-001	 3.5573552070e-001
 2.0386642723e+000	 9.5202310113e-001	 2.8037676858e-001
 2.0289908532e+000	 9.7246908310e-001	 2.2034933827e-001
 2.0190952125e+000	 9.9285171243e-001	 1.7606723321e-001
 2.0089777693e+000	 1.0131674701e+000	 1.4795068760e-001
 1.9986390154e+000	 1.0334128344e+000	 1.3642502125e-001
 1.7765680137e+000	 9.1858918611e-001	 2.4162774679e-001
 1.7671817913e+000	 9.3651936262e-001	 1.4508088546e-001
 1.7575999168e+000	 9.5438070623e-001	 4.7014417671e-002
 1.7478230222e+000	 9.7217008953e-001	-5.2736966015e-002
 1.7378518049e+000	 9.8988438938e-001	-1.5433848524e-001
 1.7276870275e+000	 1.0075204886e+000	-2.5795541602e-001
 1.7173295184e+000	 1.0250752778e+000	-3.6375323768e-001
 1.7067801714e+000	 1.0425456567e+000	-4.7189777965e-001
 1.6960399458e+000	 1.0599285364e+000	-5.8255536748e-001
 1.6851098662e+000	 1.0772208403e+000	-6.9589296699e-001
 1.6739910224e+000	 1.0944195068e+000	-8.1207832592e-001
 1.7987751138e+000	 9.3007155093e-001	 2.0153464555e-001
 1.7892715637e+000	 9.4822585465e-001	 1.0570250161e-001
 1.7795699158e+000	 9.6631046506e-001	 8.6887609761e-003
 1.7696708100e+000	 9.8432221564e-001	-8.9633020403e-002
 1.7595749524e+000	 1.0022579442e+000	-1.8938921354e-001
 1.7492831153e+000	 1.0201144947e+000	-2.9070631638e-001
 1.7387961374e+000	 1.0378887188e+000	-3.9371115500e-001
 1.7281149236e+000	 1.0555774775e+000	-4.9853108508e-001
 1.7172404451e+000	 1.0731776431e+000	-6.0529419266e-001
 1.7061737395e+000	 1.0906861008e+000	-7.1412949341e-001
 1.6949159102e+000	 1.1080997506e+000	-8.2516712924e-001
 1.8209822140e+000	 9.4155391576e-001	 1.5793292245e-001
 1.8113613361e+000	 9.5993234668e-001	 6.3946043619e-002
 1.8015399147e+000	 9.7824022389e-001	-3.0881829326e-002
 1.7915185978e+000	 9.9647434176e-001	-1.2663840714e-001
 1.7812981000e+000	 1.0146314991e+000	-2.2341134952e-001
 1.7708792032e+000	 1.0327085009e+000	-3.2128851918e-001
 1.7602627564e+000	 1.0507021598e+000	-4.2035823765e-001
 1.7494496757e+000	 1.0686092982e+000	-5.2070954164e-001
 1.7384409444e+000	 1.0864267498e+000	-6.2243243906e-001
 1.7272376128e+000	 1.1041513613e+000	-7.2561816345e-001
 1.7158407980e+000	 1.1217799944e+000	-8.3035942599e-001
 1.8431893142e+000	 9.5303628058e-001	 1.1031414089e-001
 1.8334511084e+000	 9.7163883872e-001	 1.9249587926e-002
 1.8235099137e+000	 9.9016998271e-001	-7.2312553022e-002
 1.8133663856e+000	 1.0086264679e+000	-1.6442136098e-001
 1.8030212475e+000	 1.0270050540e+000	-2.5712589103e-001
 1.7924752910e+000	 1.0453025070e+000	-3.5047548295e-001
 1.7817293753e+000	 1.0635156007e+000	-4.4452007184e-001
 1.7707844278e+000	 1.0816411189e+000	-5.3931049987e-001
 1.7596414438e+000	 1.0996758565e+000	-6.3489882771e-001
 1.7483014862e+000	 1.1176166218e+000	-7.3133864465e-001
 1.7367656858e+000	 1.1354602383e+000	-8.2868537618e-001
 1.8653964143e+000	 9.6451864541e-001	 5.8174456924e-002
 1.8555408808e+000	 9.8334533075e-001	-2.8942080798e-002
 1.8454799126e+000	 1.0020997415e+000	-1.1620979075e-001
 1.8352141733e+000	 1.0207785940e+000	-2.0363919220e-001
 1.8247443951e+000	 1.0393786088e+000	-2.9124081281e-001
 1.8140713789e+000	 1.0578965131e+000	-3.7902555207e-001
 1.8031959943e+000	 1.0763290417e+000	-4.6700504733e-001
 1.7921191800e+000	 1.0946729396e+000	-5.5519204113e-001
 1.7808419431e+000	 1.1129249632e+000	-6.4360074849e-001
 1.7693653595e+000	 1.1310818823e+000	-7.3224722310e-001
 1.7576905735e+000	 1.1491404821e+000	-8.2114972076e-001
 1.8876035145e+000	 9.7600101023e-001	 3.2582566690e-002
 1.8776306532e+000	 9.9505182278e-001	-7.4101062946e-002
 1.8674499116e+000	 1.0140295004e+000	-1.6317162277e-001
 1.8570619611e+000	 1.0329307201e+000	-2.4493892929e-001
 1.8464675427e+000	 1.0517521637e+000	-3.2645183256e-001
 1.8356674667e+000	 1.0704905192e+000	-4.0768284591e-001
 1.8246626133e+000	 1.0891424827e+000	-4.8860536899e-001
 1.8134539321e+000	 1.1077047603e+000	-5.6919411111e-001
 1.8020424424e+000	 1.1261740699e+000	-6.4942551492e-001
 1.7904292328e+000	 1.1445471428e+000	-7.2927817882e-001
 1.7786154613e+000	 1.1628207260e+000	-8.0873327688e-001
 1.9098106147e+000	 9.8748337506e-001	 3.6990255963e-002
 1.8997204256e+000	 1.0067583148e+000	-6.3393702706e-002
 1.8894199106e+000	 1.0259592592e+000	-1.6783582837e-001
 1.8789097489e+000	 1.0450828462e+000	-2.7589902750e-001
 1.8681906902e+000	 1.0641257186e+000	-3.6344312357e-001
 1.8572635545e+000	 1.0830845253e+000	-4.3717808582e-001
 1.8461292323e+000	 1.1019559236e+000	-5.1009799773e-001
 1.8347886843e+000	 1.1207365810e+000	-5.8213957427e-001
 1.8232429417e+000	 1.1394231766e+000	-6.5324153138e-001
 1.8114931061e+000	 1.1580124033e+000	-7.2334506522e-001
 1.7995403491e+000	 1.1765009698e+000	-7.9239432882e-001
 1.9320177149e+000	 9.9896573988e-001	 5.0037137548e-002
 1.9218101980e+000	 1.0184648068e+000	-4.3308780586e-002
 1.9113899095e+000	 1.0378890180e+000	-1.4079747973e-001
 1.9007575367e+000	 1.0572349723e+000	-2.4193708957e-001
 1.8899138378e+000	 1.0764992734e+000	-3.4621518541e-001
 1.8788596424e+000	 1.0956785314e+000	-4.5309990772e-001
 1.8675958513e+000	 1.1147693646e+000	-5.3224552664e-001
 1.8561234364e+000	 1.1337684017e+000	-5.9483519543e-001
 1.8444434411e+000	 1.1526722833e+000	-6.5589937981e-001
 1.8325569795e+000	 1.1714776638e+000	-7.1534190020e-001
 1.8204652369e+000	 1.1901812136e+000	-7.7306992297e-001
 1.9542248150e+000	 1.0104481047e+000	 7.1262730980e-002
 1.9438999704e+000	 1.0301712989e+000	-1.4356426080e-002
 1.9333599085e+000	 1.0498187768e+000	-1.0421349483e-001
 1.9226053244e+000	 1.0693870985e+000	-1.9776130023e-001
 1.9116369853e+000	 1.0888728283e+000	-2.9443130931e-001
 1.9004557302e+000	 1.1082725375e+000	-3.9363483099e-001
 1.8890624702e+000	 1.1275828056e+000	-4.9476427089e-001
 1.8774581886e+000	 1.1468002224e+000	-5.9719443840e-001
 1.8656439404e+000	 1.1659213900e+000	-6.5823283241e-001
 1.8536208528e+000	 1.1849429244e+000	-7.0614427620e-001
 1.8413901247e+000	 1.2038614575e+000	-7.5167707452e-001
 1.9764319152e+000	 1.0219304695e+000	 1.0020997169e-001
 1.9659897428e+000	 1.0418777909e+000	 2.2958220685e-002
 1.9553299075e+000	 1.0617485357e+000	-5.8637086662e-002
 1.9444531122e+000	 1.0815392246e+000	-1.4397290996e-001
 1.9333601329e+000	 1.1012463832e+000	-2.3242403016e-001
 1.9220518181e+000	 1.1208665436e+000	-3.2334433091e-001
 1.9105290892e+000	 1.1403962465e+000	-4.1606813715e-001
 1.8987929407e+000	 1.1598320431e+000	-5.0991160820e-001
 1.8868444397e+000	 1.1791704967e+000	-6.0417418212e-001
 1.8746847261e+000	 1.1984081849e+000	-6.9661039532e-001
 1.8623150124e+000	 1.2175417013e+000	-7.2911389283e-001
 1.9986390154e+000	 1.0334128344e+000	 1.3642502125e-001
 1.9880795152e+000	 1.0535842829e+000	 6.8134731759e-002
 1.9772999064e+000	 1.0736782945e+000	-4.6152732471e-003
 1.9663009000e+000	 1.0936913507e+000	-8.1165495383e-002
 1.9550832805e+000	 1.1136199380e+000	-1.6083341951e-001
 1.9436479059e+000	 1.1334605497e+000	-2.4291487776e-001
 1.9319957082e+000	 1.1532096875e+000	-3.2668547318e-001
 1.9201276929e+000	 1.1728638638e+000	-4.1140206012e-001
 1.9080449390e+000	 1.1924196034e+000	-4.9630427797e-001
 1.8957485995e+000	 1.2118734454e+000	-5.8061613507e-001
 1.8832399002e+000	 1.2312219451e+000	-6.6354763892e-001
 1.6739910224e+000	 1.0944195068e+000	-8.1207832592e-001
 1.6626845693e+000	 1.1115214900e+000	-8.7790557733e-001
 1.6511917266e+000	 1.1285237623e+000	-9.4000500177e-001
 1.6395137781e+000	 1.1454233153e+000	-9.9821142043e-001
 1.6276520721e+000	 1.1622171622e+000	-1.0523658911e+000
 1.6156080202e+000	 1.1789023391e+000	-1.1023162138e+000
 1.6033830974e+000	 1.1954759065e+000	-1.1479174237e+000
 1.5909788412e+000	 1.2119349516e+000	-1.1890322715e+000
 1.5783968513e+000	 1.2282765894e+000	-1.2255316882e+000
 1.5656387886e+000	 1.2444979645e+000	-1.2572952342e+000
 1.5527063751e+000	 1.2605962528e+000	-1.3950564565e+000
 1.6949159102e+000	 1.1080997506e+000	-8.2516712924e-001
 1.6834681265e+000	 1.1254155087e+000	-8.7324022688e-001
 1.6718316232e+000	 1.1426303093e+000	-9.1776513028e-001
 1.6600077003e+000	 1.1597411068e+000	-9.5857721309e-001
 1.6479977230e+000	 1.1767448768e+000	-9.9551801726e-001
 1.6358031204e+000	 1.1936386183e+000	-1.0284357702e+000
 1.6234253861e+000	 1.2104193553e+000	-1.0571858902e+000
 1.6108660767e+000	 1.2270841385e+000	-1.0816314779e+000
 1.5981268119e+000	 1.2436300467e+000	-1.1016437929e+000
 1.5852092735e+000	 1.2600541890e+000	-1.2219871503e+000
 1.5721152048e+000	 1.2763537060e+000	-1.4046871266e+000
 1.7158407980e+000	 1.1217799944e+000	-8.3035942599e-001
 1.7042516836e+000	 1.1393095273e+000	-8.6094562554e-001
 1.6924715197e+000	 1.1567368563e+000	-8.8814170695e-001
 1.6805016226e+000	 1.1740588982e+000	-9.1178306892e-001
 1.6683433739e+000	 1.1912725913e+000	-9.3171122841e-001
 1.6559982207e+000	 1.2083748975e+000	-9.4777435074e-001
 1.6434676748e+000	 1.2253628042e+000	-9.5982776754e-001
 1.6307533122e+000	 1.2422333254e+000	-9.6773448103e-001
 1.6178567725e+000	 1.2589835041e+000	-1.0644506603e+000
 1.6047797583e+000	 1.2756104136e+000	-1.2381726311e+000
 1.5915240345e+000	 1.2921111591e+000	-1.4087106585e+000
 1.7367656858e+000	 1.1354602383e+000	-8.2868537618e-001
 1.7250352407e+000	 1.1532035459e+000	-8.4205072150e-001
 1.7131114163e+000	 1.1708434034e+000	-8.5216269766e-001
 1.7009955448e+000	 1.1883766897e+000	-8.5885619780e-001
 1.6886890248e+000	 1.2058003058e+000	-8.6197220163e-001
 1.6761933210e+000	 1.2231111768e+000	-8.6135831932e-001
 1.6635099635e+000	 1.2403062530e+000	-8.5686932310e-001
 1.6506405477e+000	 1.2573825123e+000	-9.2403855987e-001
 1.6375867332e+000	 1.2743369615e+000	-1.0876342042e+000
 1.6243502432e+000	 1.2911666381e+000	-1.2488940922e+000
 1.6109328642e+000	 1.3078686123e+000	-1.4073902282e+000
 1.7576905735e+000	 1.1491404821e+000	-8.2114972076e-001
 1.7458187978e+000	 1.1670975645e+000	-8.1755945910e-001
 1.7337513129e+000	 1.1849499504e+000	-8.1083145898e-001
 1.7214894670e+000	 1.2026944811e+000	-8.0079957393e-001
 1.7090346757e+000	 1.2203280204e+000	-7.8730373071e-001
 1.6963884212e+000	 1.2378474560e+000	-7.7019048786e-001
 1.6835522522e+000	 1.2552497018e+000	-8.0231660045e-001
 1.6705277832e+000	 1.2725316992e+000	-9.5463011881e-001
 1.6573166938e+000	 1.2896904188e+000	-1.1054655197e+000
 1.6439207281e+000	 1.3067228627e+000	-1.2543908081e+000
 1.6303416939e+000	 1.3236260655e+000	-1.4009667875e+000
 1.7786154613e+000	 1.1628207260e+000	-8.0873327688e-001
 1.7666023549e+000	 1.1809915832e+000	-7.8845224967e-001
 1.7543912095e+000	 1.1990564974e+000	-7.6512818575e-001
 1.7419833892e+000	 1.2170122725e+000	-7.3859336144e-001
 1.7293803266e+000	 1.2348557349e+000	-7.0868613115e-001
 1.7165835215e+000	 1.2525837353e+000	-7.0083212943e-001
 1.7035945410e+000	 1.2701931507e+000	-8.4069853719e-001
 1.6904150188e+000	 1.2876808861e+000	-9.7995302191e-001
 1.6770466545e+000	 1.3050438762e+000	-1.1181614777e+000
 1.6634912129e+000	 1.3222790873e+000	-1.2548809282e+000
 1.6497505236e+000	 1.3393835186e+000	-1.3896603719e+000
 1.7995403491e+000	 1.1765009698e+000	-7.9239432882e-001
 1.7873859120e+000	 1.1948856018e+000	-7.5568733969e-001
 1.7750311061e+000	 1.2131630445e+000	-7.1601125771e-001
 1.7624773115e+000	 1.2313300640e+000	-6.7319624054e-001
 1.7497259775e+000	 1.2493834494e+000	-6.2707854699e-001
 1.7367786217e+000	 1.2673200145e+000	-7.4736469498e-001
 1.7236368297e+000	 1.2851365995e+000	-8.7387013437e-001
 1.7103022543e+000	 1.3028300730e+000	-1.0002031258e+000
 1.6967766151e+000	 1.3203973336e+000	-1.1259188360e+000
 1.6830616978e+000	 1.3378353118e+000	-1.2505627049e+000
 1.6691593533e+000	 1.3551409718e+000	-1.3736713157e+000
 1.8204652369e+000	 1.1901812136e+000	-7.7306992297e-001
 1.8081694692e+000	 1.2087796204e+000	-7.2020208466e-001
 1.7956710026e+000	 1.2272695915e+000	-6.6441849326e-001
 1.7829712337e+000	 1.2456478554e+000	-6.0554664229e-001
 1.7700716284e+000	 1.2639111639e+000	-6.7614766494e-001
 1.7569737220e+000	 1.2820562937e+000	-7.8872281087e-001
 1.7436791184e+000	 1.3000800483e+000	-9.0200752684e-001
 1.7301894898e+000	 1.3179792599e+000	-1.0155571082e+000
 1.7165065757e+000	 1.3357507909e+000	-1.1289153956e+000
 1.7026321826e+000	 1.3533915364e+000	-1.2416156376e+000
 1.6885681830e+000	 1.3708984249e+000	-1.3531813851e+000
 1.8413901247e+000	 1.2038614575e+000	-7.5167707452e-001
 1.8289530263e+000	 1.2226736390e+000	-6.8291413605e-001
 1.8163108992e+000	 1.2413761385e+000	-6.1126831770e-001
 1.8034651559e+000	 1.2599656469e+000	-6.2856670523e-001
 1.7904172793e+000	 1.2784388785e+000	-7.2601597563e-001
 1.7771688222e+000	 1.2967925730e+000	-8.2506409479e-001
 1.7637214071e+000	 1.3150234972e+000	-9.2526853336e-001
 1.7500767253e+000	 1.3331284468e+000	-1.0261735573e+000
 1.7362365364e+000	 1.3511042483e+000	-1.1273110776e+000
 1.7222026675e+000	 1.3689477609e+000	-1.2282015374e+000
 1.7079770127e+000	 1.3866558781e+000	-1.3283548328e+000
 1.8623150124e+000	 1.2175417013e+000	-7.2911389283e-001
 1.8497365834e+000	 1.2365676577e+000	-6.4472254833e-001
 1.8369507958e+000	 1.2554826855e+000	-6.0614719762e-001
 1.8239590782e+000	 1.2742834383e+000	-6.8725966824e-001
 1.8107629302e+000	 1.2929665930e+000	-7.7086623425e-001
 1.7973639225e+000	 1.3115288522e+000	-8.5652864716e-001
 1.7837636958e+000	 1.3299669460e+000	-9.4379368565e-001
 1.7699639608e+000	 1.3482776336e+000	-1.0321939884e+000
 1.7559664970e+000	 1.3664577057e+000	-1.1212489278e+000
 1.7417731524e+000	 1.3845039855e+000	-1.2104655216e+000
 1.7273858424e+000	 1.4024133313e+000	-1.2993393821e+000
 1.8832399002e+000	 1.2312219451e+000	-6.6354763892e-001
 1.8705201405e+000	 1.2504616763e+000	-6.1042617906e-001
 1.8575906924e+000	 1.2695892326e+000	-6.7397478494e-001
 1.8444530004e+000	 1.2886012298e+000	-7.4091729062e-001
 1.8311085811e+000	 1.3074943075e+000	-8.1082189043e-001
 1.8175590227e+000	 1.3262651314e+000	-8.8324002427e-001
 1.8038059846e+000	 1.3449103948e+000	-9.5770718872e-001
 1.7898511964e+000	 1.3634268205e+000	-1.0337437924e+000
 1.7756964577e+000	 1.3818111630e+000	-1.1108560539e+000
 1.7613436372e+000	 1.4000602100e+000	-1.1885369405e+000
 1.7467946721e+000	 1.4181707844e+000	-1.2662671449e+000
 1.5527063751e+000	 1.2605962528e+000	-1.3950564565e+000
 1.5396013926e+000	 1.2765686632e+000	-1.4541540876e+000
 1.5263256822e+000	 1.2924124388e+000	-1.5102599655e+000
 1.5128811432e+000	 1.3081248589e+000	-1.5631490541e+000
 1.4992697328e+000	 1.3237032403e+000	-1.6125945768e+000
 1.4854934645e+000	 1.3391449388e+000	-1.6583686491e+000
 1.4715544074e+000	 1.3544473509e+000	-1.7002429215e+000
 1.4574546853e+000	 1.3696079148e+000	-1.7379892326e+000
 1.4431964755e+000	 1.3846241126e+000	-1.7713802681e+000
 1.4287820076e+000	 1.3994934709e+000	-1.8001902269e+000
 1.4142135624e+000	 1.4142135624e+000	-1.8241954898e+000
 1.5721152048e+000	 1.2763537060e+000	-1.4046871266e+000
 1.5588464100e+000	 1.2925257715e+000	-1.4582984553e+000
 1.5454047532e+000	 1.3085675943e+000	-1.5087893384e+000
 1.5317921575e+000	 1.3244764197e+000	-1.5559498994e+000
 1.5180106045e+000	 1.3402495308e+000	-1.5995683936e+000
 1.5040621328e+000	 1.3558842505e+000	-1.6394318400e+000
 1.4899488375e+000	 1.3713779427e+000	-1.6753266638e+000
 1.4756728689e+000	 1.3867280138e+000	-1.7070393488e+000
 1.4612364314e+000	 1.4019319140e+000	-1.7343570980e+000
 1.4466417827e+000	 1.4169871393e+000	-1.7570684992e+000
 1.4318912319e+000	 1.4318912319e+000	-1.7749641959e+000
 1.5915240345e+000	 1.2921111591e+000	-1.4087106585e+000
 1.5780914275e+000	 1.3084828798e+000	-1.4579362039e+000
 1.5644838242e+000	 1.3247227498e+000	-1.5039183929e+000
 1.5507031718e+000	 1.3408279804e+000	-1.5464614448e+000
 1.5367514761e+000	 1.3567958213e+000	-1.5853675718e+000
 1.5226308011e+000	 1.3726235623e+000	-1.6204376107e+000
 1.5083432676e+000	 1.3883085346e+000	-1.6514716667e+000
 1.4938910524e+000	 1.4038481127e+000	-1.6782697674e+000
 1.4792763874e+000	 1.4192397154e+000	-1.7006325244e+000
 1.4645015578e+000	 1.4344808076e+000	-1.7183618026e+000
 1.4495689015e+000	 1.4495689015e+000	-1.7312613921e+000
 1.6109328642e+000	 1.3078686123e+000	-1.4073902282e+000
 1.5973364449e+000	 1.3244399881e+000	-1.4532968436e+000
 1.5835628953e+000	 1.3408779053e+000	-1.4958431049e+000
 1.5696141861e+000	 1.3571795411e+000	-1.5348462737e+000
 1.5554923478e+000	 1.3733421118e+000	-1.5701214532e+000
 1.5411994694e+000	 1.3893628740e+000	-1.6014822219e+000
 1.5267376977e+000	 1.4052391265e+000	-1.6287412798e+000
 1.5121092360e+000	 1.4209682117e+000	-1.6517111048e+000
 1.4973163433e+000	 1.4365475169e+000	-1.6702046187e+000
 1.4823613329e+000	 1.4519744760e+000	-1.6840358590e+000
 1.4672465710e+000	 1.4672465710e+000	-1.6930206561e+000
 1.6303416939e+000	 1.3236260655e+000	-1.4009667875e+000
 1.6165814623e+000	 1.3403970964e+000	-1.4445895625e+000
 1.6026419663e+000	 1.3570330608e+000	-1.4847410322e+000
 1.5885252004e+000	 1.3735311019e+000	-1.5212504556e+000
 1.5742332195e+000	 1.3898884023e+000	-1.5539447698e+000
 1.5597681377e+000	 1.4061021858e+000	-1.5826492272e+000
 1.5451321278e+000	 1.4221697184e+000	-1.6071880453e+000
 1.5303274196e+000	 1.4380883106e+000	-1.6273850682e+000
 1.5153562993e+000	 1.4538553183e+000	-1.6430644359e+000
 1.5002211079e+000	 1.4694681444e+000	-1.6540512630e+000
 1.4849242405e+000	 1.4849242405e+000	-1.6601723207e+000
 1.6497505236e+000	 1.3393835186e+000	-1.3896603719e+000
 1.6358264797e+000	 1.3563542047e+000	-1.4320044220e+000
 1.6217210373e+000	 1.3731882162e+000	-1.4707723975e+000
 1.6074362147e+000	 1.3898826626e+000	-1.5058045171e+000
 1.5929740911e+000	 1.4064346928e+000	-1.5369385025e+000
 1.5783368060e+000	 1.4228414975e+000	-1.5640102197e+000
 1.5635265579e+000	 1.4391003103e+000	-1.5868543345e+000
 1.5485456031e+000	 1.4552084095e+000	-1.6053049790e+000
 1.5333962552e+000	 1.4711631197e+000	-1.6191964279e+000
 1.5180808830e+000	 1.4869618128e+000	-1.6283637835e+000
 1.5026019100e+000	 1.5026019100e+000	-1.6326436653e+000
 1.6691593533e+000	 1.3551409718e+000	-1.3736713157e+000
 1.6550714971e+000	 1.3723113129e+000	-1.4157134693e+000
 1.6408001083e+000	 1.3893433717e+000	-1.4540810964e+000
 1.6263472290e+000	 1.4062342233e+000	-1.4886243456e+000
 1.6117149628e+000	 1.4229809833e+000	-1.5191906808e+000
 1.5969054743e+000	 1.4395808092e+000	-1.5456255282e+000
 1.5819209879e+000	 1.4560309022e+000	-1.5677729385e+000
 1.5667637867e+000	 1.4723285085e+000	-1.5854762609e+000
 1.5514362112e+000	 1.4884709211e+000	-1.5985788272e+000
 1.5359406581e+000	 1.5044554812e+000	-1.6069246442e+000
 1.5202795796e+000	 1.5202795796e+000	-1.6103590929e+000
 1.6885681830e+000	 1.3708984249e+000	-1.3531813851e+000
 1.6743165145e+000	 1.3882684212e+000	-1.3958717722e+000
 1.6598791794e+000	 1.4054985272e+000	-1.4347956359e+000
 1.6452582433e+000	 1.4225857841e+000	-1.4698120312e+000
 1.6304558344e+000	 1.4395272738e+000	-1.5007771274e+000
 1.6154741426e+000	 1.4563201210e+000	-1.5275448639e+000
 1.6003154180e+000	 1.4729614941e+000	-1.5499676191e+000
 1.5849819703e+000	 1.4894486074e+000	-1.5678968938e+000
 1.5694761671e+000	 1.5057787225e+000	-1.5811840042e+000
 1.5538004332e+000	 1.5219491496e+000	-1.5896807845e+000
 1.5379572491e+000	 1.5379572491e+000	-1.5932402959e+000
 1.7079770127e+000	 1.3866558781e+000	-1.3283548328e+000
 1.6935615319e+000	 1.4042255295e+000	-1.3726183839e+000
 1.6789582504e+000	 1.4216536827e+000	-1.4130300085e+000
 1.6641692576e+000	 1.4389373448e+000	-1.4494566496e+000
 1.6491967061e+000	 1.4560735643e+000	-1.4817621516e+000
 1.6340428109e+000	 1.4730594327e+000	-1.5098079242e+000
 1.6187098481e+000	 1.4898920859e+000	-1.5334536217e+000
 1.6032001538e+000	 1.5065687063e+000	-1.5525578361e+000
 1.5875161230e+000	 1.5230865239e+000	-1.5669788006e+000
 1.5716602083e+000	 1.5394428180e+000	-1.5765751037e+000
 1.5556349186e+000	 1.5556349186e+000	-1.5812064096e+000
 1.7273858424e+000	 1.4024133313e+000	-1.2993393821e+000
 1.7128065493e+000	 1.4201826378e+000	-1.3460772429e+000
 1.6980373214e+000	 1.4378088382e+000	-1.3888845078e+000
 1.6830802719e+000	 1.4552889056e+000	-1.4276349944e+000
 1.6679375778e+000	 1.4726198548e+000	-1.4621991958e+000
 1.6526114792e+000	 1.4897987444e+000	-1.4924449549e+000
 1.6371042782e+000	 1.5068226778e+000	-1.5182381540e+000
 1.6214183374e+000	 1.5236888053e+000	-1.5394434200e+000
 1.6055560790e+000	 1.5403943253e+000	-1.5559248398e+000
 1.5895199834e+000	 1.5569364863e+000	-1.5675466872e+000
 1.5733125882e+000	 1.5733125882e+000	-1.5741741562e+000
 1.7467946721e+000	 1.4181707844e+000	-1.2662671449e+000
 1.7320515667e+000	 1.4361397461e+000	-1.3163580127e+000
 1.7171163925e+000	 1.4539639937e+000	-1.3624464894e+000
 1.7019912862e+000	 1.4716404663e+000	-1.4044122585e+000
 1.6866784494e+000	 1.4891661453e+000	-1.4421314398e+000
 1.6711801475e+000	 1.5065380562e+000	-1.4754772754e+000
 1.6554987083e+000	 1.5237532697e+000	-1.5043208322e+000
 1.6396365210e+000	 1.5408089042e+000	-1.5285317191e+000
 1.6235960349e+000	 1.5577021267e+000	-1.5479788168e+000
 1.6073797585e+000	 1.5744301547e+000	-1.5625310186e+000
 1.5909902577e+000	 1.5909902577e+000	-1.5720579787e+000
 1.4142135624e+000	 1.4142135624e+000	-1.8241954898e+000
 1.3994934709e+000	 1.4287820076e+000	-1.8695551331e+000
 1.3846241126e+000	 1.4431964755e+000	-1.9066997203e+000
 1.3696079148e+000	 1.4574546853e+000	-1.9353592340e+000
 1.3544473509e+000	 1.4715544074e+000	-1.9552717859e+000
 1.3391449388e+000	 1.4854934645e+000	-1.9661843295e+000
 1.3237032403e+000	 1.4992697328e+000	-1.9678533609e+000
 1.3081248589e+000	 1.5128811432e+000	-1.9600456055e+000
 1.2924124388e+000	 1.5263256822e+000	-1.9425386893e+000
 1.2765686632e+000	 1.5396013926e+000	-1.9151217915e+000
 1.2605962528e+000	 1.5527063751e+000	-1.8775962794e+000
 1.4318912319e+000	 1.4318912319e+000	-1.7749641959e+000
 1.4169871393e+000	 1.4466417827e+000	-1.8124552205e+000
 1.4019319140e+000	 1.4612364314e+000	-1.8423316866e+000
 1.3867280138e+000	 1.4756728689e+000	-1.8643453497e+000
 1.3713779427e+000	 1.4899488375e+000	-1.8782554301e+000
 1.3558842505e+000	 1.5040621328e+000	-1.8838293201e+000
 1.3402495308e+000	 1.5180106045e+000	-1.8808432820e+000
 1.3244764197e+000	 1.5317921575e+000	-1.8690831310e+000
 1.3085675943e+000	 1.5454047532e+000	-1.8483449053e+000
 1.2925257715e+000	 1.5588464100e+000	-1.8184355175e+000
 1.2763537060e+000	 1.5721152048e+000	-1.7791733891e+000
 1.4495689015e+000	 1.4495689015e+000	-1.7312613921e+000
 1.4344808076e+000	 1.4645015578e+000	-1.7623278540e+000
 1.4192397154e+000	 1.4792763874e+000	-1.7863608618e+000
 1.4038481127e+000	 1.4938910524e+000	-1.8031326777e+000
 1.3883085346e+000	 1.5083432676e+000	-1.8124223757e+000
 1.3726235623e+000	 1.5226308011e+000	-1.8140165470e+000
 1.3567958213e+000	 1.5367514761e+000	-1.8077099947e+000
 1.3408279804e+000	 1.5507031718e+000	-1.7933064166e+000
 1.3247227498e+000	 1.5644838242e+000	-1.7706190739e+000
 1.3084828798e+000	 1.5780914275e+000	-1.7394714443e+000
 1.2921111591e+000	 1.5915240345e+000	-1.6996978564e+000
 1.4672465710e+000	 1.4672465710e+000	-1.6930206561e+000
 1.4519744760e+000	 1.4823613329e+000	-1.7190625826e+000
 1.4365475169e+000	 1.4973163433e+000	-1.7386335007e+000
 1.4209682117e+000	 1.5121092360e+000	-1.7515249255e+000
 1.4052391265e+000	 1.5267376977e+000	-1.7575345438e+000
 1.3893628740e+000	 1.5411994694e+000	-1.7564669174e+000
 1.3733421118e+000	 1.5554923478e+000	-1.7481341776e+000
 1.3571795411e+000	 1.5696141861e+000	-1.7323567084e+000
 1.3408779053e+000	 1.5835628953e+000	-1.7089638164e+000
 1.3244399881e+000	 1.5973364449e+000	-1.6777943856e+000
 1.3078686123e+000	 1.6109328642e+000	-1.6386975154e+000
 1.4849242405e+000	 1.4849242405e+000	-1.6601723207e+000
 1.4694681444e+000	 1.5002211079e+000	-1.6825481630e+000
 1.4538553183e+000	 1.5153562993e+000	-1.6989974854e+000
 1.4380883106e+000	 1.5303274196e+000	-1.7093298154e+000
 1.4221697184e+000	 1.5451321278e+000	-1.7133602226e+000
 1.4061021858e+000	 1.5597681377e+000	-1.7109100231e+000
 1.3898884023e+000	 1.5742332195e+000	-1.7018074744e+000
 1.3735311019e+000	 1.5885252004e+000	-1.6858884609e+000
 1.3570330608e+000	 1.6026419663e+000	-1.6629971663e+000
 1.3403970964e+000	 1.6165814623e+000	-1.6329867325e+000
 1.3236260655e+000	 1.6303416939e+000	-1.5957199012e+000
 1.5026019100e+000	 1.5026019100e+000	-1.6326436653e+000
 1.4869618128e+000	 1.5180808830e+000	-1.6526726061e+000
 1.4711631197e+000	 1.5333962552e+000	-1.6673022303e+000
 1.4552084095e+000	 1.5485456031e+000	-1.6763588479e+000
 1.4391003103e+000	 1.5635265579e+000	-1.6796736930e+000
 1.4228414975e+000	 1.5783368060e+000	-1.6770836295e+000
 1.4064346928e+000	 1.5929740911e+000	-1.6684318490e+000
 1.3898826626e+000	 1.6074362147e+000	-1.6535685596e+000
 1.3731882162e+000	 1.6217210373e+000	-1.6323516633e+000
 1.3563542047e+000	 1.6358264797e+000	-1.6046474192e+000
 1.3393835186e+000	 1.6497505236e+000	-1.5703310914e+000
 1.5202795796e+000	 1.5202795796e+000	-1.6103590929e+000
 1.5044554812e+000	 1.5359406581e+000	-1.6293232203e+000
 1.4884709211e+000	 1.5514362112e+000	-1.6433985924e+000
 1.4723285085e+000	 1.5667637867e+000	-1.6524270826e+000
 1.4560309022e+000	 1.5819209879e+000	-1.6562548803e+000
 1.4395808092e+000	 1.5969054743e+000	-1.6547332003e+000
 1.4229809833e+000	 1.6117149628e+000	-1.6477189850e+000
 1.4062342233e+000	 1.6263472290e+000	-1.6350755984e+000
 1.3893433717e+000	 1.6408001083e+000	-1.6166735094e+000
 1.3723113129e+000	 1.6550714971e+000	-1.5923909614e+000
 1.3551409718e+000	 1.6691593533e+000	-1.5621146281e+000
 1.5379572491e+000	 1.5379572491e+000	-1.5932402959e+000
 1.5219491496e+000	 1.5538004332e+000	-1.6123866519e+000
 1.5057787225e+000	 1.5694761671e+000	-1.6271387888e+000
 1.4894486074e+000	 1.5849819703e+000	-1.6373529332e+000
 1.4729614941e+000	 1.6003154180e+000	-1.6428890296e+000
 1.4563201210e+000	 1.6154741426e+000	-1.6436114551e+000
 1.4395272738e+000	 1.6304558344e+000	-1.6393897277e+000
 1.4225857841e+000	 1.6452582433e+000	-1.6300992067e+000
 1.4054985272e+000	 1.6598791794e+000	-1.6156217838e+000
 1.3882684212e+000	 1.6743165145e+000	-1.5958465608e+000
 1.3708984249e+000	 1.6885681830e+000	-1.5706705139e+000
 1.5556349186e+000	 1.5556349186e+000	-1.5812064096e+000
 1.5394428180e+000	 1.5716602083e+000	-1.6017489229e+000
 1.5230865239e+000	 1.5875161230e+000	-1.6183763195e+000
 1.5065687063e+000	 1.6032001538e+000	-1.6309579772e+000
 1.4898920859e+000	 1.6187098481e+000	-1.6393664037e+000
 1.4730594327e+000	 1.6340428109e+000	-1.6434779573e+000
 1.4560735643e+000	 1.6491967061e+000	-1.6431735632e+000
 1.4389373448e+000	 1.6641692576e+000	-1.6383394225e+000
 1.4216536827e+000	 1.6789582504e+000	-1.6288677116e+000
 1.4042255295e+000	 1.6935615319e+000	-1.6146572704e+000
 1.3866558781e+000	 1.7079770127e+000	-1.5956142768e+000
 1.5733125882e+000	 1.5733125882e+000	-1.5741741562e+000
 1.5569364863e+000	 1.5895199834e+000	-1.5972954656e+000
 1.5403943253e+000	 1.6055560790e+000	-1.6169658947e+000
 1.5236888053e+000	 1.6214183374e+000	-1.6330667781e+000
 1.5068226778e+000	 1.6371042782e+000	-1.6454820011e+000
 1.4897987444e+000	 1.6526114792e+000	-1.6540987292e+000
 1.4726198548e+000	 1.6679375778e+000	-1.6588081330e+000
 1.4552889056e+000	 1.6830802719e+000	-1.6595061072e+000
 1.4378088382e+000	 1.6980373214e+000	-1.6560939810e+000
 1.4201826378e+000	 1.7128065493e+000	-1.6484792169e+000
 1.4024133313e+000	 1.7273858424e+000	-1.6365760979e+000
 1.5909902577e+000	 1.5909902577e+000	-1.5720579787e+000
 1.5744301547e+000	 1.6073797585e+000	-1.5989111562e+000
 1.5577021267e+000	 1.6235960349e+000	-1.6227633684e+000
 1.5408089042e+000	 1.6396365210e+000	-1.6435067193e+000
 1.5237532697e+000	 1.6554987083e+000	-1.6610352931e+000
 1.5065380562e+000	 1.6711801475e+000	-1.6752458938e+000
 1.4891661453e+000	 1.6866784494e+000	-1.6860387810e+000
 1.4716404663e+000	 1.7019912862e+000	-1.6933184005e+000
 1.4539639937e+000	 1.7171163925e+000	-1.6969941065e+000
 1.4361397461e+000	 1.7320515667e+000	-1.6969808738e+000
 1.4181707844e+000	 1.7467946721e+000	-1.6931999977e+000
 1.2605962528e+000	 1.5527063751e+000	-1.8775962794e+000
 1.2444979645e+000	 1.5656387886e+000	-1.9587901951e+000
 1.2282765894e+000	 1.5783968513e+000	-1.9805451233e+000
 1.2119349516e+000	 1.5909788412e+000	-1.9915161790e+000
 1.1954759065e+000	 1.6033830974e+000	-1.9919943274e+000
 1.1789023391e+000	 1.6156080202e+000	-1.9822858739e+000
 1.1622171622e+000	 1.6276520721e+000	-1.9627118258e+000
 1.1454233153e+000	 1.6395137781e+000	-1.9336072256e+000
 1.1285237623e+000	 1.6511917266e+000	-1.8953204574e+000
 1.1115214900e+000	 1.6626845693e+000	-1.8482125296e+000
 1.0944195068e+000	 1.6739910224e+000	-1.7926563337e+000
 1.2763537060e+000	 1.5721152048e+000	-1.7791733891e+000
 1.2600541890e+000	 1.5852092735e+000	-1.8821468827e+000
 1.2436300467e+000	 1.5981268119e+000	-1.9426678085e+000
 1.2270841385e+000	 1.6108660767e+000	-1.9515700589e+000
 1.2104193553e+000	 1.6234253861e+000	-1.9496270953e+000
 1.1936386183e+000	 1.6358031204e+000	-1.9371616587e+000
 1.1767448768e+000	 1.6479977230e+000	-1.9145119729e+000
 1.1597411068e+000	 1.6600077003e+000	-1.8820310448e+000
 1.1426303093e+000	 1.6718316232e+000	-1.8400859380e+000
 1.1254155087e+000	 1.6834681265e+000	-1.7890570197e+000
 1.1080997506e+000	 1.6949159102e+000	-1.7293371841e+000
 1.2921111591e+000	 1.5915240345e+000	-1.6996978564e+000
 1.2756104136e+000	 1.6047797583e+000	-1.8005930968e+000
 1.2589835041e+000	 1.6178567725e+000	-1.8826536849e+000
 1.2422333254e+000	 1.6307533122e+000	-1.9205336251e+000
 1.2253628042e+000	 1.6434676748e+000	-1.9159209601e+000
 1.2083748975e+000	 1.6559982207e+000	-1.9004463116e+000
 1.1912725913e+000	 1.6683433739e+000	-1.8744655062e+000
 1.1740588982e+000	 1.6805016226e+000	-1.8383499146e+000
 1.1567368563e+000	 1.6924715197e+000	-1.7924856904e+000
 1.1393095273e+000	 1.7042516836e+000	-1.7372729816e+000
 1.1217799944e+000	 1.7158407980e+000	-1.6731251170e+000
 1.3078686123e+000	 1.6109328642e+000	-1.6386975154e+000
 1.2911666381e+000	 1.6243502432e+000	-1.7375825026e+000
 1.2743369615e+000	 1.6375867332e+000	-1.8170813727e+000
 1.2573825123e+000	 1.6506405477e+000	-1.8769991102e+000
 1.2403062530e+000	 1.6635099635e+000	-1.8911593331e+000
 1.2231111768e+000	 1.6761933210e+000	-1.8724128645e+000
 1.2058003058e+000	 1.6886890248e+000	-1.8428344380e+000
 1.1883766897e+000	 1.7009955448e+000	-1.8028141972e+000
 1.1708434034e+000	 1.7131114163e+000	-1.7527578074e+000
 1.1532035459e+000	 1.7250352407e+000	-1.6930856302e+000
 1.1354602383e+000	 1.7367656858e+000	-1.6242318725e+000
 1.3236260655e+000	 1.6303416939e+000	-1.5957199012e+000
 1.3067228627e+000	 1.6439207281e+000	-1.6926675320e+000
 1.2896904188e+000	 1.6573166938e+000	-1.7696787672e+000
 1.2725316992e+000	 1.6705277832e+000	-1.8265458196e+000
 1.2552497018e+000	 1.6835522522e+000	-1.8630849777e+000
 1.2378474560e+000	 1.6963884212e+000	-1.8533548687e+000
 1.2203280204e+000	 1.7090346757e+000	-1.8199015063e+000
 1.2026944811e+000	 1.7214894670e+000	-1.7756952014e+000
 1.1849499504e+000	 1.7337513129e+000	-1.7211615627e+000
 1.1670975645e+000	 1.7458187978e+000	-1.6567416096e+000
 1.1491404821e+000	 1.7576905735e+000	-1.5828908823e+000
 1.3393835186e+000	 1.6497505236e+000	-1.5703310914e+000
 1.3222790873e+000	 1.6634912129e+000	-1.6654192860e+000
 1.3050438762e+000	 1.6770466545e+000	-1.7400216670e+000
 1.2876808861e+000	 1.6904150188e+000	-1.7939170425e+000
 1.2701931507e+000	 1.7035945410e+000	-1.8269091031e+000
 1.2525837353e+000	 1.7165835215e+000	-1.8388270163e+000
 1.2348557349e+000	 1.7293803266e+000	-1.8059689563e+000
 1.2170122725e+000	 1.7419833892e+000	-1.7572839505e+000
 1.1990564974e+000	 1.7543912095e+000	-1.6979761655e+000
 1.1809915832e+000	 1.7666023549e+000	-1.6285077329e+000
 1.1628207260e+000	 1.7786154613e+000	-1.5493559929e+000
 1.3551409718e+000	 1.6691593533e+000	-1.5621146281e+000
 1.3378353118e+000	 1.6830616978e+000	-1.6554264492e+000
 1.3203973336e+000	 1.6967766151e+000	-1.7277035866e+000
 1.3028300730e+000	 1.7103022543e+000	-1.7787108018e+000
 1.2851365995e+000	 1.7236368297e+000	-1.8082385510e+000
 1.2673200145e+000	 1.7367786217e+000	-1.8161036085e+000
 1.2493834494e+000	 1.7497259775e+000	-1.8013574058e+000
 1.2313300640e+000	 1.7624773115e+000	-1.7478900363e+000
 1.2131630445e+000	 1.7750311061e+000	-1.6834996009e+000
 1.1948856018e+000	 1.7873859120e+000	-1.6086698095e+000
 1.1765009698e+000	 1.7995403491e+000	-1.5239002795e+000
 1.3708984249e+000	 1.6885681830e+000	-1.5706705139e+000
 1.3533915364e+000	 1.7026321826e+000	-1.6622942793e+000
 1.3357507909e+000	 1.7165065757e+000	-1.7323347385e+000
 1.3179792599e+000	 1.7301894898e+000	-1.7805419551e+000
 1.3000800483e+000	 1.7436791184e+000	-1.8066925063e+000
 1.2820562937e+000	 1.7569737220e+000	-1.8105901350e+000
 1.2639111639e+000	 1.7700716284e+000	-1.7920663565e+000
 1.2456478554e+000	 1.7829712337e+000	-1.7478405516e+000
 1.2272695915e+000	 1.7956710026e+000	-1.6780475515e+000
 1.2087796204e+000	 1.8081694692e+000	-1.5975315532e+000
 1.1901812136e+000	 1.8204652369e+000	-1.5068149404e+000
 1.3866558781e+000	 1.7079770127e+000	-1.5956142768e+000
 1.3689477609e+000	 1.7222026675e+000	-1.6856436658e+000
 1.3511042483e+000	 1.7362365364e+000	-1.7535410842e+000
 1.3331284468e+000	 1.7500767253e+000	-1.7990412381e+000
 1.3150234972e+000	 1.7637214071e+000	-1.8219061719e+000
 1.2967925730e+000	 1.7771688222e+000	-1.8219259513e+000
 1.2784388785e+000	 1.7904172793e+000	-1.7989192987e+000
 1.2599656469e+000	 1.8034651559e+000	-1.7527341769e+000
 1.2413761385e+000	 1.8163108992e+000	-1.6819523912e+000
 1.2226736390e+000	 1.8289530263e+000	-1.5954135651e+000
 1.2038614575e+000	 1.8413901247e+000	-1.4984082674e+000
 1.4024133313e+000	 1.7273858424e+000	-1.6365760979e+000
 1.3845039855e+000	 1.7417731524e+000	-1.7251102513e+000
 1.3664577057e+000	 1.7559664970e+000	-1.7909634495e+000
 1.3482776336e+000	 1.7699639608e+000	-1.8338543727e+000
 1.3299669460e+000	 1.7837636958e+000	-1.8535298698e+000
 1.3115288522e+000	 1.7973639225e+000	-1.8497656748e+000
 1.2929665930e+000	 1.8107629302e+000	-1.8223670709e+000
 1.2742834383e+000	 1.8239590782e+000	-1.7711695037e+000
 1.2554826855e+000	 1.8369507958e+000	-1.6960391398e+000
 1.2365676577e+000	 1.8497365834e+000	-1.6026523849e+000
 1.2175417013e+000	 1.8623150124e+000	-1.4990046856e+000
 1.4181707844e+000	 1.7467946721e+000	-1.6931999977e+000
 1.4000602100e+000	 1.7613436372e+000	-1.7803436120e+000
 1.3818111630e+000	 1.7756964577e+000	-1.8442566989e+000
 1.3634268205e+000	 1.7898511964e+000	-1.8846412342e+000
 1.3449103948e+000	 1.8038059846e+000	-1.9012282005e+000
 1.3262651314e+000	 1.8175590227e+000	-1.8937783364e+000
 1.3074943075e+000	 1.8311085811e+000	-1.8620828319e+000
 1.2886012298e+000	 1.8444530004e+000	-1.8059639709e+000
 1.2695892326e+000	 1.8575906924e+000	-1.7252757178e+000
 1.2504616763e+000	 1.8705201405e+000	-1.6199042467e+000
 1.2312219451e+000	 1.8832399002e+000	-1.5618389064e+000
 1.0944195068e+000	 1.6739910224e+000	-1.7926563337e+000
 1.0772208403e+000	 1.6851098662e+000	-1.7527390934e+000
 1.0599285364e+000	 1.6960399458e+000	-1.7153949772e+000
 1.0425456567e+000	 1.7067801714e+000	-1.6812134806e+000
 1.0250752778e+000	 1.7173295184e+000	-1.6507814865e+000
 1.0075204886e+000	 1.7276870275e+000	-1.6246823450e+000
 9.8988438938e-001	 1.7378518049e+000	-1.6034949574e+000
 9.7217008953e-001	 1.7478230222e+000	-1.5877928696e+000
 9.5438070623e-001	 1.7575999168e+000	-1.5781433739e+000
 9.3651936262e-001	 1.7671817913e+000	-1.5751066238e+000
 9.1858918611e-001	 1.7765680137e+000	-1.5792347620e+000
 1.1080997506e+000	 1.6949159102e+000	-1.7293371841e+000
 1.0906861008e+000	 1.7061737395e+000	-1.6932583077e+000
 1.0731776431e+000	 1.7172404451e+000	-1.6592374495e+000
 1.0555774775e+000	 1.7281149236e+000	-1.6278354627e+000
 1.0378887188e+000	 1.7387961374e+000	-1.5996116641e+000
 1.0201144947e+000	 1.7492831153e+000	-1.5751229203e+000
 1.0022579442e+000	 1.7595749524e+000	-1.5549227384e+000
 9.8432221564e-001	 1.7696708100e+000	-1.5395603616e+000
 9.6631046506e-001	 1.7795699158e+000	-1.5295798741e+000
 9.4822585465e-001	 1.7892715637e+000	-1.5255193152e+000
 9.3007155093e-001	 1.7987751138e+000	-1.5279098062e+000
 1.1217799944e+000	 1.7158407980e+000	-1.6731251170e+000
 1.1041513613e+000	 1.7272376128e+000	-1.6385599470e+000
 1.0864267498e+000	 1.7384409444e+000	-1.6055463341e+000
 1.0686092982e+000	 1.7494496757e+000	-1.5746178827e+000
 1.0507021598e+000	 1.7602627564e+000	-1.5463077317e+000
 1.0327085009e+000	 1.7708792032e+000	-1.5211476474e+000
 1.0146314991e+000	 1.7812981000e+000	-1.4996671168e+000
 9.9647434176e-001	 1.7915185978e+000	-1.4823924461e+000
 9.7824022389e-001	 1.8015399147e+000	-1.4698458657e+000
 9.5993234668e-001	 1.8113613361e+000	-1.4625446429e+000
 9.4155391576e-001	 1.8209822140e+000	-1.4610002059e+000
 1.1354602383e+000	 1.7367656858e+000	-1.6242318725e+000
 1.1176166218e+000	 1.7483014862e+000	-1.5889161183e+000
 1.0996758565e+000	 1.7596414438e+000	-1.5546531952e+000
 1.0816411189e+000	 1.7707844278e+000	-1.5219508309e+000
 1.0635156007e+000	 1.7817293753e+000	-1.4913173555e+000
 1.0453025070e+000	 1.7924752910e+000	-1.4632607977e+000
 1.0270050540e+000	 1.8030212475e+000	-1.4382879811e+000
 1.0086264679e+000	 1.8133663856e+000	-1.4169036227e+000
 9.9016998271e-001	 1.8235099137e+000	-1.3996094367e+000
 9.7163883872e-001	 1.8334511084e+000	-1.3869032445e+000
 9.5303628058e-001	 1.8431893142e+000	-1.3792780946e+000
 1.1491404821e+000	 1.7576905735e+000	-1.5828908823e+000
 1.1310818823e+000	 1.7693653595e+000	-1.5446173511e+000
 1.1129249632e+000	 1.7808419431e+000	-1.5069047795e+000
 1.0946729396e+000	 1.7921191800e+000	-1.4702363716e+000
 1.0763290417e+000	 1.8031959943e+000	-1.4350969984e+000
 1.0578965131e+000	 1.8140713789e+000	-1.4019722967e+000
 1.0393786088e+000	 1.8247443951e+000	-1.3713477656e+000
 1.0207785940e+000	 1.8352141733e+000	-1.3437078645e+000
 1.0020997415e+000	 1.8454799126e+000	-1.3195351137e+000
 9.8334533075e-001	 1.8555408808e+000	-1.2993092006e+000
 9.6451864541e-001	 1.8653964143e+000	-1.2835060928e+000
 1.1628207260e+000	 1.7786154613e+000	-1.5493559929e+000
 1.1445471428e+000	 1.7904292328e+000	-1.5059715135e+000
 1.1261740699e+000	 1.8020424424e+000	-1.4626621236e+000
 1.1077047603e+000	 1.8134539321e+000	-1.4198878387e+000
 1.0891424827e+000	 1.8246626133e+000	-1.3781114035e+000
 1.0704905192e+000	 1.8356674667e+000	-1.3377973914e+000
 1.0517521637e+000	 1.8464675427e+000	-1.2994113006e+000
 1.0329307201e+000	 1.8570619611e+000	-1.2634186493e+000
 1.0140295004e+000	 1.8674499116e+000	-1.2302840721e+000
 9.9505182278e-001	 1.8776306532e+000	-1.2129916477e+000
 9.7600101023e-001	 1.8876035145e+000	-1.2333527878e+000
 1.1765009698e+000	 1.7995403491e+000	-1.5239002795e+000
 1.1580124033e+000	 1.8114931061e+000	-1.4733028040e+000
 1.1394231766e+000	 1.8232429417e+000	-1.4222997228e+000
 1.1207365810e+000	 1.8347886843e+000	-1.3713291804e+000
 1.1019559236e+000	 1.8461292323e+000	-1.3208331118e+000
 1.0830845253e+000	 1.8572635545e+000	-1.2712563406e+000
 1.0641257186e+000	 1.8681906902e+000	-1.2230456728e+000
 1.0450828462e+000	 1.8789097489e+000	-1.1978514487e+000
 1.0259592592e+000	 1.8894199106e+000	-1.2105522312e+000
 1.0067583148e+000	 1.8997204256e+000	-1.2238491151e+000
 9.8748337506e-001	 1.9098106147e+000	-1.2372684321e+000
 1.1901812136e+000	 1.8204652369e+000	-1.5068149404e+000
 1.1714776638e+000	 1.8325569795e+000	-1.4469508135e+000
 1.1526722833e+000	 1.8444434411e+000	-1.3862047577e+000
 1.1337684017e+000	 1.8561234364e+000	-1.3249943493e+000
 1.1147693646e+000	 1.8675958513e+000	-1.2637420149e+000
 1.0956785314e+000	 1.8788596424e+000	-1.2256344348e+000
 1.0764992734e+000	 1.8899138378e+000	-1.2317297759e+000
 1.0572349723e+000	 1.9007575367e+000	-1.2384508978e+000
 1.0378890180e+000	 1.9113899095e+000	-1.2452101706e+000
 1.0184648068e+000	 1.9218101980e+000	-1.2514476032e+000
 9.9896573988e-001	 1.9320177149e+000	-1.2566317126e+000
 1.2038614575e+000	 1.8413901247e+000	-1.4984082674e+000
 1.1849429244e+000	 1.8536208528e+000	-1.4272696501e+000
 1.1659213900e+000	 1.8656439404e+000	-1.3547763735e+000
 1.1468002224e+000	 1.8774581886e+000	-1.2965065895e+000
 1.1275828056e+000	 1.8890624702e+000	-1.2961558630e+000
 1.1082725375e+000	 1.9004557302e+000	-1.2968198391e+000
 1.0888728283e+000	 1.9116369853e+000	-1.2977923540e+000
 1.0693870985e+000	 1.9226053244e+000	-1.2983948673e+000
 1.0498187768e+000	 1.9333599085e+000	-1.2979775453e+000
 1.0301712989e+000	 1.9438999704e+000	-1.2959202688e+000
 1.0104481047e+000	 1.9542248150e+000	-1.2916335669e+000
 1.2175417013e+000	 1.8623150124e+000	-1.4990046856e+000
 1.1984081849e+000	 1.8746847261e+000	-1.4146271239e+000
 1.1791704967e+000	 1.8868444397e+000	-1.4050755249e+000
 1.1598320431e+000	 1.8987929407e+000	-1.3992729626e+000
 1.1403962465e+000	 1.9105290892e+000	-1.3944205350e+000
 1.1208665436e+000	 1.9220518181e+000	-1.3897173179e+000
 1.1012463832e+000	 1.9333601329e+000	-1.3843907294e+000
 1.0815392246e+000	 1.9444531122e+000	-1.3776977623e+000
 1.0617485357e+000	 1.9553299075e+000	-1.3689261396e+000
 1.0418777909e+000	 1.9659897428e+000	-1.3573953922e+000
 1.0219304695e+000	 1.9764319152e+000	-1.3424578566e+000
 1.2312219451e+000	 1.8832399002e+000	-1.5618389064e+000
 1.2118734454e+000	 1.8957485995e+000	-1.5481873716e+000
 1.1924196034e+000	 1.9080449390e+000	-1.5365124331e+000
 1.1728638638e+000	 1.9201276929e+000	-1.5258883319e+000
 1.1532096875e+000	 1.9319957082e+000	-1.5154166888e+000
 1.1334605497e+000	 1.9436479059e+000	-1.5042279677e+000
 1.1136199380e+000	 1.9550832805e+000	-1.4914828647e+000
 1.0936913507e+000	 1.9663009000e+000	-1.4763736177e+000
 1.0736782945e+000	 1.9772999064e+000	-1.4581252359e+000
 1.0535842829e+000	 1.9880795152e+000	-1.4359966473e+000
 1.0334128344e+000	 1.9986390154e+000	-1.4092817611e+000
 9.1858918611e-001	 1.7765680137e+000	-1.5792347620e+000
 9.0059330673e-001	 1.7857580172e+000	-1.5234579687e+000
 8.8253485550e-001	 1.7947513000e+000	-1.4606426484e+000
 8.6441696276e-001	 1.8035474251e+000	-1.3911071464e+000
 8.4624275656e-001	 1.8121460198e+000	-1.3151754339e+000
 8.2801536107e-001	 1.8205467755e+000	-1.2331763429e+000
 8.0973789495e-001	 1.8287494474e+000	-1.1454428038e+000
 7.9141346985e-001	 1.8367538539e+000	-1.0523110870e+000
 7.7304518882e-001	 1.8445598760e+000	-9.5412005010e-001
 7.5463614479e-001	 1.8521674571e+000	-8.5121039342e-001
 7.3618941913e-001	 1.8595766021e+000	-7.4392392417e-001
 9.3007155093e-001	 1.7987751138e+000	-1.5279098062e+000
 9.1185072306e-001	 1.8080799924e+000	-1.4603119613e+000
 8.9356654119e-001	 1.8171856912e+000	-1.3894868949e+000
 8.7522217479e-001	 1.8260917679e+000	-1.3157559411e+000
 8.5682079102e-001	 1.8347978450e+000	-1.2394427643e+000
 8.3836555308e-001	 1.8433036102e+000	-1.1608726174e+000
 8.1985961864e-001	 1.8516088155e+000	-1.0803716052e+000
 8.0130613823e-001	 1.8597132771e+000	-9.9826595564e-001
 7.8270825368e-001	 1.8676168744e+000	-9.1488130188e-001
 7.6406909660e-001	 1.8753195503e+000	-8.3041736446e-001
 7.4539178687e-001	 1.8828213097e+000	-7.3924418957e-001
 9.4155391576e-001	 1.8209822140e+000	-1.4610002059e+000
 9.2310813940e-001	 1.8304019676e+000	-1.3813551473e+000
 9.0459822689e-001	 1.8396200825e+000	-1.3022025848e+000
 8.8602738683e-001	 1.8486361107e+000	-1.2238678329e+000
 8.6739882548e-001	 1.8574496703e+000	-1.1466752949e+000
 8.4871574509e-001	 1.8660604449e+000	-1.0709477410e+000
 8.2998134233e-001	 1.8744681836e+000	-9.9700559679e-001
 8.1119880660e-001	 1.8826727002e+000	-9.3350286439e-001
 7.9237131854e-001	 1.8906738729e+000	-8.6722179247e-001
 7.7350204841e-001	 1.8984716435e+000	-7.9723411725e-001
 7.5459415461e-001	 1.9060660172e+000	-7.2339150797e-001
 9.5303628058e-001	 1.8431893142e+000	-1.3792780946e+000
 9.3436555573e-001	 1.8527239428e+000	-1.2873395979e+000
 9.1562991258e-001	 1.8620544737e+000	-1.1995247579e+000
 8.9683259886e-001	 1.8711804535e+000	-1.1161638589e+000
 8.7797685993e-001	 1.8801014955e+000	-1.0511861652e+000
 8.5906593711e-001	 1.8888172796e+000	-9.9739186289e-001
 8.4010306601e-001	 1.8973275517e+000	-9.4342486877e-001
 8.2109147497e-001	 1.9056321234e+000	-8.8901112814e-001
 8.0203438340e-001	 1.9137308713e+000	-8.3390403440e-001
 7.8293500022e-001	 1.9216237367e+000	-7.7788460999e-001
 7.6379652235e-001	 1.9293107247e+000	-7.2076162422e-001
 9.6451864541e-001	 1.8653964143e+000	-1.2835060928e+000
 9.4562297206e-001	 1.8750459180e+000	-1.1791880523e+000
 9.2666159827e-001	 1.8844888650e+000	-1.1178276358e+000
 9.0763781090e-001	 1.8937247963e+000	-1.0601933474e+000
 8.8855489439e-001	 1.9027533208e+000	-1.0058976502e+000
 8.6941612912e-001	 1.9115741143e+000	-9.5457772693e-001
 8.5022478970e-001	 1.9201869198e+000	-9.0589592438e-001
 8.3098414334e-001	 1.9285915466e+000	-8.5954013358e-001
 8.1169744825e-001	 1.9367878698e+000	-8.1522410613e-001
 7.9236795203e-001	 1.9447758299e+000	-7.7268770698e-001
 7.7299889008e-001	 1.9525554322e+000	-7.3169710407e-001
 9.7600101023e-001	 1.8876035145e+000	-1.2333527878e+000
 9.5688038840e-001	 1.8973678932e+000	-1.1590744060e+000
 9.3769328397e-001	 1.9069232562e+000	-1.0917800936e+000
 9.1844302293e-001	 1.9162691391e+000	-1.0310268210e+000
 8.9913292885e-001	 1.9254051460e+000	-9.7639397929e-001
 8.7976632113e-001	 1.9343309490e+000	-9.2748395908e-001
 8.6034651339e-001	 1.9430462879e+000	-8.8392266480e-001
 8.4087681172e-001	 1.9515509698e+000	-8.4535996591e-001
 8.2136051311e-001	 1.9598448682e+000	-8.1147008420e-001
 8.0180090384e-001	 1.9679279231e+000	-7.8195191773e-001
 7.8220125782e-001	 1.9758001398e+000	-7.5652930156e-001
 9.8748337506e-001	 1.9098106147e+000	-1.2372684321e+000
 9.6813780473e-001	 1.9196898685e+000	-1.1545455809e+000
 9.4872496966e-001	 1.9293576475e+000	-1.0815559404e+000
 9.2924823496e-001	 1.9388134820e+000	-1.0178248897e+000
 9.0971096330e-001	 1.9480569713e+000	-9.6289851778e-001
 8.9011651315e-001	 1.9570877837e+000	-9.1634427172e-001
 8.7046823707e-001	 1.9659056560e+000	-8.7775154163e-001
 8.5076948009e-001	 1.9745103929e+000	-8.4673218204e-001
 8.3102357797e-001	 1.9829018667e+000	-8.2292096990e-001
 8.1123385565e-001	 1.9910800163e+000	-8.0597599894e-001
 7.9140362556e-001	 1.9990448473e+000	-7.9557901086e-001
 9.9896573988e-001	 1.9320177149e+000	-1.2566317126e+000
 9.7939522106e-001	 1.9420118437e+000	-1.1658009197e+000
 9.5975665535e-001	 1.9517920388e+000	-1.0873577845e+000
 9.4005344700e-001	 1.9613578248e+000	-1.0207957637e+000
 9.2028899776e-001	 1.9707087965e+000	-9.6562739139e-001
 9.0046670516e-001	 1.9798446184e+000	-9.2138499689e-001
 8.8058996076e-001	 1.9887650241e+000	-8.8762135962e-001
 8.6066214846e-001	 1.9974698161e+000	-8.6391030067e-001
 8.4068664283e-001	 2.0059588651e+000	-8.4984721084e-001
 8.2066680746e-001	 2.0142321096e+000	-8.4504951504e-001
 8.0060599330e-001	 2.0222895548e+000	-8.4915707315e-001
 1.0104481047e+000	 1.9542248150e+000	-1.2916335669e+000
 9.9065263740e-001	 1.9643338189e+000	-1.1930326165e+000
 9.7078834105e-001	 1.9742264300e+000	-1.1093813127e+000
 9.5085865903e-001	 1.9839021676e+000	-1.0401408381e+000
 9.3086703222e-001	 1.9933606218e+000	-9.8478989756e-001
 9.1081689717e-001	 2.0026014531e+000	-9.4282550565e-001
 8.9071168444e-001	 2.0116243922e+000	-9.1376371125e-001
 8.7055481683e-001	 2.0204292393e+000	-8.9714025900e-001
 8.5034970769e-001	 2.0290158636e+000	-8.9251118695e-001
 8.3009975926e-001	 2.0373842028e+000	-8.9945336046e-001
 8.0980836103e-001	 2.0455342623e+000	-9.1756494212e-001
 1.0219304695e+000	 1.9764319152e+000	-1.3424578566e+000
 1.0019100537e+000	 1.9866557941e+000	-1.2364261182e+000
 9.8182002674e-001	 1.9966608213e+000	-1.1478156791e+000
 9.6166387107e-001	 2.0064465104e+000	-1.0760550759e+000
 9.4144506667e-001	 2.0160124470e+000	-1.0205888890e+000
 9.2116708919e-001	 2.0253582878e+000	-9.8087859910e-001
 9.0083340813e-001	 2.0344837603e+000	-9.5640338186e-001
 8.8044748521e-001	 2.0433886625e+000	-9.4666083868e-001
 8.6001277255e-001	 2.0520728620e+000	-9.5116766372e-001
 8.3953271107e-001	 2.0605362960e+000	-9.6946024672e-001
 8.1901072877e-001	 2.0687789699e+000	-1.0010952114e+000
 1.0334128344e+000	 1.9986390154e+000	-1.4092817611e+000
 1.0131674701e+000	 2.0089777693e+000	-1.2961604996e+000
 9.9285171243e-001	 2.0190952125e+000	-1.2028438680e+000
 9.7246908310e-001	 2.0289908532e+000	-1.1287273655e+000
 9.5202310113e-001	 2.0386642723e+000	-1.0732211318e+000
 9.3151728120e-001	 2.0481151225e+000	-1.0357508734e+000
 9.1095513182e-001	 2.0573431284e+000	-1.0157587278e+000
 8.9034015358e-001	 2.0663480856e+000	-1.0127040633e+000
 8.6967583741e-001	 2.0751298605e+000	-1.0260642152e+000
 8.4896566288e-001	 2.0836883892e+000	-1.0553351570e+000
 8.2821309651e-001	 2.0920236774e+000	-1.1000321068e+000
 7.3618941913e-001	 1.8595766021e+000	-7.4392392417e-001
 7.1770808012e-001	 1.8667873772e+000	-6.8466592128e-001
 6.9919518155e-001	 1.8737999088e+000	-6.4507274783e-001
 6.8065376130e-001	 1.8806143829e+000	-6.0816147131e-001
 6.6208683995e-001	 1.8872310448e+000	-5.8105653860e-001
 6.4349741945e-001	 1.8936501977e+000	-5.6634309127e-001
 6.2488848178e-001	 1.8998722024e+000	-5.6300182076e-001
 6.0626298769e-001	 1.9058974762e+000	-4.6195128687e-001
 5.8762387544e-001	 1.9117264922e+000	-3.6314924752e-001
 5.6897405956e-001	 1.9173597783e+000	-2.6709055284e-001
 5.5031642970e-001	 1.9227979164e+000	-1.7422140776e-001
 7.4539178687e-001	 1.8828213097e+000	-7.3924418957e-001
 7.2667943112e-001	 1.8901222194e+000	-6.7836879612e-001
 7.0793512132e-001	 1.8972224076e+000	-6.2805362172e-001
 6.8916193331e-001	 1.9041220627e+000	-5.8787798989e-001
 6.7036292545e-001	 1.9108214328e+000	-5.5744010951e-001
 6.5154113719e-001	 1.9173208252e+000	-5.3635733496e-001
 6.3269958780e-001	 1.9236206049e+000	-5.2426637487e-001
 6.1384127504e-001	 1.9297211947e+000	-4.6753243103e-001
 5.9496917388e-001	 1.9356230734e+000	-3.7610126421e-001
 5.7608623530e-001	 1.9413267756e+000	-2.8563847138e-001
 5.5719538508e-001	 1.9468328903e+000	-1.9670415892e-001
 7.5459415461e-001	 1.9060660172e+000	-7.2339150797e-001
 7.3565078212e-001	 1.9134570617e+000	-6.6869840257e-001
 7.1667506109e-001	 1.9206449065e+000	-6.2150633571e-001
 6.9767010533e-001	 1.9276297425e+000	-5.8141101656e-001
 6.7863901094e-001	 1.9344118209e+000	-5.4803012345e-001
 6.5958485493e-001	 1.9409914526e+000	-5.2100350682e-001
 6.4051069382e-001	 1.9473690074e+000	-4.9999333714e-001
 6.2141956238e-001	 1.9535449131e+000	-4.7126885424e-001
 6.0231447232e-001	 1.9595196545e+000	-3.8590753610e-001
 5.8319841105e-001	 1.9652937728e+000	-2.9982282905e-001
 5.6407434045e-001	 1.9708678643e+000	-2.1369158913e-001
 7.6379652235e-001	 1.9293107247e+000	-7.2076162422e-001
 7.4462213312e-001	 1.9367919039e+000	-6.7251947955e-001
 7.2541500086e-001	 1.9440674054e+000	-6.2875465441e-001
 7.0617827734e-001	 1.9511374223e+000	-5.8907842152e-001
 6.8691509644e-001	 1.9580022090e+000	-5.5312711242e-001
 6.6762857267e-001	 1.9646620801e+000	-5.2056226408e-001
 6.4832179984e-001	 1.9711174100e+000	-4.9107070676e-001
 6.2899784972e-001	 1.9773686316e+000	-4.6436459431e-001
 6.0965977076e-001	 1.9834162357e+000	-3.9491392160e-001
 5.9031058679e-001	 1.9892607700e+000	-3.1187171132e-001
 5.7095329582e-001	 1.9949028382e+000	-2.2729240833e-001
 7.7299889008e-001	 1.9525554322e+000	-7.3169710407e-001
 7.5359348412e-001	 1.9601267461e+000	-6.9016567644e-001
 7.3415494062e-001	 1.9674899042e+000	-6.5012082555e-001
 7.1468644936e-001	 1.9746451021e+000	-6.1118858074e-001
 6.9519118194e-001	 1.9815925970e+000	-5.7302312741e-001
 6.7567229041e-001	 1.9883327076e+000	-5.3530689794e-001
 6.5613290586e-001	 1.9948658125e+000	-4.9775060022e-001
 6.3657613707e-001	 2.0011923500e+000	-4.6009318493e-001
 6.1700506920e-001	 2.0073128168e+000	-4.0546285645e-001
 5.9742276253e-001	 2.0132277673e+000	-3.2401129062e-001
 5.7783225119e-001	 2.0189378122e+000	-2.3961501840e-001
 7.8220125782e-001	 1.9758001398e+000	-7.5652930156e-001
 7.6256483512e-001	 1.9834615883e+000	-7.2196009112e-001
 7.4289488039e-001	 1.9909124031e+000	-6.8591730427e-001
 7.2319462137e-001	 1.9981527819e+000	-6.4804093443e-001
 7.0346726743e-001	 2.0051829851e+000	-6.0800223730e-001
 6.8371600815e-001	 2.0120033350e+000	-5.6550376688e-001
 6.6394401188e-001	 2.0186142150e+000	-5.2027934530e-001
 6.4415442441e-001	 2.0250160685e+000	-4.7209396776e-001
 6.2435036764e-001	 2.0312093980e+000	-4.1989355499e-001
 6.0453493827e-001	 2.0371947645e+000	-3.3846593885e-001
 5.8471120656e-001	 2.0429727862e+000	-2.5276753133e-001
 7.9140362556e-001	 1.9990448473e+000	-7.9557901086e-001
 7.7153618612e-001	 2.0067964305e+000	-7.6821588335e-001
 7.5163482016e-001	 2.0143349019e+000	-7.3644732247e-001
 7.3170279338e-001	 2.0216604616e+000	-6.9992650657e-001
 7.1174335293e-001	 2.0287733731e+000	-6.5834099292e-001
 6.9175972589e-001	 2.0356739625e+000	-6.1141269970e-001
 6.7175511790e-001	 2.0423626176e+000	-5.5889781763e-001
 6.5173271175e-001	 2.0488397869e+000	-5.0058665325e-001
 6.3169566608e-001	 2.0551059791e+000	-4.3630340525e-001
 6.1164711402e-001	 2.0611617617e+000	-3.5745833207e-001
 5.9159016193e-001	 2.0670077601e+000	-2.6885778606e-001
 8.0060599330e-001	 2.0222895548e+000	-8.4915707315e-001
 7.8050753712e-001	 2.0301312727e+000	-8.2923684597e-001
 7.6037475992e-001	 2.0377574008e+000	-8.0200541891e-001
 7.4021096540e-001	 2.0451681414e+000	-7.6712838856e-001
 7.2001943843e-001	 2.0523637612e+000	-7.2430885913e-001
 6.9980344363e-001	 2.0593445900e+000	-6.7328737080e-001
 6.7956622392e-001	 2.0661110201e+000	-6.1384175405e-001
 6.5931099910e-001	 2.0726635054e+000	-5.4578691163e-001
 6.3904096452e-001	 2.0790025603e+000	-4.6897453019e-001
 6.1875928976e-001	 2.0851287589e+000	-3.8320954795e-001
 5.9846911730e-001	 2.0910427341e+000	-2.8999336415e-001
 8.0980836103e-001	 2.0455342623e+000	-9.1756494212e-001
 7.8947888812e-001	 2.0534661149e+000	-9.0531793712e-001
 7.6911469969e-001	 2.0611798997e+000	-8.8287793310e-001
 7.4871913741e-001	 2.0686758212e+000	-8.4992219003e-001
 7.2829552392e-001	 2.0759541493e+000	-8.0616861741e-001
 7.0784716137e-001	 2.0830152175e+000	-7.5137564986e-001
 6.8737732993e-001	 2.0898594226e+000	-6.8534204454e-001
 6.6688928644e-001	 2.0964872238e+000	-6.0790660245e-001
 6.4638626296e-001	 2.1028991414e+000	-5.1894781582e-001
 6.2587146550e-001	 2.1090957562e+000	-4.1838344384e-001
 6.0534807266e-001	 2.1150777080e+000	-3.1828160444e-001
 8.1901072877e-001	 2.0687789699e+000	-1.0010952114e+000
 7.9845023912e-001	 2.0768009572e+000	-9.9674577653e-001
 7.7785463946e-001	 2.0846023985e+000	-9.7934346596e-001
 7.5722730942e-001	 2.0921835010e+000	-9.4857645904e-001
 7.3657160942e-001	 2.0995445373e+000	-9.0417674136e-001
 7.1589087911e-001	 2.1066858449e+000	-8.4591992797e-001
 6.9518843595e-001	 2.1136078252e+000	-7.7362500458e-001
 6.7446757378e-001	 2.1203109423e+000	-6.8715398871e-001
 6.5373156140e-001	 2.1267957226e+000	-5.8641151324e-001
 6.3298364124e-001	 2.1330627534e+000	-4.7134433483e-001
 6.1222702803e-001	 2.1391126820e+000	-3.5582961666e-001
 8.2821309651e-001	 2.0920236774e+000	-1.1000321068e+000
 8.0742159012e-001	 2.1001357994e+000	-1.1037991088e+000
 7.8659457923e-001	 2.1080248974e+000	-1.0916733097e+000
 7.6573548144e-001	 2.1156911808e+000	-1.0633530745e+000
 7.4484769492e-001	 2.1231349254e+000	-1.0185837471e+000
 7.2393459685e-001	 2.1303564724e+000	-9.5715742195e-001
 7.0299954197e-001	 2.1373562277e+000	-8.7891262923e-001
 6.8204586113e-001	 2.1441346607e+000	-7.8373393660e-001
 6.6107685984e-001	 2.1506923038e+000	-6.7155146927e-001
 6.4009581698e-001	 2.1570297506e+000	-5.4234035141e-001
 6.1910598340e-001	 2.1631476559e+000	-4.0474429417e-001
 5.5031642970e-001	 1.9227979164e+000	-1.7422140776e-001
 5.3165384949e-001	 1.9280415411e+000	-1.4424183317e-001
 5.1298915537e-001	 1.9330913394e+000	-1.1506734581e-001
 4.9432515561e-001	 1.9379480490e+000	-8.7070723304e-002
 4.7566462918e-001	 1.9426124576e+000	-6.0569894507e-002
 4.5701032483e-001	 1.9470854021e+000	-3.5826748515e-002
 4.3836496008e-001	 1.9513677669e+000	-1.3046107720e-002
 4.1973122034e-001	 1.9554604835e+000	 7.6251357011e-003
 4.0111175798e-001	 1.9593645290e+000	 2.6098720960e-002
 3.8250919152e-001	 1.9630809251e+000	 4.2345559025e-002
 3.6392610484e-001	 1.9666107368e+000	 5.6396114157e-002
 5.5719538508e-001	 1.9468328903e+000	-1.9670415892e-001
 5.3829952261e-001	 1.9521420604e+000	-1.7224006265e-001
 5.1940151982e-001	 1.9572549812e+000	-1.4776450482e-001
 5.0050422005e-001	 1.9621723996e+000	-1.2374744247e-001
 4.8161043705e-001	 1.9668951134e+000	-1.0060196251e-001
 4.6272295389e-001	 1.9714239696e+000	-7.8682956024e-002
 4.4384452209e-001	 1.9757598640e+000	-5.8285964510e-002
 4.2497786060e-001	 1.9799037396e+000	-3.9646197591e-002
 4.0612565496e-001	 1.9838565856e+000	-2.2937721117e-002
 3.8729055642e-001	 1.9876194366e+000	-8.2728141705e-003
 3.6847518115e-001	 1.9911933711e+000	 4.2985069919e-003
 5.6407434045e-001	 1.9708678643e+000	-2.1369158913e-001
 5.4494519573e-001	 1.9762425797e+000	-1.9335772623e-001
 5.2581388426e-001	 1.9814186229e+000	-1.7227274971e-001
 5.0668328450e-001	 1.9863967502e+000	-1.5100655175e-001
 4.8755624491e-001	 1.9911777691e+000	-1.3007001383e-001
 4.6843558295e-001	 1.9957625371e+000	-1.0991354376e-001
 4.4932408409e-001	 2.0001519611e+000	-9.0925792839e-002
 4.3022450086e-001	 2.0043469956e+000	-7.3432552794e-002
 4.1113955194e-001	 2.0083486423e+000	-5.7695831374e-002
 3.9207192132e-001	 2.0121579482e+000	-4.3913105239e-002
 3.7302425746e-001	 2.0157760053e+000	-3.2216748128e-002
 5.7095329582e-001	 1.9949028382e+000	-2.2729240833e-001
 5.5159086884e-001	 2.0003430989e+000	-2.0959502614e-001
 5.3222624870e-001	 2.0055822646e+000	-1.9048289429e-001
 5.1286234895e-001	 2.0106211008e+000	-1.7062868392e-001
 4.9350205278e-001	 2.0154604248e+000	-1.5064379461e-001
 4.7414821202e-001	 2.0201011047e+000	-1.3107675149e-001
 4.5480364609e-001	 2.0245440582e+000	-1.1241179104e-001
 4.3547114111e-001	 2.0287902517e+000	-9.5067635043e-002
 4.1615344891e-001	 2.0328406989e+000	-7.9396451940e-002
 3.9685328622e-001	 2.0366964598e+000	-6.5683003991e-002
 3.7757333378e-001	 2.0403586395e+000	-5.4143978369e-002
 5.7783225119e-001	 2.0189378122e+000	-2.3961501840e-001
 5.5823654196e-001	 2.0244436182e+000	-2.2295296648e-001
 5.3863861314e-001	 2.0297459064e+000	-2.0428773168e-001
 5.1904141339e-001	 2.0348454514e+000	-1.8439769503e-001
 4.9944786064e-001	 2.0397430805e+000	-1.6399758372e-001
 4.7986084108e-001	 2.0444396722e+000	-1.4373672561e-001
 4.6028320810e-001	 2.0489361553e+000	-1.2419750122e-001
 4.4071778137e-001	 2.0532335077e+000	-1.0589399259e-001
 4.2116734589e-001	 2.0573327555e+000	-8.9270828438e-002
 4.0163465111e-001	 2.0612349713e+000	-7.4702223965e-002
 3.8212241009e-001	 2.0649412737e+000	-6.2491213538e-002
 5.8471120656e-001	 2.0429727862e+000	-2.5276753133e-001
 5.6488221508e-001	 2.0485441375e+000	-2.3543330602e-001
 5.4505097759e-001	 2.0539095481e+000	-2.1558191787e-001
 5.2522047784e-001	 2.0590698020e+000	-1.9410047482e-001
 5.0539366851e-001	 2.0640257362e+000	-1.7180992614e-001
 4.8557347014e-001	 2.0687782397e+000	-1.4946317166e-001
 4.6576277010e-001	 2.0733282524e+000	-1.2774337728e-001
 4.4596442162e-001	 2.0776767638e+000	-1.0726249664e-001
 4.2618124287e-001	 2.0818248121e+000	-8.8559998011e-002
 4.0641601601e-001	 2.0857734829e+000	-7.2101795153e-002
 3.8667148640e-001	 2.0895239079e+000	-5.8279380049e-002
 5.9159016193e-001	 2.0670077601e+000	-2.6885778606e-001
 5.7152788820e-001	 2.0726446567e+000	-2.4903851436e-001
 5.5146334203e-001	 2.0780731899e+000	-2.2626186342e-001
 5.3139954228e-001	 2.0832941527e+000	-2.0152677030e-001
 5.1133947637e-001	 2.0883083920e+000	-1.7576338494e-001
 4.9128609920e-001	 2.0931168073e+000	-1.4983103112e-001
 4.7124233210e-001	 2.0977203495e+000	-1.2451638305e-001
 4.5121106188e-001	 2.1021200198e+000	-1.0053185740e-001
 4.3119513984e-001	 2.1063168687e+000	-7.8514220052e-002
 4.1119738090e-001	 2.1103119945e+000	-5.9023406063e-002
 3.9122056271e-001	 2.1141065421e+000	-4.2541551116e-002
 5.9846911730e-001	 2.0910427341e+000	-2.8999336415e-001
 5.7817356131e-001	 2.0967451760e+000	-2.6577173103e-001
 5.5787570647e-001	 2.1022368316e+000	-2.3822563259e-001
 5.3757860672e-001	 2.1075185033e+000	-2.0846902158e-001
 5.1728528424e-001	 2.1125910477e+000	-1.7754431033e-001
 4.9699872826e-001	 2.1174553748e+000	-1.4642018052e-001
 4.7672189410e-001	 2.1221124465e+000	-1.1598961816e-001
 4.5645770213e-001	 2.1265632759e+000	-8.7068173653e-002
 4.3620903682e-001	 2.1308089253e+000	-6.0392446187e-002
 4.1597874580e-001	 2.1348505060e+000	-3.6618791164e-002
 3.9576963903e-001	 2.1386891763e+000	-1.6322248663e-002
 6.0534807266e-001	 2.1150777080e+000	-3.1828160444e-001
 5.8481923443e-001	 2.1208456953e+000	-2.8763672749e-001
 5.6428807091e-001	 2.1264004734e+000	-2.5337284943e-001
 5.4375767117e-001	 2.1317428539e+000	-2.1672220885e-001
 5.2323109210e-001	 2.1368737034e+000	-1.7884262452e-001
 5.0271135732e-001	 2.1417939423e+000	-1.4081515103e-001
 4.8220145610e-001	 2.1465045436e+000	-1.0364196944e-001
 4.6170434238e-001	 2.1510065319e+000	-6.8244512861e-002
 4.4122293379e-001	 2.1553009819e+000	-3.5461826401e-002
 4.2076011069e-001	 2.1593890176e+000	-6.0491600922e-003
 4.0031871534e-001	 2.1632718105e+000	 1.9323207171e-002
 6.1222702803e-001	 2.1391126820e+000	-3.5582961666e-001
 5.9146490754e-001	 2.1449462145e+000	-3.1663787158e-001
 5.7070043534e-001	 2.1505641151e+000	-2.7360461014e-001
 5.4993673561e-001	 2.1559672045e+000	-2.2808370965e-001
 5.2917689996e-001	 2.1611563591e+000	-1.8135162098e-001
 5.0842398637e-001	 2.1661325098e+000	-1.3460486694e-001
 4.8768101810e-001	 2.1708966407e+000	-8.8957785759e-002
 4.6695098264e-001	 2.1754497879e+000	-4.5440519725e-002
 4.4623683076e-001	 2.1797930386e+000	-4.9972484505e-003
 4.2554147558e-001	 2.1839275292e+000	 3.1515334665e-002
 4.0486779165e-001	 2.1878544447e+000	 6.3329304674e-002
 6.1910598340e-001	 2.1631476559e+000	-4.0474429417e-001
 5.9811058066e-001	 2.1690467338e+000	-3.5478009438e-001
 5.7711279978e-001	 2.1747277568e+000	-3.0082340123e-001
 5.5611580005e-001	 2.1801915551e+000	-2.4435316570e-001
 5.3512270782e-001	 2.1854390149e+000	-1.8676777723e-001
 5.1413661543e-001	 2.1904710774e+000	-1.2938240164e-001
 4.9316058010e-001	 2.1952887378e+000	-7.3426574600e-002
 4.7219762289e-001	 2.1998930440e+000	-2.0042050762e-002
 4.5125072774e-001	 2.2042850952e+000	 2.9719092007e-002
 4.3032284048e-001	 2.2084660407e+000	 7.4896094588e-002
 4.0941686796e-001	 2.2124370789e+000	 1.1462090676e-001
 3.6392610484e-001	 1.9666107368e+000	 5.6396114157e-002
 3.4536504635e-001	 1.9699550718e+000	 5.9769390519e-002
 3.2682852835e-001	 1.9731150785e+000	 6.2224063085e-002
 3.0831902626e-001	 1.9760919458e+000	 6.4095564610e-002
 2.8983897805e-001	 1.9788869010e+000	 6.5775705290e-002
 2.7139078356e-001	 1.9815012093e+000	 6.7712248904e-002
 2.5297680396e-001	 1.9839361725e+000	 7.0408355070e-002
 2.3459936123e-001	 1.9861931275e+000	 7.4421892026e-002
 2.1626073764e-001	 1.9882734453e+000	 8.0364624550e-002
 1.9796317532e-001	 1.9901785300e+000	 8.8901281914e-002
 1.7970887579e-001	 1.9919098172e+000	 1.0074851093e-001
 3.6847518115e-001	 1.9911933711e+000	 4.2985069919e-003
 3.4968210943e-001	 1.9945795102e+000	 1.2261828218e-002
 3.3091388495e-001	 1.9977790170e+000	 2.0198854507e-002
 3.1217301410e-001	 2.0007930951e+000	 2.8329211173e-002
 2.9346196528e-001	 2.0036229872e+000	 3.6931877309e-002
 2.7478316835e-001	 2.0062699745e+000	 4.6344859265e-002
 2.5613901401e-001	 2.0087353747e+000	 5.6964721559e-002
 2.3753185325e-001	 2.0110205416e+000	 6.9245979673e-002
 2.1896399687e-001	 2.0131268634e+000	 8.3700359510e-002
 2.0043771501e-001	 2.0150557616e+000	 1.0089592849e-001
 1.8195523674e-001	 2.0168086899e+000	 1.2145610350e-001
 3.7302425746e-001	 2.0157760053e+000	-3.2216748128e-002
 3.5399917252e-001	 2.0192039486e+000	-2.0798326182e-002
 3.3499924156e-001	 2.0224429555e+000	-8.6315375358e-003
 3.1602700193e-001	 2.0254942444e+000	 4.3868034072e-003
 2.9708495251e-001	 2.0283590735e+000	 1.8422343872e-002
 2.7817555315e-001	 2.0310387396e+000	 3.3702962917e-002
 2.5930122406e-001	 2.0335345769e+000	 5.0518390151e-002
 2.4046434526e-001	 2.0358479557e+000	 6.9219677533e-002
 2.2166725609e-001	 2.0379802815e+000	 9.0218529115e-002
 2.0291225470e-001	 2.0399329932e+000	 1.1398649385e-001
 1.8420159768e-001	 2.0417075627e+000	 1.4105402686e-001
 3.7757333378e-001	 2.0403586395e+000	-5.4143978369e-002
 3.5831623560e-001	 2.0438283870e+000	-4.0232555325e-002
 3.3908459817e-001	 2.0471068940e+000	-2.4915014235e-002
 3.1988098976e-001	 2.0501953937e+000	-8.2053462618e-003
 3.0070793974e-001	 2.0530951598e+000	 9.9481601987e-003
 2.8156793795e-001	 2.0558075047e+000	 2.9662785900e-002
 2.6246343411e-001	 2.0583337790e+000	 5.1121086510e-002
 2.4339683728e-001	 2.0606753698e+000	 7.4570442423e-002
 2.2437051531e-001	 2.0628336995e+000	 1.0032245761e-001
 2.0538679439e-001	 2.0648102249e+000	 1.2875221279e-001
 1.8644795863e-001	 2.0666064354e+000	 1.6029737839e-001
 3.8212241009e-001	 2.0649412737e+000	-6.2491213538e-002
 3.6263329868e-001	 2.0684528254e+000	-4.6880607022e-002
 3.4316995478e-001	 2.0717708325e+000	-2.9322393094e-002
 3.2373497759e-001	 2.0748965430e+000	-9.9485787923e-003
 3.0433092696e-001	 2.0778312460e+000	 1.1177907833e-002
 2.8496032274e-001	 2.0805762698e+000	 3.4063179794e-002
 2.6562564417e-001	 2.0831329812e+000	 5.8782183268e-002
 2.4632932930e-001	 2.0855027839e+000	 8.5478324507e-002
 2.2707377453e-001	 2.0876871176e+000	 1.1436293667e-001
 2.0786133409e-001	 2.0896874565e+000	 1.4571459199e-001
 1.8869431958e-001	 2.0915053081e+000	 1.7987826494e-001
 3.8667148640e-001	 2.0895239079e+000	-5.8279380049e-002
 3.6695036176e-001	 2.0930772638e+000	-4.1599419831e-002
 3.4725531138e-001	 2.0964347709e+000	-2.2546059912e-002
 3.2758896542e-001	 2.0995976924e+000	-1.3702618586e-003
 3.0795391419e-001	 2.1025673323e+000	 2.1749604859e-002
 2.8835270754e-001	 2.1053450349e+000	 4.6707820206e-002
 2.6878785422e-001	 2.1079321833e+000	 7.3471191377e-002
 2.4926182132e-001	 2.1103301980e+000	 1.0207875593e-001
 2.2977703375e-001	 2.1125405357e+000	 1.3264131552e-001
 2.1033587378e-001	 2.1145646881e+000	 1.6534080578e-001
 1.9094068053e-001	 2.1164041808e+000	 2.0042950823e-001
 3.9122056271e-001	 2.1141065421e+000	-4.2541551116e-002
 3.7126742484e-001	 2.1177017022e+000	-2.5262123590e-002
 3.5134066799e-001	 2.1210987094e+000	-5.2987148119e-003
 3.3144295325e-001	 2.1242988417e+000	 1.6977723330e-002
 3.1157690142e-001	 2.1273034185e+000	 4.1272482848e-002
 2.9174509234e-001	 2.1301138000e+000	 6.7367251894e-002
 2.7195006427e-001	 2.1327313855e+000	 9.5120077652e-002
 2.5219431333e-001	 2.1351576121e+000	 1.2446514488e-001
 2.3248029298e-001	 2.1373939537e+000	 1.5541237552e-001
 2.1281041347e-001	 2.1394419197e+000	 1.8804685503e-001
 1.9318704148e-001	 2.1413030535e+000	 2.2252809162e-001
 3.9576963903e-001	 2.1386891763e+000	-1.6322248663e-002
 3.7558448792e-001	 2.1423261406e+000	 1.2428911096e-003
 3.5542602459e-001	 2.1457626479e+000	 2.1687795248e-002
 3.3529694108e-001	 2.1489999910e+000	 4.4520390855e-002
 3.1519988865e-001	 2.1520395048e+000	 6.9328641256e-002
 2.9513747713e-001	 2.1548825652e+000	 9.5780792834e-002
 2.7511227432e-001	 2.1575305876e+000	 1.2362542248e-001
 2.5512680535e-001	 2.1599850262e+000	 1.5269129077e-001
 2.3518355220e-001	 2.1622473718e+000	 1.8288700647e-001
 2.1528495317e-001	 2.1643191514e+000	 2.1420050813e-001
 1.9543340243e-001	 2.1662019262e+000	 2.4669836919e-001
 4.0031871534e-001	 2.1632718105e+000	 1.9323207171e-002
 3.7990155100e-001	 2.1669505789e+000	 3.7012840017e-002
 3.5951138120e-001	 2.1704265864e+000	 5.7663564363e-002
 3.3915092891e-001	 2.1737011403e+000	 8.0660962853e-002
 3.1882287587e-001	 2.1767755911e+000	 1.0547458902e-001
 2.9852986193e-001	 2.1796513303e+000	 1.3165830847e-001
 2.7827448437e-001	 2.1823297898e+000	 1.5885043040e-001
 2.5805929737e-001	 2.1848124402e+000	 1.8677363473e-001
 2.3788681142e-001	 2.1871007899e+000	 2.1523470046e-001
 2.1775949286e-001	 2.1891963830e+000	 2.4412404148e-001
 1.9767976337e-001	 2.1911007990e+000	 2.7341505611e-001
 4.0486779165e-001	 2.1878544447e+000	 6.3329304674e-002
 3.8421861408e-001	 2.1915750173e+000	 8.1131353852e-002
 3.6359673781e-001	 2.1950905249e+000	 1.0186164223e-001
 3.4300491674e-001	 2.1984022896e+000	 1.2478209378e-001
 3.2244586310e-001	 2.2015116773e+000	 1.4924268222e-001
 3.0192224673e-001	 2.2044200954e+000	 1.7468186634e-001
 2.8143669442e-001	 2.2071289919e+000	 2.0062680519e-001
 2.6099178938e-001	 2.2096398543e+000	 2.2669335837e-001
 2.4059007064e-001	 2.2119542079e+000	 2.5258587757e-001
 2.2023403255e-001	 2.2140736146e+000	 2.7809679522e-001
 1.9992612432e-001	 2.2159996717e+000	 3.0310601727e-001
 4.0941686796e-001	 2.2124370789e+000	 1.1462090676e-001
 3.8853567716e-001	 2.2161994557e+000	 1.3266923303e-001
 3.6768209441e-001	 2.2197544633e+000	 1.5349898107e-001
 3.4685890457e-001	 2.2231034390e+000	 1.7624701308e-001
 3.2606885033e-001	 2.2262477636e+000	 2.0014246593e-001
 3.0531463152e-001	 2.2291888605e+000	 2.2450728044e-001
 2.8459890447e-001	 2.2319281941e+000	 2.4875649984e-001
 2.6392428140e-001	 2.2344672684e+000	 2.7239834269e-001
 2.4329332986e-001	 2.2368076260e+000	 2.9503405654e-001
 2.2270857224e-001	 2.2389508462e+000	 3.1635755857e-001
 2.0217248527e-001	 2.2408985444e+000	 3.3615487012e-001
 1.7970887579e-001	 1.9919098172e+000	 1.0074851093e-001
 1.6149999964e-001	 1.9934687733e+000	 3.2971471412e-002
 1.4333866613e-001	 1.9948568938e+000	-3.3401728108e-002
 1.2522695292e-001	 1.9960757025e+000	-9.7313099444e-002
 1.0716689577e-001	 1.9971267502e+000	-1.5765879547e-001
 8.9160488287e-002	 1.9980116134e+000	-2.1329080720e-001
 7.1209681760e-002	 1.9987318933e+000	-2.6301873718e-001
 5.3316384950e-002	 1.9992892145e+000	-3.0561164331e-001
 3.5482463963e-002	 1.9996852239e+000	-3.3979994702e-001
 1.7709742145e-002	 1.9999215897e+000	-3.6427739985e-001
 0.0000000000e+000	 2.0000000000e+000	-3.7770310247e-001
 1.8195523674e-001	 2.0168086899e+000	 1.2145610350e-001
 1.6351874963e-001	 2.0183871330e+000	 7.0073615588e-002
 1.4513039946e-001	 2.0197926050e+000	 2.0796687199e-002
 1.2679228983e-001	 2.0210266488e+000	-2.5405185164e-002
 1.0850648196e-001	 2.0220908346e+000	-6.7513643942e-002
 9.0274994390e-002	 2.0229867586e+000	-1.0446313310e-001
 7.2099802782e-002	 2.0237160419e+000	-1.3514264394e-001
 5.3982839761e-002	 2.0242803297e+000	-1.5839753806e-001
 3.5925994762e-002	 2.0246812892e+000	-1.7303144112e-001
 1.7931113921e-002	 2.0249206096e+000	-1.7780820137e-001
 0.0000000000e+000	 2.0250000000e+000	-1.7145390665e-001
 1.8420159768e-001	 2.0417075627e+000	 1.4105402686e-001
 1.6553749963e-001	 2.0433054926e+000	 1.0385411758e-001
 1.4692213278e-001	 2.0447283162e+000	 6.9322269991e-002
 1.2835762674e-001	 2.0459775951e+000	 3.8340296319e-002
 1.0984606816e-001	 2.0470549190e+000	 1.1841997258e-002
 9.1389500493e-002	 2.0479619037e+000	-9.1884688298e-003
 7.2989923804e-002	 2.0487001906e+000	-2.3718307026e-002
 5.4649294573e-002	 2.0492714448e+000	-3.0667890897e-002
 3.6369525562e-002	 2.0496773545e+000	-2.8912645046e-002
 1.8152485698e-002	 2.0499196295e+000	-1.7284998765e-002
 0.0000000000e+000	 2.0500000000e+000	 5.4235956610e-003
 1.8644795863e-001	 2.0666064354e+000	 1.6029737839e-001
 1.6755624962e-001	 2.0682238523e+000	 1.3523974156e-001
 1.4871386611e-001	 2.0696640273e+000	 1.1327398845e-001
 1.2992296366e-001	 2.0709285414e+000	 9.5194963525e-002
 1.1118565436e-001	 2.0720190034e+000	 8.1852754386e-002
 9.2504006597e-002	 2.0729370489e+000	 7.4151090040e-002
 7.3880044825e-002	 2.0736843393e+000	 7.3045641672e-002
 5.5315749384e-002	 2.0742625600e+000	 7.9542232524e-002
 3.6813056361e-002	 2.0746734198e+000	 9.4694963496e-002
 1.8373857475e-002	 2.0749186493e+000	 1.1960426116e-001
 0.0000000000e+000	 2.0750000000e+000	 1.5541485481e-001
 1.8869431958e-001	 2.0915053081e+000	 1.7987826494e-001
 1.6957499962e-001	 2.0931422120e+000	 1.6508912797e-001
 1.5050559944e-001	 2.0945997385e+000	 1.5367745615e-001
 1.3148830057e-001	 2.0958794877e+000	 1.4635175486e-001
 1.1252524055e-001	 2.0969830877e+000	 1.4387915646e-001
 9.3618512700e-002	 2.0979121941e+000	 1.4708384500e-001
 7.4770165847e-002	 2.0986684879e+000	 1.5684537602e-001
 5.5982204196e-002	 2.0992536752e+000	 1.7409689848e-001
 3.7256587160e-002	 2.0996694851e+000	 1.9982328537e-001
 1.8595229251e-002	 2.0999176692e+000	 2.3505918025e-001
 0.0000000000e+000	 2.1000000000e+000	 2.8088696636e-001
 1.9094068053e-001	 2.1164041808e+000	 2.0042950823e-001
 1.7159374962e-001	 2.1180605716e+000	 1.9419680082e-001
 1.5229733276e-001	 2.1195354497e+000	 1.9148924705e-001
 1.3305363748e-001	 2.1208304339e+000	 1.9292955686e-001
 1.1386482675e-001	 2.1219471721e+000	 1.9920258217e-001
 9.4733018803e-002	 2.1228873393e+000	 2.1105376534e-001
 7.5660286868e-002	 2.1236526366e+000	 2.2928747532e-001
 5.6648659007e-002	 2.1242447904e+000	 2.5476523858e-001
 3.7700117959e-002	 2.1246655504e+000	 2.8840387183e-001
 1.8816601028e-002	 2.1249166891e+000	 3.3117352380e-001
 0.0000000000e+000	 2.1250000000e+000	 3.8409563317e-001
 1.9318704148e-001	 2.1413030535e+000	 2.2252809162e-001
 1.7361249961e-001	 2.1429789313e+000	 2.2329689537e-001
 1.5408906609e-001	 2.1444711609e+000	 2.2760090941e-001
 1.3461897439e-001	 2.1457813802e+000	 2.3597750954e-001
 1.1520441295e-001	 2.1469112565e+000	 2.4902986161e-001
 9.5847524906e-002	 2.1478624844e+000	 2.6742539120e-001
 7.6550407890e-002	 2.1486367853e+000	 2.9189413326e-001
 5.7315113819e-002	 2.1492359056e+000	 3.2322696925e-001
 3.8143648758e-002	 2.1496616157e+000	 3.6227375883e-001
 1.9037972804e-002	 2.1499157090e+000	 4.0994137383e-001
 0.0000000000e+000	 2.1500000000e+000	 4.6719164166e-001
 1.9543340243e-001	 2.1662019262e+000	 2.4669836919e-001
 1.7563124961e-001	 2.1678972910e+000	 2.5306662874e-001
 1.5588079942e-001	 2.1694068720e+000	 2.6284270289e-001
 1.3618431130e-001	 2.1707323265e+000	 2.7647901477e-001
 1.1654399914e-001	 2.1718753409e+000	 2.9449756071e-001
 9.6962031009e-002	 2.1728376296e+000	 3.1748839845e-001
 7.7440528911e-002	 2.1736209339e+000	 3.4610800771e-001
 5.7981568630e-002	 2.1742270207e+000	 3.8107753050e-001
 3.8587179558e-002	 2.1746576810e+000	 4.2318089891e-001
 1.9259344581e-002	 2.1749147288e+000	 4.7326285800e-001
 0.0000000000e+000	 2.1750000000e+000	 5.3222689152e-001
 1.9767976337e-001	 2.1911007990e+000	 2.7341505611e-001
 1.7764999960e-001	 2.1928156506e+000	 2.8412953392e-001
 1.5767253274e-001	 2.1943425832e+000	 2.9798708088e-001
 1.3774964821e-001	 2.1956832728e+000	 3.1535547148e-001
 1.1788358534e-001	 2.1968394252e+000	 3.3667597350e-001
 9.8076537113e-002	 2.1978127748e+000	 3.6246185238e-001
 7.8330649933e-002	 2.1986050826e+000	 3.9329673978e-001
 5.8648023441e-002	 2.1992181359e+000	 4.2983287441e-001
 3.9030710357e-002	 2.1996537463e+000	 4.7278922277e-001
 1.9480716358e-002	 2.1999137487e+000	 5.2294948794e-001
 0.0000000000e+000	 2.2000000000e+000	 5.8116001429e-001
 1.9992612432e-001	 2.2159996717e+000	 3.0310601727e-001
 1.7966874960e-001	 2.2177340103e+000	 3.1705847573e-001
 1.5946426607e-001	 2.2192782944e+000	 3.3375193805e-001
 1.3931498512e-001	 2.2206342191e+000	 3.5346975888e-001
 1.1922317154e-001	 2.2218035096e+000	 3.7657284527e-001
 9.9191043216e-002	 2.2227879199e+000	 4.0349817451e-001
 7.9220770954e-002	 2.2235892313e+000	 4.3475716822e-001
 5.9314478253e-002	 2.2242092511e+000	 4.7093393068e-001
 3.9474241156e-002	 2.2246498116e+000	 5.1268335960e-001
 1.9702088134e-002	 2.2249127686e+000	 5.6072913769e-001
 0.0000000000e+000	 2.2250000000e+000	 6.1586161311e-001
 2.0217248527e-001	 2.2408985444e+000	 3.3615487012e-001
 1.8168749959e-001	 2.2426523700e+000	 3.5237846568e-001
 1.6125599940e-001	 2.2442140055e+000	 3.7080364135e-001
 1.4088032204e-001	 2.2455851654e+000	 3.9162948763e-001
 1.2056275773e-001	 2.2467675940e+000	 4.1513684747e-001
 1.0030554932e-001	 2.2477630651e+000	 4.4168684511e-001
 8.0110891976e-002	 2.2485733799e+000	 4.7171926294e-001
 5.9980933064e-002	 2.2492003663e+000	 5.0575077458e-001
 3.9917771955e-002	 2.2496458769e+000	 5.4437304270e-001
 1.9923459911e-002	 2.2499117884e+000	 5.8825069020e-001
 0.0000000000e+000	 2.2500000000e+000	 6.3811915321e-001
 2.2500000000e+000	 0.0000000000e+000	 2.0453604490e+000
 2.2499117884e+000	 1.9923459911e-002	 2.0876646805e+000
 2.2496458769e+000	 3.9917771955e-002	 2.1150754006e+000
 2.2492003663e+000	 5.9980933064e-002	 2.1289163004e+000
 2.2485733799e+000	 8.0110891976e-002	 2.1304349429e+000
 2.2477630651e+000	 1.0030554932e-001	 2.1207986090e+000
 2.2467675940e+000	 1.2056275773e-001	 2.1010902049e+000
 2.2455851654e+000	 1.4088032204e-001	 2.0723042420e+000
 2.2442140055e+000	 1.6125599940e-001	 2.0353429020e+000
 2.2426523700e+000	 1.8168749959e-001	 1.9910121982e+000
 2.2408985444e+000	 2.0217248527e-001	 1.9400182454e+000
 2.2750000000e+000	 0.0000000000e+000	 2.0403072607e+000
 2.2749108083e+000	 2.0144831687e-002	 2.0889837984e+000
 2.2746419422e+000	 4.0361302754e-002	 2.1226093969e+000
 2.2741914815e+000	 6.0647387876e-002	 2.1425215726e+000
 2.2735575286e+000	 8.1001012998e-002	 2.1499791487e+000
 2.2727382103e+000	 1.0142005542e-001	 2.1461580001e+000
 2.2717316784e+000	 1.2190234393e-001	 2.1321468638e+000
 2.2705361116e+000	 1.4244565895e-001	 2.1089432248e+000
 2.2691497167e+000	 1.6304773272e-001	 2.0774492910e+000
 2.2675707296e+000	 1.8370624959e-001	 2.0384680686e+000
 2.2657974171e+000	 2.0441884622e-001	 1.9926995503e+000
 2.3000000000e+000	 0.0000000000e+000	 2.0334826644e+000
 2.2999098282e+000	 2.0366203464e-002	 2.0866716065e+000
 2.2996380075e+000	 4.0804833554e-002	 2.1248305038e+000
 2.2991825966e+000	 6.1313842688e-002	 2.1493130767e+000
 2.2985416773e+000	 8.1891134020e-002	 2.1613916442e+000
 2.2977133554e+000	 1.0253456153e-001	 2.1622527633e+000
 2.2966957628e+000	 1.2324193013e-001	 2.1529929359e+000
 2.2954870579e+000	 1.4401099586e-001	 2.1346143956e+000
 2.2940854279e+000	 1.6483946605e-001	 2.1080209869e+000
 2.2924890893e+000	 1.8572499959e-001	 2.0740141486e+000
 2.2906962898e+000	 2.0666520717e-001	 2.0332890158e+000
 2.3250000000e+000	 0.0000000000e+000	 2.0247849979e+000
 2.3249088481e+000	 2.0587575241e-002	 2.0806471284e+000
 2.3246340728e+000	 4.1248364354e-002	 2.1216782703e+000
 2.3241737118e+000	 6.1980297500e-002	 2.1492507142e+000
 2.3235258259e+000	 8.2781255043e-002	 2.1646524986e+000
 2.3226885006e+000	 1.0364906763e-001	 2.1690829366e+000
 2.3216598471e+000	 1.2458151633e-001	 2.1636482145e+000
 2.3204380042e+000	 1.4557633277e-001	 2.1493570737e+000
 2.3190211390e+000	 1.6663119938e-001	 2.1271165878e+000
 2.3174074490e+000	 1.8774374958e-001	 2.0977280504e+000
 2.3155951625e+000	 2.0891156812e-001	 2.0618829847e+000
 2.3500000000e+000	 0.0000000000e+000	 2.0141169248e+000
 2.3499078679e+000	 2.0808947019e-002	 2.0708330209e+000
 2.3496301381e+000	 4.1691895154e-002	 2.1130952732e+000
 2.3491648270e+000	 6.2646752313e-002	 2.1422968992e+000
 2.3485099746e+000	 8.3671376066e-002	 2.1597438683e+000
 2.3476636458e+000	 1.0476357374e-001	 2.1666503114e+000
 2.3466239315e+000	 1.2592110253e-001	 2.1641340050e+000
 2.3453889505e+000	 1.4714166968e-001	 2.1532119420e+000
 2.3439568502e+000	 1.6842293271e-001	 2.1347960029e+000
 2.3423258086e+000	 1.8976249958e-001	 2.1096887406e+000
 2.3404940352e+000	 2.1115792906e-001	 2.0785792929e+000
 2.3750000000e+000	 0.0000000000e+000	 2.0013852075e+000
 2.3749068878e+000	 2.1030318796e-002	 2.0571553825e+000
 2.3746262034e+000	 4.2135425955e-002	 2.0990269584e+000
 2.3741559422e+000	 6.3313207127e-002	 2.1284164259e+000
 2.3734941233e+000	 8.4561497090e-002	 2.1466498869e+000
 2.3726387909e+000	 1.0587807984e-001	 2.1549583400e+000
 2.3715880159e+000	 1.2726068872e-001	 2.1544730448e+000
 2.3703398968e+000	 1.4870700660e-001	 2.1462209763e+000
 2.3688925614e+000	 1.7021466604e-001	 2.1311203838e+000
 2.3672441683e+000	 1.9178124958e-001	 2.1099764680e+000
 2.3653929079e+000	 2.1340429001e-001	 2.0834771912e+000
 2.4000000000e+000	 0.0000000000e+000	 1.9865004929e+000
 2.3999059077e+000	 2.1251690574e-002	 2.0395435745e+000
 2.3996222687e+000	 4.2578956756e-002	 2.0794214909e+000
 2.3991470574e+000	 6.3979661940e-002	 2.1075763448e+000
 2.3984782719e+000	 8.5451618114e-002	 2.1253565620e+000
 2.3976139361e+000	 1.0699258595e-001	 2.1340120487e+000
 2.3965521003e+000	 1.2860027492e-001	 2.1346894290e+000
 2.3952908430e+000	 1.5027234351e-001	 2.1284273773e+000
 2.3938282726e+000	 1.7200639936e-001	 2.1161520594e+000
 2.3921625279e+000	 1.9379999957e-001	 2.0986726975e+000
 2.3902917807e+000	 2.1565065096e-001	 2.0766772709e+000
 2.4250000000e+000	 0.0000000000e+000	 1.9693771127e+000
 2.4249049275e+000	 2.1473062351e-002	 2.0179300525e+000
 2.4246183340e+000	 4.3022487557e-002	 2.0542296151e+000
 2.4241381725e+000	 6.4646116755e-002	 2.0797458460e+000
 2.4234624206e+000	 8.6341739139e-002	 2.0958516791e+000
 2.4225890813e+000	 1.0810709205e-001	 2.1038179575e+000
 2.4215161846e+000	 1.2993986112e-001	 2.1048085405e+000
 2.4202417893e+000	 1.5183768043e-001	 2.0998755073e+000
 2.4187639837e+000	 1.7379813269e-001	 2.0899544755e+000
 2.4170808876e+000	 1.9581874957e-001	 2.0758600468e+000
 2.4151906534e+000	 2.1789701191e-001	 2.0582813953e+000
 2.4500000000e+000	 0.0000000000e+000	 1.9499328953e+000
 2.4499039474e+000	 2.1694434129e-002	 1.9922502089e+000
 2.4496143993e+000	 4.3466018359e-002	 2.0234045228e+000
 2.4491292877e+000	 6.5312571569e-002	 2.0448961508e+000
 2.4484465693e+000	 8.7231860164e-002	 2.0581247103e+000
 2.4475642264e+000	 1.0922159816e-001	 2.0643840031e+000
 2.4464802690e+000	 1.3127944732e-001	 2.0648569839e+000
 2.4451927356e+000	 1.5340301734e-001	 2.0606108315e+000
 2.4436996949e+000	 1.7558986602e-001	 2.0525921376e+000
 2.4419992473e+000	 1.9783749957e-001	 2.0416222283e+000
 2.4400895261e+000	 2.2014337286e-001	 2.0283926348e+000
 2.4750000000e+000	 0.0000000000e+000	 1.9280889892e+000
 2.4749029673e+000	 2.1915805907e-002	 1.9624422240e+000
 2.4746104646e+000	 4.3909549161e-002	 1.9869017300e+000
 2.4741204029e+000	 6.5979026384e-002	 2.0030004083e+000
 2.4734307179e+000	 8.8121981189e-002	 2.0121667295e+000
 2.4725393716e+000	 1.1033610427e-001	 2.0157194676e+000
 2.4714443534e+000	 1.3261903353e-001	 2.0148625244e+000
 2.4701436819e+000	 1.5496835426e-001	 2.0106798622e+000
 2.4686354061e+000	 1.7738159935e-001	 2.0041305574e+000
 2.4669176069e+000	 1.9985624957e-001	 1.9960439931e+000
 2.4649883988e+000	 2.2238973381e-001	 1.9871152053e+000
 2.5000000000e+000	 0.0000000000e+000	 1.9037696969e+000
 2.4999019872e+000	 2.2137177686e-002	 1.9284469272e+000
 2.4996065299e+000	 4.4353079963e-002	 1.9446789603e+000
 2.4991115181e+000	 6.6645481200e-002	 1.9540335995e+000
 2.4984148666e+000	 8.9012102215e-002	 1.9579703325e+000
 2.4975145168e+000	 1.1145061038e-001	 1.9578349115e+000
 2.4964084378e+000	 1.3395861973e-001	 1.9548540292e+000
 2.4950946282e+000	 1.5653369117e-001	 1.9501301058e+000
 2.4935711173e+000	 1.7917333268e-001	 1.9446362026e+000
 2.4918359666e+000	 2.0187499956e-001	 1.9392110796e+000
 2.4898872715e+000	 2.2463609475e-001	 1.9345544118e+000
 2.2408985444e+000	 2.0217248527e-001	 1.9400182454e+000
 2.2389508462e+000	 2.2270857224e-001	 1.9089852837e+000
 2.2368076260e+000	 2.4329332986e-001	 1.8808911109e+000
 2.2344672684e+000	 2.6392428140e-001	 1.8561451235e+000
 2.2319281941e+000	 2.8459890447e-001	 1.8350363424e+000
 2.2291888605e+000	 3.0531463152e-001	 1.8177302414e+000
 2.2262477636e+000	 3.2606885033e-001	 1.8042657633e+000
 2.2231034390e+000	 3.4685890457e-001	 1.7945525358e+000
 2.2197544633e+000	 3.6768209441e-001	 1.7883682989e+000
 2.2161994557e+000	 3.8853567716e-001	 1.7853565573e+000
 2.2124370789e+000	 4.0941686796e-001	 1.7850244686e+000
 2.2657974171e+000	 2.0441884622e-001	 1.9926995503e+000
 2.2638280779e+000	 2.2518311194e-001	 1.9645200818e+000
 2.2616610440e+000	 2.4599658909e-001	 1.9383000544e+000
 2.2592946825e+000	 2.6685677342e-001	 1.9144374079e+000
 2.2567273962e+000	 2.8776111452e-001	 1.8932070714e+000
 2.2539576256e+000	 3.0870701632e-001	 1.8747577498e+000
 2.2509838498e+000	 3.2969183756e-001	 1.8591089030e+000
 2.2478045883e+000	 3.5071289240e-001	 1.8461479311e+000
 2.2444184018e+000	 3.7176745101e-001	 1.8356275785e+000
 2.2408238941e+000	 3.9285274024e-001	 1.8271635691e+000
 2.2370197131e+000	 4.1396594427e-001	 1.8202324847e+000
 2.2906962898e+000	 2.0666520717e-001	 2.0332890158e+000
 2.2887053095e+000	 2.2765765163e-001	 2.0084982968e+000
 2.2865144621e+000	 2.4869984831e-001	 1.9849024618e+000
 2.2841220966e+000	 2.6978926543e-001	 1.9628886804e+000
 2.2815265984e+000	 2.9092332457e-001	 1.9427182703e+000
 2.2787263907e+000	 3.1209940111e-001	 1.9245234371e+000
 2.2757199361e+000	 3.3331482478e-001	 1.9083042121e+000
 2.2725057376e+000	 3.5456688023e-001	 1.8939256034e+000
 2.2690823403e+000	 3.7585280762e-001	 1.8811149718e+000
 2.2654483325e+000	 3.9716980332e-001	 1.8694596462e+000
 2.2616023474e+000	 4.1851502058e-001	 1.8584047884e+000
 2.3155951625e+000	 2.0891156812e-001	 2.0618829847e+000
 2.3135825411e+000	 2.3013219132e-001	 2.0410178208e+000
 2.3113678802e+000	 2.5140310753e-001	 2.0207968112e+000
 2.3089495107e+000	 2.7272175745e-001	 2.0015970194e+000
 2.3063258005e+000	 2.9408553462e-001	 1.9836666093e+000
 2.3034951558e+000	 3.1549178591e-001	 1.9671215330e+000
 2.3004560224e+000	 3.3693781201e-001	 1.9519424231e+000
 2.2972068869e+000	 3.5842086805e-001	 1.9379717057e+000
 2.2937462788e+000	 3.7993816422e-001	 1.9249109442e+000
 2.2900727709e+000	 4.0148686640e-001	 1.9123184311e+000
 2.2861849816e+000	 4.2306409689e-001	 1.8996070364e+000
 2.3404940352e+000	 2.1115792906e-001	 2.0785792929e+000
 2.3384597727e+000	 2.3260673101e-001	 2.0621789942e+000
 2.3362212982e+000	 2.5410636675e-001	 2.0460851092e+000
 2.3337769248e+000	 2.7565424947e-001	 2.0306652387e+000
 2.3311250027e+000	 2.9724774467e-001	 2.0161548280e+000
 2.3282639210e+000	 3.1888417070e-001	 2.0026537984e+000
 2.3251921086e+000	 3.4056079923e-001	 1.9901233900e+000
 2.3219080362e+000	 3.6227485588e-001	 1.9783832318e+000
 2.3184102172e+000	 3.8402352083e-001	 1.9671086505e+000
 2.3146972093e+000	 4.0580392948e-001	 1.9558282341e+000
 2.3107676158e+000	 4.2761317319e-001	 1.9439216615e+000
 2.3653929079e+000	 2.1340429001e-001	 2.0834771912e+000
 2.3633370043e+000	 2.3508127071e-001	 2.0720844767e+000
 2.3610747163e+000	 2.5680962597e-001	 2.0608727057e+000
 2.3586043389e+000	 2.7858674148e-001	 2.0502006387e+000
 2.3559242049e+000	 3.0040995472e-001	 2.0402914163e+000
 2.3530326861e+000	 3.2227655550e-001	 2.0312291294e+000
 2.3499281949e+000	 3.4418378646e-001	 2.0229556082e+000
 2.3466091856e+000	 3.6612884371e-001	 2.0152674456e+000
 2.3430741557e+000	 3.8810887743e-001	 2.0078132666e+000
 2.3393216477e+000	 4.1012099256e-001	 2.0000912611e+000
 2.3353502500e+000	 4.3216224950e-001	 1.9914469901e+000
 2.3902917807e+000	 2.1565065096e-001	 2.0766772709e+000
 2.3882142360e+000	 2.3755581040e-001	 2.0708391265e+000
 2.3859281344e+000	 2.5951288519e-001	 2.0652681194e+000
 2.3834317530e+000	 2.8151923350e-001	 2.0603147725e+000
 2.3807234070e+000	 3.0357216477e-001	 2.0561903148e+000
 2.3778014512e+000	 3.2566894029e-001	 2.0529631854e+000
 2.3746642811e+000	 3.4780677368e-001	 2.0505557647e+000
 2.3713103349e+000	 3.6998283154e-001	 2.0487413462e+000
 2.3677380942e+000	 3.9219423403e-001	 2.0471413640e+000
 2.3639460861e+000	 4.1443805563e-001	 2.0452228899e+000
 2.3599328842e+000	 4.3671132581e-001	 2.0422964141e+000
 2.4151906534e+000	 2.1789701191e-001	 2.0582813953e+000
 2.4130914676e+000	 2.4003035009e-001	 2.0585498871e+000
 2.4107815524e+000	 2.6221614441e-001	 2.0593828743e+000
 2.4082591671e+000	 2.8445172551e-001	 2.0611232265e+000
 2.4055226092e+000	 3.0673437482e-001	 2.0639706337e+000
 2.4025702163e+000	 3.2906132508e-001	 2.0679780405e+000
 2.3994003674e+000	 3.5142976091e-001	 2.0730483153e+000
 2.3960114842e+000	 3.7383681936e-001	 2.0789311661e+000
 2.3924020327e+000	 3.9627959064e-001	 2.0852203219e+000
 2.3885705245e+000	 4.1875511871e-001	 2.0913509914e+000
 2.3845155184e+000	 4.4126040212e-001	 2.0965976141e+000
 2.4400895261e+000	 2.2014337286e-001	 2.0283926348e+000
 2.4379686992e+000	 2.4250488978e-001	 2.0353256806e+000
 2.4356349705e+000	 2.6491940363e-001	 2.0433313470e+000
 2.4330865812e+000	 2.8738421752e-001	 2.0527454151e+000
 2.4303218113e+000	 3.0989658487e-001	 2.0637563891e+000
 2.4273389814e+000	 3.3245370987e-001	 2.0764018565e+000
 2.4241364537e+000	 3.5505274813e-001	 2.0905650889e+000
 2.4207126335e+000	 3.7769080719e-001	 2.1059719000e+000
 2.4170659712e+000	 4.0036494724e-001	 2.1221877759e+000
 2.4131949629e+000	 4.2307218179e-001	 2.1386152919e+000
 2.4090981526e+000	 4.4580947843e-001	 2.1544918311e+000
 2.4649883988e+000	 2.2238973381e-001	 1.9871152053e+000
 2.4628459308e+000	 2.4497942947e-001	 2.0012773082e+000
 2.4604883886e+000	 2.6762266285e-001	 2.0172306220e+000
 2.4579139953e+000	 2.9031670954e-001	 2.0353043868e+000
 2.4551210135e+000	 3.1305879491e-001	 2.0556762557e+000
 2.4521077465e+000	 3.3584609467e-001	 2.0783685750e+000
 2.4488725399e+000	 3.5867573535e-001	 2.1032449146e+000
 2.4454137828e+000	 3.8154479501e-001	 2.1300068625e+000
 2.4417299097e+000	 4.0445030384e-001	 2.1581911002e+000
 2.4378194013e+000	 4.2738924487e-001	 2.1871667746e+000
 2.4336807868e+000	 4.5035855474e-001	 2.2161331808e+000
 2.4898872715e+000	 2.2463609475e-001	 1.9345544118e+000
 2.4877231625e+000	 2.4745396916e-001	 1.9565173559e+000
 2.4853418066e+000	 2.7032592207e-001	 1.9812003566e+000
 2.4827414094e+000	 2.9324920155e-001	 2.0089266431e+000
 2.4799202156e+000	 3.1622100496e-001	 2.0398633329e+000
 2.4768765117e+000	 3.3923847946e-001	 2.0740176286e+000
 2.4736086262e+000	 3.6229872257e-001	 2.1112332721e+000
 2.4701149322e+000	 3.8539878284e-001	 2.1511872718e+000
 2.4663938481e+000	 4.0853566044e-001	 2.1933869203e+000
 2.4624438397e+000	 4.3170630795e-001	 2.2371671166e+000
 2.4582634210e+000	 4.5490763105e-001	 2.2816880106e+000
 2.2124370789e+000	 4.0941686796e-001	 1.7850244686e+000
 2.2084660407e+000	 4.3032284048e-001	 1.7778572841e+000
 2.2042850952e+000	 4.5125072774e-001	 1.7622152749e+000
 2.1998930440e+000	 4.7219762289e-001	 1.7370893882e+000
 2.1952887378e+000	 4.9316058010e-001	 1.7013351560e+000
 2.1904710774e+000	 5.1413661543e-001	 1.6536721529e+000
 2.1854390149e+000	 5.3512270782e-001	 1.5926837508e+000
 2.1801915551e+000	 5.5611580005e-001	 1.5168171797e+000
 2.1747277568e+000	 5.7711279978e-001	 1.4243839021e+000
 2.1690467338e+000	 5.9811058066e-001	 1.3135603093e+000
 2.1631476559e+000	 6.1910598340e-001	 1.1823887454e+000
 2.2370197131e+000	 4.1396594427e-001	 1.8202324847e+000
 2.2330045523e+000	 4.3510420537e-001	 1.8039991909e+000
 2.2287771518e+000	 4.5626462471e-001	 1.7784134162e+000
 2.2243363000e+000	 4.7744426314e-001	 1.7424036560e+000
 2.2196808349e+000	 4.9864014209e-001	 1.6947595907e+000
 2.2148096449e+000	 5.1984924449e-001	 1.6341315850e+000
 2.2097216706e+000	 5.4106851568e-001	 1.5590304946e+000
 2.2044159057e+000	 5.6229486449e-001	 1.4678277888e+000
 2.1988913986e+000	 5.8352516422e-001	 1.3587559968e+000
 2.1931472531e+000	 6.0475625377e-001	 1.2299094852e+000
 2.1871826299e+000	 6.2598493877e-001	 1.0829665567e+000
 2.2616023474e+000	 4.1851502058e-001	 1.8584047884e+000
 2.2575430638e+000	 4.3988557026e-001	 1.8347512585e+000
 2.2532692084e+000	 4.6127852168e-001	 1.8010688164e+000
 2.2487795561e+000	 4.8269090339e-001	 1.7562223043e+000
 2.2440729320e+000	 5.0411970409e-001	 1.6989341198e+000
 2.2391482124e+000	 5.2556187355e-001	 1.6277837558e+000
 2.2340043263e+000	 5.4701432354e-001	 1.5412076573e+000
 2.2286402563e+000	 5.6847392893e-001	 1.4374994049e+000
 2.2230550403e+000	 5.8993752866e-001	 1.3148102314e+000
 2.2172477723e+000	 6.1140192689e-001	 1.1711498813e+000
 2.2112176038e+000	 6.3286389413e-001	 1.0351568123e+000
 2.2861849816e+000	 4.2306409689e-001	 1.8996070364e+000
 2.2820815754e+000	 4.4466693515e-001	 1.8702035965e+000
 2.2777612650e+000	 4.6629241865e-001	 1.8302951607e+000
 2.2732228121e+000	 4.8793754364e-001	 1.7786816754e+000
 2.2684650291e+000	 5.0959926609e-001	 1.7140167822e+000
 2.2634867799e+000	 5.3127450260e-001	 1.6348073966e+000
 2.2582869820e+000	 5.5296013141e-001	 1.5394136140e+000
 2.2528646070e+000	 5.7465299337e-001	 1.4260489523e+000
 2.2472186821e+000	 5.9634989310e-001	 1.2927809391e+000
 2.2413482916e+000	 6.1804760000e-001	 1.1375320520e+000
 2.2352525778e+000	 6.3974284950e-001	 1.0169644877e+000
 2.3107676158e+000	 4.2761317319e-001	 1.9439216615e+000
 2.3066200870e+000	 4.4944830005e-001	 1.9104638986e+000
 2.3022533216e+000	 4.7130631563e-001	 1.8662246431e+000
 2.2976660682e+000	 4.9318418390e-001	 1.8099376616e+000
 2.2928571261e+000	 5.1507882809e-001	 1.7401863247e+000
 2.2878253475e+000	 5.3698713166e-001	 1.6554032222e+000
 2.2825696377e+000	 5.5890593927e-001	 1.5538701170e+000
 2.2770889576e+000	 5.8083205782e-001	 1.4337182455e+000
 2.2713823238e+000	 6.0276225754e-001	 1.2929289749e+000
 2.2654488109e+000	 6.2469327312e-001	 1.1293348241e+000
 2.2592875518e+000	 6.4662180487e-001	 1.0275819012e+000
 2.3353502500e+000	 4.3216224950e-001	 1.9914469901e+000
 2.3311585985e+000	 4.5422966494e-001	 1.9556565178e+000
 2.3267453782e+000	 4.7632021260e-001	 1.9090069917e+000
 2.3221093242e+000	 4.9843082415e-001	 1.8501646752e+000
 2.3172492232e+000	 5.2055839009e-001	 1.7776411114e+000
 2.3121639150e+000	 5.4269976072e-001	 1.6897927738e+000
 2.3068522935e+000	 5.6485174713e-001	 1.5848210658e+000
 2.3013133082e+000	 5.8701112226e-001	 1.4607726791e+000
 2.2955459656e+000	 6.0917462198e-001	 1.3155403196e+000
 2.2895493301e+000	 6.3133894624e-001	 1.1756426480e+000
 2.2833225257e+000	 6.5350076025e-001	 1.0662299271e+000
 2.3599328842e+000	 4.3671132581e-001	 2.0422964141e+000
 2.3556971101e+000	 4.5901102983e-001	 2.0059215981e+000
 2.3512374348e+000	 4.8133410958e-001	 1.9588085560e+000
 2.3465525803e+000	 5.0367746441e-001	 1.8995546848e+000
 2.3416413203e+000	 5.2603795209e-001	 1.8265981028e+000
 2.3365024825e+000	 5.4841238978e-001	 1.7382173343e+000
 2.3311349492e+000	 5.7079755500e-001	 1.6325313536e+000
 2.3255376588e+000	 5.9319018671e-001	 1.5074999999e+000
 2.3197096073e+000	 6.1558698643e-001	 1.3609247712e+000
 2.3136498494e+000	 6.3798461936e-001	 1.2494294597e+000
 2.3073574997e+000	 6.6037971562e-001	 1.1321565080e+000
 2.3845155184e+000	 4.4126040212e-001	 2.0965976141e+000
 2.3802356217e+000	 4.6379239473e-001	 2.0614142607e+000
 2.3757294915e+000	 4.8634800655e-001	 2.0158114498e+000
 2.3709958363e+000	 5.0892410466e-001	 1.9583163095e+000
 2.3660334174e+000	 5.3151751410e-001	 1.8872918962e+000
 2.3608410500e+000	 5.5412501884e-001	 1.8009369106e+000
 2.3554176049e+000	 5.7674336287e-001	 1.6972857851e+000
 2.3497620094e+000	 5.9936925116e-001	 1.5742091544e+000
 2.3438732491e+000	 6.2199935087e-001	 1.4294147170e+000
 2.3377503686e+000	 6.4463029248e-001	 1.3486398531e+000
 2.3313924736e+000	 6.6725867099e-001	 1.2246352598e+000
 2.4090981526e+000	 4.4580947843e-001	 2.1544918311e+000
 2.4047741332e+000	 4.6857375962e-001	 2.1223038399e+000
 2.4002215481e+000	 4.9136190353e-001	 2.0802127468e+000
 2.3954390923e+000	 5.1417074492e-001	 2.0266739701e+000
 2.3904255145e+000	 5.3699707610e-001	 1.9599738269e+000
 2.3851796176e+000	 5.5983764791e-001	 1.8782292785e+000
 2.3797002606e+000	 5.8268917073e-001	 1.7793880605e+000
 2.3739863600e+000	 6.0554831560e-001	 1.6612292074e+000
 2.3680368908e+000	 6.2841171532e-001	 1.5391956504e+000
 2.3618508879e+000	 6.5127596560e-001	 1.4726172084e+000
 2.3554274476e+000	 6.7413762637e-001	 1.3429641618e+000
 2.4336807868e+000	 4.5035855474e-001	 2.2161331808e+000
 2.4293126448e+000	 4.7335512452e-001	 2.1887731655e+000
 2.4247136047e+000	 4.9637580050e-001	 2.1522237254e+000
 2.4198823484e+000	 5.1941738517e-001	 2.1048670908e+000
 2.4148176116e+000	 5.4247663810e-001	 2.0449111222e+000
 2.4095181851e+000	 5.6555027697e-001	 1.9703890853e+000
 2.4039829163e+000	 5.8863497860e-001	 1.8791598215e+000
 2.3982107106e+000	 6.1172738005e-001	 1.7689083260e+000
 2.3922005325e+000	 6.3482407976e-001	 1.6878427522e+000
 2.3859514072e+000	 6.5792163873e-001	 1.6207266036e+000
 2.3794624215e+000	 6.8101658174e-001	 1.4864643261e+000
 2.4582634210e+000	 4.5490763105e-001	 2.2816880106e+000
 2.4538511564e+000	 4.7813648941e-001	 2.2610178875e+000
 2.4492056613e+000	 5.0138969748e-001	 2.2320691585e+000
 2.4443256044e+000	 5.2466402543e-001	 2.1931493486e+000
 2.4392097087e+000	 5.4795620010e-001	 2.1423861067e+000
 2.4338567526e+000	 5.7126290603e-001	 2.0777270057e+000
 2.4282655721e+000	 5.9458078647e-001	 1.9969397536e+000
 2.4224350612e+000	 6.1790644450e-001	 1.8976128243e+000
 2.4163641743e+000	 6.4123644421e-001	 1.8590509352e+000
 2.4100519264e+000	 6.6456731185e-001	 1.7923537297e+000
 2.4034973955e+000	 6.8789553712e-001	 1.6544788412e+000
 2.1631476559e+000	 6.1910598340e-001	 1.1823887454e+000
 2.1570297506e+000	 6.4009581698e-001	 1.2687394957e+000
 2.1506923038e+000	 6.6107685984e-001	 1.3470457177e+000
 2.1441346607e+000	 6.8204586113e-001	 1.3962785984e+000
 2.1373562277e+000	 7.0299954197e-001	 1.4166184059e+000
 2.1303564724e+000	 7.2393459685e-001	 1.4082975450e+000
 2.1231349254e+000	 7.4484769492e-001	 1.3716007206e+000
 2.1156911808e+000	 7.6573548144e-001	 1.3068650086e+000
 2.1080248974e+000	 7.8659457923e-001	 1.2144798310e+000
 2.1001357994e+000	 8.0742159012e-001	 1.0948868341e+000
 2.0920236774e+000	 8.2821309651e-001	 9.4857966875e-001
 2.1871826299e+000	 6.2598493877e-001	 1.0829665567e+000
 2.1809967479e+000	 6.4720799272e-001	 1.1734990905e+000
 2.1745888849e+000	 6.6842215828e-001	 1.2388772940e+000
 2.1679583792e+000	 6.8962414847e-001	 1.2792462628e+000
 2.1611046302e+000	 7.1081064799e-001	 1.2948002612e+000
 2.1540270999e+000	 7.3197831459e-001	 1.2857829070e+000
 2.1467253135e+000	 7.5312378041e-001	 1.2524872659e+000
 2.1391988606e+000	 7.7424365345e-001	 1.1952558539e+000
 2.1314473962e+000	 7.9533451899e-001	 1.1144805460e+000
 2.1234706416e+000	 8.1639294112e-001	 1.0106023899e+000
 2.1152683849e+000	 8.3741546425e-001	 8.8411132320e-001
 2.2112176038e+000	 6.3286389413e-001	 1.0351568123e+000
 2.2049637451e+000	 6.5432016846e-001	 1.1075492524e+000
 2.1984854661e+000	 6.7576745672e-001	 1.1587063455e+000
 2.1917820976e+000	 6.9720243581e-001	 1.1887901177e+000
 2.1848530328e+000	 7.1862175401e-001	 1.1980091500e+000
 2.1776977274e+000	 7.4002203233e-001	 1.1866186932e+000
 2.1703157015e+000	 7.6139986591e-001	 1.1549206933e+000
 2.1627065404e+000	 7.8275182547e-001	 1.1032637264e+000
 2.1548698951e+000	 8.0407445876e-001	 1.0320428415e+000
 2.1468054838e+000	 8.2536429212e-001	 9.4169930915e-001
 2.1385130925e+000	 8.4661783199e-001	 8.3272027625e-001
 2.2352525778e+000	 6.3974284950e-001	 1.0169644877e+000
 2.2289307423e+000	 6.6143234421e-001	 1.0700792920e+000
 2.2223820472e+000	 6.8311275516e-001	 1.1057523557e+000
 2.2156058161e+000	 7.0478072316e-001	 1.1241628734e+000
 2.2086014353e+000	 7.2643286003e-001	 1.1255340779e+000
 2.2013683548e+000	 7.4806575007e-001	 1.1101332856e+000
 2.1939060896e+000	 7.6967595141e-001	 1.0782718538e+000
 2.1862142202e+000	 7.9125999748e-001	 1.0303050488e+000
 2.1782923940e+000	 8.1281439853e-001	 9.6663182192e-001
 2.1701403260e+000	 8.3433564312e-001	 8.8769449495e-001
 2.1617578000e+000	 8.5582019972e-001	 7.9397835152e-001
 2.2592875518e+000	 6.4662180487e-001	 1.0275819012e+000
 2.2528977396e+000	 6.6854451995e-001	 1.0603070725e+000
 2.2462786284e+000	 6.9045805361e-001	 1.0792616276e+000
 2.2394295346e+000	 7.1235901050e-001	 1.0846421831e+000
 2.2323498378e+000	 7.3424396605e-001	 1.0766869728e+000
 2.2250389823e+000	 7.5610946781e-001	 1.0556758240e+000
 2.2174964776e+000	 7.7795203691e-001	 1.0219300479e+000
 2.2097219000e+000	 7.9976816950e-001	 9.7581223988e-001
 2.2017148928e+000	 8.2155433830e-001	 9.1772599138e-001
 2.1934751683e+000	 8.4330699412e-001	 8.4811550998e-001
 2.1850025075e+000	 8.6502256746e-001	 7.6746514867e-001
 2.2833225257e+000	 6.5350076025e-001	 1.0662299271e+000
 2.2768647368e+000	 6.7565669569e-001	 1.0774775069e+000
 2.2701752095e+000	 6.9780335205e-001	 1.0785058722e+000
 2.2632532530e+000	 7.1993729785e-001	 1.0695293301e+000
 2.2560982403e+000	 7.4205507208e-001	 1.0508014783e+000
 2.2487096098e+000	 7.6415318556e-001	 1.0226151134e+000
 2.2410868657e+000	 7.8622812241e-001	 9.8530205354e-001
 2.2332295797e+000	 8.0827634151e-001	 9.3923287308e-001
 2.2251373917e+000	 8.3029427807e-001	 8.8481654863e-001
 2.2168100105e+000	 8.5227834513e-001	 8.2250001552e-001
 2.2082472150e+000	 8.7422493520e-001	 7.5276763417e-001
 2.3073574997e+000	 6.6037971562e-001	 1.1321565080e+000
 2.3008317340e+000	 6.8276887144e-001	 1.1208611494e+000
 2.2940717907e+000	 7.0514865049e-001	 1.1027808851e+000
 2.2870769715e+000	 7.2751558520e-001	 1.0781479969e+000
 2.2798466429e+000	 7.4986617810e-001	 1.0472318230e+000
 2.2723802372e+000	 7.7219690330e-001	 1.0103385997e+000
 2.2646772538e+000	 7.9450420791e-001	 9.6781121684e-001
 2.2567372595e+000	 8.1678451353e-001	 9.2002888691e-001
 2.2485598905e+000	 8.3903421784e-001	 8.6740672579e-001
 2.2401448527e+000	 8.6124969613e-001	 8.1039524547e-001
 2.2314919226e+000	 8.8342730294e-001	 7.4947975759e-001
 2.3313924736e+000	 6.6725867099e-001	 1.2246352598e+000
 2.3247987313e+000	 6.8988104719e-001	 1.1897528731e+000
 2.3179683718e+000	 7.1249394894e-001	 1.1514053052e+000
 2.3109006899e+000	 7.3509387254e-001	 1.1098431107e+000
 2.3035950454e+000	 7.5767728412e-001	 1.0653517591e+000
 2.2960508647e+000	 7.8024062105e-001	 1.0182514088e+000
 2.2882676418e+000	 8.0278029341e-001	 9.6889659745e-001
 2.2802449393e+000	 8.2529268555e-001	 9.1767584458e-001
 2.2719823894e+000	 8.4777415761e-001	 8.6501116811e-001
 2.2634796949e+000	 8.7022104713e-001	 8.1135751292e-001
 2.2547366301e+000	 8.9262967068e-001	 7.5720209165e-001
 2.3554274476e+000	 6.7413762637e-001	 1.3429641618e+000
 2.3487657285e+000	 6.9699322293e-001	 1.2834706297e+000
 2.3418649530e+000	 7.1983924738e-001	 1.2237194490e+000
 2.3347244084e+000	 7.4267215989e-001	 1.1639797599e+000
 2.3273434479e+000	 7.6548839015e-001	 1.1045535664e+000
 2.3197214922e+000	 7.8828433879e-001	 1.0457754448e+000
 2.3118580299e+000	 8.1105637891e-001	 9.8801216700e-001
 2.3037526191e+000	 8.3380085757e-001	 9.3166223887e-001
 2.2954048883e+000	 8.5651409738e-001	 8.7715535166e-001
 2.2868145371e+000	 8.7919239814e-001	 8.2495174691e-001
 2.2779813376e+000	 9.0183203843e-001	 7.7554149430e-001
 2.3794624215e+000	 6.8101658174e-001	 1.4864643261e+000
 2.3727327257e+000	 7.0410539868e-001	 1.4013542840e+000
 2.3657615341e+000	 7.2718454583e-001	 1.3190842159e+000
 2.3585481268e+000	 7.5025044724e-001	 1.2399421750e+000
 2.3510918505e+000	 7.7329949618e-001	 1.1642471168e+000
 2.3433921197e+000	 7.9632805654e-001	 1.0923485423e+000
 2.3354484179e+000	 8.1933246442e-001	 1.0246260560e+000
 2.3272602989e+000	 8.4230902959e-001	 9.6148883909e-001
 2.3188273871e+000	 8.6525403716e-001	 9.0337503631e-001
 2.3101493793e+000	 8.8816374914e-001	 8.5075105730e-001
 2.3012260451e+000	 9.1103440617e-001	 8.0411079130e-001
 2.4034973955e+000	 6.8789553712e-001	 1.6544788412e+000
 2.3966997229e+000	 7.1121757443e-001	 1.5427645177e+000
 2.3896581153e+000	 7.3452984428e-001	 1.4368800591e+000
 2.3823718453e+000	 7.5782873460e-001	 1.3371327722e+000
 2.3748402530e+000	 7.8111060220e-001	 1.2438589942e+000
 2.3670627471e+000	 8.0437177429e-001	 1.1574236701e+000
 2.3590388060e+000	 8.2760854992e-001	 1.0782198460e+000
 2.3507679787e+000	 8.5081720161e-001	 1.0066680773e+000
 2.3422498860e+000	 8.7399397693e-001	 9.4321575153e-001
 2.3334842215e+000	 8.9713510015e-001	 8.8833632570e-001
 2.3244707527e+000	 9.2023677391e-001	 8.4252847781e-001
 2.0920236774e+000	 8.2821309651e-001	 9.4857966875e-001
 2.0836883892e+000	 8.4896566288e-001	 8.0248200206e-001
 2.0751298605e+000	 8.6967583741e-001	 6.6977589715e-001
 2.0663480856e+000	 8.9034015358e-001	 5.5082868184e-001
 2.0573431284e+000	 9.1095513182e-001	 4.4601892175e-001
 2.0481151225e+000	 9.3151728120e-001	 3.5573552070e-001
 2.0386642723e+000	 9.5202310113e-001	 2.8037676858e-001
 2.0289908532e+000	 9.7246908310e-001	 2.2034933827e-001
 2.0190952125e+000	 9.9285171243e-001	 1.7606723321e-001
 2.0089777693e+000	 1.0131674701e+000	 1.4795068760e-001
 1.9986390154e+000	 1.0334128344e+000	 1.3642502125e-001
 2.1152683849e+000	 8.3741546425e-001	 8.8411132320e-001
 2.1068404824e+000	 8.5839861469e-001	 7.4296093438e-001
 2.0981868589e+000	 8.7933890227e-001	 6.1378700780e-001
 2.0893075088e+000	 9.0023282195e-001	 4.9697806489e-001
 2.0802024965e+000	 9.2107685550e-001	 3.9293577767e-001
 2.0708719572e+000	 9.4186747321e-001	 3.0207404546e-001
 2.0613160975e+000	 9.6260113559e-001	 2.2481801557e-001
 2.0515351960e+000	 9.8327429514e-001	 1.6160304937e-001
 2.0415296038e+000	 1.0038833981e+000	 1.1287363541e-001
 2.0312997445e+000	 1.0244248864e+000	 7.9082251664e-002
 2.0208461156e+000	 1.0448951992e+000	 6.0688178893e-002
 2.1385130925e+000	 8.4661783199e-001	 8.3272027625e-001
 2.1299925756e+000	 8.6783156650e-001	 6.9647437329e-001
 2.1212438574e+000	 8.8900196713e-001	 5.7079205859e-001
 2.1122669320e+000	 9.1012549032e-001	 4.5608387458e-001
 2.1030618646e+000	 9.3119857919e-001	 3.5277544694e-001
 2.0936287919e+000	 9.5221766522e-001	 2.6130653665e-001
 2.0839679228e+000	 9.7317917004e-001	 1.8213003215e-001
 2.0740795389e+000	 9.9407950717e-001	 1.1571088339e-001
 2.0639639950e+000	 1.0149150838e+000	 6.2524979205e-002
 2.0536217198e+000	 1.0356823027e+000	 2.3057970228e-002
 2.0430532157e+000	 1.0563775640e+000	-2.1959606089e-003
 2.1617578000e+000	 8.5582019972e-001	 7.9397835152e-001
 2.1531446689e+000	 8.7726451831e-001	 6.6257528152e-001
 2.1443008558e+000	 8.9866503199e-001	 5.4032428013e-001
 2.1352263552e+000	 9.2001815870e-001	 4.2765875062e-001
 2.1259212327e+000	 9.4132030288e-001	 3.2502913298e-001
 2.1163856266e+000	 9.6256785724e-001	 2.3290192998e-001
 2.1066197480e+000	 9.8375720450e-001	 1.5175866982e-001
 2.0966238817e+000	 1.0048847192e+000	 8.2094806764e-002
 2.0863983863e+000	 1.0259467695e+000	 2.4418561489e-002
 2.0759436950e+000	 1.0469397191e+000	-2.0750296669e-002
 2.0652603159e+000	 1.0678599288e+000	-5.2881723552e-002
 2.1850025075e+000	 8.6502256746e-001	 7.6746514867e-001
 2.1762967621e+000	 8.8669747012e-001	 6.4082464394e-001
 2.1673578543e+000	 9.0832809685e-001	 5.2192519892e-001
 2.1581857783e+000	 9.2991082707e-001	 4.1122393013e-001
 2.1487806008e+000	 9.5144202657e-001	 3.0919696573e-001
 2.1391424613e+000	 9.7291804925e-001	 2.1633844461e-001
 2.1292715733e+000	 9.9433523896e-001	 1.3315944818e-001
 2.1191682245e+000	 1.0156899312e+000	 6.0186866330e-002
 2.1088327775e+000	 1.0369784552e+000	-2.0378004633e-003
 2.0982656702e+000	 1.0581971354e+000	-5.2959701078e-002
 2.0874674161e+000	 1.0793422937e+000	-9.2011953272e-002
 2.2082472150e+000	 8.7422493520e-001	 7.5276763417e-001
 2.1994488553e+000	 8.9613042193e-001	 6.3079104539e-001
 2.1904148527e+000	 9.1799116171e-001	 5.1514420077e-001
 2.1811452015e+000	 9.3980349544e-001	 4.0630879507e-001
 2.1716399689e+000	 9.6156375025e-001	 3.0478753187e-001
 2.1618992960e+000	 9.8326824127e-001	 2.1110309457e-001
 2.1519233985e+000	 1.0049132734e+000	 1.2579704604e-001
 2.1417125673e+000	 1.0264951433e+000	 4.9428658790e-002
 2.1312671688e+000	 1.0480101409e+000	-1.7426322720e-002
 2.1205876454e+000	 1.0694545517e+000	-7.4176985448e-002
 2.1096745162e+000	 1.0908246585e+000	-1.2021861451e-001
 2.2314919226e+000	 8.8342730294e-001	 7.4947975759e-001
 2.2226009485e+000	 9.0556337374e-001	 6.3205027480e-001
 2.2134718512e+000	 9.2765422657e-001	 5.1953812146e-001
 2.2041046247e+000	 9.4969616382e-001	 4.1245044811e-001
 2.1944993369e+000	 9.7168547394e-001	 3.1131743439e-001
 2.1846561306e+000	 9.9361843328e-001	 2.1669123066e-001
 2.1745752237e+000	 1.0154913079e+000	 1.2914482444e-001
 2.1642569101e+000	 1.0373003553e+000	 4.9270833305e-002
 2.1537015600e+000	 1.0590418266e+000	-2.2319773785e-002
 2.1429096206e+000	 1.0807119681e+000	-8.4999024795e-002
 2.1318816164e+000	 1.1023070233e+000	-1.3812336000e-001
 2.2547366301e+000	 8.9262967068e-001	 7.5720209165e-001
 2.2457530417e+000	 9.1499632555e-001	 6.4418495388e-001
 2.2365288496e+000	 9.3731729143e-001	 5.3467086269e-001
 2.2270640479e+000	 9.5958883219e-001	 4.2919331460e-001
 2.2173587050e+000	 9.8180719763e-001	 3.2831087932e-001
 2.2074129653e+000	 1.0039686253e+000	 2.3260611077e-001
 2.1972270490e+000	 1.0260693423e+000	 1.4268437905e-001
 2.1868012529e+000	 1.0481055673e+000	 5.9172624886e-002
 2.1761359513e+000	 1.0700735123e+000	-1.7281961584e-002
 2.1652315958e+000	 1.0919693844e+000	-8.6013335330e-002
 2.1540887166e+000	 1.1137893881e+000	-1.4633806202e-001
 2.2779813376e+000	 9.0183203843e-001	 7.7554149430e-001
 2.2689051349e+000	 9.2442927736e-001	 6.6678418849e-001
 2.2595858481e+000	 9.4698035630e-001	 5.6011303159e-001
 2.2500234710e+000	 9.6948150057e-001	 4.5608876900e-001
 2.2402180731e+000	 9.9192892132e-001	 3.5529928786e-001
 2.2301698000e+000	 1.0143188173e+000	 2.5835849640e-001
 2.2198788742e+000	 1.0366473768e+000	 1.6590512011e-001
 2.2093455957e+000	 1.0589107794e+000	 7.8601416332e-002
 2.1985703425e+000	 1.0811051980e+000	-2.8681906379e-003
 2.1875535710e+000	 1.1032268007e+000	-7.7798551953e-002
 2.1762958168e+000	 1.1252717530e+000	-1.4546531141e-001
 2.3012260451e+000	 9.1103440617e-001	 8.0411079130e-001
 2.2920572281e+000	 9.3386222918e-001	 6.9944324118e-001
 2.2826428465e+000	 9.5664342116e-001	 5.9544160208e-001
 2.2729828942e+000	 9.7937416894e-001	 4.9269478388e-001
 2.2630774412e+000	 1.0020506450e+000	 3.9182093199e-001
 2.2529266347e+000	 1.0246690093e+000	 2.9346627376e-001
 2.2425306995e+000	 1.0472254113e+000	 1.9830387765e-001
 2.2318899385e+000	 1.0697159914e+000	 1.0703232673e-001
 2.2210047338e+000	 1.0921368837e+000	 2.0374308470e-002
 2.2098755463e+000	 1.1144842171e+000	-6.0924876799e-002
 2.1985029169e+000	 1.1367541178e+000	-1.3609888629e-001
 2.3244707527e+000	 9.2023677391e-001	 8.4252847781e-001
 2.3152093213e+000	 9.4329518099e-001	 7.4176322331e-001
 2.3056998450e+000	 9.6630648602e-001	 6.4023959649e-001
 2.2959423174e+000	 9.8926683732e-001	 5.3857560005e-001
 2.2859368093e+000	 1.0121723687e+000	 4.3742059187e-001
 2.2756834694e+000	 1.0350192013e+000	 3.3745409744e-001
 2.2651825247e+000	 1.0578034457e+000	 2.3938453061e-001
 2.2544342814e+000	 1.0805212035e+000	 1.4394782464e-001
 2.2434391250e+000	 1.1031685694e+000	 5.1905975399e-002
 2.2321975215e+000	 1.1257416334e+000	-3.5954500881e-002
 2.2207100171e+000	 1.1482364826e+000	-1.1882419273e-001
 1.9986390154e+000	 1.0334128344e+000	 1.3642502125e-001
 1.9880795152e+000	 1.0535842829e+000	 6.8134731759e-002
 1.9772999064e+000	 1.0736782945e+000	-4.6152732471e-003
 1.9663009000e+000	 1.0936913507e+000	-8.1165495383e-002
 1.9550832805e+000	 1.1136199380e+000	-1.6083341951e-001
 1.9436479059e+000	 1.1334605497e+000	-2.4291487776e-001
 1.9319957082e+000	 1.1532096875e+000	-3.2668547318e-001
 1.9201276929e+000	 1.1728638638e+000	-4.1140206012e-001
 1.9080449390e+000	 1.1924196034e+000	-4.9630427797e-001
 1.8957485995e+000	 1.2118734454e+000	-5.8061613507e-001
 1.8832399002e+000	 1.2312219451e+000	-6.6354763892e-001
 2.0208461156e+000	 1.0448951992e+000	 6.0688178893e-002
 2.0101692876e+000	 1.0652907750e+000	-4.0577863342e-003
 1.9992699054e+000	 1.0856080533e+000	-7.2005730174e-002
 1.9881486878e+000	 1.1058434768e+000	-1.4244657997e-001
 1.9768064280e+000	 1.1259934929e+000	-2.1464873297e-001
 1.9652439938e+000	 1.1460545558e+000	-2.8785950746e-001
 1.9534623272e+000	 1.1660231285e+000	-3.6130665430e-001
 1.9414624450e+000	 1.1858956845e+000	-4.3419992558e-001
 1.9292454384e+000	 1.2056687101e+000	-5.0573269715e-001
 1.9168124728e+000	 1.2253387059e+000	-5.7508364120e-001
 1.9041647880e+000	 1.2449021889e+000	-6.4141844535e-001
 2.0430532157e+000	 1.0563775640e+000	-2.1959606089e-003
 2.0322590600e+000	 1.0769972670e+000	-6.3369093645e-002
 2.0212399043e+000	 1.0975378121e+000	-1.2652648038e-001
 2.0099964756e+000	 1.1179956029e+000	-1.9090871575e-001
 1.9985295756e+000	 1.1383670478e+000	-2.5573431407e-001
 1.9868400816e+000	 1.1586485619e+000	-3.2020124853e-001
 1.9749289462e+000	 1.1788365695e+000	-3.8348855180e-001
 1.9627971972e+000	 1.1989275052e+000	-4.4475797443e-001
 1.9504459377e+000	 1.2189178168e+000	-5.0315569742e-001
 1.9378763461e+000	 1.2388039664e+000	-5.5781409516e-001
 1.9250896758e+000	 1.2585824328e+000	-6.7492584185e-001
 2.0652603159e+000	 1.0678599288e+000	-5.2881723552e-002
 2.0543488324e+000	 1.0887037590e+000	-1.1048074571e-001
 2.0432099033e+000	 1.1094675710e+000	-1.6888536668e-001
 2.0318442634e+000	 1.1301477291e+000	-2.2728506412e-001
 2.0202527232e+000	 1.1507406026e+000	-2.8484764772e-001
 2.0084361695e+000	 1.1712425680e+000	-3.4072088824e-001
 1.9963955652e+000	 1.1916500104e+000	-3.9403420860e-001
 1.9841319493e+000	 1.2119593259e+000	-4.4390043335e-001
 1.9716464370e+000	 1.2321669235e+000	-4.8941759272e-001
 1.9589402195e+000	 1.2522692269e+000	-5.4634446388e-001
 1.9460145636e+000	 1.2722626766e+000	-7.3214312682e-001
 2.0874674161e+000	 1.0793422937e+000	-9.2011953272e-002
 2.0764386048e+000	 1.1004102511e+000	-1.4606227936e-001
 2.0651799023e+000	 1.1213973298e+000	-1.9977772053e-001
 2.0536920511e+000	 1.1422998552e+000	-2.5229582598e-001
 2.0419758707e+000	 1.1631141575e+000	-3.0273285302e-001
 2.0300322573e+000	 1.1838365741e+000	-3.5018548706e-001
 2.0178621842e+000	 1.2044634514e+000	-3.9373262445e-001
 2.0054667014e+000	 1.2249911467e+000	-4.3243721441e-001
 1.9928469363e+000	 1.2454160302e+000	-4.6534815617e-001
 1.9800040928e+000	 1.2657344874e+000	-6.0291583747e-001
 1.9669394514e+000	 1.2859429204e+000	-7.7245707028e-001
 2.1096745162e+000	 1.0908246585e+000	-1.2021861451e-001
 2.0985283772e+000	 1.1121167431e+000	-1.7077184529e-001
 2.0871499012e+000	 1.1333270886e+000	-2.1988702054e-001
 2.0755398389e+000	 1.1544519813e+000	-2.6664892381e-001
 2.0636990183e+000	 1.1754877124e+000	-3.1012138675e-001
 2.0516283452e+000	 1.1964305802e+000	-3.4934910116e-001
 2.0393288031e+000	 1.2172768924e+000	-3.8335949505e-001
 2.0268014536e+000	 1.2380229674e+000	-4.1116466853e-001
 2.0140474357e+000	 1.2586651369e+000	-4.8874611063e-001
 2.0010679661e+000	 1.2791997479e+000	-6.4281176245e-001
 1.9878643392e+000	 1.2996231643e+000	-7.9630525755e-001
 2.1318816164e+000	 1.1023070233e+000	-1.3812336000e-001
 2.1206181496e+000	 1.1238232351e+000	-1.8525680111e-001
 2.1091199002e+000	 1.1452568475e+000	-2.2988550976e-001
 2.0973876267e+000	 1.1666041074e+000	-2.7104064123e-001
 2.0854221659e+000	 1.1878612672e+000	-3.0773270286e-001
 2.0732244330e+000	 1.2090245863e+000	-3.3895345968e-001
 2.0607954221e+000	 1.2300903333e+000	-3.6367790498e-001
 2.0481362057e+000	 1.2510547881e+000	-3.8724838729e-001
 2.0352479350e+000	 1.2719142436e+000	-5.2714073636e-001
 2.0221318395e+000	 1.2926650084e+000	-6.6644210299e-001
 2.0087892269e+000	 1.3133034081e+000	-8.0411193250e-001
 2.1540887166e+000	 1.1137893881e+000	-1.4633806202e-001
 2.1427079219e+000	 1.1355297272e+000	-1.9015426765e-001
 2.1310898991e+000	 1.1571866063e+000	-2.3043477489e-001
 2.1192354145e+000	 1.1787562335e+000	-2.6615622290e-001
 2.1071453134e+000	 1.2002348221e+000	-2.9627487119e-001
 2.0948205209e+000	 1.2216185925e+000	-3.1972860017e-001
 2.0822620411e+000	 1.2429037743e+000	-3.3543897776e-001
 2.0694709579e+000	 1.2640866088e+000	-4.2317454004e-001
 2.0564484343e+000	 1.2851633503e+000	-5.4947065571e-001
 2.0431957128e+000	 1.3061302689e+000	-6.7420418442e-001
 2.0297141147e+000	 1.3269836519e+000	-7.9628868523e-001
 2.1762958168e+000	 1.1252717530e+000	-1.4546531141e-001
 2.1647976943e+000	 1.1472362192e+000	-1.8609165125e-001
 2.1530598981e+000	 1.1691163651e+000	-2.2218628992e-001
 2.1410832022e+000	 1.1909083597e+000	-2.5267043775e-001
 2.1288684610e+000	 1.2126083770e+000	-2.7644515826e-001
 2.1164166087e+000	 1.2342125986e+000	-2.9239346509e-001
 2.1037286601e+000	 1.2557172153e+000	-3.2898419076e-001
 2.0908057100e+000	 1.2771184295e+000	-4.4323734906e-001
 2.0776489336e+000	 1.2984124570e+000	-5.5610642678e-001
 2.0642595861e+000	 1.3195955294e+000	-6.6648343300e-001
 2.0506390025e+000	 1.3406638958e+000	-7.7323509769e-001
 2.1985029169e+000	 1.1367541178e+000	-1.3609888629e-001
 2.1868874667e+000	 1.1589427112e+000	-1.7368713443e-001
 2.1750298971e+000	 1.1810461240e+000	-2.0578192692e-001
 2.1629309900e+000	 1.2030604858e+000	-2.3124810804e-001
 2.1505916085e+000	 1.2249819318e+000	-2.4893057292e-001
 2.1380126965e+000	 1.2468066047e+000	-2.5765646218e-001
 2.1251952790e+000	 1.2685306563e+000	-3.4592997086e-001
 2.1121404622e+000	 1.2901502502e+000	-4.4778082556e-001
 2.0988494330e+000	 1.3116615637e+000	-5.4740744821e-001
 2.0853234594e+000	 1.3330607899e+000	-6.4365397686e-001
 2.0715638903e+000	 1.3543441396e+000	-7.3533935016e-001
 2.2207100171e+000	 1.1482364826e+000	-1.1882419273e-001
 2.2089772391e+000	 1.1706492033e+000	-1.5355013705e-001
 2.1969998960e+000	 1.1929758828e+000	-1.8185443609e-001
 2.1847787778e+000	 1.2152126119e+000	-2.0254460672e-001
 2.1723147561e+000	 1.2373554867e+000	-2.1440837920e-001
 2.1596087844e+000	 1.2594006108e+000	-2.5608012924e-001
 2.1466618980e+000	 1.2813440973e+000	-3.4753196300e-001
 2.1334752143e+000	 1.3031820709e+000	-4.3713854418e-001
 2.1200499323e+000	 1.3249106704e+000	-5.2372251719e-001
 2.1063873328e+000	 1.3465260504e+000	-6.0607921092e-001
 2.0924887780e+000	 1.3680243835e+000	-6.8297879128e-001
 1.8832399002e+000	 1.2312219451e+000	-6.6354763892e-001
 1.8705201405e+000	 1.2504616763e+000	-6.1042617906e-001
 1.8575906924e+000	 1.2695892326e+000	-6.7397478494e-001
 1.8444530004e+000	 1.2886012298e+000	-7.4091729062e-001
 1.8311085811e+000	 1.3074943075e+000	-8.1082189043e-001
 1.8175590227e+000	 1.3262651314e+000	-8.8324002427e-001
 1.8038059846e+000	 1.3449103948e+000	-9.5770718872e-001
 1.7898511964e+000	 1.3634268205e+000	-1.0337437924e+000
 1.7756964577e+000	 1.3818111630e+000	-1.1108560539e+000
 1.7613436372e+000	 1.4000602100e+000	-1.1885369405e+000
 1.7467946721e+000	 1.4181707844e+000	-1.2662671449e+000
 1.9041647880e+000	 1.2449021889e+000	-6.4141844535e-001
 1.8913036977e+000	 1.2643556949e+000	-7.0866645630e-001
 1.8782305890e+000	 1.2836957796e+000	-8.2154912522e-001
 1.8649469226e+000	 1.3029190212e+000	-8.8328283077e-001
 1.8514542320e+000	 1.3220220220e+000	-9.2982567919e-001
 1.8377541230e+000	 1.3410014107e+000	-9.7846097852e-001
 1.8238482733e+000	 1.3598538436e+000	-1.0287583064e+000
 1.8097384319e+000	 1.3785760074e+000	-1.0802722497e+000
 1.7954264183e+000	 1.3971646204e+000	-1.1325432841e+000
 1.7809141221e+000	 1.4156164346e+000	-1.1850986951e+000
 1.7662035017e+000	 1.4339282376e+000	-1.2374535370e+000
 1.9250896758e+000	 1.2585824328e+000	-6.7492584185e-001
 1.9120872548e+000	 1.2782497135e+000	-7.6774423898e-001
 1.8988704856e+000	 1.2978023266e+000	-8.6475818668e-001
 1.8854408449e+000	 1.3172368126e+000	-9.6513710987e-001
 1.8717998829e+000	 1.3365497366e+000	-1.0498212508e+000
 1.8579492232e+000	 1.3557376899e+000	-1.0763945289e+000
 1.8438905620e+000	 1.3747972925e+000	-1.1042645798e+000
 1.8296256674e+000	 1.3937251943e+000	-1.1330188377e+000
 1.8151563790e+000	 1.4125180778e+000	-1.1622306769e+000
 1.8004846069e+000	 1.4311726591e+000	-1.1914603152e+000
 1.7856123314e+000	 1.4496856907e+000	-1.2202557585e+000
 1.9460145636e+000	 1.2722626766e+000	-7.3214312682e-001
 1.9328708119e+000	 1.2921437321e+000	-8.1136039852e-001
 1.9195103822e+000	 1.3119088736e+000	-8.9442415264e-001
 1.9059347671e+000	 1.3315546041e+000	-9.8051355950e-001
 1.8921455338e+000	 1.3510774511e+000	-1.0687855598e+000
 1.8781443235e+000	 1.3704739692e+000	-1.1583765969e+000
 1.8639328507e+000	 1.3897407413e+000	-1.1840204562e+000
 1.8495129029e+000	 1.4088743812e+000	-1.1917275059e+000
 1.8348863396e+000	 1.4278715351e+000	-1.1996115553e+000
 1.8200550918e+000	 1.4467288837e+000	-1.2072643879e+000
 1.8050211611e+000	 1.4654431439e+000	-1.2142655682e+000
 1.9669394514e+000	 1.2859429204e+000	-7.7245707028e-001
 1.9536543690e+000	 1.3060377508e+000	-8.3992707825e-001
 1.9401502787e+000	 1.3260154207e+000	-9.1091931699e-001
 1.9264286893e+000	 1.3458723955e+000	-9.8462090034e-001
 1.9124911847e+000	 1.3656051656e+000	-1.0601967015e+000
 1.8983394238e+000	 1.3852102484e+000	-1.1367911106e+000
 1.8839751394e+000	 1.4046841901e+000	-1.2135298486e+000
 1.8694001384e+000	 1.4240235681e+000	-1.2561436825e+000
 1.8546163002e+000	 1.4432249925e+000	-1.2443831201e+000
 1.8396255767e+000	 1.4622851082e+000	-1.2321597886e+000
 1.8244299908e+000	 1.4812005971e+000	-1.2190834356e+000
 1.9878643392e+000	 1.2996231643e+000	-7.9630525755e-001
 1.9744379261e+000	 1.3199317694e+000	-8.5384450490e-001
 1.9607901753e+000	 1.3401219677e+000	-9.1460623422e-001
 1.9469226115e+000	 1.3601901869e+000	-9.7778370746e-001
 1.9328368356e+000	 1.3801328802e+000	-1.0425479040e+000
 1.9185345240e+000	 1.3999465276e+000	-1.1080493054e+000
 1.9040174282e+000	 1.4196276390e+000	-1.1734197372e+000
 1.8892873739e+000	 1.4391727550e+000	-1.2377742648e+000
 1.8743462609e+000	 1.4585784499e+000	-1.2962462454e+000
 1.8591960615e+000	 1.4778413328e+000	-1.2658013504e+000
 1.8438388205e+000	 1.4969580502e+000	-1.2343180834e+000
 2.0087892269e+000	 1.3133034081e+000	-8.0411193250e-001
 1.9952214832e+000	 1.3338257880e+000	-8.5350160924e-001
 1.9814300719e+000	 1.3542285147e+000	-9.0583822671e-001
 1.9674165338e+000	 1.3745079784e+000	-9.6031940502e-001
 1.9531824865e+000	 1.3946605947e+000	-1.0161204090e+000
 1.9387296243e+000	 1.4146828069e+000	-1.0723959623e+000
 1.9240597169e+000	 1.4345710878e+000	-1.1282821195e+000
 1.9091746095e+000	 1.4543219419e+000	-1.1828981931e+000
 1.8940762215e+000	 1.4739319072e+000	-1.2353487292e+000
 1.8787665464e+000	 1.4933975573e+000	-1.2847255280e+000
 1.8632476502e+000	 1.5127155034e+000	-1.2595860567e+000
 2.0297141147e+000	 1.3269836519e+000	-7.9628868523e-001
 2.0160050404e+000	 1.3477198066e+000	-8.3927660838e-001
 2.0020699685e+000	 1.3683350618e+000	-8.8495986056e-001
 1.9879104560e+000	 1.3888257698e+000	-9.3253863481e-001
 1.9735281374e+000	 1.4091883092e+000	-9.8119066538e-001
 1.9589247245e+000	 1.4294190861e+000	-1.0300730735e+000
 1.9441020056e+000	 1.4495145366e+000	-1.0783242725e+000
 1.9290618450e+000	 1.4694711288e+000	-1.1250659277e+000
 1.9138061822e+000	 1.4892853646e+000	-1.1694049665e+000
 1.8983370312e+000	 1.5089537819e+000	-1.2104356337e+000
 1.8826564799e+000	 1.5284729565e+000	-1.2472415863e+000
 2.0506390025e+000	 1.3406638958e+000	-7.7323509769e-001
 2.0367885975e+000	 1.3616138253e+000	-8.1153755233e-001
 2.0227098651e+000	 1.3824416088e+000	-8.5230739237e-001
 2.0084043782e+000	 1.4031435613e+000	-8.9474560232e-001
 1.9938737883e+000	 1.4237160237e+000	-9.3803057372e-001
 1.9791198248e+000	 1.4441553653e+000	-9.8131998500e-001
 1.9641442943e+000	 1.4644579854e+000	-1.0237527417e+000
 1.9489490805e+000	 1.4846203157e+000	-1.0644509722e+000
 1.9335361428e+000	 1.5046388219e+000	-1.1025220745e+000
 1.9179075161e+000	 1.5245100065e+000	-1.1370608084e+000
 1.9020653096e+000	 1.5442304097e+000	-1.1671514284e+000
 2.0715638903e+000	 1.3543441396e+000	-7.3533935016e-001
 2.0575721546e+000	 1.3755078439e+000	-7.7064283755e-001
 2.0433497617e+000	 1.3965481558e+000	-8.0820918891e-001
 2.0288983004e+000	 1.4174613527e+000	-8.4723840181e-001
 2.0142194392e+000	 1.4382437383e+000	-8.8690771604e-001
 1.9993149250e+000	 1.4588916446e+000	-9.2637352996e-001
 1.9841865830e+000	 1.4794014343e+000	-9.6477337817e-001
 1.9688363160e+000	 1.4997695026e+000	-1.0012279657e+000
 1.9532661034e+000	 1.5199922793e+000	-1.0348432536e+000
 1.9374780009e+000	 1.5400662310e+000	-1.0647125912e+000
 1.9214741392e+000	 1.5599878628e+000	-1.0899188891e+000
 2.0924887780e+000	 1.3680243835e+000	-6.8297879128e-001
 2.0783557117e+000	 1.3894018625e+000	-7.1694168957e-001
 2.0639896582e+000	 1.4106547028e+000	-7.5298612162e-001
 2.0493922227e+000	 1.4317791441e+000	-7.9030932186e-001
 2.0345650901e+000	 1.4527714528e+000	-8.2808557165e-001
 2.0195100253e+000	 1.4736279238e+000	-8.6546815442e-001
 2.0042288717e+000	 1.4943448831e+000	-9.0159137324e-001
 1.9887235515e+000	 1.5149186895e+000	-9.3557262572e-001
 1.9729960641e+000	 1.5353457367e+000	-9.6651453143e-001
 1.9570484858e+000	 1.5556224556e+000	-9.9350710629e-001
 1.9408829689e+000	 1.5757453160e+000	-1.0156299785e+000
 1.7467946721e+000	 1.4181707844e+000	-1.2662671449e+000
 1.7320515667e+000	 1.4361397461e+000	-1.3163580127e+000
 1.7171163925e+000	 1.4539639937e+000	-1.3624464894e+000
 1.7019912862e+000	 1.4716404663e+000	-1.4044122585e+000
 1.6866784494e+000	 1.4891661453e+000	-1.4421314398e+000
 1.6711801475e+000	 1.5065380562e+000	-1.4754772754e+000
 1.6554987083e+000	 1.5237532697e+000	-1.5043208322e+000
 1.6396365210e+000	 1.5408089042e+000	-1.5285317191e+000
 1.6235960349e+000	 1.5577021267e+000	-1.5479788168e+000
 1.6073797585e+000	 1.5744301547e+000	-1.5625310186e+000
 1.5909902577e+000	 1.5909902577e+000	-1.5720579787e+000
 1.7662035017e+000	 1.4339282376e+000	-1.2374535370e+000
 1.7512965841e+000	 1.4520968544e+000	-1.2766236767e+000
 1.7361954635e+000	 1.4701191492e+000	-1.3141088033e+000
 1.7209023004e+000	 1.4879920270e+000	-1.3497499645e+000
 1.7054193211e+000	 1.5057124358e+000	-1.3833820917e+000
 1.6897488158e+000	 1.5232773679e+000	-1.4148347425e+000
 1.6738931384e+000	 1.5406838616e+000	-1.4439328643e+000
 1.6578547045e+000	 1.5579290031e+000	-1.4704975758e+000
 1.6416359909e+000	 1.5750099281e+000	-1.4943469654e+000
 1.6252395336e+000	 1.5919238231e+000	-1.5152969031e+000
 1.6086679272e+000	 1.6086679272e+000	-1.5331618643e+000
 1.7856123314e+000	 1.4496856907e+000	-1.2202557585e+000
 1.7705416015e+000	 1.4680539627e+000	-1.2477473430e+000
 1.7552745345e+000	 1.4862743046e+000	-1.2758287621e+000
 1.7398133147e+000	 1.5043435878e+000	-1.3043021497e+000
 1.7241601927e+000	 1.5222587263e+000	-1.3329609897e+000
 1.7083174841e+000	 1.5400166796e+000	-1.3615909169e+000
 1.6922875685e+000	 1.5576144535e+000	-1.3899705418e+000
 1.6760728881e+000	 1.5750491021e+000	-1.4178722977e+000
 1.6596759468e+000	 1.5923177295e+000	-1.4450633078e+000
 1.6430993087e+000	 1.6094174915e+000	-1.4713062697e+000
 1.6263455968e+000	 1.6263455968e+000	-1.4963603549e+000
 1.8050211611e+000	 1.4654431439e+000	-1.2142655682e+000
 1.7897866190e+000	 1.4840110710e+000	-1.2293533710e+000
 1.7743536055e+000	 1.5024294601e+000	-1.2472650728e+000
 1.7587243290e+000	 1.5206951485e+000	-1.2677635942e+000
 1.7429010644e+000	 1.5388050168e+000	-1.2906006909e+000
 1.7268861525e+000	 1.5567559914e+000	-1.3155178133e+000
 1.7106819986e+000	 1.5745450454e+000	-1.3422469932e+000
 1.6942910717e+000	 1.5921692010e+000	-1.3705117575e+000
 1.6777159028e+000	 1.6096255309e+000	-1.4000280648e+000
 1.6609590838e+000	 1.6269111599e+000	-1.4305052632e+000
 1.6440232663e+000	 1.6440232663e+000	-1.4616470660e+000
 1.8244299908e+000	 1.4812005971e+000	-1.2190834356e+000
 1.8090316364e+000	 1.4999681792e+000	-1.2210737113e+000
 1.7934326766e+000	 1.5185846156e+000	-1.2280828459e+000
 1.7776353433e+000	 1.5370467092e+000	-1.2398342273e+000
 1.7616419361e+000	 1.5553513073e+000	-1.2560375811e+000
 1.7454548208e+000	 1.5734953031e+000	-1.2763898885e+000
 1.7290764287e+000	 1.5914756372e+000	-1.3005763373e+000
 1.7125092552e+000	 1.6092892999e+000	-1.3282713019e+000
 1.6957558587e+000	 1.6269333323e+000	-1.3591393511e+000
 1.6788188589e+000	 1.6444048283e+000	-1.3928362792e+000
 1.6617009358e+000	 1.6617009358e+000	-1.4290101593e+000
 1.8438388205e+000	 1.4969580502e+000	-1.2343180834e+000
 1.8282766538e+000	 1.5159252875e+000	-1.2225475057e+000
 1.8125117476e+000	 1.5347397711e+000	-1.2179532582e+000
 1.7965463576e+000	 1.5533982700e+000	-1.2202188568e+000
 1.7803828077e+000	 1.5718975978e+000	-1.2290116730e+000
 1.7640234891e+000	 1.5902346148e+000	-1.2439839129e+000
 1.7474708588e+000	 1.6084062291e+000	-1.2647736312e+000
 1.7307274388e+000	 1.6264093989e+000	-1.2910057799e+000
 1.7137958146e+000	 1.6442411337e+000	-1.3222932868e+000
 1.6966786340e+000	 1.6618984966e+000	-1.3582381620e+000
 1.6793786053e+000	 1.6793786053e+000	-1.3984326290e+000
 1.8632476502e+000	 1.5127155034e+000	-1.2595860567e+000
 1.8475216712e+000	 1.5318823958e+000	-1.2334207133e+000
 1.8315908186e+000	 1.5508949266e+000	-1.2165532374e+000
 1.8154573719e+000	 1.5697498307e+000	-1.2086269141e+000
 1.7991236794e+000	 1.5884438884e+000	-1.2092664174e+000
 1.7825921574e+000	 1.6069739266e+000	-1.2180788497e+000
 1.7658652889e+000	 1.6253368210e+000	-1.2346548213e+000
 1.7489456224e+000	 1.6435294978e+000	-1.2585695679e+000
 1.7318357706e+000	 1.6615489351e+000	-1.2893841007e+000
 1.7145384091e+000	 1.6793921650e+000	-1.3266463892e+000
 1.6970562749e+000	 1.6970562749e+000	-1.3698925712e+000
 1.8826564799e+000	 1.5284729565e+000	-1.2472415863e+000
 1.8667666886e+000	 1.5478395041e+000	-1.2533457586e+000
 1.8506698896e+000	 1.5670500821e+000	-1.2235651652e+000
 1.8343683862e+000	 1.5861013914e+000	-1.2047722169e+000
 1.8178645510e+000	 1.6049901789e+000	-1.1965485261e+000
 1.8011608257e+000	 1.6237132383e+000	-1.1984557422e+000
 1.7842597190e+000	 1.6422674129e+000	-1.2100366978e+000
 1.7671638059e+000	 1.6606495967e+000	-1.2308165946e+000
 1.7498757265e+000	 1.6788567365e+000	-1.2603042281e+000
 1.7323981842e+000	 1.6968858334e+000	-1.2979932456e+000
 1.7147339444e+000	 1.7147339444e+000	-1.3433634369e+000
 1.9020653096e+000	 1.5442304097e+000	-1.1671514284e+000
 1.8860117060e+000	 1.5637966124e+000	-1.2140291402e+000
 1.8697489607e+000	 1.5832052375e+000	-1.2386765990e+000
 1.8532794005e+000	 1.6024529522e+000	-1.2083727445e+000
 1.8366054227e+000	 1.6215364694e+000	-1.1906078051e+000
 1.8197294940e+000	 1.6404525500e+000	-1.1848976076e+000
 1.8026541490e+000	 1.6591980048e+000	-1.1907368511e+000
 1.7853819895e+000	 1.6777696957e+000	-1.2076003640e+000
 1.7679156825e+000	 1.6961645380e+000	-1.2349444023e+000
 1.7502579593e+000	 1.7143795018e+000	-1.2722079857e+000
 1.7324116139e+000	 1.7324116139e+000	-1.3188142680e+000
 1.9214741392e+000	 1.5599878628e+000	-1.0899188891e+000
 1.9052567234e+000	 1.5797537207e+000	-1.1278088791e+000
 1.8888280317e+000	 1.5993603930e+000	-1.1768149552e+000
 1.8721904147e+000	 1.6188045129e+000	-1.2191504283e+000
 1.8553462943e+000	 1.6380827599e+000	-1.1911969990e+000
 1.8382981623e+000	 1.6571918618e+000	-1.1771893371e+000
 1.8210485791e+000	 1.6761285967e+000	-1.1765736318e+000
 1.8036001731e+000	 1.6948897946e+000	-1.1887739762e+000
 1.7859556384e+000	 1.7134723394e+000	-1.2131937406e+000
 1.7681177343e+000	 1.7318731702e+000	-1.2492169869e+000
 1.7500892834e+000	 1.7500892834e+000	-1.2962099209e+000
 1.9408829689e+000	 1.5757453160e+000	-1.0156299785e+000
 1.9245017408e+000	 1.5957108290e+000	-1.0443290726e+000
 1.9079071027e+000	 1.6155155485e+000	-1.0859856586e+000
 1.8911014290e+000	 1.6351560736e+000	-1.1394106967e+000
 1.8740871660e+000	 1.6546290504e+000	-1.1980716435e+000
 1.8568668306e+000	 1.6739311735e+000	-1.1751176025e+000
 1.8394430092e+000	 1.6930591885e+000	-1.1673661126e+000
 1.8218183566e+000	 1.7120098935e+000	-1.1741901482e+000
 1.8039955943e+000	 1.7307801408e+000	-1.1949398248e+000
 1.7859775094e+000	 1.7493668386e+000	-1.2289438935e+000
 1.7677669530e+000	 1.7677669530e+000	-1.2755112753e+000
 1.5909902577e+000	 1.5909902577e+000	-1.5720579787e+000
 1.5744301547e+000	 1.6073797585e+000	-1.5989111562e+000
 1.5577021267e+000	 1.6235960349e+000	-1.6227633684e+000
 1.5408089042e+000	 1.6396365210e+000	-1.6435067193e+000
 1.5237532697e+000	 1.6554987083e+000	-1.6610352931e+000
 1.5065380562e+000	 1.6711801475e+000	-1.6752458938e+000
 1.4891661453e+000	 1.6866784494e+000	-1.6860387810e+000
 1.4716404663e+000	 1.7019912862e+000	-1.6933184005e+000
 1.4539639937e+000	 1.7171163925e+000	-1.6969941065e+000
 1.4361397461e+000	 1.7320515667e+000	-1.6969808738e+000
 1.4181707844e+000	 1.7467946721e+000	-1.6931999977e+000
 1.6086679272e+000	 1.6086679272e+000	-1.5331618643e+000
 1.5919238231e+000	 1.6252395336e+000	-1.5693246128e+000
 1.5750099281e+000	 1.6416359909e+000	-1.5998400542e+000
 1.5579290031e+000	 1.6578547045e+000	-1.6245796970e+000
 1.5406838616e+000	 1.6738931384e+000	-1.6434194725e+000
 1.5232773679e+000	 1.6897488158e+000	-1.6562405124e+000
 1.5057124358e+000	 1.7054193211e+000	-1.6629299199e+000
 1.4879920270e+000	 1.7209023004e+000	-1.6633815312e+000
 1.4701191492e+000	 1.7361954635e+000	-1.6574966663e+000
 1.4520968544e+000	 1.7512965841e+000	-1.6451848651e+000
 1.4339282376e+000	 1.7662035017e+000	-1.6263646087e+000
 1.6263455968e+000	 1.6263455968e+000	-1.4963603549e+000
 1.6094174915e+000	 1.6430993087e+000	-1.5418329511e+000
 1.5923177295e+000	 1.6596759468e+000	-1.5790649411e+000
 1.5750491021e+000	 1.6760728881e+000	-1.6079065430e+000
 1.5576144535e+000	 1.6922875685e+000	-1.6282148054e+000
 1.5400166796e+000	 1.7083174841e+000	-1.6398544241e+000
 1.5222587263e+000	 1.7241601927e+000	-1.6426985494e+000
 1.5043435878e+000	 1.7398133147e+000	-1.6366295809e+000
 1.4862743046e+000	 1.7552745345e+000	-1.6215399467e+000
 1.4680539627e+000	 1.7705416015e+000	-1.5973328668e+000
 1.4496856907e+000	 1.7856123314e+000	-1.5639230955e+000
 1.6440232663e+000	 1.6440232663e+000	-1.4616470660e+000
 1.6269111599e+000	 1.6609590838e+000	-1.5164402777e+000
 1.6096255309e+000	 1.6777159028e+000	-1.5604509712e+000
 1.5921692010e+000	 1.6942910717e+000	-1.5935073687e+000
 1.5745450454e+000	 1.7106819986e+000	-1.6154468962e+000
 1.5567559914e+000	 1.7268861525e+000	-1.6261170411e+000
 1.5388050168e+000	 1.7429010644e+000	-1.6253761966e+000
 1.5206951485e+000	 1.7587243290e+000	-1.6130944914e+000
 1.5024294601e+000	 1.7743536055e+000	-1.5891545993e+000
 1.4840110710e+000	 1.7897866190e+000	-1.5534525298e+000
 1.4654431439e+000	 1.8050211611e+000	-1.5058983946e+000
 1.6617009358e+000	 1.6617009358e+000	-1.4290101593e+000
 1.6444048283e+000	 1.6788188589e+000	-1.4931451159e+000
 1.6269333323e+000	 1.6957558587e+000	-1.5440054479e+000
 1.6092892999e+000	 1.7125092552e+000	-1.5813966645e+000
 1.5914756372e+000	 1.7290764287e+000	-1.6051358189e+000
 1.5734953031e+000	 1.7454548208e+000	-1.6150524084e+000
 1.5553513073e+000	 1.7616419361e+000	-1.6109892574e+000
 1.5370467092e+000	 1.7776353433e+000	-1.5928033823e+000
 1.5185846156e+000	 1.7934326766e+000	-1.5603668341e+000
 1.4999681792e+000	 1.8090316364e+000	-1.5135675168e+000
 1.4812005971e+000	 1.8244299908e+000	-1.4523099801e+000
 1.6793786053e+000	 1.6793786053e+000	-1.3984326290e+000
 1.6618984966e+000	 1.6966786340e+000	-1.4719407004e+000
 1.6442411337e+000	 1.7137958146e+000	-1.5297303331e+000
 1.6264093989e+000	 1.7307274388e+000	-1.5715835952e+000
 1.6084062291e+000	 1.7474708588e+000	-1.5972964075e+000
 1.5902346148e+000	 1.7640234891e+000	-1.6066794861e+000
 1.5718975978e+000	 1.7803828077e+000	-1.5995592666e+000
 1.5533982700e+000	 1.7965463576e+000	-1.5757788048e+000
 1.5347397711e+000	 1.8125117476e+000	-1.5351986539e+000
 1.5159252875e+000	 1.8282766538e+000	-1.4776977128e+000
 1.4969580502e+000	 1.8438388205e+000	-1.4031740452e+000
 1.6970562749e+000	 1.6970562749e+000	-1.3698925712e+000
 1.6793921650e+000	 1.7145384091e+000	-1.4528152521e+000
 1.6615489351e+000	 1.7318357706e+000	-1.5176225249e+000
 1.6435294978e+000	 1.7489456224e+000	-1.5640722781e+000
 1.6253368210e+000	 1.7658652889e+000	-1.5919385295e+000
 1.6069739266e+000	 1.7825921574e+000	-1.6010124146e+000
 1.5884438884e+000	 1.7991236794e+000	-1.5911031510e+000
 1.5697498307e+000	 1.8154573719e+000	-1.5620389792e+000
 1.5508949266e+000	 1.8315908186e+000	-1.5136680731e+000
 1.5318823958e+000	 1.8475216712e+000	-1.4458594214e+000
 1.5127155034e+000	 1.8632476502e+000	-1.3585036736e+000
 1.7147339444e+000	 1.7147339444e+000	-1.3433634369e+000
 1.6968858334e+000	 1.7323981842e+000	-1.4357522366e+000
 1.6788567365e+000	 1.7498757265e+000	-1.5076741191e+000
 1.6606495967e+000	 1.7671638059e+000	-1.5588620425e+000
 1.6422674129e+000	 1.7842597190e+000	-1.5890673418e+000
 1.6237132383e+000	 1.8011608257e+000	-1.5980607622e+000
 1.6049901789e+000	 1.8178645510e+000	-1.5856334672e+000
 1.5861013914e+000	 1.8343683862e+000	-1.5515980184e+000
 1.5670500821e+000	 1.8506698896e+000	-1.4957893234e+000
 1.5478395041e+000	 1.8667666886e+000	-1.4180655495e+000
 1.5284729565e+000	 1.8826564799e+000	-1.3511179744e+000
 1.7324116139e+000	 1.7324116139e+000	-1.3188142680e+000
 1.7143795018e+000	 1.7502579593e+000	-1.4207306073e+000
 1.6961645380e+000	 1.7679156825e+000	-1.4998726536e+000
 1.6777696957e+000	 1.7853819895e+000	-1.5559476744e+000
 1.6591980048e+000	 1.8026541490e+000	-1.5886835308e+000
 1.6404525500e+000	 1.8197294940e+000	-1.5978297594e+000
 1.6215364694e+000	 1.8366054227e+000	-1.5831586242e+000
 1.6024529522e+000	 1.8532794005e+000	-1.5444661377e+000
 1.5832052375e+000	 1.8697489607e+000	-1.4815730468e+000
 1.5637966124e+000	 1.8860117060e+000	-1.4369811861e+000
 1.5442304097e+000	 1.9020653096e+000	-1.3998508963e+000
 1.7500892834e+000	 1.7500892834e+000	-1.2962099209e+000
 1.7318731702e+000	 1.7681177343e+000	-1.4077250326e+000
 1.7134723394e+000	 1.7859556384e+000	-1.4942013395e+000
 1.6948897946e+000	 1.8036001731e+000	-1.5553196457e+000
 1.6761285967e+000	 1.8210485791e+000	-1.5907835384e+000
 1.6571918618e+000	 1.8382981623e+000	-1.6003205172e+000
 1.6380827599e+000	 1.8553462943e+000	-1.5836830930e+000
 1.6188045129e+000	 1.8721904147e+000	-1.5406498512e+000
 1.5993603930e+000	 1.8888280317e+000	-1.5180979880e+000
 1.5797537207e+000	 1.9052567234e+000	-1.4919539662e+000
 1.5599878628e+000	 1.9214741392e+000	-1.4537371769e+000
 1.7677669530e+000	 1.7677669530e+000	-1.2755112753e+000
 1.7493668386e+000	 1.7859775094e+000	-1.3967061107e+000
 1.7307801408e+000	 1.8039955943e+000	-1.4906392764e+000
 1.7120098935e+000	 1.8218183566e+000	-1.5569643302e+000
 1.6930591885e+000	 1.8394430092e+000	-1.5953597740e+000
 1.6739311735e+000	 1.8568668306e+000	-1.6055302335e+000
 1.6546290504e+000	 1.8740871660e+000	-1.5872076038e+000
 1.6351560736e+000	 1.8911014290e+000	-1.5864780363e+000
 1.6155155485e+000	 1.9079071027e+000	-1.5748390936e+000
 1.5957108290e+000	 1.9245017408e+000	-1.5498696843e+000
 1.5757453160e+000	 1.9408829689e+000	-1.5113213533e+000
 1.4181707844e+000	 1.7467946721e+000	-1.6931999977e+000
 1.4000602100e+000	 1.7613436372e+000	-1.7803436120e+000
 1.3818111630e+000	 1.7756964577e+000	-1.8442566989e+000
 1.3634268205e+000	 1.7898511964e+000	-1.8846412342e+000
 1.3449103948e+000	 1.8038059846e+000	-1.9012282005e+000
 1.3262651314e+000	 1.8175590227e+000	-1.8937783364e+000
 1.3074943075e+000	 1.8311085811e+000	-1.8620828319e+000
 1.2886012298e+000	 1.8444530004e+000	-1.8059639709e+000
 1.2695892326e+000	 1.8575906924e+000	-1.7252757178e+000
 1.2504616763e+000	 1.8705201405e+000	-1.6199042467e+000
 1.2312219451e+000	 1.8832399002e+000	-1.5618389064e+000
 1.4339282376e+000	 1.7662035017e+000	-1.6263646087e+000
 1.4156164346e+000	 1.7809141221e+000	-1.6883093737e+000
 1.3971646204e+000	 1.7954264183e+000	-1.7288318037e+000
 1.3785760074e+000	 1.8097384319e+000	-1.7476375210e+000
 1.3598538436e+000	 1.8238482733e+000	-1.7444595954e+000
 1.3410014107e+000	 1.8377541230e+000	-1.7190593188e+000
 1.3220220220e+000	 1.8514542320e+000	-1.6712269297e+000
 1.3029190212e+000	 1.8649469226e+000	-1.6007822849e+000
 1.2836957796e+000	 1.8782305890e+000	-1.5275112381e+000
 1.2643556949e+000	 1.8913036977e+000	-1.4974900744e+000
 1.2449021889e+000	 1.9041647880e+000	-1.4578205870e+000
 1.4496856907e+000	 1.7856123314e+000	-1.5639230955e+000
 1.4311726591e+000	 1.8004846069e+000	-1.6015810917e+000
 1.4125180778e+000	 1.8151563790e+000	-1.6195706670e+000
 1.3937251943e+000	 1.8296256674e+000	-1.6176001358e+000
 1.3747972925e+000	 1.8438905620e+000	-1.5954037426e+000
 1.3557376899e+000	 1.8579492232e+000	-1.5527424638e+000
 1.3365497366e+000	 1.8717998829e+000	-1.4894047621e+000
 1.3172368126e+000	 1.8854408449e+000	-1.4695156176e+000
 1.2978023266e+000	 1.8988704856e+000	-1.4554214050e+000
 1.2782497135e+000	 1.9120872548e+000	-1.4280964547e+000
 1.2585824328e+000	 1.9250896758e+000	-1.3870988810e+000
 1.4654431439e+000	 1.8050211611e+000	-1.5058983946e+000
 1.4467288837e+000	 1.8200550918e+000	-1.5201618349e+000
 1.4278715351e+000	 1.8348863396e+000	-1.5164579651e+000
 1.4088743812e+000	 1.8495129029e+000	-1.4944968364e+000
 1.3897407413e+000	 1.8639328507e+000	-1.4540129537e+000
 1.3704739692e+000	 1.8781443235e+000	-1.4127267883e+000
 1.3510774511e+000	 1.8921455338e+000	-1.4208824887e+000
 1.3315546041e+000	 1.9059347671e+000	-1.4189308137e+000
 1.3119088736e+000	 1.9195103822e+000	-1.4063991045e+000
 1.2921437321e+000	 1.9328708119e+000	-1.3828154464e+000
 1.2722626766e+000	 1.9460145636e+000	-1.3477102492e+000
 1.4812005971e+000	 1.8244299908e+000	-1.4523099801e+000
 1.4622851082e+000	 1.8396255767e+000	-1.4440523777e+000
 1.4432249925e+000	 1.8546163002e+000	-1.4194771834e+000
 1.4240235681e+000	 1.8694001384e+000	-1.3782952283e+000
 1.4046841901e+000	 1.8839751394e+000	-1.3701175037e+000
 1.3852102484e+000	 1.8983394238e+000	-1.3839377908e+000
 1.3656051656e+000	 1.9124911847e+000	-1.3903466321e+000
 1.3458723955e+000	 1.9264286893e+000	-1.3888514699e+000
 1.3260154207e+000	 1.9401502787e+000	-1.3789560796e+000
 1.3060377508e+000	 1.9536543690e+000	-1.3601622095e+000
 1.2859429204e+000	 1.9669394514e+000	-1.3319712441e+000
 1.4969580502e+000	 1.8438388205e+000	-1.4031740452e+000
 1.4778413328e+000	 1.8591960615e+000	-1.3732513211e+000
 1.4585784499e+000	 1.8743462609e+000	-1.3286106794e+000
 1.4391727550e+000	 1.8892873739e+000	-1.3452777862e+000
 1.4196276390e+000	 1.9040174282e+000	-1.3609649364e+000
 1.3999465276e+000	 1.9185345240e+000	-1.3719518503e+000
 1.3801328802e+000	 1.9328368356e+000	-1.3777321378e+000
 1.3601901869e+000	 1.9469226115e+000	-1.3777911986e+000
 1.3401219677e+000	 1.9607901753e+000	-1.3716079105e+000
 1.3199317694e+000	 1.9744379261e+000	-1.3586563488e+000
 1.2996231643e+000	 1.9878643392e+000	-1.3384075333e+000
 1.5127155034e+000	 1.8632476502e+000	-1.3585036736e+000
 1.4933975573e+000	 1.8787665464e+000	-1.3252239022e+000
 1.4739319072e+000	 1.8940762215e+000	-1.3404608440e+000
 1.4543219419e+000	 1.9091746095e+000	-1.3542189411e+000
 1.4345710878e+000	 1.9240597169e+000	-1.3659987873e+000
 1.4146828069e+000	 1.9387296243e+000	-1.3752864266e+000
 1.3946605947e+000	 1.9531824865e+000	-1.3815550289e+000
 1.3745079784e+000	 1.9674165338e+000	-1.3842666136e+000
 1.3542285147e+000	 1.9814300719e+000	-1.3828738145e+000
 1.3338257880e+000	 1.9952214832e+000	-1.3768216815e+000
 1.3133034081e+000	 2.0087892269e+000	-1.3655495132e+000
 1.5284729565e+000	 1.8826564799e+000	-1.3511179744e+000
 1.5089537819e+000	 1.8983370312e+000	-1.3579060977e+000
 1.4892853646e+000	 1.9138061822e+000	-1.3659396318e+000
 1.4694711288e+000	 1.9290618450e+000	-1.3747228504e+000
 1.4495145366e+000	 1.9441020056e+000	-1.3837406927e+000
 1.4294190861e+000	 1.9589247245e+000	-1.3924604509e+000
 1.4091883092e+000	 1.9735281374e+000	-1.4003335160e+000
 1.3888257698e+000	 1.9879104560e+000	-1.4067971758e+000
 1.3683350618e+000	 2.0020699685e+000	-1.4112764591e+000
 1.3477198066e+000	 2.0160050404e+000	-1.4131860211e+000
 1.3269836519e+000	 2.0297141147e+000	-1.4119320649e+000
 1.5442304097e+000	 1.9020653096e+000	-1.3998508963e+000
 1.5245100065e+000	 1.9179075161e+000	-1.3983639263e+000
 1.5046388219e+000	 1.9335361428e+000	-1.4003553761e+000
 1.4846203157e+000	 1.9489490805e+000	-1.4053157290e+000
 1.4644579854e+000	 1.9641442943e+000	-1.4127129520e+000
 1.4441553653e+000	 1.9791198248e+000	-1.4219942505e+000
 1.4237160237e+000	 1.9938737883e+000	-1.4325878854e+000
 1.4031435613e+000	 2.0084043782e+000	-1.4439050478e+000
 1.3824416088e+000	 2.0227098651e+000	-1.4553417851e+000
 1.3616138253e+000	 2.0367885975e+000	-1.4662809728e+000
 1.3406638958e+000	 2.0506390025e+000	-1.4760943255e+000
 1.5599878628e+000	 1.9214741392e+000	-1.4537371769e+000
 1.5400662310e+000	 1.9374780009e+000	-1.4451355438e+000
 1.5199922793e+000	 1.9532661034e+000	-1.4422392472e+000
 1.4997695026e+000	 1.9688363160e+000	-1.4445236746e+000
 1.4794014343e+000	 1.9841865830e+000	-1.4514384944e+000
 1.4588916446e+000	 1.9993149250e+000	-1.4624094786e+000
 1.4382437383e+000	 2.0142194392e+000	-1.4768403943e+000
 1.4174613527e+000	 2.0288983004e+000	-1.4941149574e+000
 1.3965481558e+000	 2.0433497617e+000	-1.5135988421e+000
 1.3755078439e+000	 2.0575721546e+000	-1.5346417420e+000
 1.3543441396e+000	 2.0715638903e+000	-1.5565794732e+000
 1.5757453160e+000	 1.9408829689e+000	-1.5113213533e+000
 1.5556224556e+000	 1.9570484858e+000	-1.4967574327e+000
 1.5353457367e+000	 1.9729960641e+000	-1.4901215468e+000
 1.5149186895e+000	 1.9887235515e+000	-1.4908726740e+000
 1.4943448831e+000	 2.0042288717e+000	-1.4984408472e+000
 1.4736279238e+000	 2.0195100253e+000	-1.5122290477e+000
 1.4527714528e+000	 2.0345650901e+000	-1.5316151726e+000
 1.4317791441e+000	 2.0493922227e+000	-1.5559540694e+000
 1.4106547028e+000	 2.0639896582e+000	-1.5845796327e+000
 1.3894018625e+000	 2.0783557117e+000	-1.6168069548e+000
 1.3680243835e+000	 2.0924887780e+000	-1.6519345250e+000
 1.2312219451e+000	 1.8832399002e+000	-1.5618389064e+000
 1.2118734454e+000	 1.8957485995e+000	-1.5481873716e+000
 1.1924196034e+000	 1.9080449390e+000	-1.5365124331e+000
 1.1728638638e+000	 1.9201276929e+000	-1.5258883319e+000
 1.1532096875e+000	 1.9319957082e+000	-1.5154166888e+000
 1.1334605497e+000	 1.9436479059e+000	-1.5042279677e+000
 1.1136199380e+000	 1.9550832805e+000	-1.4914828647e+000
 1.0936913507e+000	 1.9663009000e+000	-1.4763736177e+000
 1.0736782945e+000	 1.9772999064e+000	-1.4581252359e+000
 1.0535842829e+000	 1.9880795152e+000	-1.4359966473e+000
 1.0334128344e+000	 1.9986390154e+000	-1.4092817611e+000
 1.2449021889e+000	 1.9041647880e+000	-1.4578205870e+000
 1.2253387059e+000	 1.9168124728e+000	-1.4401537204e+000
 1.2056687101e+000	 1.9292454384e+000	-1.4255274087e+000
 1.1858956845e+000	 1.9414624450e+000	-1.4129742959e+000
 1.1660231285e+000	 1.9534623272e+000	-1.4015542573e+000
 1.1460545558e+000	 1.9652439938e+000	-1.3903559346e+000
 1.1259934929e+000	 1.9768064280e+000	-1.3784981938e+000
 1.1058434768e+000	 1.9881486878e+000	-1.3651315034e+000
 1.0856080533e+000	 1.9992699054e+000	-1.3494392300e+000
 1.0652907750e+000	 2.0101692876e+000	-1.3306388507e+000
 1.0448951992e+000	 2.0208461156e+000	-1.3079830786e+000
 1.2585824328e+000	 1.9250896758e+000	-1.3870988810e+000
 1.2388039664e+000	 1.9378763461e+000	-1.3538405758e+000
 1.2189178168e+000	 1.9504459377e+000	-1.3365403917e+000
 1.1989275052e+000	 1.9627971972e+000	-1.3222948567e+000
 1.1788365695e+000	 1.9749289462e+000	-1.3101212552e+000
 1.1586485619e+000	 1.9868400816e+000	-1.2990656044e+000
 1.1383670478e+000	 1.9985295756e+000	-1.2882041835e+000
 1.1179956029e+000	 2.0099964756e+000	-1.2766449802e+000
 1.0975378121e+000	 2.0212399043e+000	-1.2635290545e+000
 1.0769972670e+000	 2.0322590600e+000	-1.2480318162e+000
 1.0563775640e+000	 2.0430532157e+000	-1.2293642140e+000
 1.2722626766e+000	 1.9460145636e+000	-1.3477102492e+000
 1.2522692269e+000	 1.9589402195e+000	-1.2932496044e+000
 1.2321669235e+000	 1.9716464370e+000	-1.2693851093e+000
 1.2119593259e+000	 1.9841319493e+000	-1.2536966788e+000
 1.1916500104e+000	 1.9963955652e+000	-1.2409779408e+000
 1.1712425680e+000	 2.0084361695e+000	-1.2302314680e+000
 1.1507406026e+000	 2.0202527232e+000	-1.2204901771e+000
 1.1301477291e+000	 2.0318442634e+000	-1.2108188456e+000
 1.1094675710e+000	 2.0432099033e+000	-1.2003155439e+000
 1.0887037590e+000	 2.0543488324e+000	-1.1881129790e+000
 1.0678599288e+000	 2.0652603159e+000	-1.1733797485e+000
 1.2859429204e+000	 1.9669394514e+000	-1.3319712441e+000
 1.2657344874e+000	 1.9800040928e+000	-1.2761442097e+000
 1.2454160302e+000	 1.9928469363e+000	-1.2239004654e+000
 1.2249911467e+000	 2.0054667014e+000	-1.2070315027e+000
 1.2044634514e+000	 2.0178621842e+000	-1.1939895117e+000
 1.1838365741e+000	 2.0300322573e+000	-1.1837327821e+000
 1.1631141575e+000	 2.0419758707e+000	-1.1752500743e+000
 1.1422998552e+000	 2.0536920511e+000	-1.1675622075e+000
 1.1213973298e+000	 2.0651799023e+000	-1.1597235610e+000
 1.1004102511e+000	 2.0764386048e+000	-1.1508234856e+000
 1.0793422937e+000	 2.0874674161e+000	-1.1399876220e+000
 1.2996231643e+000	 1.9878643392e+000	-1.3384075333e+000
 1.2791997479e+000	 2.0010679661e+000	-1.2818636096e+000
 1.2586651369e+000	 2.0140474357e+000	-1.2197797925e+000
 1.2380229674e+000	 2.0268014536e+000	-1.1821558779e+000
 1.2172768924e+000	 2.0393288031e+000	-1.1690258449e+000
 1.1964305802e+000	 2.0516283452e+000	-1.1594533183e+000
 1.1754877124e+000	 2.0636990183e+000	-1.1523820906e+000
 1.1544519813e+000	 2.0755398389e+000	-1.1467882565e+000
 1.1333270886e+000	 2.0871499012e+000	-1.1416817849e+000
 1.1121167431e+000	 2.0985283772e+000	-1.1361079979e+000
 1.0908246585e+000	 2.1096745162e+000	-1.1291489560e+000
 1.3133034081e+000	 2.0087892269e+000	-1.3655495132e+000
 1.2926650084e+000	 2.0221318395e+000	-1.3089577538e+000
 1.2719142436e+000	 2.0352479350e+000	-1.2479587729e+000
 1.2510547881e+000	 2.0481362057e+000	-1.1816569827e+000
 1.2300903333e+000	 2.0607954221e+000	-1.1659612527e+000
 1.2090245863e+000	 2.0732244330e+000	-1.1572811281e+000
 1.1878612672e+000	 2.0854221659e+000	-1.1517885331e+000
 1.1666041074e+000	 2.0973876267e+000	-1.1484140543e+000
 1.1452568475e+000	 2.1091199002e+000	-1.1461225122e+000
 1.1238232351e+000	 2.1206181496e+000	-1.1439145106e+000
 1.1023070233e+000	 2.1318816164e+000	-1.1408278880e+000
 1.3269836519e+000	 2.0297141147e+000	-1.4119320649e+000
 1.3061302689e+000	 2.0431957128e+000	-1.3559810545e+000
 1.2851633503e+000	 2.0564484343e+000	-1.2967505523e+000
 1.2640866088e+000	 2.0694709579e+000	-1.2332964324e+000
 1.2429037743e+000	 2.0822620411e+000	-1.1846742547e+000
 1.2216185925e+000	 2.0948205209e+000	-1.1771083220e+000
 1.2002348221e+000	 2.1071453134e+000	-1.1733755895e+000
 1.1787562335e+000	 2.1192354145e+000	-1.1723603332e+000
 1.1571866063e+000	 2.1310898991e+000	-1.1729814707e+000
 1.1355297272e+000	 2.1427079219e+000	-1.1741941793e+000
 1.1137893881e+000	 2.1540887166e+000	-1.1749914162e+000
 1.3406638958e+000	 2.0506390025e+000	-1.4760943255e+000
 1.3195955294e+000	 2.0642595861e+000	-1.4214921589e+000
 1.2984124570e+000	 2.0776489336e+000	-1.3647345492e+000
 1.2771184295e+000	 2.0908057100e+000	-1.3048275153e+000
 1.2557172153e+000	 2.1037286601e+000	-1.2407754130e+000
 1.2342125986e+000	 2.1164166087e+000	-1.2188308627e+000
 1.2126083770e+000	 2.1288684610e+000	-1.2170531297e+000
 1.1909083597e+000	 2.1410832022e+000	-1.2185513096e+000
 1.1691163651e+000	 2.1530598981e+000	-1.2221976441e+000
 1.1472362192e+000	 2.1647976943e+000	-1.2269011590e+000
 1.1252717530e+000	 2.1762958168e+000	-1.2316092532e+000
 1.3543441396e+000	 2.0715638903e+000	-1.5565794732e+000
 1.3330607899e+000	 2.0853234594e+000	-1.5040537352e+000
 1.3116615637e+000	 2.0988494330e+000	-1.4504941547e+000
 1.2901502502e+000	 2.1121404622e+000	-1.3948555534e+000
 1.2685306563e+000	 2.1251952790e+000	-1.3360896197e+000
 1.2468066047e+000	 2.1380126965e+000	-1.2823483707e+000
 1.2249819318e+000	 2.1505916085e+000	-1.2827345203e+000
 1.2030604858e+000	 2.1629309900e+000	-1.2869145075e+000
 1.1810461240e+000	 2.1750298971e+000	-1.2937131076e+000
 1.1589427112e+000	 2.1868874667e+000	-1.3019924527e+000
 1.1367541178e+000	 2.1985029169e+000	-1.3106536893e+000
 1.3680243835e+000	 2.0924887780e+000	-1.6519345250e+000
 1.3465260504e+000	 2.1063873328e+000	-1.6022322717e+000
 1.3249106704e+000	 2.1200499323e+000	-1.5526165338e+000
 1.3031820709e+000	 2.1334752143e+000	-1.5019895702e+000
 1.2813440973e+000	 2.1466618980e+000	-1.4492490247e+000
 1.2594006108e+000	 2.1596087844e+000	-1.3932906317e+000
 1.2373554867e+000	 2.1723147561e+000	-1.3703364498e+000
 1.2152126119e+000	 2.1847787778e+000	-1.3773805934e+000
 1.1929758828e+000	 2.1969998960e+000	-1.3874728737e+000
 1.1706492033e+000	 2.2089772391e+000	-1.3994277692e+000
 1.1482364826e+000	 2.2207100171e+000	-1.4120994633e+000
 1.0334128344e+000	 1.9986390154e+000	-1.4092817611e+000
 1.0131674701e+000	 2.0089777693e+000	-1.2961604996e+000
 9.9285171243e-001	 2.0190952125e+000	-1.2028438680e+000
 9.7246908310e-001	 2.0289908532e+000	-1.1287273655e+000
 9.5202310113e-001	 2.0386642723e+000	-1.0732211318e+000
 9.3151728120e-001	 2.0481151225e+000	-1.0357508734e+000
 9.1095513182e-001	 2.0573431284e+000	-1.0157587278e+000
 8.9034015358e-001	 2.0663480856e+000	-1.0127040633e+000
 8.6967583741e-001	 2.0751298605e+000	-1.0260642152e+000
 8.4896566288e-001	 2.0836883892e+000	-1.0553351570e+000
 8.2821309651e-001	 2.0920236774e+000	-1.1000321068e+000
 1.0448951992e+000	 2.0208461156e+000	-1.3079830786e+000
 1.0244248864e+000	 2.0312997445e+000	-1.2030338212e+000
 1.0038833981e+000	 2.0415296038e+000	-1.1161633968e+000
 9.8327429514e-001	 2.0515351960e+000	-1.0467298864e+000
 9.6260113559e-001	 2.0613160975e+000	-9.9410852231e-001
 9.4186747321e-001	 2.0708719572e+000	-9.5769264075e-001
 9.2107685550e-001	 2.0802024965e+000	-9.3689456669e-001
 9.0023282195e-001	 2.0893075088e+000	-9.3114643089e-001
 8.7933890227e-001	 2.0981868589e+000	-9.3990091812e-001
 8.5839861469e-001	 2.1068404824e+000	-9.6263194618e-001
 8.3741546425e-001	 2.1152683849e+000	-9.9883527565e-001
 1.0563775640e+000	 2.0430532157e+000	-1.2293642140e+000
 1.0356823027e+000	 2.0536217198e+000	-1.1320594960e+000
 1.0149150838e+000	 2.0639639950e+000	-1.0511130692e+000
 9.9407950717e-001	 2.0740795389e+000	-9.8584508557e-001
 9.7317917004e-001	 2.0839679228e+000	-9.3559537802e-001
 9.5221766522e-001	 2.0936287919e+000	-8.9972443964e-001
 9.3119857919e-001	 2.1030618646e+000	-8.7761433063e-001
 9.1012549032e-001	 2.1122669320e+000	-8.6866951262e-001
 8.8900196713e-001	 2.1212438574e+000	-8.7231760962e-001
 8.6783156650e-001	 2.1299925756e+000	-8.8801009533e-001
 8.4661783199e-001	 2.1385130925e+000	-9.1522290661e-001
 1.0678599288e+000	 2.0652603159e+000	-1.1733797485e+000
 1.0469397191e+000	 2.0759436950e+000	-1.0832230073e+000
 1.0259467695e+000	 2.0863983863e+000	-1.0077080970e+000
 1.0048847192e+000	 2.0966238817e+000	-9.4611671347e-001
 9.8375720450e-001	 2.1066197480e+000	-8.9775278326e-001
 9.6256785724e-001	 2.1163856266e+000	-8.6194347004e-001
 9.4132030288e-001	 2.1259212327e+000	-8.3804010418e-001
 9.2001815870e-001	 2.1352263552e+000	-8.2541903496e-001
 8.9866503199e-001	 2.1443008558e+000	-8.2348240488e-001
 8.7726451831e-001	 2.1531446689e+000	-8.3165884561e-001
 8.5582019972e-001	 2.1617578000e+000	-8.4940409572e-001
 1.0793422937e+000	 2.0874674161e+000	-1.1399876220e+000
 1.0581971354e+000	 2.0982656702e+000	-1.0565122467e+000
 1.0369784552e+000	 2.1088327775e+000	-9.8596518657e-001
 1.0156899312e+000	 2.1191682245e+000	-9.2758913876e-001
 9.9433523896e-001	 2.1292715733e+000	-8.8065160187e-001
 9.7291804925e-001	 2.1391424613e+000	-8.4444591022e-001
 9.5144202657e-001	 2.1487806008e+000	-8.1829218674e-001
 9.2991082707e-001	 2.1581857783e+000	-8.0153821370e-001
 9.0832809685e-001	 2.1673578543e+000	-7.9356022087e-001
 8.8669747012e-001	 2.1762967621e+000	-7.9376359064e-001
 8.6502256746e-001	 2.1850025075e+000	-8.0158348035e-001
 1.0908246585e+000	 2.1096745162e+000	-1.1291489560e+000
 1.0694545517e+000	 2.1205876454e+000	-1.0519173871e+000
 1.0480101409e+000	 2.1312671688e+000	-9.8590246024e-001
 1.0264951433e+000	 2.1417125673e+000	-9.3030731595e-001
 1.0049132734e+000	 2.1519233985e+000	-8.8436248882e-001
 9.8326824127e-001	 2.1618992960e+000	-8.4732697051e-001
 9.6156375025e-001	 2.1716399689e+000	-8.1848918652e-001
 9.3980349544e-001	 2.1811452015e+000	-7.9716788612e-001
 9.1799116171e-001	 2.1904148527e+000	-7.8271294476e-001
 8.9613042193e-001	 2.1994488553e+000	-7.7450607903e-001
 8.7422493520e-001	 2.2082472150e+000	-7.7196147385e-001
 1.1023070233e+000	 2.1318816164e+000	-1.1408278880e+000
 1.0807119681e+000	 2.1429096206e+000	-1.0694307638e+000
 1.0590418266e+000	 2.1537015600e+000	-1.0075393825e+000
 1.0373003553e+000	 2.1642569101e+000	-9.5431675482e-001
 1.0154913079e+000	 2.1745752237e+000	-9.0895590108e-001
 9.9361843328e-001	 2.1846561306e+000	-8.7068094373e-001
 9.7168547394e-001	 2.1944993369e+000	-8.3874810866e-001
 9.4969616382e-001	 2.2041046247e+000	-8.1244663484e-001
 9.2765422657e-001	 2.2134718512e+000	-7.9109959170e-001
 9.0556337374e-001	 2.2226009485e+000	-7.7406460423e-001
 8.8342730294e-001	 2.2314919226e+000	-7.6073448556e-001
 1.1137893881e+000	 2.1540887166e+000	-1.1749914162e+000
 1.0919693844e+000	 2.1652315958e+000	-1.1090467633e+000
 1.0700735123e+000	 2.1761359513e+000	-1.0508966909e+000
 1.0481055673e+000	 2.1868012529e+000	-9.9966349182e-001
 1.0260693423e+000	 2.1972270490e+000	-9.5450210783e-001
 1.0039686253e+000	 2.2074129653e+000	-9.1460125251e-001
 9.8180719763e-001	 2.2173587050e+000	-8.7918443782e-001
 9.5958883219e-001	 2.2270640479e+000	-8.4751090408e-001
 9.3731729143e-001	 2.2365288496e+000	-8.1887645286e-001
 9.1499632555e-001	 2.2457530417e+000	-7.9261418261e-001
 8.9262967068e-001	 2.2547366301e+000	-7.6809512718e-001
 1.1252717530e+000	 2.1762958168e+000	-1.2316092532e+000
 1.1032268007e+000	 2.1875535710e+000	-1.1707617182e+000
 1.0811051980e+000	 2.1985703425e+000	-1.1159963310e+000
 1.0589107794e+000	 2.2093455957e+000	-1.0663940632e+000
 1.0366473768e+000	 2.2198788742e+000	-1.0210712000e+000
 1.0143188173e+000	 2.2301698000e+000	-9.7918049363e-001
 9.9192892132e-001	 2.2402180731e+000	-9.3991221576e-001
 9.6948150057e-001	 2.2500234710e+000	-9.0249510875e-001
 9.4698035630e-001	 2.2595858481e+000	-8.6619723440e-001
 9.2442927736e-001	 2.2689051349e+000	-8.3032672067e-001
 9.0183203843e-001	 2.2779813376e+000	-7.9423240652e-001
 1.1367541178e+000	 2.1985029169e+000	-1.3106536893e+000
 1.1144842171e+000	 2.2098755463e+000	-1.2545738095e+000
 1.0921368837e+000	 2.2210047338e+000	-1.2028613953e+000
 1.0697159914e+000	 2.2318899385e+000	-1.1545554798e+000
 1.0472254113e+000	 2.2425306995e+000	-1.1087330994e+000
 1.0246690093e+000	 2.2529266347e+000	-1.0645104798e+000
 1.0020506450e+000	 2.2630774412e+000	-1.0210441142e+000
 9.7937416894e-001	 2.2729828942e+000	-9.7753173694e-001
 9.5664342116e-001	 2.2826428465e+000	-9.3321318804e-001
 9.3386222918e-001	 2.2920572281e+000	-8.8737117211e-001
 9.1103440617e-001	 2.3012260451e+000	-8.3933190956e-001
 1.1482364826e+000	 2.2207100171e+000	-1.4120994633e+000
 1.1257416334e+000	 2.2321975215e+000	-1.3604829737e+000
 1.1031685694e+000	 2.2434391250e+000	-1.3115160662e+000
 1.0805212035e+000	 2.2544342814e+000	-1.2641952032e+000
 1.0578034457e+000	 2.2651825247e+000	-1.2175575671e+000
 1.0350192013e+000	 2.2756834694e+000	-1.1706822787e+000
 1.0121723687e+000	 2.2859368093e+000	-1.1226915035e+000
 9.8926683732e-001	 2.2959423174e+000	-1.0727514462e+000
 9.6630648602e-001	 2.3056998450e+000	-1.0200732338e+000
 9.4329518099e-001	 2.3152093213e+000	-9.6391368546e-001
 9.2023677391e-001	 2.3244707527e+000	-9.0357597148e-001
 8.2821309651e-001	 2.0920236774e+000	-1.1000321068e+000
 8.0742159012e-001	 2.1001357994e+000	-1.1037991088e+000
 7.8659457923e-001	 2.1080248974e+000	-1.0916733097e+000
 7.6573548144e-001	 2.1156911808e+000	-1.0633530745e+000
 7.4484769492e-001	 2.1231349254e+000	-1.0185837471e+000
 7.2393459685e-001	 2.1303564724e+000	-9.5715742195e-001
 7.0299954197e-001	 2.1373562277e+000	-8.7891262923e-001
 6.8204586113e-001	 2.1441346607e+000	-7.8373393660e-001
 6.6107685984e-001	 2.1506923038e+000	-6.7155146927e-001
 6.4009581698e-001	 2.1570297506e+000	-5.4234035141e-001
 6.1910598340e-001	 2.1631476559e+000	-4.0474429417e-001
 8.3741546425e-001	 2.1152683849e+000	-9.9883527565e-001
 8.1639294112e-001	 2.1234706416e+000	-9.9149006576e-001
 7.9533451899e-001	 2.1314473962e+000	-9.7112807992e-001
 7.7424365345e-001	 2.1391988606e+000	-9.3745905789e-001
 7.5312378041e-001	 2.1467253135e+000	-8.9023770600e-001
 7.3197831459e-001	 2.1540270999e+000	-8.2926349617e-001
 7.1081064799e-001	 2.1611046302e+000	-7.5438037973e-001
 6.8962414847e-001	 2.1679583792e+000	-6.6547641844e-001
 6.6842215828e-001	 2.1745888849e+000	-5.6248333508e-001
 6.4720799272e-001	 2.1809967479e+000	-4.4537598613e-001
 6.2598493877e-001	 2.1871826299e+000	-3.1417175954e-001
 8.4661783199e-001	 2.1385130925e+000	-9.1522290661e-001
 8.2536429212e-001	 2.1468054838e+000	-8.9842950982e-001
 8.0407445876e-001	 2.1548698951e+000	-8.7138665436e-001
 7.8275182547e-001	 2.1627065404e+000	-8.3381494056e-001
 7.6139986591e-001	 2.1703157015e+000	-7.8547801518e-001
 7.4002203233e-001	 2.1776977274e+000	-7.2618239719e-001
 7.1862175401e-001	 2.1848530328e+000	-6.5577721935e-001
 6.9720243581e-001	 2.1917820976e+000	-5.7415388786e-001
 6.7576745672e-001	 2.1984854661e+000	-4.8124566237e-001
 6.5432016846e-001	 2.2049637451e+000	-3.7702715891e-001
 6.3286389413e-001	 2.2112176038e+000	-2.6151377858e-001
 8.5582019972e-001	 2.1617578000e+000	-8.4940409572e-001
 8.3433564312e-001	 2.1701403260e+000	-8.2477545114e-001
 8.1281439853e-001	 2.1782923940e+000	-7.9255821379e-001
 7.9125999748e-001	 2.1862142202e+000	-7.5248333221e-001
 7.6967595141e-001	 2.1939060896e+000	-7.0432297221e-001
 7.4806575007e-001	 2.2013683548e+000	-6.4789036887e-001
 7.2643286003e-001	 2.2086014353e+000	-5.8303959516e-001
 7.0478072316e-001	 2.2156058161e+000	-5.0966524928e-001
 6.8311275516e-001	 2.2223820472e+000	-4.2770206325e-001
 6.6143234421e-001	 2.2289307423e+000	-3.3712443499e-001
 6.3974284950e-001	 2.2352525778e+000	-2.3794588680e-001
 8.6502256746e-001	 2.1850025075e+000	-8.0158348035e-001
 8.4330699412e-001	 2.1934751683e+000	-7.7068383263e-001
 8.2155433830e-001	 2.2017148928e+000	-7.3475215068e-001
 7.9976816950e-001	 2.2097219000e+000	-6.9352922042e-001
 7.7795203691e-001	 2.2174964776e+000	-6.4679530581e-001
 7.5610946781e-001	 2.2250389823e+000	-5.9437002644e-001
 7.3424396605e-001	 2.2323498378e+000	-5.3611215250e-001
 7.1235901050e-001	 2.2394295346e+000	-4.7191931908e-001
 6.9045805361e-001	 2.2462786284e+000	-4.0172766229e-001
 6.6854451995e-001	 2.2528977396e+000	-3.2551137952e-001
 6.4662180487e-001	 2.2592875518e+000	-2.4328221651e-001
 8.7422493520e-001	 2.2082472150e+000	-7.7196147385e-001
 8.5227834513e-001	 2.2168100105e+000	-7.3630863871e-001
 8.3029427807e-001	 2.2251373917e+000	-6.9807805805e-001
 8.0827634151e-001	 2.2332295797e+000	-6.5701984559e-001
 7.8622812241e-001	 2.2410868657e+000	-6.1292194270e-001
 7.6415318556e-001	 2.2487096098e+000	-5.6561002113e-001
 7.4205507208e-001	 2.2560982403e+000	-5.1494730352e-001
 7.1993729785e-001	 2.2632532530e+000	-4.6083430394e-001
 6.9780335205e-001	 2.2701752095e+000	-4.0320849061e-001
 6.7565669569e-001	 2.2768647368e+000	-3.4204387331e-001
 6.5350076025e-001	 2.2833225257e+000	-2.7735051792e-001
 8.8342730294e-001	 2.2314919226e+000	-7.6073448556e-001
 8.6124969613e-001	 2.2401448527e+000	-7.2180199731e-001
 8.3903421784e-001	 2.2485598905e+000	-6.8264571903e-001
 8.1678451353e-001	 2.2567372595e+000	-6.4302458354e-001
 7.9450420791e-001	 2.2646772538e+000	-6.0273378894e-001
 7.7219690330e-001	 2.2723802372e+000	-5.6160472580e-001
 7.4986617810e-001	 2.2798466429e+000	-5.1950482261e-001
 7.2751558520e-001	 2.2870769715e+000	-4.7633731172e-001
 7.0514865049e-001	 2.2940717907e+000	-4.3204091782e-001
 6.8276887144e-001	 2.3008317340e+000	-3.8658947142e-001
 6.6037971562e-001	 2.3073574997e+000	-3.3999144982e-001
 8.9262967068e-001	 2.2547366301e+000	-7.6809512718e-001
 8.7022104713e-001	 2.2634796949e+000	-7.2731427562e-001
 8.4777415761e-001	 2.2719823894e+000	-6.8856509705e-001
 8.2529268555e-001	 2.2802449393e+000	-6.5161483547e-001
 8.0278029341e-001	 2.2882676418e+000	-6.1626552482e-001
 7.8024062105e-001	 2.2960508647e+000	-5.8235394004e-001
 7.5767728412e-001	 2.3035950454e+000	-5.4975146694e-001
 7.3509387254e-001	 2.3109006899e+000	-5.1836389268e-001
 7.1249394894e-001	 2.3179683718e+000	-4.8813111911e-001
 6.8988104719e-001	 2.3247987313e+000	-4.5902680137e-001
 6.6725867099e-001	 2.3313924736e+000	-4.3105791420e-001
 9.0183203843e-001	 2.2779813376e+000	-7.9423240652e-001
 8.7919239814e-001	 2.2868145371e+000	-7.5299416984e-001
 8.5651409738e-001	 2.2954048883e+000	-7.1594632665e-001
 8.3380085757e-001	 2.3037526191e+000	-6.8286392463e-001
 8.1105637891e-001	 2.3118580299e+000	-6.5355541225e-001
 7.8828433879e-001	 2.3197214922e+000	-6.2786261327e-001
 7.6548839015e-001	 2.3273434479e+000	-6.0566062021e-001
 7.4267215989e-001	 2.3347244084e+000	-5.8685760873e-001
 7.1983924738e-001	 2.3418649530e+000	-5.7139457497e-001
 6.9699322293e-001	 2.3487657285e+000	-5.5924499825e-001
 6.7413762637e-001	 2.3554274476e+000	-5.5041443160e-001
 9.1103440617e-001	 2.3012260451e+000	-8.3933190956e-001
 8.8816374914e-001	 2.3101493793e+000	-7.9898878966e-001
 8.6525403716e-001	 2.3188273871e+000	-7.6489970484e-001
 8.4230902959e-001	 2.3272602989e+000	-7.3684699923e-001
 8.1933246442e-001	 2.3354484179e+000	-7.1464511396e-001
 7.9632805654e-001	 2.3433921197e+000	-6.9814058465e-001
 7.7329949618e-001	 2.3510918505e+000	-6.8721195792e-001
 7.5025044724e-001	 2.3585481268e+000	-6.8176962879e-001
 7.2718454583e-001	 2.3657615341e+000	-6.8175560123e-001
 7.0410539868e-001	 2.3727327257e+000	-6.8714317400e-001
 6.8101658174e-001	 2.3794624215e+000	-6.9793655435e-001
 9.2023677391e-001	 2.3244707527e+000	-9.0357597148e-001
 8.9713510015e-001	 2.3334842215e+000	-8.6544373751e-001
 8.7399397693e-001	 2.3422498860e+000	-8.3553568298e-001
 8.5081720161e-001	 2.3507679787e+000	-8.1364094118e-001
 8.2760854992e-001	 2.3590388060e+000	-7.9957952335e-001
 8.0437177429e-001	 2.3670627471e+000	-7.9320233861e-001
 7.8111060220e-001	 2.3748402530e+000	-7.9439113283e-001
 7.5782873460e-001	 2.3823718453e+000	-8.0305834845e-001
 7.3452984428e-001	 2.3896581153e+000	-8.1914690728e-001
 7.1121757443e-001	 2.3966997229e+000	-8.4262991858e-001
 6.8789553712e-001	 2.4034973955e+000	-8.7351031491e-001
 6.1910598340e-001	 2.1631476559e+000	-4.0474429417e-001
 5.9811058066e-001	 2.1690467338e+000	-3.5478009438e-001
 5.7711279978e-001	 2.1747277568e+000	-3.0082340123e-001
 5.5611580005e-001	 2.1801915551e+000	-2.4435316570e-001
 5.3512270782e-001	 2.1854390149e+000	-1.8676777723e-001
 5.1413661543e-001	 2.1904710774e+000	-1.2938240164e-001
 4.9316058010e-001	 2.1952887378e+000	-7.3426574600e-002
 4.7219762289e-001	 2.1998930440e+000	-2.0042050762e-002
 4.5125072774e-001	 2.2042850952e+000	 2.9719092007e-002
 4.3032284048e-001	 2.2084660407e+000	 7.4896094588e-002
 4.0941686796e-001	 2.2124370789e+000	 1.1462090676e-001
 6.2598493877e-001	 2.1871826299e+000	-3.1417175954e-001
 6.0475625377e-001	 2.1931472531e+000	-2.8246300124e-001
 5.8352516422e-001	 2.1988913986e+000	-2.4627157715e-001
 5.6229486449e-001	 2.2044159057e+000	-2.0550253669e-001
 5.4106851568e-001	 2.2097216706e+000	-1.6169635596e-001
 5.1984924449e-001	 2.2148096449e+000	-1.1630846139e-001
 4.9864014209e-001	 2.2196808349e+000	-7.0706621893e-002
 4.7744426314e-001	 2.2243363000e+000	-2.6168606601e-002
 4.5626462471e-001	 2.2287771518e+000	 1.6119892312e-002
 4.3510420537e-001	 2.2330045523e+000	 5.5067072913e-002
 4.1396594427e-001	 2.2370197131e+000	 8.9676574773e-002
 6.3286389413e-001	 2.2112176038e+000	-2.6151377858e-001
 6.1140192689e-001	 2.2172477723e+000	-2.3397952584e-001
 5.8993752866e-001	 2.2230550403e+000	-2.1332637163e-001
 5.6847392893e-001	 2.2286402563e+000	-1.8615190823e-001
 5.4701432354e-001	 2.2340043263e+000	-1.5414172856e-001
 5.2556187355e-001	 2.2391482124e+000	-1.1889439395e-001
 5.0411970409e-001	 2.2440729320e+000	-8.1918622789e-002
 4.8269090339e-001	 2.2487795561e+000	-4.4630754811e-002
 4.6127852168e-001	 2.2532692084e+000	-8.3524907857e-003
 4.3988557026e-001	 2.2575430638e+000	 2.5691093431e-002
 4.1851502058e-001	 2.2616023474e+000	 5.6373260379e-002
 6.3974284950e-001	 2.2352525778e+000	-2.3794588680e-001
 6.1804760000e-001	 2.2413482916e+000	-2.1099155940e-001
 5.9634989310e-001	 2.2472186821e+000	-2.0354526978e-001
 5.7465299337e-001	 2.2528646070e+000	-1.8775259813e-001
 5.5296013141e-001	 2.2582869820e+000	-1.6544737722e-001
 5.3127450260e-001	 2.2634867799e+000	-1.3837426989e-001
 5.0959926609e-001	 2.2684650291e+000	-1.0818575170e-001
 4.8793754364e-001	 2.2732228121e+000	-7.6439379701e-002
 4.6629241865e-001	 2.2777612650e+000	-4.4595347296e-002
 4.4466693515e-001	 2.2820815754e+000	-1.4014324075e-002
 4.2306409689e-001	 2.2861849816e+000	 1.4044421019e-002
 6.4662180487e-001	 2.2592875518e+000	-2.4328221651e-001
 6.2469327312e-001	 2.2654488109e+000	-2.1517610594e-001
 6.0276225754e-001	 2.2713823238e+000	-2.1850170965e-001
 5.8083205782e-001	 2.2770889576e+000	-2.1177281797e-001
 5.5890593927e-001	 2.2825696377e+000	-1.9697471828e-001
 5.3698713166e-001	 2.2878253475e+000	-1.7600123249e-001
 5.1507882809e-001	 2.2928571261e+000	-1.5065149124e-001
 4.9318418390e-001	 2.2976660682e+000	-1.2262700500e-001
 4.7130631563e-001	 2.3022533216e+000	-9.3529032144e-002
 4.4944830005e-001	 2.3066200870e+000	-6.4856243140e-002
 4.2761317319e-001	 2.3107676158e+000	-3.8002679061e-002
 6.5350076025e-001	 2.2833225257e+000	-2.7735051792e-001
 6.3133894624e-001	 2.2895493301e+000	-2.6331730872e-001
 6.0917462198e-001	 2.2955459656e+000	-2.5978424259e-001
 5.8701112226e-001	 2.3013133082e+000	-2.5969678398e-001
 5.6485174713e-001	 2.3068522935e+000	-2.5010215827e-001
 5.4269976072e-001	 2.3121639150e+000	-2.3304649387e-001
 5.2055839009e-001	 2.3172492232e+000	-2.1047856342e-001
 4.9843082415e-001	 2.3221093242e+000	-1.8424665493e-001
 4.7632021260e-001	 2.3267453782e+000	-1.5609575122e-001
 4.5422966494e-001	 2.3311585985e+000	-1.2766501676e-001
 4.3216224950e-001	 2.3353502500e+000	-1.0048559022e-001
 6.6037971562e-001	 2.3073574997e+000	-3.3999144982e-001
 6.3798461936e-001	 2.3136498494e+000	-3.4089896755e-001
 6.1558698643e-001	 2.3197096073e+000	-3.2899574613e-001
 5.9319018671e-001	 2.3255376588e+000	-3.3302388341e-001
 5.7079755500e-001	 2.3311349492e+000	-3.2622420900e-001
 5.4841238978e-001	 2.3365024825e+000	-3.1079839392e-001
 5.2603795209e-001	 2.3416413203e+000	-2.8884792754e-001
 5.0367746441e-001	 2.3465525803e+000	-2.6237078648e-001
 4.8133410958e-001	 2.3512374348e+000	-2.3325842332e-001
 4.5901102983e-001	 2.3556971101e+000	-2.0329307437e-001
 4.3671132581e-001	 2.3599328842e+000	-1.7414538500e-001
 6.6725867099e-001	 2.3313924736e+000	-4.3105791420e-001
 6.4463029248e-001	 2.3377503686e+000	-4.4701513054e-001
 6.2199935087e-001	 2.3438732491e+000	-4.2775268546e-001
 5.9936925116e-001	 2.3497620094e+000	-4.3326789261e-001
 5.7674336287e-001	 2.3554176049e+000	-4.2675065743e-001
 5.5412501884e-001	 2.3608410500e+000	-4.1056151740e-001
 5.3151751410e-001	 2.3660334174e+000	-3.8695784016e-001
 5.0892410466e-001	 2.3709958363e+000	-3.5809028774e-001
 4.8634800655e-001	 2.3757294915e+000	-3.2599961247e-001
 4.6379239473e-001	 2.3802356217e+000	-2.9261378395e-001
 4.4126040212e-001	 2.3845155184e+000	-2.5974544562e-001
 6.7413762637e-001	 2.3554274476e+000	-5.5041443160e-001
 6.5127596560e-001	 2.3618508879e+000	-5.8151737276e-001
 6.2841171532e-001	 2.3680368908e+000	-5.6562991882e-001
 6.0554831560e-001	 2.3739863600e+000	-5.6195624280e-001
 5.8268917073e-001	 2.3797002606e+000	-5.5310578631e-001
 5.5983764791e-001	 2.3851796176e+000	-5.3365586518e-001
 5.3699707610e-001	 2.3904255145e+000	-5.0602297258e-001
 5.1417074492e-001	 2.3954390923e+000	-4.7251353748e-001
 4.9136190353e-001	 2.4002215481e+000	-4.3532052559e-001
 4.6857375962e-001	 2.4047741332e+000	-3.9652038366e-001
 4.4580947843e-001	 2.4090981526e+000	-3.5807032577e-001
 6.8101658174e-001	 2.3794624215e+000	-6.9793655435e-001
 6.5792163873e-001	 2.3859514072e+000	-7.4426886772e-001
 6.3482407976e-001	 2.3922005325e+000	-7.3968484125e-001
 6.1172738005e-001	 2.3982107106e+000	-7.2062933050e-001
 5.8863497860e-001	 2.4039829163e+000	-7.0672764205e-001
 5.6555027697e-001	 2.4095181851e+000	-6.8141607557e-001
 5.4247663810e-001	 2.4148176116e+000	-6.4727358179e-001
 5.1941738517e-001	 2.4198823484e+000	-6.0676552184e-001
 4.9637580050e-001	 2.4247136047e+000	-5.6224007097e-001
 4.7335512452e-001	 2.4293126448e+000	-5.1592497833e-001
 4.5035855474e-001	 2.4336807868e+000	-4.6992468130e-001
 6.8789553712e-001	 2.4034973955e+000	-8.7351031491e-001
 6.6456731185e-001	 2.4100519264e+000	-9.3514380743e-001
 6.4123644421e-001	 2.4163641743e+000	-9.4196133619e-001
 6.1790644450e-001	 2.4224350612e+000	-9.1083986921e-001
 5.9458078647e-001	 2.4282655721e+000	-8.8906734655e-001
 5.7126290603e-001	 2.4338567526e+000	-8.5519069253e-001
 5.4795620010e-001	 2.4392097087e+000	-8.1195473124e-001
 5.2466402543e-001	 2.4443256044e+000	-7.6198700394e-001
 5.0138969748e-001	 2.4492056613e+000	-7.0779397320e-001
 4.7813648941e-001	 2.4538511564e+000	-6.5175759611e-001
 4.5490763105e-001	 2.4582634210e+000	-5.9613226513e-001
 4.0941686796e-001	 2.2124370789e+000	 1.1462090676e-001
 3.8853567716e-001	 2.2161994557e+000	 1.3266923303e-001
 3.6768209441e-001	 2.2197544633e+000	 1.5349898107e-001
 3.4685890457e-001	 2.2231034390e+000	 1.7624701308e-001
 3.2606885033e-001	 2.2262477636e+000	 2.0014246593e-001
 3.0531463152e-001	 2.2291888605e+000	 2.2450728044e-001
 2.8459890447e-001	 2.2319281941e+000	 2.4875649984e-001
 2.6392428140e-001	 2.2344672684e+000	 2.7239834269e-001
 2.4329332986e-001	 2.2368076260e+000	 2.9503405654e-001
 2.2270857224e-001	 2.2389508462e+000	 3.1635755857e-001
 2.0217248527e-001	 2.2408985444e+000	 3.3615487012e-001
 4.1396594427e-001	 2.2370197131e+000	 8.9676574773e-002
 3.9285274024e-001	 2.2408238941e+000	 9.7006532660e-002
 3.7176745101e-001	 2.2444184018e+000	 1.0821772387e-001
 3.5071289240e-001	 2.2478045883e+000	 1.2237828172e-001
 3.2969183756e-001	 2.2509838498e+000	 1.3865071055e-001
 3.0870701632e-001	 2.2539576256e+000	 1.5629250190e-001
 2.8776111452e-001	 2.2567273962e+000	 1.7465651155e-001
 2.6685677342e-001	 2.2592946825e+000	 1.9319110302e-001
 2.4599658909e-001	 2.2616610440e+000	 2.1144006392e-001
 2.2518311194e-001	 2.2638280779e+000	 2.2904230143e-001
 2.0441884622e-001	 2.2657974171e+000	 2.4573132398e-001
 4.1851502058e-001	 2.2616023474e+000	 5.6373260379e-002
 3.9716980332e-001	 2.2654483325e+000	 5.6247602177e-002
 3.7585280762e-001	 2.2690823403e+000	 6.0950246083e-002
 3.5456688023e-001	 2.2725057376e+000	 6.9478220873e-002
 3.3331482478e-001	 2.2757199361e+000	 8.0925206358e-002
 3.1209940111e-001	 2.2787263907e+000	 9.4482236259e-002
 2.9092332457e-001	 2.2815265984e+000	 1.0943815357e-001
 2.6978926543e-001	 2.2841220966e+000	 1.2517982413e-001
 2.4869984831e-001	 2.2865144621e+000	 1.4119211466e-001
 2.2765765163e-001	 2.2887053095e+000	 1.5705764201e-001
 2.0666520717e-001	 2.2906962898e+000	 1.7245630059e-001
 4.2306409689e-001	 2.2861849816e+000	 1.4044421019e-002
 4.0148686640e-001	 2.2900727709e+000	 9.7714287651e-003
 3.7993816422e-001	 2.2937462788e+000	 1.1122370935e-002
 3.5842086805e-001	 2.2972068869e+000	 1.7020738191e-002
 3.3693781201e-001	 2.3004560224e+000	 2.6489136539e-002
 3.1549178591e-001	 2.3034951558e+000	 3.8650076991e-002
 2.9408553462e-001	 2.3063258005e+000	 5.2726508974e-002
 2.7272175745e-001	 2.3089495107e+000	 6.8042103352e-002
 2.5140310753e-001	 2.3113678802e+000	 8.4021291417e-002
 2.3013219132e-001	 2.3135825411e+000	 1.0018906669e-001
 2.0891156812e-001	 2.3155951625e+000	 1.1617055684e-001
 4.2761317319e-001	 2.3107676158e+000	-3.8002679061e-002
 4.0580392948e-001	 2.3146972093e+000	-4.3067853083e-002
 3.8402352083e-001	 2.3184102172e+000	-4.1863693941e-002
 3.6227485588e-001	 2.3219080362e+000	-3.5542740236e-002
 3.4056079923e-001	 2.3251921086e+000	-2.5155765739e-002
 3.1888417070e-001	 2.3282639210e+000	-1.1650902893e-002
 2.9724774467e-001	 2.3311250027e+000	 4.1269684384e-003
 2.7565424947e-001	 2.3337769248e+000	 2.1436572913e-002
 2.5410636675e-001	 2.3362212982e+000	 3.9640338853e-002
 2.3260673101e-001	 2.3384597727e+000	 5.8204251575e-002
 2.1115792906e-001	 2.3404940352e+000	 7.6697468354e-002
 4.3216224950e-001	 2.3353502500e+000	-1.0048559022e-001
 4.1012099256e-001	 2.3393216477e+000	-1.0293965353e-001
 3.8810887743e-001	 2.3430741557e+000	-9.8628113610e-002
 3.6612884371e-001	 2.3466091856e+000	-8.8782086618e-002
 3.4418378646e-001	 2.3499281949e+000	-7.4528088366e-002
 3.2227655550e-001	 2.3530326861e+000	-5.6887070839e-002
 3.0040995472e-001	 2.3559242049e+000	-3.6773733306e-002
 2.7858674148e-001	 2.3586043389e+000	-1.4996101919e-002
 2.5680962597e-001	 2.3610747163e+000	 7.7446288111e-003
 2.3508127071e-001	 2.3633370043e+000	 3.0853999834e-002
 2.1340429001e-001	 2.3653929079e+000	 5.3843944286e-002
 4.3671132581e-001	 2.3599328842e+000	-1.7414538500e-001
 4.1443805563e-001	 2.3639460861e+000	-1.7053570112e-001
 3.9219423403e-001	 2.3677380942e+000	-1.5981226058e-001
 3.6998283154e-001	 2.3713103349e+000	-1.4328736218e-001
 3.4780677368e-001	 2.3746642811e+000	-1.2216568190e-001
 3.2566894029e-001	 2.3778014512e+000	-9.7543222221e-002
 3.0357216477e-001	 2.3807234070e+000	-7.0406545807e-002
 2.8151923350e-001	 2.3834317530e+000	-4.1632287044e-002
 2.5951288519e-001	 2.3859281344e+000	-1.1986934865e-002
 2.3755581040e-001	 2.3882142360e+000	 1.7873120544e-002
 2.1565065096e-001	 2.3902917807e+000	 4.7401284962e-002
 4.4126040212e-001	 2.3845155184e+000	-2.5974544562e-001
 4.1875511871e-001	 2.3885705245e+000	-2.4656889233e-001
 3.9627959064e-001	 2.3924020327e+000	-2.2607762163e-001
 3.7383681936e-001	 2.3960114842e+000	-1.9966777651e-001
 3.5142976091e-001	 2.3994003674e+000	-1.6862466664e-001
 3.2906132508e-001	 2.4025702163e+000	-1.3412163045e-001
 3.0673437482e-001	 2.4055226092e+000	-9.7219191335e-002
 2.8445172551e-001	 2.4082591671e+000	-5.8864501634e-002
 2.6221614441e-001	 2.4107815524e+000	-1.9891067456e-002
 2.4003035009e-001	 2.4130914676e+000	 1.8981253109e-002
 2.1789701191e-001	 2.4151906534e+000	 5.7145986450e-002
 4.4580947843e-001	 2.4090981526e+000	-3.5807032577e-001
 4.2307218179e-001	 2.4131949629e+000	-3.3177221159e-001
 4.0036494724e-001	 2.4170659712e+000	-2.9810477160e-001
 3.7769080719e-001	 2.4207126335e+000	-2.5855071057e-001
 3.5505274813e-001	 2.4241364537e+000	-2.1447850051e-001
 3.3245370987e-001	 2.4273389814e+000	-1.6714115522e-001
 3.0989658487e-001	 2.4303218113e+000	-1.1767530913e-001
 2.8738421752e-001	 2.4330865812e+000	-6.7100593991e-002
 2.6491940363e-001	 2.4356349705e+000	-1.6319306479e-002
 2.4250488978e-001	 2.4379686992e+000	 3.3883641224e-002
 2.2014337286e-001	 2.4400895261e+000	 8.2840495880e-002
 4.5035855474e-001	 2.4336807868e+000	-4.6992468130e-001
 4.2738924487e-001	 2.4378194013e+000	-4.2689771672e-001
 4.0445030384e-001	 2.4417299097e+000	-3.7659240930e-001
 3.8154479501e-001	 2.4454137828e+000	-3.2058079896e-001
 3.5867573535e-001	 2.4488725399e+000	-2.6031710341e-001
 3.3584609467e-001	 2.4521077465e+000	-1.9713640486e-001
 3.1305879491e-001	 2.4551210135e+000	-1.3225365150e-001
 2.9031670954e-001	 2.4579139953e+000	-6.6762967348e-002
 2.6762266285e-001	 2.4604883886e+000	-1.6372630873e-003
 2.4497942947e-001	 2.4628459308e+000	 6.2271859930e-002
 2.2238973381e-001	 2.4649883988e+000	 1.2423392099e-001
 4.5490763105e-001	 2.4582634210e+000	-5.9613226513e-001
 4.3170630795e-001	 2.4624438397e+000	-5.3271558528e-001
 4.0853566044e-001	 2.4663938481e+000	-4.6225645136e-001
 3.8539878284e-001	 2.4701149322e+000	-3.8641906726e-001
 3.6229872257e-001	 2.4736086262e+000	-3.0674603414e-001
 3.3923847946e-001	 2.4768765117e+000	-2.2465694886e-001
 3.1622100496e-001	 2.4799202156e+000	-1.4144732821e-001
 2.9324920155e-001	 2.4827414094e+000	-5.8287852118e-002
 2.7032592207e-001	 2.4853418066e+000	 2.3776081614e-002
 2.4745396916e-001	 2.4877231625e+000	 1.0382449905e-001
 2.2463609475e-001	 2.4898872715e+000	 1.8106269709e-001
 2.0217248527e-001	 2.2408985444e+000	 3.3615487012e-001
 1.8168749959e-001	 2.2426523700e+000	 3.5237846568e-001
 1.6125599940e-001	 2.2442140055e+000	 3.7080364135e-001
 1.4088032204e-001	 2.2455851654e+000	 3.9162948763e-001
 1.2056275773e-001	 2.2467675940e+000	 4.1513684747e-001
 1.0030554932e-001	 2.2477630651e+000	 4.4168684511e-001
 8.0110891976e-002	 2.2485733799e+000	 4.7171926294e-001
 5.9980933064e-002	 2.2492003663e+000	 5.0575077458e-001
 3.9917771955e-002	 2.2496458769e+000	 5.4437304270e-001
 1.9923459911e-002	 2.2499117884e+000	 5.8825069020e-001
 0.0000000000e+000	 2.2500000000e+000	 6.3811915321e-001
 2.0441884622e-001	 2.2657974171e+000	 2.4573132398e-001
 1.8370624959e-001	 2.2675707296e+000	 2.6578001661e-001
 1.6304773272e-001	 2.2691497167e+000	 2.8795590241e-001
 1.4244565895e-001	 2.2705361116e+000	 3.1234640461e-001
 1.2190234393e-001	 2.2717316784e+000	 3.3912515086e-001
 1.0142005542e-001	 2.2727382103e+000	 3.6855053306e-001
 8.1001012998e-002	 2.2735575286e+000	 4.0096410588e-001
 6.0647387876e-002	 2.2741914815e+000	 4.3678883272e-001
 4.0361302754e-002	 2.2746419422e+000	 4.7652718782e-001
 2.0144831687e-002	 2.2749108083e+000	 5.2075912333e-001
 0.0000000000e+000	 2.2750000000e+000	 5.7013991037e-001
 2.0666520717e-001	 2.2906962898e+000	 1.7245630059e-001
 1.8572499959e-001	 2.2924890893e+000	 1.9472672926e-001
 1.6483946605e-001	 2.2940854279e+000	 2.1890440292e-001
 1.4401099586e-001	 2.2954870579e+000	 2.4496552890e-001
 1.2324193013e-001	 2.2966957628e+000	 2.7297711318e-001
 1.0253456153e-001	 2.2977133554e+000	 3.0309554831e-001
 8.1891134020e-002	 2.2985416773e+000	 3.3556503081e-001
 6.1313842688e-002	 2.2991825966e+000	 3.7071581690e-001
 4.0804833554e-002	 2.2996380075e+000	 4.0896232567e-001
 2.0366203464e-002	 2.2999098282e+000	 4.5080109877e-001
 0.0000000000e+000	 2.3000000000e+000	 4.9680862595e-001
 2.0891156812e-001	 2.3155951625e+000	 1.1617055684e-001
 1.8774374958e-001	 2.3174074490e+000	 1.3922040636e-001
 1.6663119938e-001	 2.3190211390e+000	 1.6381202463e-001
 1.4557633277e-001	 2.3204380042e+000	 1.8981077302e-001
 1.2458151633e-001	 2.3216598471e+000	 2.1717754996e-001
 1.0364906763e-001	 2.3226885006e+000	 2.4596740437e-001
 8.2781255043e-002	 2.3235258259e+000	 2.7632796896e-001
 6.1980297500e-002	 2.3241737118e+000	 3.0849772274e-001
 4.1248364354e-002	 2.3246340728e+000	 3.4280409199e-001
 2.0587575241e-002	 2.3249088481e+000	 3.7966139929e-001
 0.0000000000e+000	 2.3250000000e+000	 4.1956867009e-001
 2.1115792906e-001	 2.3404940352e+000	 7.6697468354e-002
 1.8976249958e-001	 2.3423258086e+000	 9.9241334203e-002
 1.6842293271e-001	 2.3439568502e+000	 1.2281593188e-001
 1.4714166968e-001	 2.3453889505e+000	 1.4717606749e-001
 1.2592110253e-001	 2.3466239315e+000	 1.7217696900e-001
 1.0476357374e-001	 2.3476636458e+000	 1.9777292235e-001
 8.3671376066e-002	 2.3485099746e+000	 2.2401571786e-001
 6.2646752313e-002	 2.3491648270e+000	 2.5105291645e-001
 4.1691895154e-002	 2.3496301381e+000	 2.7912594531e-001
 2.0808947019e-002	 2.3499078679e+000	 3.0856803286e-001
 0.0000000000e+000	 2.3500000000e+000	 3.3980199294e-001
 2.1340429001e-001	 2.3653929079e+000	 5.3843944286e-002
 1.9178124958e-001	 2.3672441683e+000	 7.4749415051e-002
 1.7021466604e-001	 2.3688925614e+000	 9.6028925046e-002
 1.4870700660e-001	 2.3703398968e+000	 1.1732693886e-001
 1.2726068872e-001	 2.3715880159e+000	 1.3839337607e-001
 1.0587807984e-001	 2.3726387909e+000	 1.5908226742e-001
 8.4561497090e-002	 2.3734941233e+000	 1.7935021151e-001
 6.3313207127e-002	 2.3741559422e+000	 1.9925464167e-001
 4.2135425955e-002	 2.3746262034e+000	 2.1895191316e-001
 2.1030318796e-002	 2.3749068878e+000	 2.3869522080e-001
 0.0000000000e+000	 2.3750000000e+000	 2.5883235728e-001
 2.1565065096e-001	 2.3902917807e+000	 4.7401284962e-002
 1.9379999957e-001	 2.3921625279e+000	 6.5685228829e-002
 1.7200639936e-001	 2.3938282726e+000	 8.3540709596e-002
 1.5027234351e-001	 2.3952908430e+000	 1.0050198909e-001
 1.2860027492e-001	 2.3965521003e+000	 1.1621396770e-001
 1.0699258595e-001	 2.3976139361e+000	 1.3043085798e-001
 8.5451618114e-002	 2.3984782719e+000	 1.4301464873e-001
 6.3979661940e-002	 2.3991470574e+000	 1.5393336960e-001
 4.2578956756e-002	 2.3996222687e+000	 1.6325916661e-001
 2.1251690574e-002	 2.3999059077e+000	 1.7116619917e-001
 0.0000000000e+000	 2.4000000000e+000	 1.7792836909e-001
 2.1789701191e-001	 2.4151906534e+000	 5.7145986450e-002
 1.9581874957e-001	 2.4170808876e+000	 7.1971029112e-002
 1.7379813269e-001	 2.4187639837e+000	 8.5419086481e-002
 1.5183768043e-001	 2.4202417893e+000	 9.6914283393e-002
 1.2993986112e-001	 2.4215161846e+000	 1.0599671930e-001
 1.0810709205e-001	 2.4225890813e+000	 1.1232115670e-001
 8.6341739139e-002	 2.4234624206e+000	 1.1565548978e-001
 6.4646116755e-002	 2.4241381725e+000	 1.1587900372e-001
 4.3022487557e-002	 2.4246183340e+000	 1.1298043549e-001
 2.1473062351e-002	 2.4249049275e+000	 1.0705584687e-001
 0.0000000000e+000	 2.4250000000e+000	 9.8306320722e-002
 2.2014337286e-001	 2.4400895261e+000	 8.2840495880e-002
 1.9783749957e-001	 2.4419992473e+000	 9.3511678145e-002
 1.7558986602e-001	 2.4436996949e+000	 1.0171106974e-001
 1.5340301734e-001	 2.4451927356e+000	 1.0675265314e-001
 1.3127944732e-001	 2.4464802690e+000	 1.0807187603e-001
 1.0922159816e-001	 2.4475642264e+000	 1.0522435198e-001
 8.7231860164e-002	 2.4484465693e+000	 9.7884330790e-002
 6.5312571569e-002	 2.4491292877e+000	 8.5842949643e-002
 4.3466018359e-002	 2.4496143993e+000	 6.9006275880e-002
 2.1694434129e-002	 2.4499039474e+000	 4.7393152828e-002
 0.0000000000e+000	 2.4500000000e+000	 2.1132859938e-002
 2.2238973381e-001	 2.4649883988e+000	 1.2423392099e-001
 1.9985624957e-001	 2.4669176069e+000	 1.3019552519e-001
 1.7738159935e-001	 2.4686354061e+000	 1.3244393635e-001
 1.5496835426e-001	 2.4701436819e+000	 1.3018291979e-001
 1.3261903353e-001	 2.4714443534e+000	 1.2274335332e-001
 1.1033610427e-001	 2.4725393716e+000	 1.0958193741e-001
 8.8121981189e-002	 2.4734307179e+000	 9.0279664596e-002
 6.5979026384e-002	 2.4741204029e+000	 6.4540059395e-002
 4.3909549161e-002	 2.4746104646e+000	 3.2187200027e-002
 2.1915805907e-002	 2.4749029673e+000	-6.8364662877e-003
 0.0000000000e+000	 2.4750000000e+000	-5.2472502782e-002
 2.2463609475e-001	 2.4898872715e+000	 1.8106269709e-001
 2.0187499956e-001	 2.4918359666e+000	 1.8189523218e-001
 1.7917333268e-001	 2.4935711173e+000	 1.7762621304e-001
 1.5653369117e-001	 2.4950946282e+000	 1.6734904540e-001
 1.3395861973e-001	 2.4964084378e+000	 1.5029005335e-001
 1.1145061038e-001	 2.4975145168e+000	 1.2580719655e-001
 8.9012102215e-002	 2.4984148666e+000	 9.3388535873e-002
 6.6645481200e-002	 2.4991115181e+000	 5.2650459121e-002
 4.4353079963e-002	 2.4996065299e+000	 3.3356785822e-003
 2.2137177686e-002	 2.4999019872e+000	-5.4688987492e-002
 0.0000000000e+000	 2.5000000000e+000	-1.2143503738e-001
 2.5000000000e+000	 0.0000000000e+000	 1.9037696969e+000
 2.4999019872e+000	 2.2137177686e-002	 1.9284469272e+000
 2.4996065299e+000	 4.4353079963e-002	 1.9446789603e+000
 2.4991115181e+000	 6.6645481200e-002	 1.9540335995e+000
 2.4984148666e+000	 8.9012102215e-002	 1.9579703325e+000
 2.4975145168e+000	 1.1145061038e-001	 1.9578349115e+000
 2.4964084378e+000	 1.3395861973e-001	 1.9548540292e+000
 2.4950946282e+000	 1.5653369117e-001	 1.9501301058e+000
 2.4935711173e+000	 1.7917333268e-001	 1.9446362026e+000
 2.4918359666e+000	 2.0187499956e-001	 1.9392110796e+000
 2.4898872715e+000	 2.2463609475e-001	 1.9345544118e+000
 2.5250000000e+000	 0.0000000000e+000	 1.8757052122e+000
 2.5249010070e+000	 2.2358549464e-002	 1.8941250071e+000
 2.5246025952e+000	 4.4796610765e-002	 1.9029770147e+000
 2.5241026333e+000	 6.7311936015e-002	 1.9019323004e+000
 2.5233990153e+000	 8.9902223242e-002	 1.8907580468e+000
 2.5224896619e+000	 1.1256511648e-001	 1.8693209619e+000
 2.5213725222e+000	 1.3529820593e-001	 1.8375905950e+000
 2.5200455744e+000	 1.5809902809e-001	 1.7956425500e+000
 2.5185068284e+000	 1.8096506601e-001	 1.7436615861e+000
 2.5167543263e+000	 2.0389374956e-001	 1.6819445941e+000
 2.5147861442e+000	 2.2688245570e-001	 1.6109034383e+000
 2.5500000000e+000	 0.0000000000e+000	 1.8493742279e+000
 2.5499000269e+000	 2.2579921242e-002	 1.8632051302e+000
 2.5495986605e+000	 4.5240141567e-002	 1.8686734041e+000
 2.5490937484e+000	 6.7978390830e-002	 1.8654842648e+000
 2.5483831639e+000	 9.0792344267e-002	 1.8534414017e+000
 2.5474648071e+000	 1.1367962259e-001	 1.8324504333e+000
 2.5463366065e+000	 1.3663779213e-001	 1.8025222658e+000
 2.5449965207e+000	 1.5966436500e-001	 1.7637763463e+000
 2.5434425396e+000	 1.8275679934e-001	 1.7164437982e+000
 2.5416726859e+000	 2.0591249956e-001	 1.6608704289e+000
 2.5396850170e+000	 2.2912881665e-001	 1.5975195973e+000
 2.5750000000e+000	 0.0000000000e+000	 1.8246671700e+000
 2.5748990468e+000	 2.2801293020e-002	 1.8350216736e+000
 2.5745947258e+000	 4.5683672368e-002	 1.8381114470e+000
 2.5740848636e+000	 6.8644845644e-002	 1.8336744864e+000
 2.5733673126e+000	 9.1682465292e-002	 1.8215497106e+000
 2.5724399523e+000	 1.1479412870e-001	 1.8016804655e+000
 2.5713006909e+000	 1.3797737833e-001	 1.7741179298e+000
 2.5699474670e+000	 1.6122970192e-001	 1.7390244107e+000
 2.5683782508e+000	 1.8454853267e-001	 1.6966765181e+000
 2.5665910456e+000	 2.0793124956e-001	 1.6474682059e+000
 2.5645838897e+000	 2.3137517760e-001	 1.5919136694e+000
 2.6000000000e+000	 0.0000000000e+000	 1.8014786793e+000
 2.5998980666e+000	 2.3022664798e-002	 1.8094389743e+000
 2.5995907911e+000	 4.6127203170e-002	 1.8111252481e+000
 2.5990759788e+000	 6.9311300459e-002	 1.8063069232e+000
 2.5983514613e+000	 9.2572586317e-002	 1.7948568846e+000
 2.5974150974e+000	 1.1590863480e-001	 1.7767550384e+000
 2.5962647753e+000	 1.3931696453e-001	 1.7520917675e+000
 2.5948984133e+000	 1.6279503883e-001	 1.7210712730e+000
 2.5933139620e+000	 1.8634026600e-001	 1.6840147907e+000
 2.5915094053e+000	 2.0994999955e-001	 1.6413636700e+000
 2.5894827624e+000	 2.3362153855e-001	 1.5936823033e+000
 2.6250000000e+000	 0.0000000000e+000	 1.7797074099e+000
 2.6248970865e+000	 2.3244036575e-002	 1.7863263628e+000
 2.6245868564e+000	 4.6570733970e-002	 1.7875548403e+000
 2.6240670940e+000	 6.9977755272e-002	 1.7831923496e+000
 2.6233356099e+000	 9.3462707341e-002	 1.7731444929e+000
 2.6223902426e+000	 1.1702314091e-001	 1.7574265836e+000
 2.6212288597e+000	 1.4065655073e-001	 1.7361671555e+000
 2.6198493596e+000	 1.6436037574e-001	 1.7096113539e+000
 2.6182496731e+000	 1.8813199933e-001	 1.6781241972e+000
 2.6164277650e+000	 2.1196874955e-001	 1.6421936961e+000
 2.6143816351e+000	 2.3586789950e-001	 1.6024338199e+000
 2.6500000000e+000	 0.0000000000e+000	 1.7592558405e+000
 2.6498961064e+000	 2.3465408353e-002	 1.7655579276e+000
 2.6495829217e+000	 4.7014264771e-002	 1.7672459051e+000
 2.6490582092e+000	 7.0644210086e-002	 1.7641480351e+000
 2.6483197586e+000	 9.4352828365e-002	 1.7562014012e+000
 2.6473653878e+000	 1.1813764702e-001	 1.7434555851e+000
 2.6461929440e+000	 1.4199613693e-001	 1.7260762328e+000
 2.6448003059e+000	 1.6592571266e-001	 1.7043484992e+000
 2.6431853843e+000	 1.8992373266e-001	 1.6786803578e+000
 2.6413461246e+000	 2.1398749955e-001	 1.6496057643e+000
 2.6392805078e+000	 2.3811426044e-001	 1.6177876614e+000
 2.6750000000e+000	 0.0000000000e+000	 1.7400300954e+000
 2.6748951263e+000	 2.3686780130e-002	 1.7470122933e+000
 2.6745789870e+000	 4.7457795571e-002	 1.7500495088e+000
 2.6740493244e+000	 7.1310664899e-002	 1.7489974412e+000
 2.6733039073e+000	 9.5242949388e-002	 1.7438234315e+000
 2.6723405329e+000	 1.1925215312e-001	 1.7346102036e+000
 2.6711570284e+000	 1.4333572313e-001	 1.7215594913e+000
 2.6697512521e+000	 1.6749104957e-001	 1.7049955389e+000
 2.6681210955e+000	 1.9171546598e-001	 1.6853684630e+000
 2.6662644843e+000	 2.1600624954e-001	 1.6632574640e+000
 2.6641793805e+000	 2.4036062139e-001	 1.6393738721e+000
 2.7000000000e+000	 0.0000000000e+000	 1.7219397758e+000
 2.6998941461e+000	 2.3908151907e-002	 1.7305724101e+000
 2.6995750523e+000	 4.7901326371e-002	 1.7358218531e+000
 2.6990404395e+000	 7.1977119711e-002	 1.7375699339e+000
 2.6982880559e+000	 9.6133070411e-002	 1.7358130390e+000
 2.6973156781e+000	 1.2036665923e-001	 1.7306659208e+000
 2.6961211128e+000	 1.4467530933e-001	 1.7223653890e+000
 2.6947021984e+000	 1.6905638648e-001	 1.7112738712e+000
 2.6930568066e+000	 1.9350719931e-001	 1.6978828304e+000
 2.6911828440e+000	 2.1802499954e-001	 1.6828160263e+000
 2.6890782533e+000	 2.4260698234e-001	 1.6668326072e+000
 2.7250000000e+000	 0.0000000000e+000	 1.7048978002e+000
 2.7248931660e+000	 2.4129523684e-002	 1.7161253557e+000
 2.7245711176e+000	 4.8344857171e-002	 1.7244240395e+000
 2.7240315547e+000	 7.2643574523e-002	 1.7297005139e+000
 2.7232722046e+000	 9.7023191433e-002	 1.7319790089e+000
 2.7222908233e+000	 1.2148116533e-001	 1.7314052037e+000
 2.7210851972e+000	 1.4601489552e-001	 1.7282499846e+000
 2.7196531447e+000	 1.7062172340e-001	 1.7229130700e+000
 2.7179925178e+000	 1.9529893264e-001	 1.7159264859e+000
 2.7161012036e+000	 2.2004374954e-001	 1.7079578813e+000
 2.7139771260e+000	 2.4485334329e-001	 1.6998136692e+000
 2.7500000000e+000	 0.0000000000e+000	 1.6888202539e+000
 2.7498921859e+000	 2.4350895461e-002	 1.7035621475e+000
 2.7495671829e+000	 4.8788387970e-002	 1.7157218468e+000
 2.7490226699e+000	 7.3310029335e-002	 1.7252295594e+000
 2.7482563533e+000	 9.7913312455e-002	 1.7321361679e+000
 2.7472659684e+000	 1.2259567143e-001	 1.7366171868e+000
 2.7460492816e+000	 1.4735448172e-001	 1.7389765922e+000
 2.7446040910e+000	 1.7218706031e-001	 1.7396505127e+000
 2.7429282290e+000	 1.9709066597e-001	 1.7392107678e+000
 2.7410195633e+000	 2.2206249953e-001	 1.7383682404e+000
 2.7388759987e+000	 2.4709970424e-001	 1.7379760692e+000
 2.4898872715e+000	 2.2463609475e-001	 1.9345544118e+000
 2.4877231625e+000	 2.4745396916e-001	 1.9565173559e+000
 2.4853418066e+000	 2.7032592207e-001	 1.9812003566e+000
 2.4827414094e+000	 2.9324920155e-001	 2.0089266431e+000
 2.4799202156e+000	 3.1622100496e-001	 2.0398633329e+000
 2.4768765117e+000	 3.3923847946e-001	 2.0740176286e+000
 2.4736086262e+000	 3.6229872257e-001	 2.1112332721e+000
 2.4701149322e+000	 3.8539878284e-001	 2.1511872718e+000
 2.4663938481e+000	 4.0853566044e-001	 2.1933869203e+000
 2.4624438397e+000	 4.3170630795e-001	 2.2371671166e+000
 2.4582634210e+000	 4.5490763105e-001	 2.2816880106e+000
 2.5147861442e+000	 2.2688245570e-001	 1.6109034383e+000
 2.5126003941e+000	 2.4992850885e-001	 1.5579438135e+000
 2.5101952247e+000	 2.7302918129e-001	 1.4968220405e+000
 2.5075688234e+000	 2.9618169356e-001	 1.4283499993e+000
 2.5047194178e+000	 3.1938321501e-001	 1.3534648536e+000
 2.5016452768e+000	 3.4263086425e-001	 1.2732310214e+000
 2.4983447125e+000	 3.6592170980e-001	 1.2502930480e+000
 2.4948160815e+000	 3.8925277066e-001	 1.2962580028e+000
 2.4910577866e+000	 4.1262101704e-001	 1.3505876191e+000
 2.4870682781e+000	 4.3602337102e-001	 1.4125882444e+000
 2.4828460553e+000	 4.5945670736e-001	 1.4813819937e+000
 2.5396850170e+000	 2.2912881665e-001	 1.5975195973e+000
 2.5374776257e+000	 2.5240304855e-001	 1.5546973957e+000
 2.5350486428e+000	 2.7573244051e-001	 1.5043828293e+000
 2.5323962375e+000	 2.9911418558e-001	 1.4474194661e+000
 2.5295186200e+000	 3.2254542506e-001	 1.3847791196e+000
 2.5264140419e+000	 3.4602324904e-001	 1.3175638519e+000
 2.5230807987e+000	 3.6954469702e-001	 1.2470077705e+000
 2.5195172308e+000	 3.9310675849e-001	 1.1744786069e+000
 2.5157217251e+000	 4.1670637365e-001	 1.1014790665e+000
 2.5116927165e+000	 4.4034043410e-001	 1.0296479394e+000
 2.5074286895e+000	 4.6400578367e-001	 9.6076096231e-001
 2.5645838897e+000	 2.3137517760e-001	 1.5919136694e+000
 2.5623548573e+000	 2.5487758824e-001	 1.5585055681e+000
 2.5599020608e+000	 2.7843569973e-001	 1.5181752254e+000
 2.5572236516e+000	 3.0204667759e-001	 1.4717980343e+000
 2.5543178221e+000	 3.2570763510e-001	 1.4203807142e+000
 2.5511828070e+000	 3.4941563383e-001	 1.3650633497e+000
 2.5478168850e+000	 3.7316768424e-001	 1.3071212173e+000
 2.5442183801e+000	 3.9696074632e-001	 1.2479663863e+000
 2.5403856636e+000	 4.2079173025e-001	 1.1891490860e+000
 2.5363171549e+000	 4.4465749718e-001	 1.1323588269e+000
 2.5320113237e+000	 4.6855485998e-001	 1.0794252661e+000
 2.5894827624e+000	 2.3362153855e-001	 1.5936823033e+000
 2.5872320890e+000	 2.5735212793e-001	 1.5689566826e+000
 2.5847554789e+000	 2.8113895895e-001	 1.5377790450e+000
 2.5820510657e+000	 3.0497916961e-001	 1.5010567533e+000
 2.5791170243e+000	 3.2886984515e-001	 1.4598316993e+000
 2.5759515721e+000	 3.5280801863e-001	 1.4152823795e+000
 2.5725529713e+000	 3.7679067147e-001	 1.3687257532e+000
 2.5689195295e+000	 4.0081473414e-001	 1.3216188691e+000
 2.5650496021e+000	 4.2487708685e-001	 1.2755602504e+000
 2.5609415933e+000	 4.4897456026e-001	 1.2322910285e+000
 2.5565939579e+000	 4.7310393629e-001	 1.1936958123e+000
 2.6143816351e+000	 2.3586789950e-001	 1.6024338199e+000
 2.6121093206e+000	 2.5982666762e-001	 1.5856504689e+000
 2.6096088970e+000	 2.8384221817e-001	 1.5627851524e+000
 2.6068784798e+000	 3.0791166162e-001	 1.5347773570e+000
 2.6039162264e+000	 3.3203205520e-001	 1.5027044222e+000
 2.6007203373e+000	 3.5620040342e-001	 1.4677836560e+000
 2.5972890575e+000	 3.8041365869e-001	 1.4313742262e+000
 2.5936206788e+000	 4.0466872197e-001	 1.3949788140e+000
 2.5897135406e+000	 4.2896244345e-001	 1.3602450201e+000
 2.5855660317e+000	 4.5329162333e-001	 1.3289665107e+000
 2.5811765921e+000	 4.7765301260e-001	 1.3030838939e+000
 2.6392805078e+000	 2.3811426044e-001	 1.6177876614e+000
 2.6369865522e+000	 2.6230120731e-001	 1.6081974978e+000
 2.6344623150e+000	 2.8654547739e-001	 1.5927949397e+000
 2.6317058939e+000	 3.1084415364e-001	 1.5725517597e+000
 2.6287154286e+000	 3.3519426525e-001	 1.5485810299e+000
 2.6254891024e+000	 3.5959278821e-001	 1.5221392794e+000
 2.6220251438e+000	 3.8403664592e-001	 1.4946284212e+000
 2.6183218281e+000	 4.0852270980e-001	 1.4675974348e+000
 2.6143774790e+000	 4.3304780006e-001	 1.4427437940e+000
 2.6101904701e+000	 4.5760868641e-001	 1.4219146283e+000
 2.6057592263e+000	 4.8220208891e-001	 1.4071076066e+000
 2.6641793805e+000	 2.4036062139e-001	 1.6393738721e+000
 2.6618637839e+000	 2.6477574700e-001	 1.6362186746e+000
 2.6593157331e+000	 2.8924873661e-001	 1.6274198345e+000
 2.6565333080e+000	 3.1377664565e-001	 1.6139815806e+000
 2.6535146308e+000	 3.3835647530e-001	 1.5970530114e+000
 2.6502578675e+000	 3.6298517301e-001	 1.5779302970e+000
 2.6467612300e+000	 3.8765963314e-001	 1.5580586433e+000
 2.6430229774e+000	 4.1237669763e-001	 1.5390340052e+000
 2.6390414175e+000	 4.3713315666e-001	 1.5226045388e+000
 2.6348149085e+000	 4.6192574949e-001	 1.5106717789e+000
 2.6303418605e+000	 4.8675116522e-001	 1.5052915315e+000
 2.6890782533e+000	 2.4260698234e-001	 1.6668326072e+000
 2.6867410155e+000	 2.6725028670e-001	 1.6693447609e+000
 2.6841691512e+000	 2.9195199583e-001	 1.6662808353e+000
 2.6813607221e+000	 3.1670913767e-001	 1.6586776940e+000
 2.6783138329e+000	 3.4151868535e-001	 1.6477207650e+000
 2.6750266326e+000	 3.6637755780e-001	 1.6347462888e+000
 2.6714973163e+000	 3.9128262037e-001	 1.6212433224e+000
 2.6677241268e+000	 4.1623068545e-001	 1.6088554856e+000
 2.6637053560e+000	 4.4121851326e-001	 1.5993824384e+000
 2.6594393469e+000	 4.6624281257e-001	 1.5947810765e+000
 2.6549244947e+000	 4.9130024153e-001	 1.5971664345e+000
 2.7139771260e+000	 2.4485334329e-001	 1.6998136692e+000
 2.7116182471e+000	 2.6972482639e-001	 1.7072159218e+000
 2.7090225692e+000	 2.9465525505e-001	 1.7090080724e+000
 2.7061881362e+000	 3.1964162968e-001	 1.7062598055e+000
 2.7031130351e+000	 3.4468089540e-001	 1.7001931898e+000
 2.6997953977e+000	 3.6976994260e-001	 1.6921849760e+000
 2.6962334026e+000	 3.9490560759e-001	 1.6837686411e+000
 2.6924252761e+000	 4.2008467328e-001	 1.6766361708e+000
 2.6883692945e+000	 4.4530386987e-001	 1.6726395630e+000
 2.6840637853e+000	 4.7055987565e-001	 1.6737920441e+000
 2.6795071290e+000	 4.9584931784e-001	 1.6822689828e+000
 2.7388759987e+000	 2.4709970424e-001	 1.7379760692e+000
 2.7364954787e+000	 2.7219936608e-001	 1.7494812992e+000
 2.7338759873e+000	 2.9735851428e-001	 1.7552403931e+000
 2.7310155503e+000	 3.2257412170e-001	 1.7563560497e+000
 2.7279122372e+000	 3.4784310545e-001	 1.7540872994e+000
 2.7245641628e+000	 3.7316232739e-001	 1.7498518511e+000
 2.7209694888e+000	 3.9852859482e-001	 1.7452281822e+000
 2.7171264254e+000	 4.2393866111e-001	 1.7419573562e+000
 2.7130332330e+000	 4.4938922647e-001	 1.7419445561e+000
 2.7086882237e+000	 4.7487693873e-001	 1.7472603217e+000
 2.7040897632e+000	 5.0039839415e-001	 1.7601414762e+000
 2.4582634210e+000	 4.5490763105e-001	 2.2816880106e+000
 2.4538511564e+000	 4.7813648941e-001	 2.2610178875e+000
 2.4492056613e+000	 5.0138969748e-001	 2.2320691585e+000
 2.4443256044e+000	 5.2466402543e-001	 2.1931493486e+000
 2.4392097087e+000	 5.4795620010e-001	 2.1423861067e+000
 2.4338567526e+000	 5.7126290603e-001	 2.0777270057e+000
 2.4282655721e+000	 5.9458078647e-001	 1.9969397536e+000
 2.4224350612e+000	 6.1790644450e-001	 1.8976128243e+000
 2.4163641743e+000	 6.4123644421e-001	 1.8590509352e+000
 2.4100519264e+000	 6.6456731185e-001	 1.7923537297e+000
 2.4034973955e+000	 6.8789553712e-001	 1.6544788412e+000
 2.4828460553e+000	 4.5945670736e-001	 1.4813819937e+000
 2.4783896679e+000	 4.8291785430e-001	 1.4810447841e+000
 2.4736977179e+000	 5.0640359445e-001	 1.4790993126e+000
 2.4687688605e+000	 5.2991066568e-001	 1.4737787930e+000
 2.4636018058e+000	 5.5343576211e-001	 1.4631259287e+000
 2.4581953202e+000	 5.7697553510e-001	 1.4449926465e+000
 2.4525482278e+000	 6.0052659434e-001	 1.4170402589e+000
 2.4466594119e+000	 6.2408550895e-001	 1.3767400639e+000
 2.4405278160e+000	 6.4764880865e-001	 1.4318336306e+000
 2.4341524457e+000	 6.7121298497e-001	 1.4224989134e+000
 2.4275323694e+000	 6.9477449249e-001	 1.3434290151e+000
 2.5074286895e+000	 4.6400578367e-001	 9.6076096231e-001
 2.5029281795e+000	 4.8769921920e-001	 8.1150806725e-001
 2.4981897745e+000	 5.1141749143e-001	 7.2917566400e-001
 2.4932121165e+000	 5.3515730594e-001	 7.5808652610e-001
 2.4879939028e+000	 5.5891532411e-001	 7.8825737412e-001
 2.4825338877e+000	 5.8268816416e-001	 8.1744222684e-001
 2.4768308835e+000	 6.0647240220e-001	 8.4319355771e-001
 2.4708837625e+000	 6.3026457340e-001	 8.9391822992e-001
 2.4646914578e+000	 6.5406117310e-001	 1.0090245194e+000
 2.4582529650e+000	 6.7785865809e-001	 1.0555740585e+000
 2.4515673434e+000	 7.0165344787e-001	 1.0337537809e+000
 2.5320113237e+000	 4.6855485998e-001	 1.0794252661e+000
 2.5274666911e+000	 4.9248058409e-001	 9.3632531488e-001
 2.5226818311e+000	 5.1643138840e-001	 7.9647731230e-001
 2.5176553726e+000	 5.4040394619e-001	 6.6179483050e-001
 2.5123859999e+000	 5.6439488611e-001	 5.3433085912e-001
 2.5068724552e+000	 5.8840079322e-001	 4.1627756903e-001
 2.5011135392e+000	 6.1241821007e-001	 3.0996577565e-001
 2.4951081131e+000	 6.3644363785e-001	 4.2235727020e-001
 2.4888550995e+000	 6.6047353755e-001	 5.9059880810e-001
 2.4823534842e+000	 6.8450433122e-001	 6.9158635103e-001
 2.4756023173e+000	 7.0853240324e-001	 7.2549338217e-001
 2.5565939579e+000	 4.7310393629e-001	 1.1936958123e+000
 2.5520052026e+000	 4.9726194898e-001	 1.0546447815e+000
 2.5471738878e+000	 5.2144528538e-001	 9.2045898617e-001
 2.5420986286e+000	 5.4565058645e-001	 7.9310986940e-001
 2.5367780970e+000	 5.6987444812e-001	 6.7471084227e-001
 2.5312110227e+000	 5.9411342228e-001	 5.6751700796e-001
 2.5253961950e+000	 6.1836401794e-001	 4.7392457823e-001
 2.5193324637e+000	 6.4262270229e-001	 4.9512535832e-001
 2.5130187412e+000	 6.6688590199e-001	 5.1426749312e-001
 2.5064540035e+000	 6.9115000434e-001	 4.8586172746e-001
 2.4996372913e+000	 7.1541135862e-001	 4.1868153436e-001
 2.5811765921e+000	 4.7765301260e-001	 1.3030838939e+000
 2.5765437142e+000	 5.0204331388e-001	 1.1659782040e+000
 2.5716659444e+000	 5.2645918235e-001	 1.0352433967e+000
 2.5665418847e+000	 5.5089722670e-001	 9.1291027642e-001
 2.5611701941e+000	 5.7535401012e-001	 8.0115431129e-001
 2.5555495903e+000	 5.9982605134e-001	 7.0229531799e-001
 2.5496788507e+000	 6.2430982580e-001	 6.1879683160e-001
 2.5435568143e+000	 6.4880176674e-001	 6.8512155187e-001
 2.5371823830e+000	 6.7329826643e-001	 7.1046112474e-001
 2.5305545228e+000	 6.9779567746e-001	 6.9072153111e-001
 2.5236722653e+000	 7.2229031399e-001	 6.2658462887e-001
 2.6057592263e+000	 4.8220208891e-001	 1.4071076066e+000
 2.6010822257e+000	 5.0682467877e-001	 1.2698430769e+000
 2.5961580010e+000	 5.3147307933e-001	 1.1403476716e+000
 2.5909851407e+000	 5.5614386696e-001	 1.0207130636e+000
 2.5855622912e+000	 5.8083357212e-001	 9.1317843055e-001
 2.5798881578e+000	 6.0553868040e-001	 8.2013010190e-001
 2.5739615064e+000	 6.3025563367e-001	 7.8002754963e-001
 2.5677811649e+000	 6.5498083118e-001	 8.5380226630e-001
 2.5613460247e+000	 6.7971063087e-001	 8.8430468062e-001
 2.5546550420e+000	 7.0444135058e-001	 8.7215505994e-001
 2.5477072392e+000	 7.2916926936e-001	 8.1800704279e-001
 2.6303418605e+000	 4.8675116522e-001	 1.5052915315e+000
 2.6256207373e+000	 5.1160604366e-001	 1.3657623839e+000
 2.6206500576e+000	 5.3648697630e-001	 1.2352933832e+000
 2.6154283968e+000	 5.6139050721e-001	 1.1160385940e+000
 2.6099543883e+000	 5.8631313412e-001	 1.0103025741e+000
 2.6042267253e+000	 6.1125130946e-001	 9.2053998261e-001
 2.5982441621e+000	 6.3620144153e-001	 9.2619033114e-001
 2.5920055155e+000	 6.6115989563e-001	 1.0017351826e+000
 2.5855096665e+000	 6.8612299532e-001	 1.0364209429e+000
 2.5787555613e+000	 7.1108702369e-001	 1.0308413666e+000
 2.5717422132e+000	 7.3604822473e-001	 9.8562125379e-001
 2.6549244947e+000	 4.9130024153e-001	 1.5971664345e+000
 2.6501592489e+000	 5.1638740856e-001	 1.4532643432e+000
 2.6451421142e+000	 5.4150087327e-001	 1.3196063418e+000
 2.6398716528e+000	 5.6663714746e-001	 1.1984104269e+000
 2.6343464854e+000	 5.9179269612e-001	 1.0920482236e+000
 2.6285652928e+000	 6.1696393852e-001	 1.0030445560e+000
 2.6225268178e+000	 6.4214724939e-001	 1.0530585751e+000
 2.6162298662e+000	 6.6733896007e-001	 1.1294865480e+000
 2.6096733082e+000	 6.9253535976e-001	 1.1674299880e+000
 2.6028560806e+000	 7.1773269681e-001	 1.1674554809e+000
 2.5957771871e+000	 7.4292718010e-001	 1.1301583467e+000
 2.6795071290e+000	 4.9584931784e-001	 1.6822689828e+000
 2.6746977604e+000	 5.2116877345e-001	 1.5318821677e+000
 2.6696341708e+000	 5.4651477025e-001	 1.3928164019e+000
 2.6643149089e+000	 5.7188378771e-001	 1.2673551708e+000
 2.6587385825e+000	 5.9727225811e-001	 1.1579388714e+000
 2.6529038604e+000	 6.2267656758e-001	 1.0671643462e+000
 2.6468094736e+000	 6.4809305726e-001	 1.1611456464e+000
 2.6404542168e+000	 6.7351802451e-001	 1.2376212416e+000
 2.6338369500e+000	 6.9894772419e-001	 1.2779493108e+000
 2.6269565998e+000	 7.2437836993e-001	 1.2826685940e+000
 2.6198121611e+000	 7.4980613547e-001	 1.2523442679e+000
 2.7040897632e+000	 5.0039839415e-001	 1.7601414762e+000
 2.6992362720e+000	 5.2595013834e-001	 1.6011538380e+000
 2.6941262274e+000	 5.5152866722e-001	 1.4544572783e+000
 2.6887581649e+000	 5.7713042797e-001	 1.3224023449e+000
 2.6831306796e+000	 6.0275182011e-001	 1.2074999293e+000
 2.6772424279e+000	 6.2838919664e-001	 1.1408924643e+000
 2.6710921293e+000	 6.5403886512e-001	 1.2509647211e+000
 2.6646785674e+000	 6.7969708895e-001	 1.3267028367e+000
 2.6580005917e+000	 7.0536008863e-001	 1.3685939421e+000
 2.6510571191e+000	 7.3102404304e-001	 1.3771482331e+000
 2.6438471350e+000	 7.5668509084e-001	 1.3529000589e+000
 2.4034973955e+000	 6.8789553712e-001	 1.6544788412e+000
 2.3966997229e+000	 7.1121757443e-001	 1.5427645177e+000
 2.3896581153e+000	 7.3452984428e-001	 1.4368800591e+000
 2.3823718453e+000	 7.5782873460e-001	 1.3371327722e+000
 2.3748402530e+000	 7.8111060220e-001	 1.2438589942e+000
 2.3670627471e+000	 8.0437177429e-001	 1.1574236701e+000
 2.3590388060e+000	 8.2760854992e-001	 1.0782198460e+000
 2.3507679787e+000	 8.5081720161e-001	 1.0066680773e+000
 2.3422498860e+000	 8.7399397693e-001	 9.4321575153e-001
 2.3334842215e+000	 8.9713510015e-001	 8.8833632570e-001
 2.3244707527e+000	 9.2023677391e-001	 8.4252847781e-001
 2.4275323694e+000	 6.9477449249e-001	 1.3434290151e+000
 2.4206667202e+000	 7.1832975018e-001	 1.2673416366e+000
 2.4135546964e+000	 7.4187514273e-001	 1.1938103423e+000
 2.4061955637e+000	 7.6540702195e-001	 1.1231607914e+000
 2.3985886555e+000	 7.8892170823e-001	 1.0557515590e+000
 2.3907333746e+000	 8.1241549204e-001	 9.9197373205e-001
 2.3826291940e+000	 8.3588463542e-001	 9.3225041564e-001
 2.3742756584e+000	 8.5932537363e-001	 8.7703614813e-001
 2.3656723848e+000	 8.8273391670e-001	 8.2681622470e-001
 2.3568190637e+000	 9.0610645115e-001	 7.8210592922e-001
 2.3477154602e+000	 9.2943914165e-001	 7.4344967425e-001
 2.4515673434e+000	 7.0165344787e-001	 1.0337537809e+000
 2.4446337174e+000	 7.2544192593e-001	 9.9401405655e-001
 2.4374512776e+000	 7.4922044118e-001	 9.5357784932e-001
 2.4300192822e+000	 7.7298530930e-001	 9.1278967098e-001
 2.4223370580e+000	 7.9673281426e-001	 8.7203084757e-001
 2.4144040021e+000	 8.2045920978e-001	 8.3171913386e-001
 2.4062195821e+000	 8.4416072093e-001	 7.9230823161e-001
 2.3977833382e+000	 8.6783354565e-001	 7.5428721081e-001
 2.3890948837e+000	 8.9147385648e-001	 7.1817983329e-001
 2.3801539060e+000	 9.1507780216e-001	 6.8454377831e-001
 2.3709601677e+000	 9.3864150939e-001	 6.5396976997e-001
 2.4756023173e+000	 7.0853240324e-001	 7.2549338217e-001
 2.4686007146e+000	 7.3255410168e-001	 7.2278763704e-001
 2.4613478587e+000	 7.5656573962e-001	 7.1615231245e-001
 2.4538430006e+000	 7.8056359665e-001	 7.0595128212e-001
 2.4460854606e+000	 8.0454392028e-001	 6.9258914733e-001
 2.4380746295e+000	 8.2850292753e-001	 6.7651086869e-001
 2.4298099702e+000	 8.5243680643e-001	 6.5820129588e-001
 2.4212910180e+000	 8.7634171767e-001	 6.3818459436e-001
 2.4125173825e+000	 9.0021379625e-001	 6.1702356805e-001
 2.4034887482e+000	 9.2404915316e-001	 5.9531887786e-001
 2.3942048752e+000	 9.4784387714e-001	 5.7370815559e-001
 2.4996372913e+000	 7.1541135862e-001	 4.1868153436e-001
 2.4925677118e+000	 7.3966627743e-001	 4.5366263902e-001
 2.4852444399e+000	 7.6391103807e-001	 4.8149884897e-001
 2.4776667191e+000	 7.8814188400e-001	 5.0257391908e-001
 2.4698338631e+000	 8.1235502631e-001	 5.1731626084e-001
 2.4617452570e+000	 8.3654664528e-001	 5.2619859099e-001
 2.4534003582e+000	 8.6071289193e-001	 5.2973747205e-001
 2.4447986978e+000	 8.8484988969e-001	 5.2849274354e-001
 2.4359398814e+000	 9.0895373602e-001	 5.2306684317e-001
 2.4268235904e+000	 9.3302050416e-001	 5.1410401733e-001
 2.4174495828e+000	 9.5704624488e-001	 5.0228942058e-001
 2.5236722653e+000	 7.2229031399e-001	 6.2658462887e-001
 2.5165347091e+000	 7.4677845317e-001	 5.1562271549e-001
 2.5091410210e+000	 7.7125633651e-001	 4.1554256553e-001
 2.5014904375e+000	 7.9572017134e-001	 3.2711255217e-001
 2.4935822656e+000	 8.2016613233e-001	 3.4609962400e-001
 2.4854158845e+000	 8.4459036302e-001	 3.8063068033e-001
 2.4769907463e+000	 8.6898897743e-001	 4.0672449187e-001
 2.4683063776e+000	 8.9335806171e-001	 4.2497716565e-001
 2.4593623803e+000	 9.1769367579e-001	 4.3603138088e-001
 2.4501584326e+000	 9.4199185517e-001	 4.4057559056e-001
 2.4406942903e+000	 9.6624861262e-001	 4.3934310570e-001
 2.5477072392e+000	 7.2916926936e-001	 8.1800704279e-001
 2.5405017063e+000	 7.5389062892e-001	 7.0590006265e-001
 2.5330376022e+000	 7.7860163495e-001	 6.0278197679e-001
 2.5253141560e+000	 8.0329845869e-001	 5.0941874797e-001
 2.5173306682e+000	 8.2797723835e-001	 4.2657108778e-001
 2.5090865119e+000	 8.5263408076e-001	 3.5499477742e-001
 2.5005811343e+000	 8.7726506293e-001	 2.9544101323e-001
 2.4918140574e+000	 9.0186623372e-001	 3.2740438048e-001
 2.4827848791e+000	 9.2643361556e-001	 3.5564110258e-001
 2.4734932748e+000	 9.5096320617e-001	 3.7441342573e-001
 2.4639389978e+000	 9.7545098036e-001	 3.8450346948e-001
 2.5717422132e+000	 7.3604822473e-001	 9.8562125379e-001
 2.5644687035e+000	 7.6100280466e-001	 8.7330161613e-001
 2.5569341833e+000	 7.8594693340e-001	 7.6811955639e-001
 2.5491378744e+000	 8.1087674604e-001	 6.7083775443e-001
 2.5410790707e+000	 8.3578834438e-001	 5.8221542646e-001
 2.5327571394e+000	 8.6067779851e-001	 5.0300871279e-001
 2.5241715224e+000	 8.8554114843e-001	 4.3397108957e-001
 2.5153217372e+000	 9.1037440574e-001	 3.7585380223e-001
 2.5062073780e+000	 9.3517355533e-001	 3.2940631852e-001
 2.4968281170e+000	 9.5993455717e-001	 3.1530062491e-001
 2.4871837053e+000	 9.8465334810e-001	 3.3740926772e-001
 2.5957771871e+000	 7.4292718010e-001	 1.1301583467e+000
 2.5884357008e+000	 7.6811498040e-001	 1.0185590659e+000
 2.5808307645e+000	 7.9329223184e-001	 9.1228632686e-001
 2.5729615929e+000	 8.1845503338e-001	 8.1209863805e-001
 2.5648274732e+000	 8.4359945040e-001	 7.1875280037e-001
 2.5564277669e+000	 8.6872151625e-001	 6.3300436333e-001
 2.5477619105e+000	 8.9381723393e-001	 5.5560810415e-001
 2.5388294169e+000	 9.1888257776e-001	 4.8731852757e-001
 2.5296298768e+000	 9.4391349510e-001	 4.2889038419e-001
 2.5201629592e+000	 9.6890590817e-001	 3.8107920463e-001
 2.5104284129e+000	 9.9385571584e-001	 3.4464184680e-001
 2.6198121611e+000	 7.4980613547e-001	 1.2523442679e+000
 2.6124026980e+000	 7.7522715614e-001	 1.1423996948e+000
 2.6047273457e+000	 8.0063753028e-001	 1.0360096780e+000
 2.5967853113e+000	 8.2603332072e-001	 9.3392764960e-001
 2.5885758757e+000	 8.5141055642e-001	 8.3690705972e-001
 2.5800983944e+000	 8.7676523399e-001	 7.4570190220e-001
 2.5713522985e+000	 9.0209331943e-001	 6.6106726223e-001
 2.5623370967e+000	 9.2739074977e-001	 5.8375988394e-001
 2.5530523757e+000	 9.5265343487e-001	 5.1453875536e-001
 2.5434978015e+000	 9.7787725917e-001	 4.5416570787e-001
 2.5336731204e+000	 1.0030580836e+000	 4.0340602738e-001
 2.6438471350e+000	 7.5668509084e-001	 1.3529000589e+000
 2.6363696952e+000	 7.8233933189e-001	 1.2455465791e+000
 2.6286239268e+000	 8.0798282872e-001	 1.1400135320e+000
 2.6206090298e+000	 8.3361160807e-001	 1.0370483521e+000
 2.6123242783e+000	 8.5922166244e-001	 9.3740018761e-001
 2.6037690218e+000	 8.8480895173e-001	 8.4182049672e-001
 2.5949426866e+000	 9.1036940492e-001	 7.5106366509e-001
 2.5858447765e+000	 9.3589892178e-001	 6.6588764254e-001
 2.5764748746e+000	 9.6139337463e-001	 5.8705459599e-001
 2.5668326437e+000	 9.8684861017e-001	 5.1533157574e-001
 2.5569178279e+000	 1.0122604513e+000	 4.5149119197e-001
 2.3244707527e+000	 9.2023677391e-001	 8.4252847781e-001
 2.3152093213e+000	 9.4329518099e-001	 7.4176322331e-001
 2.3056998450e+000	 9.6630648602e-001	 6.4023959649e-001
 2.2959423174e+000	 9.8926683732e-001	 5.3857560005e-001
 2.2859368093e+000	 1.0121723687e+000	 4.3742059187e-001
 2.2756834694e+000	 1.0350192013e+000	 3.3745409744e-001
 2.2651825247e+000	 1.0578034457e+000	 2.3938453061e-001
 2.2544342814e+000	 1.0805212035e+000	 1.4394782464e-001
 2.2434391250e+000	 1.1031685694e+000	 5.1905975399e-002
 2.2321975215e+000	 1.1257416334e+000	-3.5954500881e-002
 2.2207100171e+000	 1.1482364826e+000	-1.1882419273e-001
 2.3477154602e+000	 9.2943914165e-001	 7.4344967425e-001
 2.3383614145e+000	 9.5272813280e-001	 6.5063735891e-001
 2.3287568434e+000	 9.7596955088e-001	 5.5680534446e-001
 2.3189017405e+000	 9.9915950569e-001	 4.6260056642e-001
 2.3087961774e+000	 1.0222940924e+000	 3.6870237441e-001
 2.2984403041e+000	 1.0453693934e+000	 2.7582129692e-001
 2.2878343500e+000	 1.0683814802e+000	 1.8469771148e-001
 2.2769786242e+000	 1.0913264155e+000	 9.6100422066e-002
 2.2658735162e+000	 1.1142002551e+000	 1.0825145885e-002
 2.2545194967e+000	 1.1369990498e+000	-7.0307088199e-002
 2.2429171172e+000	 1.1597188475e+000	-1.4645162672e-001
 2.3709601677e+000	 9.3864150939e-001	 6.5396976997e-001
 2.3615135077e+000	 9.6216108461e-001	 5.6867502876e-001
 2.3518138419e+000	 9.8563261575e-001	 4.8207103837e-001
 2.3418611637e+000	 1.0090521741e+000	 3.9483459197e-001
 2.3316555455e+000	 1.0324158161e+000	 3.0767599687e-001
 2.3211971388e+000	 1.0557195854e+000	 2.2133779062e-001
 2.3104861752e+000	 1.0789595146e+000	 1.3659335945e-001
 2.2995229670e+000	 1.1021316275e+000	 5.4245460807e-002
 2.2883079075e+000	 1.1252319408e+000	-2.4875347628e-002
 2.2768414719e+000	 1.1482564661e+000	-9.9912370176e-002
 2.2651242174e+000	 1.1712012123e+000	-1.6998452365e-001
 2.3942048752e+000	 9.4784387714e-001	 5.7370815559e-001
 2.3846656010e+000	 9.7159403643e-001	 4.9548494928e-001
 2.3748708403e+000	 9.9529568061e-001	 4.1563473471e-001
 2.3648205869e+000	 1.0189448424e+000	 3.3486510118e-001
 2.3545149136e+000	 1.0425375398e+000	 2.5391829356e-001
 2.3439539735e+000	 1.0660697774e+000	 1.7356987873e-001
 2.3331380004e+000	 1.0895375491e+000	 9.4627311020e-002
 2.3220673098e+000	 1.1129368396e+000	 1.7928398726e-002
 2.3107422987e+000	 1.1362636265e+000	-5.5660326027e-002
 2.2991634471e+000	 1.1595138824e+000	-1.2524533157e-001
 2.2873313176e+000	 1.1826835771e+000	-1.8990790210e-001
 2.4174495828e+000	 9.5704624488e-001	 5.0228942058e-001
 2.4078176942e+000	 9.8102698824e-001	 4.3068094332e-001
 2.3979278388e+000	 1.0049587455e+000	 3.5709949491e-001
 2.3877800100e+000	 1.0288375108e+000	 2.8228441289e-001
 2.3773742817e+000	 1.0526592634e+000	 2.0701087354e-001
 2.3667108082e+000	 1.0764199694e+000	 1.3208850748e-001
 2.3557898257e+000	 1.1001155835e+000	 5.8359910963e-002
 2.3446116526e+000	 1.1237420516e+000	-1.3300944849e-002
 2.3331766900e+000	 1.1472953122e+000	-8.1990404568e-002
 2.3214854223e+000	 1.1707712988e+000	-1.4677691633e-001
 2.3095384178e+000	 1.1941659420e+000	-2.0670291367e-001
 2.4406942903e+000	 9.6624861262e-001	 4.3934310570e-001
 2.4309697874e+000	 9.9045994005e-001	 3.7388169700e-001
 2.4209848372e+000	 1.0146218103e+000	 3.0607314699e-001
 2.4107394332e+000	 1.0387301792e+000	 2.3668950726e-001
 2.4002336497e+000	 1.0627809871e+000	 1.6653989324e-001
 2.3894676429e+000	 1.0867701614e+000	 9.6469047865e-002
 2.3784416509e+000	 1.1106936180e+000	 2.7355797631e-002
 2.3671559954e+000	 1.1345472636e+000	-3.9888596818e-002
 2.3556110812e+000	 1.1583269979e+000	-1.0432219314e-001
 2.3438073975e+000	 1.1820287151e+000	-1.6497422004e-001
 2.3317455179e+000	 1.2056483068e+000	-2.2084702708e-001
 2.4639389978e+000	 9.7545098036e-001	 3.8450346948e-001
 2.4541218806e+000	 9.9989289186e-001	 3.2471053029e-001
 2.4440418357e+000	 1.0242848752e+000	 2.6216806075e-001
 2.4336988564e+000	 1.0486228476e+000	 1.9768180588e-001
 2.4230930178e+000	 1.0729027108e+000	 1.3209584195e-001
 2.4122244775e+000	 1.0971203534e+000	 6.6291086995e-002
 2.4010934762e+000	 1.1212716525e+000	 1.1837004461e-003
 2.3897003382e+000	 1.1453524757e+000	-6.2276626239e-002
 2.3780454725e+000	 1.1693586836e+000	-1.2310848522e-001
 2.3661293727e+000	 1.1932861314e+000	-1.8030067143e-001
 2.3539526181e+000	 1.2171306716e+000	-2.3281420193e-001
 2.4871837053e+000	 9.8465334810e-001	 3.3740926772e-001
 2.4772739738e+000	 1.0093258437e+000	 2.8279518051e-001
 2.4670988341e+000	 1.0339479401e+000	 2.2500093549e-001
 2.4566582796e+000	 1.0585155159e+000	 1.6486696423e-001
 2.4459523859e+000	 1.0830244345e+000	 1.0327333935e-001
 2.4349813122e+000	 1.1074705454e+000	 4.1138231023e-002
 2.4237453014e+000	 1.1318496869e+000	-2.0583751278e-002
 2.4122446810e+000	 1.1561576877e+000	-8.0903329275e-002
 2.4004798637e+000	 1.1803903692e+000	-1.3879843618e-001
 2.3884513479e+000	 1.2045435478e+000	-1.9321620373e-001
 2.3761597183e+000	 1.2286130364e+000	-2.4307505267e-001
 2.5104284129e+000	 9.9385571584e-001	 3.4464184680e-001
 2.5004260670e+000	 1.0187587955e+000	 2.4912462891e-001
 2.4901558326e+000	 1.0436110049e+000	 1.9419259965e-001
 2.4796177027e+000	 1.0684081843e+000	 1.3785467565e-001
 2.4688117540e+000	 1.0931461582e+000	 7.9670944327e-002
 2.4577381469e+000	 1.1178207375e+000	 2.0597919103e-002
 2.4463971267e+000	 1.1424277214e+000	-3.8370208887e-002
 2.4347890238e+000	 1.1669628997e+000	-9.6203403863e-002
 2.4229142550e+000	 1.1914220549e+000	-1.5183773172e-001
 2.4107733232e+000	 1.2158009641e+000	-2.0417741648e-001
 2.3983668184e+000	 1.2400954013e+000	-2.5209700345e-001
 2.5336731204e+000	 1.0030580836e+000	 4.0340602738e-001
 2.5235781602e+000	 1.0281917473e+000	 2.8550171361e-001
 2.5132128310e+000	 1.0532740698e+000	 1.8988200291e-001
 2.5025771259e+000	 1.0783008527e+000	 1.1713142212e-001
 2.4916711221e+000	 1.1032678819e+000	 6.0890974224e-002
 2.4804949816e+000	 1.1281709295e+000	 4.2612475598e-003
 2.4690489519e+000	 1.1530057558e+000	-5.2595774995e-002
 2.4573333667e+000	 1.1777681118e+000	-1.0860811477e-001
 2.4453486462e+000	 1.2024537406e+000	-1.6266874706e-001
 2.4330952984e+000	 1.2270583804e+000	-2.1363772848e-001
 2.4205739186e+000	 1.2515777661e+000	-2.5890783969e-001
 2.5569178279e+000	 1.0122604513e+000	 4.5149119197e-001
 2.5467302535e+000	 1.0376246991e+000	 3.1136245110e-001
 2.5362698295e+000	 1.0629371346e+000	 1.9402020385e-001
 2.5255365491e+000	 1.0881935211e+000	 1.0003724018e-001
 2.5145304902e+000	 1.1133896056e+000	 2.9979178611e-002
 2.5032518163e+000	 1.1385211215e+000	-1.5594811868e-002
 2.4917007772e+000	 1.1635837903e+000	-6.3677164794e-002
 2.4798777095e+000	 1.1885733238e+000	-1.1854544966e-001
 2.4677830375e+000	 1.2134854263e+000	-1.7173069737e-001
 2.4554172736e+000	 1.2383157968e+000	-2.2204752237e-001
 2.4427810188e+000	 1.2630601309e+000	-2.4995539605e-001
 2.2207100171e+000	 1.1482364826e+000	-1.1882419273e-001
 2.2089772391e+000	 1.1706492033e+000	-1.5355013705e-001
 2.1969998960e+000	 1.1929758828e+000	-1.8185443609e-001
 2.1847787778e+000	 1.2152126119e+000	-2.0254460672e-001
 2.1723147561e+000	 1.2373554867e+000	-2.1440837920e-001
 2.1596087844e+000	 1.2594006108e+000	-2.5608012924e-001
 2.1466618980e+000	 1.2813440973e+000	-3.4753196300e-001
 2.1334752143e+000	 1.3031820709e+000	-4.3713854418e-001
 2.1200499323e+000	 1.3249106704e+000	-5.2372251719e-001
 2.1063873328e+000	 1.3465260504e+000	-6.0607921092e-001
 2.0924887780e+000	 1.3680243835e+000	-6.8297879128e-001
 2.2429171172e+000	 1.1597188475e+000	-1.4645162672e-001
 2.2310670115e+000	 1.1823556953e+000	-1.6546115732e-001
 2.2189698950e+000	 1.2049056416e+000	-1.7912135245e-001
 2.2066265656e+000	 1.2273647380e+000	-1.8627776782e-001
 2.1940379036e+000	 1.2497290416e+000	-1.8575522654e-001
 2.1812048722e+000	 1.2719946169e+000	-2.6160861385e-001
 2.1681285170e+000	 1.2941575382e+000	-3.3943397547e-001
 2.1548099664e+000	 1.3162138916e+000	-4.1714409193e-001
 2.1412504316e+000	 1.3381597771e+000	-4.9360182234e-001
 2.1274512061e+000	 1.3599913109e+000	-5.6764099786e-001
 2.1134136658e+000	 1.3817046273e+000	-6.3806855513e-001
 2.2651242174e+000	 1.1712012123e+000	-1.6998452365e-001
 2.2531567839e+000	 1.1940621873e+000	-1.7624324870e-001
 2.2409398939e+000	 1.2168354005e+000	-1.7822348594e-001
 2.2284743533e+000	 1.2395168641e+000	-1.7480640529e-001
 2.2157610512e+000	 1.2621025965e+000	-2.0405732766e-001
 2.2028009601e+000	 1.2845886230e+000	-2.6828181092e-001
 2.1895951360e+000	 1.3069709792e+000	-3.3518836311e-001
 2.1761447186e+000	 1.3292457123e+000	-4.0371057712e-001
 2.1624509309e+000	 1.3514088839e+000	-4.7274925469e-001
 2.1485150794e+000	 1.3734565714e+000	-5.4117443167e-001
 2.1343385536e+000	 1.3953848711e+000	-6.0782749515e-001
 2.2873313176e+000	 1.1826835771e+000	-1.8990790210e-001
 2.2752465563e+000	 1.2057686794e+000	-1.8632449336e-001
 2.2629098929e+000	 1.2287651593e+000	-1.7953236712e-001
 2.2503221411e+000	 1.2516689903e+000	-1.7275766223e-001
 2.2374841988e+000	 1.2744761513e+000	-2.2164751518e-001
 2.2243970479e+000	 1.2971826291e+000	-2.7590701565e-001
 2.2110617550e+000	 1.3197844202e+000	-3.3454364215e-001
 2.1974794707e+000	 1.3422775331e+000	-3.9652842523e-001
 2.1836514302e+000	 1.3646579906e+000	-4.6079785724e-001
 2.1695789527e+000	 1.3869218319e+000	-5.2625590081e-001
 2.1552634414e+000	 1.4090651150e+000	-5.9177609233e-001
 2.3095384178e+000	 1.1941659420e+000	-2.0670291367e-001
 2.2973363287e+000	 1.2174751714e+000	-1.9613185939e-001
 2.2848798918e+000	 1.2406949181e+000	-1.8342115328e-001
 2.2721699289e+000	 1.2638211164e+000	-1.9756778053e-001
 2.2592073463e+000	 1.2868497062e+000	-2.3741844654e-001
 2.2459931357e+000	 1.3097766352e+000	-2.8430128658e-001
 2.2325283739e+000	 1.3325978612e+000	-3.3726077124e-001
 2.2188142229e+000	 1.3553093538e+000	-3.9530316448e-001
 2.2048519296e+000	 1.3779070973e+000	-4.5739841601e-001
 2.1906428261e+000	 1.4003870924e+000	-5.2248215564e-001
 2.1761883292e+000	 1.4227453588e+000	-5.8945778572e-001
 2.3317455179e+000	 1.2056483068e+000	-2.2084702708e-001
 2.3194261010e+000	 1.2291816635e+000	-2.0609125385e-001
 2.3068498908e+000	 1.2526246769e+000	-1.9415479674e-001
 2.2940177167e+000	 1.2759732425e+000	-2.1791229081e-001
 2.2809304939e+000	 1.2992232611e+000	-2.5125066064e-001
 2.2675892236e+000	 1.3223706413e+000	-2.9329098058e-001
 2.2539949929e+000	 1.3454113021e+000	-3.4311255892e-001
 2.2401489750e+000	 1.3683411745e+000	-3.9975470667e-001
 2.2260524289e+000	 1.3911562040e+000	-4.6221861516e-001
 2.2117066994e+000	 1.4138523529e+000	-5.2946933879e-001
 2.1971132169e+000	 1.4364256026e+000	-6.0043787917e-001
 2.3539526181e+000	 1.2171306716e+000	-2.3281420193e-001
 2.3415158734e+000	 1.2408881555e+000	-2.1662757284e-001
 2.3288198898e+000	 1.2645544358e+000	-2.1565384596e-001
 2.3158655044e+000	 1.2881253686e+000	-2.3373048037e-001
 2.3026536414e+000	 1.3115968159e+000	-2.6303110914e-001
 2.2891853114e+000	 1.3349646475e+000	-3.0271131436e-001
 2.2754616119e+000	 1.3582247431e+000	-3.5188310473e-001
 2.2614837271e+000	 1.3813729952e+000	-4.0961666874e-001
 2.2472529282e+000	 1.4044053107e+000	-4.7494223988e-001
 2.2327705727e+000	 1.4273176134e+000	-5.4685207047e-001
 2.2180381047e+000	 1.4501058465e+000	-6.2430250997e-001
 2.3761597183e+000	 1.2286130364e+000	-2.4307505267e-001
 2.3636056458e+000	 1.2525946475e+000	-2.2898836272e-001
 2.3507898887e+000	 1.2764841946e+000	-2.3015558535e-001
 2.3377132922e+000	 1.3002774948e+000	-2.4496540309e-001
 2.3243767890e+000	 1.3239703708e+000	-2.7265285684e-001
 2.3107813993e+000	 1.3475586536e+000	-3.1240595035e-001
 2.2969282309e+000	 1.3710381841e+000	-3.6336727152e-001
 2.2828184793e+000	 1.3944048159e+000	-4.2463573227e-001
 2.2684534275e+000	 1.4176544174e+000	-4.9526842403e-001
 2.2538344460e+000	 1.4407828739e+000	-5.7428258497e-001
 2.2389629925e+000	 1.4637860903e+000	-6.6065767535e-001
 2.3983668184e+000	 1.2400954013e+000	-2.5209700345e-001
 2.3856954182e+000	 1.2643011396e+000	-2.3902133858e-001
 2.3727598877e+000	 1.2884139534e+000	-2.3765497017e-001
 2.3595610800e+000	 1.3124296209e+000	-2.5156370501e-001
 2.3460999366e+000	 1.3363439257e+000	-2.8001479866e-001
 2.3323774871e+000	 1.3601526597e+000	-3.2222660579e-001
 2.3183948499e+000	 1.3838516251e+000	-3.7737018717e-001
 2.3041532314e+000	 1.4074366366e+000	-4.4457103872e-001
 2.2896539269e+000	 1.4309035241e+000	-5.2291093952e-001
 2.2748983194e+000	 1.4542481344e+000	-6.1142991525e-001
 2.2598878803e+000	 1.4774663341e+000	-7.0912831301e-001
 2.4205739186e+000	 1.2515777661e+000	-2.5890783969e-001
 2.4077851906e+000	 1.2760076316e+000	-2.3974227002e-001
 2.3947298867e+000	 1.3003437123e+000	-2.3814823621e-001
 2.3814088678e+000	 1.3245817470e+000	-2.5347545958e-001
 2.3678230841e+000	 1.3487174805e+000	-2.8502139218e-001
 2.3539735750e+000	 1.3727466658e+000	-3.3203268317e-001
 2.3398614688e+000	 1.3966650660e+000	-3.9370677377e-001
 2.3254879836e+000	 1.4204684573e+000	-4.6919361782e-001
 2.3108544262e+000	 1.4441526308e+000	-5.5759752489e-001
 2.2959621927e+000	 1.4677133949e+000	-6.5797912233e-001
 2.2808127681e+000	 1.4911465780e+000	-7.6935743230e-001
 2.4427810188e+000	 1.2630601309e+000	-2.4995539605e-001
 2.4298749630e+000	 1.2877141236e+000	-2.3119324983e-001
 2.4166998856e+000	 1.3122734711e+000	-2.3163284155e-001
 2.4032566556e+000	 1.3367338731e+000	-2.5065401186e-001
 2.3895462317e+000	 1.3610910354e+000	-2.8758240482e-001
 2.3755696628e+000	 1.3853406719e+000	-3.4169092095e-001
 2.3613280878e+000	 1.4094785070e+000	-4.1220130235e-001
 2.3468227357e+000	 1.4335002780e+000	-4.9828584721e-001
 2.3320549255e+000	 1.4574017375e+000	-5.9906925040e-001
 2.3170260660e+000	 1.4811786555e+000	-7.1363056676e-001
 2.3017376559e+000	 1.5048268218e+000	-8.4100529280e-001
 2.0924887780e+000	 1.3680243835e+000	-6.8297879128e-001
 2.0783557117e+000	 1.3894018625e+000	-7.1694168957e-001
 2.0639896582e+000	 1.4106547028e+000	-7.5298612162e-001
 2.0493922227e+000	 1.4317791441e+000	-7.9030932186e-001
 2.0345650901e+000	 1.4527714528e+000	-8.2808557165e-001
 2.0195100253e+000	 1.4736279238e+000	-8.6546815442e-001
 2.0042288717e+000	 1.4943448831e+000	-9.0159137324e-001
 1.9887235515e+000	 1.5149186895e+000	-9.3557262572e-001
 1.9729960641e+000	 1.5353457367e+000	-9.6651453143e-001
 1.9570484858e+000	 1.5556224556e+000	-9.9350710629e-001
 1.9408829689e+000	 1.5757453160e+000	-1.0156299785e+000
 2.1134136658e+000	 1.3817046273e+000	-6.3806855513e-001
 2.0991392688e+000	 1.4032958811e+000	-6.7859047388e-001
 2.0846295548e+000	 1.4247612499e+000	-7.2208988177e-001
 2.0698861449e+000	 1.4460969356e+000	-7.6760122038e-001
 2.0549107410e+000	 1.4672991673e+000	-8.1413411264e-001
 2.0397051255e+000	 1.4883642030e+000	-8.6067551918e-001
 2.0242711605e+000	 1.5092883319e+000	-9.0619196120e-001
 2.0086107870e+000	 1.5300678764e+000	-9.4963180452e-001
 1.9927260247e+000	 1.5506991940e+000	-9.8992759947e-001
 1.9766189706e+000	 1.5711786801e+000	-1.0259984708e+000
 1.9602917986e+000	 1.5915027692e+000	-1.0567525518e+000
 2.1343385536e+000	 1.3953848711e+000	-6.0782749515e-001
 2.1199228259e+000	 1.4171898998e+000	-6.5159514467e-001
 2.1052694514e+000	 1.4388677969e+000	-6.9923845433e-001
 2.0903800671e+000	 1.4604147270e+000	-7.4962958975e-001
 2.0752563919e+000	 1.4818268818e+000	-8.0161402383e-001
 2.0599002258e+000	 1.5031004823e+000	-8.5401289468e-001
 2.0443134492e+000	 1.5242317808e+000	-9.0562543429e-001
 2.0284980225e+000	 1.5452170632e+000	-9.5523146218e-001
 2.0124559853e+000	 1.5660526514e+000	-1.0015939383e+000
 1.9961894555e+000	 1.5867349047e+000	-1.0434615690e+000
 1.9797006283e+000	 1.6072602223e+000	-1.0795714598e+000
 2.1552634414e+000	 1.4090651150e+000	-5.9177609233e-001
 2.1407063830e+000	 1.4310839184e+000	-6.3559587095e-001
 2.1259093480e+000	 1.4529743439e+000	-6.8419210434e-001
 2.1108739893e+000	 1.4747325185e+000	-7.3627513258e-001
 2.0956020428e+000	 1.4963545964e+000	-7.9052671983e-001
 2.0800953260e+000	 1.5178367615e+000	-8.4560261431e-001
 2.0643557379e+000	 1.5391752296e+000	-9.0013518334e-001
 2.0483852580e+000	 1.5603662501e+000	-9.5273611712e-001
 2.0321859460e+000	 1.5814061088e+000	-1.0019991952e+000
 2.0157599404e+000	 1.6022911292e+000	-1.0465031092e+000
 1.9991094580e+000	 1.6230176755e+000	-1.0848143346e+000
 2.1761883292e+000	 1.4227453588e+000	-5.8945778572e-001
 2.1614899402e+000	 1.4449779370e+000	-6.3025162767e-001
 2.1465492446e+000	 1.4670808910e+000	-6.7672573984e-001
 2.1313679116e+000	 1.4890503099e+000	-7.2742902264e-001
 2.1159476937e+000	 1.5108823109e+000	-7.8087990758e-001
 2.1002904263e+000	 1.5325730408e+000	-8.3556912001e-001
 2.0843980266e+000	 1.5541186784e+000	-8.8996252096e-001
 2.0682724935e+000	 1.5755154370e+000	-9.4250402175e-001
 2.0519159066e+000	 1.5967595661e+000	-9.9161856475e-001
 2.0353304252e+000	 1.6178473538e+000	-1.0357151632e+000
 2.0185182877e+000	 1.6387751286e+000	-1.0731899932e+000
 2.1971132169e+000	 1.4364256026e+000	-6.0043787917e-001
 2.1822734973e+000	 1.4588719557e+000	-6.3523930023e-001
 2.1671891411e+000	 1.4811874380e+000	-6.7662821461e-001
 2.1518618338e+000	 1.5033681014e+000	-7.2299240619e-001
 2.1362933446e+000	 1.5254100254e+000	-7.7268728672e-001
 2.1204855265e+000	 1.5473093200e+000	-8.2403886185e-001
 2.1044403153e+000	 1.5690621273e+000	-8.7534678048e-001
 2.0881597291e+000	 1.5906646239e+000	-9.2488746090e-001
 2.0716458673e+000	 1.6121130235e+000	-9.7091728642e-001
 2.0549009101e+000	 1.6334035783e+000	-1.0116758633e+000
 2.0379271174e+000	 1.6545325818e+000	-1.0453893333e+000
 2.2180381047e+000	 1.4501058465e+000	-6.2430250997e-001
 2.2030570544e+000	 1.4727659743e+000	-6.5025283962e-001
 2.1878290377e+000	 1.4952939850e+000	-6.8370167031e-001
 2.1723557560e+000	 1.5176858928e+000	-7.2287593162e-001
 2.1566389955e+000	 1.5399377400e+000	-7.6596826691e-001
 2.1406806268e+000	 1.5620455992e+000	-8.1114020330e-001
 2.1244826040e+000	 1.5840055761e+000	-8.5652540933e-001
 2.1080469646e+000	 1.6058138108e+000	-9.0023303324e-001
 2.0913758279e+000	 1.6274664809e+000	-9.4035111436e-001
 2.0744713949e+000	 1.6489598029e+000	-9.7495005983e-001
 2.0573359470e+000	 1.6702900350e+000	-1.0020861788e+000
 2.2389629925e+000	 1.4637860903e+000	-6.6065767535e-001
 2.2238406115e+000	 1.4866599929e+000	-6.7500246500e-001
 2.2084689343e+000	 1.5094005321e+000	-6.9776091560e-001
 2.1928496783e+000	 1.5320036842e+000	-7.2699930541e-001
 2.1769846464e+000	 1.5544654545e+000	-7.6074770100e-001
 2.1608757270e+000	 1.5767818785e+000	-7.9700333186e-001
 2.1445248928e+000	 1.5989490249e+000	-8.3373405716e-001
 2.1279342001e+000	 1.6209629977e+000	-8.6888191705e-001
 2.1111057885e+000	 1.6428199382e+000	-9.0036676052e-001
 2.0940418798e+000	 1.6645160274e+000	-9.2608994190e-001
 2.0767447767e+000	 1.6860474881e+000	-9.4393807735e-001
 2.2598878803e+000	 1.4774663341e+000	-7.0912831301e-001
 2.2446241686e+000	 1.5005540115e+000	-7.0921391051e-001
 2.2291088309e+000	 1.5235070791e+000	-7.1863283965e-001
 2.2133436005e+000	 1.5463214757e+000	-7.3529087277e-001
 2.1973302973e+000	 1.5689931690e+000	-7.5705563303e-001
 2.1810708273e+000	 1.5915181577e+000	-7.8176017454e-001
 2.1645671815e+000	 1.6138924738e+000	-8.0720665908e-001
 2.1478214356e+000	 1.6361121846e+000	-8.3117012113e-001
 2.1308357492e+000	 1.6581733956e+000	-8.5140231331e-001
 2.1136123646e+000	 1.6800722520e+000	-8.6563562339e-001
 2.0961536064e+000	 1.7018049413e+000	-8.7158705422e-001
 2.2808127681e+000	 1.4911465780e+000	-7.6935743230e-001
 2.2654077258e+000	 1.5144480302e+000	-7.5262771357e-001
 2.2497487275e+000	 1.5376136261e+000	-7.4615585804e-001
 2.2338375227e+000	 1.5606392671e+000	-7.4768722138e-001
 2.2176759482e+000	 1.5835208835e+000	-7.5492706011e-001
 2.2012659275e+000	 1.6062544370e+000	-7.6554431816e-001
 2.1846094702e+000	 1.6288359226e+000	-7.7717551427e-001
 2.1677086711e+000	 1.6512613715e+000	-7.8742872193e-001
 2.1505657098e+000	 1.6735268530e+000	-7.9388763313e-001
 2.1331828495e+000	 1.6956284766e+000	-7.9411569699e-001
 2.1155624361e+000	 1.7175623944e+000	-7.8566032402e-001
 2.3017376559e+000	 1.5048268218e+000	-8.4100529280e-001
 2.2861912829e+000	 1.5283420488e+000	-8.0499854204e-001
 2.2703886241e+000	 1.5517201731e+000	-7.8017938881e-001
 2.2543314449e+000	 1.5749570586e+000	-7.6413280672e-001
 2.2380215991e+000	 1.5980485981e+000	-7.5440170730e-001
 2.2214610278e+000	 1.6209907162e+000	-7.4849093381e-001
 2.2046517589e+000	 1.6437793714e+000	-7.4387136040e-001
 2.1875959066e+000	 1.6664105584e+000	-7.3798408779e-001
 2.1702956705e+000	 1.6888803104e+000	-7.2824472644e-001
 2.1527533344e+000	 1.7111847011e+000	-7.1204775782e-001
 2.1349712658e+000	 1.7333198476e+000	-6.8677096408e-001
 1.9408829689e+000	 1.5757453160e+000	-1.0156299785e+000
 1.9245017408e+000	 1.5957108290e+000	-1.0443290726e+000
 1.9079071027e+000	 1.6155155485e+000	-1.0859856586e+000
 1.8911014290e+000	 1.6351560736e+000	-1.1394106967e+000
 1.8740871660e+000	 1.6546290504e+000	-1.1980716435e+000
 1.8568668306e+000	 1.6739311735e+000	-1.1751176025e+000
 1.8394430092e+000	 1.6930591885e+000	-1.1673661126e+000
 1.8218183566e+000	 1.7120098935e+000	-1.1741901482e+000
 1.8039955943e+000	 1.7307801408e+000	-1.1949398248e+000
 1.7859775094e+000	 1.7493668386e+000	-1.2289438935e+000
 1.7677669530e+000	 1.7677669530e+000	-1.2755112753e+000
 1.9602917986e+000	 1.5915027692e+000	-1.0567525518e+000
 1.9437467582e+000	 1.6116679373e+000	-1.0870128248e+000
 1.9269861737e+000	 1.6316707040e+000	-1.1263814474e+000
 1.9100124433e+000	 1.6515076344e+000	-1.1736925506e+000
 1.8928280376e+000	 1.6711753409e+000	-1.2277632734e+000
 1.8754354989e+000	 1.6906704852e+000	-1.2873963561e+000
 1.8578374393e+000	 1.7099897804e+000	-1.2579606753e+000
 1.8400365402e+000	 1.7291299925e+000	-1.2372045175e+000
 1.8220355503e+000	 1.7480879422e+000	-1.2270204750e+000
 1.8038372845e+000	 1.7668605069e+000	-1.2268037456e+000
 1.7854446225e+000	 1.7854446225e+000	-1.2359325970e+000
 1.9797006283e+000	 1.6072602223e+000	-1.0795714598e+000
 1.9629917756e+000	 1.6276250456e+000	-1.1141607886e+000
 1.9460652448e+000	 1.6478258595e+000	-1.1540804654e+000
 1.9289234576e+000	 1.6678591951e+000	-1.1981853971e+000
 1.9115689093e+000	 1.6877216314e+000	-1.2453169652e+000
 1.8940041672e+000	 1.7074097970e+000	-1.2943056433e+000
 1.8762318694e+000	 1.7269203723e+000	-1.3439736365e+000
 1.8582547237e+000	 1.7462500914e+000	-1.3053173778e+000
 1.8400755062e+000	 1.7653957436e+000	-1.2671565507e+000
 1.8216970596e+000	 1.7843541753e+000	-1.2357426751e+000
 1.8031222920e+000	 1.8031222920e+000	-1.2105212039e+000
 1.9991094580e+000	 1.6230176755e+000	-1.0848143346e+000
 1.9822367930e+000	 1.6435821538e+000	-1.1264454877e+000
 1.9651443158e+000	 1.6639810150e+000	-1.1696979855e+000
 1.9478344719e+000	 1.6842107558e+000	-1.2134451292e+000
 1.9303097810e+000	 1.7042679219e+000	-1.2565501146e+000
 1.9125728355e+000	 1.7241491087e+000	-1.2978686768e+000
 1.8946262995e+000	 1.7438509642e+000	-1.3362517531e+000
 1.8764729073e+000	 1.7633701903e+000	-1.3705481579e+000
 1.8581154622e+000	 1.7827035450e+000	-1.3150920152e+000
 1.8395568347e+000	 1.8018478437e+000	-1.2554287068e+000
 1.8207999616e+000	 1.8207999616e+000	-1.1988674444e+000
 2.0185182877e+000	 1.6387751286e+000	-1.0731899932e+000
 2.0014818104e+000	 1.6595392621e+000	-1.1245232218e+000
 1.9842233868e+000	 1.6801361704e+000	-1.1738357279e+000
 1.9667454862e+000	 1.7005623166e+000	-1.2200168385e+000
 1.9490506526e+000	 1.7208142124e+000	-1.2619491489e+000
 1.9311415038e+000	 1.7408884204e+000	-1.2985111988e+000
 1.9130207296e+000	 1.7607815561e+000	-1.3285801612e+000
 1.8946910909e+000	 1.7804902893e+000	-1.3510345397e+000
 1.8761554181e+000	 1.8000113464e+000	-1.3647568643e+000
 1.8574166098e+000	 1.8193415121e+000	-1.2855371737e+000
 1.8384776311e+000	 1.8384776311e+000	-1.2005722472e+000
 2.0379271174e+000	 1.6545325818e+000	-1.0453893333e+000
 2.0207268278e+000	 1.6754963704e+000	-1.1090348387e+000
 2.0033024578e+000	 1.6962913259e+000	-1.1670825060e+000
 1.9856565005e+000	 1.7169138773e+000	-1.2184353301e+000
 1.9677915243e+000	 1.7373605029e+000	-1.2619929040e+000
 1.9497101721e+000	 1.7576277322e+000	-1.2966541284e+000
 1.9314151596e+000	 1.7777121480e+000	-1.3213199312e+000
 1.9129092744e+000	 1.7976103882e+000	-1.3348959891e+000
 1.8941953740e+000	 1.8173191478e+000	-1.3362954439e+000
 1.8752763849e+000	 1.8368351805e+000	-1.3244416078e+000
 1.8561553006e+000	 1.8561553006e+000	-1.2152466180e+000
 2.0573359470e+000	 1.6702900350e+000	-1.0020861788e+000
 2.0399718452e+000	 1.6914534787e+000	-1.0806064634e+000
 2.0223815288e+000	 1.7124464814e+000	-1.1500148347e+000
 2.0045675147e+000	 1.7332654380e+000	-1.2092256076e+000
 1.9865323959e+000	 1.7539067934e+000	-1.2571529820e+000
 1.9682788404e+000	 1.7743670439e+000	-1.2927137895e+000
 1.9498095897e+000	 1.7946427398e+000	-1.3148302452e+000
 1.9311274580e+000	 1.8147304871e+000	-1.3224326978e+000
 1.9122353300e+000	 1.8346269492e+000	-1.3144623702e+000
 1.8931361600e+000	 1.8543288489e+000	-1.2898740825e+000
 1.8738329701e+000	 1.8738329701e+000	-1.2425111636e+000
 2.0767447767e+000	 1.6860474881e+000	-9.4393807735e-001
 2.0592168626e+000	 1.7074105870e+000	-1.0398501863e+000
 2.0414605999e+000	 1.7286016369e+000	-1.1231975053e+000
 2.0234785290e+000	 1.7496169988e+000	-1.1929033310e+000
 2.0052732676e+000	 1.7704530839e+000	-1.2478940899e+000
 1.9868475087e+000	 1.7911063556e+000	-1.2871021251e+000
 1.9682040198e+000	 1.8115733317e+000	-1.3094684845e+000
 1.9493456416e+000	 1.8318505861e+000	-1.3139457022e+000
 1.9302752859e+000	 1.8519347506e+000	-1.2995005654e+000
 1.9109959351e+000	 1.8718225172e+000	-1.2651168606e+000
 1.8915106397e+000	 1.8915106397e+000	-1.1713684286e+000
 2.0961536064e+000	 1.7018049413e+000	-8.7158705422e-001
 2.0784618800e+000	 1.7233676953e+000	-9.8736471239e-001
 2.0605396709e+000	 1.7447567924e+000	-1.0871841282e+000
 2.0423895433e+000	 1.7659685595e+000	-1.1699752495e+000
 2.0240141392e+000	 1.7869993744e+000	-1.2346743582e+000
 2.0054161770e+000	 1.8078456674e+000	-1.2802269005e+000
 1.9865984499e+000	 1.8285039236e+000	-1.3055903140e+000
 1.9675638251e+000	 1.8489706850e+000	-1.3097368438e+000
 1.9483152419e+000	 1.8692425520e+000	-1.2916563397e+000
 1.9288557102e+000	 1.8893161856e+000	-1.2051559165e+000
 1.9091883092e+000	 1.9091883092e+000	-1.0931684836e+000
 2.1155624361e+000	 1.7175623944e+000	-7.8566032402e-001
 2.0977068974e+000	 1.7393248036e+000	-9.2373597585e-001
 2.0796187419e+000	 1.7609119479e+000	-1.0425176459e+000
 2.0613005576e+000	 1.7823201203e+000	-1.1409396101e+000
 2.0427550109e+000	 1.8035456649e+000	-1.2179456429e+000
 2.0239848453e+000	 1.8245849791e+000	-1.2724918945e+000
 2.0049928800e+000	 1.8454345155e+000	-1.3035497599e+000
 1.9857820087e+000	 1.8660907839e+000	-1.3101087326e+000
 1.9663551978e+000	 1.8865503534e+000	-1.2460713916e+000
 1.9467154853e+000	 1.9068098540e+000	-1.1346126318e+000
 1.9268659787e+000	 1.9268659787e+000	-1.0155253573e+000
 2.1349712658e+000	 1.7333198476e+000	-6.8677096408e-001
 2.1169519149e+000	 1.7552819119e+000	-8.4953772016e-001
 2.0986978130e+000	 1.7770671034e+000	-9.8973081786e-001
 2.0802115719e+000	 1.7986716810e+000	-1.1062865441e+000
 2.0614958826e+000	 1.8200919554e+000	-1.1981538107e+000
 2.0425535136e+000	 1.8413242908e+000	-1.2642970812e+000
 2.0233873101e+000	 1.8623651074e+000	-1.3036992849e+000
 2.0040001923e+000	 1.8832108829e+000	-1.2778564306e+000
 1.9843951538e+000	 1.9038581548e+000	-1.1764165002e+000
 1.9645752604e+000	 1.9243035224e+000	-1.0627090472e+000
 1.9445436483e+000	 1.9445436482e+000	-9.3863212446e-001
 1.7677669530e+000	 1.7677669530e+000	-1.2755112753e+000
 1.7493668386e+000	 1.7859775094e+000	-1.3967061107e+000
 1.7307801408e+000	 1.8039955943e+000	-1.4906392764e+000
 1.7120098935e+000	 1.8218183566e+000	-1.5569643302e+000
 1.6930591885e+000	 1.8394430092e+000	-1.5953597740e+000
 1.6739311735e+000	 1.8568668306e+000	-1.6055302335e+000
 1.6546290504e+000	 1.8740871660e+000	-1.5872076038e+000
 1.6351560736e+000	 1.8911014290e+000	-1.5864780363e+000
 1.6155155485e+000	 1.9079071027e+000	-1.5748390936e+000
 1.5957108290e+000	 1.9245017408e+000	-1.5498696843e+000
 1.5757453160e+000	 1.9408829689e+000	-1.5113213533e+000
 1.7854446225e+000	 1.7854446225e+000	-1.2359325970e+000
 1.7668605069e+000	 1.8038372845e+000	-1.3297807493e+000
 1.7480879422e+000	 1.8220355503e+000	-1.3997339495e+000
 1.7291299925e+000	 1.8400365402e+000	-1.4454604436e+000
 1.7099897804e+000	 1.8578374393e+000	-1.4666502318e+000
 1.6906704852e+000	 1.8754354989e+000	-1.4638007368e+000
 1.6711753409e+000	 1.8928280376e+000	-1.4751868126e+000
 1.6515076344e+000	 1.9100124433e+000	-1.4780244299e+000
 1.6316707040e+000	 1.9269861737e+000	-1.4720939500e+000
 1.6116679373e+000	 1.9437467582e+000	-1.4571544722e+000
 1.5915027692e+000	 1.9602917986e+000	-1.4329450793e+000
 1.8031222920e+000	 1.8031222920e+000	-1.2105212039e+000
 1.7843541753e+000	 1.8216970596e+000	-1.2784113003e+000
 1.7653957436e+000	 1.8400755062e+000	-1.3257067763e+000
 1.7462500914e+000	 1.8582547237e+000	-1.3520892160e+000
 1.7269203723e+000	 1.8762318694e+000	-1.3586775172e+000
 1.7074097970e+000	 1.8940041672e+000	-1.3723779748e+000
 1.6877216314e+000	 1.9115689093e+000	-1.3820254858e+000
 1.6678591951e+000	 1.9289234576e+000	-1.3874249192e+000
 1.6478258595e+000	 1.9460652448e+000	-1.3883534336e+000
 1.6276250456e+000	 1.9629917756e+000	-1.3845616791e+000
 1.6072602223e+000	 1.9797006283e+000	-1.3757750944e+000
 1.8207999616e+000	 1.8207999616e+000	-1.1988674444e+000
 1.8018478437e+000	 1.8395568347e+000	-1.2421600464e+000
 1.7827035450e+000	 1.8581154622e+000	-1.2680939821e+000
 1.7633701903e+000	 1.8764729073e+000	-1.2770233156e+000
 1.7438509642e+000	 1.8946262995e+000	-1.2855297614e+000
 1.7241491087e+000	 1.9125728355e+000	-1.2944151456e+000
 1.7042679219e+000	 1.9303097810e+000	-1.3035194307e+000
 1.6842107558e+000	 1.9478344719e+000	-1.3126484273e+000
 1.6639810150e+000	 1.9651443158e+000	-1.3215749306e+000
 1.6435821538e+000	 1.9822367930e+000	-1.3300399661e+000
 1.6230176755e+000	 1.9991094580e+000	-1.3377541394e+000
 1.8384776311e+000	 1.8384776311e+000	-1.2005722472e+000
 1.8193415121e+000	 1.8574166098e+000	-1.2206012178e+000
 1.8000113464e+000	 1.8761554181e+000	-1.2260899133e+000
 1.7804902893e+000	 1.8946910909e+000	-1.2220049289e+000
 1.7607815561e+000	 1.9130207296e+000	-1.2226561811e+000
 1.7408884204e+000	 1.9311415038e+000	-1.2279293544e+000
 1.7208142124e+000	 1.9490506526e+000	-1.2376695690e+000
 1.7005623166e+000	 1.9667454862e+000	-1.2516824326e+000
 1.6801361704e+000	 1.9842233868e+000	-1.2697352142e+000
 1.6595392621e+000	 2.0014818104e+000	-1.2915581347e+000
 1.6387751286e+000	 2.0185182877e+000	-1.3168457705e+000
 1.8561553006e+000	 1.8561553006e+000	-1.2152466180e+000
 1.8368351805e+000	 1.8752763849e+000	-1.2130123897e+000
 1.8173191478e+000	 1.8941953740e+000	-1.1890556601e+000
 1.7976103882e+000	 1.9129092744e+000	-1.1741067321e+000
 1.7777121480e+000	 1.9314151596e+000	-1.1681076592e+000
 1.7576277322e+000	 1.9497101721e+000	-1.1709535725e+000
 1.7373605029e+000	 1.9677915243e+000	-1.1824936276e+000
 1.7169138773e+000	 1.9856565005e+000	-1.2025320850e+000
 1.6962913259e+000	 2.0033024578e+000	-1.2308295213e+000
 1.6754963704e+000	 2.0207268278e+000	-1.2671041674e+000
 1.6545325818e+000	 2.0379271174e+000	-1.3110333684e+000
 1.8738329701e+000	 1.8738329701e+000	-1.2425111636e+000
 1.8543288489e+000	 1.8931361600e+000	-1.1938273289e+000
 1.8346269492e+000	 1.9122353300e+000	-1.1560246245e+000
 1.8147304871e+000	 1.9311274580e+000	-1.1314133038e+000
 1.7946427398e+000	 1.9498095897e+000	-1.1199492307e+000
 1.7743670439e+000	 1.9682788404e+000	-1.1215358885e+000
 1.7539067934e+000	 1.9865323959e+000	-1.1360253468e+000
 1.7332654380e+000	 2.0045675147e+000	-1.1632193727e+000
 1.7124464814e+000	 2.0223815288e+000	-1.2028706813e+000
 1.6914534787e+000	 2.0399718452e+000	-1.2546843235e+000
 1.6702900350e+000	 2.0573359470e+000	-1.3183192029e+000
 1.8915106397e+000	 1.8915106397e+000	-1.1713684286e+000
 1.8718225172e+000	 1.9109959351e+000	-1.1755705538e+000
 1.8519347506e+000	 1.9302752859e+000	-1.1251149749e+000
 1.8318505861e+000	 1.9493456416e+000	-1.0920217268e+000
 1.8115733317e+000	 1.9682040198e+000	-1.0762594216e+000
 1.7911063556e+000	 1.9868475087e+000	-1.0777388022e+000
 1.7704530839e+000	 2.0052732676e+000	-1.0963137313e+000
 1.7496169988e+000	 2.0234785290e+000	-1.1317823349e+000
 1.7286016369e+000	 2.0414605999e+000	-1.1838882945e+000
 1.7074105870e+000	 2.0592168626e+000	-1.2523222845e+000
 1.6860474881e+000	 2.0767447767e+000	-1.3367235504e+000
 1.9091883092e+000	 1.9091883092e+000	-1.0931684836e+000
 1.8893161856e+000	 1.9288557102e+000	-1.1000735947e+000
 1.8692425520e+000	 1.9483152419e+000	-1.0944558017e+000
 1.8489706850e+000	 1.9675638251e+000	-1.0540410097e+000
 1.8285039236e+000	 1.9865984499e+000	-1.0351296243e+000
 1.8078456674e+000	 2.0054161770e+000	-1.0376385571e+000
 1.7869993744e+000	 2.0240141392e+000	-1.0614223437e+000
 1.7659685595e+000	 2.0423895433e+000	-1.1062743193e+000
 1.7447567924e+000	 2.0605396709e+000	-1.1719279552e+000
 1.7233676953e+000	 2.0784618800e+000	-1.2580583482e+000
 1.7018049413e+000	 2.0961536064e+000	-1.3642838602e+000
 1.9268659787e+000	 1.9268659787e+000	-1.0155253573e+000
 1.9068098540e+000	 1.9467154853e+000	-1.0131534973e+000
 1.8865503534e+000	 1.9663551978e+000	-1.0220317055e+000
 1.8660907839e+000	 1.9857820087e+000	-1.0155915397e+000
 1.8454345155e+000	 2.0049928800e+000	-9.9466350706e-001
 1.8245849791e+000	 2.0239848453e+000	-9.9932451047e-001
 1.8035456649e+000	 2.0427550109e+000	-1.0294286367e+000
 1.7823201203e+000	 2.0613005576e+000	-1.0847632792e+000
 1.7609119479e+000	 2.0796187419e+000	-1.1650505183e+000
 1.7393248036e+000	 2.0977068974e+000	-1.2699486656e+000
 1.7175623944e+000	 2.1155624361e+000	-1.3990539670e+000
 1.9445436483e+000	 1.9445436482e+000	-9.3863212446e-001
 1.9243035224e+000	 1.9645752604e+000	-9.2773088194e-001
 1.9038581548e+000	 1.9843951538e+000	-9.3101892027e-001
 1.8832108829e+000	 2.0040001923e+000	-9.5024844225e-001
 1.8623651074e+000	 2.0233873101e+000	-9.5297645641e-001
 1.8413242908e+000	 2.0425535136e+000	-9.6089853654e-001
 1.8200919554e+000	 2.0614958826e+000	-9.9842332208e-001
 1.7986716810e+000	 2.0802115719e+000	-1.0653311102e+000
 1.7770671034e+000	 2.0986978130e+000	-1.1613314056e+000
 1.7552819119e+000	 2.1169519149e+000	-1.2860645210e+000
 1.7333198476e+000	 2.1349712658e+000	-1.4391033456e+000
 1.5757453160e+000	 1.9408829689e+000	-1.5113213533e+000
 1.5556224556e+000	 1.9570484858e+000	-1.4967574327e+000
 1.5353457367e+000	 1.9729960641e+000	-1.4901215468e+000
 1.5149186895e+000	 1.9887235515e+000	-1.4908726740e+000
 1.4943448831e+000	 2.0042288717e+000	-1.4984408472e+000
 1.4736279238e+000	 2.0195100253e+000	-1.5122290477e+000
 1.4527714528e+000	 2.0345650901e+000	-1.5316151726e+000
 1.4317791441e+000	 2.0493922227e+000	-1.5559540694e+000
 1.4106547028e+000	 2.0639896582e+000	-1.5845796327e+000
 1.3894018625e+000	 2.0783557117e+000	-1.6168069548e+000
 1.3680243835e+000	 2.0924887780e+000	-1.6519345250e+000
 1.5915027692e+000	 1.9602917986e+000	-1.4329450793e+000
 1.5711786801e+000	 1.9766189706e+000	-1.4266847665e+000
 1.5506991940e+000	 1.9927260247e+000	-1.4277308054e+000
 1.5300678764e+000	 2.0086107870e+000	-1.4353932064e+000
 1.5092883319e+000	 2.0242711605e+000	-1.4489532371e+000
 1.4883642030e+000	 2.0397051255e+000	-1.4676655092e+000
 1.4672991673e+000	 2.0549107410e+000	-1.4907601388e+000
 1.4460969356e+000	 2.0698861449e+000	-1.5174449739e+000
 1.4247612499e+000	 2.0846295548e+000	-1.5469078825e+000
 1.4032958811e+000	 2.0991392688e+000	-1.5783190942e+000
 1.3817046273e+000	 2.1134136658e+000	-1.6108335883e+000
 1.6072602223e+000	 1.9797006283e+000	-1.3757750944e+000
 1.5867349047e+000	 1.9961894555e+000	-1.3747735918e+000
 1.5660526514e+000	 2.0124559853e+000	-1.3805179621e+000
 1.5452170632e+000	 2.0284980225e+000	-1.3921697783e+000
 1.5242317808e+000	 2.0443134492e+000	-1.4088620009e+000
 1.5031004823e+000	 2.0599002258e+000	-1.4297012591e+000
 1.4818268818e+000	 2.0752563919e+000	-1.4537702041e+000
 1.4604147270e+000	 2.0903800671e+000	-1.4801299310e+000
 1.4388677969e+000	 2.1052694514e+000	-1.5078224593e+000
 1.4171898998e+000	 2.1199228259e+000	-1.5358732667e+000
 1.3953848711e+000	 2.1343385536e+000	-1.5632938678e+000
 1.6230176755e+000	 1.9991094580e+000	-1.3377541394e+000
 1.6022911292e+000	 2.0157599404e+000	-1.3390827551e+000
 1.5814061088e+000	 2.0321859460e+000	-1.3466579146e+000
 1.5603662501e+000	 2.0483852580e+000	-1.3594932207e+000
 1.5391752296e+000	 2.0643557379e+000	-1.3765737220e+000
 1.5178367615e+000	 2.0800953260e+000	-1.3968583882e+000
 1.4963545964e+000	 2.0956020428e+000	-1.4192826590e+000
 1.4747325185e+000	 2.1108739893e+000	-1.4427610598e+000
 1.4529743439e+000	 2.1259093480e+000	-1.4661898772e+000
 1.4310839184e+000	 2.1407063830e+000	-1.4884498852e+000
 1.4090651150e+000	 2.1552634414e+000	-1.5084091162e+000
 1.6387751286e+000	 2.0185182877e+000	-1.3168457705e+000
 1.6178473538e+000	 2.0353304252e+000	-1.3176879295e+000
 1.5967595661e+000	 2.0519159066e+000	-1.3243384287e+000
 1.5755154370e+000	 2.0682724935e+000	-1.3356633066e+000
 1.5541186784e+000	 2.0843980266e+000	-1.3505000334e+000
 1.5325730408e+000	 2.1002904263e+000	-1.3676601813e+000
 1.5108823109e+000	 2.1159476937e+000	-1.3859321697e+000
 1.4890503099e+000	 2.1313679116e+000	-1.4040840769e+000
 1.4670808910e+000	 2.1465492446e+000	-1.4208665104e+000
 1.4449779370e+000	 2.1614899402e+000	-1.4350155281e+000
 1.4227453588e+000	 2.1761883292e+000	-1.4452556021e+000
 1.6545325818e+000	 2.0379271174e+000	-1.3110333684e+000
 1.6334035783e+000	 2.0549009101e+000	-1.3086808131e+000
 1.6121130235e+000	 2.0716458673e+000	-1.3117595252e+000
 1.5906646239e+000	 2.0881597291e+000	-1.3189883250e+000
 1.5690621273e+000	 2.1044403153e+000	-1.3290573777e+000
 1.5473093200e+000	 2.1204855265e+000	-1.3406310603e+000
 1.5254100254e+000	 2.1362933446e+000	-1.3523509038e+000
 1.5033681014e+000	 2.1518618338e+000	-1.3628386014e+000
 1.4811874380e+000	 2.1671891411e+000	-1.3706990762e+000
 1.4588719557e+000	 2.1822734973e+000	-1.3745235979e+000
 1.4364256026e+000	 2.1971132169e+000	-1.3728929417e+000
 1.6702900350e+000	 2.0573359470e+000	-1.3183192029e+000
 1.6489598029e+000	 2.0744713949e+000	-1.3101683735e+000
 1.6274664809e+000	 2.0913758279e+000	-1.3071329023e+000
 1.6058138108e+000	 2.1080469646e+000	-1.3077846794e+000
 1.5840055761e+000	 2.1244826040e+000	-1.3106667804e+000
 1.5620455992e+000	 2.1406806268e+000	-1.3142965312e+000
 1.5399377400e+000	 2.1566389955e+000	-1.3171686474e+000
 1.5176858928e+000	 2.1723557560e+000	-1.3177584420e+000
 1.4952939850e+000	 2.1878290377e+000	-1.3145250899e+000
 1.4727659743e+000	 2.2030570544e+000	-1.3059149430e+000
 1.4501058465e+000	 2.2180381047e+000	-1.2903648849e+000
 1.6860474881e+000	 2.0767447767e+000	-1.3367235504e+000
 1.6645160274e+000	 2.0940418798e+000	-1.3202721341e+000
 1.6428199382e+000	 2.1111057885e+000	-1.3086813895e+000
 1.6209629977e+000	 2.1279342001e+000	-1.3003765083e+000
 1.5989490249e+000	 2.1445248928e+000	-1.2937536354e+000
 1.5767818785e+000	 2.1608757270e+000	-1.2871831325e+000
 1.5544654545e+000	 2.1769846464e+000	-1.2790129171e+000
 1.5320036842e+000	 2.1928496783e+000	-1.2675718692e+000
 1.5094005321e+000	 2.2084689343e+000	-1.2511732957e+000
 1.4866599929e+000	 2.2238406115e+000	-1.2281184442e+000
 1.4637860903e+000	 2.2389629925e+000	-1.1967000562e+000
 1.7018049413e+000	 2.0961536064e+000	-1.3642838602e+000
 1.6800722520e+000	 2.1136123646e+000	-1.3371275002e+000
 1.6581733956e+000	 2.1308357492e+000	-1.3146384327e+000
 1.6361121846e+000	 2.1478214356e+000	-1.2950953274e+000
 1.6138924738e+000	 2.1645671815e+000	-1.2767475027e+000
 1.5915181577e+000	 2.1810708273e+000	-1.2578183882e+000
 1.5689931690e+000	 2.1973302973e+000	-1.2365090645e+000
 1.5463214757e+000	 2.2133436005e+000	-1.2110018711e+000
 1.5235070791e+000	 2.2291088309e+000	-1.1794640718e+000
 1.5005540115e+000	 2.2446241686e+000	-1.1400515687e+000
 1.4774663341e+000	 2.2598878803e+000	-1.0909126554e+000
 1.7175623944e+000	 2.1155624361e+000	-1.3990539670e+000
 1.6956284766e+000	 2.1331828495e+000	-1.3588831222e+000
 1.6735268530e+000	 2.1505657098e+000	-1.3232476066e+000
 1.6512613715e+000	 2.1677086711e+000	-1.2902796913e+000
 1.6288359226e+000	 2.1846094702e+000	-1.2580819179e+000
 1.6062544370e+000	 2.2012659275e+000	-1.2247307622e+000
 1.5835208835e+000	 2.2176759482e+000	-1.1882803757e+000
 1.5606392671e+000	 2.2338375227e+000	-1.1467663961e+000
 1.5376136261e+000	 2.2497487275e+000	-1.0982098148e+000
 1.5144480302e+000	 2.2654077258e+000	-1.0406208937e+000
 1.4911465780e+000	 2.2808127681e+000	-9.7200311917e-001
 1.7333198476e+000	 2.1349712658e+000	-1.4391033456e+000
 1.7111847011e+000	 2.1527533344e+000	-1.3837002936e+000
 1.6888803104e+000	 2.1702956705e+000	-1.3327621549e+000
 1.6664105584e+000	 2.1875959066e+000	-1.2842748730e+000
 1.6437793714e+000	 2.2046517589e+000	-1.2361942107e+000
 1.6209907162e+000	 2.2214610278e+000	-1.1864496156e+000
 1.5980485981e+000	 2.2380215991e+000	-1.1329481655e+000
 1.5749570586e+000	 2.2543314449e+000	-1.0735785819e+000
 1.5517201731e+000	 2.2703886241e+000	-1.0062153026e+000
 1.5283420488e+000	 2.2861912829e+000	-9.2872260148e-001
 1.5048268218e+000	 2.3017376559e+000	-8.3895874643e-001
 1.3680243835e+000	 2.0924887780e+000	-1.6519345250e+000
 1.3465260504e+000	 2.1063873328e+000	-1.6022322717e+000
 1.3249106704e+000	 2.1200499323e+000	-1.5526165338e+000
 1.3031820709e+000	 2.1334752143e+000	-1.5019895702e+000
 1.2813440973e+000	 2.1466618980e+000	-1.4492490247e+000
 1.2594006108e+000	 2.1596087844e+000	-1.3932906317e+000
 1.2373554867e+000	 2.1723147561e+000	-1.3703364498e+000
 1.2152126119e+000	 2.1847787778e+000	-1.3773805934e+000
 1.1929758828e+000	 2.1969998960e+000	-1.3874728737e+000
 1.1706492033e+000	 2.2089772391e+000	-1.3994277692e+000
 1.1482364826e+000	 2.2207100171e+000	-1.4120994633e+000
 1.3817046273e+000	 2.1134136658e+000	-1.6108335883e+000
 1.3599913109e+000	 2.1274512061e+000	-1.5486086364e+000
 1.3381597771e+000	 2.1412504316e+000	-1.4885110906e+000
 1.3162138916e+000	 2.1548099664e+000	-1.4294153773e+000
 1.2941575382e+000	 2.1681285170e+000	-1.3701886458e+000
 1.2719946169e+000	 2.1812048722e+000	-1.3096935749e+000
 1.2497290416e+000	 2.1940379036e+000	-1.2475397635e+000
 1.2273647380e+000	 2.2066265656e+000	-1.2474233042e+000
 1.2049056416e+000	 2.2189698950e+000	-1.2518034117e+000
 1.1823556953e+000	 2.2310670115e+000	-1.2594650427e+000
 1.1597188475e+000	 2.2429171172e+000	-1.2692323607e+000
 1.3953848711e+000	 2.1343385536e+000	-1.5632938678e+000
 1.3734565714e+000	 2.1485150794e+000	-1.4901902091e+000
 1.3514088839e+000	 2.1624509309e+000	-1.4212338958e+000
 1.3292457123e+000	 2.1761447186e+000	-1.3552697888e+000
 1.3069709792e+000	 2.1895951360e+000	-1.2911328127e+000
 1.2845886230e+000	 2.2028009601e+000	-1.2276508665e+000
 1.2621025965e+000	 2.2157610512e+000	-1.1636477417e+000
 1.2395168641e+000	 2.2284743533e+000	-1.1265583397e+000
 1.2168354005e+000	 2.2409398939e+000	-1.1260933954e+000
 1.1940621873e+000	 2.2531567839e+000	-1.1302638752e+000
 1.1712012123e+000	 2.2651242174e+000	-1.1378629729e+000
 1.4090651150e+000	 2.1552634414e+000	-1.5084091162e+000
 1.3869218319e+000	 2.1695789527e+000	-1.4260651705e+000
 1.3646579906e+000	 2.1836514302e+000	-1.3498693324e+000
 1.3422775331e+000	 2.1974794707e+000	-1.2786351495e+000
 1.3197844202e+000	 2.2110617550e+000	-1.2111635760e+000
 1.2971826291e+000	 2.2243970479e+000	-1.1462459903e+000
 1.2744761513e+000	 2.2374841988e+000	-1.0826672230e+000
 1.2516689903e+000	 2.2503221411e+000	-1.0192085860e+000
 1.2287651593e+000	 2.2629098929e+000	-1.0106506574e+000
 1.2057686794e+000	 2.2752465563e+000	-1.0121265471e+000
 1.1826835771e+000	 2.2873313176e+000	-1.0182889951e+000
 1.4227453588e+000	 2.1761883292e+000	-1.4452556021e+000
 1.4003870924e+000	 2.1906428261e+000	-1.3553051627e+000
 1.3779070973e+000	 2.2048519296e+000	-1.2734861432e+000
 1.3553093538e+000	 2.2188142229e+000	-1.1985790158e+000
 1.3325978612e+000	 2.2325283739e+000	-1.1293490025e+000
 1.3097766352e+000	 2.2459931357e+000	-1.0645492027e+000
 1.2868497062e+000	 2.2592073463e+000	-1.0029237341e+000
 1.2638211164e+000	 2.2721699289e+000	-9.4321087757e-001
 1.2406949181e+000	 2.2848798918e+000	-9.0577178702e-001
 1.2174751714e+000	 2.2973363287e+000	-9.0534466047e-001
 1.1941659420e+000	 2.3095384178e+000	-9.1079796124e-001
 1.4364256026e+000	 2.1971132169e+000	-1.3728929417e+000
 1.4138523529e+000	 2.2117066994e+000	-1.2769660759e+000
 1.3911562040e+000	 2.2260524289e+000	-1.1911381757e+000
 1.3683411745e+000	 2.2401489750e+000	-1.1141548600e+000
 1.3454113021e+000	 2.2539949929e+000	-1.0447438407e+000
 1.3223706413e+000	 2.2675892236e+000	-9.8161816267e-001
 1.2992232611e+000	 2.2809304939e+000	-9.2347946018e-001
 1.2759732425e+000	 2.2940177167e+000	-8.6902122046e-001
 1.2526246769e+000	 2.3068498908e+000	-8.1693204580e-001
 1.2291816635e+000	 2.3194261010e+000	-8.1019964756e-001
 1.2056483068e+000	 2.3317455179e+000	-8.1566772828e-001
 1.4501058465e+000	 2.2180381047e+000	-1.2903648849e+000
 1.4273176134e+000	 2.2327705727e+000	-1.1900887923e+000
 1.4044053107e+000	 2.2472529282e+000	-1.1018650846e+000
 1.3813729952e+000	 2.2614837271e+000	-1.0244027345e+000
 1.3582247431e+000	 2.2754616119e+000	-9.5639014936e-001
 1.3349646475e+000	 2.2891853114e+000	-8.9649852627e-001
 1.3115968159e+000	 2.3026536414e+000	-8.4338522698e-001
 1.2881253686e+000	 2.3158655044e+000	-7.9569716269e-001
 1.2645544358e+000	 2.3288198898e+000	-7.5207418000e-001
 1.2408881555e+000	 2.3415158734e+000	-7.2696325054e-001
 1.2171306716e+000	 2.3539526181e+000	-7.3316693224e-001
 1.4637860903e+000	 2.2389629925e+000	-1.1967000562e+000
 1.4407828739e+000	 2.2538344460e+000	-1.0936998870e+000
 1.4176544174e+000	 2.2684534275e+000	-1.0046929951e+000
 1.3944048159e+000	 2.2828184793e+000	-9.2834989894e-001
 1.3710381841e+000	 2.2969282309e+000	-8.6331789010e-001
 1.3475586536e+000	 2.3107813993e+000	-8.0822450712e-001
 1.3239703708e+000	 2.3243767890e+000	-7.6168103125e-001
 1.3002774948e+000	 2.3377132922e+000	-7.2228599549e-001
 1.2764841946e+000	 2.3507898887e+000	-6.8862869717e-001
 1.2525946475e+000	 2.3636056458e+000	-6.5929270479e-001
 1.2286130364e+000	 2.3761597183e+000	-6.6355541922e-001
 1.4774663341e+000	 2.2598878803e+000	-1.0909126554e+000
 1.4542481344e+000	 2.2748983194e+000	-9.8681229013e-001
 1.4309035241e+000	 2.2896539269e+000	-8.9863512918e-001
 1.4074366366e+000	 2.3041532314e+000	-8.2501141230e-001
 1.3838516251e+000	 2.3183948499e+000	-7.6454548769e-001
 1.3601526597e+000	 2.3323774871e+000	-7.1581940639e-001
 1.3363439257e+000	 2.3460999366e+000	-6.7739654229e-001
 1.3124296209e+000	 2.3595610800e+000	-6.4782522812e-001
 1.2884139534e+000	 2.3727598877e+000	-6.2564239754e-001
 1.2643011396e+000	 2.3856954182e+000	-6.0937722356e-001
 1.2400954013e+000	 2.3983668184e+000	-6.0708465240e-001
 1.4911465780e+000	 2.2808127681e+000	-9.7200311917e-001
 1.4677133949e+000	 2.2959621927e+000	-8.6842591325e-001
 1.4441526308e+000	 2.3108544262e+000	-7.8269239745e-001
 1.4204684573e+000	 2.3254879836e+000	-7.1339069286e-001
 1.3966650660e+000	 2.3398614688e+000	-6.5908035925e-001
 1.3727466658e+000	 2.3539735750e+000	-6.1829611330e-001
 1.3487174805e+000	 2.3678230841e+000	-5.8955157562e-001
 1.3245817470e+000	 2.3814088678e+000	-5.7134303661e-001
 1.3003437123e+000	 2.3947298867e+000	-5.6215323086e-001
 1.2760076316e+000	 2.4077851906e+000	-5.6045511004e-001
 1.2515777661e+000	 2.4205739186e+000	-5.6471560442e-001
 1.5048268218e+000	 2.3017376559e+000	-8.3895874643e-001
 1.4811786555e+000	 2.3170260660e+000	-7.3752824079e-001
 1.4574017375e+000	 2.3320549255e+000	-6.5585395896e-001
 1.4335002780e+000	 2.3468227357e+000	-5.9248004712e-001
 1.4094785070e+000	 2.3613280878e+000	-5.4591941451e-001
 1.3853406719e+000	 2.3755696628e+000	-5.1465757837e-001
 1.3610910354e+000	 2.3895462317e+000	-4.9715654092e-001
 1.3367338731e+000	 2.4032566556e+000	-4.9185868800e-001
 1.3122734711e+000	 2.4166998856e+000	-4.9719069869e-001
 1.2877141236e+000	 2.4298749630e+000	-5.1156745561e-001
 1.2630601309e+000	 2.4427810188e+000	-5.3339594551e-001
 1.1482364826e+000	 2.2207100171e+000	-1.4120994633e+000
 1.1257416334e+000	 2.2321975215e+000	-1.3604829737e+000
 1.1031685694e+000	 2.2434391250e+000	-1.3115160662e+000
 1.0805212035e+000	 2.2544342814e+000	-1.2641952032e+000
 1.0578034457e+000	 2.2651825247e+000	-1.2175575671e+000
 1.0350192013e+000	 2.2756834694e+000	-1.1706822787e+000
 1.0121723687e+000	 2.2859368093e+000	-1.1226915035e+000
 9.8926683732e-001	 2.2959423174e+000	-1.0727514462e+000
 9.6630648602e-001	 2.3056998450e+000	-1.0200732338e+000
 9.4329518099e-001	 2.3152093213e+000	-9.6391368546e-001
 9.2023677391e-001	 2.3244707527e+000	-9.0357597148e-001
 1.1597188475e+000	 2.2429171172e+000	-1.2692323607e+000
 1.1369990498e+000	 2.2545194967e+000	-1.2165474576e+000
 1.1142002551e+000	 2.2658735162e+000	-1.1653954963e+000
 1.0913264155e+000	 2.2769786242e+000	-1.1148018408e+000
 1.0683814802e+000	 2.2878343500e+000	-1.0638339507e+000
 1.0453693934e+000	 2.2984403041e+000	-1.0116025744e+000
 1.0222940924e+000	 2.3087961774e+000	-9.5726282892e-001
 9.9915950569e-001	 2.3189017405e+000	-9.0001516478e-001
 9.7596955088e-001	 2.3287568434e+000	-8.3910621697e-001
 9.5272813280e-001	 2.3383614145e+000	-7.7382954075e-001
 9.2943914165e-001	 2.3477154602e+000	-7.0352623344e-001
 1.1712012123e+000	 2.2651242174e+000	-1.1378629729e+000
 1.1482564661e+000	 2.2768414719e+000	-1.0862535872e+000
 1.1252319408e+000	 2.2883079075e+000	-1.0350386783e+000
 1.1021316275e+000	 2.2995229670e+000	-9.8327083622e-001
 1.0789595146e+000	 2.3104861752e+000	-9.3004616906e-001
 1.0557195854e+000	 2.3211971388e+000	-8.7450547341e-001
 1.0324158161e+000	 2.3316555455e+000	-8.1583528832e-001
 1.0090521741e+000	 2.3418611637e+000	-7.5326883229e-001
 9.8563261575e-001	 2.3518138419e+000	-6.8608682298e-001
 9.6216108461e-001	 2.3615135077e+000	-6.1361817989e-001
 9.3864150939e-001	 2.3709601677e+000	-5.3524061024e-001
 1.1826835771e+000	 2.2873313176e+000	-1.0182889951e+000
 1.1595138824e+000	 2.2991634471e+000	-9.6985247887e-001
 1.1362636265e+000	 2.3107422987e+000	-9.2064976031e-001
 1.1129368396e+000	 2.3220673098e+000	-8.6975899515e-001
 1.0895375491e+000	 2.3331380004e+000	-8.1630332746e-001
 1.0660697774e+000	 2.3439539735e+000	-7.5945203856e-001
 1.0425375398e+000	 2.3545149136e+000	-6.9842157674e-001
 1.0189448424e+000	 2.3648205869e+000	-6.3247646715e-001
 9.9529568061e-001	 2.3748708403e+000	-5.6093010185e-001
 9.7159403643e-001	 2.3846656010e+000	-4.8314541002e-001
 9.4784387714e-001	 2.3942048752e+000	-3.9853540911e-001
 1.1941659420e+000	 2.3095384178e+000	-9.1079796124e-001
 1.1707712988e+000	 2.3214854223e+000	-8.6758720906e-001
 1.1472953122e+000	 2.3331766900e+000	-8.2242697471e-001
 1.1237420516e+000	 2.3446116526e+000	-7.7441933410e-001
 1.1001155835e+000	 2.3557898257e+000	-7.2271286966e-001
 1.0764199694e+000	 2.3667108082e+000	-6.6650379927e-001
 1.0526592634e+000	 2.3773742817e+000	-6.0503698302e-001
 1.0288375108e+000	 2.3877800100e+000	-5.3760680731e-001
 1.0049587455e+000	 2.3979278388e+000	-4.6355794622e-001
 9.8102698824e-001	 2.4078176942e+000	-3.8228600050e-001
 9.5704624488e-001	 2.4174495828e+000	-2.9323801462e-001
 1.2056483068e+000	 2.3317455179e+000	-8.1566772828e-001
 1.1820287151e+000	 2.3438073975e+000	-7.7969319686e-001
 1.1583269979e+000	 2.3556110812e+000	-7.4056291960e-001
 1.1345472636e+000	 2.3671559954e+000	-6.9740126057e-001
 1.1106936180e+000	 2.3784416509e+000	-6.4938065691e-001
 1.0867701614e+000	 2.3894676429e+000	-5.9572272914e-001
 1.0627809871e+000	 2.4002336497e+000	-5.3569926630e-001
 1.0387301792e+000	 2.4107394332e+000	-4.6863308546e-001
 1.0146218103e+000	 2.4209848372e+000	-3.9389876557e-001
 9.9045994005e-001	 2.4309697874e+000	-3.1092325611e-001
 9.6624861262e-001	 2.4406942903e+000	-2.1918636109e-001
 1.2171306716e+000	 2.3539526181e+000	-7.3316693224e-001
 1.1932861314e+000	 2.3661293727e+000	-7.0639856528e-001
 1.1693586836e+000	 2.3780454725e+000	-6.7524482466e-001
 1.1453524757e+000	 2.3897003382e+000	-6.3885074336e-001
 1.1212716525e+000	 2.4010934762e+000	-5.9641104261e-001
 1.0971203534e+000	 2.4122244775e+000	-5.4717122503e-001
 1.0729027108e+000	 2.4230930178e+000	-4.9042853948e-001
 1.0486228476e+000	 2.4336988564e+000	-4.2553281708e-001
 1.0242848752e+000	 2.4440418357e+000	-3.5188717876e-001
 9.9989289186e-001	 2.4541218806e+000	-2.6894861448e-001
 9.7545098036e-001	 2.4639389978e+000	-1.7622843506e-001
 1.2286130364e+000	 2.3761597183e+000	-6.6355541922e-001
 1.2045435478e+000	 2.3884513479e+000	-6.4792448220e-001
 1.1803903692e+000	 2.4004798637e+000	-6.2665480202e-001
 1.1561576877e+000	 2.4122446810e+000	-5.9891047322e-001
 1.1318496869e+000	 2.4237453014e+000	-5.6390694274e-001
 1.1074705454e+000	 2.4349813122e+000	-5.2091208730e-001
 1.0830244345e+000	 2.4459523859e+000	-4.6924715922e-001
 1.0585155159e+000	 2.4566582796e+000	-4.0828760028e-001
 1.0339479401e+000	 2.4670988341e+000	-3.3746372390e-001
 1.0093258437e+000	 2.4772739738e+000	-2.5626126599e-001
 9.8465334810e-001	 2.4871837053e+000	-1.6422180546e-001
 1.2400954013e+000	 2.3983668184e+000	-6.0708465240e-001
 1.2158009641e+000	 2.4107733232e+000	-6.0448548233e-001
 1.1914220549e+000	 2.4229142550e+000	-5.9497008317e-001
 1.1669628997e+000	 2.4347890238e+000	-5.7772001465e-001
 1.1424277214e+000	 2.4463971267e+000	-5.5196990244e-001
 1.1178207375e+000	 2.4577381469e+000	-5.1700850108e-001
 1.0931461582e+000	 2.4688117540e+000	-4.7217962209e-001
 1.0684081843e+000	 2.4796177027e+000	-4.1688292682e-001
 1.0436110049e+000	 2.4901558326e+000	-3.5057458433e-001
 1.0187587955e+000	 2.5004260670e+000	-2.7464100673e-001
 9.9385571584e-001	 2.5104284129e+000	-2.4239085802e-001
 1.2515777661e+000	 2.4205739186e+000	-5.6471560442e-001
 1.2270583804e+000	 2.4330952984e+000	-5.7628977153e-001
 1.2024537406e+000	 2.4453486462e+000	-5.8036324282e-001
 1.1777681118e+000	 2.4573333667e+000	-5.7541594928e-001
 1.1530057558e+000	 2.4690489519e+000	-5.6070015888e-001
 1.1281709295e+000	 2.4804949816e+000	-5.3552401868e-001
 1.1032678819e+000	 2.4916711221e+000	-4.9925246640e-001
 1.0783008527e+000	 2.5025771259e+000	-4.5360217261e-001
 1.0532740698e+000	 2.5132128310e+000	-4.1935673777e-001
 1.0281917473e+000	 2.5235781602e+000	-3.9871448255e-001
 1.0030580836e+000	 2.5336731204e+000	-3.9119245993e-001
 1.2630601309e+000	 2.4427810188e+000	-5.3339594551e-001
 1.2383157968e+000	 2.4554172736e+000	-5.6353951444e-001
 1.2134854263e+000	 2.4677830375e+000	-5.8300241062e-001
 1.1885733238e+000	 2.4798777095e+000	-5.9213201144e-001
 1.1635837903e+000	 2.4917007772e+000	-5.9019670073e-001
 1.1385211215e+000	 2.5032518163e+000	-5.6831635448e-001
 1.1133896056e+000	 2.5145304902e+000	-5.3107909848e-001
 1.0881935211e+000	 2.5255365491e+000	-5.0857264840e-001
 1.0629371346e+000	 2.5362698295e+000	-5.0034901482e-001
 1.0376246991e+000	 2.5467302535e+000	-5.0595647751e-001
 1.0122604513e+000	 2.5569178279e+000	-5.2494034191e-001
 9.2023677391e-001	 2.3244707527e+000	-9.0357597148e-001
 8.9713510015e-001	 2.3334842215e+000	-8.6544373751e-001
 8.7399397693e-001	 2.3422498860e+000	-8.3553568298e-001
 8.5081720161e-001	 2.3507679787e+000	-8.1364094118e-001
 8.2760854992e-001	 2.3590388060e+000	-7.9957952335e-001
 8.0437177429e-001	 2.3670627471e+000	-7.9320233861e-001
 7.8111060220e-001	 2.3748402530e+000	-7.9439113283e-001
 7.5782873460e-001	 2.3823718453e+000	-8.0305834845e-001
 7.3452984428e-001	 2.3896581153e+000	-8.1914690728e-001
 7.1121757443e-001	 2.3966997229e+000	-8.4262991858e-001
 6.8789553712e-001	 2.4034973955e+000	-8.7351031491e-001
 9.2943914165e-001	 2.3477154602e+000	-7.0352623344e-001
 9.0610645115e-001	 2.3568190637e+000	-6.6630520493e-001
 8.8273391670e-001	 2.3656723848e+000	-6.3225235313e-001
 8.5932537363e-001	 2.3742756584e+000	-6.0114086756e-001
 8.3588463542e-001	 2.3826291940e+000	-5.7278044118e-001
 8.1241549204e-001	 2.3907333746e+000	-5.4701723111e-001
 7.8892170823e-001	 2.3985886555e+000	-5.2373373119e-001
 7.6540702195e-001	 2.4061955637e+000	-5.0284855825e-001
 7.4187514273e-001	 2.4135546964e+000	-4.8431615477e-001
 7.1832975018e-001	 2.4206667202e+000	-4.6812641015e-001
 6.9477449249e-001	 2.4275323694e+000	-4.5430420348e-001
 9.3864150939e-001	 2.3709601677e+000	-5.3524061024e-001
 9.1507780216e-001	 2.3801539060e+000	-4.9777741625e-001
 8.9147385648e-001	 2.3890948837e+000	-4.5847946461e-001
 8.6783354565e-001	 2.3977833382e+000	-4.1710358686e-001
 8.4416072093e-001	 2.4062195821e+000	-3.7344873867e-001
 8.2045920978e-001	 2.4144040021e+000	-3.2735590216e-001
 7.9673281426e-001	 2.4223370580e+000	-2.7870789253e-001
 7.7298530930e-001	 2.4300192822e+000	-2.2742907154e-001
 7.4922044118e-001	 2.4374512776e+000	-1.7348497040e-001
 7.2544192593e-001	 2.4446337174e+000	-1.1688182472e-001
 7.0165344787e-001	 2.4515673434e+000	-5.7666024825e-002
 9.4784387714e-001	 2.3942048752e+000	-3.9853540911e-001
 9.2404915316e-001	 2.4034887482e+000	-3.5971459807e-001
 9.0021379625e-001	 2.4125173825e+000	-3.1410633904e-001
 8.7634171767e-001	 2.4212910180e+000	-2.6145068804e-001
 8.5243680643e-001	 2.4298099702e+000	-2.0153544318e-001
 8.2850292753e-001	 2.4380746295e+000	-1.3419598910e-001
 8.0454392028e-001	 2.4460854606e+000	-5.9315038387e-002
 7.8056359665e-001	 2.4538430006e+000	 2.3177727335e-002
 7.5656573962e-001	 2.4613478587e+000	 1.1330611377e-001
 7.3255410168e-001	 2.4686007146e+000	 2.1104796475e-001
 7.0853240324e-001	 2.4756023173e+000	 3.1633580413e-001
 9.5704624488e-001	 2.4174495828e+000	-2.9323801462e-001
 9.3302050416e-001	 2.4268235904e+000	-2.5198079243e-001
 9.0895373602e-001	 2.4359398814e+000	-1.9903094545e-001
 8.8484988969e-001	 2.4447986978e+000	-1.3411133321e-001
 8.6071289193e-001	 2.4534003582e+000	-5.6998174478e-002
 8.3654664528e-001	 2.4617452570e+000	 3.2479165587e-002
 8.1235502631e-001	 2.4698338631e+000	 1.3443849873e-001
 7.8814188400e-001	 2.4776667191e+000	 2.4894524438e-001
 7.6391103807e-001	 2.4852444399e+000	 3.7601296477e-001
 7.3966627743e-001	 2.4925677118e+000	 5.1560400111e-001
 7.1541135862e-001	 2.4996372913e+000	 6.6763020724e-001
 9.6624861262e-001	 2.4406942903e+000	-2.1918636109e-001
 9.4199185517e-001	 2.4501584326e+000	-1.7444938949e-001
 9.1769367579e-001	 2.4593623803e+000	-1.1315948859e-001
 8.9335806171e-001	 2.4683063776e+000	-3.5021897025e-002
 8.6898897743e-001	 2.4769907463e+000	 6.0199169131e-002
 8.4459036302e-001	 2.4854158845e+000	 1.7268078597e-001
 8.2016613233e-001	 2.4935822656e+000	 3.0254170923e-001
 7.9572017134e-001	 2.5014904375e+000	 4.2260135070e-001
 7.7125633651e-001	 2.5091410210e+000	 4.3393255658e-001
 7.4677845317e-001	 2.5165347091e+000	 4.4495780169e-001
 7.2229031399e-001	 2.5236722653e+000	 4.5615625776e-001
 9.7545098036e-001	 2.4639389978e+000	-1.7622843506e-001
 9.5096320617e-001	 2.4734932748e+000	-1.2700268651e-001
 9.2643361556e-001	 2.4827848791e+000	-5.6406020382e-002
 9.0186623372e-001	 2.4918140574e+000	 3.5874373541e-002
 8.7726506293e-001	 2.5005811343e+000	 1.4250699013e-001
 8.5263408076e-001	 2.5090865119e+000	 1.5501401658e-001
 8.2797723835e-001	 2.5173306682e+000	 1.6930979628e-001
 8.0329845869e-001	 2.5253141560e+000	 1.8591004930e-001
 7.7860163495e-001	 2.5330376022e+000	 2.0531746137e-001
 7.5389062892e-001	 2.5405017063e+000	 2.2802126926e-001
 7.2916926936e-001	 2.5477072392e+000	 2.5449688301e-001
 9.8465334810e-001	 2.4871837053e+000	-1.6422180546e-001
 9.5993455717e-001	 2.4968281170e+000	-1.0953147167e-001
 9.3517355533e-001	 2.5062073780e+000	-8.6615620864e-002
 9.1037440574e-001	 2.5153217372e+000	-8.5387440002e-002
 8.8554114843e-001	 2.5241715224e+000	-7.9942731167e-002
 8.6067779851e-001	 2.5327571394e+000	-6.9725876440e-002
 8.3578834438e-001	 2.5410790707e+000	-5.4197135615e-002
 8.1087674604e-001	 2.5491378744e+000	-3.2833091309e-002
 7.8594693340e-001	 2.5569341833e+000	-5.1270526143e-003
 7.6100280466e-001	 2.5644687035e+000	 2.9410582449e-002
 7.3604822473e-001	 2.5717422132e+000	 7.1252005304e-002
 9.9385571584e-001	 2.5104284129e+000	-2.4239085802e-001
 9.6890590817e-001	 2.5201629592e+000	-2.6342129889e-001
 9.4391349510e-001	 2.5296298768e+000	-2.7800559324e-001
 9.1888257776e-001	 2.5388294169e+000	-2.8553463130e-001
 8.9381723393e-001	 2.5477619105e+000	-2.8541799233e-001
 8.6872151625e-001	 2.5564277669e+000	-2.7708443962e-001
 8.4359945040e-001	 2.5648274732e+000	-2.5998236894e-001
 8.1845503338e-001	 2.5729615929e+000	-2.3358021094e-001
 7.9329223184e-001	 2.5808307645e+000	-1.9736678768e-001
 7.6811498040e-001	 2.5884357008e+000	-1.5085162367e-001
 7.4292718010e-001	 2.5957771871e+000	-9.3565212183e-002
 1.0030580836e+000	 2.5336731204e+000	-3.9119245993e-001
 9.7787725917e-001	 2.5434978015e+000	-4.2712702751e-001
 9.5265343487e-001	 2.5530523757e+000	-4.5329492668e-001
 9.2739074977e-001	 2.5623370967e+000	-4.6906347136e-001
 9.0209331943e-001	 2.5713522985e+000	-4.7382246212e-001
 8.7676523399e-001	 2.5800983944e+000	-4.6698464823e-001
 8.5141055642e-001	 2.5885758757e+000	-4.4798613880e-001
 8.2603332072e-001	 2.5967853113e+000	-4.1628676307e-001
 8.0063753028e-001	 2.6047273457e+000	-3.7137038060e-001
 7.7522715614e-001	 2.6124026980e+000	-3.1274514178e-001
 7.4980613547e-001	 2.6198121611e+000	-2.3994369949e-001
 1.0122604513e+000	 2.5569178279e+000	-5.2494034191e-001
 9.8684861017e-001	 2.5668326437e+000	-5.7515627969e-001
 9.6139337463e-001	 2.5764748746e+000	-6.1234901984e-001
 9.3589892178e-001	 2.5858447765e+000	-6.3586196211e-001
 9.1036940492e-001	 2.5949426866e+000	-6.4506476271e-001
 8.8480895173e-001	 2.6037690218e+000	-6.3935376429e-001
 8.5922166244e-001	 2.6123242783e+000	-6.1815237034e-001
 8.3361160807e-001	 2.6206090298e+000	-5.8091136424e-001
 8.0798282872e-001	 2.6286239268e+000	-5.2710917379e-001
 7.8233933189e-001	 2.6363696952e+000	-4.5625208199e-001
 7.5668509084e-001	 2.6438471350e+000	-3.6787438476e-001
 6.8789553712e-001	 2.4034973955e+000	-8.7351031491e-001
 6.6456731185e-001	 2.4100519264e+000	-9.3514380743e-001
 6.4123644421e-001	 2.4163641743e+000	-9.4196133619e-001
 6.1790644450e-001	 2.4224350612e+000	-9.1083986921e-001
 5.9458078647e-001	 2.4282655721e+000	-8.8906734655e-001
 5.7126290603e-001	 2.4338567526e+000	-8.5519069253e-001
 5.4795620010e-001	 2.4392097087e+000	-8.1195473124e-001
 5.2466402543e-001	 2.4443256044e+000	-7.6198700394e-001
 5.0138969748e-001	 2.4492056613e+000	-7.0779397320e-001
 4.7813648941e-001	 2.4538511564e+000	-6.5175759611e-001
 4.5490763105e-001	 2.4582634210e+000	-5.9613226513e-001
 6.9477449249e-001	 2.4275323694e+000	-4.5430420348e-001
 6.7121298497e-001	 2.4341524457e+000	-4.6744394184e-001
 6.4764880865e-001	 2.4405278160e+000	-4.2954934410e-001
 6.2408550895e-001	 2.4466594119e+000	-3.4279868855e-001
 6.0052659434e-001	 2.4525482278e+000	-2.6925132991e-001
 5.7697553510e-001	 2.4581953202e+000	-1.9056631451e-001
 5.5343576211e-001	 2.4636018058e+000	-1.0960861603e-001
 5.2991066568e-001	 2.4687688605e+000	-2.9116303195e-002
 5.0640359445e-001	 2.4736977179e+000	 4.8303298206e-002
 4.8291785430e-001	 2.4783896679e+000	 1.2017705744e-001
 4.5945670736e-001	 2.4828460553e+000	 1.8416910673e-001
 7.0165344787e-001	 2.4515673434e+000	-5.7666024825e-002
 6.7785865809e-001	 2.4582529650e+000	-2.3193142976e-002
 6.5406117310e-001	 2.4646914578e+000	 5.8658966861e-002
 6.3026457340e-001	 2.4708837625e+000	 1.8736177488e-001
 6.0647240220e-001	 2.4768308835e+000	 3.2175553402e-001
 5.8268816416e-001	 2.4825338877e+000	 4.4791288184e-001
 5.5891532411e-001	 2.4879939028e+000	 5.6928311170e-001
 5.3515730594e-001	 2.4932121165e+000	 6.8301306875e-001
 5.1141749143e-001	 2.4981897745e+000	 7.8639010911e-001
 4.8769921920e-001	 2.5029281795e+000	 7.7611362237e-001
 4.6400578367e-001	 2.5074286895e+000	 6.9835354779e-001
 7.0853240324e-001	 2.4756023173e+000	 3.1633580413e-001
 6.8450433122e-001	 2.4823534842e+000	 3.9757476988e-001
 6.6047353755e-001	 2.4888550995e+000	 5.2266204080e-001
 6.3644363785e-001	 2.4951081131e+000	 6.9106251121e-001
 6.1241821007e-001	 2.5011135392e+000	 8.4814364172e-001
 5.8840079322e-001	 2.5068724552e+000	 8.3849534851e-001
 5.6439488611e-001	 2.5123859999e+000	 8.1372522043e-001
 5.4040394619e-001	 2.5176553726e+000	 7.7633648287e-001
 5.1643138840e-001	 2.5226818311e+000	 7.2858453630e-001
 4.9248058409e-001	 2.5274666911e+000	 6.7247555162e-001
 4.6855485998e-001	 2.5320113237e+000	 6.0976567093e-001
 7.1541135862e-001	 2.4996372913e+000	 6.6763020724e-001
 6.9115000434e-001	 2.5064540035e+000	 6.3208499537e-001
 6.6688590199e-001	 2.5130187412e+000	 6.1373499216e-001
 6.4262270229e-001	 2.5193324637e+000	 6.2131813352e-001
 6.1836401794e-001	 2.5253961950e+000	 6.4910855456e-001
 5.9411342228e-001	 2.5312110227e+000	 6.5870980582e-001
 5.6987444812e-001	 2.5367780970e+000	 6.5142557467e-001
 5.4565058645e-001	 2.5420986286e+000	 6.2992982426e-001
 5.2144528538e-001	 2.5471738878e+000	 5.9664218027e-001
 4.9726194898e-001	 2.5520052026e+000	 5.5372636158e-001
 4.7310393629e-001	 2.5565939579e+000	 5.0308923571e-001
 7.2229031399e-001	 2.5236722653e+000	 4.5615625776e-001
 6.9779567746e-001	 2.5305545228e+000	 4.2382073854e-001
 6.7329826643e-001	 2.5371823830e+000	 4.1283193410e-001
 6.4880176674e-001	 2.5435568143e+000	 4.2335632823e-001
 6.2430982580e-001	 2.5496788507e+000	 4.5532254808e-001
 5.9982605134e-001	 2.5555495903e+000	 4.8001711893e-001
 5.7535401012e-001	 2.5611701941e+000	 4.8627310961e-001
 5.5089722670e-001	 2.5665418847e+000	 4.7693979744e-001
 5.2645918235e-001	 2.5716659444e+000	 4.5460530288e-001
 5.0204331388e-001	 2.5765437142e+000	 4.2159485436e-001
 4.7765301260e-001	 2.5811765921e+000	 3.7996969783e-001
 7.2916926936e-001	 2.5477072392e+000	 2.5449688301e-001
 7.0444135058e-001	 2.5546550420e+000	 2.3263050078e-001
 6.7971063087e-001	 2.5613460247e+000	 2.2776620012e-001
 6.5498083118e-001	 2.5677811649e+000	 2.4008352234e-001
 6.3025563367e-001	 2.5739615064e+000	 2.6973890656e-001
 6.0553868040e-001	 2.5798881578e+000	 3.0446760177e-001
 5.8083357212e-001	 2.5855622912e+000	 3.2023586213e-001
 5.5614386696e-001	 2.5909851407e+000	 3.1925167522e-001
 5.3147307933e-001	 2.5961580010e+000	 3.0427600790e-001
 5.0682467877e-001	 2.6010822257e+000	 2.7779963972e-001
 4.8220208891e-001	 2.6057592263e+000	 2.4204192593e-001
 7.3604822473e-001	 2.5717422132e+000	 7.1252005304e-002
 7.1108702369e-001	 2.5787555613e+000	 5.8559973871e-002
 6.8612299532e-001	 2.5855096665e+000	 5.8611585839e-002
 6.6115989563e-001	 2.5920055155e+000	 7.1599390437e-002
 6.3620144153e-001	 2.5982441621e+000	 9.7695995701e-002
 6.1125130946e-001	 2.6042267253e+000	 1.3410424506e-001
 5.8631313412e-001	 2.6099543883e+000	 1.5527381344e-001
 5.6139050721e-001	 2.6154283968e+000	 1.5874203213e-001
 5.3648697630e-001	 2.6206500576e+000	 1.4744714752e-001
 5.1160604366e-001	 2.6256207373e+000	 1.2404961134e-001
 4.8675116522e-001	 2.6303418605e+000	 9.0930696320e-002
 7.4292718010e-001	 2.5957771871e+000	-9.3565212183e-002
 7.1773269681e-001	 2.6028560806e+000	-9.8348476333e-002
 6.9253535976e-001	 2.6096733082e+000	-9.4562483878e-002
 6.6733896007e-001	 2.6162298662e+000	-8.2001721420e-002
 6.4214724939e-001	 2.6225268178e+000	-6.0477512122e-002
 6.1696393852e-001	 2.6285652928e+000	-2.9036944613e-002
 5.9179269612e-001	 2.6343464854e+000	-6.6607379304e-003
 5.6663714746e-001	 2.6398716528e+000	-2.7208528851e-003
 5.4150087327e-001	 2.6451421142e+000	-1.4097249332e-002
 5.1638740856e-001	 2.6501592489e+000	-3.7955603372e-002
 4.9130024153e-001	 2.6549244947e+000	-7.1748839816e-002
 7.4980613547e-001	 2.6198121611e+000	-2.3994369949e-001
 7.2437836993e-001	 2.6269565998e+000	-2.3805565734e-001
 6.9894772419e-001	 2.6338369500e+000	-2.3169075441e-001
 6.7351802451e-001	 2.6404542168e+000	-2.2063055127e-001
 6.4809305726e-001	 2.6468094736e+000	-2.0467039574e-001
 6.2267656758e-001	 2.6529038604e+000	-1.8292662449e-001
 5.9727225811e-001	 2.6587385825e+000	-1.6362282376e-001
 5.7188378771e-001	 2.6643149089e+000	-1.6327661595e-001
 5.4651477025e-001	 2.6696341708e+000	-1.7858157229e-001
 5.2116877345e-001	 2.6746977604e+000	-2.0652521822e-001
 4.9584931784e-001	 2.6795071290e+000	-2.4439071486e-001
 7.5668509084e-001	 2.6438471350e+000	-3.6787438476e-001
 7.3102404304e-001	 2.6510571191e+000	-3.6052540579e-001
 7.0536008863e-001	 2.6580005917e+000	-3.5271195181e-001
 6.7969708895e-001	 2.6646785674e+000	-3.4420269016e-001
 6.5403886512e-001	 2.6710921293e+000	-3.3477708028e-001
 6.2838919664e-001	 2.6772424279e+000	-3.2422543326e-001
 6.0275182011e-001	 2.6831306796e+000	-3.1367447289e-001
 5.7713042797e-001	 2.6887581649e+000	-3.2107244845e-001
 5.5152866722e-001	 2.6941262274e+000	-3.4423824683e-001
 5.2595013834e-001	 2.6992362720e+000	-3.7997688634e-001
 5.0039839415e-001	 2.7040897632e+000	-4.2539772735e-001
 4.5490763105e-001	 2.4582634210e+000	-5.9613226513e-001
 4.3170630795e-001	 2.4624438397e+000	-5.3271558528e-001
 4.0853566044e-001	 2.4663938481e+000	-4.6225645136e-001
 3.8539878284e-001	 2.4701149322e+000	-3.8641906726e-001
 3.6229872257e-001	 2.4736086262e+000	-3.0674603414e-001
 3.3923847946e-001	 2.4768765117e+000	-2.2465694886e-001
 3.1622100496e-001	 2.4799202156e+000	-1.4144732821e-001
 2.9324920155e-001	 2.4827414094e+000	-5.8287852118e-002
 2.7032592207e-001	 2.4853418066e+000	 2.3776081614e-002
 2.4745396916e-001	 2.4877231625e+000	 1.0382449905e-001
 2.2463609475e-001	 2.4898872715e+000	 1.8106269709e-001
 4.5945670736e-001	 2.4828460553e+000	 1.8416910673e-001
 4.3602337102e-001	 2.4870682781e+000	 2.5925372559e-001
 4.1262101704e-001	 2.4910577866e+000	 3.3269039673e-001
 3.8925277066e-001	 2.4948160815e+000	 4.0275290134e-001
 3.6592170980e-001	 2.4983447125e+000	 4.6784722244e-001
 3.4263086425e-001	 2.5016452768e+000	 4.8068409743e-001
 3.1938321501e-001	 2.5047194178e+000	 4.5575398320e-001
 2.9618169356e-001	 2.5075688234e+000	 4.4209445790e-001
 2.7302918129e-001	 2.5101952247e+000	 4.3943428485e-001
 2.4992850885e-001	 2.5126003941e+000	 4.4727059363e-001
 2.2688245570e-001	 2.5147861442e+000	 4.6487335953e-001
 4.6400578367e-001	 2.5074286895e+000	 6.9835354779e-001
 4.4034043410e-001	 2.5116927165e+000	 6.4792771896e-001
 4.1670637365e-001	 2.5157217251e+000	 6.0415685069e-001
 3.9310675849e-001	 2.5195172308e+000	 5.6809496512e-001
 3.6954469702e-001	 2.5230807987e+000	 5.4054299381e-001
 3.4602324904e-001	 2.5264140419e+000	 5.2205094206e-001
 3.2254542506e-001	 2.5295186200e+000	 5.1292055783e-001
 2.9911418558e-001	 2.5323962375e+000	 5.1320848590e-001
 2.7573244051e-001	 2.5350486428e+000	 5.2272988682e-001
 2.5240304855e-001	 2.5374776257e+000	 5.4106249980e-001
 2.2912881665e-001	 2.5396850170e+000	 5.6755112779e-001
 4.6855485998e-001	 2.5320113237e+000	 6.0976567093e-001
 4.4465749718e-001	 2.5363171549e+000	 5.8246574988e-001
 4.2079173025e-001	 2.5403856636e+000	 5.5970661493e-001
 3.9696074632e-001	 2.5442183801e+000	 5.4265989894e-001
 3.7316768424e-001	 2.5478168850e+000	 5.3223822919e-001
 3.4941563383e-001	 2.5511828070e+000	 5.2909732565e-001
 3.2570763510e-001	 2.5543178221e+000	 5.3363862010e-001
 3.0204667759e-001	 2.5572236516e+000	 5.4601237601e-001
 2.7843569973e-001	 2.5599020608e+000	 5.6612128849e-001
 2.5487758824e-001	 2.5623548573e+000	 5.9362454292e-001
 2.3137517760e-001	 2.5645838897e+000	 6.2794231016e-001
 4.7310393629e-001	 2.5565939579e+000	 5.0308923571e-001
 4.4897456026e-001	 2.5609415933e+000	 4.9542175946e-001
 4.2487708685e-001	 2.5650496021e+000	 4.9043607640e-001
 4.0081473414e-001	 2.5689195295e+000	 4.8942419031e-001
 3.7679067147e-001	 2.5725529713e+000	 4.9341286678e-001
 3.5280801863e-001	 2.5759515721e+000	 5.0316566765e-001
 3.2886984515e-001	 2.5791170243e+000	 5.1918552278e-001
 3.0497916961e-001	 2.5820510657e+000	 5.4171781867e-001
 2.8113895895e-001	 2.5847554789e+000	 5.7075398289e-001
 2.5735212793e-001	 2.5872320890e+000	 6.0603554233e-001
 2.3362153855e-001	 2.5894827624e+000	 6.4705863264e-001
 4.7765301260e-001	 2.5811765921e+000	 3.7996969783e-001
 4.5329162333e-001	 2.5855660317e+000	 3.8837892635e-001
 4.2896244345e-001	 2.5897135406e+000	 3.9786533051e-001
 4.0466872197e-001	 2.5936206788e+000	 4.0984411426e-001
 3.8041365869e-001	 2.5972890575e+000	 4.2545869145e-001
 3.5620040342e-001	 2.6007203373e+000	 4.4558265839e-001
 3.3203205520e-001	 2.6039162264e+000	 4.7082232077e-001
 3.0791166162e-001	 2.6068784798e+000	 5.0151975412e-001
 2.8384221817e-001	 2.6096088970e+000	 5.3775637605e-001
 2.5982666762e-001	 2.6121093206e+000	 5.7935700791e-001
 2.3586789950e-001	 2.6143816351e+000	 6.2589440281e-001
 4.8220208891e-001	 2.6057592263e+000	 2.4204192593e-001
 4.5760868641e-001	 2.6101904701e+000	 2.6290873436e-001
 4.3304780006e-001	 2.6143774790e+000	 2.8350178453e-001
 4.0852270980e-001	 2.6183218281e+000	 3.0536237838e-001
 3.8403664592e-001	 2.6220251438e+000	 3.2975315452e-001
 3.5959278821e-001	 2.6254891024e+000	 3.5766000099e-001
 3.3519426525e-001	 2.6287154286e+000	 3.8979453990e-001
 3.1084415364e-001	 2.6317058939e+000	 4.2659716254e-001
 2.8654547739e-001	 2.6344623150e+000	 4.6824059290e-001
 2.6230120731e-001	 2.6369865522e+000	 5.1463395655e-001
 2.3811426044e-001	 2.6392805078e+000	 5.6542733148e-001
 4.8675116522e-001	 2.6303418605e+000	 9.0930696320e-002
 4.6192574949e-001	 2.6348149085e+000	 1.2057151893e-001
 4.3713315666e-001	 2.6390414175e+000	 1.4884075055e-001
 4.1237669763e-001	 2.6430229774e+000	 1.7740875679e-001
 3.8765963314e-001	 2.6467612300e+000	 2.0766004348e-001
 3.6298517301e-001	 2.6502578675e+000	 2.4069511174e-001
 3.3835647530e-001	 2.6535146308e+000	 2.7733290259e-001
 3.1377664565e-001	 2.6565333080e+000	 3.1811380984e-001
 2.8924873661e-001	 2.6593157331e+000	 3.6330323812e-001
 2.6477574700e-001	 2.6618637839e+000	 4.1289568289e-001
 2.4036062139e-001	 2.6641793805e+000	 4.6661930818e-001
 4.9130024153e-001	 2.6549244947e+000	-7.1748839816e-002
 4.6624281257e-001	 2.6594393469e+000	-3.7083016728e-002
 4.4121851326e-001	 2.6637053560e+000	-4.6339945881e-003
 4.1623068545e-001	 2.6677241268e+000	 2.7400688883e-002
 3.9128262037e-001	 2.6714973163e+000	 6.0530114657e-002
 3.6637755780e-001	 2.6750266326e+000	 9.5971781474e-002
 3.4151868535e-001	 2.6783138329e+000	 1.3465401317e-001
 3.1670913767e-001	 2.6813607221e+000	 1.7721895200e-001
 2.9195199583e-001	 2.6841691512e+000	 2.2402611465e-001
 2.6725028670e-001	 2.6867410155e+000	 2.7515648716e-001
 2.4260698234e-001	 2.6890782533e+000	 3.3041713372e-001
 4.9584931784e-001	 2.6795071290e+000	-2.4439071486e-001
 4.7055987565e-001	 2.6840637853e+000	-2.0851531392e-001
 4.4530386987e-001	 2.6883692945e+000	-1.7544968017e-001
 4.2008467328e-001	 2.6924252761e+000	-1.4325615479e-001
 3.9490560759e-001	 2.6962334026e+000	-1.1029830910e-001
 3.6976994260e-001	 2.6997953977e+000	-7.5239199351e-002
 3.4468089540e-001	 2.7031130351e+000	-3.7038994473e-002
 3.1964162968e-001	 2.7061881362e+000	 5.0480006766e-003
 2.9465525505e-001	 2.7090225692e+000	 5.1476902680e-002
 2.6972482639e-001	 2.7116182471e+000	 1.0241636301e-001
 2.4485334329e-001	 2.7139771260e+000	 1.5775321225e-001
 5.0039839415e-001	 2.7040897632e+000	-4.2539772735e-001
 4.7487693873e-001	 2.7086882237e+000	-3.9219549735e-001
 4.4938922647e-001	 2.7130332330e+000	-3.6214404127e-001
 4.2393866111e-001	 2.7171264254e+000	-3.3316733764e-001
 3.9852859482e-001	 2.7209694888e+000	-3.0349877320e-001
 3.7316232739e-001	 2.7245641628e+000	-2.7167944977e-001
 3.4784310545e-001	 2.7279122372e+000	-2.3655584464e-001
 3.2257412170e-001	 2.7310155503e+000	-1.9727684748e-001
 2.9735851428e-001	 2.7338759873e+000	-1.5329019842e-001
 2.7219936608e-001	 2.7364954787e+000	-1.0433835217e-001
 2.4709970424e-001	 2.7388759987e+000	-5.0453794320e-002
 2.2463609475e-001	 2.4898872715e+000	 1.8106269709e-001
 2.0187499956e-001	 2.4918359666e+000	 1.8189523218e-001
 1.7917333268e-001	 2.4935711173e+000	 1.7762621304e-001
 1.5653369117e-001	 2.4950946282e+000	 1.6734904540e-001
 1.3395861973e-001	 2.4964084378e+000	 1.5029005335e-001
 1.1145061038e-001	 2.4975145168e+000	 1.2580719655e-001
 8.9012102215e-002	 2.4984148666e+000	 9.3388535873e-002
 6.6645481200e-002	 2.4991115181e+000	 5.2650459121e-002
 4.4353079963e-002	 2.4996065299e+000	 3.3356785822e-003
 2.2137177686e-002	 2.4999019872e+000	-5.4688987492e-002
 0.0000000000e+000	 2.5000000000e+000	-1.2143503738e-001
 2.2688245570e-001	 2.5147861442e+000	 4.6487335953e-001
 2.0389374956e-001	 2.5167543263e+000	 4.0120018536e-001
 1.8096506601e-001	 2.5185068284e+000	 3.4411805799e-001
 1.5809902809e-001	 2.5200455744e+000	 2.9192872016e-001
 1.3529820593e-001	 2.5213725222e+000	 2.4273593717e-001
 1.1256511648e-001	 2.5224896619e+000	 1.9445181229e-001
 8.9902223242e-002	 2.5233990153e+000	 1.4480336528e-001
 6.7311936015e-002	 2.5241026333e+000	 9.1339351914e-002
 4.4796610765e-002	 2.5246025952e+000	 3.1437302092e-002
 2.2358549464e-002	 2.5249010070e+000	-3.7689245540e-002
 0.0000000000e+000	 2.5250000000e+000	-1.1898333443e-001
 2.2912881665e-001	 2.5396850170e+000	 5.6755112779e-001
 2.0591249956e-001	 2.5416726859e+000	 5.0075538130e-001
 1.8275679934e-001	 2.5434425396e+000	 4.3907395041e-001
 1.5966436500e-001	 2.5449965207e+000	 3.8103041342e-001
 1.3663779213e-001	 2.5463366065e+000	 3.2494138374e-001
 1.1367962259e-001	 2.5474648071e+000	 2.6892281821e-001
 9.0792344267e-002	 2.5483831639e+000	 2.1089660533e-001
 6.7978390830e-002	 2.5490937484e+000	 1.4859741023e-001
 4.5240141567e-002	 2.5495986605e+000	 7.9579753549e-002
 2.2579921242e-002	 2.5499000269e+000	 1.2253014823e-003
 0.0000000000e+000	 2.5500000000e+000	-8.9249655785e-002
 2.3137517760e-001	 2.5645838897e+000	 6.2794231016e-001
 2.0793124956e-001	 2.5665910456e+000	 5.6373883985e-001
 1.8454853267e-001	 2.5683782508e+000	 5.0342203530e-001
 1.6122970192e-001	 2.5699474670e+000	 4.4573467543e-001
 1.3797737833e-001	 2.5713006909e+000	 3.8920335926e-001
 1.1479412870e-001	 2.5724399523e+000	 3.3214481406e-001
 9.1682465292e-002	 2.5733673126e+000	 2.7267250008e-001
 6.8644845644e-002	 2.5740848636e+000	 2.0870348816e-001
 4.5683672368e-002	 2.5745947258e+000	 1.3796558671e-001
 2.2801293020e-002	 2.5748990468e+000	 5.8004694541e-002
 0.0000000000e+000	 2.5750000000e+000	-3.3807643760e-002
 2.3362153855e-001	 2.5894827624e+000	 6.4705863264e-001
 2.0994999955e-001	 2.5915094053e+000	 5.9090726012e-001
 1.8634026600e-001	 2.5933139620e+000	 5.3766425186e-001
 1.6279503883e-001	 2.5948984133e+000	 4.8628907005e-001
 1.3931696453e-001	 2.5962647753e+000	 4.3551555123e-001
 1.1590863480e-001	 2.5974150974e+000	 3.8385822087e-001
 9.2572586317e-002	 2.5983514613e+000	 3.2961892153e-001
 6.9311300459e-002	 2.5990759788e+000	 2.7089373031e-001
 4.6127203170e-002	 2.5995907911e+000	 2.0558014111e-001
 2.3022664798e-002	 2.5998980666e+000	 1.3138448779e-001
 0.0000000000e+000	 2.6000000000e+000	 4.5829584042e-002
 2.3586789950e-001	 2.6143816351e+000	 6.2589440281e-001
 2.1196874955e-001	 2.6164277650e+000	 5.8300707172e-001
 1.8813199933e-001	 2.6182496731e+000	 5.4229950783e-001
 1.6436037574e-001	 2.6198493596e+000	 5.0294545332e-001
 1.4065655073e-001	 2.6212288597e+000	 4.6388334471e-001
 1.1702314091e-001	 2.6223902426e+000	 4.2382264071e-001
 9.3462707341e-002	 2.6233356099e+000	 3.8125048070e-001
 6.9977755272e-002	 2.6240670940e+000	 3.3443864901e-001
 4.6570733970e-002	 2.6245868564e+000	 2.8145081993e-001
 2.3244036575e-002	 2.6248970865e+000	 2.2015005852e-001
 0.0000000000e+000	 2.6250000000e+000	 1.4820655260e-001
 2.3811426044e-001	 2.6392805078e+000	 5.6542733148e-001
 2.1398749955e-001	 2.6413461246e+000	 5.4077491913e-001
 1.8992373266e-001	 2.6431853843e+000	 5.1782382255e-001
 1.6592571266e-001	 2.6448003059e+000	 4.9595977097e-001
 1.4199613693e-001	 2.6461929440e+000	 4.7432327055e-001
 1.1813764702e-001	 2.6473653878e+000	 4.5181595198e-001
 9.4352828365e-002	 2.6483197586e+000	 4.2710726633e-001
 7.0644210086e-002	 2.6490582092e+000	 3.9864150323e-001
 4.7014264771e-002	 2.6495829217e+000	 3.6464510587e-001
 2.3465408353e-002	 2.6498961064e+000	 3.2313425697e-001
 0.0000000000e+000	 2.6500000000e+000	 2.7192271046e-001
 2.4036062139e-001	 2.6641793805e+000	 4.6661930818e-001
 2.1600624954e-001	 2.6662644843e+000	 4.6493811899e-001
 1.9171546598e-001	 2.6681210955e+000	 4.6473046189e-001
 1.6749104957e-001	 2.6697512521e+000	 4.6559186736e-001
 1.4333572313e-001	 2.6711570284e+000	 4.6686248452e-001
 1.1925215312e-001	 2.6723405329e+000	 4.6763345529e-001
 9.5242949388e-002	 2.6733039073e+000	 4.6675365432e-001
 7.1310664899e-002	 2.6740493244e+000	 4.6283676833e-001
 4.7457795571e-002	 2.6745789870e+000	 4.5426868827e-001
 2.3686780130e-002	 2.6748951263e+000	 4.3921518801e-001
 0.0000000000e+000	 2.6750000000e+000	 4.1562986327e-001
 2.4260698234e-001	 2.6890782533e+000	 3.3041713372e-001
 2.1802499954e-001	 2.6911828440e+000	 3.5621509192e-001
 1.9350719931e-001	 2.6930568066e+000	 3.8351006574e-001
 1.6905638648e-001	 2.6947021984e+000	 4.1210530494e-001
 1.4467530933e-001	 2.6961211128e+000	 4.4153827550e-001
 1.2036665923e-001	 2.6973156781e+000	 4.7108706695e-001
 9.6133070411e-002	 2.6982880559e+000	 4.9977718337e-001
 7.1977119711e-002	 2.6990404395e+000	 5.2638869086e-001
 4.7901326371e-002	 2.6995750523e+000	 5.4946369428e-001
 2.3908151907e-002	 2.6998941461e+000	 5.6731411599e-001
 0.0000000000e+000	 2.7000000000e+000	 5.7802974978e-001
 2.4485334329e-001	 2.7139771260e+000	 1.5775321225e-001
 2.2004374954e-001	 2.7161012036e+000	 2.1531577060e-001
 1.9529893264e-001	 2.7179925178e+000	 2.7465076848e-001
 1.7062172340e-001	 2.7196531447e+000	 3.3576719372e-001
 1.4601489552e-001	 2.7210851972e+000	 3.9839760057e-001
 1.2148116533e-001	 2.7222908233e+000	 4.6200455674e-001
 9.7023191433e-002	 2.7232722046e+000	 5.2578749242e-001
 7.2643574523e-002	 2.7240315547e+000	 5.8868992294e-001
 4.8344857171e-002	 2.7245711176e+000	 6.4940701739e-001
 2.4129523684e-002	 2.7248931660e+000	 7.0639348495e-001
 0.0000000000e+000	 2.7250000000e+000	 7.5787175136e-001
 2.4709970424e-001	 2.7388759987e+000	-5.0453794320e-002
 2.2206249953e-001	 2.7410195633e+000	 4.2941985600e-002
 1.9709066597e-001	 2.7429282290e+000	 1.3863831284e-001
 1.7218706031e-001	 2.7446040910e+000	 2.3684803002e-001
 1.4735448172e-001	 2.7460492816e+000	 3.3749664558e-001
 1.2259567143e-001	 2.7472659684e+000	 4.4022882732e-001
 9.7913312455e-002	 2.7482563533e+000	 5.4441531610e-001
 7.3310029335e-002	 2.7490226699e+000	 6.4916023105e-001
 4.8788387970e-002	 2.7495671829e+000	 7.5330873717e-001
 2.4350895461e-002	 2.7498921859e+000	 8.5545504683e-001
 0.0000000000e+000	 2.7500000000e+000	 9.5395072642e-001
 2.7500000000e+000	 0.0000000000e+000	 1.6888202539e+000
 2.7498921859e+000	 2.4350895461e-002	 1.7035621475e+000
 2.7495671829e+000	 4.8788387970e-002	 1.7157218468e+000
 2.7490226699e+000	 7.3310029335e-002	 1.7252295594e+000
 2.7482563533e+000	 9.7913312455e-002	 1.7321361679e+000
 2.7472659684e+000	 1.2259567143e-001	 1.7366171868e+000
 2.7460492816e+000	 1.4735448172e-001	 1.7389765922e+000
 2.7446040910e+000	 1.7218706031e-001	 1.7396505127e+000
 2.7429282290e+000	 1.9709066597e-001	 1.7392107678e+000
 2.7410195633e+000	 2.2206249953e-001	 1.7383682404e+000
 2.7388759987e+000	 2.4709970424e-001	 1.7379760692e+000
 2.7750000000e+000	 0.0000000000e+000	 1.6328032946e+000
 2.7748912057e+000	 2.4572267237e-002	 1.6418097209e+000
 2.7745632482e+000	 4.9231918770e-002	 1.6485337427e+000
 2.7740137851e+000	 7.3976484146e-002	 1.6529202579e+000
 2.7732405019e+000	 9.8803433477e-002	 1.6550377970e+000
 2.7722411136e+000	 1.2371017754e-001	 1.6550825589e+000
 2.7710133659e+000	 1.4869406792e-001	 1.6533823179e+000
 2.7695550373e+000	 1.7375239722e-001	 1.6504001873e+000
 2.7678639402e+000	 1.9888239929e-001	 1.6467382259e+000
 2.7659379230e+000	 2.2408124953e-001	 1.6431408736e+000
 2.7637748714e+000	 2.4934606519e-001	 1.6404982031e+000
 2.8000000000e+000	 0.0000000000e+000	 1.5753615298e+000
 2.7998902256e+000	 2.4793639014e-002	 1.5791476906e+000
 2.7995593135e+000	 4.9675449569e-002	 1.5808397672e+000
 2.7990049003e+000	 7.4642938958e-002	 1.5803961764e+000
 2.7982246506e+000	 9.9693554498e-002	 1.5779020255e+000
 2.7972162588e+000	 1.2482468364e-001	 1.5735732326e+000
 2.7959774503e+000	 1.5003365411e-001	 1.5677605139e+000
 2.7945059836e+000	 1.7531773413e-001	 1.5609532232e+000
 2.7927996513e+000	 2.0067413262e-001	 1.5537830297e+000
 2.7908562826e+000	 2.2609999953e-001	 1.5470274214e+000
 2.7886737441e+000	 2.5159242613e-001	 1.5416130169e+000
 2.8250000000e+000	 0.0000000000e+000	 1.5164789314e+000
 2.8248892455e+000	 2.5015010790e-002	 1.5155465368e+000
 2.8245553788e+000	 5.0118980368e-002	 1.5125967298e+000
 2.8239960154e+000	 7.5309393769e-002	 1.5076002791e+000
 2.8232087993e+000	 1.0058367552e-001	 1.5006578039e+000
 2.8221914039e+000	 1.2593918974e-001	 1.4920039828e+000
 2.8209415347e+000	 1.5137324031e-001	 1.4820116243e+000
 2.8194569298e+000	 1.7688307104e-001	 1.4711955863e+000
 2.8177353625e+000	 2.0246586595e-001	 1.4602165290e+000
 2.8157746423e+000	 2.2811874952e-001	 1.4498844880e+000
 2.8135726168e+000	 2.5383878708e-001	 1.4411622512e+000
 2.8500000000e+000	 0.0000000000e+000	 1.4561400336e+000
 2.8498882654e+000	 2.5236382567e-002	 1.4509776148e+000
 2.8495514441e+000	 5.0562511167e-002	 1.4437625950e+000
 2.8489871306e+000	 7.5975848581e-002	 1.4344769317e+000
 2.8481929479e+000	 1.0147379654e-001	 1.4232356967e+000
 2.8471665491e+000	 1.2705369585e-001	 1.4102913759e+000
 2.8459056191e+000	 1.5271282651e-001	 1.3960380277e+000
 2.8444078761e+000	 1.7844840795e-001	 1.3810152852e+000
 2.8426710737e+000	 2.0425759927e-001	 1.3659121882e+000
 2.8406930020e+000	 2.3013749952e-001	 1.3515708287e+000
 2.8384714896e+000	 2.5608514803e-001	 1.3389897973e+000
 2.8750000000e+000	 0.0000000000e+000	 1.3943299086e+000
 2.8748872852e+000	 2.5457754343e-002	 1.3854131173e+000
 2.8745475094e+000	 5.1006041966e-002	 1.3742964317e+000
 2.8739782458e+000	 7.6642303392e-002	 1.3609718398e+000
 2.8731770966e+000	 1.0236391756e-001	 1.3455678111e+000
 2.8721416943e+000	 1.2816820195e-001	 1.3283536916e+000
 2.8708697034e+000	 1.5405241270e-001	 1.3097439530e+000
 2.8693588224e+000	 1.8001374486e-001	 1.2903022821e+000
 2.8676067849e+000	 2.0604933260e-001	 1.2707454944e+000
 2.8656113616e+000	 2.3215624951e-001	 1.2519472565e+000
 2.8633703623e+000	 2.5833150898e-001	 1.2349416040e+000
 2.9000000000e+000	 0.0000000000e+000	 1.3310341432e+000
 2.8998863051e+000	 2.5679126120e-002	 1.3188260376e+000
 2.8995435747e+000	 5.1449572765e-002	 1.3041583659e+000
 2.8989693610e+000	 7.7308758203e-002	 1.2870319916e+000
 2.8981612453e+000	 1.0325403858e-001	 1.2675877315e+000
 2.8971168394e+000	 1.2928270805e-001	 1.2461108493e+000
 2.8958337878e+000	 1.5539199890e-001	 1.2230353999e+000
 2.8943097687e+000	 1.8157908178e-001	 1.1989484086e+000
 2.8925424960e+000	 2.0784106593e-001	 1.1745938705e+000
 2.8905297213e+000	 2.3417499951e-001	 1.1508765532e+000
 2.8882692350e+000	 2.6057786993e-001	 1.1288655888e+000
 2.9250000000e+000	 0.0000000000e+000	 1.2662388171e+000
 2.9248853250e+000	 2.5900497897e-002	 1.2511901360e+000
 2.9245396400e+000	 5.1893103565e-002	 1.2333095355e+000
 2.9239604762e+000	 7.7975213015e-002	 1.2126056030e+000
 2.9231453939e+000	 1.0414415961e-001	 1.1892304559e+000
 2.9220919846e+000	 1.3039721416e-001	 1.1634843382e+000
 2.9207978722e+000	 1.5673158510e-001	 1.1358200630e+000
 2.9192607150e+000	 1.8314441869e-001	 1.1068472858e+000
 2.9174782072e+000	 2.0963279925e-001	 1.0773365923e+000
 2.9154480810e+000	 2.3619374951e-001	 1.0482233852e+000
 2.9131681077e+000	 2.6282423087e-001	 1.0206115539e+000
 2.9500000000e+000	 0.0000000000e+000	 1.1999304820e+000
 2.9498843448e+000	 2.6121869673e-002	 1.1824799070e+000
 2.9495357053e+000	 5.2336634364e-002	 1.1617120473e+000
 2.9489515913e+000	 7.8641667826e-002	 1.1376420651e+000
 2.9481295426e+000	 1.0503428063e-001	 1.1104323357e+000
 2.9470671298e+000	 1.3151172026e-001	 1.0803971502e+000
 2.9457619566e+000	 1.5807117129e-001	 1.0480072603e+000
 2.9442116612e+000	 1.8470975560e-001	 1.0138942488e+000
 2.9424139184e+000	 2.1142453258e-001	 9.7885471003e-001
 2.9403664406e+000	 2.3821249950e-001	 9.4385422390e-001
 2.9380669804e+000	 2.6507059182e-001	 9.1003110610e-001
 2.9750000000e+000	 0.0000000000e+000	 1.1320961414e+000
 2.9748833647e+000	 2.6343241450e-002	 1.1126705486e+000
 2.9745317706e+000	 5.2780165163e-002	 1.0893289365e+000
 2.9739427065e+000	 7.9308122638e-002	 1.0620918957e+000
 2.9731136913e+000	 1.0592440165e-001	 1.0311310197e+000
 2.9720422749e+000	 1.3262622636e-001	 9.9677371752e-001
 2.9707260410e+000	 1.5941075749e-001	 9.5950786460e-001
 2.9691626075e+000	 1.8627509251e-001	 9.1998627415e-001
 2.9673496295e+000	 2.1321626591e-001	 8.7903097376e-001
 2.9652848003e+000	 2.4023124950e-001	 8.3763726952e-001
 2.9629658531e+000	 2.6731695277e-001	 7.9697758116e-001
 3.0000000000e+000	 0.0000000000e+000	 1.0627232321e+000
 2.9998823846e+000	 2.6564613226e-002	 1.0417379328e+000
 2.9995278359e+000	 5.3223695962e-002	 1.0161241277e+000
 2.9989338217e+000	 7.9974577449e-002	 9.8590669155e-001
 2.9980978399e+000	 1.0681452267e-001	 9.5126539905e-001
 2.9970174201e+000	 1.3374073246e-001	 9.1253985197e-001
 2.9956901253e+000	 1.6075034369e-001	 8.7023423893e-001
 2.9941135538e+000	 1.8784042942e-001	 8.2502191199e-001
 2.9922853407e+000	 2.1500799923e-001	 7.7774976256e-001
 2.9902031599e+000	 2.4224999949e-001	 7.2944237942e-001
 2.9878647258e+000	 2.6956331372e-001	 6.8130597173e-001
 2.7388759987e+000	 2.4709970424e-001	 1.7379760692e+000
 2.7364954787e+000	 2.7219936608e-001	 1.7494812992e+000
 2.7338759873e+000	 2.9735851428e-001	 1.7552403931e+000
 2.7310155503e+000	 3.2257412170e-001	 1.7563560497e+000
 2.7279122372e+000	 3.4784310545e-001	 1.7540872994e+000
 2.7245641628e+000	 3.7316232739e-001	 1.7498518511e+000
 2.7209694888e+000	 3.9852859482e-001	 1.7452281822e+000
 2.7171264254e+000	 4.2393866111e-001	 1.7419573562e+000
 2.7130332330e+000	 4.4938922647e-001	 1.7419445561e+000
 2.7086882237e+000	 4.7487693873e-001	 1.7472603217e+000
 2.7040897632e+000	 5.0039839415e-001	 1.7601414762e+000
 2.7637748714e+000	 2.4934606519e-001	 1.6404982031e+000
 2.7613727104e+000	 2.7467390578e-001	 1.6473074119e+000
 2.7587294054e+000	 3.0006177350e-001	 1.6499450821e+000
 2.7558429644e+000	 3.2550661372e-001	 1.6496104868e+000
 2.7527114394e+000	 3.5100531550e-001	 1.6476628969e+000
 2.7493329280e+000	 3.7655471219e-001	 1.6456239131e+000
 2.7457055751e+000	 4.0215158205e-001	 1.6451795302e+000
 2.7418275747e+000	 4.2779264894e-001	 1.6481819218e+000
 2.7376971715e+000	 4.5347458308e-001	 1.6566509325e+000
 2.7333126621e+000	 4.7919400181e-001	 1.6727752636e+000
 2.7286723974e+000	 5.0494747046e-001	 1.6989133408e+000
 2.7886737441e+000	 2.5159242613e-001	 1.5416130169e+000
 2.7862499420e+000	 2.7714844547e-001	 1.5445024844e+000
 2.7835828235e+000	 3.0276503272e-001	 1.5446639086e+000
 2.7806703785e+000	 3.2843910574e-001	 1.5433924477e+000
 2.7775106416e+000	 3.5416752555e-001	 1.5421470567e+000
 2.7741016931e+000	 3.7994709699e-001	 1.5425528046e+000
 2.7704416614e+000	 4.0577456927e-001	 1.5464029178e+000
 2.7665287241e+000	 4.3164663677e-001	 1.5556605342e+000
 2.7623611099e+000	 4.5755993968e-001	 1.5724601564e+000
 2.7579371005e+000	 4.8351106489e-001	 1.5991087886e+000
 2.7532550316e+000	 5.0949654677e-001	 1.6380867474e+000
 2.8135726168e+000	 2.5383878708e-001	 1.4411622512e+000
 2.8111271736e+000	 2.7962298516e-001	 1.4408557043e+000
 2.8084362415e+000	 3.0546829194e-001	 1.4391337538e+000
 2.8054977926e+000	 3.3137159775e-001	 1.4373867861e+000
 2.8023098437e+000	 3.5732973560e-001	 1.4371729144e+000
 2.7988704582e+000	 3.8333948178e-001	 1.4402202862e+000
 2.7951777476e+000	 4.0939755650e-001	 1.4484291072e+000
 2.7912298734e+000	 4.3550062460e-001	 1.4638733685e+000
 2.7870250484e+000	 4.6164529629e-001	 1.4888022623e+000
 2.7825615389e+000	 4.8782812797e-001	 1.5256412742e+000
 2.7778376658e+000	 5.1404562308e-001	 1.5769929367e+000
 2.8384714896e+000	 2.5608514803e-001	 1.3389897973e+000
 2.8360044052e+000	 2.8209752485e-001	 1.3361596916e+000
 2.8332896596e+000	 3.0817155116e-001	 1.3330961646e+000
 2.8303252067e+000	 3.3430408977e-001	 1.3312842032e+000
 2.8271090459e+000	 3.6049194565e-001	 1.3323805849e+000
 2.8236392233e+000	 3.8673186658e-001	 1.3382161771e+000
 2.8199138339e+000	 4.1302054373e-001	 1.3507979458e+000
 2.8159310227e+000	 4.3935461243e-001	 1.3723106573e+000
 2.8116889869e+000	 4.6573065289e-001	 1.4051182606e+000
 2.8071859773e+000	 4.9214519105e-001	 1.4517649352e+000
 2.8024203000e+000	 5.1859469938e-001	 1.5149757926e+000
 2.8633703623e+000	 2.5833150898e-001	 1.2349416040e+000
 2.8608816369e+000	 2.8457206455e-001	 1.2302103498e+000
 2.8581430777e+000	 3.1087481039e-001	 1.2262971499e+000
 2.8551526208e+000	 3.3723658179e-001	 1.2247809939e+000
 2.8519082480e+000	 3.6365415570e-001	 1.2274168588e+000
 2.8484079884e+000	 3.9012425137e-001	 1.2361380049e+000
 2.8446499202e+000	 4.1664353095e-001	 1.2530579709e+000
 2.8406321720e+000	 4.4320860026e-001	 1.2804722539e+000
 2.8363529254e+000	 4.6981600950e-001	 1.3208596596e+000
 2.8318104157e+000	 4.9646225412e-001	 1.3768833099e+000
 2.8270029342e+000	 5.2314377569e-001	 1.4513912923e+000
 2.8882692350e+000	 2.6057786993e-001	 1.1288655888e+000
 2.8857588685e+000	 2.8704660424e-001	 1.1228067243e+000
 2.8829964957e+000	 3.1357806961e-001	 1.1184869892e+000
 2.8799800349e+000	 3.4016907380e-001	 1.1175788055e+000
 2.8767074502e+000	 3.6681636576e-001	 1.1219349148e+000
 2.8731767535e+000	 3.9351663617e-001	 1.1335906731e+000
 2.8693860064e+000	 4.2026651818e-001	 1.1547660355e+000
 2.8653333213e+000	 4.4706258809e-001	 1.1878672169e+000
 2.8610168639e+000	 4.7390136610e-001	 1.2354880134e+000
 2.8564348541e+000	 5.0077931720e-001	 1.3004107708e+000
 2.8515855684e+000	 5.2769285200e-001	 1.3856069855e+000
 2.9131681077e+000	 2.6282423087e-001	 1.0206115539e+000
 2.9106361001e+000	 2.8952114393e-001	 1.0137508682e+000
 2.9078499138e+000	 3.1628132883e-001	 1.0094200493e+000
 2.9048074490e+000	 3.4310156582e-001	 1.0093844089e+000
 2.9015066523e+000	 3.6997857581e-001	 1.0155940466e+000
 2.8979455187e+000	 3.9690902097e-001	 1.0301861459e+000
 2.8941220927e+000	 4.2388950541e-001	 1.0554869524e+000
 2.8900344707e+000	 4.5091657592e-001	 1.0940134173e+000
 2.8856808023e+000	 4.7798672271e-001	 1.1484744926e+000
 2.8810592925e+000	 5.0509638028e-001	 1.2217720628e+000
 2.8761682026e+000	 5.3224192831e-001	 1.3170014995e+000
 2.9380669804e+000	 2.6507059182e-001	 9.1003110610e-001
 2.9355133317e+000	 2.9199568362e-001	 9.0284771468e-001
 2.9327033318e+000	 3.1898458805e-001	 8.9885461153e-001
 2.9296348631e+000	 3.4603405784e-001	 8.9990948188e-001
 2.9263058545e+000	 3.7314078586e-001	 9.0805940377e-001
 2.9227142838e+000	 4.0030140576e-001	 9.2554314922e-001
 2.9188581789e+000	 4.2751249264e-001	 9.5479315753e-001
 2.9147356200e+000	 4.5477056375e-001	 9.9843716511e-001
 2.9103447408e+000	 4.8207207931e-001	 1.0592994767e+000
 2.9056837309e+000	 5.0941344336e-001	 1.1404018628e+000
 2.9007508368e+000	 5.3679100462e-001	 1.2449640700e+000
 2.9629658531e+000	 2.6731695277e-001	 7.9697758116e-001
 2.9603905634e+000	 2.9447022332e-001	 7.8990495623e-001
 2.9575567499e+000	 3.2168784727e-001	 7.8655270719e-001
 2.9544622771e+000	 3.4896654985e-001	 7.8887040238e-001
 2.9511050566e+000	 3.7630299591e-001	 7.9900174585e-001
 2.9474830489e+000	 4.0369379056e-001	 8.1928688637e-001
 2.9435942652e+000	 4.3113547986e-001	 8.5226438914e-001
 2.9394367693e+000	 4.5862455157e-001	 9.0067285437e-001
 2.9350086793e+000	 4.8615743592e-001	 9.6745216702e-001
 2.9303081693e+000	 5.1373050644e-001	 1.0557443627e+000
 2.9253334710e+000	 5.4134008093e-001	 1.1688940952e+000
 2.9878647258e+000	 2.6956331372e-001	 6.8130597173e-001
 2.9852677950e+000	 2.9694476301e-001	 6.7473292952e-001
 2.9824101680e+000	 3.2439110650e-001	 6.7227996127e-001
 2.9792896912e+000	 3.5189904187e-001	 6.7598805308e-001
 2.9759042588e+000	 3.7946520596e-001	 6.8809720847e-001
 2.9722518140e+000	 4.0708617535e-001	 7.1104876831e-001
 2.9683303514e+000	 4.3475846709e-001	 7.4748738386e-001
 2.9641379186e+000	 4.6247853940e-001	 8.0026262671e-001
 2.9596726178e+000	 4.9024279252e-001	 8.7243021965e-001
 2.9549326076e+000	 5.1804756952e-001	 9.6725287318e-001
 2.9499161052e+000	 5.4588915724e-001	 1.0882007125e+000
 2.7040897632e+000	 5.0039839415e-001	 1.7601414762e+000
 2.6992362720e+000	 5.2595013834e-001	 1.6011538380e+000
 2.6941262274e+000	 5.5152866722e-001	 1.4544572783e+000
 2.6887581649e+000	 5.7713042797e-001	 1.3224023449e+000
 2.6831306796e+000	 6.0275182011e-001	 1.2074999293e+000
 2.6772424279e+000	 6.2838919664e-001	 1.1408924643e+000
 2.6710921293e+000	 6.5403886512e-001	 1.2509647211e+000
 2.6646785674e+000	 6.7969708895e-001	 1.3267028367e+000
 2.6580005917e+000	 7.0536008863e-001	 1.3685939421e+000
 2.6510571191e+000	 7.3102404304e-001	 1.3771482331e+000
 2.6438471350e+000	 7.5668509084e-001	 1.3529000589e+000
 2.7286723974e+000	 5.0494747046e-001	 1.6989133408e+000
 2.7237747836e+000	 5.3073150323e-001	 1.5394454906e+000
 2.7186182841e+000	 5.5654256419e-001	 1.3922293462e+000
 2.7132014209e+000	 5.8237706822e-001	 1.2596522016e+000
 2.7075227766e+000	 6.0823138211e-001	 1.1442656285e+000
 2.7015809954e+000	 6.3410182569e-001	 1.1271707082e+000
 2.6953747850e+000	 6.5998467298e-001	 1.2388917870e+000
 2.6889029180e+000	 6.8587615339e-001	 1.3175126224e+000
 2.6821642335e+000	 7.1177245307e-001	 1.3634636205e+000
 2.6751576384e+000	 7.3766971615e-001	 1.3771964987e+000
 2.6678821090e+000	 7.6356404620e-001	 1.3591854405e+000
 2.7532550316e+000	 5.0949654677e-001	 1.6380867474e+000
 2.7483132951e+000	 5.3551286813e-001	 1.4752506475e+000
 2.7431103407e+000	 5.6155646116e-001	 1.3245359903e+000
 2.7376446770e+000	 5.8762370847e-001	 1.1883688740e+000
 2.7319148737e+000	 6.1371094411e-001	 1.0693437554e+000
 2.7259195630e+000	 6.3981445475e-001	 1.1017523083e+000
 2.7196574407e+000	 6.6593048084e-001	 1.2137923589e+000
 2.7131272686e+000	 6.9205521784e-001	 1.2939505894e+000
 2.7063278752e+000	 7.1818481751e-001	 1.3426003608e+000
 2.6992581576e+000	 7.4431538927e-001	 1.3601345958e+000
 2.6919170830e+000	 7.7044300157e-001	 1.3469670008e+000
 2.7778376658e+000	 5.1404562308e-001	 1.5769929367e+000
 2.7728518067e+000	 5.4029423302e-001	 1.4079140588e+000
 2.7676023973e+000	 5.6657035814e-001	 1.2507349831e+000
 2.7620879330e+000	 5.9287034872e-001	 1.1079226743e+000
 2.7563069708e+000	 6.1919050611e-001	 9.8211668440e-001
 2.7502581305e+000	 6.4552708381e-001	 1.0649736793e+000
 2.7439400964e+000	 6.7187628870e-001	 1.1760671742e+000
 2.7373516192e+000	 6.9823428228e-001	 1.2564822788e+000
 2.7304915169e+000	 7.2459718195e-001	 1.3065349576e+000
 2.7233586769e+000	 7.5096106238e-001	 1.3265589905e+000
 2.7159520569e+000	 7.7732195694e-001	 1.3169072638e+000
 2.8024203000e+000	 5.1859469938e-001	 1.5149757926e+000
 2.7973903183e+000	 5.4507559791e-001	 1.3367916880e+000
 2.7920944539e+000	 5.7158425511e-001	 1.1701938601e+000
 2.7865311891e+000	 5.9811698897e-001	 1.0176922074e+000
 2.7806990679e+000	 6.2467006810e-001	 8.8197359355e-001
 2.7745966980e+000	 6.5123971286e-001	 1.0171765314e+000
 2.7682227522e+000	 6.7782209656e-001	 1.1261207398e+000
 2.7615759698e+000	 7.0441334672e-001	 1.2055754571e+000
 2.7546551587e+000	 7.3100954638e-001	 1.2557988697e+000
 2.7474591962e+000	 7.5760673550e-001	 1.2770652358e+000
 2.7399870309e+000	 7.8420091230e-001	 1.2696662465e+000
 2.8270029342e+000	 5.2314377569e-001	 1.4513912923e+000
 2.8219288298e+000	 5.4985696280e-001	 1.2612502239e+000
 2.8165865105e+000	 5.7659815208e-001	 1.0822894947e+000
 2.8109744451e+000	 6.0336362922e-001	 9.1706401024e-001
 2.8050911650e+000	 6.3014963010e-001	 8.2455237557e-001
 2.7989352655e+000	 6.5695234192e-001	 9.5870764011e-001
 2.7925054079e+000	 6.8376790442e-001	 1.0643611681e+000
 2.7858003204e+000	 7.1059241116e-001	 1.1417000196e+000
 2.7788188004e+000	 7.3742191082e-001	 1.1909241913e+000
 2.7715597154e+000	 7.6425240861e-001	 1.2122480105e+000
 2.7640220048e+000	 7.9107986767e-001	 1.2059015671e+000
 2.8515855684e+000	 5.2769285200e-001	 1.3856069855e+000
 2.8464673414e+000	 5.5463832770e-001	 1.1806666187e+000
 2.8410785671e+000	 5.8161204905e-001	 9.8640769638e-001
 2.8354177012e+000	 6.0861026947e-001	 8.0543221020e-001
 2.8294832621e+000	 6.3562919210e-001	 7.6135348092e-001
 2.8232738331e+000	 6.6266497097e-001	 8.8991862818e-001
 2.8167880636e+000	 6.8971371228e-001	 9.9120002172e-001
 2.8100246711e+000	 7.1677147560e-001	 1.0653278986e+000
 2.8029824422e+000	 7.4383427526e-001	 1.1124436249e+000
 2.7956602347e+000	 7.7089808172e-001	 1.1327011577e+000
 2.7880569788e+000	 7.9795882304e-001	 1.1262685488e+000
 2.8761682026e+000	 5.3224192831e-001	 1.3170014995e+000
 2.8710058529e+000	 5.5941969259e-001	 1.0944276490e+000
 2.8655706237e+000	 5.8662594603e-001	 8.8194282822e-001
 2.8598609572e+000	 6.1385690972e-001	 6.8219820047e-001
 2.8538753591e+000	 6.4110875410e-001	 6.8920080849e-001
 2.8476124006e+000	 6.6837760003e-001	 8.1116575815e-001
 2.8410707193e+000	 6.9565952014e-001	 9.0705216590e-001
 2.8342490217e+000	 7.2295054004e-001	 9.7693297627e-001
 2.8271460839e+000	 7.5024663970e-001	 1.0208904549e+000
 2.8197607539e+000	 7.7754375484e-001	 1.0390177198e+000
 2.8120919527e+000	 8.0483777841e-001	 1.0314203179e+000
 2.9007508368e+000	 5.3679100462e-001	 1.2449640700e+000
 2.8955443645e+000	 5.6420105748e-001	 1.0019294997e+000
 2.8900626803e+000	 5.9163984300e-001	 7.6829744483e-001
 2.8843042132e+000	 6.1910354998e-001	 5.4677033230e-001
 2.8782674562e+000	 6.4658831609e-001	 6.0839816921e-001
 2.8719509681e+000	 6.7409022909e-001	 7.2280973591e-001
 2.8653533750e+000	 7.0160532800e-001	 8.1233562873e-001
 2.8584733723e+000	 7.2912960448e-001	 8.7699100225e-001
 2.8513097256e+000	 7.5665900413e-001	 9.1679852338e-001
 2.8438612732e+000	 7.8418942795e-001	 9.3178997288e-001
 2.8361269267e+000	 8.1171673377e-001	 9.2200789668e-001
 2.9253334710e+000	 5.4134008093e-001	 1.1688940952e+000
 2.9200828761e+000	 5.6898242237e-001	 9.0257736874e-001
 2.9145547369e+000	 5.9665373997e-001	 6.4488194804e-001
 2.9087474693e+000	 6.2435019023e-001	 3.9856362259e-001
 2.9026595533e+000	 6.5206787809e-001	 5.1925484265e-001
 2.8962895356e+000	 6.7980285814e-001	 6.2521552394e-001
 2.8896360307e+000	 7.0755113586e-001	 7.0747146815e-001
 2.8826977229e+000	 7.3530866892e-001	 7.6597951498e-001
 2.8754733674e+000	 7.6307136857e-001	 8.0070220623e-001
 2.8679617925e+000	 7.9083510107e-001	 8.1160945881e-001
 2.8601619006e+000	 8.1859568914e-001	 7.9868029192e-001
 2.9499161052e+000	 5.4588915724e-001	 1.0882007125e+000
 2.9446213876e+000	 5.7376378727e-001	 7.9578509158e-001
 2.9390467935e+000	 6.0166763694e-001	 5.1111425991e-001
 2.9331907253e+000	 6.2959683048e-001	 3.0298743439e-001
 2.9270516504e+000	 6.5754744009e-001	 4.2208534922e-001
 2.9206281031e+000	 6.8551548720e-001	 5.1875216400e-001
 2.9139186865e+000	 7.1349694372e-001	 5.9288364575e-001
 2.9069220735e+000	 7.4148773336e-001	 6.4437776728e-001
 2.8996370091e+000	 7.6948373301e-001	 6.7313639121e-001
 2.8920623117e+000	 7.9748077418e-001	 6.7906701573e-001
 2.8841968746e+000	 8.2547464451e-001	 6.6208457893e-001
 2.6438471350e+000	 7.5668509084e-001	 1.3529000589e+000
 2.6363696952e+000	 7.8233933189e-001	 1.2455465791e+000
 2.6286239268e+000	 8.0798282872e-001	 1.1400135320e+000
 2.6206090298e+000	 8.3361160807e-001	 1.0370483521e+000
 2.6123242783e+000	 8.5922166244e-001	 9.3740018761e-001
 2.6037690218e+000	 8.8480895173e-001	 8.4182049672e-001
 2.5949426866e+000	 9.1036940492e-001	 7.5106366509e-001
 2.5858447765e+000	 9.3589892178e-001	 6.6588764254e-001
 2.5764748746e+000	 9.6139337463e-001	 5.8705459599e-001
 2.5668326437e+000	 9.8684861017e-001	 5.1533157574e-001
 2.5569178279e+000	 1.0122604513e+000	 4.5149119197e-001
 2.6678821090e+000	 7.6356404620e-001	 1.3591854405e+000
 2.6603366925e+000	 7.8945150763e-001	 1.2566148981e+000
 2.6525205080e+000	 8.1532812716e-001	 1.1568453163e+000
 2.6444327482e+000	 8.4118989541e-001	 1.0605819928e+000
 2.6360726808e+000	 8.6703276845e-001	 9.6853066770e-001
 2.6274396493e+000	 8.9285266947e-001	 8.8139818304e-001
 2.6185330746e+000	 9.1864549042e-001	 7.9989316579e-001
 2.6093524563e+000	 9.4440709380e-001	 7.2472673324e-001
 2.5998973734e+000	 9.7013331440e-001	 6.5661321735e-001
 2.5901674859e+000	 9.9581996117e-001	 5.9627090502e-001
 2.5801625355e+000	 1.0214628190e+000	 5.4442279111e-001
 2.6919170830e+000	 7.7044300157e-001	 1.3469670008e+000
 2.6843036897e+000	 7.9656368337e-001	 1.2484833164e+000
 2.6764170891e+000	 8.2267342560e-001	 1.1537650376e+000
 2.6682564667e+000	 8.4876818275e-001	 1.0634747301e+000
 2.6598210833e+000	 8.7484387447e-001	 9.7827413762e-001
 2.6511102768e+000	 9.0089638721e-001	 8.9882490470e-001
 2.6421234627e+000	 9.2692157592e-001	 8.2578932742e-001
 2.6328601361e+000	 9.5291526581e-001	 7.5983112874e-001
 2.6233198723e+000	 9.7887325417e-001	 7.0161625577e-001
 2.6135023281e+000	 1.0047913122e+000	 6.5181369559e-001
 2.6034072430e+000	 1.0306651868e+000	 6.1109630630e-001
 2.7159520569e+000	 7.7732195694e-001	 1.3169072638e+000
 2.7082706869e+000	 8.0367585911e-001	 1.2218618059e+000
 2.7003136703e+000	 8.3001872403e-001	 1.1315304103e+000
 2.6920801852e+000	 8.5634647009e-001	 1.0465322904e+000
 2.6835694859e+000	 8.8265498049e-001	 9.6748457857e-001
 2.6747809043e+000	 9.0894010495e-001	 8.9500311400e-001
 2.6657138508e+000	 9.3519766141e-001	 8.2970326264e-001
 2.6563678159e+000	 9.6142343782e-001	 7.7220076395e-001
 2.6467423712e+000	 9.8761319394e-001	 7.2311260260e-001
 2.6368371703e+000	 1.0137626632e+000	 6.8305790138e-001
 2.6266519505e+000	 1.0398675545e+000	 6.5265883186e-001
 2.7399870309e+000	 7.8420091230e-001	 1.2696662465e+000
 2.7322376842e+000	 8.1078803485e-001	 1.1774568869e+000
 2.7242102514e+000	 8.3736402247e-001	 1.0908947390e+000
 2.7159039036e+000	 8.6392475744e-001	 1.0105550181e+000
 2.7073178884e+000	 8.9046608651e-001	 9.3700960411e-001
 2.6984515317e+000	 9.1698382269e-001	 8.7082789692e-001
 2.6893042388e+000	 9.4347374691e-001	 8.1257770635e-001
 2.6798754957e+000	 9.6993160984e-001	 7.6282617214e-001
 2.6701648700e+000	 9.9635313370e-001	 7.2214071157e-001
 2.6601720126e+000	 1.0227340142e+000	 6.9108999106e-001
 2.6498966580e+000	 1.0490699223e+000	 6.7024491798e-001
 2.7640220048e+000	 7.9107986767e-001	 1.2059015671e+000
 2.7562046814e+000	 8.1790021059e-001	 1.1159717779e+000
 2.7481068326e+000	 8.4470932091e-001	 1.0326071101e+000
 2.7397276221e+000	 8.7150304478e-001	 9.5633810946e-001
 2.7310662909e+000	 8.9827719253e-001	 8.8769073705e-001
 2.7221221592e+000	 9.2502754043e-001	 8.2718729340e-001
 2.7128946269e+000	 9.5174983241e-001	 7.7534737989e-001
 2.7033831755e+000	 9.7843978185e-001	 7.3268889362e-001
 2.6935873689e+000	 1.0050930735e+000	 6.9972905257e-001
 2.6835068548e+000	 1.0317053652e+000	 6.7698544741e-001
 2.6731413656e+000	 1.0582722900e+000	 6.6497711615e-001
 2.7880569788e+000	 7.9795882304e-001	 1.1262685488e+000
 2.7801716786e+000	 8.2501238633e-001	 1.0381065384e+000
 2.7720034137e+000	 8.5205461935e-001	 9.5741257353e-001
 2.7635513405e+000	 8.7908133212e-001	 8.8467183455e-001
 2.7548146935e+000	 9.0608829855e-001	 8.2036367196e-001
 2.7457927867e+000	 9.3307125817e-001	 7.6496260104e-001
 2.7364850150e+000	 9.6002591790e-001	 7.1893933644e-001
 2.7268908553e+000	 9.8694795386e-001	 6.8276186338e-001
 2.7170098677e+000	 1.0138330132e+000	 6.5689654197e-001
 2.7068416970e+000	 1.0406767162e+000	 6.4180924083e-001
 2.6963860731e+000	 1.0674746577e+000	 6.3796649628e-001
 2.8120919527e+000	 8.0483777841e-001	 1.0314203179e+000
 2.8041386758e+000	 8.3212456207e-001	 9.4455820337e-001
 2.7958999949e+000	 8.5939991779e-001	 8.6605231534e-001
 2.7873750590e+000	 8.8665961946e-001	 7.9634174788e-001
 2.7785630960e+000	 9.1389940457e-001	 7.3585852423e-001
 2.7694634141e+000	 9.4111497591e-001	 6.8502866324e-001
 2.7600754030e+000	 9.6830200340e-001	 6.4427328878e-001
 2.7503985350e+000	 9.9545612588e-001	 6.1400977890e-001
 2.7404323666e+000	 1.0225729530e+000	 5.9465295093e-001
 2.7301765392e+000	 1.0496480672e+000	 5.8661627864e-001
 2.7196307806e+000	 1.0766770255e+000	 5.9031313743e-001
 2.8361269267e+000	 8.1171673377e-001	 9.2200789668e-001
 2.8281056731e+000	 8.3923673781e-001	 8.3602091179e-001
 2.8197965760e+000	 8.6674521623e-001	 7.5926382138e-001
 2.8111987774e+000	 8.9423790680e-001	 6.9212888813e-001
 2.8023114985e+000	 9.2171051058e-001	 6.3500006653e-001
 2.7931340416e+000	 9.4915869365e-001	 5.8825414269e-001
 2.7836657911e+000	 9.7657808889e-001	 5.5226192026e-001
 2.7739062148e+000	 1.0039642979e+000	 5.2738944912e-001
 2.7638548655e+000	 1.0313128928e+000	 5.1399929291e-001
 2.7535113814e+000	 1.0586194182e+000	 5.1245183139e-001
 2.7428754882e+000	 1.0858793932e+000	 5.2310659347e-001
 2.8601619006e+000	 8.1859568914e-001	 7.9868029192e-001
 2.8520726703e+000	 8.4634891355e-001	 7.1318602816e-001
 2.8436931572e+000	 8.7409051467e-001	 6.3778103281e-001
 2.8350224959e+000	 9.0181619415e-001	 5.7280996790e-001
 2.8260599011e+000	 9.2952161660e-001	 5.1860795323e-001
 2.8168046691e+000	 9.5720241139e-001	 4.7550178106e-001
 2.8072561791e+000	 9.8485417439e-001	 4.4381118021e-001
 2.7974138946e+000	 1.0124724699e+000	 4.2385012594e-001
 2.7872773643e+000	 1.0400528325e+000	 4.1592819159e-001
 2.7768462236e+000	 1.0675907692e+000	 4.2035193788e-001
 2.7661201957e+000	 1.0950817609e+000	 4.3742633538e-001
 2.8841968746e+000	 8.2547464451e-001	 6.6208457893e-001
 2.8760396675e+000	 8.5346108929e-001	 5.7674225819e-001
 2.8675897383e+000	 8.8143581311e-001	 5.0233449376e-001
 2.8588462143e+000	 9.0939448149e-001	 4.3915755397e-001
 2.8498083036e+000	 9.3733272262e-001	 3.8749693369e-001
 2.8404752965e+000	 9.6524612913e-001	 3.4762864569e-001
 2.8308465672e+000	 9.9313025989e-001	 3.1982056447e-001
 2.8209215744e+000	 1.0209806419e+000	 3.0433381907e-001
 2.8106998632e+000	 1.0487927723e+000	 3.0142423050e-001
 2.8001810658e+000	 1.0765621202e+000	 3.1134378971e-001
 2.7893649032e+000	 1.1042841287e+000	 3.3434217129e-001
 2.5569178279e+000	 1.0122604513e+000	 4.5149119197e-001
 2.5467302535e+000	 1.0376246991e+000	 3.1136245110e-001
 2.5362698295e+000	 1.0629371346e+000	 1.9402020385e-001
 2.5255365491e+000	 1.0881935211e+000	 1.0003724018e-001
 2.5145304902e+000	 1.1133896056e+000	 2.9979178611e-002
 2.5032518163e+000	 1.1385211215e+000	-1.5594811868e-002
 2.4917007772e+000	 1.1635837903e+000	-6.3677164794e-002
 2.4798777095e+000	 1.1885733238e+000	-1.1854544966e-001
 2.4677830375e+000	 1.2134854263e+000	-1.7173069737e-001
 2.4554172736e+000	 1.2383157968e+000	-2.2204752237e-001
 2.4427810188e+000	 1.2630601309e+000	-2.4995539605e-001
 2.5801625355e+000	 1.0214628190e+000	 5.4442279111e-001
 2.5698823467e+000	 1.0470576509e+000	 4.0638449116e-001
 2.5593268279e+000	 1.0726001995e+000	 2.8710268957e-001
 2.5484959723e+000	 1.0980861894e+000	 1.8713361530e-001
 2.5373898583e+000	 1.1235113293e+000	 1.0703035551e-001
 2.5260086510e+000	 1.1488713135e+000	 4.7343683140e-002
 2.5143526024e+000	 1.1741618247e+000	 8.6228904732e-003
 2.5024220523e+000	 1.1993785358e+000	-8.5833753029e-003
 2.4902174287e+000	 1.2245171120e+000	-5.7933662800e-002
 2.4777392488e+000	 1.2495732131e+000	-1.2019665957e-001
 2.4649881190e+000	 1.2745424957e+000	-1.3621236205e-001
 2.6034072430e+000	 1.0306651868e+000	 6.1109630630e-001
 2.5930344399e+000	 1.0564906027e+000	 4.7604998526e-001
 2.5823838264e+000	 1.0822632644e+000	 3.5579320154e-001
 2.5714553954e+000	 1.1079788578e+000	 2.5086481352e-001
 2.5602492264e+000	 1.1336330529e+000	 1.6180453322e-001
 2.5487654857e+000	 1.1592215055e+000	 8.9153860897e-002
 2.5370044277e+000	 1.1847398592e+000	 3.3457021498e-002
 2.5249663951e+000	 1.2101837479e+000	-4.7381012786e-003
 2.5126518200e+000	 1.2355487977e+000	-2.4879037655e-002
 2.5000612240e+000	 1.2608306294e+000	 3.0710146159e-003
 2.4871952191e+000	 1.2860248606e+000	-1.7521010204e-002
 2.6266519505e+000	 1.0398675545e+000	 6.5265883186e-001
 2.6161865331e+000	 1.0659235545e+000	 5.2150784987e-001
 2.6054408248e+000	 1.0919263292e+000	 4.0124025249e-001
 2.5944148186e+000	 1.1178715262e+000	 2.9237669808e-001
 2.5831085945e+000	 1.1437547766e+000	 1.9544266120e-001
 2.5715223204e+000	 1.1695716975e+000	 1.1096947561e-001
 2.5596562529e+000	 1.1953178937e+000	 3.9495374865e-002
 2.5475107379e+000	 1.2209889599e+000	-1.8433473724e-002
 2.5350862112e+000	 1.2465804834e+000	-6.2261946522e-002
 2.5223831993e+000	 1.2720880458e+000	-2.0049497474e-002
 2.5094023193e+000	 1.2975072254e+000	 3.4428611139e-002
 2.6498966580e+000	 1.0490699223e+000	 6.7024491798e-001
 2.6393386263e+000	 1.0753565063e+000	 5.4389504963e-001
 2.6284978233e+000	 1.1015893941e+000	 4.2458106401e-001
 2.6173742418e+000	 1.1277641945e+000	 3.1280457021e-001
 2.6059679626e+000	 1.1538765003e+000	 2.0907592464e-001
 2.5942791551e+000	 1.1799218895e+000	 1.1391538350e-001
 2.5823080782e+000	 1.2058959281e+000	 2.7854249095e-002
 2.5700550807e+000	 1.2317941719e+000	-4.8563994971e-002
 2.5575206025e+000	 1.2576121691e+000	-8.4668461060e-002
 2.5447051745e+000	 1.2833454621e+000	-4.6583413493e-002
 2.5316094195e+000	 1.3089895902e+000	-1.1450153539e-002
 2.6731413656e+000	 1.0582722900e+000	 6.6497711615e-001
 2.6624907195e+000	 1.0847894581e+000	 5.4433711698e-001
 2.6515548217e+000	 1.1112524589e+000	 4.2694205740e-001
 2.6403336650e+000	 1.1376568629e+000	 3.1327362837e-001
 2.6288273307e+000	 1.1639982240e+000	 2.0382616893e-001
 2.6170359898e+000	 1.1902720815e+000	 9.9107929631e-002
 2.6049599034e+000	 1.2164739626e+000	-3.5767421186e-004
 2.5925994236e+000	 1.2425993840e+000	-9.4030824527e-002
 2.5799549938e+000	 1.2686438548e+000	-9.9708985005e-002
 2.5670271497e+000	 1.2946028784e+000	-7.6571112011e-002
 2.5538165197e+000	 1.3204719550e+000	-5.9543365123e-002
 2.6963860731e+000	 1.0674746577e+000	 6.3796649628e-001
 2.6856428127e+000	 1.0942224100e+000	 5.2394864495e-001
 2.6746118202e+000	 1.1209155238e+000	 4.0943931926e-001
 2.6632930881e+000	 1.1475495313e+000	 2.9489940367e-001
 2.6516866988e+000	 1.1741199477e+000	 1.8080630232e-001
 2.6397928245e+000	 1.2006222736e+000	 6.7655314813e-002
 2.6276117287e+000	 1.2270519970e+000	-4.4039002052e-002
 2.6151437664e+000	 1.2534045960e+000	-1.3686963479e-001
 2.6023893850e+000	 1.2796755405e+000	-1.1937257992e-001
 2.5893491249e+000	 1.3058602948e+000	-1.1005731738e-001
 2.5760236198e+000	 1.3319543199e+000	-1.0991954330e-001
 2.7196307806e+000	 1.0766770255e+000	 5.9031313743e-001
 2.7087949060e+000	 1.1036553618e+000	 4.8383375461e-001
 2.6976688186e+000	 1.1305785886e+000	 3.7317904311e-001
 2.6862525113e+000	 1.1574421997e+000	 2.5878817302e-001
 2.6745460669e+000	 1.1842416714e+000	 1.4112067775e-001
 2.6625496592e+000	 1.2109724656e+000	 2.0657943620e-002
 2.6502635539e+000	 1.2376300315e+000	-1.0209531855e-001
 2.6376881092e+000	 1.2642098080e+000	-1.5142758485e-001
 2.6248237763e+000	 1.2907072262e+000	-1.4368669965e-001
 2.6116711001e+000	 1.3171177111e+000	-1.4709091402e-001
 2.5982307200e+000	 1.3434366847e+000	-1.6265030932e-001
 2.7428754882e+000	 1.0858793932e+000	 5.2310659347e-001
 2.7319469992e+000	 1.1130883136e+000	 4.2508653886e-001
 2.7207258171e+000	 1.1402416535e+000	 3.1925794862e-001
 2.7092119345e+000	 1.1673348680e+000	 2.0603735128e-001
 2.6974054350e+000	 1.1943633951e+000	 8.5865455461e-002
 2.6853064939e+000	 1.2213226576e+000	-4.0791245250e-002
 2.6729153792e+000	 1.2482080659e+000	-1.7343888930e-001
 2.6602324520e+000	 1.2750150201e+000	-1.7166171949e-001
 2.6472581675e+000	 1.3017389119e+000	-1.7268373838e-001
 2.6339930753e+000	 1.3283751274e+000	-1.8772477015e-001
 2.6204378202e+000	 1.3549190495e+000	-2.1781025456e-001
 2.7661201957e+000	 1.0950817609e+000	 4.3742633538e-001
 2.7550990924e+000	 1.1225212654e+000	 3.4879148373e-001
 2.7437828155e+000	 1.1499047184e+000	 2.4876367964e-001
 2.7321713577e+000	 1.1772275364e+000	 1.3773586357e-001
 2.7202648031e+000	 1.2044851188e+000	 1.6128947150e-002
 2.7080633286e+000	 1.2316728496e+000	-1.1560646529e-001
 2.6955672044e+000	 1.2587861004e+000	-2.0459338973e-001
 2.6827767948e+000	 1.2858202321e+000	-1.9759079778e-001
 2.6696925588e+000	 1.3127705976e+000	-2.0640082306e-001
 2.6563150506e+000	 1.3396325438e+000	-2.3201557037e-001
 2.6426449203e+000	 1.3664014143e+000	-2.7547681576e-001
 2.7893649032e+000	 1.1042841287e+000	 3.3434217129e-001
 2.7782511856e+000	 1.1319542172e+000	 2.5602386869e-001
 2.7668398140e+000	 1.1595677832e+000	 1.6277518237e-001
 2.7551307808e+000	 1.1871202048e+000	 5.4964499071e-002
 2.7431241712e+000	 1.2146068424e+000	-6.7008056964e-002
 2.7308201633e+000	 1.2420230416e+000	-2.0270878416e-001
 2.7182190297e+000	 1.2693641349e+000	-2.3209103981e-001
 2.7053211376e+000	 1.2966254442e+000	-2.2923893992e-001
 2.6921269500e+000	 1.3238022833e+000	-2.4487961617e-001
 2.6786370258e+000	 1.3508899601e+000	-2.8002365669e-001
 2.6648520205e+000	 1.3778837792e+000	-3.3573015643e-001
 2.4427810188e+000	 1.2630601309e+000	-2.4995539605e-001
 2.4298749630e+000	 1.2877141236e+000	-2.3119324983e-001
 2.4166998856e+000	 1.3122734711e+000	-2.3163284155e-001
 2.4032566556e+000	 1.3367338731e+000	-2.5065401186e-001
 2.3895462317e+000	 1.3610910354e+000	-2.8758240482e-001
 2.3755696628e+000	 1.3853406719e+000	-3.4169092095e-001
 2.3613280878e+000	 1.4094785070e+000	-4.1220130235e-001
 2.3468227357e+000	 1.4335002780e+000	-4.9828584721e-001
 2.3320549255e+000	 1.4574017375e+000	-5.9906925040e-001
 2.3170260660e+000	 1.4811786555e+000	-7.1363056676e-001
 2.3017376559e+000	 1.5048268218e+000	-8.4100529280e-001
 2.4649881190e+000	 1.2745424957e+000	-1.3621236205e-001
 2.4519647354e+000	 1.2994206156e+000	-1.3660441949e-001
 2.4386698846e+000	 1.3242032299e+000	-1.5694401030e-001
 2.4251044434e+000	 1.3488859992e+000	-1.9647636009e-001
 2.4112693793e+000	 1.3734645903e+000	-2.5439010574e-001
 2.3971657507e+000	 1.3979346780e+000	-3.2981890421e-001
 2.3827947068e+000	 1.4222919480e+000	-4.2184317927e-001
 2.3681574879e+000	 1.4465320987e+000	-5.2949200321e-001
 2.3532554248e+000	 1.4706508442e+000	-6.5174510999e-001
 2.3380899394e+000	 1.4946439160e+000	-7.8753503611e-001
 2.3226625436e+000	 1.5185070657e+000	-9.3574938474e-001
 2.4871952191e+000	 1.2860248606e+000	-1.7521010204e-002
 2.4740545078e+000	 1.3111271077e+000	-3.4719948989e-002
 2.4606398835e+000	 1.3361329887e+000	-7.2639551263e-002
 2.4469522311e+000	 1.3610381253e+000	-1.3039063379e-001
 2.4329925268e+000	 1.3858381451e+000	-2.0702499779e-001
 2.4187618385e+000	 1.4105286841e+000	-3.0153719379e-001
 2.4042613258e+000	 1.4351053889e+000	-4.1286643044e-001
 2.3894922400e+000	 1.4595639195e+000	-5.3989862382e-001
 2.3744559242e+000	 1.4838999509e+000	-6.8146858375e-001
 2.3591538127e+000	 1.5081091765e+000	-8.3636233288e-001
 2.3435874314e+000	 1.5321873095e+000	-1.0033195538e+000
 2.5094023193e+000	 1.2975072254e+000	 3.4428611139e-002
 2.4961442802e+000	 1.3228335997e+000	 7.4470604952e-002
 2.4826098825e+000	 1.3480627476e+000	 2.1210561190e-002
 2.4688000189e+000	 1.3731902515e+000	-5.2547390927e-002
 2.4547156744e+000	 1.3982117000e+000	-1.4571834229e-001
 2.4403579264e+000	 1.4231226902e+000	-2.5715782748e-001
 2.4257279448e+000	 1.4479188299e+000	-3.8566389595e-001
 2.4108269922e+000	 1.4725957402e+000	-5.2997932966e-001
 2.3956564235e+000	 1.4971490576e+000	-6.8879400300e-001
 2.3802176860e+000	 1.5215744370e+000	-8.6074738078e-001
 2.3645123192e+000	 1.5458675533e+000	-1.0444311492e+000
 2.5316094195e+000	 1.3089895902e+000	-1.1450153539e-002
 2.5182340526e+000	 1.3345400917e+000	 3.5007500866e-002
 2.5045798815e+000	 1.3599925064e+000	 8.2240566973e-002
 2.4906478067e+000	 1.3853423776e+000	 3.6906688249e-002
 2.4764388219e+000	 1.4105852549e+000	-7.0695057322e-002
 2.4619540142e+000	 1.4357166963e+000	-1.9698403966e-001
 2.4471945638e+000	 1.4607322709e+000	-3.4061715903e-001
 2.4321617443e+000	 1.4856275609e+000	-5.0019403880e-001
 2.4168569228e+000	 1.5103981643e+000	-6.7425955978e-001
 2.4012815594e+000	 1.5350396975e+000	-8.6130653773e-001
 2.3854372070e+000	 1.5595477972e+000	-1.0597785390e+000
 2.5538165197e+000	 1.3204719550e+000	-5.9543365123e-002
 2.5403238250e+000	 1.3462465838e+000	-3.6526486268e-002
 2.5265498804e+000	 1.3719222652e+000	-1.1910144540e-002
 2.5124955945e+000	 1.3974945037e+000	 1.3074600068e-002
 2.4981619695e+000	 1.4229588097e+000	 1.7826006542e-002
 2.4835501020e+000	 1.4483107024e+000	-1.2131064410e-001
 2.4686611827e+000	 1.4735457119e+000	-2.7809703543e-001
 2.4534964965e+000	 1.4986593816e+000	-4.5098956249e-001
 2.4380574221e+000	 1.5236472710e+000	-6.3838800854e-001
 2.4223454327e+000	 1.5485049580e+000	-8.3863840299e-001
 2.4063620948e+000	 1.5732280410e+000	-1.0500360224e+000
 2.5760236198e+000	 1.3319543199e+000	-1.0991954330e-001
 2.5624135974e+000	 1.3579530758e+000	-1.0788061479e-001
 2.5485198794e+000	 1.3838520240e+000	-1.0339647745e-001
 2.5343433823e+000	 1.4096466298e+000	-9.7652059531e-002
 2.5198851171e+000	 1.4353323646e+000	-9.1890827737e-002
 2.5051461899e+000	 1.4609047085e+000	-8.7412743619e-002
 2.4901278017e+000	 1.4863591528e+000	-1.9846403758e-001
 2.4748312486e+000	 1.5116912023e+000	-3.8280017010e-001
 2.4592579215e+000	 1.5368963777e+000	-5.8168733158e-001
 2.4434093060e+000	 1.5619702185e+000	-7.9332458270e-001
 2.4272869826e+000	 1.5869082848e+000	-1.0158586950e+000
 2.5982307200e+000	 1.3434366847e+000	-1.6265030932e-001
 2.5845033698e+000	 1.3696595678e+000	-1.7918022880e-001
 2.5704898784e+000	 1.3957817829e+000	-1.9239709189e-001
 2.5561911700e+000	 1.4217987559e+000	-2.0344172075e-001
 2.5416082646e+000	 1.4477059195e+000	-2.1351509564e-001
 2.5267422777e+000	 1.4734987146e+000	-2.2387633619e-001
 2.5115944207e+000	 1.4991725938e+000	-2.3584051647e-001
 2.4961660007e+000	 1.5247230230e+000	-2.9604812515e-001
 2.4804584208e+000	 1.5501454844e+000	-5.0465137032e-001
 2.4644731793e+000	 1.5754354790e+000	-7.2593041604e-001
 2.4482118703e+000	 1.6005885287e+000	-9.5788326926e-001
 2.6204378202e+000	 1.3549190495e+000	-2.1781025456e-001
 2.6065931422e+000	 1.3813660599e+000	-2.5055156600e-001
 2.5924598773e+000	 1.4077115417e+000	-2.7908946668e-001
 2.5780389578e+000	 1.4339508820e+000	-3.0452268115e-001
 2.5633314122e+000	 1.4600794743e+000	-3.2801176317e-001
 2.5483383656e+000	 1.4860927207e+000	-3.5077709979e-001
 2.5330610397e+000	 1.5119860348e+000	-3.7409674544e-001
 2.5175007529e+000	 1.5377548437e+000	-3.9930408931e-001
 2.5016589201e+000	 1.5633945911e+000	-4.2778535980e-001
 2.4855370527e+000	 1.5889007395e+000	-6.3700566450e-001
 2.4691367581e+000	 1.6142687725e+000	-8.7672885350e-001
 2.6426449203e+000	 1.3664014143e+000	-2.7547681576e-001
 2.6286829145e+000	 1.3930725519e+000	-3.2212172016e-001
 2.6144298763e+000	 1.4196413005e+000	-3.6364994899e-001
 2.5998867456e+000	 1.4461030082e+000	-4.0112012140e-001
 2.5850545598e+000	 1.4724530292e+000	-4.3565440873e-001
 2.5699344534e+000	 1.4986867268e+000	-4.6843655924e-001
 2.5545276587e+000	 1.5247994757e+000	-5.0070974914e-001
 2.5388355050e+000	 1.5507866644e+000	-5.3377426288e-001
 2.5228594194e+000	 1.5766436978e+000	-5.6898500667e-001
 2.5066009260e+000	 1.6023660000e+000	-6.0774885948e-001
 2.4900616459e+000	 1.6279490163e+000	-7.7299769155e-001
 2.6648520205e+000	 1.3778837792e+000	-3.3573015643e-001
 2.6507726869e+000	 1.4047790439e+000	-3.9401860542e-001
 2.6363998752e+000	 1.4315710593e+000	-4.4625380146e-001
 2.6217345334e+000	 1.4582551343e+000	-4.9345623515e-001
 2.6067777073e+000	 1.4848265841e+000	-5.3671172445e-001
 2.5915305413e+000	 1.5112807329e+000	-5.7716945808e-001
 2.5759942776e+000	 1.5376129167e+000	-6.1603986119e-001
 2.5601702572e+000	 1.5638184851e+000	-6.5459228630e-001
 2.5440599187e+000	 1.5898928045e+000	-6.9415253354e-001
 2.5276647993e+000	 1.6158312605e+000	-7.3610020426e-001
 2.5109865337e+000	 1.6416292602e+000	-7.8186589294e-001
 2.3017376559e+000	 1.5048268218e+000	-8.4100529280e-001
 2.2861912829e+000	 1.5283420488e+000	-8.0499854204e-001
 2.2703886241e+000	 1.5517201731e+000	-7.8017938881e-001
 2.2543314449e+000	 1.5749570586e+000	-7.6413280672e-001
 2.2380215991e+000	 1.5980485981e+000	-7.5440170730e-001
 2.2214610278e+000	 1.6209907162e+000	-7.4849093381e-001
 2.2046517589e+000	 1.6437793714e+000	-7.4387136040e-001
 2.1875959066e+000	 1.6664105584e+000	-7.3798408779e-001
 2.1702956705e+000	 1.6888803104e+000	-7.2824472644e-001
 2.1527533344e+000	 1.7111847011e+000	-7.1204775782e-001
 2.1349712658e+000	 1.7333198476e+000	-6.8677096408e-001
 2.3226625436e+000	 1.5185070657e+000	-9.3574938474e-001
 2.3069748400e+000	 1.5422360674e+000	-8.8461582901e-001
 2.2910285207e+000	 1.5658267202e+000	-8.4301522547e-001
 2.2748253672e+000	 1.5892748500e+000	-8.0866733112e-001
 2.2583672500e+000	 1.6125763126e+000	-7.7925161311e-001
 2.2416561281e+000	 1.6357269954e+000	-7.5241115485e-001
 2.2246940476e+000	 1.6587228203e+000	-7.2575666520e-001
 2.2074831422e+000	 1.6815597453e+000	-6.9687058218e-001
 2.1900256311e+000	 1.7042337677e+000	-6.6331126216e-001
 2.1723238192e+000	 1.7267409257e+000	-6.2261724530e-001
 2.1543800955e+000	 1.7490773008e+000	-5.7231158739e-001
 2.3435874314e+000	 1.5321873095e+000	-1.0033195538e+000
 2.3277583971e+000	 1.5561300860e+000	-9.4325595345e-001
 2.3116684172e+000	 1.5799332672e+000	-8.9112512474e-001
 2.2953192894e+000	 1.6035926415e+000	-8.4477762282e-001
 2.2787129009e+000	 1.6271040271e+000	-8.0202542525e-001
 2.2618512283e+000	 1.6504632747e+000	-7.6064575459e-001
 2.2447363364e+000	 1.6736662691e+000	-7.1838500204e-001
 2.2273703777e+000	 1.6967089322e+000	-6.7296274371e-001
 2.2097555918e+000	 1.7195872251e+000	-6.2207584046e-001
 2.1918943041e+000	 1.7422971502e+000	-5.6340261203e-001
 2.1737889252e+000	 1.7648347539e+000	-4.9460707601e-001
 2.3645123192e+000	 1.5458675533e+000	-1.0444311492e+000
 2.3485419542e+000	 1.5700241047e+000	-9.8149503495e-001
 2.3323083138e+000	 1.5940398142e+000	-9.2494500588e-001
 2.3158132116e+000	 1.6179104329e+000	-8.7275848335e-001
 2.2990585519e+000	 1.6416317417e+000	-8.2287596412e-001
 2.2820463286e+000	 1.6651995539e+000	-7.7320476360e-001
 2.2647786251e+000	 1.6886097179e+000	-7.2162285842e-001
 2.2472576132e+000	 1.7118581191e+000	-6.6598281962e-001
 2.2294855524e+000	 1.7349406825e+000	-6.0411582765e-001
 2.2114647889e+000	 1.7578533748e+000	-5.3383576002e-001
 2.1931977549e+000	 1.7805922071e+000	-4.5294334190e-001
 2.3854372070e+000	 1.5595477972e+000	-1.0597785390e+000
 2.3693255114e+000	 1.5839181233e+000	-9.9989350901e-001
 2.3529482104e+000	 1.6081463613e+000	-9.4490043953e-001
 2.3363071339e+000	 1.6322282244e+000	-8.9289973707e-001
 2.3194042028e+000	 1.6561594562e+000	-8.4195647795e-001
 2.3022414288e+000	 1.6799358332e+000	-7.9010407647e-001
 2.2848209138e+000	 1.7035531668e+000	-7.3534805060e-001
 2.2671448487e+000	 1.7270073060e+000	-6.7566987659e-001
 2.2492155131e+000	 1.7502941398e+000	-6.0903092375e-001
 2.2310352738e+000	 1.7734095994e+000	-5.3337646000e-001
 2.2126065846e+000	 1.7963496603e+000	-4.4663971899e-001
 2.4063620948e+000	 1.5732280410e+000	-1.0500360224e+000
 2.3901090685e+000	 1.5978121419e+000	-9.9899680899e-001
 2.3735881070e+000	 1.6222529083e+000	-9.5140709762e-001
 2.3568010561e+000	 1.6465460158e+000	-9.0548644757e-001
 2.3397498537e+000	 1.6706871707e+000	-8.5942062431e-001
 2.3224365291e+000	 1.6946721124e+000	-8.1136519689e-001
 2.3048632025e+000	 1.7184966156e+000	-7.5944923101e-001
 2.2870320842e+000	 1.7421564929e+000	-7.0177906954e-001
 2.2689454737e+000	 1.7656475972e+000	-6.3644219139e-001
 2.2506057587e+000	 1.7889658239e+000	-5.6151113971e-001
 2.2320154143e+000	 1.8121071134e+000	-4.7504751007e-001
 2.4272869826e+000	 1.5869082848e+000	-1.0158586950e+000
 2.4108926256e+000	 1.6117061606e+000	-9.7933601276e-001
 2.3942280036e+000	 1.6363594553e+000	-9.4487118008e-001
 2.3772949783e+000	 1.6608638072e+000	-9.1079912287e-001
 2.3600955046e+000	 1.6852148853e+000	-8.7542245238e-001
 2.3426316293e+000	 1.7094083916e+000	-8.3701499582e-001
 2.3249054912e+000	 1.7334400644e+000	-7.9382542123e-001
 2.3069193198e+000	 1.7573056798e+000	-7.4408094813e-001
 2.2886754343e+000	 1.7810010546e+000	-6.8599113506e-001
 2.2701762435e+000	 1.8045220485e+000	-6.1775173492e-001
 2.2514242440e+000	 1.8278645666e+000	-5.3754860880e-001
 2.4482118703e+000	 1.6005885287e+000	-9.5788326926e-001
 2.4316761827e+000	 1.6256001792e+000	-9.4142845617e-001
 2.4148679002e+000	 1.6504660024e+000	-9.2568981958e-001
 2.3977889005e+000	 1.6751815987e+000	-9.0911391014e-001
 2.3804411555e+000	 1.6997425998e+000	-8.9011638626e-001
 2.3628267296e+000	 1.7241446709e+000	-8.6708548217e-001
 2.3449477800e+000	 1.7483835133e+000	-8.3838556880e-001
 2.3268065553e+000	 1.7724548667e+000	-8.0236079886e-001
 2.3084053950e+000	 1.7963545119e+000	-7.5733882752e-001
 2.2897467284e+000	 1.8200782730e+000	-7.0163459934e-001
 2.2708330737e+000	 1.8436220197e+000	-6.3355419242e-001
 2.4691367581e+000	 1.6142687725e+000	-8.7672885350e-001
 2.4524597398e+000	 1.6394941978e+000	-8.8577831535e-001
 2.4355077967e+000	 1.6645725494e+000	-8.9425146578e-001
 2.4182828228e+000	 1.6894993901e+000	-9.0070278043e-001
 2.4007868064e+000	 1.7142703143e+000	-9.0365720905e-001
 2.3830218298e+000	 1.7388809501e+000	-9.0161358508e-001
 2.3649900687e+000	 1.7633269621e+000	-8.9304812667e-001
 2.3466937908e+000	 1.7876040536e+000	-8.7641802065e-001
 2.3281353556e+000	 1.8117079693e+000	-8.5016508058e-001
 2.3093172132e+000	 1.8356344976e+000	-8.1271946993e-001
 2.2902419033e+000	 1.8593794729e+000	-7.6250348094e-001
 2.4900616459e+000	 1.6279490163e+000	-7.7299769155e-001
 2.4732432969e+000	 1.6533882164e+000	-8.1287715964e-001
 2.4561476933e+000	 1.6786790964e+000	-8.5093625012e-001
 2.4387767450e+000	 1.7038171816e+000	-8.8583370416e-001
 2.4211324573e+000	 1.7287980288e+000	-9.1620004780e-001
 2.4032169301e+000	 1.7536172294e+000	-9.4064094716e-001
 2.3850323574e+000	 1.7782704109e+000	-9.5774065381e-001
 2.3665810263e+000	 1.8027532405e+000	-9.6606553186e-001
 2.3478653163e+000	 1.8270614267e+000	-9.6416765784e-001
 2.3288876981e+000	 1.8511907221e+000	-9.5058848446e-001
 2.3096507330e+000	 1.8751369261e+000	-9.2293065095e-001
 2.5109865337e+000	 1.6416292602e+000	-7.8186589294e-001
 2.4940268541e+000	 1.6672822350e+000	-7.2320447685e-001
 2.4767875899e+000	 1.6927856434e+000	-7.9611633244e-001
 2.4592706672e+000	 1.7181349730e+000	-8.6477081782e-001
 2.4414781082e+000	 1.7433257434e+000	-9.2790035916e-001
 2.4234120303e+000	 1.7683535086e+000	-9.8421372812e-001
 2.4050746461e+000	 1.7932138597e+000	-1.0323994358e+000
 2.3864682618e+000	 1.8179024274e+000	-1.0711292070e+000
 2.3675952769e+000	 1.8424148840e+000	-1.0990615266e+000
 2.3484581830e+000	 1.8667469467e+000	-1.1148452481e+000
 2.3290595627e+000	 1.8908943792e+000	-1.0073449201e+000
 2.1349712658e+000	 1.7333198476e+000	-6.8677096408e-001
 2.1169519149e+000	 1.7552819119e+000	-8.4953772016e-001
 2.0986978130e+000	 1.7770671034e+000	-9.8973081786e-001
 2.0802115719e+000	 1.7986716810e+000	-1.1062865441e+000
 2.0614958826e+000	 1.8200919554e+000	-1.1981538107e+000
 2.0425535136e+000	 1.8413242908e+000	-1.2642970812e+000
 2.0233873101e+000	 1.8623651074e+000	-1.3036992849e+000
 2.0040001923e+000	 1.8832108829e+000	-1.2778564306e+000
 1.9843951538e+000	 1.9038581548e+000	-1.1764165002e+000
 1.9645752604e+000	 1.9243035224e+000	-1.0627090472e+000
 1.9445436483e+000	 1.9445436482e+000	-9.3863212446e-001
 2.1543800955e+000	 1.7490773008e+000	-5.7231158739e-001
 2.1361969323e+000	 1.7712390202e+000	-7.5200574753e-001
 2.1177768840e+000	 1.7932222588e+000	-9.1109880331e-001
 2.0991225862e+000	 1.8150232417e+000	-1.0483560099e+000
 2.0802367542e+000	 1.8366382459e+000	-1.1625533371e+000
 2.0611221819e+000	 1.8580636026e+000	-1.2524806232e+000
 2.0417817402e+000	 1.8792956993e+000	-1.2948521198e+000
 2.0222183758e+000	 1.9003309818e+000	-1.2314940639e+000
 2.0024351097e+000	 1.9211659562e+000	-1.1551461353e+000
 1.9824350355e+000	 1.9417971908e+000	-1.0676064582e+000
 1.9622213178e+000	 1.9622213178e+000	-9.7069627639e-001
 2.1737889252e+000	 1.7648347539e+000	-4.9460707601e-001
 2.1554419497e+000	 1.7871961285e+000	-6.8868304558e-001
 2.1368559550e+000	 1.8093774143e+000	-8.6409762741e-001
 2.1180336005e+000	 1.8313748025e+000	-1.0194450041e+000
 2.0989776259e+000	 1.8531845364e+000	-1.1533281840e+000
 2.0796908502e+000	 1.8748029143e+000	-1.2643623846e+000
 2.0601761703e+000	 1.8962262912e+000	-1.2361412869e+000
 2.0404365594e+000	 1.9174510807e+000	-1.1932398680e+000
 2.0204750656e+000	 1.9384737576e+000	-1.1384656486e+000
 2.0002948105e+000	 1.9592908592e+000	-1.0735429411e+000
 1.9798989873e+000	 1.9798989873e+000	-1.0002187541e+000
 2.1931977549e+000	 1.7805922071e+000	-4.5294334190e-001
 2.1746869671e+000	 1.8031532367e+000	-6.5895069846e-001
 2.1559350260e+000	 1.8255325698e+000	-8.4820433970e-001
 2.1369446148e+000	 1.8477263632e+000	-1.0191272785e+000
 2.1177184976e+000	 1.8697308269e+000	-1.1701494861e+000
 2.0982595185e+000	 1.8915422260e+000	-1.2024435608e+000
 2.0785706004e+000	 1.9131568830e+000	-1.1890135116e+000
 2.0586547430e+000	 1.9345711797e+000	-1.1631653720e+000
 2.0385150216e+000	 1.9557815590e+000	-1.1265267903e+000
 2.0181545856e+000	 1.9767845275e+000	-1.0807507754e+000
 1.9975766568e+000	 1.9975766568e+000	-1.0275126434e+000
 2.2126065846e+000	 1.7963496603e+000	-4.4663971899e-001
 2.1939319845e+000	 1.8191103450e+000	-6.6222030290e-001
 2.1750140971e+000	 1.8416877253e+000	-8.6292356373e-001
 2.1558556291e+000	 1.8640779239e+000	-1.0470011927e+000
 2.1364593692e+000	 1.8862771174e+000	-1.1422824116e+000
 2.1168281868e+000	 1.9082815378e+000	-1.1542957007e+000
 2.0969650305e+000	 1.9300874749e+000	-1.1534759959e+000
 2.0768729265e+000	 1.9516912786e+000	-1.1413545962e+000
 2.0565549775e+000	 1.9730893604e+000	-1.1194907171e+000
 2.0360143607e+000	 1.9942781959e+000	-1.0894685432e+000
 2.0152543264e+000	 2.0152543264e+000	-1.0528942116e+000
 2.2320154143e+000	 1.8121071134e+000	-4.7504751007e-001
 2.2131770019e+000	 1.8350674533e+000	-6.9793264161e-001
 2.1940931681e+000	 1.8578428808e+000	-9.0778629815e-001
 2.1747666434e+000	 1.8804294847e+000	-1.0673295807e+000
 2.1552002409e+000	 1.9028234079e+000	-1.1007143440e+000
 2.1353968551e+000	 1.9250208495e+000	-1.1209763222e+000
 2.1153594606e+000	 1.9470180668e+000	-1.1295508206e+000
 2.0950911101e+000	 1.9688113775e+000	-1.1279035086e+000
 2.0745949335e+000	 1.9903971619e+000	-1.1175275832e+000
 2.0538741358e+000	 2.0117718643e+000	-1.0999408554e+000
 2.0329319959e+000	 2.0329319959e+000	-1.0766827686e+000
 2.2514242440e+000	 1.8278645666e+000	-5.3754860880e-001
 2.2324220193e+000	 1.8510245616e+000	-7.6555642525e-001
 2.2131722391e+000	 1.8739980363e+000	-9.8234877986e-001
 2.1936776577e+000	 1.8967810454e+000	-1.0396903336e+000
 2.1739411125e+000	 1.9193696984e+000	-1.0770471114e+000
 2.1539655234e+000	 1.9417601612e+000	-1.1024509663e+000
 2.1337538907e+000	 1.9639486587e+000	-1.1172743035e+000
 2.1133092937e+000	 1.9859314765e+000	-1.1229195104e+000
 2.0926348894e+000	 2.0077049633e+000	-1.1208161524e+000
 2.0717339109e+000	 2.0292655327e+000	-1.1124180915e+000
 2.0506096654e+000	 2.0506096654e+000	-1.0992005361e+000
 2.2708330737e+000	 1.8436220197e+000	-6.3355419242e-001
 2.2516670367e+000	 1.8669816699e+000	-8.6458709893e-001
 2.2322513102e+000	 1.8901531918e+000	-9.8243111963e-001
 2.2125886720e+000	 1.9131326061e+000	-1.0328644488e+000
 2.1926819842e+000	 1.9359159889e+000	-1.0711947483e+000
 2.1725341917e+000	 1.9584994730e+000	-1.0987014677e+000
 2.1521483208e+000	 1.9808792506e+000	-1.1166963914e+000
 2.1315274772e+000	 2.0030515754e+000	-1.1265209470e+000
 2.1106748454e+000	 2.0250127647e+000	-1.1295434303e+000
 2.0895936860e+000	 2.0467592011e+000	-1.1271561534e+000
 2.0682873350e+000	 2.0682873350e+000	-1.1207725231e+000
 2.2902419033e+000	 1.8593794729e+000	-7.6250348094e-001
 2.2709120541e+000	 1.8829387782e+000	-9.3992420992e-001
 2.2513303812e+000	 1.9063083472e+000	-9.9939301468e-001
 2.2314996862e+000	 1.9294841669e+000	-1.0467191446e+000
 2.2114228559e+000	 1.9524622794e+000	-1.0830894250e+000
 2.1911028601e+000	 1.9752387847e+000	-1.1097252645e+000
 2.1705427509e+000	 1.9978098425e+000	-1.1278800823e+000
 2.1497456608e+000	 2.0201716744e+000	-1.1388366443e+000
 2.1287148013e+000	 2.0423205661e+000	-1.1439043148e+000
 2.1074534611e+000	 2.0642528695e+000	-1.1444162312e+000
 2.0859650045e+000	 2.0859650045e+000	-1.1417264077e+000
 2.3096507330e+000	 1.8751369261e+000	-9.2293065095e-001
 2.2901570715e+000	 1.8988958865e+000	-9.8737931368e-001
 2.2704094522e+000	 1.9224635027e+000	-1.0397513870e+000
 2.2504107005e+000	 1.9458357276e+000	-1.0811414188e+000
 2.2301637275e+000	 1.9690085699e+000	-1.1126806856e+000
 2.2096715284e+000	 1.9919780964e+000	-1.1355347427e+000
 2.1889371809e+000	 2.0147404344e+000	-1.1509008772e+000
 2.1679638444e+000	 2.0372917733e+000	-1.1600054686e+000
 2.1467547572e+000	 2.0596283675e+000	-1.1641012651e+000
 2.1253132362e+000	 2.0817465379e+000	-1.1644645812e+000
 2.1036426740e+000	 2.1036426740e+000	-1.1623924252e+000
 2.3290595627e+000	 1.8908943792e+000	-1.0073449201e+000
 2.3094020889e+000	 1.9148529948e+000	-1.0608019450e+000
 2.2894885232e+000	 1.9386186582e+000	-1.1033522470e+000
 2.2693217148e+000	 1.9621872884e+000	-1.1360372245e+000
 2.2489045992e+000	 1.9855548604e+000	-1.1599347237e+000
 2.2282401967e+000	 2.0087174082e+000	-1.1761566133e+000
 2.2073316110e+000	 2.0316710262e+000	-1.1858462590e+000
 2.1861820279e+000	 2.0544118722e+000	-1.1901759081e+000
 2.1647947132e+000	 2.0769361689e+000	-1.1903439858e+000
 2.1431730113e+000	 2.0992402062e+000	-1.1875723147e+000
 2.1213203436e+000	 2.1213203435e+000	-1.1831032611e+000
 1.9445436483e+000	 1.9445436482e+000	-9.3863212446e-001
 1.9243035224e+000	 1.9645752604e+000	-9.2773088194e-001
 1.9038581548e+000	 1.9843951538e+000	-9.3101892027e-001
 1.8832108829e+000	 2.0040001923e+000	-9.5024844225e-001
 1.8623651074e+000	 2.0233873101e+000	-9.5297645641e-001
 1.8413242908e+000	 2.0425535136e+000	-9.6089853654e-001
 1.8200919554e+000	 2.0614958826e+000	-9.9842332208e-001
 1.7986716810e+000	 2.0802115719e+000	-1.0653311102e+000
 1.7770671034e+000	 2.0986978130e+000	-1.1613314056e+000
 1.7552819119e+000	 2.1169519149e+000	-1.2860645210e+000
 1.7333198476e+000	 2.1349712658e+000	-1.4391033456e+000
 1.9622213178e+000	 1.9622213178e+000	-9.7069627639e-001
 1.9417971908e+000	 1.9824350355e+000	-9.8145172722e-001
 1.9211659562e+000	 2.0024351097e+000	-1.0035555381e+000
 1.9003309818e+000	 2.0222183758e+000	-1.0386668354e+000
 1.8792956993e+000	 2.0417817402e+000	-1.0884410235e+000
 1.8580636026e+000	 2.0611221819e+000	-1.1169536776e+000
 1.8366382459e+000	 2.0802367542e+000	-1.1621967036e+000
 1.8150232417e+000	 2.0991225862e+000	-1.2344442696e+000
 1.7932222588e+000	 2.1177768840e+000	-1.3332497633e+000
 1.7712390202e+000	 2.1361969323e+000	-1.4580983986e+000
 1.7490773008e+000	 2.1543800955e+000	-1.6084091806e+000
 1.9798989873e+000	 1.9798989873e+000	-1.0002187541e+000
 1.9592908592e+000	 2.0002948105e+000	-1.0285107889e+000
 1.9384737576e+000	 2.0204750656e+000	-1.0653512775e+000
 1.9174510807e+000	 2.0404365594e+000	-1.1123091285e+000
 1.8962262912e+000	 2.0601761703e+000	-1.1709527177e+000
 1.8748029143e+000	 2.0796908502e+000	-1.2424633575e+000
 1.8531845364e+000	 2.0989776259e+000	-1.2922283245e+000
 1.8313748025e+000	 2.1180336005e+000	-1.3667248407e+000
 1.8093774143e+000	 2.1368559550e+000	-1.4653508722e+000
 1.7871961285e+000	 2.1554419497e+000	-1.5874371209e+000
 1.7648347539e+000	 2.1737889252e+000	-1.7322491876e+000
 1.9975766568e+000	 1.9975766568e+000	-1.0275126434e+000
 1.9767845275e+000	 2.0181545856e+000	-1.0693157994e+000
 1.9557815590e+000	 2.0385150216e+000	-1.1169069880e+000
 1.9345711797e+000	 2.0586547430e+000	-1.1717677219e+000
 1.9131568830e+000	 2.0785706004e+000	-1.2353821510e+000
 1.8915422260e+000	 2.0982595185e+000	-1.3092340420e+000
 1.8697308269e+000	 2.1177184976e+000	-1.3874668699e+000
 1.8477263632e+000	 2.1369446148e+000	-1.4612251555e+000
 1.8255325698e+000	 2.1559350260e+000	-1.5567899020e+000
 1.8031532367e+000	 2.1746869671e+000	-1.6733378314e+000
 1.7805922071e+000	 2.1931977549e+000	-1.8099815652e+000
 2.0152543264e+000	 2.0152543264e+000	-1.0528942116e+000
 1.9942781959e+000	 2.0360143607e+000	-1.1042740576e+000
 1.9730893604e+000	 2.0565549775e+000	-1.1587195170e+000
 1.9516912786e+000	 2.0768729265e+000	-1.2176274940e+000
 1.9300874749e+000	 2.0969650305e+000	-1.2824006815e+000
 1.9082815378e+000	 2.1168281868e+000	-1.3544445873e+000
 1.8862771174e+000	 2.1364593692e+000	-1.4351645400e+000
 1.8640779239e+000	 2.1558556291e+000	-1.5169764592e+000
 1.8416877253e+000	 2.1750140971e+000	-1.6066976811e+000
 1.8191103450e+000	 2.1939319845e+000	-1.7150301358e+000
 1.7963496603e+000	 2.2126065846e+000	-1.8409338367e+000
 2.0329319959e+000	 2.0329319959e+000	-1.0766827686e+000
 2.0117718643e+000	 2.0538741358e+000	-1.1337924476e+000
 1.9903971619e+000	 2.0745949335e+000	-1.1912818844e+000
 1.9688113775e+000	 2.0950911101e+000	-1.2504661285e+000
 1.9470180668e+000	 2.1153594606e+000	-1.3126691531e+000
 1.9250208495e+000	 2.1353968551e+000	-1.3792209233e+000
 1.9028234079e+000	 2.1552002409e+000	-1.4514544404e+000
 1.8804294847e+000	 2.1747666434e+000	-1.5307027703e+000
 1.8578428808e+000	 2.1940931681e+000	-1.6141817550e+000
 1.8350674533e+000	 2.2131770019e+000	-1.7117172989e+000
 1.8121071134e+000	 2.2320154143e+000	-1.8244041835e+000
 2.0506096654e+000	 2.0506096654e+000	-1.0992005361e+000
 2.0292655327e+000	 2.0717339109e+000	-1.1582774567e+000
 2.0077049633e+000	 2.0926348894e+000	-1.2150834469e+000
 1.9859314765e+000	 2.1133092937e+000	-1.2708544244e+000
 1.9639486587e+000	 2.1337538907e+000	-1.3268383489e+000
 1.9417601612e+000	 2.1539655234e+000	-1.3842923299e+000
 1.9193696984e+000	 2.1739411125e+000	-1.4444797055e+000
 1.8967810454e+000	 2.1936776577e+000	-1.5086671008e+000
 1.8739980363e+000	 2.2131722391e+000	-1.5783273900e+000
 1.8510245616e+000	 2.2324220193e+000	-1.6625773801e+000
 1.8278645666e+000	 2.2514242440e+000	-1.7596627098e+000
 2.0682873350e+000	 2.0682873350e+000	-1.1207725231e+000
 2.0467592011e+000	 2.0895936860e+000	-1.1781351924e+000
 2.0250127647e+000	 2.1106748454e+000	-1.2306100554e+000
 2.0030515754e+000	 2.1315274772e+000	-1.2793565904e+000
 1.9808792506e+000	 2.1521483208e+000	-1.3255494212e+000
 1.9584994730e+000	 2.1725341917e+000	-1.3703754606e+000
 1.9359159889e+000	 2.1926819842e+000	-1.4150310208e+000
 1.9131326061e+000	 2.2125886720e+000	-1.4607188985e+000
 1.8901531918e+000	 2.2322513102e+000	-1.5086454411e+000
 1.8669816699e+000	 2.2516670367e+000	-1.5667643107e+000
 1.8436220197e+000	 2.2708330737e+000	-1.6459526427e+000
 2.0859650045e+000	 2.0859650045e+000	-1.1417264077e+000
 2.0642528695e+000	 2.1074534611e+000	-1.1937713984e+000
 2.0423205661e+000	 2.1287148013e+000	-1.2383442027e+000
 2.0201716744e+000	 2.1497456608e+000	-1.2765305240e+000
 1.9978098425e+000	 2.1705427509e+000	-1.3094342995e+000
 1.9752387847e+000	 2.1911028601e+000	-1.3381748777e+000
 1.9524622794e+000	 2.2114228559e+000	-1.3638841567e+000
 1.9294841669e+000	 2.2314996862e+000	-1.3877036924e+000
 1.9063083472e+000	 2.2513303812e+000	-1.4107817840e+000
 1.8829387782e+000	 2.2709120541e+000	-1.4342705442e+000
 1.8593794729e+000	 2.2902419033e+000	-1.4824914708e+000
 2.1036426740e+000	 2.1036426740e+000	-1.1623924252e+000
 2.0817465379e+000	 2.1253132362e+000	-1.2055914698e+000
 2.0596283675e+000	 2.1467547572e+000	-1.2387651654e+000
 2.0372917733e+000	 2.1679638444e+000	-1.2629280766e+000
 2.0147404344e+000	 2.1889371809e+000	-1.2791160778e+000
 1.9919780964e+000	 2.2096715284e+000	-1.2883835604e+000
 1.9690085699e+000	 2.2301637275e+000	-1.2918005953e+000
 1.9458357276e+000	 2.2504107005e+000	-1.2904500622e+000
 1.9224635027e+000	 2.2704094522e+000	-1.2854247503e+000
 1.8988958865e+000	 2.2901570715e+000	-1.2778244394e+000
 1.8751369261e+000	 2.3096507330e+000	-1.2687529703e+000
 2.1213203436e+000	 2.1213203435e+000	-1.1831032611e+000
 2.0992402062e+000	 2.1431730113e+000	-1.2140004680e+000
 2.0769361689e+000	 2.1647947132e+000	-1.2323491372e+000
 2.0544118722e+000	 2.1861820279e+000	-1.2390953055e+000
 2.0316710262e+000	 2.2073316110e+000	-1.2352093834e+000
 2.0087174082e+000	 2.2282401967e+000	-1.2216833873e+000
 1.9855548604e+000	 2.2489045992e+000	-1.1995281258e+000
 1.9621872884e+000	 2.2693217148e+000	-1.1697703443e+000
 1.9386186582e+000	 2.2894885232e+000	-1.1334498391e+000
 1.9148529948e+000	 2.3094020889e+000	-1.0916165462e+000
 1.8908943792e+000	 2.3290595627e+000	-1.0453276147e+000
 1.7333198476e+000	 2.1349712658e+000	-1.4391033456e+000
 1.7111847011e+000	 2.1527533344e+000	-1.3837002936e+000
 1.6888803104e+000	 2.1702956705e+000	-1.3327621549e+000
 1.6664105584e+000	 2.1875959066e+000	-1.2842748730e+000
 1.6437793714e+000	 2.2046517589e+000	-1.2361942107e+000
 1.6209907162e+000	 2.2214610278e+000	-1.1864496156e+000
 1.5980485981e+000	 2.2380215991e+000	-1.1329481655e+000
 1.5749570586e+000	 2.2543314449e+000	-1.0735785819e+000
 1.5517201731e+000	 2.2703886241e+000	-1.0062153026e+000
 1.5283420488e+000	 2.2861912829e+000	-9.2872260148e-001
 1.5048268218e+000	 2.3017376559e+000	-8.3895874643e-001
 1.7490773008e+000	 2.1543800955e+000	-1.6084091806e+000
 1.7267409257e+000	 2.1723238192e+000	-1.5128220661e+000
 1.7042337677e+000	 2.1900256311e+000	-1.4263242854e+000
 1.6815597453e+000	 2.2074831422e+000	-1.3470453918e+000
 1.6587228203e+000	 2.2246940476e+000	-1.2730781521e+000
 1.6357269954e+000	 2.2416561281e+000	-1.2024823419e+000
 1.6125763126e+000	 2.2583672500e+000	-1.1332886314e+000
 1.5892748500e+000	 2.2748253672e+000	-1.0635025516e+000
 1.5658267202e+000	 2.2910285207e+000	-9.9110852908e-001
 1.5422360674e+000	 2.3069748400e+000	-9.1407398003e-001
 1.5185070657e+000	 2.3226625436e+000	-8.3035345245e-001
 1.7648347539e+000	 2.1737889252e+000	-1.7322491876e+000
 1.7422971502e+000	 2.1918943041e+000	-1.6027631273e+000
 1.7195872251e+000	 2.2097555918e+000	-1.4869567739e+000
 1.6967089322e+000	 2.2273703777e+000	-1.3830994933e+000
 1.6736662691e+000	 2.2447363364e+000	-1.2894172599e+000
 1.6504632747e+000	 2.2618512283e+000	-1.2040963868e+000
 1.6271040271e+000	 2.2787129009e+000	-1.1252873562e+000
 1.6035926415e+000	 2.2953192894e+000	-1.0511087421e+000
 1.5799332672e+000	 2.3116684172e+000	-9.7965121228e-001
 1.5561300860e+000	 2.3277583971e+000	-9.0898160086e-001
 1.5321873095e+000	 2.3435874314e+000	-8.3714703879e-001
 1.7805922071e+000	 2.1931977549e+000	-1.8099815652e+000
 1.7578533748e+000	 2.2114647889e+000	-1.6527441957e+000
 1.7349406825e+000	 2.2294855524e+000	-1.5137456001e+000
 1.7118581191e+000	 2.2472576132e+000	-1.3913912108e+000
 1.6886097179e+000	 2.2647786251e+000	-1.2840364636e+000
 1.6651995539e+000	 2.2820463286e+000	-1.1899904653e+000
 1.6416317417e+000	 2.2990585519e+000	-1.1075197747e+000
 1.6179104329e+000	 2.3158132116e+000	-1.0348522850e+000
 1.5940398142e+000	 2.3323083138e+000	-9.7018119800e-001
 1.5700241047e+000	 2.3485419542e+000	-9.1166907901e-001
 1.5458675533e+000	 2.3645123192e+000	-8.5745198045e-001
 1.7963496603e+000	 2.2126065846e+000	-1.8409338367e+000
 1.7734095994e+000	 2.2310352738e+000	-1.6619605733e+000
 1.7502941398e+000	 2.2492155131e+000	-1.5057565151e+000
 1.7270073060e+000	 2.2671448487e+000	-1.3708594651e+000
 1.7035531668e+000	 2.2848209138e+000	-1.2557506208e+000
 1.6799358332e+000	 2.3022414288e+000	-1.1588581845e+000
 1.6561594562e+000	 2.3194042028e+000	-1.0785610983e+000
 1.6322282244e+000	 2.3363071339e+000	-1.0131928917e+000
 1.6081463613e+000	 2.3529482104e+000	-9.6104563128e-001
 1.5839181233e+000	 2.3693255114e+000	-9.2037396287e-001
 1.5595477972e+000	 2.3854372070e+000	-8.8939923233e-001
 1.8121071134e+000	 2.2320154143e+000	-1.8244041835e+000
 1.7889658239e+000	 2.2506057587e+000	-1.6295832498e+000
 1.7656475972e+000	 2.2689454737e+000	-1.4620359209e+000
 1.7421564929e+000	 2.2870320842e+000	-1.3204287213e+000
 1.7184966156e+000	 2.3048632025e+000	-1.2033649553e+000
 1.6946721124e+000	 2.3224365291e+000	-1.1093882655e+000
 1.6706871707e+000	 2.3397498537e+000	-1.0369863248e+000
 1.6465460158e+000	 2.3568010561e+000	-9.8459465411e-001
 1.6222529083e+000	 2.3735881070e+000	-9.5060055215e-001
 1.5978121419e+000	 2.3901090685e+000	-9.3334712832e-001
 1.5732280410e+000	 2.4063620948e+000	-9.3113742578e-001
 1.8278645666e+000	 2.2514242440e+000	-1.7596627098e+000
 1.8045220485e+000	 2.2701762435e+000	-1.5547599512e+000
 1.7810010546e+000	 2.2886754343e+000	-1.3816117047e+000
 1.7573056798e+000	 2.3069193198e+000	-1.2390096117e+000
 1.7334400644e+000	 2.3249054912e+000	-1.1256754723e+000
 1.7094083916e+000	 2.3426316293e+000	-1.0402647541e+000
 1.6852148853e+000	 2.3600955046e+000	-9.8137024739e-001
 1.6608638072e+000	 2.3772949783e+000	-9.4752585604e-001
 1.6363594553e+000	 2.3942280036e+000	-9.3721051219e-001
 1.6117061606e+000	 2.4108926256e+000	-9.4885220435e-001
 1.5869082848e+000	 2.4272869826e+000	-9.8083210667e-001
 1.8436220197e+000	 2.2708330737e+000	-1.6459526427e+000
 1.8200782730e+000	 2.2897467284e+000	-1.4366161336e+000
 1.7963545119e+000	 2.3084053950e+000	-1.2634940294e+000
 1.7724548667e+000	 2.3268065553e+000	-1.1254995274e+000
 1.7483835133e+000	 2.3449477800e+000	-1.0214693523e+000
 1.7241446709e+000	 2.3628267296e+000	-9.5016722082e-001
 1.6997425998e+000	 2.3804411555e+000	-9.1028746360e-001
 1.6751815987e+000	 2.3977889005e+000	-9.0045879378e-001
 1.6504660024e+000	 2.4148679002e+000	-9.1924821077e-001
 1.6256001792e+000	 2.4316761827e+000	-9.6516502800e-001
 1.6005885287e+000	 2.4482118703e+000	-1.0366650126e+000
 1.8593794729e+000	 2.2902419033e+000	-1.4824914708e+000
 1.8356344976e+000	 2.3093172132e+000	-1.2742559271e+000
 1.8117079693e+000	 2.3281353556e+000	-1.1066760856e+000
 1.7876040536e+000	 2.3466937908e+000	-9.7878317906e-001
 1.7633269621e+000	 2.3649900687e+000	-8.8952532505e-001
 1.7388809501e+000	 2.3830218298e+000	-8.3777095028e-001
 1.7142703143e+000	 2.4007868064e+000	-8.2231238351e-001
 1.6894993901e+000	 2.4182828228e+000	-8.4186960626e-001
 1.6645725494e+000	 2.4355077967e+000	-8.9509414985e-001
 1.6394941978e+000	 2.4524597398e+000	-9.8057312710e-001
 1.6142687725e+000	 2.4691367581e+000	-1.0968333867e+000
 1.8751369261e+000	 2.3096507330e+000	-1.2687529703e+000
 1.8511907221e+000	 2.3288876981e+000	-1.0667630316e+000
 1.8270614267e+000	 2.3478653163e+000	-9.1013480391e-001
 1.8027532405e+000	 2.3665810263e+000	-7.9773312971e-001
 1.7782704109e+000	 2.3850323574e+000	-7.2861402464e-001
 1.7536172294e+000	 2.4032169301e+000	-7.0174712133e-001
 1.7287980288e+000	 2.4211324573e+000	-7.1601923759e-001
 1.7038171816e+000	 2.4387767450e+000	-7.7023811353e-001
 1.6786790964e+000	 2.4561476933e+000	-8.6313630609e-001
 1.6533882164e+000	 2.4732432969e+000	-9.9337522903e-001
 1.6279490163e+000	 2.4900616459e+000	-1.1595493263e+000
 1.8908943792e+000	 2.3290595627e+000	-1.0453276147e+000
 1.8667469467e+000	 2.3484581830e+000	-8.1320156834e-001
 1.8424148840e+000	 2.3675952769e+000	-6.7283153291e-001
 1.8179024274e+000	 2.3864682618e+000	-5.8121030102e-001
 1.7932138597e+000	 2.4050746461e+000	-5.3749832683e-001
 1.7683535086e+000	 2.4234120303e+000	-5.4076297817e-001
 1.7433257434e+000	 2.4414781082e+000	-5.8998208424e-001
 1.7181349730e+000	 2.4592706672e+000	-6.8404766342e-001
 1.6927856434e+000	 2.4767875899e+000	-8.2176981945e-001
 1.6672822350e+000	 2.4940268541e+000	-1.0018807941e+000
 1.6416292602e+000	 2.5109865337e+000	-1.0282595362e+000
 1.5048268218e+000	 2.3017376559e+000	-8.3895874643e-001
 1.4811786555e+000	 2.3170260660e+000	-7.3752824079e-001
 1.4574017375e+000	 2.3320549255e+000	-6.5585395896e-001
 1.4335002780e+000	 2.3468227357e+000	-5.9248004712e-001
 1.4094785070e+000	 2.3613280878e+000	-5.4591941451e-001
 1.3853406719e+000	 2.3755696628e+000	-5.1465757837e-001
 1.3610910354e+000	 2.3895462317e+000	-4.9715654092e-001
 1.3367338731e+000	 2.4032566556e+000	-4.9185868800e-001
 1.3122734711e+000	 2.4166998856e+000	-4.9719069869e-001
 1.2877141236e+000	 2.4298749630e+000	-5.1156745561e-001
 1.2630601309e+000	 2.4427810188e+000	-5.3339594551e-001
 1.5185070657e+000	 2.3226625436e+000	-8.3035345245e-001
 1.4946439160e+000	 2.3380899394e+000	-7.5846051952e-001
 1.4706508442e+000	 2.3532554248e+000	-7.0439408347e-001
 1.4465320987e+000	 2.3681574879e+000	-6.6660647838e-001
 1.4222919480e+000	 2.3827947068e+000	-6.4352031161e-001
 1.3979346780e+000	 2.3971657507e+000	-6.3353244712e-001
 1.3734645903e+000	 2.4112693793e+000	-6.3501801843e-001
 1.3488859992e+000	 2.4251044434e+000	-6.4633446033e-001
 1.3242032299e+000	 2.4386698846e+000	-6.6582554863e-001
 1.2994206156e+000	 2.4519647354e+000	-6.9182543718e-001
 1.2745424957e+000	 2.4649881190e+000	-7.2266268155e-001
 1.5321873095e+000	 2.3435874314e+000	-8.3714703879e-001
 1.5081091765e+000	 2.3591538127e+000	-7.9476540670e-001
 1.4838999509e+000	 2.3744559242e+000	-7.6835134047e-001
 1.4595639195e+000	 2.3894922400e+000	-7.5626395814e-001
 1.4351053889e+000	 2.4042613258e+000	-7.5683410250e-001
 1.4105286841e+000	 2.4187618385e+000	-7.6836846568e-001
 1.3858381451e+000	 2.4329925268e+000	-7.8915374113e-001
 1.3610381253e+000	 2.4469522311e+000	-8.1746079154e-001
 1.3361329887e+000	 2.4606398835e+000	-8.5154882181e-001
 1.3111271077e+000	 2.4740545078e+000	-8.8966954596e-001
 1.2860248606e+000	 2.4871952191e+000	-9.3007133712e-001
 1.5458675533e+000	 2.3645123192e+000	-8.5745198045e-001
 1.5215744370e+000	 2.3802176860e+000	-8.4460137258e-001
 1.4971490576e+000	 2.3956564235e+000	-8.4592957391e-001
 1.4725957402e+000	 2.4108269922e+000	-8.5970105296e-001
 1.4479188299e+000	 2.4257279448e+000	-8.8415339599e-001
 1.4231226902e+000	 2.4403579264e+000	-9.1750157599e-001
 1.3982117000e+000	 2.4547156744e+000	-9.5794224660e-001
 1.3731902515e+000	 2.4688000189e+000	-1.0036580495e+000
 1.3480627476e+000	 2.4826098825e+000	-1.0528219235e+000
 1.3228335997e+000	 2.4961442802e+000	-1.1036014051e+000
 1.2975072254e+000	 2.5094023193e+000	-1.0510546808e+000
 1.5595477972e+000	 2.3854372070e+000	-8.8939923233e-001
 1.5350396975e+000	 2.4012815594e+000	-9.0614442064e-001
 1.5103981643e+000	 2.4168569228e+000	-9.3534925564e-001
 1.4856275609e+000	 2.4321617443e+000	-9.7518209355e-001
 1.4607322709e+000	 2.4471945638e+000	-1.0237857432e+000
 1.4357166963e+000	 2.4619540142e+000	-1.0792818826e+000
 1.4105852549e+000	 2.4764388219e+000	-1.1397754976e+000
 1.3853423776e+000	 2.4906478067e+000	-1.2033593321e+000
 1.3599925064e+000	 2.5045798815e+000	-1.2066981310e+000
 1.3345400917e+000	 2.5182340526e+000	-1.1009796849e+000
 1.3089895902e+000	 2.5316094195e+000	-1.0182895342e+000
 1.5732280410e+000	 2.4063620948e+000	-9.3113742578e-001
 1.5485049580e+000	 2.4223454327e+000	-9.7758732531e-001
 1.5236472710e+000	 2.4380574221e+000	-1.0348467625e+000
 1.4986593816e+000	 2.4534964965e+000	-1.1009864894e+000
 1.4735457119e+000	 2.4686611827e+000	-1.1740529880e+000
 1.4483107024e+000	 2.4835501020e+000	-1.2520730369e+000
 1.4229588097e+000	 2.4981619695e+000	-1.3330582983e+000
 1.3974945037e+000	 2.5124955945e+000	-1.2304950921e+000
 1.3719222652e+000	 2.5265498804e+000	-1.1199478488e+000
 1.3462465838e+000	 2.5403238250e+000	-1.0300909545e+000
 1.3204719550e+000	 2.5538165197e+000	-9.6145163393e-001
 1.5869082848e+000	 2.4272869826e+000	-9.8083210667e-001
 1.5619702185e+000	 2.4434093060e+000	-1.0571389090e+000
 1.5368963777e+000	 2.4592579215e+000	-1.1426736906e+000
 1.5116912023e+000	 2.4748312486e+000	-1.2354080789e+000
 1.4863591528e+000	 2.4901278017e+000	-1.3332906508e+000
 1.4609047085e+000	 2.5051461899e+000	-1.3503834679e+000
 1.4353323646e+000	 2.5198851171e+000	-1.2202231346e+000
 1.4096466298e+000	 2.5343433823e+000	-1.1076822249e+000
 1.3838520240e+000	 2.5485198794e+000	-1.0133835650e+000
 1.3579530758e+000	 2.5624135974e+000	-9.3793300827e-001
 1.3319543199e+000	 2.5760236198e+000	-8.8191540391e-001
 1.6005885287e+000	 2.4482118703e+000	-1.0366650126e+000
 1.5754354790e+000	 2.4644731793e+000	-1.1430233565e+000
 1.5501454844e+000	 2.4804584208e+000	-1.2570962053e+000
 1.5247230230e+000	 2.4961660007e+000	-1.3767545126e+000
 1.4991725938e+000	 2.5115944207e+000	-1.3020711660e+000
 1.4734987146e+000	 2.5267422777e+000	-1.1754780464e+000
 1.4477059195e+000	 2.5416082646e+000	-1.0638824355e+000
 1.4217987559e+000	 2.5561911700e+000	-9.6797277811e-001
 1.3957817829e+000	 2.5704898784e+000	-8.8842727485e-001
 1.3696595678e+000	 2.5845033698e+000	-8.2590962653e-001
 1.3434366847e+000	 2.5982307200e+000	-7.8106481989e-001
 1.6142687725e+000	 2.4691367581e+000	-1.0968333867e+000
 1.5889007395e+000	 2.4855370527e+000	-1.2334795638e+000
 1.5633945911e+000	 2.5016589201e+000	-1.3470896122e+000
 1.5377548437e+000	 2.5175007529e+000	-1.2156800091e+000
 1.5119860348e+000	 2.5330610397e+000	-1.0958021302e+000
 1.4860927207e+000	 2.5483383656e+000	-9.8820146240e-001
 1.4600794743e+000	 2.5633314122e+000	-8.9362485151e-001
 1.4339508820e+000	 2.5780389578e+000	-8.1281602171e-001
 1.4077115417e+000	 2.5924598773e+000	-7.4651110754e-001
 1.3813660599e+000	 2.6065931422e+000	-6.9543421196e-001
 1.3549190495e+000	 2.6204378202e+000	-6.6029300457e-001
 1.6279490163e+000	 2.4900616459e+000	-1.1595493263e+000
 1.6023660000e+000	 2.5066009260e+000	-1.2091398294e+000
 1.5766436978e+000	 2.5228594194e+000	-1.0905642660e+000
 1.5507866644e+000	 2.5388355050e+000	-9.8066259849e-001
 1.5247994757e+000	 2.5545276587e+000	-8.8022327019e-001
 1.4986867268e+000	 2.5699344534e+000	-7.9004376870e-001
 1.4724530292e+000	 2.5850545598e+000	-7.1092596689e-001
 1.4461030082e+000	 2.5998867456e+000	-6.4367145809e-001
 1.4196413005e+000	 2.6144298763e+000	-5.8907690053e-001
 1.3930725519e+000	 2.6286829145e+000	-5.4792938544e-001
 1.3664014143e+000	 2.6426449203e+000	-5.2100184329e-001
 1.6416292602e+000	 2.5109865337e+000	-1.0282595362e+000
 1.6158312605e+000	 2.5276647993e+000	-9.2597789723e-001
 1.5898928045e+000	 2.5440599187e+000	-8.2943091697e-001
 1.5638184851e+000	 2.5601702572e+000	-7.3944133432e-001
 1.5376129167e+000	 2.5759942776e+000	-6.5684897411e-001
 1.5112807329e+000	 2.5915305413e+000	-5.8250592746e-001
 1.4848265841e+000	 2.6067777073e+000	-5.1727170751e-001
 1.4582551343e+000	 2.6217345334e+000	-4.6200839580e-001
 1.4315710593e+000	 2.6363998752e+000	-4.1757579487e-001
 1.4047790439e+000	 2.6507726869e+000	-3.8482660198e-001
 1.3778837792e+000	 2.6648520205e+000	-3.6460161894e-001
 1.2630601309e+000	 2.4427810188e+000	-5.3339594551e-001
 1.2383157968e+000	 2.4554172736e+000	-5.6353951444e-001
 1.2134854263e+000	 2.4677830375e+000	-5.8300241062e-001
 1.1885733238e+000	 2.4798777095e+000	-5.9213201144e-001
 1.1635837903e+000	 2.4917007772e+000	-5.9019670073e-001
 1.1385211215e+000	 2.5032518163e+000	-5.6831635448e-001
 1.1133896056e+000	 2.5145304902e+000	-5.3107909848e-001
 1.0881935211e+000	 2.5255365491e+000	-5.0857264840e-001
 1.0629371346e+000	 2.5362698295e+000	-5.0034901482e-001
 1.0376246991e+000	 2.5467302535e+000	-5.0595647751e-001
 1.0122604513e+000	 2.5569178279e+000	-5.2494034191e-001
 1.2745424957e+000	 2.4649881190e+000	-7.2266268155e-001
 1.2495732131e+000	 2.4777392488e+000	-7.7195293457e-001
 1.2245171120e+000	 2.4902174287e+000	-7.9248146609e-001
 1.1993785358e+000	 2.5024220523e+000	-7.8547857023e-001
 1.1741618247e+000	 2.5143526024e+000	-7.2494272478e-001
 1.1488713135e+000	 2.5260086510e+000	-6.7815895143e-001
 1.1235113293e+000	 2.5373898583e+000	-6.4459690879e-001
 1.0980861894e+000	 2.5484959723e+000	-6.2372406185e-001
 1.0726001995e+000	 2.5593268279e+000	-6.1500653993e-001
 1.0470576509e+000	 2.5698823467e+000	-6.1790996905e-001
 1.0214628190e+000	 2.5801625355e+000	-6.3190027764e-001
 1.2860248606e+000	 2.4871952191e+000	-9.3007133712e-001
 1.2608306294e+000	 2.5000612240e+000	-9.9698748563e-001
 1.2355487977e+000	 2.5126518200e+000	-9.2899615975e-001
 1.2101837479e+000	 2.5249663951e+000	-8.6110878603e-001
 1.1847398592e+000	 2.5370044277e+000	-8.0577779827e-001
 1.1592215055e+000	 2.5487654857e+000	-7.6238129436e-001
 1.1336330529e+000	 2.5602492264e+000	-7.3029731959e-001
 1.1079788578e+000	 2.5714553954e+000	-7.0890481425e-001
 1.0822632644e+000	 2.5823838264e+000	-6.9758453145e-001
 1.0564906027e+000	 2.5930344399e+000	-6.9571992404e-001
 1.0306651868e+000	 2.6034072430e+000	-7.0269799948e-001
 1.2975072254e+000	 2.5094023193e+000	-1.0510546808e+000
 1.2720880458e+000	 2.5223831993e+000	-1.0136194563e+000
 1.2465804834e+000	 2.5350862112e+000	-9.7877819985e-001
 1.2209889599e+000	 2.5475107379e+000	-9.1556478676e-001
 1.1953178937e+000	 2.5596562529e+000	-8.6322580699e-001
 1.1695716975e+000	 2.5715223204e+000	-8.2104527178e-001
 1.1437547766e+000	 2.5831085945e+000	-7.8831013994e-001
 1.1178715262e+000	 2.5944148186e+000	-7.6431133059e-001
 1.0919263292e+000	 2.6054408248e+000	-7.4834470076e-001
 1.0659235545e+000	 2.6161865331e+000	-7.3971198691e-001
 1.0398675545e+000	 2.6266519505e+000	-7.3772170894e-001
 1.3089895902e+000	 2.5316094195e+000	-1.0182895342e+000
 1.2833454621e+000	 2.5447051745e+000	-1.0014340589e+000
 1.2576121691e+000	 2.5575206025e+000	-9.9188721689e-001
 1.2317941719e+000	 2.5700550807e+000	-9.4877229606e-001
 1.2058959281e+000	 2.5823080782e+000	-8.9728053098e-001
 1.1799218895e+000	 2.5942791551e+000	-8.5421150887e-001
 1.1538765003e+000	 2.6059679626e+000	-8.1876160268e-001
 1.1277641945e+000	 2.6173742418e+000	-7.9013418871e-001
 1.1015893941e+000	 2.6284978233e+000	-7.6754068402e-001
 1.0753565063e+000	 2.6393386263e+000	-7.5020154242e-001
 1.0490699223e+000	 2.6498966580e+000	-7.3734720770e-001
 1.3204719550e+000	 2.5538165197e+000	-9.6145163393e-001
 1.2946028784e+000	 2.5670271497e+000	-9.6182803748e-001
 1.2686438548e+000	 2.5799549938e+000	-9.6826980701e-001
 1.2425993840e+000	 2.5925994236e+000	-9.6066037127e-001
 1.2164739626e+000	 2.6049599034e+000	-9.0793679364e-001
 1.1902720815e+000	 2.6170359898e+000	-8.6193942239e-001
 1.1639982240e+000	 2.6288273307e+000	-8.2177451986e-001
 1.1376568629e+000	 2.6403336650e+000	-7.8655837354e-001
 1.1112524589e+000	 2.6515548217e+000	-7.5541839328e-001
 1.0847894581e+000	 2.6624907195e+000	-7.2749416170e-001
 1.0582722900e+000	 2.6731413656e+000	-7.0193843668e-001
 1.3319543199e+000	 2.5760236198e+000	-8.8191540391e-001
 1.3058602948e+000	 2.5893491249e+000	-8.9620581664e-001
 1.2796755405e+000	 2.6023893850e+000	-9.1534415816e-001
 1.2534045960e+000	 2.6151437664e+000	-9.3997921950e-001
 1.2270519970e+000	 2.6276117287e+000	-8.9519041674e-001
 1.2006222736e+000	 2.6397928245e+000	-8.4428727275e-001
 1.1741199477e+000	 2.6516866988e+000	-7.9746843020e-001
 1.1475495313e+000	 2.6632930881e+000	-7.5376351817e-001
 1.1209155238e+000	 2.6746118202e+000	-7.1221634942e-001
 1.0942224100e+000	 2.6856428127e+000	-6.7188602528e-001
 1.0674746577e+000	 2.6963860731e+000	-6.3184798732e-001
 1.3434366847e+000	 2.5982307200e+000	-7.8106481989e-001
 1.3171177111e+000	 2.6116711001e+000	-8.0597917356e-001
 1.2907072262e+000	 2.6248237763e+000	-8.3454845980e-001
 1.2642098080e+000	 2.6376881092e+000	-8.6741975388e-001
 1.2376300315e+000	 2.6502635539e+000	-8.5903817773e-001
 1.2109724656e+000	 2.6625496592e+000	-8.0131221347e-001
 1.1842416714e+000	 2.6745460669e+000	-7.4595973900e-001
 1.1574421997e+000	 2.6862525113e+000	-6.9192413255e-001
 1.1305785886e+000	 2.6976688186e+000	-6.3816599802e-001
 1.1036553618e+000	 2.7087949060e+000	-5.8366432439e-001
 1.0766770255e+000	 2.7196307806e+000	-5.2741758659e-001
 1.3549190495e+000	 2.6204378202e+000	-6.6029300457e-001
 1.3283751274e+000	 2.6339930753e+000	-6.9256692636e-001
 1.3017389119e+000	 2.6472581675e+000	-7.2732586784e-001
 1.2750150201e+000	 2.6602324520e+000	-7.6521854705e-001
 1.2482080659e+000	 2.6729153792e+000	-7.9947776929e-001
 1.2213226576e+000	 2.6853064939e+000	-7.3307033803e-001
 1.1943633951e+000	 2.6974054350e+000	-6.6736185089e-001
 1.1673348680e+000	 2.7092119345e+000	-6.0120982059e-001
 1.1402416535e+000	 2.7207258171e+000	-5.3349200916e-001
 1.1130883136e+000	 2.7319469992e+000	-4.6310764186e-001
 1.0858793932e+000	 2.7428754882e+000	-3.8897855735e-001
 1.3664014143e+000	 2.6426449203e+000	-5.2100184329e-001
 1.3396325438e+000	 2.6563150506e+000	-5.5739463826e-001
 1.3127705976e+000	 2.6696925588e+000	-5.9512429596e-001
 1.2858202321e+000	 2.6827767948e+000	-6.3484454889e-001
 1.2587861004e+000	 2.6955672044e+000	-6.7719134752e-001
 1.2316728496e+000	 2.7080633286e+000	-6.3961672444e-001
 1.2044851188e+000	 2.7202648031e+000	-5.6178529591e-001
 1.1772275364e+000	 2.7321713577e+000	-4.8178548627e-001
 1.1499047184e+000	 2.7437828155e+000	-3.9841256207e-001
 1.1225212654e+000	 2.7550990924e+000	-3.1048631382e-001
 1.0950817609e+000	 2.7661201957e+000	-2.1685225548e-001
 1.3778837792e+000	 2.6648520205e+000	-3.6460161894e-001
 1.3508899601e+000	 2.6786370258e+000	-4.0189433654e-001
 1.3238022833e+000	 2.6921269500e+000	-4.3939621738e-001
 1.2966254442e+000	 2.7053211376e+000	-4.7776939396e-001
 1.2693641349e+000	 2.7182190297e+000	-5.1766005118e-001
 1.2420230416e+000	 2.7308201633e+000	-5.2100547756e-001
 1.2146068424e+000	 2.7431241712e+000	-4.2933784929e-001
 1.1871202048e+000	 2.7551307808e+000	-3.3381152949e-001
 1.1595677832e+000	 2.7668398140e+000	-2.3313961562e-001
 1.1319542172e+000	 2.7782511856e+000	-1.2606277331e-001
 1.1042841287e+000	 2.7893649032e+000	-1.1350485200e-002
 1.0122604513e+000	 2.5569178279e+000	-5.2494034191e-001
 9.8684861017e-001	 2.5668326437e+000	-5.7515627969e-001
 9.6139337463e-001	 2.5764748746e+000	-6.1234901984e-001
 9.3589892178e-001	 2.5858447765e+000	-6.3586196211e-001
 9.1036940492e-001	 2.5949426866e+000	-6.4506476271e-001
 8.8480895173e-001	 2.6037690218e+000	-6.3935376429e-001
 8.5922166244e-001	 2.6123242783e+000	-6.1815237034e-001
 8.3361160807e-001	 2.6206090298e+000	-5.8091136424e-001
 8.0798282872e-001	 2.6286239268e+000	-5.2710917379e-001
 7.8233933189e-001	 2.6363696952e+000	-4.5625208199e-001
 7.5668509084e-001	 2.6438471350e+000	-3.6787438476e-001
 1.0214628190e+000	 2.5801625355e+000	-6.3190027764e-001
 9.9581996117e-001	 2.5901674859e+000	-6.6689792076e-001
 9.7013331440e-001	 2.5998973734e+000	-6.8916904675e-001
 9.4440709380e-001	 2.6093524563e+000	-6.9814379561e-001
 9.1864549042e-001	 2.6185330746e+000	-6.9327754283e-001
 8.9285266947e-001	 2.6274396493e+000	-6.7405126065e-001
 8.6703276845e-001	 2.6360726808e+000	-6.3997182569e-001
 8.4118989541e-001	 2.6444327482e+000	-5.9057227342e-001
 8.1532812716e-001	 2.6525205080e+000	-5.2541200024e-001
 7.8945150763e-001	 2.6603366925e+000	-4.4407691395e-001
 7.6356404620e-001	 2.6678821090e+000	-3.4617953361e-001
 1.0306651868e+000	 2.6034072430e+000	-7.0269799948e-001
 1.0047913122e+000	 2.6135023281e+000	-7.2590071655e-001
 9.7887325417e-001	 2.6233198723e+000	-7.3666090234e-001
 9.5291526581e-001	 2.6328601361e+000	-7.3449381238e-001
 9.2692157592e-001	 2.6421234627e+000	-7.1893894922e-001
 9.0089638721e-001	 2.6511102768e+000	-6.8956035594e-001
 8.7484387447e-001	 2.6598210833e+000	-6.4594685806e-001
 8.4876818275e-001	 2.6682564667e+000	-5.8771225416e-001
 8.2267342560e-001	 2.6764170891e+000	-5.1449545642e-001
 7.9656368337e-001	 2.6843036897e+000	-4.2596058152e-001
 7.7044300157e-001	 2.6919170830e+000	-3.2179699329e-001
 1.0398675545e+000	 2.6266519505e+000	-7.3772170894e-001
 1.0137626632e+000	 2.6368371703e+000	-7.5247076382e-001
 9.8761319394e-001	 2.6467423712e+000	-7.5504872333e-001
 9.6142343782e-001	 2.6563678159e+000	-7.4505436775e-001
 9.3519766141e-001	 2.6657138508e+000	-7.2210976809e-001
 9.0894010495e-001	 2.6747809043e+000	-6.8586051282e-001
 8.8265498049e-001	 2.6835694859e+000	-6.3597588481e-001
 8.5634647009e-001	 2.6920801852e+000	-5.7214898922e-001
 8.3001872403e-001	 2.7003136703e+000	-4.9409683302e-001
 8.0367585911e-001	 2.7082706869e+000	-4.0156035728e-001
 7.7732195694e-001	 2.7159520569e+000	-2.9430442308e-001
 1.0490699223e+000	 2.6498966580e+000	-7.3734720770e-001
 1.0227340142e+000	 2.6601720126e+000	-7.4690469116e-001
 9.9635313370e-001	 2.6701648700e+000	-7.4455010069e-001
 9.6993160984e-001	 2.6798754957e+000	-7.2996418336e-001
 9.4347374691e-001	 2.6893042388e+000	-7.0285005242e-001
 9.1698382269e-001	 2.6984515317e+000	-6.6293334821e-001
 8.9046608651e-001	 2.7073178884e+000	-6.0996235113e-001
 8.6392475744e-001	 2.7159039036e+000	-5.4370804748e-001
 8.3736402247e-001	 2.7242102514e+000	-4.6396414885e-001
 8.1078803485e-001	 2.7322376842e+000	-3.7054706638e-001
 7.8420091230e-001	 2.7399870309e+000	-2.6329584079e-001
 1.0582722900e+000	 2.6731413656e+000	-7.0193843668e-001
 1.0317053652e+000	 2.6835068548e+000	-7.0949007059e-001
 1.0050930735e+000	 2.6935873689e+000	-7.0537636425e-001
 9.7843978185e-001	 2.7033831755e+000	-6.8935850515e-001
 9.5174983241e-001	 2.7128946269e+000	-6.6121915377e-001
 9.2502754043e-001	 2.7221221592e+000	-6.2076253968e-001
 8.9827719253e-001	 2.7310662909e+000	-5.6781451144e-001
 8.7150304478e-001	 2.7397276221e+000	-5.0222254110e-001
 8.4470932091e-001	 2.7481068326e+000	-4.2385568435e-001
 8.1790021059e-001	 2.7562046814e+000	-3.3260449736e-001
 7.9107986767e-001	 2.7640220048e+000	-2.2838091148e-001
 1.0674746577e+000	 2.6963860731e+000	-6.3184798732e-001
 1.0406767162e+000	 2.7068416970e+000	-6.4050580792e-001
 1.0138330132e+000	 2.7170098677e+000	-6.3773285260e-001
 9.8694795386e-001	 2.7268908553e+000	-6.2336925320e-001
 9.6002591790e-001	 2.7364850150e+000	-5.9727575255e-001
 9.3307125817e-001	 2.7457927867e+000	-5.5933373661e-001
 9.0608829855e-001	 2.7548146935e+000	-5.0944522205e-001
 8.7908133212e-001	 2.7635513405e+000	-4.4753280035e-001
 8.5205461935e-001	 2.7720034137e+000	-3.7353953933e-001
 8.2501238633e-001	 2.7801716786e+000	-2.8742884331e-001
 7.9795882304e-001	 2.7880569788e+000	-1.8918427310e-001
 1.0766770255e+000	 2.7196307806e+000	-5.2741758659e-001
 1.0496480672e+000	 2.7301765392e+000	-5.4022251318e-001
 1.0225729530e+000	 2.7404323666e+000	-5.4181916907e-001
 9.9545612588e-001	 2.7503985350e+000	-5.3212516381e-001
 9.6830200340e-001	 2.7600754030e+000	-5.1107788671e-001
 9.4111497591e-001	 2.7694634141e+000	-4.7863447591e-001
 9.1389940457e-001	 2.7785630960e+000	-4.3477174453e-001
 8.8665961946e-001	 2.7873750590e+000	-3.7948606514e-001
 8.5939991779e-001	 2.7958999949e+000	-3.1279321331e-001
 8.3212456207e-001	 2.8041386758e+000	-2.3472817182e-001
 8.0483777841e-001	 2.8120919527e+000	-1.4534489652e-001
 1.0858793932e+000	 2.7428754882e+000	-3.8897855735e-001
 1.0586194182e+000	 2.7535113814e+000	-4.0890285205e-001
 1.0313128928e+000	 2.7638548655e+000	-4.1782942479e-001
 1.0039642979e+000	 2.7739062148e+000	-4.1575192445e-001
 9.7657808889e-001	 2.7836657911e+000	-4.0268297894e-001
 9.4915869365e-001	 2.7931340416e+000	-3.7865410205e-001
 9.2171051058e-001	 2.8023114985e+000	-3.4371555908e-001
 8.9423790680e-001	 2.8111987774e+000	-2.9793619226e-001
 8.6674521623e-001	 2.8197965760e+000	-2.4140320725e-001
 8.3923673781e-001	 2.8281056731e+000	-1.7422192182e-001
 8.1171673377e-001	 2.8361269267e+000	-9.6515478286e-002
 1.0950817609e+000	 2.7661201957e+000	-2.1685225548e-001
 1.0675907692e+000	 2.7768462236e+000	-2.4680187970e-001
 1.0400528325e+000	 2.7872773643e+000	-2.6595246947e-001
 1.0124724699e+000	 2.7974138946e+000	-2.7437230187e-001
 9.8485417439e-001	 2.8072561791e+000	-2.7214786253e-001
 9.5720241139e-001	 2.8168046691e+000	-2.5938369112e-001
 9.2952161660e-001	 2.8260599011e+000	-2.3620218718e-001
 9.0181619415e-001	 2.8350224959e+000	-2.0274337735e-001
 8.7409051467e-001	 2.8436931572e+000	-1.5916464530e-001
 8.4634891355e-001	 2.8520726703e+000	-1.0564042576e-001
 8.1859568914e-001	 2.8601619006e+000	-4.2361863856e-002
 1.1042841287e+000	 2.7893649032e+000	-1.1350485200e-002
 1.0765621202e+000	 2.8001810658e+000	-5.4167357896e-002
 1.0487927723e+000	 2.8106998632e+000	-8.6372110561e-002
 1.0209806419e+000	 2.8209215744e+000	-1.0810626373e-001
 9.9313025989e-001	 2.8308465672e+000	-1.1952880592e-001
 9.6524612913e-001	 2.8404752965e+000	-1.2081597868e-001
 9.3733272262e-001	 2.8498083036e+000	-1.1216102333e-001
 9.0939448149e-001	 2.8588462143e+000	-9.3773890762e-002
 8.8143581311e-001	 2.8675897383e+000	-6.5880915545e-002
 8.5346108929e-001	 2.8760396675e+000	-2.8724455717e-002
 8.2547464451e-001	 2.8841968746e+000	 1.7437500243e-002
 7.5668509084e-001	 2.6438471350e+000	-3.6787438476e-001
 7.3102404304e-001	 2.6510571191e+000	-3.6052540579e-001
 7.0536008863e-001	 2.6580005917e+000	-3.5271195181e-001
 6.7969708895e-001	 2.6646785674e+000	-3.4420269016e-001
 6.5403886512e-001	 2.6710921293e+000	-3.3477708028e-001
 6.2838919664e-001	 2.6772424279e+000	-3.2422543326e-001
 6.0275182011e-001	 2.6831306796e+000	-3.1367447289e-001
 5.7713042797e-001	 2.6887581649e+000	-3.2107244845e-001
 5.5152866722e-001	 2.6941262274e+000	-3.4423824683e-001
 5.2595013834e-001	 2.6992362720e+000	-3.7997688634e-001
 5.0039839415e-001	 2.7040897632e+000	-4.2539772735e-001
 7.6356404620e-001	 2.6678821090e+000	-3.4617953361e-001
 7.3766971615e-001	 2.6751576384e+000	-3.3836899234e-001
 7.1177245307e-001	 2.6821642335e+000	-3.3097475509e-001
 6.8587615339e-001	 2.6889029180e+000	-3.2370036240e-001
 6.5998467298e-001	 2.6953747850e+000	-3.1626086701e-001
 6.3410182569e-001	 2.7015809954e+000	-3.0838294307e-001
 6.0823138211e-001	 2.7075227766e+000	-2.9981157848e-001
 5.8237706822e-001	 2.7132014209e+000	-3.0397310005e-001
 5.5654256419e-001	 2.7186182841e+000	-3.2048835843e-001
 5.3073150323e-001	 2.7237747836e+000	-3.4594482162e-001
 5.0494747046e-001	 2.7286723974e+000	-3.7724683446e-001
 7.7044300157e-001	 2.6919170830e+000	-3.2179699329e-001
 7.4431538927e-001	 2.6992581576e+000	-3.1221260623e-001
 7.1818481751e-001	 2.7063278752e+000	-3.0391243004e-001
 6.9205521784e-001	 2.7131272686e+000	-2.9653544540e-001
 6.6593048084e-001	 2.7196574407e+000	-2.8973287330e-001
 6.3981445475e-001	 2.7259195630e+000	-2.8316833346e-001
 6.1371094411e-001	 2.7319148737e+000	-2.7708762077e-001
 5.8762370847e-001	 2.7376446770e+000	-2.8025140186e-001
 5.6155646116e-001	 2.7431103407e+000	-2.9220254289e-001
 5.3551286813e-001	 2.7483132951e+000	-3.0930673410e-001
 5.0949654677e-001	 2.7532550316e+000	-3.2825935938e-001
 7.7732195694e-001	 2.7159520569e+000	-2.9430442308e-001
 7.5096106238e-001	 2.7233586769e+000	-2.8167525133e-001
 7.2459718195e-001	 2.7304915169e+000	-2.7118540522e-001
 6.9823428228e-001	 2.7373516192e+000	-2.6240985317e-001
 6.7187628870e-001	 2.7439400964e+000	-2.5493654039e-001
 6.4552708381e-001	 2.7502581305e+000	-2.4836659589e-001
 6.1919050611e-001	 2.7563069708e+000	-2.4353320497e-001
 5.9287034872e-001	 2.7620879330e+000	-2.4807996991e-001
 5.6657035814e-001	 2.7676023973e+000	-2.5769353366e-001
 5.4029423302e-001	 2.7728518067e+000	-2.6851349687e-001
 5.1404562308e-001	 2.7778376658e+000	-2.7702225626e-001
 7.8420091230e-001	 2.7399870309e+000	-2.6329584079e-001
 7.5760673550e-001	 2.7474591962e+000	-2.4639084746e-001
 7.3100954638e-001	 2.7546551587e+000	-2.3246757535e-001
 7.0441334672e-001	 2.7615759698e+000	-2.2103750960e-001
 6.7782209656e-001	 2.7682227522e+000	-2.1162585728e-001
 6.5123971286e-001	 2.7745966980e+000	-2.0377180231e-001
 6.2467006810e-001	 2.7806990679e+000	-1.9718654491e-001
 5.9811698897e-001	 2.7865311891e+000	-2.0563755322e-001
 5.7158425511e-001	 2.7920944539e+000	-2.1527871827e-001
 5.4507559791e-001	 2.7973903183e+000	-2.2201915571e-001
 5.1859469938e-001	 2.8024203000e+000	-2.2212416864e-001
 7.9107986767e-001	 2.7640220048e+000	-2.2838091148e-001
 7.6425240861e-001	 2.7715597154e+000	-2.0600758186e-001
 7.3742191082e-001	 2.7788188004e+000	-1.8744571583e-001
 7.1059241116e-001	 2.7858003204e+000	-1.7214382630e-001
 6.8376790442e-001	 2.7925054079e+000	-1.5956490211e-001
 6.5695234192e-001	 2.7989352655e+000	-1.4918671028e-001
 6.3014963010e-001	 2.8050911650e+000	-1.4050205914e-001
 6.0336362922e-001	 2.8109744451e+000	-1.5110876715e-001
 5.7659815208e-001	 2.8165865105e+000	-1.6327993608e-001
 5.4985696280e-001	 2.8219288298e+000	-1.6828079120e-001
 5.2314377569e-001	 2.8270029342e+000	-1.6215535599e-001
 7.9795882304e-001	 2.7880569788e+000	-1.8918427310e-001
 7.7089808172e-001	 2.7956602347e+000	-1.6018729422e-001
 7.4383427526e-001	 2.8029824422e+000	-1.3581892754e-001
 7.1677147560e-001	 2.8100246711e+000	-1.1546520742e-001
 6.8971371228e-001	 2.8167880636e+000	-9.8527407313e-002
 6.6266497097e-001	 2.8232738331e+000	-8.4422388663e-002
 6.3562919210e-001	 2.8294832621e+000	-7.2582908571e-002
 6.0861026947e-001	 2.8354177012e+000	-8.2683840541e-002
 5.8161204905e-001	 2.8410785671e+000	-1.0002328632e-001
 5.5463832770e-001	 2.8464673414e+000	-1.0575838787e-001
 5.2769285200e-001	 2.8515855684e+000	-9.5707624035e-002
 8.0483777841e-001	 2.8120919527e+000	-1.4534489652e-001
 7.7754375484e-001	 2.8197607539e+000	-1.0860489324e-001
 7.5024663970e-001	 2.8271460839e+000	-7.7298110117e-002
 7.2295054004e-001	 2.8342490217e+000	-5.0748579927e-002
 6.9565952014e-001	 2.8410707193e+000	-2.8296347012e-002
 6.6837760003e-001	 2.8476124006e+000	-9.2978624096e-003
 6.4110875410e-001	 2.8538753591e+000	 6.8736646909e-003
 6.1385690972e-001	 2.8598609572e+000	 1.4416241853e-003
 5.8662594603e-001	 2.8655706237e+000	-2.3838946043e-002
 5.5941969259e-001	 2.8710058529e+000	-3.2914710100e-002
 5.3224192831e-001	 2.8761682026e+000	-2.1374258718e-002
 8.1171673377e-001	 2.8361269267e+000	-9.6515478286e-002
 7.8418942795e-001	 2.8438612732e+000	-5.0947802848e-002
 7.5665900413e-001	 2.8513097256e+000	-1.1605461996e-002
 7.2912960448e-001	 2.8584733723e+000	 2.2249052345e-002
 7.0160532800e-001	 2.8653533750e+000	 5.1336454552e-002
 6.7409022909e-001	 2.8719509681e+000	 7.6360224571e-002
 6.4658831609e-001	 2.8782674562e+000	 9.8006213188e-002
 6.1910354998e-001	 2.8843042132e+000	 1.0306687871e-001
 5.9163984300e-001	 2.8900626803e+000	 6.6939002611e-002
 5.6420105748e-001	 2.8955443645e+000	 5.1784815639e-002
 5.3679100462e-001	 2.9007508368e+000	 6.2250036550e-002
 8.1859568914e-001	 2.8601619006e+000	-4.2361863856e-002
 7.9083510107e-001	 2.8679617925e+000	 1.3084563619e-002
 7.6307136857e-001	 2.8754733674e+000	 6.1525994320e-002
 7.3530866892e-001	 2.8826977229e+000	 1.0376103204e-001
 7.0755113586e-001	 2.8896360307e+000	 1.4057069489e-001
 6.7980285814e-001	 2.8962895356e+000	 1.7271792952e-001
 6.5206787809e-001	 2.9026595533e+000	 2.0094717365e-001
 6.2435019023e-001	 2.9087474693e+000	 2.2398624502e-001
 5.9665373997e-001	 2.9145547369e+000	 1.7397273654e-001
 5.6898242237e-001	 2.9200828761e+000	 1.4987221267e-001
 5.4134008093e-001	 2.9253334710e+000	 1.5656920044e-001
 8.2547464451e-001	 2.8841968746e+000	 1.7437500243e-002
 7.9748077418e-001	 2.8920623117e+000	 8.3781303012e-002
 7.6948373301e-001	 2.8996370091e+000	 1.4235286327e-001
 7.4148773336e-001	 2.9069220735e+000	 1.9401145052e-001
 7.1349694372e-001	 2.9139186865e+000	 2.3959794653e-001
 6.8551548720e-001	 2.9206281031e+000	 2.7993431497e-001
 6.5754744009e-001	 2.9270516504e+000	 3.1582312183e-001
 6.2959683048e-001	 2.9331907253e+000	 3.4804710581e-001
 6.0166763694e-001	 2.9390467935e+000	 2.9892084755e-001
 5.7376378727e-001	 2.9446213876e+000	 2.6287706036e-001
 5.4588915724e-001	 2.9499161052e+000	 2.6298587028e-001
 5.0039839415e-001	 2.7040897632e+000	-4.2539772735e-001
 4.7487693873e-001	 2.7086882237e+000	-3.9219549735e-001
 4.4938922647e-001	 2.7130332330e+000	-3.6214404127e-001
 4.2393866111e-001	 2.7171264254e+000	-3.3316733764e-001
 3.9852859482e-001	 2.7209694888e+000	-3.0349877320e-001
 3.7316232739e-001	 2.7245641628e+000	-2.7167944977e-001
 3.4784310545e-001	 2.7279122372e+000	-2.3655584464e-001
 3.2257412170e-001	 2.7310155503e+000	-1.9727684748e-001
 2.9735851428e-001	 2.7338759873e+000	-1.5329019842e-001
 2.7219936608e-001	 2.7364954787e+000	-1.0433835217e-001
 2.4709970424e-001	 2.7388759987e+000	-5.0453794320e-002
 5.0494747046e-001	 2.7286723974e+000	-3.7724683446e-001
 4.7919400181e-001	 2.7333126621e+000	-3.2609229615e-001
 4.5347458308e-001	 2.7376971715e+000	-2.8420419121e-001
 4.2779264894e-001	 2.7418275747e+000	-2.4921330693e-001
 4.0215158205e-001	 2.7457055751e+000	-2.1906594172e-001
 3.7655471219e-001	 2.7493329280e+000	-1.9202245969e-001
 3.5100531550e-001	 2.7527114394e+000	-1.6665517687e-001
 3.2550661372e-001	 2.7558429644e+000	-1.4184560265e-001
 3.0006177350e-001	 2.7587294054e+000	-1.1678106113e-001
 2.7467390578e-001	 2.7613727104e+000	-9.0950717867e-002
 2.4934606519e-001	 2.7637748714e+000	-6.4141038423e-002
 5.0949654677e-001	 2.7532550316e+000	-3.2825935938e-001
 4.8351106489e-001	 2.7579371005e+000	-2.5988937913e-001
 4.5755993968e-001	 2.7623611099e+000	-2.0655200894e-001
 4.3164663677e-001	 2.7665287241e+000	-1.6558380624e-001
 4.0577456927e-001	 2.7704416614e+000	-1.3464329908e-001
 3.7994709699e-001	 2.7741016931e+000	-1.1170978442e-001
 3.5416752555e-001	 2.7775106416e+000	-9.5081435615e-002
 3.2843910574e-001	 2.7806703785e+000	-8.3372743408e-002
 3.0276503272e-001	 2.7835828235e+000	-7.5511315105e-002
 2.7714844547e-001	 2.7862499420e+000	-7.0734058104e-002
 2.5159242613e-001	 2.7886737441e+000	-6.8582774465e-002
 5.1404562308e-001	 2.7778376658e+000	-2.7702225626e-001
 4.8782812797e-001	 2.7825615389e+000	-1.9233070173e-001
 4.6164529629e-001	 2.7870250484e+000	-1.2809107279e-001
 4.3550062460e-001	 2.7912298734e+000	-8.1344533459e-002
 4.0939755650e-001	 2.7951777476e+000	-4.9461036194e-002
 3.8333948178e-001	 2.7988704582e+000	-3.0138359728e-002
 3.5732973560e-001	 2.8023098437e+000	-2.1400433561e-002
 3.3137159775e-001	 2.8054977926e+000	-2.1594973406e-002
 3.0546829194e-001	 2.8084362415e+000	-2.9390452956e-002
 2.7962298516e-001	 2.8111271736e+000	-4.3772438341e-002
 2.5383878708e-001	 2.8135726168e+000	-6.4039312560e-002
 5.1859469938e-001	 2.8024203000e+000	-2.2212416864e-001
 4.9214519105e-001	 2.8071859773e+000	-1.2215961521e-001
 4.6573065289e-001	 2.8116889869e+000	-4.7721893073e-002
 4.3935461243e-001	 2.8159310227e+000	 4.4445129738e-003
 4.1302054373e-001	 2.8199138339e+000	 3.7259152028e-002
 3.8673186658e-001	 2.8236392233e+000	 5.3306333522e-002
 3.6049194565e-001	 2.8271090459e+000	 5.4836590178e-002
 3.3430408977e-001	 2.8303252067e+000	 4.3768852877e-002
 3.0817155116e-001	 2.8332896596e+000	 2.1693311657e-002
 2.8209752485e-001	 2.8360044052e+000	-1.0125063989e-002
 2.5608514803e-001	 2.8384714896e+000	-5.0742373251e-002
 5.2314377569e-001	 2.8270029342e+000	-1.6215535599e-001
 4.9646225412e-001	 2.8318104157e+000	-4.8118892826e-002
 4.6981600950e-001	 2.8363529254e+000	 3.5657954553e-002
 4.4320860026e-001	 2.8406321720e+000	 9.2728786317e-002
 4.1664353095e-001	 2.8446499202e+000	 1.2630369727e-001
 3.9012425137e-001	 2.8484079884e+000	 1.3924977137e-001
 3.6365415570e-001	 2.8519082480e+000	 1.3409233643e-001
 3.3723658179e-001	 2.8551526208e+000	 1.1301695411e-001
 3.1087481039e-001	 2.8581430777e+000	 7.7872118866e-002
 2.8457206455e-001	 2.8608816369e+000	 3.0172638722e-002
 2.5833150898e-001	 2.8633703623e+000	-2.8896330536e-002
 5.2769285200e-001	 2.8515855684e+000	-9.5707624035e-002
 5.0077931720e-001	 2.8564348541e+000	 3.1049245197e-002
 4.7390136610e-001	 2.8610168639e+000	 1.2315370256e-001
 4.4706258809e-001	 2.8653333213e+000	 1.8445895652e-001
 4.2026651818e-001	 2.8693860064e+000	 2.1846680755e-001
 3.9351663617e-001	 2.8731767535e+000	 2.2832791447e-001
 3.6681636576e-001	 2.8767074502e+000	 2.1684284513e-001
 3.4016907380e-001	 2.8799800349e+000	 1.8646388618e-001
 3.1357806961e-001	 2.8829964957e+000	 1.3929758527e-001
 2.8704660424e-001	 2.8857588685e+000	 7.7107997775e-002
 2.6057786993e-001	 2.8882692350e+000	 1.3206094020e-003
 5.3224192831e-001	 2.8761682026e+000	-2.1374258718e-002
 5.0509638028e-001	 2.8810592925e+000	 1.1660310805e-001
 4.7798672271e-001	 2.8856808023e+000	 2.1587327156e-001
 4.5091657592e-001	 2.8900344707e+000	 2.8059068727e-001
 4.2388950541e-001	 2.8941220927e+000	 3.1455013488e-001
 3.9690902097e-001	 2.8979455187e+000	 3.2118676002e-001
 3.6997857581e-001	 2.9015066523e+000	 3.0357692521e-001
 3.4310156582e-001	 2.9048074490e+000	 2.6443984405e-001
 3.1628132883e-001	 2.9078499138e+000	 2.0613997163e-001
 2.8952114393e-001	 2.9106361001e+000	 1.3069012297e-001
 2.6282423087e-001	 2.9131681077e+000	 3.9755289913e-002
 5.3679100462e-001	 2.9007508368e+000	 6.2250036550e-002
 5.0941344336e-001	 2.9056837309e+000	 2.0980151191e-001
 4.8207207931e-001	 2.9103447408e+000	 3.1492715639e-001
 4.5477056375e-001	 2.9147356200e+000	 3.8208442444e-001
 4.2751249264e-001	 2.9188581789e+000	 4.1536245984e-001
 4.0030140576e-001	 2.9227142838e+000	 4.1848191650e-001
 3.7314078586e-001	 2.9263058545e+000	 3.9479561363e-001
 3.4603405784e-001	 2.9296348631e+000	 3.4728999903e-001
 3.1898458805e-001	 2.9327033318e+000	 2.7858739282e-001
 2.9199568362e-001	 2.9355133317e+000	 1.9094898296e-001
 2.6507059182e-001	 2.9380669804e+000	 8.6278542458e-002
 5.4134008093e-001	 2.9253334710e+000	 1.5656920044e-001
 5.1373050644e-001	 2.9303081693e+000	 3.1190375863e-001
 4.8615743592e-001	 2.9350086793e+000	 4.2142831798e-001
 4.5862455157e-001	 2.9394367693e+000	 4.8990519511e-001
 4.3113547986e-001	 2.9435942652e+000	 5.2171939208e-001
 4.0369379056e-001	 2.9474830489e+000	 5.2087819981e-001
 3.7630299591e-001	 2.9511050566e+000	 4.9101166152e-001
 3.4896654985e-001	 2.9544622771e+000	 4.3537386959e-001
 3.2168784727e-001	 2.9575567499e+000	 3.5684506770e-001
 2.9447022332e-001	 2.9603905634e+000	 2.5793452883e-001
 2.6731695277e-001	 2.9629658531e+000	 1.4078417871e-001
 5.4588915724e-001	 2.9499161052e+000	 2.6298587028e-001
 5.1804756952e-001	 2.9549326076e+000	 4.2416961550e-001
 4.9024279252e-001	 2.9596726178e+000	 5.3649208055e-001
 4.6247853940e-001	 2.9641379186e+000	 6.0502241669e-001
 4.3475846709e-001	 2.9683303514e+000	 6.3444308576e-001
 4.0708617535e-001	 2.9722518140e+000	 6.2904924966e-001
 3.7946520596e-001	 2.9759042588e+000	 5.9274904611e-001
 3.5189904187e-001	 2.9792896912e+000	 5.2906472351e-001
 3.2439110650e-001	 2.9824101680e+000	 4.4113460642e-001
 2.9694476301e-001	 2.9852677950e+000	 3.3171586149e-001
 2.6956331372e-001	 2.9878647258e+000	 2.0318803303e-001
 2.4709970424e-001	 2.7388759987e+000	-5.0453794320e-002
 2.2206249953e-001	 2.7410195633e+000	 4.2941985600e-002
 1.9709066597e-001	 2.7429282290e+000	 1.3863831284e-001
 1.7218706031e-001	 2.7446040910e+000	 2.3684803002e-001
 1.4735448172e-001	 2.7460492816e+000	 3.3749664558e-001
 1.2259567143e-001	 2.7472659684e+000	 4.4022882732e-001
 9.7913312455e-002	 2.7482563533e+000	 5.4441531610e-001
 7.3310029335e-002	 2.7490226699e+000	 6.4916023105e-001
 4.8788387970e-002	 2.7495671829e+000	 7.5330873717e-001
 2.4350895461e-002	 2.7498921859e+000	 8.5545504683e-001
 0.0000000000e+000	 2.7500000000e+000	 9.5395072642e-001
 2.4934606519e-001	 2.7637748714e+000	-6.4141038423e-002
 2.2408124953e-001	 2.7659379230e+000	 3.4126926227e-002
 1.9888239929e-001	 2.7678639402e+000	 1.3250814060e-001
 1.7375239722e-001	 2.7695550373e+000	 2.3118486739e-001
 1.4869406792e-001	 2.7710133659e+000	 3.3004846190e-001
 1.2371017754e-001	 2.7722411136e+000	 4.2870595808e-001
 9.8803433477e-002	 2.7732405019e+000	 5.2648708332e-001
 7.3976484146e-002	 2.7740137851e+000	 6.2245167297e-001
 4.9231918770e-002	 2.7745632482e+000	 7.1539745483e-001
 2.4572267237e-002	 2.7748912057e+000	 8.0386817457e-001
 0.0000000000e+000	 2.7750000000e+000	 8.8616203269e-001
 2.5159242613e-001	 2.7886737441e+000	-6.8582774465e-002
 2.2609999953e-001	 2.7908562826e+000	 2.8498732641e-002
 2.0067413262e-001	 2.7927996513e+000	 1.2385348570e-001
 1.7531773413e-001	 2.7945059836e+000	 2.1763427058e-001
 1.5003365411e-001	 2.7959774503e+000	 3.0969903924e-001
 1.2482468364e-001	 2.7972162588e+000	 3.9961759452e-001
 9.9693554498e-002	 2.7982246506e+000	 4.8667871294e-001
 7.4642938958e-002	 2.7990049003e+000	 5.6989767562e-001
 4.9675449569e-002	 2.7995593135e+000	 6.4802417709e-001
 2.4793639014e-002	 2.7998902256e+000	 7.1955058238e-001
 0.0000000000e+000	 2.8000000000e+000	 7.8272050226e-001
 2.5383878708e-001	 2.8135726168e+000	-6.4039312560e-002
 2.2811874952e-001	 2.8157746423e+000	 2.5853487781e-002
 2.0246586595e-001	 2.8177353625e+000	 1.1252529341e-001
 1.7688307104e-001	 2.8194569298e+000	 1.9610053208e-001
 1.5137324031e-001	 2.8209415347e+000	 2.7640451692e-001
 1.2593918974e-001	 2.8221914039e+000	 3.5297023658e-001
 1.0058367552e-001	 2.8232087993e+000	 4.2504559268e-001
 7.5309393769e-002	 2.8239960154e+000	 4.9160105434e-001
 5.0118980368e-002	 2.8245553788e+000	 5.5133769876e-001
 2.5015010790e-002	 2.8248892455e+000	 6.0269560767e-001
 0.0000000000e+000	 2.8250000000e+000	 6.4386258893e-001
 2.5608514803e-001	 2.8384714896e+000	-5.0742373251e-002
 2.3013749952e-001	 2.8406930020e+000	 2.6011521653e-002
 2.0425759927e-001	 2.8426710737e+000	 9.8394558819e-002
 1.7844840795e-001	 2.8444078761e+000	 1.6650394227e-001
 1.5271282651e-001	 2.8459056191e+000	 2.3013312582e-001
 1.2705369585e-001	 2.8471665491e+000	 2.8877871485e-001
 1.0147379654e-001	 2.8481929479e+000	 3.4164782544e-001
 7.5975848581e-002	 2.8489871306e+000	 3.8766586946e-001
 5.0562511167e-002	 2.8495514441e+000	 4.2548473448e-001
 2.5236382567e-002	 2.8498882654e+000	 4.5349132729e-001
 0.0000000000e+000	 2.8500000000e+000	 4.6981644989e-001
 2.5833150898e-001	 2.8633703623e+000	-2.8896330536e-002
 2.3215624951e-001	 2.8656113616e+000	 2.8816357107e-002
 2.0604933260e-001	 2.8676067849e+000	 8.1351455075e-002
 1.8001374486e-001	 2.8693588224e+000	 1.2878009394e-001
 1.5405241270e-001	 2.8708697034e+000	 1.7086466262e-001
 1.2816820195e-001	 2.8721416943e+000	 2.0706582840e-001
 1.0236391756e-001	 2.8731770966e+000	 2.3655002431e-001
 7.6642303392e-002	 2.8739782458e+000	 2.5819737217e-001
 5.1006041966e-002	 2.8745475094e+000	 2.7061000916e-001
 2.5457754343e-002	 2.8748872852e+000	 2.7212078622e-001
 0.0000000000e+000	 2.8750000000e+000	 2.6080230644e-001
 2.6057786993e-001	 2.8882692350e+000	 1.3206094020e-003
 2.3417499951e-001	 2.8905297213e+000	 3.4133710144e-002
 2.0784106593e-001	 2.8925424960e+000	 6.1304506745e-002
 1.8157908178e-001	 2.8943097687e+000	 8.2879222614e-002
 1.5539199890e-001	 2.8958337878e+000	 9.8589991327e-002
 1.2928270805e-001	 2.8971168394e+000	 1.0786200126e-001
 1.0325403858e-001	 2.8981612453e+000	 1.0982111816e-001
 7.7308758203e-002	 2.8989693610e+000	 1.0330195320e-001
 5.1449572765e-002	 2.8995435747e+000	 8.6856343766e-002
 2.5679126120e-002	 2.8998863051e+000	 5.8762214464e-002
 0.0000000000e+000	 2.9000000000e+000	 1.7032786006e-002
 2.6282423087e-001	 2.9131681077e+000	 3.9755289913e-002
 2.3619374951e-001	 2.9154480810e+000	 4.1850541496e-002
 2.0963279925e-001	 2.9174782072e+000	 3.8179805572e-002
 1.8314441869e-001	 2.9192607150e+000	 2.8765580859e-002
 1.5673158510e-001	 2.9207978722e+000	 1.3310570263e-002
 1.3039721416e-001	 2.9220919846e+000	-8.7950433990e-003
 1.0414415961e-001	 2.9231453939e+000	-3.8465832796e-002
 7.7975213015e-002	 2.9239604762e+000	-7.6912905865e-002
 5.1893103565e-002	 2.9245396400e+000	-1.2563526332e-001
 2.5900497897e-002	 2.9248853250e+000	-1.8641076715e-001
 0.0000000000e+000	 2.9250000000e+000	-2.6128675326e-001
 2.6507059182e-001	 2.9380669804e+000	 8.6278542458e-002
 2.3821249950e-001	 2.9403664406e+000	 5.1874156419e-002
 2.1142453258e-001	 2.9424139184e+000	 1.1920266099e-002
 1.8470975560e-001	 2.9442116612e+000	-3.3583155688e-002
 1.5807117129e-001	 2.9457619566e+000	-8.4961996814e-002
 1.3151172026e-001	 2.9470671298e+000	-1.4286059254e-001
 1.0503428063e-001	 2.9481295426e+000	-2.0823381205e-001
 7.8641667826e-002	 2.9489515913e+000	-2.8233867886e-001
 5.2336634364e-002	 2.9495357053e+000	-3.6672555908e-001
 2.6121869673e-002	 2.9498843448e+000	-4.6322895169e-001
 0.0000000000e+000	 2.9500000000e+000	-5.7395791453e-001
 2.6731695277e-001	 2.9629658531e+000	 1.4078417871e-001
 2.4023124950e-001	 2.9652848003e+000	 6.4131349886e-002
 2.1321626591e-001	 2.9673496295e+000	-1.7515081167e-002
 1.8627509251e-001	 2.9691626075e+000	-1.0417645231e-001
 1.5941075749e-001	 2.9707260410e+000	-1.9620638700e-001
 1.3262622636e-001	 2.9720422749e+000	-2.9428323698e-001
 1.0592440165e-001	 2.9731136913e+000	-3.9940201304e-001
 7.9308122638e-002	 2.9739427065e+000	-5.1286583886e-001
 5.2780165163e-002	 2.9745317706e+000	-6.3627696252e-001
 2.6343241450e-002	 2.9748833647e+000	-7.7152736067e-001
 0.0000000000e+000	 2.9750000000e+000	-9.2078896975e-001
 2.6956331372e-001	 2.9878647258e+000	 2.0318803303e-001
 2.4224999949e-001	 2.9902031599e+000	 7.8567594514e-002
 2.1500799923e-001	 2.9922853407e+000	-5.0151761256e-002
 1.8784042942e-001	 2.9941135538e+000	-1.8301145099e-001
 1.6075034369e-001	 2.9956901253e+000	-3.2039196322e-001
 1.3374073246e-001	 2.9970174201e+000	-4.6300515039e-001
 1.0681452267e-001	 2.9980978399e+000	-6.1188599707e-001
 7.9974577449e-002	 2.9989338217e+000	-7.6838389994e-001
 5.3223695962e-002	 2.9995278359e+000	-9.3415349502e-001
 2.6564613226e-002	 2.9998823846e+000	-1.1111450678e+000
 0.0000000000e+000	 3.0000000000e+000	-1.3015945818e+000
 3.0000000000e+000	 0.0000000000e+000	 1.0627232321e+000
 2.9998823846e+000	 2.6564613226e-002	 1.0417379328e+000
 2.9995278359e+000	 5.3223695962e-002	 1.0161241277e+000
 2.9989338217e+000	 7.9974577449e-002	 9.8590669155e-001
 2.9980978399e+000	 1.0681452267e-001	 9.5126539905e-001
 2.9970174201e+000	 1.3374073246e-001	 9.1253985197e-001
 2.9956901253e+000	 1.6075034369e-001	 8.7023423893e-001
 2.9941135538e+000	 1.8784042942e-001	 8.2502191199e-001
 2.9922853407e+000	 2.1500799923e-001	 7.7774976256e-001
 2.9902031599e+000	 2.4224999949e-001	 7.2944237942e-001
 2.9878647258e+000	 2.6956331372e-001	 6.8130597173e-001
 3.0250000000e+000	 0.0000000000e+000	 1.2361321887e+000
 3.0248814045e+000	 2.6785985003e-002	 1.2343345257e+000
 3.0245239012e+000	 5.3667226761e-002	 1.2254505570e+000
 3.0239249369e+000	 8.0641032261e-002	 1.2094796063e+000
 3.0230819886e+000	 1.0770464369e-001	 1.1865807789e+000
 3.0219925653e+000	 1.3485523857e-001	 1.1570780536e+000
 3.0206542097e+000	 1.6208992988e-001	 1.1214652031e+000
 3.0190645001e+000	 1.8940576633e-001	 1.0804105269e+000
 3.0172210519e+000	 2.1679973256e-001	 1.0347613777e+000
 3.0151215196e+000	 2.4426874949e-001	 9.8554846475e-001
 3.0127635985e+000	 2.7180967467e-001	 9.3398991491e-001
 3.0500000000e+000	 0.0000000000e+000	 1.4229320426e+000
 3.0498804243e+000	 2.7007356780e-002	 1.4404007970e+000
 3.0495199665e+000	 5.4110757560e-002	 1.4482396628e+000
 3.0489160521e+000	 8.1307487072e-002	 1.4464216931e+000
 3.0480661373e+000	 1.0859476471e-001	 1.4350847042e+000
 3.0469677104e+000	 1.3596974467e-001	 1.4145365361e+000
 3.0456182941e+000	 1.6342951608e-001	 1.3852601370e+000
 3.0440154464e+000	 1.9097110324e-001	 1.3479184549e+000
 3.0421567631e+000	 2.1859146589e-001	 1.3033591184e+000
 3.0400398793e+000	 2.4628749948e-001	 1.2526188876e+000
 3.0376624713e+000	 2.7405603562e-001	 1.1969278570e+000
 3.0750000000e+000	 0.0000000000e+000	 1.6227467102e+000
 3.0748794442e+000	 2.7228728556e-002	 1.6595574235e+000
 3.0745160318e+000	 5.4554288360e-002	 1.6841077274e+000
 3.0739071672e+000	 8.1973941883e-002	 1.6963436751e+000
 3.0730502859e+000	 1.0948488573e-001	 1.6963811664e+000
 3.0719428556e+000	 1.3708425077e-001	 1.6845113795e+000
 3.0705823785e+000	 1.6476910228e-001	 1.6612060229e+000
 3.0689663926e+000	 1.9253644015e-001	 1.6271223901e+000
 3.0670924742e+000	 2.2038319921e-001	 1.5831081960e+000
 3.0649582389e+000	 2.4830624948e-001	 1.5302061797e+000
 3.0625613440e+000	 2.7630239656e-001	 1.4696584515e+000
 3.1000000000e+000	 0.0000000000e+000	 1.8352122395e+000
 3.0998784641e+000	 2.7450100333e-002	 1.8914371710e+000
 3.0995120971e+000	 5.4997819159e-002	 1.9326830798e+000
 3.0988982824e+000	 8.2640396694e-002	 1.9588682812e+000
 3.0980344346e+000	 1.1037500676e-001	 1.9700861227e+000
 3.0969180008e+000	 1.3819875688e-001	 1.9666105907e+000
 3.0955464628e+000	 1.6610868847e-001	 1.9489017335e+000
 3.0939173389e+000	 1.9410177707e-001	 1.9176108809e+000
 3.0920281854e+000	 2.2217493254e-001	 1.8735856416e+000
 3.0898765986e+000	 2.5032499947e-001	 1.8178746591e+000
 3.0874602167e+000	 2.7854875751e-001	 1.7517321066e+000
 3.1250000000e+000	 0.0000000000e+000	 2.0599763250e+000
 3.1248774839e+000	 2.7671472109e-002	 2.1356844100e+000
 3.1245081624e+000	 5.5441349958e-002	 2.1936056136e+000
 3.1238893976e+000	 8.3306851506e-002	 2.2336297657e+000
 3.1230185833e+000	 1.1126512778e-001	 2.2558270177e+000
 3.1218931460e+000	 1.3931326298e-001	 2.2604536273e+000
 3.1205105472e+000	 1.6744827467e-001	 2.2479575556e+000
 3.1188682852e+000	 1.9566711398e-001	 2.2189838557e+000
 3.1169638966e+000	 2.2396666586e-001	 2.1743798331e+000
 3.1147949583e+000	 2.5234374947e-001	 2.1151999587e+000
 3.1123590894e+000	 2.8079511845e-001	 2.0427105146e+000
 3.1500000000e+000	 0.0000000000e+000	 1.8490927231e+000
 3.1498765038e+000	 2.7892843886e-002	 1.9072690889e+000
 3.1495042277e+000	 5.5884880757e-002	 1.9535209369e+000
 3.1488805128e+000	 8.3973306317e-002	 1.9887158813e+000
 3.1480027319e+000	 1.1215524880e-001	 2.0137258679e+000
 3.1468682911e+000	 1.4042776908e-001	 2.0294291464e+000
 3.1454746316e+000	 1.6878786087e-001	 2.0367123762e+000
 3.1438192315e+000	 1.9723245089e-001	 2.0364728618e+000
 3.1418996077e+000	 2.2575839919e-001	 2.0296209183e+000
 3.1397133179e+000	 2.5436249946e-001	 2.0170823652e+000
 3.1372579621e+000	 2.8304147940e-001	 1.9998011447e+000
 3.1750000000e+000	 0.0000000000e+000	 1.6240733166e+000
 3.1748755237e+000	 2.8114215663e-002	 1.6639476154e+000
 3.1745002930e+000	 5.6328411556e-002	 1.6923607429e+000
 3.1738716280e+000	 8.4639761128e-002	 1.7101400835e+000
 3.1729868806e+000	 1.1304536982e-001	 1.7181158895e+000
 3.1718434363e+000	 1.4154227518e-001	 1.7171233277e+000
 3.1704387160e+000	 1.7012744706e-001	 1.7080046628e+000
 3.1687701778e+000	 1.9879778780e-001	 1.6916115781e+000
 3.1668353189e+000	 2.2755013251e-001	 1.6688076316e+000
 3.1646316776e+000	 2.5638124945e-001	 1.6404708452e+000
 3.1621568348e+000	 2.8528784035e-001	 1.6074964250e+000
 3.2000000000e+000	 0.0000000000e+000	 1.3845980526e+000
 3.1998745436e+000	 2.8335587439e-002	 1.4077741103e+000
 3.1994963583e+000	 5.6771942355e-002	 1.4199717171e+000
 3.1988627432e+000	 8.5306215939e-002	 1.4219762371e+000
 3.1979710292e+000	 1.1393549084e-001	 1.4145743876e+000
 3.1968185815e+000	 1.4265678129e-001	 1.3985563603e+000
 3.1954028003e+000	 1.7146703326e-001	 1.3747180857e+000
 3.1937211241e+000	 2.0036312471e-001	 1.3438636403e+000
 3.1917710301e+000	 2.2934186584e-001	 1.3068077942e+000
 3.1895500373e+000	 2.5839999945e-001	 1.2643786990e+000
 3.1870557075e+000	 2.8753420129e-001	 1.2174207122e+000
 3.2250000000e+000	 0.0000000000e+000	 1.1303568024e+000
 3.2248735634e+000	 2.8556959216e-002	 1.1384850686e+000
 3.2244924236e+000	 5.7215473154e-002	 1.1361372071e+000
 3.2238538583e+000	 8.5972670750e-002	 1.1240547448e+000
 3.2229551779e+000	 1.1482561186e-001	 1.1029789956e+000
 3.2217937266e+000	 1.4377128739e-001	 1.0736532571e+000
 3.2203668847e+000	 1.7280661945e-001	 1.0368251579e+000
 3.2186720703e+000	 2.0192846161e-001	 9.9324915273e-001
 3.2167067413e+000	 2.3113359916e-001	 9.4368916475e-001
 3.2144683969e+000	 2.6041874944e-001	 8.8892137302e-001
 3.2119545803e+000	 2.8978056223e-001	 8.2973714286e-001
 3.2500000000e+000	 0.0000000000e+000	 8.6104897964e-001
 3.2498725833e+000	 2.8778330992e-002	 8.5582649391e-001
 3.2494884889e+000	 5.7659003953e-002	 8.4065003584e-001
 3.2488449735e+000	 8.6639125561e-002	 8.1621545275e-001
 3.2479393266e+000	 1.1571573288e-001	 7.8321675927e-001
 3.2467688718e+000	 1.4488579349e-001	 7.4234841283e-001
 3.2453309691e+000	 1.7414620565e-001	 6.9430774446e-001
 3.2436230166e+000	 2.0349379852e-001	 6.3979754412e-001
 3.2416424524e+000	 2.3292533249e-001	 5.7952879919e-001
 3.2393867566e+000	 2.6243749943e-001	 5.1422358418e-001
 3.2368534530e+000	 2.9202692318e-001	 4.4461809932e-001
 2.9878647258e+000	 2.6956331372e-001	 6.8130597173e-001
 2.9852677950e+000	 2.9694476301e-001	 6.7473292952e-001
 2.9824101680e+000	 3.2439110650e-001	 6.7227996127e-001
 2.9792896912e+000	 3.5189904187e-001	 6.7598805308e-001
 2.9759042588e+000	 3.7946520596e-001	 6.8809720847e-001
 2.9722518140e+000	 4.0708617535e-001	 7.1104876831e-001
 2.9683303514e+000	 4.3475846709e-001	 7.4748738386e-001
 2.9641379186e+000	 4.6247853940e-001	 8.0026262671e-001
 2.9596726178e+000	 4.9024279252e-001	 8.7243021965e-001
 2.9549326076e+000	 5.1804756952e-001	 9.6725287318e-001
 2.9499161052e+000	 5.4588915724e-001	 1.0882007125e+000
 3.0127635985e+000	 2.7180967467e-001	 9.3398991491e-001
 3.0101450266e+000	 2.9941930270e-001	 9.2993770849e-001
 3.0072635860e+000	 3.2709436572e-001	 9.2863305361e-001
 3.0041171053e+000	 3.5483153389e-001	 9.3211069975e-001
 3.0007034609e+000	 3.8262741601e-001	 9.4260906092e-001
 2.9970205791e+000	 4.1047856015e-001	 9.6257263588e-001
 2.9930664377e+000	 4.3838145432e-001	 9.9465407429e-001
 2.9888390679e+000	 4.6633252723e-001	 1.0417158720e+000
 2.9843365562e+000	 4.9432814913e-001	 1.1068316791e+000
 2.9795570460e+000	 5.2236463260e-001	 1.1932872052e+000
 2.9744987394e+000	 5.5043823355e-001	 1.3045807060e+000
 3.0376624713e+000	 2.7405603562e-001	 1.1969278570e+000
 3.0350222582e+000	 3.0189384239e-001	 1.1930847112e+000
 3.0321170041e+000	 3.2979762494e-001	 1.1905056874e+000
 3.0289445194e+000	 3.5776402590e-001	 1.1912201089e+000
 3.0255026631e+000	 3.8578962606e-001	 1.1974657582e+000
 3.0217893442e+000	 4.1387094494e-001	 1.2116914000e+000
 3.0178025240e+000	 4.4200444154e-001	 1.2365589420e+000
 3.0135402172e+000	 4.7018651506e-001	 1.2749452179e+000
 3.0090004947e+000	 4.9841350573e-001	 1.3299433738e+000
 3.0041814844e+000	 5.2668169568e-001	 1.4048638435e+000
 2.9990813737e+000	 5.5498730986e-001	 1.5032348960e+000
 3.0625613440e+000	 2.7630239656e-001	 1.4696584515e+000
 3.0598994898e+000	 3.0436838209e-001	 1.4637344185e+000
 3.0569704222e+000	 3.3250088416e-001	 1.4574795301e+000
 3.0537719335e+000	 3.6069651792e-001	 1.4529184868e+000
 3.0503018652e+000	 3.8895183611e-001	 1.4522893915e+000
 3.0465581093e+000	 4.1726332974e-001	 1.4580463776e+000
 3.0425386102e+000	 4.4562742877e-001	 1.4728618665e+000
 3.0382413666e+000	 4.7404050289e-001	 1.4996284396e+000
 3.0336644332e+000	 5.0249886233e-001	 1.5414603049e+000
 3.0288059228e+000	 5.3099875876e-001	 1.6016943443e+000
 3.0236640079e+000	 5.5953638617e-001	 1.6838907227e+000
 3.0874602167e+000	 2.7854875751e-001	 1.7517321066e+000
 3.0847767215e+000	 3.0684292178e-001	 1.7414578448e+000
 3.0818238402e+000	 3.3520414338e-001	 1.7291455450e+000
 3.0785993476e+000	 3.6362900993e-001	 1.7168160818e+000
 3.0751010674e+000	 3.9211404616e-001	 1.7067088247e+000
 3.0713268744e+000	 4.2065571453e-001	 1.7012843735e+000
 3.0672746965e+000	 4.4925041599e-001	 1.7032269147e+000
 3.0629425159e+000	 4.7789449072e-001	 1.7154461842e+000
 3.0583283717e+000	 5.0658421894e-001	 1.7410790165e+000
 3.0534303612e+000	 5.3531582184e-001	 1.7834904639e+000
 3.0482466421e+000	 5.6408546248e-001	 1.8462744692e+000
 3.1123590894e+000	 2.8079511845e-001	 2.0427105146e+000
 3.1096539531e+000	 3.0931746147e-001	 2.0258361163e+000
 3.1066772583e+000	 3.3790740260e-001	 2.0051036196e+000
 3.1034267617e+000	 3.6656150195e-001	 1.9825308629e+000
 3.0999002695e+000	 3.9527625621e-001	 1.9603594234e+000
 3.0960956396e+000	 4.2404809933e-001	 1.9410574602e+000
 3.0920107827e+000	 4.5287340322e-001	 1.9273221730e+000
 3.0876436652e+000	 4.8174847854e-001	 1.9220818566e+000
 3.0829923102e+000	 5.1066957554e-001	 1.9284975340e+000
 3.0780547996e+000	 5.3963288491e-001	 1.9499641500e+000
 3.0728292763e+000	 5.6863453879e-001	 1.9901113080e+000
 3.1372579621e+000	 2.8304147940e-001	 1.9998011447e+000
 3.1345311847e+000	 3.1179200116e-001	 2.0474180549e+000
 3.1315306764e+000	 3.4061066182e-001	 2.0995055997e+000
 3.1282541758e+000	 3.6949399396e-001	 2.1571357757e+000
 3.1246994717e+000	 3.9843846626e-001	 2.2128827969e+000
 3.1208644047e+000	 4.2744048412e-001	 2.1770227695e+000
 3.1167468690e+000	 4.5649639044e-001	 2.1448195884e+000
 3.1123448145e+000	 4.8560246637e-001	 2.1192215095e+000
 3.1076562486e+000	 5.1475493214e-001	 2.1034153053e+000
 3.1026792380e+000	 5.4394994799e-001	 2.1008275347e+000
 3.0974119105e+000	 5.7318361510e-001	 2.1151253448e+000
 3.1621568348e+000	 2.8528784035e-001	 1.6074964250e+000
 3.1594084163e+000	 3.1426654084e-001	 1.6393694499e+000
 3.1563840944e+000	 3.4331392104e-001	 1.6766916889e+000
 3.1530815899e+000	 3.7242648597e-001	 1.7204501326e+000
 3.1494986739e+000	 4.0160067630e-001	 1.7716544289e+000
 3.1456331698e+000	 4.3083286891e-001	 1.8313400381e+000
 3.1414829553e+000	 4.6011937766e-001	 1.9005714969e+000
 3.1370459638e+000	 4.8945645420e-001	 1.9804457855e+000
 3.1323201871e+000	 5.1884028875e-001	 2.0720957898e+000
 3.1273036764e+000	 5.4826701107e-001	 2.1766938532e+000
 3.1219945447e+000	 5.7773269141e-001	 2.2210396606e+000
 3.1870557075e+000	 2.8753420129e-001	 1.2174207122e+000
 3.1842856480e+000	 3.1674108053e-001	 1.2339524710e+000
 3.1812375125e+000	 3.4601718025e-001	 1.2568916562e+000
 3.1779090040e+000	 3.7535897799e-001	 1.2871383693e+000
 3.1742978760e+000	 4.0476288635e-001	 1.3256133499e+000
 3.1704019349e+000	 4.3422525370e-001	 1.3732612628e+000
 3.1662190415e+000	 4.6374236489e-001	 1.4310541014e+000
 3.1617471132e+000	 4.9331044202e-001	 1.4999947001e+000
 3.1569841256e+000	 5.2292564535e-001	 1.5811203500e+000
 3.1519281148e+000	 5.5258407415e-001	 1.6755065089e+000
 3.1465771789e+000	 5.8228176772e-001	 1.7842705993e+000
 3.2119545803e+000	 2.8978056223e-001	 8.2973714286e-001
 3.2091628796e+000	 3.1921562022e-001	 8.3140834911e-001
 3.2060909306e+000	 3.4872043947e-001	 8.4042522696e-001
 3.2027364181e+000	 3.7829147000e-001	 8.5759906608e-001
 3.1990970782e+000	 4.0792509639e-001	 8.8375976032e-001
 3.1951707000e+000	 4.3761763849e-001	 9.1975922988e-001
 3.1909551278e+000	 4.6736535211e-001	 9.6647496646e-001
 3.1864482625e+000	 4.9716442985e-001	 1.0248136949e+000
 3.1816480641e+000	 5.2701100195e-001	 1.0957151446e+000
 3.1765525532e+000	 5.5690113723e-001	 1.1801559222e+000
 3.1711598131e+000	 5.8683084403e-001	 1.2791534786e+000
 3.2368534530e+000	 2.9202692318e-001	 4.4461809932e-001
 3.2340401112e+000	 3.2169015991e-001	 4.3198660049e-001
 3.2309443486e+000	 3.5142369869e-001	 4.2761943839e-001
 3.2275638322e+000	 3.8122396201e-001	 4.3223712906e-001
 3.2238962803e+000	 4.1108730644e-001	 4.4657674326e-001
 3.2199394651e+000	 4.4101002328e-001	 4.7139546652e-001
 3.2156912140e+000	 4.7098833933e-001	 5.0747428931e-001
 3.2111494118e+000	 5.0101841767e-001	 5.5562182088e-001
 3.2063120026e+000	 5.3109635855e-001	 6.1667821968e-001
 3.2011769916e+000	 5.6121820030e-001	 6.9151923221e-001
 3.1957424473e+000	 5.9137992034e-001	 7.8106033198e-001
 2.9499161052e+000	 5.4588915724e-001	 1.0882007125e+000
 2.9446213876e+000	 5.7376378727e-001	 7.9578509158e-001
 2.9390467935e+000	 6.0166763694e-001	 5.1111425991e-001
 2.9331907253e+000	 6.2959683048e-001	 3.0298743439e-001
 2.9270516504e+000	 6.5754744009e-001	 4.2208534922e-001
 2.9206281031e+000	 6.8551548720e-001	 5.1875216400e-001
 2.9139186865e+000	 7.1349694372e-001	 5.9288364575e-001
 2.9069220735e+000	 7.4148773336e-001	 6.4437776728e-001
 2.8996370091e+000	 7.6948373301e-001	 6.7313639121e-001
 2.8920623117e+000	 7.9748077418e-001	 6.7906701573e-001
 2.8841968746e+000	 8.2547464451e-001	 6.6208457893e-001
 2.9744987394e+000	 5.5043823355e-001	 1.3045807060e+000
 2.9691598992e+000	 5.7854515216e-001	 9.6769346124e-001
 2.9635388501e+000	 6.0668153392e-001	 6.3960465914e-001
 2.9576339813e+000	 6.3484347073e-001	 4.7111204335e-001
 2.9514437475e+000	 6.6302700209e-001	 5.6949907935e-001
 2.9449666706e+000	 6.9122811626e-001	 6.4876350726e-001
 2.9382013422e+000	 7.1944275158e-001	 7.0876250724e-001
 2.9311464241e+000	 7.4766679780e-001	 7.4935188873e-001
 2.9238006509e+000	 7.7589609745e-001	 7.7038779541e-001
 2.9161628310e+000	 8.0412644730e-001	 7.7172847763e-001
 2.9082318485e+000	 8.3235359987e-001	 7.5323612902e-001
 2.9990813737e+000	 5.5498730986e-001	 1.5032348960e+000
 2.9936984107e+000	 5.8332651705e-001	 1.1192283762e+000
 2.9880309068e+000	 6.1169543089e-001	 7.4494133001e-001
 2.9820772374e+000	 6.4009011098e-001	 6.2101309026e-001
 2.9758358445e+000	 6.6850656409e-001	 6.9801577883e-001
 2.9693052382e+000	 6.9694074532e-001	 7.5915708162e-001
 2.9624839979e+000	 7.2538855945e-001	 8.0425467712e-001
 2.9553707747e+000	 7.5384586224e-001	 8.3312131022e-001
 2.9479642926e+000	 7.8230846189e-001	 8.4556652001e-001
 2.9402633502e+000	 8.1077212041e-001	 8.4139844056e-001
 2.9322668225e+000	 8.3923255524e-001	 8.2042567169e-001
 3.0236640079e+000	 5.5953638617e-001	 1.6838907227e+000
 3.0182369223e+000	 5.8810788194e-001	 1.2501149627e+000
 3.0125229634e+000	 6.1670932786e-001	 8.2684731001e-001
 3.0065204934e+000	 6.4533675123e-001	 7.5325078551e-001
 3.0002279416e+000	 6.7398612608e-001	 8.0824528120e-001
 2.9936438057e+000	 7.0265337437e-001	 8.5059363367e-001
 2.9867666536e+000	 7.3133436731e-001	 8.8007308707e-001
 2.9795951253e+000	 7.6002492669e-001	 8.9645240185e-001
 2.9721279343e+000	 7.8872082633e-001	 8.9949360697e-001
 2.9643638695e+000	 8.1741779353e-001	 8.8895383099e-001
 2.9563017964e+000	 8.4611151061e-001	 8.6458720890e-001
 3.0482466421e+000	 5.6408546248e-001	 1.8462744692e+000
 3.0427754338e+000	 5.9288924684e-001	 1.3600763855e+000
 3.0370150200e+000	 6.2172322484e-001	 8.8504282927e-001
 3.0309637495e+000	 6.5058339149e-001	 8.6838164479e-001
 3.0246200387e+000	 6.7946568808e-001	 9.0079279648e-001
 3.0179823732e+000	 7.0836600343e-001	 9.2372831620e-001
 3.0110493093e+000	 7.3728017517e-001	 9.3692406346e-001
 3.0038194759e+000	 7.6620399113e-001	 9.4010387558e-001
 2.9962915761e+000	 7.9513319077e-001	 9.3298134619e-001
 2.9884643887e+000	 8.2406346665e-001	 9.1526168851e-001
 2.9803367704e+000	 8.5299046598e-001	 8.8664367996e-001
 3.0728292763e+000	 5.6863453879e-001	 1.9901113080e+000
 3.0673139454e+000	 5.9767061173e-001	 1.4488339262e+000
 3.0615070766e+000	 6.2673712181e-001	 9.5159876411e-001
 3.0554070055e+000	 6.5583003174e-001	 9.6695863688e-001
 3.0490121358e+000	 6.8494525008e-001	 9.7625909608e-001
 3.0423209407e+000	 7.1407863249e-001	 9.7921091202e-001
 3.0353319650e+000	 7.4322598304e-001	 9.7550759157e-001
 3.0280438265e+000	 7.7238305558e-001	 9.6482709159e-001
 3.0204552178e+000	 8.0154555521e-001	 9.4683362566e-001
 3.0125649080e+000	 8.3070913976e-001	 9.2117956124e-001
 3.0043717443e+000	 8.5986942135e-001	 8.8750740409e-001
 3.0974119105e+000	 5.7318361510e-001	 2.1151253448e+000
 3.0918524570e+000	 6.0245197662e-001	 1.5161070585e+000
 3.0859991332e+000	 6.3175101878e-001	 1.0608869791e+000
 3.0798502615e+000	 6.6107667200e-001	 1.0495313243e+000
 3.0734042329e+000	 6.9042481209e-001	 1.0352406889e+000
 3.0666595083e+000	 7.1979126155e-001	 1.0176860470e+000
 3.0596146208e+000	 7.4917179090e-001	 9.9651756718e-001
 3.0522681771e+000	 7.7856212002e-001	 9.7136635001e-001
 3.0446188595e+000	 8.0795791965e-001	 9.4184626481e-001
 3.0366654273e+000	 8.3735481288e-001	 9.0755588251e-001
 3.0284067183e+000	 8.6674837673e-001	 8.6808050183e-001
 3.1219945447e+000	 5.7773269141e-001	 2.2210396606e+000
 3.1163909685e+000	 6.0723334152e-001	 1.5616135187e+000
 3.1104911898e+000	 6.3676491576e-001	 1.1551112504e+000
 3.1042935176e+000	 6.6632331225e-001	 1.1166459977e+000
 3.0977963300e+000	 6.9590437409e-001	 1.0783299894e+000
 3.0909980758e+000	 7.2550389062e-001	 1.0397933932e+000
 3.0838972765e+000	 7.5511759877e-001	 1.0006420364e+000
 3.0764925277e+000	 7.8474118447e-001	 9.6045916888e-001
 3.0687825013e+000	 8.1437028410e-001	 9.1880733219e-001
 3.0607659465e+000	 8.4400048600e-001	 8.7523032973e-001
 3.0524416922e+000	 8.7362733210e-001	 8.2925529657e-001
 3.1465771789e+000	 5.8228176772e-001	 1.7842705993e+000
 3.1409294801e+000	 6.1201470641e-001	 1.2160801793e+000
 3.1349832464e+000	 6.4177881273e-001	 1.0151821460e+000
 3.1287367736e+000	 6.7156995251e-001	 1.0909794495e+000
 3.1221884270e+000	 7.0138393609e-001	 1.1061154770e+000
 3.1153366433e+000	 7.3121651968e-001	 1.0461678622e+000
 3.1081799322e+000	 7.6106340663e-001	 9.8856342397e-001
 3.1007168783e+000	 7.9092024892e-001	 9.3283654907e-001
 3.0929461430e+000	 8.2078264854e-001	 8.7849744826e-001
 3.0848664658e+000	 8.5064615913e-001	 8.2503416635e-001
 3.0764766662e+000	 8.8050628747e-001	 7.7191469726e-001
 3.1711598131e+000	 5.8683084403e-001	 1.2791534786e+000
 3.1654679917e+000	 6.1679607131e-001	 6.7299923742e-001
 3.1594753030e+000	 6.4679270971e-001	 5.6261689969e-001
 3.1531800297e+000	 6.7681659276e-001	 6.3559503361e-001
 3.1465805241e+000	 7.0686349809e-001	 7.0623535680e-001
 3.1396752108e+000	 7.3692914874e-001	 7.7317017420e-001
 3.1324625879e+000	 7.6700921450e-001	 8.3497139585e-001
 3.1249412290e+000	 7.9709931337e-001	 8.8922322688e-001
 3.1171097848e+000	 8.2719501299e-001	 8.2169007406e-001
 3.1089669851e+000	 8.5729183225e-001	 7.5779056805e-001
 3.1005116401e+000	 8.8738524285e-001	 6.9693256330e-001
 3.1957424473e+000	 5.9137992034e-001	 7.8106033198e-001
 3.1900065032e+000	 6.2157743620e-001	 1.3780782948e-001
 3.1839673596e+000	 6.5180660668e-001	 1.2504808701e-001
 3.1776232857e+000	 6.8206323302e-001	 1.9376059885e-001
 3.1709726212e+000	 7.1234306010e-001	 2.6309187780e-001
 3.1640137784e+000	 7.4264177780e-001	 3.3166880046e-001
 3.1567452436e+000	 7.7295502237e-001	 3.9805396487e-001
 3.1491655796e+000	 8.0327837781e-001	 4.6074439919e-001
 3.1412734265e+000	 8.3360737744e-001	 5.1817035392e-001
 3.1330675043e+000	 8.6393750537e-001	 5.6869418467e-001
 3.1245466141e+000	 8.9426419823e-001	 6.0517405258e-001
 2.8841968746e+000	 8.2547464451e-001	 6.6208457893e-001
 2.8760396675e+000	 8.5346108929e-001	 5.7674225819e-001
 2.8675897383e+000	 8.8143581311e-001	 5.0233449376e-001
 2.8588462143e+000	 9.0939448149e-001	 4.3915755397e-001
 2.8498083036e+000	 9.3733272262e-001	 3.8749693369e-001
 2.8404752965e+000	 9.6524612913e-001	 3.4762864569e-001
 2.8308465672e+000	 9.9313025989e-001	 3.1982056447e-001
 2.8209215744e+000	 1.0209806419e+000	 3.0433381907e-001
 2.8106998632e+000	 1.0487927723e+000	 3.0142423050e-001
 2.8001810658e+000	 1.0765621202e+000	 3.1134378971e-001
 2.7893649032e+000	 1.1042841287e+000	 3.3434217129e-001
 2.9082318485e+000	 8.3235359987e-001	 7.5323612902e-001
 2.9000066647e+000	 8.6057326503e-001	 6.7144552613e-001
 2.8914863195e+000	 8.8878111155e-001	 5.9880629338e-001
 2.8826699328e+000	 9.1697276883e-001	 5.3557787597e-001
 2.8735567061e+000	 9.4514382864e-001	 4.8201020388e-001
 2.8641459240e+000	 9.7328984687e-001	 4.3834508582e-001
 2.8544369552e+000	 1.0014063454e+000	 4.0481765631e-001
 2.8444292542e+000	 1.0294888139e+000	 3.8165787194e-001
 2.8341223620e+000	 1.0575327121e+000	 3.6909205238e-001
 2.8235159081e+000	 1.0855334712e+000	 3.6734446159e-001
 2.8126096107e+000	 1.1134864964e+000	 3.7663892451e-001
 2.9322668225e+000	 8.3923255524e-001	 8.2042567169e-001
 2.9239736620e+000	 8.6768544077e-001	 7.4279336229e-001
 2.9153829006e+000	 8.9612640999e-001	 6.7255817716e-001
 2.9064936512e+000	 9.2455105618e-001	 6.0994181469e-001
 2.8973051086e+000	 9.5295493466e-001	 5.5515769177e-001
 2.8878165515e+000	 9.8133356461e-001	 5.0841244188e-001
 2.8780273433e+000	 1.0096824309e+000	 4.6990746686e-001
 2.8679369340e+000	 1.0379969859e+000	 4.3984053805e-001
 2.8575448609e+000	 1.0662726518e+000	 4.1840744247e-001
 2.8468507503e+000	 1.0945048222e+000	 4.0580366897e-001
 2.8358543183e+000	 1.1226888642e+000	 4.0222612940e-001
 2.9563017964e+000	 8.4611151061e-001	 8.6458720890e-001
 2.9479406592e+000	 8.7479761651e-001	 7.9173826580e-001
 2.9392794818e+000	 9.0347170843e-001	 7.2456027949e-001
 2.9303173697e+000	 9.3212934352e-001	 6.6323625659e-001
 2.9210535112e+000	 9.6076604068e-001	 6.0794213191e-001
 2.9114871789e+000	 9.8937728235e-001	 5.5884837207e-001
 2.9016177314e+000	 1.0179585164e+000	 5.1612163332e-001
 2.8914446137e+000	 1.0465051580e+000	 4.7992646929e-001
 2.8809673597e+000	 1.0750125916e+000	 4.5042708380e-001
 2.8701855925e+000	 1.1034761732e+000	 4.2778912356e-001
 2.8590990258e+000	 1.1318912319e+000	 4.1218150564e-001
 2.9803367704e+000	 8.5299046598e-001	 8.8664367996e-001
 2.9719076564e+000	 8.8190979226e-001	 8.1922173905e-001
 2.9631760629e+000	 9.1081700687e-001	 7.5577182817e-001
 2.9541410881e+000	 9.3970763087e-001	 6.9643729625e-001
 2.9448019137e+000	 9.6857714670e-001	 6.4135560630e-001
 2.9351578064e+000	 9.9742100009e-001	 5.9066004601e-001
 2.9252081194e+000	 1.0262346019e+000	 5.4448149318e-001
 2.9149522935e+000	 1.0550133300e+000	 5.0295023161e-001
 2.9043898586e+000	 1.0837525314e+000	 4.6619781213e-001
 2.8935204347e+000	 1.1124475242e+000	 4.3435895360e-001
 2.8823437333e+000	 1.1410935996e+000	 4.0757347833e-001
 3.0043717443e+000	 8.5986942135e-001	 8.8750740409e-001
 2.9958746536e+000	 8.8902196800e-001	 8.2617472752e-001
 2.9870726441e+000	 9.1816230531e-001	 7.6714158071e-001
 2.9779648066e+000	 9.4728591821e-001	 7.1051066803e-001
 2.9685503162e+000	 9.7638825273e-001	 6.5637997042e-001
 2.9588284339e+000	 1.0054647178e+000	 6.0484456426e-001
 2.9487985075e+000	 1.0345106874e+000	 5.5599849616e-001
 2.9384599733e+000	 1.0635215020e+000	 5.0993670838e-001
 2.9278123575e+000	 1.0924924711e+000	 4.6675700987e-001
 2.9168552769e+000	 1.1214188752e+000	 4.2656208721e-001
 2.9055884408e+000	 1.1502959674e+000	 3.8946154970e-001
 3.0284067183e+000	 8.6674837673e-001	 8.6808050183e-001
 3.0198416509e+000	 8.9613414375e-001	 8.1351803875e-001
 3.0109692252e+000	 9.2550760376e-001	 7.5960823978e-001
 3.0017885250e+000	 9.5486420556e-001	 7.0641215721e-001
 2.9922987187e+000	 9.8419935875e-001	 6.5398725905e-001
 2.9824990614e+000	 1.0135084356e+000	 6.0238935795e-001
 2.9723888955e+000	 1.0427867729e+000	 5.5167459663e-001
 2.9619676531e+000	 1.0720296740e+000	 5.0190148469e-001
 2.9512348563e+000	 1.1012324109e+000	 4.5313298122e-001
 2.9401901191e+000	 1.1303902262e+000	 4.0543861745e-001
 2.9288331484e+000	 1.1594983351e+000	 3.5889665328e-001
 3.0524416922e+000	 8.7362733210e-001	 8.2925529657e-001
 3.0438086481e+000	 9.0324631949e-001	 7.8216274140e-001
 3.0348658064e+000	 9.3285290220e-001	 7.3410084912e-001
 3.0256122435e+000	 9.6244249291e-001	 6.8508799166e-001
 3.0160471213e+000	 9.9201046477e-001	 6.3514007298e-001
 3.0061696888e+000	 1.0215521533e+000	 5.8427256940e-001
 2.9959792836e+000	 1.0510628584e+000	 5.3250262740e-001
 2.9854753329e+000	 1.0805378460e+000	 4.7985121336e-001
 2.9746573552e+000	 1.1099723507e+000	 4.2634530956e-001
 2.9635249613e+000	 1.1393615772e+000	 3.7202015018e-001
 2.9520778559e+000	 1.1687007029e+000	 3.1692149117e-001
 3.0764766662e+000	 8.8050628747e-001	 7.7191469726e-001
 3.0677756453e+000	 9.1035849524e-001	 7.3301054576e-001
 3.0587623875e+000	 9.4019820065e-001	 6.9153917077e-001
 3.0494359619e+000	 9.7002078026e-001	 6.4747521518e-001
 3.0397955238e+000	 9.9982157080e-001	 6.0079194744e-001
 3.0298403163e+000	 1.0295958711e+000	 5.5146341500e-001
 3.0195696717e+000	 1.0593389439e+000	 4.9946665605e-001
 3.0089830127e+000	 1.0890460181e+000	 4.4478396393e-001
 2.9980798540e+000	 1.1187122905e+000	 3.8740519813e-001
 2.9868598036e+000	 1.1483329282e+000	 3.2733013560e-001
 2.9753225634e+000	 1.1779030706e+000	 2.6457085563e-001
 3.1005116401e+000	 8.8738524285e-001	 6.9693256330e-001
 3.0917426426e+000	 9.1747067099e-001	 6.6695416641e-001
 3.0826589687e+000	 9.4754349910e-001	 6.3283404492e-001
 3.0732596804e+000	 9.7759906761e-001	 5.9450204350e-001
 3.0635439263e+000	 1.0076326768e+000	 5.5188770352e-001
 3.0535109438e+000	 1.0376395888e+000	 5.0492253115e-001
 3.0431600597e+000	 1.0676150294e+000	 4.5354232467e-001
 3.0324906925e+000	 1.0975541901e+000	 3.9768955526e-001
 3.0215023529e+000	 1.1274522302e+000	 3.3731579482e-001
 3.0101946458e+000	 1.1573042792e+000	 2.7238418431e-001
 2.9985672709e+000	 1.1871054383e+000	 2.0287193565e-001
 3.1245466141e+000	 8.9426419823e-001	 6.0517405258e-001
 3.1157096398e+000	 9.2458284674e-001	 5.8487766824e-001
 3.1065555498e+000	 9.5488879754e-001	 5.5888773296e-001
 3.0970833988e+000	 9.8517735496e-001	 5.2708820377e-001
 3.0872923289e+000	 1.0154437829e+000	 4.8936378334e-001
 3.0771815712e+000	 1.0456833066e+000	 4.4560230430e-001
 3.0667504478e+000	 1.0758911149e+000	 3.9569717392e-001
 3.0559983723e+000	 1.1060623621e+000	 3.3954987293e-001
 3.0449248518e+000	 1.1361921700e+000	 2.7707250199e-001
 3.0335294880e+000	 1.1662756302e+000	 2.0819036891e-001
 3.0218119785e+000	 1.1963078061e+000	 1.3284460938e-001
 2.7893649032e+000	 1.1042841287e+000	 3.3434217129e-001
 2.7782511856e+000	 1.1319542172e+000	 2.5602386869e-001
 2.7668398140e+000	 1.1595677832e+000	 1.6277518237e-001
 2.7551307808e+000	 1.1871202048e+000	 5.4964499071e-002
 2.7431241712e+000	 1.2146068424e+000	-6.7008056964e-002
 2.7308201633e+000	 1.2420230416e+000	-2.0270878416e-001
 2.7182190297e+000	 1.2693641349e+000	-2.3209103981e-001
 2.7053211376e+000	 1.2966254442e+000	-2.2923893992e-001
 2.6921269500e+000	 1.3238022833e+000	-2.4487961617e-001
 2.6786370258e+000	 1.3508899601e+000	-2.8002365669e-001
 2.6648520205e+000	 1.3778837792e+000	-3.3573015643e-001
 2.8126096107e+000	 1.1134864964e+000	 3.7663892451e-001
 2.8014032788e+000	 1.1413871690e+000	 2.9023064520e-001
 2.7898968124e+000	 1.1692308481e+000	 1.8885200254e-001
 2.7780902040e+000	 1.1970128732e+000	 7.2863274316e-002
 2.7659835393e+000	 1.2247285661e+000	-5.7342871478e-002
 2.7535769980e+000	 1.2523732336e+000	-1.8616484287e-001
 2.7408708549e+000	 1.2799421693e+000	-1.6844392277e-001
 2.7278654804e+000	 1.3074306562e+000	-1.6732020153e-001
 2.7145613413e+000	 1.3348339690e+000	-1.8377312621e-001
 2.7009590010e+000	 1.3621473764e+000	-2.1883452532e-001
 2.6870591207e+000	 1.3893661440e+000	-2.7358702224e-001
 2.8358543183e+000	 1.1226888642e+000	 4.0222612940e-001
 2.8245553720e+000	 1.1508201208e+000	 3.0857472635e-001
 2.8129538109e+000	 1.1788939129e+000	 1.9989854337e-001
 2.8010496272e+000	 1.2069055415e+000	 7.6548469505e-002
 2.7888429074e+000	 1.2348502898e+000	-6.1091552613e-002
 2.7763338327e+000	 1.2627234256e+000	-1.2971139045e-001
 2.7635226802e+000	 1.2905202038e+000	-1.1429076880e-001
 2.7504098233e+000	 1.3182358682e+000	-1.1450462840e-001
 2.7369957325e+000	 1.3458656546e+000	-1.3135226335e-001
 2.7232809762e+000	 1.3734047928e+000	-1.6588771396e-001
 2.7092662209e+000	 1.4008485088e+000	-2.1921815521e-001
 2.8590990258e+000	 1.1318912319e+000	 4.1218150564e-001
 2.8477074652e+000	 1.1602530726e+000	 3.1214292166e-001
 2.8360108093e+000	 1.1885569778e+000	 1.9701045880e-001
 2.8240090504e+000	 1.2167982099e+000	 6.7124325226e-002
 2.8117022754e+000	 1.2449720135e+000	-7.7141542880e-002
 2.7990906674e+000	 1.2730736177e+000	-8.3065805161e-002
 2.7861745054e+000	 1.3010982382e+000	-6.9586152787e-002
 2.7729541661e+000	 1.3290410803e+000	-7.0750146430e-002
 2.7594301238e+000	 1.3568973403e+000	-8.7577849388e-002
 2.7456029514e+000	 1.3846622091e+000	-1.2114648917e-001
 2.7314733210e+000	 1.4123308736e+000	-1.7258882000e-001
 2.8823437333e+000	 1.1410935996e+000	 4.0757347833e-001
 2.8708595585e+000	 1.1696860244e+000	 3.0201305617e-001
 2.8590678078e+000	 1.1982200427e+000	 1.8127472726e-001
 2.8469684735e+000	 1.2266908783e+000	 4.5686714496e-002
 2.8345616435e+000	 1.2550937372e+000	-7.0724708710e-002
 2.8218475021e+000	 1.2834238097e+000	-4.6186608380e-002
 2.8088263307e+000	 1.3116762727e+000	-3.4292101989e-002
 2.7954985089e+000	 1.3398462923e+000	-3.6021832050e-002
 2.7818645150e+000	 1.3679290260e+000	-5.2417556826e-002
 2.7679249266e+000	 1.3959196254e+000	-8.4580670435e-002
 2.7536804212e+000	 1.4238132385e+000	-1.3367053854e-001
 2.9055884408e+000	 1.1502959674e+000	 3.8946154970e-001
 2.8940116517e+000	 1.1791189762e+000	 2.7925432972e-001
 2.8821248062e+000	 1.2078831075e+000	 1.5376999876e-001
 2.8699278967e+000	 1.2365835466e+000	 1.3323477464e-002
 2.8574210116e+000	 1.2652154609e+000	-4.1276814963e-002
 2.8446043368e+000	 1.2937740017e+000	-1.9039767123e-002
 2.8314781559e+000	 1.3222543071e+000	-8.3777978886e-003
 2.8180428517e+000	 1.3506515043e+000	-1.0291626256e-002
 2.8042989063e+000	 1.3789607117e+000	-2.5845634841e-002
 2.7902469018e+000	 1.4071770418e+000	-5.6166367984e-002
 2.7758875214e+000	 1.4352956033e+000	-1.0244083975e-001
 2.9288331484e+000	 1.1594983351e+000	 3.5889665328e-001
 2.9171637449e+000	 1.1885519280e+000	 2.4492765929e-001
 2.9051818047e+000	 1.2175461724e+000	 1.1556692534e-001
 2.8928873199e+000	 1.2464762150e+000	-2.8885259824e-002
 2.8802803797e+000	 1.2753371846e+000	-2.1853707814e-002
 2.8673611715e+000	 1.3041241937e+000	-1.5983985609e-003
 2.8541299812e+000	 1.3328323416e+000	 8.1807076844e-003
 2.8405871945e+000	 1.3614567164e+000	 6.4619378151e-003
 2.8267332975e+000	 1.3899923974e+000	-7.8426483115e-003
 2.8125688771e+000	 1.4184344581e+000	-3.5885733205e-002
 2.7980946215e+000	 1.4467779681e+000	-7.8883021171e-002
 2.9520778559e+000	 1.1687007029e+000	 3.1692149117e-001
 2.9403158381e+000	 1.1979848799e+000	 2.0008600510e-001
 2.9282388031e+000	 1.2272092372e+000	 6.7728475953e-002
 2.9158467430e+000	 1.2563688834e+000	-3.9395292110e-002
 2.9031397478e+000	 1.2854589082e+000	-1.2432252075e-002
 2.8901180061e+000	 1.3144743857e+000	 6.1575114716e-003
 2.8767818064e+000	 1.3434103761e+000	 1.5400763042e-002
 2.8631315373e+000	 1.3722619284e+000	 1.4253994416e-002
 2.8491676888e+000	 1.4010240831e+000	 1.6047708349e-003
 2.8348908523e+000	 1.4296918744e+000	-2.3726720788e-002
 2.8203017217e+000	 1.4582603330e+000	-6.2985921847e-002
 2.9753225634e+000	 1.1779030706e+000	 2.6457085563e-001
 2.9634679313e+000	 1.2074178317e+000	 1.4577468135e-001
 2.9512958016e+000	 1.2368723021e+000	 1.1310236621e-002
 2.9388061662e+000	 1.2662615518e+000	-3.7426053043e-002
 2.9259991159e+000	 1.2955806319e+000	-1.2996172579e-002
 2.9128748408e+000	 1.3248245777e+000	 4.2413767902e-003
 2.8994336316e+000	 1.3539884105e+000	 1.3293374443e-002
 2.8856758801e+000	 1.3830671404e+000	 1.3093592555e-002
 2.8716020800e+000	 1.4120557688e+000	 2.5041606163e-003
 2.8572128275e+000	 1.4409492908e+000	-1.9682862037e-002
 2.8425088219e+000	 1.4697426978e+000	-5.4743705859e-002
 2.9985672709e+000	 1.1871054383e+000	 2.0287193565e-001
 2.9866200245e+000	 1.2168507835e+000	 8.3031652668e-002
 2.9743528000e+000	 1.2465353670e+000	-5.2639303442e-002
 2.9617655894e+000	 1.2761542201e+000	-4.5710676983e-002
 2.9488584840e+000	 1.3057023556e+000	-2.3535788286e-002
 2.9356316755e+000	 1.3351747697e+000	-7.3397333151e-003
 2.9220854569e+000	 1.3645664450e+000	 1.8634519138e-003
 2.9082202229e+000	 1.3938723525e+000	 2.9839318604e-003
 2.8940364712e+000	 1.4230874545e+000	-5.1425450332e-003
 2.8795348027e+000	 1.4522067071e+000	-2.3753048715e-002
 2.8647159220e+000	 1.4812250626e+000	-5.4155655934e-002
 3.0218119785e+000	 1.1963078061e+000	 1.3284460938e-001
 3.0097721177e+000	 1.2262837353e+000	 1.2887816710e-002
 2.9974097985e+000	 1.2561984318e+000	-8.8214714536e-002
 2.9847250126e+000	 1.2860468885e+000	-6.4242997256e-002
 2.9717178521e+000	 1.3158240793e+000	-4.4047758667e-002
 2.9583885102e+000	 1.3455249618e+000	-2.8584850058e-002
 2.9447372821e+000	 1.3751444794e+000	-1.8889956286e-002
 2.9307645658e+000	 1.4046775645e+000	-1.6077412447e-002
 2.9164708625e+000	 1.4341191402e+000	-2.1338800722e-002
 2.9018567779e+000	 1.4634641235e+000	-3.5941326883e-002
 2.8869230222e+000	 1.4927074274e+000	-6.1225976572e-002
 2.6648520205e+000	 1.3778837792e+000	-3.3573015643e-001
 2.6507726869e+000	 1.4047790439e+000	-3.9401860542e-001
 2.6363998752e+000	 1.4315710593e+000	-4.4625380146e-001
 2.6217345334e+000	 1.4582551343e+000	-4.9345623515e-001
 2.6067777073e+000	 1.4848265841e+000	-5.3671172445e-001
 2.5915305413e+000	 1.5112807329e+000	-5.7716945808e-001
 2.5759942776e+000	 1.5376129167e+000	-6.1603986119e-001
 2.5601702572e+000	 1.5638184851e+000	-6.5459228630e-001
 2.5440599187e+000	 1.5898928045e+000	-6.9415253354e-001
 2.5276647993e+000	 1.6158312605e+000	-7.3610020426e-001
 2.5109865337e+000	 1.6416292602e+000	-7.8186589294e-001
 2.6870591207e+000	 1.3893661440e+000	-2.7358702224e-001
 2.6728624593e+000	 1.4164855360e+000	-3.2892050823e-001
 2.6583698742e+000	 1.4435008182e+000	-3.7763508733e-001
 2.6435823211e+000	 1.4704072604e+000	-4.2083999884e-001
 2.6285008549e+000	 1.4972001389e+000	-4.5971233318e-001
 2.6131266291e+000	 1.5238747391e+000	-4.9549496739e-001
 2.5974608966e+000	 1.5504263577e+000	-5.2949431668e-001
 2.5815050093e+000	 1.5768503058e+000	-5.6307790529e-001
 2.5652604181e+000	 1.6031419112e+000	-5.9767176071e-001
 2.5487286726e+000	 1.6292965210e+000	-6.3475763568e-001
 2.5319114214e+000	 1.6553095040e+000	-6.7587006310e-001
 2.7092662209e+000	 1.4008485088e+000	-2.1921815521e-001
 2.6949522317e+000	 1.4281920280e+000	-2.7263179203e-001
 2.6803398731e+000	 1.4554305770e+000	-3.1883679500e-001
 2.6654301089e+000	 1.4825593865e+000	-3.5903160560e-001
 2.6502240024e+000	 1.5095736938e+000	-3.9448508379e-001
 2.6347227169e+000	 1.5364687452e+000	-4.2653433480e-001
 2.6189275156e+000	 1.5632397986e+000	-4.5658234566e-001
 2.6028397614e+000	 1.5898821265e+000	-4.8609543493e-001
 2.5864609174e+000	 1.6163910179e+000	-5.1660051990e-001
 2.5697925460e+000	 1.6427617815e+000	-5.4968220576e-001
 2.5528363092e+000	 1.6689897478e+000	-5.8697970214e-001
 2.7314733210e+000	 1.4123308736e+000	-1.7258882000e-001
 2.7170420041e+000	 1.4398985200e+000	-2.2508203788e-001
 2.7023098721e+000	 1.4673603358e+000	-2.6975242295e-001
 2.6872778967e+000	 1.4947115126e+000	-3.0788809593e-001
 2.6719471500e+000	 1.5219472487e+000	-3.4085020759e-001
 2.6563188048e+000	 1.5490627513e+000	-3.7007065599e-001
 2.6403941346e+000	 1.5760532396e+000	-3.9704960705e-001
 2.6241745136e+000	 1.6029139472e+000	-4.2335282222e-001
 2.6076614167e+000	 1.6296401246e+000	-4.5060879739e-001
 2.5908564193e+000	 1.6562270420e+000	-4.8050571808e-001
 2.5737611970e+000	 1.6826699917e+000	-5.1478823640e-001
 2.7536804212e+000	 1.4238132385e+000	-1.3367053854e-001
 2.7391317765e+000	 1.4516050121e+000	-1.8620799215e-001
 2.7242798711e+000	 1.4792900947e+000	-2.3028354431e-001
 2.7091256845e+000	 1.5068636388e+000	-2.6727549516e-001
 2.6936702975e+000	 1.5343208035e+000	-2.9863783135e-001
 2.6779148926e+000	 1.5616567574e+000	-3.2589783275e-001
 2.6618607536e+000	 1.5888666806e+000	-3.5065347623e-001
 2.6455092657e+000	 1.6159457679e+000	-3.7457064004e-001
 2.6288619160e+000	 1.6428892313e+000	-3.9938011349e-001
 2.6119202926e+000	 1.6696923025e+000	-4.2687441680e-001
 2.5946860848e+000	 1.6963502355e+000	-4.5890443714e-001
 2.7758875214e+000	 1.4352956033e+000	-1.0244083975e-001
 2.7612215489e+000	 1.4633115041e+000	-1.5595327991e-001
 2.7462498700e+000	 1.4912198535e+000	-2.0033948381e-001
 2.7309734722e+000	 1.5190157649e+000	-2.3706845403e-001
 2.7153934451e+000	 1.5466943584e+000	-2.6768758147e-001
 2.6995109805e+000	 1.5742507635e+000	-2.9382014079e-001
 2.6833273725e+000	 1.6016801216e+000	-3.1716257630e-001
 2.6668440179e+000	 1.6289775887e+000	-3.3948158209e-001
 2.6500624153e+000	 1.6561383380e+000	-3.6261098120e-001
 2.6329841659e+000	 1.6831575630e+000	-3.8844840897e-001
 2.6156109726e+000	 1.7100304793e+000	-4.1895180674e-001
 2.7980946215e+000	 1.4467779681e+000	-7.8883021171e-002
 2.7833113213e+000	 1.4750179961e+000	-1.3426813194e-001
 2.7682198690e+000	 1.5031496123e+000	-1.7983701022e-001
 2.7528212600e+000	 1.5311678910e+000	-2.1714990642e-001
 2.7371165927e+000	 1.5590679133e+000	-2.4784820704e-001
 2.7211070683e+000	 1.5868447696e+000	-2.7365181803e-001
 2.7047939915e+000	 1.6144935625e+000	-2.9635633179e-001
 2.6881787700e+000	 1.6420094094e+000	-3.1782998190e-001
 2.6712629147e+000	 1.6693874448e+000	-3.4001039062e-001
 2.6540480393e+000	 1.6966228235e+000	-3.6490111446e-001
 2.6365358603e+000	 1.7237107232e+000	-3.9456799412e-001
 2.8203017217e+000	 1.4582603330e+000	-6.2985921847e-002
 2.8054010937e+000	 1.4867244882e+000	-1.2110912468e-001
 2.7901898679e+000	 1.5150793711e+000	-1.6870004329e-001
 2.7746690478e+000	 1.5433200171e+000	-2.0741074323e-001
 2.7588397402e+000	 1.5714414681e+000	-2.3897722064e-001
 2.7427031562e+000	 1.5994387757e+000	-2.6521667241e-001
 2.7262606105e+000	 1.6273070035e+000	-2.8802454339e-001
 2.7095135222e+000	 1.6550412301e+000	-3.0937135459e-001
 2.6924634140e+000	 1.6826365515e+000	-3.3129931776e-001
 2.6751119126e+000	 1.7100880840e+000	-3.5591874183e-001
 2.6574607481e+000	 1.7373909670e+000	-3.8540423778e-001
 2.8425088219e+000	 1.4697426978e+000	-5.4743705859e-002
 2.8274908661e+000	 1.4984309802e+000	-1.1643893236e-001
 2.8121598669e+000	 1.5270091300e+000	-1.6685937437e-001
 2.7965168356e+000	 1.5554721432e+000	-2.0774950160e-001
 2.7805628878e+000	 1.5838150230e+000	-2.4094055603e-001
 2.7642992440e+000	 1.6120327818e+000	-2.6834770805e-001
 2.7477272295e+000	 1.6401204445e+000	-2.9196698265e-001
 2.7308482743e+000	 1.6680730508e+000	-3.1387196009e-001
 2.7136639133e+000	 1.6958856582e+000	-3.3621025627e-001
 2.6961757859e+000	 1.7235533445e+000	-3.6119978875e-001
 2.6783856359e+000	 1.7510712108e+000	-3.9112483500e-001
 2.8647159220e+000	 1.4812250626e+000	-5.4155655934e-002
 2.8495806385e+000	 1.5101374722e+000	-1.2022609064e-001
 2.8341298659e+000	 1.5389388888e+000	-1.7425240008e-001
 2.8183646234e+000	 1.5676242694e+000	-2.1807206849e-001
 2.8022860354e+000	 1.5961885779e+000	-2.5361224179e-001
 2.7858953319e+000	 1.6246267879e+000	-2.8288676882e-001
 2.7691938485e+000	 1.6529338855e+000	-3.0799300548e-001
 2.7521830265e+000	 1.6811048715e+000	-3.3110838665e-001
 2.7348644126e+000	 1.7091347649e+000	-3.5448677110e-001
 2.7172396593e+000	 1.7370186050e+000	-3.8045456570e-001
 2.6993105237e+000	 1.7647514547e+000	-4.1140663564e-001
 2.8869230222e+000	 1.4927074274e+000	-6.1225976572e-002
 2.8716704108e+000	 1.5218439643e+000	-1.3244477116e-001
 2.8560998648e+000	 1.5508686476e+000	-1.9082286831e-001
 2.8402124111e+000	 1.5797763955e+000	-2.3829139803e-001
 2.8240091829e+000	 1.6085621327e+000	-2.7687408991e-001
 2.8074914197e+000	 1.6372207940e+000	-3.0868419833e-001
 2.7906604674e+000	 1.6657473264e+000	-3.3592118354e-001
 2.7735177786e+000	 1.6941366922e+000	-3.6086715361e-001
 2.7560649120e+000	 1.7223838716e+000	-3.8588307262e-001
 2.7383035326e+000	 1.7504838655e+000	-4.1340474161e-001
 2.7202354115e+000	 1.7784316985e+000	-4.4593855937e-001
 2.5109865337e+000	 1.6416292602e+000	-7.8186589294e-001
 2.4940268541e+000	 1.6672822350e+000	-7.2320447685e-001
 2.4767875899e+000	 1.6927856434e+000	-7.9611633244e-001
 2.4592706672e+000	 1.7181349730e+000	-8.6477081782e-001
 2.4414781082e+000	 1.7433257434e+000	-9.2790035916e-001
 2.4234120303e+000	 1.7683535086e+000	-9.8421372812e-001
 2.4050746461e+000	 1.7932138597e+000	-1.0323994358e+000
 2.3864682618e+000	 1.8179024274e+000	-1.0711292070e+000
 2.3675952769e+000	 1.8424148840e+000	-1.0990615266e+000
 2.3484581830e+000	 1.8667469467e+000	-1.1148452481e+000
 2.3290595627e+000	 1.8908943792e+000	-1.0073449201e+000
 2.5319114214e+000	 1.6553095040e+000	-6.7587006310e-001
 2.5148104112e+000	 1.6811762537e+000	-5.7466893947e-001
 2.4974274865e+000	 1.7068921905e+000	-5.0506894105e-001
 2.4797645894e+000	 1.7324527644e+000	-6.1406540150e-001
 2.4618237591e+000	 1.7578534579e+000	-7.2015868042e-001
 2.4436071306e+000	 1.7830897878e+000	-8.2188371809e-001
 2.4251169348e+000	 1.8081573086e+000	-9.1775180882e-001
 2.4063554973e+000	 1.8330516143e+000	-1.0062542982e+000
 2.3873252375e+000	 1.8577683414e+000	-1.0858663583e+000
 2.3680286678e+000	 1.8823031712e+000	-1.1062043186e+000
 2.3484683924e+000	 1.9066518324e+000	-9.9061760717e-001
 2.5528363092e+000	 1.6689897478e+000	-5.8697970214e-001
 2.5355939683e+000	 1.6950702723e+000	-5.1284406126e-001
 2.5180673831e+000	 1.7209987375e+000	-4.4163387175e-001
 2.5002585117e+000	 1.7467705559e+000	-3.7621782585e-001
 2.4821694100e+000	 1.7723811724e+000	-5.2016428703e-001
 2.4638022308e+000	 1.7978260671e+000	-6.6517558557e-001
 2.4451592235e+000	 1.8231007574e+000	-8.0657769887e-001
 2.4262427328e+000	 1.8482008012e+000	-9.4268124759e-001
 2.4070551982e+000	 1.8731217988e+000	-1.0717777528e+000
 2.3875991527e+000	 1.8978593958e+000	-1.0378508570e+000
 2.3678772221e+000	 1.9224092855e+000	-9.6574956300e-001
 2.5737611970e+000	 1.6826699917e+000	-5.1478823640e-001
 2.5563775254e+000	 1.7089642909e+000	-4.6478116547e-001
 2.5387072796e+000	 1.7351052845e+000	-4.1974002154e-001
 2.5207524339e+000	 1.7610883473e+000	-3.8250872728e-001
 2.5025150609e+000	 1.7869088869e+000	-3.5598082288e-001
 2.4839973311e+000	 1.8125623463e+000	-5.1412426694e-001
 2.4652015122e+000	 1.8380442062e+000	-6.9899333279e-001
 2.4461299684e+000	 1.8633499881e+000	-8.8060834354e-001
 2.4267851588e+000	 1.8884752561e+000	-9.7108609982e-001
 2.4071696375e+000	 1.9134156203e+000	-9.6505180664e-001
 2.3872860518e+000	 1.9381667387e+000	-9.3342467143e-001
 2.5946860848e+000	 1.6963502355e+000	-4.5890443714e-001
 2.5771610825e+000	 1.7228583095e+000	-4.3014133747e-001
 2.5593471762e+000	 1.7492118315e+000	-4.0833607397e-001
 2.5412463561e+000	 1.7754061388e+000	-3.9631034924e-001
 2.5228607118e+000	 1.8014366015e+000	-3.9693454883e-001
 2.5041924313e+000	 1.8272986255e+000	-4.1312272787e-001
 2.4852438010e+000	 1.8529876551e+000	-5.9511729649e-001
 2.4660172039e+000	 1.8784991749e+000	-7.9960452564e-001
 2.4465151195e+000	 1.9038287135e+000	-8.5752253177e-001
 2.4267401224e+000	 1.9289718449e+000	-8.8842017416e-001
 2.4066948815e+000	 1.9539241918e+000	-8.9432003664e-001
 2.6156109726e+000	 1.7100304793e+000	-4.1895180674e-001
 2.5979446396e+000	 1.7367523282e+000	-4.0859838089e-001
 2.5799870728e+000	 1.7633183786e+000	-4.0714672366e-001
 2.5617402783e+000	 1.7897239302e+000	-4.1739885510e-001
 2.5432063627e+000	 1.8159643160e+000	-4.4220460136e-001
 2.5243875316e+000	 1.8420349048e+000	-4.8445654096e-001
 2.5052860897e+000	 1.8679311039e+000	-5.4708480189e-001
 2.4859044394e+000	 1.8936483618e+000	-6.5217058461e-001
 2.4662450801e+000	 1.9191821709e+000	-7.4357261882e-001
 2.4463106072e+000	 1.9445280695e+000	-8.0856468103e-001
 2.4261037112e+000	 1.9696816450e+000	-8.4910625431e-001
 2.6365358603e+000	 1.7237107232e+000	-3.9456799412e-001
 2.6187281968e+000	 1.7506463468e+000	-3.9983831290e-001
 2.6006269694e+000	 1.7774249256e+000	-4.1590691965e-001
 2.5822342006e+000	 1.8040417216e+000	-4.4555867838e-001
 2.5635520136e+000	 1.8304920305e+000	-4.9162543966e-001
 2.5445826318e+000	 1.8567711840e+000	-5.5698094361e-001
 2.5253283784e+000	 1.8828745527e+000	-6.0320116626e-001
 2.5057916749e+000	 1.9087975487e+000	-5.5974713587e-001
 2.4859750407e+000	 1.9345356282e+000	-6.2978146944e-001
 2.4658810921e+000	 1.9600842940e+000	-7.2608993389e-001
 2.4455125409e+000	 1.9854390982e+000	-7.9844766989e-001
 2.6574607481e+000	 1.7373909670e+000	-3.8540423778e-001
 2.6395117539e+000	 1.7645403654e+000	-4.0355888337e-001
 2.6212668660e+000	 1.7915314726e+000	-4.3436146177e-001
 2.6027281228e+000	 1.8183595131e+000	-4.8058219718e-001
 2.5838976645e+000	 1.8450197450e+000	-5.4503753797e-001
 2.5647777321e+000	 1.8715074632e+000	-6.3058501323e-001
 2.5453706671e+000	 1.8978180015e+000	-6.2136082561e-001
 2.5256789104e+000	 1.9239467356e+000	-5.9327155054e-001
 2.5057050014e+000	 1.9498890856e+000	-5.6327922253e-001
 2.4854515770e+000	 1.9756405186e+000	-6.4159658641e-001
 2.4649213705e+000	 2.0011965513e+000	-7.4300262464e-001
 2.6783856359e+000	 1.7510712108e+000	-3.9112483500e-001
 2.6602953110e+000	 1.7784343840e+000	-4.1946911655e-001
 2.6419067626e+000	 1.8056380196e+000	-4.6226461579e-001
 2.6232220450e+000	 1.8326773045e+000	-5.2226942384e-001
 2.6042433154e+000	 1.8595474596e+000	-6.0228715056e-001
 2.5849728324e+000	 1.8862437425e+000	-6.5321469452e-001
 2.5654129558e+000	 1.9127614504e+000	-6.3895386928e-001
 2.5455661459e+000	 1.9390959225e+000	-6.2367931946e-001
 2.5254349620e+000	 1.9652425429e+000	-6.0800934829e-001
 2.5050220618e+000	 1.9911967431e+000	-5.9256581480e-001
 2.4843302002e+000	 2.0169540045e+000	-6.8342369022e-001
 2.6993105237e+000	 1.7647514547e+000	-4.1140663564e-001
 2.6810788681e+000	 1.7923284027e+000	-4.4728887409e-001
 2.6625466591e+000	 1.8197445667e+000	-4.9937974653e-001
 2.6437159673e+000	 1.8469950960e+000	-5.7042770905e-001
 2.6245889663e+000	 1.8740751741e+000	-6.6322608770e-001
 2.6051679326e+000	 1.9009800217e+000	-6.6146792477e-001
 2.5854552446e+000	 1.9277048992e+000	-6.5595729086e-001
 2.5654533815e+000	 1.9542451094e+000	-6.5100490082e-001
 2.5451649227e+000	 1.9805960003e+000	-6.4714010522e-001
 2.5245925467e+000	 2.0067529677e+000	-6.4489410918e-001
 2.5037390299e+000	 2.0327114576e+000	-6.4479935773e-001
 2.7202354115e+000	 1.7784316985e+000	-4.4593855937e-001
 2.7018624252e+000	 1.8062224213e+000	-4.8674843823e-001
 2.6831865557e+000	 1.8338511137e+000	-5.4547896792e-001
 2.6642098895e+000	 1.8613128874e+000	-6.2487145956e-001
 2.6449346172e+000	 1.8886028886e+000	-6.7235824905e-001
 2.6253630329e+000	 1.9157163009e+000	-6.7152202592e-001
 2.6054975333e+000	 1.9426483480e+000	-6.7234993948e-001
 2.5853406170e+000	 1.9693942963e+000	-6.7528283687e-001
 2.5648948833e+000	 1.9959494577e+000	-6.8076226036e-001
 2.5441630315e+000	 2.0223091922e+000	-6.8922992609e-001
 2.5231478596e+000	 2.0484689108e+000	-7.0112719579e-001
 2.3290595627e+000	 1.8908943792e+000	-1.0073449201e+000
 2.3094020889e+000	 1.9148529948e+000	-1.0608019450e+000
 2.2894885232e+000	 1.9386186582e+000	-1.1033522470e+000
 2.2693217148e+000	 1.9621872884e+000	-1.1360372245e+000
 2.2489045992e+000	 1.9855548604e+000	-1.1599347237e+000
 2.2282401967e+000	 2.0087174082e+000	-1.1761566133e+000
 2.2073316110e+000	 2.0316710262e+000	-1.1858462590e+000
 2.1861820279e+000	 2.0544118722e+000	-1.1901759081e+000
 2.1647947132e+000	 2.0769361689e+000	-1.1903439858e+000
 2.1431730113e+000	 2.0992402062e+000	-1.1875723147e+000
 2.1213203436e+000	 2.1213203435e+000	-1.1831032611e+000
 2.3484683924e+000	 1.9066518324e+000	-9.9061760717e-001
 2.3286471064e+000	 1.9308101031e+000	-1.0551926042e+000
 2.3085675943e+000	 1.9547738137e+000	-1.1064205778e+000
 2.2882327291e+000	 1.9785388491e+000	-1.1453900802e+000
 2.2676454708e+000	 2.0021011509e+000	-1.1732292367e+000
 2.2468088650e+000	 2.0254567199e+000	-1.1911032395e+000
 2.2257260411e+000	 2.0486016181e+000	-1.2002117373e+000
 2.2044002115e+000	 2.0715319712e+000	-1.2017861275e+000
 2.1828346691e+000	 2.0942439703e+000	-1.1970867572e+000
 2.1610327864e+000	 2.1167338746e+000	-1.1874000413e+000
 2.1389980131e+000	 2.1389980131e+000	-1.1740355027e+000
 2.3678772221e+000	 1.9224092855e+000	-9.6574956300e-001
 2.3478921238e+000	 1.9467672113e+000	-1.0415346458e+000
 2.3276466653e+000	 1.9709289692e+000	-1.1015398549e+000
 2.3071437434e+000	 1.9948904098e+000	-1.1469016919e+000
 2.2863863425e+000	 2.0186474414e+000	-1.1787993713e+000
 2.2653775333e+000	 2.0421960316e+000	-1.1984522320e+000
 2.2441204712e+000	 2.0655322100e+000	-1.2071170399e+000
 2.2226183951e+000	 2.0886520701e+000	-1.2060851874e+000
 2.2008746251e+000	 2.1115517717e+000	-1.1966797968e+000
 2.1788925615e+000	 2.1342275430e+000	-1.1802527351e+000
 2.1566756826e+000	 2.1566756826e+000	-1.1581815474e+000
 2.3872860518e+000	 1.9381667387e+000	-9.3342467143e-001
 2.3671371412e+000	 1.9627243196e+000	-1.0205001981e+000
 2.3467257363e+000	 1.9870841247e+000	-1.0893694410e+000
 2.3260547577e+000	 2.0112419706e+000	-1.1412176589e+000
 2.3051272142e+000	 2.0351937319e+000	-1.1772759778e+000
 2.2839462016e+000	 2.0589353434e+000	-1.1988187198e+000
 2.2625149013e+000	 2.0824628019e+000	-1.2071606165e+000
 2.2408365786e+000	 2.1057721690e+000	-1.2036539149e+000
 2.2189145810e+000	 2.1288595731e+000	-1.1896853809e+000
 2.1967523366e+000	 2.1517212114e+000	-1.1666732102e+000
 2.1743533521e+000	 2.1743533521e+000	-1.1360638524e+000
 2.4066948815e+000	 1.9539241918e+000	-8.9432003664e-001
 2.3863821586e+000	 1.9786814279e+000	-9.9275480441e-001
 2.3658048074e+000	 2.0032392801e+000	-1.0705623317e+000
 2.3449657720e+000	 2.0275935313e+000	-1.1289774533e+000
 2.3238680858e+000	 2.0517400224e+000	-1.1692840417e+000
 2.3025148699e+000	 2.0756746551e+000	-1.1928122515e+000
 2.2809093314e+000	 2.0993933938e+000	-1.2009356430e+000
 2.2590547622e+000	 2.1228922680e+000	-1.1950681915e+000
 2.2369545370e+000	 2.1461673745e+000	-1.1766611909e+000
 2.2146121117e+000	 2.1692148798e+000	-1.1472000578e+000
 2.1920310217e+000	 2.1920310217e+000	-1.1082010458e+000
 2.4261037112e+000	 1.9696816450e+000	-8.4910625431e-001
 2.4056271760e+000	 1.9946385362e+000	-9.5895768697e-001
 2.3848838784e+000	 2.0193944356e+000	-1.0457654102e+000
 2.3638767863e+000	 2.0439450920e+000	-1.1108146650e+000
 2.3426089575e+000	 2.0682863129e+000	-1.1554429179e+000
 2.3210835382e+000	 2.0924139668e+000	-1.1810370187e+000
 2.2993037615e+000	 2.1163239857e+000	-1.1890302324e+000
 2.2772729458e+000	 2.1400123669e+000	-1.1808991515e+000
 2.2549944929e+000	 2.1634751759e+000	-1.1581604970e+000
 2.2324718868e+000	 2.1867085482e+000	-1.1223678153e+000
 2.2097086912e+000	 2.2097086912e+000	-1.0751080797e+000
 2.4455125409e+000	 1.9854390982e+000	-7.9844766989e-001
 2.4248721934e+000	 2.0105956445e+000	-9.1976199750e-001
 2.4039629494e+000	 2.0355495911e+000	-1.0156196895e+000
 2.3827878006e+000	 2.0602966528e+000	-1.0873572354e+000
 2.3613498291e+000	 2.0848326034e+000	-1.1363665548e+000
 2.3396522065e+000	 2.1091532786e+000	-1.1640920682e+000
 2.3176981916e+000	 2.1332545775e+000	-1.1720276357e+000
 2.2954911293e+000	 2.1571324658e+000	-1.1617133699e+000
 2.2730344489e+000	 2.1807829773e+000	-1.1347323336e+000
 2.2503316619e+000	 2.2042022166e+000	-1.0927071270e+000
 2.2273863607e+000	 2.2273863607e+000	-1.0372963758e+000
 2.4649213705e+000	 2.0011965513e+000	-7.4300262464e-001
 2.4441172108e+000	 2.0265527528e+000	-8.7581505632e-001
 2.4230420204e+000	 2.0517047466e+000	-9.8076054417e-001
 2.4016988149e+000	 2.0766482135e+000	-1.0592276793e+000
 2.3800907008e+000	 2.1013788939e+000	-1.1126637063e+000
 2.3582208748e+000	 2.1258925903e+000	-1.1425715048e+000
 2.3360926217e+000	 2.1501851694e+000	-1.1505064332e+000
 2.3137093129e+000	 2.1742525648e+000	-1.1380730422e+000
 2.2910744048e+000	 2.1980907787e+000	-1.1069216655e+000
 2.2681914370e+000	 2.2216958849e+000	-1.0587448974e+000
 2.2450640303e+000	 2.2450640303e+000	-9.9527396451e-001
 2.4843302002e+000	 2.0169540045e+000	-6.8342369022e-001
 2.4633622282e+000	 2.0425098611e+000	-8.2775858009e-001
 2.4421210915e+000	 2.0678599021e+000	-9.4181793004e-001
 2.4206098292e+000	 2.0929997742e+000	-1.0270432975e+000
 2.3988315725e+000	 2.1179251844e+000	-1.0849381355e+000
 2.3767895431e+000	 2.1426319020e+000	-1.1170646841e+000
 2.3544870518e+000	 2.1671157613e+000	-1.1250407174e+000
 2.3319274965e+000	 2.1913726637e+000	-1.1105361554e+000
 2.3091143607e+000	 2.2153985802e+000	-1.0752695475e+000
 2.2860512121e+000	 2.2391895533e+000	-1.0210044374e+000
 2.2627416998e+000	 2.2627416998e+000	-9.4954561763e-001
 2.5037390299e+000	 2.0327114576e+000	-6.4479935773e-001
 2.4826072456e+000	 2.0584669694e+000	-7.7622889902e-001
 2.4612001625e+000	 2.0840150576e+000	-8.9941659451e-001
 2.4395208435e+000	 2.1093513350e+000	-9.9141637831e-001
 2.4175724441e+000	 2.1344714749e+000	-1.0537888077e+000
 2.3953582114e+000	 2.1593712138e+000	-1.0881563968e+000
 2.3728814819e+000	 2.1840463532e+000	-1.0962002663e+000
 2.3501456800e+000	 2.2084927626e+000	-1.0796566510e+000
 2.3271543167e+000	 2.2327063816e+000	-1.0403132754e+000
 2.3039109872e+000	 2.2566832217e+000	-9.8000560334e-001
 2.2804193693e+000	 2.2804193693e+000	-9.0061297435e-001
 2.5231478596e+000	 2.0484689108e+000	-7.0112719579e-001
 2.5018522630e+000	 2.0744240777e+000	-7.3249822004e-001
 2.4802792335e+000	 2.1001702130e+000	-8.5417627679e-001
 2.4584318577e+000	 2.1257028957e+000	-9.5295439077e-001
 2.4363133158e+000	 2.1510177654e+000	-1.0198100750e+000
 2.4139268797e+000	 2.1761105255e+000	-1.0564270444e+000
 2.3912759120e+000	 2.2009769451e+000	-1.0645507097e+000
 2.3683638636e+000	 2.2256128616e+000	-1.0459845809e+000
 2.3451942726e+000	 2.2500141830e+000	-1.0025865308e+000
 2.3217707623e+000	 2.2741768901e+000	-9.3626493008e-001
 2.2980970388e+000	 2.2980970388e+000	-8.4897466192e-001
 2.1213203436e+000	 2.1213203435e+000	-1.1831032611e+000
 2.0992402062e+000	 2.1431730113e+000	-1.2140004680e+000
 2.0769361689e+000	 2.1647947132e+000	-1.2323491372e+000
 2.0544118722e+000	 2.1861820279e+000	-1.2390953055e+000
 2.0316710262e+000	 2.2073316110e+000	-1.2352093834e+000
 2.0087174082e+000	 2.2282401967e+000	-1.2216833873e+000
 1.9855548604e+000	 2.2489045992e+000	-1.1995281258e+000
 1.9621872884e+000	 2.2693217148e+000	-1.1697703443e+000
 1.9386186582e+000	 2.2894885232e+000	-1.1334498391e+000
 1.9148529948e+000	 2.3094020889e+000	-1.0916165462e+000
 1.8908943792e+000	 2.3290595627e+000	-1.0453276147e+000
 2.1389980131e+000	 2.1389980131e+000	-1.1740355027e+000
 2.1167338746e+000	 2.1610327864e+000	-1.1882606130e+000
 2.0942439703e+000	 2.1828346691e+000	-1.1932276790e+000
 2.0715319712e+000	 2.2044002115e+000	-1.1900118914e+000
 2.0486016181e+000	 2.2257260411e+000	-1.1797099798e+000
 2.0254567199e+000	 2.2468088650e+000	-1.1634372709e+000
 2.0021011509e+000	 2.2676454708e+000	-1.1423247020e+000
 1.9785388491e+000	 2.2882327291e+000	-1.1175157997e+000
 1.9547738137e+000	 2.3085675943e+000	-1.0901636298e+000
 1.9308101031e+000	 2.3286471064e+000	-1.0614277281e+000
 1.9066518324e+000	 2.3484683924e+000	-1.0324710206e+000
 2.1566756826e+000	 2.1566756826e+000	-1.1581815474e+000
 2.1342275430e+000	 2.1788925615e+000	-1.1575181269e+000
 2.1115517717e+000	 2.2008746251e+000	-1.1508191686e+000
 2.0886520701e+000	 2.2226183951e+000	-1.1392891876e+000
 2.0655322100e+000	 2.2441204712e+000	-1.1241514566e+000
 2.0421960316e+000	 2.2653775333e+000	-1.1066448889e+000
 2.0186474414e+000	 2.2863863425e+000	-1.0880208786e+000
 1.9948904098e+000	 2.3071437434e+000	-1.0695401108e+000
 1.9709289692e+000	 2.3276466653e+000	-1.0524693471e+000
 1.9467672113e+000	 2.3478921238e+000	-1.0380781965e+000
 1.9224092855e+000	 2.3678772221e+000	-1.0276358806e+000
 2.1743533521e+000	 2.1743533521e+000	-1.1360638524e+000
 2.1517212114e+000	 2.1967523366e+000	-1.1222357035e+000
 2.1288595731e+000	 2.2189145810e+000	-1.1055277235e+000
 2.1057721690e+000	 2.2408365786e+000	-1.0872739579e+000
 2.0824628019e+000	 2.2625149013e+000	-1.0688244826e+000
 2.0589353434e+000	 2.2839462016e+000	-1.0515421081e+000
 2.0351937319e+000	 2.3051272142e+000	-1.0367990471e+000
 2.0112419706e+000	 2.3260547577e+000	-1.0259735535e+000
 1.9870841247e+000	 2.3467257363e+000	-1.0204465431e+000
 1.9627243196e+000	 2.3671371412e+000	-1.0215982027e+000
 1.9381667387e+000	 2.3872860518e+000	-1.0308045991e+000
 2.1920310217e+000	 2.1920310217e+000	-1.1082010458e+000
 2.1692148798e+000	 2.2146121117e+000	-1.0828738654e+000
 2.1461673745e+000	 2.2369545370e+000	-1.0577569023e+000
 2.1228922680e+000	 2.2590547622e+000	-1.0343139749e+000
 2.0993933938e+000	 2.2809093314e+000	-1.0140222560e+000
 2.0756746551e+000	 2.3025148699e+000	-9.9836879843e-001
 2.0517400224e+000	 2.3238680858e+000	-9.8884702779e-001
 2.0275935313e+000	 2.3449657720e+000	-9.8695321018e-001
 2.0032392801e+000	 2.3658048074e+000	-9.9418290509e-001
 1.9786814279e+000	 2.3863821586e+000	-1.0120274124e+000
 1.9539241918e+000	 2.4066948815e+000	-1.0419702228e+000
 2.2097086912e+000	 2.2097086912e+000	-1.0751080797e+000
 2.1867085482e+000	 2.2324718868e+000	-1.0398910501e+000
 2.1634751759e+000	 2.2549944929e+000	-1.0079097274e+000
 2.1400123669e+000	 2.2772729458e+000	-9.8075797926e-001
 2.1163239857e+000	 2.2993037615e+000	-9.6004040312e-001
 2.0924139668e+000	 2.3210835382e+000	-9.4736867256e-001
 2.0682863129e+000	 2.3426089575e+000	-9.4435785316e-001
 2.0439450920e+000	 2.3638767863e+000	-9.5262269766e-001
 2.0193944356e+000	 2.3848838784e+000	-9.7377393011e-001
 1.9946385362e+000	 2.4056271760e+000	-1.0094145285e+000
 1.9696816450e+000	 2.4261037112e+000	-1.0611360160e+000
 2.2273863607e+000	 2.2273863607e+000	-1.0372963758e+000
 2.2042022166e+000	 2.2503316619e+000	-9.9374369345e-001
 2.1807829773e+000	 2.2730344489e+000	-9.5638870631e-001
 2.1571324658e+000	 2.2954911293e+000	-9.2695564142e-001
 2.1332545775e+000	 2.3176981916e+000	-9.0717688228e-001
 2.1091532786e+000	 2.3396522065e+000	-8.9878913385e-001
 2.0848326034e+000	 2.3613498291e+000	-9.0352956070e-001
 2.0602966528e+000	 2.3827878006e+000	-9.2313190792e-001
 2.0355495911e+000	 2.4039629494e+000	-9.5932261511e-001
 2.0105956445e+000	 2.4248721934e+000	-1.0138169333e+000
 1.9854390982e+000	 2.4455125409e+000	-1.0883150547e+000
 2.2450640303e+000	 2.2450640303e+000	-9.9527396451e-001
 2.2216958849e+000	 2.2681914370e+000	-9.4488630811e-001
 2.1980907787e+000	 2.2910744048e+000	-9.0359585159e-001
 2.1742525648e+000	 2.3137093129e+000	-8.7325752506e-001
 2.1501851694e+000	 2.3360926217e+000	-8.5573189179e-001
 2.1258925903e+000	 2.3582208748e+000	-8.5288113086e-001
 2.1013788939e+000	 2.3800907008e+000	-8.6656499599e-001
 2.0766482135e+000	 2.4016988149e+000	-8.9863676093e-001
 2.0517047466e+000	 2.4230420204e+000	-9.5093916163e-001
 2.0265527528e+000	 2.4441172108e+000	-1.0253003458e+000
 2.0011965513e+000	 2.4649213705e+000	-1.1235298402e+000
 2.2627416998e+000	 2.2627416998e+000	-9.4954561763e-001
 2.2391895533e+000	 2.2860512121e+000	-8.9377155869e-001
 2.2153985802e+000	 2.3091143607e+000	-8.4993270043e-001
 2.1913726637e+000	 2.3319274965e+000	-8.2001505212e-001
 2.1671157613e+000	 2.3544870518e+000	-8.0600778253e-001
 2.1426319020e+000	 2.3767895431e+000	-8.0989901884e-001
 2.1179251844e+000	 2.3988315725e+000	-8.3367162487e-001
 2.0929997742e+000	 2.4206098292e+000	-8.7929896926e-001
 2.0678599021e+000	 2.4421210915e+000	-9.4874069443e-001
 2.0425098611e+000	 2.4633622282e+000	-1.0439384971e+000
 2.0169540045e+000	 2.4843302002e+000	-1.1668119312e+000
 2.2804193693e+000	 2.2804193693e+000	-9.0061297435e-001
 2.2566832217e+000	 2.3039109872e+000	-8.4085033340e-001
 2.2327063816e+000	 2.3271543167e+000	-7.9580033302e-001
 2.2084927626e+000	 2.3501456800e+000	-7.6758046958e-001
 2.1840463532e+000	 2.3728814819e+000	-7.5830897446e-001
 2.1593712138e+000	 2.3953582114e+000	-7.7010042774e-001
 2.1344714749e+000	 2.4175724441e+000	-8.0506135436e-001
 2.1093513350e+000	 2.4395208435e+000	-8.6528581355e-001
 2.0840150576e+000	 2.4612001625e+000	-9.5285099306e-001
 2.0584669694e+000	 2.4826072456e+000	-1.0698128190e+000
 2.0327114576e+000	 2.5037390299e+000	-1.1927360561e+000
 2.2980970388e+000	 2.2980970388e+000	-8.4897466192e-001
 2.2741768901e+000	 2.3217707623e+000	-7.8657181244e-001
 2.2500141830e+000	 2.3451942726e+000	-7.4159939010e-001
 2.2256128616e+000	 2.3683638636e+000	-7.1630681772e-001
 2.2009769451e+000	 2.3912759120e+000	-7.1294187710e-001
 2.1761105255e+000	 2.4139268797e+000	-7.3374613626e-001
 2.1510177654e+000	 2.4363133158e+000	-7.8095036181e-001
 2.1257028957e+000	 2.4584318577e+000	-8.5676992833e-001
 2.1001702130e+000	 2.4802792335e+000	-9.6340023601e-001
 2.0744240777e+000	 2.5018522630e+000	-1.0927687374e+000
 2.0484689108e+000	 2.5231478596e+000	-1.1344629122e+000
 1.8908943792e+000	 2.3290595627e+000	-1.0453276147e+000
 1.8667469467e+000	 2.3484581830e+000	-8.1320156834e-001
 1.8424148840e+000	 2.3675952769e+000	-6.7283153291e-001
 1.8179024274e+000	 2.3864682618e+000	-5.8121030102e-001
 1.7932138597e+000	 2.4050746461e+000	-5.3749832683e-001
 1.7683535086e+000	 2.4234120303e+000	-5.4076297817e-001
 1.7433257434e+000	 2.4414781082e+000	-5.8998208424e-001
 1.7181349730e+000	 2.4592706672e+000	-6.8404766342e-001
 1.6927856434e+000	 2.4767875899e+000	-8.2176981945e-001
 1.6672822350e+000	 2.4940268541e+000	-1.0018807941e+000
 1.6416292602e+000	 2.5109865337e+000	-1.0282595362e+000
 1.9066518324e+000	 2.3484683924e+000	-1.0324710206e+000
 1.8823031712e+000	 2.3680286678e+000	-8.3168860151e-001
 1.8577683414e+000	 2.3873252375e+000	-7.3340190895e-001
 1.8330516143e+000	 2.4063554973e+000	-7.0622986016e-001
 1.8081573086e+000	 2.4251169348e+000	-7.2442078038e-001
 1.7830897878e+000	 2.4436071306e+000	-7.8685254429e-001
 1.7578534579e+000	 2.4618237591e+000	-8.9231518716e-001
 1.7324527644e+000	 2.4797645894e+000	-1.0395148750e+000
 1.7068921905e+000	 2.4974274865e+000	-1.2270780411e+000
 1.6811762537e+000	 2.5148104112e+000	-1.1959559441e+000
 1.6553095040e+000	 2.5319114214e+000	-1.1529406780e+000
 1.9224092855e+000	 2.3678772221e+000	-1.0276358806e+000
 1.8978593958e+000	 2.3875991527e+000	-8.7685159174e-001
 1.8731217988e+000	 2.4070551982e+000	-7.7433174471e-001
 1.8482008012e+000	 2.4262427328e+000	-8.0903595258e-001
 1.8231007574e+000	 2.4451592235e+000	-8.8666547630e-001
 1.7978260671e+000	 2.4638022308e+000	-1.0059086274e+000
 1.7723811724e+000	 2.4821694100e+000	-1.1653674730e+000
 1.7467705559e+000	 2.5002585117e+000	-1.3593398453e+000
 1.7209987375e+000	 2.5180673831e+000	-1.2952316862e+000
 1.6950702723e+000	 2.5355939683e+000	-1.2565164988e+000
 1.6689897478e+000	 2.5528363092e+000	-1.2448910267e+000
 1.9381667387e+000	 2.3872860518e+000	-1.0308045991e+000
 1.9134156203e+000	 2.4071696375e+000	-9.2616154581e-001
 1.8884752561e+000	 2.4267851588e+000	-8.5911684897e-001
 1.8633499881e+000	 2.4461299684e+000	-8.8807760054e-001
 1.8380442062e+000	 2.4652015122e+000	-1.0227781963e+000
 1.8125623463e+000	 2.4839973311e+000	-1.1965728920e+000
 1.7869088869e+000	 2.5025150609e+000	-1.3692028876e+000
 1.7610883473e+000	 2.5207524339e+000	-1.3234757649e+000
 1.7351052845e+000	 2.5387072796e+000	-1.2966851789e+000
 1.7089642909e+000	 2.5563775254e+000	-1.2904827813e+000
 1.6826699917e+000	 2.5737611970e+000	-1.3065417969e+000
 1.9539241918e+000	 2.4066948815e+000	-1.0419702228e+000
 1.9289718449e+000	 2.4267401224e+000	-9.7968555158e-001
 1.9038287135e+000	 2.4465151195e+000	-9.5210645307e-001
 1.8784991749e+000	 2.4660172039e+000	-9.6136466353e-001
 1.8529876551e+000	 2.4852438010e+000	-1.1313044671e+000
 1.8272986255e+000	 2.5041924313e+000	-1.2980769626e+000
 1.8014366015e+000	 2.5228607118e+000	-1.2781352918e+000
 1.7754061388e+000	 2.5412463561e+000	-1.2707801879e+000
 1.7492118315e+000	 2.5593471762e+000	-1.2776027556e+000
 1.7228583095e+000	 2.5771610825e+000	-1.3002280189e+000
 1.6963502355e+000	 2.5946860848e+000	-1.3403091398e+000
 1.9696816450e+000	 2.4261037112e+000	-1.0611360160e+000
 1.9445280695e+000	 2.4463106072e+000	-1.0374982298e+000
 1.9191821709e+000	 2.4662450801e+000	-1.0457294971e+000
 1.8936483618e+000	 2.4859044394e+000	-1.0878951328e+000
 1.8679311039e+000	 2.5052860897e+000	-1.1435890895e+000
 1.8420349048e+000	 2.5243875316e+000	-1.1567067538e+000
 1.8159643160e+000	 2.5432063627e+000	-1.1761805544e+000
 1.7897239302e+000	 2.5617402783e+000	-1.2035253168e+000
 1.7633183786e+000	 2.5799870728e+000	-1.2403022590e+000
 1.7367523282e+000	 2.5979446396e+000	-1.2881132167e+000
 1.7100304793e+000	 2.6156109726e+000	-1.3485947462e+000
 1.9854390982e+000	 2.4455125409e+000	-1.0883150547e+000
 1.9600842940e+000	 2.4658810921e+000	-1.0996814351e+000
 1.9345356282e+000	 2.4859750407e+000	-1.1401352183e+000
 1.9087975487e+000	 2.5057916749e+000	-1.1472491122e+000
 1.8828745527e+000	 2.5253283784e+000	-1.0128175064e+000
 1.8567711840e+000	 2.5445826318e+000	-1.0103023734e+000
 1.8304920305e+000	 2.5635520136e+000	-1.0655577777e+000
 1.8040417216e+000	 2.5822342006e+000	-1.1239760699e+000
 1.7774249256e+000	 2.6006269694e+000	-1.1870919961e+000
 1.7506463468e+000	 2.6187281968e+000	-1.2564876427e+000
 1.7237107232e+000	 2.6365358603e+000	-1.3337864195e+000
 2.0011965513e+000	 2.4649213705e+000	-1.1235298402e+000
 1.9756405186e+000	 2.4854515770e+000	-1.1663239715e+000
 1.9498890856e+000	 2.5057050014e+000	-1.1806581643e+000
 1.9239467356e+000	 2.5256789104e+000	-1.0654419123e+000
 1.8978180015e+000	 2.5453706671e+000	-9.4971820808e-001
 1.8715074632e+000	 2.5647777321e+000	-8.6103215256e-001
 1.8450197450e+000	 2.5838976645e+000	-9.4848127707e-001
 1.8183595131e+000	 2.6027281228e+000	-1.0343903681e+000
 1.7915314726e+000	 2.6212668660e+000	-1.1202711132e+000
 1.7645403654e+000	 2.6395117539e+000	-1.2076892898e+000
 1.7373909670e+000	 2.6574607481e+000	-1.2982586232e+000
 2.0169540045e+000	 2.4843302002e+000	-1.1668119312e+000
 1.9911967431e+000	 2.5050220618e+000	-1.1964876043e+000
 1.9652425429e+000	 2.5254349620e+000	-1.1047973972e+000
 1.9390959225e+000	 2.5455661459e+000	-1.0088241607e+000
 1.9127614504e+000	 2.5654129558e+000	-9.0894646397e-001
 1.8862437425e+000	 2.5849728324e+000	-8.0552654737e-001
 1.8595474596e+000	 2.6042433154e+000	-8.2716076849e-001
 1.8326773045e+000	 2.6232220450e+000	-9.3701940830e-001
 1.8056380196e+000	 2.6419067626e+000	-1.0421299538e+000
 1.7784343840e+000	 2.6602953110e+000	-1.1440453160e+000
 1.7510712108e+000	 2.6783856359e+000	-1.2443730015e+000
 2.0327114576e+000	 2.5037390299e+000	-1.1927360561e+000
 2.0067529677e+000	 2.5245925467e+000	-1.1284389402e+000
 1.9805960003e+000	 2.5451649227e+000	-1.0563552418e+000
 1.9542451094e+000	 2.5654533815e+000	-9.7676725784e-001
 1.9277048992e+000	 2.5854552446e+000	-8.8994372880e-001
 1.9009800217e+000	 2.6051679326e+000	-7.9613976209e-001
 1.8740751741e+000	 2.6245889663e+000	-7.0380154653e-001
 1.8469950960e+000	 2.6437159673e+000	-8.3410792377e-001
 1.8197445667e+000	 2.6625466591e+000	-9.5495040011e-001
 1.7923284027e+000	 2.6810788681e+000	-1.0678724650e+000
 1.7647514547e+000	 2.6993105237e+000	-1.1744788765e+000
 2.0484689108e+000	 2.5231478596e+000	-1.1344629122e+000
 2.0223091922e+000	 2.5441630315e+000	-1.0899659655e+000
 1.9959494577e+000	 2.5648948833e+000	-1.0346361028e+000
 1.9693942963e+000	 2.5853406170e+000	-9.6864448917e-001
 1.9426483480e+000	 2.6054975333e+000	-8.9215125692e-001
 1.9157163009e+000	 2.6253630329e+000	-8.0530553699e-001
 1.8886028886e+000	 2.6449346172e+000	-7.0824555652e-001
 1.8613128874e+000	 2.6642098895e+000	-7.2789443303e-001
 1.8338511137e+000	 2.6831865557e+000	-8.6100619803e-001
 1.8062224213e+000	 2.7018624252e+000	-9.8147746582e-001
 1.7784316985e+000	 2.7202354115e+000	-1.0909137219e+000
 1.6416292602e+000	 2.5109865337e+000	-1.0282595362e+000
 1.6158312605e+000	 2.5276647993e+000	-9.2597789723e-001
 1.5898928045e+000	 2.5440599187e+000	-8.2943091697e-001
 1.5638184851e+000	 2.5601702572e+000	-7.3944133432e-001
 1.5376129167e+000	 2.5759942776e+000	-6.5684897411e-001
 1.5112807329e+000	 2.5915305413e+000	-5.8250592746e-001
 1.4848265841e+000	 2.6067777073e+000	-5.1727170751e-001
 1.4582551343e+000	 2.6217345334e+000	-4.6200839580e-001
 1.4315710593e+000	 2.6363998752e+000	-4.1757579487e-001
 1.4047790439e+000	 2.6507726869e+000	-3.8482660198e-001
 1.3778837792e+000	 2.6648520205e+000	-3.6460161894e-001
 1.6553095040e+000	 2.5319114214e+000	-1.1529406780e+000
 1.6292965210e+000	 2.5487286726e+000	-1.0563679150e+000
 1.6031419112e+000	 2.5652604181e+000	-9.6466664765e-001
 1.5768503058e+000	 2.5815050093e+000	-8.7876717244e-001
 1.5504263577e+000	 2.5974608966e+000	-7.9961833923e-001
 1.5238747391e+000	 2.6131266291e+000	-7.2818250596e-001
 1.4972001389e+000	 2.6285008549e+000	-6.6543046738e-001
 1.4704072604e+000	 2.6435823211e+000	-6.1233637406e-001
 1.4435008182e+000	 2.6583698742e+000	-5.6987265747e-001
 1.4164855360e+000	 2.6728624593e+000	-5.3900497699e-001
 1.3893661440e+000	 2.6870591207e+000	-5.2068720406e-001
 1.6689897478e+000	 2.5528363092e+000	-1.2448910267e+000
 1.6427617815e+000	 2.5697925460e+000	-1.1539816283e+000
 1.6163910179e+000	 2.5864609174e+000	-1.0670458332e+000
 1.5898821265e+000	 2.6028397614e+000	-9.8512349373e-001
 1.5632397986e+000	 2.6189275156e+000	-9.0927452803e-001
 1.5364687452e+000	 2.6347227169e+000	-8.4057364456e-001
 1.5095736938e+000	 2.6502240024e+000	-7.8010503967e-001
 1.4825593865e+000	 2.6654301089e+000	-7.2895708495e-001
 1.4554305770e+000	 2.6803398731e+000	-6.8821702068e-001
 1.4281920280e+000	 2.6949522317e+000	-6.5896567173e-001
 1.4008485088e+000	 2.7092662209e+000	-6.4227220186e-001
 1.6826699917e+000	 2.5737611970e+000	-1.3065417969e+000
 1.6562270420e+000	 2.5908564193e+000	-1.2212033196e+000
 1.6296401246e+000	 2.6076614167e+000	-1.1389049374e+000
 1.6029139472e+000	 2.6241745136e+000	-1.0607980980e+000
 1.5760532396e+000	 2.6403941346e+000	-9.8805587231e-001
 1.5490627513e+000	 2.6563188048e+000	-9.2186744499e-001
 1.5219472487e+000	 2.6719471500e+000	-8.6343257639e-001
 1.4947115126e+000	 2.6872778967e+000	-8.1395605404e-001
 1.4673603358e+000	 2.7023098721e+000	-7.7464215009e-001
 1.4398985200e+000	 2.7170420041e+000	-7.4668910187e-001
 1.4123308736e+000	 2.7314733210e+000	-7.3128363193e-001
 1.6963502355e+000	 2.5946860848e+000	-1.3403091398e+000
 1.6696923025e+000	 2.6119202926e+000	-1.2604028232e+000
 1.6428892313e+000	 2.6288619160e+000	-1.1825665944e+000
 1.6159457679e+000	 2.6455092657e+000	-1.1080655763e+000
 1.5888666806e+000	 2.6618607536e+000	-1.0381881184e+000
 1.5616567574e+000	 2.6779148926e+000	-9.7424004886e-001
 1.5343208035e+000	 2.6936702975e+000	-9.1753889656e-001
 1.5068636388e+000	 2.7091256845e+000	-8.6940810243e-001
 1.4792900947e+000	 2.7242798711e+000	-8.3117123654e-001
 1.4516050121e+000	 2.7391317765e+000	-8.0414623883e-001
 1.4238132385e+000	 2.7536804212e+000	-7.8963970068e-001
 1.7100304793e+000	 2.6156109726e+000	-1.3485947462e+000
 1.6831575630e+000	 2.6329841659e+000	-1.2739361035e+000
 1.6561383380e+000	 2.6500624153e+000	-1.2003401618e+000
 1.6289775887e+000	 2.6668440179e+000	-1.1291878393e+000
 1.6016801216e+000	 2.6833273725e+000	-1.0618849307e+000
 1.5742507635e+000	 2.6995109805e+000	-9.9985611608e-001
 1.5466943584e+000	 2.7153934451e+000	-9.4453893948e-001
 1.5190157649e+000	 2.7309734722e+000	-8.9737777492e-001
 1.4912198535e+000	 2.7462498700e+000	-8.5981779903e-001
 1.4633115041e+000	 2.7612215489e+000	-8.3329898756e-001
 1.4352956033e+000	 2.7758875214e+000	-8.1925015390e-001
 1.7237107232e+000	 2.6365358603e+000	-1.3337864195e+000
 1.6966228235e+000	 2.6540480393e+000	-1.2641458051e+000
 1.6693874448e+000	 2.6712629147e+000	-1.1945222475e+000
 1.6420094094e+000	 2.6881787700e+000	-1.1264146204e+000
 1.6144935625e+000	 2.7047939915e+000	-1.0613483707e+000
 1.5868447696e+000	 2.7211070683e+000	-1.0008692805e+000
 1.5590679133e+000	 2.7371165927e+000	-9.4653719649e-001
 1.5311678910e+000	 2.7528212600e+000	-8.9991974778e-001
 1.5031496123e+000	 2.7682198690e+000	-8.6258606858e-001
 1.4750179961e+000	 2.7833113213e+000	-8.3610054629e-001
 1.4467779681e+000	 2.7980946215e+000	-8.2201661247e-001
 1.7373909670e+000	 2.6574607481e+000	-1.2982586232e+000
 1.7100880840e+000	 2.6751119126e+000	-1.2333617772e+000
 1.6826365515e+000	 2.6924634140e+000	-1.1673972117e+000
 1.6550412301e+000	 2.7095135222e+000	-1.1019839553e+000
 1.6273070035e+000	 2.7262606105e+000	-1.0387693546e+000
 1.5994387757e+000	 2.7427031562e+000	-9.7942258386e-001
 1.5714414681e+000	 2.7588397402e+000	-9.2562812231e-001
 1.5433200171e+000	 2.7746690478e+000	-8.7907921730e-001
 1.5150793711e+000	 2.7901898679e+000	-8.4147135386e-001
 1.4867244882e+000	 2.8054010937e+000	-8.1449574933e-001
 1.4582603330e+000	 2.8203017217e+000	-7.9983289226e-001
 1.7510712108e+000	 2.6783856359e+000	-1.2443730015e+000
 1.7235533445e+000	 2.6961757859e+000	-1.1839015740e+000
 1.6958856582e+000	 2.7136639133e+000	-1.1212376454e+000
 1.6680730508e+000	 2.7308482743e+000	-1.0581226388e+000
 1.6401204445e+000	 2.7477272295e+000	-9.9632808768e-001
 1.6120327818e+000	 2.7642992440e+000	-9.3764888983e-001
 1.5838150230e+000	 2.7805628878e+000	-8.8389652705e-001
 1.5554721432e+000	 2.7965168356e+000	-8.3689227010e-001
 1.5270091300e+000	 2.8121598669e+000	-7.9846038977e-001
 1.4984309802e+000	 2.8274908661e+000	-7.7042139379e-001
 1.4697426978e+000	 2.8425088219e+000	-7.5458530899e-001
 1.7647514547e+000	 2.6993105237e+000	-1.1744788765e+000
 1.7370186050e+000	 2.7172396593e+000	-1.1180709303e+000
 1.7091347649e+000	 2.7348644126e+000	-1.0583048265e+000
 1.6811048715e+000	 2.7521830265e+000	-9.9704666062e-001
 1.6529338855e+000	 2.7691938485e+000	-9.3619448025e-001
 1.6246267879e+000	 2.7858953319e+000	-8.7767127825e-001
 1.5961885779e+000	 2.8022860354e+000	-8.2341795011e-001
 1.5676242694e+000	 2.8183646234e+000	-7.7538623619e-001
 1.5389388888e+000	 2.8341298659e+000	-7.3553166970e-001
 1.5101374722e+000	 2.8495806385e+000	-7.0580655110e-001
 1.4812250626e+000	 2.8647159220e+000	-6.8815296897e-001
 1.7784316985e+000	 2.7202354115e+000	-1.0909137219e+000
 1.7504838655e+000	 2.7383035326e+000	-1.0381642169e+000
 1.7223838716e+000	 2.7560649120e+000	-9.8084915474e-001
 1.6941366922e+000	 2.7735177786e+000	-9.2096162073e-001
 1.6657473264e+000	 2.7906604674e+000	-8.6052854319e-001
 1.6372207940e+000	 2.8074914197e+000	-8.0160342152e-001
 1.6085621327e+000	 2.8240091829e+000	-7.4625901668e-001
 1.5797763955e+000	 2.8402124111e+000	-6.9658002581e-001
 1.5508686476e+000	 2.8560998648e+000	-6.5465576254e-001
 1.5218439643e+000	 2.8716704108e+000	-6.2257286413e-001
 1.4927074274e+000	 2.8869230222e+000	-6.0240804635e-001
 1.3778837792e+000	 2.6648520205e+000	-3.6460161894e-001
 1.3508899601e+000	 2.6786370258e+000	-4.0189433654e-001
 1.3238022833e+000	 2.6921269500e+000	-4.3939621738e-001
 1.2966254442e+000	 2.7053211376e+000	-4.7776939396e-001
 1.2693641349e+000	 2.7182190297e+000	-5.1766005118e-001
 1.2420230416e+000	 2.7308201633e+000	-5.2100547756e-001
 1.2146068424e+000	 2.7431241712e+000	-4.2933784929e-001
 1.1871202048e+000	 2.7551307808e+000	-3.3381152949e-001
 1.1595677832e+000	 2.7668398140e+000	-2.3313961562e-001
 1.1319542172e+000	 2.7782511856e+000	-1.2606277331e-001
 1.1042841287e+000	 2.7893649032e+000	-1.1350485200e-002
 1.3893661440e+000	 2.6870591207e+000	-5.2068720406e-001
 1.3621473764e+000	 2.7009590010e+000	-5.5445513239e-001
 1.3348339690e+000	 2.7145613413e+000	-5.8706765249e-001
 1.3074306562e+000	 2.7278654804e+000	-6.1934565739e-001
 1.2799421693e+000	 2.7408708549e+000	-6.5209442421e-001
 1.2523732336e+000	 2.7535769980e+000	-6.8609888072e-001
 1.2247285661e+000	 2.7659835393e+000	-5.9002266969e-001
 1.1970128732e+000	 2.7780902040e+000	-4.7675296911e-001
 1.1692308481e+000	 2.7898968124e+000	-3.5719997368e-001
 1.1413871690e+000	 2.8014032788e+000	-2.3016169815e-001
 1.1134864964e+000	 2.8126096107e+000	-9.4465835433e-002
 1.4008485088e+000	 2.7092662209e+000	-6.4227220186e-001
 1.3734047928e+000	 2.7232809762e+000	-6.7324045117e-001
 1.3458656546e+000	 2.7369957325e+000	-7.0170065606e-001
 1.3182358682e+000	 2.7504098233e+000	-7.2863411820e-001
 1.2905202038e+000	 2.7635226802e+000	-7.5500684683e-001
 1.2627234256e+000	 2.7763338327e+000	-7.8176454809e-001
 1.2348502898e+000	 2.7888429074e+000	-7.2711959198e-001
 1.2069055415e+000	 2.8010496272e+000	-5.9837195954e-001
 1.1788939129e+000	 2.8129538109e+000	-4.6221983989e-001
 1.1508201208e+000	 2.8245553720e+000	-3.1751723315e-001
 1.1226888642e+000	 2.8358543183e+000	-1.6314868987e-001
 1.4123308736e+000	 2.7314733210e+000	-7.3128363193e-001
 1.3846622091e+000	 2.7456029514e+000	-7.6009845063e-001
 1.3568973403e+000	 2.7594301238e+000	-7.8506345198e-001
 1.3290410803e+000	 2.7729541661e+000	-8.0732205332e-001
 1.3010982382e+000	 2.7861745054e+000	-8.2800269531e-001
 1.2730736177e+000	 2.7990906674e+000	-8.4821355032e-001
 1.2449720135e+000	 2.8117022754e+000	-8.4065378160e-001
 1.2167982099e+000	 2.8240090504e+000	-6.9864770928e-001
 1.1885569778e+000	 2.8360108093e+000	-5.4813188892e-001
 1.1602530726e+000	 2.8477074652e+000	-3.8801496465e-001
 1.1318912319e+000	 2.8590990258e+000	-2.1723701470e-001
 1.4238132385e+000	 2.7536804212e+000	-7.8963970068e-001
 1.3959196254e+000	 2.7679249266e+000	-8.1686991199e-001
 1.3679290260e+000	 2.7818645150e+000	-8.3891834397e-001
 1.3398462923e+000	 2.7954985089e+000	-8.5709229497e-001
 1.3116762727e+000	 2.8088263307e+000	-8.7268439482e-001
 1.2834238097e+000	 2.8218475021e+000	-8.8696702875e-001
 1.2550937372e+000	 2.8345616435e+000	-9.0118687562e-001
 1.2266908783e+000	 2.8469684735e+000	-7.7756105823e-001
 1.1982200427e+000	 2.8590678078e+000	-6.1487198552e-001
 1.1696860244e+000	 2.8708595585e+000	-4.4154524211e-001
 1.1410935996e+000	 2.8823437333e+000	-2.5657512580e-001
 1.4352956033e+000	 2.7758875214e+000	-8.1925015390e-001
 1.4071770418e+000	 2.7902469018e+000	-8.4538853500e-001
 1.3789607117e+000	 2.8042989063e+000	-8.6502195246e-001
 1.3506515043e+000	 2.8180428517e+000	-8.7962340843e-001
 1.3222543071e+000	 2.8314781559e+000	-8.9065153747e-001
 1.2937740017e+000	 2.8446043368e+000	-8.9954474230e-001
 1.2652154609e+000	 2.8574210116e+000	-9.0771544764e-001
 1.2365835466e+000	 2.8699278967e+000	-8.3509441242e-001
 1.2078831075e+000	 2.8821248062e+000	-6.6237905697e-001
 1.1791189762e+000	 2.8940116517e+000	-4.7800298762e-001
 1.1502959674e+000	 2.9055884408e+000	-2.8101343470e-001
 1.4467779681e+000	 2.7980946215e+000	-8.2201661247e-001
 1.4184344581e+000	 2.8125688771e+000	-8.4748121897e-001
 1.3899923974e+000	 2.8267332975e+000	-8.6512544005e-001
 1.3614567164e+000	 2.8405871945e+000	-8.7658986134e-001
 1.3328323416e+000	 2.8541299812e+000	-8.8350099476e-001
 1.3041241937e+000	 2.8673611715e+000	-8.8746512236e-001
 1.2753371846e+000	 2.8802803797e+000	-8.9006226213e-001
 1.2464762150e+000	 2.8928873199e+000	-8.7123168185e-001
 1.2175461724e+000	 2.9051818047e+000	-6.9059497153e-001
 1.1885519280e+000	 2.9171637449e+000	-4.9728751442e-001
 1.1594983351e+000	 2.9288331484e+000	-2.9040820672e-001
 1.4582603330e+000	 2.8203017217e+000	-7.9983289226e-001
 1.4296918744e+000	 2.8348908523e+000	-8.2496833043e-001
 1.4010240831e+000	 2.8491676888e+000	-8.4097472642e-001
 1.3722619284e+000	 2.8631315373e+000	-8.4966218507e-001
 1.3434103761e+000	 2.8767818064e+000	-8.5282702468e-001
 1.3144743857e+000	 2.8901180061e+000	-8.5224532504e-001
 1.2854589082e+000	 2.9031397478e+000	-8.4966660152e-001
 1.2563688834e+000	 2.9158467430e+000	-8.4680762142e-001
 1.2272092372e+000	 2.9282388031e+000	-6.9946442263e-001
 1.1979848799e+000	 2.9403158381e+000	-4.9930235402e-001
 1.1687007029e+000	 2.9520778559e+000	-2.8462133047e-001
 1.4697426978e+000	 2.8425088219e+000	-7.5458530899e-001
 1.4409492908e+000	 2.8572128275e+000	-7.7966395842e-001
 1.4120557688e+000	 2.8716020800e+000	-7.9431069314e-001
 1.3830671404e+000	 2.8856758801e+000	-8.0050712846e-001
 1.3539884105e+000	 2.8994336316e+000	-8.0022137377e-001
 1.3248245777e+000	 2.9128748408e+000	-7.9540128098e-001
 1.2955806319e+000	 2.9259991159e+000	-7.8796782291e-001
 1.2662615518e+000	 2.9388061662e+000	-7.7980861882e-001
 1.2368723021e+000	 2.9512958016e+000	-6.8893481857e-001
 1.2074178317e+000	 2.9634679313e+000	-4.8395509142e-001
 1.1779030706e+000	 2.9753225634e+000	-2.6352009826e-001
 1.4812250626e+000	 2.8647159220e+000	-6.8815296897e-001
 1.4522067071e+000	 2.8795348027e+000	-7.1337615772e-001
 1.4230874545e+000	 2.8940364712e+000	-7.2686937892e-001
 1.3938723525e+000	 2.9082202229e+000	-7.3078780441e-001
 1.3645664450e+000	 2.9220854569e+000	-7.2727337451e-001
 1.3351747697e+000	 2.9356316755e+000	-7.1844774283e-001
 1.3057023556e+000	 2.9488584840e+000	-7.0640535520e-001
 1.2761542201e+000	 2.9617655894e+000	-6.9320668034e-001
 1.2465353670e+000	 2.9743528000e+000	-6.5895617722e-001
 1.2168507835e+000	 2.9866200245e+000	-4.5115720802e-001
 1.1871054383e+000	 2.9985672709e+000	-2.2697699659e-001
 1.4927074274e+000	 2.8869230222e+000	-6.0240804635e-001
 1.4634641235e+000	 2.9018567779e+000	-6.2790718098e-001
 1.4341191402e+000	 2.9164708625e+000	-6.4038216589e-001
 1.4046775645e+000	 2.9307645658e+000	-6.4216382975e-001
 1.3751444794e+000	 2.9447372821e+000	-6.3557003813e-001
 1.3455249618e+000	 2.9583885102e+000	-6.2289833062e-001
 1.3158240793e+000	 2.9717178521e+000	-6.0641869628e-001
 1.2860468885e+000	 2.9847250126e+000	-5.8836650573e-001
 1.2561984318e+000	 2.9974097985e+000	-5.7093561697e-001
 1.2262837353e+000	 3.0097721177e+000	-4.0082393175e-001
 1.1963078061e+000	 3.0218119785e+000	-1.7486950638e-001
 1.1042841287e+000	 2.7893649032e+000	-1.1350485200e-002
 1.0765621202e+000	 2.8001810658e+000	-5.4167357896e-002
 1.0487927723e+000	 2.8106998632e+000	-8.6372110561e-002
 1.0209806419e+000	 2.8209215744e+000	-1.0810626373e-001
 9.9313025989e-001	 2.8308465672e+000	-1.1952880592e-001
 9.6524612913e-001	 2.8404752965e+000	-1.2081597868e-001
 9.3733272262e-001	 2.8498083036e+000	-1.1216102333e-001
 9.0939448149e-001	 2.8588462143e+000	-9.3773890762e-002
 8.8143581311e-001	 2.8675897383e+000	-6.5880915545e-002
 8.5346108929e-001	 2.8760396675e+000	-2.8724455717e-002
 8.2547464451e-001	 2.8841968746e+000	 1.7437500243e-002
 1.1134864964e+000	 2.8126096107e+000	-9.4465835433e-002
 1.0855334712e+000	 2.8235159081e+000	-1.5026584127e-001
 1.0575327121e+000	 2.8341223620e+000	-1.9527987589e-001
 1.0294888139e+000	 2.8444292542e+000	-2.2953215296e-001
 1.0014063454e+000	 2.8544369552e+000	-2.5306660442e-001
 9.7328984687e-001	 2.8641459240e+000	-2.6594675236e-001
 9.4514382864e-001	 2.8735567061e+000	-2.6825553781e-001
 9.1697276883e-001	 2.8826699328e+000	-2.6009510751e-001
 8.8878111155e-001	 2.8914863195e+000	-2.4158656008e-001
 8.6057326503e-001	 2.9000066647e+000	-2.1286965294e-001
 8.3235359987e-001	 2.9082318485e+000	-1.7410247132e-001
 1.1226888642e+000	 2.8358543183e+000	-1.6314868987e-001
 1.0945048222e+000	 2.8468507503e+000	-2.2928692751e-001
 1.0662726518e+000	 2.8575448609e+000	-2.8447287994e-001
 1.0379969859e+000	 2.8679369340e+000	-3.2861438278e-001
 1.0096824309e+000	 2.8780273433e+000	-3.6164123412e-001
 9.8133356461e-001	 2.8878165515e+000	-3.8350515269e-001
 9.5295493466e-001	 2.8973051086e+000	-3.9417968797e-001
 9.2455105618e-001	 2.9064936512e+000	-3.9366008337e-001
 8.9612640999e-001	 2.9153829006e+000	-3.8196309387e-001
 8.6768544077e-001	 2.9239736620e+000	-3.5912675939e-001
 8.3923255524e-001	 2.9322668225e+000	-3.2521013533e-001
 1.1318912319e+000	 2.8590990258e+000	-2.1723701470e-001
 1.1034761732e+000	 2.8701855925e+000	-2.9114163045e-001
 1.0750125916e+000	 2.8809673597e+000	-3.5393478569e-001
 1.0465051580e+000	 2.8914446137e+000	-4.0540883525e-001
 1.0179585164e+000	 2.9016177314e+000	-4.4538033527e-001
 9.8937728235e-001	 2.9114871789e+000	-4.7369008694e-001
 9.6076604068e-001	 2.9210535112e+000	-4.9020312739e-001
 9.3212934352e-001	 2.9303173697e+000	-4.9480866867e-001
 9.0347170843e-001	 2.9392794818e+000	-4.8741998628e-001
 8.7479761651e-001	 2.9479406592e+000	-4.6797425834e-001
 8.4611151061e-001	 2.9563017964e+000	-4.3643235718e-001
 1.1410935996e+000	 2.8823437333e+000	-2.5657512580e-001
 1.1124475242e+000	 2.8935204347e+000	-3.3574500390e-001
 1.0837525314e+000	 2.9043898586e+000	-4.0365099547e-001
 1.0550133300e+000	 2.9149522935e+000	-4.5997084128e-001
 1.0262346019e+000	 2.9252081194e+000	-5.0440871741e-001
 9.9742100009e-001	 2.9351578064e+000	-5.3669536408e-001
 9.6857714670e-001	 2.9448019137e+000	-5.5658815663e-001
 9.3970763087e-001	 2.9541410881e+000	-5.6387111979e-001
 9.1081700687e-001	 2.9631760629e+000	-5.5835488642e-001
 8.8190979226e-001	 2.9719076564e+000	-5.3987660206e-001
 8.5299046598e-001	 2.9803367704e+000	-5.0829977685e-001
 1.1502959674e+000	 2.9055884408e+000	-2.8101343470e-001
 1.1214188752e+000	 2.9168552769e+000	-3.6301598002e-001
 1.0924924711e+000	 2.9278123575e+000	-4.3360858140e-001
 1.0635215020e+000	 2.9384599733e+000	-4.9235520260e-001
 1.0345106874e+000	 2.9487985075e+000	-5.3884847258e-001
 1.0054647178e+000	 2.9588284339e+000	-5.7270989870e-001
 9.7638825273e-001	 2.9685503162e+000	-5.9359001736e-001
 9.4728591821e-001	 2.9779648066e+000	-6.0116848289e-001
 9.1816230531e-001	 2.9870726441e+000	-5.9515409597e-001
 8.8902196800e-001	 2.9958746536e+000	-5.7528477304e-001
 8.5986942135e-001	 3.0043717443e+000	-5.4132745791e-001
 1.1594983351e+000	 2.9288331484e+000	-2.9040820672e-001
 1.1303902262e+000	 2.9401901191e+000	-3.7287721545e-001
 1.1012324109e+000	 2.9512348563e+000	-4.4379621912e-001
 1.0720296740e+000	 2.9619676531e+000	-5.0261621285e-001
 1.0427867729e+000	 2.9723888955e+000	-5.4881908317e-001
 1.0135084356e+000	 2.9824990614e+000	-5.8191790526e-001
 9.8419935875e-001	 2.9922987187e+000	-6.0145717248e-001
 9.5486420556e-001	 3.0017885250e+000	-6.0701295941e-001
 9.2550760376e-001	 3.0109692252e+000	-5.9819301947e-001
 8.9613414375e-001	 3.0198416509e+000	-5.7463681849e-001
 8.6674837673e-001	 3.0284067183e+000	-5.3601550563e-001
 1.1687007029e+000	 2.9520778559e+000	-2.8462133047e-001
 1.1393615772e+000	 2.9635249613e+000	-3.6525494463e-001
 1.1099723507e+000	 2.9746573552e+000	-4.3420412467e-001
 1.0805378460e+000	 2.9854753329e+000	-4.9080767749e-001
 1.0510628584e+000	 2.9959792836e+000	-5.3443752468e-001
 1.0215521533e+000	 3.0061696888e+000	-5.6449908312e-001
 9.9201046477e-001	 3.0160471213e+000	-5.8043157296e-001
 9.6244249291e-001	 3.0256122435e+000	-5.8170825430e-001
 9.3285290220e-001	 3.0348658064e+000	-5.6783659333e-001
 9.0324631949e-001	 3.0438086481e+000	-5.3835835964e-001
 8.7362733210e-001	 3.0524416922e+000	-4.9284965590e-001
 1.1779030706e+000	 2.9753225634e+000	-2.6352009826e-001
 1.1483329282e+000	 2.9868598036e+000	-3.4007884010e-001
 1.1187122905e+000	 2.9980798540e+000	-4.0482399431e-001
 1.0890460181e+000	 3.0089830127e+000	-4.5698293295e-001
 1.0593389439e+000	 3.0195696717e+000	-4.9581836361e-001
 1.0295958711e+000	 3.0298403163e+000	-5.2062879288e-001
 9.9982157080e-001	 3.0397955238e+000	-5.3074891228e-001
 9.7002078026e-001	 3.0494359619e+000	-5.2554990789e-001
 9.4019820065e-001	 3.0587623875e+000	-5.0443969473e-001
 9.1035849524e-001	 3.0677756453e+000	-4.6686307709e-001
 8.8050628747e-001	 3.0764766662e+000	-4.1230183652e-001
 1.1871054383e+000	 2.9985672709e+000	-2.2697699659e-001
 1.1573042792e+000	 3.0101946458e+000	-2.9728187922e-001
 1.1274522302e+000	 3.0215023529e+000	-3.5564894716e-001
 1.0975541901e+000	 3.0324906925e+000	-4.0119486475e-001
 1.0676150294e+000	 3.0431600597e+000	-4.3307385086e-001
 1.0376395888e+000	 3.0535109438e+000	-4.5047822462e-001
 1.0076326768e+000	 3.0635439263e+000	-4.5263886890e-001
 9.7759906761e-001	 3.0732596804e+000	-4.3882561239e-001
 9.4754349910e-001	 3.0826589687e+000	-4.0834753154e-001
 9.1747067099e-001	 3.0917426426e+000	-3.6055317364e-001
 8.8738524285e-001	 3.1005116401e+000	-2.9483070242e-001
 1.1963078061e+000	 3.0218119785e+000	-1.7486950638e-001
 1.1662756302e+000	 3.0335294880e+000	-2.3680021701e-001
 1.1361921700e+000	 3.0449248518e+000	-2.8667347046e-001
 1.1060623621e+000	 3.0559983723e+000	-3.2349592489e-001
 1.0758911149e+000	 3.0667504478e+000	-3.4631401075e-001
 1.0456833066e+000	 3.0771815712e+000	-3.5421455822e-001
 1.0154437829e+000	 3.0872923289e+000	-3.4632533765e-001
 9.8517735496e-001	 3.0970833988e+000	-3.2181551367e-001
 9.5488879754e-001	 3.1065555498e+000	-2.7989601423e-001
 9.2458284674e-001	 3.1157096398e+000	-2.1981981577e-001
 8.9426419823e-001	 3.1245466141e+000	-1.4088214614e-001
 8.2547464451e-001	 2.8841968746e+000	 1.7437500243e-002
 7.9748077418e-001	 2.8920623117e+000	 8.3781303012e-002
 7.6948373301e-001	 2.8996370091e+000	 1.4235286327e-001
 7.4148773336e-001	 2.9069220735e+000	 1.9401145052e-001
 7.1349694372e-001	 2.9139186865e+000	 2.3959794653e-001
 6.8551548720e-001	 2.9206281031e+000	 2.7993431497e-001
 6.5754744009e-001	 2.9270516504e+000	 3.1582312183e-001
 6.2959683048e-001	 2.9331907253e+000	 3.4804710581e-001
 6.0166763694e-001	 2.9390467935e+000	 2.9892084755e-001
 5.7376378727e-001	 2.9446213876e+000	 2.6287706036e-001
 5.4588915724e-001	 2.9499161052e+000	 2.6298587028e-001
 8.3235359987e-001	 2.9082318485e+000	-1.7410247132e-001
 8.0412644730e-001	 2.9161628310e+000	-8.8738849833e-002
 7.7589609745e-001	 2.9238006509e+000	-1.3834107035e-002
 7.4766679780e-001	 2.9311464241e+000	 5.1369290374e-002
 7.1944275158e-001	 2.9382013422e+000	 1.0761421285e-001
 6.9122811626e-001	 2.9449666706e+000	 1.5562836937e-001
 6.6302700209e-001	 2.9514437475e+000	 1.9612385478e-001
 6.3484347073e-001	 2.9576339813e+000	 2.2979674234e-001
 6.0668153392e-001	 2.9635388501e+000	 1.8038628889e-001
 5.7854515216e-001	 2.9691598992e+000	 1.1667875915e-001
 5.5043823355e-001	 2.9744987394e+000	 9.1561081734e-002
 8.3923255524e-001	 2.9322668225e+000	-3.2521013533e-001
 8.1077212041e-001	 2.9402633502e+000	-2.2506662505e-001
 7.8230846189e-001	 2.9479642926e+000	-1.3800575417e-001
 7.5384586224e-001	 2.9553707747e+000	-6.3370308825e-002
 7.2538855945e-001	 2.9624839979e+000	-5.1407633178e-004
 6.9694074532e-001	 2.9693052382e+000	 5.1197687768e-002
 6.6850656409e-001	 2.9758358445e+000	 9.2387833919e-002
 6.4009011098e-001	 2.9820772374e+000	 1.2366693328e-001
 6.1169543089e-001	 2.9880309068e+000	 7.7190483593e-002
 5.8332651705e-001	 2.9936984107e+000	-2.2177263241e-002
 5.5498730986e-001	 2.9990813737e+000	-8.0273223372e-002
 8.4611151061e-001	 2.9563017964e+000	-4.3643235718e-001
 8.1741779353e-001	 2.9643638695e+000	-3.2565152654e-001
 7.8872082633e-001	 2.9721279343e+000	-2.3051547313e-001
 7.6002492669e-001	 2.9795951253e+000	-1.5046591637e-001
 7.3133436731e-001	 2.9867666536e+000	-8.4951977436e-002
 7.0265337437e-001	 2.9936438057e+000	-3.3430614775e-002
 6.7398612608e-001	 3.0002279416e+000	 4.6329769256e-003
 6.4533675123e-001	 3.0065204934e+000	 2.9765003708e-002
 6.1670932786e-001	 3.0125229634e+000	-8.8743927565e-003
 5.8810788194e-001	 3.0182369223e+000	-1.5190896814e-001
 5.5953638617e-001	 3.0236640079e+000	-2.5074461888e-001
 8.5299046598e-001	 2.9803367704e+000	-5.0829977685e-001
 8.2406346665e-001	 2.9884643887e+000	-3.9092998095e-001
 7.9513319077e-001	 2.9962915761e+000	-2.9170668533e-001
 7.6620399113e-001	 3.0038194759e+000	-2.1016918627e-001
 7.3728017517e-001	 3.0110493093e+000	-1.4586064353e-001
 7.0836600343e-001	 3.0179823732e+000	-9.8328484486e-002
 6.7946568808e-001	 3.0246200387e+000	-6.7124776273e-002
 6.5058339149e-001	 3.0309637495e+000	-5.1806566573e-002
 6.2172322484e-001	 3.0370150200e+000	-7.6023827520e-002
 5.9288924684e-001	 3.0427754338e+000	-2.7074474701e-001
 5.6408546248e-001	 3.0482466421e+000	-4.1809382468e-001
 8.5986942135e-001	 3.0043717443e+000	-5.4132745791e-001
 8.3070913976e-001	 3.0125649080e+000	-4.2132586072e-001
 8.0154555521e-001	 3.0204552178e+000	-3.2191323756e-001
 7.7238305558e-001	 3.0280438265e+000	-2.4272513388e-001
 7.4322598304e-001	 3.0353319650e+000	-1.8339748047e-001
 7.1407863249e-001	 3.0423209407e+000	-1.4356696641e-001
 6.8494525008e-001	 3.0490121358e+000	-1.2287138440e-001
 6.5583003174e-001	 3.0554070055e+000	-1.2094994919e-001
 6.2673712181e-001	 3.0615070766e+000	-1.3744358964e-001
 5.9767061173e-001	 3.0673139454e+000	-3.7692300425e-001
 5.6863453879e-001	 3.0728292763e+000	-5.8057418086e-001
 8.6674837673e-001	 3.0284067183e+000	-5.3601550563e-001
 8.3735481288e-001	 3.0366654273e+000	-4.1725098229e-001
 8.0795791965e-001	 3.0446188595e+000	-3.2145978195e-001
 7.7856212002e-001	 3.0522681771e+000	-2.4837239930e-001
 7.4917179090e-001	 3.0596146208e+000	-1.9771629556e-001
 7.1979126155e-001	 3.0666595083e+000	-1.6921624018e-001
 6.9042481209e-001	 3.0734042329e+000	-1.6259462947e-001
 6.6107667200e-001	 3.0798502615e+000	-1.7757178261e-001
 6.3175101878e-001	 3.0859991332e+000	-2.1386621568e-001
 6.0245197662e-001	 3.0918524570e+000	-4.6869175984e-001
 5.7318361510e-001	 3.0974119105e+000	-7.3645114695e-001
 8.7362733210e-001	 3.0524416922e+000	-4.9284965590e-001
 8.4400048600e-001	 3.0607659465e+000	-3.7910558073e-001
 8.1437028410e-001	 3.0687825013e+000	-2.9066213790e-001
 7.8474118447e-001	 3.0764925277e+000	-2.2734349842e-001
 7.5511759877e-001	 3.0838972765e+000	-1.8896743927e-001
 7.2550389062e-001	 3.0909980758e+000	-1.7534565409e-001
 6.9590437409e-001	 3.0977963300e+000	-1.8628404503e-001
 6.6632331225e-001	 3.1042935176e+000	-2.2158299634e-001
 6.3676491576e-001	 3.1104911898e+000	-2.8103763013e-001
 6.0723334152e-001	 3.1163909685e+000	-5.4430827078e-001
 5.7773269141e-001	 3.1219945447e+000	-8.8400182470e-001
 8.8050628747e-001	 3.0764766662e+000	-4.1230183652e-001
 8.5064615913e-001	 3.0848664658e+000	-3.0727876215e-001
 8.2078264854e-001	 3.0929461430e+000	-2.2982763721e-001
 7.9092024892e-001	 3.1007168783e+000	-1.7986506211e-001
 7.6106340663e-001	 3.1081799322e+000	-1.5729794024e-001
 7.3121651968e-001	 3.1153366433e+000	-1.6202375755e-001
 7.0138393609e-001	 3.1221884270e+000	-1.9393084772e-001
 6.7156995251e-001	 3.1287367736e+000	-1.6310134049e-001
 6.4177881273e-001	 3.1349832464e+000	-8.7618522917e-002
 6.1201470641e-001	 3.1409294801e+000	-1.8413815847e-001
 5.8228176772e-001	 3.1465771789e+000	-4.4140713011e-001
 8.8738524285e-001	 3.1005116401e+000	-2.9483070242e-001
 8.5729183225e-001	 3.1089669851e+000	-2.0214893506e-001
 8.2719501299e-001	 3.1171097848e+000	-1.3925545294e-001
 7.9709931337e-001	 3.1249412290e+000	-1.0615806434e-001
 7.6700921450e-001	 3.1324625879e+000	 4.3470600134e-002
 7.3692914874e-001	 3.1396752108e+000	 1.7636550092e-001
 7.0686349809e-001	 3.1465805241e+000	 2.8967307559e-001
 6.7681659276e-001	 3.1531800297e+000	 3.8171295946e-001
 6.4679270971e-001	 3.1594753030e+000	 4.5089814084e-001
 6.1679607131e-001	 3.1654679917e+000	 3.8866203550e-001
 5.8683084403e-001	 3.1711598131e+000	 6.4333232739e-002
 8.9426419823e-001	 3.1245466141e+000	-1.4088214614e-001
 8.6393750537e-001	 3.1330675043e+000	 5.6116520367e-002
 8.3360737744e-001	 3.1412734265e+000	 2.4476133594e-001
 8.0327837781e-001	 3.1491655796e+000	 4.1673509425e-001
 7.7295502237e-001	 3.1567452436e+000	 5.6996334191e-001
 7.4264177780e-001	 3.1640137784e+000	 7.0247414272e-001
 7.1234306010e-001	 3.1709726212e+000	 8.1239703385e-001
 6.8206323302e-001	 3.1776232857e+000	 8.9796183536e-001
 6.5180660668e-001	 3.1839673596e+000	 9.5749732110e-001
 6.2157743620e-001	 3.1900065032e+000	 9.4032007679e-001
 5.9137992034e-001	 3.1957424473e+000	 5.4949403083e-001
 5.4588915724e-001	 2.9499161052e+000	 2.6298587028e-001
 5.1804756952e-001	 2.9549326076e+000	 4.2416961550e-001
 4.9024279252e-001	 2.9596726178e+000	 5.3649208055e-001
 4.6247853940e-001	 2.9641379186e+000	 6.0502241669e-001
 4.3475846709e-001	 2.9683303514e+000	 6.3444308576e-001
 4.0708617535e-001	 2.9722518140e+000	 6.2904924966e-001
 3.7946520596e-001	 2.9759042588e+000	 5.9274904611e-001
 3.5189904187e-001	 2.9792896912e+000	 5.2906472351e-001
 3.2439110650e-001	 2.9824101680e+000	 4.4113460642e-001
 2.9694476301e-001	 2.9852677950e+000	 3.3171586149e-001
 2.6956331372e-001	 2.9878647258e+000	 2.0318803303e-001
 5.5043823355e-001	 2.9744987394e+000	 9.1561081734e-002
 5.2236463260e-001	 2.9795570460e+000	 2.4590046150e-001
 4.9432814913e-001	 2.9843365562e+000	 3.5907338397e-001
 4.6633252723e-001	 2.9888390679e+000	 4.3629570767e-001
 4.3838145432e-001	 2.9930664377e+000	 4.8238074000e-001
 4.1047856015e-001	 2.9970205791e+000	 5.0173870110e-001
 3.8262741601e-001	 3.0007034609e+000	 4.9837710122e-001
 3.5483153389e-001	 3.0041171053e+000	 4.7590200372e-001
 3.2709436572e-001	 3.0072635860e+000	 4.3752014399e-001
 2.9941930270e-001	 3.0101450266e+000	 3.8604187332e-001
 2.7180967467e-001	 3.0127635985e+000	 3.2388489565e-001
 5.5498730986e-001	 2.9990813737e+000	-8.0273223372e-002
 5.2668169568e-001	 3.0041814844e+000	 6.3036661364e-002
 4.9841350573e-001	 3.0090004947e+000	 1.7303799734e-001
 4.7018651506e-001	 3.0135402172e+000	 2.5509790413e-001
 4.4200444154e-001	 3.0178025240e+000	 3.1416477435e-001
 4.1387094494e-001	 3.0217893442e+000	 3.5476781218e-001
 3.8578962606e-001	 3.0255026631e+000	 3.8101751326e-001
 3.5776402590e-001	 3.0289445194e+000	 3.9660705718e-001
 3.2979762494e-001	 3.0321170041e+000	 4.0481458169e-001
 3.0189384239e-001	 3.0350222582e+000	 4.0850630691e-001
 2.7405603562e-001	 3.0376624713e+000	 4.1014047609e-001
 5.5953638617e-001	 3.0236640079e+000	-2.5074461888e-001
 5.3099875876e-001	 3.0288059228e+000	-1.2273929120e-001
 5.0249886233e-001	 3.0336644332e+000	-2.0018655479e-002
 4.7404050289e-001	 3.0382413666e+000	 6.2940268851e-002
 4.4562742877e-001	 3.0425386102e+000	 1.3122524182e-001
 4.1726332974e-001	 3.0465581093e+000	 1.8948841642e-001
 3.8895183611e-001	 3.0503018652e+000	 2.4194692198e-001
 3.6069651792e-001	 3.0537719335e+000	 2.9238438745e-001
 3.3250088416e-001	 3.0569704222e+000	 3.4415337294e-001
 3.0436838209e-001	 3.0598994898e+000	 4.0017867652e-001
 2.7630239656e-001	 3.0625613440e+000	 4.6296148194e-001
 5.6408546248e-001	 3.0482466421e+000	-4.1809382468e-001
 5.3531582184e-001	 3.0534303612e+000	-3.0975810343e-001
 5.0658421894e-001	 3.0583283717e+000	-2.1851442687e-001
 4.7789449072e-001	 3.0629425159e+000	-1.3867930717e-001
 4.4925041599e-001	 3.0672746965e+000	-6.5021291936e-002
 4.2065571453e-001	 3.0713268744e+000	 7.2387246480e-003
 3.9211404616e-001	 3.0751010674e+000	 8.2428189527e-002
 3.6362900993e-001	 3.0785993476e+000	 1.6442454634e-001
 3.3520414338e-001	 3.0818238402e+000	 2.5665782616e-001
 3.0684292178e-001	 3.0847767215e+000	 3.6211413938e-001
 2.7854875751e-001	 3.0874602167e+000	 4.8334003322e-001
 5.6863453879e-001	 3.0728292763e+000	-5.8057418086e-001
 5.3963288491e-001	 3.0780547996e+000	-4.9636315543e-001
 5.1066957554e-001	 3.0829923102e+000	-4.2087991440e-001
 4.8174847854e-001	 3.0876436652e+000	-3.4827576987e-001
 4.5287340322e-001	 3.0920107827e+000	-2.7317120913e-001
 4.2404809933e-001	 3.0960956396e+000	-1.9065613012e-001
 3.9527625621e-001	 3.0999002695e+000	-9.6289048454e-002
 3.6656150195e-001	 3.1034267617e+000	 1.3904691912e-002
 3.3790740260e-001	 3.1066772583e+000	 1.4343567055e-001
 3.0931746147e-001	 3.1096539531e+000	 2.9535406996e-001
 2.8079511845e-001	 3.1123590894e+000	 4.7225424585e-001
 5.7318361510e-001	 3.0974119105e+000	-7.3645114695e-001
 5.4394994799e-001	 3.1026792380e+000	-6.8090999729e-001
 5.1475493214e-001	 3.1076562486e+000	-6.2555795506e-001
 4.8560246637e-001	 3.1123448145e+000	-5.6437639268e-001
 4.5649639044e-001	 3.1167468690e+000	-4.9183332602e-001
 4.2744048412e-001	 3.1208644047e+000	-4.0288357371e-001
 3.9843846626e-001	 3.1246994717e+000	-2.9296785793e-001
 3.6949399396e-001	 3.1282541758e+000	-1.0695040988e-001
 3.4061066182e-001	 3.1315306764e+000	 8.2990360231e-002
 3.1179200116e-001	 3.1345311847e+000	 2.7240937187e-001
 2.8304147940e-001	 3.1372579621e+000	 4.6294034809e-001
 5.7773269141e-001	 3.1219945447e+000	-8.8400182470e-001
 5.4826701107e-001	 3.1273036764e+000	-7.9856069605e-001
 5.1884028875e-001	 3.1323201871e+000	-6.3436504159e-001
 4.8945645420e-001	 3.1370459638e+000	-4.7520735311e-001
 4.6011937766e-001	 3.1414829553e+000	-3.2187239249e-001
 4.3083286891e-001	 3.1456331698e+000	-1.7474155245e-001
 4.0160067630e-001	 3.1494986739e+000	-3.3796473482e-002
 3.7242648597e-001	 3.1530815899e+000	 1.0137650806e-001
 3.4331392104e-001	 3.1563840944e+000	 2.3158111291e-001
 3.1426654084e-001	 3.1594084163e+000	 3.5800510622e-001
 2.8528784035e-001	 3.1621568348e+000	 4.8221355374e-001
 5.8228176772e-001	 3.1465771789e+000	-4.4140713011e-001
 5.5258407415e-001	 3.1519281148e+000	-3.1021008944e-001
 5.2292564535e-001	 3.1569841256e+000	-1.8546918983e-001
 4.9331044202e-001	 3.1617471132e+000	-6.8533302766e-002
 4.6374236489e-001	 3.1662190415e+000	 3.9667364053e-002
 4.3422525370e-001	 3.1704019349e+000	 1.3861853116e-001
 4.0476288635e-001	 3.1742978760e+000	 2.2821822409e-001
 3.7535897799e-001	 3.1779090040e+000	 3.0877229390e-001
 3.4601718025e-001	 3.1812375125e+000	 3.8098911441e-001
 3.1674108053e-001	 3.1842856480e+000	 4.4597349026e-001
 2.8753420129e-001	 3.1870557075e+000	 5.0521981119e-001
 5.8683084403e-001	 3.1711598131e+000	 6.4333232739e-002
 5.5690113723e-001	 3.1765525532e+000	 1.6179697900e-001
 5.2701100195e-001	 3.1816480641e+000	 2.5002349126e-001
 4.9716442985e-001	 3.1864482625e+000	 3.2750178168e-001
 4.6736535211e-001	 3.1909551278e+000	 3.9315236408e-001
 4.3761763849e-001	 3.1951707000e+000	 4.4632453799e-001
 4.0792509639e-001	 3.1990970782e+000	 4.8679275859e-001
 3.7829147000e-001	 3.2027364181e+000	 5.1475212481e-001
 3.4872043947e-001	 3.2060909306e+000	 5.3081301927e-001
 3.1921562022e-001	 3.2091628796e+000	 5.3599493517e-001
 2.8978056223e-001	 3.2119545803e+000	 5.3171952611e-001
 5.9137992034e-001	 3.1957424473e+000	 5.4949403083e-001
 5.6121820030e-001	 3.2011769916e+000	 6.1643096972e-001
 5.3109635855e-001	 3.2063120026e+000	 6.7117618051e-001
 5.0101841767e-001	 3.2111494118e+000	 7.1205236725e-001
 4.7098833933e-001	 3.2156912140e+000	 7.3782687481e-001
 4.4101002328e-001	 3.2199394651e+000	 7.4770899242e-001
 4.1108730644e-001	 3.2238962803e+000	 7.4134631622e-001
 3.8122396201e-001	 3.2275638322e+000	 7.1882020393e-001
 3.5142369869e-001	 3.2309443486e+000	 6.8064035602e-001
 3.2169015991e-001	 3.2340401112e+000	 6.2773855932e-001
 2.9202692318e-001	 3.2368534530e+000	 5.6146163007e-001
 2.6956331372e-001	 2.9878647258e+000	 2.0318803303e-001
 2.4224999949e-001	 2.9902031599e+000	 7.8567594514e-002
 2.1500799923e-001	 2.9922853407e+000	-5.0151761256e-002
 1.8784042942e-001	 2.9941135538e+000	-1.8301145099e-001
 1.6075034369e-001	 2.9956901253e+000	-3.2039196322e-001
 1.3374073246e-001	 2.9970174201e+000	-4.6300515039e-001
 1.0681452267e-001	 2.9980978399e+000	-6.1188599707e-001
 7.9974577449e-002	 2.9989338217e+000	-7.6838389994e-001
 5.3223695962e-002	 2.9995278359e+000	-9.3415349502e-001
 2.6564613226e-002	 2.9998823846e+000	-1.1111450678e+000
 0.0000000000e+000	 3.0000000000e+000	-1.3015945818e+000
 2.7180967467e-001	 3.0127635985e+000	 3.2388489565e-001
 2.4426874949e-001	 3.0151215196e+000	 2.3605942821e-001
 2.1679973256e-001	 3.0172210519e+000	 1.4965450623e-001
 1.8940576633e-001	 3.0190645001e+000	 6.4872413683e-002
 1.6208992988e-001	 3.0206542097e+000	-1.8440264797e-002
 1.3485523857e-001	 3.0219925653e+000	-1.0078480359e-001
 1.0770464369e-001	 3.0230819886e+000	-1.8300194780e-001
 8.0641032261e-002	 3.0239249369e+000	-2.6626301359e-001
 5.3667226761e-002	 3.0245239012e+000	-3.5206051399e-001
 2.6785985003e-002	 3.0248814045e+000	-4.4219834686e-001
 0.0000000000e+000	 3.0250000000e+000	-5.3878158143e-001
 2.7405603562e-001	 3.0376624713e+000	 4.1014047609e-001
 2.4628749948e-001	 3.0400398793e+000	 3.6407553081e-001
 2.1859146589e-001	 3.0421567631e+000	 3.2517207049e-001
 1.9097110324e-001	 3.0440154464e+000	 2.9387443168e-001
 1.6342951608e-001	 3.0456182941e+000	 2.7025437091e-001
 1.3596974467e-001	 3.0469677104e+000	 2.5401904400e-001
 1.0859476471e-001	 3.0480661373e+000	 2.4451955759e-001
 8.1307487072e-002	 3.0489160521e+000	 2.4076005549e-001
 5.4110757560e-002	 3.0495199665e+000	 2.4140730148e-001
 2.7007356780e-002	 3.0498804243e+000	 2.4480072117e-001
 0.0000000000e+000	 3.0500000000e+000	 2.4896286474e-001
 2.7630239656e-001	 3.0625613440e+000	 4.6296148194e-001
 2.4830624948e-001	 3.0649582389e+000	 4.6338362698e-001
 2.2038319921e-001	 3.0670924742e+000	 4.7693218401e-001
 1.9253644015e-001	 3.0689663926e+000	 5.0429198202e-001
 1.6476910228e-001	 3.0705823785e+000	 5.4575813211e-001
 1.3708425077e-001	 3.0719428556e+000	 6.0124415219e-001
 1.0948488573e-001	 3.0730502859e+000	 6.7029068870e-001
 8.1973941883e-002	 3.0739071672e+000	 7.5207479651e-001
 5.4554288360e-002	 3.0745160318e+000	 8.4541973786e-001
 2.7228728556e-002	 3.0748794442e+000	 9.4880526120e-001
 0.0000000000e+000	 3.0750000000e+000	 1.0603783212e+000
 2.7854875751e-001	 3.0874602167e+000	 4.8334003322e-001
 2.5032499947e-001	 3.0898765986e+000	 5.3474238976e-001
 2.2217493254e-001	 3.0920281854e+000	 6.0546258675e-001
 1.9410177707e-001	 3.0939173389e+000	 6.9642447131e-001
 1.6610868847e-001	 3.0955464628e+000	 8.0814477347e-001
 1.3819875688e-001	 3.0969180008e+000	 9.4074138286e-001
 1.1037500676e-001	 3.0980344346e+000	 1.0939422474e+000
 8.2640396694e-002	 3.0988982824e+000	 1.2670948538e+000
 5.4997819159e-002	 3.0995120971e+000	 1.4591762501e+000
 2.7450100333e-002	 3.0998784641e+000	 1.6688035687e+000
 0.0000000000e+000	 3.1000000000e+000	 1.8942450116e+000
 2.8079511845e-001	 3.1123590894e+000	 4.7225424585e-001
 2.5234374947e-001	 3.1147949583e+000	 5.7890180264e-001
 2.2396666586e-001	 3.1169638966e+000	 7.1128764666e-001
 1.9566711398e-001	 3.1188682852e+000	 8.7057325258e-001
 1.6744827467e-001	 3.1205105472e+000	 1.0574953134e+000
 1.3931326298e-001	 3.1218931460e+000	 1.2723741759e+000
 1.1126512778e-001	 3.1230185833e+000	 1.5151229226e+000
 8.3306851506e-002	 3.1238893976e+000	 1.7852570607e+000
 5.5441349958e-002	 3.1245081624e+000	 2.0819047749e+000
 2.7671472109e-002	 3.1248774839e+000	 2.4038177028e+000
 0.0000000000e+000	 3.1250000000e+000	 2.7493821926e+000
 2.8304147940e-001	 3.1372579621e+000	 4.6294034809e-001
 2.5436249946e-001	 3.1397133179e+000	 5.5619247858e-001
 2.2575839919e-001	 3.1418996077e+000	 6.4898759180e-001
 1.9723245089e-001	 3.1438192315e+000	 7.4414198501e-001
 1.6878786087e-001	 3.1454746316e+000	 8.4480646936e-001
 1.4042776908e-001	 3.1468682911e+000	 9.5445654506e-001
 1.1215524880e-001	 3.1480027319e+000	 1.0768820858e+000
 8.3973306317e-002	 3.1488805128e+000	 1.2161765696e+000
 5.5884880757e-002	 3.1495042277e+000	 1.3767258938e+000
 2.7892843886e-002	 3.1498765038e+000	 1.5631968112e+000
 0.0000000000e+000	 3.1500000000e+000	 1.7805250247e+000
 2.8528784035e-001	 3.1621568348e+000	 4.8221355374e-001
 2.5638124945e-001	 3.1646316776e+000	 5.0926604832e-001
 2.2755013251e-001	 3.1668353189e+000	 5.2964076073e-001
 1.9879778780e-001	 3.1687701778e+000	 5.4635199178e-001
 1.7012744706e-001	 3.1704387160e+000	 5.6275753335e-001
 1.4154227518e-001	 3.1718434363e+000	 5.8254848678e-001
 1.1304536982e-001	 3.1729868806e+000	 6.0973858064e-001
 8.4639761128e-002	 3.1738716280e+000	 6.4865302646e-001
 5.6328411556e-002	 3.1745002930e+000	 7.0391695075e-001
 2.8114215663e-002	 3.1748755237e+000	 7.8044344161e-001
 0.0000000000e+000	 3.1750000000e+000	 8.8342124802e-001
 2.8753420129e-001	 3.1870557075e+000	 5.0521981119e-001
 2.5839999945e-001	 3.1895500373e+000	 4.7359508556e-001
 2.2934186584e-001	 3.1917710301e+000	 4.2889684452e-001
 2.0036312471e-001	 3.1937211241e+000	 3.7433350752e-001
 1.7146703326e-001	 3.1954028003e+000	 3.1346626765e-001
 1.4265678129e-001	 3.1968185815e+000	 2.5019855016e-001
 1.1393549084e-001	 3.1979710292e+000	 1.8876496038e-001
 8.5306215939e-002	 3.1988627432e+000	 1.3371976051e-001
 5.6771942355e-002	 3.1994963583e+000	 8.9924914612e-002
 2.8335587439e-002	 3.1998745436e+000	 6.2537741290e-002
 0.0000000000e+000	 3.2000000000e+000	 5.6998212859e-002
 2.8978056223e-001	 3.2119545803e+000	 5.3171952611e-001
 2.6041874944e-001	 3.2144683969e+000	 4.4887031196e-001
 2.3113359916e-001	 3.2167067413e+000	 3.4637450430e-001
 2.0192846161e-001	 3.2186720703e+000	 2.2763078627e-001
 1.7280661945e-001	 3.2203668847e+000	 9.6400204456e-002
 1.4377128739e-001	 3.2217937266e+000	-4.3204735343e-002
 1.1482561186e-001	 3.2229551779e+000	-1.8673149354e-001
 8.5972670750e-002	 3.2238538583e+000	-3.2939940268e-001
 5.7215473154e-002	 3.2244924236e+000	-4.6611201356e-001
 2.8556959216e-002	 3.2248735634e+000	-5.9146984112e-001
 0.0000000000e+000	 3.2250000000e+000	-6.9978347009e-001
 2.9202692318e-001	 3.2368534530e+000	 5.6146163007e-001
 2.6243749943e-001	 3.2393867566e+000	 4.3477532947e-001
 2.3292533249e-001	 3.2416424524e+000	 2.8168963838e-001
 2.0349379852e-001	 3.2436230166e+000	 1.0578967684e-001
 1.7414620565e-001	 3.2453309691e+000	-8.8967172521e-002
 1.4488579349e-001	 3.2467688718e+000	-2.9826253464e-001
 1.1571573288e-001	 3.2479393266e+000	-5.1742884414e-001
 8.6639125561e-002	 3.2488449735e+000	-7.4146163789e-001
 5.7659003953e-002	 3.2494884889e+000	-9.6503229645e-001
 2.8778330992e-002	 3.2498725833e+000	-1.1825011930e+000
 0.0000000000e+000	 3.2500000000e+000	-1.3879312089e+000
 3.2500000000e+000	 0.0000000000e+000	 8.6104897964e-001
 3.2498725833e+000	 2.8778330992e-002	 8.5582649391e-001
 3.2494884889e+000	 5.7659003953e-002	 8.4065003584e-001
 3.2488449735e+000	 8.6639125561e-002	 8.1621545275e-001
 3.2479393266e+000	 1.1571573288e-001	 7.8321675927e-001
 3.2467688718e+000	 1.4488579349e-001	 7.4234841283e-001
 3.2453309691e+000	 1.7414620565e-001	 6.9430774446e-001
 3.2436230166e+000	 2.0349379852e-001	 6.3979754412e-001
 3.2416424524e+000	 2.3292533249e-001	 5.7952879919e-001
 3.2393867566e+000	 2.6243749943e-001	 5.1422358418e-001
 3.2368534530e+000	 2.9202692318e-001	 4.4461809932e-001
 3.2750000000e+000	 0.0000000000e+000	 8.7429869676e-001
 3.2748716032e+000	 2.8999702769e-002	 8.6920539634e-001
 3.2744845542e+000	 5.8102534752e-002	 8.5577814273e-001
 3.2738360887e+000	 8.7305580372e-002	 8.3459382676e-001
 3.2729234752e+000	 1.1660585390e-001	 8.0622353641e-001
 3.2717440170e+000	 1.4600029959e-001	 7.7123492556e-001
 3.2702950535e+000	 1.7548579184e-001	 7.3019474721e-001
 3.2685739629e+000	 2.0505913543e-001	 6.8367155053e-001
 3.2665781636e+000	 2.3471706581e-001	 6.3223854051e-001
 3.2643051163e+000	 2.6445624942e-001	 5.7647659824e-001
 3.2617523257e+000	 2.9427328412e-001	 5.1697745944e-001
 3.3000000000e+000	 0.0000000000e+000	 8.9293692987e-001
 3.2998706230e+000	 2.9221074545e-002	 8.8720749799e-001
 3.2994806195e+000	 5.8546065551e-002	 8.7476202856e-001
 3.2988272039e+000	 8.7972035183e-002	 8.5605728887e-001
 3.2979076239e+000	 1.1749597492e-001	 8.3154024337e-001
 3.2967191621e+000	 1.4711480569e-001	 8.0165051717e-001
 3.2952591379e+000	 1.7682537804e-001	 7.6682303327e-001
 3.2935249092e+000	 2.0662447234e-001	 7.2749082321e-001
 3.2915138748e+000	 2.3650879913e-001	 6.8408800962e-001
 3.2892234759e+000	 2.6647499942e-001	 6.3705295908e-001
 3.2866511984e+000	 2.9651964507e-001	 5.8683160263e-001
 3.3250000000e+000	 0.0000000000e+000	 9.1621525991e-001
 3.3248696429e+000	 2.9442446322e-002	 9.0918851678e-001
 3.3244766848e+000	 5.8989596350e-002	 8.9706228549e-001
 3.3238183191e+000	 8.8638489994e-002	 8.8017200032e-001
 3.3228917726e+000	 1.1838609594e-001	 8.5883926170e-001
 3.3216943073e+000	 1.4822931180e-001	 8.3337439587e-001
 3.3202232222e+000	 1.7816496423e-001	 8.0407919803e-001
 3.3184758555e+000	 2.0818980925e-001	 7.7124985812e-001
 3.3164495860e+000	 2.3830053246e-001	 7.3518006830e-001
 3.3141418356e+000	 2.6849374941e-001	 6.9616431030e-001
 3.3115500711e+000	 2.9876600601e-001	 6.5450132009e-001
 3.3500000000e+000	 0.0000000000e+000	 9.4340760872e-001
 3.3498686628e+000	 2.9663818098e-002	 9.3452476169e-001
 3.3494727501e+000	 5.9433127149e-002	 9.2215833267e-001
 3.3488094342e+000	 8.9304944806e-002	 9.0652117148e-001
 3.3478759212e+000	 1.1927621697e-001	 8.8780823084e-001
 3.3466694525e+000	 1.4934381790e-001	 8.6619922392e-001
 3.3451873066e+000	 1.7950455043e-001	 8.4186147482e-001
 3.3434268017e+000	 2.0975514616e-001	 8.1495296148e-001
 3.3413852971e+000	 2.4009226578e-001	 7.8562554989e-001
 3.3390601953e+000	 2.7051249940e-001	 7.5402841798e-001
 3.3364489438e+000	 3.0101236695e-001	 7.2031166656e-001
 3.3750000000e+000	 0.0000000000e+000	 9.7380941151e-001
 3.3748676827e+000	 2.9885189875e-002	 9.6261237020e-001
 3.3744688154e+000	 5.9876657948e-002	 9.4954771898e-001
 3.3738005494e+000	 8.9971399617e-002	 9.3470443036e-001
 3.3728600699e+000	 1.2016633799e-001	 9.1814948312e-001
 3.3716445976e+000	 1.5045832400e-001	 8.9993061934e-001
 3.3701513910e+000	 1.8084413662e-001	 8.8007930393e-001
 3.3683777480e+000	 2.1132048307e-001	 8.5861388646e-001
 3.3663210083e+000	 2.4188399911e-001	 8.3554296409e-001
 3.3639785549e+000	 2.7253124940e-001	 8.1086894391e-001
 3.3613478166e+000	 3.0325872790e-001	 7.8459180249e-001
 3.4000000000e+000	 0.0000000000e+000	 1.0067368260e+000
 3.3998667025e+000	 3.0106561652e-002	 9.9286657922e-001
 3.3994648807e+000	 6.0320188747e-002	 9.7874545645e-001
 3.3987916646e+000	 9.0637854428e-002	 9.6433721904e-001
 3.3978442186e+000	 1.2105645901e-001	 9.4957950350e-001
 3.3966197428e+000	 1.5157283010e-001	 9.3438667956e-001
 3.3951154754e+000	 1.8218372282e-001	 9.1865292054e-001
 3.3933286943e+000	 2.1288581998e-001	 9.0225548588e-001
 3.3912567195e+000	 2.4367573243e-001	 8.8505821471e-001
 3.3888969146e+000	 2.7454999939e-001	 8.6691522888e-001
 3.3862466893e+000	 3.0550508885e-001	 8.4767484303e-001
 3.4250000000e+000	 0.0000000000e+000	 1.0415259762e+000
 3.4248657224e+000	 3.0327933428e-002	 1.0247210281e+000
 3.4244609460e+000	 6.0763719546e-002	 1.0092833829e+000
 3.4237827798e+000	 9.1304309239e-002	 9.9505021652e-001
 3.4228283672e+000	 1.2194658003e-001	 9.8182841308e-001
 3.4215948880e+000	 1.5268733621e-001	 9.6939752601e-001
 3.4200795598e+000	 1.8352330902e-001	 9.5751296078e-001
 3.4182796406e+000	 2.1445115689e-001	 9.4590938006e-001
 3.4161924307e+000	 2.4546746576e-001	 9.3430432986e-001
 3.4138152743e+000	 2.7656874939e-001	 9.2240208535e-001
 3.4111455620e+000	 3.0775144979e-001	 9.0989771373e-001
 3.4500000000e+000	 0.0000000000e+000	 1.0775322288e+000
 3.4498647423e+000	 3.0549305205e-002	 1.0576270918e+000
 3.4494570113e+000	 6.1207250346e-002	 1.0407095525e+000
 3.4487738950e+000	 9.1970764051e-002	 1.0264887867e+000
 3.4478125159e+000	 1.2283670105e-001	 1.0146394751e+000
 3.4465700331e+000	 1.5380184231e-001	 1.0048048684e+000
 3.4450436441e+000	 1.8486289521e-001	 9.9660008489e-001
 3.4432305869e+000	 2.1601649380e-001	 9.8961563919e-001
 3.4411281418e+000	 2.4725919909e-001	 9.8342120377e-001
 3.4387336339e+000	 2.7858749938e-001	 9.7756959927e-001
 3.4360444347e+000	 3.0999781074e-001	 9.7160101248e-001
 3.4750000000e+000	 0.0000000000e+000	 1.1141295011e+000
 3.4748637621e+000	 3.0770676981e-002	 1.0910532431e+000
 3.4744530766e+000	 6.1650781145e-002	 1.0725876521e+000
 3.4737650101e+000	 9.2637218862e-002	 1.0583124500e+000
 3.4727966646e+000	 1.2372682207e-001	 1.0477686219e+000
 3.4715451783e+000	 1.5491634841e-001	 1.0404615881e+000
 3.4700077285e+000	 1.8620248141e-001	 1.0358646166e+000
 3.4681815332e+000	 2.1758183071e-001	 1.0334224794e+000
 3.4660638530e+000	 2.4905093241e-001	 1.0325553498e+000
 3.4636519936e+000	 2.8060624938e-001	 1.0326629403e+000
 3.4609433074e+000	 3.1224417169e-001	 1.0331288774e+000
 3.5000000000e+000	 0.0000000000e+000	 1.1507095984e+000
 3.4998627820e+000	 3.0992048758e-002	 1.1244844415e+000
 3.4994491419e+000	 6.2094311944e-002	 1.1044964433e+000
 3.4987561253e+000	 9.3303673673e-002	 1.0901943779e+000
 3.4977808132e+000	 1.2461694309e-001	 1.0809840031e+000
 3.4965203235e+000	 1.5603085452e-001	 1.0762313387e+000
 3.4949718129e+000	 1.8754206761e-001	 1.0752661980e+000
 3.4931324794e+000	 2.1914716763e-001	 1.0773859717e+000
 3.4909995642e+000	 2.5084266574e-001	 1.0818596642e+000
 3.4885703533e+000	 2.8262499937e-001	 1.0879321804e+000
 3.4858421801e+000	 3.1449053264e-001	 1.0948288604e+000
 3.2368534530e+000	 2.9202692318e-001	 4.4461809932e-001
 3.2340401112e+000	 3.2169015991e-001	 4.3198660049e-001
 3.2309443486e+000	 3.5142369869e-001	 4.2761943839e-001
 3.2275638322e+000	 3.8122396201e-001	 4.3223712906e-001
 3.2238962803e+000	 4.1108730644e-001	 4.4657674326e-001
 3.2199394651e+000	 4.4101002328e-001	 4.7139546652e-001
 3.2156912140e+000	 4.7098833933e-001	 5.0747428931e-001
 3.2111494118e+000	 5.0101841767e-001	 5.5562182088e-001
 3.2063120026e+000	 5.3109635855e-001	 6.1667821968e-001
 3.2011769916e+000	 5.6121820030e-001	 6.9151923221e-001
 3.1957424473e+000	 5.9137992034e-001	 7.8106033198e-001
 3.2617523257e+000	 2.9427328412e-001	 5.1697745944e-001
 3.2589173428e+000	 3.2416469960e-001	 5.0896866880e-001
 3.2557977667e+000	 3.5412695790e-001	 5.0790028384e-001
 3.2523912463e+000	 3.8415645402e-001	 5.1431862926e-001
 3.2486954825e+000	 4.1424951648e-001	 5.2878488725e-001
 3.2447082303e+000	 4.4440240807e-001	 5.5187888320e-001
 3.2404273003e+000	 4.7461132655e-001	 5.8420301043e-001
 3.2358505611e+000	 5.0487240550e-001	 6.2638628724e-001
 3.2309759410e+000	 5.3518171515e-001	 6.7908853881e-001
 3.2258014300e+000	 5.6553526338e-001	 7.4300469577e-001
 3.2203250815e+000	 5.9592899665e-001	 8.1886920047e-001
 3.2866511984e+000	 2.9651964507e-001	 5.8683160263e-001
 3.2837945745e+000	 3.2663923928e-001	 5.8243394260e-001
 3.2806511848e+000	 3.5683021712e-001	 5.8366102834e-001
 3.2772186604e+000	 3.8708894603e-001	 5.9088389574e-001
 3.2734946847e+000	 4.1741172653e-001	 6.0448672224e-001
 3.2694769954e+000	 4.4779479286e-001	 6.2487084049e-001
 3.2651633866e+000	 4.7823431377e-001	 6.5245889994e-001
 3.2605517105e+000	 5.0872639332e-001	 6.8769916946e-001
 3.2556398795e+000	 5.3926707176e-001	 7.3106997327e-001
 3.2504258684e+000	 5.6985232646e-001	 7.8308425168e-001
 3.2449077157e+000	 6.0047807296e-001	 8.4429423748e-001
 3.3115500711e+000	 2.9876600601e-001	 6.5450132009e-001
 3.3086718061e+000	 3.2911377897e-001	 6.5281649783e-001
 3.3055046028e+000	 3.5953347634e-001	 6.5544877192e-001
 3.3020460744e+000	 3.9002143804e-001	 6.6259273219e-001
 3.2982938868e+000	 4.2057393658e-001	 6.7445437482e-001
 3.2942457605e+000	 4.5118717765e-001	 6.9125534608e-001
 3.2898994728e+000	 4.8185730100e-001	 7.1323734317e-001
 3.2852528598e+000	 5.1258038115e-001	 7.4066666487e-001
 3.2803038180e+000	 5.4335242836e-001	 7.7383890397e-001
 3.2750503068e+000	 5.7416938954e-001	 8.1308377293e-001
 3.2694903500e+000	 6.0502714927e-001	 8.5877005297e-001
 3.3364489438e+000	 3.0101236695e-001	 7.2031166656e-001
 3.3335490377e+000	 3.3158831866e-001	 7.2055269187e-001
 3.3303580209e+000	 3.6223673555e-001	 7.2381092092e-001
 3.3268734885e+000	 3.9295393006e-001	 7.3010328152e-001
 3.3230930890e+000	 4.2373614662e-001	 7.3945635251e-001
 3.3190145256e+000	 4.5457956245e-001	 7.5191084000e-001
 3.3146355591e+000	 4.8548028822e-001	 7.6752621981e-001
 3.3099540091e+000	 5.1643436897e-001	 7.8638553859e-001
 3.3049677565e+000	 5.4743778496e-001	 8.0860036548e-001
 3.2996747452e+000	 5.7848645261e-001	 8.3431588522e-001
 3.2940729842e+000	 6.0957622558e-001	 8.6371612284e-001
 3.3613478166e+000	 3.0325872790e-001	 7.8459180249e-001
 3.3584262693e+000	 3.3406285835e-001	 7.8608107900e-001
 3.3552114390e+000	 3.6493999477e-001	 7.8929517670e-001
 3.3517009026e+000	 3.9588642207e-001	 7.9407208738e-001
 3.3478922911e+000	 4.2689835667e-001	 8.0025767782e-001
 3.3437832907e+000	 4.5797194724e-001	 8.0771040087e-001
 3.3393716454e+000	 4.8910327544e-001	 8.1630618187e-001
 3.3346551584e+000	 5.2028835680e-001	 8.2594347289e-001
 3.3296316950e+000	 5.5152314156e-001	 8.3654846620e-001
 3.3242991836e+000	 5.8280351569e-001	 8.4808045757e-001
 3.3186556184e+000	 6.1412530188e-001	 8.6053734945e-001
 3.3862466893e+000	 3.0550508885e-001	 8.4767484303e-001
 3.3833035010e+000	 3.3653739804e-001	 8.4984232964e-001
 3.3800648570e+000	 3.6764325399e-001	 8.5244952476e-001
 3.3765283167e+000	 3.9881891408e-001	 8.5515415296e-001
 3.3726914933e+000	 4.3006056672e-001	 8.5762001638e-001
 3.3685520559e+000	 4.6136433203e-001	 8.5952194295e-001
 3.3641077316e+000	 4.9272626267e-001	 8.6055091939e-001
 3.3593563078e+000	 5.2414234463e-001	 8.6041940110e-001
 3.3542956335e+000	 5.5560849817e-001	 8.5886679006e-001
 3.3489236220e+000	 5.8712057877e-001	 8.5566507132e-001
 3.3432382526e+000	 6.1867437819e-001	 8.5062459738e-001
 3.4111455620e+000	 3.0775144979e-001	 9.0989771373e-001
 3.4081807326e+000	 3.3901193773e-001	 9.1227915313e-001
 3.4049182751e+000	 3.7034651321e-001	 9.1382222436e-001
 3.4013557308e+000	 4.0175140610e-001	 9.1400299719e-001
 3.3974906954e+000	 4.3322277677e-001	 9.1230179942e-001
 3.3933208210e+000	 4.6475671683e-001	 9.0820840468e-001
 3.3888438179e+000	 4.9634924989e-001	 9.0122741459e-001
 3.3840574571e+000	 5.2799633246e-001	 8.9088382690e-001
 3.3789595719e+000	 5.5969385477e-001	 8.7672878065e-001
 3.3735480604e+000	 5.9143764185e-001	 8.5834546861e-001
 3.3678208868e+000	 6.2322345450e-001	 8.3535520579e-001
 3.4360444347e+000	 3.0999781074e-001	 9.7160101248e-001
 3.4330579642e+000	 3.4148647742e-001	 9.7383622383e-001
 3.4297716932e+000	 3.7304977243e-001	 9.7396179864e-001
 3.4261831449e+000	 4.0468389811e-001	 9.7127070856e-001
 3.4222898976e+000	 4.3638498682e-001	 9.6505834098e-001
 3.4180895861e+000	 4.6814910162e-001	 9.5462792892e-001
 3.4135799042e+000	 4.9997223712e-001	 9.3929618484e-001
 3.4087586064e+000	 5.3185032028e-001	 9.1839912978e-001
 3.4036235104e+000	 5.6377921137e-001	 8.9129810864e-001
 3.3981724988e+000	 5.9575470493e-001	 8.5738598130e-001
 3.3924035210e+000	 6.2777253081e-001	 8.8814549107e-001
 3.4609433074e+000	 3.1224417169e-001	 1.0331288774e+000
 3.4579351959e+000	 3.4396101711e-001	 1.0349601105e+000
 3.4546251112e+000	 3.7575303165e-001	 1.0334170251e+000
 3.4510105590e+000	 4.0761639013e-001	 1.0276079965e+000
 3.4470890998e+000	 4.3954719687e-001	 1.0166419500e+000
 3.4428583512e+000	 4.7154148642e-001	 9.9963403546e-001
 3.4383159904e+000	 5.0359522435e-001	 9.7571151521e-001
 3.4334597557e+000	 5.3570430811e-001	 9.4401985726e-001
 3.4282874489e+000	 5.6786456798e-001	 9.0372902325e-001
 3.4227969372e+000	 6.0007176801e-001	 8.5403994144e-001
 3.4169861552e+000	 6.3232160712e-001	 9.8375449615e-001
 3.4858421801e+000	 3.1449053264e-001	 1.0948288604e+000
 3.4828124275e+000	 3.4643555681e-001	 1.0960992085e+000
 3.4794785293e+000	 3.7845629087e-001	 1.0927369265e+000
 3.4758379731e+000	 4.1054888215e-001	 1.0836642408e+000
 3.4718883019e+000	 4.4270940692e-001	 1.0678020379e+000
 3.4676271163e+000	 4.7493387121e-001	 1.0440757862e+000
 3.4630520767e+000	 5.0721821157e-001	 1.0114216811e+000
 3.4581609051e+000	 5.3955829594e-001	 9.6879300460e-001
 3.4529513874e+000	 5.7194992458e-001	 9.1516668882e-001
 3.4474213756e+000	 6.0438883109e-001	 8.4955007409e-001
 3.4415687894e+000	 6.3687068343e-001	 1.0760693641e+000
 3.1957424473e+000	 5.9137992034e-001	 7.8106033198e-001
 3.1900065032e+000	 6.2157743620e-001	 1.3780782948e-001
 3.1839673596e+000	 6.5180660668e-001	 1.2504808701e-001
 3.1776232857e+000	 6.8206323302e-001	 1.9376059885e-001
 3.1709726212e+000	 7.1234306010e-001	 2.6309187780e-001
 3.1640137784e+000	 7.4264177780e-001	 3.3166880046e-001
 3.1567452436e+000	 7.7295502237e-001	 3.9805396487e-001
 3.1491655796e+000	 8.0327837781e-001	 4.6074439919e-001
 3.1412734265e+000	 8.3360737744e-001	 5.1817035392e-001
 3.1330675043e+000	 8.6393750537e-001	 5.6869418467e-001
 3.1245466141e+000	 8.9426419823e-001	 6.0517405258e-001
 3.2203250815e+000	 5.9592899665e-001	 8.1886920047e-001
 3.2145450148e+000	 6.2635880109e-001	 1.6633520905e-001
 3.2084594163e+000	 6.5682050366e-001	 2.1526133063e-001
 3.2020665418e+000	 6.8730987327e-001	 2.6552358713e-001
 3.1953647183e+000	 7.1782262210e-001	 3.1589953131e-001
 3.1883523459e+000	 7.4835440687e-001	 3.6510448393e-001
 3.1810278994e+000	 7.7890083024e-001	 4.1179005263e-001
 3.1733899302e+000	 8.0945744226e-001	 4.5454272498e-001
 3.1654370683e+000	 8.4001974188e-001	 4.9188254297e-001
 3.1571680236e+000	 8.7058317850e-001	 5.2226186591e-001
 3.1485815881e+000	 9.0114315360e-001	 5.4406422913e-001
 3.2449077157e+000	 6.0047807296e-001	 8.4429423748e-001
 3.2390835264e+000	 6.3114016599e-001	 2.7198211870e-001
 3.2329514729e+000	 6.6183440064e-001	 3.0481418041e-001
 3.2265097978e+000	 6.9255651353e-001	 3.3842568052e-001
 3.2197568154e+000	 7.2330218410e-001	 3.7168189203e-001
 3.2126909134e+000	 7.5406703593e-001	 4.0338649346e-001
 3.2053105551e+000	 7.8484663811e-001	 4.3227997330e-001
 3.1976142808e+000	 8.1563650671e-001	 4.5703810624e-001
 3.1896007100e+000	 8.4643210633e-001	 4.7627050860e-001
 3.1812685429e+000	 8.7722885162e-001	 4.8851928028e-001
 3.1726165620e+000	 9.0802210898e-001	 4.9225774059e-001
 3.2694903500e+000	 6.0502714927e-001	 8.5877005297e-001
 3.2636220379e+000	 6.3592153088e-001	 3.7529394556e-001
 3.2574435295e+000	 6.6684829761e-001	 3.9372747688e-001
 3.2509530539e+000	 6.9780315378e-001	 4.1241980073e-001
 3.2441489125e+000	 7.2878174611e-001	 4.3032389574e-001
 3.2370294809e+000	 7.5977966499e-001	 4.4633174290e-001
 3.2295932108e+000	 7.9079244597e-001	 4.5927261422e-001
 3.2218386314e+000	 8.2181557116e-001	 4.6791143083e-001
 3.2137643518e+000	 8.5284447077e-001	 4.7094719817e-001
 3.2053690621e+000	 8.8387452474e-001	 4.6701152558e-001
 3.1966515360e+000	 9.1490106435e-001	 4.5466723826e-001
 3.2940729842e+000	 6.0957622558e-001	 8.6371612284e-001
 3.2881605495e+000	 6.4070289577e-001	 4.7634577241e-001
 3.2819355861e+000	 6.7186219458e-001	 4.8201004955e-001
 3.2753963099e+000	 7.0304979404e-001	 4.8744843758e-001
 3.2685410096e+000	 7.3426130811e-001	 4.9170163640e-001
 3.2613680485e+000	 7.6549229405e-001	 4.9374990473e-001
 3.2538758665e+000	 7.9673825384e-001	 4.9251123159e-001
 3.2460629820e+000	 8.2799463561e-001	 4.8683957497e-001
 3.2379279935e+000	 8.5925683522e-001	 4.7552317538e-001
 3.2294695814e+000	 8.9052019786e-001	 4.5728295196e-001
 3.2206865099e+000	 9.2178001972e-001	 4.3077098923e-001
 3.3186556184e+000	 6.1412530188e-001	 8.6053734945e-001
 3.3126990611e+000	 6.4548426067e-001	 5.7519960638e-001
 3.3064276427e+000	 6.7687609156e-001	 5.6965916177e-001
 3.2998395660e+000	 7.0829643429e-001	 5.6344403533e-001
 3.2929331067e+000	 7.3974087011e-001	 5.5568269360e-001
 3.2857066160e+000	 7.7120492311e-001	 5.4544367826e-001
 3.2781585222e+000	 8.0268406170e-001	 5.3173365910e-001
 3.2702873326e+000	 8.3417370005e-001	 5.1349555181e-001
 3.2620916352e+000	 8.6566919966e-001	 4.8960670862e-001
 3.2535701007e+000	 8.9716587098e-001	 4.5887718962e-001
 3.2447214839e+000	 9.2865897510e-001	 4.2004812302e-001
 3.3432382526e+000	 6.1867437819e-001	 8.5062459738e-001
 3.3372375726e+000	 6.5026562556e-001	 6.7190485962e-001
 3.3309196993e+000	 6.8188998853e-001	 6.5666093597e-001
 3.3242828220e+000	 7.1354307455e-001	 6.4032936203e-001
 3.3173252037e+000	 7.4522043211e-001	 6.2212644559e-001
 3.3100451835e+000	 7.7691755217e-001	 6.0120904602e-001
 3.3024411780e+000	 8.0862986957e-001	 5.7667250725e-001
 3.2945116833e+000	 8.4035276450e-001	 5.4754865346e-001
 3.2862552770e+000	 8.7208156410e-001	 5.1280385532e-001
 3.2776706199e+000	 9.0381154410e-001	 4.7133717522e-001
 3.2687564578e+000	 9.3553793047e-001	 4.2197859984e-001
 3.3678208868e+000	 6.2322345450e-001	 8.3535520579e-001
 3.3617760842e+000	 6.5504699045e-001	 7.6649880900e-001
 3.3554117559e+000	 6.8690388551e-001	 7.4299076021e-001
 3.3487260780e+000	 7.1878971480e-001	 7.1801786265e-001
 3.3417173008e+000	 7.5069999411e-001	 6.9088436864e-001
 3.3343837511e+000	 7.8263018123e-001	 6.6083551885e-001
 3.3267238337e+000	 8.1457567743e-001	 6.2705535401e-001
 3.3187360339e+000	 8.4653182894e-001	 5.8866458682e-001
 3.3104189187e+000	 8.7849392854e-001	 5.4471854266e-001
 3.3017711392e+000	 9.1045721722e-001	 4.9420517727e-001
 3.2927914318e+000	 9.4241688584e-001	 4.3604318032e-001
 3.3924035210e+000	 6.2777253081e-001	 8.8814549107e-001
 3.3863145957e+000	 6.5982835535e-001	 8.5900703581e-001
 3.3799038126e+000	 6.9191778248e-001	 8.2861367716e-001
 3.3731693341e+000	 7.2403635505e-001	 7.9641399689e-001
 3.3661093979e+000	 7.5617955611e-001	 7.6180032329e-001
 3.3587223186e+000	 7.8834281029e-001	 7.2410637045e-001
 3.3510064894e+000	 8.2052148530e-001	 6.8260492709e-001
 3.3429603845e+000	 8.5271089338e-001	 6.3650560343e-001
 3.3345825605e+000	 8.8490629298e-001	 5.8495264475e-001
 3.3258716585e+000	 9.1710289033e-001	 5.2702282030e-001
 3.3168264057e+000	 9.4929584121e-001	 4.6172339648e-001
 3.4169861552e+000	 6.3232160712e-001	 9.8375449615e-001
 3.4108531073e+000	 6.6460972024e-001	 9.4944384641e-001
 3.4043958692e+000	 6.9693167945e-001	 9.1348475622e-001
 3.3976125901e+000	 7.2928299530e-001	 8.7541356236e-001
 3.3905014950e+000	 7.6165911811e-001	 8.3471082832e-001
 3.3830608861e+000	 7.9405543935e-001	 7.9079886168e-001
 3.3752891451e+000	 8.2646729316e-001	 7.4303927851e-001
 3.3671847351e+000	 8.5888995783e-001	 6.9073062380e-001
 3.3587462022e+000	 8.9131865742e-001	 6.3310605646e-001
 3.3499721777e+000	 9.2374856345e-001	 5.6933110802e-001
 3.3408613797e+000	 9.5617479658e-001	 4.9850152401e-001
 3.4415687894e+000	 6.3687068343e-001	 1.0760693641e+000
 3.4353916189e+000	 6.6939108513e-001	 1.0378126750e+000
 3.4288879258e+000	 7.0194557643e-001	 9.9754944970e-001
 3.4220558462e+000	 7.3452963556e-001	 9.5490400397e-001
 3.4148935921e+000	 7.6713868010e-001	 9.0944532299e-001
 3.4073994536e+000	 7.9976806841e-001	 8.6068445531e-001
 3.3995718009e+000	 8.3241310102e-001	 8.0807195149e-001
 3.3914090857e+000	 8.6506902227e-001	 7.5099535636e-001
 3.3829098440e+000	 8.9773102186e-001	 6.8877676415e-001
 3.3740726970e+000	 9.3039423656e-001	 6.2067044548e-001
 3.3648963537e+000	 9.6305375194e-001	 5.4586055565e-001
 3.1245466141e+000	 8.9426419823e-001	 6.0517405258e-001
 3.1157096398e+000	 9.2458284674e-001	 5.8487766824e-001
 3.1065555498e+000	 9.5488879754e-001	 5.5888773296e-001
 3.0970833988e+000	 9.8517735496e-001	 5.2708820377e-001
 3.0872923289e+000	 1.0154437829e+000	 4.8936378334e-001
 3.0771815712e+000	 1.0456833066e+000	 4.4560230430e-001
 3.0667504478e+000	 1.0758911149e+000	 3.9569717392e-001
 3.0559983723e+000	 1.1060623621e+000	 3.3954987293e-001
 3.0449248518e+000	 1.1361921700e+000	 2.7707250199e-001
 3.0335294880e+000	 1.1662756302e+000	 2.0819036891e-001
 3.0218119785e+000	 1.1963078061e+000	 1.3284460938e-001
 3.1485815881e+000	 9.0114315360e-001	 5.4406422913e-001
 3.1396766370e+000	 9.3169502249e-001	 6.1669336049e-001
 3.1304521310e+000	 9.6223409599e-001	 6.6857387662e-001
 3.1209071173e+000	 9.9275564231e-001	 6.6421561458e-001
 3.1110407314e+000	 1.0232548889e+000	 6.0356269610e-001
 3.1008521987e+000	 1.0537270243e+000	 5.3792841813e-001
 3.0903408358e+000	 1.0841672004e+000	 4.6715852765e-001
 3.0795060520e+000	 1.1145705341e+000	 3.9110567083e-001
 3.0683473506e+000	 1.1449321098e+000	 3.0963202968e-001
 3.0568643302e+000	 1.1752469812e+000	 2.2261200265e-001
 3.0450566860e+000	 1.2055101738e+000	 1.2993492163e-001
 3.1726165620e+000	 9.0802210898e-001	 4.9225774059e-001
 3.1636436342e+000	 9.3880719824e-001	 5.6132361619e-001
 3.1543487122e+000	 9.6957939444e-001	 6.1114397668e-001
 3.1447308357e+000	 1.0003339297e+000	 6.4038429439e-001
 3.1347891339e+000	 1.0310659949e+000	 6.4764990188e-001
 3.1245228262e+000	 1.0617707421e+000	 6.2867023347e-001
 3.1139312239e+000	 1.0924432859e+000	 5.3717916975e-001
 3.1030137318e+000	 1.1230787061e+000	 4.4133771415e-001
 3.0917698495e+000	 1.1536720496e+000	 3.4095697897e-001
 3.0801991724e+000	 1.1842183322e+000	 2.3585931581e-001
 3.0683013935e+000	 1.2147125416e+000	 1.2588113111e-001
 3.1966515360e+000	 9.1490106435e-001	 4.5466723826e-001
 3.1876106315e+000	 9.4591937399e-001	 5.1933211152e-001
 3.1782452933e+000	 9.7692469289e-001	 5.6626298761e-001
 3.1685545542e+000	 1.0079122170e+000	 5.9411660063e-001
 3.1585375365e+000	 1.0388771009e+000	 6.0148658613e-001
 3.1481934537e+000	 1.0698144598e+000	 5.8690250450e-001
 3.1375216120e+000	 1.1007193714e+000	 5.4882898582e-001
 3.1265214116e+000	 1.1315868782e+000	 4.8566500343e-001
 3.1151923483e+000	 1.1624119893e+000	 3.7186445656e-001
 3.1035340146e+000	 1.1931896832e+000	 2.4878232403e-001
 3.0915461010e+000	 1.2239149093e+000	 1.2156629536e-001
 3.2206865099e+000	 9.2178001972e-001	 4.3077098923e-001
 3.2115776287e+000	 9.5303154973e-001	 4.9019507978e-001
 3.2021418745e+000	 9.8426999133e-001	 5.3340588343e-001
 3.1923782726e+000	 1.0154905044e+000	 5.5905204700e-001
 3.1822859390e+000	 1.0466882070e+000	 5.6571613531e-001
 3.1718640811e+000	 1.0778581776e+000	 5.5191358547e-001
 3.1611120000e+000	 1.1089954569e+000	 5.1609178673e-001
 3.1500290914e+000	 1.1400950502e+000	 4.5662929328e-001
 3.1386148472e+000	 1.1711519291e+000	 3.7183517710e-001
 3.1268688568e+000	 1.2021610342e+000	 2.5994852822e-001
 3.1147908086e+000	 1.2331172771e+000	 1.1787068178e-001
 3.2447214839e+000	 9.2865897510e-001	 4.2004812302e-001
 3.2355446259e+000	 9.6014372548e-001	 4.7338931255e-001
 3.2260384556e+000	 9.9161528978e-001	 5.1204788078e-001
 3.2162019911e+000	 1.0230687917e+000	 5.3466504621e-001
 3.2060343415e+000	 1.0544993130e+000	 5.3981293651e-001
 3.1955347086e+000	 1.0859018953e+000	 5.2599347233e-001
 3.1847023881e+000	 1.1172715424e+000	 4.9163738061e-001
 3.1735367712e+000	 1.1486032222e+000	 4.3510334508e-001
 3.1620373461e+000	 1.1798918689e+000	 3.5467730149e-001
 3.1502036991e+000	 1.2111323852e+000	 2.4857188478e-001
 3.1380355161e+000	 1.2423196448e+000	 1.1492603551e-001
 3.2687564578e+000	 9.3553793047e-001	 4.2197859984e-001
 3.2595116232e+000	 9.6725590122e-001	 4.6839213912e-001
 3.2499350368e+000	 9.9896058822e-001	 5.0166443001e-001
 3.2400257095e+000	 1.0306470791e+000	 5.2042992963e-001
 3.2297827441e+000	 1.0623104190e+000	 5.2325096959e-001
 3.2192053361e+000	 1.0939456130e+000	 5.0861656773e-001
 3.2082927761e+000	 1.1255476279e+000	 4.7494137342e-001
 3.1970444510e+000	 1.1571113942e+000	 4.2056475437e-001
 3.1854598449e+000	 1.1886318086e+000	 3.4375003267e-001
 3.1735385413e+000	 1.2201037362e+000	 2.4268387770e-001
 3.1612802236e+000	 1.2515220125e+000	 1.1973008123e-001
 3.2927914318e+000	 9.4241688584e-001	 4.3604318032e-001
 3.2834786204e+000	 9.7436807697e-001	 4.7468140689e-001
 3.2738316179e+000	 1.0063058867e+000	 5.0173120661e-001
 3.2638494280e+000	 1.0382253664e+000	 5.1582095028e-001
 3.2535311466e+000	 1.0701215250e+000	 5.1550382199e-001
 3.2428759635e+000	 1.1019893308e+000	 4.9925655738e-001
 3.2318831642e+000	 1.1338237134e+000	 4.6547831935e-001
 3.2205521308e+000	 1.1656195662e+000	 4.1248971968e-001
 3.2088823438e+000	 1.1973717484e+000	 3.3853199453e-001
 3.1968733835e+000	 1.2290750872e+000	 2.4176634162e-001
 3.1845249311e+000	 1.2607243803e+000	 1.4590951917e-001
 3.3168264057e+000	 9.4929584121e-001	 4.6172339648e-001
 3.3074456176e+000	 9.8148025271e-001	 4.9173546258e-001
 3.2977281991e+000	 1.0136511851e+000	 5.1172410312e-001
 3.2876731465e+000	 1.0458036537e+000	 5.2031228569e-001
 3.2772795491e+000	 1.0779326310e+000	 5.1604470304e-001
 3.2665465910e+000	 1.1100330485e+000	 4.9738643614e-001
 3.2554735523e+000	 1.1420997989e+000	 4.6272175891e-001
 3.2440598105e+000	 1.1741277382e+000	 4.1035309317e-001
 3.2323048426e+000	 1.2061116882e+000	 3.3850012203e-001
 3.2202082257e+000	 1.2380464382e+000	 2.4529906998e-001
 3.2077696387e+000	 1.2699267480e+000	 1.6885293062e-001
 3.3408613797e+000	 9.5617479658e-001	 4.9850152401e-001
 3.3314126149e+000	 9.8859242845e-001	 5.1903313428e-001
 3.3216247802e+000	 1.0209964835e+000	 5.3111922127e-001
 3.3114968649e+000	 1.0533819411e+000	 5.3337804061e-001
 3.3010279516e+000	 1.0857437371e+000	 5.2434645745e-001
 3.2902172185e+000	 1.1180767663e+000	 5.0247853276e-001
 3.2790639403e+000	 1.1503758844e+000	 4.6614425544e-001
 3.2675674903e+000	 1.1826359103e+000	 4.1362842910e-001
 3.2557273415e+000	 1.2148516279e+000	 3.4312972196e-001
 3.2435430679e+000	 1.2470177892e+000	 2.5275988835e-001
 3.2310143462e+000	 1.2791291158e+000	 1.8870751621e-001
 3.3648963537e+000	 9.6305375194e-001	 5.4586055565e-001
 3.3553796121e+000	 9.9570460419e-001	 5.5605371428e-001
 3.3455213614e+000	 1.0283417820e+000	 5.5939286451e-001
 3.3353205834e+000	 1.0609602284e+000	 5.5449224958e-001
 3.3247763542e+000	 1.0935548431e+000	 5.3988157843e-001
 3.3138878460e+000	 1.1261204840e+000	 5.1400453375e-001
 3.3026543284e+000	 1.1586519699e+000	 4.7521742993e-001
 3.2910751701e+000	 1.1911440823e+000	 4.2178803011e-001
 3.2791498404e+000	 1.2235915677e+000	 3.5189453108e-001
 3.2668779101e+000	 1.2559891402e+000	 2.7021456666e-001
 3.2542590537e+000	 1.2883314835e+000	 2.0561824251e-001
 3.0218119785e+000	 1.1963078061e+000	 1.3284460938e-001
 3.0097721177e+000	 1.2262837353e+000	 1.2887816710e-002
 2.9974097985e+000	 1.2561984318e+000	-8.8214714536e-002
 2.9847250126e+000	 1.2860468885e+000	-6.4242997256e-002
 2.9717178521e+000	 1.3158240793e+000	-4.4047758667e-002
 2.9583885102e+000	 1.3455249618e+000	-2.8584850058e-002
 2.9447372821e+000	 1.3751444794e+000	-1.8889956286e-002
 2.9307645658e+000	 1.4046775645e+000	-1.6077412447e-002
 2.9164708625e+000	 1.4341191402e+000	-2.1338800722e-002
 2.9018567779e+000	 1.4634641235e+000	-3.5941326883e-002
 2.8869230222e+000	 1.4927074274e+000	-6.1225976572e-002
 3.0450566860e+000	 1.2055101738e+000	 1.2993492163e-001
 3.0329242109e+000	 1.2357166871e+000	 9.0038911719e-004
 3.0204667969e+000	 1.2658614967e+000	-5.7579960470e-002
 3.0076844357e+000	 1.2959395569e+000	-4.2966501093e-002
 2.9945772202e+000	 1.3259458030e+000	-2.9061585531e-002
 2.9811453449e+000	 1.3558751538e+000	-1.6846686189e-002
 2.9673891074e+000	 1.3857225139e+000	-7.3877373408e-003
 2.9533089086e+000	 1.4154827765e+000	-1.8339504022e-003
 2.9389052537e+000	 1.4451508259e+000	-1.4164010281e-003
 2.9241787531e+000	 1.4747215398e+000	-7.4463873954e-003
 2.9091301224e+000	 1.5041897923e+000	-2.1313559733e-002
 3.0683013935e+000	 1.2147125416e+000	 1.2588113111e-001
 3.0560763041e+000	 1.2451496389e+000	-1.1622001406e-002
 3.0435237954e+000	 1.2755245616e+000	-3.2979034752e-002
 3.0306438589e+000	 1.3058322253e+000	-2.7883375236e-002
 3.0174365883e+000	 1.3360675267e+000	-2.0420624095e-002
 3.0039021796e+000	 1.3662253458e+000	-1.1598615648e-002
 2.9900409326e+000	 1.3963005484e+000	-2.5143173450e-003
 2.9758532514e+000	 1.4262879886e+000	 5.6473570306e-003
 2.9613396450e+000	 1.4561825116e+000	 1.1614970800e-002
 2.9465007283e+000	 1.4859789561e+000	 1.4032225200e-002
 2.9313372226e+000	 1.5156721571e+000	 1.1459857591e-002
 3.0915461010e+000	 1.2239149093e+000	 1.2156629536e-001
 3.0792283974e+000	 1.2545825907e+000	-3.5549384912e-003
 3.0665807938e+000	 1.2851876264e+000	-1.4521953688e-002
 3.0536032821e+000	 1.3157248936e+000	-1.9097331540e-002
 3.0402959564e+000	 1.3461892504e+000	-1.8221218770e-002
 3.0266590143e+000	 1.3765755378e+000	-1.2928556248e-002
 3.0126927579e+000	 1.4068785828e+000	-4.3481331332e-003
 2.9983975942e+000	 1.4370932006e+000	 6.2986026623e-003
 2.9837740362e+000	 1.4672141973e+000	 1.7698979228e-002
 2.9688227035e+000	 1.4972363725e+000	 2.8450781441e-002
 2.9535443227e+000	 1.5271545219e+000	 3.7064177892e-002
 3.1147908086e+000	 1.2331172771e+000	 1.1787068178e-001
 3.1023804906e+000	 1.2640155425e+000	 2.1580766959e-002
 3.0896377923e+000	 1.2948506913e+000	-2.3215838734e-003
 3.0765627052e+000	 1.3256175620e+000	-1.6714990628e-002
 3.0631553244e+000	 1.3563109741e+000	-2.2562700271e-002
 3.0494158490e+000	 1.3869257298e+000	-2.0927508767e-002
 3.0353445831e+000	 1.4174566173e+000	-1.2970820360e-002
 3.0209419370e+000	 1.4478984127e+000	 4.8545382544e-005
 3.0062084275e+000	 1.4782458830e+000	 1.6775800419e-002
 2.9911446788e+000	 1.5084937888e+000	 3.5761889872e-002
 2.9757514229e+000	 1.5386368868e+000	 5.5465448654e-002
 3.1380355161e+000	 1.2423196448e+000	 1.1492603551e-001
 3.1255325838e+000	 1.2734484944e+000	 4.1041082915e-002
 3.1126947907e+000	 1.3045137561e+000	 3.5064633658e-003
 3.0995221284e+000	 1.3355102304e+000	-2.0845774161e-002
 3.0860146925e+000	 1.3664326978e+000	-3.3547275006e-002
 3.0721726837e+000	 1.3972759218e+000	-3.5689442762e-002
 3.0579964084e+000	 1.4280346517e+000	-2.8467095028e-002
 3.0434862798e+000	 1.4587036247e+000	-1.3177266361e-002
 3.0286428187e+000	 1.4892775687e+000	 8.7822514300e-003
 3.0134666540e+000	 1.5197512051e+000	 3.5914632670e-002
 2.9979585231e+000	 1.5501192516e+000	 6.6626005127e-002
 3.1612802236e+000	 1.2515220125e+000	 1.1973008123e-001
 3.1486846770e+000	 1.2828814462e+000	 7.8765856455e-002
 3.1357517892e+000	 1.3141768210e+000	 2.5522072113e-002
 3.1224815516e+000	 1.3454028988e+000	-3.1601801852e-002
 3.1088740606e+000	 1.3765544214e+000	-5.1279919356e-002
 3.0949295184e+000	 1.4076261138e+000	-5.7311187425e-002
 3.0806482336e+000	 1.4386126862e+000	-5.0924640235e-002
 3.0660306226e+000	 1.4695088367e+000	-3.3456376534e-002
 3.0510772100e+000	 1.5003092544e+000	-6.3480862933e-003
 3.0357886292e+000	 1.5310086215e+000	 2.8854695295e-002
 3.0201656232e+000	 1.5616016164e+000	 7.0504606811e-002
 3.1845249311e+000	 1.2607243803e+000	 1.4590951917e-001
 3.1718367702e+000	 1.2923143980e+000	 1.1309849023e-001
 3.1588087876e+000	 1.3238398859e+000	 6.9244741711e-002
 3.1454409748e+000	 1.3552955671e+000	 1.5047035513e-002
 3.1317334287e+000	 1.3866761451e+000	-4.8748135216e-002
 3.1176863531e+000	 1.4179763059e+000	-8.5892327215e-002
 3.1033000588e+000	 1.4491907206e+000	-8.0433997890e-002
 3.0885749654e+000	 1.4803140488e+000	-6.0869308649e-002
 3.0735116012e+000	 1.5113409401e+000	-2.8684748827e-002
 3.0581106044e+000	 1.5422660378e+000	 1.4524490455e-002
 3.0423727234e+000	 1.5730839812e+000	 6.7056567955e-002
 3.2077696387e+000	 1.2699267480e+000	 1.6885293062e-001
 3.1949888634e+000	 1.3017473498e+000	 1.4418795123e-001
 3.1818657860e+000	 1.3335029507e+000	 1.0968053584e-001
 3.1684003979e+000	 1.3651882355e+000	 6.6049613014e-002
 3.1545927968e+000	 1.3967978688e+000	 1.4061538716e-002
 3.1404431878e+000	 1.4283264979e+000	-4.5470425200e-002
 3.1259518841e+000	 1.4597687551e+000	-1.1168674073e-001
 3.1111193082e+000	 1.4911192608e+000	-9.5499457815e-002
 3.0959459925e+000	 1.5223726258e+000	-5.8300276815e-002
 3.0804325796e+000	 1.5535234541e+000	-7.1367233138e-003
 3.0645798236e+000	 1.5845663461e+000	 5.6233882386e-002
 3.2310143462e+000	 1.2791291158e+000	 1.8870751621e-001
 3.2181409566e+000	 1.3111803016e+000	 1.7218087252e-001
 3.2049227845e+000	 1.3431660156e+000	 1.4697590722e-001
 3.1913598211e+000	 1.3750809039e+000	 1.1383178910e-001
 3.1774521649e+000	 1.4069195925e+000	 7.3534844806e-002
 3.1632000224e+000	 1.4386766899e+000	 2.6918004200e-002
 3.1486037093e+000	 1.4703467896e+000	-2.5139863434e-002
 3.1336636511e+000	 1.5019244728e+000	-8.1714722895e-002
 3.1183803837e+000	 1.5334043115e+000	-9.5270107394e-002
 3.1027545548e+000	 1.5647808705e+000	-3.6192728192e-002
 3.0867869237e+000	 1.5960487109e+000	 3.7985342946e-002
 3.2542590537e+000	 1.2883314835e+000	 2.0561824251e-001
 3.2412930498e+000	 1.3206132534e+000	 1.9722163662e-001
 3.2279797829e+000	 1.3528290804e+000	 1.8127502636e-001
 3.2143192443e+000	 1.3849735723e+000	 1.5853789866e-001
 3.2003115330e+000	 1.4170413162e+000	 1.2981666286e-001
 3.1859568571e+000	 1.4490268819e+000	 9.5964063143e-002
 3.1712555346e+000	 1.4809248240e+000	 5.7878480824e-002
 3.1562079939e+000	 1.5127296849e+000	 1.6503125937e-002
 3.1408147750e+000	 1.5444359972e+000	-2.7174882180e-002
 3.1250765300e+000	 1.5760382868e+000	-7.2125545255e-002
 3.1089940239e+000	 1.6075310757e+000	 1.2256655817e-002
 2.8869230222e+000	 1.4927074274e+000	-6.1225976572e-002
 2.8716704108e+000	 1.5218439643e+000	-1.3244477116e-001
 2.8560998648e+000	 1.5508686476e+000	-1.9082286831e-001
 2.8402124111e+000	 1.5797763955e+000	-2.3829139803e-001
 2.8240091829e+000	 1.6085621327e+000	-2.7687408991e-001
 2.8074914197e+000	 1.6372207940e+000	-3.0868419833e-001
 2.7906604674e+000	 1.6657473264e+000	-3.3592118354e-001
 2.7735177786e+000	 1.6941366922e+000	-3.6086715361e-001
 2.7560649120e+000	 1.7223838716e+000	-3.8588307262e-001
 2.7383035326e+000	 1.7504838655e+000	-4.1340474161e-001
 2.7202354115e+000	 1.7784316985e+000	-4.4593855937e-001
 2.9091301224e+000	 1.5041897923e+000	-2.1313559733e-002
 2.8937601832e+000	 1.5335504563e+000	-9.1698269162e-002
 2.8780698638e+000	 1.5627984065e+000	-1.5047425641e-001
 2.8620601989e+000	 1.5919285216e+000	-1.9961180761e-001
 2.8457323305e+000	 1.6209356876e+000	-2.4117437008e-001
 2.8290875075e+000	 1.6498148002e+000	-2.7731539786e-001
 2.8121270864e+000	 1.6785607674e+000	-3.1027494957e-001
 2.7948525307e+000	 1.7071685129e+000	-3.4237604349e-001
 2.7772654113e+000	 1.7356329783e+000	-3.7602077573e-001
 2.7593674059e+000	 1.7639491260e+000	-4.1368620796e-001
 2.7411602993e+000	 1.7921119423e+000	-4.5792003200e-001
 2.9313372226e+000	 1.5156721571e+000	 1.1459857591e-002
 2.9158499556e+000	 1.5452569483e+000	-5.7248355297e-002
 2.9000398628e+000	 1.5747281653e+000	-1.1551779014e-001
 2.8839079867e+000	 1.6040806477e+000	-1.6535915113e-001
 2.8674554780e+000	 1.6333092425e+000	-2.0887693989e-001
 2.8506835954e+000	 1.6624088063e+000	-2.4826622006e-001
 2.8335937054e+000	 1.6913742084e+000	-2.8580913038e-001
 2.8161872829e+000	 1.7202003336e+000	-3.2387115135e-001
 2.7984659106e+000	 1.7488820850e+000	-3.6489713159e-001
 2.7804312793e+000	 1.7774143865e+000	-4.1140708040e-001
 2.7620851870e+000	 1.8057921862e+000	-4.6599173419e-001
 2.9535443227e+000	 1.5271545219e+000	 3.7064177892e-002
 2.9379397280e+000	 1.5569634404e+000	-2.9132210516e-002
 2.9220098617e+000	 1.5866579241e+000	-8.5998113200e-002
 2.9057557745e+000	 1.6162327739e+000	-1.3558592105e-001
 2.8891786256e+000	 1.6456827974e+000	-1.8004253339e-001
 2.8722796832e+000	 1.6750028124e+000	-2.2160604017e-001
 2.8550603244e+000	 1.7041876494e+000	-2.6260214878e-001
 2.8375220350e+000	 1.7332321543e+000	-3.0544036071e-001
 2.8196664100e+000	 1.7621311917e+000	-3.5260990425e-001
 2.8014951526e+000	 1.7908796470e+000	-4.0667543004e-001
 2.7830100748e+000	 1.8194724300e+000	-4.7027247723e-001
 2.9757514229e+000	 1.5386368868e+000	 5.5465448654e-002
 2.9600295004e+000	 1.5686699324e+000	-7.3904344166e-003
 2.9439798607e+000	 1.5985876830e+000	-6.1962829497e-002
 2.9276035623e+000	 1.6283849000e+000	-1.1034708973e-001
 2.9109017732e+000	 1.6580563522e+000	-1.5473386243e-001
 2.8938757711e+000	 1.6875968185e+000	-1.9740568749e-001
 2.8765269434e+000	 1.7170010903e+000	-2.4073333641e-001
 2.8588567872e+000	 1.7462639751e+000	-2.8717189736e-001
 2.8408669093e+000	 1.7753802984e+000	-3.3925661236e-001
 2.8225590259e+000	 1.8043449075e+000	-3.9959847396e-001
 2.8039349626e+000	 1.8331526738e+000	-4.7087958905e-001
 2.9979585231e+000	 1.5501192516e+000	 6.6626005127e-002
 2.9821192728e+000	 1.5803764244e+000	 7.9330813794e-003
 2.9659498596e+000	 1.6105174418e+000	-4.3462393556e-002
 2.9494513500e+000	 1.6405370261e+000	-8.9700017631e-002
 2.9326249207e+000	 1.6704299071e+000	-1.3301554343e-001
 2.9154718589e+000	 1.7001908246e+000	-1.7573739149e-001
 2.8979935624e+000	 1.7298145313e+000	-2.2028290004e-001
 2.8801915393e+000	 1.7592957958e+000	-2.6915431662e-001
 2.8620674086e+000	 1.7886294051e+000	-3.2493453819e-001
 2.8436228993e+000	 1.8178101680e+000	-3.9028260681e-001
 2.8248598504e+000	 1.8468329177e+000	-4.6792896913e-001
 3.0201656232e+000	 1.5616016164e+000	 7.0504606811e-002
 3.0042090452e+000	 1.5920829165e+000	 1.6791274257e-002
 2.9879198586e+000	 1.6224472006e+000	-3.0550005698e-002
 2.9712991378e+000	 1.6526891522e+000	-7.3704365446e-002
 2.9543480683e+000	 1.6828034620e+000	-1.1495402732e-001
 2.9370679468e+000	 1.7127848307e+000	-1.5667473040e-001
 2.9194601813e+000	 1.7426279723e+000	-2.0133188940e-001
 2.9015262915e+000	 1.7723276165e+000	-2.5147649129e-001
 2.8832679079e+000	 1.8018785118e+000	-3.0974073637e-001
 2.8646867726e+000	 1.8312754286e+000	-3.7883343108e-001
 2.8457847382e+000	 1.8605131615e+000	-4.6153514106e-001
 3.0423727234e+000	 1.5730839812e+000	 6.7056567955e-002
 3.0262988176e+000	 1.6037894085e+000	 1.9134026334e-002
 3.0098898576e+000	 1.6343769594e+000	-2.3281511830e-002
 2.9931469256e+000	 1.6648412783e+000	-6.2422010210e-002
 2.9760712159e+000	 1.6951770168e+000	-1.0061753262e-001
 2.9586640346e+000	 1.7253788368e+000	-1.4029258190e-001
 2.9409268003e+000	 1.7554414133e+000	-1.8396216644e-001
 2.9228610436e+000	 1.7853594372e+000	-2.3422760004e-001
 2.9044684072e+000	 1.8151276185e+000	-2.9377204216e-001
 2.8857506459e+000	 1.8447406891e+000	-3.6535578596e-001
 2.8667096260e+000	 1.8741934053e+000	-4.5181130274e-001
 3.0645798236e+000	 1.5845663461e+000	 5.6233882386e-002
 3.0483885900e+000	 1.6154959005e+000	 1.4908275166e-002
 3.0318598565e+000	 1.6463067183e+000	-2.1715307593e-002
 3.0149947134e+000	 1.6769934045e+000	-5.5916964973e-002
 2.9977943634e+000	 1.7075505717e+000	-9.0075981383e-002
 2.9802601225e+000	 1.7379728429e+000	-1.2666707612e-001
 2.9623934193e+000	 1.7682548542e+000	-1.6825637587e-001
 2.9441957958e+000	 1.7983912579e+000	-2.1749711629e-001
 2.9256689066e+000	 1.8283767252e+000	-2.7712507943e-001
 2.9068145192e+000	 1.8582059496e+000	-3.4995377504e-001
 2.8876345137e+000	 1.8878736492e+000	-4.0342986131e-001
 3.0867869237e+000	 1.5960487109e+000	 3.7985342946e-002
 3.0704783624e+000	 1.6272023926e+000	 4.0581196573e-003
 3.0538298555e+000	 1.6582364771e+000	-2.5912246640e-002
 3.0368425011e+000	 1.6891455306e+000	-5.4255301967e-002
 3.0195175110e+000	 1.7199241266e+000	-8.3400937927e-002
 3.0018562103e+000	 1.7505668490e+000	-1.1587555050e-001
 2.9838600383e+000	 1.7810682952e+000	-1.5429791705e-001
 2.9655305479e+000	 1.8114230786e+000	-2.0137479768e-001
 2.9468694059e+000	 1.8416258319e+000	-2.5989626824e-001
 2.9278783926e+000	 1.8716712101e+000	-3.3273079277e-001
 2.9085594015e+000	 1.9015538930e+000	-3.4865908642e-001
 3.1089940239e+000	 1.6075310757e+000	 1.2256655817e-002
 3.0925681348e+000	 1.6389088846e+000	-1.3475078552e-002
 3.0757998544e+000	 1.6701662359e+000	-3.5935552855e-002
 3.0586902889e+000	 1.7012976567e+000	-5.7505079062e-002
 3.0412406585e+000	 1.7322976814e+000	-8.0665550168e-002
 3.0234522981e+000	 1.7631608551e+000	-1.0799650677e-001
 3.0053266573e+000	 1.7938817362e+000	-1.4217091696e-001
 2.9868653000e+000	 1.8244548993e+000	-1.8595067586e-001
 2.9680699052e+000	 1.8548749386e+000	-2.4218183214e-001
 2.9489422659e+000	 1.8851364706e+000	-2.8671037230e-001
 2.9294842893e+000	 1.9152341368e+000	-2.8976562722e-001
 2.7202354115e+000	 1.7784316985e+000	-4.4593855937e-001
 2.7018624252e+000	 1.8062224213e+000	-4.8674843823e-001
 2.6831865557e+000	 1.8338511137e+000	-5.4547896792e-001
 2.6642098895e+000	 1.8613128874e+000	-6.2487145956e-001
 2.6449346172e+000	 1.8886028886e+000	-6.7235824905e-001
 2.6253630329e+000	 1.9157163009e+000	-6.7152202592e-001
 2.6054975333e+000	 1.9426483480e+000	-6.7234993948e-001
 2.5853406170e+000	 1.9693942963e+000	-6.7528283687e-001
 2.5648948833e+000	 1.9959494577e+000	-6.8076226036e-001
 2.5441630315e+000	 2.0223091922e+000	-6.8922992609e-001
 2.5231478596e+000	 2.0484689108e+000	-7.0112719579e-001
 2.7411602993e+000	 1.7921119423e+000	-4.5792003200e-001
 2.7226459824e+000	 1.8201164399e+000	-5.1225848775e-001
 2.7038264523e+000	 1.8479576607e+000	-5.8374175036e-001
 2.6847038117e+000	 1.8756306788e+000	-6.7291641318e-001
 2.6652802681e+000	 1.9031306032e+000	-6.7564619932e-001
 2.6455581331e+000	 1.9304525802e+000	-6.7911744793e-001
 2.6255398220e+000	 1.9575917969e+000	-6.8378169575e-001
 2.6052278525e+000	 1.9845434832e+000	-6.9009227151e-001
 2.5846248440e+000	 2.0113029150e+000	-6.9850377104e-001
 2.5637335164e+000	 2.0378654168e+000	-7.0947152345e-001
 2.5425566893e+000	 2.0642263640e+000	-7.2345104936e-001
 2.7620851870e+000	 1.8057921862e+000	-4.6599173419e-001
 2.7434295395e+000	 1.8340104585e+000	-5.3357809881e-001
 2.7244663489e+000	 1.8620642078e+000	-6.1752513895e-001
 2.7051977340e+000	 1.8899484703e+000	-6.6689885903e-001
 2.6856259190e+000	 1.9176583177e+000	-6.7452168700e-001
 2.6657532334e+000	 1.9451888594e+000	-6.8240985723e-001
 2.6455821107e+000	 1.9725352457e+000	-6.9102679796e-001
 2.6251150880e+000	 1.9996926701e+000	-7.0083831014e-001
 2.6043548046e+000	 2.0266563724e+000	-7.1231203087e-001
 2.5833040013e+000	 2.0534216413e+000	-7.2591688700e-001
 2.5619655190e+000	 2.0799838171e+000	-7.4212253977e-001
 2.7830100748e+000	 1.8194724300e+000	-4.7027247723e-001
 2.7642130966e+000	 1.8479044772e+000	-5.5081207550e-001
 2.7451062455e+000	 1.8761707548e+000	-6.4315237803e-001
 2.7256916562e+000	 1.9042662617e+000	-6.5644268625e-001
 2.7059715699e+000	 1.9321860322e+000	-6.6905710513e-001
 2.6859483336e+000	 1.9599251387e+000	-6.8146746258e-001
 2.6656243995e+000	 1.9874786945e+000	-6.9414907365e-001
 2.6450023235e+000	 2.0148418570e+000	-7.0758020400e-001
 2.6240847652e+000	 2.0420098298e+000	-7.2224152171e-001
 2.6028744861e+000	 2.0689778659e+000	-7.3861553824e-001
 2.5813743487e+000	 2.0957412703e+000	-7.5718603958e-001
 2.8039349626e+000	 1.8331526738e+000	-4.7087958905e-001
 2.7849966537e+000	 1.8617984958e+000	-5.6406384056e-001
 2.7657461421e+000	 1.8902773018e+000	-6.2277235333e-001
 2.7461855784e+000	 1.9185840532e+000	-6.4162311219e-001
 2.7263172208e+000	 1.9467137467e+000	-6.5932380340e-001
 2.7061434339e+000	 1.9746614179e+000	-6.7635755256e-001
 2.6856666882e+000	 2.0024221433e+000	-6.9321155846e-001
 2.6648895590e+000	 2.0299910439e+000	-7.1037654580e-001
 2.6438147259e+000	 2.0573632871e+000	-7.2834620532e-001
 2.6224449710e+000	 2.0845340904e+000	-7.4761662211e-001
 2.6007831784e+000	 2.1114987234e+000	-7.6868569320e-001
 2.8248598504e+000	 1.8468329177e+000	-4.6792896913e-001
 2.8057802108e+000	 1.8756925144e+000	-5.7141549305e-001
 2.7863860387e+000	 1.9043838488e+000	-5.9801843266e-001
 2.7666795006e+000	 1.9329018446e+000	-6.2251423594e-001
 2.7466628717e+000	 1.9612414613e+000	-6.4539212682e-001
 2.7263385341e+000	 1.9893976971e+000	-6.6714652962e-001
 2.7057089769e+000	 2.0173655922e+000	-6.8827652545e-001
 2.6847767946e+000	 2.0451402308e+000	-7.0928529416e-001
 2.6635446865e+000	 2.0727167445e+000	-7.3067954273e-001
 2.6420154558e+000	 2.1000903150e+000	-7.5296892092e-001
 2.6201920081e+000	 2.1272561766e+000	-7.7666542528e-001
 2.8457847382e+000	 1.8605131615e+000	-4.6153514106e-001
 2.8265637680e+000	 1.8895865330e+000	-5.3616557298e-001
 2.8070259352e+000	 1.9184903959e+000	-5.6896709760e-001
 2.7871734229e+000	 1.9472196360e+000	-5.9918907946e-001
 2.7670085226e+000	 1.9757691758e+000	-6.2733145264e-001
 2.7465336344e+000	 2.0041339764e+000	-6.5389994267e-001
 2.7257512656e+000	 2.0323090410e+000	-6.7940551314e-001
 2.7046640301e+000	 2.0602894177e+000	-7.0436379688e-001
 2.6832746472e+000	 2.0880702019e+000	-7.2929451256e-001
 2.6615859407e+000	 2.1156465395e+000	-7.5472086766e-001
 2.6396008378e+000	 2.1430136297e+000	-7.8116894885e-001
 2.8667096260e+000	 1.8741934053e+000	-4.5181130274e-001
 2.8473473251e+000	 1.9034805517e+000	-4.9662176827e-001
 2.8276658318e+000	 1.9325969429e+000	-5.3569369119e-001
 2.8076673451e+000	 1.9615374275e+000	-5.7171962691e-001
 2.7873541735e+000	 1.9902968903e+000	-6.0521022570e-001
 2.7667287347e+000	 2.0188702556e+000	-6.3668251822e-001
 2.7457935543e+000	 2.0472524898e+000	-6.6665935230e-001
 2.7245512656e+000	 2.0754386045e+000	-6.9566881325e-001
 2.7030046078e+000	 2.1034236592e+000	-7.2424362868e-001
 2.6811564256e+000	 2.1312027641e+000	-7.5292055878e-001
 2.6590096675e+000	 2.1587710829e+000	-7.8223977302e-001
 2.8876345137e+000	 1.8878736492e+000	-4.0342986131e-001
 2.8681308822e+000	 1.9173745703e+000	-4.5286140945e-001
 2.8483057284e+000	 1.9467034899e+000	-4.9827245924e-001
 2.8281612673e+000	 1.9758552189e+000	-5.4017686222e-001
 2.8076998244e+000	 2.0048246048e+000	-5.7909599216e-001
 2.7869238349e+000	 2.0336065348e+000	-6.1555819019e-001
 2.7658358430e+000	 2.0621959387e+000	-6.5009819161e-001
 2.7444385011e+000	 2.0905877914e+000	-6.8325653536e-001
 2.7227345685e+000	 2.1187771166e+000	-7.1557895702e-001
 2.7007269104e+000	 2.1467589886e+000	-7.4761576635e-001
 2.6784184972e+000	 2.1745285361e+000	-7.7992121034e-001
 2.9085594015e+000	 1.9015538930e+000	-3.4865908642e-001
 2.8889144393e+000	 1.9312685889e+000	-4.0496068010e-001
 2.8689456250e+000	 1.9608100369e+000	-4.5677658976e-001
 2.8486551895e+000	 1.9901730104e+000	-5.0463080506e-001
 2.8280454753e+000	 2.0193523194e+000	-5.4905543187e-001
 2.8071189352e+000	 2.0483428141e+000	-5.9059012843e-001
 2.7858781318e+000	 2.0771393875e+000	-6.2978152220e-001
 2.7643257366e+000	 2.1057369783e+000	-6.6718260851e-001
 2.7424645291e+000	 2.1341305740e+000	-7.0335213169e-001
 2.7202973953e+000	 2.1623152132e+000	-7.3885394978e-001
 2.6978273268e+000	 2.1902859892e+000	-7.7425638393e-001
 2.9294842893e+000	 1.9152341368e+000	-2.8976562722e-001
 2.9096979964e+000	 1.9451626075e+000	-3.5299465778e-001
 2.8895855216e+000	 1.9749165840e+000	-4.1127825073e-001
 2.8691491118e+000	 2.0044908018e+000	-4.6515054534e-001
 2.8483911262e+000	 2.0338800339e+000	-5.1515438932e-001
 2.8273140354e+000	 2.0630790933e+000	-5.6184076597e-001
 2.8059204205e+000	 2.0920828363e+000	-6.0576820111e-001
 2.7842129721e+000	 2.1208861652e+000	-6.4750215077e-001
 2.7621944897e+000	 2.1494840313e+000	-6.8761437041e-001
 2.7398678801e+000	 2.1778714378e+000	-7.2668226692e-001
 2.7172361565e+000	 2.2060434424e+000	-7.6528823421e-001
 2.5231478596e+000	 2.0484689108e+000	-7.0112719579e-001
 2.5018522630e+000	 2.0744240777e+000	-7.3249822004e-001
 2.4802792335e+000	 2.1001702130e+000	-8.5417627679e-001
 2.4584318577e+000	 2.1257028957e+000	-9.5295439077e-001
 2.4363133158e+000	 2.1510177654e+000	-1.0198100750e+000
 2.4139268797e+000	 2.1761105255e+000	-1.0564270444e+000
 2.3912759120e+000	 2.2009769451e+000	-1.0645507097e+000
 2.3683638636e+000	 2.2256128616e+000	-1.0459845809e+000
 2.3451942726e+000	 2.2500141830e+000	-1.0025865308e+000
 2.3217707623e+000	 2.2741768901e+000	-9.3626493008e-001
 2.2980970388e+000	 2.2980970388e+000	-8.4897466192e-001
 2.5425566893e+000	 2.0642263640e+000	-7.2345104936e-001
 2.5210972804e+000	 2.0903811859e+000	-7.5028443561e-001
 2.4993583046e+000	 2.1163253685e+000	-7.6971138981e-001
 2.4773428720e+000	 2.1420544564e+000	-8.7282313171e-001
 2.4550541875e+000	 2.1675640559e+000	-9.4453867521e-001
 2.4324955480e+000	 2.1928498373e+000	-9.8661037323e-001
 2.4096703421e+000	 2.2179075370e+000	-1.0008527283e+000
 2.3865820472e+000	 2.2427329605e+000	-9.8913867894e-001
 2.3632342286e+000	 2.2673219844e+000	-9.5339574576e-001
 2.3396305373e+000	 2.2916705585e+000	-8.9560204596e-001
 2.3157747084e+000	 2.3157747084e+000	-8.1778218665e-001
 2.5619655190e+000	 2.0799838171e+000	-7.4212253977e-001
 2.5403422979e+000	 2.1063382942e+000	-7.6474464310e-001
 2.5184373756e+000	 2.1324805240e+000	-7.7805152602e-001
 2.4962538863e+000	 2.1584060172e+000	-7.9801061355e-001
 2.4737950591e+000	 2.1841103464e+000	-8.7465095863e-001
 2.4510642163e+000	 2.2095891490e+000	-9.2220216950e-001
 2.4280647722e+000	 2.2348381289e+000	-9.4254875304e-001
 2.4048002307e+000	 2.2598530594e+000	-9.3763403297e-001
 2.3812741845e+000	 2.2846297858e+000	-9.0945617584e-001
 2.3574903124e+000	 2.3091642269e+000	-8.6006408395e-001
 2.3334523779e+000	 2.3334523779e+000	-7.9155316527e-001
 2.5813743487e+000	 2.0957412703e+000	-7.5718603958e-001
 2.5595873153e+000	 2.1222954025e+000	-7.7591391786e-001
 2.5375164466e+000	 2.1486356795e+000	-7.8658892742e-001
 2.5151649006e+000	 2.1747575779e+000	-7.8941138432e-001
 2.4925359308e+000	 2.2006566370e+000	-8.1056972155e-001
 2.4696328847e+000	 2.2263284607e+000	-8.6361091434e-001
 2.4464592022e+000	 2.2517687207e+000	-8.9003310870e-001
 2.4230184143e+000	 2.2769731584e+000	-8.9185098429e-001
 2.3993141405e+000	 2.3019375872e+000	-8.7113436638e-001
 2.3753500875e+000	 2.3266578953e+000	-8.3000399531e-001
 2.3511300474e+000	 2.3511300474e+000	-7.7062717135e-001
 2.6007831784e+000	 2.1114987234e+000	-7.6868569320e-001
 2.5788323327e+000	 2.1382525108e+000	-7.8382737860e-001
 2.5565955176e+000	 2.1647908350e+000	-7.9216061383e-001
 2.5340759149e+000	 2.1911091386e+000	-7.9390826605e-001
 2.5112768024e+000	 2.2172029275e+000	-7.8930139787e-001
 2.4882015530e+000	 2.2430677725e+000	-8.1124609353e-001
 2.4648536323e+000	 2.2686993126e+000	-8.4370133298e-001
 2.4412365979e+000	 2.2940932573e+000	-8.5217128258e-001
 2.4173540964e+000	 2.3192453886e+000	-8.3879845340e-001
 2.3932098626e+000	 2.3441515636e+000	-8.0577649115e-001
 2.3688077170e+000	 2.3688077170e+000	-7.5534569414e-001
 2.6201920081e+000	 2.1272561766e+000	-7.7666542528e-001
 2.5980773501e+000	 2.1542096191e+000	-7.8852018584e-001
 2.5756745887e+000	 2.1809459905e+000	-7.9479334919e-001
 2.5529869292e+000	 2.2074606994e+000	-7.9573021419e-001
 2.5300176741e+000	 2.2337492180e+000	-7.9158326849e-001
 2.5067702213e+000	 2.2598070842e+000	-7.8261185370e-001
 2.4832480624e+000	 2.2856299045e+000	-8.0395013165e-001
 2.4594547814e+000	 2.3112133562e+000	-8.1897803376e-001
 2.4353940524e+000	 2.3365531900e+000	-8.1281810474e-001
 2.4110696377e+000	 2.3616452320e+000	-7.8773797723e-001
 2.3864853865e+000	 2.3864853865e+000	-7.4605206763e-001
 2.6396008378e+000	 2.1430136297e+000	-7.8116894885e-001
 2.6173223675e+000	 2.1701667274e+000	-7.9002754033e-001
 2.5947536597e+000	 2.1971011459e+000	-7.9451417808e-001
 2.5718979435e+000	 2.2238122601e+000	-7.9489647798e-001
 2.5487585458e+000	 2.2502955085e+000	-7.9144825035e-001
 2.5253388896e+000	 2.2765463959e+000	-7.8444913789e-001
 2.5016424925e+000	 2.3025604964e+000	-7.7418424041e-001
 2.4776729650e+000	 2.3283334552e+000	-7.9265565014e-001
 2.4534340083e+000	 2.3538609914e+000	-7.9356446371e-001
 2.4289294128e+000	 2.3791389004e+000	-7.7624649170e-001
 2.4041630560e+000	 2.4041630560e+000	-7.4309140275e-001
 2.6590096675e+000	 2.1587710829e+000	-7.8223977302e-001
 2.6365673849e+000	 2.1861238357e+000	-7.8838468158e-001
 2.6138327307e+000	 2.2132563014e+000	-7.9135041549e-001
 2.5908089578e+000	 2.2401638209e+000	-7.9142679754e-001
 2.5674994174e+000	 2.2668417990e+000	-7.8890886270e-001
 2.5439075579e+000	 2.2932857077e+000	-7.8409646900e-001
 2.5200369226e+000	 2.3194910883e+000	-7.7729389624e-001
 2.4958911486e+000	 2.3454535541e+000	-7.7358980275e-001
 2.4714739642e+000	 2.3711687928e+000	-7.8141009528e-001
 2.4467891879e+000	 2.3966325688e+000	-7.7166164546e-001
 2.4218407256e+000	 2.4218407256e+000	-7.4681052249e-001
 2.6784184972e+000	 2.1745285361e+000	-7.7992121034e-001
 2.6558124023e+000	 2.2020809440e+000	-7.8362688648e-001
 2.6329118018e+000	 2.2294114569e+000	-7.8532963706e-001
 2.6097199721e+000	 2.2565153816e+000	-7.8534138611e-001
 2.5862402891e+000	 2.2833880895e+000	-7.8397829953e-001
 2.5624762262e+000	 2.3100250194e+000	-7.8156036894e-001
 2.5384313527e+000	 2.3364216802e+000	-7.7841098446e-001
 2.5141093321e+000	 2.3625736530e+000	-7.7485649731e-001
 2.4895139202e+000	 2.3884765942e+000	-7.7672893456e-001
 2.4646489630e+000	 2.4141262372e+000	-7.7434456525e-001
 2.4395183951e+000	 2.4395183951e+000	-7.5755789989e-001
 2.6978273268e+000	 2.1902859892e+000	-7.7425638393e-001
 2.6750574197e+000	 2.2180380522e+000	-7.7578946796e-001
 2.6519908728e+000	 2.2455666124e+000	-7.7647966965e-001
 2.6286309864e+000	 2.2728669423e+000	-7.7666091298e-001
 2.6049811607e+000	 2.2999343800e+000	-7.7667040522e-001
 2.5810448945e+000	 2.3267643311e+000	-7.7684819379e-001
 2.5568257828e+000	 2.3533522720e+000	-7.7753671318e-001
 2.5323275157e+000	 2.3796937520e+000	-7.7908032295e-001
 2.5075538761e+000	 2.4057843956e+000	-7.8182483753e-001
 2.4825087381e+000	 2.4316199056e+000	-7.8465783906e-001
 2.4571960646e+000	 2.4571960646e+000	-7.7568359867e-001
 2.7172361565e+000	 2.2060434424e+000	-7.6528823421e-001
 2.6943024371e+000	 2.2339951605e+000	-7.6490777367e-001
 2.6710699438e+000	 2.2617217679e+000	-7.6482858240e-001
 2.6475420007e+000	 2.2892185031e+000	-7.6540648726e-001
 2.6237220324e+000	 2.3164806705e+000	-7.6699965136e-001
 2.5996135628e+000	 2.3435036429e+000	-7.6996810398e-001
 2.5752202129e+000	 2.3702828639e+000	-7.7467326175e-001
 2.5505456993e+000	 2.3968138509e+000	-7.8147744196e-001
 2.5255938321e+000	 2.4230921970e+000	-7.9074336899e-001
 2.5003685132e+000	 2.4491135740e+000	-8.0283367475e-001
 2.4748737342e+000	 2.4748737342e+000	-8.0153921644e-001
 2.2980970388e+000	 2.2980970388e+000	-8.4897466192e-001
 2.2741768901e+000	 2.3217707623e+000	-7.8657181244e-001
 2.2500141830e+000	 2.3451942726e+000	-7.4159939010e-001
 2.2256128616e+000	 2.3683638636e+000	-7.1630681772e-001
 2.2009769451e+000	 2.3912759120e+000	-7.1294187710e-001
 2.1761105255e+000	 2.4139268797e+000	-7.3374613626e-001
 2.1510177654e+000	 2.4363133158e+000	-7.8095036181e-001
 2.1257028957e+000	 2.4584318577e+000	-8.5676992833e-001
 2.1001702130e+000	 2.4802792335e+000	-9.6340023601e-001
 2.0744240777e+000	 2.5018522630e+000	-1.0927687374e+000
 2.0484689108e+000	 2.5231478596e+000	-1.1344629122e+000
 2.3157747084e+000	 2.3157747084e+000	-8.1778218665e-001
 2.2916705585e+000	 2.3396305373e+000	-7.6934949615e-001
 2.2673219844e+000	 2.3632342286e+000	-7.3707831056e-001
 2.2427329605e+000	 2.3865820472e+000	-7.2321738878e-001
 2.2179075370e+000	 2.4096703421e+000	-7.3001553293e-001
 2.1928498373e+000	 2.4324955480e+000	-7.5971696140e-001
 2.1675640559e+000	 2.4550541875e+000	-8.1455666462e-001
 2.1420544564e+000	 2.4773428720e+000	-8.9675575491e-001
 2.1163253685e+000	 2.4993583046e+000	-1.0085168224e+000
 2.0903811859e+000	 2.5210972804e+000	-1.0477933096e+000
 2.0642263640e+000	 2.5425566893e+000	-1.0917614073e+000
 2.3334523779e+000	 2.3334523779e+000	-7.9155316527e-001
 2.3091642269e+000	 2.3574903124e+000	-7.5518162870e-001
 2.2846297858e+000	 2.3812741845e+000	-7.3370511050e-001
 2.2598530594e+000	 2.4048002307e+000	-7.2937368764e-001
 2.2348381289e+000	 2.4280647722e+000	-7.4443917148e-001
 2.2095891490e+000	 2.4510642163e+000	-7.8115042413e-001
 2.1841103464e+000	 2.4737950591e+000	-8.4174865457e-001
 2.1584060172e+000	 2.4962538863e+000	-9.2846270639e-001
 2.1324805240e+000	 2.5184373756e+000	-9.7396023517e-001
 2.1063382942e+000	 2.5403422979e+000	-1.0129367948e+000
 2.0799838171e+000	 2.5619655190e+000	-1.0578469809e+000
 2.3511300474e+000	 2.3511300474e+000	-7.7062717135e-001
 2.3266578953e+000	 2.3753500875e+000	-7.4443328651e-001
 2.3019375872e+000	 2.3993141405e+000	-7.3186981695e-001
 2.2769731584e+000	 2.4230184143e+000	-7.3519013588e-001
 2.2517687207e+000	 2.4464592022e+000	-7.5665104956e-001
 2.2263284607e+000	 2.4696328847e+000	-7.9850805412e-001
 2.2006566370e+000	 2.4925359308e+000	-8.6301056942e-001
 2.1747575779e+000	 2.5151649006e+000	-9.1166610646e-001
 2.1486356795e+000	 2.5375164466e+000	-9.4773253767e-001
 2.1222954025e+000	 2.5595873153e+000	-9.8785277193e-001
 2.0957412703e+000	 2.5813743487e+000	-1.0324044155e+000
 2.3688077170e+000	 2.3688077170e+000	-7.5534569414e-001
 2.3441515636e+000	 2.3932098626e+000	-7.3747045047e-001
 2.3192453886e+000	 2.4173540964e+000	-7.3196236058e-001
 2.2940932573e+000	 2.4412365979e+000	-7.4108006877e-001
 2.2686993126e+000	 2.4648536323e+000	-7.6708735894e-001
 2.2430677725e+000	 2.4882015530e+000	-8.1224834920e-001
 2.2172029275e+000	 2.5112768024e+000	-8.5984341534e-001
 2.1911091386e+000	 2.5340759149e+000	-8.9490069050e-001
 2.1647908350e+000	 2.5565955176e+000	-9.3222874793e-001
 2.1382525108e+000	 2.5788323327e+000	-9.7218804783e-001
 2.1114987234e+000	 2.6007831784e+000	-1.0151108207e+000
 2.3864853865e+000	 2.3864853865e+000	-7.4605206763e-001
 2.3616452320e+000	 2.4110696377e+000	-7.3465997244e-001
 2.3365531900e+000	 2.4353940524e+000	-7.3437257926e-001
 2.3112133562e+000	 2.4594547814e+000	-7.4745577545e-001
 2.2856299045e+000	 2.4832480624e+000	-7.7618230294e-001
 2.2598070842e+000	 2.5067702213e+000	-8.1765322110e-001
 2.2337492180e+000	 2.5300176741e+000	-8.5342401731e-001
 2.2074606994e+000	 2.5529869292e+000	-8.8977845406e-001
 2.1809459905e+000	 2.5756745887e+000	-9.2705959127e-001
 2.1542096191e+000	 2.5980773501e+000	-9.6558290794e-001
 2.1272561766e+000	 2.6201920081e+000	-1.0056359168e+000
 2.4041630560e+000	 2.4041630560e+000	-7.4309140275e-001
 2.3791389004e+000	 2.4289294128e+000	-7.3636954325e-001
 2.3538609914e+000	 2.4534340083e+000	-7.3949022145e-001
 2.3283334552e+000	 2.4776729650e+000	-7.5472853742e-001
 2.3025604964e+000	 2.5016424925e+000	-7.8448308938e-001
 2.2765463959e+000	 2.5253388896e+000	-8.2251431579e-001
 2.2502955085e+000	 2.5487585458e+000	-8.5953672764e-001
 2.2238122601e+000	 2.5718979435e+000	-8.9587587915e-001
 2.1971011459e+000	 2.5947536597e+000	-9.3183036032e-001
 2.1701667274e+000	 2.6173223675e+000	-9.6767135622e-001
 2.1430136297e+000	 2.6396008378e+000	-1.0036423068e+000
 2.4218407256e+000	 2.4218407256e+000	-7.4681052249e-001
 2.3966325688e+000	 2.4467891879e+000	-7.4296766204e-001
 2.3711687928e+000	 2.4714739642e+000	-7.4770494951e-001
 2.3454535541e+000	 2.4958911486e+000	-7.6330866530e-001
 2.3194910883e+000	 2.5200369226e+000	-8.0161018537e-001
 2.2932857077e+000	 2.5439075579e+000	-8.4076785270e-001
 2.2668417990e+000	 2.5674994174e+000	-8.7772556871e-001
 2.2401638209e+000	 2.5908089578e+000	-9.1276504338e-001
 2.2132563014e+000	 2.6138327307e+000	-9.4614111328e-001
 2.1861238357e+000	 2.6365673849e+000	-9.7808134433e-001
 2.1587710829e+000	 2.6590096675e+000	-1.0087857362e+000
 2.4395183951e+000	 2.4395183951e+000	-7.5755789989e-001
 2.4141262372e+000	 2.4646489630e+000	-7.5482360701e-001
 2.3884765942e+000	 2.4895139202e+000	-7.5940634278e-001
 2.3625736530e+000	 2.5141093321e+000	-7.9037424439e-001
 2.3364216802e+000	 2.5384313527e+000	-8.3296315654e-001
 2.3100250194e+000	 2.5624762262e+000	-8.7192712548e-001
 2.2833880895e+000	 2.5862402891e+000	-9.0753112932e-001
 2.2565153816e+000	 2.6097199721e+000	-9.4001377949e-001
 2.2294114569e+000	 2.6329118018e+000	-9.6958686362e-001
 2.2020809440e+000	 2.6558124023e+000	-9.9643499097e-001
 2.1745285361e+000	 2.6784184972e+000	-1.0207153410e+000
 2.4571960646e+000	 2.4571960646e+000	-7.7568359867e-001
 2.4316199056e+000	 2.4825087381e+000	-7.7230740738e-001
 2.4057843956e+000	 2.5075538761e+000	-7.8868980363e-001
 2.3796937520e+000	 2.5323275157e+000	-8.3583805377e-001
 2.3533522720e+000	 2.5568257828e+000	-8.7802624755e-001
 2.3267643311e+000	 2.5810448945e+000	-9.1550291032e-001
 2.2999343800e+000	 2.6049811607e+000	-9.4849068818e-001
 2.2728669423e+000	 2.6286309864e+000	-9.7718582811e-001
 2.2455666124e+000	 2.6519908728e+000	-1.0017577615e+000
 2.2180380522e+000	 2.6750574197e+000	-1.0223487916e+000
 2.1902859892e+000	 2.6978273268e+000	-1.0390738861e+000
 2.4748737342e+000	 2.4748737342e+000	-8.0153921644e-001
 2.4491135740e+000	 2.5003685132e+000	-7.9665700529e-001
 2.4230921970e+000	 2.5255938321e+000	-8.4932854568e-001
 2.3968138509e+000	 2.5505456993e+000	-8.9579273580e-001
 2.3702828639e+000	 2.5752202129e+000	-9.3628204965e-001
 2.3435036429e+000	 2.5996135628e+000	-9.7100355587e-001
 2.3164806705e+000	 2.6237220324e+000	-1.0001383322e+000
 2.2892185031e+000	 2.6475420007e+000	-1.0238409839e+000
 2.2617217679e+000	 2.6710699438e+000	-1.0422392674e+000
 2.2339951605e+000	 2.6943024371e+000	-1.0554338195e+000
 2.2060434424e+000	 2.7172361565e+000	-1.0634979924e+000
 2.0484689108e+000	 2.5231478596e+000	-1.1344629122e+000
 2.0223091922e+000	 2.5441630315e+000	-1.0899659655e+000
 1.9959494577e+000	 2.5648948833e+000	-1.0346361028e+000
 1.9693942963e+000	 2.5853406170e+000	-9.6864448917e-001
 1.9426483480e+000	 2.6054975333e+000	-8.9215125692e-001
 1.9157163009e+000	 2.6253630329e+000	-8.0530553699e-001
 1.8886028886e+000	 2.6449346172e+000	-7.0824555652e-001
 1.8613128874e+000	 2.6642098895e+000	-7.2789443303e-001
 1.8338511137e+000	 2.6831865557e+000	-8.6100619803e-001
 1.8062224213e+000	 2.7018624252e+000	-9.8147746582e-001
 1.7784316985e+000	 2.7202354115e+000	-1.0909137219e+000
 2.0642263640e+000	 2.5425566893e+000	-1.0917614073e+000
 2.0378654168e+000	 2.5637335164e+000	-1.0430513621e+000
 2.0113029150e+000	 2.5846248440e+000	-9.8516131783e-001
 1.9845434832e+000	 2.6052278525e+000	-9.1832807640e-001
 1.9575917969e+000	 2.6255398220e+000	-8.4277445574e-001
 1.9304525802e+000	 2.6455581331e+000	-7.5870927231e-001
 1.9031306032e+000	 2.6652802681e+000	-6.6632739538e-001
 1.8756306788e+000	 2.6847038117e+000	-5.6580987164e-001
 1.8479576607e+000	 2.7038264523e+000	-7.1643240253e-001
 1.8201164399e+000	 2.7226459824e+000	-8.6156132206e-001
 1.7921119423e+000	 2.7411602993e+000	-9.9682428252e-001
 2.0799838171e+000	 2.5619655190e+000	-1.0578469809e+000
 2.0534216413e+000	 2.5833040013e+000	-1.0065102928e+000
 2.0266563724e+000	 2.6043548046e+000	-9.4763103922e-001
 1.9996926701e+000	 2.6251150880e+000	-8.8151096640e-001
 1.9725352457e+000	 2.6455821107e+000	-8.0843487926e-001
 1.9451888594e+000	 2.6657532334e+000	-7.2867057556e-001
 1.9176583177e+000	 2.6856259190e+000	-6.4246885759e-001
 1.8899484703e+000	 2.7051977340e+000	-5.5006361983e-001
 1.8620642078e+000	 2.7244663489e+000	-5.8025360074e-001
 1.8340104585e+000	 2.7434295395e+000	-7.5034838010e-001
 1.8057921862e+000	 2.7620851870e+000	-9.1166043571e-001
 2.0957412703e+000	 2.5813743487e+000	-1.0324044155e+000
 2.0689778659e+000	 2.6028744861e+000	-9.7999354572e-001
 2.0420098298e+000	 2.6240847652e+000	-9.2166303692e-001
 2.0148418570e+000	 2.6450023235e+000	-8.5777890184e-001
 1.9874786945e+000	 2.6656243995e+000	-7.8868724717e-001
 1.9599251387e+000	 2.6859483336e+000	-7.1471416033e-001
 1.9321860322e+000	 2.7059715699e+000	-6.3616567929e-001
 1.9042662617e+000	 2.7256916562e+000	-5.5332784417e-001
 1.8761707548e+000	 2.7451062455e+000	-4.6646682909e-001
 1.8479044772e+000	 2.7642130966e+000	-6.4979408333e-001
 1.8194724300e+000	 2.7830100748e+000	-8.3732173270e-001
 2.1114987234e+000	 2.6007831784e+000	-1.0151108207e+000
 2.0845340904e+000	 2.6224449710e+000	-9.6314529014e-001
 2.0573632871e+000	 2.6438147259e+000	-9.0686949695e-001
 2.0299910439e+000	 2.6648895590e+000	-8.4671305605e-001
 2.0024221433e+000	 2.6856666882e+000	-7.8308270371e-001
 1.9746614179e+000	 2.7061434339e+000	-7.1636213757e-001
 1.9467137467e+000	 2.7263172208e+000	-6.4691194536e-001
 1.9185840532e+000	 2.7461855784e+000	-5.7506962117e-001
 1.8902773018e+000	 2.7657461421e+000	-5.0114966754e-001
 1.8617984958e+000	 2.7849966537e+000	-5.6185494498e-001
 1.8331526738e+000	 2.8039349626e+000	-7.7570965610e-001
 2.1272561766e+000	 2.6201920081e+000	-1.0056359168e+000
 2.1000903150e+000	 2.6420154558e+000	-9.5560332179e-001
 2.0727167445e+000	 2.6635446865e+000	-9.0285722817e-001
 2.0451402308e+000	 2.6847767946e+000	-8.4789020220e-001
 2.0173655922e+000	 2.7057089769e+000	-7.9116895009e-001
 1.9893976971e+000	 2.7263385341e+000	-7.3313411203e-001
 1.9612414613e+000	 2.7466628717e+000	-6.7420015058e-001
 1.9329018446e+000	 2.7666795006e+000	-6.1475533227e-001
 1.9043838488e+000	 2.7863860387e+000	-5.5516180084e-001
 1.8756925144e+000	 2.8057802108e+000	-4.9575574048e-001
 1.8468329177e+000	 2.8248598504e+000	-7.2872754837e-001
 2.1430136297e+000	 2.6396008378e+000	-1.0036423068e+000
 2.1156465395e+000	 2.6615859407e+000	-9.5699929716e-001
 2.0880702019e+000	 2.6832746472e+000	-9.0922786003e-001
 2.0602894177e+000	 2.7046640301e+000	-8.6088287508e-001
 2.0323090410e+000	 2.7257512656e+000	-8.1249037103e-001
 2.0041339764e+000	 2.7465336344e+000	-7.6454727435e-001
 1.9757691758e+000	 2.7670085226e+000	-7.1752125803e-001
 1.9472196360e+000	 2.7871734229e+000	-6.7185068934e-001
 1.9184903959e+000	 2.8070259352e+000	-6.2794467499e-001
 1.8895865330e+000	 2.8265637680e+000	-5.8618320192e-001
 1.8605131615e+000	 2.8457847382e+000	-6.9828054338e-001
 2.1587710829e+000	 2.6590096675e+000	-1.0087857362e+000
 2.1312027641e+000	 2.6811564256e+000	-9.6695895752e-001
 2.1034236592e+000	 2.7030046078e+000	-9.2557803153e-001
 2.0754386045e+000	 2.7245512656e+000	-8.8525952580e-001
 2.0472524898e+000	 2.7457935543e+000	-8.4658815588e-001
 2.0188702556e+000	 2.7667287347e+000	-8.1011648921e-001
 1.9902968903e+000	 2.7873541735e+000	-7.7636475506e-001
 1.9615374275e+000	 2.8076673451e+000	-7.4582075918e-001
 1.9325969429e+000	 2.8276658318e+000	-7.1893990161e-001
 1.9034805517e+000	 2.8473473251e+000	-6.9614529599e-001
 1.8741934053e+000	 2.8667096260e+000	-6.8627550111e-001
 2.1745285361e+000	 2.6784184972e+000	-1.0207153410e+000
 2.1467589886e+000	 2.7007269104e+000	-9.8510234328e-001
 2.1187771166e+000	 2.7227345685e+000	-9.5149957209e-001
 2.0905877914e+000	 2.7444385011e+000	-9.2058466976e-001
 2.0621959387e+000	 2.7658358430e+000	-8.9300041433e-001
 2.0336065348e+000	 2.7869238349e+000	-8.6935437956e-001
 2.0048246048e+000	 2.8076998244e+000	-8.5021870672e-001
 1.9758552189e+000	 2.8281612673e+000	-8.3612998681e-001
 1.9467034899e+000	 2.8483057284e+000	-8.2758925197e-001
 1.9173745703e+000	 2.8681308822e+000	-8.2506207393e-001
 1.8878736492e+000	 2.8876345137e+000	-8.2897876748e-001
 2.1902859892e+000	 2.6978273268e+000	-1.0390738861e+000
 2.1623152132e+000	 2.7202973953e+000	-1.0110439990e+000
 2.1341305740e+000	 2.7424645291e+000	-9.8657967452e-001
 2.1057369783e+000	 2.7643257366e+000	-9.6641902816e-001
 2.0771393875e+000	 2.7858781318e+000	-9.5126228720e-001
 2.0483428141e+000	 2.8071189352e+000	-9.4177140731e-001
 2.0193523194e+000	 2.8280454753e+000	-9.3856980692e-001
 1.9901730104e+000	 2.8486551895e+000	-9.4224221793e-001
 1.9608100369e+000	 2.8689456250e+000	-9.5333465123e-001
 1.9312685889e+000	 2.8889144393e+000	-9.7235447532e-001
 1.9015538930e+000	 2.9085594015e+000	-9.9977060563e-001
 2.2060434424e+000	 2.7172361565e+000	-1.0634979924e+000
 2.1778714378e+000	 2.7398678801e+000	-1.0443931698e+000
 2.1494840313e+000	 2.7621944897e+000	-1.0304010606e+000
 2.1208861652e+000	 2.7842129721e+000	-1.0223196636e+000
 2.0920828363e+000	 2.8059204205e+000	-1.0209060525e+000
 2.0630790933e+000	 2.8273140354e+000	-1.0268759504e+000
 2.0338800339e+000	 2.8483911262e+000	-1.0409034274e+000
 2.0044908018e+000	 2.8691491118e+000	-1.0636207202e+000
 1.9749165840e+000	 2.8895855216e+000	-1.0956181729e+000
 1.9451626075e+000	 2.9096979964e+000	-1.1374442964e+000
 1.9152341368e+000	 2.9294842893e+000	-1.1896059443e+000
 1.7784316985e+000	 2.7202354115e+000	-1.0909137219e+000
 1.7504838655e+000	 2.7383035326e+000	-1.0381642169e+000
 1.7223838716e+000	 2.7560649120e+000	-9.8084915474e-001
 1.6941366922e+000	 2.7735177786e+000	-9.2096162073e-001
 1.6657473264e+000	 2.7906604674e+000	-8.6052854319e-001
 1.6372207940e+000	 2.8074914197e+000	-8.0160342152e-001
 1.6085621327e+000	 2.8240091829e+000	-7.4625901668e-001
 1.5797763955e+000	 2.8402124111e+000	-6.9658002581e-001
 1.5508686476e+000	 2.8560998648e+000	-6.5465576254e-001
 1.5218439643e+000	 2.8716704108e+000	-6.2257286413e-001
 1.4927074274e+000	 2.8869230222e+000	-6.0240804635e-001
 1.7921119423e+000	 2.7411602993e+000	-9.9682428252e-001
 1.7639491260e+000	 2.7593674059e+000	-9.7279588158e-001
 1.7356329783e+000	 2.7772654113e+000	-9.3946281531e-001
 1.7071685129e+000	 2.7948525307e+000	-8.9893163665e-001
 1.6785607674e+000	 2.8121270864e+000	-8.5334824990e-001
 1.6498148002e+000	 2.8290875075e+000	-8.0489035135e-001
 1.6209356876e+000	 2.8457323305e+000	-7.5575982650e-001
 1.5919285216e+000	 2.8620601989e+000	-7.0817512611e-001
 1.5627984065e+000	 2.8780698638e+000	-6.6436364339e-001
 1.5335504563e+000	 2.8937601832e+000	-6.2655411428e-001
 1.5041897923e+000	 2.9091301224e+000	-5.9696906244e-001
 1.8057921862e+000	 2.7620851870e+000	-9.1166043571e-001
 1.7774143865e+000	 2.7804312793e+000	-9.1522161174e-001
 1.7488820850e+000	 2.7984659106e+000	-9.0475231745e-001
 1.7202003336e+000	 2.8161872829e+000	-8.8247505037e-001
 1.6913742084e+000	 2.8335937054e+000	-8.5065718184e-001
 1.6624088063e+000	 2.8506835954e+000	-8.1160310593e-001
 1.6333092425e+000	 2.8674554780e+000	-7.6764633884e-001
 1.6040806477e+000	 2.8839079867e+000	-7.2114159181e-001
 1.5747281653e+000	 2.9000398628e+000	-6.7445684074e-001
 1.5452569483e+000	 2.9158499556e+000	-6.2996541515e-001
 1.5156721571e+000	 2.9313372226e+000	-5.9003812888e-001
 1.8194724300e+000	 2.7830100748e+000	-8.3732173270e-001
 1.7908796470e+000	 2.8014951526e+000	-8.6731367362e-001
 1.7621311917e+000	 2.8196664100e+000	-8.7856050040e-001
 1.7332321543e+000	 2.8375220350e+000	-8.7340316845e-001
 1.7041876494e+000	 2.8550603244e+000	-8.5423304510e-001
 1.6750028124e+000	 2.8722796832e+000	-8.2348376232e-001
 1.6456827974e+000	 2.8891786256e+000	-7.8362301358e-001
 1.6162327739e+000	 2.9057557745e+000	-7.3714431924e-001
 1.5866579241e+000	 2.9220098617e+000	-6.8655878392e-001
 1.5569634404e+000	 2.9379397280e+000	-6.3438686964e-001
 1.5271545219e+000	 2.9535443227e+000	-5.8315020776e-001
 1.8331526738e+000	 2.8039349626e+000	-7.7570965610e-001
 1.8043449075e+000	 2.8225590259e+000	-8.3094624776e-001
 1.7753802984e+000	 2.8408669093e+000	-8.6273214084e-001
 1.7462639751e+000	 2.8588567872e+000	-8.7352929811e-001
 1.7170010903e+000	 2.8765269434e+000	-8.6585564958e-001
 1.6875968185e+000	 2.8938757711e+000	-8.4227664414e-001
 1.6580563522e+000	 2.9109017732e+000	-8.0539673951e-001
 1.6283849000e+000	 2.9276035623e+000	-7.5785085520e-001
 1.5985876830e+000	 2.9439798607e+000	-7.0229581326e-001
 1.5686699324e+000	 2.9600295004e+000	-6.4140179083e-001
 1.5386368868e+000	 2.9757514229e+000	-5.7784380890e-001
 1.8468329177e+000	 2.8248598504e+000	-7.2872754837e-001
 1.8178101680e+000	 2.8436228993e+000	-8.0799535812e-001
 1.7886294051e+000	 2.8620674086e+000	-8.5911388110e-001
 1.7592957958e+000	 2.8801915393e+000	-8.8466867314e-001
 1.7298145313e+000	 2.8979935624e+000	-8.8730683101e-001
 1.7001908246e+000	 2.9154718589e+000	-8.6972823844e-001
 1.6704299071e+000	 2.9326249207e+000	-8.3467674434e-001
 1.6405370261e+000	 2.9494513500e+000	-7.8493129878e-001
 1.6105174418e+000	 2.9659498596e+000	-7.2329707222e-001
 1.5803764244e+000	 2.9821192728e+000	-6.5259658310e-001
 1.5501192516e+000	 2.9979585231e+000	-5.7566085848e-001
 1.8605131615e+000	 2.8457847382e+000	-6.9828054338e-001
 1.8312754286e+000	 2.8646867726e+000	-8.0033880424e-001
 1.8018785118e+000	 2.8832679079e+000	-8.6955416062e-001
 1.7723276165e+000	 2.9015262915e+000	-9.0863838303e-001
 1.7426279723e+000	 2.9194601813e+000	-9.2037037650e-001
 1.7127848307e+000	 2.9370679468e+000	-9.0758711610e-001
 1.6828034620e+000	 2.9543480683e+000	-8.7317450877e-001
 1.6526891522e+000	 2.9712991378e+000	-8.2005820750e-001
 1.6224472006e+000	 2.9879198586e+000	-7.5119440440e-001
 1.5920829165e+000	 3.0042090452e+000	-6.6956062841e-001
 1.5616016164e+000	 3.0201656232e+000	-5.7814657343e-001
 1.8741934053e+000	 2.8667096260e+000	-6.8627550111e-001
 1.8447406891e+000	 2.8857506459e+000	-8.0985609651e-001
 1.8151276185e+000	 2.9044684072e+000	-8.9590315033e-001
 1.7853594372e+000	 2.9228610436e+000	-9.4725730531e-001
 1.7554414133e+000	 2.9409268003e+000	-9.6683195332e-001
 1.7253788368e+000	 2.9586640346e+000	-9.5760385581e-001
 1.6951770168e+000	 2.9760712159e+000	-9.2260368422e-001
 1.6648412783e+000	 2.9931469256e+000	-8.6490650765e-001
 1.6343769594e+000	 3.0098898576e+000	-7.8762225493e-001
 1.6037894085e+000	 3.0262988176e+000	-6.9388617773e-001
 1.5730839812e+000	 3.0423727234e+000	-5.8684934132e-001
 1.8878736492e+000	 2.8876345137e+000	-8.2897876748e-001
 1.8582059496e+000	 2.9068145192e+000	-8.3842839410e-001
 1.8283767252e+000	 2.9256689066e+000	-9.4001268992e-001
 1.7983912579e+000	 2.9441957958e+000	-1.0023460407e+000
 1.7682548542e+000	 2.9623934193e+000	-1.0284790408e+000
 1.7379728429e+000	 2.9802601225e+000	-1.0215309713e+000
 1.7075505717e+000	 2.9977943634e+000	-9.8468001419e-001
 1.6769934045e+000	 3.0149947134e+000	-9.2115340840e-001
 1.6463067183e+000	 3.0318598565e+000	-8.3421757624e-001
 1.6154959005e+000	 3.0483885900e+000	-7.2716824700e-001
 1.5845663461e+000	 3.0645798236e+000	-6.0332060547e-001
 1.9015538930e+000	 2.9085594015e+000	-9.9977060563e-001
 1.8716712101e+000	 2.9278783926e+000	-8.8793844574e-001
 1.8416258319e+000	 2.9468694059e+000	-1.0037362278e+000
 1.8114230786e+000	 2.9655305479e+000	-1.0757268511e+000
 1.7810682952e+000	 2.9838600383e+000	-1.1071008651e+000
 1.7505668490e+000	 3.0018562103e+000	-1.1011228418e+000
 1.7199241266e+000	 3.0195175110e+000	-1.0611212590e+000
 1.6891455306e+000	 3.0368425011e+000	-9.9047831972e-001
 1.6582364771e+000	 3.0538298555e+000	-8.9261973790e-001
 1.6272023926e+000	 3.0704783624e+000	-7.7100451772e-001
 1.5960487109e+000	 3.0867869237e+000	-6.2911475508e-001
 1.9152341368e+000	 2.9294842893e+000	-1.1896059443e+000
 1.8851364706e+000	 2.9489422659e+000	-1.0617215626e+000
 1.8548749386e+000	 2.9680699052e+000	-1.0889287638e+000
 1.8244548993e+000	 2.9868653000e+000	-1.1692236004e+000
 1.7938817362e+000	 3.0053266573e+000	-1.2044883368e+000
 1.7631608551e+000	 3.0234522981e+000	-1.1981356454e+000
 1.7322976814e+000	 3.0412406585e+000	-1.1536471238e+000
 1.7012976567e+000	 3.0586902889e+000	-1.0745627738e+000
 1.6701662359e+000	 3.0757998544e+000	-9.6447044022e-001
 1.6389088846e+000	 3.0925681348e+000	-8.2699524176e-001
 1.6075310757e+000	 3.1089940239e+000	-6.6578901995e-001
 1.4927074274e+000	 2.8869230222e+000	-6.0240804635e-001
 1.4634641235e+000	 2.9018567779e+000	-6.2790718098e-001
 1.4341191402e+000	 2.9164708625e+000	-6.4038216589e-001
 1.4046775645e+000	 2.9307645658e+000	-6.4216382975e-001
 1.3751444794e+000	 2.9447372821e+000	-6.3557003813e-001
 1.3455249618e+000	 2.9583885102e+000	-6.2289833062e-001
 1.3158240793e+000	 2.9717178521e+000	-6.0641869628e-001
 1.2860468885e+000	 2.9847250126e+000	-5.8836650573e-001
 1.2561984318e+000	 2.9974097985e+000	-5.7093561697e-001
 1.2262837353e+000	 3.0097721177e+000	-4.0082393175e-001
 1.1963078061e+000	 3.0218119785e+000	-1.7486950638e-001
 1.5041897923e+000	 2.9091301224e+000	-5.9696906244e-001
 1.4747215398e+000	 2.9241787531e+000	-6.1470083250e-001
 1.4451508259e+000	 2.9389052537e+000	-6.1910926012e-001
 1.4154827765e+000	 2.9533089086e+000	-6.1263868032e-001
 1.3857225139e+000	 2.9673891074e+000	-5.9772059631e-001
 1.3558751538e+000	 2.9811453449e+000	-5.7676607313e-001
 1.3259458030e+000	 2.9945772202e+000	-5.5215827309e-001
 1.2959395569e+000	 3.0076844357e+000	-5.2624515177e-001
 1.2658614967e+000	 3.0204667969e+000	-5.0133233231e-001
 1.2357166871e+000	 3.0329242109e+000	-3.8797847741e-001
 1.2055101738e+000	 3.0450566860e+000	-1.6068938825e-001
 1.5156721571e+000	 2.9313372226e+000	-5.9003812888e-001
 1.4859789561e+000	 2.9465007283e+000	-5.9850684480e-001
 1.4561825116e+000	 2.9613396450e+000	-5.9334508174e-001
 1.4262879886e+000	 2.9758532514e+000	-5.7711362850e-001
 1.3963005484e+000	 2.9900409326e+000	-5.5236056782e-001
 1.3662253458e+000	 3.0039021796e+000	-5.2161342170e-001
 1.3360675267e+000	 3.0174365883e+000	-4.8737144215e-001
 1.3058322253e+000	 3.0306438589e+000	-4.5209806646e-001
 1.2755245616e+000	 3.0435237954e+000	-4.1821355540e-001
 1.2451496389e+000	 3.0560763041e+000	-3.5782406269e-001
 1.2147125416e+000	 3.0683013935e+000	-1.2954582834e-001
 1.5271545219e+000	 2.9535443227e+000	-5.8315020776e-001
 1.4972363725e+000	 2.9688227035e+000	-5.8082701711e-001
 1.4672141973e+000	 2.9837740362e+000	-5.6455758601e-001
 1.4370932006e+000	 2.9983975942e+000	-5.3702214030e-001
 1.4068785828e+000	 3.0126927579e+000	-5.0088832022e-001
 1.3765755378e+000	 3.0266590143e+000	-4.5880307253e-001
 1.3461892504e+000	 3.0402959564e+000	-4.1338469180e-001
 1.3157248936e+000	 3.0536032821e+000	-3.6721503024e-001
 1.2851876264e+000	 3.0665807938e+000	-3.2283189527e-001
 1.2545825907e+000	 3.0792283974e+000	-2.8272165275e-001
 1.2239149093e+000	 3.0915461010e+000	-8.1356532704e-002
 1.5386368868e+000	 2.9757514229e+000	-5.7784380890e-001
 1.5084937888e+000	 2.9911446788e+000	-5.6316666168e-001
 1.4782458830e+000	 3.0062084275e+000	-5.3421821307e-001
 1.4478984127e+000	 3.0209419370e+000	-4.9380114513e-001
 1.4174566173e+000	 3.0353445831e+000	-4.4470566956e-001
 1.3869257298e+000	 3.0494158490e+000	-3.8970116198e-001
 1.3563109741e+000	 3.0631553244e+000	-3.3152794870e-001
 1.3256175620e+000	 3.0765627052e+000	-2.7288926653e-001
 1.2948506913e+000	 3.0896377923e+000	-2.1644341501e-001
 1.2640155425e+000	 3.1023804906e+000	-1.6479611957e-001
 1.2331172771e+000	 3.1147908086e+000	-1.6042702929e-002
 1.5501192516e+000	 2.9979585231e+000	-5.7566085848e-001
 1.5197512051e+000	 3.0134666540e+000	-5.4703447364e-001
 1.4892775687e+000	 3.0286428187e+000	-5.0380175893e-001
 1.4587036247e+000	 3.0434862798e+000	-4.4889090751e-001
 1.4280346517e+000	 3.0579964084e+000	-3.8521775269e-001
 1.3972759218e+000	 3.0721726837e+000	-3.1567713913e-001
 1.3664326978e+000	 3.0860146925e+000	-2.4313445047e-001
 1.3355102304e+000	 3.0995221284e+000	-1.7041731422e-001
 1.3045137561e+000	 3.1126947907e+000	-1.0030750390e-001
 1.2734484944e+000	 3.1255325838e+000	-3.9867059823e-002
 1.2423196448e+000	 3.1380355161e+000	-1.6648347329e-002
 1.5616016164e+000	 3.0201656232e+000	-5.7814657343e-001
 1.5310086215e+000	 3.0357886292e+000	-5.3394240669e-001
 1.5003092544e+000	 3.0510772100e+000	-4.7478625205e-001
 1.4695088367e+000	 3.0660306226e+000	-4.0373490454e-001
 1.4386126862e+000	 3.0806482336e+000	-3.2383290512e-001
 1.4076261138e+000	 3.0949295184e+000	-2.3810364400e-001
 1.3765544214e+000	 3.1088740606e+000	-1.4954062401e-001
 1.3454028988e+000	 3.1224815516e+000	-6.1098905770e-002
 1.3141768210e+000	 3.1357517892e+000	-8.8992155505e-002
 1.2828814462e+000	 3.1486846770e+000	-1.0770225366e-001
 1.2515220125e+000	 3.1612802236e+000	-8.7201026646e-002
 1.5730839812e+000	 3.0423727234e+000	-5.8684934132e-001
 1.5422660378e+000	 3.0581106044e+000	-5.2540555410e-001
 1.5113409401e+000	 3.0735116012e+000	-4.4865283537e-001
 1.4803140488e+000	 3.0885749654e+000	-3.5977970854e-001
 1.4491907206e+000	 3.1033000588e+000	-2.6196254435e-001
 1.4179763059e+000	 3.1176863531e+000	-1.5835639113e-001
 1.3866761451e+000	 3.1317334287e+000	-1.4661376211e-001
 1.3552955671e+000	 3.1454409748e+000	-2.0574512379e-001
 1.3238398859e+000	 3.1588087876e+000	-2.2414423433e-001
 1.2923143980e+000	 3.1718367702e+000	-2.0201127657e-001
 1.2607243803e+000	 3.1845249311e+000	-1.3960488532e-001
 1.5845663461e+000	 3.0645798236e+000	-6.0332060547e-001
 1.5535234541e+000	 3.0804325796e+000	-5.2294203500e-001
 1.5223726258e+000	 3.0959459925e+000	-4.2688565348e-001
 1.4911192608e+000	 3.1111193082e+000	-3.1847487500e-001
 1.4597687551e+000	 3.1259518841e+000	-2.1707881225e-001
 1.4283264979e+000	 3.1404431878e+000	-3.2162532956e-001
 1.3967978688e+000	 3.1545927968e+000	-3.8430805205e-001
 1.3651882355e+000	 3.1684003979e+000	-4.0517549046e-001
 1.3335029507e+000	 3.1818657860e+000	-3.8433129641e-001
 1.3017473498e+000	 3.1949888634e+000	-3.2193669654e-001
 1.2699267480e+000	 3.2077696387e+000	-2.1821278888e-001
 1.5960487109e+000	 3.0867869237e+000	-6.2911475508e-001
 1.5647808705e+000	 3.1027545548e+000	-5.2807288554e-001
 1.5334043115e+000	 3.1183803837e+000	-4.1097174465e-001
 1.5019244728e+000	 3.1336636511e+000	-4.3899231624e-001
 1.4703467896e+000	 3.1486037093e+000	-5.5037298660e-001
 1.4386766899e+000	 3.1632000224e+000	-6.1905313001e-001
 1.4069195925e+000	 3.1774521649e+000	-6.4498446046e-001
 1.3750809039e+000	 3.1913598211e+000	-6.2817238169e-001
 1.3431660156e+000	 3.2049227845e+000	-5.6867866022e-001
 1.3111803016e+000	 3.2181409566e+000	-4.6662396420e-001
 1.2791291158e+000	 3.2310143462e+000	-3.2219026069e-001
 1.6075310757e+000	 3.1089940239e+000	-6.6578901995e-001
 1.5760382868e+000	 3.1250765300e+000	-5.4384840730e-001
 1.5444359972e+000	 3.1408147750e+000	-7.0733752364e-001
 1.5127296849e+000	 3.1562079939e+000	-8.2764045968e-001
 1.4809248240e+000	 3.1712555346e+000	-9.0456233475e-001
 1.4490268819e+000	 3.1859568571e+000	-9.3795712307e-001
 1.4170413162e+000	 3.2003115330e+000	-9.2773068865e-001
 1.3849735723e+000	 3.2143192443e+000	-8.7384369914e-001
 1.3528290804e+000	 3.2279797829e+000	-7.7631440984e-001
 1.3206132534e+000	 3.2412930498e+000	-6.3522130986e-001
 1.2883314835e+000	 3.2542590537e+000	-4.5070562292e-001
 1.1963078061e+000	 3.0218119785e+000	-1.7486950638e-001
 1.1662756302e+000	 3.0335294880e+000	-2.3680021701e-001
 1.1361921700e+000	 3.0449248518e+000	-2.8667347046e-001
 1.1060623621e+000	 3.0559983723e+000	-3.2349592489e-001
 1.0758911149e+000	 3.0667504478e+000	-3.4631401075e-001
 1.0456833066e+000	 3.0771815712e+000	-3.5421455822e-001
 1.0154437829e+000	 3.0872923289e+000	-3.4632533765e-001
 9.8517735496e-001	 3.0970833988e+000	-3.2181551367e-001
 9.5488879754e-001	 3.1065555498e+000	-2.7989601423e-001
 9.2458284674e-001	 3.1157096398e+000	-2.1981981577e-001
 8.9426419823e-001	 3.1245466141e+000	-1.4088214614e-001
 1.2055101738e+000	 3.0450566860e+000	-1.6068938825e-001
 1.1752469812e+000	 3.0568643302e+000	-2.1630155172e-001
 1.1449321098e+000	 3.0683473506e+000	-2.6604938813e-001
 1.1145705341e+000	 3.0795060520e+000	-3.0889545472e-001
 1.0841672004e+000	 3.0903408358e+000	-3.4383761647e-001
 1.0537270243e+000	 3.1008521987e+000	-3.6990979035e-001
 1.0232548889e+000	 3.1110407314e+000	-3.8618260547e-001
 9.9275564231e-001	 3.1209071173e+000	-3.9176397959e-001
 9.6223409599e-001	 3.1304521310e+000	-3.3193718511e-001
 9.3169502249e-001	 3.1396766370e+000	-2.0146951152e-001
 9.0114315360e-001	 3.1485815881e+000	-3.6382032301e-002
 1.2147125416e+000	 3.0683013935e+000	-1.2954582834e-001
 1.1842183322e+000	 3.0801991724e+000	-1.7968763030e-001
 1.1536720496e+000	 3.0917698495e+000	-2.3006068617e-001
 1.1230787061e+000	 3.1030137318e+000	-2.7958352103e-001
 1.0924432859e+000	 3.1139312239e+000	-3.2720557065e-001
 1.0617707421e+000	 3.1245228262e+000	-3.7190804164e-001
 1.0310659949e+000	 3.1347891339e+000	-3.5331604350e-001
 1.0003339297e+000	 3.1447308357e+000	-2.9916526799e-001
 9.6957939444e-001	 3.1543487122e+000	-2.1328549107e-001
 9.3880719824e-001	 3.1636436342e+000	-9.7290664451e-002
 9.0802210898e-001	 3.1726165620e+000	 4.7264197429e-002
 1.2239149093e+000	 3.0915461010e+000	-8.1356532704e-002
 1.1931896832e+000	 3.1035340146e+000	-1.2686535794e-001
 1.1624119893e+000	 3.1151923483e+000	-1.7860543561e-001
 1.1315868782e+000	 3.1265214116e+000	-2.3474595650e-001
 1.1007193714e+000	 3.1375216120e+000	-2.7008779881e-001
 1.0698144598e+000	 3.1481934537e+000	-2.7464360659e-001
 1.0388771009e+000	 3.1585375365e+000	-2.5019059074e-001
 1.0079122170e+000	 3.1685545542e+000	-1.9843964614e-001
 9.7692469289e-001	 3.1782452933e+000	-1.2103549897e-001
 9.4591937399e-001	 3.1876106315e+000	-1.9557004618e-002
 9.1490106435e-001	 3.1966515360e+000	 1.0448240992e-001
 1.2331172771e+000	 3.1147908086e+000	-1.6042702929e-002
 1.2021610342e+000	 3.1268688568e+000	-6.4786203945e-002
 1.1711519291e+000	 3.1386148472e+000	-1.3950403196e-001
 1.1400950502e+000	 3.1500290914e+000	-1.8577028255e-001
 1.1089954569e+000	 3.1611120000e+000	-2.0549461306e-001
 1.0778581776e+000	 3.1718640811e+000	-2.0051331909e-001
 1.0466882070e+000	 3.1822859390e+000	-1.7258929427e-001
 1.0154905044e+000	 3.1923782726e+000	-1.2341216103e-001
 9.8426999133e-001	 3.2021418745e+000	-5.4598566061e-002
 9.5303154973e-001	 3.2115776287e+000	 3.2307366001e-002
 9.2178001972e-001	 3.2206865099e+000	 1.3583342725e-001
 1.2423196448e+000	 3.1380355161e+000	-1.6648347329e-002
 1.2111323852e+000	 3.1502036991e+000	-8.8457109780e-002
 1.1798918689e+000	 3.1620373461e+000	-1.3585298282e-001
 1.1486032222e+000	 3.1735367712e+000	-1.6082646112e-001
 1.1172715424e+000	 3.1847023881e+000	-1.6528754583e-001
 1.0859018953e+000	 3.1955347086e+000	-1.5106565034e-001
 1.0544993130e+000	 3.2060343415e+000	-1.1990969185e-001
 1.0230687917e+000	 3.2162019911e+000	-7.3488362202e-002
 9.9161528978e-001	 3.2260384556e+000	-1.3390571652e-002
 9.6014372548e-001	 3.2355446259e+000	 5.8873941543e-002
 9.2865897510e-001	 3.2447214839e+000	 1.4187384280e-001
 1.2515220125e+000	 3.1612802236e+000	-8.7201026646e-002
 1.2201037362e+000	 3.1735385413e+000	-1.3467315398e-001
 1.1886318086e+000	 3.1854598449e+000	-1.5521432286e-001
 1.1571113942e+000	 3.1970444510e+000	-1.5930618043e-001
 1.1255476279e+000	 3.2082927761e+000	-1.4885939678e-001
 1.0939456130e+000	 3.2192053361e+000	-1.2569682777e-001
 1.0623104190e+000	 3.2297827441e+000	-9.1553738309e-002
 1.0306470791e+000	 3.2400257095e+000	-4.8078213527e-002
 9.9896058822e-001	 3.2499350368e+000	 3.1682491124e-003
 9.6725590122e-001	 3.2595116232e+000	 6.0709974164e-002
 9.3553793047e-001	 3.2687564578e+000	 1.2315617666e-001
 1.2607243803e+000	 3.1845249311e+000	-1.3960488532e-001
 1.2290750872e+000	 3.1968733835e+000	-2.0283426038e-001
 1.1973717484e+000	 3.2088823438e+000	-1.9698468209e-001
 1.1656195662e+000	 3.2205521308e+000	-1.8060506637e-001
 1.1338237134e+000	 3.2318831642e+000	-1.5560706402e-001
 1.1019893308e+000	 3.2428759635e+000	-1.2380728316e-001
 1.0701215250e+000	 3.2535311466e+000	-8.6927644321e-002
 1.0382253664e+000	 3.2638494280e+000	-4.6595932098e-002
 1.0063058867e+000	 3.2738316179e+000	-4.3465357587e-003
 9.7436807697e-001	 3.2834786204e+000	 3.8378628857e-002
 9.4241688584e-001	 3.2927914318e+000	 8.0229024369e-002
 1.2699267480e+000	 3.2077696387e+000	-2.1821278888e-001
 1.2380464382e+000	 3.2202082257e+000	-2.9234367852e-001
 1.2061116882e+000	 3.2323048426e+000	-2.6056427756e-001
 1.1741277382e+000	 3.2440598105e+000	-2.2412253988e-001
 1.1420997989e+000	 3.2554735523e+000	-1.8493139560e-001
 1.1100330485e+000	 3.2665465910e+000	-1.4480150033e-001
 1.0779326310e+000	 3.2772795491e+000	-1.0544172222e-001
 1.0458036537e+000	 3.2876731465e+000	-6.8459834123e-002
 1.0136511851e+000	 3.2977281991e+000	-3.5363403049e-002
 9.8148025271e-001	 3.3074456176e+000	-7.5608684637e-003
 9.4929584121e-001	 3.3168264057e+000	 1.3637199038e-002
 1.2791291158e+000	 3.2310143462e+000	-3.2219026069e-001
 1.2470177892e+000	 3.2435430679e+000	-4.0260786396e-001
 1.2148516279e+000	 3.2557273415e+000	-3.4535678434e-001
 1.1826359103e+000	 3.2675674903e+000	-2.8926168040e-001
 1.1503758844e+000	 3.2790639403e+000	-2.3623704741e-001
 1.1180767663e+000	 3.2902172185e+000	-1.8808786942e-001
 1.0857437371e+000	 3.3010279516e+000	-1.4651023845e-001
 1.0533819411e+000	 3.3114968649e+000	-1.1309218748e-001
 1.0209964835e+000	 3.3216247802e+000	-8.9314728838e-002
 9.8859242845e-001	 3.3314126149e+000	-7.6553089270e-002
 9.5617479658e-001	 3.3408613797e+000	-7.6078132552e-002
 1.2883314835e+000	 3.2542590537e+000	-4.5070562292e-001
 1.2559891402e+000	 3.2668779101e+000	-5.0457978479e-001
 1.2235915677e+000	 3.2791498404e+000	-4.5076921198e-001
 1.1911440823e+000	 3.2910751701e+000	-3.7542909525e-001
 1.1586519699e+000	 3.3026543284e+000	-3.0893234722e-001
 1.1261204840e+000	 3.3138878460e+000	-2.5307854732e-001
 1.0935548431e+000	 3.3247763542e+000	-2.0955127236e-001
 1.0609602284e+000	 3.3353205834e+000	-1.7991907057e-001
 1.0283417820e+000	 3.3455213614e+000	-1.6563664924e-001
 9.9570460419e-001	 3.3553796121e+000	-1.6804626679e-001
 9.6305375194e-001	 3.3648963537e+000	-1.8837931973e-001
 8.9426419823e-001	 3.1245466141e+000	-1.4088214614e-001
 8.6393750537e-001	 3.1330675043e+000	 5.6116520367e-002
 8.3360737744e-001	 3.1412734265e+000	 2.4476133594e-001
 8.0327837781e-001	 3.1491655796e+000	 4.1673509425e-001
 7.7295502237e-001	 3.1567452436e+000	 5.6996334191e-001
 7.4264177780e-001	 3.1640137784e+000	 7.0247414272e-001
 7.1234306010e-001	 3.1709726212e+000	 8.1239703385e-001
 6.8206323302e-001	 3.1776232857e+000	 8.9796183536e-001
 6.5180660668e-001	 3.1839673596e+000	 9.5749732110e-001
 6.2157743620e-001	 3.1900065032e+000	 9.4032007679e-001
 5.9137992034e-001	 3.1957424473e+000	 5.4949403083e-001
 9.0114315360e-001	 3.1485815881e+000	-3.6382032301e-002
 8.7058317850e-001	 3.1571680236e+000	 1.1618286516e-001
 8.4001974188e-001	 3.1654370683e+000	 2.5801822270e-001
 8.0945744226e-001	 3.1733899302e+000	 3.8710028316e-001
 7.7890083024e-001	 3.1810278994e+000	 5.0150451373e-001
 7.4835440687e-001	 3.1883523459e+000	 5.9940461369e-001
 7.1782262210e-001	 3.1953647183e+000	 6.7907137362e-001
 6.8730987327e-001	 3.2020665418e+000	 7.3887139427e-001
 6.5682050366e-001	 3.2084594163e+000	 7.7726567295e-001
 6.2635880109e-001	 3.2145450148e+000	 7.9280806576e-001
 5.9592899665e-001	 3.2203250815e+000	 3.6523625818e-001
 9.0802210898e-001	 3.1726165620e+000	 4.7264197429e-002
 8.7722885162e-001	 3.1812685429e+000	 1.5423455056e-001
 8.4643210633e-001	 3.1896007100e+000	 2.5414227732e-001
 8.1563650671e-001	 3.1976142808e+000	 3.4511648939e-001
 7.8484663811e-001	 3.2053105551e+000	 4.2538143885e-001
 7.5406703593e-001	 3.2126909134e+000	 4.9325542160e-001
 7.2330218410e-001	 3.2197568154e+000	 5.4714953853e-001
 6.9255651353e-001	 3.2265097978e+000	 5.8556632229e-001
 6.6183440064e-001	 3.2329514729e+000	 6.0709823794e-001
 6.3114016599e-001	 3.2390835264e+000	 6.1042606561e-001
 6.0047807296e-001	 3.2449077157e+000	 2.1372045014e-001
 9.1490106435e-001	 3.1966515360e+000	 1.0448240992e-001
 8.8387452474e-001	 3.2053690621e+000	 1.7070901212e-001
 8.5284447077e-001	 3.2137643518e+000	 2.3344440329e-001
 8.2181557116e-001	 3.2218386314e+000	 2.9096937582e-001
 7.9079244597e-001	 3.2295932108e+000	 3.4165587534e-001
 7.5977966499e-001	 3.2370294809e+000	 3.8396579888e-001
 7.2878174611e-001	 3.2441489125e+000	 4.1644965659e-001
 6.9780315378e-001	 3.2509530539e+000	 4.3774510527e-001
 6.6684829761e-001	 3.2574435295e+000	 4.4657536175e-001
 6.3592153088e-001	 3.2636220379e+000	 4.4174750449e-001
 6.0502714927e-001	 3.2694903500e+000	 9.2540159950e-002
 9.2178001972e-001	 3.2206865099e+000	 1.3583342725e-001
 8.9052019786e-001	 3.2294695814e+000	 1.6604282278e-001
 8.5925683522e-001	 3.2379279935e+000	 1.9623812134e-001
 8.2799463561e-001	 3.2460629820e+000	 2.2485065234e-001
 7.9673825384e-001	 3.2538758665e+000	 2.5039900702e-001
 7.6549229405e-001	 3.2613680485e+000	 2.7148773025e-001
 7.3426130811e-001	 3.2685410096e+000	 2.8680588161e-001
 7.0304979404e-001	 3.2753963099e+000	 2.9512547425e-001
 6.7186219458e-001	 3.2819355861e+000	 2.9529979964e-001
 6.4070289577e-001	 3.2881605495e+000	 2.8626164659e-001
 6.0957622558e-001	 3.2940729842e+000	-6.8248895932e-004
 9.2865897510e-001	 3.2447214839e+000	 1.4187384280e-001
 8.9716587098e-001	 3.2535701007e+000	 1.4067172481e-001
 8.6566919966e-001	 3.2620916352e+000	 1.4283947250e-001
 8.3417370005e-001	 3.2702873326e+000	 1.4695785193e-001
 8.0268406170e-001	 3.2781585222e+000	 1.5169109435e-001
 7.7120492311e-001	 3.2857066160e+000	 1.5578548046e-001
 7.3974087011e-001	 3.2929331067e+000	 1.5806779960e-001
 7.0829643429e-001	 3.2998395660e+000	 1.5744369262e-001
 6.7687609156e-001	 3.3064276427e+000	 1.5289588649e-001
 6.4548426067e-001	 3.3126990611e+000	 1.4348232923e-001
 6.1412530188e-001	 3.3186556184e+000	-6.8297861135e-002
 9.3553793047e-001	 3.2687564578e+000	 1.2315617666e-001
 9.0381154410e-001	 3.2776706199e+000	 9.5030660360e-002
 8.7208156410e-001	 3.2862552770e+000	 7.3566925452e-002
 8.4035276450e-001	 3.2945116833e+000	 5.7494116568e-002
 8.0862986957e-001	 3.3024411780e+000	 4.5621140738e-002
 7.7691755217e-001	 3.3100451835e+000	 3.6835142779e-002
 7.4522043211e-001	 3.3173252037e+000	 3.0099861451e-002
 7.1354307455e-001	 3.3242828220e+000	 2.4453874831e-002
 6.8188998853e-001	 3.3309196993e+000	 1.9008743406e-002
 6.5026562556e-001	 3.3372375726e+000	 1.2947059349e-002
 6.1867437819e-001	 3.3432382526e+000	-1.1262982056e-001
 9.4241688584e-001	 3.2927914318e+000	 8.0229024369e-002
 9.1045721722e-001	 3.3017711392e+000	 2.9553800668e-002
 8.7849392854e-001	 3.3104189187e+000	-1.1258712116e-002
 8.4653182894e-001	 3.3187360339e+000	-4.3332007487e-002
 8.1457567743e-001	 3.3267238337e+000	-6.7713426562e-002
 7.8263018123e-001	 3.3343837511e+000	-8.5375792662e-002
 7.5069999411e-001	 3.3417173008e+000	-9.7219159604e-002
 7.1878971480e-001	 3.3487260780e+000	-1.0407266513e-001
 6.8690388551e-001	 3.3554117559e+000	-1.0669648087e-001
 6.5504699045e-001	 3.3617760842e+000	-1.0578385027e-001
 6.2322345450e-001	 3.3678208868e+000	-1.3597669782e-001
 9.4929584121e-001	 3.3168264057e+000	 1.3637199038e-002
 9.1710289033e-001	 3.3258716585e+000	-5.5325426021e-002
 8.8490629298e-001	 3.3345825605e+000	-1.1131437820e-001
 8.5271089338e-001	 3.3429603845e+000	-1.5530676550e-001
 8.2052148530e-001	 3.3510064894e+000	-1.8820706164e-001
 7.8834281029e-001	 3.3587223186e+000	-2.1084885183e-001
 7.5617955611e-001	 3.3661093979e+000	-2.2399668691e-001
 7.2403635505e-001	 3.3731693341e+000	-2.2834803690e-001
 6.9191778248e-001	 3.3799038126e+000	-2.2453533562e-001
 6.5982835535e-001	 3.3863145957e+000	-2.1312810736e-001
 6.2777253081e-001	 3.3924035210e+000	-1.9463516732e-001
 9.5617479658e-001	 3.3408613797e+000	-7.6078132552e-002
 9.2374856345e-001	 3.3499721777e+000	-1.5917430772e-001
 8.9131865742e-001	 3.3587462022e+000	-2.2627483762e-001
 8.5888995783e-001	 3.3671847351e+000	-2.7821138163e-001
 8.2646729316e-001	 3.3752891451e+000	-3.1574639197e-001
 7.9405543935e-001	 3.3830608861e+000	-3.3957497189e-001
 7.6165911811e-001	 3.3905014950e+000	-3.5032683690e-001
 7.2928299530e-001	 3.3976125901e+000	-3.4856837003e-001
 6.9693167945e-001	 3.4043958692e+000	-3.3480476248e-001
 6.6460972024e-001	 3.4108531073e+000	-3.0948223075e-001
 6.3232160712e-001	 3.4169861552e+000	-2.7299030173e-001
 9.6305375194e-001	 3.3648963537e+000	-1.8837931973e-001
 9.3039423656e-001	 3.3740726970e+000	-2.8156082314e-001
 8.9773102186e-001	 3.3829098440e+000	-3.5581275957e-001
 8.6506902227e-001	 3.3914090857e+000	-4.1182223822e-001
 8.3241310102e-001	 3.3995718009e+000	-4.5021049796e-001
 7.9976806841e-001	 3.4073994536e+000	-4.7153487937e-001
 7.6713868010e-001	 3.4148935921e+000	-4.7629089438e-001
 7.3452963556e-001	 3.4220558462e+000	-4.6491438467e-001
 7.0194557643e-001	 3.4288879258e+000	-4.3778375996e-001
 6.6939108513e-001	 3.4353916189e+000	-3.9522230716e-001
 6.3687068343e-001	 3.4415687894e+000	-3.3750056179e-001
 5.9137992034e-001	 3.1957424473e+000	 5.4949403083e-001
 5.6121820030e-001	 3.2011769916e+000	 6.1643096972e-001
 5.3109635855e-001	 3.2063120026e+000	 6.7117618051e-001
 5.0101841767e-001	 3.2111494118e+000	 7.1205236725e-001
 4.7098833933e-001	 3.2156912140e+000	 7.3782687481e-001
 4.4101002328e-001	 3.2199394651e+000	 7.4770899242e-001
 4.1108730644e-001	 3.2238962803e+000	 7.4134631622e-001
 3.8122396201e-001	 3.2275638322e+000	 7.1882020393e-001
 3.5142369869e-001	 3.2309443486e+000	 6.8064035602e-001
 3.2169015991e-001	 3.2340401112e+000	 6.2773855932e-001
 2.9202692318e-001	 3.2368534530e+000	 5.6146163007e-001
 5.9592899665e-001	 3.2203250815e+000	 3.6523625818e-001
 5.6553526338e-001	 3.2258014300e+000	 4.1633007152e-001
 5.3518171515e-001	 3.2309759410e+000	 4.6016306493e-001
 5.0487240550e-001	 3.2358505611e+000	 4.9472820171e-001
 4.7461132655e-001	 3.2404273003e+000	 5.1847280144e-001
 4.4440240807e-001	 3.2447082303e+000	 5.3029608972e-001
 4.1424951648e-001	 3.2486954825e+000	 5.2954577863e-001
 3.8415645402e-001	 3.2523912463e+000	 5.1601371140e-001
 3.5412695790e-001	 3.2557977667e+000	 4.8993060626e-001
 3.2416469960e-001	 3.2589173428e+000	 4.5195993588e-001
 2.9427328412e-001	 3.2617523257e+000	 4.0319098026e-001
 6.0047807296e-001	 3.2449077157e+000	 2.1372045014e-001
 5.6985232646e-001	 3.2504258684e+000	 2.5006129283e-001
 5.3926707176e-001	 3.2556398795e+000	 2.8379064067e-001
 5.0872639332e-001	 3.2605517105e+000	 3.1256933258e-001
 4.7823431377e-001	 3.2651633866e+000	 3.3452261807e-001
 4.4779479286e-001	 3.2694769954e+000	 3.4823795107e-001
 4.1741172653e-001	 3.2734946847e+000	 3.5276178570e-001
 3.8708894603e-001	 3.2772186604e+000	 3.4759540776e-001
 3.5683021712e-001	 3.2806511848e+000	 3.3268983766e-001
 3.2663923928e-001	 3.2837945745e+000	 3.0843984173e-001
 2.9651964507e-001	 3.2866511984e+000	 2.7567709026e-001
 6.0502714927e-001	 3.2694903500e+000	 9.2540159950e-002
 5.7416938954e-001	 3.2750503068e+000	 1.1536413352e-001
 5.4335242836e-001	 3.2803038180e+000	 1.3994531737e-001
 5.1258038115e-001	 3.2852528598e+000	 1.6360993878e-001
 4.8185730100e-001	 3.2898994728e+000	 1.8415903082e-001
 4.5118717765e-001	 3.2942457605e+000	 1.9986646826e-001
 4.2057393658e-001	 3.2982938868e+000	 2.0947597601e-001
 3.9002143804e-001	 3.3020460744e+000	 2.1219714442e-001
 3.5953347634e-001	 3.3055046028e+000	 2.0770048773e-001
 3.2911377897e-001	 3.3086718061e+000	 1.9611158315e-001
 2.9876600601e-001	 3.3115500711e+000	 1.7800432972e-001
 6.0957622558e-001	 3.2940729842e+000	-6.8248895932e-004
 5.7848645261e-001	 3.2996747452e+000	 1.0005075033e-002
 5.4743778496e-001	 3.3049677565e+000	 2.6538812890e-002
 5.1643436897e-001	 3.3099540091e+000	 4.5907750778e-002
 4.8548028822e-001	 3.3146355591e+000	 6.5586458853e-002
 4.5457956245e-001	 3.3190145256e+000	 8.3533327237e-002
 4.2373614662e-001	 3.3230930890e+000	 9.8187784601e-002
 3.9295393006e-001	 3.3268734885e+000	 1.0846649430e-001
 3.6223673555e-001	 3.3303580209e+000	 1.1375856475e-001
 3.3158831866e-001	 3.3335490377e+000	 1.1391981240e-001
 3.0101236695e-001	 3.3364489438e+000	 1.0926611686e-001
 6.1412530188e-001	 3.3186556184e+000	-6.8297861135e-002
 5.8280351569e-001	 3.3242991836e+000	-6.8223418913e-002
 5.5152314156e-001	 3.3296316950e+000	-5.8492784026e-002
 5.2028835680e-001	 3.3346551584e+000	-4.2456821683e-002
 4.8910327544e-001	 3.3393716454e+000	-2.2969769823e-002
 4.5797194724e-001	 3.3437832907e+000	-2.3907250056e-003
 4.2689835667e-001	 3.3478922911e+000	 1.7413783871e-002
 3.9588642207e-001	 3.3517009026e+000	 3.5066169521e-002
 3.6493999477e-001	 3.3552114390e+000	 4.9673145185e-002
 3.3406285835e-001	 3.3584262693e+000	 6.0820107449e-002
 3.0325872790e-001	 3.3613478166e+000	 6.8564583341e-002
 6.1867437819e-001	 3.3432382526e+000	-1.1262982056e-001
 5.8712057877e-001	 3.3489236220e+000	-1.2150385757e-001
 5.5560849817e-001	 3.3542956335e+000	-1.1718990974e-001
 5.2414234463e-001	 3.3593563078e+000	-1.0338152338e-001
 4.9272626267e-001	 3.3641077316e+000	-8.3264187061e-002
 4.6136433203e-001	 3.3685520559e+000	-5.9516581190e-002
 4.3006056672e-001	 3.3726914933e+000	-3.4312946492e-002
 3.9881891408e-001	 3.3765283167e+000	-9.3265351433e-003
 3.6764325399e-001	 3.3800648570e+000	 1.4265893229e-002
 3.3653739804e-001	 3.3833035010e+000	 3.5778570341e-002
 3.0550508885e-001	 3.3862466893e+000	 5.5010253928e-002
 6.2322345450e-001	 3.3678208868e+000	-1.3597669782e-001
 5.9143764185e-001	 3.3735480604e+000	-1.5199463654e-001
 5.5969385477e-001	 3.3789595719e+000	-1.5157038245e-001
 5.2799633246e-001	 3.3840574571e+000	-1.3874305091e-001
 4.9634924989e-001	 3.3888438179e+000	-1.1703191962e-001
 4.6475671683e-001	 3.3933208210e+000	-8.9437443847e-002
 4.3322277677e-001	 3.3974906954e+000	-5.8443421956e-002
 4.0175140610e-001	 3.4013557308e+000	-2.6020274518e-002
 3.7034651321e-001	 3.4049182751e+000	 6.3706013894e-003
 3.3901193773e-001	 3.4081807326e+000	 3.7771443076e-002
 3.0775144979e-001	 3.4111455620e+000	 6.7721740162e-002
 6.2777253081e-001	 3.3924035210e+000	-1.9463516732e-001
 5.9575470493e-001	 3.3981724988e+000	-1.6183091148e-001
 5.6377921137e-001	 3.4036235104e+000	-1.6363022174e-001
 5.3185032028e-001	 3.4087586064e+000	-1.5039781527e-001
 4.9997223712e-001	 3.4135799042e+000	-1.2598939223e-001
 4.6814910162e-001	 3.4180895861e+000	-9.3729466262e-002
 4.3638498682e-001	 3.4222898976e+000	-5.6413329414e-002
 4.0468389811e-001	 3.4261831449e+000	-1.6310162079e-002
 3.7304977243e-001	 3.4297716932e+000	 2.4832751066e-002
 3.4148647742e-001	 3.4330579642e+000	 6.5784740229e-002
 3.0999781074e-001	 3.4360444347e+000	 1.0582544736e-001
 6.3232160712e-001	 3.4169861552e+000	-2.7299030173e-001
 6.0007176801e-001	 3.4227969372e+000	-1.5312543404e-001
 5.6786456798e-001	 3.4282874489e+000	-1.5534443264e-001
 5.3570430811e-001	 3.4334597557e+000	-1.4018267159e-001
 5.0359522435e-001	 3.4383159904e+000	-1.1183500035e-001
 4.7154148642e-001	 3.4428583512e+000	-7.3952365756e-002
 4.3954719687e-001	 3.4470890998e+000	-2.9643578564e-002
 4.0761639013e-001	 3.4510105590e+000	 1.8521742941e-002
 3.7575303165e-001	 3.4546251112e+000	 6.8509092080e-002
 3.4396101711e-001	 3.4579351959e+000	 1.1881389742e-001
 3.1224417169e-001	 3.4609433074e+000	 1.6845529428e-001
 6.3687068343e-001	 3.4415687894e+000	-3.3750056179e-001
 6.0438883109e-001	 3.4474213756e+000	-1.2796935203e-001
 5.7194992458e-001	 3.4529513874e+000	-1.2866775618e-001
 5.3955829594e-001	 3.4581609051e+000	-1.0991561754e-001
 5.0721821157e-001	 3.4630520767e+000	-7.6249754071e-002
 4.7493387121e-001	 3.4676271163e+000	-3.1650010689e-002
 4.4270940692e-001	 3.4718883019e+000	 2.0459170328e-002
 4.1054888215e-001	 3.4758379731e+000	 7.7205969334e-002
 3.7845629087e-001	 3.4794785293e+000	 1.3626724024e-001
 3.4643555681e-001	 3.4828124275e+000	 1.9586343484e-001
 3.1449053264e-001	 3.4858421801e+000	 2.5475244477e-001
 2.9202692318e-001	 3.2368534530e+000	 5.6146163007e-001
 2.6243749943e-001	 3.2393867566e+000	 4.3477532947e-001
 2.3292533249e-001	 3.2416424524e+000	 2.8168963838e-001
 2.0349379852e-001	 3.2436230166e+000	 1.0578967684e-001
 1.7414620565e-001	 3.2453309691e+000	-8.8967172521e-002
 1.4488579349e-001	 3.2467688718e+000	-2.9826253464e-001
 1.1571573288e-001	 3.2479393266e+000	-5.1742884414e-001
 8.6639125561e-002	 3.2488449735e+000	-7.4146163789e-001
 5.7659003953e-002	 3.2494884889e+000	-9.6503229645e-001
 2.8778330992e-002	 3.2498725833e+000	-1.1825011930e+000
 0.0000000000e+000	 3.2500000000e+000	-1.3879312089e+000
 2.9427328412e-001	 3.2617523257e+000	 4.0319098026e-001
 2.6445624942e-001	 3.2643051163e+000	 3.2138060911e-001
 2.3471706581e-001	 3.2665781636e+000	 2.1687781381e-001
 2.0505913543e-001	 3.2685739629e+000	 9.2874789519e-002
 1.7548579184e-001	 3.2702950535e+000	-4.7050922823e-002
 1.4600029959e-001	 3.2717440170e+000	-1.9894761112e-001
 1.1660585390e-001	 3.2729234752e+000	-3.5850112545e-001
 8.7305580372e-002	 3.2738360887e+000	-5.2104712776e-001
 5.8102534752e-002	 3.2744845542e+000	-6.8158381553e-001
 2.8999702769e-002	 3.2748716032e+000	-8.3478507703e-001
 0.0000000000e+000	 3.2750000000e+000	-9.7501403630e-001
 2.9651964507e-001	 3.2866511984e+000	 2.7567709026e-001
 2.6647499942e-001	 3.2892234759e+000	 2.3224147258e-001
 2.3650879913e-001	 3.2915138748e+000	 1.6951920761e-001
 2.0662447234e-001	 3.2935249092e+000	 9.0312357238e-002
 1.7682537804e-001	 3.2952591379e+000	-2.1783164180e-003
 1.4711480569e-001	 3.2967191621e+000	-1.0436443734e-001
 1.1749597492e-001	 3.2979076239e+000	-2.1228168783e-001
 8.7972035183e-002	 3.2988272039e+000	-3.2160202321e-001
 5.8546065551e-002	 3.2994806195e+000	-4.2764638577e-001
 2.9221074545e-002	 3.2998706230e+000	-5.2539787470e-001
 0.0000000000e+000	 3.3000000000e+000	-6.0951532896e-001
 2.9876600601e-001	 3.3115500711e+000	 1.7800432972e-001
 2.6849374941e-001	 3.3141418356e+000	 1.6669966455e-001
 2.3830053246e-001	 3.3164495860e+000	 1.3921320538e-001
 2.0818980925e-001	 3.3184758555e+000	 9.7959547651e-002
 1.7816496423e-001	 3.3202232222e+000	 4.5765615897e-002
 1.4822931180e-001	 3.3216943073e+000	-1.4140341693e-002
 1.1838609594e-001	 3.3228917726e+000	-7.8140371931e-002
 8.8638489994e-002	 3.3238183191e+000	-1.4223900423e-001
 5.8989596350e-002	 3.3244766848e+000	-2.0207596289e-001
 2.9442446322e-002	 3.3248696429e+000	-2.5293935994e-001
 0.0000000000e+000	 3.3250000000e+000	-2.8977932448e-001
 3.0101236695e-001	 3.3364489438e+000	 1.0926611686e-001
 2.7051249940e-001	 3.3390601953e+000	 1.2410043973e-001
 2.4009226578e-001	 3.3413852971e+000	 1.2555708773e-001
 2.0975514616e-001	 3.3434268017e+000	 1.1566573491e-001
 1.7950455043e-001	 3.3451873066e+000	 9.6882290717e-002
 1.4934381790e-001	 3.3466694525e+000	 7.2077968084e-002
 1.1927621697e-001	 3.3478759212e+000	 4.4527710777e-002
 8.9304944806e-002	 3.3488094342e+000	 1.7898025096e-002
 5.9433127149e-002	 3.3494727501e+000	-3.7657388466e-003
 2.9663818098e-002	 3.3498686628e+000	-1.6052611111e-002
 0.0000000000e+000	 3.3500000000e+000	-1.4199686195e-002
 3.0325872790e-001	 3.3613478166e+000	 6.8564583341e-002
 2.7253124940e-001	 3.3639785549e+000	 1.0379243290e-001
 2.4188399911e-001	 3.3663210083e+000	 1.2814610826e-001
 2.1132048307e-001	 3.3683777480e+000	 1.4327278832e-001
 1.8084413662e-001	 3.3701513910e+000	 1.5126007398e-001
 1.5045832400e-001	 3.3716445976e+000	 1.5462512265e-001
 1.2016633799e-001	 3.3728600699e+000	 1.5630311397e-001
 8.9971399617e-002	 3.3738005494e+000	 1.5963509306e-001
 5.9876657948e-002	 3.3744688154e+000	 1.6835523728e-001
 2.9885189875e-002	 3.3748676827e+000	 1.8657759290e-001
 0.0000000000e+000	 3.3750000000e+000	 2.1878232741e-001
 3.0550508885e-001	 3.3862466893e+000	 5.5010253928e-002
 2.7454999939e-001	 3.3888969146e+000	 1.0512753457e-001
 2.4367573243e-001	 3.3912567195e+000	 1.4657356810e-001
 2.1288581998e-001	 3.3933286943e+000	 1.8061534824e-001
 1.8218372282e-001	 3.3951154754e+000	 2.0897476077e-001
 1.5157283010e-001	 3.3966197428e+000	 2.3381777715e-001
 1.2105645901e-001	 3.3978442186e+000	 2.5774295113e-001
 9.0637854428e-002	 3.3987916646e+000	 2.8376926574e-001
 6.0320188747e-002	 3.3994648807e+000	 3.1532337758e-001
 3.0106561652e-002	 3.3998667025e+000	 3.5622630576e-001
 0.0000000000e+000	 3.4000000000e+000	 4.1067961250e-001
 3.0775144979e-001	 3.4111455620e+000	 6.7721740162e-002
 2.7656874939e-001	 3.4138152743e+000	 1.2746077221e-001
 2.4546746576e-001	 3.4161924307e+000	 1.8043088714e-001
 2.1445115689e-001	 3.4182796406e+000	 2.2752108992e-001
 1.8352330902e-001	 3.4200795598e+000	 2.7009003411e-001
 1.5268733621e-001	 3.4215948880e+000	 3.0995526725e-001
 1.2194658003e-001	 3.4228283672e+000	 3.4938175101e-001
 9.1304309239e-002	 3.4237827798e+000	 3.9106970404e-001
 6.0763719546e-002	 3.4244609460e+000	 4.3814181580e-001
 3.0327933428e-002	 3.4248657224e+000	 4.9412987964e-001
 0.0000000000e+000	 3.4250000000e+000	 5.6296089309e-001
 3.0999781074e-001	 3.4360444347e+000	 1.0582544736e-001
 2.7858749938e-001	 3.4387336339e+000	 1.7015019660e-001
 2.4725919909e-001	 3.4411281418e+000	 2.2930767219e-001
 2.1601649380e-001	 3.4432305869e+000	 2.8381097587e-001
 1.8486289521e-001	 3.4450436441e+000	 3.3465790379e-001
 1.5380184231e-001	 3.4465700331e+000	 3.8332023669e-001
 1.2283670105e-001	 3.4478125159e+000	 4.3173227596e-001
 9.1970764051e-002	 3.4487738950e+000	 4.8227867472e-001
 6.1207250346e-002	 3.4494570113e+000	 5.3778161318e-001
 3.0549305205e-002	 3.4498647423e+000	 6.0148736749e-001
 0.0000000000e+000	 3.4500000000e+000	 6.7705232151e-001
 3.1224417169e-001	 3.4609433074e+000	 1.6845529428e-001
 2.8060624938e-001	 3.4636519936e+000	 2.3255677304e-001
 2.4905093241e-001	 3.4660638530e+000	 2.9279178225e-001
 2.1758183071e-001	 3.4681815332e+000	 3.4929949731e-001
 1.8620248141e-001	 3.4700077285e+000	 4.0271912629e-001
 1.5491634841e-001	 3.4715451783e+000	 4.5417923764e-001
 1.2372682207e-001	 3.4727966646e+000	 5.0528630484e-001
 9.2637218862e-002	 3.4737650101e+000	 5.5811251784e-001
 6.1650781145e-002	 3.4744530766e+000	 6.1518291202e-001
 3.0770676981e-002	 3.4748637621e+000	 6.7946186469e-001
 0.0000000000e+000	 3.4750000000e+000	 7.5433900971e-001
 3.1449053264e-001	 3.4858421801e+000	 2.5475244477e-001
 2.8262499937e-001	 3.4885703533e+000	 3.1404427727e-001
 2.5084266574e-001	 3.4909995642e+000	 3.7046939086e-001
 2.1914716763e-001	 3.4931324794e+000	 4.2379490529e-001
 1.8754206761e-001	 3.4949718129e+000	 4.7430360665e-001
 1.5603085452e-001	 3.4965203235e+000	 5.2278330549e-001
 1.2461694309e-001	 3.4977808132e+000	 5.7051538246e-001
 9.3303673673e-002	 3.4987561253e+000	 6.1926257268e-001
 6.2094311944e-002	 3.4994491419e+000	 6.7125604004e-001
 3.0992048758e-002	 3.4998627820e+000	 7.2918179328e-001
 0.0000000000e+000	 3.5000000000e+000	 7.9616649500e-001
 3.5000000000e+000	 0.0000000000e+000	 1.1507095984e+000
 3.4998627820e+000	 3.0992048758e-002	 1.1244844415e+000
 3.4994491419e+000	 6.2094311944e-002	 1.1044964433e+000
 3.4987561253e+000	 9.3303673673e-002	 1.0901943779e+000
 3.4977808132e+000	 1.2461694309e-001	 1.0809840031e+000
 3.4965203235e+000	 1.5603085452e-001	 1.0762313387e+000
 3.4949718129e+000	 1.8754206761e-001	 1.0752661980e+000
 3.4931324794e+000	 2.1914716763e-001	 1.0773859717e+000
 3.4909995642e+000	 2.5084266574e-001	 1.0818596642e+000
 3.4885703533e+000	 2.8262499937e-001	 1.0879321804e+000
 3.4858421801e+000	 3.1449053264e-001	 1.0948288604e+000
 3.5250000000e+000	 0.0000000000e+000	 1.1241115184e+000
 3.5248618019e+000	 3.1213420535e-002	 1.0949056123e+000
 3.5244452072e+000	 6.2537842743e-002	 1.0734934772e+000
 3.5237472405e+000	 9.3970128485e-002	 1.0591660198e+000
 3.5227649619e+000	 1.2550706412e-001	 1.0511663525e+000
 3.5214954686e+000	 1.5714536062e-001	 1.0486931940e+000
 3.5199358973e+000	 1.8888165380e-001	 1.0509045343e+000
 3.5180834257e+000	 2.2071250454e-001	 1.0569215644e+000
 3.5159352753e+000	 2.5263439907e-001	 1.0658328689e+000
 3.5134887129e+000	 2.8464374937e-001	 1.0766988806e+000
 3.5107410529e+000	 3.1673689358e-001	 1.0885565957e+000
 3.5500000000e+000	 0.0000000000e+000	 1.0995681544e+000
 3.5498608218e+000	 3.1434792311e-002	 1.0668629427e+000
 3.5494412725e+000	 6.2981373542e-002	 1.0435116841e+000
 3.5487383557e+000	 9.4636583296e-002	 1.0286461083e+000
 3.5477491106e+000	 1.2639718514e-001	 1.0213453362e+000
 3.5464706138e+000	 1.5825986672e-001	 1.0206394047e+000
 3.5448999816e+000	 1.9022124000e-001	 1.0255130673e+000
 3.5430343720e+000	 2.2227784145e-001	 1.0349098708e+000
 3.5408709865e+000	 2.5442613239e-001	 1.0477365063e+000
 3.5384070726e+000	 2.8666249936e-001	 1.0628674344e+000
 3.5356399256e+000	 3.1898325453e-001	 1.0791497820e+000
 3.5750000000e+000	 0.0000000000e+000	 1.0764533642e+000
 3.5748598416e+000	 3.1656164088e-002	 1.0398347010e+000
 3.5744373378e+000	 6.3424904341e-002	 1.0141343817e+000
 3.5737294709e+000	 9.5303038108e-002	 9.9832360576e-001
 3.5727332592e+000	 1.2728730616e-001	 9.9131611170e-001
 3.5714457590e+000	 1.5937437283e-001	 9.9197182822e-001
 3.5698640660e+000	 1.9156082620e-001	 9.9910081198e-001
 3.5679853183e+000	 2.2384317836e-001	 1.0114674729e+000
 3.5658066977e+000	 2.5621786572e-001	 1.0277950861e+000
 3.5633254323e+000	 2.8868124936e-001	 1.0467705896e+000
 3.5605387983e+000	 3.2122961548e-001	 1.0670496643e+000
 3.6000000000e+000	 0.0000000000e+000	 1.0541583985e+000
 3.5998588615e+000	 3.1877535864e-002	 1.0133149126e+000
 3.5994334031e+000	 6.3868435141e-002	 9.8495899849e-001
 3.5987205860e+000	 9.5969492919e-002	 9.6789992868e-001
 3.5977174079e+000	 1.2817742718e-001	 9.6088462459e-001
 3.5964209041e+000	 1.6048887893e-001	 9.6260143490e-001
 3.5948281504e+000	 1.9290041239e-001	 9.7168421249e-001
 3.5929362646e+000	 2.2540851527e-001	 9.8671669057e-001
 3.5907424089e+000	 2.5800959905e-001	 1.0062371572e+000
 3.5882437919e+000	 2.9069999936e-001	 1.0287434274e+000
 3.5854376710e+000	 3.2347597643e-001	 1.0526981097e+000
 3.6250000000e+000	 0.0000000000e+000	 1.0320913011e+000
 3.6248578814e+000	 3.2098907641e-002	 9.8681281641e-001
 3.6244294683e+000	 6.4311965940e-002	 9.5559658659e-001
 3.6237117012e+000	 9.6635947731e-002	 9.3708851803e-001
 3.6227015566e+000	 1.2906754820e-001	 9.2986723631e-001
 3.6213960493e+000	 1.6160338503e-001	 9.3244799352e-001
 3.6197922348e+000	 1.9423999859e-001	 9.4328688610e-001
 3.6178872109e+000	 2.2697385218e-001	 9.6078538357e-001
 3.6156781200e+000	 2.5980133237e-001	 9.8329516787e-001
 3.6131621516e+000	 2.9271874935e-001	 1.0091232819e+000
 3.6103365437e+000	 3.2572233738e-001	 1.0365375848e+000
 3.6500000000e+000	 0.0000000000e+000	 1.0096763335e+000
 3.6498569012e+000	 3.2320279418e-002	 9.5985234406e-001
 3.6494255336e+000	 6.4755496739e-002	 9.2567135568e-001
 3.6487028164e+000	 9.7302402542e-002	 9.0561442755e-001
 3.6476857052e+000	 1.2995766922e-001	 8.9809036752e-001
 3.6463711945e+000	 1.6271789114e-001	 9.0143977020e-001
 3.6447563192e+000	 1.9557958479e-001	 9.1393937744e-001
 3.6428381571e+000	 2.2853918909e-001	 9.3380676177e-001
 3.6406138312e+000	 2.6159306570e-001	 9.5920533241e-001
 3.6380805113e+000	 2.9473749935e-001	 9.8824966268e-001
 3.6352354164e+000	 3.2796869832e-001	 1.0190111363e+000
 3.6750000000e+000	 0.0000000000e+000	 9.8635342390e-001
 3.6748559211e+000	 3.2541651194e-002	 9.3197161999e-001
 3.6744215989e+000	 6.5199027538e-002	 8.9482022524e-001
 3.6736939316e+000	 9.7968857353e-002	 8.7321392874e-001
 3.6726698539e+000	 1.3084779024e-001	 8.6539015594e-001
 3.6713463396e+000	 1.6383239724e-001	 8.6951323924e-001
 3.6697204035e+000	 1.9691917098e-001	 8.8367892293e-001
 3.6677891034e+000	 2.3010452601e-001	 9.0591920324e-001
 3.6655495424e+000	 2.6338479903e-001	 9.3420750325e-001
 3.6629988709e+000	 2.9675624934e-001	 9.6646418124e-001
 3.6601342892e+000	 3.3021505927e-001	 1.0005623704e+000
 3.7000000000e+000	 0.0000000000e+000	 9.6157763741e-001
 3.6998549410e+000	 3.2763022971e-002	 9.0272248204e-001
 3.6994176642e+000	 6.5642558337e-002	 8.6269239524e-001
 3.6986850468e+000	 9.8635312165e-002	 8.3963413189e-001
 3.6976540026e+000	 1.3173791127e-001	 8.3161212809e-001
 3.6963214848e+000	 1.6494690334e-001	 8.3661280591e-001
 3.6946844879e+000	 1.9825875718e-001	 8.5254922468e-001
 3.6927400497e+000	 2.3166986292e-001	 8.7726607965e-001
 3.6904852536e+000	 2.6517653235e-001	 9.0854504781e-001
 3.6879172306e+000	 2.9877499934e-001	 9.4411047963e-001
 3.6850331619e+000	 3.3246142022e-001	 9.8163543446e-001
 3.7250000000e+000	 0.0000000000e+000	 9.3481866829e-001
 3.7248539609e+000	 3.2984394747e-002	 8.7167002122e-001
 3.7244137295e+000	 6.6086089136e-002	 8.2894893399e-001
 3.7236761619e+000	 9.9301766976e-002	 8.0463262234e-001
 3.7226381512e+000	 1.3262803229e-001	 7.9661088420e-001
 3.7212966300e+000	 1.6606140945e-001	 8.0269054026e-001
 3.7196485723e+000	 1.9959834338e-001	 8.2060023354e-001
 3.7176909960e+000	 2.3323519983e-001	 8.4799558864e-001
 3.7154209647e+000	 2.6696826568e-001	 8.8246473066e-001
 3.7128355903e+000	 3.0079374934e-001	 9.2153416250e-001
 3.7099320346e+000	 3.3470778117e-001	 9.6267499842e-001
 3.7500000000e+000	 0.0000000000e+000	 9.0556035228e-001
 3.7498529807e+000	 3.3205766524e-002	 8.3839214000e-001
 3.7494097948e+000	 6.6529619936e-002	 7.9326238258e-001
 3.7486672771e+000	 9.9968221788e-002	 7.6797711135e-001
 3.7476222999e+000	 1.3351815331e-001	 7.6024979577e-001
 3.7462717751e+000	 1.6717591555e-001	 7.6770592165e-001
 3.7446126567e+000	 2.0093792957e-001	 7.8788794081e-001
 3.7426419423e+000	 2.3480053674e-001	 8.1826059304e-001
 3.7403566759e+000	 2.6875999901e-001	 8.5621660022e-001
 3.7377539499e+000	 3.0281249933e-001	 8.9908273159e-001
 3.7348309073e+000	 3.3695414212e-001	 9.4412623775e-001
 3.4858421801e+000	 3.1449053264e-001	 1.0948288604e+000
 3.4828124275e+000	 3.4643555681e-001	 1.0960992085e+000
 3.4794785293e+000	 3.7845629087e-001	 1.0927369265e+000
 3.4758379731e+000	 4.1054888215e-001	 1.0836642408e+000
 3.4718883019e+000	 4.4270940692e-001	 1.0678020379e+000
 3.4676271163e+000	 4.7493387121e-001	 1.0440757862e+000
 3.4630520767e+000	 5.0721821157e-001	 1.0114216811e+000
 3.4581609051e+000	 5.3955829594e-001	 9.6879300460e-001
 3.4529513874e+000	 5.7194992458e-001	 9.1516668882e-001
 3.4474213756e+000	 6.0438883109e-001	 8.4955007409e-001
 3.4415687894e+000	 6.3687068343e-001	 1.0760693641e+000
 3.5107410529e+000	 3.1673689358e-001	 1.0885565957e+000
 3.5076896591e+000	 3.4891009650e-001	 1.0880120907e+000
 3.5043319474e+000	 3.8115955010e-001	 1.0812234956e+000
 3.5006653872e+000	 4.1348137416e-001	 1.0669466914e+000
 3.4966875041e+000	 4.4587161697e-001	 1.0439350009e+000
 3.4923958815e+000	 4.7832625601e-001	 1.0109453541e+000
 3.4877881630e+000	 5.1084119880e-001	 9.6674468582e-001
 3.4828620544e+000	 5.4341228377e-001	 9.1011655585e-001
 3.4776153259e+000	 5.7603528119e-001	 8.3986798280e-001
 3.4720458140e+000	 6.0870589417e-001	 7.5483647916e-001
 3.4661514237e+000	 6.4141975974e-001	 1.0712255498e+000
 3.5356399256e+000	 3.1898325453e-001	 1.0791497820e+000
 3.5325668907e+000	 3.5138463619e-001	 1.0775040480e+000
 3.5291853654e+000	 3.8386280932e-001	 1.0680154496e+000
 3.5254928013e+000	 4.1641386618e-001	 1.0492716581e+000
 3.5214867062e+000	 4.4903382702e-001	 1.0198565365e+000
 3.5171646466e+000	 4.8171864080e-001	 9.7835655068e-001
 3.5125242492e+000	 5.1446418603e-001	 9.2336742218e-001
 3.5075632037e+000	 5.4726627160e-001	 8.5350101287e-001
 3.5022792644e+000	 5.8012063779e-001	 7.6739243095e-001
 3.4966702524e+000	 6.1302295724e-001	 6.6370734688e-001
 3.4907340579e+000	 6.4596883605e-001	 1.0661748675e+000
 3.5605387983e+000	 3.2122961548e-001	 1.0670496643e+000
 3.5574441224e+000	 3.5385917588e-001	 1.0650986093e+000
 3.5540387835e+000	 3.8656606854e-001	 1.0537182594e+000
 3.5503202154e+000	 4.1934635820e-001	 1.0313261644e+000
 3.5462859084e+000	 4.5219603707e-001	 9.9633478260e-001
 3.5419334117e+000	 4.8511102560e-001	 9.4715814097e-001
 3.5372603355e+000	 5.1808717325e-001	 8.8221874609e-001
 3.5322643530e+000	 5.5112025943e-001	 7.9995473591e-001
 3.5269432028e+000	 5.8420599440e-001	 6.9882726142e-001
 3.5212946908e+000	 6.1734002033e-001	 5.7732808649e-001
 3.5153166921e+000	 6.5051791236e-001	 1.0608819140e+000
 3.5854376710e+000	 3.2347597643e-001	 1.0526981097e+000
 3.5823213540e+000	 3.5633371558e-001	 1.0513189416e+000
 3.5788922016e+000	 3.8926932776e-001	 1.0389360595e+000
 3.5751476295e+000	 4.2227885021e-001	 1.0137949322e+000
 3.5710851106e+000	 4.5535824712e-001	 9.7413462016e-001
 3.5667021768e+000	 4.8850341040e-001	 9.1819468813e-001
 3.5619964217e+000	 5.2171016048e-001	 8.4422237702e-001
 3.5569655023e+000	 5.5497424726e-001	 7.5048002570e-001
 3.5516071413e+000	 5.8829135100e-001	 6.3525273149e-001
 3.5459191292e+000	 6.2165708341e-001	 4.9685623719e-001
 3.5398993263e+000	 6.5506698867e-001	 1.0553025295e+000
 3.6103365437e+000	 3.2572233738e-001	 1.0365375848e+000
 3.6071985856e+000	 3.5880825527e-001	 1.0366878623e+000
 3.6037456196e+000	 3.9197258699e-001	 1.0242716944e+000
 3.5999750436e+000	 4.2521134223e-001	 9.9736046128e-001
 3.5958843127e+000	 4.5852045717e-001	 9.5401778546e-001
 3.5914709419e+000	 4.9189579519e-001	 8.9230669810e-001
 3.5867325080e+000	 5.2533314771e-001	 8.1029707518e-001
 3.5816666517e+000	 5.5882823509e-001	 7.0607333246e-001
 3.5762710798e+000	 5.9237670761e-001	 5.7774236795e-001
 3.5705435676e+000	 6.2597414649e-001	 4.4601818661e-001
 3.5644819605e+000	 6.5961606499e-001	 1.0493840995e+000
 3.6352354164e+000	 3.2796869832e-001	 1.0190111363e+000
 3.6320758172e+000	 3.6128279496e-001	 1.0217278519e+000
 3.6285990377e+000	 3.9467584621e-001	 1.0103267621e+000
 3.6248024577e+000	 4.2814383425e-001	 9.8270310524e-001
 3.6206835149e+000	 4.6168266723e-001	 9.3674297788e-001
 3.6162397070e+000	 4.9528817999e-001	 8.7033075864e-001
 3.6114685943e+000	 5.2895613494e-001	 7.8135681135e-001
 3.6063678010e+000	 5.6268222292e-001	 6.6772545621e-001
 3.6009350183e+000	 5.9646206422e-001	 5.2736319761e-001
 3.5951680060e+000	 6.3029120957e-001	 4.7675264517e-001
 3.5890645947e+000	 6.6416514130e-001	 1.0430658447e+000
 3.6601342892e+000	 3.3021505927e-001	 1.0005623704e+000
 3.6569530489e+000	 3.6375733466e-001	 1.0069610647e+000
 3.6534524558e+000	 3.9737910543e-001	 9.9770165721e-001
 3.6496298718e+000	 4.3107632627e-001	 9.7050114465e-001
 3.6454827170e+000	 4.6484487728e-001	 9.2306596314e-001
 3.6410084722e+000	 4.9868056479e-001	 8.5309967258e-001
 3.6362046805e+000	 5.3257912217e-001	 7.5831092975e-001
 3.6310689503e+000	 5.6653621075e-001	 6.3642173895e-001
 3.6255989568e+000	 6.0054742082e-001	 4.8517596836e-001
 3.6197924444e+000	 6.3460827265e-001	 5.0922684707e-001
 3.6136472289e+000	 6.6871421761e-001	 1.0362790985e+000
 3.6850331619e+000	 3.3246142022e-001	 9.8163543446e-001
 3.6818302805e+000	 3.6623187435e-001	 9.9290934014e-001
 3.6783058738e+000	 4.0008236465e-001	 9.8699561121e-001
 3.6744572859e+000	 4.3400881828e-001	 9.6143085703e-001
 3.6702819192e+000	 4.6800708733e-001	 9.1373967244e-001
 3.6657772373e+000	 5.0207294958e-001	 8.4144258568e-001
 3.6609407668e+000	 5.3620210939e-001	 7.4206430440e-001
 3.6557700996e+000	 5.7039019858e-001	 6.1314224910e-001
 3.6502628952e+000	 6.0463277743e-001	 4.5223536129e-001
 3.6444168828e+000	 6.3892533573e-001	 5.4335257877e-001
 3.6382298631e+000	 6.7326329392e-001	 1.0289475733e+000
 3.7099320346e+000	 3.3470778117e-001	 9.6267499842e-001
 3.7067075121e+000	 3.6870641404e-001	 9.8009421329e-001
 3.7031592919e+000	 4.0278562387e-001	 9.7880673159e-001
 3.6992847000e+000	 4.3694131030e-001	 9.5616658405e-001
 3.6950811213e+000	 4.7116929738e-001	 9.0951429757e-001
 3.6905460024e+000	 5.0546533438e-001	 8.3618510934e-001
 3.6856768530e+000	 5.3982509662e-001	 7.3351748909e-001
 3.6804712489e+000	 5.7424418641e-001	 5.9886195842e-001
 3.6749268337e+000	 6.0871813404e-001	 4.2959019433e-001
 3.6690413212e+000	 6.4324239882e-001	 5.7903500723e-001
 3.6628124973e+000	 6.7781237024e-001	 1.0209876165e+000
 3.7348309073e+000	 3.3695414212e-001	 9.4412623775e-001
 3.7315847437e+000	 3.7118095373e-001	 9.6903692512e-001
 3.7280127100e+000	 4.0548888310e-001	 9.7373203928e-001
 3.7241121140e+000	 4.3987380232e-001	 9.5538079610e-001
 3.7198803235e+000	 4.7433150743e-001	 9.1113738223e-001
 3.7153147675e+000	 5.0885771918e-001	 8.3814943845e-001
 3.7104129393e+000	 5.4344808385e-001	 7.3356686138e-001
 3.7051723983e+000	 5.7809817425e-001	 5.9455091194e-001
 3.6995907722e+000	 6.1280349065e-001	 4.1828361762e-001
 3.6936657595e+000	 6.4755946190e-001	 6.1617290055e-001
 3.6873951316e+000	 6.8236144655e-001	 1.0123084559e+000
 3.4415687894e+000	 6.3687068343e-001	 1.0760693641e+000
 3.4353916189e+000	 6.6939108513e-001	 1.0378126750e+000
 3.4288879258e+000	 7.0194557643e-001	 9.9754944970e-001
 3.4220558462e+000	 7.3452963556e-001	 9.5490400397e-001
 3.4148935921e+000	 7.6713868010e-001	 9.0944532299e-001
 3.4073994536e+000	 7.9976806841e-001	 8.6068445531e-001
 3.3995718009e+000	 8.3241310102e-001	 8.0807195149e-001
 3.3914090857e+000	 8.6506902227e-001	 7.5099535636e-001
 3.3829098440e+000	 8.9773102186e-001	 6.8877676415e-001
 3.3740726970e+000	 9.3039423656e-001	 6.2067044548e-001
 3.3648963537e+000	 9.6305375194e-001	 5.4586055565e-001
 3.4661514237e+000	 6.4141975974e-001	 1.0712255498e+000
 3.4599301304e+000	 6.7417245002e-001	 1.0263813301e+000
 3.4533799824e+000	 7.0695947340e-001	 9.8045773387e-001
 3.4464991022e+000	 7.3977627581e-001	 9.3314725925e-001
 3.4392856892e+000	 7.7261824210e-001	 8.8408604342e-001
 3.4317380212e+000	 8.0548069746e-001	 8.3285112542e-001
 3.4238544566e+000	 8.3835890888e-001	 7.7895775326e-001
 3.4156334363e+000	 8.7124808671e-001	 7.2185674420e-001
 3.4070734857e+000	 9.0414338630e-001	 6.6093190767e-001
 3.3981732162e+000	 9.3703990968e-001	 5.9549754031e-001
 3.3889313276e+000	 9.6993270731e-001	 5.2479600265e-001
 3.4907340579e+000	 6.4596883605e-001	 1.0661748675e+000
 3.4844686420e+000	 6.7895381492e-001	 1.0150676295e+000
 3.4778720390e+000	 7.1197337037e-001	 9.6382401634e-001
 3.4709423583e+000	 7.4502291606e-001	 9.1220515562e-001
 3.4636777863e+000	 7.7809780410e-001	 8.5991475971e-001
 3.4560765887e+000	 8.1119332652e-001	 8.0659625656e-001
 3.4481371123e+000	 8.4430471674e-001	 7.5182996365e-001
 3.4398577869e+000	 8.7742715115e-001	 6.9513031478e-001
 3.4312371274e+000	 9.1055575074e-001	 6.3594314937e-001
 3.4222737355e+000	 9.4368558279e-001	 5.7364307398e-001
 3.4129663016e+000	 9.7681166268e-001	 5.0753090604e-001
 3.5153166921e+000	 6.5051791236e-001	 1.0608819140e+000
 3.5090071536e+000	 6.8373517981e-001	 1.0037982789e+000
 3.5023640956e+000	 7.1698726735e-001	 9.4753749622e-001
 3.4953856143e+000	 7.5026955631e-001	 8.9192979161e-001
 3.4880698834e+000	 7.8357736610e-001	 8.3674689822e-001
 3.4804151562e+000	 8.1690595558e-001	 7.8169905337e-001
 3.4724197680e+000	 8.5025052460e-001	 7.2643203797e-001
 3.4640821375e+000	 8.8360621559e-001	 6.7052426825e-001
 3.4554007692e+000	 9.1696811518e-001	 6.1348394994e-001
 3.4463742548e+000	 9.5033125591e-001	 5.5474630484e-001
 3.4370012755e+000	 9.8369061805e-001	 4.9367088008e-001
 3.5398993263e+000	 6.5506698867e-001	 1.0553025295e+000
 3.5335456651e+000	 6.8851654471e-001	 9.9249184748e-001
 3.5268561522e+000	 7.2200116432e-001	 9.3147985240e-001
 3.5198288704e+000	 7.5551619657e-001	 8.7216635893e-001
 3.5124619805e+000	 7.8905692810e-001	 8.1439158831e-001
 3.5047537237e+000	 8.2261858464e-001	 7.5793302949e-001
 3.4967024237e+000	 8.5619633247e-001	 7.0250234237e-001
 3.4883064882e+000	 8.8978528004e-001	 6.4774231298e-001
 3.4795644109e+000	 9.2338047962e-001	 5.9322387103e-001
 3.4704747740e+000	 9.5697692902e-001	 5.3844317992e-001
 3.4610362495e+000	 9.9056957342e-001	 4.8281881012e-001
 3.5644819605e+000	 6.5961606499e-001	 1.0493840995e+000
 3.5580841767e+000	 6.9329790960e-001	 9.8105904796e-001
 3.5513482089e+000	 7.2701506130e-001	 9.1552550288e-001
 3.5442721264e+000	 7.6076283682e-001	 8.5275338063e-001
 3.5368540775e+000	 7.9453649010e-001	 7.9265187949e-001
 3.5290922913e+000	 8.2833121370e-001	 7.3506620378e-001
 3.5209850795e+000	 8.6214214033e-001	 6.7977432932e-001
 3.5125308388e+000	 8.9596434448e-001	 6.2648382055e-001
 3.5037280527e+000	 9.2979284406e-001	 5.7482870975e-001
 3.4945752933e+000	 9.6362260214e-001	 5.2436644915e-001
 3.4850712234e+000	 9.9744852879e-001	 4.7457494674e-001
 3.5890645947e+000	 6.6416514130e-001	 1.0430658447e+000
 3.5826226883e+000	 6.9807927450e-001	 9.6940300586e-001
 3.5758402655e+000	 7.3202895827e-001	 8.9954185343e-001
 3.5687153825e+000	 7.6600947708e-001	 8.3352293948e-001
 3.5612461746e+000	 8.0001605210e-001	 7.7132494962e-001
 3.5534308588e+000	 8.3404384276e-001	 7.1286128850e-001
 3.5452677352e+000	 8.6808794820e-001	 6.5797670592e-001
 3.5367551894e+000	 9.0214340892e-001	 6.0644397417e-001
 3.5278916944e+000	 9.3620520850e-001	 5.5796062755e-001
 3.5186758126e+000	 9.7026827526e-001	 5.1214577479e-001
 3.5091061974e+000	 1.0043274842e+000	 4.6853699593e-001
 3.6136472289e+000	 6.6871421761e-001	 1.0362790985e+000
 3.6071611998e+000	 7.0286063939e-001	 9.5741951755e-001
 3.6003323221e+000	 7.3704285525e-001	 8.8338953609e-001
 3.5931586385e+000	 7.7125611733e-001	 8.1430089701e-001
 3.5856382717e+000	 8.0549561411e-001	 7.5020230463e-001
 3.5777694263e+000	 8.3975647182e-001	 6.9107586983e-001
 3.5695503909e+000	 8.7403375606e-001	 6.3683359525e-001
 3.5609795400e+000	 9.0832247337e-001	 5.8731391124e-001
 3.5520553362e+000	 9.4261757294e-001	 5.4227827391e-001
 3.5427763318e+000	 9.7691394838e-001	 5.0140783651e-001
 3.5331411713e+000	 1.0112064395e+000	 4.6430020566e-001
 3.6382298631e+000	 6.7326329392e-001	 1.0289475733e+000
 3.6316997114e+000	 7.0764200429e-001	 9.4499729783e-001
 3.6248243787e+000	 7.4205675223e-001	 8.6692263804e-001
 3.6176018945e+000	 7.7650275759e-001	 7.9490710373e-001
 3.6100303688e+000	 8.1097517611e-001	 7.2906997013e-001
 3.6021079939e+000	 8.4546910088e-001	 6.6946258103e-001
 3.5938330466e+000	 8.7997956393e-001	 6.1606469131e-001
 3.5852038906e+000	 9.1450153782e-001	 5.6878085993e-001
 3.5762189779e+000	 9.4902993738e-001	 5.2743690496e-001
 3.5668768511e+000	 9.8355962149e-001	 4.9177643214e-001
 3.5571761453e+000	 1.0180853949e+000	 4.6145744895e-001
 3.6628124973e+000	 6.7781237024e-001	 1.0209876165e+000
 3.6562382230e+000	 7.1242336919e-001	 9.3201821758e-001
 3.6493164353e+000	 7.4707064920e-001	 8.4998892117e-001
 3.6420451506e+000	 7.8174939785e-001	 7.7515560078e-001
 3.6344224659e+000	 8.1645473811e-001	 7.0770867534e-001
 3.6264465614e+000	 8.5118172995e-001	 6.4776926864e-001
 3.6181157023e+000	 8.8592537179e-001	 5.9538540757e-001
 3.6094282412e+000	 9.2068060226e-001	 5.5052827047e-001
 3.6003826196e+000	 9.5544230183e-001	 5.1308849739e-001
 3.5909773704e+000	 9.9020529461e-001	 4.8287257435e-001
 3.5812111192e+000	 1.0249643503e+000	 4.5959930350e-001
 3.6873951316e+000	 6.8236144655e-001	 1.0123084559e+000
 3.6807767345e+000	 7.1720473409e-001	 9.1835753188e-001
 3.6738084919e+000	 7.5208454618e-001	 8.3243003298e-001
 3.6664884066e+000	 7.8699603810e-001	 7.5485481364e-001
 3.6588145630e+000	 8.2193430012e-001	 6.8589402960e-001
 3.6507851289e+000	 8.5689435901e-001	 6.2573915203e-001
 3.6423983581e+000	 8.9187117966e-001	 5.7450701970e-001
 3.6336525918e+000	 9.2685966671e-001	 5.3223594097e-001
 3.6245462614e+000	 9.6185466627e-001	 4.9888185773e-001
 3.6150778896e+000	 9.9685096773e-001	 4.7431458352e-001
 3.6052460932e+000	 1.0318433056e+000	 4.5831412829e-001
 3.3648963537e+000	 9.6305375194e-001	 5.4586055565e-001
 3.3553796121e+000	 9.9570460419e-001	 5.5605371428e-001
 3.3455213614e+000	 1.0283417820e+000	 5.5939286451e-001
 3.3353205834e+000	 1.0609602284e+000	 5.5449224958e-001
 3.3247763542e+000	 1.0935548431e+000	 5.3988157843e-001
 3.3138878460e+000	 1.1261204840e+000	 5.1400453375e-001
 3.3026543284e+000	 1.1586519699e+000	 4.7521742993e-001
 3.2910751701e+000	 1.1911440823e+000	 4.2178803011e-001
 3.2791498404e+000	 1.2235915677e+000	 3.5189453108e-001
 3.2668779101e+000	 1.2559891402e+000	 2.7021456666e-001
 3.2542590537e+000	 1.2883314835e+000	 2.0561824251e-001
 3.3889313276e+000	 9.6993270731e-001	 5.2479600265e-001
 3.3793466093e+000	 1.0028167799e+000	 5.3144682635e-001
 3.3694179425e+000	 1.0356870804e+000	 5.3144607631e-001
 3.3591443018e+000	 1.0685385158e+000	 5.2345724331e-001
 3.3485247567e+000	 1.1013659491e+000	 5.0605811535e-001
 3.3375584734e+000	 1.1341642017e+000	 4.7773918217e-001
 3.3262447164e+000	 1.1669280554e+000	 4.3690219094e-001
 3.3145828499e+000	 1.1996522543e+000	 3.8185886237e-001
 3.3025723392e+000	 1.2323315075e+000	 3.1082977668e-001
 3.2902127523e+000	 1.2649604912e+000	 2.3413238597e-001
 3.2775037612e+000	 1.2975338512e+000	 1.6138803990e-001
 3.4129663016e+000	 9.7681166268e-001	 5.0753090604e-001
 3.4033136065e+000	 1.0099289557e+000	 5.1131813833e-001
 3.3933145237e+000	 1.0430323789e+000	 5.0869438069e-001
 3.3829680203e+000	 1.0761168031e+000	 4.9837257177e-001
 3.3722731592e+000	 1.1091770551e+000	 4.7897873040e-001
 3.3612291009e+000	 1.1422079195e+000	 4.4905025505e-001
 3.3498351045e+000	 1.1752041409e+000	 4.0703437578e-001
 3.3380905297e+000	 1.2081604263e+000	 3.5128676828e-001
 3.3259948381e+000	 1.2410714472e+000	 2.8007033944e-001
 3.3135475946e+000	 1.2739318422e+000	 2.0480422467e-001
 3.3007484688e+000	 1.3067362190e+000	 1.2517206835e-001
 3.4370012755e+000	 9.8369061805e-001	 4.9367088008e-001
 3.4272806038e+000	 1.0170411314e+000	 4.9523644784e-001
 3.4172111048e+000	 1.0503776773e+000	 4.9066995820e-001
 3.4067917387e+000	 1.0836950905e+000	 4.7873401725e-001
 3.3960215617e+000	 1.1169881611e+000	 4.5810304542e-001
 3.3848997284e+000	 1.1502516372e+000	 4.2736147043e-001
 3.3734254925e+000	 1.1834802264e+000	 3.8500207419e-001
 3.3615982095e+000	 1.2166685983e+000	 3.2942450326e-001
 3.3494173369e+000	 1.2498113870e+000	 2.5893395280e-001
 3.3368824368e+000	 1.2829031932e+000	 1.8217172385e-001
 3.3239931763e+000	 1.3159385867e+000	 9.6885112824e-002
 3.4610362495e+000	 9.9056957342e-001	 4.8281881012e-001
 3.4512476010e+000	 1.0241533072e+000	 4.8276850460e-001
 3.4411076860e+000	 1.0577229757e+000	 4.7690362781e-001
 3.4306154572e+000	 1.0912733778e+000	 4.6403669168e-001
 3.4197699643e+000	 1.1247992672e+000	 4.4289070777e-001
 3.4085703558e+000	 1.1582953550e+000	 4.1209727226e-001
 3.3970158806e+000	 1.1917563119e+000	 3.7019480627e-001
 3.3851058893e+000	 1.2251767703e+000	 3.1562696140e-001
 3.3728398358e+000	 1.2585513268e+000	 2.4673427463e-001
 3.3602172790e+000	 1.2918745442e+000	 1.6618009042e-001
 3.3472378838e+000	 1.3251409544e+000	 7.6446242291e-002
 3.4850712234e+000	 9.9744852879e-001	 4.7457494674e-001
 3.4752145982e+000	 1.0312654829e+000	 4.7347908110e-001
 3.4650042671e+000	 1.0650682742e+000	 4.6692489381e-001
 3.4544391756e+000	 1.0988516651e+000	 4.5377505969e-001
 3.4435183668e+000	 1.1326103732e+000	 4.3280138945e-001
 3.4322409833e+000	 1.1663390727e+000	 4.0268280531e-001
 3.4206062687e+000	 1.2000323974e+000	 3.6200347313e-001
 3.4086135690e+000	 1.2336849423e+000	 3.0925110180e-001
 3.3962623346e+000	 1.2672912665e+000	 2.3996917453e-001
 3.3835521212e+000	 1.3008458952e+000	 1.5677797416e-001
 3.3704825914e+000	 1.3343433222e+000	 6.3778661981e-002
 3.5091061974e+000	 1.0043274842e+000	 4.6853699593e-001
 3.4991815955e+000	 1.0383776586e+000	 4.6693104027e-001
 3.4889008483e+000	 1.0724135726e+000	 4.6026199086e-001
 3.4782628941e+000	 1.1064299525e+000	 4.4744296079e-001
 3.4672667693e+000	 1.1404214792e+000	 4.2729478628e-001
 3.4559116108e+000	 1.1743827904e+000	 3.9854389119e-001
 3.4441966567e+000	 1.2083084829e+000	 3.5982030966e-001
 3.4321212488e+000	 1.2421931143e+000	 3.0965587776e-001
 3.4196848335e+000	 1.2760312063e+000	 2.3857973817e-001
 3.4068869634e+000	 1.3098172462e+000	 1.5391734979e-001
 3.3937272989e+000	 1.3435456899e+000	 5.8809571735e-002
 3.5331411713e+000	 1.0112064395e+000	 4.6430020566e-001
 3.5231485927e+000	 1.0454898344e+000	 4.6268540047e-001
 3.5127974294e+000	 1.0797588711e+000	 4.5644192715e-001
 3.5020866125e+000	 1.1140082398e+000	 4.4453363066e-001
 3.4910151719e+000	 1.1482325852e+000	 4.2583061705e-001
 3.4795822382e+000	 1.1824265082e+000	 3.9910700532e-001
 3.4677870448e+000	 1.2165845684e+000	 3.6303883907e-001
 3.4556289286e+000	 1.2507012864e+000	 3.1590083269e-001
 3.4431073324e+000	 1.2847711461e+000	 2.4254503965e-001
 3.4302218056e+000	 1.3187885972e+000	 1.5755340391e-001
 3.4169720064e+000	 1.3527480577e+000	 6.1470030134e-002
 3.5571761453e+000	 1.0180853949e+000	 4.6145744895e-001
 3.5471155899e+000	 1.0526020101e+000	 4.6030139777e-001
 3.5366940106e+000	 1.0871041695e+000	 4.5499052585e-001
 3.5259103310e+000	 1.1215865272e+000	 4.4453972154e-001
 3.5147635744e+000	 1.1560436912e+000	 4.2786862278e-001
 3.5032528657e+000	 1.1904702259e+000	 4.0379925485e-001
 3.4913774329e+000	 1.2248606539e+000	 3.7105382947e-001
 3.4791366084e+000	 1.2592094584e+000	 3.2370052759e-001
 3.4665298312e+000	 1.2935110859e+000	 2.5184663399e-001
 3.4535566479e+000	 1.3277599482e+000	 1.6764442643e-001
 3.4402167139e+000	 1.3619504254e+000	 7.1694824134e-002
 3.5812111192e+000	 1.0249643503e+000	 4.5959930350e-001
 3.5710825871e+000	 1.0597141859e+000	 4.5933654578e-001
 3.5605905918e+000	 1.0944494679e+000	 4.5543246490e-001
 3.5497340494e+000	 1.1291648145e+000	 4.4695332178e-001
 3.5385119769e+000	 1.1638547973e+000	 4.3286856595e-001
 3.5269234932e+000	 1.1985139437e+000	 4.1204835748e-001
 3.5149678209e+000	 1.2331367394e+000	 3.8326125201e-001
 3.5026442882e+000	 1.2677176304e+000	 3.3571521366e-001
 3.4899523301e+000	 1.3022510256e+000	 2.6646847385e-001
 3.4768914901e+000	 1.3367312992e+000	 1.8415170653e-001
 3.4634614215e+000	 1.3711527931e+000	 8.9422343959e-002
 3.6052460932e+000	 1.0318433056e+000	 4.5831412829e-001
 3.5950495844e+000	 1.0668263616e+000	 4.5934669306e-001
 3.5844871729e+000	 1.1017947664e+000	 4.5729131514e-001
 3.5735577679e+000	 1.1367431019e+000	 4.5126597468e-001
 3.5622603795e+000	 1.1716659033e+000	 4.4029022979e-001
 3.5505941207e+000	 1.2065576614e+000	 4.2328262106e-001
 3.5385582090e+000	 1.2414128249e+000	 3.9905824083e-001
 3.5261519680e+000	 1.2762258024e+000	 3.5195300032e-001
 3.5133748290e+000	 1.3109909654e+000	 2.8639682964e-001
 3.5002263323e+000	 1.3457026502e+000	 2.0703943257e-001
 3.4867061290e+000	 1.3803551609e+000	 1.1459446298e-001
 3.2542590537e+000	 1.2883314835e+000	 2.0561824251e-001
 3.2412930498e+000	 1.3206132534e+000	 1.9722163662e-001
 3.2279797829e+000	 1.3528290804e+000	 1.8127502636e-001
 3.2143192443e+000	 1.3849735723e+000	 1.5853789866e-001
 3.2003115330e+000	 1.4170413162e+000	 1.2981666286e-001
 3.1859568571e+000	 1.4490268819e+000	 9.5964063143e-002
 3.1712555346e+000	 1.4809248240e+000	 5.7878480824e-002
 3.1562079939e+000	 1.5127296849e+000	 1.6503125937e-002
 3.1408147750e+000	 1.5444359972e+000	-2.7174882180e-002
 3.1250765300e+000	 1.5760382868e+000	-7.2125545255e-002
 3.1089940239e+000	 1.6075310757e+000	 1.2256655817e-002
 3.2775037612e+000	 1.2975338512e+000	 1.6138803990e-001
 3.2644451431e+000	 1.3300462052e+000	 1.5642714257e-001
 3.2510367814e+000	 1.3624921453e+000	 1.4526391593e-001
 3.2372786675e+000	 1.3948662406e+000	 1.2863091353e-001
 3.2231709011e+000	 1.4271630399e+000	 1.0730672333e-001
 3.2087136918e+000	 1.4593770739e+000	 8.2115389082e-002
 3.1939073598e+000	 1.4915028585e+000	 5.3925721982e-002
 3.1787523367e+000	 1.5235348969e+000	 2.3650501967e-002
 3.1632491662e+000	 1.5554676828e+000	-7.7544315844e-003
 3.1473985053e+000	 1.5872957031e+000	-3.9291199766e-002
 3.1312011241e+000	 1.6190134405e+000	-6.9921014327e-002
 3.3007484688e+000	 1.3067362190e+000	 1.2517206835e-001
 3.2875972363e+000	 1.3394791570e+000	 1.2247652584e-001
 3.2740937798e+000	 1.3721552102e+000	 1.1488717034e-001
 3.2602380906e+000	 1.4047589090e+000	 1.0311021240e-001
 3.2460302692e+000	 1.4372847636e+000	 8.7897049674e-002
 3.2314705265e+000	 1.4697272659e+000	 7.0043697154e-002
 3.2165591851e+000	 1.5020808929e+000	 5.0390107850e-002
 3.2012966795e+000	 1.5343401089e+000	 2.9819383503e-002
 3.1856835575e+000	 1.5664993685e+000	 9.2568749536e-003
 3.1697204805e+000	 1.5985531195e+000	-1.0330827791e-002
 3.1534082243e+000	 1.6304958054e+000	-2.7937015466e-002
 3.3239931763e+000	 1.3159385867e+000	 9.6885112824e-002
 3.3107493295e+000	 1.3489121088e+000	 9.5308294486e-002
 3.2971507783e+000	 1.3818182750e+000	 9.0107435902e-002
 3.2831975138e+000	 1.4146515774e+000	 8.1962988358e-002
 3.2688896373e+000	 1.4474064873e+000	 7.1599783600e-002
 3.2542273612e+000	 1.4800774579e+000	 5.9786472535e-002
 3.2392110103e+000	 1.5126589274e+000	 4.7334854750e-002
 3.2238410223e+000	 1.5451453210e+000	 3.5099098250e-002
 3.2081179487e+000	 1.5775310542e+000	 2.3974849114e-002
 3.1920424557e+000	 1.6098105358e+000	 1.4898231059e-002
 3.1756153244e+000	 1.6419781702e+000	 8.8447352656e-003
 3.3472378838e+000	 1.3251409544e+000	 7.6446242291e-002
 3.3339014227e+000	 1.3583450606e+000	 7.4864549809e-002
 3.3202077768e+000	 1.3914813399e+000	 7.0890245822e-002
 3.3061569370e+000	 1.4245442458e+000	 6.5178599901e-002
 3.2917490054e+000	 1.4575282109e+000	 5.8428495711e-002
 3.2769841959e+000	 1.4904276499e+000	 5.1381878052e-002
 3.2618628356e+000	 1.5232369618e+000	 4.4823090894e-002
 3.2463853651e+000	 1.5559505330e+000	 3.9578105831e-002
 3.2305523400e+000	 1.5885627399e+000	 3.6513640590e-002
 3.2143644309e+000	 1.6210679521e+000	 3.6536167646e-002
 3.1978224246e+000	 1.6534605350e+000	 4.0590813224e-002
 3.3704825914e+000	 1.3343433222e+000	 6.3778661981e-002
 3.3570535159e+000	 1.3677780124e+000	 6.1090862376e-002
 3.3432647752e+000	 1.4011444047e+000	 5.7203920707e-002
 3.3291163602e+000	 1.4344369141e+000	 5.2748496280e-002
 3.3146083735e+000	 1.4676499346e+000	 4.8398136255e-002
 3.2997410306e+000	 1.5007778420e+000	 4.4868730809e-002
 3.2845146608e+000	 1.5338149963e+000	 4.2917859428e-002
 3.2689297079e+000	 1.5667557450e+000	 4.3344027720e-002
 3.2529867312e+000	 1.5995944256e+000	 4.6985794400e-002
 3.2366864061e+000	 1.6323253685e+000	 5.4720788459e-002
 3.2200295248e+000	 1.6649428998e+000	 6.7464616826e-002
 3.3937272989e+000	 1.3435456899e+000	 5.8809571735e-002
 3.3802056091e+000	 1.3772109643e+000	 5.3936153241e-002
 3.3663217737e+000	 1.4108074696e+000	 4.9019473081e-002
 3.3520757833e+000	 1.4443295825e+000	 4.4666145900e-002
 3.3374677416e+000	 1.4777716583e+000	 4.1524987870e-002
 3.3224978653e+000	 1.5111280340e+000	 4.0286479786e-002
 3.3071664861e+000	 1.5443930308e+000	 4.1682121338e-002
 3.2914740508e+000	 1.5775609571e+000	 4.6483675952e-002
 3.2754211225e+000	 1.6106261113e+000	 5.5502305841e-002
 3.2590083813e+000	 1.6435827848e+000	 6.9587597271e-002
 3.2422366249e+000	 1.6764252647e+000	 8.9626476346e-002
 3.4169720064e+000	 1.3527480577e+000	 6.1470030134e-002
 3.4033577023e+000	 1.3866439161e+000	 5.3352579974e-002
 3.3893787721e+000	 1.4204705345e+000	 4.6310515833e-002
 3.3750352065e+000	 1.4542222509e+000	 4.0926967639e-002
 3.3603271097e+000	 1.4878933820e+000	 3.7826620266e-002
 3.3452547000e+000	 1.5214782260e+000	 3.7675184343e-002
 3.3298183113e+000	 1.5549710652e+000	 4.1178758250e-002
 3.3140183936e+000	 1.5883661691e+000	 4.9083080648e-002
 3.2978555137e+000	 1.6216577970e+000	 6.2172673198e-002
 3.2813303565e+000	 1.6548402011e+000	 8.1269873462e-002
 3.2644437251e+000	 1.6879076295e+000	 1.0723375828e-001
 3.4402167139e+000	 1.3619504254e+000	 7.1694824134e-002
 3.4265097956e+000	 1.3960768679e+000	 5.9295427324e-002
 3.4124357706e+000	 1.4301335993e+000	 4.9053174362e-002
 3.3979946297e+000	 1.4641149192e+000	 4.1528264957e-002
 3.3831864778e+000	 1.4980151057e+000	 3.7321846742e-002
 3.3680115347e+000	 1.5318284180e+000	 3.7075493601e-002
 3.3524701366e+000	 1.5655490997e+000	 4.1470575110e-002
 3.3365627364e+000	 1.5991713811e+000	 5.1227516435e-002
 3.3202899050e+000	 1.6326894827e+000	 6.7104948323e-002
 3.3036523318e+000	 1.6660976175e+000	 8.9898747170e-002
 3.2866508253e+000	 1.6993899943e+000	 1.2044096546e-001
 3.4634614215e+000	 1.3711527931e+000	 8.9422343959e-002
 3.4496618888e+000	 1.4055098197e+000	 7.1723002277e-002
 3.4354927690e+000	 1.4397966642e+000	 5.7226002264e-002
 3.4209540529e+000	 1.4740075876e+000	 4.6469162650e-002
 3.4060458459e+000	 1.5081368294e+000	 4.0030682458e-002
 3.3907683694e+000	 1.5421786100e+000	 3.8528626651e-002
 3.3751219618e+000	 1.5761271341e+000	 4.2620302756e-002
 3.3591070792e+000	 1.6099765932e+000	 5.3001527798e-002
 3.3427242962e+000	 1.6437211684e+000	 7.0405785169e-002
 3.3259743070e+000	 1.6773550338e+000	 9.5603271409e-002
 3.3088579254e+000	 1.7108723591e+000	 1.2939983318e-001
 3.4867061290e+000	 1.3803551609e+000	 1.1459446298e-001
 3.4728139820e+000	 1.4149427715e+000	 9.0596533316e-002
 3.4585497675e+000	 1.4494597290e+000	 7.0809900397e-002
 3.4439134760e+000	 1.4839002560e+000	 5.5750546144e-002
 3.4289052139e+000	 1.5182585531e+000	 4.5974304370e-002
 3.4135252041e+000	 1.5525288020e+000	 4.2076353554e-002
 3.3977737871e+000	 1.5867051686e+000	 4.4690600387e-002
 3.3816514220e+000	 1.6207818052e+000	 5.4488953415e-002
 3.3651586875e+000	 1.6547528541e+000	 7.2180486391e-002
 3.3482962822e+000	 1.6886124501e+000	 9.8510491309e-002
 3.3310650256e+000	 1.7223547240e+000	 1.3425942140e-001
 3.1089940239e+000	 1.6075310757e+000	 1.2256655817e-002
 3.0925681348e+000	 1.6389088846e+000	-1.3475078552e-002
 3.0757998544e+000	 1.6701662359e+000	-3.5935552855e-002
 3.0586902889e+000	 1.7012976567e+000	-5.7505079062e-002
 3.0412406585e+000	 1.7322976814e+000	-8.0665550168e-002
 3.0234522981e+000	 1.7631608551e+000	-1.0799650677e-001
 3.0053266573e+000	 1.7938817362e+000	-1.4217091696e-001
 2.9868653000e+000	 1.8244548993e+000	-1.8595067586e-001
 2.9680699052e+000	 1.8548749386e+000	-2.4218183214e-001
 2.9489422659e+000	 1.8851364706e+000	-2.8671037230e-001
 2.9294842893e+000	 1.9152341368e+000	-2.8976562722e-001
 3.1312011241e+000	 1.6190134405e+000	-6.9921014327e-002
 3.1146579071e+000	 1.6506153766e+000	-1.4037982293e-001
 3.0977698534e+000	 1.6820959948e+000	-1.5592866998e-001
 3.0805380767e+000	 1.7134497828e+000	-1.6964754903e-001
 3.0629638061e+000	 1.7446712363e+000	-1.8409090259e-001
 3.0450483860e+000	 1.7757548612e+000	-2.0191374183e-001
 3.0267932762e+000	 1.8066951771e+000	-2.2586732187e-001
 3.0082000522e+000	 1.8374867200e+000	-2.5879452953e-001
 2.9892704045e+000	 1.8681240453e+000	-3.0362499106e-001
 2.9700061392e+000	 1.8986017311e+000	-2.9891715107e-001
 2.9504091771e+000	 1.9289143807e+000	-2.8610674976e-001
 3.1534082243e+000	 1.6304958054e+000	-2.7937015466e-002
 3.1367476795e+000	 1.6623218687e+000	-1.7460351690e-001
 3.1197398523e+000	 1.6940257536e+000	-2.8404912930e-001
 3.1023858645e+000	 1.7256019089e+000	-2.8960345662e-001
 3.0846869536e+000	 1.7570447912e+000	-2.9498316707e-001
 3.0666444738e+000	 1.7883488673e+000	-3.0292003684e-001
 3.0482598952e+000	 1.8195086181e+000	-3.1624495875e-001
 3.0295348043e+000	 1.8505185407e+000	-3.3788321655e-001
 3.0104709038e+000	 1.8813731520e+000	-3.5364659644e-001
 2.9910700125e+000	 1.9120669916e+000	-3.1477815206e-001
 2.9713340648e+000	 1.9425946245e+000	-2.8603876688e-001
 3.1756153244e+000	 1.6419781702e+000	 8.8447352656e-003
 3.1588374519e+000	 1.6740283607e+000	-1.2586669616e-001
 3.1417098513e+000	 1.7059555124e+000	-2.7064827734e-001
 3.1242336522e+000	 1.7377540350e+000	-4.1738849953e-001
 3.1064101012e+000	 1.7694183460e+000	-4.1334908054e-001
 3.0882405617e+000	 1.8009428734e+000	-4.1101288851e-001
 3.0697265142e+000	 1.8323220591e+000	-4.1329181707e-001
 3.0508695565e+000	 1.8635503614e+000	-4.2319496498e-001
 3.0316714032e+000	 1.8946222587e+000	-3.8928136287e-001
 3.0121338859e+000	 1.9255322521e+000	-3.3420928335e-001
 2.9922589526e+000	 1.9562748683e+000	-2.8947754917e-001
 3.1978224246e+000	 1.6534605350e+000	 4.0590813224e-002
 3.1809272243e+000	 1.6857348527e+000	-8.2293722714e-002
 3.1636798503e+000	 1.7178852712e+000	-2.1576262117e-001
 3.1460814400e+000	 1.7499061612e+000	-3.5870316178e-001
 3.1281332488e+000	 1.7817919009e+000	-5.0995361835e-001
 3.1098366495e+000	 1.8135368796e+000	-5.2619314326e-001
 3.0911931332e+000	 1.8451355001e+000	-5.1699924403e-001
 3.0722043086e+000	 1.8765821821e+000	-5.1021597008e-001
 3.0528719025e+000	 1.9078713654e+000	-4.2846538145e-001
 3.0331977592e+000	 1.9389975126e+000	-3.5712982706e-001
 3.0131838404e+000	 1.9699551122e+000	-2.9634234404e-001
 3.2200295248e+000	 1.6649428998e+000	 6.7464616826e-002
 3.2030169967e+000	 1.6974413448e+000	-4.3723175082e-002
 3.1856498492e+000	 1.7298150301e+000	-1.6601757510e-001
 3.1679292278e+000	 1.7620582873e+000	-2.9828365767e-001
 3.1498563963e+000	 1.7941654558e+000	-4.3933624478e-001
 3.1314327373e+000	 1.8261308857e+000	-5.8794148363e-001
 3.1126597521e+000	 1.8579489410e+000	-6.2736182875e-001
 3.0935390607e+000	 1.8896140028e+000	-5.6939259006e-001
 3.0740724018e+000	 1.9211204721e+000	-4.7112124412e-001
 3.0542616325e+000	 1.9524627731e+000	-3.8346232295e-001
 3.0341087282e+000	 1.9836353560e+000	-3.0655565923e-001
 3.2422366249e+000	 1.6764252647e+000	 8.9626476346e-002
 3.2251067691e+000	 1.7091478368e+000	-9.9967133163e-003
 3.2076198482e+000	 1.7417447889e+000	-1.2125694760e-001
 3.1897770156e+000	 1.7742104134e+000	-2.4299666272e-001
 3.1715795439e+000	 1.8065390106e+000	-3.7400677794e-001
 3.1530288252e+000	 1.8387248918e+000	-5.1302830456e-001
 3.1341263711e+000	 1.8707623820e+000	-6.5875408120e-001
 3.1148738129e+000	 1.9026458236e+000	-6.3202317031e-001
 3.0952729011e+000	 1.9343695788e+000	-5.1717468508e-001
 3.0753255058e+000	 1.9659280336e+000	-4.1313245688e-001
 3.0550336159e+000	 1.9973155998e+000	-3.2004315122e-001
 3.2644437251e+000	 1.6879076295e+000	 1.0723375828e-001
 3.2471965415e+000	 1.7208543288e+000	 1.9041025796e-002
 3.2295898471e+000	 1.7536745477e+000	-8.1327535708e-002
 3.2116248033e+000	 1.7863625395e+000	-1.9269128808e-001
 3.1933026914e+000	 1.8189125655e+000	-3.1381679369e-001
 3.1746249130e+000	 1.8513188979e+000	-4.4341945625e-001
 3.1555929901e+000	 1.8835758230e+000	-5.5260062397e-001
 3.1362085650e+000	 1.9156776443e+000	-5.9410766637e-001
 3.1164734004e+000	 1.9476186855e+000	-5.6655447391e-001
 3.0963893791e+000	 1.9793932941e+000	-4.4606895379e-001
 3.0759585037e+000	 2.0109958437e+000	-3.3673351805e-001
 3.2866508253e+000	 1.6993899943e+000	 1.2044096546e-001
 3.2692863139e+000	 1.7325608209e+000	 4.3542529303e-002
 3.2515598461e+000	 1.7656043065e+000	-4.6079024035e-002
 3.2334725911e+000	 1.7985146656e+000	-1.4721954281e-001
 3.2150258390e+000	 1.8312861203e+000	-2.5862077502e-001
 3.1962210009e+000	 1.8639129040e+000	-3.7897204167e-001
 3.1770596091e+000	 1.8963892639e+000	-4.3586727603e-001
 3.1575433171e+000	 1.9287094650e+000	-4.6522840603e-001
 3.1376738998e+000	 1.9608677923e+000	-5.0349907210e-001
 3.1174532525e+000	 1.9928585546e+000	-4.8220347504e-001
 3.0968833915e+000	 2.0246760875e+000	-3.5655839663e-001
 3.3088579254e+000	 1.7108723591e+000	 1.2939983318e-001
 3.2913760863e+000	 1.7442673129e+000	 6.3657504603e-002
 3.2735298451e+000	 1.7775340654e+000	-1.5363887899e-002
 3.2553203789e+000	 1.8106667917e+000	-1.0643623666e-001
 3.2367489865e+000	 1.8436596752e+000	-2.0827601455e-001
 3.2178170887e+000	 1.8765069101e+000	-3.1433428458e-001
 3.1985262280e+000	 1.9092027049e+000	-3.2182765668e-001
 3.1788780693e+000	 1.9417412857e+000	-3.3926780389e-001
 3.1588743991e+000	 1.9741168990e+000	-3.6578027605e-001
 3.1385171258e+000	 2.0063238151e+000	-4.0047505593e-001
 3.1178082793e+000	 2.0383563313e+000	-3.7945226409e-001
 3.3310650256e+000	 1.7223547240e+000	 1.3425942140e-001
 3.3134658586e+000	 1.7559738049e+000	 7.9532972099e-002
 3.2954998440e+000	 1.7894638242e+000	 1.0962699718e-002
 3.2771681667e+000	 1.8228189179e+000	-7.0198886681e-002
 3.2584721341e+000	 1.8560332301e+000	-1.6264252079e-001
 3.2394131765e+000	 1.8891009162e+000	-2.1500133776e-001
 3.2199928470e+000	 1.9220161459e+000	-2.1062241133e-001
 3.2002128214e+000	 1.9547731064e+000	-2.1637109395e-001
 3.1800748984e+000	 1.9873660057e+000	-2.3134879890e-001
 3.1595809991e+000	 2.0197890756e+000	-2.5464122379e-001
 3.1387331671e+000	 2.0520365752e+000	-2.8532046803e-001
 2.9294842893e+000	 1.9152341368e+000	-2.8976562722e-001
 2.9096979964e+000	 1.9451626075e+000	-3.5299465778e-001
 2.8895855216e+000	 1.9749165840e+000	-4.1127825073e-001
 2.8691491118e+000	 2.0044908018e+000	-4.6515054534e-001
 2.8483911262e+000	 2.0338800339e+000	-5.1515438932e-001
 2.8273140354e+000	 2.0630790933e+000	-5.6184076597e-001
 2.8059204205e+000	 2.0920828363e+000	-6.0576820111e-001
 2.7842129721e+000	 2.1208861652e+000	-6.4750215077e-001
 2.7621944897e+000	 2.1494840313e+000	-6.8761437041e-001
 2.7398678801e+000	 2.1778714378e+000	-7.2668226692e-001
 2.7172361565e+000	 2.2060434424e+000	-7.6528823421e-001
 2.9504091771e+000	 1.9289143807e+000	-2.8610674976e-001
 2.9304815535e+000	 1.9590566262e+000	-3.4491584669e-001
 2.9102254181e+000	 1.9890231310e+000	-4.0023683586e-001
 2.8896430340e+000	 2.0188085932e+000	-4.5258305457e-001
 2.8687367771e+000	 2.0484077484e+000	-5.0247519851e-001
 2.8475091357e+000	 2.0778153725e+000	-5.5044076367e-001
 2.8259627092e+000	 2.1070262851e+000	-5.9701346980e-001
 2.8041002076e+000	 2.1360353521e+000	-6.4273266630e-001
 2.7819244504e+000	 2.1648374887e+000	-6.8814272148e-001
 2.7594383650e+000	 2.1934276623e+000	-7.3379239606e-001
 2.7366449862e+000	 2.2218008955e+000	-7.8023420209e-001
 2.9713340648e+000	 1.9425946245e+000	-2.8603876688e-001
 2.9512651106e+000	 1.9729506448e+000	-3.3966087127e-001
 2.9308653147e+000	 2.0031296780e+000	-3.9123074936e-001
 2.9101369562e+000	 2.0331263847e+000	-4.4124127416e-001
 2.8890824280e+000	 2.0629354629e+000	-4.9019134366e-001
 2.8677042359e+000	 2.0925516518e+000	-5.3858533732e-001
 2.8460049979e+000	 2.1219697340e+000	-5.8693255580e-001
 2.8239874432e+000	 2.1511845390e+000	-6.3574664478e-001
 2.8016544110e+000	 2.1801909460e+000	-6.8554500382e-001
 2.7790088499e+000	 2.2089838869e+000	-7.3684818123e-001
 2.7560538159e+000	 2.2375583487e+000	-7.9017925587e-001
 2.9922589526e+000	 1.9562748683e+000	-2.8947754917e-001
 2.9720486678e+000	 1.9868446634e+000	-3.3716027646e-001
 2.9515052113e+000	 2.0172362251e+000	-3.8420560992e-001
 2.9306308784e+000	 2.0474441761e+000	-4.3108629009e-001
 2.9094280789e+000	 2.0774631775e+000	-4.7827976555e-001
 2.8878993362e+000	 2.1072879310e+000	-5.2626766371e-001
 2.8660472866e+000	 2.1369131828e+000	-5.7553524648e-001
 2.8438746787e+000	 2.1663337259e+000	-6.2657085183e-001
 2.8213843716e+000	 2.1955444034e+000	-6.7986532197e-001
 2.7985793347e+000	 2.2245401114e+000	-7.3591141918e-001
 2.7754626456e+000	 2.2533158019e+000	-7.9520323019e-001
 3.0131838404e+000	 1.9699551122e+000	-2.9634234404e-001
 2.9928322249e+000	 2.0007386820e+000	-3.3734757744e-001
 2.9721451079e+000	 2.0313427721e+000	-3.7910958810e-001
 2.9511248007e+000	 2.0617619676e+000	-4.2208131030e-001
 2.9297737298e+000	 2.0919908920e+000	-4.6671908558e-001
 2.9080944364e+000	 2.1220242103e+000	-5.1348214755e-001
 2.8860895753e+000	 2.1518566316e+000	-5.6283209337e-001
 2.8637619142e+000	 2.1814829128e+000	-6.1523234268e-001
 2.8411143323e+000	 2.2108978608e+000	-6.7114758480e-001
 2.8181498196e+000	 2.2400963360e+000	-7.3104321523e-001
 2.7948714753e+000	 2.2690732550e+000	-7.9538476230e-001
 3.0341087282e+000	 1.9836353560e+000	-3.0655565923e-001
 3.0136157820e+000	 2.0146327007e+000	-3.4015915721e-001
 2.9927850045e+000	 2.0454493191e+000	-3.7589331840e-001
 2.9716187229e+000	 2.0760797590e+000	-4.1419159154e-001
 2.9501193807e+000	 2.1065186065e+000	-4.5548954774e-001
 2.9282895367e+000	 2.1367604895e+000	-5.0022437913e-001
 2.9061318640e+000	 2.1668000805e+000	-5.4883438587e-001
 2.8836491497e+000	 2.1966320997e+000	-6.0175845217e-001
 2.8608442929e+000	 2.2262513181e+000	-6.5943551224e-001
 2.8377203044e+000	 2.2556525605e+000	-7.2230400715e-001
 2.8142803050e+000	 2.2848307082e+000	-7.9080133336e-001
 3.0550336159e+000	 1.9973155998e+000	-3.2004315122e-001
 3.0343993391e+000	 2.0285267193e+000	-3.4553416839e-001
 3.0134249010e+000	 2.0595558661e+000	-3.7450981485e-001
 2.9921126451e+000	 2.0903975504e+000	-4.0738436917e-001
 2.9704650316e+000	 2.1210463210e+000	-4.4457296308e-001
 2.9484846369e+000	 2.1514967687e+000	-4.8649109373e-001
 2.9261741528e+000	 2.1817435293e+000	-5.3355412597e-001
 2.9035363852e+000	 2.2117812866e+000	-5.8617678518e-001
 2.8805742536e+000	 2.2416047755e+000	-6.4477264177e-001
 2.8572907893e+000	 2.2712087851e+000	-7.0975358798e-001
 2.8336891347e+000	 2.3005881613e+000	-7.8152930804e-001
 3.0759585037e+000	 2.0109958437e+000	-3.3673351805e-001
 3.0551828962e+000	 2.0424207379e+000	-3.5341443899e-001
 3.0340647976e+000	 2.0736624132e+000	-3.7491439006e-001
 3.0126065673e+000	 2.1047153419e+000	-4.0162878988e-001
 2.9908106825e+000	 2.1355740356e+000	-4.3395265641e-001
 2.9686797371e+000	 2.1662330480e+000	-4.7228013266e-001
 2.9462164415e+000	 2.1966869781e+000	-5.1700400396e-001
 2.9234236207e+000	 2.2269304735e+000	-5.6851520744e-001
 2.9003042142e+000	 2.2569582329e+000	-6.2720233463e-001
 2.8768612741e+000	 2.2867650096e+000	-6.9345112801e-001
 2.8530979643e+000	 2.3163456145e+000	-7.6764397245e-001
 3.0968833915e+000	 2.0246760875e+000	-3.5655839663e-001
 3.0759664533e+000	 2.0563147565e+000	-3.6374438203e-001
 3.0547046942e+000	 2.0877689602e+000	-3.7706457760e-001
 3.0331004896e+000	 2.1190331333e+000	-3.9689584712e-001
 3.0111563334e+000	 2.1501017501e+000	-4.2361341514e-001
 2.9888748374e+000	 2.1809693272e+000	-4.5759040588e-001
 2.9662587302e+000	 2.2116304270e+000	-4.9919737527e-001
 2.9433108562e+000	 2.2420796604e+000	-5.4880183673e-001
 2.9200341748e+000	 2.2723116903e+000	-6.0676778174e-001
 2.8964317590e+000	 2.3023212342e+000	-6.7345519577e-001
 2.8725067940e+000	 2.3321030677e+000	-7.4921957063e-001
 3.1178082793e+000	 2.0383563313e+000	-3.7945226409e-001
 3.0967500104e+000	 2.0702087752e+000	-3.7647090883e-001
 3.0753445908e+000	 2.1018755072e+000	-3.8092005744e-001
 3.0535944118e+000	 2.1333509248e+000	-3.9315831911e-001
 3.0315019843e+000	 2.1646294646e+000	-4.1354144022e-001
 3.0090699376e+000	 2.1957056065e+000	-4.4242185618e-001
 2.9863010189e+000	 2.2265738758e+000	-4.8014823805e-001
 2.9631980917e+000	 2.2572288473e+000	-5.2706503440e-001
 2.9397641355e+000	 2.2876651476e+000	-5.8351200947e-001
 2.9160022438e+000	 2.3178774588e+000	-6.4982377827e-001
 2.8919156237e+000	 2.3478605208e+000	-7.2632933949e-001
 3.1387331671e+000	 2.0520365752e+000	-2.8532046803e-001
 3.1175335675e+000	 2.0841027938e+000	-3.9154334568e-001
 3.0959844873e+000	 2.1159820543e+000	-3.8644258442e-001
 3.0740883340e+000	 2.1476687162e+000	-3.9039070939e-001
 3.0518476352e+000	 2.1791571792e+000	-4.0372429901e-001
 3.0292650379e+000	 2.2104418857e+000	-4.2677542471e-001
 3.0063433076e+000	 2.2415173246e+000	-4.5987121182e-001
 2.9830853273e+000	 2.2723780342e+000	-5.0333339726e-001
 2.9594940961e+000	 2.3030186050e+000	-5.5747788507e-001
 2.9355727287e+000	 2.3334336833e+000	-6.2261430033e-001
 2.9113244534e+000	 2.3636179740e+000	-6.9904554241e-001
 2.7172361565e+000	 2.2060434424e+000	-7.6528823421e-001
 2.6943024371e+000	 2.2339951605e+000	-7.6490777367e-001
 2.6710699438e+000	 2.2617217679e+000	-7.6482858240e-001
 2.6475420007e+000	 2.2892185031e+000	-7.6540648726e-001
 2.6237220324e+000	 2.3164806705e+000	-7.6699965136e-001
 2.5996135628e+000	 2.3435036429e+000	-7.6996810398e-001
 2.5752202129e+000	 2.3702828639e+000	-7.7467326175e-001
 2.5505456993e+000	 2.3968138509e+000	-7.8147744196e-001
 2.5255938321e+000	 2.4230921970e+000	-7.9074336899e-001
 2.5003685132e+000	 2.4491135740e+000	-8.0283367475e-001
 2.4748737342e+000	 2.4748737342e+000	-8.0153921644e-001
 2.7366449862e+000	 2.2218008955e+000	-7.8023420209e-001
 2.7135474545e+000	 2.2499522688e+000	-7.8229119400e-001
 2.6901490148e+000	 2.2778769234e+000	-7.8291660924e-001
 2.6664530150e+000	 2.3055700638e+000	-7.8245626847e-001
 2.6424629041e+000	 2.3330269610e+000	-7.8126007598e-001
 2.6181822311e+000	 2.3602429546e+000	-7.7968156136e-001
 2.5936146430e+000	 2.3872134558e+000	-7.7807740996e-001
 2.5687638828e+000	 2.4139339499e+000	-7.7680698292e-001
 2.5436337880e+000	 2.4403999984e+000	-7.7623182792e-001
 2.5182282883e+000	 2.4666072423e+000	-7.7671518153e-001
 2.4925514037e+000	 2.4925514037e+000	-7.7163682962e-001
 2.7560538159e+000	 2.2375583487e+000	-7.9017925587e-001
 2.7327924719e+000	 2.2659093771e+000	-7.9427229111e-001
 2.7092280859e+000	 2.2940320788e+000	-7.9522506032e-001
 2.6853640292e+000	 2.3219216245e+000	-7.9337363469e-001
 2.6612037757e+000	 2.3495732515e+000	-7.8905990284e-001
 2.6367508994e+000	 2.3769822663e+000	-7.8263112380e-001
 2.6120090731e+000	 2.4041440477e+000	-7.7443946646e-001
 2.5869820664e+000	 2.4310540488e+000	-7.6484153620e-001
 2.5616737440e+000	 2.4577077999e+000	-7.5419788963e-001
 2.5360880634e+000	 2.4841009107e+000	-7.4287253858e-001
 2.5102290732e+000	 2.5102290732e+000	-7.6238109666e-001
 2.7754626456e+000	 2.2533158019e+000	-7.9520323019e-001
 2.7520374893e+000	 2.2818664854e+000	-8.0093746443e-001
 2.7283071569e+000	 2.3101872343e+000	-8.0184635882e-001
 2.7042750435e+000	 2.3382731853e+000	-7.9825648859e-001
 2.6799446474e+000	 2.3661195420e+000	-7.9050196676e-001
 2.6553195677e+000	 2.3937215781e+000	-7.7892400830e-001
 2.6304035032e+000	 2.4210746396e+000	-7.6387047827e-001
 2.6052002500e+000	 2.4481741477e+000	-7.4569542471e-001
 2.5797136999e+000	 2.4750156013e+000	-7.2475859725e-001
 2.5539478385e+000	 2.5015945791e+000	-7.0687196907e-001
 2.5279067427e+000	 2.5279067427e+000	-7.6760476671e-001
 2.7948714753e+000	 2.2690732550e+000	-7.9538476230e-001
 2.7712825068e+000	 2.2978235937e+000	-8.0237172808e-001
 2.7473862279e+000	 2.3263423898e+000	-8.0287136915e-001
 2.7231860578e+000	 2.3546247460e+000	-7.9720101502e-001
 2.6986855190e+000	 2.3826658325e+000	-7.8568724035e-001
 2.6738882360e+000	 2.4104608898e+000	-7.6866543999e-001
 2.6487979333e+000	 2.4380052315e+000	-7.4647938557e-001
 2.6234184335e+000	 2.4652942467e+000	-7.1948076442e-001
 2.5977536559e+000	 2.4923234027e+000	-6.8802870176e-001
 2.5718076136e+000	 2.5190882475e+000	-7.2199223626e-001
 2.5455844123e+000	 2.5455844123e+000	-7.7328600314e-001
 2.8142803050e+000	 2.2848307082e+000	-7.9080133336e-001
 2.7905275242e+000	 2.3137807020e+000	-7.9865875864e-001
 2.7664652989e+000	 2.3424975453e+000	-7.9838945067e-001
 2.7420970721e+000	 2.3709763067e+000	-7.9030174030e-001
 2.7174263907e+000	 2.3992121230e+000	-7.7471489827e-001
 2.6924569043e+000	 2.4272002015e+000	-7.5195872081e-001
 2.6671923634e+000	 2.4549358234e+000	-7.2237309440e-001
 2.6416366171e+000	 2.4824143456e+000	-6.8630754048e-001
 2.6157936118e+000	 2.5096312041e+000	-6.8238191796e-001
 2.5896673887e+000	 2.5365819159e+000	-7.3745805243e-001
 2.5632620818e+000	 2.5632620818e+000	-7.7931469142e-001
 2.8336891347e+000	 2.3005881613e+000	-7.8152930804e-001
 2.8097725416e+000	 2.3297378103e+000	-7.8988094100e-001
 2.7855443700e+000	 2.3586527008e+000	-7.8848850922e-001
 2.7610080864e+000	 2.3873278675e+000	-7.7765158897e-001
 2.7361672624e+000	 2.4157584135e+000	-7.5768237878e-001
 2.7110255726e+000	 2.4439395133e+000	-7.2890529535e-001
 2.6855867935e+000	 2.4718664152e+000	-6.9165654625e-001
 2.6598548007e+000	 2.4995344445e+000	-6.4628368018e-001
 2.6338335677e+000	 2.5269390055e+000	-7.0583461956e-001
 2.6075271638e+000	 2.5540755843e+000	-7.5315312694e-001
 2.5809397513e+000	 2.5809397513e+000	-7.8557846257e-001
 2.8530979643e+000	 2.3163456145e+000	-7.6764397245e-001
 2.8290175590e+000	 2.3456949186e+000	-7.7611941223e-001
 2.8046234410e+000	 2.3748078563e+000	-7.7325504659e-001
 2.7799191007e+000	 2.4036794282e+000	-7.5934193832e-001
 2.7549081340e+000	 2.4323047040e+000	-7.3468544281e-001
 2.7295942409e+000	 2.4606788250e+000	-6.9960481404e-001
 2.7039812235e+000	 2.4887970071e+000	-6.5443278496e-001
 2.6780729842e+000	 2.5166545435e+000	-6.7403338970e-001
 2.6518735237e+000	 2.5442468069e+000	-7.2941802913e-001
 2.6253869389e+000	 2.5715692527e+000	-7.6895904120e-001
 2.5986174209e+000	 2.5986174209e+000	-7.9196276985e-001
 2.8725067940e+000	 2.3321030677e+000	-7.4921957063e-001
 2.8482625764e+000	 2.3616520268e+000	-7.5745410379e-001
 2.8237025120e+000	 2.3909630117e+000	-7.5277420794e-001
 2.7988301150e+000	 2.4200309889e+000	-7.3546267060e-001
 2.7736490057e+000	 2.4488509945e+000	-7.0581823060e-001
 2.7481629093e+000	 2.4774181367e+000	-6.6415519378e-001
 2.7223756536e+000	 2.5057275990e+000	-6.3792536162e-001
 2.6962911678e+000	 2.5337746424e+000	-7.0382429322e-001
 2.6699134796e+000	 2.5615546083e+000	-7.5300748546e-001
 2.6432467140e+000	 2.5890629210e+000	-7.8475532058e-001
 2.6162950904e+000	 2.6162950904e+000	-7.9835096237e-001
 2.8919156237e+000	 2.3478605208e+000	-7.2632933949e-001
 2.8675075938e+000	 2.3776091351e+000	-7.3396378197e-001
 2.8427815831e+000	 2.4071181672e+000	-7.2712982730e-001
 2.8177411293e+000	 2.4363825497e+000	-7.0610222325e-001
 2.7923898773e+000	 2.4653972850e+000	-6.7117331615e-001
 2.7667315776e+000	 2.4941574485e+000	-6.2265267609e-001
 2.7407700837e+000	 2.5226581909e+000	-6.7234053102e-001
 2.7145093514e+000	 2.5508947413e+000	-7.3353534273e-001
 2.6879534356e+000	 2.5788624097e+000	-7.7647639940e-001
 2.6611064891e+000	 2.6065565894e+000	-8.0041950343e-001
 2.6339727599e+000	 2.6339727599e+000	-8.0462435566e-001
 2.9113244534e+000	 2.3636179740e+000	-6.9904554241e-001
 2.8867526112e+000	 2.3935662434e+000	-7.0572608673e-001
 2.8618606541e+000	 2.4232733227e+000	-6.9640447132e-001
 2.8366521436e+000	 2.4527341104e+000	-6.7134763703e-001
 2.8111307490e+000	 2.4819435755e+000	-6.3084175934e-001
 2.7853002459e+000	 2.5108967602e+000	-6.3119271820e-001
 2.7591645138e+000	 2.5395887828e+000	-7.0660833408e-001
 2.7327275349e+000	 2.5680148403e+000	-7.6303368105e-001
 2.7059933915e+000	 2.5961702111e+000	-7.9969631816e-001
 2.6789662642e+000	 2.6240502578e+000	-8.1582720728e-001
 2.6516504295e+000	 2.6516504295e+000	-8.1066229944e-001
 2.4748737342e+000	 2.4748737342e+000	-8.0153921644e-001
 2.4491135740e+000	 2.5003685132e+000	-7.9665700529e-001
 2.4230921970e+000	 2.5255938321e+000	-8.4932854568e-001
 2.3968138509e+000	 2.5505456993e+000	-8.9579273580e-001
 2.3702828639e+000	 2.5752202129e+000	-9.3628204965e-001
 2.3435036429e+000	 2.5996135628e+000	-9.7100355587e-001
 2.3164806705e+000	 2.6237220324e+000	-1.0001383322e+000
 2.2892185031e+000	 2.6475420007e+000	-1.0238409839e+000
 2.2617217679e+000	 2.6710699438e+000	-1.0422392674e+000
 2.2339951605e+000	 2.6943024371e+000	-1.0554338195e+000
 2.2060434424e+000	 2.7172361565e+000	-1.0634979924e+000
 2.4925514037e+000	 2.4925514037e+000	-7.7163682962e-001
 2.4666072423e+000	 2.5182282883e+000	-7.8841901688e-001
 2.4403999984e+000	 2.5436337880e+000	-8.2131578961e-001
 2.4139339499e+000	 2.5687638828e+000	-8.4977904398e-001
 2.3872134558e+000	 2.5936146430e+000	-8.7412241897e-001
 2.3602429546e+000	 2.6181822311e+000	-8.9463112374e-001
 2.3330269610e+000	 2.6424629041e+000	-9.1156126544e-001
 2.3055700638e+000	 2.6664530150e+000	-9.2513928691e-001
 2.2778769234e+000	 2.6901490148e+000	-9.3556151546e-001
 2.2499522688e+000	 2.7135474545e+000	-9.4299382354e-001
 2.2218008955e+000	 2.7366449862e+000	-9.4757140147e-001
 2.5102290732e+000	 2.5102290732e+000	-7.6238109666e-001
 2.4841009107e+000	 2.5360880634e+000	-7.9243673830e-001
 2.4577077999e+000	 2.5616737440e+000	-8.0691293748e-001
 2.4310540488e+000	 2.5869820664e+000	-8.1871954329e-001
 2.4041440477e+000	 2.6120090731e+000	-8.2825093254e-001
 2.3769822663e+000	 2.6367508994e+000	-8.3587001487e-001
 2.3495732515e+000	 2.6612037757e+000	-8.4190747409e-001
 2.3219216245e+000	 2.6853640292e+000	-8.4666112539e-001
 2.2940320788e+000	 2.7092280859e+000	-8.5039538978e-001
 2.2659093771e+000	 2.7327924719e+000	-8.5334088645e-001
 2.2375583487e+000	 2.7560538159e+000	-8.5569414364e-001
 2.5279067427e+000	 2.5279067427e+000	-7.6760476671e-001
 2.5015945791e+000	 2.5539478385e+000	-8.0539989358e-001
 2.4750156013e+000	 2.5797136999e+000	-8.0557329610e-001
 2.4481741477e+000	 2.6052002500e+000	-8.0203606731e-001
 2.4210746396e+000	 2.6304035032e+000	-7.9805881558e-001
 2.3937215781e+000	 2.6553195677e+000	-7.9408172663e-001
 2.3661195420e+000	 2.6799446474e+000	-7.9050962310e-001
 2.3382731853e+000	 2.7042750435e+000	-7.8771124159e-001
 2.3101872343e+000	 2.7283071569e+000	-7.8601863301e-001
 2.2818664854e+000	 2.7520374893e+000	-7.8572668711e-001
 2.2533158019e+000	 2.7754626456e+000	-7.8709278185e-001
 2.5455844123e+000	 2.5455844123e+000	-7.7328600314e-001
 2.5190882475e+000	 2.5718076136e+000	-7.9673257446e-001
 2.4923234027e+000	 2.5977536559e+000	-8.1674948150e-001
 2.4652942467e+000	 2.6234184335e+000	-7.9915060011e-001
 2.4380052315e+000	 2.6487979333e+000	-7.8293826970e-001
 2.4104608898e+000	 2.6738882360e+000	-7.6862954293e-001
 2.3826658325e+000	 2.6986855190e+000	-7.5670295800e-001
 2.3546247460e+000	 2.7231860578e+000	-7.4759773580e-001
 2.3263423898e+000	 2.7473862279e+000	-7.4171310649e-001
 2.2978235937e+000	 2.7712825068e+000	-7.3940776654e-001
 2.2690732550e+000	 2.7948714753e+000	-7.4099946697e-001
 2.5632620818e+000	 2.5632620818e+000	-7.7931469142e-001
 2.5365819159e+000	 2.5896673887e+000	-7.8991238852e-001
 2.5096312041e+000	 2.6157936118e+000	-8.1595989584e-001
 2.4824143456e+000	 2.6416366171e+000	-8.0948527111e-001
 2.4549358234e+000	 2.6671923634e+000	-7.8228243925e-001
 2.4272002015e+000	 2.6924569043e+000	-7.5887847258e-001
 2.3992121230e+000	 2.7174263907e+000	-7.3982521582e-001
 2.3709763067e+000	 2.7420970721e+000	-7.2563195053e-001
 2.3424975453e+000	 2.7664652989e+000	-7.1676464818e-001
 2.3137807020e+000	 2.7905275242e+000	-7.1364536013e-001
 2.2848307082e+000	 2.8142803050e+000	-7.1665174516e-001
 2.5809397513e+000	 2.5809397513e+000	-7.8557846257e-001
 2.5540755843e+000	 2.6075271638e+000	-7.8480033606e-001
 2.5269390055e+000	 2.6338335677e+000	-8.0113268264e-001
 2.4995344445e+000	 2.6598548007e+000	-8.3246235005e-001
 2.4718664152e+000	 2.6855867935e+000	-7.9548537899e-001
 2.4439395133e+000	 2.7110255726e+000	-7.6419519025e-001
 2.4157584135e+000	 2.7361672624e+000	-7.3921653984e-001
 2.3873278675e+000	 2.7610080864e+000	-7.2112835947e-001
 2.3586527008e+000	 2.7855443700e+000	-7.1046293646e-001
 2.3297378103e+000	 2.8097725416e+000	-7.0770523695e-001
 2.3005881613e+000	 2.8336891347e+000	-7.1329237305e-001
 2.5986174209e+000	 2.5986174209e+000	-7.9196276985e-001
 2.5715692527e+000	 2.6253869389e+000	-7.8125602394e-001
 2.5442468069e+000	 2.6518735237e+000	-7.8930363797e-001
 2.5166545435e+000	 2.6780729842e+000	-8.1538946878e-001
 2.4887970071e+000	 2.7039812235e+000	-8.2194202319e-001
 2.4606788250e+000	 2.7295942409e+000	-7.8394797980e-001
 2.4323047040e+000	 2.7549081340e+000	-7.5421939768e-001
 2.4036794282e+000	 2.7799191007e+000	-7.3340446100e-001
 2.3748078563e+000	 2.8046234410e+000	-7.2210135955e-001
 2.3456949186e+000	 2.8290175590e+000	-7.2085754549e-001
 2.3163456145e+000	 2.8530979643e+000	-7.3016914054e-001
 2.6162950904e+000	 2.6162950904e+000	-7.9835096237e-001
 2.5890629210e+000	 2.6432467140e+000	-7.7913771267e-001
 2.5615546083e+000	 2.6699134796e+000	-7.8030648991e-001
 2.5337746424e+000	 2.6962911678e+000	-8.0118263982e-001
 2.5057275990e+000	 2.7223756536e+000	-8.4106220637e-001
 2.4774181367e+000	 2.7481629093e+000	-8.1750667990e-001
 2.4488509945e+000	 2.7736490057e+000	-7.8417850281e-001
 2.4200309889e+000	 2.7988301150e+000	-7.6178067598e-001
 2.3909630117e+000	 2.8237025120e+000	-7.5097689012e-001
 2.3616520268e+000	 2.8482625764e+000	-7.5237666572e-001
 2.3321030677e+000	 2.8725067940e+000	-7.6653470078e-001
 2.6339727599e+000	 2.6339727599e+000	-8.0462435566e-001
 2.6065565894e+000	 2.6611064891e+000	-7.7830236165e-001
 2.5788624097e+000	 2.6879534356e+000	-7.7397438553e-001
 2.5508947413e+000	 2.7145093514e+000	-7.9100628309e-001
 2.5226581909e+000	 2.7407700837e+000	-8.2873251025e-001
 2.4941574485e+000	 2.7667315776e+000	-8.6424263189e-001
 2.4653972850e+000	 2.7923898773e+000	-8.2844073916e-001
 2.4363825497e+000	 2.8177411293e+000	-8.0558024972e-001
 2.4071181672e+000	 2.8427815831e+000	-7.9638996503e-001
 2.3776091351e+000	 2.8675075938e+000	-8.0154106710e-001
 2.3478605208e+000	 2.8919156237e+000	-8.2164640693e-001
 2.6516504295e+000	 2.6516504295e+000	-8.1066229944e-001
 2.6240502578e+000	 2.6789662642e+000	-7.7860567244e-001
 2.5961702111e+000	 2.7059933915e+000	-7.7013991028e-001
 2.5680148403e+000	 2.7327275349e+000	-7.8467040882e-001
 2.5395887828e+000	 2.7591645138e+000	-8.2156907045e-001
 2.5108967602e+000	 2.7853002459e+000	-8.8017589810e-001
 2.4819435755e+000	 2.8111307490e+000	-8.8635508881e-001
 2.4527341104e+000	 2.8366521436e+000	-8.6412915777e-001
 2.4232733227e+000	 2.8618606541e+000	-8.5764436986e-001
 2.3935662434e+000	 2.8867526112e+000	-8.6763317226e-001
 2.3636179740e+000	 2.9113244534e+000	-8.9476615549e-001
 2.2060434424e+000	 2.7172361565e+000	-1.0634979924e+000
 2.1778714378e+000	 2.7398678801e+000	-1.0443931698e+000
 2.1494840313e+000	 2.7621944897e+000	-1.0304010606e+000
 2.1208861652e+000	 2.7842129721e+000	-1.0223196636e+000
 2.0920828363e+000	 2.8059204205e+000	-1.0209060525e+000
 2.0630790933e+000	 2.8273140354e+000	-1.0268759504e+000
 2.0338800339e+000	 2.8483911262e+000	-1.0409034274e+000
 2.0044908018e+000	 2.8691491118e+000	-1.0636207202e+000
 1.9749165840e+000	 2.8895855216e+000	-1.0956181729e+000
 1.9451626075e+000	 2.9096979964e+000	-1.1374442964e+000
 1.9152341368e+000	 2.9294842893e+000	-1.1896059443e+000
 2.2218008955e+000	 2.7366449862e+000	-9.4757140147e-001
 2.1934276623e+000	 2.7594383650e+000	-9.4207408424e-001
 2.1648374887e+000	 2.7819244504e+000	-9.3931796217e-001
 2.1360353521e+000	 2.8041002076e+000	-9.4002824201e-001
 2.1070262851e+000	 2.8259627092e+000	-9.4489068507e-001
 2.0778153725e+000	 2.8475091357e+000	-9.5455125535e-001
 2.0484077484e+000	 2.8687367771e+000	-9.6961589014e-001
 2.0188085932e+000	 2.8896430340e+000	-9.9065039188e-001
 1.9890231310e+000	 2.9102254181e+000	-1.0181804396e+000
 1.9590566262e+000	 2.9304815535e+000	-1.0526917181e+000
 1.9289143807e+000	 2.9504091771e+000	-1.0946301615e+000
 2.2375583487e+000	 2.7560538159e+000	-8.5569414364e-001
 2.2089838869e+000	 2.7790088499e+000	-8.6196834722e-001
 2.1801909460e+000	 2.8016544110e+000	-8.6866617542e-001
 2.1511845390e+000	 2.8239874432e+000	-8.7644083222e-001
 2.1219697340e+000	 2.8460049979e+000	-8.8590749806e-001
 2.0925516518e+000	 2.8677042359e+000	-8.9764305153e-001
 2.0629354629e+000	 2.8890824280e+000	-9.1218591282e-001
 2.0331263847e+000	 2.9101369562e+000	-9.3003600747e-001
 2.0031296780e+000	 2.9308653147e+000	-9.5165484863e-001
 1.9729506448e+000	 2.9512651106e+000	-9.7746573554e-001
 1.9425946245e+000	 2.9713340648e+000	-1.0078540660e+000
 2.2533158019e+000	 2.7754626456e+000	-7.8709278185e-001
 2.2245401114e+000	 2.7985793347e+000	-8.0334307621e-001
 2.1955444034e+000	 2.8213843716e+000	-8.1775291224e-001
 2.1663337259e+000	 2.8438746787e+000	-8.3090426215e-001
 2.1369131828e+000	 2.8660472866e+000	-8.4334243918e-001
 2.1072879310e+000	 2.8878993362e+000	-8.5557589259e-001
 2.0774631775e+000	 2.9094280789e+000	-8.6807612367e-001
 2.0474441761e+000	 2.9306308784e+000	-8.8127772130e-001
 2.0172362251e+000	 2.9515052113e+000	-8.9557851487e-001
 1.9868446634e+000	 2.9720486678e+000	-9.1133984257e-001
 1.9562748683e+000	 2.9922589526e+000	-9.2888693203e-001
 2.2690732550e+000	 2.7948714753e+000	-7.4099946697e-001
 2.2400963360e+000	 2.8181498196e+000	-7.6546988716e-001
 2.2108978608e+000	 2.8411143323e+000	-7.8588881495e-001
 2.1814829128e+000	 2.8637619142e+000	-8.0276774418e-001
 2.1518566316e+000	 2.8860895753e+000	-8.1658281711e-001
 2.1220242103e+000	 2.9080944364e+000	-8.2777469250e-001
 2.0919908920e+000	 2.9297737298e+000	-8.3674853397e-001
 2.0617619676e+000	 2.9511248007e+000	-8.4387411716e-001
 2.0313427721e+000	 2.9721451079e+000	-8.4948605349e-001
 2.0007386820e+000	 2.9928322249e+000	-8.5388412808e-001
 1.9699551122e+000	 3.0131838404e+000	-8.5733374901e-001
 2.2848307082e+000	 2.8142803050e+000	-7.1665174516e-001
 2.2556525605e+000	 2.8377203044e+000	-7.4762473929e-001
 2.2262513181e+000	 2.8608442929e+000	-7.7238783801e-001
 2.1966320997e+000	 2.8836491497e+000	-7.9138279291e-001
 2.1668000805e+000	 2.9061318640e+000	-8.0501725453e-001
 2.1367604895e+000	 2.9282895367e+000	-8.1366471314e-001
 2.1065186065e+000	 2.9501193807e+000	-8.1766455929e-001
 2.0760797590e+000	 2.9716187229e+000	-8.1732226253e-001
 2.0454493191e+000	 2.9927850045e+000	-8.1290966588e-001
 2.0146327007e+000	 3.0136157820e+000	-8.0466539363e-001
 1.9836353560e+000	 3.0341087282e+000	-7.9279536926e-001
 2.3005881613e+000	 2.8336891347e+000	-7.1329237305e-001
 2.2712087851e+000	 2.8572907893e+000	-7.4908778642e-001
 2.2416047755e+000	 2.8805742536e+000	-7.7656713460e-001
 2.2117812866e+000	 2.9035363852e+000	-7.9610314635e-001
 2.1817435293e+000	 2.9261741528e+000	-8.0803564314e-001
 2.1514967687e+000	 2.9484846369e+000	-8.1267155237e-001
 2.1210463210e+000	 2.9704650316e+000	-8.1028503996e-001
 2.0903975504e+000	 2.9921126451e+000	-8.0111776048e-001
 2.0595558661e+000	 3.0134249010e+000	-7.8537922245e-001
 2.0285267193e+000	 3.0343993391e+000	-7.6324726597e-001
 1.9973155998e+000	 3.0550336159e+000	-7.3486864970e-001
 2.3163456145e+000	 2.8530979643e+000	-7.3016914054e-001
 2.2867650096e+000	 2.8768612741e+000	-7.6914323425e-001
 2.2569582329e+000	 2.9003042142e+000	-7.9774694782e-001
 2.2269304735e+000	 2.9234236207e+000	-8.1628469026e-001
 2.1966869781e+000	 2.9462164415e+000	-8.2502910049e-001
 2.1662330480e+000	 2.9686797371e+000	-8.2422113265e-001
 2.1355740356e+000	 2.9908106825e+000	-8.1407026061e-001
 2.1047153419e+000	 3.0126065673e+000	-7.9475479952e-001
 2.0736624132e+000	 3.0340647976e+000	-7.6642234183e-001
 2.0424207379e+000	 3.0551828962e+000	-7.2919030503e-001
 2.0109958437e+000	 3.0759585037e+000	-6.8314658772e-001
 2.3321030677e+000	 2.8725067940e+000	-7.6653470078e-001
 2.3023212342e+000	 2.8964317590e+000	-8.0707920347e-001
 2.2723116903e+000	 2.9200341748e+000	-8.3525050629e-001
 2.2420796604e+000	 2.9433108562e+000	-8.5128538564e-001
 2.2116304270e+000	 2.9662587302e+000	-8.5538992857e-001
 2.1809693272e+000	 2.9888748374e+000	-8.4773969000e-001
 2.1501017501e+000	 3.0111563334e+000	-8.2847996893e-001
 2.1190331333e+000	 3.0331004896e+000	-7.9772620133e-001
 2.0877689602e+000	 3.0547046942e+000	-7.5556446702e-001
 2.0563147565e+000	 3.0759664533e+000	-7.0205210753e-001
 2.0246760875e+000	 3.0968833915e+000	-6.3721845162e-001
 2.3478605208e+000	 2.8919156237e+000	-8.2164640693e-001
 2.3178774588e+000	 2.9160022438e+000	-8.6218759844e-001
 2.2876651476e+000	 2.9397641355e+000	-8.8840392399e-001
 2.2572288473e+000	 2.9631980917e+000	-9.0046519904e-001
 2.2265738758e+000	 2.9863010189e+000	-8.9851157407e-001
 2.1957056065e+000	 3.0090699376e+000	-8.8265376356e-001
 2.1646294646e+000	 3.0315019843e+000	-8.5297339371e-001
 2.1333509248e+000	 3.0535944118e+000	-8.0952346668e-001
 2.1018755072e+000	 3.0753445908e+000	-7.5232893832e-001
 2.0702087752e+000	 3.0967500104e+000	-6.8138740641e-001
 2.0383563313e+000	 3.1178082793e+000	-5.9666990572e-001
 2.3636179740e+000	 2.9113244534e+000	-8.9476615549e-001
 2.3334336833e+000	 2.9355727287e+000	-9.3376398099e-001
 2.3030186050e+000	 2.9594940961e+000	-9.5653610406e-001
 2.2723780342e+000	 2.9830853273e+000	-9.6318603572e-001
 2.2415173246e+000	 3.0063433076e+000	-9.5378859021e-001
 2.2104418857e+000	 3.0292650379e+000	-9.2839018542e-001
 2.1791571792e+000	 3.0518476352e+000	-8.8700926212e-001
 2.1476687162e+000	 3.0740883340e+000	-8.2963681942e-001
 2.1159820543e+000	 3.0959844873e+000	-7.5623706350e-001
 2.0841027938e+000	 3.1175335675e+000	-6.6674816630e-001
 2.0520365752e+000	 3.1387331671e+000	-7.7550274595e-001
 1.9152341368e+000	 2.9294842893e+000	-1.1896059443e+000
 1.8851364706e+000	 2.9489422659e+000	-1.0617215626e+000
 1.8548749386e+000	 2.9680699052e+000	-1.0889287638e+000
 1.8244548993e+000	 2.9868653000e+000	-1.1692236004e+000
 1.7938817362e+000	 3.0053266573e+000	-1.2044883368e+000
 1.7631608551e+000	 3.0234522981e+000	-1.1981356454e+000
 1.7322976814e+000	 3.0412406585e+000	-1.1536471238e+000
 1.7012976567e+000	 3.0586902889e+000	-1.0745627738e+000
 1.6701662359e+000	 3.0757998544e+000	-9.6447044022e-001
 1.6389088846e+000	 3.0925681348e+000	-8.2699524176e-001
 1.6075310757e+000	 3.1089940239e+000	-6.6578901995e-001
 1.9289143807e+000	 2.9504091771e+000	-1.0946301615e+000
 1.8986017311e+000	 2.9700061392e+000	-9.4945068768e-001
 1.8681240453e+000	 2.9892704045e+000	-8.2679812845e-001
 1.8374867200e+000	 3.0082000522e+000	-8.8518431717e-001
 1.8066951771e+000	 3.0267932762e+000	-8.9741197596e-001
 1.7757548612e+000	 3.0450483860e+000	-8.6707043917e-001
 1.7446712363e+000	 3.0629638061e+000	-7.9781966421e-001
 1.7134497828e+000	 3.0805380767e+000	-6.9337937057e-001
 1.6820959948e+000	 3.0977698534e+000	-5.5751813995e-001
 1.6506153766e+000	 3.1146579071e+000	-3.9404250743e-001
 1.6190134405e+000	 3.1312011241e+000	-3.3453397627e-001
 1.9425946245e+000	 2.9713340648e+000	-1.0078540660e+000
 1.9120669916e+000	 2.9910700125e+000	-8.4646300423e-001
 1.8813731520e+000	 3.0104709038e+000	-6.4133243475e-001
 1.8505185407e+000	 3.0295348043e+000	-6.1783296204e-001
 1.8195086181e+000	 3.0482598952e+000	-6.0637017094e-001
 1.7883488673e+000	 3.0666444738e+000	-5.5134069232e-001
 1.7570447912e+000	 3.0846869536e+000	-4.5658559528e-001
 1.7256019089e+000	 3.1023858645e+000	-3.2600711254e-001
 1.6940257536e+000	 3.1197398523e+000	-1.6355739572e-001
 1.6623218687e+000	 3.1367476795e+000	-2.1981414248e-001
 1.6304958054e+000	 3.1534082243e+000	-3.4557555501e-001
 1.9562748683e+000	 2.9922589526e+000	-9.2888693203e-001
 1.9255322521e+000	 3.0121338859e+000	-7.5235362170e-001
 1.8946222587e+000	 3.0316714032e+000	-5.3200108449e-001
 1.8635503614e+000	 3.0508695565e+000	-3.6914641140e-001
 1.8323220591e+000	 3.0697265142e+000	-3.3329107716e-001
 1.8009428734e+000	 3.0882405617e+000	-2.5282515215e-001
 1.7694183460e+000	 3.1064101012e+000	-1.3177361096e-001
 1.7377540350e+000	 3.1242336522e+000	 2.5775963013e-002
 1.7059555124e+000	 3.1417098513e+000	-1.3708291237e-001
 1.6740283607e+000	 3.1588374519e+000	-2.7439096617e-001
 1.6419781702e+000	 3.1756153244e+000	-3.6957124339e-001
 1.9699551122e+000	 3.0131838404e+000	-8.5733374901e-001
 1.9389975126e+000	 3.0331977592e+000	-6.6671388017e-001
 1.9078713654e+000	 3.0528719025e+000	-4.3221175468e-001
 1.8765821821e+000	 3.0722043086e+000	-1.5433492172e-001
 1.8451355001e+000	 3.0911931332e+000	-8.0100628580e-002
 1.8135368796e+000	 3.1098366495e+000	 2.6599139811e-002
 1.7817919009e+000	 3.1281332488e+000	 1.0931258770e-001
 1.7499061612e+000	 3.1460814400e+000	-8.1704458451e-002
 1.7178852712e+000	 3.1636798503e+000	-2.3143105562e-001
 1.6857348527e+000	 3.1809272243e+000	-3.3949601242e-001
 1.6534605350e+000	 3.1978224246e+000	-4.0555470882e-001
 1.9836353560e+000	 3.0341087282e+000	-7.9279536926e-001
 1.9524627731e+000	 3.0542616325e+000	-5.8913148028e-001
 1.9211204721e+000	 3.0740724018e+000	-3.4153926930e-001
 1.8896140028e+000	 3.0935390607e+000	-5.0560151524e-002
 1.8579489410e+000	 3.1126597521e+000	 1.5127738573e-001
 1.8261308857e+000	 3.1314327373e+000	 1.5436932008e-001
 1.7941654558e+000	 3.1498563963e+000	-4.9225231676e-002
 1.7620582873e+000	 3.1679292278e+000	-2.1211687220e-001
 1.7298150301e+000	 3.1856498492e+000	-3.3389292177e-001
 1.6974413448e+000	 3.2030169967e+000	-4.1416247555e-001
 1.6649428998e+000	 3.2200295248e+000	-4.5256044842e-001
 1.9973155998e+000	 3.0550336159e+000	-7.3486864970e-001
 1.9659280336e+000	 3.0753255058e+000	-5.1919060796e-001
 1.9343695788e+000	 3.0952729011e+000	-2.5955541859e-001
 1.9026458236e+000	 3.1148738129e+000	 4.3462352771e-002
 1.8707623820e+000	 3.1341263711e+000	 1.8132350088e-001
 1.8387248918e+000	 3.1530288252e+000	-3.5387621260e-002
 1.8065390106e+000	 3.1715795439e+000	-2.1205939127e-001
 1.7742104134e+000	 3.1897770156e+000	-3.4824157025e-001
 1.7417447889e+000	 3.2076198482e+000	-4.4350061433e-001
 1.7091478368e+000	 3.2251067691e+000	-4.9742387517e-001
 1.6764252647e+000	 3.2422366249e+000	-5.0962376063e-001
 2.0109958437e+000	 3.0759585037e+000	-6.8314658772e-001
 1.9793932941e+000	 3.0963893791e+000	-4.5647205390e-001
 1.9476186855e+000	 3.1164734004e+000	-1.8582906227e-001
 1.9156776443e+000	 3.1362085650e+000	-7.8848820816e-002
 1.8835758230e+000	 3.1555929901e+000	-9.2740157826e-002
 1.8513188979e+000	 3.1746249130e+000	-2.2707317789e-001
 1.8189125655e+000	 3.1933026914e+000	-3.7821922280e-001
 1.7863625395e+000	 3.2116248033e+000	-4.8910900470e-001
 1.7536745477e+000	 3.2295898471e+000	-5.5928608984e-001
 1.7208543288e+000	 3.2471965415e+000	-5.8831404511e-001
 1.6879076295e+000	 3.2644437251e+000	-5.7578071795e-001
 2.0246760875e+000	 3.0968833915e+000	-6.3721845162e-001
 1.9928585546e+000	 3.1174532525e+000	-4.0055332830e-001
 1.9608677923e+000	 3.1376738998e+000	-3.4172190682e-001
 1.9287094650e+000	 3.1575433171e+000	-3.7883656996e-001
 1.8963892639e+000	 3.1770596091e+000	-3.8285173641e-001
 1.8639129040e+000	 3.1962210009e+000	-4.1971447164e-001
 1.8312861203e+000	 3.2150258390e+000	-5.4673302172e-001
 1.7985146656e+000	 3.2334725911e+000	-6.3374903896e-001
 1.7656043065e+000	 3.2515598461e+000	-6.8028116284e-001
 1.7325608209e+000	 3.2692863139e+000	-6.8586712285e-001
 1.6993899943e+000	 3.2866508253e+000	-6.5006814080e-001
 2.0383563313e+000	 3.1178082793e+000	-5.9666990572e-001
 2.0063238151e+000	 3.1385171258e+000	-5.7469237440e-001
 1.9741168990e+000	 3.1588743991e+000	-6.3581477508e-001
 1.9417412857e+000	 3.1788780693e+000	-6.6388093337e-001
 1.9092027049e+000	 3.1985262280e+000	-6.5880698725e-001
 1.8765069101e+000	 3.2178170887e+000	-6.2055266104e-001
 1.8436596752e+000	 3.2367489865e+000	-7.1662808195e-001
 1.8106667917e+000	 3.2553203789e+000	-7.8119096750e-001
 1.7775340654e+000	 3.2735298451e+000	-8.0551751070e-001
 1.7442673129e+000	 3.2913760863e+000	-7.8911753928e-001
 1.7108723591e+000	 3.3088579254e+000	-7.3152357237e-001
 2.0520365752e+000	 3.1387331671e+000	-7.7550274595e-001
 2.0197890756e+000	 3.1595809991e+000	-8.6144658473e-001
 1.9873660057e+000	 3.1800748984e+000	-9.1436690581e-001
 1.9547731064e+000	 3.2002128214e+000	-9.3416112267e-001
 1.9220161459e+000	 3.2199928470e+000	-9.2077051466e-001
 1.8891009162e+000	 3.2394131765e+000	-8.7418036676e-001
 1.8560332301e+000	 3.2584721341e+000	-8.8693072931e-001
 1.8228189179e+000	 3.2771681667e+000	-9.3046353485e-001
 1.7894638242e+000	 3.2954998440e+000	-9.3402667810e-001
 1.7559738049e+000	 3.3134658586e+000	-8.9710000891e-001
 1.7223547240e+000	 3.3310650256e+000	-8.1918525460e-001
 1.6075310757e+000	 3.1089940239e+000	-6.6578901995e-001
 1.5760382868e+000	 3.1250765300e+000	-5.4384840730e-001
 1.5444359972e+000	 3.1408147750e+000	-7.0733752364e-001
 1.5127296849e+000	 3.1562079939e+000	-8.2764045968e-001
 1.4809248240e+000	 3.1712555346e+000	-9.0456233475e-001
 1.4490268819e+000	 3.1859568571e+000	-9.3795712307e-001
 1.4170413162e+000	 3.2003115330e+000	-9.2773068865e-001
 1.3849735723e+000	 3.2143192443e+000	-8.7384369914e-001
 1.3528290804e+000	 3.2279797829e+000	-7.7631440984e-001
 1.3206132534e+000	 3.2412930498e+000	-6.3522130986e-001
 1.2883314835e+000	 3.2542590537e+000	-4.5070562292e-001
 1.6190134405e+000	 3.1312011241e+000	-3.3453397627e-001
 1.5872957031e+000	 3.1473985053e+000	-5.0847171399e-001
 1.5554676828e+000	 3.1632491662e+000	-6.4450438002e-001
 1.5235348969e+000	 3.1787523367e+000	-7.4233516030e-001
 1.4915028585e+000	 3.1939073598e+000	-8.0170843048e-001
 1.4593770739e+000	 3.2087136918e+000	-8.2241309617e-001
 1.4271630399e+000	 3.2231709011e+000	-8.0428582404e-001
 1.3948662406e+000	 3.2372786675e+000	-7.4721415434e-001
 1.3624921453e+000	 3.2510367814e+000	-6.5113948574e-001
 1.3300462052e+000	 3.2644451431e+000	-5.1605992375e-001
 1.2975338512e+000	 3.2775037612e+000	-3.4203298504e-001
 1.6304958054e+000	 3.1534082243e+000	-3.4557555501e-001
 1.5985531195e+000	 3.1697204805e+000	-4.8817587454e-001
 1.5664993685e+000	 3.1856835575e+000	-5.9784991863e-001
 1.5343401089e+000	 3.2012966795e+000	-6.7424315407e-001
 1.5020808929e+000	 3.2165591851e+000	-7.1703776012e-001
 1.4697272659e+000	 3.2314705265e+000	-7.2595616411e-001
 1.4372847636e+000	 3.2460302692e+000	-7.0076447086e-001
 1.4047589090e+000	 3.2602380906e+000	-6.4127577602e-001
 1.3721552102e+000	 3.2740937798e+000	-5.4735335355e-001
 1.3394791570e+000	 3.2875972363e+000	-4.1891370851e-001
 1.3067362190e+000	 3.3007484688e+000	-2.5592948648e-001
 1.6419781702e+000	 3.1756153244e+000	-3.6957124339e-001
 1.6098105358e+000	 3.1920424557e+000	-4.8200083415e-001
 1.5775310542e+000	 3.2081179487e+000	-5.6642303065e-001
 1.5451453210e+000	 3.2238410223e+000	-6.2242406484e-001
 1.5126589274e+000	 3.2392110103e+000	-6.4962244370e-001
 1.4800774579e+000	 3.2542273612e+000	-6.4767268242e-001
 1.4474064873e+000	 3.2688896373e+000	-6.1626893440e-001
 1.4146515774e+000	 3.2831975138e+000	-5.5514850742e-001
 1.3818182750e+000	 3.2971507783e+000	-4.6409525596e-001
 1.3489121088e+000	 3.3107493295e+000	-3.4294284003e-001
 1.3159385867e+000	 3.3239931763e+000	-1.9157784174e-001
 1.6534605350e+000	 3.1978224246e+000	-4.0555470882e-001
 1.6210679521e+000	 3.2143644309e+000	-4.8898772605e-001
 1.5885627399e+000	 3.2305523400e+000	-5.4927408144e-001
 1.5559505330e+000	 3.2463853651e+000	-5.8593923425e-001
 1.5232369618e+000	 3.2618628356e+000	-5.9853652017e-001
 1.4904276499e+000	 3.2769841959e+000	-5.8665108438e-001
 1.4575282109e+000	 3.2917490054e+000	-5.4990371433e-001
 1.4245442458e+000	 3.3061569370e+000	-4.8795456093e-001
 1.3914813399e+000	 3.3202077768e+000	-4.0050673767e-001
 1.3583450606e+000	 3.3339014227e+000	-2.8730978761e-001
 1.3251409544e+000	 3.3472378838e+000	-1.4816300885e-001
 1.6649428998e+000	 3.2200295248e+000	-4.5256044842e-001
 1.6323253685e+000	 3.2366864061e+000	-5.0817883065e-001
 1.5995944256e+000	 3.2529867312e+000	-5.4545485974e-001
 1.5667557450e+000	 3.2689297079e+000	-5.6385166247e-001
 1.5338149963e+000	 3.2845146608e+000	-5.6285588120e-001
 1.5007778420e+000	 3.2997410306e+000	-5.4198180934e-001
 1.4676499346e+000	 3.3146083735e+000	-5.0077542907e-001
 1.4344369141e+000	 3.3291163602e+000	-4.3881833978e-001
 1.4011444047e+000	 3.3432647752e+000	-3.5573156608e-001
 1.3677780124e+000	 3.3570535159e+000	-2.5117923494e-001
 1.3343433222e+000	 3.3704825914e+000	-1.2487211201e-001
 1.6764252647e+000	 3.2422366249e+000	-5.0962376063e-001
 1.6435827848e+000	 3.2590083813e+000	-5.3861753614e-001
 1.6106261113e+000	 3.2754211225e+000	-5.5401852894e-001
 1.5775609571e+000	 3.2914740508e+000	-5.5522595142e-001
 1.5443930308e+000	 3.3071664861e+000	-5.4165820777e-001
 1.5111280340e+000	 3.3224978653e+000	-5.1275723405e-001
 1.4777716583e+000	 3.3374677416e+000	-4.6799274323e-001
 1.4443295825e+000	 3.3520757833e+000	-4.0686636305e-001
 1.4108074696e+000	 3.3663217737e+000	-3.2891565511e-001
 1.3772109643e+000	 3.3802056091e+000	-2.3371800421e-001
 1.3435456899e+000	 3.3937272989e+000	-1.2089436743e-001
 1.6879076295e+000	 3.2644437251e+000	-5.7578071795e-001
 1.6548402011e+000	 3.2813303565e+000	-5.7934830092e-001
 1.6216577970e+000	 3.2978555137e+000	-5.7401958024e-001
 1.5883661691e+000	 3.3140183936e+000	-5.5912825025e-001
 1.5549710652e+000	 3.3298183113e+000	-5.3402290928e-001
 1.5214782260e+000	 3.3452547000e+000	-4.9807160677e-001
 1.4878933820e+000	 3.3603271097e+000	-4.5066629801e-001
 1.4542222509e+000	 3.3750352065e+000	-3.9122719368e-001
 1.4204705345e+000	 3.3893787721e+000	-3.1920699223e-001
 1.3866439161e+000	 3.4033577023e+000	-2.3409498339e-001
 1.3527480577e+000	 3.4169720064e+000	-1.3542101213e-001
 1.6993899943e+000	 3.2866508253e+000	-6.5006814080e-001
 1.6660976175e+000	 3.3036523318e+000	-6.2941661736e-001
 1.6326894827e+000	 3.3202899050e+000	-6.0451378788e-001
 1.5991713811e+000	 3.3365627364e+000	-5.7462620314e-001
 1.5655490997e+000	 3.3524701366e+000	-5.3903106516e-001
 1.5318284180e+000	 3.3680115347e+000	-4.9702098399e-001
 1.4980151057e+000	 3.3831864778e+000	-4.4790864440e-001
 1.4641149192e+000	 3.3979946297e+000	-3.9103136947e-001
 1.4301335993e+000	 3.4124357706e+000	-3.2575556841e-001
 1.3960768679e+000	 3.4265097956e+000	-2.5148105645e-001
 1.3619504254e+000	 3.4402167139e+000	-1.6764523572e-001
 1.7108723591e+000	 3.3088579254e+000	-7.3152357237e-001
 1.6773550338e+000	 3.3259743070e+000	-6.8786897713e-001
 1.6437211684e+000	 3.3427242962e+000	-6.4455816605e-001
 1.6099765932e+000	 3.3591070792e+000	-6.0078889904e-001
 1.5761271341e+000	 3.3751219618e+000	-5.5576536883e-001
 1.5421786100e+000	 3.3907683694e+000	-5.0870316980e-001
 1.5081368294e+000	 3.4060458459e+000	-4.5883417912e-001
 1.4740075876e+000	 3.4209540529e+000	-4.0541133674e-001
 1.4397966642e+000	 3.4354927690e+000	-3.4771331084e-001
 1.4055098197e+000	 3.4496618888e+000	-2.8504903638e-001
 1.3711527931e+000	 3.4634614215e+000	-2.1676211482e-001
 1.7223547240e+000	 3.3310650256e+000	-8.1918525460e-001
 1.6886124501e+000	 3.3482962822e+000	-7.5375283791e-001
 1.6547528541e+000	 3.3651586875e+000	-6.9321092756e-001
 1.6207818052e+000	 3.3816514220e+000	-6.3668682360e-001
 1.5867051686e+000	 3.3977737871e+000	-5.8331007393e-001
 1.5525288020e+000	 3.4135252041e+000	-5.3221765762e-001
 1.5182585531e+000	 3.4289052139e+000	-4.8255908310e-001
 1.4839002560e+000	 3.4439134760e+000	-4.3350138676e-001
 1.4494597290e+000	 3.4585497675e+000	-3.8423401846e-001
 1.4149427715e+000	 3.4728139820e+000	-3.3397360087e-001
 1.3803551609e+000	 3.4867061290e+000	-2.8196855021e-001
 1.2883314835e+000	 3.2542590537e+000	-4.5070562292e-001
 1.2559891402e+000	 3.2668779101e+000	-5.0457978479e-001
 1.2235915677e+000	 3.2791498404e+000	-4.5076921198e-001
 1.1911440823e+000	 3.2910751701e+000	-3.7542909525e-001
 1.1586519699e+000	 3.3026543284e+000	-3.0893234722e-001
 1.1261204840e+000	 3.3138878460e+000	-2.5307854732e-001
 1.0935548431e+000	 3.3247763542e+000	-2.0955127236e-001
 1.0609602284e+000	 3.3353205834e+000	-1.7991907057e-001
 1.0283417820e+000	 3.3455213614e+000	-1.6563664924e-001
 9.9570460419e-001	 3.3553796121e+000	-1.6804626679e-001
 9.6305375194e-001	 3.3648963537e+000	-1.8837931973e-001
 1.2975338512e+000	 3.2775037612e+000	-3.4203298504e-001
 1.2649604912e+000	 3.2902127523e+000	-4.0287656800e-001
 1.2323315075e+000	 3.3025723392e+000	-4.0195260687e-001
 1.1996522543e+000	 3.3145828499e+000	-3.3849974864e-001
 1.1669280554e+000	 3.3262447164e+000	-2.8118642004e-001
 1.1341642017e+000	 3.3375584734e+000	-2.3179049806e-001
 1.1013659491e+000	 3.3485247567e+000	-1.9197458495e-001
 1.0685385158e+000	 3.3591443018e+000	-1.6328701417e-001
 1.0356870804e+000	 3.3694179425e+000	-1.4716307041e-001
 1.0028167799e+000	 3.3793466093e+000	-1.4492641427e-001
 9.6993270731e-001	 3.3889313276e+000	-1.5779070201e-001
 1.3067362190e+000	 3.3007484688e+000	-2.5592948648e-001
 1.2739318422e+000	 3.3135475946e+000	-3.2278241495e-001
 1.2410714472e+000	 3.3259948381e+000	-3.6832272207e-001
 1.2081604263e+000	 3.3380905297e+000	-3.1537460924e-001
 1.1752041409e+000	 3.3498351045e+000	-2.6594006015e-001
 1.1422079195e+000	 3.3612291009e+000	-2.2177542739e-001
 1.1091770551e+000	 3.3722731592e+000	-1.8452243582e-001
 1.0761168031e+000	 3.3829680203e+000	-1.5570922186e-001
 1.0430323789e+000	 3.3933145237e+000	-1.3675158737e-001
 1.0099289557e+000	 3.4033136065e+000	-1.2895445848e-001
 9.7681166268e-001	 3.4129663016e+000	-1.3351353972e-001
 1.3159385867e+000	 3.3239931763e+000	-1.9157784174e-001
 1.2829031932e+000	 3.3368824368e+000	-2.6353437582e-001
 1.2498113870e+000	 3.3494173369e+000	-3.4938518346e-001
 1.2166685983e+000	 3.3615982095e+000	-3.0559700611e-001
 1.1834802264e+000	 3.3734254925e+000	-2.6277375147e-001
 1.1502516372e+000	 3.3848997284e+000	-2.2265041374e-001
 1.1169881611e+000	 3.3960215617e+000	-1.8684792582e-001
 1.0836950905e+000	 3.4067917387e+000	-1.5687423335e-001
 1.0503776773e+000	 3.4172111048e+000	-1.3412558386e-001
 1.0170411314e+000	 3.4272806038e+000	-1.1988802133e-001
 9.8369061805e-001	 3.4370012755e+000	-1.1533907640e-001
 1.3251409544e+000	 3.3472378838e+000	-1.4816300885e-001
 1.2918745442e+000	 3.3602172790e+000	-2.2437081397e-001
 1.2585513268e+000	 3.3728398358e+000	-3.1161953237e-001
 1.2251767703e+000	 3.3851058893e+000	-3.0870980234e-001
 1.1917563119e+000	 3.3970158806e+000	-2.7126666366e-001
 1.1582953550e+000	 3.4085703558e+000	-2.3403040078e-001
 1.1247992672e+000	 3.4197699643e+000	-1.9860122852e-001
 1.0912733778e+000	 3.4306154572e+000	-1.6646689661e-001
 1.0577229757e+000	 3.4411076860e+000	-1.3900401564e-001
 1.0241533072e+000	 3.4512476010e+000	-1.1747958894e-001
 9.9056957342e-001	 3.4610362495e+000	-1.0305274044e-001
 1.3343433222e+000	 3.3704825914e+000	-1.2487211201e-001
 1.3008458952e+000	 3.3835521212e+000	-2.0453136060e-001
 1.2672912665e+000	 3.3962623346e+000	-2.9163502844e-001
 1.2336849423e+000	 3.4086135690e+000	-3.2425541115e-001
 1.2000323974e+000	 3.4206062687e+000	-2.9099669745e-001
 1.1663390727e+000	 3.4322409833e+000	-2.5552827104e-001
 1.1326103732e+000	 3.4435183668e+000	-2.1942969109e-001
 1.0988516651e+000	 3.4544391756e+000	-1.8416849513e-001
 1.0650682742e+000	 3.4650042671e+000	-1.5110156321e-001
 1.0312654829e+000	 3.4752145982e+000	-1.2147668871e-001
 9.9744852879e-001	 3.4850712234e+000	-9.6434345550e-002
 1.3435456899e+000	 3.3937272989e+000	-1.2089436743e-001
 1.3098172462e+000	 3.4068869634e+000	-2.0325687138e-001
 1.2760312063e+000	 3.4196848335e+000	-2.8950575831e-001
 1.2421931143e+000	 3.4321212488e+000	-3.5177581126e-001
 1.2083084829e+000	 3.4441966567e+000	-3.2154052810e-001
 1.1743827904e+000	 3.4559116108e+000	-2.8675491650e-001
 1.1404214792e+000	 3.4672667693e+000	-2.4897793117e-001
 1.1064299525e+000	 3.4782628941e+000	-2.0965687005e-001
 1.0724135726e+000	 3.4889008483e+000	-1.7012877822e-001
 1.0383776586e+000	 3.4991815955e+000	-1.3162205916e-001
 1.0043274842e+000	 3.5091061974e+000	-9.5258283076e-002
 1.3527480577e+000	 3.4169720064e+000	-1.3542101213e-001
 1.3187885972e+000	 3.4302218056e+000	-2.1978938476e-001
 1.2847711461e+000	 3.4431073324e+000	-3.0452376830e-001
 1.2507012864e+000	 3.4556289286e+000	-3.8859387629e-001
 1.2165845684e+000	 3.4677870448e+000	-3.6247364710e-001
 1.1824265082e+000	 3.4795822382e+000	-3.2731930630e-001
 1.1482325852e+000	 3.4910151719e+000	-2.8688792965e-001
 1.1140082398e+000	 3.5020866125e+000	-2.4260653720e-001
 1.0797588711e+000	 3.5127974294e+000	-1.9579222389e-001
 1.0454898344e+000	 3.5231485927e+000	-1.4765381283e-001
 1.0112064395e+000	 3.5331411713e+000	-9.9293706431e-002
 1.3619504254e+000	 3.4402167139e+000	-1.6764523572e-001
 1.3277599482e+000	 3.4535566479e+000	-2.5337208206e-001
 1.2935110859e+000	 3.4665298312e+000	-3.3598146147e-001
 1.2592094584e+000	 3.4791366084e+000	-4.1433910703e-001
 1.2248606539e+000	 3.4913774329e+000	-4.1337040213e-001
 1.1904702259e+000	 3.5032528657e+000	-3.7682855169e-001
 1.1560436912e+000	 3.5147635744e+000	-3.3279911976e-001
 1.1215865272e+000	 3.5259103310e+000	-2.8268879947e-001
 1.0871041695e+000	 3.5366940106e+000	-2.2779460977e-001
 1.0526020101e+000	 3.5471155899e+000	-1.6930559254e-001
 1.0180853949e+000	 3.5571761453e+000	-1.0830470805e-001
 1.3711527931e+000	 3.4634614215e+000	-2.1676211482e-001
 1.3367312992e+000	 3.4768914901e+000	-3.0324924908e-001
 1.3022510256e+000	 3.4899523301e+000	-3.8317158566e-001
 1.2677176304e+000	 3.5026442882e+000	-4.5528954545e-001
 1.2331367394e+000	 3.5149678209e+000	-4.7380403545e-001
 1.1985139437e+000	 3.5269234932e+000	-4.3488796836e-001
 1.1638547973e+000	 3.5385119769e+000	-3.8634847260e-001
 1.1291648145e+000	 3.5497340494e+000	-3.2957185459e-001
 1.0944494679e+000	 3.5605905918e+000	-2.6583492106e-001
 1.0597141859e+000	 3.5710825871e+000	-1.9630672138e-001
 1.0249643503e+000	 3.5812111192e+000	-1.2205048922e-001
 1.3803551609e+000	 3.4867061290e+000	-2.8196855021e-001
 1.3457026502e+000	 3.5002263323e+000	-3.6866623929e-001
 1.3109909654e+000	 3.5133748290e+000	-4.4538722201e-001
 1.2762258024e+000	 3.5261519680e+000	-5.1078524948e-001
 1.2414128249e+000	 3.5385582090e+000	-5.4334672077e-001
 1.2065576614e+000	 3.5505941207e+000	-5.0110113634e-001
 1.1716659033e+000	 3.5622603795e+000	-4.4717057915e-001
 1.1367431019e+000	 3.5735577679e+000	-3.8292089868e-001
 1.1017947664e+000	 3.5844871729e+000	-3.0960854275e-001
 1.0668263616e+000	 3.5950495844e+000	-2.2838234673e-001
 1.0318433056e+000	 3.6052460932e+000	-1.4028552313e-001
 9.6305375194e-001	 3.3648963537e+000	-1.8837931973e-001
 9.3039423656e-001	 3.3740726970e+000	-2.8156082314e-001
 8.9773102186e-001	 3.3829098440e+000	-3.5581275957e-001
 8.6506902227e-001	 3.3914090857e+000	-4.1182223822e-001
 8.3241310102e-001	 3.3995718009e+000	-4.5021049796e-001
 7.9976806841e-001	 3.4073994536e+000	-4.7153487937e-001
 7.6713868010e-001	 3.4148935921e+000	-4.7629089438e-001
 7.3452963556e-001	 3.4220558462e+000	-4.6491438467e-001
 7.0194557643e-001	 3.4288879258e+000	-4.3778375996e-001
 6.6939108513e-001	 3.4353916189e+000	-3.9522230716e-001
 6.3687068343e-001	 3.4415687894e+000	-3.3750056179e-001
 9.6993270731e-001	 3.3889313276e+000	-1.5779070201e-001
 9.3703990968e-001	 3.3981732162e+000	-2.3054607868e-001
 9.0414338630e-001	 3.4070734857e+000	-2.8832173812e-001
 8.7124808671e-001	 3.4156334363e+000	-3.3177795060e-001
 8.3835890888e-001	 3.4238544566e+000	-3.6150436643e-001
 8.0548069746e-001	 3.4317380212e+000	-3.7802213471e-001
 7.7261824210e-001	 3.4392856892e+000	-3.8178612396e-001
 7.3977627581e-001	 3.4464991022e+000	-3.7318723498e-001
 7.0695947340e-001	 3.4533799824e+000	-3.5255479695e-001
 6.7417245002e-001	 3.4599301304e+000	-3.2015903718e-001
 6.4141975974e-001	 3.4661514237e+000	-2.7621361567e-001
 9.7681166268e-001	 3.4129663016e+000	-1.3351353972e-001
 9.4368558279e-001	 3.4222737355e+000	-1.8628209616e-001
 9.1055575074e-001	 3.4312371274e+000	-2.2799954346e-001
 8.7742715115e-001	 3.4398577869e+000	-2.5929917376e-001
 8.4430471674e-001	 3.4481371123e+000	-2.8073889645e-001
 8.1119332652e-001	 3.4560765887e+000	-2.9280350467e-001
 7.7809780410e-001	 3.4636777863e+000	-2.9590704771e-001
 7.4502291606e-001	 3.4709423583e+000	-2.9039529938e-001
 7.1197337037e-001	 3.4778720390e+000	-2.7654831277e-001
 6.7895381492e-001	 3.4844686420e+000	-2.5458305166e-001
 6.4596883605e-001	 3.4907340579e+000	-2.2465608902e-001
 9.8369061805e-001	 3.4370012755e+000	-1.1533907640e-001
 9.5033125591e-001	 3.4463742548e+000	-1.4856797516e-001
 9.1696811518e-001	 3.4554007692e+000	-1.7465455757e-001
 8.8360621559e-001	 3.4640821375e+000	-1.9420498257e-001
 8.5025052460e-001	 3.4724197680e+000	-2.0774524963e-001
 8.1690595558e-001	 3.4804151562e+000	-2.1572361394e-001
 7.8357736610e-001	 3.4880698834e+000	-2.1851311150e-001
 7.5026955631e-001	 3.4953856143e+000	-2.1641418401e-001
 7.1698726735e-001	 3.5023640956e+000	-2.0965739323e-001
 6.8373517981e-001	 3.5090071536e+000	-1.9840621502e-001
 6.5051791236e-001	 3.5153166921e+000	-1.8275990288e-001
 9.9056957342e-001	 3.4610362495e+000	-1.0305274044e-001
 9.5697692902e-001	 3.4704747740e+000	-1.1719704755e-001
 9.2338047962e-001	 3.4795644109e+000	-1.2808941345e-001
 8.8978528004e-001	 3.4883064882e+000	-1.3630869320e-001
 8.5619633247e-001	 3.4967024237e+000	-1.4234879087e-001
 8.2261858464e-001	 3.5047537237e+000	-1.4662122445e-001
 7.8905692810e-001	 3.5124619805e+000	-1.4945780463e-001
 7.5551619657e-001	 3.5198288704e+000	-1.5111341709e-001
 7.2200116432e-001	 3.5268561522e+000	-1.5176889763e-001
 6.8851654471e-001	 3.5335456651e+000	-1.5153398975e-001
 6.5506698867e-001	 3.5398993263e+000	-1.5045037423e-001
 9.9744852879e-001	 3.4850712234e+000	-9.6434345550e-002
 9.6362260214e-001	 3.4945752933e+000	-9.1957076364e-002
 9.2979284406e-001	 3.5037280527e+000	-8.8101193402e-002
 8.9596434448e-001	 3.5125308388e+000	-8.5418061677e-002
 8.6214214033e-001	 3.5209850795e+000	-8.4369288216e-002
 8.2833121370e-001	 3.5290922913e+000	-8.5329437526e-002
 7.9453649010e-001	 3.5368540775e+000	-8.8588865180e-002
 7.6076283682e-001	 3.5442721264e+000	-9.4356658524e-002
 7.2701506130e-001	 3.5513482089e+000	-1.0276367356e-001
 6.9329790960e-001	 3.5580841767e+000	-1.1386565713e-001
 6.5961606499e-001	 3.5644819605e+000	-1.2764644370e-001
 1.0043274842e+000	 3.5091061974e+000	-9.5258283076e-002
 9.7026827526e-001	 3.5186758126e+000	-7.2630446529e-002
 9.3620520850e-001	 3.5278916944e+000	-5.4481619074e-002
 9.0214340892e-001	 3.5367551894e+000	-4.1335474329e-002
 8.6808794820e-001	 3.5452677352e+000	-3.3621104552e-002
 8.3404384276e-001	 3.5534308588e+000	-3.1675887745e-002
 8.0001605210e-001	 3.5612461746e+000	-3.5748477028e-002
 7.6600947708e-001	 3.5687153825e+000	-4.6001900851e-002
 7.3202895827e-001	 3.5758402655e+000	-6.2516762692e-002
 6.9807927450e-001	 3.5826226883e+000	-8.5294528958e-002
 6.6416514130e-001	 3.5890645947e+000	-1.1426089394e-001
 1.0112064395e+000	 3.5331411713e+000	-9.9293706431e-002
 9.7691394838e-001	 3.5427763318e+000	-5.8994347784e-002
 9.4261757294e-001	 3.5520553362e+000	-2.7017233827e-002
 9.0832247337e-001	 3.5609795400e+000	-3.8581303937e-003
 8.7403375606e-001	 3.5695503909e+000	 1.0086618556e-002
 8.3975647182e-001	 3.5777694263e+000	 1.4517071130e-002
 8.0549561411e-001	 3.5856382717e+000	 9.2265412792e-003
 7.7125611733e-001	 3.5931586385e+000	-5.9016620084e-003
 7.3704285525e-001	 3.6003323221e+000	-3.0897598318e-002
 7.0286063939e-001	 3.6071611998e+000	-6.5708150530e-002
 6.6871421761e-001	 3.6136472289e+000	-1.1020055909e-001
 1.0180853949e+000	 3.5571761453e+000	-1.0830470805e-001
 9.8355962149e-001	 3.5668768511e+000	-5.0820950195e-002
 9.4902993738e-001	 3.5762189779e+000	-5.4895776681e-003
 9.1450153782e-001	 3.5852038906e+000	 2.7221782725e-002
 8.7997956393e-001	 3.5938330466e+000	 4.6949784464e-002
 8.4546910088e-001	 3.6021079939e+000	 5.3432187733e-002
 8.1097517611e-001	 3.6100303688e+000	 4.6504555240e-002
 7.7650275759e-001	 3.6176018945e+000	 2.6096829704e-002
 7.4205675223e-001	 3.6248243787e+000	-7.7701947973e-003
 7.0764200429e-001	 3.6316997114e+000	-5.4988495510e-002
 6.7326329392e-001	 3.6382298631e+000	-1.1536652574e-001
 1.0249643503e+000	 3.5812111192e+000	-1.2205048922e-001
 9.9020529461e-001	 3.5909773704e+000	-4.7877572601e-002
 9.5544230183e-001	 3.6003826196e+000	 1.0324644853e-002
 9.2068060226e-001	 3.6094282412e+000	 5.2116921276e-002
 8.8592537179e-001	 3.6181157023e+000	 7.7169172158e-002
 8.5118172995e-001	 3.6264465614e+000	 8.5257141878e-002
 8.1645473811e-001	 3.6344224659e+000	 7.6258940445e-002
 7.8174939785e-001	 3.6420451506e+000	 5.0151458125e-002
 7.4707064920e-001	 3.6493164353e+000	 7.0066705940e-003
 7.1242336919e-001	 3.6562382230e+000	-5.3012152873e-002
 6.7781237024e-001	 3.6628124973e+000	-1.2965432577e-001
 1.0318433056e+000	 3.6052460932e+000	-1.4028552313e-001
 9.9685096773e-001	 3.6150778896e+000	-4.9926844319e-002
 9.6185466627e-001	 3.6245462614e+000	 2.0653403460e-002
 9.2685966671e-001	 3.6336525918e+000	 7.1044623706e-002
 8.9187117966e-001	 3.6423983581e+000	 1.0095027373e-001
 8.5689435901e-001	 3.6507851289e+000	 1.1018438019e-001
 8.2193430012e-001	 3.6588145630e+000	 9.8667915570e-002
 7.8699603810e-001	 3.6664884066e+000	 6.6425048824e-002
 7.5208454618e-001	 3.6738084919e+000	 1.3579283094e-002
 7.1720473409e-001	 3.6807767345e+000	-5.9650506398e-002
 6.8236144655e-001	 3.6873951316e+000	-1.5295412158e-001
 6.3687068343e-001	 3.4415687894e+000	-3.3750056179e-001
 6.0438883109e-001	 3.4474213756e+000	-1.2796935203e-001
 5.7194992458e-001	 3.4529513874e+000	-1.2866775618e-001
 5.3955829594e-001	 3.4581609051e+000	-1.0991561754e-001
 5.0721821157e-001	 3.4630520767e+000	-7.6249754071e-002
 4.7493387121e-001	 3.4676271163e+000	-3.1650010689e-002
 4.4270940692e-001	 3.4718883019e+000	 2.0459170328e-002
 4.1054888215e-001	 3.4758379731e+000	 7.7205969334e-002
 3.7845629087e-001	 3.4794785293e+000	 1.3626724024e-001
 3.4643555681e-001	 3.4828124275e+000	 1.9586343484e-001
 3.1449053264e-001	 3.4858421801e+000	 2.5475244477e-001
 6.4141975974e-001	 3.4661514237e+000	-2.7621361567e-001
 6.0870589417e-001	 3.4720458140e+000	-1.4354629784e-002
 5.7603528119e-001	 3.4776153259e+000	-4.7133348845e-002
 5.4341228377e-001	 3.4828620544e+000	-5.5996596613e-002
 5.1084119880e-001	 3.4877881630e+000	-4.5802355943e-002
 4.7832625601e-001	 3.4923958815e+000	-2.0841024097e-002
 4.4587161697e-001	 3.4966875041e+000	 1.5163250501e-002
 4.1348137416e-001	 3.5006653872e+000	 5.9049991207e-002
 3.8115955010e-001	 3.5043319474e+000	 1.0821861691e-001
 3.4891009650e-001	 3.5076896591e+000	 1.6062350976e-001
 3.1673689358e-001	 3.5107410529e+000	 2.1476797171e-001
 6.4596883605e-001	 3.4907340579e+000	-2.2465608902e-001
 6.1302295724e-001	 3.4966702524e+000	 9.0135146479e-002
 5.8012063779e-001	 3.5022792644e+000	 2.8682844384e-002
 5.4726627160e-001	 3.5075632037e+000	-4.7112425931e-003
 5.1446418603e-001	 3.5125242492e+000	-1.5229339653e-002
 4.8171864080e-001	 3.5171646466e+000	-7.4750891651e-003
 4.4903382702e-001	 3.5214867062e+000	 1.4525343666e-002
 4.1641386618e-001	 3.5254928013e+000	 4.7320893567e-002
 3.8386280932e-001	 3.5291853654e+000	 8.8031988145e-002
 3.5138463619e-001	 3.5325668907e+000	 1.3434575480e-001
 3.1898325453e-001	 3.5356399256e+000	 1.8451008726e-001
 6.5051791236e-001	 3.5153166921e+000	-1.8275990288e-001
 6.1734002033e-001	 3.5212946908e+000	 1.8391927743e-001
 5.8420599440e-001	 3.5269432028e+000	 9.7307666902e-002
 5.5112025943e-001	 3.5322643530e+000	 4.2575891525e-002
 5.1808717325e-001	 3.5372603355e+000	 1.4214318857e-002
 4.8511102560e-001	 3.5419334117e+000	 7.3032829906e-003
 4.5219603707e-001	 3.5462859084e+000	 1.7512207473e-002
 4.1934635820e-001	 3.5503202154e+000	 4.1097424841e-002
 3.8656606854e-001	 3.5540387835e+000	 7.4898735144e-002
 3.5385917588e-001	 3.5574441224e+000	 1.1633474793e-001
 3.2122961548e-001	 3.5605387983e+000	 1.6339705404e-001
 6.5506698867e-001	 3.5398993263e+000	-1.5045037423e-001
 6.2165708341e-001	 3.5459191292e+000	 2.6542328824e-001
 5.8829135100e-001	 3.5516071413e+000	 1.5727372298e-001
 5.5497424726e-001	 3.5569655023e+000	 8.4505466882e-002
 5.2171016048e-001	 3.5619964217e+000	 4.1278228887e-002
 4.8850341040e-001	 3.5667021768e+000	 2.2353456461e-002
 4.5535824712e-001	 3.5710851106e+000	 2.3093684652e-002
 4.2227885021e-001	 3.5751476295e+000	 3.9460549374e-002
 3.8926932776e-001	 3.5788922016e+000	 6.8011507943e-002
 3.5633371558e-001	 3.5823213540e+000	 1.0589531201e-001
 3.2347597643e-001	 3.5854376710e+000	 1.5084628006e-001
 6.5961606499e-001	 3.5644819605e+000	-1.2764644370e-001
 6.2597414649e-001	 3.5705435676e+000	 3.1520497164e-001
 5.9237670761e-001	 3.5762710798e+000	 2.0711917913e-001
 5.5882823509e-001	 3.5816666517e+000	 1.1972317896e-001
 5.2533314771e-001	 3.5867325080e+000	 6.4716426867e-002
 4.9189579519e-001	 3.5914709419e+000	 3.6538536920e-002
 4.5852045717e-001	 3.5958843127e+000	 3.0242596628e-002
 4.2521134223e-001	 3.5999750436e+000	 4.1493371022e-002
 3.9197258699e-001	 3.6037456196e+000	 6.6564181654e-002
 3.5880825527e-001	 3.6071985856e+000	 1.0233250643e-001
 3.2572233738e-001	 3.6103365437e+000	 1.4627434820e-001
 6.6416514130e-001	 3.5890645947e+000	-1.1426089394e-001
 6.3029120957e-001	 3.5951680060e+000	 2.9139901437e-001
 5.9646206422e-001	 3.6009350183e+000	 2.4538757359e-001
 5.6268222292e-001	 3.6063678010e+000	 1.4687958515e-001
 5.2895613494e-001	 3.6114685943e+000	 8.3287224743e-002
 4.9528817999e-001	 3.6162397070e+000	 4.8725243486e-002
 4.6168266723e-001	 3.6206835149e+000	 3.7934641515e-002
 4.2814383425e-001	 3.6248024577e+000	 4.6281059877e-002
 3.9467584621e-001	 3.6285990377e+000	 6.9751814518e-002
 3.6128279496e-001	 3.6320758172e+000	 1.0495161897e-001
 3.2796869832e-001	 3.6352354164e+000	 1.4909704447e-001
 6.6871421761e-001	 3.6136472289e+000	-1.1020055909e-001
 6.3460827265e-001	 3.6197924444e+000	 2.5700448988e-001
 6.0054742082e-001	 3.6255989568e+000	 2.7062763364e-001
 5.6653621075e-001	 3.6310689503e+000	 1.6462993944e-001
 5.3257912217e-001	 3.6362046805e+000	 9.5753064551e-002
 4.9868056479e-001	 3.6410084722e+000	 5.7783785816e-002
 4.6484487728e-001	 3.6454827170e+000	 4.5148296266e-002
 4.3107632627e-001	 3.6496298718e+000	 5.2910781993e-002
 3.9737910543e-001	 3.6534524558e+000	 7.6770607656e-002
 3.6375733466e-001	 3.6569530489e+000	 1.1305815802e-001
 3.3021505927e-001	 3.6601342892e+000	 1.5872938511e-001
 6.7326329392e-001	 3.6382298631e+000	-1.1536652574e-001
 6.3892533573e-001	 3.6444168828e+000	 2.1211911419e-001
 6.0463277743e-001	 3.6502628952e+000	 2.8139310030e-001
 5.7039019858e-001	 3.6557700996e+000	 1.7163403367e-001
 5.3620210939e-001	 3.6609407668e+000	 1.0088037889e-001
 5.0207294958e-001	 3.6657772373e+000	 6.2587746183e-002
 4.6800708733e-001	 3.6702819192e+000	 5.0864722796e-002
 4.3400881828e-001	 3.6744572859e+000	 6.0471631950e-002
 4.0008236465e-001	 3.6783058738e+000	 8.6817866461e-002
 3.6623187435e-001	 3.6818302805e+000	 1.2595784517e-001
 3.3246142022e-001	 3.6850331619e+000	 1.7458564259e-001
 6.7781237024e-001	 3.6628124973e+000	-1.2965432577e-001
 6.4324239882e-001	 3.6690413212e+000	 1.5684583873e-001
 6.0871813404e-001	 3.6749268337e+000	 2.7624256003e-001
 5.7424418641e-001	 3.6804712489e+000	 1.6655604531e-001
 5.3982509662e-001	 3.6856768530e+000	 9.7439456997e-002
 5.0546533438e-001	 3.6905460024e+000	 6.2013966302e-002
 4.7116929738e-001	 3.6950811213e+000	 5.4067677881e-002
 4.3694131030e-001	 3.6992847000e+000	 6.8054568138e-002
 4.0278562387e-001	 3.7031592919e+000	 9.9091963542e-002
 3.6870641404e-001	 3.7067075121e+000	 1.4295660801e-001
 3.3470778117e-001	 3.7099320346e+000	 1.9607937059e-001
 6.8236144655e-001	 3.6873951316e+000	-1.5295412158e-001
 6.4755946190e-001	 3.6936657595e+000	 9.1292675850e-002
 6.1280349065e-001	 3.6995907722e+000	 2.5373928331e-001
 5.7809817425e-001	 3.7051723983e+000	 1.4806439125e-001
 5.4344808385e-001	 3.7104129393e+000	 8.4204316218e-002
 5.0885771918e-001	 3.7153147675e+000	 5.4942438676e-002
 4.7433150743e-001	 3.7198803235e+000	 5.3743426663e-002
 4.3987380232e-001	 3.7241121140e+000	 7.4752350634e-002
 4.0548888310e-001	 3.7280127100e+000	 1.1279230315e-001
 3.7118095373e-001	 3.7315847437e+000	 1.6336057328e-001
 3.3695414212e-001	 3.7348309073e+000	 2.2262342791e-001
 3.1449053264e-001	 3.4858421801e+000	 2.5475244477e-001
 2.8262499937e-001	 3.4885703533e+000	 3.1404427727e-001
 2.5084266574e-001	 3.4909995642e+000	 3.7046939086e-001
 2.1914716763e-001	 3.4931324794e+000	 4.2379490529e-001
 1.8754206761e-001	 3.4949718129e+000	 4.7430360665e-001
 1.5603085452e-001	 3.4965203235e+000	 5.2278330549e-001
 1.2461694309e-001	 3.4977808132e+000	 5.7051538246e-001
 9.3303673673e-002	 3.4987561253e+000	 6.1926257268e-001
 6.2094311944e-002	 3.4994491419e+000	 6.7125604004e-001
 3.0992048758e-002	 3.4998627820e+000	 7.2918179328e-001
 0.0000000000e+000	 3.5000000000e+000	 7.9616649500e-001
 3.1673689358e-001	 3.5107410529e+000	 2.1476797171e-001
 2.8464374937e-001	 3.5134887129e+000	 2.5576036423e-001
 2.5263439907e-001	 3.5159352753e+000	 2.9509085246e-001
 2.2071250454e-001	 3.5180834257e+000	 3.3239471755e-001
 1.8888165380e-001	 3.5199358973e+000	 3.6783345054e-001
 1.5714536062e-001	 3.5214954686e+000	 4.0208403815e-001
 1.2550706412e-001	 3.5227649619e+000	 4.3632741517e-001
 9.3970128485e-002	 3.5237472405e+000	 4.7223613559e-001
 6.2537842743e-002	 3.5244452072e+000	 5.1196131480e-001
 3.1213420535e-002	 3.5248618019e+000	 5.5811889542e-001
 0.0000000000e+000	 3.5250000000e+000	 6.1377528922e-001
 3.1898325453e-001	 3.5356399256e+000	 1.8451008726e-001
 2.8666249936e-001	 3.5384070726e+000	 2.0994902003e-001
 2.5442613239e-001	 3.5408709865e+000	 2.3459869043e-001
 2.2227784145e-001	 3.5430343720e+000	 2.5796184594e-001
 1.9022124000e-001	 3.5448999816e+000	 2.8007834355e-001
 1.5825986672e-001	 3.5464706138e+000	 3.0151435695e-001
 1.2639718514e-001	 3.5477491106e+000	 3.2335072885e-001
 9.4636583296e-002	 3.5487383557e+000	 3.4717052175e-001
 6.2981373542e-002	 3.5494412725e+000	 3.7504582048e-001
 3.1434792311e-002	 3.5498608218e+000	 4.0952384006e-001
 0.0000000000e+000	 3.5500000000e+000	 4.5361239237e-001
 3.2122961548e-001	 3.5605387983e+000	 1.6339705404e-001
 2.8868124936e-001	 3.5633254323e+000	 1.7609398119e-001
 2.5621786572e-001	 3.5658066977e+000	 1.8854237032e-001
 2.2384317836e-001	 3.5679853183e+000	 2.0011168996e-001
 1.9156082620e-001	 3.5698640660e+000	 2.1071977589e-001
 1.5937437283e-001	 3.5714457590e+000	 2.2082195312e-001
 1.2728730616e-001	 3.5727332592e+000	 2.3139928147e-001
 9.5303038108e-002	 3.5737294709e+000	 2.4394597877e-001
 6.3424904341e-002	 3.5744373378e+000	 2.6045607632e-001
 3.1656164088e-002	 3.5748598416e+000	 2.8340936091e-001
 0.0000000000e+000	 3.5750000000e+000	 3.1575665815e-001
 3.2347597643e-001	 3.5854376710e+000	 1.5084628006e-001
 2.9069999936e-001	 3.5882437919e+000	 1.5367830633e-001
 2.5800959905e-001	 3.5907424089e+000	 1.5647078551e-001
 2.2540851527e-001	 3.5929362646e+000	 1.5845911262e-001
 1.9290041239e-001	 3.5948281504e+000	 1.5943866741e-001
 1.6048887893e-001	 3.5964209041e+000	 1.5975384490e-001
 1.2817742718e-001	 3.5977174079e+000	 1.6028618733e-001
 9.5969492919e-002	 3.5987205860e+000	 1.6244167275e-001
 6.3868435141e-002	 3.5994334031e+000	 1.6813721576e-001
 3.1877535864e-002	 3.5998588615e+000	 1.7978643598e-001
 0.0000000000e+000	 3.6000000000e+000	 2.0028474988e-001
 3.2572233738e-001	 3.6103365437e+000	 1.4627434820e-001
 2.9271874935e-001	 3.6131621516e+000	 1.4218439950e-001
 2.5980133237e-001	 3.6156781200e+000	 1.3793227703e-001
 2.2697385218e-001	 3.6178872109e+000	 1.3261845892e-001
 1.9423999859e-001	 3.6197922348e+000	 1.2591538725e-001
 1.6160338503e-001	 3.6213960493e+000	 1.1805640072e-001
 1.2906754820e-001	 3.6227015566e+000	 1.0982374621e-001
 9.6635947731e-002	 3.6237117012e+000	 1.0253572557e-001
 6.4311965940e-002	 3.6244294683e+000	 9.8033034215e-002
 3.2098907641e-002	 3.6248578814e+000	 9.8664348116e-002
 0.0000000000e+000	 3.6250000000e+000	 1.0727121603e-001
 3.2796869832e-001	 3.6352354164e+000	 1.4909704447e-001
 2.9473749935e-001	 3.6380805113e+000	 1.4109403261e-001
 2.6159306570e-001	 3.6406138312e+000	 1.3247465241e-001
 2.2853918909e-001	 3.6428381571e+000	 1.2220357360e-001
 1.9557958479e-001	 3.6447563192e+000	 1.0982977271e-001
 1.6271789114e-001	 3.6463711945e+000	 9.5475361475e-002
 1.2995766922e-001	 3.6476857052e+000	 7.9823471206e-002
 9.7302402542e-002	 3.6487028164e+000	 6.4105250667e-002
 6.4755496739e-002	 3.6494255336e+000	 5.0086034913e-002
 3.2320279418e-002	 3.6498569012e+000	 4.0050743041e-002
 0.0000000000e+000	 3.6500000000e+000	 3.6788562643e-002
 3.3021505927e-001	 3.6601342892e+000	 1.5872938511e-001
 2.9675624934e-001	 3.6629988709e+000	 1.4988836695e-001
 2.6338479903e-001	 3.6655495424e+000	 1.3964520386e-001
 2.3010452601e-001	 3.6677891034e+000	 1.2682781815e-001
 1.9691917098e-001	 3.6697204035e+000	 1.1086114734e-001
 1.6383239724e-001	 3.6713463396e+000	 9.1755861863e-002
 1.3084779024e-001	 3.6726698539e+000	 7.0096115554e-002
 9.7968857353e-002	 3.6736939316e+000	 4.7026387326e-002
 6.5199027538e-002	 3.6744215989e+000	 2.4237472828e-002
 3.2541651194e-002	 3.6748559211e+000	 3.9516850418e-003
 0.0000000000e+000	 3.6750000000e+000	-1.1092677195e-002
 3.3246142022e-001	 3.6850331619e+000	 1.7458564259e-001
 2.9877499934e-001	 3.6879172306e+000	 1.6804797378e-001
 2.6517653235e-001	 3.6904852536e+000	 1.5899072565e-001
 2.3166986292e-001	 3.6927400497e+000	 1.4610408713e-001
 1.9825875718e-001	 3.6946844879e+000	 1.2868833827e-001
 1.6494690334e-001	 3.6963214848e+000	 1.0664245087e-001
 1.3173791127e-001	 3.6976540026e+000	 8.0451698245e-002
 9.8635312165e-002	 3.6986850468e+000	 5.1174333587e-002
 6.5642558337e-002	 3.6994176642e+000	 2.0427396863e-002
 3.2763022971e-002	 3.6998549410e+000	-9.6282895957e-003
 0.0000000000e+000	 3.7000000000e+000	-3.6303876691e-002
 3.3470778117e-001	 3.7099320346e+000	 1.9607937059e-001
 3.0079374934e-001	 3.7128355903e+000	 1.9505285416e-001
 2.6696826568e-001	 3.7154209647e+000	 1.9005753085e-001
 2.3323519983e-001	 3.7176909960e+000	 1.7964482387e-001
 1.9959834338e-001	 3.7196485723e+000	 1.6298969293e-001
 1.6606140945e-001	 3.7212966300e+000	 1.3987911142e-001
 1.3262803229e-001	 3.7226381512e+000	 1.1069952869e-001
 9.9301766976e-002	 3.7236761619e+000	 7.6423377833e-002
 6.6086089136e-002	 3.7244137295e+000	 3.8594690318e-002
 3.2984394747e-002	 3.7248539609e+000	-6.8612131828e-004
 0.0000000000e+000	 3.7250000000e+000	-3.8778251387e-002
 3.3695414212e-001	 3.7348309073e+000	 2.2262342791e-001
 3.0281249933e-001	 3.7377539499e+000	 2.3038245796e-001
 2.6875999901e-001	 3.7403566759e+000	 2.3239146735e-001
 2.3480053674e-001	 3.7426419423e+000	 2.2706203546e-001
 2.0093792957e-001	 3.7446126567e+000	 2.1344309496e-001
 1.6717591555e-001	 3.7462717751e+000	 1.9120927925e-001
 1.3351815331e-001	 3.7476222999e+000	 1.6064823038e-001
 9.9968221788e-002	 3.7486672771e+000	 1.2264692912e-001
 6.6529619936e-002	 3.7494097948e+000	 7.8677109744e-002
 3.3205766524e-002	 3.7498529807e+000	 3.0779821921e-002
 0.0000000000e+000	 3.7500000000e+000	-1.8450797740e-002
 3.7500000000e+000	 0.0000000000e+000	 9.0556035228e-001
 3.7498529807e+000	 3.3205766524e-002	 8.3839214000e-001
 3.7494097948e+000	 6.6529619936e-002	 7.9326238258e-001
 3.7486672771e+000	 9.9968221788e-002	 7.6797711135e-001
 3.7476222999e+000	 1.3351815331e-001	 7.6024979577e-001
 3.7462717751e+000	 1.6717591555e-001	 7.6770592165e-001
 3.7446126567e+000	 2.0093792957e-001	 7.8788794081e-001
 3.7426419423e+000	 2.3480053674e-001	 8.1826059304e-001
 3.7403566759e+000	 2.6875999901e-001	 8.5621660022e-001
 3.7377539499e+000	 3.0281249933e-001	 8.9908273159e-001
 3.7348309073e+000	 3.3695414212e-001	 9.4412623775e-001
 3.7750000000e+000	 0.0000000000e+000	 8.8747854396e-001
 3.7748520006e+000	 3.3427138301e-002	 8.2427146667e-001
 3.7744058601e+000	 6.6973150735e-002	 7.8191033702e-001
 3.7736583923e+000	 1.0063467660e-001	 7.5800110967e-001
 3.7726064486e+000	 1.3440827433e-001	 7.5009748636e-001
 3.7712469203e+000	 1.6829042165e-001	 7.5569904867e-001
 3.7695767410e+000	 2.0227751577e-001	 7.7224932161e-001
 3.7675928885e+000	 2.3636587365e-001	 7.9713377128e-001
 3.7652923871e+000	 2.7055173233e-001	 8.2767773969e-001
 3.7626723096e+000	 3.0483124933e-001	 8.6114432073e-001
 3.7597297800e+000	 3.3920050307e-001	 8.9473218135e-001
 3.8000000000e+000	 0.0000000000e+000	 8.6908467852e-001
 3.7998510205e+000	 3.3648510077e-002	 8.1003370062e-001
 3.7994019254e+000	 6.7416681534e-002	 7.7055867195e-001
 3.7986495075e+000	 1.0130113141e-001	 7.4831886620e-001
 3.7975905972e+000	 1.3529839535e-001	 7.4092351166e-001
 3.7962220655e+000	 1.6940492775e-001	 7.4592986399e-001
 3.7945408254e+000	 2.0361710197e-001	 7.6084120421e-001
 3.7925438348e+000	 2.3793121056e-001	 7.8310476485e-001
 3.7902280982e+000	 2.7234346566e-001	 8.1010958751e-001
 3.7875906693e+000	 3.0684999932e-001	 8.3918431573e-001
 3.7846286527e+000	 3.4144686401e-001	 8.6759492723e-001
 3.8250000000e+000	 0.0000000000e+000	 8.5067907018e-001
 3.8248500403e+000	 3.3869881854e-002	 7.9606736045e-001
 3.8243979907e+000	 6.7860212333e-002	 7.5977230843e-001
 3.8236406227e+000	 1.0196758622e-001	 7.3950751424e-001
 3.8225747459e+000	 1.3618851637e-001	 7.3293875620e-001
 3.8211972106e+000	 1.7051943386e-001	 7.3768200236e-001
 3.8195049098e+000	 2.0495668816e-001	 7.5130134139e-001
 3.8174947811e+000	 2.3949654747e-001	 7.7130683576e-001
 3.8151638094e+000	 2.7413519899e-001	 7.9515230046e-001
 3.8125090289e+000	 3.0886874932e-001	 8.2023301105e-001
 3.8095275254e+000	 3.4369322496e-001	 8.4388334531e-001
 3.8500000000e+000	 0.0000000000e+000	 8.3255423280e-001
 3.8498490602e+000	 3.4091253630e-002	 7.8261456879e-001
 3.8493940560e+000	 6.8303743132e-002	 7.4974251440e-001
 3.8486317379e+000	 1.0263404103e-001	 7.3170702427e-001
 3.8475588946e+000	 1.3707863739e-001	 7.2623147161e-001
 3.8461723558e+000	 1.7163393996e-001	 7.3099159711e-001
 3.8444689942e+000	 2.0629627436e-001	 7.4361337131e-001
 3.8424457274e+000	 2.4106188438e-001	 7.6167077327e-001
 3.8400995206e+000	 2.7592693231e-001	 7.8268348887e-001
 3.8374273886e+000	 3.1088749931e-001	 8.0411453240e-001
 3.8344263981e+000	 3.4593958591e-001	 8.2336779586e-001
 3.8750000000e+000	 0.0000000000e+000	 8.1499513152e-001
 3.8748480801e+000	 3.4312625407e-002	 7.6991049009e-001
 3.8743901213e+000	 6.8747273931e-002	 7.4065419915e-001
 3.8736228530e+000	 1.0330049584e-001	 7.2505161651e-001
 3.8725430432e+000	 1.3796875842e-001	 7.2088477630e-001
 3.8711475010e+000	 1.7274844606e-001	 7.2589027391e-001
 3.8694330785e+000	 2.0763586056e-001	 7.3775705838e-001
 3.8673966737e+000	 2.4262722129e-001	 7.5412413501e-001
 3.8650352318e+000	 2.7771866564e-001	 7.7257818166e-001
 3.8623457483e+000	 3.1290624931e-001	 7.9065108219e-001
 3.8593252709e+000	 3.4818594685e-001	 8.0581738164e-001
 3.9000000000e+000	 0.0000000000e+000	 7.9827942463e-001
 3.8998471000e+000	 3.4533997183e-002	 7.5818355372e-001
 3.8993861866e+000	 6.9190804730e-002	 7.3268611721e-001
 3.8986139682e+000	 1.0396695066e-001	 7.1966994522e-001
 3.8975271919e+000	 1.3885887944e-001	 7.1697681994e-001
 3.8961226461e+000	 1.7386295217e-001	 7.2240529519e-001
 3.8943971629e+000	 2.0897544675e-001	 7.3370841737e-001
 3.8923476199e+000	 2.4419255820e-001	 7.4859135056e-001
 3.8899709429e+000	 2.7951039896e-001	 7.6470890907e-001
 3.8872641079e+000	 3.1492499930e-001	 7.7966300114e-001
 3.8842241436e+000	 3.5043230780e-001	 7.9099998818e-001
 3.9250000000e+000	 0.0000000000e+000	 7.8267769638e-001
 3.9248461198e+000	 3.4755368960e-002	 7.4765566838e-001
 3.9243822519e+000	 6.9634335529e-002	 7.2601106429e-001
 3.9236050834e+000	 1.0463340547e-001	 7.1568527597e-001
 3.9225113406e+000	 1.3974900046e-001	 7.1458094173e-001
 3.9210977913e+000	 1.7497745827e-001	 7.2055969911e-001
 3.9193612473e+000	 2.1031503295e-001	 7.3143983288e-001
 3.9172985662e+000	 2.4575789511e-001	 7.4499382109e-001
 3.9149066541e+000	 2.8130213229e-001	 7.5894578225e-001
 3.9121824676e+000	 3.1694374929e-001	 7.7096882760e-001
 3.9091230163e+000	 3.5267866874e-001	 7.7868232260e-001
 3.9500000000e+000	 0.0000000000e+000	 7.6845368074e-001
 3.9498451397e+000	 3.4976740737e-002	 7.3854242852e-001
 3.9493783172e+000	 7.0077866328e-002	 7.2079606588e-001
 3.9485961986e+000	 1.0529986028e-001	 7.1321565615e-001
 3.9474954892e+000	 1.4063912148e-001	 7.1376582264e-001
 3.9460729365e+000	 1.7609196437e-001	 7.2037243327e-001
 3.9443253317e+000	 2.1165461914e-001	 7.3092017419e-001
 3.9422495125e+000	 2.4732323202e-001	 7.4325001516e-001
 3.9398423653e+000	 2.8309386561e-001	 7.5515656979e-001
 3.9371008273e+000	 3.1896249929e-001	 7.6438535456e-001
 3.9340218890e+000	 3.5492502969e-001	 7.6862995085e-001
 3.9750000000e+000	 0.0000000000e+000	 7.5586447689e-001
 3.9748441596e+000	 3.5198112513e-002	 7.3105331285e-001
 3.9743743825e+000	 7.0521397127e-002	 7.1720255872e-001
 3.9735873138e+000	 1.0596631509e-001	 7.1237407910e-001
 3.9724796379e+000	 1.4152924250e-001	 7.1459563187e-001
 3.9710480817e+000	 1.7720647047e-001	 7.2185848331e-001
 3.9692894161e+000	 2.1299420534e-001	 7.3211490580e-001
 3.9672004588e+000	 2.4888856893e-001	 7.4327556099e-001
 3.9647780764e+000	 2.8488559894e-001	 7.5320677142e-001
 3.9620191869e+000	 3.2098124928e-001	 7.5972768457e-001
 3.9589207617e+000	 3.5717139063e-001	 7.6060733361e-001
 4.0000000000e+000	 0.0000000000e+000	 7.4516075651e-001
 3.9998431794e+000	 3.5419484290e-002	 7.2539187547e-001
 3.9993704478e+000	 7.0964927926e-002	 7.1538656542e-001
 3.9985784289e+000	 1.0663276990e-001	 7.1326864200e-001
 3.9974637866e+000	 1.4241936352e-001	 7.1713016784e-001
 3.9960232268e+000	 1.7832097657e-001	 7.2502899672e-001
 3.9942535004e+000	 2.1433379153e-001	 7.3498619384e-001
 3.9921514051e+000	 2.5045390584e-001	 7.4498333518e-001
 3.9897137876e+000	 2.8667733226e-001	 7.5295968887e-001
 3.9869375466e+000	 3.2299999927e-001	 7.5680928253e-001
 3.9838196344e+000	 3.5941775158e-001	 7.5437786086e-001
 3.7348309073e+000	 3.3695414212e-001	 9.4412623775e-001
 3.7315847437e+000	 3.7118095373e-001	 9.6903692512e-001
 3.7280127100e+000	 4.0548888310e-001	 9.7373203928e-001
 3.7241121140e+000	 4.3987380232e-001	 9.5538079610e-001
 3.7198803235e+000	 4.7433150743e-001	 9.1113738223e-001
 3.7153147675e+000	 5.0885771918e-001	 8.3814943845e-001
 3.7104129393e+000	 5.4344808385e-001	 7.3356686138e-001
 3.7051723983e+000	 5.7809817425e-001	 5.9455091194e-001
 3.6995907722e+000	 6.1280349065e-001	 4.1828361762e-001
 3.6936657595e+000	 6.4755946190e-001	 6.1617290055e-001
 3.6873951316e+000	 6.8236144655e-001	 1.0123084559e+000
 3.7597297800e+000	 3.3920050307e-001	 8.9473218135e-001
 3.7564619753e+000	 3.7365549343e-001	 9.1155956298e-001
 3.7528661280e+000	 4.0819214232e-001	 9.0772578441e-001
 3.7489395281e+000	 4.4280629434e-001	 8.8200252817e-001
 3.7446795256e+000	 4.7749371748e-001	 8.3539465395e-001
 3.7400835326e+000	 5.1225010397e-001	 7.6054238360e-001
 3.7351490256e+000	 5.4707107108e-001	 6.5451762045e-001
 3.7298735476e+000	 5.8195216208e-001	 5.1440276502e-001
 3.7242547107e+000	 6.1688884725e-001	 3.3730030701e-001
 3.7182901979e+000	 6.5187652498e-001	 5.8033975829e-001
 3.7119777658e+000	 6.8691052287e-001	 9.3935421377e-001
 3.7846286527e+000	 3.4144686401e-001	 8.6759492723e-001
 3.7813392070e+000	 3.7613003312e-001	 8.8361763658e-001
 3.7777195461e+000	 4.1089540154e-001	 8.8010734843e-001
 3.7737669422e+000	 4.4573878635e-001	 8.5416728694e-001
 3.7694787278e+000	 4.8065592754e-001	 8.0284064374e-001
 3.7648522977e+000	 5.1564248877e-001	 7.2310830690e-001
 3.7598851118e+000	 5.5069405831e-001	 6.1188655574e-001
 3.7545746969e+000	 5.8580614991e-001	 4.6602472851e-001
 3.7489186492e+000	 6.2097420386e-001	 2.8416058112e-001
 3.7429146363e+000	 6.5619358806e-001	 5.6228343179e-001
 3.7365604000e+000	 6.9145959918e-001	 8.8409667658e-001
 3.8095275254e+000	 3.4369322496e-001	 8.4388334531e-001
 3.8062164386e+000	 3.7860457281e-001	 8.5912489983e-001
 3.8025729642e+000	 4.1359866076e-001	 8.5595855560e-001
 3.7985943563e+000	 4.4867127837e-001	 8.3156108743e-001
 3.7942779299e+000	 4.8381813759e-001	 7.8304913245e-001
 3.7896210628e+000	 5.1903487357e-001	 7.0747676921e-001
 3.7846211981e+000	 5.5431704553e-001	 6.0183305827e-001
 3.7792758462e+000	 5.8966013774e-001	 4.6303955137e-001
 3.7735825876e+000	 6.2505956047e-001	 2.8878597016e-001
 3.7675390747e+000	 6.6051065114e-001	 5.8407878337e-001
 3.7611430342e+000	 6.9600867549e-001	 8.6090684391e-001
 3.8344263981e+000	 3.4593958591e-001	 8.2336779586e-001
 3.8310936702e+000	 3.8107911250e-001	 8.3780575090e-001
 3.8274263822e+000	 4.1630191998e-001	 8.3495808766e-001
 3.8234217704e+000	 4.5160377038e-001	 8.1207619295e-001
 3.8190771321e+000	 4.8698034763e-001	 7.6635122307e-001
 3.8143898280e+000	 5.2242725836e-001	 6.9491153131e-001
 3.8093572843e+000	 5.5794003276e-001	 5.9482005235e-001
 3.8039769955e+000	 5.9351412557e-001	 4.6307165104e-001
 3.7982465261e+000	 6.2914491707e-001	 3.4942342547e-001
 3.7921635131e+000	 6.6482771422e-001	 6.1168163568e-001
 3.7857256684e+000	 7.0055775180e-001	 8.5634523120e-001
 3.8593252709e+000	 3.4818594685e-001	 8.0581738164e-001
 3.8559709018e+000	 3.8355365219e-001	 8.1938379581e-001
 3.8522798003e+000	 4.1900517920e-001	 8.1678429463e-001
 3.8482491845e+000	 4.5453626240e-001	 7.9534596569e-001
 3.8438763342e+000	 4.9014255768e-001	 7.5233558584e-001
 3.8391585931e+000	 5.2581964315e-001	 6.8495689527e-001
 3.8340933706e+000	 5.6156301998e-001	 5.9034782375e-001
 3.8286781449e+000	 5.9736811339e-001	 4.6557767710e-001
 3.8229104646e+000	 6.3323027367e-001	 4.0212388948e-001
 3.8167879515e+000	 6.6914477730e-001	 6.3268798228e-001
 3.8103083026e+000	 7.0510682811e-001	 8.4650154919e-001
 3.8842241436e+000	 3.5043230780e-001	 7.9099998818e-001
 3.8808481335e+000	 3.8602819188e-001	 8.0358187382e-001
 3.8771332183e+000	 4.2170843842e-001	 8.0111520545e-001
 3.8730765986e+000	 4.5746875441e-001	 7.8100388744e-001
 3.8686755364e+000	 4.9330476773e-001	 7.4059144609e-001
 3.8639273582e+000	 5.2921202794e-001	 6.7715814824e-001
 3.8588294569e+000	 5.6518600721e-001	 5.8791806766e-001
 3.8533792942e+000	 6.0122210122e-001	 4.7001610699e-001
 3.8475744031e+000	 6.3731563028e-001	 4.4703339343e-001
 3.8414123899e+000	 6.7346184038e-001	 6.4724024463e-001
 3.8348909368e+000	 7.0965590442e-001	 8.3151469140e-001
 3.9091230163e+000	 3.5267866874e-001	 7.7868232260e-001
 3.9057253651e+000	 3.8850273157e-001	 7.9012208187e-001
 3.9019866364e+000	 4.2441169764e-001	 7.8762853818e-001
 3.8979040127e+000	 4.6040124642e-001	 7.6868355578e-001
 3.8934747386e+000	 4.9646697778e-001	 7.3070856648e-001
 3.8886961233e+000	 5.3260441274e-001	 6.7106153108e-001
 3.8835655431e+000	 5.6880899443e-001	 5.8703384379e-001
 3.8780804435e+000	 6.0507608904e-001	 4.7584718775e-001
 3.8722383416e+000	 6.4140098688e-001	 4.8430013739e-001
 3.8660368283e+000	 6.7777890346e-001	 6.5548340606e-001
 3.8594735710e+000	 7.1420498073e-001	 8.1152649988e-001
 3.9340218890e+000	 3.5492502969e-001	 7.6862995085e-001
 3.9306025967e+000	 3.9097727126e-001	 7.7872579802e-001
 3.9268400545e+000	 4.2711495685e-001	 7.7600170989e-001
 3.9227314268e+000	 4.6333373843e-001	 7.5801868041e-001
 3.9182739407e+000	 4.9962918782e-001	 7.2227723006e-001
 3.9134648884e+000	 5.3599679753e-001	 6.6621420812e-001
 3.9083016294e+000	 5.7243198165e-001	 5.8719953315e-001
 3.9027815928e+000	 6.0893007687e-001	 4.8253288006e-001
 3.8969022800e+000	 6.4548634348e-001	 5.1407442158e-001
 3.8906612667e+000	 6.8209596653e-001	 6.5756493066e-001
 3.8840562052e+000	 7.1875405704e-001	 7.8668167189e-001
 3.9589207617e+000	 3.5717139063e-001	 7.6060733361e-001
 3.9554798283e+000	 3.9345181095e-001	 7.6911370410e-001
 3.9516934725e+000	 4.2981821607e-001	 7.6591184607e-001
 3.9475588409e+000	 4.6626623045e-001	 7.4864307962e-001
 3.9430731429e+000	 5.0279139787e-001	 7.1488822388e-001
 3.9382336535e+000	 5.3938918232e-001	 6.6216423817e-001
 3.9330377156e+000	 5.7605496887e-001	 5.8792079656e-001
 3.9274827422e+000	 6.1278406469e-001	 4.8953680431e-001
 3.9215662185e+000	 6.4957170008e-001	 5.3650858035e-001
 3.9152857051e+000	 6.8641302961e-001	 6.5363468528e-001
 3.9086388394e+000	 7.2330313334e-001	 7.5712767009e-001
 3.9838196344e+000	 3.5941775158e-001	 7.5437786086e-001
 3.9803570600e+000	 3.9592635063e-001	 7.6100580747e-001
 3.9765468906e+000	 4.3252147529e-001	 7.5703578976e-001
 3.9723862550e+000	 4.6919872246e-001	 7.4019067690e-001
 3.9678723450e+000	 5.0595360791e-001	 7.0813282325e-001
 3.9630024187e+000	 5.4278156711e-001	 6.5846054659e-001
 3.9577738019e+000	 5.7967795609e-001	 5.8870453461e-001
 3.9521838915e+000	 6.1663805252e-001	 4.9632418880e-001
 3.9462301570e+000	 6.5365705668e-001	 5.5175691862e-001
 3.9399101435e+000	 6.9073009268e-001	 6.4384486444e-001
 3.9332214737e+000	 7.2785220965e-001	 7.2301463616e-001
 3.6873951316e+000	 6.8236144655e-001	 1.0123084559e+000
 3.6807767345e+000	 7.1720473409e-001	 9.1835753188e-001
 3.6738084919e+000	 7.5208454618e-001	 8.3243003298e-001
 3.6664884066e+000	 7.8699603810e-001	 7.5485481364e-001
 3.6588145630e+000	 8.2193430012e-001	 6.8589402960e-001
 3.6507851289e+000	 8.5689435901e-001	 6.2573915203e-001
 3.6423983581e+000	 8.9187117966e-001	 5.7450701970e-001
 3.6336525918e+000	 9.2685966671e-001	 5.3223594097e-001
 3.6245462614e+000	 9.6185466627e-001	 4.9888185773e-001
 3.6150778896e+000	 9.9685096773e-001	 4.7431458352e-001
 3.6052460932e+000	 1.0318433056e+000	 4.5831412829e-001
 3.7119777658e+000	 6.8691052287e-001	 9.3935421377e-001
 3.7053152461e+000	 7.2198609898e-001	 8.5068544609e-001
 3.6983005485e+000	 7.5709844316e-001	 7.6980884731e-001
 3.6909316627e+000	 7.9224267836e-001	 6.9707360222e-001
 3.6832066601e+000	 8.2741386212e-001	 6.3276139801e-001
 3.6751236964e+000	 8.6260698807e-001	 5.7708235357e-001
 3.6666810138e+000	 8.9781698753e-001	 5.3017098685e-001
 3.6578769425e+000	 9.3303873116e-001	 4.9208223231e-001
 3.6487099031e+000	 9.6826703071e-001	 4.6278752067e-001
 3.6391784089e+000	 1.0034966409e+000	 4.4217093358e-001
 3.6292810672e+000	 1.0387222610e+000	 4.3002544597e-001
 3.7365604000e+000	 6.9145959918e-001	 8.8409667658e-001
 3.7298537576e+000	 7.2676746388e-001	 7.9968492720e-001
 3.7227926051e+000	 7.6211234014e-001	 7.2287196476e-001
 3.7153749187e+000	 7.9748931862e-001	 6.5402853016e-001
 3.7075987571e+000	 8.3289342413e-001	 5.9345703998e-001
 3.6994622640e+000	 8.6831961714e-001	 5.4138742883e-001
 3.6909636695e+000	 9.0376279540e-001	 4.9797302953e-001
 3.6821012931e+000	 9.3921779561e-001	 4.6328650372e-001
 3.6728735449e+000	 9.7467939516e-001	 4.3731583520e-001
 3.6632789282e+000	 1.0101423140e+000	 4.1996039895e-001
 3.6533160411e+000	 1.0456012164e+000	 4.1102711868e-001
 3.7611430342e+000	 6.9600867549e-001	 8.6090684391e-001
 3.7543922692e+000	 7.3154882878e-001	 7.7077831828e-001
 3.7472846618e+000	 7.6712623712e-001	 6.9111752533e-001
 3.7398181748e+000	 8.0273595887e-001	 6.2520471971e-001
 3.7319908542e+000	 8.3837298613e-001	 5.6745307652e-001
 3.7238008315e+000	 8.7403224620e-001	 5.1811352261e-001
 3.7152463252e+000	 9.0970860326e-001	 4.7735934990e-001
 3.7063256437e+000	 9.4539686005e-001	 4.4528205676e-001
 3.6970371866e+000	 9.8109175960e-001	 4.2188725273e-001
 3.6873794474e+000	 1.0167879871e+000	 4.0709063953e-001
 3.6773510151e+000	 1.0524801718e+000	 4.0071408169e-001
 3.7857256684e+000	 7.0055775180e-001	 8.5634523120e-001
 3.7789307808e+000	 7.3633019367e-001	 7.7255743678e-001
 3.7717767184e+000	 7.7214013409e-001	 6.9435486236e-001
 3.7642614308e+000	 8.0798259913e-001	 6.2292176084e-001
 3.7563829513e+000	 8.4385254813e-001	 5.5950144605e-001
 3.7481393990e+000	 8.7974487526e-001	 5.0672277150e-001
 3.7395289810e+000	 9.1565441113e-001	 4.6777911230e-001
 3.7305499943e+000	 9.5157592450e-001	 4.3750513317e-001
 3.7212008284e+000	 9.8750412404e-001	 4.1592515047e-001
 3.7114799667e+000	 1.0234336602e+000	 4.0297223448e-001
 3.7013859890e+000	 1.0593591271e+000	 3.9848419078e-001
 3.8103083026e+000	 7.0510682811e-001	 8.4650154919e-001
 3.8034692923e+000	 7.4111155856e-001	 7.6944290570e-001
 3.7962687750e+000	 7.7715403107e-001	 6.9667728502e-001
 3.7887046868e+000	 8.1322923938e-001	 6.2936169209e-001
 3.7807750484e+000	 8.4933211013e-001	 5.6871395934e-001
 3.7724779665e+000	 8.8545750432e-001	 5.1601466704e-001
 3.7638116367e+000	 9.2160021899e-001	 4.7260900371e-001
 3.7547743449e+000	 9.5775498894e-001	 4.3990855886e-001
 3.7453644701e+000	 9.9391648849e-001	 4.1885573712e-001
 3.7355804860e+000	 1.0300793333e+000	 4.0701858806e-001
 3.7254209630e+000	 1.0662380825e+000	 4.0373812799e-001
 3.8348909368e+000	 7.0965590442e-001	 8.3151469140e-001
 3.8280078039e+000	 7.4589292346e-001	 7.6158745643e-001
 3.8207608316e+000	 7.8216792804e-001	 6.9465941944e-001
 3.8131479429e+000	 8.1847587964e-001	 6.3185977393e-001
 3.8051671455e+000	 8.5481167213e-001	 5.7438031573e-001
 3.7968165341e+000	 8.9117013338e-001	 5.2347746270e-001
 3.7880942924e+000	 9.2754602686e-001	 4.8047421387e-001
 3.7789986955e+000	 9.6393405339e-001	 4.4676203999e-001
 3.7695281119e+000	 1.0003288529e+000	 4.2380269671e-001
 3.7596810052e+000	 1.0367250065e+000	 4.1312995230e-001
 3.7494559369e+000	 1.0731170379e+000	 4.1587931106e-001
 3.8594735710e+000	 7.1420498073e-001	 8.1152649988e-001
 3.8525463155e+000	 7.5067428835e-001	 7.4914670859e-001
 3.8452528882e+000	 7.8718182501e-001	 6.8847022709e-001
 3.8375911989e+000	 8.2372251989e-001	 6.3059786216e-001
 3.8295592426e+000	 8.6029123413e-001	 5.7669480616e-001
 3.8211551016e+000	 8.9688276244e-001	 5.2799275743e-001
 3.8123769481e+000	 9.3349183472e-001	 4.8579197934e-001
 3.8032230461e+000	 9.7011311783e-001	 4.5146328985e-001
 3.7936917536e+000	 1.0067412174e+000	 4.2644997258e-001
 3.7837815245e+000	 1.0433706796e+000	 4.1226960089e-001
 3.7734909109e+000	 1.0799959932e+000	 4.1051576608e-001
 3.8840562052e+000	 7.1875405704e-001	 7.8668167189e-001
 3.8770848270e+000	 7.5545565324e-001	 7.3227907863e-001
 3.8697449448e+000	 7.9219572198e-001	 6.7828141425e-001
 3.8620344550e+000	 8.2896916014e-001	 6.2576051171e-001
 3.8539513397e+000	 8.6577079613e-001	 5.7585438156e-001
 3.8454936691e+000	 9.0259539150e-001	 5.2976943411e-001
 3.8366596038e+000	 9.3943764258e-001	 4.8878263982e-001
 3.8274473967e+000	 9.7629218228e-001	 4.5424361897e-001
 3.8178553953e+000	 1.0131535818e+000	 4.2757665198e-001
 3.8078820438e+000	 1.0500163527e+000	 4.1028260112e-001
 3.7975258849e+000	 1.0868749486e+000	 4.0394073468e-001
 3.9086388394e+000	 7.2330313334e-001	 7.5712767009e-001
 3.9016233386e+000	 7.6023701813e-001	 7.1114569190e-001
 3.8942370014e+000	 7.9720961895e-001	 6.6426734565e-001
 3.8864777110e+000	 8.3421580039e-001	 6.1753489179e-001
 3.8783434368e+000	 8.7125035813e-001	 5.7205856917e-001
 3.8698322366e+000	 9.0830802055e-001	 5.2901892038e-001
 3.8609422596e+000	 9.4538345045e-001	 4.8966905455e-001
 3.8516717474e+000	 9.8247124672e-001	 4.5533683869e-001
 3.8420190371e+000	 1.0195659463e+000	 4.2742700830e-001
 3.8319825630e+000	 1.0566620258e+000	 4.0742318806e-001
 3.8215608588e+000	 1.0937539040e+000	 3.9688981329e-001
 3.9332214737e+000	 7.2785220965e-001	 7.2301463616e-001
 3.9261618501e+000	 7.6501838302e-001	 6.8591029795e-001
 3.9187290581e+000	 8.0222351592e-001	 6.4660496142e-001
 3.9109209671e+000	 8.3946244064e-001	 6.0611070417e-001
 3.9027355338e+000	 8.7672992013e-001	 5.6550939207e-001
 3.8941708042e+000	 9.1402064961e-001	 5.2595510905e-001
 3.8852249153e+000	 9.5132925831e-001	 4.8867652361e-001
 3.8758960980e+000	 9.8865031116e-001	 4.5497918305e-001
 3.8661826788e+000	 1.0259783107e+000	 4.2624772577e-001
 3.8560830823e+000	 1.0633076989e+000	 4.0394800221e-001
 3.8455958328e+000	 1.1006328594e+000	 3.8962909479e-001
 3.6052460932e+000	 1.0318433056e+000	 4.5831412829e-001
 3.5950495844e+000	 1.0668263616e+000	 4.5934669306e-001
 3.5844871729e+000	 1.1017947664e+000	 4.5729131514e-001
 3.5735577679e+000	 1.1367431019e+000	 4.5126597468e-001
 3.5622603795e+000	 1.1716659033e+000	 4.4029022979e-001
 3.5505941207e+000	 1.2065576614e+000	 4.2328262106e-001
 3.5385582090e+000	 1.2414128249e+000	 3.9905824083e-001
 3.5261519680e+000	 1.2762258024e+000	 3.5195300032e-001
 3.5133748290e+000	 1.3109909654e+000	 2.8639682964e-001
 3.5002263323e+000	 1.3457026502e+000	 2.0703943257e-001
 3.4867061290e+000	 1.3803551609e+000	 1.1459446298e-001
 3.6292810672e+000	 1.0387222610e+000	 4.3002544597e-001
 3.6190165816e+000	 1.0739385374e+000	 4.2831117372e-001
 3.6083837541e+000	 1.1091400648e+000	 4.2516132174e-001
 3.5973814863e+000	 1.1443213892e+000	 4.1967871659e-001
 3.5860087820e+000	 1.1794770093e+000	 4.1086425480e-001
 3.5742647481e+000	 1.2146013792e+000	 3.9761422945e-001
 3.5621485970e+000	 1.2496889104e+000	 3.7871782629e-001
 3.5496596478e+000	 1.2847339744e+000	 3.3419454673e-001
 3.5367973278e+000	 1.3197309052e+000	 2.7491577537e-001
 3.5235611745e+000	 1.3546740012e+000	 2.0164580586e-001
 3.5099508365e+000	 1.3895575286e+000	 1.1507503192e-001
 3.6533160411e+000	 1.0456012164e+000	 4.1102711868e-001
 3.6429835788e+000	 1.0810507131e+000	 4.0518749837e-001
 3.6322803352e+000	 1.1164853633e+000	 3.9958824002e-001
 3.6212052048e+000	 1.1518996766e+000	 3.9331803268e-001
 3.6097571845e+000	 1.1872881153e+000	 3.8536009437e-001
 3.5979353756e+000	 1.2226450969e+000	 3.7458941866e-001
 3.5857389851e+000	 1.2579649959e+000	 3.5684807194e-001
 3.5731673276e+000	 1.2932421464e+000	 3.1787807610e-001
 3.5602198267e+000	 1.3284708449e+000	 2.6409744001e-001
 3.5468960167e+000	 1.3636453522e+000	 1.9611367792e-001
 3.5331955441e+000	 1.3987598963e+000	 1.1459439764e-001
 3.6773510151e+000	 1.0524801718e+000	 4.0071408169e-001
 3.6669505761e+000	 1.0881628888e+000	 3.8937331470e-001
 3.6561769164e+000	 1.1238306617e+000	 3.7997300371e-001
 3.6450289232e+000	 1.1594779639e+000	 3.7158872083e-001
 3.6335055871e+000	 1.1950992213e+000	 3.6318699257e-001
 3.6216060031e+000	 1.2306888146e+000	 3.5362246445e-001
 3.6093293732e+000	 1.2662410814e+000	 3.3709623106e-001
 3.5966750074e+000	 1.3017503184e+000	 3.0307152559e-001
 3.5836423255e+000	 1.3372107847e+000	 2.5402524548e-001
 3.5702308590e+000	 1.3726167032e+000	 1.9054195504e-001
 3.5564402516e+000	 1.4079622641e+000	 1.1326694509e-001
 3.7013859890e+000	 1.0593591271e+000	 3.9848419078e-001
 3.6909175733e+000	 1.0952750646e+000	 3.8026880096e-001
 3.6800734975e+000	 1.1311759602e+000	 3.6571868236e-001
 3.6688526417e+000	 1.1670562512e+000	 3.5389731531e-001
 3.6572539896e+000	 1.2029103274e+000	 3.4375552585e-001
 3.6452766306e+000	 1.2387325324e+000	 3.3412856653e-001
 3.6329197612e+000	 1.2745171669e+000	 3.1964866336e-001
 3.6201826871e+000	 1.3102584905e+000	 2.8984292699e-001
 3.6070648244e+000	 1.3459507245e+000	 2.4478228766e-001
 3.5935657012e+000	 1.3815880542e+000	 1.8502879296e-001
 3.5796849591e+000	 1.4171646318e+000	 1.1120588059e-001
 3.7254209630e+000	 1.0662380825e+000	 4.0373812799e-001
 3.7148845705e+000	 1.1023872403e+000	 3.7727658432e-001
 3.7039700787e+000	 1.1385212586e+000	 3.5623041244e-001
 3.6926763602e+000	 1.1746345386e+000	 3.3965203071e-001
 3.6810023921e+000	 1.2107214334e+000	 3.2647756008e-001
 3.6689472580e+000	 1.2467762501e+000	 3.1552381882e-001
 3.6565101493e+000	 1.2827932524e+000	 3.0455883234e-001
 3.6436903669e+000	 1.3187666625e+000	 2.7826040364e-001
 3.6304873233e+000	 1.3546906642e+000	 2.3645134684e-001
 3.6169005434e+000	 1.3905594052e+000	 1.7967162111e-001
 3.6029296666e+000	 1.4263669996e+000	 1.0852326989e-001
 3.7494559369e+000	 1.0731170379e+000	 4.1587931106e-001
 3.7388515678e+000	 1.1094994161e+000	 3.7980166239e-001
 3.7278666598e+000	 1.1458665570e+000	 3.5091533107e-001
 3.7165000786e+000	 1.1822128259e+000	 3.2826270816e-001
 3.7047507947e+000	 1.2185325394e+000	 3.1076620917e-001
 3.6926178855e+000	 1.2548199679e+000	 2.9912482385e-001
 3.6801005373e+000	 1.2910693379e+000	 2.9188068047e-001
 3.6671980467e+000	 1.3272748345e+000	 2.6839216747e-001
 3.6539098221e+000	 1.3634306040e+000	 2.2911489788e-001
 3.6402353856e+000	 1.3995307562e+000	 1.7456716585e-001
 3.6261743742e+000	 1.4355693673e+000	 1.0533007472e-001
 3.7734909109e+000	 1.0799959932e+000	 4.1051576608e-001
 3.7628185650e+000	 1.1166115918e+000	 3.7008677865e-001
 3.7517632410e+000	 1.1532118555e+000	 3.4615053118e-001
 3.7403237971e+000	 1.1897911133e+000	 3.1914076348e-001
 3.7284991972e+000	 1.2263436454e+000	 2.9603579541e-001
 3.7162885130e+000	 1.2628636856e+000	 2.8650777505e-001
 3.7036909254e+000	 1.2993454234e+000	 2.8166861397e-001
 3.6907057265e+000	 1.3357830065e+000	 2.6030651624e-001
 3.6773323210e+000	 1.3721705438e+000	 2.2285511992e-001
 3.6635702278e+000	 1.4085021072e+000	 1.6981147291e-001
 3.6494190817e+000	 1.4447717350e+000	 1.0173618790e-001
 3.7975258849e+000	 1.0868749486e+000	 4.0394073468e-001
 3.7867855622e+000	 1.1237237676e+000	 3.4574466603e-001
 3.7756598221e+000	 1.1605571539e+000	 3.0410691265e-001
 3.7641475155e+000	 1.1973694006e+000	 2.8029491213e-001
 3.7522475997e+000	 1.2341547515e+000	 2.7565094771e-001
 3.7399591404e+000	 1.2709074034e+000	 2.7705883125e-001
 3.7272813135e+000	 1.3076215089e+000	 2.7397748810e-001
 3.7142134063e+000	 1.3442911785e+000	 2.5407183077e-001
 3.7007548198e+000	 1.3809104835e+000	 2.1775390574e-001
 3.6869050700e+000	 1.4174734582e+000	 1.6549992887e-001
 3.6726637892e+000	 1.4539741028e+000	 9.7850467244e-002
 3.8215608588e+000	 1.0937539040e+000	 3.9688981329e-001
 3.8107525595e+000	 1.1308359433e+000	 3.2063143001e-001
 3.7995564033e+000	 1.1679024524e+000	 2.6096673523e-001
 3.7879712340e+000	 1.2049476880e+000	 2.1913364931e-001
 3.7759960022e+000	 1.2419658575e+000	 1.9644594657e-001
 3.7636297679e+000	 1.2789511211e+000	 2.2675996584e-001
 3.7508717015e+000	 1.3158975944e+000	 2.6561887154e-001
 3.7377210861e+000	 1.3527993506e+000	 2.4975657236e-001
 3.7241773187e+000	 1.3896504233e+000	 2.1389287075e-001
 3.7102399122e+000	 1.4264448092e+000	 1.6172728196e-001
 3.6959084967e+000	 1.4631764705e+000	 9.3780768047e-002
 3.8455958328e+000	 1.1006328594e+000	 3.8962909479e-001
 3.8347195567e+000	 1.1379481191e+000	 2.9503492506e-001
 3.8234529844e+000	 1.1752477508e+000	 2.1703950186e-001
 3.8117949524e+000	 1.2125259753e+000	 1.5685091158e-001
 3.7997444048e+000	 1.2497769635e+000	 1.1575413924e-001
 3.7873003954e+000	 1.2869948389e+000	 1.4625348587e-001
 3.7744620896e+000	 1.3241736799e+000	 1.7467742898e-001
 3.7612287659e+000	 1.3613075226e+000	 2.0022630575e-001
 3.7475998176e+000	 1.3983903631e+000	 2.1135336170e-001
 3.7335747544e+000	 1.4354161602e+000	 1.5858766193e-001
 3.7191532043e+000	 1.4723788383e+000	 8.9633974442e-002
 3.4867061290e+000	 1.3803551609e+000	 1.1459446298e-001
 3.4728139820e+000	 1.4149427715e+000	 9.0596533316e-002
 3.4585497675e+000	 1.4494597290e+000	 7.0809900397e-002
 3.4439134760e+000	 1.4839002560e+000	 5.5750546144e-002
 3.4289052139e+000	 1.5182585531e+000	 4.5974304370e-002
 3.4135252041e+000	 1.5525288020e+000	 4.2076353554e-002
 3.3977737871e+000	 1.5867051686e+000	 4.4690600387e-002
 3.3816514220e+000	 1.6207818052e+000	 5.4488953415e-002
 3.3651586875e+000	 1.6547528541e+000	 7.2180486391e-002
 3.3482962822e+000	 1.6886124501e+000	 9.8510491309e-002
 3.3310650256e+000	 1.7223547240e+000	 1.3425942140e-001
 3.5099508365e+000	 1.3895575286e+000	 1.1507503192e-001
 3.4959660752e+000	 1.4243757233e+000	 8.7526119732e-002
 3.4816067659e+000	 1.4591227939e+000	 6.3567081135e-002
 3.4668728992e+000	 1.4937929244e+000	 4.3761004168e-002
 3.4517645820e+000	 1.5283802767e+000	 2.8712537468e-002
 3.4362820388e+000	 1.5628789940e+000	 1.9067344859e-002
 3.4204256123e+000	 1.5972832030e+000	 1.5511447024e-002
 3.4041957648e+000	 1.6315870172e+000	 1.8770449549e-002
 3.3875930787e+000	 1.6657845398e+000	 2.9608657020e-002
 3.3706182574e+000	 1.6998698665e+000	 4.8828073130e-002
 3.3532721258e+000	 1.7338370888e+000	 7.7267287145e-002
 3.5331955441e+000	 1.3987598963e+000	 1.1459439764e-001
 3.5191181684e+000	 1.4338086751e+000	 8.4229185385e-002
 3.5046637644e+000	 1.4687858588e+000	 5.6819984607e-002
 3.4898323224e+000	 1.5036855927e+000	 3.2976882707e-002
 3.4746239501e+000	 1.5385020004e+000	 1.3353255489e-002
 3.4590388735e+000	 1.5732291861e+000	-1.3548162641e-003
 3.4430774376e+000	 1.6078612375e+000	-1.0409246896e-002
 3.4267401076e+000	 1.6423922293e+000	-1.3030763335e-002
 3.4100274700e+000	 1.6768162255e+000	-8.3998402305e-003
 3.3929402326e+000	 1.7111272828e+000	 4.3422472397e-003
 3.3754792260e+000	 1.7453194536e+000	 2.6092253263e-002
 3.5564402516e+000	 1.4079622641e+000	 1.1326694509e-001
 3.5422702616e+000	 1.4432416269e+000	 8.0804634685e-002
 3.5277207628e+000	 1.4784489236e+000	 5.0651861652e-002
 3.5127917456e+000	 1.5135782611e+000	 2.3465614004e-002
 3.4974833182e+000	 1.5486237241e+000	-5.2084659544e-005
 3.4817957082e+000	 1.5835793781e+000	-1.9154796459e-002
 3.4657292628e+000	 1.6184392720e+000	-3.3052410999e-002
 3.4492844505e+000	 1.6531974413e+000	-4.0912008262e-002
 3.4324618612e+000	 1.6878479112e+000	-4.1858842949e-002
 3.4152622078e+000	 1.7223846991e+000	-3.4977450202e-002
 3.3976863261e+000	 1.7568018184e+000	-1.9312872328e-002
 3.5796849591e+000	 1.4171646318e+000	 1.1120588059e-001
 3.5654223549e+000	 1.4526745787e+000	 7.7350565775e-002
 3.5507777613e+000	 1.4881119885e+000	 4.5145529989e-002
 3.5357511687e+000	 1.5234709295e+000	 1.5294570979e-002
 3.5203426863e+000	 1.5587454478e+000	-1.1451711121e-002
 3.5045525429e+000	 1.5939295701e+000	-3.4296572832e-002
 3.4883810881e+000	 1.6290173064e+000	-5.2397910647e-002
 3.4718287933e+000	 1.6640026533e+000	-6.4869169300e-002
 3.4548962525e+000	 1.6988795969e+000	-7.0780375275e-002
 3.4375841830e+000	 1.7336421155e+000	-6.9159295470e-002
 3.4198934263e+000	 1.7682841833e+000	-5.8992720581e-002
 3.6029296666e+000	 1.4263669996e+000	 1.0852326989e-001
 3.5885744481e+000	 1.4621075305e+000	 7.3964296540e-002
 3.5738347597e+000	 1.4977750533e+000	 4.0383388192e-002
 3.5587105919e+000	 1.5333635979e+000	 8.5310691444e-003
 3.5432020544e+000	 1.5688671715e+000	-2.0793547247e-002
 3.5273093776e+000	 1.6042797621e+000	-4.6743455197e-002
 3.5110329133e+000	 1.6395953409e+000	-6.8424581274e-002
 3.4943731361e+000	 1.6748078654e+000	-8.4896737978e-002
 3.4773306437e+000	 1.7099112826e+000	-9.5174706400e-002
 3.4599061583e+000	 1.7448995318e+000	-9.8229447846e-002
 3.4421005265e+000	 1.7797665481e+000	-9.2989443941e-002
 3.6261743742e+000	 1.4355693673e+000	 1.0533007472e-001
 3.6117265413e+000	 1.4715404823e+000	 7.0742389613e-002
 3.5968917582e+000	 1.5074381182e+000	 3.6447429122e-002
 3.5816700151e+000	 1.5432562662e+000	 3.2423684417e-003
 3.5660614225e+000	 1.5789888952e+000	-2.8025221365e-002
 3.5500662123e+000	 1.6146299541e+000	-5.6458107463e-002
 3.5336847386e+000	 1.6501733753e+000	-8.1110261394e-002
 3.5169174789e+000	 1.6856130774e+000	-1.0098785792e-001
 3.4997650350e+000	 1.7209429682e+000	-1.1505040681e-001
 3.4822281335e+000	 1.7561569481e+000	-1.2221201746e-001
 3.4643076266e+000	 1.7912489129e+000	-1.2134279578e-001
 3.6494190817e+000	 1.4447717350e+000	 1.0173618790e-001
 3.6348786345e+000	 1.4809734342e+000	 6.7780676430e-002
 3.6199487566e+000	 1.5171011831e+000	 3.3419252851e-002
 3.6046294383e+000	 1.5531489346e+000	-5.0432498519e-004
 3.5889207906e+000	 1.5891106189e+000	-3.3094076176e-002
 3.5728230470e+000	 1.6249801461e+000	-6.3402568202e-002
 3.5563365638e+000	 1.6607514098e+000	-9.0431824349e-002
 3.5394618217e+000	 1.6964182894e+000	-1.1313436777e-001
 3.5221994262e+000	 1.7319746539e+000	-1.3041440240e-001
 3.5045501087e+000	 1.7674143645e+000	-1.4112913057e-001
 3.4865147268e+000	 1.8027312778e+000	-1.4409020681e-001
 3.6726637892e+000	 1.4539741028e+000	 9.7850467244e-002
 3.6580307277e+000	 1.4904063860e+000	 6.5174280368e-002
 3.6430057551e+000	 1.5267642479e+000	 3.1380079088e-002
 3.6275888614e+000	 1.5630416030e+000	-2.6418570894e-003
 3.6117801587e+000	 1.5992323426e+000	-3.5947177794e-002
 3.5955798816e+000	 1.6353303381e+000	-6.7538270441e-002
 3.5789883890e+000	 1.6713294442e+000	-9.6365208854e-002
 3.5620061645e+000	 1.7072235015e+000	-1.2132684249e-001
 3.5446338175e+000	 1.7430063396e+000	-1.4127202648e-001
 3.5268720839e+000	 1.7786717808e+000	-1.5500099232e-001
 3.5087218270e+000	 1.8142136426e+000	-1.6126685857e-001
 3.6959084967e+000	 1.4631764705e+000	 9.3780768047e-002
 3.6811828209e+000	 1.4998393378e+000	 6.3017639009e-002
 3.6660627535e+000	 1.5364273128e+000	 3.0410759142e-002
 3.6505482846e+000	 1.5729342714e+000	-3.1031242825e-003
 3.6346395268e+000	 1.6093540662e+000	-3.6531324441e-002
 3.6183367163e+000	 1.6456805302e+000	-6.8826060706e-002
 3.6016402143e+000	 1.6819074787e+000	-9.8885448389e-002
 3.5845505073e+000	 1.7180287135e+000	-1.2555463310e-001
 3.5670682087e+000	 1.7540380253e+000	-1.4762706991e-001
 3.5491940591e+000	 1.7899291972e+000	-1.6384594716e-001
 3.5309289271e+000	 1.8256960074e+000	-1.7290575418e-001
 3.7191532043e+000	 1.4723788383e+000	 8.9633974442e-002
 3.7043349141e+000	 1.5092722896e+000	 6.1404525577e-002
 3.6891197520e+000	 1.5460903777e+000	 3.0591787435e-002
 3.6735077078e+000	 1.5828269397e+000	-1.8210718578e-003
 3.6574988949e+000	 1.6194757899e+000	-3.4793054819e-002
 3.6410935510e+000	 1.6560307222e+000	-6.7226217343e-002
 3.6242920395e+000	 1.6924855132e+000	-9.7966699484e-002
 3.6070948501e+000	 1.7288339256e+000	-1.2580590492e-001
 3.5895026000e+000	 1.7650697110e+000	-1.4948182926e-001
 3.5715160343e+000	 1.8011866135e+000	-1.6768053699e-001
 3.5531360273e+000	 1.8371783722e+000	-1.7903778636e-001
 3.3310650256e+000	 1.7223547240e+000	 1.3425942140e-001
 3.3134658586e+000	 1.7559738049e+000	 7.9532972099e-002
 3.2954998440e+000	 1.7894638242e+000	 1.0962699718e-002
 3.2771681667e+000	 1.8228189179e+000	-7.0198886681e-002
 3.2584721341e+000	 1.8560332301e+000	-1.6264252079e-001
 3.2394131765e+000	 1.8891009162e+000	-2.1500133776e-001
 3.2199928470e+000	 1.9220161459e+000	-2.1062241133e-001
 3.2002128214e+000	 1.9547731064e+000	-2.1637109395e-001
 3.1800748984e+000	 1.9873660057e+000	-2.3134879890e-001
 3.1595809991e+000	 2.0197890756e+000	-2.5464122379e-001
 3.1387331671e+000	 2.0520365752e+000	-2.8532046803e-001
 3.3532721258e+000	 1.7338370888e+000	 7.7267287145e-002
 3.3355556310e+000	 1.7676802970e+000	 2.3888333871e-002
 3.3174698430e+000	 1.8013935830e+000	-4.3005433496e-002
 3.2990159544e+000	 1.8349710440e+000	-1.2218685719e-001
 3.2801952817e+000	 1.8684067849e+000	-2.1237185647e-001
 3.2610092644e+000	 1.9016949223e+000	-2.1541639483e-001
 3.2414594660e+000	 1.9348295869e+000	-2.0493098920e-001
 3.2215475736e+000	 1.9678049271e+000	-2.0410819237e-001
 3.2012753977e+000	 2.0006151124e+000	-2.1208041950e-001
 3.1806448724e+000	 2.0332543361e+000	-2.2796517899e-001
 3.1596580548e+000	 2.0657168190e+000	-2.5086718948e-001
 3.3754792260e+000	 1.7453194536e+000	 2.6092253263e-002
 3.3576454034e+000	 1.7793867890e+000	-2.7252610293e-002
 3.3394398419e+000	 1.8133233418e+000	-9.3804399969e-002
 3.3208637422e+000	 1.8471231701e+000	-1.7236036050e-001
 3.3019184292e+000	 1.8807803398e+000	-2.4019153159e-001
 3.2826053522e+000	 1.9142889284e+000	-2.1504504106e-001
 3.2629260850e+000	 1.9476430278e+000	-1.9992148001e-001
 3.2428823257e+000	 1.9808367478e+000	-1.9399933953e-001
 3.2224758970e+000	 2.0138642191e+000	-1.9644092397e-001
 3.2017087458e+000	 2.0467195966e+000	-2.0639443515e-001
 3.1805829426e+000	 2.0793970629e+000	-2.2299609043e-001
 3.3976863261e+000	 1.7568018184e+000	-1.9312872328e-002
 3.3797351758e+000	 1.7910932810e+000	-7.3916201997e-002
 3.3614098409e+000	 1.8252531007e+000	-1.4143960643e-001
 3.3427115300e+000	 1.8592752962e+000	-2.2070379067e-001
 3.3236415768e+000	 1.8931538947e+000	-2.4195292024e-001
 3.3042014401e+000	 1.9268829345e+000	-2.1410281886e-001
 3.2843927040e+000	 1.9604564688e+000	-1.9579006522e-001
 3.2642170778e+000	 1.9938685685e+000	-1.8622113609e-001
 3.2436763964e+000	 2.0271133258e+000	-1.8458711778e-001
 3.2227726191e+000	 2.0601848571e+000	-1.9006579399e-001
 3.2015078304e+000	 2.0930773067e+000	-2.0182376616e-001
 3.4198934263e+000	 1.7682841833e+000	-5.8992720581e-002
 3.4018249482e+000	 1.8027997731e+000	-1.1612682734e-001
 3.3833798398e+000	 1.8371828595e+000	-1.8591511497e-001
 3.3645593178e+000	 1.8714274223e+000	-2.6720081293e-001
 3.3453647243e+000	 1.9055274495e+000	-2.4193374090e-001
 3.3257975279e+000	 1.9394769406e+000	-2.1280578725e-001
 3.3058593229e+000	 1.9732699098e+000	-1.9273407202e-001
 3.2855518300e+000	 2.0069003892e+000	-1.8095196136e-001
 3.2648768957e+000	 2.0403624325e+000	-1.7667822167e-001
 3.2438364924e+000	 2.0736501176e+000	-1.7911911234e-001
 3.2224327182e+000	 2.1067575505e+000	-1.8747050994e-001
 3.4421005265e+000	 1.7797665481e+000	-9.2989443941e-002
 3.4239147206e+000	 1.8145062651e+000	-1.5390698002e-001
 3.4053498388e+000	 1.8491126183e+000	-2.2723368639e-001
 3.3864071056e+000	 1.8835795485e+000	-2.7867075474e-001
 3.3670878719e+000	 1.9179010044e+000	-2.4036845853e-001
 3.3473936158e+000	 1.9520709467e+000	-2.1137050523e-001
 3.3273259419e+000	 1.9860833507e+000	-1.9095193639e-001
 3.3068865821e+000	 2.0199322099e+000	-1.7837191603e-001
 3.2860773950e+000	 2.0536115392e+000	-1.7287579370e-001
 3.2649003657e+000	 2.0871153781e+000	-1.7369720359e-001
 3.2433576059e+000	 2.1204377944e+000	-1.8006019374e-001
 3.4643076266e+000	 1.7912489129e+000	-1.2134279578e-001
 3.4460044930e+000	 1.8262127571e+000	-1.8727732196e-001
 3.4273198378e+000	 1.8610423772e+000	-2.6539682195e-001
 3.4082548933e+000	 1.8957316746e+000	-2.7377644909e-001
 3.3888110195e+000	 1.9302745593e+000	-2.3749143664e-001
 3.3689897036e+000	 1.9646649528e+000	-2.1001401575e-001
 3.3487925609e+000	 1.9988967917e+000	-1.9064316753e-001
 3.3282213343e+000	 2.0329640306e+000	-1.7866276689e-001
 3.3072778943e+000	 2.0668606459e+000	-1.7334365439e-001
 3.2859642391e+000	 2.1005806386e+000	-1.7394574291e-001
 3.2642824937e+000	 2.1341180382e+000	-1.7972015349e-001
 3.4865147268e+000	 1.8027312778e+000	-1.4409020681e-001
 3.4680942654e+000	 1.8379192492e+000	-2.1625674164e-001
 3.4492898367e+000	 1.8729721360e+000	-3.0040480345e-001
 3.4301026811e+000	 1.9078838007e+000	-2.6643579988e-001
 3.4105341670e+000	 1.9426481142e+000	-2.3353694051e-001
 3.3905857914e+000	 1.9772589590e+000	-2.0895383031e-001
 3.3702591799e+000	 2.0117102327e+000	-1.9200831369e-001
 3.3495560864e+000	 2.0459958514e+000	-1.8200789385e-001
 3.3284783936e+000	 2.0801097526e+000	-1.7824781461e-001
 3.3070281124e+000	 2.1140458991e+000	-1.8001317615e-001
 3.2852073815e+000	 2.1477982820e+000	-1.8658107878e-001
 3.5087218270e+000	 1.8142136426e+000	-1.6126685857e-001
 3.4901840378e+000	 1.8496257412e+000	-2.4086241026e-001
 3.4712598357e+000	 1.8849018948e+000	-2.9352813826e-001
 3.4519504689e+000	 1.9200359268e+000	-2.5689897257e-001
 3.4322573146e+000	 1.9550216690e+000	-2.2873914029e-001
 3.4121818793e+000	 1.9898529651e+000	-2.0840791408e-001
 3.3917257989e+000	 2.0245236737e+000	-1.9524892932e-001
 3.3708908386e+000	 2.0590276721e+000	-1.8859223886e-001
 3.3496788930e+000	 2.0933588593e+000	-1.8775640631e-001
 3.3280919857e+000	 2.1275111596e+000	-1.9205063213e-001
 3.3061322693e+000	 2.1614785259e+000	-2.0077690675e-001
 3.5309289271e+000	 1.8256960074e+000	-1.7290575418e-001
 3.5122738102e+000	 1.8613322332e+000	-2.6110983572e-001
 3.4932298346e+000	 1.8968316537e+000	-2.7546561185e-001
 3.4737982567e+000	 1.9321880529e+000	-2.4541551273e-001
 3.4539804622e+000	 1.9673952239e+000	-2.2333211402e-001
 3.4337779671e+000	 2.0024469712e+000	-2.0859467169e-001
 3.4131924178e+000	 2.0373371146e+000	-2.0056754337e-001
 3.3922255907e+000	 2.0720594928e+000	-1.9860225678e-001
 3.3708793923e+000	 2.1066079660e+000	-2.0203961579e-001
 3.3491558591e+000	 2.1409764201e+000	-2.1021183828e-001
 3.3270571571e+000	 2.1751587697e+000	-2.2244471994e-001
 3.5531360273e+000	 1.8371783722e+000	-1.7903778636e-001
 3.5343635826e+000	 1.8730387253e+000	-2.7701291456e-001
 3.5151998336e+000	 1.9087614125e+000	-2.5438829683e-001
 3.4956460444e+000	 1.9443401791e+000	-2.3223436537e-001
 3.4757036097e+000	 1.9797687788e+000	-2.1754985050e-001
 3.4553740550e+000	 2.0150409773e+000	-2.0973293348e-001
 3.4346590368e+000	 2.0501505556e+000	-2.0816762890e-001
 3.4135603429e+000	 2.0850913135e+000	-2.1222586813e-001
 3.3920798916e+000	 2.1198570727e+000	-2.2126961953e-001
 3.3702197324e+000	 2.1544416806e+000	-2.3465303941e-001
 3.3479820449e+000	 2.1888390135e+000	-2.5172464802e-001
 3.1387331671e+000	 2.0520365752e+000	-2.8532046803e-001
 3.1175335675e+000	 2.0841027938e+000	-3.9154334568e-001
 3.0959844873e+000	 2.1159820543e+000	-3.8644258442e-001
 3.0740883340e+000	 2.1476687162e+000	-3.9039070939e-001
 3.0518476352e+000	 2.1791571792e+000	-4.0372429901e-001
 3.0292650379e+000	 2.2104418857e+000	-4.2677542471e-001
 3.0063433076e+000	 2.2415173246e+000	-4.5987121182e-001
 2.9830853273e+000	 2.2723780342e+000	-5.0333339726e-001
 2.9594940961e+000	 2.3030186050e+000	-5.5747788507e-001
 2.9355727287e+000	 2.3334336833e+000	-6.2261430033e-001
 2.9113244534e+000	 2.3636179740e+000	-6.9904554241e-001
 3.1596580548e+000	 2.0657168190e+000	-2.5086718948e-001
 3.1383171247e+000	 2.0979968124e+000	-4.1567119141e-001
 3.1166243839e+000	 2.1300886013e+000	-5.1215825198e-001
 3.0945822562e+000	 2.1619865077e+000	-5.0337009561e-001
 3.0721932861e+000	 2.1936848937e+000	-5.0273786704e-001
 3.0494601381e+000	 2.2251781649e+000	-5.1055840767e-001
 3.0263855963e+000	 2.2564607735e+000	-5.2712474626e-001
 3.0029725628e+000	 2.2875272211e+000	-5.5272569948e-001
 2.9792240568e+000	 2.3183720624e+000	-5.8764546875e-001
 2.9551432136e+000	 2.3489899079e+000	-6.3216323396e-001
 2.9307332831e+000	 2.3793754271e+000	-6.8655274500e-001
 3.1805829426e+000	 2.0793970629e+000	-2.2299609043e-001
 3.1591006818e+000	 2.1118908310e+000	-3.8206243657e-001
 3.1372642805e+000	 2.1441951483e+000	-5.4069514402e-001
 3.1150761784e+000	 2.1763042991e+000	-6.1902218451e-001
 3.0925389370e+000	 2.2082126082e+000	-6.0353357821e-001
 3.0696552384e+000	 2.2399144442e+000	-5.9524834638e-001
 3.0464278850e+000	 2.2714042223e+000	-5.9442591074e-001
 3.0228597983e+000	 2.3026764080e+000	-6.0132265068e-001
 2.9989540174e+000	 2.3337255197e+000	-6.1619154090e-001
 2.9747136984e+000	 2.3645461324e+000	-6.3928178459e-001
 2.9501421128e+000	 2.3951328803e+000	-6.7083844256e-001
 3.2015078304e+000	 2.0930773067e+000	-2.0182376616e-001
 3.1798842389e+000	 2.1257848497e+000	-3.5451784060e-001
 3.1579041771e+000	 2.1583016954e+000	-5.0549333692e-001
 3.1355701007e+000	 2.1906220906e+000	-6.5377803021e-001
 3.1128845879e+000	 2.2227403228e+000	-7.0607247676e-001
 3.0898503386e+000	 2.2546507234e+000	-6.8082192333e-001
 3.0664701738e+000	 2.2863476711e+000	-6.6176666666e-001
 3.0427470338e+000	 2.3178255949e+000	-6.4913112388e-001
 3.0186839780e+000	 2.3490789771e+000	-6.4313751127e-001
 2.9942841833e+000	 2.3801023570e+000	-6.4400551621e-001
 2.9695509425e+000	 2.4108903335e+000	-6.5195196368e-001
 3.2224327182e+000	 2.1067575505e+000	-1.8747050994e-001
 3.2006677960e+000	 2.1396788683e+000	-3.3317866204e-001
 3.1785440737e+000	 2.1724082424e+000	-4.7589133556e-001
 3.1560640229e+000	 2.2049398820e+000	-6.1456690561e-001
 3.1332302388e+000	 2.2372680373e+000	-7.4816850141e-001
 3.1100454389e+000	 2.2693870027e+000	-7.6725739763e-001
 3.0865124625e+000	 2.3012911200e+000	-7.2914015299e-001
 3.0626342693e+000	 2.3329747818e+000	-6.9615877961e-001
 3.0384139387e+000	 2.3644324345e+000	-6.6850519606e-001
 3.0138546681e+000	 2.3956585816e+000	-6.4637002766e-001
 2.9889597722e+000	 2.4266477866e+000	-6.2994230970e-001
 3.2433576059e+000	 2.1204377944e+000	-1.8006019374e-001
 3.2214513531e+000	 2.1535728869e+000	-3.1818931197e-001
 3.1991839703e+000	 2.1865147894e+000	-4.5205370722e-001
 3.1765579451e+000	 2.2192576734e+000	-5.8054223288e-001
 3.1535758897e+000	 2.2517957518e+000	-7.0254972886e-001
 3.1302405392e+000	 2.2841232819e+000	-8.1697958212e-001
 3.1065547512e+000	 2.3162345688e+000	-7.9654064832e-001
 3.0825215048e+000	 2.3481239687e+000	-7.4241404047e-001
 3.0581438993e+000	 2.3797858918e+000	-6.9231680493e-001
 3.0334251530e+000	 2.4112148061e+000	-6.4641095153e-001
 3.0083686019e+000	 2.4424052398e+000	-6.0485816524e-001
 3.2642824937e+000	 2.1341180382e+000	-1.7972015349e-001
 3.2422349102e+000	 2.1674669055e+000	-3.0969725296e-001
 3.2198238668e+000	 2.2006213364e+000	-4.3414766552e-001
 3.1970518674e+000	 2.2335754649e+000	-5.5189058780e-001
 3.1739215406e+000	 2.2663234664e+000	-6.6175243603e-001
 3.1504356394e+000	 2.2988595611e+000	-7.6256951513e-001
 3.1265970399e+000	 2.3311780176e+000	-8.5319067353e-001
 3.1024087403e+000	 2.3632731556e+000	-7.8790606673e-001
 3.0778738600e+000	 2.3951393492e+000	-7.1459492828e-001
 3.0529956378e+000	 2.4267710307e+000	-6.4416395307e-001
 3.0277774315e+000	 2.4581626929e+000	-5.7674790837e-001
 3.2852073815e+000	 2.1477982820e+000	-1.8658107878e-001
 3.2630184674e+000	 2.1813609242e+000	-3.0785290187e-001
 3.2404637634e+000	 2.2147278835e+000	-4.2234298606e-001
 3.2175457896e+000	 2.2478932563e+000	-5.2880072320e-001
 3.1942671915e+000	 2.2808511809e+000	-6.2598395859e-001
 3.1706307397e+000	 2.3135958404e+000	-7.1266176928e-001
 3.1466393286e+000	 2.3461214665e+000	-7.8761722659e-001
 3.1222959759e+000	 2.3784223425e+000	-8.3264473280e-001
 3.0976038206e+000	 2.4104928066e+000	-7.3536252519e-001
 3.0725661227e+000	 2.4423272552e+000	-6.3966472912e-001
 3.0471862612e+000	 2.4739201461e+000	-5.4565962035e-001
 3.3061322693e+000	 2.1614785259e+000	-2.0077690675e-001
 3.2838020245e+000	 2.1952549428e+000	-3.1280953638e-001
 3.2611036600e+000	 2.2288344305e+000	-4.1681192542e-001
 3.2380397118e+000	 2.2622110478e+000	-5.1146350007e-001
 3.2146128424e+000	 2.2953788954e+000	-5.9545337483e-001
 3.1908258399e+000	 2.3283321196e+000	-6.6748324065e-001
 3.1666816174e+000	 2.3610649153e+000	-7.2627023572e-001
 3.1421832114e+000	 2.3935715294e+000	-7.7054979133e-001
 3.1173337812e+000	 2.4258462639e+000	-7.5464291172e-001
 3.0921366076e+000	 2.4578834798e+000	-6.3294900714e-001
 3.0665950909e+000	 2.4896775993e+000	-5.1164109505e-001
 3.3270571571e+000	 2.1751587697e+000	-2.2244471994e-001
 3.3045855816e+000	 2.2091489614e+000	-3.2472320500e-001
 3.2817435566e+000	 2.2429409775e+000	-4.1772914312e-001
 3.2585336340e+000	 2.2765288392e+000	-5.0007182127e-001
 3.2349584933e+000	 2.3099066099e+000	-5.7037145089e-001
 3.2110209402e+000	 2.3430683989e+000	-6.2726216638e-001
 3.1867239061e+000	 2.3760083641e+000	-6.6939500480e-001
 3.1620704469e+000	 2.4087207162e+000	-6.9544085892e-001
 3.1370637419e+000	 2.4411997213e+000	-7.0409339587e-001
 3.1117070924e+000	 2.4734397043e+000	-6.2405254425e-001
 3.0860039206e+000	 2.5054350524e+000	-5.0829018482e-001
 3.3479820449e+000	 2.1888390135e+000	-2.5172464802e-001
 3.3253691387e+000	 2.2230429801e+000	-3.4375264052e-001
 3.3023834532e+000	 2.2570475246e+000	-4.2527162651e-001
 3.2790275563e+000	 2.2908466307e+000	-4.9482056772e-001
 3.2553041442e+000	 2.3244343245e+000	-5.5095058799e-001
 3.2312160404e+000	 2.3578046781e+000	-5.9222808270e-001
 3.2067661948e+000	 2.3909518130e+000	-6.1723780801e-001
 3.1819576824e+000	 2.4238699031e+000	-6.2458594169e-001
 3.1567937025e+000	 2.4565531787e+000	-6.1290310755e-001
 3.1312775773e+000	 2.4889959289e+000	-5.8084735557e-001
 3.1054127503e+000	 2.5211925056e+000	-5.6767744587e-001
 2.9113244534e+000	 2.3636179740e+000	-6.9904554241e-001
 2.8867526112e+000	 2.3935662434e+000	-7.0572608673e-001
 2.8618606541e+000	 2.4232733227e+000	-6.9640447132e-001
 2.8366521436e+000	 2.4527341104e+000	-6.7134763703e-001
 2.8111307490e+000	 2.4819435755e+000	-6.3084175934e-001
 2.7853002459e+000	 2.5108967602e+000	-6.3119271820e-001
 2.7591645138e+000	 2.5395887828e+000	-7.0660833408e-001
 2.7327275349e+000	 2.5680148403e+000	-7.6303368105e-001
 2.7059933915e+000	 2.5961702111e+000	-7.9969631816e-001
 2.6789662642e+000	 2.6240502578e+000	-8.1582720728e-001
 2.6516504295e+000	 2.6516504295e+000	-8.1066229944e-001
 2.9307332831e+000	 2.3793754271e+000	-6.8655274500e-001
 2.9059976286e+000	 2.4095233517e+000	-6.7147790988e-001
 2.8809397251e+000	 2.4394284782e+000	-6.4213400397e-001
 2.8555631579e+000	 2.4690856712e+000	-5.9881972071e-001
 2.8298716207e+000	 2.4984898660e+000	-5.4185155788e-001
 2.8038689142e+000	 2.5276360719e+000	-6.1824752037e-001
 2.7775589439e+000	 2.5565193747e+000	-6.8643209920e-001
 2.7509457185e+000	 2.5851349392e+000	-7.3758505967e-001
 2.7240333475e+000	 2.6134780125e+000	-7.7093146730e-001
 2.6968260392e+000	 2.6415439262e+000	-7.8569756757e-001
 2.6693280990e+000	 2.6693280990e+000	-7.8111239103e-001
 2.9501421128e+000	 2.3951328803e+000	-6.7083844256e-001
 2.9252426460e+000	 2.4254804600e+000	-6.3436398253e-001
 2.9000187961e+000	 2.4555836337e+000	-5.8533073627e-001
 2.8744741721e+000	 2.4854372319e+000	-5.2406900372e-001
 2.8486124923e+000	 2.5150361565e+000	-5.3339460263e-001
 2.8224375825e+000	 2.5443753837e+000	-6.0906116798e-001
 2.7959533740e+000	 2.5734499666e+000	-6.7041497933e-001
 2.7691639021e+000	 2.6022550381e+000	-7.1668075809e-001
 2.7420733034e+000	 2.6307858139e+000	-7.4708059597e-001
 2.7146858143e+000	 2.6590375946e+000	-7.6083554369e-001
 2.6870057685e+000	 2.6870057685e+000	-7.5716723547e-001
 2.9695509425e+000	 2.4108903335e+000	-6.5195196368e-001
 2.9444876634e+000	 2.4414375683e+000	-5.9442487036e-001
 2.9190978672e+000	 2.4717387892e+000	-5.2602688032e-001
 2.8933851864e+000	 2.5017887926e+000	-4.5719156329e-001
 2.8673533640e+000	 2.5315824470e+000	-5.3610499321e-001
 2.8410062508e+000	 2.5611146954e+000	-6.0340604261e-001
 2.8143478041e+000	 2.5903805584e+000	-6.5832464264e-001
 2.7873820856e+000	 2.6193751371e+000	-7.0008429706e-001
 2.7601132593e+000	 2.6480936153e+000	-7.2790364401e-001
 2.7325455894e+000	 2.6765312630e+000	-7.4099806107e-001
 2.7046834380e+000	 2.7046834380e+000	-7.3858130980e-001
 2.9889597722e+000	 2.4266477866e+000	-6.2994230970e-001
 2.9637326808e+000	 2.4573946766e+000	-5.5170103420e-001
 2.9381769382e+000	 2.4878939447e+000	-4.6425475454e-001
 2.9122962007e+000	 2.5181403534e+000	-4.7267909313e-001
 2.8860942356e+000	 2.5481287375e+000	-5.4171519132e-001
 2.8595749191e+000	 2.5778540071e+000	-6.0105519739e-001
 2.8327422342e+000	 2.6073111503e+000	-6.4992959406e-001
 2.8056002692e+000	 2.6364952360e+000	-6.8756018767e-001
 2.7781532153e+000	 2.6654014167e+000	-7.1316168331e-001
 2.7504053645e+000	 2.6940249314e+000	-7.2594330700e-001
 2.7223611076e+000	 2.7223611076e+000	-7.2511047086e-001
 3.0083686019e+000	 2.4424052398e+000	-6.0485816524e-001
 2.9829776982e+000	 2.4733517849e+000	-5.0623283339e-001
 2.9572560092e+000	 2.5040491002e+000	-4.2382706137e-001
 2.9312072150e+000	 2.5344919141e+000	-4.9043307807e-001
 2.9048351073e+000	 2.5646750280e+000	-5.5000383054e-001
 2.8781435874e+000	 2.5945933189e+000	-6.0178233533e-001
 2.8511366643e+000	 2.6242417422e+000	-6.4499914835e-001
 2.8238184528e+000	 2.6536153349e+000	-6.7887389938e-001
 2.7961931712e+000	 2.6827092181e+000	-7.0261688130e-001
 2.7682651396e+000	 2.7115185997e+000	-7.1543068994e-001
 2.7400387771e+000	 2.7400387771e+000	-7.1651191076e-001
 3.0277774315e+000	 2.4581626929e+000	-5.7674790837e-001
 3.0022227156e+000	 2.4893088932e+000	-4.5806052908e-001
 2.9763350802e+000	 2.5202042556e+000	-4.5458062200e-001
 2.9501182293e+000	 2.5508434748e+000	-5.1023791032e-001
 2.9235759790e+000	 2.5812213185e+000	-5.6075000779e-001
 2.8967122557e+000	 2.6113326306e+000	-6.0536178850e-001
 2.8695310944e+000	 2.6411723341e+000	-6.4330340410e-001
 2.8420366363e+000	 2.6707354339e+000	-6.7379182932e-001
 2.8142331272e+000	 2.7000170196e+000	-6.9603246581e-001
 2.7861249147e+000	 2.7290122681e+000	-7.0922080043e-001
 2.7577164466e+000	 2.7577164466e+000	-7.1254411409e-001
 3.0471862612e+000	 2.4739201461e+000	-5.4565962035e-001
 3.0214677330e+000	 2.5052660015e+000	-4.3910539707e-001
 2.9954141513e+000	 2.5363594111e+000	-4.8675721428e-001
 2.9690292436e+000	 2.5671950356e+000	-5.3187825979e-001
 2.9423168506e+000	 2.5977676090e+000	-5.7373326859e-001
 2.9152809240e+000	 2.6280719423e+000	-6.1156849796e-001
 2.8879255245e+000	 2.6581029260e+000	-6.4461321880e-001
 2.8602548199e+000	 2.6878555328e+000	-6.7208127273e-001
 2.8322730831e+000	 2.7173248210e+000	-6.9317269130e-001
 2.8039846898e+000	 2.7465059365e+000	-7.0707537336e-001
 2.7753941161e+000	 2.7753941161e+000	-7.1296681674e-001
 3.0665950909e+000	 2.4896775993e+000	-5.1164109505e-001
 3.0407127505e+000	 2.5212231098e+000	-4.8449021079e-001
 3.0144932223e+000	 2.5525145666e+000	-5.2014724459e-001
 2.9879402579e+000	 2.5835465963e+000	-5.5513906533e-001
 2.9610577223e+000	 2.6143138995e+000	-5.8873359287e-001
 2.9338495923e+000	 2.6448112541e+000	-6.2017799454e-001
 2.9063199545e+000	 2.6750335179e+000	-6.4870018479e-001
 2.8784730034e+000	 2.7049756317e+000	-6.7351039455e-001
 2.8503130390e+000	 2.7346326224e+000	-6.9380280640e-001
 2.8218444649e+000	 2.7639996049e+000	-7.0875725184e-001
 2.7930717857e+000	 2.7930717857e+000	-7.1754096632e-001
 3.0860039206e+000	 2.5054350524e+000	-5.0829018482e-001
 3.0599577679e+000	 2.5371802180e+000	-5.3046779566e-001
 3.0335722933e+000	 2.5686697221e+000	-5.5454120978e-001
 3.0068512722e+000	 2.5998981570e+000	-5.7980552623e-001
 2.9797985939e+000	 2.6308601900e+000	-6.0553138129e-001
 2.9524182606e+000	 2.6615505658e+000	-6.3096638025e-001
 2.9247143846e+000	 2.6919641097e+000	-6.5533660618e-001
 2.8966911870e+000	 2.7220957307e+000	-6.7784820204e-001
 2.8683529950e+000	 2.7519404238e+000	-6.9768902263e-001
 2.8397042400e+000	 2.7814932733e+000	-7.1403035227e-001
 2.8107494552e+000	 2.8107494552e+000	-7.2602868406e-001
 3.1054127503e+000	 2.5211925056e+000	-5.6767744587e-001
 3.0792027853e+000	 2.5531373263e+000	-5.7683435705e-001
 3.0526513643e+000	 2.5848248776e+000	-5.8972969432e-001
 3.0257622864e+000	 2.6162497178e+000	-6.0566309413e-001
 2.9985394656e+000	 2.6474064805e+000	-6.2390744209e-001
 2.9709869289e+000	 2.6782898775e+000	-6.4371031047e-001
 2.9431088147e+000	 2.7088947016e+000	-6.6429547660e-001
 2.9149093706e+000	 2.7392158296e+000	-6.8486451853e-001
 2.8863929509e+000	 2.7692482252e+000	-7.0459848432e-001
 2.8575640151e+000	 2.7989869417e+000	-7.2265963088e-001
 2.8284271247e+000	 2.8284271247e+000	-7.3819322813e-001
 2.6516504295e+000	 2.6516504295e+000	-8.1066229944e-001
 2.6240502578e+000	 2.6789662642e+000	-7.7860567244e-001
 2.5961702111e+000	 2.7059933915e+000	-7.7013991028e-001
 2.5680148403e+000	 2.7327275349e+000	-7.8467040882e-001
 2.5395887828e+000	 2.7591645138e+000	-8.2156907045e-001
 2.5108967602e+000	 2.7853002459e+000	-8.8017589810e-001
 2.4819435755e+000	 2.8111307490e+000	-8.8635508881e-001
 2.4527341104e+000	 2.8366521436e+000	-8.6412915777e-001
 2.4232733227e+000	 2.8618606541e+000	-8.5764436986e-001
 2.3935662434e+000	 2.8867526112e+000	-8.6763317226e-001
 2.3636179740e+000	 2.9113244534e+000	-8.9476615549e-001
 2.6693280990e+000	 2.6693280990e+000	-7.8111239103e-001
 2.6415439262e+000	 2.6968260392e+000	-7.5350315313e-001
 2.6134780125e+000	 2.7240333475e+000	-7.4768331124e-001
 2.5851349392e+000	 2.7509457185e+000	-7.6300024478e-001
 2.5565193747e+000	 2.7775589439e+000	-7.9876920001e-001
 2.5276360719e+000	 2.8038689142e+000	-8.5427496163e-001
 2.4984898660e+000	 2.8298716207e+000	-9.2239299158e-001
 2.4690856712e+000	 2.8555631579e+000	-8.8902665416e-001
 2.4394284782e+000	 2.8809397251e+000	-8.6955831802e-001
 2.4095233517e+000	 2.9059976286e+000	-8.6470676213e-001
 2.3793754271e+000	 2.9307332831e+000	-8.7512931873e-001
 2.6870057685e+000	 2.6870057685e+000	-7.5716723547e-001
 2.6590375946e+000	 2.7146858143e+000	-7.3332035420e-001
 2.6307858139e+000	 2.7420733034e+000	-7.2949283090e-001
 2.6022550381e+000	 2.7691639021e+000	-7.4497401390e-001
 2.5734499666e+000	 2.7959533740e+000	-7.7902245211e-001
 2.5443753837e+000	 2.8224375825e+000	-8.3086764449e-001
 2.5150361565e+000	 2.8486124923e+000	-8.9971185063e-001
 2.4854372319e+000	 2.8744741721e+000	-9.2031146941e-001
 2.4555836337e+000	 2.9000187961e+000	-8.8723252904e-001
 2.4254804600e+000	 2.9252426460e+000	-8.6696100170e-001
 2.3951328803e+000	 2.9501421128e+000	-8.6014127763e-001
 2.7046834380e+000	 2.7046834380e+000	-7.3858130980e-001
 2.6765312630e+000	 2.7325455894e+000	-7.1782957936e-001
 2.6480936153e+000	 2.7601132593e+000	-7.1535820539e-001
 2.6193751371e+000	 2.7873820856e+000	-7.3039848005e-001
 2.5903805584e+000	 2.8143478041e+000	-7.6215220346e-001
 2.5611146954e+000	 2.8410062508e+000	-8.0979351132e-001
 2.5315824470e+000	 2.8673533640e+000	-8.7247076232e-001
 2.5017887926e+000	 2.8933851864e+000	-9.4930848038e-001
 2.4717387892e+000	 2.9190978672e+000	-9.1015074049e-001
 2.4414375683e+000	 2.9444876634e+000	-8.7389182463e-001
 2.4108903335e+000	 2.9695509425e+000	-8.4930993598e-001
 2.7223611076e+000	 2.7223611076e+000	-7.2511047086e-001
 2.6940249314e+000	 2.7504053645e+000	-7.0680410605e-001
 2.6654014167e+000	 2.7781532153e+000	-7.0506975135e-001
 2.6364952360e+000	 2.8056002692e+000	-7.1908060744e-001
 2.6073111503e+000	 2.8327422342e+000	-7.4798166412e-001
 2.5778540071e+000	 2.8595749191e+000	-7.9089160648e-001
 2.5481287375e+000	 2.8860942356e+000	-8.4690477964e-001
 2.5181403534e+000	 2.9122962007e+000	-9.1509320658e-001
 2.4878939447e+000	 2.9381769382e+000	-9.3779519063e-001
 2.4573946766e+000	 2.9637326808e+000	-8.8499336665e-001
 2.4266477866e+000	 2.9889597722e+000	-8.4214111511e-001
 2.7400387771e+000	 2.7400387771e+000	-7.1651191076e-001
 2.7115185997e+000	 2.7682651396e+000	-7.0001815404e-001
 2.6827092181e+000	 2.7961931712e+000	-6.9841834724e-001
 2.6536153349e+000	 2.8238184528e+000	-7.1082755417e-001
 2.6242417422e+000	 2.8511366643e+000	-7.3633388287e-001
 2.5945933189e+000	 2.8781435874e+000	-7.7400047089e-001
 2.5646750280e+000	 2.9048351073e+000	-8.2286752757e-001
 2.5344919141e+000	 2.9312072150e+000	-8.8195442813e-001
 2.5040491002e+000	 2.9572560092e+000	-9.5026185406e-001
 2.4733517849e+000	 2.9829776982e+000	-8.9975802355e-001
 2.4424052398e+000	 3.0083686019e+000	-8.3813862105e-001
 2.7577164466e+000	 2.7577164466e+000	-7.1254411409e-001
 2.7290122681e+000	 2.7861249147e+000	-6.9724685522e-001
 2.7000170196e+000	 2.8142331272e+000	-6.9519541531e-001
 2.6707354339e+000	 2.8420366363e+000	-7.0544666596e-001
 2.6411723341e+000	 2.8695310944e+000	-7.2703175240e-001
 2.6113326306e+000	 2.8967122557e+000	-7.5895815809e-001
 2.5812213185e+000	 2.9235759790e+000	-8.0021182519e-001
 2.5508434748e+000	 2.9501182293e+000	-8.4975932524e-001
 2.5202042556e+000	 2.9763350802e+000	-9.0655007459e-001
 2.4893088932e+000	 3.0022227156e+000	-9.1767650695e-001
 2.4581626929e+000	 3.0277774315e+000	-8.3680430918e-001
 2.7753941161e+000	 2.7753941161e+000	-7.1296681674e-001
 2.7465059365e+000	 2.8039846898e+000	-6.9826622455e-001
 2.7173248210e+000	 2.8322730831e+000	-6.9519290427e-001
 2.6878555328e+000	 2.8602548199e+000	-7.0274547025e-001
 2.6581029260e+000	 2.8879255245e+000	-7.1989801424e-001
 2.6280719423e+000	 2.9152809240e+000	-7.4560224981e-001
 2.5977676090e+000	 2.9423168506e+000	-7.7878971135e-001
 2.5671950356e+000	 2.9690292436e+000	-8.1837400187e-001
 2.5363594111e+000	 2.9954141513e+000	-8.6325308407e-001
 2.5052660015e+000	 3.0214677330e+000	-9.1231160854e-001
 2.4739201461e+000	 3.0471862612e+000	-8.3763814628e-001
 2.7930717857e+000	 2.7930717857e+000	-7.1754096632e-001
 2.7639996049e+000	 2.8218444649e+000	-7.0285313211e-001
 2.7346326224e+000	 2.8503130390e+000	-6.9820327264e-001
 2.7049756317e+000	 2.8784730034e+000	-7.0253167040e-001
 2.6750335179e+000	 2.9063199545e+000	-7.1475526360e-001
 2.6448112541e+000	 2.9338495923e+000	-7.3376987090e-001
 2.6143138995e+000	 2.9610577223e+000	-7.5845246932e-001
 2.5835465963e+000	 2.9879402579e+000	-7.8766351980e-001
 2.5525145666e+000	 3.0144932223e+000	-8.2024933422e-001
 2.5212231098e+000	 3.0407127505e+000	-8.5504447807e-001
 2.4896775993e+000	 3.0665950909e+000	-8.4013827036e-001
 2.8107494552e+000	 2.8107494552e+000	-7.2602868406e-001
 2.7814932733e+000	 2.8397042400e+000	-7.1078527622e-001
 2.7519404238e+000	 2.8683529950e+000	-7.0401947273e-001
 2.7220957307e+000	 2.8966911870e+000	-7.0461314016e-001
 2.6919641097e+000	 2.9247143846e+000	-7.1142595392e-001
 2.6615505658e+000	 2.9524182606e+000	-7.2329770365e-001
 2.6308601900e+000	 2.9797985939e+000	-7.3905065062e-001
 2.5998981570e+000	 3.0068512722e+000	-7.5749193138e-001
 2.5686697221e+000	 3.0335722933e+000	-7.7741600148e-001
 2.5371802180e+000	 3.0599577679e+000	-7.9760711305e-001
 2.5054350524e+000	 3.0860039206e+000	-8.1684181991e-001
 2.8284271247e+000	 2.8284271247e+000	-7.3819322813e-001
 2.7989869417e+000	 2.8575640151e+000	-7.2184115756e-001
 2.7692482252e+000	 2.8863929509e+000	-7.1243493519e-001
 2.7392158296e+000	 2.9149093706e+000	-7.0879791836e-001
 2.7088947016e+000	 2.9431088147e+000	-7.0973240133e-001
 2.6782898775e+000	 2.9709869289e+000	-7.1402200169e-001
 2.6474064805e+000	 2.9985394656e+000	-7.2043409780e-001
 2.6162497178e+000	 3.0257622864e+000	-7.2772231108e-001
 2.5848248776e+000	 3.0526513643e+000	-7.3462902687e-001
 2.5531373263e+000	 3.0792027853e+000	-7.3988794754e-001
 2.5211925056e+000	 3.1054127503e+000	-7.4222667139e-001
 2.3636179740e+000	 2.9113244534e+000	-8.9476615549e-001
 2.3334336833e+000	 2.9355727287e+000	-9.3376398099e-001
 2.3030186050e+000	 2.9594940961e+000	-9.5653610406e-001
 2.2723780342e+000	 2.9830853273e+000	-9.6318603572e-001
 2.2415173246e+000	 3.0063433076e+000	-9.5378859021e-001
 2.2104418857e+000	 3.0292650379e+000	-9.2839018542e-001
 2.1791571792e+000	 3.0518476352e+000	-8.8700926212e-001
 2.1476687162e+000	 3.0740883340e+000	-8.2963681942e-001
 2.1159820543e+000	 3.0959844873e+000	-7.5623706350e-001
 2.0841027938e+000	 3.1175335675e+000	-6.6674816630e-001
 2.0520365752e+000	 3.1387331671e+000	-7.7550274595e-001
 2.3793754271e+000	 2.9307332831e+000	-8.7512931873e-001
 2.3489899079e+000	 2.9551432136e+000	-8.8702542897e-001
 2.3183720624e+000	 2.9792240568e+000	-8.8257035553e-001
 2.2875272211e+000	 3.0029725628e+000	-8.6191472753e-001
 2.2564607735e+000	 3.0263855963e+000	-8.2517913770e-001
 2.2251781649e+000	 3.0494601381e+000	-7.7245440825e-001
 2.1936848937e+000	 3.0721932861e+000	-7.0380197920e-001
 2.1619865077e+000	 3.0945822562e+000	-6.1925441675e-001
 2.1300886013e+000	 3.1166243839e+000	-5.1881603863e-001
 2.0979968124e+000	 3.1383171247e+000	-5.9815402702e-001
 2.0657168190e+000	 3.1596580548e+000	-7.9359010206e-001
 2.3951328803e+000	 2.9501421128e+000	-8.6014127763e-001
 2.3645461324e+000	 2.9747136984e+000	-8.4579543915e-001
 2.3337255197e+000	 2.9989540174e+000	-8.1499741626e-001
 2.3026764080e+000	 3.0228597983e+000	-7.6794452422e-001
 2.2714042223e+000	 3.0464278850e+000	-7.0480266665e-001
 2.2399144442e+000	 3.0696552384e+000	-6.2570656742e-001
 2.2082126082e+000	 3.0925389370e+000	-5.3076012885e-001
 2.1763042991e+000	 3.1150761784e+000	-4.2003691369e-001
 2.1441951483e+000	 3.1372642805e+000	-4.6272212300e-001
 2.1118908310e+000	 3.1591006818e+000	-6.3566728129e-001
 2.0793970629e+000	 3.1805829426e+000	-8.0518127686e-001
 2.4108903335e+000	 2.9695509425e+000	-8.4930993598e-001
 2.3801023570e+000	 2.9942841833e+000	-8.0956730958e-001
 2.3490789771e+000	 3.0186839780e+000	-7.5329620856e-001
 2.3178255949e+000	 3.0427470338e+000	-6.8074020913e-001
 2.2863476711e+000	 3.0664701738e+000	-5.9211006459e-001
 2.2546507234e+000	 3.0898503386e+000	-4.8758390388e-001
 2.2227403228e+000	 3.1128845879e+000	-3.6730756039e-001
 2.1906220906e+000	 3.1355701007e+000	-3.6777626476e-001
 2.1583016954e+000	 3.1579041771e+000	-5.1801744003e-001
 2.1257848497e+000	 3.1798842389e+000	-6.6583656469e-001
 2.0930773067e+000	 3.2015078304e+000	-8.1028951486e-001
 2.4266477866e+000	 2.9889597722e+000	-8.4214111511e-001
 2.3956585816e+000	 3.0138546681e+000	-7.7783266977e-001
 2.3644324345e+000	 3.0384139387e+000	-6.9694440241e-001
 2.3329747818e+000	 3.0626342693e+000	-5.9976573146e-001
 2.3012911200e+000	 3.0865124625e+000	-4.8655180487e-001
 2.2693870027e+000	 3.1100454389e+000	-3.5752366596e-001
 2.2372680373e+000	 3.1332302388e+000	-3.1185499546e-001
 2.2049398820e+000	 3.1560640229e+000	-4.3922525886e-001
 2.1724082424e+000	 3.1785440737e+000	-5.6515062742e-001
 2.1396788683e+000	 3.2006677960e+000	-6.8869219391e-001
 2.1067575505e+000	 3.2224327182e+000	-8.0893019263e-001
 2.4424052398e+000	 3.0083686019e+000	-8.3813862105e-001
 2.4112148061e+000	 3.0334251530e+000	-7.5008153460e-001
 2.3797858918e+000	 3.0581438993e+000	-6.4541845587e-001
 2.3481239687e+000	 3.0825215048e+000	-5.2448423316e-001
 2.3162345688e+000	 3.1065547512e+000	-3.8757796003e-001
 2.2841232819e+000	 3.1302405392e+000	-2.9346964378e-001
 2.2517957518e+000	 3.1535758897e+000	-3.9784527177e-001
 2.2192576734e+000	 3.1765579451e+000	-5.0172260804e-001
 2.1865147894e+000	 3.1991839703e+000	-6.0416807607e-001
 2.1535728869e+000	 3.2214513531e+000	-7.0426613618e-001
 2.1204377944e+000	 3.2433576059e+000	-8.0112075001e-001
 2.4581626929e+000	 3.0277774315e+000	-8.3680430918e-001
 2.4267710307e+000	 3.0529956378e+000	-7.2580235598e-001
 2.3951393492e+000	 3.0778738600e+000	-5.9819365390e-001
 2.3632731556e+000	 3.1024087403e+000	-4.5435807481e-001
 2.3311780176e+000	 3.1265970399e+000	-3.1110795764e-001
 2.2988595611e+000	 3.1504356394e+000	-3.9240542669e-001
 2.2663234664e+000	 3.1739215406e+000	-4.7412209189e-001
 2.2335754649e+000	 3.1970518674e+000	-5.5532981793e-001
 2.2006213364e+000	 3.2198238668e+000	-6.3511737555e-001
 2.1674669055e+000	 3.2422349102e+000	-7.1259195637e-001
 2.1341180382e+000	 3.2642824937e+000	-7.8688062396e-001
 2.4739201461e+000	 3.0471862612e+000	-8.3763814628e-001
 2.4423272552e+000	 3.0725661227e+000	-7.0448207272e-001
 2.4104928066e+000	 3.0976038206e+000	-5.5474414576e-001
 2.3784223425e+000	 3.1222959759e+000	-3.8884886052e-001
 2.3461214665e+000	 3.1466393286e+000	-4.2141080297e-001
 2.3135958404e+000	 3.1706307397e+000	-4.8089275338e-001
 2.2808511809e+000	 3.1942671915e+000	-5.4076115387e-001
 2.2478932563e+000	 3.2175457896e+000	-6.0010916915e-001
 2.2147278835e+000	 3.2404637634e+000	-6.5804727594e-001
 2.1813609242e+000	 3.2630184674e+000	-7.1370476612e-001
 2.1477982820e+000	 3.2852073815e+000	-7.6623118498e-001
 2.4896775993e+000	 3.0665950909e+000	-8.4013827036e-001
 2.4578834798e+000	 3.0921366076e+000	-6.8560615833e-001
 2.4258462639e+000	 3.1173337812e+000	-5.1454298090e-001
 2.3935715294e+000	 3.1421832114e+000	-4.8334747203e-001
 2.3610649153e+000	 3.1666816174e+000	-5.2055615605e-001
 2.3283321196e+000	 3.1908258399e+000	-5.5902062778e-001
 2.2953788954e+000	 3.2146128424e+000	-5.9783853373e-001
 2.2622110478e+000	 3.2380397118e+000	-6.3612369271e-001
 2.2288344305e+000	 3.2611036600e+000	-6.7300765107e-001
 2.1952549428e+000	 3.2838020245e+000	-7.0764117487e-001
 2.1614785259e+000	 3.3061322693e+000	-7.3919567592e-001
 2.5054350524e+000	 3.0860039206e+000	-8.1684181991e-001
 2.4734397043e+000	 3.1117070924e+000	-6.6865866716e-001
 2.4411997213e+000	 3.1370637419e+000	-5.7668648708e-001
 2.4087207162e+000	 3.1620704469e+000	-5.9161569210e-001
 2.3760083641e+000	 3.1867239061e+000	-6.0864547461e-001
 2.3430683989e+000	 3.2110209402e+000	-6.2687806012e-001
 2.3099066099e+000	 3.2349584933e+000	-6.4543067354e-001
 2.2765288392e+000	 3.2585336340e+000	-6.6343714648e-001
 2.2429409775e+000	 3.2817435566e+000	-6.8004946326e-001
 2.2091489614e+000	 3.3045855816e+000	-6.9443924278e-001
 2.1751587697e+000	 3.3270571571e+000	-7.0579915310e-001
 2.5211925056e+000	 3.1054127503e+000	-7.4222667139e-001
 2.4889959289e+000	 3.1312775773e+000	-6.9988798751e-001
 2.4565531787e+000	 3.1567937025e+000	-6.9256064730e-001
 2.4238699031e+000	 3.1819576824e+000	-6.8815563776e-001
 2.3909518130e+000	 3.2067661948e+000	-6.8577987511e-001
 2.3578046781e+000	 3.2312160404e+000	-6.8455406670e-001
 2.3244343245e+000	 3.2553041442e+000	-6.8361436997e-001
 2.2908466307e+000	 3.2790275563e+000	-6.8211399243e-001
 2.2570475246e+000	 3.3023834532e+000	-6.7922472922e-001
 2.2230429801e+000	 3.3253691387e+000	-6.7413843537e-001
 2.1888390135e+000	 3.3479820449e+000	-6.6606842961e-001
 2.0520365752e+000	 3.1387331671e+000	-7.7550274595e-001
 2.0197890756e+000	 3.1595809991e+000	-8.6144658473e-001
 1.9873660057e+000	 3.1800748984e+000	-9.1436690581e-001
 1.9547731064e+000	 3.2002128214e+000	-9.3416112267e-001
 1.9220161459e+000	 3.2199928470e+000	-9.2077051466e-001
 1.8891009162e+000	 3.2394131765e+000	-8.7418036676e-001
 1.8560332301e+000	 3.2584721341e+000	-8.8693072931e-001
 1.8228189179e+000	 3.2771681667e+000	-9.3046353485e-001
 1.7894638242e+000	 3.2954998440e+000	-9.3402667810e-001
 1.7559738049e+000	 3.3134658586e+000	-8.9710000891e-001
 1.7223547240e+000	 3.3310650256e+000	-8.1918525460e-001
 2.0657168190e+000	 3.1596580548e+000	-7.9359010206e-001
 2.0332543361e+000	 3.1806448724e+000	-8.6888161130e-001
 2.0006151124e+000	 3.2012753977e+000	-9.1412817283e-001
 1.9678049271e+000	 3.2215475736e+000	-9.2919363944e-001
 1.9348295869e+000	 3.2414594660e+000	-9.1398381217e-001
 1.9016949223e+000	 3.2610092644e+000	-8.6844664003e-001
 1.8684067849e+000	 3.2801952817e+000	-8.2184709101e-001
 1.8349710440e+000	 3.2990159544e+000	-8.6000734996e-001
 1.8013935830e+000	 3.3174698430e+000	-8.6118026231e-001
 1.7676802970e+000	 3.3355556310e+000	-8.2474295097e-001
 1.7338370888e+000	 3.3532721258e+000	-7.5009173705e-001
 2.0793970629e+000	 3.1805829426e+000	-8.0518127686e-001
 2.0467195966e+000	 3.2017087458e+000	-8.6962436010e-001
 2.0138642191e+000	 3.2224758970e+000	-9.0696082491e-001
 1.9808367478e+000	 3.2428823257e+000	-9.1702099801e-001
 1.9476430278e+000	 3.2629260850e+000	-8.9967526904e-001
 1.9142889284e+000	 3.2826053522e+000	-8.5483435004e-001
 1.8807803398e+000	 3.3019184292e+000	-7.8244944969e-001
 1.8471231701e+000	 3.3208637422e+000	-7.9219150232e-001
 1.8133233418e+000	 3.3394398419e+000	-7.9122513163e-001
 1.7793867890e+000	 3.3576454034e+000	-7.5551340034e-001
 1.7453194536e+000	 3.3754792260e+000	-6.8434582659e-001
 2.0930773067e+000	 3.2015078304e+000	-8.1028951486e-001
 2.0601848571e+000	 3.2227726191e+000	-8.6369358450e-001
 2.0271133258e+000	 3.2436763964e+000	-8.9288975340e-001
 1.9938685685e+000	 3.2642170778e+000	-8.9767485028e-001
 1.9604564688e+000	 3.2843927040e+000	-8.7788391351e-001
 1.9268829345e+000	 3.3042014401e+000	-8.3339051018e-001
 1.8931538947e+000	 3.3236415768e+000	-7.6410697101e-001
 1.8592752962e+000	 3.3427115300e+000	-7.2598919714e-001
 1.8252531007e+000	 3.3614098409e+000	-7.2316195347e-001
 1.7910932810e+000	 3.3797351758e+000	-6.8844049093e-001
 1.7568018184e+000	 3.3976863261e+000	-6.2100610124e-001
 2.1067575505e+000	 3.2224327182e+000	-8.0893019263e-001
 2.0736501176e+000	 3.2438364924e+000	-8.5111005203e-001
 2.0403624325e+000	 3.2648768957e+000	-8.7194172721e-001
 2.0069003892e+000	 3.2855518300e+000	-8.7118857074e-001
 1.9732699098e+000	 3.3058593229e+000	-8.4865032322e-001
 1.9394769406e+000	 3.3257975279e+000	-8.0416349177e-001
 1.9055274495e+000	 3.3453647243e+000	-7.3760164562e-001
 1.8714274223e+000	 3.3645593178e+000	-6.6037456084e-001
 1.8371828595e+000	 3.3833798398e+000	-6.5599207149e-001
 1.8027997731e+000	 3.4018249482e+000	-6.2255377050e-001
 1.7682841833e+000	 3.4198934263e+000	-5.5913127323e-001
 2.1204377944e+000	 3.2433576059e+000	-8.0112075001e-001
 2.0871153781e+000	 3.2649003657e+000	-8.3189647932e-001
 2.0536115392e+000	 3.2860773950e+000	-8.4414533231e-001
 2.0199322099e+000	 3.3068865821e+000	-8.3759720099e-001
 1.9860833507e+000	 3.3273259419e+000	-8.1201657513e-001
 1.9520709467e+000	 3.3473936158e+000	-7.6720298023e-001
 1.9179010044e+000	 3.3670878719e+000	-7.0299133336e-001
 1.8835795485e+000	 3.3864071056e+000	-6.1925221704e-001
 1.8491126183e+000	 3.4053498388e+000	-5.8871748380e-001
 1.8145062651e+000	 3.4239147206e+000	-5.5688318731e-001
 1.7797665481e+000	 3.4421005265e+000	-4.9778018464e-001
 2.1341180382e+000	 3.2642824937e+000	-7.8688062396e-001
 2.1005806386e+000	 3.2859642391e+000	-8.0607746967e-001
 2.0668606459e+000	 3.3072778943e+000	-8.0953091344e-001
 2.0329640306e+000	 3.3282213343e+000	-7.9693739620e-001
 1.9988967917e+000	 3.3487925609e+000	-7.6802619757e-001
 1.9646649528e+000	 3.3689897036e+000	-7.2255993297e-001
 1.9302745593e+000	 3.3888110195e+000	-6.6033496983e-001
 1.8957316746e+000	 3.4082548933e+000	-5.8118176245e-001
 1.8610423772e+000	 3.4273198378e+000	-5.2034082196e-001
 1.8262127571e+000	 3.4460044930e+000	-4.9045907731e-001
 1.7912489129e+000	 3.4643076266e+000	-4.3601180330e-001
 2.1477982820e+000	 3.2852073815e+000	-7.6623118498e-001
 2.1140458991e+000	 3.3070281124e+000	-7.7367945297e-001
 2.0801097526e+000	 3.3284783936e+000	-7.6813051813e-001
 2.0459958514e+000	 3.3495560864e+000	-7.4924737383e-001
 2.0117102327e+000	 3.3702591799e+000	-7.1672412390e-001
 1.9772589590e+000	 3.3905857914e+000	-6.7028653887e-001
 1.9426481142e+000	 3.4105341670e+000	-6.0969253218e-001
 1.9078838007e+000	 3.4301026811e+000	-5.3473255602e-001
 1.8729721360e+000	 3.4492898367e+000	-4.4986533083e-001
 1.8379192492e+000	 3.4680942654e+000	-4.2231215178e-001
 1.8027312778e+000	 3.4865147268e+000	-3.7288521874e-001
 2.1614785259e+000	 3.3061322693e+000	-7.3919567592e-001
 2.1275111596e+000	 3.3280919857e+000	-7.3473062788e-001
 2.0933588593e+000	 3.3496788930e+000	-7.1997784279e-001
 2.0590276721e+000	 3.3708908386e+000	-6.9456686412e-001
 2.0245236737e+000	 3.3917257989e+000	-6.5815664817e-001
 1.9898529651e+000	 3.4121818793e+000	-6.1043617932e-001
 1.9550216690e+000	 3.4322573146e+000	-5.5112500614e-001
 1.9200359268e+000	 3.4519504689e+000	-4.7997369793e-001
 1.8849018948e+000	 3.4712598357e+000	-3.9676422163e-001
 1.8496257412e+000	 3.4901840378e+000	-3.5147348544e-001
 1.8142136426e+000	 3.5087218270e+000	-3.0745963835e-001
 2.1751587697e+000	 3.3270571571e+000	-7.0579915310e-001
 2.1409764201e+000	 3.3491558591e+000	-6.8926090622e-001
 2.1066079660e+000	 3.3708793923e+000	-6.6510818086e-001
 2.0720594928e+000	 3.3922255907e+000	-6.3293706252e-001
 2.0373371146e+000	 3.4131924178e+000	-5.9237138223e-001
 2.0024469712e+000	 3.4337779671e+000	-5.4306339071e-001
 1.9673952239e+000	 3.4539804622e+000	-4.8469435427e-001
 1.9321880529e+000	 3.4737982567e+000	-4.1697507189e-001
 1.8968316537e+000	 3.4932298346e+000	-3.3964631322e-001
 1.8613322332e+000	 3.5122738102e+000	-2.7697450504e-001
 1.8256960074e+000	 3.5309289271e+000	-2.3879438369e-001
 2.1888390135e+000	 3.3479820449e+000	-6.6606842961e-001
 2.1544416806e+000	 3.3702197324e+000	-6.3730185942e-001
 2.1198570727e+000	 3.3920798916e+000	-6.0355837294e-001
 2.0850913135e+000	 3.4135603429e+000	-5.6440058396e-001
 2.0501505556e+000	 3.4346590368e+000	-5.1941721461e-001
 2.0150409773e+000	 3.4553740550e+000	-4.6822382835e-001
 1.9797687788e+000	 3.4757036097e+000	-4.1046348549e-001
 1.9443401791e+000	 3.4956460444e+000	-3.4580732064e-001
 1.9087614125e+000	 3.5151998336e+000	-2.7395504166e-001
 1.8730387253e+000	 3.5343635826e+000	-1.9784697837e-001
 1.8371783722e+000	 3.5531360273e+000	-1.6594888688e-001
 1.7223547240e+000	 3.3310650256e+000	-8.1918525460e-001
 1.6886124501e+000	 3.3482962822e+000	-7.5375283791e-001
 1.6547528541e+000	 3.3651586875e+000	-6.9321092756e-001
 1.6207818052e+000	 3.3816514220e+000	-6.3668682360e-001
 1.5867051686e+000	 3.3977737871e+000	-5.8331007393e-001
 1.5525288020e+000	 3.4135252041e+000	-5.3221765762e-001
 1.5182585531e+000	 3.4289052139e+000	-4.8255908310e-001
 1.4839002560e+000	 3.4439134760e+000	-4.3350138676e-001
 1.4494597290e+000	 3.4585497675e+000	-3.8423401846e-001
 1.4149427715e+000	 3.4728139820e+000	-3.3397360087e-001
 1.3803551609e+000	 3.4867061290e+000	-2.8196855021e-001
 1.7338370888e+000	 3.3532721258e+000	-7.5009173705e-001
 1.6998698665e+000	 3.3706182574e+000	-6.8570517505e-001
 1.6657845398e+000	 3.3875930787e+000	-6.2710489742e-001
 1.6315870172e+000	 3.4041957648e+000	-5.7330676041e-001
 1.5972832030e+000	 3.4204256123e+000	-5.2332847073e-001
 1.5628789940e+000	 3.4362820388e+000	-4.7619497976e-001
 1.5283802767e+000	 3.4517645820e+000	-4.3094379014e-001
 1.4937929244e+000	 3.4668728992e+000	-3.8663015990e-001
 1.4591227939e+000	 3.4816067659e+000	-3.4233219008e-001
 1.4243757233e+000	 3.4959660752e+000	-2.9715578237e-001
 1.3895575286e+000	 3.5099508365e+000	-2.5023945399e-001
 1.7453194536e+000	 3.3754792260e+000	-6.8434582659e-001
 1.7111272828e+000	 3.3929402326e+000	-6.2103309003e-001
 1.6768162255e+000	 3.4100274700e+000	-5.6440570542e-001
 1.6423922293e+000	 3.4267401076e+000	-5.1336667150e-001
 1.6078612375e+000	 3.4430774376e+000	-4.6682043907e-001
 1.5732291861e+000	 3.4590388735e+000	-4.2367851892e-001
 1.5385020004e+000	 3.4746239501e+000	-3.8286499942e-001
 1.5036855927e+000	 3.4898323224e+000	-3.4332195881e-001
 1.4687858588e+000	 3.5046637644e+000	-3.0401475751e-001
 1.4338086751e+000	 3.5191181684e+000	-2.6393719657e-001
 1.3987598963e+000	 3.5331955441e+000	-2.2211652920e-001
 1.7568018184e+000	 3.3976863261e+000	-6.2100610124e-001
 1.7223846991e+000	 3.4152622078e+000	-5.5882897920e-001
 1.6878479112e+000	 3.4324618612e+000	-5.0424005397e-001
 1.6531974413e+000	 3.4492844505e+000	-4.5602802559e-001
 1.6184392720e+000	 3.4657292628e+000	-4.1298264681e-001
 1.5835793781e+000	 3.4817957082e+000	-3.7390054724e-001
 1.5486237241e+000	 3.4974833182e+000	-3.3759096484e-001
 1.5135782611e+000	 3.5127917456e+000	-3.0288136889e-001
 1.4784489236e+000	 3.5277207628e+000	-2.6862295962e-001
 1.4432416269e+000	 3.5422702616e+000	-2.3369603012e-001
 1.4079622641e+000	 3.5564402516e+000	-1.9701517684e-001
 1.7682841833e+000	 3.4198934263e+000	-5.5913127323e-001
 1.7336421155e+000	 3.4375841830e+000	-4.9818498752e-001
 1.6988795969e+000	 3.4548962525e+000	-4.4573400285e-001
 1.6640026533e+000	 3.4718287933e+000	-4.0045125232e-001
 1.6290173064e+000	 3.4883810881e+000	-3.6101032108e-001
 1.5939295701e+000	 3.5045525429e+000	-3.2609148964e-001
 1.5587454478e+000	 3.5203426863e+000	-2.9438768186e-001
 1.5234709295e+000	 3.5357511687e+000	-2.6461030139e-001
 1.4881119885e+000	 3.5507777613e+000	-2.3549494120e-001
 1.4526745787e+000	 3.5654223549e+000	-2.0580695152e-001
 1.4171646318e+000	 3.5796849591e+000	-1.7434685195e-001
 1.7797665481e+000	 3.4421005265e+000	-4.9778018464e-001
 1.7448995318e+000	 3.4599061583e+000	-4.3819301661e-001
 1.7099112826e+000	 3.4773306437e+000	-3.8801299002e-001
 1.6748078654e+000	 3.4943731361e+000	-3.4579577576e-001
 1.6395953409e+000	 3.5110329133e+000	-3.1009729479e-001
 1.6042797621e+000	 3.5273093776e+000	-2.7947998339e-001
 1.5688671715e+000	 3.5432020544e+000	-2.5251896036e-001
 1.5333635979e+000	 3.5587105919e+000	-2.2780807970e-001
 1.4977750533e+000	 3.5738347597e+000	-2.0396585275e-001
 1.4621075305e+000	 3.5885744481e+000	-1.7964122468e-001
 1.4263669996e+000	 3.6029296666e+000	-1.5351919089e-001
 1.7912489129e+000	 3.4643076266e+000	-4.3601180330e-001
 1.7561569481e+000	 3.4822281335e+000	-3.7794473258e-001
 1.7209429682e+000	 3.4997650350e+000	-3.3020185145e-001
 1.6856130774e+000	 3.5169174789e+000	-2.9122004661e-001
 1.6501733753e+000	 3.5336847386e+000	-2.5943605132e-001
 1.6146299541e+000	 3.5500662123e+000	-2.3329293543e-001
 1.5789888952e+000	 3.5660614225e+000	-2.1124649469e-001
 1.5432562662e+000	 3.5816700151e+000	-1.9177152230e-001
 1.5074381182e+000	 3.5968917582e+000	-1.7336794645e-001
 1.4715404823e+000	 3.6117265413e+000	-1.5456681803e-001
 1.4355693673e+000	 3.6261743742e+000	-1.3393613378e-001
 1.8027312778e+000	 3.4865147268e+000	-3.7288521874e-001
 1.7674143645e+000	 3.5045501087e+000	-3.1653157352e-001
 1.7319746539e+000	 3.5221994262e+000	-2.7142484039e-001
 1.6964182894e+000	 3.5394618217e+000	-2.3588157326e-001
 1.6607514098e+000	 3.5563365638e+000	-2.0821776747e-001
 1.6249801461e+000	 3.5728230470e+000	-1.8675557747e-001
 1.5891106189e+000	 3.5889207906e+000	-1.6982993102e-001
 1.5531489346e+000	 3.6046294383e+000	-1.5579502250e-001
 1.5171011831e+000	 3.6199487566e+000	-1.4303066849e-001
 1.4809734342e+000	 3.6348786345e+000	-1.2994850943e-001
 1.4447717350e+000	 3.6494190817e+000	-1.1499804216e-001
 1.8142136426e+000	 3.5087218270e+000	-3.0745963835e-001
 1.7786717808e+000	 3.5268720839e+000	-2.5304475673e-001
 1.7430063396e+000	 3.5446338175e+000	-2.1080564574e-001
 1.7072235015e+000	 3.5620061645e+000	-1.7893695155e-001
 1.6713294442e+000	 3.5789883890e+000	-1.5563235482e-001
 1.6353303381e+000	 3.5955798816e+000	-1.3909151898e-001
 1.5992323426e+000	 3.6117801587e+000	-1.2752693220e-001
 1.5630416030e+000	 3.6275888614e+000	-1.1917062523e-001
 1.5267642479e+000	 3.6430057551e+000	-1.1228074786e-001
 1.4904063860e+000	 3.6580307277e+000	-1.0514798719e-001
 1.4539741028e+000	 3.6726637892e+000	-9.6101812282e-002
 1.8256960074e+000	 3.5309289271e+000	-2.3879438369e-001
 1.7899291972e+000	 3.5491940591e+000	-1.8657528563e-001
 1.7540380253e+000	 3.5670682087e+000	-1.4746740984e-001
 1.7180287135e+000	 3.5845505073e+000	-1.1954189350e-001
 1.6819074787e+000	 3.6016402143e+000	-1.0086849954e-001
 1.6456805302e+000	 3.6183367163e+000	-8.9522798260e-002
 1.6093540662e+000	 3.6346395268e+000	-8.3593240096e-002
 1.5729342714e+000	 3.6505482846e+000	-8.1188100858e-002
 1.5364273128e+000	 3.6660627535e+000	-8.0442281759e-002
 1.4998393378e+000	 3.6811828209e+000	-7.9523947191e-002
 1.4631764705e+000	 3.6959084967e+000	-7.6640984043e-002
 1.8371783722e+000	 3.5531360273e+000	-1.6594888688e-001
 1.8011866135e+000	 3.5715160343e+000	-1.1621395647e-001
 1.7650697110e+000	 3.5895026000e+000	-8.0532745498e-002
 1.7288339256e+000	 3.6070948501e+000	-5.6851254930e-002
 1.6924855132e+000	 3.6242920395e+000	-4.3113700633e-002
 1.6560307222e+000	 3.6410935510e+000	-3.7269931466e-002
 1.6194757899e+000	 3.6574988949e+000	-3.7282735639e-002
 1.5828269397e+000	 3.6735077078e+000	-4.1135016270e-002
 1.5460903777e+000	 3.6891197520e+000	-4.6836817890e-002
 1.5092722896e+000	 3.7043349141e+000	-5.2432186410e-002
 1.4723788383e+000	 3.7191532043e+000	-5.6005845899e-002
 1.3803551609e+000	 3.4867061290e+000	-2.8196855021e-001
 1.3457026502e+000	 3.5002263323e+000	-3.6866623929e-001
 1.3109909654e+000	 3.5133748290e+000	-4.4538722201e-001
 1.2762258024e+000	 3.5261519680e+000	-5.1078524948e-001
 1.2414128249e+000	 3.5385582090e+000	-5.4334672077e-001
 1.2065576614e+000	 3.5505941207e+000	-5.0110113634e-001
 1.1716659033e+000	 3.5622603795e+000	-4.4717057915e-001
 1.1367431019e+000	 3.5735577679e+000	-3.8292089868e-001
 1.1017947664e+000	 3.5844871729e+000	-3.0960854275e-001
 1.0668263616e+000	 3.5950495844e+000	-2.2838234673e-001
 1.0318433056e+000	 3.6052460932e+000	-1.4028552313e-001
 1.3895575286e+000	 3.5099508365e+000	-2.5023945399e-001
 1.3546740012e+000	 3.5235611745e+000	-3.2609084317e-001
 1.3197309052e+000	 3.5367973278e+000	-3.9238715344e-001
 1.2847339744e+000	 3.5496596478e+000	-4.4773983455e-001
 1.2496889104e+000	 3.5621485970e+000	-4.9017795629e-001
 1.2146013792e+000	 3.5742647481e+000	-4.4869552888e-001
 1.1794770093e+000	 3.5860087820e+000	-3.9757576274e-001
 1.1443213892e+000	 3.5973814863e+000	-3.3821202935e-001
 1.1091400648e+000	 3.6083837541e+000	-2.7188392972e-001
 1.0739385374e+000	 3.6190165816e+000	-1.9975915595e-001
 1.0387222610e+000	 3.6292810672e+000	-1.2289555900e-001
 1.3987598963e+000	 3.5331955441e+000	-2.2211652920e-001
 1.3636453522e+000	 3.5468960167e+000	-2.8871135820e-001
 1.3284708449e+000	 3.5602198267e+000	-3.4615118786e-001
 1.2932421464e+000	 3.5731673276e+000	-3.9300322380e-001
 1.2579649959e+000	 3.5857389851e+000	-4.2789746192e-001
 1.2226450969e+000	 3.5979353756e+000	-4.0242614593e-001
 1.1872881153e+000	 3.6097571845e+000	-3.5505822046e-001
 1.1518996766e+000	 3.6212052048e+000	-3.0153710931e-001
 1.1164853633e+000	 3.6322803352e+000	-2.4316506102e-001
 1.0810507131e+000	 3.6429835788e+000	-1.8112808269e-001
 1.0456012164e+000	 3.6533160411e+000	-1.1649808748e-001
 1.4079622641e+000	 3.5564402516e+000	-1.9701517684e-001
 1.3726167032e+000	 3.5702308590e+000	-2.5594942215e-001
 1.3372107847e+000	 3.5836423255e+000	-3.0610762660e-001
 1.3017503184e+000	 3.5966750074e+000	-3.4601079402e-001
 1.2662410814e+000	 3.6093293732e+000	-3.7424294843e-001
 1.2306888146e+000	 3.6216060031e+000	-3.6191561215e-001
 1.1950992213e+000	 3.6335055871e+000	-3.1923523291e-001
 1.1594779639e+000	 3.6450289232e+000	-2.7250886790e-001
 1.1238306617e+000	 3.6561769164e+000	-2.2306090408e-001
 1.0881628888e+000	 3.6669505761e+000	-1.7209511777e-001
 1.0524801718e+000	 3.6773510151e+000	-1.2069690339e-001
 1.4171646318e+000	 3.5796849591e+000	-1.7434685195e-001
 1.3815880542e+000	 3.5935657012e+000	-2.2722310621e-001
 1.3459507245e+000	 3.6070648244e+000	-2.7168157474e-001
 1.3102584905e+000	 3.6201826871e+000	-3.0619508704e-001
 1.2745171669e+000	 3.6329197612e+000	-3.2929975963e-001
 1.2387325324e+000	 3.6452766306e+000	-3.2678441200e-001
 1.2029103274e+000	 3.6572539896e+000	-2.8972227383e-001
 1.1670562512e+000	 3.6688526417e+000	-2.5073855151e-001
 1.1311759602e+000	 3.6800734975e+000	-2.1117925778e-001
 1.0952750646e+000	 3.6909175733e+000	-1.7226538822e-001
 1.0593591271e+000	 3.7013859890e+000	-1.3509523274e-001
 1.4263669996e+000	 3.6029296666e+000	-1.5351919089e-001
 1.3905594052e+000	 3.6169005434e+000	-2.0194703000e-001
 1.3546906642e+000	 3.6304873233e+000	-2.4229504424e-001
 1.3187666625e+000	 3.6436903669e+000	-2.7298590112e-001
 1.2827932524e+000	 3.6565101493e+000	-2.9250585904e-001
 1.2467762501e+000	 3.6689472580e+000	-2.9665095878e-001
 1.2107214334e+000	 3.6810023921e+000	-2.6613306845e-001
 1.1746345386e+000	 3.6926763602e+000	-2.3583597146e-001
 1.1385212586e+000	 3.7039700787e+000	-2.0712679010e-001
 1.1023872403e+000	 3.7148845705e+000	-1.8124318505e-001
 1.0662380825e+000	 3.7254209630e+000	-1.5929575113e-001
 1.4355693673e+000	 3.6261743742e+000	-1.3393613378e-001
 1.3995307562e+000	 3.6402353856e+000	-1.7953247224e-001
 1.3634306040e+000	 3.6539098221e+000	-2.1736705303e-001
 1.3272748345e+000	 3.6671980467e+000	-2.4581037894e-001
 1.2910693379e+000	 3.6801005373e+000	-2.6329688434e-001
 1.2548199679e+000	 3.6926178855e+000	-2.6833001103e-001
 1.2185325394e+000	 3.7047507947e+000	-2.4807964949e-001
 1.1822128259e+000	 3.7165000786e+000	-2.2740954995e-001
 1.1458665570e+000	 3.7278666598e+000	-2.1050907438e-001
 1.1094994161e+000	 3.7388515678e+000	-1.9863199014e-001
 1.0731170379e+000	 3.7494559369e+000	-1.9290060141e-001
 1.4447717350e+000	 3.6494190817e+000	-1.1499804216e-001
 1.4085021072e+000	 3.6635702278e+000	-1.5938747712e-001
 1.3721705438e+000	 3.6773323210e+000	-1.9631372041e-001
 1.3357830065e+000	 3.6907057265e+000	-2.2409309213e-001
 1.2993454234e+000	 3.7036909254e+000	-2.4110622145e-001
 1.2628636856e+000	 3.7162885130e+000	-2.4580326256e-001
 1.2263436454e+000	 3.7284991972e+000	-2.3517241107e-001
 1.1897911133e+000	 3.7403237971e+000	-2.2506636434e-001
 1.1532118555e+000	 3.7517632410e+000	-2.1049142014e-001
 1.1166115918e+000	 3.7628185650e+000	-1.5952449229e-001
 1.0799959932e+000	 3.7734909109e+000	-1.3751457374e-001
 1.4539741028e+000	 3.6726637892e+000	-9.6101812282e-002
 1.4174734582e+000	 3.6869050700e+000	-1.4091695666e-001
 1.3809104835e+000	 3.7007548198e+000	-1.7854835876e-001
 1.3442911785e+000	 3.7142134063e+000	-2.0725612265e-001
 1.3076215089e+000	 3.7272813135e+000	-2.2536507579e-001
 1.2709074034e+000	 3.7399591404e+000	-2.3127012755e-001
 1.2341547515e+000	 3.7522475997e+000	-2.0891452253e-001
 1.1973694006e+000	 3.7641475155e+000	-1.2749897076e-001
 1.1605571539e+000	 3.7756598221e+000	-7.7858617983e-002
 1.1237237676e+000	 3.7867855622e+000	-5.9236654991e-002
 1.0868749486e+000	 3.7975258849e+000	-7.0871668859e-002
 1.4631764705e+000	 3.6959084967e+000	-7.6640984043e-002
 1.4264448092e+000	 3.7102399122e+000	-1.2352278920e-001
 1.3896504233e+000	 3.7241773187e+000	-1.6348156179e-001
 1.3527993506e+000	 3.7377210861e+000	-1.9471914110e-001
 1.3158975944e+000	 3.7508717015e+000	-2.0671557795e-001
 1.2789511211e+000	 3.7636297679e+000	-9.8398661033e-002
 1.2419658575e+000	 3.7759960022e+000	-7.1030665312e-003
 1.2049476880e+000	 3.7879712340e+000	 4.4516592126e-002
 1.1679024524e+000	 3.7995564033e+000	 6.3176364757e-002
 1.1308359433e+000	 3.8107525595e+000	 4.9586202397e-002
 1.0937539040e+000	 3.8215608588e+000	 4.4619791168e-003
 1.4723788383e+000	 3.7191532043e+000	-5.6005845899e-002
 1.4354161602e+000	 3.7335747544e+000	-1.0660391422e-001
 1.3983903631e+000	 3.7475998176e+000	-1.5052128952e-001
 1.3613075226e+000	 3.7612287659e+000	-6.1966832642e-002
 1.3241736799e+000	 3.7744620896e+000	 4.0481185501e-002
 1.2869948389e+000	 3.7873003954e+000	 1.2862970919e-001
 1.2497769635e+000	 3.7997444048e+000	 2.0230971845e-001
 1.2125259753e+000	 3.8117949524e+000	 2.2424359224e-001
 1.1752477508e+000	 3.8234529844e+000	 2.1205772498e-001
 1.1379481191e+000	 3.8347195567e+000	 1.6641414956e-001
 1.1006328594e+000	 3.8455958328e+000	 8.7982131857e-002
 1.0318433056e+000	 3.6052460932e+000	-1.4028552313e-001
 9.9685096773e-001	 3.6150778896e+000	-4.9926844319e-002
 9.6185466627e-001	 3.6245462614e+000	 2.0653403460e-002
 9.2685966671e-001	 3.6336525918e+000	 7.1044623706e-002
 8.9187117966e-001	 3.6423983581e+000	 1.0095027373e-001
 8.5689435901e-001	 3.6507851289e+000	 1.1018438019e-001
 8.2193430012e-001	 3.6588145630e+000	 9.8667915570e-002
 7.8699603810e-001	 3.6664884066e+000	 6.6425048824e-002
 7.5208454618e-001	 3.6738084919e+000	 1.3579283094e-002
 7.1720473409e-001	 3.6807767345e+000	-5.9650506398e-002
 6.8236144655e-001	 3.6873951316e+000	-1.5295412158e-001
 1.0387222610e+000	 3.6292810672e+000	-1.2289555900e-001
 1.0034966409e+000	 3.6391784089e+000	-3.9911903975e-002
 9.6826703071e-001	 3.6487099031e+000	 2.6813604127e-002
 9.3303873116e-001	 3.6578769425e+000	 7.6861039340e-002
 8.9781698753e-001	 3.6666810138e+000	 1.0992350243e-001
 8.6260698807e-001	 3.6751236964e+000	 1.2580362693e-001
 8.2741386212e-001	 3.6832066601e+000	 1.2440994613e-001
 7.9224267836e-001	 3.6909316627e+000	 1.0575313432e-001
 7.5709844316e-001	 3.6983005485e+000	 6.9942135427e-002
 7.2198609898e-001	 3.7053152461e+000	 1.7180192025e-002
 6.8691052287e-001	 3.7119777658e+000	-5.2239212269e-002
 1.0456012164e+000	 3.6533160411e+000	-1.1649808748e-001
 1.0101423140e+000	 3.6632789282e+000	-4.0941012503e-002
 9.7467939516e-001	 3.6728735449e+000	 2.1788380326e-002
 9.3921779561e-001	 3.6821012931e+000	 7.1261720422e-002
 9.0376279540e-001	 3.6909636695e+000	 1.0716270794e-001
 8.6831961714e-001	 3.6994622640e+000	 1.2928360780e-001
 8.3289342413e-001	 3.7075987571e+000	 1.3752160467e-001
 7.9748931862e-001	 3.7153749187e+000	 1.3187503227e-001
 7.6211234014e-001	 3.7227926051e+000	 1.1243949019e-001
 7.2676746388e-001	 3.7298537576e+000	 7.9403861480e-002
 6.9145959918e-001	 3.7365604000e+000	 3.3046243925e-002
 1.0524801718e+000	 3.6773510151e+000	-1.2069690339e-001
 1.0167879871e+000	 3.6873794474e+000	-5.2635410772e-002
 9.8109175960e-001	 3.6970371866e+000	 5.9397869579e-003
 9.4539686005e-001	 3.7063256437e+000	 5.4592761797e-002
 9.0970860326e-001	 3.7152463252e+000	 9.2998771269e-002
 8.7403224620e-001	 3.7238008315e+000	 1.2094073799e-001
 8.3837298613e-001	 3.7319908542e+000	 1.3830559008e-001
 8.0273595887e-001	 3.7398181748e+000	 1.4508047597e-001
 7.6712623712e-001	 3.7472846618e+000	 1.4134886678e-001
 7.3154882878e-001	 3.7543922692e+000	 1.0470533224e-001
 6.9600867549e-001	 3.7611430342e+000	 3.7188713963e-002
 1.0593591271e+000	 3.7013859890e+000	-1.3509523274e-001
 1.0234336602e+000	 3.7114799667e+000	-7.4615566172e-002
 9.8750412404e-001	 3.7212008284e+000	-2.0369172350e-002
 9.5157592450e-001	 3.7305499943e+000	 2.7201352959e-002
 9.1565441113e-001	 3.7395289810e+000	 6.7763784852e-002
 8.7974487526e-001	 3.7481393990e+000	 1.0109273190e-001
 8.4385254813e-001	 3.7563829513e+000	 1.1330222893e-001
 8.0798259913e-001	 3.7642614308e+000	 1.0360545725e-001
 7.7214013409e-001	 3.7717767184e+000	 7.5796428395e-002
 7.3633019367e-001	 3.7789307808e+000	 3.1173505332e-002
 7.0055775180e-001	 3.7857256684e+000	-2.8952249270e-002
 1.0662380825e+000	 3.7254209630e+000	-1.5929575113e-001
 1.0300793333e+000	 3.7355804860e+000	-1.0650119756e-001
 9.9391648849e-001	 3.7453644701e+000	-5.6774575853e-002
 9.5775498894e-001	 3.7547743449e+000	-6.7148354415e-003
 9.2160021899e-001	 3.7638116367e+000	 3.1609338067e-002
 8.8545750432e-001	 3.7724779665e+000	 5.1775955291e-002
 8.4933211013e-001	 3.7807750484e+000	 5.4999996130e-002
 8.1322923938e-001	 3.7887046868e+000	 4.2503334771e-002
 7.7715403107e-001	 3.7962687750e+000	 1.5516050997e-002
 7.4111155856e-001	 3.8034692923e+000	-2.4722342679e-002
 7.0510682811e-001	 3.8103083026e+000	-7.6961761146e-002
 1.0731170379e+000	 3.7494559369e+000	-1.9290060141e-001
 1.0367250065e+000	 3.7596810052e+000	-1.1956081478e-001
 1.0003288529e+000	 3.7695281119e+000	-6.2063372798e-002
 9.6393405339e-001	 3.7789986955e+000	-2.1310438901e-002
 9.2754602686e-001	 3.7880942924e+000	 3.8567259825e-003
 8.9117013338e-001	 3.7968165341e+000	 1.4598034207e-002
 8.5481167213e-001	 3.8051671455e+000	 1.2076196715e-002
 8.1847587964e-001	 3.8131479429e+000	-2.5417289406e-003
 7.8216792804e-001	 3.8207608316e+000	-2.8082872071e-002
 7.4589292346e-001	 3.8280078039e+000	-6.3367167649e-002
 7.0965590442e-001	 3.8348909368e+000	-1.0720606378e-001
 1.0799959932e+000	 3.7734909109e+000	-1.3751457374e-001
 1.0433706796e+000	 3.7837815245e+000	-8.5752798779e-002
 1.0067412174e+000	 3.7936917536e+000	-4.8071830390e-002
 9.7011311783e-001	 3.8032230461e+000	-2.3356940779e-002
 9.3349183472e-001	 3.8123769481e+000	-1.0496907793e-002
 8.9688276244e-001	 3.8211551016e+000	-8.3821591754e-003
 8.6029123413e-001	 3.8295592426e+000	-1.5902989729e-002
 8.2372251989e-001	 3.8375911989e+000	-3.1947856373e-002
 7.8718182501e-001	 3.8452528882e+000	-5.5401755629e-002
 7.5067428835e-001	 3.8525463155e+000	-8.5144687629e-002
 7.1420498073e-001	 3.8594735710e+000	-1.2005021029e-001
 1.0868749486e+000	 3.7975258849e+000	-7.0871668859e-002
 1.0500163527e+000	 3.8078820438e+000	-4.1741465577e-002
 1.0131535818e+000	 3.8178553953e+000	-2.2916695763e-002
 9.7629218228e-001	 3.8274473967e+000	-1.3328033906e-002
 9.3943764258e-001	 3.8366596038e+000	-1.1912605445e-002
 9.0259539150e-001	 3.8454936691e+000	-1.7611972154e-002
 8.6577079613e-001	 3.8539513397e+000	-2.9370190811e-002
 8.2896916014e-001	 3.8620344550e+000	-4.6131950456e-002
 7.9219572198e-001	 3.8697449448e+000	-6.6840793066e-002
 7.5545565324e-001	 3.8770848270e+000	-9.0437422039e-002
 7.1875405704e-001	 3.8840562052e+000	-1.1585810240e-001
 1.0937539040e+000	 3.8215608588e+000	 4.4619791168e-003
 1.0566620258e+000	 3.8319825630e+000	 1.1978057175e-002
 1.0195659463e+000	 3.8420190371e+000	 1.2917557872e-002
 9.8247124672e-001	 3.8516717474e+000	 8.3035199667e-003
 9.4538345045e-001	 3.8609422596e+000	-8.5037875632e-004
 9.0830802055e-001	 3.8698322366e+000	-1.3537646940e-002
 8.7125035813e-001	 3.8783434368e+000	-2.8756878850e-002
 8.3421580039e-001	 3.8864777110e+000	-4.5509732912e-002
 7.9720961895e-001	 3.8942370014e+000	-6.2798994747e-002
 7.6023701813e-001	 3.9016233386e+000	-7.9626729361e-002
 7.2330313334e-001	 3.9086388394e+000	-9.4992526691e-002
 1.1006328594e+000	 3.8455958328e+000	 8.7982131857e-002
 1.0633076989e+000	 3.8560830823e+000	 7.4911279172e-002
 1.0259783107e+000	 3.8661826788e+000	 5.8947239052e-002
 9.8865031116e-001	 3.8758960980e+000	 4.1065861074e-002
 9.5132925831e-001	 3.8852249153e+000	 2.2230758695e-002
 9.1402064961e-001	 3.8941708042e+000	 3.3956448057e-003
 8.7672992013e-001	 3.9027355338e+000	-1.4493406970e-002
 8.3946244064e-001	 3.9109209671e+000	-3.0495781164e-002
 8.0222351592e-001	 3.9187290581e+000	-4.3674224983e-002
 7.6501838302e-001	 3.9261618501e+000	-5.3092843417e-002
 7.2785220965e-001	 3.9332214737e+000	-5.7815189405e-002
 6.8236144655e-001	 3.6873951316e+000	-1.5295412158e-001
 6.4755946190e-001	 3.6936657595e+000	 9.1292675850e-002
 6.1280349065e-001	 3.6995907722e+000	 2.5373928331e-001
 5.7809817425e-001	 3.7051723983e+000	 1.4806439125e-001
 5.4344808385e-001	 3.7104129393e+000	 8.4204316218e-002
 5.0885771918e-001	 3.7153147675e+000	 5.4942438676e-002
 4.7433150743e-001	 3.7198803235e+000	 5.3743426663e-002
 4.3987380232e-001	 3.7241121140e+000	 7.4752350634e-002
 4.0548888310e-001	 3.7280127100e+000	 1.1279230315e-001
 3.7118095373e-001	 3.7315847437e+000	 1.6336057328e-001
 3.3695414212e-001	 3.7348309073e+000	 2.2262342791e-001
 6.8691052287e-001	 3.7119777658e+000	-5.2239212269e-002
 6.5187652498e-001	 3.7182901979e+000	 1.8664947049e-001
 6.1688884725e-001	 3.7242547107e+000	 4.0883638445e-001
 5.8195216208e-001	 3.7298735476e+000	 3.2379376058e-001
 5.4707107108e-001	 3.7351490256e+000	 2.6889418106e-001
 5.1225010397e-001	 3.7400835326e+000	 2.3672230523e-001
 4.7749371748e-001	 3.7446795256e+000	 2.2056693822e-001
 4.4280629434e-001	 3.7489395281e+000	 2.1442001012e-001
 4.0819214232e-001	 3.7528661280e+000	 1.9965187870e-001
 3.7365549343e-001	 3.7564619753e+000	 1.9598239767e-001
 3.3920050307e-001	 3.7597297800e+000	 2.0879660455e-001
 6.9145959918e-001	 3.7365604000e+000	 3.3046243925e-002
 6.5619358806e-001	 3.7429146363e+000	 2.6548911460e-001
 6.2097420386e-001	 3.7489186492e+000	 5.3760342858e-001
 5.8580614991e-001	 3.7545746969e+000	 4.3810308860e-001
 5.5069405831e-001	 3.7598851118e+000	 3.4985855281e-001
 5.1564248877e-001	 3.7648522977e+000	 2.8115254148e-001
 4.8065592754e-001	 3.7694787278e+000	 2.3125463995e-001
 4.4573878635e-001	 3.7737669422e+000	 1.9927165955e-001
 4.1089540154e-001	 3.7777195461e+000	 1.8414902625e-001
 3.7613003312e-001	 3.7813392070e+000	 1.8467253345e-001
 3.4144686401e-001	 3.7846286527e+000	 1.9947044622e-001
 6.9600867549e-001	 3.7611430342e+000	 3.7188713963e-002
 6.6051065114e-001	 3.7675390747e+000	 2.1074874422e-001
 6.2505956047e-001	 3.7735825876e+000	 4.6244999290e-001
 5.8966013774e-001	 3.7792758462e+000	 3.7234799858e-001
 5.5431704553e-001	 3.7846211981e+000	 2.9908819347e-001
 5.1903487357e-001	 3.7896210628e+000	 2.4284738916e-001
 4.8381813759e-001	 3.7942779299e+000	 2.0298042292e-001
 4.4867127837e-001	 3.7985943563e+000	 1.7867710624e-001
 4.1359866076e-001	 3.8025729642e+000	 1.6896351941e-001
 3.7860457281e-001	 3.8062164386e+000	 1.7270367948e-001
 3.4369322496e-001	 3.8095275254e+000	 1.8860156840e-001
 7.0055775180e-001	 3.7857256684e+000	-2.8952249270e-002
 6.6482771422e-001	 3.7921635131e+000	 1.2230702598e-001
 6.2914491707e-001	 3.7982465261e+000	 3.4782296350e-001
 5.9351412557e-001	 3.8039769955e+000	 3.1358294478e-001
 5.5794003276e-001	 3.8093572843e+000	 2.5385572926e-001
 5.2242725836e-001	 3.8143898280e+000	 2.0871468339e-001
 4.8698034763e-001	 3.8190771321e+000	 1.7760123855e-001
 4.5160377038e-001	 3.8234217704e+000	 1.5978943782e-001
 4.1630191998e-001	 3.8274263822e+000	 1.5438713676e-001
 3.8107911250e-001	 3.8310936702e+000	 1.6033758674e-001
 3.4593958591e-001	 3.8344263981e+000	 1.7642138749e-001
 7.0510682811e-001	 3.8103083026e+000	-7.6961761146e-002
 6.6914477730e-001	 3.8167879515e+000	 5.2260247758e-002
 6.3323027367e-001	 3.8229104646e+000	 2.5189314154e-001
 5.9736811339e-001	 3.8286781449e+000	 2.6224520601e-001
 5.6156301998e-001	 3.8340933706e+000	 2.1457021879e-001
 5.2581964315e-001	 3.8391585931e+000	 1.7913485347e-001
 4.9014255768e-001	 3.8438763342e+000	 1.5546850348e-001
 4.5453626240e-001	 3.8482491845e+000	 1.4293070034e-001
 4.1900517920e-001	 3.8522798003e+000	 1.4071222069e-001
 3.8355365219e-001	 3.8559709018e+000	 1.4783658532e-001
 3.4818594685e-001	 3.8593252709e+000	 1.6316193668e-001
 7.0965590442e-001	 3.8348909368e+000	-1.0720606378e-001
 6.7346184038e-001	 3.8414123899e+000	 2.6522077034e-004
 6.3731563028e-001	 3.8475744031e+000	 1.7433949388e-001
 6.0122210122e-001	 3.8533792942e+000	 2.1877286364e-001
 5.6518600721e-001	 3.8588294569e+000	 1.8164142703e-001
 5.2921202794e-001	 3.8639273582e+000	 1.5448896150e-001
 4.9330476773e-001	 3.8686755364e+000	 1.3693421604e-001
 4.5746875441e-001	 3.8730765986e+000	 1.2842349257e-001
 4.2170843842e-001	 3.8771332183e+000	 1.2823165936e-001
 3.8602819188e-001	 3.8808481335e+000	 1.3546356596e-001
 3.5043230780e-001	 3.8842241436e+000	 1.4905584619e-001
 7.1420498073e-001	 3.8594735710e+000	-1.2005021029e-001
 6.7777890346e-001	 3.8660368283e+000	-3.4020214375e-002
 6.4140098688e-001	 3.8722383416e+000	 1.1484187945e-001
 6.0507608904e-001	 3.8780804435e+000	 1.8360477599e-001
 5.6880899443e-001	 3.8835655431e+000	 1.5547980289e-001
 5.3260441274e-001	 3.8886961233e+000	 1.3515868226e-001
 4.9646697778e-001	 3.8934747386e+000	 1.2235093765e-001
 4.6040124642e-001	 3.8979040127e+000	 1.1659094834e-001
 4.2441169764e-001	 3.9019866364e+000	 1.1723886926e-001
 3.8850273157e-001	 3.9057253651e+000	 1.2348196212e-001
 3.5267866874e-001	 3.9091230163e+000	 1.3433632424e-001
 7.1875405704e-001	 3.8840562052e+000	-1.1585810240e-001
 6.8209596653e-001	 3.8906612667e+000	-5.0937220255e-002
 6.4548634348e-001	 3.8969022800e+000	 7.3081021068e-002
 6.0893007687e-001	 3.9027815928e+000	 1.5718055384e-001
 5.7243198165e-001	 3.9083016294e+000	 1.3649645753e-001
 5.3599679753e-001	 3.9134648884e+000	 1.2152628384e-001
 4.9962918782e-001	 3.9182739407e+000	 1.1207177509e-001
 4.6333373843e-001	 3.9227314268e+000	 1.0775671969e-001
 4.2711495685e-001	 3.9268400545e+000	 1.0802777857e-001
 3.9097727126e-001	 3.9306025967e+000	 1.1215573283e-001
 3.5492502969e-001	 3.9340218890e+000	 1.1923713881e-001
 7.2330313334e-001	 3.9086388394e+000	-9.4992526691e-002
 6.8641302961e-001	 3.9152857051e+000	-5.0825993974e-002
 6.4957170008e-001	 3.9215662185e+000	 4.8738478261e-002
 6.1278406469e-001	 3.9274827422e+000	 1.3994053668e-001
 5.7605496887e-001	 3.9330377156e+000	 1.2510314355e-001
 5.3938918232e-001	 3.9382336535e+000	 1.1397460896e-001
 5.0279139787e-001	 3.9430731429e+000	 1.0645036330e-001
 4.6626623045e-001	 3.9475588409e+000	 1.0224496051e-001
 4.2981821607e-001	 3.9516934725e+000	 1.0089281102e-001
 3.9345181095e-001	 3.9554798283e+000	 1.0174934618e-001
 3.5717139063e-001	 3.9589207617e+000	 1.0399259997e-001
 7.2785220965e-001	 3.9332214737e+000	-5.7815189405e-002
 6.9073009268e-001	 3.9399101435e+000	-3.4025797338e-002
 6.5365705668e-001	 3.9462301570e+000	 4.1496621108e-002
 6.1663805252e-001	 3.9521838915e+000	 1.3232576997e-001
 5.7967795609e-001	 3.9577738019e+000	 1.2171223495e-001
 5.4278156711e-001	 3.9630024187e+000	 1.1288705700e-001
 5.0595360791e-001	 3.9678723450e+000	 1.0584084888e-001
 4.6919872246e-001	 3.9723862550e+000	 1.0038031087e-001
 4.3252147529e-001	 3.9765468906e+000	 9.6128870400e-002
 3.9592635063e-001	 3.9803570600e+000	 9.2527763366e-002
 3.5941775158e-001	 3.9838196344e+000	 8.8837542972e-002
 3.3695414212e-001	 3.7348309073e+000	 2.2262342791e-001
 3.0281249933e-001	 3.7377539499e+000	 2.3038245796e-001
 2.6875999901e-001	 3.7403566759e+000	 2.3239146735e-001
 2.3480053674e-001	 3.7426419423e+000	 2.2706203546e-001
 2.0093792957e-001	 3.7446126567e+000	 2.1344309496e-001
 1.6717591555e-001	 3.7462717751e+000	 1.9120927925e-001
 1.3351815331e-001	 3.7476222999e+000	 1.6064823038e-001
 9.9968221788e-002	 3.7486672771e+000	 1.2264692912e-001
 6.6529619936e-002	 3.7494097948e+000	 7.8677109744e-002
 3.3205766524e-002	 3.7498529807e+000	 3.0779821921e-002
 0.0000000000e+000	 3.7500000000e+000	-1.8450797740e-002
 3.3920050307e-001	 3.7597297800e+000	 2.0879660455e-001
 3.0483124933e-001	 3.7626723096e+000	 1.8534658035e-001
 2.7055173233e-001	 3.7652923871e+000	 1.6861138882e-001
 2.3636587365e-001	 3.7675928885e+000	 1.5694402467e-001
 2.0227751577e-001	 3.7695767410e+000	 1.4855505159e-001
 1.6829042165e-001	 3.7712469203e+000	 1.4151602972e-001
 1.3440827433e-001	 3.7726064486e+000	 1.3376320354e-001
 1.0063467660e-001	 3.7736583923e+000	 1.2310143473e-001
 6.6973150735e-002	 3.7744058601e+000	 1.0720836427e-001
 3.3427138301e-002	 3.7748520006e+000	 8.3638787784e-002
 0.0000000000e+000	 3.7750000000e+000	 4.9829228285e-002
 3.4144686401e-001	 3.7846286527e+000	 1.9947044622e-001
 3.0684999932e-001	 3.7875906693e+000	 1.8149192295e-001
 2.7234346566e-001	 3.7902280982e+000	 1.7046688833e-001
 2.3793121056e-001	 3.7925438348e+000	 1.6478188422e-001
 2.0361710197e-001	 3.7945408254e+000	 1.6267716964e-001
 1.6940492775e-001	 3.7962220655e+000	 1.6225017251e-001
 1.3529839535e-001	 3.7975905972e+000	 1.6145920947e-001
 1.0130113141e-001	 3.7986495075e+000	 1.5812745792e-001
 6.7416681534e-002	 3.7994019254e+000	 1.4994716404e-001
 3.3648510077e-002	 3.7998510205e+000	 1.3448407070e-001
 0.0000000000e+000	 3.8000000000e+000	 1.0918204902e-001
 3.4369322496e-001	 3.8095275254e+000	 1.8860156840e-001
 3.0886874932e-001	 3.8125090289e+000	 1.7505549336e-001
 2.7413519899e-001	 3.8151638094e+000	 1.6876601011e-001
 2.3949654747e-001	 3.8174947811e+000	 1.6815416707e-001
 2.0495668816e-001	 3.8195049098e+000	 1.7149078191e-001
 1.7051943386e-001	 3.8211972106e+000	 1.7689991845e-001
 1.3618851637e-001	 3.8225747459e+000	 1.8236263937e-001
 1.0196758622e-001	 3.8236406227e+000	 1.8572101827e-001
 6.7860212333e-002	 3.8243979907e+000	 1.8468239494e-001
 3.3869881854e-002	 3.8248500403e+000	 1.7682385708e-001
 0.0000000000e+000	 3.8250000000e+000	 1.5959693202e-001
 3.4593958591e-001	 3.8344263981e+000	 1.7642138749e-001
 3.1088749931e-001	 3.8374273886e+000	 1.6624293489e-001
 2.7592693231e-001	 3.8400995206e+000	 1.6368894075e-001
 2.4106188438e-001	 3.8424457274e+000	 1.6721593415e-001
 2.0629627436e-001	 3.8444689942e+000	 1.7512616886e-001
 1.7163393996e-001	 3.8461723558e+000	 1.8557112617e-001
 1.3707863739e-001	 3.8475588946e+000	 1.9655530120e-001
 1.0263404103e-001	 3.8486317379e+000	 2.0594025628e-001
 6.8303743132e-002	 3.8493940560e+000	 2.1144892445e-001
 3.4091253630e-002	 3.8498490602e+000	 2.1067014639e-001
 0.0000000000e+000	 3.8500000000e+000	 2.0106342361e-001
 3.4818594685e-001	 3.8593252709e+000	 1.6316193668e-001
 3.1290624931e-001	 3.8623457483e+000	 1.5526044234e-001
 2.7771866564e-001	 3.8650352318e+000	 1.5541635988e-001
 2.4262722129e-001	 3.8673966737e+000	 1.6212268799e-001
 2.0763586056e-001	 3.8694330785e+000	 1.7371400798e-001
 1.7274844606e-001	 3.8711475010e+000	 1.8837001339e-001
 1.3796875842e-001	 3.8725430432e+000	 2.0411933095e-001
 1.0330049584e-001	 3.8736228530e+000	 2.1884361605e-001
 6.8747273931e-002	 3.8743901213e+000	 2.3028190587e-001
 3.4312625407e-002	 3.8748480801e+000	 2.3603521264e-001
 0.0000000000e+000	 3.8750000000e+000	 2.3357133989e-001
 3.5043230780e-001	 3.8842241436e+000	 1.4905584619e-001
 3.1492499930e-001	 3.8872641079e+000	 1.4231474428e-001
 2.7951039896e-001	 3.8899709429e+000	 1.4412942446e-001
 2.4419255820e-001	 3.8923476199e+000	 1.5303035857e-001
 2.0897544675e-001	 3.8943971629e+000	 1.6738536094e-001
 1.7386295217e-001	 3.8961226461e+000	 1.8540314549e-001
 1.3885887944e-001	 3.8975271919e+000	 2.0513718211e-001
 1.0396695066e-001	 3.8986139682e+000	 2.2448983555e-001
 6.9190804730e-002	 3.8993861866e+000	 2.4121676909e-001
 3.4533997183e-002	 3.8998471000e+000	 2.5293159558e-001
 0.0000000000e+000	 3.9000000000e+000	 2.5711075805e-001
 3.5267866874e-001	 3.9091230163e+000	 1.3433632424e-001
 3.1694374929e-001	 3.9121824676e+000	 1.2761308609e-001
 2.8130213229e-001	 3.9149066541e+000	 1.3000975351e-001
 2.4575789511e-001	 3.9172985662e+000	 1.4009528971e-001
 2.1031503295e-001	 3.9193612473e+000	 1.5627166147e-001
 1.7497745827e-001	 3.9210977913e+000	 1.7677742434e-001
 1.3974900046e-001	 3.9225113406e+000	 1.9969161558e-001
 1.0463340547e-001	 3.9236050834e+000	 2.2293793727e-001
 6.9634335529e-002	 3.9243822519e+000	 2.4428921186e-001
 3.4755368960e-002	 3.9248461198e+000	 2.6137209224e-001
 0.0000000000e+000	 3.9250000000e+000	 2.7167200815e-001
 3.5492502969e-001	 3.9340218890e+000	 1.1923713881e-001
 3.1896249929e-001	 3.9371008273e+000	 1.1136321361e-001
 2.8309386561e-001	 3.9398423653e+000	 1.1323941352e-001
 2.4732323202e-001	 3.9422495125e+000	 1.2347422599e-001
 2.1165461914e-001	 3.9443253317e+000	 1.4050470350e-001
 1.7609196437e-001	 3.9460729365e+000	 1.6260007774e-001
 1.4063912148e-001	 3.9474954892e+000	 1.8786568991e-001
 1.0529986028e-001	 3.9485961986e+000	 2.1424721917e-001
 7.0077866328e-002	 3.9493783172e+000	 2.3953519125e-001
 3.4976740737e-002	 3.9498451397e+000	 2.6136974877e-001
 0.0000000000e+000	 3.9500000000e+000	 2.7724566501e-001
 3.5717139063e-001	 3.9589207617e+000	 1.0399259997e-001
 3.2098124928e-001	 3.9620191869e+000	 9.3773357339e-002
 2.8488559894e-001	 3.9647780764e+000	 9.4000904346e-002
 2.4888856893e-001	 3.9672004588e+000	 1.0332430009e-001
 2.1299420534e-001	 3.9692894161e+000	 1.2021662987e-001
 1.7720647047e-001	 3.9710480817e+000	 1.4297864913e-001
 1.4152924250e-001	 3.9724796379e+000	 1.6974275198e-001
 1.0596631509e-001	 3.9735873138e+000	 1.9847724609e-001
 7.0521397127e-002	 3.9743743825e+000	 2.2699091551e-001
 3.5198112513e-002	 3.9748441596e+000	 2.5293785264e-001
 0.0000000000e+000	 3.9750000000e+000	 2.7382254059e-001
 3.5941775158e-001	 3.9838196344e+000	 8.8837542972e-002
 3.2299999927e-001	 3.9869375466e+000	 7.5052217372e-002
 2.8667733226e-001	 3.9897137876e+000	 7.2477145724e-002
 2.5045390584e-001	 3.9921514051e+000	 7.9803020732e-002
 2.1433379153e-001	 3.9942535004e+000	 9.5539921447e-002
 1.7832097657e-001	 3.9960232268e+000	 1.1802098772e-001
 1.4241936352e-001	 3.9974637866e+000	 1.4540642793e-001
 1.0663276990e-001	 3.9985784289e+000	 1.7568784133e-001
 7.0964927926e-002	 3.9993704478e+000	 2.0669283626e-001
 3.5419484290e-002	 3.9998431794e+000	 2.3608992505e-001
 0.0000000000e+000	 4.0000000000e+000	 2.6139367652e-001
 4.0000000000e+000	 0.0000000000e+000	 7.4516075651e-001
 3.9998431794e+000	 3.5419484290e-002	 7.2539187547e-001
 3.9993704478e+000	 7.0964927926e-002	 7.1538656542e-001
 3.9985784289e+000	 1.0663276990e-001	 7.1326864200e-001
 3.9974637866e+000	 1.4241936352e-001	 7.1713016784e-001
 3.9960232268e+000	 1.7832097657e-001	 7.2502899672e-001
 3.9942535004e+000	 2.1433379153e-001	 7.3498619384e-001
 3.9921514051e+000	 2.5045390584e-001	 7.4498333518e-001
 3.9897137876e+000	 2.8667733226e-001	 7.5295968887e-001
 3.9869375466e+000	 3.2299999927e-001	 7.5680928253e-001
 3.9838196344e+000	 3.5941775158e-001	 7.5437786086e-001
 4.0250000000e+000	 0.0000000000e+000	 7.6279943280e-001
 4.0248421993e+000	 3.5640856066e-002	 7.4145355876e-001
 4.0243665131e+000	 7.1408458726e-002	 7.2938411626e-001
 4.0235695441e+000	 1.0729922471e-001	 7.2480682772e-001
 4.0224479352e+000	 1.4330948454e-001	 7.2590801308e-001
 4.0209983720e+000	 1.7943548268e-001	 7.3084203386e-001
 4.0192175848e+000	 2.1567337773e-001	 7.3772860644e-001
 4.0171023514e+000	 2.5201924275e-001	 7.4464998699e-001
 4.0146494988e+000	 2.8846906558e-001	 7.4964803141e-001
 4.0118559063e+000	 3.2501874926e-001	 7.5072113403e-001
 4.0087185072e+000	 3.6166411252e-001	 7.4582104947e-001
 4.0500000000e+000	 0.0000000000e+000	 7.7821937554e-001
 4.0498412192e+000	 3.5862227843e-002	 7.5567868349e-001
 4.0493625784e+000	 7.1851989525e-002	 7.4192642570e-001
 4.0485606593e+000	 1.0796567952e-001	 7.3527113911e-001
 4.0474320839e+000	 1.4419960556e-001	 7.3399432976e-001
 4.0459735172e+000	 1.8054998878e-001	 7.3634781574e-001
 4.0441816692e+000	 2.1701296393e-001	 7.4055093191e-001
 4.0420532976e+000	 2.5358457966e-001	 7.4478759921e-001
 4.0395852100e+000	 2.9026079891e-001	 7.4720326159e-001
 4.0367742659e+000	 3.2703749926e-001	 7.4590169457e-001
 4.0336173799e+000	 3.6391047346e-001	 7.3894168981e-001
 4.0750000000e+000	 0.0000000000e+000	 7.9173756698e-001
 4.0748402391e+000	 3.6083599620e-002	 7.6832872598e-001
 4.0743586437e+000	 7.2295520325e-002	 7.5321921325e-001
 4.0735517745e+000	 1.0863213434e-001	 7.4481131281e-001
 4.0724162326e+000	 1.4508972659e-001	 7.4148267115e-001
 4.0709486623e+000	 1.8166449488e-001	 7.4158353766e-001
 4.0691457536e+000	 2.1835255012e-001	 7.4343385962e-001
 4.0670042439e+000	 2.5514991657e-001	 7.4532023438e-001
 4.0645209211e+000	 2.9205253223e-001	 7.4549272186e-001
 4.0616926256e+000	 3.2905624925e-001	 7.4216152142e-001
 4.0585162526e+000	 3.6615683441e-001	 7.3349351735e-001
 4.1000000000e+000	 0.0000000000e+000	 8.0366325811e-001
 4.0998392589e+000	 3.6304971397e-002	 7.7965811422e-001
 4.0993547090e+000	 7.2739051125e-002	 7.6346183627e-001
 4.0985428897e+000	 1.0929858915e-001	 7.5357141260e-001
 4.0974003812e+000	 1.4597984761e-001	 7.4846160967e-001
 4.0959238075e+000	 1.8277900099e-001	 7.4658210871e-001
 4.0941098380e+000	 2.1969213632e-001	 7.4635448969e-001
 4.0919551902e+000	 2.5671525349e-001	 7.4616906485e-001
 4.0894566323e+000	 2.9384426556e-001	 7.4438156541e-001
 4.0866109853e+000	 3.3107499925e-001	 7.3930968499e-001
 4.0834151253e+000	 3.6840319536e-001	 7.2922948457e-001
 4.1250000000e+000	 0.0000000000e+000	 8.1429820289e-001
 4.1248382788e+000	 3.6526343175e-002	 7.8991444146e-001
 4.1243507743e+000	 7.3182581926e-002	 7.7284748279e-001
 4.1235340048e+000	 1.0996504396e-001	 7.6169000127e-001
 4.1223845299e+000	 1.4686996863e-001	 7.5501488782e-001
 4.1208989527e+000	 1.8389350709e-001	 7.5137228165e-001
 4.1190739223e+000	 2.2103172252e-001	 7.4928644172e-001
 4.1169061365e+000	 2.5828059040e-001	 7.4725246036e-001
 4.1143923435e+000	 2.9563599889e-001	 7.4373282243e-001
 4.1115293449e+000	 3.3309374924e-001	 7.3715381394e-001
 4.1083139980e+000	 3.7064955631e-001	 7.2590178463e-001
 4.1500000000e+000	 0.0000000000e+000	 8.2393688413e-001
 4.1498372987e+000	 3.6747714952e-002	 7.9933867204e-001
 4.1493468396e+000	 7.3626112727e-002	 7.8156335733e-001
 4.1485251200e+000	 1.1063149878e-001	 7.6930030630e-001
 4.1473686786e+000	 1.4776008966e-001	 7.6122156367e-001
 4.1458740978e+000	 1.8500801320e-001	 7.5597877808e-001
 4.1440380067e+000	 2.2237130872e-001	 7.5219995969e-001
 4.1418570828e+000	 2.5984592731e-001	 7.4848607240e-001
 4.1393280547e+000	 2.9742773222e-001	 7.4340746409e-001
 4.1364477046e+000	 3.3511249924e-001	 7.3550013857e-001
 4.1332128707e+000	 3.7289591725e-001	 7.2326187429e-001
 4.1750000000e+000	 0.0000000000e+000	 8.3286673114e-001
 4.1748363185e+000	 3.6969086730e-002	 8.0816533992e-001
 4.1743429049e+000	 7.4069643528e-002	 7.8979086002e-001
 4.1735162352e+000	 1.1129795359e-001	 7.7653037961e-001
 4.1723528272e+000	 1.4865021068e-001	 7.6715615111e-001
 4.1708492430e+000	 1.8612251931e-001	 7.6042240914e-001
 4.1690020911e+000	 2.2371089492e-001	 7.5506201293e-001
 4.1668080290e+000	 2.6141126423e-001	 7.4978291567e-001
 4.1642637658e+000	 2.9921946555e-001	 7.4326446416e-001
 4.1613660643e+000	 3.3713124924e-001	 7.3415353269e-001
 4.1581117435e+000	 3.7514227820e-001	 7.2106049591e-001
 4.2000000000e+000	 0.0000000000e+000	 8.4136832969e-001
 4.1998353384e+000	 3.7190458508e-002	 8.1662274000e-001
 4.1993389702e+000	 7.4513174330e-002	 7.9770575939e-001
 4.1985073504e+000	 1.1196440840e-001	 7.8350325162e-001
 4.1973369759e+000	 1.4954033171e-001	 7.7288875510e-001
 4.1958243882e+000	 1.8723702541e-001	 7.6472019192e-001
 4.1939661755e+000	 2.2505048112e-001	 7.5783639368e-001
 4.1917589753e+000	 2.6297660114e-001	 7.5105344650e-001
 4.1891994770e+000	 3.0101119888e-001	 7.4316085852e-001
 4.1862844239e+000	 3.3914999924e-001	 7.3291755401e-001
 4.1830106162e+000	 3.7738863915e-001	 7.1904769878e-001
 4.2250000000e+000	 0.0000000000e+000	 8.4971562447e-001
 4.2248343583e+000	 3.7411830286e-002	 8.2493311275e-001
 4.2243350355e+000	 7.4956705132e-002	 8.0547835893e-001
 4.2234984656e+000	 1.1263086322e-001	 7.9033707977e-001
 4.2223211246e+000	 1.5043045273e-001	 7.7848520209e-001
 4.2207995333e+000	 1.8835153152e-001	 7.6888546167e-001
 4.2189302598e+000	 2.2639006732e-001	 7.6048381102e-001
 4.2167099216e+000	 2.6454193806e-001	 7.5220563855e-001
 4.2141351882e+000	 3.0280293221e-001	 7.4295180241e-001
 4.2112027836e+000	 3.4116874924e-001	 7.3159448307e-001
 4.2079094889e+000	 3.7963500011e-001	 7.1697285953e-001
 4.2500000000e+000	 0.0000000000e+000	 8.5817611439e-001
 4.2498333782e+000	 3.7633202065e-002	 8.3331282227e-001
 4.2493311008e+000	 7.5400235934e-002	 8.1327365789e-001
 4.2484895807e+000	 1.1329731804e-001	 7.9714529187e-001
 4.2473052732e+000	 1.5132057376e-001	 7.8400716588e-001
 4.2457746785e+000	 1.8946603763e-001	 7.7292798011e-001
 4.2438943442e+000	 2.2772965353e-001	 7.6296198156e-001
 4.2416608679e+000	 2.6610727498e-001	 7.5314505586e-001
 4.2390708994e+000	 3.0459466554e-001	 7.4249062580e-001
 4.2361211433e+000	 3.4318749924e-001	 7.2998536079e-001
 4.2328083616e+000	 3.8188136106e-001	 7.1458470202e-001
 3.9838196344e+000	 3.5941775158e-001	 7.5437786086e-001
 3.9803570600e+000	 3.9592635063e-001	 7.6100580747e-001
 3.9765468906e+000	 4.3252147529e-001	 7.5703578976e-001
 3.9723862550e+000	 4.6919872246e-001	 7.4019067690e-001
 3.9678723450e+000	 5.0595360791e-001	 7.0813282325e-001
 3.9630024187e+000	 5.4278156711e-001	 6.5846054659e-001
 3.9577738019e+000	 5.7967795609e-001	 5.8870453461e-001
 3.9521838915e+000	 6.1663805252e-001	 4.9632418880e-001
 3.9462301570e+000	 6.5365705668e-001	 5.5175691862e-001
 3.9399101435e+000	 6.9073009268e-001	 6.4384486444e-001
 3.9332214737e+000	 7.2785220965e-001	 7.2301463616e-001
 4.0087185072e+000	 3.6166411252e-001	 7.4582104947e-001
 4.0052342916e+000	 3.9840089032e-001	 7.5147462364e-001
 4.0014003087e+000	 4.3522473450e-001	 7.4731115083e-001
 3.9972136691e+000	 4.7213121447e-001	 7.3115970725e-001
 3.9926715472e+000	 5.0911581796e-001	 7.0078959309e-001
 3.9877711838e+000	 5.4617395190e-001	 6.5390663845e-001
 3.9825098882e+000	 5.8330094331e-001	 5.8814943174e-001
 3.9768850408e+000	 6.2049204034e-001	 5.0108547932e-001
 3.9708940955e+000	 6.5774241328e-001	 5.5815564150e-001
 3.9645345819e+000	 6.9504715575e-001	 6.2583720574e-001
 3.9578041079e+000	 7.3240128595e-001	 6.8116924883e-001
 4.0336173799e+000	 3.6391047346e-001	 7.3894168981e-001
 4.0301115232e+000	 4.0087543001e-001	 7.4388572375e-001
 4.0262537268e+000	 4.3792799372e-001	 7.3979898572e-001
 4.0220410832e+000	 4.7506370648e-001	 7.2461783940e-001
 4.0174707494e+000	 5.1227802800e-001	 6.9621961889e-001
 4.0125399489e+000	 5.4956633669e-001	 6.5241876063e-001
 4.0072459744e+000	 5.8692393053e-001	 5.9096285138e-001
 4.0015861901e+000	 6.2434602816e-001	 5.0952860177e-001
 3.9955580340e+000	 6.6182776988e-001	 5.6332583334e-001
 3.9891590203e+000	 6.9936421883e-001	 6.0860866749e-001
 3.9823867421e+000	 7.3695036226e-001	 6.4208967026e-001
 4.0585162526e+000	 3.6615683441e-001	 7.3349351735e-001
 4.0549887548e+000	 4.0334996970e-001	 7.3793880915e-001
 4.0511071448e+000	 4.4063125294e-001	 7.3414505084e-001
 4.0468684973e+000	 4.7799619849e-001	 7.2015700335e-001
 4.0422699515e+000	 5.1544023805e-001	 6.9396115269e-001
 4.0373087140e+000	 5.5295872148e-001	 6.5348166561e-001
 4.0319820607e+000	 5.9054691776e-001	 5.9657625537e-001
 4.0262873394e+000	 6.2820001599e-001	 5.3172586587e-001
 4.0202219725e+000	 6.6591312648e-001	 5.6732349347e-001
 4.0137834587e+000	 7.0368128190e-001	 5.9220154502e-001
 4.0069693763e+000	 7.4149943857e-001	 6.0580444762e-001
 4.0834151253e+000	 3.6840319536e-001	 7.2922948457e-001
 4.0798659865e+000	 4.0582450939e-001	 7.3333343490e-001
 4.0759605629e+000	 4.4333451216e-001	 7.2999559212e-001
 4.0716959114e+000	 4.8092869050e-001	 7.1737025345e-001
 4.0670691537e+000	 5.1860244810e-001	 6.9355420418e-001
 4.0620774791e+000	 5.5635110627e-001	 6.5658249532e-001
 4.0567181470e+000	 5.9416990498e-001	 6.0442412482e-001
 4.0509884888e+000	 6.3205400381e-001	 5.5350293292e-001
 4.0448859109e+000	 6.6999848308e-001	 5.7020889333e-001
 4.0384078971e+000	 7.0799834498e-001	 5.7666302825e-001
 4.0315520105e+000	 7.4604851487e-001	 5.7234764213e-001
 4.1083139980e+000	 3.7064955631e-001	 7.2590178463e-001
 4.1047432181e+000	 4.0829904908e-001	 7.2976901415e-001
 4.1008139810e+000	 4.4603777138e-001	 7.2699733022e-001
 4.0965233255e+000	 4.8386118252e-001	 7.1585173423e-001
 4.0918683558e+000	 5.2176465814e-001	 6.9454048750e-001
 4.0868462442e+000	 5.5974349106e-001	 6.6121070872e-001
 4.0814542332e+000	 5.9779289220e-001	 6.1394386863e-001
 4.0756896381e+000	 6.3590799164e-001	 5.7224409108e-001
 4.0695498494e+000	 6.7408383968e-001	 5.7204644705e-001
 4.0630323355e+000	 7.1231540806e-001	 5.6204505338e-001
 4.0561346447e+000	 7.5059759118e-001	 5.4175866198e-001
 4.1332128707e+000	 3.7289591725e-001	 7.2326187429e-001
 4.1296204497e+000	 4.1077358877e-001	 7.2694482245e-001
 4.1256673990e+000	 4.4874103060e-001	 7.2479744620e-001
 4.1213507395e+000	 4.8679367453e-001	 7.1519664765e-001
 4.1166675580e+000	 5.2492686819e-001	 6.9646336986e-001
 4.1116150094e+000	 5.6313587586e-001	 6.6685801199e-001
 4.1061903195e+000	 6.0141587943e-001	 6.2457573530e-001
 4.1003907874e+000	 6.3976197947e-001	 5.8802961021e-001
 4.0942137879e+000	 6.7816919628e-001	 5.7290458665e-001
 4.0876567739e+000	 7.1663247114e-001	 5.4840415993e-001
 4.0807172789e+000	 7.5514666749e-001	 5.1408210120e-001
 4.1581117435e+000	 3.7514227820e-001	 7.2106049591e-001
 4.1544976813e+000	 4.1324812847e-001	 7.2456000188e-001
 4.1505208171e+000	 4.5144428982e-001	 7.2304356775e-001
 4.1461781536e+000	 4.8972616655e-001	 7.1500122139e-001
 4.1414667601e+000	 5.2808907824e-001	 6.9886782207e-001
 4.1363837745e+000	 5.6652826065e-001	 6.7301829129e-001
 4.1309264058e+000	 6.0503886665e-001	 6.3576272789e-001
 4.1250919367e+000	 6.4361596729e-001	 6.0094308736e-001
 4.1188777264e+000	 6.8225455289e-001	 5.7285564177e-001
 4.1122812123e+000	 7.2094953422e-001	 5.3580135290e-001
 4.1052999131e+000	 7.5969574380e-001	 4.8936758449e-001
 4.1830106162e+000	 3.7738863915e-001	 7.1904769878e-001
 4.1793749130e+000	 4.1572266816e-001	 7.2231356498e-001
 4.1753742352e+000	 4.5414754904e-001	 7.2138375589e-001
 4.1710055677e+000	 4.9265865857e-001	 7.1486267833e-001
 4.1662659623e+000	 5.3125128829e-001	 7.0130037081e-001
 4.1611525396e+000	 5.6992064545e-001	 6.7918754785e-001
 4.1556624920e+000	 6.0866185388e-001	 6.4695052209e-001
 4.1497930861e+000	 6.4746995512e-001	 6.1107134779e-001
 4.1435416649e+000	 6.8633990949e-001	 5.7197572364e-001
 4.1369056507e+000	 7.2526659730e-001	 5.2430196989e-001
 4.1298825474e+000	 7.6424482012e-001	 4.6766961743e-001
 4.2079094889e+000	 3.7963500011e-001	 7.1697285953e-001
 4.2042521446e+000	 4.1819720786e-001	 7.1990439861e-001
 4.2002276532e+000	 4.5685080827e-001	 7.1946649216e-001
 4.1958329818e+000	 4.9559115059e-001	 7.1437920713e-001
 4.1910651645e+000	 5.3441349835e-001	 7.0330905259e-001
 4.1859213047e+000	 5.7331303024e-001	 6.8486383541e-001
 4.1803985783e+000	 6.1228484111e-001	 6.5758738710e-001
 4.1744942354e+000	 6.5132394295e-001	 6.1850434945e-001
 4.1682056034e+000	 6.9042526610e-001	 5.7034461321e-001
 4.1615300891e+000	 7.2958366038e-001	 5.1397555291e-001
 4.1544651816e+000	 7.6879389643e-001	 4.4904744210e-001
 4.2328083616e+000	 3.8188136106e-001	 7.1458470202e-001
 4.2291293762e+000	 4.2067174755e-001	 7.1703126765e-001
 4.2250810713e+000	 4.5955406749e-001	 7.1694066622e-001
 4.2206603959e+000	 4.9852364261e-001	 7.1314993378e-001
 4.2158643666e+000	 5.3757570840e-001	 7.0444336935e-001
 4.2106900698e+000	 5.7670541504e-001	 6.8954719983e-001
 4.2051346646e+000	 6.1590782834e-001	 6.6712410938e-001
 4.1991953847e+000	 6.5517793079e-001	 6.2333509081e-001
 4.1928695419e+000	 6.9451062271e-001	 5.6804565321e-001
 4.1861545275e+000	 7.3390072346e-001	 5.0489572470e-001
 4.1790478158e+000	 7.7334297274e-001	 4.3356489778e-001
 3.9332214737e+000	 7.2785220965e-001	 7.2301463616e-001
 3.9261618501e+000	 7.6501838302e-001	 6.8591029795e-001
 3.9187290581e+000	 8.0222351592e-001	 6.4660496142e-001
 3.9109209671e+000	 8.3946244064e-001	 6.0611070417e-001
 3.9027355338e+000	 8.7672992013e-001	 5.6550939207e-001
 3.8941708042e+000	 9.1402064961e-001	 5.2595510905e-001
 3.8852249153e+000	 9.5132925831e-001	 4.8867652361e-001
 3.8758960980e+000	 9.8865031116e-001	 4.5497918305e-001
 3.8661826788e+000	 1.0259783107e+000	 4.2624772577e-001
 3.8560830823e+000	 1.0633076989e+000	 4.0394800221e-001
 3.8455958328e+000	 1.1006328594e+000	 3.8962909479e-001
 3.9578041079e+000	 7.3240128595e-001	 6.8116924883e-001
 3.9507003617e+000	 7.6979974791e-001	 6.5223394799e-001
 3.9432211147e+000	 8.0723741289e-001	 6.2124301243e-001
 3.9353642231e+000	 8.4470908089e-001	 5.8912723730e-001
 3.9271276309e+000	 8.8220948212e-001	 5.5688693498e-001
 3.9185093717e+000	 9.1973327867e-001	 5.2559448314e-001
 3.9095075710e+000	 9.5727506617e-001	 4.9639681185e-001
 3.9001204486e+000	 9.9482937561e-001	 4.7051782023e-001
 3.8903463206e+000	 1.0323906751e+000	 4.4926071305e-001
 3.8801836015e+000	 1.0699533720e+000	 4.3401024746e-001
 3.8696308067e+000	 1.1075118147e+000	 4.2623488006e-001
 3.9823867421e+000	 7.3695036226e-001	 6.4208967026e-001
 3.9752388733e+000	 7.7458111280e-001	 6.2039780727e-001
 3.9677131713e+000	 8.1225130986e-001	 5.9677046938e-001
 3.9598074792e+000	 8.4995572114e-001	 5.7205695323e-001
 3.9515197280e+000	 8.8768904412e-001	 5.4717582870e-001
 3.9428479392e+000	 9.2544590773e-001	 5.2311760659e-001
 3.9337902267e+000	 9.6322087403e-001	 5.0094734739e-001
 3.9243447992e+000	 1.0010084400e+000	 4.8180720173e-001
 3.9145099623e+000	 1.0388030396e+000	 4.6691887239e-001
 3.9042841208e+000	 1.0765990452e+000	 4.5758598808e-001
 3.8936657807e+000	 1.1143907701e+000	 4.5519637865e-001
 4.0069693763e+000	 7.4149943857e-001	 6.0580444762e-001
 3.9997773848e+000	 7.7936247769e-001	 5.9046982160e-001
 3.9922052279e+000	 8.1726520684e-001	 5.7329466358e-001
 3.9842507352e+000	 8.5520236139e-001	 5.5504653655e-001
 3.9759118251e+000	 8.9316860612e-001	 5.3656205973e-001
 3.9671865068e+000	 9.3115853678e-001	 5.1874969699e-001
 3.9580728824e+000	 9.6916668190e-001	 5.0259248872e-001
 3.9485691498e+000	 1.0071875045e+000	 4.8915071717e-001
 3.9386736040e+000	 1.0452154040e+000	 4.7956449520e-001
 3.9283846401e+000	 1.0832447183e+000	 4.7505626821e-001
 3.9177007546e+000	 1.1212697255e+000	 4.7693321873e-001
 4.0315520105e+000	 7.4604851487e-001	 5.7234764213e-001
 4.0243158964e+000	 7.8414384258e-001	 5.6252276968e-001
 4.0166972845e+000	 8.2227910381e-001	 5.5092707388e-001
 4.0086939913e+000	 8.6044900165e-001	 5.3824613012e-001
 4.0003039222e+000	 8.9864816812e-001	 5.2523437975e-001
 3.9915250743e+000	 9.3687116584e-001	 5.1271804068e-001
 3.9823555382e+000	 9.7511248976e-001	 5.0159796342e-001
 3.9727935004e+000	 1.0133665689e+000	 4.9285242274e-001
 3.9628372458e+000	 1.0516277685e+000	 4.8753983428e-001
 3.9524851593e+000	 1.0898903914e+000	 4.8680138587e-001
 3.9417357286e+000	 1.1281486808e+000	 4.9186357279e-001
 4.0561346447e+000	 7.5059759118e-001	 5.4175866198e-001
 4.0488544080e+000	 7.8892520747e-001	 5.3663411668e-001
 4.0411893411e+000	 8.2729300078e-001	 5.2978320100e-001
 4.0331372473e+000	 8.6569564190e-001	 5.2180923019e-001
 4.0246960193e+000	 9.0412773012e-001	 5.1338422188e-001
 4.0158636418e+000	 9.4258379490e-001	 5.0525193005e-001
 4.0066381939e+000	 9.8105829763e-001	 4.9823082672e-001
 3.9970178510e+000	 1.0195456334e+000	 4.9321702100e-001
 3.9870008875e+000	 1.0580401329e+000	 4.9118710498e-001
 3.9765856786e+000	 1.0965360645e+000	 4.9320091560e-001
 3.9657707025e+000	 1.1350276362e+000	 5.0040420175e-001
 4.0807172789e+000	 7.5514666749e-001	 5.1408210120e-001
 4.0733929195e+000	 7.9370657237e-001	 5.1288587301e-001
 4.0656813977e+000	 8.3230689776e-001	 5.0998244636e-001
 4.0575805033e+000	 8.7094228215e-001	 5.0589258546e-001
 4.0490881164e+000	 9.0960729212e-001	 5.0120561987e-001
 4.0402022093e+000	 9.4829642396e-001	 4.9658260315e-001
 4.0309208496e+000	 9.8700410549e-001	 4.9275942146e-001
 4.0212422016e+000	 1.0257246978e+000	 4.9054984141e-001
 4.0111645293e+000	 1.0644524973e+000	 4.9084848635e-001
 4.0006861979e+000	 1.1031817376e+000	 4.9463373018e-001
 3.9898056765e+000	 1.1419065916e+000	 5.0297049746e-001
 4.1052999131e+000	 7.5969574380e-001	 4.8936758449e-001
 4.0979314311e+000	 7.9848793726e-001	 4.9136445832e-001
 4.0901734544e+000	 8.3732079473e-001	 4.9164799533e-001
 4.0820237594e+000	 8.7618892241e-001	 4.9065609969e-001
 4.0734802135e+000	 9.1508685412e-001	 4.8889513026e-001
 4.0645407769e+000	 9.5400905303e-001	 4.8694318537e-001
 4.0552035053e+000	 9.9294991336e-001	 4.8545333957e-001
 4.0454665523e+000	 1.0319037623e+000	 4.8515682154e-001
 4.0353281710e+000	 1.0708648618e+000	 4.8686612222e-001
 4.0247867171e+000	 1.1098274108e+000	 4.9147802173e-001
 4.0138406504e+000	 1.1487855470e+000	 4.9997652372e-001
 4.1298825474e+000	 7.6424482012e-001	 4.6766961743e-001
 4.1224699427e+000	 8.0326930216e-001	 4.7216057022e-001
 4.1146655110e+000	 8.4233469171e-001	 4.7490670459e-001
 4.1064670154e+000	 8.8143556267e-001	 4.7626273776e-001
 4.0978723105e+000	 9.2056641613e-001	 4.7665175731e-001
 4.0888793444e+000	 9.5972168209e-001	 4.7656863336e-001
 4.0794861610e+000	 9.9889572122e-001	 4.7658338487e-001
 4.0696909029e+000	 1.0380828267e+000	 4.7734448899e-001
 4.0594918128e+000	 1.0772772262e+000	 4.7958212226e-001
 4.0488872364e+000	 1.1164730839e+000	 4.8411132190e-001
 4.0378756244e+000	 1.1556645023e+000	 4.9183505580e-001
 4.1544651816e+000	 7.6879389643e-001	 4.4904744210e-001
 4.1470084542e+000	 8.0805066705e-001	 4.5536905772e-001
 4.1391575676e+000	 8.4734858869e-001	 4.5988899351e-001
 4.1309102715e+000	 8.8668220292e-001	 4.6287843515e-001
 4.1222644076e+000	 9.2604597813e-001	 4.6467688054e-001
 4.1132179119e+000	 9.6543431115e-001	 4.6569568075e-001
 4.1037688168e+000	 1.0048415291e+000	 4.6642153723e-001
 4.0939152535e+000	 1.0442618912e+000	 4.6741994396e-001
 4.0836554545e+000	 1.0836895907e+000	 4.6933856296e-001
 4.0729877557e+000	 1.1231187570e+000	 4.7291052144e-001
 4.0619105984e+000	 1.1625434577e+000	 4.7895761852e-001
 4.1790478158e+000	 7.7334297274e-001	 4.3356489778e-001
 4.1715469658e+000	 8.1283203195e-001	 4.4108879915e-001
 4.1636496242e+000	 8.5236248567e-001	 4.4672873939e-001
 4.1553535275e+000	 8.9192884318e-001	 4.5067201057e-001
 4.1466565047e+000	 9.3152554013e-001	 4.5317418493e-001
 4.1375564794e+000	 9.7114694021e-001	 4.5456278598e-001
 4.1280514725e+000	 1.0107873370e+000	 4.5524091801e-001
 4.1181396041e+000	 1.0504409556e+000	 4.5569084234e-001
 4.1078190963e+000	 1.0901019551e+000	 4.5647748864e-001
 4.0970882749e+000	 1.1297644301e+000	 4.5825188904e-001
 4.0859455723e+000	 1.1694224131e+000	 4.6175452310e-001
 3.8455958328e+000	 1.1006328594e+000	 3.8962909479e-001
 3.8347195567e+000	 1.1379481191e+000	 2.9503492506e-001
 3.8234529844e+000	 1.1752477508e+000	 2.1703950186e-001
 3.8117949524e+000	 1.2125259753e+000	 1.5685091158e-001
 3.7997444048e+000	 1.2497769635e+000	 1.1575413924e-001
 3.7873003954e+000	 1.2869948389e+000	 1.4625348587e-001
 3.7744620896e+000	 1.3241736799e+000	 1.7467742898e-001
 3.7612287659e+000	 1.3613075226e+000	 2.0022630575e-001
 3.7475998176e+000	 1.3983903631e+000	 2.1135336170e-001
 3.7335747544e+000	 1.4354161602e+000	 1.5858766193e-001
 3.7191532043e+000	 1.4723788383e+000	 8.9633974442e-002
 3.8696308067e+000	 1.1075118147e+000	 4.2623488006e-001
 3.8586865539e+000	 1.1450602948e+000	 3.2406974044e-001
 3.8473495656e+000	 1.1825930493e+000	 2.3677835320e-001
 3.8356186709e+000	 1.2201042627e+000	 1.6558961016e-001
 3.8234928073e+000	 1.2575880695e+000	 1.2640893687e-001
 3.8109710228e+000	 1.2950385566e+000	 1.5014760645e-001
 3.7980524776e+000	 1.3324497654e+000	 1.7055790726e-001
 3.7847364456e+000	 1.3698156946e+000	 1.8723974600e-001
 3.7710223164e+000	 1.4071303029e+000	 1.9976857981e-001
 3.7569095967e+000	 1.4443875112e+000	 2.0769592371e-001
 3.7423979118e+000	 1.4815812060e+000	 1.6958768075e-001
 3.8936657807e+000	 1.1143907701e+000	 4.5519637865e-001
 3.8826535511e+000	 1.1521724706e+000	 3.4660392014e-001
 3.8712461467e+000	 1.1899383477e+000	 2.5115305703e-001
 3.8594423893e+000	 1.2276825500e+000	 1.7009270735e-001
 3.8472412098e+000	 1.2653991756e+000	 1.3769800907e-001
 3.8346416503e+000	 1.3030822743e+000	 1.5515096116e-001
 3.8216428657e+000	 1.3407258509e+000	 1.6841966461e-001
 3.8082441254e+000	 1.3783238666e+000	 1.7712575912e-001
 3.7944448153e+000	 1.4158702426e+000	 1.8086716455e-001
 3.7802444389e+000	 1.4533588622e+000	 1.7921858562e-001
 3.7656426193e+000	 1.4907835738e+000	 1.7173208313e-001
 3.9177007546e+000	 1.1212697255e+000	 4.7693321873e-001
 3.9066205484e+000	 1.1592846463e+000	 3.6305265044e-001
 3.8951427279e+000	 1.1972836462e+000	 2.6057380294e-001
 3.8832661078e+000	 1.2352608374e+000	 1.7076483789e-001
 3.8709896123e+000	 1.2732102816e+000	 1.4927059742e-001
 3.8583122778e+000	 1.3111259921e+000	 1.6127714325e-001
 3.8452332537e+000	 1.3490019364e+000	 1.6826303622e-001
 3.8317518052e+000	 1.3868320386e+000	 1.6987120636e-001
 3.8178673141e+000	 1.4246101824e+000	 1.6572157218e-001
 3.8035792811e+000	 1.4623302133e+000	 1.5541154284e-001
 3.7888873268e+000	 1.4999859415e+000	 1.3851658649e-001
 3.9417357286e+000	 1.1281486808e+000	 4.9186357279e-001
 3.9305875456e+000	 1.1663968220e+000	 3.7382999543e-001
 3.9190393090e+000	 1.2046289446e+000	 2.6544999882e-001
 3.9070898262e+000	 1.2428391247e+000	 1.6801020222e-001
 3.8947380149e+000	 1.2810213876e+000	 1.6115325394e-001
 3.8819829053e+000	 1.3191697098e+000	 1.6854002664e-001
 3.8688236418e+000	 1.3572780219e+000	 1.7008900535e-001
 3.8552594850e+000	 1.3953402107e+000	 1.6546397091e-001
 3.8412898130e+000	 1.4333501222e+000	 1.5430637956e-001
 3.8269141233e+000	 1.4713015643e+000	 1.3623586304e-001
 3.8121320343e+000	 1.5091883092e+000	 1.1085079413e-001
 3.9657707025e+000	 1.1350276362e+000	 5.0040420175e-001
 3.9545545428e+000	 1.1735089978e+000	 3.7934893100e-001
 3.9429358902e+000	 1.2119742430e+000	 2.6619029449e-001
 3.9309135447e+000	 1.2504174121e+000	 1.6344898392e-001
 3.9184864174e+000	 1.2888324936e+000	 1.7337245293e-001
 3.9056535327e+000	 1.3272134276e+000	 1.7695375736e-001
 3.8924140299e+000	 1.3655541074e+000	 1.7389918368e-001
 3.8787671648e+000	 1.4038483827e+000	 1.6389292687e-001
 3.8647123118e+000	 1.4420900620e+000	 1.4659752318e-001
 3.8502489655e+000	 1.4802729153e+000	 1.2165434817e-001
 3.8353767419e+000	 1.5183906770e+000	 8.8684179929e-002
 3.9898056765e+000	 1.1419065916e+000	 5.0297049746e-001
 3.9785215400e+000	 1.1806211735e+000	 3.8002137764e-001
 3.9668324714e+000	 1.2193195415e+000	 2.6320260459e-001
 3.9547372631e+000	 1.2579956994e+000	 1.7823571516e-001
 3.9422348199e+000	 1.2966435997e+000	 1.8595459322e-001
 3.9293241602e+000	 1.3352571453e+000	 1.8653274541e-001
 3.9160044179e+000	 1.3738301929e+000	 1.7969579236e-001
 3.9022748446e+000	 1.4123565547e+000	 1.6514790945e-001
 3.8881348107e+000	 1.4508300017e+000	 1.4257225814e-001
 3.8735838077e+000	 1.4892442663e+000	 1.1163148219e-001
 3.8586214494e+000	 1.5275930447e+000	 7.1968268869e-002
 4.0138406504e+000	 1.1487855470e+000	 4.9997652372e-001
 4.0024885373e+000	 1.1877333493e+000	 3.7625823201e-001
 3.9907290525e+000	 1.2266648399e+000	 2.5689413059e-001
 3.9785609816e+000	 1.2655739868e+000	 1.9264012993e-001
 3.9659832225e+000	 1.3044547057e+000	 1.9892600052e-001
 3.9529947877e+000	 1.3433008631e+000	 1.9729165682e-001
 3.9395948060e+000	 1.3821062784e+000	 1.8748164379e-001
 3.9257825243e+000	 1.4208647267e+000	 1.6921968619e-001
 3.9115573096e+000	 1.4595699415e+000	 1.4220911873e-001
 3.8969186499e+000	 1.4982156173e+000	 1.0613338076e-001
 3.8818661569e+000	 1.5367954125e+000	 6.0656575665e-002
 4.0378756244e+000	 1.1556645023e+000	 4.9183505580e-001
 4.0264555345e+000	 1.1948455250e+000	 3.6846939745e-001
 4.0146256337e+000	 1.2340101384e+000	 2.4767138197e-001
 4.0023847000e+000	 1.2731522741e+000	 2.0669963250e-001
 3.9897316250e+000	 1.3122658117e+000	 2.1231292952e-001
 3.9766654151e+000	 1.3513445808e+000	 2.0924540603e-001
 3.9631851940e+000	 1.3903823639e+000	 1.9726012399e-001
 3.9492902041e+000	 1.4293728987e+000	 1.7609992918e-001
 3.9349798084e+000	 1.4683098813e+000	 1.4548788035e-001
 3.9202534922e+000	 1.5071869683e+000	 1.0512774265e-001
 3.9051108645e+000	 1.5459977802e+000	 5.4704545521e-002
 4.0619105984e+000	 1.1625434577e+000	 4.7895761852e-001
 4.0504225317e+000	 1.2019577008e+000	 3.5706381332e-001
 4.0385222148e+000	 1.2413554368e+000	 2.3594019673e-001
 4.0262084185e+000	 1.2807305615e+000	 2.2045125402e-001
 4.0134800275e+000	 1.3200769177e+000	 2.2614156604e-001
 4.0003360426e+000	 1.3593882986e+000	 2.2240914858e-001
 3.9867755821e+000	 1.3986584494e+000	 2.0903517568e-001
 3.9727978839e+000	 1.4378810707e+000	 1.8578118832e-001
 3.9584023073e+000	 1.4770498210e+000	 1.5238952275e-001
 3.9435883344e+000	 1.5161583193e+000	 1.0858380291e-001
 3.9283555720e+000	 1.5552001479e+000	 5.4069497028e-002
 4.0859455723e+000	 1.1694224131e+000	 4.6175452310e-001
 4.0743895290e+000	 1.2090698765e+000	 3.4244948339e-001
 4.0624187960e+000	 1.2487007353e+000	 2.2210576114e-001
 4.0500321369e+000	 1.2883088488e+000	 2.3393166352e-001
 4.0372284301e+000	 1.3278880237e+000	 2.4043802905e-001
 4.0240066701e+000	 1.3674320163e+000	 2.3679827397e-001
 4.0103659702e+000	 1.4069345349e+000	 2.2281128186e-001
 3.9963055637e+000	 1.4463892427e+000	 1.9825686552e-001
 3.9818248061e+000	 1.4857897608e+000	 1.6289619469e-001
 3.9669231766e+000	 1.5251296703e+000	 1.1647228768e-001
 3.9516002795e+000	 1.5644025157e+000	 5.8710567056e-002
 3.7191532043e+000	 1.4723788383e+000	 8.9633974442e-002
 3.7043349141e+000	 1.5092722896e+000	 6.1404525577e-002
 3.6891197520e+000	 1.5460903777e+000	 3.0591787435e-002
 3.6735077078e+000	 1.5828269397e+000	-1.8210718578e-003
 3.6574988949e+000	 1.6194757899e+000	-3.4793054819e-002
 3.6410935510e+000	 1.6560307222e+000	-6.7226217343e-002
 3.6242920395e+000	 1.6924855132e+000	-9.7966699484e-002
 3.6070948501e+000	 1.7288339256e+000	-1.2580590492e-001
 3.5895026000e+000	 1.7650697110e+000	-1.4948182926e-001
 3.5715160343e+000	 1.8011866135e+000	-1.6768053699e-001
 3.5531360273e+000	 1.8371783722e+000	-1.7903778636e-001
 3.7423979118e+000	 1.4815812060e+000	 1.6958768075e-001
 3.7274870073e+000	 1.5187052414e+000	 1.4000621577e-001
 3.7121767504e+000	 1.5557534425e+000	 1.0691766527e-001
 3.6964671309e+000	 1.5927196081e+000	 7.1276415820e-002
 3.6803582629e+000	 1.6295975136e+000	 3.4095957586e-002
 3.6638503857e+000	 1.6663809142e+000	-3.5519642566e-003
 3.6469438648e+000	 1.7030635476e+000	-4.0538348473e-002
 3.6296391930e+000	 1.7396391376e+000	-7.5678087826e-002
 3.6119369912e+000	 1.7761013967e+000	-1.0773127049e-001
 3.5938380095e+000	 1.8124440298e+000	-1.3540463266e-001
 3.5753431275e+000	 1.8486607371e+000	-1.5735316179e-001
 3.7656426193e+000	 1.4907835738e+000	 1.7173208313e-001
 3.7506391005e+000	 1.5281381932e+000	 2.2089979606e-001
 3.7352337488e+000	 1.5654165074e+000	 1.8823407582e-001
 3.7194265541e+000	 1.6026122765e+000	 1.4838820133e-001
 3.7032176310e+000	 1.6397192373e+000	 1.0601009052e-001
 3.6866072204e+000	 1.6767311062e+000	 6.2146010469e-002
 3.6695956900e+000	 1.7136415821e+000	 1.7900851304e-002
 3.6521835358e+000	 1.7504443496e+000	-2.5562994992e-002
 3.6343713825e+000	 1.7871330824e+000	-6.7026909699e-002
 3.6161599847e+000	 1.8237014462e+000	-1.0521747632e-001
 3.5975502277e+000	 1.8601431019e+000	-1.3880806282e-001
 3.7888873268e+000	 1.4999859415e+000	 1.3851658649e-001
 3.7737911937e+000	 1.5375711450e+000	 1.7815367435e-001
 3.7582907473e+000	 1.5750795722e+000	 2.2455844883e-001
 3.7423859773e+000	 1.6125049449e+000	 2.2954187017e-001
 3.7260769991e+000	 1.6498409610e+000	 1.8099258510e-001
 3.7093640551e+000	 1.6870812982e+000	 1.2992642218e-001
 3.6922475153e+000	 1.7242196165e+000	 7.7424902161e-002
 3.6747278786e+000	 1.7612495617e+000	 2.4628469873e-002
 3.6568057737e+000	 1.7981647681e+000	-2.7264755202e-002
 3.6384819600e+000	 1.8349588625e+000	-7.7000384863e-002
 3.6197573278e+000	 1.8716254667e+000	-1.2326932419e-001
 3.8121320343e+000	 1.5091883092e+000	 1.1085079413e-001
 3.7969432870e+000	 1.5470040968e+000	 1.4013105083e-001
 3.7813477457e+000	 1.5847426371e+000	 1.7609500914e-001
 3.7653454004e+000	 1.6223976132e+000	 2.1822990025e-001
 3.7489363672e+000	 1.6599626847e+000	 2.5908717857e-001
 3.7321208898e+000	 1.6974314902e+000	 1.9984806342e-001
 3.7148993405e+000	 1.7347976510e+000	 1.3810746597e-001
 3.6972722214e+000	 1.7720547737e+000	 7.4984646484e-002
 3.6792401650e+000	 1.8091964538e+000	 1.1658013689e-002
 3.6608039352e+000	 1.8462162788e+000	-5.0636258731e-002
 3.6419644280e+000	 1.8831078316e+000	-8.0748547590e-002
 3.8353767419e+000	 1.5183906770e+000	 8.8684179929e-002
 3.8200953802e+000	 1.5564370487e+000	 1.0679990671e-001
 3.8044047442e+000	 1.5944057020e+000	 1.3152037553e-001
 3.7883048236e+000	 1.6322902816e+000	 1.6227534470e-001
 3.7717957353e+000	 1.6700844084e+000	 1.9846139275e-001
 3.7548777245e+000	 1.7077816822e+000	 2.3944275208e-001
 3.7375511658e+000	 1.7453756855e+000	 2.0002187450e-001
 3.7198165642e+000	 1.7828599857e+000	 1.2559314091e-001
 3.7016745562e+000	 1.8202281395e+000	 4.9843082131e-002
 3.6831259104e+000	 1.8574736952e+000	-2.6009533931e-002
 3.6641715282e+000	 1.8945901964e+000	-2.9580953429e-002
 3.8586214494e+000	 1.5275930447e+000	 7.1968268869e-002
 3.8432474734e+000	 1.5658700005e+000	 7.8129877261e-002
 3.8274617426e+000	 1.6040687668e+000	 9.0822313109e-002
 3.8112642468e+000	 1.6421829500e+000	 1.0941801623e-001
 3.7946551034e+000	 1.6802061321e+000	 1.3325535725e-001
 3.7776345592e+000	 1.7181318743e+000	 1.6163953313e-001
 3.7602029910e+000	 1.7559537199e+000	 1.9384354648e-001
 3.7423609070e+000	 1.7936651978e+000	 1.7654084768e-001
 3.7241089475e+000	 1.8312598252e+000	 8.7391033957e-002
 3.7054478856e+000	 1.8687311115e+000	-3.0061357895e-003
 3.6863786283e+000	 1.9060725612e+000	 1.7519889370e-002
 3.8818661569e+000	 1.5367954125e+000	 6.0656575665e-002
 3.8663995666e+000	 1.5753029523e+000	 5.4092202356e-002
 3.8505187411e+000	 1.6137318317e+000	 5.3989806875e-002
 3.8342236700e+000	 1.6520756183e+000	 5.9664655639e-002
 3.8175144715e+000	 1.6903278558e+000	 7.0397050084e-002
 3.8003913939e+000	 1.7284820663e+000	 8.5433284119e-002
 3.7828548162e+000	 1.7665317544e+000	 1.0398668781e-001
 3.7649052498e+000	 1.8044704098e+000	 1.2523875617e-001
 3.7465433387e+000	 1.8422915109e+000	 1.2440138465e-001
 3.7277698608e+000	 1.8799885278e+000	 3.5479147823e-002
 3.7085857285e+000	 1.9175549260e+000	 6.0417848281e-002
 3.9051108645e+000	 1.5459977802e+000	 5.4704545521e-002
 3.8895516598e+000	 1.5847359041e+000	 3.4659678658e-002
 3.8735757395e+000	 1.6233948965e+000	 2.1013025402e-002
 3.8571830931e+000	 1.6619682867e+000	 1.3022814697e-002
 3.8403738396e+000	 1.7004495794e+000	 9.9114082396e-003
 3.8231482286e+000	 1.7388322583e+000	 1.0866319845e-002
 3.8055066415e+000	 1.7771097888e+000	 1.5041323532e-002
 3.7874495926e+000	 1.8152756218e+000	 2.1557649145e-002
 3.7689777300e+000	 1.8533231966e+000	 2.9505264074e-002
 3.7500918360e+000	 1.8912459442e+000	 9.1953240837e-002
 3.7307928287e+000	 1.9290372909e+000	 9.8975025727e-002
 3.9283555720e+000	 1.5552001479e+000	 5.4069497028e-002
 3.9127037530e+000	 1.5941688559e+000	 1.9806613583e-002
 3.8966327380e+000	 1.6330579614e+000	-8.1167141741e-003
 3.8801425163e+000	 1.6718609551e+000	-3.0499167847e-002
 3.8632332077e+000	 1.7105713031e+000	-4.8176205141e-002
 3.8459050633e+000	 1.7491824503e+000	-6.2018978585e-002
 3.8281584667e+000	 1.7876878233e+000	-7.2933163028e-002
 3.8099939354e+000	 1.8260808339e+000	-8.1857693164e-002
 3.7914121212e+000	 1.8643548823e+000	-8.9763412611e-002
 3.7724138112e+000	 1.9025033605e+000	-8.6283883688e-003
 3.7529999288e+000	 1.9405196557e+000	 1.1242694797e-001
 3.9516002795e+000	 1.5644025157e+000	 5.8710567056e-002
 3.9358558462e+000	 1.6036018077e+000	 9.5087808636e-003
 3.9196897364e+000	 1.6427210263e+000	-3.3406979941e-002
 3.9031019395e+000	 1.6817536235e+000	-7.0892189415e-002
 3.8860925758e+000	 1.7206930268e+000	-1.0384001327e-001
 3.8686618980e+000	 1.7595326423e+000	-1.3318016570e-001
 3.8508102920e+000	 1.7982658577e+000	-1.5987767239e-001
 3.8325382783e+000	 1.8368860459e+000	-1.8493154118e-001
 3.8138465125e+000	 1.8753865680e+000	-2.0819450833e-001
 3.7947357865e+000	 1.9137607768e+000	-1.1228174756e-001
 3.7752070290e+000	 1.9520020205e+000	-1.0347648801e-002
 3.5531360273e+000	 1.8371783722e+000	-1.7903778636e-001
 3.5343635826e+000	 1.8730387253e+000	-2.7701291456e-001
 3.5151998336e+000	 1.9087614125e+000	-2.5438829683e-001
 3.4956460444e+000	 1.9443401791e+000	-2.3223436537e-001
 3.4757036097e+000	 1.9797687788e+000	-2.1754985050e-001
 3.4553740550e+000	 2.0150409773e+000	-2.0973293348e-001
 3.4346590368e+000	 2.0501505556e+000	-2.0816762890e-001
 3.4135603429e+000	 2.0850913135e+000	-2.1222586813e-001
 3.3920798916e+000	 2.1198570727e+000	-2.2126961953e-001
 3.3702197324e+000	 2.1544416806e+000	-2.3465303941e-001
 3.3479820449e+000	 2.1888390135e+000	-2.5172464802e-001
 3.5753431275e+000	 1.8486607371e+000	-1.5735316179e-001
 3.5564533549e+000	 1.8847452173e+000	-2.3585089531e-001
 3.5371698326e+000	 1.9206911713e+000	-2.2169467646e-001
 3.5174938322e+000	 1.9564923052e+000	-2.1420178922e-001
 3.4974267573e+000	 1.9921423336e+000	-2.1270707040e-001
 3.4769701428e+000	 2.0276349834e+000	-2.1653000097e-001
 3.4561256558e+000	 2.0629639966e+000	-2.2497686742e-001
 3.4348950950e+000	 2.0981231342e+000	-2.3734296555e-001
 3.4132803910e+000	 2.1331061794e+000	-2.5291484061e-001
 3.3912836057e+000	 2.1679069412e+000	-2.7097255777e-001
 3.3689069327e+000	 2.2025192574e+000	-2.9079199669e-001
 3.5975502277e+000	 1.8601431019e+000	-1.3880806282e-001
 3.5785431273e+000	 1.8964517093e+000	-1.9007529272e-001
 3.5591398315e+000	 1.9326209301e+000	-1.9141705490e-001
 3.5393416200e+000	 1.9686444313e+000	-1.9804578176e-001
 3.5191499048e+000	 2.0045158885e+000	-2.0921660971e-001
 3.4985662307e+000	 2.0402289895e+000	-2.2417016243e-001
 3.4775922748e+000	 2.0757774376e+000	-2.4213483307e-001
 3.4562298472e+000	 2.1111549549e+000	-2.6232910892e-001
 3.4344808903e+000	 2.1463552861e+000	-2.8396393205e-001
 3.4123474791e+000	 2.1813722017e+000	-3.0624508982e-001
 3.3898318204e+000	 2.2161995012e+000	-3.2837562868e-001
 3.6197573278e+000	 1.8716254667e+000	-1.2326932419e-001
 3.6006328997e+000	 1.9081582014e+000	-1.4742001468e-001
 3.5811098305e+000	 1.9445506890e+000	-1.6372570014e-001
 3.5611894078e+000	 1.9807965574e+000	-1.8395694348e-001
 3.5408730524e+000	 2.0168894434e+000	-2.0728901854e-001
 3.5201623185e+000	 2.0528229956e+000	-2.3288352084e-001
 3.4990588938e+000	 2.0885908786e+000	-2.5989077130e-001
 3.4775645993e+000	 2.1241867756e+000	-2.8745226224e-001
 3.4556813896e+000	 2.1596043928e+000	-3.1470313919e-001
 3.4334113524e+000	 2.1948374622e+000	-3.4077471204e-001
 3.4107567082e+000	 2.2298797451e+000	-3.6479698854e-001
 3.6419644280e+000	 1.8831078316e+000	-8.0748547590e-002
 3.6227226721e+000	 1.9198646934e+000	-1.0803623337e-001
 3.6030798295e+000	 1.9564804478e+000	-1.3879210491e-001
 3.5830371956e+000	 1.9929486836e+000	-1.7212672665e-001
 3.5625962000e+000	 2.0292629983e+000	-2.0713533379e-001
 3.5417584064e+000	 2.0654170017e+000	-2.4290030920e-001
 3.5205255128e+000	 2.1014043195e+000	-2.7849370918e-001
 3.4988993514e+000	 2.1372185963e+000	-3.1297983135e-001
 3.4768818889e+000	 2.1728534996e+000	-3.4541781830e-001
 3.4544752257e+000	 2.2083027227e+000	-3.7486428982e-001
 3.4316815960e+000	 2.2435599889e+000	-4.0037599694e-001
 3.6641715282e+000	 1.8945901964e+000	-2.9580953429e-002
 3.6448124445e+000	 1.9315711854e+000	-7.2076677894e-002
 3.6250498284e+000	 1.9684102066e+000	-1.1678894967e-001
 3.6048849833e+000	 2.0051008097e+000	-1.6274740953e-001
 3.5843193475e+000	 2.0416365531e+000	-2.0896706439e-001
 3.5633544942e+000	 2.0780110078e+000	-2.5445088657e-001
 3.5419921317e+000	 2.1142177605e+000	-2.9819246202e-001
 3.5202341036e+000	 2.1502504171e+000	-3.3917868090e-001
 3.4980823883e+000	 2.1861026063e+000	-3.7639246348e-001
 3.4755390991e+000	 2.2217679832e+000	-4.0881551423e-001
 3.4526064838e+000	 2.2572402327e+000	-4.3543109693e-001
 3.6863786283e+000	 1.9060725612e+000	 1.7519889370e-002
 3.6669022169e+000	 1.9432776775e+000	-3.9695587412e-002
 3.6470198274e+000	 1.9803399655e+000	-9.7890066740e-002
 3.6267327711e+000	 2.0172529358e+000	-1.5601207143e-001
 3.6060424951e+000	 2.0540101080e+000	-2.1299617709e-001
 3.5849505821e+000	 2.0906050139e+000	-2.6776573424e-001
 3.5634587507e+000	 2.1270312015e+000	-3.1923563977e-001
 3.5415688557e+000	 2.1632822378e+000	-3.6631515061e-001
 3.5192828876e+000	 2.1993517130e+000	-4.0791073266e-001
 3.4966029724e+000	 2.2352332437e+000	-4.4292893734e-001
 3.4735313716e+000	 2.2709204766e+000	-4.7027929837e-001
 3.7085857285e+000	 1.9175549260e+000	 6.0417848281e-002
 3.6889919893e+000	 1.9549841695e+000	-1.1048665922e-002
 3.6689898263e+000	 1.9922697243e+000	-8.2270405883e-002
 3.6485805589e+000	 2.0294050619e+000	-1.5211456880e-001
 3.6277656426e+000	 2.0663836629e+000	-2.1943508273e-001
 3.6065466699e+000	 2.1031990201e+000	-2.8307545214e-001
 3.5849253697e+000	 2.1398446424e+000	-3.4187165313e-001
 3.5629036079e+000	 2.1763140585e+000	-3.9465507099e-001
 3.5404833869e+000	 2.2126008197e+000	-4.4025547264e-001
 3.5176668457e+000	 2.2486985042e+000	-4.7750400637e-001
 3.4944562593e+000	 2.2846007204e+000	-5.0523622091e-001
 3.7307928287e+000	 1.9290372909e+000	 9.8975025727e-002
 3.7110817617e+000	 1.9666906615e+000	 1.3706961332e-002
 3.6909598253e+000	 2.0041994831e+000	-7.0106001004e-002
 3.6704283467e+000	 2.0415571880e+000	-1.5124951207e-001
 3.6494887902e+000	 2.0787572177e+000	-2.2849662306e-001
 3.6281427577e+000	 2.1157930262e+000	-3.0061075524e-001
 3.6063919887e+000	 2.1526580834e+000	-3.6634871952e-001
 3.5842383600e+000	 2.1893458792e+000	-4.2446377851e-001
 3.5616838862e+000	 2.2258499264e+000	-4.7370874322e-001
 3.5387307190e+000	 2.2621637647e+000	-5.1283909651e-001
 3.5153811471e+000	 2.2982809642e+000	-5.4061613532e-001
 3.7529999288e+000	 1.9405196557e+000	 1.1242694797e-001
 3.7331715341e+000	 1.9783971536e+000	 3.4412789916e-002
 3.7129298243e+000	 2.0161292419e+000	-6.1573938097e-002
 3.6922761344e+000	 2.0537093142e+000	-1.5361224333e-001
 3.6712119378e+000	 2.0911307726e+000	-2.4039405797e-001
 3.6497388456e+000	 2.1283870323e+000	-3.2060247019e-001
 3.6278586077e+000	 2.1654715244e+000	-3.9291486877e-001
 3.6055731122e+000	 2.2023776999e+000	-4.5600613023e-001
 3.5828843855e+000	 2.2390990331e+000	-5.0855184047e-001
 3.5597945924e+000	 2.2756290252e+000	-5.4923154271e-001
 3.5363060349e+000	 2.3119612081e+000	-5.7673200340e-001
 3.7752070290e+000	 1.9520020205e+000	-1.0347648801e-002
 3.7552613065e+000	 1.9901036456e+000	 1.5193050886e-002
 3.7348998232e+000	 2.0280590008e+000	-5.6852324294e-002
 3.7141239222e+000	 2.0658614403e+000	-1.5939881481e-001
 3.6929350853e+000	 2.1035043275e+000	-2.5534105317e-001
 3.6713349334e+000	 2.1409810384e+000	-3.4328153202e-001
 3.6493252266e+000	 2.1782849654e+000	-4.2181794865e-001
 3.6269078643e+000	 2.2154095206e+000	-4.8954651785e-001
 3.6040848849e+000	 2.2523481398e+000	-5.4506531922e-001
 3.5808584657e+000	 2.2890942857e+000	-5.8697767020e-001
 3.5572309227e+000	 2.3256414519e+000	-6.1389551650e-001
 3.3479820449e+000	 2.1888390135e+000	-2.5172464802e-001
 3.3253691387e+000	 2.2230429801e+000	-3.4375264052e-001
 3.3023834532e+000	 2.2570475246e+000	-4.2527162651e-001
 3.2790275563e+000	 2.2908466307e+000	-4.9482056772e-001
 3.2553041442e+000	 2.3244343245e+000	-5.5095058799e-001
 3.2312160404e+000	 2.3578046781e+000	-5.9222808270e-001
 3.2067661948e+000	 2.3909518130e+000	-6.1723780801e-001
 3.1819576824e+000	 2.4238699031e+000	-6.2458594169e-001
 3.1567937025e+000	 2.4565531787e+000	-6.1290310755e-001
 3.1312775773e+000	 2.4889959289e+000	-5.8084735557e-001
 3.1054127503e+000	 2.5211925056e+000	-5.6767744587e-001
 3.3689069327e+000	 2.2025192574e+000	-2.9079199669e-001
 3.3461526958e+000	 2.2369369987e+000	-3.6937946274e-001
 3.3230233498e+000	 2.2711540716e+000	-4.3635406488e-001
 3.2995214785e+000	 2.3051644221e+000	-4.9024412775e-001
 3.2756497951e+000	 2.3389620390e+000	-5.2959146260e-001
 3.2514111407e+000	 2.3725409573e+000	-5.5295452497e-001
 3.2268084835e+000	 2.4058952618e+000	-5.5891155012e-001
 3.2018449179e+000	 2.4390190900e+000	-5.4606365800e-001
 3.1765236632e+000	 2.4719066360e+000	-5.1303791962e-001
 3.1508480621e+000	 2.5045521534e+000	-4.8684254228e-001
 3.1248215800e+000	 2.5369499587e+000	-6.1466214681e-001
 3.3898318204e+000	 2.2161995012e+000	-3.2837562868e-001
 3.3669362530e+000	 2.2508310173e+000	-3.9421429978e-001
 3.3436632464e+000	 2.2852606186e+000	-4.4733922948e-001
 3.3200154007e+000	 2.3194822135e+000	-4.8626734129e-001
 3.2959954460e+000	 2.3534897535e+000	-5.0953037099e-001
 3.2716062409e+000	 2.3872772366e+000	-5.1567807371e-001
 3.2468507722e+000	 2.4208387106e+000	-5.0328140660e-001
 3.2217321534e+000	 2.4541682769e+000	-4.7093567914e-001
 3.1962536238e+000	 2.4872600934e+000	-4.1726366256e-001
 3.1704185470e+000	 2.5201083780e+000	-4.6739660041e-001
 3.1442304097e+000	 2.5527074119e+000	-5.7829778049e-001
 3.4107567082e+000	 2.2298797451e+000	-3.6479698854e-001
 3.3877198101e+000	 2.2647250359e+000	-4.1857497574e-001
 3.3643031429e+000	 2.2993671657e+000	-4.5854103388e-001
 3.3405093230e+000	 2.3338000050e+000	-4.8319991952e-001
 3.3163410969e+000	 2.3680174680e+000	-4.9107252859e-001
 3.2918013412e+000	 2.4020135158e+000	-4.8069915387e-001
 3.2668930610e+000	 2.4357821594e+000	-4.5064271616e-001
 3.2416193890e+000	 2.4693174638e+000	-3.9949196099e-001
 3.2159835844e+000	 2.5026135508e+000	-3.4215719354e-001
 3.1899890318e+000	 2.5356646025e+000	-4.5451098578e-001
 3.1636392394e+000	 2.5684648651e+000	-5.4810009983e-001
 3.4316815960e+000	 2.2435599889e+000	-4.0037599694e-001
 3.4085033672e+000	 2.2786190546e+000	-4.4277798778e-001
 3.3849430395e+000	 2.3134737127e+000	-4.7027226628e-001
 3.3610032452e+000	 2.3481177964e+000	-4.8135065445e-001
 3.3366867478e+000	 2.3825451826e+000	-4.7452244238e-001
 3.3119964414e+000	 2.4167497950e+000	-4.4831769716e-001
 3.2869353497e+000	 2.4507256083e+000	-4.0129054384e-001
 3.2615066245e+000	 2.4844666507e+000	-3.3202240954e-001
 3.2357135451e+000	 2.5179670081e+000	-3.5176794913e-001
 3.2095595167e+000	 2.5512208271e+000	-4.4791855656e-001
 3.1830480690e+000	 2.5842223182e+000	-5.2460401804e-001
 3.4526064838e+000	 2.2572402327e+000	-4.3543109693e-001
 3.4292869243e+000	 2.2925130732e+000	-4.6713854631e-001
 3.4055829361e+000	 2.3275802597e+000	-4.8284462361e-001
 3.3814971674e+000	 2.3624355879e+000	-4.8102744680e-001
 3.3570323987e+000	 2.3970728971e+000	-4.6018393237e-001
 3.3321915417e+000	 2.4314860743e+000	-4.1883315700e-001
 3.3069776384e+000	 2.4656690571e+000	-3.5551968925e-001
 3.2813938600e+000	 2.4996158376e+000	-2.6881688238e-001
 3.2554435057e+000	 2.5333204655e+000	-3.6702358330e-001
 3.2291300016e+000	 2.5667770517e+000	-4.4735256860e-001
 3.2024568987e+000	 2.5999797714e+000	-5.0753121222e-001
 3.4735313716e+000	 2.2709204766e+000	-4.7027929837e-001
 3.4500704814e+000	 2.3064070918e+000	-4.9197061373e-001
 3.4262228327e+000	 2.3416868067e+000	-4.9656874439e-001
 3.4019910896e+000	 2.3767533793e+000	-4.8253733278e-001
 3.3773780496e+000	 2.4116006116e+000	-4.4836015231e-001
 3.3523866420e+000	 2.4462223535e+000	-3.9254452291e-001
 3.3270199271e+000	 2.4806125059e+000	-3.1362469461e-001
 3.3012810955e+000	 2.5147650245e+000	-3.0182159297e-001
 3.2751734664e+000	 2.5486739229e+000	-3.8766906406e-001
 3.2487004864e+000	 2.5823332762e+000	-4.5254666346e-001
 3.2218657284e+000	 2.6157372245e+000	-4.9660396706e-001
 3.4944562593e+000	 2.2846007204e+000	-5.0523622091e-001
 3.4708540386e+000	 2.3203011104e+000	-5.1758694185e-001
 3.4468627293e+000	 2.3557933538e+000	-5.1175424044e-001
 3.4224850119e+000	 2.3910711707e+000	-4.8618651004e-001
 3.3977237005e+000	 2.4261283262e+000	-4.3935360964e-001
 3.3725817422e+000	 2.4609586328e+000	-3.6975033442e-001
 3.3470622158e+000	 2.4955559548e+000	-2.7589985240e-001
 3.3211683310e+000	 2.5299142114e+000	-3.4199822311e-001
 3.2949034270e+000	 2.5640273802e+000	-4.1344952188e-001
 3.2682709713e+000	 2.5978895008e+000	-4.6323485680e-001
 3.2412745581e+000	 2.6314946777e+000	-4.9154515670e-001
 3.5153811471e+000	 2.2982809642e+000	-5.4061613532e-001
 3.4916375957e+000	 2.3341951291e+000	-5.4429910786e-001
 3.4675026259e+000	 2.3698999008e+000	-5.2870972742e-001
 3.4429789341e+000	 2.4053889622e+000	-4.9228036260e-001
 3.4180693514e+000	 2.4406560407e+000	-4.3346618470e-001
 3.3927768425e+000	 2.4756949120e+000	-3.5074869444e-001
 3.3671045045e+000	 2.5104994036e+000	-3.0675672179e-001
 3.3410555665e+000	 2.5450633983e+000	-3.8672197211e-001
 3.3146333876e+000	 2.5793808376e+000	-4.4411024483e-001
 3.2878414561e+000	 2.6134457253e+000	-4.7915152731e-001
 3.2606833878e+000	 2.6472521309e+000	-4.9207822719e-001
 3.5363060349e+000	 2.3119612081e+000	-5.7673200340e-001
 3.5124211528e+000	 2.3480891477e+000	-5.7241754913e-001
 3.4881425224e+000	 2.3840064478e+000	-5.4774285429e-001
 3.4634728563e+000	 2.4197067536e+000	-5.0112348491e-001
 3.4384150023e+000	 2.4551837552e+000	-4.3099914929e-001
 3.4129719427e+000	 2.4904311912e+000	-3.3583728219e-001
 3.3871467933e+000	 2.5254428524e+000	-3.6881693183e-001
 3.3609428020e+000	 2.5602125852e+000	-4.3574896458e-001
 3.3343633483e+000	 2.5947342950e+000	-4.7939667396e-001
 3.3074119410e+000	 2.6290019499e+000	-5.0003140594e-001
 3.2800922175e+000	 2.6630095840e+000	-4.9792717951e-001
 3.5572309227e+000	 2.3256414519e+000	-6.1389551650e-001
 3.5332047099e+000	 2.3619831663e+000	-6.0225159668e-001
 3.5087824190e+000	 2.3981129948e+000	-5.6916033180e-001
 3.4839667785e+000	 2.4340245451e+000	-5.1301970509e-001
 3.4587606532e+000	 2.4697114697e+000	-4.3225318458e-001
 3.4331670430e+000	 2.5051674705e+000	-3.5615811018e-001
 3.4071890820e+000	 2.5403863013e+000	-4.3463935855e-001
 3.3808300376e+000	 2.5753617721e+000	-4.8883528351e-001
 3.3540933089e+000	 2.6100877523e+000	-5.1905439877e-001
 3.3269824258e+000	 2.6445581744e+000	-5.2560956554e-001
 3.2995010472e+000	 2.6787670372e+000	-5.0881655332e-001
 3.1054127503e+000	 2.5211925056e+000	-5.6767744587e-001
 3.0792027853e+000	 2.5531373263e+000	-5.7683435705e-001
 3.0526513643e+000	 2.5848248776e+000	-5.8972969432e-001
 3.0257622864e+000	 2.6162497178e+000	-6.0566309413e-001
 2.9985394656e+000	 2.6474064805e+000	-6.2390744209e-001
 2.9709869289e+000	 2.6782898775e+000	-6.4371031047e-001
 2.9431088147e+000	 2.7088947016e+000	-6.6429547660e-001
 2.9149093706e+000	 2.7392158296e+000	-6.8486451853e-001
 2.8863929509e+000	 2.7692482252e+000	-7.0459848432e-001
 2.8575640151e+000	 2.7989869417e+000	-7.2265963088e-001
 2.8284271247e+000	 2.8284271247e+000	-7.3819322813e-001
 3.1248215800e+000	 2.5369499587e+000	-6.1466214681e-001
 3.0984478027e+000	 2.5690944346e+000	-6.1125043127e-001
 3.0717304354e+000	 2.6009800331e+000	-6.1335000302e-001
 3.0446733007e+000	 2.6326012785e+000	-6.2023546304e-001
 3.0172803372e+000	 2.6639527710e+000	-6.3115239186e-001
 2.9895555972e+000	 2.6950291893e+000	-6.4531882462e-001
 2.9615032448e+000	 2.7258252935e+000	-6.6192681106e-001
 2.9331275541e+000	 2.7563359285e+000	-6.8014405662e-001
 2.9044329069e+000	 2.7865560266e+000	-6.9911564082e-001
 2.8754237902e+000	 2.8164806100e+000	-7.1796580903e-001
 2.8461047943e+000	 2.8461047943e+000	-7.3579983292e-001
 3.1442304097e+000	 2.5527074119e+000	-5.7829778049e-001
 3.1176928201e+000	 2.5850515429e+000	-6.4705906246e-001
 3.0908095064e+000	 2.6171351885e+000	-6.3820052818e-001
 3.0635843150e+000	 2.6489528392e+000	-6.3586878543e-001
 3.0360212089e+000	 2.6804990615e+000	-6.3928191415e-001
 3.0081242655e+000	 2.7117685010e+000	-6.4762821186e-001
 2.9798976749e+000	 2.7427558854e+000	-6.6006779553e-001
 2.9513457377e+000	 2.7734560275e+000	-6.7573428852e-001
 2.9224728628e+000	 2.8038638280e+000	-6.9373658860e-001
 2.8932835653e+000	 2.8339742784e+000	-7.1316071294e-001
 2.8637824638e+000	 2.8637824638e+000	-7.3307171547e-001
 3.1636392394e+000	 2.5684648651e+000	-5.4810009983e-001
 3.1369378375e+000	 2.6010086512e+000	-6.3771018268e-001
 3.1098885774e+000	 2.6332903440e+000	-6.6405637836e-001
 3.0824953293e+000	 2.6653044000e+000	-6.5234373536e-001
 3.0547620806e+000	 2.6970453520e+000	-6.4808268656e-001
 3.0266929338e+000	 2.7285078127e+000	-6.5043158716e-001
 2.9982921050e+000	 2.7596864773e+000	-6.5851841168e-001
 2.9695639212e+000	 2.7905761264e+000	-6.7144248713e-001
 2.9405128187e+000	 2.8211716294e+000	-6.8827631110e-001
 2.9111433403e+000	 2.8514679468e+000	-7.0806745045e-001
 2.8814601333e+000	 2.8814601333e+000	-7.2984051600e-001
 3.1830480690e+000	 2.5842223182e+000	-5.2460401804e-001
 3.1561828549e+000	 2.6169657595e+000	-6.0538213094e-001
 3.1289676484e+000	 2.6494454995e+000	-6.7731352842e-001
 3.1014063436e+000	 2.6816559607e+000	-6.6944134343e-001
 3.0735029522e+000	 2.7135916425e+000	-6.5734163123e-001
 3.0452616021e+000	 2.7452471245e+000	-6.5352219039e-001
 3.0166865351e+000	 2.7766170692e+000	-6.5707863884e-001
 2.9877821048e+000	 2.8076962253e+000	-6.6707578817e-001
 2.9585527747e+000	 2.8384794308e+000	-6.8254951227e-001
 2.9290031154e+000	 2.8689616152e+000	-7.0250870014e-001
 2.8991378028e+000	 2.8991378028e+000	-7.2593728841e-001
 3.2024568987e+000	 2.5999797714e+000	-5.0753121222e-001
 3.1754278723e+000	 2.6329228678e+000	-5.7919704539e-001
 3.1480467195e+000	 2.6656006550e+000	-6.4336026112e-001
 3.1203173579e+000	 2.6980075215e+000	-6.8694298599e-001
 3.0922438239e+000	 2.7301379330e+000	-6.6684590746e-001
 3.0638302704e+000	 2.7619864362e+000	-6.5669338253e-001
 3.0350809652e+000	 2.7935476611e+000	-6.5554845402e-001
 3.0060002884e+000	 2.8248163243e+000	-6.6244119433e-001
 2.9765927306e+000	 2.8557872322e+000	-6.7637062503e-001
 2.9468628905e+000	 2.8864552836e+000	-6.9630672434e-001
 2.9168154724e+000	 2.9168154724e+000	-7.2119251795e-001
 3.2218657284e+000	 2.6157372245e+000	-4.9660396706e-001
 3.1946728897e+000	 2.6488799761e+000	-5.5887834563e-001
 3.1671257905e+000	 2.6817558105e+000	-6.1498575699e-001
 3.1392283722e+000	 2.7143590822e+000	-6.6539656886e-001
 3.1109846955e+000	 2.7466842236e+000	-6.7638290452e-001
 3.0823989387e+000	 2.7787257480e+000	-6.5973864204e-001
 3.0534753953e+000	 2.8104782529e+000	-6.5372783203e-001
 3.0242184719e+000	 2.8419364232e+000	-6.5734557925e-001
 2.9946326866e+000	 2.8730950336e+000	-6.6955381938e-001
 2.9647226656e+000	 2.9039489520e+000	-6.8928338165e-001
 2.9344931419e+000	 2.9344931419e+000	-7.1543613839e-001
 3.2412745581e+000	 2.6314946777e+000	-4.9154515670e-001
 3.2139179071e+000	 2.6648370844e+000	-5.4414995969e-001
 3.1862048615e+000	 2.6979109660e+000	-5.9191541353e-001
 3.1581393865e+000	 2.7307106429e+000	-6.3532014748e-001
 3.1297255672e+000	 2.7632305141e+000	-6.7482650744e-001
 3.1009676070e+000	 2.7954650597e+000	-6.6245156131e-001
 3.0718698253e+000	 2.8274088448e+000	-6.5141674551e-001
 3.0424366555e+000	 2.8590565222e+000	-6.5159569144e-001
 3.0126726425e+000	 2.8904028350e+000	-6.6191301037e-001
 2.9825824407e+000	 2.9214426203e+000	-6.8126013905e-001
 2.9521708114e+000	 2.9521708114e+000	-7.0849754854e-001
 3.2606833878e+000	 2.6472521309e+000	-4.9207822719e-001
 3.2331629245e+000	 2.6807941927e+000	-5.3473630900e-001
 3.2052839325e+000	 2.7140661215e+000	-5.7387503617e-001
 3.1770504007e+000	 2.7470622037e+000	-6.0998166564e-001
 3.1484664388e+000	 2.7797768046e+000	-6.4352526722e-001
 3.1195362753e+000	 2.8122043714e+000	-6.6462584332e-001
 3.0902642554e+000	 2.8443394367e+000	-6.4841516502e-001
 3.0606548391e+000	 2.8761766211e+000	-6.4499815796e-001
 3.0307125985e+000	 2.9077106364e+000	-6.5326186558e-001
 3.0004422158e+000	 2.9389362887e+000	-6.7205808353e-001
 2.9698484810e+000	 2.9698484810e+000	-7.0020562815e-001
 3.2800922175e+000	 2.6630095840e+000	-4.9792717951e-001
 3.2524079419e+000	 2.6967513009e+000	-5.3036229370e-001
 3.2243630036e+000	 2.7302212769e+000	-5.6059082617e-001
 3.1959614150e+000	 2.7634137644e+000	-5.8910902901e-001
 3.1672073105e+000	 2.7963230951e+000	-6.1639305920e-001
 3.1381049436e+000	 2.8289436832e+000	-6.4289751254e-001
 3.1086586855e+000	 2.8612700286e+000	-6.4452305908e-001
 3.0788730226e+000	 2.8932967200e+000	-6.3735948803e-001
 3.0487525544e+000	 2.9250184379e+000	-6.4341381255e-001
 3.0183019909e+000	 2.9564299571e+000	-6.6149793335e-001
 2.9875261505e+000	 2.9875261505e+000	-6.9038875327e-001
 3.2995010472e+000	 2.6787670372e+000	-5.0881655332e-001
 3.2716529593e+000	 2.7127084092e+000	-5.3075327861e-001
 3.2434420746e+000	 2.7463764324e+000	-5.5178936896e-001
 3.2148724293e+000	 2.7797653252e+000	-5.7243044049e-001
 3.1859481822e+000	 2.8128693856e+000	-5.9316010170e-001
 3.1566736119e+000	 2.8456829949e+000	-6.1443845849e-001
 3.1270531156e+000	 2.8782006205e+000	-6.3670069455e-001
 3.0970912062e+000	 2.9104168190e+000	-6.2848607649e-001
 3.0667925103e+000	 2.9423262393e+000	-6.3218204573e-001
 3.0361617660e+000	 2.9739236255e+000	-6.4940004889e-001
 3.0052038200e+000	 3.0052038200e+000	-6.7887481110e-001
 2.8284271247e+000	 2.8284271247e+000	-7.3819322813e-001
 2.7989869417e+000	 2.8575640151e+000	-7.2184115756e-001
 2.7692482252e+000	 2.8863929509e+000	-7.1243493519e-001
 2.7392158296e+000	 2.9149093706e+000	-7.0879791836e-001
 2.7088947016e+000	 2.9431088147e+000	-7.0973240133e-001
 2.6782898775e+000	 2.9709869289e+000	-7.1402200169e-001
 2.6474064805e+000	 2.9985394656e+000	-7.2043409780e-001
 2.6162497178e+000	 3.0257622864e+000	-7.2772231108e-001
 2.5848248776e+000	 3.0526513643e+000	-7.3462902687e-001
 2.5531373263e+000	 3.0792027853e+000	-7.3988794754e-001
 2.5211925056e+000	 3.1054127503e+000	-7.4222667139e-001
 2.8461047943e+000	 2.8461047943e+000	-7.3579983292e-001
 2.8164806100e+000	 2.8754237902e+000	-7.1679022119e-001
 2.7865560266e+000	 2.9044329069e+000	-7.0324097999e-001
 2.7563359285e+000	 2.9331275541e+000	-6.9396149668e-001
 2.7258252935e+000	 2.9615032448e+000	-6.8774109017e-001
 2.6950291893e+000	 2.9895555972e+000	-6.8335143135e-001
 2.6639527710e+000	 3.0172803372e+000	-6.7954901370e-001
 2.6326012785e+000	 3.0446733007e+000	-6.7507766784e-001
 2.6009800331e+000	 3.0717304354e+000	-6.6867111368e-001
 2.5690944346e+000	 3.0984478027e+000	-6.5905554363e-001
 2.5369499587e+000	 3.1248215800e+000	-6.4495223046e-001
 2.8637824638e+000	 2.8637824638e+000	-7.3307171547e-001
 2.8339742784e+000	 2.8932835653e+000	-7.1173307166e-001
 2.8038638280e+000	 2.9224728628e+000	-6.9439651652e-001
 2.7734560275e+000	 2.9513457377e+000	-6.7985694563e-001
 2.7427558854e+000	 2.9798976749e+000	-6.6689015695e-001
 2.7117685010e+000	 3.0081242655e+000	-6.5425530613e-001
 2.6804990615e+000	 3.0360212089e+000	-6.4069741124e-001
 2.6489528392e+000	 3.0635843150e+000	-6.2494990036e-001
 2.6171351885e+000	 3.0908095064e+000	-6.0573719595e-001
 2.5850515429e+000	 3.1176928201e+000	-5.8177732919e-001
 2.5527074119e+000	 3.1442304097e+000	-6.7320769096e-001
 2.8814601333e+000	 2.8814601333e+000	-7.2984051600e-001
 2.8514679468e+000	 2.9111433403e+000	-7.0649996643e-001
 2.8211716294e+000	 2.9405128187e+000	-6.8573015192e-001
 2.7905761264e+000	 2.9695639212e+000	-6.6631095315e-001
 2.7596864773e+000	 2.9982921050e+000	-6.4700410041e-001
 2.7285078127e+000	 3.0266929338e+000	-6.2655566464e-001
 2.6970453520e+000	 3.0547620806e+000	-6.0369859700e-001
 2.6653044000e+000	 3.0824953293e+000	-5.7715531057e-001
 2.6332903440e+000	 3.1098885774e+000	-5.4564029781e-001
 2.6010086512e+000	 3.1369378375e+000	-5.7441453400e-001
 2.5684648651e+000	 3.1636392394e+000	-6.9358713948e-001
 2.8991378028e+000	 2.8991378028e+000	-7.2593728841e-001
 2.8689616152e+000	 2.9290031154e+000	-7.0092066383e-001
 2.8384794308e+000	 2.9585527747e+000	-6.7707009035e-001
 2.8076962253e+000	 2.9877821048e+000	-6.5314990932e-001
 2.7766170692e+000	 3.0166865351e+000	-6.2790723545e-001
 2.7452471245e+000	 3.0452616021e+000	-6.0007448439e-001
 2.7135916425e+000	 3.0735029522e+000	-5.6837194799e-001
 2.6816559607e+000	 3.1014063436e+000	-5.3151041107e-001
 2.6494454995e+000	 3.1289676484e+000	-5.0754061894e-001
 2.6169657595e+000	 3.1561828549e+000	-6.0103236895e-001
 2.5842223182e+000	 3.1830480690e+000	-7.0515276583e-001
 2.9168154724e+000	 2.9168154724e+000	-7.2119251795e-001
 2.8864552836e+000	 2.9468628905e+000	-6.9482443815e-001
 2.8557872322e+000	 2.9765927306e+000	-6.6824414524e-001
 2.8248163243e+000	 3.0060002884e+000	-6.4019991543e-001
 2.7935476611e+000	 3.0350809652e+000	-6.0942369871e-001
 2.7619864362e+000	 3.0638302704e+000	-5.7463368368e-001
 2.7301379330e+000	 3.0922438239e+000	-5.3453690954e-001
 2.6980075215e+000	 3.1203173579e+000	-4.8783191865e-001
 2.6656006550e+000	 3.1480467195e+000	-5.3862320106e-001
 2.6329228678e+000	 3.1754278723e+000	-6.1876861535e-001
 2.5999797714e+000	 3.2024568987e+000	-7.0815498183e-001
 2.9344931419e+000	 2.9344931419e+000	-7.1543613839e-001
 2.9039489520e+000	 2.9647226656e+000	-6.8804009426e-001
 2.8730950336e+000	 2.9946326866e+000	-6.5907975105e-001
 2.8419364232e+000	 3.0242184719e+000	-6.2728679267e-001
 2.8104782529e+000	 3.0534753953e+000	-5.9137745389e-001
 2.7787257480e+000	 3.0823989387e+000	-5.5005512336e-001
 2.7466842236e+000	 3.1109846955e+000	-5.0201299320e-001
 2.7143590822e+000	 3.1392283722e+000	-5.0188389629e-001
 2.6817558105e+000	 3.1671257905e+000	-5.6078005729e-001
 2.6488799761e+000	 3.1946728897e+000	-6.2788145175e-001
 2.6157372245e+000	 3.2218657284e+000	-7.0284484107e-001
 2.9521708114e+000	 2.9521708114e+000	-7.0849754854e-001
 2.9214426203e+000	 2.9825824407e+000	-6.8039598161e-001
 2.8904028350e+000	 3.0126726425e+000	-6.4940397463e-001
 2.8590565222e+000	 3.0424366555e+000	-6.1423609050e-001
 2.8274088448e+000	 3.0718698253e+000	-5.7359229694e-001
 2.7954650597e+000	 3.1009676070e+000	-5.2616060857e-001
 2.7632305141e+000	 3.1297255672e+000	-4.8636141801e-001
 2.7307106429e+000	 3.1581393865e+000	-5.2673927752e-001
 2.6979109660e+000	 3.1862048615e+000	-5.7427634768e-001
 2.6648370844e+000	 3.2139179071e+000	-6.2862952806e-001
 2.6314946777e+000	 3.2412745581e+000	-6.8947401967e-001
 2.9698484810e+000	 2.9698484810e+000	-7.0020562815e-001
 2.9389362887e+000	 3.0004422158e+000	-6.7172000786e-001
 2.9077106364e+000	 3.0307125985e+000	-6.3904352614e-001
 2.8761766211e+000	 3.0606548391e+000	-6.0087309473e-001
 2.8443394367e+000	 3.0902642554e+000	-5.5589186110e-001
 2.8122043714e+000	 3.1195362753e+000	-5.0277189037e-001
 2.7797768046e+000	 3.1484664388e+000	-5.1222052650e-001
 2.7470622037e+000	 3.1770504007e+000	-5.4291810666e-001
 2.7140661215e+000	 3.2052839325e+000	-5.7937755041e-001
 2.6807941927e+000	 3.2331629245e+000	-6.2127195156e-001
 2.6472521309e+000	 3.2606833878e+000	-6.6829479777e-001
 2.9875261505e+000	 2.9875261505e+000	-6.9038875327e-001
 2.9564299571e+000	 3.0183019909e+000	-6.6183965188e-001
 2.9250184379e+000	 3.0487525544e+000	-6.2782476962e-001
 2.8932967200e+000	 3.0788730226e+000	-5.8702283536e-001
 2.8612700286e+000	 3.1086586855e+000	-5.3809962165e-001
 2.8289436832e+000	 3.1381049436e+000	-5.1282668749e-001
 2.7963230951e+000	 3.1672073105e+000	-5.2940664601e-001
 2.7634137644e+000	 3.1959614150e+000	-5.5069195383e-001
 2.7302212769e+000	 3.2243630036e+000	-5.7634945234e-001
 2.6967513009e+000	 3.2524079419e+000	-6.0606827330e-001
 2.6630095840e+000	 3.2800922175e+000	-6.3956004165e-001
 3.0052038200e+000	 3.0052038200e+000	-6.7887481110e-001
 2.9739236255e+000	 3.0361617660e+000	-6.5058197639e-001
 2.9423262393e+000	 3.0667925103e+000	-6.1557373315e-001
 2.9104168190e+000	 3.0970912062e+000	-5.7251009406e-001
 2.8782006205e+000	 3.1270531156e+000	-5.2419606453e-001
 2.8456829949e+000	 3.1566736119e+000	-5.2937004819e-001
 2.8128693856e+000	 3.1859481822e+000	-5.3819673279e-001
 2.7797653252e+000	 3.2148724293e+000	-5.5033256474e-001
 2.7463764324e+000	 3.2434420746e+000	-5.6545814002e-001
 2.7127084092e+000	 3.2716529593e+000	-5.8327847513e-001
 2.6787670372e+000	 3.2995010472e+000	-6.0352318648e-001
 2.5211925056e+000	 3.1054127503e+000	-7.4222667139e-001
 2.4889959289e+000	 3.1312775773e+000	-6.9988798751e-001
 2.4565531787e+000	 3.1567937025e+000	-6.9256064730e-001
 2.4238699031e+000	 3.1819576824e+000	-6.8815563776e-001
 2.3909518130e+000	 3.2067661948e+000	-6.8577987511e-001
 2.3578046781e+000	 3.2312160404e+000	-6.8455406670e-001
 2.3244343245e+000	 3.2553041442e+000	-6.8361436997e-001
 2.2908466307e+000	 3.2790275563e+000	-6.8211399243e-001
 2.2570475246e+000	 3.3023834532e+000	-6.7922472922e-001
 2.2230429801e+000	 3.3253691387e+000	-6.7413843537e-001
 2.1888390135e+000	 3.3479820449e+000	-6.6606842961e-001
 2.5369499587e+000	 3.1248215800e+000	-6.4495223046e-001
 2.5045521534e+000	 3.1508480621e+000	-7.7839413408e-001
 2.4719066360e+000	 3.1765236632e+000	-7.7723309839e-001
 2.4390190900e+000	 3.2018449179e+000	-7.5804562616e-001
 2.4058952618e+000	 3.2268084835e+000	-7.4222126410e-001
 2.3725409573e+000	 3.2514111407e+000	-7.2884285537e-001
 2.3389620390e+000	 3.2756497951e+000	-7.1700811395e-001
 2.3051644221e+000	 3.2995214785e+000	-7.0583128323e-001
 2.2711540716e+000	 3.3230233498e+000	-6.9444473188e-001
 2.2369369987e+000	 3.3461526958e+000	-6.8200048401e-001
 2.2025192574e+000	 3.3689069327e+000	-6.6767168030e-001
 2.5527074119e+000	 3.1442304097e+000	-6.7320769096e-001
 2.5201083780e+000	 3.1704185470e+000	-7.9354570563e-001
 2.4872600934e+000	 3.1962536238e+000	-8.5262343932e-001
 2.4541682769e+000	 3.2217321534e+000	-8.1841720307e-001
 2.4208387106e+000	 3.2468507722e+000	-7.8889223541e-001
 2.3872772366e+000	 3.2716062409e+000	-7.6309338336e-001
 2.3534897535e+000	 3.2959954460e+000	-7.4007980228e-001
 2.3194822135e+000	 3.3200154007e+000	-7.1892667320e-001
 2.2852606186e+000	 3.3436632464e+000	-6.9872685730e-001
 2.2508310173e+000	 3.3669362530e+000	-6.7859248404e-001
 2.2161995012e+000	 3.3898318204e+000	-6.5765646991e-001
 2.5684648651e+000	 3.1636392394e+000	-6.9358713948e-001
 2.5356646025e+000	 3.1899890318e+000	-7.9931966001e-001
 2.5026135508e+000	 3.2159835844e+000	-9.0620555916e-001
 2.4693174638e+000	 3.2416193890e+000	-8.6934497838e-001
 2.4357821594e+000	 3.2668930610e+000	-8.2587484705e-001
 2.4020135158e+000	 3.2918013412e+000	-7.8739532622e-001
 2.3680174680e+000	 3.3163410969e+000	-7.5292689163e-001
 2.3338000050e+000	 3.3405093230e+000	-7.2150555793e-001
 2.2993671657e+000	 3.3643031429e+000	-6.9218459190e-001
 2.2647250359e+000	 3.3877198101e+000	-6.6403615882e-001
 2.2298797451e+000	 3.4107567082e+000	-6.3615289890e-001
 2.5842223182e+000	 3.1830480690e+000	-7.0515276583e-001
 2.5512208271e+000	 3.2095595167e+000	-7.9596984025e-001
 2.5179670081e+000	 3.2357135451e+000	-8.8910363767e-001
 2.4844666507e+000	 3.2615066245e+000	-9.1090384679e-001
 2.4507256083e+000	 3.2869353497e+000	-8.5325129729e-001
 2.4167497950e+000	 3.3119964414e+000	-8.0183834923e-001
 2.3825451826e+000	 3.3366867478e+000	-7.5564667209e-001
 2.3481177964e+000	 3.3610032452e+000	-7.1367300440e-001
 2.3134737127e+000	 3.3849430395e+000	-6.7493092588e-001
 2.2786190546e+000	 3.4085033672e+000	-6.3845256228e-001
 2.2435599889e+000	 3.4316815960e+000	-6.0329021966e-001
 2.5999797714e+000	 3.2024568987e+000	-7.0815498183e-001
 2.5667770517e+000	 3.2291300016e+000	-7.8375062850e-001
 2.5333204655e+000	 3.2554435057e+000	-8.6280496397e-001
 2.4996158376e+000	 3.2813938600e+000	-9.4316897917e-001
 2.4656690571e+000	 3.3069776384e+000	-8.7110392034e-001
 2.4314860743e+000	 3.3321915417e+000	-8.0651210769e-001
 2.3970728971e+000	 3.3570323987e+000	-7.4833627222e-001
 2.3624355879e+000	 3.3814971674e+000	-6.9553376093e-001
 2.3275802597e+000	 3.4055829361e+000	-6.4707836816e-001
 2.2925130732e+000	 3.4292869243e+000	-6.0196209912e-001
 2.2572402327e+000	 3.4526064838e+000	-5.5919686214e-001
 2.6157372245e+000	 3.2218657284e+000	-7.0284484107e-001
 2.5823332762e+000	 3.2487004864e+000	-7.6291692976e-001
 2.5486739229e+000	 3.2751734664e+000	-8.2756837905e-001
 2.5147650245e+000	 3.3012810955e+000	-8.9645067823e-001
 2.4806125059e+000	 3.3270199271e+000	-8.7951518226e-001
 2.4462223535e+000	 3.3523866420e+000	-8.0150624725e-001
 2.4116006116e+000	 3.3773780496e+000	-7.3109266391e-001
 2.3767533793e+000	 3.4019910896e+000	-6.6719226678e-001
 2.3416868067e+000	 3.4262228327e+000	-6.0873896096e-001
 2.3064070918e+000	 3.4500704814e+000	-5.5468454446e-001
 2.2709204766e+000	 3.4735313716e+000	-5.0400045869e-001
 2.6314946777e+000	 3.2412745581e+000	-6.8947401967e-001
 2.5978895008e+000	 3.2682709713e+000	-7.3372415627e-001
 2.5640273802e+000	 3.2949034270e+000	-7.8365311017e-001
 2.5299142114e+000	 3.3211683310e+000	-8.3889791502e-001
 2.4955559548e+000	 3.3470622158e+000	-8.7856767706e-001
 2.4609586328e+000	 3.3725817422e+000	-7.8691040415e-001
 2.4261283262e+000	 3.3977237005e+000	-7.0401266706e-001
 2.3910711707e+000	 3.4224850119e+000	-6.2875266143e-001
 2.3557933538e+000	 3.4468627293e+000	-5.6002429372e-001
 2.3203011104e+000	 3.4708540386e+000	-4.9673906261e-001
 2.2846007204e+000	 3.4944562593e+000	-4.3782786786e-001
 2.6472521309e+000	 3.2606833878e+000	-6.6829479777e-001
 2.6134457253e+000	 3.2878414561e+000	-6.9642821236e-001
 2.5793808376e+000	 3.3146333876e+000	-7.3131875937e-001
 2.5450633983e+000	 3.3410555665e+000	-7.7258923808e-001
 2.5104994036e+000	 3.3671045045e+000	-8.1988255378e-001
 2.4756949120e+000	 3.3927768425e+000	-7.6281420556e-001
 2.4406560407e+000	 3.4180693514e+000	-6.6719295412e-001
 2.4053889622e+000	 3.4429789341e+000	-5.8031879347e-001
 2.3698999008e+000	 3.4675026259e+000	-5.0104551660e-001
 2.3341951291e+000	 3.4916375957e+000	-4.2824422529e-001
 2.2982809642e+000	 3.5153811471e+000	-3.6080519753e-001
 2.6630095840e+000	 3.2800922175e+000	-6.3956004165e-001
 2.6290019499e+000	 3.3074119410e+000	-6.5128547992e-001
 2.5947342950e+000	 3.3343633483e+000	-6.7082529241e-001
 2.5602125852e+000	 3.3609428020e+000	-6.9778826360e-001
 2.5254428524e+000	 3.3871467933e+000	-7.3180313932e-001
 2.4904311912e+000	 3.4129719427e+000	-7.2930726981e-001
 2.4551837552e+000	 3.4384150023e+000	-6.2073005447e-001
 2.4197067536e+000	 3.4634728563e+000	-5.2199422921e-001
 2.3840064478e+000	 3.4881425224e+000	-4.3191335345e-001
 2.3480891477e+000	 3.5124211528e+000	-3.4931802917e-001
 2.3119612081e+000	 3.5363060349e+000	-2.7305782703e-001
 2.6787670372e+000	 3.2995010472e+000	-6.0352318648e-001
 2.6445581744e+000	 3.3269824258e+000	-5.9855280435e-001
 2.6100877523e+000	 3.3540933089e+000	-6.0243302802e-001
 2.5753617721e+000	 3.3808300376e+000	-6.1475884520e-001
 2.5403863013e+000	 3.4071890820e+000	-6.3514508415e-001
 2.5051674705e+000	 3.4331670430e+000	-6.6322639276e-001
 2.4697114697e+000	 3.4587606532e+000	-5.6472035857e-001
 2.4340245451e+000	 3.4839667785e+000	-4.5388226101e-001
 2.3981129948e+000	 3.5087824190e+000	-3.5273811440e-001
 2.3619831663e+000	 3.5332047099e+000	-2.6007791274e-001
 2.3256414519e+000	 3.5572309227e+000	-1.7471042860e-001
 2.1888390135e+000	 3.3479820449e+000	-6.6606842961e-001
 2.1544416806e+000	 3.3702197324e+000	-6.3730185942e-001
 2.1198570727e+000	 3.3920798916e+000	-6.0355837294e-001
 2.0850913135e+000	 3.4135603429e+000	-5.6440058396e-001
 2.0501505556e+000	 3.4346590368e+000	-5.1941721461e-001
 2.0150409773e+000	 3.4553740550e+000	-4.6822382835e-001
 1.9797687788e+000	 3.4757036097e+000	-4.1046348549e-001
 1.9443401791e+000	 3.4956460444e+000	-3.4580732064e-001
 1.9087614125e+000	 3.5151998336e+000	-2.7395504166e-001
 1.8730387253e+000	 3.5343635826e+000	-1.9784697837e-001
 1.8371783722e+000	 3.5531360273e+000	-1.6594888688e-001
 2.2025192574e+000	 3.3689069327e+000	-6.6767168030e-001
 2.1679069412e+000	 3.3912836057e+000	-6.4002620822e-001
 2.1331061794e+000	 3.4132803910e+000	-6.0970840857e-001
 2.0981231342e+000	 3.4348950950e+000	-5.7626390681e-001
 2.0629639966e+000	 3.4561256558e+000	-5.3926291298e-001
 2.0276349834e+000	 3.4769701428e+000	-4.9830099454e-001
 1.9921423336e+000	 3.4974267573e+000	-4.5299977260e-001
 1.9564923052e+000	 3.5174938322e+000	-4.0300754079e-001
 1.9206911713e+000	 3.5371698326e+000	-3.4799980642e-001
 1.8847452173e+000	 3.5564533549e+000	-2.8767975361e-001
 1.8486607371e+000	 3.5753431275e+000	-2.5921450109e-001
 2.2161995012e+000	 3.3898318204e+000	-6.5765646991e-001
 2.1813722017e+000	 3.4123474791e+000	-6.3132954706e-001
 2.1463552861e+000	 3.4344808903e+000	-6.0460214011e-001
 2.1111549549e+000	 3.4562298472e+000	-5.7700269173e-001
 2.0757774376e+000	 3.4775922748e+000	-5.4808273493e-001
 2.0402289895e+000	 3.4985662307e+000	-5.1741770569e-001
 2.0045158885e+000	 3.5191499048e+000	-4.8460767995e-001
 1.9686444313e+000	 3.5393416200e+000	-4.4927803393e-001
 1.9326209301e+000	 3.5591398315e+000	-4.1108002745e-001
 1.8964517093e+000	 3.5785431273e+000	-3.6969130973e-001
 1.8601431019e+000	 3.5975502277e+000	-3.4457793688e-001
 2.2298797451e+000	 3.4107567082e+000	-6.3615289890e-001
 2.1948374622e+000	 3.4334113524e+000	-6.1134014176e-001
 2.1596043928e+000	 3.4556813896e+000	-5.8836643006e-001
 2.1241867756e+000	 3.4775645993e+000	-5.6674282707e-001
 2.0885908786e+000	 3.4990588938e+000	-5.4600202133e-001
 2.0528229956e+000	 3.5201623185e+000	-5.2569917923e-001
 2.0168894434e+000	 3.5408730524e+000	-5.0541272272e-001
 1.9807965574e+000	 3.5611894078e+000	-4.8474503116e-001
 1.9445506890e+000	 3.5811098305e+000	-4.6332306665e-001
 1.9081582014e+000	 3.6006328997e+000	-4.4079892247e-001
 1.8716254667e+000	 3.6197573278e+000	-4.2113282368e-001
 2.2435599889e+000	 3.4316815960e+000	-6.0329021966e-001
 2.2083027227e+000	 3.4544752257e+000	-5.8018547840e-001
 2.1728534996e+000	 3.4768818889e+000	-5.6112741694e-001
 2.1372185963e+000	 3.4988993514e+000	-5.4560952031e-001
 2.1014043195e+000	 3.5205255128e+000	-5.3314546274e-001
 2.0654170017e+000	 3.5417584064e+000	-5.2327000028e-001
 2.0292629983e+000	 3.5625962000e+000	-5.1553978930e-001
 1.9929486836e+000	 3.5830371956e+000	-5.0953412981e-001
 1.9564804478e+000	 3.6030798295e+000	-5.0485563277e-001
 1.9198646934e+000	 3.6227226721e+000	-5.0113081114e-001
 1.8831078316e+000	 3.6419644280e+000	-4.9801059417e-001
 2.2572402327e+000	 3.4526064838e+000	-5.5919686214e-001
 2.2217679832e+000	 3.4755390991e+000	-5.3799228695e-001
 2.1861026063e+000	 3.4980823883e+000	-5.2301053721e-001
 2.1502504171e+000	 3.5202341036e+000	-5.1372731872e-001
 2.1142177605e+000	 3.5419921317e+000	-5.0963711913e-001
 2.0780110078e+000	 3.5633544942e+000	-5.1025414083e-001
 2.0416365531e+000	 3.5843193475e+000	-5.1511316025e-001
 2.0051008097e+000	 3.6048849833e+000	-5.2377031258e-001
 1.9684102066e+000	 3.6250498284e+000	-5.3580380117e-001
 1.9315711854e+000	 3.6448124445e+000	-5.5081453089e-001
 1.8945901964e+000	 3.6641715282e+000	-5.6842666538e-001
 2.2709204766e+000	 3.4735313716e+000	-5.0400045869e-001
 2.2352332437e+000	 3.4966029724e+000	-4.8488656404e-001
 2.1993517130e+000	 3.5192828876e+000	-4.7414054644e-001
 2.1632822378e+000	 3.5415688557e+000	-4.7122012919e-001
 2.1270312015e+000	 3.5634587507e+000	-4.7560043882e-001
 2.0906050139e+000	 3.5849505821e+000	-4.8677497817e-001
 2.0540101080e+000	 3.6060424951e+000	-5.0425652659e-001
 2.0172529358e+000	 3.6267327711e+000	-5.2757796615e-001
 1.9803399655e+000	 3.6470198274e+000	-5.5629303292e-001
 1.9432776775e+000	 3.6669022169e+000	-5.8997699278e-001
 1.9060725612e+000	 3.6863786283e+000	-6.2822724124e-001
 2.2846007204e+000	 3.4944562593e+000	-4.3782786786e-001
 2.2486985042e+000	 3.5176668457e+000	-4.2099359492e-001
 2.2126008197e+000	 3.5404833869e+000	-4.1464153965e-001
 2.1763140585e+000	 3.5629036079e+000	-4.1821123749e-001
 2.1398446424e+000	 3.5849253697e+000	-4.3115827688e-001
 2.1031990201e+000	 3.6065466699e+000	-4.5295531273e-001
 2.0663836629e+000	 3.6277656426e+000	-4.8309300752e-001
 2.0294050619e+000	 3.6485805589e+000	-5.2108089895e-001
 1.9922697243e+000	 3.6689898263e+000	-5.6644819321e-001
 1.9549841695e+000	 3.6889919893e+000	-6.1874448298e-001
 1.9175549260e+000	 3.7085857285e+000	-6.7754038991e-001
 2.2982809642e+000	 3.5153811471e+000	-3.6080519753e-001
 2.2621637647e+000	 3.5387307190e+000	-3.4643797464e-001
 2.2258499264e+000	 3.5616838862e+000	-3.4463697101e-001
 2.1893458792e+000	 3.5842383600e+000	-3.5482332666e-001
 2.1526580834e+000	 3.6063919887e+000	-3.7643291272e-001
 2.1157930262e+000	 3.6281427577e+000	-4.0891738525e-001
 2.0787572177e+000	 3.6494887902e+000	-4.5174516736e-001
 2.0415571880e+000	 3.6704283467e+000	-5.0440235841e-001
 2.0041994831e+000	 3.6909598253e+000	-5.6639356903e-001
 1.9666906615e+000	 3.7110817617e+000	-6.3724268145e-001
 1.9290372909e+000	 3.7307928287e+000	-7.1649353435e-001
 2.3119612081e+000	 3.5363060349e+000	-2.7305782703e-001
 2.2756290252e+000	 3.5597945924e+000	-2.6134362847e-001
 2.2390990331e+000	 3.5828843855e+000	-2.6424967277e-001
 2.2023776999e+000	 3.6055731122e+000	-2.8117849492e-001
 2.1654715244e+000	 3.6278586077e+000	-3.1154606715e-001
 2.1283870323e+000	 3.6497388456e+000	-3.5478289329e-001
 2.0911307726e+000	 3.6712119378e+000	-4.1033503204e-001
 2.0537093142e+000	 3.6922761344e+000	-4.7766504753e-001
 2.0161292419e+000	 3.7129298243e+000	-5.5625288633e-001
 1.9783971536e+000	 3.7331715341e+000	-6.4559667981e-001
 1.9405196557e+000	 3.7529999288e+000	-7.0777067502e-001
 2.3256414519e+000	 3.5572309227e+000	-1.7471042860e-001
 2.2890942857e+000	 3.5808584657e+000	-1.6583383157e-001
 2.2523481398e+000	 3.6040848849e+000	-1.7360187359e-001
 2.2154095206e+000	 3.6269078643e+000	-1.9739827284e-001
 2.1782849654e+000	 3.6493252266e+000	-2.3661891878e-001
 2.1409810384e+000	 3.6713349334e+000	-2.9067300727e-001
 2.1035043275e+000	 3.6929350853e+000	-3.5898410485e-001
 2.0658614403e+000	 3.7141239222e+000	-4.4099114091e-001
 2.0280590008e+000	 3.7348998232e+000	-5.3614932648e-001
 1.9901036456e+000	 3.7552613065e+000	-5.8121719494e-001
 1.9520020205e+000	 3.7752070290e+000	-4.5713440458e-001
 1.8371783722e+000	 3.5531360273e+000	-1.6594888688e-001
 1.8011866135e+000	 3.5715160343e+000	-1.1621395647e-001
 1.7650697110e+000	 3.5895026000e+000	-8.0532745498e-002
 1.7288339256e+000	 3.6070948501e+000	-5.6851254930e-002
 1.6924855132e+000	 3.6242920395e+000	-4.3113700633e-002
 1.6560307222e+000	 3.6410935510e+000	-3.7269931466e-002
 1.6194757899e+000	 3.6574988949e+000	-3.7282735639e-002
 1.5828269397e+000	 3.6735077078e+000	-4.1135016270e-002
 1.5460903777e+000	 3.6891197520e+000	-4.6836817890e-002
 1.5092722896e+000	 3.7043349141e+000	-5.2432186410e-002
 1.4723788383e+000	 3.7191532043e+000	-5.6005845899e-002
 1.8486607371e+000	 3.5753431275e+000	-2.5921450109e-001
 1.8124440298e+000	 3.5938380095e+000	-2.2376746035e-001
 1.7761013967e+000	 3.6119369912e+000	-2.0351065765e-001
 1.7396391376e+000	 3.6296391930e+000	-1.9628331368e-001
 1.7030635476e+000	 3.6469438648e+000	-1.9992201881e-001
 1.6663809142e+000	 3.6638503857e+000	-2.1226837442e-001
 1.6295975136e+000	 3.6803582629e+000	-2.3117652049e-001
 1.5927196081e+000	 3.6964671309e+000	-2.5452052980e-001
 1.5557534425e+000	 3.7121767504e+000	-2.8020165005e-001
 1.5187052414e+000	 3.7274870073e+000	-3.0615537594e-001
 1.4815812060e+000	 3.7423979118e+000	-3.3035833406e-001
 1.8601431019e+000	 3.5975502277e+000	-3.4457793688e-001
 1.8237014462e+000	 3.6161599847e+000	-3.2423261503e-001
 1.7871330824e+000	 3.6343713825e+000	-3.2021819114e-001
 1.7504443496e+000	 3.6521835358e+000	-3.3026523364e-001
 1.7136415821e+000	 3.6695956900e+000	-3.5210083700e-001
 1.6767311062e+000	 3.6866072204e+000	-3.8345648961e-001
 1.6397192373e+000	 3.7032176310e+000	-4.2207582566e-001
 1.6026122765e+000	 3.7194265541e+000	-4.6572224104e-001
 1.5654165074e+000	 3.7352337488e+000	-5.1218635409e-001
 1.5281381932e+000	 3.7506391005e+000	-5.5067176976e-001
 1.4907835738e+000	 3.7656426193e+000	-4.0074851762e-001
 1.8716254667e+000	 3.6197573278e+000	-4.2113282368e-001
 1.8349588625e+000	 3.6384819600e+000	-4.1672498543e-001
 1.7981647681e+000	 3.6568057737e+000	-4.2979335588e-001
 1.7612495617e+000	 3.6747278786e+000	-4.5795795712e-001
 1.7242196165e+000	 3.6922475153e+000	-4.9883449520e-001
 1.6870812982e+000	 3.7093640551e+000	-5.5004245760e-001
 1.6498409610e+000	 3.7260769991e+000	-6.0921309260e-001
 1.6125049449e+000	 3.7423859773e+000	-6.7399725001e-001
 1.5750795722e+000	 3.7582907473e+000	-6.2725325979e-001
 1.5375711450e+000	 3.7737911937e+000	-4.8983159849e-001
 1.4999859415e+000	 3.7888873268e+000	-3.6962212301e-001
 1.8831078316e+000	 3.6419644280e+000	-4.9801059417e-001
 1.8462162788e+000	 3.6608039352e+000	-5.0035933529e-001
 1.8091964538e+000	 3.6792401650e+000	-5.3137328256e-001
 1.7720547737e+000	 3.6972722214e+000	-5.7852146359e-001
 1.7347976510e+000	 3.7148993405e+000	-6.3930628128e-001
 1.6974314902e+000	 3.7321208898e+000	-7.1123331197e-001
 1.6599626847e+000	 3.7489363672e+000	-7.9181951550e-001
 1.6223976132e+000	 3.7653454004e+000	-6.6273471524e-001
 1.5847426371e+000	 3.7813477457e+000	-5.3592703228e-001
 1.5470040968e+000	 3.7969432870e+000	-4.2689840027e-001
 1.5091883092e+000	 3.8121320343e+000	-3.3595618777e-001
 1.8945901964e+000	 3.6641715282e+000	-5.6842666538e-001
 1.8574736952e+000	 3.6831259104e+000	-5.7424965145e-001
 1.8202281395e+000	 3.7016745562e+000	-6.2409424930e-001
 1.7828599857e+000	 3.7198165642e+000	-6.9111479875e-001
 1.7453756855e+000	 3.7375511658e+000	-7.7269846276e-001
 1.7077816822e+000	 3.7548777245e+000	-7.9681322536e-001
 1.6700844084e+000	 3.7717957353e+000	-6.6088194997e-001
 1.6322902816e+000	 3.7883048236e+000	-5.4286898656e-001
 1.5944057020e+000	 3.8044047442e+000	-4.4315397178e-001
 1.5564370487e+000	 3.8200953802e+000	-3.6208154878e-001
 1.5183906770e+000	 3.8353767419e+000	-2.9996015737e-001
 1.9060725612e+000	 3.6863786283e+000	-6.2822724124e-001
 1.8687311115e+000	 3.7054478856e+000	-6.3750916724e-001
 1.8312598252e+000	 3.7241089475e+000	-7.0709170735e-001
 1.7936651978e+000	 3.7423609070e+000	-7.9489610276e-001
 1.7559537199e+000	 3.7602029910e+000	-7.5466176489e-001
 1.7181318743e+000	 3.7776345592e+000	-6.2535232436e-001
 1.6802061321e+000	 3.7946551034e+000	-5.1438945173e-001
 1.6421829500e+000	 3.8112642468e+000	-4.2219154536e-001
 1.6040687668e+000	 3.8274617426e+000	-3.4914220763e-001
 1.5658700005e+000	 3.8432474734e+000	-2.9558893173e-001
 1.5275930447e+000	 3.8586214494e+000	-2.6184187723e-001
 1.9175549260e+000	 3.7085857285e+000	-6.7754038991e-001
 1.8799885278e+000	 3.7277698608e+000	-6.9542554808e-001
 1.8422915109e+000	 3.7465433387e+000	-7.7950030583e-001
 1.8044704098e+000	 3.7649052498e+000	-6.8398081514e-001
 1.7665317544e+000	 3.7828548162e+000	-5.5968647736e-001
 1.7284820663e+000	 3.8003913939e+000	-4.5410986734e-001
 1.6903278558e+000	 3.8175144715e+000	-3.6770957804e-001
 1.6520756183e+000	 3.8342236700e+000	-3.0090972632e-001
 1.6137318317e+000	 3.8505187411e+000	-2.5409853366e-001
 1.5753029523e+000	 3.8663995666e+000	-2.2762699535e-001
 1.5367954125e+000	 3.8818661569e+000	-2.2180764066e-001
 1.9290372909e+000	 3.7307928287e+000	-7.1649353435e-001
 1.8912459442e+000	 3.7500918360e+000	-7.4899876740e-001
 1.8533231966e+000	 3.7689777300e+000	-5.8809574782e-001
 1.8152756218e+000	 3.7874495926e+000	-4.6730011716e-001
 1.7771097888e+000	 3.8055066415e+000	-3.6553278605e-001
 1.7388322583e+000	 3.8231482286e+000	-2.8329382894e-001
 1.7004495794e+000	 3.8403738396e+000	-2.2104929214e-001
 1.6619682867e+000	 3.8571830931e+000	-1.7922966658e-001
 1.6233948965e+000	 3.8735757395e+000	-1.5822844794e-001
 1.5847359041e+000	 3.8895516598e+000	-1.5840078730e-001
 1.5459977802e+000	 3.9051108645e+000	-1.8006223498e-001
 1.9405196557e+000	 3.7529999288e+000	-7.0777067502e-001
 1.9025033605e+000	 3.7724138112e+000	-5.0927273380e-001
 1.8643548823e+000	 3.7914121212e+000	-3.5147589806e-001
 1.8260808339e+000	 3.8099939354e+000	-2.5203360317e-001
 1.7876878233e+000	 3.8281584667e+000	-1.7240895660e-001
 1.7491824503e+000	 3.8459050633e+000	-1.1311119855e-001
 1.7105713031e+000	 3.8632332077e+000	-7.4614485880e-002
 1.6718609551e+000	 3.8801425163e+000	-5.7356341139e-002
 1.6330579614e+000	 3.8966327380e+000	-6.1736191125e-002
 1.5941688559e+000	 3.9127037530e+000	-8.8113998049e-002
 1.5552001479e+000	 3.9283555720e+000	-1.3680898617e-001
 1.9520020205e+000	 3.7752070290e+000	-4.5713440458e-001
 1.9137607768e+000	 3.7947357865e+000	-2.7352157270e-001
 1.8753865680e+000	 3.8138465125e+000	-1.1739447364e-001
 1.8368860459e+000	 3.8325382783e+000	-3.8390188945e-002
 1.7982658577e+000	 3.8508102920e+000	 1.9477622582e-002
 1.7595326423e+000	 3.8686618980e+000	 5.6231990730e-002
 1.7206930268e+000	 3.8860925758e+000	 7.1389988749e-002
 1.6817536235e+000	 3.9031019395e+000	 6.4506402920e-002
 1.6427210263e+000	 3.9196897364e+000	 3.5175216558e-002
 1.6036018077e+000	 3.9358558462e+000	-1.6969000785e-002
 1.5644025157e+000	 3.9516002795e+000	-9.2249801773e-002
 1.4723788383e+000	 3.7191532043e+000	-5.6005845899e-002
 1.4354161602e+000	 3.7335747544e+000	-1.0660391422e-001
 1.3983903631e+000	 3.7475998176e+000	-1.5052128952e-001
 1.3613075226e+000	 3.7612287659e+000	-6.1966832642e-002
 1.3241736799e+000	 3.7744620896e+000	 4.0481185501e-002
 1.2869948389e+000	 3.7873003954e+000	 1.2862970919e-001
 1.2497769635e+000	 3.7997444048e+000	 2.0230971845e-001
 1.2125259753e+000	 3.8117949524e+000	 2.2424359224e-001
 1.1752477508e+000	 3.8234529844e+000	 2.1205772498e-001
 1.1379481191e+000	 3.8347195567e+000	 1.6641414956e-001
 1.1006328594e+000	 3.8455958328e+000	 8.7982131857e-002
 1.4815812060e+000	 3.7423979118e+000	-3.3035833406e-001
 1.4443875112e+000	 3.7569095967e+000	-3.1094138218e-001
 1.4071303029e+000	 3.7710223164e+000	-2.0289845047e-001
 1.3698156946e+000	 3.7847364456e+000	-1.0511960990e-001
 1.3324497654e+000	 3.7980524776e+000	-1.7698044570e-002
 1.2950385566e+000	 3.8109710228e+000	 5.9304720433e-002
 1.2575880695e+000	 3.8234928073e+000	 1.2585945130e-001
 1.2201042627e+000	 3.8356186709e+000	 1.4512154545e-001
 1.1825930493e+000	 3.8473495656e+000	 1.2687422733e-001
 1.1450602948e+000	 3.8586865539e+000	 7.9044413788e-002
 1.1075118147e+000	 3.8696308067e+000	 2.2433474963e-003
 1.4907835738e+000	 3.7656426193e+000	-4.0074851762e-001
 1.4533588622e+000	 3.7802444389e+000	-3.0860447554e-001
 1.4158702426e+000	 3.7944448153e+000	-2.2271508574e-001
 1.3783238666e+000	 3.8082441254e+000	-1.4322050668e-001
 1.3407258509e+000	 3.8216428657e+000	-7.0232935097e-002
 1.3030822743e+000	 3.8346416503e+000	-3.8358075789e-003
 1.2653991756e+000	 3.8472412098e+000	 5.5916917310e-002
 1.2276825500e+000	 3.8594423893e+000	 7.6914219543e-002
 1.1899383477e+000	 3.8712461467e+000	 5.3530933795e-002
 1.1521724706e+000	 3.8826535511e+000	 4.4001022847e-003
 1.1143907701e+000	 3.8936657807e+000	-6.9925982692e-002
 1.4999859415e+000	 3.7888873268e+000	-3.6962212301e-001
 1.4623302133e+000	 3.8035792811e+000	-3.0277515509e-001
 1.4246101824e+000	 3.8178673141e+000	-2.3834802741e-001
 1.3868320386e+000	 3.8317518052e+000	-1.7649728739e-001
 1.3490019364e+000	 3.8452332537e+000	-1.1735446555e-001
 1.3111259921e+000	 3.8583122778e+000	-6.1025192979e-002
 1.2732102816e+000	 3.8709896123e+000	-7.5883978900e-003
 1.2352608374e+000	 3.8832661078e+000	 1.8962907763e-002
 1.1972836462e+000	 3.8951427279e+000	-8.6191590865e-003
 1.1592846463e+000	 3.9066205484e+000	-5.8153055536e-002
 1.1212697255e+000	 3.9177007546e+000	-1.2914638504e-001
 1.5091883092e+000	 3.8121320343e+000	-3.3595618777e-001
 1.4713015643e+000	 3.8269141233e+000	-2.9367014145e-001
 1.4333501222e+000	 3.8412898130e+000	-2.5001874864e-001
 1.3953402107e+000	 3.8552594850e+000	-2.0517531056e-001
 1.3572780219e+000	 3.8688236418e+000	-1.5929101879e-001
 1.3191697098e+000	 3.8819829053e+000	-1.1249398860e-001
 1.2810213876e+000	 3.8947380149e+000	-6.4888369720e-002
 1.2428391247e+000	 3.9070898262e+000	-2.9388059550e-002
 1.2046289446e+000	 3.9190393090e+000	-6.0219914464e-002
 1.1663968220e+000	 3.9305875456e+000	-1.0924610830e-001
 1.1281486808e+000	 3.9417357286e+000	-1.7603510378e-001
 1.5183906770e+000	 3.8353767419e+000	-2.9996015737e-001
 1.4802729153e+000	 3.8502489655e+000	-2.8150425632e-001
 1.4420900620e+000	 3.8647123118e+000	-2.5794659592e-001
 1.4038483827e+000	 3.8787671648e+000	-2.2947760173e-001
 1.3655541074e+000	 3.8924140299e+000	-1.9626845980e-001
 1.3272134276e+000	 3.9056535327e+000	-1.5847006576e-001
 1.2888324936e+000	 3.9184864174e+000	-1.1621204973e-001
 1.2504174121e+000	 3.9309135447e+000	-6.9601878558e-002
 1.2119742430e+000	 3.9429358902e+000	-1.0191215031e-001
 1.1735089978e+000	 3.9545545428e+000	-1.4950698030e-001
 1.1350276362e+000	 3.9657707025e+000	-2.1120620051e-001
 1.5275930447e+000	 3.8586214494e+000	-2.6184187723e-001
 1.4892442663e+000	 3.8735838077e+000	-2.6649047967e-001
 1.4508300017e+000	 3.8881348107e+000	-2.6234885313e-001
 1.4123565547e+000	 3.9022748446e+000	-2.4962492373e-001
 1.3738301929e+000	 3.9160044179e+000	-2.2851021149e-001
 1.3352571453e+000	 3.9293241602e+000	-1.9917869504e-001
 1.2966435997e+000	 3.9422348199e+000	-1.6178575067e-001
 1.2579956994e+000	 3.9547372631e+000	-1.1646716728e-001
 1.2193195415e+000	 3.9668324714e+000	-1.3433373116e-001
 1.1806211735e+000	 3.9785215400e+000	-1.7956056562e-001
 1.1419065916e+000	 3.9898056765e+000	-2.3527065005e-001
 1.5367954125e+000	 3.8818661569e+000	-2.2180764066e-001
 1.4982156173e+000	 3.8969186499e+000	-2.4884000484e-001
 1.4595699415e+000	 3.9115573096e+000	-2.6344080329e-001
 1.4208647267e+000	 3.9257825243e+000	-2.6583584444e-001
 1.3821062784e+000	 3.9395948060e+000	-2.5623732780e-001
 1.3433008631e+000	 3.9529947877e+000	-2.3484262414e-001
 1.3044547057e+000	 3.9659832225e+000	-2.0183312848e-001
 1.2655739868e+000	 3.9785609816e+000	-1.5737318773e-001
 1.2266648399e+000	 3.9907290525e+000	-1.5811965651e-001
 1.1877333493e+000	 4.0024885373e+000	-2.0002881884e-001
 1.1487855470e+000	 4.0138406504e+000	-2.4883643288e-001
 1.5459977802e+000	 3.9051108645e+000	-1.8006223498e-001
 1.5071869683e+000	 3.9202534922e+000	-2.2876229180e-001
 1.4683098813e+000	 3.9349798084e+000	-2.6143578811e-001
 1.4293728987e+000	 3.9492902041e+000	-2.7832680207e-001
 1.3903823639e+000	 3.9631851940e+000	-2.7966856423e-001
 1.3513445808e+000	 3.9766654151e+000	-2.6568215297e-001
 1.3122658117e+000	 3.9897316250e+000	-2.3657526135e-001
 1.2731522741e+000	 4.0023847000e+000	-1.9254103739e-001
 1.2340101384e+000	 4.0146256337e+000	-1.7390214612e-001
 1.1948455250e+000	 4.0264555345e+000	-2.1153084255e-001
 1.1556645023e+000	 4.0378756244e+000	-2.5250862423e-001
 1.5552001479e+000	 3.9283555720e+000	-1.3680898617e-001
 1.5161583193e+000	 3.9435883344e+000	-2.0646511834e-001
 1.4770498210e+000	 3.9584023073e+000	-2.5654526541e-001
 1.4378810707e+000	 3.9727978839e+000	-2.8731216823e-001
 1.3986584494e+000	 3.9867755821e+000	-2.9902044586e-001
 1.3593882986e+000	 4.0003360426e+000	-2.9191520609e-001
 1.3200769177e+000	 4.0134800275e+000	-2.6623072601e-001
 1.2807305615e+000	 4.0262084185e+000	-2.2218920492e-001
 1.2413554368e+000	 4.0385222148e+000	-1.8231072224e-001
 1.2019577008e+000	 4.0504225317e+000	-2.1468297169e-001
 1.1625434577e+000	 4.0619105984e+000	-2.4688948003e-001
 1.5644025157e+000	 3.9516002795e+000	-9.2249801773e-002
 1.5251296703e+000	 3.9669231766e+000	-1.8215462960e-001
 1.4857897608e+000	 3.9818248061e+000	-2.4897886456e-001
 1.4463892427e+000	 3.9963055637e+000	-2.9300430868e-001
 1.4069345349e+000	 4.0103659702e+000	-3.1450733291e-001
 1.3674320163e+000	 4.0240066701e+000	-3.1375740253e-001
 1.3278880237e+000	 4.0372284301e+000	-2.9101567131e-001
 1.2883088488e+000	 4.0500321369e+000	-2.4653364689e-001
 1.2487007353e+000	 4.0624187960e+000	-1.8397228893e-001
 1.2090698765e+000	 4.0743895290e+000	-2.1009885499e-001
 1.1694224131e+000	 4.0859455723e+000	-2.3257851988e-001
 1.1006328594e+000	 3.8455958328e+000	 8.7982131857e-002
 1.0633076989e+000	 3.8560830823e+000	 7.4911279172e-002
 1.0259783107e+000	 3.8661826788e+000	 5.8947239052e-002
 9.8865031116e-001	 3.8758960980e+000	 4.1065861074e-002
 9.5132925831e-001	 3.8852249153e+000	 2.2230758695e-002
 9.1402064961e-001	 3.8941708042e+000	 3.3956448057e-003
 8.7672992013e-001	 3.9027355338e+000	-1.4493406970e-002
 8.3946244064e-001	 3.9109209671e+000	-3.0495781164e-002
 8.0222351592e-001	 3.9187290581e+000	-4.3674224983e-002
 7.6501838302e-001	 3.9261618501e+000	-5.3092843417e-002
 7.2785220965e-001	 3.9332214737e+000	-5.7815189405e-002
 1.1075118147e+000	 3.8696308067e+000	 2.2433474963e-003
 1.0699533720e+000	 3.8801836015e+000	 3.3865420622e-003
 1.0323906751e+000	 3.8903463206e+000	 1.7903330654e-003
 9.9482937561e-001	 3.9001204486e+000	-1.7252927604e-003
 9.5727506617e-001	 3.9095075710e+000	-6.3505963122e-003
 9.1973327867e-001	 3.9185093717e+000	-1.1283571722e-002
 8.8220948212e-001	 3.9271276309e+000	-1.5727513085e-002
 8.4470908089e-001	 3.9353642231e+000	-1.8888668435e-002
 8.0723741289e-001	 3.9432211147e+000	-1.9973986589e-002
 7.6979974791e-001	 3.9507003617e+000	-1.8188961966e-002
 7.3240128595e-001	 3.9578041079e+000	-1.2735581981e-002
 1.1143907701e+000	 3.8936657807e+000	-6.9925982692e-002
 1.0765990452e+000	 3.9042841208e+000	-5.6437529378e-002
 1.0388030396e+000	 3.9145099623e+000	-4.5527900097e-002
 1.0010084400e+000	 3.9243447992e+000	-3.6533066807e-002
 9.6322087403e-001	 3.9337902267e+000	-2.8797266731e-002
 9.2544590773e-001	 3.9428479392e+000	-2.1670308040e-002
 8.8768904412e-001	 3.9515197280e+000	-1.4504963541e-002
 8.4995572114e-001	 3.9598074792e+000	-6.6544587108e-003
 8.1225130986e-001	 3.9677131713e+000	 2.5299401353e-003
 7.7458111280e-001	 3.9752388733e+000	 1.3701232285e-002
 7.3695036226e-001	 3.9823867421e+000	 2.7518878944e-002
 1.1212697255e+000	 3.9177007546e+000	-1.2914638504e-001
 1.0832447183e+000	 3.9283846401e+000	-1.0511757001e-001
 1.0452154040e+000	 3.9386736040e+000	-8.3500145937e-002
 1.0071875045e+000	 3.9485691498e+000	-6.3786172410e-002
 9.6916668190e-001	 3.9580728824e+000	-4.5473997697e-002
 9.3115853678e-001	 3.9671865068e+000	-2.8065383371e-002
 8.9316860612e-001	 3.9759118251e+000	-1.1062723882e-002
 8.5520236139e-001	 3.9842507352e+000	 6.0336324148e-003
 8.1726520684e-001	 3.9922052279e+000	 2.3727954787e-002
 7.7936247769e-001	 3.9997773848e+000	 4.2531588823e-002
 7.4149943857e-001	 4.0069693763e+000	 6.2965297414e-002
 1.1281486808e+000	 3.9417357286e+000	-1.7603510378e-001
 1.0898903914e+000	 3.9524851593e+000	-1.4320809273e-001
 1.0516277685e+000	 3.9628372458e+000	-1.1261812698e-001
 1.0133665689e+000	 3.9727935004e+000	-8.3913515328e-002
 9.7511248976e-001	 3.9823555382e+000	-5.6746884063e-002
 9.3687116584e-001	 3.9915250743e+000	-3.0772119399e-002
 8.9864816812e-001	 4.0003039222e+000	-5.6414118244e-003
 8.6044900165e-001	 4.0086939913e+000	 1.8997590951e-002
 8.2227910381e-001	 4.0166972845e+000	 4.3504516285e-002
 7.8414384258e-001	 4.0243158964e+000	 6.8248878560e-002
 7.4604851487e-001	 4.0315520105e+000	 9.3612565819e-002
 1.1350276362e+000	 3.9657707025e+000	-2.1120620051e-001
 1.0965360645e+000	 3.9765856786e+000	-1.7126155274e-001
 1.0580401329e+000	 3.9870008875e+000	-1.3337263195e-001
 1.0195456334e+000	 3.9970178510e+000	-9.7344189847e-002
 9.8105829763e-001	 4.0066381939e+000	-6.2983329504e-002
 9.4258379490e-001	 4.0158636418e+000	-3.0096264439e-002
 9.0412773012e-001	 4.0246960193e+000	 1.5148134098e-003
 8.6569564190e-001	 4.0331372473e+000	 3.2054749917e-002
 8.2729300078e-001	 4.0411893411e+000	 6.1738322891e-002
 7.8892520747e-001	 4.0488544080e+000	 9.0793008335e-002
 7.5059759118e-001	 4.0561346447e+000	 1.1946161373e-001
 1.1419065916e+000	 3.9898056765e+000	-2.3527065005e-001
 1.1031817376e+000	 4.0006861979e+000	-1.8982840956e-001
 1.0644524973e+000	 4.0111645293e+000	-1.4625354390e-001
 1.0257246978e+000	 4.0212422016e+000	-1.0450747310e-001
 9.8700410549e-001	 4.0309208496e+000	-6.4552007092e-002
 9.4829642396e-001	 4.0402022093e+000	-2.6345920343e-002
 9.0960729212e-001	 4.0490881164e+000	 1.0158357770e-002
 8.7094228215e-001	 4.0575805033e+000	 4.5017929490e-002
 8.3230689776e-001	 4.0656813977e+000	 7.8302485720e-002
 7.9370657237e-001	 4.0733929195e+000	 1.1009722766e-001
 7.5514666749e-001	 4.0807172789e+000	 1.4050564776e-001
 1.1487855470e+000	 4.0138406504e+000	-2.4883643288e-001
 1.1098274108e+000	 4.0247867171e+000	-1.9945718677e-001
 1.0708648618e+000	 4.0353281710e+000	-1.5174986735e-001
 1.0319037623e+000	 4.0454665523e+000	-1.0583281958e-001
 9.9294991336e-001	 4.0552035053e+000	-6.1822821290e-002
 9.5400905303e-001	 4.0645407769e+000	-1.9831472040e-002
 9.1508685412e-001	 4.0734802135e+000	 2.0038295213e-002
 8.7618892241e-001	 4.0820237594e+000	 5.7695572120e-002
 8.3732079473e-001	 4.0901734544e+000	 9.3064696026e-002
 7.9848793726e-001	 4.0979314311e+000	 1.2608832805e-001
 7.5969574380e-001	 4.1052999131e+000	 1.5673038275e-001
 1.1556645023e+000	 4.0378756244e+000	-2.5250862423e-001
 1.1164730839e+000	 4.0488872364e+000	-2.0069452960e-001
 1.0772772262e+000	 4.0594918128e+000	-1.5034975438e-001
 1.0380828267e+000	 4.0696909029e+000	-1.0174985588e-001
 9.9889572122e-001	 4.0794861610e+000	-5.5166871305e-002
 9.5972168209e-001	 4.0888793444e+000	-1.0865519581e-002
 9.2056641613e-001	 4.0978723105e+000	 3.0900466872e-002
 8.8143556267e-001	 4.1064670154e+000	 6.9891872824e-002
 8.4233469171e-001	 4.1146655110e+000	 1.0588738650e-001
 8.0326930216e-001	 4.1224699427e+000	 1.3868683521e-001
 7.6424482012e-001	 4.1298825474e+000	 1.6811426479e-001
 1.1625434577e+000	 4.0619105984e+000	-2.4688948003e-001
 1.1231187570e+000	 4.0729877557e+000	-1.9408526055e-001
 1.0836895907e+000	 4.0836554545e+000	-1.4254052992e-001
 1.0442618912e+000	 4.0939152535e+000	-9.2688375607e-002
 1.0048415291e+000	 4.1037688168e+000	-4.4956415738e-002
 9.6543431115e-001	 4.1132179119e+000	 2.3718739158e-004
 9.2604597813e-001	 4.1222644076e+000	 4.2487576698e-002
 8.8668220292e-001	 4.1309102715e+000	 8.1406904844e-002
 8.4734858869e-001	 4.1391575676e+000	 1.1662788685e-001
 8.0805066705e-001	 4.1470084542e+000	 1.4780719442e-001
 7.6879389643e-001	 4.1544651816e+000	 1.7462868624e-001
 1.1694224131e+000	 4.0859455723e+000	-2.3257851988e-001
 1.1297644301e+000	 4.0970882749e+000	-1.8017243295e-001
 1.0901019551e+000	 4.1078190963e+000	-1.2880871600e-001
 1.0504409556e+000	 4.1181396041e+000	-7.9078334437e-002
 1.0107873370e+000	 4.1280514725e+000	-3.1564838488e-002
 9.7114694021e-001	 4.1375564794e+000	 1.3159812872e-002
 9.3152554013e-001	 4.1466565047e+000	 5.4539283736e-002
 8.9192884318e-001	 4.1553535275e+000	 9.2036740878e-002
 8.5236248567e-001	 4.1636496242e+000	 1.2513857390e-001
 8.1283203195e-001	 4.1715469658e+000	 1.5335794939e-001
 7.7334297274e-001	 4.1790478158e+000	 1.7623819319e-001
 7.2785220965e-001	 3.9332214737e+000	-5.7815189405e-002
 6.9073009268e-001	 3.9399101435e+000	-3.4025797338e-002
 6.5365705668e-001	 3.9462301570e+000	 4.1496621108e-002
 6.1663805252e-001	 3.9521838915e+000	 1.3232576997e-001
 5.7967795609e-001	 3.9577738019e+000	 1.2171223495e-001
 5.4278156711e-001	 3.9630024187e+000	 1.1288705700e-001
 5.0595360791e-001	 3.9678723450e+000	 1.0584084888e-001
 4.6919872246e-001	 3.9723862550e+000	 1.0038031087e-001
 4.3252147529e-001	 3.9765468906e+000	 9.6128870400e-002
 3.9592635063e-001	 3.9803570600e+000	 9.2527763366e-002
 3.5941775158e-001	 3.9838196344e+000	 8.8837542972e-002
 7.3240128595e-001	 3.9578041079e+000	-1.2735581981e-002
 6.9504715575e-001	 3.9645345819e+000	-9.6193238540e-003
 6.5774241328e-001	 3.9708940955e+000	 4.2231926747e-002
 6.2049204034e-001	 3.9768850408e+000	 1.2662004066e-001
 5.8330094331e-001	 3.9825098882e+000	 1.2001434872e-001
 5.4617395190e-001	 3.9877711838e+000	 1.1422124270e-001
 5.0911581796e-001	 3.9926715472e+000	 1.0939944719e-001
 4.7213121447e-001	 3.9972136691e+000	 1.0551840876e-001
 4.3522473450e-001	 4.0014003087e+000	 1.0235882303e-001
 3.9840089032e-001	 4.0052342916e+000	 9.9513617037e-002
 3.6166411252e-001	 4.0087185072e+000	 9.6389372560e-002
 7.3695036226e-001	 3.9823867421e+000	 2.7518878944e-002
 6.9936421883e-001	 3.9891590203e+000	 1.2348462691e-002
 6.6182776988e-001	 3.9955580340e+000	 4.2931030325e-002
 6.2434602816e-001	 4.0015861901e+000	 1.1685002804e-001
 5.8692393053e-001	 4.0072459744e+000	 1.1448386410e-001
 5.4956633669e-001	 4.0125399489e+000	 1.1201973263e-001
 5.1227802800e-001	 4.0174707494e+000	 1.0978542499e-001
 4.7506370648e-001	 4.0220410832e+000	 1.0791399400e-001
 4.3792799372e-001	 4.0262537268e+000	 1.0634416853e-001
 4.0087543001e-001	 4.0301115232e+000	 1.0482123725e-001
 3.6391047346e-001	 4.0336173799e+000	 1.0289838679e-001
 7.4149943857e-001	 4.0069693763e+000	 6.2965297414e-002
 7.0368128190e-001	 4.0137834587e+000	 3.1880540500e-002
 6.6591312648e-001	 4.0202219725e+000	 4.3582340121e-002
 6.2820001599e-001	 4.0262873394e+000	 9.7454828303e-002
 5.9054691776e-001	 4.0319820607e+000	 1.0576794077e-001
 5.5295872148e-001	 4.0373087140e+000	 1.0686568310e-001
 5.1544023805e-001	 4.0422699515e+000	 1.0751806933e-001
 4.7799619849e-001	 4.0468684973e+000	 1.0802265294e-001
 4.4063125294e-001	 4.0511071448e+000	 1.0847699475e-001
 4.0334996970e-001	 4.0549887548e+000	 1.0877944821e-001
 3.6615683441e-001	 4.0585162526e+000	 1.0863041288e-001
 7.4604851487e-001	 4.0315520105e+000	 9.3612565819e-002
 7.0799834498e-001	 4.0384078971e+000	 4.8972430134e-002
 6.6999848308e-001	 4.0448859109e+000	 4.4167571087e-002
 6.3205400381e-001	 4.0509884888e+000	 7.8639302486e-002
 5.9416990498e-001	 4.0567181470e+000	 9.4508603008e-002
 5.5635110627e-001	 4.0620774791e+000	 9.9337907824e-002
 5.1860244810e-001	 4.0670691537e+000	 1.0311312616e-001
 4.8092869050e-001	 4.0716959114e+000	 1.0629724063e-001
 4.4333451216e-001	 4.0759605629e+000	 1.0914747585e-001
 4.0582450939e-001	 4.0798659865e+000	 1.1171598554e-001
 3.6840319536e-001	 4.0834151253e+000	 1.1385102169e-001
 7.5059759118e-001	 4.0561346447e+000	 1.1946161373e-001
 7.1231540806e-001	 4.0630323355e+000	 6.3612420502e-002
 6.7408383968e-001	 4.0695498494e+000	 4.4661947675e-002
 6.3590799164e-001	 4.0756896381e+000	 6.2106780047e-002
 5.9779289220e-001	 4.0814542332e+000	 8.1342895309e-002
 5.5974349106e-001	 4.0868462442e+000	 9.0011009510e-002
 5.2176465814e-001	 4.0918683558e+000	 9.7082907593e-002
 4.8386118252e-001	 4.0965233255e+000	 1.0318796349e-001
 4.4603777138e-001	 4.1008139810e+000	 1.0874393028e-001
 4.0829904908e-001	 4.1047432181e+000	 1.1395752932e-001
 3.7064955631e-001	 4.1083139980e+000	 1.1882553551e-001
 7.5514666749e-001	 4.0807172789e+000	 1.4050564776e-001
 7.1663247114e-001	 4.0876567739e+000	 7.5781786679e-002
 6.7816919628e-001	 4.0942137879e+000	 4.5034399336e-002
 6.3976197947e-001	 4.1003907874e+000	 4.7813434518e-002
 6.0141587943e-001	 4.1061903195e+000	 6.6903032389e-002
 5.6313587586e-001	 4.1116150094e+000	 7.9455506696e-002
 5.2492686819e-001	 4.1166675580e+000	 8.9936395401e-002
 4.8679367453e-001	 4.1213507395e+000	 9.9142459196e-002
 4.4874103060e-001	 4.1256673990e+000	 1.0765287670e-001
 4.1077358877e-001	 4.1296204497e+000	 1.1582973586e-001
 3.7289591725e-001	 4.1332128707e+000	 1.2381903557e-001
 7.5969574380e-001	 4.1052999131e+000	 1.5673038275e-001
 7.2094953422e-001	 4.1122812123e+000	 8.5454999901e-002
 6.8225455289e-001	 4.1188777264e+000	 4.5247748995e-002
 6.4361596729e-001	 4.1250919367e+000	 3.5710039244e-002
 6.0503886665e-001	 4.1309264058e+000	 5.1816543778e-002
 5.6652826065e-001	 4.1363837745e+000	 6.8237956040e-002
 5.2808907824e-001	 4.1414667601e+000	 8.2179340674e-002
 4.8972616655e-001	 4.1461781536e+000	 9.4605873515e-002
 4.5144428982e-001	 4.1505208171e+000	 1.0625908787e-001
 4.1324812847e-001	 4.1544976813e+000	 1.1765726832e-001
 3.7514227820e-001	 4.1581117435e+000	 1.2909636921e-001
 7.6424482012e-001	 4.1298825474e+000	 1.6811426479e-001
 7.2526659730e-001	 4.1369056507e+000	 9.2599930065e-002
 6.8633990949e-001	 4.1435416649e+000	 4.5258894786e-002
 6.4746995512e-001	 4.1497930861e+000	 2.5742128102e-002
 6.0866185388e-001	 4.1556624920e+000	 3.6706413263e-002
 5.6992064545e-001	 4.1611525396e+000	 5.6921070224e-002
 5.3125128829e-001	 4.1662659623e+000	 7.4314359994e-002
 4.9265865857e-001	 4.1710055677e+000	 9.0020934497e-002
 4.5414754904e-001	 4.1753742352e+000	 1.0494564256e-001
 4.1572266816e-001	 4.1793749130e+000	 1.1976382633e-001
 3.7738863915e-001	 4.1830106162e+000	 1.3492215687e-001
 7.6879389643e-001	 4.1544651816e+000	 1.7462868624e-001
 7.2958366038e-001	 4.1615300891e+000	 9.7178041028e-002
 6.9042526610e-001	 4.1682056034e+000	 4.5018985349e-002
 6.5132394295e-001	 4.1744942354e+000	 1.7850150517e-002
 6.1228484111e-001	 4.1803985783e+000	 2.2191213379e-002
 5.7331303024e-001	 4.1859213047e+000	 4.6063831687e-002
 5.3441349835e-001	 4.1910651645e+000	 6.6841028168e-002
 4.9559115059e-001	 4.1958329818e+000	 8.5828024002e-002
 4.5685080827e-001	 4.2002276532e+000	 1.0409397573e-001
 4.1819720786e-001	 4.2042521446e+000	 1.2247217444e-001
 3.7963500011e-001	 4.2079094889e+000	 1.4156079881e-001
 7.7334297274e-001	 4.1790478158e+000	 1.7623819319e-001
 7.3390072346e-001	 4.1861545275e+000	 9.9144579026e-002
 6.9451062271e-001	 4.1928695419e+000	 4.4473588931e-002
 6.5517793079e-001	 4.1991953847e+000	 1.1969621002e-002
 6.1590782834e-001	 4.2051346646e+000	 8.8852351486e-003
 5.7670541504e-001	 4.2106900698e+000	 3.6221602337e-002
 5.3757570840e-001	 4.2158643666e+000	 6.0255967691e-002
 4.9852364261e-001	 4.2206603959e+000	 8.2465246707e-002
 4.5955406749e-001	 4.2250810713e+000	 1.0408392685e-001
 4.2067174755e-001	 4.2291293762e+000	 1.2610416965e-001
 3.8188136106e-001	 4.2328083616e+000	 1.4927648156e-001
 3.5941775158e-001	 3.9838196344e+000	 8.8837542972e-002
 3.2299999927e-001	 3.9869375466e+000	 7.5052217372e-002
 2.8667733226e-001	 3.9897137876e+000	 7.2477145724e-002
 2.5045390584e-001	 3.9921514051e+000	 7.9803020732e-002
 2.1433379153e-001	 3.9942535004e+000	 9.5539921447e-002
 1.7832097657e-001	 3.9960232268e+000	 1.1802098772e-001
 1.4241936352e-001	 3.9974637866e+000	 1.4540642793e-001
 1.0663276990e-001	 3.9985784289e+000	 1.7568784133e-001
 7.0964927926e-002	 3.9993704478e+000	 2.0669283626e-001
 3.5419484290e-002	 3.9998431794e+000	 2.3608992505e-001
 0.0000000000e+000	 4.0000000000e+000	 2.6139367652e-001
 3.6166411252e-001	 4.0087185072e+000	 9.6389372560e-002
 3.2501874926e-001	 4.0118559063e+000	 8.4615892867e-002
 2.8846906558e-001	 4.0146494988e+000	 8.2588486576e-002
 2.5201924275e-001	 4.0171023514e+000	 8.9116566202e-002
 2.1567337773e-001	 4.0192175848e+000	 1.0282451987e-001
 1.7943548268e-001	 4.0209983720e+000	 1.2215533845e-001
 1.4330948454e-001	 4.0224479352e+000	 1.4537458652e-001
 1.0729922471e-001	 4.0235695441e+000	 1.7057469808e-001
 7.1408458726e-002	 4.0243665131e+000	 1.9567957806e-001
 3.5640856066e-002	 4.0248421993e+000	 2.1844949006e-001
 0.0000000000e+000	 4.0250000000e+000	 2.3648621087e-001
 3.6391047346e-001	 4.0336173799e+000	 1.0289838679e-001
 3.2703749926e-001	 4.0367742659e+000	 9.3171269366e-002
 2.9026079891e-001	 4.0395852100e+000	 9.1817162763e-002
 2.5358457966e-001	 4.0420532976e+000	 9.7764535863e-002
 2.1701296393e-001	 4.0441816692e+000	 1.0975231918e-001
 1.8054998878e-001	 4.0459735172e+000	 1.2633348610e-001
 1.4419960556e-001	 4.0474320839e+000	 1.4587898845e-001
 1.0796567952e-001	 4.0485606593e+000	 1.6658202735e-001
 7.1851989525e-002	 4.0493625784e+000	 1.8646263967e-001
 3.5862227843e-002	 4.0498412192e+000	 2.0337258051e-001
 0.0000000000e+000	 4.0500000000e+000	 2.1500048174e-001
 3.6615683441e-001	 4.0585162526e+000	 1.0863041288e-001
 3.2905624925e-001	 4.0616926256e+000	 1.0093381381e-001
 2.9205253223e-001	 4.0645209211e+000	 1.0032821825e-001
 2.5514991657e-001	 4.0670042439e+000	 1.0586151628e-001
 2.1835255012e-001	 4.0691457536e+000	 1.1638744174e-001
 1.8166449488e-001	 4.0709486623e+000	 1.3056910879e-001
 1.4508972659e-001	 4.0724162326e+000	 1.4688291374e-001
 1.0863213434e-001	 4.0735517745e+000	 1.6362278254e-001
 7.2295520325e-002	 4.0743586437e+000	 1.7890474399e-001
 3.6083599620e-002	 4.0748402391e+000	 1.9067180876e-001
 0.0000000000e+000	 4.0750000000e+000	 1.9669913397e-001
 3.6840319536e-001	 4.0834151253e+000	 1.1385102169e-001
 3.3107499925e-001	 4.0866109853e+000	 1.0811927476e-001
 2.9384426556e-001	 4.0894566323e+000	 1.0828753236e-001
 2.5671525349e-001	 4.0919551902e+000	 1.1352349859e-001
 2.1969213632e-001	 4.0941098380e+000	 1.2279599867e-001
 1.8277900099e-001	 4.0959238075e+000	 1.3487847235e-001
 1.4597984761e-001	 4.0974003812e+000	 1.4835284337e-001
 1.0929858915e-001	 4.0985428897e+000	 1.6161374516e-001
 7.2739051125e-002	 4.0993547090e+000	 1.7287308268e-001
 3.6304971397e-002	 4.0998392589e+000	 1.8016490974e-001
 0.0000000000e+000	 4.1000000000e+000	 1.8135060157e-001
 3.7064955631e-001	 4.1083139980e+000	 1.1882553551e-001
 3.3309374924e-001	 4.1115293449e+000	 1.1494367382e-001
 2.9563599889e-001	 4.1143923435e+000	 1.1586179446e-001
 2.5828059040e-001	 4.1169061365e+000	 1.2086783588e-001
 2.2103172252e-001	 4.1190739223e+000	 1.2904602964e-001
 1.8389350709e-001	 4.1208989527e+000	 1.3928035194e-001
 1.4686996863e-001	 4.1223845299e+000	 1.5025836223e-001
 1.0996504396e-001	 4.1235340048e+000	 1.6047540879e-001
 7.3182581926e-002	 4.1243507743e+000	 1.6823918073e-001
 3.6526343175e-002	 4.1248382788e+000	 1.7167458571e-001
 0.0000000000e+000	 4.1250000000e+000	 1.6872893227e-001
 3.7289591725e-001	 4.1332128707e+000	 1.2381903557e-001
 3.3511249924e-001	 4.1364477046e+000	 1.2162329747e-001
 2.9742773222e-001	 4.1393280547e+000	 1.2321847957e-001
 2.5984592731e-001	 4.1418570828e+000	 1.2801320222e-001
 2.2237130872e-001	 4.1440380067e+000	 1.3520744475e-001
 1.8500801320e-001	 4.1458740978e+000	 1.4379595643e-001
 1.4776008966e-001	 4.1473686786e+000	 1.5257206572e-001
 1.1063149878e-001	 4.1485251200e+000	 1.6013186727e-001
 7.3626112727e-002	 4.1493468396e+000	 1.6487876596e-001
 3.6747714952e-002	 4.1498372987e+000	 1.6502835665e-001
 0.0000000000e+000	 4.1500000000e+000	 1.5861361843e-001
 3.7514227820e-001	 4.1581117435e+000	 1.2909636921e-001
 3.3713124924e-001	 4.1613660643e+000	 1.2837468909e-001
 2.9921946555e-001	 4.1642637658e+000	 1.3052582485e-001
 2.6141126423e-001	 4.1668080290e+000	 1.3507955311e-001
 2.2371089492e-001	 4.1690020911e+000	 1.4135196855e-001
 1.8612251931e-001	 4.1708492430e+000	 1.4844885555e-001
 1.4865021068e-001	 4.1723528272e+000	 1.5526946950e-001
 1.1129795359e-001	 4.1735162352e+000	 1.6051070694e-001
 7.4069643528e-002	 4.1743429049e+000	 1.6267164317e-001
 3.6969086730e-002	 4.1748363185e+000	 1.6005841605e-001
 0.0000000000e+000	 4.1750000000e+000	 1.5078943401e-001
 3.7738863915e-001	 4.1830106162e+000	 1.3492215687e-001
 3.3914999924e-001	 4.1862844239e+000	 1.3541464136e-001
 3.0101119888e-001	 4.1891994770e+000	 1.3795280686e-001
 2.6297660114e-001	 4.1917589753e+000	 1.4218808729e-001
 2.2505048112e-001	 4.1939661755e+000	 1.4755308602e-001
 1.8723702541e-001	 4.1958243882e+000	 1.5326490961e-001
 1.4954033171e-001	 4.1973369759e+000	 1.5832892269e-001
 1.1196440840e-001	 4.1985073504e+000	 1.6154290266e-001
 7.4513174330e-002	 4.1993389702e+000	 1.6150157279e-001
 3.7190458508e-002	 4.1998353384e+000	 1.5660149176e-001
 0.0000000000e+000	 4.2000000000e+000	 1.4504627743e-001
 3.7963500011e-001	 4.2079094889e+000	 1.4156079881e-001
 3.4116874924e-001	 4.2112027836e+000	 1.4296018882e-001
 3.0280293221e-001	 4.2141351882e+000	 1.4566911977e-001
 2.6454193806e-001	 4.2167099216e+000	 1.4946121002e-001
 2.2639006732e-001	 4.2189302598e+000	 1.5388599049e-001
 1.8835153152e-001	 4.2207995333e+000	 1.5827220178e-001
 1.5043045273e-001	 4.2223211246e+000	 1.6173152395e-001
 1.1263086322e-001	 4.2234984656e+000	 1.6316271758e-001
 7.4956705132e-002	 4.2243350355e+000	 1.6125615387e-001
 3.7411830286e-002	 4.2248343583e+000	 1.5449871186e-001
 0.0000000000e+000	 4.2250000000e+000	 1.4117901990e-001
 3.8188136106e-001	 4.2328083616e+000	 1.4927648156e-001
 3.4318749924e-001	 4.2361211433e+000	 1.5122860081e-001
 3.0459466554e-001	 4.2390708994e+000	 1.5384515419e-001
 2.6610727498e-001	 4.2416608679e+000	 1.5702249757e-001
 2.2772965353e-001	 4.2438943442e+000	 1.6042753342e-001
 1.8946603763e-001	 4.2457746785e+000	 1.6350097263e-001
 1.5132057376e-001	 4.2473052732e+000	 1.6546104067e-001
 1.1329731804e-001	 4.2484895807e+000	 1.6530760642e-001
 7.5400235934e-002	 4.2493311008e+000	 1.6182671118e-001
 3.7633202065e-002	 4.2498333782e+000	 1.5359547527e-001
 0.0000000000e+000	 4.2500000000e+000	 1.3898735922e-001
 4.2500000000e+000	 0.0000000000e+000	 8.5817611439e-001
 4.2498333782e+000	 3.7633202065e-002	 8.3331282227e-001
 4.2493311008e+000	 7.5400235934e-002	 8.1327365789e-001
 4.2484895807e+000	 1.1329731804e-001	 7.9714529187e-001
 4.2473052732e+000	 1.5132057376e-001	 7.8400716588e-001
 4.2457746785e+000	 1.8946603763e-001	 7.7292798011e-001
 4.2438943442e+000	 2.2772965353e-001	 7.6296198156e-001
 4.2416608679e+000	 2.6610727498e-001	 7.5314505586e-001
 4.2390708994e+000	 3.0459466554e-001	 7.4249062580e-001
 4.2361211433e+000	 3.4318749924e-001	 7.2998536079e-001
 4.2328083616e+000	 3.8188136106e-001	 7.1458470202e-001
 4.2750000000e+000	 0.0000000000e+000	 7.5274849002e-001
 4.2748323980e+000	 3.7854573843e-002	 7.3176939085e-001
 4.2743271661e+000	 7.5843766737e-002	 7.1526005349e-001
 4.2734806959e+000	 1.1396377285e-001	 7.0240080367e-001
 4.2722894219e+000	 1.5221069479e-001	 6.9236705395e-001
 4.2707498237e+000	 1.9058054374e-001	 6.8432567995e-001
 4.2688584286e+000	 2.2906923973e-001	 6.7743118984e-001
 4.2666118142e+000	 2.6767261190e-001	 6.7082168965e-001
 4.2640066105e+000	 3.0638639888e-001	 6.6361464768e-001
 4.2610395029e+000	 3.4520624924e-001	 6.5490246220e-001
 4.2577072343e+000	 3.8412772201e-001	 6.4374783739e-001
 4.3000000000e+000	 0.0000000000e+000	 6.5101981832e-001
 4.2998314179e+000	 3.8075945621e-002	 6.3355119688e-001
 4.2993232314e+000	 7.6287297539e-002	 6.2019286060e-001
 4.2984718111e+000	 1.1463022767e-001	 6.1022000417e-001
 4.2972735706e+000	 1.5310081581e-001	 6.0290525368e-001
 4.2957249688e+000	 1.9169504985e-001	 5.9751493021e-001
 4.2938225130e+000	 2.3040882593e-001	 5.9330509914e-001
 4.2915627605e+000	 2.6923794881e-001	 5.8951740730e-001
 4.2889423217e+000	 3.0817813221e-001	 5.8537471167e-001
 4.2859578626e+000	 3.4722499924e-001	 5.8007650356e-001
 4.2826061070e+000	 3.8637408296e-001	 5.7279413348e-001
 4.3250000000e+000	 0.0000000000e+000	 5.5318614003e-001
 4.3248304378e+000	 3.8297317399e-002	 5.3880873190e-001
 4.3243192967e+000	 7.6730828340e-002	 5.2817683182e-001
 4.3234629263e+000	 1.1529668248e-001	 5.2066173908e-001
 4.3222577192e+000	 1.5399093684e-001	 5.1563455814e-001
 4.3207001140e+000	 1.9280955596e-001	 5.1246234840e-001
 4.3187865974e+000	 2.3174841213e-001	 5.1050405161e-001
 4.3165137067e+000	 2.7080328573e-001	 5.0910619949e-001
 4.3138780329e+000	 3.0996986554e-001	 5.0759840495e-001
 4.3108762223e+000	 3.4924374924e-001	 5.0528864107e-001
 4.3075049798e+000	 3.8862044392e-001	 5.0145831298e-001
 4.3500000000e+000	 0.0000000000e+000	 4.5943898921e-001
 4.3498294576e+000	 3.8518689177e-002	 4.4768839557e-001
 4.3493153620e+000	 7.7174359142e-002	 4.3931304436e-001
 4.3484540415e+000	 1.1596313730e-001	 4.3378159666e-001
 4.3472418679e+000	 1.5488105786e-001	 4.3056492238e-001
 4.3456752592e+000	 1.9392406206e-001	 4.2913213457e-001
 4.3437506817e+000	 2.3308799833e-001	 4.2894639366e-001
 4.3414646530e+000	 2.7236862265e-001	 4.2946048384e-001
 4.3388137440e+000	 3.1176159887e-001	 4.3011216515e-001
 4.3357945819e+000	 3.5126249924e-001	 4.3031930547e-001
 4.3324038525e+000	 3.9086680487e-001	 4.2947479762e-001
 4.3750000000e+000	 0.0000000000e+000	 3.6996552201e-001
 4.3748284775e+000	 3.8740060954e-002	 3.6033261259e-001
 4.3743114273e+000	 7.7617889943e-002	 3.5369900499e-001
 4.3734451567e+000	 1.1662959211e-001	 3.4963200086e-001
 4.3722260166e+000	 1.5577117889e-001	 3.4770354449e-001
 4.3706504043e+000	 1.9503856817e-001	 3.4748614046e-001
 4.3687147661e+000	 2.3442758453e-001	 3.4854853307e-001
 4.3664155993e+000	 2.7393395956e-001	 3.5045114990e-001
 4.3637494552e+000	 3.1355333220e-001	 3.5274131313e-001
 4.3607129416e+000	 3.5328124924e-001	 3.5494822272e-001
 4.3573027252e+000	 3.9311316582e-001	 3.5657771679e-001
 4.4000000000e+000	 0.0000000000e+000	 4.5292073972e-001
 4.3998274974e+000	 3.8961432732e-002	 4.4214955912e-001
 4.3993074926e+000	 7.8061420743e-002	 4.3174530236e-001
 4.3984362718e+000	 1.1729604692e-001	 4.2138456944e-001
 4.3972101652e+000	 1.5666129991e-001	 4.1075606859e-001
 4.3956255495e+000	 1.9615307428e-001	 3.9956105577e-001
 4.3936788505e+000	 2.3576717073e-001	 3.8751375189e-001
 4.3913665456e+000	 2.7549929647e-001	 3.7434173581e-001
 4.3886851664e+000	 3.1534506553e-001	 3.5978631196e-001
 4.3856313013e+000	 3.5529999924e-001	 3.4360285072e-001
 4.3822015979e+000	 3.9535952677e-001	 3.2556110042e-001
 4.4250000000e+000	 0.0000000000e+000	 5.2993254891e-001
 4.4248265173e+000	 3.9182804509e-002	 5.2008568460e-001
 4.4243035579e+000	 7.8504951544e-002	 5.1027295612e-001
 4.4234273870e+000	 1.1796250174e-001	 5.0020960607e-001
 4.4221943139e+000	 1.5755142094e-001	 4.8962426754e-001
 4.4206006947e+000	 1.9726758038e-001	 4.7825939325e-001
 4.4186429349e+000	 2.3710675693e-001	 4.6587166014e-001
 4.4163174919e+000	 2.7706463339e-001	 4.5223234777e-001
 4.4136208776e+000	 3.1713679886e-001	 4.3712768892e-001
 4.4105496609e+000	 3.5731874924e-001	 4.2035919095e-001
 4.4071004706e+000	 3.9760588772e-001	 4.0174392627e-001
 4.4500000000e+000	 0.0000000000e+000	 6.0117570149e-001
 4.4498255371e+000	 3.9404176286e-002	 5.9312462297e-001
 4.4492996232e+000	 7.8948482344e-002	 5.8477390714e-001
 4.4484185022e+000	 1.1862895655e-001	 5.7587718896e-001
 4.4471784626e+000	 1.5844154196e-001	 5.6620277596e-001
 4.4455758398e+000	 1.9838208649e-001	 5.5553406715e-001
 4.4436070192e+000	 2.3844634313e-001	 5.4366994514e-001
 4.4412684381e+000	 2.7862997030e-001	 5.3042514005e-001
 4.4385565887e+000	 3.1892853219e-001	 5.1563056332e-001
 4.4354680206e+000	 3.5933749924e-001	 4.9913361006e-001
 4.4319993433e+000	 3.9985224867e-001	 4.8079842828e-001
 4.4750000000e+000	 0.0000000000e+000	 6.6682104429e-001
 4.4748245570e+000	 3.9625548063e-002	 6.6141948728e-001
 4.4742956885e+000	 7.9392013143e-002	 6.5538342968e-001
 4.4734096174e+000	 1.1929541136e-001	 6.4850465463e-001
 4.4721626112e+000	 1.5933166298e-001	 6.4059089997e-001
 4.4705509850e+000	 1.9949659259e-001	 6.3146626693e-001
 4.4685711036e+000	 2.3978592933e-001	 6.2097160005e-001
 4.4662193844e+000	 2.8019530721e-001	 6.0896483662e-001
 4.4634922999e+000	 3.2072026552e-001	 5.9532132398e-001
 4.4603863803e+000	 3.6135624923e-001	 5.7993410291e-001
 4.4568982160e+000	 4.0209860962e-001	 5.6271415581e-001
 4.5000000000e+000	 0.0000000000e+000	 7.2703562757e-001
 4.4998235769e+000	 3.9846919840e-002	 7.2511994346e-001
 4.4992917538e+000	 7.9835543943e-002	 7.2223370169e-001
 4.4984007326e+000	 1.1996186617e-001	 7.1820659545e-001
 4.4971467599e+000	 1.6022178400e-001	 7.1288555483e-001
 4.4955261302e+000	 2.0061109869e-001	 7.0613514554e-001
 4.4935351880e+000	 2.4112551553e-001	 6.9783793675e-001
 4.4911703307e+000	 2.8176064413e-001	 6.8789483626e-001
 4.4884280111e+000	 3.2251199884e-001	 6.7622539128e-001
 4.4853047399e+000	 3.6337499923e-001	 6.6276805320e-001
 4.4817970888e+000	 4.0434497057e-001	 6.4748040468e-001
 4.2328083616e+000	 3.8188136106e-001	 7.1458470202e-001
 4.2291293762e+000	 4.2067174755e-001	 7.1703126765e-001
 4.2250810713e+000	 4.5955406749e-001	 7.1694066622e-001
 4.2206603959e+000	 4.9852364261e-001	 7.1314993378e-001
 4.2158643666e+000	 5.3757570840e-001	 7.0444336935e-001
 4.2106900698e+000	 5.7670541504e-001	 6.8954719983e-001
 4.2051346646e+000	 6.1590782834e-001	 6.6712410938e-001
 4.1991953847e+000	 6.5517793079e-001	 6.2333509081e-001
 4.1928695419e+000	 6.9451062271e-001	 5.6804565321e-001
 4.1861545275e+000	 7.3390072346e-001	 5.0489572470e-001
 4.1790478158e+000	 7.7334297274e-001	 4.3356489778e-001
 4.2577072343e+000	 3.8412772201e-001	 6.4374783739e-001
 4.2540066078e+000	 4.2314628725e-001	 6.5067196745e-001
 4.2499344894e+000	 4.6225732672e-001	 6.5609725132e-001
 4.2454878100e+000	 5.0145613463e-001	 6.5896211512e-001
 4.2406635688e+000	 5.4073791845e-001	 6.5815260405e-001
 4.2354588350e+000	 5.8009779984e-001	 6.5249686065e-001
 4.2298707508e+000	 6.1953081557e-001	 6.4075946127e-001
 4.2238965340e+000	 6.5903191862e-001	 5.9750401054e-001
 4.2175334803e+000	 6.9859597932e-001	 5.4320049917e-001
 4.2107789659e+000	 7.3821778655e-001	 4.8143705075e-001
 4.2036304500e+000	 7.7789204906e-001	 4.1190106562e-001
 4.2826061070e+000	 3.8637408296e-001	 5.7279413348e-001
 4.2788838395e+000	 4.2562082694e-001	 5.8353850685e-001
 4.2747879074e+000	 4.6496058594e-001	 5.9382521153e-001
 4.2703152241e+000	 5.0438862665e-001	 6.0269555857e-001
 4.2654627709e+000	 5.4390012851e-001	 6.0913884920e-001
 4.2602276001e+000	 5.8349018464e-001	 6.1208666406e-001
 4.2546068371e+000	 6.2315380280e-001	 6.1040700455e-001
 4.2485976834e+000	 6.6288590645e-001	 5.6704254559e-001
 4.2421974188e+000	 7.0268133592e-001	 5.1521265643e-001
 4.2354034043e+000	 7.4253484963e-001	 4.5630091513e-001
 4.2282130842e+000	 7.8244112537e-001	 3.9000126381e-001
 4.3075049798e+000	 3.8862044392e-001	 5.0145831298e-001
 4.3037610711e+000	 4.2809536664e-001	 5.1532423124e-001
 4.2996413255e+000	 4.6766384517e-001	 5.2977665491e-001
 4.2951426382e+000	 5.0732111866e-001	 5.4396129977e-001
 4.2902619731e+000	 5.4706233856e-001	 5.5697225799e-001
 4.2849963652e+000	 5.8688256944e-001	 5.6784609617e-001
 4.2793429233e+000	 6.2677679003e-001	 5.7358999122e-001
 4.2732988327e+000	 6.6673989428e-001	 5.3209084218e-001
 4.2668613573e+000	 7.0676669253e-001	 4.8422152756e-001
 4.2600278427e+000	 7.4685191271e-001	 4.2962594698e-001
 4.2527957184e+000	 7.8699020168e-001	 3.6800331567e-001
 4.3324038525e+000	 3.9086680487e-001	 4.2947479762e-001
 4.3286383027e+000	 4.3056990634e-001	 4.4572249418e-001
 4.3244947436e+000	 4.7036710439e-001	 4.6360400494e-001
 4.3199700523e+000	 5.1025361068e-001	 4.8237099484e-001
 4.3150611753e+000	 5.5022454861e-001	 5.0122390694e-001
 4.3097651303e+000	 5.9027495423e-001	 5.1930586684e-001
 4.3040790096e+000	 6.3039977725e-001	 5.2917288287e-001
 4.2979999820e+000	 6.7059388211e-001	 4.9279086338e-001
 4.2915252958e+000	 7.1085204914e-001	 4.5036862436e-001
 4.2846522811e+000	 7.5116897579e-001	 4.0155317411e-001
 4.2773783526e+000	 7.9153927800e-001	 3.4604772956e-001
 4.3573027252e+000	 3.9311316582e-001	 3.5657771679e-001
 4.3535155343e+000	 4.3304444603e-001	 3.7442665725e-001
 4.3493481616e+000	 4.7307036361e-001	 3.9495999145e-001
 4.3447974664e+000	 5.1318610270e-001	 4.1753690264e-001
 4.3398603774e+000	 5.5338675867e-001	 4.4146576949e-001
 4.3345338954e+000	 5.9366733903e-001	 4.6599787472e-001
 4.3288150959e+000	 6.3402276448e-001	 4.7904360890e-001
 4.3227011313e+000	 6.7444786994e-001	 4.4928633728e-001
 4.3161892343e+000	 7.1493740575e-001	 4.1379750771e-001
 4.3092767195e+000	 7.5548603887e-001	 3.7222595458e-001
 4.3019609868e+000	 7.9608835431e-001	 3.2427762215e-001
 4.3822015979e+000	 3.9535952677e-001	 3.2556110042e-001
 4.3783927660e+000	 4.3551898573e-001	 3.2103311382e-001
 4.3742015797e+000	 4.7577362284e-001	 3.2349764198e-001
 4.3696248805e+000	 5.1611859472e-001	 3.4907186766e-001
 4.3646595796e+000	 5.5654896872e-001	 3.7727069054e-001
 4.3593026605e+000	 5.9705972383e-001	 4.0745517346e-001
 4.3535511821e+000	 6.3764575171e-001	 4.2334746815e-001
 4.3474022807e+000	 6.7830185777e-001	 4.0172270678e-001
 4.3408531727e+000	 7.1902276235e-001	 3.7465372929e-001
 4.3339011579e+000	 7.5980310196e-001	 3.4178991042e-001
 4.3265436210e+000	 8.0063743062e-001	 3.0283864435e-001
 4.4071004706e+000	 3.9760588772e-001	 4.0174392627e-001
 4.4032699976e+000	 4.3799352542e-001	 3.9470401518e-001
 4.3990549978e+000	 4.7847688206e-001	 3.9051929152e-001
 4.3944522946e+000	 5.1905108674e-001	 3.8899361980e-001
 4.3894587817e+000	 5.5971117877e-001	 3.8994188790e-001
 4.3840714257e+000	 6.0045210862e-001	 3.9319007006e-001
 4.3782872684e+000	 6.4126873894e-001	 3.7980265777e-001
 4.3721034300e+000	 6.8215584560e-001	 3.5024708120e-001
 4.3655171112e+000	 7.2310811896e-001	 3.3308477536e-001
 4.3585255963e+000	 7.6412016504e-001	 3.1039286369e-001
 4.3511262553e+000	 8.0518650693e-001	 2.8187890970e-001
 4.4319993433e+000	 3.9985224867e-001	 4.8079842828e-001
 4.4281472292e+000	 4.4046806511e-001	 4.7183522250e-001
 4.4239084158e+000	 4.8118014128e-001	 4.6616510484e-001
 4.4192797087e+000	 5.2198357876e-001	 4.6363336013e-001
 4.4142579839e+000	 5.6287338882e-001	 4.6409689438e-001
 4.4088401908e+000	 6.0384449342e-001	 4.6742426338e-001
 4.4030233546e+000	 6.4489172617e-001	 4.5250650856e-001
 4.3968045793e+000	 6.8600983343e-001	 4.1289367503e-001
 4.3901810497e+000	 7.2719347556e-001	 3.6877982239e-001
 4.3831500347e+000	 7.6843722812e-001	 3.1967266893e-001
 4.3757088895e+000	 8.0973558324e-001	 2.6506568254e-001
 4.4568982160e+000	 4.0209860962e-001	 5.6271415581e-001
 4.4530244608e+000	 4.4294260481e-001	 5.5240218210e-001
 4.4487618339e+000	 4.8388340051e-001	 5.4581299840e-001
 4.4441071228e+000	 5.2491607077e-001	 5.4283313034e-001
 4.4390571860e+000	 5.6603559887e-001	 5.4336132754e-001
 4.4336089559e+000	 6.0723687822e-001	 5.4730855778e-001
 4.4277594409e+000	 6.4851471339e-001	 5.3201070818e-001
 4.4215057286e+000	 6.8986382126e-001	 4.9777300640e-001
 4.4148449882e+000	 7.3127883217e-001	 4.5988380097e-001
 4.4077744731e+000	 7.7275429120e-001	 4.1789809438e-001
 4.4002915237e+000	 8.1428465955e-001	 3.7135654187e-001
 4.4817970888e+000	 4.0434497057e-001	 6.4748040468e-001
 4.4779016925e+000	 4.4541714450e-001	 6.3638034724e-001
 4.4736152520e+000	 4.8658665973e-001	 6.2942462449e-001
 4.4689345369e+000	 5.2784856279e-001	 6.2654083004e-001
 4.4638563882e+000	 5.6919780892e-001	 6.2766938926e-001
 4.4583777210e+000	 6.1062926301e-001	 6.3276351919e-001
 4.4524955272e+000	 6.5213770062e-001	 6.1817743002e-001
 4.4462068779e+000	 6.9371780909e-001	 5.8971744076e-001
 4.4395089267e+000	 7.3536418877e-001	 5.5845159268e-001
 4.4323989115e+000	 7.7707135428e-001	 5.2398220592e-001
 4.4248741579e+000	 8.1883373586e-001	 4.8589715692e-001
 4.1790478158e+000	 7.7334297274e-001	 4.3356489778e-001
 4.1715469658e+000	 8.1283203195e-001	 4.4108879915e-001
 4.1636496242e+000	 8.5236248567e-001	 4.4672873939e-001
 4.1553535275e+000	 8.9192884318e-001	 4.5067201057e-001
 4.1466565047e+000	 9.3152554013e-001	 4.5317418493e-001
 4.1375564794e+000	 9.7114694021e-001	 4.5456278598e-001
 4.1280514725e+000	 1.0107873370e+000	 4.5524091801e-001
 4.1181396041e+000	 1.0504409556e+000	 4.5569084234e-001
 4.1078190963e+000	 1.0901019551e+000	 4.5647748864e-001
 4.0970882749e+000	 1.1297644301e+000	 4.5825188904e-001
 4.0859455723e+000	 1.1694224131e+000	 4.6175452310e-001
 4.2036304500e+000	 7.7789204906e-001	 4.1190106562e-001
 4.1960854774e+000	 8.1761339685e-001	 4.2626160896e-001
 4.1881416808e+000	 8.5737638264e-001	 4.3738163247e-001
 4.1797967836e+000	 8.9717548344e-001	 4.4538197797e-001
 4.1710486018e+000	 9.3700510214e-001	 4.5045316089e-001
 4.1618950470e+000	 9.7685956928e-001	 4.5285918017e-001
 4.1523341282e+000	 1.0167331448e+000	 4.5294128706e-001
 4.1423639547e+000	 1.0566200201e+000	 4.5112170090e-001
 4.1319827380e+000	 1.0965143196e+000	 4.4790725975e-001
 4.1211887942e+000	 1.1364101032e+000	 4.4389299355e-001
 4.1099805463e+000	 1.1763013684e+000	 4.3976560728e-001
 4.2282130842e+000	 7.8244112537e-001	 3.9000126381e-001
 4.2206239889e+000	 8.2239476175e-001	 4.1125062605e-001
 4.2126337374e+000	 8.6239027962e-001	 4.2789338138e-001
 4.2042400396e+000	 9.0242212370e-001	 4.3998340012e-001
 4.1954406989e+000	 9.4248466414e-001	 4.4764563457e-001
 4.1862336145e+000	 9.8257219834e-001	 4.5108006907e-001
 4.1766167839e+000	 1.0226789527e+000	 4.5056562946e-001
 4.1665883053e+000	 1.0627990845e+000	 4.4646403965e-001
 4.1561463797e+000	 1.1029266840e+000	 4.3922361305e-001
 4.1452893135e+000	 1.1430557764e+000	 4.2938296602e-001
 4.1340155202e+000	 1.1831803238e+000	 4.1757464054e-001
 4.2527957184e+000	 7.8699020168e-001	 3.6800331567e-001
 4.2451625005e+000	 8.2717612664e-001	 3.9621649179e-001
 4.2371257940e+000	 8.6740417660e-001	 4.1844711837e-001
 4.2286832957e+000	 9.0766876395e-001	 4.3468155828e-001
 4.2198327960e+000	 9.4796422615e-001	 4.4497867974e-001
 4.2105721820e+000	 9.8828482740e-001	 4.4947394796e-001
 4.2008994397e+000	 1.0286247606e+000	 4.4838347659e-001
 4.1908126559e+000	 1.0689781490e+000	 4.4200802651e-001
 4.1803100215e+000	 1.1093390485e+000	 4.3073693936e-001
 4.1693898327e+000	 1.1497014495e+000	 4.1505199264e-001
 4.1580504942e+000	 1.1900592792e+000	 3.9553116328e-001
 4.2773783526e+000	 7.9153927800e-001	 3.4604772956e-001
 4.2697010121e+000	 8.3195749154e-001	 3.8132227174e-001
 4.2616178507e+000	 8.7241807358e-001	 4.0922814231e-001
 4.2531265517e+000	 9.1291540421e-001	 4.2968364611e-001
 4.2442248931e+000	 9.5344378815e-001	 4.4268103189e-001
 4.2349107496e+000	 9.9399745647e-001	 4.4829072682e-001
 4.2251820954e+000	 1.0345705684e+000	 4.4666553134e-001
 4.2150370066e+000	 1.0751572134e+000	 4.3804476162e-001
 4.2044736632e+000	 1.1157514129e+000	 4.2275832647e-001
 4.1934903520e+000	 1.1563471226e+000	 4.0123072553e-001
 4.1820854681e+000	 1.1969382346e+000	 3.7398495511e-001
 4.3019609868e+000	 7.9608835431e-001	 3.2427762215e-001
 4.2942395236e+000	 8.3673885643e-001	 3.6673338640e-001
 4.2861099073e+000	 8.7743197055e-001	 4.0042385677e-001
 4.2775698078e+000	 9.1816204446e-001	 4.2519871508e-001
 4.2686169902e+000	 9.5892335015e-001	 4.4098304080e-001
 4.2592493171e+000	 9.9971008553e-001	 4.4778168995e-001
 4.2494647511e+000	 1.0405163763e+000	 4.4568363466e-001
 4.2392613572e+000	 1.0813362778e+000	 4.3486625069e-001
 4.2286373050e+000	 1.1221637773e+000	 4.1559953921e-001
 4.2175908713e+000	 1.1629927957e+000	 3.8825026940e-001
 4.2061204421e+000	 1.2038171899e+000	 3.5328602797e-001
 4.3265436210e+000	 8.0063743062e-001	 3.0283864435e-001
 4.3187780352e+000	 8.4152022133e-001	 3.5261754434e-001
 4.3106019639e+000	 8.8244586753e-001	 3.9222371030e-001
 4.3020130638e+000	 9.2340868472e-001	 4.2143762167e-001
 4.2930090873e+000	 9.6440291215e-001	 4.4011662469e-001
 4.2835878846e+000	 1.0054227146e+000	 4.4819945693e-001
 4.2737474068e+000	 1.0464621842e+000	 4.4571073317e-001
 4.2634857078e+000	 1.0875153423e+000	 4.3276537925e-001
 4.2528009467e+000	 1.1285761418e+000	 4.0957300021e-001
 4.2416913905e+000	 1.1696384688e+000	 3.7644216872e-001
 4.2301554161e+000	 1.2106961453e+000	 3.3378461959e-001
 4.3511262553e+000	 8.0518650693e-001	 2.8187890970e-001
 4.3433165468e+000	 8.4630158622e-001	 3.3914467754e-001
 4.3350940205e+000	 8.8745976450e-001	 3.8481913857e-001
 4.3264563199e+000	 9.2865532497e-001	 4.1861297637e-001
 4.3174011843e+000	 9.6988247415e-001	 4.4031522585e-001
 4.3079264521e+000	 1.0111353436e+000	 4.4979794489e-001
 4.2980300625e+000	 1.0524079920e+000	 4.4702084798e-001
 4.2877100584e+000	 1.0936944067e+000	 4.3203588784e-001
 4.2769645885e+000	 1.1349885062e+000	 4.0499177136e-001
 4.2657919098e+000	 1.1762841420e+000	 3.6613839524e-001
 4.2541903900e+000	 1.2175751007e+000	 3.1583118704e-001
 4.3757088895e+000	 8.0973558324e-001	 2.6506568254e-001
 4.3678550583e+000	 8.5108295112e-001	 3.2648687891e-001
 4.3595860771e+000	 8.9247366148e-001	 3.7840350861e-001
 4.3508995759e+000	 9.3390196523e-001	 4.1693909445e-001
 4.3417932814e+000	 9.7536203615e-001	 4.4181376788e-001
 4.3322650197e+000	 1.0168479727e+000	 4.5283233206e-001
 4.3223127183e+000	 1.0583537999e+000	 4.4988904447e-001
 4.3119344090e+000	 1.0998734712e+000	 4.3297234796e-001
 4.3011282302e+000	 1.1414008707e+000	 4.0216953579e-001
 4.2898924291e+000	 1.1829298151e+000	 3.5767133608e-001
 4.2782253640e+000	 1.2244540561e+000	 2.9977640063e-001
 4.4002915237e+000	 8.1428465955e-001	 3.7135654187e-001
 4.3923935699e+000	 8.5586431601e-001	 4.0151110130e-001
 4.3840781337e+000	 8.9748755845e-001	 4.1743493931e-001
 4.3753428319e+000	 9.3914860548e-001	 4.1827428912e-001
 4.3661853785e+000	 9.8084159815e-001	 4.4484861433e-001
 4.3566035872e+000	 1.0225606018e+000	 4.5755902255e-001
 4.3465953740e+000	 1.0642996077e+000	 4.5459140315e-001
 4.3361587596e+000	 1.1060525356e+000	 4.3587013886e-001
 4.3252918719e+000	 1.1478132351e+000	 4.0142058059e-001
 4.3139929483e+000	 1.1895754882e+000	 3.5137378203e-001
 4.3022603379e+000	 1.2313330114e+000	 2.8597113791e-001
 4.4248741579e+000	 8.1883373586e-001	 4.8589715692e-001
 4.4169320814e+000	 8.6064568090e-001	 5.1864917008e-001
 4.4085701903e+000	 9.0250145542e-001	 5.3656161261e-001
 4.3997860880e+000	 9.4439524573e-001	 5.3875597558e-001
 4.3905774756e+000	 9.8632116015e-001	 5.2433705056e-001
 4.3809421547e+000	 1.0282732308e+000	 4.9239221488e-001
 4.3708780297e+000	 1.0702454156e+000	 4.6140499145e-001
 4.3603831102e+000	 1.1122316001e+000	 4.4102542514e-001
 4.3494555137e+000	 1.1542255995e+000	 4.0305977995e-001
 4.3380934676e+000	 1.1962211613e+000	 3.4757891640e-001
 4.3262953119e+000	 1.2382119668e+000	 2.7476647796e-001
 4.0859455723e+000	 1.1694224131e+000	 4.6175452310e-001
 4.0743895290e+000	 1.2090698765e+000	 3.4244948339e-001
 4.0624187960e+000	 1.2487007353e+000	 2.2210576114e-001
 4.0500321369e+000	 1.2883088488e+000	 2.3393166352e-001
 4.0372284301e+000	 1.3278880237e+000	 2.4043802905e-001
 4.0240066701e+000	 1.3674320163e+000	 2.3679827397e-001
 4.0103659702e+000	 1.4069345349e+000	 2.2281128186e-001
 3.9963055637e+000	 1.4463892427e+000	 1.9825686552e-001
 3.9818248061e+000	 1.4857897608e+000	 1.6289619469e-001
 3.9669231766e+000	 1.5251296703e+000	 1.1647228768e-001
 3.9516002795e+000	 1.5644025157e+000	 5.8710567056e-002
 4.1099805463e+000	 1.1763013684e+000	 4.3976560728e-001
 4.0983565262e+000	 1.2161820523e+000	 3.1939768379e-001
 4.0863153771e+000	 1.2560460337e+000	 2.2007309646e-001
 4.0738558554e+000	 1.2958871362e+000	 2.3806635406e-001
 4.0609768326e+000	 1.3356991298e+000	 2.4730836022e-001
 4.0476772976e+000	 1.3754757340e+000	 2.4758005274e-001
 4.0339563582e+000	 1.4152106204e+000	 2.3864096566e-001
 4.0198132435e+000	 1.4548974148e+000	 2.2022961168e-001
 4.0052473050e+000	 1.4945297006e+000	 1.9206393164e-001
 3.9902580188e+000	 1.5341010213e+000	 1.5384181127e-001
 3.9748449870e+000	 1.5736048834e+000	 1.0524166543e-001
 4.1340155202e+000	 1.1831803238e+000	 4.1757464054e-001
 4.1223235234e+000	 1.2232942280e+000	 2.9597491763e-001
 4.1102119583e+000	 1.2633913321e+000	 2.2250204946e-001
 4.0976795738e+000	 1.3034654235e+000	 2.4138319187e-001
 4.0847252351e+000	 1.3435102358e+000	 2.5271901281e-001
 4.0713479250e+000	 1.3835194518e+000	 2.5625310902e-001
 4.0575467463e+000	 1.4234867059e+000	 2.5170570369e-001
 4.0433209233e+000	 1.4634055868e+000	 2.3877404736e-001
 4.0286698039e+000	 1.5032696403e+000	 2.1713288914e-001
 4.0135928610e+000	 1.5430723723e+000	 1.8643501878e-001
 3.9980896946e+000	 1.5828072511e+000	 1.4631187950e-001
 4.1580504942e+000	 1.1900592792e+000	 3.9553116328e-001
 4.1462905207e+000	 1.2304064038e+000	 2.7255143583e-001
 4.1341085394e+000	 1.2707366306e+000	 2.2478049793e-001
 4.1215032923e+000	 1.3110437108e+000	 2.4392855461e-001
 4.1084736377e+000	 1.3513213418e+000	 2.5673024411e-001
 4.0950185525e+000	 1.3915631695e+000	 2.6289185644e-001
 4.0811371344e+000	 1.4317627914e+000	 2.6209433715e-001
 4.0668286031e+000	 1.4719137588e+000	 2.5399370675e-001
 4.0520923027e+000	 1.5120095801e+000	 2.3822155385e-001
 4.0369277032e+000	 1.5520437233e+000	 2.1438560250e-001
 4.0213344021e+000	 1.5920096189e+000	 1.8207035387e-001
 4.1820854681e+000	 1.1969382346e+000	 3.7398495511e-001
 4.1702575179e+000	 1.2375185795e+000	 2.4949746458e-001
 4.1580051206e+000	 1.2780819290e+000	 2.2694092787e-001
 4.1453270108e+000	 1.3186219982e+000	 2.4574825128e-001
 4.1322220402e+000	 1.3591324478e+000	 2.5940146285e-001
 4.1186891800e+000	 1.3996068873e+000	 2.6756957499e-001
 4.1047275224e+000	 1.4400388769e+000	 2.6989428342e-001
 4.0903362829e+000	 1.4804219308e+000	 2.6599040511e-001
 4.0755148016e+000	 1.5207495199e+000	 2.5544639342e-001
 4.0602625455e+000	 1.5610150743e+000	 2.3782493090e-001
 4.0445791096e+000	 1.6012119866e+000	 2.1266359980e-001
 4.2061204421e+000	 1.2038171899e+000	 3.5328602797e-001
 4.1942245151e+000	 1.2446307552e+000	 2.2718320607e-001
 4.1819017017e+000	 1.2854272275e+000	 2.2901553965e-001
 4.1691507292e+000	 1.3262002855e+000	 2.4688753847e-001
 4.1559704427e+000	 1.3669435539e+000	 2.6079125340e-001
 4.1423598075e+000	 1.4076506050e+000	 2.7035844338e-001
 4.1283179105e+000	 1.4483149624e+000	 2.7519157673e-001
 4.1138439627e+000	 1.4889301028e+000	 2.7486428782e-001
 4.0989373005e+000	 1.5294894596e+000	 2.6892191421e-001
 4.0835973877e+000	 1.5699864253e+000	 2.5688211504e-001
 4.0678238172e+000	 1.6104143544e+000	 2.3823557050e-001
 4.2301554161e+000	 1.2106961453e+000	 3.3378461959e-001
 4.2181915124e+000	 1.2517429310e+000	 2.1226657666e-001
 4.2057982829e+000	 1.2927725259e+000	 2.3103625613e-001
 4.1929744477e+000	 1.3337785729e+000	 2.4739113604e-001
 4.1797188453e+000	 1.3747546599e+000	 2.6095739927e-001
 4.1660304349e+000	 1.4156943227e+000	 2.7132957036e-001
 4.1519082985e+000	 1.4565910479e+000	 2.7807090751e-001
 4.1373516424e+000	 1.4974382748e+000	 2.8071387787e-001
 4.1223597993e+000	 1.5382293994e+000	 2.7876071698e-001
 4.1069322299e+000	 1.5789577763e+000	 2.7168407268e-001
 4.0910685247e+000	 1.6196167221e+000	 2.5892773378e-001
 4.2541903900e+000	 1.2175751007e+000	 3.1583118704e-001
 4.2421585096e+000	 1.2588551067e+000	 2.1756041432e-001
 4.2296948641e+000	 1.3001178244e+000	 2.3303473051e-001
 4.2167981661e+000	 1.3413568602e+000	 2.4730324228e-001
 4.2034672478e+000	 1.3825657659e+000	 2.5995690563e-001
 4.1897010624e+000	 1.4237380405e+000	 2.7055302492e-001
 4.1754986866e+000	 1.4648671334e+000	 2.7861566027e-001
 4.1608593222e+000	 1.5059464469e+000	 2.8363612168e-001
 4.1457822982e+000	 1.5469693392e+000	 2.8507355074e-001
 4.1302670721e+000	 1.5879291273e+000	 2.8235559028e-001
 4.1143132322e+000	 1.6288190898e+000	 2.7487914224e-001
 4.2782253640e+000	 1.2244540561e+000	 2.9977640063e-001
 4.2661255068e+000	 1.2659672825e+000	 2.2341469637e-001
 4.2535914452e+000	 1.3074631228e+000	 2.3504235390e-001
 4.2406218846e+000	 1.3489351476e+000	 2.4666754857e-001
 4.2272156503e+000	 1.3903768719e+000	 2.5784602125e-001
 4.2133716899e+000	 1.4317817582e+000	 2.6809786550e-001
 4.1990890747e+000	 1.4731432189e+000	 2.7690795035e-001
 4.1843670020e+000	 1.5144546189e+000	 2.8372643338e-001
 4.1692047970e+000	 1.5557092789e+000	 2.8796936477e-001
 4.1536019143e+000	 1.5969004783e+000	 2.8901938282e-001
 4.1375579397e+000	 1.6380214576e+000	 2.8622650116e-001
 4.3022603379e+000	 1.2313330114e+000	 2.8597113791e-001
 4.2900925040e+000	 1.2730794582e+000	 2.2984875396e-001
 4.2774880264e+000	 1.3148084213e+000	 2.3709026266e-001
 4.2644456030e+000	 1.3565134349e+000	 2.4552725353e-001
 4.2509640528e+000	 1.3981879779e+000	 2.5468025962e-001
 4.2370423173e+000	 1.4398254760e+000	 2.6403216823e-001
 4.2226794627e+000	 1.4814193044e+000	 2.7302865934e-001
 4.2078746818e+000	 1.5229627909e+000	 2.8107873760e-001
 4.1926272959e+000	 1.5644492187e+000	 2.8755535886e-001
 4.1769367565e+000	 1.6058718293e+000	 2.9179615168e-001
 4.1608026473e+000	 1.6472238253e+000	 2.9310423400e-001
 4.3262953119e+000	 1.2382119668e+000	 2.7476647796e-001
 4.3140595013e+000	 1.2801916340e+000	 2.3688189745e-001
 4.3013846075e+000	 1.3221537197e+000	 2.3920934544e-001
 4.2882693215e+000	 1.3640917223e+000	 2.4392507672e-001
 4.2747124554e+000	 1.4059990840e+000	 2.5051441932e-001
 4.2607129448e+000	 1.4478691937e+000	 2.5842305421e-001
 4.2462698508e+000	 1.4896953899e+000	 2.6705746937e-001
 4.2313823616e+000	 1.5314709629e+000	 2.7578551085e-001
 4.2160497947e+000	 1.5731891585e+000	 2.8393703192e-001
 4.2002715988e+000	 1.6148431803e+000	 2.9080464058e-001
 4.1840473548e+000	 1.6564261930e+000	 2.9564454586e-001
 3.9516002795e+000	 1.5644025157e+000	 5.8710567056e-002
 3.9358558462e+000	 1.6036018077e+000	 9.5087808636e-003
 3.9196897364e+000	 1.6427210263e+000	-3.3406979941e-002
 3.9031019395e+000	 1.6817536235e+000	-7.0892189415e-002
 3.8860925758e+000	 1.7206930268e+000	-1.0384001327e-001
 3.8686618980e+000	 1.7595326423e+000	-1.3318016570e-001
 3.8508102920e+000	 1.7982658577e+000	-1.5987767239e-001
 3.8325382783e+000	 1.8368860459e+000	-1.8493154118e-001
 3.8138465125e+000	 1.8753865680e+000	-2.0819450833e-001
 3.7947357865e+000	 1.9137607768e+000	-1.1228174756e-001
 3.7752070290e+000	 1.9520020205e+000	-1.0347648801e-002
 3.9748449870e+000	 1.5736048834e+000	 1.0524166543e-001
 3.9590079395e+000	 1.6130347595e+000	 5.3508154528e-002
 3.9427467349e+000	 1.6523840911e+000	 6.3326359144e-003
 3.9260613627e+000	 1.6916462918e+000	-3.7118722971e-002
 3.9089519439e+000	 1.7308147505e+000	-7.7716001439e-002
 3.8914187326e+000	 1.7698828343e+000	-1.1636437467e-001
 3.8734621172e+000	 1.8088438922e+000	-1.5400287034e-001
 3.8550826211e+000	 1.8476912579e+000	-1.9160303409e-001
 3.8362809037e+000	 1.8864182537e+000	-1.9638031029e-001
 3.8170577617e+000	 1.9250181932e+000	-1.1790726480e-001
 3.7974141292e+000	 1.9634843853e+000	-3.4893221734e-002
 3.9980896946e+000	 1.5828072511e+000	 1.4631187950e-001
 3.9821600327e+000	 1.6224677113e+000	 9.3087251373e-002
 3.9658037333e+000	 1.6620471560e+000	 4.2719226723e-002
 3.9490207858e+000	 1.7015389602e+000	-5.6049504575e-003
 3.9318113120e+000	 1.7409364742e+000	-5.2732863930e-002
 3.9141755673e+000	 1.7802330263e+000	-9.9545766244e-002
 3.8961139425e+000	 1.8194219267e+000	-1.4695732848e-001
 3.8776269639e+000	 1.8584964700e+000	-1.9591230010e-001
 3.8587152950e+000	 1.8974499394e+000	-1.8303075719e-001
 3.8393797369e+000	 1.9362756095e+000	-1.2091294455e-001
 3.8196212294e+000	 1.9749667502e+000	-5.5713222684e-002
 4.0213344021e+000	 1.5920096189e+000	 1.8207035387e-001
 4.0053121259e+000	 1.6319006631e+000	 1.2838087054e-001
 3.9888607318e+000	 1.6717102208e+000	 7.5872896349e-002
 3.9719802090e+000	 1.7114316286e+000	 2.3754190060e-002
 3.9546706801e+000	 1.7510581979e+000	-2.8800924011e-002
 3.9369324020e+000	 1.7905832183e+000	-8.2650388543e-002
 3.9187657677e+000	 1.8299999611e+000	-1.3868315563e-001
 3.9001713067e+000	 1.8693016820e+000	-1.9781784054e-001
 3.8811496862e+000	 1.9084816251e+000	-1.6818878930e-001
 3.8617017121e+000	 1.9475330258e+000	-1.2136091580e-001
 3.8418283295e+000	 1.9864491150e+000	-7.2889288513e-002
 4.0445791096e+000	 1.6012119866e+000	 2.1266359980e-001
 4.0284642191e+000	 1.6413336149e+000	 1.5952155431e-001
 4.0119177302e+000	 1.6813732857e+000	 1.0591187719e-001
 3.9949396322e+000	 1.7213242970e+000	 5.1062283264e-002
 3.9775300482e+000	 1.7611799216e+000	-5.8315792953e-003
 3.9596892367e+000	 1.8009334104e+000	-6.5604952580e-002
 3.9414175930e+000	 1.8405779956e+000	-1.2912270363e-001
 3.9227156495e+000	 1.8801068940e+000	-1.8405001599e-001
 3.9035840775e+000	 1.9195133107e+000	-1.5189672549e-001
 3.8840236873e+000	 1.9587904422e+000	-1.1931224190e-001
 3.8640354297e+000	 1.9979314798e+000	-8.6501538453e-002
 4.0678238172e+000	 1.6104143544e+000	 2.3823557050e-001
 4.0516163123e+000	 1.6507665667e+000	 1.8663965259e-001
 4.0349747287e+000	 1.6910363506e+000	 1.3295258367e-001
 4.0178990554e+000	 1.7312169653e+000	 7.6421478795e-002
 4.0003894163e+000	 1.7713016452e+000	 1.6262728958e-002
 3.9824460714e+000	 1.8112836024e+000	-4.8336813305e-002
 3.9640694182e+000	 1.8511560300e+000	-1.1821856036e-001
 3.9452599923e+000	 1.8909121061e+000	-1.5457977835e-001
 3.9260184687e+000	 1.9305449964e+000	-1.3419628098e-001
 3.9063456625e+000	 1.9700478585e+000	-1.1482695101e-001
 3.8862425299e+000	 2.0094138446e+000	-9.6628617462e-002
 4.0910685247e+000	 1.6196167221e+000	 2.5892773378e-001
 4.0747684055e+000	 1.6601995186e+000	 2.0986338520e-001
 4.0580317271e+000	 1.7006994154e+000	 1.5710966383e-001
 4.0408584785e+000	 1.7411096337e+000	 9.9932532021e-002
 4.0232487843e+000	 1.7814233689e+000	 3.7568545489e-002
 4.0052029061e+000	 1.8216337944e+000	-3.0773951321e-002
 3.9867212435e+000	 1.8617340645e+000	-1.0591354306e-001
 3.9678043352e+000	 1.9017173181e+000	-1.2473219591e-001
 3.9484528600e+000	 1.9415766821e+000	-1.1512858448e-001
 3.9286676378e+000	 1.9813052748e+000	-1.0796406555e-001
 3.9084496300e+000	 2.0208962095e+000	-1.0334773812e-001
 4.1143132322e+000	 1.6288190898e+000	 2.7487914224e-001
 4.0979204987e+000	 1.6696324704e+000	 2.2931890203e-001
 4.0810887256e+000	 1.7103624803e+000	 1.7849604931e-001
 4.0638179017e+000	 1.7510023021e+000	 1.2169484342e-001
 4.0461081524e+000	 1.7915450926e+000	 5.8171429683e-002
 4.0279597408e+000	 1.8319839864e+000	-1.2844955202e-002
 4.0093730687e+000	 1.8723120989e+000	-9.2150691870e-002
 3.9903486780e+000	 1.9125225301e+000	-9.4530636882e-002
 3.9708872512e+000	 1.9526083678e+000	-9.4734194761e-002
 3.9509896130e+000	 1.9925626912e+000	-9.8781630556e-002
 3.9306567302e+000	 2.0323785743e+000	-1.0673472106e-001
 4.1375579397e+000	 1.6380214576e+000	 2.8622650116e-001
 4.1210725920e+000	 1.6790654222e+000	 2.4513034120e-001
 4.1041457241e+000	 1.7200255451e+000	 1.9722300346e-001
 4.0867773249e+000	 1.7608949704e+000	 1.4180649664e-001
 4.0689675205e+000	 1.8016668163e+000	 7.8155983247e-002
 4.0507165755e+000	 1.8423341784e+000	 5.5209955779e-003
 4.0320248940e+000	 1.8828901334e+000	-6.0162712283e-002
 4.0128930208e+000	 1.9233277422e+000	-6.3998304437e-002
 3.9933216425e+000	 1.9636400535e+000	-7.3053116686e-002
 3.9733115882e+000	 2.0038201075e+000	-8.7336741165e-002
 3.9528638304e+000	 2.0438609391e+000	-1.0686403413e-001
 4.1608026473e+000	 1.6472238253e+000	 2.9310423400e-001
 4.1442246852e+000	 1.6884983740e+000	 2.5741988524e-001
 4.1272027225e+000	 1.7296886100e+000	 2.1340016806e-001
 4.1097367481e+000	 1.7707876388e+000	 1.6036429528e-001
 4.0918268886e+000	 1.8117885400e+000	 9.7605876963e-002
 4.0734734102e+000	 1.8526843704e+000	 2.4394147156e-002
 4.0546767192e+000	 1.8934681678e+000	-2.2821175006e-002
 4.0354373636e+000	 1.9341329542e+000	-3.3158241317e-002
 4.0157560337e+000	 1.9746717392e+000	-5.0124816648e-002
 3.9956335634e+000	 2.0150775238e+000	-7.3685569151e-002
 3.9750709306e+000	 2.0553433039e+000	-1.0380883010e-001
 4.1840473548e+000	 1.6564261930e+000	 2.9564454586e-001
 4.1673767784e+000	 1.6979313258e+000	 2.6630781545e-001
 4.1502597210e+000	 1.7393516748e+000	 2.2713560824e-001
 4.1326961712e+000	 1.7806803072e+000	 1.7746379846e-001
 4.1146862567e+000	 1.8219102636e+000	 1.1660387654e-001
 4.0962302449e+000	 1.8630345624e+000	 4.3844187232e-002
 4.0773285445e+000	 1.9040462023e+000	 1.3901438038e-002
 4.0579817064e+000	 1.9449381662e+000	-2.0333342909e-003
 4.0381904250e+000	 1.9857034249e+000	-2.5988237549e-002
 4.0179555386e+000	 2.0263349401e+000	-5.7883388561e-002
 3.9972780307e+000	 2.0668256687e+000	-9.7640983251e-002
 3.7752070290e+000	 1.9520020205e+000	-1.0347648801e-002
 3.7552613065e+000	 1.9901036456e+000	 1.5193050886e-002
 3.7348998232e+000	 2.0280590008e+000	-5.6852324294e-002
 3.7141239222e+000	 2.0658614403e+000	-1.5939881481e-001
 3.6929350853e+000	 2.1035043275e+000	-2.5534105317e-001
 3.6713349334e+000	 2.1409810384e+000	-3.4328153202e-001
 3.6493252266e+000	 2.1782849654e+000	-4.2181794865e-001
 3.6269078643e+000	 2.2154095206e+000	-4.8954651785e-001
 3.6040848849e+000	 2.2523481398e+000	-5.4506531922e-001
 3.5808584657e+000	 2.2890942857e+000	-5.8697767020e-001
 3.5572309227e+000	 2.3256414519e+000	-6.1389551650e-001
 3.7974141292e+000	 1.9634843853e+000	-3.4893221734e-002
 3.7773510788e+000	 2.0018101376e+000	-2.0508678280e-002
 3.7568698222e+000	 2.0399887596e+000	-1.2933221464e-003
 3.7359717100e+000	 2.0780135664e+000	-6.9005381691e-002
 3.7146582329e+000	 2.1158778823e+000	-1.7460796502e-001
 3.6929310213e+000	 2.1535750445e+000	-2.7090059974e-001
 3.6707918456e+000	 2.1910984063e+000	-3.5643597163e-001
 3.6482426164e+000	 2.2284413413e+000	-4.2976640780e-001
 3.6252853842e+000	 2.2655972465e+000	-4.8944731374e-001
 3.6019223390e+000	 2.3025595462e+000	-5.3404063531e-001
 3.5781558105e+000	 2.3393216957e+000	-5.6211833693e-001
 3.8196212294e+000	 1.9749667502e+000	-5.5713222684e-002
 3.7994408512e+000	 2.0135166297e+000	-5.2437979820e-002
 3.7788398211e+000	 2.0519185184e+000	-4.3076798950e-002
 3.7578194978e+000	 2.0901656925e+000	-2.7617374791e-002
 3.7363813804e+000	 2.1282514372e+000	-9.2430644333e-002
 3.7145271091e+000	 2.1661690506e+000	-1.9739249984e-001
 3.6922584646e+000	 2.2039118473e+000	-2.9025341779e-001
 3.6695773686e+000	 2.2414731620e+000	-3.6952122871e-001
 3.6464858835e+000	 2.2788463532e+000	-4.3370804920e-001
 3.6229862123e+000	 2.3160248067e+000	-4.8133383384e-001
 3.5990806982e+000	 2.3530019396e+000	-5.1092994224e-001
 3.8418283295e+000	 1.9864491150e+000	-7.2889288513e-002
 3.8215306236e+000	 2.0252231217e+000	-8.0677587804e-002
 3.8008098201e+000	 2.0638482773e+000	-8.1136666758e-002
 3.7796672856e+000	 2.1023178186e+000	-7.4246157488e-002
 3.7581045280e+000	 2.1406249920e+000	-5.9999854147e-002
 3.7361231969e+000	 2.1787630567e+000	-1.2306263627e-001
 3.7137250836e+000	 2.2167252883e+000	-2.2358061433e-001
 3.6909121207e+000	 2.2545049827e+000	-3.0912591526e-001
 3.6676863828e+000	 2.2920954599e+000	-3.7816674576e-001
 3.6440500857e+000	 2.3294900672e+000	-4.2918044348e-001
 3.6200055860e+000	 2.3666821834e+000	-4.6065713383e-001
 3.8640354297e+000	 1.9979314798e+000	-8.6501538453e-002
 3.8436203960e+000	 2.0369296137e+000	-1.0530868946e-001
 3.8227798190e+000	 2.0757780361e+000	-1.1555492863e-001
 3.8015150733e+000	 2.1144699447e+000	-1.1721194600e-001
 3.7798276756e+000	 2.1529985469e+000	-1.1026684139e-001
 3.7577192848e+000	 2.1913570628e+000	-9.4722149211e-002
 3.7351917025e+000	 2.2295387292e+000	-1.5672627845e-001
 3.7122468729e+000	 2.2675368034e+000	-2.4889379628e-001
 3.6888868821e+000	 2.3053445666e+000	-3.2314102759e-001
 3.6651139590e+000	 2.3429553277e+000	-3.7790206137e-001
 3.6409304738e+000	 2.3803624272e+000	-4.1162515370e-001
 3.8862425299e+000	 2.0094138446e+000	-9.6628617462e-002
 3.8657101684e+000	 2.0486361058e+000	-1.2641096934e-001
 3.8447498180e+000	 2.0877077949e+000	-1.4641206191e-001
 3.8233628611e+000	 2.1266220709e+000	-1.5659576246e-001
 3.8015508231e+000	 2.1653721018e+000	-1.5694259125e-001
 3.7793153726e+000	 2.2039510689e+000	-1.4744976228e-001
 3.7566583215e+000	 2.2423521702e+000	-1.2813119171e-001
 3.7335816250e+000	 2.2805686241e+000	-1.8913664064e-001
 3.7100873815e+000	 2.3185936733e+000	-2.6894696840e-001
 3.6861778323e+000	 2.3564205882e+000	-3.2781874926e-001
 3.6618553616e+000	 2.3940426711e+000	-3.6415772899e-001
 3.9084496300e+000	 2.0208962095e+000	-1.0334773812e-001
 3.8877999408e+000	 2.0603425978e+000	-1.4406265208e-001
 3.8667198170e+000	 2.0996375537e+000	-1.7378706159e-001
 3.8452106489e+000	 2.1387741970e+000	-1.9247712944e-001
 3.8232739707e+000	 2.1777456566e+000	-2.0010691012e-001
 3.8009114605e+000	 2.2165450750e+000	-1.9666840645e-001
 3.7781249405e+000	 2.2551656112e+000	-1.8217159204e-001
 3.7549163771e+000	 2.2936004448e+000	-1.5664439940e-001
 3.7312878808e+000	 2.3318427800e+000	-2.1589913553e-001
 3.7072417056e+000	 2.3698858487e+000	-2.7924907710e-001
 3.6827802494e+000	 2.4077229149e+000	-3.1857711502e-001
 3.9306567302e+000	 2.0323785743e+000	-1.0673472106e-001
 3.9098897132e+000	 2.0720490898e+000	-1.5834054355e-001
 3.8886898159e+000	 2.1115673126e+000	-1.9775748217e-001
 3.8670584367e+000	 2.1509263231e+000	-2.2493411231e-001
 3.8449971182e+000	 2.1901192115e+000	-2.3983813558e-001
 3.8225075483e+000	 2.2291390811e+000	-2.4245645201e-001
 3.7995915595e+000	 2.2679790521e+000	-2.3279519654e-001
 3.7762511293e+000	 2.3066322655e+000	-2.1087973926e-001
 3.7524883801e+000	 2.3450918867e+000	-1.7675464935e-001
 3.7283055790e+000	 2.3833511092e+000	-2.3251016523e-001
 3.7037051371e+000	 2.4214031587e+000	-2.7520413690e-001
 3.9528638304e+000	 2.0438609391e+000	-1.0686403413e-001
 3.9319794856e+000	 2.0837555818e+000	-1.6932007077e-001
 3.9106598149e+000	 2.1234970714e+000	-2.1839947813e-001
 3.8889062245e+000	 2.1630784492e+000	-2.5404336020e-001
 3.8667202658e+000	 2.2024927664e+000	-2.7621317765e-001
 3.8441036362e+000	 2.2417330872e+000	-2.8489083540e-001
 3.8210581785e+000	 2.2807924931e+000	-2.8007873293e-001
 3.7975858814e+000	 2.3196640863e+000	-2.6179977652e-001
 3.7736888794e+000	 2.3583409934e+000	-2.3009735355e-001
 3.7493694523e+000	 2.3968163697e+000	-1.8791772504e-001
 3.7246300249e+000	 2.4350834026e+000	-2.3435822963e-001
 3.9750709306e+000	 2.0553433039e+000	-1.0380883010e-001
 3.9540692580e+000	 2.0954620739e+000	-1.7707532040e-001
 3.9326298139e+000	 2.1354268302e+000	-2.3578784301e-001
 3.9107540122e+000	 2.1752305753e+000	-2.7988014554e-001
 3.8884434134e+000	 2.2148663212e+000	-3.0930755870e-001
 3.8656997240e+000	 2.2543270933e+000	-3.2404709925e-001
 3.8425247975e+000	 2.2936059341e+000	-3.2409753382e-001
 3.8189206336e+000	 2.3326959070e+000	-3.0947940310e-001
 3.7948893788e+000	 2.3715901001e+000	-2.8023500622e-001
 3.7704333256e+000	 2.4102816302e+000	-2.3642834489e-001
 3.7455549127e+000	 2.4487636464e+000	-1.9635747702e-001
 3.9972780307e+000	 2.0668256687e+000	-9.7640983251e-002
 3.9761590304e+000	 2.1071685659e+000	-1.8167907598e-001
 3.9545998128e+000	 2.1473565890e+000	-2.4999604726e-001
 3.9326018000e+000	 2.1873827014e+000	-3.0251840228e-001
 3.9101665609e+000	 2.2272398761e+000	-3.3919545197e-001
 3.8872958119e+000	 2.2669210994e+000	-3.5999943111e-001
 3.8639914164e+000	 2.3064193751e+000	-3.6492557554e-001
 3.8402553857e+000	 2.3457277277e+000	-3.5399215810e-001
 3.8160898781e+000	 2.3848392068e+000	-3.2724048298e-001
 3.7914971990e+000	 2.4237468907e+000	-2.8473483802e-001
 3.7664798005e+000	 2.4624438902e+000	-2.2656240512e-001
 3.5572309227e+000	 2.3256414519e+000	-6.1389551650e-001
 3.5332047099e+000	 2.3619831663e+000	-6.0225159668e-001
 3.5087824190e+000	 2.3981129948e+000	-5.6916033180e-001
 3.4839667785e+000	 2.4340245451e+000	-5.1301970509e-001
 3.4587606532e+000	 2.4697114697e+000	-4.3225318458e-001
 3.4331670430e+000	 2.5051674705e+000	-3.5615811018e-001
 3.4071890820e+000	 2.5403863013e+000	-4.3463935855e-001
 3.3808300376e+000	 2.5753617721e+000	-4.8883528351e-001
 3.3540933089e+000	 2.6100877523e+000	-5.1905439877e-001
 3.3269824258e+000	 2.6445581744e+000	-5.2560956554e-001
 3.2995010472e+000	 2.6787670372e+000	-5.0881655332e-001
 3.5781558105e+000	 2.3393216957e+000	-5.6211833693e-001
 3.5539882670e+000	 2.3758771849e+000	-5.4608532349e-001
 3.5294223156e+000	 2.4122195419e+000	-5.0821570577e-001
 3.5044607008e+000	 2.4483423365e+000	-4.4689670229e-001
 3.4791063041e+000	 2.4842391843e+000	-3.6054172673e-001
 3.4533621432e+000	 2.5199037497e+000	-3.6535957282e-001
 3.4272313707e+000	 2.5553297501e+000	-4.3794139289e-001
 3.4007172731e+000	 2.5905109590e+000	-4.8624769580e-001
 3.3738232696e+000	 2.6254412097e+000	-5.1063270979e-001
 3.3465529107e+000	 2.6601143990e+000	-5.1145460543e-001
 3.3189098769e+000	 2.6945244904e+000	-4.8907398630e-001
 3.5990806982e+000	 2.3530019396e+000	-5.1092994224e-001
 3.5747718241e+000	 2.3897712035e+000	-4.9128986109e-001
 3.5500622122e+000	 2.4263260889e+000	-4.4941613220e-001
 3.5249546230e+000	 2.4626601279e+000	-3.8368434819e-001
 3.4994519550e+000	 2.4987668988e+000	-2.9249701530e-001
 3.4735572435e+000	 2.5346400289e+000	-3.7702524641e-001
 3.4472736594e+000	 2.5702731989e+000	-4.4404704043e-001
 3.4206045086e+000	 2.6056601459e+000	-4.8680935624e-001
 3.3935532302e+000	 2.6407946671e+000	-5.0571227210e-001
 3.3661233956e+000	 2.6756706236e+000	-5.0115939162e-001
 3.3383187065e+000	 2.7102819435e+000	-4.7355626397e-001
 3.6200055860e+000	 2.3666821834e+000	-4.6065713383e-001
 3.5955553812e+000	 2.4036652222e+000	-4.3818806324e-001
 3.5707021087e+000	 2.4404326359e+000	-3.9308040799e-001
 3.5454485452e+000	 2.4769779194e+000	-3.2369727255e-001
 3.5197976059e+000	 2.5132946133e+000	-3.0447249274e-001
 3.4937523437e+000	 2.5493763082e+000	-3.9094079753e-001
 3.4673159481e+000	 2.5852166478e+000	-4.5273071758e-001
 3.4404917441e+000	 2.6208093328e+000	-4.9028355024e-001
 3.4132831908e+000	 2.6561481244e+000	-5.0404536653e-001
 3.3856938804e+000	 2.6912268481e+000	-4.9446533402e-001
 3.3577275362e+000	 2.7260393967e+000	-4.6199406596e-001
 3.6409304738e+000	 2.3803624272e+000	-4.1162515370e-001
 3.6163389384e+000	 2.4175592408e+000	-3.8710141736e-001
 3.5913420053e+000	 2.4545391829e+000	-3.3952615709e-001
 3.5659424674e+000	 2.4912957108e+000	-2.6724912569e-001
 3.5401432568e+000	 2.5278223278e+000	-3.2532012488e-001
 3.5139474440e+000	 2.5641125874e+000	-4.0689130060e-001
 3.4873582368e+000	 2.6001600966e+000	-4.6376644213e-001
 3.4603789796e+000	 2.6359585197e+000	-4.9643335793e-001
 3.4330131515e+000	 2.6715015818e+000	-5.0538426174e-001
 3.4052643653e+000	 2.7067830727e+000	-4.9111402303e-001
 3.3771363659e+000	 2.7417968498e+000	-4.5411844461e-001
 3.6618553616e+000	 2.3940426711e+000	-3.6415772899e-001
 3.6371224955e+000	 2.4314532594e+000	-3.3835008359e-001
 3.6119819019e+000	 2.4686457300e+000	-2.8906986399e-001
 3.5864363897e+000	 2.5056135023e+000	-2.4547766950e-001
 3.5604889077e+000	 2.5423500424e+000	-3.4768740240e-001
 3.5341425442e+000	 2.5788488667e+000	-4.2466125484e-001
 3.5074005255e+000	 2.6151035454e+000	-4.7692784466e-001
 3.4802662151e+000	 2.6511077066e+000	-5.0502166006e-001
 3.4527431121e+000	 2.6868550392e+000	-5.0948121454e-001
 3.4248348501e+000	 2.7223392972e+000	-4.9084722439e-001
 3.3965451956e+000	 2.7575543030e+000	-4.4966081437e-001
 3.6827802494e+000	 2.4077229149e+000	-3.1857711502e-001
 3.6579060526e+000	 2.4453472780e+000	-2.9225293249e-001
 3.6326217985e+000	 2.4827522770e+000	-2.4202690614e-001
 3.6069303119e+000	 2.5199312937e+000	-2.7341577644e-001
 3.5808345586e+000	 2.5568777569e+000	-3.7136906311e-001
 3.5543376445e+000	 2.5935851459e+000	-4.4403460055e-001
 3.5274428143e+000	 2.6300469942e+000	-4.9198817950e-001
 3.5001534506e+000	 2.6662568934e+000	-5.1581114363e-001
 3.4724730728e+000	 2.7022084965e+000	-5.1608847022e-001
 3.4444053350e+000	 2.7378955218e+000	-4.9340687422e-001
 3.4159540253e+000	 2.7733117562e+000	-4.4835294149e-001
 3.7037051371e+000	 2.4214031587e+000	-2.7520413690e-001
 3.6786896097e+000	 2.4592412967e+000	-2.4912758149e-001
 3.6532616951e+000	 2.4968588240e+000	-1.9871158515e-001
 3.6274242341e+000	 2.5342490851e+000	-3.0219034532e-001
 3.6011802095e+000	 2.5714054714e+000	-3.9615912413e-001
 3.5745327447e+000	 2.6083214251e+000	-4.6479473495e-001
 3.5474851030e+000	 2.6449904431e+000	-5.0872033542e-001
 3.5200406862e+000	 2.6814060803e+000	-5.2856430740e-001
 3.4922030334e+000	 2.7175619539e+000	-5.2495826291e-001
 3.4639758198e+000	 2.7534517463e+000	-4.9853507421e-001
 3.4353628550e+000	 2.7890692093e+000	-4.4992693406e-001
 3.7246300249e+000	 2.4350834026e+000	-2.3435822963e-001
 3.6994731668e+000	 2.4731353153e+000	-2.0929043007e-001
 3.6739015917e+000	 2.5109653711e+000	-2.1532380139e-001
 3.6479181564e+000	 2.5485668766e+000	-3.3160524444e-001
 3.6215258604e+000	 2.5859331860e+000	-4.2185090213e-001
 3.5947278450e+000	 2.6230577044e+000	-4.8672452742e-001
 3.5675273917e+000	 2.6599338919e+000	-5.2689684583e-001
 3.5399279217e+000	 2.6965552672e+000	-5.4304346714e-001
 3.5119329941e+000	 2.7329154113e+000	-5.3584281585e-001
 3.4835463047e+000	 2.7690079709e+000	-5.0597408690e-001
 3.4547716847e+000	 2.8048266625e+000	-4.5411523244e-001
 3.7455549127e+000	 2.4487636464e+000	-1.9635747702e-001
 3.7202567240e+000	 2.4870293339e+000	-1.7305669379e-001
 3.6945414883e+000	 2.5250719181e+000	-2.4857391221e-001
 3.6684120786e+000	 2.5628846680e+000	-3.6146349344e-001
 3.6418715113e+000	 2.6004609005e+000	-4.4823703288e-001
 3.6149229452e+000	 2.6377939836e+000	-5.0960633421e-001
 3.5875696804e+000	 2.6748773408e+000	-5.4628989879e-001
 3.5598151572e+000	 2.7117044541e+000	-5.5901076077e-001
 3.5316629547e+000	 2.7482688687e+000	-5.4849434174e-001
 3.5031167896e+000	 2.7845641955e+000	-5.1546633130e-001
 3.4741805144e+000	 2.8205841157e+000	-4.6065059997e-001
 3.7664798005e+000	 2.4624438902e+000	-2.2656240512e-001
 3.7410402811e+000	 2.5009233526e+000	-1.4516218494e-001
 3.7151813848e+000	 2.5391784651e+000	-2.8183532257e-001
 3.6889060008e+000	 2.5772024595e+000	-3.9156728686e-001
 3.6622171622e+000	 2.6149886150e+000	-4.7510949022e-001
 3.6351180455e+000	 2.6525302629e+000	-5.3322201275e-001
 3.6076119692e+000	 2.6898207896e+000	-5.6667134650e-001
 3.5797023927e+000	 2.7268536410e+000	-5.7622815329e-001
 3.5513929153e+000	 2.7636223260e+000	-5.6266504298e-001
 3.5226872744e+000	 2.8001204200e+000	-5.2675437844e-001
 3.4935893441e+000	 2.8363415688e+000	-4.6926611399e-001
 3.2995010472e+000	 2.6787670372e+000	-5.0881655332e-001
 3.2716529593e+000	 2.7127084092e+000	-5.3075327861e-001
 3.2434420746e+000	 2.7463764324e+000	-5.5178936896e-001
 3.2148724293e+000	 2.7797653252e+000	-5.7243044049e-001
 3.1859481822e+000	 2.8128693856e+000	-5.9316010170e-001
 3.1566736119e+000	 2.8456829949e+000	-6.1443845849e-001
 3.1270531156e+000	 2.8782006205e+000	-6.3670069455e-001
 3.0970912062e+000	 2.9104168190e+000	-6.2848607649e-001
 3.0667925103e+000	 2.9423262393e+000	-6.3218204573e-001
 3.0361617660e+000	 2.9739236255e+000	-6.4940004889e-001
 3.0052038200e+000	 3.0052038200e+000	-6.7887481110e-001
 3.3189098769e+000	 2.6945244904e+000	-4.8907398630e-001
 3.2908979767e+000	 2.7286655175e+000	-5.0893629767e-001
 3.2625211456e+000	 2.7625315879e+000	-5.2844058956e-001
 3.2337834436e+000	 2.7961168859e+000	-5.4809565358e-001
 3.2046890538e+000	 2.8294156761e+000	-5.6838707656e-001
 3.1752422802e+000	 2.8624223067e+000	-5.8977572377e-001
 3.1454475457e+000	 2.8951312124e+000	-6.1269629992e-001
 3.1153093898e+000	 2.9275369179e+000	-6.2757830298e-001
 3.0848324663e+000	 2.9596340407e+000	-6.3206172962e-001
 3.0540215411e+000	 2.9914172939e+000	-6.5076729009e-001
 3.0228814896e+000	 3.0228814896e+000	-6.8238587031e-001
 3.3383187065e+000	 2.7102819435e+000	-4.7355626397e-001
 3.3101429941e+000	 2.7446226258e+000	-4.9098457966e-001
 3.2816002166e+000	 2.7786867434e+000	-5.0860020357e-001
 3.2526944579e+000	 2.8124684466e+000	-5.2691552346e-001
 3.2234299255e+000	 2.8459619666e+000	-5.4641851446e-001
 3.1938109485e+000	 2.8791616184e+000	-5.6757119981e-001
 3.1638419758e+000	 2.9120618043e+000	-5.9080819191e-001
 3.1335275733e+000	 2.9446570169e+000	-6.1653531804e-001
 3.1028724222e+000	 2.9769418421e+000	-6.2948022870e-001
 3.0718813162e+000	 3.0089109623e+000	-6.4951888507e-001
 3.0405591591e+000	 3.0405591591e+000	-6.8313121290e-001
 3.3577275362e+000	 2.7260393967e+000	-4.6199406596e-001
 3.3293880115e+000	 2.7605797341e+000	-4.7663090447e-001
 3.3006792877e+000	 2.7948418989e+000	-4.9200331621e-001
 3.2716054722e+000	 2.8288200074e+000	-5.0862770639e-001
 3.2421707971e+000	 2.8625082571e+000	-5.2699484881e-001
 3.2123796169e+000	 2.8959009301e+000	-5.4756832353e-001
 3.1822364059e+000	 2.9289923962e+000	-5.7078303729e-001
 3.1517457569e+000	 2.9617771158e+000	-5.9704383131e-001
 3.1209123782e+000	 2.9942496435e+000	-6.2426227229e-001
 3.0897410913e+000	 3.0264046307e+000	-6.4548662581e-001
 3.0582368286e+000	 3.0582368286e+000	-6.8094988100e-001
 3.3771363659e+000	 2.7417968498e+000	-4.5411844461e-001
 3.3486330290e+000	 2.7765368424e+000	-4.6560832482e-001
 3.3197583587e+000	 2.8109970544e+000	-4.7838520336e-001
 3.2905164865e+000	 2.8451715681e+000	-4.9296992487e-001
 3.2609116688e+000	 2.8790545476e+000	-5.0985647270e-001
 3.2309482852e+000	 2.9126402419e+000	-5.2951038280e-001
 3.2006308360e+000	 2.9459229881e+000	-5.5236724300e-001
 3.1699639405e+000	 2.9788972147e+000	-5.7883128224e-001
 3.1389523341e+000	 3.0115574449e+000	-6.0927405394e-001
 3.1076008664e+000	 3.0438982991e+000	-6.3850170009e-001
 3.0759144982e+000	 3.0759144982e+000	-6.7568019391e-001
 3.3965451956e+000	 2.7575543030e+000	-4.4966081437e-001
 3.3678780464e+000	 2.7924939507e+000	-4.5765015847e-001
 3.3388374297e+000	 2.8271522099e+000	-4.6748130670e-001
 3.3094275008e+000	 2.8615231289e+000	-4.7967996581e-001
 3.2796525405e+000	 2.8956008381e+000	-4.9474374006e-001
 3.2495169535e+000	 2.9293795536e+000	-5.1314052073e-001
 3.2190252661e+000	 2.9628535800e+000	-5.3530696358e-001
 3.1881821241e+000	 2.9960173137e+000	-5.6164705896e-001
 3.1569922901e+000	 3.0288652463e+000	-5.9253079875e-001
 3.1254606415e+000	 3.0613919675e+000	-6.2829294439e-001
 3.0935921677e+000	 3.0935921677e+000	-6.6715976876e-001
 3.4159540253e+000	 2.7733117562e+000	-4.4835294149e-001
 3.3871230638e+000	 2.8084510590e+000	-4.5248998071e-001
 3.3579165007e+000	 2.8433073654e+000	-4.5902722900e-001
 3.3283385151e+000	 2.8778746896e+000	-4.6849567866e-001
 3.2983934121e+000	 2.9121471286e+000	-4.8139696679e-001
 3.2680856218e+000	 2.9461188654e+000	-4.9820173976e-001
 3.2374196962e+000	 2.9797841718e+000	-5.1934810831e-001
 3.2064003076e+000	 3.0131374126e+000	-5.4524019783e-001
 3.1750322460e+000	 3.0461730477e+000	-5.7624679844e-001
 3.1433204166e+000	 3.0788856359e+000	-6.1270011879e-001
 3.1112698372e+000	 3.1112698372e+000	-6.5522554042e-001
 3.4353628550e+000	 2.7890692093e+000	-4.4992693406e-001
 3.4063680812e+000	 2.8244081673e+000	-4.4986161706e-001
 3.3769955718e+000	 2.8594625209e+000	-4.5275872958e-001
 3.3472495294e+000	 2.8942262503e+000	-4.5915497365e-001
 3.3171342838e+000	 2.9286934191e+000	-4.6955643179e-001
 3.2866542901e+000	 2.9628581771e+000	-4.8443690566e-001
 3.2558141263e+000	 2.9967147637e+000	-5.0423634817e-001
 3.2246184912e+000	 3.0302575116e+000	-5.2935939344e-001
 3.1930722020e+000	 3.0634808491e+000	-5.6017398937e-001
 3.1611801917e+000	 3.0963793042e+000	-5.9701013672e-001
 3.1289475068e+000	 3.1289475068e+000	-6.4019596684e-001
 3.4547716847e+000	 2.8048266625e+000	-4.5411523244e-001
 3.4256130986e+000	 2.8403652756e+000	-4.4949913628e-001
 3.3960746428e+000	 2.8756176763e+000	-4.4841171986e-001
 3.3661605437e+000	 2.9105778111e+000	-4.5139582010e-001
 3.3358751555e+000	 2.9452397096e+000	-4.5896237804e-001
 3.3052229584e+000	 2.9795974888e+000	-4.7158875132e-001
 3.2742085564e+000	 3.0136453556e+000	-4.8971712250e-001
 3.2428366748e+000	 3.0473776105e+000	-5.1375300815e-001
 3.2111121579e+000	 3.0807886506e+000	-5.4406387334e-001
 3.1790399668e+000	 3.1138729726e+000	-5.8097785552e-001
 3.1466251763e+000	 3.1466251763e+000	-6.2238175352e-001
 3.4741805144e+000	 2.8205841157e+000	-4.6065059997e-001
 3.4448581160e+000	 2.8563223839e+000	-4.5113684352e-001
 3.4151537138e+000	 2.8917728318e+000	-4.4572225919e-001
 3.3850715580e+000	 2.9269293718e+000	-4.4495624472e-001
 3.3546160271e+000	 2.9617860002e+000	-4.4935501359e-001
 3.3237916267e+000	 2.9963368006e+000	-4.5939988053e-001
 3.2926029865e+000	 3.0305759475e+000	-4.7553564551e-001
 3.2610548583e+000	 3.0644977094e+000	-4.9816908141e-001
 3.2291521139e+000	 3.0980964520e+000	-5.2766752976e-001
 3.1968997419e+000	 3.1313666410e+000	-5.6211850574e-001
 3.1643028458e+000	 3.1643028458e+000	-5.9972594058e-001
 3.4935893441e+000	 2.8363415688e+000	-4.6926611399e-001
 3.4641031334e+000	 2.8722794922e+000	-4.5450927379e-001
 3.4342327849e+000	 2.9079279873e+000	-4.4442655069e-001
 3.4039825722e+000	 2.9432809326e+000	-4.3957433009e-001
 3.3733568988e+000	 2.9783322907e+000	-4.4047451253e-001
 3.3423602950e+000	 3.0130761123e+000	-4.4761277148e-001
 3.3109974166e+000	 3.0475065394e+000	-4.6143691250e-001
 3.2792730419e+000	 3.0816178084e+000	-4.8235533870e-001
 3.2471920698e+000	 3.1154042534e+000	-5.1073562737e-001
 3.2147595170e+000	 3.1488603094e+000	-5.3615440028e-001
 3.1819805154e+000	 3.1819805154e+000	-5.7238976825e-001
 3.0052038200e+000	 3.0052038200e+000	-6.7887481110e-001
 2.9739236255e+000	 3.0361617660e+000	-6.5058197639e-001
 2.9423262393e+000	 3.0667925103e+000	-6.1557373315e-001
 2.9104168190e+000	 3.0970912062e+000	-5.7251009406e-001
 2.8782006205e+000	 3.1270531156e+000	-5.2419606453e-001
 2.8456829949e+000	 3.1566736119e+000	-5.2937004819e-001
 2.8128693856e+000	 3.1859481822e+000	-5.3819673279e-001
 2.7797653252e+000	 3.2148724293e+000	-5.5033256474e-001
 2.7463764324e+000	 3.2434420746e+000	-5.6545814002e-001
 2.7127084092e+000	 3.2716529593e+000	-5.8327847513e-001
 2.6787670372e+000	 3.2995010472e+000	-6.0352318648e-001
 3.0228814896e+000	 3.0228814896e+000	-6.8238587031e-001
 2.9914172939e+000	 3.0540215411e+000	-6.5630603426e-001
 2.9596340407e+000	 3.0848324663e+000	-6.2304229691e-001
 2.9275369179e+000	 3.1153093898e+000	-5.8122748862e-001
 2.8951312124e+000	 3.1454475457e+000	-5.6642089182e-001
 2.8624223067e+000	 3.1752422802e+000	-5.7010447873e-001
 2.8294156761e+000	 3.2046890538e+000	-5.7676003872e-001
 2.7961168859e+000	 3.2337834436e+000	-5.8604466301e-001
 2.7625315879e+000	 3.2625211456e+000	-5.9764106254e-001
 2.7286655175e+000	 3.2908979767e+000	-6.1125783290e-001
 2.6945244904e+000	 3.3189098769e+000	-6.2662962453e-001
 3.0405591591e+000	 3.0405591591e+000	-6.8313121290e-001
 3.0089109623e+000	 3.0718813162e+000	-6.5945893429e-001
 2.9769418421e+000	 3.1028724222e+000	-6.2815016244e-001
 2.9446570169e+000	 3.1335275733e+000	-5.9943119087e-001
 2.9120618043e+000	 3.1638419758e+000	-5.9904632190e-001
 2.8791616184e+000	 3.1938109485e+000	-6.0131975574e-001
 2.8459619666e+000	 3.2234299255e+000	-6.0588240796e-001
 2.8124684466e+000	 3.2526944579e+000	-6.1239194042e-001
 2.7786867434e+000	 3.2816002166e+000	-6.2053311807e-001
 2.7446226258e+000	 3.3101429941e+000	-6.3001806785e-001
 2.7102819435e+000	 3.3383187065e+000	-6.4058643976e-001
 3.0582368286e+000	 3.0582368286e+000	-6.8094988100e-001
 3.0264046307e+000	 3.0897410913e+000	-6.5988124586e-001
 2.9942496435e+000	 3.1209123782e+000	-6.3073939320e-001
 2.9617771158e+000	 3.1517457569e+000	-6.2341196388e-001
 2.9289923962e+000	 3.1822364059e+000	-6.2237999410e-001
 2.8959009301e+000	 3.2123796169e+000	-6.2332226542e-001
 2.8625082571e+000	 3.2421707971e+000	-6.2586869096e-001
 2.8288200074e+000	 3.2716054722e+000	-6.2967742982e-001
 2.7948418989e+000	 3.3006792877e+000	-6.3443524105e-001
 2.7605797341e+000	 3.3293880115e+000	-6.3985773649e-001
 2.7260393967e+000	 3.3577275362e+000	-6.4568953265e-001
 3.0759144982e+000	 3.0759144982e+000	-6.7568019391e-001
 3.0438982991e+000	 3.1076008664e+000	-6.5741283081e-001
 3.0115574449e+000	 3.1389523341e+000	-6.4161466682e-001
 2.9788972147e+000	 3.1699639405e+000	-6.3832770745e-001
 2.9459229881e+000	 3.2006308360e+000	-6.3672890454e-001
 2.9126402419e+000	 3.2309482852e+000	-6.3641777824e-001
 2.8790545476e+000	 3.2609116688e+000	-6.3702315293e-001
 2.8451715681e+000	 3.2905164865e+000	-6.3820361236e-001
 2.8109970544e+000	 3.3197583587e+000	-6.3964785071e-001
 2.7765368424e+000	 3.3486330290e+000	-6.4107491949e-001
 2.7417968498e+000	 3.3771363659e+000	-6.4223437021e-001
 3.0935921677e+000	 3.0935921677e+000	-6.6715976876e-001
 3.0613919675e+000	 3.1254606415e+000	-6.5209628505e-001
 3.0288652463e+000	 3.1569922901e+000	-6.4757351817e-001
 2.9960173137e+000	 3.1881821241e+000	-6.4448571465e-001
 2.9628535800e+000	 3.2190252661e+000	-6.4239942449e-001
 2.9293795536e+000	 3.2495169535e+000	-6.4091146653e-001
 2.8956008381e+000	 3.2796525405e+000	-6.3964949062e-001
 2.8615231289e+000	 3.3094275008e+000	-6.3827243323e-001
 2.8271522099e+000	 3.3388374297e+000	-6.3647086574e-001
 2.7924939507e+000	 3.3678780464e+000	-6.3396723531e-001
 2.7575543030e+000	 3.3965451956e+000	-6.3051599838e-001
 3.1112698372e+000	 3.1112698372e+000	-6.5522554042e-001
 3.0788856359e+000	 3.1433204166e+000	-6.4855684280e-001
 3.0461730477e+000	 3.1750322460e+000	-6.4499989396e-001
 3.0131374126e+000	 3.2064003076e+000	-6.4219264831e-001
 2.9797841718e+000	 3.2374196962e+000	-6.3969731811e-001
 2.9461188654e+000	 3.2680856218e+000	-6.3710792147e-001
 2.9121471286e+000	 3.2983934121e+000	-6.3405084839e-001
 2.8778746896e+000	 3.3283385151e+000	-6.3018531689e-001
 2.8433073654e+000	 3.3579165007e+000	-6.2520371852e-001
 2.8084510590e+000	 3.3871230638e+000	-6.1883185329e-001
 2.7733117562e+000	 3.4159540253e+000	-6.1082905396e-001
 3.1289475068e+000	 3.1289475068e+000	-6.4019596684e-001
 3.0963793042e+000	 3.1611801917e+000	-6.3670766919e-001
 3.0634808491e+000	 3.1930722020e+000	-6.3420044915e-001
 3.0302575116e+000	 3.2246184912e+000	-6.3175455891e-001
 2.9967147637e+000	 3.2558141263e+000	-6.2892775963e-001
 2.9628581771e+000	 3.2866542901e+000	-6.2531116952e-001
 2.9286934191e+000	 3.3171342838e+000	-6.2052983389e-001
 2.8942262503e+000	 3.3472495294e+000	-6.1424318177e-001
 2.8594625209e+000	 3.3769955718e+000	-6.0614536886e-001
 2.8244081673e+000	 3.4063680812e+000	-5.9596550638e-001
 2.7890692093e+000	 3.4353628550e+000	-5.8346777620e-001
 3.1466251763e+000	 3.1466251763e+000	-6.2238175352e-001
 3.1138729726e+000	 3.1790399668e+000	-6.1685512132e-001
 3.0807886506e+000	 3.2111121579e+000	-6.1548122441e-001
 3.0473776105e+000	 3.2428366748e+000	-6.1347690173e-001
 3.0136453556e+000	 3.2742085564e+000	-6.1039534989e-001
 2.9795974888e+000	 3.3052229584e+000	-6.0582468829e-001
 2.9452397096e+000	 3.3358751555e+000	-5.9938853307e-001
 2.9105778111e+000	 3.3661605437e+000	-5.9074645451e-001
 2.8756176763e+000	 3.3960746428e+000	-5.7959431729e-001
 2.8403652756e+000	 3.4256130986e+000	-5.6566450339e-001
 2.8048266625e+000	 3.4547716847e+000	-5.4872601796e-001
 3.1643028458e+000	 3.1643028458e+000	-5.9972594058e-001
 3.1313666410e+000	 3.1968997419e+000	-5.9185963100e-001
 3.0980964520e+000	 3.2291521139e+000	-5.8914766326e-001
 3.0644977094e+000	 3.2610548583e+000	-5.8766455346e-001
 3.0305759475e+000	 3.2926029865e+000	-5.8440413240e-001
 2.9963368006e+000	 3.3237916267e+000	-5.7895142185e-001
 2.9617860002e+000	 3.3546160271e+000	-5.7092852482e-001
 2.9269293718e+000	 3.3850715580e+000	-5.5999508368e-001
 2.8917728318e+000	 3.4151537138e+000	-5.4584861786e-001
 2.8563223839e+000	 3.4448581160e+000	-5.2822474079e-001
 2.8205841157e+000	 3.4741805144e+000	-5.0689725647e-001
 3.1819805154e+000	 3.1819805154e+000	-5.7238976825e-001
 3.1488603094e+000	 3.2147595170e+000	-5.6575409321e-001
 3.1154042534e+000	 3.2471920698e+000	-5.5550462871e-001
 3.0816178084e+000	 3.2792730419e+000	-5.5462182833e-001
 3.0475065394e+000	 3.3109974166e+000	-5.5125760877e-001
 3.0130761123e+000	 3.3423602950e+000	-5.4499379556e-001
 2.9783322907e+000	 3.3733568988e+000	-5.3545089498e-001
 2.9432809326e+000	 3.4039825722e+000	-5.2228855304e-001
 2.9079279873e+000	 3.4342327849e+000	-5.0520589058e-001
 2.8722794922e+000	 3.4641031334e+000	-4.8394171425e-001
 2.8363415688e+000	 3.4935893441e+000	-4.5827460383e-001
 2.6787670372e+000	 3.2995010472e+000	-6.0352318648e-001
 2.6445581744e+000	 3.3269824258e+000	-5.9855280435e-001
 2.6100877523e+000	 3.3540933089e+000	-6.0243302802e-001
 2.5753617721e+000	 3.3808300376e+000	-6.1475884520e-001
 2.5403863013e+000	 3.4071890820e+000	-6.3514508415e-001
 2.5051674705e+000	 3.4331670430e+000	-6.6322639276e-001
 2.4697114697e+000	 3.4587606532e+000	-5.6472035857e-001
 2.4340245451e+000	 3.4839667785e+000	-4.5388226101e-001
 2.3981129948e+000	 3.5087824190e+000	-3.5273811440e-001
 2.3619831663e+000	 3.5332047099e+000	-2.6007791274e-001
 2.3256414519e+000	 3.5572309227e+000	-1.7471042860e-001
 2.6945244904e+000	 3.3189098769e+000	-6.2662962453e-001
 2.6601143990e+000	 3.3465529107e+000	-6.1370671953e-001
 2.6254412097e+000	 3.3738232696e+000	-6.1069229076e-001
 2.5905109590e+000	 3.4007172731e+000	-6.1721955063e-001
 2.5553297501e+000	 3.4272313707e+000	-6.3294114957e-001
 2.5199037497e+000	 3.4533621432e+000	-6.5752911016e-001
 2.4842391843e+000	 3.4791063041e+000	-6.2128858163e-001
 2.4483423365e+000	 3.5044607008e+000	-5.0816790438e-001
 2.4122195419e+000	 3.5294223156e+000	-4.0611298763e-001
 2.3758771849e+000	 3.5539882670e+000	-3.1392227692e-001
 2.3393216957e+000	 3.5781558105e+000	-2.3041220550e-001
 2.7102819435e+000	 3.3383187065e+000	-6.4058643976e-001
 2.6756706236e+000	 3.3661233956e+000	-6.2040011787e-001
 2.6407946671e+000	 3.3935532302e+000	-6.1115772572e-001
 2.6056601459e+000	 3.4206045086e+000	-6.1253045388e-001
 2.5702731989e+000	 3.4472736594e+000	-6.2420855499e-001
 2.5346400289e+000	 3.4735572435e+000	-6.4590123311e-001
 2.4987668988e+000	 3.4994519550e+000	-6.7193699347e-001
 2.4626601279e+000	 3.5249546230e+000	-5.5726100299e-001
 2.4263260889e+000	 3.5500622122e+000	-4.5500349663e-001
 2.3897712035e+000	 3.5747718241e+000	-3.6397081316e-001
 2.3530019396e+000	 3.5990806982e+000	-2.8298651051e-001
 2.7260393967e+000	 3.3577275362e+000	-6.4568953265e-001
 2.6912268481e+000	 3.3856938804e+000	-6.1891518364e-001
 2.6561481244e+000	 3.4132831908e+000	-6.0409787593e-001
 2.6208093328e+000	 3.4404917441e+000	-6.0094653829e-001
 2.5852166478e+000	 3.4673159481e+000	-6.0918881225e-001
 2.5493763082e+000	 3.4937523437e+000	-6.2857089664e-001
 2.5132946133e+000	 3.5197976059e+000	-6.5885731048e-001
 2.4769779194e+000	 3.5454485452e+000	-6.0118796328e-001
 2.4404326359e+000	 3.5707021087e+000	-4.9942619242e-001
 2.4036652222e+000	 3.5955553812e+000	-4.1023039576e-001
 2.3666821834e+000	 3.6200055860e+000	-3.3243072246e-001
 2.7417968498e+000	 3.3771363659e+000	-6.4223437021e-001
 2.7067830727e+000	 3.4052643653e+000	-6.0953396079e-001
 2.6715015818e+000	 3.4330131515e+000	-5.8978143212e-001
 2.6359585197e+000	 3.4603789796e+000	-5.8272321767e-001
 2.6001600966e+000	 3.4873582368e+000	-5.8812414098e-001
 2.5641125874e+000	 3.5139474440e+000	-6.0576721537e-001
 2.5278223278e+000	 3.5401432568e+000	-6.3545336161e-001
 2.4912957108e+000	 3.5659424674e+000	-6.3997669782e-001
 2.4545391829e+000	 3.5913420053e+000	-5.3939938666e-001
 2.4175592408e+000	 3.6163389384e+000	-4.5270990824e-001
 2.3803624272e+000	 3.6409304738e+000	-3.7874447186e-001
 2.7575543030e+000	 3.3965451956e+000	-6.3051599838e-001
 2.7223392972e+000	 3.4248348501e+000	-5.9253835698e-001
 2.6868550392e+000	 3.4527431121e+000	-5.6847722851e-001
 2.6511077066e+000	 3.4802662151e+000	-5.5811632395e-001
 2.6151035454e+000	 3.5074005255e+000	-5.6125744832e-001
 2.5788488667e+000	 3.5341425442e+000	-5.7772025550e-001
 2.5423500424e+000	 3.5604889077e+000	-6.0734192060e-001
 2.5056135023e+000	 3.5864363897e+000	-6.4997673242e-001
 2.4686457300e+000	 3.6119819019e+000	-5.7494310136e-001
 2.4314532594e+000	 3.6371224955e+000	-4.9142018594e-001
 2.3940426711e+000	 3.6618553616e+000	-4.2192957663e-001
 2.7733117562e+000	 3.4159540253e+000	-6.1082905396e-001
 2.7378955218e+000	 3.4444053350e+000	-5.6821014743e-001
 2.7022084965e+000	 3.4724730728e+000	-5.4045423873e-001
 2.6662568934e+000	 3.5001534506e+000	-5.2738209534e-001
 2.6300469942e+000	 3.5274428143e+000	-5.2883230944e-001
 2.5935851459e+000	 3.5543376445e+000	-5.4466100775e-001
 2.5568777569e+000	 3.5808345586e+000	-5.7474147856e-001
 2.5199312937e+000	 3.6069303119e+000	-6.1896371842e-001
 2.4827522770e+000	 3.6326217985e+000	-6.0607902031e-001
 2.4453472780e+000	 3.6579060526e+000	-5.2637396054e-001
 2.4077229149e+000	 3.6827802494e+000	-4.6198997990e-001
 2.7890692093e+000	 3.4353628550e+000	-5.8346777620e-001
 2.7534517463e+000	 3.4639758198e+000	-5.3683097872e-001
 2.7175619539e+000	 3.4922030334e+000	-5.0598157188e-001
 2.6814060803e+000	 3.5200406862e+000	-4.9077716482e-001
 2.6449904431e+000	 3.5474851030e+000	-4.9109294864e-001
 2.6083214251e+000	 3.5745327447e+000	-5.0682136130e-001
 2.5714054714e+000	 3.6011802095e+000	-5.3787166916e-001
 2.5342490851e+000	 3.6274242341e+000	-5.8416946786e-001
 2.4968588240e+000	 3.6532616951e+000	-6.3283044208e-001
 2.4592412967e+000	 3.6786896097e+000	-5.5758580652e-001
 2.4214031587e+000	 3.7037051371e+000	-4.9893169000e-001
 2.8048266625e+000	 3.4547716847e+000	-5.4872601796e-001
 2.7690079709e+000	 3.4835463047e+000	-4.9868237233e-001
 2.7329154113e+000	 3.5119329941e+000	-4.6532846874e-001
 2.6965552672e+000	 3.5399279217e+000	-4.4855854908e-001
 2.6599338919e+000	 3.5675273917e+000	-4.4828422114e-001
 2.6230577044e+000	 3.5947278450e+000	-4.6443407848e-001
 2.5859331860e+000	 3.6215258604e+000	-4.9695323649e-001
 2.5485668766e+000	 3.6479181564e+000	-5.4580278718e-001
 2.5109653711e+000	 3.6739015917e+000	-6.1095917547e-001
 2.4731353153e+000	 3.6994731668e+000	-5.8507208939e-001
 2.4350834026e+000	 3.7246300249e+000	-5.3276272244e-001
 2.8205841157e+000	 3.4741805144e+000	-5.0689725647e-001
 2.7845641955e+000	 3.5031167896e+000	-4.5404572817e-001
 2.7482688687e+000	 3.5316629547e+000	-4.1876429807e-001
 2.7117044541e+000	 3.5598151572e+000	-4.0098363778e-001
 2.6748773408e+000	 3.5875696804e+000	-4.0065159542e-001
 2.6377939836e+000	 3.6149229452e+000	-4.1773277045e-001
 2.6004609005e+000	 3.6418715113e+000	-4.5220800407e-001
 2.5628846680e+000	 3.6684120786e+000	-5.0407378790e-001
 2.5250719181e+000	 3.6945414883e+000	-5.7334159367e-001
 2.4870293339e+000	 3.7202567240e+000	-6.0885091566e-001
 2.4487636464e+000	 3.7455549127e+000	-5.6349304388e-001
 2.8363415688e+000	 3.4935893441e+000	-4.5827460383e-001
 2.8001204200e+000	 3.5226872744e+000	-4.0320232797e-001
 2.7636223260e+000	 3.5513929153e+000	-3.6655855308e-001
 2.7268536410e+000	 3.5797023927e+000	-3.4831018320e-001
 2.6898207896e+000	 3.6076119692e+000	-3.4844113623e-001
 2.6525302629e+000	 3.6351180455e+000	-3.6695187357e-001
 2.6149886150e+000	 3.6622171622e+000	-4.0385884487e-001
 2.5772024595e+000	 3.6889060008e+000	-4.5919385032e-001
 2.5391784651e+000	 3.7151813848e+000	-5.3300332373e-001
 2.5009233526e+000	 3.7410402811e+000	-6.2534753943e-001
 2.4624438902e+000	 3.7664798005e+000	-4.7601914672e-001
 2.3256414519e+000	 3.5572309227e+000	-1.7471042860e-001
 2.2890942857e+000	 3.5808584657e+000	-1.6583383157e-001
 2.2523481398e+000	 3.6040848849e+000	-1.7360187359e-001
 2.2154095206e+000	 3.6269078643e+000	-1.9739827284e-001
 2.1782849654e+000	 3.6493252266e+000	-2.3661891878e-001
 2.1409810384e+000	 3.6713349334e+000	-2.9067300727e-001
 2.1035043275e+000	 3.6929350853e+000	-3.5898410485e-001
 2.0658614403e+000	 3.7141239222e+000	-4.4099114091e-001
 2.0280590008e+000	 3.7348998232e+000	-5.3614932648e-001
 1.9901036456e+000	 3.7552613065e+000	-5.8121719494e-001
 1.9520020205e+000	 3.7752070290e+000	-4.5713440458e-001
 2.3393216957e+000	 3.5781558105e+000	-2.3041220550e-001
 2.3025595462e+000	 3.6019223390e+000	-2.3488409512e-001
 2.2655972465e+000	 3.6252853842e+000	-2.5769585926e-001
 2.2284413413e+000	 3.6482426164e+000	-2.9815326987e-001
 2.1910984063e+000	 3.6707918456e+000	-3.5557381807e-001
 2.1535750445e+000	 3.6929310213e+000	-4.2928794402e-001
 2.1158778823e+000	 3.7146582329e+000	-5.1864019502e-001
 2.0780135664e+000	 3.7359717100e+000	-6.2299031003e-001
 2.0399887596e+000	 3.7568698222e+000	-6.6362101172e-001
 2.0018101376e+000	 3.7773510788e+000	-5.5654367480e-001
 1.9634843853e+000	 3.7974141292e+000	-4.5768793604e-001
 2.3530019396e+000	 3.5990806982e+000	-2.8298651051e-001
 2.3160248067e+000	 3.6229862123e+000	-2.9990361582e-001
 2.2788463532e+000	 3.6464858835e+000	-3.3683251893e-001
 2.2414731620e+000	 3.6695773686e+000	-3.9300131984e-001
 2.2039118473e+000	 3.6922584646e+000	-4.6764940659e-001
 2.1661690506e+000	 3.7145271091e+000	-5.6002877986e-001
 2.1282514372e+000	 3.7363813804e+000	-6.6940530439e-001
 2.0901656925e+000	 3.7578194978e+000	-7.1042169126e-001
 2.0519185184e+000	 3.7788398211e+000	-6.1701329057e-001
 2.0135166297e+000	 3.7994408512e+000	-5.3308451296e-001
 1.9749667502e+000	 3.8196212294e+000	-4.5853782213e-001
 2.3666821834e+000	 3.6200055860e+000	-3.3243072246e-001
 2.3294900672e+000	 3.6440500857e+000	-3.6090735545e-001
 2.2920954599e+000	 3.6676863828e+000	-4.1104462028e-001
 2.2545049827e+000	 3.6909121207e+000	-4.8199320858e-001
 2.2167252883e+000	 3.7137250836e+000	-5.7291469009e-001
 2.1787630567e+000	 3.7361231969e+000	-6.8298293151e-001
 2.1406249920e+000	 3.7581045280e+000	-7.2800169369e-001
 2.1023178186e+000	 3.7796672856e+000	-6.4475673750e-001
 2.0638482773e+000	 3.8008098201e+000	-5.7237970535e-001
 2.0252231217e+000	 3.8215306236e+000	-5.1071243236e-001
 1.9864491150e+000	 3.8418283295e+000	-4.5957901145e-001
 2.3803624272e+000	 3.6409304738e+000	-3.7874447186e-001
 2.3429553277e+000	 3.6651139590e+000	-4.1791214557e-001
 2.3053445666e+000	 3.6888868821e+000	-4.8036641164e-001
 2.2675368034e+000	 3.7122468729e+000	-5.6518080670e-001
 2.2295387292e+000	 3.7351917025e+000	-6.7143935644e-001
 2.1913570628e+000	 3.7577192848e+000	-7.2289282465e-001
 2.1529985469e+000	 3.7798276756e+000	-6.4614186875e-001
 2.1144699447e+000	 3.8015150733e+000	-5.8177267153e-001
 2.0757780361e+000	 3.8227798190e+000	-5.2957007355e-001
 2.0369296137e+000	 3.8436203960e+000	-4.8929873213e-001
 1.9979314798e+000	 3.8640354297e+000	-4.6070459065e-001
 2.3940426711e+000	 3.6618553616e+000	-4.2192957663e-001
 2.3564205882e+000	 3.6861778323e+000	-4.7093663406e-001
 2.3185936733e+000	 3.7100873815e+000	-5.4483357981e-001
 2.2805686241e+000	 3.7335816250e+000	-6.4261703856e-001
 2.2423521702e+000	 3.7566583215e+000	-7.0177244761e-001
 2.2039510689e+000	 3.7793153726e+000	-6.2768755980e-001
 2.1653721018e+000	 3.8015508231e+000	-5.6761868843e-001
 2.1266220709e+000	 3.8233628611e+000	-5.2129760001e-001
 2.0877077949e+000	 3.8447498180e+000	-4.8843324997e-001
 2.0486361058e+000	 3.8657101684e+000	-4.6871332830e-001
 2.0094138446e+000	 3.8862425299e+000	-4.6180583759e-001
 2.4077229149e+000	 3.6827802494e+000	-4.6198997990e-001
 2.3698858487e+000	 3.7072417056e+000	-5.2000123354e-001
 2.3318427800e+000	 3.7312878808e+000	-6.0448320908e-001
 2.2936004448e+000	 3.7549163771e+000	-6.7145914573e-001
 2.2551656112e+000	 3.7781249405e+000	-5.9605980964e-001
 2.2165450750e+000	 3.8009114605e+000	-5.3642569760e-001
 2.1777456566e+000	 3.8232739707e+000	-4.9223970221e-001
 2.1387741970e+000	 3.8452106489e+000	-4.6315909748e-001
 2.0996375537e+000	 3.8667198170e+000	-4.4881715409e-001
 2.0603425978e+000	 3.8877999408e+000	-4.4882479310e-001
 2.0208962095e+000	 3.9084496300e+000	-4.6277227275e-001
 2.4214031587e+000	 3.7037051371e+000	-4.9893169000e-001
 2.3833511092e+000	 3.7283055790e+000	-5.6512807156e-001
 2.3450918867e+000	 3.7524883801e+000	-6.3890783652e-001
 2.3066322655e+000	 3.7762511293e+000	-5.5806729023e-001
 2.2679790521e+000	 3.7995915595e+000	-4.9485029603e-001
 2.2291390811e+000	 3.8225075483e+000	-4.4889534471e-001
 2.1901192115e+000	 3.8449971182e+000	-4.1981232903e-001
 2.1509263231e+000	 3.8670584367e+000	-4.0718422142e-001
 2.1115673126e+000	 3.8886898159e+000	-4.1056879649e-001
 2.0720490898e+000	 3.9098897132e+000	-4.2950039286e-001
 2.0323785743e+000	 3.9306567302e+000	-4.6349170889e-001
 2.4350834026e+000	 3.7246300249e+000	-5.3276272244e-001
 2.3968163697e+000	 3.7493694523e+000	-6.0634094233e-001
 2.3583409934e+000	 3.7736888794e+000	-5.2065634739e-001
 2.3196640863e+000	 3.7975858814e+000	-4.4969317371e-001
 2.2807924931e+000	 3.8210581785e+000	-3.9791364712e-001
 2.2417330872e+000	 3.8441036362e+000	-3.6488485117e-001
 2.2024927664e+000	 3.8667202658e+000	-3.5014386092e-001
 2.1630784492e+000	 3.8889062245e+000	-3.5319952679e-001
 2.1234970714e+000	 3.9106598149e+000	-3.7353430440e-001
 2.0837555818e+000	 3.9319794856e+000	-4.1060612476e-001
 2.0438609391e+000	 3.9528638304e+000	-4.6385029897e-001
 2.4487636464e+000	 3.7455549127e+000	-5.6349304388e-001
 2.4102816302e+000	 3.7704333256e+000	-4.9090545753e-001
 2.3715901001e+000	 3.7948893788e+000	-4.0789400103e-001
 2.3326959070e+000	 3.8189206336e+000	-3.4608921020e-001
 2.2936059341e+000	 3.8425247975e+000	-3.0502019429e-001
 2.2543270933e+000	 3.8656997240e+000	-2.8418280359e-001
 2.2148663212e+000	 3.8884434134e+000	-2.8304146658e-001
 2.1752305753e+000	 3.9107540122e+000	-3.0103108003e-001
 2.1354268302e+000	 3.9326298139e+000	-3.3755894636e-001
 2.0954620739e+000	 3.9540692580e+000	-3.9200675225e-001
 2.0553433039e+000	 3.9750709306e+000	-4.6373258255e-001
 2.4624438902e+000	 3.7664798005e+000	-4.7601914672e-001
 2.4237468907e+000	 3.7914971990e+000	-3.7652577084e-001
 2.3848392068e+000	 3.8160898781e+000	-3.0035689026e-001
 2.3457277277e+000	 3.8402553857e+000	-2.4700872761e-001
 2.3064193751e+000	 3.8639914164e+000	-2.1594084359e-001
 2.2669210994e+000	 3.8872958119e+000	-2.0657801859e-001
 2.2272398761e+000	 3.9101665609e+000	-2.1831219477e-001
 2.1873827014e+000	 3.9326018000e+000	-2.5050447265e-001
 2.1473565890e+000	 3.9545998128e+000	-3.0248715605e-001
 2.1071685659e+000	 3.9761590304e+000	-3.7356583932e-001
 2.0668256687e+000	 3.9972780307e+000	-4.6302153060e-001
 1.9520020205e+000	 3.7752070290e+000	-4.5713440458e-001
 1.9137607768e+000	 3.7947357865e+000	-2.7352157270e-001
 1.8753865680e+000	 3.8138465125e+000	-1.1739447364e-001
 1.8368860459e+000	 3.8325382783e+000	-3.8390188945e-002
 1.7982658577e+000	 3.8508102920e+000	 1.9477622582e-002
 1.7595326423e+000	 3.8686618980e+000	 5.6231990730e-002
 1.7206930268e+000	 3.8860925758e+000	 7.1389988749e-002
 1.6817536235e+000	 3.9031019395e+000	 6.4506402920e-002
 1.6427210263e+000	 3.9196897364e+000	 3.5175216558e-002
 1.6036018077e+000	 3.9358558462e+000	-1.6969000785e-002
 1.5644025157e+000	 3.9516002795e+000	-9.2249801773e-002
 1.9634843853e+000	 3.7974141292e+000	-4.5768793604e-001
 1.9250181932e+000	 3.8170577617e+000	-2.9247518087e-001
 1.8864182537e+000	 3.8362809037e+000	-1.5123896529e-001
 1.8476912579e+000	 3.8550826211e+000	-7.1349239073e-002
 1.8088438922e+000	 3.8734621172e+000	-2.5311600855e-002
 1.7698828343e+000	 3.8914187326e+000	 3.1229321791e-003
 1.7308147505e+000	 3.9089519439e+000	 1.3430216668e-002
 1.6916462918e+000	 3.9260613627e+000	 5.1213060089e-003
 1.6523840911e+000	 3.9427467349e+000	-2.2255963321e-002
 1.6130347595e+000	 3.9590079395e+000	-6.9115478982e-002
 1.5736048834e+000	 3.9748449870e+000	-1.3583145662e-001
 1.9749667502e+000	 3.8196212294e+000	-4.5853782213e-001
 1.9362756095e+000	 3.8393797369e+000	-3.1170669374e-001
 1.8974499394e+000	 3.8587152950e+000	-1.8538576182e-001
 1.8584964700e+000	 3.8776269639e+000	-1.0297240471e-001
 1.8194219267e+000	 3.8961139425e+000	-6.8454983859e-002
 1.7802330263e+000	 3.9141755673e+000	-4.8067639371e-002
 1.7409364742e+000	 3.9318113120e+000	-4.2376074081e-002
 1.7015389602e+000	 3.9490207858e+000	-5.1913282993e-002
 1.6620471560e+000	 3.9658037333e+000	-7.7177864260e-002
 1.6224677113e+000	 3.9821600327e+000	-1.1863242251e-001
 1.5828072511e+000	 3.9980896946e+000	-1.7670206778e-001
 1.9864491150e+000	 3.8418283295e+000	-4.5957901145e-001
 1.9475330258e+000	 3.8617017121e+000	-3.3111783215e-001
 1.9084816251e+000	 3.8811496862e+000	-2.1974275005e-001
 1.8693016820e+000	 3.9001713067e+000	-1.3352484819e-001
 1.8299999611e+000	 3.9187657677e+000	-1.1021457810e-001
 1.7905832183e+000	 3.9369324020e+000	-9.7597975287e-002
 1.7510581979e+000	 3.9546706801e+000	-9.6282652818e-002
 1.7114316286e+000	 3.9719802090e+000	-1.0684597784e-001
 1.6717102208e+000	 3.9888607318e+000	-1.2983327948e-001
 1.6319006631e+000	 4.0053121259e+000	-1.6575614798e-001
 1.5920096189e+000	 4.0213344021e+000	-2.1509082839e-001
 1.9979314798e+000	 3.8640354297e+000	-4.6070459065e-001
 1.9587904422e+000	 3.8840236873e+000	-3.5060837375e-001
 1.9195133107e+000	 3.9035840775e+000	-2.5421580801e-001
 1.8801068940e+000	 3.9227156495e+000	-1.7108481468e-001
 1.8405779956e+000	 3.9414175930e+000	-1.5085034172e-001
 1.8009334104e+000	 3.9596892367e+000	-1.4572421421e-001
 1.7611799216e+000	 3.9775300482e+000	-1.4854117227e-001
 1.7213242970e+000	 3.9949396322e+000	-1.5992328707e-001
 1.6813732857e+000	 4.0119177302e+000	-1.8046292358e-001
 1.6413336149e+000	 4.0284642191e+000	-2.1072093500e-001
 1.6012119866e+000	 4.0445791096e+000	-2.5122495112e-001
 2.0094138446e+000	 3.8862425299e+000	-4.6180583759e-001
 1.9700478585e+000	 3.9063456625e+000	-3.7007620855e-001
 1.9305449964e+000	 3.9260184687e+000	-2.8870886231e-001
 1.8909121061e+000	 3.9452599923e+000	-2.1725143116e-001
 1.8511560300e+000	 3.9640694182e+000	-1.9062019916e-001
 1.8112836024e+000	 3.9824460714e+000	-1.9270044242e-001
 1.7713016452e+000	 4.0003894163e+000	-1.9940122905e-001
 1.7312169653e+000	 4.0178990554e+000	-2.1138967421e-001
 1.6910363506e+000	 4.0349747287e+000	-2.2930549186e-001
 1.6507665667e+000	 4.0516163123e+000	-2.5375908434e-001
 1.6104143544e+000	 4.0678238172e+000	-2.8532972481e-001
 2.0208962095e+000	 3.9084496300e+000	-4.6277227275e-001
 1.9813052748e+000	 3.9286676378e+000	-3.8941739251e-001
 1.9415766821e+000	 3.9484528600e+000	-3.2312394358e-001
 1.9017173181e+000	 3.9678043352e+000	-2.6342881221e-001
 1.8617340645e+000	 3.9867212435e+000	-2.2978009893e-001
 1.8216337944e+000	 4.0052029061e+000	-2.3877875215e-001
 1.7814233689e+000	 4.0232487843e+000	-2.4911042207e-001
 1.7411096337e+000	 4.0408584785e+000	-2.6148761578e-001
 1.7006994154e+000	 4.0580317271e+000	-2.7659771777e-001
 1.6601995186e+000	 4.0747684055e+000	-2.9510097418e-001
 1.6196167221e+000	 4.0910685247e+000	-3.1762856908e-001
 2.0323785743e+000	 3.9306567302e+000	-4.6349170889e-001
 1.9925626912e+000	 3.9509896130e+000	-4.0852619936e-001
 1.9526083678e+000	 3.9708872512e+000	-3.5736124004e-001
 1.9125225301e+000	 3.9903486780e+000	-3.0952251262e-001
 1.8723120989e+000	 4.0093730687e+000	-2.6858406942e-001
 1.8319839864e+000	 4.0279597408e+000	-2.8420929787e-001
 1.7915450926e+000	 4.0461081524e+000	-2.9791440895e-001
 1.7510023021e+000	 4.0638179017e+000	-3.1045765750e-001
 1.7103624803e+000	 4.0810887256e+000	-3.2257442828e-001
 1.6696324704e+000	 4.0979204987e+000	-3.3497511439e-001
 1.6288190898e+000	 4.1143132322e+000	-3.4834308714e-001
 2.0438609391e+000	 3.9528638304e+000	-4.6385029897e-001
 2.0038201075e+000	 3.9733115882e+000	-4.2729517068e-001
 1.9636400535e+000	 3.9933216425e+000	-3.9131914923e-001
 1.9233277422e+000	 4.0128930208e+000	-3.5543625187e-001
 1.8828901334e+000	 4.0320248940e+000	-3.1915663323e-001
 1.8423341784e+000	 4.0507165755e+000	-3.2924035080e-001
 1.8016668163e+000	 4.0689675205e+000	-3.4605696059e-001
 1.7608949704e+000	 4.0867773249e+000	-3.5853846852e-001
 1.7200255451e+000	 4.1041457241e+000	-3.6746859744e-001
 1.6790654222e+000	 4.1210725920e+000	-3.7360819903e-001
 1.6380214576e+000	 4.1375579397e+000	-3.7769311683e-001
 2.0553433039e+000	 3.9750709306e+000	-4.6373258255e-001
 2.0150775238e+000	 3.9956335634e+000	-4.4561516428e-001
 1.9746717392e+000	 4.0157560337e+000	-4.2489432806e-001
 1.9341329542e+000	 4.0354373636e+000	-4.0107196537e-001
 1.8934681678e+000	 4.0546767192e+000	-3.7364876782e-001
 1.8526843704e+000	 4.0734734102e+000	-3.7411835143e-001
 1.8117885400e+000	 4.0918268886e+000	-3.9378001383e-001
 1.7707876388e+000	 4.1097367481e+000	-4.0596689380e-001
 1.7296886100e+000	 4.1272027225e+000	-4.1151139814e-001
 1.6884983740e+000	 4.1442246852e+000	-4.1122515706e-001
 1.6472238253e+000	 4.1608026473e+000	-4.0589677991e-001
 2.0668256687e+000	 3.9972780307e+000	-4.6302153060e-001
 2.0263349401e+000	 4.0179555386e+000	-4.6337540095e-001
 1.9857034249e+000	 4.0381904250e+000	-4.5798174114e-001
 1.9449381662e+000	 4.0579817064e+000	-4.4632985404e-001
 1.9040462023e+000	 4.0773285445e+000	-4.2791048090e-001
 1.8630345624e+000	 4.0962302449e+000	-4.1908796044e-001
 1.8219102636e+000	 4.1146862567e+000	-4.4132372243e-001
 1.7806803072e+000	 4.1326961712e+000	-4.5297800478e-001
 1.7393516748e+000	 4.1502597210e+000	-4.5493225214e-001
 1.6979313258e+000	 4.1673767784e+000	-4.4804920139e-001
 1.6564261930e+000	 4.1840473548e+000	-4.3317052976e-001
 1.5644025157e+000	 3.9516002795e+000	-9.2249801773e-002
 1.5251296703e+000	 3.9669231766e+000	-1.8215462960e-001
 1.4857897608e+000	 3.9818248061e+000	-2.4897886456e-001
 1.4463892427e+000	 3.9963055637e+000	-2.9300430868e-001
 1.4069345349e+000	 4.0103659702e+000	-3.1450733291e-001
 1.3674320163e+000	 4.0240066701e+000	-3.1375740253e-001
 1.3278880237e+000	 4.0372284301e+000	-2.9101567131e-001
 1.2883088488e+000	 4.0500321369e+000	-2.4653364689e-001
 1.2487007353e+000	 4.0624187960e+000	-1.8397228893e-001
 1.2090698765e+000	 4.0743895290e+000	-2.1009885499e-001
 1.1694224131e+000	 4.0859455723e+000	-2.3257851988e-001
 1.5736048834e+000	 3.9748449870e+000	-1.3583145662e-001
 1.5341010213e+000	 3.9902580188e+000	-2.1172614091e-001
 1.4945297006e+000	 4.0052473050e+000	-2.6611740567e-001
 1.4548974148e+000	 4.0198132435e+000	-2.9936160491e-001
 1.4152106204e+000	 4.0339563582e+000	-3.1180700372e-001
 1.3754757340e+000	 4.0476772976e+000	-3.0379224562e-001
 1.3356991298e+000	 4.0609768326e+000	-2.7564489374e-001
 1.2958871362e+000	 4.0738558554e+000	-2.2768004807e-001
 1.2560460337e+000	 4.0863153771e+000	-1.6019904115e-001
 1.2161820523e+000	 4.0983565262e+000	-1.7095527292e-001
 1.1763013684e+000	 4.1099805463e+000	-1.9606312817e-001
 1.5828072511e+000	 3.9980896946e+000	-1.7670206778e-001
 1.5430723723e+000	 4.0135928610e+000	-2.3958592275e-001
 1.5032696403e+000	 4.0286698039e+000	-2.8252548097e-001
 1.4634055868e+000	 4.0433209233e+000	-3.0595171784e-001
 1.4234867059e+000	 4.0575467463e+000	-3.1028486840e-001
 1.3835194518e+000	 4.0713479250e+000	-2.9593283626e-001
 1.3435102358e+000	 4.0847252351e+000	-2.6328968117e-001
 1.3034654235e+000	 4.0976795738e+000	-2.1273418789e-001
 1.2633913321e+000	 4.1102119583e+000	-1.4462851826e-001
 1.2232942280e+000	 4.1223235234e+000	-1.3654533606e-001
 1.1831803238e+000	 4.1340155202e+000	-1.6443466998e-001
 1.5920096189e+000	 4.0213344021e+000	-2.1509082839e-001
 1.5520437233e+000	 4.0369277032e+000	-2.6593734019e-001
 1.5120095801e+000	 4.0520923027e+000	-2.9838099130e-001
 1.4719137588e+000	 4.0668286031e+000	-3.1292745920e-001
 1.4317627914e+000	 4.0811371344e+000	-3.1006903576e-001
 1.3915631695e+000	 4.0950185525e+000	-2.9028297704e-001
 1.3513213418e+000	 4.1084736377e+000	-2.5402993704e-001
 1.3110437108e+000	 4.1215032923e+000	-2.0175248744e-001
 1.2707366306e+000	 4.1341085394e+000	-1.3387372585e-001
 1.2304064038e+000	 4.1462905207e+000	-1.0728000224e-001
 1.1900592792e+000	 4.1580504942e+000	-1.3807011091e-001
 1.6012119866e+000	 4.0445791096e+000	-2.5122495112e-001
 1.5610150743e+000	 4.0602625455e+000	-2.9098226460e-001
 1.5207495199e+000	 4.0755148016e+000	-3.1386082245e-001
 1.4804219308e+000	 4.0903362829e+000	-3.2044109617e-001
 1.4400388769e+000	 4.1047275224e+000	-3.1128753206e-001
 1.3996068873e+000	 4.1186891800e+000	-2.8694684158e-001
 1.3591324478e+000	 4.1322220402e+000	-2.4794638059e-001
 1.3186219982e+000	 4.1453270108e+000	-1.9479261965e-001
 1.2780819290e+000	 4.1580051206e+000	-1.2796970789e-001
 1.2375185795e+000	 4.1702575179e+000	-8.3572326129e-002
 1.1969382346e+000	 4.1820854681e+000	-1.1734892218e-001
 1.6104143544e+000	 4.0678238172e+000	-2.8532972481e-001
 1.5699864253e+000	 4.0835973877e+000	-3.1492111635e-001
 1.5294894596e+000	 4.0989373005e+000	-3.2914087422e-001
 1.4889301028e+000	 4.1138439627e+000	-3.2864436690e-001
 1.4483149624e+000	 4.1283179105e+000	-3.1406830343e-001
 1.4076506050e+000	 4.1423598075e+000	-2.8602896388e-001
 1.3669435539e+000	 4.1559704427e+000	-2.4512052356e-001
 1.3262002855e+000	 4.1691507292e+000	-1.9191347346e-001
 1.2854272275e+000	 4.1819017017e+000	-1.2695313920e-001
 1.2446307552e+000	 4.1942245151e+000	-6.5837399337e-002
 1.2038171899e+000	 4.2061204421e+000	-1.0265300905e-001
 1.6196167221e+000	 4.0910685247e+000	-3.1762856908e-001
 1.5789577763e+000	 4.1069322299e+000	-3.3795290602e-001
 1.5382293994e+000	 4.1223597993e+000	-3.4439608842e-001
 1.4974382748e+000	 4.1373516424e+000	-3.3768849557e-001
 1.4565910479e+000	 4.1519082985e+000	-3.1853921810e-001
 1.4156943227e+000	 4.1660304349e+000	-2.8763422808e-001
 1.3747546599e+000	 4.1797188453e+000	-2.4563464768e-001
 1.3337785729e+000	 4.1929744477e+000	-1.9317511932e-001
 1.2927725259e+000	 4.2057982829e+000	-1.3086227919e-001
 1.2517429310e+000	 4.2181915124e+000	-5.9273336171e-002
 1.2106961453e+000	 4.2301554161e+000	-9.4366641674e-002
 1.6288190898e+000	 4.1143132322e+000	-3.4834308714e-001
 1.5879291273e+000	 4.1302670721e+000	-3.6027527420e-001
 1.5469693392e+000	 4.1457822982e+000	-3.5980047593e-001
 1.5059464469e+000	 4.1608593222e+000	-3.4772420690e-001
 1.4648671334e+000	 4.1754986866e+000	-3.2482806863e-001
 1.4237380405e+000	 4.1897010624e+000	-2.9186785857e-001
 1.3825657659e+000	 4.2034672478e+000	-2.4957178291e-001
 1.3413568602e+000	 4.2167981661e+000	-1.9863877578e-001
 1.3001178244e+000	 4.2296948641e+000	-1.3973692705e-001
 1.2588551067e+000	 4.2421585096e+000	-7.3502020405e-002
 1.2175751007e+000	 4.2541903900e+000	-9.2876388293e-002
 1.6380214576e+000	 4.1375579397e+000	-3.7769311683e-001
 1.5969004783e+000	 4.1536019143e+000	-3.8208453002e-001
 1.5557092789e+000	 4.1692047970e+000	-3.7552714281e-001
 1.5144546189e+000	 4.1843670020e+000	-3.5890174019e-001
 1.4731432189e+000	 4.1990890747e+000	-3.3306257402e-001
 1.4317817582e+000	 4.2133716899e+000	-2.9883541046e-001
 1.3903768719e+000	 4.2272156503e+000	-2.5701568642e-001
 1.3489351476e+000	 4.2406218846e+000	-2.0836677729e-001
 1.3074631228e+000	 4.2535914452e+000	-1.5361837850e-001
 1.2659672825e+000	 4.2661255068e+000	-9.3465002443e-002
 1.2244540561e+000	 4.2782253640e+000	-9.8571050679e-002
 1.6472238253e+000	 4.1608026473e+000	-4.0589677991e-001
 1.6058718293e+000	 4.1769367565e+000	-4.0357568832e-001
 1.5644492187e+000	 4.1926272959e+000	-3.9174831565e-001
 1.5229627909e+000	 4.2078746818e+000	-3.7137086286e-001
 1.4814193044e+000	 4.2226794627e+000	-3.4337038174e-001
 1.4398254760e+000	 4.2370423173e+000	-3.0864276031e-001
 1.3981879779e+000	 4.2509640528e+000	-2.6805082228e-001
 1.3565134349e+000	 4.2644456030e+000	-2.2242254297e-001
 1.3148084213e+000	 4.2774880264e+000	-1.7254938404e-001
 1.2730794582e+000	 4.2900925040e+000	-1.1918474880e-001
 1.2313330114e+000	 4.3022603379e+000	-1.1184160175e-001
 1.6564261930e+000	 4.1840473548e+000	-4.3317052976e-001
 1.6148431803e+000	 4.2002715988e+000	-4.2494250560e-001
 1.5731891585e+000	 4.2160497947e+000	-4.0863536594e-001
 1.5314709629e+000	 4.2313823616e+000	-3.8528088357e-001
 1.4896953899e+000	 4.2462698508e+000	-3.5587906978e-001
 1.4478691937e+000	 4.2607129448e+000	-3.2139609722e-001
 1.4059990840e+000	 4.2747124554e+000	-2.8276234184e-001
 1.3640917223e+000	 4.2882693215e+000	-2.4087054652e-001
 1.3221537197e+000	 4.3013846075e+000	-1.9657410847e-001
 1.2801916340e+000	 4.3140595013e+000	-1.5068549244e-001
 1.2382119668e+000	 4.3262953119e+000	-1.3308112525e-001
 1.1694224131e+000	 4.0859455723e+000	-2.3257851988e-001
 1.1297644301e+000	 4.0970882749e+000	-1.8017243295e-001
 1.0901019551e+000	 4.1078190963e+000	-1.2880871600e-001
 1.0504409556e+000	 4.1181396041e+000	-7.9078334437e-002
 1.0107873370e+000	 4.1280514725e+000	-3.1564838488e-002
 9.7114694021e-001	 4.1375564794e+000	 1.3159812872e-002
 9.3152554013e-001	 4.1466565047e+000	 5.4539283736e-002
 8.9192884318e-001	 4.1553535275e+000	 9.2036740878e-002
 8.5236248567e-001	 4.1636496242e+000	 1.2513857390e-001
 8.1283203195e-001	 4.1715469658e+000	 1.5335794939e-001
 7.7334297274e-001	 4.1790478158e+000	 1.7623819319e-001
 1.1763013684e+000	 4.1099805463e+000	-1.9606312817e-001
 1.1364101032e+000	 4.1211887942e+000	-1.5854322017e-001
 1.0965143196e+000	 4.1319827380e+000	-1.2003093642e-001
 1.0566200201e+000	 4.1423639547e+000	-8.1154930382e-002
 1.0167331448e+000	 4.1523341282e+000	-4.2538128363e-002
 9.7685956928e-001	 4.1618950470e+000	-4.7934144213e-003
 9.3700510214e-001	 4.1710486018e+000	 3.1480538833e-002
 8.9717548344e-001	 4.1797967836e+000	 6.5703285365e-002
 8.5737638264e-001	 4.1881416808e+000	 9.7316459238e-002
 8.1761339685e-001	 4.1960854774e+000	 1.2578745976e-001
 7.7789204906e-001	 4.2036304500e+000	 1.5061296216e-001
 1.1831803238e+000	 4.1340155202e+000	-1.6443466998e-001
 1.1430557764e+000	 4.1452893135e+000	-1.4029289166e-001
 1.1029266840e+000	 4.1561463797e+000	-1.1314615772e-001
 1.0627990845e+000	 4.1665883053e+000	-8.3662170612e-002
 1.0226789527e+000	 4.1766167839e+000	-5.2504566929e-002
 9.8257219834e-001	 4.1862336145e+000	-2.0328461707e-002
 9.4248466414e-001	 4.1954406989e+000	 1.2223859769e-002
 9.0242212370e-001	 4.2042400396e+000	 4.4527094110e-002
 8.6239027962e-001	 4.2126337374e+000	 7.5976908156e-002
 8.2239476175e-001	 4.2206239889e+000	 1.0599375646e-001
 7.8244112537e-001	 4.2282130842e+000	 1.3402652167e-001
 1.1900592792e+000	 4.1580504942e+000	-1.3807011091e-001
 1.1497014495e+000	 4.1693898327e+000	-1.2579299762e-001
 1.1093390485e+000	 4.1803100215e+000	-1.0851993398e-001
 1.0689781490e+000	 4.1908126559e+000	-8.6959044568e-002
 1.0286247606e+000	 4.2008994397e+000	-6.1816022996e-002
 9.8828482740e-001	 4.2105721820e+000	-3.3789533841e-002
 9.4796422615e-001	 4.2198327960e+000	-3.5667638758e-003
 9.0766876395e-001	 4.2286832957e+000	 2.8180868622e-002
 8.6740417660e-001	 4.2371257940e+000	 6.0801838454e-002
 8.2717612664e-001	 4.2451625005e+000	 9.3668464714e-002
 7.8699020168e-001	 4.2527957184e+000	 1.2618068211e-001
 1.1969382346e+000	 4.1820854681e+000	-1.1734892218e-001
 1.1563471226e+000	 4.1934903520e+000	-1.1541734306e-001
 1.1157514129e+000	 4.2044736632e+000	-1.0651983418e-001
 1.0751572134e+000	 4.2150370066e+000	-9.1406327730e-002
 1.0345705684e+000	 4.2251820954e+000	-7.0825933533e-002
 9.9399745647e-001	 4.2349107496e+000	-4.5522196953e-002
 9.5344378815e-001	 4.2442248931e+000	-1.6228507905e-002
 9.1291540421e-001	 4.2531265517e+000	 1.6336329918e-002
 8.7241807358e-001	 4.2616178507e+000	 5.1472361356e-002
 8.3195749154e-001	 4.2697010121e+000	 8.8502566096e-002
 7.9153927800e-001	 4.2773783526e+000	 1.2677676227e-001
 1.2038171899e+000	 4.2061204421e+000	-1.0265300905e-001
 1.1629927957e+000	 4.2175908713e+000	-1.0954192337e-001
 1.1221637773e+000	 4.2286373050e+000	-1.0751538469e-001
 1.0813362778e+000	 4.2392613572e+000	-9.7366530596e-002
 1.0405163763e+000	 4.2494647511e+000	-7.9889258861e-002
 9.9971008553e-001	 4.2592493171e+000	-5.5873339547e-002
 9.5892335015e-001	 4.2686169902e+000	-2.6099680210e-002
 9.1816204446e-001	 4.2775698078e+000	 8.6642465394e-003
 8.7743197055e-001	 4.2861099073e+000	 4.7668804552e-002
 8.3673885643e-001	 4.2942395236e+000	 9.0186416969e-002
 7.9608835431e-001	 4.3019609868e+000	 1.3551560340e-001
 1.2106961453e+000	 4.2301554161e+000	-9.4366641674e-002
 1.1696384688e+000	 4.2416913905e+000	-1.0854486206e-001
 1.1285761418e+000	 4.2528009467e+000	-1.1187801359e-001
 1.0875153423e+000	 4.2634857078e+000	-1.0520384939e-001
 1.0464621842e+000	 4.2737474068e+000	-8.9362439377e-002
 1.0054227146e+000	 4.2835878846e+000	-6.5191134942e-002
 9.6440291215e-001	 4.2930090873e+000	-3.3519688613e-002
 9.2340868472e-001	 4.3020130638e+000	 4.8344616068e-003
 8.8244586753e-001	 4.3106019639e+000	 4.9070734465e-002
 8.4152022133e-001	 4.3187780352e+000	 9.8409766227e-002
 8.0063743062e-001	 4.3265436210e+000	 1.5209758279e-001
 1.2175751007e+000	 4.2541903900e+000	-9.2876388293e-002
 1.1762841420e+000	 4.2657919098e+000	-1.1280635068e-001
 1.1349885062e+000	 4.2769645885e+000	-1.1998099703e-001
 1.0936944067e+000	 4.2877100584e+000	-1.1528411844e-001
 1.0524079920e+000	 4.2980300625e+000	-9.9603353745e-002
 1.0111353436e+000	 4.3079264521e+000	-7.3825004969e-002
 9.6988247415e-001	 4.3174011843e+000	-3.8829009786e-002
 9.2865532497e-001	 4.3264563199e+000	 4.5159189662e-003
 8.8745976450e-001	 4.3350940205e+000	 5.5356977748e-002
 8.4630158622e-001	 4.3433165468e+000	 1.1286177246e-001
 8.0518650693e-001	 4.3511262553e+000	 1.7622262684e-001
 1.2244540561e+000	 4.2782253640e+000	-9.8571050679e-002
 1.1829298151e+000	 4.2898924291e+000	-1.2270859073e-001
 1.1414008707e+000	 4.3011282302e+000	-1.3219940726e-001
 1.0998734712e+000	 4.3119344090e+000	-1.2797476415e-001
 1.0583537999e+000	 4.3223127183e+000	-1.1097127849e-001
 1.0168479727e+000	 4.3322650197e+000	-8.2125584907e-002
 9.7536203615e-001	 4.3417932814e+000	-4.2369159239e-002
 9.3390196523e-001	 4.3508995759e+000	 7.3766884468e-003
 8.9247366148e-001	 4.3595860771e+000	 6.6205642072e-002
 8.5108295112e-001	 4.3678550583e+000	 1.3323102053e-001
 8.0973558324e-001	 4.3757088895e+000	 2.0335844978e-001
 1.2313330114e+000	 4.3022603379e+000	-1.1184160175e-001
 1.1895754882e+000	 4.3139929483e+000	-1.3863573749e-001
 1.1478132351e+000	 4.3252918719e+000	-1.4891006247e-001
 1.1060525356e+000	 4.3361587596e+000	-1.4364476058e-001
 1.0642996077e+000	 4.3465953740e+000	-1.2382684896e-001
 1.0225606018e+000	 4.3566035872e+000	-9.0444689586e-002
 9.8084159815e-001	 4.3661853785e+000	-4.4482662291e-002
 9.3914860548e-001	 4.3753428319e+000	 1.0506997442e-002
 8.9748755845e-001	 4.3840781337e+000	 1.6560180335e-002
 8.5586431601e-001	 4.3923935699e+000	 4.2753884716e-002
 8.1428465955e-001	 4.4002915237e+000	 8.8868984205e-002
 1.2382119668e+000	 4.3262953119e+000	-1.3308112525e-001
 1.1962211613e+000	 4.3380934676e+000	-1.6097384578e-001
 1.1542255995e+000	 4.3494555137e+000	-1.7049147832e-001
 1.1122316001e+000	 4.3603831102e+000	-1.6266458638e-001
 1.0702454156e+000	 4.3708780297e+000	-1.3853202158e-001
 1.0282732308e+000	 4.3809421547e+000	-1.4805233205e-001
 9.8632116015e-001	 4.3905774756e+000	-1.6970193673e-001
 9.4439524573e-001	 4.3997860880e+000	-1.6866759225e-001
 9.0250145542e-001	 4.4085701903e+000	-1.4501361305e-001
 8.6064568090e-001	 4.4169320814e+000	-9.8871463806e-002
 8.1883373586e-001	 4.4248741579e+000	-3.0440028101e-002
 7.7334297274e-001	 4.1790478158e+000	 1.7623819319e-001
 7.3390072346e-001	 4.1861545275e+000	 9.9144579026e-002
 6.9451062271e-001	 4.1928695419e+000	 4.4473588931e-002
 6.5517793079e-001	 4.1991953847e+000	 1.1969621002e-002
 6.1590782834e-001	 4.2051346646e+000	 8.8852351486e-003
 5.7670541504e-001	 4.2106900698e+000	 3.6221602337e-002
 5.3757570840e-001	 4.2158643666e+000	 6.0255967691e-002
 4.9852364261e-001	 4.2206603959e+000	 8.2465246707e-002
 4.5955406749e-001	 4.2250810713e+000	 1.0408392685e-001
 4.2067174755e-001	 4.2291293762e+000	 1.2610416965e-001
 3.8188136106e-001	 4.2328083616e+000	 1.4927648156e-001
 7.7789204906e-001	 4.2036304500e+000	 1.5061296216e-001
 7.3821778655e-001	 4.2107789659e+000	 8.2155587313e-002
 6.9859597932e-001	 4.2175334803e+000	 3.2554695289e-002
 6.5903191862e-001	 4.2238965340e+000	 1.5186977613e-003
 6.1953081557e-001	 4.2298707508e+000	-5.4854395416e-003
 5.8009779984e-001	 4.2354588350e+000	 2.7748151807e-002
 5.4073791845e-001	 4.2406635688e+000	 5.6525083979e-002
 5.0145613463e-001	 4.2454878100e+000	 8.2424179528e-002
 4.6225732672e-001	 4.2499344894e+000	 1.0677765406e-001
 4.2314628725e-001	 4.2540066078e+000	 1.3067113819e-001
 3.8412772201e-001	 4.2577072343e+000	 1.5494428020e-001
 7.8244112537e-001	 4.2282130842e+000	 1.3402652167e-001
 7.4253484963e-001	 4.2354034043e+000	 7.4590009345e-002
 7.0268133592e-001	 4.2421974188e+000	 3.0471699451e-002
 6.6288590645e-001	 4.2485976834e+000	 1.3427519675e-003
 6.2315380280e-001	 4.2546068371e+000	-1.0866452870e-002
 5.8349018464e-001	 4.2602276001e+000	 2.6129343497e-002
 5.4390012851e-001	 4.2654627709e+000	 5.7599942234e-002
 5.0438862665e-001	 4.2703152241e+000	 8.5227813869e-002
 4.6496058594e-001	 4.2747879074e+000	 1.1044452086e-001
 4.2562082694e-001	 4.2788838395e+000	 1.3443065945e-001
 3.8637408296e-001	 4.2826061070e+000	 1.5811639440e-001
 7.8699020168e-001	 4.2527957184e+000	 1.2618068211e-001
 7.4685191271e-001	 4.2600278427e+000	 7.6174941880e-002
 7.0676669253e-001	 4.2668613573e+000	 3.7976355896e-002
 6.6673989428e-001	 4.2732988327e+000	 1.1217557747e-002
 6.2677679003e-001	 4.2793429233e+000	-4.4421711065e-003
 5.8688256944e-001	 4.2849963652e+000	 3.1828112994e-002
 5.4706233856e-001	 4.2902619731e+000	 6.3917957275e-002
 5.0732111866e-001	 4.2951426382e+000	 9.1287958940e-002
 4.6766384517e-001	 4.2996413255e+000	 1.1547066681e-001
 4.2809536664e-001	 4.3037610711e+000	 1.3774315959e-001
 3.8862044392e-001	 4.3075049798e+000	 1.5912751280e-001
 7.9153927800e-001	 4.2773783526e+000	 1.2677676227e-001
 7.5116897579e-001	 4.2846522811e+000	 8.6636794734e-002
 7.1085204914e-001	 4.2915252958e+000	 5.4819550767e-002
 6.7059388211e-001	 4.2979999820e+000	 3.0917853401e-002
 6.3039977725e-001	 4.3040790096e+000	 1.4554954358e-002
 5.9027495423e-001	 4.3097651303e+000	 4.5306066562e-002
 5.5022454861e-001	 4.3150611753e+000	 7.5915088441e-002
 5.1025361068e-001	 4.3199700523e+000	 1.0101485596e-001
 4.7036710439e-001	 4.3244947436e+000	 1.2224056454e-001
 4.3056990634e-001	 4.3286383027e+000	 1.4096731227e-001
 3.9086680487e-001	 4.3324038525e+000	 1.5831049941e-001
 7.9608835431e-001	 4.3019609868e+000	 1.3551560340e-001
 7.5548603887e-001	 4.3092767195e+000	 1.0570131041e-001
 7.1493740575e-001	 4.3161892343e+000	 8.0751326684e-002
 6.7444786994e-001	 4.3227011313e+000	 6.0217371001e-002
 6.3402276448e-001	 4.3288150959e+000	 4.3685380913e-002
 5.9366733903e-001	 4.3345338954e+000	 6.7023519114e-002
 5.5338675867e-001	 4.3398603774e+000	 9.4025881180e-002
 5.1318610270e-001	 4.3447974664e+000	 1.1481722294e-001
 4.7307036361e-001	 4.3493481616e+000	 1.3113706730e-001
 4.3304444603e-001	 4.3535155343e+000	 1.4446008879e-001
 3.9311316582e-001	 4.3573027252e+000	 1.5599644576e-001
 8.0063743062e-001	 4.3265436210e+000	 1.5209758279e-001
 7.5980310196e-001	 4.3339011579e+000	 1.3309358305e-001
 7.1902276235e-001	 4.3408531727e+000	 1.1552090670e-001
 6.7830185777e-001	 4.3474022807e+000	 9.8888864973e-002
 6.3764575171e-001	 4.3535511821e+000	 8.2744787744e-002
 5.9705972383e-001	 4.3593026605e+000	 9.7439530902e-002
 5.5654896872e-001	 4.3646595796e+000	 1.1868350722e-001
 5.1611859472e-001	 4.3696248805e+000	 1.3310229800e-001
 4.7577362284e-001	 4.3742015797e+000	 1.4254145505e-001
 4.3551898573e-001	 4.3783927660e+000	 1.4958444257e-001
 3.9535952677e-001	 4.3822015979e+000	 1.5715867541e-001
 8.0518650693e-001	 4.3511262553e+000	 1.7622262684e-001
 7.6412016504e-001	 4.3585255963e+000	 1.6853807677e-001
 7.2310811896e-001	 4.3655171112e+000	 1.5887671747e-001
 6.8215584560e-001	 4.3721034300e+000	 1.4670413972e-001
 6.4126873894e-001	 4.3782872684e+000	 1.2151354489e-001
 6.0045210862e-001	 4.3840714257e+000	 1.1649276095e-001
 5.5971117877e-001	 4.3894587817e+000	 1.2799807103e-001
 5.1905108674e-001	 4.3944522946e+000	 1.3860791532e-001
 4.7847688206e-001	 4.3990549978e+000	 1.4826537804e-001
 4.3799352542e-001	 4.4032699976e+000	 1.5682682498e-001
 3.9760588772e-001	 4.4071004706e+000	 1.6406428815e-001
 8.0973558324e-001	 4.3757088895e+000	 2.0335844978e-001
 7.6843722812e-001	 4.3831500347e+000	 1.6771045829e-001
 7.2719347556e-001	 4.3901810497e+000	 1.3788201103e-001
 6.8600983343e-001	 4.3968045793e+000	 1.1363711160e-001
 6.4489172617e-001	 4.4030233546e+000	 9.4684867765e-002
 6.0384449342e-001	 4.4088401908e+000	 9.8129658536e-002
 5.6287338882e-001	 4.4142579839e+000	 1.1693503763e-001
 5.2198357876e-001	 4.4192797087e+000	 1.3288721354e-001
 4.8118014128e-001	 4.4239084158e+000	 1.4594410537e-001
 4.4046806511e-001	 4.4281472292e+000	 1.5597699899e-001
 3.9985224867e-001	 4.4319993433e+000	 1.6277292013e-001
 8.1428465955e-001	 4.4002915237e+000	 8.8868984205e-002
 7.7275429120e-001	 4.4077744731e+000	 7.6615584507e-002
 7.3127883217e-001	 4.4148449882e+000	 6.7898752908e-002
 6.8986382126e-001	 4.4215057286e+000	 6.2503548353e-002
 6.4851471339e-001	 4.4277594409e+000	 6.0160970725e-002
 6.0723687822e-001	 4.4336089559e+000	 7.2657131506e-002
 5.6603559887e-001	 4.4390571860e+000	 9.8459470626e-002
 5.2491607077e-001	 4.4441071228e+000	 1.1950113631e-001
 4.8388340051e-001	 4.4487618339e+000	 1.3575469508e-001
 4.4294260481e-001	 4.4530244608e+000	 1.4710612385e-001
 4.0209860962e-001	 4.4568982160e+000	 1.5335717242e-001
 8.1883373586e-001	 4.4248741579e+000	-3.0440028101e-002
 7.7707135428e-001	 4.4323989115e+000	-2.0044034279e-002
 7.3536418877e-001	 4.4395089267e+000	-8.3534492425e-003
 6.9371780909e-001	 4.4462068779e+000	 4.4382134288e-003
 6.5213770062e-001	 4.4524955272e+000	 1.8084179428e-002
 6.1062926301e-001	 4.4583777210e+000	 4.0136114846e-002
 5.6919780892e-001	 4.4638563882e+000	 7.2634982135e-002
 5.2784856279e-001	 4.4689345369e+000	 9.8515643943e-002
 4.8658665973e-001	 4.4736152520e+000	 1.1776512999e-001
 4.4541714450e-001	 4.4779016925e+000	 1.3028388246e-001
 4.0434497057e-001	 4.4817970888e+000	 1.3588810901e-001
 3.8188136106e-001	 4.2328083616e+000	 1.4927648156e-001
 3.4318749924e-001	 4.2361211433e+000	 1.5122860081e-001
 3.0459466554e-001	 4.2390708994e+000	 1.5384515419e-001
 2.6610727498e-001	 4.2416608679e+000	 1.5702249757e-001
 2.2772965353e-001	 4.2438943442e+000	 1.6042753342e-001
 1.8946603763e-001	 4.2457746785e+000	 1.6350097263e-001
 1.5132057376e-001	 4.2473052732e+000	 1.6546104067e-001
 1.1329731804e-001	 4.2484895807e+000	 1.6530760642e-001
 7.5400235934e-002	 4.2493311008e+000	 1.6182671118e-001
 3.7633202065e-002	 4.2498333782e+000	 1.5359547527e-001
 0.0000000000e+000	 4.2500000000e+000	 1.3898735922e-001
 3.8412772201e-001	 4.2577072343e+000	 1.5494428020e-001
 3.4520624924e-001	 4.2610395029e+000	 1.5467632901e-001
 3.0638639888e-001	 4.2640066105e+000	 1.5535210547e-001
 2.6767261190e-001	 4.2666118142e+000	 1.5698956295e-001
 2.2906923973e-001	 4.2688584286e+000	 1.5937103818e-001
 1.9058054374e-001	 4.2707498237e+000	 1.6204649688e-001
 1.5221069479e-001	 4.2722894219e+000	 1.6433723619e-001
 1.1396377285e-001	 4.2734806959e+000	 1.6534002145e-001
 7.5843766737e-002	 4.2743271661e+000	 1.6393163460e-001
 3.7854573843e-002	 4.2748323980e+000	 1.5877381113e-001
 0.0000000000e+000	 4.2750000000e+000	 1.4831854217e-001
 3.8637408296e-001	 4.2826061070e+000	 1.5811639440e-001
 3.4722499924e-001	 4.2859578626e+000	 1.5534348461e-001
 3.0817813221e-001	 4.2889423217e+000	 1.5387395011e-001
 2.6923794881e-001	 4.2915627605e+000	 1.5384799578e-001
 2.3040882593e-001	 4.2938225130e+000	 1.5516394109e-001
 1.9169504985e-001	 4.2957249688e+000	 1.5748145085e-001
 1.5310081581e-001	 4.2972735706e+000	 1.6022523507e-001
 1.1463022767e-001	 4.2984718111e+000	 1.6258919520e-001
 7.6287297539e-002	 4.2993232314e+000	 1.6354099342e-001
 3.8075945621e-002	 4.2998314179e+000	 1.6182702165e-001
 0.0000000000e+000	 4.3000000000e+000	 1.5597774630e-001
 3.8862044392e-001	 4.3075049798e+000	 1.5912751280e-001
 3.4924374924e-001	 4.3108762223e+000	 1.5351630139e-001
 3.0996986554e-001	 4.3138780329e+000	 1.4964872999e-001
 2.7080328573e-001	 4.3165137067e+000	 1.4778793309e-001
 2.3174841213e-001	 4.3187865974e+000	 1.4794878474e-001
 1.9280955596e-001	 4.3207001140e+000	 1.4990111558e-001
 1.5399093684e-001	 4.3222577192e+000	 1.5317341139e-001
 1.1529668248e-001	 4.3234629263e+000	 1.5705697012e-001
 7.6730828340e-002	 4.3243192967e+000	 1.6061049378e-001
 3.8297317399e-002	 4.3248304378e+000	 1.6266509109e-001
 0.0000000000e+000	 4.3250000000e+000	 1.6182966672e-001
 3.9086680487e-001	 4.3324038525e+000	 1.5831049941e-001
 3.5126249924e-001	 4.3357945819e+000	 1.4947965173e-001
 3.1176159887e-001	 4.3388137440e+000	 1.4291359621e-001
 2.7236862265e-001	 4.3414646530e+000	 1.3899909893e-001
 2.3308799833e-001	 4.3437506817e+000	 1.3786818347e-001
 1.9392406206e-001	 4.3456752592e+000	 1.3940133523e-001
 1.5488105786e-001	 4.3472418679e+000	 1.4323120000e-001
 1.1596313730e-001	 4.3484540415e+000	 1.4874675329e-001
 7.7174359142e-002	 4.3493153620e+000	 1.5509791618e-001
 3.8518689177e-002	 4.3498294576e+000	 1.6120059344e-001
 0.0000000000e+000	 4.3500000000e+000	 1.6574210902e-001
 3.9311316582e-001	 4.3573027252e+000	 1.5599644576e-001
 3.5328124924e-001	 4.3607129416e+000	 1.4351708553e-001
 3.1355333220e-001	 4.3637494552e+000	 1.3390483456e-001
 2.7393395956e-001	 4.3664155993e+000	 1.2767081620e-001
 2.3442758453e-001	 4.3687147661e+000	 1.2506482128e-001
 1.9503856817e-001	 4.3706504043e+000	 1.2607850089e-001
 1.5577117889e-001	 4.3722260166e+000	 1.3044906628e-001
 1.1662959211e-001	 4.3734451567e+000	 1.3766347175e-001
 7.7617889943e-002	 4.3743114273e+000	 1.4696305625e-001
 3.8740060954e-002	 4.3748284775e+000	 1.5734861845e-001
 0.0000000000e+000	 4.3750000000e+000	 1.6758590035e-001
 3.9535952677e-001	 4.3822015979e+000	 1.5715867541e-001
 3.5529999924e-001	 4.3856313013e+000	 1.4556451868e-001
 3.1534506553e-001	 4.3886851664e+000	 1.3771939010e-001
 2.7549929647e-001	 4.3913665456e+000	 1.3327266837e-001
 2.3576717073e-001	 4.3936788505e+000	 1.3179422846e-001
 1.9615307428e-001	 4.3956255495e+000	 1.3277731411e-001
 1.5666129991e-001	 4.3972101652e+000	 1.3564148354e-001
 1.1729604692e-001	 4.3984362718e+000	 1.3973561957e-001
 7.8061420743e-002	 4.3993074926e+000	 1.4434099556e-001
 3.8961432732e-002	 4.3998274974e+000	 1.4867438870e-001
 0.0000000000e+000	 4.4000000000e+000	 1.5189123224e-001
 3.9760588772e-001	 4.4071004706e+000	 1.6406428815e-001
 3.5731874924e-001	 4.4105496609e+000	 1.5508059706e-001
 3.1713679886e-001	 4.4136208776e+000	 1.4871782592e-001
 2.7706463339e-001	 4.4163174919e+000	 1.4468457169e-001
 2.3710675693e-001	 4.4186429349e+000	 1.4260840497e-001
 1.9726758038e-001	 4.4206006947e+000	 1.4203873248e-001
 1.5755142094e-001	 4.4221943139e+000	 1.4244973570e-001
 1.1796250174e-001	 4.4234273870e+000	 1.4324337675e-001
 7.8504951544e-002	 4.4243035579e+000	 1.4375246298e-001
 3.9182804509e-002	 4.4248265173e+000	 1.4324376141e-001
 0.0000000000e+000	 4.4250000000e+000	 1.4092115484e-001
 3.9985224867e-001	 4.4319993433e+000	 1.6277292013e-001
 3.5933749924e-001	 4.4354680206e+000	 1.5752553405e-001
 3.1892853219e-001	 4.4385565887e+000	 1.5380724006e-001
 2.7862997030e-001	 4.4412684381e+000	 1.5138514205e-001
 2.3844634313e-001	 4.4436070192e+000	 1.4994377125e-001
 1.9838208649e-001	 4.4455758398e+000	 1.4908793968e-001
 1.5844154196e-001	 4.4471784626e+000	 1.4834567299e-001
 1.1862895655e-001	 4.4484185022e+000	 1.4717121333e-001
 7.8948482344e-002	 4.4492996232e+000	 1.4494808373e-001
 3.9404176286e-002	 4.4498255371e+000	 1.4099220495e-001
 0.0000000000e+000	 4.4500000000e+000	 1.3455505657e-001
 4.0209860962e-001	 4.4568982160e+000	 1.5335717242e-001
 3.6135624923e-001	 4.4603863803e+000	 1.5295325225e-001
 3.2072026552e-001	 4.4634922999e+000	 1.5302277058e-001
 2.8019530721e-001	 4.4662193844e+000	 1.5339063600e-001
 2.3978592933e-001	 4.4685711036e+000	 1.5379761403e-001
 1.9949659259e-001	 4.4705509850e+000	 1.5390317297e-001
 1.5933166298e-001	 4.4721626112e+000	 1.5328841197e-001
 1.1929541136e-001	 4.4734096174e+000	 1.5145906219e-001
 7.9392013143e-002	 4.4742956885e+000	 1.4784855209e-001
 3.9625548063e-002	 4.4748245570e+000	 1.4182112794e-001
 0.0000000000e+000	 4.4750000000e+000	 1.3267502105e-001
 4.0434497057e-001	 4.4817970888e+000	 1.3588810901e-001
 3.6337499923e-001	 4.4853047399e+000	 1.4141652733e-001
 3.2251199884e-001	 4.4884280111e+000	 1.4639880517e-001
 2.8176064413e-001	 4.4911703307e+000	 1.5071696217e-001
 2.4112551553e-001	 4.4935351880e+000	 1.5416728046e-001
 2.0061109869e-001	 4.4955261302e+000	 1.5646314394e-001
 1.6022178400e-001	 4.4971467599e+000	 1.5723796284e-001
 1.1996186617e-001	 4.4984007326e+000	 1.5604817432e-001
 7.9835543943e-002	 4.4992917538e+000	 1.5237630985e-001
 3.9846919840e-002	 4.4998235769e+000	 1.4563412067e-001
 0.0000000000e+000	 4.5000000000e+000	 1.3516575231e-001
 4.5000000000e+000	 0.0000000000e+000	 7.2703562757e-001
 4.4998235769e+000	 3.9846919840e-002	 7.2511994346e-001
 4.4992917538e+000	 7.9835543943e-002	 7.2223370169e-001
 4.4984007326e+000	 1.1996186617e-001	 7.1820659545e-001
 4.4971467599e+000	 1.6022178400e-001	 7.1288555483e-001
 4.4955261302e+000	 2.0061109869e-001	 7.0613514554e-001
 4.4935351880e+000	 2.4112551553e-001	 6.9783793675e-001
 4.4911703307e+000	 2.8176064413e-001	 6.8789483626e-001
 4.4884280111e+000	 3.2251199884e-001	 6.7622539128e-001
 4.4853047399e+000	 3.6337499923e-001	 6.6276805320e-001
 4.4817970888e+000	 4.0434497057e-001	 6.4748040468e-001
 4.5250000000e+000	 0.0000000000e+000	 6.9965660765e-001
 4.5248225967e+000	 4.0068291616e-002	 6.9721439855e-001
 4.5242878191e+000	 8.0279074742e-002	 6.9418533410e-001
 4.5233918477e+000	 1.2062832098e-001	 6.9040064577e-001
 4.5221309085e+000	 1.6111190503e-001	 6.8570874524e-001
 4.5205012753e+000	 2.0172560480e-001	 6.7997561652e-001
 4.5184992724e+000	 2.4246510172e-001	 6.7308517659e-001
 4.5161212770e+000	 2.8332598104e-001	 6.6493960297e-001
 4.5133637222e+000	 3.2430373217e-001	 6.5545962649e-001
 4.5102230996e+000	 3.6539374923e-001	 6.4458478745e-001
 4.5066959615e+000	 4.0659133152e-001	 6.3227365370e-001
 4.5500000000e+000	 0.0000000000e+000	 6.7363706989e-001
 4.5498216166e+000	 4.0289663393e-002	 6.7045673759e-001
 4.5492838844e+000	 8.0722605541e-002	 6.6706099406e-001
 4.5483829629e+000	 1.2129477580e-001	 6.6328265052e-001
 4.5471150572e+000	 1.6200202605e-001	 6.5897165257e-001
 4.5454764205e+000	 2.0284011090e-001	 6.5399546565e-001
 4.5434633567e+000	 2.4380468792e-001	 6.4823942875e-001
 4.5410722233e+000	 2.8489131795e-001	 6.4160707448e-001
 4.5382994334e+000	 3.2609546550e-001	 6.3402041384e-001
 4.5351414592e+000	 3.6741249922e-001	 6.2542018399e-001
 4.5315948342e+000	 4.0883769246e-001	 6.1576605733e-001
 4.5750000000e+000	 0.0000000000e+000	 6.4902727201e-001
 4.5748206365e+000	 4.0511035169e-002	 6.4489745176e-001
 4.5742799497e+000	 8.1166136340e-002	 6.4091148457e-001
 4.5733740781e+000	 1.2196123061e-001	 6.3690380423e-001
 4.5720992059e+000	 1.6289214707e-001	 6.3272594374e-001
 4.5704515657e+000	 2.0395461700e-001	 6.2824691438e-001
 4.5684274411e+000	 2.4514427412e-001	 6.2335355258e-001
 4.5660231695e+000	 2.8645665486e-001	 6.1795083257e-001
 4.5632351446e+000	 3.2788719882e-001	 6.1196214335e-001
 4.5600598189e+000	 3.6943124922e-001	 6.0532952803e-001
 4.5564937069e+000	 4.1108405341e-001	 5.9801388416e-001
 4.6000000000e+000	 0.0000000000e+000	 6.2587637921e-001
 4.5998196564e+000	 4.0732406946e-002	 6.2058589091e-001
 4.5992760150e+000	 8.1609667139e-002	 6.1578641598e-001
 4.5983651933e+000	 1.2262768542e-001	 6.1131405477e-001
 4.5970833545e+000	 1.6378226809e-001	 6.0702198242e-001
 4.5954267108e+000	 2.0506912311e-001	 6.0278082169e-001
 4.5933915255e+000	 2.4648386031e-001	 5.9847898305e-001
 4.5909741158e+000	 2.8802199177e-001	 5.9402297014e-001
 4.5881708558e+000	 3.2967893215e-001	 5.8933764894e-001
 4.5849781786e+000	 3.7144999921e-001	 5.8436647887e-001
 4.5813925796e+000	 4.1333041436e-001	 5.7907170432e-001
 4.6250000000e+000	 0.0000000000e+000	 6.0423249364e-001
 4.6248186762e+000	 4.0953778723e-002	 5.9757029445e-001
 4.6242720803e+000	 8.2053197938e-002	 5.9173423820e-001
 4.6233563085e+000	 1.2329414023e-001	 5.8656213706e-001
 4.6220675032e+000	 1.6467238911e-001	 5.8190886425e-001
 4.6204018560e+000	 2.0618362921e-001	 5.7764672085e-001
 4.6183556099e+000	 2.4782344651e-001	 5.7366576922e-001
 4.6159250621e+000	 2.8958732868e-001	 5.6987413137e-001
 4.6131065669e+000	 3.3147066547e-001	 5.6619825047e-001
 4.6098965382e+000	 3.7346874920e-001	 5.6258311379e-001
 4.6062914523e+000	 4.1557677530e-001	 5.5899243546e-001
 4.6500000000e+000	 0.0000000000e+000	 5.8414268302e-001
 4.6498176961e+000	 4.1175150499e-002	 5.7589782116e-001
 4.6492681456e+000	 8.2496728737e-002	 5.6880227193e-001
 4.6483474236e+000	 1.2396059504e-001	 5.6269560569e-001
 4.6470516519e+000	 1.6556251013e-001	 5.5743445093e-001
 4.6453770012e+000	 2.0729813531e-001	 5.5289285510e-001
 4.6433196943e+000	 2.4916303270e-001	 5.4896261150e-001
 4.6408760084e+000	 2.9115266559e-001	 5.4555355070e-001
 4.6380422781e+000	 3.3326239880e-001	 5.4259379445e-001
 4.6348148979e+000	 3.7548749920e-001	 5.4002997059e-001
 4.6311903250e+000	 4.1782313625e-001	 5.3782738709e-001
 4.6750000000e+000	 0.0000000000e+000	 5.6565300824e-001
 4.6748167160e+000	 4.1396522276e-002	 5.5561457814e-001
 4.6742642109e+000	 8.2940259537e-002	 5.4703673880e-001
 4.6733385388e+000	 1.2462704985e-001	 5.3976086644e-001
 4.6720358005e+000	 1.6645263115e-001	 5.3364540320e-001
 4.6703521463e+000	 2.0841264141e-001	 5.2856621212e-001
 4.6682837786e+000	 2.5050261890e-001	 5.2441689772e-001
 4.6658269547e+000	 2.9271800250e-001	 5.2110909051e-001
 4.6629779893e+000	 3.3505413212e-001	 5.1857269343e-001
 4.6597332576e+000	 3.7750624919e-001	 5.1675608875e-001
 4.6560891977e+000	 4.2006949719e-001	 5.1562630363e-001
 4.7000000000e+000	 0.0000000000e+000	 5.4880855020e-001
 4.6998157358e+000	 4.1617894052e-002	 5.3676564872e-001
 4.6992602762e+000	 8.3383790336e-002	 5.2648279064e-001
 4.6983296540e+000	 1.2529350466e-001	 5.1780320688e-001
 4.6970199492e+000	 1.6734275217e-001	 5.1058721279e-001
 4.6953272915e+000	 2.0952714752e-001	 5.0471255745e-001
 4.6932478630e+000	 2.5184220510e-001	 5.0007473807e-001
 4.6907779010e+000	 2.9428333941e-001	 4.9658727764e-001
 4.6879137004e+000	 3.3684586545e-001	 4.9418196411e-001
 4.6846516172e+000	 3.7952499918e-001	 4.9280904931e-001
 4.6809880705e+000	 4.2231585814e-001	 4.9243740601e-001
 4.7250000000e+000	 0.0000000000e+000	 5.3365343569e-001
 4.7248147557e+000	 4.1839265829e-002	 5.1939511957e-001
 4.7242563415e+000	 8.3827321135e-002	 5.0718453778e-001
 4.7233207692e+000	 1.2595995947e-001	 4.9686682592e-001
 4.7220040979e+000	 1.6823287319e-001	 4.8830423333e-001
 4.7203024367e+000	 2.1064165362e-001	 4.8137646678e-001
 4.7182119474e+000	 2.5318179129e-001	 4.7598099882e-001
 4.7157288472e+000	 2.9584867632e-001	 4.7203333869e-001
 4.7128494116e+000	 3.3863759877e-001	 4.6946726432e-001
 4.7095699769e+000	 3.8154374918e-001	 4.6823501340e-001
 4.7058869432e+000	 4.2456221908e-001	 4.6830743198e-001
 4.7500000000e+000	 0.0000000000e+000	 5.2023086251e-001
 4.7498137756e+000	 4.2060637605e-002	 5.0354610693e-001
 4.7492524068e+000	 8.4270851934e-002	 4.8918507642e-001
 4.7483118844e+000	 1.2662641428e-001	 4.7699486247e-001
 4.7469882465e+000	 1.6912299422e-001	 4.6683971034e-001
 4.7452775818e+000	 2.1175615972e-001	 4.5860135732e-001
 4.7431760318e+000	 2.5452137749e-001	 4.5217933512e-001
 4.7406797935e+000	 2.9741401323e-001	 4.4749123423e-001
 4.7377851228e+000	 3.4042933210e-001	 4.4447292874e-001
 4.7344883366e+000	 3.8356249917e-001	 4.4307875963e-001
 4.7307858159e+000	 4.2680858003e-001	 4.4328167514e-001
 4.4817970888e+000	 4.0434497057e-001	 6.4748040468e-001
 4.4779016925e+000	 4.4541714450e-001	 6.3638034724e-001
 4.4736152520e+000	 4.8658665973e-001	 6.2942462449e-001
 4.4689345369e+000	 5.2784856279e-001	 6.2654083004e-001
 4.4638563882e+000	 5.6919780892e-001	 6.2766938926e-001
 4.4583777210e+000	 6.1062926301e-001	 6.3276351919e-001
 4.4524955272e+000	 6.5213770062e-001	 6.1817743002e-001
 4.4462068779e+000	 6.9371780909e-001	 5.8971744076e-001
 4.4395089267e+000	 7.3536418877e-001	 5.5845159268e-001
 4.4323989115e+000	 7.7707135428e-001	 5.2398220592e-001
 4.4248741579e+000	 8.1883373586e-001	 4.8589715692e-001
 4.5066959615e+000	 4.0659133152e-001	 6.3227365370e-001
 4.5027789241e+000	 4.4789168419e-001	 6.2133425541e-001
 4.4984686700e+000	 4.8928991895e-001	 6.1420956007e-001
 4.4937619509e+000	 5.3078105481e-001	 6.1084081763e-001
 4.4886555903e+000	 5.7236001898e-001	 6.1118281864e-001
 4.4831464861e+000	 6.1402164781e-001	 6.1520384797e-001
 4.4772316134e+000	 6.5576068785e-001	 5.9877822490e-001
 4.4709080272e+000	 6.9757179692e-001	 5.7201975145e-001
 4.4641728651e+000	 7.3944954538e-001	 5.4239279911e-001
 4.4570233499e+000	 7.8138841736e-001	 5.0952080842e-001
 4.4494567921e+000	 8.2338281217e-001	 4.7301295134e-001
 4.5315948342e+000	 4.0883769246e-001	 6.1576605733e-001
 4.5276561557e+000	 4.5036622388e-001	 6.0508561793e-001
 4.5233220881e+000	 4.9199317817e-001	 5.9788823765e-001
 4.5185893650e+000	 5.3371354682e-001	 5.9412889365e-001
 4.5134547925e+000	 5.7552222903e-001	 5.9377681763e-001
 4.5079152512e+000	 6.1741403260e-001	 5.9681544335e-001
 4.5019676997e+000	 6.5938367507e-001	 5.7912326957e-001
 4.4956091766e+000	 7.0142578475e-001	 5.5404206799e-001
 4.4888368036e+000	 7.4353490198e-001	 5.2603360117e-001
 4.4816477883e+000	 7.8570548043e-001	 4.9474270874e-001
 4.4740394263e+000	 8.2793188848e-001	 4.5980013616e-001
 4.5564937069e+000	 4.1108405341e-001	 5.9801388416e-001
 4.5525333873e+000	 4.5284076358e-001	 5.8768473847e-001
 4.5481755061e+000	 4.9469643739e-001	 5.8050493344e-001
 4.5434167791e+000	 5.3664603884e-001	 5.7644324683e-001
 4.5382539946e+000	 5.7868443908e-001	 5.7548343010e-001
 4.5326840163e+000	 6.2080641740e-001	 5.7762414958e-001
 4.5267037859e+000	 6.6300666230e-001	 5.5918733143e-001
 4.5203103259e+000	 7.0527977258e-001	 5.3575037403e-001
 4.5135007421e+000	 7.4762025859e-001	 5.0933120203e-001
 4.5062722267e+000	 7.9002254351e-001	 4.7959633783e-001
 4.4986220605e+000	 8.3248096479e-001	 4.4619838341e-001
 4.5813925796e+000	 4.1333041436e-001	 5.7907170432e-001
 4.5774106189e+000	 4.5531530327e-001	 5.6918030009e-001
 4.5730289242e+000	 4.9739969661e-001	 5.6210238160e-001
 4.5682441932e+000	 5.3957853085e-001	 5.5782060311e-001
 4.5630531968e+000	 5.8184664912e-001	 5.5633331693e-001
 4.5574527815e+000	 6.2419880219e-001	 5.5765450836e-001
 4.5514398722e+000	 6.6662964952e-001	 5.3894395636e-001
 4.5450114752e+000	 7.0913376041e-001	 5.1710951323e-001
 4.5381646806e+000	 7.5170561519e-001	 4.9224174699e-001
 4.5308966650e+000	 7.9433960659e-001	 4.6402915141e-001
 4.5232046947e+000	 8.3703004110e-001	 4.3214647289e-001
 4.6062914523e+000	 4.1557677530e-001	 5.5899243546e-001
 4.6022878506e+000	 4.5778984296e-001	 5.4961940911e-001
 4.5978823423e+000	 5.0010295583e-001	 5.4272181597e-001
 4.5930716073e+000	 5.4251102287e-001	 5.3829626511e-001
 4.5878523989e+000	 5.8500885917e-001	 5.3635579340e-001
 4.5822215466e+000	 6.2759118699e-001	 5.3584415924e-001
 4.5761759585e+000	 6.7025263675e-001	 5.1836550173e-001
 4.5697126245e+000	 7.1298774823e-001	 4.9808322014e-001
 4.5628286191e+000	 7.5579097179e-001	 4.7472035210e-001
 4.5555211034e+000	 7.9865666967e-001	 4.4798765627e-001
 4.5477873289e+000	 8.4157911741e-001	 4.1758231632e-001
 4.6311903250e+000	 4.1782313625e-001	 5.3782738709e-001
 4.6271650822e+000	 4.6026438265e-001	 5.2904763745e-001
 4.6227357603e+000	 5.0280621505e-001	 5.2240301036e-001
 4.6178990214e+000	 5.4544351488e-001	 5.1790415045e-001
 4.6126516011e+000	 5.8817106922e-001	 5.1557886534e-001
 4.6069903117e+000	 6.3098357178e-001	 5.1334279844e-001
 4.6009120447e+000	 6.7387562397e-001	 4.9742316835e-001
 4.5944137738e+000	 7.1684173606e-001	 4.7863414995e-001
 4.5874925575e+000	 7.5987632840e-001	 4.5672113183e-001
 4.5801455418e+000	 8.0297373275e-001	 4.3141743582e-001
 4.5723699631e+000	 8.4612819372e-001	 4.0244298066e-001
 4.6560891977e+000	 4.2006949719e-001	 5.1562630363e-001
 4.6520423138e+000	 4.6273892234e-001	 5.0750906368e-001
 4.6475891784e+000	 5.0550947427e-001	 5.0118431761e-001
 4.6427264355e+000	 5.4837600689e-001	 4.9667682875e-001
 4.6374508033e+000	 5.9133327927e-001	 4.9402926415e-001
 4.6317590768e+000	 6.3437595657e-001	 4.9051855508e-001
 4.6256481310e+000	 6.7749861120e-001	 4.7608703139e-001
 4.6191149232e+000	 7.2069572389e-001	 4.5872390741e-001
 4.6121564960e+000	 7.6396168500e-001	 4.3819722581e-001
 4.6047699802e+000	 8.0729079583e-001	 4.1426317476e-001
 4.5969525973e+000	 8.5067727003e-001	 3.8666471071e-001
 4.6809880705e+000	 4.2231585814e-001	 4.9243740601e-001
 4.6769195454e+000	 4.6521346202e-001	 4.8504631273e-001
 4.6724425965e+000	 5.0821273349e-001	 4.7910270736e-001
 4.6675538496e+000	 5.5130849891e-001	 4.7464555748e-001
 4.6622500054e+000	 5.9449548931e-001	 4.7173248072e-001
 4.6565278419e+000	 6.3776834136e-001	 4.6734880692e-001
 4.6503842172e+000	 6.8112159842e-001	 4.5432607032e-001
 4.6438160725e+000	 7.2454971171e-001	 4.3831307472e-001
 4.6368204345e+000	 7.6804704160e-001	 4.1910082479e-001
 4.6293944186e+000	 8.1160785890e-001	 3.9646868297e-001
 4.6215352316e+000	 8.5522634634e-001	 3.7018295095e-001
 4.7058869432e+000	 4.2456221908e-001	 4.6830743198e-001
 4.7017967771e+000	 4.6768800171e-001	 4.6170059434e-001
 4.6972960145e+000	 5.1091599270e-001	 4.5619380267e-001
 4.6923812637e+000	 5.5424099092e-001	 4.5184031668e-001
 4.6870492076e+000	 5.9765769936e-001	 4.4871279821e-001
 4.6812966070e+000	 6.4116072615e-001	 4.4380979431e-001
 4.6751203035e+000	 6.8474458564e-001	 4.3210819789e-001
 4.6685172218e+000	 7.2840369954e-001	 4.1736123863e-001
 4.6614843730e+000	 7.7213239820e-001	 3.9938319573e-001
 4.6540188570e+000	 8.1592492198e-001	 3.7797691869e-001
 4.6461178658e+000	 8.5977542265e-001	 3.5293236674e-001
 4.7307858159e+000	 4.2680858003e-001	 4.4328167514e-001
 4.7266740087e+000	 4.7016254140e-001	 4.3751174031e-001
 4.7221494326e+000	 5.1361925192e-001	 4.3249191542e-001
 4.7172086778e+000	 5.5717348293e-001	 4.2828984259e-001
 4.7118484097e+000	 6.0081990940e-001	 4.2499332386e-001
 4.7060653722e+000	 6.4455311094e-001	 4.1987665000e-001
 4.6998563898e+000	 6.8836757286e-001	 4.0940028823e-001
 4.6932183711e+000	 7.3225768736e-001	 3.9582701657e-001
 4.6861483115e+000	 7.7621775480e-001	 3.7899470612e-001
 4.6786432954e+000	 8.2024198506e-001	 3.5873001090e-001
 4.6707005000e+000	 8.6432449896e-001	 3.3484686482e-001
 4.4248741579e+000	 8.1883373586e-001	 4.8589715692e-001
 4.4169320814e+000	 8.6064568090e-001	 5.1864917008e-001
 4.4085701903e+000	 9.0250145542e-001	 5.3656161261e-001
 4.3997860880e+000	 9.4439524573e-001	 5.3875597558e-001
 4.3905774756e+000	 9.8632116015e-001	 5.2433705056e-001
 4.3809421547e+000	 1.0282732308e+000	 4.9239221488e-001
 4.3708780297e+000	 1.0702454156e+000	 4.6140499145e-001
 4.3603831102e+000	 1.1122316001e+000	 4.4102542514e-001
 4.3494555137e+000	 1.1542255995e+000	 4.0305977995e-001
 4.3380934676e+000	 1.1962211613e+000	 3.4757891640e-001
 4.3262953119e+000	 1.2382119668e+000	 2.7476647796e-001
 4.4494567921e+000	 8.2338281217e-001	 4.7301295134e-001
 4.4414705930e+000	 8.6542704580e-001	 5.0149641539e-001
 4.4330622469e+000	 9.0751535240e-001	 5.1642652148e-001
 4.4242293440e+000	 9.4964188598e-001	 5.1697188632e-001
 4.4149695727e+000	 9.9180072215e-001	 5.0228375405e-001
 4.4052807222e+000	 1.0339858599e+000	 4.7149520074e-001
 4.3951606854e+000	 1.0761912235e+000	 4.2372034187e-001
 4.3846074608e+000	 1.1184106645e+000	 3.5805354617e-001
 4.3736191554e+000	 1.1606379640e+000	 2.8008344024e-001
 4.3621939868e+000	 1.2028668344e+000	 2.3026340138e-001
 4.3503302858e+000	 1.2450909222e+000	 1.6355237839e-001
 4.4740394263e+000	 8.2793188848e-001	 4.5980013616e-001
 4.4660091046e+000	 8.7020841069e-001	 4.8433809486e-001
 4.4575543036e+000	 9.1252924937e-001	 4.9660078279e-001
 4.4486726001e+000	 9.5488852624e-001	 4.9580396883e-001
 4.4393616698e+000	 9.9728028415e-001	 4.8114537778e-001
 4.4296192898e+000	 1.0396984889e+000	 4.5180381387e-001
 4.4194433411e+000	 1.0821370313e+000	 4.0693828639e-001
 4.4088318115e+000	 1.1245897290e+000	 3.4568714102e-001
 4.3977827972e+000	 1.1670503284e+000	 2.6716720041e-001
 4.3862945061e+000	 1.2095125075e+000	 1.7047291788e-001
 4.3743652598e+000	 1.2519698775e+000	 6.3299211180e-002
 4.4986220605e+000	 8.3248096479e-001	 4.4619838341e-001
 4.4905476161e+000	 8.7498977558e-001	 4.6709972537e-001
 4.4820463602e+000	 9.1754314634e-001	 4.7699599586e-001
 4.4731158561e+000	 9.6013516649e-001	 4.7515015159e-001
 4.4637537669e+000	 1.0027598461e+000	 4.6080643524e-001
 4.4539578573e+000	 1.0454111180e+000	 4.3318941770e-001
 4.4437259969e+000	 1.0880828392e+000	 3.9150304150e-001
 4.4330561621e+000	 1.1307687934e+000	 3.3492966931e-001
 4.4219464389e+000	 1.1734626929e+000	 2.6262914116e-001
 4.4103950254e+000	 1.2161581807e+000	 1.7373784433e-001
 4.3984002337e+000	 1.2588488329e+000	 9.0940522932e-002
 4.5232046947e+000	 8.3703004110e-001	 4.3214647289e-001
 4.5150861277e+000	 8.7977114048e-001	 4.4970613277e-001
 4.5065384168e+000	 9.2255704332e-001	 4.5752326592e-001
 4.4975591122e+000	 9.6538180674e-001	 4.5490806158e-001
 4.4881458639e+000	 1.0082394081e+000	 4.4115132655e-001
 4.4782964248e+000	 1.0511237471e+000	 4.1552344577e-001
 4.4680086526e+000	 1.0940286471e+000	 3.7727334333e-001
 4.4572805127e+000	 1.1369478578e+000	 3.2562744778e-001
 4.4461100807e+000	 1.1798750573e+000	 2.5978866562e-001
 4.4344955446e+000	 1.2228038538e+000	 1.7893536712e-001
 4.4224352077e+000	 1.2657277883e+000	 1.2141523316e-001
 4.5477873289e+000	 8.4157911741e-001	 4.1758231632e-001
 4.5396246393e+000	 8.8455250537e-001	 4.3208147057e-001
 4.5310304734e+000	 9.2757094029e-001	 4.3809321749e-001
 4.5220023682e+000	 9.7062844700e-001	 4.3497503246e-001
 4.5125379610e+000	 1.0137189701e+000	 4.2206434147e-001
 4.5026349923e+000	 1.0568363761e+000	 3.9867739977e-001
 4.4922913083e+000	 1.0999744549e+000	 3.6410817010e-001
 4.4815048633e+000	 1.1431269223e+000	 3.1762720446e-001
 4.4702737224e+000	 1.1862874218e+000	 2.5848053355e-001
 4.4585960639e+000	 1.2294495269e+000	 1.8588856815e-001
 4.4464701816e+000	 1.2726067437e+000	 1.5163384802e-001
 4.5723699631e+000	 8.4612819372e-001	 4.0244298066e-001
 4.5641631508e+000	 8.8933387026e-001	 4.1414923805e-001
 4.5555225300e+000	 9.3258483726e-001	 4.1861600732e-001
 4.5464456242e+000	 9.7587508725e-001	 4.1524811241e-001
 4.5369300581e+000	 1.0191985321e+000	 4.0342966237e-001
 4.5269735599e+000	 1.0625490052e+000	 3.8252284774e-001
 4.5165739640e+000	 1.1059202628e+000	 3.5186673562e-001
 4.5057292139e+000	 1.1493059867e+000	 3.1077606762e-001
 4.4944373641e+000	 1.1926997862e+000	 2.5854006493e-001
 4.4826965832e+000	 1.2360952000e+000	 1.9442124475e-001
 4.4705051556e+000	 1.2794856990e+000	 1.8153335599e-001
 4.5969525973e+000	 8.5067727003e-001	 3.8666471071e-001
 4.5887016624e+000	 8.9411523516e-001	 3.9583229770e-001
 4.5800145866e+000	 9.3759873424e-001	 3.9900133686e-001
 4.5708888803e+000	 9.8112172750e-001	 3.9562407180e-001
 4.5613221552e+000	 1.0246780942e+000	 3.8513136714e-001
 4.5513121274e+000	 1.0682616342e+000	 3.6693142227e-001
 4.5408566198e+000	 1.1118660707e+000	 3.4040848296e-001
 4.5299535645e+000	 1.1554850512e+000	 3.0492155510e-001
 4.5186010059e+000	 1.1991121506e+000	 2.5980312496e-001
 4.5067971024e+000	 1.2427408731e+000	 2.0435789050e-001
 4.4945401296e+000	 1.2863646544e+000	 2.1105158810e-001
 4.6215352316e+000	 8.5522634634e-001	 3.7018295095e-001
 4.6132401739e+000	 8.9889660005e-001	 3.7705289219e-001
 4.6045066432e+000	 9.4261263121e-001	 3.7915846440e-001
 4.5953321363e+000	 9.8636836776e-001	 3.7599941057e-001
 4.5857142523e+000	 1.0301576562e+000	 3.6705343193e-001
 4.5756506949e+000	 1.0739742633e+000	 3.5177481882e-001
 4.5651392755e+000	 1.1178118785e+000	 3.2959307840e-001
 4.5541779151e+000	 1.1616641156e+000	 2.9991156389e-001
 4.5427646476e+000	 1.2055245151e+000	 2.6210610960e-001
 4.5308976217e+000	 1.2493865463e+000	 2.1552367676e-001
 4.5185751035e+000	 1.2932436098e+000	 2.4012719548e-001
 4.6461178658e+000	 8.5977542265e-001	 3.5293236674e-001
 4.6377786855e+000	 9.0367796494e-001	 3.5773266076e-001
 4.6289986998e+000	 9.4762652819e-001	 3.5899621679e-001
 4.6197753924e+000	 9.9161500801e-001	 3.5627036537e-001
 4.6101063494e+000	 1.0356372182e+000	 3.4907973387e-001
 4.5999892625e+000	 1.0796868924e+000	 3.3692479403e-001
 4.5894219312e+000	 1.1237576864e+000	 3.1928040551e-001
 4.5784022658e+000	 1.1678431801e+000	 2.9559436015e-001
 4.5669282894e+000	 1.2119368795e+000	 2.6528593151e-001
 4.5549981410e+000	 1.2560322194e+000	 2.3771412104e-001
 4.5426100775e+000	 1.3001225651e+000	 2.6869962771e-001
 4.6707005000e+000	 8.6432449896e-001	 3.3484686482e-001
 4.6623171971e+000	 9.0845932984e-001	 3.3779265510e-001
 4.6534907565e+000	 9.5264042516e-001	 3.3842300077e-001
 4.6442186484e+000	 9.9686164827e-001	 3.3633291649e-001
 4.6344984465e+000	 1.0411167802e+000	 3.3109405362e-001
 4.6243278300e+000	 1.0853995214e+000	 3.2225316410e-001
 4.6137045869e+000	 1.1297034943e+000	 3.0933055940e-001
 4.6026266164e+000	 1.1740222445e+000	 2.9181856949e-001
 4.5910919311e+000	 1.2183492440e+000	 2.6918000643e-001
 4.5790986602e+000	 1.2626778925e+000	 2.6011485585e-001
 4.5666450514e+000	 1.3070015205e+000	 2.9670911175e-001
 4.3262953119e+000	 1.2382119668e+000	 2.7476647796e-001
 4.3140595013e+000	 1.2801916340e+000	 2.3688189745e-001
 4.3013846075e+000	 1.3221537197e+000	 2.3920934544e-001
 4.2882693215e+000	 1.3640917223e+000	 2.4392507672e-001
 4.2747124554e+000	 1.4059990840e+000	 2.5051441932e-001
 4.2607129448e+000	 1.4478691937e+000	 2.5842305421e-001
 4.2462698508e+000	 1.4896953899e+000	 2.6705746937e-001
 4.2313823616e+000	 1.5314709629e+000	 2.7578551085e-001
 4.2160497947e+000	 1.5731891585e+000	 2.8393703192e-001
 4.2002715988e+000	 1.6148431803e+000	 2.9080464058e-001
 4.1840473548e+000	 1.6564261930e+000	 2.9564454586e-001
 4.3503302858e+000	 1.2450909222e+000	 1.6355237839e-001
 4.3380264985e+000	 1.2873038097e+000	 1.5508431294e-001
 4.3252811887e+000	 1.3294990181e+000	 1.6374450105e-001
 4.3120930399e+000	 1.3716700096e+000	 1.7424140247e-001
 4.2984608579e+000	 1.4138101900e+000	 1.8603631155e-001
 4.2843835723e+000	 1.4559129115e+000	 1.9855067839e-001
 4.2698602388e+000	 1.4979714754e+000	 2.1116659374e-001
 4.2548900414e+000	 1.5399791349e+000	 2.2322737241e-001
 4.2394722936e+000	 1.5819290983e+000	 2.3403823599e-001
 4.2236064410e+000	 1.6238145313e+000	 2.4286709537e-001
 4.2072920623e+000	 1.6656285608e+000	 2.4894543328e-001
 4.3743652598e+000	 1.2519698775e+000	 6.3299211180e-002
 4.3619934957e+000	 1.2944159855e+000	 7.6423943119e-002
 4.3491777698e+000	 1.3368443166e+000	 9.1372694090e-002
 4.3359167584e+000	 1.3792482970e+000	 1.0762313528e-001
 4.3222092604e+000	 1.4216212960e+000	 1.2461246281e-001
 4.3080541997e+000	 1.4639566292e+000	 1.4173781454e-001
 4.2934506269e+000	 1.5062475609e+000	 1.5835678580e-001
 4.2783977212e+000	 1.5484873069e+000	 1.7378804507e-001
 4.2628947925e+000	 1.5906690380e+000	 1.8731205038e-001
 4.2469412832e+000	 1.6327858823e+000	 1.9817186677e-001
 4.2305367698e+000	 1.6748309285e+000	 2.0557408519e-001
 4.3984002337e+000	 1.2588488329e+000	 9.0940522932e-002
 4.3859604930e+000	 1.3015281612e+000	 5.3011064853e-002
 4.3730743510e+000	 1.3441896150e+000	 2.2075572566e-002
 4.3597404768e+000	 1.3868265843e+000	 4.4055188728e-002
 4.3459576629e+000	 1.4294324020e+000	 6.6230941253e-002
 4.3317248272e+000	 1.4720003470e+000	 8.7975571092e-002
 4.3170410149e+000	 1.5145236464e+000	 1.0862207666e-001
 4.3019054009e+000	 1.5569954790e+000	 1.2746436179e-001
 4.2863172913e+000	 1.5994089778e+000	 1.4375798570e-001
 4.2702761254e+000	 1.6417572333e+000	 1.5672101559e-001
 4.2537814774e+000	 1.6840332963e+000	 1.6553498187e-001
 4.4224352077e+000	 1.2657277883e+000	 1.2141523316e-001
 4.4099274902e+000	 1.3086403370e+000	 9.2028980779e-002
 4.3969709321e+000	 1.3515349135e+000	 5.9624568070e-002
 4.3835641953e+000	 1.3944048717e+000	 2.4186787825e-002
 4.3697060655e+000	 1.4372435081e+000	 1.0880581884e-002
 4.3553954547e+000	 1.4800440647e+000	 3.7255795422e-002
 4.3406314030e+000	 1.5227997319e+000	 6.1957212148e-002
 4.3254130807e+000	 1.5655036510e+000	 8.4253849587e-002
 4.3097397902e+000	 1.6081489176e+000	 1.0337622973e-001
 4.2936109676e+000	 1.6507285843e+000	 1.1851726667e-001
 4.2770261849e+000	 1.6932356640e+000	 1.2883325827e-001
 4.4464701816e+000	 1.2726067437e+000	 1.5163384802e-001
 4.4338944874e+000	 1.3157525127e+000	 1.3061786213e-001
 4.4208675133e+000	 1.3588802119e+000	 1.0582349654e-001
 4.4073879137e+000	 1.4019831590e+000	 7.7226945206e-002
 4.3934544680e+000	 1.4450546141e+000	 4.4804343989e-002
 4.3790660822e+000	 1.4880877825e+000	 8.5315033588e-003
 4.3642217911e+000	 1.5310758174e+000	 1.8357633388e-002
 4.3489207605e+000	 1.5740118230e+000	 4.4154710782e-002
 4.3331622890e+000	 1.6168888573e+000	 6.6167629128e-002
 4.3169458098e+000	 1.6596999353e+000	 8.3563990933e-002
 4.3002708924e+000	 1.7024380317e+000	 9.5474686352e-002
 4.4705051556e+000	 1.2794856990e+000	 1.8153335599e-001
 4.4578614846e+000	 1.3228646884e+000	 1.6871568336e-001
 4.4447640944e+000	 1.3662255104e+000	 1.5136937364e-001
 4.4312116322e+000	 1.4095614464e+000	 1.2946221996e-001
 4.4172028705e+000	 1.4528657201e+000	 1.0296256126e-001
 4.4027367096e+000	 1.4961315002e+000	 7.1839028009e-002
 4.3878121791e+000	 1.5393519029e+000	 3.6060280779e-002
 4.3724284403e+000	 1.5825199950e+000	 7.1658048351e-003
 4.3565847879e+000	 1.6256287971e+000	 3.2133671704e-002
 4.3402806520e+000	 1.6686712863e+000	 5.1865188042e-002
 4.3235155999e+000	 1.7116403995e+000	 6.5465657919e-002
 4.4945401296e+000	 1.2863646544e+000	 2.1105158810e-001
 4.4818284819e+000	 1.3299768642e+000	 2.0626122266e-001
 4.4686606756e+000	 1.3735708088e+000	 1.9620178145e-001
 4.4550353506e+000	 1.4171397337e+000	 1.8083285373e-001
 4.4409512731e+000	 1.4606768261e+000	 1.6011517451e-001
 4.4264073371e+000	 1.5041752179e+000	 1.3401038307e-001
 4.4114025672e+000	 1.5476279884e+000	 1.0248077368e-001
 4.3959361201e+000	 1.5910281670e+000	 6.5489039279e-002
 4.3800072868e+000	 1.6343687369e+000	 2.2998008855e-002
 4.3636154943e+000	 1.6776426373e+000	 2.3425469561e-002
 4.3467603075e+000	 1.7208427672e+000	 3.8813168076e-002
 4.5185751035e+000	 1.2932436098e+000	 2.4012719548e-001
 4.5057954791e+000	 1.3370890399e+000	 2.4319404054e-001
 4.4925572567e+000	 1.3809161073e+000	 2.4026104974e-001
 4.4788590691e+000	 1.4247180211e+000	 2.3127980434e-001
 4.4646996756e+000	 1.4684879322e+000	 2.1620362744e-001
 4.4500779646e+000	 1.5122189357e+000	 1.9498735497e-001
 4.4349929552e+000	 1.5559040739e+000	 1.6758709835e-001
 4.4194437999e+000	 1.5995363390e+000	 1.3395999946e-001
 4.4034297856e+000	 1.6431086766e+000	 9.4063978581e-002
 4.3869503365e+000	 1.6866139883e+000	 4.7857476115e-002
 4.3700050150e+000	 1.7300451349e+000	 1.5524799169e-002
 4.5426100775e+000	 1.3001225651e+000	 2.6869962771e-001
 4.5297624763e+000	 1.3442012157e+000	 2.7945445914e-001
 4.5164538379e+000	 1.3882614057e+000	 2.8348823615e-001
 4.5026827875e+000	 1.4322963084e+000	 2.8074472685e-001
 4.4884480781e+000	 1.4762990382e+000	 2.7117003342e-001
 4.4737485920e+000	 1.5202626534e+000	 2.5471237542e-001
 4.4585833433e+000	 1.5641801594e+000	 2.3132186407e-001
 4.4429514797e+000	 1.6080445111e+000	 2.0095026816e-001
 4.4268522845e+000	 1.6518486164e+000	 1.6355077242e-001
 4.4102851787e+000	 1.6955853393e+000	 1.1907772887e-001
 4.3932497225e+000	 1.7392475027e+000	 6.7486401964e-002
 4.5666450514e+000	 1.3070015205e+000	 2.9670911175e-001
 4.5537294736e+000	 1.3513133914e+000	 3.1498354219e-001
 4.5403504190e+000	 1.3956067041e+000	 3.2582510708e-001
 4.5265065060e+000	 1.4398745957e+000	 3.2916995518e-001
 4.5121964807e+000	 1.4841101442e+000	 3.2495715787e-001
 4.4974192195e+000	 1.5283063712e+000	 3.1312850445e-001
 4.4821737314e+000	 1.5724562449e+000	 2.9362828774e-001
 4.4664591594e+000	 1.6165526831e+000	 2.6640308077e-001
 4.4502747833e+000	 1.6605885562e+000	 2.3140150521e-001
 4.4336200209e+000	 1.7045566903e+000	 1.8857399205e-001
 4.4164944300e+000	 1.7484498704e+000	 1.3787253556e-001
 4.1840473548e+000	 1.6564261930e+000	 2.9564454586e-001
 4.1673767784e+000	 1.6979313258e+000	 2.6630781545e-001
 4.1502597210e+000	 1.7393516748e+000	 2.2713560824e-001
 4.1326961712e+000	 1.7806803072e+000	 1.7746379846e-001
 4.1146862567e+000	 1.8219102636e+000	 1.1660387654e-001
 4.0962302449e+000	 1.8630345624e+000	 4.3844187232e-002
 4.0773285445e+000	 1.9040462023e+000	 1.3901438038e-002
 4.0579817064e+000	 1.9449381662e+000	-2.0333342909e-003
 4.0381904250e+000	 1.9857034249e+000	-2.5988237549e-002
 4.0179555386e+000	 2.0263349401e+000	-5.7883388561e-002
 3.9972780307e+000	 2.0668256687e+000	-9.7640983251e-002
 4.2072920623e+000	 1.6656285608e+000	 2.4894543328e-001
 4.1905288716e+000	 1.7073642776e+000	 2.2436901536e-001
 4.1733167194e+000	 1.7490147397e+000	 1.9008363172e-001
 4.1556555944e+000	 1.7905729755e+000	 1.4539968147e-001
 4.1375456248e+000	 1.8320319873e+000	 8.9602484269e-002
 4.1189870796e+000	 1.8733847544e+000	 2.1953551100e-002
 4.0999803697e+000	 1.9146242367e+000	 1.3078962792e-002
 4.0805260492e+000	 1.9557433782e+000	-1.1211557654e-003
 4.0606248162e+000	 1.9967351106e+000	-2.3387285207e-002
 4.0402775138e+000	 2.0375923565e+000	-5.3647928012e-002
 4.0194851309e+000	 2.0783080336e+000	-9.1833822337e-002
 4.2305367698e+000	 1.6748309285e+000	 2.0557408519e-001
 4.2136809648e+000	 1.7167972294e+000	 1.8574698356e-001
 4.1963737179e+000	 1.7586778046e+000	 1.5634276662e-001
 4.1786150176e+000	 1.8004656439e+000	 1.1664613880e-001
 4.1604049929e+000	 1.8421537110e+000	 6.5916019355e-002
 4.1417439143e+000	 1.8837349464e+000	 1.7666311742e-002
 4.1226321950e+000	 1.9252022712e+000	 1.3220583495e-002
 4.1030703921e+000	 1.9665485903e+000	 6.0048367100e-004
 4.0830592075e+000	 2.0077667963e+000	-2.0128442831e-002
 4.0625994891e+000	 2.0488497728e+000	-4.8903045518e-002
 4.0416922311e+000	 2.0897903984e+000	-8.5662569802e-002
 4.2537814774e+000	 1.6840332963e+000	 1.6553498187e-001
 4.2368330580e+000	 1.7262301812e+000	 1.5045032195e-001
 4.2194307163e+000	 1.7683408694e+000	 1.2592576358e-001
 4.2015744408e+000	 1.8103583123e+000	 9.1220093804e-002
 4.1832643610e+000	 1.8522754347e+000	 4.5565598635e-002
 4.1645007490e+000	 1.8940851384e+000	 1.7279047049e-002
 4.1452840202e+000	 1.9357803056e+000	 1.4292413810e-002
 4.1256147349e+000	 1.9773538023e+000	 3.0997966031e-003
 4.1054935987e+000	 2.0187984819e+000	-1.6241396956e-002
 4.0849214643e+000	 2.0601071891e+000	-4.3676325990e-002
 4.0638993313e+000	 2.1012727632e+000	-7.9152709431e-002
 4.2770261849e+000	 1.6932356640e+000	 1.2883325827e-001
 4.2599851512e+000	 1.7356631330e+000	 1.1848824166e-001
 4.2424877148e+000	 1.7780039343e+000	 9.8845937269e-002
 4.2245338639e+000	 1.8202509806e+000	 6.9138988919e-002
 4.2061237291e+000	 1.8623971584e+000	 2.8572813415e-002
 4.1872575837e+000	 1.9044353304e+000	 1.7942001246e-002
 4.1679358455e+000	 1.9463583401e+000	 1.6260953646e-002
 4.1481590777e+000	 1.9881590143e+000	 6.3453382990e-003
 4.1279279900e+000	 2.0298301676e+000	-1.1755534602e-002
 4.1072434395e+000	 2.0713646055e+000	-3.7995097583e-002
 4.0861064314e+000	 2.1127551280e+000	-7.2329510581e-002
 4.3002708924e+000	 1.7024380317e+000	 9.5474686352e-002
 4.2831372445e+000	 1.7450960848e+000	 8.9870546580e-002
 4.2655447132e+000	 1.7876669991e+000	 7.5117151101e-002
 4.2474932871e+000	 1.8301436490e+000	 5.0420771647e-002
 4.2289830972e+000	 1.8725188821e+000	 1.4959716656e-002
 4.2100144184e+000	 1.9147855224e+000	 1.9620040980e-002
 4.1905876707e+000	 1.9569363745e+000	 1.9093078727e-002
 4.1707034205e+000	 1.9989642264e+000	 1.0305997449e-002
 4.1503623812e+000	 2.0408618533e+000	-6.6999513768e-003
 4.1295654147e+000	 2.0826220218e+000	-3.1886438642e-002
 4.1083135316e+000	 2.1242374928e+000	-6.5218033971e-002
 4.3235155999e+000	 1.7116403995e+000	 6.5465657919e-002
 4.3062893377e+000	 1.7545290366e+000	 6.4607617404e-002
 4.2886017116e+000	 1.7973300640e+000	 5.4753802523e-002
 4.2704527103e+000	 1.8400363174e+000	 3.5083880977e-002
 4.2518424653e+000	 1.8826406057e+000	 1.3481866151e-002
 4.2327712531e+000	 1.9251357145e+000	 2.2278440204e-002
 4.2132394960e+000	 1.9675144090e+000	 2.2756030484e-002
 4.1932477633e+000	 2.0097694384e+000	 1.4950987201e-002
 4.1727967725e+000	 2.0518935390e+000	-1.1034593044e-003
 4.1518873899e+000	 2.0938794381e+000	-2.5377184412e-002
 4.1305206318e+000	 2.1357198577e+000	-5.7843137290e-002
 4.3467603075e+000	 1.7208427672e+000	 3.8813168076e-002
 4.3294414309e+000	 1.7639619884e+000	 4.2710396224e-002
 4.3116587101e+000	 1.8069931288e+000	 3.7770808716e-002
 4.2934121334e+000	 1.8499289858e+000	 2.3147234240e-002
 4.2747018334e+000	 1.8927623294e+000	 1.6217665249e-002
 4.2555280878e+000	 1.9354859065e+000	 2.5882869295e-002
 4.2358913212e+000	 1.9780924434e+000	 2.7217406277e-002
 4.2157921061e+000	 2.0205746504e+000	 2.0249836488e-002
 4.1952311637e+000	 2.0629252247e+000	 5.0054055889e-003
 4.1742093651e+000	 2.1051368545e+000	-1.8493933541e-002
 4.1527277319e+000	 2.1472022225e+000	-5.0229480632e-002
 4.3700050150e+000	 1.7300451349e+000	 1.5524799169e-002
 4.3525935241e+000	 1.7733949402e+000	 2.4190371593e-002
 4.3347157085e+000	 1.8166561937e+000	 2.4183592776e-002
 4.3163715566e+000	 1.8598216541e+000	 1.4630214390e-002
 4.2975612015e+000	 1.9028840531e+000	 2.0014275906e-002
 4.2782849225e+000	 1.9458360985e+000	 3.0399384502e-002
 4.2585431465e+000	 1.9886704779e+000	 3.2445149933e-002
 4.2383364489e+000	 2.0313798625e+000	 2.6172381627e-002
 4.2176655550e+000	 2.0739569104e+000	 1.1598375936e-002
 4.1965313403e+000	 2.1163942708e+000	-1.1263054373e-002
 4.1749348321e+000	 2.1586845873e+000	-4.2401531743e-002
 4.3932497225e+000	 1.7392475027e+000	 6.7486401964e-002
 4.3757456173e+000	 1.7828278921e+000	 1.1904976105e-002
 4.3577727070e+000	 1.8263192586e+000	 1.4008070332e-002
 4.3393309798e+000	 1.8697143225e+000	 9.5526576856e-003
 4.3204205696e+000	 1.9130057768e+000	 2.4836287130e-002
 4.3010417572e+000	 1.9561862905e+000	 3.5794417747e-002
 4.2811949717e+000	 1.9992485124e+000	 3.8407542575e-002
 4.2608807917e+000	 2.0421850745e+000	 3.2688758188e-002
 4.2400999462e+000	 2.0849885961e+000	 1.8647445922e-002
 4.2188533156e+000	 2.1276516871e+000	-3.7106910383e-003
 4.1971419323e+000	 2.1701669521e+000	-3.4383571117e-002
 4.4164944300e+000	 1.7484498704e+000	 1.3787253556e-001
 4.3988977105e+000	 1.7922608439e+000	 8.5746972175e-002
 4.3808297054e+000	 1.8359823234e+000	 2.7995463385e-002
 4.3622904030e+000	 1.8796069909e+000	 1.0905600966e-002
 4.3432799376e+000	 1.9231275005e+000	 3.0648691368e-002
 4.3237985918e+000	 1.9665364825e+000	 4.2034766731e-002
 4.3038467969e+000	 2.0098265468e+000	 4.5073193750e-002
 4.2834251345e+000	 2.0529902865e+000	 3.9769393120e-002
 4.2625343375e+000	 2.0960202818e+000	 2.6124864399e-002
 4.2411752908e+000	 2.1389091034e+000	 4.1372306454e-003
 4.2193490324e+000	 2.1816493170e+000	-2.6199696917e-002
 3.9972780307e+000	 2.0668256687e+000	-9.7640983251e-002
 3.9761590304e+000	 2.1071685659e+000	-1.8167907598e-001
 3.9545998128e+000	 2.1473565890e+000	-2.4999604726e-001
 3.9326018000e+000	 2.1873827014e+000	-3.0251840228e-001
 3.9101665609e+000	 2.2272398761e+000	-3.3919545197e-001
 3.8872958119e+000	 2.2669210994e+000	-3.5999943111e-001
 3.8639914164e+000	 2.3064193751e+000	-3.6492557554e-001
 3.8402553857e+000	 2.3457277277e+000	-3.5399215810e-001
 3.8160898781e+000	 2.3848392068e+000	-3.2724048298e-001
 3.7914971990e+000	 2.4237468907e+000	-2.8473483802e-001
 3.7664798005e+000	 2.4624438902e+000	-2.2656240512e-001
 4.0194851309e+000	 2.0783080336e+000	-9.1833822337e-002
 3.9982488028e+000	 2.1188750579e+000	-1.7574112750e-001
 3.9765698118e+000	 2.1592863478e+000	-2.4377070400e-001
 3.9544495878e+000	 2.1995348275e+000	-2.9585123507e-001
 3.9318897085e+000	 2.2396134310e+000	-3.3193457105e-001
 3.9088918997e+000	 2.2795151055e+000	-3.5199584599e-001
 3.8854580354e+000	 2.3192328160e+000	-3.5603355279e-001
 3.8615901379e+000	 2.3587595484e+000	-3.4406957629e-001
 3.8372903774e+000	 2.3980883135e+000	-3.1614918403e-001
 3.8125610723e+000	 2.4372121512e+000	-2.7234097440e-001
 3.7874046883e+000	 2.4761241341e+000	-2.1273678202e-001
 4.0416922311e+000	 2.0897903984e+000	-8.5662569802e-002
 4.0203385752e+000	 2.1305815500e+000	-1.6947021290e-001
 3.9985398108e+000	 2.1712161067e+000	-2.3724276231e-001
 3.9762973756e+000	 2.2116869537e+000	-2.8891111720e-001
 3.9536128561e+000	 2.2519869858e+000	-3.2442970775e-001
 3.9304879876e+000	 2.2921091116e+000	-3.4377661037e-001
 3.9069246544e+000	 2.3320462570e+000	-3.4695362057e-001
 3.8829248900e+000	 2.3717913691e+000	-3.3398628325e-001
 3.8584908768e+000	 2.4113374202e+000	-3.0492387978e-001
 3.8336249456e+000	 2.4506774117e+000	-2.5983937185e-001
 3.8083295761e+000	 2.4898043779e+000	-1.9882930187e-001
 4.0638993313e+000	 2.1012727632e+000	-7.9152709431e-002
 4.0424283476e+000	 2.1422880420e+000	-1.6289153685e-001
 4.0205098097e+000	 2.1831458655e+000	-2.3043711085e-001
 3.9981451634e+000	 2.2238390798e+000	-2.8172258462e-001
 3.9753360036e+000	 2.2643605407e+000	-3.1670500901e-001
 3.9520840754e+000	 2.3047031177e+000	-3.3536544618e-001
 3.9283912734e+000	 2.3448596980e+000	-3.3770904027e-001
 3.9042596422e+000	 2.3848231898e+000	-3.2376504467e-001
 3.8796913761e+000	 2.4245865269e+000	-2.9358680551e-001
 3.8546888190e+000	 2.4641426722e+000	-2.4725170110e-001
 3.8292544638e+000	 2.5034846217e+000	-1.9983949976e-001
 4.0861064314e+000	 2.1127551280e+000	-7.2329510581e-002
 4.0645181200e+000	 2.1539945340e+000	-1.5603009191e-001
 4.0424798087e+000	 2.1950756243e+000	-2.2337842880e-001
 4.0199929511e+000	 2.2359912059e+000	-2.7430996690e-001
 3.9970591512e+000	 2.2767340956e+000	-3.0878441884e-001
 3.9736801633e+000	 2.3172971239e+000	-3.2678587630e-001
 3.9498578924e+000	 2.3576731389e+000	-3.2832287841e-001
 3.9255943943e+000	 2.3978550105e+000	-3.1342843599e-001
 3.9008918754e+000	 2.4378356336e+000	-2.8216001130e-001
 3.8757526923e+000	 2.4776079327e+000	-2.3459945302e-001
 3.8501793516e+000	 2.5171648656e+000	-2.4181453088e-001
 4.1083135316e+000	 2.1242374928e+000	-6.5218033971e-002
 4.0866078923e+000	 2.1657010260e+000	-1.4891066421e-001
 4.0644498076e+000	 2.2070053831e+000	-2.1609119155e-001
 4.0418407389e+000	 2.2481433320e+000	-2.6669739279e-001
 4.0187822988e+000	 2.2891076504e+000	-3.0069168378e-001
 3.9952762511e+000	 2.3298911300e+000	-3.1806122987e-001
 3.9713245114e+000	 2.3704865799e+000	-3.1881801194e-001
 3.9469291465e+000	 2.4108868312e+000	-3.0299884758e-001
 3.9220923747e+000	 2.4510847403e+000	-2.7066536701e-001
 3.8968165656e+000	 2.4910731932e+000	-2.2190394356e-001
 3.8711042394e+000	 2.5308451094e+000	-2.7933411306e-001
 4.1305206318e+000	 2.1357198577e+000	-5.7843137290e-002
 4.1086976647e+000	 2.1774075181e+000	-1.4155783903e-001
 4.0864198066e+000	 2.2189351420e+000	-2.0859967615e-001
 4.0636885267e+000	 2.2602954581e+000	-2.5890879560e-001
 4.0405054463e+000	 2.3014812053e+000	-2.9245035824e-001
 4.0168723389e+000	 2.3424851361e+000	-3.0921464754e-001
 3.9927911303e+000	 2.3833000209e+000	-3.0921713332e-001
 3.9682638986e+000	 2.4239186519e+000	-2.9249848967e-001
 3.9432928740e+000	 2.4643338470e+000	-2.5912456711e-001
 3.9178804389e+000	 2.5045384537e+000	-2.2648778222e-001
 3.8920291272e+000	 2.5445253532e+000	-3.1249828689e-001
 4.1527277319e+000	 2.1472022225e+000	-5.0229480632e-002
 4.1307874371e+000	 2.1891140101e+000	-1.3399600615e-001
 4.1083898056e+000	 2.2308649008e+000	-2.0092796664e-001
 4.0855363145e+000	 2.2724475842e+000	-2.5096791848e-001
 4.0622285939e+000	 2.3138547601e+000	-2.8408380961e-001
 4.0384684268e+000	 2.3550791422e+000	-3.0026908650e-001
 4.0142577493e+000	 2.3961134619e+000	-2.9954275542e-001
 3.9895986507e+000	 2.4369504726e+000	-2.8194939721e-001
 3.9644933734e+000	 2.4775829537e+000	-2.4755913541e-001
 3.9389443123e+000	 2.5180037142e+000	-2.6221720274e-001
 3.9129540150e+000	 2.5582055971e+000	-3.4140693257e-001
 4.1749348321e+000	 2.1586845873e+000	-4.2401531743e-002
 4.1528772095e+000	 2.2008205021e+000	-1.2624936509e-001
 4.1303598045e+000	 2.2427946596e+000	-1.9309995918e-001
 4.1073841022e+000	 2.2845997104e+000	-2.4289831943e-001
 4.0839517414e+000	 2.3262283150e+000	-2.7561522325e-001
 4.0600645146e+000	 2.3676731483e+000	-2.9124732535e-001
 4.0357243683e+000	 2.4089269028e+000	-2.8981721637e-001
 4.0109334029e+000	 2.4499822933e+000	-2.7137343451e-001
 3.9856938727e+000	 2.4908320604e+000	-2.3599042958e-001
 3.9600081856e+000	 2.5314689747e+000	-2.9371270836e-001
 3.9338789027e+000	 2.5718858409e+000	-3.6615977420e-001
 4.1971419323e+000	 2.1701669521e+000	-3.4383571117e-002
 4.1749669819e+000	 2.2125269942e+000	-1.1834193008e-001
 4.1523298035e+000	 2.2547244184e+000	-1.8513936701e-001
 4.1292318900e+000	 2.2967518365e+000	-2.3472337621e-001
 4.1056748890e+000	 2.3386018699e+000	-2.6706760732e-001
 4.0816606025e+000	 2.3802671544e+000	-2.8217196882e-001
 4.0571909873e+000	 2.4217403438e+000	-2.8006268411e-001
 4.0322681550e+000	 2.4630141140e+000	-2.6079229976e-001
 4.0068943720e+000	 2.5040811671e+000	-2.3802620054e-001
 3.9810720589e+000	 2.5449342352e+000	-3.2107246303e-001
 3.9548037905e+000	 2.5855660847e+000	-3.8685638389e-001
 4.2193490324e+000	 2.1816493170e+000	-2.6199696917e-002
 4.1970567543e+000	 2.2242334862e+000	-1.1029753499e-001
 4.1742998024e+000	 2.2666541773e+000	-1.7706972527e-001
 4.1510796778e+000	 2.3089039626e+000	-2.2646629109e-001
 4.1273980366e+000	 2.3509754247e+000	-2.5846379740e-001
 4.1032566903e+000	 2.3928611605e+000	-2.7306545239e-001
 4.0786576062e+000	 2.4345537848e+000	-2.7030116091e-001
 4.0536029072e+000	 2.4760459347e+000	-2.5022752939e-001
 4.0280948713e+000	 2.5173302738e+000	-2.6791381517e-001
 4.0021359322e+000	 2.5583994957e+000	-3.4439447780e-001
 3.9757286783e+000	 2.5992463286e+000	-4.0359618577e-001
 3.7664798005e+000	 2.4624438902e+000	-2.2656240512e-001
 3.7410402811e+000	 2.5009233526e+000	-1.4516218494e-001
 3.7151813848e+000	 2.5391784651e+000	-2.8183532257e-001
 3.6889060008e+000	 2.5772024595e+000	-3.9156728686e-001
 3.6622171622e+000	 2.6149886150e+000	-4.7510949022e-001
 3.6351180455e+000	 2.6525302629e+000	-5.3322201275e-001
 3.6076119692e+000	 2.6898207896e+000	-5.6667134650e-001
 3.5797023927e+000	 2.7268536410e+000	-5.7622815329e-001
 3.5513929153e+000	 2.7636223260e+000	-5.6266504298e-001
 3.5226872744e+000	 2.8001204200e+000	-5.2675437844e-001
 3.4935893441e+000	 2.8363415688e+000	-4.6926611399e-001
 3.7874046883e+000	 2.4761241341e+000	-2.1273678202e-001
 3.7618238382e+000	 2.5148173712e+000	-1.6147722091e-001
 3.7358212814e+000	 2.5532850122e+000	-2.5561926319e-001
 3.7093999231e+000	 2.5915202509e+000	-3.6445995696e-001
 3.6825628131e+000	 2.6295163296e+000	-4.4835857656e-001
 3.6553131458e+000	 2.6672665421e+000	-5.0808238125e-001
 3.6276542579e+000	 2.7047642384e+000	-5.4440331274e-001
 3.5995896282e+000	 2.7420028279e+000	-5.5809571274e-001
 3.5711228760e+000	 2.7789757834e+000	-5.4993406350e-001
 3.5422577593e+000	 2.8156766446e+000	-5.2069075832e-001
 3.5129981738e+000	 2.8520990220e+000	-4.7113390833e-001
 3.8083295761e+000	 2.4898043779e+000	-1.9882930187e-001
 3.7826073953e+000	 2.5287113898e+000	-2.0483688532e-001
 3.7564611780e+000	 2.5673915592e+000	-2.4918816908e-001
 3.7298938453e+000	 2.6058380424e+000	-3.3780911950e-001
 3.7029084640e+000	 2.6440440441e+000	-4.2152097657e-001
 3.6755082460e+000	 2.6820028213e+000	-4.8230527187e-001
 3.6476965466e+000	 2.7197076873e+000	-5.2093996109e-001
 3.6194768638e+000	 2.7571520148e+000	-5.3820362872e-001
 3.5908528366e+000	 2.7943292408e+000	-5.3487319025e-001
 3.5618282442e+000	 2.8312328691e+000	-5.1172162713e-001
 3.5324070035e+000	 2.8678564751e+000	-4.6951576129e-001
 3.8292544638e+000	 2.5034846217e+000	-1.9983949976e-001
 3.8033909524e+000	 2.5426054084e+000	-2.4328962771e-001
 3.7771010746e+000	 2.5814981062e+000	-2.8091819231e-001
 3.7503877675e+000	 2.6201558338e+000	-3.1235167475e-001
 3.7232541150e+000	 2.6585717586e+000	-3.9438932721e-001
 3.6957033463e+000	 2.6967391006e+000	-4.5568643165e-001
 3.6677388353e+000	 2.7346511361e+000	-4.9608049319e-001
 3.6393640993e+000	 2.7723012017e+000	-5.1635490294e-001
 3.6105827973e+000	 2.8096826981e+000	-5.1728957098e-001
 3.5813987290e+000	 2.8467890937e+000	-4.9965862507e-001
 3.5518158332e+000	 2.8836139283e+000	-4.6422815197e-001
 3.8501793516e+000	 2.5171648656e+000	-2.4181453088e-001
 3.8241745096e+000	 2.5564994271e+000	-2.7694240179e-001
 3.7977409712e+000	 2.5956046532e+000	-3.0758795926e-001
 3.7708816897e+000	 2.6344736253e+000	-3.3335265831e-001
 3.7435997659e+000	 2.6730994731e+000	-3.6675561789e-001
 3.7158984465e+000	 2.7114753798e+000	-4.2802082854e-001
 3.6877811240e+000	 2.7495945849e+000	-4.6962319495e-001
 3.6592513348e+000	 2.7874503886e+000	-4.9235147959e-001
 3.6303127579e+000	 2.8250361555e+000	-4.9698914918e-001
 3.6009692139e+000	 2.8623453183e+000	-4.8431203632e-001
 3.5712246628e+000	 2.8993713815e+000	-4.5508604673e-001
 3.8711042394e+000	 2.5308451094e+000	-2.7933411306e-001
 3.8449580667e+000	 2.5703934457e+000	-3.0590188453e-001
 3.8183808678e+000	 2.6097112003e+000	-3.2931081858e-001
 3.7913756120e+000	 2.6487914167e+000	-3.4913723439e-001
 3.7639454168e+000	 2.6876271877e+000	-3.6495926609e-001
 3.7360935468e+000	 2.7262116591e+000	-3.9910267242e-001
 3.7078234128e+000	 2.7645380338e+000	-4.4136546127e-001
 3.6791385703e+000	 2.8025995755e+000	-4.6599427394e-001
 3.6500427186e+000	 2.8403896129e+000	-4.7377669659e-001
 3.6205396987e+000	 2.8779015428e+000	-4.6549082563e-001
 3.5906334925e+000	 2.9151288346e+000	-4.4190294012e-001
 3.8920291272e+000	 2.5445253532e+000	-3.1249828689e-001
 3.8657416238e+000	 2.5842874643e+000	-3.3027448351e-001
 3.8390207644e+000	 2.6238177473e+000	-3.4619973995e-001
 3.8118695342e+000	 2.6631092081e+000	-3.5982512628e-001
 3.7842910677e+000	 2.7021549022e+000	-3.7070233536e-001
 3.7562886470e+000	 2.7409479383e+000	-3.7838500357e-001
 3.7278657015e+000	 2.7794814826e+000	-4.1110381997e-001
 3.6990258058e+000	 2.8177487624e+000	-4.3708319999e-001
 3.6697726792e+000	 2.8557430702e+000	-4.4745584471e-001
 3.6401101836e+000	 2.8934577674e+000	-4.4300267383e-001
 3.6100423222e+000	 2.9308862878e+000	-4.2449089438e-001
 3.9129540150e+000	 2.5582055971e+000	-3.4140693257e-001
 3.8865251809e+000	 2.5981814829e+000	-3.5016634418e-001
 3.8596606609e+000	 2.6379242943e+000	-3.5836732423e-001
 3.8323634564e+000	 2.6774269996e+000	-3.6553557690e-001
 3.8046367186e+000	 2.7166826167e+000	-3.7119624883e-001
 3.7764837473e+000	 2.7556842175e+000	-3.7487528547e-001
 3.7479079902e+000	 2.7944249314e+000	-3.7863395504e-001
 3.7189130413e+000	 2.8328979493e+000	-4.0541719727e-001
 3.6895026398e+000	 2.8710965276e+000	-4.1782911527e-001
 3.6596806685e+000	 2.9090139919e+000	-4.1665401213e-001
 3.6294511519e+000	 2.9466437410e+000	-4.0266057777e-001
 3.9338789027e+000	 2.5718858409e+000	-3.6615977420e-001
 3.9073087380e+000	 2.6120755016e+000	-3.6568335681e-001
 3.8803005575e+000	 2.6520308414e+000	-3.6592581325e-001
 3.8528573787e+000	 2.6917447910e+000	-3.6638736157e-001
 3.8249823695e+000	 2.7312103313e+000	-3.6656649361e-001
 3.7966788475e+000	 2.7704204968e+000	-3.6596136739e-001
 3.7679502789e+000	 2.8093683802e+000	-3.6407119836e-001
 3.7388002768e+000	 2.8480471362e+000	-3.7079425670e-001
 3.7092326005e+000	 2.8864499850e+000	-3.8469794978e-001
 3.6792511533e+000	 2.9245702165e+000	-3.8625005540e-001
 3.6488599816e+000	 2.9624011941e+000	-3.7622130167e-001
 3.9548037905e+000	 2.5855660847e+000	-3.8685638389e-001
 3.9280922951e+000	 2.6259695202e+000	-3.7693116325e-001
 3.9009404541e+000	 2.6661373884e+000	-3.6898709932e-001
 3.8733513009e+000	 2.7060625825e+000	-3.6249880035e-001
 3.8453280204e+000	 2.7457380458e+000	-3.5693799128e-001
 3.8168739478e+000	 2.7851567760e+000	-3.5177494249e-001
 3.7879925676e+000	 2.8243118291e+000	-3.4647989894e-001
 3.7586875124e+000	 2.8631963231e+000	-3.4052450575e-001
 3.7289625611e+000	 2.9018034423e+000	-3.4786273809e-001
 3.6988216382e+000	 2.9401264410e+000	-3.5159483429e-001
 3.6682688113e+000	 2.9781586473e+000	-3.4498105641e-001
 3.9757286783e+000	 2.5992463286e+000	-4.0359618577e-001
 3.9488758523e+000	 2.6398635388e+000	-3.8401516346e-001
 3.9215803507e+000	 2.6802439354e+000	-3.6766273445e-001
 3.8938452231e+000	 2.7203803739e+000	-3.5398777007e-001
 3.8656736713e+000	 2.7602657603e+000	-3.4243511275e-001
 3.8370690480e+000	 2.7998930552e+000	-3.3244704144e-001
 3.8080348563e+000	 2.8392552779e+000	-3.2346473893e-001
 3.7785747479e+000	 2.8783455100e+000	-3.1492975717e-001
 3.7486925218e+000	 2.9171568997e+000	-3.0712284605e-001
 3.7183921230e+000	 2.9556826656e+000	-3.1249122645e-001
 3.6876776410e+000	 2.9939161004e+000	-3.0874654611e-001
 3.4935893441e+000	 2.8363415688e+000	-4.6926611399e-001
 3.4641031334e+000	 2.8722794922e+000	-4.5450927379e-001
 3.4342327849e+000	 2.9079279873e+000	-4.4442655069e-001
 3.4039825722e+000	 2.9432809326e+000	-4.3957433009e-001
 3.3733568988e+000	 2.9783322907e+000	-4.4047451253e-001
 3.3423602950e+000	 3.0130761123e+000	-4.4761277148e-001
 3.3109974166e+000	 3.0475065394e+000	-4.6143691250e-001
 3.2792730419e+000	 3.0816178084e+000	-4.8235533870e-001
 3.2471920698e+000	 3.1154042534e+000	-5.1073562737e-001
 3.2147595170e+000	 3.1488603094e+000	-5.3615440028e-001
 3.1819805154e+000	 3.1819805154e+000	-5.7238976825e-001
 3.5129981738e+000	 2.8520990220e+000	-4.7113390833e-001
 3.4833481508e+000	 2.8882366005e+000	-4.6167407326e-001
 3.4533118559e+000	 2.9240831428e+000	-4.5593788997e-001
 3.4228935865e+000	 2.9596324933e+000	-4.5453293187e-001
 3.3920977704e+000	 2.9948785812e+000	-4.5803248268e-001
 3.3609289633e+000	 3.0298154240e+000	-4.6697372072e-001
 3.3293918467e+000	 3.0644371313e+000	-4.8185600524e-001
 3.2974912255e+000	 3.0987379073e+000	-5.0313926986e-001
 3.2652320257e+000	 3.1327120548e+000	-5.2619346153e-001
 3.2326192921e+000	 3.1663539778e+000	-5.4414567035e-001
 3.1996581849e+000	 3.1996581849e+000	-5.7751840267e-001
 3.5324070035e+000	 2.8678564751e+000	-4.6951576129e-001
 3.5025931682e+000	 2.9041937088e+000	-4.6580322477e-001
 3.4723909269e+000	 2.9402382983e+000	-4.6488508067e-001
 3.4418046008e+000	 2.9759840540e+000	-4.6742015202e-001
 3.4108386421e+000	 3.0114248717e+000	-4.7403314365e-001
 3.3794976316e+000	 3.0465547358e+000	-4.8531275271e-001
 3.3477862768e+000	 3.0813677232e+000	-5.0180988174e-001
 3.3157094090e+000	 3.1158580062e+000	-5.2403596000e-001
 3.2832719817e+000	 3.1500198562e+000	-5.3415529097e-001
 3.2504790672e+000	 3.1838476462e+000	-5.5073492351e-001
 3.2173358544e+000	 3.2173358544e+000	-5.8187361307e-001
 3.5518158332e+000	 2.8836139283e+000	-4.6422815197e-001
 3.5218381856e+000	 2.9201508170e+000	-4.6670142554e-001
 3.4914699980e+000	 2.9563934538e+000	-4.7106097530e-001
 3.4607156151e+000	 2.9923356148e+000	-4.7801694251e-001
 3.4295795138e+000	 3.0279711622e+000	-4.8824549813e-001
 3.3980662999e+000	 3.0632940475e+000	-5.0238687907e-001
 3.3661807068e+000	 3.0982983150e+000	-5.2104352789e-001
 3.3339275926e+000	 3.1329781052e+000	-5.3759900557e-001
 3.3013119376e+000	 3.1673276576e+000	-5.4021488287e-001
 3.2683388423e+000	 3.2013413146e+000	-5.5603492988e-001
 3.2350135239e+000	 3.2350135239e+000	-5.8555612120e-001
 3.5712246628e+000	 2.8993713815e+000	-4.5508604673e-001
 3.5410832031e+000	 2.9361079253e+000	-4.6417206740e-001
 3.5105490690e+000	 2.9725486093e+000	-4.7425733239e-001
 3.4796266294e+000	 3.0086871755e+000	-4.8610337678e-001
 3.4483203854e+000	 3.0445174527e+000	-5.0043788959e-001
 3.4166349682e+000	 3.0800333592e+000	-5.1795267542e-001
 3.3845751369e+000	 3.1152289069e+000	-5.3930172040e-001
 3.3521457762e+000	 3.1500982041e+000	-5.4113433641e-001
 3.3193518936e+000	 3.1846354590e+000	-5.4449708731e-001
 3.2861986174e+000	 3.2188349829e+000	-5.6015895214e-001
 3.2526911935e+000	 3.2526911935e+000	-5.8866738194e-001
 3.5906334925e+000	 2.9151288346e+000	-4.4190294012e-001
 3.5603282205e+000	 2.9520650336e+000	-4.5801727204e-001
 3.5296281400e+000	 2.9887037647e+000	-4.7426484603e-001
 3.4985376437e+000	 3.0250387362e+000	-4.9145867344e-001
 3.4670612571e+000	 3.0610637432e+000	-5.1037802012e-001
 3.4352036365e+000	 3.0967726710e+000	-5.3176629310e-001
 3.4029695670e+000	 3.1321594988e+000	-5.4854229216e-001
 3.3703639597e+000	 3.1672183030e+000	-5.4243055996e-001
 3.3373918495e+000	 3.2019432604e+000	-5.4712700273e-001
 3.3040583925e+000	 3.2363286513e+000	-5.6322073222e-001
 3.2703688630e+000	 3.2703688630e+000	-5.9130956352e-001
 3.6100423222e+000	 2.9308862878e+000	-4.2449089438e-001
 3.5795732379e+000	 2.9680221419e+000	-4.4803792518e-001
 3.5487072110e+000	 3.0048589202e+000	-4.7087317454e-001
 3.5174486580e+000	 3.0413902970e+000	-4.9386121931e-001
 3.4858021287e+000	 3.0776100337e+000	-5.1783296769e-001
 3.4537723048e+000	 3.1135119827e+000	-5.4358347062e-001
 3.4213639971e+000	 3.1490900907e+000	-5.4487832195e-001
 3.3885821433e+000	 3.1843384020e+000	-5.4162392774e-001
 3.3554318055e+000	 3.2192510618e+000	-5.4822996920e-001
 3.3219181675e+000	 3.2538223197e+000	-5.6533447841e-001
 3.2880465325e+000	 3.2880465325e+000	-5.9358552833e-001
 3.6294511519e+000	 2.9466437410e+000	-4.0266057777e-001
 3.5988182553e+000	 2.9839792502e+000	-4.3403370961e-001
 3.5677862821e+000	 3.0210140757e+000	-4.6387096815e-001
 3.5363596723e+000	 3.0577418577e+000	-4.9308859163e-001
 3.5045430004e+000	 3.0941563242e+000	-5.2256920283e-001
 3.4723409732e+000	 3.1302512944e+000	-5.4676171698e-001
 3.4397584272e+000	 3.1660206826e+000	-5.3868545159e-001
 3.4068003269e+000	 3.2014585009e+000	-5.3885071087e-001
 3.3734717614e+000	 3.2365588632e+000	-5.4793156202e-001
 3.3397779426e+000	 3.2713159881e+000	-5.6661485289e-001
 3.3057242021e+000	 3.3057242021e+000	-5.9559881434e-001
 3.6488599816e+000	 2.9624011941e+000	-3.7622130167e-001
 3.6180632727e+000	 2.9999363585e+000	-4.1580313717e-001
 3.5868653531e+000	 3.0371692312e+000	-4.5304589575e-001
 3.5552706866e+000	 3.0740934184e+000	-4.8891757958e-001
 3.5232838721e+000	 3.1107026147e+000	-5.2435260475e-001
 3.4909096415e+000	 3.1469906062e+000	-5.3322532269e-001
 3.4581528573e+000	 3.1829512745e+000	-5.3011023721e-001
 3.4250185104e+000	 3.2185785998e+000	-5.3424719959e-001
 3.3915117174e+000	 3.2538666646e+000	-5.4635758540e-001
 3.3576377177e+000	 3.2888096565e+000	-5.6717695967e-001
 3.3234018716e+000	 3.3234018716e+000	-5.9745361716e-001
 3.6682688113e+000	 2.9781586473e+000	-3.4498105641e-001
 3.6373082901e+000	 3.0158934668e+000	-3.9314357972e-001
 3.6059444241e+000	 3.0533243867e+000	-4.3818467095e-001
 3.5741817009e+000	 3.0904449792e+000	-4.8112420516e-001
 3.5420247437e+000	 3.1272489052e+000	-5.2004160680e-001
 3.5094783098e+000	 3.1637299179e+000	-5.1691352903e-001
 3.4765472874e+000	 3.1998818664e+000	-5.1929905230e-001
 3.4432366940e+000	 3.2356986988e+000	-5.2794970272e-001
 3.4095516733e+000	 3.2711744660e+000	-5.4363406647e-001
 3.3754974928e+000	 3.3063033249e+000	-5.6713633290e-001
 3.3410795411e+000	 3.3410795411e+000	-5.9925477265e-001
 3.6876776410e+000	 2.9939161004e+000	-3.0874654611e-001
 3.6565533075e+000	 3.0318505751e+000	-3.6585129918e-001
 3.6250234951e+000	 3.0694795422e+000	-4.1907307713e-001
 3.5930927152e+000	 3.1067965399e+000	-4.6948374334e-001
 3.5607656154e+000	 3.1437951957e+000	-4.9404964576e-001
 3.5280469781e+000	 3.1804692296e+000	-4.9798218074e-001
 3.4949417175e+000	 3.2168124582e+000	-5.0639809245e-001
 3.4614548776e+000	 3.2528187977e+000	-5.2009454716e-001
 3.4275916292e+000	 3.2884822674e+000	-5.3988724937e-001
 3.3933572679e+000	 3.3237969933e+000	-5.6660892554e-001
 3.3587572107e+000	 3.3587572106e+000	-6.0110774003e-001
 3.1819805154e+000	 3.1819805154e+000	-5.7238976825e-001
 3.1488603094e+000	 3.2147595170e+000	-5.6575409321e-001
 3.1154042534e+000	 3.2471920698e+000	-5.5550462871e-001
 3.0816178084e+000	 3.2792730419e+000	-5.5462182833e-001
 3.0475065394e+000	 3.3109974166e+000	-5.5125760877e-001
 3.0130761123e+000	 3.3423602950e+000	-5.4499379556e-001
 2.9783322907e+000	 3.3733568988e+000	-5.3545089498e-001
 2.9432809326e+000	 3.4039825722e+000	-5.2228855304e-001
 2.9079279873e+000	 3.4342327849e+000	-5.0520589058e-001
 2.8722794922e+000	 3.4641031334e+000	-4.8394171425e-001
 2.8363415688e+000	 3.4935893441e+000	-4.5827460383e-001
 3.1996581849e+000	 3.1996581849e+000	-5.7751840267e-001
 3.1663539778e+000	 3.2326192921e+000	-5.7043695125e-001
 3.1327120548e+000	 3.2652320257e+000	-5.5494269162e-001
 3.0987379073e+000	 3.2974912255e+000	-5.5089243781e-001
 3.0644371313e+000	 3.3293918467e+000	-5.5002982600e-001
 3.0298154240e+000	 3.3609289633e+000	-5.4690863528e-001
 2.9948785812e+000	 3.3920977704e+000	-5.4112362488e-001
 2.9596324933e+000	 3.4228935865e+000	-5.3230908437e-001
 2.9240831428e+000	 3.4533118559e+000	-5.2013919525e-001
 2.8882366005e+000	 3.4833481508e+000	-5.0432826657e-001
 2.8520990220e+000	 3.5129981738e+000	-4.8463084485e-001
 3.2173358544e+000	 3.2173358544e+000	-5.8187361307e-001
 3.1838476462e+000	 3.2504790672e+000	-5.7400241828e-001
 3.1500198562e+000	 3.2832719817e+000	-5.5847113716e-001
 3.1158580062e+000	 3.3157094090e+000	-5.4310728953e-001
 3.0813677232e+000	 3.3477862768e+000	-5.4445092755e-001
 3.0465547358e+000	 3.3794976316e+000	-5.4415799423e-001
 3.0114248717e+000	 3.4108386421e+000	-5.4179761401e-001
 2.9759840540e+000	 3.4418046008e+000	-5.3697885675e-001
 2.9402382983e+000	 3.4723909269e+000	-5.2935112558e-001
 2.9041937088e+000	 3.5025931682e+000	-5.1860441695e-001
 2.8678564751e+000	 3.5324070035e+000	-5.0446945298e-001
 3.2350135239e+000	 3.2350135239e+000	-5.8555612120e-001
 3.2013413146e+000	 3.2683388423e+000	-5.7655495418e-001
 3.1673276576e+000	 3.3013119376e+000	-5.6063309184e-001
 3.1329781052e+000	 3.3339275926e+000	-5.3833918173e-001
 3.0982983150e+000	 3.3661807068e+000	-5.3478683213e-001
 3.0632940475e+000	 3.3980662999e+000	-5.3701306298e-001
 3.0279711622e+000	 3.4295795138e+000	-5.3774930105e-001
 2.9923356148e+000	 3.4607156151e+000	-5.3657953042e-001
 2.9563934538e+000	 3.4914699980e+000	-5.3312853419e-001
 2.9201508170e+000	 3.5218381856e+000	-5.2706217872e-001
 2.8836139283e+000	 3.5518158332e+000	-5.1808756811e-001
 3.2526911935e+000	 3.2526911935e+000	-5.8866738194e-001
 3.2188349829e+000	 3.2861986174e+000	-5.7819964786e-001
 3.1846354590e+000	 3.3193518936e+000	-5.6153734305e-001
 3.1500982041e+000	 3.3521457762e+000	-5.3922626824e-001
 3.1152289069e+000	 3.3845751369e+000	-5.2130375713e-001
 3.0800333592e+000	 3.4166349682e+000	-5.2574521496e-001
 3.0445174527e+000	 3.4483203854e+000	-5.2925518887e-001
 3.0086871755e+000	 3.4796266294e+000	-5.3139270849e-001
 2.9725486093e+000	 3.5105490690e+000	-5.3175809262e-001
 2.9361079253e+000	 3.5410832031e+000	-5.2999325751e-001
 2.8993713815e+000	 3.5712246628e+000	-5.2578189327e-001
 3.2703688630e+000	 3.2703688630e+000	-5.9130956352e-001
 3.2363286513e+000	 3.3040583925e+000	-5.7904220020e-001
 3.2019432604e+000	 3.3373918495e+000	-5.6129318586e-001
 3.1672183030e+000	 3.3703639597e+000	-5.3860583405e-001
 3.1321594988e+000	 3.4029695670e+000	-5.1154447172e-001
 3.0967726710e+000	 3.4352036365e+000	-5.1062600154e-001
 3.0610637432e+000	 3.4670612571e+000	-5.1659184289e-001
 3.0250387362e+000	 3.4985376437e+000	-5.2169993852e-001
 2.9887037647e+000	 3.5296281400e+000	-5.2552629617e-001
 2.9520650336e+000	 3.5603282205e+000	-5.2768905954e-001
 2.9151288346e+000	 3.5906334925e+000	-5.2784870647e-001
 3.2880465325e+000	 3.2880465325e+000	-5.9358552833e-001
 3.2538223197e+000	 3.3219181675e+000	-5.7918890761e-001
 3.2192510618e+000	 3.3554318055e+000	-5.6001040946e-001
 3.1843384020e+000	 3.3885821433e+000	-5.3659121914e-001
 3.1490900907e+000	 3.4213639971e+000	-5.0949333573e-001
 3.1135119827e+000	 3.4537723048e+000	-4.9192714719e-001
 3.0776100337e+000	 3.4858021287e+000	-5.0003588932e-001
 3.0413902970e+000	 3.5174486580e+000	-5.0778271398e-001
 3.0048589202e+000	 3.5487072110e+000	-5.1471946864e-001
 2.9680221419e+000	 3.5795732379e+000	-5.2044069970e-001
 2.9308862878e+000	 3.6100423222e+000	-5.2458387205e-001
 3.3057242021e+000	 3.3057242021e+000	-5.9559881434e-001
 3.2713159881e+000	 3.3397779426e+000	-5.7874664612e-001
 3.2365588632e+000	 3.3734717614e+000	-5.5779928384e-001
 3.2014585009e+000	 3.4068003269e+000	-5.3329614284e-001
 3.1660206826e+000	 3.4397584272e+000	-5.0579726630e-001
 3.1302512944e+000	 3.4723409732e+000	-4.7588185876e-001
 3.0941563242e+000	 3.5045430004e+000	-4.7986401355e-001
 3.0577418577e+000	 3.5363596723e+000	-4.8992247572e-001
 3.0210140757e+000	 3.5677862821e+000	-4.9962376697e-001
 2.9839792502e+000	 3.5988182553e+000	-5.0853900927e-001
 2.9466437410e+000	 3.6294511519e+000	-5.1628285184e-001
 3.3234018716e+000	 3.3234018716e+000	-5.9745361716e-001
 3.2888096565e+000	 3.3576377177e+000	-5.7782285596e-001
 3.2538666646e+000	 3.3915117174e+000	-5.5477054713e-001
 3.2185785998e+000	 3.4250185104e+000	-5.2883469380e-001
 3.1829512745e+000	 3.4581528573e+000	-5.0057375474e-001
 3.1469906062e+000	 3.4909096415e+000	-4.7056516601e-001
 3.1107026147e+000	 3.5232838721e+000	-4.5635295860e-001
 3.0740934184e+000	 3.5552706866e+000	-4.6840061335e-001
 3.0371692312e+000	 3.5868653531e+000	-4.8052518561e-001
 2.9999363585e+000	 3.6180632727e+000	-4.9227454355e-001
 2.9624011941e+000	 3.6488599816e+000	-5.0324071578e-001
 3.3410795411e+000	 3.3410795411e+000	-5.9925477265e-001
 3.3063033249e+000	 3.3754974928e+000	-5.7652552662e-001
 3.2711744660e+000	 3.4095516733e+000	-5.5103539308e-001
 3.2356986988e+000	 3.4432366940e+000	-5.2332132020e-001
 3.1998818664e+000	 3.4765472874e+000	-4.9394055320e-001
 3.1637299179e+000	 3.5094783098e+000	-4.6346914376e-001
 3.1272489052e+000	 3.5420247437e+000	-4.3250040115e-001
 3.0904449792e+000	 3.5741817009e+000	-4.4349846663e-001
 3.0533243867e+000	 3.6059444241e+000	-4.5770956084e-001
 3.0158934668e+000	 3.6373082901e+000	-4.7193758911e-001
 2.9781586473e+000	 3.6682688113e+000	-4.8575215234e-001
 3.3587572107e+000	 3.3587572106e+000	-6.0110774003e-001
 3.3237969933e+000	 3.3933572679e+000	-5.7496318242e-001
 3.2884822674e+000	 3.4275916292e+000	-5.4670545920e-001
 3.2528187977e+000	 3.4614548776e+000	-5.1687082028e-001
 3.2168124582e+000	 3.4949417175e+000	-4.8601566781e-001
 3.1804692296e+000	 3.5280469781e+000	-4.5471505265e-001
 3.1437951957e+000	 3.5607656154e+000	-4.2356111232e-001
 3.1067965399e+000	 3.5930927152e+000	-4.1549732674e-001
 3.0694795422e+000	 3.6250234951e+000	-4.3146257497e-001
 3.0318505751e+000	 3.6565533075e+000	-4.4781817085e-001
 2.9939161004e+000	 3.6876776410e+000	-4.6411147853e-001
 2.8363415688e+000	 3.4935893441e+000	-4.5827460383e-001
 2.8001204200e+000	 3.5226872744e+000	-4.0320232797e-001
 2.7636223260e+000	 3.5513929153e+000	-3.6655855308e-001
 2.7268536410e+000	 3.5797023927e+000	-3.4831018320e-001
 2.6898207896e+000	 3.6076119692e+000	-3.4844113623e-001
 2.6525302629e+000	 3.6351180455e+000	-3.6695187357e-001
 2.6149886150e+000	 3.6622171622e+000	-4.0385884487e-001
 2.5772024595e+000	 3.6889060008e+000	-4.5919385032e-001
 2.5391784651e+000	 3.7151813848e+000	-5.3300332373e-001
 2.5009233526e+000	 3.7410402811e+000	-6.2534753943e-001
 2.4624438902e+000	 3.7664798005e+000	-4.7601914672e-001
 2.8520990220e+000	 3.5129981738e+000	-4.8463084485e-001
 2.8156766446e+000	 3.5422577593e+000	-4.3818979486e-001
 2.7789757834e+000	 3.5711228760e+000	-4.0972542843e-001
 2.7420028279e+000	 3.5995896282e+000	-3.9922206875e-001
 2.7047642384e+000	 3.6276542579e+000	-4.0668222022e-001
 2.6672665421e+000	 3.6553131458e+000	-4.3212606495e-001
 2.6295163296e+000	 3.6825628131e+000	-4.7559087189e-001
 2.5915202509e+000	 3.7093999231e+000	-5.3713032114e-001
 2.5532850122e+000	 3.7358212814e+000	-6.1681374675e-001
 2.5148173712e+000	 3.7618238382e+000	-6.3789200645e-001
 2.4761241341e+000	 3.7874046883e+000	-4.8710096653e-001
 2.8678564751e+000	 3.5324070035e+000	-5.0446945298e-001
 2.8312328691e+000	 3.5618282442e+000	-4.6687400015e-001
 2.7943292408e+000	 3.5908528366e+000	-4.4679557912e-001
 2.7571520148e+000	 3.6194768638e+000	-4.4423588123e-001
 2.7197076873e+000	 3.6476965466e+000	-4.5921596360e-001
 2.6820028213e+000	 3.6755082460e+000	-4.9177571243e-001
 2.6440440441e+000	 3.7029084640e+000	-5.4197321630e-001
 2.6058380424e+000	 3.7298938453e+000	-6.0988405232e-001
 2.5673915592e+000	 3.7564611780e+000	-6.5669856254e-001
 2.5287113898e+000	 3.7826073953e+000	-5.9439021341e-001
 2.4898043779e+000	 3.8083295761e+000	-5.0103813515e-001
 2.8836139283e+000	 3.5518158332e+000	-5.1808756811e-001
 2.8467890937e+000	 3.5813987290e+000	-4.8954668894e-001
 2.8096826981e+000	 3.6105827973e+000	-4.7805515469e-001
 2.7723012017e+000	 3.6393640993e+000	-4.8363197709e-001
 2.7346511361e+000	 3.6677388353e+000	-5.0631673564e-001
 2.6967391006e+000	 3.6957033463e+000	-5.4616900757e-001
 2.6585717586e+000	 3.7232541150e+000	-6.0326770522e-001
 2.6201558338e+000	 3.7503877675e+000	-6.7555558474e-001
 2.5814981062e+000	 3.7771010746e+000	-6.1206955572e-001
 2.5426054084e+000	 3.8033909524e+000	-5.5501109771e-001
 2.5034846217e+000	 3.8292544638e+000	-5.0479691739e-001
 2.8993713815e+000	 3.5712246628e+000	-5.2578189327e-001
 2.8623453183e+000	 3.6009692139e+000	-5.0649926579e-001
 2.8250361555e+000	 3.6303127579e+000	-5.0379006164e-001
 2.7874503886e+000	 3.6592513348e+000	-5.1769056827e-001
 2.7495945849e+000	 3.6877811240e+000	-5.4825886060e-001
 2.7114753798e+000	 3.7158984465e+000	-5.9557419746e-001
 2.6730994731e+000	 3.7435997659e+000	-6.5973632274e-001
 2.6344736253e+000	 3.7708816897e+000	-6.2899089607e-001
 2.5956046532e+000	 3.7977409712e+000	-5.7127963886e-001
 2.5564994271e+000	 3.8241745096e+000	-5.1972691009e-001
 2.5171648656e+000	 3.8501793516e+000	-4.7477122557e-001
 2.9151288346e+000	 3.5906334925e+000	-5.2784870647e-001
 2.8779015428e+000	 3.6205396987e+000	-5.1802280399e-001
 2.8403896129e+000	 3.6500427186e+000	-5.2428596993e-001
 2.8025995755e+000	 3.6791385703e+000	-5.4669172603e-001
 2.7645380338e+000	 3.7078234128e+000	-5.8531661899e-001
 2.7262116591e+000	 3.7360935468e+000	-6.4025958322e-001
 2.6876271877e+000	 3.7639454168e+000	-6.4310343066e-001
 2.6487914167e+000	 3.7913756120e+000	-5.8599387131e-001
 2.6097112003e+000	 3.8183808678e+000	-5.3430633603e-001
 2.5703934457e+000	 3.8449580667e+000	-4.8851035502e-001
 2.5308451094e+000	 3.8711042394e+000	-4.4906617696e-001
 2.9308862878e+000	 3.6100423222e+000	-5.2458387205e-001
 2.8934577674e+000	 3.6401101836e+000	-5.2440805436e-001
 2.8557430702e+000	 3.6697726792e+000	-5.3982831941e-001
 2.8177487624e+000	 3.6990258058e+000	-5.7091538483e-001
 2.7794814826e+000	 3.7278657015e+000	-6.1776424871e-001
 2.7409479383e+000	 3.7562886470e+000	-6.5229283653e-001
 2.7021549022e+000	 3.7842910677e+000	-5.9710209865e-001
 2.6631092081e+000	 3.8118695342e+000	-5.4654707414e-001
 2.6238177473e+000	 3.8390207644e+000	-5.0112751446e-001
 2.5842874643e+000	 3.8657416238e+000	-4.6133457857e-001
 2.5445253532e+000	 3.8920291272e+000	-4.2765017429e-001
 2.9466437410e+000	 3.6294511519e+000	-5.1628285184e-001
 2.9090139919e+000	 3.6596806685e+000	-5.2594545397e-001
 2.8710965276e+000	 3.6895026398e+000	-5.5070232593e-001
 2.8328979493e+000	 3.7189130413e+000	-5.9064134587e-001
 2.7944249314e+000	 3.7479079902e+000	-6.4587594620e-001
 2.7556842175e+000	 3.7764837473e+000	-6.0248889865e-001
 2.7166826167e+000	 3.8046367186e+000	-5.5439623354e-001
 2.6774269996e+000	 3.8323634564e+000	-5.1063330719e-001
 2.6379242943e+000	 3.8596606609e+000	-4.7172137538e-001
 2.5981814829e+000	 3.8865251809e+000	-4.3817315656e-001
 2.5582055971e+000	 3.9129540150e+000	-4.1049214645e-001
 2.9624011941e+000	 3.6488599816e+000	-5.0324071578e-001
 2.9245702165e+000	 3.6792511533e+000	-5.2292513443e-001
 2.8864499850e+000	 3.7092326005e+000	-5.5719298729e-001
 2.8480471362e+000	 3.7388002768e+000	-6.0614928076e-001
 2.8093683802e+000	 3.7679502789e+000	-5.9997608053e-001
 2.7704204968e+000	 3.7966788475e+000	-5.5573699374e-001
 2.7312103313e+000	 3.8249823695e+000	-5.1497335362e-001
 2.6917447910e+000	 3.8528573787e+000	-4.7823560569e-001
 2.6520308414e+000	 3.8803005575e+000	-4.4606644517e-001
 2.6120755016e+000	 3.9073087380e+000	-4.1900008312e-001
 2.5718858409e+000	 3.9338789027e+000	-3.9756153453e-001
 2.9781586473e+000	 3.6682688113e+000	-4.8575215234e-001
 2.9401264410e+000	 3.6988216382e+000	-5.1563692999e-001
 2.9018034423e+000	 3.7289625611e+000	-5.5958508905e-001
 2.8631963231e+000	 3.7586875124e+000	-5.8732377155e-001
 2.8243118291e+000	 3.7879925676e+000	-5.4838957412e-001
 2.7851567760e+000	 3.8168739478e+000	-5.1202914331e-001
 2.7457380458e+000	 3.8453280204e+000	-4.7882111426e-001
 2.7060625825e+000	 3.8733513009e+000	-4.4933723132e-001
 2.6661373884e+000	 3.9009404541e+000	-4.2414156667e-001
 2.6259695202e+000	 3.9280922951e+000	-4.0378975966e-001
 2.5855660847e+000	 3.9548037905e+000	-3.8882827825e-001
 2.9939161004e+000	 3.6876776410e+000	-4.6411147853e-001
 2.9556826656e+000	 3.7183921230e+000	-5.0437038534e-001
 2.9171568997e+000	 3.7486925218e+000	-5.5816321009e-001
 2.8783455100e+000	 3.7785747479e+000	-5.3011233303e-001
 2.8392552779e+000	 3.8080348563e+000	-4.9961901658e-001
 2.7998930552e+000	 3.8370690480e+000	-4.7135741611e-001
 2.7602657603e+000	 3.8656736713e+000	-4.4592730430e-001
 2.7203803739e+000	 3.8938452231e+000	-4.2392166622e-001
 2.6802439354e+000	 3.9215803507e+000	-4.0592589096e-001
 2.6398635388e+000	 3.9488758523e+000	-3.9251698415e-001
 2.5992463286e+000	 3.9757286783e+000	-3.8426280285e-001
 2.4624438902e+000	 3.7664798005e+000	-4.7601914672e-001
 2.4237468907e+000	 3.7914971990e+000	-3.7652577084e-001
 2.3848392068e+000	 3.8160898781e+000	-3.0035689026e-001
 2.3457277277e+000	 3.8402553857e+000	-2.4700872761e-001
 2.3064193751e+000	 3.8639914164e+000	-2.1594084359e-001
 2.2669210994e+000	 3.8872958119e+000	-2.0657801859e-001
 2.2272398761e+000	 3.9101665609e+000	-2.1831219477e-001
 2.1873827014e+000	 3.9326018000e+000	-2.5050447265e-001
 2.1473565890e+000	 3.9545998128e+000	-3.0248715605e-001
 2.1071685659e+000	 3.9761590304e+000	-3.7356583932e-001
 2.0668256687e+000	 3.9972780307e+000	-4.6302153060e-001
 2.4761241341e+000	 3.7874046883e+000	-4.8710096653e-001
 2.4372121512e+000	 3.8125610723e+000	-3.8872341478e-001
 2.3980883135e+000	 3.8372903774e+000	-3.1298260372e-001
 2.3587595484e+000	 3.8615901379e+000	-2.5935133877e-001
 2.3192328160e+000	 3.8854580354e+000	-2.2726600734e-001
 2.2795151055e+000	 3.9088918997e+000	-2.1612850114e-001
 2.2396134310e+000	 3.9318897085e+000	-2.2530819891e-001
 2.1995348275e+000	 3.9544495878e+000	-2.5414400320e-001
 2.1592863478e+000	 3.9765698118e+000	-3.0194642541e-001
 2.1188750579e+000	 3.9982488028e+000	-3.6799971243e-001
 2.0783080336e+000	 4.0194851309e+000	-4.5156400894e-001
 2.4898043779e+000	 3.8083295761e+000	-5.0103813515e-001
 2.4506774117e+000	 3.8336249456e+000	-4.0371665712e-001
 2.4113374202e+000	 3.8584908768e+000	-3.2836157251e-001
 2.3717913691e+000	 3.8829248900e+000	-2.7442204327e-001
 2.3320462570e+000	 3.9069246544e+000	-2.4131104025e-001
 2.2921091116e+000	 3.9304879876e+000	-2.2840730684e-001
 2.2519869858e+000	 3.9536128561e+000	-2.3505738274e-001
 2.2116869537e+000	 3.9762973756e+000	-2.6057768184e-001
 2.1712161067e+000	 3.9985398108e+000	-3.0425661768e-001
 2.1305815500e+000	 4.0203385752e+000	-3.6535677042e-001
 2.0897903984e+000	 4.0416922311e+000	-4.4311708873e-001
 2.5034846217e+000	 3.8292544638e+000	-5.0479691739e-001
 2.4641426722e+000	 3.8546888190e+000	-4.2127125426e-001
 2.4245865269e+000	 3.8796913761e+000	-3.4626536011e-001
 2.3848231898e+000	 3.9042596422e+000	-2.9199815063e-001
 2.3448596980e+000	 3.9283912734e+000	-2.5785893335e-001
 2.3047031177e+000	 3.9520840754e+000	-2.4320304002e-001
 2.2643605407e+000	 3.9753360036e+000	-2.4735389232e-001
 2.2238390798e+000	 3.9981451634e+000	-2.6960512115e-001
 2.1831458655e+000	 4.0205098097e+000	-3.0922273343e-001
 2.1422880420e+000	 4.0424283476e+000	-3.6544731988e-001
 2.1012727632e+000	 4.0638993313e+000	-4.3749629721e-001
 2.5171648656e+000	 3.8501793516e+000	-4.7477122557e-001
 2.4776079327e+000	 3.8757526923e+000	-4.4115345738e-001
 2.4378356336e+000	 3.9008918754e+000	-3.6646595205e-001
 2.3978550105e+000	 3.9255943943e+000	-3.1185732318e-001
 2.3576731389e+000	 3.9498578924e+000	-2.7669296457e-001
 2.3172971239e+000	 3.9736801633e+000	-2.6030452965e-001
 2.2767340956e+000	 3.9970591512e+000	-2.6199203947e-001
 2.2359912059e+000	 4.0199929511e+000	-2.8102604422e-001
 2.1950756243e+000	 4.0424798087e+000	-3.1664983196e-001
 2.1539945340e+000	 4.0645181200e+000	-3.6808167786e-001
 2.1127551280e+000	 4.0861064314e+000	-4.3451712741e-001
 2.5308451094e+000	 3.8711042394e+000	-4.4906617696e-001
 2.4910731932e+000	 3.8968165656e+000	-4.6312999913e-001
 2.4510847403e+000	 3.9220923747e+000	-3.8873574455e-001
 2.4108868312e+000	 3.9469291465e+000	-3.3377756646e-001
 2.3704865799e+000	 3.9713245114e+000	-2.9759669108e-001
 2.3298911300e+000	 3.9952762511e+000	-2.7950082323e-001
 2.2891076504e+000	 4.0187822988e+000	-2.7876629730e-001
 2.2481433320e+000	 4.0418407389e+000	-2.9464028161e-001
 2.2070053831e+000	 4.0644498076e+000	-3.2634302968e-001
 2.1657010260e+000	 4.0866078923e+000	-3.7307017162e-001
 2.1242374928e+000	 4.1083135316e+000	-4.3399503904e-001
 2.5445253532e+000	 3.8920291272e+000	-4.2765017429e-001
 2.5045384537e+000	 3.9178804389e+000	-4.7153940822e-001
 2.4643338470e+000	 3.9432928740e+000	-4.1284753344e-001
 2.4239186519e+000	 3.9682638986e+000	-3.5753722003e-001
 2.3833000209e+000	 3.9927911303e+000	-3.2035394170e-001
 2.3424851361e+000	 4.0168723389e+000	-3.0058118092e-001
 2.3014812053e+000	 4.0405054463e+000	-2.9747129591e-001
 2.2602954581e+000	 4.0636885267e+000	-3.1024776851e-001
 2.2189351420e+000	 4.0864198066e+000	-3.3810749857e-001
 2.1774075181e+000	 4.1086976647e+000	-3.8022313827e-001
 2.1357198577e+000	 4.1305206318e+000	-4.3574545941e-001
 2.5582055971e+000	 3.9129540150e+000	-4.1049214645e-001
 2.5180037142e+000	 3.9389443123e+000	-4.5286891906e-001
 2.4775829537e+000	 3.9644933734e+000	-4.3857450350e-001
 2.4369504726e+000	 3.9895986507e+000	-3.8291494854e-001
 2.3961134619e+000	 4.0142577493e+000	-3.4474880970e-001
 2.3550791422e+000	 4.0384684268e+000	-3.2333506988e-001
 2.3138547601e+000	 4.0622285939e+000	-3.1790181818e-001
 2.2724475842e+000	 4.0855363145e+000	-3.2764854187e-001
 2.2308649008e+000	 4.1083898056e+000	-3.5174846469e-001
 2.1891140101e+000	 4.1307874371e+000	-3.8935092463e-001
 2.1472022225e+000	 4.1527277319e+000	-4.3958378430e-001
 2.5718858409e+000	 3.9338789027e+000	-3.9756153453e-001
 2.5314689747e+000	 3.9600081856e+000	-4.3820498305e-001
 2.4908320604e+000	 3.9856938727e+000	-4.6569021810e-001
 2.4499822933e+000	 4.0109334029e+000	-4.0968973306e-001
 2.4089269028e+000	 4.0357243683e+000	-3.7056564572e-001
 2.3676731483e+000	 4.0600645146e+000	-3.4755215872e-001
 2.3262283150e+000	 4.0839517414e+000	-3.3985279566e-001
 2.2845997104e+000	 4.1073841022e+000	-3.4664273778e-001
 2.2427946596e+000	 4.1303598045e+000	-3.6707120679e-001
 2.2008205021e+000	 4.1528772095e+000	-4.0026388686e-001
 2.1586845873e+000	 4.1749348321e+000	-4.4532537877e-001
 2.5855660847e+000	 3.9548037905e+000	-3.8882827825e-001
 2.5449342352e+000	 3.9810720589e+000	-4.2752039039e-001
 2.5040811671e+000	 4.0068943720e+000	-4.8140686031e-001
 2.4630141140e+000	 4.0322681550e+000	-4.3764086274e-001
 2.4217403438e+000	 4.0571909873e+000	-3.9758905098e-001
 2.3802671544e+000	 4.0816606025e+000	-3.7302231222e-001
 2.3386018699e+000	 4.1056748890e+000	-3.6311930471e-001
 2.2967518365e+000	 4.1292318900e+000	-3.6703058878e-001
 2.2547244184e+000	 4.1523298035e+000	-3.8388105484e-001
 2.2125269942e+000	 4.1749669819e+000	-4.1277239027e-001
 2.1701669521e+000	 4.1971419323e+000	-4.5278557803e-001
 2.5992463286e+000	 3.9757286783e+000	-3.8426280285e-001
 2.5583994957e+000	 4.0021359322e+000	-4.2078835203e-001
 2.5173302738e+000	 4.0280948713e+000	-4.7170931434e-001
 2.4760459347e+000	 4.0536029072e+000	-4.6654792667e-001
 2.4345537848e+000	 4.0786576062e+000	-4.2560387070e-001
 2.3928611605e+000	 4.1032566903e+000	-3.9953558612e-001
 2.3509754247e+000	 4.1273980366e+000	-3.8749656263e-001
 2.3089039626e+000	 4.1510796778e+000	-3.8861242136e-001
 2.2666541773e+000	 4.1742998024e+000	-4.0198338875e-001
 2.2242334862e+000	 4.1970567543e+000	-4.2668680908e-001
 2.1816493170e+000	 4.2193490324e+000	-4.6177968815e-001
 2.0668256687e+000	 3.9972780307e+000	-4.6302153060e-001
 2.0263349401e+000	 4.0179555386e+000	-4.6337540095e-001
 1.9857034249e+000	 4.0381904250e+000	-4.5798174114e-001
 1.9449381662e+000	 4.0579817064e+000	-4.4632985404e-001
 1.9040462023e+000	 4.0773285445e+000	-4.2791048090e-001
 1.8630345624e+000	 4.0962302449e+000	-4.1908796044e-001
 1.8219102636e+000	 4.1146862567e+000	-4.4132372243e-001
 1.7806803072e+000	 4.1326961712e+000	-4.5297800478e-001
 1.7393516748e+000	 4.1502597210e+000	-4.5493225214e-001
 1.6979313258e+000	 4.1673767784e+000	-4.4804920139e-001
 1.6564261930e+000	 4.1840473548e+000	-4.3317052976e-001
 2.0783080336e+000	 4.0194851309e+000	-4.5156400894e-001
 2.0375923565e+000	 4.0402775138e+000	-4.4787539092e-001
 1.9967351106e+000	 4.0606248162e+000	-4.3819069218e-001
 1.9557433782e+000	 4.0805260492e+000	-4.2200374909e-001
 1.9146242367e+000	 4.0999803697e+000	-3.9880967033e-001
 1.8733847544e+000	 4.1189870796e+000	-3.7032823758e-001
 1.8320319873e+000	 4.1375456248e+000	-3.8674545921e-001
 1.7905729755e+000	 4.1556555944e+000	-3.9242488169e-001
 1.7490147397e+000	 4.1733167194e+000	-3.8830123541e-001
 1.7073642776e+000	 4.1905288716e+000	-3.7528992245e-001
 1.6656285608e+000	 4.2072920623e+000	-3.5428458933e-001
 2.0897903984e+000	 4.0416922311e+000	-4.4311708873e-001
 2.0488497728e+000	 4.0625994891e+000	-4.3597706891e-001
 2.0077667963e+000	 4.0830592075e+000	-4.2259890884e-001
 1.9665485903e+000	 4.1030703921e+000	-4.0248042790e-001
 1.9252022712e+000	 4.1226321950e+000	-3.7512054763e-001
 1.8837349464e+000	 4.1417439143e+000	-3.4002106850e-001
 1.8421537110e+000	 4.1604049929e+000	-3.3911116471e-001
 1.8004656439e+000	 4.1786150176e+000	-3.3892626955e-001
 1.7586778046e+000	 4.1963737179e+000	-3.2883635191e-001
 1.7167972294e+000	 4.2136809648e+000	-3.0980985591e-001
 1.6748309285e+000	 4.2305367698e+000	-2.8279276733e-001
 2.1012727632e+000	 4.0638993313e+000	-4.3749629721e-001
 2.0601071891e+000	 4.0849214643e+000	-4.2749308001e-001
 2.0187984819e+000	 4.1054935987e+000	-4.1101619270e-001
 1.9773538023e+000	 4.1256147349e+000	-3.8756688684e-001
 1.9357803056e+000	 4.1452840202e+000	-3.5664734204e-001
 1.8940851384e+000	 4.1645007490e+000	-3.1776246359e-001
 1.8522754347e+000	 4.1832643610e+000	-2.9854694629e-001
 1.8103583123e+000	 4.2015744408e+000	-2.9259734117e-001
 1.7683408694e+000	 4.2194307163e+000	-2.7664181956e-001
 1.7262301812e+000	 4.2368330580e+000	-2.5170225193e-001
 1.6840332963e+000	 4.2537814774e+000	-2.1877734069e-001
 2.1127551280e+000	 4.0861064314e+000	-4.3451712741e-001
 2.0713646055e+000	 4.1072434395e+000	-4.2223616820e-001
 2.0298301676e+000	 4.1279279900e+000	-4.0325257796e-001
 1.9881590143e+000	 4.1481590777e+000	-3.7707048936e-001
 1.9463583401e+000	 4.1679358455e+000	-3.4319478493e-001
 1.9044353304e+000	 4.1872575837e+000	-3.0113291637e-001
 1.8623971584e+000	 4.2061237291e+000	-2.6517968501e-001
 1.8202509806e+000	 4.2245338639e+000	-2.5355417946e-001
 1.7780039343e+000	 4.2424877148e+000	-2.3182290312e-001
 1.7356631330e+000	 4.2599851512e+000	-2.0106154449e-001
 1.6932356640e+000	 4.2770261849e+000	-1.6232190735e-001
 2.1242374928e+000	 4.1083135316e+000	-4.3399503904e-001
 2.0826220218e+000	 4.1295654147e+000	-4.2001917364e-001
 2.0408618533e+000	 4.1503623812e+000	-3.9911832520e-001
 1.9989642264e+000	 4.1707034205e+000	-3.7079895612e-001
 1.9569363745e+000	 4.1905876707e+000	-3.3456809624e-001
 1.9147855224e+000	 4.2100144184e+000	-2.8993518485e-001
 1.8725188821e+000	 4.2289830972e+000	-2.3913701469e-001
 1.8301436490e+000	 4.2474932871e+000	-2.2191375282e-001
 1.7876669991e+000	 4.2655447132e+000	-1.9448588587e-001
 1.7450960848e+000	 4.2831372445e+000	-1.5798331941e-001
 1.7024380317e+000	 4.3002708924e+000	-1.1351135055e-001
 2.1357198577e+000	 4.1305206318e+000	-4.3574545941e-001
 2.0938794381e+000	 4.1518873899e+000	-4.2065503007e-001
 2.0518935390e+000	 4.1727967725e+000	-3.9842391530e-001
 2.0097694384e+000	 4.1932477633e+000	-3.6856035532e-001
 1.9675144090e+000	 4.2132394960e+000	-3.3057297135e-001
 1.9251357145e+000	 4.2327712531e+000	-2.8397263084e-001
 1.8826406057e+000	 4.2518424653e+000	-2.2827429753e-001
 1.8400363174e+000	 4.2704527103e+000	-1.9779389138e-001
 1.7973300640e+000	 4.2886017116e+000	-1.6473804227e-001
 1.7545290366e+000	 4.3062893377e+000	-1.2256428336e-001
 1.7116403995e+000	 4.3235155999e+000	-7.2431804330e-002
 2.1472022225e+000	 4.1527277319e+000	-4.3958378430e-001
 2.1051368545e+000	 4.1742093651e+000	-4.2395676236e-001
 2.0629252247e+000	 4.1952311637e+000	-4.0098004350e-001
 2.0205746504e+000	 4.2157921061e+000	-3.7016309349e-001
 1.9780924434e+000	 4.2358913212e+000	-3.3101556834e-001
 1.9354859065e+000	 4.2555280878e+000	-2.8304920377e-001
 1.8927623294e+000	 4.2747018334e+000	-2.2577968957e-001
 1.8499289858e+000	 4.2934121334e+000	-1.8131326392e-001
 1.8069931288e+000	 4.3116587101e+000	-1.4268761143e-001
 1.7639619884e+000	 4.3294414309e+000	-9.4902233932e-002
 1.7208427672e+000	 4.3467603075e+000	-3.9170620016e-002
 2.1586845873e+000	 4.1749348321e+000	-4.4532537877e-001
 2.1163942708e+000	 4.1965313403e+000	-4.2973748403e-001
 2.0739569104e+000	 4.2176655550e+000	-4.0659761374e-001
 2.0313798625e+000	 4.2383364489e+000	-3.7541590640e-001
 1.9886704779e+000	 4.2585431465e+000	-3.3570249570e-001
 1.9458360985e+000	 4.2782849225e+000	-2.8696942508e-001
 1.9028840531e+000	 4.2975612015e+000	-2.2873254719e-001
 1.8598216541e+000	 4.3163715566e+000	-1.7259135557e-001
 1.8166561937e+000	 4.3347157085e+000	-1.2844377144e-001
 1.7733949402e+000	 4.3525935241e+000	-7.5096030578e-002
 1.7300451349e+000	 4.3700050150e+000	-1.3816333897e-002
 2.1701669521e+000	 4.1971419323e+000	-4.5278557803e-001
 2.1276516871e+000	 4.2188533156e+000	-4.3781039492e-001
 2.0849885961e+000	 4.2400999462e+000	-4.1508773314e-001
 2.0421850745e+000	 4.2608807917e+000	-3.8412785043e-001
 1.9992485124e+000	 4.2811949717e+000	-3.4444080045e-001
 1.9561862905e+000	 4.3010417572e+000	-2.9553837309e-001
 1.9130057768e+000	 4.3204205696e+000	-2.3693601998e-001
 1.8697143225e+000	 4.3393309798e+000	-1.7174844622e-001
 1.8263192586e+000	 4.3577727070e+000	-1.2211661459e-001
 1.7828278921e+000	 4.3757456173e+000	-6.7485799892e-002
 1.7392475027e+000	 4.3932497225e+000	-1.0580338784e-001
 2.1816493170e+000	 4.2193490324e+000	-4.6177968815e-001
 2.1389091034e+000	 4.2411752908e+000	-4.4798877896e-001
 2.0960202818e+000	 4.2625343375e+000	-4.2626170663e-001
 2.0529902865e+000	 4.2834251345e+000	-3.9610829411e-001
 2.0098265468e+000	 4.3038467969e+000	-3.5703795653e-001
 1.9665364825e+000	 4.3237985918e+000	-3.0856166831e-001
 1.9231275005e+000	 4.3432799376e+000	-2.5019391539e-001
 1.8796069909e+000	 4.3622904030e+000	-1.8145462704e-001
 1.8359823234e+000	 4.3808297054e+000	-1.5384607370e-001
 1.7922608439e+000	 4.3988977105e+000	-1.9048759480e-001
 1.7484498704e+000	 4.4164944300e+000	-2.2776708558e-001
 1.6564261930e+000	 4.1840473548e+000	-4.3317052976e-001
 1.6148431803e+000	 4.2002715988e+000	-4.2494250560e-001
 1.5731891585e+000	 4.2160497947e+000	-4.0863536594e-001
 1.5314709629e+000	 4.2313823616e+000	-3.8528088357e-001
 1.4896953899e+000	 4.2462698508e+000	-3.5587906978e-001
 1.4478691937e+000	 4.2607129448e+000	-3.2139609722e-001
 1.4059990840e+000	 4.2747124554e+000	-2.8276234184e-001
 1.3640917223e+000	 4.2882693215e+000	-2.4087054652e-001
 1.3221537197e+000	 4.3013846075e+000	-1.9657410847e-001
 1.2801916340e+000	 4.3140595013e+000	-1.5068549244e-001
 1.2382119668e+000	 4.3262953119e+000	-1.3308112525e-001
 1.6656285608e+000	 4.2072920623e+000	-3.5428458933e-001
 1.6238145313e+000	 4.2236064410e+000	-3.4385896075e-001
 1.5819290983e+000	 4.2394722936e+000	-3.2436614055e-001
 1.5399791349e+000	 4.2548900414e+000	-2.9684693533e-001
 1.4979714754e+000	 4.2698602388e+000	-2.6231095609e-001
 1.4559129115e+000	 4.2843835723e+000	-2.2173449669e-001
 1.4138101900e+000	 4.2984608579e+000	-1.7605853191e-001
 1.3716700096e+000	 4.3120930399e+000	-1.2618683816e-001
 1.3294990181e+000	 4.3252811887e+000	-7.2984238823e-002
 1.2873038097e+000	 4.3380264985e+000	-1.7274976397e-002
 1.2450909222e+000	 4.3503302858e+000	 2.8841995352e-002
 1.6748309285e+000	 4.2305367698e+000	-2.8279276733e-001
 1.6327858823e+000	 4.2469412832e+000	-2.6936843108e-001
 1.5906690380e+000	 4.2628947925e+000	-2.4590503285e-001
 1.5484873069e+000	 4.2783977212e+000	-2.1345307559e-001
 1.5062475609e+000	 4.2934506269e+000	-1.7303241184e-001
 1.4639566292e+000	 4.3080541997e+000	-1.2563007693e-001
 1.4216212960e+000	 4.3222092604e+000	-7.2198242795e-002
 1.3792482970e+000	 4.3359167584e+000	-1.3652295059e-002
 1.3368443166e+000	 4.3491777698e+000	 4.9130964073e-002
 1.2944159855e+000	 4.3619934957e+000	 1.1531498529e-001
 1.2519698775e+000	 4.3743652598e+000	 1.8410501240e-001
 1.6840332963e+000	 4.2537814774e+000	-2.1877734069e-001
 1.6417572333e+000	 4.2702761254e+000	-2.0155727456e-001
 1.5994089778e+000	 4.2863172913e+000	-1.7334226691e-001
 1.5569954790e+000	 4.3019054009e+000	-1.3519318162e-001
 1.5145236464e+000	 4.3170410149e+000	-8.8140756501e-002
 1.4720003470e+000	 4.3317248272e+000	-3.3183390827e-002
 1.4294324020e+000	 4.3459576629e+000	 2.8714945889e-002
 1.3868265843e+000	 4.3597404768e+000	 9.6626680805e-002
 1.3441896150e+000	 4.3730743510e+000	 1.6966247796e-001
 1.3015281612e+000	 4.3859604930e+000	 1.5349442705e-001
 1.2588488329e+000	 4.3984002337e+000	 1.2665570534e-001
 1.6932356640e+000	 4.2770261849e+000	-1.6232190735e-001
 1.6507285843e+000	 4.2936109676e+000	-1.4051298024e-001
 1.6081489176e+000	 4.3097397902e+000	-1.0676901300e-001
 1.5655036510e+000	 4.3254130807e+000	-6.2161896879e-002
 1.5227997319e+000	 4.3406314030e+000	-7.7339008570e-003
 1.4800440647e+000	 4.3553954547e+000	 5.5504587292e-002
 1.4372435081e+000	 4.3697060655e+000	 1.2657719776e-001
 1.3944048717e+000	 4.3835641953e+000	 1.3411927545e-001
 1.3515349135e+000	 4.3969709321e+000	 1.0537882812e-001
 1.3086403370e+000	 4.4099274902e+000	 8.3254022978e-002
 1.2657277883e+000	 4.4224352077e+000	 6.7803558511e-002
 1.7024380317e+000	 4.3002708924e+000	-1.1351135055e-001
 1.6596999353e+000	 4.3169458098e+000	-8.6324137778e-002
 1.6168888573e+000	 4.3331622890e+000	-4.6277361985e-002
 1.5740118230e+000	 4.3489207605e+000	 5.5453896501e-003
 1.5310758174e+000	 4.3642217911e+000	 6.8089668994e-002
 1.4880877825e+000	 4.3790660822e+000	 1.0859015539e-001
 1.4450546141e+000	 4.3934544680e+000	 7.4299669889e-002
 1.4019831590e+000	 4.4073879137e+000	 4.7527830252e-002
 1.3588802119e+000	 4.4208675133e+000	 2.8349749456e-002
 1.3157525127e+000	 4.4338944874e+000	 1.6840367611e-002
 1.2726067437e+000	 4.4464701816e+000	 1.3074079210e-002
 1.7116403995e+000	 4.3235155999e+000	-7.2431804330e-002
 1.6686712863e+000	 4.3402806520e+000	-3.9080407762e-002
 1.6256287971e+000	 4.3565847879e+000	 8.0396994358e-003
 1.5825199950e+000	 4.3724284403e+000	 6.7832563529e-002
 1.5393519029e+000	 4.3878121791e+000	 4.3358827024e-002
 1.4961315002e+000	 4.4027367096e+000	 8.5001420797e-003
 1.4528657201e+000	 4.4172028705e+000	-1.7931373866e-002
 1.4095614464e+000	 4.4312116322e+000	-3.5841626078e-002
 1.3662255104e+000	 4.4447640944e+000	-4.5137465113e-002
 1.3228646884e+000	 4.4578614846e+000	-4.5727069550e-002
 1.2794856990e+000	 4.4705051556e+000	-3.7520322195e-002
 1.7208427672e+000	 4.3467603075e+000	-3.9170620016e-002
 1.6776426373e+000	 4.3636154943e+000	 1.1275068757e-003
 1.6343687369e+000	 4.3800072868e+000	 2.1593641289e-002
 1.5910281670e+000	 4.3959361201e+000	-2.4475290702e-002
 1.5476279884e+000	 4.4114025672e+000	-6.1380190714e-002
 1.5041752179e+000	 4.4264073371e+000	-8.9004799171e-002
 1.4606768261e+000	 4.4409512731e+000	-1.0723414578e-001
 1.4171397337e+000	 4.4550353506e+000	-1.1595495055e-001
 1.3735708088e+000	 4.4686606756e+000	-1.1505601878e-001
 1.3299768642e+000	 4.4818284819e+000	-1.0442862898e-001
 1.2863646544e+000	 4.4945401296e+000	-8.3966912740e-002
 1.7300451349e+000	 4.3700050150e+000	-1.3816333897e-002
 1.6866139883e+000	 4.3869503365e+000	-4.2991495494e-002
 1.6431086766e+000	 4.4034297856e+000	-9.3255064637e-002
 1.5995363390e+000	 4.4194437999e+000	-1.3358305328e-001
 1.5559040739e+000	 4.4349929552e+000	-1.6383579026e-001
 1.5122189357e+000	 4.4500779646e+000	-1.8387559232e-001
 1.4684879322e+000	 4.4646996756e+000	-1.9356718004e-001
 1.4247180211e+000	 4.4788590691e+000	-1.9277808737e-001
 1.3809161073e+000	 4.4925572567e+000	-1.8137906349e-001
 1.3370890399e+000	 4.5057954791e+000	-1.5924446617e-001
 1.2932436098e+000	 4.5185751035e+000	-1.2625264545e-001
 1.7392475027e+000	 4.3932497225e+000	-1.0580338784e-001
 1.6955853393e+000	 4.4102851787e+000	-1.6147143555e-001
 1.6518486164e+000	 4.4268522845e+000	-2.0649492623e-001
 1.6080445111e+000	 4.4429514797e+000	-2.4070903947e-001
 1.5641801594e+000	 4.4585833433e+000	-2.6395160371e-001
 1.5202626534e+000	 4.4737485920e+000	-2.7606352938e-001
 1.4762990382e+000	 4.4884480781e+000	-2.7688923507e-001
 1.4322963084e+000	 4.5026827875e+000	-2.6627706567e-001
 1.3882614057e+000	 4.5164538379e+000	-2.4407970136e-001
 1.3442012157e+000	 4.5297624763e+000	-2.1015455654e-001
 1.3001225651e+000	 4.5426100775e+000	-1.6436416763e-001
 1.7484498704e+000	 4.4164944300e+000	-2.2776708558e-001
 1.7045566903e+000	 4.4336200209e+000	-2.7865083456e-001
 1.6605885562e+000	 4.4502747833e+000	-3.1805448906e-001
 1.6165526831e+000	 4.4664591594e+000	-3.4578968172e-001
 1.5724562449e+000	 4.4821737314e+000	-3.6167176590e-001
 1.5283063712e+000	 4.4974192195e+000	-3.6552026073e-001
 1.4841101442e+000	 4.5121964807e+000	-3.5715928762e-001
 1.4398745957e+000	 4.5265065060e+000	-3.3641799726e-001
 1.3956067041e+000	 4.5403504190e+000	-3.0313098593e-001
 1.3513133914e+000	 4.5537294736e+000	-2.5713870016e-001
 1.3070015205e+000	 4.5666450514e+000	-1.9828782893e-001
 1.2382119668e+000	 4.3262953119e+000	-1.3308112525e-001
 1.1962211613e+000	 4.3380934676e+000	-1.6097384578e-001
 1.1542255995e+000	 4.3494555137e+000	-1.7049147832e-001
 1.1122316001e+000	 4.3603831102e+000	-1.6266458638e-001
 1.0702454156e+000	 4.3708780297e+000	-1.3853202158e-001
 1.0282732308e+000	 4.3809421547e+000	-1.4805233205e-001
 9.8632116015e-001	 4.3905774756e+000	-1.6970193673e-001
 9.4439524573e-001	 4.3997860880e+000	-1.6866759225e-001
 9.0250145542e-001	 4.4085701903e+000	-1.4501361305e-001
 8.6064568090e-001	 4.4169320814e+000	-9.8871463806e-002
 8.1883373586e-001	 4.4248741579e+000	-3.0440028101e-002
 1.2450909222e+000	 4.3503302858e+000	 2.8841995352e-002
 1.2028668344e+000	 4.3621939868e+000	 2.0104852960e-002
 1.1606379640e+000	 4.3736191554e+000	 2.6817552950e-002
 1.1184106645e+000	 4.3846074608e+000	-3.5036935937e-002
 1.0761912235e+000	 4.3951606854e+000	-8.9065887066e-002
 1.0339858599e+000	 4.4052807222e+000	-1.2306290997e-001
 9.9180072215e-001	 4.4149695727e+000	-1.3692896985e-001
 9.4964188598e-001	 4.4242293440e+000	-1.3063001125e-001
 9.0751535240e-001	 4.4330622469e+000	-1.0419763757e-001
 8.6542704580e-001	 4.4414705930e+000	-5.7729624562e-002
 8.2338281217e-001	 4.4494567921e+000	 8.6097305292e-003
 1.2519698775e+000	 4.3743652598e+000	 1.8410501240e-001
 1.2095125075e+000	 4.3862945061e+000	 1.0080053164e-001
 1.1670503284e+000	 4.3977827972e+000	 2.4527409215e-002
 1.1245897290e+000	 4.4088318115e+000	-3.4704254179e-002
 1.0821370313e+000	 4.4194433411e+000	-7.6639586324e-002
 1.0396984889e+000	 4.4296192898e+000	-1.0108555320e-001
 9.9728028415e-001	 4.4393616698e+000	-1.0791206106e-001
 9.5488852624e-001	 4.4486726001e+000	-9.7052888954e-002
 9.1252924937e-001	 4.4575543036e+000	-6.8506452226e-002
 8.7020841069e-001	 4.4660091046e+000	-2.2336398340e-002
 8.2793188848e-001	 4.4740394263e+000	 4.1327963439e-002
 1.2588488329e+000	 4.3984002337e+000	 1.2665570534e-001
 1.2161581807e+000	 4.4103950254e+000	 6.9738696507e-002
 1.1734626929e+000	 4.4219464389e+000	 9.8359423633e-003
 1.1307687934e+000	 4.4330561621e+000	-3.5589547480e-002
 1.0880828392e+000	 4.4437259969e+000	-6.6253680755e-002
 1.0454111180e+000	 4.4539578573e+000	-8.1932960773e-002
 1.0027598461e+000	 4.4637537669e+000	-8.2465675835e-002
 9.6013516649e-001	 4.4731158561e+000	-6.7752917536e-002
 9.1754314634e-001	 4.4820463602e+000	-3.7759428556e-002
 8.7498977558e-001	 4.4905476161e+000	 7.4857190347e-003
 8.3248096479e-001	 4.4986220605e+000	 6.7888613396e-002
 1.2657277883e+000	 4.4224352077e+000	 6.7803558511e-002
 1.2228038538e+000	 4.4344955446e+000	 3.9405239550e-002
 1.1798750573e+000	 4.4461100807e+000	-5.0238728411e-003
 1.1369478578e+000	 4.4572805127e+000	-3.7503570469e-002
 1.0940286471e+000	 4.4680086526e+000	-5.7719901864e-002
 1.0511237471e+000	 4.4782964248e+000	-6.5418304749e-002
 1.0082394081e+000	 4.4881458639e+000	-6.0404883142e-002
 9.6538180674e-001	 4.4975591122e+000	-4.2547511828e-002
 9.2255704332e-001	 4.5065384168e+000	-1.1776768639e-002
 8.7977114048e-001	 4.5150861277e+000	 3.1913304508e-002
 8.3703004110e-001	 4.5232046947e+000	 8.8464610413e-002
 1.2726067437e+000	 4.4464701816e+000	 1.3074079210e-002
 1.2294495269e+000	 4.4585960639e+000	 9.9900986503e-003
 1.1862874218e+000	 4.4702737224e+000	-1.9862298021e-002
 1.1431269223e+000	 4.4815048633e+000	-4.0257250975e-002
 1.0999744549e+000	 4.4922913083e+000	-5.0850303413e-002
 1.0568363761e+000	 4.5026349923e+000	-5.1355217415e-002
 1.0137189701e+000	 4.5125379610e+000	-4.1545339138e-002
 9.7062844700e-001	 4.5220023682e+000	-2.1254789783e-002
 9.2757094029e-001	 4.5310304734e+000	 9.6205173400e-003
 8.8455250537e-001	 4.5396246393e+000	 5.1122032855e-002
 8.4157911741e-001	 4.5477873289e+000	 1.0322789913e-001
 1.2794856990e+000	 4.4705051556e+000	-3.7520322195e-002
 1.2360952000e+000	 4.4826965832e+000	-1.8316634350e-002
 1.1926997862e+000	 4.4944373641e+000	-3.4489607497e-002
 1.1493059867e+000	 4.5057292139e+000	-4.3661685373e-002
 1.1059202628e+000	 4.5165739640e+000	-4.5457252758e-002
 1.0625490052e+000	 4.5269735599e+000	-3.9557778933e-002
 1.0191985321e+000	 4.5369300581e+000	-2.5703271374e-002
 9.7587508725e-001	 4.5464456242e+000	-3.6935535788e-003
 9.3258483726e-001	 4.5555225300e+000	 2.6610632821e-002
 8.8933387026e-001	 4.5641631508e+000	 6.5286700934e-002
 8.4612819372e-001	 4.5723699631e+000	 1.1234946528e-001
 1.2863646544e+000	 4.4945401296e+000	-8.3966912740e-002
 1.2427408731e+000	 4.5067971024e+000	-4.5324717759e-002
 1.1991121506e+000	 4.5186010059e+000	-4.8716087950e-002
 1.1554850512e+000	 4.5299535645e+000	-4.7528134077e-002
 1.1118660707e+000	 4.5408566198e+000	-4.1353422465e-002
 1.0682616342e+000	 4.5513121274e+000	-2.9840505355e-002
 1.0246780942e+000	 4.5613221552e+000	-1.2695463525e-002
 9.8112172750e-001	 4.5708888803e+000	 1.0316728684e-002
 9.3759873424e-001	 4.5800145866e+000	 3.9371015889e-002
 8.9411523516e-001	 4.5887016624e+000	 7.4581251161e-002
 8.5067727003e-001	 4.5969525973e+000	 1.1599936137e-001
 1.2932436098e+000	 4.5185751035e+000	-1.2625264545e-001
 1.2493865463e+000	 4.5308976217e+000	-7.0843764023e-002
 1.2055245151e+000	 4.5427646476e+000	-6.2352038091e-002
 1.1616641156e+000	 4.5541779151e+000	-5.1668017176e-002
 1.1178118785e+000	 4.5651392755e+000	-3.8351782190e-002
 1.0739742633e+000	 4.5756506949e+000	-2.2018337036e-002
 1.0301576562e+000	 4.5857142523e+000	-2.3392405927e-003
 9.8636836776e-001	 4.5953321363e+000	 2.0955940686e-002
 9.4261263121e-001	 4.6045066432e+000	 4.8078359634e-002
 8.9889660005e-001	 4.6132401739e+000	 7.9178794230e-002
 8.5522634634e-001	 4.6215352316e+000	 1.1434673145e-001
 1.3001225651e+000	 4.5426100775e+000	-1.6436416763e-001
 1.2560322194e+000	 4.5549981410e+000	-1.0145593793e-001
 1.2119368795e+000	 4.5669282894e+000	-7.5207768341e-002
 1.1678431801e+000	 4.5784022658e+000	-5.5892910212e-002
 1.1237576864e+000	 4.5894219312e+000	-3.6265590823e-002
 1.0796868924e+000	 4.5999892625e+000	-1.5906627405e-002
 1.0356372182e+000	 4.6101063494e+000	 5.5475454088e-003
 9.9161500801e-001	 4.6197753924e+000	 2.8403335042e-002
 9.4762652819e-001	 4.6289986998e+000	 5.2908631855e-002
 9.0367796494e-001	 4.6377786855e+000	 7.9251631122e-002
 8.5977542265e-001	 4.6461178658e+000	 1.0755983519e-001
 1.3070015205e+000	 4.5666450514e+000	-1.9828782893e-001
 1.2626778925e+000	 4.5790986602e+000	-1.2921157404e-001
 1.2183492440e+000	 4.5910919311e+000	-8.7093600526e-002
 1.1740222445e+000	 4.6026266164e+000	-6.0014540089e-002
 1.1297034943e+000	 4.6137045869e+000	-3.4908388872e-002
 1.0853995214e+000	 4.6243278300e+000	-1.1321132097e-002
 1.0411167802e+000	 4.6344984465e+000	 1.1146529326e-002
 9.9686164827e-001	 4.6442186484e+000	 3.2837549905e-002
 9.5264042516e-001	 4.6534907565e+000	 5.4037094153e-002
 9.0845932984e-001	 4.6623171971e+000	 7.4971274408e-002
 8.6432449896e-001	 4.6707005000e+000	 9.5806071115e-002
 8.1883373586e-001	 4.4248741579e+000	-3.0440028101e-002
 7.7707135428e-001	 4.4323989115e+000	-2.0044034279e-002
 7.3536418877e-001	 4.4395089267e+000	-8.3534492425e-003
 6.9371780909e-001	 4.4462068779e+000	 4.4382134288e-003
 6.5213770062e-001	 4.4524955272e+000	 1.8084179428e-002
 6.1062926301e-001	 4.4583777210e+000	 4.0136114846e-002
 5.6919780892e-001	 4.4638563882e+000	 7.2634982135e-002
 5.2784856279e-001	 4.4689345369e+000	 9.8515643943e-002
 4.8658665973e-001	 4.4736152520e+000	 1.1776512999e-001
 4.4541714450e-001	 4.4779016925e+000	 1.3028388246e-001
 4.0434497057e-001	 4.4817970888e+000	 1.3588810901e-001
 8.2338281217e-001	 4.4494567921e+000	 8.6097305292e-003
 7.8138841736e-001	 4.4570233499e+000	 1.6075657378e-002
 7.3944954538e-001	 4.4641728651e+000	 2.4702072120e-002
 6.9757179692e-001	 4.4709080272e+000	 3.4362970574e-002
 6.5576068785e-001	 4.4772316134e+000	 4.4877248268e-002
 6.1402164781e-001	 4.4831464861e+000	 6.0606937208e-002
 5.7236001898e-001	 4.4886555903e+000	 8.5438112518e-002
 5.3078105481e-001	 4.4937619509e+000	 1.0411311438e-001
 4.8928991895e-001	 4.4984686700e+000	 1.1666610292e-001
 4.4789168419e-001	 4.5027789241e+000	 1.2304209656e-001
 4.0659133152e-001	 4.5066959615e+000	 1.2309934108e-001
 8.2793188848e-001	 4.4740394263e+000	 4.1327963439e-002
 7.8570548043e-001	 4.4816477883e+000	 4.6407297222e-002
 7.4353490198e-001	 4.4888368036e+000	 5.2527223616e-002
 7.0142578475e-001	 4.4956091766e+000	 5.9629347946e-002
 6.5938367507e-001	 4.5019676997e+000	 6.7598316347e-002
 6.1741403260e-001	 4.5079152512e+000	 7.8531048500e-002
 5.7552222903e-001	 4.5134547925e+000	 9.6556163564e-002
 5.3371354682e-001	 4.5185893650e+000	 1.0890924998e-001
 4.9199317817e-001	 4.5233220881e+000	 1.1567122846e-001
 4.5036622388e-001	 4.5276561557e+000	 1.1683130051e-001
 4.0883769246e-001	 4.5315948342e+000	 1.1228933441e-001
 8.3248096479e-001	 4.4986220605e+000	 6.7888613396e-002
 7.9002254351e-001	 4.5062722267e+000	 7.1103048688e-002
 7.4762025859e-001	 4.5135007421e+000	 7.5252417211e-002
 7.0527977258e-001	 4.5203103259e+000	 8.0346045079e-002
 6.6300666230e-001	 4.5267037859e+000	 8.6334420743e-002
 6.2080641740e-001	 4.5326840163e+000	 9.3894350811e-002
 5.7868443908e-001	 4.5382539946e+000	 1.0595844543e-001
 5.3664603884e-001	 4.5434167791e+000	 1.1285691851e-001
 4.9469643739e-001	 4.5481755061e+000	 1.1471708777e-001
 4.5284076358e-001	 4.5525333873e+000	 1.1157195054e-001
 4.1108405341e-001	 4.5564937069e+000	 1.0336258762e-001
 8.3703004110e-001	 4.5232046947e+000	 8.8464610413e-002
 7.9433960659e-001	 4.5308966650e+000	 9.0314374744e-002
 7.5170561519e-001	 4.5381646806e+000	 9.3007677960e-002
 7.0913376041e-001	 4.5450114752e+000	 9.6621689275e-002
 6.6662964952e-001	 4.5514398722e+000	 1.0117284197e-001
 6.2419880219e-001	 4.5574527815e+000	 1.0668330620e-001
 5.8184664912e-001	 4.5630531968e+000	 1.1361514547e-001
 5.3957853085e-001	 4.5682441932e+000	 1.1591018279e-001
 4.9739969661e-001	 4.5730289242e+000	 1.1374177528e-001
 4.5531530327e-001	 4.5774106189e+000	 1.0718633475e-001
 4.1333041436e-001	 4.5813925796e+000	 9.6225750034e-002
 8.4157911741e-001	 4.5477873289e+000	 1.0322789913e-001
 7.9865666967e-001	 4.5555211034e+000	 1.0419205683e-001
 7.5579097179e-001	 4.5628286191e+000	 1.0592265446e-001
 7.1298774823e-001	 4.5697126245e+000	 1.0856483756e-001
 6.7025263675e-001	 4.5761759585e+000	 1.1220109741e-001
 6.2759118699e-001	 4.5822215466e+000	 1.1685104630e-001
 5.8500885917e-001	 4.5878523989e+000	 1.1949730454e-001
 5.4251102287e-001	 4.5930716073e+000	 1.1802426833e-001
 5.0010295583e-001	 4.5978823423e+000	 1.1268485786e-001
 4.5778984296e-001	 4.6022878506e+000	 1.0359852363e-001
 4.1557677530e-001	 4.6062914523e+000	 9.0787563528e-002
 8.4612819372e-001	 4.5723699631e+000	 1.1234946528e-001
 8.0297373275e-001	 4.5801455418e+000	 1.1288621316e-001
 7.5987632840e-001	 4.5874925575e+000	 1.1412662898e-001
 7.1684173606e-001	 4.5944137738e+000	 1.1628397857e-001
 6.7387562397e-001	 4.6009120447e+000	 1.1950693493e-001
 6.3098357178e-001	 4.6069903117e+000	 1.2387930336e-001
 5.8817106922e-001	 4.6126516011e+000	 1.2357679406e-001
 5.4544351488e-001	 4.6178990214e+000	 1.1915553215e-001
 5.0280621505e-001	 4.6227357603e+000	 1.1148733518e-001
 4.6026438265e-001	 4.6271650822e+000	 1.0073432217e-001
 4.1782313625e-001	 4.6311903250e+000	 8.6958806278e-002
 8.5067727003e-001	 4.5969525973e+000	 1.1599936137e-001
 8.0729079583e-001	 4.6047699802e+000	 1.1654631648e-001
 7.6396168500e-001	 4.6121564960e+000	 1.1774852725e-001
 7.2069572389e-001	 4.6191149232e+000	 1.1988753439e-001
 6.7749861120e-001	 4.6256481310e+000	 1.2317832675e-001
 6.3437595657e-001	 4.6317590768e+000	 1.2776901620e-001
 5.9133327927e-001	 4.6374508033e+000	 1.2582629377e-001
 5.4837600689e-001	 4.6427264355e+000	 1.1926143248e-001
 5.0550947427e-001	 4.6475891784e+000	 1.1009160143e-001
 4.6273892234e-001	 4.6520423138e+000	 9.8521223415e-002
 4.2006949719e-001	 4.6560891977e+000	 8.4652238322e-002
 8.5522634634e-001	 4.6215352316e+000	 1.1434673145e-001
 8.1160785890e-001	 4.6293944186e+000	 1.1532121121e-001
 7.6804704160e-001	 4.6368204345e+000	 1.1691692793e-001
 7.2454971171e-001	 4.6438160725e+000	 1.1948386230e-001
 6.8112159842e-001	 4.6503842172e+000	 1.2330346342e-001
 6.3776834136e-001	 4.6565278419e+000	 1.2858827341e-001
 5.9449548931e-001	 4.6622500054e+000	 1.2621927030e-001
 5.5130849891e-001	 4.6675538496e+000	 1.1830049947e-001
 5.0821273349e-001	 4.6724425965e+000	 1.0844140820e-001
 4.6521346202e-001	 4.6769195454e+000	 9.6888363648e-002
 4.2231585814e-001	 4.6809880705e+000	 8.3782548848e-002
 8.5977542265e-001	 4.6461178658e+000	 1.0755983519e-001
 8.1592492198e-001	 4.6540188570e+000	 1.0935913011e-001
 7.7213239820e-001	 4.6614843730e+000	 1.1176007181e-001
 7.2840369954e-001	 4.6685172218e+000	 1.1518125650e-001
 6.8474458564e-001	 4.6751203035e+000	 1.1997074812e-001
 6.4116072615e-001	 4.6812966070e+000	 1.2640565254e-001
 5.9765769936e-001	 4.6870492076e+000	 1.2472995627e-001
 5.5424099092e-001	 4.6923812637e+000	 1.1623230686e-001
 5.1091599270e-001	 4.6972960145e+000	 1.0648182865e-001
 4.6768800171e-001	 4.7017967771e+000	 9.5766478864e-002
 4.2456221908e-001	 4.7058869432e+000	 8.4266305155e-002
 8.6432449896e-001	 4.6707005000e+000	 9.5806071115e-002
 8.2024198506e-001	 4.6786432954e+000	 9.8807710306e-002
 7.7621775480e-001	 4.6861483115e+000	 1.0240587070e-001
 7.3225768736e-001	 4.6932183711e+000	 1.0708794981e-001
 6.8836757286e-001	 4.6998563898e+000	 1.1326879098e-001
 6.4455311094e-001	 4.7060653722e+000	 1.2129020729e-001
 6.0081990940e-001	 4.7118484097e+000	 1.2133333020e-001
 5.5717348293e-001	 4.7172086778e+000	 1.1301744451e-001
 5.1361925192e-001	 4.7221494326e+000	 1.0415922261e-001
 4.7016254140e-001	 4.7266740087e+000	 9.5087862693e-002
 4.2680858003e-001	 4.7307858159e+000	 8.6021903236e-002
 4.0434497057e-001	 4.4817970888e+000	 1.3588810901e-001
 3.6337499923e-001	 4.4853047399e+000	 1.4141652733e-001
 3.2251199884e-001	 4.4884280111e+000	 1.4639880517e-001
 2.8176064413e-001	 4.4911703307e+000	 1.5071696217e-001
 2.4112551553e-001	 4.4935351880e+000	 1.5416728046e-001
 2.0061109869e-001	 4.4955261302e+000	 1.5646314394e-001
 1.6022178400e-001	 4.4971467599e+000	 1.5723796284e-001
 1.1996186617e-001	 4.4984007326e+000	 1.5604817432e-001
 7.9835543943e-002	 4.4992917538e+000	 1.5237630985e-001
 3.9846919840e-002	 4.4998235769e+000	 1.4563412067e-001
 0.0000000000e+000	 4.5000000000e+000	 1.3516575231e-001
 4.0659133152e-001	 4.5066959615e+000	 1.2309934108e-001
 3.6539374923e-001	 4.5102230996e+000	 1.3122264276e-001
 3.2430373217e-001	 4.5133637222e+000	 1.3881367422e-001
 2.8332598104e-001	 4.5161212770e+000	 1.4572938289e-001
 2.4246510172e-001	 4.5184992724e+000	 1.5174028852e-001
 2.0172560480e-001	 4.5205012753e+000	 1.5653337082e-001
 1.6111190503e-001	 4.5221309085e+000	 1.5971504276e-001
 1.2062832098e-001	 4.5233918477e+000	 1.6081420038e-001
 8.0279074742e-002	 4.5242878191e+000	 1.5928533965e-001
 4.0068291616e-002	 4.5248225967e+000	 1.5451173160e-001
 0.0000000000e+000	 4.5250000000e+000	 1.4580864645e-001
 4.0883769246e-001	 4.5315948342e+000	 1.1228933441e-001
 3.6741249922e-001	 4.5351414592e+000	 1.2247268900e-001
 3.2609546550e-001	 4.5382994334e+000	 1.3216943930e-001
 2.8489131795e-001	 4.5410722233e+000	 1.4121144327e-001
 2.4380468792e-001	 4.5434633567e+000	 1.4934340826e-001
 2.0284011090e-001	 4.5454764205e+000	 1.5622582762e-001
 1.6200202605e-001	 4.5471150572e+000	 1.6143800379e-001
 1.2129477580e-001	 4.5483829629e+000	 1.6448114807e-001
 8.0722605541e-002	 4.5492838844e+000	 1.6478154802e-001
 4.0289663393e-002	 4.5498216166e+000	 1.6169379299e-001
 0.0000000000e+000	 4.5500000000e+000	 1.5450404903e-001
 4.1108405341e-001	 4.5564937069e+000	 1.0336258762e-001
 3.6943124922e-001	 4.5600598189e+000	 1.1508002083e-001
 3.2788719882e-001	 4.5632351446e+000	 1.2638829645e-001
 2.8645665486e-001	 4.5660231695e+000	 1.3709416312e-001
 2.4514427412e-001	 4.5684274411e+000	 1.4691646292e-001
 2.0395461700e-001	 4.5704515657e+000	 1.5548911803e-001
 1.6289214707e-001	 4.5720992059e+000	 1.6236420423e-001
 1.2196123061e-001	 4.5733740781e+000	 1.6701510173e-001
 8.1166136340e-002	 4.5742799497e+000	 1.6883971382e-001
 4.0511035169e-002	 4.5748206365e+000	 1.6716374397e-001
 0.0000000000e+000	 4.5750000000e+000	 1.6124402226e-001
 4.1333041436e-001	 4.5813925796e+000	 9.6225750034e-002
 3.7144999921e-001	 4.5849781786e+000	 1.0895992688e-001
 3.2967893215e-001	 4.5881708558e+000	 1.2139416290e-001
 2.8802199177e-001	 4.5909741158e+000	 1.3331007485e-001
 2.4648386031e-001	 4.5933915255e+000	 1.4440058409e-001
 2.0506912311e-001	 4.5954267108e+000	 1.5427295399e-001
 1.6378226809e-001	 4.5970833545e+000	 1.6245191485e-001
 1.2262768542e-001	 4.5983651933e+000	 1.6838286661e-001
 8.1609667139e-002	 4.5992760150e+000	 1.7143514971e-001
 4.0732406946e-002	 4.5998196564e+000	 1.7090537464e-001
 0.0000000000e+000	 4.6000000000e+000	 1.6602080090e-001
 4.1557677530e-001	 4.6062914523e+000	 9.0787563528e-002
 3.7346874920e-001	 4.6098965382e+000	 1.0402957737e-001
 3.3147066547e-001	 4.6131065669e+000	 1.1711263050e-001
 2.8958732868e-001	 4.6159250621e+000	 1.2979318265e-001
 2.4782344651e-001	 4.6183556099e+000	 1.4173817631e-001
 2.0618362921e-001	 4.6204018560e+000	 1.5252812574e-001
 1.6467238911e-001	 4.6220675032e+000	 1.6166029421e-001
 1.2329414023e-001	 4.6233563085e+000	 1.6855194946e-001
 8.2053197938e-002	 4.6242720803e+000	 1.7254368772e-001
 4.0953778723e-002	 4.6248186762e+000	 1.7290281662e-001
 0.0000000000e+000	 4.6250000000e+000	 1.6882678763e-001
 4.1782313625e-001	 4.6311903250e+000	 8.6958806278e-002
 3.7548749920e-001	 4.6348148979e+000	 1.0020797354e-001
 3.3326239880e-001	 4.6380422781e+000	 1.1347092074e-001
 2.9115266559e-001	 4.6408760084e+000	 1.2647892290e-001
 2.4916303270e-001	 4.6433196943e+000	 1.3887288285e-001
 2.0729813531e-001	 4.6453770012e+000	 1.5020647281e-001
 1.6556251013e-001	 4.6470516519e+000	 1.5994936478e-001
 1.2396059504e-001	 4.6483474236e+000	 1.6749053965e-001
 8.2496728737e-002	 4.6492681456e+000	 1.7214166529e-001
 4.1175150499e-002	 4.6498176961e+000	 1.7314053382e-001
 0.0000000000e+000	 4.6500000000e+000	 1.6965454849e-001
 4.2006949719e-001	 4.6560891977e+000	 8.4652238322e-002
 3.7750624919e-001	 4.6597332576e+000	 9.7415898666e-002
 3.3505413212e-001	 4.6629779893e+000	 1.1039784118e-001
 2.9271800250e-001	 4.6658269547e+000	 1.2330412587e-001
 2.5050261890e-001	 4.6682837786e+000	 1.3574955261e-001
 2.0841264141e-001	 4.6703521463e+000	 1.4726085601e-001
 1.6645263115e-001	 4.6720358005e+000	 1.5727998988e-001
 1.2462704985e-001	 4.6733385388e+000	 1.6516749090e-001
 8.2940259537e-002	 4.6742642109e+000	 1.7020591176e-001
 4.1396522276e-002	 4.6748167160e+000	 1.7160331364e-001
 0.0000000000e+000	 4.6750000000e+000	 1.6849680853e-001
 4.2231585814e-001	 4.6809880705e+000	 8.3782548848e-002
 3.7952499918e-001	 4.6846516172e+000	 9.5575870712e-002
 3.3684586545e-001	 4.6879137004e+000	 1.0782374323e-001
 2.9428333941e-001	 4.6907779010e+000	 1.2020697868e-001
 2.5184220510e-001	 4.6932478630e+000	 1.3231420805e-001
 2.0952714752e-001	 4.6953272915e+000	 1.4364513023e-001
 1.6734275217e-001	 4.6970199492e+000	 1.5361385125e-001
 1.2529350466e-001	 4.6983296540e+000	 1.6155230362e-001
 8.3383790336e-002	 4.6992602762e+000	 1.6671373526e-001
 4.1617894052e-002	 4.6998157358e+000	 1.6827625827e-001
 0.0000000000e+000	 4.7000000000e+000	 1.6534644762e-001
 4.2456221908e-001	 4.7058869432e+000	 8.4266305155e-002
 3.8154374918e-001	 4.7095699769e+000	 9.4612096395e-002
 3.3863759877e-001	 4.7128494116e+000	 1.0568048136e-001
 2.9584867632e-001	 4.7157288472e+000	 1.1712698935e-001
 2.5318179129e-001	 4.7182119474e+000	 1.2851401415e-001
 2.1064165362e-001	 4.7203024367e+000	 1.3931411814e-001
 1.6823287319e-001	 4.7220040979e+000	 1.4891342748e-001
 1.2595995947e-001	 4.7233207692e+000	 1.5661510782e-001
 8.3827321135e-002	 4.7242563415e+000	 1.6164291008e-001
 4.1839265829e-002	 4.7248147557e+000	 1.6314477642e-001
 0.0000000000e+000	 4.7250000000e+000	 1.6019649630e-001
 4.2680858003e-001	 4.7307858159e+000	 8.6021903236e-002
 3.8356249917e-001	 4.7344883366e+000	 9.4450426761e-002
 3.4042933210e-001	 4.7377851228e+000	 1.0390137348e-001
 2.9741401323e-001	 4.7406797935e+000	 1.1400495212e-001
 2.5452137749e-001	 4.7431760318e+000	 1.2429724831e-001
 2.1175615972e-001	 4.7452775818e+000	 1.3422358475e-001
 1.6912299422e-001	 4.7469882465e+000	 1.4314197299e-001
 1.2662641428e-001	 4.7483118844e+000	 1.5032664652e-001
 8.4270851934e-002	 4.7492524068e+000	 1.5497166439e-001
 4.2060637605e-002	 4.7498137756e+000	 1.5619457525e-001
 0.0000000000e+000	 4.7500000000e+000	 1.5304013182e-001
 4.7500000000e+000	 0.0000000000e+000	 5.2023086251e-001
 4.7498137756e+000	 4.2060637605e-002	 5.0354610693e-001
 4.7492524068e+000	 8.4270851934e-002	 4.8918507642e-001
 4.7483118844e+000	 1.2662641428e-001	 4.7699486247e-001
 4.7469882465e+000	 1.6912299422e-001	 4.6683971034e-001
 4.7452775818e+000	 2.1175615972e-001	 4.5860135732e-001
 4.7431760318e+000	 2.5452137749e-001	 4.5217933512e-001
 4.7406797935e+000	 2.9741401323e-001	 4.4749123423e-001
 4.7377851228e+000	 3.4042933210e-001	 4.4447292874e-001
 4.7344883366e+000	 3.8356249917e-001	 4.4307875963e-001
 4.7307858159e+000	 4.2680858003e-001	 4.4328167514e-001
 4.7750000000e+000	 0.0000000000e+000	 5.1429978080e-001
 4.7748127955e+000	 4.2282009382e-002	 4.9983239575e-001
 4.7742484721e+000	 8.4714382733e-002	 4.8729421328e-001
 4.7733029995e+000	 1.2729286910e-001	 4.7654046103e-001
 4.7719723952e+000	 1.7001311524e-001	 4.6744424961e-001
 4.7702527270e+000	 2.1287066582e-001	 4.5989691538e-001
 4.7681401161e+000	 2.5586096368e-001	 4.5380832614e-001
 4.7656307398e+000	 2.9897935014e-001	 4.4910714773e-001
 4.7627208340e+000	 3.4222106542e-001	 4.4574106981e-001
 4.7594066962e+000	 3.8558124916e-001	 4.4367698889e-001
 4.7556846886e+000	 4.2905494097e-001	 4.4290114708e-001
 4.8000000000e+000	 0.0000000000e+000	 5.0776138767e-001
 4.7998118153e+000	 4.2503381158e-002	 4.9559514089e-001
 4.7992445374e+000	 8.5157913532e-002	 4.8495976364e-001
 4.7982941147e+000	 1.2795932391e-001	 4.7571864374e-001
 4.7969565439e+000	 1.7090323626e-001	 4.6775378726e-001
 4.7952278722e+000	 2.1398517192e-001	 4.6096616582e-001
 4.7931042005e+000	 2.5720054988e-001	 4.5527602573e-001
 4.7905816861e+000	 3.0054468705e-001	 4.5062315679e-001
 4.7876565451e+000	 3.4401279874e-001	 4.4696711905e-001
 4.7843250559e+000	 3.8759999915e-001	 4.4428742570e-001
 4.7805835613e+000	 4.3130130191e-001	 4.4258368014e-001
 4.8250000000e+000	 0.0000000000e+000	 5.0069390876e-001
 4.8248108352e+000	 4.2724752935e-002	 4.9090778180e-001
 4.8242406027e+000	 8.5601444331e-002	 4.8225031513e-001
 4.8232852299e+000	 1.2862577872e-001	 4.7459308244e-001
 4.8219406925e+000	 1.7179335728e-001	 4.6782701701e-001
 4.8202030174e+000	 2.1509967803e-001	 4.6186276376e-001
 4.8180682849e+000	 2.5854013607e-001	 4.5663099173e-001
 4.8155326324e+000	 3.0211002396e-001	 4.5208266521e-001
 4.8125922563e+000	 3.4580453207e-001	 4.4818927158e-001
 4.8092434156e+000	 3.8961874915e-001	 4.4494300388e-001
 4.8054824340e+000	 4.3354766286e-001	 4.4235689640e-001
 4.8500000000e+000	 0.0000000000e+000	 4.9317395682e-001
 4.8498098551e+000	 4.2946124712e-002	 4.8584220228e-001
 4.8492366680e+000	 8.6044975130e-002	 4.7923295751e-001
 4.8482763451e+000	 1.2929223353e-001	 4.7322600929e-001
 4.8469248412e+000	 1.7268347830e-001	 4.6772125164e-001
 4.8451781625e+000	 2.1621418413e-001	 4.6263904248e-001
 4.8430323693e+000	 2.5987972227e-001	 4.5792051968e-001
 4.8404835786e+000	 3.0367536087e-001	 4.5352787452e-001
 4.8375279675e+000	 3.4759626540e-001	 4.4944458054e-001
 4.8341617752e+000	 3.9163749914e-001	 4.4567557595e-001
 4.8303813068e+000	 4.3579402381e-001	 4.4224739769e-001
 4.8750000000e+000	 0.0000000000e+000	 4.8527657304e-001
 4.8748088749e+000	 4.3167496488e-002	 4.8046877038e-001
 4.8742327333e+000	 8.6488505929e-002	 4.7597332105e-001
 4.8732674603e+000	 1.2995868834e-001	 4.7167825374e-001
 4.8719089899e+000	 1.7357359932e-001	 4.6749245835e-001
 4.8701533077e+000	 2.1732869023e-001	 4.6334604731e-001
 4.8679964537e+000	 2.6121930847e-001	 4.5919067522e-001
 4.8654345249e+000	 3.0524069778e-001	 4.5499981470e-001
 4.8624636787e+000	 3.4938799872e-001	 4.5076898633e-001
 4.8590801349e+000	 3.9365624914e-001	 4.4651594087e-001
 4.8552801795e+000	 4.3804038475e-001	 4.4228079180e-001
 4.9000000000e+000	 0.0000000000e+000	 4.7707526717e-001
 4.8998078948e+000	 4.3388868265e-002	 4.7485637708e-001
 4.8992287986e+000	 8.6932036728e-002	 4.7253561378e-001
 4.8982585754e+000	 1.3062514315e-001	 4.7000927830e-001
 4.8968931385e+000	 1.7446372034e-001	 4.6719529315e-001
 4.8951284529e+000	 2.1844319634e-001	 4.6403356851e-001
 4.8929605380e+000	 2.6255889466e-001	 4.6048632544e-001
 4.8903854712e+000	 3.0680603469e-001	 4.5653837415e-001
 4.8873993898e+000	 3.5117973205e-001	 4.5219734508e-001
 4.8839984946e+000	 3.9567499914e-001	 4.4749387094e-001
 4.8801790522e+000	 4.4028674570e-001	 4.4248171777e-001
 4.9250000000e+000	 0.0000000000e+000	 4.6864205636e-001
 4.9248069147e+000	 4.3610240041e-002	 4.6907247378e-001
 4.9242248639e+000	 8.7375567527e-002	 4.6898265761e-001
 4.9232496906e+000	 1.3129159796e-001	 4.6827721319e-001
 4.9218772872e+000	 1.7535384136e-001	 4.6688313407e-001
 4.9201035980e+000	 2.1955770244e-001	 4.6475017310e-001
 4.9179246224e+000	 2.6389848086e-001	 4.6185116932e-001
 4.9153364175e+000	 3.0837137160e-001	 4.5818232862e-001
 4.9123351010e+000	 3.5297146538e-001	 4.5376345609e-001
 4.9089168542e+000	 3.9769374913e-001	 4.4863813782e-001
 4.9050779249e+000	 4.4253310665e-001	 4.4287387053e-001
 4.9500000000e+000	 0.0000000000e+000	 4.6004750289e-001
 4.9498059346e+000	 4.3831611818e-002	 4.6318310861e-001
 4.9492209292e+000	 8.7819098327e-002	 4.6537592329e-001
 4.9482408058e+000	 1.3195805278e-001	 4.6653889004e-001
 4.9468614359e+000	 1.7624396239e-001	 4.6660811350e-001
 4.9450787432e+000	 2.2067220854e-001	 4.6554323579e-001
 4.9428887068e+000	 2.6523806706e-001	 4.6332776720e-001
 4.9402873638e+000	 3.0993670852e-001	 4.5996936932e-001
 4.9372708122e+000	 3.5476319871e-001	 4.5550008854e-001
 4.9338352139e+000	 3.9971249913e-001	 4.4997653783e-001
 4.9299767976e+000	 4.4477946760e-001	 4.4348002472e-001
 4.9750000000e+000	 0.0000000000e+000	 4.5136075068e-001
 4.9748049544e+000	 4.4052983595e-002	 4.5725296176e-001
 4.9742169945e+000	 8.8262629126e-002	 4.6177556439e-001
 4.9732319210e+000	 1.3262450759e-001	 4.6484987450e-001
 4.9718455845e+000	 1.7713408341e-001	 4.6642114942e-001
 4.9700538884e+000	 2.2178671465e-001	 4.6645896887e-001
 4.9678527912e+000	 2.6657765326e-001	 4.6495756943e-001
 4.9652383101e+000	 3.1150204543e-001	 4.6193613017e-001
 4.9622065233e+000	 3.5655493203e-001	 4.5743900742e-001
 4.9587535736e+000	 4.0173124913e-001	 4.5153591641e-001
 4.9548756703e+000	 4.4702582855e-001	 4.4432205781e-001
 5.0000000000e+000	 0.0000000000e+000	 4.4264956080e-001
 4.9998039743e+000	 4.4274355371e-002	 4.5134537961e-001
 4.9992130598e+000	 8.8706159925e-002	 4.5824045021e-001
 4.9982230362e+000	 1.3329096240e-001	 4.6326449786e-001
 4.9968297332e+000	 1.7802420443e-001	 4.6637197580e-001
 4.9950290335e+000	 2.2290122075e-001	 4.6754245134e-001
 4.9928168755e+000	 2.6791723945e-001	 4.6678094409e-001
 4.9901892563e+000	 3.1306738234e-001	 4.6411821424e-001
 4.9871422345e+000	 3.5834666536e-001	 4.5961099855e-001
 4.9836719332e+000	 4.0374999913e-001	 4.5334219195e-001
 4.9797745430e+000	 4.4927218951e-001	 4.4542097255e-001
 4.7307858159e+000	 4.2680858003e-001	 4.4328167514e-001
 4.7266740087e+000	 4.7016254140e-001	 4.3751174031e-001
 4.7221494326e+000	 5.1361925192e-001	 4.3249191542e-001
 4.7172086778e+000	 5.5717348293e-001	 4.2828984259e-001
 4.7118484097e+000	 6.0081990940e-001	 4.2499332386e-001
 4.7060653722e+000	 6.4455311094e-001	 4.1987665000e-001
 4.6998563898e+000	 6.8836757286e-001	 4.0940028823e-001
 4.6932183711e+000	 7.3225768736e-001	 3.9582701657e-001
 4.6861483115e+000	 7.7621775480e-001	 3.7899470612e-001
 4.6786432954e+000	 8.2024198506e-001	 3.5873001090e-001
 4.6707005000e+000	 8.6432449896e-001	 3.3484686482e-001
 4.7556846886e+000	 4.2905494097e-001	 4.4290114708e-001
 4.7515512403e+000	 4.7263708109e-001	 4.3685749052e-001
 4.7470028507e+000	 5.1632251113e-001	 4.3148053448e-001
 4.7420360919e+000	 5.6010597494e-001	 4.2685310172e-001
 4.7366476119e+000	 6.0398211945e-001	 4.2307872190e-001
 4.7308341373e+000	 6.4794549573e-001	 4.1792793106e-001
 4.7245924760e+000	 6.9199056008e-001	 4.0876508796e-001
 4.7179195205e+000	 7.3611167519e-001	 3.9672773664e-001
 4.7108122499e+000	 7.8030311141e-001	 3.8167723480e-001
 4.7032677338e+000	 8.2455904814e-001	 3.6346369532e-001
 4.6952831342e+000	 8.6887357527e-001	 3.4192443592e-001
 4.7805835613e+000	 4.3130130191e-001	 4.4258368014e-001
 4.7764284720e+000	 4.7511162077e-001	 4.3626894872e-001
 4.7718562687e+000	 5.1902577035e-001	 4.3053204862e-001
 4.7668635060e+000	 5.6303846695e-001	 4.2547106683e-001
 4.7614468140e+000	 6.0714432950e-001	 4.2120535167e-001
 4.7556029024e+000	 6.5133788053e-001	 4.1617961834e-001
 4.7493285623e+000	 6.9561354731e-001	 4.0816444832e-001
 4.7426206698e+000	 7.3996566301e-001	 3.9749784134e-001
 4.7354761884e+000	 7.8438846801e-001	 3.8406496465e-001
 4.7278921722e+000	 8.2887611122e-001	 3.6773971486e-001
 4.7198657684e+000	 8.7342265158e-001	 3.4838311976e-001
 4.8054824340e+000	 4.3354766286e-001	 4.4235689640e-001
 4.8013057036e+000	 4.7758616046e-001	 4.3576907400e-001
 4.7967096868e+000	 5.2172902957e-001	 4.2966474179e-001
 4.7916909201e+000	 5.6597095897e-001	 4.2415733712e-001
 4.7862460162e+000	 6.1030653954e-001	 4.1938212043e-001
 4.7803716675e+000	 6.5473026532e-001	 4.1459362795e-001
 4.7740646486e+000	 6.9923653453e-001	 4.0755305632e-001
 4.7673218191e+000	 7.4381965084e-001	 3.9808483688e-001
 4.7601401269e+000	 7.8847382461e-001	 3.8609827408e-001
 4.7525166106e+000	 8.3319317430e-001	 3.7149137787e-001
 4.7444484026e+000	 8.7797172789e-001	 3.5414921704e-001
 4.8303813068e+000	 4.3579402381e-001	 4.4224739769e-001
 4.8261829352e+000	 4.8006070016e-001	 4.3537985222e-001
 4.8215631049e+000	 5.2443228879e-001	 4.2889597138e-001
 4.8165183342e+000	 5.6890345098e-001	 4.2292463135e-001
 4.8110452184e+000	 6.1346874959e-001	 4.1761710077e-001
 4.8051404326e+000	 6.5812265011e-001	 4.1313108663e-001
 4.7988007348e+000	 7.0285952176e-001	 4.0688485444e-001
 4.7920229684e+000	 7.4767363867e-001	 3.9843552927e-001
 4.7848040654e+000	 7.9255918122e-001	 3.8771688511e-001
 4.7771410490e+000	 8.3751023738e-001	 3.7465137948e-001
 4.7690310368e+000	 8.8252080420e-001	 3.5914845793e-001
 4.8552801795e+000	 4.3804038475e-001	 4.4228079180e-001
 4.8510601668e+000	 4.8253523985e-001	 4.3512232097e-001
 4.8464165229e+000	 5.2713554801e-001	 4.2824219189e-001
 4.8413457483e+000	 5.7183594300e-001	 4.2178481047e-001
 4.8358444205e+000	 6.1663095964e-001	 4.1591755203e-001
 4.8299091977e+000	 6.6151503491e-001	 4.1175235200e-001
 4.8235368211e+000	 7.0648250899e-001	 4.0611305973e-001
 4.8167241177e+000	 7.5152762650e-001	 3.9849604227e-001
 4.8094680039e+000	 7.9664453783e-001	 3.8885988015e-001
 4.8017654874e+000	 8.4182730046e-001	 3.7715181741e-001
 4.7936136710e+000	 8.8706988052e-001	 3.6330601671e-001
 4.8801790522e+000	 4.4028674570e-001	 4.4248171777e-001
 4.8759373984e+000	 4.8500977954e-001	 4.3501659377e-001
 4.8712699410e+000	 5.2983880724e-001	 4.2771897799e-001
 4.8661731623e+000	 5.7476843502e-001	 4.2074889944e-001
 4.8606436227e+000	 6.1979316970e-001	 4.1428994105e-001
 4.8546779629e+000	 6.6490741971e-001	 4.1041703221e-001
 4.8482729073e+000	 7.1010549622e-001	 4.0519018227e-001
 4.8414252671e+000	 7.5538161434e-001	 3.9821183477e-001
 4.8341319423e+000	 8.0072989444e-001	 3.8946571833e-001
 4.8263899258e+000	 8.4614436354e-001	 3.7892420711e-001
 4.8181963052e+000	 8.9161895683e-001	 3.6654652596e-001
 4.9050779249e+000	 4.4253310665e-001	 4.4287387053e-001
 4.9008146301e+000	 4.8748431924e-001	 4.3508188347e-001
 4.8961233591e+000	 5.3254206646e-001	 4.2734104687e-001
 4.8910005764e+000	 5.7770092704e-001	 4.1982710849e-001
 4.8854428248e+000	 6.2295537975e-001	 4.1273996226e-001
 4.8794467280e+000	 6.6829980451e-001	 4.0908400494e-001
 4.8730089936e+000	 7.1372848345e-001	 4.0406804319e-001
 4.8661264164e+000	 7.5923560217e-001	 3.9752771768e-001
 4.8587958808e+000	 8.0481525105e-001	 3.8947225132e-001
 4.8510143642e+000	 8.5046142663e-001	 3.7989949663e-001
 4.8427789394e+000	 8.9616803315e-001	 3.6879409030e-001
 4.9299767976e+000	 4.4477946760e-001	 4.4348002472e-001
 4.9256918617e+000	 4.8995885893e-001	 4.3533652507e-001
 4.9209767771e+000	 5.3524532569e-001	 4.2712227988e-001
 4.9158279905e+000	 5.8063341906e-001	 4.1902885369e-001
 4.9102420270e+000	 6.2611758981e-001	 4.1138419994e-001
 4.9042154931e+000	 6.7169218931e-001	 4.0771143581e-001
 4.8977450799e+000	 7.1735147068e-001	 4.0269779199e-001
 4.8908275657e+000	 7.6308959000e-001	 3.9638787029e-001
 4.8834598193e+000	 8.0890060766e-001	 3.8881673870e-001
 4.8756388026e+000	 8.5477848971e-001	 3.8000808087e-001
 4.8673615736e+000	 9.0071710947e-001	 3.6997229970e-001
 4.9548756703e+000	 4.4702582855e-001	 4.4432205781e-001
 4.9505690933e+000	 4.9243339863e-001	 4.3579799773e-001
 4.9458301952e+000	 5.3794858491e-001	 4.2707574351e-001
 4.9406554046e+000	 5.8356591108e-001	 4.1836277688e-001
 4.9350412291e+000	 6.2927979986e-001	 4.1034571094e-001
 4.9289842582e+000	 6.7508457411e-001	 4.0625679635e-001
 4.9224811661e+000	 7.2097445791e-001	 4.0102992349e-001
 4.9155287150e+000	 7.6694357784e-001	 3.9473585617e-001
 4.9081237578e+000	 8.1298596427e-001	 3.8743586277e-001
 4.9002632410e+000	 8.5909555280e-001	 3.7917981554e-001
 4.8919442078e+000	 9.0526618578e-001	 3.7000424247e-001
 4.9797745430e+000	 4.4927218951e-001	 4.4542097255e-001
 4.9754463249e+000	 4.9490793833e-001	 4.3648294617e-001
 4.9706836133e+000	 5.4065184414e-001	 4.2721370981e-001
 4.9654828187e+000	 5.8649840310e-001	 4.1783676505e-001
 4.9598404313e+000	 6.3244200992e-001	 4.0940511694e-001
 4.9537530233e+000	 6.7847695892e-001	 4.0467688128e-001
 4.9472172524e+000	 7.2459744515e-001	 3.9901429413e-001
 4.9402298643e+000	 7.7079756568e-001	 3.9251463849e-001
 4.9327876962e+000	 8.1707132088e-001	 3.8526574305e-001
 4.9248876794e+000	 8.6341261589e-001	 3.7734403058e-001
 4.9165268420e+000	 9.0981526210e-001	 3.6881251773e-001
 4.6707005000e+000	 8.6432449896e-001	 3.3484686482e-001
 4.6623171971e+000	 9.0845932984e-001	 3.3779265510e-001
 4.6534907565e+000	 9.5264042516e-001	 3.3842300077e-001
 4.6442186484e+000	 9.9686164827e-001	 3.3633291649e-001
 4.6344984465e+000	 1.0411167802e+000	 3.3109405362e-001
 4.6243278300e+000	 1.0853995214e+000	 3.2225316410e-001
 4.6137045869e+000	 1.1297034943e+000	 3.0933055940e-001
 4.6026266164e+000	 1.1740222445e+000	 2.9181856949e-001
 4.5910919311e+000	 1.2183492440e+000	 2.6918000643e-001
 4.5790986602e+000	 1.2626778925e+000	 2.6011485585e-001
 4.5666450514e+000	 1.3070015205e+000	 2.9670911175e-001
 4.6952831342e+000	 8.6887357527e-001	 3.4192443592e-001
 4.6868557086e+000	 9.1324069473e-001	 3.4384351857e-001
 4.6779828131e+000	 9.5765432214e-001	 3.4327127321e-001
 4.6686619045e+000	 1.0021082885e+000	 3.3982672696e-001
 4.6588905436e+000	 1.0465963422e+000	 3.3310573364e-001
 4.6486663975e+000	 1.0911121505e+000	 3.2267939254e-001
 4.6379872426e+000	 1.1356493021e+000	 3.0809246131e-001
 4.6268509670e+000	 1.1802013090e+000	 2.8886176762e-001
 4.6152555729e+000	 1.2247616084e+000	 2.6447462448e-001
 4.6031991795e+000	 1.2693235656e+000	 2.6130457758e-001
 4.5906800254e+000	 1.3138804759e+000	 2.9115265922e-001
 4.7198657684e+000	 8.7342265158e-001	 3.4838311976e-001
 4.7113942202e+000	 9.1802205963e-001	 3.4922450510e-001
 4.7024748697e+000	 9.6266821912e-001	 3.4740655710e-001
 4.6931051605e+000	 1.0073549288e+000	 3.4257264309e-001
 4.6832826406e+000	 1.0520759042e+000	 3.3434314286e-001
 4.6730049650e+000	 1.0968247796e+000	 3.2231382188e-001
 4.6622698984e+000	 1.1415951100e+000	 3.0605419738e-001
 4.6510753176e+000	 1.1863803734e+000	 2.8510590201e-001
 4.6394192146e+000	 1.2311739729e+000	 2.5898105034e-001
 4.6272996988e+000	 1.2759692387e+000	 2.6019847562e-001
 4.6147149993e+000	 1.3207594313e+000	 2.8350303448e-001
 4.7444484026e+000	 8.7797172789e-001	 3.5414921704e-001
 4.7359327318e+000	 9.2280342452e-001	 3.5385329208e-001
 4.7269669263e+000	 9.6768211609e-001	 3.5073789179e-001
 4.7175484166e+000	 1.0126015690e+000	 3.4447105610e-001
 4.7076747377e+000	 1.0575554662e+000	 3.3469801918e-001
 4.6973435326e+000	 1.1025374086e+000	 3.2103953634e-001
 4.6865525541e+000	 1.1475409179e+000	 3.0309020264e-001
 4.6752996682e+000	 1.1925594379e+000	 2.8041676797e-001
 4.6635828564e+000	 1.2375863373e+000	 2.5255645397e-001
 4.6514002180e+000	 1.2826149119e+000	 2.5676597494e-001
 4.6387499733e+000	 1.3276383866e+000	 2.7372463978e-001
 4.7690310368e+000	 8.8252080420e-001	 3.5914845793e-001
 4.7604712433e+000	 9.2758478942e-001	 3.5764706318e-001
 4.7514589829e+000	 9.7269601307e-001	 3.5317390080e-001
 4.7419916726e+000	 1.0178482093e+000	 3.4542202051e-001
 4.7320668348e+000	 1.0630350282e+000	 3.3406184400e-001
 4.7216821001e+000	 1.1082500377e+000	 3.1873944492e-001
 4.7108352098e+000	 1.1534867257e+000	 2.9907481927e-001
 4.6995240188e+000	 1.1987385023e+000	 2.7466015137e-001
 4.6877464981e+000	 1.2439987017e+000	 2.4505808037e-001
 4.6755007373e+000	 1.2892605850e+000	 2.5097666103e-001
 4.6627849472e+000	 1.3345173420e+000	 2.6178212432e-001
 4.7936136710e+000	 8.8706988052e-001	 3.6330601671e-001
 4.7850097549e+000	 9.3236615432e-001	 3.6052252097e-001
 4.7759510395e+000	 9.7770991005e-001	 3.5462280249e-001
 4.7664349286e+000	 1.0230948496e+000	 3.4532526272e-001
 4.7564589319e+000	 1.0685145902e+000	 3.3232584877e-001
 4.7460206676e+000	 1.1139626667e+000	 3.1529628588e-001
 4.7351178655e+000	 1.1594325336e+000	 2.9388229904e-001
 4.7237483694e+000	 1.2049175668e+000	 2.6770182896e-001
 4.7119101398e+000	 1.2504110662e+000	 2.3671176431e-001
 4.6996012565e+000	 1.2959062581e+000	 2.4280027572e-001
 4.6868199212e+000	 1.3413962974e+000	 2.4764037781e-001
 4.8181963052e+000	 8.9161895683e-001	 3.6654652596e-001
 4.8095482664e+000	 9.3714751922e-001	 3.6239589918e-001
 4.8004430961e+000	 9.8272380703e-001	 3.5499242044e-001
 4.7908781847e+000	 1.0283414898e+000	 3.4408018943e-001
 4.7808510290e+000	 1.0739941522e+000	 3.2938102137e-001
 4.7703592351e+000	 1.1196752958e+000	 3.1059263115e-001
 4.7594005212e+000	 1.1653783415e+000	 2.8738680555e-001
 4.7479727200e+000	 1.2110966312e+000	 2.5940756853e-001
 4.7360737816e+000	 1.2568234306e+000	 2.3174741588e-001
 4.7237017758e+000	 1.3025519312e+000	 2.3220671327e-001
 4.7108548951e+000	 1.3482752527e+000	 2.3126452443e-001
 4.8427789394e+000	 8.9616803315e-001	 3.6879409030e-001
 4.8340867780e+000	 9.4192888412e-001	 3.6318297465e-001
 4.8249351527e+000	 9.8773770401e-001	 3.5419019339e-001
 4.8153214407e+000	 1.0335881301e+000	 3.4158589571e-001
 4.8052431260e+000	 1.0794737142e+000	 3.2511811229e-001
 4.7946978026e+000	 1.1253879249e+000	 3.0451089051e-001
 4.7836831769e+000	 1.1713241493e+000	 2.7946241651e-001
 4.7721970706e+000	 1.2172756957e+000	 2.4964312920e-001
 4.7602374233e+000	 1.2632357951e+000	 2.2416098571e-001
 4.7478022951e+000	 1.3091976043e+000	 2.1916601642e-001
 4.7348898691e+000	 1.3551542081e+000	 2.1261991683e-001
 4.8673615736e+000	 9.0071710947e-001	 3.6997229970e-001
 4.8586252895e+000	 9.4671024902e-001	 3.6279907883e-001
 4.8494272093e+000	 9.9275160099e-001	 3.5212318503e-001
 4.8397646967e+000	 1.0388347703e+000	 3.3774117291e-001
 4.8296352231e+000	 1.0849532762e+000	 3.1942764065e-001
 4.8190363702e+000	 1.1311005539e+000	 2.9693331569e-001
 4.8079658326e+000	 1.1772699572e+000	 2.6998312589e-001
 4.7964214212e+000	 1.2234547601e+000	 2.3827426161e-001
 4.7844010650e+000	 1.2696481595e+000	 2.1392723382e-001
 4.7719028143e+000	 1.3158432775e+000	 2.0364837272e-001
 4.7589248430e+000	 1.3620331635e+000	 1.9167213034e-001
 4.8919442078e+000	 9.0526618578e-001	 3.7000424247e-001
 4.8831638011e+000	 9.5149161392e-001	 3.6115910898e-001
 4.8739192659e+000	 9.9776549797e-001	 3.4869809339e-001
 4.8642079528e+000	 1.0440814106e+000	 3.3244451625e-001
 4.8540273202e+000	 1.0904328382e+000	 3.1219989999e-001
 4.8433749377e+000	 1.1368131830e+000	 2.8774200434e-001
 4.8322484884e+000	 1.1832157651e+000	 2.5882284603e-001
 4.8206457718e+000	 1.2296338246e+000	 2.2516670811e-001
 4.8085647068e+000	 1.2760605240e+000	 2.0102098624e-001
 4.7960033336e+000	 1.3224889506e+000	 1.8562411083e-001
 4.7829598170e+000	 1.3689121189e+000	 1.6838695746e-001
 4.9165268420e+000	 9.0981526210e-001	 3.6881251773e-001
 4.9077023127e+000	 9.5627297882e-001	 3.5817753902e-001
 4.8984113225e+000	 1.0027793950e+000	 3.4382126000e-001
 4.8886512088e+000	 1.0493280509e+000	 3.2559413227e-001
 4.8784194173e+000	 1.0959124002e+000	 3.0332496390e-001
 4.8677135052e+000	 1.1425258121e+000	 2.7681890391e-001
 4.8565311441e+000	 1.1891615729e+000	 2.4585540968e-001
 4.8448701224e+000	 1.2358128890e+000	 2.1018620303e-001
 4.8327283485e+000	 1.2824728884e+000	 1.8541713336e-001
 4.8201038528e+000	 1.3291346237e+000	 1.6506369700e-001
 4.8069947909e+000	 1.3757910742e+000	 1.4273040231e-001
 4.5666450514e+000	 1.3070015205e+000	 2.9670911175e-001
 4.5537294736e+000	 1.3513133914e+000	 3.1498354219e-001
 4.5403504190e+000	 1.3956067041e+000	 3.2582510708e-001
 4.5265065060e+000	 1.4398745957e+000	 3.2916995518e-001
 4.5121964807e+000	 1.4841101442e+000	 3.2495715787e-001
 4.4974192195e+000	 1.5283063712e+000	 3.1312850445e-001
 4.4821737314e+000	 1.5724562449e+000	 2.9362828774e-001
 4.4664591594e+000	 1.6165526831e+000	 2.6640308077e-001
 4.4502747833e+000	 1.6605885562e+000	 2.3140150521e-001
 4.4336200209e+000	 1.7045566903e+000	 1.8857399205e-001
 4.4164944300e+000	 1.7484498704e+000	 1.3787253556e-001
 4.5906800254e+000	 1.3138804759e+000	 2.9115265922e-001
 4.5776964708e+000	 1.3584255672e+000	 3.0445104027e-001
 4.5642470002e+000	 1.4029520026e+000	 3.1138660097e-001
 4.5503302244e+000	 1.4474528831e+000	 3.1192336417e-001
 4.5359448832e+000	 1.4919212502e+000	 3.0602769514e-001
 4.5210898470e+000	 1.5363500889e+000	 2.9366805541e-001
 4.5057641194e+000	 1.5807323304e+000	 2.7481474705e-001
 4.4899668392e+000	 1.6250608551e+000	 2.4943964800e-001
 4.4736972822e+000	 1.6693284959e+000	 2.1751593928e-001
 4.4569548631e+000	 1.7135280413e+000	 1.7901782481e-001
 4.4397391376e+000	 1.7576522382e+000	 1.3392024464e-001
 4.6147149993e+000	 1.3207594313e+000	 2.8350303448e-001
 4.6016634680e+000	 1.3655377429e+000	 2.9205187714e-001
 4.5881435813e+000	 1.4102973010e+000	 2.9529913230e-001
 4.5741539429e+000	 1.4550311704e+000	 2.9323659231e-001
 4.5596932857e+000	 1.4997323562e+000	 2.8585781578e-001
 4.5447604745e+000	 1.5443938066e+000	 2.7315784012e-001
 4.5293545075e+000	 1.5890084159e+000	 2.5513288445e-001
 4.5134745190e+000	 1.6335690271e+000	 2.3178004374e-001
 4.4971197811e+000	 1.6780684357e+000	 2.0309697489e-001
 4.4802897053e+000	 1.7224993923e+000	 1.6908157565e-001
 4.4629838451e+000	 1.7668546059e+000	 1.2973165730e-001
 4.6387499733e+000	 1.3276383866e+000	 2.7372463978e-001
 4.6256304653e+000	 1.3726499187e+000	 2.7774507594e-001
 4.6120401625e+000	 1.4176425995e+000	 2.7751649862e-001
 4.5979776614e+000	 1.4626094578e+000	 2.7305836876e-001
 4.5834416883e+000	 1.5075434623e+000	 2.6439134145e-001
 4.5684311019e+000	 1.5524375244e+000	 2.5153693716e-001
 4.5529448956e+000	 1.5972845014e+000	 2.3451720347e-001
 4.5369821988e+000	 1.6420771991e+000	 2.1335436795e-001
 4.5205422799e+000	 1.6868083755e+000	 1.8807048328e-001
 4.5036245475e+000	 1.7314707433e+000	 1.5868706532e-001
 4.4862285526e+000	 1.7760569736e+000	 1.2522472521e-001
 4.6627849472e+000	 1.3345173420e+000	 2.6178212432e-001
 4.6495974625e+000	 1.3797620944e+000	 2.6149000055e-001
 4.6359367437e+000	 1.4249878979e+000	 2.5799292890e-001
 4.6218013798e+000	 1.4701877451e+000	 2.5133794168e-001
 4.6071900908e+000	 1.5153545683e+000	 2.4157269715e-001
 4.5921017294e+000	 1.5604812421e+000	 2.2874510960e-001
 4.5765352836e+000	 1.6055605868e+000	 2.1290296988e-001
 4.5604898786e+000	 1.6505853711e+000	 1.9409355722e-001
 4.5439647788e+000	 1.6955483152e+000	 1.7236324330e-001
 4.5269593898e+000	 1.7404420943e+000	 1.4775708958e-001
 4.5094732602e+000	 1.7852593414e+000	 1.2031843899e-001
 4.6868199212e+000	 1.3413962974e+000	 2.4764037781e-001
 4.6735644597e+000	 1.3868742701e+000	 2.4324634681e-001
 4.6598333248e+000	 1.4323331963e+000	 2.3668307251e-001
 4.6456250983e+000	 1.4777660325e+000	 2.2802506496e-001
 4.6309384933e+000	 1.5231656743e+000	 2.1734689583e-001
 4.6157723569e+000	 1.5685249599e+000	 2.0472278745e-001
 4.6001256717e+000	 1.6138366723e+000	 1.9022619221e-001
 4.5839975584e+000	 1.6590935431e+000	 1.7392936335e-001
 4.5673872776e+000	 1.7042882550e+000	 1.5590291808e-001
 4.5502942320e+000	 1.7494134453e+000	 1.3621539424e-001
 4.5327179677e+000	 1.7944617091e+000	 1.1493280151e-001
 4.7108548951e+000	 1.3482752527e+000	 2.3126452443e-001
 4.6975314569e+000	 1.3939864459e+000	 2.2297413407e-001
 4.6837299060e+000	 1.4396784948e+000	 2.1354198849e-001
 4.6694488167e+000	 1.4853443198e+000	 2.0306998531e-001
 4.6546868958e+000	 1.5309767803e+000	 1.9165952336e-001
 4.6394429843e+000	 1.5765686776e+000	 1.7941105064e-001
 4.6237160597e+000	 1.6221127578e+000	 1.6642360272e-001
 4.6075052382e+000	 1.6676017152e+000	 1.5279433250e-001
 4.5908097765e+000	 1.7130281948e+000	 1.3861803252e-001
 4.5736290742e+000	 1.7583847963e+000	 1.2398665087e-001
 4.5559626752e+000	 1.8036640769e+000	 1.0898880210e-001
 4.7348898691e+000	 1.3551542081e+000	 2.1261991683e-001
 4.7214984542e+000	 1.4010986216e+000	 2.0063369698e-001
 4.7076264871e+000	 1.4470237932e+000	 1.8852513510e-001
 4.6932725352e+000	 1.4929226072e+000	 1.7642342973e-001
 4.6784352984e+000	 1.5387878863e+000	 1.6445672398e-001
 4.6631136118e+000	 1.5846123954e+000	 1.5275161253e-001
 4.6473064478e+000	 1.6303888433e+000	 1.4143263908e-001
 4.6310129180e+000	 1.6761098872e+000	 1.3062178511e-001
 4.6142322754e+000	 1.7217681346e+000	 1.2043795139e-001
 4.5969639164e+000	 1.7673561473e+000	 1.1099643335e-001
 4.5792073827e+000	 1.8128664446e+000	 1.0240839154e-001
 4.7589248430e+000	 1.3620331635e+000	 1.9167213034e-001
 4.7454654514e+000	 1.4082107974e+000	 1.7618567752e-001
 4.7315230682e+000	 1.4543690917e+000	 1.6158835981e-001
 4.7170962536e+000	 1.5005008945e+000	 1.4803659341e-001
 4.7021837009e+000	 1.5465989924e+000	 1.3568518622e-001
 4.6867842393e+000	 1.5926561131e+000	 1.2468680394e-001
 4.6708968359e+000	 1.6386649288e+000	 1.1519142655e-001
 4.6545205977e+000	 1.6846180592e+000	 1.0734579625e-001
 4.6376547742e+000	 1.7305080743e+000	 1.0129285815e-001
 4.6202987586e+000	 1.7763274983e+000	 9.7171195069e-002
 4.6024520903e+000	 1.8220688123e+000	 9.5114457701e-002
 4.7829598170e+000	 1.3689121189e+000	 1.6838695746e-001
 4.7694324486e+000	 1.4153229731e+000	 1.4959101730e-001
 4.7554196494e+000	 1.4617143901e+000	 1.3268788948e-001
 4.7409199721e+000	 1.5080791818e+000	 1.1786112795e-001
 4.7259321034e+000	 1.5544100984e+000	 1.0529212921e-001
 4.7104548668e+000	 1.6006998308e+000	 9.5159557564e-002
 4.6944872239e+000	 1.6469410143e+000	 8.7638760685e-002
 4.6780282775e+000	 1.6931262312e+000	 8.2901176735e-002
 4.6610772731e+000	 1.7392480141e+000	 8.1113734335e-002
 4.6436336008e+000	 1.7852988493e+000	 8.2438246804e-002
 4.6256967978e+000	 1.8312711801e+000	 8.7030802081e-002
 4.8069947909e+000	 1.3757910742e+000	 1.4273040231e-001
 4.7933994458e+000	 1.4224351489e+000	 1.2081095004e-001
 4.7793162305e+000	 1.4690596886e+000	 1.0178032087e-001
 4.7647436905e+000	 1.5156574692e+000	 8.5849129949e-002
 4.7496805060e+000	 1.5622212044e+000	 7.3225289434e-002
 4.7341254942e+000	 1.6087435486e+000	 6.4113393011e-002
 4.7180776120e+000	 1.6552170998e+000	 5.8714090608e-002
 4.7015359573e+000	 1.7016344032e+000	 5.7223454708e-002
 4.6844997719e+000	 1.7479879539e+000	 5.9832339642e-002
 4.6669684431e+000	 1.7942702003e+000	 6.6725735320e-002
 4.6489415053e+000	 1.8404735478e+000	 7.8082116922e-002
 4.4164944300e+000	 1.7484498704e+000	 1.3787253556e-001
 4.3988977105e+000	 1.7922608439e+000	 8.5746972175e-002
 4.3808297054e+000	 1.8359823234e+000	 2.7995463385e-002
 4.3622904030e+000	 1.8796069909e+000	 1.0905600966e-002
 4.3432799376e+000	 1.9231275005e+000	 3.0648691368e-002
 4.3237985918e+000	 1.9665364825e+000	 4.2034766731e-002
 4.3038467969e+000	 2.0098265468e+000	 4.5073193750e-002
 4.2834251345e+000	 2.0529902865e+000	 3.9769393120e-002
 4.2625343375e+000	 2.0960202818e+000	 2.6124864399e-002
 4.2411752908e+000	 2.1389091034e+000	 4.1372306454e-003
 4.2193490324e+000	 2.1816493170e+000	-2.6199696917e-002
 4.4397391376e+000	 1.7576522382e+000	 1.3392024464e-001
 4.4220498037e+000	 1.8016937957e+000	 9.0599129873e-002
 4.4038867039e+000	 1.8456453883e+000	 4.1719424014e-002
 4.3852498261e+000	 1.8894996592e+000	-4.9933667896e-003
 4.3661393057e+000	 1.9332492242e+000	-1.3045195876e-002
 4.3465554265e+000	 1.9768866745e+000	 4.0366671559e-003
 4.3264986222e+000	 2.0204045813e+000	 1.2684781453e-002
 4.3059694774e+000	 2.0637954986e+000	 1.2872026506e-002
 4.2849687287e+000	 2.1070519675e+000	 4.5669925639e-003
 4.2634972660e+000	 2.1501665198e+000	-1.2265943282e-002
 4.2415561326e+000	 2.1931316818e+000	-3.7666519915e-002
 4.4629838451e+000	 1.7668546059e+000	 1.2973165730e-001
 4.4452018969e+000	 1.8111267475e+000	 9.4648317349e-002
 4.4269437023e+000	 1.8553084531e+000	 5.4075596362e-002
 4.4082092493e+000	 1.8993923276e+000	 1.8166041741e-002
 4.3889986738e+000	 1.9433709479e+000	-1.3836548461e-002
 4.3693122612e+000	 1.9872368665e+000	-3.3527112357e-002
 4.3491504474e+000	 2.0309826157e+000	-1.9812641501e-002
 4.3285138202e+000	 2.0746007106e+000	-1.4674181315e-002
 4.3074031200e+000	 2.1180836532e+000	-1.8175831213e-002
 4.2858192412e+000	 2.1614239361e+000	-3.0386243121e-002
 4.2637632328e+000	 2.2046140466e+000	-5.1378491974e-002
 4.4862285526e+000	 1.7760569736e+000	 1.2522472521e-001
 4.4683539901e+000	 1.8205596993e+000	 9.7819696000e-002
 4.4500007008e+000	 1.8649715180e+000	 6.4996360126e-002
 4.4311686725e+000	 1.9092849960e+000	 3.7342829048e-002
 4.4118580419e+000	 1.9534926715e+000	 8.6350054721e-003
 4.3920690959e+000	 1.9975870585e+000	-2.4051757228e-002
 4.3718022727e+000	 2.0415606502e+000	-5.2437865957e-002
 4.3510581630e+000	 2.0854059226e+000	-4.2880023865e-002
 4.3298375112e+000	 2.1291153389e+000	-4.2106407305e-002
 4.3081412164e+000	 2.1726813525e+000	-5.0218484244e-002
 4.2859703329e+000	 2.2160964114e+000	-6.7322455624e-002
 4.5094732602e+000	 1.7852593414e+000	 1.2031843899e-001
 4.4915060834e+000	 1.8299926511e+000	 1.0003930181e-001
 4.4730576992e+000	 1.8746345829e+000	 7.4414805303e-002
 4.4541280956e+000	 1.9191776644e+000	 5.2682428338e-002
 4.4347174100e+000	 1.9636143952e+000	 2.6952499197e-002
 4.4148259306e+000	 2.0079372506e+000	-2.8916367423e-003
 4.3944540979e+000	 2.0521386846e+000	-3.6881426347e-002
 4.3736025058e+000	 2.0962111347e+000	-7.1756402509e-002
 4.3522719025e+000	 2.1401470246e+000	-6.7227806367e-002
 4.3304631916e+000	 2.1839387688e+000	-7.1757914167e-002
 4.3081774331e+000	 2.2275787763e+000	-8.5485846739e-002
 4.5327179677e+000	 1.7944617091e+000	 1.1493280151e-001
 4.5146581766e+000	 1.8394256029e+000	 1.0123402294e-001
 4.4961146977e+000	 1.8842976477e+000	 8.3225265420e-002
 4.4770875188e+000	 1.9290703327e+000	 6.4330804945e-002
 4.4575767781e+000	 1.9737361189e+000	 4.1273082314e-002
 4.4375827653e+000	 2.0182874426e+000	 1.3961995197e-002
 4.4171059232e+000	 2.0627167191e+000	-1.7678117413e-002
 4.3961468486e+000	 2.1070163467e+000	-5.3706705289e-002
 4.3747062937e+000	 2.1511787103e+000	-9.3543362406e-002
 4.3527851668e+000	 2.1951961851e+000	-9.5000201466e-002
 4.3303845333e+000	 2.2390611411e+000	-1.0585667933e-001
 4.5559626752e+000	 1.8036640769e+000	 1.0898880210e-001
 4.5378102698e+000	 1.8488585547e+000	 1.0133157796e-001
 4.5191716961e+000	 1.8939607126e+000	 8.8852676057e-002
 4.5000469420e+000	 1.9389630011e+000	 7.2434442761e-002
 4.4804361462e+000	 1.9838578426e+000	 5.1754267282e-002
 4.4603396000e+000	 2.0286376346e+000	 2.6677598786e-002
 4.4397577484e+000	 2.0732947536e+000	-2.9155680451e-003
 4.4186911914e+000	 2.1178215587e+000	-3.7128850594e-002
 4.3971406850e+000	 2.1622103960e+000	-7.6047649632e-002
 4.3751071420e+000	 2.2064536015e+000	-1.1973734056e-001
 4.3525916335e+000	 2.2505435059e+000	-1.2842353080e-001
 4.5792073827e+000	 1.8128664446e+000	 1.0240839154e-001
 4.5609623630e+000	 1.8582915065e+000	 1.0026049478e-001
 4.5422286946e+000	 1.9036237774e+000	 9.1362211525e-002
 4.5230063652e+000	 1.9488556695e+000	 7.7140331070e-002
 4.5032955143e+000	 1.9939795663e+000	 5.8553920215e-002
 4.4830964347e+000	 2.0389878266e+000	 3.5423836382e-002
 4.4624095737e+000	 2.0838727880e+000	 7.5855931252e-003
 4.4412355342e+000	 2.1286267708e+000	-2.5108724441e-002
 4.4195750762e+000	 2.1732420817e+000	-6.2788557525e-002
 4.3974291173e+000	 2.2177110178e+000	-1.0556299119e-001
 4.3747987336e+000	 2.2620258708e+000	-1.5317552763e-001
 4.6024520903e+000	 1.8220688123e+000	 9.5114457701e-002
 4.5841144562e+000	 1.8677244584e+000	 9.7950090251e-002
 4.5652856930e+000	 1.9132868423e+000	 9.0890551083e-002
 4.5459657884e+000	 1.9587483379e+000	 7.8595951791e-002
 4.5261548824e+000	 2.0041012900e+000	 6.1830251945e-002
 4.5058532694e+000	 2.0493380186e+000	 4.0369567393e-002
 4.4850613989e+000	 2.0944508225e+000	 1.4004787165e-002
 4.4637798771e+000	 2.1394319828e+000	-1.7456437572e-002
 4.4420094675e+000	 2.1842737674e+000	-5.4187717461e-002
 4.4197510925e+000	 2.2289684341e+000	-9.6341968282e-002
 4.3970058338e+000	 2.2735082356e+000	-1.4404948022e-001
 4.6256967978e+000	 1.8312711801e+000	 8.7030802081e-002
 4.6072665494e+000	 1.8771574102e+000	 9.3900613777e-002
 4.5883426915e+000	 1.9229499072e+000	 8.7574998606e-002
 4.5689252115e+000	 1.9686410063e+000	 7.6949267097e-002
 4.5490142505e+000	 2.0142230137e+000	 6.1741809368e-002
 4.5286101041e+000	 2.0596882107e+000	 4.1683843329e-002
 4.5077132242e+000	 2.1050288570e+000	 1.6521483587e-002
 4.4863242199e+000	 2.1502371949e+000	-1.3982195566e-002
 4.4644438587e+000	 2.1953054531e+000	-5.0045109653e-002
 4.4420730677e+000	 2.2402258505e+000	-9.1864132630e-002
 4.4192129340e+000	 2.2849906004e+000	-1.3961309136e-001
 4.6489415053e+000	 1.8404735478e+000	 7.8082116922e-002
 4.6304186427e+000	 1.8865903620e+000	 8.6388472383e-002
 4.6113996900e+000	 1.9326129720e+000	 8.1553466973e-002
 4.5918846347e+000	 1.9785336746e+000	 7.2348707408e-002
 4.5718736186e+000	 2.0243447374e+000	 5.8447467033e-002
 4.5513669388e+000	 2.0700384027e+000	 3.9535902998e-002
 4.5303650494e+000	 2.1156068914e+000	 1.5315199143e-002
 4.5088685627e+000	 2.1610424069e+000	-1.4496296463e-002
 4.4868782500e+000	 2.2063371388e+000	-5.0160946051e-002
 4.4643950429e+000	 2.2514832668e+000	-9.1919715550e-002
 4.4414200342e+000	 2.2964729653e+000	-1.3999009377e-001
 4.2193490324e+000	 2.1816493170e+000	-2.6199696917e-002
 4.1970567543e+000	 2.2242334862e+000	-1.1029753499e-001
 4.1742998024e+000	 2.2666541773e+000	-1.7706972527e-001
 4.1510796778e+000	 2.3089039626e+000	-2.2646629109e-001
 4.1273980366e+000	 2.3509754247e+000	-2.5846379740e-001
 4.1032566903e+000	 2.3928611605e+000	-2.7306545239e-001
 4.0786576062e+000	 2.4345537848e+000	-2.7030116091e-001
 4.0536029072e+000	 2.4760459347e+000	-2.5022752939e-001
 4.0280948713e+000	 2.5173302738e+000	-2.6791381517e-001
 4.0021359322e+000	 2.5583994957e+000	-3.4439447780e-001
 3.9757286783e+000	 2.5992463286e+000	-4.0359618577e-001
 4.2415561326e+000	 2.1931316818e+000	-3.7666519915e-002
 4.2191465267e+000	 2.2359399782e+000	-1.1724789966e-001
 4.1962698014e+000	 2.2785839361e+000	-1.8041800835e-001
 4.1729274656e+000	 2.3210560887e+000	-2.2708554026e-001
 4.1491211841e+000	 2.3633489796e+000	-2.5718474998e-001
 4.1248527781e+000	 2.4054551666e+000	-2.7067558687e-001
 4.1001242252e+000	 2.4473672257e+000	-2.6754378269e-001
 4.0749376593e+000	 2.4890777554e+000	-2.4780089205e-001
 4.0492953706e+000	 2.5305793805e+000	-3.0378728742e-001
 4.0231998056e+000	 2.5718647562e+000	-3.7643850813e-001
 3.9966535661e+000	 2.6129265724e+000	-4.3248651483e-001
 4.2637632328e+000	 2.2046140466e+000	-5.1378491974e-002
 4.2412362991e+000	 2.2476464703e+000	-1.2565437064e-001
 4.2182398003e+000	 2.2905136949e+000	-1.8441997733e-001
 4.1947752533e+000	 2.3332082148e+000	-2.2754304993e-001
 4.1708443317e+000	 2.3757225345e+000	-2.5491591818e-001
 4.1464488660e+000	 2.4180491727e+000	-2.6645567062e-001
 4.1215908442e+000	 2.4601806667e+000	-2.6210427615e-001
 4.0962724114e+000	 2.5021095762e+000	-2.4783649803e-001
 4.0704958700e+000	 2.5438284872e+000	-3.3123382663e-001
 4.0442636789e+000	 2.5853300167e+000	-3.9923400032e-001
 4.0175784539e+000	 2.6266068162e+000	-4.5129694916e-001
 4.2859703329e+000	 2.2160964114e+000	-6.7322455624e-002
 4.2633260715e+000	 2.2593529623e+000	-1.3551623854e-001
 4.2402097993e+000	 2.3024434537e+000	-1.8908752807e-001
 4.2166230411e+000	 2.3453603409e+000	-2.2786347356e-001
 4.1925674792e+000	 2.3880960893e+000	-2.5169486040e-001
 4.1680449538e+000	 2.4306431788e+000	-2.6045630919e-001
 4.1430574632e+000	 2.4729941077e+000	-2.5404643098e-001
 4.1176071636e+000	 2.5151413969e+000	-2.7319937376e-001
 4.0916963693e+000	 2.5570775939e+000	-3.5041949408e-001
 4.0653275522e+000	 2.5987952773e+000	-4.1296256720e-001
 4.0385033416e+000	 2.6402870601e+000	-4.6022475349e-001
 4.3081774331e+000	 2.2275787763e+000	-8.5485846739e-002
 4.2854158438e+000	 2.2710594543e+000	-1.4683312709e-001
 4.2621797983e+000	 2.3143732126e+000	-1.9443262568e-001
 4.2384708289e+000	 2.3575124671e+000	-2.2807126645e-001
 4.2142906268e+000	 2.4004696442e+000	-2.4755866601e-001
 4.1896410417e+000	 2.4432371849e+000	-2.5272736498e-001
 4.1645240822e+000	 2.4858075487e+000	-2.4343301645e-001
 4.1389419157e+000	 2.5281732176e+000	-2.9124694647e-001
 4.1128968686e+000	 2.5703267006e+000	-3.6150876688e-001
 4.0863914255e+000	 2.6122605378e+000	-4.1780395125e-001
 4.0594282294e+000	 2.6539673039e+000	-4.5946503331e-001
 4.3303845333e+000	 2.2390611411e+000	-1.0585667933e-001
 4.3075056162e+000	 2.2827659464e+000	-1.5960498455e-001
 4.2841497972e+000	 2.3263029714e+000	-2.0046730273e-001
 4.2603186167e+000	 2.3696645932e+000	-2.2819069078e-001
 4.2360137743e+000	 2.4128431991e+000	-2.4254396744e-001
 4.2112371295e+000	 2.4558311910e+000	-2.4331797632e-001
 4.1859907011e+000	 2.4986209896e+000	-2.3032580753e-001
 4.1602766679e+000	 2.5412050383e+000	-3.0212726595e-001
 4.1340973679e+000	 2.5835758073e+000	-3.6466457860e-001
 4.1074552989e+000	 2.6257257983e+000	-4.1393607257e-001
 4.0803531172e+000	 2.6676475477e+000	-4.4921079028e-001
 4.3525916335e+000	 2.2505435059e+000	-1.2842353080e-001
 4.3295953886e+000	 2.2944724384e+000	-1.7383207550e-001
 4.3061197962e+000	 2.3382327302e+000	-2.0720365750e-001
 4.2821664045e+000	 2.3818167193e+000	-2.2824582058e-001
 4.2577369219e+000	 2.4252167539e+000	-2.3668695177e-001
 4.2328332174e+000	 2.4684251971e+000	-2.3227657596e-001
 4.2074573201e+000	 2.5114344306e+000	-2.4015090800e-001
 4.1816114200e+000	 2.5542368590e+000	-3.0598714685e-001
 4.1552978673e+000	 2.5968249141e+000	-3.6004835860e-001
 4.1285191722e+000	 2.6391910588e+000	-4.0153507537e-001
 4.1012780050e+000	 2.6813277916e+000	-4.2965297588e-001
 4.3747987336e+000	 2.2620258708e+000	-1.5317552763e-001
 4.3516851610e+000	 2.3061789304e+000	-1.8951497275e-001
 4.3280897951e+000	 2.3501624891e+000	-2.1465385235e-001
 4.3040141922e+000	 2.3939688454e+000	-2.2826054648e-001
 4.2794600695e+000	 2.4375903088e+000	-2.3002337209e-001
 4.2544293052e+000	 2.4810192032e+000	-2.1965090892e-001
 4.2289239391e+000	 2.5242478716e+000	-2.4709351671e-001
 4.2029461722e+000	 2.5672686797e+000	-3.0297220004e-001
 4.1764983666e+000	 2.6100740208e+000	-3.4782007025e-001
 4.1495830455e+000	 2.6526563193e+000	-3.8077537301e-001
 4.1222028927e+000	 2.6950080354e+000	-4.0098054345e-001
 4.3970058338e+000	 2.2735082356e+000	-1.4404948022e-001
 4.3737749334e+000	 2.3178854225e+000	-2.0665454958e-001
 4.3500597941e+000	 2.3620922479e+000	-2.2283011208e-001
 4.3258619800e+000	 2.4061209716e+000	-2.2825858034e-001
 4.3011832170e+000	 2.4499638637e+000	-2.2258855842e-001
 4.2760253930e+000	 2.4936132094e+000	-2.0548804992e-001
 4.2503905581e+000	 2.5370613125e+000	-2.4801947314e-001
 4.2242809243e+000	 2.5803005004e+000	-2.9322686296e-001
 4.1976988659e+000	 2.6233231275e+000	-3.2813824797e-001
 4.1706469189e+000	 2.6661215798e+000	-3.5182969178e-001
 4.1431277805e+000	 2.7086882792e+000	-3.6338049865e-001
 4.4192129340e+000	 2.2849906004e+000	-1.3961309136e-001
 4.3958647058e+000	 2.3295919145e+000	-1.9475698888e-001
 4.3720297931e+000	 2.3740220067e+000	-2.3174472236e-001
 4.3477097678e+000	 2.4182730977e+000	-2.2826345976e-001
 4.3229063646e+000	 2.4623374186e+000	-2.1441742835e-001
 4.2976214809e+000	 2.5062072155e+000	-2.0063791697e-001
 4.2718571771e+000	 2.5498747535e+000	-2.4305832270e-001
 4.2456156764e+000	 2.5933323211e+000	-2.7689442915e-001
 4.2188993652e+000	 2.6365722342e+000	-3.0116003305e-001
 4.1917107922e+000	 2.6795868403e+000	-3.1486911322e-001
 4.1640526683e+000	 2.7223685231e+000	-3.1703794838e-001
 4.4414200342e+000	 2.2964729653e+000	-1.3999009377e-001
 4.4179544782e+000	 2.3412984066e+000	-1.8493417703e-001
 4.3939997920e+000	 2.3859517656e+000	-2.1674887711e-001
 4.3695575556e+000	 2.4304252238e+000	-2.2829855240e-001
 4.3446295122e+000	 2.4747109734e+000	-2.0554449738e-001
 4.3192175687e+000	 2.5188012216e+000	-2.0275337557e-001
 4.2933237960e+000	 2.5626881945e+000	-2.3233873593e-001
 4.2669504286e+000	 2.6063641418e+000	-2.5411707684e-001
 4.2400998645e+000	 2.6498213409e+000	-2.6704120857e-001
 4.2127746655e+000	 2.6930521008e+000	-2.7006311525e-001
 4.1849775561e+000	 2.7360487669e+000	-2.6213614828e-001
 3.9757286783e+000	 2.5992463286e+000	-4.0359618577e-001
 3.9488758523e+000	 2.6398635388e+000	-3.8401516346e-001
 3.9215803507e+000	 2.6802439354e+000	-3.6766273445e-001
 3.8938452231e+000	 2.7203803739e+000	-3.5398777007e-001
 3.8656736713e+000	 2.7602657603e+000	-3.4243511275e-001
 3.8370690480e+000	 2.7998930552e+000	-3.3244704144e-001
 3.8080348563e+000	 2.8392552779e+000	-3.2346473893e-001
 3.7785747479e+000	 2.8783455100e+000	-3.1492975717e-001
 3.7486925218e+000	 2.9171568997e+000	-3.0712284605e-001
 3.7183921230e+000	 2.9556826656e+000	-3.1249122645e-001
 3.6876776410e+000	 2.9939161004e+000	-3.0874654611e-001
 3.9966535661e+000	 2.6129265724e+000	-4.3248651483e-001
 3.9696594094e+000	 2.6537575574e+000	-4.0754832817e-001
 3.9422202473e+000	 2.6943504824e+000	-3.8620499966e-001
 3.9143391453e+000	 2.7346981653e+000	-3.6797680979e-001
 3.8860193222e+000	 2.7747934748e+000	-3.5238013717e-001
 3.8572641483e+000	 2.8146293345e+000	-3.3892886338e-001
 3.8280771451e+000	 2.8541987267e+000	-3.2713577912e-001
 3.7984619834e+000	 2.8934946969e+000	-3.1651398760e-001
 3.7684224824e+000	 2.9325103571e+000	-3.0657830108e-001
 3.7379626079e+000	 2.9712388901e+000	-3.0237057664e-001
 3.7070864707e+000	 3.0096735536e+000	-3.0124942904e-001
 4.0175784539e+000	 2.6266068162e+000	-4.5129694916e-001
 3.9904429665e+000	 2.6676515760e+000	-4.2244565321e-001
 3.9628601438e+000	 2.7084570295e+000	-3.9755068601e-001
 3.9348330675e+000	 2.7490159568e+000	-3.7620284727e-001
 3.9063649731e+000	 2.7893211894e+000	-3.5798916393e-001
 3.8774592485e+000	 2.8293656137e+000	-3.4249423556e-001
 3.8481194338e+000	 2.8691421756e+000	-3.2930158020e-001
 3.8183492189e+000	 2.9086438838e+000	-3.1799497690e-001
 3.7881524430e+000	 2.9478638144e+000	-3.0815980079e-001
 3.7575330927e+000	 2.9867951147e+000	-2.9938434693e-001
 3.7264953004e+000	 3.0254310067e+000	-2.9878454800e-001
 4.0385033416e+000	 2.6402870601e+000	-4.6022475349e-001
 4.0112265236e+000	 2.6815455947e+000	-4.2888462935e-001
 3.9835000404e+000	 2.7225635765e+000	-4.0185752267e-001
 3.9553269898e+000	 2.7633337482e+000	-3.7880387084e-001
 3.9267106240e+000	 2.8038489039e+000	-3.5938046981e-001
 3.8976543488e+000	 2.8441018930e+000	-3.4324176093e-001
 3.8681617225e+000	 2.8840856244e+000	-3.3004111762e-001
 3.8382364544e+000	 2.9237930707e+000	-3.1943212788e-001
 3.8078824037e+000	 2.9632172718e+000	-3.1106986897e-001
 3.7771035776e+000	 3.0023513392e+000	-3.0461217023e-001
 3.7459041300e+000	 3.0411884599e+000	-3.0099302677e-001
 4.0594282294e+000	 2.6539673039e+000	-4.5946503331e-001
 4.0320100807e+000	 2.6954396133e+000	-4.2704102905e-001
 4.0041399370e+000	 2.7366701235e+000	-3.9928196042e-001
 3.9758209120e+000	 2.7776515397e+000	-3.7591702920e-001
 3.9470562748e+000	 2.8183766184e+000	-3.5667192927e-001
 3.9178494490e+000	 2.8588381722e+000	-3.4127007595e-001
 3.8882040112e+000	 2.8990290732e+000	-3.2943383427e-001
 3.8581236899e+000	 2.9389422576e+000	-3.2088574270e-001
 3.8276123643e+000	 2.9785707292e+000	-3.1534972821e-001
 3.7966740624e+000	 3.0179075638e+000	-3.1255230916e-001
 3.7653129597e+000	 3.0569459131e+000	-3.1222378198e-001
 4.0803531172e+000	 2.6676475477e+000	-4.4921079028e-001
 4.0527936378e+000	 2.7093336319e+000	-4.1708895049e-001
 4.0247798336e+000	 2.7507766705e+000	-3.8997920441e-001
 3.9963148342e+000	 2.7919693311e+000	-3.6767865291e-001
 3.9674019257e+000	 2.8329043329e+000	-3.4998102484e-001
 3.9380445493e+000	 2.8735744514e+000	-3.3667784964e-001
 3.9082462999e+000	 2.9139725220e+000	-3.2755962845e-001
 3.8780109254e+000	 2.9540914445e+000	-3.2241699978e-001
 3.8473423250e+000	 2.9939241865e+000	-3.2104189608e-001
 3.8162445473e+000	 3.0334637884e+000	-3.2322868757e-001
 3.7847217894e+000	 3.0727033662e+000	-3.2877530942e-001
 4.1012780050e+000	 2.6813277916e+000	-4.2965297588e-001
 4.0735771949e+000	 2.7232276505e+000	-3.9920086033e-001
 4.0454197301e+000	 2.7648832176e+000	-3.7410324596e-001
 4.0168087564e+000	 2.8062871225e+000	-3.5422427532e-001
 3.9877475766e+000	 2.8474320475e+000	-3.3942485704e-001
 3.9582396495e+000	 2.8883107307e+000	-3.2956378284e-001
 3.9282885886e+000	 2.9289159709e+000	-3.2449884228e-001
 3.8978981609e+000	 2.9692406314e+000	-3.2408793145e-001
 3.8670722856e+000	 3.0092776439e+000	-3.2819015202e-001
 3.8358150322e+000	 3.0490200129e+000	-3.3666689685e-001
 3.8041306191e+000	 3.0884608194e+000	-3.4938291874e-001
 4.1222028927e+000	 2.6950080354e+000	-4.0098054345e-001
 4.0943607521e+000	 2.7371216692e+000	-3.7354763505e-001
 4.0660596267e+000	 2.7789897646e+000	-3.5180689335e-001
 4.0373026787e+000	 2.8206049140e+000	-3.3568865274e-001
 4.0080932275e+000	 2.8619597620e+000	-3.2512015413e-001
 3.9784347498e+000	 2.9030470099e+000	-3.2002660733e-001
 3.9483308773e+000	 2.9438594197e+000	-3.2033225040e-001
 3.9177853965e+000	 2.9843898182e+000	-3.2596140231e-001
 3.8868022462e+000	 3.0246311013e+000	-3.3683950534e-001
 3.8553855170e+000	 3.0645762375e+000	-3.5289415364e-001
 3.8235394488e+000	 3.1042182725e+000	-3.7405610423e-001
 4.1431277805e+000	 2.7086882792e+000	-3.6338049865e-001
 4.1151443092e+000	 2.7510156878e+000	-3.4029860119e-001
 4.0866995233e+000	 2.7930963116e+000	-3.2324180171e-001
 4.0577966009e+000	 2.8349227054e+000	-3.1220578408e-001
 4.0284388784e+000	 2.8764874765e+000	-3.0718328148e-001
 3.9986298500e+000	 2.9177832891e+000	-3.0816508512e-001
 3.9683731661e+000	 2.9588028685e+000	-3.1514104912e-001
 3.9376726320e+000	 2.9995390051e+000	-3.2810108816e-001
 3.9065322069e+000	 3.0399845586e+000	-3.4703616420e-001
 3.8749560019e+000	 3.0801324620e+000	-3.7193925875e-001
 3.8429482785e+000	 3.1199757257e+000	-4.0280632734e-001
 4.1640526683e+000	 2.7223685231e+000	-3.1703794838e-001
 4.1359278663e+000	 2.7649097064e+000	-2.9962157420e-001
 4.1073394199e+000	 2.8072028587e+000	-2.8855850198e-001
 4.0782905231e+000	 2.8492404969e+000	-2.8390892990e-001
 4.0487845293e+000	 2.8910151910e+000	-2.8573025071e-001
 4.0188249503e+000	 2.9325195684e+000	-2.9407800760e-001
 3.9884154548e+000	 2.9737463174e+000	-3.0900684573e-001
 3.9575598675e+000	 3.0146881920e+000	-3.3057145566e-001
 3.9262621675e+000	 3.0553380160e+000	-3.5882750540e-001
 3.8945264867e+000	 3.0956886866e+000	-3.9383255741e-001
 3.8623571082e+000	 3.1357331788e+000	-4.2575536504e-001
 4.1849775561e+000	 2.7360487669e+000	-2.6213614828e-001
 4.1567114234e+000	 2.7788037250e+000	-2.5168289630e-001
 4.1279793165e+000	 2.8213094057e+000	-2.4790642902e-001
 4.0987844453e+000	 2.8635582883e+000	-2.5093063088e-001
 4.0691301802e+000	 2.9055429056e+000	-2.6087672851e-001
 4.0390200505e+000	 2.9472558476e+000	-2.7786419490e-001
 4.0084577435e+000	 2.9886897662e+000	-3.0201164830e-001
 3.9774471030e+000	 3.0298373789e+000	-3.3343774254e-001
 3.9459921281e+000	 3.0706914733e+000	-3.7226204527e-001
 3.9140969716e+000	 3.1112449111e+000	-4.1860590061e-001
 3.8817659379e+000	 3.1514906320e+000	-4.4992645172e-001
 3.6876776410e+000	 2.9939161004e+000	-3.0874654611e-001
 3.6565533075e+000	 3.0318505751e+000	-3.6585129918e-001
 3.6250234951e+000	 3.0694795422e+000	-4.1907307713e-001
 3.5930927152e+000	 3.1067965399e+000	-4.6948374334e-001
 3.5607656154e+000	 3.1437951957e+000	-4.9404964576e-001
 3.5280469781e+000	 3.1804692296e+000	-4.9798218074e-001
 3.4949417175e+000	 3.2168124582e+000	-5.0639809245e-001
 3.4614548776e+000	 3.2528187977e+000	-5.2009454716e-001
 3.4275916292e+000	 3.2884822674e+000	-5.3988724937e-001
 3.3933572679e+000	 3.3237969933e+000	-5.6660892554e-001
 3.3587572107e+000	 3.3587572106e+000	-6.0110774003e-001
 3.7070864707e+000	 3.0096735536e+000	-3.0124942904e-001
 3.6757983249e+000	 3.0478076834e+000	-3.6630702064e-001
 3.6441025662e+000	 3.0856346977e+000	-4.2698969078e-001
 3.6120037295e+000	 3.1231481007e+000	-4.8430613635e-001
 3.5795064871e+000	 3.1603414862e+000	-4.9467052278e-001
 3.5466156464e+000	 3.1972085414e+000	-5.0514349011e-001
 3.5133361476e+000	 3.2337430501e+000	-5.1885799004e-001
 3.4796730611e+000	 3.2699388967e+000	-5.3654084403e-001
 3.4456315852e+000	 3.3057900689e+000	-5.5893905163e-001
 3.4112170430e+000	 3.3412906616e+000	-5.8681833907e-001
 3.3764348802e+000	 3.3764348802e+000	-6.2096163724e-001
 3.7264953004e+000	 3.0254310067e+000	-2.9878454800e-001
 3.6950433423e+000	 3.0637647916e+000	-3.7026191816e-001
 3.6631816372e+000	 3.1017898531e+000	-4.3689147151e-001
 3.6309147437e+000	 3.1394996614e+000	-4.8110933143e-001
 3.5982473587e+000	 3.1768877767e+000	-4.9538673256e-001
 3.5651843147e+000	 3.2139478531e+000	-5.1103356822e-001
 3.5317305777e+000	 3.2506736420e+000	-5.2868399979e-001
 3.4978912447e+000	 3.2870589956e+000	-5.4899532188e-001
 3.4636715411e+000	 3.3230978703e+000	-5.7264665158e-001
 3.4290768181e+000	 3.3587843300e+000	-6.0033754113e-001
 3.3941125497e+000	 3.3941125497e+000	-6.3278651700e-001
 3.7459041300e+000	 3.0411884599e+000	-3.0099302677e-001
 3.7142883597e+000	 3.0797218999e+000	-3.7737630814e-001
 3.6822607082e+000	 3.1179450086e+000	-4.4845792833e-001
 3.6498257580e+000	 3.1558512221e+000	-4.7704771440e-001
 3.6169882304e+000	 3.1934340672e+000	-4.9631666405e-001
 3.5837529830e+000	 3.2306871648e+000	-5.1579107439e-001
 3.5501250078e+000	 3.2676042339e+000	-5.3603480575e-001
 3.5161094283e+000	 3.3041790945e+000	-5.5763643477e-001
 3.4817114971e+000	 3.3404056717e+000	-5.8120800981e-001
 3.4469365932e+000	 3.3762779984e+000	-6.0738372670e-001
 3.4117902192e+000	 3.4117902192e+000	-6.3681852815e-001
 3.7653129597e+000	 3.0569459131e+000	-3.1222378198e-001
 3.7335333771e+000	 3.0956790082e+000	-3.8731224576e-001
 3.7013397793e+000	 3.1341001641e+000	-4.5029345447e-001
 3.6687367723e+000	 3.1722027829e+000	-4.7464771601e-001
 3.6357291020e+000	 3.2099803577e+000	-4.9757913540e-001
 3.6023216513e+000	 3.2474264766e+000	-5.1955466686e-001
 3.5685194379e+000	 3.2845348258e+000	-5.4106866396e-001
 3.5343276118e+000	 3.3212991935e+000	-5.6264178554e-001
 3.4997514530e+000	 3.3577134731e+000	-5.8481981628e-001
 3.4647963683e+000	 3.3937716668e+000	-6.0817240483e-001
 3.4294678888e+000	 3.4294678888e+000	-6.3329172256e-001
 3.7847217894e+000	 3.0727033662e+000	-3.2877530942e-001
 3.7527783945e+000	 3.1116361165e+000	-4.0041249621e-001
 3.7204188503e+000	 3.1502553196e+000	-4.4621291389e-001
 3.6876477866e+000	 3.1885543436e+000	-4.7400892179e-001
 3.6544699737e+000	 3.2265266482e+000	-4.9929338298e-001
 3.6208903196e+000	 3.2641657883e+000	-5.2246300272e-001
 3.5869138680e+000	 3.3014654177e+000	-5.4394341340e-001
 3.5525457954e+000	 3.3384192924e+000	-5.6418814757e-001
 3.5177914090e+000	 3.3750212745e+000	-5.8367752293e-001
 3.4826561434e+000	 3.4112653352e+000	-6.0291744191e-001
 3.4471455583e+000	 3.4471455583e+000	-6.2243810891e-001
 3.8041306191e+000	 3.0884608194e+000	-3.4938291874e-001
 3.7720234120e+000	 3.1275932248e+000	-4.1725109224e-001
 3.7394979213e+000	 3.1664104751e+000	-4.4528556903e-001
 3.7065588009e+000	 3.2049059043e+000	-4.7523173646e-001
 3.6732108454e+000	 3.2430729387e+000	-5.0157905068e-001
 3.6394589879e+000	 3.2809051000e+000	-5.2465473802e-001
 3.6053082981e+000	 3.3183960095e+000	-5.4481648667e-001
 3.5707639790e+000	 3.3555393913e+000	-5.6245148602e-001
 3.5358313649e+000	 3.3923290759e+000	-5.7797537525e-001
 3.5005159185e+000	 3.4287590036e+000	-5.9183110350e-001
 3.4648232278e+000	 3.4648232278e+000	-6.0448770485e-001
 3.8235394488e+000	 3.1042182725e+000	-3.7405610423e-001
 3.7912684294e+000	 3.1435503331e+000	-4.2348755048e-001
 3.7585769923e+000	 3.1825656306e+000	-4.4954732764e-001
 3.7254698152e+000	 3.2212574651e+000	-4.7841736318e-001
 3.6919517170e+000	 3.2596192292e+000	-5.0455617960e-001
 3.6580276562e+000	 3.2976444118e+000	-5.2626852777e-001
 3.6237027281e+000	 3.3353266014e+000	-5.4384492026e-001
 3.5889821625e+000	 3.3726594903e+000	-5.5760697827e-001
 3.5538713209e+000	 3.4096368773e+000	-5.6790644286e-001
 3.5183756936e+000	 3.4462526720e+000	-5.7512409503e-001
 3.4825008974e+000	 3.4825008974e+000	-5.7966858746e-001
 3.8429482785e+000	 3.1199757257e+000	-4.0280632734e-001
 3.8105134468e+000	 3.1595074414e+000	-4.3484330700e-001
 3.7776560634e+000	 3.1987207860e+000	-4.5989204794e-001
 3.7443808295e+000	 3.2376090258e+000	-4.8366778338e-001
 3.7106925887e+000	 3.2761655197e+000	-5.0834519800e-001
 3.6765963245e+000	 3.3143837235e+000	-5.2744302595e-001
 3.6420971582e+000	 3.3522571933e+000	-5.4118536460e-001
 3.6072003461e+000	 3.3897795892e+000	-5.4982903386e-001
 3.5719112768e+000	 3.4269446787e+000	-5.5366264928e-001
 3.5362354687e+000	 3.4637463403e+000	-5.5300560118e-001
 3.5001785669e+000	 3.5001785669e+000	-5.4820694233e-001
 3.8623571082e+000	 3.1357331788e+000	-4.2575536504e-001
 3.8297584642e+000	 3.1754645497e+000	-4.5124009336e-001
 3.7967351344e+000	 3.2148759415e+000	-4.7403552035e-001
 3.7632918438e+000	 3.2539605865e+000	-4.9373547804e-001
 3.7294334603e+000	 3.2927118102e+000	-5.1306691157e-001
 3.6951649928e+000	 3.3311230352e+000	-5.2831688555e-001
 3.6604915883e+000	 3.3691877852e+000	-5.3699409372e-001
 3.6254185297e+000	 3.4068996881e+000	-5.3929131376e-001
 3.5899512327e+000	 3.4442524801e+000	-5.3543480067e-001
 3.5540952438e+000	 3.4812400087e+000	-5.2568332407e-001
 3.5178562364e+000	 3.5178562364e+000	-5.1032711104e-001
 3.8817659379e+000	 3.1514906320e+000	-4.4992645172e-001
 3.8490034816e+000	 3.1914216579e+000	-4.7260113193e-001
 3.8158142054e+000	 3.2310310970e+000	-4.9191921141e-001
 3.7822028581e+000	 3.2703121473e+000	-5.0739757961e-001
 3.7481743320e+000	 3.3092581007e+000	-5.1884249400e-001
 3.7137336611e+000	 3.3478623470e+000	-5.2902875860e-001
 3.6788860184e+000	 3.3861183771e+000	-5.3142701468e-001
 3.6436367132e+000	 3.4240197871e+000	-5.2616674908e-001
 3.6079911887e+000	 3.4615602815e+000	-5.1341261376e-001
 3.5719550189e+000	 3.4987336771e+000	-4.9336352033e-001
 3.5355339060e+000	 3.5355339059e+000	-4.6625163726e-001
 3.3587572107e+000	 3.3587572106e+000	-6.0110774003e-001
 3.3237969933e+000	 3.3933572679e+000	-5.7496318242e-001
 3.2884822674e+000	 3.4275916292e+000	-5.4670545920e-001
 3.2528187977e+000	 3.4614548776e+000	-5.1687082028e-001
 3.2168124582e+000	 3.4949417175e+000	-4.8601566781e-001
 3.1804692296e+000	 3.5280469781e+000	-4.5471505265e-001
 3.1437951957e+000	 3.5607656154e+000	-4.2356111232e-001
 3.1067965399e+000	 3.5930927152e+000	-4.1549732674e-001
 3.0694795422e+000	 3.6250234951e+000	-4.3146257497e-001
 3.0318505751e+000	 3.6565533075e+000	-4.4781817085e-001
 2.9939161004e+000	 3.6876776410e+000	-4.6411147853e-001
 3.3764348802e+000	 3.3764348802e+000	-6.2096163724e-001
 3.3412906616e+000	 3.4112170430e+000	-5.8930491010e-001
 3.3057900689e+000	 3.4456315852e+000	-5.5649985566e-001
 3.2699388967e+000	 3.4796730611e+000	-5.2317861855e-001
 3.2337430501e+000	 3.5133361476e+000	-4.8999282052e-001
 3.1972085414e+000	 3.5466156464e+000	-4.5761194160e-001
 3.1603414862e+000	 3.5795064871e+000	-4.2672164335e-001
 3.1231481007e+000	 3.6120037295e+000	-4.0031772033e-001
 3.0856346977e+000	 3.6441025662e+000	-4.2023448254e-001
 3.0478076834e+000	 3.6757983249e+000	-4.4188493428e-001
 3.0096735536e+000	 3.7070864707e+000	-4.6488472124e-001
 3.3941125497e+000	 3.3941125497e+000	-6.3278651700e-001
 3.3587843300e+000	 3.4290768181e+000	-5.9686370370e-001
 3.3230978703e+000	 3.4636715411e+000	-5.6073955781e-001
 3.2870589956e+000	 3.4978912447e+000	-5.2514172706e-001
 3.2506736420e+000	 3.5317305777e+000	-4.9081667898e-001
 3.2139478531e+000	 3.5651843147e+000	-4.5852796684e-001
 3.1768877767e+000	 3.5982473587e+000	-4.2905443829e-001
 3.1394996614e+000	 3.6309147437e+000	-4.0318839140e-001
 3.1017898531e+000	 3.6631816372e+000	-4.1012731130e-001
 3.0637647916e+000	 3.6950433423e+000	-4.3822631653e-001
 3.0254310067e+000	 3.7264953004e+000	-4.6905680549e-001
 3.4117902192e+000	 3.4117902192e+000	-6.3681852815e-001
 3.3762779984e+000	 3.4469365932e+000	-5.9785432241e-001
 3.3404056717e+000	 3.4817114971e+000	-5.5961805365e-001
 3.3041790945e+000	 3.5161094283e+000	-5.2293249235e-001
 3.2676042339e+000	 3.5501250078e+000	-4.8863858918e-001
 3.2306871648e+000	 3.5837529830e+000	-4.5759362585e-001
 3.1934340672e+000	 3.6169882304e+000	-4.3066930923e-001
 3.1558512221e+000	 3.6498257580e+000	-4.0874981360e-001
 3.1179450086e+000	 3.6822607082e+000	-4.0136441875e-001
 3.0797218999e+000	 3.7142883597e+000	-4.3704645083e-001
 3.0411884599e+000	 3.7459041300e+000	-4.7681275182e-001
 3.4294678888e+000	 3.4294678888e+000	-6.3329172256e-001
 3.3937716668e+000	 3.4647963683e+000	-5.9248984777e-001
 3.3577134731e+000	 3.4997514530e+000	-5.5332756895e-001
 3.3212991935e+000	 3.5343276118e+000	-5.1672241003e-001
 3.2845348258e+000	 3.5685194379e+000	-4.8360945318e-001
 3.2474264766e+000	 3.6023216513e+000	-4.5493937472e-001
 3.2099803577e+000	 3.6357291020e+000	-4.3167642469e-001
 3.1722027829e+000	 3.6687367723e+000	-4.1479635551e-001
 3.1341001641e+000	 3.7013397793e+000	-4.0528430486e-001
 3.0956790082e+000	 3.7335333771e+000	-4.3855099050e-001
 3.0569459131e+000	 3.7653129597e+000	-4.5597971732e-001
 3.4471455583e+000	 3.4471455583e+000	-6.2243810891e-001
 3.4112653352e+000	 3.4826561434e+000	-5.8098172671e-001
 3.3750212745e+000	 3.5177914090e+000	-5.4205909960e-001
 3.3384192924e+000	 3.5525457954e+000	-5.0668214658e-001
 3.3014654177e+000	 3.5869138680e+000	-4.7587974053e-001
 3.2641657883e+000	 3.6208903196e+000	-4.5069562921e-001
 3.2265266482e+000	 3.6544699737e+000	-4.3218630056e-001
 3.1885543436e+000	 3.6876477866e+000	-4.2141879756e-001
 3.1502553196e+000	 3.7204188503e+000	-4.1946848847e-001
 3.1116361165e+000	 3.7527783945e+000	-4.3801911753e-001
 3.0727033662e+000	 3.7847217894e+000	-4.3463987578e-001
 3.4648232278e+000	 3.4648232278e+000	-6.0448770485e-001
 3.4287590036e+000	 3.5005159185e+000	-5.6353981320e-001
 3.3923290759e+000	 3.5358313649e+000	-5.2600244298e-001
 3.3555393913e+000	 3.5707639790e+000	-4.9298156054e-001
 3.3183960095e+000	 3.6053082981e+000	-4.6559949925e-001
 3.2809051000e+000	 3.6394589879e+000	-4.4499276582e-001
 3.2430729387e+000	 3.6732108454e+000	-4.3230979117e-001
 3.2049059043e+000	 3.7065588009e+000	-4.2870863180e-001
 3.1664104751e+000	 3.7394979213e+000	-4.3535462715e-001
 3.1275932248e+000	 3.7720234120e+000	-4.1682747515e-001
 3.0884608194e+000	 3.8041306191e+000	-4.2187191708e-001
 3.4825008974e+000	 3.4825008974e+000	-5.7966858746e-001
 3.4462526720e+000	 3.5183756936e+000	-5.4037240872e-001
 3.4096368773e+000	 3.5538713209e+000	-5.0534622843e-001
 3.3726594903e+000	 3.5889821625e+000	-4.7578972300e-001
 3.3353266014e+000	 3.6237027281e+000	-4.5291836661e-001
 3.2976444118e+000	 3.6580276562e+000	-4.3796112272e-001
 3.2596192292e+000	 3.6919517170e+000	-4.3215808076e-001
 3.2212574651e+000	 3.7254698152e+000	-4.3675804384e-001
 3.1825656306e+000	 3.7585769923e+000	-4.4147855002e-001
 3.1435503331e+000	 3.7912684294e+000	-4.1811878787e-001
 3.1042182725e+000	 3.8235394488e+000	-4.1758683101e-001
 3.5001785669e+000	 3.5001785669e+000	-5.4820694233e-001
 3.4637463403e+000	 3.5362354687e+000	-5.1168630146e-001
 3.4269446787e+000	 3.5719112768e+000	-4.8027794665e-001
 3.3897795892e+000	 3.6072003461e+000	-4.5527493748e-001
 3.3522571933e+000	 3.6420971582e+000	-4.3798557943e-001
 3.3143837235e+000	 3.6765963245e+000	-4.2973100078e-001
 3.2761655197e+000	 3.7106925887e+000	-4.3184267511e-001
 3.2376090258e+000	 3.7443808295e+000	-4.4565989531e-001
 3.1987207860e+000	 3.7776560634e+000	-4.3806982009e-001
 3.1595074414e+000	 3.8105134468e+000	-4.2619329779e-001
 3.1199757257e+000	 3.8429482785e+000	-4.2169731889e-001
 3.5178562364e+000	 3.5178562364e+000	-5.1032711104e-001
 3.4812400087e+000	 3.5540952438e+000	-4.7768680433e-001
 3.4442524801e+000	 3.5899512327e+000	-4.5098397841e-001
 3.4068996881e+000	 3.6254185297e+000	-4.3160475922e-001
 3.3691877852e+000	 3.6604915883e+000	-4.2094998417e-001
 3.3311230352e+000	 3.6951649928e+000	-4.2043266448e-001
 3.2927118102e+000	 3.7294334603e+000	-4.3147539345e-001
 3.2539605865e+000	 3.7632918438e+000	-4.4266178105e-001
 3.2148759415e+000	 3.7967351344e+000	-4.4018857923e-001
 3.1754645497e+000	 3.8297584642e+000	-4.4088429384e-001
 3.1357331788e+000	 3.8623571082e+000	-4.4523675508e-001
 3.5355339060e+000	 3.5355339059e+000	-4.6625163726e-001
 3.4987336771e+000	 3.5719550189e+000	-4.3857779186e-001
 3.4615602815e+000	 3.6079911887e+000	-4.1764962222e-001
 3.4240197871e+000	 3.6436367132e+000	-4.0494601387e-001
 3.3861183771e+000	 3.6788860184e+000	-4.0196004669e-001
 3.3478623470e+000	 3.7137336611e+000	-4.1019634281e-001
 3.3092581007e+000	 3.7481743320e+000	-4.3116836068e-001
 3.2703121473e+000	 3.7822028581e+000	-4.3802464053e-001
 3.2310310970e+000	 3.8158142054e+000	-4.4768507341e-001
 3.1914216579e+000	 3.8490034816e+000	-4.6202636824e-001
 3.1514906320e+000	 3.8817659379e+000	-4.8159978173e-001
 2.9939161004e+000	 3.6876776410e+000	-4.6411147853e-001
 2.9556826656e+000	 3.7183921230e+000	-5.0437038534e-001
 2.9171568997e+000	 3.7486925218e+000	-5.5816321009e-001
 2.8783455100e+000	 3.7785747479e+000	-5.3011233303e-001
 2.8392552779e+000	 3.8080348563e+000	-4.9961901658e-001
 2.7998930552e+000	 3.8370690480e+000	-4.7135741611e-001
 2.7602657603e+000	 3.8656736713e+000	-4.4592730430e-001
 2.7203803739e+000	 3.8938452231e+000	-4.2392166622e-001
 2.6802439354e+000	 3.9215803507e+000	-4.0592589096e-001
 2.6398635388e+000	 3.9488758523e+000	-3.9251698415e-001
 2.5992463286e+000	 3.9757286783e+000	-3.8426280285e-001
 3.0096735536e+000	 3.7070864707e+000	-4.6488472124e-001
 2.9712388901e+000	 3.7379626079e+000	-5.1905745865e-001
 2.9325103571e+000	 3.7684224824e+000	-5.3062984835e-001
 2.8934946969e+000	 3.7984619834e+000	-5.0885662057e-001
 2.8541987267e+000	 3.8280771451e+000	-4.8722899595e-001
 2.8146293345e+000	 3.8572641483e+000	-4.6630918830e-001
 2.7747934748e+000	 3.8860193222e+000	-4.4665503499e-001
 2.7346981653e+000	 3.9143391453e+000	-4.2881920167e-001
 2.6943504824e+000	 3.9422202473e+000	-4.1334840411e-001
 2.6537575574e+000	 3.9696594094e+000	-4.0078264868e-001
 2.6129265724e+000	 3.9966535661e+000	-3.9165449288e-001
 3.0254310067e+000	 3.7264953004e+000	-4.6905680549e-001
 2.9867951147e+000	 3.7575330927e+000	-5.1661941239e-001
 2.9478638144e+000	 3.7881524430e+000	-5.0613588929e-001
 2.9086438838e+000	 3.8183492189e+000	-4.9381175359e-001
 2.8691421756e+000	 3.8481194338e+000	-4.8016817293e-001
 2.8293656137e+000	 3.8774592485e+000	-4.6572428617e-001
 2.7893211894e+000	 3.9063649731e+000	-4.5099642683e-001
 2.7490159568e+000	 3.9348330675e+000	-4.3649735985e-001
 2.7084570295e+000	 3.9628601438e+000	-4.2273553329e-001
 2.6676515760e+000	 3.9904429665e+000	-4.1021434643e-001
 2.6266068162e+000	 4.0175784539e+000	-3.9943143560e-001
 3.0411884599e+000	 3.7459041300e+000	-4.7681275182e-001
 3.0023513392e+000	 3.7771035776e+000	-4.8919297103e-001
 2.9632172718e+000	 3.8078824037e+000	-4.8868057368e-001
 2.9237930707e+000	 3.8382364544e+000	-4.8492177326e-001
 2.8840856244e+000	 3.8681617225e+000	-4.7839357589e-001
 2.8441018930e+000	 3.8976543488e+000	-4.6957248392e-001
 2.8038489039e+000	 3.9267106240e+000	-4.5893375323e-001
 2.7633337482e+000	 3.9553269898e+000	-4.4695066168e-001
 2.7225635765e+000	 3.9835000404e+000	-4.3409379036e-001
 2.6815455947e+000	 4.0112265236e+000	-4.2083031889e-001
 2.6402870601e+000	 4.0385033416e+000	-4.0762333632e-001
 3.0569459131e+000	 3.7653129597e+000	-4.5597971732e-001
 3.0179075638e+000	 3.7966740624e+000	-4.6962254938e-001
 2.9785707292e+000	 3.8276123643e+000	-4.7819604519e-001
 2.9389422576e+000	 3.8581236899e+000	-4.8213176781e-001
 2.8990290732e+000	 3.8882040112e+000	-4.8186300666e-001
 2.8588381722e+000	 3.9178494490e+000	-4.7782406071e-001
 2.8183766184e+000	 3.9470562748e+000	-4.7044952929e-001
 2.7776515397e+000	 3.9758209120e+000	-4.6017361189e-001
 2.7366701235e+000	 4.0041399370e+000	-4.4742941852e-001
 2.6954396133e+000	 4.0320100807e+000	-4.3264829200e-001
 2.6539673039e+000	 4.0594282294e+000	-4.1625914357e-001
 3.0727033662e+000	 3.7847217894e+000	-4.3463987578e-001
 3.0334637884e+000	 3.8162445473e+000	-4.5782868892e-001
 2.9939241865e+000	 3.8473423250e+000	-4.7461573916e-001
 2.9540914445e+000	 3.8780109254e+000	-4.8538784568e-001
 2.9139725220e+000	 3.9082462999e+000	-4.9053502066e-001
 2.8735744514e+000	 3.9380445493e+000	-4.9044978768e-001
 2.8329043329e+000	 3.9674019257e+000	-4.8552650560e-001
 2.7919693311e+000	 3.9963148342e+000	-4.7616069937e-001
 2.7507766705e+000	 4.0247798336e+000	-4.6274839918e-001
 2.7093336319e+000	 4.0527936378e+000	-4.4568548940e-001
 2.6676475477e+000	 4.0803531172e+000	-4.2536706853e-001
 3.0884608194e+000	 3.8041306191e+000	-4.2187191708e-001
 3.0490200129e+000	 3.8358150322e+000	-4.5373345903e-001
 3.0092776439e+000	 3.8670722856e+000	-4.7787434966e-001
 2.9692406314e+000	 3.8978981609e+000	-4.9463710949e-001
 2.9289159709e+000	 3.9282885886e+000	-5.0436890773e-001
 2.8883107307e+000	 3.9582396495e+000	-5.0742091546e-001
 2.8474320475e+000	 3.9877475766e+000	-5.0414766226e-001
 2.8062871225e+000	 4.0168087564e+000	-4.9490639765e-001
 2.7648832176e+000	 4.0454197301e+000	-4.8005645868e-001
 2.7232276505e+000	 4.0735771949e+000	-4.5995864516e-001
 2.6813277916e+000	 4.1012780050e+000	-4.3497460380e-001
 3.1042182725e+000	 3.8235394488e+000	-4.1758683101e-001
 3.0645762375e+000	 3.8553855170e+000	-4.5726041823e-001
 3.0246311013e+000	 3.8868022462e+000	-4.8790779754e-001
 2.9843898182e+000	 3.9177853965e+000	-5.0982763082e-001
 2.9438594197e+000	 3.9483308773e+000	-5.2332467343e-001
 2.9030470099e+000	 3.9784347498e+000	-5.2870916194e-001
 2.8619597620e+000	 4.0080932275e+000	-5.2629620304e-001
 2.8206049140e+000	 4.0373026787e+000	-5.1640516525e-001
 2.7789897646e+000	 4.0660596267e+000	-4.9935907471e-001
 2.7371216692e+000	 4.0943607521e+000	-4.7548401631e-001
 2.6950080354e+000	 4.1222028927e+000	-4.4510854167e-001
 3.1199757257e+000	 3.8429482785e+000	-4.2169731889e-001
 3.0801324620e+000	 3.8749560019e+000	-4.6833457654e-001
 3.0399845586e+000	 3.9065322069e+000	-5.0465319948e-001
 2.9995390051e+000	 3.9376726320e+000	-5.3090842572e-001
 2.9588028685e+000	 3.9683731661e+000	-5.4736302101e-001
 2.9177832891e+000	 3.9986298500e+000	-5.5428670050e-001
 2.8764874765e+000	 4.0284388784e+000	-5.5195554969e-001
 2.8349227054e+000	 4.0577966009e+000	-5.4065144606e-001
 2.7930963116e+000	 4.0866995233e+000	-5.2066148263e-001
 2.7510156878e+000	 4.1151443092e+000	-4.9227739480e-001
 2.7086882792e+000	 4.1431277805e+000	-4.5579499178e-001
 3.1357331788e+000	 3.8623571082e+000	-4.4523675508e-001
 3.0956886866e+000	 3.8945264867e+000	-4.8688235906e-001
 3.0553380160e+000	 3.9262621675e+000	-5.2804883788e-001
 3.0146881920e+000	 3.9575598675e+000	-5.5782943102e-001
 2.9737463174e+000	 3.9884154548e+000	-5.7644533387e-001
 2.9325195684e+000	 4.0188249503e+000	-5.8412614856e-001
 2.8910151910e+000	 4.0487845293e+000	-5.8110933654e-001
 2.8492404969e+000	 4.0782905231e+000	-5.6763966972e-001
 2.8072028587e+000	 4.1073394199e+000	-5.4396868156e-001
 2.7649097064e+000	 4.1359278663e+000	-5.1035411924e-001
 2.7223685231e+000	 4.1640526683e+000	-4.6705939830e-001
 3.1514906320e+000	 3.8817659379e+000	-4.8159978173e-001
 3.1112449111e+000	 3.9140969716e+000	-5.1283157055e-001
 3.0706914733e+000	 3.9459921281e+000	-5.5803413180e-001
 3.0298373789e+000	 3.9774471030e+000	-5.9054148128e-001
 2.9886897662e+000	 4.0084577435e+000	-6.1053365856e-001
 2.9472558476e+000	 4.0390200505e+000	-6.1820055650e-001
 2.9055429056e+000	 4.0691301802e+000	-6.1374140513e-001
 2.8635582883e+000	 4.0987844453e+000	-5.9736425196e-001
 2.8213094057e+000	 4.1279793165e+000	-5.6928544025e-001
 2.7788037250e+000	 4.1567114234e+000	-5.2972908620e-001
 2.7360487669e+000	 4.1849775561e+000	-4.7892655654e-001
 2.5992463286e+000	 3.9757286783e+000	-3.8426280285e-001
 2.5583994957e+000	 4.0021359322e+000	-4.2078835203e-001
 2.5173302738e+000	 4.0280948713e+000	-4.7170931434e-001
 2.4760459347e+000	 4.0536029072e+000	-4.6654792667e-001
 2.4345537848e+000	 4.0786576062e+000	-4.2560387070e-001
 2.3928611605e+000	 4.1032566903e+000	-3.9953558612e-001
 2.3509754247e+000	 4.1273980366e+000	-3.8749656263e-001
 2.3089039626e+000	 4.1510796778e+000	-3.8861242136e-001
 2.2666541773e+000	 4.1742998024e+000	-4.0198338875e-001
 2.2242334862e+000	 4.1970567543e+000	-4.2668680908e-001
 2.1816493170e+000	 4.2193490324e+000	-4.6177968815e-001
 2.6129265724e+000	 3.9966535661e+000	-3.9165449288e-001
 2.5718647562e+000	 4.0231998056e+000	-4.1818496071e-001
 2.5305793805e+000	 4.0492953706e+000	-4.5873240732e-001
 2.4890777554e+000	 4.0749376593e+000	-4.8242651955e-001
 2.4473672257e+000	 4.1001242252e+000	-4.3433838658e-001
 2.4054551666e+000	 4.1248527781e+000	-4.0103119272e-001
 2.3633489796e+000	 4.1491211841e+000	-3.8166036681e-001
 2.3210560887e+000	 4.1729274656e+000	-3.7535296205e-001
 2.2785839361e+000	 4.1962698014e+000	-3.8121015534e-001
 2.2359399782e+000	 4.2191465267e+000	-3.9830978614e-001
 2.1931316818e+000	 4.2415561326e+000	-4.2570892736e-001
 2.6266068162e+000	 4.0175784539e+000	-3.9943143560e-001
 2.5853300167e+000	 4.0442636789e+000	-4.1625488915e-001
 2.5438284872e+000	 4.0704958700e+000	-4.4671989571e-001
 2.5021095762e+000	 4.0962724114e+000	-4.9086118833e-001
 2.4601806667e+000	 4.1215908442e+000	-4.4186809036e-001
 2.4180491727e+000	 4.1464488660e+000	-4.0185885489e-001
 2.3757225345e+000	 4.1708443317e+000	-3.7570266305e-001
 2.3332082148e+000	 4.1947752533e+000	-3.6252748100e-001
 2.2905136949e+000	 4.2182398003e+000	-3.6143490797e-001
 2.2476464703e+000	 4.2412362991e+000	-3.7150274222e-001
 2.2046140466e+000	 4.2637632328e+000	-3.9178757998e-001
 2.6402870601e+000	 4.0385033416e+000	-4.0762333632e-001
 2.5987952773e+000	 4.0653275522e+000	-4.1502270448e-001
 2.5570775939e+000	 4.0916963693e+000	-4.3569117519e-001
 2.5151413969e+000	 4.1176071636e+000	-4.6968908291e-001
 2.4729941077e+000	 4.1430574632e+000	-4.4800598217e-001
 2.4306431788e+000	 4.1680449538e+000	-4.0182925067e-001
 2.3880960893e+000	 4.1925674792e+000	-3.6943186416e-001
 2.3453603409e+000	 4.2166230411e+000	-3.4994218236e-001
 2.3024434537e+000	 4.2402097993e+000	-3.4246169821e-001
 2.2593529623e+000	 4.2633260715e+000	-3.4606763195e-001
 2.2160964114e+000	 4.2859703329e+000	-3.5981555879e-001
 2.6539673039e+000	 4.0594282294e+000	-4.1625914357e-001
 2.6122605378e+000	 4.0863914255e+000	-4.1451231832e-001
 2.5703267006e+000	 4.1128968686e+000	-4.2566508809e-001
 2.5281732176e+000	 4.1389419157e+000	-4.4980329412e-001
 2.4858075487e+000	 4.1645240822e+000	-4.5256471552e-001
 2.4432371849e+000	 4.1896410417e+000	-4.0075281597e-001
 2.4004696442e+000	 4.2142906268e+000	-3.6265624604e-001
 2.3575124671e+000	 4.2384708289e+000	-3.3740323911e-001
 2.3143732126e+000	 4.2621797983e+000	-3.2409465285e-001
 2.2710594543e+000	 4.2854158438e+000	-3.2180659206e-001
 2.2275787763e+000	 4.3081774331e+000	-3.2959306605e-001
 2.6676475477e+000	 4.0803531172e+000	-4.2536706853e-001
 2.6257257983e+000	 4.1074552989e+000	-4.1474700362e-001
 2.5835758073e+000	 4.1340973679e+000	-4.1665993757e-001
 2.5412050383e+000	 4.1602766679e+000	-4.3121712652e-001
 2.4986209896e+000	 4.1859907011e+000	-4.5535660623e-001
 2.4558311910e+000	 4.2112371295e+000	-3.9843975085e-001
 2.4128431991e+000	 4.2360137743e+000	-3.5518395115e-001
 2.3696645932e+000	 4.2603186167e+000	-3.2471679392e-001
 2.3263029714e+000	 4.2841497972e+000	-3.0613797201e-001
 2.2827659464e+000	 4.3075056162e+000	-2.9852193679e-001
 2.2390611411e+000	 4.3303845333e+000	-3.0092058608e-001
 2.6813277916e+000	 4.1012780050e+000	-4.3497460380e-001
 2.6391910588e+000	 4.1285191722e+000	-4.1574941090e-001
 2.5968249141e+000	 4.1552978673e+000	-4.0869350140e-001
 2.5542368590e+000	 4.1816114200e+000	-4.1394345710e-001
 2.5114344306e+000	 4.2074573201e+000	-4.3162075501e-001
 2.4684251971e+000	 4.2328332174e+000	-3.9470002547e-001
 2.4252167539e+000	 4.2577369219e+000	-3.4682299198e-001
 2.3818167193e+000	 4.2821664045e+000	-3.1168895993e-001
 2.3382327302e+000	 4.3061197962e+000	-2.8839592724e-001
 2.2944724384e+000	 4.3295953886e+000	-2.7601615327e-001
 2.2505435059e+000	 4.3525916335e+000	-2.7359887808e-001
 2.6950080354e+000	 4.1222028927e+000	-4.4510854167e-001
 2.6526563193e+000	 4.1495830455e+000	-4.1754158409e-001
 2.6100740208e+000	 4.1764983666e+000	-4.0178304530e-001
 2.5672686797e+000	 4.2029461722e+000	-3.9799474606e-001
 2.5242478716e+000	 4.2289239391e+000	-4.0632339572e-001
 2.4810192032e+000	 4.2544293052e+000	-3.8934338598e-001
 2.4375903088e+000	 4.2794600695e+000	-3.3738125428e-001
 2.3939688454e+000	 4.3040141922e+000	-2.9812582145e-001
 2.3501624891e+000	 4.3280897951e+000	-2.7067285973e-001
 2.3061789304e+000	 4.3516851610e+000	-2.5409189719e-001
 2.2620258708e+000	 4.3747987336e+000	-2.4742896914e-001
 2.7086882792e+000	 4.1431277805e+000	-4.5579499178e-001
 2.6661215798e+000	 4.1706469189e+000	-4.2014497585e-001
 2.6233231275e+000	 4.1976988659e+000	-3.9594533582e-001
 2.5803005004e+000	 4.2242809243e+000	-3.8338304736e-001
 2.5370613125e+000	 4.2503905581e+000	-3.8262996567e-001
 2.4936132094e+000	 4.2760253930e+000	-3.8217936014e-001
 2.4499638637e+000	 4.3011832170e+000	-3.2666650030e-001
 2.4061209716e+000	 4.3258619800e+000	-2.8383343471e-001
 2.3620922479e+000	 4.3500597941e+000	-2.5277317853e-001
 2.3178854225e+000	 4.3737749334e+000	-2.3255198852e-001
 2.2735082356e+000	 4.3970058338e+000	-2.6314868377e-001
 2.7223685231e+000	 4.1640526683e+000	-4.6705939830e-001
 2.6795868403e+000	 4.1917107922e+000	-4.2358046240e-001
 2.6365722342e+000	 4.2188993652e+000	-3.9119665294e-001
 2.5933323211e+000	 4.2456156764e+000	-3.7012001894e-001
 2.5498747535e+000	 4.2718571771e+000	-3.6054747750e-001
 2.5062072155e+000	 4.2976214809e+000	-3.6266052954e-001
 2.4623374186e+000	 4.3229063646e+000	-3.1448637190e-001
 2.4182730977e+000	 4.3477097678e+000	-2.6861782858e-001
 2.3740220067e+000	 4.3720297931e+000	-2.3450135886e-001
 2.3295919145e+000	 4.3958647058e+000	-2.4614308260e-001
 2.2849906004e+000	 4.4192129340e+000	-2.7627910512e-001
 2.7360487669e+000	 4.1849775561e+000	-4.7892655654e-001
 2.6930521008e+000	 4.2127746655e+000	-4.2786835793e-001
 2.6498213409e+000	 4.2400998645e+000	-3.8755280220e-001
 2.6063641418e+000	 4.2669504286e+000	-3.5821693261e-001
 2.5626881945e+000	 4.2933237960e+000	-3.4008264665e-001
 2.5188012216e+000	 4.3192175687e+000	-3.3335638369e-001
 2.4747109734e+000	 4.3446295122e+000	-3.0064839353e-001
 2.4304252238e+000	 4.3695575556e+000	-2.5228500524e-001
 2.3859517656e+000	 4.3939997920e+000	-2.4491556834e-001
 2.3412984066e+000	 4.4179544782e+000	-2.5903800573e-001
 2.2964729653e+000	 4.4414200342e+000	-2.8665528843e-001
 2.1816493170e+000	 4.2193490324e+000	-4.6177968815e-001
 2.1389091034e+000	 4.2411752908e+000	-4.4798877896e-001
 2.0960202818e+000	 4.2625343375e+000	-4.2626170663e-001
 2.0529902865e+000	 4.2834251345e+000	-3.9610829411e-001
 2.0098265468e+000	 4.3038467969e+000	-3.5703795653e-001
 1.9665364825e+000	 4.3237985918e+000	-3.0856166831e-001
 1.9231275005e+000	 4.3432799376e+000	-2.5019391539e-001
 1.8796069909e+000	 4.3622904030e+000	-1.8145462704e-001
 1.8359823234e+000	 4.3808297054e+000	-1.5384607370e-001
 1.7922608439e+000	 4.3988977105e+000	-1.9048759480e-001
 1.7484498704e+000	 4.4164944300e+000	-2.2776708558e-001
 2.1931316818e+000	 4.2415561326e+000	-4.2570892736e-001
 2.1501665198e+000	 4.2634972660e+000	-4.1044129968e-001
 2.1070519675e+000	 4.2849687287e+000	-3.8655050261e-001
 2.0637954986e+000	 4.3059694774e+000	-3.5352830865e-001
 2.0204045813e+000	 4.3264986222e+000	-3.1086654628e-001
 1.9768866745e+000	 4.3465554265e+000	-2.5805910426e-001
 1.9332492242e+000	 4.3661393057e+000	-1.9460392022e-001
 1.8894996592e+000	 4.3852498261e+000	-1.6694624518e-001
 1.8456453883e+000	 4.4038867039e+000	-1.8888601195e-001
 1.8016937957e+000	 4.4220498037e+000	-2.1706828709e-001
 1.7576522382e+000	 4.4397391376e+000	-2.4538024724e-001
 2.2046140466e+000	 4.2637632328e+000	-3.9178757998e-001
 2.1614239361e+000	 4.2858192412e+000	-3.7526153421e-001
 2.1180836532e+000	 4.3074031200e+000	-3.4943828564e-001
 2.0746007106e+000	 4.3285138202e+000	-3.1379112920e-001
 2.0309826157e+000	 4.3491504474e+000	-2.6779387029e-001
 1.9872368665e+000	 4.3693122612e+000	-2.1092286706e-001
 1.9433709479e+000	 4.3889986738e+000	-1.9919787496e-001
 1.8993923276e+000	 4.4082092493e+000	-2.0739560362e-001
 1.8553084531e+000	 4.4269437023e+000	-2.2041594817e-001
 1.8111267475e+000	 4.4452018969e+000	-2.4023814810e-001
 1.7668546059e+000	 4.4629838451e+000	-2.5969188281e-001
 2.2160964114e+000	 4.2859703329e+000	-3.5981555879e-001
 2.1726813525e+000	 4.3081412164e+000	-3.4225312855e-001
 2.1291153389e+000	 4.3298375112e+000	-3.1473238561e-001
 2.0854059226e+000	 4.3510581630e+000	-2.7670771737e-001
 2.0415606502e+000	 4.3718022727e+000	-2.2763446696e-001
 1.9975870585e+000	 4.3920690959e+000	-2.2754407776e-001
 1.9534926715e+000	 4.4118580419e+000	-2.3572603072e-001
 1.9092849960e+000	 4.4311686725e+000	-2.4197404258e-001
 1.8649715180e+000	 4.4500007008e+000	-2.4838546639e-001
 1.8205596993e+000	 4.4683539901e+000	-2.5994700992e-001
 1.7760569736e+000	 4.4862285526e+000	-2.7065197439e-001
 2.2275787763e+000	 4.3081774331e+000	-3.2959306605e-001
 2.1839387688e+000	 4.3304631916e+000	-3.1122000803e-001
 2.1401470246e+000	 4.3522719025e+000	-2.8224040402e-001
 2.0962111347e+000	 4.3736025058e+000	-2.4208930119e-001
 2.0521386846e+000	 4.3944540979e+000	-2.5069213074e-001
 2.0079372506e+000	 4.4148259306e+000	-2.6016473725e-001
 1.9636143952e+000	 4.4347174100e+000	-2.6679300985e-001
 1.9191776644e+000	 4.4541280956e+000	-2.7087697796e-001
 1.8746345829e+000	 4.4730576992e+000	-2.7274442792e-001
 1.8299926511e+000	 4.4915060834e+000	-2.7614499132e-001
 1.7852593414e+000	 4.5094732602e+000	-2.7821080255e-001
 2.2390611411e+000	 4.3303845333e+000	-3.0092058608e-001
 2.1951961851e+000	 4.3527851668e+000	-2.8196637010e-001
 2.1511787103e+000	 4.3747062937e+000	-2.5177020704e-001
 2.1070163467e+000	 4.3961468486e+000	-2.6728368197e-001
 2.0627167191e+000	 4.4171059232e+000	-2.7941666058e-001
 2.0182874426e+000	 4.4375827653e+000	-2.8774749687e-001
 1.9737361189e+000	 4.4575767781e+000	-2.9259944325e-001
 1.9290703327e+000	 4.4770875188e+000	-2.9430008892e-001
 1.8842976477e+000	 4.4961146977e+000	-2.9317890714e-001
 1.8394256029e+000	 4.5146581766e+000	-2.8878249041e-001
 1.7944617091e+000	 4.5327179677e+000	-2.8231893874e-001
 2.2505435059e+000	 4.3525916335e+000	-2.7359887808e-001
 2.2064536015e+000	 4.3751071420e+000	-2.5453310664e-001
 2.1622103960e+000	 4.3971406850e+000	-2.7589449906e-001
 2.1178215587e+000	 4.4186911914e+000	-2.9211889874e-001
 2.0732947536e+000	 4.4397577484e+000	-3.0353908670e-001
 2.0286376346e+000	 4.4603396000e+000	-3.1049800851e-001
 1.9838578426e+000	 4.4804361462e+000	-3.1334621401e-001
 1.9389630011e+000	 4.5000469420e+000	-3.1243931124e-001
 1.8939607126e+000	 4.5191716961e+000	-3.0813544216e-001
 1.8488585547e+000	 4.5378102698e+000	-2.9781017752e-001
 1.8036640769e+000	 4.5559626752e+000	-2.8292723780e-001
 2.2620258708e+000	 4.3747987336e+000	-2.4742896914e-001
 2.2177110178e+000	 4.3974291173e+000	-2.7503458683e-001
 2.1732420817e+000	 4.4195750762e+000	-2.9684050002e-001
 2.1286267708e+000	 4.4412355342e+000	-3.1279930601e-001
 2.0838727880e+000	 4.4624095737e+000	-3.2326989030e-001
 2.0389878266e+000	 4.4830964347e+000	-3.2862216788e-001
 1.9939795663e+000	 4.5032955143e+000	-3.2923445099e-001
 1.9488556695e+000	 4.5230063652e+000	-3.2549083071e-001
 1.9036237774e+000	 4.5422286946e+000	-3.1777858027e-001
 1.8582915065e+000	 4.5609623630e+000	-3.0317898826e-001
 1.8128664446e+000	 4.5792073827e+000	-2.7998683084e-001
 2.2735082356e+000	 4.3970058338e+000	-2.6314868377e-001
 2.2289684341e+000	 4.4197510925e+000	-2.9208262707e-001
 2.1842737674e+000	 4.4420094675e+000	-3.1408945630e-001
 2.1394319828e+000	 4.4637798771e+000	-3.2954002448e-001
 2.0944508225e+000	 4.4850613989e+000	-3.3881979040e-001
 2.0493380186e+000	 4.5058532694e+000	-3.4232610828e-001
 2.0041012900e+000	 4.5261548824e+000	-3.4046552267e-001
 1.9587483379e+000	 4.5459657884e+000	-3.3365107691e-001
 1.9132868423e+000	 4.5652856930e+000	-3.2229964321e-001
 1.8677244584e+000	 4.5841144562e+000	-3.0484011684e-001
 1.8220688123e+000	 4.6024520903e+000	-2.7344911819e-001
 2.2849906004e+000	 4.4192129340e+000	-2.7627910512e-001
 2.2402258505e+000	 4.4420730677e+000	-3.0590082540e-001
 2.1953054531e+000	 4.4644438587e+000	-3.2786094019e-001
 2.1502371949e+000	 4.4863242199e+000	-3.4255640914e-001
 2.1050288570e+000	 4.5077132242e+000	-3.5039973794e-001
 2.0596882107e+000	 4.5286101041e+000	-3.5181619467e-001
 2.0142230137e+000	 4.5490142505e+000	-3.4724103107e-001
 1.9686410063e+000	 4.5689252115e+000	-3.3711671702e-001
 1.9229499072e+000	 4.5883426915e+000	-3.2189019655e-001
 1.8771574102e+000	 4.6072665494e+000	-3.0201017328e-001
 1.8312711801e+000	 4.6256967978e+000	-2.6326576272e-001
 2.2964729653e+000	 4.4414200342e+000	-2.8665528843e-001
 2.2514832668e+000	 4.4643950429e+000	-3.1671301938e-001
 2.2063371388e+000	 4.4868782500e+000	-3.3837475684e-001
 2.1610424069e+000	 4.5088685627e+000	-3.5206404340e-001
 2.1156068914e+000	 4.5303650494e+000	-3.5822090992e-001
 2.0700384027e+000	 4.5513669388e+000	-3.5729901785e-001
 2.0243447374e+000	 4.5718736186e+000	-3.4976280594e-001
 1.9785336746e+000	 4.5918846347e+000	-3.3608464991e-001
 1.9326129720e+000	 4.6113996900e+000	-3.1674204356e-001
 1.8865903620e+000	 4.6304186427e+000	-2.9221480937e-001
 1.8404735478e+000	 4.6489415053e+000	-2.4938868318e-001
 1.7484498704e+000	 4.4164944300e+000	-2.2776708558e-001
 1.7045566903e+000	 4.4336200209e+000	-2.7865083456e-001
 1.6605885562e+000	 4.4502747833e+000	-3.1805448906e-001
 1.6165526831e+000	 4.4664591594e+000	-3.4578968172e-001
 1.5724562449e+000	 4.4821737314e+000	-3.6167176590e-001
 1.5283063712e+000	 4.4974192195e+000	-3.6552026073e-001
 1.4841101442e+000	 4.5121964807e+000	-3.5715928762e-001
 1.4398745957e+000	 4.5265065060e+000	-3.3641799726e-001
 1.3956067041e+000	 4.5403504190e+000	-3.0313098593e-001
 1.3513133914e+000	 4.5537294736e+000	-2.5713870016e-001
 1.3070015205e+000	 4.5666450514e+000	-1.9828782893e-001
 1.7576522382e+000	 4.4397391376e+000	-2.4538024724e-001
 1.7135280413e+000	 4.4569548631e+000	-2.8429629884e-001
 1.6693284959e+000	 4.4736972822e+000	-3.1344468904e-001
 1.6250608551e+000	 4.4899668392e+000	-3.3264610861e-001
 1.5807323304e+000	 4.5057641194e+000	-3.4172326679e-001
 1.5363500889e+000	 4.5210898470e+000	-3.4050135795e-001
 1.4919212502e+000	 4.5359448832e+000	-3.2880852160e-001
 1.4474528831e+000	 4.5503302244e+000	-3.0647629454e-001
 1.4029520026e+000	 4.5642470002e+000	-2.7334005397e-001
 1.3584255672e+000	 4.5776964708e+000	-2.2923945065e-001
 1.3138804759e+000	 4.5906800254e+000	-1.7401883086e-001
 1.7668546059e+000	 4.4629838451e+000	-2.5969188281e-001
 1.7224993923e+000	 4.4802897053e+000	-2.8714170086e-001
 1.6780684357e+000	 4.4971197811e+000	-3.0652237678e-001
 1.6335690271e+000	 4.5134745190e+000	-3.1766348973e-001
 1.5890084159e+000	 4.5293545075e+000	-3.2039494403e-001
 1.5443938066e+000	 4.5447604745e+000	-3.1454745760e-001
 1.4997323562e+000	 4.5596932857e+000	-2.9995304548e-001
 1.4550311704e+000	 4.5741539429e+000	-2.7644549719e-001
 1.4102973010e+000	 4.5881435813e+000	-2.4386084679e-001
 1.3655377429e+000	 4.6016634680e+000	-2.0203783441e-001
 1.3207594313e+000	 4.6147149993e+000	-1.5081835816e-001
 1.7760569736e+000	 4.4862285526e+000	-2.7065197439e-001
 1.7314707433e+000	 4.5036245475e+000	-2.8713113446e-001
 1.6868083755e+000	 4.5205422799e+000	-2.9722602964e-001
 1.6420771991e+000	 4.5369821988e+000	-3.0077495824e-001
 1.5972845014e+000	 4.5529448956e+000	-2.9761485928e-001
 1.5524375244e+000	 4.5684311019e+000	-2.8758182275e-001
 1.5075434623e+000	 4.5834416883e+000	-2.7051159666e-001
 1.4626094578e+000	 4.5979776614e+000	-2.4624008981e-001
 1.4176425995e+000	 4.6120401625e+000	-2.1460386867e-001
 1.3726499187e+000	 4.6256304653e+000	-1.7544064748e-001
 1.3276383866e+000	 4.6387499733e+000	-1.2858977003e-001
 1.7852593414e+000	 4.5094732602e+000	-2.7821080255e-001
 1.7404420943e+000	 4.5269593898e+000	-2.8420912866e-001
 1.6955483152e+000	 4.5439647788e+000	-2.8549469152e-001
 1.6505853711e+000	 4.5604898786e+000	-2.8191433994e-001
 1.6055605868e+000	 4.5765352836e+000	-2.7331188765e-001
 1.5604812421e+000	 4.5921017294e+000	-2.5952864535e-001
 1.5153545683e+000	 4.6071900908e+000	-2.4040395158e-001
 1.4701877451e+000	 4.6218013798e+000	-2.1577570073e-001
 1.4249878979e+000	 4.6359367437e+000	-1.8548086701e-001
 1.3797620944e+000	 4.6495974625e+000	-1.4935602299e-001
 1.3345173420e+000	 4.6627849472e+000	-1.0723785141e-001
 1.7944617091e+000	 4.5327179677e+000	-2.8231893874e-001
 1.7494134453e+000	 4.5502942320e+000	-2.7832063647e-001
 1.7042882550e+000	 4.5673872776e+000	-2.7126795835e-001
 1.6590935431e+000	 4.5839975584e+000	-2.6101613556e-001
 1.6138366723e+000	 4.6001256717e+000	-2.4741569681e-001
 1.5685249599e+000	 4.6157723569e+000	-2.3031302245e-001
 1.5231656743e+000	 4.6309384933e+000	-2.0955089902e-001
 1.4777660325e+000	 4.6456250983e+000	-1.8496907272e-001
 1.4323331963e+000	 4.6598333248e+000	-1.5640480046e-001
 1.3868742701e+000	 4.6735644597e+000	-1.2369339695e-001
 1.3413962974e+000	 4.6868199212e+000	-8.6668776479e-002
 1.8036640769e+000	 4.5559626752e+000	-2.8292723780e-001
 1.7583847963e+000	 4.5736290742e+000	-2.6941102409e-001
 1.7130281948e+000	 4.5908097765e+000	-2.5448596402e-001
 1.6676017152e+000	 4.6075052382e+000	-2.3801550349e-001
 1.6221127578e+000	 4.6237160597e+000	-2.1985672684e-001
 1.5765686776e+000	 4.6394429843e+000	-1.9986093309e-001
 1.5309767803e+000	 4.6546868958e+000	-1.7787421428e-001
 1.4853443198e+000	 4.6694488167e+000	-1.5373803451e-001
 1.4396784948e+000	 4.6837299060e+000	-1.2728980802e-001
 1.3939864459e+000	 4.6975314569e+000	-9.8363474944e-002
 1.3482752527e+000	 4.7108548951e+000	-6.6790073132e-002
 1.8128664446e+000	 4.5792073827e+000	-2.7998683084e-001
 1.7673561473e+000	 4.5969639164e+000	-2.5742606043e-001
 1.7217681346e+000	 4.6142322754e+000	-2.3508936671e-001
 1.6761098872e+000	 4.6310129180e+000	-2.1284824311e-001
 1.6303888433e+000	 4.6473064478e+000	-1.9056617056e-001
 1.5846123954e+000	 4.6631136118e+000	-1.6809921590e-001
 1.5387878863e+000	 4.6784352984e+000	-1.4529663419e-001
 1.4929226072e+000	 4.6932725352e+000	-1.2200147327e-001
 1.4470237932e+000	 4.7076264871e+000	-9.8051179073e-002
 1.4010986216e+000	 4.7214984542e+000	-7.3278199951e-002
 1.3551542081e+000	 4.7348898691e+000	-4.7510588687e-002
 1.8220688123e+000	 4.6024520903e+000	-2.7344911819e-001
 1.7763274983e+000	 4.6202987586e+000	-2.4231190692e-001
 1.7305080743e+000	 4.6376547742e+000	-2.1301933566e-001
 1.6846180592e+000	 4.6545205977e+000	-1.8545077861e-001
 1.6386649288e+000	 4.6708968359e+000	-1.5947595453e-001
 1.5926561131e+000	 4.6867842393e+000	-1.3495554741e-001
 1.5465989924e+000	 4.7021837009e+000	-1.1174183277e-001
 1.5005008945e+000	 4.7170962536e+000	-8.9679307888e-002
 1.4543690917e+000	 4.7315230682e+000	-6.8605324342e-002
 1.4082107974e+000	 4.7454654514e+000	-4.8350721083e-002
 1.3620331635e+000	 4.7589248430e+000	-2.8740456535e-002
 1.8312711801e+000	 4.6256967978e+000	-2.6326576272e-001
 1.7852988493e+000	 4.6436336008e+000	-2.2401510768e-001
 1.7392480141e+000	 4.6610772731e+000	-1.8821753833e-001
 1.6931262312e+000	 4.6780282775e+000	-1.5576014329e-001
 1.6469410143e+000	 4.6944872239e+000	-1.2651872068e-001
 1.6006998308e+000	 4.7104548668e+000	-1.0035842102e-001
 1.5544100984e+000	 4.7259321034e+000	-7.7134397713e-002
 1.5080791818e+000	 4.7409199721e+000	-5.6692462993e-002
 1.4617143901e+000	 4.7554196494e+000	-3.8869747721e-002
 1.4153229731e+000	 4.7694324486e+000	-2.3495363277e-002
 1.3689121189e+000	 4.7829598170e+000	-1.0391063838e-002
 1.8404735478e+000	 4.6489415053e+000	-2.4938868318e-001
 1.7942702003e+000	 4.6669684431e+000	-2.0248257992e-001
 1.7479879539e+000	 4.6844997719e+000	-1.6062612790e-001
 1.7016344032e+000	 4.7015359573e+000	-1.2371396432e-001
 1.6552170998e+000	 4.7180776120e+000	-9.1627808316e-002
 1.6087435486e+000	 4.7341254942e+000	-6.4237126514e-002
 1.5622212044e+000	 4.7496805060e+000	-4.1399807545e-002
 1.5156574692e+000	 4.7647436905e+000	-2.2962843869e-002
 1.4690596886e+000	 4.7793162305e+000	-8.7630189339e-003
 1.4224351489e+000	 4.7933994458e+000	 1.3724020919e-003
 1.3757910742e+000	 4.8069947909e+000	 7.6249798206e-003
 1.3070015205e+000	 4.5666450514e+000	-1.9828782893e-001
 1.2626778925e+000	 4.5790986602e+000	-1.2921157404e-001
 1.2183492440e+000	 4.5910919311e+000	-8.7093600526e-002
 1.1740222445e+000	 4.6026266164e+000	-6.0014540089e-002
 1.1297034943e+000	 4.6137045869e+000	-3.4908388872e-002
 1.0853995214e+000	 4.6243278300e+000	-1.1321132097e-002
 1.0411167802e+000	 4.6344984465e+000	 1.1146529326e-002
 9.9686164827e-001	 4.6442186484e+000	 3.2837549905e-002
 9.5264042516e-001	 4.6534907565e+000	 5.4037094153e-002
 9.0845932984e-001	 4.6623171971e+000	 7.4971274408e-002
 8.6432449896e-001	 4.6707005000e+000	 9.5806071115e-002
 1.3138804759e+000	 4.5906800254e+000	-1.7401883086e-001
 1.2693235656e+000	 4.6031991795e+000	-1.1550409006e-001
 1.2247616084e+000	 4.6152555729e+000	-7.4056943016e-002
 1.1802013090e+000	 4.6268509670e+000	-5.1932138422e-002
 1.1356493021e+000	 4.6379872426e+000	-3.1770008842e-002
 1.0911121505e+000	 4.6486663975e+000	-1.3020431232e-002
 1.0465963422e+000	 4.6588905436e+000	 4.8098594312e-003
 1.0021082885e+000	 4.6686619045e+000	 2.2155549900e-002
 9.5765432214e-001	 4.6779828131e+000	 3.9391217713e-002
 9.1324069473e-001	 4.6868557086e+000	 5.6829989361e-002
 8.6887357527e-001	 4.6952831342e+000	 7.4722386783e-002
 1.3207594313e+000	 4.6147149993e+000	-1.5081835816e-001
 1.2759692387e+000	 4.6272996988e+000	-1.0187708236e-001
 1.2311739729e+000	 4.6394192146e+000	-6.1918643512e-002
 1.1863803734e+000	 4.6510753176e+000	-4.4139543612e-002
 1.1415951100e+000	 4.6622698984e+000	-2.8306581547e-002
 1.0968247796e+000	 4.6730049650e+000	-1.3773266403e-002
 1.0520759042e+000	 4.6832826406e+000	 4.7877889176e-005
 1.0073549288e+000	 4.6931051605e+000	 1.3683500504e-002
 9.6266821912e-001	 4.7024748697e+000	 2.7597806866e-002
 9.1802205963e-001	 4.7113942202e+000	 4.2191136807e-002
 8.7342265158e-001	 4.7198657684e+000	 5.7798736979e-002
 1.3276383866e+000	 4.6387499733e+000	-1.2858977003e-001
 1.2826149119e+000	 4.6514002180e+000	-8.8251632490e-002
 1.2375863373e+000	 4.6635828564e+000	-5.0454119830e-002
 1.1925594379e+000	 4.6752996682e+000	-3.6436957229e-002
 1.1475409179e+000	 4.6865525541e+000	-2.4343049040e-002
 1.1025374086e+000	 4.6973435326e+000	-1.3429263706e-002
 1.0575554662e+000	 4.7076747377e+000	-3.0136560729e-003
 1.0126015690e+000	 4.7175484166e+000	 7.5226283165e-003
 9.6768211609e-001	 4.7269669263e+000	 1.8733650062e-002
 9.2280342452e-001	 4.7359327318e+000	 3.1107173698e-002
 8.7797172789e-001	 4.7444484026e+000	 4.5063365708e-002
 1.3345173420e+000	 4.6627849472e+000	-1.0723785141e-001
 1.2892605850e+000	 4.6755007373e+000	-7.4549900329e-002
 1.2439987017e+000	 4.6877464981e+000	-3.9439520392e-002
 1.1987385023e+000	 4.6995240188e+000	-2.8624963597e-002
 1.1534867257e+000	 4.7108352098e+000	-1.9704388296e-002
 1.1082500377e+000	 4.7216821001e+000	-1.1837736493e-002
 1.0630350282e+000	 4.7320668348e+000	-4.2483231339e-003
 1.0178482093e+000	 4.7419916726e+000	 3.7751669276e-003
 9.7269601307e-001	 4.7514589829e+000	 1.2876889046e-002
 9.2758478942e-001	 4.7604712433e+000	 2.3632255849e-002
 8.8252080420e-001	 4.7690310368e+000	 3.6546560528e-002
 1.3413962974e+000	 4.6868199212e+000	-8.6668776479e-002
 1.2959062581e+000	 4.6996012565e+000	-6.0695096425e-002
 1.2504110662e+000	 4.7119101398e+000	-2.8881424177e-002
 1.2049175668e+000	 4.7237483694e+000	-2.0504519983e-002
 1.1594325336e+000	 4.7351178655e+000	-1.4215610318e-002
 1.1139626667e+000	 4.7460206676e+000	-8.8476933980e-003
 1.0685145902e+000	 4.7564589319e+000	-3.5290608040e-003
 1.0230948496e+000	 4.7664349286e+000	 2.5443311015e-003
 9.7770991005e-001	 4.7759510395e+000	 1.0106984157e-002
 9.3236615432e-001	 4.7850097549e+000	 1.9822194369e-002
 8.8706988052e-001	 4.7936136710e+000	 3.2280600147e-002
 1.3482752527e+000	 4.7108548951e+000	-6.6790073132e-002
 1.3025519312e+000	 4.7237017758e+000	-4.6611455194e-002
 1.2568234306e+000	 4.7360737816e+000	-2.1095805722e-002
 1.2110966312e+000	 4.7479727200e+000	-1.1876947081e-002
 1.1653783415e+000	 4.7594005212e+000	-7.7017592730e-003
 1.1196752958e+000	 4.7703592351e+000	-4.3078461053e-003
 1.0739941522e+000	 4.7808510290e+000	-7.2817983151e-004
 1.0283414898e+000	 4.7908781847e+000	 3.9342917443e-003
 9.8272380703e-001	 4.8004430961e+000	 1.0504680692e-002
 9.3714751922e-001	 4.8095482664e+000	 1.9734413443e-002
 8.9161895683e-001	 4.8181963052e+000	 3.2299703629e-002
 1.3551542081e+000	 4.7348898691e+000	-4.7510588687e-002
 1.3091976043e+000	 4.7478022951e+000	-3.2224208935e-002
 1.2632357951e+000	 4.7602374233e+000	-1.2104537009e-002
 1.2172756957e+000	 4.7721970706e+000	-2.5439197865e-003
 1.1713241493e+000	 4.7836831769e+000	 1.2088355879e-005
 1.1253879249e+000	 4.7946978026e+000	 1.9333831125e-003
 1.0794737142e+000	 4.8052431260e+000	 4.2826198889e-003
 1.0335881301e+000	 4.8153214407e+000	 8.0501516370e-003
 9.8773770401e-001	 4.8249351527e+000	 1.4151976291e-002
 9.4192888412e-001	 4.8340867780e+000	 2.3427909383e-002
 8.9616803315e-001	 4.8427789394e+000	 3.6639981151e-002
 1.3620331635e+000	 4.7589248430e+000	-2.8740456535e-002
 1.3158432775e+000	 4.7719028143e+000	-1.7459562632e-002
 1.2696481595e+000	 4.7844010650e+000	-1.8499163681e-003
 1.2234547601e+000	 4.7964214212e+000	 7.6925417451e-003
 1.1772699572e+000	 4.8079658326e+000	 9.1008245812e-003
 1.1311005539e+000	 4.8190363702e+000	 1.0027854086e-002
 1.0849532762e+000	 4.8296352231e+000	 1.1632233891e-002
 1.0388347703e+000	 4.8397646967e+000	 1.4997921904e-002
 9.9275160099e-001	 4.8494272093e+000	 2.1132089311e-002
 9.4671024902e-001	 4.8586252895e+000	 3.0963210934e-002
 9.0071710947e-001	 4.8673615736e+000	 4.5339386240e-002
 1.3689121189e+000	 4.7829598170e+000	-1.0391063838e-002
 1.3224889506e+000	 4.7960033336e+000	-2.2446695091e-003
 1.2760605240e+000	 4.8085647068e+000	 9.7251154028e-003
 1.2296338246e+000	 4.8206457718e+000	 1.9030080775e-002
 1.1832157651e+000	 4.8322484884e+000	 1.9739310704e-002
 1.1368131830e+000	 4.8433749377e+000	 2.0127701660e-002
 1.0904328382e+000	 4.8540273202e+000	 2.1450138176e-002
 1.0440814106e+000	 4.8642079528e+000	 2.4884499188e-002
 9.9776549797e-001	 4.8739192659e+000	 3.1529428159e-002
 9.5149161392e-001	 4.8831638011e+000	 4.2402340767e-002
 9.0526618578e-001	 4.8919442078e+000	 5.8437669463e-002
 1.3757910742e+000	 4.8069947909e+000	 7.6249798206e-003
 1.3291346237e+000	 4.8201038528e+000	 1.3492392668e-002
 1.2824728884e+000	 4.8327283485e+000	 2.2676991094e-002
 1.2358128890e+000	 4.8448701224e+000	 3.1666012397e-002
 1.1891615729e+000	 4.8565311441e+000	 3.2102378083e-002
 1.1425258121e+000	 4.8677135052e+000	 3.2385328820e-002
 1.0959124002e+000	 4.8784194173e+000	 3.3866374702e-002
 1.0493280509e+000	 4.8886512088e+000	 3.7817643516e-002
 1.0027793950e+000	 4.8984113225e+000	 4.5429561537e-002
 9.5627297882e-001	 4.9077023127e+000	 5.7808778133e-002
 9.0981526210e-001	 4.9165268420e+000	 7.5976333502e-002
 8.6432449896e-001	 4.6707005000e+000	 9.5806071115e-002
 8.2024198506e-001	 4.6786432954e+000	 9.8807710306e-002
 7.7621775480e-001	 4.6861483115e+000	 1.0240587070e-001
 7.3225768736e-001	 4.6932183711e+000	 1.0708794981e-001
 6.8836757286e-001	 4.6998563898e+000	 1.1326879098e-001
 6.4455311094e-001	 4.7060653722e+000	 1.2129020729e-001
 6.0081990940e-001	 4.7118484097e+000	 1.2133333020e-001
 5.5717348293e-001	 4.7172086778e+000	 1.1301744451e-001
 5.1361925192e-001	 4.7221494326e+000	 1.0415922261e-001
 4.7016254140e-001	 4.7266740087e+000	 9.5087862693e-002
 4.2680858003e-001	 4.7307858159e+000	 8.6021903236e-002
 8.6887357527e-001	 4.6952831342e+000	 7.4722386783e-002
 8.2455904814e-001	 4.7032677338e+000	 8.4199781709e-002
 7.8030311141e-001	 4.7108122499e+000	 9.3865805364e-002
 7.3611167519e-001	 4.7179195205e+000	 1.0420891113e-001
 6.9199056008e-001	 4.7245924760e+000	 1.1564463669e-001
 6.4794549573e-001	 4.7308341373e+000	 1.2851510677e-001
 6.0398211945e-001	 4.7366476119e+000	 1.3337533831e-001
 5.6010597494e-001	 4.7420360919e+000	 1.2741444418e-001
 5.1632251113e-001	 4.7470028507e+000	 1.2084572136e-001
 4.7263708109e-001	 4.7515512403e+000	 1.1398179988e-001
 4.2905494097e-001	 4.7556846886e+000	 1.0702369274e-001
 8.7342265158e-001	 4.7198657684e+000	 5.7798736979e-002
 8.2887611122e-001	 4.7278921722e+000	 7.2683493242e-002
 7.8438846801e-001	 4.7354761884e+000	 8.7373217008e-002
 7.3996566301e-001	 4.7426206698e+000	 1.0235810894e-001
 6.9561354731e-001	 4.7493285623e+000	 1.1805505830e-001
 6.5133788053e-001	 4.7556029024e+000	 1.3480712434e-001
 6.0714432950e-001	 4.7614468140e+000	 1.4396862317e-001
 5.6303846695e-001	 4.7668635060e+000	 1.3975337537e-001
 5.1902577035e-001	 4.7718562687e+000	 1.3490053882e-001
 4.7511162077e-001	 4.7764284720e+000	 1.2970624422e-001
 4.3130130191e-001	 4.7805835613e+000	 1.2435400962e-001
 8.7797172789e-001	 4.7444484026e+000	 4.5063365708e-002
 8.3319317430e-001	 4.7525166106e+000	 6.4289956374e-002
 7.8847382461e-001	 4.7601401269e+000	 8.2961973049e-002
 7.4381965084e-001	 4.7673218191e+000	 1.0157205746e-001
 6.9923653453e-001	 4.7740646486e+000	 1.2053911006e-001
 6.5473026532e-001	 4.7803716675e+000	 1.4020774983e-001
 6.1030653954e-001	 4.7862460162e+000	 1.5308241355e-001
 5.6597095897e-001	 4.7916909201e+000	 1.5001070737e-001
 5.2172902957e-001	 4.7967096868e+000	 1.4630735154e-001
 4.7758616046e-001	 4.8013057036e+000	 1.4225204481e-001
 4.3354766286e-001	 4.8054824340e+000	 1.3801083913e-001
 8.8252080420e-001	 4.7690310368e+000	 3.6546560528e-002
 8.3751023738e-001	 4.7771410490e+000	 5.9052114133e-002
 7.9255918122e-001	 4.7848040654e+000	 8.0667564540e-002
 7.4767363867e-001	 4.7920229684e+000	 1.0188869075e-001
 7.0285952176e-001	 4.7988007348e+000	 1.2313706645e-001
 6.5812265011e-001	 4.8051404326e+000	 1.4475949791e-001
 6.1346874959e-001	 4.8110452184e+000	 1.6068677192e-001
 5.6890345098e-001	 4.8165183342e+000	 1.5816355621e-001
 5.2443228879e-001	 4.8215631049e+000	 1.5505030035e-001
 4.8006070016e-001	 4.8261829352e+000	 1.5161033681e-001
 4.3579402381e-001	 4.8303813068e+000	 1.4799227878e-001
 8.8706988052e-001	 4.7936136710e+000	 3.2280600147e-002
 8.4182730046e-001	 4.8017654874e+000	 5.7004694141e-002
 7.9664453783e-001	 4.8094680039e+000	 8.0527064545e-002
 7.5152762650e-001	 4.8167241177e+000	 1.0334732633e-001
 7.0648250899e-001	 4.8235368211e+000	 1.2589039088e-001
 6.6151503491e-001	 4.8299091977e+000	 1.4850588175e-001
 6.1663095964e-001	 4.8358444205e+000	 1.6675257300e-001
 5.7183594300e-001	 4.8413457483e+000	 1.6418966820e-001
 5.2713554801e-001	 4.8464165229e+000	 1.6111397841e-001
 4.8253523985e-001	 4.8510601668e+000	 1.5777253412e-001
 4.3804038475e-001	 4.8552801795e+000	 1.5429653548e-001
 8.9161895683e-001	 4.8181963052e+000	 3.2299703629e-002
 8.4614436354e-001	 4.8263899258e+000	 5.8184163090e-002
 8.0072989444e-001	 4.8341319423e+000	 8.2579087778e-002
 7.5538161434e-001	 4.8414252671e+000	 1.0598862987e-001
 7.1010549622e-001	 4.8482729073e+000	 1.2884170538e-001
 6.6490741971e-001	 4.8546779629e+000	 1.5149138765e-001
 6.1979316970e-001	 4.8606436227e+000	 1.7125148310e-001
 5.7476843502e-001	 4.8661731623e+000	 1.6806740374e-001
 5.2983880724e-001	 4.8712699410e+000	 1.6448341972e-001
 4.8500977954e-001	 4.8759373984e+000	 1.6073032227e-001
 4.4028674570e-001	 4.8801790522e+000	 1.5692192273e-001
 8.9616803315e-001	 4.8427789394e+000	 3.6639981151e-002
 8.5046142663e-001	 4.8510143642e+000	 6.2628682604e-002
 8.0481525105e-001	 4.8587958808e+000	 8.6863751481e-002
 7.5923560217e-001	 4.8661264164e+000	 1.0985458095e-001
 7.1372848345e-001	 4.8730089936e+000	 1.3203476120e-001
 6.6829980451e-001	 4.8794467280e+000	 1.5376145024e-001
 6.2295537975e-001	 4.8854428248e+000	 1.7415594000e-001
 5.7770092704e-001	 4.8910005764e+000	 1.6977572180e-001
 5.3254206646e-001	 4.8961233591e+000	 1.6514408787e-001
 4.8748431924e-001	 4.9008146301e+000	 1.6047565152e-001
 4.4253310665e-001	 4.9050779249e+000	 1.5586685791e-001
 9.0071710947e-001	 4.8673615736e+000	 4.5339386240e-002
 8.5477848971e-001	 4.8756388026e+000	 7.0378066435e-002
 8.0890060766e-001	 4.8834598193e+000	 9.3422637476e-002
 7.6308959000e-001	 4.8908275657e+000	 1.1498843995e-001
 7.1735147068e-001	 4.8977450799e+000	 1.3551441025e-001
 6.7169218931e-001	 4.9042154931e+000	 1.5536242858e-001
 6.2611758981e-001	 4.9102420270e+000	 1.7481687298e-001
 5.8063341906e-001	 4.9158279905e+000	 1.6929416481e-001
 5.3524532569e-001	 4.9209767771e+000	 1.6308186528e-001
 4.8995885893e-001	 4.9256918617e+000	 1.5700073016e-001
 4.4477946760e-001	 4.9299767976e+000	 1.5112985968e-001
 9.0526618578e-001	 4.8919442078e+000	 5.8437669463e-002
 8.5909555280e-001	 4.9002632410e+000	 8.1473738954e-002
 8.1298596427e-001	 4.9081237578e+000	 1.0229875537e-001
 7.6694357784e-001	 4.9155287150e+000	 1.2143471578e-001
 7.2097445791e-001	 4.9224811661e+000	 1.3932657750e-001
 6.7508457411e-001	 4.9289842582e+000	 1.5634158296e-001
 6.2927979986e-001	 4.9350412291e+000	 1.7276879341e-001
 5.8356591108e-001	 4.9406554046e+000	 1.6660284393e-001
 5.3794858491e-001	 4.9458301952e+000	 1.5828304257e-001
 4.9243339863e-001	 4.9505690933e+000	 1.5029801806e-001
 4.4702582855e-001	 4.9548756703e+000	 1.4270954541e-001
 9.0981526210e-001	 4.9165268420e+000	 7.5976333502e-002
 8.6341261589e-001	 4.9248876794e+000	 9.5958694886e-002
 8.1707132088e-001	 4.9327876962e+000	 1.1353650685e-001
 7.7079756568e-001	 4.9402298643e+000	 1.2923913473e-001
 7.2459744515e-001	 4.9472172524e+000	 1.4351823411e-001
 6.7847695892e-001	 4.9537530233e+000	 1.5674705231e-001
 6.3244200992e-001	 4.9598404313e+000	 1.6921994155e-001
 5.8649840310e-001	 4.9654828187e+000	 1.6168242493e-001
 5.4065184414e-001	 4.9706836133e+000	 1.5073430844e-001
 4.9490793833e-001	 4.9754463249e+000	 1.4036022034e-001
 4.4927218951e-001	 4.9797745430e+000	 1.3060462873e-001
 4.2680858003e-001	 4.7307858159e+000	 8.6021903236e-002
 3.8356249917e-001	 4.7344883366e+000	 9.4450426761e-002
 3.4042933210e-001	 4.7377851228e+000	 1.0390137348e-001
 2.9741401323e-001	 4.7406797935e+000	 1.1400495212e-001
 2.5452137749e-001	 4.7431760318e+000	 1.2429724831e-001
 2.1175615972e-001	 4.7452775818e+000	 1.3422358475e-001
 1.6912299422e-001	 4.7469882465e+000	 1.4314197299e-001
 1.2662641428e-001	 4.7483118844e+000	 1.5032664652e-001
 8.4270851934e-002	 4.7492524068e+000	 1.5497166439e-001
 4.2060637605e-002	 4.7498137756e+000	 1.5619457525e-001
 0.0000000000e+000	 4.7500000000e+000	 1.5304013182e-001
 4.2905494097e-001	 4.7556846886e+000	 1.0702369274e-001
 3.8558124916e-001	 4.7594066962e+000	 1.1236480772e-001
 3.4222106542e-001	 4.7627208340e+000	 1.1879108606e-001
 2.9897935014e-001	 4.7656307398e+000	 1.2594798500e-001
 2.5586096368e-001	 4.7681401161e+000	 1.3338516919e-001
 2.1287066582e-001	 4.7702527270e+000	 1.4055990533e-001
 1.7001311524e-001	 4.7719723952e+000	 1.4684055079e-001
 1.2729286910e-001	 4.7733029995e+000	 1.5151012520e-001
 8.4714382733e-002	 4.7742484721e+000	 1.5376995466e-001
 4.2282009382e-002	 4.7748127955e+000	 1.5274337789e-001
 0.0000000000e+000	 4.7750000000e+000	 1.4747950431e-001
 4.3130130191e-001	 4.7805835613e+000	 1.2435400962e-001
 3.8759999915e-001	 4.7843250559e+000	 1.2694535888e-001
 3.4401279874e-001	 4.7876565451e+000	 1.3071591887e-001
 3.0054468705e-001	 4.7905816861e+000	 1.3532605043e-001
 2.5720054988e-001	 4.7931042005e+000	 1.4033862406e-001
 2.1398517192e-001	 4.7952278722e+000	 1.4522245021e-001
 1.7090323626e-001	 4.7969565439e+000	 1.4935580554e-001
 1.2795932391e-001	 4.7982941147e+000	 1.5203004423e-001
 8.5157913532e-002	 4.7992445374e+000	 1.5245328373e-001
 4.2503381158e-002	 4.7998118153e+000	 1.4975415411e-001
 0.0000000000e+000	 4.8000000000e+000	 1.4298560086e-001
 4.3354766286e-001	 4.8054824340e+000	 1.3801083913e-001
 3.8961874915e-001	 4.8092434156e+000	 1.3818466933e-001
 3.4580453207e-001	 4.8125922563e+000	 1.3966309466e-001
 3.0211002396e-001	 4.8155326324e+000	 1.4212103695e-001
 2.5854013607e-001	 4.8180682849e+000	 1.4513420170e-001
 2.1509967803e-001	 4.8202030174e+000	 1.4818254487e-001
 1.7179335728e-001	 4.8219406925e+000	 1.5065383788e-001
 1.2862577872e-001	 4.8232852299e+000	 1.5184731969e-001
 8.5601444331e-002	 4.8242406027e+000	 1.5097742510e-001
 4.2724752935e-002	 4.8248108352e+000	 1.4717757838e-001
 0.0000000000e+000	 4.8250000000e+000	 1.3950404186e-001
 4.3579402381e-001	 4.8303813068e+000	 1.4799227878e-001
 3.9163749914e-001	 4.8341617752e+000	 1.4607552865e-001
 3.4759626540e-001	 4.8375279675e+000	 1.4562012784e-001
 3.0367536087e-001	 4.8404835786e+000	 1.4631521893e-001
 2.5987972227e-001	 4.8430323693e+000	 1.4774897369e-001
 2.1621418413e-001	 4.8451781625e+000	 1.4941209741e-001
 1.7268347830e-001	 4.8469248412e+000	 1.5070143363e-001
 1.2929223353e-001	 4.8482763451e+000	 1.5092365806e-001
 8.6044975130e-002	 4.8492366680e+000	 1.4929905045e-001
 4.2946124712e-002	 4.8498098551e+000	 1.4496533365e-001
 0.0000000000e+000	 4.8500000000e+000	 1.3698156895e-001
 4.3804038475e-001	 4.8552801795e+000	 1.5429653548e-001
 3.9365624914e-001	 4.8590801349e+000	 1.5061092178e-001
 3.4938799872e-001	 4.8624636787e+000	 1.4857481706e-001
 3.0524069778e-001	 4.8654345249e+000	 1.4789124670e-001
 2.6121930847e-001	 4.8679964537e+000	 1.4816048210e-001
 2.1732869023e-001	 4.8701533077e+000	 1.4888358363e-001
 1.7357359932e-001	 4.8719089899e+000	 1.4946604619e-001
 1.2995868834e-001	 4.8732674603e+000	 1.4922153586e-001
 8.6488505929e-002	 4.8742327333e+000	 1.4737570656e-001
 4.3167496488e-002	 4.8748088749e+000	 1.4307008544e-001
 0.0000000000e+000	 4.8750000000e+000	 1.3536601623e-001
 4.4028674570e-001	 4.8801790522e+000	 1.5692192273e-001
 3.9567499914e-001	 4.8839984946e+000	 1.5178402397e-001
 3.5117973205e-001	 4.8873993898e+000	 1.4851523793e-001
 3.0680603469e-001	 4.8903854712e+000	 1.4683213691e-001
 2.6255889466e-001	 4.8929605380e+000	 1.4634672740e-001
 2.1844319634e-001	 4.8951284529e+000	 1.4657003255e-001
 1.7446372034e-001	 4.8968931385e+000	 1.4691577952e-001
 1.3062514315e-001	 4.8982585754e+000	 1.4670418009e-001
 8.6932036728e-002	 4.8992287986e+000	 1.4516579299e-001
 4.3388868265e-002	 4.8998078948e+000	 1.4144545683e-001
 0.0000000000e+000	 4.9000000000e+000	 1.3460628242e-001
 4.4253310665e-001	 4.9050779249e+000	 1.5586685791e-001
 3.9769374913e-001	 4.9089168542e+000	 1.4958819604e-001
 3.5297146538e-001	 4.9123351010e+000	 1.4542973596e-001
 3.0837137160e-001	 4.9153364175e+000	 1.4312126327e-001
 2.6389848086e-001	 4.9179246224e+000	 1.4228615692e-001
 2.1955770244e-001	 4.9201035980e+000	 1.4244501234e-001
 1.7535384136e-001	 4.9218772872e+000	 1.4301937165e-001
 1.3129159796e-001	 4.9232496906e+000	 1.4333554913e-001
 8.7375567527e-002	 4.9242248639e+000	 1.4262854047e-001
 4.3610240041e-002	 4.9248069147e+000	 1.4004600411e-001
 0.0000000000e+000	 4.9250000000e+000	 1.3465230382e-001
 4.4477946760e-001	 4.9299767976e+000	 1.5112985968e-001
 3.9971249913e-001	 4.9338352139e+000	 1.4401697960e-001
 3.5476319871e-001	 4.9372708122e+000	 1.3930691980e-001
 3.0993670852e-001	 4.9402873638e+000	 1.3674234751e-001
 2.6523806706e-001	 4.9428887068e+000	 1.3595765349e-001
 2.2067220854e-001	 4.9450787432e+000	 1.3648261674e-001
 1.7624396239e-001	 4.9468614359e+000	 1.3774617863e-001
 1.3195805278e-001	 4.9482408058e+000	 1.3908031431e-001
 8.7819098327e-002	 4.9492209292e+000	 1.3972398985e-001
 4.3831611818e-002	 4.9498059346e+000	 1.3882719325e-001
 0.0000000000e+000	 4.9500000000e+000	 1.3545502813e-001
 4.4702582855e-001	 4.9548756703e+000	 1.4270954541e-001
 4.0173124913e-001	 4.9587535736e+000	 1.3506409260e-001
 3.5655493203e-001	 4.9622065233e+000	 1.3013565459e-001
 3.1150204543e-001	 4.9652383101e+000	 1.2767945065e-001
 2.6657765326e-001	 4.9678527912e+000	 1.2734052453e-001
 2.2178671465e-001	 4.9700538884e+000	 1.2865745183e-001
 1.7713408341e-001	 4.9718455845e+000	 1.3106615903e-001
 1.3262450759e-001	 4.9732319210e+000	 1.3390384195e-001
 8.8262629126e-002	 4.9742169945e+000	 1.3641297181e-001
 4.4052983595e-002	 4.9748049544e+000	 1.3774537701e-001
 0.0000000000e+000	 4.9750000000e+000	 1.3696638903e-001
 4.4927218951e-001	 4.9797745430e+000	 1.3060462873e-001
 4.0374999913e-001	 4.9836719332e+000	 1.2272342484e-001
 3.5834666536e-001	 4.9871422345e+000	 1.1790505556e-001
 3.1306738234e-001	 4.9901892563e+000	 1.1591696452e-001
 2.6791723945e-001	 4.9928168755e+000	 1.1641449146e-001
 2.2290122075e-001	 4.9950290335e+000	 1.1894462325e-001
 1.7802420443e-001	 4.9968297332e+000	 1.2294985887e-001
 1.3329096240e-001	 4.9982230362e+000	 1.2777217601e-001
 8.8706159925e-002	 4.9992130598e+000	 1.3265708708e-001
 4.4274355371e-002	 4.9998039743e+000	 1.3675777280e-001
 0.0000000000e+000	 5.0000000000e+000	 1.3913928150e-001
