x	y	stress_xx
 1.0000000000e+00	 0.0000000000e+00	 4.4887635198e-02
 9.9979421360e-01	 2.0285918027e-02	 5.7898720246e-02
 9.9917015173e-01	 4.0730438957e-02	 8.9544262697e-02
 9.9811797387e-01	 6.1322427094e-02	 1.3962408352e-01
 9.9662815290e-01	 8.2050164801e-02	 2.0797421633e-01
 9.9469151154e-01	 1.0290135811e-01	 2.9446810772e-01
 9.9229925915e-01	 1.2386314479e-01	 3.9901754504e-01
 9.8944302882e-01	 1.4492210489e-01	 5.2157328700e-01
 9.8611491462e-01	 1.6606427394e-01	 6.6212537376e-01
 9.8230750859e-01	 1.8727515887e-01	 8.2070309441e-01
 9.7801393759e-01	 2.0853975653e-01	 9.9737459156e-01
 1.0142857623e+00	 0.0000000000e+00	 3.2200819866e-01
 1.0140770361e+00	 2.0575717834e-02	 3.3357823140e-01
 1.0134440591e+00	 4.1312304334e-02	 3.6123434250e-01
 1.0123768500e+00	 6.2198464722e-02	 4.0479335804e-01
 1.0108657458e+00	 8.3222313965e-02	 4.6411159487e-01
 1.0089014381e+00	 1.0437138247e-01	 5.3908600095e-01
 1.0064750105e+00	 1.2563262425e-01	 6.2965500996e-01
 1.0035779768e+00	 1.4699242765e-01	 7.3579908592e-01
 1.0002023179e+00	 1.6843662870e-01	 8.5754093457e-01
 9.9634052019e-01	 1.8995052729e-01	 9.9494535959e-01
 9.9198561225e-01	 2.1151890594e-01	 1.1481187439e+00
 1.0285716130e+00	 0.0000000000e+00	 5.8891858542e-01
 1.0283599470e+00	 2.0865519432e-02	 5.9920012702e-01
 1.0277180546e+00	 4.1894173308e-02	 6.2315473080e-01
 1.0266358144e+00	 6.3074507764e-02	 6.6061977350e-01
 1.0251034268e+00	 8.4394470374e-02	 7.1147522376e-01
 1.0231114525e+00	 1.0584141592e-01	 7.7564469536e-01
 1.0206508496e+00	 1.2740211465e-01	 8.5309620122e-01
 1.0177130121e+00	 1.4906276320e-01	 9.4384258417e-01
 1.0142898083e+00	 1.7080899813e-01	 1.0479416014e+00
 1.0103736186e+00	 1.9262591225e-01	 1.1654956416e+00
 1.0059573733e+00	 2.1449807377e-01	 1.2966510548e+00
 1.0428575404e+00	 0.0000000000e+00	 8.4348603310e-01
 1.0426429345e+00	 2.1155322585e-02	 8.5262119977e-01
 1.0419921268e+00	 4.2476045403e-02	 8.7314989679e-01
 1.0408948552e+00	 6.3950555507e-02	 9.0493350335e-01
 1.0393411842e+00	 8.5566633073e-02	 9.4787891235e-01
 1.0373215431e+00	 1.0731145725e-01	 1.0019394699e+00
 1.0348267647e+00	 1.2917161454e-01	 1.0671156019e+00
 1.0318481233e+00	 1.5113310987e-01	 1.1434551032e+00
 1.0283773743e+00	 1.7318138029e-01	 1.2310530684e+00
 1.0244067923e+00	 1.9530131157e-01	 1.3300514414e+00
 1.0199292094e+00	 2.1747725758e-01	 1.4406381674e+00
 1.0571435327e+00	 0.0000000000e+00	 1.0836890543e+00
 1.0569259869e+00	 2.1445127056e-02	 1.0918102629e+00
 1.0562662640e+00	 4.3057920145e-02	 1.1091771929e+00
 1.0551539609e+00	 6.4826607234e-02	 1.1356785873e+00
 1.0535790063e+00	 8.6738801103e-02	 1.1712514432e+00
 1.0515316984e+00	 1.0878150527e-01	 1.2158818110e+00
 1.0490027443e+00	 1.3094112249e-01	 1.2696052674e+00
 1.0459832989e+00	 1.5320346595e-01	 1.3325070365e+00
 1.0424650045e+00	 1.7555377324e-01	 1.4047217388e+00
 1.0384400298e+00	 1.9797672306e-01	 1.4864327483e+00
 1.0339011090e+00	 2.2045645495e-01	 1.5778711378e+00
 1.0714295784e+00	 0.0000000000e+00	 1.3076100086e+00
 1.0712090928e+00	 2.1734932609e-02	 1.3148406865e+00
 1.0705404544e+00	 4.3639797058e-02	 1.3292993473e+00
 1.0694131199e+00	 6.5702662231e-02	 1.3509053722e+00
 1.0678168817e+00	 8.7910973507e-02	 1.3796289524e+00
 1.0657419068e+00	 1.1025155877e-01	 1.4154917236e+00
 1.0631787768e+00	 1.3271063703e-01	 1.4585670584e+00
 1.0601185272e+00	 1.5527382977e-01	 1.5089799938e+00
 1.0565526872e+00	 1.7792617505e-01	 1.5669067723e+00
 1.0524733197e+00	 2.0065214454e-01	 1.6325739789e+00
 1.0478730608e+00	 2.2343566344e-01	 1.7062572553e+00
 1.0857156657e+00	 0.0000000000e+00	 1.5134282601e+00
 1.0854922402e+00	 2.2024739006e-02	 1.5198835228e+00
 1.0848146865e+00	 4.4221675667e-02	 1.5316775496e+00
 1.0836723205e+00	 6.6578719781e-02	 1.5487635495e+00
 1.0820547985e+00	 8.9083149329e-02	 1.5711479113e+00
 1.0799521566e+00	 1.1172161656e-01	 1.5988906485e+00
 1.0773548507e+00	 1.3448015674e-01	 1.6321054854e+00
 1.0742537967e+00	 1.5734419962e-01	 1.6709595650e+00
 1.0706404110e+00	 1.8029858377e-01	 1.7156727575e+00
 1.0665066506e+00	 2.0332757381e-01	 1.7665165506e+00
 1.0618450533e+00	 2.2641488062e-01	 1.8238125068e+00
 1.1000017831e+00	 0.0000000000e+00	 1.6994138686e+00
 1.0997754177e+00	 2.2314546011e-02	 1.7052011662e+00
 1.0990889485e+00	 4.4803555497e-02	 1.7145650733e+00
 1.0979315510e+00	 6.7454779171e-02	 1.7274957338e+00
 1.0962927452e+00	 9.0255327612e-02	 1.7440386540e+00
 1.0941624363e+00	 1.1319167744e-01	 1.7642949312e+00
 1.0915309544e+00	 1.3624968016e-01	 1.7884211103e+00
 1.0883890959e+00	 1.5941457381e-01	 1.8166286466e+00
 1.0847281644e+00	 1.8267099747e-01	 1.8491829555e+00
 1.0805400110e+00	 2.0600300871e-01	 1.8864020321e+00
 1.0758170752e+00	 2.2939410405e-01	 1.9286546265e+00
 1.1142879188e+00	 0.0000000000e+00	 1.8639217646e+00
 1.1140586135e+00	 2.2604353388e-02	 1.8691415016e+00
 1.1133632289e+00	 4.5385436074e-02	 1.8763013898e+00
 1.1121907998e+00	 6.8330839684e-02	 1.8854315364e+00
 1.1105307103e+00	 9.1427507398e-02	 1.8966194022e+00
 1.1083727342e+00	 1.1466174020e-01	 1.9100097918e+00
 1.1057070762e+00	 1.3801920585e-01	 1.9258044550e+00
 1.1025244133e+00	 1.6148495066e-01	 1.9442612801e+00
 1.0988159358e+00	 1.8504341422e-01	 1.9656930609e+00
 1.0945733893e+00	 2.0867844704e-01	 1.9904658203e+00
 1.0897891150e+00	 2.3237333130e-01	 2.0189966787e+00
 1.1285740611e+00	 0.0000000000e+00	 2.0053863674e+00
 1.1283418159e+00	 2.2894160900e-02	 2.0101324956e+00
 1.1276375159e+00	 4.5967316922e-02	 2.0153067285e+00
 1.1264500552e+00	 6.9206900605e-02	 2.0209820869e+00
 1.1247686819e+00	 9.2599687730e-02	 2.0272907440e+00
 1.1225830387e+00	 1.1613180365e-01	 2.0344237533e+00
 1.1198832047e+00	 1.3978873237e-01	 2.0426303715e+00
 1.1166597372e+00	 1.6355532848e-01	 2.0522169586e+00
 1.1129037139e+00	 1.8741583207e-01	 2.0635454368e+00
 1.1086067742e+00	 2.1135388661e-01	 2.0770312949e+00
 1.1037611613e+00	 2.3535255995e-01	 2.0931411270e+00
 1.1428601985e+00	 0.0000000000e+00	 2.1223166062e+00
 1.1426250134e+00	 2.3183968311e-02	 2.1266771940e+00
 1.1419117979e+00	 4.6549197565e-02	 2.1300770447e+00
 1.1407093057e+00	 7.0082961219e-02	 2.1326349665e+00
 1.1390066486e+00	 9.3771867651e-02	 2.1345305252e+00
 1.1367933383e+00	 1.1760186658e-01	 2.1360034858e+00
 1.1340593282e+00	 1.4155825826e-01	 2.1373528339e+00
 1.1307950562e+00	 1.6562570557e-01	 2.1389353582e+00
 1.1269914870e+00	 1.8978824910e-01	 2.1411637795e+00
 1.1226401542e+00	 2.1402932525e-01	 2.1445044115e+00
 1.1177332028e+00	 2.3833178755e-01	 2.1494743454e+00
 9.7801393759e-01	 2.0853975653e-01	 9.9737459156e-01
 9.7322825186e-01	 2.2984108677e-01	 1.1897714008e+00
 9.6794447360e-01	 2.5116470275e-01	 1.3938742814e+00
 9.6215754903e-01	 2.7249423836e-01	 1.6072636039e+00
 9.5586309813e-01	 2.9381292096e-01	 1.8275307606e+00
 9.4905744632e-01	 3.1510360378e-01	 2.0522946856e+00
 9.4173765446e-01	 3.3634880088e-01	 2.2792189361e+00
 9.3390154697e-01	 3.5753072471e-01	 2.5060292063e+00
 9.2554773768e-01	 3.7863132607e-01	 2.7305311352e+00
 9.1667565331e-01	 3.9963233635e-01	 2.9506282555e+00
 9.0728555439e-01	 4.2051531196e-01	 3.1643399237e+00
 9.9198561225e-01	 2.1151890594e-01	 1.1481187439e+00
 9.8713155936e-01	 2.3312454192e-01	 1.3147699036e+00
 9.8177229830e-01	 2.5475278201e-01	 1.4911286521e+00
 9.7590270310e-01	 2.7638702629e-01	 1.6750808211e+00
 9.6951833117e-01	 2.9801026253e-01	 1.8645250126e+00
 9.6261545544e-01	 3.1960509898e-01	 2.0573872024e+00
 9.5519109478e-01	 3.4115379992e-01	 2.2516358354e+00
 9.4724304252e-01	 3.6263832368e-01	 2.4452972973e+00
 9.3876989269e-01	 3.8404036321e-01	 2.6364716391e+00
 9.2977106384e-01	 4.0534138893e-01	 2.8233484212e+00
 9.2024682020e-01	 4.2652269377e-01	 3.0042225338e+00
 1.0059573733e+00	 2.1449807377e-01	 1.2966510548e+00
 1.0010349528e+00	 2.3640801737e-01	 1.4391802324e+00
 9.9560020850e-01	 2.5834088346e-01	 1.5895343855e+00
 9.8964794217e-01	 2.8027983830e-01	 1.7458847689e+00
 9.8317364865e-01	 3.0220763005e-01	 1.9064169309e+00
 9.7617354839e-01	 3.2410662201e-01	 2.0693435169e+00
 9.6864461828e-01	 3.4595882866e-01	 2.2329174988e+00
 9.6058462056e-01	 3.6774595423e-01	 2.3954457295e+00
 9.5199212946e-01	 3.8944943380e-01	 2.5553027136e+00
 9.4286655534e-01	 4.1105047682e-01	 2.7109444769e+00
 9.3320816615e-01	 4.3253011272e-01	 2.8609224092e+00
 1.0199292094e+00	 2.1747725758e-01	 1.4406381674e+00
 1.0149384209e+00	 2.3969151044e-01	 1.5606373406e+00
 1.0094281929e+00	 2.6192900415e-01	 1.6866963225e+00
 1.0033932550e+00	 2.8417267119e-01	 1.8172525306e+00
 9.9682903942e-01	 3.0640502009e-01	 1.9507589750e+00
 9.8973171411e-01	 3.2860816921e-01	 2.0856953741e+00
 9.8209821399e-01	 3.5076388320e-01	 2.2205796359e+00
 9.7392627021e-01	 3.7285361218e-01	 2.3539796170e+00
 9.6521443720e-01	 3.9485853341e-01	 2.4845250638e+00
 9.5596211712e-01	 4.1675959534e-01	 2.6109196346e+00
 9.4616958166e-01	 4.3853756392e-01	 2.7319528936e+00
 1.0339011090e+00	 2.2045645495e-01	 1.5778711378e+00
 1.0288419523e+00	 2.4297501845e-01	 1.6769025633e+00
 1.0232562403e+00	 2.6551714118e-01	 1.7803475677e+00
 1.0171386304e+00	 2.8806552180e-01	 1.8868912047e+00
 1.0104844923e+00	 3.1060242923e-01	 1.9952351967e+00
 1.0032899415e+00	 3.3310973688e-01	 2.1041074715e+00
 9.9555187091e-01	 3.5556895959e-01	 2.2122720098e+00
 9.8726798056e-01	 3.7796129338e-01	 2.3185389262e+00
 9.7843680509e-01	 4.0026765764e-01	 2.4217747032e+00
 9.6905773849e-01	 4.2246873983e-01	 2.5209124886e+00
 9.5913105615e-01	 4.4454504244e-01	 2.6149623650e+00
 1.0478730608e+00	 2.2343566344e-01	 1.7062572553e+00
 1.0427455355e+00	 2.4625853872e-01	 1.7858553161e+00
 1.0370843392e+00	 2.6910529160e-01	 1.8683410708e+00
 1.0308840571e+00	 2.9195838693e-01	 1.9526293772e+00
 1.0241399962e+00	 3.1479985404e-01	 2.0376526144e+00
 1.0168482195e+00	 3.3761132136e-01	 2.1223687490e+00
 1.0090055781e+00	 3.6037405393e-01	 2.2057696583e+00
 1.0006097407e+00	 3.8306899364e-01	 2.2868896491e+00
 9.9165922235e-01	 4.0567680206e-01	 2.3648141012e+00
 9.8215340874e-01	 4.2817790565e-01	 2.4386881611e+00
 9.7209257902e-01	 4.5055254340e-01	 2.5077254076e+00
 1.0618450533e+00	 2.2641488062e-01	 1.8238125068e+00
 1.0566491593e+00	 2.4954206856e-01	 1.8854854461e+00
 1.0509124785e+00	 2.7269345248e-01	 1.9486418704e+00
 1.0446295239e+00	 2.9585126342e-01	 2.0124092638e+00
 1.0377955399e+00	 3.1899729109e-01	 2.0759332649e+00
 1.0304065371e+00	 3.4211291896e-01	 2.1383843627e+00
 1.0224593244e+00	 3.6517916227e-01	 2.1989648059e+00
 1.0139515398e+00	 3.8817670881e-01	 2.2569156700e+00
 1.0048816782e+00	 4.1108596225e-01	 2.3115240252e+00
 9.9524911719e-01	 4.3388708811e-01	 2.3621301432e+00
 9.8505413969e-01	 4.5656006187e-01	 2.4081346770e+00
 1.0758170752e+00	 2.2939410405e-01	 1.9286546265e+00
 1.0705528124e+00	 2.5282560529e-01	 1.9738861780e+00
 1.0647406468e+00	 2.7628162089e-01	 2.0193199390e+00
 1.0583750195e+00	 2.9974414809e-01	 2.0642794635e+00
 1.0514511123e+00	 3.2319473696e-01	 2.1081068723e+00
 1.0439648832e+00	 3.4661452602e-01	 2.1501682816e+00
 1.0359130991e+00	 3.6998428071e-01	 2.1898594016e+00
 1.0272933669e+00	 3.9328443469e-01	 2.2266112615e+00
 1.0181041618e+00	 4.1649513380e-01	 2.2598960136e+00
 1.0083448531e+00	 4.3959628256e-01	 2.2892327665e+00
 9.9801572759e-01	 4.6256759296e-01	 2.3141933932e+00
 1.0897891150e+00	 2.3237333130e-01	 2.0189966787e+00
 1.0844564832e+00	 2.5610914624e-01	 2.0492476004e+00
 1.0785688329e+00	 2.7986979391e-01	 2.0785435779e+00
 1.0721205328e+00	 3.0363703775e-01	 2.1063882654e+00
 1.0651067022e+00	 3.2739218821e-01	 2.1323040778e+00
 1.0575232466e+00	 3.5111613885e-01	 2.1558364499e+00
 1.0493668910e+00	 3.7478940531e-01	 2.1765582272e+00
 1.0406352111e+00	 3.9839216713e-01	 2.1940741545e+00
 1.0313266623e+00	 4.2190431230e-01	 2.2080254249e+00
 1.0214406059e+00	 4.4530548434e-01	 2.2180942497e+00
 1.0109773321e+00	 4.6857513176e-01	 2.2240084072e+00
 1.1037611613e+00	 2.3535255995e-01	 2.0931411270e+00
 1.0983601605e+00	 2.5939268872e-01	 2.1098506452e+00
 1.0923970255e+00	 2.8345796861e-01	 2.1245733103e+00
 1.0858660525e+00	 3.0752992922e-01	 2.1369774628e+00
 1.0787622985e+00	 3.3158964142e-01	 2.1467501812e+00
 1.0710816164e+00	 3.5561775379e-01	 2.1536004668e+00
 1.0628206892e+00	 3.7959453216e-01	 2.1572625270e+00
 1.0539770615e+00	 4.0349990196e-01	 2.1574991311e+00
 1.0445491690e+00	 4.2731349332e-01	 2.1541050097e+00
 1.0345363648e+00	 4.5101468878e-01	 2.1469102690e+00
 1.0239389427e+00	 4.7458267337e-01	 2.1357837894e+00
 1.1177332028e+00	 2.3833178755e-01	 2.1494743454e+00
 1.1122638330e+00	 2.6267623005e-01	 2.1540615166e+00
 1.1062252131e+00	 2.8704614204e-01	 2.1557562310e+00
 1.0996115674e+00	 3.1142281934e-01	 2.1543766285e+00
 1.0924178900e+00	 3.3578709316e-01	 2.1497593490e+00
 1.0846399814e+00	 3.6011936715e-01	 2.1417617361e+00
 1.0762744826e+00	 3.8439965732e-01	 2.1302641107e+00
 1.0673189073e+00	 4.0860763499e-01	 2.1151720940e+00
 1.0577716711e+00	 4.3272267244e-01	 2.0964189615e+00
 1.0476321190e+00	 4.5672389122e-01	 2.0739680066e+00
 1.0369005487e+00	 4.8059021287e-01	 2.0478148941e+00
 9.0728555439e-01	 4.2051531196e-01	 3.1643399237e+00
 8.9737784263e-01	 4.4126312680e-01	 3.3690638314e+00
 8.8695514163e-01	 4.6185565311e-01	 3.5611695273e+00
 8.7602031568e-01	 4.8227419740e-01	 3.7373598808e+00
 8.6457711653e-01	 5.0250008602e-01	 3.8944733526e+00
 8.5263018827e-01	 5.2251471715e-01	 4.0295132147e+00
 8.4018506873e-01	 5.4229961341e-01	 4.1396764060e+00
 8.2724818708e-01	 5.6183647501e-01	 4.2223817319e+00
 8.1382685776e-01	 5.8110723302e-01	 4.2752971133e+00
 7.9992927055e-01	 6.0009410240e-01	 4.2963655911e+00
 7.8556447689e-01	 6.1877963469e-01	 4.2838297980e+00
 9.2024682020e-01	 4.2652269377e-01	 3.0042225338e+00
 9.1019756922e-01	 4.4756690696e-01	 3.1766310461e+00
 8.9962597199e-01	 4.6845361321e-01	 3.3372187163e+00
 8.8853493372e-01	 4.8916385197e-01	 3.4831432550e+00
 8.7692825975e-01	 5.0967868283e-01	 3.6116839946e+00
 8.6481066051e-01	 5.2997923822e-01	 3.7202677890e+00
 8.5218775294e-01	 5.5004677681e-01	 3.8064946018e+00
 8.3906605808e-01	 5.6986273737e-01	 3.8681625207e+00
 8.2545299484e-01	 5.8940879285e-01	 3.9032919376e+00
 8.1135687000e-01	 6.0866690413e-01	 3.9101486310e+00
 7.9678686431e-01	 6.2761937350e-01	 3.8872654921e+00
 9.3320816615e-01	 4.3253011272e-01	 2.8609224092e+00
 9.2301737508e-01	 4.5387072610e-01	 3.0029052422e+00
 9.1229688070e-01	 4.7505161411e-01	 3.1337944626e+00
 9.0104962914e-01	 4.9605354914e-01	 3.2511688090e+00
 8.8927947934e-01	 5.1685732403e-01	 3.3527155131e+00
 8.7699120807e-01	 5.3744380545e-01	 3.4362531110e+00
 8.6419051138e-01	 5.5779398811e-01	 3.4997539905e+00
 8.5088400215e-01	 5.7788904936e-01	 3.5413664456e+00
 8.3707920380e-01	 5.9771040401e-01	 3.5594360055e+00
 8.2278454012e-01	 6.1723975887e-01	 3.5525258031e+00
 8.0800932113e-01	 6.3645916697e-01	 3.5194357558e+00
 9.4616958166e-01	 4.3853756392e-01	 2.7319528936e+00
 9.3583724974e-01	 4.6017457907e-01	 2.8454176159e+00
 9.2496785741e-01	 4.8164965041e-01	 2.9484540637e+00
 9.1356439173e-01	 5.0294328328e-01	 3.0390295152e+00
 9.0163076521e-01	 5.2403600375e-01	 3.1152074278e+00
 8.8917182099e-01	 5.4490841273e-01	 3.1751673834e+00
 8.7619333423e-01	 5.6554124098e-01	 3.2172248181e+00
 8.6270200965e-01	 5.8591540442e-01	 3.2398503337e+00
 8.4870547516e-01	 6.0601205972e-01	 3.2416883864e+00
 8.3421227156e-01	 6.2581265962e-01	 3.2215751466e+00
 8.1923183817e-01	 6.4529900787e-01	 3.1785553252e+00
 9.5913105615e-01	 4.4454504244e-01	 2.6149623650e+00
 9.4865718273e-01	 4.6647846072e-01	 2.7018336225e+00
 9.3763889177e-01	 4.8824771673e-01	 2.7788878449e+00
 9.2607921125e-01	 5.0983304877e-01	 2.8444496150e+00
 9.1398210728e-01	 5.3121471613e-01	 2.8969281694e+00
 9.0135248933e-01	 5.5237305398e-01	 2.9348346959e+00
 8.8819621169e-01	 5.7328852911e-01	 2.9567994602e+00
 8.7452007092e-01	 5.9394179600e-01	 2.9615885865e+00
 8.6033179942e-01	 6.1431375320e-01	 2.9481203121e+00
 8.4564005499e-01	 6.3438559937e-01	 2.9154805340e+00
 8.3045440627e-01	 6.5413888899e-01	 2.8629374704e+00
 9.7209257902e-01	 4.5055254340e-01	 2.5077254076e+00
 9.6147716358e-01	 4.7278236590e-01	 2.5699442030e+00
 9.5030997344e-01	 4.9484580769e-01	 2.6229104705e+00
 9.3859407749e-01	 5.1672283999e-01	 2.6652760489e+00
 9.2633349545e-01	 5.3839345531e-01	 2.6957666696e+00
 9.1353320315e-01	 5.5983772310e-01	 2.7131968178e+00
 9.0019913396e-01	 5.8103584616e-01	 2.7164844663e+00
 8.8633817630e-01	 6.0196821755e-01	 2.7046655305e+00
 8.7195816709e-01	 6.2261547767e-01	 2.6769078881e+00
 8.5706788109e-01	 6.4295857113e-01	 2.6325248062e+00
 8.4167701627e-01	 6.6297880312e-01	 2.5709876187e+00
 9.8505413969e-01	 4.5656006187e-01	 2.4081346770e+00
 9.7429718182e-01	 4.7908628947e-01	 2.4476576982e+00
 9.6298109206e-01	 5.0144391789e-01	 2.4784529356e+00
 9.5110898024e-01	 5.2361265129e-01	 2.4994705581e+00
 9.3868491966e-01	 5.4557221543e-01	 2.5097246083e+00
 9.2571395249e-01	 5.6730241398e-01	 2.5083056326e+00
 9.1220209123e-01	 5.8878318580e-01	 2.4943932265e+00
 8.9815631616e-01	 6.0999466250e-01	 2.4672683634e+00
 8.8358456866e-01	 6.3091722636e-01	 2.4263253745e+00
 8.6849574052e-01	 6.5153156789e-01	 2.3710834425e+00
 8.5289965900e-01	 6.7181874303e-01	 2.3011974735e+00
 9.9801572759e-01	 4.6256759296e-01	 2.3141933932e+00
 9.8711722698e-01	 4.8539022628e-01	 2.3329923886e+00
 9.7565223730e-01	 5.0804204194e-01	 2.3435551764e+00
 9.6362390926e-01	 5.3050247707e-01	 2.3451023953e+00
 9.5103636979e-01	 5.5275099062e-01	 2.3369092588e+00
 9.3789472741e-01	 5.7476712055e-01	 2.3183161552e+00
 9.2420507372e-01	 5.9653054171e-01	 2.2887392020e+00
 9.0997448083e-01	 6.1802112431e-01	 2.2476806439e+00
 8.9521099465e-01	 6.3921899248e-01	 2.1947389821e+00
 8.7992362394e-01	 6.6010458265e-01	 2.1296187165e+00
 8.6412232530e-01	 6.8065870150e-01	 2.0521395847e+00
 1.0109773321e+00	 4.6857513176e-01	 2.2240084072e+00
 9.9993728860e-01	 4.9169417118e-01	 2.2240696018e+00
 9.8832339879e-01	 5.1464017447e-01	 2.2163592435e+00
 9.7613885435e-01	 5.3739231168e-01	 2.2003415907e+00
 9.6338783578e-01	 5.5992977503e-01	 2.1755268781e+00
 9.5007551796e-01	 5.8223183669e-01	 2.1414800806e+00
 9.3620807160e-01	 6.0427790756e-01	 2.0978296707e+00
 9.2179266067e-01	 6.2604759642e-01	 2.0442762757e+00
 9.0683743556e-01	 6.4752076925e-01	 1.9806011404e+00
 8.9135152203e-01	 6.6867760842e-01	 1.9066742950e+00
 8.7534500600e-01	 6.8949867131e-01	 1.8224623301e+00
 1.0239389427e+00	 4.7458267337e-01	 2.1357837894e+00
 1.0127573562e+00	 4.9799811902e-01	 2.1191073394e+00
 1.0009945662e+00	 5.2123831007e-01	 2.0951029884e+00
 9.8865380527e-01	 5.4428214952e-01	 2.0634527244e+00
 9.7573930754e-01	 5.6710856278e-01	 2.0238765928e+00
 9.6225631419e-01	 5.8969655631e-01	 1.9761398159e+00
 9.4821107509e-01	 6.1202527703e-01	 1.9200599410e+00
 9.3361084602e-01	 6.3407407228e-01	 1.8555139416e+00
 9.1846388189e-01	 6.5582254989e-01	 1.7824451930e+00
 9.0277942546e-01	 6.7725063818e-01	 1.7008702399e+00
 8.8656769194e-01	 6.9833864525e-01	 1.6108852699e+00
 1.0369005487e+00	 4.8059021287e-01	 2.0478148941e+00
 1.0255774193e+00	 5.0430206465e-01	 2.0164143768e+00
 1.0136657292e+00	 5.2783644336e-01	 1.9781142190e+00
 1.0011687518e+00	 5.5117198494e-01	 1.9327891596e+00
 9.8809077496e-01	 5.7428734802e-01	 1.8803447380e+00
 9.7443710616e-01	 5.9716127332e-01	 1.8207229548e+00
 9.6021407437e-01	 6.1977264379e-01	 1.7539079939e+00
 9.4542902724e-01	 6.4210054532e-01	 1.6799319485e+00
 9.3009032415e-01	 6.6412432764e-01	 1.5988804852e+00
 9.1420732488e-01	 6.8582366495e-01	 1.5108983783e+00
 8.9779037395e-01	 7.0717861609e-01	 1.4161948439e+00
 7.8556447689e-01	 6.1877963469e-01	 4.2838297980e+00
 7.7074237018e-01	 6.3714677154e-01	 4.2383193647e+00
 7.5547365803e-01	 6.5517890056e-01	 4.1611359870e+00
 7.3976984406e-01	 6.7285989945e-01	 4.0518848117e+00
 7.2364320173e-01	 6.9017418182e-01	 3.9103344443e+00
 7.0710674268e-01	 7.0710674268e-01	 3.7364271838e+00
 6.9017418182e-01	 7.2364320173e-01	 3.5302880904e+00
 6.7285989945e-01	 7.3976984406e-01	 3.2922327641e+00
 6.5517890056e-01	 7.5547365803e-01	 3.0227737249e+00
 6.3714677154e-01	 7.7074237018e-01	 2.7226253031e+00
 6.1877963469e-01	 7.8556447689e-01	 2.3927069633e+00
 7.9678686431e-01	 6.2761937350e-01	 3.8872654921e+00
 7.8175301251e-01	 6.4624889890e-01	 3.8349238051e+00
 7.6626617517e-01	 6.6453863063e-01	 3.7540229657e+00
 7.5033802025e-01	 6.8247221607e-01	 3.6443393205e+00
 7.3398099654e-01	 7.0003384616e-01	 3.5057951524e+00
 7.1720830156e-01	 7.1720830156e-01	 3.3384674808e+00
 7.0003384616e-01	 7.3398099654e-01	 3.1425958207e+00
 6.8247221607e-01	 7.5033802025e-01	 2.9185887909e+00
 6.6453863063e-01	 7.6626617517e-01	 2.6670294747e+00
 6.4624889890e-01	 7.8175301251e-01	 2.3886794486e+00
 6.2761937350e-01	 7.9678686431e-01	 2.0844814110e+00
 8.0800932113e-01	 6.3645916697e-01	 3.5194357558e+00
 7.9276372292e-01	 6.5535108254e-01	 3.4601490129e+00
 7.7705875904e-01	 6.7389841857e-01	 3.3752161669e+00
 7.6090626178e-01	 6.9208459212e-01	 3.2645688708e+00
 7.4431885526e-01	 7.0989357146e-01	 3.1282682058e+00
 7.2730992290e-01	 7.2730992290e-01	 2.9665121663e+00
 7.0989357146e-01	 7.4431885526e-01	 2.7796422235e+00
 6.9208459212e-01	 7.6090626178e-01	 2.5681488685e+00
 6.7389841857e-01	 7.7705875904e-01	 2.3326760480e+00
 6.5535108254e-01	 7.9276372292e-01	 2.0740244163e+00
 6.3645916697e-01	 8.0800932113e-01	 1.7931533438e+00
 8.1923183817e-01	 6.4529900787e-01	 3.1785553252e+00
 8.0377449242e-01	 6.6445331502e-01	 3.1123586613e+00
 7.8785140083e-01	 6.8325825674e-01	 3.0232348329e+00
 7.7147456002e-01	 7.0169701976e-01	 2.9112556543e+00
 7.5465676946e-01	 7.1975334968e-01	 2.7766068486e+00
 7.3741159845e-01	 7.3741159845e-01	 2.6195943336e+00
 7.1975334968e-01	 7.5465676946e-01	 2.4406496993e+00
 7.0169701976e-01	 7.7147456002e-01	 2.2403347880e+00
 6.8325825674e-01	 7.8785140083e-01	 2.0193452976e+00
 6.6445331502e-01	 8.0377449242e-01	 1.7785133400e+00
 6.4529900787e-01	 8.1923183817e-01	 1.5188088995e+00
 8.3045440627e-01	 6.5413888899e-01	 2.8629374704e+00
 8.1478531202e-01	 6.7355558892e-01	 2.7900069841e+00
 7.9864409172e-01	 6.9261813750e-01	 2.6966804202e+00
 7.8204290635e-01	 7.1130949113e-01	 2.5831553179e+00
 7.6499473070e-01	 7.2961317276e-01	 2.4497285686e+00
 7.4751331996e-01	 7.4751331996e-01	 2.2968016168e+00
 7.2961317276e-01	 7.6499473070e-01	 2.1248849589e+00
 7.1130949113e-01	 7.8204290635e-01	 1.9346018582e+00
 6.9261813750e-01	 7.9864409172e-01	 1.7266912065e+00
 6.7355558892e-01	 8.1478531202e-01	 1.5020094699e+00
 6.5413888899e-01	 8.3045440627e-01	 1.2615316662e+00
 8.4167701627e-01	 6.6297880312e-01	 2.5709876187e+00
 8.2579617273e-01	 6.8265789680e-01	 2.4916329308e+00
 8.0943682291e-01	 7.0197805320e-01	 2.3942313138e+00
 7.9261129213e-01	 7.2092199839e-01	 2.2790922637e+00
 7.7533273054e-01	 7.3947303264e-01	 2.1466110127e+00
 7.5761507918e-01	 7.5761507918e-01	 1.9972727552e+00
 7.3947303264e-01	 7.7533273054e-01	 1.8316562714e+00
 7.2092199839e-01	 7.9261129213e-01	 1.6504368743e+00
 7.0197805320e-01	 8.0943682291e-01	 1.4543886176e+00
 6.8265789680e-01	 8.2579617273e-01	 1.2443857059e+00
 6.6297880312e-01	 8.4167701627e-01	 1.0214030605e+00
 8.5289965900e-01	 6.7181874303e-01	 2.3011974735e+00
 8.3680706555e-01	 6.9176023123e-01	 2.2158547775e+00
 8.2022958558e-01	 7.1133799620e-01	 2.1146379507e+00
 8.0317970874e-01	 7.3053453368e-01	 1.9979553119e+00
 7.8567076052e-01	 7.4933292129e-01	 1.8662882174e+00
 7.6771686787e-01	 7.6771686787e-01	 1.7201944208e+00
 7.4933292129e-01	 7.8567076052e-01	 1.5603109221e+00
 7.3053453368e-01	 8.0317970874e-01	 1.3873562411e+00
 7.1133799620e-01	 8.2022958558e-01	 1.2021320570e+00
 6.9176023123e-01	 8.3680706555e-01	 1.0055241597e+00
 6.7181874303e-01	 8.5289965900e-01	 7.9850266986e-01
 8.6412232530e-01	 6.8065870150e-01	 2.0521395847e+00
 8.4781798149e-01	 7.0086258477e-01	 1.9613651493e+00
 8.3102237091e-01	 7.2069795885e-01	 1.8567183171e+00
 8.1374814754e-01	 7.4014708916e-01	 1.7386936949e+00
 7.9600881222e-01	 7.5919283063e-01	 1.6078471259e+00
 7.7781867777e-01	 7.7781867777e-01	 1.4647982867e+00
 7.5919283063e-01	 7.9600881222e-01	 1.3102328616e+00
 7.4014708916e-01	 8.1374814754e-01	 1.1449042344e+00
 7.2069795885e-01	 8.3102237091e-01	 9.6963464272e-01
 7.0086258477e-01	 8.4781798149e-01	 7.8531574540e-01
 6.8065870150e-01	 8.6412232530e-01	 5.9290856148e-01
 8.7534500600e-01	 6.8949867131e-01	 1.8224623301e+00
 8.5882891156e-01	 7.0996495000e-01	 1.7269264194e+00
 8.4181517008e-01	 7.3005793351e-01	 1.6193537837e+00
 8.2431659990e-01	 7.4975965697e-01	 1.5003133524e+00
 8.0634687718e-01	 7.6905275264e-01	 1.3704243658e+00
 7.8792050064e-01	 7.8792050064e-01	 1.2303583132e+00
 7.6905275264e-01	 8.0634687718e-01	 1.0808405286e+00
 7.4975965697e-01	 8.2431659990e-01	 9.2265138981e-01
 7.3005793351e-01	 8.4181517008e-01	 7.5662707023e-01
 7.0996495000e-01	 8.5882891156e-01	 5.8365979498e-01
 6.8949867131e-01	 8.7534500600e-01	 4.0469756162e-01
 8.8656769194e-01	 6.9833864525e-01	 1.6108852699e+00
 8.6983984677e-01	 7.1906731947e-01	 1.5113664494e+00
 8.5260797430e-01	 7.3941791255e-01	 1.4014852513e+00
 8.3488505719e-01	 7.5937222927e-01	 1.2818735004e+00
 8.1668494696e-01	 7.7891267924e-01	 1.1532032648e+00
 7.9802232821e-01	 7.9802232821e-01	 1.0161882342e+00
 7.7891267924e-01	 8.1668494696e-01	 8.7158483140e-01
 7.5937222927e-01	 8.3488505719e-01	 7.2019300730e-01
 7.3941791255e-01	 8.5260797430e-01	 5.6285666903e-01
 7.1906731947e-01	 8.6983984677e-01	 4.0046369669e-01
 6.9833864525e-01	 8.8656769194e-01	 2.3394550753e-01
 8.9779037395e-01	 7.0717861609e-01	 1.4161948439e+00
 8.8085077813e-01	 7.2816968575e-01	 1.3135746438e+00
 8.6340077474e-01	 7.4877788830e-01	 1.2021095777e+00
 8.4545351079e-01	 7.6898479821e-01	 1.0824834510e+00
 8.2702301313e-01	 7.8877260239e-01	 9.5541108297e-01
 8.0812415225e-01	 8.0812415225e-01	 8.2163922370e-01
 7.8877260239e-01	 8.2702301313e-01	 6.8194727400e-01
 7.6898479821e-01	 8.4545351079e-01	 5.3714776127e-01
 7.4877788830e-01	 8.6340077474e-01	 3.8808652313e-01
 7.2816968575e-01	 8.8085077813e-01	 2.3564255419e-01
 7.0717861609e-01	 8.9779037395e-01	 8.0727474437e-02
 6.1877963469e-01	 7.8556447689e-01	 2.3927069633e+00
 6.0009410240e-01	 7.9992927055e-01	 2.0370457329e+00
 5.8110723302e-01	 8.1382685776e-01	 1.6612536980e+00
 5.6183647501e-01	 8.2724818708e-01	 1.2686953648e+00
 5.4229961341e-01	 8.4018506873e-01	 8.6260686152e-01
 5.2251471715e-01	 8.5263018827e-01	 4.4608245866e-01
 5.0250008602e-01	 8.6457711653e-01	 2.2062382041e-02
 4.8227419740e-01	 8.7602031568e-01	-4.0667801112e-01
 4.6185565311e-01	 8.8695514163e-01	-8.3753763485e-01
 4.4126312680e-01	 8.9737784263e-01	-1.2680976126e+00
 4.2051531196e-01	 9.0728555439e-01	-1.6961277214e+00
 6.2761937350e-01	 7.9678686431e-01	 2.0844814110e+00
 6.0866690413e-01	 8.1135687000e-01	 1.7575675339e+00
 5.8940879285e-01	 8.2545299484e-01	 1.4124674930e+00
 5.6986273737e-01	 8.3906605808e-01	 1.0522774306e+00
 5.5004677681e-01	 8.5218775294e-01	 6.7997679192e-01
 5.2997923822e-01	 8.6481066051e-01	 2.9841587807e-01
 5.0967868283e-01	 8.7692825975e-01	-8.9695441810e-02
 4.8916385197e-01	 8.8853493372e-01	-4.8179779375e-01
 4.6845361321e-01	 8.9962597199e-01	-8.7549108218e-01
 4.4756690696e-01	 9.1019756922e-01	-1.2685419504e+00
 4.2652269377e-01	 9.2024682020e-01	-1.6588898883e+00
 6.3645916697e-01	 8.0800932113e-01	 1.7931533438e+00
 6.1723975887e-01	 8.2278454012e-01	 1.4923986978e+00
 5.9771040401e-01	 8.3707920380e-01	 1.1753209107e+00
 5.7788904936e-01	 8.5088400215e-01	 8.4476380671e-01
 5.5779398811e-01	 8.6419051138e-01	 5.0346539471e-01
 5.3744380545e-01	 8.7699120807e-01	 1.5404639471e-01
 5.1685732403e-01	 8.8927947934e-01	-2.0100020397e-01
 4.9605354914e-01	 9.0104962914e-01	-5.5931849069e-01
 4.7505161411e-01	 9.1229688070e-01	-9.1869783543e-01
 4.5387072610e-01	 9.2301737508e-01	-1.2770799026e+00
 4.3253011272e-01	 9.3320816615e-01	-1.6325644453e+00
 6.4529900787e-01	 8.1923183817e-01	 1.5188088995e+00
 6.2581265962e-01	 8.3421227156e-01	 1.2418620581e+00
 6.0601205972e-01	 8.4870547516e-01	 9.5036856208e-01
 5.8591540442e-01	 8.6270200965e-01	 6.4693559392e-01
 5.6554124098e-01	 8.7619333423e-01	 3.3407463967e-01
 5.4490841273e-01	 8.8917182099e-01	 1.4190930446e-02
 5.2403600375e-01	 9.0163076521e-01	-3.1042620477e-01
 5.0294328328e-01	 9.1356439173e-01	-6.3761201685e-01
 4.8164965041e-01	 9.2496785741e-01	-9.6533399495e-01
 4.6017457907e-01	 9.3583724974e-01	-1.2916984642e+00
 4.3853756392e-01	 9.4616958166e-01	-1.6149560897e+00
 6.5413888899e-01	 8.3045440627e-01	 1.2615316662e+00
 6.3438559937e-01	 8.4564005499e-01	 1.0062650122e+00
 6.1431375320e-01	 8.6033179942e-01	 7.3813698078e-01
 5.9394179600e-01	 8.7452007092e-01	 4.5953343900e-01
 5.7328852911e-01	 8.8819621169e-01	 1.7275394815e-01
 5.5237305398e-01	 9.0135248933e-01	-1.1999793706e-01
 5.3121471613e-01	 9.1398210728e-01	-4.1662357170e-01
 5.0983304877e-01	 9.2607921125e-01	-7.1513727208e-01
 4.8824771673e-01	 9.3763889177e-01	-1.0136734679e+00
 4.6647846072e-01	 9.4865718273e-01	-1.3104929142e+00
 4.4454504244e-01	 9.5913105615e-01	-1.6039879292e+00
 6.6297880312e-01	 8.4167701627e-01	 1.0214030605e+00
 6.4295857113e-01	 8.5706788109e-01	 7.8590076006e-01
 6.2261547767e-01	 8.7195816709e-01	 5.3912670510e-01
 6.0196821755e-01	 8.8633817630e-01	 2.8326044205e-01
 5.8103584616e-01	 9.0019913396e-01	 2.0403906712e-02
 5.5983772310e-01	 9.1353320315e-01	-2.4742747496e-01
 5.3839345531e-01	 9.2633349545e-01	-5.1831299571e-01
 5.1672283999e-01	 9.3859407749e-01	-7.9043413545e-01
 4.9484580769e-01	 9.5030997344e-01	-1.0620812438e+00
 4.7278236590e-01	 9.6147716358e-01	-1.3316593967e+00
 4.5055254340e-01	 9.7209257902e-01	-1.5976933913e+00
 6.7181874303e-01	 8.5289965900e-01	 7.9850266986e-01
 6.5153156789e-01	 8.6849574052e-01	 5.8104943893e-01
 6.3091722636e-01	 8.8358456866e-01	 3.5381418985e-01
 6.0999466250e-01	 8.9815631616e-01	 1.1878482902e-01
 5.8878318580e-01	 9.1220209123e-01	-1.2212031744e-01
 5.6730241398e-01	 9.2571395249e-01	-3.6706065569e-01
 5.4557221543e-01	 9.3868491966e-01	-6.1428088739e-01
 5.2361265129e-01	 9.5110898024e-01	-8.6211793765e-01
 5.0144391789e-01	 9.6298109206e-01	-1.1090072044e+00
 4.7908628947e-01	 9.7429718182e-01	-1.3534880893e+00
 4.5656006187e-01	 9.8505413969e-01	-1.5942087744e+00
 6.8065870150e-01	 8.6412232530e-01	 5.9290856148e-01
 6.6010458265e-01	 8.7992362394e-01	 3.9197916321e-01
 6.3921899248e-01	 8.9521099465e-01	 1.8265356355e-01
 6.1802112431e-01	 9.0997448083e-01	-3.3257589371e-02
 5.9653054171e-01	 9.2420507372e-01	-2.5400583221e-01
 5.7476712055e-01	 9.3789472741e-01	-4.7791234469e-01
 5.5275099062e-01	 9.5103636979e-01	-7.0337491480e-01
 5.3050247707e-01	 9.6362390926e-01	-9.2887436804e-01
 5.0804204194e-01	 9.7565223730e-01	-1.1529804194e+00
 4.8539022628e-01	 9.8711722698e-01	-1.3743569087e+00
 4.6256759296e-01	 9.9801572759e-01	-1.5917663817e+00
 6.8949867131e-01	 8.7534500600e-01	 4.0469756162e-01
 6.6867760842e-01	 8.9135152203e-01	 2.1894697900e-01
 6.4752076925e-01	 9.0683743556e-01	 2.6078244890e-02
 6.2604759642e-01	 9.2179266067e-01	-1.7226115310e-01
 6.0427790756e-01	 9.3620807160e-01	-3.7447912315e-01
 5.8223183669e-01	 9.5007551796e-01	-5.7904578601e-01
 5.5992977503e-01	 9.6338783578e-01	-7.8449988895e-01
 5.3739231168e-01	 9.7613885435e-01	-9.8945477737e-01
 5.1464017447e-01	 9.8832339879e-01	-1.1926038848e+00
 4.9169417118e-01	 9.9993728860e-01	-1.3927257019e+00
 4.6857513176e-01	 1.0109773321e+00	-1.5886881870e+00
 6.9833864525e-01	 8.8656769194e-01	 2.3394550753e-01
 6.7725063818e-01	 9.0277942546e-01	 6.2199740098e-02
 6.5582254989e-01	 9.1846388189e-01	-1.1549756915e-01
 6.3407407228e-01	 9.3361084602e-01	-2.9764826563e-01
 6.1202527703e-01	 9.4821107509e-01	-4.8280338095e-01
 5.8969655631e-01	 9.6225631419e-01	-6.6956935930e-01
 5.6710856278e-01	 9.7573930754e-01	-8.5661396584e-01
 5.4428214952e-01	 9.8865380527e-01	-1.0426718411e+00
 5.2123831007e-01	 1.0009945662e+00	-1.2265496639e+00
 4.9799811902e-01	 1.0127573562e+00	-1.4071308836e+00
 4.7458267337e-01	 1.0239389427e+00	-1.5833799832e+00
 7.0717861609e-01	 8.9779037395e-01	 8.0727474437e-02
 6.8582366495e-01	 9.1420732488e-01	-7.8025087452e-02
 6.6412432764e-01	 9.3009032415e-01	-2.4167753220e-01
 6.4210054532e-01	 9.4542902724e-01	-4.0886746830e-01
 6.1977264379e-01	 9.6021407437e-01	-5.7827603432e-01
 5.9716127332e-01	 9.7443710616e-01	-7.4863358474e-01
 5.7428734802e-01	 9.8809077496e-01	-9.1872513774e-01
 5.5117198494e-01	 1.0011687518e+00	-1.0873955520e+00
 5.2783644336e-01	 1.0136657292e+00	-1.2535543969e+00
 5.0430206465e-01	 1.0255774193e+00	-1.4161804774e+00
 4.8059021287e-01	 1.0369005487e+00	-1.5743259736e+00
 4.2051531196e-01	 9.0728555439e-01	-1.6961277214e+00
 3.9963233635e-01	 9.1667565331e-01	-2.1186220303e+00
 3.7863132607e-01	 9.2554773768e-01	-2.5317003781e+00
 3.5753072471e-01	 9.3390154697e-01	-2.9321488045e+00
 3.3634880088e-01	 9.4173765446e-01	-3.3171221669e+00
 3.1510360378e-01	 9.4905744632e-01	-3.6841485447e+00
 2.9381292096e-01	 9.5586309813e-01	-4.0311307164e+00
 2.7249423836e-01	 9.6215754903e-01	-4.3563448002e+00
 2.5116470275e-01	 9.6794447360e-01	-4.6584361797e+00
 2.2984108677e-01	 9.7322825186e-01	-4.9364128537e+00
 2.0853975653e-01	 9.7801393759e-01	-5.1896363744e+00
 4.2652269377e-01	 9.2024682020e-01	-1.6588898883e+00
 4.0534138893e-01	 9.2977106384e-01	-2.0441078282e+00
 3.8404036321e-01	 9.3876989269e-01	-2.4209990162e+00
 3.6263832368e-01	 9.4724304252e-01	-2.7866454162e+00
 3.4115379992e-01	 9.5519109478e-01	-3.1384621079e+00
 3.1960509898e-01	 9.6261545544e-01	-3.4742015234e+00
 2.9801026253e-01	 9.6951833117e-01	-3.7919550266e+00
 2.7638702629e-01	 9.7590270310e-01	-4.0901519110e+00
 2.5475278201e-01	 9.8177229830e-01	-4.3675559198e+00
 2.3312454192e-01	 9.8713155936e-01	-4.6232594119e+00
 2.1151890594e-01	 9.9198561225e-01	-4.8566753153e+00
 4.3253011272e-01	 9.3320816615e-01	-1.6325644453e+00
 4.1105047682e-01	 9.4286655534e-01	-1.9832430770e+00
 3.8944943380e-01	 9.5199212946e-01	-2.3265341069e+00
 3.6774595423e-01	 9.6058462056e-01	-2.6597959337e+00
 3.4595882866e-01	 9.6864461828e-01	-2.9806870535e+00
 3.2410662201e-01	 9.7617354839e-01	-3.2871701435e+00
 3.0220763005e-01	 9.8317364865e-01	-3.5775137379e+00
 2.8027983830e-01	 9.8964794217e-01	-3.8502915591e+00
 2.5834088346e-01	 9.9560020850e-01	-4.1043795929e+00
 2.3640801737e-01	 1.0010349528e+00	-4.3389510116e+00
 2.1449807377e-01	 1.0059573733e+00	-4.5534690717e+00
 4.3853756392e-01	 9.4616958166e-01	-1.6149560897e+00
 4.1675959534e-01	 9.5596211712e-01	-1.9336620147e+00
 3.9485853341e-01	 9.6521443720e-01	-2.2457866210e+00
 3.7285361218e-01	 9.7392627021e-01	-2.5489457776e+00
 3.5076388320e-01	 9.8209821399e-01	-2.8410250276e+00
 3.2860816921e-01	 9.8973171411e-01	-3.1201835338e+00
 3.0640502009e-01	 9.9682903942e-01	-3.3848558464e+00
 2.8417267119e-01	 1.0033932550e+00	-3.6337515474e+00
 2.6192900415e-01	 1.0094281929e+00	-3.8658528405e+00
 2.3969151044e-01	 1.0149384209e+00	-4.0804101784e+00
 2.1747725758e-01	 1.0199292094e+00	-4.2769360344e+00
 4.4454504244e-01	 9.5913105615e-01	-1.6039879292e+00
 4.2246873983e-01	 9.6905773849e-01	-1.8931267906e+00
 4.0026765764e-01	 9.7843680509e-01	-2.1763740251e+00
 3.7796129338e-01	 9.8726798056e-01	-2.4515845016e+00
 3.5556895959e-01	 9.9555187091e-01	-2.7168548509e+00
 3.3310973688e-01	 1.0032899415e+00	-2.9705272877e+00
 3.1060242923e-01	 1.0104844923e+00	-3.2111914688e+00
 2.8806552180e-01	 1.0171386304e+00	-3.4376844291e+00
 2.6551714118e-01	 1.0232562403e+00	-3.6490886510e+00
 2.4297501845e-01	 1.0288419523e+00	-3.8447283433e+00
 2.2045645495e-01	 1.0339011090e+00	-4.0241640204e+00
 4.5055254340e-01	 9.7209257902e-01	-1.5976933913e+00
 4.2817790565e-01	 9.8215340874e-01	-1.8595187464e+00
 4.0567680206e-01	 9.9165922235e-01	-2.1160409963e+00
 3.8306899364e-01	 1.0006097407e+00	-2.3653360044e+00
 3.6037405393e-01	 1.0090055781e+00	-2.6056959155e+00
 3.3761132136e-01	 1.0168482195e+00	-2.8356328688e+00
 3.1479985404e-01	 1.0241399962e+00	-3.0538809458e+00
 2.9195838693e-01	 1.0308840571e+00	-3.2593963793e+00
 2.6910529160e-01	 1.0370843392e+00	-3.4513560682e+00
 2.4625853872e-01	 1.0427455355e+00	-3.6291544579e+00
 2.2343566344e-01	 1.0478730608e+00	-3.7923988638e+00
 4.5656006187e-01	 9.8505413969e-01	-1.5942087744e+00
 4.3388708811e-01	 9.9524911719e-01	-1.8308303882e+00
 4.1108596225e-01	 1.0048816782e+00	-2.0626508716e+00
 3.8817670881e-01	 1.0139515398e+00	-2.2879495163e+00
 3.6517916227e-01	 1.0224593244e+00	-2.5051987691e+00
 3.4211291896e-01	 1.0304065371e+00	-2.7130678537e+00
 3.1899729109e-01	 1.0377955399e+00	-2.9104248073e+00
 2.9585126342e-01	 1.0446295239e+00	-3.0963369459e+00
 2.7269345248e-01	 1.0509124785e+00	-3.2700697916e+00
 2.4954206856e-01	 1.0566491593e+00	-3.4310845085e+00
 2.2641488062e-01	 1.0618450533e+00	-3.5790339085e+00
 4.6256759296e-01	 9.9801572759e-01	-1.5917663817e+00
 4.3959628256e-01	 1.0083448531e+00	-1.8051579860e+00
 4.1649513380e-01	 1.0181041618e+00	-2.0141777662e+00
 3.9328443469e-01	 1.0272933669e+00	-2.2172912893e+00
 3.6998428071e-01	 1.0359130991e+00	-2.4131364335e+00
 3.4661452602e-01	 1.0439648832e+00	-2.6005269364e+00
 3.2319473696e-01	 1.0514511123e+00	-2.7784545201e+00
 2.9974414809e-01	 1.0583750195e+00	-2.9460895988e+00
 2.7628162089e-01	 1.0647406468e+00	-3.1027805873e+00
 2.5282560529e-01	 1.0705528124e+00	-3.2480518477e+00
 2.2939410405e-01	 1.0758170752e+00	-3.3816003193e+00
 4.6857513176e-01	 1.0109773321e+00	-1.5886881870e+00
 4.4530548434e-01	 1.0214406059e+00	-1.7806947455e+00
 4.2190431230e-01	 1.0313266623e+00	-1.9686992999e+00
 3.9839216713e-01	 1.0406352111e+00	-2.1513369292e+00
 3.7478940531e-01	 1.0493668910e+00	-2.3273963934e+00
 3.5111613885e-01	 1.0575232466e+00	-2.4958236257e+00
 3.2739218821e-01	 1.0651067022e+00	-2.6557239485e+00
 3.0363703775e-01	 1.0721205328e+00	-2.8063630080e+00
 2.7986979391e-01	 1.0785688329e+00	-2.9471664375e+00
 2.5610914624e-01	 1.0844564832e+00	-3.0777182701e+00
 2.3237333130e-01	 1.0897891150e+00	-3.1977581385e+00
 4.7458267337e-01	 1.0239389427e+00	-1.5833799832e+00
 4.5101468878e-01	 1.0345363648e+00	-1.7557245007e+00
 4.2731349332e-01	 1.0445491690e+00	-1.9243898781e+00
 4.0349990196e-01	 1.0539770615e+00	-2.0881643111e+00
 3.7959453216e-01	 1.0628206892e+00	-2.2459731942e+00
 3.5561775379e-01	 1.0710816164e+00	-2.3968825751e+00
 3.3158964142e-01	 1.0787622985e+00	-2.5401014641e+00
 3.0752992922e-01	 1.0858660525e+00	-2.6749829844e+00
 2.8345796861e-01	 1.0923970255e+00	-2.8010243620e+00
 2.5939268872e-01	 1.0983601605e+00	-2.9178657658e+00
 2.3535255995e-01	 1.1037611613e+00	-3.0252880220e+00
 4.8059021287e-01	 1.0369005487e+00	-1.5743259736e+00
 4.5672389122e-01	 1.0476321190e+00	-1.7286158821e+00
 4.3272267244e-01	 1.0577716711e+00	-1.8795144790e+00
 4.0860763499e-01	 1.0673189073e+00	-2.0259470288e+00
 3.8439965732e-01	 1.0762744826e+00	-2.1669615976e+00
 3.6011936715e-01	 1.0846399814e+00	-2.3017324884e+00
 3.3578709316e-01	 1.0924178900e+00	-2.4295626488e+00
 3.1142281934e-01	 1.0996115674e+00	-2.5498850251e+00
 2.8704614204e-01	 1.1062252131e+00	-2.6622628544e+00
 2.6267623005e-01	 1.1122638330e+00	-2.7663888928e+00
 2.3833178755e-01	 1.1177332028e+00	-2.8620835948e+00
 2.0853975653e-01	 9.7801393759e-01	-5.1896363744e+00
 1.8727515887e-01	 9.8230750859e-01	-5.4187755355e+00
 1.6606427394e-01	 9.8611491462e-01	-5.6241535804e+00
 1.4492210489e-01	 9.8944302882e-01	-5.8050938783e+00
 1.2386314479e-01	 9.9229925915e-01	-5.9611422513e+00
 1.0290135811e-01	 9.9469151154e-01	-6.0920589629e+00
 8.2050164801e-02	 9.9662815290e-01	-6.1978095149e+00
 6.1322427094e-02	 9.9811797387e-01	-6.2785543952e+00
 4.0730438957e-02	 9.9917015173e-01	-6.3346379261e+00
 2.0285918027e-02	 9.9979421360e-01	-6.3665763612e+00
 0.0000000000e+00	 1.0000000000e+00	-6.3750453822e+00
 2.1151890594e-01	 9.9198561225e-01	-4.8566753153e+00
 1.8995052729e-01	 9.9634052019e-01	-5.0681308169e+00
 1.6843662870e-01	 1.0002023179e+00	-5.2576504768e+00
 1.4699242765e-01	 1.0035779768e+00	-5.4246379228e+00
 1.2563262425e-01	 1.0064750105e+00	-5.5687091101e+00
 1.0437138247e-01	 1.0089014381e+00	-5.6896843116e+00
 8.3222313965e-02	 1.0108657458e+00	-5.7875789676e+00
 6.2198464722e-02	 1.0123768500e+00	-5.8625935346e+00
 4.1312304334e-02	 1.0134440591e+00	-5.9151024781e+00
 2.0575717834e-02	 1.0140770361e+00	-5.9456425545e+00
 0.0000000000e+00	 1.0142857623e+00	-5.9549005294e+00
 2.1449807377e-01	 1.0059573733e+00	-4.5534690717e+00
 1.9262591225e-01	 1.0103736186e+00	-4.7479985053e+00
 1.7080899813e-01	 1.0142898083e+00	-4.9223352693e+00
 1.4906276320e-01	 1.0177130121e+00	-5.0759511209e+00
 1.2740211465e-01	 1.0206508496e+00	-5.2085207842e+00
 1.0584141592e-01	 1.0231114525e+00	-5.3199139984e+00
 8.4394470374e-02	 1.0251034268e+00	-5.4101864662e+00
 6.3074507764e-02	 1.0266358144e+00	-5.4795698413e+00
 4.1894173308e-02	 1.0277180546e+00	-5.5284608940e+00
 2.0865519432e-02	 1.0283599470e+00	-5.5574099986e+00
 0.0000000000e+00	 1.0285716130e+00	-5.5671090832e+00
 2.1747725758e-01	 1.0199292094e+00	-4.2769360344e+00
 1.9530131157e-01	 1.0244067923e+00	-4.4553032608e+00
 1.7318138029e-01	 1.0283773743e+00	-4.6151411431e+00
 1.5113310987e-01	 1.0318481233e+00	-4.7559779472e+00
 1.2917161454e-01	 1.0348267647e+00	-4.8775362902e+00
 1.0731145725e-01	 1.0373215431e+00	-4.9797252997e+00
 8.5566633073e-02	 1.0393411842e+00	-5.0626317078e+00
 6.3950555507e-02	 1.0408948552e+00	-5.1265100132e+00
 4.2476045403e-02	 1.0419921268e+00	-5.1717718490e+00
 2.1155322585e-02	 1.0426429345e+00	-5.1989746936e+00
 0.0000000000e+00	 1.0428575404e+00	-5.2088100656e+00
 2.2045645495e-01	 1.0339011090e+00	-4.0241640204e+00
 1.9797672306e-01	 1.0384400298e+00	-4.1871391121e+00
 1.7555377324e-01	 1.0424650045e+00	-4.3331704528e+00
 1.5320346595e-01	 1.0459832989e+00	-4.4618316755e+00
 1.3094112249e-01	 1.0490027443e+00	-4.5728828721e+00
 1.0878150527e-01	 1.0515316984e+00	-4.6662629182e+00
 8.6738801103e-02	 1.0535790063e+00	-4.7420807578e+00
 6.4826607234e-02	 1.0551539609e+00	-4.8006057773e+00
 4.3057920145e-02	 1.0562662640e+00	-4.8422574022e+00
 2.1445127056e-02	 1.0569259869e+00	-4.8675940522e+00
 0.0000000000e+00	 1.0571435327e+00	-4.8773015913e+00
 2.2343566344e-01	 1.0478730608e+00	-3.7923988638e+00
 2.0065214454e-01	 1.0524733197e+00	-3.9407580629e+00
 1.7792617505e-01	 1.0565526872e+00	-4.0736833550e+00
 1.5527382977e-01	 1.0601185272e+00	-4.1907830478e+00
 1.3271063703e-01	 1.0631787768e+00	-4.2918447203e+00
 1.1025155877e-01	 1.0657419068e+00	-4.3768277666e+00
 8.7910973507e-02	 1.0678168817e+00	-4.4458549164e+00
 6.5702662231e-02	 1.0694131199e+00	-4.4992028567e+00
 4.3639797058e-02	 1.0705404544e+00	-4.5372920854e+00
 2.1734932609e-02	 1.0712090928e+00	-4.5606761298e+00
 0.0000000000e+00	 1.0714295784e+00	-4.5700302635e+00
 2.2641488062e-01	 1.0618450533e+00	-3.5790339085e+00
 2.0332757381e-01	 1.0665066506e+00	-3.7135595984e+00
 1.8029858377e-01	 1.0706404110e+00	-3.8340873371e+00
 1.5734419962e-01	 1.0742537967e+00	-3.9402498369e+00
 1.3448015674e-01	 1.0773548507e+00	-4.0318525804e+00
 1.1172161656e-01	 1.0799521566e+00	-4.1088666372e+00
 8.9083149329e-02	 1.0820547985e+00	-4.1714204636e+00
 6.6578719781e-02	 1.0836723205e+00	-4.2197908085e+00
 4.4221675667e-02	 1.0848146865e+00	-4.2543928517e+00
 2.2024739006e-02	 1.0854922402e+00	-4.2757697046e+00
 0.0000000000e+00	 1.0857156657e+00	-4.2845814049e+00
 2.2939410405e-01	 1.0758170752e+00	-3.3816003193e+00
 2.0600300871e-01	 1.0805400110e+00	-3.5030810093e+00
 1.8267099747e-01	 1.0847281644e+00	-3.6119275625e+00
 1.5941457381e-01	 1.0883890959e+00	-3.7077872222e+00
 1.3624968016e-01	 1.0915309544e+00	-3.7904741718e+00
 1.1319167744e-01	 1.0941624363e+00	-3.8599626753e+00
 9.0255327612e-02	 1.0962927452e+00	-3.9163792024e+00
 6.7454779171e-02	 1.0979315510e+00	-3.9599936529e+00
 4.4803555497e-02	 1.0990889485e+00	-3.9912098075e+00
 2.2314546011e-02	 1.0997754177e+00	-4.0105551298e+00
 0.0000000000e+00	 1.1000017831e+00	-4.0186700504e+00
 2.3237333130e-01	 1.0897891150e+00	-3.1977581385e+00
 2.0867844704e-01	 1.0945733893e+00	-3.3069884599e+00
 1.8504341422e-01	 1.0988159358e+00	-3.4048779577e+00
 1.6148495066e-01	 1.1025244133e+00	-3.4910789058e+00
 1.3801920585e-01	 1.1057070762e+00	-3.5654053418e+00
 1.1466174020e-01	 1.1083727342e+00	-3.6278265852e+00
 9.1427507398e-02	 1.1105307103e+00	-3.6784597292e+00
 6.8330839684e-02	 1.1121907998e+00	-3.7175612221e+00
 4.5385436074e-02	 1.1133632289e+00	-3.7455176557e+00
 2.2604353388e-02	 1.1140586135e+00	-3.7628358885e+00
 0.0000000000e+00	 1.1142879188e+00	-3.7701326308e+00
 2.3535255995e-01	 1.1037611613e+00	-3.0252880220e+00
 2.1135388661e-01	 1.1086067742e+00	-3.1230687345e+00
 1.8741583207e-01	 1.1129037139e+00	-3.2107329766e+00
 1.6355532848e-01	 1.1166597372e+00	-3.2879289023e+00
 1.3978873237e-01	 1.1198832047e+00	-3.3544618928e+00
 1.1613180365e-01	 1.1225830387e+00	-3.4102885032e+00
 9.2599687730e-02	 1.1247686819e+00	-3.4555093669e+00
 6.9206900605e-02	 1.1264500552e+00	-3.4903611665e+00
 4.5967316922e-02	 1.1276375159e+00	-3.5152077894e+00
 2.2894160900e-02	 1.1283418159e+00	-3.5305307904e+00
 0.0000000000e+00	 1.1285740611e+00	-3.5369192889e+00
 2.3833178755e-01	 1.1177332028e+00	-2.8620835948e+00
 2.1402932525e-01	 1.1226401542e+00	-2.9492216032e+00
 1.8978824910e-01	 1.1269914870e+00	-3.0273999823e+00
 1.6562570557e-01	 1.1307950562e+00	-3.0962539451e+00
 1.4155825826e-01	 1.1340593282e+00	-3.1555720203e+00
 1.1760186658e-01	 1.1367933383e+00	-3.2052904807e+00
 9.3771867651e-02	 1.1390066486e+00	-3.2454867018e+00
 7.0082961219e-02	 1.1407093057e+00	-3.2763715591e+00
 4.6549197565e-02	 1.1419117979e+00	-3.2982809773e+00
 2.3183968311e-02	 1.1426250134e+00	-3.3116667521e+00
 0.0000000000e+00	 1.1428601985e+00	-3.3170867702e+00
 1.1428601985e+00	 0.0000000000e+00	 2.1223166062e+00
 1.1426250134e+00	 2.3183968311e-02	 2.1266771940e+00
 1.1419117979e+00	 4.6549197565e-02	 2.1300770447e+00
 1.1407093057e+00	 7.0082961219e-02	 2.1326349665e+00
 1.1390066486e+00	 9.3771867651e-02	 2.1345305252e+00
 1.1367933383e+00	 1.1760186658e-01	 2.1360034858e+00
 1.1340593282e+00	 1.4155825826e-01	 2.1373528339e+00
 1.1307950562e+00	 1.6562570557e-01	 2.1389353582e+00
 1.1269914870e+00	 1.8978824910e-01	 2.1411637795e+00
 1.1226401542e+00	 2.1402932525e-01	 2.1445044115e+00
 1.1177332028e+00	 2.3833178755e-01	 2.1494743454e+00
 1.1571453214e+00	 0.0000000000e+00	 2.2246797483e+00
 1.1569071966e+00	 2.3473755142e-02	 2.2287269381e+00
 1.1561850663e+00	 4.7131036890e-02	 2.2305197070e+00
 1.1549675436e+00	 7.0958959624e-02	 2.2302235063e+00
 1.1532436042e+00	 9.4943964336e-02	 2.2280659865e+00
 1.1510026287e+00	 1.1907182513e-01	 2.2243361448e+00
 1.1482344451e+00	 1.4332765851e-01	 2.2193830365e+00
 1.1449293715e+00	 1.6769593565e-01	 2.2136140331e+00
 1.1410782597e+00	 1.9216049766e-01	 2.2074926125e+00
 1.1366725377e+00	 2.1670457391e-01	 2.2015356708e+00
 1.1317042520e+00	 2.4131080360e-01	 2.1963103463e+00
 1.1714304292e+00	 0.0000000000e+00	 2.3228078675e+00
 1.1711893648e+00	 2.3763541668e-02	 2.3265950517e+00
 1.1704583197e+00	 4.7712875603e-02	 2.3269018128e+00
 1.1692257666e+00	 7.1834957109e-02	 2.3239391690e+00
 1.1674805449e+00	 9.6116059790e-02	 2.3179816482e+00
 1.1652119043e+00	 1.2054178213e-01	 2.3093661473e+00
 1.1624095470e+00	 1.4509705689e-01	 2.2984903398e+00
 1.1590636719e+00	 1.6976616355e-01	 2.2858106171e+00
 1.1551650177e+00	 1.9453274372e-01	 2.2718395498e+00
 1.1507049064e+00	 2.1937981975e-01	 2.2571428584e+00
 1.1456752867e+00	 2.4428981652e-01	 2.2423358878e+00
 1.1857155238e+00	 0.0000000000e+00	 2.4158186956e+00
 1.1854715197e+00	 2.4053327925e-02	 2.4193901903e+00
 1.1847315598e+00	 4.8294713773e-02	 2.4183229307e+00
 1.1834839762e+00	 7.2710953776e-02	 2.4128724688e+00
 1.1817174723e+00	 9.7288154151e-02	 2.4033590452e+00
 1.1794211666e+00	 1.2201173775e-01	 2.3901661645e+00
 1.1765846358e+00	 1.4686645362e-01	 2.3737387068e+00
 1.1731979592e+00	 1.7183638952e-01	 2.3545805597e+00
 1.1692517625e+00	 1.9690498758e-01	 2.3332517594e+00
 1.1647372620e+00	 2.2205506311e-01	 2.3103651301e+00
 1.1596463082e+00	 2.4726882666e-01	 2.2865824183e+00
 1.2000006067e+00	 0.0000000000e+00	 2.5028685561e+00
 1.1997536629e+00	 2.4343113944e-02	 2.5062603177e+00
 1.1990047883e+00	 4.8876551468e-02	 2.5039226648e+00
 1.1977421742e+00	 7.3586949728e-02	 2.4961546901e+00
 1.1959543881e+00	 9.8460247554e-02	 2.4833212189e+00
 1.1936304173e+00	 1.2348169218e-01	 2.4658511086e+00
 1.1907597130e+00	 1.4863584891e-01	 2.4442350699e+00
 1.1873322348e+00	 1.7390661380e-01	 2.4190229980e+00
 1.1833384958e+00	 1.9927722950e-01	 2.3908208012e+00
 1.1787696062e+00	 2.2473030427e-01	 2.3602867198e+00
 1.1736173184e+00	 2.5024783437e-01	 2.3281271298e+00
 1.2142856796e+00	 0.0000000000e+00	 2.5831500946e+00
 1.2140357961e+00	 2.4632899761e-02	 2.5863904062e+00
 1.2132780067e+00	 4.9458388756e-02	 2.5828783249e+00
 1.2120003622e+00	 7.4462945067e-02	 2.5729555246e+00
 1.2101912939e+00	 9.9632340137e-02	 2.5570303222e+00
 1.2078396580e+00	 1.2495164558e-01	 2.5355757049e+00
 1.2049347802e+00	 1.5040524296e-01	 2.5091268700e+00
 1.2014665006e+00	 1.7597683663e-01	 2.4782782619e+00
 1.1974252192e+00	 2.0164946975e-01	 2.4436800987e+00
 1.1928019406e+00	 2.2740554357e-01	 2.4060343783e+00
 1.1875883188e+00	 2.5322683999e-01	 2.3660903634e+00
 1.2285707441e+00	 0.0000000000e+00	 2.6558901675e+00
 1.2283179210e+00	 2.4922685409e-02	 2.6590002980e+00
 1.2275512168e+00	 5.0040225705e-02	 2.6544027582e+00
 1.2262585419e+00	 7.5338939895e-02	 2.6424808749e+00
 1.2244281914e+00	 1.0080443204e-01	 2.6236853921e+00
 1.2220488905e+00	 1.2642159812e-01	 2.5985322336e+00
 1.2191098392e+00	 1.5217463598e-01	 2.5675997663e+00
 1.2156007582e+00	 1.7804705825e-01	 2.5315255536e+00
 1.2115119344e+00	 2.0402170863e-01	 2.4910025869e+00
 1.2068342668e+00	 2.3008078130e-01	 2.4467749901e+00
 1.2015593110e+00	 2.5620584387e-01	 2.3996331953e+00
 1.2428558020e+00	 0.0000000000e+00	 2.7203478770e+00
 1.2426000392e+00	 2.5212470921e-02	 2.7233427140e+00
 1.2418244203e+00	 5.0622062382e-02	 2.7177423315e+00
 1.2405167149e+00	 7.6214934315e-02	 2.7039708077e+00
 1.2386650823e+00	 1.0197652339e-01	 2.6825202757e+00
 1.2362581163e+00	 1.2789154998e-01	 2.6539484265e+00
 1.2332848916e+00	 1.5394402817e-01	 2.6188755049e+00
 1.2297350091e+00	 1.8011727891e-01	 2.5779807859e+00
 1.2255986431e+00	 2.0639394639e-01	 2.5319985215e+00
 1.2208665864e+00	 2.3275601779e-01	 2.4817133532e+00
 1.2155302967e+00	 2.5918484637e-01	 2.4279551881e+00
 1.2571408549e+00	 0.0000000000e+00	 2.7758127391e+00
 1.2568821524e+00	 2.5502256333e-02	 2.7787013978e+00
 1.2560976188e+00	 5.1203898855e-02	 2.7721750504e+00
 1.2547748830e+00	 7.7090928428e-02	 2.7566976483e+00
 1.2529019682e+00	 1.0314861433e-01	 2.7328016972e+00
 1.2504673372e+00	 1.2936150132e-01	 2.7010855078e+00
 1.2474599390e+00	 1.5571341975e-01	 2.6622099314e+00
 1.2438692551e+00	 1.8218749884e-01	 2.6168945678e+00
 1.2396853468e+00	 2.0876618333e-01	 2.5659134372e+00
 1.2348989011e+00	 2.3543125334e-01	 2.5100901098e+00
 1.2295012776e+00	 2.6216384782e-01	 2.4502922940e+00
 1.2714259045e+00	 0.0000000000e+00	 2.8216029759e+00
 1.2711642623e+00	 2.5792041677e-02	 2.8243893854e+00
 1.2703708139e+00	 5.1785735194e-02	 2.8170088056e+00
 1.2690330477e+00	 7.7966922337e-02	 2.7999642019e+00
 1.2671388507e+00	 1.0432070500e-01	 2.7738274551e+00
 1.2646765547e+00	 1.3083145232e-01	 2.7392363658e+00
 1.2616349830e+00	 1.5748281091e-01	 2.6968911376e+00
 1.2580034978e+00	 1.8425771829e-01	 2.6475503257e+00
 1.2537720472e+00	 2.1113841971e-01	 2.5920262426e+00
 1.2489312125e+00	 2.3810648826e-01	 2.5311798161e+00
 1.2434722551e+00	 2.6514284858e-01	 2.4659148993e+00
 1.2857109524e+00	 0.0000000000e+00	 2.8570639213e+00
 1.2854463705e+00	 2.6081826987e-02	 2.8597473901e+00
 1.2846440074e+00	 5.2367571465e-02	 2.8515797355e+00
 1.2832912108e+00	 7.8842916145e-02	 2.8331020944e+00
 1.2813757316e+00	 1.0549279553e-01	 2.8049247397e+00
 1.2788857706e+00	 1.3230140315e-01	 2.7677238467e+00
 1.2758100255e+00	 1.5925220186e-01	 2.7222377314e+00
 1.2721377389e+00	 1.8632793750e-01	 2.6692625485e+00
 1.2678587460e+00	 2.1351065582e-01	 2.6096474416e+00
 1.2629635224e+00	 2.4078172288e-01	 2.5442891390e+00
 1.2574432311e+00	 2.6812184899e-01	 2.4741259971e+00
 1.1177332028e+00	 2.3833178755e-01	 2.1494743454e+00
 1.1122638330e+00	 2.6267623005e-01	 2.1540615166e+00
 1.1062252131e+00	 2.8704614204e-01	 2.1557562310e+00
 1.0996115674e+00	 3.1142281934e-01	 2.1543766285e+00
 1.0924178900e+00	 3.3578709316e-01	 2.1497593490e+00
 1.0846399814e+00	 3.6011936715e-01	 2.1417617361e+00
 1.0762744826e+00	 3.8439965732e-01	 2.1302641107e+00
 1.0673189073e+00	 4.0860763499e-01	 2.1151720940e+00
 1.0577716711e+00	 4.3272267244e-01	 2.0964189615e+00
 1.0476321190e+00	 4.5672389122e-01	 2.0739680066e+00
 1.0369005487e+00	 4.8059021287e-01	 2.0478148941e+00
 1.1317042520e+00	 2.4131080360e-01	 2.1963103463e+00
 1.1261665182e+00	 2.6595953822e-01	 2.1898156728e+00
 1.1200524189e+00	 2.9063406069e-01	 2.1796105007e+00
 1.1133561062e+00	 3.1531543302e-01	 2.1656510302e+00
 1.1060725118e+00	 3.3998424684e-01	 2.1479115681e+00
 1.0981973836e+00	 3.6462066085e-01	 2.1263858245e+00
 1.0897273208e+00	 3.8920444128e-01	 2.1010882519e+00
 1.0806598056e+00	 4.1371500533e-01	 2.0720554139e+00
 1.0709932343e+00	 4.3813146746e-01	 2.0393473737e+00
 1.0607269434e+00	 4.6243268825e-01	 2.0030490883e+00
 1.0498612344e+00	 4.8659732577e-01	 1.9632717986e+00
 1.1456752867e+00	 2.4428981652e-01	 2.2423358878e+00
 1.1400691888e+00	 2.6924284294e-01	 2.2254273380e+00
 1.1338796101e+00	 2.9422197556e-01	 2.2040387818e+00
 1.1271006306e+00	 3.1920804261e-01	 2.1782557616e+00
 1.1197271193e+00	 3.4418139612e-01	 2.1481814391e+00
 1.1117547717e+00	 3.6912194983e-01	 2.1139370375e+00
 1.1031801447e+00	 3.9400922018e-01	 2.0756623009e+00
 1.0940006900e+00	 4.1882237031e-01	 2.0335159653e+00
 1.0842147836e+00	 4.4354025681e-01	 1.9876762382e+00
 1.0738217540e+00	 4.6814147929e-01	 1.9383412816e+00
 1.0628219064e+00	 4.9260443237e-01	 1.8857296964e+00
 1.1596463082e+00	 2.4726882666e-01	 2.2865824183e+00
 1.1539718464e+00	 2.7252614460e-01	 2.2599206916e+00
 1.1477067885e+00	 2.9780988709e-01	 2.2280587145e+00
 1.1408451422e+00	 3.2310064857e-01	 2.1912029301e+00
 1.1333817140e+00	 3.4837854147e-01	 2.1495768211e+00
 1.1253121470e+00	 3.7362323460e-01	 2.1034205486e+00
 1.1166329562e+00	 3.9881399461e-01	 2.0529905856e+00
 1.1073415619e+00	 4.2392973052e-01	 1.9985593453e+00
 1.0974363205e+00	 4.4894904110e-01	 1.9404148072e+00
 1.0869165524e+00	 4.7385026501e-01	 1.8788601450e+00
 1.0757825663e+00	 4.9861153337e-01	 1.8142133625e+00
 1.1736173184e+00	 2.5024783437e-01	 2.3281271298e+00
 1.1678744926e+00	 2.7580944357e-01	 2.2923662925e+00
 1.1615339555e+00	 3.0139779569e-01	 2.2507349100e+00
 1.1545896425e+00	 3.2699325135e-01	 2.2035521471e+00
 1.1470362976e+00	 3.5257568340e-01	 2.1511535369e+00
 1.1388695113e+00	 3.7812451570e-01	 2.0938898678e+00
 1.1300857566e+00	 4.0361876511e-01	 2.0321260427e+00
 1.1206824229e+00	 4.2903708656e-01	 1.9662399179e+00
 1.1106578467e+00	 4.5435782098e-01	 1.8966211307e+00
 1.1000113401e+00	 4.7955904606e-01	 1.8236699267e+00
 1.0887432157e+00	 5.0461862946e-01	 1.7477960013e+00
 1.1875883188e+00	 2.5322683999e-01	 2.3660903634e+00
 1.1817771291e+00	 2.7909274025e-01	 2.3218784528e+00
 1.1753611129e+00	 3.0498570177e-01	 2.2711762942e+00
 1.1683341332e+00	 3.3088585141e-01	 2.2144078435e+00
 1.1606908716e+00	 3.5677282240e-01	 2.1520126645e+00
 1.1524268661e+00	 3.8262579365e-01	 2.0844441132e+00
 1.1435385477e+00	 4.0842353225e-01	 2.0121674742e+00
 1.1340232746e+00	 4.3414443902e-01	 1.9356580622e+00
 1.1238793636e+00	 4.5976659707e-01	 1.8553993034e+00
 1.1131061186e+00	 4.8526782311e-01	 1.7718808167e+00
 1.1017038560e+00	 5.1062572134e-01	 1.6855965138e+00
 1.2015593110e+00	 2.5620584387e-01	 2.3996331953e+00
 1.1956797576e+00	 2.8237603501e-01	 2.3476127936e+00
 1.1891882622e+00	 3.0857360577e-01	 2.2885336347e+00
 1.1820786159e+00	 3.3477844920e-01	 2.2229167711e+00
 1.1743454377e+00	 3.6096995894e-01	 2.1512980156e+00
 1.1659842130e+00	 3.8712706897e-01	 2.0742254710e+00
 1.1569913309e+00	 4.1322829658e-01	 1.9922569939e+00
 1.1473641185e+00	 4.3925178850e-01	 1.9059576096e+00
 1.1371008728e+00	 4.6517537001e-01	 1.8158968997e+00
 1.1262008895e+00	 4.9097659684e-01	 1.7226463878e+00
 1.1146644887e+00	 5.1663280972e-01	 1.6267769506e+00
 1.2155302967e+00	 2.5918484637e-01	 2.4279551881e+00
 1.2095823795e+00	 2.8565932825e-01	 2.3687639681e+00
 1.2030154050e+00	 3.1216150809e-01	 2.3019972374e+00
 1.1958230922e+00	 3.3867104517e-01	 2.2282656748e+00
 1.1879999974e+00	 3.6516709353e-01	 2.1481937861e+00
 1.1795415536e+00	 3.9162834219e-01	 2.0624168277e+00
 1.1704441078e+00	 4.1803305867e-01	 1.9715776459e+00
 1.1607049561e+00	 4.4435913560e-01	 1.8763234554e+00
 1.1503223758e+00	 4.7058414042e-01	 1.7773025829e+00
 1.1392956543e+00	 4.9668536790e-01	 1.6751612084e+00
 1.1276251153e+00	 5.2263989530e-01	 1.5705401380e+00
 1.2295012776e+00	 2.6216384782e-01	 2.4502922940e+00
 1.2234849965e+00	 2.8894262033e-01	 2.3845635386e+00
 1.2168425430e+00	 3.1574940915e-01	 2.3107947985e+00
 1.2095675637e+00	 3.4256363978e-01	 2.2296791209e+00
 1.2016545523e+00	 3.6936422664e-01	 2.1419223644e+00
 1.1930988894e+00	 3.9612961384e-01	 2.0482395620e+00
 1.1838968800e+00	 4.2283781909e-01	 1.9493511843e+00
 1.1740457891e+00	 4.4946648092e-01	 1.8459793297e+00
 1.1635438742e+00	 4.7599290894e-01	 1.7388438741e+00
 1.1523904145e+00	 5.0239413696e-01	 1.6286586162e+00
 1.1405857375e+00	 5.2864697877e-01	 1.5161274611e+00
 1.2434722551e+00	 2.6514284858e-01	 2.4659148993e+00
 1.2373876103e+00	 2.9222591164e-01	 2.3942779956e+00
 1.2306696778e+00	 3.1933730938e-01	 2.3141893993e+00
 1.2233120320e+00	 3.4645623348e-01	 2.2264174711e+00
 1.2153091040e+00	 3.7356135878e-01	 2.1317422861e+00
 1.2066562220e+00	 4.0063088444e-01	 2.0309514833e+00
 1.1973496491e+00	 4.2764257838e-01	 1.9248359989e+00
 1.1873866190e+00	 4.5457382504e-01	 1.8141857163e+00
 1.1767653695e+00	 4.8140167620e-01	 1.6997850687e+00
 1.1654851716e+00	 5.0810290469e-01	 1.5824086375e+00
 1.1535463566e+00	 5.3465406084e-01	 1.4628167937e+00
 1.2574432311e+00	 2.6812184899e-01	 2.4741259971e+00
 1.2512902225e+00	 2.9550920258e-01	 2.3972069073e+00
 1.2444968109e+00	 3.2292520919e-01	 2.3114776346e+00
 1.2370564986e+00	 3.5034882672e-01	 2.2177749893e+00
 1.2289636542e+00	 3.7775849043e-01	 2.1169463225e+00
 1.2202135531e+00	 4.0513215451e-01	 2.0098449051e+00
 1.2108024166e+00	 4.3244733711e-01	 1.8973251779e+00
 1.2007274473e+00	 4.5968116857e-01	 1.7802379074e+00
 1.1899868632e+00	 4.8681044283e-01	 1.6594252884e+00
 1.1785799272e+00	 5.1381167176e-01	 1.5357160421e+00
 1.1665069742e+00	 5.4066114221e-01	 1.4099205615e+00
 1.0369005487e+00	 4.8059021287e-01	 2.0478148941e+00
 1.0255774193e+00	 5.0430206465e-01	 2.0164143768e+00
 1.0136657292e+00	 5.2783644336e-01	 1.9781142190e+00
 1.0011687518e+00	 5.5117198494e-01	 1.9327891596e+00
 9.8809077496e-01	 5.7428734802e-01	 1.8803447380e+00
 9.7443710616e-01	 5.9716127332e-01	 1.8207229548e+00
 9.6021407437e-01	 6.1977264379e-01	 1.7539079939e+00
 9.4542902724e-01	 6.4210054532e-01	 1.6799319485e+00
 9.3009032415e-01	 6.6412432764e-01	 1.5988804852e+00
 9.1420732488e-01	 6.8582366495e-01	 1.5108983783e+00
 8.9779037395e-01	 7.0717861609e-01	 1.4161948439e+00
 1.0498612344e+00	 4.8659732577e-01	 1.9632717986e+00
 1.0383965721e+00	 5.1060556264e-01	 1.9185392058e+00
 1.0263359924e+00	 5.3443410812e-01	 1.8673150197e+00
 1.0136828097e+00	 5.5806133111e-01	 1.8096478082e+00
 1.0004413653e+00	 5.8146562350e-01	 1.7456101674e+00
 9.8661703318e-01	 6.0462546027e-01	 1.6753030590e+00
 9.7221622133e-01	 6.2751946041e-01	 1.5988602426e+00
 9.5724636925e-01	 6.5012644841e-01	 1.5164527594e+00
 9.4171594082e-01	 6.7242551587e-01	 1.4282934140e+00
 9.2563441281e-01	 6.9439608294e-01	 1.3346412023e+00
 9.0901225904e-01	 7.1601795922e-01	 1.2358056234e+00
 1.0628219064e+00	 4.9260443237e-01	 1.8857296964e+00
 1.0512157114e+00	 5.1690905401e-01	 1.8284329693e+00
 1.0390062422e+00	 5.4103176595e-01	 1.7650259500e+00
 1.0261968544e+00	 5.6495067005e-01	 1.6957179169e+00
 1.0127919427e+00	 5.8864389145e-01	 1.6207357139e+00
 9.9879694741e-01	 6.1208963938e-01	 1.5403268541e+00
 9.8421835568e-01	 6.3526626890e-01	 1.4547627520e+00
 9.6906369885e-01	 6.5815234307e-01	 1.3643420507e+00
 9.5334154529e-01	 6.8072669539e-01	 1.2693940086e+00
 9.3706148875e-01	 7.0296849194e-01	 1.1702819014e+00
 9.2023413234e-01	 7.2485729306e-01	 1.0674063933e+00
 1.0757825663e+00	 4.9861153337e-01	 1.8142133625e+00
 1.0640348387e+00	 5.2321253950e-01	 1.7451323653e+00
 1.0516764803e+00	 5.4762941763e-01	 1.6702982631e+00
 1.0387108874e+00	 5.7184000257e-01	 1.5900683652e+00
 1.0251425086e+00	 5.9582215269e-01	 1.5048113867e+00
 1.0109768503e+00	 6.1955381152e-01	 1.4149094043e+00
 9.9622047883e-01	 6.4301307015e-01	 1.3207599738e+00
 9.8088101743e-01	 6.6617823025e-01	 1.2227783868e+00
 9.6496713891e-01	 6.8902786716e-01	 1.1214000445e+00
 9.4848855402e-01	 7.1154089294e-01	 1.0170829153e+00
 9.3145599518e-01	 7.3369661865e-01	 9.1031004201e-01
 1.0887432157e+00	 5.0461862946e-01	 1.7477960013e+00
 1.0768539556e+00	 5.2951601985e-01	 1.6677221205e+00
 1.0643467080e+00	 5.5422706392e-01	 1.5822307012e+00
 1.0512249103e+00	 5.7872932945e-01	 1.4918148251e+00
 1.0374930643e+00	 6.0300040807e-01	 1.3969731136e+00
 1.0231567432e+00	 6.2701797757e-01	 1.2982106208e+00
 1.0082225922e+00	 6.5075986508e-01	 1.1960399190e+00
 9.9269832635e-01	 6.7420411086e-01	 1.0909823690e+00
 9.7659272303e-01	 6.9732903216e-01	 9.8356956075e-01
 9.5991560995e-01	 7.2011328694e-01	 8.7434490555e-01
 9.4267784885e-01	 7.4253593703e-01	 7.6386535372e-01
 1.1017038560e+00	 5.1062572134e-01	 1.6855965138e+00
 1.0896730634e+00	 5.3581949578e-01	 1.5953322784e+00
 1.0770169269e+00	 5.6082470559e-01	 1.4999668150e+00
 1.0637389243e+00	 5.8561865152e-01	 1.4001171198e+00
 1.0498436115e+00	 6.1017865843e-01	 1.2964001490e+00
 1.0353366276e+00	 6.3448213839e-01	 1.1894327307e+00
 1.0202246971e+00	 6.5850665459e-01	 1.0798317014e+00
 1.0045156270e+00	 6.8222998587e-01	 9.6821426799e-01
 9.8821829901e-01	 7.0563019134e-01	 8.5519859546e-01
 9.7134265789e-01	 7.2868567494e-01	 7.4140460966e-01
 9.5389969466e-01	 7.5137524922e-01	 6.2745499915e-01
 1.1146644887e+00	 5.1663280972e-01	 1.6267769506e+00
 1.1024921639e+00	 5.4212296803e-01	 1.5271356741e+00
 1.0896871383e+00	 5.6742234341e-01	 1.4226924659e+00
 1.0762529311e+00	 5.9250796956e-01	 1.3141767620e+00
 1.0621941514e+00	 6.1735690460e-01	 1.2023126576e+00
 1.0475165049e+00	 6.4194629486e-01	 1.0878179188e+00
 1.0322267951e+00	 6.6625343958e-01	 9.7140324733e-01
 1.0163329208e+00	 6.9025585619e-01	 8.5377181474e-01
 9.9984386822e-01	 7.1393134569e-01	 7.3561907240e-01
 9.8276969917e-01	 7.3725805793e-01	 6.1763283939e-01
 9.6512153393e-01	 7.6021455625e-01	 5.0049366030e-01
 1.1276251153e+00	 5.2263989530e-01	 1.5705401380e+00
 1.1153112583e+00	 5.4842643735e-01	 1.4623455779e+00
 1.1023573439e+00	 5.7401997816e-01	 1.3496334953e+00
 1.0887669320e+00	 5.9939728440e-01	 1.2332346569e+00
 1.0745446856e+00	 6.2453514743e-01	 1.1139694610e+00
 1.0596963765e+00	 6.4941044785e-01	 9.9264612510e-01
 1.0442288874e+00	 6.7400022096e-01	 8.7005915771e-01
 1.0281502090e+00	 6.9828172276e-01	 7.4698813893e-01
 1.0114694320e+00	 7.2223249615e-01	 6.2419682849e-01
 9.9419673511e-01	 7.4583043693e-01	 5.0243261081e-01
 9.7634336796e-01	 7.6905385916e-01	 3.8242627862e-01
 1.1405857375e+00	 5.2864697877e-01	 1.5161274611e+00
 1.1281303482e+00	 5.5472990445e-01	 1.4002134968e+00
 1.1150275450e+00	 5.8061761059e-01	 1.2800535494e+00
 1.1012809286e+00	 6.0628659682e-01	 1.1565689579e+00
 1.0868952154e+00	 6.3171338773e-01	 1.0306659316e+00
 1.0718762438e+00	 6.5687459822e-01	 9.0323298908e-01
 1.0562309756e+00	 6.8174699962e-01	 7.7513871097e-01
 1.0399674931e+00	 7.0630758653e-01	 6.4722984218e-01
 1.0230949917e+00	 7.3053364372e-01	 5.2032976981e-01
 1.0056237670e+00	 7.5440281293e-01	 3.9523739632e-01
 9.8756519807e-01	 7.7789315897e-01	 2.7272641671e-01
 1.1535463566e+00	 5.3465406084e-01	 1.4628167937e+00
 1.1409494352e+00	 5.6103337009e-01	 1.3400271193e+00
 1.1276977431e+00	 5.8721524149e-01	 1.2132520456e+00
 1.1137949222e+00	 6.1317590763e-01	 1.0834930616e+00
 1.0992457424e+00	 6.3889162637e-01	 9.5173202524e-01
 1.0840561083e+00	 6.6433874685e-01	 8.1892792651e-01
 1.0682330609e+00	 6.8949377648e-01	 6.8601399521e-01
 1.0517847745e+00	 7.1433344842e-01	 5.5389519584e-01
 1.0347205487e+00	 7.3883478934e-01	 4.2344614653e-01
 1.0170507963e+00	 7.6297518692e-01	 2.9550948874e-01
 9.9878702555e-01	 7.8673245672e-01	 1.7089472466e-01
 1.1665069742e+00	 5.4066114221e-01	 1.4099205615e+00
 1.1537685207e+00	 5.6733683499e-01	 1.2811083936e+00
 1.1403679398e+00	 5.9381287161e-01	 1.1485622712e+00
 1.1263089144e+00	 6.2006521764e-01	 1.0133537331e+00
 1.1115962679e+00	 6.4606986416e-01	 8.7653043914e-01
 1.0962359714e+00	 6.7180289461e-01	 7.3911233004e-01
 1.0802351449e+00	 6.9724055243e-01	 6.0208815974e-01
 1.0636020544e+00	 7.2235930937e-01	 4.6641245367e-01
 1.0463461043e+00	 7.4713593400e-01	 3.3300293716e-01
 1.0284778243e+00	 7.7154755992e-01	 2.0273846888e-01
 1.0100088517e+00	 7.9557175344e-01	 7.6457502856e-02
 8.9779037395e-01	 7.0717861609e-01	 1.4161948439e+00
 8.8085077813e-01	 7.2816968575e-01	 1.3135746438e+00
 8.6340077474e-01	 7.4877788830e-01	 1.2021095777e+00
 8.4545351079e-01	 7.6898479821e-01	 1.0824834510e+00
 8.2702301313e-01	 7.8877260239e-01	 9.5541108297e-01
 8.0812415225e-01	 8.0812415225e-01	 8.2163922370e-01
 7.8877260239e-01	 8.2702301313e-01	 6.8194727400e-01
 7.6898479821e-01	 8.4545351079e-01	 5.3714776127e-01
 7.4877788830e-01	 8.6340077474e-01	 3.8808652313e-01
 7.2816968575e-01	 8.8085077813e-01	 2.3564255419e-01
 7.0717861609e-01	 8.9779037395e-01	 8.0727474437e-02
 9.0901225904e-01	 7.1601795922e-01	 1.2358056234e+00
 8.9186092760e-01	 7.3727140568e-01	 1.1305331668e+00
 8.7419280878e-01	 7.5813719941e-01	 1.0178111503e+00
 8.5602121392e-01	 7.7859668456e-01	 8.9836720337e-01
 8.3736034520e-01	 7.9863182539e-01	 7.7295144789e-01
 8.1822525897e-01	 8.1822525897e-01	 6.4233702478e-01
 7.9863182539e-01	 8.3736034520e-01	 5.0732049047e-01
 7.7859668456e-01	 8.5602121392e-01	 3.6872203594e-01
 7.5813719941e-01	 8.7419280878e-01	 2.2738548209e-01
 7.3727140568e-01	 8.9186092760e-01	 8.4178005852e-02
 7.1601795922e-01	 9.0901225904e-01	-6.0010444983e-02
 9.2023413234e-01	 7.2485729306e-01	 1.0674063933e+00
 9.0287106551e-01	 7.4637311606e-01	 9.5946986058e-01
 8.8498483149e-01	 7.6749650070e-01	 8.4539095638e-01
 8.6658890596e-01	 7.8820856082e-01	 7.2593556989e-01
 8.4769766641e-01	 8.0849103804e-01	 6.0188413784e-01
 8.2832635508e-01	 8.2832635508e-01	 4.7403182915e-01
 8.0849103804e-01	 8.4769766641e-01	 3.4318866090e-01
 7.8820856082e-01	 8.6658890596e-01	 2.1017950037e-01
 7.6749650070e-01	 8.8498483149e-01	 7.5843906766e-02
 7.4637311606e-01	 9.0287106551e-01	-5.8964233250e-02
 7.2485729306e-01	 9.2023413234e-01	-1.9337732027e-01
 9.3145599518e-01	 7.3369661865e-01	 9.1031004201e-01
 9.1388119315e-01	 7.5547481794e-01	 7.9975251852e-01
 8.9577684414e-01	 7.7685579324e-01	 6.8427476842e-01
 8.7715658813e-01	 7.9782042811e-01	 5.6467559845e-01
 8.5803497797e-01	 8.1835024149e-01	 4.4176098162e-01
 8.3842744176e-01	 8.3842744176e-01	 3.1634394581e-01
 8.1835024149e-01	 8.5803497797e-01	 1.8924445233e-01
 7.9782042811e-01	 8.7715658813e-01	 6.1289219852e-02
 7.7685579324e-01	 8.9577684414e-01	-6.6688552903e-02
 7.5547481794e-01	 9.1388119315e-01	-1.9384961288e-01
 7.3369661865e-01	 9.3145599518e-01	-3.1934927274e-01
 9.4267784885e-01	 7.4253593703e-01	 7.6386535372e-01
 9.2489131180e-01	 7.6457651239e-01	 6.5078228294e-01
 9.0656884797e-01	 7.8621507815e-01	 5.3391900540e-01
 8.8772426168e-01	 8.0743228755e-01	 4.1410211486e-01
 8.6837228109e-01	 8.2820943689e-01	 2.9215854002e-01
 8.4852852020e-01	 8.4852852020e-01	 1.6891518260e-01
 8.2820943689e-01	 8.6837228109e-01	 4.5198600750e-02
 8.0743228755e-01	 8.8772426168e-01	-7.8165306770e-02
 7.8621507815e-01	 9.0656884797e-01	-2.0035166275e-01
 7.6457651239e-01	 9.2489131180e-01	-3.2053706920e-01
 7.4253593703e-01	 9.4267784885e-01	-4.3790020868e-01
 9.5389969466e-01	 7.5137524922e-01	 6.2745499915e-01
 9.3590142274e-01	 7.7367820046e-01	 5.1199178558e-01
 9.1736084424e-01	 7.9557435650e-01	 3.9380903285e-01
 8.9829192782e-01	 8.1704414026e-01	 2.7375619228e-01
 8.7870957698e-01	 8.3806862539e-01	 1.5267675578e-01
 8.5862959156e-01	 8.5862959156e-01	 3.1407688175e-02
 8.3806862539e-01	 8.7870957698e-01	-8.9221042999e-02
 8.1704414026e-01	 8.9829192782e-01	-2.0838688496e-01
 7.9557435650e-01	 9.1736084424e-01	-3.2527511299e-01
 7.7367820046e-01	 9.3590142274e-01	-4.3907929084e-01
 7.5137524922e-01	 9.5389969466e-01	-5.4900182940e-01
 9.6512153393e-01	 7.6021455625e-01	 5.0049366030e-01
 9.4691152726e-01	 7.8277988323e-01	 3.8284341164e-01
 9.2815283422e-01	 8.0493362940e-01	 2.6345757509e-01
 9.0885958781e-01	 8.2665598737e-01	 1.4320372129e-01
 8.8904686684e-01	 8.4792780814e-01	 2.2937691561e-02
 8.6873065703e-01	 8.6873065703e-01	-9.6497131523e-02
 8.4792780814e-01	 8.8904686684e-01	-2.1427040694e-01
 8.2665598737e-01	 9.0885958781e-01	-3.2956531679e-01
 8.0493362940e-01	 9.2815283422e-01	-4.4157899716e-01
 7.8277988323e-01	 9.4691152726e-01	-5.4952297222e-01
 7.6021455625e-01	 9.6512153393e-01	-6.5262364624e-01
 9.7634336796e-01	 7.6905385916e-01	 3.8242627862e-01
 9.5792162664e-01	 7.9188156175e-01	 2.6282767752e-01
 9.3894481916e-01	 8.1429289793e-01	 1.4240323085e-01
 9.1942724286e-01	 8.3626782999e-01	 2.2034072367e-02
 8.9938415187e-01	 8.5778698629e-01	-9.7415651200e-02
 8.7883171779e-01	 8.7883171779e-01	-2.1509962804e-01
 8.5778698629e-01	 8.9938415187e-01	-3.3019003608e-01
 8.3626782999e-01	 9.1942724286e-01	-4.4187805151e-01
 8.1429289793e-01	 9.3894481916e-01	-5.4937426391e-01
 7.9188156175e-01	 9.5792162664e-01	-6.5190905501e-01
 7.6905385916e-01	 9.7634336796e-01	-7.4873299994e-01
 9.8756519807e-01	 7.7789315897e-01	 2.7272641671e-01
 9.6893172216e-01	 8.0098323709e-01	 1.5146171319e-01
 9.4973680033e-01	 8.2365216318e-01	 3.0209084172e-02
 9.2999489421e-01	 8.4587966925e-01	-9.0141156399e-02
 9.0972143329e-01	 8.6764616098e-01	-2.0872043897e-01
 8.8893277501e-01	 8.8893277501e-01	-3.2468286210e-01
 8.6764616098e-01	 9.0972143329e-01	-4.3720587929e-01
 8.4587966925e-01	 9.2999489421e-01	-5.4549079759e-01
 8.2365216318e-01	 9.4973680033e-01	-6.4876314374e-01
 8.0098323709e-01	 9.6893172216e-01	-7.4627295875e-01
 7.7789315897e-01	 9.8756519807e-01	-8.3729508415e-01
 9.9878702555e-01	 7.8673245672e-01	 1.7089472466e-01
 9.7994181512e-01	 8.1008491030e-01	 4.8287840924e-02
 9.6052877898e-01	 8.3301142625e-01	-7.3538597169e-02
 9.4056254310e-01	 8.5549150626e-01	-1.9368931329e-01
 9.2005871229e-01	 8.7750533338e-01	-3.1129504416e-01
 8.9903382988e-01	 8.9903382988e-01	-4.2551349709e-01
 8.7750533338e-01	 9.2005871229e-01	-5.3553002914e-01
 8.5549150626e-01	 9.4056254310e-01	-6.4055809930e-01
 8.3301142625e-01	 9.6052877898e-01	-7.3983955258e-01
 8.1008491030e-01	 9.7994181512e-01	-8.3264480149e-01
 7.8673245672e-01	 9.9878702555e-01	-9.1827297276e-01
 1.0100088517e+00	 7.9557175344e-01	 7.6457502856e-02
 9.9095190679e-01	 8.1918658245e-01	-4.7127757027e-02
 9.7132075637e-01	 8.4237068822e-01	-1.6923158225e-01
 9.5113019075e-01	 8.6510334215e-01	-2.8895779451e-01
 9.3039599009e-01	 8.8736450462e-01	-4.0544001996e-01
 9.0913488357e-01	 9.0913488357e-01	-5.1784263887e-01
 8.8736450462e-01	 9.3039599009e-01	-6.2536141816e-01
 8.6510334215e-01	 9.5113019075e-01	-7.2722388064e-01
 8.4237068822e-01	 9.7132075637e-01	-8.2268947424e-01
 8.1918658245e-01	 9.9095190679e-01	-9.1104961116e-01
 7.9557175344e-01	 1.0100088517e+00	-9.9162765069e-01
 7.0717861609e-01	 8.9779037395e-01	 8.0727474437e-02
 6.8582366495e-01	 9.1420732488e-01	-7.8025087452e-02
 6.6412432764e-01	 9.3009032415e-01	-2.4167753220e-01
 6.4210054532e-01	 9.4542902724e-01	-4.0886746830e-01
 6.1977264379e-01	 9.6021407437e-01	-5.7827603432e-01
 5.9716127332e-01	 9.7443710616e-01	-7.4863358474e-01
 5.7428734802e-01	 9.8809077496e-01	-9.1872513774e-01
 5.5117198494e-01	 1.0011687518e+00	-1.0873955520e+00
 5.2783644336e-01	 1.0136657292e+00	-1.2535543969e+00
 5.0430206465e-01	 1.0255774193e+00	-1.4161804774e+00
 4.8059021287e-01	 1.0369005487e+00	-1.5743259736e+00
 7.1601795922e-01	 9.0901225904e-01	-6.0010444983e-02
 6.9439608294e-01	 9.2563441281e-01	-2.0677022205e-01
 6.7242551587e-01	 9.4171594082e-01	-3.5745451351e-01
 6.5012644841e-01	 9.5724636925e-01	-5.1082669507e-01
 6.2751946041e-01	 9.7221622133e-01	-6.6568854268e-01
 6.0462546027e-01	 9.8661703318e-01	-8.2088540959e-01
 5.8146562350e-01	 1.0004413653e+00	-9.7531124085e-01
 5.5806133111e-01	 1.0136828097e+00	-1.1279133957e+00
 5.3443410812e-01	 1.0263359924e+00	-1.2776972441e+00
 5.1060556264e-01	 1.0383965721e+00	-1.4237304989e+00
 4.8659732577e-01	 1.0498612344e+00	-1.5651472432e+00
 7.2485729306e-01	 9.2023413234e-01	-1.9337732027e-01
 7.0296849194e-01	 9.3706148875e-01	-3.2917367352e-01
 6.8072669539e-01	 9.5334154529e-01	-4.6795664105e-01
 6.5815234307e-01	 9.6906369885e-01	-6.0860887691e-01
 6.3526626890e-01	 9.8421835568e-01	-7.5004680694e-01
 6.1208963938e-01	 9.9879694741e-01	-8.9122531059e-01
 5.8864389145e-01	 1.0127919427e+00	-1.0311423123e+00
 5.6495067005e-01	 1.0261968544e+00	-1.1688432566e+00
 5.4103176595e-01	 1.0390062422e+00	-1.3034254344e+00
 5.1690905401e-01	 1.0512157114e+00	-1.4340421235e+00
 4.9260443237e-01	 1.0628219064e+00	-1.5599065018e+00
 7.3369661865e-01	 9.3145599518e-01	-3.1934927274e-01
 7.1154089294e-01	 9.4848855402e-01	-4.4512157021e-01
 6.8902786716e-01	 9.6496713891e-01	-5.7298330391e-01
 6.6617823025e-01	 9.8088101743e-01	-7.0193003461e-01
 6.4301307015e-01	 9.9622047883e-01	-8.3098694754e-01
 6.1955381152e-01	 1.0109768503e+00	-9.5921305198e-01
 5.9582215269e-01	 1.0251425086e+00	-1.0857053593e+00
 5.7184000257e-01	 1.0387108874e+00	-1.2096030169e+00
 5.4762941763e-01	 1.0516764803e+00	-1.3300913685e+00
 5.2321253950e-01	 1.0640348387e+00	-1.4464059040e+00
 4.9861153337e-01	 1.0757825663e+00	-1.5578360563e+00
 7.4253593703e-01	 9.4267784885e-01	-4.3790020868e-01
 7.2011328694e-01	 9.5991560995e-01	-5.5450217409e-01
 6.9732903216e-01	 9.7659272303e-01	-6.7234023818e-01
 6.7420411086e-01	 9.9269832635e-01	-7.9051660958e-01
 6.5075986508e-01	 1.0082225922e+00	-9.0815943578e-01
 6.2701797757e-01	 1.0231567432e+00	-1.0244265328e+00
 6.0300040807e-01	 1.0374930643e+00	-1.1385091591e+00
 5.7872932945e-01	 1.0512249103e+00	-1.2496358146e+00
 5.5422706392e-01	 1.0643467080e+00	-1.3570760383e+00
 5.2951601985e-01	 1.0768539556e+00	-1.4601441687e+00
 5.0461862946e-01	 1.0887432157e+00	-1.5582030228e+00
 7.5137524922e-01	 9.5389969466e-01	-5.4900182940e-01
 7.2868567494e-01	 9.7134265789e-01	-6.5720563182e-01
 7.0563019134e-01	 9.8821829901e-01	-7.6583902701e-01
 6.8222998587e-01	 1.0045156270e+00	-8.7410472125e-01
 6.5850665459e-01	 1.0202246971e+00	-9.8122811719e-01
 6.3448213839e-01	 1.0353366276e+00	-1.0864605852e+00
 6.1017865843e-01	 1.0498436115e+00	-1.1890828416e+00
 5.8561865152e-01	 1.0637389243e+00	-1.2884084190e+00
 5.6082470559e-01	 1.0770169269e+00	-1.3837872047e+00
 5.3581949578e-01	 1.0896730634e+00	-1.4746090120e+00
 5.1062572134e-01	 1.1017038560e+00	-1.5603071405e+00
 7.6021455625e-01	 9.6512153393e-01	-6.5262364624e-01
 7.3725805793e-01	 9.8276969917e-01	-7.5312374854e-01
 7.1393134569e-01	 9.9984386822e-01	-8.5329664064e-01
 6.9025585619e-01	 1.0163329208e+00	-9.5243948115e-01
 6.6625343958e-01	 1.0322267951e+00	-1.0498693076e+00
 6.4194629486e-01	 1.0475165049e+00	-1.1449258607e+00
 6.1735690460e-01	 1.0621941514e+00	-1.2369745744e+00
 5.9250796956e-01	 1.0762529311e+00	-1.3254097240e+00
 5.6742234341e-01	 1.0896871383e+00	-1.4096577073e+00
 5.4212296803e-01	 1.1024921639e+00	-1.4891804283e+00
 5.1663280972e-01	 1.1146644887e+00	-1.5634787387e+00
 7.6905385916e-01	 9.7634336796e-01	-7.4873299994e-01
 7.4583043693e-01	 9.9419673511e-01	-8.4214978255e-01
 7.2223249615e-01	 1.0114694320e+00	-9.3453501325e-01
 6.9828172276e-01	 1.0281502090e+00	-1.0252743590e+00
 6.7400022096e-01	 1.0442288874e+00	-1.1137709564e+00
 6.4941044785e-01	 1.0596963765e+00	-1.1994477979e+00
 6.2453514743e-01	 1.0745446856e+00	-1.2817503434e+00
 5.9939728440e-01	 1.0887669320e+00	-1.3601493483e+00
 5.7401997816e-01	 1.1023573439e+00	-1.4341438930e+00
 5.4842643735e-01	 1.1153112583e+00	-1.5032645787e+00
 5.2263989530e-01	 1.1276251153e+00	-1.5670768490e+00
 7.7789315897e-01	 9.8756519807e-01	-8.3729508415e-01
 7.5440281293e-01	 1.0056237670e+00	-9.2417825925e-01
 7.3053364372e-01	 1.0230949917e+00	-1.0093806537e+00
 7.0630758653e-01	 1.0399674931e+00	-1.0923705972e+00
 6.8174699962e-01	 1.0562309756e+00	-1.1726318707e+00
 6.5687459822e-01	 1.0718762438e+00	-1.2496656650e+00
 6.3171338773e-01	 1.0868952154e+00	-1.3229928191e+00
 6.0628659682e-01	 1.1012809286e+00	-1.3921563351e+00
 5.8061761059e-01	 1.1150275450e+00	-1.4567241563e+00
 5.5472990445e-01	 1.1281303482e+00	-1.5162921782e+00
 5.2864697877e-01	 1.1405857375e+00	-1.5704874477e+00
 7.8673245672e-01	 9.9878702555e-01	-9.1827297276e-01
 7.6297518692e-01	 1.0170507963e+00	-9.9910480279e-01
 7.3883478934e-01	 1.0347205487e+00	-1.0776642875e+00
 7.1433344842e-01	 1.0517847745e+00	-1.1534966690e+00
 6.8949377648e-01	 1.0682330609e+00	-1.2261609973e+00
 6.6433874685e-01	 1.0840561083e+00	-1.2952316704e+00
 6.3889162637e-01	 1.0992457424e+00	-1.3603003050e+00
 6.1317590763e-01	 1.1137949222e+00	-1.4209779430e+00
 5.8721524149e-01	 1.1276977431e+00	-1.4768975808e+00
 5.6103337009e-01	 1.1409494352e+00	-1.5277169950e+00
 5.3465406084e-01	 1.1535463566e+00	-1.5731218204e+00
 7.9557175344e-01	 1.0100088517e+00	-9.9162765069e-01
 7.7154755992e-01	 1.0284778243e+00	-1.0668259841e+00
 7.4713593400e-01	 1.0463461043e+00	-1.1392205274e+00
 7.2235930937e-01	 1.0636020544e+00	-1.2084277777e+00
 6.9724055243e-01	 1.0802351449e+00	-1.2740767562e+00
 6.7180289461e-01	 1.0962359714e+00	-1.3358101374e+00
 6.4606986416e-01	 1.1115962679e+00	-1.3932857588e+00
 6.2006521764e-01	 1.1263089144e+00	-1.4461785218e+00
 5.9381287161e-01	 1.1403679398e+00	-1.4941826745e+00
 5.6733683499e-01	 1.1537685207e+00	-1.5370144531e+00
 5.4066114221e-01	 1.1665069742e+00	-1.5744150377e+00
 4.8059021287e-01	 1.0369005487e+00	-1.5743259736e+00
 4.5672389122e-01	 1.0476321190e+00	-1.7286158821e+00
 4.3272267244e-01	 1.0577716711e+00	-1.8795144790e+00
 4.0860763499e-01	 1.0673189073e+00	-2.0259470288e+00
 3.8439965732e-01	 1.0762744826e+00	-2.1669615976e+00
 3.6011936715e-01	 1.0846399814e+00	-2.3017324884e+00
 3.3578709316e-01	 1.0924178900e+00	-2.4295626488e+00
 3.1142281934e-01	 1.0996115674e+00	-2.5498850251e+00
 2.8704614204e-01	 1.1062252131e+00	-2.6622628544e+00
 2.6267623005e-01	 1.1122638330e+00	-2.7663888928e+00
 2.3833178755e-01	 1.1177332028e+00	-2.8620835948e+00
 4.8659732577e-01	 1.0498612344e+00	-1.5651472432e+00
 4.6243268825e-01	 1.0607269434e+00	-1.7027491977e+00
 4.3813146746e-01	 1.0709932343e+00	-1.8372139644e+00
 4.1371500533e-01	 1.0806598056e+00	-1.9675920832e+00
 3.8920444128e-01	 1.0897273208e+00	-2.0930437971e+00
 3.6462066085e-01	 1.0981973836e+00	-2.2128424950e+00
 3.3998424684e-01	 1.1060725118e+00	-2.3263772308e+00
 3.1531543302e-01	 1.1133561062e+00	-2.4331542894e+00
 2.9063406069e-01	 1.1200524189e+00	-2.5327977763e+00
 2.6595953822e-01	 1.1261665182e+00	-2.6250492237e+00
 2.4131080360e-01	 1.1317042520e+00	-2.7097662129e+00
 4.9260443237e-01	 1.0628219064e+00	-1.5599065018e+00
 4.6814147929e-01	 1.0738217540e+00	-1.6819798344e+00
 4.4354025681e-01	 1.0842147836e+00	-1.8011322880e+00
 4.1882237031e-01	 1.0940006900e+00	-1.9165320334e+00
 3.9400922018e-01	 1.1031801447e+00	-2.0274443846e+00
 3.6912194983e-01	 1.1117547717e+00	-2.1332352781e+00
 3.4418139612e-01	 1.1197271193e+00	-2.2333739311e+00
 3.1920804261e-01	 1.1271006306e+00	-2.3274346396e+00
 2.9422197556e-01	 1.1338796101e+00	-2.4150976865e+00
 2.6924284294e-01	 1.1400691888e+00	-2.4961493372e+00
 2.4428981652e-01	 1.1456752867e+00	-2.5704809166e+00
 4.9861153337e-01	 1.0757825663e+00	-1.5578360563e+00
 4.7385026501e-01	 1.0869165524e+00	-1.6654851701e+00
 4.4894904110e-01	 1.0974363205e+00	-1.7703950609e+00
 4.2392973052e-01	 1.1073415619e+00	-1.8718440275e+00
 3.9881399461e-01	 1.1166329562e+00	-1.9691954695e+00
 3.7362323460e-01	 1.1253121470e+00	-2.0619014319e+00
 3.4837854147e-01	 1.1333817140e+00	-2.1495054295e+00
 3.2310064857e-01	 1.1408451422e+00	-2.2316445014e+00
 2.9780988709e-01	 1.1477067885e+00	-2.3080504544e+00
 2.7252614460e-01	 1.1539718464e+00	-2.3785502651e+00
 2.4726882666e-01	 1.1596463082e+00	-2.4430656205e+00
 5.0461862946e-01	 1.0887432157e+00	-1.5582030228e+00
 4.7955904606e-01	 1.1000113401e+00	-1.6524802892e+00
 4.5435782098e-01	 1.1106578467e+00	-1.7441683656e+00
 4.2903708656e-01	 1.1206824229e+00	-1.8326483097e+00
 4.0361876511e-01	 1.1300857566e+00	-1.9173747327e+00
 3.7812451570e-01	 1.1388695113e+00	-1.9978794408e+00
 3.5257568340e-01	 1.1470362976e+00	-2.0737744531e+00
 3.2699325135e-01	 1.1545896425e+00	-2.1447543349e+00
 3.0139779569e-01	 1.1615339555e+00	-2.2105977973e+00
 2.7580944357e-01	 1.1678744926e+00	-2.2711685209e+00
 2.5024783437e-01	 1.1736173184e+00	-2.3264151724e+00
 5.1062572134e-01	 1.1017038560e+00	-1.5603071405e+00
 4.8526782311e-01	 1.1131061186e+00	-1.6422156260e+00
 4.5976659707e-01	 1.1238793636e+00	-1.7216562389e+00
 4.3414443902e-01	 1.1340232746e+00	-1.7981055507e+00
 4.0842353225e-01	 1.1435385477e+00	-1.8711026150e+00
 3.8262579365e-01	 1.1524268661e+00	-1.9402527370e+00
 3.5677282240e-01	 1.1606908716e+00	-2.0052307113e+00
 3.3088585141e-01	 1.1683341332e+00	-2.0657834591e+00
 3.0498570177e-01	 1.1753611129e+00	-2.1217320045e+00
 2.7909274025e-01	 1.1817771291e+00	-2.1729727360e+00
 2.5322683999e-01	 1.1875883188e+00	-2.2194779122e+00
 5.1663280972e-01	 1.1146644887e+00	-1.5634787387e+00
 4.9097659684e-01	 1.1262008895e+00	-1.6339747754e+00
 4.6517537001e-01	 1.1371008728e+00	-1.7020983324e+00
 4.3925178850e-01	 1.1473641185e+00	-1.7674143673e+00
 4.1322829658e-01	 1.1569913309e+00	-1.8295397047e+00
 3.8712706897e-01	 1.1659842130e+00	-1.8881469640e+00
 3.6096995894e-01	 1.1743454377e+00	-1.9429680461e+00
 3.3477844920e-01	 1.1820786159e+00	-1.9937970990e+00
 3.0857360577e-01	 1.1891882622e+00	-2.0404928916e+00
 2.8237603501e-01	 1.1956797576e+00	-2.0829805308e+00
 2.5620584387e-01	 1.2015593110e+00	-2.1212524705e+00
 5.2263989530e-01	 1.1276251153e+00	-1.5670768490e+00
 4.9668536790e-01	 1.1392956543e+00	-1.6270724567e+00
 4.7058414042e-01	 1.1503223758e+00	-1.6847677369e+00
 4.4435913560e-01	 1.1607049561e+00	-1.7398090152e+00
 4.1803305867e-01	 1.1704441078e+00	-1.7918843061e+00
 3.9162834219e-01	 1.1795415536e+00	-1.8407274311e+00
 3.6516709353e-01	 1.1879999974e+00	-1.8861217813e+00
 3.3867104517e-01	 1.1958230922e+00	-1.9279036379e+00
 3.1216150809e-01	 1.2030154050e+00	-1.9659649652e+00
 2.8565932825e-01	 1.2095823795e+00	-2.0002556025e+00
 2.5918484637e-01	 1.2155302967e+00	-2.0307847895e+00
 5.2864697877e-01	 1.1405857375e+00	-1.5704874477e+00
 5.0239413696e-01	 1.1523904145e+00	-1.6208526193e+00
 4.7599290894e-01	 1.1635438742e+00	-1.6689689575e+00
 4.4946648092e-01	 1.1740457891e+00	-1.7145572406e+00
 4.2283781909e-01	 1.1838968800e+00	-1.7573701768e+00
 3.9612961384e-01	 1.1930988894e+00	-1.7971967427e+00
 3.6936422664e-01	 1.2016545523e+00	-1.8338662523e+00
 3.4256363978e-01	 1.2095675637e+00	-1.8672520574e+00
 3.1574940915e-01	 1.2168425430e+00	-1.8972747829e+00
 2.8894262033e-01	 1.2234849965e+00	-1.9239050125e+00
 2.6216384782e-01	 1.2295012776e+00	-1.9471653473e+00
 5.3465406084e-01	 1.1535463566e+00	-1.5731218204e+00
 5.0810290469e-01	 1.1654851716e+00	-1.6146866788e+00
 4.8140167620e-01	 1.1767653695e+00	-1.6540360276e+00
 4.5457382504e-01	 1.1873866190e+00	-1.6909582796e+00
 4.2764257838e-01	 1.1973496491e+00	-1.7252644182e+00
 4.0063088444e-01	 1.2066562220e+00	-1.7567925892e+00
 3.7356135878e-01	 1.2153091040e+00	-1.7854125054e+00
 3.4645623348e-01	 1.2233120320e+00	-1.8110295523e+00
 3.1933730938e-01	 1.2306696778e+00	-1.8335884911e+00
 2.9222591164e-01	 1.2373876103e+00	-1.8530766573e+00
 2.6514284858e-01	 1.2434722551e+00	-1.8695265700e+00
 5.4066114221e-01	 1.1665069742e+00	-1.5744150377e+00
 5.1381167176e-01	 1.1785799272e+00	-1.6079718726e+00
 4.8681044283e-01	 1.1899868632e+00	-1.6393307509e+00
 4.5968116857e-01	 1.2007274473e+00	-1.6683409919e+00
 4.3244733711e-01	 1.2108024166e+00	-1.6948655092e+00
 4.0513215451e-01	 1.2202135531e+00	-1.7187856871e+00
 3.7775849043e-01	 1.2289636542e+00	-1.7400061505e+00
 3.5034882672e-01	 1.2370564986e+00	-1.7584593048e+00
 3.2292520919e-01	 1.2444968109e+00	-1.7741095287e+00
 2.9550920258e-01	 1.2512902225e+00	-1.7869569092e+00
 2.6812184899e-01	 1.2574432311e+00	-1.7970404173e+00
 2.3833178755e-01	 1.1177332028e+00	-2.8620835948e+00
 2.1402932525e-01	 1.1226401542e+00	-2.9492216032e+00
 1.8978824910e-01	 1.1269914870e+00	-3.0273999823e+00
 1.6562570557e-01	 1.1307950562e+00	-3.0962539451e+00
 1.4155825826e-01	 1.1340593282e+00	-3.1555720203e+00
 1.1760186658e-01	 1.1367933383e+00	-3.2052904807e+00
 9.3771867651e-02	 1.1390066486e+00	-3.2454867018e+00
 7.0082961219e-02	 1.1407093057e+00	-3.2763715591e+00
 4.6549197565e-02	 1.1419117979e+00	-3.2982809773e+00
 2.3183968311e-02	 1.1426250134e+00	-3.3116667521e+00
 0.0000000000e+00	 1.1428601985e+00	-3.3170867702e+00
 2.4131080360e-01	 1.1317042520e+00	-2.7097662129e+00
 2.1670457391e-01	 1.1366725377e+00	-2.7869369084e+00
 1.9216049766e-01	 1.1410782597e+00	-2.8562451873e+00
 1.6769593565e-01	 1.1449293715e+00	-2.9173096751e+00
 1.4332765851e-01	 1.1482344451e+00	-2.9698987337e+00
 1.1907182513e-01	 1.1510026287e+00	-3.0139253965e+00
 9.4943964336e-02	 1.1532436042e+00	-3.0494412055e+00
 7.0958959624e-02	 1.1549675436e+00	-3.0766290512e+00
 4.7131036890e-02	 1.1561850663e+00	-3.0957951290e+00
 2.3473755142e-02	 1.1569071966e+00	-3.1073601281e+00
 0.0000000000e+00	 1.1571453214e+00	-3.1118497799e+00
 2.4428981652e-01	 1.1456752867e+00	-2.5704809166e+00
 2.1937981975e-01	 1.1507049064e+00	-2.6382077169e+00
 1.9453274372e-01	 1.1551650177e+00	-2.6991166775e+00
 1.6976616355e-01	 1.1590636719e+00	-2.7528110651e+00
 1.4509705689e-01	 1.1624095470e+00	-2.7990403526e+00
 1.2054178213e-01	 1.1652119043e+00	-2.8376956632e+00
 9.6116059790e-02	 1.1674805449e+00	-2.8688040864e+00
 7.1834957109e-02	 1.1692257666e+00	-2.8925219624e+00
 4.7712875603e-02	 1.1704583197e+00	-2.9091272434e+00
 2.3763541668e-02	 1.1711893648e+00	-2.9190110499e+00
 0.0000000000e+00	 1.1714304292e+00	-2.9226685437e+00
 2.4726882666e-01	 1.1596463082e+00	-2.4430656205e+00
 2.2205506311e-01	 1.1647372620e+00	-2.5018506285e+00
 1.9690498758e-01	 1.1692517625e+00	-2.5548095434e+00
 1.7183638952e-01	 1.1731979592e+00	-2.6015313723e+00
 1.4686645362e-01	 1.1765846358e+00	-2.6417478509e+00
 1.2201173775e-01	 1.1794211666e+00	-2.6753294000e+00
 9.7288154151e-02	 1.1817174723e+00	-2.7022799219e+00
 7.2710953776e-02	 1.1834839762e+00	-2.7227305300e+00
 4.8294713773e-02	 1.1847315598e+00	-2.7369323176e+00
 2.4053327925e-02	 1.1854715197e+00	-2.7452482779e+00
 0.0000000000e+00	 1.1857155238e+00	-2.7481445005e+00
 2.5024783437e-01	 1.1736173184e+00	-2.3264151724e+00
 2.2473030427e-01	 1.1787696062e+00	-2.3767405323e+00
 1.9927722950e-01	 1.1833384958e+00	-2.4221785166e+00
 1.7390661380e-01	 1.1873322348e+00	-2.4623048450e+00
 1.4863584891e-01	 1.1907597130e+00	-2.4968345444e+00
 1.2348169218e-01	 1.1936304173e+00	-2.5256184208e+00
 9.8460247554e-02	 1.1959543881e+00	-2.5486383406e+00
 7.3586949728e-02	 1.1977421742e+00	-2.5660014073e+00
 4.8876551468e-02	 1.1990047883e+00	-2.5779331367e+00
 2.4343113944e-02	 1.1997536629e+00	-2.5847697429e+00
 0.0000000000e+00	 1.2000006067e+00	-2.5869496550e+00
 2.5322683999e-01	 1.1875883188e+00	-2.2194779122e+00
 2.2740554357e-01	 1.1928019406e+00	-2.2618070942e+00
 2.0164946975e-01	 1.1974252192e+00	-2.3001343868e+00
 1.7597683663e-01	 1.2014665006e+00	-2.3340230698e+00
 1.5040524296e-01	 1.2049347802e+00	-2.3631723668e+00
 1.2495164558e-01	 1.2078396580e+00	-2.3874144403e+00
 9.9632340137e-02	 1.2101912939e+00	-2.4067101596e+00
 7.4462945067e-02	 1.2120003622e+00	-2.4211437284e+00
 4.9458388756e-02	 1.2132780067e+00	-2.4309162681e+00
 2.4632899761e-02	 1.2140357961e+00	-2.4363384688e+00
 0.0000000000e+00	 1.2142856796e+00	-2.4378224264e+00
 2.5620584387e-01	 1.2015593110e+00	-2.1212524705e+00
 2.3008078130e-01	 1.2068342668e+00	-2.1560314892e+00
 2.0402170863e-01	 1.2115119344e+00	-2.1876406689e+00
 1.7804705825e-01	 1.2156007582e+00	-2.2156315723e+00
 1.5217463598e-01	 1.2191098392e+00	-2.2396884068e+00
 1.2642159812e-01	 1.2220488905e+00	-2.2596255459e+00
 1.0080443204e-01	 1.2244281914e+00	-2.2753837905e+00
 7.5338939895e-02	 1.2262585419e+00	-2.2870254498e+00
 5.0040225705e-02	 1.2275512168e+00	-2.2947283356e+00
 2.4922685409e-02	 1.2283179210e+00	-2.2987787792e+00
 0.0000000000e+00	 1.2285707441e+00	-2.2995637878e+00
 2.5918484637e-01	 1.2155302967e+00	-2.0307847895e+00
 2.3275601779e-01	 1.2208665864e+00	-2.0584433605e+00
 2.0639394639e-01	 1.2255986431e+00	-2.0837104996e+00
 1.8011727891e-01	 1.2297350091e+00	-2.1061266543e+00
 1.5394402817e-01	 1.2332848916e+00	-2.1253616834e+00
 1.2789154998e-01	 1.2362581163e+00	-2.1412129124e+00
 1.0197652339e-01	 1.2386650823e+00	-2.1536018932e+00
 7.6214934315e-02	 1.2405167149e+00	-2.1625699426e+00
 5.0622062382e-02	 1.2418244203e+00	-2.1682725511e+00
 2.5212470921e-02	 1.2426000392e+00	-2.1709727668e+00
 0.0000000000e+00	 1.2428558020e+00	-2.1710336709e+00
 2.6216384782e-01	 1.2295012776e+00	-1.9471653473e+00
 2.3543125334e-01	 1.2348989011e+00	-1.9681179857e+00
 2.0876618333e-01	 1.2396853468e+00	-1.9874037472e+00
 1.8218749884e-01	 1.2438692551e+00	-2.0045524456e+00
 1.5571341975e-01	 1.2474599390e+00	-2.0192201420e+00
 1.2936150132e-01	 1.2504673372e+00	-2.0311877416e+00
 1.0314861433e-01	 1.2529019682e+00	-2.0403582586e+00
 7.7090928428e-02	 1.2547748830e+00	-2.0467528180e+00
 5.1203898855e-02	 1.2560976188e+00	-2.0505054819e+00
 2.5502256333e-02	 1.2568821524e+00	-2.0518570023e+00
 0.0000000000e+00	 1.2571408549e+00	-2.0511476167e+00
 2.6514284858e-01	 1.2434722551e+00	-1.8695265700e+00
 2.3810648826e-01	 1.2489312125e+00	-1.8841736351e+00
 2.1113841971e-01	 1.2537720472e+00	-1.8978243161e+00
 1.8425771829e-01	 1.2580034978e+00	-1.9099981558e+00
 1.5748281091e-01	 1.2616349830e+00	-1.9203378526e+00
 1.3083145232e-01	 1.2646765547e+00	-1.9286084074e+00
 1.0432070500e-01	 1.2671388507e+00	-1.9346949015e+00
 7.7966922337e-02	 1.2690330477e+00	-1.9385989672e+00
 5.1785735194e-02	 1.2703708139e+00	-1.9404340365e+00
 2.5792041677e-02	 1.2711642623e+00	-1.9404194657e+00
 0.0000000000e+00	 1.2714259045e+00	-1.9388736518e+00
 2.6812184899e-01	 1.2574432311e+00	-1.7970404173e+00
 2.4078172288e-01	 1.2629635224e+00	-1.8057691061e+00
 2.1351065582e-01	 1.2678587460e+00	-1.8141176311e+00
 1.8632793750e-01	 1.2721377389e+00	-1.8215955089e+00
 1.5925220186e-01	 1.2758100255e+00	-1.8278323953e+00
 1.3230140315e-01	 1.2788857706e+00	-1.8325777923e+00
 1.0549279553e-01	 1.2813757316e+00	-1.8356993467e+00
 7.8842916145e-02	 1.2832912108e+00	-1.8371797975e+00
 5.2367571465e-02	 1.2846440074e+00	-1.8371126514e+00
 2.6081826987e-02	 1.2854463705e+00	-1.8356966829e+00
 0.0000000000e+00	 1.2857109524e+00	-1.8332293723e+00
 1.2857109524e+00	 0.0000000000e+00	 2.8570639213e+00
 1.2854463705e+00	 2.6081826987e-02	 2.8597473901e+00
 1.2846440074e+00	 5.2367571465e-02	 2.8515797355e+00
 1.2832912108e+00	 7.8842916145e-02	 2.8331020944e+00
 1.2813757316e+00	 1.0549279553e-01	 2.8049247397e+00
 1.2788857706e+00	 1.3230140315e-01	 2.7677238467e+00
 1.2758100255e+00	 1.5925220186e-01	 2.7222377314e+00
 1.2721377389e+00	 1.8632793750e-01	 2.6692625485e+00
 1.2678587460e+00	 2.1351065582e-01	 2.6096474416e+00
 1.2629635224e+00	 2.4078172288e-01	 2.5442891390e+00
 1.2574432311e+00	 2.6812184899e-01	 2.4741259971e+00
 1.2999969994e+00	 0.0000000000e+00	 2.8865103088e+00
 1.2997294777e+00	 2.6371632567e-02	 2.8891224461e+00
 1.2989181992e+00	 5.2949448433e-02	 2.8802381929e+00
 1.2975503711e+00	 7.9718971224e-02	 2.8604377568e+00
 1.2956136083e+00	 1.0666496805e-01	 2.8303706342e+00
 1.2930959804e+00	 1.3377145680e-01	 2.7907521336e+00
 1.2899860594e+00	 1.6102171658e-01	 2.7423593658e+00
 1.2862729685e+00	 1.8839830152e-01	 2.6860266872e+00
 1.2819464301e+00	 2.1588305785e-01	 2.6226405891e+00
 1.2769968137e+00	 2.4345714461e-01	 2.5531340277e+00
 1.2714151842e+00	 2.7110105776e-01	 2.4784801946e+00
 1.3142830432e+00	 0.0000000000e+00	 2.9144078775e+00
 1.3140125816e+00	 2.6661438079e-02	 2.9170129201e+00
 1.3131923877e+00	 5.3531325265e-02	 2.9074863753e+00
 1.3118095281e+00	 8.0595026100e-02	 2.8864500640e+00
 1.3098514817e+00	 1.0783714029e-01	 2.8545952497e+00
 1.3073061868e+00	 1.3524151010e-01	 2.8126789049e+00
 1.3041620900e+00	 1.6279123088e-01	 2.7615194364e+00
 1.3004081949e+00	 1.9046866504e-01	 2.7019918577e+00
 1.2960341109e+00	 2.1825545933e-01	 2.6350223992e+00
 1.2910301017e+00	 2.4613256572e-01	 2.5615825527e+00
 1.2853871341e+00	 2.7408026585e-01	 2.4826825480e+00
 1.3285690802e+00	 0.0000000000e+00	 2.9403648675e+00
 1.3282956788e+00	 2.6951243456e-02	 2.9430237015e+00
 1.3274665695e+00	 5.4113201826e-02	 2.9329260116e+00
 1.3260686785e+00	 8.1471080567e-02	 2.9107376485e+00
 1.3240893484e+00	 1.0900931199e-01	 2.8771940579e+00
 1.3215163866e+00	 1.3671156272e-01	 2.8330962749e+00
 1.3183381140e+00	 1.6456074436e-01	 2.7793063709e+00
 1.3145434147e+00	 1.9253902761e-01	 2.7167423378e+00
 1.3101217851e+00	 2.2062785971e-01	 2.6463724031e+00
 1.3050633832e+00	 2.4880798558e-01	 2.5692087683e+00
 1.2993590775e+00	 2.7705947254e-01	 2.4863007736e+00
 1.3428551073e+00	 0.0000000000e+00	 2.9640031111e+00
 1.3425787660e+00	 2.7241048630e-02	 2.9667737801e+00
 1.3417407413e+00	 5.4695077980e-02	 2.9561734358e+00
 1.3403278189e+00	 8.2347134421e-02	 2.9329142524e+00
 1.3383272052e+00	 1.1018148287e-01	 2.8977781456e+00
 1.3357265764e+00	 1.3818161430e-01	 2.8516124841e+00
 1.3325141281e+00	 1.6633025660e-01	 2.7953252420e+00
 1.3286786246e+00	 1.9460938872e-01	 2.7298795808e+00
 1.3242094494e+00	 2.2300025842e-01	 2.6562878517e+00
 1.3190966548e+00	 2.5148340357e-01	 2.5756050120e+00
 1.3133310111e+00	 2.8003867715e-01	 2.4889214563e+00
 1.3571411210e+00	 0.0000000000e+00	 2.9849573174e+00
 1.3568618399e+00	 2.7530853534e-02	 2.9878955147e+00
 1.3560148998e+00	 5.5276953591e-02	 2.9768588395e+00
 1.3545869460e+00	 8.3223187458e-02	 2.9526079619e+00
 1.3525650487e+00	 1.1135365265e-01	 2.9159734327e+00
 1.3499367530e+00	 1.3965166452e-01	 2.8678510984e+00
 1.3466901289e+00	 1.6809976719e-01	 2.8091969470e+00
 1.3428138213e+00	 1.9667974790e-01	 2.7410213730e+00
 1.3382971007e+00	 2.2537265492e-01	 2.6643828513e+00
 1.3331299134e+00	 2.5415881906e-01	 2.5803810143e+00
 1.3273029316e+00	 2.8301787897e-01	 2.4901491321e+00
 1.3714271181e+00	 0.0000000000e+00	 3.0028744013e+00
 1.3711448971e+00	 2.7820658100e-02	 3.0060339466e+00
 1.3702890417e+00	 5.5858828523e-02	 2.9946255700e+00
 1.3688460564e+00	 8.4099239472e-02	 2.9694604910e+00
 1.3668028755e+00	 1.1252582106e-01	 2.9314199386e+00
 1.3641469131e+00	 1.4112171302e-01	 2.8814502579e+00
 1.3608661132e+00	 1.6986927572e-01	 2.8205574376e+00
 1.3569490015e+00	 1.9875010467e-01	 2.7498010439e+00
 1.3523847354e+00	 2.2774504865e-01	 2.6702875513e+00
 1.3471631556e+00	 2.5683423144e-01	 2.5831630642e+00
 1.3412748358e+00	 2.8599707732e-01	 2.4896054284e+00
 1.3857130952e+00	 0.0000000000e+00	 3.0174128538e+00
 1.3854279343e+00	 2.8110462260e-02	 3.0208461568e+00
 1.3845631636e+00	 5.6440702641e-02	 3.0091294733e+00
 1.3831051469e+00	 8.4975290260e-02	 2.9831265088e+00
 1.3810406825e+00	 1.1369798784e-01	 2.9437710939e+00
 1.3783570532e+00	 1.4259175946e-01	 2.8920619723e+00
 1.3750420777e+00	 1.7163878176e-01	 2.8290569979e+00
 1.3710841619e+00	 2.0082045854e-01	 2.7558667250e+00
 1.3664723505e+00	 2.3011743906e-01	 2.6736473826e+00
 1.3611963781e+00	 2.5950964006e-01	 2.5835932243e+00
 1.3552467205e+00	 2.8897627150e-01	 2.4869282546e+00
 1.3999990489e+00	 0.0000000000e+00	 3.0282421505e+00
 1.3997109481e+00	 2.8400265947e-02	 3.0320006613e+00
 1.3988372621e+00	 5.7022575808e-02	 3.0200382760e+00
 1.3973642141e+00	 8.5851339617e-02	 2.9932730075e+00
 1.3952784662e+00	 1.1487015270e-01	 2.9526930941e+00
 1.3925671701e+00	 1.4406180351e-01	 2.8993514589e+00
 1.3892180190e+00	 1.7340828492e-01	 2.8343595655e+00
 1.3852192993e+00	 2.0289080902e-01	 2.7588806533e+00
 1.3805599425e+00	 2.3248982560e-01	 2.6741223417e+00
 1.3752295777e+00	 2.6218504432e-01	 2.5813285943e+00
 1.3692185824e+00	 2.9195546082e-01	 2.4817710434e+00
 1.4142849760e+00	 0.0000000000e+00	 3.0350421972e+00
 1.4139939354e+00	 2.8690069092e-02	 3.0391768437e+00
 1.4131113340e+00	 5.7604447888e-02	 3.0270310051e+00
 1.4116232547e+00	 8.6727387339e-02	 2.9995787094e+00
 1.4095162233e+00	 1.1604231537e-01	 2.9578642925e+00
 1.4067772605e+00	 1.4553184480e-01	 2.9029965204e+00
 1.4033939338e+00	 1.7517778477e-01	 2.8361420936e+00
 1.3993544102e+00	 2.0496115564e-01	 2.7585185162e+00
 1.3946475083e+00	 2.3486220770e-01	 2.6713863175e+00
 1.3892627511e+00	 2.6486044358e-01	 2.5760406177e+00
 1.3831904182e+00	 2.9493464457e-01	 2.4738020351e+00
 1.4285708730e+00	 0.0000000000e+00	 3.0375028071e+00
 1.4282768926e+00	 2.8979871629e-02	 3.0420644219e+00
 1.4273853760e+00	 5.8186318747e-02	 3.0297974429e+00
 1.4258822653e+00	 8.7603433220e-02	 3.0017335089e+00
 1.4237539505e+00	 1.1721447557e-01	 2.9589746291e+00
 1.4209873210e+00	 1.4700188301e-01	 2.9026869605e+00
 1.4175698189e+00	 1.7694728091e-01	 2.8340939516e+00
 1.4134894915e+00	 2.0703149792e-01	 2.7544688354e+00
 1.4087350444e+00	 2.3723458483e-01	 2.6651264576e+00
 1.4032958951e+00	 2.6753583722e-01	 2.5674144298e+00
 1.3971622246e+00	 2.9791382207e-01	 2.4627036057e+00
 1.2574432311e+00	 2.6812184899e-01	 2.4741259971e+00
 1.2512902225e+00	 2.9550920258e-01	 2.3972069073e+00
 1.2444968109e+00	 3.2292520919e-01	 2.3114776346e+00
 1.2370564986e+00	 3.5034882672e-01	 2.2177749893e+00
 1.2289636542e+00	 3.7775849043e-01	 2.1169463225e+00
 1.2202135531e+00	 4.0513215451e-01	 2.0098449051e+00
 1.2108024166e+00	 4.3244733711e-01	 1.8973251779e+00
 1.2007274473e+00	 4.5968116857e-01	 1.7802379074e+00
 1.1899868632e+00	 4.8681044283e-01	 1.6594252884e+00
 1.1785799272e+00	 5.1381167176e-01	 1.5357160421e+00
 1.1665069742e+00	 5.4066114221e-01	 1.4099205615e+00
 1.2714151842e+00	 2.7110105776e-01	 2.4784801946e+00
 1.2651938071e+00	 2.9879272316e-01	 2.3967316707e+00
 1.2583249112e+00	 3.2651335995e-01	 2.3058565459e+00
 1.2508019267e+00	 3.5424169224e-01	 2.2067535422e+00
 1.2426191594e+00	 3.8195591565e-01	 2.1003307354e+00
 1.2337718325e+00	 4.0963373942e-01	 1.9875005093e+00
 1.2242561250e+00	 4.3725243191e-01	 1.8691743670e+00
 1.2140692088e+00	 4.6478886933e-01	 1.7462576380e+00
 1.2032092818e+00	 4.9221958777e-01	 1.6196441262e+00
 1.1916755987e+00	 5.1952083812e-01	 1.4902107512e+00
 1.1794684983e+00	 5.4666864375e-01	 1.3588122424e+00
 1.2853871341e+00	 2.7408026585e-01	 2.4826825480e+00
 1.2790973885e+00	 3.0207624298e-01	 2.3963823235e+00
 1.2721530083e+00	 3.3010150988e-01	 2.3006704238e+00
 1.2645473515e+00	 3.5813455684e-01	 2.1965012435e+00
 1.2562746614e+00	 3.8615333988e-01	 2.0848373954e+00
 1.2473301086e+00	 4.1413532329e-01	 1.9666442840e+00
 1.2377098303e+00	 4.4205752558e-01	 1.8428845232e+00
 1.2274109671e+00	 4.6989656889e-01	 1.7145122382e+00
 1.2164316972e+00	 4.9762873145e-01	 1.5824673026e+00
 1.2047712672e+00	 5.2523000315e-01	 1.4476695648e+00
 1.1924300194e+00	 5.5267614389e-01	 1.3110131314e+00
 1.2993590775e+00	 2.7705947254e-01	 2.4863007736e+00
 1.2930009634e+00	 3.0535976126e-01	 2.3957201873e+00
 1.2859810990e+00	 3.3368965813e-01	 2.2954751299e+00
 1.2782927699e+00	 3.6202741963e-01	 2.1865695842e+00
 1.2699301571e+00	 3.9035076216e-01	 2.0700146677e+00
 1.2608883785e+00	 4.1863690505e-01	 1.9468228700e+00
 1.2511635294e+00	 4.4686261702e-01	 1.8180021195e+00
 1.2407527192e+00	 4.7500426608e-01	 1.6845497245e+00
 1.2296541065e+00	 5.0303787261e-01	 1.5474462403e+00
 1.2178669296e+00	 5.3093916552e-01	 1.4076493236e+00
 1.2053915345e+00	 5.5868364122e-01	 1.2660876430e+00
 1.3133310111e+00	 2.8003867715e-01	 2.4889214563e+00
 1.3069045285e+00	 3.0864327725e-01	 2.3943260237e+00
 1.2998091799e+00	 3.3727780388e-01	 2.2898464808e+00
 1.2920381787e+00	 3.6592027970e-01	 2.1765304608e+00
 1.2835856432e+00	 3.9454818150e-01	 2.0554317023e+00
 1.2744466389e+00	 4.2313848366e-01	 1.9276039930e+00
 1.2646172190e+00	 4.5166770509e-01	 1.7940949293e+00
 1.2540944620e+00	 4.8011195969e-01	 1.6559395381e+00
 1.2428765065e+00	 5.0844700998e-01	 1.5141538153e+00
 1.2309625827e+00	 5.3664832389e-01	 1.3697282473e+00
 1.2183530405e+00	 5.6469113435e-01	 1.2236213885e+00
 1.3273029316e+00	 2.8301787897e-01	 2.4901491321e+00
 1.3208080807e+00	 3.1192679017e-01	 2.3917990903e+00
 1.3136372479e+00	 3.4086594627e-01	 2.2833792786e+00
 1.3057835747e+00	 3.6981313613e-01	 2.1659751829e+00
 1.2972411165e+00	 3.9874559693e-01	 2.0406774210e+00
 1.2880048866e+00	 4.2764005807e-01	 1.9085754350e+00
 1.2780708960e+00	 4.5647278868e-01	 1.7707509856e+00
 1.2674361923e+00	 4.8521964853e-01	 1.6282714959e+00
 1.2560988942e+00	 5.1385614230e-01	 1.4821833022e+00
 1.2440582237e+00	 5.4235747694e-01	 1.3335048808e+00
 1.2313145343e+00	 5.7069862187e-01	 1.1832201293e+00
 1.3412748358e+00	 2.8599707732e-01	 2.4896054284e+00
 1.3347116167e+00	 3.1521029926e-01	 2.3877562544e+00
 1.3274652999e+00	 3.4445408448e-01	 2.2756864008e+00
 1.3195289546e+00	 3.7370598802e-01	 2.1545135419e+00
 1.3108965739e+00	 4.0294300746e-01	 2.0253595679e+00
 1.3015631185e+00	 4.3214162723e-01	 1.8893440684e+00
 1.2915245574e+00	 4.6127786666e-01	 1.7475776022e+00
 1.2807779071e+00	 4.9032733141e-01	 1.6011548035e+00
 1.2693212665e+00	 5.1926526832e-01	 1.4511473841e+00
 1.2571538494e+00	 5.4806662332e-01	 1.2985971040e+00
 1.2442760131e+00	 5.7670610238e-01	 1.1445087916e+00
 1.3552467205e+00	 2.8897627150e-01	 2.4869282546e+00
 1.3486151331e+00	 3.1849380376e-01	 2.3818311602e+00
 1.3412933324e+00	 3.4804221766e-01	 2.2663979450e+00
 1.3332743153e+00	 3.7759883446e-01	 2.1417729348e+00
 1.3245520122e+00	 4.0714041211e-01	 2.0091038152e+00
 1.3151213314e+00	 4.3664319009e-01	 1.8695349472e+00
 1.3049781999e+00	 4.6608293792e-01	 1.7242004534e+00
 1.2941196032e+00	 4.9543500715e-01	 1.5742171264e+00
 1.2825436203e+00	 5.2467438676e-01	 1.4206772199e+00
 1.2702494568e+00	 5.5377576171e-01	 1.2646411999e+00
 1.2572374737e+00	 5.8271357448e-01	 1.1071305393e+00
 1.3692185824e+00	 2.9195546082e-01	 2.4817710434e+00
 1.3625186269e+00	 3.2177730289e-01	 2.3736734457e+00
 1.3551213424e+00	 3.5163034498e-01	 2.2551604247e+00
 1.3470196535e+00	 3.8149167454e-01	 2.1273975411e+00
 1.3382074282e+00	 4.1133780990e-01	 1.9915529228e+00
 1.3286795221e+00	 4.4114474559e-01	 1.8487904522e+00
 1.3184318205e+00	 4.7088800132e-01	 1.7002627086e+00
 1.3074612775e+00	 5.0054267454e-01	 1.5471037167e+00
 1.2957659524e+00	 5.3008349636e-01	 1.3904215660e+00
 1.2833450427e+00	 5.5948489078e-01	 1.2312909760e+00
 1.2701989132e+00	 5.8872103677e-01	 1.0707458999e+00
 1.3831904182e+00	 2.9493464457e-01	 2.4738020351e+00
 1.3764220947e+00	 3.2506079589e-01	 2.3629480067e+00
 1.3689493265e+00	 3.5521846561e-01	 2.2416360121e+00
 1.3607649661e+00	 3.8538450735e-01	 2.1110475472e+00
 1.3518628187e+00	 4.1553519986e-01	 1.9723659471e+00
 1.3422376876e+00	 4.4564629269e-01	 1.8267694861e+00
 1.3318854160e+00	 4.7569305576e-01	 1.6754242151e+00
 1.3208029269e+00	 5.0565033239e-01	 1.5194765892e+00
 1.3089882599e+00	 5.3549259587e-01	 1.3600459488e+00
 1.2964406043e+00	 5.6519400919e-01	 1.1982169364e+00
 1.2831603284e+00	 5.9472848784e-01	 1.0350319403e+00
 1.3971622246e+00	 2.9791382207e-01	 2.4627036057e+00
 1.3903255334e+00	 3.2834428200e-01	 2.3493343029e+00
 1.3827772816e+00	 3.5880657870e-01	 2.2255018262e+00
 1.3745102498e+00	 3.8927733199e-01	 2.0923984163e+00
 1.3655181805e+00	 4.1973258100e-01	 1.9512174946e+00
 1.3557958246e+00	 4.5014783034e-01	 1.8031467139e+00
 1.3453389831e+00	 4.8049810011e-01	 1.6493607300e+00
 1.3341445482e+00	 5.1075797952e-01	 1.4910137442e+00
 1.3222105396e+00	 5.4090168402e-01	 1.3292318834e+00
 1.3095361383e+00	 5.7090311561e-01	 1.1651055001e+00
 1.2961217165e+00	 6.0073592630e-01	 9.9968148816e-01
 1.1665069742e+00	 5.4066114221e-01	 1.4099205615e+00
 1.1537685207e+00	 5.6733683499e-01	 1.2811083936e+00
 1.1403679398e+00	 5.9381287161e-01	 1.1485622712e+00
 1.1263089144e+00	 6.2006521764e-01	 1.0133537331e+00
 1.1115962679e+00	 6.4606986416e-01	 8.7653043914e-01
 1.0962359714e+00	 6.7180289461e-01	 7.3911233004e-01
 1.0802351449e+00	 6.9724055243e-01	 6.0208815974e-01
 1.0636020544e+00	 7.2235930937e-01	 4.6641245367e-01
 1.0463461043e+00	 7.4713593400e-01	 3.3300293716e-01
 1.0284778243e+00	 7.7154755992e-01	 2.0273846888e-01
 1.0100088517e+00	 7.9557175344e-01	 7.6457502856e-02
 1.1794684983e+00	 5.4666864375e-01	 1.3588122424e+00
 1.1665885028e+00	 5.7364074079e-01	 1.2245682832e+00
 1.1530390227e+00	 6.0041096321e-01	 1.0868285232e+00
 1.1388237818e+00	 6.2695500952e-01	 9.4672702635e-01
 1.1239476573e+00	 6.5324860404e-01	 8.0536998049e-01
 1.1084166864e+00	 6.7926756446e-01	 6.6383130389e-01
 1.0922380683e+00	 7.0498787023e-01	 5.2314865403e-01
 1.0754201610e+00	 7.3038573170e-01	 3.8431989893e-01
 1.0579724731e+00	 7.5543765928e-01	 2.4830010377e-01
 1.0399056515e+00	 7.8012053251e-01	 1.1599907547e-01
 1.0212314628e+00	 8.0441166843e-01	-1.1720505070e-02
 1.1924300194e+00	 5.5267614389e-01	 1.3110131314e+00
 1.1794084819e+00	 5.7994464511e-01	 1.1716665103e+00
 1.1657101027e+00	 6.0700905327e-01	 1.0290445609e+00
 1.1513386463e+00	 6.3384479979e-01	 8.8433881433e-01
 1.1362990437e+00	 6.6042734225e-01	 7.3870917423e-01
 1.1205973985e+00	 6.8673223255e-01	 5.9327900368e-01
 1.1042409889e+00	 7.1273518622e-01	 4.4913064108e-01
 1.0872382648e+00	 7.3841215215e-01	 3.0730141508e-01
 1.0695988392e+00	 7.6373938262e-01	 1.6878021900e-01
 1.0513334760e+00	 7.8869350310e-01	 3.4504694560e-02
 1.0324540713e+00	 8.1325158135e-01	-9.4640938662e-02
 1.2053915345e+00	 5.5868364122e-01	 1.2660876430e+00
 1.1922284550e+00	 5.8624854650e-01	 1.1219768279e+00
 1.1783811767e+00	 6.1360714024e-01	 9.7479486215e-01
 1.1638535050e+00	 6.4073458685e-01	 8.2578584199e-01
 1.1486504245e+00	 6.6760607710e-01	 6.7615872647e-01
 1.1327781050e+00	 6.9419689717e-01	 5.2708193515e-01
 1.1162439040e+00	 7.2048249860e-01	 3.7967840171e-01
 1.0990563630e+00	 7.4643856886e-01	 2.3502116167e-01
 1.0812251999e+00	 7.7204110209e-01	 9.4129542636e-02
 1.0627612952e+00	 7.9726646969e-01	-4.2033985602e-02
 1.0436766745e+00	 8.2209149015e-01	-1.7256625833e-01
 1.2183530405e+00	 5.6469113435e-01	 1.2236213885e+00
 1.2050484191e+00	 5.9255244347e-01	 1.0750939146e+00
 1.1910522418e+00	 6.2020522260e-01	 9.2368448777e-01
 1.1763683550e+00	 6.4762436909e-01	 7.7068501817e-01
 1.1610017966e+00	 6.7478480693e-01	 6.1734900584e-01
 1.1449588029e+00	 7.0166155656e-01	 4.6488567870e-01
 1.1282468106e+00	 7.2822980555e-01	 3.1445461273e-01
 1.1108744530e+00	 7.5446497994e-01	 1.6716092033e-01
 1.0928515524e+00	 7.8034281575e-01	 2.4051083543e-02
 1.0741891064e+00	 8.0583943027e-01	-1.1389050341e-01
 1.0548992699e+00	 8.3093139275e-01	-2.4574423311e-01
 1.2313145343e+00	 5.7069862187e-01	 1.1832201293e+00
 1.2178683713e+00	 5.9885633455e-01	 1.0306323390e+00
 1.2037232952e+00	 6.2680329880e-01	 8.7533805987e-01
 1.1888831932e+00	 6.5451414489e-01	 7.1867241143e-01
 1.1733531571e+00	 6.8196353006e-01	 5.6192906190e-01
 1.1571394895e+00	 7.0912620898e-01	 4.0635393516e-01
 1.1402497060e+00	 7.3597710527e-01	 2.5313942493e-01
 1.1226925320e+00	 7.6249138354e-01	 1.0341921051e-01
 1.1044778940e+00	 7.8864452166e-01	-4.1736241128e-02
 1.0856169070e+00	 8.1441238286e-01	-1.8132341539e-01
 1.0661218548e+00	 8.3977128711e-01	-3.1440867661e-01
 1.2442760131e+00	 5.7670610238e-01	 1.1445087916e+00
 1.2306883085e+00	 6.0516021829e-01	 9.8822558360e-01
 1.2163943337e+00	 6.3340136731e-01	 8.2939879929e-01
 1.2013980169e+00	 6.6140391266e-01	 6.6940230455e-01
 1.1857045033e+00	 6.8914224481e-01	 5.0956570053e-01
 1.1693201619e+00	 7.1659085270e-01	 3.5116762643e-01
 1.1522525875e+00	 7.4372439596e-01	 1.9542959386e-01
 1.1345105971e+00	 7.7051777777e-01	 4.3510455465e-02
 1.1161042221e+00	 7.9694621788e-01	-1.0349839947e-01
 1.0970446942e+00	 8.2298532544e-01	-2.4457704360e-01
 1.0773444266e+00	 8.4861117115e-01	-3.7878014245e-01
 1.2572374737e+00	 5.8271357448e-01	 1.1071305393e+00
 1.2435082278e+00	 6.1146409319e-01	 9.4752512678e-01
 1.2290653545e+00	 6.3999942657e-01	 7.8552761898e-01
 1.2139128230e+00	 6.6829367078e-01	 6.2254630326e-01
 1.1980558321e+00	 6.9632094951e-01	 4.5994261204e-01
 1.1815008172e+00	 7.2405548596e-01	 2.9902404722e-01
 1.1642554521e+00	 7.5147167580e-01	 1.4103765964e-01
 1.1463286458e+00	 7.7854416076e-01	-1.2835805167e-02
 1.1277305340e+00	 8.0524790248e-01	-1.6148699436e-01
 1.1084724654e+00	 8.3155825603e-01	-3.0388218200e-01
 1.0885669827e+00	 8.5745104282e-01	-4.3906658207e-01
 1.2701989132e+00	 5.8872103677e-01	 1.0707458999e+00
 1.2563281261e+00	 6.1776795781e-01	 9.0819957631e-01
 1.2417363547e+00	 6.4659747506e-01	 7.4340226884e-01
 1.2264276087e+00	 6.7518341765e-01	 5.7779249546e-01
 1.2104071408e+00	 7.0349964249e-01	 4.1275954831e-01
 1.1936814526e+00	 7.3152010703e-01	 2.4963606404e-01
 1.1762582971e+00	 7.5921894298e-01	 8.9691172097e-02
 1.1581466751e+00	 7.8657053065e-01	-6.5875659531e-02
 1.1393568268e+00	 8.1354957353e-01	-2.1593997226e-01
 1.1199002179e+00	 8.4013117260e-01	-3.5945676494e-01
 1.0997895205e+00	 8.6629090005e-01	-4.9546396759e-01
 1.2831603284e+00	 5.9472848784e-01	 1.0350319403e+00
 1.2691480006e+00	 6.2407181065e-01	 8.6993385237e-01
 1.2544073311e+00	 6.5319551124e-01	 7.0271652862e-01
 1.2389423711e+00	 6.8207315165e-01	 5.3484465734e-01
 1.2227584264e+00	 7.1067832206e-01	 3.6773154554e-01
 1.2058620653e+00	 7.3898471417e-01	 2.0273135835e-01
 1.1882611197e+00	 7.6696619570e-01	 4.1131958228e-02
 1.1699646823e+00	 7.9459688555e-01	-1.1585152751e-01
 1.1509830979e+00	 8.2185122907e-01	-2.6708229405e-01
 1.1313279492e+00	 8.4870407318e-01	-4.1150650016e-01
 1.1110120373e+00	 8.7513074078e-01	-5.4815688215e-01
 1.2961217165e+00	 6.0073592630e-01	 9.9968148816e-01
 1.2819678480e+00	 6.3037565026e-01	 8.3242841584e-01
 1.2670782810e+00	 6.5979353355e-01	 6.6317944547e-01
 1.2514571071e+00	 6.8896287119e-01	 4.9342150297e-01
 1.2351096861e+00	 7.1785698657e-01	 3.2458818931e-01
 1.2180426524e+00	 7.4644930563e-01	 1.5805171053e-01
 1.2002639171e+00	 7.7471343215e-01	-4.8845710780e-03
 1.1817826648e+00	 8.0262322360e-01	-1.6299282727e-01
 1.1626093447e+00	 8.3015286718e-01	-3.1512657065e-01
 1.1427556564e+00	 8.5727695575e-01	-4.6022546903e-01
 1.1222345306e+00	 8.8397056294e-01	-5.9731908018e-01
 1.0100088517e+00	 7.9557175344e-01	 7.6457502856e-02
 9.9095190679e-01	 8.1918658245e-01	-4.7127757027e-02
 9.7132075637e-01	 8.4237068822e-01	-1.6923158225e-01
 9.5113019075e-01	 8.6510334215e-01	-2.8895779451e-01
 9.3039599009e-01	 8.8736450462e-01	-4.0544001996e-01
 9.0913488357e-01	 9.0913488357e-01	-5.1784263887e-01
 8.8736450462e-01	 9.3039599009e-01	-6.2536141816e-01
 8.6510334215e-01	 9.5113019075e-01	-7.2722388064e-01
 8.4237068822e-01	 9.7132075637e-01	-8.2268947424e-01
 8.1918658245e-01	 9.9095190679e-01	-9.1104961116e-01
 7.9557175344e-01	 1.0100088517e+00	-9.9162765069e-01
 1.0212314628e+00	 8.0441166843e-01	-1.1720505070e-02
 1.0019627686e+00	 8.2828889121e-01	-1.3611429399e-01
 9.8211348860e-01	 8.5173060483e-01	-2.5837643678e-01
 9.6169857756e-01	 8.7471585034e-01	-3.7761241801e-01
 9.4073399092e-01	 8.9722436546e-01	-4.9296107379e-01
 9.1923664377e-01	 9.1923664377e-01	-6.0359550475e-01
 8.9722436546e-01	 9.4073399092e-01	-7.0872363321e-01
 8.7471585034e-01	 9.6169857756e-01	-8.0758846172e-01
 8.5173060483e-01	 9.8211348860e-01	-8.9946810084e-01
 8.2828889121e-01	 1.0019627686e+00	-9.8367564118e-01
 8.0441166843e-01	 1.0212314628e+00	-1.0595589496e+00
 1.0324540713e+00	 8.1325158135e-01	-9.4640938662e-02
 1.0129736278e+00	 8.3739119786e-01	-2.1987368027e-01
 9.9290621832e-01	 8.6109051926e-01	-3.4236022810e-01
 9.7226696191e-01	 8.8432835629e-01	-4.6120887176e-01
 9.5107198935e-01	 9.0708422401e-01	-5.7556478207e-01
 9.2933840162e-01	 9.2933840162e-01	-6.8461087053e-01
 9.0708422401e-01	 9.5107198935e-01	-7.8756825289e-01
 8.8432835629e-01	 9.7226696191e-01	-8.8369637747e-01
 8.6109051926e-01	 9.9290621832e-01	-9.7229289105e-01
 8.3739119786e-01	 1.0129736278e+00	-1.0526933229e+00
 8.1325158135e-01	 1.0324540713e+00	-1.1242706736e+00
 1.0436766745e+00	 8.2209149015e-01	-1.7256625833e-01
 1.0239844818e+00	 8.4649350025e-01	-2.9864030312e-01
 1.0036989430e+00	 8.7045042932e-01	-4.2138927781e-01
 9.8283534132e-01	 8.9394085776e-01	-5.3992537872e-01
 9.6140998295e-01	 9.1694407795e-01	-6.5340119817e-01
 9.3944015476e-01	 9.3944015476e-01	-7.6101051397e-01
 9.1694407795e-01	 9.6140998295e-01	-8.6198864076e-01
 8.9394085776e-01	 9.8283534132e-01	-9.5561240856e-01
 8.7045042932e-01	 1.0036989430e+00	-1.0411998459e+00
 8.4649350025e-01	 1.0239844818e+00	-1.1181096547e+00
 8.2209149015e-01	 1.0436766745e+00	-1.1857405702e+00
 1.0548992699e+00	 8.3093139275e-01	-2.4574423311e-01
 1.0349953282e+00	 8.5559579627e-01	-3.7263499518e-01
 1.0144916601e+00	 8.7981033282e-01	-4.9565749229e-01
 9.9340371333e-01	 9.0355335249e-01	-6.1392889050e-01
 9.7174796932e-01	 9.2680392499e-01	-7.2661025493e-01
 9.4954190082e-01	 9.4954190082e-01	-8.3290725230e-01
 9.2680392499e-01	 9.7174796932e-01	-9.3207037180e-01
 9.0355335249e-01	 9.9340371333e-01	-1.0233947337e+00
 8.7981033282e-01	 1.0144916601e+00	-1.1062195686e+00
 8.5559579627e-01	 1.0349953282e+00	-1.1799274618e+00
 8.3093139275e-01	 1.0548992699e+00	-1.2439434623e+00
 1.0661218548e+00	 8.3977128711e-01	-3.1440867661e-01
 1.0460061643e+00	 8.6469808380e-01	-4.4206571146e-01
 1.0252843672e+00	 8.8917022759e-01	-5.6534697971e-01
 1.0039720755e+00	 9.1316583825e-01	-6.8337564367e-01
 9.8208594603e-01	 9.3666376283e-01	-7.9532225902e-01
 9.5964363745e-01	 9.5964363745e-01	-9.0040537371e-01
 9.3666376283e-01	 9.8208594603e-01	-9.9789159965e-01
 9.1316583825e-01	 1.0039720755e+00	-1.0870952311e+00
 8.8917022759e-01	 1.0252843672e+00	-1.1673774992e+00
 8.6469808380e-01	 1.0460061643e+00	-1.2381455624e+00
 8.3977128711e-01	 1.0661218548e+00	-1.2988513436e+00
 1.0773444266e+00	 8.4861117115e-01	-3.7878014245e-01
 1.0570169875e+00	 8.7380036070e-01	-5.0712816944e-01
 1.0360770616e+00	 8.9853011144e-01	-6.3062863414e-01
 1.0145404253e+00	 9.2277831280e-01	-7.4841168687e-01
 9.9242391069e-01	 9.4652358916e-01	-8.5965836016e-01
 9.6974536230e-01	 9.6974536230e-01	-9.6360104737e-01
 9.4652358916e-01	 9.9242391069e-01	-1.0595234063e+00
 9.2277831280e-01	 1.0145404253e+00	-1.1467597671e+00
 8.9853011144e-01	 1.0360770616e+00	-1.2246941396e+00
 8.7380036070e-01	 1.0570169875e+00	-1.2927589284e+00
 8.4861117115e-01	 1.0773444266e+00	-1.3504334738e+00
 1.0885669827e+00	 8.5745104282e-01	-4.3906658207e-01
 1.0680277953e+00	 8.8290262487e-01	-5.6800645511e-01
 1.0468697410e+00	 9.0788998218e-01	-6.9166268902e-01
 1.0251087603e+00	 9.3239077389e-01	-8.0917338083e-01
 1.0027618609e+00	 9.5638340169e-01	-9.1973099675e-01
 9.7984707301e-01	 9.7984707301e-01	-1.0225827137e+00
 9.5638340169e-01	 1.0027618609e+00	-1.1170301358e+00
 9.3239077389e-01	 1.0251087603e+00	-1.2024284714e+00
 9.0788998218e-01	 1.0468697410e+00	-1.2781852703e+00
 8.8290262487e-01	 1.0680277953e+00	-1.3437588413e+00
 8.5745104282e-01	 1.0885669827e+00	-1.3986564724e+00
 1.0997895205e+00	 8.6629090005e-01	-4.9546396759e-01
 1.0790385852e+00	 8.9200487416e-01	-6.2487359725e-01
 1.0576624027e+00	 9.1724983764e-01	-7.4859924217e-01
 1.0356770781e+00	 9.4200321928e-01	-8.6578787334e-01
 1.0130997942e+00	 9.6624319812e-01	-9.7564431971e-01
 9.8994876722e-01	 9.8994876722e-01	-1.0774314559e+00
 9.6624319812e-01	 1.0130997942e+00	-1.1704697127e+00
 9.4200321928e-01	 1.0356770781e+00	-1.2541360012e+00
 9.1724983764e-01	 1.0576624027e+00	-1.3278621589e+00
 8.9200487416e-01	 1.0790385852e+00	-1.3911330438e+00
 8.6629090005e-01	 1.0997895205e+00	-1.4434844119e+00
 1.1110120373e+00	 8.7513074078e-01	-5.4815688215e-01
 1.0900493545e+00	 9.0110710647e-01	-6.7789211235e-01
 1.0684550443e+00	 9.2660967563e-01	-8.0157875449e-01
 1.0462453761e+00	 9.5161564672e-01	-9.1837355077e-01
 1.0234377082e+00	 9.7610297614e-01	-1.0274945961e+00
 1.0000504426e+00	 1.0000504426e+00	-1.1282213549e+00
 9.7610297614e-01	 1.0234377082e+00	-1.2198939465e+00
 9.5161564672e-01	 1.0462453761e+00	-1.3019117951e+00
 9.2660967563e-01	 1.0684550443e+00	-1.3737317608e+00
 9.0110710647e-01	 1.0900493545e+00	-1.4348658870e+00
 8.7513074078e-01	 1.1110120373e+00	-1.4848789101e+00
 1.1222345306e+00	 8.8397056294e-01	-5.9731908018e-01
 1.1010601006e+00	 9.1020931966e-01	-7.2721452208e-01
 1.0792476632e+00	 9.3596949396e-01	-8.5073252394e-01
 1.0568136520e+00	 9.6122805398e-01	-9.6704046798e-01
 1.0337756005e+00	 9.8596273346e-01	-1.0753705939e+00
 1.0101520967e+00	 1.0101520967e+00	-1.1750198279e+00
 9.8596273346e-01	 1.0337756005e+00	-1.2653488237e+00
 9.6122805398e-01	 1.0568136520e+00	-1.3457803159e+00
 9.3596949396e-01	 1.0792476632e+00	-1.4157969133e+00
 9.1020931966e-01	 1.1010601006e+00	-1.4749384740e+00
 8.8397056294e-01	 1.1222345306e+00	-1.5227992214e+00
 7.9557175344e-01	 1.0100088517e+00	-9.9162765069e-01
 7.7154755992e-01	 1.0284778243e+00	-1.0668259841e+00
 7.4713593400e-01	 1.0463461043e+00	-1.1392205274e+00
 7.2235930937e-01	 1.0636020544e+00	-1.2084277777e+00
 6.9724055243e-01	 1.0802351449e+00	-1.2740767562e+00
 6.7180289461e-01	 1.0962359714e+00	-1.3358101374e+00
 6.4606986416e-01	 1.1115962679e+00	-1.3932857588e+00
 6.2006521764e-01	 1.1263089144e+00	-1.4461785218e+00
 5.9381287161e-01	 1.1403679398e+00	-1.4941826745e+00
 5.6733683499e-01	 1.1537685207e+00	-1.5370144531e+00
 5.4066114221e-01	 1.1665069742e+00	-1.5744150377e+00
 8.0441166843e-01	 1.0212314628e+00	-1.0595589496e+00
 7.8012053251e-01	 1.0399056515e+00	-1.1295346216e+00
 7.5543765928e-01	 1.0579724731e+00	-1.1962199656e+00
 7.3038573170e-01	 1.0754201610e+00	-1.2592981291e+00
 7.0498787023e-01	 1.0922380683e+00	-1.3184635770e+00
 6.7926756446e-01	 1.1084166864e+00	-1.3734228208e+00
 6.5324860404e-01	 1.1239476573e+00	-1.4238955775e+00
 6.2695500952e-01	 1.1388237818e+00	-1.4696163760e+00
 6.0041096321e-01	 1.1530390227e+00	-1.5103366053e+00
 5.7364074079e-01	 1.1665885028e+00	-1.5458269824e+00
 5.4666864375e-01	 1.1794684983e+00	-1.5758803992e+00
 8.1325158135e-01	 1.0324540713e+00	-1.1242706736e+00
 7.8869350310e-01	 1.0513334760e+00	-1.1894493699e+00
 7.6373938262e-01	 1.0695988392e+00	-1.2508791276e+00
 7.3841215215e-01	 1.0872382648e+00	-1.3083061853e+00
 7.1273518622e-01	 1.1042409889e+00	-1.3614866969e+00
 6.8673223255e-01	 1.1205973985e+00	-1.4101870725e+00
 6.6042734225e-01	 1.1362990437e+00	-1.4541848025e+00
 6.3384479979e-01	 1.1513386463e+00	-1.4932697876e+00
 6.0700905327e-01	 1.1657101027e+00	-1.5272461718e+00
 5.7994464511e-01	 1.1794084819e+00	-1.5559346611e+00
 5.5267614389e-01	 1.1924300194e+00	-1.5791752856e+00
 8.2209149015e-01	 1.0436766745e+00	-1.1857405702e+00
 7.9726646969e-01	 1.0627612952e+00	-1.2465183912e+00
 7.7204110209e-01	 1.0812251999e+00	-1.3031162475e+00
 7.4643856886e-01	 1.0990563630e+00	-1.3553400032e+00
 7.2048249860e-01	 1.1162439040e+00	-1.4030038369e+00
 6.9419689717e-01	 1.1327781050e+00	-1.4459302068e+00
 6.6760607710e-01	 1.1486504245e+00	-1.4839503546e+00
 6.4073458685e-01	 1.1638535050e+00	-1.5169053754e+00
 6.1360714024e-01	 1.1783811767e+00	-1.5446478558e+00
 5.8624854650e-01	 1.1922284550e+00	-1.5670440651e+00
 5.5868364122e-01	 1.2053915345e+00	-1.5839766572e+00
 8.3093139275e-01	 1.0548992699e+00	-1.2439434623e+00
 8.0583943027e-01	 1.0741891064e+00	-1.3006882003e+00
 7.8034281575e-01	 1.0928515524e+00	-1.3528492216e+00
 7.5446497994e-01	 1.1108744530e+00	-1.4002886408e+00
 7.2822980555e-01	 1.1282468106e+00	-1.4428750856e+00
 7.0166155656e-01	 1.1449588029e+00	-1.4804832977e+00
 6.7478480693e-01	 1.1610017966e+00	-1.5129943296e+00
 6.4762436909e-01	 1.1763683550e+00	-1.5402963698e+00
 6.2020522260e-01	 1.1910522418e+00	-1.5622862057e+00
 5.9255244347e-01	 1.2050484191e+00	-1.5788713079e+00
 5.6469113435e-01	 1.2183530405e+00	-1.5899724966e+00
 8.3977128711e-01	 1.0661218548e+00	-1.2988513436e+00
 8.1441238286e-01	 1.0856169070e+00	-1.3519036888e+00
 7.8864452166e-01	 1.1044778940e+00	-1.3999955585e+00
 7.6249138354e-01	 1.1226925320e+00	-1.4430420316e+00
 7.3597710527e-01	 1.1402497060e+00	-1.4809626970e+00
 7.0912620898e-01	 1.1571394895e+00	-1.5136808989e+00
 6.8196353006e-01	 1.1733531571e+00	-1.5411236393e+00
 6.5451414489e-01	 1.1888831932e+00	-1.5632221741e+00
 6.2680329880e-01	 1.2037232952e+00	-1.5799133176e+00
 5.9885633455e-01	 1.2178683713e+00	-1.5911414416e+00
 5.7069862187e-01	 1.2313145343e+00	-1.5968611294e+00
 8.4861117115e-01	 1.0773444266e+00	-1.3504334738e+00
 8.2298532544e-01	 1.0970446942e+00	-1.4001081521e+00
 7.9694621788e-01	 1.1161042221e+00	-1.4444723365e+00
 7.7051777777e-01	 1.1345105971e+00	-1.4834908720e+00
 7.4372439596e-01	 1.1522525875e+00	-1.5171309053e+00
 7.1659085270e-01	 1.1693201619e+00	-1.5453607849e+00
 6.8914224481e-01	 1.1857045033e+00	-1.5681496788e+00
 6.6140391266e-01	 1.2013980169e+00	-1.5854679567e+00
 6.3340136731e-01	 1.2163943337e+00	-1.5972883527e+00
 6.0516021829e-01	 1.2306883085e+00	-1.6035878986e+00
 5.7670610238e-01	 1.2442760131e+00	-1.6043505896e+00
 8.5745104282e-01	 1.0885669827e+00	-1.3986564724e+00
 8.3155825603e-01	 1.1084724654e+00	-1.4452433199e+00
 8.0524790248e-01	 1.1277305340e+00	-1.4861961693e+00
 7.7854416076e-01	 1.1463286458e+00	-1.5215265191e+00
 7.5147167580e-01	 1.1642554521e+00	-1.5512457555e+00
 7.2405548596e-01	 1.1815008172e+00	-1.5753637126e+00
 6.9632094951e-01	 1.1980558321e+00	-1.5938880180e+00
 6.6829367078e-01	 1.2139128230e+00	-1.6068242722e+00
 6.3999942657e-01	 1.2290653545e+00	-1.6141770865e+00
 6.1146409319e-01	 1.2435082278e+00	-1.6159519699e+00
 5.8271357448e-01	 1.2572374737e+00	-1.6121580277e+00
 8.6629090005e-01	 1.0997895205e+00	-1.4434844119e+00
 8.4013117260e-01	 1.1199002179e+00	-1.4872493892e+00
 8.1354957353e-01	 1.1393568268e+00	-1.5250831770e+00
 7.8657053065e-01	 1.1581466751e+00	-1.5570409001e+00
 7.5921894298e-01	 1.1762582971e+00	-1.5831749475e+00
 7.3152010703e-01	 1.1936814526e+00	-1.6035332010e+00
 7.0349964249e-01	 1.2104071408e+00	-1.6181581155e+00
 6.7518341765e-01	 1.2264276087e+00	-1.6270867091e+00
 6.4659747506e-01	 1.2417363547e+00	-1.6303514906e+00
 6.1776795781e-01	 1.2563281261e+00	-1.6279823190e+00
 5.8872103677e-01	 1.2701989132e+00	-1.6200091567e+00
 8.7513074078e-01	 1.1110120373e+00	-1.4848789101e+00
 8.4870407318e-01	 1.1313279492e+00	-1.5260650603e+00
 8.2185122907e-01	 1.1509830979e+00	-1.5610489646e+00
 7.9459688555e-01	 1.1699646823e+00	-1.5899264303e+00
 7.6696619570e-01	 1.1882611197e+00	-1.6127876951e+00
 7.3898471417e-01	 1.2058620653e+00	-1.6297153282e+00
 7.1067832206e-01	 1.2227584264e+00	-1.6407830533e+00
 6.8207315165e-01	 1.2389423711e+00	-1.6460555612e+00
 6.5319551124e-01	 1.2544073311e+00	-1.6455893406e+00
 6.2407181065e-01	 1.2691480006e+00	-1.6394345274e+00
 5.9472848784e-01	 1.2831603284e+00	-1.6276377345e+00
 8.8397056294e-01	 1.1222345306e+00	-1.5227992214e+00
 8.5727695575e-01	 1.1427556564e+00	-1.5616275748e+00
 8.3015286718e-01	 1.1626093447e+00	-1.5940086050e+00
 8.0262322360e-01	 1.1817826648e+00	-1.6200759413e+00
 7.7471343215e-01	 1.2002639171e+00	-1.6399545965e+00
 7.4644930563e-01	 1.2180426524e+00	-1.6537585440e+00
 7.1785698657e-01	 1.2351096861e+00	-1.6615892914e+00
 6.8896287119e-01	 1.2514571071e+00	-1.6635355239e+00
 6.5979353355e-01	 1.2670782810e+00	-1.6596738526e+00
 6.3037565026e-01	 1.2819678480e+00	-1.6500706710e+00
 6.0073592630e-01	 1.2961217165e+00	-1.6347850807e+00
 5.4066114221e-01	 1.1665069742e+00	-1.5744150377e+00
 5.1381167176e-01	 1.1785799272e+00	-1.6079718726e+00
 4.8681044283e-01	 1.1899868632e+00	-1.6393307509e+00
 4.5968116857e-01	 1.2007274473e+00	-1.6683409919e+00
 4.3244733711e-01	 1.2108024166e+00	-1.6948655092e+00
 4.0513215451e-01	 1.2202135531e+00	-1.7187856871e+00
 3.7775849043e-01	 1.2289636542e+00	-1.7400061505e+00
 3.5034882672e-01	 1.2370564986e+00	-1.7584593048e+00
 3.2292520919e-01	 1.2444968109e+00	-1.7741095287e+00
 2.9550920258e-01	 1.2512902225e+00	-1.7869569092e+00
 2.6812184899e-01	 1.2574432311e+00	-1.7970404173e+00
 5.4666864375e-01	 1.1794684983e+00	-1.5758803992e+00
 5.1952083812e-01	 1.1916755987e+00	-1.6020781647e+00
 4.9221958777e-01	 1.2032092818e+00	-1.6260699452e+00
 4.6478886933e-01	 1.2140692088e+00	-1.6477645991e+00
 4.3725243191e-01	 1.2242561250e+00	-1.6670759252e+00
 4.0963373942e-01	 1.2337718325e+00	-1.6839278186e+00
 3.8195591565e-01	 1.2426191594e+00	-1.6982593986e+00
 3.5424169224e-01	 1.2508019267e+00	-1.7100299769e+00
 3.2651335995e-01	 1.2583249112e+00	-1.7192237353e+00
 2.9879272316e-01	 1.2651938071e+00	-1.7258539885e+00
 2.7110105776e-01	 1.2714151842e+00	-1.7299669213e+00
 5.5267614389e-01	 1.1924300194e+00	-1.5791752856e+00
 5.2523000315e-01	 1.2047712672e+00	-1.5985256001e+00
 4.9762873145e-01	 1.2164316972e+00	-1.6156270359e+00
 4.6989656889e-01	 1.2274109671e+00	-1.6304517546e+00
 4.4205752558e-01	 1.2377098303e+00	-1.6429684700e+00
 4.1413532329e-01	 1.2473301086e+00	-1.6531478401e+00
 3.8615333988e-01	 1.2562746614e+00	-1.6609679132e+00
 3.5813455684e-01	 1.2645473515e+00	-1.6664194851e+00
 3.3010150988e-01	 1.2721530083e+00	-1.6695112247e+00
 3.0207624298e-01	 1.2790973885e+00	-1.6702744326e+00
 2.7408026585e-01	 1.2853871341e+00	-1.6687673065e+00
 5.5868364122e-01	 1.2053915345e+00	-1.5839766572e+00
 5.3093916552e-01	 1.2178669296e+00	-1.5969632879e+00
 5.0303787261e-01	 1.2296541065e+00	-1.6076263281e+00
 4.7500426608e-01	 1.2407527192e+00	-1.6160047665e+00
 4.4686261702e-01	 1.2511635294e+00	-1.6221260085e+00
 4.1863690505e-01	 1.2608883785e+00	-1.6260114621e+00
 3.9035076216e-01	 1.2699301571e+00	-1.6276822627e+00
 3.6202741963e-01	 1.2782927699e+00	-1.6271649826e+00
 3.3368965813e-01	 1.2859810990e+00	-1.6244971710e+00
 3.0535976126e-01	 1.2930009634e+00	-1.6197325750e+00
 2.7705947254e-01	 1.2993590775e+00	-1.6129459051e+00
 5.6469113435e-01	 1.2183530405e+00	-1.5899724966e+00
 5.3664832389e-01	 1.2309625827e+00	-1.5970527946e+00
 5.0844700998e-01	 1.2428765065e+00	-1.6017059133e+00
 4.8011195969e-01	 1.2540944620e+00	-1.6040409622e+00
 4.5166770509e-01	 1.2646172190e+00	-1.6041475702e+00
 4.2313848366e-01	 1.2744466389e+00	-1.6021016254e+00
 3.9454818150e-01	 1.2835856432e+00	-1.5979712415e+00
 3.6592027970e-01	 1.2920381787e+00	-1.5918227841e+00
 3.3727780388e-01	 1.2998091799e+00	-1.5837267925e+00
 3.0864327725e-01	 1.3069045285e+00	-1.5737636335e+00
 2.8003867715e-01	 1.3133310111e+00	-1.5620287392e+00
 5.7069862187e-01	 1.2313145343e+00	-1.5968611294e+00
 5.4235747694e-01	 1.2440582237e+00	-1.5984673874e+00
 5.1385614230e-01	 1.2560988942e+00	-1.5975168426e+00
 4.8521964853e-01	 1.2674361923e+00	-1.5941917963e+00
 4.5647278868e-01	 1.2780708960e+00	-1.5886473970e+00
 4.2764005807e-01	 1.2880048866e+00	-1.5810174952e+00
 3.9874559693e-01	 1.2972411165e+00	-1.5714208149e+00
 3.6981313613e-01	 1.3057835747e+00	-1.5599672645e+00
 3.4086594627e-01	 1.3136372479e+00	-1.5467642085e+00
 3.1192679017e-01	 1.3208080807e+00	-1.5319225273e+00
 2.8301787897e-01	 1.3273029316e+00	-1.5155623008e+00
 5.7670610238e-01	 1.2442760131e+00	-1.6043505896e+00
 5.4806662332e-01	 1.2571538494e+00	-1.6008913272e+00
 5.1926526832e-01	 1.2693212665e+00	-1.5947223529e+00
 4.9032733141e-01	 1.2807779071e+00	-1.5861020165e+00
 4.6127786666e-01	 1.2915245574e+00	-1.5752540538e+00
 4.3214162723e-01	 1.3015631185e+00	-1.5623735197e+00
 4.0294300746e-01	 1.3108965739e+00	-1.5476331305e+00
 3.7370598802e-01	 1.3195289546e+00	-1.5311898270e+00
 3.4445408448e-01	 1.3274652999e+00	-1.5131913679e+00
 3.1521029926e-01	 1.3347116167e+00	-1.4937827692e+00
 2.8599707732e-01	 1.3412748358e+00	-1.4731124098e+00
 5.8271357448e-01	 1.2572374737e+00	-1.6121580277e+00
 5.5377576171e-01	 1.2702494568e+00	-1.6040192082e+00
 5.2467438676e-01	 1.2825436203e+00	-1.5929971437e+00
 4.9543500715e-01	 1.2941196032e+00	-1.5794288823e+00
 4.6608293792e-01	 1.3049781999e+00	-1.5636095943e+00
 4.3664319009e-01	 1.3151213314e+00	-1.5457985487e+00
 4.0714041211e-01	 1.3245520122e+00	-1.5262255926e+00
 3.7759883446e-01	 1.3332743153e+00	-1.5050979371e+00
 3.4804221766e-01	 1.3412933324e+00	-1.4826070455e+00
 3.1849380376e-01	 1.3486151331e+00	-1.4589354267e+00
 2.8897627150e-01	 1.3552467205e+00	-1.4342631423e+00
 5.8872103677e-01	 1.2701989132e+00	-1.6200091567e+00
 5.5948489078e-01	 1.2833450427e+00	-1.6075553398e+00
 5.3008349636e-01	 1.2957659524e+00	-1.5920267003e+00
 5.0054267454e-01	 1.3074612775e+00	-1.5738414340e+00
 4.7088800132e-01	 1.3184318205e+00	-1.5533687804e+00
 4.4114474559e-01	 1.3286795221e+00	-1.5309350066e+00
 4.1133780990e-01	 1.3382074282e+00	-1.5068299936e+00
 3.8149167454e-01	 1.3470196535e+00	-1.4813142159e+00
 3.5163034498e-01	 1.3551213424e+00	-1.4546258997e+00
 3.2177730289e-01	 1.3625186269e+00	-1.4269881474e+00
 2.9195546082e-01	 1.3692185824e+00	-1.3986158259e+00
 5.9472848784e-01	 1.2831603284e+00	-1.6276377345e+00
 5.6519400919e-01	 1.2964406043e+00	-1.6112131685e+00
 5.3549259587e-01	 1.3089882599e+00	-1.5915066592e+00
 5.0565033239e-01	 1.3208029269e+00	-1.5690198076e+00
 4.7569305576e-01	 1.3318854160e+00	-1.5441983501e+00
 4.4564629269e-01	 1.3422376876e+00	-1.5174381180e+00
 4.1553519986e-01	 1.3518628187e+00	-1.4890917001e+00
 3.8538450735e-01	 1.3607649661e+00	-1.4594755900e+00
 3.5521846561e-01	 1.3689493265e+00	-1.4288775894e+00
 3.2506079589e-01	 1.3764220947e+00	-1.3975642444e+00
 2.9493464457e-01	 1.3831904182e+00	-1.3657880955e+00
 6.0073592630e-01	 1.2961217165e+00	-1.6347850807e+00
 5.7090311561e-01	 1.3095361383e+00	-1.6147147366e+00
 5.4090168402e-01	 1.3222105396e+00	-1.5911422152e+00
 5.1075797952e-01	 1.3341445482e+00	-1.5646545928e+00
 4.8049810011e-01	 1.3453389831e+00	-1.5357763313e+00
 4.5014783034e-01	 1.3557958246e+00	-1.5049751804e+00
 4.1973258100e-01	 1.3655181805e+00	-1.4726688887e+00
 3.8927733199e-01	 1.3745102498e+00	-1.4392324926e+00
 3.5880657870e-01	 1.3827772816e+00	-1.4050059437e+00
 3.2834428200e-01	 1.3903255334e+00	-1.3703018371e+00
 2.9791382207e-01	 1.3971622246e+00	-1.3354130074e+00
 2.6812184899e-01	 1.2574432311e+00	-1.7970404173e+00
 2.4078172288e-01	 1.2629635224e+00	-1.8057691061e+00
 2.1351065582e-01	 1.2678587460e+00	-1.8141176311e+00
 1.8632793750e-01	 1.2721377389e+00	-1.8215955089e+00
 1.5925220186e-01	 1.2758100255e+00	-1.8278323953e+00
 1.3230140315e-01	 1.2788857706e+00	-1.8325777923e+00
 1.0549279553e-01	 1.2813757316e+00	-1.8356993467e+00
 7.8842916145e-02	 1.2832912108e+00	-1.8371797975e+00
 5.2367571465e-02	 1.2846440074e+00	-1.8371126514e+00
 2.6081826987e-02	 1.2854463705e+00	-1.8356966829e+00
 0.0000000000e+00	 1.2857109524e+00	-1.8332293723e+00
 2.7110105776e-01	 1.2714151842e+00	-1.7299669213e+00
 2.4345714461e-01	 1.2769968137e+00	-1.7331466338e+00
 2.1588305785e-01	 1.2819464301e+00	-1.7365321788e+00
 1.8839830152e-01	 1.2862729685e+00	-1.7396164549e+00
 1.6102171658e-01	 1.2899860594e+00	-1.7420097258e+00
 1.3377145680e-01	 1.2930959804e+00	-1.7434399379e+00
 1.0666496805e-01	 1.2956136083e+00	-1.7437515844e+00
 7.9718971224e-02	 1.2975503711e+00	-1.7429031680e+00
 5.2949448433e-02	 1.2989181992e+00	-1.7409633377e+00
 2.6371632567e-02	 1.2997294777e+00	-1.7381057923e+00
 0.0000000000e+00	 1.2999969994e+00	-1.7346030618e+00
 2.7408026585e-01	 1.2853871341e+00	-1.6687673065e+00
 2.4613256572e-01	 1.2910301017e+00	-1.6667515889e+00
 2.1825545933e-01	 1.2960341109e+00	-1.6655211395e+00
 1.9046866504e-01	 1.3004081949e+00	-1.6645390927e+00
 1.6279123088e-01	 1.3041620900e+00	-1.6633835781e+00
 1.3524151010e-01	 1.3073061868e+00	-1.6617487372e+00
 1.0783714029e-01	 1.3098514817e+00	-1.6594442331e+00
 8.0595026100e-02	 1.3118095281e+00	-1.6563933003e+00
 5.3531325265e-02	 1.3131923877e+00	-1.6526294032e+00
 2.6661438079e-02	 1.3140125816e+00	-1.6482915959e+00
 0.0000000000e+00	 1.3142830432e+00	-1.6436186901e+00
 2.7705947254e-01	 1.2993590775e+00	-1.6129459051e+00
 2.4880798558e-01	 1.3050633832e+00	-1.6060781977e+00
 2.2062785971e-01	 1.3101217851e+00	-1.6005679846e+00
 1.9253902761e-01	 1.3145434147e+00	-1.5958357816e+00
 1.6456074436e-01	 1.3183381140e+00	-1.5914151274e+00
 1.3671156272e-01	 1.3215163866e+00	-1.5869543873e+00
 1.0900931199e-01	 1.3240893484e+00	-1.5822169887e+00
 8.1471080567e-02	 1.3260686785e+00	-1.5770801287e+00
 5.4113201826e-02	 1.3274665695e+00	-1.5715320169e+00
 2.6951243456e-02	 1.3282956788e+00	-1.5656677421e+00
 0.0000000000e+00	 1.3285690802e+00	-1.5596838701e+00
 2.8003867715e-01	 1.3133310111e+00	-1.5620287392e+00
 2.5148340357e-01	 1.3190966548e+00	-1.5506431831e+00
 2.2300025842e-01	 1.3242094494e+00	-1.5411795092e+00
 1.9460938872e-01	 1.3286786246e+00	-1.5330030358e+00
 1.6633025660e-01	 1.3325141281e+00	-1.5255905221e+00
 1.3818161430e-01	 1.3357265764e+00	-1.5185328475e+00
 1.1018148287e-01	 1.3383272052e+00	-1.5115360536e+00
 8.2347134421e-02	 1.3403278189e+00	-1.5044207794e+00
 5.4695077980e-02	 1.3417407413e+00	-1.4971201502e+00
 2.7241048630e-02	 1.3425787660e+00	-1.4896762039e+00
 0.0000000000e+00	 1.3428551073e+00	-1.4822349607e+00
 2.8301787897e-01	 1.3273029316e+00	-1.5155623008e+00
 2.5415881906e-01	 1.3331299134e+00	-1.4999845090e+00
 2.2537265492e-01	 1.3382971007e+00	-1.4868845403e+00
 1.9667974790e-01	 1.3428138213e+00	-1.4755601959e+00
 1.6809976719e-01	 1.3466901289e+00	-1.4654195195e+00
 1.3965166452e-01	 1.3499367530e+00	-1.4559844421e+00
 1.1135365265e-01	 1.3525650487e+00	-1.4468927089e+00
 8.3223187458e-02	 1.3545869460e+00	-1.4378981142e+00
 5.5276953591e-02	 1.3560148998e+00	-1.4288690973e+00
 2.7530853534e-02	 1.3568618399e+00	-1.4197857807e+00
 0.0000000000e+00	 1.3571411210e+00	-1.4107355541e+00
 2.8599707732e-01	 1.3412748358e+00	-1.4731124098e+00
 2.5683423144e-01	 1.3471631556e+00	-1.4536602039e+00
 2.2774504865e-01	 1.3523847354e+00	-1.4372327259e+00
 1.9875010467e-01	 1.3569490015e+00	-1.4230481837e+00
 1.6986927572e-01	 1.3608661132e+00	-1.4104342083e+00
 1.4112171302e-01	 1.3641469131e+00	-1.3988325508e+00
 1.1252582106e-01	 1.3668028755e+00	-1.3878019758e+00
 8.4099239472e-02	 1.3688460564e+00	-1.3770193662e+00
 5.5858828523e-02	 1.3702890417e+00	-1.3662790881e+00
 2.7820658100e-02	 1.3711448971e+00	-1.3554906922e+00
 0.0000000000e+00	 1.3714271181e+00	-1.3446750562e+00
 2.8897627150e-01	 1.3552467205e+00	-1.4342631423e+00
 2.5950964006e-01	 1.3611963781e+00	-1.4112472575e+00
 2.3011743906e-01	 1.3664723505e+00	-1.3917933990e+00
 2.0082045854e-01	 1.3710841619e+00	-1.3750283348e+00
 1.7163878176e-01	 1.3750420777e+00	-1.3601878088e+00
 1.4259175946e-01	 1.3783570532e+00	-1.3466223796e+00
 1.1369798784e-01	 1.3810406825e+00	-1.3338013591e+00
 8.4975290260e-02	 1.3831051469e+00	-1.3213148591e+00
 5.6440702641e-02	 1.3845631636e+00	-1.3088739862e+00
 2.8110462260e-02	 1.3854279343e+00	-1.2963092603e+00
 0.0000000000e+00	 1.3857130952e+00	-1.2835673559e+00
 2.9195546082e-01	 1.3692185824e+00	-1.3986158259e+00
 2.6218504432e-01	 1.3752295777e+00	-1.3723405855e+00
 2.3248982560e-01	 1.3805599425e+00	-1.3501545118e+00
 2.0289080902e-01	 1.3852192993e+00	-1.3310813018e+00
 1.7340828492e-01	 1.3892180190e+00	-1.3142535481e+00
 1.4406180351e-01	 1.3925671701e+00	-1.2989198082e+00
 1.1487015270e-01	 1.3952784662e+00	-1.2844496689e+00
 8.5851339617e-02	 1.3973642141e+00	-1.2703368051e+00
 5.7022575808e-02	 1.3988372621e+00	-1.2562000678e+00
 2.8400265947e-02	 1.3997109481e+00	-1.2417826709e+00
 0.0000000000e+00	 1.3999990489e+00	-1.2269495754e+00
 2.9493464457e-01	 1.3831904182e+00	-1.3657880955e+00
 2.6486044358e-01	 1.3892627511e+00	-1.3365520576e+00
 2.3486220770e-01	 1.3946475083e+00	-1.3119216352e+00
 2.0496115564e-01	 1.3993544102e+00	-1.2908060255e+00
 1.7517778477e-01	 1.4033939338e+00	-1.2722236027e+00
 1.4553184480e-01	 1.4067772605e+00	-1.2553103065e+00
 1.1604231537e-01	 1.4095162233e+00	-1.2393259127e+00
 8.6727387339e-02	 1.4116232547e+00	-1.2236581760e+00
 5.7604447888e-02	 1.4131113340e+00	-1.2078248734e+00
 2.8690069092e-02	 1.4139939354e+00	-1.1914738111e+00
 0.0000000000e+00	 1.4142849760e+00	-1.1743808960e+00
 2.9791382207e-01	 1.3971622246e+00	-1.3354130074e+00
 2.6753583722e-01	 1.4032958951e+00	-1.3035095839e+00
 2.3723458483e-01	 1.4087350444e+00	-1.2767170179e+00
 2.0703149792e-01	 1.4134894915e+00	-1.2538187672e+00
 1.7694728091e-01	 1.4175698189e+00	-1.2337081052e+00
 1.4700188301e-01	 1.4209873210e+00	-1.2153979163e+00
 1.1721447557e-01	 1.4237539505e+00	-1.1980282545e+00
 8.7603433220e-02	 1.4258822653e+00	-1.1808716420e+00
 5.8186318747e-02	 1.4273853760e+00	-1.1633361292e+00
 2.8979871629e-02	 1.4282768926e+00	-1.1449661765e+00
 0.0000000000e+00	 1.4285708730e+00	-1.1254414547e+00
 1.4285708730e+00	 0.0000000000e+00	 3.0375028071e+00
 1.4282768926e+00	 2.8979871629e-02	 3.0420644219e+00
 1.4273853760e+00	 5.8186318747e-02	 3.0297974429e+00
 1.4258822653e+00	 8.7603433220e-02	 3.0017335089e+00
 1.4237539505e+00	 1.1721447557e-01	 2.9589746291e+00
 1.4209873210e+00	 1.4700188301e-01	 2.9026869605e+00
 1.4175698189e+00	 1.7694728091e-01	 2.8340939516e+00
 1.4134894915e+00	 2.0703149792e-01	 2.7544688354e+00
 1.4087350444e+00	 2.3723458483e-01	 2.6651264576e+00
 1.4032958951e+00	 2.6753583722e-01	 2.5674144298e+00
 1.3971622246e+00	 2.9791382207e-01	 2.4627036057e+00
 1.4428567384e+00	 0.0000000000e+00	 3.0377455041e+00
 1.4425598181e+00	 2.9269673523e-02	 3.0427245418e+00
 1.4416593863e+00	 5.8768188315e-02	 3.0303978149e+00
 1.4401412443e+00	 8.8479477159e-02	 3.0018377184e+00
 1.4379916461e+00	 1.1838663318e-01	 2.9581823032e+00
 1.4351973501e+00	 1.4847191796e-01	 2.9006296235e+00
 1.4317456726e+00	 1.7871677312e-01	 2.8304313177e+00
 1.4276245414e+00	 2.0910183560e-01	 2.7488878690e+00
 1.4228225494e+00	 2.3960695669e-01	 2.6574099223e+00
 1.4173290079e+00	 2.7021122493e-01	 2.5574223975e+00
 1.4111340001e+00	 3.0089299296e-01	 2.4503444737e+00
 1.4571425772e+00	 0.0000000000e+00	 3.0379312284e+00
 1.4568427170e+00	 2.9559474876e-02	 3.0432092170e+00
 1.4559333699e+00	 5.9350056796e-02	 3.0307379641e+00
 1.4544001967e+00	 8.9355519462e-02	 3.0016384298e+00
 1.4522293152e+00	 1.1955878861e-01	 2.9570973763e+00
 1.4494073526e+00	 1.4994195017e-01	 2.8983612975e+00
 1.4459214998e+00	 1.8048626203e-01	 2.8267295572e+00
 1.4417595649e+00	 2.1117216942e-01	 2.7435467418e+00
 1.4369100280e+00	 2.4197932413e-01	 2.6501942399e+00
 1.4313620946e+00	 2.7288660765e-01	 2.5480810731e+00
 1.4251057495e+00	 3.0387215829e-01	 2.4386606987e+00
 1.4714283959e+00	 0.0000000000e+00	 3.0378331825e+00
 1.4711255959e+00	 2.9849275823e-02	 3.0433045650e+00
 1.4702073336e+00	 5.9931924463e-02	 3.0306111188e+00
 1.4686591292e+00	 9.0231560538e-02	 3.0009204939e+00
 1.4664669643e+00	 1.2073094239e-01	 2.9554659352e+00
 1.4636173352e+00	 1.5141198032e-01	 2.8955397897e+00
 1.4600973071e+00	 1.8225574847e-01	 2.8224862013e+00
 1.4558945687e+00	 2.1324250034e-01	 2.7376929993e+00
 1.4509974869e+00	 2.4435168824e-01	 2.6425827974e+00
 1.4453951616e+00	 2.7556198662e-01	 2.5386033287e+00
 1.4390774793e+00	 3.0685131945e-01	 2.4272170507e+00
 1.4857142013e+00	 0.0000000000e+00	 3.0372339378e+00
 1.4854084615e+00	 3.0139076500e-02	 3.0428059498e+00
 1.4844812839e+00	 6.0513791587e-02	 3.0298238922e+00
 1.4829180483e+00	 9.1107600796e-02	 2.9995003050e+00
 1.4807046001e+00	 1.2190309507e-01	 2.9531127681e+00
 1.4778273046e+00	 1.5288200909e-01	 2.8919969829e+00
 1.4742731012e+00	 1.8402523325e-01	 2.8175390212e+00
 1.4700295592e+00	 2.1531282933e-01	 2.7311667511e+00
 1.4650849327e+00	 2.4672405014e-01	 2.6343404589e+00
 1.4594282155e+00	 2.7823736310e-01	 2.5285426947e+00
 1.4530491961e+00	 3.0983047783e-01	 2.4152673811e+00
 1.5000000000e+00	 0.0000000000e+00	 3.0359249854e+00
 1.4996913204e+00	 3.0428877041e-02	 3.0415171870e+00
 1.4987552276e+00	 6.1095658438e-02	 3.0281909405e+00
 1.4971769608e+00	 9.1983640646e-02	 2.9972019483e+00
 1.4949422293e+00	 1.2307524721e-01	 2.9498700561e+00
 1.4920372673e+00	 1.5435203718e-01	 2.8875719044e+00
 1.4884488887e+00	 1.8579471720e-01	 2.8117327310e+00
 1.4841645432e+00	 2.1738315735e-01	 2.7238173345e+00
 1.4791723719e+00	 2.4909641093e-01	 2.6253202227e+00
 1.4734612629e+00	 2.8091273832e-01	 2.5177549755e+00
 1.4670209063e+00	 3.1280963482e-01	 2.4026428658e+00
 1.5142857987e+00	 0.0000000000e+00	 3.0337063158e+00
 1.5139741793e+00	 3.0718677582e-02	 3.0392501437e+00
 1.5130291713e+00	 6.1677525290e-02	 3.0255345806e+00
 1.5114358733e+00	 9.2859680495e-02	 2.9938568330e+00
 1.5091798585e+00	 1.2424739935e-01	 2.9455770180e+00
 1.5062472300e+00	 1.5582206527e-01	 2.8821103815e+00
 1.5026246762e+00	 1.8756420116e-01	 2.8049186515e+00
 1.4982995272e+00	 2.1945348537e-01	 2.7155005410e+00
 1.4932598111e+00	 2.5146877173e-01	 2.6153814257e+00
 1.4874943102e+00	 2.8358811355e-01	 2.5061022312e+00
 1.4809926166e+00	 3.1578879180e-01	 2.3892075739e+00
 1.5285716041e+00	 0.0000000000e+00	 3.0303860215e+00
 1.5282570449e+00	 3.1008478258e-02	 3.0358243613e+00
 1.5273031216e+00	 6.2259392413e-02	 3.0216844296e+00
 1.5256947924e+00	 9.3735720753e-02	 2.9893033456e+00
 1.5234174944e+00	 1.2541955203e-01	 2.9400795764e+00
 1.5204571994e+00	 1.5729209405e-01	 2.8754647168e+00
 1.5168004703e+00	 1.8933368594e-01	 2.7969543930e+00
 1.5124345177e+00	 2.2152381435e-01	 2.7060783047e+00
 1.5073472569e+00	 2.5384113363e-01	 2.6043894362e+00
 1.5015273641e+00	 2.8626349002e-01	 2.4934524729e+00
 1.4949643334e+00	 3.1876795018e-01	 2.3748314728e+00
 1.5428574228e+00	 0.0000000000e+00	 3.0257799226e+00
 1.5425399238e+00	 3.1298279206e-02	 3.0310666987e+00
 1.5415770853e+00	 6.2841260080e-02	 3.0164770637e+00
 1.5399537249e+00	 9.4611761829e-02	 2.9833865230e+00
 1.5376551435e+00	 1.2659170581e-01	 2.9332300414e+00
 1.5346671820e+00	 1.5876212420e-01	 2.8674933817e+00
 1.5309762776e+00	 1.9110317237e-01	 2.7877035561e+00
 1.5265695215e+00	 2.2359414527e-01	 2.6954184088e+00
 1.5214347158e+00	 2.5621349774e-01	 2.5922153635e+00
 1.5155604311e+00	 2.8893886899e-01	 2.4796793755e+00
 1.5089360632e+00	 3.2174711134e-01	 2.3593901419e+00
 1.5571432616e+00	 0.0000000000e+00	 3.0197112127e+00
 1.5568228227e+00	 3.1588080558e-02	 3.0248109952e+00
 1.5558510689e+00	 6.3423128561e-02	 3.0097556963e+00
 1.5542126773e+00	 9.5487804132e-02	 2.9759577427e+00
 1.5518928126e+00	 1.2776386123e-01	 2.9248868121e+00
 1.5488771845e+00	 1.6023215640e-01	 2.8580607262e+00
 1.5451521048e+00	 1.9287266128e-01	 2.7770354484e+00
 1.5407045450e+00	 2.2566447909e-01	 2.6833942075e+00
 1.5355221944e+00	 2.5858586517e-01	 2.5787357844e+00
 1.5295935178e+00	 2.9161425171e-01	 2.4646620058e+00
 1.5229078126e+00	 3.2472627667e-01	 2.3427645021e+00
 1.5714291270e+00	 0.0000000000e+00	 3.0120101236e+00
 1.5711057482e+00	 3.1877882452e-02	 3.0168977527e+00
 1.5701250792e+00	 6.4004998129e-02	 3.0013698742e+00
 1.5684716563e+00	 9.6363848071e-02	 2.9668744313e+00
 1.5661305082e+00	 1.2893601884e-01	 2.9149140944e+00
 1.5630872136e+00	 1.6170219135e-01	 2.8470367052e+00
 1.5593279585e+00	 1.9464215349e-01	 2.7648248174e+00
 1.5548395949e+00	 2.2773481677e-01	 2.6698843636e+00
 1.5496096993e+00	 2.6095823704e-01	 2.5638324836e+00
 1.5436266306e+00	 2.9428963942e-01	 2.4482845658e+00
 1.5368795881e+00	 3.2770544756e-01	 2.3248405602e+00
 1.3971622246e+00	 2.9791382207e-01	 2.4627036057e+00
 1.3903255334e+00	 3.2834428200e-01	 2.3493343029e+00
 1.3827772816e+00	 3.5880657870e-01	 2.2255018262e+00
 1.3745102498e+00	 3.8927733199e-01	 2.0923984163e+00
 1.3655181805e+00	 4.1973258100e-01	 1.9512174946e+00
 1.3557958246e+00	 4.5014783034e-01	 1.8031467139e+00
 1.3453389831e+00	 4.8049810011e-01	 1.6493607300e+00
 1.3341445482e+00	 5.1075797952e-01	 1.4910137442e+00
 1.3222105396e+00	 5.4090168402e-01	 1.3292318834e+00
 1.3095361383e+00	 5.7090311561e-01	 1.1651055001e+00
 1.2961217165e+00	 6.0073592630e-01	 9.9968148816e-01
 1.4111340001e+00	 3.0089299296e-01	 2.4503444737e+00
 1.4042289412e+00	 3.3162776083e-01	 2.3345867437e+00
 1.3966052061e+00	 3.6239468383e-01	 2.2083888813e+00
 1.3882555030e+00	 3.9317014801e-01	 2.0729505183e+00
 1.3791735121e+00	 4.2392995285e-01	 1.9294718373e+00
 1.3693539315e+00	 4.5464935801e-01	 1.7791465992e+00
 1.3587925205e+00	 4.8530313380e-01	 1.6231548706e+00
 1.3474861400e+00	 5.1586561533e-01	 1.4626555034e+00
 1.3354327900e+00	 5.4631076018e-01	 1.2987784343e+00
 1.3226316433e+00	 5.7661220937e-01	 1.1326168859e+00
 1.3090830758e+00	 6.0674335144e-01	 9.6521957091e-01
 1.4251057495e+00	 3.0387215829e-01	 2.4386606987e+00
 1.4181323230e+00	 3.3491123353e-01	 2.3205325018e+00
 1.4104331047e+00	 3.6598278227e-01	 2.1920057925e+00
 1.4020007306e+00	 3.9706295675e-01	 2.0542860101e+00
 1.3928288182e+00	 4.2812731685e-01	 1.9085785068e+00
 1.3829120131e+00	 4.5915087728e-01	 1.7560815605e+00
 1.3722460328e+00	 4.9010815853e-01	 1.5979790677e+00
 1.3608277069e+00	 5.2097324160e-01	 1.4354329670e+00
 1.3486550157e+00	 5.5171982624e-01	 1.2695754612e+00
 1.3357271238e+00	 5.8232129248e-01	 1.1015011248e+00
 1.3220444109e+00	 6.1275076537e-01	 9.3225899788e-01
 1.4390774793e+00	 3.0685131945e-01	 2.4272170507e+00
 1.4320356854e+00	 3.3819470163e-01	 2.3069533658e+00
 1.4242609840e+00	 3.6957087569e-01	 2.1761637974e+00
 1.4157459389e+00	 4.0095576004e-01	 2.0362210304e+00
 1.4064841051e+00	 4.3232467498e-01	 1.8883582187e+00
 1.3964700758e+00	 4.6365239024e-01	 1.7337765862e+00
 1.3856995262e+00	 4.9491317653e-01	 1.5736623033e+00
 1.3741692551e+00	 5.2608086073e-01	 1.4091788605e+00
 1.3618772229e+00	 5.5712888473e-01	 1.2414592191e+00
 1.3488225860e+00	 5.8803036759e-01	 1.0715978257e+00
 1.3350057279e+00	 6.1875817089e-01	 9.0064259869e-01
 1.4530491961e+00	 3.0983047783e-01	 2.4152673811e+00
 1.4459390348e+00	 3.4147816667e-01	 2.2931291818e+00
 1.4380888504e+00	 3.7315896575e-01	 2.1605088257e+00
 1.4294911344e+00	 4.0484855971e-01	 2.0185792161e+00
 1.4201393793e+00	 4.3652202919e-01	 1.8686406891e+00
 1.4100281258e+00	 4.6815389901e-01	 1.7120656881e+00
 1.3991530071e+00	 4.9971819004e-01	 1.5500425919e+00
 1.3875107909e+00	 5.3118847508e-01	 1.3837349390e+00
 1.3750994178e+00	 5.6253793817e-01	 1.2142749754e+00
 1.3619180360e+00	 5.9373943738e-01	 1.0427555806e+00
 1.3479670327e+00	 6.2476557081e-01	 8.7022214442e-01
 1.4670209063e+00	 3.1280963482e-01	 2.4026428658e+00
 1.4598423778e+00	 3.4476163017e-01	 2.2786908211e+00
 1.4519167104e+00	 3.7674705414e-01	 2.1443549566e+00
 1.4432363235e+00	 4.0874135755e-01	 2.0008067697e+00
 1.4337946472e+00	 4.4071938145e-01	 1.8492169455e+00
 1.4235861694e+00	 4.7265540567e-01	 1.6907915263e+00
 1.4126064816e+00	 5.0452320132e-01	 1.5269666021e+00
 1.4008523204e+00	 5.3629608706e-01	 1.3589516031e+00
 1.3883216065e+00	 5.6794698909e-01	 1.1878766230e+00
 1.3750134799e+00	 5.9944850450e-01	 1.0148315732e+00
 1.3609283316e+00	 6.3077296791e-01	 8.4085795277e-01
 1.4809926166e+00	 3.1578879180e-01	 2.3892075739e+00
 1.4737457207e+00	 3.4804509368e-01	 2.2635039909e+00
 1.4657445703e+00	 3.8033514254e-01	 2.1275324359e+00
 1.4569815126e+00	 4.1263415539e-01	 1.9824618556e+00
 1.4474499150e+00	 4.4491673370e-01	 1.8294592534e+00
 1.4371442131e+00	 4.7715691233e-01	 1.6696834964e+00
 1.4260599562e+00	 5.0932821259e-01	 1.5042892964e+00
 1.4141938499e+00	 5.4140369903e-01	 1.3346875361e+00
 1.4015437952e+00	 5.7335604000e-01	 1.1621263117e+00
 1.3881089238e+00	 6.0515757163e-01	 9.8769120748e-01
 1.3738896304e+00	 6.3678036502e-01	 8.1241851250e-01
 1.4949643334e+00	 3.1876795018e-01	 2.3748314728e+00
 1.4876490701e+00	 3.5132855872e-01	 2.2474402588e+00
 1.4795724367e+00	 3.8392323260e-01	 2.1099143495e+00
 1.4707267081e+00	 4.1652695505e-01	 1.9634190195e+00
 1.4611051892e+00	 4.4911408791e-01	 1.8091164059e+00
 1.4507022631e+00	 4.8165842109e-01	 1.6481592936e+00
 1.4395134371e+00	 5.1413322610e-01	 1.4816847452e+00
 1.4275353857e+00	 5.4651131339e-01	 1.3108093576e+00
 1.4147659900e+00	 5.7876509344e-01	 1.1368940993e+00
 1.4012043738e+00	 6.1086664141e-01	 9.6120775352e-01
 1.3868509352e+00	 6.4278776494e-01	 7.8478012594e-01
 1.5089360632e+00	 3.2174711134e-01	 2.3593901419e+00
 1.5015524325e+00	 3.5461202682e-01	 2.2303767664e+00
 1.4934003160e+00	 3.8751132602e-01	 2.0913793230e+00
 1.4844719164e+00	 4.2041975835e-01	 1.9435583154e+00
 1.4747604761e+00	 4.5331144604e-01	 1.7880698526e+00
 1.4642603257e+00	 4.8615993406e-01	 1.6260594188e+00
 1.4529669305e+00	 5.1893824410e-01	 1.4586554914e+00
 1.4408769339e+00	 5.5161893251e-01	 1.2869630556e+00
 1.4279881972e+00	 5.8417415193e-01	 1.1120576179e+00
 1.4142998360e+00	 6.1657571653e-01	 9.3526201090e-01
 1.3998122522e+00	 6.4879517046e-01	 7.5782656824e-01
 1.5229078126e+00	 3.2472627667e-01	 2.3427645021e+00
 1.5154558143e+00	 3.5789549951e-01	 2.2121959596e+00
 1.5072282146e+00	 3.9109942445e-01	 2.0718112526e+00
 1.4982171440e+00	 4.2431256709e-01	 1.9227650366e+00
 1.4884157822e+00	 4.5750881004e-01	 1.7662062530e+00
 1.4778184073e+00	 4.9066145333e-01	 1.6032718895e+00
 1.4664204428e+00	 5.2374326883e-01	 1.4350805924e+00
 1.4542185008e+00	 5.5672655879e-01	 1.2627261797e+00
 1.4412104230e+00	 5.8958321800e-01	 1.0872711080e+00
 1.4273953166e+00	 6.2228479964e-01	 9.0974198746e-01
 1.4127735873e+00	 6.5480258439e-01	 7.3144876260e-01
 1.5368795881e+00	 3.2770544756e-01	 2.3248405602e+00
 1.5293592221e+00	 3.6117897834e-01	 2.1927853336e+00
 1.5210561391e+00	 3.9468752959e-01	 2.0510990506e+00
 1.5119623972e+00	 4.2820538310e-01	 1.9009294615e+00
 1.5020711138e+00	 4.6170618189e-01	 1.7434172221e+00
 1.4913765143e+00	 4.9516298100e-01	 1.5796896500e+00
 1.4798739801e+00	 5.2854830253e-01	 1.4108543373e+00
 1.4675600926e+00	 5.6183419459e-01	 1.2379926684e+00
 1.4544326734e+00	 5.9499229416e-01	 1.0621532958e+00
 1.4404908216e+00	 6.2799389340e-01	 8.8434563635e-01
 1.4257349466e+00	 6.6081000953e-01	 7.0554447004e-01
 1.2961217165e+00	 6.0073592630e-01	 9.9968148816e-01
 1.2819678480e+00	 6.3037565026e-01	 8.3242841584e-01
 1.2670782810e+00	 6.5979353355e-01	 6.6317944547e-01
 1.2514571071e+00	 6.8896287119e-01	 4.9342150297e-01
 1.2351096861e+00	 7.1785698657e-01	 3.2458818931e-01
 1.2180426524e+00	 7.4644930563e-01	 1.5805171053e-01
 1.2002639171e+00	 7.7471343215e-01	-4.8845710780e-03
 1.1817826648e+00	 8.0262322360e-01	-1.6299282727e-01
 1.1626093447e+00	 8.3015286718e-01	-3.1512657065e-01
 1.1427556564e+00	 8.5727695575e-01	-4.6022546903e-01
 1.1222345306e+00	 8.8397056294e-01	-5.9731908018e-01
 1.3090830758e+00	 6.0674335144e-01	 9.6521957091e-01
 1.2947876671e+00	 6.3667947589e-01	 7.9607744811e-01
 1.2797492027e+00	 6.6639154124e-01	 6.2505895198e-01
 1.2639718154e+00	 6.9585257546e-01	 4.5366969607e-01
 1.2474609184e+00	 7.2503563516e-01	 2.8336014409e-01
 1.2302232125e+00	 7.5391388054e-01	 1.1551724666e-01
 1.2122666879e+00	 7.8246065143e-01	-4.8543279355e-02
 1.1936006210e+00	 8.1064954385e-01	-2.0758388288e-01
 1.1742355656e+00	 8.3845448689e-01	-3.6045118802e-01
 1.1541833383e+00	 8.6584981932e-01	-5.0608096455e-01
 1.1334569989e+00	 8.9281036551e-01	-6.4350196540e-01
 1.3220444109e+00	 6.1275076537e-01	 9.3225899788e-01
 1.3076074622e+00	 6.4298328975e-01	 7.6136006755e-01
 1.2924201008e+00	 6.7298953662e-01	 5.8870450842e-01
 1.2764865004e+00	 7.0274226687e-01	 4.1581343765e-01
 1.2598121277e+00	 7.3221427034e-01	 2.4415102577e-01
 1.2424037499e+00	 7.6137844153e-01	 7.5115850797e-02
 1.2242694363e+00	 7.9020785625e-01	-8.9967083096e-02
 1.2054185552e+00	 8.1867584912e-01	-2.4985350697e-01
 1.1858617648e+00	 8.4675609111e-01	-4.0338608588e-01
 1.1656109988e+00	 8.7442266689e-01	-5.4949953048e-01
 1.1446794464e+00	 9.0165015158e-01	-6.8722452080e-01
 1.3350057279e+00	 6.1875817089e-01	 9.0064259869e-01
 1.3204272394e+00	 6.4928709480e-01	 7.2812226869e-01
 1.3050909812e+00	 6.7958752276e-01	 5.5396533127e-01
 1.2890011678e+00	 7.0963194863e-01	 3.7970532235e-01
 1.2721633197e+00	 7.3939289548e-01	 2.0681706230e-01
 1.2545842702e+00	 7.6884299206e-01	 3.6707736809e-02
 1.2362721679e+00	 7.9795505023e-01	-1.2929133507e-01
 1.2172364729e+00	 8.2670214316e-01	-2.8993208072e-01
 1.1974879478e+00	 8.5505768370e-01	-4.4405604978e-01
 1.1770386434e+00	 8.8299550246e-01	-5.9059965304e-01
 1.1559018781e+00	 9.1048992527e-01	-7.2859815688e-01
 1.3479670327e+00	 6.2476557081e-01	 8.7022214442e-01
 1.3332470047e+00	 6.5559089395e-01	 6.9621893309e-01
 1.3177618498e+00	 6.8618550274e-01	 5.2069945476e-01
 1.3015158236e+00	 7.1652162396e-01	 3.4520667716e-01
 1.2845145001e+00	 7.4657151392e-01	 1.7122311119e-01
 1.2667647791e+00	 7.7630753562e-01	 1.6162668773e-04
 1.2482748883e+00	 8.0570223697e-01	-1.6664302144e-01
 1.2290543795e+00	 8.3472842971e-01	-3.2794178167e-01
 1.2091141199e+00	 8.6335926854e-01	-4.8257784750e-01
 1.1884662773e+00	 8.9156833002e-01	-6.2949201102e-01
 1.1671242993e+00	 9.1932969072e-01	-7.6772671313e-01
 1.3609283316e+00	 6.3077296791e-01	 8.4085795277e-01
 1.3460667639e+00	 6.6189469017e-01	 6.6551343116e-01
 1.3304327124e+00	 6.9278347964e-01	 4.8877333005e-01
 1.3140304735e+00	 7.2341129607e-01	 3.1218715884e-01
 1.2968656748e+00	 7.5375012901e-01	 1.3724225619e-01
 1.2789452824e+00	 7.8377207570e-01	-3.4645652427e-02
 1.2602776031e+00	 8.1344942010e-01	-2.0214116300e-01
 1.2408722806e+00	 8.4275471251e-01	-3.6399698158e-01
 1.2207402866e+00	 8.7166084951e-01	-5.1906062187e-01
 1.1998939058e+00	 9.0014115359e-01	-6.6627986162e-01
 1.1783467153e+00	 9.2816945203e-01	-8.0470683495e-01
 1.3738896304e+00	 6.3678036502e-01	 8.1241851250e-01
 1.3588865232e+00	 6.6819848638e-01	 6.3587724330e-01
 1.3431035750e+00	 6.9938145654e-01	 4.5806144372e-01
 1.3265451234e+00	 7.3030096819e-01	 2.8052437043e-01
 1.3092168494e+00	 7.6092874410e-01	 1.0475542276e-01
 1.2911257856e+00	 7.9123661579e-01	-6.7829552542e-02
 1.2722803179e+00	 8.2119660322e-01	-2.3589719789e-01
 1.2526901817e+00	 8.5078099531e-01	-3.9820462624e-01
 1.2323664533e+00	 8.7996243048e-01	-5.5360626595e-01
 1.2113215344e+00	 9.0871397715e-01	-7.0105940930e-01
 1.1895691313e+00	 9.3700921335e-01	-8.3962833416e-01
 1.3868509352e+00	 6.4278776494e-01	 7.8478012594e-01
 1.3717062884e+00	 6.7450228554e-01	 6.0718959903e-01
 1.3557744436e+00	 7.0597943653e-01	 4.2844595400e-01
 1.3390597792e+00	 7.3719064352e-01	 2.5010349551e-01
 1.3215680299e+00	 7.6810736254e-01	 7.3651011303e-02
 1.3033062946e+00	 7.9870115935e-01	-9.9498171678e-02
 1.2842830382e+00	 8.2894378997e-01	-2.6801534728e-01
 1.2645080883e+00	 8.5880728185e-01	-4.3066459848e-01
 1.2439926254e+00	 8.8826401533e-01	-5.8630978181e-01
 1.2227491683e+00	 9.1728680472e-01	-7.3392015861e-01
 1.2007915526e+00	 9.4584897880e-01	-8.7257453408e-01
 1.3998122522e+00	 6.4879517046e-01	 7.5782656824e-01
 1.3845260656e+00	 6.8080609058e-01	 5.7933713288e-01
 1.3684453240e+00	 7.1257742267e-01	 3.9981634389e-01
 1.3515744466e+00	 7.4408032528e-01	 2.2081694909e-01
 1.3339192218e+00	 7.7528598768e-01	 4.3824546721e-02
 1.3154868149e+00	 8.0616570988e-01	-1.2975260444e-01
 1.2962857698e+00	 8.3669098394e-01	-2.9859296497e-01
 1.2763260060e+00	 8.6683357589e-01	-4.6147006539e-01
 1.2556188084e+00	 8.9656560792e-01	-6.1725962396e-01
 1.2341768128e+00	 9.2585964028e-01	-7.6494525212e-01
 1.2120139843e+00	 9.5468875249e-01	-9.0362260017e-01
 1.4127735873e+00	 6.5480258439e-01	 7.3144876260e-01
 1.3973458607e+00	 6.8710990445e-01	 5.5221355607e-01
 1.3811162221e+00	 7.1917541804e-01	 3.7206908983e-01
 1.3640891316e+00	 7.5097001669e-01	 1.9256404413e-01
 1.3462704311e+00	 7.8246462287e-01	 1.5178343549e-02
 1.3276673523e+00	 8.1363027087e-01	-1.5868727737e-01
 1.3082885182e+00	 8.4443818876e-01	-3.2772087193e-01
 1.2881439401e+00	 8.7485988116e-01	-4.9070781087e-01
 1.2672450076e+00	 9.0486721213e-01	-6.4653802835e-01
 1.2456044734e+00	 9.3443248785e-01	-7.9421179440e-01
 1.2232364317e+00	 9.6352853856e-01	-9.3284385732e-01
 1.4257349466e+00	 6.6081000953e-01	 7.0554447004e-01
 1.4101656798e+00	 6.9341373009e-01	 5.2571934286e-01
 1.3937871438e+00	 7.2577342574e-01	 3.4510734512e-01
 1.3766038399e+00	 7.5785972096e-01	 1.6525067252e-01
 1.3586216634e+00	 7.8964327147e-01	-1.2378814546e-02
 1.3398479124e+00	 8.2109484578e-01	-1.8639026993e-01
 1.3202912890e+00	 8.5218540804e-01	-3.5548367683e-01
 1.2999618964e+00	 8.8288620142e-01	-5.1845855434e-01
 1.2788712286e+00	 9.1316883184e-01	-6.7422132794e-01
 1.2570321553e+00	 9.4300535142e-01	-8.2179116290e-01
 1.2344589001e+00	 9.7236834113e-01	-9.6030409442e-01
 1.1222345306e+00	 8.8397056294e-01	-5.9731908018e-01
 1.1010601006e+00	 9.1020931966e-01	-7.2721452208e-01
 1.0792476632e+00	 9.3596949396e-01	-8.5073252394e-01
 1.0568136520e+00	 9.6122805398e-01	-9.6704046798e-01
 1.0337756005e+00	 9.8596273346e-01	-1.0753705939e+00
 1.0101520967e+00	 1.0101520967e+00	-1.1750198279e+00
 9.8596273346e-01	 1.0337756005e+00	-1.2653488237e+00
 9.6122805398e-01	 1.0568136520e+00	-1.3457803159e+00
 9.3596949396e-01	 1.0792476632e+00	-1.4157969133e+00
 9.1020931966e-01	 1.1010601006e+00	-1.4749384740e+00
 8.8397056294e-01	 1.1222345306e+00	-1.5227992214e+00
 1.1334569989e+00	 8.9281036551e-01	-6.4350196540e-01
 1.1120708224e+00	 9.1931151267e-01	-7.7347250305e-01
 1.0900402582e+00	 9.4532929154e-01	-8.9676893747e-01
 1.0673819044e+00	 9.7084043994e-01	-1.0125693994e+00
 1.0441134698e+00	 9.9582246892e-01	-1.1201201562e+00
 1.0202537285e+00	 1.0202537285e+00	-1.2187352450e+00
 9.9582246892e-01	 1.0441134698e+00	-1.3077952581e+00
 9.7084043994e-01	 1.0673819044e+00	-1.3867453915e+00
 9.4532929154e-01	 1.0900402582e+00	-1.4550928885e+00
 9.1931151267e-01	 1.1120708224e+00	-1.5124040338e+00
 8.9281036551e-01	 1.1334569989e+00	-1.5583008657e+00
 1.1446794464e+00	 9.0165015158e-01	-6.8722452080e-01
 1.1230815236e+00	 9.2841368870e-01	-8.1727322108e-01
 1.1008328330e+00	 9.5468907165e-01	-9.4037833695e-01
 1.0779501371e+00	 9.8045280795e-01	-1.0557281354e+00
 1.0544513199e+00	 1.0056821860e+00	-1.1625818455e+00
 1.0303553413e+00	 1.0303553413e+00	-1.2602690931e+00
 1.0056821860e+00	 1.0544513199e+00	-1.3481884323e+00
 9.8045280795e-01	 1.0779501371e+00	-1.4258050892e+00
 9.5468907165e-01	 1.1008328330e+00	-1.4926480590e+00
 9.2841368870e-01	 1.1230815236e+00	-1.5483067234e+00
 9.0165015158e-01	 1.1446794464e+00	-1.5924271652e+00
 1.1559018781e+00	 9.1048992527e-01	-7.2859815688e-01
 1.1340922094e+00	 9.3751585198e-01	-8.5871954395e-01
 1.1116253928e+00	 9.6404883866e-01	-9.8165294810e-01
 1.0885183550e+00	 9.9006516250e-01	-1.0965961917e+00
 1.0647891555e+00	 1.0155418892e+00	-1.2028204444e+00
 1.0404569401e+00	 1.0404569401e+00	-1.2996694590e+00
 1.0155418892e+00	 1.0647891555e+00	-1.3865578474e+00
 9.9006516250e-01	 1.0885183550e+00	-1.4629685201e+00
 9.6404883866e-01	 1.1116253928e+00	-1.5284494392e+00
 9.3751585198e-01	 1.1340922094e+00	-1.5826098612e+00
 9.1048992527e-01	 1.1559018781e+00	-1.6251162612e+00
 1.1671242993e+00	 9.1932969072e-01	-7.6772671313e-01
 1.1451028849e+00	 9.4661800676e-01	-8.9790705684e-01
 1.1224179424e+00	 9.7340859693e-01	-1.0206780784e+00
 1.0990865630e+00	 9.9967750808e-01	-1.1352466046e+00
 1.0751269815e+00	 1.0254015833e+00	-1.2408947695e+00
 1.0505585294e+00	 1.0505585294e+00	-1.3369790488e+00
 1.0254015833e+00	 1.0751269815e+00	-1.4229282803e+00
 9.9967750808e-01	 1.0990865630e+00	-1.4982407975e+00
 9.7340859693e-01	 1.1224179424e+00	-1.5624808399e+00
 9.4661800676e-01	 1.1451028849e+00	-1.6152744235e+00
 9.1932969072e-01	 1.1671242993e+00	-1.6563048779e+00
 1.1783467153e+00	 9.2816945203e-01	-8.0470683495e-01
 1.1561135553e+00	 9.5572015730e-01	-9.3492442695e-01
 1.1332104870e+00	 9.8276835083e-01	-1.0575324648e+00
 1.1096547661e+00	 1.0092898492e+00	-1.1717462582e+00
 1.0854648026e+00	 1.0352612727e+00	-1.2768579724e+00
 1.0606601140e+00	 1.0606601140e+00	-1.3722354596e+00
 1.0352612727e+00	 1.0854648026e+00	-1.4573200212e+00
 1.0092898492e+00	 1.1096547661e+00	-1.5316232359e+00
 9.8276835083e-01	 1.1332104870e+00	-1.5947230256e+00
 9.5572015730e-01	 1.1561135553e+00	-1.6462591549e+00
 9.2816945203e-01	 1.1783467153e+00	-1.6859283838e+00
 1.1895691313e+00	 9.3700921335e-01	-8.3962833416e-01
 1.1671242256e+00	 9.6482230784e-01	-9.6985375256e-01
 1.1440030317e+00	 9.9212810474e-01	-1.0922886075e+00
 1.1202229692e+00	 1.0189021903e+00	-1.2061561978e+00
 1.0958026237e+00	 1.0451209622e+00	-1.3107578291e+00
 1.0707616986e+00	 1.0707616986e+00	-1.4054714398e+00
 1.0451209622e+00	 1.0958026237e+00	-1.4897491024e+00
 1.0189021903e+00	 1.1202229692e+00	-1.5631135441e+00
 9.9212810474e-01	 1.1440030317e+00	-1.6251538673e+00
 9.6482230784e-01	 1.1671242256e+00	-1.6755206779e+00
 9.3700921335e-01	 1.1895691313e+00	-1.7139208542e+00
 1.2007915526e+00	 9.4584897880e-01	-8.7257453408e-01
 1.1781349011e+00	 9.7392446263e-01	-1.0027708973e+00
 1.1547955813e+00	 1.0014878630e+00	-1.1250130888e+00
 1.1307911772e+00	 1.0285145359e+00	-1.2385319303e+00
 1.1061404497e+00	 1.0549806562e+00	-1.3426370180e+00
 1.0808632879e+00	 1.0808632879e+00	-1.4367151410e+00
 1.0549806562e+00	 1.1061404497e+00	-1.5202275188e+00
 1.0285145359e+00	 1.1307911772e+00	-1.5927060113e+00
 1.0014878630e+00	 1.1547955813e+00	-1.6537484911e+00
 9.7392446263e-01	 1.1781349011e+00	-1.7030136004e+00
 9.4584897880e-01	 1.2007915526e+00	-1.7402151346e+00
 1.2120139843e+00	 9.5468875249e-01	-9.0362260017e-01
 1.1891455869e+00	 9.8302662591e-01	-1.0337458109e+00
 1.1655881411e+00	 1.0108476300e+00	-1.1557668805e+00
 1.1413593951e+00	 1.0381268904e+00	-1.2689237132e+00
 1.1164782853e+00	 1.0648403595e+00	-1.3725333870e+00
 1.0909648867e+00	 1.0909648867e+00	-1.4659903601e+00
 1.0648403595e+00	 1.1164782853e+00	-1.5487634418e+00
 1.0381268904e+00	 1.1413593951e+00	-1.6203916883e+00
 1.0108476300e+00	 1.1655881411e+00	-1.6804794239e+00
 9.8302662591e-01	 1.1891455869e+00	-1.7286906222e+00
 9.5468875249e-01	 1.2120139843e+00	-1.7647429048e+00
 1.2232364317e+00	 9.6352853856e-01	-9.3284385732e-01
 1.2001562881e+00	 9.9212880193e-01	-1.0628428366e+00
 1.1763807159e+00	 1.0202074101e+00	-1.1846056378e+00
 1.1519276278e+00	 1.0477392584e+00	-1.2973768329e+00
 1.1268161354e+00	 1.0747000765e+00	-1.4004802114e+00
 1.1010664996e+00	 1.1010664996e+00	-1.4933167726e+00
 1.0747000765e+00	 1.1268161354e+00	-1.5753614250e+00
 1.0477392584e+00	 1.1519276278e+00	-1.6461585634e+00
 1.0202074101e+00	 1.1763807159e+00	-1.7053167349e+00
 9.9212880193e-01	 1.2001562881e+00	-1.7525026402e+00
 9.6352853856e-01	 1.2232364317e+00	-1.7874347442e+00
 1.2344589001e+00	 9.7236834113e-01	-9.6030409442e-01
 1.2111670099e+00	 1.0012309949e+00	-1.0901210074e+00
 1.1871733109e+00	 1.0295672077e+00	-1.2115799834e+00
 1.1624958802e+00	 1.0573516444e+00	-1.3239318716e+00
 1.1371540047e+00	 1.0845598120e+00	-1.4265064420e+00
 1.1111681313e+00	 1.1111681313e+00	-1.5187101589e+00
 1.0845598120e+00	 1.1371540047e+00	-1.6000226047e+00
 1.0573516444e+00	 1.1624958802e+00	-1.6699917333e+00
 1.0295672077e+00	 1.1871733109e+00	-1.7282281747e+00
 1.0012309949e+00	 1.2111670099e+00	-1.7743988516e+00
 9.7236834113e-01	 1.2344589001e+00	-1.8082201975e+00
 8.8397056294e-01	 1.1222345306e+00	-1.5227992214e+00
 8.5727695575e-01	 1.1427556564e+00	-1.5616275748e+00
 8.3015286718e-01	 1.1626093447e+00	-1.5940086050e+00
 8.0262322360e-01	 1.1817826648e+00	-1.6200759413e+00
 7.7471343215e-01	 1.2002639171e+00	-1.6399545965e+00
 7.4644930563e-01	 1.2180426524e+00	-1.6537585440e+00
 7.1785698657e-01	 1.2351096861e+00	-1.6615892914e+00
 6.8896287119e-01	 1.2514571071e+00	-1.6635355239e+00
 6.5979353355e-01	 1.2670782810e+00	-1.6596738526e+00
 6.3037565026e-01	 1.2819678480e+00	-1.6500706710e+00
 6.0073592630e-01	 1.2961217165e+00	-1.6347850807e+00
 8.9281036551e-01	 1.1334569989e+00	-1.5583008657e+00
 8.6584981932e-01	 1.1541833383e+00	-1.5949781501e+00
 8.3845448689e-01	 1.1742355656e+00	-1.6249758045e+00
 8.1064954385e-01	 1.1936006210e+00	-1.6484668257e+00
 7.8246065143e-01	 1.2122666879e+00	-1.6656126036e+00
 7.5391388054e-01	 1.2302232125e+00	-1.6765601351e+00
 7.2503563516e-01	 1.2474609184e+00	-1.6814403106e+00
 6.9585257546e-01	 1.2639718154e+00	-1.6803673533e+00
 6.6639154124e-01	 1.2797492027e+00	-1.6734394536e+00
 6.3667947589e-01	 1.2947876671e+00	-1.6607406043e+00
 6.0674335144e-01	 1.3090830758e+00	-1.6423435992e+00
 9.0165015158e-01	 1.1446794464e+00	-1.5924271652e+00
 8.7442266689e-01	 1.1656109988e+00	-1.6271432711e+00
 8.4675609111e-01	 1.1858617648e+00	-1.6549489671e+00
 8.1867584912e-01	 1.2054185552e+00	-1.6760623933e+00
 7.9020785625e-01	 1.2242694363e+00	-1.6906874122e+00
 7.6137844153e-01	 1.2424037499e+00	-1.6990103782e+00
 7.3221427034e-01	 1.2598121277e+00	-1.7011980557e+00
 7.0274226687e-01	 1.2764865004e+00	-1.6973967753e+00
 6.7298953662e-01	 1.2924201008e+00	-1.6877328788e+00
 6.4298328975e-01	 1.3076074622e+00	-1.6723144608e+00
 6.1275076537e-01	 1.3220444109e+00	-1.6512343742e+00
 9.1048992527e-01	 1.1559018781e+00	-1.6251162612e+00
 8.8299550246e-01	 1.1770386434e+00	-1.6580366245e+00
 8.5505768370e-01	 1.1974879478e+00	-1.6838200600e+00
 8.2670214316e-01	 1.2172364729e+00	-1.7027354537e+00
 7.9795505023e-01	 1.2362721679e+00	-1.7150350514e+00
 7.6884299206e-01	 1.2545842702e+00	-1.7209507022e+00
 7.3939289548e-01	 1.2721633197e+00	-1.7206913274e+00
 7.0963194863e-01	 1.2890011678e+00	-1.7144417152e+00
 6.7958752276e-01	 1.3050909812e+00	-1.7023627003e+00
 6.4928709480e-01	 1.3204272394e+00	-1.6845927413e+00
 6.1875817089e-01	 1.3350057279e+00	-1.6612508668e+00
 9.1932969072e-01	 1.1671242993e+00	-1.6563048779e+00
 8.9156833002e-01	 1.1884662773e+00	-1.6875713877e+00
 8.6335926854e-01	 1.2091141199e+00	-1.7114813575e+00
 8.3472842971e-01	 1.2290543795e+00	-1.7283598575e+00
 8.0570223697e-01	 1.2482748883e+00	-1.7385132522e+00
 7.7630753562e-01	 1.2667647791e+00	-1.7422248364e+00
 7.4657151392e-01	 1.2845145001e+00	-1.7397517734e+00
 7.1652162396e-01	 1.3015158236e+00	-1.7313234501e+00
 6.8618550274e-01	 1.3177618498e+00	-1.7171413159e+00
 6.5559089395e-01	 1.3332470047e+00	-1.6973802254e+00
 6.2476557081e-01	 1.3479670327e+00	-1.6721912592e+00
 9.2816945203e-01	 1.1783467153e+00	-1.6859283838e+00
 9.0014115359e-01	 1.1998939058e+00	-1.7156602415e+00
 8.7166084951e-01	 1.2207402866e+00	-1.7378254081e+00
 8.4275471251e-01	 1.2408722806e+00	-1.7528104215e+00
 8.1344942010e-01	 1.2602776031e+00	-1.7609813353e+00
 7.8377207570e-01	 1.2789452824e+00	-1.7626786635e+00
 7.5375012901e-01	 1.2968656748e+00	-1.7582137089e+00
 7.2341129607e-01	 1.3140304735e+00	-1.7478663997e+00
 6.9278347964e-01	 1.3304327124e+00	-1.7318847117e+00
 6.6189469017e-01	 1.3460667639e+00	-1.7104857075e+00
 6.3077296791e-01	 1.3609283316e+00	-1.6838581659e+00
 9.3700921335e-01	 1.1895691313e+00	-1.7139208542e+00
 9.0871397715e-01	 1.2113215344e+00	-1.7422153859e+00
 8.7996243048e-01	 1.2323664533e+00	-1.7627450076e+00
 8.5078099531e-01	 1.2526901817e+00	-1.7759628633e+00
 8.2119660322e-01	 1.2722803179e+00	-1.7823001088e+00
 7.9123661579e-01	 1.2911257856e+00	-1.7821600843e+00
 7.6092874410e-01	 1.3092168494e+00	-1.7759139514e+00
 7.3030096819e-01	 1.3265451234e+00	-1.7638979321e+00
 6.9938145654e-01	 1.3431035750e+00	-1.7464122415e+00
 6.6819848638e-01	 1.3588865232e+00	-1.7237217506e+00
 6.3678036502e-01	 1.3738896304e+00	-1.6960583627e+00
 9.4584897880e-01	 1.2007915526e+00	-1.7402151346e+00
 9.1728680472e-01	 1.2227491683e+00	-1.7671485591e+00
 8.8826401533e-01	 1.2439926254e+00	-1.7861331782e+00
 8.5880728185e-01	 1.2645080883e+00	-1.7976937426e+00
 8.2894378997e-01	 1.2842830382e+00	-1.8023317762e+00
 7.9870115935e-01	 1.3033062946e+00	-1.8005188941e+00
 7.6810736254e-01	 1.3215680299e+00	-1.7926916669e+00
 7.3719064352e-01	 1.3390597792e+00	-1.7792481838e+00
 7.0597943653e-01	 1.3557744436e+00	-1.7605464204e+00
 6.7450228554e-01	 1.3717062884e+00	-1.7369044566e+00
 6.4278776494e-01	 1.3868509352e+00	-1.7086025342e+00
 9.5468875249e-01	 1.2120139843e+00	-1.7647429048e+00
 9.2585964028e-01	 1.2341768128e+00	-1.7903710604e+00
 8.9656560792e-01	 1.2556188084e+00	-1.8078831523e+00
 8.6683357589e-01	 1.2763260060e+00	-1.8178804101e+00
 8.3669098394e-01	 1.2962857698e+00	-1.8209398524e+00
 8.0616570988e-01	 1.3154868149e+00	-1.8176066687e+00
 7.7528598768e-01	 1.3339192218e+00	-1.8083882288e+00
 7.4408032528e-01	 1.3515744466e+00	-1.7937498917e+00
 7.1257742267e-01	 1.3684453240e+00	-1.7741127337e+00
 6.8080609058e-01	 1.3845260656e+00	-1.7498532513e+00
 6.4879517046e-01	 1.3998122522e+00	-1.7213050369e+00
 9.6352853856e-01	 1.2232364317e+00	-1.7874347442e+00
 9.3443248785e-01	 1.2456044734e+00	-1.8117937753e+00
 9.0486721213e-01	 1.2672450076e+00	-1.8278883619e+00
 8.7485988116e-01	 1.2881439401e+00	-1.8364009628e+00
 8.4443818876e-01	 1.3082885182e+00	-1.8379890882e+00
 8.1363027087e-01	 1.3276673523e+00	-1.8332766604e+00
 7.8246462287e-01	 1.3462704311e+00	-1.8228470873e+00
 7.5097001669e-01	 1.3640891316e+00	-1.8072382387e+00
 7.1917541804e-01	 1.3811162221e+00	-1.7869394586e+00
 6.8710990445e-01	 1.3973458607e+00	-1.7623906847e+00
 6.5480258439e-01	 1.4127735873e+00	-1.7339836778e+00
 9.7236834113e-01	 1.2344589001e+00	-1.8082201975e+00
 9.4300535142e-01	 1.2570321553e+00	-1.8313272041e+00
 9.1316883184e-01	 1.2788712286e+00	-1.8460424315e+00
 8.8288620142e-01	 1.2999618964e+00	-1.8531342060e+00
 8.5218540804e-01	 1.3202912890e+00	-1.8533454027e+00
 8.2109484578e-01	 1.3398479124e+00	-1.8473837031e+00
 7.8964327147e-01	 1.3586216634e+00	-1.8359136496e+00
 7.5785972096e-01	 1.3766038399e+00	-1.8195507096e+00
 7.2577342574e-01	 1.3937871438e+00	-1.7988574983e+00
 6.9341373009e-01	 1.4101656798e+00	-1.7743422437e+00
 6.6081000953e-01	 1.4257349466e+00	-1.7464595077e+00
 6.0073592630e-01	 1.2961217165e+00	-1.6347850807e+00
 5.7090311561e-01	 1.3095361383e+00	-1.6147147366e+00
 5.4090168402e-01	 1.3222105396e+00	-1.5911422152e+00
 5.1075797952e-01	 1.3341445482e+00	-1.5646545928e+00
 4.8049810011e-01	 1.3453389831e+00	-1.5357763313e+00
 4.5014783034e-01	 1.3557958246e+00	-1.5049751804e+00
 4.1973258100e-01	 1.3655181805e+00	-1.4726688887e+00
 3.8927733199e-01	 1.3745102498e+00	-1.4392324926e+00
 3.5880657870e-01	 1.3827772816e+00	-1.4050059437e+00
 3.2834428200e-01	 1.3903255334e+00	-1.3703018371e+00
 2.9791382207e-01	 1.3971622246e+00	-1.3354130074e+00
 6.0674335144e-01	 1.3090830758e+00	-1.6423435992e+00
 5.7661220937e-01	 1.3226316433e+00	-1.6190260113e+00
 5.4631076018e-01	 1.3354327900e+00	-1.5919985557e+00
 5.1586561533e-01	 1.3474861400e+00	-1.5619273091e+00
 4.8530313380e-01	 1.3587925205e+00	-1.5294091918e+00
 4.5464935801e-01	 1.3693539315e+00	-1.4949778462e+00
 4.2392995285e-01	 1.3791735121e+00	-1.4591104301e+00
 3.9317014801e-01	 1.3882555030e+00	-1.4222350813e+00
 3.6239468383e-01	 1.3966052061e+00	-1.3847388009e+00
 3.3162776083e-01	 1.4042289412e+00	-1.3469755043e+00
 3.0089299296e-01	 1.4111340001e+00	-1.3092739921e+00
 6.1275076537e-01	 1.3220444109e+00	-1.6512343742e+00
 5.8232129248e-01	 1.3357271238e+00	-1.6251496276e+00
 5.5171982624e-01	 1.3486550157e+00	-1.5951846308e+00
 5.2097324160e-01	 1.3608277069e+00	-1.5620697831e+00
 4.9010815853e-01	 1.3722460328e+00	-1.5264600389e+00
 4.5915087728e-01	 1.3829120131e+00	-1.4889408620e+00
 4.2812731685e-01	 1.3928288182e+00	-1.4500351955e+00
 3.9706295675e-01	 1.4020007306e+00	-1.4102111920e+00
 3.6598278227e-01	 1.4104331047e+00	-1.3698904392e+00
 3.3491123353e-01	 1.4181323230e+00	-1.3294564123e+00
 3.0387215829e-01	 1.4251057495e+00	-1.2892628939e+00
 6.1875817089e-01	 1.3350057279e+00	-1.6612508668e+00
 5.8803036759e-01	 1.3488225860e+00	-1.6328728398e+00
 5.5712888473e-01	 1.3618772229e+00	-1.6004825173e+00
 5.2608086073e-01	 1.3741692551e+00	-1.5648602646e+00
 4.9491317653e-01	 1.3856995262e+00	-1.5267049500e+00
 4.6365239024e-01	 1.3964700758e+00	-1.4866400719e+00
 4.3232467498e-01	 1.4064841051e+00	-1.4452209987e+00
 4.0095576004e-01	 1.4157459389e+00	-1.4029430565e+00
 3.6957087569e-01	 1.4242609840e+00	-1.3602501805e+00
 3.3819470163e-01	 1.4320356854e+00	-1.3174503502e+00
 3.0685131945e-01	 1.4390774793e+00	-1.2743457543e+00
 6.2476557081e-01	 1.3479670327e+00	-1.6721912592e+00
 5.9373943738e-01	 1.3619180360e+00	-1.6419880636e+00
 5.6253793817e-01	 1.3750994178e+00	-1.6076798830e+00
 5.3118847508e-01	 1.3875107909e+00	-1.5700830008e+00
 4.9971819004e-01	 1.3991530071e+00	-1.5299263694e+00
 4.6815389901e-01	 1.4100281258e+00	-1.4878580059e+00
 4.3652202919e-01	 1.4201393793e+00	-1.4444525969e+00
 4.0484855971e-01	 1.4294911344e+00	-1.4002134404e+00
 3.7315896575e-01	 1.4380888504e+00	-1.3548778714e+00
 3.4147816667e-01	 1.4459390348e+00	-1.3086388057e+00
 3.0983047783e-01	 1.4530491961e+00	-1.2622254119e+00
 6.3077296791e-01	 1.3609283316e+00	-1.6838581659e+00
 5.9944850450e-01	 1.3750134799e+00	-1.6522925623e+00
 5.6794698909e-01	 1.3883216065e+00	-1.6165696497e+00
 5.3629608706e-01	 1.4008523204e+00	-1.5775278774e+00
 5.0452320132e-01	 1.4126064816e+00	-1.5359127301e+00
 4.7265540567e-01	 1.4235861694e+00	-1.4923834871e+00
 4.4071938145e-01	 1.4337946472e+00	-1.4472916400e+00
 4.0874135755e-01	 1.4432363235e+00	-1.4000394333e+00
 3.7674705414e-01	 1.4519167104e+00	-1.3513012995e+00
 3.4476163017e-01	 1.4598423778e+00	-1.3018904417e+00
 3.1280963482e-01	 1.4670209063e+00	-1.2525454989e+00
 6.3678036502e-01	 1.3738896304e+00	-1.6960583627e+00
 6.0515757163e-01	 1.3881089238e+00	-1.6635881529e+00
 5.7335604000e-01	 1.4015437952e+00	-1.6269496767e+00
 5.4140369903e-01	 1.4141938499e+00	-1.5869900817e+00
 5.0932821259e-01	 1.4260599562e+00	-1.5444580992e+00
 4.7715691233e-01	 1.4371442131e+00	-1.4993796784e+00
 4.4491673370e-01	 1.4474499150e+00	-1.4511796943e+00
 4.1263415539e-01	 1.4569815126e+00	-1.4007870974e+00
 3.8033514254e-01	 1.4657445703e+00	-1.3491024035e+00
 3.4804509368e-01	 1.4737457207e+00	-1.2969440192e+00
 3.1578879180e-01	 1.4809926166e+00	-1.2450515759e+00
 6.4278776494e-01	 1.3868509352e+00	-1.7086025342e+00
 6.1086664141e-01	 1.4012043738e+00	-1.6756809303e+00
 5.7876509344e-01	 1.4147659900e+00	-1.6386224639e+00
 5.4651131339e-01	 1.4275353857e+00	-1.5982697865e+00
 5.1413322610e-01	 1.4395134371e+00	-1.5543195737e+00
 4.8165842109e-01	 1.4507022631e+00	-1.5062912864e+00
 4.4911408791e-01	 1.4611051892e+00	-1.4552547023e+00
 4.1652695505e-01	 1.4707267081e+00	-1.4021990206e+00
 3.8392323260e-01	 1.4795724367e+00	-1.3480248230e+00
 3.5132855872e-01	 1.4876490701e+00	-1.2935468400e+00
 3.1876795018e-01	 1.4949643334e+00	-1.2394974507e+00
 6.4879517046e-01	 1.3998122522e+00	-1.7213050369e+00
 6.1657571653e-01	 1.4142998360e+00	-1.6883810096e+00
 5.8417415193e-01	 1.4279881972e+00	-1.6513948742e+00
 5.5161893251e-01	 1.4408769339e+00	-1.6098438035e+00
 5.1893824410e-01	 1.4529669305e+00	-1.5632082166e+00
 4.8615993406e-01	 1.4642603257e+00	-1.5126574771e+00
 4.5331144604e-01	 1.4747604761e+00	-1.4592690260e+00
 4.2041975835e-01	 1.4844719164e+00	-1.4040262453e+00
 3.8751132602e-01	 1.4934003160e+00	-1.3478205604e+00
 3.5461202682e-01	 1.5015524325e+00	-1.2914543855e+00
 3.2174711134e-01	 1.5089360632e+00	-1.2356448283e+00
 6.5480258439e-01	 1.4127735873e+00	-1.7339836778e+00
 6.2228479964e-01	 1.4273953166e+00	-1.7015022842e+00
 5.8958321800e-01	 1.4412104230e+00	-1.6636731597e+00
 5.5672655879e-01	 1.4542185008e+00	-1.6197013779e+00
 5.2374326883e-01	 1.4664204428e+00	-1.5708364719e+00
 4.9066145333e-01	 1.4778184073e+00	-1.5182420148e+00
 4.5750881004e-01	 1.4884157822e+00	-1.4629831436e+00
 4.2431256709e-01	 1.4982171440e+00	-1.4060279197e+00
 3.9109942445e-01	 1.5072282146e+00	-1.3482496341e+00
 3.5789549951e-01	 1.5154558143e+00	-1.2904299759e+00
 3.2472627667e-01	 1.5229078126e+00	-1.2332629792e+00
 6.6081000953e-01	 1.4257349466e+00	-1.7464595077e+00
 6.2799389340e-01	 1.4404908216e+00	-1.7136152524e+00
 5.9499229416e-01	 1.4544326734e+00	-1.6735753630e+00
 5.6183419459e-01	 1.4675600926e+00	-1.6276151427e+00
 5.2854830253e-01	 1.4798739801e+00	-1.5769807090e+00
 4.9516298100e-01	 1.4913765143e+00	-1.5228163977e+00
 4.6170618189e-01	 1.5020711138e+00	-1.4661653223e+00
 4.2820538310e-01	 1.5119623972e+00	-1.4079709687e+00
 3.9468752959e-01	 1.5210561391e+00	-1.3490797507e+00
 3.6117897834e-01	 1.5293592221e+00	-1.2902444469e+00
 3.2770544756e-01	 1.5368795881e+00	-1.2321284266e+00
 2.9791382207e-01	 1.3971622246e+00	-1.3354130074e+00
 2.6753583722e-01	 1.4032958951e+00	-1.3035095839e+00
 2.3723458483e-01	 1.4087350444e+00	-1.2767170179e+00
 2.0703149792e-01	 1.4134894915e+00	-1.2538187672e+00
 1.7694728091e-01	 1.4175698189e+00	-1.2337081052e+00
 1.4700188301e-01	 1.4209873210e+00	-1.2153979163e+00
 1.1721447557e-01	 1.4237539505e+00	-1.1980282545e+00
 8.7603433220e-02	 1.4258822653e+00	-1.1808716420e+00
 5.8186318747e-02	 1.4273853760e+00	-1.1633361292e+00
 2.8979871629e-02	 1.4282768926e+00	-1.1449661765e+00
 0.0000000000e+00	 1.4285708730e+00	-1.1254414547e+00
 3.0089299296e-01	 1.4111340001e+00	-1.3092739921e+00
 2.7021122493e-01	 1.4173290079e+00	-1.2749630169e+00
 2.3960695669e-01	 1.4228225494e+00	-1.2462216497e+00
 2.0910183560e-01	 1.4276245414e+00	-1.2217069129e+00
 1.7871677312e-01	 1.4317456726e+00	-1.2001236625e+00
 1.4847191796e-01	 1.4351973501e+00	-1.1802903615e+00
 1.1838663318e-01	 1.4379916461e+00	-1.1613276906e+00
 8.8479477159e-02	 1.4401412443e+00	-1.1424649873e+00
 5.8768188315e-02	 1.4416593863e+00	-1.1230410664e+00
 2.9269673523e-02	 1.4425598181e+00	-1.1025101339e+00
 0.0000000000e+00	 1.4428567384e+00	-1.0804464216e+00
 3.0387215829e-01	 1.4251057495e+00	-1.2892628939e+00
 2.7288660765e-01	 1.4313620946e+00	-1.2527266659e+00
 2.4197932413e-01	 1.4369100280e+00	-1.2217587249e+00
 2.1117216942e-01	 1.4417595649e+00	-1.1950268975e+00
 1.8048626203e-01	 1.4459214998e+00	-1.1713613766e+00
 1.4994195017e-01	 1.4494073526e+00	-1.1496736333e+00
 1.1955878861e-01	 1.4522293152e+00	-1.1289673643e+00
 8.9355519462e-02	 1.4544001967e+00	-1.1083481214e+00
 5.9350056796e-02	 1.4559333699e+00	-1.0870316008e+00
 2.9559474876e-02	 1.4568427170e+00	-1.0643505795e+00
 0.0000000000e+00	 1.4571425772e+00	-1.0397605032e+00
 3.0685131945e-01	 1.4390774793e+00	-1.2743457543e+00
 2.7556198662e-01	 1.4453951616e+00	-1.2346909049e+00
 2.4435168824e-01	 1.4509974869e+00	-1.2010339506e+00
 2.1324250034e-01	 1.4558945687e+00	-1.1720312818e+00
 1.8225574847e-01	 1.4600973071e+00	-1.1464035503e+00
 1.5141198032e-01	 1.4636173352e+00	-1.1229491081e+00
 1.2073094239e-01	 1.4664669643e+00	-1.1005561356e+00
 9.0231560538e-02	 1.4686591292e+00	-1.0782134100e+00
 5.9931924463e-02	 1.4702073336e+00	-1.0550196814e+00
 2.9849275823e-02	 1.4711255959e+00	-1.0301916397e+00
 0.0000000000e+00	 1.4714283959e+00	-1.0030704712e+00
 3.0983047783e-01	 1.4530491961e+00	-1.2622254119e+00
 2.7823736310e-01	 1.4594282155e+00	-1.2196648132e+00
 2.4672405014e-01	 1.4650849327e+00	-1.1835559798e+00
 2.1531282933e-01	 1.4700295592e+00	-1.1524605921e+00
 1.8402523325e-01	 1.4742731012e+00	-1.1249990081e+00
 1.5288200909e-01	 1.4778273046e+00	-1.0998648991e+00
 1.2190309507e-01	 1.4807046001e+00	-1.0758385479e+00
 9.1107600796e-02	 1.4829180483e+00	-1.0517987506e+00
 6.0513791587e-02	 1.4844812839e+00	-1.0267332817e+00
 3.0139076500e-02	 1.4854084615e+00	-9.9974790012e-01
 0.0000000000e+00	 1.4857142013e+00	-9.7007388764e-01
 3.1280963482e-01	 1.4670209063e+00	-1.2525454989e+00
 2.8091273832e-01	 1.4734612629e+00	-1.2073932539e+00
 2.4909641093e-01	 1.4791723719e+00	-1.1690758283e+00
 2.1738315735e-01	 1.4841645432e+00	-1.1360699655e+00
 1.8579471720e-01	 1.4884488887e+00	-1.1069047262e+00
 1.5435203718e-01	 1.4920372673e+00	-1.0801773032e+00
 1.2307524721e-01	 1.4949422293e+00	-1.0545674778e+00
 9.1983640646e-02	 1.4971769608e+00	-1.0288506500e+00
 6.1095658438e-02	 1.4987552276e+00	-1.0019093956e+00
 3.0428877041e-02	 1.4996913204e+00	-9.7274351911e-01
 0.0000000000e+00	 1.5000000000e+00	-9.4047858746e-01
 3.1578879180e-01	 1.4809926166e+00	-1.2450515759e+00
 2.8358811355e-01	 1.4874943102e+00	-1.1976293790e+00
 2.5146877173e-01	 1.4932598111e+00	-1.1573525460e+00
 2.1945348537e-01	 1.4982995272e+00	-1.1226224024e+00
 1.8756420116e-01	 1.5026246762e+00	-1.0918854678e+00
 1.5582206527e-01	 1.5062472300e+00	-1.0636504313e+00
 1.2424739935e-01	 1.5091798585e+00	-1.0365037547e+00
 9.2859680495e-02	 1.5114358733e+00	-1.0091238276e+00
 6.1677525290e-02	 1.5130291713e+00	-9.8029361765e-01
 3.0718677582e-02	 1.5139741793e+00	-9.4891177867e-01
 0.0000000000e+00	 1.5142857987e+00	-9.1400219415e-01
 3.1876795018e-01	 1.4949643334e+00	-1.2394974507e+00
 2.8626349002e-01	 1.5015273641e+00	-1.1901342716e+00
 2.5384113363e-01	 1.5073472569e+00	-1.1481528673e+00
 2.2152381435e-01	 1.5124345177e+00	-1.1118884214e+00
 1.8933368594e-01	 1.5168004703e+00	-1.0797134377e+00
 1.5729209405e-01	 1.5204571994e+00	-1.0500558581e+00
 1.2541955203e-01	 1.5234174944e+00	-1.0214158019e+00
 9.3735720753e-02	 1.5256947924e+00	-9.9238084107e-01
 6.2259392413e-02	 1.5273031216e+00	-9.6163974708e-01
 3.1008478258e-02	 1.5282570449e+00	-9.2799466128e-01
 0.0000000000e+00	 1.5285716041e+00	-8.9037166227e-01
 3.2174711134e-01	 1.5089360632e+00	-1.2356448283e+00
 2.8893886899e-01	 1.5155604311e+00	-1.1846766064e+00
 2.5621349774e-01	 1.5214347158e+00	-1.1412508800e+00
 2.2359414527e-01	 1.5265695215e+00	-1.1036457329e+00
 1.9110317237e-01	 1.5309762776e+00	-1.0701679565e+00
 1.5876212420e-01	 1.5346671820e+00	-1.0391722922e+00
 1.2659170581e-01	 1.5376551435e+00	-1.0090792964e+00
 9.4611761829e-02	 1.5399537249e+00	-9.7839173215e-01
 6.2841260080e-02	 1.5415770853e+00	-9.4570941401e-01
 3.1298279206e-02	 1.5425399238e+00	-9.0974244991e-01
 0.0000000000e+00	 1.5428574228e+00	-8.6932284551e-01
 3.2472627667e-01	 1.5229078126e+00	-1.2332629792e+00
 2.9161425171e-01	 1.5295935178e+00	-1.1810323298e+00
 2.5858586517e-01	 1.5355221944e+00	-1.1364277132e+00
 2.2566447909e-01	 1.5407045450e+00	-1.0976789312e+00
 1.9287266128e-01	 1.5451521048e+00	-1.0630351528e+00
 1.6023215640e-01	 1.5488771845e+00	-1.0307852642e+00
 1.2776386123e-01	 1.5518928126e+00	-9.9927684900e-01
 9.5487804132e-02	 1.5542126773e+00	-9.6693369234e-01
 6.3423128561e-02	 1.5558510689e+00	-9.3227172600e-01
 3.1588080558e-02	 1.5568228227e+00	-8.9391335022e-01
 0.0000000000e+00	 1.5571432616e+00	-8.5060008845e-01
 3.2770544756e-01	 1.5368795881e+00	-1.2321284266e+00
 2.9428963942e-01	 1.5436266306e+00	-1.1789843565e+00
 2.6095823704e-01	 1.5496096993e+00	-1.1334712415e+00
 2.2773481677e-01	 1.5548395949e+00	-1.0937792026e+00
 1.9464215349e-01	 1.5593279585e+00	-1.0581076717e+00
 1.6170219135e-01	 1.5630872136e+00	-1.0246868315e+00
 1.2893601884e-01	 1.5661305082e+00	-9.9179770071e-01
 9.6363848071e-02	 1.5684716563e+00	-9.5779074678e-01
 6.4004998129e-02	 1.5701250792e+00	-9.2110293403e-01
 3.1877882452e-02	 1.5711057482e+00	-8.8027313325e-01
 0.0000000000e+00	 1.5714291270e+00	-8.3395584068e-01
 1.5714291270e+00	 0.0000000000e+00	 3.0120101236e+00
 1.5711057482e+00	 3.1877882452e-02	 3.0168977527e+00
 1.5701250792e+00	 6.4004998129e-02	 3.0013698742e+00
 1.5684716563e+00	 9.6363848071e-02	 2.9668744313e+00
 1.5661305082e+00	 1.2893601884e-01	 2.9149140944e+00
 1.5630872136e+00	 1.6170219135e-01	 2.8470367052e+00
 1.5593279585e+00	 1.9464215349e-01	 2.7648248174e+00
 1.5548395949e+00	 2.2773481677e-01	 2.6698843636e+00
 1.5496096993e+00	 2.6095823704e-01	 2.5638324836e+00
 1.5436266306e+00	 2.9428963942e-01	 2.4482845658e+00
 1.5368795881e+00	 3.2770544756e-01	 2.3248405602e+00
 1.5857150240e+00	 0.0000000000e+00	 3.0039498105e+00
 1.5853887055e+00	 3.2167684989e-02	 3.0084683402e+00
 1.5843991212e+00	 6.4586868987e-02	 2.9923513336e+00
 1.5827306669e+00	 9.7239893951e-02	 2.9570786706e+00
 1.5803682354e+00	 1.3010817905e-01	 2.9041820411e+00
 1.5772972741e+00	 1.6317222956e-01	 2.8352349494e+00
 1.5735038435e+00	 1.9641164963e-01	 2.7518418131e+00
 1.5689746762e+00	 2.2980515904e-01	 2.6556261874e+00
 1.5636972355e+00	 2.6333061416e-01	 2.5482181580e+00
 1.5576597746e+00	 2.9696503306e-01	 2.4312409528e+00
 1.5508513945e+00	 3.3068462505e-01	 2.3062968393e+00
 1.6000009511e+00	 0.0000000000e+00	 2.9968311563e+00
 1.5996716927e+00	 3.2457488135e-02	 3.0006886568e+00
 1.5986731931e+00	 6.5168741068e-02	 2.9837531305e+00
 1.5969897075e+00	 9.8115941672e-02	 2.9475307240e+00
 1.5946059925e+00	 1.3128034172e-01	 2.8935760075e+00
 1.5915073645e+00	 1.6464227086e-01	 2.8234815624e+00
 1.5876797584e+00	 1.9818114948e-01	 2.7388666656e+00
 1.5831097871e+00	 2.3187550566e-01	 2.6413651059e+00
 1.5777848012e+00	 2.6570299626e-01	 2.5326121766e+00
 1.5716929480e+00	 2.9964043232e-01	 2.4142309022e+00
 1.5648232303e+00	 3.3366380880e-01	 2.2878175669e+00
 1.6142869048e+00	 0.0000000000e+00	 2.9905347755e+00
 1.6139547065e+00	 3.2747291821e-02	 2.9934443831e+00
 1.6129472916e+00	 6.5750614234e-02	 2.9754648343e+00
 1.6112487747e+00	 9.8991991028e-02	 2.9381230539e+00
 1.6088437762e+00	 1.3245250658e-01	 2.8829905420e+00
 1.6057174814e+00	 1.6611231490e-01	 2.8116725666e+00
 1.6018556997e+00	 1.9995065263e-01	 2.7257964613e+00
 1.5972449245e+00	 2.3394585614e-01	 2.6269990653e+00
 1.5918723933e+00	 2.6807538279e-01	 2.5169133541e+00
 1.5857261476e+00	 3.0231583657e-01	 2.3971543221e+00
 1.5787950921e+00	 3.3664299811e-01	 2.2693041886e+00
 1.6285728819e+00	 0.0000000000e+00	 2.9849460477e+00
 1.6282377438e+00	 3.3037095981e-02	 2.9866257911e+00
 1.6272214135e+00	 6.6332488351e-02	 2.9673804741e+00
 1.6255078652e+00	 9.9868041815e-02	 2.9287524873e+00
 1.6230815831e+00	 1.3362467335e-01	 2.8723244918e+00
 1.6199276215e+00	 1.6758236134e-01	 2.7997082404e+00
 1.6160316641e+00	 2.0172015868e-01	 2.7125325148e+00
 1.6113800849e+00	 2.3601621001e-01	 2.6124302213e+00
 1.6059600083e+00	 2.7044777320e-01	 2.5010246962e+00
 1.5997593701e+00	 3.0499124519e-01	 2.3799152858e+00
 1.5927669768e+00	 3.3962219229e-01	 2.2506622757e+00
 1.6428588790e+00	 0.0000000000e+00	 2.9799549109e+00
 1.6425208010e+00	 3.3326900547e-02	 2.9801275430e+00
 1.6414955554e+00	 6.6914363283e-02	 2.9593983423e+00
 1.6397669756e+00	 1.0074409383e-01	 2.9193200217e+00
 1.6373194100e+00	 1.3479684176e-01	 2.8614808106e+00
 1.6341377815e+00	 1.6905240984e-01	 2.7874929262e+00
 1.6302076485e+00	 2.0348966720e-01	 2.6989801773e+00
 1.6255152651e+00	 2.3808656677e-01	 2.5975647466e+00
 1.6200476431e+00	 2.7282016693e-01	 2.4848532071e+00
 1.6137926123e+00	 3.0766665756e-01	 2.3624218399e+00
 1.6067388811e+00	 3.4260139064e-01	 2.2318013330e+00
 1.6571448927e+00	 0.0000000000e+00	 2.9754556650e+00
 1.6568038748e+00	 3.3616705451e-02	 2.9738485004e+00
 1.6557697139e+00	 6.7496238894e-02	 2.9514208075e+00
 1.6540261027e+00	 1.0162014686e-01	 2.9097306412e+00
 1.6515572535e+00	 1.3596901154e-01	 2.8503663761e+00
 1.6483479581e+00	 1.7052246005e-01	 2.7749348488e+00
 1.6443836493e+00	 2.0525917779e-01	 2.6850486550e+00
 1.6396504618e+00	 2.4015692595e-01	 2.5823126491e+00
 1.6341352943e+00	 2.7519256343e-01	 2.4683097069e+00
 1.6278258709e+00	 3.1034207305e-01	 2.3445858220e+00
 1.6207108016e+00	 3.4558059246e-01	 2.2126346178e+00
 1.6714309198e+00	 0.0000000000e+00	 2.9713467850e+00
 1.6710869620e+00	 3.3906510625e-02	 2.9676915438e+00
 1.6700438857e+00	 6.8078115048e-02	 2.9433541379e+00
 1.6682852431e+00	 1.0249620072e-01	 2.8998931421e+00
 1.6657951103e+00	 1.3714118242e-01	 2.8388918167e+00
 1.6625581480e+00	 1.7199251164e-01	 2.7619459425e+00
 1.6585596634e+00	 2.0702869002e-01	 2.6706508364e+00
 1.6537856717e+00	 2.4222728706e-01	 2.5665875990e+00
 1.6482229587e+00	 2.7756496214e-01	 2.4513086591e+00
 1.6418591425e+00	 3.1301749104e-01	 2.3263226873e+00
 1.6346827352e+00	 3.4855979707e-01	 2.1930789667e+00
 1.6857169568e+00	 0.0000000000e+00	 2.9675307445e+00
 1.6853700592e+00	 3.4196316002e-02	 2.9615634006e+00
 1.6843180675e+00	 6.8659991608e-02	 2.9351083332e+00
 1.6825443935e+00	 1.0337225518e-01	 2.8897199672e+00
 1.6800329770e+00	 1.3831335411e-01	 2.8269713476e+00
 1.6767683478e+00	 1.7346256425e-01	 2.7484416877e+00
 1.6727356874e+00	 2.0879820350e-01	 2.6557031284e+00
 1.6679208915e+00	 2.4429764962e-01	 2.5503067649e+00
 1.6623106329e+00	 2.7993736251e-01	 2.4337680057e+00
 1.6558924240e+00	 3.1569291090e-01	 2.3075513449e+00
 1.6486546786e+00	 3.5153900375e-01	 2.1730546331e+00
 1.7000030006e+00	 0.0000000000e+00	 2.9639138477e+00
 1.6996531631e+00	 3.4486121514e-02	 2.9553744820e+00
 1.6985922560e+00	 6.9241868441e-02	 2.9265969646e+00
 1.6968035505e+00	 1.0424831006e-01	 2.8791270484e+00
 1.6942708504e+00	 1.3948552636e-01	 2.8145226146e+00
 1.6909785542e+00	 1.7493261755e-01	 2.7343409552e+00
 1.6869117180e+00	 2.1056771780e-01	 2.6401253015e+00
 1.6820561178e+00	 2.4636801315e-01	 2.5333906580e+00
 1.6763983137e+00	 2.8230976399e-01	 2.4156090122e+00
 1.6699257120e+00	 3.1836833200e-01	 2.2881940018e+00
 1.6626266284e+00	 3.5451821183e-01	 2.1524851313e+00
 1.7142890476e+00	 0.0000000000e+00	 2.9604060694e+00
 1.7139362703e+00	 3.4775927094e-02	 2.9490387282e+00
 1.7128664478e+00	 6.9823745408e-02	 2.9177370239e+00
 1.7110627108e+00	 1.0512436514e-01	 2.8680336575e+00
 1.7085087271e+00	 1.4065769887e-01	 2.8014665457e+00
 1.7051887640e+00	 1.7640267120e-01	 2.7195658587e+00
 1.7010877519e+00	 2.1233723252e-01	 2.6238403414e+00
 1.6961913475e+00	 2.4843837716e-01	 2.5157629847e+00
 1.6904859978e+00	 2.8468216602e-01	 2.3967561188e+00
 1.6839590033e+00	 3.2104375374e-01	 2.2681760153e+00
 1.6765985816e+00	 3.5749742061e-01	 2.1312970896e+00
 1.5368795881e+00	 3.2770544756e-01	 2.3248405602e+00
 1.5293592221e+00	 3.6117897834e-01	 2.1927853336e+00
 1.5210561391e+00	 3.9468752959e-01	 2.0510990506e+00
 1.5119623972e+00	 4.2820538310e-01	 1.9009294615e+00
 1.5020711138e+00	 4.6170618189e-01	 1.7434172221e+00
 1.4913765143e+00	 4.9516298100e-01	 1.5796896500e+00
 1.4798739801e+00	 5.2854830253e-01	 1.4108543373e+00
 1.4675600926e+00	 5.6183419459e-01	 1.2379926684e+00
 1.4544326734e+00	 5.9499229416e-01	 1.0621532958e+00
 1.4404908216e+00	 6.2799389340e-01	 8.8434563635e-01
 1.4257349466e+00	 6.6081000953e-01	 7.0554447004e-01
 1.5508513945e+00	 3.3068462505e-01	 2.3062968393e+00
 1.5432626608e+00	 3.6446246445e-01	 2.1728093696e+00
 1.5348840942e+00	 3.9827564268e-01	 2.0298930099e+00
 1.5257076809e+00	 4.3209820774e-01	 1.8786860930e+00
 1.5157264756e+00	 4.6590356303e-01	 1.7203183998e+00
 1.5049346513e+00	 4.9966451864e-01	 1.5559049274e+00
 1.4933275473e+00	 5.3335334687e-01	 1.3865395213e+00
 1.4809017140e+00	 5.6694184173e-01	 1.2132884153e+00
 1.4676549531e+00	 6.0040138231e-01	 1.0371837367e+00
 1.4535863556e+00	 6.3370299983e-01	 8.5921703464e-01
 1.4386963347e+00	 6.6681744799e-01	 6.8033289830e-01
 1.5648232303e+00	 3.3366380880e-01	 2.2878175669e+00
 1.5571661286e+00	 3.6774595745e-01	 2.1529385100e+00
 1.5487120783e+00	 4.0186376330e-01	 2.0088496964e+00
 1.5394529935e+00	 4.3599104055e-01	 1.8566761273e+00
 1.5293818661e+00	 4.7010095299e-01	 1.6975327010e+00
 1.5184928167e+00	 5.0416606574e-01	 1.5325180225e+00
 1.5067811428e+00	 5.3815840131e-01	 1.3627080826e+00
 1.4942433634e+00	 5.7204949958e-01	 1.1891498528e+00
 1.4808772605e+00	 6.0581048182e-01	 1.0128548497e+00
 1.4666819171e+00	 6.3941211824e-01	 8.3479272893e-01
 1.4516577499e+00	 6.7282489907e-01	 6.5588497362e-01
 1.5787950921e+00	 3.3664299811e-01	 2.2693041886e+00
 1.5710696223e+00	 3.7102945658e-01	 2.1330760095e+00
 1.5625400883e+00	 4.0545189062e-01	 1.9878741875e+00
 1.5531983317e+00	 4.3988388063e-01	 1.8348065752e+00
 1.5430372821e+00	 4.7429835078e-01	 1.6749692800e+00
 1.5320510075e+00	 5.0866762125e-01	 1.5094405427e+00
 1.5202347633e+00	 5.4296346472e-01	 1.3392744932e+00
 1.5075850376e+00	 5.7715716698e-01	 1.1654948301e+00
 1.4940995927e+00	 6.1121959142e-01	 9.8908847635e-01
 1.4797775031e+00	 6.4512124731e-01	 8.1099926988e-01
 1.4646191894e+00	 6.7883236136e-01	 6.3212175516e-01
 1.5927669768e+00	 3.3962219229e-01	 2.2506622757e+00
 1.5849731388e+00	 3.7431296107e-01	 2.1131291996e+00
 1.5763681208e+00	 4.0904002380e-01	 1.9668755887e+00
 1.5669436924e+00	 4.4377672707e-01	 1.8129884236e+00
 1.5566927204e+00	 4.7849575543e-01	 1.6525412082e+00
 1.5456092204e+00	 5.1316918410e-01	 1.4865879436e+00
 1.5336884059e+00	 5.4776853597e-01	 1.3161569902e+00
 1.5209267337e+00	 5.8226484271e-01	 1.1422448618e+00
 1.5073219465e+00	 6.1662870987e-01	 9.6581000256e-01
 1.4928731105e+00	 6.5083038570e-01	 7.8776660716e-01
 1.4775806500e+00	 6.8483983347e-01	 6.0897854619e-01
 1.6067388811e+00	 3.4260139064e-01	 2.2318013330e+00
 1.5988766748e+00	 3.7759647016e-01	 2.0930092976e+00
 1.5901961727e+00	 4.1262816201e-01	 1.9457668437e+00
 1.5806890723e+00	 4.4766957896e-01	 1.7911364475e+00
 1.5703481778e+00	 4.8269316596e-01	 1.6301652879e+00
 1.5591674523e+00	 5.1767075326e-01	 1.4638793448e+00
 1.5471420673e+00	 5.5257361396e-01	 1.2932773948e+00
 1.5342684485e+00	 5.8737252559e-01	 1.1193249492e+00
 1.5205443187e+00	 6.2203783588e-01	 9.4294818430e-01
 1.5059687362e+00	 6.5653953209e-01	 7.6502792034e-01
 1.4905421288e+00	 6.9084731398e-01	 5.8639371321e-01
 1.6207108016e+00	 3.4558059246e-01	 2.2126346178e+00
 1.6127802270e+00	 3.8087998308e-01	 2.0726312263e+00
 1.6040242408e+00	 4.1621630440e-01	 1.9244645556e+00
 1.5944344683e+00	 4.5156243539e-01	 1.7691690312e+00
 1.5840036511e+00	 4.8689058138e-01	 1.6077618755e+00
 1.5727257000e+00	 5.2217232767e-01	 1.4412373549e+00
 1.5605957443e+00	 5.5737869754e-01	 1.2705609390e+00
 1.5476101788e+00	 5.9248021444e-01	 1.0966634113e+00
 1.5337667064e+00	 6.2744696821e-01	 9.2043498224e-01
 1.5190643771e+00	 6.6224868513e-01	 7.4271945865e-01
 1.5035036227e+00	 6.9685480151e-01	 5.6430853195e-01
 1.6346827352e+00	 3.4855979707e-01	 2.1930789667e+00
 1.6266837921e+00	 3.8416349906e-01	 2.0519134426e+00
 1.6178523217e+00	 4.1980445014e-01	 1.9028888157e+00
 1.6081798771e+00	 4.5545529545e-01	 1.7470079997e+00
 1.5976591372e+00	 4.9108800072e-01	 1.5852547133e+00
 1.5862839604e+00	 5.2667390629e-01	 1.4185879054e+00
 1.5740494339e+00	 5.6218378562e-01	 1.2479361026e+00
 1.5609519216e+00	 5.9758790805e-01	 1.0741917240e+00
 1.5469891064e+00	 6.3285610558e-01	 8.9820540513e-01
 1.5321600303e+00	 6.6795784351e-01	 7.2078038906e-01
 1.5164651287e+00	 7.0286229464e-01	 5.4266704124e-01
 1.6486546786e+00	 3.5153900375e-01	 2.1730546331e+00
 1.6405873670e+00	 3.8744701734e-01	 2.0307777752e+00
 1.6316804124e+00	 4.2339259839e-01	 1.8809630430e+00
 1.6219252955e+00	 4.5934815824e-01	 1.7245784577e+00
 1.6113146329e+00	 4.9528542300e-01	 1.5625707714e+00
 1.5998422302e+00	 5.3117548805e-01	 1.3958600936e+00
 1.5875031330e+00	 5.6698887705e-01	 1.2253344583e+00
 1.5742936737e+00	 6.0269560524e-01	 1.0518443681e+00
 1.5602115157e+00	 6.3826524674e-01	 8.7619736126e-01
 1.5452556927e+00	 6.7366700588e-01	 6.9915265230e-01
 1.5294266437e+00	 7.0886979197e-01	 5.2141590457e-01
 1.6626266284e+00	 3.5451821183e-01	 2.1524851313e+00
 1.6544909483e+00	 3.9073053716e-01	 2.0091492702e+00
 1.6455085094e+00	 4.2698074831e-01	 1.8586138302e+00
 1.6356707203e+00	 4.6324102284e-01	 1.7018086383e+00
 1.6249701349e+00	 4.9948284723e-01	 1.5396400957e+00
 1.6134005064e+00	 5.3567707191e-01	 1.3729860334e+00
 1.6009568383e+00	 5.7179397073e-01	 1.2026905239e+00
 1.5876354321e+00	 6.0780330480e-01	 1.0295586850e+00
 1.5734339312e+00	 6.4367439042e-01	 8.5435151760e-01
 1.5583513612e+00	 6.7937617092e-01	 6.7778082624e-01
 1.5423881648e+00	 7.1487729211e-01	 5.0050427868e-01
 1.6765985816e+00	 3.5749742061e-01	 2.1312970896e+00
 1.6683945330e+00	 3.9401405774e-01	 1.9869560446e+00
 1.6593366097e+00	 4.3056889908e-01	 1.8357707985e+00
 1.6494161483e+00	 4.6713388836e-01	 1.6786297577e+00
 1.6386256401e+00	 5.0368027245e-01	 1.5163956657e+00
 1.6269587858e+00	 5.4017865683e-01	 1.3499007136e+00
 1.6144105468e+00	 5.7659906553e-01	 1.1799416234e+00
 1.6009771935e+00	 6.1291100557e-01	 1.0072747395e+00
 1.5866563497e+00	 6.4908353537e-01	 8.3261116601e-01
 1.5714470327e+00	 6.8508533728e-01	 6.5661199624e-01
 1.5553496890e+00	 7.2088479365e-01	 4.7988368899e-01
 1.4257349466e+00	 6.6081000953e-01	 7.0554447004e-01
 1.4101656798e+00	 6.9341373009e-01	 5.2571934286e-01
 1.3937871438e+00	 7.2577342574e-01	 3.4510734512e-01
 1.3766038399e+00	 7.5785972096e-01	 1.6525067252e-01
 1.3586216634e+00	 7.8964327147e-01	-1.2378814546e-02
 1.3398479124e+00	 8.2109484578e-01	-1.8639026993e-01
 1.3202912890e+00	 8.5218540804e-01	-3.5548367683e-01
 1.2999618964e+00	 8.8288620142e-01	-5.1845855434e-01
 1.2788712286e+00	 9.1316883184e-01	-6.7422132794e-01
 1.2570321553e+00	 9.4300535142e-01	-8.2179116290e-01
 1.2344589001e+00	 9.7236834113e-01	-9.6030409442e-01
 1.4386963347e+00	 6.6681744799e-01	 6.8033289830e-01
 1.4229855273e+00	 6.9971756970e-01	 5.0013153428e-01
 1.4064580937e+00	 7.3237144806e-01	 3.1911924823e-01
 1.3891185759e+00	 7.6474944050e-01	 1.3896922221e-01
 1.3709729231e+00	 7.9682193597e-01	-3.8853845875e-02
 1.3520284995e+00	 8.2855943725e-01	-2.1296798825e-01
 1.3322940864e+00	 8.5993264450e-01	-3.8208402390e-01
 1.3117798788e+00	 8.9091253947e-01	-5.4501446618e-01
 1.2904974753e+00	 9.2147046996e-01	-7.0068104076e-01
 1.2684598625e+00	 9.5157823400e-01	-8.4812060092e-01
 1.2456813934e+00	 9.8120816329e-01	-9.8648926418e-01
 1.4516577499e+00	 6.7282489907e-01	 6.5588497362e-01
 1.4358054017e+00	 7.0602142254e-01	 4.7568233719e-01
 1.4191290702e+00	 7.3896948423e-01	 2.9431881965e-01
 1.4016333383e+00	 7.7163917451e-01	 1.1384182091e-01
 1.3833242087e+00	 8.0400061555e-01	-6.4219870282e-02
 1.3642091122e+00	 8.3602404439e-01	-2.3848888410e-01
 1.3442969091e+00	 8.6767989722e-01	-4.0768245545e-01
 1.3235978861e+00	 8.9893889437e-01	-5.7062158216e-01
 1.3021237464e+00	 9.2977212550e-01	-7.2623873950e-01
 1.2798875937e+00	 9.6015113458e-01	-8.7358392533e-01
 1.2569039102e+00	 9.9004800402e-01	-1.0118288487e+00
 1.4646191894e+00	 6.7883236136e-01	 6.3212175516e-01
 1.4486253000e+00	 7.1232528716e-01	 4.5199487911e-01
 1.4318000703e+00	 7.4556753273e-01	 2.7064359232e-01
 1.4141481240e+00	 7.7852892139e-01	 8.9827008474e-02
 1.3956755174e+00	 8.1117930853e-01	-8.8509703143e-02
 1.3763897476e+00	 8.4348866546e-01	-2.6297675730e-01
 1.3562997541e+00	 8.7542716441e-01	-4.3229345016e-01
 1.3354159154e+00	 9.0696526426e-01	-5.9528482564e-01
 1.3137500393e+00	 9.3807379655e-01	-7.5088963644e-01
 1.2913153462e+00	 9.6872405116e-01	-8.9816656737e-01
 1.2681264479e+00	 9.9888786125e-01	-1.0362985217e+00
 1.4775806500e+00	 6.8483983347e-01	 6.0897854619e-01
 1.4614452193e+00	 7.1862916207e-01	 4.2896996732e-01
 1.4444710911e+00	 7.5216559200e-01	 2.4776987685e-01
 1.4266629301e+00	 7.8541867951e-01	 6.6887539729e-02
 1.4080268463e+00	 8.1835801324e-01	-1.1175227431e-01
 1.3885704029e+00	 8.5095329873e-01	-2.8645186591e-01
 1.3683026187e+00	 8.8317444425e-01	-4.5592829744e-01
 1.3472339641e+00	 9.1499164726e-01	-6.1900628650e-01
 1.3253763511e+00	 9.4637548115e-01	-7.7462646406e-01
 1.3027431175e+00	 9.7729698174e-01	-9.2185182485e-01
 1.2793490040e+00	 1.0077277329e+00	-1.0598721578e+00
 1.4905421288e+00	 6.9084731398e-01	 5.8639371321e-01
 1.4742651565e+00	 7.2493304581e-01	 4.0655197624e-01
 1.4571421297e+00	 7.5876366050e-01	 2.2553719033e-01
 1.4391777538e+00	 7.9230844728e-01	 4.4853707307e-02
 1.4203781924e+00	 8.2553672799e-01	-1.3397282689e-01
 1.4007510753e+00	 8.5841794245e-01	-3.0893111672e-01
 1.3803055001e+00	 8.9092173493e-01	-4.7859527879e-01
 1.3590520292e+00	 9.2301804149e-01	-6.4178539260e-01
 1.3370026792e+00	 9.5467717738e-01	-7.9743963589e-01
 1.3141709047e+00	 9.8586992433e-01	-9.4462101179e-01
 1.2905715759e+00	 1.0165676170e+00	-1.0825219701e+00
 1.5035036227e+00	 6.9685480151e-01	 5.6430853195e-01
 1.4870851087e+00	 7.3123693690e-01	 3.8468800184e-01
 1.4698131830e+00	 7.6536173671e-01	 2.0389918731e-01
 1.4516925920e+00	 7.9919822309e-01	 2.3449155767e-02
 1.4327295530e+00	 8.3271545112e-01	-1.5521327460e-01
 1.4129317619e+00	 8.6588259487e-01	-3.3042824978e-01
 1.3923083956e+00	 8.9866903466e-01	-5.0029984384e-01
 1.3708701082e+00	 9.3104444509e-01	-6.6361907642e-01
 1.3486290209e+00	 9.6297888329e-01	-8.1931740323e-01
 1.3255987052e+00	 9.9444287691e-01	-9.6645360479e-01
 1.3017941608e+00	 1.0254075113e+00	-1.1042186458e+00
 1.5164651287e+00	 7.0286229464e-01	 5.4266704124e-01
 1.4999050729e+00	 7.3754083387e-01	 3.6332772253e-01
 1.4824842482e+00	 7.7195981907e-01	 1.8281190024e-01
 1.4642074420e+00	 8.0608800533e-01	 2.6323611361e-03
 1.4450809251e+00	 8.3989418096e-01	-1.7575647358e-01
 1.4251124598e+00	 8.7334725427e-01	-3.5095401727e-01
 1.4043113022e+00	 9.0641634162e-01	-5.2104478127e-01
 1.3826881982e+00	 9.3907085618e-01	-6.8450193745e-01
 1.3602553734e+00	 9.7128059695e-01	-8.4024600821e-01
 1.3370265164e+00	 1.0030158375e+00	-9.8732738622e-01
 1.3130167561e+00	 1.0342474139e+00	-1.1249314795e+00
 1.5294266437e+00	 7.0886979197e-01	 5.2141590457e-01
 1.5127250460e+00	 7.4384473526e-01	 3.4242326734e-01
 1.4951553222e+00	 7.7855790605e-01	 1.6223361526e-01
 1.4767223007e+00	 8.1297779239e-01	-1.7631613931e-02
 1.4574323058e+00	 8.4707291581e-01	-1.9570927013e-01
 1.4372931663e+00	 8.8081191888e-01	-3.7060418329e-01
 1.4163142172e+00	 9.1416365400e-01	-5.4083038504e-01
 1.3945062965e+00	 9.4709727289e-01	-7.0442640026e-01
 1.3718817340e+00	 9.7958231642e-01	-8.6020983322e-01
 1.3484543356e+00	 1.0115888041e+00	-1.0072185844e+00
 1.3242393594e+00	 1.0430873227e+00	-1.1446285036e+00
 1.5423881648e+00	 7.1487729211e-01	 5.0050427868e-01
 1.5255450251e+00	 7.5014863959e-01	 3.2192909083e-01
 1.5078264021e+00	 7.8515599611e-01	 1.4212475432e-01
 1.4892371652e+00	 8.1986758267e-01	-3.7375779849e-02
 1.4697836923e+00	 8.5425165402e-01	-2.1509757920e-01
 1.4494738784e+00	 8.8827658699e-01	-3.8963369207e-01
 1.4283171379e+00	 9.2191096999e-01	-5.5965461612e-01
 1.4063244002e+00	 9.5512369334e-01	-7.2338286875e-01
 1.3835081001e+00	 9.8788403976e-01	-8.7919154702e-01
 1.3598821602e+00	 1.0201617747e+00	-1.0261020113e+00
 1.3354619678e+00	 1.0519272357e+00	-1.1632766169e+00
 1.5553496890e+00	 7.2088479365e-01	 4.7988368899e-01
 1.5383650072e+00	 7.5645254539e-01	 3.0180185439e-01
 1.5204974850e+00	 7.9175408771e-01	 1.2244776343e-01
 1.5017520327e+00	 8.2675737455e-01	-5.6631324238e-02
 1.4821350817e+00	 8.6143039390e-01	-2.3394570988e-01
 1.4616545934e+00	 8.9574125683e-01	-4.0807351493e-01
 1.4403200613e+00	 9.2965828779e-01	-5.7767055210e-01
 1.4181425068e+00	 9.6315011567e-01	-7.4135987671e-01
 1.3951344689e+00	 9.9618576505e-01	-8.9717224767e-01
 1.3713099874e+00	 1.0287347473e+00	-1.0439511971e+00
 1.3466845789e+00	 1.0607671506e+00	-1.1808417107e+00
 1.2344589001e+00	 9.7236834113e-01	-9.6030409442e-01
 1.2111670099e+00	 1.0012309949e+00	-1.0901210074e+00
 1.1871733109e+00	 1.0295672077e+00	-1.2115799834e+00
 1.1624958802e+00	 1.0573516444e+00	-1.3239318716e+00
 1.1371540047e+00	 1.0845598120e+00	-1.4265064420e+00
 1.1111681313e+00	 1.1111681313e+00	-1.5187101589e+00
 1.0845598120e+00	 1.1371540047e+00	-1.6000226047e+00
 1.0573516444e+00	 1.1624958802e+00	-1.6699917333e+00
 1.0295672077e+00	 1.1871733109e+00	-1.7282281747e+00
 1.0012309949e+00	 1.2111670099e+00	-1.7743988516e+00
 9.7236834113e-01	 1.2344589001e+00	-1.8082201975e+00
 1.2456813934e+00	 9.8120816329e-01	-9.8648926418e-01
 1.2221777561e+00	 1.0103332081e+00	-1.1160955428e+00
 1.1979659298e+00	 1.0389270260e+00	-1.2372171396e+00
 1.1730641561e+00	 1.0669640516e+00	-1.3491147410e+00
 1.1474918970e+00	 1.0944195693e+00	-1.4511278022e+00
 1.1212697855e+00	 1.1212697855e+00	-1.5426720639e+00
 1.0944195693e+00	 1.1474918970e+00	-1.6232356587e+00
 1.0669640516e+00	 1.1730641561e+00	-1.6923739931e+00
 1.0389270260e+00	 1.1979659298e+00	-1.7497036408e+00
 1.0103332081e+00	 1.2221777561e+00	-1.7948955219e+00
 9.8120816329e-01	 1.2456813934e+00	-1.8276676732e+00
 1.2569039102e+00	 9.9004800402e-01	-1.0118288487e+00
 1.2331885253e+00	 1.0194354404e+00	-1.1412237242e+00
 1.2087585714e+00	 1.0482868640e+00	-1.2619874818e+00
 1.1836324541e+00	 1.0765764791e+00	-1.3733980177e+00
 1.1578298110e+00	 1.1042793473e+00	-1.4748124637e+00
 1.1313714608e+00	 1.1313714608e+00	-1.5656643776e+00
 1.1042793473e+00	 1.1578298110e+00	-1.6454594506e+00
 1.0765764791e+00	 1.1836324541e+00	-1.7137699317e+00
 1.0482868640e+00	 1.2087585714e+00	-1.7702280153e+00
 1.0194354404e+00	 1.2331885253e+00	-1.8145184824e+00
 9.9004800402e-01	 1.2569039102e+00	-1.8463709206e+00
 1.2681264479e+00	 9.9888786125e-01	-1.0362985217e+00
 1.2441993152e+00	 1.0285376897e+00	-1.1654726485e+00
 1.2195512331e+00	 1.0576467195e+00	-1.2858516826e+00
 1.1942007719e+00	 1.0861889245e+00	-1.3967379239e+00
 1.1681677443e+00	 1.1141391438e+00	-1.4975139926e+00
 1.1414731550e+00	 1.1414731550e+00	-1.5876396220e+00
 1.1141391438e+00	 1.1681677443e+00	-1.6666468900e+00
 1.0861889245e+00	 1.1942007719e+00	-1.7341340964e+00
 1.0576467195e+00	 1.2195512331e+00	-1.7897585513e+00
 1.0285376897e+00	 1.2441993152e+00	-1.8332285791e+00
 9.9888786125e-01	 1.2681264479e+00	-1.8642950835e+00
 1.2793490040e+00	 1.0077277329e+00	-1.0598721578e+00
 1.2552101230e+00	 1.0376399539e+00	-1.1888078930e+00
 1.2303439125e+00	 1.0670065902e+00	-1.3087690861e+00
 1.2047691069e+00	 1.0958013856e+00	-1.4190894618e+00
 1.1785056945e+00	 1.1239989563e+00	-1.5191847667e+00
 1.1515748657e+00	 1.1515748657e+00	-1.6085490956e+00
 1.1239989563e+00	 1.1785056945e+00	-1.6867495667e+00
 1.0958013856e+00	 1.2047691069e+00	-1.7534195665e+00
 1.0670065902e+00	 1.2303439125e+00	-1.8082508433e+00
 1.0376399539e+00	 1.2552101230e+00	-1.8509847753e+00
 1.0077277329e+00	 1.2793490040e+00	-1.8814031756e+00
 1.2905715759e+00	 1.0165676170e+00	-1.0825219701e+00
 1.2662209462e+00	 1.0467422308e+00	-1.2111936436e+00
 1.2411366069e+00	 1.0763664741e+00	-1.3306978284e+00
 1.2153374567e+00	 1.1054138601e+00	-1.4404065288e+00
 1.1888436592e+00	 1.1338587826e+00	-1.5397760895e+00
 1.1616765906e+00	 1.1616765906e+00	-1.6283429858e+00
 1.1338587826e+00	 1.1888436592e+00	-1.7057178646e+00
 1.1054138601e+00	 1.2153374567e+00	-1.7715780698e+00
 1.0763664741e+00	 1.2411366069e+00	-1.8256589473e+00
 1.0467422308e+00	 1.2662209462e+00	-1.8677442758e+00
 1.0165676170e+00	 1.2905715759e+00	-1.8976562090e+00
 1.3017941608e+00	 1.0254075113e+00	-1.1042186458e+00
 1.2772317823e+00	 1.0558445183e+00	-1.2325928201e+00
 1.2519293140e+00	 1.0857263688e+00	-1.3515949565e+00
 1.2259058189e+00	 1.1150263459e+00	-1.4606420327e+00
 1.1991816359e+00	 1.1437186205e+00	-1.5592383022e+00
 1.1717783272e+00	 1.1717783272e+00	-1.6469704806e+00
 1.1437186205e+00	 1.1991816359e+00	-1.7235010739e+00
 1.1150263459e+00	 1.2259058189e+00	-1.7885600974e+00
 1.0857263688e+00	 1.2519293140e+00	-1.8419354981e+00
 1.0558445183e+00	 1.2772317823e+00	-1.8834626481e+00
 1.0254075113e+00	 1.3017941608e+00	-1.9130133195e+00
 1.3130167561e+00	 1.0342474139e+00	-1.1249314795e+00
 1.2882426287e+00	 1.0649468144e+00	-1.2529672012e+00
 1.2627220311e+00	 1.0950862724e+00	-1.3714165464e+00
 1.2364741909e+00	 1.1246388406e+00	-1.4797480046e+00
 1.2095196222e+00	 1.1535784675e+00	-1.5775208948e+00
 1.1818800733e+00	 1.1818800733e+00	-1.6643798795e+00
 1.1535784675e+00	 1.2095196222e+00	-1.7400475030e+00
 1.1246388406e+00	 1.2364741909e+00	-1.8043150170e+00
 1.0950862724e+00	 1.2627220311e+00	-1.8570318259e+00
 1.0649468144e+00	 1.2882426287e+00	-1.8980939427e+00
 1.0342474139e+00	 1.3130167561e+00	-1.9274318904e+00
 1.3242393594e+00	 1.0430873227e+00	-1.1446285036e+00
 1.2992534828e+00	 1.0740491168e+00	-1.2722775456e+00
 1.2735147558e+00	 1.1044461824e+00	-1.3901178184e+00
 1.2470425703e+00	 1.1342513421e+00	-1.4976757112e+00
 1.2198576158e+00	 1.1634383214e+00	-1.5945726160e+00
 1.1919818264e+00	 1.1919818264e+00	-1.6805187025e+00
 1.1634383214e+00	 1.2198576158e+00	-1.7553045883e+00
 1.1342513421e+00	 1.2470425703e+00	-1.8187911848e+00
 1.1044461824e+00	 1.2735147558e+00	-1.8708980708e+00
 1.0740491168e+00	 1.2992534828e+00	-1.9115908099e+00
 1.0430873227e+00	 1.3242393594e+00	-1.9408676733e+00
 1.3354619678e+00	 1.0519272357e+00	-1.1632766169e+00
 1.3102643420e+00	 1.0831514234e+00	-1.2904837134e+00
 1.2843074855e+00	 1.1138060968e+00	-1.4076532525e+00
 1.2576109546e+00	 1.1438638480e+00	-1.5143757654e+00
 1.2301956143e+00	 1.1732981800e+00	-1.6103415819e+00
 1.2020835843e+00	 1.2020835843e+00	-1.6953337984e+00
 1.1732981800e+00	 1.2301956143e+00	-1.7692190033e+00
 1.1438638480e+00	 1.2576109546e+00	-1.8319360564e+00
 1.1138060968e+00	 1.2843074855e+00	-1.8834832960e+00
 1.0831514234e+00	 1.3102643420e+00	-1.9239046168e+00
 1.0519272357e+00	 1.3354619678e+00	-1.9532749071e+00
 1.3466845789e+00	 1.0607671506e+00	-1.1808417107e+00
 1.3212752037e+00	 1.0922537322e+00	-1.3075447844e+00
 1.2951002177e+00	 1.1231660134e+00	-1.4239767015e+00
 1.2681793414e+00	 1.1534763562e+00	-1.5297982366e+00
 1.2405336151e+00	 1.1831580408e+00	-1.6247753842e+00
 1.2121853445e+00	 1.2121853445e+00	-1.7087714523e+00
 1.1831580408e+00	 1.2405336151e+00	-1.7817367667e+00
 1.1534763562e+00	 1.2681793414e+00	-1.8436962961e+00
 1.1231660134e+00	 1.2951002177e+00	-1.8947355996e+00
 1.0922537322e+00	 1.3212752037e+00	-1.9349855610e+00
 1.0607671506e+00	 1.3466845789e+00	-1.9646064357e+00
 9.7236834113e-01	 1.2344589001e+00	-1.8082201975e+00
 9.4300535142e-01	 1.2570321553e+00	-1.8313272041e+00
 9.1316883184e-01	 1.2788712286e+00	-1.8460424315e+00
 8.8288620142e-01	 1.2999618964e+00	-1.8531342060e+00
 8.5218540804e-01	 1.3202912890e+00	-1.8533454027e+00
 8.2109484578e-01	 1.3398479124e+00	-1.8473837031e+00
 7.8964327147e-01	 1.3586216634e+00	-1.8359136496e+00
 7.5785972096e-01	 1.3766038399e+00	-1.8195507096e+00
 7.2577342574e-01	 1.3937871438e+00	-1.7988574983e+00
 6.9341373009e-01	 1.4101656798e+00	-1.7743422437e+00
 6.6081000953e-01	 1.4257349466e+00	-1.7464595077e+00
 9.8120816329e-01	 1.2456813934e+00	-1.8276676732e+00
 9.5157823400e-01	 1.2684598625e+00	-1.8496232722e+00
 9.2147046996e-01	 1.2904974753e+00	-1.8631099379e+00
 8.9091253947e-01	 1.3117798788e+00	-1.8689807440e+00
 8.5993264450e-01	 1.3322940864e+00	-1.8680622280e+00
 8.2855943725e-01	 1.3520284995e+00	-1.8611435269e+00
 7.9682193597e-01	 1.3709729231e+00	-1.8489674017e+00
 7.6474944050e-01	 1.3891185759e+00	-1.8322233853e+00
 7.3237144806e-01	 1.4064580937e+00	-1.8115432191e+00
 6.9971756970e-01	 1.4229855273e+00	-1.7874986755e+00
 6.6681744799e-01	 1.4386963347e+00	-1.7597078279e+00
 9.9004800402e-01	 1.2569039102e+00	-1.8463709206e+00
 9.6015113458e-01	 1.2798875937e+00	-1.8673730703e+00
 9.2977212550e-01	 1.3021237464e+00	-1.8799036329e+00
 8.9893889437e-01	 1.3235978861e+00	-1.8848937851e+00
 8.6767989722e-01	 1.3442969091e+00	-1.8832456986e+00
 8.3602404439e-01	 1.3642091122e+00	-1.8758205997e+00
 8.0400061555e-01	 1.3833242087e+00	-1.8634288238e+00
 7.7163917451e-01	 1.4016333383e+00	-1.8468221148e+00
 7.3896948423e-01	 1.4191290702e+00	-1.8266883564e+00
 7.0602142254e-01	 1.4358054017e+00	-1.8031978347e+00
 6.7282489907e-01	 1.4516577499e+00	-1.7735913557e+00
 9.9888786125e-01	 1.2681264479e+00	-1.8642950835e+00
 9.6872405116e-01	 1.2913153462e+00	-1.8845437767e+00
 9.3807379655e-01	 1.3137500393e+00	-1.8963877680e+00
 9.0696526426e-01	 1.3354159154e+00	-1.9008299308e+00
 8.7542716441e-01	 1.3562997541e+00	-1.8988402980e+00
 8.4348866546e-01	 1.3763897476e+00	-1.8913430908e+00
 8.1117930853e-01	 1.3956755174e+00	-1.8792058568e+00
 7.7852892139e-01	 1.4141481240e+00	-1.8632309890e+00
 7.4556753273e-01	 1.4318000703e+00	-1.8440620799e+00
 7.1232528716e-01	 1.4486253000e+00	-1.8191356554e+00
 6.7883236136e-01	 1.4646191894e+00	-1.7878279698e+00
 1.0077277329e+00	 1.2793490040e+00	-1.8814031756e+00
 9.7729698174e-01	 1.3027431175e+00	-1.9011002765e+00
 9.4637548115e-01	 1.3253763511e+00	-1.9125243209e+00
 9.1499164726e-01	 1.3472339641e+00	-1.9167437060e+00
 8.8317444425e-01	 1.3683026187e+00	-1.9147888040e+00
 8.5095329873e-01	 1.3885704029e+00	-1.9076380006e+00
 8.1835801324e-01	 1.4080268463e+00	-1.8962059703e+00
 7.8541867951e-01	 1.4266629301e+00	-1.8813344789e+00
 7.5216559200e-01	 1.4444710911e+00	-1.8616280905e+00
 7.1862916207e-01	 1.4614452193e+00	-1.8348713406e+00
 6.8483983347e-01	 1.4775806500e+00	-1.8022146634e+00
 1.0165676170e+00	 1.2905715759e+00	-1.8976562090e+00
 9.8586992433e-01	 1.3141709047e+00	-1.9170052901e+00
 9.5467717738e-01	 1.3370026792e+00	-1.9282731157e+00
 9.2301804149e-01	 1.3590520292e+00	-1.9325876634e+00
 8.9092173493e-01	 1.3803055001e+00	-1.9310323681e+00
 8.5841794245e-01	 1.4007510753e+00	-1.9246312097e+00
 8.2553672799e-01	 1.4203781924e+00	-1.9143361741e+00
 7.9230844728e-01	 1.4391777538e+00	-1.9000756712e+00
 7.5876366050e-01	 1.4571421297e+00	-1.8784868881e+00
 7.2493304581e-01	 1.4742651565e+00	-1.8502439074e+00
 6.9084731398e-01	 1.4905421288e+00	-1.8165552325e+00
 1.0254075113e+00	 1.3017941608e+00	-1.9130133195e+00
 9.9444287691e-01	 1.3255987052e+00	-1.9322194985e+00
 9.6297888329e-01	 1.3486290209e+00	-1.9435919404e+00
 9.3104444509e-01	 1.3708701082e+00	-1.9483124852e+00
 8.9866903466e-01	 1.3923083956e+00	-1.9475105953e+00
 8.6588259487e-01	 1.4129317619e+00	-1.9422475280e+00
 8.3271545112e-01	 1.4327295530e+00	-1.9333625598e+00
 7.9919822309e-01	 1.4516925920e+00	-1.9176866798e+00
 7.6536173671e-01	 1.4698131830e+00	-1.8945140700e+00
 7.3123693690e-01	 1.4870851087e+00	-1.8650977906e+00
 6.9685480151e-01	 1.5035036227e+00	-1.8306600296e+00
 1.0342474139e+00	 1.3130167561e+00	-1.9274318904e+00
 1.0030158375e+00	 1.3370265164e+00	-1.9467016669e+00
 9.7128059695e-01	 1.3602553734e+00	-1.9584366627e+00
 9.3907085618e-01	 1.3826881982e+00	-1.9638670841e+00
 9.0641634162e-01	 1.4043113022e+00	-1.9641616225e+00
 8.7334725427e-01	 1.4251124598e+00	-1.9604107454e+00
 8.3989418096e-01	 1.4450809251e+00	-1.9513814492e+00
 8.0608800533e-01	 1.4642074420e+00	-1.9340426902e+00
 7.7195981907e-01	 1.4824842482e+00	-1.9095894759e+00
 7.3754083387e-01	 1.4999050729e+00	-1.8792826577e+00
 7.0286229464e-01	 1.5164651287e+00	-1.8443457289e+00
 1.0430873227e+00	 1.3242393594e+00	-1.9408676733e+00
 1.0115888041e+00	 1.3484543356e+00	-1.9604087655e+00
 9.7958231642e-01	 1.3718817340e+00	-1.9727613435e+00
 9.4709727289e-01	 1.3945062965e+00	-1.9791987021e+00
 9.1416365400e-01	 1.4163142172e+00	-1.9809221966e+00
 8.8081191888e-01	 1.4372931663e+00	-1.9784385698e+00
 8.4707291581e-01	 1.4574323058e+00	-1.9677665516e+00
 8.1297779239e-01	 1.4767223007e+00	-1.9490538827e+00
 7.7855790605e-01	 1.4951553222e+00	-1.9235970543e+00
 7.4384473526e-01	 1.5127250460e+00	-1.8926532327e+00
 7.0886979197e-01	 1.5294266437e+00	-1.8574351030e+00
 1.0519272357e+00	 1.3354619678e+00	-1.9532749071e+00
 1.0201617747e+00	 1.3598821602e+00	-1.9732960880e+00
 9.8788403976e-01	 1.3835081001e+00	-1.9865183482e+00
 9.5512369334e-01	 1.4063244002e+00	-1.9942530084e+00
 9.2191096999e-01	 1.4283171379e+00	-1.9977277521e+00
 8.8827658699e-01	 1.4494738784e+00	-1.9945949314e+00
 8.5425165402e-01	 1.4697836923e+00	-1.9824535029e+00
 8.1986758267e-01	 1.4892371652e+00	-1.9626336114e+00
 7.8515599611e-01	 1.5078264021e+00	-1.9364247355e+00
 7.5014863959e-01	 1.5255450251e+00	-1.9050691276e+00
 7.1487729211e-01	 1.5423881648e+00	-1.8697568099e+00
 1.0607671506e+00	 1.3466845789e+00	-1.9646064357e+00
 1.0287347473e+00	 1.3713099874e+00	-1.9853173687e+00
 9.9618576505e-01	 1.3951344689e+00	-1.9996584562e+00
 9.6315011567e-01	 1.4181425068e+00	-2.0089741952e+00
 9.2965828779e-01	 1.4403200613e+00	-2.0134496852e+00
 8.9574125683e-01	 1.4616545934e+00	-2.0087382352e+00
 8.6143039390e-01	 1.4821350817e+00	-1.9953803547e+00
 8.2675737455e-01	 1.5017520327e+00	-1.9746983166e+00
 7.9175408771e-01	 1.5204974850e+00	-1.9479643091e+00
 7.5645254539e-01	 1.5383650072e+00	-1.9163946822e+00
 7.2088479365e-01	 1.5553496890e+00	-1.8811451899e+00
 6.6081000953e-01	 1.4257349466e+00	-1.7464595077e+00
 6.2799389340e-01	 1.4404908216e+00	-1.7136152524e+00
 5.9499229416e-01	 1.4544326734e+00	-1.6735753630e+00
 5.6183419459e-01	 1.4675600926e+00	-1.6276151427e+00
 5.2854830253e-01	 1.4798739801e+00	-1.5769807090e+00
 4.9516298100e-01	 1.4913765143e+00	-1.5228163977e+00
 4.6170618189e-01	 1.5020711138e+00	-1.4661653223e+00
 4.2820538310e-01	 1.5119623972e+00	-1.4079709687e+00
 3.9468752959e-01	 1.5210561391e+00	-1.3490797507e+00
 3.6117897834e-01	 1.5293592221e+00	-1.2902444469e+00
 3.2770544756e-01	 1.5368795881e+00	-1.2321284266e+00
 6.6681744799e-01	 1.4386963347e+00	-1.7597078279e+00
 6.3370299983e-01	 1.4535863556e+00	-1.7248495144e+00
 6.0040138231e-01	 1.4676549531e+00	-1.6829739028e+00
 5.6694184173e-01	 1.4809017140e+00	-1.6354067284e+00
 5.3335334687e-01	 1.4933275473e+00	-1.5833707123e+00
 4.9966451864e-01	 1.5049346513e+00	-1.5279852126e+00
 4.6590356303e-01	 1.5157264756e+00	-1.4702669882e+00
 4.3209820774e-01	 1.5257076809e+00	-1.4111320083e+00
 3.9827564268e-01	 1.5348840942e+00	-1.3513982313e+00
 3.6446246445e-01	 1.5432626608e+00	-1.2917892694e+00
 3.3068462505e-01	 1.5508513945e+00	-1.2329388477e+00
 6.7282489907e-01	 1.4516577499e+00	-1.7735913557e+00
 6.3941211824e-01	 1.4666819171e+00	-1.7370452207e+00
 6.0581048182e-01	 1.4808772605e+00	-1.6936978650e+00
 5.7204949958e-01	 1.4942433634e+00	-1.6448468893e+00
 5.3815840131e-01	 1.5067811428e+00	-1.5916876300e+00
 5.0416606574e-01	 1.5184928167e+00	-1.5353129438e+00
 4.7010095299e-01	 1.5293818661e+00	-1.4767141009e+00
 4.3599104055e-01	 1.5394529935e+00	-1.4167827174e+00
 4.0186376330e-01	 1.5487120783e+00	-1.3563136506e+00
 3.6774595745e-01	 1.5571661286e+00	-1.2960087740e+00
 3.3366380880e-01	 1.5648232303e+00	-1.2364815394e+00
 6.7883236136e-01	 1.4646191894e+00	-1.7878279698e+00
 6.4512124731e-01	 1.4797775031e+00	-1.7499582631e+00
 6.1121959142e-01	 1.4940995927e+00	-1.7054794486e+00
 5.7715716698e-01	 1.5075850376e+00	-1.6556545741e+00
 5.4296346472e-01	 1.5202347633e+00	-1.6016476531e+00
 5.0866762125e-01	 1.5320510075e+00	-1.5445235263e+00
 4.7429835078e-01	 1.5430372821e+00	-1.4852488084e+00
 4.3988388063e-01	 1.5531983317e+00	-1.4246938527e+00
 4.0545189062e-01	 1.5625400883e+00	-1.3636356591e+00
 3.7102945658e-01	 1.5710696223e+00	-1.3027616413e+00
 3.3664299811e-01	 1.5787950921e+00	-1.2426741654e+00
 6.8483983347e-01	 1.4775806500e+00	-1.8022146634e+00
 6.5083038570e-01	 1.4928731105e+00	-1.7633527144e+00
 6.1662870987e-01	 1.5073219465e+00	-1.7180597907e+00
 5.8226484271e-01	 1.5209267337e+00	-1.6675580595e+00
 5.4776853597e-01	 1.5336884059e+00	-1.6129763239e+00
 5.1316918410e-01	 1.5456092204e+00	-1.5553499026e+00
 4.7849575543e-01	 1.5566927204e+00	-1.4956215567e+00
 4.4377672707e-01	 1.5669436924e+00	-1.4346433978e+00
 4.0904002380e-01	 1.5763681208e+00	-1.3731797049e+00
 3.7431296107e-01	 1.5849731388e+00	-1.3119105689e+00
 3.3962219229e-01	 1.5927669768e+00	-1.2514362813e+00
 6.9084731398e-01	 1.4905421288e+00	-1.8165552325e+00
 6.5653953209e-01	 1.5059687362e+00	-1.7770005199e+00
 6.2203783588e-01	 1.5205443187e+00	-1.7311886221e+00
 5.8737252559e-01	 1.5342684485e+00	-1.6802945881e+00
 5.5257361396e-01	 1.5471420673e+00	-1.6254081709e+00
 5.1767075326e-01	 1.5591674523e+00	-1.5675336704e+00
 4.8269316596e-01	 1.5703481778e+00	-1.5075907668e+00
 4.4766957896e-01	 1.5806890723e+00	-1.4464162845e+00
 4.1262816201e-01	 1.5901961727e+00	-1.3847668152e+00
 3.7759647016e-01	 1.5988766748e+00	-1.3233221277e+00
 3.4260139064e-01	 1.6067388811e+00	-1.2626892805e+00
 6.9685480151e-01	 1.5035036227e+00	-1.8306600296e+00
 6.6224868513e-01	 1.5190643771e+00	-1.7906812031e+00
 6.2744696821e-01	 1.5337667064e+00	-1.7446239417e+00
 5.9248021444e-01	 1.5476101788e+00	-1.6936100245e+00
 5.5737869754e-01	 1.5605957443e+00	-1.6386863625e+00
 5.2217232767e-01	 1.5727257000e+00	-1.5808247491e+00
 4.8689058138e-01	 1.5840036511e+00	-1.5209225285e+00
 4.5156243539e-01	 1.5944344683e+00	-1.4598041280e+00
 4.1621630440e-01	 1.6040242408e+00	-1.3982233886e+00
 3.8087998308e-01	 1.6127802270e+00	-1.3368666252e+00
 3.4558059246e-01	 1.6207108016e+00	-1.2763563428e+00
 7.0286229464e-01	 1.5164651287e+00	-1.8443457289e+00
 6.6795784351e-01	 1.5321600303e+00	-1.8041815863e+00
 6.3285610558e-01	 1.5469891064e+00	-1.7581317058e+00
 5.9758790805e-01	 1.5609519216e+00	-1.7072585286e+00
 5.6218378562e-01	 1.5740494339e+00	-1.6525623780e+00
 5.2667390629e-01	 1.5862839604e+00	-1.5949810622e+00
 4.9108800072e-01	 1.5976591372e+00	-1.5353903083e+00
 4.5545529545e-01	 1.6081798771e+00	-1.4746049763e+00
 4.1980445014e-01	 1.6178523217e+00	-1.4133809975e+00
 3.8416349906e-01	 1.6266837921e+00	-1.3524179761e+00
 3.4855979707e-01	 1.6346827352e+00	-1.2923623854e+00
 7.0886979197e-01	 1.5294266437e+00	-1.8574351030e+00
 6.7366700588e-01	 1.5452556927e+00	-1.8172955251e+00
 6.3826524674e-01	 1.5602115157e+00	-1.7714855335e+00
 6.0269560524e-01	 1.5742936737e+00	-1.7210022449e+00
 5.6698887705e-01	 1.5875031330e+00	-1.6667956941e+00
 5.3117548805e-01	 1.5998422302e+00	-1.6097682359e+00
 4.9528542300e-01	 1.6113146329e+00	-1.5507746735e+00
 4.5934815824e-01	 1.6219252955e+00	-1.4906230707e+00
 4.2339259839e-01	 1.6316804124e+00	-1.4300762008e+00
 3.8744701734e-01	 1.6405873670e+00	-1.3698535782e+00
 3.5153900375e-01	 1.6486546786e+00	-1.3106340165e+00
 7.1487729211e-01	 1.5423881648e+00	-1.8697568099e+00
 6.7937617092e-01	 1.5583513612e+00	-1.8298236545e+00
 6.4367439042e-01	 1.5734339312e+00	-1.7844664251e+00
 6.0780330480e-01	 1.5876354321e+00	-1.7346110064e+00
 5.7179397073e-01	 1.6009568383e+00	-1.6811534879e+00
 5.3567707191e-01	 1.6134005064e+00	-1.6249593120e+00
 4.9948284723e-01	 1.6249701349e+00	-1.5668630279e+00
 4.6324102284e-01	 1.6356707203e+00	-1.5076686192e+00
 4.2698074831e-01	 1.6455085094e+00	-1.4481503652e+00
 3.9073053716e-01	 1.6544909483e+00	-1.3890541954e+00
 3.5451821183e-01	 1.6626266284e+00	-1.3310994909e+00
 7.2088479365e-01	 1.5553496890e+00	-1.8811451899e+00
 6.8508533728e-01	 1.5714470327e+00	-1.8415731479e+00
 6.4908353537e-01	 1.5866563497e+00	-1.7968624953e+00
 6.1291100557e-01	 1.6009771935e+00	-1.7478620535e+00
 5.7659906553e-01	 1.6144105468e+00	-1.6954103530e+00
 5.4017865683e-01	 1.6269587858e+00	-1.6403344748e+00
 5.0368027245e-01	 1.6386256401e+00	-1.5834493621e+00
 4.6713388836e-01	 1.6494161483e+00	-1.5255575802e+00
 4.3056889908e-01	 1.6593366097e+00	-1.4674494956e+00
 3.9401405774e-01	 1.6683945330e+00	-1.4099038458e+00
 3.5749742061e-01	 1.6765985816e+00	-1.3536886671e+00
 3.2770544756e-01	 1.5368795881e+00	-1.2321284266e+00
 2.9428963942e-01	 1.5436266306e+00	-1.1789843565e+00
 2.6095823704e-01	 1.5496096993e+00	-1.1334712415e+00
 2.2773481677e-01	 1.5548395949e+00	-1.0937792026e+00
 1.9464215349e-01	 1.5593279585e+00	-1.0581076717e+00
 1.6170219135e-01	 1.5630872136e+00	-1.0246868315e+00
 1.2893601884e-01	 1.5661305082e+00	-9.9179770071e-01
 9.6363848071e-02	 1.5684716563e+00	-9.5779074678e-01
 6.4004998129e-02	 1.5701250792e+00	-9.2110293403e-01
 3.1877882452e-02	 1.5711057482e+00	-8.8027313325e-01
 0.0000000000e+00	 1.5714291270e+00	-8.3395584068e-01
 3.3068462505e-01	 1.5508513945e+00	-1.2329388477e+00
 2.9696503306e-01	 1.5576597746e+00	-1.1790445611e+00
 2.6333061416e-01	 1.5636972355e+00	-1.1327235179e+00
 2.2980515904e-01	 1.5689746762e+00	-1.0921453795e+00
 1.9641164963e-01	 1.5735038435e+00	-1.0554763644e+00
 1.6317222956e-01	 1.5772972741e+00	-1.0209017990e+00
 1.3010817905e-01	 1.5803682354e+00	-9.8664734611e-01
 9.7239893951e-02	 1.5827306669e+00	-9.5099878290e-01
 6.4586868987e-02	 1.5843991212e+00	-9.1232022444e-01
 3.2167684989e-02	 1.5853887055e+00	-8.6907070770e-01
 0.0000000000e+00	 1.5857150240e+00	-8.1981907410e-01
 3.3366380880e-01	 1.5648232303e+00	-1.2364815394e+00
 2.9964043232e-01	 1.5716929480e+00	-1.1818485165e+00
 2.6570299626e-01	 1.5777848012e+00	-1.1346738390e+00
 2.3187550566e-01	 1.5831097871e+00	-1.0931362864e+00
 1.9818114948e-01	 1.5876797584e+00	-1.0553938099e+00
 1.6464227086e-01	 1.5915073645e+00	-1.0196072497e+00
 1.3128034172e-01	 1.5946059925e+00	-9.8396279435e-01
 9.8115941672e-02	 1.5969897075e+00	-9.4669303920e-01
 6.5168741068e-02	 1.5986731931e+00	-9.0609652570e-01
 3.2457488135e-02	 1.5996716927e+00	-8.6055566357e-01
 0.0000000000e+00	 1.6000009511e+00	-8.0855296035e-01
 3.3664299811e-01	 1.5787950921e+00	-1.2426741654e+00
 3.0231583657e-01	 1.5857261476e+00	-1.1873696320e+00
 2.6807538279e-01	 1.5918723933e+00	-1.1393346317e+00
 2.3394585614e-01	 1.5972449245e+00	-1.0967860531e+00
 1.9995065263e-01	 1.6018556997e+00	-1.0578980161e+00
 1.6611231490e-01	 1.6057174814e+00	-1.0208268114e+00
 1.3245250658e-01	 1.6088437762e+00	-9.8373467568e-01
 9.8991991028e-02	 1.6112487747e+00	-9.4481224381e-01
 6.5750614234e-02	 1.6129472916e+00	-9.0229954296e-01
 3.2747291821e-02	 1.6139547065e+00	-8.5450541384e-01
 0.0000000000e+00	 1.6142869048e+00	-7.9982526829e-01
 3.3962219229e-01	 1.5927669768e+00	-1.2514362813e+00
 3.0499124519e-01	 1.5997593701e+00	-1.1955812027e+00
 2.7044777320e-01	 1.6059600083e+00	-1.1467167951e+00
 2.3601621001e-01	 1.6113800849e+00	-1.1031264818e+00
 2.0172015868e-01	 1.6160316641e+00	-1.0630244971e+00
 1.6758236134e-01	 1.6199276215e+00	-1.0245821005e+00
 1.3362467335e-01	 1.6230815831e+00	-9.8595275274e-01
 9.9868041815e-02	 1.6255078652e+00	-9.4529607366e-01
 6.6332488351e-02	 1.6272214135e+00	-9.0080042703e-01
 3.3037095981e-02	 1.6282377438e+00	-8.5070400012e-01
 0.0000000000e+00	 1.6285728819e+00	-7.9331426752e-01
 3.4260139064e-01	 1.6067388811e+00	-1.2626892805e+00
 3.0766665756e-01	 1.6137926123e+00	-1.2064564393e+00
 2.7282016693e-01	 1.6200476431e+00	-1.1568297889e+00
 2.3808656677e-01	 1.6255152651e+00	-1.1121871687e+00
 2.0348966720e-01	 1.6302076485e+00	-1.0708063986e+00
 1.6905240984e-01	 1.6341377815e+00	-1.0308928231e+00
 1.3479684176e-01	 1.6373194100e+00	-9.9060596955e-01
 1.0074409383e-01	 1.6397669756e+00	-9.4808512164e-01
 6.6914363283e-02	 1.6414955554e+00	-9.0147363019e-01
 3.3326900547e-02	 1.6425208010e+00	-8.4894180717e-01
 0.0000000000e+00	 1.6428588790e+00	-7.8870827190e-01
 3.4558059246e-01	 1.6207108016e+00	-1.2763563428e+00
 3.1034207305e-01	 1.6278258709e+00	-1.2199684971e+00
 2.7519256343e-01	 1.6341352943e+00	-1.1696817189e+00
 2.4015692595e-01	 1.6396504618e+00	-1.1239956185e+00
 2.0525917779e-01	 1.6443836493e+00	-1.0812746173e+00
 1.7052246005e-01	 1.6483479581e+00	-1.0397768720e+00
 1.3596901154e-01	 1.6515572535e+00	-9.9768249797e-01
 1.0162014686e-01	 1.6540261027e+00	-9.5312086541e-01
 6.7496238894e-02	 1.6557697139e+00	-9.0419676930e-01
 3.3616705451e-02	 1.6568038748e+00	-8.4901529228e-01
 0.0000000000e+00	 1.6571448927e+00	-7.8570520673e-01
 3.4855979707e-01	 1.6346827352e+00	-1.2923623854e+00
 3.1301749104e-01	 1.6418591425e+00	-1.2360905038e+00
 2.7756496214e-01	 1.6482229587e+00	-1.1852794164e+00
 2.4222728706e-01	 1.6537856717e+00	-1.1385773533e+00
 2.0702869002e-01	 1.6585596634e+00	-1.0944579129e+00
 1.7199251164e-01	 1.6625581480e+00	-1.0512504176e+00
 1.3714118242e-01	 1.6657951103e+00	-1.0071697817e+00
 1.0249620072e-01	 1.6682852431e+00	-9.6034563781e-01
 6.8078115048e-02	 1.6700438857e+00	-9.0885049604e-01
 3.3906510625e-02	 1.6710869620e+00	-8.5072672840e-01
 0.0000000000e+00	 1.6714309198e+00	-7.8401219798e-01
 3.5153900375e-01	 1.6486546786e+00	-1.3106340165e+00
 3.1569291090e-01	 1.6558924240e+00	-1.2547955844e+00
 2.7993736251e-01	 1.6623106329e+00	-1.2036285144e+00
 2.4429764962e-01	 1.6679208915e+00	-1.1559560161e+00
 2.0879820350e-01	 1.6727356874e+00	-1.1103830159e+00
 1.7346256425e-01	 1.6767683478e+00	-1.0653279948e+00
 1.3831335411e-01	 1.6800329770e+00	-1.0190545781e+00
 1.0337225518e-01	 1.6825443935e+00	-9.6970259877e-01
 6.8659991608e-02	 1.6843180675e+00	-9.1531837368e-01
 3.4196316002e-02	 1.6853700592e+00	-8.5388396043e-01
 0.0000000000e+00	 1.6857169568e+00	-7.8334518255e-01
 3.5451821183e-01	 1.6626266284e+00	-1.3310994909e+00
 3.1836833200e-01	 1.6699257120e+00	-1.2760568861e+00
 2.8230976399e-01	 1.6763983137e+00	-1.2247335195e+00
 2.4636801315e-01	 1.6820561178e+00	-1.1761534684e+00
 2.1056771780e-01	 1.6869117180e+00	-1.1290747290e+00
 1.7493261755e-01	 1.6909785542e+00	-1.0820225851e+00
 1.3948552636e-01	 1.6942708504e+00	-1.0333229979e+00
 1.0424831006e-01	 1.6968035505e+00	-9.8113570858e-01
 6.9241868441e-02	 1.6985922560e+00	-9.2348676006e-01
 3.4486121514e-02	 1.6996531631e+00	-8.5830017376e-01
 0.0000000000e+00	 1.7000030006e+00	-7.8342853807e-01
 3.5749742061e-01	 1.6765985816e+00	-1.3536886671e+00
 3.2104375374e-01	 1.6839590033e+00	-1.2998476007e+00
 2.8468216602e-01	 1.6904859978e+00	-1.2485978802e+00
 2.4843837716e-01	 1.6961913475e+00	-1.1991898834e+00
 2.1233723252e-01	 1.7010877519e+00	-1.1505560234e+00
 1.7640267120e-01	 1.7051887640e+00	-1.1013456950e+00
 1.4065769887e-01	 1.7085087271e+00	-1.0499605427e+00
 1.0512436514e-01	 1.7110627108e+00	-9.9458970260e-01
 6.9823745408e-02	 1.7128664478e+00	-9.3324469644e-01
 3.4775927094e-02	 1.7139362703e+00	-8.6379367432e-01
 0.0000000000e+00	 1.7142890476e+00	-7.8399473124e-01
 1.7142890476e+00	 0.0000000000e+00	 2.9604060694e+00
 1.7139362703e+00	 3.4775927094e-02	 2.9490387282e+00
 1.7128664478e+00	 6.9823745408e-02	 2.9177370239e+00
 1.7110627108e+00	 1.0512436514e-01	 2.8680336575e+00
 1.7085087271e+00	 1.4065769887e-01	 2.8014665457e+00
 1.7051887640e+00	 1.7640267120e-01	 2.7195658587e+00
 1.7010877519e+00	 2.1233723252e-01	 2.6238403414e+00
 1.6961913475e+00	 2.4843837716e-01	 2.5157629847e+00
 1.6904859978e+00	 2.8468216602e-01	 2.3967561188e+00
 1.6839590033e+00	 3.2104375374e-01	 2.2681760153e+00
 1.6765985816e+00	 3.5749742061e-01	 2.1312970896e+00
 1.7285740955e+00	 0.0000000000e+00	 2.9588543339e+00
 1.7282183785e+00	 3.5065712404e-02	 2.9437310085e+00
 1.7271396413e+00	 7.0405581679e-02	 2.9092000048e+00
 1.7253208739e+00	 1.0600035895e-01	 2.8567579811e+00
 1.7227456080e+00	 1.4182978940e-01	 2.7878983206e+00
 1.7193979799e+00	 1.7787262203e-01	 2.7040980336e+00
 1.7152627943e+00	 2.1410662347e-01	 2.6068040021e+00
 1.7103255886e+00	 2.5050859637e-01	 2.4974186354e+00
 1.7045726966e+00	 2.8705440212e-01	 2.3772850130e+00
 1.6979913131e+00	 3.2371898835e-01	 2.2476716030e+00
 1.6905695575e+00	 3.6047642102e-01	 2.1097566530e+00
 1.7428591451e+00	 0.0000000000e+00	 2.9611349787e+00
 1.7425004884e+00	 3.5355497748e-02	 2.9406593024e+00
 1.7414128364e+00	 7.0987418017e-02	 2.9016906909e+00
 1.7395790386e+00	 1.0687635285e-01	 2.8456488249e+00
 1.7369824905e+00	 1.4300188007e-01	 2.7739389045e+00
 1.7336071974e+00	 1.7934257302e-01	 2.6879386173e+00
 1.7294378384e+00	 2.1587601463e-01	 2.5889845388e+00
 1.7244598313e+00	 2.5257881582e-01	 2.4783580351e+00
 1.7186593970e+00	 2.8942663850e-01	 2.3572707507e+00
 1.7120236246e+00	 3.2639422327e-01	 2.2268497689e+00
 1.7045405351e+00	 3.6345542177e-01	 2.0881225448e+00
 1.7571441980e+00	 0.0000000000e+00	 2.9672069284e+00
 1.7567826016e+00	 3.5645283159e-02	 2.9397923111e+00
 1.7556860349e+00	 7.1569254491e-02	 2.8951814797e+00
 1.7538372067e+00	 1.0775234697e-01	 2.8346773134e+00
 1.7512193764e+00	 1.4417397102e-01	 2.7595543338e+00
 1.7478164183e+00	 1.8081252437e-01	 2.6710459366e+00
 1.7436128858e+00	 2.1764540620e-01	 2.5703311764e+00
 1.7385940773e+00	 2.5464903575e-01	 2.4585211771e+00
 1.7327461007e+00	 2.9179887544e-01	 2.3366452550e+00
 1.7260559393e+00	 3.2906945882e-01	 2.2056368431e+00
 1.7185115159e+00	 3.6643442322e-01	 2.0663193163e+00
 1.7714292559e+00	 0.0000000000e+00	 2.9770309613e+00
 1.7710647198e+00	 3.5935068672e-02	 2.9411002662e+00
 1.7699592384e+00	 7.2151091168e-02	 2.8896461726e+00
 1.7680953797e+00	 1.0862834139e-01	 2.8238160107e+00
 1.7654562673e+00	 1.4534606237e-01	 2.7447122447e+00
 1.7620256441e+00	 1.8228247622e-01	 2.6533801642e+00
 1.7577879382e+00	 2.1941479840e-01	 2.5507952778e+00
 1.7527283282e+00	 2.5671925640e-01	 2.4378504901e+00
 1.7468328094e+00	 2.9417111321e-01	 2.3153431456e+00
 1.7400882589e+00	 3.3174469531e-01	 2.1839620350e+00
 1.7324825016e+00	 3.6941342572e-01	 2.0442744586e+00
 1.7857143204e+00	 0.0000000000e+00	 2.9905696353e+00
 1.7853468447e+00	 3.6224854319e-02	 2.9445548669e+00
 1.7842324485e+00	 7.2732928116e-02	 2.8850599163e+00
 1.7823535594e+00	 1.0950433622e-01	 2.8130388589e+00
 1.7796931648e+00	 1.4651815427e-01	 2.7293818042e+00
 1.7762348765e+00	 1.8375242876e-01	 2.6349032382e+00
 1.7719629972e+00	 2.2118419141e-01	 2.5303302513e+00
 1.7668625858e+00	 2.5878947803e-01	 2.4162907330e+00
 1.7609195246e+00	 2.9654335208e-01	 2.2933016224e+00
 1.7541205851e+00	 3.3441993304e-01	 2.1617573088e+00
 1.7464534939e+00	 3.7239242960e-01	 2.0219182749e+00
 1.7999993933e+00	 0.0000000000e+00	 3.0077872169e+00
 1.7996289779e+00	 3.6514640136e-02	 2.9501292202e+00
 1.7985056669e+00	 7.3314765404e-02	 2.8813991468e+00
 1.7966117474e+00	 1.1038033155e-01	 2.8023211204e+00
 1.7939300706e+00	 1.4769024685e-01	 2.7135336443e+00
 1.7904441173e+00	 1.8522238216e-01	 2.6155787870e+00
 1.7861380644e+00	 2.2295358546e-01	 2.5088914626e+00
 1.7809968516e+00	 2.6085970086e-01	 2.3937888948e+00
 1.7750062480e+00	 2.9891559233e-01	 2.2704603548e+00
 1.7681529195e+00	 3.3709517233e-01	 2.1389572646e+00
 1.7604244943e+00	 3.7537143522e-01	 1.9991837583e+00
 1.8142844762e+00	 0.0000000000e+00	 3.0286496144e+00
 1.8139111211e+00	 3.6804426156e-02	 2.9577977844e+00
 1.8127788954e+00	 7.3896603099e-02	 2.8786415362e+00
 1.8108699454e+00	 1.1125632751e-01	 2.7916393214e+00
 1.8081669863e+00	 1.4886234025e-01	 2.6971398001e+00
 1.8046533680e+00	 1.8669233659e-01	 2.5953720565e+00
 1.8003131416e+00	 2.2472298075e-01	 2.4864361507e+00
 1.7951311272e+00	 2.6292992514e-01	 2.3702940989e+00
 1.7890929813e+00	 3.0128783425e-01	 2.2467613753e+00
 1.7821852637e+00	 3.3977041350e-01	 2.1154990247e+00
 1.7743955044e+00	 3.7835044293e-01	 1.9760064757e+00
 1.8285695708e+00	 0.0000000000e+00	 3.0531243131e+00
 1.8281932760e+00	 3.7094212412e-02	 2.9675363148e+00
 1.8270521355e+00	 7.4478441269e-02	 2.8767659417e+00
 1.8251281550e+00	 1.1213232417e-01	 2.7809711994e+00
 1.8224039137e+00	 1.5003443461e-01	 2.6801736496e+00
 1.8188626303e+00	 1.8816229222e-01	 2.5742498413e+00
 1.8144882303e+00	 2.2649237748e-01	 2.4629233486e+00
 1.8092654145e+00	 2.6500015111e-01	 2.3457575124e+00
 1.8031797261e+00	 3.0366007810e-01	 2.2221489793e+00
 1.7962176193e+00	 3.4244565685e-01	 2.0913221267e+00
 1.7883665260e+00	 3.8132945307e-01	 1.9523244574e+00
 1.8428546786e+00	 0.0000000000e+00	 3.0811803144e+00
 1.8424754442e+00	 3.7383998939e-02	 2.9793218122e+00
 1.8413253889e+00	 7.5060279982e-02	 2.8757523573e+00
 1.8393863780e+00	 1.1300832166e-01	 2.7702956524e+00
 1.8366408544e+00	 1.5120653007e-01	 2.6626098575e+00
 1.8330719058e+00	 1.8963224922e-01	 2.5521804190e+00
 1.8286633323e+00	 2.2826177587e-01	 2.4383138068e+00
 1.8233997149e+00	 2.6707037901e-01	 2.3201322589e+00
 1.8172664841e+00	 3.0603232417e-01	 2.1965696285e+00
 1.8102499881e+00	 3.4512090270e-01	 2.0663684198e+00
 1.8023375606e+00	 3.8430846599e-01	 1.9280780910e+00
 1.8571398015e+00	 0.0000000000e+00	 3.1127880775e+00
 1.8567576274e+00	 3.7673785770e-02	 2.9931324738e+00
 1.8555986573e+00	 7.5642119307e-02	 2.8755818674e+00
 1.8536446159e+00	 1.1388432006e-01	 2.7595926910e+00
 1.8508778101e+00	 1.5237862675e-01	 2.6444243209e+00
 1.8472811963e+00	 1.9110220776e-01	 2.5291334876e+00
 1.8428384492e+00	 2.3003117611e-01	 2.4125699207e+00
 1.8375340302e+00	 2.6914060908e-01	 2.2933733364e+00
 1.8313532568e+00	 3.0840457273e-01	 2.1699718597e+00
 1.8242823715e+00	 3.4779615135e-01	 2.0405819675e+00
 1.8163086099e+00	 3.8728748204e-01	 1.9032100217e+00
 1.6765985816e+00	 3.5749742061e-01	 2.1312970896e+00
 1.6683945330e+00	 3.9401405774e-01	 1.9869560446e+00
 1.6593366097e+00	 4.3056889908e-01	 1.8357707985e+00
 1.6494161483e+00	 4.6713388836e-01	 1.6786297577e+00
 1.6386256401e+00	 5.0368027245e-01	 1.5163956657e+00
 1.6269587858e+00	 5.4017865683e-01	 1.3499007136e+00
 1.6144105468e+00	 5.7659906553e-01	 1.1799416234e+00
 1.6009771935e+00	 6.1291100557e-01	 1.0072747395e+00
 1.5866563497e+00	 6.4908353537e-01	 8.3261116601e-01
 1.5714470327e+00	 6.8508533728e-01	 6.5661199624e-01
 1.5553496890e+00	 7.2088479365e-01	 4.7988368899e-01
 1.6905695575e+00	 3.6047642102e-01	 2.1097566530e+00
 1.6822971451e+00	 3.9729734867e-01	 1.9645290488e+00
 1.6731637429e+00	 4.3415679888e-01	 1.8128007755e+00
 1.6631606150e+00	 4.7102648160e-01	 1.6554192608e+00
 1.6522801903e+00	 5.0787740410e-01	 1.4932041476e+00
 1.6405161168e+00	 5.4467992690e-01	 1.3269426617e+00
 1.6278633143e+00	 5.8140382426e-01	 1.1573849689e+00
 1.6143180218e+00	 6.1801834909e-01	 9.8523955412e-01
 1.5998778435e+00	 6.5449230200e-01	 8.1116865633e-01
 1.5845417883e+00	 6.9079410435e-01	 6.3578380552e-01
 1.5683103066e+00	 7.2689187503e-01	 4.5964151023e-01
 1.7045405351e+00	 3.6345542177e-01	 2.0881225448e+00
 1.6961997590e+00	 4.0058063999e-01	 1.9421914390e+00
 1.6869908777e+00	 4.3774469911e-01	 1.7900631012e+00
 1.6769050833e+00	 4.7491907530e-01	 1.6325479580e+00
 1.6659347420e+00	 5.1207453624e-01	 1.4704268360e+00
 1.6540734495e+00	 5.4918119749e-01	 1.3044465669e+00
 1.6413160833e+00	 5.8620858355e-01	 1.1353155946e+00
 1.6276588517e+00	 6.2312569322e-01	 9.6369961427e-01
 1.6130993388e+00	 6.5990106926e-01	 7.9021727539e-01
 1.5976365454e+00	 6.9650287208e-01	 6.1543599084e-01
 1.5812709257e+00	 7.3289895710e-01	 4.3986789925e-01
 1.7185115159e+00	 3.6643442322e-01	 2.0663193163e+00
 1.7101023760e+00	 4.0386393207e-01	 1.9198688473e+00
 1.7008180157e+00	 4.4133260017e-01	 1.7674854226e+00
 1.6906495548e+00	 4.7881166991e-01	 1.6099463325e+00
 1.6795892969e+00	 5.1627166935e-01	 1.4479977551e+00
 1.6676307853e+00	 5.5368246914e-01	 1.2823505783e+00
 1.6547688555e+00	 5.9101334397e-01	 1.1136762340e+00
 1.6409996847e+00	 6.2823303853e-01	 9.4260257025e-01
 1.6263208372e+00	 6.6530983778e-01	 7.6970979240e-01
 1.6107313056e+00	 7.0221164115e-01	 5.9552651076e-01
 1.5942315478e+00	 7.3890604058e-01	 4.2052594104e-01
 1.7324825016e+00	 3.6941342572e-01	 2.0442744586e+00
 1.7240049979e+00	 4.0714722530e-01	 1.8974898151e+00
 1.7146451585e+00	 4.4492050249e-01	 1.7449982358e+00
 1.7043940311e+00	 4.8270426588e-01	 1.5875476307e+00
 1.6932438566e+00	 5.2046880394e-01	 1.4258535840e+00
 1.6811881259e+00	 5.5818374236e-01	 1.2605953733e+00
 1.6682216324e+00	 5.9581810606e-01	 1.0924120079e+00
 1.6543405224e+00	 6.3334038563e-01	 9.2189830823e-01
 1.6395423402e+00	 6.7071860819e-01	 7.4960105515e-01
 1.6238260704e+00	 7.0792041221e-01	 5.7601524345e-01
 1.6071921745e+00	 7.4491312615e-01	 4.0158048401e-01
 1.7464534939e+00	 3.7239242960e-01	 2.0219182749e+00
 1.7379076264e+00	 4.1043052006e-01	 1.8749856654e+00
 1.7284723078e+00	 4.4850840648e-01	 1.7225347595e+00
 1.7181385138e+00	 4.8659686367e-01	 1.5652877383e+00
 1.7068984227e+00	 5.2466594048e-01	 1.4039335366e+00
 1.6947454728e+00	 5.6268501769e-01	 1.2391240417e+00
 1.6816744156e+00	 6.0062287039e-01	 1.0714703133e+00
 1.6676813663e+00	 6.3844773512e-01	 9.0153884448e-01
 1.6527638494e+00	 6.7612738113e-01	 7.2984788964e-01
 1.6369208413e+00	 7.1362918593e-01	 5.5686389171e-01
 1.6201528072e+00	 7.5092021453e-01	 3.8299805018e-01
 1.7604244943e+00	 3.7537143522e-01	 1.9991837583e+00
 1.7518102629e+00	 4.1371381674e-01	 1.8522903809e+00
 1.7422994652e+00	 4.5209631257e-01	 1.7000308158e+00
 1.7318830045e+00	 4.9048946372e-01	 1.5431050633e+00
 1.7205529967e+00	 5.2886307947e-01	 1.3821792474e+00
 1.7083028276e+00	 5.6718629563e-01	 1.2178819756e+00
 1.6951272067e+00	 6.0542763753e-01	 1.0508007179e+00
 1.6810222180e+00	 6.4355508758e-01	 8.8147822472e-01
 1.6659853663e+00	 6.8153615722e-01	 7.1040900448e-01
 1.6500156198e+00	 7.1933796299e-01	 5.3803589256e-01
 1.6331134475e+00	 7.5692730642e-01	 3.6474674995e-01
 1.7743955044e+00	 3.7835044293e-01	 1.9760064757e+00
 1.7657129091e+00	 4.1699711571e-01	 1.8293404887e+00
 1.7561266322e+00	 4.5568422117e-01	 1.6774247150e+00
 1.7456275048e+00	 4.9438206651e-01	 1.5209404233e+00
 1.7342075803e+00	 5.3306022140e-01	 1.3605346627e+00
 1.7218601919e+00	 5.7168757673e-01	 1.1968167643e+00
 1.7085800071e+00	 6.1023240803e-01	 1.0303548594e+00
 1.6943630790e+00	 6.4866244362e-01	 8.6167242828e-01
 1.6792068925e+00	 6.8694493710e-01	 6.9124490008e-01
 1.6631104075e+00	 7.2504674404e-01	 5.1949633138e-01
 1.6460740968e+00	 7.6293440251e-01	 3.4679620098e-01
 1.7883665260e+00	 3.8132945307e-01	 1.9523244574e+00
 1.7796155667e+00	 4.2028041737e-01	 1.8060749496e+00
 1.7699538106e+00	 4.5927213270e-01	 1.6546571472e+00
 1.7593720164e+00	 4.9827467247e-01	 1.4987369397e+00
 1.7478621750e+00	 5.3725736676e-01	 1.3389459370e+00
 1.7354175672e+00	 5.7618886151e-01	 1.1758780947e+00
 1.7220328186e+00	 6.1503718246e-01	 1.0100863498e+00
 1.7077039509e+00	 6.5376980383e-01	 8.4207927702e-01
 1.6924284294e+00	 6.9235372139e-01	 6.7231778216e-01
 1.6762052059e+00	 7.3075552975e-01	 5.0121186009e-01
 1.6590347568e+00	 7.6894150350e-01	 3.2911745100e-01
 1.8023375606e+00	 3.8430846599e-01	 1.9280780910e+00
 1.7935182373e+00	 4.2356372209e-01	 1.7824350535e+00
 1.7837810018e+00	 4.6286004757e-01	 1.6316710782e+00
 1.7731165408e+00	 5.0216728206e-01	 1.4764399357e+00
 1.7615167825e+00	 5.4145451604e-01	 1.3173613347e+00
 1.7489749552e+00	 5.8069015048e-01	 1.1550176562e+00
 1.7354856426e+00	 6.1984196137e-01	 9.8995068473e-01
 1.7210448352e+00	 6.5887716880e-01	 8.2265834845e-01
 1.7056499787e+00	 6.9776251074e-01	 6.5359147937e-01
 1.6893000165e+00	 7.3646432079e-01	 4.8315061938e-01
 1.6719954288e+00	 7.7494861010e-01	 3.1168290439e-01
 1.8163086099e+00	 3.8728748204e-01	 1.9032100217e+00
 1.8074209225e+00	 4.2684703026e-01	 1.7583643186e+00
 1.7976082076e+00	 4.6644796621e-01	 1.6084116513e+00
 1.7868610796e+00	 5.0605989574e-01	 1.4539968396e+00
 1.7751714043e+00	 5.4565166972e-01	 1.2957311361e+00
 1.7625323575e+00	 5.8519144419e-01	 1.1341890501e+00
 1.7489384807e+00	 6.2464674532e-01	 9.6990515614e-01
 1.7343857336e+00	 6.6398453914e-01	 8.0337089313e-01
 1.7188715419e+00	 7.0317130576e-01	 6.3503136500e-01
 1.7023948409e+00	 7.4217311783e-01	 4.6528216459e-01
 1.6849561144e+00	 7.8095572301e-01	 2.9446625224e-01
 1.5553496890e+00	 7.2088479365e-01	 4.7988368899e-01
 1.5383650072e+00	 7.5645254539e-01	 3.0180185439e-01
 1.5204974850e+00	 7.9175408771e-01	 1.2244776343e-01
 1.5017520327e+00	 8.2675737455e-01	-5.6631324238e-02
 1.4821350817e+00	 8.6143039390e-01	-2.3394570988e-01
 1.4616545934e+00	 8.9574125683e-01	-4.0807351493e-01
 1.4403200613e+00	 9.2965828779e-01	-5.7767055210e-01
 1.4181425068e+00	 9.6315011567e-01	-7.4135987671e-01
 1.3951344689e+00	 9.9618576505e-01	-8.9717224767e-01
 1.3713099874e+00	 1.0287347473e+00	-1.0439511971e+00
 1.3466845789e+00	 1.0607671506e+00	-1.1808417107e+00
 1.5683103066e+00	 7.2689187503e-01	 4.5964151023e-01
 1.5511840927e+00	 7.6275601029e-01	 2.8208656924e-01
 1.5331676817e+00	 7.9835171784e-01	 1.0321254679e-01
 1.5142660248e+00	 8.3364668457e-01	-7.5417969274e-02
 1.4944856072e+00	 8.6860863170e-01	-2.5229937884e-01
 1.4738344565e+00	 9.0320540459e-01	-4.2599363934e-01
 1.4523221453e+00	 9.3740506375e-01	-5.9514046325e-01
 1.4299597868e+00	 9.7117597662e-01	-7.5846697976e-01
 1.4067600246e+00	 1.0044869097e+00	-9.1429112129e-01
 1.3827370153e+00	 1.0373071203e+00	-1.0609432064e+00
 1.3579064051e+00	 1.0696064474e+00	-1.1975468819e+00
 1.5812709257e+00	 7.3289895710e-01	 4.3986789925e-01
 1.5640031796e+00	 7.6905947593e-01	 2.6283126274e-01
 1.5458378799e+00	 8.0494934874e-01	 8.4431958863e-02
 1.5267800185e+00	 8.4053599538e-01	-9.3752790589e-02
 1.5068361342e+00	 8.7578687034e-01	-2.7020213393e-01
 1.4860143210e+00	 9.1066955323e-01	-4.4346247045e-01
 1.4643242306e+00	 9.4515184060e-01	-6.1215797565e-01
 1.4417770681e+00	 9.7920183852e-01	-7.7500060160e-01
 1.4183855816e+00	 1.0127880553e+00	-9.3068686894e-01
 1.3941640446e+00	 1.0458794943e+00	-1.0772550752e+00
 1.3691282326e+00	 1.0784457451e+00	-1.2136154030e+00
 1.5942315478e+00	 7.3890604058e-01	 4.2052594104e-01
 1.5768222696e+00	 7.7536294304e-01	 2.4400415720e-01
 1.5585080810e+00	 8.1154698118e-01	 6.6079548967e-02
 1.5392940150e+00	 8.4742530780e-01	-1.1165669752e-01
 1.5191866640e+00	 8.8296511065e-01	-2.8766910441e-01
 1.4981941884e+00	 9.1813370360e-01	-4.6048909476e-01
 1.4763263187e+00	 9.5289861927e-01	-6.2872584729e-01
 1.4535943522e+00	 9.8722770228e-01	-7.9107663791e-01
 1.4300111413e+00	 1.0210892029e+00	-9.4633648812e-01
 1.4055910765e+00	 1.0544518703e+00	-1.0928551769e+00
 1.3803500627e+00	 1.0872850449e+00	-1.2290087701e+00
 1.6071921745e+00	 7.4491312615e-01	 4.0158048401e-01
 1.5896413640e+00	 7.8166641235e-01	 2.2557508262e-01
 1.5711782865e+00	 8.1814461592e-01	 4.8130313527e-02
 1.5518080159e+00	 8.5431462263e-01	-1.2914931828e-01
 1.5315371982e+00	 8.9014335347e-01	-3.0471431022e-01
 1.5103740600e+00	 9.2559785659e-01	-4.7708166757e-01
 1.4883284111e+00	 9.6064540064e-01	-6.4484608959e-01
 1.4654116405e+00	 9.9525356886e-01	-8.0669065523e-01
 1.4416367050e+00	 1.0293903534e+00	-9.6139682160e-01
 1.4170181125e+00	 1.0630242493e+00	-1.1077111902e+00
 1.3915718967e+00	 1.0961243478e+00	-1.2436880306e+00
 1.6201528072e+00	 7.5092021453e-01	 3.8299805018e-01
 1.6024604644e+00	 7.8796988461e-01	 2.0751539224e-01
 1.5838484980e+00	 8.2474225374e-01	 3.0560617074e-02
 1.5643220227e+00	 8.6120394068e-01	-1.4624907332e-01
 1.5438877381e+00	 8.9732159964e-01	-3.2135072958e-01
 1.5225539372e+00	 9.3306201306e-01	-4.9324747440e-01
 1.5003305090e+00	 9.6839218564e-01	-6.6052002247e-01
 1.4772289342e+00	 1.0032794392e+00	-8.2183771347e-01
 1.4532622743e+00	 1.0376915077e+00	-9.7596886462e-01
 1.4284451538e+00	 1.0715966323e+00	-1.1217902198e+00
 1.4027937360e+00	 1.1049636549e+00	-1.2576138977e+00
 1.6331134475e+00	 7.5692730642e-01	 3.6474674995e-01
 1.6152795723e+00	 7.9427336054e-01	 1.8979788229e-01
 1.5965187168e+00	 8.3133989541e-01	 1.3348117121e-02
 1.5768360368e+00	 8.6809326275e-01	-1.6297324516e-01
 1.5562382852e+00	 9.0449985000e-01	-3.3759036313e-01
 1.5347338216e+00	 9.4052617388e-01	-5.0899298938e-01
 1.5123326140e+00	 9.7613897514e-01	-6.7574832668e-01
 1.4890462349e+00	 1.0113053142e+00	-8.3651241186e-01
 1.4648878502e+00	 1.0459926669e+00	-9.9004082675e-01
 1.4398722017e+00	 1.0801690203e+00	-1.1351985322e+00
 1.4140155818e+00	 1.1138029671e+00	-1.2707468641e+00
 1.6460740968e+00	 7.6293440251e-01	 3.4679620098e-01
 1.6280986892e+00	 8.0057684088e-01	 1.7239671559e-01
 1.6091889446e+00	 8.3793754170e-01	-3.5283072663e-03
 1.5893500596e+00	 8.7498258963e-01	-1.7933804462e-01
 1.5685888410e+00	 9.1167810538e-01	-3.5344429501e-01
 1.5469137145e+00	 9.4799033993e-01	-5.2432393081e-01
 1.5243347273e+00	 9.8388577008e-01	-6.9053109358e-01
 1.5008635438e+00	 1.0193311948e+00	-8.5070893267e-01
 1.4765134344e+00	 1.0542938319e+00	-1.0036006792e+00
 1.4512992576e+00	 1.0887414143e+00	-1.1480598440e+00
 1.4252374355e+00	 1.1226422854e+00	-1.2830473136e+00
 1.6590347568e+00	 7.6894150350e-01	 3.2911745100e-01
 1.6409178165e+00	 8.0688032637e-01	 1.5528734898e-01
 1.6218591826e+00	 8.4453519338e-01	-2.0088623404e-02
 1.6018640926e+00	 8.8187192215e-01	-1.9535867402e-01
 1.5809394069e+00	 9.1885636663e-01	-3.6892275088e-01
 1.5590936174e+00	 9.5545451207e-01	-5.3924531389e-01
 1.5363368505e+00	 9.9163257133e-01	-7.0486787242e-01
 1.5126808624e+00	 1.0273570820e+00	-8.6442108282e-01
 1.4881390280e+00	 1.0625950037e+00	-1.0166361906e+00
 1.4627263229e+00	 1.0973138153e+00	-1.1603555975e+00
 1.4364592983e+00	 1.1314816110e+00	-1.2945423344e+00
 1.6719954288e+00	 7.7494861010e-01	 3.1168290439e-01
 1.6537369558e+00	 8.1318381775e-01	 1.3844646417e-01
 1.6345294325e+00	 8.5113285122e-01	-3.6351709626e-02
 1.6143781374e+00	 8.8876126109e-01	-2.1104938707e-01
 1.5932899843e+00	 9.2603463457e-01	-3.8403515311e-01
 1.5712735316e+00	 9.6291869118e-01	-5.5376150094e-01
 1.5483389849e+00	 9.9937937982e-01	-7.1875771530e-01
 1.5244981920e+00	 1.0353829766e+00	-8.7764233335e-01
 1.4997646324e+00	 1.0708961832e+00	-1.0291349604e+00
 1.4741533988e+00	 1.1058862243e+00	-1.1720672124e+00
 1.4476811716e+00	 1.1403209449e+00	-1.3053925576e+00
 1.6849561144e+00	 7.8095572301e-01	 2.9446625224e-01
 1.6665561086e+00	 8.1948731574e-01	 1.2185190198e-01
 1.6471996957e+00	 8.5773051598e-01	-5.2335416798e-02
 1.6268921952e+00	 8.9565060726e-01	-2.2642354606e-01
 1.6056405746e+00	 9.3321291005e-01	-3.9879017332e-01
 1.5834534587e+00	 9.7038287813e-01	-5.6787624916e-01
 1.5603411318e+00	 1.0071261964e+00	-7.3219921997e-01
 1.5363155340e+00	 1.0434088797e+00	-8.9036585700e-01
 1.5113902491e+00	 1.0791973714e+00	-1.0410844513e+00
 1.4855804868e+00	 1.1144586423e+00	-1.1831761383e+00
 1.4589030567e+00	 1.1491602880e+00	-1.3155851151e+00
 1.3466845789e+00	 1.0607671506e+00	-1.1808417107e+00
 1.3212752037e+00	 1.0922537322e+00	-1.3075447844e+00
 1.2951002177e+00	 1.1231660134e+00	-1.4239767015e+00
 1.2681793414e+00	 1.1534763562e+00	-1.5297982366e+00
 1.2405336151e+00	 1.1831580408e+00	-1.6247753842e+00
 1.2121853445e+00	 1.2121853445e+00	-1.7087714523e+00
 1.1831580408e+00	 1.2405336151e+00	-1.7817367667e+00
 1.1534763562e+00	 1.2681793414e+00	-1.8436962961e+00
 1.1231660134e+00	 1.2951002177e+00	-1.8947355996e+00
 1.0922537322e+00	 1.3212752037e+00	-1.9349855610e+00
 1.0607671506e+00	 1.3466845789e+00	-1.9646064357e+00
 1.3579064051e+00	 1.0696064474e+00	-1.1975468819e+00
 1.3322852954e+00	 1.1013554043e+00	-1.3237400982e+00
 1.3058921951e+00	 1.1325252754e+00	-1.4394332376e+00
 1.2787469891e+00	 1.1630881921e+00	-1.5443611124e+00
 1.2508708929e+00	 1.1930172121e+00	-1.6383697072e+00
 1.2222863982e+00	 1.2222863982e+00	-1.7214073512e+00
 1.1930172121e+00	 1.2508708929e+00	-1.7935133415e+00
 1.1630881921e+00	 1.2787469891e+00	-1.8548043479e+00
 1.1325252754e+00	 1.3058921951e+00	-1.9054590228e+00
 1.1013554043e+00	 1.3322852954e+00	-1.9457013112e+00
 1.0696064474e+00	 1.3579064051e+00	-1.9757830177e+00
 1.3691282326e+00	 1.0784457451e+00	-1.2136154030e+00
 1.3432953884e+00	 1.1104570775e+00	-1.3393489057e+00
 1.3166841738e+00	 1.1418845385e+00	-1.4543669922e+00
 1.2893146380e+00	 1.1727000291e+00	-1.5584800804e+00
 1.2612081719e+00	 1.2028763845e+00	-1.6516161541e+00
 1.2323874530e+00	 1.2323874530e+00	-1.7338109850e+00
 1.2028763845e+00	 1.2612081719e+00	-1.8051956334e+00
 1.1727000291e+00	 1.2893146380e+00	-1.8659815840e+00
 1.1418845385e+00	 1.3166841738e+00	-1.9164439603e+00
 1.1104570775e+00	 1.3432953884e+00	-1.9569033469e+00
 1.0784457451e+00	 1.3691282326e+00	-1.9877068060e+00
 1.3803500627e+00	 1.0872850449e+00	-1.2290087701e+00
 1.3543054839e+00	 1.1195587529e+00	-1.3543259429e+00
 1.3274761549e+00	 1.1512438037e+00	-1.4687266058e+00
 1.2998822893e+00	 1.1823118684e+00	-1.5720983190e+00
 1.2715454533e+00	 1.2127355592e+00	-1.6644530526e+00
 1.2424885102e+00	 1.2424885102e+00	-1.7459164256e+00
 1.2127355592e+00	 1.2715454533e+00	-1.8167140453e+00
 1.1823118684e+00	 1.2998822893e+00	-1.8771553221e+00
 1.1512438037e+00	 1.3274761549e+00	-1.9276152323e+00
 1.1195587529e+00	 1.3543054839e+00	-1.9685145852e+00
 1.0872850449e+00	 1.3803500627e+00	-2.0002994198e+00
 1.3915718967e+00	 1.0961243478e+00	-1.2436880306e+00
 1.3653155833e+00	 1.1286604314e+00	-1.3686257179e+00
 1.3382681399e+00	 1.1606030723e+00	-1.4824606672e+00
 1.3104499444e+00	 1.1919237110e+00	-1.5851590883e+00
 1.2818827384e+00	 1.2225947373e+00	-1.6768189026e+00
 1.2525895710e+00	 1.2525895710e+00	-1.7576579677e+00
 1.2225947373e+00	 1.2818827384e+00	-1.8279992146e+00
 1.1919237110e+00	 1.3104499444e+00	-1.8882530912e+00
 1.1606030723e+00	 1.3382681399e+00	-1.9388978136e+00
 1.1286604314e+00	 1.3653155833e+00	-1.9804580125e+00
 1.0961243478e+00	 1.3915718967e+00	-2.0134824363e+00
 1.4027937360e+00	 1.1049636549e+00	-1.2576138977e+00
 1.3763256878e+00	 1.1377621142e+00	-1.3822026188e+00
 1.3490601299e+00	 1.1699623452e+00	-1.4955178160e+00
 1.3210176044e+00	 1.2015355581e+00	-1.5976058273e+00
 1.2922200282e+00	 1.2324539201e+00	-1.6886524693e+00
 1.2626906365e+00	 1.2626906365e+00	-1.7689702175e+00
 1.2324539201e+00	 1.2922200282e+00	-1.8389820985e+00
 1.2015355581e+00	 1.3210176044e+00	-1.8992027126e+00
 1.1699623452e+00	 1.3490601299e+00	-1.9502169121e+00
 1.1377621142e+00	 1.3763256878e+00	-1.9926567593e+00
 1.1049636549e+00	 1.4027937360e+00	-2.0271774630e+00
 1.4140155818e+00	 1.1138029671e+00	-1.2707468641e+00
 1.3873357987e+00	 1.1468638022e+00	-1.3950110215e+00
 1.3598521261e+00	 1.1793216235e+00	-1.5078468451e+00
 1.3315852705e+00	 1.2111474108e+00	-1.6093822509e+00
 1.3025573241e+00	 1.2423131086e+00	-1.6998928757e+00
 1.2727917078e+00	 1.2727917078e+00	-1.7797881807e+00
 1.2423131086e+00	 1.3025573241e+00	-1.8495940587e+00
 1.2111474108e+00	 1.3315852705e+00	-1.9099323818e+00
 1.1793216235e+00	 1.3598521261e+00	-1.9614980470e+00
 1.1468638022e+00	 1.3873357987e+00	-2.0050341763e+00
 1.1138029671e+00	 1.4140155818e+00	-2.0413062112e+00
 1.4252374355e+00	 1.1226422854e+00	-1.2830473136e+00
 1.3983459174e+00	 1.1559654967e+00	-1.4070053957e+00
 1.3706441300e+00	 1.1886809084e+00	-1.5193968013e+00
 1.3421529441e+00	 1.2207592702e+00	-1.6204324468e+00
 1.3128946272e+00	 1.2521723040e+00	-1.7104796948e+00
 1.2828927863e+00	 1.2828927863e+00	-1.7900473517e+00
 1.2521723040e+00	 1.3128946272e+00	-1.8597669463e+00
 1.2207592702e+00	 1.3421529441e+00	-1.9203707500e+00
 1.1886809084e+00	 1.3706441300e+00	-1.9726671277e+00
 1.1559654967e+00	 1.3983459174e+00	-2.0175139102e+00
 1.1226422854e+00	 1.4252374355e+00	-2.0557905689e+00
 1.4364592983e+00	 1.1314816110e+00	-1.2945423344e+00
 1.4093560450e+00	 1.1650671986e+00	-1.4181404105e+00
 1.3814361426e+00	 1.1980402010e+00	-1.5301170865e+00
 1.3527206262e+00	 1.2303711375e+00	-1.6307009712e+00
 1.3232319388e+00	 1.2620315074e+00	-1.7203530421e+00
 1.2929938730e+00	 1.2929938730e+00	-1.7996838021e+00
 1.2620315074e+00	 1.3232319388e+00	-1.8694331871e+00
 1.2303711375e+00	 1.3527206262e+00	-1.9304470060e+00
 1.1980402010e+00	 1.3814361426e+00	-1.9836505329e+00
 1.1650671986e+00	 1.4093560450e+00	-2.0300199801e+00
 1.1314816110e+00	 1.4364592983e+00	-2.0701586232e+00
 1.4476811716e+00	 1.1403209449e+00	-1.3053925576e+00
 1.4203661829e+00	 1.1741689089e+00	-1.4283710394e+00
 1.3922281653e+00	 1.2073995023e+00	-1.5399575575e+00
 1.3632883183e+00	 1.2399830138e+00	-1.6401329455e+00
 1.3335692600e+00	 1.2718907201e+00	-1.7294536677e+00
 1.3030949691e+00	 1.3030949691e+00	-1.8086342689e+00
 1.2718907201e+00	 1.3335692600e+00	-1.8785258669e+00
 1.2399830138e+00	 1.3632883183e+00	-1.9400909590e+00
 1.2073995023e+00	 1.3922281653e+00	-1.9943751900e+00
 1.1741689089e+00	 1.4203661829e+00	-2.0424768540e+00
 1.1403209449e+00	 1.4476811716e+00	-2.0832185277e+00
 1.4589030567e+00	 1.1491602880e+00	-1.3155851151e+00
 1.4313763324e+00	 1.1832706289e+00	-1.4376608065e+00
 1.4030201994e+00	 1.2167588134e+00	-1.5488686261e+00
 1.3738560214e+00	 1.2495949002e+00	-1.6486741514e+00
 1.3439065921e+00	 1.2817499431e+00	-1.7377230481e+00
 1.3131960758e+00	 1.3131960758e+00	-1.8168362431e+00
 1.2817499431e+00	 1.3439065921e+00	-1.8869788168e+00
 1.2495949002e+00	 1.3738560214e+00	-1.9492331201e+00
 1.2167588134e+00	 1.4030201994e+00	-2.0047686543e+00
 1.1832706289e+00	 1.4313763324e+00	-2.0547633370e+00
 1.1491602880e+00	 1.4589030567e+00	-2.0948767228e+00
 1.0607671506e+00	 1.3466845789e+00	-1.9646064357e+00
 1.0287347473e+00	 1.3713099874e+00	-1.9853173687e+00
 9.9618576505e-01	 1.3951344689e+00	-1.9996584562e+00
 9.6315011567e-01	 1.4181425068e+00	-2.0089741952e+00
 9.2965828779e-01	 1.4403200613e+00	-2.0134496852e+00
 8.9574125683e-01	 1.4616545934e+00	-2.0087382352e+00
 8.6143039390e-01	 1.4821350817e+00	-1.9953803547e+00
 8.2675737455e-01	 1.5017520327e+00	-1.9746983166e+00
 7.9175408771e-01	 1.5204974850e+00	-1.9479643091e+00
 7.5645254539e-01	 1.5383650072e+00	-1.9163946822e+00
 7.2088479365e-01	 1.5553496890e+00	-1.8811451899e+00
 1.0696064474e+00	 1.3579064051e+00	-1.9757830177e+00
 1.0373071203e+00	 1.3827370153e+00	-1.9974317551e+00
 1.0044869097e+00	 1.4067600246e+00	-2.0131618284e+00
 9.7117597662e-01	 1.4299597868e+00	-2.0243322187e+00
 9.3740506375e-01	 1.4523221453e+00	-2.0279180302e+00
 9.0320540459e-01	 1.4738344565e+00	-2.0218474818e+00
 8.6860863170e-01	 1.4944856072e+00	-2.0074789645e+00
 8.3364668457e-01	 1.5142660248e+00	-1.9861180841e+00
 7.9835171784e-01	 1.5331676817e+00	-1.9590110971e+00
 7.6275601029e-01	 1.5511840927e+00	-1.9273394058e+00
 7.2689187503e-01	 1.5683103066e+00	-1.8922151223e+00
 1.0784457451e+00	 1.3691282326e+00	-1.9877068060e+00
 1.0458794943e+00	 1.3941640446e+00	-2.0105783808e+00
 1.0127880553e+00	 1.4183855816e+00	-2.0279890439e+00
 9.7920183852e-01	 1.4417770681e+00	-2.0400440590e+00
 9.4515184060e-01	 1.4643242306e+00	-2.0421313398e+00
 9.1066955323e-01	 1.4860143210e+00	-2.0348961162e+00
 8.7578687034e-01	 1.5068361342e+00	-2.0196828896e+00
 8.4053599538e-01	 1.5267800185e+00	-1.9977737197e+00
 8.0494934874e-01	 1.5458378799e+00	-1.9703818890e+00
 7.6905947593e-01	 1.5640031796e+00	-1.9386467042e+00
 7.3289895710e-01	 1.5812709257e+00	-1.9036294403e+00
 1.0872850449e+00	 1.3803500627e+00	-2.0002994198e+00
 1.0544518703e+00	 1.4055910765e+00	-2.0246772778e+00
 1.0210892029e+00	 1.4300111413e+00	-2.0440432646e+00
 9.8722770228e-01	 1.4535943522e+00	-2.0552438831e+00
 9.5289861927e-01	 1.4763263187e+00	-2.0560438879e+00
 9.1813370360e-01	 1.4981941884e+00	-2.0478324709e+00
 8.8296511065e-01	 1.5191866640e+00	-2.0319337521e+00
 8.4742530780e-01	 1.5392940150e+00	-2.0095995337e+00
 8.1154698118e-01	 1.5585080810e+00	-1.9820032500e+00
 7.7536294304e-01	 1.5768222696e+00	-1.9502351327e+00
 7.3890604058e-01	 1.5942315478e+00	-1.9152985935e+00
 1.0961243478e+00	 1.3915718967e+00	-2.0134824363e+00
 1.0630242493e+00	 1.4170181125e+00	-2.0396483321e+00
 1.0293903534e+00	 1.4416367050e+00	-2.0600770000e+00
 9.9525356886e-01	 1.4654116405e+00	-2.0698929204e+00
 9.6064540064e-01	 1.4883284111e+00	-2.0696119923e+00
 9.2559785659e-01	 1.5103740600e+00	-2.0606070454e+00
 8.9014335347e-01	 1.5315371982e+00	-2.0441754873e+00
 8.5431462263e-01	 1.5518080159e+00	-2.0215323129e+00
 8.1814461592e-01	 1.5711782865e+00	-1.9938043970e+00
 7.8166641235e-01	 1.5896413640e+00	-1.9620260809e+00
 7.4491312615e-01	 1.6071921745e+00	-1.9271360492e+00
 1.1049636549e+00	 1.4027937360e+00	-2.0271774630e+00
 1.0715966323e+00	 1.4284451538e+00	-2.0554113535e+00
 1.0376915077e+00	 1.4532622743e+00	-2.0753029095e+00
 1.0032794392e+00	 1.4772289342e+00	-2.0839543099e+00
 9.6839218564e-01	 1.5003305090e+00	-2.0827939713e+00
 9.3306201306e-01	 1.5225539372e+00	-2.0731724578e+00
 8.9732159964e-01	 1.5438877381e+00	-2.0563542886e+00
 8.6120394068e-01	 1.5643220227e+00	-2.0335112590e+00
 8.2474225374e-01	 1.5838484980e+00	-2.0057171303e+00
 7.8796988461e-01	 1.6024604644e+00	-1.9739436962e+00
 7.5092021453e-01	 1.6201528072e+00	-1.9390582089e+00
 1.1138029671e+00	 1.4140155818e+00	-2.0413062112e+00
 1.0801690203e+00	 1.4398722017e+00	-2.0710283918e+00
 1.0459926669e+00	 1.4648878502e+00	-2.0896897342e+00
 1.0113053142e+00	 1.4890462349e+00	-2.0973930620e+00
 9.7613897514e-01	 1.5123326140e+00	-2.0955501022e+00
 9.4052617388e-01	 1.5347338216e+00	-2.0854833983e+00
 9.0449985000e-01	 1.5562382852e+00	-2.0684185559e+00
 8.6809326275e-01	 1.5768360368e+00	-2.0454779296e+00
 8.3133989541e-01	 1.5965187168e+00	-2.0176757672e+00
 7.9427336054e-01	 1.6152795723e+00	-1.9859148103e+00
 7.5692730642e-01	 1.6331134475e+00	-1.9509843273e+00
 1.1226422854e+00	 1.4252374355e+00	-2.0557905689e+00
 1.0887414143e+00	 1.4512992576e+00	-2.0855489218e+00
 1.0542938319e+00	 1.4765134344e+00	-2.1032079950e+00
 1.0193311948e+00	 1.5008635438e+00	-2.1101760213e+00
 9.8388577008e-01	 1.5243347273e+00	-2.1078425801e+00
 9.4799033993e-01	 1.5469137145e+00	-2.0974965832e+00
 9.1167810538e-01	 1.5685888410e+00	-2.0803188435e+00
 8.7498258963e-01	 1.5893500596e+00	-2.0573761813e+00
 8.3793754170e-01	 1.6091889446e+00	-2.0296170784e+00
 8.0057684088e-01	 1.6280986892e+00	-1.9978688690e+00
 7.6293440251e-01	 1.6460740968e+00	-1.9628364341e+00
 1.1314816110e+00	 1.4364592983e+00	-2.0701586232e+00
 1.0973138153e+00	 1.4627263229e+00	-2.0989475848e+00
 1.0625950037e+00	 1.4881390280e+00	-2.1158299587e+00
 1.0273570820e+00	 1.5126808624e+00	-2.1222718299e+00
 9.9163257133e-01	 1.5363368505e+00	-2.1196354776e+00
 9.5545451207e-01	 1.5590936174e+00	-2.1091707106e+00
 9.1885636663e-01	 1.5809394069e+00	-2.0920078109e+00
 8.8187192215e-01	 1.6018640926e+00	-2.0691521136e+00
 8.4453519338e-01	 1.6218591826e+00	-2.0414802261e+00
 8.0688032637e-01	 1.6409178165e+00	-2.0097378633e+00
 7.6894150350e-01	 1.6590347568e+00	-1.9745392597e+00
 1.1403209449e+00	 1.4476811716e+00	-2.0832185277e+00
 1.1058862243e+00	 1.4741533988e+00	-2.1112008827e+00
 1.0708961832e+00	 1.4997646324e+00	-2.1275296033e+00
 1.0353829766e+00	 1.5244981920e+00	-2.1336508912e+00
 9.9937937982e-01	 1.5483389849e+00	-2.1308947058e+00
 9.6291869118e-01	 1.5712735316e+00	-2.1204664167e+00
 9.2603463457e-01	 1.5932899843e+00	-2.1034401741e+00
 8.8876126109e-01	 1.6143781374e+00	-2.0807540156e+00
 8.5113285122e-01	 1.6345294325e+00	-2.0532067042e+00
 8.1318381775e-01	 1.6537369558e+00	-2.0214562640e+00
 7.7494861010e-01	 1.6719954288e+00	-1.9860201629e+00
 1.1491602880e+00	 1.4589030567e+00	-2.0948767228e+00
 1.1144586423e+00	 1.4855804868e+00	-2.1222869785e+00
 1.0791973714e+00	 1.5113902491e+00	-2.1382825852e+00
 1.0434088797e+00	 1.5363155340e+00	-2.1442853344e+00
 1.0071261964e+00	 1.5603411318e+00	-2.1415879752e+00
 9.7038287813e-01	 1.5834534587e+00	-2.1313462334e+00
 9.3321291005e-01	 1.6056405746e+00	-2.1145726589e+00
 8.9565060726e-01	 1.6268921952e+00	-2.0921323135e+00
 8.5773051598e-01	 1.6471996957e+00	-2.0647402809e+00
 8.1948731574e-01	 1.6665561086e+00	-2.0329609580e+00
 7.8095572301e-01	 1.6849561144e+00	-1.9972090617e+00
 7.2088479365e-01	 1.5553496890e+00	-1.8811451899e+00
 6.8508533728e-01	 1.5714470327e+00	-1.8415731479e+00
 6.4908353537e-01	 1.5866563497e+00	-1.7968624953e+00
 6.1291100557e-01	 1.6009771935e+00	-1.7478620535e+00
 5.7659906553e-01	 1.6144105468e+00	-1.6954103530e+00
 5.4017865683e-01	 1.6269587858e+00	-1.6403344748e+00
 5.0368027245e-01	 1.6386256401e+00	-1.5834493621e+00
 4.6713388836e-01	 1.6494161483e+00	-1.5255575802e+00
 4.3056889908e-01	 1.6593366097e+00	-1.4674494956e+00
 3.9401405774e-01	 1.6683945330e+00	-1.4099038458e+00
 3.5749742061e-01	 1.6765985816e+00	-1.3536886671e+00
 7.2689187503e-01	 1.5683103066e+00	-1.8922151223e+00
 6.9079410435e-01	 1.5845417883e+00	-1.8530621591e+00
 6.5449230200e-01	 1.5998778435e+00	-1.8091003009e+00
 6.1801834909e-01	 1.6143180218e+00	-1.7610977617e+00
 5.8140382426e-01	 1.6278633143e+00	-1.7098329746e+00
 5.4467992690e-01	 1.6405161168e+00	-1.6560931070e+00
 5.0787740410e-01	 1.6522801903e+00	-1.6006729044e+00
 4.7102648160e-01	 1.6631606150e+00	-1.5443738474e+00
 4.3415679888e-01	 1.6731637429e+00	-1.4880036083e+00
 3.9729734867e-01	 1.6822971451e+00	-1.4323757900e+00
 3.6047642102e-01	 1.6905695575e+00	-1.3783099277e+00
 7.3289895710e-01	 1.5812709257e+00	-1.9036294403e+00
 6.9650287208e-01	 1.5976365454e+00	-1.8648685655e+00
 6.5990106926e-01	 1.6130993388e+00	-1.8216716836e+00
 6.2312569322e-01	 1.6276588517e+00	-1.7747250983e+00
 5.8620858355e-01	 1.6413160833e+00	-1.7247456657e+00
 5.4918119749e-01	 1.6540734495e+00	-1.6724789980e+00
 5.1207453624e-01	 1.6659347420e+00	-1.6186978516e+00
 4.7491907530e-01	 1.6769050833e+00	-1.5642006947e+00
 4.3774469911e-01	 1.6869908777e+00	-1.5098104549e+00
 4.0058063999e-01	 1.6961997590e+00	-1.4563734392e+00
 3.6345542177e-01	 1.7045405351e+00	-1.4047584234e+00
 7.3890604058e-01	 1.5942315478e+00	-1.9152985935e+00
 7.0221164115e-01	 1.6107313056e+00	-1.8768939941e+00
 6.6530983778e-01	 1.6263208372e+00	-1.8344680102e+00
 6.2823303853e-01	 1.6409996847e+00	-1.7886237548e+00
 5.9101334397e-01	 1.6547688555e+00	-1.7400150580e+00
 5.5368246914e-01	 1.6676307853e+00	-1.6893443718e+00
 5.1627166935e-01	 1.6795892969e+00	-1.6373607146e+00
 4.7881166991e-01	 1.6906495548e+00	-1.5848576638e+00
 4.4133260017e-01	 1.7008180157e+00	-1.5326714053e+00
 4.0386393207e-01	 1.7101023760e+00	-1.4816788488e+00
 3.6643442322e-01	 1.7185115159e+00	-1.4327958147e+00
 7.4491312615e-01	 1.6071921745e+00	-1.9271360492e+00
 7.0792041221e-01	 1.6238260704e+00	-1.8890432958e+00
 6.7071860819e-01	 1.6395423402e+00	-1.8473841219e+00
 6.3334038563e-01	 1.6543405224e+00	-1.8026771932e+00
 5.9581810606e-01	 1.6682216324e+00	-1.7555118942e+00
 5.5818374236e-01	 1.6811881259e+00	-1.7065459468e+00
 5.2046880394e-01	 1.6932438566e+00	-1.6565029252e+00
 4.8270426588e-01	 1.7043940311e+00	-1.6061696848e+00
 4.4492050249e-01	 1.7146451585e+00	-1.5563937265e+00
 4.0714722530e-01	 1.7240049979e+00	-1.5080805179e+00
 3.6941342572e-01	 1.7324825016e+00	-1.4621907913e+00
 7.5092021453e-01	 1.6201528072e+00	-1.9390582089e+00
 7.1362918593e-01	 1.6369208413e+00	-1.9012244520e+00
 6.7612738113e-01	 1.6527638494e+00	-1.8603182314e+00
 6.3844773512e-01	 1.6676813663e+00	-1.8167725301e+00
 6.0062287039e-01	 1.6816744156e+00	-1.7711108964e+00
 5.6268501769e-01	 1.6947454728e+00	-1.7239447882e+00
 5.2466594048e-01	 1.7068984227e+00	-1.6759706700e+00
 4.8659686367e-01	 1.7181385138e+00	-1.6279668904e+00
 4.4850840648e-01	 1.7284723078e+00	-1.5807903738e+00
 4.1043052006e-01	 1.7379076264e+00	-1.5353731582e+00
 3.7239242960e-01	 1.7464534939e+00	-1.4927188153e+00
 7.5692730642e-01	 1.6331134475e+00	-1.9509843273e+00
 7.1933796299e-01	 1.6500156198e+00	-1.9133484862e+00
 6.8153615722e-01	 1.6659853663e+00	-1.8731718226e+00
 6.4355508758e-01	 1.6810222180e+00	-1.8308004247e+00
 6.0542763753e-01	 1.6951272067e+00	-1.7866906416e+00
 5.6718629563e-01	 1.7083028276e+00	-1.7414061675e+00
 5.2886307947e-01	 1.7205529967e+00	-1.6956147318e+00
 4.9048946372e-01	 1.7318830045e+00	-1.6500844380e+00
 4.5209631257e-01	 1.7422994652e+00	-1.6056797929e+00
 4.1371381674e-01	 1.7518102629e+00	-1.5633574730e+00
 3.7537143522e-01	 1.7604244943e+00	-1.5241618761e+00
 7.6293440251e-01	 1.6460740968e+00	-1.9628364341e+00
 7.2504674404e-01	 1.6631104075e+00	-1.9253293773e+00
 6.8694493710e-01	 1.6792068925e+00	-1.8858495562e+00
 6.4866244362e-01	 1.6943630790e+00	-1.8446549723e+00
 6.1023240803e-01	 1.7085800071e+00	-1.8021334413e+00
 5.7168757673e-01	 1.7218601919e+00	-1.7587994271e+00
 5.3306022140e-01	 1.7342075803e+00	-1.7152903388e+00
 4.9438206651e-01	 1.7456275048e+00	-1.6723623407e+00
 4.5568422117e-01	 1.7561266322e+00	-1.6308857308e+00
 4.1699711571e-01	 1.7657129091e+00	-1.5918399462e+00
 3.7835044293e-01	 1.7743955044e+00	-1.5563082569e+00
 7.6894150350e-01	 1.6590347568e+00	-1.9745392597e+00
 7.3075552975e-01	 1.6762052059e+00	-1.9370839784e+00
 6.9235372139e-01	 1.6924284294e+00	-1.8982591777e+00
 6.5376980383e-01	 1.7077039509e+00	-1.8582336024e+00
 6.1503718246e-01	 1.7220328186e+00	-1.8173252271e+00
 5.7618886151e-01	 1.7354175672e+00	-1.7759978524e+00
 5.3725736676e-01	 1.7478621750e+00	-1.7348570199e+00
 4.9827467247e-01	 1.7593720164e+00	-1.6946453049e+00
 4.5927213270e-01	 1.7699538106e+00	-1.6562370544e+00
 4.2028041737e-01	 1.7796155667e+00	-1.6206326417e+00
 3.8132945307e-01	 1.7883665260e+00	-1.5889523118e+00
 7.7494861010e-01	 1.6719954288e+00	-1.9860201629e+00
 7.3646432079e-01	 1.6893000165e+00	-1.9485319368e+00
 6.9776251074e-01	 1.7056499787e+00	-1.9103114298e+00
 6.5887716880e-01	 1.7210448352e+00	-1.8714369803e+00
 6.1984196137e-01	 1.7354856426e+00	-1.8321554408e+00
 5.8069015048e-01	 1.7489749552e+00	-1.7928785479e+00
 5.4145451604e-01	 1.7615167825e+00	-1.7541784666e+00
 5.0216728206e-01	 1.7731165408e+00	-1.7167825762e+00
 4.6286004757e-01	 1.7837810018e+00	-1.6815675787e+00
 4.2356372209e-01	 1.7935182373e+00	-1.6495530113e+00
 3.8430846599e-01	 1.8023375606e+00	-1.6218942530e+00
 7.8095572301e-01	 1.6849561144e+00	-1.9972090617e+00
 7.4217311783e-01	 1.7023948409e+00	-1.9595956186e+00
 7.0317130576e-01	 1.7188715419e+00	-1.9219199683e+00
 6.6398453914e-01	 1.7343857336e+00	-1.8841689134e+00
 6.2464674532e-01	 1.7489384807e+00	-1.8465169293e+00
 5.8519144419e-01	 1.7625323575e+00	-1.8093223197e+00
 5.4565166972e-01	 1.7751714043e+00	-1.7731224008e+00
 5.0605989574e-01	 1.7868610796e+00	-1.7386277917e+00
 4.6644796621e-01	 1.7976082076e+00	-1.7067159017e+00
 4.2684703026e-01	 1.8074209225e+00	-1.6784237114e+00
 3.8728748204e-01	 1.8163086099e+00	-1.6549399483e+00
 3.5749742061e-01	 1.6765985816e+00	-1.3536886671e+00
 3.2104375374e-01	 1.6839590033e+00	-1.2998476007e+00
 2.8468216602e-01	 1.6904859978e+00	-1.2485978802e+00
 2.4843837716e-01	 1.6961913475e+00	-1.1991898834e+00
 2.1233723252e-01	 1.7010877519e+00	-1.1505560234e+00
 1.7640267120e-01	 1.7051887640e+00	-1.1013456950e+00
 1.4065769887e-01	 1.7085087271e+00	-1.0499605427e+00
 1.0512436514e-01	 1.7110627108e+00	-9.9458970260e-01
 6.9823745408e-02	 1.7128664478e+00	-9.3324469644e-01
 3.4775927094e-02	 1.7139362703e+00	-8.6379367432e-01
 0.0000000000e+00	 1.7142890476e+00	-7.8399473124e-01
 3.6047642102e-01	 1.6905695575e+00	-1.3783099277e+00
 3.2371898835e-01	 1.6979913131e+00	-1.3259946148e+00
 2.8705440212e-01	 1.7045726966e+00	-1.2749564699e+00
 2.5050859637e-01	 1.7103255886e+00	-1.2247163653e+00
 2.1410662347e-01	 1.7152627943e+00	-1.1744246561e+00
 1.7787262203e-01	 1.7193979799e+00	-1.1228974171e+00
 1.4182978940e-01	 1.7227456080e+00	-1.0686533220e+00
 1.0600035895e-01	 1.7253208739e+00	-1.0099507861e+00
 7.0405581679e-02	 1.7271396413e+00	-9.4482501617e-01
 3.5065712404e-02	 1.7282183785e+00	-8.7112463036e-01
 0.0000000000e+00	 1.7285740955e+00	-7.8654753804e-01
 3.6345542177e-01	 1.7045405351e+00	-1.4047584234e+00
 3.2639422327e-01	 1.7120236246e+00	-1.3541777427e+00
 2.8942663850e-01	 1.7186593970e+00	-1.3033875719e+00
 2.5257881582e-01	 1.7244598313e+00	-1.2522414731e+00
 2.1587601463e-01	 1.7294378384e+00	-1.2001726115e+00
 1.7934257302e-01	 1.7336071974e+00	-1.1462306622e+00
 1.4300188007e-01	 1.7369824905e+00	-1.0891197016e+00
 1.0687635285e-01	 1.7395790386e+00	-1.0272366753e+00
 7.0987418017e-02	 1.7414128364e+00	-9.5871005426e-01
 3.5355497748e-02	 1.7425004884e+00	-8.8143831241e-01
 0.0000000000e+00	 1.7428591451e+00	-7.9312788341e-01
 3.6643442322e-01	 1.7185115159e+00	-1.4327958147e+00
 3.2906945882e-01	 1.7260559393e+00	-1.3841499540e+00
 2.9179887544e-01	 1.7327461007e+00	-1.3336588756e+00
 2.5464903575e-01	 1.7385940773e+00	-1.2815694369e+00
 2.1764540620e-01	 1.7436128858e+00	-1.2276608436e+00
 1.8081252437e-01	 1.7478164183e+00	-1.1712816180e+00
 1.4417397102e-01	 1.7512193764e+00	-1.1113879106e+00
 1.0775234697e-01	 1.7538372067e+00	-1.0465827244e+00
 7.1569254491e-02	 1.7556860349e+00	-9.7515563612e-01
 3.5645283159e-02	 1.7567826016e+00	-8.9512261992e-01
 0.0000000000e+00	 1.7571441980e+00	-8.0426560091e-01
 3.6941342572e-01	 1.7324825016e+00	-1.4621907913e+00
 3.3174469531e-01	 1.7400882589e+00	-1.4156714586e+00
 2.9417111321e-01	 1.7468328094e+00	-1.3655447722e+00
 2.5671925640e-01	 1.7527283282e+00	-1.3125099500e+00
 2.1941479840e-01	 1.7577879382e+00	-1.2567538866e+00
 1.8228247622e-01	 1.7620256441e+00	-1.1979875794e+00
 1.4534606237e-01	 1.7654562673e+00	-1.1354842770e+00
 1.0862834139e-01	 1.7680953797e+00	-1.0681188991e+00
 7.2151091168e-02	 1.7699592384e+00	-9.9440828965e-01
 3.5935068672e-02	 1.7710647198e+00	-9.1255188047e-01
 0.0000000000e+00	 1.7714292559e+00	-8.2047236924e-01
 3.7239242960e-01	 1.7464534939e+00	-1.4927188153e+00
 3.3441993304e-01	 1.7541205851e+00	-1.4485094400e+00
 2.9654335208e-01	 1.7609195246e+00	-1.3988261063e+00
 2.5878947803e-01	 1.7668625858e+00	-1.3448779687e+00
 2.2118419141e-01	 1.7719629972e+00	-1.2873197277e+00
 1.8375242876e-01	 1.7762348765e+00	-1.2262869170e+00
 1.4651815427e-01	 1.7796931648e+00	-1.1614333134e+00
 1.0950433622e-01	 1.7823535594e+00	-1.0919700000e+00
 7.2732928116e-02	 1.7842324485e+00	-1.0167056221e+00
 3.6224854319e-02	 1.7853468447e+00	-9.3408739497e-01
 0.0000000000e+00	 1.7857143204e+00	-8.4224243826e-01
 3.7537143522e-01	 1.7604244943e+00	-1.5241618761e+00
 3.3709517233e-01	 1.7681529195e+00	-1.4824378000e+00
 2.9891559233e-01	 1.7750062480e+00	-1.4332899391e+00
 2.6085970086e-01	 1.7809968516e+00	-1.3784935205e+00
 2.2295358546e-01	 1.7861380644e+00	-1.3192296845e+00
 1.8522238216e-01	 1.7904441173e+00	-1.2561190464e+00
 1.4769024685e-01	 1.7939300706e+00	-1.1892577995e+00
 1.1038033155e-01	 1.7966117474e+00	-1.1182558744e+00
 7.3314765404e-02	 1.7985056669e+00	-1.0422766789e+00
 3.6514640136e-02	 1.7996289779e+00	-9.6007795698e-01
 0.0000000000e+00	 1.7999993933e+00	-8.7005332041e-01
 3.7835044293e-01	 1.7743955044e+00	-1.5563082569e+00
 3.3977041350e-01	 1.7821852637e+00	-1.5172369155e+00
 3.0128783425e-01	 1.7890929813e+00	-1.4687293235e+00
 2.6292992514e-01	 1.7951311272e+00	-1.4131815214e+00
 2.2472298075e-01	 1.8003131416e+00	-1.3523582885e+00
 1.8669233659e-01	 1.8046533680e+00	-1.2874243998e+00
 1.4886234025e-01	 1.8081669863e+00	-1.2189788599e+00
 1.1125632751e-01	 1.8108699454e+00	-1.1470916194e+00
 7.3896603099e-02	 1.8127788954e+00	-1.0713422856e+00
 3.6804426156e-02	 1.8139111211e+00	-9.9086034742e-01
 0.0000000000e+00	 1.8142844762e+00	-9.0436644952e-01
 3.8132945307e-01	 1.7883665260e+00	-1.5889523118e+00
 3.4244565685e-01	 1.7962176193e+00	-1.5526934068e+00
 3.0366007810e-01	 1.8031797261e+00	-1.5049430887e+00
 2.6500015111e-01	 1.8092654145e+00	-1.4487716019e+00
 2.2649237748e-01	 1.8144882303e+00	-1.3865831746e+00
 1.8816229222e-01	 1.8188626303e+00	-1.3201443984e+00
 1.5003443461e-01	 1.8224039137e+00	-1.2506160384e+00
 1.1213232417e-01	 1.8251281550e+00	-1.1785877742e+00
 7.4478441269e-02	 1.8270521355e+00	-1.1041153738e+00
 3.7094212412e-02	 1.8281932760e+00	-1.0267598061e+00
 0.0000000000e+00	 1.8285695708e+00	-9.4562780865e-01
 3.8430846599e-01	 1.8023375606e+00	-1.6218942530e+00
 3.4512090270e-01	 1.8102499881e+00	-1.5885999161e+00
 3.0603232417e-01	 1.8172664841e+00	-1.5417356355e+00
 2.6707037901e-01	 1.8233997149e+00	-1.4850979410e+00
 2.2826177587e-01	 1.8286633323e+00	-1.4217849748e+00
 1.8963224922e-01	 1.8330719058e+00	-1.3542214261e+00
 1.5120653007e-01	 1.8366408544e+00	-1.2841873695e+00
 1.1300832166e-01	 1.8393863780e+00	-1.2128505044e+00
 7.5060279982e-02	 1.8413253889e+00	-1.1408012920e+00
 3.7383998939e-02	 1.8424754442e+00	-1.0680904813e+00
 0.0000000000e+00	 1.8428546786e+00	-9.9426852877e-01
 3.8728748204e-01	 1.8163086099e+00	-1.6549399483e+00
 3.4779615135e-01	 1.8242823715e+00	-1.6247548971e+00
 3.0840457273e-01	 1.8313532568e+00	-1.5789167399e+00
 2.6914060908e-01	 1.8375340302e+00	-1.5219991076e+00
 2.3003117611e-01	 1.8428384492e+00	-1.4578472176e+00
 1.9110220776e-01	 1.8472811963e+00	-1.3895988046e+00
 1.5237862675e-01	 1.8508778101e+00	-1.3197094452e+00
 1.1388432006e-01	 1.8536446159e+00	-1.2499817770e+00
 7.5642119307e-02	 1.8555986573e+00	-1.1815981015e+00
 3.7673785770e-02	 1.8567576274e+00	-1.1151558587e+00
 0.0000000000e+00	 1.8571398015e+00	-1.0507054598e+00
 1.8571398015e+00	 0.0000000000e+00	 3.1127880775e+00
 1.8567576274e+00	 3.7673785770e-02	 2.9931324738e+00
 1.8555986573e+00	 7.5642119307e-02	 2.8755818674e+00
 1.8536446159e+00	 1.1388432006e-01	 2.7595926910e+00
 1.8508778101e+00	 1.5237862675e-01	 2.6444243209e+00
 1.8472811963e+00	 1.9110220776e-01	 2.5291334876e+00
 1.8428384492e+00	 2.3003117611e-01	 2.4125699207e+00
 1.8375340302e+00	 2.6914060908e-01	 2.2933733364e+00
 1.8313532568e+00	 3.0840457273e-01	 2.1699718597e+00
 1.8242823715e+00	 3.4779615135e-01	 2.0405819675e+00
 1.8163086099e+00	 3.8728748204e-01	 1.9032100217e+00
 1.8714259389e+00	 0.0000000000e+00	 3.1492778203e+00
 1.8710408249e+00	 3.7963593180e-02	 3.0093438909e+00
 1.8698729393e+00	 7.6223999950e-02	 2.8760227417e+00
 1.8679038664e+00	 1.1476038068e-01	 2.7483140227e+00
 1.8651157767e+00	 1.5355080667e-01	 2.6249867038e+00
 1.8614914959e+00	 1.9257227070e-01	 2.5045756850e+00
 1.8570145727e+00	 2.3180070201e-01	 2.3853800224e+00
 1.8516693492e+00	 2.7121098618e-01	 2.2654628752e+00
 1.8454410299e+00	 3.1077698976e-01	 2.1426532677e+00
 1.8383157515e+00	 3.5047158999e-01	 2.0145497415e+00
 1.8302806514e+00	 3.9026670964e-01	 1.8785259587e+00
 1.8857120812e+00	 0.0000000000e+00	 3.1923996927e+00
 1.8853240273e+00	 3.8253400692e-02	 3.0286213752e+00
 1.8841472263e+00	 7.6805880798e-02	 2.8770147476e+00
 1.8821631218e+00	 1.1563644160e-01	 2.7359784086e+00
 1.8793537484e+00	 1.5472298701e-01	 2.6036448414e+00
 1.8757018004e+00	 1.9404233414e-01	 2.4778802777e+00
 1.8711907011e+00	 2.3357022852e-01	 2.3562866268e+00
 1.8658046731e+00	 2.7328136399e-01	 2.2362055732e+00
 1.8595288079e+00	 3.1314940761e-01	 2.1147249273e+00
 1.8523491364e+00	 3.5314702957e-01	 1.9886872894e+00
 1.8442526977e+00	 3.9324593829e-01	 1.8547010676e+00
 1.8999982169e+00	 0.0000000000e+00	 3.2427487899e+00
 1.8996072231e+00	 3.8543208069e-02	 3.0513726471e+00
 1.8984215067e+00	 7.7387761375e-02	 2.8787920042e+00
 1.8964223706e+00	 1.1651250211e-01	 2.7226635297e+00
 1.8935917134e+00	 1.5589516679e-01	 2.5803405530e+00
 1.8899120983e+00	 1.9551239691e-01	 2.4488772206e+00
 1.8853668230e+00	 2.3533975421e-01	 2.3250352399e+00
 1.8799399905e+00	 2.7535174085e-01	 2.2052933022e+00
 1.8736165794e+00	 3.1552182436e-01	 2.0858592566e+00
 1.8663825147e+00	 3.5582246790e-01	 1.9626850724e+00
 1.8582247375e+00	 3.9622516554e-01	 1.8314846014e+00
 1.9142843343e+00	 0.0000000000e+00	 3.3009029638e+00
 1.9138904006e+00	 3.8833015074e-02	 3.0779937361e+00
 1.9126957687e+00	 7.7969641205e-02	 2.8815820894e+00
 1.9106816011e+00	 1.1738856150e-01	 2.7084451708e+00
 1.9078296602e+00	 1.5706734507e-01	 2.5550177980e+00
 1.9041223779e+00	 1.9698245778e-01	 2.4174019350e+00
 1.8995429267e+00	 2.3710927764e-01	 2.2913793465e+00
 1.8940752897e+00	 2.7742211504e-01	 2.1724275089e+00
 1.8877043328e+00	 3.1789423806e-01	 2.0557388269e+00
 1.8804158751e+00	 3.5849790279e-01	 1.9362431655e+00
 1.8721967594e+00	 3.9920438897e-01	 1.8086336712e+00
 1.9285704216e+00	 0.0000000000e+00	 3.3674234630e+00
 1.9281735481e+00	 3.9122821472e-02	 3.1088694136e+00
 1.9269700008e+00	 7.8551519814e-02	 2.8856062799e+00
 1.9249408017e+00	 1.1826461905e-01	 2.6933972866e+00
 1.9220675770e+00	 1.5823952090e-01	 2.5276225923e+00
 1.9183326278e+00	 1.9845251557e-01	 2.3832951006e+00
 1.9137190005e+00	 2.3887879734e-01	 2.2550801083e+00
 1.9082105592e+00	 2.7949248489e-01	 2.1373188530e+00
 1.9017920566e+00	 3.2026664678e-01	 2.0240559783e+00
 1.8944492059e+00	 3.6117333207e-01	 1.9090708922e+00
 1.8861687519e+00	 4.0218360615e-01	 1.7859129457e+00
 1.9428564673e+00	 0.0000000000e+00	 3.4428555445e+00
 1.9424566539e+00	 3.9412627024e-02	 3.1443736056e+00
 1.9412441912e+00	 7.9133396727e-02	 2.8910797806e+00
 1.9391999606e+00	 1.1914067405e-01	 2.6775920655e+00
 1.9363054523e+00	 1.5941169330e-01	 2.4981029277e+00
 1.9325428361e+00	 1.9992256908e-01	 2.3464024559e+00
 1.9278950331e+00	 2.4064831189e-01	 2.2159060743e+00
 1.9223457875e+00	 2.8156284870e-01	 2.0996868606e+00
 1.9158797393e+00	 3.2263904859e-01	 1.9905124528e+00
 1.9084824959e+00	 3.6384875355e-01	 1.8808864766e+00
 1.9001407037e+00	 4.0516281464e-01	 1.7630943645e+00
 1.9571424596e+00	 0.0000000000e+00	 3.5277290585e+00
 1.9567397063e+00	 3.9702431495e-02	 3.1848697883e+00
 1.9555183284e+00	 7.9715271469e-02	 2.8982119440e+00
 1.9534590664e+00	 1.2001672577e-01	 2.6610999901e+00
 1.9505432745e+00	 1.6058386133e-01	 2.4664086945e+00
 1.9467529915e+00	 2.0139261710e-01	 2.3065746082e+00
 1.9420710127e+00	 2.4241781983e-01	 2.1736329053e+00
 1.9364809631e+00	 2.8363320479e-01	 2.0592595938e+00
 1.9299673694e+00	 3.2501144154e-01	 1.9548190434e+00
 1.9225157334e+00	 3.6652416503e-01	 1.8514167092e+00
 1.9141126033e+00	 4.0814201201e-01	 1.7399568638e+00
 1.9714283870e+00	 0.0000000000e+00	 3.6225590081e+00
 1.9710226938e+00	 3.9992234648e-02	 3.2307113658e+00
 1.9697924006e+00	 8.0297143564e-02	 2.9072064798e+00
 1.9677181072e+00	 1.2089277352e-01	 2.6439898957e+00
 1.9647810319e+00	 1.6175602403e-01	 2.4324916085e+00
 1.9609630821e+00	 2.0286265843e-01	 2.2636668512e+00
 1.9562469278e+00	 2.4418731972e-01	 2.1280431092e+00
 1.9506160743e+00	 2.8570355145e-01	 2.0157733342e+00
 1.9440549354e+00	 3.2738382370e-01	 1.9166952579e+00
 1.9365489071e+00	 3.6919956435e-01	 1.8203966292e+00
 1.9280844394e+00	 4.1112119582e-01	 1.7162861137e+00
 1.9857142377e+00	 0.0000000000e+00	 3.7278460847e+00
 1.9853056047e+00	 4.0282036246e-02	 3.2822420321e+00
 1.9840663961e+00	 8.0879012538e-02	 2.9182616555e+00
 1.9819770716e+00	 1.2176881656e-01	 2.6263290260e+00
 1.9790187128e+00	 1.6292818044e-01	 2.3963051404e+00
 1.9751730965e+00	 2.0433269187e-01	 2.2175389907e+00
 1.9704227669e+00	 2.4595681012e-01	 2.0789257884e+00
 1.9647511096e+00	 2.8777388701e-01	 1.9689722793e+00
 1.9581424259e+00	 3.2975619312e-01	 1.8758689979e+00
 1.9505820055e+00	 3.7187494931e-01	 1.7875692188e+00
 1.9420562004e+00	 4.1410036365e-01	 1.6918742678e+00
 2.0000000000e+00	 0.0000000000e+00	 3.8440771801e+00
 1.9995884272e+00	 4.0571836054e-02	 3.3397961169e+00
 1.9983403035e+00	 8.1460877915e-02	 2.9315704891e+00
 1.9962359477e+00	 1.2264485419e-01	 2.6081830858e+00
 1.9932563058e+00	 1.6410032960e-01	 2.3578044479e+00
 1.9893830231e+00	 2.0580271623e-01	 2.1680551775e+00
 1.9845985183e+00	 2.4772628958e-01	 2.0260763975e+00
 1.9788860576e+00	 2.8984420977e-01	 1.9186082537e+00
 1.9722298292e+00	 3.3212854789e-01	 1.8320762512e+00
 1.9646150171e+00	 3.7455031774e-01	 1.7526851112e+00
 1.9560278751e+00	 4.1707951306e-01	 1.6665197222e+00
 1.8163086099e+00	 3.8728748204e-01	 1.9032100217e+00
 1.8074209225e+00	 4.2684703026e-01	 1.7583643186e+00
 1.7976082076e+00	 4.6644796621e-01	 1.6084116513e+00
 1.7868610796e+00	 5.0605989574e-01	 1.4539968396e+00
 1.7751714043e+00	 5.4565166972e-01	 1.2957311361e+00
 1.7625323575e+00	 5.8519144419e-01	 1.1341890501e+00
 1.7489384807e+00	 6.2464674532e-01	 9.6990515614e-01
 1.7343857336e+00	 6.6398453914e-01	 8.0337089313e-01
 1.7188715419e+00	 7.0317130576e-01	 6.3503136500e-01
 1.7023948409e+00	 7.4217311783e-01	 4.6528216459e-01
 1.6849561144e+00	 7.8095572301e-01	 2.9446625224e-01
 1.8302806514e+00	 3.9026670964e-01	 1.8785259587e+00
 1.8213245950e+00	 4.3013057159e-01	 1.7347798820e+00
 1.8114363953e+00	 4.7003613965e-01	 1.5858052544e+00
 1.8006065945e+00	 5.0995278585e-01	 1.4322616549e+00
 1.7888269958e+00	 5.4984912146e-01	 1.2747753429e+00
 1.7760907225e+00	 5.8969305755e-01	 1.1139359817e+00
 1.7623922742e+00	 6.2945187048e-01	 9.5029332734e-01
 1.7477275794e+00	 6.6909227218e-01	 7.8435388689e-01
 1.7320940440e+00	 7.0858048488e-01	 6.1657755721e-01
 1.7154905951e+00	 7.4788232027e-01	 4.4737426391e-01
 1.6979177205e+00	 7.8696326251e-01	 2.7710063309e-01
 1.8442526977e+00	 3.9324593829e-01	 1.8547010676e+00
 1.8352282723e+00	 4.3341411407e-01	 1.7125202872e+00
 1.8252645878e+00	 4.7362431435e-01	 1.5647465657e+00
 1.8143521142e+00	 5.1384567733e-01	 1.4120979118e+00
 1.8024825921e+00	 5.5404657467e-01	 1.2552585056e+00
 1.7896490923e+00	 5.9419467248e-01	 1.0948749582e+00
 1.7758460723e+00	 6.3425699733e-01	 9.3155251203e-01
 1.7610694298e+00	 6.7420000700e-01	 7.6585118433e-01
 1.7453165507e+00	 7.1398966590e-01	 5.9828186881e-01
 1.7285863540e+00	 7.5359152471e-01	 4.2930241764e-01
 1.7108793310e+00	 7.9297080411e-01	 2.5931373990e-01
 1.8582247375e+00	 3.9622516554e-01	 1.8314846014e+00
 1.8491319431e+00	 4.3669765502e-01	 1.6914119714e+00
 1.8390927739e+00	 4.7721248737e-01	 1.5451324943e+00
 1.8280976275e+00	 5.1773856699e-01	 1.3934653415e+00
 1.8161381820e+00	 5.5824402592e-01	 1.2371946027e+00
 1.8032074557e+00	 5.9869628532e-01	 1.0770647255e+00
 1.7892998642e+00	 6.3906212193e-01	 9.1377586108e-01
 1.7744112740e+00	 6.7930773944e-01	 7.4797912463e-01
 1.7585390512e+00	 7.1939884440e-01	 5.8027178960e-01
 1.7416821068e+00	 7.5930072649e-01	 4.1119244495e-01
 1.7238409356e+00	 7.9897834291e-01	 2.4121615859e-01
 1.8721967594e+00	 3.9920438897e-01	 1.8086336712e+00
 1.8630355961e+00	 4.3998119175e-01	 1.6712869247e+00
 1.8529209422e+00	 4.8080065578e-01	 1.5268633978e+00
 1.8418431231e+00	 5.2163145165e-01	 1.3763252466e+00
 1.8297937544e+00	 5.6244147179e-01	 1.2205975631e+00
 1.8167658018e+00	 6.0319789237e-01	 1.0605626411e+00
 1.8027536389e+00	 6.4386724037e-01	 8.9705410736e-01
 1.7877531011e+00	 6.8441546533e-01	 7.3085093436e-01
 1.7717615348e+00	 7.2480801595e-01	 5.6267136166e-01
 1.7547778427e+00	 7.6500992094e-01	 3.9316676532e-01
 1.7368025235e+00	 8.0498587400e-01	 2.2291552906e-01
 1.8861687519e+00	 4.0218360615e-01	 1.7859129457e+00
 1.8769392200e+00	 4.4326472159e-01	 1.6519824749e+00
 1.8667490815e+00	 4.8438881666e-01	 1.5098429437e+00
 1.8555885899e+00	 5.2552432814e-01	 1.3606404317e+00
 1.8434492981e+00	 5.6663890884e-01	 1.2054812556e+00
 1.8303241193e+00	 6.0769948998e-01	 1.0454247128e+00
 1.8162073853e+00	 6.4867234871e-01	 8.8147564211e-01
 1.8010949001e+00	 6.8952318049e-01	 7.1457682877e-01
 1.7849839906e+00	 7.3021717615e-01	 5.4560129222e-01
 1.7678735512e+00	 7.7071910340e-01	 3.7534450880e-01
 1.7497640841e+00	 8.1099339248e-01	 2.0451663762e-01
 1.9001407037e+00	 4.0516281464e-01	 1.7630943645e+00
 1.8908428032e+00	 4.4654824186e-01	 1.6333410820e+00
 1.8805771804e+00	 4.8797696708e-01	 1.4939779780e+00
 1.8693340166e+00	 5.2941719328e-01	 1.3463751376e+00
 1.8571048020e+00	 5.7083633365e-01	 1.1918594801e+00
 1.8438823974e+00	 6.1220107446e-01	 1.0317056364e+00
 1.8296610924e+00	 6.5347744305e-01	 8.6712658803e-01
 1.8144366603e+00	 6.9463088076e-01	 6.9926410870e-01
 1.7982064079e+00	 7.3562632056e-01	 5.2917906164e-01
 1.7809692214e+00	 7.7642826921e-01	 3.5784162138e-01
 1.7627256070e+00	 8.1700089343e-01	 1.8612150558e-01
 1.9141126033e+00	 4.0814201201e-01	 1.7399568638e+00
 1.9047463346e+00	 4.4983174987e-01	 1.6152101406e+00
 1.8944052278e+00	 4.9156510410e-01	 1.4791783988e+00
 1.8830793920e+00	 5.3331004388e-01	 1.3334949779e+00
 1.8707602549e+00	 5.7503374279e-01	 1.1797459582e+00
 1.8574406248e+00	 6.1670264213e-01	 1.0194588311e+00
 1.8431147493e+00	 6.5828251944e-01	 8.5409086931e-01
 1.8277783707e+00	 6.9973856195e-01	 6.8501725339e-01
 1.8114287758e+00	 7.4103544479e-01	 5.1351902677e-01
 1.7940648428e+00	 7.8213741371e-01	 3.4077096602e-01
 1.7756870815e+00	 8.2300837196e-01	 1.6782947397e-01
 1.9280844394e+00	 4.1112119582e-01	 1.7162861137e+00
 1.9186498027e+00	 4.5311524294e-01	 1.5974417925e+00
 1.9082332122e+00	 4.9515322480e-01	 1.4653570358e+00
 1.8968247048e+00	 5.3720287678e-01	 1.3219668789e+00
 1.8844156457e+00	 5.7923113283e-01	 1.1691543255e+00
 1.8709987905e+00	 6.2120418932e-01	 1.0087364745e+00
 1.8565683450e+00	 6.6308757398e-01	 8.4245027871e-01
 1.8411200203e+00	 7.0484621991e-01	 6.7193800940e-01
 1.8246510835e+00	 7.4644454441e-01	 4.9873252005e-01
 1.8071604046e+00	 7.8784653223e-01	 3.2424241936e-01
 1.7886484970e+00	 8.2901582315e-01	 1.4973728482e-01
 1.9420562004e+00	 4.1410036365e-01	 1.6918742678e+00
 1.9325531962e+00	 4.5639871839e-01	 1.5798927463e+00
 1.9220611224e+00	 4.9874132625e-01	 1.4524295353e+00
 1.9105699439e+00	 5.4109568878e-01	 1.3117590222e+00
 1.8980709632e+00	 5.8342850035e-01	 1.1600981232e+00
 1.8845568835e+00	 6.2570571236e-01	 9.9958953499e-01
 1.8700218686e+00	 6.6789260272e-01	 8.3228454189e-01
 1.8544615984e+00	 7.0995385046e-01	 6.6012547578e-01
 1.8378733203e+00	 7.5185361499e-01	 4.8492794435e-01
 1.8202558961e+00	 7.9355562011e-01	 3.0836296437e-01
 1.8016098430e+00	 8.3502324211e-01	 1.3193915899e-01
 1.9560278751e+00	 4.1707951306e-01	 1.6665197222e+00
 1.9464565037e+00	 4.5968217354e-01	 1.5624241050e+00
 1.9358889471e+00	 5.0232940551e-01	 1.4403142495e+00
 1.9243150980e+00	 5.4498847672e-01	 1.3028407892e+00
 1.9117261962e+00	 5.8762584192e-01	 1.1525907910e+00
 1.8981148926e+00	 6.3020720756e-01	 9.9206780391e-01
 1.8834753089e+00	 6.7269760176e-01	 8.2367137904e-01
 1.8678030939e+00	 7.1506144942e-01	 6.4967618575e-01
 1.8510954753e+00	 7.5726265213e-01	 4.7221086392e-01
 1.8333513066e+00	 7.9926467270e-01	 2.9323677921e-01
 1.8145711088e+00	 8.4103062392e-01	 1.1452687087e-01
 1.6849561144e+00	 7.8095572301e-01	 2.9446625224e-01
 1.6665561086e+00	 8.1948731574e-01	 1.2185190198e-01
 1.6471996957e+00	 8.5773051598e-01	-5.2335416798e-02
 1.6268921952e+00	 8.9565060726e-01	-2.2642354606e-01
 1.6056405746e+00	 9.3321291005e-01	-3.9879017332e-01
 1.5834534587e+00	 9.7038287813e-01	-5.6787624916e-01
 1.5603411318e+00	 1.0071261964e+00	-7.3219921997e-01
 1.5363155340e+00	 1.0434088797e+00	-8.9036585700e-01
 1.5113902491e+00	 1.0791973714e+00	-1.0410844513e+00
 1.4855804868e+00	 1.1144586423e+00	-1.1831761383e+00
 1.4589030567e+00	 1.1491602880e+00	-1.3155851151e+00
 1.6979177205e+00	 7.8696326251e-01	 2.7710063309e-01
 1.6793761717e+00	 8.2579126137e-01	 1.0504991545e-01
 1.6598708587e+00	 8.6432864927e-01	-6.8534809076e-02
 1.6394071418e+00	 9.0254044268e-01	-2.4197853832e-01
 1.6179920421e+00	 9.4039169529e-01	-4.1365532494e-01
 1.5956342506e+00	 9.7784759514e-01	-5.8200197655e-01
 1.5723441311e+00	 1.0148735632e+00	-7.4553159528e-01
 1.5481337152e+00	 1.0514353528e+00	-9.0284673139e-01
 1.5230166914e+00	 1.0874991492e+00	-1.0526519135e+00
 1.4970083862e+00	 1.1230316690e+00	-1.1937653106e+00
 1.4701257387e+00	 1.1580002588e+00	-1.3251292799e+00
 1.7108793310e+00	 7.9297080411e-01	 2.5931373990e-01
 1.6921962393e+00	 8.3209520921e-01	 8.7663029789e-02
 1.6725420261e+00	 8.7092678487e-01	-8.5387571624e-02
 1.6519220927e+00	 9.0943028052e-01	-2.5817371575e-01
 1.6303435138e+00	 9.4757048305e-01	-4.2907971623e-01
 1.6078150469e+00	 9.8531231476e-01	-5.9655244679e-01
 1.5843471346e+00	 1.0226209327e+00	-7.5911509918e-01
 1.5599519006e+00	 1.0594618286e+00	-9.1538057035e-01
 1.5346431377e+00	 1.0958009298e+00	-1.0640642345e+00
 1.5084362896e+00	 1.1316046988e+00	-1.2039958479e+00
 1.4813484247e+00	 1.1668402328e+00	-1.3341303323e+00
 1.7238409356e+00	 7.9897834291e-01	 2.4121615859e-01
 1.7050163009e+00	 8.3839915411e-01	 6.9779122341e-02
 1.6852131876e+00	 8.7752491739e-01	-1.0282928002e-01
 1.6644370378e+00	 9.1632011513e-01	-2.7496859275e-01
 1.6426949798e+00	 9.5474926745e-01	-4.4504702289e-01
 1.6199958374e+00	 9.9277703091e-01	-6.1153545211e-01
 1.5963501325e+00	 1.0303682985e+00	-7.7298132611e-01
 1.5717700804e+00	 1.0674883007e+00	-9.2802218558e-01
 1.5462695786e+00	 1.1041027066e+00	-1.0753985884e+00
 1.5198641877e+00	 1.1401777245e+00	-1.2139661638e+00
 1.4925711054e+00	 1.1756802026e+00	-1.3427065379e+00
 1.7368025235e+00	 8.0498587400e-01	 2.2291552906e-01
 1.7178363460e+00	 8.4470309092e-01	 5.1483802211e-02
 1.6978843328e+00	 8.8412304145e-01	-1.2079707683e-01
 1.6769519668e+00	 9.2320994091e-01	-2.9232353344e-01
 1.6550464299e+00	 9.6192804265e-01	-4.6154104455e-01
 1.6321766123e+00	 1.0002417375e+00	-6.2695818204e-01
 1.6083531149e+00	 1.0381156544e+00	-7.8716054792e-01
 1.5835882451e+00	 1.0755147625e+00	-9.4082436072e-01
 1.5578960046e+00	 1.1124044727e+00	-1.0867294375e+00
 1.5312920711e+00	 1.1487507393e+00	-1.2237713063e+00
 1.5037937717e+00	 1.1845201611e+00	-1.3509721800e+00
 1.7497640841e+00	 8.1099339248e-01	 2.0451663762e-01
 1.7306563643e+00	 8.5100701449e-01	 3.2860476690e-02
 1.7105554514e+00	 8.9072115165e-01	-1.3922963208e-01
 1.6894668695e+00	 9.3009975221e-01	-3.1019973968e-01
 1.6673978541e+00	 9.6910680277e-01	-4.7854572072e-01
 1.6443573617e+00	 1.0077064284e+00	-6.4282726728e-01
 1.6203560722e+00	 1.0458629941e+00	-8.0168178538e-01
 1.5954063849e+00	 1.0835412075e+00	-9.5383794997e-01
 1.5695224062e+00	 1.1207062214e+00	-1.0981286579e+00
 1.5427199306e+00	 1.1573237361e+00	-1.2335031078e+00
 1.5150164144e+00	 1.1933601010e+00	-1.3590377330e+00
 1.7627256070e+00	 8.1700089343e-01	 1.8612150558e-01
 1.7434763451e+00	 8.5731091967e-01	 1.3990414890e-02
 1.7232265331e+00	 8.9731924260e-01	-1.5806710544e-01
 1.7019817358e+00	 9.3698954343e-01	-3.2855923953e-01
 1.6797492423e+00	 9.7628554195e-01	-4.9604514586e-01
 1.6565380755e+00	 1.0151710975e+00	-6.5914882142e-01
 1.6323589945e+00	 1.0536103111e+00	-8.1657287642e-01
 1.6072244903e+00	 1.0915676290e+00	-9.6711197221e-01
 1.5811487738e+00	 1.1290079459e+00	-1.1096656577e+00
 1.5541477567e+00	 1.1658967078e+00	-1.2432503286e+00
 1.5262390244e+00	 1.2022000151e+00	-1.3670100283e+00
 1.7756870815e+00	 8.2300837196e-01	 1.6782947397e-01
 1.7562962781e+00	 8.6361480132e-01	-5.0471912776e-03
 1.7358975675e+00	 9.0391730893e-01	-1.7725110976e-01
 1.7144965553e+00	 9.4387930892e-01	-3.4736487604e-01
 1.6921005844e+00	 9.8346425433e-01	-5.1402358368e-01
 1.6687187438e+00	 1.0226357387e+00	-6.7592848082e-01
 1.6443618720e+00	 1.0613575992e+00	-8.3186054127e-01
 1.6190425516e+00	 1.0995940206e+00	-9.8069370105e-01
 1.5927750981e+00	 1.1373096393e+00	-1.1214074922e+00
 1.5655755401e+00	 1.1744696476e+00	-1.2530987937e+00
 1.5374615925e+00	 1.2110398962e+00	-1.3749924136e+00
 1.7886484970e+00	 8.2901582315e-01	 1.4973728482e-01
 1.7691161528e+00	 8.6991865429e-01	-2.4175168627e-02
 1.7485685442e+00	 9.1051534523e-01	-1.9672467624e-01
 1.7270113179e+00	 9.5076904306e-01	-3.6658029647e-01
 1.7044518703e+00	 9.9064293405e-01	-5.3246548072e-01
 1.6808993568e+00	 1.0301003460e+00	-6.9317144260e-01
 1.6563646948e+00	 1.0691048521e+00	-8.4757044467e-01
 1.6308605591e+00	 1.1076203757e+00	-9.9462875073e-01
 1.6044013695e+00	 1.1456112950e+00	-1.1334189721e+00
 1.5770032715e+00	 1.1830425483e+00	-1.2631315244e+00
 1.5486841095e+00	 1.2198797371e+00	-1.3830849042e+00
 1.8016098430e+00	 8.3502324211e-01	 1.3193915899e-01
 1.7819359587e+00	 8.7622247343e-01	-4.3318306625e-02
 1.7612394529e+00	 9.1711334613e-01	-2.1643222085e-01
 1.7395260133e+00	 9.5765874023e-01	-3.8616994177e-01
 1.7168030898e+00	 9.9782157524e-01	-5.5135547920e-01
 1.6930799043e+00	 1.0375649132e+00	-7.1088250084e-01
 1.6683674532e+00	 1.0768520634e+00	-8.6372725532e-01
 1.6426785031e+00	 1.1156466877e+00	-1.0089611583e+00
 1.6160275784e+00	 1.1539129062e+00	-1.1457627680e+00
 1.5884309417e+00	 1.1916154031e+00	-1.2734288631e+00
 1.5599065664e+00	 1.2287195306e+00	-1.3913843290e+00
 1.8145711088e+00	 8.4103062392e-01	 1.1452687087e-01
 1.7947556852e+00	 8.8252625359e-01	-6.2403303578e-02
 1.7739102832e+00	 9.2371130622e-01	-2.3631951208e-01
 1.7520406314e+00	 9.6454839480e-01	-4.0609903645e-01
 1.7291542331e+00	 1.0050001720e+00	-5.7067842921e-01
 1.7052603765e+00	 1.0450294343e+00	-7.2906608124e-01
 1.6803701375e+00	 1.0845992268e+00	-8.8035470261e-01
 1.6544963742e+00	 1.1236729500e+00	-1.0237334621e+00
 1.6276537155e+00	 1.1622144660e+00	-1.1584995098e+00
 1.5998585411e+00	 1.2001882048e+00	-1.2840685931e+00
 1.5711289538e+00	 1.2375592694e+00	-1.3999844685e+00
 1.4589030567e+00	 1.1491602880e+00	-1.3155851151e+00
 1.4313763324e+00	 1.1832706289e+00	-1.4376608065e+00
 1.4030201994e+00	 1.2167588134e+00	-1.5488686261e+00
 1.3738560214e+00	 1.2495949002e+00	-1.6486741514e+00
 1.3439065921e+00	 1.2817499431e+00	-1.7377230481e+00
 1.3131960758e+00	 1.3131960758e+00	-1.8168362431e+00
 1.2817499431e+00	 1.3439065921e+00	-1.8869788168e+00
 1.2495949002e+00	 1.3738560214e+00	-1.9492331201e+00
 1.2167588134e+00	 1.4030201994e+00	-2.0047686543e+00
 1.1832706289e+00	 1.4313763324e+00	-2.0547633370e+00
 1.1491602880e+00	 1.4589030567e+00	-2.0948767228e+00
 1.4701257387e+00	 1.1580002588e+00	-1.3251292799e+00
 1.4423872638e+00	 1.1923729951e+00	-1.4461291161e+00
 1.4138129998e+00	 1.2261187891e+00	-1.5567566071e+00
 1.3844244750e+00	 1.2592074691e+00	-1.6562248042e+00
 1.3542446582e+00	 1.2916098662e+00	-1.7450846492e+00
 1.3232978998e+00	 1.3232978998e+00	-1.8242662682e+00
 1.2916098662e+00	 1.3542446582e+00	-1.8948499878e+00
 1.2592074691e+00	 1.3844244750e+00	-1.9580377055e+00
 1.2261187891e+00	 1.4138129998e+00	-2.0151208316e+00
 1.1923729951e+00	 1.4423872638e+00	-2.0663202063e+00
 1.1580002588e+00	 1.4701257387e+00	-2.1057588818e+00
 1.4813484247e+00	 1.1668402328e+00	-1.3341303323e+00
 1.4533981990e+00	 1.2014753646e+00	-1.4539084057e+00
 1.4246058040e+00	 1.2354787682e+00	-1.5636417315e+00
 1.3949929323e+00	 1.2688200414e+00	-1.6627948188e+00
 1.3645827280e+00	 1.3014697928e+00	-1.7515585911e+00
 1.3333997274e+00	 1.3333997274e+00	-1.8309756035e+00
 1.3014697928e+00	 1.3645827280e+00	-1.9022411875e+00
 1.2688200414e+00	 1.3949929323e+00	-1.9666730196e+00
 1.2354787682e+00	 1.4246058040e+00	-2.0256770904e+00
 1.2014753646e+00	 1.4533981990e+00	-2.0771182444e+00
 1.1668402328e+00	 1.4813484247e+00	-2.1163243737e+00
 1.4925711054e+00	 1.1756802026e+00	-1.3427065379e+00
 1.4644091290e+00	 1.2105777298e+00	-1.4611300778e+00
 1.4353986032e+00	 1.2448387428e+00	-1.5696926965e+00
 1.4055613847e+00	 1.2784326092e+00	-1.6684937724e+00
 1.3749207930e+00	 1.3113297148e+00	-1.7572310607e+00
 1.3435015503e+00	 1.3435015503e+00	-1.8370143114e+00
 1.3113297148e+00	 1.3749207930e+00	-1.9091536130e+00
 1.2784326092e+00	 1.4055613847e+00	-1.9750787148e+00
 1.2448387428e+00	 1.4353986032e+00	-2.0360474729e+00
 1.2105777298e+00	 1.4644091290e+00	-2.0869948463e+00
 1.1756802026e+00	 1.4925711054e+00	-2.1263136140e+00
 1.5037937717e+00	 1.1845201611e+00	-1.3509721800e+00
 1.4754200450e+00	 1.2196800834e+00	-1.4679211301e+00
 1.4461913885e+00	 1.2541987055e+00	-1.5752097907e+00
 1.4161298235e+00	 1.2880451647e+00	-1.6734274623e+00
 1.3852588447e+00	 1.3211896242e+00	-1.7621850921e+00
 1.3536033602e+00	 1.3536033602e+00	-1.8424302783e+00
 1.3211896242e+00	 1.3852588447e+00	-1.9155876137e+00
 1.2880451647e+00	 1.4161298235e+00	-1.9831952762e+00
 1.2541987055e+00	 1.4461913885e+00	-2.0451810717e+00
 1.2196800834e+00	 1.4754200450e+00	-2.0957933992e+00
 1.1845201611e+00	 1.5037937717e+00	-2.1354758525e+00
 1.5150164144e+00	 1.1933601010e+00	-1.3590377330e+00
 1.4864309378e+00	 1.2287824178e+00	-1.4744043468e+00
 1.4569841512e+00	 1.2635586485e+00	-1.5803332203e+00
 1.4266982401e+00	 1.2976577000e+00	-1.6776981791e+00
 1.3955968747e+00	 1.3310495128e+00	-1.7665008163e+00
 1.3637051488e+00	 1.3637051488e+00	-1.8472694256e+00
 1.3310495128e+00	 1.3955968747e+00	-1.9215428492e+00
 1.2976577000e+00	 1.4266982401e+00	-1.9909641126e+00
 1.2635586485e+00	 1.4569841512e+00	-2.0529173167e+00
 1.2287824178e+00	 1.4864309378e+00	-2.1033630875e+00
 1.1933601010e+00	 1.5150164144e+00	-2.1435688716e+00
 1.5262390244e+00	 1.2022000151e+00	-1.3670100283e+00
 1.4974417985e+00	 1.2378847257e+00	-1.4806984798e+00
 1.4677768824e+00	 1.2729185642e+00	-1.5851826408e+00
 1.4372666258e+00	 1.3072702072e+00	-1.6814821082e+00
 1.4059348745e+00	 1.3409093727e+00	-1.7702557029e+00
 1.3738069081e+00	 1.3738069081e+00	-1.8515759149e+00
 1.3409093727e+00	 1.4059348745e+00	-1.9270184444e+00
 1.3072702072e+00	 1.4372666258e+00	-1.9979479598e+00
 1.2729185642e+00	 1.4677768824e+00	-2.0591885878e+00
 1.2378847257e+00	 1.4974417985e+00	-2.1095587038e+00
 1.2022000151e+00	 1.5262390244e+00	-2.1503586971e+00
 1.5374615925e+00	 1.2110398962e+00	-1.3749924136e+00
 1.5084526181e+00	 1.2469869996e+00	-1.4869184228e+00
 1.4785695733e+00	 1.2822784449e+00	-1.5898737915e+00
 1.4478349722e+00	 1.3168826786e+00	-1.6850291479e+00
 1.4162728357e+00	 1.3507691958e+00	-1.7735247956e+00
 1.3839086296e+00	 1.3839086296e+00	-1.8553923487e+00
 1.3507691958e+00	 1.4162728357e+00	-1.9320131415e+00
 1.3168826786e+00	 1.4478349722e+00	-2.0033898151e+00
 1.2822784449e+00	 1.4785695733e+00	-2.0639304783e+00
 1.2469869996e+00	 1.5084526181e+00	-2.1142404678e+00
 1.2110398962e+00	 1.5374615925e+00	-2.1556193206e+00
 1.5486841095e+00	 1.2198797371e+00	-1.3830849042e+00
 1.5194633876e+00	 1.2560892321e+00	-1.4931753777e+00
 1.4893622151e+00	 1.2916382831e+00	-1.5945186647e+00
 1.4584032704e+00	 1.3264951062e+00	-1.6884451710e+00
 1.4266107499e+00	 1.3606289740e+00	-1.7763809415e+00
 1.3940103051e+00	 1.3940103051e+00	-1.8587599649e+00
 1.3606289740e+00	 1.4266107499e+00	-1.9365254493e+00
 1.3264951062e+00	 1.4584032704e+00	-2.0072722977e+00
 1.2916382831e+00	 1.4893622151e+00	-2.0670817007e+00
 1.2560892321e+00	 1.5194633876e+00	-2.1172738516e+00
 1.2198797371e+00	 1.5486841095e+00	-2.1591324325e+00
 1.5599065664e+00	 1.2287195306e+00	-1.3913843290e+00
 1.5304740980e+00	 1.2651914157e+00	-1.4995770135e+00
 1.5001547989e+00	 1.3009980710e+00	-1.5992256678e+00
 1.4689715119e+00	 1.3361074823e+00	-1.6918290406e+00
 1.4369486087e+00	 1.3704886993e+00	-1.7789643599e+00
 1.4041119265e+00	 1.4041119265e+00	-1.8617188285e+00
 1.3704886993e+00	 1.4369486087e+00	-1.9402340494e+00
 1.3361074823e+00	 1.4689715119e+00	-2.0095979397e+00
 1.3009980710e+00	 1.5001547989e+00	-2.0685839954e+00
 1.2651914157e+00	 1.5304740980e+00	-2.1185294110e+00
 1.2287195306e+00	 1.5599065664e+00	-2.1606871652e+00
 1.5711289538e+00	 1.2375592694e+00	-1.3999844685e+00
 1.5414847404e+00	 1.2742935431e+00	-1.5062276184e+00
 1.5109473161e+00	 1.3103578011e+00	-1.6040997775e+00
 1.4795396881e+00	 1.3457197989e+00	-1.6952764277e+00
 1.4472864035e+00	 1.3803483636e+00	-1.7814873351e+00
 1.4142134854e+00	 1.4142134854e+00	-1.8643080174e+00
 1.3803483636e+00	 1.4472864035e+00	-1.9425238302e+00
 1.3457197989e+00	 1.4795396881e+00	-2.0103705260e+00
 1.3103578011e+00	 1.5109473161e+00	-2.0683820418e+00
 1.2742935431e+00	 1.5414847404e+00	-2.1178826231e+00
 1.2375592694e+00	 1.5711289538e+00	-2.1600798467e+00
 1.1491602880e+00	 1.4589030567e+00	-2.0948767228e+00
 1.1144586423e+00	 1.4855804868e+00	-2.1222869785e+00
 1.0791973714e+00	 1.5113902491e+00	-2.1382825852e+00
 1.0434088797e+00	 1.5363155340e+00	-2.1442853344e+00
 1.0071261964e+00	 1.5603411318e+00	-2.1415879752e+00
 9.7038287813e-01	 1.5834534587e+00	-2.1313462334e+00
 9.3321291005e-01	 1.6056405746e+00	-2.1145726589e+00
 8.9565060726e-01	 1.6268921952e+00	-2.0921323135e+00
 8.5773051598e-01	 1.6471996957e+00	-2.0647402809e+00
 8.1948731574e-01	 1.6665561086e+00	-2.0329609580e+00
 7.8095572301e-01	 1.6849561144e+00	-1.9972090617e+00
 1.1580002588e+00	 1.4701257387e+00	-2.1057588818e+00
 1.1230316690e+00	 1.4970083862e+00	-2.1329661134e+00
 1.0874991492e+00	 1.5230166914e+00	-2.1489596701e+00
 1.0514353528e+00	 1.5481337152e+00	-2.1551151075e+00
 1.0148735632e+00	 1.5723441311e+00	-2.1526713616e+00
 9.7784759514e-01	 1.5956342506e+00	-2.1427231908e+00
 9.4039169529e-01	 1.6179920421e+00	-2.1262155145e+00
 9.0254044268e-01	 1.6394071418e+00	-2.1039396525e+00
 8.6432864927e-01	 1.6598708587e+00	-2.0765314367e+00
 8.2579126137e-01	 1.6793761717e+00	-2.0444711456e+00
 7.8696326251e-01	 1.6979177205e+00	-2.0080851872e+00
 1.1668402328e+00	 1.4813484247e+00	-2.1163243737e+00
 1.1316046988e+00	 1.5084362896e+00	-2.1437745906e+00
 1.0958009298e+00	 1.5346431377e+00	-2.1601743920e+00
 1.0594618286e+00	 1.5599519006e+00	-2.1668143754e+00
 1.0226209327e+00	 1.5843471346e+00	-2.1648516391e+00
 9.8531231476e-01	 1.6078150469e+00	-2.1553027139e+00
 9.4757048305e-01	 1.6303435138e+00	-2.1390383700e+00
 9.0943028052e-01	 1.6519220927e+00	-2.1167802971e+00
 8.7092678487e-01	 1.6725420261e+00	-2.0890996250e+00
 8.3209520921e-01	 1.6921962393e+00	-2.0564172270e+00
 7.9297080411e-01	 1.7108793310e+00	-2.0190057273e+00
 1.1756802026e+00	 1.4925711054e+00	-2.1263136140e+00
 1.1401777245e+00	 1.5198641877e+00	-2.1543668491e+00
 1.1041027066e+00	 1.5462695786e+00	-2.1715298500e+00
 1.0674883007e+00	 1.5717700804e+00	-2.1789702363e+00
 1.0303682985e+00	 1.5963501325e+00	-2.1777357876e+00
 9.9277703091e-01	 1.6199958374e+00	-2.1687479281e+00
 9.5474926745e-01	 1.6426949798e+00	-2.1527969808e+00
 9.1632011513e-01	 1.6644370378e+00	-2.1305391801e+00
 8.7752491739e-01	 1.6852131876e+00	-2.1024954098e+00
 8.3839915411e-01	 1.7050163009e+00	-2.0690516045e+00
 7.9897834291e-01	 1.7238409356e+00	-2.0304607361e+00
 1.1845201611e+00	 1.5037937717e+00	-2.1354758525e+00
 1.1487507393e+00	 1.5312920711e+00	-2.1644086733e+00
 1.1124044727e+00	 1.5578960046e+00	-2.1826419634e+00
 1.0755147625e+00	 1.5835882451e+00	-2.1911830277e+00
 1.0381156544e+00	 1.6083531149e+00	-2.1909433714e+00
 1.0002417375e+00	 1.6321766123e+00	-2.1827328036e+00
 9.6192804265e-01	 1.6550464299e+00	-2.1672551161e+00
 9.2320994091e-01	 1.6769519668e+00	-2.1451053236e+00
 8.8412304145e-01	 1.6978843328e+00	-2.1167684287e+00
 8.4470309092e-01	 1.7178363460e+00	-2.0826196553e+00
 8.0498587400e-01	 1.7368025235e+00	-2.0429260717e+00
 1.1933601010e+00	 1.5150164144e+00	-2.1435688716e+00
 1.1573237361e+00	 1.5427199306e+00	-2.1735767980e+00
 1.1207062214e+00	 1.5695224062e+00	-2.1931390229e+00
 1.0835412075e+00	 1.5954063849e+00	-2.2030658614e+00
 1.0458629941e+00	 1.6203560722e+00	-2.2041060989e+00
 1.0077064284e+00	 1.6443573617e+00	-2.1969417796e+00
 9.6910680277e-01	 1.6673978541e+00	-2.1821842885e+00
 9.3009975221e-01	 1.6894668695e+00	-2.1603717138e+00
 8.9072115165e-01	 1.7105554514e+00	-2.1319674543e+00
 8.5100701449e-01	 1.7306563643e+00	-2.0973600188e+00
 8.1099339248e-01	 1.7497640841e+00	-2.0568639502e+00
 1.2022000151e+00	 1.5262390244e+00	-2.1503586971e+00
 1.1658967078e+00	 1.5541477567e+00	-2.1815585307e+00
 1.1290079459e+00	 1.5811487738e+00	-2.2026612607e+00
 1.0915676290e+00	 1.6072244903e+00	-2.2142441790e+00
 1.0536103111e+00	 1.6323589945e+00	-2.2168674014e+00
 1.0151710975e+00	 1.6565380755e+00	-2.2110694054e+00
 9.7628554195e-01	 1.6797492423e+00	-2.1973634950e+00
 9.3698954343e-01	 1.7019817358e+00	-2.1762351821e+00
 8.9731924260e-01	 1.7232265331e+00	-2.1481404523e+00
 8.5731091967e-01	 1.7434763451e+00	-2.1135048712e+00
 8.1700089343e-01	 1.7627256070e+00	-2.0727234735e+00
 1.2110398962e+00	 1.5374615925e+00	-2.1556193206e+00
 1.1744696476e+00	 1.5655755401e+00	-2.1880513888e+00
 1.1373096393e+00	 1.5927750981e+00	-2.2108604372e+00
 1.0995940206e+00	 1.6190425516e+00	-2.2243553249e+00
 1.0613575992e+00	 1.6443618720e+00	-2.2288820289e+00
 1.0226357387e+00	 1.6687187438e+00	-2.2248199955e+00
 9.8346425433e-01	 1.6921005844e+00	-2.2125789686e+00
 9.4387930892e-01	 1.7144965553e+00	-2.1925962889e+00
 9.0391730893e-01	 1.7358975675e+00	-2.1653346368e+00
 8.6361480132e-01	 1.7562962781e+00	-2.1312801869e+00
 8.2300837196e-01	 1.7756870815e+00	-2.0909411341e+00
 1.2198797371e+00	 1.5486841095e+00	-2.1591324325e+00
 1.1830425483e+00	 1.5770032715e+00	-2.1927627508e+00
 1.1456112950e+00	 1.6044013695e+00	-2.2173994457e+00
 1.1076203757e+00	 1.6308605591e+00	-2.2330481377e+00
 1.0691048521e+00	 1.6563646948e+00	-2.2398156626e+00
 1.0301003460e+00	 1.6808993568e+00	-2.2379072981e+00
 9.9064293405e-01	 1.7044518703e+00	-2.2276239392e+00
 9.5076904306e-01	 1.7270113179e+00	-2.2093592133e+00
 9.1051534523e-01	 1.7485685442e+00	-2.1835965216e+00
 8.6991865429e-01	 1.7691161528e+00	-2.1509059884e+00
 8.2901582315e-01	 1.7886484970e+00	-2.1119412976e+00
 1.2287195306e+00	 1.5599065664e+00	-2.1606871652e+00
 1.1916154031e+00	 1.5884309417e+00	-2.1954095229e+00
 1.1539129062e+00	 1.6160275784e+00	-2.2219519320e+00
 1.1156466877e+00	 1.6426785031e+00	-2.2399825575e+00
 1.0768520634e+00	 1.6683674532e+00	-2.2493445427e+00
 1.0375649132e+00	 1.6930799043e+00	-2.2500541785e+00
 9.9782157524e-01	 1.7168030898e+00	-2.2422984049e+00
 9.5765874023e-01	 1.7395260133e+00	-2.2264316451e+00
 9.1711334613e-01	 1.7612394529e+00	-2.2029719688e+00
 8.7622247343e-01	 1.7819359587e+00	-2.1725965840e+00
 8.3502324211e-01	 1.8016098430e+00	-2.1361366627e+00
 1.2375592694e+00	 1.5711289538e+00	-2.1600798467e+00
 1.2001882048e+00	 1.5998585411e+00	-2.1957178167e+00
 1.1622144660e+00	 1.6276537155e+00	-2.2242019302e+00
 1.1236729500e+00	 1.6544963742e+00	-2.2448292484e+00
 1.0845992268e+00	 1.6803701375e+00	-2.2571551118e+00
 1.0450294343e+00	 1.7052603765e+00	-2.2609923134e+00
 1.0050001720e+00	 1.7291542331e+00	-2.2564089109e+00
 9.6454839480e-01	 1.7520406314e+00	-2.2437246819e+00
 9.2371130622e-01	 1.7739102832e+00	-2.2235062348e+00
 8.8252625359e-01	 1.7947556852e+00	-2.1965607951e+00
 8.4103062392e-01	 1.8145711088e+00	-2.1639287019e+00
 7.8095572301e-01	 1.6849561144e+00	-1.9972090617e+00
 7.4217311783e-01	 1.7023948409e+00	-1.9595956186e+00
 7.0317130576e-01	 1.7188715419e+00	-1.9219199683e+00
 6.6398453914e-01	 1.7343857336e+00	-1.8841689134e+00
 6.2464674532e-01	 1.7489384807e+00	-1.8465169293e+00
 5.8519144419e-01	 1.7625323575e+00	-1.8093223197e+00
 5.4565166972e-01	 1.7751714043e+00	-1.7731224008e+00
 5.0605989574e-01	 1.7868610796e+00	-1.7386277917e+00
 4.6644796621e-01	 1.7976082076e+00	-1.7067159017e+00
 4.2684703026e-01	 1.8074209225e+00	-1.6784237114e+00
 3.8728748204e-01	 1.8163086099e+00	-1.6549399483e+00
 7.8696326251e-01	 1.6979177205e+00	-2.0080851872e+00
 7.4788232027e-01	 1.7154905951e+00	-1.9700228961e+00
 7.0858048488e-01	 1.7320940440e+00	-1.9326403945e+00
 6.6909227218e-01	 1.7477275794e+00	-1.8958651575e+00
 6.2945187048e-01	 1.7623922742e+00	-1.8598175593e+00
 5.8969305755e-01	 1.7760907225e+00	-1.8248071517e+00
 5.4984912146e-01	 1.7888269958e+00	-1.7913279166e+00
 5.0995278585e-01	 1.8006065945e+00	-1.7600525760e+00
 4.7003613965e-01	 1.8114363953e+00	-1.7318260502e+00
 4.3013057159e-01	 1.8213245950e+00	-1.7076581666e+00
 3.9026670964e-01	 1.8302806514e+00	-1.6887157241e+00
 7.9297080411e-01	 1.7108793310e+00	-2.0190057273e+00
 7.5359152471e-01	 1.7285863540e+00	-1.9800867458e+00
 7.1398966590e-01	 1.7453165507e+00	-1.9426366227e+00
 6.7420000700e-01	 1.7610694298e+00	-1.9065885214e+00
 6.3425699733e-01	 1.7758460723e+00	-1.8720462638e+00
 5.9419467248e-01	 1.7896490923e+00	-1.8392813855e+00
 5.5404657467e-01	 1.8024825921e+00	-1.8087292986e+00
 5.1384567733e-01	 1.8143521142e+00	-1.7809846305e+00
 4.7362431435e-01	 1.8252645878e+00	-1.7567958176e+00
 4.3341411407e-01	 1.8352282723e+00	-1.7370590406e+00
 3.9324593829e-01	 1.8442526977e+00	-1.7228115948e+00
 7.9897834291e-01	 1.7238409356e+00	-2.0304607361e+00
 7.5930072649e-01	 1.7416821068e+00	-1.9904856006e+00
 7.1939884440e-01	 1.7585390512e+00	-1.9527207524e+00
 6.7930773944e-01	 1.7744112740e+00	-1.9171692832e+00
 6.3906212193e-01	 1.7892998642e+00	-1.8839556414e+00
 5.9869628532e-01	 1.8032074557e+00	-1.8533241107e+00
 5.5824402592e-01	 1.8161381820e+00	-1.8256367124e+00
 5.1773856699e-01	 1.8280976275e+00	-1.8013705701e+00
 4.7721248737e-01	 1.8390927739e+00	-1.7811147865e+00
 4.3669765502e-01	 1.8491319431e+00	-1.7655668894e+00
 3.9622516554e-01	 1.8582247375e+00	-1.7555289068e+00
 8.0498587400e-01	 1.7368025235e+00	-2.0429260717e+00
 7.6500992094e-01	 1.7547778427e+00	-2.0018973987e+00
 7.2480801595e-01	 1.7717615348e+00	-1.9636809154e+00
 6.8441546533e-01	 1.7877531011e+00	-1.9284131288e+00
 6.4386724037e-01	 1.8027536389e+00	-1.8962759347e+00
 6.0319789237e-01	 1.8167658018e+00	-1.8674971574e+00
 5.6244147179e-01	 1.8297937544e+00	-1.8423510086e+00
 5.2163145165e-01	 1.8418431231e+00	-1.8211584630e+00
 4.8080065578e-01	 1.8529209422e+00	-1.8042875525e+00
 4.3998119175e-01	 1.8630355961e+00	-1.7921535883e+00
 3.9920438897e-01	 1.8721967594e+00	-1.7852193244e+00
 8.1099339248e-01	 1.7497640841e+00	-2.0568639502e+00
 7.7071910340e-01	 1.7678735512e+00	-2.0149803705e+00
 7.3021717615e-01	 1.7849839906e+00	-1.9762821906e+00
 6.8952318049e-01	 1.8010949001e+00	-1.9411020898e+00
 6.4867234871e-01	 1.8162073853e+00	-1.9097158854e+00
 6.0769948998e-01	 1.8303241193e+00	-1.8823457614e+00
 5.6663890884e-01	 1.8434492981e+00	-1.8591640927e+00
 5.2552432814e-01	 1.8555885899e+00	-1.8402978019e+00
 4.8438881666e-01	 1.8667490815e+00	-1.8258331916e+00
 4.4326472159e-01	 1.8769392200e+00	-1.8158211940e+00
 4.0218360615e-01	 1.8861687519e+00	-1.8102829869e+00
 8.1700089343e-01	 1.7627256070e+00	-2.0727234735e+00
 7.7642826921e-01	 1.7809692214e+00	-2.0303737900e+00
 7.3562632056e-01	 1.7982064079e+00	-1.9912674789e+00
 6.9463088076e-01	 1.8144366603e+00	-1.9559954405e+00
 6.5347744305e-01	 1.8296610924e+00	-1.9249635511e+00
 6.1220107446e-01	 1.8438823974e+00	-1.8983992008e+00
 5.7083633365e-01	 1.8571048020e+00	-1.8763592796e+00
 5.2941719328e-01	 1.8693340166e+00	-1.8587394757e+00
 4.8797696708e-01	 1.8805771804e+00	-1.8452847514e+00
 4.4654824186e-01	 1.8908428032e+00	-1.8356008567e+00
 4.0516281464e-01	 1.9001407037e+00	-1.8291667465e+00
 8.2300837196e-01	 1.7756870815e+00	-2.0909411341e+00
 7.8213741371e-01	 1.7940648428e+00	-2.0486986928e+00
 7.4103544479e-01	 1.8114287758e+00	-2.0093583383e+00
 6.9973856195e-01	 1.8277783707e+00	-1.9738305538e+00
 6.5828251944e-01	 1.8431147493e+00	-1.9426870858e+00
 6.1670264213e-01	 1.8574406248e+00	-1.9161714032e+00
 5.7503374279e-01	 1.8707602549e+00	-1.8942116316e+00
 5.3331004388e-01	 1.8830793920e+00	-1.8764357426e+00
 4.9156510410e-01	 1.8944052278e+00	-1.8621887639e+00
 4.4983174987e-01	 1.9047463346e+00	-1.8505517803e+00
 4.0814201201e-01	 1.9141126033e+00	-1.8403624838e+00
 8.2901582315e-01	 1.7886484970e+00	-2.1119412976e+00
 7.8784653223e-01	 1.8071604046e+00	-2.0705585624e+00
 7.4644454441e-01	 1.8246510835e+00	-2.0312557833e+00
 7.0484621991e-01	 1.8411200203e+00	-1.9953237209e+00
 6.6308757398e-01	 1.8565683450e+00	-1.9635354868e+00
 6.2120418932e-01	 1.8709987905e+00	-1.9361615268e+00
 5.7923113283e-01	 1.8844156457e+00	-1.9129882821e+00
 5.3720287678e-01	 1.8968247048e+00	-1.8933402034e+00
 4.9515322480e-01	 1.9082332122e+00	-1.8761047791e+00
 4.5311524294e-01	 1.9186498027e+00	-1.8597602265e+00
 4.1112119582e-01	 1.9280844394e+00	-1.8424054956e+00
 8.3502324211e-01	 1.8016098430e+00	-2.1361366627e+00
 7.9355562011e-01	 1.8202558961e+00	-2.0965399867e+00
 7.5185361499e-01	 1.8378733203e+00	-2.0576410483e+00
 7.0995385046e-01	 1.8544615984e+00	-2.0211709340e+00
 6.6789260272e-01	 1.8700218686e+00	-1.9881393080e+00
 6.2570571236e-01	 1.8845568835e+00	-1.9588545165e+00
 5.8342850035e-01	 1.8980709632e+00	-1.9329487436e+00
 5.4109568878e-01	 1.9105699439e+00	-1.9094077770e+00
 4.9874132625e-01	 1.9220611224e+00	-1.8866049185e+00
 4.5639871839e-01	 1.9325531962e+00	-1.8623385622e+00
 4.1410036365e-01	 1.9420562004e+00	-1.8338729519e+00
 8.4103062392e-01	 1.8145711088e+00	-2.1639287019e+00
 7.9926467270e-01	 1.8333513066e+00	-2.1272132845e+00
 7.5726265213e-01	 1.8510954753e+00	-2.0891763188e+00
 7.1506144942e-01	 1.8678030939e+00	-2.0520486361e+00
 6.7269760176e-01	 1.8834753089e+00	-2.0171113429e+00
 6.3020720756e-01	 1.8981148926e+00	-1.9847216345e+00
 5.8762584192e-01	 1.9117261962e+00	-1.9543452043e+00
 5.4498847672e-01	 1.9243150980e+00	-1.9245946748e+00
 5.0232940551e-01	 1.9358889471e+00	-1.8932734479e+00
 4.5968217354e-01	 1.9464565037e+00	-1.8574243475e+00
 4.1707951306e-01	 1.9560278751e+00	-1.8133824196e+00
 3.8728748204e-01	 1.8163086099e+00	-1.6549399483e+00
 3.4779615135e-01	 1.8242823715e+00	-1.6247548971e+00
 3.0840457273e-01	 1.8313532568e+00	-1.5789167399e+00
 2.6914060908e-01	 1.8375340302e+00	-1.5219991076e+00
 2.3003117611e-01	 1.8428384492e+00	-1.4578472176e+00
 1.9110220776e-01	 1.8472811963e+00	-1.3895988046e+00
 1.5237862675e-01	 1.8508778101e+00	-1.3197094452e+00
 1.1388432006e-01	 1.8536446159e+00	-1.2499817770e+00
 7.5642119307e-02	 1.8555986573e+00	-1.1815981015e+00
 3.7673785770e-02	 1.8567576274e+00	-1.1151558587e+00
 0.0000000000e+00	 1.8571398015e+00	-1.0507054598e+00
 3.9026670964e-01	 1.8302806514e+00	-1.6887157241e+00
 3.5047158999e-01	 1.8383157515e+00	-1.6619188931e+00
 3.1077698976e-01	 1.8454410299e+00	-1.6172820438e+00
 2.7121098618e-01	 1.8516693492e+00	-1.5601765648e+00
 2.3180070201e-01	 1.8570145727e+00	-1.4952539394e+00
 1.9257227070e-01	 1.8614914959e+00	-1.4264602474e+00
 1.5355080667e-01	 1.8651157767e+00	-1.3570554183e+00
 1.1476038068e-01	 1.8679038664e+00	-1.2896367687e+00
 7.6223999950e-02	 1.8698729393e+00	-1.2261663395e+00
 3.7963593180e-02	 1.8710408249e+00	-1.1680015386e+00
 0.0000000000e+00	 1.8714259389e+00	-1.1159285886e+00
 3.9324593829e-01	 1.8442526977e+00	-1.7228115948e+00
 3.5314702957e-01	 1.8523491364e+00	-1.6994583771e+00
 3.1314940761e-01	 1.8595288079e+00	-1.6560709712e+00
 2.7328136399e-01	 1.8658046731e+00	-1.5988082299e+00
 2.3357022852e-01	 1.8711907011e+00	-1.5331916321e+00
 1.9404233414e-01	 1.8757018004e+00	-1.4641090973e+00
 1.5472298701e-01	 1.8793537484e+00	-1.3958236299e+00
 1.1563644160e-01	 1.8821631218e+00	-1.3319864132e+00
 7.6805880798e-02	 1.8841472263e+00	-1.2756539476e+00
 3.8253400692e-02	 1.8853240273e+00	-1.2293088099e+00
 0.0000000000e+00	 1.8857120812e+00	-1.1948835974e+00
 3.9622516554e-01	 1.8582247375e+00	-1.7555289068e+00
 3.5582246790e-01	 1.8663825147e+00	-1.7351436177e+00
 3.1552182436e-01	 1.8736165794e+00	-1.6928269785e+00
 2.7535174085e-01	 1.8799399905e+00	-1.6355128096e+00
 2.3533975421e-01	 1.8853668230e+00	-1.5696530446e+00
 1.9551239691e-01	 1.8899120983e+00	-1.5012066563e+00
 1.5589516679e-01	 1.8935917134e+00	-1.4356332131e+00
 1.1651250211e-01	 1.8964223706e+00	-1.3778908275e+00
 7.7387761375e-02	 1.8984215067e+00	-1.3324382248e+00
 3.8543208069e-02	 1.8996072231e+00	-1.3032406329e+00
 0.0000000000e+00	 1.8999982169e+00	-1.2937791669e+00
 3.9920438897e-01	 1.8721967594e+00	-1.7852193244e+00
 3.5849790279e-01	 1.8804158751e+00	-1.7668109726e+00
 3.1789423806e-01	 1.8877043328e+00	-1.7251663011e+00
 2.7742211504e-01	 1.8940752897e+00	-1.6679794640e+00
 2.3710927764e-01	 1.8995429267e+00	-1.6026901380e+00
 1.9698245778e-01	 1.9041223779e+00	-1.5364534115e+00
 1.5706734507e-01	 1.9078296602e+00	-1.4761138307e+00
 1.1738856150e-01	 1.9106816011e+00	-1.4281835595e+00
 7.7969641205e-02	 1.9126957687e+00	-1.3988245704e+00
 3.8833015074e-02	 1.9138904006e+00	-1.3938347372e+00
 0.0000000000e+00	 1.9142843343e+00	-1.4186376701e+00
 4.0218360615e-01	 1.8861687519e+00	-1.8102829869e+00
 3.6117333207e-01	 1.8944492059e+00	-1.7923604600e+00
 3.2026664678e-01	 1.9017920566e+00	-1.7507752748e+00
 2.7949248489e-01	 1.9082105592e+00	-1.6939652130e+00
 2.3887879734e-01	 1.9137190005e+00	-1.6304119065e+00
 1.9845251557e-01	 1.9183326278e+00	-1.5685875952e+00
 1.5823952090e-01	 1.9220675770e+00	-1.5169052940e+00
 1.1826461905e-01	 1.9249408017e+00	-1.4836725796e+00
 7.8551519814e-02	 1.9269700008e+00	-1.4770491512e+00
 3.9122821472e-02	 1.9281735481e+00	-1.5050082631e+00
 0.0000000000e+00	 1.9285704216e+00	-1.5753020759e+00
 4.0516281464e-01	 1.9001407037e+00	-1.8291667465e+00
 3.6384875355e-01	 1.9084824959e+00	-1.8097534368e+00
 3.2263904859e-01	 1.9158797393e+00	-1.7674077759e+00
 2.8156284870e-01	 1.9223457875e+00	-1.7112924562e+00
 2.4064831189e-01	 1.9278950331e+00	-1.6509822935e+00
 1.9992256908e-01	 1.9325428361e+00	-1.5963838081e+00
 1.5941169330e-01	 1.9363054523e+00	-1.5576571993e+00
 1.1914067405e-01	 1.9391999606e+00	-1.5451412278e+00
 7.9133396727e-02	 1.9412441912e+00	-1.5692814533e+00
 3.9412627024e-02	 1.9424566539e+00	-1.6405621990e+00
 0.0000000000e+00	 1.9428564673e+00	-1.7694425473e+00
 4.0814201201e-01	 1.9141126033e+00	-1.8403624838e+00
 3.6652416503e-01	 1.9225157334e+00	-1.8170103782e+00
 3.2501144154e-01	 1.9299673694e+00	-1.7728827724e+00
 2.8363320479e-01	 1.9364809631e+00	-1.7178466014e+00
 2.4241781983e-01	 1.9420710127e+00	-1.6626181983e+00
 2.0139261710e-01	 1.9467529915e+00	-1.6186517027e+00
 1.6058386133e-01	 1.9505432745e+00	-1.5980285792e+00
 1.2001672577e-01	 1.9534590664e+00	-1.6133491202e+00
 7.9715271469e-02	 1.9555183284e+00	-1.6776267210e+00
 3.9702431495e-02	 1.9567397063e+00	-1.8041856258e+00
 0.0000000000e+00	 1.9571424596e+00	-2.0065627522e+00
 4.1112119582e-01	 1.9280844394e+00	-1.8424054956e+00
 3.6919956435e-01	 1.9365489071e+00	-1.8122087535e+00
 3.2738382370e-01	 1.9440549354e+00	-1.7650819815e+00
 2.8570355145e-01	 1.9506160743e+00	-1.7115737958e+00
 2.4418731972e-01	 1.9562469278e+00	-1.6635875703e+00
 2.0286265843e-01	 1.9609630821e+00	-1.6342347237e+00
 1.6175602403e-01	 1.9647810319e+00	-1.6376875697e+00
 1.2089277352e-01	 1.9677181072e+00	-1.6890330155e+00
 8.0297143564e-02	 1.9697924006e+00	-1.8041282902e+00
 3.9992234648e-02	 1.9710226938e+00	-1.9994597759e+00
 0.0000000000e+00	 1.9714283870e+00	-2.2920059005e+00
 4.1410036365e-01	 1.9420562004e+00	-1.8338729519e+00
 3.7187494931e-01	 1.9505820055e+00	-1.7934809931e+00
 3.2975619312e-01	 1.9581424259e+00	-1.7419476281e+00
 2.8777388701e-01	 1.9647511096e+00	-1.6904787549e+00
 2.4595681012e-01	 1.9704227669e+00	-1.6522075844e+00
 2.0433269187e-01	 1.9751730965e+00	-1.6420089029e+00
 1.6292818044e-01	 1.9790187128e+00	-1.6763110913e+00
 1.2176881656e-01	 1.9819770716e+00	-1.7729076447e+00
 8.0879012538e-02	 1.9840663961e+00	-1.9507698217e+00
 4.0282036246e-02	 1.9853056047e+00	-2.2298619178e+00
 0.0000000000e+00	 1.9857142377e+00	-2.6309605205e+00
 4.1707951306e-01	 1.9560278751e+00	-1.8133824196e+00
 3.7455031774e-01	 1.9646150171e+00	-1.7590125427e+00
 3.3212854789e-01	 1.9722298292e+00	-1.7014802987e+00
 2.8984420977e-01	 1.9788860576e+00	-1.6526226843e+00
 2.4772628958e-01	 1.9845985183e+00	-1.6268428946e+00
 2.0580271623e-01	 1.9893830231e+00	-1.6408817056e+00
 1.6410032960e-01	 1.9932563058e+00	-1.7135845440e+00
 1.2264485419e-01	 1.9962359477e+00	-1.8656665049e+00
 8.1460877915e-02	 1.9983403035e+00	-2.1194774384e+00
 4.0571836054e-02	 1.9995884272e+00	-2.4987690752e+00
 0.0000000000e+00	 2.0000000000e+00	-3.0284659885e+00
