x	y	stress_yy
 1.000000000000000e+00	 0.000000000000000e+00	 2.340403054397601e+01
 9.997942136041430e-01	 2.028591802679378e-02	 2.338869950149330e+01
 9.991701517322812e-01	 4.073043895732996e-02	 2.332533279171179e+01
 9.981179738659461e-01	 6.132242709398375e-02	 2.321335774326420e+01
 9.966281528999331e-01	 8.205016480108969e-02	 2.305257461053613e+01
 9.946915115410935e-01	 1.029013581149163e-01	 2.284317494749210e+01
 9.922992591451227e-01	 1.238631447915628e-01	 2.258575848457614e+01
 9.894430288203904e-01	 1.449221048859623e-01	 2.228134826957058e+01
 9.861149146151664e-01	 1.660642739430359e-01	 2.193140383269266e+01
 9.823075085927058e-01	 1.872751588682954e-01	 2.153783213874641e+01
 9.780139375877577e-01	 2.085397565298897e-01	 2.110299609506846e+01
 1.014285762337685e+00	 0.000000000000000e+00	 2.267097828909447e+01
 1.014077036126061e+00	 2.057571783397239e-02	 2.265712943577332e+01
 1.013444059054001e+00	 4.131230433435238e-02	 2.259834327773214e+01
 1.012376850023818e+00	 6.219846472164651e-02	 2.249415530870842e+01
 1.010865745828442e+00	 8.322231396489504e-02	 2.234445087951034e+01
 1.008901438070191e+00	 1.043713824717894e-01	 2.214948190382351e+01
 1.006475010523806e+00	 1.256326242515389e-01	 2.190988214279858e+01
 1.003577976770334e+00	 1.469924276450039e-01	 2.162668084681646e+01
 1.000202317915604e+00	 1.684366287042941e-01	 2.130131453252759e+01
 9.963405201949547e-01	 1.899505272900958e-01	 2.093563667592927e+01
 9.919856122548429e-01	 2.115189059394628e-01	 2.053192510811848e+01
 1.028571613012482e+00	 0.000000000000000e+00	 2.199222769268591e+01
 1.028359946966947e+00	 2.086551943237181e-02	 2.197986284449308e+01
 1.027718054639657e+00	 4.189417330796975e-02	 2.192542844762183e+01
 1.026635814352820e+00	 6.307450776443697e-02	 2.182856655846919e+01
 1.025103426796637e+00	 8.439447037447290e-02	 2.168924720627103e+01
 1.023111452468066e+00	 1.058414159160936e-01	 2.150778349666321e+01
 1.020650849560097e+00	 1.274021146504702e-01	 2.128484536551321e+01
 1.017713012125696e+00	 1.490627632031908e-01	 2.102147177805070e+01
 1.014289808327531e+00	 1.708089981323072e-01	 2.071908116831754e+01
 1.010373618572351e+00	 1.926259122523858e-01	 2.037947991676521e+01
 1.005957373317689e+00	 2.144980737680448e-01	 2.000486866966591e+01
 1.042857540357000e+00	 0.000000000000000e+00	 2.136279744852069e+01
 1.042642934461810e+00	 2.115532258538498e-02	 2.135191098856837e+01
 1.041992126831531e+00	 4.247604540310704e-02	 2.130160493004828e+01
 1.040894855207496e+00	 6.395055550708173e-02	 2.121162633986906e+01
 1.039341184176433e+00	 8.556663307275812e-02	 2.108202951551568e+01
 1.037321543129217e+00	 1.073114572475230e-01	 2.091318955052895e+01
 1.034826764676397e+00	 1.291716145435108e-01	 2.070581461765182e+01
 1.031848123342196e+00	 1.511331098699965e-01	 2.046095678043235e+01
 1.028377374345500e+00	 1.731813802898896e-01	 2.018002114434933e+01
 1.024406792263879e+00	 1.953013115705125e-01	 1.986477316147644e+01
 1.019929209365398e+00	 2.174772575828835e-01	 1.951734390852830e+01
 1.057143532703853e+00	 0.000000000000000e+00	 2.077796630048966e+01
 1.056925986945660e+00	 2.144512705640483e-02	 2.076854628551012e+01
 1.056266263971905e+00	 4.305792014468924e-02	 2.072215093965997e+01
 1.055153960942393e+00	 6.482660723430732e-02	 2.063863083104273e+01
 1.053579006339744e+00	 8.673880110268559e-02	 2.051812411791630e+01
 1.051531698448141e+00	 1.087815052657716e-01	 2.036106863878723e+01
 1.049002744295102e+00	 1.309411224858152e-01	 2.016821278359135e+01
 1.045983298875552e+00	 1.532034659548943e-01	 1.994062497164958e+01
 1.042465004464060e+00	 1.755537732398562e-01	 1.967970156264075e+01
 1.038440029808523e+00	 1.979767230598238e-01	 1.938717302993195e+01
 1.033901108987072e+00	 2.204564549512274e-01	 1.906510823144242e+01
 1.071429578385649e+00	 0.000000000000000e+00	 2.023325571031221e+01
 1.071209092753505e+00	 2.173493260882433e-02	 2.022528493588133e+01
 1.070540454403061e+00	 4.363979705764136e-02	 2.018258890609762e+01
 1.069413119912057e+00	 6.570266223084026e-02	 2.010512021664276e+01
 1.067816881658486e+00	 8.791097350719018e-02	 1.999310047685286e+01
 1.065741906819336e+00	 1.102515587705330e-01	 1.984703098579392e+01
 1.063178776838613e+00	 1.327106370325378e-01	 1.966770224897207e+01
 1.060118527181483e+00	 1.552738297673575e-01	 1.945620217541358e+01
 1.056552687177763e+00	 1.779261750450211e-01	 1.921392279567062e+01
 1.052473319745267e+00	 2.006521445356669e-01	 1.894256534456188e+01
 1.047873060771812e+00	 2.234356634403244e-01	 1.864414355832136e+01
 1.085715665735001e+00	 0.000000000000000e+00	 1.972441389254037e+01
 1.085492240220354e+00	 2.202473900603640e-02	 1.971787092026902e+01
 1.084814686467279e+00	 4.422167566688838e-02	 1.967866947323207e+01
 1.083672320471032e+00	 6.657871978140713e-02	 1.960686272994819e+01
 1.082054798504573e+00	 8.908314932920679e-02	 1.950275533417648e+01
 1.079952156637299e+00	 1.117216165615015e-01	 1.936691271713752e+01
 1.077354850729328e+00	 1.344801567388329e-01	 1.920016931614632e+01
 1.074253796715706e+00	 1.573441996168596e-01	 1.900363554259066e+01
 1.070640410981159e+00	 1.802985837681990e-01	 1.877870335326993e+01
 1.066506650613095e+00	 2.033275738133893e-01	 1.852705028252241e+01
 1.061845053308720e+00	 2.264148806174227e-01	 1.825064179848425e+01
 1.100001783084519e+00	 0.000000000000000e+00	 1.924740109266206e+01
 1.099775417681215e+00	 2.231454601143399e-02	 1.924226124228182e+01
 1.099088948506841e+00	 4.480355549735529e-02	 1.920635674416466e+01
 1.097931550973866e+00	 6.745477917073454e-02	 1.913983993725934e+01
 1.096292745249919e+00	 9.025532761167027e-02	 1.904309807155376e+01
 1.094162436296527e+00	 1.131916774383708e-01	 1.891676133552793e+01
 1.091530954389646e+00	 1.362496801598548e-01	 1.876170983211553e+01
 1.088389095933940e+00	 1.594145738128738e-01	 1.857907936846391e+01
 1.084728164368799e+00	 1.826709974722041e-01	 1.837026592611572e+01
 1.080540010950993e+00	 2.060030087083387e-01	 1.813692868181546e+01
 1.075817075186898e+00	 2.293941040497704e-01	 1.788099145513041e+01
 1.114287918766816e+00	 0.000000000000000e+00	 1.879837599683481e+01
 1.114058613471097e+00	 2.260435338841005e-02	 1.879461230584082e+01
 1.113363228864028e+00	 4.538543607396710e-02	 1.876181466028117e+01
 1.112190799775103e+00	 6.833083968354900e-02	 1.870023315318031e+01
 1.110530710266440e+00	 9.142750739751551e-02	 1.861033719659505e+01
 1.108372734191518e+00	 1.146617402008348e-01	 1.849282231242426e+01
 1.105707076241964e+00	 1.380192058507579e-01	 1.834861592022804e+01
 1.102524413291903e+00	 1.614849506648735e-01	 1.817888199886296e+01
 1.098815935835233e+00	 1.850434142198511e-01	 1.798502450031708e+01
 1.094573389297943e+00	 2.086784470358625e-01	 1.776868939788256e+01
 1.089789114995448e+00	 2.323733313046157e-01	 1.753176525688302e+01
 1.128574061114501e+00	 0.000000000000000e+00	 1.837368317305980e+01
 1.128341815925009e+00	 2.289416090035752e-02	 1.837126732633750e+01
 1.127637515881123e+00	 4.596731692164878e-02	 1.834139441395299e+01
 1.126450055229290e+00	 6.920690060457710e-02	 1.828441088666300e+01
 1.124768681926050e+00	 9.259968772967736e-02	 1.820086785418022e+01
 1.122583038716770e+00	 1.161318036485876e-01	 1.809152669661533e+01
 1.119883204708684e+00	 1.397887323666966e-01	 1.795736371791128e+01
 1.116659737245314e+00	 1.635553284823320e-01	 1.779957372875404e+01
 1.112903713875012e+00	 1.874158320739545e-01	 1.761957244825855e+01
 1.108606774192931e+00	 2.113538866113081e-01	 1.741899761766349e+01
 1.103761161323472e+00	 2.353525599492068e-01	 1.719970872546467e+01
 1.142860198460186e+00	 0.000000000000000e+00	 1.796984145361709e+01
 1.142625013377961e+00	 2.318396831066934e-02	 1.796874468526659e+01
 1.141911797900406e+00	 4.654919756532534e-02	 1.794162280451276e+01
 1.140709305690971e+00	 7.008296121854536e-02	 1.788891722769131e+01
 1.139006648600664e+00	 9.377186765109072e-02	 1.781126027334602e+01
 1.136793338266779e+00	 1.176018665813230e-01	 1.770947965083727e+01
 1.134059328212202e+00	 1.415582582628251e-01	 1.758460203247716e+01
 1.130795056249892e+00	 1.656257055747228e-01	 1.743785560651510e+01
 1.126991486982686e+00	 1.897882490973286e-01	 1.727067151034193e+01
 1.122640154174940e+00	 2.140293252500230e-01	 1.708468404740369e+01
 1.117733202760072e+00	 2.383317875507917e-01	 1.688172959765333e+01
 9.780139375877577e-01	 2.085397565298897e-01	 2.110299609506846e+01
 9.732282518626567e-01	 2.298410867697774e-01	 2.062546514856263e+01
 9.679444735972303e-01	 2.511647027528097e-01	 2.010331747423685e+01
 9.621575490304195e-01	 2.724942383587359e-01	 1.953889914784630e+01
 9.558630981313170e-01	 2.938129209596946e-01	 1.893493000511428e+01
 9.490574463164518e-01	 3.151036037782406e-01	 1.829450409793018e+01
 9.417376544619561e-01	 3.363488008802307e-01	 1.762108770384562e+01
 9.339015469729997e-01	 3.575307247119079e-01	 1.691851478296911e+01
 9.255477376767898e-01	 3.786313260672552e-01	 1.619097979798350e+01
 9.166756533117869e-01	 3.996323363483558e-01	 1.544302783687120e+01
 9.072855543946887e-01	 4.205153119584039e-01	 1.467954200369945e+01
 9.919856122548429e-01	 2.115189059394628e-01	 2.053192510811847e+01
 9.871315593611463e-01	 2.331245419199243e-01	 2.008833806048316e+01
 9.817722982959256e-01	 2.547527820123112e-01	 1.960259041758786e+01
 9.759027031012107e-01	 2.763870262938928e-01	 1.907696003335625e+01
 9.695183311739304e-01	 2.980102625270567e-01	 1.851406587171445e+01
 9.626154554363000e-01	 3.196050989795959e-01	 1.791686762469639e+01
 9.551910947767374e-01	 3.411537999174934e-01	 1.728866309038336e+01
 9.472430425202908e-01	 3.626383236782532e-01	 1.663308322111475e+01
 9.387698926915390e-01	 3.840403632092170e-01	 1.595408477266138e+01
 9.297710638393701e-01	 4.053413889316473e-01	 1.525594050723509e+01
 9.202468202020646e-01	 4.265226937679250e-01	 1.454322692701154e+01
 1.005957373317689e+00	 2.144980737680448e-01	 2.000486866966591e+01
 1.001034952832426e+00	 2.364080173708703e-01	 1.959300398990596e+01
 9.956002085003419e-01	 2.583408834563891e-01	 1.914124287602083e+01
 9.896479421661309e-01	 2.802798382979371e-01	 1.865179961413514e+01
 9.831736486541901e-01	 3.022076300466622e-01	 1.812719884955729e+01
 9.761735483921198e-01	 3.241066220140731e-01	 1.757027441554968e+01
 9.686446182803863e-01	 3.459588286647269e-01	 1.698416611635175e+01
 9.605846205637468e-01	 3.677459542258090e-01	 1.637231439034433e+01
 9.519921294640535e-01	 3.894494337964183e-01	 1.573845279824093e+01
 9.428665553405939e-01	 4.110504768153739e-01	 1.508659830183493e+01
 9.332081661532802e-01	 4.325301127226065e-01	 1.442103932080775e+01
 1.019929209365398e+00	 2.174772575828835e-01	 1.951734390852830e+01
 1.014938420921470e+00	 2.396915104413310e-01	 1.913509905337902e+01
 1.009428192917151e+00	 2.619290041549622e-01	 1.871504454159477e+01
 1.003393254999425e+00	 2.841726711919193e-01	 1.825933566807214e+01
 9.968290394198431e-01	 3.064050200908186e-01	 1.777040917627672e+01
 9.897317141111275e-01	 3.286081692055633e-01	 1.725098134483476e+01
 9.820982139855879e-01	 3.507638831979374e-01	 1.670404421090932e+01
 9.739262702075439e-01	 3.728536121834381e-01	 1.613285987084625e+01
 9.652144371960356e-01	 3.948585334115306e-01	 1.554095281642906e+01
 9.559621171207264e-01	 4.167595953371833e-01	 1.493210028431509e+01
 9.461695816632008e-01	 4.385375639164554e-01	 1.431032061651907e+01
 1.033901108987072e+00	 2.204564549512274e-01	 1.906510823144242e+01
 1.028841952273254e+00	 2.429750184500217e-01	 1.871049387072687e+01
 1.023256240253020e+00	 2.655171411779492e-01	 1.831999302236923e+01
 1.017138630375336e+00	 2.880655217968899e-01	 1.789570649120727e+01
 1.010484492318634e+00	 3.106024292318331e-01	 1.743998940488517e+01
 1.003289941520539e+00	 3.331097368779573e-01	 1.695544860389784e+01
 9.955518709050284e-01	 3.555689595931317e-01	 1.644493833927919e+01
 9.872679805558595e-01	 3.779612933800034e-01	 1.591155423218415e+01
 9.784368050891872e-01	 4.002676576372252e-01	 1.535862546644419e+01
 9.690577384850337e-01	 4.224687398347229e-01	 1.478970520312897e+01
 9.591310561466906e-01	 4.445450424434799e-01	 1.420855922490223e+01
 1.047873060771812e+00	 2.234356634403244e-01	 1.864414355832136e+01
 1.042745535532752e+00	 2.462585387156576e-01	 1.831527819943748e+01
 1.037084339214621e+00	 2.691052915952691e-01	 1.795229892805821e+01
 1.030884057068108e+00	 2.919583869338995e-01	 1.755725648671278e+01
 1.024139996198312e+00	 3.147998540420133e-01	 1.713243054784843e+01
 1.016848219547572e+00	 3.376113213551462e-01	 1.668032645150716e+01
 1.009005578051392e+00	 3.603740539263159e-01	 1.620367041002388e+01
 1.000609740712870e+00	 3.830689936443673e-01	 1.570540314695614e+01
 9.916592223452112e-01	 4.056768020561739e-01	 1.518867195337637e+01
 9.821534087387838e-01	 4.281779056456405e-01	 1.465682116146524e+01
 9.720925790186141e-01	 4.505525433976866e-01	 1.411338105270358e+01
 1.061845053308720e+00	 2.264148806174227e-01	 1.825064179848425e+01
 1.056649159344938e+00	 2.495420685569542e-01	 1.794574677801440e+01
 1.050912478508621e+00	 2.726934524768401e-01	 1.760837212849556e+01
 1.044629523851985e+00	 2.958512634239984e-01	 1.724052288639725e+01
 1.037795539906621e+00	 3.189972910936670e-01	 1.684440930928982e+01
 1.030406537119441e+00	 3.421129189610210e-01	 1.642244300394825e+01
 1.022459324437366e+00	 3.651791622734971e-01	 1.597723166954463e+01
 1.013951539782750e+00	 3.881767088053925e-01	 1.551157243531791e+01
 1.004881678165811e+00	 4.110859622510484e-01	 1.502844378724303e+01
 9.952491171872442e-01	 4.338870881075838e-01	 1.453099609401372e+01
 9.850541396938364e-01	 4.565600618730836e-01	 1.402254075876051e+01
 1.075817075186898e+00	 2.293941040497704e-01	 1.788099145513041e+01
 1.070552812354785e+00	 2.528256052926267e-01	 1.759838626847335e+01
 1.064740646841691e+00	 2.762816208925815e-01	 1.728480907837606e+01
 1.058375019501212e+00	 2.997441480882371e-01	 1.694222350185619e+01
 1.051451112291307e+00	 3.231947369591011e-01	 1.657277630647729e+01
 1.043964883163363e+00	 3.466145260194731e-01	 1.617879297034913e+01
 1.035913099075635e+00	 3.699842807106812e-01	 1.576277199412552e+01
 1.027293366869678e+00	 3.932844346919420e-01	 1.532737795580987e+01
 1.018104161752687e+00	 4.164951338045200e-01	 1.487543331364524e+01
 1.008344853135681e+00	 4.395962825582002e-01	 1.440990897727598e+01
 9.980157275872219e-01	 4.625675929636779e-01	 1.393391368236818e+01
 1.089789114995448e+00	 2.323733313046157e-01	 1.753176525688302e+01
 1.084456483207269e+00	 2.561091462413904e-01	 1.726986319941771e+01
 1.078568832920501e+00	 2.798697939124116e-01	 1.697838111265246e+01
 1.072120532790033e+00	 3.036370377476662e-01	 1.665924541293402e+01
 1.065106702200117e+00	 3.273921882106234e-01	 1.631454519187924e+01
 1.057523246606553e+00	 3.511161388543931e-01	 1.594652724847044e+01
 1.049366890978884e+00	 3.747894053138751e-01	 1.555758999903312e+01
 1.040635211077830e+00	 3.983921671328784e-01	 1.515027626659347e+01
 1.031326662307544e+00	 4.219043122992608e-01	 1.472726496503495e+01
 1.021440605889363e+00	 4.453054843351376e-01	 1.429136170763784e+01
 1.010977332113635e+00	 4.685751317634770e-01	 1.384548838362248e+01
 1.103761161323472e+00	 2.353525599492068e-01	 1.719970872546467e+01
 1.098360160547363e+00	 2.593926887219608e-01	 1.695701282109999e+01
 1.092397025451718e+00	 2.834579686062492e-01	 1.668602362664506e+01
 1.085866052492690e+00	 3.075299292233358e-01	 1.638863451050590e+01
 1.078762298480797e+00	 3.315896414205411e-01	 1.606688259604946e+01
 1.071081616376229e+00	 3.556177537896724e-01	 1.572294330477221e+01
 1.062820689159799e+00	 3.795945321590852e-01	 1.535912389232684e+01
 1.053977061511382e+00	 4.034999019570644e-01	 1.497785598888170e+01
 1.044549169032083e+00	 4.273134933179419e-01	 1.458168716878669e+01
 1.034536364753556e+00	 4.510146887760432e-01	 1.417327158807531e+01
 1.023938942687942e+00	 4.745826733664884e-01	 1.375535974155184e+01
 1.117733202760072e+00	 2.383317875507917e-01	 1.688172959765333e+01
 1.112263833020041e+00	 2.626762300530532e-01	 1.665682879272883e+01
 1.106225213142014e+00	 2.870461420440131e-01	 1.640482606350810e+01
 1.099611567383429e+00	 3.114228193362967e-01	 1.612758581888062e+01
 1.092417889981094e+00	 3.357870931611621e-01	 1.582709881957120e+01
 1.084639981399607e+00	 3.601193671492018e-01	 1.550547627018257e+01
 1.076274482631064e+00	 3.843996573223178e-01	 1.516494300826373e+01
 1.067318907274511e+00	 4.086076349933625e-01	 1.480782981116497e+01
 1.057771671128008e+00	 4.327226724432351e-01	 1.443656485464442e+01
 1.047632119033529e+00	 4.567238912185653e-01	 1.405366437027691e+01
 1.036900548725005e+00	 4.805902128667193e-01	 1.366172256126405e+01
 9.072855543946887e-01	 4.205153119584039e-01	 1.467954200369945e+01
 8.973778426309759e-01	 4.412631267957646e-01	 1.390374969651758e+01
 8.869551416254857e-01	 4.618556531118257e-01	 1.311808172635955e+01
 8.760203156838144e-01	 4.822741974000463e-01	 1.232635095842770e+01
 8.645771165329884e-01	 5.025000860247010e-01	 1.153241499064057e+01
 8.526301882742356e-01	 5.225147171506273e-01	 1.074016232182706e+01
 8.401850687269298e-01	 5.422996134099225e-01	 9.953498254674940e+00
 8.272481870752481e-01	 5.618364750149920e-01	 9.176330623456174e+00
 8.138268577557128e-01	 5.811072330167580e-01	 8.412555436835103e+00
 7.999292705517563e-01	 6.000941023989975e-01	 7.666042525048132e+00
 7.855644768903997e-01	 6.187796346948449e-01	 6.940621278570245e+00
 9.202468202020646e-01	 4.265226937679250e-01	 1.454322692701153e+01
 9.101975692236983e-01	 4.475669069570152e-01	 1.381817977586933e+01
 8.996259719893256e-01	 4.684536132100533e-01	 1.308234097983201e+01
 8.885349337233767e-01	 4.891638519694764e-01	 1.233935003371109e+01
 8.769282597492056e-01	 5.096786828324061e-01	 1.159288315753350e+01
 8.648106605126151e-01	 5.299792382222528e-01	 1.084664001701375e+01
 8.521877529449992e-01	 5.500467768077960e-01	 1.010433025824623e+01
 8.390660580763807e-01	 5.698627373749913e-01	 9.369659944528772e+00
 8.254529948356356e-01	 5.894087928460177e-01	 8.646317982304037e+00
 8.113568700035452e-01	 6.086669041321033e-01	 7.937962620952455e+00
 7.967868643137184e-01	 6.276193735016999e-01	 7.248208107729307e+00
 9.332081661532802e-01	 4.325301127226065e-01	 1.442103932080775e+01
 9.230173750848367e-01	 4.538707260961631e-01	 1.374310546166798e+01
 9.122968807007574e-01	 4.750516141051551e-01	 1.305352764903757e+01
 9.010496291445451e-01	 4.960535491393559e-01	 1.235578009980054e+01
 8.892794793361982e-01	 5.168573240270957e-01	 1.165336615772971e+01
 8.769912080664878e-01	 5.374438054487242e-01	 1.094980554946169e+01
 8.641905113793015e-01	 5.577939881080805e-01	 1.024862153120337e+01
 8.508840021510615e-01	 5.778890493630670e-01	 9.553328012118214e+00
 8.370792038036242e-01	 5.977104040055304e-01	 8.867416738221262e+00
 8.227845401158297e-01	 6.172397588725924e-01	 8.194344617123214e+00
 8.080093211286548e-01	 6.364591669664901e-01	 7.537521259261498e+00
 9.461695816632008e-01	 4.385375639164554e-01	 1.431032061651907e+01
 9.358372497448788e-01	 4.601745790651598e-01	 1.367611729293845e+01
 9.249678574118883e-01	 4.816496504088444e-01	 1.302948291212753e+01
 9.135643917270120e-01	 5.029432832831962e-01	 1.237373443096565e+01
 9.016307652071653e-01	 5.240360037463283e-01	 1.171221072980926e+01
 8.891718209884329e-01	 5.449084127341139e-01	 1.104826038693553e+01
 8.761933342276051e-01	 5.655412409840438e-01	 1.038522941741215e+01
 8.627020096479817e-01	 5.859154044245705e-01	 9.726449060537734e+00
 8.487054751649490e-01	 6.060120597158355e-01	 9.075223696699886e+00
 8.342122715560167e-01	 6.258126596194977e-01	 8.434818969773969e+00
 8.192318381702112e-01	 6.452990078702501e-01	 7.808450185216675e+00
 9.591310561466906e-01	 4.445450424434799e-01	 1.420855922490223e+01
 9.486571827343125e-01	 4.664784607159566e-01	 1.361493968778844e+01
 9.376388917748257e-01	 4.882477167328359e-01	 1.300816861332978e+01
 9.260792112504684e-01	 5.098330487745076e-01	 1.239141364643306e+01
 9.139821072753082e-01	 5.312147161276637e-01	 1.176785753351358e+01
 9.013524893310293e-01	 5.523730539824955e-01	 1.114068639808014e+01
 8.881962116876772e-01	 5.732885291089520e-01	 1.051307805175252e+01
 8.745200709158348e-01	 5.939417960048561e-01	 9.888190423231087e+00
 8.603317994248791e-01	 6.143137531974732e-01	 9.269150183274299e+00
 8.456400549915140e-01	 6.343855993718516e-01	 8.659041637774688e+00
 8.304544062733887e-01	 6.541388889940141e-01	 8.060895953787607e+00
 9.720925790186141e-01	 4.505525433976866e-01	 1.411338105270358e+01
 9.614771635836250e-01	 4.727823659005054e-01	 1.355742233230526e+01
 9.503099734416771e-01	 4.948458076888435e-01	 1.298765953096381e+01
 9.385940774946075e-01	 5.167228399868020e-01	 1.240711886427030e+01
 9.263334954538255e-01	 5.383934553086599e-01	 1.181883519605691e+01
 9.135332031468566e-01	 5.598377230979411e-01	 1.122584079746327e+01
 9.001991339572849e-01	 5.810358461560730e-01	 1.063115420987946e+01
 8.863381763033108e-01	 6.019682175492752e-01	 1.003776929286179e+01
 8.719581670886848e-01	 6.226154776709827e-01	 9.448644532487773e+00
 8.570678810897280e-01	 6.429585711286867e-01	 8.866692678409732e+00
 8.416770162731901e-01	 6.629788031188170e-01	 8.294770769350201e+00
 9.850541396938364e-01	 4.565600618730836e-01	 1.402254075876051e+01
 9.742971818233045e-01	 4.790862894707577e-01	 1.350153223950051e+01
 9.629810920645498e-01	 5.014439178885809e-01	 1.296613624560111e+01
 9.511089802391205e-01	 5.236126512935901e-01	 1.241924538501756e+01
 9.386849196559177e-01	 5.455722154268761e-01	 1.186375481731297e+01
 9.257139524884940e-01	 5.673024139845242e-01	 1.130255147817140e+01
 9.122020912341964e-01	 5.887831857986734e-01	 1.073850347379691e+01
 8.981563161591034e-01	 6.099946625031818e-01	 1.017444972509023e+01
 8.835845686616357e-01	 6.309172263569027e-01	 9.613189934697482e+00
 8.684957405180675e-01	 6.515315678890363e-01	 9.057474941576775e+00
 8.528996590046160e-01	 6.718187430256928e-01	 8.509997517910440e+00
 9.980157275872219e-01	 4.625675929636779e-01	 1.393391368236818e+01
 9.871172269838395e-01	 4.853902262786652e-01	 1.344534641743319e+01
 9.756522372955513e-01	 5.080420419437623e-01	 1.294187855385101e+01
 9.636239092636995e-01	 5.305024770683828e-01	 1.242627685694155e+01
 9.510363697947843e-01	 5.527509906198712e-01	 1.190130489218856e+01
 9.378947274085201e-01	 5.747671205463175e-01	 1.136971269674975e+01
 9.242050737161785e-01	 5.965305417100195e-01	 1.083422668455239e+01
 9.099744808319042e-01	 6.180211243119278e-01	 1.029753986389770e+01
 8.952109946490014e-01	 6.392189924757736e-01	 9.762302438537251e+00
 8.799236239439386e-01	 6.601045826519328e-01	 9.231112853478821e+00
 8.641223253026681e-01	 6.806587014956761e-01	 8.706509335644585e+00
 1.010977332113635e+00	 4.685751317634770e-01	 1.384548838362248e+01
 9.999372885957171e-01	 4.916941711761795e-01	 1.338704509187981e+01
 9.883233987867889e-01	 5.146401744661019e-01	 1.291325937883959e+01
 9.761388543480359e-01	 5.373923116846914e-01	 1.242677987971779e+01
 9.633878357836249e-01	 5.599297750252039e-01	 1.193024661276867e+01
 9.500755179595148e-01	 5.822318366873941e-01	 1.142628107888574e+01
 9.362080716009995e-01	 6.042779075633790e-01	 1.091747665629911e+01
 9.217926606704047e-01	 6.260475964208664e-01	 1.040638936858465e+01
 9.068374355560521e-01	 6.475207692481345e-01	 9.895529095074375e+00
 8.913515220347494e-01	 6.686776084164091e-01	 9.387351281778244e+00
 8.753450060023480e-01	 6.894986713098015e-01	 8.884249198456150e+00
 1.023938942687942e+00	 4.745826733664884e-01	 1.375535974155184e+01
 1.012757356189425e+00	 4.979981190152524e-01	 1.332490543444790e+01
 1.000994566190370e+00	 5.212383100673136e-01	 1.287873913340042e+01
 9.886538052718223e-01	 5.442821495160268e-01	 1.241939900771876e+01
 9.757393075356403e-01	 5.671085627804335e-01	 1.194940951660402e+01
 9.622563141940571e-01	 5.896965563118266e-01	 1.147127191743228e+01
 9.482110750864265e-01	 6.120252770320186e-01	 1.098745512858025e+01
 9.336108460232977e-01	 6.340740722753503e-01	 1.050038702458256e+01
 9.184638818880571e-01	 6.558225498945245e-01	 1.001244623111012e+01
 9.027794254579075e-01	 6.772506381814980e-01	 9.525954474994730e+00
 8.865676919386577e-01	 6.983386452491029e-01	 9.043169530682954e+00
 1.036900548725005e+00	 4.805902128667193e-01	 1.366172256126405e+01
 1.025577419295452e+00	 5.043020646478357e-01	 1.325729575193658e+01
 1.013665729158402e+00	 5.278364433591113e-01	 1.283686049639068e+01
 1.001168751814751e+00	 5.511719849359001e-01	 1.240285211796567e+01
 9.880907749640296e-01	 5.742873480231188e-01	 1.195768745087272e+01
 9.744371061647262e-01	 5.971612733236881e-01	 1.150375573720673e+01
 9.602140743702269e-01	 6.197726437892053e-01	 1.104340993600255e+01
 9.454290272392749e-01	 6.421005453207324e-01	 1.057895852200331e+01
 9.300903241502864e-01	 6.641243276354837e-01	 1.011265784032789e+01
 9.142073248808197e-01	 6.858236649462323e-01	 9.646705069652183e+00
 8.977903739465982e-01	 7.071786160946152e-01	 9.183231831275524e+00
 7.855644768903997e-01	 6.187796346948449e-01	 6.940621278570245e+00
 7.707423701765810e-01	 6.371467715387087e-01	 6.241949914936249e+00
 7.554736580333883e-01	 6.551789005581102e-01	 5.574568088460516e+00
 7.397698440641727e-01	 6.728598994536507e-01	 4.940318367327810e+00
 7.236432017326105e-01	 6.901741818186914e-01	 4.340682381816936e+00
 7.071067426773200e-01	 7.071067426773202e-01	 3.776782237167484e+00
 6.901741818186911e-01	 7.236432017326108e-01	 3.249384627718176e+00
 6.728598994536503e-01	 7.397698440641729e-01	 2.758907560380601e+00
 6.551789005581099e-01	 7.554736580333886e-01	 2.305429566576917e+00
 6.371467715387082e-01	 7.707423701765813e-01	 1.888701255709957e+00
 6.187796346948450e-01	 7.855644768903999e-01	 1.508159040462532e+00
 7.967868643137184e-01	 6.276193735016999e-01	 7.248208107729307e+00
 7.817530125059616e-01	 6.462488988974351e-01	 6.581717938381373e+00
 7.662661751699099e-01	 6.645386306264414e-01	 5.942189470698538e+00
 7.503380202466319e-01	 6.824722160700080e-01	 5.331501838896500e+00
 7.339809965355638e-01	 7.000338461578212e-01	 4.751206348287938e+00
 7.172083015564744e-01	 7.172083015564746e-01	 4.202527122071079e+00
 7.000338461578210e-01	 7.339809965355644e-01	 3.686364199524552e+00
 6.824722160700076e-01	 7.503380202466323e-01	 3.203299000572244e+00
 6.645386306264410e-01	 7.662661751699100e-01	 2.753602045411113e+00
 6.462488988974350e-01	 7.817530125059619e-01	 2.337242794431539e+00
 6.276193735016997e-01	 7.967868643137183e-01	 1.953901453418820e+00
 8.080093211286548e-01	 6.364591669664901e-01	 7.537521259261498e+00
 7.927637229176385e-01	 6.553510825365715e-01	 6.900727757105943e+00
 7.770587590399142e-01	 6.738984185681055e-01	 6.286918690020840e+00
 7.609062617752941e-01	 6.920845921216349e-01	 5.697999387869245e+00
 7.443188552600679e-01	 7.098935714617837e-01	 5.135578055502363e+00
 7.273099228963158e-01	 7.273099228963160e-01	 4.600965758553102e+00
 7.098935714617833e-01	 7.443188552600681e-01	 4.095178628395129e+00
 6.920845921216348e-01	 7.609062617752944e-01	 3.618942206797119e+00
 6.738984185681052e-01	 7.770587590399144e-01	 3.172697826972798e+00
 6.553510825365713e-01	 7.927637229176391e-01	 2.756610906686374e+00
 6.364591669664900e-01	 8.080093211286546e-01	 2.370581011220363e+00
 8.192318381702112e-01	 6.452990078702501e-01	 7.808450185216675e+00
 8.037744924195520e-01	 6.644533150228601e-01	 7.199118630564808e+00
 7.878514008294942e-01	 6.832582567394534e-01	 6.609126405506517e+00
 7.714745600194860e-01	 7.016970197585825e-01	 6.040395288587454e+00
 7.546567694636207e-01	 7.197533496786044e-01	 5.494578305647648e+00
 7.374115984472948e-01	 7.374115984472950e-01	 4.973059157163943e+00
 7.197533496786042e-01	 7.546567694636210e-01	 4.476953649758221e+00
 7.016970197585820e-01	 7.714745600194864e-01	 4.007113056640611e+00
 6.832582567394535e-01	 7.878514008294947e-01	 3.564129310152884e+00
 6.644533150228599e-01	 8.037744924195523e-01	 3.148341910790661e+00
 6.452990078702502e-01	 8.192318381702113e-01	 2.759846421459777e+00
 8.304544062733887e-01	 6.541388889940141e-01	 8.060895953787607e+00
 8.147853120196392e-01	 6.735555889230431e-01	 7.477028017114138e+00
 7.986440917247423e-01	 6.926181374968372e-01	 6.909169024913035e+00
 7.820429063485358e-01	 7.113094911309020e-01	 6.359248046461158e+00
 7.649947307037208e-01	 7.296131727563099e-01	 5.828951508464297e+00
 7.475133199598645e-01	 7.475133199598647e-01	 5.319722164130473e+00
 7.296131727563093e-01	 7.649947307037210e-01	 4.832759868300911e+00
 7.113094911309018e-01	 7.820429063485362e-01	 4.369024086318430e+00
 6.926181374968368e-01	 7.986440917247424e-01	 3.929238044742048e+00
 6.735555889230430e-01	 8.147853120196393e-01	 3.513894415295987e+00
 6.541388889940140e-01	 8.304544062733888e-01	 3.123262409908639e+00
 8.416770162731901e-01	 6.629788031188170e-01	 8.294770769350201e+00
 8.257961727258398e-01	 6.826578968038631e-01	 7.734591987494944e+00
 8.094368229117508e-01	 7.019780531966077e-01	 7.187389947604169e+00
 7.926112921317704e-01	 7.209219983886453e-01	 6.655092408619030e+00
 7.753327305378668e-01	 7.394730326429256e-01	 6.139408400417717e+00
 7.576150791844760e-01	 7.576150791844760e-01	 5.641826832615000e+00
 7.394730326429252e-01	 7.753327305378670e-01	 5.163616727869108e+00
 7.209219983886449e-01	 7.926112921317705e-01	 4.705829008979051e+00
 7.019780531966074e-01	 8.094368229117511e-01	 4.269299751299601e+00
 6.826578968038631e-01	 8.257961727258399e-01	 3.854654797179192e+00
 6.629788031188169e-01	 8.416770162731901e-01	 3.462315617535443e+00
 8.528996590046160e-01	 6.718187430256928e-01	 8.509997517910440e+00
 8.368070655460915e-01	 6.917602312320627e-01	 7.971945593190053e+00
 8.202295855766129e-01	 7.113379961951165e-01	 7.444120696935282e+00
 8.031797087385171e-01	 7.305345336818637e-01	 6.928441203532890e+00
 7.856707605235562e-01	 7.493329212864773e-01	 6.426628537100465e+00
 7.677168678715804e-01	 7.677168678715806e-01	 5.940205515973469e+00
 7.493329212864771e-01	 7.856707605235564e-01	 5.470496156414978e+00
 7.305345336818633e-01	 8.031797087385171e-01	 5.018626865120072e+00
 7.113379961951160e-01	 8.202295855766131e-01	 4.585528933950433e+00
 6.917602312320622e-01	 8.368070655460919e-01	 4.171942237231562e+00
 6.718187430256928e-01	 8.528996590046158e-01	 3.778420022153189e+00
 8.641223253026681e-01	 6.806587014956761e-01	 8.706509335644585e+00
 8.478179814883333e-01	 7.008625847743832e-01	 8.189223193747914e+00
 8.310223709054203e-01	 7.206979588487149e-01	 7.679681952129220e+00
 8.137481475381034e-01	 7.401470891606081e-01	 7.179787025147312e+00
 7.960088122182878e-01	 7.591928306349918e-01	 6.691262579455902e+00
 7.778186777716302e-01	 7.778186777716304e-01	 6.215653708260129e+00
 7.591928306349911e-01	 7.960088122182879e-01	 5.754325915501531e+00
 7.401470891606079e-01	 8.137481475381038e-01	 5.308465838527496e+00
 7.206979588487147e-01	 8.310223709054209e-01	 4.879083123077995e+00
 7.008625847743831e-01	 8.478179814883339e-01	 4.467013352862619e+00
 6.806587014956762e-01	 8.641223253026682e-01	 4.072921927871410e+00
 8.753450060023480e-01	 6.894986713098015e-01	 8.884249198456150e+00
 8.588289115605043e-01	 7.099649499975681e-01	 8.386558746746189e+00
 8.418151700842661e-01	 7.300579335137545e-01	 7.894384488650409e+00
 8.243165998998565e-01	 7.497596569749305e-01	 7.409603775449643e+00
 8.063468771795593e-01	 7.690527526364938e-01	 6.933934392306607e+00
 7.879205006350769e-01	 7.879205006350771e-01	 6.468932654635456e+00
 7.690527526364935e-01	 8.063468771795599e-01	 6.015992680850121e+00
 7.497596569749301e-01	 8.243165998998571e-01	 5.576346767726039e+00
 7.300579335137545e-01	 8.418151700842664e-01	 5.151066781096348e+00
 7.099649499975680e-01	 8.588289115605047e-01	 4.741066464413580e+00
 6.894986713098015e-01	 8.753450060023480e-01	 4.347104561099904e+00
 8.865676919386577e-01	 6.983386452491029e-01	 9.043169530682954e+00
 8.698398467705425e-01	 7.190673194683591e-01	 8.564086063697973e+00
 8.526079742992425e-01	 7.394179125465868e-01	 8.088530035173127e+00
 8.348850571931041e-01	 7.593722292748818e-01	 7.618348078009819e+00
 8.166849469648699e-01	 7.789126792390103e-01	 7.155242971799098e+00
 7.980223282123721e-01	 7.980223282123723e-01	 6.700771752045333e+00
 7.789126792390099e-01	 8.166849469648703e-01	 6.256344877739538e+00
 7.593722292748820e-01	 8.348850571931049e-01	 5.823226379891942e+00
 7.394179125465867e-01	 8.526079742992427e-01	 5.402534901123586e+00
 7.190673194683589e-01	 8.698398467705428e-01	 4.995245527421273e+00
 6.983386452491031e-01	 8.865676919386576e-01	 4.602192307934697e+00
 8.977903739465982e-01	 7.071786160946152e-01	 9.183231831275524e+00
 8.808507781263871e-01	 7.281696857534988e-01	 8.721939034873101e+00
 8.634007747364419e-01	 7.487778883035630e-01	 8.262412054430781e+00
 8.454535107871739e-01	 7.689847982105142e-01	 7.806460573765060e+00
 8.270230131317176e-01	 7.887726023905666e-01	 7.355764216718667e+00
 8.081241522539677e-01	 8.081241522539679e-01	 6.911870758502774e+00
 7.887726023905661e-01	 8.270230131317177e-01	 6.476195292683801e+00
 7.689847982105142e-01	 8.454535107871741e-01	 6.050020271489649e+00
 7.487778883035625e-01	 8.634007747364423e-01	 5.634496325403197e+00
 7.281696857534985e-01	 8.808507781263871e-01	 5.230643760033776e+00
 7.071786160946154e-01	 8.977903739465983e-01	 4.839354624273764e+00
 6.187796346948450e-01	 7.855644768903999e-01	 1.508159040462532e+00
 6.000941023989972e-01	 7.999292705517564e-01	 1.164962566562828e+00
 5.811072330167577e-01	 8.138268577557130e-01	 8.603941481603004e-01
 5.618364750149918e-01	 8.272481870752482e-01	 5.935416408104867e-01
 5.422996134099223e-01	 8.401850687269302e-01	 3.630989929883370e-01
 5.225147171506268e-01	 8.526301882742356e-01	 1.673860766247674e-01
 5.025000860247008e-01	 8.645771165329886e-01	 4.370669740905531e-03
 4.822741974000460e-01	 8.760203156838146e-01	-1.283076499280957e-01
 4.618556531118254e-01	 8.869551416254861e-01	-2.333119489855083e-01
 4.412631267957642e-01	 8.973778426309756e-01	-3.135809730614152e-01
 4.205153119584038e-01	 9.072855543946884e-01	-3.723010263745963e-01
 6.276193735016997e-01	 7.967868643137183e-01	 1.953901453418820e+00
 6.086669041321032e-01	 8.113568700035455e-01	 1.604592030731950e+00
 5.894087928460172e-01	 8.254529948356357e-01	 1.290428569632086e+00
 5.698627373749912e-01	 8.390660580763810e-01	 1.010752506624490e+00
 5.500467768077957e-01	 8.521877529449993e-01	 7.645444588343451e-01
 5.299792382222526e-01	 8.648106605126152e-01	 5.504414182438558e-01
 5.096786828324057e-01	 8.769282597492060e-01	 3.667558867438251e-01
 4.891638519694760e-01	 8.885349337233771e-01	 2.114967415699963e-01
 4.684536132100530e-01	 8.996259719893257e-01	 8.239161509111242e-02
 4.475669069570151e-01	 9.101975692236984e-01	-2.308942989829688e-02
 4.265226937679250e-01	 9.202468202020646e-01	-1.077091485525311e-01
 6.364591669664900e-01	 8.080093211286546e-01	 2.370581011220363e+00
 6.172397588725922e-01	 8.227845401158298e-01	 2.015503124532751e+00
 5.977104040055301e-01	 8.370792038036247e-01	 1.692353018272039e+00
 5.778890493630665e-01	 8.508840021510616e-01	 1.400703778216273e+00
 5.577939881080803e-01	 8.641905113793019e-01	 1.139798851263919e+00
 5.374438054487238e-01	 8.769912080664877e-01	 9.085667838041345e-01
 5.168573240270954e-01	 8.892794793361983e-01	 7.056376973421959e-01
 4.960535491393556e-01	 9.010496291445454e-01	 5.293613196679620e-01
 4.750516141051547e-01	 9.122968807007577e-01	 3.778263862410763e-01
 4.538707260961629e-01	 9.230173750848369e-01	 2.488812251834160e-01
 4.325301127226065e-01	 9.332081661532802e-01	 1.401553399770894e-01
 6.452990078702502e-01	 8.192318381702113e-01	 2.759846421459777e+00
 6.258126596194972e-01	 8.342122715560167e-01	 2.399442583386979e+00
 6.060120597158354e-01	 8.487054751649494e-01	 2.067994920054479e+00
 5.859154044245704e-01	 8.627020096479822e-01	 1.765287182299540e+00
 5.655412409840435e-01	 8.761933342276053e-01	 1.490802825880519e+00
 5.449084127341138e-01	 8.891718209884333e-01	 1.243737469317029e+00
 5.240360037463283e-01	 9.016307652071658e-01	 1.023012892731861e+00
 5.029432832831956e-01	 9.135643917270121e-01	 8.272924227855358e-01
 4.816496504088442e-01	 9.249678574118884e-01	 6.549975471958855e-01
 4.601745790651594e-01	 9.358372497448788e-01	 5.043256026494412e-01
 4.385375639164554e-01	 9.461695816632008e-01	 3.732683817323580e-01
 6.541388889940140e-01	 8.304544062733888e-01	 3.123262409908639e+00
 6.343855993718511e-01	 8.456400549915137e-01	 2.758067630221895e+00
 6.143137531974726e-01	 8.603317994248791e-01	 2.419087560128351e+00
 5.939417960048556e-01	 8.745200709158348e-01	 2.106296528125339e+00
 5.732885291089519e-01	 8.881962116876773e-01	 1.819396141904256e+00
 5.523730539824951e-01	 9.013524893310296e-01	 1.557825636223385e+00
 5.312147161276634e-01	 9.139821072753086e-01	 1.320773572434820e+00
 5.098330487745073e-01	 9.260792112504685e-01	 1.107190759670287e+00
 4.882477167328355e-01	 9.376388917748257e-01	 9.158042681652344e-01
 4.664784607159561e-01	 9.486571827343124e-01	 7.451324071548989e-01
 4.445450424434799e-01	 9.591310561466907e-01	 5.935005428181312e-01
 6.629788031188169e-01	 8.416770162731901e-01	 3.462315617535443e+00
 6.429585711286866e-01	 8.570678810897284e-01	 3.092952241502042e+00
 6.226154776709821e-01	 8.719581670886849e-01	 2.747276657180784e+00
 6.019682175492749e-01	 8.863381763033110e-01	 2.425434532731698e+00
 5.810358461560727e-01	 9.001991339572852e-01	 2.127324684327017e+00
 5.598377230979409e-01	 9.135332031468568e-01	 1.852607480155084e+00
 5.383934553086593e-01	 9.263334954538254e-01	 1.600714413235367e+00
 5.167228399868015e-01	 9.385940774946077e-01	 1.370858736124499e+00
 4.948458076888431e-01	 9.503099734416774e-01	 1.162047053165939e+00
 4.727823659005049e-01	 9.614771635836251e-01	 9.730917696161930e-01
 4.505525433976866e-01	 9.720925790186141e-01	 8.026243013251635e-01
 6.718187430256928e-01	 8.528996590046158e-01	 3.778420022153189e+00
 6.515315678890360e-01	 8.684957405180677e-01	 3.405592909286629e+00
 6.309172263569022e-01	 8.835845686616357e-01	 3.054126410039456e+00
 6.099946625031814e-01	 8.981563161591033e-01	 2.724319099199314e+00
 5.887831857986729e-01	 9.122020912341966e-01	 2.416246924118870e+00
 5.673024139845239e-01	 9.257139524884941e-01	 2.129769826766973e+00
 5.455722154268757e-01	 9.386849196559177e-01	 1.864539357877007e+00
 5.236126512935897e-01	 9.511089802391208e-01	 1.620007197522184e+00
 5.014439178885804e-01	 9.629810920645500e-01	 1.395434501177519e+00
 4.790862894707573e-01	 9.742971818233048e-01	 1.189901995805555e+00
 4.565600618730836e-01	 9.850541396938363e-01	 1.002320756244800e+00
 6.806587014956762e-01	 8.641223253026682e-01	 4.072921927871410e+00
 6.601045826519327e-01	 8.799236239439389e-01	 3.697413945085727e+00
 6.392189924757733e-01	 8.952109946490019e-01	 3.341125064445820e+00
 6.180211243119271e-01	 9.099744808319040e-01	 3.004489097594377e+00
 5.965305417100188e-01	 9.242050737161785e-01	 2.687739867521328e+00
 5.747671205463171e-01	 9.378947274085204e-01	 2.390916206677777e+00
 5.527509906198709e-01	 9.510363697947847e-01	 2.113867776220511e+00
 5.305024770683824e-01	 9.636239092636996e-01	 1.856261640179499e+00
 5.080420419437620e-01	 9.756522372955512e-01	 1.617589535273793e+00
 4.853902262786647e-01	 9.871172269838395e-01	 1.397175784458308e+00
 4.625675929636779e-01	 9.980157275872220e-01	 1.194185809532076e+00
 6.894986713098015e-01	 8.753450060023480e-01	 4.347104561099904e+00
 6.686776084164091e-01	 8.913515220347497e-01	 3.969772366594081e+00
 6.475207692481341e-01	 9.068374355560523e-01	 3.609690043020181e+00
 6.260475964208662e-01	 9.217926606704049e-01	 3.267409693184328e+00
 6.042779075633788e-01	 9.362080716009999e-01	 2.943304540237019e+00
 5.822318366873939e-01	 9.500755179595155e-01	 2.637572456219555e+00
 5.599297750252037e-01	 9.633878357836254e-01	 2.350240146159676e+00
 5.373923116846910e-01	 9.761388543480363e-01	 2.081167939197924e+00
 5.146401744661016e-01	 9.883233987867890e-01	 1.830055147428484e+00
 4.916941711761791e-01	 9.999372885957171e-01	 1.596445962459353e+00
 4.685751317634771e-01	 1.010977332113636e+00	 1.379735868554347e+00
 6.983386452491031e-01	 8.865676919386576e-01	 4.602192307934697e+00
 6.772506381814979e-01	 9.027794254579073e-01	 4.223962404229207e+00
 6.558225498945240e-01	 9.184638818880573e-01	 3.861172677085629e+00
 6.340740722753500e-01	 9.336108460232978e-01	 3.514477262005978e+00
 6.120252770320183e-01	 9.482110750864269e-01	 3.184371047686793e+00
 5.896965563118265e-01	 9.622563141940575e-01	 2.871191885974183e+00
 5.671085627804331e-01	 9.757393075356404e-01	 2.575123296809284e+00
 5.442821495160265e-01	 9.886538052718229e-01	 2.296197635585138e+00
 5.212383100673131e-01	 1.000994566190370e+00	 2.034299701873460e+00
 4.979981190152521e-01	 1.012757356189425e+00	 1.789170779856879e+00
 4.745826733664884e-01	 1.023938942687942e+00	 1.560413111383082e+00
 7.071786160946154e-01	 8.977903739465983e-01	 4.839354624273764e+00
 6.858236649462317e-01	 9.142073248808196e-01	 4.461219660707810e+00
 6.641243276354835e-01	 9.300903241502866e-01	 4.096862575155410e+00
 6.421005453207319e-01	 9.454290272392751e-01	 3.747023929856573e+00
 6.197726437892049e-01	 9.602140743702273e-01	 3.412303248394855e+00
 5.971612733236877e-01	 9.744371061647262e-01	 3.093160054880543e+00
 5.742873480231185e-01	 9.880907749640297e-01	 2.789915252230845e+00
 5.511719849358999e-01	 1.001168751814751e+00	 2.502752821181431e+00
 5.278364433591108e-01	 1.013665729158402e+00	 2.231721835596510e+00
 5.043020646478351e-01	 1.025577419295452e+00	 1.976738803184503e+00
 4.805902128667193e-01	 1.036900548725006e+00	 1.737590353145336e+00
 4.205153119584038e-01	 9.072855543946884e-01	-3.723010263745986e-01
 3.996323363483559e-01	 9.166756533117867e-01	-4.132376457071285e-01
 3.786313260672554e-01	 9.255477376767897e-01	-4.386146716848925e-01
 3.575307247119081e-01	 9.339015469729992e-01	-4.496113300806753e-01
 3.363488008802308e-01	 9.417376544619560e-01	-4.475933266846084e-01
 3.151036037782408e-01	 9.490574463164519e-01	-4.340993826297499e-01
 2.938129209596947e-01	 9.558630981313170e-01	-4.108268660409371e-01
 2.724942383587361e-01	 9.621575490304196e-01	-3.796166318977747e-01
 2.511647027528098e-01	 9.679444735972303e-01	-3.424371876873282e-01
 2.298410867697775e-01	 9.732282518626566e-01	-3.013683074859674e-01
 2.085397565298897e-01	 9.780139375877577e-01	-2.585842214049636e-01
 4.265226937679250e-01	 9.202468202020646e-01	-1.077091485525274e-01
 4.053413889316475e-01	 9.297710638393700e-01	-1.747866419101087e-01
 3.840403632092172e-01	 9.387698926915389e-01	-2.262780451935718e-01
 3.626383236782533e-01	 9.472430425202908e-01	-2.631853921423037e-01
 3.411537999174936e-01	 9.551910947767371e-01	-2.866888725217862e-01
 3.196050989795961e-01	 9.626154554363000e-01	-2.981350538555727e-01
 2.980102625270569e-01	 9.695183311739305e-01	-2.990241963974070e-01
 2.763870262938931e-01	 9.759027031012107e-01	-2.909967537783233e-01
 2.547527820123113e-01	 9.817722982959253e-01	-2.758191585785215e-01
 2.331245419199244e-01	 9.871315593611459e-01	-2.553689985424477e-01
 2.115189059394629e-01	 9.919856122548431e-01	-2.316196950961968e-01
 4.325301127226065e-01	 9.332081661532802e-01	 1.401553399770872e-01
 4.110504768153741e-01	 9.428665553405938e-01	 4.874550651827958e-02
 3.894494337964184e-01	 9.519921294640534e-01	-2.705415246821263e-02
 3.677459542258094e-01	 9.605846205637468e-01	-8.808140596141456e-02
 3.459588286647271e-01	 9.686446182803863e-01	-1.353444362934693e-01
 3.241066220140734e-01	 9.761735483921200e-01	-1.700116674677186e-01
 3.022076300466623e-01	 9.831736486541902e-01	-1.934006832051021e-01
 2.802798382979372e-01	 9.896479421661311e-01	-2.069663081373243e-01
 2.583408834563892e-01	 9.956002085003419e-01	-2.122879334621883e-01
 2.364080173708705e-01	 1.001034952832426e+00	-2.110561762273169e-01
 2.144980737680448e-01	 1.005957373317689e+00	-2.050589689716760e-01
 4.385375639164554e-01	 9.461695816632008e-01	 3.732683817323602e-01
 4.167595953371834e-01	 9.559621171207261e-01	 2.593089446564505e-01
 3.948585334115307e-01	 9.652144371960353e-01	 1.609746653233779e-01
 3.728536121834383e-01	 9.739262702075441e-01	 7.757969342997351e-02
 3.507638831979376e-01	 9.820982139855879e-01	 8.274952974318461e-03
 3.286081692055634e-01	 9.897317141111275e-01	-4.794321687919889e-02
 3.064050200908187e-01	 9.968290394198429e-01	-9.222350681521663e-02
 2.841726711919194e-01	 1.003393254999424e+00	-1.258492230453223e-01
 2.619290041549625e-01	 1.009428192917151e+00	-1.502270773816747e-01
 2.396915104413312e-01	 1.014938420921471e+00	-1.668752546459318e-01
 2.174772575828835e-01	 1.019929209365398e+00	-1.774108395123530e-01
 4.445450424434799e-01	 9.591310561466907e-01	 5.935005428181316e-01
 4.224687398347230e-01	 9.690577384850336e-01	 4.587493461478553e-01
 4.002676576372253e-01	 9.784368050891873e-01	 3.396228578726677e-01
 3.779612933800036e-01	 9.872679805558595e-01	 2.355753560973988e-01
 3.555689595931318e-01	 9.955518709050283e-01	 1.459045511126318e-01
 3.331097368779574e-01	 1.003289941520539e+00	 6.975876730356978e-02
 3.106024292318333e-01	 1.010484492318635e+00	 6.145043266933436e-03
 2.880655217968901e-01	 1.017138630375336e+00	-4.606188633796804e-02
 2.655171411779494e-01	 1.023256240253020e+00	-8.810977366605588e-02
 2.429750184500218e-01	 1.028841952273254e+00	-1.213582622739198e-01
 2.204564549512274e-01	 1.033901108987071e+00	-1.472675811469513e-01
 4.505525433976866e-01	 9.720925790186141e-01	 8.026243013251655e-01
 4.281779056456406e-01	 9.821534087387839e-01	 6.488151316539896e-01
 4.056768020561741e-01	 9.916592223452112e-01	 5.106087892266247e-01
 3.830689936443673e-01	 1.000609740712869e+00	 3.875884224812340e-01
 3.603740539263162e-01	 1.009005578051392e+00	 2.791867644590320e-01
 3.376113213551464e-01	 1.016848219547572e+00	 1.846919238307054e-01
 3.147998540420135e-01	 1.024139996198311e+00	 1.032540983706438e-01
 2.919583869338996e-01	 1.030884057068108e+00	 3.389319241673849e-02
 2.691052915952692e-01	 1.037084339214621e+00	-2.449269112173935e-02
 2.462585387156577e-01	 1.042745535532752e+00	-7.311792547455864e-02
 2.234356634403244e-01	 1.047873060771812e+00	-1.132992550056018e-01
 4.565600618730836e-01	 9.850541396938363e-01	 1.002320756244804e+00
 4.338870881075840e-01	 9.952491171872442e-01	 8.311641138721491e-01
 4.110859622510485e-01	 1.004881678165811e+00	 6.755612958386170e-01
 3.881767088053927e-01	 1.013951539782750e+00	 5.352135730280319e-01
 3.651791622734972e-01	 1.022459324437367e+00	 4.096774713163762e-01
 3.421129189610211e-01	 1.030406537119440e+00	 2.983692361250436e-01
 3.189972910936670e-01	 1.037795539906620e+00	 2.005702237083600e-01
 2.958512634239985e-01	 1.044629523851985e+00	 1.154332184871130e-01
 2.726934524768403e-01	 1.050912478508621e+00	 4.198966379767866e-02
 2.495420685569543e-01	 1.056649159344938e+00	-2.084221967194400e-02
 2.264148806174227e-01	 1.061845053308720e+00	-7.424846733831769e-02
 4.625675929636779e-01	 9.980157275872220e-01	 1.194185809532081e+00
 4.395962825582002e-01	 1.008344853135681e+00	 1.007369621197580e+00
 4.164951338045202e-01	 1.018104161752687e+00	 8.360257305310894e-01
 3.932844346919422e-01	 1.027293366869678e+00	 6.799632726409670e-01
 3.699842807106814e-01	 1.035913099075635e+00	 5.388518486460199e-01
 3.466145260194732e-01	 1.043964883163362e+00	 4.122247246101112e-01
 3.231947369591013e-01	 1.051451112291306e+00	 2.994829614384273e-01
 2.997441480882373e-01	 1.058375019501212e+00	 1.999004926295338e-01
 2.762816208925816e-01	 1.064740646841691e+00	 1.126301538921761e-01
 2.528256052926268e-01	 1.070552812354785e+00	 3.671065429688070e-02
 2.293941040497705e-01	 1.075817075186899e+00	-2.892553675422538e-02
 4.685751317634771e-01	 1.010977332113636e+00	 1.379735868554347e+00
 4.453054843351376e-01	 1.021440605889363e+00	 1.178926146775262e+00
 4.219043122992610e-01	 1.031326662307544e+00	 9.934695384646475e-01
 3.983921671328786e-01	 1.040635211077830e+00	 8.232732552459139e-01
 3.747894053138752e-01	 1.049366890978884e+00	 6.681097483561360e-01
 3.511161388543932e-01	 1.057523246606553e+00	 5.276186993579923e-01
 3.273921882106235e-01	 1.065106702200117e+00	 4.013099458800959e-01
 3.036370377476663e-01	 1.072120532790032e+00	 2.885673767015207e-01
 2.798697939124116e-01	 1.078568832920500e+00	 1.886538167207445e-01
 2.561091462413906e-01	 1.084456483207268e+00	 1.007169067740374e-01
 2.323733313046157e-01	 1.089789114995448e+00	 2.379596637334691e-02
 4.745826733664884e-01	 1.023938942687942e+00	 1.560413111383080e+00
 4.510146887760434e-01	 1.034536364753556e+00	 1.347254564956138e+00
 4.273134933179420e-01	 1.044549169032083e+00	 1.149287406540315e+00
 4.034999019570645e-01	 1.053977061511382e+00	 9.665075891843236e-01
 3.795945321590853e-01	 1.062820689159798e+00	 7.987806630583323e-01
 3.556177537896725e-01	 1.071081616376229e+00	 6.458426119802063e-01
 3.315896414205414e-01	 1.078762298480797e+00	 5.073016287576548e-01
 3.075299292233359e-01	 1.085866052492690e+00	 3.826408809785600e-01
 2.834579686062493e-01	 1.092397025451718e+00	 2.712223042478468e-01
 2.593926887219610e-01	 1.098360160547363e+00	 1.722914430829370e-01
 2.353525599492068e-01	 1.103761161323472e+00	 8.498334128481511e-02
 4.805902128667193e-01	 1.036900548725006e+00	 1.737590353145334e+00
 4.567238912185655e-01	 1.047632119033528e+00	 1.513706952976150e+00
 4.327226724432352e-01	 1.057771671128007e+00	 1.304806023528781e+00
 4.086076349933627e-01	 1.067318907274511e+00	 1.110963360077025e+00
 3.843996573223180e-01	 1.076274482631064e+00	 9.321283171817711e-01
 3.601193671492018e-01	 1.084639981399606e+00	 7.681235417947014e-01
 3.357870931611622e-01	 1.092417889981094e+00	 6.186456485655116e-01
 3.114228193362970e-01	 1.099611567383429e+00	 4.832669062455419e-01
 2.870461420440134e-01	 1.106225213142014e+00	 3.614379886138173e-01
 2.626762300530535e-01	 1.112263833020041e+00	 2.524918253819908e-01
 2.383317875507918e-01	 1.117733202760072e+00	 1.556485686503448e-01
 2.085397565298897e-01	 9.780139375877577e-01	-2.585842214049636e-01
 1.872751588682954e-01	 9.823075085927059e-01	-2.178403644402644e-01
 1.660642739430359e-01	 9.861149146151665e-01	-1.812575711015185e-01
 1.449221048859622e-01	 9.894430288203904e-01	-1.486365691387941e-01
 1.238631447915627e-01	 9.922992591451227e-01	-1.198127076862439e-01
 1.029013581149162e-01	 9.946915115410935e-01	-9.465405859541143e-02
 8.205016480108950e-02	 9.966281528999332e-01	-7.305896880978135e-02
 6.132242709398352e-02	 9.981179738659459e-01	-5.495312478231273e-02
 4.073043895732970e-02	 9.991701517322813e-01	-4.028619756848029e-02
 2.028591802679350e-02	 9.997942136041430e-01	-2.902814305578572e-02
 0.000000000000000e+00	 1.000000000000000e+00	-2.116523571823281e-02
 2.115189059394629e-01	 9.919856122548431e-01	-2.316196950961968e-01
 1.899505272900958e-01	 9.963405201949547e-01	-2.079205475244859e-01
 1.684366287042940e-01	 1.000202317915604e+00	-1.861943644205439e-01
 1.469924276450038e-01	 1.003577976770333e+00	-1.663659907449433e-01
 1.256326242515388e-01	 1.006475010523806e+00	-1.484033290255993e-01
 1.043713824717892e-01	 1.008901438070191e+00	-1.323142063836671e-01
 8.322231396489484e-02	 1.010865745828442e+00	-1.181426846970690e-01
 6.219846472164627e-02	 1.012376850023818e+00	-1.059648844884649e-01
 4.131230433435212e-02	 1.013444059054000e+00	-9.588440065978254e-02
 2.057571783397211e-02	 1.014077036126061e+00	-8.802739379329916e-02
 0.000000000000000e+00	 1.014285762337685e+00	-8.253744434607713e-02
 2.144980737680448e-01	 1.005957373317689e+00	-2.050589689716737e-01
 1.926259122523858e-01	 1.010373618572351e+00	-1.972975560076757e-01
 1.708089981323071e-01	 1.014289808327531e+00	-1.895252819727773e-01
 1.490627632031907e-01	 1.017713012125696e+00	-1.817617816266197e-01
 1.274021146504700e-01	 1.020650849560097e+00	-1.740781712379542e-01
 1.058414159160934e-01	 1.023111452468066e+00	-1.665928960143197e-01
 8.439447037447267e-02	 1.025103426796637e+00	-1.594669975389542e-01
 6.307450776443674e-02	 1.026635814352820e+00	-1.528988805137743e-01
 4.189417330796949e-02	 1.027718054639657e+00	-1.471186657821315e-01
 2.086551943237152e-02	 1.028359946966948e+00	-1.423822222416860e-01
 0.000000000000000e+00	 1.028571613012482e+00	-1.389649737476142e-01
 2.174772575828835e-01	 1.019929209365398e+00	-1.774108395123575e-01
 1.953013115705126e-01	 1.024406792263879e+00	-1.845385691080201e-01
 1.731813802898896e-01	 1.028377374345500e+00	-1.898656001920385e-01
 1.511331098699964e-01	 1.031848123342196e+00	-1.934782421625636e-01
 1.291716145435107e-01	 1.034826764676397e+00	-1.955227018873344e-01
 1.073114572475229e-01	 1.037321543129217e+00	-1.962001219228493e-01
 8.556663307275791e-02	 1.039341184176433e+00	-1.957610005393913e-01
 6.395055550708149e-02	 1.040894855207496e+00	-1.944990806835714e-01
 4.247604540310677e-02	 1.041992126831532e+00	-1.927448031012617e-01
 2.115532258538469e-02	 1.042642934461811e+00	-1.908584247364482e-01
 0.000000000000000e+00	 1.042857540357000e+00	-1.892229071478981e-01
 2.204564549512274e-01	 1.033901108987071e+00	-1.472675811469488e-01
 1.979767230598238e-01	 1.038440029808523e+00	-1.682913217024793e-01
 1.755537732398562e-01	 1.042465004464060e+00	-1.859087225339660e-01
 1.532034659548942e-01	 1.045983298875552e+00	-2.002457935378383e-01
 1.309411224858151e-01	 1.049002744295103e+00	-2.114968546537028e-01
 1.087815052657713e-01	 1.051531698448141e+00	-2.199189712407392e-01
 8.673880110268536e-02	 1.053579006339744e+00	-2.258257181158418e-01
 6.482660723430707e-02	 1.055153960942393e+00	-2.295803663619265e-01
 4.305792014468898e-02	 1.056266263971905e+00	-2.315885957654267e-01
 2.144512705640454e-02	 1.056925986945661e+00	-2.322908421458192e-01
 0.000000000000000e+00	 1.057143532703853e+00	-2.321543928217733e-01
 2.234356634403244e-01	 1.047873060771812e+00	-1.132992550055996e-01
 2.006521445356669e-01	 1.052473319745267e+00	-1.472786239171791e-01
 1.779261750450211e-01	 1.056552687177763e+00	-1.764208766471138e-01
 1.552738297673574e-01	 1.060118527181483e+00	-2.008658237676819e-01
 1.327106370325377e-01	 1.063178776838613e+00	-2.208299999838084e-01
 1.102515587705329e-01	 1.065741906819336e+00	-2.366006993067495e-01
 8.791097350718997e-02	 1.067816881658486e+00	-2.485292709204461e-01
 6.570266223083999e-02	 1.069413119912057e+00	-2.570237759706719e-01
 4.363979705764108e-02	 1.070540454403061e+00	-2.625411151736601e-01
 2.173493260882402e-02	 1.071209092753505e+00	-2.655787443006448e-01
 0.000000000000000e+00	 1.071429578385649e+00	-2.666660991575958e-01
 2.264148806174227e-01	 1.061845053308720e+00	-7.424846733831991e-02
 2.033275738133893e-01	 1.066506650613095e+00	-1.202933135584801e-01
 1.802985837681989e-01	 1.070640410981159e+00	-1.602362302233300e-01
 1.573441996168595e-01	 1.074253796715706e+00	-1.942059405332688e-01
 1.344801567388328e-01	 1.077354850729328e+00	-2.224163126213525e-01
 1.117216165615013e-01	 1.079952156637298e+00	-2.451601937130719e-01
 8.908314932920657e-02	 1.082054798504573e+00	-2.628024222813410e-01
 6.657871978140689e-02	 1.083672320471033e+00	-2.757721237029036e-01
 4.422167566688809e-02	 1.084814686467279e+00	-2.845544057584883e-01
 2.202473900603610e-02	 1.085492240220354e+00	-2.896815784781597e-01
 0.000000000000000e+00	 1.085715665735001e+00	-2.917240282069298e-01
 2.293941040497705e-01	 1.075817075186899e+00	-2.892553675423004e-02
 2.060030087083387e-01	 1.080540010950993e+00	-8.619360207386850e-02
 1.826709974722041e-01	 1.084728164368799e+00	-1.362523874973240e-01
 1.594145738128737e-01	 1.088389095933940e+00	-1.791955938744392e-01
 1.362496801598547e-01	 1.091530954389646e+00	-2.152104999669873e-01
 1.131916774383706e-01	 1.094162436296527e+00	-2.445717915924439e-01
 9.025532761167007e-02	 1.096292745249919e+00	-2.676344714185097e-01
 6.745477917073431e-02	 1.097931550973866e+00	-2.848259593514548e-01
 4.480355549735500e-02	 1.099088948506841e+00	-2.966375057224833e-01
 2.231454601143368e-02	 1.099775417681214e+00	-3.036150488728167e-01
 0.000000000000000e+00	 1.100001783084519e+00	-3.063496551575906e-01
 2.323733313046157e-01	 1.089789114995448e+00	 2.379596637334691e-02
 2.086784470358625e-01	 1.094573389297943e+00	-4.389877875569481e-02
 1.850434142198511e-01	 1.098815935835233e+00	-1.034262322648678e-01
 1.614849506648734e-01	 1.102524413291903e+00	-1.548220355774044e-01
 1.380192058507578e-01	 1.105707076241965e+00	-1.982238589143506e-01
 1.146617402008347e-01	 1.108372734191518e+00	-2.338654184739981e-01
 9.142750739751529e-02	 1.110530710266440e+00	-2.620694623400996e-01
 6.833083968354876e-02	 1.112190799775103e+00	-2.832398386639134e-01
 4.538543607396681e-02	 1.113363228864028e+00	-2.978527736016345e-01
 2.260435338840974e-02	 1.114058613471097e+00	-3.064474973736597e-01
 0.000000000000000e+00	 1.114287918766816e+00	-3.096163645037513e-01
 2.353525599492068e-01	 1.103761161323472e+00	 8.498334128481511e-02
 2.113538866113081e-01	 1.108606774192931e+00	 7.614758528593946e-03
 1.874158320739543e-01	 1.112903713875012e+00	-6.077008674099638e-02
 1.635553284823320e-01	 1.116659737245314e+00	-1.201265854489981e-01
 1.397887323666964e-01	 1.119883204708684e+00	-1.705206320807102e-01
 1.161318036485874e-01	 1.122583038716770e+00	-2.121230202361142e-01
 9.259968772967715e-02	 1.124768681926050e+00	-2.452026804704999e-01
 6.920690060457686e-02	 1.126450055229290e+00	-2.701188767322218e-01
 4.596731692164848e-02	 1.127637515881123e+00	-2.873124935790516e-01
 2.289416090035721e-02	 1.128341815925009e+00	-2.972965589722834e-01
 0.000000000000000e+00	 1.128574061114501e+00	-3.006461566453480e-01
 2.383317875507918e-01	 1.117733202760072e+00	 1.556485686503470e-01
 2.140293252500230e-01	 1.122640154174940e+00	 6.931717462365139e-02
 1.897882490973285e-01	 1.126991486982686e+00	-7.348158646959480e-03
 1.656257055747226e-01	 1.130795056249892e+00	-7.420117764752332e-02
 1.415582582628250e-01	 1.134059328212202e+00	-1.312146372575911e-01
 1.176018665813229e-01	 1.136793338266780e+00	-1.784752625334738e-01
 9.377186765109050e-02	 1.139006648600664e+00	-2.161774118537598e-01
 7.008296121854513e-02	 1.140709305690971e+00	-2.446155596719151e-01
 4.654919756532504e-02	 1.141911797900406e+00	-2.641757351798639e-01
 2.318396831066902e-02	 1.142625013377961e+00	-2.753260677901588e-01
 0.000000000000000e+00	 1.142860198460186e+00	-2.786066012727972e-01
 1.142860198460186e+00	 0.000000000000000e+00	 1.796984145361709e+01
 1.142625013377961e+00	 2.318396831066934e-02	 1.796874468526659e+01
 1.141911797900406e+00	 4.654919756532534e-02	 1.794162280451276e+01
 1.140709305690971e+00	 7.008296121854536e-02	 1.788891722769131e+01
 1.139006648600664e+00	 9.377186765109072e-02	 1.781126027334602e+01
 1.136793338266779e+00	 1.176018665813230e-01	 1.770947965083727e+01
 1.134059328212202e+00	 1.415582582628251e-01	 1.758460203247716e+01
 1.130795056249892e+00	 1.656257055747228e-01	 1.743785560651510e+01
 1.126991486982686e+00	 1.897882490973286e-01	 1.727067151034193e+01
 1.122640154174940e+00	 2.140293252500230e-01	 1.708468404740369e+01
 1.117733202760072e+00	 2.383317875507917e-01	 1.688172959765333e+01
 1.157145321350848e+00	 0.000000000000000e+00	 1.758858182900462e+01
 1.156907196584657e+00	 2.347375514173351e-02	 1.758878311341103e+01
 1.156185066306537e+00	 4.713103688965983e-02	 1.756427052658676e+01
 1.154967543606921e+00	 7.095895962352061e-02	 1.751557819412412e+01
 1.153243604240946e+00	 9.494396433618384e-02	 1.744341813968781e+01
 1.151002628747150e+00	 1.190718251251996e-01	 1.734868370665048e+01
 1.148234445072978e+00	 1.433276585053856e-01	 1.723245210226001e+01
 1.144929371509318e+00	 1.676959356502721e-01	 1.709598597071251e+01
 1.141078259721515e+00	 1.921604976561825e-01	 1.694073390376523e+01
 1.136672537650634e+00	 2.167045739068282e-01	 1.676832980183686e+01
 1.131704252046085e+00	 2.413108035985782e-01	 1.658059100503750e+01
 1.171430429241259e+00	 0.000000000000000e+00	 1.723239861219181e+01
 1.171189364794196e+00	 2.376354166844703e-02	 1.723387697352225e+01
 1.170458319724889e+00	 4.771287560295061e-02	 1.721185529920031e+01
 1.169225766550903e+00	 7.183495710857876e-02	 1.716695734651643e+01
 1.167480544931648e+00	 9.611605979047652e-02	 1.709997237165459e+01
 1.165211904307037e+00	 1.205417821255611e-01	 1.701185753949063e+01
 1.162409547049214e+00	 1.450970568900730e-01	 1.690373949329744e+01
 1.159063671927114e+00	 1.697661635521416e-01	 1.677691499903824e+01
 1.155165017668707e+00	 1.945327437243049e-01	 1.663285058138804e+01
 1.150704906391885e+00	 2.193798197548161e-01	 1.647318107312121e+01
 1.145675286662146e+00	 2.442898165186466e-01	 1.629970700616573e+01
 1.185715523798227e+00	 0.000000000000000e+00	 1.689923352265089e+01
 1.185471519673041e+00	 2.405332792465459e-02	 1.690195747623138e+01
 1.184731559820883e+00	 4.829471377313913e-02	 1.688230445359317e+01
 1.183483976186579e+00	 7.271095377599275e-02	 1.684098480489057e+01
 1.181717472333943e+00	 9.728815415079030e-02	 1.677886256580264e+01
 1.179421166604382e+00	 1.220117377539762e-01	 1.669695691018939e+01
 1.176584635794853e+00	 1.468664536233805e-01	 1.659644279842376e+01
 1.173197959152453e+00	 1.718363895219076e-01	 1.647865074363895e+01
 1.169251762467883e+00	 1.969049875784915e-01	 1.634506562077056e+01
 1.164737262035952e+00	 2.220550631061160e-01	 1.619732444795239e+01
 1.159646308238343e+00	 2.472688266585502e-01	 1.603721307666567e+01
 1.200000606688556e+00	 0.000000000000000e+00	 1.658711829838848e+01
 1.199753662887650e+00	 2.434311394420089e-02	 1.659104725903526e+01
 1.199004788259937e+00	 4.887655146816672e-02	 1.657363783984548e+01
 1.197742174177614e+00	 7.358694972803567e-02	 1.653568397620499e+01
 1.195954388109006e+00	 9.846024755394681e-02	 1.647812204344129e+01
 1.193630417297124e+00	 1.234816921820130e-01	 1.640203140668407e+01
 1.190759712963843e+00	 1.486358489118020e-01	 1.630863420058237e+01
 1.187332234834512e+00	 1.739066138011468e-01	 1.619929426792052e+01
 1.183338495762656e+00	 1.992772294955378e-01	 1.607551518897957e+01
 1.178769606220092e+00	 2.247303042728567e-01	 1.593893733834691e+01
 1.173617318404766e+00	 2.502478343658425e-01	 1.579133391291049e+01
 1.214285679579051e+00	 0.000000000000000e+00	 1.629416940056309e+01
 1.214035796104490e+00	 2.463289976093064e-02	 1.629925503641082e+01
 1.213278006707471e+00	 4.945838875597484e-02	 1.628396243949652e+01
 1.212000362187669e+00	 7.446294506698058e-02	 1.624916614677637e+01
 1.210191293918011e+00	 9.963234013676772e-02	 1.619587244040143e+01
 1.207839658043205e+00	 1.249516455812401e-01	 1.612521904886863e+01
 1.204934780210126e+00	 1.504052429618308e-01	 1.603847411063446e+01
 1.201466500622466e+00	 1.759768366314353e-01	 1.593703433527321e+01
 1.197425219196647e+00	 2.016494697522397e-01	 1.582242230021182e+01
 1.192801940581567e+00	 2.274055435671674e-01	 1.569628282610599e+01
 1.187588318791500e+00	 2.532268399880767e-01	 1.556037838116072e+01
 1.228570744136519e+00	 0.000000000000000e+00	 1.601858308757712e+01
 1.228317920990019e+00	 2.492268540868854e-02	 1.602477062318563e+01
 1.227551216828906e+00	 5.004022570450483e-02	 1.601146735396912e+01
 1.226258541880407e+00	 7.533893989510042e-02	 1.597962545180301e+01
 1.224428191422134e+00	 1.008044320360747e-01	 1.593031867392940e+01
 1.222048890500565e+00	 1.264215981232256e-01	 1.586474126930955e+01
 1.219109839187650e+00	 1.521746359799606e-01	 1.578420617847947e+01
 1.215600758165490e+00	 1.780470582543500e-01	 1.569014246725699e+01
 1.211511934413471e+00	 2.040217086253930e-01	 1.558409193772821e+01
 1.206834266757633e+00	 2.300807813011770e-01	 1.546770486514846e+01
 1.201559311028636e+00	 2.562058438728060e-01	 1.534273481685202e+01
 1.242855802027764e+00	 0.000000000000000e+00	 1.575863082891220e+01
 1.242600039210701e+00	 2.521247092131928e-02	 1.576586030112979e+01
 1.241824420289660e+00	 5.062206238169809e-02	 1.575441913855930e+01
 1.240516714919490e+00	 7.621493431466822e-02	 1.572533419164431e+01
 1.238665082282548e+00	 1.019765233886893e-01	 1.567974425635924e+01
 1.236258116327144e+00	 1.278915499795382e-01	 1.561889823958161e+01
 1.233284891550360e+00	 1.539440281726847e-01	 1.554415264744701e+01
 1.229735009112759e+00	 1.801172789114669e-01	 1.545696834151690e+01
 1.225598643056746e+00	 2.063939463917933e-01	 1.535890651078346e+01
 1.220866586385550e+00	 2.327560177870144e-01	 1.525162381291627e+01
 1.215530296746261e+00	 2.591848463675837e-01	 1.513686664585280e+01
 1.257140854919592e+00	 0.000000000000000e+00	 1.551265503167942e+01
 1.256882152432996e+00	 2.550225633266756e-02	 1.552086250146377e+01
 1.256097618755154e+00	 5.120389885549600e-02	 1.551115745449975e+01
 1.254774882968583e+00	 7.709092842795702e-02	 1.548463846727090e+01
 1.252901968160429e+00	 1.031486143314331e-01	 1.544250692797612e+01
 1.250467337180882e+00	 1.293615013217461e-01	 1.538606451472812e+01
 1.247459938952200e+00	 1.557134197464967e-01	 1.531671002465224e+01
 1.243869255113450e+00	 1.821874988443626e-01	 1.523593550240230e+01
 1.239685346770091e+00	 2.087661833282363e-01	 1.514532161990164e+01
 1.234898901102576e+00	 2.354312533368090e-01	 1.504653226467367e+01
 1.229501277574464e+00	 2.621638478199633e-01	 1.494130830207865e+01
 1.271425904478810e+00	 0.000000000000000e+00	 1.527906505528647e+01
 1.271164262323368e+00	 2.579204167657809e-02	 1.528818377843269e+01
 1.270370813890807e+00	 5.178573519383996e-02	 1.528009101407766e+01
 1.269033047691344e+00	 7.796692233723983e-02	 1.525595410977908e+01
 1.267138850716951e+00	 1.043207050011279e-01	 1.521703458396333e+01
 1.264676554719722e+00	 1.308314523214177e-01	 1.516468497082224e+01
 1.261634983047117e+00	 1.574828109078902e-01	 1.510034504246116e+01
 1.258003497816736e+00	 1.842577182946137e-01	 1.502553735969260e+01
 1.253772047197120e+00	 2.111384197115177e-01	 1.494186210624306e+01
 1.248931212545972e+00	 2.381064882626895e-01	 1.485099116687497e+01
 1.243472255143333e+00	 2.651428485774981e-01	 1.475466141815226e+01
 1.285710952372222e+00	 0.000000000000000e+00	 1.505633349180956e+01
 1.285446370548278e+00	 2.608182698689557e-02	 1.506629505130546e+01
 1.284644007362039e+00	 5.236757146467139e-02	 1.505969379601120e+01
 1.283291210751439e+00	 7.884291614478972e-02	 1.503776288109600e+01
 1.281375731613288e+00	 1.054927955345953e-01	 1.500182147255742e+01
 1.278885770601601e+00	 1.323014031501213e-01	 1.495327101283031e+01
 1.275810025489054e+00	 1.592522018633586e-01	 1.489359088842171e+01
 1.272137738871795e+00	 1.863279375037966e-01	 1.482433345301942e+01
 1.267858745981453e+00	 2.135106558184332e-01	 1.474711836296488e+01
 1.262963522352994e+00	 2.407817228767851e-01	 1.466362618789356e+01
 1.257443231082956e+00	 2.681218489877413e-01	 1.457559126787030e+01
 1.117733202760072e+00	 2.383317875507917e-01	 1.688172959765333e+01
 1.112263833020041e+00	 2.626762300530532e-01	 1.665682879272883e+01
 1.106225213142014e+00	 2.870461420440131e-01	 1.640482606350810e+01
 1.099611567383429e+00	 3.114228193362967e-01	 1.612758581888061e+01
 1.092417889981094e+00	 3.357870931611621e-01	 1.582709881957120e+01
 1.084639981399607e+00	 3.601193671492018e-01	 1.550547627018257e+01
 1.076274482631064e+00	 3.843996573223178e-01	 1.516494300826373e+01
 1.067318907274511e+00	 4.086076349933625e-01	 1.480782981116497e+01
 1.057771671128008e+00	 4.327226724432351e-01	 1.443656485464442e+01
 1.047632119033529e+00	 4.567238912185653e-01	 1.405366437027690e+01
 1.036900548725005e+00	 4.805902128667193e-01	 1.366172256126405e+01
 1.131704252046085e+00	 2.413108035985782e-01	 1.658059100503750e+01
 1.126166518197095e+00	 2.659595382211787e-01	 1.637226829877497e+01
 1.120052418896942e+00	 2.906340606870188e-01	 1.613795134384616e+01
 1.113356106209475e+00	 3.153154330166911e-01	 1.587947846877586e+01
 1.106072511802234e+00	 3.399842468424100e-01	 1.559879810786990e+01
 1.098197383647950e+00	 3.646206608509515e-01	 1.529796247173375e+01
 1.089727320752985e+00	 3.892044412755066e-01	 1.497912041049234e+01
 1.080659805637753e+00	 4.137150053315430e-01	 1.464450949925370e+01
 1.070993234298678e+00	 4.381314674648408e-01	 1.429644738838015e+01
 1.060726943388633e+00	 4.624326882528711e-01	 1.393732247386454e+01
 1.049861234363075e+00	 4.865973257739606e-01	 1.356958395511363e+01
 1.145675286662146e+00	 2.442898165186466e-01	 1.629970700616573e+01
 1.140069188776074e+00	 2.692428429421195e-01	 1.610692376580289e+01
 1.133879610133148e+00	 2.942219755630260e-01	 1.588917932213587e+01
 1.127100630603702e+00	 3.192080426101740e-01	 1.564828759745314e+01
 1.119727119286068e+00	 3.441813961169891e-01	 1.538615718047583e+01
 1.111754771661164e+00	 3.691219498266913e-01	 1.510478459700172e+01
 1.103180144749660e+00	 3.940092201840262e-01	 1.480624686269768e+01
 1.094000689993370e+00	 4.188223703073470e-01	 1.449269335604427e+01
 1.084214783587100e+00	 4.435402568075890e-01	 1.416633706236926e+01
 1.073821753994628e+00	 4.681414792933418e-01	 1.382944525239142e+01
 1.062821906392927e+00	 4.926044323741732e-01	 1.348432967026006e+01
 1.159646308238343e+00	 2.472688266585502e-01	 1.603721307666568e+01
 1.153971846379076e+00	 2.725261445989176e-01	 1.585898525124088e+01
 1.147706788463904e+00	 2.978098870906049e-01	 1.565675970578633e+01
 1.140845142169716e+00	 3.231006485708565e-01	 1.543232758041430e+01
 1.133381714025693e+00	 3.483785414745347e-01	 1.518756003224981e+01
 1.125312147020986e+00	 3.736232346015354e-01	 1.492440112717160e+01
 1.116632956190610e+00	 3.988139946083936e-01	 1.464486009690106e+01
 1.107341561897807e+00	 4.239297305165887e-01	 1.435100300759699e+01
 1.097436320535780e+00	 4.489490411024549e-01	 1.404494389905906e+01
 1.086916552379217e+00	 4.738502650059465e-01	 1.372883546598257e+01
 1.075782566326606e+00	 4.986115333681203e-01	 1.340485936393697e+01
 1.173617318404766e+00	 2.502478343658425e-01	 1.579133391291049e+01
 1.167874492628195e+00	 2.758094435746150e-01	 1.562673011863132e+01
 1.161533955502484e+00	 3.013977956883258e-01	 1.543902731169287e+01
 1.154589642511129e+00	 3.269932513528491e-01	 1.522999542525809e+01
 1.147036297614210e+00	 3.525756834046819e-01	 1.500147053461396e+01
 1.138869511309155e+00	 3.781245157005969e-01	 1.475534739031254e+01
 1.130085756645355e+00	 4.036187651091258e-01	 1.449357139358063e+01
 1.120682422907506e+00	 4.290370865550829e-01	 1.421813006801719e+01
 1.110657846687221e+00	 4.543578209804138e-01	 1.393104409465873e+01
 1.100011340070105e+00	 4.795590460566533e-01	 1.363435798979518e+01
 1.088743215676155e+00	 5.046186294565644e-01	 1.333013051592394e+01
 1.187588318791500e+00	 2.532268399880767e-01	 1.556037838116072e+01
 1.181777129145528e+00	 2.790927402522532e-01	 1.540851810754745e+01
 1.175361112862159e+00	 3.049857017747593e-01	 1.523439727144529e+01
 1.168334133231548e+00	 3.308858514102632e-01	 1.503976612672071e+01
 1.160690871644718e+00	 3.567728223970656e-01	 1.482642795493303e+01
 1.152426866107410e+00	 3.826257936489898e-01	 1.459623125951726e+01
 1.143538547683417e+00	 4.084235322467395e-01	 1.435106147283423e+01
 1.134023274578911e+00	 4.341444390186439e-01	 1.409283223769096e+01
 1.123879363583928e+00	 4.597665970724412e-01	 1.382347633821723e+01
 1.113106118594998e+00	 4.852678231114311e-01	 1.354493636736150e+01
 1.101703855953616e+00	 5.106257213402688e-01	 1.325915522916237e+01
 1.201559311028636e+00	 2.562058438728060e-01	 1.534273481685202e+01
 1.195679757553171e+00	 2.823760350148740e-01	 1.520278674477454e+01
 1.189188262156201e+00	 3.085736057684754e-01	 1.504136056787634e+01
 1.182078615934583e+00	 3.347784491972097e-01	 1.486018834209243e+01
 1.174345437710318e+00	 3.609699589413216e-01	 1.466104278427476e+01
 1.165984212997487e+00	 3.871270689718281e-01	 1.444572914640187e+01
 1.156991330874316e+00	 4.132282965817519e-01	 1.421607666687867e+01
 1.147364118468464e+00	 4.392517885030855e-01	 1.397392966784923e+01
 1.137100872768407e+00	 4.651753700095123e-01	 1.372113838106266e+01
 1.126200889481598e+00	 4.909765968362484e-01	 1.345954959739774e+01
 1.114664488671034e+00	 5.166328097199970e-01	 1.319099724604949e+01
 1.215530296746261e+00	 2.591848463675837e-01	 1.513686664585280e+01
 1.209582379473220e+00	 2.856593282455194e-01	 1.500804706929493e+01
 1.203015404997883e+00	 3.121615080880448e-01	 1.485847987628901e+01
 1.195823092223842e+00	 3.386710451677993e-01	 1.468988036123093e+01
 1.187999997404107e+00	 3.651670935270845e-01	 1.450399284873476e+01
 1.179541553561126e+00	 3.916283421942254e-01	 1.430258226619940e+01
 1.170444107787571e+00	 4.180330586746797e-01	 1.408742535124719e+01
 1.160704956132611e+00	 4.443591356042226e-01	 1.386030157002942e+01
 1.150322375783163e+00	 4.705841404226023e-01	 1.362298383645741e+01
 1.139295654257610e+00	 4.966853678970743e-01	 1.337722913529338e+01
 1.127625115340454e+00	 5.226398952965117e-01	 1.312476916305513e+01
 1.229501277574464e+00	 2.621638478199633e-01	 1.494130830207865e+01
 1.223484996527770e+00	 2.889426203272313e-01	 1.482287964611311e+01
 1.216842543000477e+00	 3.157494091520374e-01	 1.468438568612403e+01
 1.209567563702936e+00	 3.425636397761434e-01	 1.452752634773531e+01
 1.201654552319188e+00	 3.693642266439899e-01	 1.435401968176821e+01
 1.193098889380065e+00	 3.961296138412951e-01	 1.416559315284082e+01
 1.183896879992705e+00	 4.228378190860399e-01	 1.396397461410504e+01
 1.174045789127792e+00	 4.494664809178695e-01	 1.375088305095280e+01
 1.163543874170699e+00	 4.759929089426868e-01	 1.352801919115492e+01
 1.152390414450741e+00	 5.023941369598771e-01	 1.329705609220203e+01
 1.140585737473918e+00	 5.286469787705758e-01	 1.305962982788492e+01
 1.243472255143333e+00	 2.651428485774981e-01	 1.475466141815226e+01
 1.237387610338918e+00	 2.922259116430513e-01	 1.464593084620101e+01
 1.230669677777256e+00	 3.193373093790241e-01	 1.451777268100934e+01
 1.223312031975472e+00	 3.464562334763527e-01	 1.437187282995189e+01
 1.215309104048657e+00	 3.735613587816728e-01	 1.420992513699748e+01
 1.206656222036041e+00	 4.006308844381515e-01	 1.403362240436066e+01
 1.197349649059237e+00	 4.276425783763493e-01	 1.384464714495366e+01
 1.187386619010453e+00	 4.545738250398405e-01	 1.364466215508696e+01
 1.176765369473521e+00	 4.814016762007408e-01	 1.343530101219038e+01
 1.165485171588693e+00	 5.081029046906257e-01	 1.321815861619169e+01
 1.153546356583469e+00	 5.346540608429523e-01	 1.299478190483081e+01
 1.257443231082956e+00	 2.681218489877413e-01	 1.457559126787030e+01
 1.251290222528759e+00	 2.955092025760216e-01	 1.447590937186369e+01
 1.244496810941490e+00	 3.229252091875747e-01	 1.435739635709280e+01
 1.237056498645061e+00	 3.503488267225385e-01	 1.422172542237868e+01
 1.228963654185617e+00	 3.777584904297682e-01	 1.407056822279094e+01
 1.220213553110794e+00	 4.051321545099082e-01	 1.390558564071104e+01
 1.210802416556687e+00	 4.324473371061250e-01	 1.372841832565829e+01
 1.200727447337036e+00	 4.596811685659496e-01	 1.354067709873849e+01
 1.189986863234135e+00	 4.868104428277399e-01	 1.334393333371944e+01
 1.178579927199173e+00	 5.138116717552889e-01	 1.313970944129268e+01
 1.166506974181152e+00	 5.406611422144046e-01	 1.292946959522723e+01
 1.036900548725005e+00	 4.805902128667193e-01	 1.366172256126405e+01
 1.025577419295452e+00	 5.043020646478357e-01	 1.325729575193658e+01
 1.013665729158402e+00	 5.278364433591113e-01	 1.283686049639068e+01
 1.001168751814751e+00	 5.511719849359001e-01	 1.240285211796567e+01
 9.880907749640296e-01	 5.742873480231188e-01	 1.195768745087272e+01
 9.744371061647262e-01	 5.971612733236881e-01	 1.150375573720673e+01
 9.602140743702269e-01	 6.197726437892053e-01	 1.104340993600255e+01
 9.454290272392749e-01	 6.421005453207324e-01	 1.057895852200331e+01
 9.300903241502864e-01	 6.641243276354837e-01	 1.011265784032788e+01
 9.142073248808197e-01	 6.858236649462323e-01	 9.646705069652183e+00
 8.977903739465982e-01	 7.071786160946152e-01	 9.183231831275524e+00
 1.049861234363075e+00	 4.865973257739606e-01	 1.356958395511363e+01
 1.038396572053436e+00	 5.106055626397865e-01	 1.318943261800892e+01
 1.026335992351761e+00	 5.344341081201812e-01	 1.279302875480469e+01
 1.013682809675893e+00	 5.580613311114565e-01	 1.238271036132275e+01
 1.000441365319234e+00	 5.814656235033427e-01	 1.196079236243301e+01
 9.866170331818169e-01	 6.046254602692555e-01	 1.152955788155470e+01
 9.722162213254484e-01	 6.275194604093164e-01	 1.109124997888704e+01
 9.572463692505458e-01	 6.501264484098677e-01	 1.064806393624322e+01
 9.417159408231383e-01	 6.724255158709614e-01	 1.020214015367826e+01
 9.256344128128366e-01	 6.943960829442236e-01	 9.755557708182007e+00
 9.090122590360994e-01	 7.160179592177930e-01	 9.310328608018708e+00
 1.062821906392927e+00	 4.926044323741732e-01	 1.348432967026006e+01
 1.051215711351843e+00	 5.169090540135580e-01	 1.312687146494486e+01
 1.039006242241894e+00	 5.410317659542637e-01	 1.275294757453274e+01
 1.026196854397831e+00	 5.649506700538356e-01	 1.236480207837223e+01
 1.012791942706873e+00	 5.886438914470942e-01	 1.196465148691759e+01
 9.987969474105339e-01	 6.120896393782246e-01	 1.155467637124245e+01
 9.842183556789587e-01	 6.352662688961455e-01	 1.113701351826271e+01
 9.690636988541473e-01	 6.581523430727501e-01	 1.071374869010060e+01
 9.533415452896359e-01	 6.807266953911941e-01	 1.028691005209624e+01
 9.370614887469668e-01	 7.029684919422192e-01	 9.858462317657747e+00
 9.202341323432031e-01	 7.248572930607246e-01	 9.430301639938193e+00
 1.075782566326606e+00	 4.986115333681203e-01	 1.340485936393697e+01
 1.064034838686197e+00	 5.232125395044800e-01	 1.306861077447376e+01
 1.051676480306948e+00	 5.476294176309935e-01	 1.271571405866234e+01
 1.038710887440483e+00	 5.718400025666855e-01	 1.234832276381605e+01
 1.025142508567791e+00	 5.958221526917139e-01	 1.196855845124786e+01
 1.010976850271808e+00	 6.195538115212763e-01	 1.157850267269335e+01
 9.962204788309452e-01	 6.430130701533314e-01	 1.118018952980604e+01
 9.808810174287035e-01	 6.661782302455649e-01	 1.077559889609014e+01
 9.649671389060314e-01	 6.890278671644737e-01	 1.036665036543073e+01
 9.484885540162959e-01	 7.115408929401473e-01	 9.955197973612805e+00
 9.314559951770458e-01	 7.336966186544741e-01	 9.543025719436242e+00
 1.088743215676155e+00	 5.046186294565644e-01	 1.333013051592393e+01
 1.076853955552018e+00	 5.295160198478809e-01	 1.301370243315554e+01
 1.064346708025067e+00	 5.542270639200044e-01	 1.268047427592646e+01
 1.051224910263766e+00	 5.787293294536553e-01	 1.233251242096567e+01
 1.037493064342832e+00	 6.030004080745422e-01	 1.197184691976673e+01
 1.023156743186568e+00	 6.270179775690913e-01	 1.160046380813997e+01
 1.008222592181596e+00	 6.507598650845137e-01	 1.122029805667159e+01
 9.926983263528391e-01	 6.742041108644978e-01	 1.083322724279285e+01
 9.765927230285766e-01	 6.973290321590903e-01	 1.044106600863192e+01
 9.599156099539082e-01	 7.201132869379340e-01	 1.004556134954355e+01
 9.426778488467652e-01	 7.425359370301068e-01	 9.648388756769455e+00
 1.101703855953616e+00	 5.106257213402688e-01	 1.325915522916237e+01
 1.089673063444831e+00	 5.358194957790912e-01	 1.296124878711112e+01
 1.077016926874399e+00	 5.608247055909321e-01	 1.264642057050236e+01
 1.063738924327598e+00	 5.856186515183933e-01	 1.231665312756035e+01
 1.049843611472838e+00	 6.101786584329199e-01	 1.197388841701132e+01
 1.035336627575747e+00	 6.344821383923496e-01	 1.162002043625304e+01
 1.020224697131097e+00	 6.585066545933308e-01	 1.125688854883105e+01
 1.004515627005178e+00	 6.822299858657340e-01	 1.088627159369222e+01
 9.882182990135243e-01	 7.056301913433348e-01	 1.050988284078854e+01
 9.713426578928895e-01	 7.286856749355066e-01	 1.012936583675127e+01
 9.538996946614974e-01	 7.513752492186879e-01	 9.746291161179130e+00
 1.114664488671034e+00	 5.166328097199970e-01	 1.319099724604948e+01
 1.102492163860158e+00	 5.421229680334391e-01	 1.291039989418538e+01
 1.089687138333090e+00	 5.674223434134106e-01	 1.261278905095708e+01
 1.076252931091896e+00	 5.925079695645479e-01	 1.230006676241302e+01
 1.062194151398654e+00	 6.173569046041871e-01	 1.197409029296570e+01
 1.047516504860274e+00	 6.419462948617327e-01	 1.163666505688283e+01
 1.032226795079638e+00	 6.662534395834214e-01	 1.128953830814330e+01
 1.016332920764344e+00	 6.902558561854591e-01	 1.093439367335683e+01
 9.998438682171271e-01	 7.139313456854990e-01	 1.057284659313217e+01
 9.827696991663241e-01	 7.372580579327912e-01	 1.020644071478478e+01
 9.651215339303795e-01	 7.602145562512814e-01	 9.836645254281708e+00
 1.127625115340454e+00	 5.226398952965117e-01	 1.312476916305513e+01
 1.115311258293522e+00	 5.484264373462548e-01	 1.286035095765594e+01
 1.102357343879284e+00	 5.740199781570746e-01	 1.257885724392535e+01
 1.088766932016580e+00	 5.993972843957679e-01	 1.228211287994251e+01
 1.074544685561123e+00	 6.245351474256848e-01	 1.197189381932891e+01
 1.059696376461081e+00	 6.494104478479209e-01	 1.164992032992562e+01
 1.044228887427404e+00	 6.740002209584247e-01	 1.131785103064877e+01
 1.028150209008962e+00	 6.982817227598582e-01	 1.097727783394151e+01
 1.011469431995637e+00	 7.222324961538733e-01	 1.062972186045824e+01
 9.941967351072980e-01	 7.458304369297156e-01	 1.027663036841298e+01
 9.763433679625483e-01	 7.690538591589523e-01	 9.919374713123297e+00
 1.140585737473918e+00	 5.286469787705758e-01	 1.305962982788492e+01
 1.128130348240445e+00	 5.547299044528674e-01	 1.281033992704572e+01
 1.115027544991130e+00	 5.806176105915594e-01	 1.254394189941425e+01
 1.101280928561567e+00	 6.062865968157012e-01	 1.226218672082736e+01
 1.086895215401089e+00	 6.317133877347538e-01	 1.196677240637596e+01
 1.071876243799097e+00	 6.568745982215950e-01	 1.165933749923721e+01
 1.056230975574584e+00	 6.817469996219793e-01	 1.134145543835349e+01
 1.039967493117655e+00	 7.063075865251172e-01	 1.101462989561763e+01
 1.023094991705307e+00	 7.305336437167493e-01	 1.068029115092037e+01
 1.005623767048896e+00	 7.544028129262060e-01	 1.033979354742537e+01
 9.875651980671412e-01	 7.778931589727657e-01	 9.994414040539137e+00
 1.153546356583469e+00	 5.346540608429523e-01	 1.299478190483081e+01
 1.140949435196451e+00	 5.610333700886062e-01	 1.275964525289534e+01
 1.127697743146772e+00	 5.872152414864988e-01	 1.250739693580905e+01
 1.113794922186774e+00	 6.131759076279970e-01	 1.223971734807499e+01
 1.099245742359396e+00	 6.388916263687342e-01	 1.195822993092649e+01
 1.084056108295254e+00	 6.643387468534362e-01	 1.166449491333046e+01
 1.068233060921365e+00	 6.894937764777240e-01	 1.136000399346372e+01
 1.051784774469049e+00	 7.143334484174210e-01	 1.104617605511761e+01
 1.034720548702388e+00	 7.388347893424174e-01	 1.072435398960566e+01
 1.017050796324203e+00	 7.629751869221899e-01	 1.039580266589298e+01
 9.987870255532937e-01	 7.867324567237854e-01	 1.006170806067070e+01
 1.166506974181152e+00	 5.406611422144046e-01	 1.292946959522723e+01
 1.153768520657062e+00	 5.673368349888009e-01	 1.270758378351967e+01
 1.140367939824356e+00	 5.938128716115278e-01	 1.246861151371307e+01
 1.126308914352119e+00	 6.200652176363033e-01	 1.221416589875055e+01
 1.111596267876887e+00	 6.460698641649667e-01	 1.194579916677876e+01
 1.096235971370482e+00	 6.718028946141243e-01	 1.166499663532899e+01
 1.080235144867935e+00	 6.972405524292983e-01	 1.137317168865865e+01
 1.063602054441766e+00	 7.223593093729551e-01	 1.107166185709591e+01
 1.046346104343134e+00	 7.471359339991690e-01	 1.076172607170892e+01
 1.028477824266305e+00	 7.715475599175938e-01	 1.044454313781967e+01
 1.010008851730144e+00	 7.955717534430776e-01	 1.012121143768340e+01
 8.977903739465982e-01	 7.071786160946152e-01	 9.183231831275524e+00
 8.808507781263871e-01	 7.281696857534988e-01	 8.721939034873101e+00
 8.634007747364419e-01	 7.487778883035630e-01	 8.262412054430781e+00
 8.454535107871739e-01	 7.689847982105142e-01	 7.806460573765062e+00
 8.270230131317176e-01	 7.887726023905666e-01	 7.355764216718668e+00
 8.081241522539677e-01	 8.081241522539679e-01	 6.911870758502777e+00
 7.887726023905661e-01	 8.270230131317177e-01	 6.476195292683801e+00
 7.689847982105142e-01	 8.454535107871741e-01	 6.050020271489648e+00
 7.487778883035625e-01	 8.634007747364423e-01	 5.634496325403197e+00
 7.281696857534985e-01	 8.808507781263871e-01	 5.230643760033774e+00
 7.071786160946154e-01	 8.977903739465983e-01	 4.839354624273767e+00
 9.090122590360994e-01	 7.160179592177930e-01	 9.310328608018708e+00
 8.918609276001876e-01	 7.372714056836830e-01	 8.865899676979948e+00
 8.741928087810674e-01	 7.581371994127891e-01	 8.421649116670846e+00
 8.560212139195389e-01	 7.785966845617895e-01	 7.979345883306350e+00
 8.373603451966737e-01	 7.986318253931607e-01	 7.540641379910628e+00
 8.182252589692260e-01	 8.182252589692263e-01	 7.107067830800785e+00
 7.986318253931602e-01	 8.373603451966736e-01	 6.680037519563253e+00
 7.785966845617891e-01	 8.560212139195389e-01	 6.260842802263022e+00
 7.581371994127888e-01	 8.741928087810675e-01	 5.850656796557585e+00
 7.372714056836827e-01	 8.918609276001878e-01	 5.450534640301802e+00
 7.160179592177931e-01	 9.090122590360992e-01	 5.061415210389521e+00
 9.202341323432031e-01	 7.248572930607246e-01	 9.430301639938193e+00
 9.028710655139545e-01	 7.463731160581214e-01	 9.001655261274790e+00
 8.849848314947354e-01	 7.674965006957747e-01	 8.571725532066370e+00
 8.665889059565564e-01	 7.882085608215773e-01	 8.142239154120592e+00
 8.476976664082401e-01	 8.084910380445101e-01	 7.714817111260571e+00
 8.283263550791978e-01	 8.283263550791981e-01	 7.290973240687871e+00
 8.084910380445095e-01	 8.476976664082403e-01	 6.872113581593108e+00
 7.882085608215771e-01	 8.665889059565568e-01	 6.459536406103025e+00
 7.674965006957744e-01	 8.849848314947356e-01	 6.054432827120131e+00
 7.463731160581211e-01	 9.028710655139547e-01	 5.657887871330679e+00
 7.248572930607247e-01	 9.202341323432032e-01	 5.270881903894155e+00
 9.314559951770458e-01	 7.336966186544741e-01	 9.543025719436242e+00
 9.138811931521120e-01	 7.554748179384909e-01	 9.129173440005097e+00
 8.957768441364098e-01	 7.768557932442529e-01	 8.712696733675628e+00
 8.771565881310048e-01	 7.978204281110890e-01	 8.295278632034547e+00
 8.580349779723025e-01	 8.183502414946923e-01	 7.878507629029472e+00
 8.384274417621956e-01	 8.384274417621959e-01	 7.463876483016895e+00
 8.183502414946922e-01	 8.580349779723029e-01	 7.052781715735084e+00
 7.978204281110886e-01	 8.771565881310051e-01	 6.646523705912607e+00
 7.768557932442528e-01	 8.957768441364100e-01	 6.246307265109405e+00
 7.554748179384908e-01	 9.138811931521124e-01	 5.853242577826475e+00
 7.336966186544741e-01	 9.314559951770459e-01	 5.468346387171036e+00
 9.426778488467652e-01	 7.425359370301068e-01	 9.648388756769455e+00
 9.248913117990835e-01	 7.645765123864678e-01	 9.248430621109016e+00
 9.065688479650544e-01	 7.862150781499597e-01	 8.844622771461614e+00
 8.877242616756615e-01	 8.074322875515353e-01	 8.438603258303113e+00
 8.683722810947471e-01	 8.282094368937868e-01	 8.031926135506037e+00
 8.485285201965314e-01	 8.485285201965317e-01	 7.626060526990383e+00
 8.282094368937866e-01	 8.683722810947477e-01	 7.222390315935431e+00
 8.074322875515352e-01	 8.877242616756618e-01	 6.822214346133256e+00
 7.862150781499594e-01	 9.065688479650545e-01	 6.426747015263624e+00
 7.645765123864676e-01	 9.248913117990837e-01	 6.037119134926804e+00
 7.425359370301071e-01	 9.426778488467653e-01	 5.654378932478979e+00
 9.538996946614974e-01	 7.513752492186879e-01	 9.746291161179130e+00
 9.359014227392927e-01	 7.736782004637299e-01	 9.359411604634076e+00
 9.173608442396334e-01	 7.955743565046290e-01	 8.967568191806125e+00
 8.982919278233042e-01	 8.170441402641271e-01	 8.572352780364497e+00
 8.787095769814606e-01	 8.380686253918720e-01	 8.175283147523999e+00
 8.586295915605159e-01	 8.586295915605164e-01	 7.777802355378505e+00
 8.380686253918719e-01	 8.787095769814610e-01	 7.381278670433417e+00
 8.170441402641268e-01	 8.982919278233045e-01	 6.987005918023672e+00
 7.955743565046286e-01	 9.173608442396336e-01	 6.596204142690557e+00
 7.736782004637297e-01	 9.359014227392930e-01	 6.210020441177086e+00
 7.513752492186877e-01	 9.538996946614970e-01	 5.829529835794235e+00
 9.651215339303795e-01	 7.602145562512814e-01	 9.836645254281708e+00
 9.469115272571633e-01	 7.827798832319531e-01	 9.462109233552574e+00
 9.281528342191102e-01	 8.049336293999959e-01	 9.081601914468232e+00
 9.088595878067111e-01	 8.266559873700755e-01	 8.696667843972740e+00
 8.890468668383286e-01	 8.479278081390260e-01	 8.308786793150423e+00
 8.687306570324631e-01	 8.687306570324635e-01	 7.919373455528034e+00
 8.479278081390258e-01	 8.890468668383289e-01	 7.529777637275934e+00
 8.266559873700748e-01	 9.088595878067113e-01	 7.141284810314091e+00
 8.049336293999955e-01	 9.281528342191108e-01	 6.755116889778893e+00
 7.827798832319527e-01	 9.469115272571639e-01	 6.372433093327123e+00
 7.602145562512813e-01	 9.651215339303794e-01	 5.994330741659377e+00
 9.763433679625483e-01	 7.690538591589523e-01	 9.919374713123297e+00
 9.579216266371187e-01	 7.918815617528144e-01	 9.556524057815599e+00
 9.389448191624499e-01	 8.142928979277946e-01	 9.186797107192776e+00
 9.194272428586596e-01	 8.362678299905909e-01	 8.811690068207231e+00
 8.993841518712374e-01	 8.577869862853280e-01	 8.432643077266510e+00
 8.788317177906830e-01	 8.788317177906835e-01	 8.051040266041936e+00
 8.577869862853276e-01	 8.993841518712375e-01	 7.668210263009684e+00
 8.362678299905906e-01	 9.194272428586597e-01	 7.285426991241748e+00
 8.142928979277942e-01	 9.389448191624503e-01	 6.903910613351786e+00
 7.918815617528140e-01	 9.579216266371190e-01	 6.524828470849596e+00
 7.690538591589523e-01	 9.763433679625483e-01	 6.149295867810781e+00
 9.875651980671412e-01	 7.778931589727657e-01	 9.994414040539137e+00
 9.689317221635829e-01	 8.009832370879902e-01	 9.642664010593002e+00
 9.497368003286156e-01	 8.236521631797603e-01	 9.283231058156758e+00
 9.299948942119269e-01	 8.458796692468847e-01	 8.917562104721952e+00
 9.097214332860737e-01	 8.676461609808563e-01	 8.547056118517588e+00
 8.889327750134892e-01	 8.889327750134896e-01	 8.173064582657450e+00
 8.676461609808558e-01	 9.097214332860740e-01	 7.796892349072458e+00
 8.458796692468844e-01	 9.299948942119275e-01	 7.419798727426527e+00
 8.236521631797599e-01	 9.497368003286158e-01	 7.042998648408101e+00
 8.009832370879897e-01	 9.689317221635830e-01	 6.667663737363300e+00
 7.778931589727656e-01	 9.875651980671409e-01	 6.294923137557600e+00
 9.987870255532937e-01	 7.867324567237854e-01	 1.006170806067070e+01
 9.799418151209793e-01	 8.100849102991579e-01	 9.720544095741460e+00
 9.605287789765713e-01	 8.330114262476276e-01	 9.370985046423597e+00
 9.405625430992914e-01	 8.554915062601673e-01	 9.014427682474309e+00
 9.200587122887236e-01	 8.775053333756896e-01	 8.652228359883591e+00
 8.990338298791927e-01	 8.990338298791930e-01	 8.285703926531582e+00
 8.775053333756889e-01	 9.200587122887238e-01	 7.916132969998580e+00
 8.554915062601672e-01	 9.405625430992921e-01	 7.544757244555816e+00
 8.330114262476271e-01	 9.605287789765714e-01	 7.172783104226596e+00
 8.100849102991573e-01	 9.799418151209796e-01	 6.801382765496998e+00
 7.867324567237856e-01	 9.987870255532937e-01	 6.431695227169953e+00
 1.010008851730144e+00	 7.955717534430776e-01	 1.012121143768340e+01
 9.909519067937320e-01	 8.191865824479939e-01	 9.790186085627058e+00
 9.713207563652808e-01	 8.423706882231309e-01	 9.450144210561255e+00
 9.511301907535311e-01	 8.651033421516505e-01	 9.102431639063466e+00
 9.303959900850729e-01	 8.873645046199061e-01	 8.748360754922862e+00
 9.091348835661056e-01	 9.091348835661061e-01	 8.389211877858948e+00
 8.873645046199057e-01	 9.303959900850729e-01	 8.026234947185971e+00
 8.651033421516500e-01	 9.511301907535311e-01	 7.660651334405450e+00
 8.423706882231307e-01	 9.713207563652815e-01	 7.293655598094203e+00
 8.191865824479935e-01	 9.909519067937324e-01	 6.926416991150688e+00
 7.955717534430776e-01	 1.010008851730144e+00	 6.560080534886787e+00
 7.071786160946154e-01	 8.977903739465983e-01	 4.839354624273767e+00
 6.858236649462317e-01	 9.142073248808196e-01	 4.461219660707809e+00
 6.641243276354835e-01	 9.300903241502866e-01	 4.096862575155410e+00
 6.421005453207319e-01	 9.454290272392751e-01	 3.747023929856573e+00
 6.197726437892049e-01	 9.602140743702273e-01	 3.412303248394855e+00
 5.971612733236877e-01	 9.744371061647262e-01	 3.093160054880543e+00
 5.742873480231185e-01	 9.880907749640297e-01	 2.789915252230849e+00
 5.511719849358999e-01	 1.001168751814751e+00	 2.502752821181432e+00
 5.278364433591108e-01	 1.013665729158402e+00	 2.231721835596512e+00
 5.043020646478351e-01	 1.025577419295452e+00	 1.976738803184501e+00
 4.805902128667193e-01	 1.036900548725006e+00	 1.737590353145333e+00
 7.160179592177931e-01	 9.090122590360992e-01	 5.061415210389521e+00
 6.943960829442232e-01	 9.256344128128371e-01	 4.683903645601500e+00
 6.724255158709611e-01	 9.417159408231384e-01	 4.318641065845086e+00
 6.501264484098671e-01	 9.572463692505462e-01	 3.966441405408265e+00
 6.275194604093159e-01	 9.722162213254483e-01	 3.627994547189229e+00
 6.046254602692551e-01	 9.866170331818170e-01	 3.303866317559641e+00
 5.814656235033423e-01	 1.000441365319234e+00	 2.994498667936489e+00
 5.580613311114559e-01	 1.013682809675893e+00	 2.700210037387214e+00
 5.344341081201810e-01	 1.026335992351761e+00	 2.421195907010538e+00
 5.106055626397861e-01	 1.038396572053436e+00	 2.157529572632090e+00
 4.865973257739606e-01	 1.049861234363075e+00	 1.909163176738919e+00
 7.248572930607247e-01	 9.202341323432032e-01	 5.270881903894155e+00
 7.029684919422190e-01	 9.370614887469674e-01	 4.894047860406015e+00
 6.807266953911937e-01	 9.533415452896362e-01	 4.528054888227931e+00
 6.581523430727497e-01	 9.690636988541473e-01	 4.173779682027117e+00
 6.352662688961452e-01	 9.842183556789591e-01	 3.831990850875758e+00
 6.120896393782242e-01	 9.987969474105339e-01	 3.503347974433186e+00
 5.886438914470936e-01	 1.012791942706873e+00	 3.188400695790620e+00
 5.649506700538351e-01	 1.026196854397832e+00	 2.887587856680727e+00
 5.410317659542635e-01	 1.039006242241895e+00	 2.601236699750722e+00
 5.169090540135576e-01	 1.051215711351843e+00	 2.329562180757056e+00
 4.926044323741732e-01	 1.062821906392927e+00	 2.072666450016766e+00
 7.336966186544741e-01	 9.314559951770459e-01	 5.468346387171036e+00
 7.115408929401470e-01	 9.484885540162963e-01	 5.092290266768005e+00
 6.890278671644734e-01	 9.649671389060314e-01	 4.725779552041586e+00
 6.661782302455646e-01	 9.808810174287038e-01	 4.369743518290133e+00
 6.430130701533312e-01	 9.962204788309453e-01	 4.025018338083223e+00
 6.195538115212760e-01	 1.010976850271808e+00	 3.692345302601161e+00
 5.958221526917136e-01	 1.025142508567791e+00	 3.372368931621331e+00
 5.718400025666852e-01	 1.038710887440483e+00	 3.065634987925923e+00
 5.476294176309930e-01	 1.051676480306948e+00	 2.772588433570486e+00
 5.232125395044795e-01	 1.064034838686197e+00	 2.493571386097265e+00
 4.986115333681203e-01	 1.075782566326606e+00	 2.228821151469860e+00
 7.425359370301071e-01	 9.426778488467653e-01	 5.654378932478979e+00
 7.201132869379336e-01	 9.599156099539083e-01	 5.279245021593491e+00
 6.973290321590896e-01	 9.765927230285767e-01	 4.912464749049999e+00
 6.742041108644973e-01	 9.926983263528394e-01	 4.555010201442211e+00
 6.507598650845134e-01	 1.008222592181596e+00	 4.207774399778876e+00
 6.270179775690907e-01	 1.023156743186568e+00	 3.871568788183427e+00
 6.030004080745418e-01	 1.037493064342832e+00	 3.547120464947888e+00
 5.787293294536551e-01	 1.051224910263766e+00	 3.235069180480418e+00
 5.542270639200043e-01	 1.064346708025068e+00	 2.935964151122973e+00
 5.295160198478805e-01	 1.076853955552018e+00	 2.650260761062985e+00
 5.046186294565644e-01	 1.088743215676154e+00	 2.378317245614348e+00
 7.513752492186877e-01	 9.538996946614970e-01	 5.829529835794235e+00
 7.286856749355062e-01	 9.713426578928899e-01	 5.455504056048819e+00
 7.056301913433345e-01	 9.882182990135246e-01	 5.088736054529424e+00
 6.822299858657339e-01	 1.004515627005178e+00	 4.730231349782478e+00
 6.585066545933304e-01	 1.020224697131098e+00	 4.380929522145821e+00
 6.344821383923491e-01	 1.035336627575747e+00	 4.041701070534773e+00
 6.101786584329194e-01	 1.049843611472838e+00	 3.713343866708115e+00
 5.856186515183930e-01	 1.063738924327598e+00	 3.396579239008598e+00
 5.608247055909317e-01	 1.077016926874399e+00	 3.092047744890026e+00
 5.358194957790905e-01	 1.089673063444831e+00	 2.800304717525421e+00
 5.106257213402690e-01	 1.101703855953616e+00	 2.521815695339540e+00
 7.602145562512813e-01	 9.651215339303794e-01	 5.994330741659377e+00
 7.372580579327910e-01	 9.827696991663243e-01	 5.621638535883653e+00
 7.139313456854985e-01	 9.998438682171275e-01	 5.255196501997790e+00
 6.902558561854589e-01	 1.016332920764344e+00	 4.896034581742544e+00
 6.662534395834212e-01	 1.032226795079638e+00	 4.545129031039770e+00
 6.419462948617320e-01	 1.047516504860274e+00	 4.203398744272491e+00
 6.173569046041869e-01	 1.062194151398654e+00	 3.871701032280805e+00
 5.925079695645477e-01	 1.076252931091897e+00	 3.550826892215123e+00
 5.674223434134104e-01	 1.089687138333090e+00	 3.241495837695049e+00
 5.421229680334386e-01	 1.102492163860158e+00	 2.944350386577405e+00
 5.166328097199971e-01	 1.114664488671035e+00	 2.659950329832603e+00
 7.690538591589523e-01	 9.763433679625483e-01	 6.149295867810781e+00
 7.458304369297151e-01	 9.941967351072982e-01	 5.778200212624309e+00
 7.222324961538731e-01	 1.011469431995637e+00	 5.412428041387777e+00
 6.982817227598579e-01	 1.028150209008962e+00	 5.053025062384339e+00
 6.740002209584242e-01	 1.044228887427404e+00	 4.700994709165657e+00
 6.494104478479207e-01	 1.059696376461081e+00	 4.357294030560325e+00
 6.245351474256845e-01	 1.074544685561123e+00	 4.022828891446270e+00
 5.993972843957676e-01	 1.088766932016580e+00	 3.698448527252070e+00
 5.740199781570746e-01	 1.102357343879285e+00	 3.384939528579386e+00
 5.484264373462544e-01	 1.115311258293522e+00	 3.083019364202117e+00
 5.226398952965116e-01	 1.127625115340454e+00	 2.793329579703009e+00
 7.778931589727656e-01	 9.875651980671409e-01	 6.294923137557600e+00
 7.544028129262057e-01	 1.005623767048896e+00	 5.925722674321796e+00
 7.305336437167487e-01	 1.023094991705307e+00	 5.560992889936815e+00
 7.063075865251167e-01	 1.039967493117656e+00	 5.201786937070990e+00
 6.817469996219788e-01	 1.056230975574584e+00	 4.849126296098847e+00
 6.568745982215948e-01	 1.071876243799097e+00	 4.503996328049638e+00
 6.317133877347535e-01	 1.086895215401090e+00	 4.167340995873201e+00
 6.062865968157010e-01	 1.101280928561567e+00	 3.840056800489346e+00
 5.806176105915590e-01	 1.115027544991130e+00	 3.522986014756132e+00
 5.547299044528670e-01	 1.128130348240445e+00	 3.216909333517615e+00
 5.286469787705758e-01	 1.140585737473918e+00	 2.922538089871116e+00
 7.867324567237856e-01	 9.987870255532937e-01	 6.431695227169953e+00
 7.629751869221895e-01	 1.017050796324203e+00	 6.064722503754968e+00
 7.388347893424171e-01	 1.034720548702388e+00	 5.701434784233543e+00
 7.143334484174205e-01	 1.051784774469049e+00	 5.342884661184742e+00
 6.894937764777238e-01	 1.068233060921365e+00	 4.990102880368784e+00
 6.643387468534357e-01	 1.084056108295254e+00	 4.644093652944910e+00
 6.388916263687338e-01	 1.099245742359396e+00	 4.305828993764742e+00
 6.131759076279966e-01	 1.113794922186774e+00	 3.976242134372060e+00
 5.872152414864982e-01	 1.127697743146772e+00	 3.656220099388708e+00
 5.610333700886059e-01	 1.140949435196451e+00	 3.346595573307197e+00
 5.346540608429523e-01	 1.153546356583469e+00	 3.048138219837999e+00
 7.955717534430776e-01	 1.010008851730144e+00	 6.560080534886787e+00
 7.715475599175932e-01	 1.028477824266305e+00	 6.195700351288602e+00
 7.471359339991688e-01	 1.046346104343135e+00	 5.834280141110343e+00
 7.223593093729547e-01	 1.063602054441766e+00	 5.476864233979986e+00
 6.972405524292978e-01	 1.080235144867935e+00	 5.124484191999883e+00
 6.718028946141240e-01	 1.096235971370482e+00	 4.778153976819045e+00
 6.460698641649665e-01	 1.111596267876887e+00	 4.438864000442845e+00
 6.200652176363031e-01	 1.126308914352119e+00	 4.107574109227411e+00
 5.938128716115273e-01	 1.140367939824357e+00	 3.785205594076158e+00
 5.673368349888005e-01	 1.153768520657062e+00	 3.472632361680252e+00
 5.406611422144048e-01	 1.166506974181152e+00	 3.170671440096511e+00
 4.805902128667193e-01	 1.036900548725006e+00	 1.737590353145331e+00
 4.567238912185655e-01	 1.047632119033528e+00	 1.513706952976147e+00
 4.327226724432352e-01	 1.057771671128007e+00	 1.304806023528783e+00
 4.086076349933627e-01	 1.067318907274511e+00	 1.110963360077025e+00
 3.843996573223180e-01	 1.076274482631064e+00	 9.321283171817711e-01
 3.601193671492018e-01	 1.084639981399606e+00	 7.681235417947012e-01
 3.357870931611622e-01	 1.092417889981094e+00	 6.186456485655096e-01
 3.114228193362970e-01	 1.099611567383429e+00	 4.832669062455399e-01
 2.870461420440134e-01	 1.106225213142014e+00	 3.614379886138148e-01
 2.626762300530535e-01	 1.112263833020041e+00	 2.524918253819932e-01
 2.383317875507918e-01	 1.117733202760072e+00	 1.556485686503448e-01
 4.865973257739606e-01	 1.049861234363075e+00	 1.909163176738919e+00
 4.624326882528714e-01	 1.060726943388633e+00	 1.675709419725852e+00
 4.381314674648409e-01	 1.070993234298677e+00	 1.456999921671349e+00
 4.137150053315431e-01	 1.080659805637752e+00	 1.253184937132184e+00
 3.892044412755069e-01	 1.089727320752985e+00	 1.064292086558024e+00
 3.646206608509516e-01	 1.098197383647950e+00	 8.902250016798745e-01
 3.399842468424103e-01	 1.106072511802235e+00	 7.307629154724622e-01
 3.153154330166913e-01	 1.113356106209476e+00	 5.855612831492574e-01
 2.906340606870190e-01	 1.120052418896942e+00	 4.541535043675136e-01
 2.659595382211789e-01	 1.126166518197095e+00	 3.359537976785758e-01
 2.413108035985782e-01	 1.131704252046085e+00	 2.302612568707618e-01
 4.926044323741732e-01	 1.062821906392927e+00	 2.072666450016766e+00
 4.681414792933423e-01	 1.073821753994628e+00	 1.830328683056941e+00
 4.435402568075893e-01	 1.084214783587100e+00	 1.602488136842783e+00
 4.188223703073470e-01	 1.094000689993370e+00	 1.389367513766274e+00
 3.940092201840263e-01	 1.103180144749659e+00	 1.191070764825463e+00
 3.691219498266916e-01	 1.111754771661164e+00	 1.007580628748087e+00
 3.441813961169894e-01	 1.119727119286067e+00	 8.387571164352372e-01
 3.192080426101743e-01	 1.127100630603701e+00	 6.843370454106863e-01
 2.942219755630262e-01	 1.133879610133147e+00	 5.439347118775897e-01
 2.692428429421198e-01	 1.140069188776074e+00	 4.170437676602912e-01
 2.442898165186467e-01	 1.145675286662146e+00	 3.030403463892293e-01
 4.986115333681203e-01	 1.075782566326606e+00	 2.228821151469860e+00
 4.738502650059467e-01	 1.086916552379217e+00	 1.978269660561799e+00
 4.489490411024551e-01	 1.097436320535780e+00	 1.741958956116572e+00
 4.239297305165890e-01	 1.107341561897807e+00	 1.520182365382635e+00
 3.988139946083938e-01	 1.116632956190609e+00	 1.313118430594761e+00
 3.736232346015355e-01	 1.125312147020986e+00	 1.120827321497079e+00
 3.483785414745348e-01	 1.133381714025693e+00	 9.432481921964222e-01
 3.231006485708565e-01	 1.140845142169716e+00	 7.801976059501534e-01
 2.978098870906050e-01	 1.147706788463904e+00	 6.313691336267073e-01
 2.725261445989179e-01	 1.153971846379076e+00	 4.963342100556720e-01
 2.472688266585503e-01	 1.159646308238343e+00	 3.745443080096613e-01
 5.046186294565644e-01	 1.088743215676154e+00	 2.378317245614348e+00
 4.795590460566536e-01	 1.100011340070106e+00	 2.120206516639950e+00
 4.543578209804141e-01	 1.110657846687220e+00	 1.876070186422039e+00
 4.290370865550832e-01	 1.120682422907506e+00	 1.646270569387229e+00
 4.036187651091259e-01	 1.130085756645355e+00	 1.431059252776225e+00
 3.781245157005970e-01	 1.138869511309155e+00	 1.230572360450872e+00
 3.525756834046820e-01	 1.147036297614210e+00	 1.044826758181459e+00
 3.269932513528492e-01	 1.154589642511129e+00	 8.737173436703196e-01
 3.013977956883261e-01	 1.161533955502484e+00	 7.170155459299041e-01
 2.758094435746151e-01	 1.167874492628195e+00	 5.743691359096441e-01
 2.502478343658426e-01	 1.173617318404765e+00	 4.453034242059113e-01
 5.106257213402690e-01	 1.101703855953616e+00	 2.521815695339544e+00
 4.852678231114312e-01	 1.113106118594997e+00	 2.256784655125764e+00
 4.597665970724414e-01	 1.123879363583928e+00	 2.005451125467361e+00
 4.341444390186440e-01	 1.134023274578911e+00	 1.768244952638933e+00
 4.084235322467397e-01	 1.143538547683417e+00	 1.545489413023706e+00
 3.826257936489901e-01	 1.152426866107410e+00	 1.337395304308881e+00
 3.567728223970658e-01	 1.160690871644718e+00	 1.144055973323632e+00
 3.308858514102634e-01	 1.168334133231548e+00	 9.654434441958846e-01
 3.049857017747594e-01	 1.175361112862159e+00	 8.014057911072112e-01
 2.790927402522533e-01	 1.181777129145528e+00	 6.516658759934733e-01
 2.532268399880767e-01	 1.187588318791500e+00	 5.158215438648264e-01
 5.166328097199971e-01	 1.114664488671035e+00	 2.659950329832603e+00
 4.909765968362486e-01	 1.126200889481598e+00	 2.388622569329860e+00
 4.651753700095125e-01	 1.137100872768407e+00	 2.130704392027844e+00
 4.392517885030857e-01	 1.147364118468464e+00	 1.886691900315090e+00
 4.132282965817521e-01	 1.156991330874316e+00	 1.656978891721205e+00
 3.871270689718284e-01	 1.165984212997487e+00	 1.441849751824649e+00
 3.609699589413218e-01	 1.174345437710318e+00	 1.241473276845589e+00
 3.347784491972099e-01	 1.182078615934583e+00	 1.055897610818584e+00
 3.085736057684756e-01	 1.189188262156202e+00	 8.850464621113390e-01
 2.823760350148741e-01	 1.195679757553171e+00	 7.287167389021196e-01
 2.562058438728059e-01	 1.201559311028636e+00	 5.865777139118855e-01
 5.226398952965116e-01	 1.127625115340454e+00	 2.793329579703010e+00
 4.966853678970744e-01	 1.139295654257610e+00	 2.516313560968946e+00
 4.705841404226027e-01	 1.150322375783162e+00	 2.252407626917701e+00
 4.443591356042228e-01	 1.160704956132610e+00	 2.002173037344352e+00
 4.180330586746799e-01	 1.170444107787572e+00	 1.766073128492656e+00
 3.916283421942255e-01	 1.179541553561126e+00	 1.544464980219779e+00
 3.651670935270849e-01	 1.187999997404108e+00	 1.337592003624171e+00
 3.386710451677995e-01	 1.195823092223842e+00	 1.145577656092873e+00
 3.121615080880449e-01	 1.203015404997883e+00	 9.684204698760139e-01
 2.856593282455197e-01	 1.209582379473220e+00	 8.059905539233359e-01
 2.591848463675838e-01	 1.215530296746261e+00	 6.580276977262760e-01
 5.286469787705758e-01	 1.140585737473918e+00	 2.922538089871116e+00
 5.023941369598772e-01	 1.152390414450741e+00	 2.640427338414889e+00
 4.759929089426871e-01	 1.163543874170699e+00	 2.371115074932757e+00
 4.494664809178697e-01	 1.174045789127792e+00	 2.115226792544746e+00
 4.228378190860402e-01	 1.183896879992705e+00	 1.873294567218434e+00
 3.961296138412954e-01	 1.193098889380064e+00	 1.645747469954126e+00
 3.693642266439901e-01	 1.201654552319188e+00	 1.432902887797884e+00
 3.425636397761436e-01	 1.209567563702935e+00	 1.234958983578268e+00
 3.157494091520378e-01	 1.216842543000477e+00	 1.051988502713953e+00
 2.889426203272316e-01	 1.223484996527770e+00	 8.839341078467482e-01
 2.621638478199633e-01	 1.229501277574464e+00	 7.306053893523452e-01
 5.346540608429523e-01	 1.153546356583469e+00	 3.048138219837999e+00
 5.081029046906258e-01	 1.165485171588693e+00	 2.761511503756674e+00
 4.814016762007410e-01	 1.176765369473521e+00	 2.487359057128137e+00
 4.545738250398405e-01	 1.187386619010453e+00	 2.226369854694191e+00
 4.276425783763496e-01	 1.197349649059237e+00	 1.979144094643015e+00
 4.006308844381519e-01	 1.206656222036041e+00	 1.746182324794480e+00
 3.735613587816729e-01	 1.215309104048657e+00	 1.527875463409110e+00
 3.464562334763529e-01	 1.223312031975472e+00	 1.324495968368333e+00
 3.193373093790243e-01	 1.230669677777255e+00	 1.136190386257134e+00
 2.922259116430516e-01	 1.237387610338918e+00	 9.629734840546029e-01
 2.651428485774981e-01	 1.243472255143333e+00	 8.047241317040847e-01
 5.406611422144048e-01	 1.166506974181152e+00	 3.170671440096514e+00
 5.138116717552891e-01	 1.178579927199173e+00	 2.880092937324433e+00
 4.868104428277401e-01	 1.189986863234134e+00	 2.601651341962135e+00
 4.596811685659499e-01	 1.200727447337036e+00	 2.336098528941258e+00
 4.324473371061253e-01	 1.210802416556687e+00	 2.084102380852450e+00
 4.051321545099085e-01	 1.220213553110794e+00	 1.846234595324984e+00
 3.777584904297684e-01	 1.228963654185617e+00	 1.622959370089709e+00
 3.503488267225386e-01	 1.237056498645061e+00	 1.414623244281477e+00
 3.229252091875749e-01	 1.244496810941490e+00	 1.221446351676084e+00
 2.955092025760218e-01	 1.251290222528759e+00	 1.043515311496669e+00
 2.681218489877413e-01	 1.257443231082956e+00	 8.807779462317582e-01
 2.383317875507918e-01	 1.117733202760072e+00	 1.556485686503424e-01
 2.140293252500230e-01	 1.122640154174940e+00	 6.931717462364895e-02
 1.897882490973285e-01	 1.126991486982686e+00	-7.348158646966585e-03
 1.656257055747226e-01	 1.130795056249892e+00	-7.420117764752332e-02
 1.415582582628250e-01	 1.134059328212202e+00	-1.312146372575935e-01
 1.176018665813229e-01	 1.136793338266780e+00	-1.784752625334762e-01
 9.377186765109050e-02	 1.139006648600664e+00	-2.161774118537574e-01
 7.008296121854513e-02	 1.140709305690971e+00	-2.446155596719173e-01
 4.654919756532504e-02	 1.141911797900406e+00	-2.641757351798686e-01
 2.318396831066902e-02	 1.142625013377961e+00	-2.753260677901541e-01
 0.000000000000000e+00	 1.142860198460186e+00	-2.786066012727926e-01
 2.413108035985782e-01	 1.131704252046085e+00	 2.302612568707618e-01
 2.167045739068282e-01	 1.136672537650634e+00	 1.355674183499511e-01
 1.921604976561824e-01	 1.141078259721515e+00	 5.113520964511831e-02
 1.676959356502720e-01	 1.144929371509319e+00	-2.278085969507493e-02
 1.433276585053855e-01	 1.148234445072978e+00	-8.605368537612401e-02
 1.190718251251994e-01	 1.151002628747150e+00	-1.386791848834747e-01
 9.494396433618364e-02	 1.153243604240947e+00	-1.807704672301225e-01
 7.095895962352035e-02	 1.154967543606920e+00	-2.125506755949975e-01
 4.713103688965951e-02	 1.156185066306537e+00	-2.343446429347436e-01
 2.347375514173319e-02	 1.156907196584657e+00	-2.465695173884346e-01
 0.000000000000000e+00	 1.157145321350848e+00	-2.497245271040889e-01
 2.442898165186467e-01	 1.145675286662146e+00	 3.030403463892293e-01
 2.193798197548161e-01	 1.150704906391885e+00	 2.004913081861581e-01
 1.945327437243048e-01	 1.155165017668707e+00	 1.087572326029478e-01
 1.697661635521415e-01	 1.159063671927113e+00	 2.819348774973252e-02
 1.450970568900728e-01	 1.162409547049214e+00	-4.098012542251106e-02
 1.205417821255609e-01	 1.165211904307037e+00	-9.867563636338006e-02
 9.611605979047631e-02	 1.167480544931648e+00	-1.449315730729668e-01
 7.183495710857847e-02	 1.169225766550903e+00	-1.799061560657846e-01
 4.771287560295031e-02	 1.170458319724889e+00	-2.038691618844928e-01
 2.376354166844671e-02	 1.171189364794196e+00	-2.171926188342903e-01
 0.000000000000000e+00	 1.171430429241259e+00	-2.203405123636559e-01
 2.472688266585503e-01	 1.159646308238343e+00	 3.745443080096615e-01
 2.220550631061160e-01	 1.164737262035951e+00	 2.646351436340912e-01
 1.969049875784914e-01	 1.169251762467882e+00	 1.660547839793389e-01
 1.718363895219076e-01	 1.173197959152453e+00	 7.925242408603816e-02
 1.468664536233803e-01	 1.176584635794853e+00	 4.533744111572480e-03
 1.220117377539760e-01	 1.179421166604382e+00	-5.793599433990249e-02
 9.728815415079008e-02	 1.181717472333943e+00	-1.081271080491735e-01
 7.271095377599250e-02	 1.183483976186580e+00	-1.461390301140846e-01
 4.829471377313882e-02	 1.184731559820883e+00	-1.721923732409034e-01
 2.405332792465427e-02	 1.185471519673041e+00	-1.866196868561305e-01
 0.000000000000000e+00	 1.185715523798227e+00	-1.898550932641012e-01
 2.502478343658426e-01	 1.173617318404765e+00	 4.453034242059137e-01
 2.247303042728567e-01	 1.178769606220092e+00	 3.285172741523270e-01
 1.992772294955377e-01	 1.183338495762656e+00	 2.235369526300046e-01
 1.739066138011467e-01	 1.187332234834512e+00	 1.308988053717213e-01
 1.486358489118018e-01	 1.190759712963842e+00	 5.098790940092934e-02
 1.234816921820129e-01	 1.193630417297124e+00	-1.595946653662805e-02
 9.846024755394656e-02	 1.195954388109006e+00	-6.985150825840747e-02
 7.358694972803545e-02	 1.197742174177615e+00	-1.107347319071725e-01
 4.887655146816643e-02	 1.199004788259937e+00	-1.387862398355786e-01
 2.434311394420056e-02	 1.199753662887651e+00	-1.543045307983888e-01
 0.000000000000000e+00	 1.200000606688556e+00	-1.576990574862542e-01
 2.532268399880767e-01	 1.187588318791500e+00	 5.158215438648266e-01
 2.274055435671674e-01	 1.192801940581567e+00	 3.926298272901434e-01
 2.016494697522397e-01	 1.197425219196647e+00	 2.816867484242918e-01
 1.759768366314353e-01	 1.201466500622466e+00	 1.836094732266491e-01
 1.504052429618307e-01	 1.204934780210126e+00	 9.885631919546922e-02
 1.249516455812398e-01	 1.207839658043205e+00	 2.772858266252465e-02
 9.963234013676746e-02	 1.210191293918011e+00	-2.962559022906075e-02
 7.446294506698030e-02	 1.212000362187670e+00	-7.320541221863031e-02
 4.945838875597452e-02	 1.213278006707471e+00	-1.031498971759541e-01
 2.463289976093031e-02	 1.214035796104490e+00	-1.197287157535187e-01
 0.000000000000000e+00	 1.214285679579051e+00	-1.233316652888001e-01
 2.562058438728059e-01	 1.201559311028636e+00	 5.865777139118808e-01
 2.300807813011770e-01	 1.206834266757633e+00	 4.574403157239761e-01
 2.040217086253929e-01	 1.211511934413471e+00	 3.409626887464587e-01
 1.780470582543499e-01	 1.215600758165490e+00	 2.378368256226373e-01
 1.521746359799605e-01	 1.219109839187650e+00	 1.485884454702977e-01
 1.264215981232255e-01	 1.222048890500565e+00	 7.357818901238544e-02
 1.008044320360744e-01	 1.224428191422134e+00	 1.300500900398327e-02
 7.533893989510013e-02	 1.226258541880407e+00	-3.308836775033264e-02
 5.004022570450450e-02	 1.227551216828906e+00	-6.480806375978898e-02
 2.492268540868820e-02	 1.228317920990019e+00	-8.239994503102310e-02
 0.000000000000000e+00	 1.228570744136519e+00	-8.623899474436447e-02
 2.591848463675838e-01	 1.215530296746261e+00	 6.580276977262736e-01
 2.327560177870145e-01	 1.220866586385550e+00	 5.233931329422277e-01
 2.063939463917933e-01	 1.225598643056747e+00	 4.018002751963590e-01
 1.801172789114668e-01	 1.229735009112759e+00	 2.940102790663544e-01
 1.539440281726846e-01	 1.233284891550360e+00	 2.006107362534575e-01
 1.278915499795380e-01	 1.236258116327144e+00	 1.220162377120508e-01
 1.019765233886890e-01	 1.238665082282548e+00	 5.847128416154312e-02
 7.621493431466794e-02	 1.240516714919491e+00	 1.005542117431757e-02
 5.062206238169776e-02	 1.241824420289660e+00	-2.330956105244075e-02
 2.521247092131893e-02	 1.242600039210701e+00	-4.185055419943207e-02
 0.000000000000000e+00	 1.242855802027764e+00	-4.593240111384866e-02
 2.621638478199633e-01	 1.229501277574464e+00	 7.306053893523425e-01
 2.354312533368090e-01	 1.234898901102576e+00	 5.909109464371225e-01
 2.087661833282362e-01	 1.239685346770091e+00	 4.646133692247574e-01
 1.821874988443625e-01	 1.243869255113449e+00	 3.525376308146078e-01
 1.557134197464966e-01	 1.247459938952200e+00	 2.553279692088009e-01
 1.293615013217458e-01	 1.250467337180882e+00	 1.734478137720374e-01
 1.031486143314329e-01	 1.252901968160429e+00	 1.071822148867758e-01
 7.709092842795674e-02	 1.254774882968582e+00	 5.664265316829131e-02
 5.120389885549568e-02	 1.256097618755154e+00	 2.177406559787998e-02
 2.550225633266721e-02	 1.256882152432997e+00	 2.363892173973481e-03
 0.000000000000000e+00	 1.257140854919592e+00	-1.947081278341534e-03
 2.651428485774981e-01	 1.243472255143333e+00	 8.047241317040823e-01
 2.381064882626895e-01	 1.248931212545972e+00	 6.603959964653969e-01
 2.111384197115176e-01	 1.253772047197120e+00	 5.297954746528506e-01
 1.842577182946136e-01	 1.258003497816736e+00	 4.138063289854392e-01
 1.574828109078901e-01	 1.261634983047117e+00	 3.131245137813268e-01
 1.308314523214175e-01	 1.264676554719722e+00	 2.282574612226582e-01
 1.043207050011277e-01	 1.267138850716951e+00	 1.595260276115789e-01
 7.796692233723956e-02	 1.269033047691344e+00	 1.070689764371797e-01
 5.178573519383965e-02	 1.270370813890807e+00	 7.084983304725090e-02
 2.579204167657773e-02	 1.271164262323368e+00	 5.066590916587654e-02
 0.000000000000000e+00	 1.271425904478810e+00	 4.615926503446333e-02
 2.681218489877413e-01	 1.257443231082956e+00	 8.807779462317582e-01
 2.407817228767851e-01	 1.262963522352994e+00	 7.322313077245921e-01
 2.135106558184331e-01	 1.267858745981453e+00	 5.977209343210810e-01
 1.863279375037964e-01	 1.272137738871794e+00	 4.781846577310762e-01
 1.592522018633585e-01	 1.275810025489055e+00	 3.743655090174165e-01
 1.323014031501211e-01	 1.278885770601601e+00	 2.868103582571504e-01
 1.054927955345951e-01	 1.281375731613288e+00	 2.158713732248290e-01
 7.884291614478943e-02	 1.283291210751440e+00	 1.617101746799354e-01
 5.236757146467105e-02	 1.284644007362039e+00	 1.243045206779063e-01
 2.608182698689521e-02	 1.285446370548278e+00	 1.034573128799023e-01
 0.000000000000000e+00	 1.285710952372222e+00	 9.880768475982682e-02
 1.285710952372222e+00	 0.000000000000000e+00	 1.505633349180956e+01
 1.285446370548278e+00	 2.608182698689557e-02	 1.506629505130546e+01
 1.284644007362039e+00	 5.236757146467139e-02	 1.505969379601120e+01
 1.283291210751439e+00	 7.884291614478972e-02	 1.503776288109600e+01
 1.281375731613288e+00	 1.054927955345953e-01	 1.500182147255742e+01
 1.278885770601601e+00	 1.323014031501213e-01	 1.495327101283031e+01
 1.275810025489054e+00	 1.592522018633586e-01	 1.489359088842171e+01
 1.272137738871795e+00	 1.863279375037966e-01	 1.482433345301942e+01
 1.267858745981453e+00	 2.135106558184332e-01	 1.474711836296488e+01
 1.262963522352994e+00	 2.407817228767851e-01	 1.466362618789356e+01
 1.257443231082956e+00	 2.681218489877413e-01	 1.457559126787030e+01
 1.299996999436575e+00	 0.000000000000000e+00	 1.484516000543708e+01
 1.299729477738514e+00	 2.637163256653116e-02	 1.485591822803978e+01
 1.298918199175054e+00	 5.294944843254041e-02	 1.485071617939249e+01
 1.297550371102010e+00	 7.971897122437951e-02	 1.483085071985349e+01
 1.295613608311512e+00	 1.066649680506882e-01	 1.479769685008887e+01
 1.293095980350323e+00	 1.337714567953443e-01	 1.475270343529326e+01
 1.289986059407558e+00	 1.610217165797057e-01	 1.469738835502285e+01
 1.286272968549540e+00	 1.883983015152832e-01	 1.463333303347293e+01
 1.281946430063098e+00	 2.158830578522009e-01	 1.456217630853584e+01
 1.276996813653051e+00	 2.434571446109328e-01	 1.448560760407585e+01
 1.271415184225567e+00	 2.711010577649079e-01	 1.440535937870644e+01
 1.314283043168385e+00	 0.000000000000000e+00	 1.464663672218665e+01
 1.314012581596891e+00	 2.666143807874816e-02	 1.465816856994939e+01
 1.313192387658288e+00	 5.353132526498397e-02	 1.465430087379220e+01
 1.311809528126306e+00	 8.059502609999267e-02	 1.463639289317754e+01
 1.309851481688423e+00	 1.078371402937551e-01	 1.460587426217856e+01
 1.307306186784182e+00	 1.352415100980420e-01	 1.456424019465170e+01
 1.304162090019159e+00	 1.627912308836290e-01	 1.451304613779464e+01
 1.300408194929890e+00	 1.904686650441013e-01	 1.445390182978552e+01
 1.296034110858418e+00	 2.182554593327631e-01	 1.438846472076279e+01
 1.291030101679448e+00	 2.461325657211033e-01	 1.431843272271083e+01
 1.285387134108794e+00	 2.740802658471492e-01	 1.424553626301886e+01
 1.328569080234105e+00	 0.000000000000000e+00	 1.445984937146849e+01
 1.328295678790551e+00	 2.695124345587626e-02	 1.447213324067284e+01
 1.327466569480965e+00	 5.411320182614768e-02	 1.446953823154701e+01
 1.326068678497057e+00	 8.147108056711237e-02	 1.445348459839291e+01
 1.324089348421717e+00	 1.090093119901755e-01	 1.442545530633635e+01
 1.321516386587330e+00	 1.367115627150887e-01	 1.438699074073858e+01
 1.318338114015990e+00	 1.645607443621364e-01	 1.433968288692107e+01
 1.314543414714499e+00	 1.925390276070737e-01	 1.428516893621863e+01
 1.310121785080170e+00	 2.206278597064844e-01	 1.422512427800142e+01
 1.305063383157637e+00	 2.488079855829751e-01	 1.416125484383153e+01
 1.299359077472413e+00	 2.770594725392778e-01	 1.409528877951131e+01
 1.342855107300192e+00	 0.000000000000000e+00	 1.428391542872053e+01
 1.342578765986636e+00	 2.724104863024519e-02	 1.429693215635526e+01
 1.341740741312307e+00	 5.469507798017722e-02	 1.429555227230946e+01
 1.340327818886993e+00	 8.234713442122177e-02	 1.428125552098672e+01
 1.338327205189094e+00	 1.101814828663293e-01	 1.425557679332557e+01
 1.335726576443923e+00	 1.381816143033586e-01	 1.422010036472797e+01
 1.332514128090181e+00	 1.663302566022357e-01	 1.417645362434704e+01
 1.328678624605023e+00	 1.946093887210235e-01	 1.412630025150114e+01
 1.324209449441108e+00	 2.230002584197293e-01	 1.407133279866893e+01
 1.319096654813073e+00	 2.514834035722265e-01	 1.401326464728371e+01
 1.313331011056197e+00	 2.800386771461065e-01	 1.395382131255941e+01
 1.357141121033102e+00	 0.000000000000000e+00	 1.411798244506848e+01
 1.356861839852286e+00	 2.753085353418463e-02	 1.413171628747778e+01
 1.356014899821536e+00	 5.527695359121823e-02	 1.413149896001663e+01
 1.354586945968846e+00	 8.322318745780412e-02	 1.411886808966575e+01
 1.352565048668249e+00	 1.113536526485962e-01	 1.409540898323170e+01
 1.349936753038114e+00	 1.396516645197259e-01	 1.406274841910586e+01
 1.346690128933866e+00	 1.680997671909346e-01	 1.402254795050513e+01
 1.342813821303118e+00	 1.966797479027739e-01	 1.397649667512233e+01
 1.338297100653986e+00	 2.253726549188626e-01	 1.392630342986485e+01
 1.333129913371210e+00	 2.541588190645365e-01	 1.387368837638079e+01
 1.327302931599920e+00	 2.830178789724484e-01	 1.382037395354497e+01
 1.371427118099289e+00	 0.000000000000000e+00	 1.396122648137740e+01
 1.371144897054645e+00	 2.782065810002433e-02	 1.397566606679273e+01
 1.370289041677873e+00	 5.585882852341631e-02	 1.397656458745240e+01
 1.368846056415343e+00	 8.409923947234267e-02	 1.396551584026856e+01
 1.366802875536880e+00	 1.125258210633557e-01	 1.394415393142267e+01
 1.364146913054058e+00	 1.411217130210649e-01	 1.391414664834723e+01
 1.360866113239175e+00	 1.698692757152409e-01	 1.387718836234332e+01
 1.356949001510443e+00	 1.987501046691477e-01	 1.383499241530533e+01
 1.352384735431563e+00	 2.277450486502488e-01	 1.378928294784121e+01
 1.347163155557500e+00	 2.568342314355833e-01	 1.374178613337191e+01
 1.341274835843357e+00	 2.859970773231161e-01	 1.369422079376806e+01
 1.385713095165209e+00	 0.000000000000000e+00	 1.381285063916355e+01
 1.385427934260852e+00	 2.811046226009398e-02	 1.382798989570933e+01
 1.384563163550541e+00	 5.644070264091715e-02	 1.382996426064012e+01
 1.383105146899215e+00	 8.497529026032054e-02	 1.382042188067848e+01
 1.381040682472682e+00	 1.136979878369877e-01	 1.380104393647164e+01
 1.378357053175909e+00	 1.425917594642498e-01	 1.377353762231098e+01
 1.375042077698239e+00	 1.716387817621623e-01	 1.373962867462286e+01
 1.371084161928650e+00	 2.008204585369682e-01	 1.370105340060310e+01
 1.366472350486590e+00	 2.301174390602525e-01	 1.365955016225136e+01
 1.361196378097397e+00	 2.595096400610455e-01	 1.361685027865497e+01
 1.355246720526281e+00	 2.889762715029223e-01	 1.357466832088642e+01
 1.399999048897318e+00	 0.000000000000000e+00	 1.367208368144948e+01
 1.399710948138050e+00	 2.840026594672332e-02	 1.368792274209970e+01
 1.398837262108762e+00	 5.702257580786636e-02	 1.369094047593675e+01
 1.397364214093191e+00	 8.585133961722100e-02	 1.368283744952460e+01
 1.395278466153354e+00	 1.148701526958717e-01	 1.366534008276124e+01
 1.392567170087822e+00	 1.440618035061548e-01	 1.364019326501771e+01
 1.389218019003189e+00	 1.734082849187067e-01	 1.360915253711140e+01
 1.385219299259398e+00	 2.028908090230583e-01	 1.357397578771615e+01
 1.380559942531825e+00	 2.324898255952382e-01	 1.353641441676645e+01
 1.375229577716355e+00	 2.621850443166021e-01	 1.349820392632585e+01
 1.369218582388467e+00	 2.919554608166800e-01	 1.346105391148839e+01
 1.414284975962072e+00	 0.000000000000000e+00	 1.353817873720467e+01
 1.413993935353380e+00	 2.869006909224202e-02	 1.355472482306218e+01
 1.413111334021757e+00	 5.760444788840961e-02	 1.355876178327529e+01
 1.411623254670002e+00	 8.672738733852720e-02	 1.355204056204071e+01
 1.409516223256593e+00	 1.160423153663875e-01	 1.353633087107523e+01
 1.406777260473951e+00	 1.455318448036542e-01	 1.351341347206694e+01
 1.403393933846157e+00	 1.751777847718817e-01	 1.348507204089170e+01
 1.399354410204343e+00	 2.049611556442411e-01	 1.345308455872987e+01
 1.394647508280022e+00	 2.348622077015706e-01	 1.341921417924627e+01
 1.389262751139827e+00	 2.648604435779312e-01	 1.338519952925291e+01
 1.383190418169687e+00	 2.949346445692019e-01	 1.335274441300295e+01
 1.428570873025926e+00	 0.000000000000000e+00	 1.341041208352213e+01
 1.428276892573984e+00	 2.897987162897983e-02	 1.342768036669690e+01
 1.427385375958749e+00	 5.818631874669251e-02	 1.343272152952640e+01
 1.425882265302377e+00	 8.760343321972237e-02	 1.342733473698214e+01
 1.423753950460095e+00	 1.172144755749147e-01	 1.341333093101999e+01
 1.420987321018450e+00	 1.470018830136220e-01	 1.339252481049009e+01
 1.417569818919275e+00	 1.769472809086952e-01	 1.336672640754901e+01
 1.413489491465139e+00	 2.070314979173397e-01	 1.333773220151285e+01
 1.408735044443936e+00	 2.372345848256141e-01	 1.330731571519650e+01
 1.403295895093266e+00	 2.675358372207115e-01	 1.327721754741079e+01
 1.397162224609719e+00	 2.979138220653008e-01	 1.324913480869425e+01
 1.257443231082956e+00	 2.681218489877413e-01	 1.457559126787030e+01
 1.251290222528759e+00	 2.955092025760216e-01	 1.447590937186369e+01
 1.244496810941490e+00	 3.229252091875747e-01	 1.435739635709280e+01
 1.237056498645061e+00	 3.503488267225385e-01	 1.422172542237867e+01
 1.228963654185617e+00	 3.777584904297682e-01	 1.407056822279095e+01
 1.220213553110794e+00	 4.051321545099082e-01	 1.390558564071104e+01
 1.210802416556687e+00	 4.324473371061250e-01	 1.372841832565829e+01
 1.200727447337036e+00	 4.596811685659496e-01	 1.354067709873849e+01
 1.189986863234135e+00	 4.868104428277399e-01	 1.334393333371944e+01
 1.178579927199173e+00	 5.138116717552889e-01	 1.313970944129268e+01
 1.166506974181152e+00	 5.406611422144046e-01	 1.292946959522723e+01
 1.271415184225567e+00	 2.711010577649079e-01	 1.440535937870644e+01
 1.265193807139827e+00	 2.987927231594999e-01	 1.431417364910441e+01
 1.258324911247501e+00	 3.265133599524971e-01	 1.420471616941558e+01
 1.250801926674242e+00	 3.542416922368836e-01	 1.407864729012163e+01
 1.242619159392876e+00	 3.819559156469745e-01	 1.393761703804452e+01
 1.233771832455774e+00	 4.096337394237550e-01	 1.378325565962948e+01
 1.224256125010580e+00	 4.372524319055254e-01	 1.361716396434139e+01
 1.214069208790389e+00	 4.647888693259974e-01	 1.344090357020277e+01
 1.203209281774577e+00	 4.922195877717347e-01	 1.325598717059622e+01
 1.191675598724702e+00	 5.195208381204919e-01	 1.306386895683259e+01
 1.179468498311525e+00	 5.466686437519975e-01	 1.286593534376980e+01
 1.285387134108794e+00	 2.740802658471492e-01	 1.424553626301886e+01
 1.279097388507421e+00	 3.020762429769924e-01	 1.416237194545242e+01
 1.272153008327603e+00	 3.301015098803087e-01	 1.406146231078459e+01
 1.264547351496750e+00	 3.581345568429810e-01	 1.394445330206736e+01
 1.256274661414386e+00	 3.861533398848383e-01	 1.381297245328412e+01
 1.247330108637632e+00	 4.141353232872624e-01	 1.366861923400281e+01
 1.237709830325688e+00	 4.420575255837422e-01	 1.351295521895275e+01
 1.227410967131020e+00	 4.698965688942291e-01	 1.334749419044097e+01
 1.216431697230087e+00	 4.976287314535489e-01	 1.317369229969784e+01
 1.204771267194819e+00	 5.252300031534775e-01	 1.299293842957934e+01
 1.192430019417744e+00	 5.526761438877230e-01	 1.280654491460840e+01
 1.299359077472413e+00	 2.770594725392778e-01	 1.409528877951131e+01
 1.293000963387279e+00	 3.053597612623208e-01	 1.401968673257635e+01
 1.285981098955156e+00	 3.336896581337637e-01	 1.392683610977393e+01
 1.278292769905249e+00	 3.620274196324957e-01	 1.381836689047683e+01
 1.269930157063807e+00	 3.903507621639695e-01	 1.369588324840025e+01
 1.260888378492727e+00	 4.186369050500763e-01	 1.356095372590128e+01
 1.251163529362787e+00	 4.468626170196096e-01	 1.341510125134058e+01
 1.240752719245839e+00	 4.750042660788752e-01	 1.325979311304481e+01
 1.229654106515436e+00	 5.030378726110815e-01	 1.309643102279794e+01
 1.217866929553885e+00	 5.309391655221452e-01	 1.292634141922623e+01
 1.205391534475478e+00	 5.586836412198746e-01	 1.275076617590655e+01
 1.313331011056197e+00	 2.800386771461065e-01	 1.395382131255941e+01
 1.306904528535139e+00	 3.086432772493075e-01	 1.388533801064672e+01
 1.299809179903525e+00	 3.372778038756168e-01	 1.380007623193307e+01
 1.292038178692406e+00	 3.659202796970923e-01	 1.369964843861338e+01
 1.283585643154801e+00	 3.945481815049779e-01	 1.358563457478042e+01
 1.274446638857422e+00	 4.231384836618436e-01	 1.345957209776972e+01
 1.264617218982655e+00	 4.516677050919606e-01	 1.332294586389175e+01
 1.254094462021758e+00	 4.801119596881671e-01	 1.317717798746417e+01
 1.242876506545394e+00	 5.084470099822318e-01	 1.302361781280507e+01
 1.230962582746256e+00	 5.366483238943943e-01	 1.286353215752755e+01
 1.218353040460395e+00	 5.646911343467459e-01	 1.269809600099661e+01
 1.327302931599920e+00	 2.830178789724484e-01	 1.382037395354497e+01
 1.320808080706736e+00	 3.119267901717745e-01	 1.375858149265135e+01
 1.313637247946070e+00	 3.408659462686223e-01	 1.368045687518711e+01
 1.305783574650884e+00	 3.698131361284366e-01	 1.358759349546353e+01
 1.297241116501029e+00	 3.987455969284732e-01	 1.348154619769118e+01
 1.288004886568078e+00	 4.276400580722102e-01	 1.336382119088790e+01
 1.278070896046066e+00	 4.564727886796287e-01	 1.323586582253337e+01
 1.267436192345687e+00	 4.852196485303354e-01	 1.309905833502618e+01
 1.256098894234734e+00	 5.138561423048991e-01	 1.295469775125353e+01
 1.244058223716290e+00	 5.423574769381242e-01	 1.280399405565809e+01
 1.231314534348166e+00	 5.706986218666309e-01	 1.264805885390929e+01
 1.341274835843357e+00	 2.859970773231161e-01	 1.369422079376806e+01
 1.334711616657808e+00	 3.152102992635437e-01	 1.363870689969226e+01
 1.327465299856153e+00	 3.444540844755349e-01	 1.356728607508922e+01
 1.319528954573350e+00	 3.737059880181925e-01	 1.348153109864318e+01
 1.310896573916152e+00	 4.029430074550651e-01	 1.338297084463941e+01
 1.301563118461056e+00	 4.321416272308228e-01	 1.327308010706479e+01
 1.291524557413797e+00	 4.612778666614478e-01	 1.315326927968574e+01
 1.280777907104539e+00	 4.903273314136110e-01	 1.302487402108953e+01
 1.269321266498228e+00	 5.192652683169821e-01	 1.288914505758779e+01
 1.257153849408346e+00	 5.480666233212343e-01	 1.274723829850719e+01
 1.244276013114461e+00	 5.767061023778234e-01	 1.260020545647317e+01
 1.355246720526281e+00	 2.889762715029223e-01	 1.357466832088642e+01
 1.348615133144092e+00	 3.184938037584375e-01	 1.352503635925650e+01
 1.341293332407137e+00	 3.480422176591090e-01	 1.345990411199889e+01
 1.333274315252469e+00	 3.775988344580257e-01	 1.338082219768331e+01
 1.324552012213832e+00	 4.071404121053632e-01	 1.328929265206649e+01
 1.315121331372720e+00	 4.366431900873275e-01	 1.318675868611809e+01
 1.304978199946625e+00	 4.660829379162514e-01	 1.307459428995427e+01
 1.294119603185224e+00	 4.954350071462250e-01	 1.295409381639791e+01
 1.282543620250645e+00	 5.246743867563800e-01	 1.282646170361732e+01
 1.270249456766781e+00	 5.537757617116242e-01	 1.269280251963533e+01
 1.257237473734949e+00	 5.827135744786170e-01	 1.255411153109929e+01
 1.369218582388467e+00	 2.919554608166800e-01	 1.346105391148839e+01
 1.362518626921326e+00	 3.217773028902779e-01	 1.341692289910640e+01
 1.355121342372383e+00	 3.516303449820993e-01	 1.335768201290686e+01
 1.347019653480905e+00	 3.814916745396009e-01	 1.328485817052644e+01
 1.338207428207729e+00	 4.113378098999778e-01	 1.319992570335217e+01
 1.328679522139431e+00	 4.411447455913710e-01	 1.310429607229830e+01
 1.318431820505326e+00	 4.708880013228729e-01	 1.299930741193795e+01
 1.307461277474655e+00	 5.005426745364082e-01	 1.288621404126213e+01
 1.295765952406758e+00	 5.300834963609923e-01	 1.276617610705951e+01
 1.283345042735955e+00	 5.594848907771932e-01	 1.264024955113211e+01
 1.270198913185301e+00	 5.887210367673057e-01	 1.250937661384553e+01
 1.383190418169687e+00	 2.949346445692019e-01	 1.335274441300295e+01
 1.376422094745246e+00	 3.250607958928871e-01	 1.331374903002976e+01
 1.368949326525253e+00	 3.552184656072601e-01	 1.326002014121525e+01
 1.360764966051325e+00	 3.853845073545832e-01	 1.319305942664394e+01
 1.351862818711506e+00	 4.155351998595181e-01	 1.311431265167342e+01
 1.342237687597551e+00	 4.456462926925998e-01	 1.302515936336950e+01
 1.331885415950674e+00	 4.756930557601458e-01	 1.292690239006593e+01
 1.320802926859741e+00	 5.056503323923917e-01	 1.282075728671565e+01
 1.308988259881339e+00	 5.354925958687178e-01	 1.270784189857963e+01
 1.296440604260223e+00	 5.651940091858410e-01	 1.258916624308149e+01
 1.283160328441186e+00	 5.947284878421828e-01	 1.246562293279305e+01
 1.397162224609719e+00	 2.979138220653008e-01	 1.324913480869425e+01
 1.390325533371589e+00	 3.283442820000868e-01	 1.321492541123002e+01
 1.382777281639109e+00	 3.588065786973459e-01	 1.316634686831728e+01
 1.374510249756393e+00	 3.892773319946374e-01	 1.310487409071180e+01
 1.365518180538822e+00	 4.197325810045940e-01	 1.303192342177903e+01
 1.355795824583439e+00	 4.501478303406597e-01	 1.294884233656152e+01
 1.345338983143448e+00	 4.804981001069037e-01	 1.285689891086144e+01
 1.334144548227396e+00	 5.107579795224063e-01	 1.275727120725608e+01
 1.322210539589158e+00	 5.409016840174555e-01	 1.265103675718402e+01
 1.309536138283946e+00	 5.709031156054665e-01	 1.253916234776198e+01
 1.296121716478273e+00	 6.007359263015425e-01	 1.242249434716338e+01
 1.166506974181152e+00	 5.406611422144046e-01	 1.292946959522723e+01
 1.153768520657062e+00	 5.673368349888009e-01	 1.270758378351967e+01
 1.140367939824356e+00	 5.938128716115278e-01	 1.246861151371307e+01
 1.126308914352119e+00	 6.200652176363033e-01	 1.221416589875056e+01
 1.111596267876887e+00	 6.460698641649667e-01	 1.194579916677876e+01
 1.096235971370482e+00	 6.718028946141243e-01	 1.166499663532899e+01
 1.080235144867935e+00	 6.972405524292983e-01	 1.137317168865865e+01
 1.063602054441766e+00	 7.223593093729551e-01	 1.107166185709591e+01
 1.046346104343134e+00	 7.471359339991690e-01	 1.076172607170892e+01
 1.028477824266305e+00	 7.715475599175938e-01	 1.044454313781967e+01
 1.010008851730144e+00	 7.955717534430776e-01	 1.012121143768340e+01
 1.179468498311525e+00	 5.466686437519975e-01	 1.286593534376980e+01
 1.166588502750832e+00	 5.736407407856797e-01	 1.265647013008369e+01
 1.153039022721013e+00	 6.004109632086184e-01	 1.242996065650690e+01
 1.138823781810755e+00	 6.269550095182069e-01	 1.218795585207550e+01
 1.123947657253940e+00	 6.532486040438356e-01	 1.193193997544042e+01
 1.108416686368234e+00	 6.792675644554069e-01	 1.166332680152611e+01
 1.092238068302214e+00	 7.049878702298854e-01	 1.138345487449840e+01
 1.075420160976023e+00	 7.303857316980992e-01	 1.109358393089662e+01
 1.057972473135199e+00	 7.554376592802553e-01	 1.079489256957214e+01
 1.039905651473637e+00	 7.801205325084171e-01	 1.048847721324472e+01
 1.021231462819311e+00	 8.044116684278025e-01	 1.017535237098809e+01
 1.192430019417744e+00	 5.526761438877230e-01	 1.280654491460840e+01
 1.179408481853434e+00	 5.799446451114831e-01	 1.260872513652830e+01
 1.165710102661214e+00	 6.070090532659372e-01	 1.239390912036627e+01
 1.151338646349358e+00	 6.338447997922180e-01	 1.216358449899442e+01
 1.136299043749081e+00	 6.604273422473320e-01	 1.191917067840010e+01
 1.120597398523876e+00	 6.867322325545433e-01	 1.166201321438388e+01
 1.104240988935844e+00	 7.127351862223222e-01	 1.139337931858439e+01
 1.087238264752729e+00	 7.384121521499232e-01	 1.111445460336185e+01
 1.069598839214424e+00	 7.637393826237479e-01	 1.082634114611668e+01
 1.051333476014421e+00	 7.886935030983319e-01	 1.053005691968496e+01
 1.032454071289771e+00	 8.132515813493250e-01	 1.022653659755318e+01
 1.205391534475478e+00	 5.586836412198746e-01	 1.275076617590655e+01
 1.192228454973575e+00	 5.862485464953506e-01	 1.256386274123839e+01
 1.178381176688414e+00	 6.136071402439868e-01	 1.236001741595950e+01
 1.163853505047840e+00	 6.407345868507840e-01	 1.214065940453924e+01
 1.148650424480370e+00	 6.676060771004909e-01	 1.190714635096296e+01
 1.132778104995295e+00	 6.941968971698589e-01	 1.166075888192702e+01
 1.116243903968200e+00	 7.204824985989908e-01	 1.140269634238294e+01
 1.099056363014386e+00	 7.464385688556906e-01	 1.113407383934353e+01
 1.081225199868051e+00	 7.720411020926786e-01	 1.085592067910855e+01
 1.062761295222229e+00	 7.972664696870837e-01	 1.056918024695262e+01
 1.043676674522985e+00	 8.220914901451046e-01	 1.027471133790960e+01
 1.218353040460395e+00	 5.646911343467459e-01	 1.269809600099661e+01
 1.205048419119958e+00	 5.925524434664220e-01	 1.252142411212263e+01
 1.191052241846069e+00	 6.202052226032716e-01	 1.232787145695602e+01
 1.176368354986110e+00	 6.476243690863536e-01	 1.211881166443653e+01
 1.161001796565867e+00	 6.747848069283466e-01	 1.189554368623558e+01
 1.144958802940378e+00	 7.016615565596794e-01	 1.165928648173537e+01
 1.128246810598658e+00	 7.282298055522725e-01	 1.141117495852385e+01
 1.110874453003497e+00	 7.544649799426657e-01	 1.115225729144087e+01
 1.092851552383325e+00	 7.803428157500798e-01	 1.088349371060146e+01
 1.074189106430633e+00	 8.058394302744172e-01	 1.060575681043571e+01
 1.054899269900412e+00	 8.309313927526036e-01	 1.031983338876309e+01
 1.231314534348166e+00	 5.706986218666309e-01	 1.264805885390929e+01
 1.217868371301289e+00	 5.988563345538357e-01	 1.248097631575486e+01
 1.203723295177632e+00	 6.268032988042951e-01	 1.229708131542405e+01
 1.188883193244080e+00	 6.545141448913745e-01	 1.209769474937762e+01
 1.173353157123633e+00	 6.819635300559350e-01	 1.188405993083955e+01
 1.157139489517013e+00	 7.091262089823308e-01	 1.165733739060903e+01
 1.140249706026590e+00	 7.359771052745493e-01	 1.141860099684187e+01
 1.122692531962562e+00	 7.624913835381123e-01	 1.116883552474243e+01
 1.104477894047487e+00	 7.886445216589838e-01	 1.090893577258099e+01
 1.085616906973206e+00	 8.144123828600778e-01	 1.063970727970633e+01
 1.066121854803511e+00	 8.397712871092807e-01	 1.036186865646617e+01
 1.244276013114461e+00	 5.767061023778234e-01	 1.260020545647317e+01
 1.230688308526272e+00	 6.051602182867322e-01	 1.244211106239992e+01
 1.216394333726560e+00	 6.334013673075607e-01	 1.226728004728510e+01
 1.201398016901661e+00	 6.614039126582948e-01	 1.207698341338412e+01
 1.185704503271726e+00	 6.891422448082904e-01	 1.187241187863186e+01
 1.169320161883087e+00	 7.165908526961383e-01	 1.165467076603210e+01
 1.152252587451375e+00	 7.437243959582033e-01	 1.142477627590038e+01
 1.134510597134084e+00	 7.705177777692943e-01	 1.118365328063315e+01
 1.116104222147779e+00	 7.969462178824213e-01	 1.093213474516872e+01
 1.097044694183519e+00	 8.229853254438096e-01	 1.067096283310385e+01
 1.077344426613743e+00	 8.486111711525988e-01	 1.040079170981454e+01
 1.257237473734949e+00	 5.827135744786170e-01	 1.255411153109929e+01
 1.243508227803614e+00	 6.114640931942510e-01	 1.240444352144849e+01
 1.229065354536308e+00	 6.399994265735724e-01	 1.223812258277120e+01
 1.213912823038762e+00	 6.682936707795627e-01	 1.205637266164374e+01
 1.198055832128207e+00	 6.963209495104473e-01	 1.186033491824582e+01
 1.181500817196487e+00	 7.240554859594283e-01	 1.165106267569815e+01
 1.164255452072385e+00	 7.514716757956159e-01	 1.142951781671514e+01
 1.146328645760561e+00	 7.785441607634755e-01	 1.119656877684818e+01
 1.127730533971447e+00	 8.052479024834258e-01	 1.095299024503610e+01
 1.108472465395146e+00	 8.315582560253585e-01	 1.069946463641968e+01
 1.088566982712566e+00	 8.574510428200165e-01	 1.043658535077425e+01
 1.270198913185301e+00	 5.887210367673057e-01	 1.250937661384554e+01
 1.256328126142018e+00	 6.177679578055311e-01	 1.236761120223305e+01
 1.241736354650330e+00	 6.465974750628333e-01	 1.220928467724220e+01
 1.226427608735296e+00	 6.751834176476261e-01	 1.203557677357025e+01
 1.210407140811137e+00	 7.034996424874411e-01	 1.184758213061039e+01
 1.193681452615102e+00	 7.315201070305257e-01	 1.164630527166533e+01
 1.176258297088996e+00	 7.592189429791690e-01	 1.143265709566527e+01
 1.158146675084499e+00	 7.865705306479199e-01	 1.120745304118541e+01
 1.139356826805732e+00	 8.135495735250283e-01	 1.097141304187174e+01
 1.119900217941657e+00	 8.401311726044689e-01	 1.072516334396242e+01
 1.099789520481441e+00	 8.662909000489963e-01	 1.046924020185929e+01
 1.283160328441186e+00	 5.947284878421828e-01	 1.246562293279305e+01
 1.269148000550189e+00	 6.240718106497122e-01	 1.233127289560333e+01
 1.254407331112081e+00	 6.531955112358475e-01	 1.218046191809710e+01
 1.238942371071173e+00	 6.820731516549332e-01	 1.201432837718355e+01
 1.222758426438575e+00	 7.106783220643063e-01	 1.183392343291438e+01
 1.205862065296819e+00	 7.389847141677566e-01	 1.164020600598663e+01
 1.188261119700584e+00	 7.669661957012448e-01	 1.143403933382199e+01
 1.169964682348398e+00	 7.945968855498918e-01	 1.121618927649783e+01
 1.150983097937877e+00	 8.218512290702613e-01	 1.098732450091955e+01
 1.131327949156626e+00	 8.487040731808860e-01	 1.074801862042191e+01
 1.111012037301826e+00	 8.751307407769980e-01	 1.049875430898328e+01
 1.296121716478273e+00	 6.007359263015425e-01	 1.242249434716338e+01
 1.281967848036833e+00	 6.303756502559339e-01	 1.229510767200888e+01
 1.267078280965017e+00	 6.597935335531179e-01	 1.215136878385305e+01
 1.251457107126304e+00	 6.889628711939321e-01	 1.199237757121862e+01
 1.235109686128581e+00	 7.178569865660782e-01	 1.181914476576563e+01
 1.218042652399525e+00	 7.464493056294462e-01	 1.163258688491307e+01
 1.200263917106523e+00	 7.747134321542246e-01	 1.143352282014582e+01
 1.181782664794757e+00	 8.026232235966543e-01	 1.122267225477685e+01
 1.162609344655126e+00	 8.301528671821563e-01	 1.100065604976331e+01
 1.142755656373624e+00	 8.572769557543545e-01	 1.076799868207729e+01
 1.122234530555182e+00	 8.839705629414819e-01	 1.052513275870266e+01
 1.010008851730144e+00	 7.955717534430776e-01	 1.012121143768340e+01
 9.909519067937320e-01	 8.191865824479939e-01	 9.790186085627052e+00
 9.713207563652808e-01	 8.423706882231309e-01	 9.450144210561252e+00
 9.511301907535311e-01	 8.651033421516505e-01	 9.102431639063466e+00
 9.303959900850729e-01	 8.873645046199061e-01	 8.748360754922867e+00
 9.091348835661056e-01	 9.091348835661061e-01	 8.389211877858948e+00
 8.873645046199057e-01	 9.303959900850729e-01	 8.026234947185975e+00
 8.651033421516500e-01	 9.511301907535311e-01	 7.660651334405450e+00
 8.423706882231307e-01	 9.713207563652815e-01	 7.293655598094199e+00
 8.191865824479935e-01	 9.909519067937324e-01	 6.926416991150687e+00
 7.955717534430776e-01	 1.010008851730144e+00	 6.560080534886792e+00
 1.021231462819311e+00	 8.044116684278025e-01	 1.017535237098809e+01
 1.001962768568945e+00	 8.282888912141637e-01	 9.853971669510424e+00
 9.821134886003536e-01	 8.517306048331553e-01	 9.523029631489567e+00
 9.616985775632909e-01	 8.747158503440156e-01	 9.183820253446218e+00
 9.407339909236229e-01	 8.972243654649650e-01	 8.837610466594612e+00
 9.192366437724240e-01	 9.192366437724245e-01	 8.485642023838999e+00
 8.972243654649645e-01	 9.407339909236231e-01	 8.129133661414492e+00
 8.747158503440153e-01	 9.616985775632912e-01	 7.769283345214870e+00
 8.517306048331549e-01	 9.821134886003540e-01	 7.407270400612987e+00
 8.282888912141635e-01	 1.001962768568945e+00	 7.044257321148981e+00
 8.044116684278024e-01	 1.021231462819310e+00	 6.681391056316619e+00
 1.032454071289771e+00	 8.132515813493250e-01	 1.022653659755318e+01
 1.012973627774809e+00	 8.373911978559143e-01	 9.914248049649004e+00
 9.929062183169185e-01	 8.610905192586760e-01	 9.591915846168654e+00
 9.722669619068304e-01	 8.843283562929767e-01	 9.260781164057695e+00
 9.510719893496478e-01	 9.070842240089515e-01	 8.922063873537802e+00
 9.293384016212816e-01	 9.293384016212820e-01	 8.576964968282779e+00
 9.070842240089511e-01	 9.510719893496479e-01	 8.226669247329442e+00
 8.843283562929766e-01	 9.722669619068307e-01	 7.872348043921663e+00
 8.610905192586757e-01	 9.929062183169186e-01	 7.515161784458345e+00
 8.373911978559138e-01	 1.012973627774809e+00	 7.156262157037407e+00
 8.132515813493250e-01	 1.032454071289771e+00	 6.796793674268570e+00
 1.043676674522985e+00	 8.220914901451046e-01	 1.027471133790960e+01
 1.023984481842198e+00	 8.464935002494818e-01	 9.971009854866240e+00
 1.003698942996750e+00	 8.704504293158198e-01	 9.656841214569351e+00
 9.828353413182764e-01	 8.939408577557190e-01	 9.333392832684112e+00
 9.614099829510372e-01	 9.169440779513309e-01	 9.001835966404215e+00
 9.394401547556949e-01	 9.394401547556951e-01	 8.663328723281612e+00
 9.169440779513307e-01	 9.614099829510375e-01	 8.319019306408524e+00
 8.939408577557187e-01	 9.828353413182769e-01	 7.970049275371219e+00
 8.704504293158194e-01	 1.003698942996750e+00	 7.617556589411638e+00
 8.464935002494810e-01	 1.023984481842198e+00	 7.262678195165115e+00
 8.220914901451046e-01	 1.043676674522985e+00	 6.906551926753691e+00
 1.054899269900412e+00	 8.309313927526036e-01	 1.031983338876309e+01
 1.034995328201983e+00	 8.555957962711013e-01	 1.002425931313025e+01
 1.014491660121622e+00	 8.798103328207122e-01	 9.717849869845402e+00
 9.934037133317563e-01	 9.035533524894270e-01	 9.401737816470547e+00
 9.717479693156805e-01	 9.268039249915691e-01	 9.077044297598796e+00
 9.495419008186826e-01	 9.495419008186831e-01	 8.744882468420411e+00
 9.268039249915688e-01	 9.717479693156811e-01	 8.406361346933842e+00
 9.035533524894268e-01	 9.934037133317566e-01	 8.062589657480217e+00
 8.798103328207117e-01	 1.014491660121623e+00	 7.714679414165832e+00
 8.555957962711011e-01	 1.034995328201983e+00	 7.363748988140747e+00
 8.309313927526035e-01	 1.054899269900412e+00	 7.010925408239141e+00
 1.066121854803511e+00	 8.397712871092807e-01	 1.036186865646617e+01
 1.046006164285036e+00	 8.646980837970097e-01	 1.007400588746390e+01
 1.025284367173309e+00	 8.891702275894792e-01	 9.774991450125997e+00
 1.003972075481396e+00	 9.131658382512866e-01	 9.465902589173474e+00
 9.820859460314676e-01	 9.366637628291313e-01	 9.147808885720703e+00
 9.596436374532621e-01	 9.596436374532625e-01	 8.821776532306774e+00
 9.366637628291312e-01	 9.820859460314681e-01	 8.488872836699294e+00
 9.131658382512862e-01	 1.003972075481397e+00	 8.150170699419146e+00
 8.891702275894789e-01	 1.025284367173310e+00	 7.806752794506514e+00
 8.646980837970095e-01	 1.046006164285037e+00	 7.459715177779129e+00
 8.397712871092808e-01	 1.066121854803511e+00	 7.110170052388161e+00
 1.077344426613743e+00	 8.486111711525988e-01	 1.040079170981454e+01
 1.057016987522231e+00	 8.738003607034422e-01	 1.012026592473359e+01
 1.036077061633586e+00	 8.985301114382472e-01	 9.828320837204718e+00
 1.014540425301325e+00	 9.227783127984828e-01	 9.525977363780786e+00
 9.924239106862870e-01	 9.465235891634832e-01	 9.214252116287740e+00
 9.697453623024501e-01	 9.697453623024505e-01	 8.894162365730871e+00
 9.465235891634829e-01	 9.924239106862874e-01	 8.566731243112272e+00
 9.227783127984824e-01	 1.014540425301325e+00	 8.232992903354454e+00
 8.985301114382468e-01	 1.036077061633587e+00	 7.893997361601683e+00
 8.738003607034417e-01	 1.057016987522231e+00	 7.550814705069307e+00
 8.486111711525989e-01	 1.077344426613743e+00	 7.204538389078351e+00
 1.088566982712566e+00	 8.574510428200165e-01	 1.043658535077425e+01
 1.068027795344438e+00	 8.829026248666350e-01	 1.016306231638794e+01
 1.046869740984227e+00	 9.078899821831418e-01	 9.877897901627078e+00
 1.025108760325667e+00	 9.323907738882006e-01	 9.582055916401586e+00
 1.002761860868029e+00	 9.563834016940903e-01	 9.276498639012313e+00
 9.798470730092648e-01	 9.798470730092651e-01	 8.962192507059658e+00
 9.563834016940901e-01	 1.002761860868029e+00	 8.640114061599272e+00
 9.323907738881999e-01	 1.025108760325668e+00	 8.311255850936737e+00
 9.078899821831412e-01	 1.046869740984227e+00	 7.976631981834894e+00
 8.829026248666343e-01	 1.068027795344438e+00	 7.637282998823059e+00
 8.574510428200167e-01	 1.088566982712566e+00	 7.294279777555380e+00
 1.099789520481441e+00	 8.662909000489963e-01	 1.046924020185929e+01
 1.079038585182531e+00	 8.920048741628237e-01	 1.020242417029375e+01
 1.057662402707005e+00	 9.172498376402886e-01	 9.923787253720498e+00
 1.035677078088552e+00	 9.420032192776239e-01	 9.634235411334798e+00
 1.013099794164582e+00	 9.662431981204184e-01	 9.334675261876184e+00
 9.899487672167233e-01	 9.899487672167239e-01	 9.026020540420072e+00
 9.662431981204176e-01	 1.013099794164582e+00	 8.709198833151319e+00
 9.420032192776238e-01	 1.035677078088552e+00	 8.385158275624219e+00
 9.172498376402882e-01	 1.057662402707005e+00	 8.054873879500711e+00
 8.920048741628231e-01	 1.079038585182531e+00	 7.719353144524971e+00
 8.662909000489962e-01	 1.099789520481441e+00	 7.379640617425062e+00
 1.111012037301826e+00	 8.751307407769980e-01	 1.049875430898328e+01
 1.090049354467381e+00	 9.011071064682441e-01	 1.023838649288430e+01
 1.068455044283696e+00	 9.266096756258143e-01	 9.966058000147161e+00
 1.046245376124105e+00	 9.516156467239397e-01	 9.682616227234433e+00
 1.023437708163836e+00	 9.761029761419320e-01	 9.388910842229830e+00
 1.000050442567844e+00	 1.000050442567844e+00	 9.085801047181645e+00
 9.761029761419314e-01	 1.023437708163836e+00	 8.774163151776385e+00
 9.516156467239396e-01	 1.046245376124105e+00	 8.454898121843247e+00
 9.266096756258143e-01	 1.068455044283696e+00	 8.128938743573119e+00
 9.011071064682435e-01	 1.090049354467381e+00	 7.797256034784752e+00
 8.751307407769979e-01	 1.111012037301826e+00	 7.460864539051423e+00
 1.122234530555182e+00	 8.839705629414819e-01	 1.052513275870266e+01
 1.101060100629861e+00	 9.102093196591319e-01	 1.027098988090011e+01
 1.079247663196073e+00	 9.359694939558444e-01	 1.000478350559313e+01
 1.056813651966454e+00	 9.612280539843321e-01	 9.727301784294468e+00
 1.033775600453680e+00	 9.859627334580974e-01	 9.439336175126066e+00
 1.010152096705643e+00	 1.010152096705644e+00	 9.141689551207998e+00
 9.859627334580970e-01	 1.033775600453680e+00	 8.835184662566425e+00
 9.612280539843319e-01	 1.056813651966455e+00	 8.520672591907067e+00
 9.359694939558441e-01	 1.079247663196073e+00	 8.199040819662722e+00
 9.102093196591318e-01	 1.101060100629861e+00	 7.871220502679158e+00
 8.839705629414819e-01	 1.122234530555182e+00	 7.538192574801519e+00
 7.955717534430776e-01	 1.010008851730144e+00	 6.560080534886792e+00
 7.715475599175932e-01	 1.028477824266305e+00	 6.195700351288602e+00
 7.471359339991688e-01	 1.046346104343135e+00	 5.834280141110344e+00
 7.223593093729547e-01	 1.063602054441766e+00	 5.476864233979984e+00
 6.972405524292978e-01	 1.080235144867935e+00	 5.124484191999883e+00
 6.718028946141240e-01	 1.096235971370482e+00	 4.778153976819045e+00
 6.460698641649665e-01	 1.111596267876887e+00	 4.438864000442843e+00
 6.200652176363031e-01	 1.126308914352119e+00	 4.107574109227411e+00
 5.938128716115273e-01	 1.140367939824357e+00	 3.785205594076156e+00
 5.673368349888005e-01	 1.153768520657062e+00	 3.472632361680258e+00
 5.406611422144048e-01	 1.166506974181152e+00	 3.170671440096509e+00
 8.044116684278024e-01	 1.021231462819310e+00	 6.681391056316619e+00
 7.801205325084165e-01	 1.039905651473637e+00	 6.319772743919208e+00
 7.554376592802551e-01	 1.057972473135200e+00	 5.960435587482243e+00
 7.303857316980990e-01	 1.075420160976023e+00	 5.604412745779605e+00
 7.049878702298847e-01	 1.092238068302214e+00	 5.252733395420154e+00
 6.792675644554065e-01	 1.108416686368235e+00	 4.906417800539739e+00
 6.532486040438353e-01	 1.123947657253940e+00	 4.566471121212461e+00
 6.269550095182067e-01	 1.138823781810756e+00	 4.233876010003383e+00
 6.004109632086180e-01	 1.153039022721013e+00	 3.909584093332595e+00
 5.736407407856794e-01	 1.166588502750832e+00	 3.594506479802490e+00
 5.466686437519976e-01	 1.179468498311525e+00	 3.289503479597400e+00
 8.132515813493250e-01	 1.032454071289771e+00	 6.796793674268570e+00
 7.886935030983315e-01	 1.051333476014421e+00	 6.437900247051507e+00
 7.637393826237476e-01	 1.069598839214425e+00	 6.080644424726716e+00
 7.384121521499227e-01	 1.087238264752729e+00	 5.726049862588620e+00
 7.127351862223218e-01	 1.104240988935844e+00	 5.375145163763675e+00
 6.867322325545427e-01	 1.120597398523877e+00	 5.028958852757437e+00
 6.604273422473316e-01	 1.136299043749081e+00	 4.688512937507925e+00
 6.338447997922178e-01	 1.151338646349359e+00	 4.354815108991284e+00
 6.070090532659367e-01	 1.165710102661214e+00	 4.028849678528236e+00
 5.799446451114828e-01	 1.179408481853434e+00	 3.711567402255254e+00
 5.526761438877230e-01	 1.192430019417744e+00	 3.403874387875664e+00
 8.220914901451046e-01	 1.043676674522985e+00	 6.906551926753691e+00
 7.972664696870834e-01	 1.062761295222229e+00	 6.550361195181315e+00
 7.720411020926780e-01	 1.081225199868052e+00	 6.195198585477270e+00
 7.464385688556904e-01	 1.099056363014387e+00	 5.842079874225441e+00
 7.204824985989899e-01	 1.116243903968200e+00	 5.492034871929087e+00
 6.941968971698584e-01	 1.132778104995295e+00	 5.146102302963696e+00
 6.676060771004905e-01	 1.148650424480371e+00	 4.805323118394036e+00
 6.407345868507837e-01	 1.163853505047840e+00	 4.470732289943641e+00
 6.136071402439864e-01	 1.178381176688415e+00	 4.143349188538988e+00
 5.862485464953503e-01	 1.192228454973575e+00	 3.824166704194147e+00
 5.586836412198745e-01	 1.205391534475477e+00	 3.514139313533574e+00
 8.309313927526035e-01	 1.054899269900412e+00	 7.010925408239141e+00
 8.058394302744167e-01	 1.074189106430634e+00	 6.657429237748478e+00
 7.803428157500795e-01	 1.092851552383325e+00	 6.304384595012445e+00
 7.544649799426653e-01	 1.110874453003498e+00	 5.952800959218728e+00
 7.282298055522719e-01	 1.128246810598657e+00	 5.603711097119399e+00
 7.016615565596791e-01	 1.144958802940378e+00	 5.258165853313725e+00
 6.747848069283462e-01	 1.161001796565867e+00	 4.917227212086124e+00
 6.476243690863530e-01	 1.176368354986110e+00	 4.581959677912327e+00
 6.202052226032713e-01	 1.191052241846069e+00	 4.253420081101586e+00
 5.925524434664214e-01	 1.205048419119958e+00	 3.932645972608843e+00
 5.646911343467459e-01	 1.218353040460394e+00	 3.620642825669413e+00
 8.397712871092808e-01	 1.066121854803511e+00	 7.110170052388161e+00
 8.144123828600772e-01	 1.085616906973206e+00	 6.759373668838012e+00
 7.886445216589832e-01	 1.104477894047487e+00	 6.408483946936276e+00
 7.624913835381121e-01	 1.122692531962563e+00	 6.058505605320998e+00
 7.359771052745488e-01	 1.140249706026591e+00	 5.710476082884155e+00
 7.091262089823306e-01	 1.157139489517013e+00	 5.365460244740312e+00
 6.819635300559345e-01	 1.173353157123633e+00	 5.024543192532967e+00
 6.545141448913742e-01	 1.188883193244081e+00	 4.688821224562955e+00
 6.268032988042945e-01	 1.203723295177632e+00	 4.359391054994754e+00
 5.988563345538354e-01	 1.217868371301289e+00	 4.037337463393840e+00
 5.706986218666309e-01	 1.231314534348166e+00	 3.723719603757018e+00
 8.486111711525989e-01	 1.077344426613743e+00	 7.204538389078351e+00
 8.229853254438093e-01	 1.097044694183519e+00	 6.856459728623481e+00
 7.969462178824207e-01	 1.116104222147780e+00	 6.507773448148379e+00
 7.705177777692939e-01	 1.134510597134084e+00	 6.159480996949783e+00
 7.437243959582027e-01	 1.152252587451375e+00	 5.812626167822191e+00
 7.165908526961383e-01	 1.169320161883087e+00	 5.468289725560641e+00
 6.891422448082899e-01	 1.185704503271726e+00	 5.127581966429156e+00
 6.614039126582941e-01	 1.201398016901660e+00	 4.791633251960949e+00
 6.334013673075602e-01	 1.216394333726560e+00	 4.461582628846784e+00
 6.051602182867317e-01	 1.230688308526273e+00	 4.138564713312068e+00
 5.767061023778234e-01	 1.244276013114461e+00	 3.823695080801444e+00
 8.574510428200167e-01	 1.088566982712566e+00	 7.294279777555380e+00
 8.315582560253580e-01	 1.108472465395146e+00	 6.948948878590417e+00
 8.052479024834253e-01	 1.127730533971447e+00	 6.602525535318792e+00
 7.785441607634748e-01	 1.146328645760561e+00	 6.256009371941971e+00
 7.514716757956155e-01	 1.164255452072385e+00	 5.910452181494097e+00
 7.240554859594279e-01	 1.181500817196488e+00	 5.566952485280995e+00
 6.963209495104469e-01	 1.198055832128208e+00	 5.226647843509740e+00
 6.682936707795624e-01	 1.213912823038763e+00	 4.890704957825507e+00
 6.399994265735720e-01	 1.229065354536308e+00	 4.560307679697075e+00
 6.114640931942503e-01	 1.243508227803614e+00	 4.236643110104427e+00
 5.827135744786168e-01	 1.257237473734950e+00	 3.920886043140655e+00
 8.662909000489962e-01	 1.099789520481441e+00	 7.379640617425062e+00
 8.401311726044686e-01	 1.119900217941657e+00	 7.037099052412531e+00
 8.135495735250280e-01	 1.139356826805732e+00	 6.693008564902405e+00
 7.865705306479197e-01	 1.158146675084499e+00	 6.348368349812414e+00
 7.592189429791690e-01	 1.176258297088997e+00	 6.004239809885311e+00
 7.315201070305251e-01	 1.193681452615102e+00	 5.661741056085162e+00
 7.034996424874408e-01	 1.210407140811137e+00	 5.322038972750180e+00
 6.751834176476257e-01	 1.226427608735297e+00	 4.986338885001769e+00
 6.465974750628329e-01	 1.241736354650330e+00	 4.655871944185270e+00
 6.177679578055304e-01	 1.256328126142018e+00	 4.331880423734860e+00
 5.887210367673058e-01	 1.270198913185302e+00	 4.015601189988334e+00
 8.751307407769979e-01	 1.111012037301826e+00	 7.460864539051423e+00
 8.487040731808854e-01	 1.131327949156626e+00	 7.121164884201486e+00
 8.218512290702609e-01	 1.150983097937878e+00	 6.779487078563470e+00
 7.945968855498914e-01	 1.169964682348398e+00	 6.436831233530727e+00
 7.669661957012445e-01	 1.188261119700584e+00	 6.094269932572235e+00
 7.389847141677560e-01	 1.205862065296819e+00	 5.752942684289566e+00
 7.106783220643060e-01	 1.222758426438575e+00	 5.414047746880653e+00
 6.820731516549328e-01	 1.238942371071174e+00	 5.078831357680974e+00
 6.531955112358470e-01	 1.254407331112081e+00	 4.748574485010277e+00
 6.240718106497117e-01	 1.269148000550190e+00	 4.424577301516330e+00
 5.947284878421829e-01	 1.283160328441185e+00	 4.108141655563831e+00
 8.839705629414819e-01	 1.122234530555182e+00	 7.538192574801519e+00
 8.572769557543541e-01	 1.142755656373625e+00	 7.201397915713975e+00
 8.301528671821561e-01	 1.162609344655126e+00	 6.862222045730636e+00
 8.026232235966541e-01	 1.181782664794758e+00	 6.521667286669969e+00
 7.747134321542239e-01	 1.200263917106523e+00	 6.180818933571608e+00
 7.464493056294456e-01	 1.218042652399525e+00	 5.840839673867611e+00
 7.178569865660778e-01	 1.235109686128581e+00	 5.502961177431795e+00
 6.889628711939315e-01	 1.251457107126304e+00	 5.168472886694617e+00
 6.597935335531173e-01	 1.267078280965017e+00	 4.838708125087888e+00
 6.303756502559335e-01	 1.281967848036833e+00	 4.515027729645858e+00
 6.007359263015425e-01	 1.296121716478273e+00	 4.198801496426256e+00
 5.406611422144048e-01	 1.166506974181152e+00	 3.170671440096511e+00
 5.138116717552891e-01	 1.178579927199173e+00	 2.880092937324433e+00
 4.868104428277401e-01	 1.189986863234134e+00	 2.601651341962135e+00
 4.596811685659499e-01	 1.200727447337036e+00	 2.336098528941256e+00
 4.324473371061253e-01	 1.210802416556687e+00	 2.084102380852450e+00
 4.051321545099085e-01	 1.220213553110794e+00	 1.846234595324986e+00
 3.777584904297684e-01	 1.228963654185617e+00	 1.622959370089713e+00
 3.503488267225386e-01	 1.237056498645061e+00	 1.414623244281482e+00
 3.229252091875749e-01	 1.244496810941490e+00	 1.221446351676082e+00
 2.955092025760218e-01	 1.251290222528759e+00	 1.043515311496667e+00
 2.681218489877413e-01	 1.257443231082956e+00	 8.807779462317604e-01
 5.466686437519976e-01	 1.179468498311525e+00	 3.289503479597400e+00
 5.195208381204921e-01	 1.191675598724702e+00	 2.995454840389184e+00
 4.922195877717349e-01	 1.203209281774577e+00	 2.713225328937878e+00
 4.647888693259978e-01	 1.214069208790389e+00	 2.443620043442565e+00
 4.372524319055254e-01	 1.224256125010579e+00	 2.187364781595138e+00
 4.096337394237552e-01	 1.233771832455774e+00	 1.945092578685640e+00
 3.819559156469748e-01	 1.242619159392876e+00	 1.717331101538317e+00
 3.542416922368837e-01	 1.250801926674242e+00	 1.504491201972260e+00
 3.265133599524975e-01	 1.258324911247501e+00	 1.306856910064686e+00
 2.987927231595001e-01	 1.265193807139827e+00	 1.124577116269236e+00
 2.711010577649079e-01	 1.271415184225567e+00	 9.576591535218635e-01
 5.526761438877230e-01	 1.192430019417744e+00	 3.403874387875660e+00
 5.252300031534778e-01	 1.204771267194820e+00	 3.106765239397079e+00
 4.976287314535490e-01	 1.216431697230087e+00	 2.821206549516721e+00
 4.698965688942295e-01	 1.227410967131020e+00	 2.548038281447174e+00
 4.420575255837426e-01	 1.237709830325687e+00	 2.288025465501838e+00
 4.141353232872625e-01	 1.247330108637632e+00	 2.041843597969443e+00
 3.861533398848386e-01	 1.256274661414386e+00	 1.810064866920007e+00
 3.581345568429812e-01	 1.264547351496750e+00	 1.593145533490550e+00
 3.301015098803090e-01	 1.272153008327602e+00	 1.391414773380839e+00
 3.020762429769927e-01	 1.279097388507421e+00	 1.205065251026825e+00
 2.740802658471492e-01	 1.285387134108794e+00	 1.034145659381573e+00
 5.586836412198745e-01	 1.205391534475477e+00	 3.514139313533576e+00
 5.309391655221455e-01	 1.217866929553885e+00	 3.214379424439073e+00
 5.030378726110818e-01	 1.229654106515435e+00	 2.925945200342404e+00
 4.750042660788756e-01	 1.240752719245839e+00	 2.649693892504869e+00
 4.468626170196098e-01	 1.251163529362787e+00	 2.386411879602892e+00
 4.186369050500766e-01	 1.260888378492727e+00	 2.136799052696774e+00
 3.903507621639697e-01	 1.269930157063807e+00	 1.901453991071880e+00
 3.620274196324958e-01	 1.278292769905249e+00	 1.680860282129806e+00
 3.336896581337639e-01	 1.285981098955156e+00	 1.475374314442861e+00
 3.053597612623210e-01	 1.293000963387279e+00	 1.285214839913503e+00
 2.770594725392778e-01	 1.299359077472413e+00	 1.110454559931715e+00
 5.646911343467459e-01	 1.218353040460394e+00	 3.620642825669413e+00
 5.366483238943944e-01	 1.230962582746256e+00	 3.318641630628296e+00
 5.084470099822319e-01	 1.242876506545394e+00	 3.027780144630652e+00
 4.801119596881672e-01	 1.254094462021757e+00	 2.748916083382835e+00
 4.516677050919607e-01	 1.264617218982655e+00	 2.482840060032943e+00
 4.231384836618437e-01	 1.274446638857421e+00	 2.230259076962565e+00
 3.945481815049780e-01	 1.283585643154801e+00	 1.991780765102424e+00
 3.659202796970926e-01	 1.292038178692406e+00	 1.767898748419509e+00
 3.372778038756170e-01	 1.299809179903525e+00	 1.558979487060534e+00
 3.086432772493077e-01	 1.306904528535139e+00	 1.365250918689965e+00
 2.800386771461065e-01	 1.313331011056197e+00	 1.186793175102920e+00
 5.706986218666309e-01	 1.231314534348166e+00	 3.723719603757018e+00
 5.423574769381242e-01	 1.244058223716290e+00	 3.419885753377355e+00
 5.138561423048991e-01	 1.256098894234734e+00	 3.127039641131605e+00
 4.852196485303356e-01	 1.267436192345687e+00	 2.846023350468668e+00
 4.564727886796288e-01	 1.278070896046066e+00	 2.577615359128183e+00
 4.276400580722104e-01	 1.288004886568077e+00	 2.322513253994993e+00
 3.987455969284734e-01	 1.297241116501029e+00	 2.081317142705496e+00
 3.698131361284367e-01	 1.305783574650884e+00	 1.854514164019259e+00
 3.408659462686225e-01	 1.313637247946070e+00	 1.642464474864040e+00
 3.119267901717747e-01	 1.320808080706736e+00	 1.445389057373665e+00
 2.830178789724484e-01	 1.327302931599920e+00	 1.263359645469298e+00
 5.767061023778234e-01	 1.244276013114461e+00	 3.823695080801444e+00
 5.480666233212343e-01	 1.257153849408346e+00	 3.518436015780269e+00
 5.192652683169823e-01	 1.269321266498228e+00	 3.224042024735448e+00
 4.903273314136112e-01	 1.280777907104539e+00	 2.941324163974348e+00
 4.612778666614481e-01	 1.291524557413797e+00	 2.671033125001341e+00
 4.321416272308229e-01	 1.301563118461056e+00	 2.413841284293407e+00
 4.029430074550653e-01	 1.310896573916152e+00	 2.170325391483913e+00
 3.737059880181927e-01	 1.319528954573350e+00	 1.940950322285343e+00
 3.444540844755351e-01	 1.327465299856153e+00	 1.726054298605101e+00
 3.152102992635440e-01	 1.334711616657808e+00	 1.525835943191426e+00
 2.859970773231161e-01	 1.341274835843357e+00	 1.340343491182026e+00
 5.827135744786168e-01	 1.257237473734950e+00	 3.920886043140655e+00
 5.537757617116243e-01	 1.270249456766782e+00	 3.614607591552712e+00
 5.246743867563802e-01	 1.282543620250645e+00	 3.319096342209936e+00
 4.954350071462251e-01	 1.294119603185224e+00	 3.035117607415821e+00
 4.660829379162515e-01	 1.304978199946625e+00	 2.763379337020884e+00
 4.366431900873278e-01	 1.315121331372720e+00	 2.504513610694656e+00
 4.071404121053634e-01	 1.324552012213832e+00	 2.259058702527951e+00
 3.775988344580258e-01	 1.333274315252468e+00	 2.027442168635289e+00
 3.480422176591093e-01	 1.341293332407137e+00	 1.809965384924590e+00
 3.184938037584378e-01	 1.348615133144092e+00	 1.606789926706635e+00
 2.889762715029223e-01	 1.355246720526281e+00	 1.417926135738760e+00
 5.887210367673058e-01	 1.270198913185302e+00	 4.015601189988334e+00
 5.594848907771935e-01	 1.283345042735955e+00	 3.708707186704811e+00
 5.300834963609925e-01	 1.295765952406758e+00	 3.412502946272530e+00
 5.005426745364085e-01	 1.307461277474654e+00	 3.127693975562496e+00
 4.708880013228732e-01	 1.318431820505326e+00	 2.854931200344329e+00
 4.411447455913715e-01	 1.328679522139431e+00	 2.594792003440713e+00
 4.113378098999779e-01	 1.338207428207729e+00	 2.347761761230033e+00
 3.814916745396011e-01	 1.347019653480905e+00	 2.114216353580070e+00
 3.516303449820996e-01	 1.355121342372383e+00	 1.894406099338385e+00
 3.217773028902782e-01	 1.362518626921326e+00	 1.688441533750558e+00
 2.919554608166801e-01	 1.369218582388467e+00	 1.496281397097304e+00
 5.947284878421829e-01	 1.283160328441185e+00	 4.108141655563833e+00
 5.651940091858411e-01	 1.296440604260224e+00	 3.801033582861529e+00
 5.354925958687180e-01	 1.308988259881339e+00	 3.504554050942977e+00
 5.056503323923919e-01	 1.320802926859741e+00	 3.219335333791755e+00
 4.756930557601460e-01	 1.331885415950674e+00	 2.945957702397767e+00
 4.456462926925999e-01	 1.342237687597550e+00	 2.684930108077540e+00
 4.155351998595183e-01	 1.351862818711506e+00	 2.436671282073086e+00
 3.853845073545833e-01	 1.360764966051325e+00	 2.201491751062838e+00
 3.552184656072604e-01	 1.368949326525253e+00	 1.979577245970065e+00
 3.250607958928872e-01	 1.376422094745246e+00	 1.770973945574008e+00
 2.949346445692019e-01	 1.383190418169688e+00	 1.575575948443267e+00
 6.007359263015425e-01	 1.296121716478273e+00	 4.198801496426256e+00
 5.709031156054668e-01	 1.309536138283946e+00	 3.891878144916014e+00
 5.409016840174559e-01	 1.322210539589158e+00	 3.595534250884085e+00
 5.107579795224065e-01	 1.334144548227396e+00	 3.310316041548064e+00
 4.804981001069039e-01	 1.345338983143447e+00	 3.036720133965358e+00
 4.501478303406600e-01	 1.355795824583440e+00	 2.775173958783353e+00
 4.197325810045943e-01	 1.365518180538823e+00	 2.526016509916139e+00
 3.892773319946376e-01	 1.374510249756393e+00	 2.289479944531528e+00
 3.588065786973464e-01	 1.382777281639109e+00	 2.065672536356976e+00
 3.283442820000870e-01	 1.390325533371589e+00	 1.854563449443904e+00
 2.979138220653007e-01	 1.397162224609720e+00	 1.655969750733784e+00
 2.681218489877413e-01	 1.257443231082956e+00	 8.807779462317604e-01
 2.407817228767851e-01	 1.262963522352994e+00	 7.322313077245899e-01
 2.135106558184331e-01	 1.267858745981453e+00	 5.977209343210832e-01
 1.863279375037964e-01	 1.272137738871794e+00	 4.781846577310787e-01
 1.592522018633585e-01	 1.275810025489055e+00	 3.743655090174165e-01
 1.323014031501211e-01	 1.278885770601601e+00	 2.868103582571504e-01
 1.054927955345951e-01	 1.281375731613288e+00	 2.158713732248290e-01
 7.884291614478943e-02	 1.283291210751440e+00	 1.617101746799379e-01
 5.236757146467105e-02	 1.284644007362039e+00	 1.243045206779041e-01
 2.608182698689521e-02	 1.285446370548278e+00	 1.034573128799023e-01
 0.000000000000000e+00	 1.285710952372222e+00	 9.880768475983148e-02
 2.711010577649079e-01	 1.271415184225567e+00	 9.576591535218613e-01
 2.434571446109329e-01	 1.276996813653051e+00	 8.051376003379960e-01
 2.158830578522008e-01	 1.281946430063098e+00	 6.669044383485438e-01
 1.883983015152831e-01	 1.286272968549541e+00	 5.439620331379289e-01
 1.610217165797056e-01	 1.289986059407557e+00	 4.371108526078831e-01
 1.337714567953441e-01	 1.293095980350324e+00	 3.469473530994694e-01
 1.066649680506879e-01	 1.295613608311512e+00	 2.738648534479041e-01
 7.971897122437922e-02	 1.297550371102009e+00	 2.180572759584315e-01
 5.294944843254006e-02	 1.298918199175053e+00	 1.795255847865910e-01
 2.637163256653081e-02	 1.299729477738514e+00	 1.580867096542244e-01
 0.000000000000000e+00	 1.299996999436575e+00	 1.533847069531016e-01
 2.740802658471492e-01	 1.285387134108794e+00	 1.034145659381573e+00
 2.461325657211033e-01	 1.291030101679448e+00	 8.777195147111285e-01
 2.182554593327630e-01	 1.296034110858418e+00	 7.357452462796350e-01
 1.904686650441012e-01	 1.300408194929889e+00	 6.093147519870894e-01
 1.627912308836288e-01	 1.304162090019158e+00	 4.993106541885575e-01
 1.352415100980418e-01	 1.307306186784182e+00	 4.064032271258718e-01
 1.078371402937548e-01	 1.309851481688423e+00	 3.310504985315895e-01
 8.059502609999235e-02	 1.311809528126306e+00	 2.735014067906983e-01
 5.353132526498362e-02	 1.313192387658288e+00	 2.338018428754363e-01
 2.666143807874780e-02	 1.314012581596891e+00	 2.118033603032721e-01
 0.000000000000000e+00	 1.314283043168385e+00	 2.071742973992359e-01
 2.770594725392778e-01	 1.299359077472413e+00	 1.110454559931715e+00
 2.488079855829751e-01	 1.305063383157637e+00	 9.501800324171199e-01
 2.206278597064843e-01	 1.310121785080170e+00	 8.044378880910246e-01
 1.925390276070735e-01	 1.314543414714498e+00	 6.744339200269013e-01
 1.645607443621362e-01	 1.318338114015989e+00	 5.611569825306674e-01
 1.367115627150885e-01	 1.321516386587330e+00	 4.653747560167295e-01
 1.090093119901753e-01	 1.324089348421717e+00	 3.876328896396968e-01
 8.147108056711205e-02	 1.326068678497057e+00	 3.282574064614036e-01
 5.411320182614732e-02	 1.327466569480965e+00	 2.873601997787893e-01
 2.695124345587590e-02	 1.328295678790551e+00	 2.648473995514845e-01
 0.000000000000000e+00	 1.328569080234105e+00	 2.604303455116825e-01
 2.800386771461065e-01	 1.313331011056197e+00	 1.186793175102920e+00
 2.514834035722265e-01	 1.319096654813073e+00	 1.022712546661117e+00
 2.230002584197293e-01	 1.324209449441108e+00	 8.731673029915470e-01
 1.946093887210234e-01	 1.328678624605022e+00	 7.395008949397636e-01
 1.663302566022356e-01	 1.332514128090182e+00	 6.228318812345904e-01
 1.381816143033584e-01	 1.335726576443923e+00	 5.240483280575091e-01
 1.101814828663291e-01	 1.338327205189094e+00	 4.438058073150521e-01
 8.234713442122146e-02	 1.340327818886994e+00	 3.825288828020723e-01
 5.469507798017686e-02	 1.341740741312307e+00	 3.404159129763291e-01
 2.724104863024481e-02	 1.342578765986636e+00	 3.174469453459403e-01
 0.000000000000000e+00	 1.342855107300192e+00	 3.133944314320414e-01
 2.830178789724484e-01	 1.327302931599920e+00	 1.263359645469300e+00
 2.541588190645365e-01	 1.333129913371210e+00	 1.095501439453429e+00
 2.253726549188625e-01	 1.338297100653986e+00	 9.421094067496815e-01
 1.966797479027737e-01	 1.342813821303118e+00	 8.046878519891915e-01
 1.680997671909344e-01	 1.346690128933866e+00	 6.845079392295172e-01
 1.396516645197257e-01	 1.349936753038114e+00	 5.826005244098054e-01
 1.113536526485959e-01	 1.352565048668249e+00	 4.997528248562011e-01
 8.322318745780383e-02	 1.354586945968846e+00	 4.365088204537944e-01
 5.527695359121787e-02	 1.356014899821536e+00	 3.931732160019002e-01
 2.753085353418426e-02	 1.356861839852286e+00	 3.698187361939914e-01
 0.000000000000000e+00	 1.357141121033102e+00	 3.662964746431493e-01
 2.859970773231161e-01	 1.341274835843357e+00	 1.340343491182031e+00
 2.568342314355833e-01	 1.347163155557500e+00	 1.168722622260786e+00
 2.277450486502487e-01	 1.352384735431563e+00	 1.011431623238541e+00
 1.987501046691476e-01	 1.356949001510443e+00	 8.701583140913031e-01
 1.698692757152408e-01	 1.360866113239175e+00	 7.463488254728091e-01
 1.411217130210647e-01	 1.364146913054058e+00	 6.411986630326592e-01
 1.125258210633554e-01	 1.366802875536879e+00	 5.556478645684670e-01
 8.409923947234235e-02	 1.368846056415343e+00	 4.903801511020522e-01
 5.585882852341595e-02	 1.370289041677874e+00	 4.458259028960254e-01
 2.782065810002395e-02	 1.371144897054644e+00	 4.221687286818506e-01
 0.000000000000000e+00	 1.371427118099289e+00	 4.193553420600823e-01
 2.889762715029223e-01	 1.355246720526281e+00	 1.417926135738760e+00
 2.595096400610456e-01	 1.361196378097397e+00	 1.242544042770867e+00
 2.301174390602524e-01	 1.366472350486590e+00	 1.081293382781070e+00
 2.008204585369680e-01	 1.371084161928650e+00	 9.360676488763486e-01
 1.716387817621622e-01	 1.375042077698238e+00	 8.085097904327671e-01
 1.425917594642496e-01	 1.378357053175909e+00	 7.000013088752033e-01
 1.136979878369874e-01	 1.381040682472682e+00	 6.116557195673211e-01
 8.497529026032022e-02	 1.383105146899215e+00	 5.443162884278622e-01
 5.644070264091678e-02	 1.384563163550541e+00	 4.985578765113009e-01
 2.811046226009360e-02	 1.385427934260852e+00	 4.746926580465923e-01
 0.000000000000000e+00	 1.385713095165209e+00	 4.727794185221532e-01
 2.919554608166801e-01	 1.369218582388467e+00	 1.496281397097302e+00
 2.621850443166021e-01	 1.375229577716355e+00	 1.317126160190506e+00
 2.324898255952381e-01	 1.380559942531825e+00	 1.151846589664925e+00
 2.028908090230582e-01	 1.385219299259399e+00	 1.002563535098353e+00
 1.734082849187065e-01	 1.389218019003189e+00	 8.711381367251918e-01
 1.440618035061546e-01	 1.392567170087822e+00	 7.591587527497724e-01
 1.148701526958714e-01	 1.395278466153354e+00	 6.679325435932475e-01
 8.585133961722070e-02	 1.397364214093191e+00	 5.984816302945324e-01
 5.702257580786600e-02	 1.398837262108762e+00	 5.515436632538747e-01
 2.840026594672293e-02	 1.399710948138050e+00	 5.275765644406960e-01
 0.000000000000000e+00	 1.399999048897318e+00	 5.267671423714050e-01
 2.949346445692019e-01	 1.383190418169688e+00	 1.575575948443267e+00
 2.648604435779311e-01	 1.389262751139826e+00	 1.392622391299526e+00
 2.348622077015705e-01	 1.394647508280022e+00	 1.223236061006749e+00
 2.049611556442410e-01	 1.399354410204343e+00	 1.069786400557680e+00
 1.751777847718815e-01	 1.403393933846157e+00	 9.343736610852225e-01
 1.455318448036539e-01	 1.406777260473951e+00	 8.188134610987021e-01
 1.160423153663872e-01	 1.409516223256593e+00	 7.246263110997966e-01
 8.672738733852689e-02	 1.411623254670002e+00	 6.530320304854685e-01
 5.760444788840924e-02	 1.413111334021757e+00	 6.049488966312518e-01
 2.869006909224163e-02	 1.413993935353380e+00	 5.809972873125687e-01
 0.000000000000000e+00	 1.414284975962072e+00	 5.815075085848095e-01
 2.979138220653007e-01	 1.397162224609720e+00	 1.655969750733779e+00
 2.675358372207115e-01	 1.403295895093266e+00	 1.469179529308262e+00
 2.372345848256142e-01	 1.408735044443937e+00	 1.295599938969243e+00
 2.070314979173397e-01	 1.413489491465140e+00	 1.137869833531667e+00
 1.769472809086950e-01	 1.417569818919275e+00	 9.983490696793205e-01
 1.470018830136218e-01	 1.420987321018450e+00	 8.791004986929316e-01
 1.172144755749144e-01	 1.423753950460095e+00	 7.818772496952953e-01
 8.760343321972207e-02	 1.425882265302377e+00	 7.081152421245872e-01
 5.818631874669211e-02	 1.427385375958748e+00	 6.589307717909111e-01
 2.897987162897944e-02	 1.428276892573984e+00	 6.351229301365252e-01
 0.000000000000000e+00	 1.428570873025926e+00	 6.371805417317089e-01
 1.428570873025926e+00	 0.000000000000000e+00	 1.341041208352213e+01
 1.428276892573984e+00	 2.897987162897983e-02	 1.342768036669690e+01
 1.427385375958749e+00	 5.818631874669251e-02	 1.343272152952640e+01
 1.425882265302377e+00	 8.760343321972237e-02	 1.342733473698214e+01
 1.423753950460095e+00	 1.172144755749147e-01	 1.341333093101999e+01
 1.420987321018450e+00	 1.470018830136220e-01	 1.339252481049009e+01
 1.417569818919275e+00	 1.769472809086952e-01	 1.336672640754901e+01
 1.413489491465139e+00	 2.070314979173397e-01	 1.333773220151285e+01
 1.408735044443936e+00	 2.372345848256141e-01	 1.330731571519650e+01
 1.403295895093266e+00	 2.675358372207115e-01	 1.327721754741079e+01
 1.397162224609719e+00	 2.979138220653008e-01	 1.324913480869425e+01
 1.442856738422074e+00	 0.000000000000000e+00	 1.328913736858564e+01
 1.442559818133399e+00	 2.926967352309299e-02	 1.330712598038286e+01
 1.441659386254313e+00	 5.876818831477279e-02	 1.331316212786370e+01
 1.440141244326646e+00	 8.847947715852847e-02	 1.330908615472445e+01
 1.437991646102674e+00	 1.183866331846208e-01	 1.329674119828867e+01
 1.435197350063360e+00	 1.484719179644717e-01	 1.327796479462612e+01
 1.431745672568570e+00	 1.787167731226271e-01	 1.325458007356505e+01
 1.427624541392580e+00	 2.091018356007429e-01	 1.322838762588582e+01
 1.422822549379909e+00	 2.396069566905304e-01	 1.320118652825654e+01
 1.417329007939364e+00	 2.702112249327637e-01	 1.317472856926931e+01
 1.411134000078413e+00	 3.008929929573673e-01	 1.315070217958128e+01
 1.457142577150667e+00	 0.000000000000000e+00	 1.317481275919817e+01
 1.456842717030744e+00	 2.955947487604390e-02	 1.319349310251654e+01
 1.455933369904449e+00	 5.935005679635650e-02	 1.320046739816771e+01
 1.454400196733541e+00	 8.935551946162226e-02	 1.319762212743816e+01
 1.452229315167604e+00	 1.195587886058234e-01	 1.318683976656930e+01
 1.449407352582267e+00	 1.499419501707724e-01	 1.316998979669452e+01
 1.445921499755661e+00	 1.804862620330460e-01	 1.314891931577325e+01
 1.441759564933990e+00	 2.111721694191012e-01	 1.312544328788247e+01
 1.436910028018618e+00	 2.419793241266670e-01	 1.310133447190879e+01
 1.431362094589756e+00	 2.728866076504773e-01	 1.307831307871236e+01
 1.425105749465931e+00	 3.038721582881034e-01	 1.305804780268953e+01
 1.471428395878593e+00	 0.000000000000000e+00	 1.306690921848838e+01
 1.471125595931537e+00	 2.984927582312151e-02	 1.308628284383607e+01
 1.470207333570505e+00	 5.993192446306174e-02	 1.309416500407577e+01
 1.468659129177392e+00	 9.023156053791931e-02	 1.309248897529573e+01
 1.466466964299278e+00	 1.207309423856280e-01	 1.308317690877336e+01
 1.463617335206642e+00	 1.514119803186326e-01	 1.306813022518311e+01
 1.460097307096061e+00	 1.822557484657932e-01	 1.304921962419486e+01
 1.455894568685836e+00	 2.132425003386314e-01	 1.302827475037288e+01
 1.450997486934333e+00	 2.443516882411687e-01	 1.300707356322659e+01
 1.445395161593315e+00	 2.755619866223831e-01	 1.298733146650729e+01
 1.439077479292515e+00	 3.068513194477887e-01	 1.297069025932872e+01
 1.485714201272741e+00	 0.000000000000000e+00	 1.296491954264600e+01
 1.485408461501291e+00	 3.013907649961475e-02	 1.298501722359784e+01
 1.484481283913834e+00	 6.051379158650658e-02	 1.299380447044091e+01
 1.482918048312531e+00	 9.110760079633509e-02	 1.299326200400834e+01
 1.480704600142087e+00	 1.219030950711400e-01	 1.298535198556277e+01
 1.477827304567958e+00	 1.528820090941604e-01	 1.297200777499523e+01
 1.474273101205284e+00	 1.840252332467092e-01	 1.295512331907472e+01
 1.470029559244577e+00	 2.153128293255499e-01	 1.293654221646320e+01
 1.465084932701314e+00	 2.467240501411799e-01	 1.291804651340922e+01
 1.459428215498915e+00	 2.782373630970129e-01	 1.290134529149336e+01
 1.453049196078406e+00	 3.098304778267026e-01	 1.288806311644613e+01
 1.500000000000000e+00	 0.000000000000000e+00	 1.286835731928787e+01
 1.499691320405524e+00	 3.042887704081255e-02	 1.288923801799487e+01
 1.498755227595788e+00	 6.109565843830920e-02	 1.289895410489709e+01
 1.497176960793287e+00	 9.198364064578519e-02	 1.289953438860919e+01
 1.494942229340423e+00	 1.230752472094650e-01	 1.289298137432357e+01
 1.492037267297686e+00	 1.543520371834642e-01	 1.288126036597689e+01
 1.488448888698843e+00	 1.857947172016354e-01	 1.286628821437405e+01
 1.484164543206676e+00	 2.173831573460732e-01	 1.284992176403805e+01
 1.479172371893830e+00	 2.490964109338453e-01	 1.283394605901482e+01
 1.473461262855428e+00	 2.809127383228979e-01	 1.282006237553533e+01
 1.467020906343844e+00	 3.128096348151254e-01	 1.280987615724711e+01
 1.514285798727260e+00	 0.000000000000000e+00	 1.277675594628990e+01
 1.513974179309750e+00	 3.071867758200388e-02	 1.279850582402751e+01
 1.513029171277717e+00	 6.167752529008763e-02	 1.280920010389998e+01
 1.511435873273994e+00	 9.285968049518506e-02	 1.281091631878976e+01
 1.509179858538677e+00	 1.242473993477081e-01	 1.280569765092566e+01
 1.506247230027299e+00	 1.558220652726523e-01	 1.279554135824075e+01
 1.502624676192253e+00	 1.875642011564123e-01	 1.278238686382008e+01
 1.498299527168598e+00	 2.194534853664177e-01	 1.276810356750773e+01
 1.493259811086144e+00	 2.514687717263093e-01	 1.275447844646731e+01
 1.487494310211727e+00	 2.835881135485694e-01	 1.274320351937609e+01
 1.480992616609070e+00	 3.157887918033364e-01	 1.273586325689988e+01
 1.528571604121408e+00	 0.000000000000000e+00	 1.268966770569423e+01
 1.528257044879485e+00	 3.100847825847763e-02	 1.271239917592473e+01
 1.527303121620974e+00	 6.225939241346007e-02	 1.272414570895877e+01
 1.525694792408982e+00	 9.373572075345028e-02	 1.272703419223339e+01
 1.523417494381241e+00	 1.254195520329751e-01	 1.272314881745237e+01
 1.520457199388268e+00	 1.572920940478329e-01	 1.271451881159682e+01
 1.516800470301028e+00	 1.893336859368810e-01	 1.270310584936355e+01
 1.512434517726803e+00	 2.215238143527999e-01	 1.269079121264705e+01
 1.507347256852522e+00	 2.538411336257166e-01	 1.267936277067014e+01
 1.501527364116686e+00	 2.862634900225589e-01	 1.267050186246703e+01
 1.494964333394326e+00	 3.187679501816155e-01	 1.266577017154145e+01
 1.542857422849333e+00	 0.000000000000000e+00	 1.260666288911931e+01
 1.542539923780245e+00	 3.129827920552281e-02	 1.263051371070665e+01
 1.541577085286909e+00	 6.284126008004454e-02	 1.264341040980294e+01
 1.539953724852582e+00	 9.461176182949638e-02	 1.264752985283278e+01
 1.537655143512507e+00	 1.265917058123711e-01	 1.264499757291780e+01
 1.534667182012065e+00	 1.587621241951145e-01	 1.263787478622911e+01
 1.530976277640682e+00	 1.911031723688825e-01	 1.262814510929293e+01
 1.526569521477754e+00	 2.235941452714363e-01	 1.261770104965297e+01
 1.521434715767229e+00	 2.562134977392117e-01	 1.260833035054954e+01
 1.515560431119178e+00	 2.889388689933976e-01	 1.260170227858476e+01
 1.508936063219851e+00	 3.217471113402418e-01	 1.259935395161031e+01
 1.557143261577926e+00	 0.000000000000000e+00	 1.252732897136222e+01
 1.556822822677546e+00	 3.158808055842829e-02	 1.255246137973001e+01
 1.555851068936875e+00	 6.342312856145918e-02	 1.256662919146732e+01
 1.554212677259125e+00	 9.548780413223884e-02	 1.257205987090644e+01
 1.551892812576865e+00	 1.277638612330018e-01	 1.257092062420851e+01
 1.548877184530161e+00	 1.602321564006051e-01	 1.256530468196658e+01
 1.545152104826728e+00	 1.928726612782576e-01	 1.255721730345614e+01
 1.540704545017914e+00	 2.256644790885435e-01	 1.254856158196437e+01
 1.535522194404530e+00	 2.585858651739392e-01	 1.254112413915352e+01
 1.529593517768076e+00	 2.916142517096169e-01	 1.253656080493350e+01
 1.522907812605887e+00	 3.247262766694958e-01	 1.253638238772793e+01
 1.571429126974074e+00	 0.000000000000000e+00	 1.245126982912411e+01
 1.571105748236902e+00	 3.187788245248305e-02	 1.247786970328783e+01
 1.570125079232222e+00	 6.400499812932213e-02	 1.249345182249822e+01
 1.568471656282942e+00	 9.636384807059326e-02	 1.250029486273880e+01
 1.566130508218708e+00	 1.289360188419724e-01	 1.250060803468771e+01
 1.563087213574030e+00	 1.617021913504133e-01	 1.249651661369030e+01
 1.559327958474683e+00	 1.946421534908473e-01	 1.249004721322624e+01
 1.554839594943744e+00	 2.277348167703377e-01	 1.248311288856575e+01
 1.549609699338691e+00	 2.609582370370436e-01	 1.247749816610544e+01
 1.543626630612252e+00	 2.942896394197481e-01	 1.247484410260002e+01
 1.536879588072675e+00	 3.277054475596566e-01	 1.247663348705535e+01
 1.397162224609719e+00	 2.979138220653008e-01	 1.324913480869425e+01
 1.390325533371589e+00	 3.283442820000868e-01	 1.321492541123002e+01
 1.382777281639109e+00	 3.588065786973459e-01	 1.316634686831728e+01
 1.374510249756393e+00	 3.892773319946374e-01	 1.310487409071180e+01
 1.365518180538822e+00	 4.197325810045940e-01	 1.303192342177903e+01
 1.355795824583439e+00	 4.501478303406597e-01	 1.294884233656152e+01
 1.345338983143448e+00	 4.804981001069037e-01	 1.285689891086144e+01
 1.334144548227396e+00	 5.107579795224063e-01	 1.275727120725608e+01
 1.322210539589158e+00	 5.409016840174555e-01	 1.265103675718402e+01
 1.309536138283946e+00	 5.709031156054665e-01	 1.253916234776198e+01
 1.296121716478273e+00	 6.007359263015425e-01	 1.242249434716338e+01
 1.411134000078413e+00	 3.008929929573673e-01	 1.315070217958128e+01
 1.404228941178191e+00	 3.316277608287755e-01	 1.312093894779068e+01
 1.396605206100602e+00	 3.623946838337244e-01	 1.307716351046048e+01
 1.388255502992416e+00	 3.931701480055892e-01	 1.302082303356836e+01
 1.379173512096488e+00	 4.239299528455067e-01	 1.295330392309572e+01
 1.369353931515263e+00	 4.546493580103738e-01	 1.287592153629900e+01
 1.358792520514022e+00	 4.853031338025658e-01	 1.278990962309157e+01
 1.347486140021065e+00	 5.158656153305728e-01	 1.269640964874051e+01
 1.335432789987597e+00	 5.463107601761635e-01	 1.259646018382377e+01
 1.322631643279300e+00	 5.766122093700307e-01	 1.249098657933437e+01
 1.309083075784400e+00	 6.067433514445451e-01	 1.238079117219464e+01
 1.425105749465931e+00	 3.038721582881034e-01	 1.305804780268954e+01
 1.418132323031283e+00	 3.349112335281558e-01	 1.303240597551111e+01
 1.410433104749542e+00	 3.659827822722144e-01	 1.299310442327422e+01
 1.402000730570267e+00	 3.970629567499074e-01	 1.294156212897473e+01
 1.392828818163903e+00	 4.281273168513230e-01	 1.287913537367571e+01
 1.382912013138390e+00	 4.591508772772685e-01	 1.280710745739113e+01
 1.372246032771167e+00	 4.901081585288932e-01	 1.272667810442985e+01
 1.360827706910340e+00	 5.209732416045713e-01	 1.263895270890295e+01
 1.348655015704478e+00	 5.517198262380337e-01	 1.254493161353942e+01
 1.335727123829745e+00	 5.823212924777389e-01	 1.244549964949054e+01
 1.322044410896074e+00	 6.127507653738173e-01	 1.234141619455151e+01
 1.439077479292515e+00	 3.068513194477887e-01	 1.297069025932872e+01
 1.432035685419194e+00	 3.381947016305061e-01	 1.294895514059347e+01
 1.424260984039027e+00	 3.695708756872476e-01	 1.291383127488969e+01
 1.415745938904460e+00	 4.009557600442207e-01	 1.286677523646037e+01
 1.406484105113612e+00	 4.323246749808002e-01	 1.280912324053157e+01
 1.396470075779993e+00	 4.636523902420470e-01	 1.274212659104574e+01
 1.385699526193253e+00	 4.949131765282328e-01	 1.266695129755527e+01
 1.374169255121346e+00	 5.260808607279711e-01	 1.258466722853565e+01
 1.361877222910231e+00	 5.571288847273165e-01	 1.249623725868081e+01
 1.348822586046562e+00	 5.880303675928577e-01	 1.240250664825395e+01
 1.335005727861969e+00	 6.187581708928535e-01	 1.230419292485702e+01
 1.453049196078406e+00	 3.098304778267026e-01	 1.288806311644613e+01
 1.445939034830253e+00	 3.414781666681055e-01	 1.287002849951176e+01
 1.438088850422154e+00	 3.731589657532558e-01	 1.283895049741084e+01
 1.429491134409508e+00	 4.048485597051586e-01	 1.279616260011569e+01
 1.420139379318163e+00	 4.365220291926967e-01	 1.274298957570435e+01
 1.410028125767245e+00	 4.681538990054123e-01	 1.268072154491251e+01
 1.399153007058650e+00	 4.997181900429310e-01	 1.261049175439923e+01
 1.387510790880210e+00	 5.311884750843423e-01	 1.253333511585615e+01
 1.375099417775286e+00	 5.625379381682628e-01	 1.245017782683946e+01
 1.361918036041029e+00	 5.937394373796537e-01	 1.236182656287994e+01
 1.347967032730759e+00	 6.247655708051465e-01	 1.226895815183908e+01
 1.467020906343844e+00	 3.128096348151254e-01	 1.280987615724711e+01
 1.459842377752788e+00	 3.447616301732324e-01	 1.279525890355331e+01
 1.451916710352021e+00	 3.767470541446709e-01	 1.276796071593286e+01
 1.443236323499923e+00	 4.087413575493496e-01	 1.272928111282947e+01
 1.433794647150103e+00	 4.407193814457703e-01	 1.268045224677423e+01
 1.423586169427317e+00	 4.726554056680671e-01	 1.262265037356228e+01
 1.412606481645731e+00	 5.045232013153349e-01	 1.255707698088394e+01
 1.400852320413059e+00	 5.362960870572544e-01	 1.248475270598367e+01
 1.388321606470075e+00	 5.679469890851228e-01	 1.240656789559656e+01
 1.375013479924427e+00	 5.994485045023932e-01	 1.232329166846285e+01
 1.360928331551120e+00	 6.307729679141900e-01	 1.223556134943478e+01
 1.480992616609070e+00	 3.157887918033364e-01	 1.273586325689988e+01
 1.473745720675130e+00	 3.480450936781657e-01	 1.272439269658035e+01
 1.465744570281727e+00	 3.803351425359247e-01	 1.270060491925089e+01
 1.456981512590223e+00	 4.126341553934235e-01	 1.266576549453077e+01
 1.447449914981977e+00	 4.449167336987789e-01	 1.262106941838600e+01
 1.437144213087383e+00	 4.771569123307148e-01	 1.256763439127811e+01
 1.426059956232863e+00	 5.093282125877910e-01	 1.250649881447132e+01
 1.414193849946018e+00	 5.414036990302772e-01	 1.243873015193741e+01
 1.401543795165028e+00	 5.733560400021475e-01	 1.236523531747551e+01
 1.388108923808035e+00	 6.051575716253428e-01	 1.228674694740320e+01
 1.373889630371724e+00	 6.367803650234781e-01	 1.220386411138583e+01
 1.494964333394326e+00	 3.187679501816155e-01	 1.266577017154145e+01
 1.487649070085608e+00	 3.513285587151836e-01	 1.265718766539443e+01
 1.479572436664370e+00	 3.839232326014490e-01	 1.263665315289045e+01
 1.470726708094918e+00	 4.165269550540093e-01	 1.260539827465381e+01
 1.461105189186332e+00	 4.491140879104804e-01	 1.256458094880412e+01
 1.450702263074612e+00	 4.816584210940578e-01	 1.251527871957942e+01
 1.439513437098418e+00	 5.141332261026461e-01	 1.245848240259691e+01
 1.427535385705215e+00	 5.465113133869804e-01	 1.239509084509363e+01
 1.414765990030577e+00	 5.787650934435867e-01	 1.232602065312208e+01
 1.401204373803133e+00	 6.108666414127690e-01	 1.225204953584602e+01
 1.386850935241248e+00	 6.427877649365041e-01	 1.217373961152555e+01
 1.508936063219851e+00	 3.217471113402418e-01	 1.259935395161031e+01
 1.501552432472550e+00	 3.546120268165655e-01	 1.259341246992761e+01
 1.493400315953049e+00	 3.875113260156757e-01	 1.257588590342616e+01
 1.484471916428524e+00	 4.204197583477359e-01	 1.254797198121429e+01
 1.474760476135717e+00	 4.533114460396327e-01	 1.251079161934453e+01
 1.464260325716179e+00	 4.861599340587995e-01	 1.246538233984460e+01
 1.452966930520765e+00	 5.189382441022472e-01	 1.241269199978287e+01
 1.440876933916774e+00	 5.516189325109339e-01	 1.235357290603427e+01
 1.427988197237152e+00	 5.841741519336919e-01	 1.228877663088107e+01
 1.414299836021000e+00	 6.165757165289386e-01	 1.221906819534072e+01
 1.399812252208365e+00	 6.487951704567616e-01	 1.214507208809071e+01
 1.522907812605887e+00	 3.247262766694958e-01	 1.253638238772793e+01
 1.515455814324286e+00	 3.578954995145896e-01	 1.253284610509503e+01
 1.507228214600859e+00	 3.910994244530367e-01	 1.251809357686431e+01
 1.498217144005554e+00	 4.243125670912325e-01	 1.249328863625865e+01
 1.488415782202676e+00	 4.575088100449939e-01	 1.245951527065663e+01
 1.477818407339255e+00	 4.906614533256427e-01	 1.241777111091296e+01
 1.466420442778276e+00	 5.237432688289406e-01	 1.236896124323059e+01
 1.454218500806824e+00	 5.567265587857070e-01	 1.231389241949595e+01
 1.441210422955184e+00	 5.895832179967133e-01	 1.225326774654451e+01
 1.427395316572917e+00	 6.222847996381182e-01	 1.218768280810167e+01
 1.412773587321749e+00	 6.548025843877445e-01	 1.211775635051391e+01
 1.536879588072675e+00	 3.277054475596566e-01	 1.247663348705535e+01
 1.529359222129145e+00	 3.611789783415347e-01	 1.247527739229222e+01
 1.521056139060902e+00	 3.946875295879635e-01	 1.246307600581119e+01
 1.511962397240521e+00	 4.282053831011283e-01	 1.244115927921241e+01
 1.502071113759757e+00	 4.617061818853215e-01	 1.241057434273642e+01
 1.491376514271011e+00	 4.951629809952903e-01	 1.237227906470601e+01
 1.479873980149320e+00	 5.285483025250732e-01	 1.232713594515145e+01
 1.467560092601489e+00	 5.618341945948696e-01	 1.227590641972791e+01
 1.454432673355103e+00	 5.949922941569014e-01	 1.221924565472417e+01
 1.440490821570163e+00	 6.279938934045739e-01	 1.215769791811262e+01
 1.425734946630075e+00	 6.608100095329462e-01	 1.209169730726484e+01
 1.296121716478273e+00	 6.007359263015425e-01	 1.242249434716338e+01
 1.281967848036833e+00	 6.303756502559339e-01	 1.229510767200888e+01
 1.267078280965017e+00	 6.597935335531179e-01	 1.215136878385305e+01
 1.251457107126304e+00	 6.889628711939321e-01	 1.199237757121862e+01
 1.235109686128581e+00	 7.178569865660782e-01	 1.181914476576563e+01
 1.218042652399525e+00	 7.464493056294462e-01	 1.163258688491307e+01
 1.200263917106523e+00	 7.747134321542246e-01	 1.143352282014582e+01
 1.181782664794757e+00	 8.026232235966543e-01	 1.122267225477685e+01
 1.162609344655126e+00	 8.301528671821563e-01	 1.100065604976331e+01
 1.142755656373624e+00	 8.572769557543545e-01	 1.076799868207729e+01
 1.122234530555182e+00	 8.839705629414819e-01	 1.052513275870266e+01
 1.309083075784400e+00	 6.067433514445451e-01	 1.238079117219464e+01
 1.294787667106306e+00	 6.366794758887820e-01	 1.225996767458606e+01
 1.279749202730872e+00	 6.663915412449152e-01	 1.212290730164535e+01
 1.263971815440652e+00	 6.958525754608674e-01	 1.197067284768883e+01
 1.247460918440193e+00	 7.250356351552959e-01	 1.180423606614804e+01
 1.230223212502171e+00	 7.539138805447811e-01	 1.162447254907357e+01
 1.212266687906508e+00	 7.824606514343239e-01	 1.143215832173503e+01
 1.193600621044838e+00	 8.106495438518657e-01	 1.122796834960750e+01
 1.174235565601107e+00	 8.384544868922558e-01	 1.101247710747888e+01
 1.154183338259446e+00	 8.658498193247729e-01	 1.078616130328063e+01
 1.133456998932246e+00	 8.928103655112042e-01	 1.054940478421512e+01
 1.322044410896074e+00	 6.127507653738173e-01	 1.234141619455151e+01
 1.307607462245575e+00	 6.429832897546267e-01	 1.222679687615663e+01
 1.292420100844492e+00	 6.729895366205751e-01	 1.209606004586639e+01
 1.276486500394384e+00	 7.027422668671673e-01	 1.195023135920141e+01
 1.259812127696359e+00	 7.322142703445174e-01	 1.179024348026768e+01
 1.242403749867965e+00	 7.613784415263900e-01	 1.161693087467049e+01
 1.224269436301516e+00	 7.902078562530934e-01	 1.143102639048381e+01
 1.205418555234924e+00	 8.186758491247561e-01	 1.123315983912761e+01
 1.185861764844993e+00	 8.467560911061389e-01	 1.102385873794892e+01
 1.165610998813772e+00	 8.744226668926508e-01	 1.080355131597656e+01
 1.144679446360872e+00	 9.016501515800983e-01	 1.057257181550228e+01
 1.335005727861969e+00	 6.187581708928535e-01	 1.230419292485701e+01
 1.320427239437255e+00	 6.492870947952859e-01	 1.219543657453719e+01
 1.305090981219005e+00	 6.795875227591991e-01	 1.207068531401665e+01
 1.289001167827722e+00	 7.096319486280581e-01	 1.193092769160636e+01
 1.272163319661003e+00	 7.393928954838045e-01	 1.177705724581213e+01
 1.254584270181177e+00	 7.688429920577627e-01	 1.160986718624117e+01
 1.236272167892840e+00	 7.979550502259156e-01	 1.143004693920778e+01
 1.217236472880059e+00	 8.267021431609495e-01	 1.123818078555036e+01
 1.197487947812345e+00	 8.550576836978963e-01	 1.103474876549153e+01
 1.177038643369505e+00	 8.829955024586523e-01	 1.082012996169139e+01
 1.155901878078191e+00	 9.104899252733928e-01	 1.059460819883503e+01
 1.347967032730759e+00	 6.247655708051465e-01	 1.226895815183908e+01
 1.333247004663966e+00	 6.555908939525751e-01	 1.216574071850432e+01
 1.317761849767537e+00	 6.861855027398904e-01	 1.204665343166863e+01
 1.301515823580887e+00	 7.165216239587651e-01	 1.191264784350611e+01
 1.284514500098049e+00	 7.465715139232197e-01	 1.176457840856806e+01
 1.266764779126081e+00	 7.763075356223882e-01	 1.160319702524811e+01
 1.248274888281778e+00	 8.057022369681759e-01	 1.142914952241689e+01
 1.229054379495284e+00	 8.347284297060696e-01	 1.124297433555106e+01
 1.209114119928721e+00	 8.633592685416175e-01	 1.104510356125134e+01
 1.188466277259546e+00	 8.915683300234398e-01	 1.083586651183650e+01
 1.167124299321332e+00	 9.193296907163157e-01	 1.061549581469128e+01
 1.360928331551120e+00	 6.307729679141900e-01	 1.223556134943478e+01
 1.346066763908323e+00	 6.618946901683121e-01	 1.213757533168583e+01
 1.330432712403213e+00	 6.927834796417507e-01	 1.202384619312367e+01
 1.314030473494097e+00	 7.234112960745130e-01	 1.189528868376319e+01
 1.296865674771423e+00	 7.537501290128256e-01	 1.175271829696777e+01
 1.278945282386943e+00	 7.837720757037558e-01	 1.159684564195094e+01
 1.260277603069626e+00	 8.134494200952568e-01	 1.142827284589202e+01
 1.240872280595642e+00	 8.427547125057406e-01	 1.124749224801383e+01
 1.220740286619681e+00	 8.716608495113923e-01	 1.105488758965859e+01
 1.199893905816797e+00	 9.001411535876770e-01	 1.085073783349155e+01
 1.178346715327428e+00	 9.281694520340954e-01	 1.063522366353359e+01
 1.373889630371724e+00	 6.367803650234781e-01	 1.220386411138583e+01
 1.358886523152945e+00	 6.681984863843136e-01	 1.211081796257415e+01
 1.343103575039161e+00	 6.993814565438822e-01	 1.200215632684450e+01
 1.326545123407574e+00	 7.303009681905276e-01	 1.187875743245841e+01
 1.309216849445051e+00	 7.609287441026844e-01	 1.174139801878071e+01
 1.291125785648038e+00	 7.912366157853546e-01	 1.159074750813602e+01
 1.272280317857678e+00	 8.211966032225428e-01	 1.142736429584900e+01
 1.252690181696174e+00	 8.507809953055863e-01	 1.125169444010943e+01
 1.232366453310785e+00	 8.799624304813104e-01	 1.106407297197658e+01
 1.211321534374162e+00	 9.087139771520272e-01	 1.086472797104456e+01
 1.189569131333609e+00	 9.370092133519605e-01	 1.065378746622272e+01
 1.386850935241248e+00	 6.427877649365041e-01	 1.217373961152556e+01
 1.371706288380448e+00	 6.745022855423962e-01	 1.208535715895180e+01
 1.355774443588506e+00	 7.059794365253866e-01	 1.198148698404163e+01
 1.339059779161538e+00	 7.371906435220346e-01	 1.186297116376379e+01
 1.321568029882856e+00	 7.681073625428583e-01	 1.173054797849957e+01
 1.303306294593635e+00	 7.987011593506748e-01	 1.158484584933784e+01
 1.284283038247231e+00	 8.289437899654170e-01	 1.142637948640592e+01
 1.264508088311923e+00	 8.588072818512308e-01	 1.125554855050294e+01
 1.243992625427591e+00	 8.882640153254620e-01	 1.107263906581783e+01
 1.222749168264542e+00	 9.172868047171535e-01	 1.087782774265017e+01
 1.200791552577006e+00	 9.458489787951391e-01	 1.067118927810674e+01
 1.399812252208365e+00	 6.487951704567616e-01	 1.214507208809071e+01
 1.384526065573450e+00	 6.808060905843768e-01	 1.206109196514484e+01
 1.368445323964375e+00	 7.125774226653668e-01	 1.196175124891043e+01
 1.351574446596209e+00	 7.440803252842588e-01	 1.184785632930817e+01
 1.333919221848763e+00	 7.752859876834094e-01	 1.172010741407792e+01
 1.315486814908005e+00	 8.061657098832048e-01	 1.157909219528603e+01
 1.296285769839580e+00	 8.366909839392637e-01	 1.142528182416623e+01
 1.276326005957931e+00	 8.668335758882978e-01	 1.125902951857918e+01
 1.255618808395660e+00	 8.965656079179360e-01	 1.108057205959197e+01
 1.234176812820839e+00	 9.258596402837190e-01	 1.089003435054307e+01
 1.212013984294751e+00	 9.546887524888598e-01	 1.068743711589779e+01
 1.412773587321749e+00	 6.548025843877445e-01	 1.211775635051391e+01
 1.397345860714569e+00	 6.871099044520724e-01	 1.203793144063712e+01
 1.381116222079894e+00	 7.191754180429248e-01	 1.194287166912754e+01
 1.364089131551809e+00	 7.509700166924258e-01	 1.183334830071768e+01
 1.346270431106699e+00	 7.824646228744004e-01	 1.171002395177439e+01
 1.327667352275420e+00	 8.136302708664346e-01	 1.157344594740644e+01
 1.308288518236020e+00	 8.444381887594662e-01	 1.142404208881558e+01
 1.288143940149242e+00	 8.748598811624115e-01	 1.126211917865506e+01
 1.267245007640550e+00	 9.048672121328237e-01	 1.108786458092351e+01
 1.245604473375955e+00	 9.344324878523876e-01	 1.090135100431460e+01
 1.223236431723973e+00	 9.635285385583509e-01	 1.070254459651281e+01
 1.425734946630075e+00	 6.608100095329462e-01	 1.209169730726484e+01
 1.410165679786421e+00	 6.934137300872995e-01	 1.201579419868419e+01
 1.393787143848190e+00	 7.257734257371631e-01	 1.192477980531541e+01
 1.376603839868557e+00	 7.578597209617606e-01	 1.181939093010891e+01
 1.358621663420585e+00	 7.896432714658930e-01	 1.170025317794956e+01
 1.339847912380150e+00	 8.210948457838531e-01	 1.156787396228806e+01
 1.320291289037849e+00	 8.521854080414092e-01	 1.142263802871167e+01
 1.299961896400895e+00	 8.828862014191952e-01	 1.126480586822254e+01
 1.278871228587822e+00	 9.131688318442138e-01	 1.109451531814912e+01
 1.257032155262793e+00	 9.430053514238217e-01	 1.091178655632546e+01
 1.234458900101805e+00	 9.723683411288404e-01	 1.071653058711437e+01
 1.122234530555182e+00	 8.839705629414819e-01	 1.052513275870266e+01
 1.101060100629861e+00	 9.102093196591319e-01	 1.027098988090011e+01
 1.079247663196073e+00	 9.359694939558444e-01	 1.000478350559313e+01
 1.056813651966454e+00	 9.612280539843321e-01	 9.727301784294468e+00
 1.033775600453680e+00	 9.859627334580974e-01	 9.439336175126066e+00
 1.010152096705643e+00	 1.010152096705644e+00	 9.141689551207998e+00
 9.859627334580970e-01	 1.033775600453680e+00	 8.835184662566425e+00
 9.612280539843319e-01	 1.056813651966455e+00	 8.520672591907067e+00
 9.359694939558441e-01	 1.079247663196073e+00	 8.199040819662722e+00
 9.102093196591318e-01	 1.101060100629861e+00	 7.871220502679158e+00
 8.839705629414819e-01	 1.122234530555182e+00	 7.538192574801519e+00
 1.133456998932246e+00	 8.928103655112042e-01	 1.054940478421512e+01
 1.112070822385416e+00	 9.193115126736295e-01	 1.030121579150216e+01
 1.090040258185034e+00	 9.453292915384648e-01	 1.004087922020559e+01
 1.067381904382676e+00	 9.708404399374153e-01	 9.769126503008666e+00
 1.044113469828073e+00	 9.958224689186665e-01	 9.486693418695467e+00
 1.020253728451648e+00	 1.020253728451648e+00	 9.194329057730219e+00
 9.958224689186663e-01	 1.044113469828074e+00	 8.892805187919530e+00
 9.708404399374146e-01	 1.067381904382677e+00	 8.582925636490518e+00
 9.453292915384641e-01	 1.090040258185035e+00	 8.265535277487093e+00
 9.193115126736290e-01	 1.112070822385416e+00	 7.941528200710761e+00
 8.928103655112043e-01	 1.133456998932246e+00	 7.611854641658557e+00
 1.144679446360872e+00	 9.016501515800983e-01	 1.057257181550228e+01
 1.123081523587785e+00	 9.284136886975023e-01	 1.033000469790587e+01
 1.100832833027974e+00	 9.546890716495984e-01	 1.007520993921334e+01
 1.077950137071642e+00	 9.804528079475135e-01	 9.808867844820753e+00
 1.054451319905255e+00	 1.005682185974534e+00	 9.531664676262285e+00
 1.030355341341413e+00	 1.030355341341414e+00	 9.244302456478243e+00
 1.005682185974534e+00	 1.054451319905255e+00	 8.947509221744346e+00
 9.804528079475129e-01	 1.077950137071642e+00	 8.642049312005177e+00
 9.546890716495977e-01	 1.100832833027974e+00	 8.328733261303640e+00
 9.284136886975021e-01	 1.123081523587786e+00	 8.008426835594841e+00
 9.016501515800985e-01	 1.144679446360873e+00	 7.682058767725404e+00
 1.155901878078191e+00	 9.104899252733928e-01	 1.059460819883503e+01
 1.134092209375281e+00	 9.375158519784222e-01	 1.035734522729282e+01
 1.111625392761407e+00	 9.640488386571276e-01	 1.010778110964073e+01
 1.088518354965175e+00	 9.900651625003817e-01	 9.846550433969918e+00
 1.064789155509534e+00	 1.015541889226881e+00	 9.574295903073926e+00
 1.040456940089006e+00	 1.040456940089006e+00	 9.291678963805403e+00
 1.015541889226881e+00	 1.064789155509535e+00	 8.999390930085818e+00
 9.900651625003815e-01	 1.088518354965175e+00	 8.698164166102114e+00
 9.640488386571272e-01	 1.111625392761407e+00	 8.388782863410675e+00
 9.375158519784218e-01	 1.134092209375281e+00	 8.072092929433918e+00
 9.104899252733929e-01	 1.155901878078191e+00	 7.749010506528988e+00
 1.167124299321332e+00	 9.193296907163157e-01	 1.061549581469128e+01
 1.145102884886215e+00	 9.466180067640608e-01	 1.038323301024523e+01
 1.122417942421851e+00	 9.734085969289363e-01	 1.013860456346131e+01
 1.099086562995096e+00	 9.996775080817737e-01	 9.882204579489859e+00
 1.075126981465220e+00	 1.025401583276890e+00	 9.614637963210146e+00
 1.050558529408490e+00	 1.050558529408490e+00	 9.336531858974475e+00
 1.025401583276890e+00	 1.075126981465220e+00	 9.048547631820391e+00
 9.996775080817734e-01	 1.099086562995096e+00	 8.751392930809542e+00
 9.734085969289358e-01	 1.122417942421852e+00	 8.445833339425517e+00
 9.466180067640603e-01	 1.145102884886215e+00	 8.132703099782294e+00
 9.193296907163158e-01	 1.167124299321332e+00	 7.812914398219863e+00
 1.178346715327428e+00	 9.281694520340954e-01	 1.063522366353359e+01
 1.156113555258898e+00	 9.557201573020899e-01	 1.040767028992475e+01
 1.133210487045824e+00	 9.827683508329064e-01	 1.016769815609745e+01
 1.109654766093226e+00	 1.009289849177444e+00	 9.915865948641464e+00
 1.085464802596620e+00	 1.035261272725742e+00	 9.652746343219523e+00
 1.060660114013930e+00	 1.060660114013931e+00	 9.378938242896094e+00
 1.035261272725741e+00	 1.085464802596620e+00	 9.095079606991389e+00
 1.009289849177443e+00	 1.109654766093227e+00	 8.801860384529370e+00
 9.827683508329058e-01	 1.133210487045824e+00	 8.500035027551181e+00
 9.557201573020896e-01	 1.156113555258899e+00	 8.190434039314901e+00
 9.281694520340955e-01	 1.178346715327428e+00	 7.873974012279081e+00
 1.189569131333609e+00	 9.370092133519605e-01	 1.065378746622272e+01
 1.167124225631645e+00	 9.648223078401814e-01	 1.043066554452058e+01
 1.144003031669840e+00	 9.921281047369207e-01	 1.019508541653595e+01
 1.120222969191389e+00	 1.018902190273145e+00	 9.947575250038387e+00
 1.095802623728044e+00	 1.045120962174616e+00	 9.688680873274720e+00
 1.070761698619392e+00	 1.070761698619392e+00	 9.418978801979801e+00
 1.045120962174616e+00	 1.095802623728045e+00	 9.139089907639288e+00
 1.018902190273145e+00	 1.120222969191389e+00	 8.849693213721448e+00
 9.921281047369205e-01	 1.144003031669840e+00	 8.551539264557022e+00
 9.648223078401810e-01	 1.167124225631645e+00	 8.245462489092297e+00
 9.370092133519605e-01	 1.189569131333609e+00	 7.932391980584511e+00
 1.200791552577006e+00	 9.458489787951391e-01	 1.067118927810674e+01
 1.178134901142766e+00	 9.739244626260072e-01	 1.045223312209623e+01
 1.154795581330418e+00	 1.001487863008863e+00	 1.022079520829734e+01
 1.130791177221405e+00	 1.028514535854631e+00	 9.977377925829524e+00
 1.106140449683802e+00	 1.054980656224697e+00	 9.722505455352797e+00
 1.080863287938940e+00	 1.080863287938940e+00	 9.456737576761327e+00
 1.054980656224697e+00	 1.106140449683802e+00	 9.180684170962151e+00
 1.028514535854631e+00	 1.130791177221405e+00	 8.895019874295091e+00
 1.001487863008862e+00	 1.154795581330418e+00	 8.600498298687064e+00
 9.739244626260068e-01	 1.178134901142766e+00	 8.297965205840326e+00
 9.458489787951390e-01	 1.200791552577005e+00	 7.988370021466483e+00
 1.212013984294751e+00	 9.546887524888598e-01	 1.068743711589779e+01
 1.189145586930573e+00	 9.830266259072385e-01	 1.047239288702971e+01
 1.165588141064074e+00	 1.010847630016615e+00	 1.024486140055404e+01
 1.141359395115096e+00	 1.038126890407658e+00	 1.000532385234982e+01
 1.116478285288201e+00	 1.064840359477164e+00	 9.754287797983590e+00
 1.090964886686639e+00	 1.090964886686639e+00	 9.492301734995321e+00
 1.064840359477164e+00	 1.116478285288201e+00	 9.219970434654723e+00
 1.038126890407658e+00	 1.141359395115096e+00	 8.937970452725837e+00
 1.010847630016614e+00	 1.165588141064074e+00	 8.647065199695037e+00
 9.830266259072381e-01	 1.189145586930573e+00	 8.348118923632093e+00
 9.546887524888599e-01	 1.212013984294750e+00	 8.042108955337135e+00
 1.223236431723973e+00	 9.635285385583509e-01	 1.070254459651281e+01
 1.200156288133378e+00	 9.921288019315477e-01	 1.049116987730033e+01
 1.176380715907324e+00	 1.020207410128059e+00	 1.026732254874299e+01
 1.151927627804283e+00	 1.047739258417978e+00	 1.003146704869292e+01
 1.126816135365550e+00	 1.074700076533199e+00	 9.784099157142412e+00
 1.101066499576554e+00	 1.101066499576555e+00	 9.525761348925094e+00
 1.074700076533199e+00	 1.126816135365550e+00	 9.257058954283760e+00
 1.047739258417978e+00	 1.151927627804284e+00	 8.978676526914095e+00
 1.020207410128059e+00	 1.176380715907324e+00	 8.691393766189332e+00
 9.921288019315472e-01	 1.200156288133379e+00	 8.396100310330608e+00
 9.635285385583509e-01	 1.223236431723973e+00	 8.093808712434118e+00
 1.234458900101805e+00	 9.723683411288404e-01	 1.071653058711437e+01
 1.211167009889495e+00	 1.001230994946606e+00	 1.050859397192911e+01
 1.187173310896686e+00	 1.029567207711080e+00	 1.028822158406642e+01
 1.162495880220790e+00	 1.057351644371346e+00	 1.005586539270029e+01
 1.137154004740159e+00	 1.084559811993984e+00	 9.812014082893976e+00
 1.111168131322751e+00	 1.111168131322752e+00	 9.557209176461443e+00
 1.084559811993984e+00	 1.137154004740160e+00	 9.292062022569109e+00
 1.057351644371345e+00	 1.162495880220790e+00	 9.017271026800064e+00
 1.029567207711079e+00	 1.187173310896686e+00	 8.733638430458114e+00
 1.001230994946606e+00	 1.211167009889495e+00	 8.442085919125599e+00
 9.723683411288406e-01	 1.234458900101806e+00	 8.143668333180219e+00
 8.839705629414819e-01	 1.122234530555182e+00	 7.538192574801519e+00
 8.572769557543541e-01	 1.142755656373625e+00	 7.201397915713975e+00
 8.301528671821561e-01	 1.162609344655126e+00	 6.862222045730636e+00
 8.026232235966541e-01	 1.181782664794758e+00	 6.521667286669969e+00
 7.747134321542239e-01	 1.200263917106523e+00	 6.180818933571608e+00
 7.464493056294456e-01	 1.218042652399525e+00	 5.840839673867611e+00
 7.178569865660778e-01	 1.235109686128581e+00	 5.502961177431795e+00
 6.889628711939315e-01	 1.251457107126304e+00	 5.168472886694617e+00
 6.597935335531173e-01	 1.267078280965017e+00	 4.838708125087888e+00
 6.303756502559335e-01	 1.281967848036833e+00	 4.515027729645858e+00
 6.007359263015425e-01	 1.296121716478273e+00	 4.198801496426256e+00
 8.928103655112043e-01	 1.133456998932246e+00	 7.611854641658557e+00
 8.658498193247725e-01	 1.154183338259446e+00	 7.278002123065258e+00
 8.384544868922551e-01	 1.174235565601107e+00	 6.941410952719117e+00
 8.106495438518655e-01	 1.193600621044838e+00	 6.603077633000506e+00
 7.824606514343235e-01	 1.212266687906508e+00	 6.264091737279564e+00
 7.539138805447808e-01	 1.230223212502172e+00	 5.925630403532571e+00
 7.250356351552953e-01	 1.247460918440193e+00	 5.588949793818965e+00
 6.958525754608671e-01	 1.263971815440653e+00	 5.255373542645398e+00
 6.663915412449148e-01	 1.279749202730872e+00	 4.926278312086040e+00
 6.366794758887817e-01	 1.294787667106307e+00	 4.603076664961661e+00
 6.067433514445451e-01	 1.309083075784400e+00	 4.287197555996336e+00
 9.016501515800985e-01	 1.144679446360873e+00	 7.682058767725404e+00
 8.744226668926504e-01	 1.165610998813773e+00	 7.351170128099585e+00
 8.467560911061386e-01	 1.185861764844994e+00	 7.017245852032771e+00
 8.186758491247558e-01	 1.205418555234924e+00	 6.681259653011344e+00
 7.902078562530926e-01	 1.224269436301516e+00	 6.344287385529532e+00
 7.613784415263897e-01	 1.242403749867965e+00	 6.007501814387338e+00
 7.322142703445168e-01	 1.259812127696359e+00	 5.672164142978190e+00
 7.027422668671670e-01	 1.276486500394385e+00	 5.339612314742507e+00
 6.729895366205746e-01	 1.292420100844493e+00	 5.011246202827575e+00
 6.429832897546265e-01	 1.307607462245575e+00	 4.688509902603107e+00
 6.127507653738173e-01	 1.322044410896074e+00	 4.372871436400818e+00
 9.104899252733929e-01	 1.155901878078191e+00	 7.749010506528988e+00
 8.829955024586520e-01	 1.177038643369505e+00	 7.421132671624854e+00
 8.550576836978958e-01	 1.197487947812345e+00	 7.089974891032883e+00
 8.267021431609489e-01	 1.217236472880060e+00	 6.756471624530382e+00
 7.979550502259154e-01	 1.236272167892840e+00	 6.421667550023804e+00
 7.688429920577622e-01	 1.254584270181178e+00	 6.086712808756408e+00
 7.393928954838040e-01	 1.272163319661003e+00	 5.752854800423378e+00
 7.096319486280576e-01	 1.289001167827722e+00	 5.421426530811789e+00
 6.795875227591985e-01	 1.305090981219005e+00	 5.093831621733797e+00
 6.492870947952851e-01	 1.320427239437256e+00	 4.771526199110329e+00
 6.187581708928535e-01	 1.335005727861969e+00	 4.455997976234665e+00
 9.193296907163158e-01	 1.167124299321332e+00	 7.812914398219863e+00
 8.915683300234393e-01	 1.188466277259546e+00	 7.488118497231850e+00
 8.633592685416168e-01	 1.209114119928721e+00	 7.159843507595643e+00
 8.347284297060690e-01	 1.229054379495284e+00	 6.828968651328024e+00
 8.057022369681752e-01	 1.248274888281779e+00	 6.496490486816800e+00
 7.763075356223875e-01	 1.266764779126081e+00	 6.163518829342557e+00
 7.465715139232193e-01	 1.284514500098049e+00	 5.831269009857841e+00
 7.165216239587646e-01	 1.301515823580887e+00	 5.501050460348871e+00
 6.861855027398900e-01	 1.317761849767538e+00	 5.174251727816562e+00
 6.555908939525746e-01	 1.333247004663966e+00	 4.852322131802874e+00
 6.247655708051463e-01	 1.347967032730759e+00	 4.536750388363960e+00
 9.281694520340955e-01	 1.178346715327428e+00	 7.873974012279081e+00
 9.001411535876764e-01	 1.199893905816797e+00	 7.552354451545095e+00
 8.716608495113920e-01	 1.220740286619682e+00	 7.227094575199508e+00
 8.427547125057401e-01	 1.240872280595642e+00	 6.899002841239420e+00
 8.134494200952562e-01	 1.260277603069626e+00	 6.569011236619305e+00
 7.837720757037553e-01	 1.278945282386944e+00	 6.238172071850381e+00
 7.537501290128253e-01	 1.296865674771424e+00	 5.907650899280663e+00
 7.234112960745126e-01	 1.314030473494097e+00	 5.578715526328300e+00
 6.927834796417501e-01	 1.330432712403214e+00	 5.252721215496366e+00
 6.618946901683117e-01	 1.346066763908323e+00	 4.931092283018875e+00
 6.307729679141899e-01	 1.360928331551119e+00	 4.615300423125866e+00
 9.370092133519605e-01	 1.189569131333609e+00	 7.932391980584511e+00
 9.087139771520266e-01	 1.211321534374162e+00	 7.614065571932141e+00
 8.799624304813101e-01	 1.232366453310785e+00	 7.291968533311918e+00
 8.507809953055858e-01	 1.252690181696174e+00	 6.966823468112080e+00
 8.211966032225422e-01	 1.272280317857678e+00	 6.639481808081178e+00
 7.912366157853544e-01	 1.291125785648038e+00	 6.310921680306903e+00
 7.609287441026841e-01	 1.309216849445050e+00	 5.982241680011222e+00
 7.303009681905274e-01	 1.326545123407575e+00	 5.654650500591515e+00
 6.993814565438816e-01	 1.343103575039162e+00	 5.329452500033296e+00
 6.681984863843131e-01	 1.358886523152945e+00	 5.008029410309534e+00
 6.367803650234780e-01	 1.373889630371725e+00	 4.691818519063743e+00
 9.458489787951390e-01	 1.200791552577005e+00	 7.988370021466483e+00
 9.172868047171532e-01	 1.222749168264542e+00	 7.673475162492707e+00
 8.882640153254612e-01	 1.243992625427591e+00	 7.354703504038405e+00
 8.588072818512302e-01	 1.264508088311923e+00	 7.032677118637984e+00
 8.289437899654166e-01	 1.284283038247231e+00	 6.708151345166245e+00
 7.987011593506743e-01	 1.303306294593636e+00	 6.382013926211634e+00
 7.681073625428576e-01	 1.321568029882856e+00	 6.055279829751040e+00
 7.371906435220340e-01	 1.339059779161539e+00	 5.729081683891166e+00
 7.059794365253862e-01	 1.355774443588507e+00	 5.404655888580266e+00
 6.745022855423957e-01	 1.371706288380448e+00	 5.083324603508014e+00
 6.427877649365041e-01	 1.386850935241248e+00	 4.766473942014793e+00
 9.546887524888599e-01	 1.212013984294750e+00	 8.042108955337135e+00
 9.258596402837188e-01	 1.234176812820839e+00	 7.730804859087127e+00
 8.965656079179358e-01	 1.255618808395660e+00	 7.415535395923973e+00
 8.668335758882972e-01	 1.276326005957932e+00	 7.096807825050678e+00
 8.366909839392632e-01	 1.296285769839580e+00	 6.775266279652508e+00
 8.061657098832041e-01	 1.315486814908005e+00	 6.451692372566204e+00
 7.752859876834088e-01	 1.333919221848763e+00	 6.127001260719519e+00
 7.440803252842582e-01	 1.351574446596210e+00	 5.802233071585293e+00
 7.125774226653666e-01	 1.368445323964376e+00	 5.478539737791525e+00
 6.808060905843761e-01	 1.384526065573451e+00	 5.157167429526359e+00
 6.487951704567616e-01	 1.399812252208365e+00	 4.839434913305759e+00
 9.635285385583509e-01	 1.223236431723973e+00	 8.093808712434118e+00
 9.344324878523871e-01	 1.245604473375955e+00	 7.786274684107831e+00
 9.048672121328234e-01	 1.267245007640551e+00	 7.474697995732748e+00
 8.748598811624111e-01	 1.288143940149242e+00	 7.159457184595320e+00
 8.444381887594662e-01	 1.308288518236021e+00	 6.841070469712619e+00
 8.136302708664341e-01	 1.327667352275421e+00	 6.520198023754812e+00
 7.824646228744000e-01	 1.346270431106699e+00	 6.197639473821955e+00
 7.509700166924256e-01	 1.364089131551809e+00	 5.874326505906399e+00
 7.191754180429246e-01	 1.381116222079895e+00	 5.551310598850584e+00
 6.871099044520719e-01	 1.397345860714569e+00	 5.229746065668596e+00
 6.548025843877445e-01	 1.412773587321749e+00	 4.910868727758407e+00
 9.723683411288406e-01	 1.234458900101806e+00	 8.143668333180219e+00
 9.430053514238215e-01	 1.257032155262794e+00	 7.840103091646780e+00
 9.131688318442132e-01	 1.278871228587822e+00	 7.532423048970988e+00
 8.828862014191952e-01	 1.299961896400895e+00	 7.220864466614380e+00
 8.521854080414087e-01	 1.320291289037849e+00	 6.905805325461827e+00
 8.210948457838527e-01	 1.339847912380151e+00	 6.587769462176933e+00
 7.896432714658925e-01	 1.358621663420585e+00	 6.267425699740794e+00
 7.578597209617604e-01	 1.376603839868557e+00	 5.945581815659076e+00
 7.257734257371627e-01	 1.393787143848190e+00	 5.623173350720696e+00
 6.934137300872991e-01	 1.410165679786422e+00	 5.301247422193427e+00
 6.608100095329461e-01	 1.425734946630075e+00	 4.980941862154562e+00
 6.007359263015425e-01	 1.296121716478273e+00	 4.198801496426256e+00
 5.709031156054668e-01	 1.309536138283946e+00	 3.891878144916014e+00
 5.409016840174559e-01	 1.322210539589158e+00	 3.595534250884085e+00
 5.107579795224065e-01	 1.334144548227396e+00	 3.310316041548064e+00
 4.804981001069039e-01	 1.345338983143447e+00	 3.036720133965358e+00
 4.501478303406600e-01	 1.355795824583440e+00	 2.775173958783353e+00
 4.197325810045943e-01	 1.365518180538823e+00	 2.526016509916139e+00
 3.892773319946376e-01	 1.374510249756393e+00	 2.289479944531528e+00
 3.588065786973464e-01	 1.382777281639109e+00	 2.065672536356976e+00
 3.283442820000870e-01	 1.390325533371589e+00	 1.854563449443904e+00
 2.979138220653007e-01	 1.397162224609720e+00	 1.655969750733784e+00
 6.067433514445451e-01	 1.309083075784400e+00	 4.287197555996332e+00
 5.766122093700309e-01	 1.322631643279299e+00	 3.980554319731731e+00
 5.463107601761639e-01	 1.335432789987598e+00	 3.684390608100133e+00
 5.158656153305731e-01	 1.347486140021065e+00	 3.399172459643200e+00
 4.853031338025660e-01	 1.358792520514021e+00	 3.125318935814501e+00
 4.546493580103738e-01	 1.369353931515262e+00	 2.863182217874097e+00
 4.239299528455069e-01	 1.379173512096489e+00	 2.613027935009351e+00
 3.931701480055894e-01	 1.388255502992416e+00	 2.375016274307653e+00
 3.623946838337248e-01	 1.396605206100602e+00	 2.149184402757749e+00
 3.316277608287758e-01	 1.404228941178191e+00	 1.935430695605975e+00
 3.008929929573673e-01	 1.411134000078413e+00	 1.733501215757157e+00
 6.127507653738173e-01	 1.322044410896074e+00	 4.372871436400818e+00
 5.823212924777392e-01	 1.335727123829746e+00	 4.066286698041673e+00
 5.517198262380341e-01	 1.348655015704478e+00	 3.769973056971498e+00
 5.209732416045715e-01	 1.360827706910340e+00	 3.484340151387669e+00
 4.901081585288934e-01	 1.372246032771167e+00	 3.209753934866936e+00
 4.591508772772688e-01	 1.382912013138390e+00	 2.946516220030943e+00
 4.281273168513232e-01	 1.392828818163903e+00	 2.694844358219544e+00
 3.970629567499076e-01	 1.402000730570267e+00	 2.454851634803272e+00
 3.659827822722146e-01	 1.410433104749542e+00	 2.226528940183592e+00
 3.349112335281559e-01	 1.418132323031283e+00	 2.009728240589905e+00
 3.038721582881034e-01	 1.425105749465931e+00	 1.804148322132986e+00
 6.187581708928535e-01	 1.335005727861969e+00	 4.455997976234665e+00
 5.880303675928579e-01	 1.348822586046562e+00	 4.149227132507040e+00
 5.571288847273168e-01	 1.361877222910231e+00	 3.852414354142749e+00
 5.260808607279712e-01	 1.374169255121346e+00	 3.565936172163803e+00
 4.949131765282329e-01	 1.385699526193252e+00	 3.290129393943434e+00
 4.636523902420471e-01	 1.396470075779993e+00	 3.025269868401680e+00
 4.323246749808004e-01	 1.406484105113612e+00	 2.771551291110939e+00
 4.009557600442210e-01	 1.415745938904460e+00	 2.529064660740560e+00
 3.695708756872477e-01	 1.424260984039027e+00	 2.297778979504772e+00
 3.381947016305064e-01	 1.432035685419194e+00	 2.077741649364208e+00
 3.068513194477885e-01	 1.439077479292515e+00	 1.869940122605458e+00
 6.247655708051463e-01	 1.347967032730759e+00	 4.536750388363960e+00
 5.937394373796542e-01	 1.361918036041030e+00	 4.229526328033866e+00
 5.625379381682628e-01	 1.375099417775286e+00	 3.931846400828402e+00
 5.311884750843425e-01	 1.387510790880210e+00	 3.644076852362777e+00
 4.997181900429311e-01	 1.399153007058650e+00	 3.366548843851064e+00
 4.681538990054125e-01	 1.410028125767245e+00	 3.099536214599353e+00
 4.365220291926969e-01	 1.420139379318163e+00	 2.843233187062818e+00
 4.048485597051587e-01	 1.429491134409507e+00	 2.597748037080047e+00
 3.731589657532560e-01	 1.438088850422154e+00	 2.364719358374183e+00
 3.414781666681058e-01	 1.445939034830253e+00	 2.144460873395244e+00
 3.098304778267026e-01	 1.453049196078406e+00	 1.935795584877354e+00
 6.307729679141899e-01	 1.360928331551119e+00	 4.615300423125869e+00
 5.994485045023934e-01	 1.375013479924427e+00	 4.307333986191998e+00
 5.679469890851232e-01	 1.388321606470075e+00	 4.008400375900179e+00
 5.362960870572546e-01	 1.400852320413059e+00	 3.718877925433910e+00
 5.045232013153351e-01	 1.412606481645730e+00	 3.439115211533849e+00
 4.726554056680674e-01	 1.423586169427317e+00	 3.169407590944024e+00
 4.407193814457706e-01	 1.433794647150102e+00	 2.910508683854032e+00
 4.087413575493499e-01	 1.443236323499923e+00	 2.665110953340617e+00
 3.767470541446711e-01	 1.451916710352021e+00	 2.432667075789128e+00
 3.447616301732327e-01	 1.459842377752788e+00	 2.212055033811826e+00
 3.128096348151254e-01	 1.467020906343844e+00	 2.002083899719032e+00
 6.367803650234780e-01	 1.373889630371725e+00	 4.691818519063743e+00
 6.051575716253430e-01	 1.388108923808035e+00	 4.382798938605357e+00
 5.733560400021477e-01	 1.401543795165028e+00	 4.082206858939647e+00
 5.414036990302774e-01	 1.414193849946018e+00	 3.790454646516443e+00
 5.093282125877912e-01	 1.426059956232863e+00	 3.507930939108146e+00
 4.771569123307149e-01	 1.437144213087382e+00	 3.236446462752226e+00
 4.449167336987791e-01	 1.447449914981977e+00	 2.978924980420171e+00
 4.126341553934238e-01	 1.456981512590223e+00	 2.734504331148393e+00
 3.803351425359250e-01	 1.465744570281728e+00	 2.502127150161708e+00
 3.480450936781660e-01	 1.473745720675131e+00	 2.280671778702874e+00
 3.157887918033364e-01	 1.480992616609070e+00	 2.068952002219612e+00
 6.427877649365041e-01	 1.386850935241248e+00	 4.766473942014793e+00
 6.108666414127693e-01	 1.401204373803133e+00	 4.456069270035604e+00
 5.787650934435871e-01	 1.414765990030577e+00	 4.153395943915331e+00
 5.465113133869809e-01	 1.427535385705215e+00	 3.858921902271524e+00
 5.141332261026464e-01	 1.439513437098417e+00	 3.575524518976174e+00
 4.816584210940583e-01	 1.450702263074612e+00	 3.306198719508226e+00
 4.491140879104806e-01	 1.461105189186332e+00	 3.050042218701332e+00
 4.165269550540095e-01	 1.470726708094918e+00	 2.806071292280525e+00
 3.839232326014494e-01	 1.479572436664371e+00	 2.573243059435188e+00
 3.513285587151840e-01	 1.487649070085608e+00	 2.350454675364192e+00
 3.187679501816154e-01	 1.494964333394326e+00	 2.136542774411017e+00
 6.487951704567616e-01	 1.399812252208365e+00	 4.839434913305759e+00
 6.165757165289388e-01	 1.414299836021000e+00	 4.527292431830878e+00
 5.841741519336923e-01	 1.427988197237152e+00	 4.222097344092657e+00
 5.516189325109340e-01	 1.440876933916775e+00	 3.927486098030700e+00
 5.189382441022474e-01	 1.452966930520765e+00	 3.646837937646931e+00
 4.861599340587998e-01	 1.464260325716178e+00	 3.379309848845271e+00
 4.533114460396329e-01	 1.474760476135716e+00	 3.123999414457893e+00
 4.204197583477361e-01	 1.484471916428524e+00	 2.879950996801037e+00
 3.875113260156759e-01	 1.493400315953048e+00	 2.646154339170680e+00
 3.546120268165657e-01	 1.501552432472550e+00	 2.421543364857039e+00
 3.217471113402418e-01	 1.508936063219851e+00	 2.204995202763177e+00
 6.548025843877445e-01	 1.412773587321749e+00	 4.910868727758407e+00
 6.222847996381184e-01	 1.427395316572917e+00	 4.596615346357177e+00
 5.895832179967134e-01	 1.441210422955183e+00	 4.291711510218367e+00
 5.567265587857072e-01	 1.454218500806824e+00	 4.000466889886526e+00
 5.237432688289408e-01	 1.466420442778276e+00	 3.722140034702423e+00
 4.906614533256430e-01	 1.477818407339254e+00	 3.455915517781743e+00
 4.575088100449941e-01	 1.488415782202676e+00	 3.200931718323155e+00
 4.243125670912327e-01	 1.498217144005554e+00	 2.956278782567426e+00
 3.910994244530369e-01	 1.507228214600860e+00	 2.720996725374702e+00
 3.578954995145898e-01	 1.515455814324286e+00	 2.494073708284683e+00
 3.247262766694958e-01	 1.522907812605887e+00	 2.274444527186946e+00
 6.608100095329461e-01	 1.425734946630075e+00	 4.980941862154564e+00
 6.279938934045742e-01	 1.440490821570162e+00	 4.667089248528842e+00
 5.949922941569017e-01	 1.454432673355103e+00	 4.366290780720893e+00
 5.618341945948699e-01	 1.467560092601490e+00	 4.078024250580132e+00
 5.285483025250735e-01	 1.479873980149320e+00	 3.801564246342156e+00
 4.951629809952906e-01	 1.491376514271011e+00	 3.536147577256924e+00
 4.617061818853219e-01	 1.502071113759757e+00	 3.280970545910736e+00
 4.282053831011286e-01	 1.511962397240521e+00	 3.035186297469530e+00
 3.946875295879637e-01	 1.521056139060901e+00	 2.797902289815276e+00
 3.611789783415348e-01	 1.529359222129144e+00	 2.568177925314197e+00
 3.277054475596566e-01	 1.536879588072675e+00	 2.345022382085564e+00
 2.979138220653007e-01	 1.397162224609720e+00	 1.655969750733779e+00
 2.675358372207115e-01	 1.403295895093266e+00	 1.469179529308262e+00
 2.372345848256142e-01	 1.408735044443937e+00	 1.295599938969243e+00
 2.070314979173397e-01	 1.413489491465140e+00	 1.137869833531667e+00
 1.769472809086950e-01	 1.417569818919275e+00	 9.983490696793205e-01
 1.470018830136218e-01	 1.420987321018450e+00	 8.791004986929316e-01
 1.172144755749144e-01	 1.423753950460095e+00	 7.818772496952953e-01
 8.760343321972207e-02	 1.425882265302377e+00	 7.081152421245872e-01
 5.818631874669211e-02	 1.427385375958748e+00	 6.589307717909111e-01
 2.897987162897944e-02	 1.428276892573984e+00	 6.351229301365252e-01
 0.000000000000000e+00	 1.428570873025926e+00	 6.371805417317089e-01
 3.008929929573673e-01	 1.411134000078413e+00	 1.733501215757155e+00
 2.702112249327637e-01	 1.417329007939364e+00	 1.542756095698067e+00
 2.396069566905304e-01	 1.422822549379909e+00	 1.364906629784925e+00
 2.091018356007427e-01	 1.427624541392580e+00	 1.202861845642027e+00
 1.787167731226268e-01	 1.431745672568571e+00	 1.059387285551218e+00
 1.484719179644715e-01	 1.435197350063360e+00	 9.369557590174610e-01
 1.183866331846205e-01	 1.437991646102674e+00	 8.373156178356815e-01
 8.847947715852815e-02	 1.440141244326646e+00	 7.619489494830695e-01
 5.876818831477241e-02	 1.441659386254313e+00	 7.120744812266228e-01
 2.926967352309260e-02	 1.442559818133399e+00	 6.886383819690856e-01
 0.000000000000000e+00	 1.442856738422074e+00	 6.923078048269626e-01
 3.038721582881034e-01	 1.425105749465931e+00	 1.804148322132986e+00
 2.728866076504773e-01	 1.431362094589756e+00	 1.609386486116575e+00
 2.419793241266670e-01	 1.436910028018619e+00	 1.428208908326775e+00
 2.111721694191012e-01	 1.441759564933991e+00	 1.263471874209483e+00
 1.804862620330458e-01	 1.445921499755662e+00	 1.117614810446245e+00
 1.499419501707722e-01	 1.449407352582267e+00	 9.928555922616404e-01
 1.195587886058231e-01	 1.452229315167604e+00	 8.911707531825895e-01
 8.935551946162196e-02	 1.454400196733541e+00	 8.142786723437744e-01
 5.935005679635611e-02	 1.455933369904449e+00	 7.636257462092834e-01
 2.955947487604350e-02	 1.456842717030745e+00	 7.403755213507803e-01
 0.000000000000000e+00	 1.457142577150667e+00	 7.454007368497650e-01
 3.068513194477885e-01	 1.439077479292515e+00	 1.869940122605458e+00
 2.755619866223831e-01	 1.445395161593315e+00	 1.673608141969509e+00
 2.443516882411685e-01	 1.450997486934333e+00	 1.490453537574307e+00
 2.132425003386314e-01	 1.455894568685836e+00	 1.323345893823924e+00
 1.822557484657930e-01	 1.460097307096061e+00	 1.174956083849168e+00
 1.514119803186323e-01	 1.463617335206642e+00	 1.047731356783630e+00
 1.207309423856277e-01	 1.466466964299278e+00	 9.438734920791904e-01
 9.023156053791902e-02	 1.468659129177393e+00	 8.653200703649520e-01
 5.993192446306135e-02	 1.470207333570505e+00	 8.137288762777534e-01
 2.984927582312111e-02	 1.471125595931537e+00	 7.904654165920328e-01
 0.000000000000000e+00	 1.471428395878593e+00	 7.965935070851502e-01
 3.098304778267026e-01	 1.453049196078406e+00	 1.935795584877356e+00
 2.782373630970130e-01	 1.459428215498915e+00	 1.737748759153688e+00
 2.467240501411798e-01	 1.465084932701314e+00	 1.552337316726245e+00
 2.153128293255497e-01	 1.470029559244577e+00	 1.382643183359590e+00
 1.840252332467091e-01	 1.474273101205284e+00	 1.231550167717995e+00
 1.528820090941602e-01	 1.477827304567958e+00	 1.101716957298930e+00
 1.219030950711398e-01	 1.480704600142087e+00	 9.955533001498608e-01
 9.110760079633477e-02	 1.482918048312530e+00	 9.151994321966802e-01
 6.051379158650618e-02	 1.484481283913834e+00	 8.625087741477582e-01
 3.013907649961434e-02	 1.485408461501292e+00	 8.390338880883532e-01
 0.000000000000000e+00	 1.485714201272741e+00	 8.460156522681060e-01
 3.128096348151254e-01	 1.467020906343844e+00	 2.002083899719032e+00
 2.809127383228978e-01	 1.473461262855427e+00	 1.801957216341712e+00
 2.490964109338452e-01	 1.479172371893830e+00	 1.614005314947801e+00
 2.173831573460730e-01	 1.484164543206676e+00	 1.441504034441014e+00
 1.857947172016352e-01	 1.488448888698843e+00	 1.287532165455612e+00
 1.543520371834640e-01	 1.492037267297686e+00	 1.154942445847763e+00
 1.230752472094646e-01	 1.494942229340423e+00	 1.046335851044763e+00
 9.198364064578483e-02	 1.497176960793287e+00	 9.640392492623070e-01
 6.109565843830880e-02	 1.498755227595788e+00	 9.100864540768021e-01
 3.042887704081213e-02	 1.499691320405524e+00	 8.862026713428434e-01
 0.000000000000000e+00	 1.500000000000000e+00	 8.937923042287014e-01
 3.157887918033364e-01	 1.480992616609070e+00	 2.068952002219612e+00
 2.835881135485694e-01	 1.487494310211727e+00	 1.866378239961787e+00
 2.514687717263093e-01	 1.493259811086144e+00	 1.675598558348193e+00
 2.194534853664175e-01	 1.498299527168598e+00	 1.500064824606399e+00
 1.875642011564121e-01	 1.502624676192253e+00	 1.343033393541943e+00
 1.558220652726521e-01	 1.506247230027299e+00	 1.207534191831886e+00
 1.242473993477078e-01	 1.509179858538677e+00	 1.096343196695485e+00
 9.285968049518474e-02	 1.511435873273994e+00	 1.011958388994345e+00
 6.167752529008724e-02	 1.513029171277717e+00	 9.565792217524210e-01
 3.071867758200346e-02	 1.513974179309750e+00	 9.320896080564111e-01
 0.000000000000000e+00	 1.514285798727260e+00	 9.400443975755640e-01
 3.187679501816154e-01	 1.494964333394326e+00	 2.136542774411019e+00
 2.862634900225589e-01	 1.501527364116686e+00	 1.931152571815411e+00
 2.538411336257165e-01	 1.507347256852522e+00	 1.737254196538771e+00
 2.215238143527998e-01	 1.512434517726803e+00	 1.558458181690038e+00
 1.893336859368808e-01	 1.516800470301028e+00	 1.398181543592951e+00
 1.572920940478327e-01	 1.520457199388267e+00	 1.259615042547761e+00
 1.254195520329748e-01	 1.523417494381241e+00	 1.145693928041546e+00
 9.373572075344996e-02	 1.525694792408982e+00	 1.059072258363180e+00
 6.225939241345967e-02	 1.527303121620974e+00	 1.002100844093762e+00
 3.100847825847722e-02	 1.528257044879485e+00	 9.768088264991965e-01
 0.000000000000000e+00	 1.528571604121408e+00	 9.848888657273208e-01
 3.217471113402418e-01	 1.508936063219851e+00	 2.204995202763177e+00
 2.889388689933977e-01	 1.515560431119178e+00	 1.996417127519974e+00
 2.562134977392116e-01	 1.521434715767229e+00	 1.799105660040023e+00
 2.235941452714363e-01	 1.526569521477754e+00	 1.616813139145003e+00
 1.911031723688823e-01	 1.530976277640682e+00	 1.453100835465525e+00
 1.587621241951142e-01	 1.534667182012064e+00	 1.311304474833003e+00
 1.265917058123708e-01	 1.537655143512507e+00	 1.194503326846269e+00
 9.461176182949604e-02	 1.539953724852582e+00	 1.105492958330436e+00
 6.284126008004413e-02	 1.541577085286909e+00	 1.046761709621506e+00
 3.129827920552237e-02	 1.542539923780245e+00	 1.020470911858801e+00
 0.000000000000000e+00	 1.542857422849333e+00	 1.028438826047835e+00
 3.247262766694958e-01	 1.522907812605887e+00	 2.274444527186944e+00
 2.916142517096169e-01	 1.529593517768076e+00	 2.062305146365493e+00
 2.585858651739391e-01	 1.535522194404530e+00	 1.861282809125107e+00
 2.256644790885433e-01	 1.540704545017914e+00	 1.675255282888581e+00
 1.928726612782574e-01	 1.545152104826729e+00	 1.507912161984170e+00
 1.602321564006049e-01	 1.548877184530161e+00	 1.362718738397384e+00
 1.277638612330015e-01	 1.551892812576865e+00	 1.242883509173160e+00
 9.548780413223854e-02	 1.554212677259125e+00	 1.151329429807721e+00
 6.342312856145879e-02	 1.555851068936875e+00	 1.090668980002238e+00
 3.158808055842786e-02	 1.556822822677546e+00	 1.063183067208907e+00
 0.000000000000000e+00	 1.557143261577926e+00	 1.070803754786044e+00
 3.277054475596566e-01	 1.536879588072675e+00	 2.345022382085562e+00
 2.942896394197481e-01	 1.543626630612252e+00	 2.128946333132239e+00
 2.609582370370435e-01	 1.549609699338690e+00	 1.923912074644954e+00
 2.277348167703377e-01	 1.554839594943745e+00	 1.733906890210056e+00
 1.946421534908471e-01	 1.559327958474682e+00	 1.562733225823431e+00
 1.617021913504131e-01	 1.563087213574030e+00	 1.413970991367447e+00
 1.289360188419721e-01	 1.566130508218708e+00	 1.290943561056055e+00
 9.636384807059289e-02	 1.568471656282942e+00	 1.196687591663945e+00
 6.400499812932171e-02	 1.570125079232223e+00	 1.133926733328934e+00
 3.187788245248261e-02	 1.571105748236902e+00	 1.105049265696546e+00
 0.000000000000000e+00	 1.571429126974074e+00	 1.112089652468965e+00
 1.571429126974074e+00	 0.000000000000000e+00	 1.245126982912411e+01
 1.571105748236902e+00	 3.187788245248305e-02	 1.247786970328783e+01
 1.570125079232222e+00	 6.400499812932213e-02	 1.249345182249822e+01
 1.568471656282942e+00	 9.636384807059326e-02	 1.250029486273880e+01
 1.566130508218708e+00	 1.289360188419724e-01	 1.250060803468771e+01
 1.563087213574030e+00	 1.617021913504133e-01	 1.249651661369030e+01
 1.559327958474683e+00	 1.946421534908473e-01	 1.249004721322624e+01
 1.554839594943744e+00	 2.277348167703377e-01	 1.248311288856575e+01
 1.549609699338691e+00	 2.609582370370436e-01	 1.247749816610544e+01
 1.543626630612252e+00	 2.942896394197481e-01	 1.247484410260002e+01
 1.536879588072675e+00	 3.277054475596566e-01	 1.247663348705535e+01
 1.585715024037928e+00	 0.000000000000000e+00	 1.237873085029817e+01
 1.585388705457436e+00	 3.216768498914990e-02	 1.240694533551933e+01
 1.584399121168951e+00	 6.458686898734099e-02	 1.242405711861428e+01
 1.582730666914771e+00	 9.723989395123972e-02	 1.243239504289713e+01
 1.580368235421320e+00	 1.301081790496063e-01	 1.243420906891191e+01
 1.577297274117268e+00	 1.631722295591160e-01	 1.243165504829163e+01
 1.573503843546176e+00	 1.964116496260304e-01	 1.242677926437761e+01
 1.568974676202594e+00	 2.298051590414821e-01	 1.242150283367381e+01
 1.563697235500412e+00	 2.633306141588864e-01	 1.241760607126699e+01
 1.557659774563367e+00	 2.969650330601948e-01	 1.241671293226563e+01
 1.550851394510401e+00	 3.306846250534405e-01	 1.242027564998414e+01
 1.600000951102682e+00	 0.000000000000000e+00	 1.231002211267851e+01
 1.599671692672685e+00	 3.245748813458729e-02	 1.233994930694030e+01
 1.598673193081649e+00	 6.516874106758157e-02	 1.235866886551166e+01
 1.596989707490964e+00	 9.811594167191688e-02	 1.236855715353571e+01
 1.594605992523555e+00	 1.312803417190980e-01	 1.237190209558642e+01
 1.591507364501976e+00	 1.646422708551649e-01	 1.237088720500971e+01
 1.587679758387314e+00	 1.981811494773362e-01	 1.236757540497306e+01
 1.583109787145346e+00	 2.318755056604247e-01	 1.236389274267427e+01
 1.577784801246143e+00	 2.657029962626958e-01	 1.236161210745679e+01
 1.571692947984227e+00	 2.996404323188487e-01	 1.236233707267669e+01
 1.564823230289037e+00	 3.336638088033086e-01	 1.236748598994019e+01
 1.614286904834791e+00	 0.000000000000000e+00	 1.224486502661967e+01
 1.613954706549798e+00	 3.274729182112748e-02	 1.227661042925242e+01
 1.612947291639554e+00	 6.575061423419915e-02	 1.229702327240173e+01
 1.611248774684285e+00	 9.899199102812814e-02	 1.230852487593470e+01
 1.608843776203160e+00	 1.324525065768599e-01	 1.231343842298588e+01
 1.605717481412379e+00	 1.661123148954807e-01	 1.231397225611011e+01
 1.601855699690321e+00	 1.999506526318325e-01	 1.231220299175150e+01
 1.597244924473770e+00	 2.339458561440600e-01	 1.231005856185230e+01
 1.591872393288765e+00	 2.680753827949168e-01	 1.230930130094362e+01
 1.585726147600425e+00	 3.023158365714738e-01	 1.231151120630968e+01
 1.578795092148498e+00	 3.366429981141584e-01	 1.231806950767178e+01
 1.628572881900711e+00	 0.000000000000000e+00	 1.218299212463888e+01
 1.628237743755919e+00	 3.303709598110283e-02	 1.221666841765529e+01
 1.627221413511901e+00	 6.633248835134901e-02	 1.223886722877618e+01
 1.625507865167491e+00	 9.986804181537659e-02	 1.225205234131683e+01
 1.623081583137882e+00	 1.336246733493043e-01	 1.225857956925562e+01
 1.619927621532703e+00	 1.675823613369837e-01	 1.226067933127008e+01
 1.616031664147422e+00	 2.017201586765867e-01	 1.226043907133485e+01
 1.611380084889633e+00	 2.360162100092826e-01	 1.225978564207649e+01
 1.605960008341164e+00	 2.704477732019947e-01	 1.226046777679949e+01
 1.599759370137554e+00	 3.049912451938342e-01	 1.226403878547931e+01
 1.592766976828704e+00	 3.396221922908876e-01	 1.227183961892907e+01
 1.642858878966899e+00	 0.000000000000000e+00	 1.212414657805885e+01
 1.642520800958195e+00	 3.332690054684562e-02	 1.215987341351757e+01
 1.641495555367929e+00	 6.691436328318649e-02	 1.218395783332154e+01
 1.639766975613346e+00	 1.007440938291657e-01	 1.219890366634284e+01
 1.637319410005468e+00	 1.347968417628436e-01	 1.220709680494845e+01
 1.634137781547173e+00	 1.690524098365947e-01	 1.221078706774087e+01
 1.630207648450840e+00	 2.034896671986659e-01	 1.221206993872381e+01
 1.625515265094705e+00	 2.380865667729873e-01	 1.221286830645861e+01
 1.620047643116225e+00	 2.728201669303749e-01	 1.221491433667673e+01
 1.613792612321206e+00	 3.076666575616935e-01	 1.221973162130624e+01
 1.606738881069569e+00	 3.426013906383932e-01	 1.222861775581496e+01
 1.657144892699808e+00	 0.000000000000000e+00	 1.206808173863311e+01
 1.656803874823768e+00	 3.361670545068816e-02	 1.210598553172102e+01
 1.655769713876872e+00	 6.749623889386683e-02	 1.213206194719029e+01
 1.654026102694607e+00	 1.016201468649986e-01	 1.214885251263390e+01
 1.651557253483665e+00	 1.359690115438903e-01	 1.215877071923944e+01
 1.648347958140016e+00	 1.705224600512339e-01	 1.216408318381290e+01
 1.644383649292800e+00	 2.052591777851378e-01	 1.216689071868861e+01
 1.639650461790754e+00	 2.401569259520683e-01	 1.216910944046179e+01
 1.634135294326828e+00	 2.751925634265019e-01	 1.217245205854060e+01
 1.627825870876976e+00	 3.103420730508160e-01	 1.217840949409587e+01
 1.620710801611011e+00	 3.455805924615732e-01	 1.218823298894337e+01
 1.671430919765895e+00	 0.000000000000000e+00	 1.201456070366024e+01
 1.671086962019786e+00	 3.390651062496277e-02	 1.205477443120231e+01
 1.670043885707968e+00	 6.807811504754545e-02	 1.208295577017236e+01
 1.668285243084035e+00	 1.024962007183786e-01	 1.210168166888460e+01
 1.665795110250220e+00	 1.371411824188566e-01	 1.211339080840301e+01
 1.662558147995456e+00	 1.719925116378220e-01	 1.212036407419064e+01
 1.658559663365526e+00	 2.070286900230698e-01	 1.212470496868605e+01
 1.653785671679549e+00	 2.422272870634203e-01	 1.212832010311471e+01
 1.648222958685861e+00	 2.775649621368212e-01	 1.213289991704517e+01
 1.641859142530455e+00	 3.130174910369654e-01	 1.213989978384790e+01
 1.634682735192946e+00	 3.485597970653249e-01	 1.215052166916066e+01
 1.685716956831615e+00	 0.000000000000000e+00	 1.196335590319408e+01
 1.685370059213394e+00	 3.419631600200176e-02	 1.200601890731715e+01
 1.684318067530453e+00	 6.865999160837752e-02	 1.203642443840901e+01
 1.682544393454392e+00	 1.033722551848091e-01	 1.205718265422701e+01
 1.680032976982881e+00	 1.383133541141549e-01	 1.207075508523237e+01
 1.676768347797721e+00	 1.734625642532795e-01	 1.207943442597801e+01
 1.672735687361242e+00	 2.087982034995292e-01	 1.208532430202665e+01
 1.667920891462859e+00	 2.442976496239379e-01	 1.209031915808074e+01
 1.662310632906206e+00	 2.799373625077780e-01	 1.209608442332821e+01
 1.655892424007237e+00	 3.156929108959058e-01	 1.210403711970308e+01
 1.648654678555294e+00	 3.515390037545457e-01	 1.211532708767094e+01
 1.700003000563425e+00	 0.000000000000000e+00	 1.191424870805111e+01
 1.699653163071738e+00	 3.448612151413742e-02	 1.195950650474379e+01
 1.698592256013564e+00	 6.924186844051838e-02	 1.199226164238284e+01
 1.696803550478436e+00	 1.042483100597932e-01	 1.201515534159650e+01
 1.694270850359394e+00	 1.394855263561977e-01	 1.203066970817026e+01
 1.690978554231035e+00	 1.749326175545268e-01	 1.204110685406282e+01
 1.686911717972173e+00	 2.105677178015834e-01	 1.204856803010150e+01
 1.682056117842452e+00	 2.463680131505156e-01	 1.205493292341477e+01
 1.676398313700747e+00	 2.823097639858172e-01	 1.206183928308393e+01
 1.669925712032915e+00	 3.183683320034011e-01	 1.207066304721451e+01
 1.662626628437969e+00	 3.545182118341332e-01	 1.208249915348308e+01
 1.714289047627778e+00	 0.000000000000000e+00	 1.186702905740238e+01
 1.713936270261961e+00	 3.477592709370207e-02	 1.191503314972852e+01
 1.712866447826537e+00	 6.982374540812339e-02	 1.195026926400180e+01
 1.711062710828929e+00	 1.051243651388343e-01	 1.197540759993334e+01
 1.708508727057505e+00	 1.406576988713972e-01	 1.199294862900177e+01
 1.705188763979623e+00	 1.764026711984846e-01	 1.200520155476944e+01
 1.701087751890541e+00	 2.123372325163000e-01	 1.201426282255759e+01
 1.696191347520097e+00	 2.484383771600481e-01	 1.202199483891848e+01
 1.690485997782368e+00	 2.846821660173839e-01	 1.203000507184800e+01
 1.683959003333080e+00	 3.210437537352151e-01	 1.203962571240398e+01
 1.676598581580888e+00	 3.574974206089848e-01	 1.205189408716989e+01
 1.536879588072675e+00	 3.277054475596566e-01	 1.247663348705535e+01
 1.529359222129145e+00	 3.611789783415347e-01	 1.247527739229222e+01
 1.521056139060902e+00	 3.946875295879635e-01	 1.246307600581119e+01
 1.511962397240521e+00	 4.282053831011283e-01	 1.244115927921241e+01
 1.502071113759757e+00	 4.617061818853215e-01	 1.241057434273642e+01
 1.491376514271011e+00	 4.951629809952903e-01	 1.237227906470601e+01
 1.479873980149320e+00	 5.285483025250732e-01	 1.232713594515145e+01
 1.467560092601489e+00	 5.618341945948696e-01	 1.227590641972791e+01
 1.454432673355103e+00	 5.949922941569014e-01	 1.221924565472417e+01
 1.440490821570163e+00	 6.279938934045739e-01	 1.215769791811262e+01
 1.425734946630075e+00	 6.608100095329462e-01	 1.209169730726484e+01
 1.550851394510401e+00	 3.306846250534405e-01	 1.242027564998414e+01
 1.543262660753379e+00	 3.644624644466162e-01	 1.242088271975010e+01
 1.534884094173004e+00	 3.982756426762859e-01	 1.241101775106467e+01
 1.525707680944315e+00	 4.320982077398996e-01	 1.239177610471301e+01
 1.515726475586372e+00	 4.659035630296869e-01	 1.236416735134244e+01
 1.504934651256828e+00	 4.996645186432699e-01	 1.232910890474596e+01
 1.493327547342673e+00	 5.333533468724031e-01	 1.228742000063443e+01
 1.480901713970360e+00	 5.669418417260944e-01	 1.223981609714110e+01
 1.467654953064725e+00	 6.004013823074373e-01	 1.218690377813239e+01
 1.453586355596186e+00	 6.337029998264971e-01	 1.212917624471941e+01
 1.438696334669837e+00	 6.668174479949772e-01	 1.206700948395780e+01
 1.564823230289037e+00	 3.336638088033086e-01	 1.236748598994019e+01
 1.557166128574940e+00	 3.677459574467969e-01	 1.236984741447045e+01
 1.548712078323922e+00	 4.018637632994254e-01	 1.236211230371514e+01
 1.539452993513331e+00	 4.359910405534110e-01	 1.234534002059174e+01
 1.529381866089396e+00	 4.701009529884128e-01	 1.232050112665668e+01
 1.518492816714911e+00	 5.041660657444060e-01	 1.228847109677028e+01
 1.506781142788726e+00	 5.381584013103312e-01	 1.225002439077855e+01
 1.494243363356876e+00	 5.720494995834654e-01	 1.220582895851250e+01
 1.480877260541402e+00	 6.058104818172241e-01	 1.215644125937508e+01
 1.466681917123116e+00	 6.394121182377791e-01	 1.210230188227828e+01
 1.451657749928804e+00	 6.728248990729171e-01	 1.204373185548414e+01
 1.578795092148498e+00	 3.366429981141584e-01	 1.231806950767178e+01
 1.571069622349703e+00	 3.710294565759766e-01	 1.232198706318657e+01
 1.562540088287140e+00	 4.054518906202006e-01	 1.231618567786374e+01
 1.553198331740336e+00	 4.398838806333745e-01	 1.230168734638015e+01
 1.543037282082569e+00	 4.742983507821346e-01	 1.227942220993717e+01
 1.532051007481672e+00	 5.086676212483482e-01	 1.225022235970133e+01
 1.520234763348278e+00	 5.429634647176710e-01	 1.221481600899184e+01
 1.507585037647940e+00	 5.771571669751688e-01	 1.217382211049291e+01
 1.494099592699866e+00	 6.112195914240948e-01	 1.212774549987792e+01
 1.479777503095249e+00	 6.451212473062344e-01	 1.207697265189680e+01
 1.464619189382567e+00	 6.788323613649613e-01	 1.202176813897472e+01
 1.592766976828704e+00	 3.396221922908876e-01	 1.227183961892907e+01
 1.584973138833540e+00	 3.743129610680547e-01	 1.227712530110985e+01
 1.576368120836146e+00	 4.090400238014308e-01	 1.227307157320925e+01
 1.566943692418100e+00	 4.437767270715023e-01	 1.226066172707914e+01
 1.556692720379632e+00	 4.784957554314885e-01	 1.224078410961476e+01
 1.545609220393526e+00	 5.131691841047462e-01	 1.221422602222642e+01
 1.533688405882126e+00	 5.477685359732344e-01	 1.218166800096903e+01
 1.520926733730455e+00	 5.822648427093915e-01	 1.214367855350431e+01
 1.507321946454855e+00	 6.166287098658830e-01	 1.210070943431679e+01
 1.492873110456881e+00	 6.508303856996788e-01	 1.205309154444591e+01
 1.477580650006715e+00	 6.848398334693059e-01	 1.200103154620056e+01
 1.606738881069569e+00	 3.426013906383932e-01	 1.222861775581496e+01
 1.598876674782327e+00	 3.775964701569309e-01	 1.223509342624066e+01
 1.590196172744423e+00	 4.126281620059348e-01	 1.223261100222940e+01
 1.580689072339393e+00	 4.476695789595059e-01	 1.222211377315886e+01
 1.570348177794325e+00	 4.826931659571098e-01	 1.220444695409815e+01
 1.559167452286884e+00	 5.176707532632487e-01	 1.218035168843312e+01
 1.547142067251067e+00	 5.525736139558342e-01	 1.215045944322208e+01
 1.534268448491324e+00	 5.873725255943198e-01	 1.211528687326973e+01
 1.520544318721103e+00	 6.220378358804218e-01	 1.207523123529210e+01
 1.505968736152310e+00	 6.565395320859273e-01	 1.203056643856386e+01
 1.490542128776837e+00	 6.908473139841474e-01	 1.198143982285769e+01
 1.620710801611011e+00	 3.455805924615732e-01	 1.218823298894337e+01
 1.612780226951937e+00	 3.808799830765046e-01	 1.219573003385564e+01
 1.604024240785459e+00	 4.162163043965318e-01	 1.219465193691461e+01
 1.594434468296982e+00	 4.515624353890975e-01	 1.218590071949131e+01
 1.584003651140387e+00	 4.868905813796344e-01	 1.217027716289342e+01
 1.572725699998159e+00	 5.221723276735052e-01	 1.214847492114068e+01
 1.560595744315899e+00	 5.573786975442835e-01	 1.212107503868472e+01
 1.547610178817450e+00	 5.924802144381413e-01	 1.208854094878986e+01
 1.533766706413343e+00	 6.274469682055448e-01	 1.205121403381350e+01
 1.519064377125835e+00	 6.622486851327958e-01	 1.200930983382353e+01
 1.503503622668521e+00	 6.968548015076813e-01	 1.196291499462931e+01
 1.634682735192946e+00	 3.485597970653249e-01	 1.215052166916066e+01
 1.626683792098246e+00	 3.841634990606757e-01	 1.215888066996525e+01
 1.617852321732738e+00	 4.198044501360408e-01	 1.215904897388508e+01
 1.608179877083639e+00	 4.554552954519889e-01	 1.215188610208352e+01
 1.597659137231561e+00	 4.910880007196983e-01	 1.213814713494358e+01
 1.586283960363763e+00	 5.266739062851653e-01	 1.211847694186961e+01
 1.574049433937420e+00	 5.621837856173943e-01	 1.209340482837064e+01
 1.560951921595736e+00	 5.975879080490416e-01	 1.206333967578309e+01
 1.546989106446313e+00	 6.328561055790852e-01	 1.202856565465017e+01
 1.532160030321749e+00	 6.679578435080992e-01	 1.198923859815667e+01
 1.516465128657361e+00	 7.028622946381038e-01	 1.194538312688351e+01
 1.648654678555294e+00	 3.515390037545457e-01	 1.211532708767094e+01
 1.640587366977126e+00	 3.874470173433434e-01	 1.212439750261722e+01
 1.631680412359747e+00	 4.233925983872808e-01	 1.212566301680174e+01
 1.621925295492131e+00	 4.593481582398919e-01	 1.211993945155651e+01
 1.611314632881585e+00	 4.952854229979368e-01	 1.210793495316704e+01
 1.599842230220112e+00	 5.311754880478783e-01	 1.209024434646334e+01
 1.587503132976426e+00	 5.669888770539796e-01	 1.206734391813380e+01
 1.574293673713085e+00	 6.026956052352079e-01	 1.203958670467243e+01
 1.560211515734747e+00	 6.382652467388765e-01	 1.200719836566533e+01
 1.545255692684351e+00	 6.736670058796529e-01	 1.197027372869001e+01
 1.529426643718942e+00	 7.088697919736108e-01	 1.192877409719867e+01
 1.662626628437969e+00	 3.545182118341332e-01	 1.208249915348308e+01
 1.654490948344454e+00	 3.907305371584074e-01	 1.209213900999643e+01
 1.645508509439972e+00	 4.269807483130709e-01	 1.209436097505443e+01
 1.635670720315228e+00	 4.632410228445187e-01	 1.208993600238545e+01
 1.624970134904200e+00	 4.994828472349860e-01	 1.207952410424318e+01
 1.613400506403614e+00	 5.356770719112931e-01	 1.206366883544194e+01
 1.600956838293715e+00	 5.717939707328521e-01	 1.204279221964324e+01
 1.587635432056398e+00	 6.078033048048268e-01	 1.201719019226461e+01
 1.573433931193380e+00	 6.436743904227519e-01	 1.198702864031348e+01
 1.558351361157939e+00	 6.793761709152729e-01	 1.195234012520545e+01
 1.542388164828857e+00	 7.148772921123988e-01	 1.191302137996224e+01
 1.676598581580888e+00	 3.574974206089848e-01	 1.205189408716989e+01
 1.668394532956103e+00	 3.940140577397678e-01	 1.206196968434283e+01
 1.659336609746896e+00	 4.305688990762300e-01	 1.206501547777853e+01
 1.649416148345699e+00	 4.671338883575807e-01	 1.206175641698269e+01
 1.638625640113148e+00	 5.036802724514817e-01	 1.205280321275623e+01
 1.626958785750686e+00	 5.401786568250593e-01	 1.203864695822927e+01
 1.614410546750085e+00	 5.765990655328240e-01	 1.201965420474387e+01
 1.600977193512580e+00	 6.129110055660848e-01	 1.199606256632319e+01
 1.586656349736946e+00	 6.490835353685447e-01	 1.196797693253298e+01
 1.571447032686810e+00	 6.850853372827735e-01	 1.193536637548813e+01
 1.555349688962692e+00	 7.208847936526629e-01	 1.189806184233990e+01
 1.425734946630075e+00	 6.608100095329462e-01	 1.209169730726484e+01
 1.410165679786421e+00	 6.934137300872995e-01	 1.201579419868419e+01
 1.393787143848190e+00	 7.257734257371631e-01	 1.192477980531541e+01
 1.376603839868557e+00	 7.578597209617606e-01	 1.181939093010891e+01
 1.358621663420585e+00	 7.896432714658930e-01	 1.170025317794956e+01
 1.339847912380150e+00	 8.210948457838531e-01	 1.156787396228806e+01
 1.320291289037849e+00	 8.521854080414092e-01	 1.142263802871167e+01
 1.299961896400895e+00	 8.828862014191952e-01	 1.126480586822254e+01
 1.278871228587822e+00	 9.131688318442138e-01	 1.109451531814912e+01
 1.257032155262793e+00	 9.430053514238217e-01	 1.091178655632546e+01
 1.234458900101805e+00	 9.723683411288404e-01	 1.071653058711437e+01
 1.438696334669837e+00	 6.668174479949772e-01	 1.206700948395780e+01
 1.422985527275958e+00	 6.997175696964119e-01	 1.199482855759773e+01
 1.406458093704091e+00	 7.323714480573985e-01	 1.190759184288829e+01
 1.389118575926604e+00	 7.647494405036754e-01	 1.180606497523418e+01
 1.370972923113356e+00	 7.968219359704288e-01	 1.169084009813790e+01
 1.352028499485387e+00	 8.285594372480739e-01	 1.156238840638190e+01
 1.332294086446027e+00	 8.599326444966284e-01	 1.142105536936811e+01
 1.311779878849165e+00	 8.909125394678691e-01	 1.126705897985822e+01
 1.290497475306639e+00	 9.214704699576771e-01	 1.110049134899915e+01
 1.268459862481026e+00	 9.515782339985250e-01	 1.092132387135942e+01
 1.245681393356093e+00	 9.812081632942572e-01	 1.072941607077308e+01
 1.451657749928804e+00	 6.728248990729171e-01	 1.204373185548414e+01
 1.435805401687458e+00	 7.060214225439064e-01	 1.197516091074903e+01
 1.419129070169253e+00	 7.389694842338115e-01	 1.189143271905559e+01
 1.401633338265831e+00	 7.716391745143251e-01	 1.179346258943167e+01
 1.383324208743967e+00	 8.040006155504626e-01	 1.168184505185283e+01
 1.364209112170008e+00	 8.360240443882061e-01	 1.155702192090524e+01
 1.344296909060183e+00	 8.676798972212709e-01	 1.141930655538630e+01
 1.323597886115254e+00	 8.989388943720311e-01	 1.126888186786797e+01
 1.302123746440581e+00	 9.297721255047077e-01	 1.110580184267830e+01
 1.279887593697410e+00	 9.601511345763568e-01	 1.092999680570640e+01
 1.256903910177548e+00	 9.900480040233278e-01	 1.074128257042258e+01
 1.464619189382567e+00	 6.788323613649613e-01	 1.202176813897472e+01
 1.448625300029533e+00	 7.123252871588173e-01	 1.195658520765042e+01
 1.431800070287028e+00	 7.455675327267967e-01	 1.187625381487262e+01
 1.414148123966046e+00	 7.785289213860510e-01	 1.178155606384362e+01
 1.395675517430381e+00	 8.111793085309283e-01	 1.167325704437053e+01
 1.376389747591809e+00	 8.434886654624829e-01	 1.155178154197482e+01
 1.356299754079610e+00	 8.754271644076367e-01	 1.141741791650533e+01
 1.335415915441594e+00	 9.069652642588758e-01	 1.127032134474660e+01
 1.313750039276837e+00	 9.380737965482800e-01	 1.111051518887015e+01
 1.291315346245472e+00	 9.687240511570182e-01	 1.093789630404099e+01
 1.268126447947593e+00	 9.988878612534782e-01	 1.075224442458082e+01
 1.477580650006715e+00	 6.848398334693059e-01	 1.200103154620056e+01
 1.461445219310796e+00	 7.186291620701782e-01	 1.193900881518075e+01
 1.444471091100772e+00	 7.521655919967494e-01	 1.186189196062790e+01
 1.426662930107062e+00	 7.854186795111947e-01	 1.177032438245246e+01
 1.408026846290560e+00	 8.183580132367593e-01	 1.166507106328509e+01
 1.388570402908588e+00	 8.509532987291373e-01	 1.154667953380314e+01
 1.368302618703605e+00	 8.831744442480259e-01	 1.141542022119418e+01
 1.347233964070615e+00	 9.149916472555970e-01	 1.127142784558723e+01
 1.325376351102590e+00	 9.463754811513688e-01	 1.111470256507965e+01
 1.302743117458739e+00	 9.772969817402075e-01	 1.094511525322515e+01
 1.279349004047656e+00	 1.007727732922136e+00	 1.076241706485818e+01
 1.490542128776837e+00	 6.908473139841474e-01	 1.198143982285769e+01
 1.474265156539857e+00	 7.249330458070223e-01	 1.192236039904219e+01
 1.457142129653841e+00	 7.587636605040647e-01	 1.184824242962903e+01
 1.439177753768686e+00	 7.923084472820973e-01	 1.175969157164116e+01
 1.420378192442467e+00	 8.255367279928895e-01	 1.165728773774560e+01
 1.400751075278142e+00	 8.584179424464018e-01	 1.154173306800316e+01
 1.380305500131459e+00	 8.909217349347384e-01	 1.141334837894583e+01
 1.359052029244751e+00	 9.230180414893885e-01	 1.127225515611963e+01
 1.337002679205026e+00	 9.546771773769483e-01	 1.111843769298142e+01
 1.314170904670738e+00	 9.858699243256250e-01	 1.095174826932447e+01
 1.290571575859161e+00	 1.016567616966727e+00	 1.077191683576997e+01
 1.503503622668521e+00	 6.968548015076813e-01	 1.196291499462931e+01
 1.487085108725331e+00	 7.312369368983842e-01	 1.190657253035232e+01
 1.469813182989592e+00	 7.653617367091381e-01	 1.183525013615948e+01
 1.451692592030731e+00	 7.991982230911011e-01	 1.174952173765010e+01
 1.432729553004065e+00	 8.327154511242526e-01	 1.164990418029204e+01
 1.412931761858268e+00	 8.658825948725100e-01	 1.153696391216726e+01
 1.392308395562468e+00	 8.986690346600738e-01	 1.141124115041379e+01
 1.370870108206433e+00	 9.310444450874450e-01	 1.127286014705367e+01
 1.348629020871332e+00	 9.629788832879940e-01	 1.112179659944390e+01
 1.325598705214996e+00	 9.944428769129717e-01	 1.095789148759000e+01
 1.301794160763533e+00	 1.025407511324678e+00	 1.078086081573816e+01
 1.516465128657361e+00	 7.028622946381038e-01	 1.194538312688351e+01
 1.499905072875827e+00	 7.375408338732975e-01	 1.189158145910329e+01
 1.482484248151378e+00	 7.719598190723639e-01	 1.182286325444740e+01
 1.464207441973005e+00	 8.060880053305461e-01	 1.173977470065276e+01
 1.445080925093318e+00	 8.398941809557829e-01	 1.164280654080479e+01
 1.425112459806761e+00	 8.733472542656954e-01	 1.153239812716649e+01
 1.404311302195926e+00	 9.064163416163323e-01	 1.140914086492240e+01
 1.382688198198093e+00	 9.390708561769601e-01	 1.127330251435190e+01
 1.360255373388692e+00	 9.712805969474798e-01	 1.112485738195013e+01
 1.337026516425042e+00	 1.003015837501946e+00	 1.096364235522950e+01
 1.313016756142200e+00	 1.034247413933416e+00	 1.078936663921194e+01
 1.529426643718942e+00	 7.088697919736108e-01	 1.192877409719867e+01
 1.512725045999958e+00	 7.438447352607953e-01	 1.187732689978594e+01
 1.495155322182557e+00	 7.785579060541381e-01	 1.181103301990066e+01
 1.476722300675319e+00	 8.129777923927746e-01	 1.173041481963847e+01
 1.457432305828187e+00	 8.470729158124134e-01	 1.163594130306462e+01
 1.437293166281423e+00	 8.808119188841904e-01	 1.152802621661375e+01
 1.416314217231126e+00	 9.141636539958131e-01	 1.140709314491473e+01
 1.394506296462164e+00	 9.470972728851270e-01	 1.127364452508008e+01
 1.371881734044294e+00	 9.795823164183801e-01	 1.112769997815540e+01
 1.348454335634401e+00	 1.011588804092248e+00	 1.096909942680353e+01
 1.324239359376585e+00	 1.043087322730367e+00	 1.079755231984197e+01
 1.542388164828857e+00	 7.148772921123988e-01	 1.191302137996224e+01
 1.525545025106338e+00	 7.501486395899122e-01	 1.186375182846385e+01
 1.507826402126483e+00	 7.851559961148554e-01	 1.179971354103868e+01
 1.489237165217485e+00	 8.198675826701277e-01	 1.172140888840094e+01
 1.469783692326635e+00	 8.542516540190780e-01	 1.162928941311983e+01
 1.449473878440046e+00	 8.882765869862278e-01	 1.152375381393458e+01
 1.428317137867365e+00	 9.219109699908171e-01	 1.140514663693114e+01
 1.406324400241078e+00	 9.551236933391417e-01	 1.127395076850935e+01
 1.383508100125322e+00	 9.878840397636706e-01	 1.113040593933991e+01
 1.359882160176601e+00	 1.020161774683578e+00	 1.097436216209310e+01
 1.335461967848114e+00	 1.051927235652958e+00	 1.080553607464728e+01
 1.555349688962692e+00	 7.208847936526629e-01	 1.189806184233990e+01
 1.538365007203576e+00	 7.564525453896814e-01	 1.185080229063018e+01
 1.520497485026512e+00	 7.917540877149108e-01	 1.178886162149768e+01
 1.501752032679311e+00	 8.267573745549470e-01	 1.171272597381406e+01
 1.482135081706625e+00	 8.614303939007104e-01	 1.162283362386011e+01
 1.461654593440430e+00	 8.957412568300415e-01	 1.151957282157282e+01
 1.440320061303935e+00	 9.296582877936430e-01	 1.140328026506645e+01
 1.418142506777267e+00	 9.631501156661962e-01	 1.127428791216424e+01
 1.395134468918961e+00	 9.961857650463246e-01	 1.113305820752997e+01
 1.371309987385168e+00	 1.028734747275635e+00	 1.097953072629609e+01
 1.346684578938213e+00	 1.060767150638615e+00	 1.081343614911815e+01
 1.234458900101805e+00	 9.723683411288404e-01	 1.071653058711437e+01
 1.211167009889495e+00	 1.001230994946606e+00	 1.050859397192911e+01
 1.187173310896686e+00	 1.029567207711080e+00	 1.028822158406642e+01
 1.162495880220790e+00	 1.057351644371346e+00	 1.005586539270029e+01
 1.137154004740159e+00	 1.084559811993984e+00	 9.812014082893976e+00
 1.111168131322751e+00	 1.111168131322752e+00	 9.557209176461443e+00
 1.084559811993984e+00	 1.137154004740160e+00	 9.292062022569109e+00
 1.057351644371345e+00	 1.162495880220790e+00	 9.017271026800064e+00
 1.029567207711079e+00	 1.187173310896686e+00	 8.733638430458114e+00
 1.001230994946606e+00	 1.211167009889495e+00	 8.442085919125599e+00
 9.723683411288406e-01	 1.234458900101806e+00	 8.143668333180219e+00
 1.245681393356093e+00	 9.812081632942572e-01	 1.072941607077308e+01
 1.222177756052655e+00	 1.010333208138176e+00	 1.052474929073287e+01
 1.197965929809548e+00	 1.038927026041595e+00	 1.030772534671754e+01
 1.173064156063485e+00	 1.066964051632084e+00	 1.007877933172436e+01
 1.147491897030265e+00	 1.094419569310411e+00	 9.838387761096211e+00
 1.121269785460785e+00	 1.121269785460785e+00	 9.587085534979487e+00
 1.094419569310411e+00	 1.147491897030266e+00	 9.325483844771652e+00
 1.066964051632084e+00	 1.173064156063485e+00	 9.054288359614686e+00
 1.038927026041595e+00	 1.197965929809549e+00	 8.774316967683848e+00
 1.010333208138175e+00	 1.222177756052656e+00	 8.486516311173471e+00
 9.812081632942573e-01	 1.245681393356094e+00	 8.191976345924447e+00
 1.256903910177548e+00	 9.900480040233278e-01	 1.074128257042258e+01
 1.233188525338287e+00	 1.019435440444377e+00	 1.053978740680498e+01
 1.208758571386796e+00	 1.048286864027678e+00	 1.032606940147494e+01
 1.183632454099435e+00	 1.076576479078796e+00	 1.010053397438376e+01
 1.157829811029820e+00	 1.104279347332226e+00	 9.863630972487584e+00
 1.131371460812173e+00	 1.131371460812174e+00	 9.615872621504788e+00
 1.104279347332226e+00	 1.157829811029820e+00	 9.357852517047883e+00
 1.076576479078796e+00	 1.183632454099436e+00	 9.090264955932685e+00
 1.048286864027677e+00	 1.208758571386797e+00	 8.813923842375097e+00
 1.019435440444377e+00	 1.233188525338288e+00	 8.529780364501397e+00
 9.900480040233277e-01	 1.256903910177548e+00	 8.238938626727862e+00
 1.268126447947593e+00	 9.988878612534782e-01	 1.075224442458082e+01
 1.244199315177236e+00	 1.028537689741422e+00	 1.055384318441376e+01
 1.219551233110184e+00	 1.057646719485435e+00	 1.034340286716466e+01
 1.194200771862754e+00	 1.086188924468655e+00	 1.012128673200416e+01
 1.168167744326701e+00	 1.114139143758882e+00	 9.887903779690779e+00
 1.141473155019926e+00	 1.141473155019926e+00	 9.643727841190106e+00
 1.114139143758882e+00	 1.168167744326702e+00	 9.389317822470108e+00
 1.086188924468655e+00	 1.194200771862755e+00	 9.125338368398658e+00
 1.057646719485435e+00	 1.219551233110185e+00	 8.852580137358338e+00
 1.028537689741422e+00	 1.244199315177236e+00	 8.571978835110734e+00
 9.988878612534781e-01	 1.268126447947593e+00	 8.284632144386887e+00
 1.279349004047656e+00	 1.007727732922136e+00	 1.076241706485818e+01
 1.255210123000349e+00	 1.037639953905520e+00	 1.056705185972977e+01
 1.230343912461471e+00	 1.067006590230976e+00	 1.035987476068347e+01
 1.204769106887557e+00	 1.095801385558832e+00	 1.014119467548242e+01
 1.178505694508791e+00	 1.123998956289837e+00	 9.911365888123239e+00
 1.151574865727051e+00	 1.151574865727052e+00	 9.670808431825483e+00
 1.123998956289837e+00	 1.178505694508792e+00	 9.420029756713999e+00
 1.095801385558832e+00	 1.204769106887557e+00	 9.159646914587382e+00
 1.067006590230976e+00	 1.230343912461471e+00	 8.890408406186021e+00
 1.037639953905520e+00	 1.255210123000350e+00	 8.613214789125035e+00
 1.007727732922135e+00	 1.279349004047656e+00	 8.329137130134335e+00
 1.290571575859161e+00	 1.016567616966727e+00	 1.077191683576997e+01
 1.266220946238475e+00	 1.046742230812884e+00	 1.057954888990636e+01
 1.241136606922412e+00	 1.076366474080407e+00	 1.037563386664005e+01
 1.215337456707958e+00	 1.105413860106501e+00	 1.016041441727786e+01
 1.188843659163968e+00	 1.133858782624547e+00	 9.934176532656213e+00
 1.161676590576559e+00	 1.161676590576559e+00	 9.697271348037791e+00
 1.133858782624547e+00	 1.188843659163969e+00	 9.450138403254037e+00
 1.105413860106501e+00	 1.215337456707958e+00	 9.193329537256631e+00
 1.076366474080407e+00	 1.241136606922412e+00	 8.927532513135857e+00
 1.046742230812883e+00	 1.266220946238475e+00	 8.653593417872267e+00
 1.016567616966727e+00	 1.290571575859161e+00	 8.372536863806612e+00
 1.301794160763533e+00	 1.025407511324678e+00	 1.078086081573816e+01
 1.277231782322459e+00	 1.055844518339723e+00	 1.059146980179924e+01
 1.251929313974762e+00	 1.085726368849838e+00	 1.039082860557904e+01
 1.225905818858070e+00	 1.115026345868833e+00	 1.017910199139905e+01
 1.199181635880113e+00	 1.143718620462467e+00	 9.956494362121290e+00
 1.171778327211458e+00	 1.171778327211458e+00	 9.723273143600419e+00
 1.143718620462467e+00	 1.199181635880114e+00	 9.479793807309379e+00
 1.115026345868833e+00	 1.225905818858070e+00	 9.226525664334233e+00
 1.085726368849838e+00	 1.251929313974763e+00	 8.964077474237280e+00
 1.055844518339723e+00	 1.277231782322459e+00	 8.693221855559655e+00
 1.025407511324678e+00	 1.301794160763533e+00	 8.414917464402127e+00
 1.313016756142200e+00	 1.034247413933416e+00	 1.078936663921194e+01
 1.288242628683150e+00	 1.064946814362249e+00	 1.060295004034724e+01
 1.262722031100280e+00	 1.095086272355376e+00	 1.040560690087353e+01
 1.236474190872010e+00	 1.124638840603001e+00	 1.019741273150632e+01
 1.209519622245105e+00	 1.153578467503053e+00	 9.978477321794085e+00
 1.181880073274757e+00	 1.181880073274757e+00	 9.748969851966613e+00
 1.153578467503053e+00	 1.209519622245105e+00	 9.509145848614926e+00
 1.124638840603001e+00	 1.236474190872010e+00	 9.259375068656212e+00
 1.095086272355376e+00	 1.262722031100281e+00	 9.000169299264694e+00
 1.064946814362248e+00	 1.288242628683150e+00	 8.732208999386444e+00
 1.034247413933416e+00	 1.313016756142199e+00	 8.456367684769546e+00
 1.324239359376585e+00	 1.043087322730367e+00	 1.079755231984197e+01
 1.299253482751394e+00	 1.074049116756672e+00	 1.061412481663577e+01
 1.273514755780722e+00	 1.104446182413130e+00	 1.042011604436653e+01
 1.247042570283890e+00	 1.134251342066178e+00	 1.021550114724315e+01
 1.219857615846823e+00	 1.163438321445762e+00	 1.000028253397639e+01
 1.191981826409463e+00	 1.191981826409464e+00	 9.774516865133043e+00
 1.163438321445762e+00	 1.219857615846824e+00	 9.538344113088861e+00
 1.134251342066178e+00	 1.247042570283891e+00	 9.292017727471521e+00
 1.104446182413130e+00	 1.273514755780723e+00	 9.035934834640701e+00
 1.074049116756672e+00	 1.299253482751395e+00	 8.770665331950864e+00
 1.043087322730367e+00	 1.324239359376585e+00	 8.496978710181086e+00
 1.335461967848114e+00	 1.051927235652958e+00	 1.080553607464728e+01
 1.310264341958040e+00	 1.083151423399203e+00	 1.062512895566232e+01
 1.284307485497844e+00	 1.113806096839209e+00	 1.043450256083503e+01
 1.257610954627826e+00	 1.143863848015535e+00	 1.023352079890159e+01
 1.230195614273149e+00	 1.173298179990049e+00	 1.002206617678891e+01
 1.202083584258589e+00	 1.202083584258589e+00	 9.800068810932144e+00
 1.173298179990048e+00	 1.230195614273149e+00	 9.567537763462285e+00
 1.143863848015536e+00	 1.257610954627827e+00	 9.324593681727730e+00
 1.113806096839208e+00	 1.284307485497845e+00	 9.071501607196623e+00
 1.083151423399203e+00	 1.310264341958040e+00	 8.808702745816934e+00
 1.051927235652957e+00	 1.335461967848114e+00	 8.536843960563322e+00
 1.346684578938213e+00	 1.060767150638615e+00	 1.081343614911815e+01
 1.321275203733934e+00	 1.092253732166055e+00	 1.063609674382282e+01
 1.295100217733402e+00	 1.123166013449718e+00	 1.044891207134753e+01
 1.268179341437932e+00	 1.153476356208247e+00	 1.025162417051964e+01
 1.240533615111960e+00	 1.183158040835369e+00	 1.004398336128057e+01
 1.212185344465141e+00	 1.212185344465141e+00	 9.825779428847039e+00
 1.183158040835369e+00	 1.240533615111961e+00	 9.596875408931766e+00
 1.153476356208246e+00	 1.268179341437933e+00	 9.357242895151836e+00
 1.123166013449718e+00	 1.295100217733403e+00	 9.106997668741288e+00
 1.092253732166054e+00	 1.321275203733934e+00	 8.846434370116208e+00
 1.060767150638615e+00	 1.346684578938213e+00	 8.576058896172986e+00
 9.723683411288406e-01	 1.234458900101806e+00	 8.143668333180219e+00
 9.430053514238215e-01	 1.257032155262794e+00	 7.840103091646780e+00
 9.131688318442132e-01	 1.278871228587822e+00	 7.532423048970988e+00
 8.828862014191952e-01	 1.299961896400895e+00	 7.220864466614380e+00
 8.521854080414087e-01	 1.320291289037849e+00	 6.905805325461827e+00
 8.210948457838527e-01	 1.339847912380151e+00	 6.587769462176933e+00
 7.896432714658925e-01	 1.358621663420585e+00	 6.267425699740794e+00
 7.578597209617604e-01	 1.376603839868557e+00	 5.945581815659076e+00
 7.257734257371627e-01	 1.393787143848190e+00	 5.623173350720696e+00
 6.934137300872991e-01	 1.410165679786422e+00	 5.301247422193427e+00
 6.608100095329461e-01	 1.425734946630075e+00	 4.980941862154562e+00
 9.812081632942573e-01	 1.245681393356094e+00	 8.191976345924447e+00
 9.515782339985246e-01	 1.268459862481026e+00	 7.892340425932358e+00
 9.214704699576766e-01	 1.290497475306639e+00	 7.588445294620090e+00
 8.909125394678685e-01	 1.311779878849166e+00	 7.280388195617979e+00
 8.599326444966280e-01	 1.332294086446028e+00	 6.968410898136304e+00
 8.285594372480736e-01	 1.352028499485388e+00	 6.652905723355693e+00
 7.968219359704285e-01	 1.370972923113356e+00	 6.334416317476640e+00
 7.647494405036750e-01	 1.389118575926605e+00	 6.013632982476026e+00
 7.323714480573981e-01	 1.406458093704092e+00	 5.691382543804515e+00
 6.997175696964111e-01	 1.422985527275958e+00	 5.368612904599486e+00
 6.668174479949773e-01	 1.438696334669837e+00	 5.048456031954737e+00
 9.900480040233277e-01	 1.256903910177548e+00	 8.238938626727862e+00
 9.601511345763564e-01	 1.279887593697410e+00	 7.942927187612177e+00
 9.297721255047072e-01	 1.302123746440582e+00	 7.642371873352520e+00
 8.989388943720305e-01	 1.323597886115255e+00	 7.337250329657984e+00
 8.676798972212705e-01	 1.344296909060183e+00	 7.027689807794735e+00
 8.360240443882055e-01	 1.364209112170008e+00	 6.713974937647398e+00
 8.040006155504622e-01	 1.383324208743968e+00	 6.396549979088384e+00
 7.716391745143246e-01	 1.401633338265832e+00	 6.076015330983321e+00
 7.389694842338108e-01	 1.419129070169253e+00	 5.753118254536243e+00
 7.060214225439060e-01	 1.435805401687458e+00	 5.429789559285012e+00
 6.728248990729170e-01	 1.451657749928804e+00	 5.114725669085198e+00
 9.988878612534781e-01	 1.268126447947593e+00	 8.284632144386887e+00
 9.687240511570175e-01	 1.291315346245473e+00	 7.991919138982728e+00
 9.380737965482796e-01	 1.313750039276837e+00	 7.694245288110757e+00
 9.069652642588754e-01	 1.335415915441594e+00	 7.391487437241712e+00
 8.754271644076362e-01	 1.356299754079611e+00	 7.083679371769540e+00
 8.434886654624822e-01	 1.376389747591809e+00	 6.771021199124210e+00
 8.111793085309278e-01	 1.395675517430381e+00	 6.453882919823389e+00
 7.785289213860508e-01	 1.414148123966047e+00	 6.132801935693894e+00
 7.455675327267963e-01	 1.431800070287028e+00	 5.808679127586167e+00
 7.123252871588168e-01	 1.448625300029533e+00	 5.489854278380427e+00
 6.788323613649613e-01	 1.464619189382567e+00	 5.180045478395394e+00
 1.007727732922135e+00	 1.279349004047656e+00	 8.329137130134335e+00
 9.772969817402068e-01	 1.302743117458739e+00	 8.039376151167328e+00
 9.463754811513685e-01	 1.325376351102590e+00	 7.744112696075402e+00
 9.149916472555962e-01	 1.347233964070615e+00	 7.443141000925706e+00
 8.831744442480255e-01	 1.368302618703605e+00	 7.136421812205306e+00
 8.509532987291364e-01	 1.388570402908589e+00	 6.824093246095194e+00
 8.183580132367586e-01	 1.408026846290560e+00	 6.506475526090199e+00
 7.854186795111944e-01	 1.426662930107062e+00	 6.184069316633607e+00
 7.521655919967490e-01	 1.444471091100773e+00	 5.862576524471359e+00
 7.186291620701775e-01	 1.461445219310796e+00	 5.549535222244615e+00
 6.848398334693059e-01	 1.477580650006715e+00	 5.244537992780081e+00
 1.016567616966727e+00	 1.290571575859161e+00	 8.372536863806612e+00
 9.858699243256248e-01	 1.314170904670739e+00	 8.085361966635942e+00
 9.546771773769478e-01	 1.337002679205027e+00	 7.792025661032959e+00
 9.230180414893882e-01	 1.359052029244751e+00	 7.492257172102180e+00
 8.909217349347384e-01	 1.380305500131460e+00	 7.185964024865106e+00
 8.584179424464011e-01	 1.400751075278142e+00	 6.873244254519049e+00
 8.255367279928891e-01	 1.420378192442468e+00	 6.554392163016092e+00
 7.923084472820969e-01	 1.439177753768687e+00	 6.232093369484923e+00
 7.587636605040642e-01	 1.457142129653841e+00	 5.916665073671540e+00
 7.249330458070220e-01	 1.474265156539858e+00	 5.608917594996534e+00
 6.908473139841474e-01	 1.490542128776837e+00	 5.308321867940499e+00
 1.025407511324678e+00	 1.301794160763533e+00	 8.414917464402127e+00
 9.944428769129710e-01	 1.325598705214997e+00	 8.129943967667323e+00
 9.629788832879937e-01	 1.348629020871333e+00	 7.838039912557917e+00
 9.310444450874443e-01	 1.370870108206433e+00	 7.538886532838290e+00
 8.986690346600733e-01	 1.392308395562468e+00	 7.232357354637764e+00
 8.658825948725094e-01	 1.412931761858267e+00	 6.918531637227069e+00
 8.327154511242522e-01	 1.432729553004066e+00	 6.598028719557204e+00
 7.991982230911002e-01	 1.451692592030731e+00	 6.280805265130756e+00
 7.653617367091377e-01	 1.469813182989592e+00	 5.970997878858171e+00
 7.312369368983839e-01	 1.487085108725331e+00	 5.668083873187671e+00
 6.968548015076812e-01	 1.503503622668521e+00	 5.371511990485628e+00
 1.034247413933416e+00	 1.313016756142199e+00	 8.456367684769546e+00
 1.003015837501945e+00	 1.337026516425043e+00	 8.173192950398070e+00
 9.712805969474790e-01	 1.360255373388693e+00	 7.882215111601854e+00
 9.390708561769592e-01	 1.382688198198093e+00	 7.583083864345873e+00
 9.064163416163318e-01	 1.404311302195926e+00	 7.275657377346860e+00
 8.733472542656946e-01	 1.425112459806762e+00	 6.960016848609587e+00
 8.398941809557823e-01	 1.445080925093319e+00	 6.641677082233581e+00
 8.060880053305455e-01	 1.464207441973005e+00	 6.330305446218159e+00
 7.719598190723636e-01	 1.482484248151379e+00	 6.025626261852435e+00
 7.375408338732968e-01	 1.499905072875827e+00	 5.727113862399055e+00
 7.028622946381037e-01	 1.516465128657361e+00	 5.434219581406404e+00
 1.043087322730367e+00	 1.324239359376585e+00	 8.496978710181086e+00
 1.011588804092248e+00	 1.348454335634402e+00	 8.215182904127943e+00
 9.795823164183798e-01	 1.371881734044294e+00	 7.924614622110521e+00
 9.470972728851269e-01	 1.394506296462165e+00	 7.624907921688823e+00
 9.141636539958126e-01	 1.416314217231127e+00	 7.315923687486493e+00
 8.808119188841896e-01	 1.437293166281423e+00	 6.999176922145894e+00
 8.470729158124131e-01	 1.457432305828188e+00	 6.686648284734050e+00
 8.129777923927742e-01	 1.476722300675320e+00	 6.380619272141972e+00
 7.785579060541377e-01	 1.495155322182557e+00	 6.080599777587304e+00
 7.438447352607950e-01	 1.512725045999959e+00	 5.786084751974057e+00
 7.088697919736107e-01	 1.529426643718942e+00	 5.496552295197606e+00
 1.051927235652957e+00	 1.335461967848114e+00	 8.536843960563322e+00
 1.020161774683578e+00	 1.359882160176601e+00	 8.255990795573172e+00
 9.878840397636699e-01	 1.383508100125321e+00	 7.965305288314427e+00
 9.551236933391410e-01	 1.406324400241079e+00	 7.664421214362525e+00
 9.219109699908166e-01	 1.428317137867365e+00	 7.353219691537274e+00
 8.882765869862271e-01	 1.449473878440046e+00	 7.039947813830006e+00
 8.542516540190774e-01	 1.469783692326635e+00	 6.732947031950017e+00
 8.198675826701273e-01	 1.489237165217485e+00	 6.431771046154435e+00
 7.851559961148549e-01	 1.507826402126484e+00	 6.135966229425668e+00
 7.501486395899116e-01	 1.525545025106338e+00	 5.845071167995499e+00
 7.148772921123988e-01	 1.542388164828856e+00	 5.558614314883139e+00
 1.060767150638615e+00	 1.346684578938213e+00	 8.576058896172986e+00
 1.028734747275635e+00	 1.371309987385168e+00	 8.295696357779768e+00
 9.961857650463243e-01	 1.395134468918961e+00	 8.004357217363207e+00
 9.631501156661958e-01	 1.418142506777268e+00	 7.701689792402275e+00
 9.296582877936426e-01	 1.440320061303935e+00	 7.390092428236296e+00
 8.957412568300408e-01	 1.461654593440431e+00	 7.082547605656522e+00
 8.614303939007100e-01	 1.482135081706625e+00	 6.780577492317791e+00
 8.267573745549465e-01	 1.501752032679311e+00	 6.483784000324297e+00
 7.917540877149102e-01	 1.520497485026513e+00	 6.191771684814647e+00
 7.564525453896809e-01	 1.538365007203576e+00	 5.904145224610692e+00
 7.208847936526629e-01	 1.555349688962692e+00	 5.620506443184714e+00
 6.608100095329461e-01	 1.425734946630075e+00	 4.980941862154564e+00
 6.279938934045742e-01	 1.440490821570162e+00	 4.667089248528842e+00
 5.949922941569017e-01	 1.454432673355103e+00	 4.366290780720893e+00
 5.618341945948699e-01	 1.467560092601490e+00	 4.078024250580132e+00
 5.285483025250735e-01	 1.479873980149320e+00	 3.801564246342156e+00
 4.951629809952906e-01	 1.491376514271011e+00	 3.536147577256924e+00
 4.617061818853219e-01	 1.502071113759757e+00	 3.280970545910736e+00
 4.282053831011286e-01	 1.511962397240521e+00	 3.035186297469530e+00
 3.946875295879637e-01	 1.521056139060901e+00	 2.797902289815276e+00
 3.611789783415348e-01	 1.529359222129144e+00	 2.568177925314197e+00
 3.277054475596566e-01	 1.536879588072675e+00	 2.345022382085564e+00
 6.668174479949773e-01	 1.438696334669837e+00	 5.048456031954737e+00
 6.337029998264974e-01	 1.453586355596186e+00	 4.739431242679212e+00
 6.004013823074378e-01	 1.467654953064726e+00	 4.442447350774775e+00
 5.669418417260947e-01	 1.480901713970360e+00	 4.156857097334968e+00
 5.333533468724034e-01	 1.493327547342673e+00	 3.881984448082099e+00
 4.996645186432702e-01	 1.504934651256828e+00	 3.617121274687615e+00
 4.659035630296873e-01	 1.515726475586372e+00	 3.361524040746950e+00
 4.320982077398997e-01	 1.525707680944315e+00	 3.114410544800250e+00
 3.982756426762863e-01	 1.534884094173004e+00	 2.874956769037785e+00
 3.644624644466165e-01	 1.543262660753379e+00	 2.642293878895797e+00
 3.306846250534405e-01	 1.550851394510401e+00	 2.415505415705484e+00
 6.728248990729170e-01	 1.451657749928804e+00	 5.114725669085196e+00
 6.394121182377791e-01	 1.466681917123116e+00	 4.810286063619950e+00
 6.058104818172244e-01	 1.480877260541401e+00	 4.516818705219682e+00
 5.720494995834655e-01	 1.494243363356876e+00	 4.233711927262812e+00
 5.381584013103314e-01	 1.506781142788726e+00	 3.960329874554368e+00
 5.041660657444063e-01	 1.518492816714911e+00	 3.696008755834006e+00
 4.701009529884130e-01	 1.529381866089396e+00	 3.440053083148769e+00
 4.359910405534112e-01	 1.539452993513330e+00	 3.191731953738378e+00
 4.018637632994256e-01	 1.548712078323922e+00	 2.950275426096600e+00
 3.677459574467972e-01	 1.557166128574941e+00	 2.714871038262348e+00
 3.336638088033086e-01	 1.564823230289037e+00	 2.484660513226505e+00
 6.788323613649613e-01	 1.464619189382567e+00	 5.180045478395394e+00
 6.451212473062347e-01	 1.479777503095249e+00	 4.879813092818903e+00
 6.112195914240951e-01	 1.494099592699866e+00	 4.589588685329383e+00
 5.771571669751691e-01	 1.507585037647940e+00	 4.308788891164843e+00
 5.429634647176713e-01	 1.520234763348278e+00	 4.036809111472810e+00
 5.086676212483486e-01	 1.532051007481673e+00	 3.773019467917649e+00
 4.742983507821348e-01	 1.543037282082569e+00	 3.516760733306197e+00
 4.398838806333749e-01	 1.553198331740336e+00	 3.267340295504696e+00
 4.054518906202008e-01	 1.562540088287140e+00	 3.024028207702998e+00
 3.710294565759769e-01	 1.571069622349703e+00	 2.786053374317641e+00
 3.366429981141584e-01	 1.578795092148498e+00	 2.552599918585361e+00
 6.848398334693059e-01	 1.477580650006715e+00	 5.244537992780081e+00
 6.508303856996792e-01	 1.492873110456881e+00	 4.948166674293326e+00
 6.166287098658833e-01	 1.507321946454855e+00	 4.660935338334353e+00
 5.822648427093918e-01	 1.520926733730455e+00	 4.382281870074195e+00
 5.477685359732346e-01	 1.533688405882126e+00	 4.111624269124825e+00
 5.131691841047463e-01	 1.545609220393526e+00	 3.848356435385984e+00
 4.784957554314886e-01	 1.556692720379631e+00	 3.591843926968490e+00
 4.437767270715026e-01	 1.566943692418100e+00	 3.341419747471573e+00
 4.090400238014310e-01	 1.576368120836146e+00	 3.096380215443512e+00
 3.743129610680549e-01	 1.584973138833540e+00	 2.855980964953471e+00
 3.396221922908876e-01	 1.592766976828704e+00	 2.619433122937737e+00
 6.908473139841474e-01	 1.490542128776837e+00	 5.308321867940499e+00
 6.565395320859277e-01	 1.505968736152311e+00	 5.015496275938677e+00
 6.220378358804222e-01	 1.520544318721102e+00	 4.731031114577146e+00
 5.873725255943202e-01	 1.534268448491324e+00	 4.454378696181112e+00
 5.525736139558346e-01	 1.547142067251067e+00	 4.184971215471610e+00
 5.176707532632490e-01	 1.559167452286884e+00	 3.922216494091618e+00
 4.826931659571100e-01	 1.570348177794324e+00	 3.665493700135340e+00
 4.476695789595063e-01	 1.580689072339393e+00	 3.414149098359182e+00
 4.126281620059352e-01	 1.590196172744423e+00	 3.167491882060818e+00
 3.775964701569311e-01	 1.598876674782327e+00	 2.924790133600307e+00
 3.426013906383933e-01	 1.606738881069568e+00	 2.685266957293702e+00
 6.968548015076812e-01	 1.503503622668521e+00	 5.371511990485628e+00
 6.622486851327958e-01	 1.519064377125835e+00	 5.081946643335317e+00
 6.274469682055451e-01	 1.533766706413344e+00	 4.800043055194671e+00
 5.924802144381417e-01	 1.547610178817451e+00	 4.525261362963566e+00
 5.573786975442838e-01	 1.560595744315900e+00	 4.257039797738903e+00
 5.221723276735055e-01	 1.572725699998159e+00	 3.994790513825487e+00
 4.868905813796346e-01	 1.584003651140387e+00	 3.737895402519552e+00
 4.515624353890979e-01	 1.594434468296983e+00	 3.485701943144975e+00
 4.162163043965322e-01	 1.604024240785459e+00	 3.237519138881421e+00
 3.808799830765049e-01	 1.612780226951937e+00	 2.992613580823691e+00
 3.455805924615731e-01	 1.620710801611011e+00	 2.750205680526165e+00
 7.028622946381037e-01	 1.516465128657361e+00	 5.434219581406404e+00
 6.679578435080994e-01	 1.532160030321748e+00	 5.147657946483423e+00
 6.328561055790856e-01	 1.546989106446313e+00	 4.868132970896061e+00
 5.975879080490418e-01	 1.560951921595736e+00	 4.595106225171198e+00
 5.621837856173949e-01	 1.574049433937420e+00	 4.328014053185861e+00
 5.266739062851655e-01	 1.586283960363764e+00	 4.066263609900522e+00
 4.910880007196984e-01	 1.597659137231560e+00	 3.809228900451906e+00
 4.554552954519890e-01	 1.608179877083638e+00	 3.556246868299214e+00
 4.198044501360410e-01	 1.617852321732738e+00	 3.306613574920136e+00
 3.841634990606759e-01	 1.626683792098246e+00	 3.059580509381203e+00
 3.485597970653248e-01	 1.634682735192947e+00	 2.814351063029651e+00
 7.088697919736107e-01	 1.529426643718942e+00	 5.496552295197609e+00
 6.736670058796532e-01	 1.545255692684351e+00	 5.212765919885888e+00
 6.382652467388765e-01	 1.560211515734747e+00	 4.935457612362497e+00
 6.026956052352083e-01	 1.574293673713084e+00	 4.664084189262062e+00
 5.669888770539799e-01	 1.587503132976426e+00	 4.398072409695241e+00
 5.311754880478785e-01	 1.599842230220111e+00	 4.136815344435998e+00
 4.952854229979372e-01	 1.611314632881585e+00	 3.879668769854805e+00
 4.593481582398922e-01	 1.621925295492131e+00	 3.625947627922939e+00
 4.233925983872811e-01	 1.631680412359747e+00	 3.374922588155418e+00
 3.874470173433437e-01	 1.640587366977126e+00	 3.125816743129007e+00
 3.515390037545456e-01	 1.648654678555294e+00	 2.877802466286211e+00
 7.148772921123988e-01	 1.542388164828856e+00	 5.558614314883139e+00
 6.793761709152731e-01	 1.558351361157939e+00	 5.277401996370159e+00
 6.436743904227521e-01	 1.573433931193380e+00	 5.002168832763314e+00
 6.078033048048269e-01	 1.587635432056398e+00	 4.732360894855590e+00
 5.717939707328523e-01	 1.600956838293715e+00	 4.467387876781904e+00
 5.356770719112932e-01	 1.613400506403615e+00	 4.206619917947267e+00
 4.994828472349865e-01	 1.624970134904201e+00	 3.949384479869054e+00
 4.632410228445188e-01	 1.635670720315228e+00	 3.694963311321336e+00
 4.269807483130713e-01	 1.645508509439972e+00	 3.442589529435453e+00
 3.907305371584079e-01	 1.654490948344454e+00	 3.191444840138896e+00
 3.545182118341331e-01	 1.662626628437968e+00	 2.940656918580542e+00
 7.208847936526629e-01	 1.555349688962692e+00	 5.620506443184716e+00
 6.850853372827741e-01	 1.571447032686810e+00	 5.341693435014919e+00
 6.490835353685449e-01	 1.586656349736946e+00	 5.068413742847826e+00
 6.129110055660850e-01	 1.600977193512580e+00	 4.800096887724852e+00
 5.765990655328243e-01	 1.614410546750085e+00	 4.536128227580420e+00
 5.401786568250596e-01	 1.626958785750686e+00	 4.275846351807210e+00
 5.036802724514819e-01	 1.638625640113148e+00	 4.018540567678581e+00
 4.671338883575810e-01	 1.649416148345699e+00	 3.763448502513379e+00
 4.305688990762302e-01	 1.659336609746896e+00	 3.509753839445310e+00
 3.940140577397680e-01	 1.668394532956102e+00	 3.256584200363892e+00
 3.574974206089847e-01	 1.676598581580888e+00	 3.003009187088286e+00
 3.277054475596566e-01	 1.536879588072675e+00	 2.345022382085562e+00
 2.942896394197481e-01	 1.543626630612252e+00	 2.128946333132239e+00
 2.609582370370435e-01	 1.549609699338690e+00	 1.923912074644954e+00
 2.277348167703377e-01	 1.554839594943745e+00	 1.733906890210056e+00
 1.946421534908471e-01	 1.559327958474682e+00	 1.562733225823431e+00
 1.617021913504131e-01	 1.563087213574030e+00	 1.413970991367447e+00
 1.289360188419721e-01	 1.566130508218708e+00	 1.290943561056055e+00
 9.636384807059289e-02	 1.568471656282942e+00	 1.196687591663945e+00
 6.400499812932171e-02	 1.570125079232223e+00	 1.133926733328934e+00
 3.187788245248261e-02	 1.571105748236902e+00	 1.105049265696546e+00
 0.000000000000000e+00	 1.571429126974074e+00	 1.112089652468965e+00
 3.306846250534405e-01	 1.550851394510401e+00	 2.415505415705484e+00
 2.969650330601949e-01	 1.557659774563367e+00	 2.195426803848662e+00
 2.633306141588863e-01	 1.563697235500412e+00	 1.986345225436687e+00
 2.298051590414819e-01	 1.568974676202594e+00	 1.792327858272158e+00
 1.964116496260302e-01	 1.573503843546176e+00	 1.617261986181692e+00
 1.631722295591158e-01	 1.577297274117268e+00	 1.464815850960671e+00
 1.301081790496060e-01	 1.580368235421320e+00	 1.338403245874470e+00
 9.723989395123935e-02	 1.582730666914771e+00	 1.241151979264788e+00
 6.458686898734058e-02	 1.584399121168951e+00	 1.175876291919768e+00
 3.216768498914947e-02	 1.585388705457435e+00	 1.145053268944317e+00
 0.000000000000000e+00	 1.585715024037928e+00	 1.150803246226195e+00
 3.336638088033086e-01	 1.564823230289037e+00	 2.484660513226505e+00
 2.996404323188487e-01	 1.571692947984227e+00	 2.260802075113363e+00
 2.657029962626957e-01	 1.577784801246143e+00	 2.047887034807318e+00
 2.318755056604246e-01	 1.583109787145346e+00	 1.850019569348327e+00
 1.981811494773361e-01	 1.587679758387314e+00	 1.671131654329272e+00
 1.646422708551647e-01	 1.591507364501976e+00	 1.514942621823805e+00
 1.312803417190977e-01	 1.594605992523555e+00	 1.384922472341630e+00
 9.811594167191655e-02	 1.596989707490964e+00	 1.284259079739196e+00
 6.516874106758115e-02	 1.598673193081649e+00	 1.215829382531318e+00
 3.245748813458684e-02	 1.599671692672685e+00	 1.182174611468495e+00
 0.000000000000000e+00	 1.600000951102682e+00	 1.185479561883227e+00
 3.366429981141584e-01	 1.578795092148498e+00	 2.552599918585361e+00
 3.023158365714739e-01	 1.585726147600425e+00	 2.325152146895020e+00
 2.680753827949167e-01	 1.591872393288765e+00	 2.108590445581464e+00
 2.339458561440598e-01	 1.597244924473769e+00	 1.907014171911529e+00
 1.999506526318324e-01	 1.601855699690321e+00	 1.724360878281802e+00
 1.661123148954805e-01	 1.605717481412379e+00	 1.564364729502278e+00
 1.324525065768595e-01	 1.608843776203160e+00	 1.430518656805643e+00
 9.899199102812779e-02	 1.611248774684285e+00	 1.326040398525563e+00
 6.575061423419873e-02	 1.612947291639554e+00	 1.253842531578973e+00
 3.274729182112705e-02	 1.613954706549799e+00	 1.216506553894646e+00
 0.000000000000000e+00	 1.614286904834791e+00	 1.216261036051566e+00
 3.396221922908876e-01	 1.592766976828704e+00	 2.619433122937737e+00
 3.049912451938341e-01	 1.599759370137553e+00	 2.388555409892978e+00
 2.704477732019946e-01	 1.605960008341164e+00	 2.168507736844438e+00
 2.360162100092825e-01	 1.611380084889633e+00	 1.963343859463295e+00
 2.017201586765864e-01	 1.616031664147421e+00	 1.776968786008700e+00
 1.675823613369835e-01	 1.619927621532703e+00	 1.613096205288837e+00
 1.336246733493040e-01	 1.623081583137882e+00	 1.475209604608917e+00
 9.986804181537626e-02	 1.625507865167492e+00	 1.366527239280559e+00
 6.633248835134857e-02	 1.627221413511901e+00	 1.289971069414769e+00
 3.303709598110238e-02	 1.628237743755919e+00	 1.248139735543243e+00
 0.000000000000000e+00	 1.628572881900711e+00	 1.243285602438589e+00
 3.426013906383933e-01	 1.606738881069568e+00	 2.685266957293702e+00
 3.076666575616935e-01	 1.613792612321206e+00	 2.451088692068487e+00
 2.728201669303748e-01	 1.620047643116225e+00	 2.227690532887450e+00
 2.380865667729871e-01	 1.625515265094705e+00	 2.019040852054492e+00
 2.034896671986657e-01	 1.630207648450840e+00	 1.828974951256257e+00
 1.690524098365944e-01	 1.634137781547173e+00	 1.661151649567639e+00
 1.347968417628433e-01	 1.637319410005468e+00	 1.519013485579818e+00
 1.007440938291653e-01	 1.639766975613346e+00	 1.405750707474244e+00
 6.691436328318605e-02	 1.641495555367928e+00	 1.324269179222280e+00
 3.332690054684517e-02	 1.642520800958194e+00	 1.277162286980515e+00
 0.000000000000000e+00	 1.642858878966899e+00	 1.266686887481442e+00
 3.455805924615731e-01	 1.620710801611011e+00	 2.750205680526167e+00
 3.103420730508159e-01	 1.627825870876976e+00	 2.512827302893589e+00
 2.751925634265017e-01	 1.634135294326828e+00	 2.286189811781453e+00
 2.401569259520681e-01	 1.639650461790754e+00	 2.074137378824070e+00
 2.052591777851377e-01	 1.644383649292800e+00	 1.880399361180294e+00
 1.705224600512337e-01	 1.648347958140015e+00	 1.708546197078580e+00
 1.359690115438899e-01	 1.651557253483665e+00	 1.561948810805789e+00
 1.016201468649982e-01	 1.654026102694607e+00	 1.443741713804504e+00
 6.749623889386641e-02	 1.655769713876872e+00	 1.356789943385153e+00
 3.361670545068771e-02	 1.656803874823768e+00	 1.303659936749545e+00
 0.000000000000000e+00	 1.657144892699808e+00	 1.286594395865389e+00
 3.485597970653248e-01	 1.634682735192947e+00	 2.814351063029651e+00
 3.130174910369654e-01	 1.641859142530455e+00	 2.573845075453336e+00
 2.775649621368211e-01	 1.648222958685861e+00	 2.344055913600125e+00
 2.422272870634201e-01	 1.653785671679549e+00	 2.128665661496356e+00
 2.070286900230696e-01	 1.658559663365526e+00	 1.931262385678075e+00
 1.719925116378218e-01	 1.662558147995457e+00	 1.755295483987638e+00
 1.371411824188563e-01	 1.665795110250220e+00	 1.604034410610152e+00
 1.024962007183783e-01	 1.668285243084035e+00	 1.480530977442423e+00
 6.807811504754498e-02	 1.670043885707968e+00	 1.387585387479535e+00
 3.390651062496230e-02	 1.671086962019786e+00	 1.327716112629261e+00
 0.000000000000000e+00	 1.671430919765895e+00	 1.303133686532268e+00
 3.515390037545456e-01	 1.648654678555294e+00	 2.877802466286211e+00
 3.156929108959057e-01	 1.655892424007237e+00	 2.634214406529960e+00
 2.799373625077779e-01	 1.662310632906206e+00	 2.401338548313767e+00
 2.442976496239377e-01	 1.667920891462859e+00	 2.182657898778171e+00
 2.087982034995289e-01	 1.672735687361241e+00	 1.981584748320939e+00
 1.734625642532792e-01	 1.676768347797720e+00	 1.801415616655699e+00
 1.383133541141546e-01	 1.680032976982881e+00	 1.645289413661309e+00
 1.033722551848087e-01	 1.682544393454391e+00	 1.516149029117986e+00
 6.865999160837707e-02	 1.684318067530453e+00	 1.416706522031781e+00
 3.419631600200129e-02	 1.685370059213394e+00	 1.349412037746371e+00
 0.000000000000000e+00	 1.685716956831615e+00	 1.316426539742358e+00
 3.545182118341331e-01	 1.662626628437968e+00	 2.940656918580545e+00
 3.183683320034011e-01	 1.669925712032915e+00	 2.694006294786590e+00
 2.823097639858171e-01	 1.676398313700747e+00	 2.458086803373808e+00
 2.463680131505155e-01	 1.682056117842452e+00	 2.236146251605104e+00
 2.105677178015833e-01	 1.686911717972173e+00	 2.031387498792676e+00
 1.749326175545266e-01	 1.690978554231035e+00	 1.846923142006484e+00
 1.394855263561973e-01	 1.694270850359393e+00	 1.685733227148692e+00
 1.042483100597928e-01	 1.696803550478436e+00	 1.550626214056073e+00
 6.924186844051797e-02	 1.698592256013564e+00	 1.444203382172268e+00
 3.448612151413695e-02	 1.699653163071737e+00	 1.368826821842329e+00
 0.000000000000000e+00	 1.700003000563425e+00	 1.326591115716156e+00
 3.574974206089847e-01	 1.676598581580888e+00	 3.003009187088289e+00
 3.210437537352151e-01	 1.683959003333080e+00	 2.753290377162355e+00
 2.846821660173839e-01	 1.690485997782369e+00	 2.514349151005383e+00
 2.484383771600480e-01	 1.696191347520098e+00	 2.289162829185952e+00
 2.123372325162998e-01	 1.701087751890542e+00	 2.080691986745664e+00
 1.764026711984843e-01	 1.705188763979623e+00	 1.891835019399907e+00
 1.406576988713968e-01	 1.708508727057505e+00	 1.725385517962341e+00
 1.051243651388339e-01	 1.711062710828929e+00	 1.583992694770921e+00
 6.982374540812293e-02	 1.712866447826537e+00	 1.470125065309229e+00
 3.477592709370159e-02	 1.713936270261961e+00	 1.386037547977939e+00
 0.000000000000000e+00	 1.714289047627778e+00	 1.333742105346344e+00
 1.714289047627778e+00	 0.000000000000000e+00	 1.186702905740238e+01
 1.713936270261961e+00	 3.477592709370207e-02	 1.191503314972852e+01
 1.712866447826537e+00	 6.982374540812339e-02	 1.195026926400180e+01
 1.711062710828929e+00	 1.051243651388343e-01	 1.197540759993334e+01
 1.708508727057505e+00	 1.406576988713972e-01	 1.199294862900177e+01
 1.705188763979623e+00	 1.764026711984846e-01	 1.200520155476944e+01
 1.701087751890541e+00	 2.123372325163000e-01	 1.201426282255759e+01
 1.696191347520097e+00	 2.484383771600481e-01	 1.202199483891848e+01
 1.690485997782368e+00	 2.846821660173839e-01	 1.203000507184800e+01
 1.683959003333080e+00	 3.210437537352151e-01	 1.203962571240398e+01
 1.676598581580888e+00	 3.574974206089848e-01	 1.205189408716989e+01
 1.728574095521189e+00	 0.000000000000000e+00	 1.182233958158776e+01
 1.728218378486883e+00	 3.506571240396094e-02	 1.187295811660984e+01
 1.727139641297820e+00	 7.040558167873665e-02	 1.191059925676652e+01
 1.725320873889139e+00	 1.060003589459308e-01	 1.193795169248820e+01
 1.722745607954046e+00	 1.418297894041265e-01	 1.195752309731351e+01
 1.719397979861821e+00	 1.778726220261430e-01	 1.197161797566742e+01
 1.715262794332935e+00	 2.141066234704215e-01	 1.198231560537009e+01
 1.710325588575774e+00	 2.505085963676164e-01	 1.199144824272017e+01
 1.704572696567506e+00	 2.870544021224812e-01	 1.200057976849865e+01
 1.697991313141118e+00	 3.237189883473828e-01	 1.201098496287247e+01
 1.690569557521760e+00	 3.604764210173156e-01	 1.202362960577543e+01
 1.742859145080407e+00	 0.000000000000000e+00	 1.178088619309868e+01
 1.742500488377288e+00	 3.535549774782452e-02	 1.183370193163590e+01
 1.741412836433600e+00	 7.098741801690599e-02	 1.187346099972486e+01
 1.739579038612174e+00	 1.068763528548506e-01	 1.190285198153115e+01
 1.736982490511031e+00	 1.430018800732304e-01	 1.192436994129779e+01
 1.733607197401348e+00	 1.793425730249776e-01	 1.194029374445249e+01
 1.729437838428791e+00	 2.158760146307364e-01	 1.195266353257563e+01
 1.724459831280267e+00	 2.525788158165745e-01	 1.196325852752672e+01
 1.718659396996017e+00	 2.894266385043066e-01	 1.197357535037760e+01
 1.712023624586264e+00	 3.263942232717196e-01	 1.198480705018497e+01
 1.704540535092635e+00	 3.634554217733189e-01	 1.199782304588757e+01
 1.757144197972236e+00	 0.000000000000000e+00	 1.174257305359861e+01
 1.756782601599632e+00	 3.564528315913626e-02	 1.179717092049881e+01
 1.755686034899275e+00	 7.156925449056786e-02	 1.183876037439100e+01
 1.753837206661650e+00	 1.077523469678567e-01	 1.187001178367458e+01
 1.751219376389558e+00	 1.441739710155140e-01	 1.189338829831535e+01
 1.747816418256035e+00	 1.808125243665337e-01	 1.191112272892543e+01
 1.743612885831910e+00	 2.176454062037084e-01	 1.192519465243159e+01
 1.738594077282574e+00	 2.546490357484635e-01	 1.193730792713182e+01
 1.732746100711309e+00	 2.917988754396157e-01	 1.194886880999173e+01
 1.726055939305545e+00	 3.290694588203119e-01	 1.196096487800925e+01
 1.718511515923357e+00	 3.664344232245056e-01	 1.197434496321549e+01
 1.771429255863481e+00	 0.000000000000000e+00	 1.170730865389347e+01
 1.771064719820369e+00	 3.593506867173953e-02	 1.176327567453698e+01
 1.769959238360241e+00	 7.215109116765889e-02	 1.180640754442129e+01
 1.768095379701184e+00	 1.086283413872122e-01	 1.183933877871673e+01
 1.765456267250724e+00	 1.453460623677827e-01	 1.186448179846008e+01
 1.762025644083712e+00	 1.822824762223564e-01	 1.188400345106522e+01
 1.757787938196089e+00	 2.194147983958013e-01	 1.189980184359153e+01
 1.752728328231689e+00	 2.567192564048238e-01	 1.191348367912141e+01
 1.746832809356790e+00	 2.941711132051639e-01	 1.192634229620407e+01
 1.740088258935989e+00	 3.317446953052459e-01	 1.193933661973597e+01
 1.732482501643770e+00	 3.694134257183873e-01	 1.195307123870642e+01
 1.785714320420949e+00	 0.000000000000000e+00	 1.167500564069474e+01
 1.785346844705957e+00	 3.622485431947773e-02	 1.173193087689354e+01
 1.784232448481896e+00	 7.273292811611563e-02	 1.177631677801928e+01
 1.782353559394390e+00	 1.095043362151798e-01	 1.181074482577224e+01
 1.779693164755627e+00	 1.465181542668418e-01	 1.183755837254494e+01
 1.776234876542209e+00	 1.837524287639910e-01	 1.185883888567153e+01
 1.771962997175129e+00	 2.211841914134787e-01	 1.187638260389618e+01
 1.766862585776610e+00	 2.587894780271963e-01	 1.189167780401291e+01
 1.760919524575868e+00	 2.965433520777065e-01	 1.190588288464404e+01
 1.754120585114621e+00	 3.344199330386080e-01	 1.191980548181790e+01
 1.746453493883714e+00	 3.723924296024745e-01	 1.193388283721780e+01
 1.799999393311444e+00	 0.000000000000000e+00	 1.164558065163593e+01
 1.799628977922850e+00	 3.651464013619429e-02	 1.170305513695896e+01
 1.798505666929638e+00	 7.331476540387465e-02	 1.174840627880952e+01
 1.796611747404884e+00	 1.103803315540226e-01	 1.178414578818024e+01
 1.793930070565364e+00	 1.476902468494966e-01	 1.181253006926690e+01
 1.790444117289355e+00	 1.852223821629827e-01	 1.183553626864868e+01
 1.786138064422830e+00	 2.229535854632044e-01	 1.185483884929624e+01
 1.780996851566330e+00	 2.608597008571214e-01	 1.187178689501073e+01
 1.775006248011951e+00	 2.989155923339993e-01	 1.188738235917764e+01
 1.768152919478469e+00	 3.370951723324846e-01	 1.190225947853711e+01
 1.760424494273034e+00	 3.753714352242781e-01	 1.191666557787297e+01
 1.814284476201773e+00	 0.000000000000000e+00	 1.161895415808729e+01
 1.813911121137507e+00	 3.680442615573260e-02	 1.167657083264093e+01
 1.812778895368865e+00	 7.389660309887248e-02	 1.172259802471291e+01
 1.810869945396284e+00	 1.112563275060036e-01	 1.175946136670564e+01
 1.808166986341034e+00	 1.488623402525523e-01	 1.178931288104475e+01
 1.804653367982980e+00	 1.866923365908769e-01	 1.181400691439964e+01
 1.800313141592991e+00	 2.247229807514419e-01	 1.183507672234857e+01
 1.795131127249848e+00	 2.629299251361402e-01	 1.185371191779274e+01
 1.789092981308450e+00	 3.012878342507974e-01	 1.187073700382786e+01
 1.782185263664559e+00	 3.397704134989622e-01	 1.188659121756948e+01
 1.774395504441572e+00	 3.783504429313092e-01	 1.190130991545627e+01
 1.828569570758740e+00	 0.000000000000000e+00	 1.159505031534238e+01
 1.828193276016381e+00	 3.709421241193604e-02	 1.165240396003340e+01
 1.827052135464973e+00	 7.447844126904567e-02	 1.169881761438640e+01
 1.825128155032205e+00	 1.121323241733859e-01	 1.173661494058040e+01
 1.822403913743735e+00	 1.500344346128143e-01	 1.176782657805538e+01
 1.818862630280913e+00	 1.881622922192187e-01	 1.179416604183143e+01
 1.814488230339411e+00	 2.264923774846551e-01	 1.181700640976192e+01
 1.809265414476158e+00	 2.650001511057931e-01	 1.183735801977907e+01
 1.803179726108771e+00	 3.036600781048565e-01	 1.185584740457351e+01
 1.796217619309920e+00	 3.424456568501271e-01	 1.187269769575638e+01
 1.788366526019169e+00	 3.813294530710787e-01	 1.188771073224362e+01
 1.842854678649152e+00	 0.000000000000000e+00	 1.157379681977614e+01
 1.842475444225930e+00	 3.738399893864804e-02	 1.163048399008307e+01
 1.841325388883362e+00	 7.506027998233086e-02	 1.167699412081591e+01
 1.839386377976264e+00	 1.130083216584323e-01	 1.171553341595872e+01
 1.836640854434564e+00	 1.512065300670879e-01	 1.174799455002355e+01
 1.833071905840984e+00	 1.896322492195532e-01	 1.177593260850478e+01
 1.828663332315891e+00	 2.282617758693076e-01	 1.180054196850106e+01
 1.823399714894257e+00	 2.670703790076208e-01	 1.182263434836824e+01
 1.817266484056323e+00	 3.060323241729319e-01	 1.184261826049050e+01
 1.810249988051576e+00	 3.451209026980651e-01	 1.186048010452903e+01
 1.802337560635670e+00	 3.843084659910977e-01	 1.187576713970208e+01
 1.857139801539814e+00	 0.000000000000000e+00	 1.155512477259924e+01
 1.856757627432609e+00	 3.767378576971200e-02	 1.161074373187676e+01
 1.855598657289427e+00	 7.564211930666453e-02	 1.165705995167762e+01
 1.853644615892075e+00	 1.138843200634058e-01	 1.169614708138728e+01
 1.850877810074617e+00	 1.523786267521784e-01	 1.172974365534731e+01
 1.847281196321023e+00	 1.911022077634259e-01	 1.175922915248927e+01
 1.842838449176228e+00	 2.300311761118631e-01	 1.178560115998827e+01
 1.837534030153142e+00	 2.691406090831643e-01	 1.180945387765789e+01
 1.831353256794514e+00	 3.084045727317791e-01	 1.183095820373198e+01
 1.824282371526556e+00	 3.477961513548631e-01	 1.184984364446587e+01
 1.816308609920916e+00	 3.872874820388771e-01	 1.186538228952672e+01
 1.676598581580888e+00	 3.574974206089848e-01	 1.205189408716989e+01
 1.668394532956103e+00	 3.940140577397678e-01	 1.206196968434283e+01
 1.659336609746896e+00	 4.305688990762300e-01	 1.206501547777853e+01
 1.649416148345699e+00	 4.671338883575807e-01	 1.206175641698269e+01
 1.638625640113148e+00	 5.036802724514817e-01	 1.205280321275623e+01
 1.626958785750686e+00	 5.401786568250593e-01	 1.203864695822927e+01
 1.614410546750085e+00	 5.765990655328240e-01	 1.201965420474387e+01
 1.600977193512580e+00	 6.129110055660848e-01	 1.199606256632319e+01
 1.586656349736946e+00	 6.490835353685447e-01	 1.196797693253298e+01
 1.571447032686810e+00	 6.850853372827735e-01	 1.193536637548813e+01
 1.555349688962692e+00	 7.208847936526629e-01	 1.189806184233990e+01
 1.690569557521760e+00	 3.604764210173156e-01	 1.202362960577543e+01
 1.682297145147446e+00	 3.972973486709880e-01	 1.203405142006127e+01
 1.673163742912899e+00	 4.341567988833240e-01	 1.203781757098134e+01
 1.663160615017326e+00	 4.710264816027064e-01	 1.203560722298915e+01
 1.652280190252409e+00	 5.078774040989901e-01	 1.202798221352297e+01
 1.640516116827987e+00	 5.446799268967493e-01	 1.201538181367754e+01
 1.627863314250304e+00	 5.814038242630720e-01	 1.199811795434297e+01
 1.614318021842113e+00	 6.180183490931940e-01	 1.197637099077571e+01
 1.599877843500642e+00	 6.544923019970287e-01	 1.195018608478941e+01
 1.584541788300445e+00	 6.907941043493352e-01	 1.191947028991952e+01
 1.568310306563534e+00	 7.268918750263221e-01	 1.188399043077285e+01
 1.704540535092635e+00	 3.634554217733189e-01	 1.199782304588757e+01
 1.696199758960834e+00	 4.005806399854069e-01	 1.200854009373458e+01
 1.686990877692122e+00	 4.377446991091438e-01	 1.201294785860018e+01
 1.676905083292483e+00	 4.749190753020670e-01	 1.201168123640572e+01
 1.665934741984644e+00	 5.120745362362030e-01	 1.200525515080859e+01
 1.654073449486839e+00	 5.491811974935525e-01	 1.199405945233245e+01
 1.641316083319784e+00	 5.862085835537597e-01	 1.197835428959178e+01
 1.627658851727757e+00	 6.231256932159654e-01	 1.195826602461571e+01
 1.613099338806441e+00	 6.599010692562723e-01	 1.193378377069737e+01
 1.597636545441326e+00	 6.965028720816038e-01	 1.190475663762523e+01
 1.581270925675919e+00	 7.328989571004662e-01	 1.187089177534267e+01
 1.718511515923357e+00	 3.664344232245056e-01	 1.197434496321549e+01
 1.710102376018112e+00	 4.038639320660273e-01	 1.198530577822324e+01
 1.700818015697596e+00	 4.413326001722281e-01	 1.199027749631992e+01
 1.690649554774556e+00	 4.788116699097500e-01	 1.198985221558701e+01
 1.679589296902752e+00	 5.162716693527420e-01	 1.198449985348949e+01
 1.667630785308807e+00	 5.536824691405806e-01	 1.197456318330716e+01
 1.654768855527909e+00	 5.910133439654144e-01	 1.196025334532849e+01
 1.640999684725852e+00	 6.282330385302358e-01	 1.194164590366406e+01
 1.626320837196780e+00	 6.653098377772834e-01	 1.191867752619648e+01
 1.610731305637117e+00	 7.022116411455900e-01	 1.189114337192743e+01
 1.594231547811875e+00	 7.389060405759064e-01	 1.185869527655680e+01
 1.732482501643770e+00	 3.694134257183873e-01	 1.195307123870642e+01
 1.724004997941130e+00	 4.071472252958528e-01	 1.196422386561333e+01
 1.714645158542355e+00	 4.449205024911146e-01	 1.196968290149406e+01
 1.704394031066931e+00	 4.827042658798432e-01	 1.196999907327030e+01
 1.693243856599635e+00	 5.204688039382299e-01	 1.196559914984010e+01
 1.681188125875464e+00	 5.581837423629465e-01	 1.195678111467756e+01
 1.668221632444061e+00	 5.958181060585634e-01	 1.194370981193578e+01
 1.654340522392739e+00	 6.333403856318414e-01	 1.192641313557246e+01
 1.639542340214093e+00	 6.707186081910695e-01	 1.190477883795585e+01
 1.623826070415485e+00	 7.079204122073055e-01	 1.187855204151364e+01
 1.607192174483439e+00	 7.449131261534553e-01	 1.184733354399968e+01
 1.746453493883714e+00	 3.723924296024745e-01	 1.193388283721780e+01
 1.737907626351737e+00	 4.104305200578861e-01	 1.194517482376983e+01
 1.728472307839431e+00	 4.485084064843417e-01	 1.195104550972411e+01
 1.718138513772992e+00	 4.865968636664336e-01	 1.195200563524800e+01
 1.706898422668192e+00	 5.246659404822887e-01	 1.194844063027827e+01
 1.694745472768375e+00	 5.626850176857625e-01	 1.194060592218374e+01
 1.681674415637626e+00	 6.006228703937345e-01	 1.192862271177570e+01
 1.667681366284758e+00	 6.384477351166188e-01	 1.191247428565490e+01
 1.652763849400814e+00	 6.761273811286392e-01	 1.189200294014201e+01
 1.636920841304096e+00	 7.136291859327605e-01	 1.186690759954993e+01
 1.620152807202639e+00	 7.509202145339247e-01	 1.183674221906143e+01
 1.760424494273034e+00	 3.753714352242781e-01	 1.191666557787297e+01
 1.751810262871778e+00	 4.137138167351304e-01	 1.192804396471042e+01
 1.742299465201855e+00	 4.520963125704471e-01	 1.193425154329610e+01
 1.731883004496130e+00	 4.904894637236090e-01	 1.193576041083703e+01
 1.720552996701325e+00	 5.288630794745405e-01	 1.193291642175381e+01
 1.708302827569110e+00	 5.671862956341406e-01	 1.192593462933186e+01
 1.695127206677984e+00	 6.054276375314546e-01	 1.191489518669782e+01
 1.681022217958248e+00	 6.435550875804049e-01	 1.189973977338546e+01
 1.665985366299380e+00	 6.815361572210009e-01	 1.188026862137199e+01
 1.650015619830615e+00	 7.193379629879657e-01	 1.185613822242979e+01
 1.633113447481505e+00	 7.569273064181260e-01	 1.182685980669063e+01
 1.774395504441572e+00	 3.783504429313092e-01	 1.190130991545627e+01
 1.765712909123104e+00	 4.169971157105886e-01	 1.191272122414799e+01
 1.756126632242661e+00	 4.556842211679692e-01	 1.191919179082029e+01
 1.745627504839728e+00	 4.943820665054570e-01	 1.192115637449412e+01
 1.734207580291934e+00	 5.330602214046075e-01	 1.191892297313808e+01
 1.721860191859237e+00	 5.716875767331930e-01	 1.191266839826777e+01
 1.708580007134521e+00	 6.102324080322513e-01	 1.190243429600987e+01
 1.694363078969549e+00	 6.486624436190352e-01	 1.188812367897417e+01
 1.679206892452224e+00	 6.869449370991629e-01	 1.186949804129007e+01
 1.663110407522708e+00	 7.250467440389313e-01	 1.184617513762747e+01
 1.646074096832072e+00	 7.629344025068715e-01	 1.181762751567306e+01
 1.788366526019169e+00	 3.813294530710787e-01	 1.188771073224362e+01
 1.779615566727561e+00	 4.202804173672640e-01	 1.189910095159069e+01
 1.769953810574883e+00	 4.592721326954460e-01	 1.190576139746118e+01
 1.759372016407173e+00	 4.982746724660650e-01	 1.190809075796773e+01
 1.747862175032921e+00	 5.372573667621118e-01	 1.190636085101281e+01
 1.735417567220324e+00	 5.761888615080321e-01	 1.190071233083313e+01
 1.722032818576619e+00	 6.150371824566518e-01	 1.189115082433873e+01
 1.707703950875002e+00	 6.537698038283475e-01	 1.187754355946981e+01
 1.692428429401783e+00	 6.923537213941328e-01	 1.185961655624168e+01
 1.676205205908041e+00	 7.307555297516691e-01	 1.183695246015758e+01
 1.659034756766367e+00	 7.689415035009731e-01	 1.180898910697029e+01
 1.802337560635670e+00	 3.843084659910977e-01	 1.187576713970208e+01
 1.793518237306999e+00	 4.235637220881598e-01	 1.188708171042660e+01
 1.783781001811550e+00	 4.628600475714155e-01	 1.189385966518298e+01
 1.773116540801850e+00	 5.021672820595204e-01	 1.189646485241434e+01
 1.761516782517186e+00	 5.414545160366759e-01	 1.189513454529366e+01
 1.748974955233941e+00	 5.806901504837704e-01	 1.188997527925118e+01
 1.735485642573661e+00	 6.198419613651838e-01	 1.188095909884452e+01
 1.721044835230948e+00	 6.588771688041771e-01	 1.186792027387216e+01
 1.705649978690491e+00	 6.977625107369195e-01	 1.185055255355051e+01
 1.689300016514280e+00	 7.364643207921889e-01	 1.182840703717358e+01
 1.671995428796423e+00	 7.749486101012426e-01	 1.180089074968023e+01
 1.816308609920916e+00	 3.872874820388771e-01	 1.186538228952672e+01
 1.807420922483264e+00	 4.268470302562786e-01	 1.187656608745512e+01
 1.797608207565696e+00	 4.664479662144158e-01	 1.188338986247105e+01
 1.786861079627148e+00	 5.060598957399112e-01	 1.188618381994245e+01
 1.775171404337629e+00	 5.456516697179217e-01	 1.188515228415870e+01
 1.762532357481656e+00	 5.851914441855203e-01	 1.188036966592356e+01
 1.748938480695031e+00	 6.246467453183742e-01	 1.187177681528415e+01
 1.734385733593725e+00	 6.639845391423612e-01	 1.185917781676869e+01
 1.718871541860783e+00	 7.031713057585306e-01	 1.184223729393532e+01
 1.702394840869089e+00	 7.421731178265019e-01	 1.182047830026695e+01
 1.684956114434273e+00	 7.809557230084924e-01	 1.179328088420930e+01
 1.555349688962692e+00	 7.208847936526629e-01	 1.189806184233990e+01
 1.538365007203576e+00	 7.564525453896814e-01	 1.185080229063018e+01
 1.520497485026512e+00	 7.917540877149108e-01	 1.178886162149768e+01
 1.501752032679311e+00	 8.267573745549470e-01	 1.171272597381406e+01
 1.482135081706625e+00	 8.614303939007104e-01	 1.162283362386011e+01
 1.461654593440430e+00	 8.957412568300415e-01	 1.151957282157282e+01
 1.440320061303935e+00	 9.296582877936430e-01	 1.140328026506645e+01
 1.418142506777267e+00	 9.631501156661962e-01	 1.127428791216424e+01
 1.395134468918961e+00	 9.961857650463246e-01	 1.113305820752997e+01
 1.371309987385168e+00	 1.028734747275635e+00	 1.097953072629609e+01
 1.346684578938213e+00	 1.060767150638615e+00	 1.081343614911815e+01
 1.568310306563534e+00	 7.268918750263221e-01	 1.188399043077285e+01
 1.551184092667272e+00	 7.627560102922637e-01	 1.183855535815889e+01
 1.533167681707038e+00	 7.983517178423892e-01	 1.177854139576499e+01
 1.514266024847395e+00	 8.336466845656623e-01	 1.170442073949228e+01
 1.494485607226607e+00	 8.686086316992264e-01	 1.161662091079899e+01
 1.473834456517870e+00	 9.032054045928206e-01	 1.151552242138756e+01
 1.452322145252416e+00	 9.374050637470668e-01	 1.140145704388682e+01
 1.429959786751590e+00	 9.711759766233089e-01	 1.127470682009687e+01
 1.406760024561010e+00	 1.004486909704372e+00	 1.113568500946524e+01
 1.382737015328290e+00	 1.037307120272059e+00	 1.098460041453322e+01
 1.357906405115834e+00	 1.069606447358677e+00	 1.082120281450408e+01
 1.581270925675919e+00	 7.328989571004662e-01	 1.187089177534267e+01
 1.564003179625969e+00	 7.690594759299150e-01	 1.182708025406052e+01
 1.545837879865191e+00	 8.049493487392900e-01	 1.176881059876711e+01
 1.526780018474901e+00	 8.405359953798863e-01	 1.169654192872786e+01
 1.506836134186976e+00	 8.757868703350351e-01	 1.161069189166993e+01
 1.486014321015837e+00	 9.106695532263362e-01	 1.151163414173192e+01
 1.464324230600748e+00	 9.451518406042934e-01	 1.139969639010254e+01
 1.441777068104277e+00	 9.792018385168768e-01	 1.127515916584186e+01
 1.418385581559138e+00	 1.012788055331077e+00	 1.113829997635807e+01
 1.394164044604415e+00	 1.045879494268859e+00	 1.098954781941159e+01
 1.369128232602603e+00	 1.078445745110314e+00	 1.082876308760431e+01
 1.594231547811875e+00	 7.389060405759064e-01	 1.185869527655680e+01
 1.576822269575201e+00	 7.753629430380167e-01	 1.181631830953224e+01
 1.558508080979141e+00	 8.115469811753018e-01	 1.175962249113892e+01
 1.539294015021777e+00	 8.474253078013222e-01	 1.168905473358001e+01
 1.519186664028611e+00	 8.829651106455277e-01	 1.160502369500419e+01
 1.498194188355300e+00	 9.181337036013143e-01	 1.150789705535034e+01
 1.476326318749155e+00	 9.528986192690015e-01	 1.139799933051802e+01
 1.453594352213986e+00	 9.872277022831201e-01	 1.127561036851446e+01
 1.430011141269625e+00	 1.021089202894761e+00	 1.114096467267832e+01
 1.405591076546650e+00	 1.054451870265986e+00	 1.099444515934079e+01
 1.380350062707676e+00	 1.087285044924608e+00	 1.083619907272272e+01
 1.607192174483439e+00	 7.449131261534553e-01	 1.184733354399968e+01
 1.589641364010496e+00	 7.816664123519513e-01	 1.180621366580733e+01
 1.571178286527056e+00	 8.181446159201138e-01	 1.175093274798068e+01
 1.551808015947974e+00	 8.543146226336708e-01	 1.168192636898364e+01
 1.531537198192393e+00	 8.901433534680959e-01	 1.159959508514230e+01
 1.510374059957227e+00	 9.255978565884824e-01	 1.150430148882641e+01
 1.488328411097860e+00	 9.606454006448713e-01	 1.139636776950511e+01
 1.465411640459374e+00	 9.952535688582588e-01	 1.127607392771738e+01
 1.441636705048751e+00	 1.029390353363743e+00	 1.114365679447082e+01
 1.417018112488103e+00	 1.063024249263388e+00	 1.099936550800445e+01
 1.391571896740206e+00	 1.096124347832640e+00	 1.084359334242979e+01
 1.620152807202639e+00	 7.509202145339247e-01	 1.183674221906143e+01
 1.602460464427385e+00	 7.879698846071012e-01	 1.179671311103897e+01
 1.583848497987105e+00	 8.247422537434151e-01	 1.174269930978513e+01
 1.564322022713442e+00	 8.612039406806343e-01	 1.167512593758749e+01
 1.543887738119204e+00	 8.973215996401301e-01	 1.159438634083083e+01
 1.522553937242588e+00	 9.330620130585675e-01	 1.150083891476666e+01
 1.500330509047090e+00	 9.683921856355834e-01	 1.139480439458433e+01
 1.477228934219098e+00	 1.003279439178514e+00	 1.127656376944861e+01
 1.453262274252797e+00	 1.037691507706341e+00	 1.114635697970806e+01
 1.428445153761881e+00	 1.071596632261015e+00	 1.100438256772808e+01
 1.402793736009346e+00	 1.104963654865492e+00	 1.085102872186374e+01
 1.633113447481505e+00	 7.569273064181260e-01	 1.182685980669063e+01
 1.615279572321401e+00	 7.942733605388487e-01	 1.178776592556803e+01
 1.596518716837457e+00	 8.313398954148942e-01	 1.173488224111142e+01
 1.576836036778132e+00	 8.680932627459149e-01	 1.166862430170479e+01
 1.556238285249923e+00	 9.044998499990216e-01	 1.158937914030109e+01
 1.534733821632353e+00	 9.405261738822969e-01	 1.149750184984008e+01
 1.512332613997067e+00	 9.761389751448170e-01	 1.139331258724063e+01
 1.489046234871818e+00	 1.011305314180105e+00	 1.127709416949281e+01
 1.464887850238044e+00	 1.045992666890878e+00	 1.114909043002397e+01
 1.439872201701093e+00	 1.080169020258817e+00	 1.100950550335438e+01
 1.414015581824253e+00	 1.113802967054246e+00	 1.085858807584335e+01
 1.646074096832072e+00	 7.629344025068715e-01	 1.181762751567306e+01
 1.628098689188072e+00	 8.005768408825760e-01	 1.177932373511234e+01
 1.609188944556280e+00	 8.379375417042396e-01	 1.172744359657815e+01
 1.589350059601992e+00	 8.749825896332135e-01	 1.166239396198392e+01
 1.568588841025432e+00	 9.116781053821615e-01	 1.158455645247215e+01
 1.546913714547490e+00	 9.479903399303972e-01	 1.149428375835027e+01
 1.524334727348017e+00	 9.838857700762513e-01	 1.139189633868492e+01
 1.500863543796188e+00	 1.019331194799254e+00	 1.127767968117662e+01
 1.476513434360772e+00	 1.054293831885672e+00	 1.115188229874272e+01
 1.451299257638845e+00	 1.088741414256743e+00	 1.101471464008025e+01
 1.425237435494077e+00	 1.122642285429984e+00	 1.086635409863659e+01
 1.659034756766367e+00	 7.689415035009731e-01	 1.180898910697029e+01
 1.640917816522931e+00	 8.068803263736651e-01	 1.177134037144415e+01
 1.621859182621744e+00	 8.445351933811411e-01	 1.172034729377545e+01
 1.601864092644973e+00	 8.818719221462324e-01	 1.165640894243145e+01
 1.580939406886612e+00	 9.188563666269413e-01	 1.157990243394301e+01
 1.559093617408970e+00	 9.554545120735956e-01	 1.149117896103773e+01
 1.536336850500164e+00	 9.916325713335676e-01	 1.139056017029071e+01
 1.512680862370868e+00	 1.027357081972180e+00	 1.127833506724931e+01
 1.488139027977261e+00	 1.062595003659041e+00	 1.115475763399887e+01
 1.462726322908246e+00	 1.097313815254742e+00	 1.102004534602679e+01
 1.436459298327973e+00	 1.131481611023788e+00	 1.087437877134533e+01
 1.671995428796423e+00	 7.749486101012426e-01	 1.180089074968023e+01
 1.653736955821508e+00	 8.131838177474986e-01	 1.176377174014899e+01
 1.634529432512017e+00	 8.511328512152869e-01	 1.171355899271994e+01
 1.614378137367023e+00	 8.887612610886734e-01	 1.165064468144251e+01
 1.593289984274342e+00	 9.260346345707517e-01	 1.157540233145972e+01
 1.571273531637759e+00	 9.629186911826185e-01	 1.148818254882797e+01
 1.548338984853731e+00	 9.993793798204444e-01	 1.138930905845194e+01
 1.524498191974515e+00	 1.035382976635103e+00	 1.127907523566431e+01
 1.499764632443794e+00	 1.070896183179308e+00	 1.115774132524403e+01
 1.474153398842403e+00	 1.105886224252765e+00	 1.102553254464955e+01
 1.447681171635097e+00	 1.140320944866739e+00	 1.088263826523128e+01
 1.684956114434273e+00	 7.809557230084924e-01	 1.179328088420930e+01
 1.666556108579333e+00	 8.194873157394583e-01	 1.175657569508472e+01
 1.647199695705267e+00	 8.577305159763660e-01	 1.170704598150054e+01
 1.626892195228096e+00	 8.956506072642391e-01	 1.164507792851501e+01
 1.605640574629505e+00	 9.332129100509844e-01	 1.157104238956224e+01
 1.583453458654829e+00	 9.703828781281937e-01	 1.148529030125900e+01
 1.560341131808945e+00	 1.007126196440562e+00	 1.138814836362372e+01
 1.536315533985785e+00	 1.043408879724244e+00	 1.127991517905182e+01
 1.511390249116649e+00	 1.079197371414791e+00	 1.116085805295680e+01
 1.485580486774423e+00	 1.114458642250760e+00	 1.103121066311094e+01
 1.458903056724601e+00	 1.149160287989920e+00	 1.089117180263200e+01
 1.346684578938213e+00	 1.060767150638615e+00	 1.081343614911815e+01
 1.321275203733934e+00	 1.092253732166055e+00	 1.063609674382282e+01
 1.295100217733402e+00	 1.123166013449718e+00	 1.044891207134753e+01
 1.268179341437932e+00	 1.153476356208247e+00	 1.025162417051964e+01
 1.240533615111960e+00	 1.183158040835369e+00	 1.004398336128057e+01
 1.212185344465141e+00	 1.212185344465141e+00	 9.825779428847039e+00
 1.183158040835369e+00	 1.240533615111961e+00	 9.596875408931766e+00
 1.153476356208246e+00	 1.268179341437933e+00	 9.357242895151836e+00
 1.123166013449718e+00	 1.295100217733403e+00	 9.106997668741288e+00
 1.092253732166054e+00	 1.321275203733934e+00	 8.846434370116208e+00
 1.060767150638615e+00	 1.346684578938213e+00	 8.576058896172986e+00
 1.357906405115834e+00	 1.069606447358677e+00	 1.082120281450408e+01
 1.332285295407249e+00	 1.101355404315454e+00	 1.064691693640432e+01
 1.305892195122514e+00	 1.132525275425623e+00	 1.046315460027775e+01
 1.278746989092457e+00	 1.163088192100015e+00	 1.026952832178280e+01
 1.250870892908526e+00	 1.193017212079803e+00	 1.006564725310947e+01
 1.222286398152247e+00	 1.222286398152248e+00	 9.851150665107028e+00
 1.193017212079802e+00	 1.250870892908527e+00	 9.625744328419966e+00
 1.163088192100015e+00	 1.278746989092458e+00	 9.389238654724984e+00
 1.132525275425623e+00	 1.305892195122514e+00	 9.141587329047621e+00
 1.101355404315453e+00	 1.332285295407250e+00	 8.882925076554228e+00
 1.069606447358677e+00	 1.357906405115834e+00	 8.613603166904596e+00
 1.369128232602603e+00	 1.078445745110314e+00	 1.082876308760431e+01
 1.343295388365096e+00	 1.110457077527072e+00	 1.065745123815600e+01
 1.316684173770791e+00	 1.141884538493812e+00	 1.047701115171724e+01
 1.289314637980051e+00	 1.172700029113527e+00	 1.028692103009791e+01
 1.261208171911349e+00	 1.202876384474809e+00	 1.008664305314883e+01
 1.232387453018106e+00	 1.232387453018106e+00	 9.875659261042390e+00
 1.202876384474808e+00	 1.261208171911349e+00	 9.653510653212567e+00
 1.172700029113527e+00	 1.289314637980052e+00	 9.419838302504518e+00
 1.141884538493811e+00	 1.316684173770792e+00	 9.174425143376761e+00
 1.110457077527072e+00	 1.343295388365097e+00	 8.917236997990145e+00
 1.078445745110314e+00	 1.369128232602603e+00	 8.648461358758841e+00
 1.380350062707676e+00	 1.087285044924608e+00	 1.083619907272272e+01
 1.354305483891912e+00	 1.119558752862599e+00	 1.066779079538414e+01
 1.327476154937207e+00	 1.151243803746028e+00	 1.049058009511653e+01
 1.299882289333497e+00	 1.182311868369999e+00	 1.030390614285251e+01
 1.271545453326321e+00	 1.212735559170472e+00	 1.010707840238575e+01
 1.242488510241032e+00	 1.242488510241033e+00	 9.899415016267769e+00
 1.212735559170472e+00	 1.271545453326321e+00	 9.680284746249354e+00
 1.182311868369999e+00	 1.299882289333497e+00	 9.449151201711761e+00
 1.151243803746028e+00	 1.327476154937208e+00	 9.205617939726274e+00
 1.119558752862599e+00	 1.354305483891912e+00	 8.949472917525050e+00
 1.087285044924608e+00	 1.380350062707676e+00	 8.680730727635380e+00
 1.391571896740206e+00	 1.096124347832640e+00	 1.084359334242979e+01
 1.365315583272132e+00	 1.128660431383724e+00	 1.067802690853099e+01
 1.338268139880734e+00	 1.160603072274015e+00	 1.050395974444959e+01
 1.310449944385579e+00	 1.191923710990649e+00	 1.032058734317199e+01
 1.281882738359330e+00	 1.222594737316876e+00	 1.012706076485393e+01
 1.252589570999343e+00	 1.252589570999343e+00	 9.922527631123447e+00
 1.222594737316875e+00	 1.281882738359331e+00	 9.706177032595942e+00
 1.191923710990648e+00	 1.310449944385579e+00	 9.477287015324229e+00
 1.160603072274015e+00	 1.338268139880735e+00	 9.235273151475138e+00
 1.128660431383724e+00	 1.365315583272132e+00	 8.979736588388802e+00
 1.096124347832640e+00	 1.391571896740206e+00	 8.710509914043323e+00
 1.402793736009346e+00	 1.104963654865492e+00	 1.085102872186374e+01
 1.376325687790191e+00	 1.137762114152136e+00	 1.068825082676905e+01
 1.349060129860346e+00	 1.169962345169516e+00	 1.051724816121082e+01
 1.321017604369081e+00	 1.201535558096693e+00	 1.033706795955051e+01
 1.292220028216271e+00	 1.232453920064102e+00	 1.014669724225256e+01
 1.262690636471355e+00	 1.262690636471356e+00	 9.945106524759071e+00
 1.232453920064102e+00	 1.292220028216272e+00	 9.731297819593884e+00
 1.201535558096693e+00	 1.321017604369082e+00	 9.504355527018559e+00
 1.169962345169516e+00	 1.349060129860347e+00	 9.263498637970791e+00
 1.137762114152136e+00	 1.376325687790191e+00	 9.008132553149927e+00
 1.104963654865492e+00	 1.402793736009346e+00	 8.737898760039350e+00
 1.414015581824253e+00	 1.113802967054246e+00	 1.085858807584335e+01
 1.387335798730527e+00	 1.146863802229525e+00	 1.069855354488247e+01
 1.359852126135016e+00	 1.179321623524276e+00	 1.053054295930566e+01
 1.331585270516789e+00	 1.211147410809349e+00	 1.035345077710685e+01
 1.302557324103033e+00	 1.242313108562236e+00	 1.016609439003885e+01
 1.272791707835383e+00	 1.272791707835383e+00	 9.967260654651374e+00
 1.242313108562235e+00	 1.302557324103034e+00	 9.755757118507944e+00
 1.211147410809349e+00	 1.331585270516789e+00	 9.530466463768573e+00
 1.179321623524276e+00	 1.359852126135016e+00	 9.290402507015912e+00
 1.146863802229524e+00	 1.387335798730527e+00	 9.034765965146459e+00
 1.113802967054246e+00	 1.414015581824252e+00	 8.762998128776795e+00
 1.425237435494077e+00	 1.122642285429984e+00	 1.086635409863659e+01
 1.398345917377575e+00	 1.155965496677579e+00	 1.070902560230830e+01
 1.370644129963715e+00	 1.188680908430038e+00	 1.054394111172888e+01
 1.342152944061485e+00	 1.220759270249834e+00	 1.036983785037366e+01
 1.312894627225508e+00	 1.252172303961360e+00	 1.018535803491210e+01
 1.282892786269745e+00	 1.282892786269745e+00	 9.989098337475623e+00
 1.252172303961359e+00	 1.312894627225508e+00	 9.779664467586937e+00
 1.220759270249834e+00	 1.342152944061485e+00	 9.555729320006110e+00
 1.188680908430037e+00	 1.370644129963716e+00	 9.316092939149335e+00
 1.155965496677578e+00	 1.398345917377575e+00	 9.059742412015375e+00
 1.122642285429984e+00	 1.425237435494076e+00	 8.785909726520956e+00
 1.436459298327973e+00	 1.131481611023788e+00	 1.087437877134533e+01
 1.409356045015772e+00	 1.165067198557988e+00	 1.071975688421902e+01
 1.381436142605417e+00	 1.198040200978544e+00	 1.055753875893256e+01
 1.352720626235953e+00	 1.230371137539366e+00	 1.038633031753615e+01
 1.323231938789585e+00	 1.262031507411558e+00	 1.020459309361210e+01
 1.292993872952757e+00	 1.292993872952757e+00	 1.001072707125585e+01
 1.262031507411557e+00	 1.323231938789586e+00	 9.803128756460112e+00
 1.230371137539366e+00	 1.352720626235953e+00	 9.580253183259217e+00
 1.198040200978543e+00	 1.381436142605418e+00	 9.340678013622313e+00
 1.165067198557988e+00	 1.409356045015773e+00	 9.083167741204424e+00
 1.131481611023788e+00	 1.436459298327974e+00	 8.807656073183656e+00
 1.447681171635097e+00	 1.140320944866739e+00	 1.088263826523128e+01
 1.420366182929554e+00	 1.174168908932441e+00	 1.073083642453408e+01
 1.392228165319096e+00	 1.207399502261539e+00	 1.057143101879046e+01
 1.363288318272978e+00	 1.239983013799161e+00	 1.040302821604042e+01
 1.333569260001157e+00	 1.271890720062913e+00	 1.022390339296006e+01
 1.303094969062733e+00	 1.303094969062734e+00	 1.003225335872409e+01
 1.271890720062912e+00	 1.333569260001157e+00	 9.826258051795580e+00
 1.239983013799161e+00	 1.363288318272979e+00	 9.604146561185917e+00
 1.207399502261539e+00	 1.392228165319096e+00	 9.364265535977321e+00
 1.174168908932441e+00	 1.420366182929554e+00	 9.105147887358648e+00
 1.140320944866739e+00	 1.447681171635097e+00	 8.830948247221704e+00
 1.458903056724601e+00	 1.149160287989920e+00	 1.089117180263200e+01
 1.431376332403356e+00	 1.183270628862627e+00	 1.074234864459147e+01
 1.403020199363723e+00	 1.216758813370768e+00	 1.058571179807233e+01
 1.373856021405344e+00	 1.249594900150438e+00	 1.042003029949635e+01
 1.343906592066114e+00	 1.281749943065508e+00	 1.024339149107363e+01
 1.313196075777992e+00	 1.313196075777993e+00	 1.005378253182162e+01
 1.281749943065507e+00	 1.343906592066115e+00	 9.849159424152075e+00
 1.249594900150437e+00	 1.373856021405345e+00	 9.627517209927898e+00
 1.216758813370767e+00	 1.403020199363723e+00	 9.386962867142234e+00
 1.183270628862627e+00	 1.431376332403357e+00	 9.125896510895767e+00
 1.149160287989920e+00	 1.458903056724601e+00	 8.855941394891802e+00
 1.060767150638615e+00	 1.346684578938213e+00	 8.576058896172986e+00
 1.028734747275635e+00	 1.371309987385168e+00	 8.295696357779768e+00
 9.961857650463243e-01	 1.395134468918961e+00	 8.004357217363207e+00
 9.631501156661958e-01	 1.418142506777268e+00	 7.701689792402275e+00
 9.296582877936426e-01	 1.440320061303935e+00	 7.390092428236295e+00
 8.957412568300408e-01	 1.461654593440431e+00	 7.082547605656522e+00
 8.614303939007100e-01	 1.482135081706625e+00	 6.780577492317791e+00
 8.267573745549465e-01	 1.501752032679311e+00	 6.483784000324297e+00
 7.917540877149102e-01	 1.520497485026513e+00	 6.191771684814647e+00
 7.564525453896809e-01	 1.538365007203576e+00	 5.904145224610692e+00
 7.208847936526629e-01	 1.555349688962692e+00	 5.620506443184716e+00
 1.069606447358677e+00	 1.357906405115834e+00	 8.613603166904596e+00
 1.037307120272059e+00	 1.382737015328291e+00	 8.333216050505007e+00
 1.004486909704371e+00	 1.406760024561010e+00	 8.040649153111318e+00
 9.711759766233082e-01	 1.429959786751590e+00	 7.735610304329542e+00
 9.374050637470666e-01	 1.452322145252417e+00	 7.428075147155212e+00
 9.032054045928201e-01	 1.473834456517870e+00	 7.125784238281867e+00
 8.686086316992259e-01	 1.494485607226608e+00	 6.828392108654109e+00
 8.336466845656616e-01	 1.514266024847395e+00	 6.535567772156621e+00
 7.983517178423887e-01	 1.533167681707038e+00	 6.246992065607505e+00
 7.627560102922631e-01	 1.551184092667272e+00	 5.962354380776862e+00
 7.268918750263222e-01	 1.568310306563534e+00	 5.681348890555276e+00
 1.078445745110314e+00	 1.369128232602603e+00	 8.648461358758841e+00
 1.045879494268859e+00	 1.394164044604415e+00	 8.367478107453890e+00
 1.012788055331076e+00	 1.418385581559138e+00	 8.073076274681393e+00
 9.792018385168759e-01	 1.441777068104277e+00	 7.767982697040592e+00
 9.451518406042926e-01	 1.464324230600748e+00	 7.465965784396555e+00
 9.106695532263354e-01	 1.486014321015837e+00	 7.168482528078495e+00
 8.757868703350344e-01	 1.506836134186976e+00	 6.875258325362163e+00
 8.405359953798860e-01	 1.526780018474900e+00	 6.586043484168817e+00
 8.049493487392894e-01	 1.545837879865191e+00	 6.300609739897189e+00
 7.690594759299142e-01	 1.564003179625969e+00	 6.018746106928055e+00
 7.328989571004663e-01	 1.581270925675919e+00	 5.740254179614297e+00
 1.087285044924608e+00	 1.380350062707676e+00	 8.680730727635380e+00
 1.054451870265985e+00	 1.405591076546650e+00	 8.398575080640311e+00
 1.021089202894760e+00	 1.430011141269625e+00	 8.101762475353750e+00
 9.872277022831192e-01	 1.453594352213985e+00	 7.800722626451707e+00
 9.528986192690011e-01	 1.476326318749156e+00	 7.503760872350049e+00
 9.181337036013135e-01	 1.498194188355299e+00	 7.210647292309819e+00
 8.829651106455275e-01	 1.519186664028611e+00	 6.921191437094184e+00
 8.474253078013217e-01	 1.539294015021778e+00	 6.635238745508783e+00
 8.115469811753013e-01	 1.558508080979141e+00	 6.352666107508442e+00
 7.753629430380159e-01	 1.576822269575201e+00	 6.073376704733326e+00
 7.389060405759063e-01	 1.594231547811876e+00	 5.797294257418979e+00
 1.096124347832640e+00	 1.391571896740206e+00	 8.710509914043323e+00
 1.063024249263387e+00	 1.417018112488103e+00	 8.426601287787578e+00
 1.029390353363742e+00	 1.441636705048751e+00	 8.129519846740752e+00
 9.952535688582581e-01	 1.465411640459374e+00	 7.833820230547603e+00
 9.606454006448711e-01	 1.488328411097861e+00	 7.541456224298781e+00
 9.255978565884818e-01	 1.510374059957227e+00	 7.252282480155200e+00
 8.901433534680955e-01	 1.531537198192394e+00	 6.966205651931384e+00
 8.543146226336705e-01	 1.551808015947975e+00	 6.683179801858279e+00
 8.181446159201131e-01	 1.571178286527056e+00	 6.403200880710569e+00
 7.816664123519507e-01	 1.589641364010496e+00	 6.126300428284587e+00
 7.449131261534554e-01	 1.607192174483440e+00	 5.852538638739247e+00
 1.104963654865492e+00	 1.402793736009346e+00	 8.737898760039350e+00
 1.071596632261015e+00	 1.428445153761882e+00	 8.451652629162560e+00
 1.037691507706341e+00	 1.453262274252797e+00	 8.158094146481400e+00
 1.003279439178513e+00	 1.477228934219099e+00	 7.867264968380262e+00
 9.683921856355830e-01	 1.500330509047090e+00	 7.579046909717142e+00
 9.330620130585670e-01	 1.522553937242589e+00	 7.293391154901698e+00
 8.973215996401297e-01	 1.543887738119204e+00	 7.010314083289393e+00
 8.612039406806341e-01	 1.564322022713443e+00	 6.729891539461260e+00
 8.247422537434145e-01	 1.583848497987105e+00	 6.452252102360828e+00
 7.879698846071006e-01	 1.602460464427385e+00	 6.177569517922450e+00
 7.509202145339245e-01	 1.620152807202639e+00	 5.906054456705191e+00
 1.113802967054246e+00	 1.414015581824252e+00	 8.762998128776795e+00
 1.080169020258817e+00	 1.439872201701093e+00	 8.475829455458669e+00
 1.045992666890877e+00	 1.464887850238044e+00	 8.187471198968394e+00
 1.011305314180105e+00	 1.489046234871818e+00	 7.901045594602913e+00
 9.761389751448162e-01	 1.512332613997067e+00	 7.616527232202886e+00
 9.405261738822962e-01	 1.534733821632353e+00	 7.333975478339264e+00
 9.044998499990210e-01	 1.556238285249923e+00	 7.053528743461099e+00
 8.680932627459145e-01	 1.576836036778132e+00	 6.775397490109180e+00
 8.313398954148933e-01	 1.596518716837457e+00	 6.499856164229675e+00
 7.942733605388482e-01	 1.615279572321401e+00	 6.227234233395750e+00
 7.569273064181261e-01	 1.633113447481505e+00	 5.957906511889285e+00
 1.122642285429984e+00	 1.425237435494076e+00	 8.785909726520956e+00
 1.088741414256743e+00	 1.451299257638846e+00	 8.501270200576029e+00
 1.054293831885671e+00	 1.476513434360772e+00	 8.217636079036563e+00
 1.019331194799253e+00	 1.500863543796189e+00	 7.935150136752385e+00
 9.838857700762512e-01	 1.524334727348017e+00	 7.653890709898086e+00
 9.479903399303966e-01	 1.546913714547491e+00	 7.374036697237678e+00
 9.116781053821611e-01	 1.568588841025433e+00	 7.095860538706237e+00
 8.749825896332130e-01	 1.589350059601992e+00	 6.819719837029533e+00
 8.379375417042393e-01	 1.609188944556281e+00	 6.546047825496583e+00
 8.005768408825752e-01	 1.628098689188072e+00	 6.275342886391522e+00
 7.629344025068716e-01	 1.646074096832072e+00	 6.008157319909891e+00
 1.131481611023788e+00	 1.436459298327974e+00	 8.807656073183656e+00
 1.097313815254742e+00	 1.462726322908246e+00	 8.527959329274662e+00
 1.062595003659041e+00	 1.488139027977262e+00	 8.248573092062934e+00
 1.027357081972179e+00	 1.512680862370868e+00	 7.969565875129726e+00
 9.916325713335669e-01	 1.536336850500164e+00	 7.691130058262249e+00
 9.554545120735946e-01	 1.559093617408970e+00	 7.413575131791516e+00
 9.188563666269405e-01	 1.580939406886611e+00	 7.137319265803015e+00
 8.818719221462320e-01	 1.601864092644972e+00	 6.862879421627927e+00
 8.445351933811404e-01	 1.621859182621744e+00	 6.590860231408272e+00
 8.068803263736645e-01	 1.640917816522931e+00	 6.321941872470167e+00
 7.689415035009731e-01	 1.659034756766367e+00	 6.056867157636164e+00
 1.140320944866739e+00	 1.447681171635097e+00	 8.830948247221704e+00
 1.105886224252765e+00	 1.474153398842404e+00	 8.555880022810957e+00
 1.070896183179307e+00	 1.499764632443794e+00	 8.280265756608522e+00
 1.035382976635102e+00	 1.524498191974515e+00	 8.004279325137732e+00
 9.993793798204437e-01	 1.548338984853732e+00	 7.728237175070176e+00
 9.629186911826177e-01	 1.571273531637760e+00	 7.452590165925674e+00
 9.260346345707511e-01	 1.593289984274343e+00	 7.177913609982783e+00
 8.887612610886730e-01	 1.614378137367024e+00	 6.904895751038188e+00
 8.511328512152861e-01	 1.634529432512017e+00	 6.634324932089651e+00
 8.131838177474978e-01	 1.653736955821508e+00	 6.367075702436864e+00
 7.749486101012426e-01	 1.671995428796423e+00	 6.104094108070900e+00
 1.149160287989920e+00	 1.458903056724601e+00	 8.855941394891802e+00
 1.114458642250760e+00	 1.485580486774424e+00	 8.585014558905499e+00
 1.079197371414790e+00	 1.511390249116649e+00	 8.312696789463697e+00
 1.043408879724243e+00	 1.536315533985785e+00	 8.039276221942945e+00
 1.007126196440562e+00	 1.560341131808945e+00	 7.765203127514702e+00
 9.703828781281930e-01	 1.583453458654829e+00	 7.491080239361594e+00
 9.332129100509838e-01	 1.605640574629505e+00	 7.217651144172223e+00
 8.956506072642383e-01	 1.626892195228096e+00	 6.945787006435776e+00
 8.577305159763654e-01	 1.647199695705267e+00	 6.676471901499383e+00
 8.194873157394577e-01	 1.666556108579334e+00	 6.410787033180885e+00
 7.809557230084923e-01	 1.684956114434272e+00	 6.149894103981989e+00
 7.208847936526629e-01	 1.555349688962692e+00	 5.620506443184714e+00
 6.850853372827741e-01	 1.571447032686810e+00	 5.341693435014918e+00
 6.490835353685449e-01	 1.586656349736946e+00	 5.068413742847824e+00
 6.129110055660850e-01	 1.600977193512580e+00	 4.800096887724849e+00
 5.765990655328243e-01	 1.614410546750085e+00	 4.536128227580420e+00
 5.401786568250596e-01	 1.626958785750686e+00	 4.275846351807207e+00
 5.036802724514819e-01	 1.638625640113148e+00	 4.018540567678579e+00
 4.671338883575810e-01	 1.649416148345699e+00	 3.763448502513379e+00
 4.305688990762302e-01	 1.659336609746896e+00	 3.509753839445310e+00
 3.940140577397680e-01	 1.668394532956102e+00	 3.256584200363897e+00
 3.574974206089847e-01	 1.676598581580888e+00	 3.003009187088289e+00
 7.268918750263222e-01	 1.568310306563534e+00	 5.681348890555274e+00
 6.907941043493353e-01	 1.584541788300445e+00	 5.404828076715017e+00
 6.544923019970291e-01	 1.599877843500642e+00	 5.133442486082036e+00
 6.180183490931941e-01	 1.614318021842112e+00	 4.866604797896423e+00
 5.814038242630725e-01	 1.627863314250304e+00	 4.603674892165822e+00
 5.446799268967494e-01	 1.640516116827987e+00	 4.343957867664900e+00
 5.078774040989904e-01	 1.652280190252410e+00	 4.086702193808483e+00
 4.710264816027066e-01	 1.663160615017326e+00	 3.831098009929901e+00
 4.341567988833242e-01	 1.673163742912899e+00	 3.576275579150567e+00
 3.972973486709883e-01	 1.682297145147446e+00	 3.321303899688140e+00
 3.604764210173155e-01	 1.690569557521760e+00	 3.065189474174988e+00
 7.328989571004663e-01	 1.581270925675919e+00	 5.740254179614299e+00
 6.965028720816041e-01	 1.597636545441325e+00	 5.465979877914073e+00
 6.599010692562729e-01	 1.613099338806442e+00	 5.196489173018236e+00
 6.231256932159656e-01	 1.627658851727757e+00	 4.931182914555915e+00
 5.862085835537600e-01	 1.641316083319784e+00	 4.669400270362506e+00
 5.491811974935527e-01	 1.654073449486838e+00	 4.410417351012834e+00
 5.120745362362032e-01	 1.665934741984644e+00	 4.153446013651883e+00
 4.749190753020673e-01	 1.676905083292483e+00	 3.897632848153457e+00
 4.377446991091440e-01	 1.686990877692122e+00	 3.642058341909434e+00
 4.005806399854071e-01	 1.696199758960834e+00	 3.385736215119357e+00
 3.634554217733189e-01	 1.704540535092635e+00	 3.127612916372975e+00
 7.389060405759063e-01	 1.594231547811876e+00	 5.797294257418979e+00
 7.022116411455905e-01	 1.610731305637117e+00	 5.525236581711932e+00
 6.653098377772835e-01	 1.626320837196780e+00	 5.257657066945917e+00
 6.282330385302360e-01	 1.640999684725852e+00	 4.993949622872380e+00
 5.910133439654147e-01	 1.654768855527908e+00	 4.733437348888366e+00
 5.536824691405809e-01	 1.667630785308807e+00	 4.475371748817574e+00
 5.162716693527424e-01	 1.679589296902752e+00	 4.218932173860115e+00
 4.788116699097502e-01	 1.690649554774555e+00	 3.963225486083788e+00
 4.413326001722285e-01	 1.700818015697596e+00	 3.707285927652437e+00
 4.038639320660276e-01	 1.710102376018112e+00	 3.450075176418534e+00
 3.664344232245057e-01	 1.718511515923357e+00	 3.190482566584095e+00
 7.449131261534554e-01	 1.607192174483440e+00	 5.852538638739247e+00
 7.079204122073058e-01	 1.623826070415485e+00	 5.582683107914733e+00
 6.707186081910698e-01	 1.639542340214093e+00	 5.317046223487393e+00
 6.333403856318418e-01	 1.654340522392739e+00	 5.055019725602474e+00
 5.958181060585638e-01	 1.668221632444062e+00	 4.795915169796003e+00
 5.581837423629469e-01	 1.681188125875464e+00	 4.538963716342589e+00
 5.204688039382303e-01	 1.693243856599634e+00	 4.283316200133505e+00
 4.827042658798433e-01	 1.704394031066930e+00	 4.028043462630346e+00
 4.449205024911150e-01	 1.714645158542355e+00	 3.772136919754037e+00
 4.071472252958531e-01	 1.724004997941130e+00	 3.514509334806788e+00
 3.694134257183873e-01	 1.732482501643770e+00	 3.253995763727592e+00
 7.509202145339245e-01	 1.620152807202639e+00	 5.906054456705191e+00
 7.136291859327608e-01	 1.636920841304096e+00	 5.638401620923856e+00
 6.761273811286393e-01	 1.652763849400814e+00	 5.374753575643471e+00
 6.384477351166191e-01	 1.667681366284758e+00	 5.114504545091195e+00
 6.006228703937347e-01	 1.681674415637626e+00	 4.856958949111828e+00
 5.626850176857628e-01	 1.694745472768375e+00	 4.601331751992584e+00
 5.246659404822889e-01	 1.706898422668192e+00	 4.346749147719010e+00
 4.865968636664338e-01	 1.718138513772993e+00	 4.092249552197162e+00
 4.485084064843421e-01	 1.728472307839431e+00	 3.836784864721554e+00
 4.104305200578863e-01	 1.737907626351737e+00	 3.579221955962980e+00
 3.723924296024744e-01	 1.746453493883714e+00	 3.318344338037006e+00
 7.569273064181261e-01	 1.633113447481505e+00	 5.957906511889285e+00
 7.193379629879660e-01	 1.650015619830615e+00	 5.692471595145157e+00
 6.815361572210011e-01	 1.665985366299380e+00	 5.430873015451306e+00
 6.435550875804052e-01	 1.681022217958248e+00	 5.172512020993217e+00
 6.054276375314549e-01	 1.695127206677984e+00	 4.916690190323797e+00
 5.671862956341406e-01	 1.708302827569109e+00	 4.662610326160125e+00
 5.288630794745408e-01	 1.720552996701325e+00	 4.409377745098432e+00
 4.904894637236094e-01	 1.731883004496130e+00	 4.156001922583068e+00
 4.520963125704475e-01	 1.742299465201855e+00	 3.901398443569602e+00
 4.137138167351306e-01	 1.751810262871778e+00	 3.644391204023937e+00
 3.753714352242780e-01	 1.760424494273034e+00	 3.383714806732316e+00
 7.629344025068716e-01	 1.646074096832072e+00	 6.008157319909891e+00
 7.250467440389318e-01	 1.663110407522708e+00	 5.744969878053810e+00
 6.869449370991632e-01	 1.679206892452224e+00	 5.485495472442246e+00
 6.486624436190357e-01	 1.694363078969549e+00	 5.229146803950092e+00
 6.102324080322518e-01	 1.708580007134521e+00	 4.975226793001582e+00
 5.716875767331934e-01	 1.721860191859236e+00	 4.722930004406446e+00
 5.330602214046076e-01	 1.734207580291934e+00	 4.471344531242270e+00
 4.943820665054574e-01	 1.745627504839728e+00	 4.219454285716112e+00
 4.556842211679696e-01	 1.756126632242662e+00	 3.966141635336763e+00
 4.169971157105890e-01	 1.765712909123104e+00	 3.710190317083472e+00
 3.783504429313092e-01	 1.774395504441572e+00	 3.450288560598008e+00
 7.689415035009731e-01	 1.659034756766367e+00	 6.056867157636162e+00
 7.307555297516694e-01	 1.676205205908041e+00	 5.795970751043857e+00
 6.923537213941330e-01	 1.692428429401784e+00	 5.538708989073314e+00
 6.537698038283479e-01	 1.707703950875003e+00	 5.284510345444772e+00
 6.150371824566522e-01	 1.722032818576619e+00	 5.032683156815143e+00
 5.761888615080327e-01	 1.735417567220324e+00	 4.782417565285888e+00
 5.372573667621120e-01	 1.747862175032921e+00	 4.532787986781103e+00
 4.982746724660653e-01	 1.759372016407173e+00	 4.282756041613122e+00
 4.592721326954463e-01	 1.769953810574882e+00	 4.031173873175501e+00
 4.202804173672643e-01	 1.779615566727561e+00	 3.776787774654739e+00
 3.813294530710786e-01	 1.788366526019169e+00	 3.518242041963687e+00
 7.749486101012426e-01	 1.671995428796423e+00	 6.104094108070900e+00
 7.364643207921892e-01	 1.689300016514279e+00	 5.845545988181532e+00
 6.977625107369196e-01	 1.705649978690491e+00	 5.590598793297259e+00
 6.588771688041773e-01	 1.721044835230948e+00	 5.338700984040432e+00
 6.198419613651840e-01	 1.735485642573660e+00	 5.089170281201504e+00
 5.806901504837709e-01	 1.748974955233940e+00	 4.841196113104534e+00
 5.414545160366762e-01	 1.761516782517186e+00	 4.593842659424802e+00
 5.021672820595209e-01	 1.773116540801851e+00	 4.346052415932972e+00
 4.628600475714159e-01	 1.783781001811550e+00	 4.096650193417615e+00
 4.235637220881601e-01	 1.793518237307000e+00	 3.844347457532701e+00
 3.843084659910977e-01	 1.802337560635670e+00	 3.587746914554698e+00
 7.809557230084923e-01	 1.684956114434272e+00	 6.149894103981989e+00
 7.421731178265022e-01	 1.702394840869089e+00	 5.893764912976298e+00
 7.031713057585309e-01	 1.718871541860783e+00	 5.641247368424766e+00
 6.639845391423617e-01	 1.734385733593725e+00	 5.391814028198819e+00
 6.246467453183745e-01	 1.748938480695031e+00	 5.144795860913887e+00
 5.851914441855204e-01	 1.762532357481655e+00	 4.899385185885544e+00
 5.456516697179219e-01	 1.775171404337629e+00	 4.654639283938993e+00
 5.060598957399114e-01	 1.786861079627148e+00	 4.409484591467678e+00
 4.664479662144161e-01	 1.797608207565696e+00	 4.162721377993958e+00
 4.268470302562790e-01	 1.807420922483264e+00	 3.913028800465401e+00
 3.872874820388771e-01	 1.816308609920916e+00	 3.658970225650152e+00
 3.574974206089847e-01	 1.676598581580888e+00	 3.003009187088289e+00
 3.210437537352151e-01	 1.683959003333080e+00	 2.753290377162358e+00
 2.846821660173839e-01	 1.690485997782369e+00	 2.514349151005383e+00
 2.484383771600480e-01	 1.696191347520098e+00	 2.289162829185954e+00
 2.123372325162998e-01	 1.701087751890542e+00	 2.080691986745666e+00
 1.764026711984843e-01	 1.705188763979623e+00	 1.891835019399909e+00
 1.406576988713968e-01	 1.708508727057505e+00	 1.725385517962343e+00
 1.051243651388339e-01	 1.711062710828929e+00	 1.583992694770921e+00
 6.982374540812293e-02	 1.712866447826537e+00	 1.470125065309229e+00
 3.477592709370159e-02	 1.713936270261961e+00	 1.386037547977936e+00
 0.000000000000000e+00	 1.714289047627778e+00	 1.333742105346344e+00
 3.604764210173155e-01	 1.690569557521760e+00	 3.065189474174988e+00
 3.237189883473829e-01	 1.697991313141118e+00	 2.812708293945395e+00
 2.870544021224811e-01	 1.704572696567507e+00	 2.571081348675817e+00
 2.505085963676162e-01	 1.710325588575774e+00	 2.342919231263036e+00
 2.141066234704213e-01	 1.715262794332936e+00	 2.130845874420678e+00
 1.778726220261427e-01	 1.719397979861820e+00	 1.937453626940140e+00
 1.418297894041262e-01	 1.722745607954046e+00	 1.765260867402263e+00
 1.060003589459304e-01	 1.725320873889138e+00	 1.616672412376269e+00
 7.040558167873620e-02	 1.727139641297820e+00	 1.493942937810140e+00
 3.506571240396045e-02	 1.728218378486884e+00	 1.399143593997252e+00
 0.000000000000000e+00	 1.728574095521189e+00	 1.334131956457029e+00
 3.634554217733189e-01	 1.704540535092635e+00	 3.127612916372975e+00
 3.263942232717195e-01	 1.712023624586264e+00	 2.873000808097004e+00
 2.894266385043065e-01	 1.718659396996017e+00	 2.629336858319959e+00
 2.525788158165745e-01	 1.724459831280267e+00	 2.398709791650698e+00
 2.158760146307361e-01	 1.729437838428791e+00	 2.183253097963487e+00
 1.793425730249773e-01	 1.733607197401348e+00	 1.985101728261365e+00
 1.430018800732300e-01	 1.736982490511031e+00	 1.806350978084681e+00
 1.068763528548503e-01	 1.739579038612175e+00	 1.649017824535284e+00
 7.098741801690550e-02	 1.741412836433599e+00	 1.515004948058536e+00
 3.535549774782404e-02	 1.742500488377288e+00	 1.406067634839287e+00
 0.000000000000000e+00	 1.742859145080407e+00	 1.323783720241384e+00
 3.664344232245057e-01	 1.718511515923357e+00	 3.190482566584095e+00
 3.290694588203119e-01	 1.726055939305545e+00	 2.934368517601731e+00
 2.917988754396156e-01	 1.732746100711309e+00	 2.689294720548662e+00
 2.546490357484634e-01	 1.738594077282575e+00	 2.456676750316896e+00
 2.176454062037082e-01	 1.743612885831910e+00	 2.238007685571579e+00
 1.808125243665334e-01	 1.747816418256036e+00	 2.034817519530765e+00
 1.441739710155136e-01	 1.751219376389558e+00	 1.848634330142584e+00
 1.077523469678564e-01	 1.753837206661650e+00	 1.680947480577370e+00
 7.156925449056739e-02	 1.755686034899275e+00	 1.533173090573874e+00
 3.564528315913577e-02	 1.756782601599632e+00	 1.406621988021338e+00
 0.000000000000000e+00	 1.757144197972236e+00	 1.302470318400029e+00
 3.694134257183873e-01	 1.732482501643770e+00	 3.253995763727592e+00
 3.317446953052459e-01	 1.740088258935989e+00	 2.997006427473857e+00
 2.941711132051638e-01	 1.746832809356790e+00	 2.751129105126574e+00
 2.567192564048237e-01	 1.752728328231689e+00	 2.516958673956768e+00
 2.194147983958010e-01	 1.757787938196089e+00	 2.295201540503839e+00
 1.822824762223561e-01	 1.762025644083713e+00	 2.086638847840502e+00
 1.453460623677824e-01	 1.765456267250724e+00	 1.892090936704455e+00
 1.086283413872118e-01	 1.768095379701183e+00	 1.712383332112599e+00
 7.215109116765843e-02	 1.769959238360240e+00	 1.548314502377916e+00
 3.593506867173904e-02	 1.771064719820369e+00	 1.400625611512163e+00
 0.000000000000000e+00	 1.771429255863481e+00	 1.269972458935487e+00
 3.723924296024744e-01	 1.746453493883714e+00	 3.318344338037006e+00
 3.344199330386081e-01	 1.754120585114621e+00	 3.061104153113090e+00
 2.965433520777064e-01	 1.760919524575867e+00	 2.815009488322899e+00
 2.587894780271962e-01	 1.766862585776609e+00	 2.579690588264146e+00
 2.211841914134786e-01	 1.771962997175130e+00	 2.354924514147546e+00
 1.837524287639907e-01	 1.776234876542210e+00	 2.140603215834176e+00
 1.465181542668414e-01	 1.779693164755627e+00	 1.936702275658068e+00
 1.095043362151794e-01	 1.782353559394389e+00	 1.743250592231866e+00
 7.273292811611519e-02	 1.784232448481896e+00	 1.560301254546963e+00
 3.622485431947724e-02	 1.785346844705956e+00	 1.387903837045541e+00
 0.000000000000000e+00	 1.785714320420949e+00	 1.226078324998936e+00
 3.753714352242780e-01	 1.760424494273034e+00	 3.383714806732316e+00
 3.370951723324846e-01	 1.768152919478469e+00	 3.126846114091945e+00
 2.989155923339992e-01	 1.775006248011952e+00	 2.881100821902804e+00
 2.608597008571213e-01	 1.780996851566330e+00	 2.645004103966854e+00
 2.229535854632042e-01	 1.786138064422830e+00	 2.417264475648573e+00
 1.852223821629825e-01	 1.790444117289355e+00	 2.196747786140432e+00
 1.476902468494962e-01	 1.793930070565365e+00	 1.982451224680558e+00
 1.103803315540222e-01	 1.796611747404885e+00	 1.773477601422657e+00
 7.331476540387417e-02	 1.798505666929638e+00	 1.569010153696791e+00
 3.651464013619379e-02	 1.799628977922850e+00	 1.368288116137776e+00
 0.000000000000000e+00	 1.799999393311444e+00	 1.170583278557740e+00
 3.783504429313092e-01	 1.774395504441572e+00	 3.450288560598008e+00
 3.397704134989622e-01	 1.782185263664560e+00	 3.194411718902604e+00
 3.012878342507974e-01	 1.789092981308450e+00	 2.949563694220602e+00
 2.629299251361400e-01	 1.795131127249847e+00	 2.713027536968037e+00
 2.247229807514416e-01	 1.800313141592991e+00	 2.482307378294029e+00
 1.866923365908766e-01	 1.804653367982979e+00	 2.255109385625266e+00
 1.488623402525520e-01	 1.808166986341034e+00	 2.029321999355509e+00
 1.112563275060033e-01	 1.810869945396284e+00	 1.802995699830031e+00
 7.389660309887201e-02	 1.812778895368865e+00	 1.574322552852167e+00
 3.680442615573210e-02	 1.813911121137507e+00	 1.341615778108988e+00
 0.000000000000000e+00	 1.814284476201773e+00	 1.103289578067193e+00
 3.813294530710786e-01	 1.788366526019169e+00	 3.518242041963687e+00
 3.424456568501270e-01	 1.796217619309920e+00	 3.263975541157538e+00
 3.036600781048563e-01	 1.803179726108770e+00	 3.020554483845027e+00
 2.650001511057929e-01	 1.809265414476159e+00	 2.783886022916531e+00
 2.264923774846549e-01	 1.814488230339411e+00	 2.550137322824948e+00
 1.881622922192183e-01	 1.818862630280913e+00	 2.315724509472721e+00
 1.500344346128140e-01	 1.822403913743735e+00	 2.077300094208228e+00
 1.121323241733855e-01	 1.825128155032206e+00	 1.831739105515589e+00
 7.447844126904522e-02	 1.827052135464974e+00	 1.576124171188572e+00
 3.709421241193553e-02	 1.828193276016381e+00	 1.307729799450687e+00
 0.000000000000000e+00	 1.828569570758740e+00	 1.024006109379486e+00
 3.843084659910977e-01	 1.802337560635670e+00	 3.587746914554698e+00
 3.451209026980651e-01	 1.810249988051577e+00	 3.335707487707380e+00
 3.060323241729317e-01	 1.817266484056323e+00	 3.094225506124268e+00
 2.670703790076207e-01	 1.823399714894258e+00	 2.857701626509201e+00
 2.282617758693074e-01	 1.828663332315890e+00	 2.620836617846298e+00
 1.896322492195529e-01	 1.833071905840984e+00	 2.378629325102591e+00
 1.512065300670876e-01	 1.836640854434563e+00	 2.126372226500847e+00
 1.130083216584319e-01	 1.839386377976264e+00	 1.859644798388809e+00
 7.506027998233038e-02	 1.841325388883361e+00	 1.574304922163550e+00
 3.738399893864753e-02	 1.842475444225930e+00	 1.266478583924580e+00
 0.000000000000000e+00	 1.842854678649152e+00	 9.325481291725064e-01
 3.872874820388771e-01	 1.816308609920916e+00	 3.658970225650152e+00
 3.477961513548631e-01	 1.824282371526556e+00	 3.409772959111621e+00
 3.084045727317791e-01	 1.831353256794514e+00	 3.170725153068389e+00
 2.691406090831641e-01	 1.837534030153142e+00	 2.934593445807415e+00
 2.300311761118629e-01	 1.842838449176229e+00	 2.694485837489339e+00
 1.911022077634256e-01	 1.847281196321023e+00	 2.443859675935058e+00
 1.523786267521780e-01	 1.850877810074617e+00	 2.176526282637498e+00
 1.138843200634055e-01	 1.853644615892075e+00	 1.886652409505738e+00
 7.564211930666406e-02	 1.855598657289427e+00	 1.568758749586230e+00
 3.767378576971149e-02	 1.856757627432609e+00	 1.217715752814681e+00
 0.000000000000000e+00	 1.857139801539814e+00	 8.287370202231861e-01
 1.857139801539814e+00	 0.000000000000000e+00	 1.155512477259924e+01
 1.856757627432609e+00	 3.767378576971200e-02	 1.161074373187676e+01
 1.855598657289427e+00	 7.564211930666453e-02	 1.165705995167763e+01
 1.853644615892075e+00	 1.138843200634058e-01	 1.169614708138728e+01
 1.850877810074617e+00	 1.523786267521784e-01	 1.172974365534731e+01
 1.847281196321023e+00	 1.911022077634259e-01	 1.175922915248927e+01
 1.842838449176228e+00	 2.300311761118631e-01	 1.178560115998827e+01
 1.837534030153142e+00	 2.691406090831643e-01	 1.180945387765789e+01
 1.831353256794514e+00	 3.084045727317791e-01	 1.183095820373198e+01
 1.824282371526556e+00	 3.477961513548631e-01	 1.184984364446587e+01
 1.816308609920916e+00	 3.872874820388771e-01	 1.186538228952672e+01
 1.871425938885499e+00	 0.000000000000000e+00	 1.153975317705342e+01
 1.871040824885513e+00	 3.796359318002383e-02	 1.159345168246649e+01
 1.869872939308534e+00	 7.622399995034108e-02	 1.163902597998895e+01
 1.867903866353384e+00	 1.147603806773741e-01	 1.167835186649817e+01
 1.865115776748616e+00	 1.535508066735918e-01	 1.171295260585737e+01
 1.861491495870142e+00	 1.925722706961614e-01	 1.174397578981552e+01
 1.857014572678569e+00	 2.318007020079917e-01	 1.177217147209153e+01
 1.851669349156259e+00	 2.712109861755549e-01	 1.179787181445997e+01
 1.845441029900473e+00	 3.107769897551533e-01	 1.182097248584316e+01
 1.838315751506641e+00	 3.504715899935780e-01	 1.184091605532407e+01
 1.830280651355449e+00	 3.902667096404622e-01	 1.185667761753560e+01
 1.885712081233184e+00	 0.000000000000000e+00	 1.152939411257090e+01
 1.885324027339362e+00	 3.825340069197129e-02	 1.157954567495234e+01
 1.884147226325385e+00	 7.680588079802278e-02	 1.162328930847454e+01
 1.882163121807059e+00	 1.156364415984023e-01	 1.166218886553924e+01
 1.879353748407376e+00	 1.547229870057536e-01	 1.169744755633705e+01
 1.875701800394163e+00	 1.940423341439140e-01	 1.172988688775160e+01
 1.871190701143662e+00	 2.335702285239304e-01	 1.175992704268718e+01
 1.865804673107656e+00	 2.732813639930134e-01	 1.178756892923665e+01
 1.859528807937886e+00	 3.131494076092566e-01	 1.181237812882764e+01
 1.852349136398974e+00	 3.531470295690236e-01	 1.183347096988735e+01
 1.844252697680622e+00	 3.932459382850533e-01	 1.184950294859824e+01
 1.899998216915481e+00	 0.000000000000000e+00	 1.152543597253813e+01
 1.899607223129177e+00	 3.854320806894736e-02	 1.156994078397762e+01
 1.898421506682321e+00	 7.738776137463460e-02	 1.161034944267405e+01
 1.896422370607763e+00	 1.165125021112167e-01	 1.164780217335184e+01
 1.893591713423013e+00	 1.558951667915989e-01	 1.168307961369602e+01
 1.889912098287876e+00	 1.955123969063782e-01	 1.171658509184842e+01
 1.885366822994288e+00	 2.353397542148335e-01	 1.174832850966062e+01
 1.879939990463522e+00	 2.753517408450131e-01	 1.177791204034285e+01
 1.873616579401857e+00	 3.155218243569036e-01	 1.180451784568290e+01
 1.866382514743161e+00	 3.558224678965475e-01	 1.182689801227939e+01
 1.858224737486206e+00	 3.962251655398985e-01	 1.184336689824808e+01
 1.914284334264999e+00	 0.000000000000000e+00	 1.152922686754112e+01
 1.913890400589984e+00	 3.883301507434495e-02	 1.156552589862925e+01
 1.912695768721676e+00	 7.796964120510148e-02	 1.160069207574862e+01
 1.910681601110162e+00	 1.173885615005441e-01	 1.163533264933262e+01
 1.907829660167639e+00	 1.570673450740623e-01	 1.166970536225787e+01
 1.904122377946063e+00	 1.969824577832475e-01	 1.170370531085702e+01
 1.899542926653227e+00	 2.371092776358554e-01	 1.173685357513282e+01
 1.894075289680050e+00	 2.774221150410274e-01	 1.176828779477719e+01
 1.887704332787491e+00	 3.178942380609087e-01	 1.179675486023185e+01
 1.880415875078809e+00	 3.584979027914969e-01	 1.182060587854757e+01
 1.872196759361968e+00	 3.992043889722462e-01	 1.183779356229036e+01
 1.928570421614352e+00	 0.000000000000000e+00	 1.154207611827580e+01
 1.928173548056805e+00	 3.912282147155702e-02	 1.156716468991914e+01
 1.926970000785793e+00	 7.855151981434853e-02	 1.159478959458623e+01
 1.924940801668923e+00	 1.182646190511110e-01	 1.162491802887643e+01
 1.922067577013370e+00	 1.582395208960790e-01	 1.165718664975494e+01
 1.918332627763509e+00	 1.984525155742158e-01	 1.169089424881046e+01
 1.913719000543260e+00	 2.388787973421505e-01	 1.172499635728892e+01
 1.908210559213428e+00	 2.794924848905294e-01	 1.175810191532672e+01
 1.901792056589895e+00	 3.202666467840865e-01	 1.178847212683119e+01
 1.894449205945524e+00	 3.611733320692193e-01	 1.181402160761105e+01
 1.886168751897681e+00	 4.021836061493447e-01	 1.183232191883041e+01
 1.942856467296148e+00	 0.000000000000000e+00	 1.156525568272851e+01
 1.942456653864665e+00	 3.941262702397651e-02	 1.157569653566699e+01
 1.941244191217008e+00	 7.913339672730063e-02	 1.159310156362338e+01
 1.939199960638711e+00	 1.191406740476439e-01	 1.161669302991824e+01
 1.936305452332318e+00	 1.594116933005836e-01	 1.164539038276138e+01
 1.932542836135003e+00	 1.999225690789774e-01	 1.167780995773810e+01
 1.927895033087166e+00	 2.406483118888731e-01	 1.171226677079413e+01
 1.922345787519848e+00	 2.815628487029927e-01	 1.174677848093085e+01
 1.915879739304173e+00	 3.226390485892515e-01	 1.177907158453322e+01
 1.908482495882913e+00	 3.638487535450625e-01	 1.180658988443652e+01
 1.900140703683113e+00	 4.051628146384417e-01	 1.182650525679145e+01
 1.957142459643000e+00	 0.000000000000000e+00	 1.160000152097775e+01
 1.956739706348589e+00	 3.970243149499637e-02	 1.159193740495615e+01
 1.955518328357658e+00	 7.971527146888283e-02	 1.159607518752006e+01
 1.953459066374192e+00	 1.200167257748695e-01	 1.161078945482435e+01
 1.950543274496597e+00	 1.605838613305110e-01	 1.163418833108394e+01
 1.946752991455327e+00	 2.013926170972260e-01	 1.166412140996072e+01
 1.942071012707724e+00	 2.424178198311774e-01	 1.169818993434026e+01
 1.936480963055499e+00	 2.836332047878904e-01	 1.173375923857139e+01
 1.929967369425429e+00	 3.250114415392181e-01	 1.176797344394539e+01
 1.922515733430581e+00	 3.665241650343736e-01	 1.179777237379916e+01
 1.914112603308034e+00	 4.081420120067854e-01	 1.181991062957213e+01
 1.971428386987518e+00	 0.000000000000000e+00	 1.164751490077415e+01
 1.971022693843598e+00	 3.999223464800954e-02	 1.161668070420884e+01
 1.969792400550084e+00	 8.029714356402012e-02	 1.160414575375757e+01
 1.967718107230032e+00	 1.208927735175143e-01	 1.160733628786824e+01
 1.964781031878321e+00	 1.617560240287962e-01	 1.162345694065686e+01
 1.960963082119269e+00	 2.028626584286554e-01	 1.164950808897576e+01
 1.956246927827715e+00	 2.441873197242181e-01	 1.168230560394956e+01
 1.950616074276571e+00	 2.857035514546962e-01	 1.171850294509339e+01
 1.944054935448770e+00	 3.273838236968006e-01	 1.175461550513305e+01
 1.936548907128135e+00	 3.691995643525005e-01	 1.178704708308111e+01
 1.928084439362215e+00	 4.111211958216242e-01	 1.181211833257192e+01
 1.985714237662315e+00	 0.000000000000000e+00	 1.170896364687447e+01
 1.985305604684719e+00	 4.028203624640896e-02	 1.165069808680922e+01
 1.984066396136623e+00	 8.087901253763749e-02	 1.161773705616884e+01
 1.981977071560896e+00	 1.217688165603047e-01	 1.160645978851311e+01
 1.979018712849604e+00	 1.629281804383741e-01	 1.161307715451432e+01
 1.975173096521612e+00	 2.043326918729596e-01	 1.163365959799898e+01
 1.970422766869918e+00	 2.459568101231494e-01	 1.166416763074245e+01
 1.964751109639255e+00	 2.877738870128831e-01	 1.170048473745324e+01
 1.958142425869298e+00	 3.297561931248137e-01	 1.173845250500577e+01
 1.950582005515181e+00	 3.718749493147904e-01	 1.177390775264900e+01
 1.942056200435424e+00	 4.141003636502061e-01	 1.180272140338549e+01
 2.000000000000000e+00	 0.000000000000000e+00	 1.178548333693624e+01
 1.999588427206973e+00	 4.057183605358756e-02	 1.169474022809323e+01
 1.998340303459614e+00	 8.146087791465992e-02	 1.163726180035242e+01
 1.996235947721451e+00	 1.226448541879675e-01	 1.160828358071083e+01
 1.993256305782559e+00	 1.641003296021794e-01	 1.160293424143725e+01
 1.989383023057143e+00	 2.058027162298326e-01	 1.161627528528157e+01
 1.984598518257113e+00	 2.477262895831255e-01	 1.164334344194851e+01
 1.978886057599742e+00	 2.898442097719247e-01	 1.167919552997610e+01
 1.972229829182122e+00	 3.321285478860718e-01	 1.171895549271699e+01
 1.964615017131326e+00	 3.745503177365909e-01	 1.175786327243499e+01
 1.956027875117432e+00	 4.170795130597794e-01	 1.179132514353557e+01
 1.816308609920916e+00	 3.872874820388771e-01	 1.186538228952672e+01
 1.807420922483264e+00	 4.268470302562786e-01	 1.187656608745512e+01
 1.797608207565696e+00	 4.664479662144158e-01	 1.188338986247105e+01
 1.786861079627148e+00	 5.060598957399112e-01	 1.188618381994245e+01
 1.775171404337629e+00	 5.456516697179217e-01	 1.188515228415870e+01
 1.762532357481656e+00	 5.851914441855203e-01	 1.188036966592356e+01
 1.748938480695031e+00	 6.246467453183742e-01	 1.187177681528415e+01
 1.734385733593725e+00	 6.639845391423612e-01	 1.185917781676869e+01
 1.718871541860783e+00	 7.031713057585306e-01	 1.184223729393532e+01
 1.702394840869089e+00	 7.421731178265019e-01	 1.182047830026695e+01
 1.684956114434273e+00	 7.809557230084924e-01	 1.179328088420930e+01
 1.830280651355449e+00	 3.902667096404622e-01	 1.185667761753560e+01
 1.821324594953817e+00	 4.301305715873713e-01	 1.186764055795913e+01
 1.811436395253883e+00	 4.700361396521799e-01	 1.187438139016971e+01
 1.800606594515861e+00	 5.099527858528720e-01	 1.187721155150676e+01
 1.788826995836037e+00	 5.498491214585424e-01	 1.187631559555731e+01
 1.776090722503322e+00	 5.896930575450493e-01	 1.187174712882313e+01
 1.762392274164796e+00	 6.294518704816068e-01	 1.186342511572997e+01
 1.747727579355579e+00	 6.690922721786595e-01	 1.185113060855454e+01
 1.732094043955664e+00	 7.085804848838240e-01	 1.183450396877486e+01
 1.715490595148239e+00	 7.478823202690240e-01	 1.181304265718746e+01
 1.697917720470713e+00	 7.869632625087234e-01	 1.178609968160102e+01
 1.844252697680622e+00	 3.932459382850533e-01	 1.184950294859824e+01
 1.835228272290978e+00	 4.334141140679417e-01	 1.186022063813303e+01
 1.825264587782192e+00	 4.736243143460175e-01	 1.186678085751043e+01
 1.814352114215724e+00	 5.138456773285418e-01	 1.186950453294849e+01
 1.802482592114112e+00	 5.540465746684604e-01	 1.186858095476681e+01
 1.789649092270640e+00	 5.941946724803288e-01	 1.186406336470633e+01
 1.775846072343640e+00	 6.342569973268171e-01	 1.185586491321100e+01
 1.761069429787372e+00	 6.742000070028453e-01	 1.184375504608970e+01
 1.745316550678762e+00	 7.139896659025048e-01	 1.182735639035243e+01
 1.728586354011298e+00	 7.535915247099296e-01	 1.180614222035413e+01
 1.710879331044161e+00	 7.929708041117344e-01	 1.177943459739646e+01
 1.858224737486206e+00	 3.962251655398985e-01	 1.184336689824808e+01
 1.849131943140409e+00	 4.366976550167055e-01	 1.185396188846938e+01
 1.839092773857973e+00	 4.772124873658478e-01	 1.186037369007638e+01
 1.828097627501635e+00	 5.177385669879708e-01	 1.186296050085346e+01
 1.816138182020209e+00	 5.582440259199826e-01	 1.186194044041532e+01
 1.803207455711374e+00	 5.986962853152487e-01	 1.185738647370919e+01
 1.789299864244732e+00	 6.390621219300107e-01	 1.184922172429024e+01
 1.774411273993693e+00	 6.793077394437820e-01	 1.183721524322698e+01
 1.758539051232120e+00	 7.193988443972456e-01	 1.182097831026107e+01
 1.741682106763799e+00	 7.593007264868671e-01	 1.179996135558366e+01
 1.723840935569680e+00	 7.989783429115335e-01	 1.177345160300733e+01
 1.872196759361968e+00	 3.992043889722462e-01	 1.183779356229036e+01
 1.863035596147771e+00	 4.399811917523779e-01	 1.184853092280028e+01
 1.852920942188578e+00	 4.808006557815890e-01	 1.185495244927593e+01
 1.841843123148493e+00	 5.216314516522095e-01	 1.185748093408099e+01
 1.829793754402687e+00	 5.624414717854167e-01	 1.185638701657524e+01
 1.816765801753297e+00	 6.031978923737006e-01	 1.185178313216690e+01
 1.802753638881248e+00	 6.438672403671951e-01	 1.184361788892555e+01
 1.787753101079132e+00	 6.844154653303315e-01	 1.183167094760407e+01
 1.771761534817776e+00	 7.248080159507175e-01	 1.181554849202400e+01
 1.754777842711275e+00	 7.650099209374835e-01	 1.179467938881296e+01
 1.736802523462338e+00	 8.049858740021280e-01	 1.176831214815006e+01
 1.886168751897681e+00	 4.021836061493447e-01	 1.183232191883041e+01
 1.876939219958725e+00	 4.432647215936743e-01	 1.184360497243427e+01
 1.866749081481357e+00	 4.843888166631600e-01	 1.185031653980023e+01
 1.855588589931198e+00	 5.255243281423084e-01	 1.185297088521185e+01
 1.843449298109903e+00	 5.666389088370701e-01	 1.185191446839322e+01
 1.830324119324177e+00	 6.076994899795758e-01	 1.184731861220825e+01
 1.816207385266352e+00	 6.486723487143761e-01	 1.183917265347488e+01
 1.801094900148275e+00	 6.895231804913566e-01	 1.182727766624673e+01
 1.784983990637771e+00	 7.302171761455920e-01	 1.181124085830433e+01
 1.767873551159260e+00	 7.707191033994266e-01	 1.179047075382912e+01
 1.749764084137201e+00	 8.109933924775250e-01	 1.176417328800144e+01
 1.900140703683113e+00	 4.051628146384417e-01	 1.182650525679145e+01
 1.890842803218936e+00	 4.465482418593103e-01	 1.183887146968122e+01
 1.880577180443664e+00	 4.879769670804797e-01	 1.184627193019589e+01
 1.869334016624649e+00	 5.294171932793179e-01	 1.184933881969056e+01
 1.857104801990212e+00	 5.708363336472505e-01	 1.184851734086674e+01
 1.843882397351781e+00	 6.122010744567645e-01	 1.184405680083946e+01
 1.829661092413219e+00	 6.534774430475603e-01	 1.183600225043854e+01
 1.814436660305711e+00	 6.946308807557207e-01	 1.182418678607229e+01
 1.798206407894145e+00	 7.356263205645408e-01	 1.180822463210152e+01
 1.780969221413285e+00	 7.764282692103445e-01	 1.178750513399943e+01
 1.762725607009334e+00	 8.170008934317318e-01	 1.176118780529490e+01
 1.914112603308034e+00	 4.081420120067854e-01	 1.181991062957213e+01
 1.904746334574061e+00	 4.498317498680010e-01	 1.183402764977711e+01
 1.894405227782849e+00	 4.915651041034668e-01	 1.184263088588453e+01
 1.883079392003745e+00	 5.333100438842887e-01	 1.184649646227044e+01
 1.870760254891974e+00	 5.750337427882651e-01	 1.184619088060756e+01
 1.857440624763881e+00	 6.167026421291587e-01	 1.184206021854410e+01
 1.843114749335018e+00	 6.582825194427546e-01	 1.183421997510537e+01
 1.827778370656030e+00	 6.997385619522857e-01	 1.182254568955414e+01
 1.811428775788937e+00	 7.410354447902353e-01	 1.180666447224194e+01
 1.794064842778885e+00	 7.821374137078839e-01	 1.178594759830840e+01
 1.775687081493801e+00	 8.230083719587561e-01	 1.175950432761588e+01
 1.928084439362215e+00	 4.111211958216242e-01	 1.181211833257192e+01
 1.918649802669765e+00	 4.531152429384617e-01	 1.182878017027835e+01
 1.908233212206262e+00	 4.951532248020400e-01	 1.183921171399991e+01
 1.896824704843383e+00	 5.372028767782708e-01	 1.184435865039234e+01
 1.884415645663542e+00	 5.792311328324216e-01	 1.184493098044151e+01
 1.870998790488245e+00	 6.212041893206487e-01	 1.184139003742422e+01
 1.856568345044922e+00	 6.630875739759653e-01	 1.183393625926032e+01
 1.841120020303820e+00	 7.048462199099149e-01	 1.182249786579291e+01
 1.824651083524189e+00	 7.464445444053474e-01	 1.180672060345327e+01
 1.807160404561592e+00	 7.878465322296934e-01	 1.178595873199056e+01
 1.788648497005671e+00	 8.290158231526051e-01	 1.175926744014007e+01
 1.942056200435424e+00	 4.141003636502061e-01	 1.180272140338549e+01
 1.932553196151707e+00	 4.563987183894079e-01	 1.182284474704803e+01
 1.922061122421255e+00	 4.987413262461179e-01	 1.183583851944944e+01
 1.910569943918465e+00	 5.410956887823153e-01	 1.184284319414925e+01
 1.898070963153277e+00	 5.834285003520271e-01	 1.184473412670257e+01
 1.884556883452640e+00	 6.257057123551258e-01	 1.184210609890642e+01
 1.870021868556099e+00	 6.678926027231987e-01	 1.183525874210184e+01
 1.854461598353669e+00	 7.099538504574706e-01	 1.182418301722573e+01
 1.837873320301940e+00	 7.518536149925487e-01	 1.180854894129511e+01
 1.820255896066940e+00	 7.935556201134200e-01	 1.178769476203114e+01
 1.801609842960009e+00	 8.350232421072867e-01	 1.176061779404445e+01
 1.956027875117432e+00	 4.170795130597794e-01	 1.179132514353557e+01
 1.946456503665550e+00	 4.596821735395547e-01	 1.181594580600702e+01
 1.935888947135180e+00	 5.023294055056194e-01	 1.183234097164058e+01
 1.924315098003887e+00	 5.449884767174719e-01	 1.184187074250887e+01
 1.911726196209532e+00	 5.876258419193892e-01	 1.184559734908777e+01
 1.898114892584837e+00	 6.302072075564812e-01	 1.184426693103514e+01
 1.883475308881720e+00	 6.726976017604614e-01	 1.183829233850861e+01
 1.867803093910167e+00	 7.150614494238159e-01	 1.182773716219184e+01
 1.851095475324230e+00	 7.572626521345105e-01	 1.181230121220365e+01
 1.833351306600461e+00	 7.992646726967115e-01	 1.179130767779179e+01
 1.814571108771880e+00	 8.410306239168078e-01	 1.176369221080743e+01
 1.684956114434273e+00	 7.809557230084924e-01	 1.179328088420930e+01
 1.666556108579333e+00	 8.194873157394583e-01	 1.175657569508472e+01
 1.647199695705267e+00	 8.577305159763660e-01	 1.170704598150054e+01
 1.626892195228096e+00	 8.956506072642391e-01	 1.164507792851501e+01
 1.605640574629505e+00	 9.332129100509844e-01	 1.157104238956224e+01
 1.583453458654829e+00	 9.703828781281937e-01	 1.148529030125900e+01
 1.560341131808945e+00	 1.007126196440562e+00	 1.138814836362372e+01
 1.536315533985785e+00	 1.043408879724244e+00	 1.127991517905182e+01
 1.511390249116649e+00	 1.079197371414791e+00	 1.116085805295680e+01
 1.485580486774423e+00	 1.114458642250760e+00	 1.103121066311094e+01
 1.458903056724601e+00	 1.149160287989920e+00	 1.089117180263200e+01
 1.697917720470713e+00	 7.869632625087234e-01	 1.178609968160102e+01
 1.679376171684905e+00	 8.257912613720412e-01	 1.174977152811779e+01
 1.659870858672978e+00	 8.643286492681638e-01	 1.170091638810401e+01
 1.639407141770808e+00	 9.025404426841122e-01	 1.163990838156004e+01
 1.617992042057758e+00	 9.403916952936697e-01	 1.156710934004662e+01
 1.595634250625419e+00	 9.778475951400555e-01	 1.148286393062801e+01
 1.572344131092705e+00	 1.014873563197749e+00	 1.138749500420947e+01
 1.548133715201746e+00	 1.051435352769626e+00	 1.128129936934615e+01
 1.523016691378873e+00	 1.087499149155750e+00	 1.116454420348038e+01
 1.497008386197335e+00	 1.123031669015494e+00	 1.103746431884084e+01
 1.470125738732542e+00	 1.158000258835432e+00	 1.090026049908843e+01
 1.710879331044161e+00	 7.929708041117344e-01	 1.177943459739646e+01
 1.692196239277984e+00	 8.320952092111141e-01	 1.174350013616645e+01
 1.672542026076116e+00	 8.709267848693754e-01	 1.169537328312783e+01
 1.651922092694297e+00	 9.094302805154478e-01	 1.163540318165871e+01
 1.630343513809585e+00	 9.475704830488989e-01	 1.156392917246006e+01
 1.607815046859852e+00	 9.853123147644879e-01	 1.148127569109854e+01
 1.584347134578076e+00	 1.022620932666389e+00	 1.138774735355614e+01
 1.559951900554614e+00	 1.059461828624110e+00	 1.128362443819790e+01
 1.534643137710871e+00	 1.095800929802140e+00	 1.116915898473787e+01
 1.508436289620492e+00	 1.131604698780583e+00	 1.104457173718839e+01
 1.481348424668851e+00	 1.166840232774733e+00	 1.091005015755007e+01
 1.723840935569680e+00	 7.989783429115335e-01	 1.177345160300733e+01
 1.705016300889208e+00	 8.383991541086286e-01	 1.173789886444491e+01
 1.685213187566892e+00	 8.775249173917148e-01	 1.169052402644818e+01
 1.664437037778324e+00	 9.163201151317564e-01	 1.163163856403398e+01
 1.642694979798230e+00	 9.547492674542318e-01	 1.156154608604701e+01
 1.619995837410733e+00	 9.927770309055642e-01	 1.148053706972715e+01
 1.596350132462838e+00	 1.030368298519748e+00	 1.138888375141926e+01
 1.571770080393091e+00	 1.067488300733048e+00	 1.128683538878136e+01
 1.546269578617915e+00	 1.104102706574501e+00	 1.117461412327665e+01
 1.519864187711302e+00	 1.140177724545059e+00	 1.105241167925072e+01
 1.492571105368532e+00	 1.175680202588859e+00	 1.092038713657053e+01
 1.736802523462338e+00	 8.049858740021280e-01	 1.176831214815006e+01
 1.717836346049209e+00	 8.447030909165361e-01	 1.173310136306439e+01
 1.697884332797518e+00	 8.841230414468964e-01	 1.168647315343074e+01
 1.676951966802650e+00	 9.232099409065490e-01	 1.162868884791996e+01
 1.655046429936937e+00	 9.619280426472270e-01	 1.156000330424235e+01
 1.632176612330666e+00	 1.000241737467358e+00	 1.148065954315180e+01
 1.608353114944773e+00	 1.038115654431095e+00	 1.139088351114727e+01
 1.583588245065871e+00	 1.075514762541794e+00	 1.129087919378661e+01
 1.557896004605275e+00	 1.112404472693372e+00	 1.118082431619604e+01
 1.531292071137173e+00	 1.148750739307956e+00	 1.106086687596729e+01
 1.503793771666583e+00	 1.184520161058842e+00	 1.093112275519857e+01
 1.749764084137201e+00	 8.109933924775250e-01	 1.176417328800144e+01
 1.730656364288626e+00	 8.510070144867884e-01	 1.172923768220174e+01
 1.710555451420205e+00	 8.907211516466336e-01	 1.168332243648612e+01
 1.689466869547038e+00	 9.300997522133370e-01	 1.162662646309665e+01
 1.667397854138950e+00	 9.691068027654434e-01	 1.155934306500571e+01
 1.644357361672258e+00	 1.007706428353941e+00	 1.148165453078343e+01
 1.620356072221661e+00	 1.045862994073695e+00	 1.139372683503245e+01
 1.595406384921654e+00	 1.083541207495701e+00	 1.129570467248385e+01
 1.569522406178222e+00	 1.120706221379292e+00	 1.118770706973696e+01
 1.542719930565512e+00	 1.157323736068305e+00	 1.106982382830970e+01
 1.515016414398009e+00	 1.193360100965718e+00	 1.094211305510945e+01
 1.762725607009334e+00	 8.170008934317318e-01	 1.176118780529490e+01
 1.743476345138092e+00	 8.573109196713373e-01	 1.172643436364893e+01
 1.723226533087164e+00	 8.973192426026411e-01	 1.168117094451549e+01
 1.701981735791249e+00	 9.369895434256313e-01	 1.162552197588321e+01
 1.679749242317513e+00	 9.762855419464395e-01	 1.155960661223141e+01
 1.656538075488112e+00	 1.015171097469386e+00	 1.148353335072778e+01
 1.632358994491283e+00	 1.053610311120815e+00	 1.139739473407365e+01
 1.607224490309136e+00	 1.091567629040120e+00	 1.130126237389687e+01
 1.581148773842030e+00	 1.129007945852801e+00	 1.119518254568208e+01
 1.554147756663726e+00	 1.165896707825141e+00	 1.107917261697565e+01
 1.526239024397810e+00	 1.202200015090521e+00	 1.095321857391460e+01
 1.775687081493801e+00	 8.230083719587561e-01	 1.175950432761588e+01
 1.756296278128241e+00	 8.636148013221341e-01	 1.172481452892847e+01
 1.735897567450607e+00	 9.039173089266328e-01	 1.168011510035475e+01
 1.714496555315046e+00	 9.438793089169430e-01	 1.162544411461812e+01
 1.692100584385871e+00	 9.834642543277747e-01	 1.156083418818001e+01
 1.668718743830833e+00	 1.022635738717768e+00	 1.148630717829934e+01
 1.644361871951418e+00	 1.061357599245724e+00	 1.140186895192731e+01
 1.619042551577015e+00	 1.099594020620405e+00	 1.130750446577535e+01
 1.592775098101968e+00	 1.137309639334439e+00	 1.120317341516935e+01
 1.565575540099225e+00	 1.174469647577495e+00	 1.108880672110346e+01
 1.537461592500988e+00	 1.211039896214285e+00	 1.096430412908083e+01
 1.788648497005671e+00	 8.290158231526051e-01	 1.175926744014007e+01
 1.769116152789709e+00	 8.699186542911306e-01	 1.172449796414993e+01
 1.748568544162743e+00	 9.105153452303222e-01	 1.168024873631959e+01
 1.727011317898189e+00	 9.507690430607832e-01	 1.162645979465341e+01
 1.704451870257265e+00	 9.906429340470074e-01	 1.156306502688061e+01
 1.680899356753025e+00	 1.030100346003158e+00	 1.148998700699712e+01
 1.656364694799848e+00	 1.069104852121687e+00	 1.140713189283527e+01
 1.630860559073990e+00	 1.107620375681909e+00	 1.131438462907323e+01
 1.604401369463309e+00	 1.145611295044744e+00	 1.121160471954439e+01
 1.577003271539414e+00	 1.183042548324400e+00	 1.109862284555180e+01
 1.548684109542545e+00	 1.219879737118045e+00	 1.097523861192314e+01
 1.801609842960009e+00	 8.350232421072867e-01	 1.176061779404445e+01
 1.781935958653133e+00	 8.762224734302785e-01	 1.172560120177143e+01
 1.761239452875785e+00	 9.171133461254239e-01	 1.168166314794729e+01
 1.739526013320439e+00	 9.576587402306627e-01	 1.162863414288783e+01
 1.716803089844941e+00	 9.978215752416968e-01	 1.156633734845587e+01
 1.693079904307295e+00	 1.037564913229629e+00	 1.149458361181925e+01
 1.668367453234355e+00	 1.076852063421972e+00	 1.141316655333081e+01
 1.642678503148756e+00	 1.115646687669985e+00	 1.132185795765770e+01
 1.616027578431323e+00	 1.153912906204257e+00	 1.122040373789942e+01
 1.588430941651701e+00	 1.191615403064889e+00	 1.110852075631484e+01
 1.559906566357481e+00	 1.228719530582835e+00	 1.098589479116593e+01
 1.814571108771880e+00	 8.410306239168078e-01	 1.176369221080743e+01
 1.794755685249146e+00	 8.825262535915291e-01	 1.172823759942172e+01
 1.773910283241944e+00	 9.237113062236514e-01	 1.168444714602637e+01
 1.752040631361560e+00	 9.645483948000926e-01	 1.163203052186288e+01
 1.729154233062143e+00	 1.005000172049402e+00	 1.157068835432470e+01
 1.705260376546246e+00	 1.045029434301255e+00	 1.150010751480087e+01
 1.680370137452718e+00	 1.084599226819845e+00	 1.141995645753487e+01
 1.654496374150013e+00	 1.123672950029984e+00	 1.132988086298843e+01
 1.627653715511282e+00	 1.162214466033516e+00	 1.122949986096563e+01
 1.599858541103495e+00	 1.200188204797995e+00	 1.111840312366830e+01
 1.571128953780799e+00	 1.237559269389690e+00	 1.099614912559625e+01
 1.458903056724601e+00	 1.149160287989920e+00	 1.089117180263200e+01
 1.431376332403356e+00	 1.183270628862627e+00	 1.074234864459147e+01
 1.403020199363723e+00	 1.216758813370768e+00	 1.058571179807233e+01
 1.373856021405344e+00	 1.249594900150438e+00	 1.042003029949635e+01
 1.343906592066114e+00	 1.281749943065508e+00	 1.024339149107363e+01
 1.313196075777992e+00	 1.313196075777993e+00	 1.005378253182162e+01
 1.281749943065507e+00	 1.343906592066115e+00	 9.849159424152075e+00
 1.249594900150437e+00	 1.373856021405345e+00	 9.627517209927898e+00
 1.216758813370767e+00	 1.403020199363723e+00	 9.386962867142234e+00
 1.183270628862627e+00	 1.431376332403357e+00	 9.125896510895767e+00
 1.149160287989920e+00	 1.458903056724601e+00	 8.855941394891802e+00
 1.470125738732542e+00	 1.158000258835432e+00	 1.090026049908843e+01
 1.442387263759201e+00	 1.192372995147767e+00	 1.075436309831209e+01
 1.413812999800923e+00	 1.226118789127744e+00	 1.060032689581202e+01
 1.384424474999414e+00	 1.259207469086070e+00	 1.043703619232922e+01
 1.354244658232962e+00	 1.291609866217064e+00	 1.026248952617507e+01
 1.323297899819588e+00	 1.323297899819588e+00	 1.007447526653954e+01
 1.291609866217063e+00	 1.354244658232962e+00	 9.870737861344288e+00
 1.259207469086070e+00	 1.384424474999415e+00	 9.649052219544792e+00
 1.226118789127743e+00	 1.413812999800923e+00	 9.407301105523050e+00
 1.192372995147766e+00	 1.442387263759201e+00	 9.146183800241889e+00
 1.158000258835432e+00	 1.470125738732542e+00	 8.881027344688786e+00
 1.481348424668851e+00	 1.166840232774733e+00	 1.091005015755007e+01
 1.453398198969239e+00	 1.201475364618558e+00	 1.076681507586511e+01
 1.424605804015899e+00	 1.235478768160576e+00	 1.061505357557057e+01
 1.394992932292661e+00	 1.268820041386022e+00	 1.045357847155667e+01
 1.364582728018272e+00	 1.301469792819580e+00	 1.028047547997245e+01
 1.333399727396883e+00	 1.333399727396884e+00	 1.009336191961814e+01
 1.301469792819580e+00	 1.364582728018273e+00	 9.889802311298451e+00
 1.268820041386021e+00	 1.394992932292662e+00	 9.667386811505709e+00
 1.235478768160575e+00	 1.424605804015899e+00	 9.423812950300153e+00
 1.201475364618558e+00	 1.453398198969239e+00	 9.165378240336153e+00
 1.166840232774733e+00	 1.481348424668851e+00	 8.904729298668073e+00
 1.492571105368532e+00	 1.175680202588859e+00	 1.092038713657053e+01
 1.464409129041410e+00	 1.210577729841743e+00	 1.077952721441072e+01
 1.435398603194744e+00	 1.244838742825615e+00	 1.062971736200849e+01
 1.405561384654415e+00	 1.278432609200344e+00	 1.046951197801279e+01
 1.374920792979544e+00	 1.311329714821083e+00	 1.029722743042768e+01
 1.343501550260330e+00	 1.343501550260330e+00	 1.011035885250408e+01
 1.311329714821082e+00	 1.374920792979545e+00	 9.906321665843695e+00
 1.278432609200344e+00	 1.405561384654415e+00	 9.682555771432179e+00
 1.244838742825615e+00	 1.435398603194745e+00	 9.437208295879101e+00
 1.210577729841742e+00	 1.464409129041410e+00	 9.183562259786036e+00
 1.175680202588859e+00	 1.492571105368532e+00	 8.927228160121205e+00
 1.503793771666583e+00	 1.184520161058842e+00	 1.093112275519857e+01
 1.475420044983652e+00	 1.219680083384064e+00	 1.079232785187885e+01
 1.446191388523552e+00	 1.254198705479214e+00	 1.064407640174920e+01
 1.416129823454001e+00	 1.288045164679088e+00	 1.048469668384664e+01
 1.385258844674276e+00	 1.321189624169597e+00	 1.031262803874408e+01
 1.353603360160380e+00	 1.353603360160380e+00	 1.012538606855920e+01
 1.321189624169596e+00	 1.385258844674276e+00	 9.920267141796707e+00
 1.288045164679088e+00	 1.416129823454001e+00	 9.694594536256464e+00
 1.254198705479213e+00	 1.446191388523552e+00	 9.449752943183656e+00
 1.219680083384063e+00	 1.475420044983652e+00	 9.200814054738794e+00
 1.184520161058843e+00	 1.503793771666584e+00	 8.948697768386703e+00
 1.515016414398009e+00	 1.193360100965718e+00	 1.094211305510945e+01
 1.486430937803904e+00	 1.228782417812263e+00	 1.080505076035117e+01
 1.456984151188414e+00	 1.263558648477723e+00	 1.065795077917159e+01
 1.426698240060748e+00	 1.297657699972307e+00	 1.049899724924502e+01
 1.395596874659965e+00	 1.331049512813149e+00	 1.032656413124045e+01
 1.363705148847485e+00	 1.363705148847485e+00	 1.013836683693959e+01
 1.331049512813148e+00	 1.395596874659965e+00	 9.931611962904032e+00
 1.297657699972306e+00	 1.426698240060748e+00	 9.703538949412156e+00
 1.263558648477722e+00	 1.456984151188414e+00	 9.461647086496159e+00
 1.228782417812262e+00	 1.486430937803904e+00	 9.217207707854499e+00
 1.193360100965718e+00	 1.515016414398009e+00	 8.969305123121435e+00
 1.526239024397810e+00	 1.202200015090521e+00	 1.095321857391460e+01
 1.497441798510104e+00	 1.237884725693083e+00	 1.081753489188170e+01
 1.467776882375423e+00	 1.272918564177493e+00	 1.067117282785067e+01
 1.437266625843982e+00	 1.307270207230050e+00	 1.051224737306121e+01
 1.405934874494110e+00	 1.340909372699764e+00	 1.033892629283253e+01
 1.373806908072096e+00	 1.373806908072096e+00	 1.014922732634501e+01
 1.340909372699764e+00	 1.405934874494111e+00	 9.940331049244026e+00
 1.307270207230049e+00	 1.437266625843983e+00	 9.710312370698373e+00
 1.272918564177493e+00	 1.467776882375423e+00	 9.472880219373028e+00
 1.237884725693082e+00	 1.497441798510105e+00	 9.232813303843809e+00
 1.202200015090521e+00	 1.526239024397810e+00	 8.989210600426031e+00
 1.537461592500988e+00	 1.211039896214285e+00	 1.096430412908083e+01
 1.508452618110191e+00	 1.246986999593266e+00	 1.082962413612273e+01
 1.478569573270671e+00	 1.282278444934877e+00	 1.068358004904669e+01
 1.447834972173032e+00	 1.316882678602370e+00	 1.052423697656620e+01
 1.416272835734211e+00	 1.350769195777470e+00	 1.034960847153674e+01
 1.383908629584665e+00	 1.383908629584666e+00	 1.015789624814209e+01
 1.350769195777470e+00	 1.416272835734212e+00	 9.946400713714311e+00
 1.316882678602369e+00	 1.447834972173032e+00	 9.716596736671480e+00
 1.282278444934876e+00	 1.478569573270671e+00	 9.483440197434367e+00
 1.246986999593265e+00	 1.508452618110192e+00	 9.247697041746818e+00
 1.211039896214285e+00	 1.537461592500988e+00	 9.008568161241010e+00
 1.548684109542545e+00	 1.219879737118045e+00	 1.097523861192314e+01
 1.519463387612104e+00	 1.256089232079554e+00	 1.084116708915984e+01
 1.489362215060251e+00	 1.291638283106225e+00	 1.069501487092450e+01
 1.458403270417224e+00	 1.326495106239317e+00	 1.053481448803179e+01
 1.426610749937764e+00	 1.360628973994291e+00	 1.035850759344518e+01
 1.394010305135645e+00	 1.394010305135645e+00	 1.016430450839354e+01
 1.360628973994290e+00	 1.426610749937764e+00	 9.949798365252883e+00
 1.326495106239316e+00	 1.458403270417224e+00	 9.722355533444832e+00
 1.291638283106225e+00	 1.489362215060251e+00	 9.493313265671912e+00
 1.256089232079554e+00	 1.519463387612105e+00	 9.261921344117741e+00
 1.219879737118045e+00	 1.548684109542545e+00	 9.027525552404526e+00
 1.559906566357481e+00	 1.228719530582835e+00	 1.098589479116593e+01
 1.530474098023782e+00	 1.265191415718691e+00	 1.085201683299369e+01
 1.500154798930255e+00	 1.300998071047889e+00	 1.070532441882445e+01
 1.468971511945886e+00	 1.336107482290944e+00	 1.054383440952089e+01
 1.436948608662268e+00	 1.370488699298253e+00	 1.036549168539636e+01
 1.404111926475486e+00	 1.404111926475486e+00	 1.016838486835295e+01
 1.370488699298252e+00	 1.436948608662268e+00	 9.951249642561754e+00
 1.336107482290943e+00	 1.468971511945887e+00	 9.727509001633539e+00
 1.300998071047889e+00	 1.500154798930256e+00	 9.502484086412409e+00
 1.265191415718691e+00	 1.530474098023782e+00	 9.275544963271658e+00
 1.228719530582835e+00	 1.559906566357482e+00	 9.046224500741193e+00
 1.571128953780799e+00	 1.237559269389690e+00	 1.099614912559625e+01
 1.541484740353162e+00	 1.274293543077417e+00	 1.086203072513856e+01
 1.510947316066777e+00	 1.310357801116220e+00	 1.071436029603437e+01
 1.479539688128345e+00	 1.345719798907301e+00	 1.055115555250510e+01
 1.447286403465221e+00	 1.380348363637383e+00	 1.037038681652049e+01
 1.414213485354640e+00	 1.414213485354640e+00	 1.017007161300989e+01
 1.380348363637382e+00	 1.447286403465222e+00	 9.952176344893822e+00
 1.345719798907301e+00	 1.479539688128346e+00	 9.731977564893874e+00
 1.310357801116220e+00	 1.510947316066777e+00	 9.510935767903799e+00
 1.274293543077416e+00	 1.541484740353163e+00	 9.288623084740001e+00
 1.237559269389690e+00	 1.571128953780800e+00	 9.064800900529939e+00
 1.149160287989920e+00	 1.458903056724601e+00	 8.855941394891802e+00
 1.114458642250760e+00	 1.485580486774424e+00	 8.585014558905499e+00
 1.079197371414790e+00	 1.511390249116649e+00	 8.312696789463697e+00
 1.043408879724243e+00	 1.536315533985785e+00	 8.039276221942945e+00
 1.007126196440562e+00	 1.560341131808945e+00	 7.765203127514702e+00
 9.703828781281930e-01	 1.583453458654829e+00	 7.491080239361593e+00
 9.332129100509838e-01	 1.605640574629505e+00	 7.217651144172223e+00
 8.956506072642383e-01	 1.626892195228096e+00	 6.945787006435774e+00
 8.577305159763654e-01	 1.647199695705267e+00	 6.676471901499383e+00
 8.194873157394577e-01	 1.666556108579334e+00	 6.410787033180885e+00
 7.809557230084923e-01	 1.684956114434272e+00	 6.149894103981989e+00
 1.158000258835432e+00	 1.470125738732542e+00	 8.881027344688786e+00
 1.123031669015494e+00	 1.497008386197336e+00	 8.613936958753344e+00
 1.087499149155749e+00	 1.523016691378874e+00	 8.344742406139581e+00
 1.051435352769625e+00	 1.548133715201746e+00	 8.073829237515454e+00
 1.014873563197748e+00	 1.572344131092705e+00	 7.801760629311344e+00
 9.778475951400548e-01	 1.595634250625419e+00	 7.529266409954809e+00
 9.403916952936689e-01	 1.617992042057758e+00	 7.257230046916959e+00
 9.025404426841116e-01	 1.639407141770809e+00	 6.986673885531656e+00
 8.643286492681631e-01	 1.659870858672978e+00	 6.718742938735080e+00
 8.257912613720407e-01	 1.679376171684905e+00	 6.454687525880909e+00
 7.869632625087235e-01	 1.697917720470713e+00	 6.195845049724801e+00
 1.166840232774733e+00	 1.481348424668851e+00	 8.904729298668073e+00
 1.131604698780582e+00	 1.508436289620493e+00	 8.641412727606843e+00
 1.095800929802139e+00	 1.534643137710871e+00	 8.375506412382304e+00
 1.059461828624109e+00	 1.559951900554615e+00	 8.107451616373643e+00
 1.022620932666388e+00	 1.584347134578076e+00	 7.837873797650616e+00
 9.853123147644873e-01	 1.607815046859852e+00	 7.567570877575623e+00
 9.475704830488985e-01	 1.630343513809585e+00	 7.297499424503318e+00
 9.094302805154472e-01	 1.651922092694298e+00	 7.028759060498984e+00
 8.709267848693747e-01	 1.672542026076116e+00	 6.762575406448518e+00
 8.320952092111138e-01	 1.692196239277985e+00	 6.500281878731946e+00
 7.929708041117345e-01	 1.710879331044161e+00	 6.243300639974880e+00
 1.175680202588859e+00	 1.492571105368532e+00	 8.927228160121205e+00
 1.140177724545059e+00	 1.519864187711303e+00	 8.667709575541966e+00
 1.104102706574500e+00	 1.546269578617915e+00	 8.405310670231399e+00
 1.067488300733048e+00	 1.571770080393091e+00	 8.140487786960666e+00
 1.030368298519748e+00	 1.596350132462839e+00	 7.873879242266949e+00
 9.927770309055636e-01	 1.619995837410733e+00	 7.606293372059072e+00
 9.547492674542313e-01	 1.642694979798230e+00	 7.338694504726412e+00
 9.163201151317556e-01	 1.664437037778324e+00	 7.072187180249147e+00
 8.775249173917143e-01	 1.685213187566893e+00	 6.807998940045302e+00
 8.383991541086279e-01	 1.705016300889208e+00	 6.547462008496391e+00
 7.989783429115337e-01	 1.723840935569681e+00	 6.291994174555340e+00
 1.184520161058843e+00	 1.503793771666584e+00	 8.948697768386703e+00
 1.148750739307955e+00	 1.531292071137173e+00	 8.693085667620682e+00
 1.112404472693371e+00	 1.557896004605275e+00	 8.434465992457159e+00
 1.075514762541794e+00	 1.583588245065872e+00	 8.173270568948372e+00
 1.038115654431094e+00	 1.608353114944774e+00	 7.910102313416817e+00
 1.000241737467357e+00	 1.632176612330667e+00	 7.645723582181541e+00
 9.619280426472262e-01	 1.655046429936937e+00	 7.381042518700474e+00
 9.232099409065484e-01	 1.676951966802651e+00	 7.117097720915675e+00
 8.841230414468955e-01	 1.697884332797518e+00	 6.855041556131709e+00
 8.447030909165353e-01	 1.717836346049210e+00	 6.596122444989842e+00
 8.049858740021278e-01	 1.736802523462339e+00	 6.341666421392809e+00
 1.193360100965718e+00	 1.515016414398009e+00	 8.969305123121435e+00
 1.157323736068305e+00	 1.542719930565512e+00	 8.717789940324622e+00
 1.120706221379291e+00	 1.569522406178222e+00	 8.463272514857957e+00
 1.083541207495700e+00	 1.595406384921653e+00	 8.206121566323700e+00
 1.045862994073694e+00	 1.620356072221661e+00	 7.946857482048646e+00
 1.007706428353940e+00	 1.644357361672258e+00	 7.686141490713135e+00
 9.691068027654426e-01	 1.667397854138951e+00	 7.424762960224383e+00
 9.300997522133365e-01	 1.689466869547039e+00	 7.163625140712185e+00
 8.907211516466331e-01	 1.710555451420205e+00	 6.903729675901173e+00
 8.510070144867877e-01	 1.730656364288626e+00	 6.646160197984337e+00
 8.109933924775248e-01	 1.749764084137200e+00	 6.392065303963518e+00
 1.202200015090521e+00	 1.526239024397810e+00	 8.989210600426031e+00
 1.165896707825140e+00	 1.554147756663727e+00	 8.742062405704761e+00
 1.129007945852801e+00	 1.581148773842030e+00	 8.492020053727472e+00
 1.091567629040120e+00	 1.607224490309136e+00	 8.239351544639050e+00
 1.053610311120815e+00	 1.632358994491282e+00	 7.984448704610956e+00
 1.015171097469386e+00	 1.656538075488112e+00	 7.727817695998143e+00
 9.762855419464389e-01	 1.679749242317514e+00	 7.470067834909262e+00
 9.369895434256307e-01	 1.701981735791249e+00	 7.211899029055768e+00
 8.973192426026407e-01	 1.723226533087165e+00	 6.954088148475996e+00
 8.573109196713367e-01	 1.743476345138091e+00	 6.697474630859858e+00
 8.170008934317319e-01	 1.762725607009334e+00	 6.442945603295085e+00
 1.211039896214285e+00	 1.537461592500988e+00	 9.008568161241010e+00
 1.174469647577494e+00	 1.565575540099225e+00	 8.766134443873744e+00
 1.137309639334438e+00	 1.592775098101969e+00	 8.520988449248598e+00
 1.099594020620405e+00	 1.619042551577015e+00	 8.273260793234130e+00
 1.061357599245723e+00	 1.644361871951419e+00	 8.023169773282351e+00
 1.022635738717767e+00	 1.668718743830833e+00	 7.771013720750344e+00
 9.834642543277738e-01	 1.692100584385871e+00	 7.517161899590700e+00
 9.438793089169424e-01	 1.714496555315046e+00	 7.262044250247300e+00
 9.039173089266319e-01	 1.735897567450607e+00	 7.006140274207473e+00
 8.636148013221334e-01	 1.756296278128241e+00	 6.749967340661131e+00
 8.230083719587561e-01	 1.775687081493801e+00	 6.494068673782483e+00
 1.219879737118045e+00	 1.548684109542545e+00	 9.027525552404526e+00
 1.183042548324399e+00	 1.577003271539414e+00	 8.790229084431022e+00
 1.145611295044743e+00	 1.604401369463309e+00	 8.550447895526425e+00
 1.107620375681909e+00	 1.630860559073990e+00	 8.308139473190479e+00
 1.069104852121687e+00	 1.656364694799849e+00	 8.063304652361309e+00
 1.030100346003157e+00	 1.680899356753026e+00	 7.815982308711225e+00
 9.906429340470070e-01	 1.704451870257265e+00	 7.566242892517452e+00
 9.507690430607827e-01	 1.727011317898189e+00	 7.314181081986165e+00
 9.105153452303217e-01	 1.748568544162743e+00	 7.059907827936462e+00
 8.699186542911300e-01	 1.769116152789710e+00	 6.803542044235718e+00
 8.290158231526052e-01	 1.788648497005671e+00	 6.545202172119338e+00
 1.228719530582835e+00	 1.559906566357482e+00	 9.046224500741193e+00
 1.191615403064888e+00	 1.588430941651702e+00	 8.814561277378299e+00
 1.153912906204256e+00	 1.616027578431323e+00	 8.580659257932323e+00
 1.115646687669984e+00	 1.642678503148757e+00	 8.344267951736404e+00
 1.076852063421971e+00	 1.668367453234356e+00	 8.105127801512589e+00
 1.037564913229628e+00	 1.693079904307296e+00	 7.862967709781365e+00
 9.978215752416963e-01	 1.716803089844942e+00	 7.617501754781211e+00
 9.576587402306620e-01	 1.739526013320440e+00	 7.368425348978572e+00
 9.171133461254229e-01	 1.761239452875786e+00	 7.115411082217920e+00
 8.762224734302777e-01	 1.781935958653133e+00	 6.858104470148769e+00
 8.350232421072867e-01	 1.801609842960009e+00	 6.596119798687182e+00
 1.237559269389690e+00	 1.571128953780800e+00	 9.064800900529939e+00
 1.200188204797994e+00	 1.599858541103495e+00	 8.839338154048372e+00
 1.162214466033515e+00	 1.627653715511282e+00	 8.611874378392608e+00
 1.123672950029984e+00	 1.654496374150013e+00	 8.381917123777974e+00
 1.084599226819845e+00	 1.680370137452718e+00	 8.148904486525403e+00
 1.045029434301254e+00	 1.705260376546246e+00	 7.912205954200434e+00
 1.005000172049402e+00	 1.729154233062144e+00	 7.671122843424572e+00
 9.645483948000920e-01	 1.752040631361561e+00	 7.424888551884779e+00
 9.237113062236508e-01	 1.773910283241945e+00	 7.172668830510545e+00
 8.825262535915284e-01	 1.794755685249146e+00	 6.913562256086633e+00
 8.410306239168076e-01	 1.814571108771879e+00	 6.646601050779802e+00
 7.809557230084923e-01	 1.684956114434272e+00	 6.149894103981989e+00
 7.421731178265022e-01	 1.702394840869089e+00	 5.893764912976296e+00
 7.031713057585309e-01	 1.718871541860783e+00	 5.641247368424765e+00
 6.639845391423617e-01	 1.734385733593725e+00	 5.391814028198819e+00
 6.246467453183745e-01	 1.748938480695031e+00	 5.144795860913887e+00
 5.851914441855204e-01	 1.762532357481655e+00	 4.899385185885542e+00
 5.456516697179219e-01	 1.775171404337629e+00	 4.654639283938993e+00
 5.060598957399114e-01	 1.786861079627148e+00	 4.409484591467677e+00
 4.664479662144161e-01	 1.797608207565696e+00	 4.162721377993957e+00
 4.268470302562790e-01	 1.807420922483264e+00	 3.913028800465401e+00
 3.872874820388771e-01	 1.816308609920916e+00	 3.658970225650152e+00
 7.869632625087235e-01	 1.697917720470713e+00	 6.195845049724799e+00
 7.478823202690242e-01	 1.715490595148239e+00	 5.941936177418306e+00
 7.085804848838243e-01	 1.732094043955664e+00	 5.691490194940156e+00
 6.690922721786597e-01	 1.747727579355579e+00	 5.444055255734742e+00
 6.294518704816070e-01	 1.762392274164796e+00	 5.199034558018183e+00
 5.896930575450495e-01	 1.776090722503322e+00	 4.955689063762749e+00
 5.498491214585426e-01	 1.788826995836037e+00	 4.713140938438853e+00
 5.099527858528722e-01	 1.800606594515860e+00	 4.470377619425685e+00
 4.700361396521803e-01	 1.811436395253883e+00	 4.226256407717092e+00
 4.301305715873716e-01	 1.821324594953817e+00	 3.979509469723063e+00
 3.902667096404621e-01	 1.830280651355449e+00	 3.728749133618789e+00
 7.929708041117345e-01	 1.710879331044161e+00	 6.243300639974880e+00
 7.535915247099300e-01	 1.728586354011297e+00	 5.991042294121742e+00
 7.139896659025052e-01	 1.745316550678762e+00	 5.741778001515270e+00
 6.742000070028458e-01	 1.761069429787372e+00	 5.495228685955372e+00
 6.342569973268173e-01	 1.775846072343639e+00	 5.250982021595124e+00
 5.941946724803291e-01	 1.789649092270639e+00	 5.008493528043660e+00
 5.540465746684606e-01	 1.802482592114111e+00	 4.767088383695782e+00
 5.138456773285421e-01	 1.814352114215724e+00	 4.525963876027627e+00
 4.736243143460179e-01	 1.825264587782192e+00	 4.284192392811868e+00
 4.334141140679419e-01	 1.835228272290978e+00	 4.040724849034034e+00
 3.932459382850532e-01	 1.844252697680622e+00	 3.794394440793308e+00
 7.989783429115337e-01	 1.723840935569681e+00	 6.291994174555340e+00
 7.593007264868672e-01	 1.741682106763799e+00	 6.040680587090542e+00
 7.193988443972461e-01	 1.758539051232120e+00	 5.791635430666983e+00
 6.793077394437823e-01	 1.774411273993694e+00	 5.544846970292658e+00
 6.390621219300110e-01	 1.789299864244733e+00	 5.300196787347328e+00
 5.986962853152490e-01	 1.803207455711374e+00	 5.057457866042020e+00
 5.582440259199829e-01	 1.816138182020209e+00	 4.816293343775619e+00
 5.177385669879710e-01	 1.828097627501634e+00	 4.576255870096039e+00
 4.772124873658480e-01	 1.839092773857973e+00	 4.336787502325122e+00
 4.366976550167058e-01	 1.849131943140409e+00	 4.097220054861391e+00
 3.962251655398985e-01	 1.858224737486205e+00	 3.856775813846560e+00
 8.049858740021278e-01	 1.736802523462339e+00	 6.341666421392809e+00
 7.650099209374839e-01	 1.754777842711275e+00	 6.090460026164164e+00
 7.248080159507176e-01	 1.771761534817776e+00	 5.840601057237897e+00
 6.844154653303316e-01	 1.787753101079132e+00	 5.592437165167379e+00
 6.438672403671953e-01	 1.802753638881247e+00	 5.346250538422540e+00
 6.031978923737010e-01	 1.816765801753297e+00	 5.102251614052657e+00
 5.624414717854173e-01	 1.829793754402688e+00	 4.860573346737500e+00
 5.216314516522099e-01	 1.841843123148493e+00	 4.621266021879689e+00
 4.808006557815893e-01	 1.852920942188577e+00	 4.384292579510049e+00
 4.399811917523782e-01	 1.863035596147770e+00	 4.149524402339624e+00
 3.992043889722463e-01	 1.872196759361969e+00	 3.916737513461259e+00
 8.109933924775248e-01	 1.749764084137200e+00	 6.392065303963518e+00
 7.707191033994272e-01	 1.767873551159260e+00	 6.140000760220591e+00
 7.302171761455923e-01	 1.784983990637770e+00	 5.888226837565226e+00
 6.895231804913569e-01	 1.801094900148274e+00	 5.637540164492945e+00
 6.486723487143762e-01	 1.816207385266352e+00	 5.388727585549477e+00
 6.076994899795760e-01	 1.830324119324177e+00	 5.142554146127434e+00
 5.666389088370706e-01	 1.843449298109902e+00	 4.899751479577546e+00
 5.255243281423086e-01	 1.855588589931198e+00	 4.661006638038796e+00
 4.843888166631602e-01	 1.866749081481358e+00	 4.426951386919866e+00
 4.432647215936746e-01	 1.876939219958725e+00	 4.198151966607861e+00
 4.021836061493446e-01	 1.886168751897681e+00	 3.975099313988881e+00
 8.170008934317319e-01	 1.762725607009334e+00	 6.442945603295085e+00
 7.764282692103445e-01	 1.780969221413285e+00	 6.188933671635743e+00
 7.356263205645411e-01	 1.798206407894144e+00	 5.934077583519679e+00
 6.946308807557208e-01	 1.814436660305711e+00	 5.679710157703289e+00
 6.534774430475607e-01	 1.829661092413220e+00	 5.427224370524625e+00
 6.122010744567649e-01	 1.843882397351781e+00	 5.178054281350099e+00
 5.708363336472511e-01	 1.857104801990213e+00	 4.933656154292732e+00
 5.294171932793182e-01	 1.869334016624649e+00	 4.695489888005998e+00
 4.879769670804801e-01	 1.880577180443665e+00	 4.465000840934979e+00
 4.465482418593107e-01	 1.890842803218936e+00	 4.243602119611019e+00
 4.051628146384416e-01	 1.900140703683113e+00	 4.032657382763365e+00
 8.230083719587561e-01	 1.775687081493801e+00	 6.494068673782484e+00
 7.821374137078843e-01	 1.794064842778885e+00	 6.236899950915435e+00
 7.410354447902358e-01	 1.811428775788938e+00	 5.977730460147553e+00
 6.997385619522860e-01	 1.827778370656031e+00	 5.718514112002804e+00
 6.582825194427550e-01	 1.843114749335019e+00	 5.461348991860643e+00
 6.167026421291589e-01	 1.857440624763881e+00	 5.208449908668348e+00
 5.750337427882655e-01	 1.870760254891973e+00	 4.962120884499337e+00
 5.333100438842889e-01	 1.883079392003745e+00	 4.724727781654084e+00
 4.915651041034672e-01	 1.894405227782849e+00	 4.498671236265106e+00
 4.498317498680013e-01	 1.904746334574061e+00	 4.286360043619945e+00
 4.081420120067854e-01	 1.914112603308034e+00	 4.090185121126600e+00
 8.290158231526052e-01	 1.788648497005671e+00	 6.545202172119338e+00
 7.878465322296937e-01	 1.807160404561592e+00	 6.283550690480766e+00
 7.464445444053480e-01	 1.824651083524189e+00	 6.018774505721504e+00
 7.048462199099151e-01	 1.841120020303820e+00	 5.753531277614013e+00
 6.630875739759654e-01	 1.856568345044922e+00	 5.490720751474999e+00
 6.212041893206490e-01	 1.870998790488244e+00	 5.233447628393701e+00
 5.792311328324219e-01	 1.884415645663543e+00	 4.984984072071741e+00
 5.372028767782712e-01	 1.896824704843383e+00	 4.748732148205186e+00
 4.951532248020403e-01	 1.908233212206262e+00	 4.528186460931169e+00
 4.531152429384621e-01	 1.918649802669765e+00	 4.326897222648912e+00
 4.111211958216242e-01	 1.928084439362215e+00	 4.148433969104455e+00
 8.350232421072867e-01	 1.801609842960009e+00	 6.596119798687182e+00
 7.935556201134204e-01	 1.820255896066940e+00	 6.328546496644019e+00
 7.518536149925490e-01	 1.837873320301940e+00	 6.056810173075185e+00
 7.099538504574709e-01	 1.854461598353669e+00	 5.784352714867310e+00
 6.678926027231988e-01	 1.870021868556099e+00	 5.514969721362288e+00
 6.257057123551264e-01	 1.884556883452640e+00	 5.252762409533750e+00
 5.834285003520273e-01	 1.898070963153276e+00	 5.002088803298697e+00
 5.410956887823155e-01	 1.910569943918465e+00	 4.767514616318623e+00
 4.987413262461183e-01	 1.922061122421256e+00	 4.553764202209246e+00
 4.563987183894082e-01	 1.932553196151707e+00	 4.365671912882884e+00
 4.141003636502062e-01	 1.942056200435424e+00	 4.208134175559893e+00
 8.410306239168076e-01	 1.814571108771879e+00	 6.646601050779802e+00
 7.992646726967119e-01	 1.833351306600461e+00	 6.371557118868646e+00
 7.572626521345107e-01	 1.851095475324230e+00	 6.091448891159972e+00
 7.150614494238162e-01	 1.867803093910166e+00	 5.810580842044674e+00
 6.726976017604617e-01	 1.883475308881719e+00	 5.533736329253927e+00
 6.302072075564815e-01	 1.898114892584837e+00	 5.266117262166127e+00
 5.876258419193895e-01	 1.911726196209532e+00	 5.013282654082632e+00
 5.449884767174722e-01	 1.924315098003888e+00	 4.781086595300438e+00
 5.023294055056197e-01	 1.935888947135180e+00	 4.575616143984504e+00
 4.596821735395550e-01	 1.946456503665550e+00	 4.403129593159800e+00
 4.170795130597794e-01	 1.956027875117432e+00	 4.269995535545447e+00
 3.872874820388771e-01	 1.816308609920916e+00	 3.658970225650152e+00
 3.477961513548631e-01	 1.824282371526556e+00	 3.409772959111624e+00
 3.084045727317791e-01	 1.831353256794514e+00	 3.170725153068389e+00
 2.691406090831641e-01	 1.837534030153142e+00	 2.934593445807415e+00
 2.300311761118629e-01	 1.842838449176229e+00	 2.694485837489336e+00
 1.911022077634256e-01	 1.847281196321023e+00	 2.443859675935058e+00
 1.523786267521780e-01	 1.850877810074617e+00	 2.176526282637500e+00
 1.138843200634055e-01	 1.853644615892075e+00	 1.886652409505735e+00
 7.564211930666406e-02	 1.855598657289427e+00	 1.568758749586228e+00
 3.767378576971149e-02	 1.856757627432609e+00	 1.217715752814681e+00
 0.000000000000000e+00	 1.857139801539814e+00	 8.287370202231862e-01
 3.902667096404621e-01	 1.830280651355449e+00	 3.728749133618787e+00
 3.504715899935780e-01	 1.838315751506641e+00	 3.483554211740131e+00
 3.107769897551532e-01	 1.845441029900473e+00	 3.248279762932596e+00
 2.712109861755548e-01	 1.851669349156259e+00	 3.013824974793674e+00
 2.318007020079915e-01	 1.857014572678568e+00	 2.771458231417169e+00
 1.925722706961611e-01	 1.861491495870142e+00	 2.512837753562906e+00
 1.535508066735914e-01	 1.865115776748615e+00	 2.230027858852417e+00
 1.147603806773737e-01	 1.867903866353385e+00	 1.915510990788872e+00
 7.622399995034060e-02	 1.869872939308534e+00	 1.562195712576055e+00
 3.796359318002330e-02	 1.871040824885514e+00	 1.163420903265165e+00
 0.000000000000000e+00	 1.871425938885499e+00	 7.129564290300267e-01
 3.932459382850532e-01	 1.844252697680622e+00	 3.794394440793308e+00
 3.531470295690237e-01	 1.852349136398973e+00	 3.555084403261669e+00
 3.131494076092565e-01	 1.859528807937886e+00	 3.325844407708965e+00
 2.732813639930133e-01	 1.865804673107656e+00	 3.095370996408599e+00
 2.335702285239302e-01	 1.871190701143662e+00	 2.852730020196284e+00
 1.940423341439138e-01	 1.875701800394163e+00	 2.587394160393045e+00
 1.547229870057532e-01	 1.879353748407376e+00	 2.289274989798593e+00
 1.156364415984018e-01	 1.882163121807058e+00	 1.948749647642612e+00
 7.680588079802229e-02	 1.884147226325386e+00	 1.556682268130003e+00
 3.825340069197077e-02	 1.885324027339362e+00	 1.104440360788712e+00
 0.000000000000000e+00	 1.885712081233184e+00	 5.839063923291585e-01
 3.962251655398985e-01	 1.858224737486205e+00	 3.856775813846560e+00
 3.558224678965476e-01	 1.866382514743161e+00	 3.625492260982494e+00
 3.155218243569035e-01	 1.873616579401857e+00	 3.404646317255987e+00
 2.753517408450131e-01	 1.879939990463523e+00	 3.180405351784230e+00
 2.353397542148332e-01	 1.885366822994288e+00	 2.939278796024954e+00
 1.955123969063779e-01	 1.889912098287876e+00	 2.668176723880291e+00
 1.558951667915985e-01	 1.893591713423012e+00	 2.354461829846221e+00
 1.165125021112163e-01	 1.896422370607762e+00	 1.985994774288463e+00
 7.738776137463409e-02	 1.898421506682321e+00	 1.551172950364464e+00
 3.854320806894682e-02	 1.899607223129177e+00	 1.038962805933960e+00
 0.000000000000000e+00	 1.899998216915481e+00	 4.389259248359861e-01
 3.992043889722463e-01	 1.872196759361969e+00	 3.916737513461259e+00
 3.584979027914968e-01	 1.880415875078809e+00	 3.695873448663446e+00
 3.178942380609087e-01	 1.887704332787491e+00	 3.485876782264048e+00
 2.774221150410272e-01	 1.894075289680050e+00	 3.270067586800887e+00
 2.371092776358552e-01	 1.899542926653227e+00	 3.032053745985221e+00
 1.969824577832472e-01	 1.904122377946063e+00	 2.755814720046139e+00
 1.570673450740619e-01	 1.907829660167639e+00	 2.425777508689937e+00
 1.173885615005437e-01	 1.910681601110162e+00	 2.026884643352433e+00
 7.796964120510101e-02	 1.912695768721677e+00	 1.544654149644475e+00
 3.883301507434440e-02	 1.913890400589983e+00	 9.652315231712685e-01
 0.000000000000000e+00	 1.914284334264999e+00	 2.754338557434457e-01
 4.021836061493446e-01	 1.886168751897681e+00	 3.975099313988881e+00
 3.611733320692193e-01	 1.894449205945525e+00	 3.767291772608829e+00
 3.202666467840865e-01	 1.901792056589895e+00	 3.570692469772164e+00
 2.794924848905292e-01	 1.908210559213428e+00	 3.365464209640405e+00
 2.388787973421502e-01	 1.913719000543261e+00	 3.131976694250127e+00
 1.984525155742156e-01	 1.918332627763510e+00	 2.850919553308220e+00
 1.582395208960786e-01	 1.922067577013369e+00	 2.503406312404489e+00
 1.182646190511106e-01	 1.924940801668923e+00	 2.071068962616968e+00
 7.855151981434802e-02	 1.926970000785793e+00	 1.536142930547441e+00
 3.912282147155649e-02	 1.928173548056805e+00	 8.815423767513566e-01
 0.000000000000000e+00	 1.928570421614352e+00	 9.092587040872901e-02
 4.051628146384416e-01	 1.900140703683113e+00	 4.032657382763365e+00
 3.638487535450625e-01	 1.908482495882913e+00	 3.840780334767195e+00
 3.226390485892515e-01	 1.915879739304173e+00	 3.660216680850556e+00
 2.815628487029925e-01	 1.922345787519847e+00	 3.467669893033936e+00
 2.406483118888728e-01	 1.927895033087166e+00	 3.239943098447234e+00
 1.999225690789772e-01	 1.932542836135003e+00	 2.954085406402940e+00
 1.594116933005831e-01	 1.936305452332318e+00	 2.587527856538778e+00
 1.191406740476435e-01	 1.939199960638711e+00	 2.118208451285739e+00
 7.913339672730015e-02	 1.941244191217008e+00	 1.524685901854008e+00
 3.941262702397597e-02	 1.942456653864665e+00	 7.862418756596150e-01
 0.000000000000000e+00	 1.942856467296148e+00	-1.170283177451443e-01
 4.081420120067854e-01	 1.914112603308034e+00	 4.090185121126601e+00
 3.665241650343737e-01	 1.922515733430581e+00	 3.917342635546210e+00
 3.250114415392178e-01	 1.929967369425429e+00	 3.755540553400055e+00
 2.836332047878904e-01	 1.936480963055499e+00	 3.577728624024236e+00
 2.424178198311772e-01	 1.942071012707724e+00	 3.356823002513860e+00
 2.013926170972256e-01	 1.946752991455327e+00	 3.065889861925287e+00
 1.605838613305106e-01	 1.950543274496597e+00	 2.678317251652537e+00
 1.200167257748691e-01	 1.953459066374192e+00	 2.167974434763633e+00
 7.971527146888234e-02	 1.955518328357659e+00	 1.509358135915388e+00
 3.970243149499583e-02	 1.956739706348588e+00	 6.777253231210185e-01
 0.000000000000000e+00	 1.957142459643000e+00	-3.507876717504099e-01
 4.111211958216242e-01	 1.928084439362215e+00	 4.148433969104455e+00
 3.691995643525005e-01	 1.936548907128135e+00	 3.997953628886761e+00
 3.273838236968005e-01	 1.944054935448769e+00	 3.857724212843456e+00
 2.857035514546960e-01	 1.950616074276571e+00	 3.696654803899285e+00
 2.441873197242179e-01	 1.956246927827715e+00	 3.483461948247329e+00
 2.028626584286550e-01	 1.960963082119268e+00	 3.186894496921942e+00
 1.617560240287959e-01	 1.964781031878321e+00	 2.775945261679373e+00
 1.208927735175138e-01	 1.967718107230032e+00	 2.220048457018835e+00
 8.029714356401962e-02	 1.969792400550084e+00	 1.489262134896814e+00
 3.999223464800900e-02	 1.971022693843598e+00	 5.544350463804477e-01
 0.000000000000000e+00	 1.971428386987518e+00	-6.126424182924661e-01
 4.141003636502062e-01	 1.942056200435424e+00	 4.208134175559892e+00
 3.718749493147904e-01	 1.950582005515181e+00	 4.083560731996450e+00
 3.297561931248136e-01	 1.958142425869298e+00	 3.967797873330157e+00
 2.877738870128829e-01	 1.964751109639256e+00	 3.825434300801033e+00
 2.459568101231491e-01	 1.970422766869918e+00	 3.620681847626665e+00
 2.043326918729593e-01	 1.975173096521612e+00	 3.317645451893969e+00
 1.629281804383737e-01	 1.979018712849604e+00	 2.880578455477222e+00
 1.217688165603043e-01	 1.981977071560896e+00	 2.274121909638786e+00
 8.087901253763698e-02	 1.984066396136623e+00	 1.463526841543113e+00
 4.028203624640840e-02	 1.985305604684719e+00	 4.148587027205641e-01
 0.000000000000000e+00	 1.985714237662315e+00	-9.048165234809686e-01
 4.170795130597794e-01	 1.956027875117432e+00	 4.269995535545447e+00
 3.745503177365909e-01	 1.964615017131326e+00	 4.175084792002774e+00
 3.321285478860717e-01	 1.972229829182122e+00	 4.086762891921769e+00
 2.898442097719244e-01	 1.978886057599742e+00	 3.965025457370249e+00
 2.477262895831253e-01	 1.984598518257113e+00	 3.769281817861319e+00
 2.058027162298323e-01	 1.989383023057143e+00	 3.458673975483583e+00
 1.641003296021790e-01	 1.993256305782559e+00	 2.992379351905220e+00
 1.226448541879670e-01	 1.996235947721450e+00	 2.329895676753214e+00
 8.146087791465940e-02	 1.998340303459614e+00	 1.431306692242748e+00
 4.057183605358700e-02	 1.999588427206973e+00	 2.575276579169936e-01
 0.000000000000000e+00	 2.000000000000000e+00	-1.229470062753305e+00
