patch_n	x	y	stress_yy
0	 0.000000000000000e+00	 0.000000000000000e+00	 7.137625788318787e-01
0	 0.000000000000000e+00	 1.428576234225853e-01	 3.469107121370759e+00
0	 0.000000000000000e+00	 2.857161301906819e-01	 6.073303019449250e+00
0	 0.000000000000000e+00	 4.285754036348007e-01	 8.490662090685971e+00
0	 0.000000000000000e+00	 5.714353270854531e-01	 1.068549425840146e+01
0	 0.000000000000000e+00	 7.142957838731496e-01	 1.262210755176614e+01
0	 0.000000000000000e+00	 8.571566573284017e-01	 1.426480810592497e+01
0	 0.000000000000000e+00	 1.000017830781720e+00	 1.557790016209907e+01
0	 0.000000000000000e+00	 1.142879187563616e+00	 1.652568606766397e+01
0	 0.000000000000000e+00	 1.285740611004601e+00	 1.707246627620473e+01
0	 0.000000000000000e+00	 1.428601984435185e+00	 1.718253934754790e+01
0	 1.428576234225853e-01	 0.000000000000000e+00	-2.289520949632726e+00
0	 1.428576234225853e-01	 1.428576234225853e-01	 1.662049913092094e+00
0	 1.428576234225853e-01	 2.857161301906819e-01	 5.252146741427241e+00
0	 1.428576234225853e-01	 4.285754036348008e-01	 8.452479703900321e+00
0	 1.428576234225852e-01	 5.714353270854531e-01	 1.123475628560750e+01
0	 1.428576234225853e-01	 7.142957838731498e-01	 1.357068128841467e+01
0	 1.428576234225853e-01	 8.571566573284018e-01	 1.543195683112580e+01
0	 1.428576234225852e-01	 1.000017830781720e+00	 1.679028234961830e+01
0	 1.428576234225852e-01	 1.142879187563616e+00	 1.761735459694570e+01
0	 1.428576234225852e-01	 1.285740611004601e+00	 1.788486764340727e+01
0	 1.428576234225853e-01	 1.428601984435185e+00	 1.756451287658484e+01
0	 2.857161301906819e-01	 0.000000000000000e+00	-4.080737729188341e+00
0	 2.857161301906819e-01	 1.428576234225853e-01	 6.376866577402118e-01
0	 2.857161301906819e-01	 2.857161301906819e-01	 4.847654015577052e+00
0	 2.857161301906818e-01	 4.285754036348007e-01	 8.527569845755991e+00
0	 2.857161301906819e-01	 5.714353270854529e-01	 1.165583646440124e+01
0	 2.857161301906819e-01	 7.142957838731496e-01	 1.421085300256161e+01
0	 2.857161301906818e-01	 8.571566573284015e-01	 1.617101540640589e+01
0	 2.857161301906820e-01	 1.000017830781720e+00	 1.751471643737901e+01
0	 2.857161301906820e-01	 1.142879187563616e+00	 1.822034567231941e+01
0	 2.857161301906819e-01	 1.285740611004601e+00	 1.826628950353707e+01
0	 2.857161301906818e-01	 1.428601984435185e+00	 1.763093113885293e+01
0	 4.285754036348007e-01	 0.000000000000000e+00	-4.827957343815435e+00
0	 4.285754036348006e-01	 1.428576234225853e-01	 2.852206044546390e-01
0	 4.285754036348008e-01	 2.857161301906818e-01	 4.798404342371061e+00
0	 4.285754036348008e-01	 4.285754036348008e-01	 8.695991972590347e+00
0	 4.285754036348007e-01	 5.714353270854531e-01	 1.196237815913969e+01
0	 4.285754036348008e-01	 7.142957838731498e-01	 1.458195412766688e+01
0	 4.285754036348007e-01	 8.571566573284016e-01	 1.653910766564836e+01
0	 4.285754036348007e-01	 1.000017830781720e+00	 1.781822312255481e+01
0	 4.285754036348008e-01	 1.142879187563616e+00	 1.840368140997495e+01
0	 4.285754036348006e-01	 1.285740611004600e+00	 1.827986000169705e+01
0	 4.285754036348007e-01	 1.428601984435185e+00	 1.743113293374824e+01
0	 5.714353270854531e-01	 0.000000000000000e+00	-4.699249028550817e+00
0	 5.714353270854530e-01	 1.428576234225852e-01	 4.938552658100703e-01
0	 5.714353270854530e-01	 2.857161301906819e-01	 5.042977423366083e+00
0	 5.714353270854532e-01	 4.285754036348007e-01	 8.937805699196105e+00
0	 5.714353270854529e-01	 5.714353270854530e-01	 1.216802486629177e+01
0	 5.714353270854530e-01	 7.142957838731496e-01	 1.472331621580850e+01
0	 5.714353270854532e-01	 8.571566573284020e-01	 1.659335755727403e+01
0	 5.714353270854530e-01	 1.000017830781720e+00	 1.776782321875409e+01
0	 5.714353270854532e-01	 1.142879187563616e+00	 1.823638404697569e+01
0	 5.714353270854529e-01	 1.285740611004601e+00	 1.798870740740743e+01
0	 5.714353270854529e-01	 1.428601984435185e+00	 1.701445718429754e+01
0	 7.142957838731496e-01	 0.000000000000000e+00	-3.862681669514478e+00
0	 7.142957838731498e-01	 1.428576234225853e-01	 1.152794417796426e+00
0	 7.142957838731496e-01	 2.857161301906819e-01	 5.519953161188351e+00
0	 7.142957838731497e-01	 4.285754036348007e-01	 9.233070798809649e+00
0	 7.142957838731496e-01	 5.714353270854529e-01	 1.228642021442860e+01
0	 7.142957838731497e-01	 7.142957838731497e-01	 1.467427093767365e+01
0	 7.142957838731497e-01	 8.571566573284020e-01	 1.639088914423268e+01
0	 7.142957838731496e-01	 1.000017830781720e+00	 1.743053765601100e+01
0	 7.142957838731496e-01	 1.142879187563616e+00	 1.778747594124851e+01
0	 7.142957838731497e-01	 1.285740611004601e+00	 1.745596011459553e+01
0	 7.142957838731497e-01	 1.428601984435185e+00	 1.643024293714769e+01
0	 8.571566573284017e-01	 0.000000000000000e+00	-2.486323803932188e+00
0	 8.571566573284018e-01	 1.428576234225853e-01	 2.151242099802131e+00
0	 8.571566573284014e-01	 2.857161301906818e-01	 6.167911659521011e+00
0	 8.571566573284018e-01	 4.285754036348008e-01	 9.561847203101287e+00
0	 8.571566573284018e-01	 5.714353270854531e-01	 1.233120796421533e+01
0	 8.571566573284018e-01	 7.142957838731497e-01	 1.447415008255129e+01
0	 8.571566573284016e-01	 8.571566573284015e-01	 1.598882660399563e+01
0	 8.571566573284016e-01	 1.000017830781720e+00	 1.687338748077754e+01
0	 8.571566573284016e-01	 1.142879187563616e+00	 1.712597957157567e+01
0	 8.571566573284015e-01	 1.285740611004601e+00	 1.674474664158679e+01
0	 8.571566573284016e-01	 1.428601984435186e+00	 1.572782936255667e+01
0	 1.000017830781720e+00	 0.000000000000000e+00	-7.382436201537956e-01
0	 1.000017830781720e+00	 1.428576234225853e-01	 3.378402614600608e+00
0	 1.000017830781720e+00	 2.857161301906819e-01	 6.925433223094041e+00
0	 1.000017830781720e+00	 4.285754036348007e-01	 9.904195002167455e+00
0	 1.000017830781720e+00	 5.714353270854530e-01	 1.231603200840463e+01
0	 1.000017830781720e+00	 7.142957838731496e-01	 1.416228555832614e+01
0	 1.000017830781720e+00	 8.571566573284017e-01	 1.544429422854972e+01
0	 1.000017830781720e+00	 1.000017830781720e+00	 1.616339385591720e+01
0	 1.000017830781720e+00	 1.142879187563616e+00	 1.632091753758775e+01
0	 1.000017830781720e+00	 1.285740611004601e+00	 1.591819563109758e+01
0	 1.000017830781720e+00	 1.428601984435185e+00	 1.495655575438613e+01
0	 1.142879187563616e+00	 0.000000000000000e+00	 1.213491042332732e+00
0	 1.142879187563616e+00	 1.428576234225853e-01	 4.723480528340001e+00
0	 1.142879187563616e+00	 2.857161301906820e-01	 7.731098357676651e+00
0	 1.142879187563616e+00	 4.285754036348008e-01	 1.024017444452483e+01
0	 1.142879187563616e+00	 5.714353270854530e-01	 1.225453637183186e+01
0	 1.142879187563616e+00	 7.142957838731495e-01	 1.377800939147417e+01
0	 1.142879187563616e+00	 8.571566573284016e-01	 1.481441642439277e+01
0	 1.142879187563616e+00	 1.000017830781720e+00	 1.536757806070012e+01
0	 1.142879187563616e+00	 1.142879187563616e+00	 1.544131255975840e+01
0	 1.142879187563616e+00	 1.285740611004601e+00	 1.503943585022933e+01
0	 1.142879187563616e+00	 1.428601984435185e+00	 1.416576153009534e+01
0	 1.285740611004601e+00	 0.000000000000000e+00	 3.200812692891550e+00
0	 1.285740611004601e+00	 1.428576234225853e-01	 6.075680670536160e+00
0	 1.285740611004601e+00	 2.857161301906819e-01	 8.523487770072160e+00
0	 1.285740611004601e+00	 4.285754036348007e-01	 1.054984593710643e+01
0	 1.285740611004601e+00	 5.714353270854530e-01	 1.216036521141170e+01
0	 1.285740611004601e+00	 7.142957838731497e-01	 1.336065372705958e+01
0	 1.285740611004601e+00	 8.571566573284016e-01	 1.415631771253039e+01
0	 1.285740611004601e+00	 1.000017830781720e+00	 1.455296149079948e+01
0	 1.285740611004601e+00	 1.142879187563616e+00	 1.455618747940035e+01
0	 1.285740611004601e+00	 1.285740611004601e+00	 1.417159619046430e+01
0	 1.285740611004601e+00	 1.428601984435186e+00	 1.340478623073681e+01
0	 1.428601984435185e+00	 0.000000000000000e+00	 5.055654189733454e+00
0	 1.428601984435185e+00	 1.428576234225853e-01	 7.324208134068774e+00
0	 1.428601984435185e+00	 2.857161301906819e-01	 9.241182368115290e+00
0	 1.428601984435185e+00	 4.285754036348007e-01	 1.081327004525962e+01
0	 1.428601984435185e+00	 5.714353270854530e-01	 1.204716281613656e+01
0	 1.428601984435185e+00	 7.142957838731498e-01	 1.294955082873311e+01
0	 1.428601984435185e+00	 8.571566573284015e-01	 1.352712272847412e+01
0	 1.428601984435185e+00	 1.000017830781720e+00	 1.378656565828950e+01
0	 1.428601984435185e+00	 1.142879187563616e+00	 1.373456525866303e+01
0	 1.428601984435185e+00	 1.285740611004601e+00	 1.337780566766282e+01
0	 1.428601984435185e+00	 1.428601984435185e+00	 1.272296952095330e+01
0	 0.000000000000000e+00	 1.428601984435185e+00	 1.718253934754790e+01
0	 0.000000000000000e+00	 1.571453213328422e+00	 1.698652803691181e+01
0	 0.000000000000000e+00	 1.714304292230859e+00	 1.664824788158213e+01
0	 0.000000000000000e+00	 1.857155237808251e+00	 1.618181046876784e+01
0	 0.000000000000000e+00	 2.000006066726355e+00	 1.560132743500202e+01
0	 0.000000000000000e+00	 2.142856795650925e+00	 1.492091046614208e+01
0	 0.000000000000000e+00	 2.285707441247718e+00	 1.415467129737003e+01
0	 0.000000000000000e+00	 2.428558020182488e+00	 1.331672171319253e+01
0	 0.000000000000000e+00	 2.571408549120992e+00	 1.242117354744090e+01
0	 0.000000000000000e+00	 2.714259044728984e+00	 1.148213868327110e+01
0	 0.000000000000000e+00	 2.857109523672222e+00	 1.051372905316353e+01
0	 1.428576234225853e-01	 1.428601984435185e+00	 1.756451287658484e+01
0	 1.428576234225853e-01	 1.571453213328422e+00	 1.691136453003326e+01
0	 1.428576234225853e-01	 1.714304292230859e+00	 1.620662835112371e+01
0	 1.428576234225853e-01	 1.857155237808252e+00	 1.546132196269128e+01
0	 1.428576234225853e-01	 2.000006066726355e+00	 1.468646298332466e+01
0	 1.428576234225852e-01	 2.142856795650925e+00	 1.389306902736575e+01
0	 1.428576234225852e-01	 2.285707441247718e+00	 1.309215770490946e+01
0	 1.428576234225853e-01	 2.428558020182487e+00	 1.229474662180332e+01
0	 1.428576234225853e-01	 2.571408549120992e+00	 1.151185337964722e+01
0	 1.428576234225852e-01	 2.714259044728985e+00	 1.075449557579315e+01
0	 1.428576234225852e-01	 2.857109523672222e+00	 1.003369080334486e+01
0	 2.857161301906818e-01	 1.428601984435185e+00	 1.763093113885292e+01
0	 2.857161301906819e-01	 1.571453213328422e+00	 1.665425424939991e+01
0	 2.857161301906819e-01	 1.714304292230859e+00	 1.569600499652566e+01
0	 2.857161301906819e-01	 1.857155237808251e+00	 1.476441437302709e+01
0	 2.857161301906818e-01	 2.000006066726355e+00	 1.386771332745557e+01
0	 2.857161301906819e-01	 2.142856795650925e+00	 1.301413276411623e+01
0	 2.857161301906819e-01	 2.285707441247718e+00	 1.221190354306731e+01
0	 2.857161301906818e-01	 2.428558020182487e+00	 1.146925648011948e+01
0	 2.857161301906819e-01	 2.571408549120991e+00	 1.079442234683539e+01
0	 2.857161301906819e-01	 2.714259044728984e+00	 1.019563187052919e+01
0	 2.857161301906819e-01	 2.857109523672222e+00	 9.681115734266143e+00
0	 4.285754036348007e-01	 1.428601984435185e+00	 1.743113293374824e+01
0	 4.285754036348008e-01	 1.571453213328422e+00	 1.624792417333234e+01
0	 4.285754036348006e-01	 1.714304292230859e+00	 1.513474092529477e+01
0	 4.285754036348008e-01	 1.857155237808252e+00	 1.409733488629042e+01
0	 4.285754036348006e-01	 2.000006066726355e+00	 1.314145768072757e+01
0	 4.285754036348006e-01	 2.142856795650925e+00	 1.227286086076682e+01
0	 4.285754036348008e-01	 2.285707441247718e+00	 1.149729590632020e+01
0	 4.285754036348007e-01	 2.428558020182488e+00	 1.082051422505032e+01
0	 4.285754036348007e-01	 2.571408549120991e+00	 1.024826715236970e+01
0	 4.285754036348007e-01	 2.714259044728984e+00	 9.786305951440299e+00
0	 4.285754036348007e-01	 2.857109523672222e+00	 9.440381813172998e+00
0	 5.714353270854529e-01	 1.428601984435185e+00	 1.701445718429754e+01
0	 5.714353270854529e-01	 1.571453213328422e+00	 1.572510139605291e+01
0	 5.714353270854529e-01	 1.714304292230859e+00	 1.454119934685163e+01
0	 5.714353270854529e-01	 1.857155237808251e+00	 1.346633077216999e+01
0	 5.714353270854530e-01	 2.000006066726355e+00	 1.250407531766097e+01
0	 5.714353270854530e-01	 2.142856795650926e+00	 1.165801253915307e+01
0	 5.714353270854529e-01	 2.285707441247718e+00	 1.093172190264926e+01
0	 5.714353270854531e-01	 2.428558020182488e+00	 1.032878278432597e+01
0	 5.714353270854529e-01	 2.571408549120991e+00	 9.852774470532431e+00
0	 5.714353270854530e-01	 2.714259044728984e+00	 9.507276157789992e+00
0	 5.714353270854531e-01	 2.857109523672222e+00	 9.295866952791748e+00
0	 7.142957838731497e-01	 1.428601984435185e+00	 1.643024293714768e+01
0	 7.142957838731496e-01	 1.571453213328422e+00	 1.511851312767564e+01
0	 7.142957838731497e-01	 1.714304292230859e+00	 1.393374357252166e+01
0	 7.142957838731497e-01	 1.857155237808251e+00	 1.287764938352039e+01
0	 7.142957838731495e-01	 2.000006066726355e+00	 1.195194557395755e+01
0	 7.142957838731497e-01	 2.142856795650925e+00	 1.115834705856865e+01
0	 7.142957838731496e-01	 2.285707441247718e+00	 1.049856865353788e+01
0	 7.142957838731498e-01	 2.428558020182488e+00	 9.974325076497063e+00
0	 7.142957838731497e-01	 2.571408549120993e+00	 9.587330946524959e+00
0	 7.142957838731496e-01	 2.714259044728984e+00	 9.339300784146602e+00
0	 7.142957838731497e-01	 2.857109523672223e+00	 9.231949011332862e+00
0	 8.571566573284016e-01	 1.428601984435186e+00	 1.572782936255667e+01
0	 8.571566573284018e-01	 1.571453213328422e+00	 1.446088669419764e+01
0	 8.571566573284013e-01	 1.714304292230859e+00	 1.333073701552719e+01
0	 8.571566573284015e-01	 1.857155237808251e+00	 1.233753815635543e+01
0	 8.571566573284017e-01	 2.000006066726355e+00	 1.148144784649537e+01
0	 8.571566573284016e-01	 2.142856795650925e+00	 1.076262371576173e+01
0	 8.571566573284014e-01	 2.285707441247718e+00	 1.018122329396972e+01
0	 8.571566573284016e-01	 2.428558020182488e+00	 9.737404010934195e+00
0	 8.571566573284018e-01	 2.571408549120991e+00	 9.431323196468803e+00
0	 8.571566573284018e-01	 2.714259044728983e+00	 9.263138080385414e+00
0	 8.571566573284016e-01	 2.857109523672222e+00	 9.233005792493714e+00
0	 1.000017830781720e+00	 1.428601984435185e+00	 1.495655575438613e+01
0	 1.000017830781720e+00	 1.571453213328422e+00	 1.378494953749174e+01
0	 1.000017830781720e+00	 1.714304292230858e+00	 1.275054319098089e+01
0	 1.000017830781720e+00	 1.857155237808251e+00	 1.185224460984247e+01
0	 1.000017830781720e+00	 2.000006066726355e+00	 1.108896159332429e+01
0	 1.000017830781720e+00	 2.142856795650925e+00	 1.045960184493173e+01
0	 1.000017830781720e+00	 2.285707441247718e+00	 9.963072972426840e+00
0	 1.000017830781720e+00	 2.428558020182488e+00	 9.598282487827378e+00
0	 1.000017830781720e+00	 2.571408549120993e+00	 9.364137807406063e+00
0	 1.000017830781720e+00	 2.714259044728984e+00	 9.259546251690066e+00
0	 1.000017830781720e+00	 2.857109523672222e+00	 9.283415045460609e+00
0	 1.142879187563616e+00	 1.428601984435185e+00	 1.416576153009534e+01
0	 1.142879187563616e+00	 1.571453213328422e+00	 1.312342921530083e+01
0	 1.142879187563616e+00	 1.714304292230859e+00	 1.221152571588043e+01
0	 1.142879187563616e+00	 1.857155237808251e+00	 1.142801634629786e+01
0	 1.142879187563616e+00	 2.000006066726355e+00	 1.077086633366213e+01
0	 1.142879187563616e+00	 2.142856795650926e+00	 1.023804081772662e+01
0	 1.142879187563617e+00	 2.285707441247718e+00	 9.827504850887955e+00
0	 1.142879187563616e+00	 2.428558020182489e+00	 9.537223398185288e+00
0	 1.142879187563616e+00	 2.571408549120992e+00	 9.365161337299671e+00
0	 1.142879187563616e+00	 2.714259044728984e+00	 9.309283458553498e+00
0	 1.142879187563616e+00	 2.857109523672222e+00	 9.367554464910219e+00
0	 1.285740611004601e+00	 1.428601984435186e+00	 1.340478623073681e+01
0	 1.285740611004601e+00	 1.571453213328422e+00	 1.250905340123339e+01
0	 1.285740611004601e+00	 1.714304292230859e+00	 1.173204830910445e+01
0	 1.285740611004601e+00	 1.857155237808252e+00	 1.107110105118322e+01
0	 1.285740611004601e+00	 2.000006066726355e+00	 1.052354164789188e+01
0	 1.285740611004601e+00	 2.142856795650926e+00	 1.008670004324065e+01
0	 1.285740611004601e+00	 2.285707441247718e+00	 9.757906104826894e+00
0	 1.285740611004601e+00	 2.428558020182488e+00	 9.534489623834471e+00
0	 1.285740611004601e+00	 2.571408549120992e+00	 9.413780315033181e+00
0	 1.285740611004601e+00	 2.714259044728984e+00	 9.393107816778297e+00
0	 1.285740611004601e+00	 2.857109523672222e+00	 9.469801691010323e+00
0	 1.428601984435185e+00	 1.428601984435185e+00	 1.272296952095330e+01
0	 1.428601984435185e+00	 1.571453213328422e+00	 1.197454988476053e+01
0	 1.428601984435185e+00	 1.714304292230859e+00	 1.133047479140960e+01
0	 1.428601984435185e+00	 1.857155237808251e+00	 1.078774649310297e+01
0	 1.428601984435185e+00	 2.000006066726356e+00	 1.034336717755926e+01
0	 1.428601984435185e+00	 2.142856795650925e+00	 9.994338968012478e+00
0	 1.428601984435185e+00	 2.285707441247717e+00	 9.737663923211272e+00
0	 1.428601984435185e+00	 2.428558020182488e+00	 9.570344037418415e+00
0	 1.428601984435185e+00	 2.571408549120992e+00	 9.489381240410284e+00
0	 1.428601984435185e+00	 2.714259044728984e+00	 9.491777397476531e+00
0	 1.428601984435186e+00	 2.857109523672222e+00	 9.574534309419835e+00
0	 0.000000000000000e+00	 2.857109523672222e+00	 1.051372905316353e+01
0	 0.000000000000000e+00	 2.999969994316576e+00	 9.630617978580055e+00
0	 0.000000000000000e+00	 3.142830431628385e+00	 8.932117957837978e+00
0	 0.000000000000000e+00	 3.285690802274106e+00	 8.409094398346728e+00
0	 0.000000000000000e+00	 3.428551072920193e+00	 8.052412901463569e+00
0	 0.000000000000000e+00	 3.571411210233102e+00	 7.852939262493834e+00
0	 0.000000000000000e+00	 3.714271180879290e+00	 7.801539470691818e+00
0	 0.000000000000000e+00	 3.857130951525210e+00	 7.889079709262383e+00
0	 0.000000000000000e+00	 3.999990488837320e+00	 8.106426355363176e+00
0	 0.000000000000000e+00	 4.142849759482075e+00	 8.444445980107586e+00
0	 0.000000000000000e+00	 4.285708730125926e+00	 8.894005348568347e+00
0	 1.428576234225852e-01	 2.857109523672222e+00	 1.003369080334486e+01
0	 1.428576234225853e-01	 2.999969994316577e+00	 9.404857026676924e+00
0	 1.428576234225853e-01	 3.142830431628385e+00	 8.911607950044619e+00
0	 1.428576234225852e-01	 3.285690802274106e+00	 8.547108112102205e+00
0	 1.428576234225853e-01	 3.428551072920194e+00	 8.304522192779526e+00
0	 1.428576234225853e-01	 3.571411210233103e+00	 8.177015013282134e+00
0	 1.428576234225853e-01	 3.714271180879289e+00	 8.157751536092013e+00
0	 1.428576234225853e-01	 3.857130951525211e+00	 8.239896864968756e+00
0	 1.428576234225852e-01	 3.999990488837319e+00	 8.416616244951205e+00
0	 1.428576234225853e-01	 4.142849759482075e+00	 8.681075062359705e+00
0	 1.428576234225852e-01	 4.285708730125926e+00	 9.026438844798626e+00
0	 2.857161301906819e-01	 2.857109523672222e+00	 9.681115734266143e+00
0	 2.857161301906819e-01	 2.999969994316575e+00	 9.260277051674514e+00
0	 2.857161301906819e-01	 3.142830431628385e+00	 8.933903011217120e+00
0	 2.857161301906819e-01	 3.285690802274106e+00	 8.697201820113246e+00
0	 2.857161301906819e-01	 3.428551072920194e+00	 8.545381783525748e+00
0	 2.857161301906819e-01	 3.571411210233102e+00	 8.473651304561209e+00
0	 2.857161301906818e-01	 3.714271180879289e+00	 8.477218884270423e+00
0	 2.857161301906819e-01	 3.857130951525211e+00	 8.551293121649298e+00
0	 2.857161301906819e-01	 3.999990488837321e+00	 8.691082713639975e+00
0	 2.857161301906818e-01	 4.142849759482075e+00	 8.891796455132425e+00
0	 2.857161301906819e-01	 4.285708730125925e+00	 9.148643238966295e+00
0	 4.285754036348007e-01	 2.857109523672222e+00	 9.440381813172998e+00
0	 4.285754036348007e-01	 2.999969994316576e+00	 9.185686488630449e+00
0	 4.285754036348007e-01	 3.142830431628386e+00	 8.991615262951228e+00
0	 4.285754036348006e-01	 3.285690802274104e+00	 8.855164560676624e+00
0	 4.285754036348007e-01	 3.428551072920193e+00	 8.773330869422400e+00
0	 4.285754036348008e-01	 3.571411210233103e+00	 8.743110739878970e+00
0	 4.285754036348006e-01	 3.714271180879290e+00	 8.761500785811700e+00
0	 4.285754036348008e-01	 3.857130951525211e+00	 8.825497684061531e+00
0	 4.285754036348007e-01	 3.999990488837320e+00	 8.932098174545761e+00
0	 4.285754036348008e-01	 4.142849759482075e+00	 9.078299060259075e+00
0	 4.285754036348006e-01	 4.285708730125925e+00	 9.261097207274728e+00
0	 5.714353270854531e-01	 2.857109523672222e+00	 9.295866952791748e+00
0	 5.714353270854530e-01	 2.999969994316577e+00	 9.169893715102402e+00
0	 5.714353270854531e-01	 3.142830431628385e+00	 9.077356772411848e+00
0	 5.714353270854531e-01	 3.285690802274106e+00	 9.016785325525353e+00
0	 5.714353270854531e-01	 3.428551072920194e+00	 8.986708611039109e+00
0	 5.714353270854531e-01	 3.571411210233104e+00	 8.985655901340316e+00
0	 5.714353270854531e-01	 3.714271180879290e+00	 9.012156504607448e+00
0	 5.714353270854530e-01	 3.857130951525211e+00	 9.064739764810612e+00
0	 5.714353270854531e-01	 3.999990488837321e+00	 9.141935061711999e+00
0	 5.714353270854530e-01	 4.142849759482074e+00	 9.242271810866557e+00
0	 5.714353270854529e-01	 4.285708730125925e+00	 9.364279463622662e+00
0	 7.142957838731497e-01	 2.857109523672223e+00	 9.231949011332862e+00
0	 7.142957838731497e-01	 2.999969994316576e+00	 9.201707051151820e+00
0	 7.142957838731496e-01	 3.142830431628385e+00	 9.183739552336586e+00
0	 7.142957838731498e-01	 3.285690802274106e+00	 9.177853059831687e+00
0	 7.142957838731496e-01	 3.428551072920193e+00	 9.183854133797093e+00
0	 7.142957838731497e-01	 3.571411210233103e+00	 9.201549349608264e+00
0	 7.142957838731496e-01	 3.714271180879291e+00	 9.230745297856334e+00
0	 7.142957838731497e-01	 3.857130951525210e+00	 9.271248584348292e+00
0	 7.142957838731495e-01	 3.999990488837320e+00	 9.322865830107236e+00
0	 7.142957838731495e-01	 4.142849759482074e+00	 9.385403671372671e+00
0	 7.142957838731496e-01	 4.285708730125926e+00	 9.458668759600833e+00
0	 8.571566573284016e-01	 2.857109523672222e+00	 9.233005792493714e+00
0	 8.571566573284016e-01	 2.999969994316577e+00	 9.269934759346928e+00
0	 8.571566573284016e-01	 3.142830431628385e+00	 9.303375561038635e+00
0	 8.571566573284013e-01	 3.285690802274105e+00	 9.334156662209542e+00
0	 8.571566573284015e-01	 3.428551072920193e+00	 9.363106527970938e+00
0	 8.571566573284016e-01	 3.571411210233102e+00	 9.391053623904828e+00
0	 8.571566573284016e-01	 3.714271180879289e+00	 9.418826416063977e+00
0	 8.571566573284016e-01	 3.857130951525210e+00	 9.447253370971993e+00
0	 8.571566573284018e-01	 3.999990488837320e+00	 9.477162955623367e+00
0	 8.571566573284016e-01	 4.142849759482073e+00	 9.509383637483593e+00
0	 8.571566573284017e-01	 4.285708730125926e+00	 9.544743884489218e+00
0	 1.000017830781720e+00	 2.857109523672222e+00	 9.283415045460606e+00
0	 1.000017830781720e+00	 2.999969994316575e+00	 9.363385044765025e+00
0	 1.000017830781720e+00	 3.142830431628385e+00	 9.428876702409003e+00
0	 1.000017830781720e+00	 3.285690802274106e+00	 9.481484984716328e+00
0	 1.000017830781720e+00	 3.428551072920193e+00	 9.522804848689884e+00
0	 1.000017830781720e+00	 3.571411210233104e+00	 9.554431242011679e+00
0	 1.000017830781720e+00	 3.714271180879289e+00	 9.577959103042911e+00
0	 1.000017830781720e+00	 3.857130951525210e+00	 9.594983360823894e+00
0	 1.000017830781720e+00	 3.999990488837319e+00	 9.607098935074063e+00
0	 1.000017830781720e+00	 4.142849759482075e+00	 9.615900736191850e+00
0	 1.000017830781720e+00	 4.285708730125927e+00	 9.622983665254594e+00
0	 1.142879187563616e+00	 2.857109523672222e+00	 9.367554464910219e+00
0	 1.142879187563616e+00	 2.999969994316576e+00	 9.470866054994133e+00
0	 1.142879187563616e+00	 3.142830431628385e+00	 9.552854825918034e+00
0	 1.142879187563617e+00	 3.285690802274106e+00	 9.615626832854295e+00
0	 1.142879187563616e+00	 3.428551072920193e+00	 9.661288115938692e+00
0	 1.142879187563616e+00	 3.571411210233102e+00	 9.691944700270458e+00
0	 1.142879187563616e+00	 3.714271180879289e+00	 9.709702595912292e+00
0	 1.142879187563616e+00	 3.857130951525209e+00	 9.716667797890228e+00
0	 1.142879187563616e+00	 3.999990488837320e+00	 9.714946286193568e+00
0	 1.142879187563616e+00	 4.142849759482074e+00	 9.706644025774663e+00
0	 1.142879187563616e+00	 4.285708730125926e+00	 9.693866966548677e+00
0	 1.285740611004601e+00	 2.857109523672222e+00	 9.469801691010321e+00
0	 1.285740611004601e+00	 2.999969994316575e+00	 9.581185880133837e+00
0	 1.285740611004601e+00	 3.142830431628385e+00	 9.667921726616324e+00
0	 1.285740611004601e+00	 3.285690802274106e+00	 9.732370965571192e+00
0	 1.285740611004601e+00	 3.428551072920193e+00	 9.776895314558098e+00
0	 1.285740611004601e+00	 3.571411210233102e+00	 9.803856473582904e+00
0	 1.285740611004601e+00	 3.714271180879289e+00	 9.815616125097678e+00
0	 1.285740611004601e+00	 3.857130951525210e+00	 9.814535934000570e+00
0	 1.285740611004601e+00	 3.999990488837320e+00	 9.802977547635630e+00
0	 1.285740611004601e+00	 4.142849759482074e+00	 9.783302595792621e+00
0	 1.285740611004601e+00	 4.285708730125926e+00	 9.757872690706670e+00
0	 1.428601984435186e+00	 2.857109523672222e+00	 9.574534309419834e+00
0	 1.428601984435185e+00	 2.999969994316576e+00	 9.683152552795546e+00
0	 1.428601984435185e+00	 3.142830431628385e+00	 9.766689145134894e+00
0	 1.428601984435185e+00	 3.285690802274106e+00	 9.827506095260448e+00
0	 1.428601984435185e+00	 3.428551072920192e+00	 9.867965394244820e+00
0	 1.428601984435185e+00	 3.571411210233103e+00	 9.890429015410664e+00
0	 1.428601984435185e+00	 3.714271180879290e+00	 9.897258914330642e+00
0	 1.428601984435185e+00	 3.857130951525209e+00	 9.890817028827270e+00
0	 1.428601984435185e+00	 3.999990488837321e+00	 9.873465278972775e+00
0	 1.428601984435185e+00	 4.142849759482075e+00	 9.847565567088836e+00
0	 1.428601984435185e+00	 4.285708730125926e+00	 9.815479777746237e+00
0	 0.000000000000000e+00	 4.285708730125926e+00	 8.894005348568347e+00
0	 0.000000000000000e+00	 4.428567384102075e+00	 9.347784792595890e+00
0	 0.000000000000000e+00	 4.571425771410668e+00	 9.708670315954405e+00
0	 0.000000000000000e+00	 4.714283958718593e+00	 9.982837469219774e+00
0	 0.000000000000000e+00	 4.857142012692742e+00	 1.017646197918597e+01
0	 0.000000000000000e+00	 5.000000000000002e+00	 1.029571974886918e+01
0	 0.000000000000000e+00	 5.142857987307262e+00	 1.034678685751083e+01
0	 0.000000000000000e+00	 5.285716041281409e+00	 1.033583956057917e+01
0	 0.000000000000000e+00	 5.428574228589335e+00	 1.026905428976989e+01
0	 0.000000000000000e+00	 5.571432615897928e+00	 1.015260765300523e+01
0	 0.000000000000000e+00	 5.714291269874075e+00	 9.992676434432074e+00
0	 1.428576234225852e-01	 4.285708730125926e+00	 9.026438844798626e+00
0	 1.428576234225853e-01	 4.428567384102072e+00	 9.373934220471817e+00
0	 1.428576234225853e-01	 4.571425771410667e+00	 9.652397274829083e+00
0	 1.428576234225853e-01	 4.714283958718593e+00	 9.866407925516349e+00
0	 1.428576234225852e-01	 4.857142012692741e+00	 1.002054622112598e+01
0	 1.428576234225853e-01	 5.000000000000004e+00	 1.011939234120001e+01
0	 1.428576234225852e-01	 5.142857987307259e+00	 1.016752659623243e+01
0	 1.428576234225853e-01	 5.285716041281411e+00	 1.016952942767044e+01
0	 1.428576234225853e-01	 5.428574228589334e+00	 1.012998140791496e+01
0	 1.428576234225853e-01	 5.571432615897930e+00	 1.005346324032010e+01
0	 1.428576234225852e-01	 5.714291269874074e+00	 9.944555759191761e+00
0	 2.857161301906819e-01	 4.285708730125925e+00	 9.148643238966295e+00
0	 2.857161301906819e-01	 4.428567384102075e+00	 9.406474770602177e+00
0	 2.857161301906820e-01	 4.571425771410668e+00	 9.615448642118540e+00
0	 2.857161301906819e-01	 4.714283958718593e+00	 9.778732719892460e+00
0	 2.857161301906819e-01	 4.857142012692741e+00	 9.899494963832788e+00
0	 2.857161301906819e-01	 5.000000000000000e+00	 9.980903427382477e+00
0	 2.857161301906819e-01	 5.142857987307260e+00	 1.002612625752024e+01
0	 2.857161301906818e-01	 5.285716041281408e+00	 1.003833169476160e+01
0	 2.857161301906819e-01	 5.428574228589334e+00	 1.002068807315932e+01
0	 2.857161301906819e-01	 5.571432615897928e+00	 9.976363820303044e+00
0	 2.857161301906818e-01	 5.714291269874074e+00	 9.908527457318360e+00
0	 4.285754036348006e-01	 4.285708730125925e+00	 9.261097207274728e+00
0	 4.285754036348007e-01	 4.428567384102075e+00	 9.444493579028281e+00
0	 4.285754036348007e-01	 4.571425771410666e+00	 9.595784093750446e+00
0	 4.285754036348006e-01	 4.714283958718593e+00	 9.716908144441931e+00
0	 4.285754036348006e-01	 4.857142012692742e+00	 9.809805187337957e+00
0	 4.285754036348006e-01	 5.000000000000003e+00	 9.876414741910036e+00
0	 4.285754036348006e-01	 5.142857987307258e+00	 9.918676390867066e+00
0	 4.285754036348007e-01	 5.285716041281407e+00	 9.938529780156134e+00
0	 4.285754036348008e-01	 5.428574228589334e+00	 9.937914618962898e+00
0	 4.285754036348008e-01	 5.571432615897929e+00	 9.918770679711354e+00
0	 4.285754036348007e-01	 5.714291269874075e+00	 9.883037798063372e+00
0	 5.714353270854529e-01	 4.285708730125925e+00	 9.364279463622662e+00
0	 5.714353270854529e-01	 4.428567384102074e+00	 9.487077821030368e+00
0	 5.714353270854532e-01	 4.571425771410667e+00	 9.591363342118271e+00
0	 5.714353270854532e-01	 4.714283958718593e+00	 9.678030521534110e+00
0	 5.714353270854529e-01	 4.857142012692742e+00	 9.747973893241207e+00
0	 5.714353270854531e-01	 5.000000000000000e+00	 9.802088030519620e+00
0	 5.714353270854531e-01	 5.142857987307261e+00	 9.841267545966886e+00
0	 5.714353270854530e-01	 5.285716041281410e+00	 9.866407091498635e+00
0	 5.714353270854530e-01	 5.428574228589335e+00	 9.878401358348782e+00
0	 5.714353270854530e-01	 5.571432615897927e+00	 9.878145077069593e+00
0	 5.714353270854530e-01	 5.714291269874074e+00	 9.866533017531356e+00
0	 7.142957838731496e-01	 4.285708730125926e+00	 9.458668759600833e+00
0	 7.142957838731495e-01	 4.428567384102072e+00	 9.533314711124270e+00
0	 7.142957838731498e-01	 4.571425771410668e+00	 9.600146136078061e+00
0	 7.142957838731498e-01	 4.714283958718593e+00	 9.659196203811247e+00
0	 7.142957838731498e-01	 4.857142012692742e+00	 9.710498104708423e+00
0	 7.142957838731498e-01	 5.000000000000001e+00	 9.754085050190366e+00
0	 7.142957838731497e-01	 5.142857987307260e+00	 9.789990272714505e+00
0	 7.142957838731496e-01	 5.285716041281409e+00	 9.818247025775356e+00
0	 7.142957838731495e-01	 5.428574228589335e+00	 9.838888583904664e+00
0	 7.142957838731496e-01	 5.571432615897927e+00	 9.851948242671529e+00
0	 7.142957838731495e-01	 5.714291269874074e+00	 9.857459318682258e+00
0	 8.571566573284017e-01	 4.285708730125926e+00	 9.544743884489218e+00
0	 8.571566573284016e-01	 4.428567384102075e+00	 9.582291503058467e+00
0	 8.571566573284014e-01	 4.571425771410667e+00	 9.620092260945743e+00
0	 8.571566573284017e-01	 4.714283958718594e+00	 9.657501574186202e+00
0	 8.571566573284016e-01	 4.857142012692740e+00	 9.693874866470001e+00
0	 8.571566573284018e-01	 5.000000000000003e+00	 9.728567569142662e+00
0	 8.571566573284016e-01	 5.142857987307260e+00	 9.760935121205250e+00
0	 8.571566573284016e-01	 5.285716041281410e+00	 9.790332969314699e+00
0	 8.571566573284017e-01	 5.428574228589333e+00	 9.816116567783876e+00
0	 8.571566573284017e-01	 5.571432615897929e+00	 9.837641378581738e+00
0	 8.571566573284017e-01	 5.714291269874074e+00	 9.854262871333376e+00
0	 1.000017830781720e+00	 4.285708730125927e+00	 9.622983665254594e+00
0	 1.000017830781720e+00	 4.428567384102074e+00	 9.633095489811648e+00
0	 1.000017830781720e+00	 4.571425771410668e+00	 9.649161538494887e+00
0	 1.000017830781720e+00	 4.714283958718593e+00	 9.670043045840496e+00
0	 1.000017830781720e+00	 4.857142012692742e+00	 9.694601244819356e+00
0	 1.000017830781720e+00	 5.000000000000001e+00	 9.721697366837228e+00
0	 1.000017830781720e+00	 5.142857987307261e+00	 9.750192641734724e+00
0	 1.000017830781720e+00	 5.285716041281408e+00	 9.778948297787469e+00
0	 1.000017830781720e+00	 5.428574228589335e+00	 9.806825561706216e+00
0	 1.000017830781720e+00	 5.571432615897927e+00	 9.832685658636910e+00
0	 1.000017830781720e+00	 5.714291269874074e+00	 9.855389812160873e+00
0	 1.142879187563616e+00	 4.285708730125926e+00	 9.693866966548677e+00
0	 1.142879187563616e+00	 4.428567384102075e+00	 9.684814003590763e+00
0	 1.142879187563616e+00	 4.571425771410667e+00	 9.685313826954816e+00
0	 1.142879187563616e+00	 4.714283958718593e+00	 9.693917062222697e+00
0	 1.142879187563616e+00	 4.857142012692742e+00	 9.709174327611706e+00
0	 1.142879187563616e+00	 5.000000000000002e+00	 9.729636233974352e+00
0	 1.142879187563616e+00	 5.142857987307260e+00	 9.753853384798447e+00
0	 1.142879187563616e+00	 5.285716041281408e+00	 9.780376376207045e+00
0	 1.142879187563616e+00	 5.428574228589337e+00	 9.807755796958519e+00
0	 1.142879187563616e+00	 5.571432615897928e+00	 9.834542228446683e+00
0	 1.142879187563616e+00	 5.714291269874075e+00	 9.859286244700940e+00
0	 1.285740611004601e+00	 4.285708730125926e+00	 9.757872690706670e+00
0	 1.285740611004600e+00	 4.428567384102075e+00	 9.736534415829558e+00
0	 1.285740611004601e+00	 4.571425771410668e+00	 9.726509021009250e+00
0	 1.285740611004601e+00	 4.714283958718593e+00	 9.726220097047378e+00
0	 1.285740611004601e+00	 4.857142012692742e+00	 9.734091224263169e+00
0	 1.285740611004601e+00	 5.000000000000001e+00	 9.748545972493272e+00
0	 1.285740611004601e+00	 5.142857987307260e+00	 9.768007901091622e+00
0	 1.285740611004601e+00	 5.285716041281409e+00	 9.790900558929394e+00
0	 1.285740611004601e+00	 5.428574228589335e+00	 9.815647484395015e+00
0	 1.285740611004601e+00	 5.571432615897926e+00	 9.840672205394300e+00
0	 1.285740611004601e+00	 5.714291269874075e+00	 9.864398239350528e+00
0	 1.428601984435185e+00	 4.285708730125926e+00	 9.815479777746237e+00
0	 1.428601984435185e+00	 4.428567384102075e+00	 9.787344137187565e+00
0	 1.428601984435185e+00	 4.571425771410667e+00	 9.770707051795426e+00
0	 1.428601984435185e+00	 4.714283958718593e+00	 9.764048654294136e+00
0	 1.428601984435186e+00	 4.857142012692743e+00	 9.765849065750141e+00
0	 1.428601984435185e+00	 5.000000000000001e+00	 9.774588395571719e+00
0	 1.428601984435185e+00	 5.142857987307260e+00	 9.788746741508824e+00
0	 1.428601984435185e+00	 5.285716041281408e+00	 9.806804189653016e+00
0	 1.428601984435185e+00	 5.428574228589335e+00	 9.827240814437401e+00
0	 1.428601984435185e+00	 5.571432615897926e+00	 9.848536678636760e+00
0	 1.428601984435185e+00	 5.714291269874074e+00	 9.869171833367632e+00
0	 0.000000000000000e+00	 5.714291269874075e+00	 9.992676434432074e+00
0	 0.000000000000000e+00	 5.857150240517928e+00	 9.835959135872503e+00
0	 0.000000000000000e+00	 6.000009511162681e+00	 9.722263770248141e+00
0	 0.000000000000000e+00	 6.142869048474791e+00	 9.647431543151267e+00
0	 0.000000000000000e+00	 6.285728819120711e+00	 9.607303690346175e+00
0	 0.000000000000000e+00	 6.428588789766900e+00	 9.597721477768424e+00
0	 0.000000000000000e+00	 6.571448927079809e+00	 9.614526201524299e+00
0	 0.000000000000000e+00	 6.714309197725897e+00	 9.653559187890339e+00
0	 0.000000000000000e+00	 6.857169568371615e+00	 9.710661793312946e+00
0	 0.000000000000000e+00	 7.000030005683427e+00	 9.781675404408183e+00
0	 0.000000000000000e+00	 7.142890476327777e+00	 9.862441437961536e+00
0	 1.428576234225852e-01	 5.714291269874074e+00	 9.944555759191761e+00
0	 1.428576234225853e-01	 5.857150240517929e+00	 9.837198063252790e+00
0	 1.428576234225853e-01	 6.000009511162682e+00	 9.760246692961125e+00
0	 1.428576234225853e-01	 6.142869048474793e+00	 9.710658758651933e+00
0	 1.428576234225853e-01	 6.285728819120714e+00	 9.685391390945473e+00
0	 1.428576234225853e-01	 6.428588789766901e+00	 9.681401740746647e+00
0	 1.428576234225853e-01	 6.571448927079808e+00	 9.695646979244607e+00
0	 1.428576234225852e-01	 6.714309197725895e+00	 9.725084297912439e+00
0	 1.428576234225853e-01	 6.857169568371615e+00	 9.766670908506933e+00
0	 1.428576234225853e-01	 7.000030005683427e+00	 9.817364043068331e+00
0	 1.428576234225852e-01	 7.142890476327777e+00	 9.874120953920388e+00
0	 2.857161301906818e-01	 5.714291269874074e+00	 9.908527457318360e+00
0	 2.857161301906818e-01	 5.857150240517930e+00	 9.840673244069240e+00
0	 2.857161301906818e-01	 6.000009511162683e+00	 9.792810480805642e+00
0	 2.857161301906819e-01	 6.142869048474791e+00	 9.762880328821060e+00
0	 2.857161301906819e-01	 6.285728819120713e+00	 9.748823961992530e+00
0	 2.857161301906818e-01	 6.428588789766899e+00	 9.748582566780414e+00
0	 2.857161301906818e-01	 6.571448927079807e+00	 9.760097342228033e+00
0	 2.857161301906819e-01	 6.714309197725895e+00	 9.781309499961619e+00
0	 2.857161301906820e-01	 6.857169568371617e+00	 9.810160264190060e+00
0	 2.857161301906819e-01	 7.000030005683426e+00	 9.844590871704838e+00
0	 2.857161301906819e-01	 7.142890476327779e+00	 9.882542571879979e+00
0	 4.285754036348007e-01	 5.714291269874075e+00	 9.883037798063372e+00
0	 4.285754036348007e-01	 5.857150240517929e+00	 9.845858797778510e+00
0	 4.285754036348008e-01	 6.000009511162681e+00	 9.820278820359306e+00
0	 4.285754036348006e-01	 6.142869048474791e+00	 9.805091230623258e+00
0	 4.285754036348007e-01	 6.285728819120711e+00	 9.799089400205670e+00
0	 4.285754036348007e-01	 6.428588789766899e+00	 9.801066707559476e+00
0	 4.285754036348006e-01	 6.571448927079808e+00	 9.809816537955143e+00
0	 4.285754036348007e-01	 6.714309197725895e+00	 9.824132283480548e+00
0	 4.285754036348007e-01	 6.857169568371616e+00	 9.842807343040901e+00
0	 4.285754036348006e-01	 7.000030005683423e+00	 9.864635122358711e+00
0	 4.285754036348008e-01	 7.142890476327779e+00	 9.888409033973744e+00
0	 5.714353270854530e-01	 5.714291269874074e+00	 9.866533017531356e+00
0	 5.714353270854529e-01	 5.857150240517927e+00	 9.852228809300030e+00
0	 5.714353270854531e-01	 6.000009511162681e+00	 9.842975365407677e+00
0	 5.714353270854531e-01	 6.142869048474793e+00	 9.838286412465662e+00
0	 5.714353270854531e-01	 6.285728819120712e+00	 9.837675679823553e+00
0	 5.714353270854532e-01	 6.428588789766903e+00	 9.840656899569108e+00
0	 5.714353270854532e-01	 6.571448927079811e+00	 9.846743806528222e+00
0	 5.714353270854529e-01	 6.714309197725896e+00	 9.855450138264878e+00
0	 5.714353270854531e-01	 6.857169568371616e+00	 9.866289635081166e+00
0	 5.714353270854532e-01	 7.000030005683427e+00	 9.878776040017193e+00
0	 5.714353270854531e-01	 7.142890476327779e+00	 9.892423098851166e+00
0	 7.142957838731495e-01	 5.714291269874074e+00	 9.857459318682258e+00
0	 7.142957838731497e-01	 5.857150240517927e+00	 9.859257329018428e+00
0	 7.142957838731496e-01	 6.000009511162681e+00	 9.861223736946625e+00
0	 7.142957838731495e-01	 6.142869048474790e+00	 9.863460794199970e+00
0	 7.142957838731497e-01	 6.285728819120714e+00	 9.866070752606889e+00
0	 7.142957838731496e-01	 6.428588789766899e+00	 9.869155864091129e+00
0	 7.142957838731497e-01	 6.571448927079811e+00	 9.872818380671749e+00
0	 7.142957838731497e-01	 6.714309197725897e+00	 9.877160554463170e+00
0	 7.142957838731497e-01	 6.857169568371618e+00	 9.882284637675125e+00
0	 7.142957838731496e-01	 7.000030005683424e+00	 9.888292882612721e+00
0	 7.142957838731497e-01	 7.142890476327777e+00	 9.895287541676440e+00
0	 8.571566573284017e-01	 5.714291269874074e+00	 9.854262871333376e+00
0	 8.571566573284016e-01	 5.857150240517929e+00	 9.866418372785660e+00
0	 8.571566573284014e-01	 6.000009511162680e+00	 9.875347523184290e+00
0	 8.571566573284015e-01	 6.142869048474793e+00	 9.881609267124210e+00
0	 8.571566573284015e-01	 6.285728819120711e+00	 9.885762547839759e+00
0	 8.571566573284017e-01	 6.428588789766899e+00	 9.888366307204857e+00
0	 8.571566573284016e-01	 6.571448927079809e+00	 9.889979485732857e+00
0	 8.571566573284018e-01	 6.714309197725896e+00	 9.891161022576746e+00
0	 8.571566573284020e-01	 6.857169568371617e+00	 9.892469855529079e+00
0	 8.571566573284017e-01	 7.000030005683426e+00	 9.894464921022029e+00
0	 8.571566573284018e-01	 7.142890476327779e+00	 9.897705154127408e+00
0	 1.000017830781720e+00	 5.714291269874074e+00	 9.855389812160873e+00
0	 1.000017830781720e+00	 5.857150240517928e+00	 9.873185921922573e+00
0	 1.000017830781720e+00	 6.000009511162681e+00	 9.885670279542662e+00
0	 1.000017830781720e+00	 6.142869048474791e+00	 9.893726693984039e+00
0	 1.000017830781720e+00	 6.285728819120713e+00	 9.898238972330695e+00
0	 1.000017830781720e+00	 6.428588789766899e+00	 9.900090919787786e+00
0	 1.000017830781720e+00	 6.571448927079808e+00	 9.900166339681622e+00
0	 1.000017830781720e+00	 6.714309197725897e+00	 9.899349033459753e+00
0	 1.000017830781720e+00	 6.857169568371615e+00	 9.898522800691000e+00
0	 1.000017830781720e+00	 7.000030005683426e+00	 9.898571439065481e+00
0	 1.000017830781720e+00	 7.142890476327778e+00	 9.900378744394661e+00
0	 1.142879187563616e+00	 5.714291269874075e+00	 9.859286244700940e+00
0	 1.142879187563616e+00	 5.857150240517926e+00	 9.879033923220190e+00
0	 1.142879187563616e+00	 6.000009511162683e+00	 9.892515528658731e+00
0	 1.142879187563616e+00	 6.142869048474791e+00	 9.900807908973846e+00
0	 1.142879187563616e+00	 6.285728819120711e+00	 9.904987910413460e+00
0	 1.142879187563616e+00	 6.428588789766899e+00	 9.906132377516169e+00
0	 1.142879187563616e+00	 6.571448927079809e+00	 9.905318153111301e+00
0	 1.142879187563616e+00	 6.714309197725895e+00	 9.903622078318975e+00
0	 1.142879187563616e+00	 6.857169568371615e+00	 9.902120992550127e+00
0	 1.142879187563617e+00	 7.000030005683427e+00	 9.901891733506524e+00
0	 1.142879187563616e+00	 7.142890476327779e+00	 9.904011137180831e+00
0	 1.285740611004601e+00	 5.714291269874075e+00	 9.864398239350528e+00
0	 1.285740611004601e+00	 5.857150240517927e+00	 9.883436288940436e+00
0	 1.285740611004601e+00	 6.000009511162682e+00	 9.896206760385301e+00
0	 1.285740611004601e+00	 6.142869048474791e+00	 9.903847717737412e+00
0	 1.285740611004601e+00	 6.285728819120712e+00	 9.907497223947619e+00
0	 1.285740611004601e+00	 6.428588789766900e+00	 9.908293340865299e+00
0	 1.285740611004601e+00	 6.571448927079807e+00	 9.907374129238500e+00
0	 1.285740611004601e+00	 6.714309197725897e+00	 9.905877648713879e+00
0	 1.285740611004600e+00	 6.857169568371615e+00	 9.904941957836785e+00
0	 1.285740611004601e+00	 7.000030005683425e+00	 9.905705114051290e+00
0	 1.285740611004601e+00	 7.142890476327778e+00	 9.909305173700172e+00
0	 1.428601984435185e+00	 5.714291269874074e+00	 9.869171833367632e+00
0	 1.428601984435185e+00	 5.857150240517928e+00	 9.885866896816562e+00
0	 1.428601984435185e+00	 6.000009511162683e+00	 9.897067431791299e+00
0	 1.428601984435185e+00	 6.142869048474793e+00	 9.903840897368179e+00
0	 1.428601984435185e+00	 6.285728819120713e+00	 9.907254752318726e+00
0	 1.428601984435185e+00	 6.428588789766897e+00	 9.908376455109725e+00
0	 1.428601984435185e+00	 6.571448927079810e+00	 9.908273463903203e+00
0	 1.428601984435185e+00	 6.714309197725895e+00	 9.908013236556489e+00
0	 1.428601984435185e+00	 6.857169568371617e+00	 9.908663230622222e+00
0	 1.428601984435185e+00	 7.000030005683426e+00	 9.911290903348357e+00
0	 1.428601984435185e+00	 7.142890476327780e+00	 9.916963711678225e+00
0	 0.000000000000000e+00	 7.142890476327777e+00	 9.862441437961536e+00
0	 0.000000000000000e+00	 7.285740955271013e+00	 9.934895065635372e+00
0	 0.000000000000000e+00	 7.428591450879007e+00	 9.985670257152215e+00
0	 0.000000000000000e+00	 7.571441979817512e+00	 1.001763896010981e+01
0	 0.000000000000000e+00	 7.714292558752281e+00	 1.003367312812344e+01
0	 0.000000000000000e+00	 7.857143204349074e+00	 1.003664472082592e+01
0	 0.000000000000000e+00	 7.999993933273645e+00	 1.002942570386755e+01
0	 0.000000000000000e+00	 8.142844762191748e+00	 1.001488804891618e+01
0	 0.000000000000000e+00	 8.285695707769140e+00	 9.995903733657101e+00
0	 0.000000000000000e+00	 8.428546786671577e+00	 9.975344741793066e+00
0	 0.000000000000000e+00	 8.571398015564816e+00	 9.956083063044188e+00
0	 1.428576234225852e-01	 7.142890476327777e+00	 9.874120953920388e+00
0	 1.428576234225852e-01	 7.285740955271014e+00	 9.924788158835357e+00
0	 1.428576234225853e-01	 7.428591450879004e+00	 9.960624673134351e+00
0	 1.428576234225853e-01	 7.571441979817511e+00	 9.983694171117321e+00
0	 1.428576234225852e-01	 7.714292558752281e+00	 9.996060330884216e+00
0	 1.428576234225852e-01	 7.857143204349070e+00	 9.999786834335044e+00
0	 1.428576234225853e-01	 7.999993933273643e+00	 9.996937367169792e+00
0	 1.428576234225853e-01	 8.142844762191746e+00	 9.989575618888463e+00
0	 1.428576234225852e-01	 8.285695707769138e+00	 9.979765282791085e+00
0	 1.428576234225853e-01	 8.428546786671577e+00	 9.969570055977623e+00
0	 1.428576234225853e-01	 8.571398015564812e+00	 9.961053639347995e+00
0	 2.857161301906819e-01	 7.142890476327779e+00	 9.882542571879981e+00
0	 2.857161301906819e-01	 7.285740955271013e+00	 9.916471153673445e+00
0	 2.857161301906819e-01	 7.428591450879009e+00	 9.941113747245311e+00
0	 2.857161301906818e-01	 7.571441979817513e+00	 9.957825429549944e+00
0	 2.857161301906819e-01	 7.714292558752285e+00	 9.967961279723493e+00
0	 2.857161301906819e-01	 7.857143204349073e+00	 9.972876379083830e+00
0	 2.857161301906819e-01	 7.999993933273643e+00	 9.973925811130648e+00
0	 2.857161301906818e-01	 8.142844762191745e+00	 9.972464661545315e+00
0	 2.857161301906820e-01	 8.285695707769142e+00	 9.969848018190982e+00
0	 2.857161301906819e-01	 8.428546786671575e+00	 9.967430971112529e+00
0	 2.857161301906819e-01	 8.571398015564814e+00	 9.966568612536550e+00
0	 4.285754036348008e-01	 7.142890476327779e+00	 9.888409033973744e+00
0	 4.285754036348007e-01	 7.285740955271015e+00	 9.910037773995423e+00
0	 4.285754036348007e-01	 7.428591450879010e+00	 9.926735269232712e+00
0	 4.285754036348007e-01	 7.571441979817510e+00	 9.939247671897926e+00
0	 4.285754036348007e-01	 7.714292558752281e+00	 9.948321135286974e+00
0	 4.285754036348006e-01	 7.857143204349070e+00	 9.954701813779350e+00
0	 4.285754036348007e-01	 7.999993933273643e+00	 9.959135862838098e+00
0	 4.285754036348007e-01	 8.142844762191748e+00	 9.962369439009889e+00
0	 4.285754036348008e-01	 8.285695707769142e+00	 9.965148699924933e+00
0	 4.285754036348006e-01	 8.428546786671575e+00	 9.968219804297057e+00
0	 4.285754036348007e-01	 8.571398015564812e+00	 9.972328911923595e+00
0	 5.714353270854531e-01	 7.142890476327779e+00	 9.892423098851166e+00
0	 5.714353270854529e-01	 7.285740955271015e+00	 9.905581761242676e+00
0	 5.714353270854529e-01	 7.428591450879008e+00	 9.917087045328946e+00
0	 5.714353270854532e-01	 7.571441979817512e+00	 9.927175848323397e+00
0	 5.714353270854529e-01	 7.714292558752281e+00	 9.936085067865900e+00
0	 5.714353270854530e-01	 7.857143204349073e+00	 9.944051602022631e+00
0	 5.714353270854530e-01	 7.999993933273642e+00	 9.951312349286122e+00
0	 5.714353270854531e-01	 8.142844762191752e+00	 9.958104208575250e+00
0	 5.714353270854530e-01	 8.285695707769142e+00	 9.964664079235241e+00
0	 5.714353270854530e-01	 8.428546786671575e+00	 9.971228861037698e+00
0	 5.714353270854530e-01	 8.571398015564814e+00	 9.978035454180560e+00
0	 7.142957838731497e-01	 7.142890476327777e+00	 9.895287541676440e+00
0	 7.142957838731496e-01	 7.285740955271013e+00	 9.903196874450860e+00
0	 7.142957838731495e-01	 7.428591450879007e+00	 9.911766898249791e+00
0	 7.142957838731496e-01	 7.571441979817509e+00	 9.920824922659239e+00
0	 7.142957838731496e-01	 7.714292558752281e+00	 9.930198257396153e+00
0	 7.142957838731494e-01	 7.857143204349072e+00	 9.939714212308349e+00
0	 7.142957838731497e-01	 7.999993933273645e+00	 9.949200097374613e+00
0	 7.142957838731496e-01	 8.142844762191745e+00	 9.958483222704599e+00
0	 7.142957838731497e-01	 8.285695707769143e+00	 9.967390898538884e+00
0	 7.142957838731496e-01	 8.428546786671578e+00	 9.975750435249005e+00
0	 7.142957838731497e-01	 8.571398015564816e+00	 9.983389143337357e+00
0	 8.571566573284018e-01	 7.142890476327779e+00	 9.897705154127408e+00
0	 8.571566573284016e-01	 7.285740955271014e+00	 9.902976890248677e+00
0	 8.571566573284017e-01	 7.428591450879007e+00	 9.910372667193444e+00
0	 8.571566573284017e-01	 7.571441979817513e+00	 9.919409872408224e+00
0	 8.571566573284017e-01	 7.714292558752281e+00	 9.929605893457630e+00
0	 8.571566573284017e-01	 7.857143204349077e+00	 9.940478118024382e+00
0	 8.571566573284018e-01	 7.999993933273645e+00	 9.951543933909360e+00
0	 8.571566573284017e-01	 8.142844762191748e+00	 9.962320729031552e+00
0	 8.571566573284018e-01	 8.285695707769142e+00	 9.972325891428083e+00
0	 8.571566573284018e-01	 8.428546786671578e+00	 9.981076809254185e+00
0	 8.571566573284014e-01	 8.571398015564812e+00	 9.988090870783250e+00
0	 1.000017830781720e+00	 7.142890476327778e+00	 9.900378744394661e+00
0	 1.000017830781720e+00	 7.285740955271012e+00	 9.905015602856967e+00
0	 1.000017830781720e+00	 7.428591450879007e+00	 9.912502207839543e+00
0	 1.000017830781720e+00	 7.571441979817512e+00	 9.922145688742223e+00
0	 1.000017830781720e+00	 7.714292558752281e+00	 9.933253175273702e+00
0	 1.000017830781720e+00	 7.857143204349074e+00	 9.945131797451495e+00
0	 1.000017830781720e+00	 7.999993933273646e+00	 9.957088685601970e+00
0	 1.000017830781720e+00	 8.142844762191748e+00	 9.968430970360334e+00
0	 1.000017830781720e+00	 8.285695707769140e+00	 9.978465782670623e+00
0	 1.000017830781720e+00	 8.428546786671575e+00	 9.986500253785708e+00
0	 1.000017830781720e+00	 8.571398015564817e+00	 9.991841515267321e+00
0	 1.142879187563616e+00	 7.142890476327779e+00	 9.904011137180827e+00
0	 1.142879187563616e+00	 7.285740955271014e+00	 9.909406824088027e+00
0	 1.142879187563616e+00	 7.428591450879006e+00	 9.917753392348489e+00
0	 1.142879187563616e+00	 7.571441979817512e+00	 9.928247376501625e+00
0	 1.142879187563616e+00	 7.714292558752280e+00	 9.940085311710765e+00
0	 1.142879187563616e+00	 7.857143204349073e+00	 9.952463733763086e+00
0	 1.142879187563616e+00	 7.999993933273644e+00	 9.964579179069775e+00
0	 1.142879187563616e+00	 8.142844762191750e+00	 9.975628184665817e+00
0	 1.142879187563616e+00	 8.285695707769142e+00	 9.984807288210165e+00
0	 1.142879187563616e+00	 8.428546786671575e+00	 9.991313027985647e+00
0	 1.142879187563617e+00	 8.571398015564817e+00	 9.994341942898977e+00
0	 1.285740611004601e+00	 7.142890476327778e+00	 9.909305173700172e+00
0	 1.285740611004601e+00	 7.285740955271014e+00	 9.916244383345022e+00
0	 1.285740611004601e+00	 7.428591450879005e+00	 9.925724109360999e+00
0	 1.285740611004601e+00	 7.571441979817512e+00	 9.936929954194964e+00
0	 1.285740611004601e+00	 7.714292558752281e+00	 9.949047521277915e+00
0	 1.285740611004601e+00	 7.857143204349072e+00	 9.961262415025068e+00
0	 1.285740611004601e+00	 7.999993933273642e+00	 9.972760240835798e+00
0	 1.285740611004601e+00	 8.142844762191746e+00	 9.982726605093674e+00
0	 1.285740611004601e+00	 8.285695707769138e+00	 9.990347115166406e+00
0	 1.285740611004601e+00	 8.428546786671578e+00	 9.994807379405897e+00
0	 1.285740611004601e+00	 8.571398015564816e+00	 9.995293007148200e+00
0	 1.428601984435185e+00	 7.142890476327780e+00	 9.916963711678227e+00
0	 1.428601984435185e+00	 7.285740955271015e+00	 9.925622127621706e+00
0	 1.428601984435185e+00	 7.428591450879006e+00	 9.936012263997775e+00
0	 1.428601984435185e+00	 7.571441979817510e+00	 9.947408453998577e+00
0	 1.428601984435185e+00	 7.714292558752281e+00	 9.959085032126785e+00
0	 1.428601984435185e+00	 7.857143204349073e+00	 9.970316334195596e+00
0	 1.428601984435185e+00	 7.999993933273643e+00	 9.980376697328694e+00
0	 1.428601984435185e+00	 8.142844762191748e+00	 9.988540459960298e+00
0	 1.428601984435185e+00	 8.285695707769142e+00	 9.994081961835107e+00
0	 1.428601984435185e+00	 8.428546786671578e+00	 9.996275544008340e+00
0	 1.428601984435185e+00	 8.571398015564816e+00	 9.994395548845667e+00
0	 0.000000000000000e+00	 8.571398015564816e+00	 9.956083063044192e+00
0	 0.000000000000000e+00	 8.714259388995400e+00	 9.945068371135047e+00
0	 0.000000000000000e+00	 8.857120812436385e+00	 9.945161338015765e+00
0	 0.000000000000000e+00	 8.999982169218280e+00	 9.953096753276697e+00
0	 0.000000000000000e+00	 9.142843342671599e+00	 9.965609414374004e+00
0	 0.000000000000000e+00	 9.285704216126852e+00	 9.979434126629259e+00
0	 0.000000000000000e+00	 9.428564672914549e+00	 9.991305703229441e+00
0	 0.000000000000000e+00	 9.571424596365201e+00	 9.997958965226884e+00
0	 0.000000000000000e+00	 9.714283869809320e+00	 9.996128741539339e+00
0	 0.000000000000000e+00	 9.857142376577416e+00	 9.982549868950182e+00
0	 0.000000000000000e+00	 1.000000000000000e+01	 9.953957192108639e+00
0	 1.428576234225853e-01	 8.571398015564812e+00	 9.961053639347995e+00
0	 1.428576234225852e-01	 8.714259388995403e+00	 9.958158603966375e+00
0	 1.428576234225852e-01	 8.857120812436385e+00	 9.961936171306123e+00
0	 1.428576234225852e-01	 8.999982169218283e+00	 9.970111552117380e+00
0	 1.428576234225852e-01	 9.142843342671597e+00	 9.980409956047579e+00
0	 1.428576234225853e-01	 9.285704216126856e+00	 9.990556591641258e+00
0	 1.428576234225852e-01	 9.428564672914549e+00	 9.998276666339903e+00
0	 1.428576234225853e-01	 9.571424596365203e+00	 1.000129538648173e+01
0	 1.428576234225853e-01	 9.714283869809318e+00	 9.997337957301440e+00
0	 1.428576234225853e-01	 9.857142376577418e+00	 9.984129582930048e+00
0	 1.428576234225853e-01	 1.000000000000000e+01	 9.959395466394662e+00
0	 2.857161301906819e-01	 8.571398015564814e+00	 9.966568612536550e+00
0	 2.857161301906819e-01	 8.714259388995401e+00	 9.969028220525054e+00
0	 2.857161301906819e-01	 8.857120812436387e+00	 9.974732094351502e+00
0	 2.857161301906819e-01	 8.999982169218281e+00	 9.982267931665536e+00
0	 2.857161301906819e-01	 9.142843342671597e+00	 9.990223423399490e+00
0	 2.857161301906818e-01	 9.285704216126851e+00	 9.997186253768410e+00
0	 2.857161301906819e-01	 9.428564672914549e+00	 1.000174410026967e+01
0	 2.857161301906818e-01	 9.571424596365203e+00	 1.000248463368280e+01
0	 2.857161301906819e-01	 9.714283869809321e+00	 9.997995518068960e+00
0	 2.857161301906818e-01	 9.857142376577416e+00	 9.986864410770671e+00
0	 2.857161301906819e-01	 1.000000000000000e+01	 9.967678962410959e+00
0	 4.285754036348007e-01	 8.571398015564812e+00	 9.972328911923597e+00
0	 4.285754036348007e-01	 8.714259388995398e+00	 9.977791938092217e+00
0	 4.285754036348008e-01	 8.857120812436383e+00	 9.983974849875803e+00
0	 4.285754036348007e-01	 8.999982169218280e+00	 9.990199902636718e+00
0	 4.285754036348008e-01	 9.142843342671599e+00	 9.995789342255932e+00
0	 4.285754036348007e-01	 9.285704216126847e+00	 1.000006540513300e+01
0	 4.285754036348006e-01	 9.428564672914554e+00	 1.000235031818576e+01
0	 4.285754036348007e-01	 9.571424596365203e+00	 1.000196629885001e+01
0	 4.285754036348007e-01	 9.714283869809323e+00	 9.998235555079031e+00
0	 4.285754036348008e-01	 9.857142376577420e+00	 9.990480285343111e+00
0	 4.285754036348007e-01	 9.999999999999998e+00	 9.978022678628626e+00
0	 5.714353270854530e-01	 8.571398015564814e+00	 9.978035454180560e+00
0	 5.714353270854530e-01	 8.714259388995398e+00	 9.984564462277170e+00
0	 5.714353270854531e-01	 8.857120812436383e+00	 9.990090171480741e+00
0	 5.714353270854531e-01	 8.999982169218283e+00	 9.994541470126251e+00
0	 5.714353270854532e-01	 9.142843342671600e+00	 9.997847236650092e+00
0	 5.714353270854529e-01	 9.285704216126854e+00	 9.999936339590054e+00
0	 5.714353270854531e-01	 9.428564672914549e+00	 1.000073763758508e+01
0	 5.714353270854530e-01	 9.571424596365203e+00	 1.000017997937492e+01
0	 5.714353270854531e-01	 9.714283869809321e+00	 9.998192203799809e+00
0	 5.714353270854531e-01	 9.857142376577418e+00	 9.994703139799665e+00
0	 5.714353270854531e-01	 1.000000000000000e+01	 9.989641606413640e+00
0	 7.142957838731497e-01	 8.571398015564816e+00	 9.983389143337359e+00
0	 7.142957838731496e-01	 8.714259388995398e+00	 9.989460487018142e+00
0	 7.142957838731495e-01	 8.857120812436383e+00	 9.993503783646510e+00
0	 7.142957838731496e-01	 8.999982169218281e+00	 9.995926633609599e+00
0	 7.142957838731497e-01	 9.142843342671599e+00	 9.997136628822300e+00
0	 7.142957838731496e-01	 9.285704216126852e+00	 9.997541352727112e+00
0	 7.142957838731498e-01	 9.428564672914550e+00	 9.997548380294067e+00
0	 7.142957838731495e-01	 9.571424596365199e+00	 9.997565278020357e+00
0	 7.142957838731497e-01	 9.714283869809321e+00	 9.997999603930104e+00
0	 7.142957838731498e-01	 9.857142376577418e+00	 9.999258907573722e+00
0	 7.142957838731496e-01	 1.000000000000000e+01	 1.000175073002750e+01
0	 8.571566573284014e-01	 8.571398015564812e+00	 9.988090870783251e+00
0	 8.571566573284017e-01	 8.714259388995398e+00	 9.992594694583051e+00
0	 8.571566573284015e-01	 8.857120812436383e+00	 9.994641401732265e+00
0	 8.571566573284015e-01	 8.999982169218280e+00	 9.994989386942702e+00
0	 8.571566573284016e-01	 9.142843342671599e+00	 9.994397039220132e+00
0	 8.571566573284016e-01	 9.285704216126854e+00	 9.993622741864185e+00
0	 8.571566573284015e-01	 9.428564672914550e+00	 9.993424872468402e+00
0	 8.571566573284016e-01	 9.571424596365201e+00	 9.994561802919861e+00
0	 8.571566573284015e-01	 9.714283869809321e+00	 9.997791899399065e+00
0	 8.571566573284017e-01	 9.857142376577416e+00	 1.000387352237949e+01
0	 8.571566573284017e-01	 1.000000000000000e+01	 1.001356502662739e+01
0	 1.000017830781720e+00	 8.571398015564817e+00	 9.991841515267323e+00
0	 1.000017830781720e+00	 8.714259388995403e+00	 9.994081755569990e+00
0	 1.000017830781720e+00	 8.857120812436385e+00	 9.993928731976625e+00
0	 1.000017830781720e+00	 8.999982169218280e+00	 9.992363718362183e+00
0	 1.000017830781720e+00	 9.142843342671599e+00	 9.990367986498402e+00
0	 1.000017830781720e+00	 9.285704216126852e+00	 9.988922806053615e+00
0	 1.000017830781720e+00	 9.428564672914550e+00	 9.989009444592817e+00
0	 1.000017830781720e+00	 9.571424596365203e+00	 9.991609167577597e+00
0	 1.000017830781720e+00	 9.714283869809321e+00	 9.997703238365901e+00
0	 1.000017830781720e+00	 9.857142376577416e+00	 1.000827291821212e+01
0	 1.000017830781720e+00	 1.000000000000000e+01	 1.002429946626667e+01
0	 1.142879187563617e+00	 8.571398015564817e+00	 9.994341942898977e+00
0	 1.142879187563616e+00	 8.714259388995400e+00	 9.994036328907683e+00
0	 1.142879187563616e+00	 8.857120812436383e+00	 9.991791471497883e+00
0	 1.142879187563616e+00	 8.999982169218283e+00	 9.988683610485607e+00
0	 1.142879187563616e+00	 9.142843342671597e+00	 9.985788987519307e+00
0	 1.142879187563616e+00	 9.285704216126851e+00	 9.984183846079913e+00
0	 1.142879187563616e+00	 9.428564672914549e+00	 9.984944431480823e+00
0	 1.142879187563616e+00	 9.571424596365199e+00	 9.989146990867965e+00
0	 1.142879187563616e+00	 9.714283869809321e+00	 9.997867773219809e+00
0	 1.142879187563616e+00	 9.857142376577420e+00	 1.001218302934750e+01
0	 1.142879187563616e+00	 1.000000000000000e+01	 1.003316901189485e+01
0	 1.285740611004601e+00	 8.571398015564816e+00	 9.995293007148200e+00
0	 1.285740611004601e+00	 8.714259388995401e+00	 9.992573061855641e+00
0	 1.285740611004601e+00	 8.857120812436383e+00	 9.988655308294291e+00
0	 1.285740611004601e+00	 8.999982169218281e+00	 9.984583040311490e+00
0	 1.285740611004601e+00	 9.142843342671600e+00	 9.981399557352363e+00
0	 1.285740611004601e+00	 9.285704216126851e+00	 9.980148164459806e+00
0	 1.285740611004601e+00	 9.428564672914547e+00	 9.981872172274619e+00
0	 1.285740611004601e+00	 9.571424596365203e+00	 9.987614897035549e+00
0	 1.285740611004601e+00	 9.714283869809321e+00	 9.998419660579625e+00
0	 1.285740611004601e+00	 9.857142376577418e+00	 1.001532979034227e+01
0	 1.285740611004601e+00	 1.000000000000000e+01	 1.003938861935778e+01
0	 1.428601984435185e+00	 8.571398015564816e+00	 9.994395548845667e+00
0	 1.428601984435185e+00	 8.714259388995398e+00	 9.989806590004370e+00
0	 1.428601984435185e+00	 8.857120812436385e+00	 9.984945921244066e+00
0	 1.428601984435185e+00	 8.999982169218278e+00	 9.980695979219457e+00
0	 1.428601984435185e+00	 9.142843342671600e+00	 9.977939209274437e+00
0	 1.428601984435185e+00	 9.285704216126854e+00	 9.977558065442134e+00
0	 1.428601984435185e+00	 9.428564672914549e+00	 9.980435010444982e+00
0	 1.428601984435185e+00	 9.571424596365199e+00	 9.987452515694971e+00
0	 1.428601984435185e+00	 9.714283869809321e+00	 9.999493061293844e+00
0	 1.428601984435185e+00	 9.857142376577416e+00	 1.001743913603380e+01
0	 1.428601984435185e+00	 1.000000000000000e+01	 1.004217323739769e+01
0	 1.428601984435185e+00	 0.000000000000000e+00	 5.055654189733454e+00
0	 1.428601984435185e+00	 1.428576234225853e-01	 7.324208134068776e+00
0	 1.428601984435185e+00	 2.857161301906819e-01	 9.241182368115291e+00
0	 1.428601984435185e+00	 4.285754036348007e-01	 1.081327004525962e+01
0	 1.428601984435185e+00	 5.714353270854530e-01	 1.204716281613656e+01
0	 1.428601984435185e+00	 7.142957838731498e-01	 1.294955082873311e+01
0	 1.428601984435185e+00	 8.571566573284015e-01	 1.352712272847412e+01
0	 1.428601984435185e+00	 1.000017830781720e+00	 1.378656565828949e+01
0	 1.428601984435185e+00	 1.142879187563616e+00	 1.373456525866303e+01
0	 1.428601984435185e+00	 1.285740611004601e+00	 1.337780566766282e+01
0	 1.428601984435185e+00	 1.428601984435185e+00	 1.272296952095330e+01
0	 1.571453213328422e+00	 0.000000000000000e+00	 6.611975379721708e+00
0	 1.571453213328422e+00	 1.428576234225853e-01	 8.356429140124741e+00
0	 1.571453213328422e+00	 2.857161301906819e-01	 9.816789865205351e+00
0	 1.571453213328422e+00	 4.285754036348008e-01	 1.100038656654305e+01
0	 1.571453213328422e+00	 5.714353270854531e-01	 1.191454710228541e+01
0	 1.571453213328422e+00	 7.142957838731496e-01	 1.256659817722702e+01
0	 1.571453213328422e+00	 8.571566573284016e-01	 1.296386534287455e+01
0	 1.571453213328422e+00	 1.000017830781720e+00	 1.311367299749750e+01
0	 1.571453213328422e+00	 1.142879187563616e+00	 1.302334438616486e+01
0	 1.571453213328422e+00	 1.285740611004601e+00	 1.270020160076774e+01
0	 1.571453213328422e+00	 1.428601984435185e+00	 1.215156558002775e+01
0	 1.714304292230859e+00	 0.000000000000000e+00	 7.841631776134086e+00
0	 1.714304292230859e+00	 1.428576234225852e-01	 9.153099932431466e+00
0	 1.714304292230859e+00	 2.857161301906819e-01	 1.023775051507575e+01
0	 1.714304292230859e+00	 4.285754036348007e-01	 1.110335842163447e+01
0	 1.714304292230859e+00	 5.714353270854531e-01	 1.175769768950868e+01
0	 1.714304292230859e+00	 7.142957838731497e-01	 1.220854149599129e+01
0	 1.714304292230859e+00	 8.571566573284017e-01	 1.246366215831484e+01
0	 1.714304292230858e+00	 1.000017830781720e+00	 1.253083113368872e+01
0	 1.714304292230859e+00	 1.142879187563616e+00	 1.241781901932585e+01
0	 1.714304292230859e+00	 1.285740611004601e+00	 1.213239555245889e+01
0	 1.714304292230859e+00	 1.428601984435186e+00	 1.168232961034581e+01
0	 1.857155237808251e+00	 0.000000000000000e+00	 8.783036160626434e+00
0	 1.857155237808251e+00	 1.428576234225853e-01	 9.743267288686214e+00
0	 1.857155237808251e+00	 2.857161301906819e-01	 1.052475561508944e+01
0	 1.857155237808251e+00	 4.285754036348007e-01	 1.113553191248536e+01
0	 1.857155237808251e+00	 5.714353270854530e-01	 1.158362633552024e+01
0	 1.857155237808251e+00	 7.142957838731497e-01	 1.187706842087857e+01
0	 1.857155237808252e+00	 8.571566573284018e-01	 1.202388708731702e+01
0	 1.857155237808252e+00	 1.000017830781720e+00	 1.203211063569046e+01
0	 1.857155237808251e+00	 1.142879187563616e+00	 1.190976674897078e+01
0	 1.857155237808252e+00	 1.285740611004601e+00	 1.166488249225783e+01
0	 1.857155237808251e+00	 1.428601984435185e+00	 1.130548431278301e+01
0	 2.000006066726355e+00	 0.000000000000000e+00	 9.474601310227090e+00
0	 2.000006066726355e+00	 1.428576234225853e-01	 1.015597798407970e+01
0	 2.000006066726355e+00	 2.857161301906818e-01	 1.069849646136477e+01
0	 2.000006066726355e+00	 4.285754036348007e-01	 1.111025334033906e+01
0	 2.000006066726355e+00	 5.714353270854530e-01	 1.139934479726972e+01
0	 2.000006066726355e+00	 7.142957838731495e-01	 1.157386658646216e+01
0	 2.000006066726355e+00	 8.571566573284018e-01	 1.164191404028267e+01
0	 2.000006066726355e+00	 1.000017830781720e+00	 1.161158206917592e+01
0	 2.000006066726355e+00	 1.142879187563616e+00	 1.149096516167723e+01
0	 2.000006066726356e+00	 1.285740611004601e+00	 1.128815738441976e+01
0	 2.000006066726355e+00	 1.428601984435186e+00	 1.101125238213649e+01
0	 2.142856795650925e+00	 0.000000000000000e+00	 9.954739997336874e+00
0	 2.142856795650926e+00	 1.428576234225853e-01	 1.042027879129607e+01
0	 2.142856795650925e+00	 2.857161301906819e-01	 1.077966434877564e+01
0	 2.142856795650925e+00	 4.285754036348007e-01	 1.104086900573074e+01
0	 2.142856795650925e+00	 5.714353270854529e-01	 1.121186483094261e+01
0	 2.142856795650925e+00	 7.142957838731496e-01	 1.130062362603596e+01
0	 2.142856795650925e+00	 8.571566573284015e-01	 1.131511692549298e+01
0	 2.142856795650925e+00	 1.000017830781720e+00	 1.126331599666411e+01
0	 2.142856795650926e+00	 1.142879187563616e+00	 1.115319183977555e+01
0	 2.142856795650927e+00	 1.285740611004601e+00	 1.099271518793345e+01
0	 2.142856795650926e+00	 1.428601984435185e+00	 1.078985650712490e+01
0	 2.285707441247718e+00	 0.000000000000000e+00	 1.026186498972912e+01
0	 2.285707441247718e+00	 1.428576234225853e-01	 1.056521648051295e+01
0	 2.285707441247719e+00	 2.857161301906819e-01	 1.078895057095144e+01
0	 2.285707441247718e+00	 4.285754036348008e-01	 1.094072520848746e+01
0	 2.285707441247718e+00	 5.714353270854529e-01	 1.102819819196020e+01
0	 2.285707441247717e+00	 7.142957838731495e-01	 1.105902717161451e+01
0	 2.285707441247718e+00	 8.571566573284017e-01	 1.104086964910862e+01
0	 2.285707441247718e+00	 1.000017830781720e+00	 1.098138297751990e+01
0	 2.285707441247718e+00	 1.142879187563616e+00	 1.088822436134884e+01
0	 2.285707441247717e+00	 1.285740611004601e+00	 1.076905085652119e+01
0	 2.285707441247718e+00	 1.428601984435185e+00	 1.063151937038838e+01
0	 2.428558020182488e+00	 0.000000000000000e+00	 1.043438905054962e+01
0	 2.428558020182488e+00	 1.428576234225853e-01	 1.061983781940144e+01
0	 2.428558020182488e+00	 2.857161301906818e-01	 1.074704642027704e+01
0	 2.428558020182488e+00	 4.285754036348008e-01	 1.082316824772817e+01
0	 2.428558020182489e+00	 5.714353270854529e-01	 1.085535663497961e+01
0	 2.428558020182488e+00	 7.142957838731497e-01	 1.085076485393299e+01
0	 2.428558020182489e+00	 8.571566573284017e-01	 1.081654611516985e+01
0	 2.428558020182489e+00	 1.000017830781720e+00	 1.075985356795396e+01
0	 2.428558020182488e+00	 1.142879187563616e+00	 1.068784030023289e+01
0	 2.428558020182488e+00	 1.285740611004601e+00	 1.060765933863879e+01
0	 2.428558020182489e+00	 1.428601984435185e+00	 1.052646364848851e+01
0	 2.571408549120992e+00	 0.000000000000000e+00	 1.051072493831672e+01
0	 2.571408549120992e+00	 1.428576234225853e-01	 1.061318957312612e+01
0	 2.571408549120992e+00	 2.857161301906819e-01	 1.067464318789289e+01
0	 2.571408549120991e+00	 4.285754036348006e-01	 1.070154442186371e+01
0	 2.571408549120992e+00	 5.714353270854530e-01	 1.070035191389385e+01
0	 2.571408549120993e+00	 7.142957838731497e-01	 1.067752430244723e+01
0	 2.571408549120992e+00	 8.571566573284017e-01	 1.063952022559644e+01
0	 2.571408549120992e+00	 1.000017830781720e+00	 1.059279832102277e+01
0	 2.571408549120992e+00	 1.142879187563616e+00	 1.054381722601622e+01
0	 2.571408549120992e+00	 1.285740611004601e+00	 1.049903557747554e+01
0	 2.571408549120992e+00	 1.428601984435185e+00	 1.046491201190826e+01
0	 2.714259044728984e+00	 0.000000000000000e+00	 1.052928540692124e+01
0	 2.714259044728984e+00	 1.428576234225853e-01	 1.057431850434509e+01
0	 2.714259044728984e+00	 2.857161301906819e-01	 1.059243216369498e+01
0	 2.714259044728985e+00	 4.285754036348008e-01	 1.058920002859685e+01
0	 2.714259044728984e+00	 5.714353270854529e-01	 1.057019578183177e+01
0	 2.714259044728984e+00	 7.142957838731496e-01	 1.054099314533374e+01
0	 2.714259044728984e+00	 8.571566573284018e-01	 1.050716588018776e+01
0	 2.714259044728985e+00	 1.000017830781720e+00	 1.047428778662862e+01
0	 2.714259044728984e+00	 1.142879187563616e+00	 1.044793270404004e+01
0	 2.714259044728985e+00	 1.285740611004601e+00	 1.043367451095421e+01
0	 2.714259044728984e+00	 1.428601984435185e+00	 1.043708712505205e+01
0	 2.857109523672222e+00	 0.000000000000000e+00	 1.052848320562662e+01
0	 2.857109523672222e+00	 1.428576234225852e-01	 1.053227137321001e+01
0	 2.857109523672222e+00	 2.857161301906819e-01	 1.052110463633490e+01
0	 2.857109523672222e+00	 4.285754036348007e-01	 1.049948136492231e+01
0	 2.857109523672222e+00	 5.714353270854530e-01	 1.047189999115815e+01
0	 2.857109523672223e+00	 7.142957838731496e-01	 1.044285900948966e+01
0	 2.857109523672222e+00	 8.571566573284017e-01	 1.041685697662271e+01
0	 2.857109523672222e+00	 1.000017830781720e+00	 1.039839251151967e+01
0	 2.857109523672222e+00	 1.142879187563616e+00	 1.039196429539826e+01
0	 2.857109523672222e+00	 1.285740611004601e+00	 1.040207107173105e+01
0	 2.857109523672221e+00	 1.428601984435185e+00	 1.043321164624568e+01
0	 1.428601984435185e+00	 1.428601984435185e+00	 1.272296952095329e+01
0	 1.428601984435185e+00	 1.571453213328422e+00	 1.197454988476053e+01
0	 1.428601984435185e+00	 1.714304292230859e+00	 1.133047479140960e+01
0	 1.428601984435185e+00	 1.857155237808251e+00	 1.078774649310297e+01
0	 1.428601984435185e+00	 2.000006066726356e+00	 1.034336717755926e+01
0	 1.428601984435185e+00	 2.142856795650925e+00	 9.994338968012478e+00
0	 1.428601984435185e+00	 2.285707441247717e+00	 9.737663923211272e+00
0	 1.428601984435185e+00	 2.428558020182488e+00	 9.570344037418415e+00
0	 1.428601984435185e+00	 2.571408549120992e+00	 9.489381240410284e+00
0	 1.428601984435185e+00	 2.714259044728984e+00	 9.491777397476531e+00
0	 1.428601984435186e+00	 2.857109523672222e+00	 9.574534309419835e+00
0	 1.571453213328422e+00	 1.428601984435185e+00	 1.215156558002776e+01
0	 1.571453213328422e+00	 1.571453213328422e+00	 1.153851533871716e+01
0	 1.571453213328422e+00	 1.714304292230858e+00	 1.101506401155115e+01
0	 1.571453213328422e+00	 1.857155237808251e+00	 1.057807118779489e+01
0	 1.571453213328422e+00	 2.000006066726356e+00	 1.022439640381543e+01
0	 1.571453213328421e+00	 2.142856795650926e+00	 9.950899143081170e+00
0	 1.571453213328422e+00	 2.285707441247719e+00	 9.754438836161167e+00
0	 1.571453213328422e+00	 2.428558020182489e+00	 9.631874860724732e+00
0	 1.571453213328422e+00	 2.571408549120992e+00	 9.580066541541029e+00
0	 1.571453213328422e+00	 2.714259044728984e+00	 9.595873150478795e+00
0	 1.571453213328422e+00	 2.857109523672223e+00	 9.676153906506123e+00
0	 1.714304292230859e+00	 1.428601984435186e+00	 1.168232961034580e+01
0	 1.714304292230859e+00	 1.571453213328422e+00	 1.119133446051029e+01
0	 1.714304292230858e+00	 1.714304292230858e+00	 1.077572365650359e+01
0	 1.714304292230859e+00	 1.857155237808251e+00	 1.043227708346363e+01
0	 1.714304292230859e+00	 2.000006066726355e+00	 1.015777458454806e+01
0	 1.714304292230859e+00	 2.142856795650926e+00	 9.948995960933658e+00
0	 1.714304292230859e+00	 2.285707441247718e+00	 9.802720971815949e+00
0	 1.714304292230858e+00	 2.428558020182488e+00	 9.715729334408790e+00
0	 1.714304292230859e+00	 2.571408549120993e+00	 9.684800723944079e+00
0	 1.714304292230858e+00	 2.714259044728984e+00	 9.706714773671537e+00
0	 1.714304292230859e+00	 2.857109523672222e+00	 9.778251074858513e+00
0	 1.857155237808251e+00	 1.428601984435185e+00	 1.130548431278301e+01
0	 1.857155237808251e+00	 1.571453213328422e+00	 1.092351872459498e+01
0	 1.857155237808251e+00	 1.714304292230859e+00	 1.060336573923190e+01
0	 1.857155237808251e+00	 1.857155237808251e+00	 1.034178849692203e+01
0	 1.857155237808251e+00	 2.000006066726356e+00	 1.013555010608488e+01
0	 1.857155237808251e+00	 2.142856795650925e+00	 9.981413643330702e+00
0	 1.857155237808251e+00	 2.285707441247719e+00	 9.876142153460263e+00
0	 1.857155237808252e+00	 2.428558020182488e+00	 9.816498649464483e+00
0	 1.857155237808251e+00	 2.571408549120991e+00	 9.799246112524219e+00
0	 1.857155237808251e+00	 2.714259044728984e+00	 9.821147492010102e+00
0	 1.857155237808251e+00	 2.857109523672222e+00	 9.878965705482397e+00
0	 2.000006066726355e+00	 1.428601984435186e+00	 1.101125238213649e+01
0	 2.000006066726356e+00	 1.571453213328422e+00	 1.072557959884670e+01
0	 2.000006066726355e+00	 1.714304292230859e+00	 1.048890226591661e+01
0	 2.000006066726355e+00	 1.857155237808252e+00	 1.029802973824578e+01
0	 2.000006066726356e+00	 2.000006066726356e+00	 1.014977134827203e+01
0	 2.000006066726355e+00	 2.142856795650925e+00	 1.004093640597109e+01
0	 2.000006066726356e+00	 2.285707441247718e+00	 9.968334198856413e+00
0	 2.000006066726355e+00	 2.428558020182488e+00	 9.928773991978941e+00
0	 2.000006066726355e+00	 2.571408549120992e+00	 9.919065027926939e+00
0	 2.000006066726355e+00	 2.714259044728985e+00	 9.936016526825874e+00
0	 2.000006066726355e+00	 2.857109523672223e+00	 9.976437686338297e+00
0	 2.142856795650926e+00	 1.428601984435185e+00	 1.078985650712490e+01
0	 2.142856795650925e+00	 1.571453213328422e+00	 1.058802854456126e+01
0	 2.142856795650927e+00	 1.714304292230859e+00	 1.042324523595370e+01
0	 2.142856795650926e+00	 1.857155237808252e+00	 1.029242511077338e+01
0	 2.142856795650926e+00	 2.000006066726356e+00	 1.019248668447397e+01
0	 2.142856795650925e+00	 2.142856795650925e+00	 1.012034845849151e+01
0	 2.142856795650925e+00	 2.285707441247718e+00	 1.007292892024422e+01
0	 2.142856795650925e+00	 2.428558020182488e+00	 1.004714654313243e+01
0	 2.142856795650926e+00	 2.571408549120991e+00	 1.003991978653839e+01
0	 2.142856795650926e+00	 2.714259044728985e+00	 1.004816709582621e+01
0	 2.142856795650926e+00	 2.857109523672222e+00	 1.006880690234182e+01
0	 2.285707441247718e+00	 1.428601984435185e+00	 1.063151937038839e+01
0	 2.285707441247718e+00	 1.571453213328422e+00	 1.050137701645476e+01
0	 2.285707441247718e+00	 1.714304292230859e+00	 1.039730664195460e+01
0	 2.285707441247718e+00	 1.857155237808251e+00	 1.031639891110611e+01
0	 2.285707441247718e+00	 2.000006066726355e+00	 1.025574448157344e+01
0	 2.285707441247718e+00	 2.142856795650926e+00	 1.021243400446652e+01
0	 2.285707441247717e+00	 2.285707441247718e+00	 1.018355812434104e+01
0	 2.285707441247718e+00	 2.428558020182488e+00	 1.016620747919833e+01
0	 2.285707441247718e+00	 2.571408549120993e+00	 1.015747270048530e+01
0	 2.285707441247718e+00	 2.714259044728984e+00	 1.015444441309442e+01
0	 2.285707441247718e+00	 2.857109523672222e+00	 1.015421323536361e+01
0	 2.428558020182489e+00	 1.428601984435185e+00	 1.052646364848850e+01
0	 2.428558020182489e+00	 1.571453213328422e+00	 1.045613646266361e+01
0	 2.428558020182489e+00	 1.714304292230859e+00	 1.040199846974607e+01
0	 2.428558020182488e+00	 1.857155237808252e+00	 1.036137542910793e+01
0	 2.428558020182488e+00	 2.000006066726355e+00	 1.033159309997134e+01
0	 2.428558020182488e+00	 2.142856795650925e+00	 1.030997724140850e+01
0	 2.428558020182488e+00	 2.285707441247718e+00	 1.029385361234165e+01
0	 2.428558020182488e+00	 2.428558020182488e+00	 1.028054797154307e+01
0	 2.428558020182488e+00	 2.571408549120991e+00	 1.026738607763501e+01
0	 2.428558020182488e+00	 2.714259044728984e+00	 1.025169368908970e+01
0	 2.428558020182489e+00	 2.857109523672223e+00	 1.023079656422934e+01
0	 2.571408549120992e+00	 1.428601984435185e+00	 1.046491201190826e+01
0	 2.571408549120992e+00	 1.571453213328422e+00	 1.044281832474438e+01
0	 2.571408549120992e+00	 1.714304292230859e+00	 1.042823269837022e+01
0	 2.571408549120992e+00	 1.857155237808251e+00	 1.041877894790550e+01
0	 2.571408549120992e+00	 2.000006066726356e+00	 1.041208089358681e+01
0	 2.571408549120993e+00	 2.142856795650926e+00	 1.040576236076761e+01
0	 2.571408549120992e+00	 2.285707441247718e+00	 1.039744717991827e+01
0	 2.571408549120991e+00	 2.428558020182488e+00	 1.038475918662611e+01
0	 2.571408549120993e+00	 2.571408549120992e+00	 1.036532222159534e+01
0	 2.571408549120991e+00	 2.714259044728984e+00	 1.033676013064715e+01
0	 2.571408549120992e+00	 2.857109523672221e+00	 1.029669676471967e+01
0	 2.714259044728984e+00	 1.428601984435185e+00	 1.043708712505206e+01
0	 2.714259044728984e+00	 1.571453213328422e+00	 1.045193403767391e+01
0	 2.714259044728985e+00	 1.714304292230859e+00	 1.046692130008448e+01
0	 2.714259044728985e+00	 1.857155237808251e+00	 1.048003374388812e+01
0	 2.714259044728984e+00	 2.000006066726354e+00	 1.048925620985712e+01
0	 2.714259044728984e+00	 2.142856795650925e+00	 1.049257354793179e+01
0	 2.714259044728985e+00	 2.285707441247718e+00	 1.048797061722054e+01
0	 2.714259044728984e+00	 2.428558020182488e+00	 1.047343228599991e+01
0	 2.714259044728985e+00	 2.571408549120992e+00	 1.044694343171467e+01
0	 2.714259044728984e+00	 2.714259044728984e+00	 1.040648894097772e+01
0	 2.714259044728984e+00	 2.857109523672222e+00	 1.035005370957022e+01
0	 2.857109523672221e+00	 1.428601984435185e+00	 1.043321164624568e+01
0	 2.857109523672222e+00	 1.571453213328422e+00	 1.047399502984920e+01
0	 2.857109523672222e+00	 1.714304292230858e+00	 1.050897624036159e+01
0	 2.857109523672222e+00	 1.857155237808251e+00	 1.053656408670775e+01
0	 2.857109523672223e+00	 2.000006066726356e+00	 1.055516738973768e+01
0	 2.857109523672222e+00	 2.142856795650926e+00	 1.056319498222669e+01
0	 2.857109523672222e+00	 2.285707441247718e+00	 1.055905570887542e+01
0	 2.857109523672223e+00	 2.428558020182489e+00	 1.054115842630995e+01
0	 2.857109523672222e+00	 2.571408549120993e+00	 1.050791200308184e+01
0	 2.857109523672222e+00	 2.714259044728984e+00	 1.045772531966819e+01
0	 2.857109523672222e+00	 2.857109523672222e+00	 1.038900726847161e+01
0	 1.428601984435186e+00	 2.857109523672222e+00	 9.574534309419835e+00
0	 1.428601984435185e+00	 2.999969994316576e+00	 9.683152552795544e+00
0	 1.428601984435185e+00	 3.142830431628385e+00	 9.766689145134894e+00
0	 1.428601984435185e+00	 3.285690802274106e+00	 9.827506095260448e+00
0	 1.428601984435185e+00	 3.428551072920192e+00	 9.867965394244820e+00
0	 1.428601984435185e+00	 3.571411210233103e+00	 9.890429015410668e+00
0	 1.428601984435185e+00	 3.714271180879290e+00	 9.897258914330642e+00
0	 1.428601984435185e+00	 3.857130951525209e+00	 9.890817028827270e+00
0	 1.428601984435185e+00	 3.999990488837321e+00	 9.873465278972777e+00
0	 1.428601984435185e+00	 4.142849759482075e+00	 9.847565567088836e+00
0	 1.428601984435185e+00	 4.285708730125926e+00	 9.815479777746237e+00
0	 1.571453213328422e+00	 2.857109523672223e+00	 9.676153906506123e+00
0	 1.571453213328422e+00	 2.999969994316576e+00	 9.775024562986436e+00
0	 1.571453213328422e+00	 3.142830431628386e+00	 9.850164105511892e+00
0	 1.571453213328422e+00	 3.285690802274106e+00	 9.903799959473085e+00
0	 1.571453213328422e+00	 3.428551072920193e+00	 9.938159533857629e+00
0	 1.571453213328422e+00	 3.571411210233101e+00	 9.955470221250062e+00
0	 1.571453213328422e+00	 3.714271180879290e+00	 9.957959397831839e+00
0	 1.571453213328422e+00	 3.857130951525211e+00	 9.947854423381219e+00
0	 1.571453213328422e+00	 3.999990488837320e+00	 9.927382641273065e+00
0	 1.571453213328422e+00	 4.142849759482073e+00	 9.898771378478598e+00
0	 1.571453213328422e+00	 4.285708730125926e+00	 9.864247945565126e+00
0	 1.714304292230859e+00	 2.857109523672222e+00	 9.778251074858513e+00
0	 1.714304292230859e+00	 2.999969994316576e+00	 9.862128657136632e+00
0	 1.714304292230859e+00	 3.142830431628386e+00	 9.924585855052278e+00
0	 1.714304292230859e+00	 3.285690802274106e+00	 9.967701183868103e+00
0	 1.714304292230859e+00	 3.428551072920194e+00	 9.993553144954307e+00
0	 1.714304292230860e+00	 3.571411210233104e+00	 1.000422022578869e+01
0	 1.714304292230858e+00	 3.714271180879289e+00	 1.000178089995653e+01
0	 1.714304292230859e+00	 3.857130951525210e+00	 9.988313627150543e+00
0	 1.714304292230859e+00	 3.999990488837320e+00	 9.965896853170619e+00
0	 1.714304292230859e+00	 4.142849759482074e+00	 9.936609009923728e+00
0	 1.714304292230859e+00	 4.285708730125926e+00	 9.902528515423587e+00
0	 1.857155237808251e+00	 2.857109523672222e+00	 9.878965705482397e+00
0	 1.857155237808251e+00	 2.999969994316575e+00	 9.943855455373265e+00
0	 1.857155237808251e+00	 3.142830431628385e+00	 9.990395914691913e+00
0	 1.857155237808251e+00	 3.285690802274106e+00	 1.002050236241227e+01
0	 1.857155237808252e+00	 3.428551072920193e+00	 1.003609006701041e+01
0	 1.857155237808251e+00	 3.571411210233102e+00	 1.003907428646447e+01
0	 1.857155237808252e+00	 3.714271180879290e+00	 1.003137026825465e+01
0	 1.857155237808252e+00	 3.857130951525211e+00	 1.001489324936306e+01
0	 1.857155237808251e+00	 3.999990488837319e+00	 9.991558456273674e+00
0	 1.857155237808251e+00	 4.142849759482074e+00	 9.963281104972094e+00
0	 1.857155237808252e+00	 4.285708730125926e+00	 9.931976400945342e+00
0	 2.000006066726355e+00	 2.857109523672223e+00	 9.976437686338297e+00
0	 2.000006066726356e+00	 2.999969994316577e+00	 1.001959557526646e+01
0	 2.000006066726355e+00	 3.142830431628385e+00	 1.004803580320715e+01
0	 2.000006066726356e+00	 3.285690802274107e+00	 1.006349608723024e+01
0	 2.000006066726356e+00	 3.428551072920194e+00	 1.006771413790641e+01
0	 2.000006066726355e+00	 3.571411210233103e+00	 1.006242765930712e+01
0	 2.000006066726355e+00	 3.714271180879289e+00	 1.004937434900460e+01
0	 2.000006066726355e+00	 3.857130951525210e+00	 1.003029189807176e+01
0	 2.000006066726355e+00	 3.999990488837319e+00	 1.000691799108206e+01
0	 2.000006066726355e+00	 4.142849759482075e+00	 9.980990306109483e+00
0	 2.000006066726355e+00	 4.285708730125926e+00	 9.954246514728304e+00
0	 2.142856795650926e+00	 2.857109523672222e+00	 1.006880690234182e+01
0	 2.142856795650925e+00	 2.999969994316576e+00	 1.008873963182926e+01
0	 2.142856795650925e+00	 3.142830431628386e+00	 1.009794703721488e+01
0	 2.142856795650925e+00	 3.285690802274106e+00	 1.009797494860445e+01
0	 2.142856795650926e+00	 3.428551072920193e+00	 1.009036919392767e+01
0	 2.142856795650925e+00	 3.571411210233102e+00	 1.007667559893815e+01
0	 2.142856795650925e+00	 3.714271180879290e+00	 1.005843998721336e+01
0	 2.142856795650925e+00	 3.857130951525211e+00	 1.003720818015464e+01
0	 2.142856795650926e+00	 3.999990488837319e+00	 1.001452599698710e+01
0	 2.142856795650925e+00	 4.142849759482074e+00	 9.991939254759583e+00
0	 2.142856795650926e+00	 4.285708730125926e+00	 9.970993768344584e+00
0	 2.285707441247718e+00	 2.857109523672222e+00	 1.015421323536361e+01
0	 2.285707441247718e+00	 2.999969994316576e+00	 1.015067823751761e+01
0	 2.285707441247718e+00	 3.142830431628385e+00	 1.014057113117246e+01
0	 2.285707441247718e+00	 3.285690802274106e+00	 1.012523153497517e+01
0	 2.285707441247718e+00	 3.428551072920193e+00	 1.010599906976449e+01
0	 2.285707441247719e+00	 3.571411210233103e+00	 1.008421335857084e+01
0	 2.285707441247718e+00	 3.714271180879290e+00	 1.006121402661637e+01
0	 2.285707441247718e+00	 3.857130951525210e+00	 1.003834070131483e+01
0	 2.285707441247717e+00	 3.999990488837320e+00	 1.001693301227166e+01
0	 2.285707441247718e+00	 4.142849759482075e+00	 9.998330591283963e+00
0	 2.285707441247718e+00	 4.285708730125926e+00	 9.983873072340478e+00
0	 2.428558020182489e+00	 2.857109523672223e+00	 1.023079656422934e+01
0	 2.428558020182488e+00	 2.999969994316576e+00	 1.020480200223037e+01
0	 2.428558020182489e+00	 3.142830431628386e+00	 1.017634959737772e+01
0	 2.428558020182488e+00	 3.285690802274105e+00	 1.014655843294043e+01
0	 2.428558020182489e+00	 3.428551072920194e+00	 1.011654759851199e+01
0	 2.428558020182488e+00	 3.571411210233103e+00	 1.008743619001028e+01
0	 2.428558020182488e+00	 3.714271180879290e+00	 1.006034330967755e+01
0	 2.428558020182489e+00	 3.857130951525211e+00	 1.003638806608046e+01
0	 2.428558020182488e+00	 3.999990488837320e+00	 1.001668957411011e+01
0	 2.428558020182488e+00	 4.142849759482074e+00	 1.000236695498206e+01
0	 2.428558020182488e+00	 4.285708730125926e+00	 9.994539336236468e+00
0	 2.571408549120992e+00	 2.857109523672221e+00	 1.029669676471967e+01
0	 2.571408549120992e+00	 2.999969994316576e+00	 1.025050153330922e+01
0	 2.571408549120993e+00	 3.142830431628386e+00	 1.020572394596890e+01
0	 2.571408549120993e+00	 3.285690802274106e+00	 1.016324822725602e+01
0	 2.571408549120992e+00	 3.428551072920193e+00	 1.012395861167018e+01
0	 2.571408549120992e+00	 3.571411210233103e+00	 1.008873934365325e+01
0	 2.571408549120992e+00	 3.714271180879290e+00	 1.005847467758931e+01
0	 2.571408549120992e+00	 3.857130951525210e+00	 1.003404887780476e+01
0	 2.571408549120992e+00	 3.999990488837320e+00	 1.001634621856831e+01
0	 2.571408549120992e+00	 4.142849759482074e+00	 1.000625098409119e+01
0	 2.571408549120992e+00	 4.285708730125926e+00	 1.000464746852717e+01
0	 2.714259044728984e+00	 2.857109523672222e+00	 1.035005370957022e+01
0	 2.714259044728984e+00	 2.999969994316575e+00	 1.028716743553869e+01
0	 2.714259044728984e+00	 3.142830431628386e+00	 1.022913568492466e+01
0	 2.714259044728984e+00	 3.285690802274106e+00	 1.017659350083545e+01
0	 2.714259044728985e+00	 3.428551072920193e+00	 1.013017593914389e+01
0	 2.714259044728985e+00	 3.571411210233103e+00	 1.009051806848830e+01
0	 2.714259044728984e+00	 3.714271180879289e+00	 1.005825497027251e+01
0	 2.714259044728984e+00	 3.857130951525210e+00	 1.003402173866594e+01
0	 2.714259044728984e+00	 3.999990488837320e+00	 1.001845348060365e+01
0	 2.714259044728985e+00	 4.142849759482074e+00	 1.001218531578651e+01
0	 2.714259044728984e+00	 4.285708730125926e+00	 1.001585237668142e+01
0	 2.857109523672222e+00	 2.857109523672222e+00	 1.038900726847161e+01
0	 2.857109523672222e+00	 2.999969994316576e+00	 1.031419031114610e+01
0	 2.857109523672223e+00	 3.142830431628385e+00	 1.024702632006408e+01
0	 2.857109523672222e+00	 3.285690802274106e+00	 1.018788683475000e+01
0	 2.857109523672222e+00	 3.428551072920193e+00	 1.013714340924277e+01
0	 2.857109523672223e+00	 3.571411210233103e+00	 1.009516761209569e+01
0	 2.857109523672222e+00	 3.714271180879290e+00	 1.006233102637646e+01
0	 2.857109523672222e+00	 3.857130951525211e+00	 1.003900524966728e+01
0	 2.857109523672222e+00	 3.999990488837320e+00	 1.002556189406495e+01
0	 2.857109523672223e+00	 4.142849759482074e+00	 1.002237258618105e+01
0	 2.857109523672222e+00	 4.285708730125926e+00	 1.002980896714215e+01
0	 1.428601984435185e+00	 4.285708730125926e+00	 9.815479777746237e+00
0	 1.428601984435185e+00	 4.428567384102075e+00	 9.787344137187565e+00
0	 1.428601984435185e+00	 4.571425771410667e+00	 9.770707051795426e+00
0	 1.428601984435185e+00	 4.714283958718593e+00	 9.764048654294134e+00
0	 1.428601984435186e+00	 4.857142012692743e+00	 9.765849065750144e+00
0	 1.428601984435185e+00	 5.000000000000001e+00	 9.774588395571715e+00
0	 1.428601984435185e+00	 5.142857987307260e+00	 9.788746741508824e+00
0	 1.428601984435185e+00	 5.285716041281408e+00	 9.806804189653018e+00
0	 1.428601984435185e+00	 5.428574228589335e+00	 9.827240814437401e+00
0	 1.428601984435185e+00	 5.571432615897926e+00	 9.848536678636760e+00
0	 1.428601984435185e+00	 5.714291269874074e+00	 9.869171833367632e+00
0	 1.571453213328422e+00	 4.285708730125926e+00	 9.864247945565126e+00
0	 1.571453213328422e+00	 4.428567384102075e+00	 9.833359520850106e+00
0	 1.571453213328422e+00	 4.571425771410668e+00	 9.813253442513700e+00
0	 1.571453213328422e+00	 4.714283958718593e+00	 9.802557239956617e+00
0	 1.571453213328422e+00	 4.857142012692742e+00	 9.799898431036052e+00
0	 1.571453213328422e+00	 5.000000000000001e+00	 9.803904522065327e+00
0	 1.571453213328422e+00	 5.142857987307262e+00	 9.813203007813760e+00
0	 1.571453213328422e+00	 5.285716041281408e+00	 9.826421371506505e+00
0	 1.571453213328422e+00	 5.428574228589334e+00	 9.842187084824523e+00
0	 1.571453213328422e+00	 5.571432615897931e+00	 9.859127607904654e+00
0	 1.571453213328422e+00	 5.714291269874074e+00	 9.875870389339655e+00
0	 1.714304292230859e+00	 4.285708730125926e+00	 9.902528515423587e+00
0	 1.714304292230860e+00	 4.428567384102076e+00	 9.872009720592910e+00
0	 1.714304292230859e+00	 4.571425771410667e+00	 9.851203428662609e+00
0	 1.714304292230859e+00	 4.714283958718593e+00	 9.838882717855864e+00
0	 1.714304292230858e+00	 4.857142012692743e+00	 9.833820655951692e+00
0	 1.714304292230859e+00	 5.000000000000002e+00	 9.834790300284826e+00
0	 1.714304292230859e+00	 5.142857987307260e+00	 9.840564697745428e+00
0	 1.714304292230859e+00	 5.285716041281409e+00	 9.849916884778974e+00
0	 1.714304292230859e+00	 5.428574228589334e+00	 9.861619887386208e+00
0	 1.714304292230859e+00	 5.571432615897928e+00	 9.874446721123139e+00
0	 1.714304292230859e+00	 5.714291269874075e+00	 9.887170391101142e+00
0	 1.857155237808252e+00	 4.285708730125926e+00	 9.931976400945342e+00
0	 1.857155237808251e+00	 4.428567384102076e+00	 9.904340866307294e+00
0	 1.857155237808251e+00	 4.571425771410667e+00	 9.885072082557862e+00
0	 1.857155237808252e+00	 4.714283958718594e+00	 9.873086829956506e+00
0	 1.857155237808251e+00	 4.857142012692741e+00	 9.867301880185595e+00
0	 1.857155237808251e+00	 5.000000000000002e+00	 9.866633996350162e+00
0	 1.857155237808252e+00	 5.142857987307262e+00	 9.869999932977761e+00
0	 1.857155237808251e+00	 5.285716041281407e+00	 9.876316436018278e+00
0	 1.857155237808252e+00	 5.428574228589336e+00	 9.884500242843874e+00
0	 1.857155237808251e+00	 5.571432615897928e+00	 9.893468082248997e+00
0	 1.857155237808252e+00	 5.714291269874074e+00	 9.902136674450386e+00
0	 2.000006066726355e+00	 4.285708730125926e+00	 9.954246514728304e+00
0	 2.000006066726355e+00	 4.428567384102075e+00	 9.931399086893638e+00
0	 2.000006066726355e+00	 4.571425771410667e+00	 9.915374475560206e+00
0	 2.000006066726355e+00	 4.714283958718594e+00	 9.905231317306898e+00
0	 2.000006066726355e+00	 4.857142012692742e+00	 9.900028242552395e+00
0	 2.000006066726355e+00	 5.000000000000000e+00	 9.898823875554974e+00
0	 2.000006066726355e+00	 5.142857987307261e+00	 9.900676834412366e+00
0	 2.000006066726355e+00	 5.285716041281410e+00	 9.904645731061612e+00
0	 2.000006066726356e+00	 5.428574228589337e+00	 9.909789171278970e+00
0	 2.000006066726356e+00	 5.571432615897928e+00	 9.915165754679913e+00
0	 2.000006066726356e+00	 5.714291269874075e+00	 9.919834074719112e+00
0	 2.142856795650926e+00	 4.285708730125926e+00	 9.970993768344584e+00
0	 2.142856795650926e+00	 4.428567384102076e+00	 9.954230510261294e+00
0	 2.142856795650925e+00	 4.571425771410667e+00	 9.942625678075483e+00
0	 2.142856795650925e+00	 4.714283958718593e+00	 9.935377920039063e+00
0	 2.142856795650926e+00	 4.857142012692742e+00	 9.931685880992873e+00
0	 2.142856795650925e+00	 5.000000000000001e+00	 9.930748202366569e+00
0	 2.142856795650926e+00	 5.142857987307262e+00	 9.931763522178473e+00
0	 2.142856795650926e+00	 5.285716041281409e+00	 9.933930475035455e+00
0	 2.142856795650926e+00	 5.428574228589335e+00	 9.936447692132868e+00
0	 2.142856795650926e+00	 5.571432615897929e+00	 9.938513801254487e+00
0	 2.142856795650925e+00	 5.714291269874074e+00	 9.939327426772438e+00
0	 2.285707441247718e+00	 4.285708730125926e+00	 9.983873072340478e+00
0	 2.285707441247718e+00	 4.428567384102075e+00	 9.973881263328620e+00
0	 2.285707441247718e+00	 4.571425771410667e+00	 9.967340759554574e+00
0	 2.285707441247718e+00	 4.714283958718593e+00	 9.963588377368639e+00
0	 2.285707441247718e+00	 4.857142012692743e+00	 9.961960932573868e+00
0	 2.285707441247717e+00	 5.000000000000001e+00	 9.961795240425891e+00
0	 2.285707441247719e+00	 5.142857987307262e+00	 9.962428115632925e+00
0	 2.285707441247718e+00	 5.285716041281411e+00	 9.963196372355604e+00
0	 2.285707441247718e+00	 5.428574228589335e+00	 9.963436824206944e+00
0	 2.285707441247718e+00	 5.571432615897928e+00	 9.962486284252215e+00
0	 2.285707441247718e+00	 5.714291269874074e+00	 9.959681565008918e+00
0	 2.428558020182488e+00	 4.285708730125926e+00	 9.994539336236468e+00
0	 2.428558020182488e+00	 4.428567384102074e+00	 9.991397472022950e+00
0	 2.428558020182488e+00	 4.571425771410667e+00	 9.990034788493398e+00
0	 2.428558020182488e+00	 4.714283958718593e+00	 9.989924427594964e+00
0	 2.428558020182488e+00	 4.857142012692741e+00	 9.990539533488306e+00
0	 2.428558020182489e+00	 5.000000000000002e+00	 9.991353252547539e+00
0	 2.428558020182488e+00	 5.142857987307261e+00	 9.991838733360193e+00
0	 2.428558020182487e+00	 5.285716041281407e+00	 9.991469126727129e+00
0	 2.428558020182488e+00	 5.428574228589335e+00	 9.989717585662465e+00
0	 2.428558020182488e+00	 5.571432615897928e+00	 9.986057265393480e+00
0	 2.428558020182488e+00	 5.714291269874074e+00	 9.979961323360506e+00
0	 2.571408549120992e+00	 4.285708730125926e+00	 1.000464746852717e+01
0	 2.571408549120992e+00	 4.428567384102076e+00	 1.000782526128061e+01
0	 2.571408549120992e+00	 4.571425771410667e+00	 1.001122283243293e+01
0	 2.571408549120992e+00	 4.714283958718593e+00	 1.001444780810098e+01
0	 2.571408549120993e+00	 4.857142012692743e+00	 1.001710781905521e+01
0	 2.571408549120992e+00	 5.000000000000002e+00	 1.001881050071974e+01
0	 2.571408549120992e+00	 5.142857987307260e+00	 1.001916349317234e+01
0	 2.571408549120992e+00	 5.285716041281410e+00	 1.001777444114436e+01
0	 2.571408549120992e+00	 5.428574228589335e+00	 1.001425099402067e+01
0	 2.571408549120991e+00	 5.571432615897927e+00	 1.000820080583956e+01
0	 2.571408549120992e+00	 5.714291269874074e+00	 9.999231535292518e+00
0	 2.714259044728984e+00	 4.285708730125926e+00	 1.001585237668142e+01
0	 2.714259044728984e+00	 4.428567384102075e+00	 1.002421075504686e+01
0	 2.714259044728985e+00	 4.571425771410668e+00	 1.003141995795917e+01
0	 2.714259044728985e+00	 4.714283958718593e+00	 1.003722025535328e+01
0	 2.714259044728984e+00	 4.857142012692742e+00	 1.004135192371966e+01
0	 2.714259044728985e+00	 5.000000000000001e+00	 1.004355524610437e+01
0	 2.714259044728984e+00	 5.142857987307259e+00	 1.004357051210905e+01
0	 2.714259044728984e+00	 5.285716041281410e+00	 1.004113801789095e+01
0	 2.714259044728984e+00	 5.428574228589335e+00	 1.003599806616277e+01
0	 2.714259044728985e+00	 5.571432615897929e+00	 1.002789096619259e+01
0	 2.714259044728984e+00	 5.714291269874074e+00	 1.001655703380370e+01
0	 2.857109523672222e+00	 4.285708730125926e+00	 1.002980896714215e+01
0	 2.857109523672222e+00	 4.428567384102073e+00	 1.004160007627596e+01
0	 2.857109523672223e+00	 4.571425771410668e+00	 1.005114123070312e+01
0	 2.857109523672222e+00	 4.714283958718593e+00	 1.005830350490208e+01
0	 2.857109523672223e+00	 4.857142012692742e+00	 1.006295798105281e+01
0	 2.857109523672222e+00	 5.000000000000001e+00	 1.006497574903690e+01
0	 2.857109523672222e+00	 5.142857987307261e+00	 1.006422790643759e+01
0	 2.857109523672222e+00	 5.285716041281408e+00	 1.006058555853975e+01
0	 2.857109523672222e+00	 5.428574228589336e+00	 1.005391981832981e+01
0	 2.857109523672222e+00	 5.571432615897928e+00	 1.004410180649559e+01
0	 2.857109523672222e+00	 5.714291269874074e+00	 1.003100265142617e+01
0	 1.428601984435185e+00	 5.714291269874074e+00	 9.869171833367632e+00
0	 1.428601984435185e+00	 5.857150240517928e+00	 9.885866896816562e+00
0	 1.428601984435185e+00	 6.000009511162683e+00	 9.897067431791299e+00
0	 1.428601984435185e+00	 6.142869048474793e+00	 9.903840897368179e+00
0	 1.428601984435185e+00	 6.285728819120713e+00	 9.907254752318726e+00
0	 1.428601984435185e+00	 6.428588789766897e+00	 9.908376455109723e+00
0	 1.428601984435185e+00	 6.571448927079810e+00	 9.908273463903203e+00
0	 1.428601984435185e+00	 6.714309197725895e+00	 9.908013236556489e+00
0	 1.428601984435185e+00	 6.857169568371617e+00	 9.908663230622219e+00
0	 1.428601984435185e+00	 7.000030005683426e+00	 9.911290903348357e+00
0	 1.428601984435185e+00	 7.142890476327780e+00	 9.916963711678225e+00
0	 1.571453213328422e+00	 5.714291269874074e+00	 9.875870389339655e+00
0	 1.571453213328422e+00	 5.857150240517929e+00	 9.889534296036832e+00
0	 1.571453213328422e+00	 6.000009511162682e+00	 9.898776208677717e+00
0	 1.571453213328421e+00	 6.142869048474790e+00	 9.904530588212097e+00
0	 1.571453213328422e+00	 6.285728819120711e+00	 9.907731896061135e+00
0	 1.571453213328422e+00	 6.428588789766901e+00	 9.909314594117378e+00
0	 1.571453213328422e+00	 6.571448927079809e+00	 9.910213144744755e+00
0	 1.571453213328422e+00	 6.714309197725895e+00	 9.911362010778593e+00
0	 1.571453213328422e+00	 6.857169568371619e+00	 9.913695655525665e+00
0	 1.571453213328422e+00	 7.000030005683425e+00	 9.918148542764120e+00
0	 1.571453213328422e+00	 7.142890476327778e+00	 9.925655136743593e+00
0	 1.714304292230859e+00	 5.714291269874075e+00	 9.887170391101142e+00
0	 1.714304292230859e+00	 5.857150240517928e+00	 9.897459140279192e+00
0	 1.714304292230859e+00	 6.000009511162682e+00	 9.904338197981092e+00
0	 1.714304292230859e+00	 6.142869048474791e+00	 9.908616041916391e+00
0	 1.714304292230859e+00	 6.285728819120713e+00	 9.911101150973771e+00
0	 1.714304292230859e+00	 6.428588789766902e+00	 9.912602005220972e+00
0	 1.714304292230859e+00	 6.571448927079810e+00	 9.913927085904879e+00
0	 1.714304292230859e+00	 6.714309197725897e+00	 9.915884875451411e+00
0	 1.714304292230859e+00	 6.857169568371616e+00	 9.919283857465606e+00
0	 1.714304292230859e+00	 7.000030005683427e+00	 9.924932516731626e+00
0	 1.714304292230858e+00	 7.142890476327779e+00	 9.933639339212686e+00
0	 1.857155237808252e+00	 5.714291269874074e+00	 9.902136674450386e+00
0	 1.857155237808251e+00	 5.857150240517927e+00	 9.908833171285826e+00
0	 1.857155237808251e+00	 6.000009511162682e+00	 9.913066587524044e+00
0	 1.857155237808251e+00	 6.142869048474791e+00	 9.915526432703112e+00
0	 1.857155237808251e+00	 6.285728819120710e+00	 9.916902218171911e+00
0	 1.857155237808252e+00	 6.428588789766900e+00	 9.917883457090037e+00
0	 1.857155237808251e+00	 6.571448927079809e+00	 9.919159664427804e+00
0	 1.857155237808251e+00	 6.714309197725896e+00	 9.921420356966264e+00
0	 1.857155237808252e+00	 6.857169568371618e+00	 9.925355053297148e+00
0	 1.857155237808251e+00	 7.000030005683427e+00	 9.931653273822903e+00
0	 1.857155237808251e+00	 7.142890476327776e+00	 9.941004540756673e+00
0	 2.000006066726356e+00	 5.714291269874075e+00	 9.919834074719112e+00
0	 2.000006066726355e+00	 5.857150240517928e+00	 9.922848130436677e+00
0	 2.000006066726354e+00	 6.000009511162681e+00	 9.924274564879207e+00
0	 2.000006066726356e+00	 6.142869048474791e+00	 9.924690934659667e+00
0	 2.000006066726355e+00	 6.285728819120711e+00	 9.924674798749658e+00
0	 2.000006066726355e+00	 6.428588789766899e+00	 9.924803718479522e+00
0	 2.000006066726355e+00	 6.571448927079810e+00	 9.925655257538217e+00
0	 2.000006066726356e+00	 6.714309197725895e+00	 9.927806981973330e+00
0	 2.000006066726355e+00	 6.857169568371618e+00	 9.931836460191033e+00
0	 2.000006066726356e+00	 7.000030005683427e+00	 9.938321262956116e+00
0	 2.000006066726356e+00	 7.142890476327779e+00	 9.947838963391948e+00
0	 2.142856795650925e+00	 5.714291269874074e+00	 9.939327426772438e+00
0	 2.142856795650925e+00	 5.857150240517930e+00	 9.938695758749416e+00
0	 2.142856795650925e+00	 6.000009511162682e+00	 9.937275317369309e+00
0	 2.142856795650924e+00	 6.142869048474789e+00	 9.935538721738807e+00
0	 2.142856795650926e+00	 6.285728819120711e+00	 9.933958593779918e+00
0	 2.142856795650925e+00	 6.428588789766899e+00	 9.933007558229907e+00
0	 2.142856795650925e+00	 6.571448927079810e+00	 9.933158242641248e+00
0	 2.142856795650925e+00	 6.714309197725895e+00	 9.934883277381600e+00
0	 2.142856795650924e+00	 6.857169568371615e+00	 9.938655295633726e+00
0	 2.142856795650925e+00	 7.000030005683426e+00	 9.944946933395558e+00
0	 2.142856795650926e+00	 7.142890476327779e+00	 9.954230829480142e+00
0	 2.285707441247718e+00	 5.714291269874074e+00	 9.959681565008918e+00
0	 2.285707441247718e+00	 5.857150240517929e+00	 9.955567796879533e+00
0	 2.285707441247718e+00	 6.000009511162681e+00	 9.951382032067064e+00
0	 2.285707441247718e+00	 6.142869048474792e+00	 9.947498967758669e+00
0	 2.285707441247718e+00	 6.285728819120712e+00	 9.944293304314426e+00
0	 2.285707441247717e+00	 6.428588789766896e+00	 9.942139745267156e+00
0	 2.285707441247718e+00	 6.571448927079809e+00	 9.941412997322530e+00
0	 2.285707441247718e+00	 6.714309197725896e+00	 9.942487770358916e+00
0	 2.285707441247718e+00	 6.857169568371615e+00	 9.945738777427376e+00
0	 2.285707441247718e+00	 7.000030005683426e+00	 9.951540734751648e+00
0	 2.285707441247717e+00	 7.142890476327776e+00	 9.960268361728119e+00
0	 2.428558020182488e+00	 5.714291269874074e+00	 9.979961323360506e+00
0	 2.428558020182488e+00	 5.857150240517927e+00	 9.972655985120170e+00
0	 2.428558020182488e+00	 6.000009511162683e+00	 9.965907895795230e+00
0	 2.428558020182489e+00	 6.142869048474793e+00	 9.960000846402767e+00
0	 2.428558020182488e+00	 6.285728819120712e+00	 9.955218631383687e+00
0	 2.428558020182488e+00	 6.428588789766899e+00	 9.951845048602674e+00
0	 2.428558020182488e+00	 6.571448927079808e+00	 9.950163899348096e+00
0	 2.428558020182488e+00	 6.714309197725898e+00	 9.950458988331938e+00
0	 2.428558020182489e+00	 6.857169568371618e+00	 9.953014123689835e+00
0	 2.428558020182488e+00	 7.000030005683427e+00	 9.958113116980947e+00
0	 2.428558020182488e+00	 7.142890476327778e+00	 9.966039783188013e+00
0	 2.571408549120992e+00	 5.714291269874074e+00	 9.999231535292518e+00
0	 2.571408549120992e+00	 5.857150240517928e+00	 9.989152063402258e+00
0	 2.571408549120993e+00	 6.000009511162682e+00	 9.980166095126581e+00
0	 2.571408549120992e+00	 6.142869048474792e+00	 9.972473531219871e+00
0	 2.571408549120992e+00	 6.285728819120712e+00	 9.966274275997053e+00
0	 2.571408549120992e+00	 6.428588789766901e+00	 9.961768237333384e+00
0	 2.571408549120992e+00	 6.571448927079809e+00	 9.959155326664455e+00
0	 2.571408549120992e+00	 6.714309197725898e+00	 9.958635458986183e+00
0	 2.571408549120992e+00	 6.857169568371617e+00	 9.960408552854645e+00
0	 2.571408549120992e+00	 7.000030005683427e+00	 9.964674530386151e+00
0	 2.571408549120992e+00	 7.142890476327778e+00	 9.971633317257169e+00
0	 2.714259044728984e+00	 5.714291269874074e+00	 1.001655703380370e+01
0	 2.714259044728985e+00	 5.857150240517928e+00	 1.000424777129446e+01
0	 2.714259044728985e+00	 6.000009511162683e+00	 9.993469816383923e+00
0	 2.714259044728985e+00	 6.142869048474791e+00	 9.984346195624219e+00
0	 2.714259044728985e+00	 6.285728819120712e+00	 9.976999939142651e+00
0	 2.714259044728985e+00	 6.428588789766901e+00	 9.971554080641633e+00
0	 2.714259044728985e+00	 6.571448927079810e+00	 9.968131657398599e+00
0	 2.714259044728984e+00	 6.714309197725896e+00	 9.966855710265957e+00
0	 2.714259044728985e+00	 6.857169568371617e+00	 9.967849283671057e+00
0	 2.714259044728984e+00	 7.000030005683426e+00	 9.971235425616101e+00
0	 2.714259044728984e+00	 7.142890476327777e+00	 9.977137187678185e+00
0	 2.857109523672222e+00	 5.714291269874074e+00	 1.003100265142617e+01
0	 2.857109523672222e+00	 5.857150240517928e+00	 1.001713484800311e+01
0	 2.857109523672222e+00	 6.000009511162682e+00	 1.000513224564004e+01
0	 2.857109523672222e+00	 6.142869048474791e+00	 9.995048012895268e+00
0	 2.857109523672222e+00	 6.285728819120712e+00	 9.986935321787405e+00
0	 2.857109523672222e+00	 6.428588789766900e+00	 9.980847347795279e+00
0	 2.857109523672222e+00	 6.571448927079808e+00	 9.976837269857922e+00
0	 2.857109523672222e+00	 6.714309197725895e+00	 9.974958270374444e+00
0	 2.857109523672222e+00	 6.857169568371616e+00	 9.975263535203997e+00
0	 2.857109523672222e+00	 7.000030005683426e+00	 9.977806253665767e+00
0	 2.857109523672222e+00	 7.142890476327777e+00	 9.982639618538922e+00
0	 1.428601984435185e+00	 7.142890476327780e+00	 9.916963711678225e+00
0	 1.428601984435185e+00	 7.285740955271015e+00	 9.925622127621706e+00
0	 1.428601984435185e+00	 7.428591450879006e+00	 9.936012263997773e+00
0	 1.428601984435185e+00	 7.571441979817510e+00	 9.947408453998577e+00
0	 1.428601984435185e+00	 7.714292558752281e+00	 9.959085032126787e+00
0	 1.428601984435185e+00	 7.857143204349073e+00	 9.970316334195594e+00
0	 1.428601984435185e+00	 7.999993933273643e+00	 9.980376697328699e+00
0	 1.428601984435185e+00	 8.142844762191748e+00	 9.988540459960298e+00
0	 1.428601984435185e+00	 8.285695707769142e+00	 9.994081961835104e+00
0	 1.428601984435185e+00	 8.428546786671578e+00	 9.996275544008340e+00
0	 1.428601984435185e+00	 8.571398015564816e+00	 9.994395548845667e+00
0	 1.571453213328422e+00	 7.142890476327778e+00	 9.925655136743593e+00
0	 1.571453213328422e+00	 7.285740955271012e+00	 9.935626633249241e+00
0	 1.571453213328422e+00	 7.428591450879007e+00	 9.946457079538174e+00
0	 1.571453213328422e+00	 7.571441979817513e+00	 9.957553256178613e+00
0	 1.571453213328422e+00	 7.714292558752281e+00	 9.968321945277880e+00
0	 1.571453213328422e+00	 7.857143204349074e+00	 9.978169930482395e+00
0	 1.571453213328422e+00	 7.999993933273642e+00	 9.986503996977659e+00
0	 1.571453213328422e+00	 8.142844762191748e+00	 9.992730931488236e+00
0	 1.571453213328422e+00	 8.285695707769140e+00	 9.996257522277764e+00
0	 1.571453213328422e+00	 8.428546786671575e+00	 9.996490559148945e+00
0	 1.571453213328422e+00	 8.571398015564816e+00	 9.992836833443533e+00
0	 1.714304292230858e+00	 7.142890476327779e+00	 9.933639339212686e+00
0	 1.714304292230858e+00	 7.285740955271012e+00	 9.944386113716249e+00
0	 1.714304292230859e+00	 7.428591450879006e+00	 9.955301785987004e+00
0	 1.714304292230859e+00	 7.571441979817509e+00	 9.965913373439236e+00
0	 1.714304292230859e+00	 7.714292558752282e+00	 9.975747895154635e+00
0	 1.714304292230859e+00	 7.857143204349075e+00	 9.984332371882401e+00
0	 1.714304292230859e+00	 7.999993933273643e+00	 9.991193826039124e+00
0	 1.714304292230859e+00	 8.142844762191748e+00	 9.995859281708857e+00
0	 1.714304292230859e+00	 8.285695707769138e+00	 9.997855764643067e+00
0	 1.714304292230859e+00	 8.428546786671577e+00	 9.996710302260647e+00
0	 1.714304292230859e+00	 8.571398015564817e+00	 9.991949923647850e+00
0	 1.857155237808251e+00	 7.142890476327776e+00	 9.941004540756673e+00
0	 1.857155237808251e+00	 7.285740955271015e+00	 9.952054642607191e+00
0	 1.857155237808252e+00	 7.428591450879008e+00	 9.962747935448736e+00
0	 1.857155237808251e+00	 7.571441979817511e+00	 9.972719462926143e+00
0	 1.857155237808251e+00	 7.714292558752279e+00	 9.981604270392747e+00
0	 1.857155237808251e+00	 7.857143204349076e+00	 9.989037404910365e+00
0	 1.857155237808251e+00	 7.999993933273644e+00	 9.994653915249227e+00
0	 1.857155237808251e+00	 8.142844762191746e+00	 9.998088851888019e+00
0	 1.857155237808251e+00	 8.285695707769142e+00	 9.998977267013885e+00
0	 1.857155237808251e+00	 8.428546786671578e+00	 9.996954214522379e+00
0	 1.857155237808251e+00	 8.571398015564816e+00	 9.991654750017442e+00
0	 2.000006066726356e+00	 7.142890476327779e+00	 9.947838963391948e+00
0	 2.000006066726354e+00	 7.285740955271012e+00	 9.958786293816932e+00
0	 2.000006066726355e+00	 7.428591450879006e+00	 9.968997080275575e+00
0	 2.000006066726355e+00	 7.571441979817512e+00	 9.978202181951064e+00
0	 2.000006066726355e+00	 7.714292558752281e+00	 9.986132459701601e+00
0	 2.000006066726355e+00	 7.857143204349074e+00	 9.992518776060379e+00
0	 2.000006066726355e+00	 7.999993933273642e+00	 9.997091995235545e+00
0	 2.000006066726355e+00	 8.142844762191750e+00	 9.999582983110219e+00
0	 2.000006066726355e+00	 8.285695707769138e+00	 9.999722607242504e+00
0	 2.000006066726355e+00	 8.428546786671578e+00	 9.997241736865433e+00
0	 2.000006066726356e+00	 8.571398015564817e+00	 9.991871242886980e+00
0	 2.142856795650926e+00	 7.142890476327779e+00	 9.954230829480142e+00
0	 2.142856795650925e+00	 7.285740955271012e+00	 9.964735141550641e+00
0	 2.142856795650926e+00	 7.428591450879009e+00	 9.974250773067524e+00
0	 2.142856795650925e+00	 7.571441979817511e+00	 9.982592187991786e+00
0	 2.142856795650925e+00	 7.714292558752279e+00	 9.989573851864330e+00
0	 2.142856795650926e+00	 7.857143204349076e+00	 9.995010231805907e+00
0	 2.142856795650925e+00	 7.999993933273642e+00	 9.998715796517164e+00
0	 2.142856795650926e+00	 8.142844762191746e+00	 1.000050501627861e+01
0	 2.142856795650927e+00	 8.285695707769140e+00	 1.000019236295062e+01
0	 2.142856795650926e+00	 8.428546786671577e+00	 9.997592309973413e+00
0	 2.142856795650926e+00	 8.571398015564816e+00	 9.992519332367024e+00
0	 2.285707441247717e+00	 7.142890476327776e+00	 9.960268361728119e+00
0	 2.285707441247718e+00	 7.285740955271015e+00	 9.970055260323825e+00
0	 2.285707441247718e+00	 7.428591450879007e+00	 9.978710566672342e+00
0	 2.285707441247718e+00	 7.571441979817510e+00	 9.986120138692135e+00
0	 2.285707441247717e+00	 7.714292558752281e+00	 9.992169835737762e+00
0	 2.285707441247718e+00	 7.857143204349073e+00	 9.996745518599745e+00
0	 2.285707441247718e+00	 7.999993933273644e+00	 9.999733049504627e+00
0	 2.285707441247717e+00	 8.142844762191748e+00	 1.000101829211499e+01
0	 2.285707441247718e+00	 8.285695707769140e+00	 1.000048711152932e+01
0	 2.285707441247718e+00	 8.428546786671577e+00	 9.998025374282197e+00
0	 2.285707441247718e+00	 8.571398015564814e+00	 9.993518948344086e+00
0	 2.428558020182488e+00	 7.142890476327778e+00	 9.966039783188013e+00
0	 2.428558020182489e+00	 7.285740955271015e+00	 9.974900724962389e+00
0	 2.428558020182488e+00	 7.428591450879007e+00	 9.982578014185528e+00
0	 2.428558020182488e+00	 7.571441979817509e+00	 9.989016691861949e+00
0	 2.428558020182488e+00	 7.714292558752281e+00	 9.994161800252437e+00
0	 2.428558020182487e+00	 7.857143204349071e+00	 9.997958382874019e+00
0	 2.428558020182489e+00	 7.999993933273646e+00	 1.000035148449995e+01
0	 2.428558020182488e+00	 8.142844762191750e+00	 1.000128615115974e+01
0	 2.428558020182489e+00	 8.285695707769140e+00	 1.000070743013911e+01
0	 2.428558020182488e+00	 8.428546786671580e+00	 9.998560369980000e+00
0	 2.428558020182489e+00	 8.571398015564816e+00	 9.994790020480536e+00
0	 2.571408549120992e+00	 7.142890476327778e+00	 9.971633317257169e+00
0	 2.571408549120992e+00	 7.285740955271014e+00	 9.979425610602556e+00
0	 2.571408549120992e+00	 7.428591450879006e+00	 9.986054668950397e+00
0	 2.571408549120991e+00	 7.571441979817509e+00	 9.991512505477125e+00
0	 2.571408549120992e+00	 7.714292558752282e+00	 9.995791134412627e+00
0	 2.571408549120993e+00	 7.857143204349073e+00	 9.998882571040211e+00
0	 2.571408549120992e+00	 7.999993933273645e+00	 1.000077883169661e+01
0	 2.571408549120992e+00	 8.142844762191748e+00	 1.000147193377197e+01
0	 2.571408549120993e+00	 8.285695707769142e+00	 1.000095389570988e+01
0	 2.571408549120992e+00	 8.428546786671578e+00	 9.999216737007316e+00
0	 2.571408549120992e+00	 8.571398015564814e+00	 9.996252478214663e+00
0	 2.714259044728984e+00	 7.142890476327777e+00	 9.977137187678188e+00
0	 2.714259044728984e+00	 7.285740955271013e+00	 9.983783992690894e+00
0	 2.714259044728984e+00	 7.428591450879007e+00	 9.989342084557990e+00
0	 2.714259044728985e+00	 7.571441979817512e+00	 9.993838237679610e+00
0	 2.714259044728984e+00	 7.714292558752279e+00	 9.997299227296322e+00
0	 2.714259044728984e+00	 7.857143204349073e+00	 9.999751829489147e+00
0	 2.714259044728984e+00	 7.999993933273641e+00	 1.000122282117954e+01
0	 2.714259044728985e+00	 8.142844762191748e+00	 1.000173898012935e+01
0	 2.714259044728985e+00	 8.285695707769142e+00	 1.000132708494091e+01
0	 2.714259044728985e+00	 8.428546786671577e+00	 1.000001391505696e+01
0	 2.714259044728985e+00	 8.571398015564816e+00	 9.997826250760610e+00
0	 2.857109523672222e+00	 7.142890476327777e+00	 9.982639618538922e+00
0	 2.857109523672222e+00	 7.285740955271015e+00	 9.988129946984358e+00
0	 2.857109523672222e+00	 7.428591450879006e+00	 9.992641814847158e+00
0	 2.857109523672222e+00	 7.571441979817511e+00	 9.996224546777388e+00
0	 2.857109523672222e+00	 7.714292558752279e+00	 9.998927468055230e+00
0	 2.857109523672223e+00	 7.857143204349073e+00	 1.000079990459099e+01
0	 2.857109523672223e+00	 7.999993933273644e+00	 1.000189118292514e+01
0	 2.857109523672222e+00	 8.142844762191746e+00	 1.000225063022822e+01
0	 2.857109523672222e+00	 8.285695707769142e+00	 1.000192757430091e+01
0	 2.857109523672222e+00	 8.428546786671577e+00	 1.000097134357402e+01
0	 2.857109523672222e+00	 8.571398015564816e+00	 9.999431267108442e+00
0	 1.428601984435185e+00	 8.571398015564816e+00	 9.994395548845667e+00
0	 1.428601984435185e+00	 8.714259388995398e+00	 9.989806590004367e+00
0	 1.428601984435185e+00	 8.857120812436385e+00	 9.984945921244066e+00
0	 1.428601984435185e+00	 8.999982169218278e+00	 9.980695979219457e+00
0	 1.428601984435185e+00	 9.142843342671600e+00	 9.977939209274437e+00
0	 1.428601984435185e+00	 9.285704216126854e+00	 9.977558065442134e+00
0	 1.428601984435185e+00	 9.428564672914549e+00	 9.980435010444982e+00
0	 1.428601984435185e+00	 9.571424596365199e+00	 9.987452515694971e+00
0	 1.428601984435185e+00	 9.714283869809321e+00	 9.999493061293846e+00
0	 1.428601984435185e+00	 9.857142376577416e+00	 1.001743913603380e+01
0	 1.428601984435185e+00	 1.000000000000000e+01	 1.004217323739769e+01
0	 1.571453213328422e+00	 8.571398015564816e+00	 9.992836833443533e+00
0	 1.571453213328423e+00	 8.714259388995400e+00	 9.987105652269603e+00
0	 1.571453213328422e+00	 8.857120812436383e+00	 9.981949328246071e+00
0	 1.571453213328422e+00	 8.999982169218281e+00	 9.978037953192002e+00
0	 1.571453213328422e+00	 9.142843342671600e+00	 9.976041629639548e+00
0	 1.571453213328422e+00	 9.285704216126851e+00	 9.976630470833886e+00
0	 1.571453213328422e+00	 9.428564672914550e+00	 9.980474600733306e+00
0	 1.571453213328422e+00	 9.571424596365205e+00	 9.988244154009505e+00
0	 1.571453213328422e+00	 9.714283869809321e+00	 1.000060927604809e+01
0	 1.571453213328422e+00	 9.857142376577416e+00	 1.001824012294891e+01
0	 1.571453213328422e+00	 1.000000000000000e+01	 1.004180686152685e+01
0	 1.714304292230859e+00	 8.571398015564817e+00	 9.991949923647850e+00
0	 1.714304292230859e+00	 8.714259388995401e+00	 9.985646855178970e+00
0	 1.714304292230859e+00	 8.857120812436387e+00	 9.980511339635676e+00
0	 1.714304292230859e+00	 8.999982169218281e+00	 9.977026028328533e+00
0	 1.714304292230859e+00	 9.142843342671600e+00	 9.975673584283619e+00
0	 1.714304292230859e+00	 9.285704216126851e+00	 9.976936682242554e+00
0	 1.714304292230858e+00	 9.428564672914549e+00	 9.981298008662645e+00
0	 1.714304292230859e+00	 9.571424596365203e+00	 9.989240261717175e+00
0	 1.714304292230859e+00	 9.714283869809323e+00	 1.000124615129583e+01
0	 1.714304292230859e+00	 9.857142376577420e+00	 1.001779839900518e+01
0	 1.714304292230859e+00	 1.000000000000000e+01	 1.003937973816967e+01
0	 1.857155237808251e+00	 8.571398015564816e+00	 9.991654750017442e+00
0	 1.857155237808252e+00	 8.714259388995401e+00	 9.985257336629907e+00
0	 1.857155237808251e+00	 8.857120812436383e+00	 9.980398125411128e+00
0	 1.857155237808251e+00	 8.999982169218280e+00	 9.977397231486027e+00
0	 1.857155237808251e+00	 9.142843342671602e+00	 9.976574781832172e+00
0	 1.857155237808252e+00	 9.285704216126852e+00	 9.978250915279871e+00
0	 1.857155237808251e+00	 9.428564672914549e+00	 9.982745782512227e+00
0	 1.857155237808251e+00	 9.571424596365201e+00	 9.990379546065554e+00
0	 1.857155237808251e+00	 9.714283869809321e+00	 1.000147238032963e+01
0	 1.857155237808251e+00	 9.857142376577416e+00	 1.001634447154844e+01
0	 1.857155237808251e+00	 1.000000000000000e+01	 1.003531601782074e+01
0	 2.000006066726356e+00	 8.571398015564817e+00	 9.991871242886980e+00
0	 2.000006066726355e+00	 8.714259388995401e+00	 9.985764234364217e+00
0	 2.000006066726355e+00	 8.857120812436383e+00	 9.981375855515324e+00
0	 2.000006066726355e+00	 8.999982169218280e+00	 9.978888589580842e+00
0	 2.000006066726355e+00	 9.142843342671599e+00	 9.978484931081800e+00
0	 2.000006066726355e+00	 9.285704216126852e+00	 9.980347385819716e+00
0	 2.000006066726355e+00	 9.428564672914552e+00	 9.984658470876679e+00
0	 2.000006066726356e+00	 9.571424596365203e+00	 9.991600714615567e+00
0	 2.000006066726355e+00	 9.714283869809320e+00	 1.000135665668063e+01
0	 2.000006066726355e+00	 9.857142376577414e+00	 1.001410884799773e+01
0	 2.000006066726355e+00	 1.000000000000000e+01	 1.003003985077530e+01
0	 2.142856795650926e+00	 8.571398015564816e+00	 9.992519332367024e+00
0	 2.142856795650926e+00	 8.714259388995398e+00	 9.986994685968174e+00
0	 2.142856795650926e+00	 8.857120812436383e+00	 9.983210699835873e+00
0	 2.142856795650925e+00	 8.999982169218281e+00	 9.981237129588733e+00
0	 2.142856795650925e+00	 9.142843342671597e+00	 9.981143741000146e+00
0	 2.142856795650925e+00	 9.285704216126858e+00	 9.983000309998229e+00
0	 2.142856795650925e+00	 9.428564672914547e+00	 9.986876622665982e+00
0	 2.142856795650926e+00	 9.571424596365203e+00	 9.992842475241467e+00
0	 2.142856795650926e+00	 9.714283869809318e+00	 1.000096767411814e+01
0	 2.142856795650926e+00	 9.857142376577418e+00	 1.001132203584543e+01
0	 2.142856795650925e+00	 9.999999999999998e+00	 1.002397538712903e+01
0	 2.285707441247718e+00	 8.571398015564814e+00	 9.993518948344088e+00
0	 2.285707441247717e+00	 8.714259388995398e+00	 9.988775828872424e+00
0	 2.285707441247719e+00	 8.857120812436385e+00	 9.985668828205171e+00
0	 2.285707441247719e+00	 8.999982169218285e+00	 9.984179878544923e+00
0	 2.285707441247717e+00	 9.142843342671600e+00	 9.984290920725856e+00
0	 2.285707441247718e+00	 9.285704216126852e+00	 9.985983904213661e+00
0	 2.285707441247717e+00	 9.428564672914549e+00	 9.989240787105608e+00
0	 2.285707441247718e+00	 9.571424596365201e+00	 9.994043536130709e+00
0	 2.285707441247718e+00	 9.714283869809321e+00	 1.000037412665002e+01
0	 2.285707441247718e+00	 9.857142376577418e+00	 1.000821454265704e+01
0	 2.285707441247718e+00	 1.000000000000000e+01	 1.001754677677806e+01
0	 2.428558020182489e+00	 8.571398015564816e+00	 9.994790020480536e+00
0	 2.428558020182489e+00	 8.714259388995400e+00	 9.990934800352008e+00
0	 2.428558020182488e+00	 8.857120812436387e+00	 9.988516410400234e+00
0	 2.428558020182488e+00	 8.999982169218281e+00	 9.987453863543958e+00
0	 2.428558020182487e+00	 9.142843342671599e+00	 9.987666179568642e+00
0	 2.428558020182488e+00	 9.285704216126851e+00	 9.989072385126478e+00
0	 2.428558020182488e+00	 9.428564672914550e+00	 9.991591513736378e+00
0	 2.428558020182488e+00	 9.571424596365203e+00	 9.995142605784070e+00
0	 2.428558020182489e+00	 9.714283869809321e+00	 9.999644708522437e+00
0	 2.428558020182488e+00	 9.857142376577418e+00	 1.000501687607151e+01
0	 2.428558020182488e+00	 1.000000000000000e+01	 1.001117816941917e+01
0	 2.571408549120992e+00	 8.571398015564814e+00	 9.996252478214663e+00
0	 2.571408549120992e+00	 8.714259388995401e+00	 9.993298737526372e+00
0	 2.571408549120992e+00	 8.857120812436385e+00	 9.991519616142856e+00
0	 2.571408549120992e+00	 8.999982169218280e+00	 9.990796111739822e+00
0	 2.571408549120991e+00	 9.142843342671599e+00	 9.991009227009238e+00
0	 2.571408549120992e+00	 9.285704216126854e+00	 9.992039969659327e+00
0	 2.571408549120992e+00	 9.428564672914547e+00	 9.993769352414576e+00
0	 2.571408549120992e+00	 9.571424596365201e+00	 9.996078393015690e+00
0	 2.571408549120992e+00	 9.714283869809323e+00	 9.998848114219882e+00
0	 2.571408549120991e+00	 9.857142376577414e+00	 1.000195954380093e+01
0	 2.571408549120992e+00	 1.000000000000000e+01	 1.000529371454934e+01
0	 2.714259044728985e+00	 8.571398015564816e+00	 9.997826250760610e+00
0	 2.714259044728985e+00	 8.714259388995400e+00	 9.995694777359322e+00
0	 2.714259044728984e+00	 8.857120812436385e+00	 9.994444615099489e+00
0	 2.714259044728984e+00	 8.999982169218283e+00	 9.993943650345887e+00
0	 2.714259044728985e+00	 9.142843342671599e+00	 9.994059772699396e+00
0	 2.714259044728985e+00	 9.285704216126852e+00	 9.994660874997045e+00
0	 2.714259044728984e+00	 9.428564672914550e+00	 9.995614853311871e+00
0	 2.714259044728984e+00	 9.571424596365201e+00	 9.996789606952936e+00
0	 2.714259044728984e+00	 9.714283869809320e+00	 9.998053038465425e+00
0	 2.714259044728984e+00	 9.857142376577416e+00	 9.999273053630722e+00
0	 2.714259044728984e+00	 1.000000000000000e+01	 1.000031756146634e+01
0	 2.857109523672222e+00	 8.571398015564816e+00	 9.999431267108442e+00
0	 2.857109523672221e+00	 8.714259388995400e+00	 9.997950056659118e+00
0	 2.857109523672223e+00	 8.857120812436383e+00	 9.997057576881343e+00
0	 2.857109523672222e+00	 8.999982169218281e+00	 9.996633506634918e+00
0	 2.857109523672222e+00	 9.142843342671597e+00	 9.996557526461952e+00
0	 2.857109523672223e+00	 9.285704216126852e+00	 9.996709318586666e+00
0	 2.857109523672222e+00	 9.428564672914550e+00	 9.996968566915372e+00
0	 2.857109523672222e+00	 9.571424596365199e+00	 9.997214957036469e+00
0	 2.857109523672222e+00	 9.714283869809323e+00	 9.997328176220345e+00
0	 2.857109523672223e+00	 9.857142376577418e+00	 9.997187913419461e+00
0	 2.857109523672222e+00	 9.999999999999998e+00	 9.996673859268343e+00
0	 2.857109523672222e+00	 0.000000000000000e+00	 1.052848320562662e+01
0	 2.857109523672222e+00	 1.428576234225852e-01	 1.053227137321001e+01
0	 2.857109523672222e+00	 2.857161301906819e-01	 1.052110463633490e+01
0	 2.857109523672222e+00	 4.285754036348007e-01	 1.049948136492231e+01
0	 2.857109523672222e+00	 5.714353270854530e-01	 1.047189999115815e+01
0	 2.857109523672223e+00	 7.142957838731496e-01	 1.044285900948966e+01
0	 2.857109523672222e+00	 8.571566573284017e-01	 1.041685697662271e+01
0	 2.857109523672222e+00	 1.000017830781720e+00	 1.039839251151967e+01
0	 2.857109523672222e+00	 1.142879187563616e+00	 1.039196429539826e+01
0	 2.857109523672222e+00	 1.285740611004601e+00	 1.040207107173105e+01
0	 2.857109523672221e+00	 1.428601984435185e+00	 1.043321164624568e+01
0	 2.999969994316576e+00	 0.000000000000000e+00	 1.052743772172829e+01
0	 2.999969994316577e+00	 1.428576234225853e-01	 1.050159615449011e+01
0	 2.999969994316576e+00	 2.857161301906819e-01	 1.047043622587497e+01
0	 2.999969994316576e+00	 4.285754036348007e-01	 1.043735627757744e+01
0	 2.999969994316576e+00	 5.714353270854530e-01	 1.040575472465845e+01
0	 2.999969994316576e+00	 7.142957838731496e-01	 1.037903005554117e+01
0	 2.999969994316577e+00	 8.571566573284015e-01	 1.036058083200793e+01
0	 2.999969994316576e+00	 1.000017830781720e+00	 1.035380568919790e+01
0	 2.999969994316576e+00	 1.142879187563616e+00	 1.036210333560571e+01
0	 2.999969994316575e+00	 1.285740611004601e+00	 1.038887255308098e+01
0	 2.999969994316576e+00	 1.428601984435186e+00	 1.043751219682873e+01
0	 3.142830431628385e+00	 0.000000000000000e+00	 1.051957843350578e+01
0	 3.142830431628385e+00	 1.428576234225852e-01	 1.047626332404557e+01
0	 3.142830431628386e+00	 2.857161301906819e-01	 1.043430822455202e+01
0	 3.142830431628386e+00	 4.285754036348007e-01	 1.039615239962265e+01
0	 3.142830431628385e+00	 5.714353270854531e-01	 1.036423518864489e+01
0	 3.142830431628386e+00	 7.142957838731496e-01	 1.034099600579205e+01
0	 3.142830431628385e+00	 8.571566573284017e-01	 1.032887434002020e+01
0	 3.142830431628385e+00	 1.000017830781720e+00	 1.033030975506595e+01
0	 3.142830431628385e+00	 1.142879187563616e+00	 1.034774188944516e+01
0	 3.142830431628385e+00	 1.285740611004601e+00	 1.038361045645255e+01
0	 3.142830431628386e+00	 1.428601984435185e+00	 1.044035524416227e+01
0	 3.285690802274106e+00	 0.000000000000000e+00	 1.050478369051238e+01
0	 3.285690802274106e+00	 1.428576234225852e-01	 1.045444624543710e+01
0	 3.285690802274106e+00	 2.857161301906819e-01	 1.040955802740038e+01
0	 3.285690802274105e+00	 4.285754036348007e-01	 1.037174016484243e+01
0	 3.285690802274106e+00	 5.714353270854532e-01	 1.034261385454739e+01
0	 3.285690802274106e+00	 7.142957838731496e-01	 1.032380036163974e+01
0	 3.285690802274106e+00	 8.571566573284016e-01	 1.031692101958156e+01
0	 3.285690802274107e+00	 1.000017830781720e+00	 1.032359723017071e+01
0	 3.285690802274105e+00	 1.142879187563616e+00	 1.034545046353970e+01
0	 3.285690802274106e+00	 1.285740611004601e+00	 1.038410225815556e+01
0	 3.285690802274106e+00	 1.428601984435185e+00	 1.044117422082041e+01
0	 3.428551072920193e+00	 0.000000000000000e+00	 1.048293181551519e+01
0	 3.428551072920194e+00	 1.428576234225853e-01	 1.043431826105194e+01
0	 3.428551072920194e+00	 2.857161301906819e-01	 1.039302301251712e+01
0	 3.428551072920193e+00	 4.285754036348008e-01	 1.035998999314100e+01
0	 3.428551072920193e+00	 5.714353270854530e-01	 1.033616318199050e+01
0	 3.428551072920193e+00	 7.142957838731495e-01	 1.032248661396644e+01
0	 3.428551072920193e+00	 8.571566573284016e-01	 1.031990437980152e+01
0	 3.428551072920194e+00	 1.000017830781720e+00	 1.032936062605894e+01
0	 3.428551072920193e+00	 1.142879187563616e+00	 1.035179955513174e+01
0	 3.428551072920193e+00	 1.285740611004601e+00	 1.038816542524279e+01
0	 3.428551072920193e+00	 1.428601984435185e+00	 1.043940255044551e+01
0	 3.571411210233102e+00	 0.000000000000000e+00	 1.045390110449519e+01
0	 3.571411210233103e+00	 1.428576234225853e-01	 1.041405269210395e+01
0	 3.571411210233102e+00	 2.857161301906819e-01	 1.038154054106215e+01
0	 3.571411210233102e+00	 4.285754036348007e-01	 1.035677229054231e+01
0	 3.571411210233104e+00	 5.714353270854531e-01	 1.034015561879339e+01
0	 3.571411210233103e+00	 7.142957838731496e-01	 1.033209824313916e+01
0	 3.571411210233102e+00	 8.571566573284015e-01	 1.033300791997702e+01
0	 3.571411210233103e+00	 1.000017830781720e+00	 1.034329244477729e+01
0	 3.571411210233103e+00	 1.142879187563616e+00	 1.036335965208298e+01
0	 3.571411210233103e+00	 1.285740611004601e+00	 1.039361741551004e+01
0	 3.571411210233102e+00	 1.428601984435185e+00	 1.043447364774815e+01
0	 3.714271180879290e+00	 0.000000000000000e+00	 1.041756982664701e+01
0	 3.714271180879289e+00	 1.428576234225853e-01	 1.039182283863337e+01
0	 3.714271180879289e+00	 2.857161301906817e-01	 1.037194795725800e+01
0	 3.714271180879289e+00	 4.285754036348006e-01	 1.035795744918990e+01
0	 3.714271180879290e+00	 5.714353270854531e-01	 1.034986360096978e+01
0	 3.714271180879290e+00	 7.142957838731496e-01	 1.034767871900962e+01
0	 3.714271180879290e+00	 8.571566573284020e-01	 1.035141512959242e+01
0	 3.714271180879290e+00	 1.000017830781720e+00	 1.036108517887222e+01
0	 3.714271180879290e+00	 1.142879187563616e+00	 1.037670123287440e+01
0	 3.714271180879289e+00	 1.285740611004600e+00	 1.039827567749613e+01
0	 3.714271180879290e+00	 1.428601984435185e+00	 1.042582091850716e+01
0	 3.857130951525210e+00	 0.000000000000000e+00	 1.037381622437873e+01
0	 3.857130951525211e+00	 1.428576234225853e-01	 1.036580197950678e+01
0	 3.857130951525210e+00	 2.857161301906819e-01	 1.036108258838977e+01
0	 3.857130951525211e+00	 4.285754036348007e-01	 1.035941584734686e+01
0	 3.857130951525211e+00	 5.714353270854530e-01	 1.036055955272791e+01
0	 3.857130951525211e+00	 7.142957838731497e-01	 1.036427150091423e+01
0	 3.857130951525210e+00	 8.571566573284017e-01	 1.037030948831943e+01
0	 3.857130951525211e+00	 1.000017830781720e+00	 1.037843131139000e+01
0	 3.857130951525210e+00	 1.142879187563616e+00	 1.038839476660621e+01
0	 3.857130951525210e+00	 1.285740611004601e+00	 1.039995765048277e+01
0	 3.857130951525211e+00	 1.428601984435185e+00	 1.041287775956958e+01
0	 3.999990488837320e+00	 0.000000000000000e+00	 1.032251851331161e+01
0	 3.999990488837321e+00	 1.428576234225852e-01	 1.033416337241673e+01
0	 3.999990488837321e+00	 2.857161301906820e-01	 1.034578174480489e+01
0	 3.999990488837319e+00	 4.285754036348006e-01	 1.035701784939562e+01
0	 3.999990488837320e+00	 5.714353270854531e-01	 1.036751588647029e+01
0	 3.999990488837319e+00	 7.142957838731496e-01	 1.037692003767394e+01
0	 3.999990488837319e+00	 8.571566573284016e-01	 1.038487446601698e+01
0	 3.999990488837321e+00	 1.000017830781720e+00	 1.039102331587656e+01
0	 3.999990488837320e+00	 1.142879187563616e+00	 1.039501071299775e+01
0	 3.999990488837320e+00	 1.285740611004601e+00	 1.039648076449454e+01
0	 3.999990488837321e+00	 1.428601984435185e+00	 1.039507755885051e+01
0	 4.142849759482075e+00	 0.000000000000000e+00	 1.026355488227965e+01
0	 4.142849759482075e+00	 1.428576234225853e-01	 1.029508025388150e+01
0	 4.142849759482075e+00	 2.857161301906819e-01	 1.032288271991284e+01
0	 4.142849759482075e+00	 4.285754036348008e-01	 1.034663380583774e+01
0	 4.142849759482075e+00	 5.714353270854531e-01	 1.036600500279362e+01
0	 4.142849759482074e+00	 7.142957838731497e-01	 1.038066776759403e+01
0	 4.142849759482073e+00	 8.571566573284016e-01	 1.039029352273110e+01
0	 4.142849759482074e+00	 1.000017830781720e+00	 1.039455365637735e+01
0	 4.142849759482075e+00	 1.142879187563616e+00	 1.039311952238735e+01
0	 4.142849759482075e+00	 1.285740611004601e+00	 1.038566244029877e+01
0	 4.142849759482075e+00	 1.428601984435185e+00	 1.037185369533308e+01
0	 4.285708730125926e+00	 0.000000000000000e+00	 1.019680349332907e+01
0	 4.285708730125926e+00	 1.428576234225852e-01	 1.024672583924464e+01
0	 4.285708730125926e+00	 2.857161301906819e-01	 1.028922279018488e+01
0	 4.285708730125925e+00	 4.285754036348007e-01	 1.032413405329365e+01
0	 4.285708730125926e+00	 5.714353270854531e-01	 1.035129929048851e+01
0	 4.285708730125926e+00	 7.142957838731496e-01	 1.037055811846404e+01
0	 4.285708730125925e+00	 8.571566573284017e-01	 1.038175010869471e+01
0	 4.285708730125926e+00	 1.000017830781720e+00	 1.038471478743722e+01
0	 4.285708730125926e+00	 1.142879187563616e+00	 1.037929163573218e+01
0	 4.285708730125926e+00	 1.285740611004601e+00	 1.036532008940536e+01
0	 4.285708730125926e+00	 1.428601984435185e+00	 1.034263953906827e+01
0	 2.857109523672221e+00	 1.428601984435185e+00	 1.043321164624568e+01
0	 2.857109523672222e+00	 1.571453213328422e+00	 1.047399502984920e+01
0	 2.857109523672222e+00	 1.714304292230858e+00	 1.050897624036159e+01
0	 2.857109523672222e+00	 1.857155237808251e+00	 1.053656408670774e+01
0	 2.857109523672223e+00	 2.000006066726356e+00	 1.055516738973768e+01
0	 2.857109523672222e+00	 2.142856795650926e+00	 1.056319498222669e+01
0	 2.857109523672222e+00	 2.285707441247718e+00	 1.055905570887542e+01
0	 2.857109523672223e+00	 2.428558020182489e+00	 1.054115842630995e+01
0	 2.857109523672222e+00	 2.571408549120993e+00	 1.050791200308184e+01
0	 2.857109523672222e+00	 2.714259044728984e+00	 1.045772531966819e+01
0	 2.857109523672222e+00	 2.857109523672222e+00	 1.038900726847161e+01
0	 2.999969994316576e+00	 1.428601984435186e+00	 1.043751219682873e+01
0	 2.999969994316576e+00	 1.571453213328422e+00	 1.049362895430686e+01
0	 2.999969994316577e+00	 1.714304292230859e+00	 1.053979641453481e+01
0	 2.999969994316576e+00	 1.857155237808251e+00	 1.057485110170660e+01
0	 2.999969994316577e+00	 2.000006066726356e+00	 1.059762955337384e+01
0	 2.999969994316576e+00	 2.142856795650925e+00	 1.060696832044587e+01
0	 2.999969994316576e+00	 2.285707441247718e+00	 1.060170396718989e+01
0	 2.999969994316576e+00	 2.428558020182489e+00	 1.058067307123097e+01
0	 2.999969994316576e+00	 2.571408549120992e+00	 1.054271222355224e+01
0	 2.999969994316576e+00	 2.714259044728983e+00	 1.048665802849482e+01
0	 2.999969994316576e+00	 2.857109523672223e+00	 1.041134710375790e+01
0	 3.142830431628386e+00	 1.428601984435185e+00	 1.044035524416227e+01
0	 3.142830431628386e+00	 1.571453213328422e+00	 1.050251018720528e+01
0	 3.142830431628386e+00	 1.714304292230860e+00	 1.055246462989390e+01
0	 3.142830431628386e+00	 1.857155237808252e+00	 1.058942726221499e+01
0	 3.142830431628386e+00	 2.000006066726355e+00	 1.061260678777884e+01
0	 3.142830431628386e+00	 2.142856795650926e+00	 1.062121192381928e+01
0	 3.142830431628385e+00	 2.285707441247718e+00	 1.061445140119382e+01
0	 3.142830431628386e+00	 2.428558020182489e+00	 1.059153396438373e+01
0	 3.142830431628385e+00	 2.571408549120992e+00	 1.055166837149410e+01
0	 3.142830431628386e+00	 2.714259044728985e+00	 1.049406339425389e+01
0	 3.142830431628385e+00	 2.857109523672222e+00	 1.041792781801597e+01
0	 3.285690802274106e+00	 1.428601984435185e+00	 1.044117422082041e+01
0	 3.285690802274105e+00	 1.571453213328422e+00	 1.050172555862772e+01
0	 3.285690802274106e+00	 1.714304292230859e+00	 1.054942725858449e+01
0	 3.285690802274106e+00	 1.857155237808252e+00	 1.058380462584634e+01
0	 3.285690802274106e+00	 2.000006066726355e+00	 1.060438297849710e+01
0	 3.285690802274107e+00	 2.142856795650926e+00	 1.061068764754911e+01
0	 3.285690802274105e+00	 2.285707441247717e+00	 1.060224397694318e+01
0	 3.285690802274106e+00	 2.428558020182488e+00	 1.057857732354881e+01
0	 3.285690802274106e+00	 2.571408549120993e+00	 1.053921305716416e+01
0	 3.285690802274106e+00	 2.714259044728985e+00	 1.048367656051616e+01
0	 3.285690802274106e+00	 2.857109523672222e+00	 1.041149322926045e+01
0	 3.428551072920193e+00	 1.428601984435185e+00	 1.043940255044552e+01
0	 3.428551072920193e+00	 1.571453213328422e+00	 1.049236189040377e+01
0	 3.428551072920193e+00	 1.714304292230859e+00	 1.053313066549771e+01
0	 3.428551072920193e+00	 1.857155237808252e+00	 1.056149524420177e+01
0	 3.428551072920194e+00	 2.000006066726356e+00	 1.057724200646840e+01
0	 3.428551072920193e+00	 2.142856795650926e+00	 1.058015734372813e+01
0	 3.428551072920194e+00	 2.285707441247719e+00	 1.057002765888957e+01
0	 3.428551072920194e+00	 2.428558020182488e+00	 1.054663936633963e+01
0	 3.428551072920194e+00	 2.571408549120992e+00	 1.050977889194348e+01
0	 3.428551072920194e+00	 2.714259044728985e+00	 1.045923267304464e+01
0	 3.428551072920193e+00	 2.857109523672222e+00	 1.039478715846499e+01
0	 3.571411210233102e+00	 1.428601984435185e+00	 1.043447364774815e+01
0	 3.571411210233102e+00	 1.571453213328422e+00	 1.047550599610948e+01
0	 3.571411210233102e+00	 1.714304292230859e+00	 1.050602120827004e+01
0	 3.571411210233103e+00	 1.857155237808252e+00	 1.052601116287009e+01
0	 3.571411210233102e+00	 2.000006066726355e+00	 1.053546774802787e+01
0	 3.571411210233103e+00	 2.142856795650926e+00	 1.053438286133976e+01
0	 3.571411210233104e+00	 2.285707441247719e+00	 1.052274840988037e+01
0	 3.571411210233103e+00	 2.428558020182488e+00	 1.050055631020254e+01
0	 3.571411210233103e+00	 2.571408549120992e+00	 1.046779848833748e+01
0	 3.571411210233102e+00	 2.714259044728984e+00	 1.042446687979472e+01
0	 3.571411210233103e+00	 2.857109523672223e+00	 1.037055342956220e+01
0	 3.714271180879290e+00	 1.428601984435185e+00	 1.042582091850716e+01
0	 3.714271180879289e+00	 1.571453213328422e+00	 1.045224468106715e+01
0	 3.714271180879289e+00	 1.714304292230859e+00	 1.047054523728352e+01
0	 3.714271180879290e+00	 1.857155237808251e+00	 1.048086442142785e+01
0	 3.714271180879290e+00	 2.000006066726356e+00	 1.048334407490596e+01
0	 3.714271180879290e+00	 2.142856795650925e+00	 1.047812604625805e+01
0	 3.714271180879290e+00	 2.285707441247718e+00	 1.046535219115865e+01
0	 3.714271180879290e+00	 2.428558020182488e+00	 1.044516437241679e+01
0	 3.714271180879289e+00	 2.571408549120992e+00	 1.041770445997594e+01
0	 3.714271180879289e+00	 2.714259044728984e+00	 1.038311433091408e+01
0	 3.714271180879290e+00	 2.857109523672222e+00	 1.034153586944371e+01
0	 3.857130951525211e+00	 1.428601984435185e+00	 1.041287775956958e+01
0	 3.857130951525211e+00	 1.571453213328422e+00	 1.042366474234550e+01
0	 3.857130951525211e+00	 1.714304292230859e+00	 1.042914909566553e+01
0	 3.857130951525210e+00	 1.857155237808251e+00	 1.042956705343923e+01
0	 3.857130951525211e+00	 2.000006066726355e+00	 1.042515485422851e+01
0	 3.857130951525211e+00	 2.142856795650925e+00	 1.041614874124765e+01
0	 3.857130951525210e+00	 2.285707441247718e+00	 1.040278496236331e+01
0	 3.857130951525210e+00	 2.428558020182488e+00	 1.038529977009460e+01
0	 3.857130951525211e+00	 2.571408549120992e+00	 1.036392942161307e+01
0	 3.857130951525210e+00	 2.714259044728984e+00	 1.033891017874278e+01
0	 3.857130951525211e+00	 2.857109523672221e+00	 1.031047830796026e+01
0	 3.999990488837321e+00	 1.428601984435185e+00	 1.039507755885051e+01
0	 3.999990488837320e+00	 1.571453213328422e+00	 1.039085296875946e+01
0	 3.999990488837320e+00	 1.714304292230859e+00	 1.038427911928881e+01
0	 3.999990488837320e+00	 1.857155237808251e+00	 1.037563108645609e+01
0	 3.999990488837320e+00	 2.000006066726355e+00	 1.036518394851667e+01
0	 3.999990488837319e+00	 2.142856795650925e+00	 1.035321278596388e+01
0	 3.999990488837319e+00	 2.285707441247717e+00	 1.033999268152895e+01
0	 3.999990488837319e+00	 2.428558020182487e+00	 1.032579872018111e+01
0	 3.999990488837320e+00	 2.571408549120991e+00	 1.031090598912751e+01
0	 3.999990488837320e+00	 2.714259044728984e+00	 1.029558957781333e+01
0	 3.999990488837320e+00	 2.857109523672222e+00	 1.028012457792169e+01
0	 4.142849759482075e+00	 1.428601984435185e+00	 1.037185369533308e+01
0	 4.142849759482074e+00	 1.571453213328422e+00	 1.035489614087010e+01
0	 4.142849759482074e+00	 1.714304292230859e+00	 1.033838163677144e+01
0	 4.142849759482075e+00	 1.857155237808251e+00	 1.032256854201787e+01
0	 4.142849759482075e+00	 2.000006066726355e+00	 1.030771521568688e+01
0	 4.142849759482074e+00	 2.142856795650925e+00	 1.029408001695263e+01
0	 4.142849759482075e+00	 2.285707441247718e+00	 1.028192130508597e+01
0	 4.142849759482075e+00	 2.428558020182488e+00	 1.027149743945446e+01
0	 4.142849759482074e+00	 2.571408549120992e+00	 1.026306677952238e+01
0	 4.142849759482075e+00	 2.714259044728986e+00	 1.025688768485067e+01
0	 4.142849759482075e+00	 2.857109523672223e+00	 1.025321851509699e+01
0	 4.285708730125926e+00	 1.428601984435185e+00	 1.034263953906827e+01
0	 4.285708730125925e+00	 1.571453213328422e+00	 1.031688103098456e+01
0	 4.285708730125926e+00	 1.714304292230859e+00	 1.029390296947659e+01
0	 4.285708730125926e+00	 1.857155237808252e+00	 1.027389143565150e+01
0	 4.285708730125926e+00	 2.000006066726355e+00	 1.025703250905079e+01
0	 4.285708730125927e+00	 2.142856795650926e+00	 1.024351226765038e+01
0	 4.285708730125925e+00	 2.285707441247717e+00	 1.023351678786051e+01
0	 4.285708730125926e+00	 2.428558020182488e+00	 1.022723214452583e+01
0	 4.285708730125926e+00	 2.571408549120993e+00	 1.022484441092531e+01
0	 4.285708730125926e+00	 2.714259044728984e+00	 1.022653965877230e+01
0	 4.285708730125926e+00	 2.857109523672222e+00	 1.023250395821444e+01
0	 2.857109523672222e+00	 2.857109523672222e+00	 1.038900726847161e+01
0	 2.857109523672222e+00	 2.999969994316576e+00	 1.031419031114610e+01
0	 2.857109523672223e+00	 3.142830431628385e+00	 1.024702632006408e+01
0	 2.857109523672222e+00	 3.285690802274106e+00	 1.018788683475000e+01
0	 2.857109523672222e+00	 3.428551072920193e+00	 1.013714340924277e+01
0	 2.857109523672223e+00	 3.571411210233103e+00	 1.009516761209569e+01
0	 2.857109523672222e+00	 3.714271180879290e+00	 1.006233102637646e+01
0	 2.857109523672222e+00	 3.857130951525211e+00	 1.003900524966728e+01
0	 2.857109523672222e+00	 3.999990488837320e+00	 1.002556189406495e+01
0	 2.857109523672223e+00	 4.142849759482074e+00	 1.002237258618105e+01
0	 2.857109523672222e+00	 4.285708730125926e+00	 1.002980896714215e+01
0	 2.999969994316576e+00	 2.857109523672223e+00	 1.041134710375790e+01
0	 2.999969994316576e+00	 2.999969994316576e+00	 1.033072029269821e+01
0	 2.999969994316576e+00	 3.142830431628386e+00	 1.025958702620739e+01
0	 2.999969994316577e+00	 3.285690802274106e+00	 1.019806890496694e+01
0	 2.999969994316577e+00	 3.428551072920193e+00	 1.014628754465083e+01
0	 2.999969994316576e+00	 3.571411210233103e+00	 1.010436457592538e+01
0	 2.999969994316576e+00	 3.714271180879289e+00	 1.007242164444934e+01
0	 2.999969994316577e+00	 3.857130951525210e+00	 1.005058041087397e+01
0	 2.999969994316577e+00	 3.999990488837320e+00	 1.003896255084307e+01
0	 2.999969994316575e+00	 4.142849759482073e+00	 1.003768975499329e+01
0	 2.999969994316576e+00	 4.285708730125926e+00	 1.004688372895428e+01
0	 3.142830431628385e+00	 2.857109523672222e+00	 1.041792781801597e+01
0	 3.142830431628385e+00	 2.999969994316576e+00	 1.033743329389922e+01
0	 3.142830431628386e+00	 3.142830431628385e+00	 1.026723302947162e+01
0	 3.142830431628385e+00	 3.285690802274106e+00	 1.020724017526161e+01
0	 3.142830431628385e+00	 3.428551072920193e+00	 1.015736789613329e+01
0	 3.142830431628385e+00	 3.571411210233102e+00	 1.011752937128641e+01
0	 3.142830431628385e+00	 3.714271180879290e+00	 1.008763779425634e+01
0	 3.142830431628385e+00	 3.857130951525210e+00	 1.006760637291422e+01
0	 3.142830431628386e+00	 3.999990488837320e+00	 1.005734832946698e+01
0	 3.142830431628385e+00	 4.142849759482072e+00	 1.005677690045757e+01
0	 3.142830431628385e+00	 4.285708730125926e+00	 1.006580533676518e+01
0	 3.285690802274106e+00	 2.857109523672222e+00	 1.041149322926045e+01
0	 3.285690802274106e+00	 2.999969994316576e+00	 1.033601320915083e+01
0	 3.285690802274106e+00	 3.142830431628386e+00	 1.027074512197844e+01
0	 3.285690802274105e+00	 3.285690802274105e+00	 1.021543515623867e+01
0	 3.285690802274106e+00	 3.428551072920194e+00	 1.016982951319057e+01
0	 3.285690802274106e+00	 3.571411210233103e+00	 1.013367440685686e+01
0	 3.285690802274104e+00	 3.714271180879289e+00	 1.010671606402396e+01
0	 3.285690802274106e+00	 3.857130951525210e+00	 1.008870072424204e+01
0	 3.285690802274106e+00	 3.999990488837320e+00	 1.007937463982504e+01
0	 3.285690802274106e+00	 4.142849759482074e+00	 1.007848407585098e+01
0	 3.285690802274106e+00	 4.285708730125926e+00	 1.008577531016198e+01
0	 3.428551072920193e+00	 2.857109523672222e+00	 1.039478715846499e+01
0	 3.428551072920192e+00	 2.999969994316576e+00	 1.032814393622401e+01
0	 3.428551072920193e+00	 3.142830431628385e+00	 1.027090409930808e+01
0	 3.428551072920194e+00	 3.285690802274106e+00	 1.022268836178769e+01
0	 3.428551072920193e+00	 3.428551072920192e+00	 1.018311744822941e+01
0	 3.428551072920194e+00	 3.571411210233104e+00	 1.015181209369586e+01
0	 3.428551072920192e+00	 3.714271180879289e+00	 1.012839304374570e+01
0	 3.428551072920194e+00	 3.857130951525211e+00	 1.011248105443369e+01
0	 3.428551072920193e+00	 3.999990488837320e+00	 1.010369689231075e+01
0	 3.428551072920193e+00	 4.142849759482074e+00	 1.010166133442402e+01
0	 3.428551072920193e+00	 4.285708730125926e+00	 1.010599516831716e+01
0	 3.571411210233103e+00	 2.857109523672223e+00	 1.037055342956220e+01
0	 3.571411210233102e+00	 2.999969994316576e+00	 1.031550937625907e+01
0	 3.571411210233103e+00	 3.142830431628385e+00	 1.026849076049931e+01
0	 3.571411210233103e+00	 3.285690802274106e+00	 1.022903430908308e+01
0	 3.571411210233103e+00	 3.428551072920193e+00	 1.019667675656289e+01
0	 3.571411210233104e+00	 3.571411210233103e+00	 1.017095484524351e+01
0	 3.571411210233103e+00	 3.714271180879290e+00	 1.015140532518203e+01
0	 3.571411210233101e+00	 3.857130951525210e+00	 1.013756495418783e+01
0	 3.571411210233103e+00	 3.999990488837321e+00	 1.012897049782265e+01
0	 3.571411210233102e+00	 4.142849759482074e+00	 1.012515872940068e+01
0	 3.571411210233103e+00	 4.285708730125926e+00	 1.012566642998861e+01
0	 3.714271180879290e+00	 2.857109523672222e+00	 1.034153586944371e+01
0	 3.714271180879289e+00	 2.999969994316576e+00	 1.029979343376557e+01
0	 3.714271180879290e+00	 3.142830431628385e+00	 1.026428590804950e+01
0	 3.714271180879288e+00	 3.285690802274104e+00	 1.023450751858423e+01
0	 3.714271180879289e+00	 3.428551072920193e+00	 1.020995249641049e+01
0	 3.714271180879290e+00	 3.571411210233103e+00	 1.019011507732099e+01
0	 3.714271180879290e+00	 3.714271180879290e+00	 1.017448950186043e+01
0	 3.714271180879290e+00	 3.857130951525211e+00	 1.016257001532540e+01
0	 3.714271180879289e+00	 3.999990488837319e+00	 1.015385086776448e+01
0	 3.714271180879289e+00	 4.142849759482075e+00	 1.014782631397832e+01
0	 3.714271180879289e+00	 4.285708730125926e+00	 1.014399061351953e+01
0	 3.857130951525211e+00	 2.857109523672221e+00	 1.031047830796026e+01
0	 3.857130951525211e+00	 2.999969994316577e+00	 1.028268001662249e+01
0	 3.857130951525210e+00	 3.142830431628385e+00	 1.025907034791465e+01
0	 3.857130951525210e+00	 3.285690802274106e+00	 1.023914251403539e+01
0	 3.857130951525210e+00	 3.428551072920193e+00	 1.022238972889804e+01
0	 3.857130951525210e+00	 3.571411210233102e+00	 1.020830520813053e+01
0	 3.857130951525211e+00	 3.714271180879290e+00	 1.019638216907536e+01
0	 3.857130951525210e+00	 3.857130951525210e+00	 1.018611383078966e+01
0	 3.857130951525209e+00	 3.999990488837319e+00	 1.017699341404507e+01
0	 3.857130951525210e+00	 4.142849759482075e+00	 1.016851414132778e+01
0	 3.857130951525211e+00	 4.285708730125926e+00	 1.016016923683854e+01
0	 3.999990488837320e+00	 2.857109523672222e+00	 1.028012457792169e+01
0	 3.999990488837319e+00	 2.999969994316575e+00	 1.026585303607819e+01
0	 3.999990488837319e+00	 3.142830431628385e+00	 1.025362488950943e+01
0	 3.999990488837320e+00	 3.285690802274106e+00	 1.024297382246588e+01
0	 3.999990488837320e+00	 3.428551072920193e+00	 1.023343351805785e+01
0	 3.999990488837320e+00	 3.571411210233103e+00	 1.022453765825540e+01
0	 3.999990488837319e+00	 3.714271180879289e+00	 1.021581992388838e+01
0	 3.999990488837321e+00	 3.857130951525211e+00	 1.020681399464631e+01
0	 3.999990488837320e+00	 3.999990488837320e+00	 1.019705354907836e+01
0	 3.999990488837320e+00	 4.142849759482075e+00	 1.018607226459332e+01
0	 3.999990488837320e+00	 4.285708730125926e+00	 1.017340381745957e+01
0	 4.142849759482075e+00	 2.857109523672223e+00	 1.025321851509699e+01
0	 4.142849759482072e+00	 2.999969994316575e+00	 1.025099640675053e+01
0	 4.142849759482074e+00	 3.142830431628385e+00	 1.024873034570726e+01
0	 4.142849759482075e+00	 3.285690802274106e+00	 1.024603597419002e+01
0	 4.142849759482075e+00	 3.428551072920193e+00	 1.024252893082867e+01
0	 4.142849759482074e+00	 3.571411210233103e+00	 1.023782485066008e+01
0	 4.142849759482075e+00	 3.714271180879290e+00	 1.023153936512806e+01
0	 4.142849759482075e+00	 3.857130951525210e+00	 1.022328810208333e+01
0	 4.142849759482075e+00	 3.999990488837320e+00	 1.021268668578343e+01
0	 4.142849759482075e+00	 4.142849759482075e+00	 1.019935073689265e+01
0	 4.142849759482073e+00	 4.285708730125925e+00	 1.018289587248193e+01
0	 4.285708730125926e+00	 2.857109523672222e+00	 1.023250395821444e+01
0	 4.285708730125926e+00	 2.999969994316576e+00	 1.023979404662691e+01
0	 4.285708730125926e+00	 3.142830431628385e+00	 1.024516753284038e+01
0	 4.285708730125926e+00	 3.285690802274106e+00	 1.024836350280727e+01
0	 4.285708730125926e+00	 3.428551072920192e+00	 1.024912103705584e+01
0	 4.285708730125926e+00	 3.571411210233102e+00	 1.024717921069016e+01
0	 4.285708730125926e+00	 3.714271180879290e+00	 1.024227709339008e+01
0	 4.285708730125926e+00	 3.857130951525210e+00	 1.023415374941116e+01
0	 4.285708730125926e+00	 3.999990488837321e+00	 1.022254823758453e+01
0	 4.285708730125926e+00	 4.142849759482074e+00	 1.020719961131687e+01
0	 4.285708730125926e+00	 4.285708730125926e+00	 1.018784691859025e+01
0	 2.857109523672222e+00	 4.285708730125926e+00	 1.002980896714215e+01
0	 2.857109523672222e+00	 4.428567384102073e+00	 1.004160007627596e+01
0	 2.857109523672223e+00	 4.571425771410668e+00	 1.005114123070313e+01
0	 2.857109523672222e+00	 4.714283958718593e+00	 1.005830350490208e+01
0	 2.857109523672223e+00	 4.857142012692742e+00	 1.006295798105281e+01
0	 2.857109523672222e+00	 5.000000000000001e+00	 1.006497574903690e+01
0	 2.857109523672222e+00	 5.142857987307261e+00	 1.006422790643758e+01
0	 2.857109523672222e+00	 5.285716041281408e+00	 1.006058555853976e+01
0	 2.857109523672222e+00	 5.428574228589336e+00	 1.005391981832981e+01
0	 2.857109523672222e+00	 5.571432615897928e+00	 1.004410180649559e+01
0	 2.857109523672222e+00	 5.714291269874074e+00	 1.003100265142617e+01
0	 2.999969994316576e+00	 4.285708730125926e+00	 1.004688372895428e+01
0	 2.999969994316576e+00	 4.428567384102075e+00	 1.005987202040072e+01
0	 2.999969994316576e+00	 4.571425771410667e+00	 1.006989419346644e+01
0	 2.999969994316576e+00	 4.714283958718593e+00	 1.007693999566836e+01
0	 2.999969994316576e+00	 4.857142012692742e+00	 1.008099918246161e+01
0	 2.999969994316576e+00	 5.000000000000002e+00	 1.008206151723968e+01
0	 2.999969994316576e+00	 5.142857987307261e+00	 1.008011677133446e+01
0	 2.999969994316576e+00	 5.285716041281409e+00	 1.007515472401617e+01
0	 2.999969994316576e+00	 5.428574228589337e+00	 1.006716516249334e+01
0	 2.999969994316576e+00	 5.571432615897927e+00	 1.005613788191263e+01
0	 2.999969994316576e+00	 5.714291269874074e+00	 1.004206268535867e+01
0	 3.142830431628385e+00	 4.285708730125926e+00	 1.006580533676518e+01
0	 3.142830431628385e+00	 4.428567384102073e+00	 1.007793969203467e+01
0	 3.142830431628384e+00	 4.571425771410667e+00	 1.008680116010409e+01
0	 3.142830431628386e+00	 4.714283958718592e+00	 1.009247571842161e+01
0	 3.142830431628385e+00	 4.857142012692742e+00	 1.009504935180459e+01
0	 3.142830431628386e+00	 5.000000000000002e+00	 1.009460805243967e+01
0	 3.142830431628385e+00	 5.142857987307261e+00	 1.009123781988285e+01
0	 3.142830431628386e+00	 5.285716041281408e+00	 1.008502466105940e+01
0	 3.142830431628385e+00	 5.428574228589335e+00	 1.007605459026383e+01
0	 3.142830431628386e+00	 5.571432615897928e+00	 1.006441362915975e+01
0	 3.142830431628385e+00	 5.714291269874074e+00	 1.005018780677968e+01
0	 3.285690802274106e+00	 4.285708730125926e+00	 1.008577531016198e+01
0	 3.285690802274106e+00	 4.428567384102074e+00	 1.009540450727740e+01
0	 3.285690802274105e+00	 4.571425771410666e+00	 1.010180347938936e+01
0	 3.285690802274106e+00	 4.714283958718593e+00	 1.010513199004411e+01
0	 3.285690802274105e+00	 4.857142012692742e+00	 1.010554980895021e+01
0	 3.285690802274106e+00	 5.000000000000000e+00	 1.010321671197863e+01
0	 3.285690802274106e+00	 5.142857987307260e+00	 1.009829248116268e+01
0	 3.285690802274107e+00	 5.285716041281410e+00	 1.009093690469805e+01
0	 3.285690802274106e+00	 5.428574228589335e+00	 1.008130977694270e+01
0	 3.285690802274106e+00	 5.571432615897930e+00	 1.006957089841675e+01
0	 3.285690802274106e+00	 5.714291269874074e+00	 1.005588007580230e+01
0	 3.428551072920193e+00	 4.285708730125926e+00	 1.010599516831716e+01
0	 3.428551072920194e+00	 4.428567384102075e+00	 1.011186788161259e+01
0	 3.428551072920194e+00	 4.571425771410667e+00	 1.011484249944856e+01
0	 3.428551072920191e+00	 4.714283958718593e+00	 1.011513012687893e+01
0	 3.428551072920193e+00	 4.857142012692742e+00	 1.011294187344301e+01
0	 3.428551072920193e+00	 5.000000000000001e+00	 1.010848885316562e+01
0	 3.428551072920192e+00	 5.142857987307259e+00	 1.010198218455699e+01
0	 3.428551072920193e+00	 5.285716041281409e+00	 1.009363299061280e+01
0	 3.428551072920194e+00	 5.428574228589336e+00	 1.008365239881406e+01
0	 3.428551072920193e+00	 5.571432615897928e+00	 1.007225154112702e+01
0	 3.428551072920193e+00	 5.714291269874074e+00	 1.005964155400299e+01
0	 3.571411210233103e+00	 4.285708730125926e+00	 1.012566642998861e+01
0	 3.571411210233102e+00	 4.428567384102075e+00	 1.012693122990799e+01
0	 3.571411210233102e+00	 4.571425771410667e+00	 1.012585956776109e+01
0	 3.571411210233101e+00	 4.714283958718593e+00	 1.012269144473007e+01
0	 3.571411210233102e+00	 4.857142012692742e+00	 1.011766686450366e+01
0	 3.571411210233104e+00	 5.000000000000002e+00	 1.011102583327705e+01
0	 3.571411210233102e+00	 5.142857987307260e+00	 1.010300835975190e+01
0	 3.571411210233101e+00	 5.285716041281408e+00	 1.009385445513632e+01
0	 3.571411210233103e+00	 5.428574228589335e+00	 1.008380413314466e+01
0	 3.571411210233102e+00	 5.571432615897927e+00	 1.007309740999753e+01
0	 3.571411210233102e+00	 5.714291269874074e+00	 1.006197430442165e+01
0	 3.714271180879289e+00	 4.285708730125926e+00	 1.014399061351953e+01
0	 3.714271180879290e+00	 4.428567384102074e+00	 1.014019596641542e+01
0	 3.714271180879290e+00	 4.571425771410668e+00	 1.013479603115937e+01
0	 3.714271180879290e+00	 4.714283958718593e+00	 1.012803725886237e+01
0	 3.714271180879290e+00	 4.857142012692742e+00	 1.012016610102886e+01
0	 3.714271180879290e+00	 5.000000000000003e+00	 1.011142900955660e+01
0	 3.714271180879289e+00	 5.142857987307260e+00	 1.010207243673666e+01
0	 3.714271180879290e+00	 5.285716041281409e+00	 1.009234283525331e+01
0	 3.714271180879289e+00	 5.428574228589335e+00	 1.008248665818392e+01
0	 3.714271180879290e+00	 5.571432615897928e+00	 1.007275035899888e+01
0	 3.714271180879289e+00	 5.714291269874075e+00	 1.006338039156157e+01
0	 3.857130951525211e+00	 4.285708730125926e+00	 1.016016923683854e+01
0	 3.857130951525210e+00	 4.428567384102076e+00	 1.015126350477077e+01
0	 3.857130951525209e+00	 4.571425771410667e+00	 1.014159323582887e+01
0	 3.857130951525211e+00	 4.714283958718594e+00	 1.013138888400151e+01
0	 3.857130951525210e+00	 4.857142012692740e+00	 1.012088090159142e+01
0	 3.857130951525210e+00	 5.000000000000001e+00	 1.011029973921529e+01
0	 3.857130951525210e+00	 5.142857987307262e+00	 1.009987584580359e+01
0	 3.857130951525211e+00	 5.285716041281410e+00	 1.008983966860052e+01
0	 3.857130951525210e+00	 5.428574228589335e+00	 1.008042165316395e+01
0	 3.857130951525211e+00	 5.571432615897929e+00	 1.007185224336529e+01
0	 3.857130951525210e+00	 5.714291269874074e+00	 1.006436188138947e+01
0	 3.999990488837320e+00	 4.285708730125926e+00	 1.017340381745957e+01
0	 3.999990488837320e+00	 4.428567384102074e+00	 1.015973525799399e+01
0	 3.999990488837321e+00	 4.571425771410668e+00	 1.014619252730807e+01
0	 3.999990488837320e+00	 4.714283958718593e+00	 1.013296763433400e+01
0	 3.999990488837320e+00	 4.857142012692742e+00	 1.012025258444024e+01
0	 3.999990488837321e+00	 5.000000000000001e+00	 1.010823937943142e+01
0	 3.999990488837319e+00	 5.142857987307260e+00	 1.009712001754808e+01
0	 3.999990488837319e+00	 5.285716041281409e+00	 1.008708649346671e+01
0	 3.999990488837320e+00	 5.428574228589336e+00	 1.007833079829955e+01
0	 3.999990488837319e+00	 5.571432615897927e+00	 1.007104491959458e+01
0	 3.999990488837321e+00	 5.714291269874074e+00	 1.006542084133548e+01
0	 4.142849759482073e+00	 4.285708730125925e+00	 1.018289587248193e+01
0	 4.142849759482074e+00	 4.428567384102074e+00	 1.016521263848907e+01
0	 4.142849759482074e+00	 4.571425771410667e+00	 1.014853525048849e+01
0	 4.142849759482075e+00	 4.714283958718593e+00	 1.013299482350722e+01
0	 4.142849759482075e+00	 4.857142012692742e+00	 1.011872246750030e+01
0	 4.142849759482074e+00	 5.000000000000000e+00	 1.010584928735060e+01
0	 4.142849759482075e+00	 5.142857987307260e+00	 1.009450638286869e+01
0	 4.142849759482074e+00	 5.285716041281408e+00	 1.008482484879270e+01
0	 4.142849759482074e+00	 5.428574228589335e+00	 1.007693577478820e+01
0	 4.142849759482074e+00	 5.571432615897927e+00	 1.007097024544823e+01
0	 4.142849759482075e+00	 5.714291269874074e+00	 1.006705934029318e+01
0	 4.285708730125926e+00	 4.285708730125926e+00	 1.018784691859025e+01
0	 4.285708730125926e+00	 4.428567384102075e+00	 1.016729705804401e+01
0	 4.285708730125926e+00	 4.571425771410667e+00	 1.014856274961462e+01
0	 4.285708730125926e+00	 4.714283958718593e+00	 1.013169176462934e+01
0	 4.285708730125926e+00	 4.857142012692742e+00	 1.011673186837258e+01
0	 4.285708730125926e+00	 5.000000000000001e+00	 1.010373082008574e+01
0	 4.285708730125926e+00	 5.142857987307262e+00	 1.009273637296703e+01
0	 4.285708730125926e+00	 5.285716041281411e+00	 1.008379627417133e+01
0	 4.285708730125925e+00	 5.428574228589334e+00	 1.007695826481011e+01
0	 4.285708730125926e+00	 5.571432615897929e+00	 1.007227007995136e+01
0	 4.285708730125925e+00	 5.714291269874074e+00	 1.006977944861965e+01
0	 2.857109523672222e+00	 5.714291269874074e+00	 1.003100265142617e+01
0	 2.857109523672222e+00	 5.857150240517928e+00	 1.001713484800311e+01
0	 2.857109523672222e+00	 6.000009511162682e+00	 1.000513224564004e+01
0	 2.857109523672222e+00	 6.142869048474791e+00	 9.995048012895273e+00
0	 2.857109523672222e+00	 6.285728819120712e+00	 9.986935321787403e+00
0	 2.857109523672222e+00	 6.428588789766900e+00	 9.980847347795281e+00
0	 2.857109523672222e+00	 6.571448927079808e+00	 9.976837269857922e+00
0	 2.857109523672222e+00	 6.714309197725895e+00	 9.974958270374444e+00
0	 2.857109523672222e+00	 6.857169568371616e+00	 9.975263535203991e+00
0	 2.857109523672222e+00	 7.000030005683426e+00	 9.977806253665767e+00
0	 2.857109523672222e+00	 7.142890476327777e+00	 9.982639618538922e+00
0	 2.999969994316576e+00	 5.714291269874074e+00	 1.004206268535867e+01
0	 2.999969994316576e+00	 5.857150240517929e+00	 1.002749524950691e+01
0	 2.999969994316576e+00	 6.000009511162682e+00	 1.001499317651488e+01
0	 2.999969994316577e+00	 6.142869048474792e+00	 1.000454916605437e+01
0	 2.999969994316576e+00	 6.285728819120711e+00	 9.996155921011328e+00
0	 2.999969994316576e+00	 6.428588789766899e+00	 9.989806147485824e+00
0	 2.999969994316577e+00	 6.571448927079809e+00	 9.985492554791911e+00
0	 2.999969994316576e+00	 6.714309197725897e+00	 9.983207855457653e+00
0	 2.999969994316576e+00	 6.857169568371617e+00	 9.982944765224989e+00
0	 2.999969994316576e+00	 7.000030005683427e+00	 9.984696003049738e+00
0	 2.999969994316576e+00	 7.142890476327779e+00	 9.988454291101595e+00
0	 3.142830431628385e+00	 5.714291269874074e+00	 1.005018780677968e+01
0	 3.142830431628385e+00	 5.857150240517927e+00	 1.003577639044799e+01
0	 3.142830431628385e+00	 6.000009511162681e+00	 1.002348395756479e+01
0	 3.142830431628385e+00	 6.142869048474791e+00	 1.001325450994702e+01
0	 3.142830431628385e+00	 6.285728819120711e+00	 1.000503205227061e+01
0	 3.142830431628386e+00	 6.428588789766899e+00	 9.998760592070338e+00
0	 3.142830431628385e+00	 6.571448927079808e+00	 9.994384139739804e+00
0	 3.142830431628385e+00	 6.714309197725898e+00	 9.991846708531337e+00
0	 3.142830431628385e+00	 6.857169568371616e+00	 9.991092314555996e+00
0	 3.142830431628385e+00	 7.000030005683426e+00	 9.992064976783485e+00
0	 3.142830431628385e+00	 7.142890476327778e+00	 9.994708717042171e+00
0	 3.285690802274106e+00	 5.714291269874074e+00	 1.005588007580230e+01
0	 3.285690802274106e+00	 5.857150240517927e+00	 1.004232061684760e+01
0	 3.285690802274105e+00	 6.000009511162682e+00	 1.003080733705693e+01
0	 3.285690802274106e+00	 6.142869048474791e+00	 1.002124731118501e+01
0	 3.285690802274105e+00	 6.285728819120711e+00	 1.001354761640930e+01
0	 3.285690802274106e+00	 6.428588789766898e+00	 1.000761533233003e+01
0	 3.285690802274105e+00	 6.571448927079808e+00	 1.000335754097010e+01
0	 3.285690802274106e+00	 6.714309197725895e+00	 1.000068132677504e+01
0	 3.285690802274106e+00	 6.857169568371618e+00	 9.999493776613004e+00
0	 3.285690802274106e+00	 7.000030005683427e+00	 9.999701979774642e+00
0	 3.285690802274106e+00	 7.142890476327779e+00	 1.000121302797317e+01
0	 3.428551072920193e+00	 5.714291269874074e+00	 1.005964155400299e+01
0	 3.428551072920193e+00	 5.857150240517929e+00	 1.004747027628561e+01
0	 3.428551072920193e+00	 6.000009511162683e+00	 1.003716606481635e+01
0	 3.428551072920192e+00	 6.142869048474789e+00	 1.002861083785748e+01
0	 3.428551072920193e+00	 6.285728819120712e+00	 1.002168651560519e+01
0	 3.428551072920193e+00	 6.428588789766898e+00	 1.001627502018955e+01
0	 3.428551072920193e+00	 6.571448927079810e+00	 1.001225827567439e+01
0	 3.428551072920193e+00	 6.714309197725896e+00	 1.000951820805731e+01
0	 3.428551072920193e+00	 6.857169568371617e+00	 1.000793674526967e+01
0	 3.428551072920193e+00	 7.000030005683425e+00	 1.000739581717649e+01
0	 3.428551072920194e+00	 7.142890476327778e+00	 1.000777735557648e+01
0	 3.571411210233102e+00	 5.714291269874074e+00	 1.006197430442165e+01
0	 3.571411210233102e+00	 5.857150240517928e+00	 1.005156771790055e+01
0	 3.571411210233104e+00	 6.000009511162683e+00	 1.004276289222575e+01
0	 3.571411210233102e+00	 6.142869048474791e+00	 1.003542835953084e+01
0	 3.571411210233103e+00	 6.285728819120713e+00	 1.002943265336983e+01
0	 3.571411210233103e+00	 6.428588789766900e+00	 1.002464430871709e+01
0	 3.571411210233103e+00	 6.571448927079809e+00	 1.002093186196737e+01
0	 3.571411210233102e+00	 6.714309197725896e+00	 1.001816385093569e+01
0	 3.571411210233102e+00	 6.857169568371615e+00	 1.001620881485739e+01
0	 3.571411210233103e+00	 7.000030005683426e+00	 1.001493529438800e+01
0	 3.571411210233103e+00	 7.142890476327778e+00	 1.001421183160333e+01
0	 3.714271180879289e+00	 5.714291269874075e+00	 1.006338039156157e+01
0	 3.714271180879290e+00	 5.857150240517928e+00	 1.005495529238955e+01
0	 3.714271180879290e+00	 6.000009511162684e+00	 1.004780057222569e+01
0	 3.714271180879289e+00	 6.142869048474791e+00	 1.004178314724885e+01
0	 3.714271180879289e+00	 6.285728819120712e+00	 1.003676993454845e+01
0	 3.714271180879290e+00	 6.428588789766899e+00	 1.003262785212433e+01
0	 3.714271180879289e+00	 6.571448927079808e+00	 1.002922381888684e+01
0	 3.714271180879290e+00	 6.714309197725897e+00	 1.002642475465675e+01
0	 3.714271180879290e+00	 6.857169568371616e+00	 1.002409758016520e+01
0	 3.714271180879291e+00	 7.000030005683426e+00	 1.002210921705375e+01
0	 3.714271180879291e+00	 7.142890476327779e+00	 1.002032658787429e+01
0	 3.857130951525210e+00	 5.714291269874074e+00	 1.006436188138947e+01
0	 3.857130951525211e+00	 5.857150240517927e+00	 1.005797535200841e+01
0	 3.857130951525210e+00	 6.000009511162681e+00	 1.005248185931448e+01
0	 3.857130951525210e+00	 6.142869048474790e+00	 1.004775847353260e+01
0	 3.857130951525210e+00	 6.285728819120711e+00	 1.004368226532004e+01
0	 3.857130951525210e+00	 6.428588789766899e+00	 1.004013030576644e+01
0	 3.857130951525210e+00	 6.571448927079809e+00	 1.003697966639369e+01
0	 3.857130951525211e+00	 6.714309197725898e+00	 1.003410741915601e+01
0	 3.857130951525210e+00	 6.857169568371615e+00	 1.003139063643987e+01
0	 3.857130951525210e+00	 7.000030005683426e+00	 1.002870639106396e+01
0	 3.857130951525211e+00	 7.142890476327778e+00	 1.002593175627928e+01
0	 3.999990488837321e+00	 5.714291269874074e+00	 1.006542084133548e+01
0	 3.999990488837320e+00	 5.857150240517927e+00	 1.006097025057158e+01
0	 3.999990488837320e+00	 6.000009511162682e+00	 1.005700950954824e+01
0	 3.999990488837320e+00	 6.142869048474791e+00	 1.005343761238048e+01
0	 3.999990488837320e+00	 6.285728819120711e+00	 1.005015355319739e+01
0	 3.999990488837319e+00	 6.428588789766900e+00	 1.004705632614213e+01
0	 3.999990488837319e+00	 6.571448927079809e+00	 1.004404492537193e+01
0	 3.999990488837320e+00	 6.714309197725894e+00	 1.004101834505807e+01
0	 3.999990488837320e+00	 6.857169568371616e+00	 1.003787557938585e+01
0	 3.999990488837320e+00	 7.000030005683426e+00	 1.003451562255457e+01
0	 3.999990488837320e+00	 7.142890476327778e+00	 1.003083746877756e+01
0	 4.142849759482075e+00	 5.714291269874074e+00	 1.006705934029318e+01
0	 4.142849759482075e+00	 5.857150240517927e+00	 1.006428234345216e+01
0	 4.142849759482075e+00	 6.000009511162682e+00	 1.006158628054091e+01
0	 4.142849759482075e+00	 6.142869048474791e+00	 1.005890383926828e+01
0	 4.142849759482075e+00	 6.285728819120713e+00	 1.005616770702698e+01
0	 4.142849759482075e+00	 6.428588789766899e+00	 1.005331057089361e+01
0	 4.142849759482074e+00	 6.571448927079809e+00	 1.005026511762867e+01
0	 4.142849759482075e+00	 6.714309197725896e+00	 1.004696403367650e+01
0	 4.142849759482073e+00	 6.857169568371615e+00	 1.004334000516528e+01
0	 4.142849759482074e+00	 7.000030005683427e+00	 1.003932571790707e+01
0	 4.142849759482075e+00	 7.142890476327779e+00	 1.003485385739772e+01
0	 4.285708730125925e+00	 5.714291269874074e+00	 1.006977944861965e+01
0	 4.285708730125926e+00	 5.857150240517928e+00	 1.006825398758200e+01
0	 4.285708730125926e+00	 6.000009511162682e+00	 1.006641493146428e+01
0	 4.285708730125926e+00	 6.142869048474793e+00	 1.006424043114914e+01
0	 4.285708730125926e+00	 6.285728819120710e+00	 1.006170863698910e+01
0	 4.285708730125925e+00	 6.428588789766899e+00	 1.005879769880665e+01
0	 4.285708730125926e+00	 6.571448927079809e+00	 1.005548576589416e+01
0	 4.285708730125926e+00	 6.714309197725895e+00	 1.005175098701389e+01
0	 4.285708730125926e+00	 6.857169568371619e+00	 1.004757151039803e+01
0	 4.285708730125926e+00	 7.000030005683427e+00	 1.004292548374864e+01
0	 4.285708730125926e+00	 7.142890476327779e+00	 1.003779105423767e+01
0	 2.857109523672222e+00	 7.142890476327777e+00	 9.982639618538922e+00
0	 2.857109523672222e+00	 7.285740955271015e+00	 9.988129946984358e+00
0	 2.857109523672222e+00	 7.428591450879006e+00	 9.992641814847158e+00
0	 2.857109523672222e+00	 7.571441979817511e+00	 9.996224546777388e+00
0	 2.857109523672222e+00	 7.714292558752279e+00	 9.998927468055230e+00
0	 2.857109523672223e+00	 7.857143204349073e+00	 1.000079990459099e+01
0	 2.857109523672223e+00	 7.999993933273644e+00	 1.000189118292514e+01
0	 2.857109523672222e+00	 8.142844762191746e+00	 1.000225063022822e+01
0	 2.857109523672222e+00	 8.285695707769142e+00	 1.000192757430091e+01
0	 2.857109523672222e+00	 8.428546786671577e+00	 1.000097134357402e+01
0	 2.857109523672222e+00	 8.571398015564816e+00	 9.999431267108442e+00
0	 2.999969994316576e+00	 7.142890476327779e+00	 9.988454291101595e+00
0	 2.999969994316575e+00	 7.285740955271011e+00	 9.992766458342375e+00
0	 2.999969994316576e+00	 7.428591450879006e+00	 9.996227223721050e+00
0	 2.999969994316575e+00	 7.571441979817511e+00	 9.998900147671934e+00
0	 2.999969994316576e+00	 7.714292558752281e+00	 1.000084879106275e+01
0	 2.999969994316576e+00	 7.857143204349073e+00	 1.000213671519460e+01
0	 2.999969994316577e+00	 7.999993933273647e+00	 1.000282748180198e+01
0	 2.999969994316576e+00	 8.142844762191746e+00	 1.000298465305280e+01
0	 2.999969994316576e+00	 8.285695707769140e+00	 1.000267179154834e+01
0	 2.999969994316576e+00	 8.428546786671577e+00	 1.000195246032327e+01
0	 2.999969994316576e+00	 8.571398015564817e+00	 1.000089022284564e+01
0	 3.142830431628385e+00	 7.142890476327778e+00	 9.994708717042171e+00
0	 3.142830431628385e+00	 7.285740955271012e+00	 9.997786968066192e+00
0	 3.142830431628385e+00	 7.428591450879007e+00	 1.000014988160516e+01
0	 3.142830431628386e+00	 7.571441979817511e+00	 1.000187083362886e+01
0	 3.142830431628386e+00	 7.714292558752282e+00	 1.000302320036049e+01
0	 3.142830431628386e+00	 7.857143204349076e+00	 1.000368035827659e+01
0	 3.142830431628385e+00	 7.999993933273643e+00	 1.000391568410709e+01
0	 3.142830431628385e+00	 8.142844762191746e+00	 1.000380255483525e+01
0	 3.142830431628385e+00	 8.285695707769140e+00	 1.000341434769777e+01
0	 3.142830431628386e+00	 8.428546786671578e+00	 1.000282444018462e+01
0	 3.142830431628386e+00	 8.571398015564814e+00	 1.000210621003921e+01
0	 3.285690802274106e+00	 7.142890476327779e+00	 1.000121302797317e+01
0	 3.285690802274106e+00	 7.285740955271013e+00	 1.000303215894119e+01
0	 3.285690802274105e+00	 7.428591450879005e+00	 1.000427936058289e+01
0	 3.285690802274105e+00	 7.571441979817509e+00	 1.000503340414777e+01
0	 3.285690802274106e+00	 7.714292558752280e+00	 1.000537306097656e+01
0	 3.285690802274107e+00	 7.857143204349074e+00	 1.000537710250122e+01
0	 3.285690802274106e+00	 7.999993933273643e+00	 1.000512430024490e+01
0	 3.285690802274106e+00	 8.142844762191746e+00	 1.000469342582198e+01
0	 3.285690802274106e+00	 8.285695707769142e+00	 1.000416325093806e+01
0	 3.285690802274106e+00	 8.428546786671577e+00	 1.000361254738995e+01
0	 3.285690802274106e+00	 8.571398015564814e+00	 1.000312008706572e+01
0	 3.428551072920194e+00	 7.142890476327778e+00	 1.000777735557648e+01
0	 3.428551072920193e+00	 7.285740955271015e+00	 1.000834271369430e+01
0	 3.428551072920192e+00	 7.428591450879003e+00	 1.000848523259739e+01
0	 3.428551072920193e+00	 7.571441979817511e+00	 1.000828465854601e+01
0	 3.428551072920192e+00	 7.714292558752280e+00	 1.000782073774845e+01
0	 3.428551072920192e+00	 7.857143204349075e+00	 1.000717321636115e+01
0	 3.428551072920194e+00	 7.999993933273646e+00	 1.000642184048867e+01
0	 3.428551072920194e+00	 8.142844762191752e+00	 1.000564635618362e+01
0	 3.428551072920193e+00	 8.285695707769140e+00	 1.000492650944674e+01
0	 3.428551072920194e+00	 8.428546786671578e+00	 1.000434204622687e+01
0	 3.428551072920193e+00	 8.571398015564817e+00	 1.000397271242097e+01
0	 3.571411210233103e+00	 7.142890476327778e+00	 1.001421183160333e+01
0	 3.571411210233103e+00	 7.285740955271015e+00	 1.001355931499393e+01
0	 3.571411210233103e+00	 7.428591450879006e+00	 1.001263706945147e+01
0	 3.571411210233103e+00	 7.571441979817511e+00	 1.001152139595855e+01
0	 3.571411210233102e+00	 7.714292558752281e+00	 1.001028859532292e+01
0	 3.571411210233103e+00	 7.857143204349074e+00	 1.000901496817750e+01
0	 3.571411210233102e+00	 7.999993933273643e+00	 1.000777681498048e+01
0	 3.571411210233103e+00	 8.142844762191748e+00	 1.000665043601514e+01
0	 3.571411210233103e+00	 8.285695707769140e+00	 1.000571213138999e+01
0	 3.571411210233103e+00	 8.428546786671577e+00	 1.000503820103870e+01
0	 3.571411210233103e+00	 8.571398015564816e+00	 1.000470494472013e+01
0	 3.714271180879291e+00	 7.142890476327779e+00	 1.002032658787429e+01
0	 3.714271180879289e+00	 7.285740955271014e+00	 1.001852264544998e+01
0	 3.714271180879290e+00	 7.428591450879007e+00	 1.001660444280758e+01
0	 3.714271180879291e+00	 7.571441979817512e+00	 1.001464041533806e+01
0	 3.714271180879290e+00	 7.714292558752281e+00	 1.001269899815606e+01
0	 3.714271180879289e+00	 7.857143204349073e+00	 1.001084862609984e+01
0	 3.714271180879289e+00	 7.999993933273643e+00	 1.000915773373124e+01
0	 3.714271180879291e+00	 8.142844762191750e+00	 1.000769475533580e+01
0	 3.714271180879291e+00	 8.285695707769142e+00	 1.000652812492260e+01
0	 3.714271180879290e+00	 8.428546786671582e+00	 1.000572627622442e+01
0	 3.714271180879290e+00	 8.571398015564814e+00	 1.000535764269762e+01
0	 3.857130951525211e+00	 7.142890476327778e+00	 1.002593175627928e+01
0	 3.857130951525211e+00	 7.285740955271013e+00	 1.002307338761385e+01
0	 3.857130951525210e+00	 7.428591450879006e+00	 1.002025692418781e+01
0	 3.857130951525211e+00	 7.571441979817513e+00	 1.001753851545487e+01
0	 3.857130951525211e+00	 7.714292558752282e+00	 1.001497431051333e+01
0	 3.857130951525212e+00	 7.857143204349074e+00	 1.001262045810610e+01
0	 3.857130951525211e+00	 7.999993933273644e+00	 1.001053310662065e+01
0	 3.857130951525211e+00	 8.142844762191748e+00	 1.000876840408907e+01
0	 3.857130951525210e+00	 8.285695707769142e+00	 1.000738249818802e+01
0	 3.857130951525210e+00	 8.428546786671575e+00	 1.000643153623876e+01
0	 3.857130951525211e+00	 8.571398015564816e+00	 1.000597166520716e+01
0	 3.999990488837320e+00	 7.142890476327778e+00	 1.003083746877756e+01
0	 3.999990488837320e+00	 7.285740955271015e+00	 1.002705222397840e+01
0	 3.999990488837320e+00	 7.428591450879008e+00	 1.002346408497394e+01
0	 3.999990488837320e+00	 7.571441979817513e+00	 1.002011249489696e+01
0	 3.999990488837320e+00	 7.714292558752280e+00	 1.001703689646946e+01
0	 3.999990488837320e+00	 7.857143204349073e+00	 1.001427673200271e+01
0	 3.999990488837320e+00	 7.999993933273644e+00	 1.001187144339724e+01
0	 3.999990488837320e+00	 8.142844762191746e+00	 1.000986047214278e+01
0	 3.999990488837320e+00	 8.285695707769142e+00	 1.000828325931833e+01
0	 3.999990488837320e+00	 8.428546786671577e+00	 1.000717924559215e+01
0	 3.999990488837320e+00	 8.571398015564817e+00	 1.000658787122173e+01
0	 4.142849759482075e+00	 7.142890476327779e+00	 1.003485385739772e+01
0	 4.142849759482075e+00	 7.285740955271015e+00	 1.003029983697797e+01
0	 4.142849759482073e+00	 7.428591450879008e+00	 1.002609549640736e+01
0	 4.142849759482075e+00	 7.571441979817511e+00	 1.002225915206993e+01
0	 4.142849759482074e+00	 7.714292558752280e+00	 1.001880911990846e+01
0	 4.142849759482075e+00	 7.857143204349073e+00	 1.001576371542450e+01
0	 4.142849759482074e+00	 7.999993933273645e+00	 1.001314125367832e+01
0	 4.142849759482075e+00	 8.142844762191748e+00	 1.001096004928897e+01
0	 4.142849759482075e+00	 8.285695707769140e+00	 1.000923841643426e+01
0	 4.142849759482074e+00	 8.428546786671577e+00	 1.000799466885070e+01
0	 4.142849759482075e+00	 8.571398015564816e+00	 1.000724711983362e+01
0	 4.285708730125926e+00	 7.142890476327779e+00	 1.003779105423767e+01
0	 4.285708730125926e+00	 7.285740955271015e+00	 1.003265690898840e+01
0	 4.285708730125926e+00	 7.428591450879009e+00	 1.002802072958914e+01
0	 4.285708730125926e+00	 7.571441979817511e+00	 1.002387528519709e+01
0	 4.285708730125925e+00	 7.714292558752280e+00	 1.002021334452369e+01
0	 4.285708730125926e+00	 7.857143204349074e+00	 1.001702767583466e+01
0	 4.285708730125926e+00	 7.999993933273643e+00	 1.001431104695000e+01
0	 4.285708730125926e+00	 8.142844762191748e+00	 1.001205622524397e+01
0	 4.285708730125926e+00	 8.285695707769140e+00	 1.001025597764511e+01
0	 4.285708730125926e+00	 8.428546786671578e+00	 1.000890307063623e+01
0	 4.285708730125926e+00	 8.571398015564817e+00	 1.000799027025439e+01
0	 2.857109523672222e+00	 8.571398015564816e+00	 9.999431267108442e+00
0	 2.857109523672221e+00	 8.714259388995400e+00	 9.997950056659116e+00
0	 2.857109523672223e+00	 8.857120812436383e+00	 9.997057576881343e+00
0	 2.857109523672222e+00	 8.999982169218281e+00	 9.996633506634918e+00
0	 2.857109523672222e+00	 9.142843342671597e+00	 9.996557526461956e+00
0	 2.857109523672223e+00	 9.285704216126852e+00	 9.996709318586666e+00
0	 2.857109523672222e+00	 9.428564672914550e+00	 9.996968566915369e+00
0	 2.857109523672222e+00	 9.571424596365199e+00	 9.997214957036467e+00
0	 2.857109523672222e+00	 9.714283869809323e+00	 9.997328176220343e+00
0	 2.857109523672223e+00	 9.857142376577418e+00	 9.997187913419461e+00
0	 2.857109523672222e+00	 9.999999999999998e+00	 9.996673859268341e+00
0	 2.999969994316576e+00	 8.571398015564817e+00	 1.000089022284564e+01
0	 2.999969994316575e+00	 8.714259388995396e+00	 9.999880190942235e+00
0	 2.999969994316575e+00	 8.857120812436383e+00	 9.999210622375955e+00
0	 2.999969994316575e+00	 8.999982169218280e+00	 9.998784545564348e+00
0	 2.999969994316577e+00	 9.142843342671600e+00	 9.998504989403109e+00
0	 2.999969994316576e+00	 9.285704216126854e+00	 9.998274983265956e+00
0	 2.999969994316576e+00	 9.428564672914550e+00	 9.997997557004524e+00
0	 2.999969994316575e+00	 9.571424596365199e+00	 9.997575740948331e+00
0	 2.999969994316576e+00	 9.714283869809320e+00	 9.996912565904736e+00
0	 2.999969994316576e+00	 9.857142376577418e+00	 9.995911063158774e+00
0	 2.999969994316576e+00	 1.000000000000000e+01	 9.994474264473162e+00
0	 3.142830431628386e+00	 8.571398015564814e+00	 1.000210621003921e+01
0	 3.142830431628386e+00	 8.714259388995401e+00	 1.000145023692860e+01
0	 3.142830431628385e+00	 8.857120812436383e+00	 1.000094801154245e+01
0	 3.142830431628385e+00	 8.999982169218281e+00	 1.000052411888816e+01
0	 3.142830431628385e+00	 9.142843342671600e+00	 1.000010314359128e+01
0	 3.142830431628386e+00	 9.285704216126852e+00	 9.999609669895502e+00
0	 3.142830431628385e+00	 9.428564672914550e+00	 9.998968281662593e+00
0	 3.142830431628385e+00	 9.571424596365199e+00	 9.998103562372274e+00
0	 3.142830431628385e+00	 9.714283869809320e+00	 9.996940095122065e+00
0	 3.142830431628385e+00	 9.857142376577414e+00	 9.995402462627260e+00
0	 3.142830431628385e+00	 1.000000000000000e+01	 9.993415247220778e+00
0	 3.285690802274106e+00	 8.571398015564814e+00	 1.000312008706572e+01
0	 3.285690802274106e+00	 8.714259388995401e+00	 1.000271193999594e+01
0	 3.285690802274106e+00	 8.857120812436385e+00	 1.000232462233494e+01
0	 3.285690802274106e+00	 8.999982169218281e+00	 1.000190248273142e+01
0	 3.285690802274106e+00	 9.142843342671599e+00	 1.000138986889868e+01
0	 3.285690802274105e+00	 9.285704216126852e+00	 1.000073112761446e+01
0	 3.285690802274106e+00	 9.428564672914550e+00	 9.999870604720961e+00
0	 3.285690802274105e+00	 9.571424596365201e+00	 9.998752645124588e+00
0	 3.285690802274106e+00	 9.714283869809321e+00	 9.997321592795959e+00
0	 3.285690802274106e+00	 9.857142376577416e+00	 9.995521790769764e+00
0	 3.285690802274106e+00	 1.000000000000000e+01	 9.993297581144482e+00
0	 3.428551072920193e+00	 8.571398015564817e+00	 1.000397271242097e+01
0	 3.428551072920193e+00	 8.714259388995401e+00	 1.000371704569583e+01
0	 3.428551072920193e+00	 8.857120812436383e+00	 1.000339533292364e+01
0	 3.428551072920193e+00	 8.999982169218280e+00	 1.000296989346306e+01
0	 3.428551072920194e+00	 9.142843342671600e+00	 1.000240304545190e+01
0	 3.428551072920195e+00	 9.285704216126854e+00	 1.000165710580707e+01
0	 3.428551072920193e+00	 9.428564672914550e+00	 1.000069439022448e+01
0	 3.428551072920193e+00	 9.571424596365203e+00	 9.999477213178945e+00
0	 3.428551072920193e+00	 9.714283869809320e+00	 9.997967887924004e+00
0	 3.428551072920193e+00	 9.857142376577414e+00	 9.996128726491769e+00
0	 3.428551072920193e+00	 1.000000000000000e+01	 9.993922039692819e+00
0	 3.571411210233103e+00	 8.571398015564816e+00	 1.000470494472013e+01
0	 3.571411210233103e+00	 8.714259388995401e+00	 1.000451729975367e+01
0	 3.571411210233103e+00	 8.857120812436387e+00	 1.000421502169499e+01
0	 3.571411210233103e+00	 8.999982169218281e+00	 1.000377660769576e+01
0	 3.571411210233103e+00	 9.142843342671602e+00	 1.000318055363171e+01
0	 3.571411210233102e+00	 9.285704216126851e+00	 1.000240535410250e+01
0	 3.571411210233104e+00	 9.428564672914549e+00	 1.000142950243164e+01
0	 3.571411210233102e+00	 9.571424596365199e+00	 1.000023149066638e+01
0	 3.571411210233103e+00	 9.714283869809320e+00	 9.998789809577527e+00
0	 3.571411210233102e+00	 9.857142376577418e+00	 9.997082948659433e+00
0	 3.571411210233102e+00	 1.000000000000000e+01	 9.995089396129693e+00
0	 3.714271180879290e+00	 8.571398015564814e+00	 1.000535764269762e+01
0	 3.714271180879289e+00	 8.714259388995401e+00	 1.000516444806866e+01
0	 3.714271180879289e+00	 8.857120812436383e+00	 1.000483856725154e+01
0	 3.714271180879290e+00	 8.999982169218281e+00	 1.000437288228608e+01
0	 3.714271180879289e+00	 9.142843342671599e+00	 1.000376027407325e+01
0	 3.714271180879290e+00	 9.285704216126851e+00	 1.000299362237504e+01
0	 3.714271180879290e+00	 9.428564672914549e+00	 1.000206580581441e+01
0	 3.714271180879289e+00	 9.571424596365201e+00	 1.000096970187515e+01
0	 3.714271180879289e+00	 9.714283869809320e+00	 9.999698186901847e+00
0	 3.714271180879290e+00	 9.857142376577416e+00	 9.998244136099631e+00
0	 3.714271180879290e+00	 1.000000000000000e+01	 9.996600423534105e+00
0	 3.857130951525211e+00	 8.571398015564816e+00	 1.000597166520716e+01
0	 3.857130951525210e+00	 8.714259388995401e+00	 1.000571023671382e+01
0	 3.857130951525210e+00	 8.857120812436385e+00	 1.000532084841203e+01
0	 3.857130951525210e+00	 8.999982169218280e+00	 1.000480897433438e+01
0	 3.857130951525209e+00	 9.142843342671599e+00	 1.000418008766586e+01
0	 3.857130951525210e+00	 9.285704216126852e+00	 1.000343966074391e+01
0	 3.857130951525211e+00	 9.428564672914550e+00	 1.000259316505827e+01
0	 3.857130951525210e+00	 9.571424596365201e+00	 1.000164607125094e+01
0	 3.857130951525211e+00	 9.714283869809320e+00	 1.000060384911604e+01
0	 3.857130951525209e+00	 9.857142376577420e+00	 9.999471967599778e+00
0	 3.857130951525210e+00	 1.000000000000000e+01	 9.998255894800158e+00
0	 3.999990488837320e+00	 8.571398015564817e+00	 1.000658787122173e+01
0	 3.999990488837320e+00	 8.714259388995400e+00	 1.000620641193597e+01
0	 3.999990488837319e+00	 8.857120812436383e+00	 1.000571674421141e+01
0	 3.999990488837321e+00	 8.999982169218281e+00	 1.000513514118484e+01
0	 3.999990488837320e+00	 9.142843342671600e+00	 1.000447787555317e+01
0	 3.999990488837321e+00	 9.285704216126854e+00	 1.000376121957334e+01
0	 3.999990488837319e+00	 9.428564672914549e+00	 1.000300144506224e+01
0	 3.999990488837321e+00	 9.571424596365201e+00	 1.000221482339667e+01
0	 3.999990488837320e+00	 9.714283869809320e+00	 1.000141762551321e+01
0	 3.999990488837320e+00	 9.857142376577416e+00	 1.000062612190809e+01
0	 3.999990488837320e+00	 1.000000000000000e+01	 9.999856582637337e+00
0	 4.142849759482075e+00	 8.571398015564816e+00	 1.000724711983362e+01
0	 4.142849759482074e+00	 8.714259388995400e+00	 1.000670472015580e+01
0	 4.142849759482075e+00	 8.857120812436387e+00	 1.000608113390069e+01
0	 4.142849759482075e+00	 8.999982169218281e+00	 1.000540164042542e+01
0	 4.142849759482074e+00	 9.142843342671602e+00	 1.000469151913306e+01
0	 4.142849759482075e+00	 9.285704216126852e+00	 1.000397604947261e+01
0	 4.142849759482074e+00	 9.428564672914547e+00	 1.000328051093891e+01
0	 4.142849759482073e+00	 9.571424596365198e+00	 1.000263018307259e+01
0	 4.142849759482074e+00	 9.714283869809320e+00	 1.000205034546009e+01
0	 4.142849759482074e+00	 9.857142376577416e+00	 1.000156627773336e+01
0	 4.142849759482075e+00	 1.000000000000000e+01	 1.000120325957016e+01
0	 4.285708730125926e+00	 8.571398015564817e+00	 1.000799027025439e+01
0	 4.285708730125926e+00	 8.714259388995401e+00	 1.000725690796773e+01
0	 4.285708730125926e+00	 8.857120812436385e+00	 1.000646889694712e+01
0	 4.285708730125925e+00	 8.999982169218280e+00	 1.000565872988793e+01
0	 4.285708730125926e+00	 9.142843342671600e+00	 1.000485890005770e+01
0	 4.285708730125925e+00	 9.285704216126851e+00	 1.000410190129598e+01
0	 4.285708730125926e+00	 9.428564672914549e+00	 1.000342022801432e+01
0	 4.285708730125926e+00	 9.571424596365203e+00	 1.000284637519630e+01
0	 4.285708730125926e+00	 9.714283869809318e+00	 1.000241283839741e+01
0	 4.285708730125926e+00	 9.857142376577416e+00	 1.000215211374505e+01
0	 4.285708730125926e+00	 1.000000000000000e+01	 1.000209669793843e+01
0	 4.285708730125926e+00	 0.000000000000000e+00	 1.019680349332907e+01
0	 4.285708730125926e+00	 1.428576234225852e-01	 1.024672583924464e+01
0	 4.285708730125926e+00	 2.857161301906819e-01	 1.028922279018488e+01
0	 4.285708730125925e+00	 4.285754036348007e-01	 1.032413405329365e+01
0	 4.285708730125926e+00	 5.714353270854531e-01	 1.035129929048851e+01
0	 4.285708730125926e+00	 7.142957838731496e-01	 1.037055811846404e+01
0	 4.285708730125925e+00	 8.571566573284017e-01	 1.038175010869471e+01
0	 4.285708730125926e+00	 1.000017830781720e+00	 1.038471478743722e+01
0	 4.285708730125926e+00	 1.142879187563616e+00	 1.037929163573218e+01
0	 4.285708730125926e+00	 1.285740611004601e+00	 1.036532008940536e+01
0	 4.285708730125926e+00	 1.428601984435185e+00	 1.034263953906827e+01
0	 4.428567384102075e+00	 0.000000000000000e+00	 1.013608601514611e+01
0	 4.428567384102074e+00	 1.428576234225852e-01	 1.019885693927503e+01
0	 4.428567384102073e+00	 2.857161301906819e-01	 1.025140289086645e+01
0	 4.428567384102075e+00	 4.285754036348007e-01	 1.029378397488885e+01
0	 4.428567384102074e+00	 5.714353270854529e-01	 1.032606024630392e+01
0	 4.428567384102073e+00	 7.142957838731495e-01	 1.034829171007021e+01
0	 4.428567384102075e+00	 8.571566573284016e-01	 1.036053832114616e+01
0	 4.428567384102075e+00	 1.000017830781720e+00	 1.036285998449251e+01
0	 4.428567384102074e+00	 1.142879187563616e+00	 1.035531655507409e+01
0	 4.428567384102074e+00	 1.285740611004601e+00	 1.033796783786100e+01
0	 4.428567384102075e+00	 1.428601984435185e+00	 1.031087358782921e+01
0	 4.571425771410668e+00	 0.000000000000000e+00	 1.009385787922816e+01
0	 4.571425771410667e+00	 1.428576234225853e-01	 1.016181219653378e+01
0	 4.571425771410667e+00	 2.857161301906819e-01	 1.021816387293618e+01
0	 4.571425771410665e+00	 4.285754036348007e-01	 1.026315697794472e+01
0	 4.571425771410667e+00	 5.714353270854531e-01	 1.029703553182032e+01
0	 4.571425771410668e+00	 7.142957838731497e-01	 1.032004350557891e+01
0	 4.571425771410667e+00	 8.571566573284016e-01	 1.033242482099441e+01
0	 4.571425771410667e+00	 1.000017830781720e+00	 1.033442335060097e+01
0	 4.571425771410666e+00	 1.142879187563616e+00	 1.032628291769471e+01
0	 4.571425771410668e+00	 1.285740611004601e+00	 1.030824729633480e+01
0	 4.571425771410668e+00	 1.428601984435185e+00	 1.028056021134399e+01
0	 4.714283958718593e+00	 0.000000000000000e+00	 1.006794785193132e+01
0	 4.714283958718593e+00	 1.428576234225853e-01	 1.013463754189340e+01
0	 4.714283958718593e+00	 2.857161301906819e-01	 1.018955286040793e+01
0	 4.714283958718594e+00	 4.285754036348007e-01	 1.023308541400032e+01
0	 4.714283958718592e+00	 5.714353270854531e-01	 1.026562676518619e+01
0	 4.714283958718593e+00	 7.142957838731497e-01	 1.028756843247437e+01
0	 4.714283958718595e+00	 8.571566573284018e-01	 1.029930189036958e+01
0	 4.714283958718593e+00	 1.000017830781720e+00	 1.030121856937438e+01
0	 4.714283958718593e+00	 1.142879187563616e+00	 1.029370985599069e+01
0	 4.714283958718593e+00	 1.285740611004601e+00	 1.027716709272075e+01
0	 4.714283958718593e+00	 1.428601984435185e+00	 1.025198157806757e+01
0	 4.857142012692742e+00	 0.000000000000000e+00	 1.005618467319017e+01
0	 4.857142012692741e+00	 1.428576234225852e-01	 1.011637888452168e+01
0	 4.857142012692741e+00	 2.857161301906819e-01	 1.016561695949105e+01
0	 4.857142012692742e+00	 4.285754036348007e-01	 1.020440161997562e+01
0	 4.857142012692742e+00	 5.714353270854530e-01	 1.023323555250350e+01
0	 4.857142012692742e+00	 7.142957838731497e-01	 1.025262140825599e+01
0	 4.857142012692740e+00	 8.571566573284016e-01	 1.026306180306969e+01
0	 4.857142012692743e+00	 1.000017830781720e+00	 1.026505931743811e+01
0	 4.857142012692742e+00	 1.142879187563616e+00	 1.025911649651287e+01
0	 4.857142012692741e+00	 1.285740611004601e+00	 1.024573585010446e+01
0	 4.857142012692742e+00	 1.428601984435186e+00	 1.022541985268258e+01
0	 5.000000000000002e+00	 0.000000000000000e+00	 1.005639705651717e+01
0	 5.000000000000002e+00	 1.428576234225853e-01	 1.010608211188121e+01
0	 5.000000000000001e+00	 2.857161301906819e-01	 1.014640325858993e+01
0	 5.000000000000002e+00	 4.285754036348007e-01	 1.017793791817110e+01
0	 5.000000000000001e+00	 5.714353270854530e-01	 1.020126348782740e+01
0	 5.000000000000000e+00	 7.142957838731497e-01	 1.021695734043811e+01
0	 5.000000000000002e+00	 8.571566573284017e-01	 1.022559682456050e+01
0	 5.000000000000002e+00	 1.000017830781720e+00	 1.022775926443102e+01
0	 5.000000000000003e+00	 1.142879187563616e+00	 1.022402195996618e+01
0	 4.999999999999998e+00	 1.285740611004601e+00	 1.021496218676299e+01
0	 5.000000000000000e+00	 1.428601984435185e+00	 1.020115719609929e+01
0	 5.142857987307262e+00	 0.000000000000000e+00	 1.006641368900221e+01
0	 5.142857987307259e+00	 1.428576234225852e-01	 1.010279308972903e+01
0	 5.142857987307259e+00	 2.857161301906819e-01	 1.013195882830369e+01
0	 5.142857987307262e+00	 4.285754036348008e-01	 1.015452661626754e+01
0	 5.142857987307260e+00	 5.714353270854531e-01	 1.017111215316609e+01
0	 5.142857987307262e+00	 7.142957838731497e-01	 1.018233112654989e+01
0	 5.142857987307260e+00	 8.571566573284015e-01	 1.018879921197538e+01
0	 5.142857987307261e+00	 1.000017830781720e+00	 1.019113207300534e+01
0	 5.142857987307260e+00	 1.142879187563616e+00	 1.018994536120952e+01
0	 5.142857987307261e+00	 1.285740611004601e+00	 1.018585471616482e+01
0	 5.142857987307260e+00	 1.428601984435185e+00	 1.017947576545551e+01
0	 5.285716041281409e+00	 0.000000000000000e+00	 1.008406323131243e+01
0	 5.285716041281410e+00	 1.428576234225853e-01	 1.010555766211644e+01
0	 5.285716041281411e+00	 2.857161301906819e-01	 1.012233072142612e+01
0	 5.285716041281408e+00	 4.285754036348006e-01	 1.013500000732593e+01
0	 5.285716041281410e+00	 5.714353270854531e-01	 1.014418311848060e+01
0	 5.285716041281409e+00	 7.142957838731496e-01	 1.015049765413521e+01
0	 5.285716041281409e+00	 8.571566573284018e-01	 1.015456121411524e+01
0	 5.285716041281410e+00	 1.000017830781720e+00	 1.015699139882659e+01
0	 5.285716041281408e+00	 1.142879187563616e+00	 1.015840580925575e+01
0	 5.285716041281409e+00	 1.285740611004601e+00	 1.015942204696981e+01
0	 5.285716041281408e+00	 1.428601984435185e+00	 1.016065771411659e+01
0	 5.428574228589335e+00	 0.000000000000000e+00	 1.010717431769210e+01
0	 5.428574228589335e+00	 1.428576234225853e-01	 1.011342165138898e+01
0	 5.428574228589333e+00	 2.857161301906818e-01	 1.011756597294553e+01
0	 5.428574228589334e+00	 4.285754036348007e-01	 1.012019036978738e+01
0	 5.428574228589335e+00	 5.714353270854531e-01	 1.012187794168493e+01
0	 5.428574228589335e+00	 7.142957838731496e-01	 1.012321180075267e+01
0	 5.428574228589334e+00	 8.571566573284018e-01	 1.012477507144857e+01
0	 5.428574228589335e+00	 1.000017830781720e+00	 1.012715089057362e+01
0	 5.428574228589335e+00	 1.142879187563616e+00	 1.013092240727168e+01
0	 5.428574228589333e+00	 1.285740611004601e+00	 1.013667278302923e+01
0	 5.428574228589335e+00	 1.428601984435185e+00	 1.014498519167545e+01
0	 5.571432615897928e+00	 0.000000000000000e+00	 1.013357555596282e+01
0	 5.571432615897929e+00	 1.428576234225852e-01	 1.012543085818646e+01
0	 5.571432615897928e+00	 2.857161301906818e-01	 1.011771160004488e+01
0	 5.571432615897927e+00	 4.285754036348007e-01	 1.011092996747323e+01
0	 5.571432615897928e+00	 5.714353270854531e-01	 1.010559816864599e+01
0	 5.571432615897928e+00	 7.142957838731496e-01	 1.010222843397562e+01
0	 5.571432615897929e+00	 8.571566573284016e-01	 1.010133301611141e+01
0	 5.571432615897928e+00	 1.000017830781720e+00	 1.010342418993867e+01
0	 5.571432615897929e+00	 1.142879187563616e+00	 1.010901425257816e+01
0	 5.571432615897929e+00	 1.285740611004601e+00	 1.011861552338579e+01
0	 5.571432615897927e+00	 1.428601984435185e+00	 1.013274034395259e+01
0	 5.714291269874075e+00	 0.000000000000000e+00	 1.016109552752381e+01
0	 5.714291269874074e+00	 1.428576234225853e-01	 1.014063106144336e+01
0	 5.714291269874074e+00	 2.857161301906819e-01	 1.012281460210205e+01
0	 5.714291269874074e+00	 4.285754036348008e-01	 1.010805104958524e+01
0	 5.714291269874074e+00	 5.714353270854531e-01	 1.009674533318379e+01
0	 5.714291269874074e+00	 7.142957838731496e-01	 1.008930241139228e+01
0	 5.714291269874074e+00	 8.571566573284018e-01	 1.008612727190753e+01
0	 5.714291269874075e+00	 1.000017830781720e+00	 1.008762493162739e+01
0	 5.714291269874074e+00	 1.142879187563616e+00	 1.009420043665008e+01
0	 5.714291269874074e+00	 1.285740611004601e+00	 1.010625886227369e+01
0	 5.714291269874074e+00	 1.428601984435185e+00	 1.012420531299620e+01
0	 4.285708730125926e+00	 1.428601984435185e+00	 1.034263953906827e+01
0	 4.285708730125925e+00	 1.571453213328422e+00	 1.031688103098456e+01
0	 4.285708730125926e+00	 1.714304292230859e+00	 1.029390296947659e+01
0	 4.285708730125926e+00	 1.857155237808252e+00	 1.027389143565150e+01
0	 4.285708730125926e+00	 2.000006066726355e+00	 1.025703250905079e+01
0	 4.285708730125927e+00	 2.142856795650926e+00	 1.024351226765038e+01
0	 4.285708730125925e+00	 2.285707441247717e+00	 1.023351678786051e+01
0	 4.285708730125926e+00	 2.428558020182488e+00	 1.022723214452583e+01
0	 4.285708730125926e+00	 2.571408549120993e+00	 1.022484441092531e+01
0	 4.285708730125926e+00	 2.714259044728984e+00	 1.022653965877230e+01
0	 4.285708730125926e+00	 2.857109523672222e+00	 1.023250395821444e+01
0	 4.428567384102075e+00	 1.428601984435185e+00	 1.031087358782921e+01
0	 4.428567384102075e+00	 1.571453213328422e+00	 1.028105603344662e+01
0	 4.428567384102074e+00	 1.714304292230859e+00	 1.025555561727967e+01
0	 4.428567384102076e+00	 1.857155237808252e+00	 1.023446608476991e+01
0	 4.428567384102075e+00	 2.000006066726356e+00	 1.021788117876455e+01
0	 4.428567384102076e+00	 2.142856795650926e+00	 1.020589463951636e+01
0	 4.428567384102074e+00	 2.285707441247718e+00	 1.019860020468375e+01
0	 4.428567384102075e+00	 2.428558020182488e+00	 1.019609160933069e+01
0	 4.428567384102076e+00	 2.571408549120992e+00	 1.019846258592676e+01
0	 4.428567384102075e+00	 2.714259044728984e+00	 1.020580686434706e+01
0	 4.428567384102074e+00	 2.857109523672222e+00	 1.021821817187226e+01
0	 4.571425771410668e+00	 1.428601984435185e+00	 1.028056021134399e+01
0	 4.571425771410668e+00	 1.571453213328422e+00	 1.025062481690205e+01
0	 4.571425771410667e+00	 1.714304292230858e+00	 1.022568850762626e+01
0	 4.571425771410667e+00	 1.857155237808251e+00	 1.020576814028615e+01
0	 4.571425771410667e+00	 2.000006066726355e+00	 1.019088056861208e+01
0	 4.571425771410668e+00	 2.142856795650926e+00	 1.018104264329525e+01
0	 4.571425771410667e+00	 2.285707441247718e+00	 1.017627121198767e+01
0	 4.571425771410666e+00	 2.428558020182488e+00	 1.017658311930211e+01
0	 4.571425771410667e+00	 2.571408549120992e+00	 1.018199520681209e+01
0	 4.571425771410668e+00	 2.714259044728985e+00	 1.019252431305195e+01
0	 4.571425771410667e+00	 2.857109523672223e+00	 1.020818727351672e+01
0	 4.714283958718593e+00	 1.428601984435185e+00	 1.025198157806756e+01
0	 4.714283958718593e+00	 1.571453213328421e+00	 1.022510705692555e+01
0	 4.714283958718595e+00	 1.714304292230859e+00	 1.020320259667621e+01
0	 4.714283958718594e+00	 1.857155237808252e+00	 1.018622361323823e+01
0	 4.714283958718594e+00	 2.000006066726355e+00	 1.017412551952968e+01
0	 4.714283958718594e+00	 2.142856795650925e+00	 1.016686372546798e+01
0	 4.714283958718594e+00	 2.285707441247718e+00	 1.016439363796990e+01
0	 4.714283958718593e+00	 2.428558020182488e+00	 1.016667066095150e+01
0	 4.714283958718593e+00	 2.571408549120991e+00	 1.017365019532816e+01
0	 4.714283958718594e+00	 2.714259044728985e+00	 1.018528763901455e+01
0	 4.714283958718593e+00	 2.857109523672222e+00	 1.020153838692461e+01
0	 4.857142012692742e+00	 1.428601984435186e+00	 1.022541985268258e+01
0	 4.857142012692742e+00	 1.571453213328422e+00	 1.020402242643196e+01
0	 4.857142012692741e+00	 1.714304292230858e+00	 1.018699883909935e+01
0	 4.857142012692741e+00	 1.857155237808251e+00	 1.017425851435816e+01
0	 4.857142012692741e+00	 2.000006066726355e+00	 1.016571087330239e+01
0	 4.857142012692742e+00	 2.142856795650926e+00	 1.016126533444659e+01
0	 4.857142012692742e+00	 2.285707441247718e+00	 1.016083131372589e+01
0	 4.857142012692741e+00	 2.428558020182488e+00	 1.016431822449600e+01
0	 4.857142012692742e+00	 2.571408549120992e+00	 1.017163547753308e+01
0	 4.857142012692742e+00	 2.714259044728984e+00	 1.018269248103387e+01
0	 4.857142012692742e+00	 2.857109523672222e+00	 1.019739864061559e+01
0	 5.000000000000000e+00	 1.428601984435185e+00	 1.020115719609930e+01
0	 4.999999999999999e+00	 1.571453213328422e+00	 1.018689059567621e+01
0	 5.000000000000002e+00	 1.714304292230859e+00	 1.017597818807550e+01
0	 5.000000000000000e+00	 1.857155237808251e+00	 1.016829885407190e+01
0	 5.000000000000001e+00	 2.000006066726355e+00	 1.016373147256402e+01
0	 5.000000000000002e+00	 2.142856795650926e+00	 1.016215492057434e+01
0	 5.000000000000002e+00	 2.285707441247718e+00	 1.016344807324913e+01
0	 5.000000000000001e+00	 2.428558020182488e+00	 1.016748980385850e+01
0	 5.000000000000001e+00	 2.571408549120992e+00	 1.017415898379637e+01
0	 5.000000000000001e+00	 2.714259044728985e+00	 1.018333448258047e+01
0	 5.000000000000000e+00	 2.857109523672223e+00	 1.019489516785232e+01
0	 5.142857987307260e+00	 1.428601984435185e+00	 1.017947576545551e+01
0	 5.142857987307262e+00	 1.571453213328422e+00	 1.017323123225334e+01
0	 5.142857987307260e+00	 1.714304292230859e+00	 1.016904159529443e+01
0	 5.142857987307261e+00	 1.857155237808252e+00	 1.016677064249937e+01
0	 5.142857987307260e+00	 2.000006066726355e+00	 1.016628216079729e+01
0	 5.142857987307262e+00	 2.142856795650926e+00	 1.016743993612580e+01
0	 5.142857987307261e+00	 2.285707441247718e+00	 1.017010775343107e+01
0	 5.142857987307263e+00	 2.428558020182489e+00	 1.017414939666775e+01
0	 5.142857987307261e+00	 2.571408549120992e+00	 1.017942864879903e+01
0	 5.142857987307259e+00	 2.714259044728984e+00	 1.018580929179656e+01
0	 5.142857987307262e+00	 2.857109523672222e+00	 1.019315510664052e+01
0	 5.285716041281408e+00	 1.428601984435185e+00	 1.016065771411659e+01
0	 5.285716041281407e+00	 1.571453213328422e+00	 1.016256400109843e+01
0	 5.285716041281409e+00	 1.714304292230859e+00	 1.016509001095591e+01
0	 5.285716041281407e+00	 1.857155237808252e+00	 1.016809988945451e+01
0	 5.285716041281409e+00	 2.000006066726355e+00	 1.017145778233368e+01
0	 5.285716041281407e+00	 2.142856795650926e+00	 1.017502783530682e+01
0	 5.285716041281408e+00	 2.285707441247718e+00	 1.017867419406131e+01
0	 5.285716041281408e+00	 2.428558020182487e+00	 1.018226100425847e+01
0	 5.285716041281409e+00	 2.571408549120992e+00	 1.018565241153363e+01
0	 5.285716041281410e+00	 2.714259044728984e+00	 1.018871256149607e+01
0	 5.285716041281409e+00	 2.857109523672222e+00	 1.019130559972906e+01
0	 5.428574228589335e+00	 1.428601984435185e+00	 1.014498519167545e+01
0	 5.428574228589335e+00	 1.571453213328422e+00	 1.015440856448666e+01
0	 5.428574228589335e+00	 1.714304292230859e+00	 1.016302438376969e+01
0	 5.428574228589335e+00	 1.857155237808251e+00	 1.017071260444527e+01
0	 5.428574228589335e+00	 2.000006066726355e+00	 1.017735318235366e+01
0	 5.428574228589334e+00	 2.142856795650926e+00	 1.018282607425463e+01
0	 5.428574228589335e+00	 2.285707441247718e+00	 1.018701123782754e+01
0	 5.428574228589336e+00	 2.428558020182489e+00	 1.018978863167129e+01
0	 5.428574228589334e+00	 2.571408549120992e+00	 1.019103821530433e+01
0	 5.428574228589336e+00	 2.714259044728985e+00	 1.019063994916471e+01
0	 5.428574228589336e+00	 2.857109523672222e+00	 1.018847379461001e+01
0	 5.571432615897927e+00	 1.428601984435185e+00	 1.013274034395260e+01
0	 5.571432615897930e+00	 1.571453213328422e+00	 1.014828458203337e+01
0	 5.571432615897928e+00	 1.714304292230859e+00	 1.016174566095559e+01
0	 5.571432615897928e+00	 1.857155237808251e+00	 1.017303479667367e+01
0	 5.571432615897928e+00	 2.000006066726355e+00	 1.018206320688654e+01
0	 5.571432615897928e+00	 2.142856795650925e+00	 1.018874211103779e+01
0	 5.571432615897927e+00	 2.285707441247717e+00	 1.019298273031561e+01
0	 5.571432615897928e+00	 2.428558020182489e+00	 1.019469628765281e+01
0	 5.571432615897929e+00	 2.571408549120992e+00	 1.019379400772686e+01
0	 5.571432615897929e+00	 2.714259044728985e+00	 1.019018711695989e+01
0	 5.571432615897929e+00	 2.857109523672223e+00	 1.018378684351864e+01
0	 5.714291269874074e+00	 1.428601984435185e+00	 1.012420531299620e+01
0	 5.714291269874074e+00	 1.571453213328422e+00	 1.014371171069404e+01
0	 5.714291269874076e+00	 1.714304292230859e+00	 1.016015478824347e+01
0	 5.714291269874074e+00	 1.857155237808252e+00	 1.017349247503576e+01
0	 5.714291269874074e+00	 2.000006066726355e+00	 1.018368270281060e+01
0	 5.714291269874074e+00	 2.142856795650926e+00	 1.019068340565624e+01
0	 5.714291269874074e+00	 2.285707441247718e+00	 1.019445252000948e+01
0	 5.714291269874074e+00	 2.428558020182487e+00	 1.019494798465562e+01
0	 5.714291269874074e+00	 2.571408549120992e+00	 1.019212774072856e+01
0	 5.714291269874075e+00	 2.714259044728984e+00	 1.018594973171079e+01
0	 5.714291269874074e+00	 2.857109523672222e+00	 1.017637190343336e+01
0	 4.285708730125926e+00	 2.857109523672222e+00	 1.023250395821444e+01
0	 4.285708730125926e+00	 2.999969994316576e+00	 1.023979404662691e+01
0	 4.285708730125926e+00	 3.142830431628385e+00	 1.024516753284038e+01
0	 4.285708730125926e+00	 3.285690802274106e+00	 1.024836350280727e+01
0	 4.285708730125926e+00	 3.428551072920192e+00	 1.024912103705584e+01
0	 4.285708730125926e+00	 3.571411210233102e+00	 1.024717921069016e+01
0	 4.285708730125926e+00	 3.714271180879290e+00	 1.024227709339008e+01
0	 4.285708730125926e+00	 3.857130951525210e+00	 1.023415374941116e+01
0	 4.285708730125926e+00	 3.999990488837321e+00	 1.022254823758453e+01
0	 4.285708730125926e+00	 4.142849759482074e+00	 1.020719961131687e+01
0	 4.285708730125926e+00	 4.285708730125926e+00	 1.018784691859025e+01
0	 4.428567384102074e+00	 2.857109523672222e+00	 1.021821817187226e+01
0	 4.428567384102074e+00	 2.999969994316576e+00	 1.023158993575722e+01
0	 4.428567384102072e+00	 3.142830431628384e+00	 1.024166589480067e+01
0	 4.428567384102076e+00	 3.285690802274106e+00	 1.024831838193012e+01
0	 4.428567384102074e+00	 3.428551072920194e+00	 1.025141972360140e+01
0	 4.428567384102075e+00	 3.571411210233103e+00	 1.025084223979857e+01
0	 4.428567384102073e+00	 3.714271180879290e+00	 1.024645824403397e+01
0	 4.428567384102075e+00	 3.857130951525210e+00	 1.023814004334804e+01
0	 4.428567384102073e+00	 3.999990488837320e+00	 1.022575993830929e+01
0	 4.428567384102074e+00	 4.142849759482075e+00	 1.020919022301418e+01
0	 4.428567384102075e+00	 4.285708730125926e+00	 1.018830318508696e+01
0	 4.571425771410667e+00	 2.857109523672223e+00	 1.020818727351672e+01
0	 4.571425771410667e+00	 2.999969994316576e+00	 1.022439591651738e+01
0	 4.571425771410667e+00	 3.142830431628384e+00	 1.023653743230309e+01
0	 4.571425771410667e+00	 3.285690802274106e+00	 1.024459552154014e+01
0	 4.571425771410667e+00	 3.428551072920193e+00	 1.024855387809123e+01
0	 4.571425771410667e+00	 3.571411210233102e+00	 1.024839618901542e+01
0	 4.571425771410667e+00	 3.714271180879289e+00	 1.024410613456804e+01
0	 4.571425771410667e+00	 3.857130951525209e+00	 1.023566738820072e+01
0	 4.571425771410667e+00	 3.999990488837321e+00	 1.022306361656118e+01
0	 4.571425771410666e+00	 4.142849759482074e+00	 1.020627847949318e+01
0	 4.571425771410667e+00	 4.285708730125927e+00	 1.018529563003635e+01
0	 4.714283958718593e+00	 2.857109523672222e+00	 1.020153838692461e+01
0	 4.714283958718593e+00	 2.999969994316575e+00	 1.021789770628564e+01
0	 4.714283958718593e+00	 3.142830431628386e+00	 1.022993680249780e+01
0	 4.714283958718592e+00	 3.285690802274106e+00	 1.023772886470089e+01
0	 4.714283958718593e+00	 3.428551072920193e+00	 1.024134707548927e+01
0	 4.714283958718593e+00	 3.571411210233102e+00	 1.024086461091190e+01
0	 4.714283958718593e+00	 3.714271180879290e+00	 1.023635464047221e+01
0	 4.714283958718593e+00	 3.857130951525210e+00	 1.022789032712811e+01
0	 4.714283958718593e+00	 3.999990488837320e+00	 1.021554482729187e+01
0	 4.714283958718593e+00	 4.142849759482074e+00	 1.019939129082999e+01
0	 4.714283958718594e+00	 4.285708730125926e+00	 1.017950286106308e+01
0	 4.857142012692742e+00	 2.857109523672222e+00	 1.019739864061559e+01
0	 4.857142012692742e+00	 2.999969994316576e+00	 1.021178102693996e+01
0	 4.857142012692742e+00	 3.142830431628386e+00	 1.022201866652079e+01
0	 4.857142012692742e+00	 3.285690802274105e+00	 1.022825235773830e+01
0	 4.857142012692743e+00	 3.428551072920193e+00	 1.023062289315009e+01
0	 4.857142012692740e+00	 3.571411210233101e+00	 1.022927105949119e+01
0	 4.857142012692742e+00	 3.714271180879290e+00	 1.022433763767386e+01
0	 4.857142012692740e+00	 3.857130951525209e+00	 1.021596340278772e+01
0	 4.857142012692742e+00	 3.999990488837320e+00	 1.020428912409952e+01
0	 4.857142012692741e+00	 4.142849759482074e+00	 1.018945556505310e+01
0	 4.857142012692742e+00	 4.285708730125926e+00	 1.017160348326933e+01
0	 5.000000000000000e+00	 2.857109523672223e+00	 1.019489516785232e+01
0	 5.000000000000003e+00	 2.999969994316577e+00	 1.020573160485813e+01
0	 5.000000000000002e+00	 3.142830431628385e+00	 1.021293768949386e+01
0	 5.000000000000000e+00	 3.285690802274106e+00	 1.021669995024066e+01
0	 5.000000000000001e+00	 3.428551072920193e+00	 1.021720491081897e+01
0	 5.000000000000002e+00	 3.571411210233103e+00	 1.021463909018843e+01
0	 5.000000000000001e+00	 3.714271180879289e+00	 1.020918900254797e+01
0	 5.000000000000001e+00	 3.857130951525210e+00	 1.020104115733567e+01
0	 5.000000000000000e+00	 3.999990488837320e+00	 1.019038205922872e+01
0	 5.000000000000000e+00	 4.142849759482074e+00	 1.017739820814336e+01
0	 5.000000000000001e+00	 4.285708730125926e+00	 1.016227609923476e+01
0	 5.142857987307262e+00	 2.857109523672222e+00	 1.019315510664052e+01
0	 5.142857987307260e+00	 2.999969994316576e+00	 1.019943517091782e+01
0	 5.142857987307260e+00	 3.142830431628385e+00	 1.020284854052483e+01
0	 5.142857987307260e+00	 3.285690802274106e+00	 1.020360559505885e+01
0	 5.142857987307260e+00	 3.428551072920194e+00	 1.020191671063195e+01
0	 5.142857987307260e+00	 3.571411210233103e+00	 1.019799225987087e+01
0	 5.142857987307260e+00	 3.714271180879289e+00	 1.019204261191708e+01
0	 5.142857987307261e+00	 3.857130951525211e+00	 1.018427813242674e+01
0	 5.142857987307261e+00	 3.999990488837321e+00	 1.017490918357058e+01
0	 5.142857987307260e+00	 4.142849759482073e+00	 1.016414612403393e+01
0	 5.142857987307261e+00	 4.285708730125926e+00	 1.015219930901657e+01
0	 5.285716041281409e+00	 2.857109523672222e+00	 1.019130559972906e+01
0	 5.285716041281408e+00	 2.999969994316576e+00	 1.019257746049672e+01
0	 5.285716041281408e+00	 3.142830431628385e+00	 1.019190589270753e+01
0	 5.285716041281409e+00	 3.285690802274106e+00	 1.018950324830627e+01
0	 5.285716041281409e+00	 3.428551072920194e+00	 1.018558187711595e+01
0	 5.285716041281409e+00	 3.571411210233102e+00	 1.018035412683781e+01
0	 5.285716041281407e+00	 3.714271180879289e+00	 1.017403234305139e+01
0	 5.285716041281409e+00	 3.857130951525211e+00	 1.016682886921438e+01
0	 5.285716041281408e+00	 3.999990488837321e+00	 1.015895604666268e+01
0	 5.285716041281407e+00	 4.142849759482074e+00	 1.015062621461033e+01
0	 5.285716041281409e+00	 4.285708730125927e+00	 1.014205171014945e+01
0	 5.428574228589336e+00	 2.857109523672222e+00	 1.018847379461001e+01
0	 5.428574228589336e+00	 2.999969994316576e+00	 1.018484421347252e+01
0	 5.428574228589334e+00	 3.142830431628385e+00	 1.018026442312190e+01
0	 5.428574228589334e+00	 3.285690802274106e+00	 1.017492686935892e+01
0	 5.428574228589336e+00	 3.428551072920194e+00	 1.016902399718873e+01
0	 5.428574228589334e+00	 3.571411210233102e+00	 1.016274825082074e+01
0	 5.428574228589335e+00	 3.714271180879290e+00	 1.015629207366873e+01
0	 5.428574228589334e+00	 3.857130951525209e+00	 1.014984790835074e+01
0	 5.428574228589335e+00	 3.999990488837320e+00	 1.014360819668912e+01
0	 5.428574228589334e+00	 4.142849759482074e+00	 1.013776537971047e+01
0	 5.428574228589334e+00	 4.285708730125926e+00	 1.013251189764563e+01
0	 5.571432615897929e+00	 2.857109523672223e+00	 1.018378684351864e+01
0	 5.571432615897927e+00	 2.999969994316576e+00	 1.017592117422296e+01
0	 5.571432615897928e+00	 3.142830431628385e+00	 1.016807881283389e+01
0	 5.571432615897929e+00	 3.285690802274106e+00	 1.016041042085543e+01
0	 5.571432615897929e+00	 3.428551072920193e+00	 1.015306666015895e+01
0	 5.571432615897928e+00	 3.571411210233103e+00	 1.014619819298329e+01
0	 5.571432615897928e+00	 3.714271180879289e+00	 1.013995568193466e+01
0	 5.571432615897928e+00	 3.857130951525211e+00	 1.013448978998674e+01
0	 5.571432615897930e+00	 3.999990488837320e+00	 1.012995118048058e+01
0	 5.571432615897927e+00	 4.142849759482075e+00	 1.012649051712468e+01
0	 5.571432615897930e+00	 4.285708730125927e+00	 1.012425846399493e+01
0	 5.714291269874074e+00	 2.857109523672222e+00	 1.017637190343336e+01
0	 5.714291269874075e+00	 2.999969994316577e+00	 1.016549409162575e+01
0	 5.714291269874075e+00	 3.142830431628385e+00	 1.015550374689560e+01
0	 5.714291269874075e+00	 3.285690802274106e+00	 1.014648786869703e+01
0	 5.714291269874073e+00	 3.428551072920192e+00	 1.013853345772618e+01
0	 5.714291269874074e+00	 3.571411210233103e+00	 1.013172751592125e+01
0	 5.714291269874074e+00	 3.714271180879289e+00	 1.012615704646244e+01
0	 5.714291269874074e+00	 3.857130951525209e+00	 1.012190905377204e+01
0	 5.714291269874074e+00	 3.999990488837320e+00	 1.011907054351436e+01
0	 5.714291269874074e+00	 4.142849759482075e+00	 1.011772852259578e+01
0	 5.714291269874074e+00	 4.285708730125924e+00	 1.011796999916478e+01
0	 4.285708730125926e+00	 4.285708730125926e+00	 1.018784691859025e+01
0	 4.285708730125926e+00	 4.428567384102075e+00	 1.016729705804401e+01
0	 4.285708730125926e+00	 4.571425771410667e+00	 1.014856274961462e+01
0	 4.285708730125926e+00	 4.714283958718593e+00	 1.013169176462934e+01
0	 4.285708730125926e+00	 4.857142012692742e+00	 1.011673186837258e+01
0	 4.285708730125926e+00	 5.000000000000001e+00	 1.010373082008574e+01
0	 4.285708730125926e+00	 5.142857987307262e+00	 1.009273637296703e+01
0	 4.285708730125926e+00	 5.285716041281411e+00	 1.008379627417133e+01
0	 4.285708730125925e+00	 5.428574228589334e+00	 1.007695826481011e+01
0	 4.285708730125926e+00	 5.571432615897929e+00	 1.007227007995136e+01
0	 4.285708730125925e+00	 5.714291269874074e+00	 1.006977944861965e+01
0	 4.428567384102075e+00	 4.285708730125926e+00	 1.018830318508696e+01
0	 4.428567384102076e+00	 4.428567384102075e+00	 1.016643233048159e+01
0	 4.428567384102074e+00	 4.571425771410668e+00	 1.014697042034832e+01
0	 4.428567384102077e+00	 4.714283958718594e+00	 1.012987861548491e+01
0	 4.428567384102074e+00	 4.857142012692742e+00	 1.011511807033342e+01
0	 4.428567384102075e+00	 5.000000000000002e+00	 1.010264993298001e+01
0	 4.428567384102073e+00	 5.142857987307260e+00	 1.009243534515474e+01
0	 4.428567384102075e+00	 5.285716041281407e+00	 1.008443544223145e+01
0	 4.428567384102074e+00	 5.428574228589333e+00	 1.007861135322765e+01
0	 4.428567384102076e+00	 5.571432615897928e+00	 1.007492420080454e+01
0	 4.428567384102075e+00	 5.714291269874074e+00	 1.007333510126693e+01
0	 4.571425771410667e+00	 4.285708730125927e+00	 1.018529563003635e+01
0	 4.571425771410668e+00	 4.428567384102075e+00	 1.016359881216988e+01
0	 4.571425771410667e+00	 4.571425771410667e+00	 1.014460965264900e+01
0	 4.571425771410666e+00	 4.714283958718593e+00	 1.012821861901486e+01
0	 4.571425771410668e+00	 4.857142012692742e+00	 1.011431617272912e+01
0	 4.571425771410667e+00	 5.000000000000000e+00	 1.010279276917377e+01
0	 4.571425771410667e+00	 5.142857987307259e+00	 1.009353885765096e+01
0	 4.571425771410667e+00	 5.285716041281408e+00	 1.008644488138285e+01
0	 4.571425771410667e+00	 5.428574228589335e+00	 1.008140127751156e+01
0	 4.571425771410667e+00	 5.571432615897928e+00	 1.007829847709909e+01
0	 4.571425771410667e+00	 5.714291269874074e+00	 1.007702690512736e+01
0	 4.714283958718594e+00	 4.285708730125926e+00	 1.017950286106308e+01
0	 4.714283958718594e+00	 4.428567384102076e+00	 1.015920272620212e+01
0	 4.714283958718593e+00	 4.571425771410667e+00	 1.014165577968962e+01
0	 4.714283958718593e+00	 4.714283958718592e+00	 1.012669771378649e+01
0	 4.714283958718593e+00	 4.857142012692741e+00	 1.011416421542329e+01
0	 4.714283958718593e+00	 5.000000000000000e+00	 1.010389096620014e+01
0	 4.714283958718594e+00	 5.142857987307262e+00	 1.009571364238647e+01
0	 4.714283958718593e+00	 5.285716041281408e+00	 1.008946791492096e+01
0	 4.714283958718595e+00	 5.428574228589335e+00	 1.008498944941141e+01
0	 4.714283958718593e+00	 5.571432615897927e+00	 1.008211390613477e+01
0	 4.714283958718594e+00	 5.714291269874074e+00	 1.008067694003705e+01
0	 4.857142012692742e+00	 4.285708730125926e+00	 1.017160348326933e+01
0	 4.857142012692741e+00	 4.428567384102073e+00	 1.015365029293717e+01
0	 4.857142012692743e+00	 4.571425771410669e+00	 1.013828413193276e+01
0	 4.857142012692741e+00	 4.714283958718593e+00	 1.012530183587213e+01
0	 4.857142012692742e+00	 4.857142012692743e+00	 1.011450023614690e+01
0	 4.857142012692742e+00	 5.000000000000001e+00	 1.010567615992410e+01
0	 4.857142012692742e+00	 5.142857987307261e+00	 1.009862643014613e+01
0	 4.857142012692740e+00	 5.285716041281407e+00	 1.009314786553052e+01
0	 4.857142012692741e+00	 5.428574228589335e+00	 1.008903728056997e+01
0	 4.857142012692740e+00	 5.571432615897928e+00	 1.008609148553220e+01
0	 4.857142012692742e+00	 5.714291269874074e+00	 1.008410728646004e+01
0	 5.000000000000001e+00	 4.285708730125926e+00	 1.016227609923476e+01
0	 5.000000000000001e+00	 4.428567384102074e+00	 1.014734772999947e+01
0	 5.000000000000000e+00	 4.571425771410667e+00	 1.013467003713069e+01
0	 5.000000000000001e+00	 4.714283958718593e+00	 1.012401691884932e+01
0	 5.000000000000001e+00	 4.857142012692741e+00	 1.011516227049832e+01
0	 5.000000000000001e+00	 5.000000000000001e+00	 1.010787998454260e+01
0	 5.000000000000001e+00	 5.142857987307262e+00	 1.010194395056889e+01
0	 5.000000000000002e+00	 5.285716041281410e+00	 1.009712805528569e+01
0	 5.000000000000001e+00	 5.428574228589334e+00	 1.009320618252311e+01
0	 5.000000000000001e+00	 5.571432615897929e+00	 1.008995221323290e+01
0	 5.000000000000001e+00	 5.714291269874074e+00	 1.008714002548838e+01
0	 5.142857987307261e+00	 4.285708730125926e+00	 1.015219930901657e+01
0	 5.142857987307262e+00	 4.428567384102074e+00	 1.014070125227906e+01
0	 5.142857987307259e+00	 4.571425771410667e+00	 1.013098882032529e+01
0	 5.142857987307261e+00	 4.714283958718593e+00	 1.012282889380059e+01
0	 5.142857987307261e+00	 4.857142012692742e+00	 1.011598835194326e+01
0	 5.142857987307261e+00	 5.000000000000000e+00	 1.011023407258438e+01
0	 5.142857987307260e+00	 5.142857987307262e+00	 1.010533293214777e+01
0	 5.142857987307261e+00	 5.285716041281408e+00	 1.010105180564991e+01
0	 5.142857987307260e+00	 5.428574228589334e+00	 1.009715756669988e+01
0	 5.142857987307259e+00	 5.571432615897927e+00	 1.009341708749927e+01
0	 5.142857987307261e+00	 5.714291269874074e+00	 1.008959723884215e+01
0	 5.285716041281409e+00	 4.285708730125927e+00	 1.014205171014945e+01
0	 5.285716041281409e+00	 4.428567384102076e+00	 1.013411707193154e+01
0	 5.285716041281408e+00	 4.571425771410667e+00	 1.012741580384804e+01
0	 5.285716041281408e+00	 4.714283958718593e+00	 1.012172368931359e+01
0	 5.285716041281410e+00	 4.857142012692742e+00	 1.011681651181480e+01
0	 5.285716041281409e+00	 5.000000000000002e+00	 1.011247005491010e+01
0	 5.285716041281409e+00	 5.142857987307262e+00	 1.010846010222983e+01
0	 5.285716041281409e+00	 5.285716041281410e+00	 1.010456243747604e+01
0	 5.285716041281407e+00	 5.428574228589334e+00	 1.010055284442251e+01
0	 5.285716041281408e+00	 5.571432615897927e+00	 1.009620710691464e+01
0	 5.285716041281408e+00	 5.714291269874074e+00	 1.009130100886942e+01
0	 5.428574228589334e+00	 4.285708730125926e+00	 1.013251189764563e+01
0	 5.428574228589336e+00	 4.428567384102075e+00	 1.012800139837812e+01
0	 5.428574228589333e+00	 4.571425771410667e+00	 1.012412630732012e+01
0	 5.428574228589334e+00	 4.714283958718593e+00	 1.012068723148108e+01
0	 5.428574228589336e+00	 4.857142012692742e+00	 1.011748477931337e+01
0	 5.428574228589336e+00	 5.000000000000002e+00	 1.011431956071233e+01
0	 5.428574228589335e+00	 5.142857987307261e+00	 1.011099218701626e+01
0	 5.428574228589335e+00	 5.285716041281408e+00	 1.010730327100628e+01
0	 5.428574228589336e+00	 5.428574228589335e+00	 1.010305342690638e+01
0	 5.428574228589335e+00	 5.571432615897928e+00	 1.009804327038323e+01
0	 5.428574228589334e+00	 5.714291269874074e+00	 1.009207341854624e+01
0	 5.571432615897930e+00	 4.285708730125927e+00	 1.012425846399493e+01
0	 5.571432615897929e+00	 4.428567384102076e+00	 1.012276043830564e+01
0	 5.571432615897928e+00	 4.571425771410667e+00	 1.012129564765238e+01
0	 5.571432615897928e+00	 4.714283958718594e+00	 1.011970544390091e+01
0	 5.571432615897928e+00	 4.857142012692741e+00	 1.011783118150681e+01
0	 5.571432615897928e+00	 5.000000000000001e+00	 1.011551421751553e+01
0	 5.571432615897926e+00	 5.142857987307259e+00	 1.011259591156232e+01
0	 5.571432615897927e+00	 5.285716041281408e+00	 1.010891762587223e+01
0	 5.571432615897929e+00	 5.428574228589335e+00	 1.010432072526004e+01
0	 5.571432615897929e+00	 5.571432615897928e+00	 1.009864657713021e+01
0	 5.571432615897928e+00	 5.714291269874074e+00	 1.009173655147674e+01
0	 5.714291269874074e+00	 4.285708730125924e+00	 1.011796999916478e+01
0	 5.714291269874074e+00	 4.428567384102074e+00	 1.011880039566668e+01
0	 5.714291269874074e+00	 4.571425771410667e+00	 1.011909913904541e+01
0	 5.714291269874073e+00	 4.714283958718594e+00	 1.011876424767615e+01
0	 5.714291269874074e+00	 4.857142012692742e+00	 1.011769374333044e+01
0	 5.714291269874074e+00	 5.000000000000001e+00	 1.011578565117612e+01
0	 5.714291269874076e+00	 5.142857987307261e+00	 1.011293799977742e+01
0	 5.714291269874075e+00	 5.285716041281409e+00	 1.010904882109486e+01
0	 5.714291269874074e+00	 5.428574228589336e+00	 1.010401615048525e+01
0	 5.714291269874074e+00	 5.571432615897928e+00	 1.009773802670160e+01
0	 5.714291269874074e+00	 5.714291269874073e+00	 1.009011249189301e+01
0	 4.285708730125925e+00	 5.714291269874074e+00	 1.006977944861965e+01
0	 4.285708730125926e+00	 5.857150240517928e+00	 1.006825398758200e+01
0	 4.285708730125926e+00	 6.000009511162682e+00	 1.006641493146428e+01
0	 4.285708730125926e+00	 6.142869048474793e+00	 1.006424043114914e+01
0	 4.285708730125926e+00	 6.285728819120710e+00	 1.006170863698910e+01
0	 4.285708730125925e+00	 6.428588789766899e+00	 1.005879769880665e+01
0	 4.285708730125926e+00	 6.571448927079809e+00	 1.005548576589416e+01
0	 4.285708730125926e+00	 6.714309197725895e+00	 1.005175098701389e+01
0	 4.285708730125926e+00	 6.857169568371619e+00	 1.004757151039803e+01
0	 4.285708730125926e+00	 7.000030005683427e+00	 1.004292548374864e+01
0	 4.285708730125926e+00	 7.142890476327779e+00	 1.003779105423767e+01
0	 4.428567384102075e+00	 5.714291269874074e+00	 1.007333510126693e+01
0	 4.428567384102074e+00	 5.857150240517929e+00	 1.007246339582647e+01
0	 4.428567384102074e+00	 6.000009511162681e+00	 1.007097094256015e+01
0	 4.428567384102074e+00	 6.142869048474792e+00	 1.006888262784720e+01
0	 4.428567384102074e+00	 6.285728819120711e+00	 1.006622333745826e+01
0	 4.428567384102075e+00	 6.428588789766899e+00	 1.006301795655548e+01
0	 4.428567384102075e+00	 6.571448927079810e+00	 1.005929136969252e+01
0	 4.428567384102073e+00	 6.714309197725895e+00	 1.005506846081443e+01
0	 4.428567384102073e+00	 6.857169568371615e+00	 1.005037411325778e+01
0	 4.428567384102074e+00	 7.000030005683424e+00	 1.004523320975055e+01
0	 4.428567384102074e+00	 7.142890476327777e+00	 1.003967063241222e+01
0	 4.571425771410667e+00	 5.714291269874074e+00	 1.007702690512736e+01
0	 4.571425771410666e+00	 5.857150240517928e+00	 1.007621718996446e+01
0	 4.571425771410667e+00	 6.000009511162683e+00	 1.007461461134958e+01
0	 4.571425771410667e+00	 6.142869048474791e+00	 1.007228156633560e+01
0	 4.571425771410667e+00	 6.285728819120711e+00	 1.006928045140776e+01
0	 4.571425771410667e+00	 6.428588789766899e+00	 1.006567366248372e+01
0	 4.571425771410667e+00	 6.571448927079809e+00	 1.006152359491349e+01
0	 4.571425771410668e+00	 6.714309197725896e+00	 1.005689264347952e+01
0	 4.571425771410667e+00	 6.857169568371616e+00	 1.005184320239660e+01
0	 4.571425771410667e+00	 7.000030005683426e+00	 1.004643766531191e+01
0	 4.571425771410667e+00	 7.142890476327776e+00	 1.004073842530497e+01
0	 4.714283958718594e+00	 5.714291269874074e+00	 1.008067694003705e+01
0	 4.714283958718593e+00	 5.857150240517928e+00	 1.007945034205324e+01
0	 4.714283958718593e+00	 6.000009511162683e+00	 1.007737592468846e+01
0	 4.714283958718593e+00	 6.142869048474791e+00	 1.007454437092147e+01
0	 4.714283958718595e+00	 6.285728819120714e+00	 1.007104636329870e+01
0	 4.714283958718593e+00	 6.428588789766899e+00	 1.006697258393422e+01
0	 4.714283958718593e+00	 6.571448927079810e+00	 1.006241371450970e+01
0	 4.714283958718593e+00	 6.714309197725897e+00	 1.005746043627449e+01
0	 4.714283958718592e+00	 6.857169568371615e+00	 1.005220343004556e+01
0	 4.714283958718592e+00	 7.000030005683425e+00	 1.004673337620745e+01
0	 4.714283958718593e+00	 7.142890476327778e+00	 1.004114095471239e+01
0	 4.857142012692742e+00	 5.714291269874074e+00	 1.008410728646004e+01
0	 4.857142012692742e+00	 5.857150240517928e+00	 1.008209782493169e+01
0	 4.857142012692741e+00	 6.000009511162681e+00	 1.007928487022853e+01
0	 4.857142012692742e+00	 6.142869048474791e+00	 1.007577816660848e+01
0	 4.857142012692742e+00	 6.285728819120712e+00	 1.007168745810167e+01
0	 4.857142012692741e+00	 6.428588789766898e+00	 1.006712248851044e+01
0	 4.857142012692742e+00	 6.571448927079811e+00	 1.006219300140929e+01
0	 4.857142012692742e+00	 6.714309197725896e+00	 1.005700874014495e+01
0	 4.857142012692742e+00	 6.857169568371615e+00	 1.005167944783628e+01
0	 4.857142012692742e+00	 7.000030005683425e+00	 1.004631486737430e+01
0	 4.857142012692741e+00	 7.142890476327777e+00	 1.004102474142221e+01
0	 5.000000000000001e+00	 5.714291269874074e+00	 1.008714002548838e+01
0	 5.000000000000001e+00	 5.857150240517929e+00	 1.008409461222032e+01
0	 5.000000000000000e+00	 6.000009511162681e+00	 1.008037143641742e+01
0	 5.000000000000003e+00	 6.142869048474791e+00	 1.007609007909681e+01
0	 5.000000000000001e+00	 6.285728819120711e+00	 1.007137012129671e+01
0	 5.000000000000001e+00	 6.428588789766900e+00	 1.006633114407633e+01
0	 5.000000000000002e+00	 6.571448927079808e+00	 1.006109272851593e+01
0	 5.000000000000001e+00	 6.714309197725897e+00	 1.005577445571671e+01
0	 5.000000000000002e+00	 6.857169568371615e+00	 1.005049590680092e+01
0	 5.000000000000000e+00	 7.000030005683426e+00	 1.004537666291174e+01
0	 5.000000000000001e+00	 7.142890476327777e+00	 1.004053630521332e+01
0	 5.142857987307261e+00	 5.714291269874074e+00	 1.008959723884215e+01
0	 5.142857987307261e+00	 5.857150240517928e+00	 1.008537567832125e+01
0	 5.142857987307262e+00	 6.000009511162681e+00	 1.008066561249856e+01
0	 5.142857987307261e+00	 6.142869048474791e+00	 1.007558723478318e+01
0	 5.142857987307260e+00	 6.285728819120712e+00	 1.007026073887335e+01
0	 5.142857987307262e+00	 6.428588789766899e+00	 1.006480631875641e+01
0	 5.142857987307260e+00	 6.571448927079808e+00	 1.005934416870875e+01
0	 5.142857987307259e+00	 6.714309197725895e+00	 1.005399448329585e+01
0	 5.142857987307260e+00	 6.857169568371616e+00	 1.004887745737219e+01
0	 5.142857987307261e+00	 7.000030005683426e+00	 1.004411328608133e+01
0	 5.142857987307262e+00	 7.142890476327779e+00	 1.003982216485582e+01
0	 5.285716041281408e+00	 5.714291269874074e+00	 1.009130100886942e+01
0	 5.285716041281410e+00	 5.857150240517930e+00	 1.008587599841824e+01
0	 5.285716041281409e+00	 6.000009511162682e+00	 1.008019738851131e+01
0	 5.285716041281407e+00	 6.142869048474790e+00	 1.007437676076088e+01
0	 5.285716041281408e+00	 6.285728819120711e+00	 1.006852569733067e+01
0	 5.285716041281408e+00	 6.428588789766899e+00	 1.006275578093571e+01
0	 5.285716041281410e+00	 6.571448927079810e+00	 1.005717859484244e+01
0	 5.285716041281408e+00	 6.714309197725895e+00	 1.005190572286860e+01
0	 5.285716041281407e+00	 6.857169568371615e+00	 1.004704874938328e+01
0	 5.285716041281408e+00	 7.000030005683427e+00	 1.004271925930684e+01
0	 5.285716041281408e+00	 7.142890476327778e+00	 1.003902883811094e+01
0	 5.428574228589334e+00	 5.714291269874074e+00	 1.009207341854624e+01
0	 5.428574228589335e+00	 5.857150240517927e+00	 1.008553054847669e+01
0	 5.428574228589334e+00	 6.000009511162680e+00	 1.007899675529088e+01
0	 5.428574228589333e+00	 6.142869048474791e+00	 1.007256578481978e+01
0	 5.428574228589336e+00	 6.285728819120713e+00	 1.006633138367719e+01
0	 5.428574228589334e+00	 6.428588789766899e+00	 1.006038729925982e+01
0	 5.428574228589334e+00	 6.571448927079808e+00	 1.005482727974716e+01
0	 5.428574228589335e+00	 6.714309197725897e+00	 1.004974507410150e+01
0	 5.428574228589335e+00	 6.857169568371616e+00	 1.004523443206794e+01
0	 5.428574228589335e+00	 7.000030005683426e+00	 1.004138910417428e+01
0	 5.428574228589335e+00	 7.142890476327777e+00	 1.003830284173111e+01
0	 5.571432615897928e+00	 5.714291269874074e+00	 1.009173655147674e+01
0	 5.571432615897927e+00	 5.857150240517928e+00	 1.008427430524363e+01
0	 5.571432615897929e+00	 6.000009511162682e+00	 1.007709370446836e+01
0	 5.571432615897928e+00	 6.142869048474792e+00	 1.007026143544620e+01
0	 5.571432615897928e+00	 6.285728819120711e+00	 1.006384418543095e+01
0	 5.571432615897927e+00	 6.428588789766900e+00	 1.005790864263483e+01
0	 5.571432615897927e+00	 6.571448927079808e+00	 1.005252149622858e+01
0	 5.571432615897929e+00	 6.714309197725896e+00	 1.004774943634125e+01
0	 5.571432615897928e+00	 6.857169568371617e+00	 1.004365915406039e+01
0	 5.571432615897928e+00	 7.000030005683427e+00	 1.004031734143186e+01
0	 5.571432615897927e+00	 7.142890476327777e+00	 1.003779069145989e+01
0	 5.714291269874074e+00	 5.714291269874073e+00	 1.009011249189301e+01
0	 5.714291269874074e+00	 5.857150240517930e+00	 1.008204224624771e+01
0	 5.714291269874075e+00	 6.000009511162681e+00	 1.007451822847067e+01
0	 5.714291269874075e+00	 6.142869048474792e+00	 1.006757084182311e+01
0	 5.714291269874074e+00	 6.285728819120712e+00	 1.006123049061946e+01
0	 5.714291269874074e+00	 6.428588789766899e+00	 1.005552758022742e+01
0	 5.714291269874074e+00	 6.571448927079808e+00	 1.005049251706785e+01
0	 5.714291269874073e+00	 6.714309197725894e+00	 1.004615570861480e+01
0	 5.714291269874074e+00	 6.857169568371616e+00	 1.004254756339543e+01
0	 5.714291269874074e+00	 7.000030005683425e+00	 1.003969849099005e+01
0	 5.714291269874075e+00	 7.142890476327779e+00	 1.003763890203204e+01
0	 4.285708730125926e+00	 7.142890476327779e+00	 1.003779105423767e+01
0	 4.285708730125926e+00	 7.285740955271015e+00	 1.003265690898840e+01
0	 4.285708730125926e+00	 7.428591450879009e+00	 1.002802072958914e+01
0	 4.285708730125926e+00	 7.571441979817511e+00	 1.002387528519709e+01
0	 4.285708730125925e+00	 7.714292558752280e+00	 1.002021334452369e+01
0	 4.285708730125926e+00	 7.857143204349074e+00	 1.001702767583466e+01
0	 4.285708730125926e+00	 7.999993933273643e+00	 1.001431104695000e+01
0	 4.285708730125926e+00	 8.142844762191748e+00	 1.001205622524397e+01
0	 4.285708730125926e+00	 8.285695707769140e+00	 1.001025597764511e+01
0	 4.285708730125926e+00	 8.428546786671578e+00	 1.000890307063623e+01
0	 4.285708730125926e+00	 8.571398015564817e+00	 1.000799027025439e+01
0	 4.428567384102074e+00	 7.142890476327777e+00	 1.003967063241222e+01
0	 4.428567384102074e+00	 7.285740955271013e+00	 1.003422241963911e+01
0	 4.428567384102076e+00	 7.428591450879007e+00	 1.002938561098301e+01
0	 4.428567384102074e+00	 7.571441979817509e+00	 1.002512780017300e+01
0	 4.428567384102074e+00	 7.714292558752280e+00	 1.002141658051406e+01
0	 4.428567384102076e+00	 7.857143204349076e+00	 1.001821954488705e+01
0	 4.428567384102074e+00	 7.999993933273643e+00	 1.001550428574865e+01
0	 4.428567384102077e+00	 8.142844762191750e+00	 1.001323839513145e+01
0	 4.428567384102073e+00	 8.285695707769138e+00	 1.001138946464390e+01
0	 4.428567384102075e+00	 8.428546786671577e+00	 1.000992508547028e+01
0	 4.428567384102076e+00	 8.571398015564814e+00	 1.000881284837076e+01
0	 4.571425771410667e+00	 7.142890476327776e+00	 1.004073842530497e+01
0	 4.571425771410667e+00	 7.285740955271013e+00	 1.003526387531467e+01
0	 4.571425771410668e+00	 7.428591450879006e+00	 1.003045505281891e+01
0	 4.571425771410667e+00	 7.571441979817511e+00	 1.002625954028168e+01
0	 4.571425771410667e+00	 7.714292558752282e+00	 1.002262491978614e+01
0	 4.571425771410668e+00	 7.857143204349073e+00	 1.001949877303466e+01
0	 4.571425771410667e+00	 7.999993933273644e+00	 1.001682868134879e+01
0	 4.571425771410667e+00	 8.142844762191746e+00	 1.001456222566934e+01
0	 4.571425771410667e+00	 8.285695707769142e+00	 1.001264698655624e+01
0	 4.571425771410667e+00	 8.428546786671575e+00	 1.001103054418861e+01
0	 4.571425771410667e+00	 8.571398015564814e+00	 1.000966047836482e+01
0	 4.714283958718593e+00	 7.142890476327778e+00	 1.004114095471239e+01
0	 4.714283958718594e+00	 7.285740955271014e+00	 1.003587474765950e+01
0	 4.714283958718594e+00	 7.428591450879009e+00	 1.003127725391729e+01
0	 4.714283958718593e+00	 7.571441979817510e+00	 1.002728120891260e+01
0	 4.714283958718593e+00	 7.714292558752280e+00	 1.002381934775116e+01
0	 4.714283958718594e+00	 7.857143204349073e+00	 1.002082440521746e+01
0	 4.714283958718594e+00	 7.999993933273646e+00	 1.001822911577483e+01
0	 4.714283958718595e+00	 8.142844762191750e+00	 1.001596621356540e+01
0	 4.714283958718594e+00	 8.285695707769140e+00	 1.001396843241010e+01
0	 4.714283958718593e+00	 8.428546786671575e+00	 1.001216850580871e+01
0	 4.714283958718593e+00	 8.571398015564814e+00	 1.001049916693981e+01
0	 4.857142012692741e+00	 7.142890476327777e+00	 1.004102474142220e+01
0	 4.857142012692742e+00	 7.285740955271014e+00	 1.003614850722458e+01
0	 4.857142012692741e+00	 7.428591450879007e+00	 1.003190041199891e+01
0	 4.857142012692742e+00	 7.571441979817511e+00	 1.002820350841364e+01
0	 4.857142012692742e+00	 7.714292558752279e+00	 1.002498084888648e+01
0	 4.857142012692741e+00	 7.857143204349073e+00	 1.002215548558441e+01
0	 4.857142012692742e+00	 7.999993933273644e+00	 1.001965047042369e+01
0	 4.857142012692740e+00	 8.142844762191748e+00	 1.001738885506988e+01
0	 4.857142012692742e+00	 8.285695707769142e+00	 1.001529369093777e+01
0	 4.857142012692743e+00	 8.428546786671580e+00	 1.001328802919146e+01
0	 4.857142012692742e+00	 8.571398015564814e+00	 1.001129492074432e+01
0	 5.000000000000001e+00	 7.142890476327777e+00	 1.004053630521332e+01
0	 5.000000000000002e+00	 7.285740955271015e+00	 1.003617862346733e+01
0	 5.000000000000002e+00	 7.428591450879007e+00	 1.003237272368498e+01
0	 5.000000000000002e+00	 7.571441979817511e+00	 1.002903714009106e+01
0	 5.000000000000001e+00	 7.714292558752278e+00	 1.002609040673550e+01
0	 5.000000000000001e+00	 7.857143204349072e+00	 1.002345105749341e+01
0	 5.000000000000002e+00	 7.999993933273644e+00	 1.002103762606498e+01
0	 5.000000000000002e+00	 8.142844762191748e+00	 1.001876864597561e+01
0	 5.000000000000002e+00	 8.285695707769140e+00	 1.001656265057577e+01
0	 5.000000000000002e+00	 8.428546786671577e+00	 1.001433817304112e+01
0	 5.000000000000001e+00	 8.571398015564816e+00	 1.001201374637240e+01
0	 5.142857987307262e+00	 7.142890476327779e+00	 1.003982216485581e+01
0	 5.142857987307260e+00	 7.285740955271015e+00	 1.003605856475169e+01
0	 5.142857987307259e+00	 7.428591450879007e+00	 1.003274238449701e+01
0	 5.142857987307263e+00	 7.571441979817512e+00	 1.002979280420944e+01
0	 5.142857987307263e+00	 7.714292558752282e+00	 1.002712900390766e+01
0	 5.142857987307262e+00	 7.857143204349072e+00	 1.002467016351125e+01
0	 5.142857987307263e+00	 7.999993933273645e+00	 1.002233546284082e+01
0	 5.142857987307259e+00	 8.142844762191746e+00	 1.002004408161786e+01
0	 5.142857987307263e+00	 8.285695707769143e+00	 1.001771519946488e+01
0	 5.142857987307262e+00	 8.428546786671577e+00	 1.001526799590529e+01
0	 5.142857987307261e+00	 8.571398015564816e+00	 1.001262165036351e+01
0	 5.285716041281408e+00	 7.142890476327778e+00	 1.003902883811094e+01
0	 5.285716041281409e+00	 7.285740955271016e+00	 1.003588179834802e+01
0	 5.285716041281409e+00	 7.428591450879009e+00	 1.003305758885685e+01
0	 5.285716041281408e+00	 7.571441979817509e+00	 1.003048119999177e+01
0	 5.285716041281408e+00	 7.714292558752281e+00	 1.002807762207843e+01
0	 5.285716041281409e+00	 7.857143204349073e+00	 1.002577184541372e+01
0	 5.285716041281407e+00	 7.999993933273641e+00	 1.002348886026588e+01
0	 5.285716041281409e+00	 8.142844762191746e+00	 1.002115365687441e+01
0	 5.285716041281407e+00	 8.285695707769140e+00	 1.001869122545009e+01
0	 5.285716041281408e+00	 8.428546786671578e+00	 1.001602655617499e+01
0	 5.285716041281408e+00	 8.571398015564816e+00	 1.001308463920248e+01
0	 5.428574228589335e+00	 7.142890476327777e+00	 1.003830284173111e+01
0	 5.428574228589336e+00	 7.285740955271014e+00	 1.003574179043312e+01
0	 5.428574228589335e+00	 7.428591450879006e+00	 1.003336653008669e+01
0	 5.428574228589335e+00	 7.571441979817511e+00	 1.003111302561933e+01
0	 5.428574228589334e+00	 7.714292558752281e+00	 1.002891724198928e+01
0	 5.428574228589334e+00	 7.857143204349074e+00	 1.002671514418543e+01
0	 5.428574228589335e+00	 7.999993933273645e+00	 1.002444269722741e+01
0	 5.428574228589335e+00	 8.142844762191750e+00	 1.002203586616548e+01
0	 5.428574228589336e+00	 8.285695707769143e+00	 1.001943061608064e+01
0	 5.428574228589336e+00	 8.428546786671577e+00	 1.001656291208454e+01
0	 5.428574228589335e+00	 8.571398015564814e+00	 1.001336871931952e+01
0	 5.571432615897927e+00	 7.142890476327777e+00	 1.003779069145989e+01
0	 5.571432615897928e+00	 7.285740955271014e+00	 1.003573200609030e+01
0	 5.571432615897928e+00	 7.428591450879005e+00	 1.003371740040906e+01
0	 5.571432615897929e+00	 7.571441979817512e+00	 1.003169897823177e+01
0	 5.571432615897927e+00	 7.714292558752282e+00	 1.002962884344772e+01
0	 5.571432615897927e+00	 7.857143204349073e+00	 1.002745910001994e+01
0	 5.571432615897929e+00	 7.999993933273644e+00	 1.002514185198513e+01
0	 5.571432615897929e+00	 8.142844762191748e+00	 1.002262920345377e+01
0	 5.571432615897928e+00	 8.285695707769140e+00	 1.001987325860998e+01
0	 5.571432615897930e+00	 8.428546786671580e+00	 1.001682612171161e+01
0	 5.571432615897927e+00	 8.571398015564814e+00	 1.001343989709022e+01
0	 5.714291269874075e+00	 7.142890476327779e+00	 1.003763890203205e+01
0	 5.714291269874074e+00	 7.285740955271013e+00	 1.003594590930929e+01
0	 5.714291269874074e+00	 7.428591450879007e+00	 1.003415839094684e+01
0	 5.714291269874074e+00	 7.571441979817511e+00	 1.003224975392709e+01
0	 5.714291269874074e+00	 7.714292558752280e+00	 1.003019340532730e+01
0	 5.714291269874073e+00	 7.857143204349073e+00	 1.002796275231969e+01
0	 5.714291269874073e+00	 7.999993933273643e+00	 1.002553120217140e+01
0	 5.714291269874075e+00	 8.142844762191750e+00	 1.002287216224443e+01
0	 5.714291269874074e+00	 8.285695707769142e+00	 1.001995903999575e+01
0	 5.714291269874074e+00	 8.428546786671575e+00	 1.001676524297720e+01
0	 5.714291269874074e+00	 8.571398015564814e+00	 1.001326417883551e+01
0	 4.285708730125926e+00	 8.571398015564817e+00	 1.000799027025439e+01
0	 4.285708730125926e+00	 8.714259388995401e+00	 1.000725690796773e+01
0	 4.285708730125926e+00	 8.857120812436385e+00	 1.000646889694712e+01
0	 4.285708730125925e+00	 8.999982169218280e+00	 1.000565872988793e+01
0	 4.285708730125926e+00	 9.142843342671600e+00	 1.000485890005770e+01
0	 4.285708730125925e+00	 9.285704216126851e+00	 1.000410190129598e+01
0	 4.285708730125926e+00	 9.428564672914549e+00	 1.000342022801432e+01
0	 4.285708730125926e+00	 9.571424596365203e+00	 1.000284637519630e+01
0	 4.285708730125926e+00	 9.714283869809318e+00	 1.000241283839741e+01
0	 4.285708730125926e+00	 9.857142376577416e+00	 1.000215211374505e+01
0	 4.285708730125926e+00	 1.000000000000000e+01	 1.000209669793843e+01
0	 4.428567384102076e+00	 8.571398015564814e+00	 1.000881284837076e+01
0	 4.428567384102074e+00	 8.714259388995400e+00	 1.000784169059933e+01
0	 4.428567384102074e+00	 8.857120812436383e+00	 1.000684735907873e+01
0	 4.428567384102076e+00	 8.999982169218281e+00	 1.000586746070919e+01
0	 4.428567384102075e+00	 9.142843342671599e+00	 1.000493960349545e+01
0	 4.428567384102073e+00	 9.285704216126849e+00	 1.000410139654676e+01
0	 4.428567384102075e+00	 9.428564672914552e+00	 1.000339045007686e+01
0	 4.428567384102074e+00	 9.571424596365201e+00	 1.000284437540383e+01
0	 4.428567384102073e+00	 9.714283869809320e+00	 1.000250078495030e+01
0	 4.428567384102074e+00	 9.857142376577414e+00	 1.000239729224323e+01
0	 4.428567384102075e+00	 1.000000000000000e+01	 1.000257151191418e+01
0	 4.571425771410667e+00	 8.571398015564814e+00	 1.000966047836482e+01
0	 4.571425771410669e+00	 8.714259388995403e+00	 1.000839357173358e+01
0	 4.571425771410667e+00	 8.857120812436385e+00	 1.000714860729578e+01
0	 4.571425771410669e+00	 8.999982169218281e+00	 1.000596590078449e+01
0	 4.571425771410667e+00	 9.142843342671599e+00	 1.000488576955810e+01
0	 4.571425771410667e+00	 9.285704216126852e+00	 1.000394853260048e+01
0	 4.571425771410667e+00	 9.428564672914549e+00	 1.000319451052064e+01
0	 4.571425771410666e+00	 9.571424596365199e+00	 1.000266402555303e+01
0	 4.571425771410667e+00	 9.714283869809323e+00	 1.000239740155731e+01
0	 4.571425771410667e+00	 9.857142376577418e+00	 1.000243496401855e+01
0	 4.571425771410668e+00	 1.000000000000000e+01	 1.000281704004711e+01
0	 4.714283958718593e+00	 8.571398015564814e+00	 1.001049916693981e+01
0	 4.714283958718593e+00	 8.714259388995400e+00	 1.000889798077821e+01
0	 4.714283958718593e+00	 8.857120812436383e+00	 1.000737466314242e+01
0	 4.714283958718593e+00	 8.999982169218281e+00	 1.000596983325103e+01
0	 4.714283958718594e+00	 9.142843342671599e+00	 1.000472411244329e+01
0	 4.714283958718593e+00	 9.285704216126854e+00	 1.000367812417925e+01
0	 4.714283958718593e+00	 9.428564672914550e+00	 1.000287249403956e+01
0	 4.714283958718593e+00	 9.571424596365203e+00	 1.000234784972558e+01
0	 4.714283958718593e+00	 9.714283869809320e+00	 1.000214482105944e+01
0	 4.714283958718593e+00	 9.857142376577418e+00	 1.000230403998395e+01
0	 4.714283958718593e+00	 1.000000000000000e+01	 1.000286614056284e+01
0	 4.857142012692742e+00	 8.571398015564814e+00	 1.001129492074433e+01
0	 4.857142012692742e+00	 8.714259388995400e+00	 1.000934034714026e+01
0	 4.857142012692742e+00	 8.857120812436381e+00	 1.000752754817142e+01
0	 4.857142012692741e+00	 8.999982169218280e+00	 1.000589504122579e+01
0	 4.857142012692742e+00	 9.142843342671602e+00	 1.000448134626811e+01
0	 4.857142012692742e+00	 9.285704216126852e+00	 1.000332498583988e+01
0	 4.857142012692743e+00	 9.428564672914552e+00	 1.000246448505927e+01
0	 4.857142012692742e+00	 9.571424596365203e+00	 1.000193837162119e+01
0	 4.857142012692742e+00	 9.714283869809323e+00	 1.000178517579733e+01
0	 4.857142012692742e+00	 9.857142376577418e+00	 1.000204343043627e+01
0	 4.857142012692742e+00	 1.000000000000000e+01	 1.000275167096353e+01
0	 5.000000000000001e+00	 8.571398015564816e+00	 1.001201374637240e+01
0	 4.999999999999998e+00	 8.714259388995396e+00	 1.000970610022626e+01
0	 5.000000000000002e+00	 8.857120812436385e+00	 1.000760928394416e+01
0	 4.999999999999999e+00	 8.999982169218281e+00	 1.000575730780544e+01
0	 5.000000000000001e+00	 9.142843342671602e+00	 1.000418418506915e+01
0	 5.000000000000001e+00	 9.285704216126854e+00	 1.000292393197377e+01
0	 5.000000000000001e+00	 9.428564672914552e+00	 1.000201056773733e+01
0	 5.000000000000001e+00	 9.571424596365205e+00	 1.000147811455744e+01
0	 5.000000000000001e+00	 9.714283869809320e+00	 1.000136059761130e+01
0	 5.000000000000002e+00	 9.857142376577420e+00	 1.000169204505587e+01
0	 5.000000000000002e+00	 1.000000000000000e+01	 1.000250648802799e+01
0	 5.142857987307261e+00	 8.571398015564816e+00	 1.001262165036351e+01
0	 5.142857987307261e+00	 8.714259388995400e+00	 1.000998066944218e+01
0	 5.142857987307260e+00	 8.857120812436383e+00	 1.000762189203065e+01
0	 5.142857987307260e+00	 8.999982169218280e+00	 1.000557241606645e+01
0	 5.142857987307260e+00	 9.142843342671599e+00	 1.000385934280250e+01
0	 5.142857987307262e+00	 9.285704216126854e+00	 1.000250977680693e+01
0	 5.142857987307260e+00	 9.428564672914549e+00	 1.000155082596317e+01
0	 5.142857987307261e+00	 9.571424596365203e+00	 1.000100960146990e+01
0	 5.142857987307260e+00	 9.714283869809320e+00	 1.000091321784128e+01
0	 5.142857987307260e+00	 9.857142376577416e+00	 1.000128879290691e+01
0	 5.142857987307262e+00	 1.000000000000000e+01	 1.000216344781192e+01
0	 5.285716041281408e+00	 8.571398015564816e+00	 1.001308463920248e+01
0	 5.285716041281408e+00	 8.714259388995400e+00	 1.001014948419338e+01
0	 5.285716041281407e+00	 8.857120812436383e+00	 1.000756739400948e+01
0	 5.285716041281409e+00	 8.999982169218283e+00	 1.000535614906486e+01
0	 5.285716041281410e+00	 9.142843342671597e+00	 1.000353353334361e+01
0	 5.285716041281408e+00	 9.285704216126849e+00	 1.000211733439991e+01
0	 5.285716041281409e+00	 9.428564672914549e+00	 1.000112534335798e+01
0	 5.285716041281408e+00	 9.571424596365201e+00	 1.000057535491210e+01
0	 5.285716041281410e+00	 9.714283869809321e+00	 1.000048516732677e+01
0	 5.285716041281408e+00	 9.857142376577418e+00	 1.000087258243676e+01
0	 5.285716041281409e+00	 1.000000000000000e+01	 1.000175540564744e+01
0	 5.428574228589335e+00	 8.571398015564814e+00	 1.001336871931952e+01
0	 5.428574228589334e+00	 8.714259388995400e+00	 1.001019797388456e+01
0	 5.428574228589335e+00	 8.857120812436387e+00	 1.000744781146787e+01
0	 5.428574228589335e+00	 8.999982169218283e+00	 1.000512428983648e+01
0	 5.428574228589336e+00	 9.142843342671602e+00	 1.000323347048744e+01
0	 5.428574228589333e+00	 9.285704216126852e+00	 1.000178141864785e+01
0	 5.428574228589335e+00	 9.428564672914547e+00	 1.000077420327479e+01
0	 5.428574228589335e+00	 9.571424596365203e+00	 1.000021789705535e+01
0	 5.428574228589336e+00	 9.714283869809323e+00	 1.000011857640684e+01
0	 5.428574228589334e+00	 9.857142376577416e+00	 1.000048232147682e+01
0	 5.428574228589335e+00	 1.000000000000000e+01	 1.000131521614331e+01
0	 5.571432615897927e+00	 8.571398015564814e+00	 1.001343989709023e+01
0	 5.571432615897930e+00	 8.714259388995401e+00	 1.001011156791989e+01
0	 5.571432615897929e+00	 8.857120812436385e+00	 1.000726516600157e+01
0	 5.571432615897928e+00	 8.999982169218281e+00	 1.000489262139679e+01
0	 5.571432615897929e+00	 9.142843342671600e+00	 1.000298586794837e+01
0	 5.571432615897927e+00	 9.285704216126851e+00	 1.000153684328044e+01
0	 5.571432615897928e+00	 9.428564672914549e+00	 1.000053748879841e+01
0	 5.571432615897927e+00	 9.571424596365201e+00	 9.999979749688917e+00
0	 5.571432615897927e+00	 9.714283869809320e+00	 9.999855574920154e+00
0	 5.571432615897928e+00	 9.857142376577416e+00	 1.000015691724173e+01
0	 5.571432615897928e+00	 1.000000000000000e+01	 1.000087573318507e+01
0	 5.714291269874074e+00	 8.571398015564814e+00	 1.001326417883551e+01
0	 5.714291269874074e+00	 8.714259388995403e+00	 1.000987569570285e+01
0	 5.714291269874074e+00	 8.857120812436385e+00	 1.000702147921487e+01
0	 5.714291269874075e+00	 8.999982169218283e+00	 1.000467692674086e+01
0	 5.714291269874074e+00	 9.142843342671599e+00	 1.000281743936012e+01
0	 5.714291269874074e+00	 9.285704216126854e+00	 1.000141842186189e+01
0	 5.714291269874074e+00	 9.428564672914547e+00	 1.000045528274542e+01
0	 5.714291269874074e+00	 9.571424596365199e+00	 9.999903434219963e+00
0	 5.714291269874074e+00	 9.714283869809320e+00	 9.999738292204885e+00
0	 5.714291269874074e+00	 9.857142376577416e+00	 9.999935276329799e+00
0	 5.714291269874075e+00	 1.000000000000000e+01	 1.000046980993481e+01
0	 5.714291269874075e+00	 0.000000000000000e+00	 1.016109552752381e+01
0	 5.714291269874074e+00	 1.428576234225853e-01	 1.014063106144336e+01
0	 5.714291269874074e+00	 2.857161301906819e-01	 1.012281460210205e+01
0	 5.714291269874074e+00	 4.285754036348008e-01	 1.010805104958524e+01
0	 5.714291269874074e+00	 5.714353270854531e-01	 1.009674533318379e+01
0	 5.714291269874074e+00	 7.142957838731496e-01	 1.008930241139228e+01
0	 5.714291269874074e+00	 8.571566573284018e-01	 1.008612727190753e+01
0	 5.714291269874075e+00	 1.000017830781720e+00	 1.008762493162739e+01
0	 5.714291269874074e+00	 1.142879187563616e+00	 1.009420043665008e+01
0	 5.714291269874074e+00	 1.285740611004601e+00	 1.010625886227369e+01
0	 5.714291269874074e+00	 1.428601984435185e+00	 1.012420531299620e+01
0	 5.857150240517928e+00	 0.000000000000000e+00	 1.018163094199424e+01
0	 5.857150240517929e+00	 1.428576234225853e-01	 1.015294999369954e+01
0	 5.857150240517928e+00	 2.857161301906819e-01	 1.012847253767639e+01
0	 5.857150240517929e+00	 4.285754036348008e-01	 1.010848575909632e+01
0	 5.857150240517927e+00	 5.714353270854531e-01	 1.009327687559853e+01
0	 5.857150240517928e+00	 7.142957838731497e-01	 1.008313313728787e+01
0	 5.857150240517927e+00	 8.571566573284017e-01	 1.007834182673316e+01
0	 5.857150240517929e+00	 1.000017830781720e+00	 1.007919025896597e+01
0	 5.857150240517929e+00	 1.142879187563616e+00	 1.008596578147969e+01
0	 5.857150240517927e+00	 1.285740611004601e+00	 1.009895577422914e+01
0	 5.857150240517928e+00	 1.428601984435185e+00	 1.011844764963048e+01
0	 6.000009511162681e+00	 0.000000000000000e+00	 1.018973709647897e+01
0	 6.000009511162682e+00	 1.428576234225853e-01	 1.015762416419379e+01
0	 6.000009511162683e+00	 2.857161301906819e-01	 1.013047268042517e+01
0	 6.000009511162681e+00	 4.285754036348007e-01	 1.010846763456671e+01
0	 6.000009511162681e+00	 5.714353270854531e-01	 1.009179404839290e+01
0	 6.000009511162681e+00	 7.142957838731496e-01	 1.008063697605704e+01
0	 6.000009511162681e+00	 8.571566573284016e-01	 1.007518150408970e+01
0	 6.000009511162683e+00	 1.000017830781720e+00	 1.007561275139732e+01
0	 6.000009511162682e+00	 1.142879187563616e+00	 1.008211586926145e+01
0	 6.000009511162683e+00	 1.285740611004601e+00	 1.009487604133828e+01
0	 6.000009511162681e+00	 1.428601984435185e+00	 1.011407848365858e+01
0	 6.142869048474791e+00	 0.000000000000000e+00	 1.018723042984487e+01
0	 6.142869048474794e+00	 1.428576234225853e-01	 1.015566249733462e+01
0	 6.142869048474791e+00	 2.857161301906820e-01	 1.012914658625298e+01
0	 6.142869048474790e+00	 4.285754036348006e-01	 1.010778100527346e+01
0	 6.142869048474794e+00	 5.714353270854531e-01	 1.009166409265251e+01
0	 6.142869048474791e+00	 7.142957838731496e-01	 1.008089421622765e+01
0	 6.142869048474792e+00	 8.571566573284016e-01	 1.007556977341586e+01
0	 6.142869048474791e+00	 1.000017830781720e+00	 1.007578919121264e+01
0	 6.142869048474790e+00	 1.142879187563616e+00	 1.008165092619106e+01
0	 6.142869048474791e+00	 1.285740611004601e+00	 1.009325346450148e+01
0	 6.142869048474790e+00	 1.428601984435185e+00	 1.011069532187143e+01
0	 6.285728819120711e+00	 0.000000000000000e+00	 1.017592737569969e+01
0	 6.285728819120713e+00	 1.428576234225853e-01	 1.014807391313652e+01
0	 6.285728819120713e+00	 2.857161301906819e-01	 1.012482580737565e+01
0	 6.285728819120711e+00	 4.285754036348006e-01	 1.010621019737209e+01
0	 6.285728819120711e+00	 5.714353270854530e-01	 1.009225424679234e+01
0	 6.285728819120712e+00	 7.142957838731496e-01	 1.008298514401286e+01
0	 6.285728819120711e+00	 8.571566573284014e-01	 1.007843010211888e+01
0	 6.285728819120711e+00	 1.000017830781720e+00	 1.007861635890340e+01
0	 6.285728819120713e+00	 1.142879187563616e+00	 1.008357117686668e+01
0	 6.285728819120712e+00	 1.285740611004601e+00	 1.009332184321581e+01
0	 6.285728819120711e+00	 1.428601984435185e+00	 1.010789566986475e+01
0	 6.428588789766900e+00	 0.000000000000000e+00	 1.015764436239224e+01
0	 6.428588789766902e+00	 1.428576234225852e-01	 1.013586732722006e+01
0	 6.428588789766899e+00	 2.857161301906818e-01	 1.011784189232047e+01
0	 6.428588789766901e+00	 4.285754036348008e-01	 1.010353953389674e+01
0	 6.428588789766900e+00	 5.714353270854532e-01	 1.009293174655666e+01
0	 6.428588789766898e+00	 7.142957838731496e-01	 1.008599004331137e+01
0	 6.428588789766899e+00	 8.571566573284016e-01	 1.008268595557446e+01
0	 6.428588789766901e+00	 1.000017830781720e+00	 1.008299103316138e+01
0	 6.428588789766899e+00	 1.142879187563616e+00	 1.008687684428894e+01
0	 6.428588789766900e+00	 1.285740611004601e+00	 1.009431497557512e+01
0	 6.428588789766899e+00	 1.428601984435185e+00	 1.010527703203911e+01
0	 6.571448927079809e+00	 0.000000000000000e+00	 1.013419781301241e+01
0	 6.571448927079809e+00	 1.428576234225853e-01	 1.012005165081204e+01
0	 6.571448927079806e+00	 2.857161301906818e-01	 1.010852638592612e+01
0	 6.571448927079808e+00	 4.285754036348006e-01	 1.009955333476014e+01
0	 6.571448927079811e+00	 5.714353270854532e-01	 1.009306382501920e+01
0	 6.571448927079810e+00	 7.142957838731497e-01	 1.008898919570730e+01
0	 6.571448927079809e+00	 8.571566573284015e-01	 1.008726079712695e+01
0	 6.571448927079808e+00	 1.000017830781720e+00	 1.008780999087870e+01
0	 6.571448927079809e+00	 1.142879187563616e+00	 1.009056814986100e+01
0	 6.571448927079810e+00	 1.285740611004601e+00	 1.009546665827005e+01
0	 6.571448927079810e+00	 1.428601984435185e+00	 1.010243691159989e+01
0	 6.714309197725897e+00	 0.000000000000000e+00	 1.010740414539134e+01
0	 6.714309197725896e+00	 1.428576234225853e-01	 1.010163579074549e+01
0	 6.714309197725897e+00	 2.857161301906819e-01	 1.009721082934285e+01
0	 6.714309197725896e+00	 4.285754036348007e-01	 1.009403591675373e+01
0	 6.714309197725898e+00	 5.714353270854532e-01	 1.009201771258310e+01
0	 6.714309197725896e+00	 7.142957838731497e-01	 1.009106288047034e+01
0	 6.714309197725896e+00	 8.571566573284016e-01	 1.009107808808925e+01
0	 6.714309197725894e+00	 1.000017830781720e+00	 1.009197000714787e+01
0	 6.714309197725894e+00	 1.142879187563616e+00	 1.009364531338858e+01
0	 6.714309197725896e+00	 1.285740611004601e+00	 1.009601068658804e+01
0	 6.714309197725896e+00	 1.428601984435185e+00	 1.009897281055736e+01
0	 6.857169568371615e+00	 0.000000000000000e+00	 1.007907977210139e+01
0	 6.857169568371616e+00	 1.428576234225852e-01	 1.008162864945973e+01
0	 6.857169568371617e+00	 2.857161301906819e-01	 1.008422676003241e+01
0	 6.857169568371618e+00	 4.285754036348009e-01	 1.008677159354764e+01
0	 6.857169568371616e+00	 5.714353270854531e-01	 1.008916063698100e+01
0	 6.857169568371617e+00	 7.142957838731497e-01	 1.009129137455571e+01
0	 6.857169568371617e+00	 8.571566573284020e-01	 1.009306128774290e+01
0	 6.857169568371617e+00	 1.000017830781720e+00	 1.009436785526179e+01
0	 6.857169568371617e+00	 1.142879187563616e+00	 1.009510855307995e+01
0	 6.857169568371617e+00	 1.285740611004601e+00	 1.009518085441336e+01
0	 6.857169568371617e+00	 1.428601984435185e+00	 1.009448222972665e+01
0	 7.000030005683427e+00	 0.000000000000000e+00	 1.005104110045626e+01
0	 7.000030005683426e+00	 1.428576234225853e-01	 1.006103912500046e+01
0	 7.000030005683428e+00	 2.857161301906820e-01	 1.006990571176818e+01
0	 7.000030005683426e+00	 4.285754036348007e-01	 1.007754467569075e+01
0	 7.000030005683425e+00	 5.714353270854531e-01	 1.008385982327507e+01
0	 7.000030005683426e+00	 7.142957838731495e-01	 1.008875495260422e+01
0	 7.000030005683427e+00	 8.571566573284017e-01	 1.009213385333809e+01
0	 7.000030005683428e+00	 1.000017830781720e+00	 1.009390030671377e+01
0	 7.000030005683427e+00	 1.142879187563616e+00	 1.009395808554595e+01
0	 7.000030005683427e+00	 1.285740611004601e+00	 1.009221095422713e+01
0	 7.000030005683427e+00	 1.428601984435185e+00	 1.008856266872780e+01
0	 7.142890476327777e+00	 0.000000000000000e+00	 1.002510453251098e+01
0	 7.142890476327779e+00	 1.428576234225852e-01	 1.004087611101970e+01
0	 7.142890476327778e+00	 2.857161301906819e-01	 1.005457921463512e+01
0	 7.142890476327778e+00	 4.285754036348008e-01	 1.006613947061070e+01
0	 7.142890476327778e+00	 5.714353270854531e-01	 1.007548249385694e+01
0	 7.142890476327776e+00	 7.142957838731497e-01	 1.008253388694223e+01
0	 7.142890476327779e+00	 8.571566573284016e-01	 1.008721924009364e+01
0	 7.142890476327779e+00	 1.000017830781720e+00	 1.008946413119754e+01
0	 7.142890476327778e+00	 1.142879187563616e+00	 1.008919412580004e+01
0	 7.142890476327779e+00	 1.285740611004601e+00	 1.008633477710730e+01
0	 7.142890476327779e+00	 1.428601984435185e+00	 1.008081162598573e+01
0	 5.714291269874074e+00	 1.428601984435185e+00	 1.012420531299620e+01
0	 5.714291269874074e+00	 1.571453213328422e+00	 1.014371171069404e+01
0	 5.714291269874076e+00	 1.714304292230859e+00	 1.016015478824347e+01
0	 5.714291269874074e+00	 1.857155237808252e+00	 1.017349247503576e+01
0	 5.714291269874074e+00	 2.000006066726355e+00	 1.018368270281060e+01
0	 5.714291269874074e+00	 2.142856795650926e+00	 1.019068340565624e+01
0	 5.714291269874074e+00	 2.285707441247718e+00	 1.019445252000948e+01
0	 5.714291269874074e+00	 2.428558020182487e+00	 1.019494798465562e+01
0	 5.714291269874074e+00	 2.571408549120992e+00	 1.019212774072856e+01
0	 5.714291269874075e+00	 2.714259044728984e+00	 1.018594973171079e+01
0	 5.714291269874074e+00	 2.857109523672222e+00	 1.017637190343336e+01
0	 5.857150240517928e+00	 1.428601984435185e+00	 1.011844764963048e+01
0	 5.857150240517929e+00	 1.571453213328422e+00	 1.013947123688941e+01
0	 5.857150240517927e+00	 1.714304292230859e+00	 1.015687331169010e+01
0	 5.857150240517927e+00	 1.857155237808252e+00	 1.017066193648821e+01
0	 5.857150240517927e+00	 2.000006066726355e+00	 1.018084517639507e+01
0	 5.857150240517929e+00	 2.142856795650925e+00	 1.018743109917774e+01
0	 5.857150240517928e+00	 2.285707441247718e+00	 1.019042777525906e+01
0	 5.857150240517927e+00	 2.428558020182488e+00	 1.018984327771764e+01
0	 5.857150240517928e+00	 2.571408549120992e+00	 1.018568568228789e+01
0	 5.857150240517927e+00	 2.714259044728984e+00	 1.017796306736003e+01
0	 5.857150240517928e+00	 2.857109523672222e+00	 1.016668351398011e+01
0	 6.000009511162681e+00	 1.428601984435185e+00	 1.011407848365858e+01
0	 6.000009511162683e+00	 1.571453213328422e+00	 1.013465838003530e+01
0	 6.000009511162681e+00	 1.714304292230859e+00	 1.015146362186815e+01
0	 6.000009511162681e+00	 1.857155237808251e+00	 1.016454379104374e+01
0	 6.000009511162683e+00	 2.000006066726355e+00	 1.017394847213978e+01
0	 6.000009511162681e+00	 2.142856795650925e+00	 1.017972725242516e+01
0	 6.000009511162681e+00	 2.285707441247718e+00	 1.018192972185986e+01
0	 6.000009511162683e+00	 2.428558020182489e+00	 1.018060547309512e+01
0	 6.000009511162679e+00	 2.571408549120991e+00	 1.017580410147333e+01
0	 6.000009511162684e+00	 2.714259044728985e+00	 1.016757520502815e+01
0	 6.000009511162683e+00	 2.857109523672223e+00	 1.015596838448442e+01
0	 6.142869048474790e+00	 1.428601984435185e+00	 1.011069532187143e+01
0	 6.142869048474792e+00	 1.571453213328422e+00	 1.012926369386708e+01
0	 6.142869048474791e+00	 1.714304292230859e+00	 1.014423792964195e+01
0	 6.142869048474791e+00	 1.857155237808251e+00	 1.015570051663556e+01
0	 6.142869048474789e+00	 2.000006066726355e+00	 1.016373394479214e+01
0	 6.142869048474789e+00	 2.142856795650924e+00	 1.016842070656059e+01
0	 6.142869048474792e+00	 2.285707441247718e+00	 1.016984329689454e+01
0	 6.142869048474791e+00	 2.428558020182489e+00	 1.016808421325236e+01
0	 6.142869048474792e+00	 2.571408549120992e+00	 1.016322595559720e+01
0	 6.142869048474791e+00	 2.714259044728984e+00	 1.015535102639694e+01
0	 6.142869048474790e+00	 2.857109523672222e+00	 1.014454193062429e+01
0	 6.285728819120711e+00	 1.428601984435185e+00	 1.010789566986476e+01
0	 6.285728819120711e+00	 1.571453213328422e+00	 1.012327773116281e+01
0	 6.285728819120711e+00	 1.714304292230859e+00	 1.013550844517986e+01
0	 6.285728819120710e+00	 1.857155237808251e+00	 1.014469459077365e+01
0	 6.285728819120709e+00	 2.000006066726355e+00	 1.015094294894825e+01
0	 6.285728819120712e+00	 2.142856795650926e+00	 1.015436030285413e+01
0	 6.285728819120713e+00	 2.285707441247718e+00	 1.015505343778817e+01
0	 6.285728819120712e+00	 2.428558020182488e+00	 1.015312914119365e+01
0	 6.285728819120711e+00	 2.571408549120992e+00	 1.014869420266032e+01
0	 6.285728819120712e+00	 2.714259044728986e+00	 1.014185541392433e+01
0	 6.285728819120711e+00	 2.857109523672221e+00	 1.013271956886832e+01
0	 6.428588789766899e+00	 1.428601984435185e+00	 1.010527703203912e+01
0	 6.428588789766900e+00	 1.571453213328422e+00	 1.011669104374328e+01
0	 6.428588789766901e+00	 1.714304292230859e+00	 1.012558737795434e+01
0	 6.428588789766897e+00	 1.857155237808251e+00	 1.013208849054473e+01
0	 6.428588789766899e+00	 2.000006066726355e+00	 1.013631683905298e+01
0	 6.428588789766899e+00	 2.142856795650925e+00	 1.013839488268383e+01
0	 6.428588789766899e+00	 2.285707441247719e+00	 1.013844508230819e+01
0	 6.428588789766899e+00	 2.428558020182488e+00	 1.013658990046314e+01
0	 6.428588789766899e+00	 2.571408549120992e+00	 1.013295180135198e+01
0	 6.428588789766899e+00	 2.714259044728984e+00	 1.012765325084425e+01
0	 6.428588789766899e+00	 2.857109523672222e+00	 1.012081671647566e+01
0	 6.571448927079810e+00	 1.428601984435185e+00	 1.010243691159989e+01
0	 6.571448927079809e+00	 1.571453213328422e+00	 1.010949418247203e+01
0	 6.571448927079809e+00	 1.714304292230859e+00	 1.011478693674189e+01
0	 6.571448927079810e+00	 1.857155237808251e+00	 1.011844469261228e+01
0	 6.571448927079809e+00	 2.000006066726356e+00	 1.012059696939997e+01
0	 6.571448927079809e+00	 2.142856795650925e+00	 1.012137328753574e+01
0	 6.571448927079810e+00	 2.285707441247718e+00	 1.012090316856442e+01
0	 6.571448927079807e+00	 2.428558020182488e+00	 1.011931613514486e+01
0	 6.571448927079809e+00	 2.571408549120992e+00	 1.011674171104996e+01
0	 6.571448927079809e+00	 2.714259044728984e+00	 1.011330942116667e+01
0	 6.571448927079808e+00	 2.857109523672222e+00	 1.010914879149598e+01
0	 6.714309197725896e+00	 1.428601984435185e+00	 1.009897281055737e+01
0	 6.714309197725897e+00	 1.571453213328422e+00	 1.010167769725536e+01
0	 6.714309197725897e+00	 1.714304292230859e+00	 1.010341932962311e+01
0	 6.714309197725897e+00	 1.857155237808251e+00	 1.010432567321657e+01
0	 6.714309197725896e+00	 2.000006066726356e+00	 1.010452469413157e+01
0	 6.714309197725894e+00	 2.142856795650924e+00	 1.010414435900385e+01
0	 6.714309197725896e+00	 2.285707441247718e+00	 1.010331263500907e+01
0	 6.714309197725896e+00	 2.428558020182489e+00	 1.010215748986279e+01
0	 6.714309197725897e+00	 2.571408549120992e+00	 1.010080689182051e+01
0	 6.714309197725897e+00	 2.714259044728984e+00	 1.009938880967763e+01
0	 6.714309197725895e+00	 2.857109523672222e+00	 1.009803121276951e+01
0	 6.857169568371617e+00	 1.428601984435185e+00	 1.009448222972665e+01
0	 6.857169568371617e+00	 1.571453213328422e+00	 1.009323213704234e+01
0	 6.857169568371618e+00	 1.714304292230860e+00	 1.009179676398268e+01
0	 6.857169568371618e+00	 1.857155237808252e+00	 1.009029390817462e+01
0	 6.857169568371617e+00	 2.000006066726356e+00	 1.008884136723893e+01
0	 6.857169568371615e+00	 2.142856795650925e+00	 1.008755693879016e+01
0	 6.857169568371617e+00	 2.285707441247718e+00	 1.008655842043672e+01
0	 6.857169568371617e+00	 2.428558020182488e+00	 1.008596360978077e+01
0	 6.857169568371617e+00	 2.571408549120992e+00	 1.008589030441832e+01
0	 6.857169568371615e+00	 2.714259044728984e+00	 1.008645630193919e+01
0	 6.857169568371615e+00	 2.857109523672222e+00	 1.008777939992700e+01
0	 7.000030005683427e+00	 1.428601984435185e+00	 1.008856266872780e+01
0	 7.000030005683425e+00	 1.571453213328422e+00	 1.008414804982485e+01
0	 7.000030005683426e+00	 1.714304292230859e+00	 1.008023144650940e+01
0	 7.000030005683426e+00	 1.857155237808251e+00	 1.007691187288024e+01
0	 7.000030005683427e+00	 2.000006066726356e+00	 1.007428834256192e+01
0	 7.000030005683424e+00	 2.142856795650925e+00	 1.007245986870465e+01
0	 7.000030005683424e+00	 2.285707441247717e+00	 1.007152546398432e+01
0	 7.000030005683427e+00	 2.428558020182488e+00	 1.007158414060253e+01
0	 7.000030005683426e+00	 2.571408549120992e+00	 1.007273491028657e+01
0	 7.000030005683425e+00	 2.714259044728984e+00	 1.007507678428942e+01
0	 7.000030005683426e+00	 2.857109523672222e+00	 1.007870877338972e+01
0	 7.142890476327779e+00	 1.428601984435185e+00	 1.008081162598573e+01
0	 7.142890476327779e+00	 1.571453213328422e+00	 1.007441598263755e+01
0	 7.142890476327778e+00	 1.714304292230859e+00	 1.006903558319617e+01
0	 7.142890476327777e+00	 1.857155237808251e+00	 1.006474204230406e+01
0	 7.142890476327778e+00	 2.000006066726356e+00	 1.006160697378924e+01
0	 7.142890476327777e+00	 2.142856795650926e+00	 1.005970199066526e+01
0	 7.142890476327775e+00	 2.285707441247718e+00	 1.005909870513122e+01
0	 7.142890476327777e+00	 2.428558020182488e+00	 1.005986872857173e+01
0	 7.142890476327778e+00	 2.571408549120992e+00	 1.006208367155691e+01
0	 7.142890476327778e+00	 2.714259044728984e+00	 1.006581514384245e+01
0	 7.142890476327779e+00	 2.857109523672222e+00	 1.007113475436951e+01
0	 5.714291269874074e+00	 2.857109523672222e+00	 1.017637190343336e+01
0	 5.714291269874075e+00	 2.999969994316577e+00	 1.016549409162575e+01
0	 5.714291269874075e+00	 3.142830431628385e+00	 1.015550374689560e+01
0	 5.714291269874075e+00	 3.285690802274106e+00	 1.014648786869703e+01
0	 5.714291269874073e+00	 3.428551072920192e+00	 1.013853345772618e+01
0	 5.714291269874074e+00	 3.571411210233103e+00	 1.013172751592125e+01
0	 5.714291269874074e+00	 3.714271180879289e+00	 1.012615704646244e+01
0	 5.714291269874074e+00	 3.857130951525209e+00	 1.012190905377204e+01
0	 5.714291269874074e+00	 3.999990488837320e+00	 1.011907054351436e+01
0	 5.714291269874074e+00	 4.142849759482075e+00	 1.011772852259578e+01
0	 5.714291269874074e+00	 4.285708730125924e+00	 1.011796999916478e+01
0	 5.857150240517928e+00	 2.857109523672222e+00	 1.016668351398011e+01
0	 5.857150240517927e+00	 2.999969994316575e+00	 1.015437235733511e+01
0	 5.857150240517926e+00	 3.142830431628385e+00	 1.014356364241327e+01
0	 5.857150240517926e+00	 3.285690802274106e+00	 1.013427577649911e+01
0	 5.857150240517928e+00	 3.428551072920193e+00	 1.012652716861138e+01
0	 5.857150240517929e+00	 3.571411210233103e+00	 1.012033622950310e+01
0	 5.857150240517929e+00	 3.714271180879289e+00	 1.011572137166159e+01
0	 5.857150240517929e+00	 3.857130951525211e+00	 1.011270100930840e+01
0	 5.857150240517927e+00	 3.999990488837320e+00	 1.011129355839943e+01
0	 5.857150240517927e+00	 4.142849759482075e+00	 1.011151743662485e+01
0	 5.857150240517928e+00	 4.285708730125926e+00	 1.011339106340922e+01
0	 6.000009511162683e+00	 2.857109523672223e+00	 1.015596838448442e+01
0	 6.000009511162682e+00	 2.999969994316577e+00	 1.014361029660748e+01
0	 6.000009511162681e+00	 3.142830431628386e+00	 1.013307094270309e+01
0	 6.000009511162683e+00	 3.285690802274106e+00	 1.012431215495112e+01
0	 6.000009511162683e+00	 3.428551072920194e+00	 1.011729576740808e+01
0	 6.000009511162681e+00	 3.571411210233103e+00	 1.011198361600717e+01
0	 6.000009511162682e+00	 3.714271180879289e+00	 1.010833753855823e+01
0	 6.000009511162682e+00	 3.857130951525211e+00	 1.010631937474782e+01
0	 6.000009511162682e+00	 3.999990488837320e+00	 1.010589096613917e+01
0	 6.000009511162682e+00	 4.142849759482076e+00	 1.010701415617222e+01
0	 6.000009511162682e+00	 4.285708730125925e+00	 1.010965079016373e+01
0	 6.142869048474790e+00	 2.857109523672222e+00	 1.014454193062429e+01
0	 6.142869048474791e+00	 2.999969994316576e+00	 1.013326106264235e+01
0	 6.142869048474791e+00	 3.142830431628385e+00	 1.012386237556433e+01
0	 6.142869048474791e+00	 3.285690802274106e+00	 1.011626314331594e+01
0	 6.142869048474791e+00	 3.428551072920193e+00	 1.011038064155631e+01
0	 6.142869048474791e+00	 3.571411210233102e+00	 1.010613214767798e+01
0	 6.142869048474792e+00	 3.714271180879290e+00	 1.010343494080689e+01
0	 6.142869048474790e+00	 3.857130951525209e+00	 1.010220630180237e+01
0	 6.142869048474791e+00	 3.999990488837320e+00	 1.010236351325728e+01
0	 6.142869048474791e+00	 4.142849759482075e+00	 1.010382385949784e+01
0	 6.142869048474794e+00	 4.285708730125926e+00	 1.010650462658382e+01
0	 6.285728819120711e+00	 2.857109523672221e+00	 1.013271956886832e+01
0	 6.285728819120712e+00	 2.999969994316575e+00	 1.012337780936398e+01
0	 6.285728819120711e+00	 3.142830431628386e+00	 1.011577466938687e+01
0	 6.285728819120713e+00	 3.285690802274106e+00	 1.010979488126141e+01
0	 6.285728819120712e+00	 3.428551072920192e+00	 1.010532317868070e+01
0	 6.285728819120712e+00	 3.571411210233103e+00	 1.010224429670652e+01
0	 6.285728819120711e+00	 3.714271180879289e+00	 1.010044297176926e+01
0	 6.285728819120711e+00	 3.857130951525210e+00	 1.009980394166802e+01
0	 6.285728819120712e+00	 3.999990488837320e+00	 1.010021194557057e+01
0	 6.285728819120714e+00	 4.142849759482074e+00	 1.010155172401336e+01
0	 6.285728819120711e+00	 4.285708730125926e+00	 1.010370801890161e+01
0	 6.428588789766899e+00	 2.857109523672222e+00	 1.012081671647566e+01
0	 6.428588789766899e+00	 2.999969994316576e+00	 1.011401369142138e+01
0	 6.428588789766899e+00	 3.142830431628386e+00	 1.010864455315119e+01
0	 6.428588789766899e+00	 3.285690802274106e+00	 1.010457350886032e+01
0	 6.428588789766899e+00	 3.428551072920194e+00	 1.010166476659054e+01
0	 6.428588789766899e+00	 3.571411210233103e+00	 1.009978253523024e+01
0	 6.428588789766901e+00	 3.714271180879290e+00	 1.009879102451439e+01
0	 6.428588789766899e+00	 3.857130951525210e+00	 1.009855444502455e+01
0	 6.428588789766899e+00	 3.999990488837320e+00	 1.009893700818890e+01
0	 6.428588789766899e+00	 4.142849759482074e+00	 1.009980292628224e+01
0	 6.428588789766899e+00	 4.285708730125926e+00	 1.010101641242594e+01
0	 6.571448927079808e+00	 2.857109523672222e+00	 1.010914879149598e+01
0	 6.571448927079810e+00	 2.999969994316576e+00	 1.010522186418821e+01
0	 6.571448927079809e+00	 3.142830431628385e+00	 1.010230875642835e+01
0	 6.571448927079806e+00	 3.285690802274105e+00	 1.010026516659038e+01
0	 6.571448927079810e+00	 3.428551072920194e+00	 1.009894679327972e+01
0	 6.571448927079809e+00	 3.571411210233103e+00	 1.009820933533307e+01
0	 6.571448927079810e+00	 3.714271180879289e+00	 1.009790849181856e+01
0	 6.571448927079809e+00	 3.857130951525211e+00	 1.009789996203569e+01
0	 6.571448927079809e+00	 3.999990488837319e+00	 1.009803944551532e+01
0	 6.571448927079806e+00	 4.142849759482074e+00	 1.009818264201968e+01
0	 6.571448927079809e+00	 4.285708730125926e+00	 1.009818525154240e+01
0	 6.714309197725895e+00	 2.857109523672222e+00	 1.009803121276951e+01
0	 6.714309197725894e+00	 2.999969994316575e+00	 1.009705548376292e+01
0	 6.714309197725896e+00	 3.142830431628385e+00	 1.009660400937996e+01
0	 6.714309197725896e+00	 3.285690802274106e+00	 1.009653599533430e+01
0	 6.714309197725896e+00	 3.428551072920194e+00	 1.009671064692677e+01
0	 6.714309197725896e+00	 3.571411210233102e+00	 1.009698716904539e+01
0	 6.714309197725898e+00	 3.714271180879290e+00	 1.009722476616537e+01
0	 6.714309197725895e+00	 3.857130951525210e+00	 1.009728264234904e+01
0	 6.714309197725896e+00	 3.999990488837321e+00	 1.009702000124595e+01
0	 6.714309197725896e+00	 4.142849759482075e+00	 1.009629604609275e+01
0	 6.714309197725895e+00	 4.285708730125925e+00	 1.009496997971330e+01
0	 6.857169568371615e+00	 2.857109523672222e+00	 1.008777939992700e+01
0	 6.857169568371616e+00	 2.999969994316576e+00	 1.008956770696862e+01
0	 6.857169568371617e+00	 3.142830431628385e+00	 1.009136704275822e+01
0	 6.857169568371618e+00	 3.285690802274106e+00	 1.009305213637963e+01
0	 6.857169568371616e+00	 3.428551072920193e+00	 1.009449771589488e+01
0	 6.857169568371617e+00	 3.571411210233103e+00	 1.009557850834411e+01
0	 6.857169568371617e+00	 3.714271180879290e+00	 1.009616923974570e+01
0	 6.857169568371615e+00	 3.857130951525210e+00	 1.009614463509613e+01
0	 6.857169568371616e+00	 3.999990488837320e+00	 1.009537941837008e+01
0	 6.857169568371615e+00	 4.142849759482074e+00	 1.009374831252030e+01
0	 6.857169568371617e+00	 4.285708730125926e+00	 1.009112603947768e+01
0	 7.000030005683426e+00	 2.857109523672222e+00	 1.007870877338972e+01
0	 7.000030005683426e+00	 2.999969994316576e+00	 1.008281169135314e+01
0	 7.000030005683424e+00	 3.142830431628385e+00	 1.008643458790590e+01
0	 7.000030005683427e+00	 3.285690802274106e+00	 1.008947973141895e+01
0	 7.000030005683424e+00	 3.428551072920192e+00	 1.009184938873184e+01
0	 7.000030005683426e+00	 3.571411210233103e+00	 1.009344582515260e+01
0	 7.000030005683426e+00	 3.714271180879290e+00	 1.009417130445777e+01
0	 7.000030005683427e+00	 3.857130951525211e+00	 1.009392808889245e+01
0	 7.000030005683425e+00	 3.999990488837320e+00	 1.009261843917019e+01
0	 7.000030005683428e+00	 4.142849759482075e+00	 1.009014461447302e+01
0	 7.000030005683426e+00	 4.285708730125926e+00	 1.008640887245140e+01
0	 7.142890476327779e+00	 2.857109523672222e+00	 1.007113475436951e+01
0	 7.142890476327778e+00	 2.999969994316576e+00	 1.007684059518906e+01
0	 7.142890476327778e+00	 3.142830431628385e+00	 1.008164337675634e+01
0	 7.142890476327780e+00	 3.285690802274106e+00	 1.008548492254977e+01
0	 7.142890476327778e+00	 3.428551072920193e+00	 1.008830705417015e+01
0	 7.142890476327777e+00	 3.571411210233102e+00	 1.009005159134069e+01
0	 7.142890476327779e+00	 3.714271180879290e+00	 1.009066035190710e+01
0	 7.142890476327779e+00	 3.857130951525211e+00	 1.009007515183734e+01
0	 7.142890476327780e+00	 3.999990488837321e+00	 1.008823780522188e+01
0	 7.142890476327779e+00	 4.142849759482075e+00	 1.008509012427343e+01
0	 7.142890476327779e+00	 4.285708730125926e+00	 1.008057391932706e+01
0	 5.714291269874074e+00	 4.285708730125924e+00	 1.011796999916478e+01
0	 5.714291269874074e+00	 4.428567384102074e+00	 1.011880039566668e+01
0	 5.714291269874074e+00	 4.571425771410667e+00	 1.011909913904541e+01
0	 5.714291269874073e+00	 4.714283958718594e+00	 1.011876424767615e+01
0	 5.714291269874074e+00	 4.857142012692742e+00	 1.011769374333044e+01
0	 5.714291269874074e+00	 5.000000000000001e+00	 1.011578565117612e+01
0	 5.714291269874076e+00	 5.142857987307261e+00	 1.011293799977742e+01
0	 5.714291269874075e+00	 5.285716041281409e+00	 1.010904882109486e+01
0	 5.714291269874074e+00	 5.428574228589336e+00	 1.010401615048525e+01
0	 5.714291269874074e+00	 5.571432615897928e+00	 1.009773802670160e+01
0	 5.714291269874074e+00	 5.714291269874073e+00	 1.009011249189301e+01
0	 5.857150240517928e+00	 4.285708730125926e+00	 1.011339106340922e+01
0	 5.857150240517928e+00	 4.428567384102073e+00	 1.011562867980544e+01
0	 5.857150240517927e+00	 4.571425771410666e+00	 1.011690393078432e+01
0	 5.857150240517929e+00	 4.714283958718593e+00	 1.011717434578136e+01
0	 5.857150240517928e+00	 4.857142012692742e+00	 1.011639745801001e+01
0	 5.857150240517930e+00	 5.000000000000003e+00	 1.011453080446157e+01
0	 5.857150240517927e+00	 5.142857987307260e+00	 1.011153192590537e+01
0	 5.857150240517932e+00	 5.285716041281410e+00	 1.010735836688860e+01
0	 5.857150240517927e+00	 5.428574228589336e+00	 1.010196767573634e+01
0	 5.857150240517928e+00	 5.571432615897928e+00	 1.009531740455149e+01
0	 5.857150240517929e+00	 5.714291269874074e+00	 1.008736510921465e+01
0	 6.000009511162682e+00	 4.285708730125925e+00	 1.010965079016373e+01
0	 6.000009511162682e+00	 4.428567384102074e+00	 1.011242555244125e+01
0	 6.000009511162682e+00	 4.571425771410667e+00	 1.011399309933839e+01
0	 6.000009511162682e+00	 4.714283958718594e+00	 1.011436023842096e+01
0	 6.000009511162682e+00	 4.857142012692741e+00	 1.011353378103138e+01
0	 6.000009511162683e+00	 5.000000000000001e+00	 1.011152054228862e+01
0	 6.000009511162683e+00	 5.142857987307261e+00	 1.010832734108835e+01
0	 6.000009511162681e+00	 5.285716041281409e+00	 1.010396100010279e+01
0	 6.000009511162681e+00	 5.428574228589334e+00	 1.009842834578081e+01
0	 6.000009511162681e+00	 5.571432615897929e+00	 1.009173620834772e+01
0	 6.000009511162681e+00	 5.714291269874075e+00	 1.008389142180528e+01
0	 6.142869048474794e+00	 4.285708730125926e+00	 1.010650462658382e+01
0	 6.142869048474791e+00	 4.428567384102073e+00	 1.010910649334834e+01
0	 6.142869048474792e+00	 4.571425771410668e+00	 1.011041584701515e+01
0	 6.142869048474791e+00	 4.714283958718593e+00	 1.011047854012959e+01
0	 6.142869048474791e+00	 4.857142012692742e+00	 1.010934042870302e+01
0	 6.142869048474792e+00	 5.000000000000002e+00	 1.010704737221288e+01
0	 6.142869048474789e+00	 5.142857987307260e+00	 1.010364523360270e+01
0	 6.142869048474792e+00	 5.285716041281408e+00	 1.009917987928209e+01
0	 6.142869048474790e+00	 5.428574228589335e+00	 1.009369717912669e+01
0	 6.142869048474792e+00	 5.571432615897928e+00	 1.008724300647811e+01
0	 6.142869048474792e+00	 5.714291269874074e+00	 1.007986323814388e+01
0	 6.285728819120711e+00	 4.285708730125926e+00	 1.010370801890161e+01
0	 6.285728819120713e+00	 4.428567384102074e+00	 1.010558698138044e+01
0	 6.285728819120711e+00	 4.571425771410667e+00	 1.010622137527322e+01
0	 6.285728819120715e+00	 4.714283958718593e+00	 1.010568586471898e+01
0	 6.285728819120711e+00	 4.857142012692742e+00	 1.010405511677663e+01
0	 6.285728819120712e+00	 5.000000000000002e+00	 1.010140380142512e+01
0	 6.285728819120712e+00	 5.142857987307261e+00	 1.009780659156332e+01
0	 6.285728819120713e+00	 5.285716041281409e+00	 1.009333816301012e+01
0	 6.285728819120713e+00	 5.428574228589335e+00	 1.008807319450428e+01
0	 6.285728819120711e+00	 5.571432615897927e+00	 1.008208636770448e+01
0	 6.285728819120712e+00	 5.714291269874074e+00	 1.007545236718919e+01
0	 6.428588789766899e+00	 4.285708730125926e+00	 1.010101641242594e+01
0	 6.428588789766899e+00	 4.428567384102074e+00	 1.010178249447082e+01
0	 6.428588789766900e+00	 4.571425771410667e+00	 1.010145888472235e+01
0	 6.428588789766899e+00	 4.714283958718592e+00	 1.010013882527801e+01
0	 6.428588789766898e+00	 4.857142012692741e+00	 1.009791556044720e+01
0	 6.428588789766899e+00	 5.000000000000001e+00	 1.009488233675128e+01
0	 6.428588789766899e+00	 5.142857987307261e+00	 1.009113240292361e+01
0	 6.428588789766899e+00	 5.285716041281408e+00	 1.008675900990947e+01
0	 6.428588789766899e+00	 5.428574228589335e+00	 1.008185541086607e+01
0	 6.428588789766899e+00	 5.571432615897927e+00	 1.007651486116255e+01
0	 6.428588789766900e+00	 5.714291269874074e+00	 1.007083061837978e+01
0	 6.571448927079809e+00	 4.285708730125926e+00	 1.009818525154240e+01
0	 6.571448927079809e+00	 4.428567384102075e+00	 1.009760850963228e+01
0	 6.571448927079810e+00	 4.571425771410667e+00	 1.009617757512341e+01
0	 6.571448927079809e+00	 4.714283958718594e+00	 1.009399403417277e+01
0	 6.571448927079809e+00	 4.857142012692742e+00	 1.009115947435300e+01
0	 6.571448927079809e+00	 5.000000000000002e+00	 1.008777548465251e+01
0	 6.571448927079808e+00	 5.142857987307260e+00	 1.008394365547547e+01
0	 6.571448927079810e+00	 5.285716041281410e+00	 1.007976557864172e+01
0	 6.571448927079808e+00	 5.428574228589335e+00	 1.007534284738681e+01
0	 6.571448927079809e+00	 5.571432615897927e+00	 1.007077705636196e+01
0	 6.571448927079809e+00	 5.714291269874074e+00	 1.006616980163395e+01
0	 6.714309197725895e+00	 4.285708730125925e+00	 1.009496997971330e+01
0	 6.714309197725896e+00	 4.428567384102075e+00	 1.009298050295719e+01
0	 6.714309197725894e+00	 4.571425771410667e+00	 1.009042664538845e+01
0	 6.714309197725896e+00	 4.714283958718593e+00	 1.008740810304645e+01
0	 6.714309197725896e+00	 4.857142012692742e+00	 1.008402457257555e+01
0	 6.714309197725895e+00	 5.000000000000001e+00	 1.008037575122510e+01
0	 6.714309197725896e+00	 5.142857987307261e+00	 1.007656133684934e+01
0	 6.714309197725895e+00	 5.285716041281407e+00	 1.007268102790744e+01
0	 6.714309197725896e+00	 5.428574228589335e+00	 1.006883452346345e+01
0	 6.714309197725896e+00	 5.571432615897926e+00	 1.006512152318634e+01
0	 6.714309197725894e+00	 5.714291269874073e+00	 1.006164172734982e+01
0	 6.857169568371617e+00	 4.285708730125926e+00	 1.009112603947768e+01
0	 6.857169568371615e+00	 4.428567384102073e+00	 1.008781394961756e+01
0	 6.857169568371617e+00	 4.571425771410668e+00	 1.008425529358066e+01
0	 6.857169568371617e+00	 4.714283958718593e+00	 1.008053764281946e+01
0	 6.857169568371617e+00	 4.857142012692742e+00	 1.007674856863975e+01
0	 6.857169568371617e+00	 5.000000000000001e+00	 1.007297564220056e+01
0	 6.857169568371615e+00	 5.142857987307259e+00	 1.006930643451418e+01
0	 6.857169568371615e+00	 5.285716041281408e+00	 1.006582851644617e+01
0	 6.857169568371616e+00	 5.428574228589336e+00	 1.006262945871519e+01
0	 6.857169568371619e+00	 5.571432615897930e+00	 1.005979683189321e+01
0	 6.857169568371618e+00	 5.714291269874074e+00	 1.005741820640525e+01
0	 7.000030005683426e+00	 4.285708730125926e+00	 1.008640887245140e+01
0	 7.000030005683424e+00	 4.428567384102076e+00	 1.008202432386493e+01
0	 7.000030005683427e+00	 4.571425771410667e+00	 1.007771271691446e+01
0	 7.000030005683426e+00	 4.714283958718593e+00	 1.007353926368944e+01
0	 7.000030005683426e+00	 4.857142012692742e+00	 1.006956917551374e+01
0	 7.000030005683427e+00	 5.000000000000002e+00	 1.006586766294558e+01
0	 7.000030005683426e+00	 5.142857987307261e+00	 1.006249993577751e+01
0	 7.000030005683426e+00	 5.285716041281407e+00	 1.005953120303641e+01
0	 7.000030005683424e+00	 5.428574228589335e+00	 1.005702667298344e+01
0	 7.000030005683427e+00	 5.571432615897928e+00	 1.005505155311403e+01
0	 7.000030005683426e+00	 5.714291269874074e+00	 1.005367105015788e+01
0	 7.142890476327779e+00	 4.285708730125926e+00	 1.008057391932706e+01
0	 7.142890476327776e+00	 4.428567384102074e+00	 1.007552709903048e+01
0	 7.142890476327778e+00	 4.571425771410667e+00	 1.007084811175542e+01
0	 7.142890476327777e+00	 4.714283958718592e+00	 1.006656957513119e+01
0	 7.142890476327779e+00	 4.857142012692742e+00	 1.006272410560904e+01
0	 7.142890476327777e+00	 5.000000000000001e+00	 1.005934431846209e+01
0	 7.142890476327778e+00	 5.142857987307261e+00	 1.005646282778538e+01
0	 7.142890476327778e+00	 5.285716041281409e+00	 1.005411224649574e+01
0	 7.142890476327777e+00	 5.428574228589334e+00	 1.005232518633186e+01
0	 7.142890476327777e+00	 5.571432615897927e+00	 1.005113425785422e+01
0	 7.142890476327778e+00	 5.714291269874073e+00	 1.005057207044513e+01
0	 5.714291269874074e+00	 5.714291269874073e+00	 1.009011249189301e+01
0	 5.714291269874074e+00	 5.857150240517930e+00	 1.008204224624771e+01
0	 5.714291269874075e+00	 6.000009511162681e+00	 1.007451822847067e+01
0	 5.714291269874075e+00	 6.142869048474792e+00	 1.006757084182311e+01
0	 5.714291269874074e+00	 6.285728819120712e+00	 1.006123049061946e+01
0	 5.714291269874074e+00	 6.428588789766899e+00	 1.005552758022742e+01
0	 5.714291269874074e+00	 6.571448927079808e+00	 1.005049251706785e+01
0	 5.714291269874073e+00	 6.714309197725894e+00	 1.004615570861480e+01
0	 5.714291269874074e+00	 6.857169568371616e+00	 1.004254756339543e+01
0	 5.714291269874074e+00	 7.000030005683425e+00	 1.003969849099005e+01
0	 5.714291269874075e+00	 7.142890476327779e+00	 1.003763890203204e+01
0	 5.857150240517929e+00	 5.714291269874074e+00	 1.008736510921465e+01
0	 5.857150240517927e+00	 5.857150240517928e+00	 1.007912362343039e+01
0	 5.857150240517927e+00	 6.000009511162682e+00	 1.007162936887885e+01
0	 5.857150240517927e+00	 6.142869048474792e+00	 1.006487528702425e+01
0	 5.857150240517929e+00	 6.285728819120712e+00	 1.005885432038025e+01
0	 5.857150240517929e+00	 6.428588789766900e+00	 1.005355941250992e+01
0	 5.857150240517926e+00	 6.571448927079809e+00	 1.004898350802575e+01
0	 5.857150240517927e+00	 6.714309197725898e+00	 1.004511955258952e+01
0	 5.857150240517929e+00	 6.857169568371616e+00	 1.004196049291241e+01
0	 5.857150240517928e+00	 7.000030005683427e+00	 1.003949927675482e+01
0	 5.857150240517928e+00	 7.142890476327779e+00	 1.003772885292649e+01
0	 6.000009511162681e+00	 5.714291269874075e+00	 1.008389142180528e+01
0	 6.000009511162682e+00	 5.857150240517926e+00	 1.007591015651528e+01
0	 6.000009511162683e+00	 6.000009511162682e+00	 1.006877892135320e+01
0	 6.000009511162680e+00	 6.142869048474790e+00	 1.006246006164277e+01
0	 6.000009511162682e+00	 6.285728819120712e+00	 1.005691592366637e+01
0	 6.000009511162681e+00	 6.428588789766899e+00	 1.005210885466513e+01
0	 6.000009511162682e+00	 6.571448927079808e+00	 1.004800120283884e+01
0	 6.000009511162682e+00	 6.714309197725895e+00	 1.004455531734590e+01
0	 6.000009511162681e+00	 6.857169568371617e+00	 1.004173354830333e+01
0	 6.000009511162682e+00	 7.000030005683427e+00	 1.003949824678680e+01
0	 6.000009511162683e+00	 7.142890476327777e+00	 1.003781176483051e+01
0	 6.142869048474792e+00	 5.714291269874074e+00	 1.007986323814388e+01
0	 6.142869048474791e+00	 5.857150240517928e+00	 1.007249052568742e+01
0	 6.142869048474792e+00	 6.000009511162682e+00	 1.006598601043281e+01
0	 6.142869048474790e+00	 6.142869048474791e+00	 1.006028830702793e+01
0	 6.142869048474792e+00	 6.285728819120711e+00	 1.005533603092078e+01
0	 6.142869048474791e+00	 6.428588789766899e+00	 1.005106779835941e+01
0	 6.142869048474790e+00	 6.571448927079809e+00	 1.004742222639197e+01
0	 6.142869048474791e+00	 6.714309197725896e+00	 1.004433793286660e+01
0	 6.142869048474791e+00	 6.857169568371615e+00	 1.004175353643148e+01
0	 6.142869048474793e+00	 7.000030005683427e+00	 1.003960765653476e+01
0	 6.142869048474791e+00	 7.142890476327777e+00	 1.003783891342460e+01
0	 6.285728819120712e+00	 5.714291269874074e+00	 1.007545236718919e+01
0	 6.285728819120714e+00	 5.857150240517929e+00	 1.006895341166137e+01
0	 6.285728819120712e+00	 6.000009511162681e+00	 1.006326976118525e+01
0	 6.285728819120713e+00	 6.142869048474793e+00	 1.005832316501558e+01
0	 6.285728819120712e+00	 6.285728819120711e+00	 1.005403537299966e+01
0	 6.285728819120711e+00	 6.428588789766899e+00	 1.005032813557733e+01
0	 6.285728819120712e+00	 6.571448927079810e+00	 1.004712320378104e+01
0	 6.285728819120712e+00	 6.714309197725895e+00	 1.004434232923570e+01
0	 6.285728819120713e+00	 6.857169568371617e+00	 1.004190726415878e+01
0	 6.285728819120711e+00	 7.000030005683425e+00	 1.003973976136021e+01
0	 6.285728819120710e+00	 7.142890476327774e+00	 1.003776157424241e+01
0	 6.428588789766900e+00	 5.714291269874074e+00	 1.007083061837978e+01
0	 6.428588789766901e+00	 5.857150240517928e+00	 1.006538749568103e+01
0	 6.428588789766900e+00	 6.000009511162681e+00	 1.006064929920657e+01
0	 6.428588789766900e+00	 6.142869048474791e+00	 1.005652777792808e+01
0	 6.428588789766899e+00	 6.285728819120711e+00	 1.005293468117247e+01
0	 6.428588789766897e+00	 6.428588789766898e+00	 1.004978175862172e+01
0	 6.428588789766899e+00	 6.571448927079810e+00	 1.004698076031301e+01
0	 6.428588789766899e+00	 6.714309197725896e+00	 1.004444343663861e+01
0	 6.428588789766899e+00	 6.857169568371616e+00	 1.004208153834593e+01
0	 6.428588789766900e+00	 7.000030005683428e+00	 1.003980681653745e+01
0	 6.428588789766899e+00	 7.142890476327778e+00	 1.003753102267074e+01
0	 6.571448927079809e+00	 5.714291269874074e+00	 1.006616980163395e+01
0	 6.571448927079807e+00	 5.857150240517928e+00	 1.006188145951977e+01
0	 6.571448927079808e+00	 6.000009511162682e+00	 1.005814375062126e+01
0	 6.571448927079809e+00	 6.142869048474791e+00	 1.005486528857438e+01
0	 6.571448927079809e+00	 6.285728819120713e+00	 1.005195468712193e+01
0	 6.571448927079809e+00	 6.428588789766900e+00	 1.004932056011360e+01
0	 6.571448927079807e+00	 6.571448927079806e+00	 1.004687152150587e+01
0	 6.571448927079808e+00	 6.714309197725895e+00	 1.004451618536206e+01
0	 6.571448927079810e+00	 6.857169568371617e+00	 1.004216316585230e+01
0	 6.571448927079808e+00	 7.000030005683424e+00	 1.003972107725354e+01
0	 6.571448927079808e+00	 7.142890476327775e+00	 1.003709853394953e+01
0	 6.714309197725894e+00	 5.714291269874073e+00	 1.006164172734982e+01
0	 6.714309197725897e+00	 5.857150240517926e+00	 1.005852398548036e+01
0	 6.714309197725895e+00	 6.000009511162681e+00	 1.005577224208231e+01
0	 6.714309197725896e+00	 6.142869048474791e+00	 1.005329884024992e+01
0	 6.714309197725894e+00	 6.285728819120709e+00	 1.005101612294405e+01
0	 6.714309197725894e+00	 6.428588789766899e+00	 1.004883643299225e+01
0	 6.714309197725897e+00	 6.571448927079810e+00	 1.004667211308867e+01
0	 6.714309197725897e+00	 6.714309197725897e+00	 1.004443550579411e+01
0	 6.714309197725896e+00	 6.857169568371615e+00	 1.004203895353600e+01
0	 6.714309197725895e+00	 7.000030005683426e+00	 1.003939479860836e+01
0	 6.714309197725897e+00	 7.142890476327777e+00	 1.003641538317187e+01
0	 6.857169568371618e+00	 5.714291269874074e+00	 1.005741820640525e+01
0	 6.857169568371616e+00	 5.857150240517928e+00	 1.005540375639495e+01
0	 6.857169568371616e+00	 6.000009511162682e+00	 1.005355390077115e+01
0	 6.857169568371615e+00	 6.142869048474790e+00	 1.005179157673670e+01
0	 6.857169568371615e+00	 6.285728819120711e+00	 1.005003972114804e+01
0	 6.857169568371617e+00	 6.428588789766900e+00	 1.004822127051513e+01
0	 6.857169568371616e+00	 6.571448927079810e+00	 1.004625916100150e+01
0	 6.857169568371616e+00	 6.714309197725895e+00	 1.004407632842420e+01
0	 6.857169568371616e+00	 6.857169568371615e+00	 1.004159570825384e+01
0	 6.857169568371615e+00	 7.000030005683424e+00	 1.003874023561456e+01
0	 6.857169568371616e+00	 7.142890476327776e+00	 1.003543284528402e+01
0	 7.000030005683426e+00	 5.714291269874074e+00	 1.005367105015788e+01
0	 7.000030005683425e+00	 5.857150240517927e+00	 1.005260945562514e+01
0	 7.000030005683426e+00	 6.000009511162682e+00	 1.005150785439766e+01
0	 7.000030005683427e+00	 6.142869048474792e+00	 1.005030664230328e+01
0	 7.000030005683427e+00	 6.285728819120712e+00	 1.004894621465639e+01
0	 7.000030005683427e+00	 6.428588789766899e+00	 1.004736696625796e+01
0	 7.000030005683426e+00	 6.571448927079808e+00	 1.004550929139549e+01
0	 7.000030005683427e+00	 6.714309197725897e+00	 1.004331358384307e+01
0	 7.000030005683426e+00	 6.857169568371618e+00	 1.004072023686136e+01
0	 7.000030005683425e+00	 7.000030005683425e+00	 1.003766964319754e+01
0	 7.000030005683425e+00	 7.142890476327776e+00	 1.003410219508537e+01
0	 7.142890476327778e+00	 5.714291269874073e+00	 1.005057207044513e+01
0	 7.142890476327777e+00	 5.857150240517927e+00	 1.005022976706189e+01
0	 7.142890476327778e+00	 6.000009511162682e+00	 1.004965323120019e+01
0	 7.142890476327779e+00	 6.142869048474793e+00	 1.004880718170472e+01
0	 7.142890476327777e+00	 6.285728819120713e+00	 1.004765633680486e+01
0	 7.142890476327779e+00	 6.428588789766899e+00	 1.004616541411465e+01
0	 7.142890476327777e+00	 6.571448927079808e+00	 1.004429913063283e+01
0	 7.142890476327779e+00	 6.714309197725897e+00	 1.004202220274284e+01
0	 7.142890476327776e+00	 6.857169568371617e+00	 1.003929934621281e+01
0	 7.142890476327777e+00	 7.000030005683425e+00	 1.003609527619553e+01
0	 7.142890476327779e+00	 7.142890476327780e+00	 1.003237470722851e+01
0	 5.714291269874075e+00	 7.142890476327779e+00	 1.003763890203205e+01
0	 5.714291269874074e+00	 7.285740955271013e+00	 1.003594590930929e+01
0	 5.714291269874074e+00	 7.428591450879007e+00	 1.003415839094684e+01
0	 5.714291269874074e+00	 7.571441979817511e+00	 1.003224975392709e+01
0	 5.714291269874074e+00	 7.714292558752280e+00	 1.003019340532730e+01
0	 5.714291269874073e+00	 7.857143204349073e+00	 1.002796275231969e+01
0	 5.714291269874073e+00	 7.999993933273643e+00	 1.002553120217140e+01
0	 5.714291269874075e+00	 8.142844762191750e+00	 1.002287216224443e+01
0	 5.714291269874074e+00	 8.285695707769142e+00	 1.001995903999575e+01
0	 5.714291269874074e+00	 8.428546786671575e+00	 1.001676524297720e+01
0	 5.714291269874074e+00	 8.571398015564814e+00	 1.001326417883551e+01
0	 5.857150240517928e+00	 7.142890476327779e+00	 1.003772885292649e+01
0	 5.857150240517927e+00	 7.285740955271013e+00	 1.003620315388294e+01
0	 5.857150240517927e+00	 7.428591450879007e+00	 1.003447740909721e+01
0	 5.857150240517927e+00	 7.571441979817510e+00	 1.003254681350374e+01
0	 5.857150240517927e+00	 7.714292558752280e+00	 1.003040656212758e+01
0	 5.857150240517927e+00	 7.857143204349071e+00	 1.002805185008448e+01
0	 5.857150240517928e+00	 7.999993933273643e+00	 1.002547787258075e+01
0	 5.857150240517928e+00	 8.142844762191750e+00	 1.002267982491341e+01
0	 5.857150240517929e+00	 8.285695707769140e+00	 1.001965290247007e+01
0	 5.857150240517927e+00	 8.428546786671578e+00	 1.001639230072900e+01
0	 5.857150240517928e+00	 8.571398015564812e+00	 1.001289321525910e+01
0	 6.000009511162683e+00	 7.142890476327777e+00	 1.003781176483052e+01
0	 6.000009511162683e+00	 7.285740955271015e+00	 1.003625661055474e+01
0	 6.000009511162681e+00	 7.428591450879008e+00	 1.003444871625711e+01
0	 6.000009511162683e+00	 7.571441979817513e+00	 1.003240087016962e+01
0	 6.000009511162682e+00	 7.714292558752280e+00	 1.003012586058864e+01
0	 6.000009511162681e+00	 7.857143204349073e+00	 1.002763647587503e+01
0	 6.000009511162682e+00	 7.999993933273643e+00	 1.002494550445397e+01
0	 6.000009511162683e+00	 8.142844762191746e+00	 1.002206573481512e+01
0	 6.000009511162682e+00	 8.285695707769142e+00	 1.001900995551249e+01
0	 6.000009511162681e+00	 8.428546786671577e+00	 1.001579095516453e+01
0	 6.000009511162682e+00	 8.571398015564814e+00	 1.001242152245407e+01
0	 6.142869048474791e+00	 7.142890476327777e+00	 1.003783891342460e+01
0	 6.142869048474791e+00	 7.285740955271013e+00	 1.003609956779042e+01
0	 6.142869048474792e+00	 7.428591450879010e+00	 1.003410003359727e+01
0	 6.142869048474790e+00	 7.571441979817510e+00	 1.003186649774944e+01
0	 6.142869048474791e+00	 7.714292558752281e+00	 1.002942514717271e+01
0	 6.142869048474791e+00	 7.857143204349073e+00	 1.002680216881442e+01
0	 6.142869048474791e+00	 7.999993933273646e+00	 1.002402374964340e+01
0	 6.142869048474790e+00	 8.142844762191746e+00	 1.002111607665004e+01
0	 6.142869048474793e+00	 8.285695707769142e+00	 1.001810533684621e+01
0	 6.142869048474791e+00	 8.428546786671577e+00	 1.001501771726532e+01
0	 6.142869048474791e+00	 8.571398015564814e+00	 1.001187940496228e+01
0	 6.285728819120710e+00	 7.142890476327774e+00	 1.003776157424242e+01
0	 6.285728819120712e+00	 7.285740955271016e+00	 1.003572531388252e+01
0	 6.285728819120713e+00	 7.428591450879009e+00	 1.003345908211900e+01
0	 6.285728819120714e+00	 7.571441979817512e+00	 1.003099826992643e+01
0	 6.285728819120712e+00	 7.714292558752282e+00	 1.002837826824670e+01
0	 6.285728819120714e+00	 7.857143204349075e+00	 1.002563446798903e+01
0	 6.285728819120711e+00	 7.999993933273643e+00	 1.002280226002985e+01
0	 6.285728819120710e+00	 8.142844762191748e+00	 1.001991703521293e+01
0	 6.285728819120710e+00	 8.285695707769138e+00	 1.001701418434935e+01
0	 6.285728819120711e+00	 8.428546786671575e+00	 1.001412909821740e+01
0	 6.285728819120711e+00	 8.571398015564814e+00	 1.001129716756273e+01
0	 6.428588789766899e+00	 7.142890476327778e+00	 1.003753102267074e+01
0	 6.428588789766900e+00	 7.285740955271014e+00	 1.003512713695048e+01
0	 6.428588789766899e+00	 7.428591450879006e+00	 1.003255358265419e+01
0	 6.428588789766897e+00	 7.571441979817508e+00	 1.002985076024231e+01
0	 6.428588789766900e+00	 7.714292558752283e+00	 1.002705907008227e+01
0	 6.428588789766901e+00	 7.857143204349075e+00	 1.002421891244854e+01
0	 6.428588789766899e+00	 7.999993933273642e+00	 1.002137068752259e+01
0	 6.428588789766899e+00	 8.142844762191746e+00	 1.001855479539290e+01
0	 6.428588789766900e+00	 8.285695707769140e+00	 1.001581163605498e+01
0	 6.428588789766900e+00	 8.428546786671575e+00	 1.001318160941134e+01
0	 6.428588789766899e+00	 8.571398015564816e+00	 1.001070511527151e+01
0	 6.571448927079808e+00	 7.142890476327775e+00	 1.003709853394953e+01
0	 6.571448927079807e+00	 7.285740955271014e+00	 1.003429832494055e+01
0	 6.571448927079810e+00	 7.428591450879008e+00	 1.003141125586535e+01
0	 6.571448927079808e+00	 7.571441979817510e+00	 1.002847854209729e+01
0	 6.571448927079808e+00	 7.714292558752280e+00	 1.002554139885569e+01
0	 6.571448927079809e+00	 7.857143204349073e+00	 1.002264104120593e+01
0	 6.571448927079809e+00	 7.999993933273644e+00	 1.001981868405934e+01
0	 6.571448927079810e+00	 8.142844762191746e+00	 1.001711554217327e+01
0	 6.571448927079807e+00	 8.285695707769142e+00	 1.001457283015110e+01
0	 6.571448927079809e+00	 8.428546786671577e+00	 1.001223176244217e+01
0	 6.571448927079809e+00	 8.571398015564816e+00	 1.001013355334184e+01
0	 6.714309197725897e+00	 7.142890476327777e+00	 1.003641538317187e+01
0	 6.714309197725897e+00	 7.285740955271015e+00	 1.003323216562583e+01
0	 6.714309197725897e+00	 7.428591450879009e+00	 1.003005982224555e+01
0	 6.714309197725894e+00	 7.571441979817509e+00	 1.002693618875007e+01
0	 6.714309197725894e+00	 7.714292558752279e+00	 1.002389910064799e+01
0	 6.714309197725896e+00	 7.857143204349073e+00	 1.002098639323749e+01
0	 6.714309197725898e+00	 7.999993933273644e+00	 1.001823590160632e+01
0	 6.714309197725897e+00	 8.142844762191748e+00	 1.001568546063173e+01
0	 6.714309197725896e+00	 8.285695707769140e+00	 1.001337290498063e+01
0	 6.714309197725896e+00	 8.428546786671577e+00	 1.001133606910942e+01
0	 6.714309197725896e+00	 8.571398015564816e+00	 1.000961278726408e+01
0	 6.857169568371616e+00	 7.142890476327776e+00	 1.003543284528402e+01
0	 6.857169568371615e+00	 7.285740955271014e+00	 1.003192194660632e+01
0	 6.857169568371617e+00	 7.428591450879008e+00	 1.002852700211847e+01
0	 6.857169568371615e+00	 7.571441979817509e+00	 1.002527827331784e+01
0	 6.857169568371615e+00	 7.714292558752279e+00	 1.002220602144482e+01
0	 6.857169568371615e+00	 7.857143204349074e+00	 1.001934050748280e+01
0	 6.857169568371616e+00	 7.999993933273645e+00	 1.001671199215814e+01
0	 6.857169568371616e+00	 8.142844762191746e+00	 1.001435073594022e+01
0	 6.857169568371616e+00	 8.285695707769140e+00	 1.001228699904142e+01
0	 6.857169568371615e+00	 8.428546786671577e+00	 1.001055104141711e+01
0	 6.857169568371619e+00	 8.571398015564817e+00	 1.000917312276565e+01
0	 7.000030005683425e+00	 7.142890476327776e+00	 1.003410219508538e+01
0	 7.000030005683427e+00	 7.285740955271014e+00	 1.003036095530885e+01
0	 7.000030005683425e+00	 7.428591450879006e+00	 1.002684051563839e+01
0	 7.000030005683423e+00	 7.571441979817509e+00	 1.002355936877633e+01
0	 7.000030005683427e+00	 7.714292558752282e+00	 1.002053600713660e+01
0	 7.000030005683427e+00	 7.857143204349073e+00	 1.001778892284475e+01
0	 7.000030005683426e+00	 7.999993933273643e+00	 1.001533660773796e+01
0	 7.000030005683425e+00	 8.142844762191746e+00	 1.001319755336499e+01
0	 7.000030005683426e+00	 8.285695707769142e+00	 1.001139025098625e+01
0	 7.000030005683426e+00	 8.428546786671577e+00	 1.000993319157375e+01
0	 7.000030005683427e+00	 8.571398015564817e+00	 1.000884486581109e+01
0	 7.142890476327779e+00	 7.142890476327780e+00	 1.003237470722851e+01
0	 7.142890476327778e+00	 7.285740955271013e+00	 1.002854247898709e+01
0	 7.142890476327779e+00	 7.428591450879007e+00	 1.002502808279018e+01
0	 7.142890476327778e+00	 7.571441979817512e+00	 1.002183404795971e+01
0	 7.142890476327777e+00	 7.714292558752281e+00	 1.001896290351836e+01
0	 7.142890476327778e+00	 7.857143204349074e+00	 1.001641717818952e+01
0	 7.142890476327777e+00	 7.999993933273643e+00	 1.001419940039731e+01
0	 7.142890476327778e+00	 8.142844762191746e+00	 1.001231209826656e+01
0	 7.142890476327778e+00	 8.285695707769140e+00	 1.001075779962280e+01
0	 7.142890476327778e+00	 8.428546786671575e+00	 1.000953903199231e+01
0	 7.142890476327779e+00	 8.571398015564816e+00	 1.000865832260208e+01
0	 5.714291269874074e+00	 8.571398015564814e+00	 1.001326417883551e+01
0	 5.714291269874074e+00	 8.714259388995403e+00	 1.000987569570285e+01
0	 5.714291269874074e+00	 8.857120812436385e+00	 1.000702147921487e+01
0	 5.714291269874075e+00	 8.999982169218283e+00	 1.000467692674086e+01
0	 5.714291269874074e+00	 9.142843342671599e+00	 1.000281743936012e+01
0	 5.714291269874074e+00	 9.285704216126854e+00	 1.000141842186189e+01
0	 5.714291269874074e+00	 9.428564672914547e+00	 1.000045528274542e+01
0	 5.714291269874074e+00	 9.571424596365199e+00	 9.999903434219963e+00
0	 5.714291269874074e+00	 9.714283869809320e+00	 9.999738292204885e+00
0	 5.714291269874074e+00	 9.857142376577416e+00	 9.999935276329799e+00
0	 5.714291269874075e+00	 1.000000000000000e+01	 1.000046980993481e+01
0	 5.857150240517928e+00	 8.571398015564812e+00	 1.001289321525910e+01
0	 5.857150240517928e+00	 8.714259388995403e+00	 1.000956749134054e+01
0	 5.857150240517929e+00	 8.857120812436387e+00	 1.000680367102586e+01
0	 5.857150240517928e+00	 8.999982169218283e+00	 1.000456123751949e+01
0	 5.857150240517929e+00	 9.142843342671602e+00	 1.000279967753537e+01
0	 5.857150240517929e+00	 9.285704216126856e+00	 1.000147848129679e+01
0	 5.857150240517928e+00	 9.428564672914547e+00	 1.000055714253655e+01
0	 5.857150240517930e+00	 9.571424596365201e+00	 9.999995158496896e+00
0	 5.857150240517927e+00	 9.714283869809320e+00	 9.999752029929562e+00
0	 5.857150240517928e+00	 9.857142376577416e+00	 9.999787261096081e+00
0	 5.857150240517928e+00	 1.000000000000000e+01	 1.000006035976782e+01
0	 6.000009511162682e+00	 8.571398015564814e+00	 1.001242152245407e+01
0	 6.000009511162683e+00	 8.714259388995401e+00	 1.000927599584680e+01
0	 6.000009511162681e+00	 8.857120812436385e+00	 1.000668547538062e+01
0	 6.000009511162683e+00	 8.999982169218280e+00	 1.000459717202920e+01
0	 6.000009511162683e+00	 9.142843342671600e+00	 1.000295829996789e+01
0	 6.000009511162682e+00	 9.285704216126851e+00	 1.000171607657370e+01
0	 6.000009511162681e+00	 9.428564672914550e+00	 1.000081772242538e+01
0	 6.000009511162681e+00	 9.571424596365203e+00	 1.000021046130340e+01
0	 6.000009511162682e+00	 9.714283869809318e+00	 9.999841520189994e+00
0	 6.000009511162681e+00	 9.857142376577416e+00	 9.999658129269324e+00
0	 6.000009511162681e+00	 1.000000000000000e+01	 9.999607521927688e+00
0	 6.142869048474791e+00	 8.571398015564814e+00	 1.001187940496228e+01
0	 6.142869048474791e+00	 8.714259388995400e+00	 1.000900449917129e+01
0	 6.142869048474791e+00	 8.857120812436383e+00	 1.000664913511405e+01
0	 6.142869048474793e+00	 8.999982169218281e+00	 1.000475189338660e+01
0	 6.142869048474792e+00	 9.142843342671599e+00	 1.000325135740104e+01
0	 6.142869048474791e+00	 9.285704216126852e+00	 1.000208611338544e+01
0	 6.142869048474791e+00	 9.428564672914549e+00	 1.000119475038388e+01
0	 6.142869048474792e+00	 9.571424596365205e+00	 1.000051586025648e+01
0	 6.142869048474791e+00	 9.714283869809323e+00	 9.999988037679369e+00
0	 6.142869048474791e+00	 9.857142376577418e+00	 9.999549880144963e+00
0	 6.142869048474791e+00	 1.000000000000000e+01	 9.999139987961961e+00
0	 6.285728819120711e+00	 8.571398015564814e+00	 1.001129716756273e+01
0	 6.285728819120712e+00	 8.714259388995400e+00	 1.000875629151245e+01
0	 6.285728819120714e+00	 8.857120812436387e+00	 1.000667689330361e+01
0	 6.285728819120711e+00	 8.999982169218280e+00	 1.000499256493218e+01
0	 6.285728819120712e+00	 9.142843342671600e+00	 1.000363690077588e+01
0	 6.285728819120711e+00	 9.285704216126851e+00	 1.000254349759390e+01
0	 6.285728819120713e+00	 9.428564672914550e+00	 1.000164595452711e+01
0	 6.285728819120710e+00	 9.571424596365199e+00	 1.000087787309795e+01
0	 6.285728819120711e+00	 9.714283869809320e+00	 1.000017285721048e+01
0	 6.285728819120711e+00	 9.857142376577420e+00	 9.999464513150574e+00
0	 6.285728819120711e+00	 9.999999999999998e+00	 9.998686449585914e+00
0	 6.428588789766899e+00	 8.571398015564816e+00	 1.001070511527151e+01
0	 6.428588789766899e+00	 8.714259388995398e+00	 1.000853466331749e+01
0	 6.428588789766899e+00	 8.857120812436383e+00	 1.000675099326948e+01
0	 6.428588789766901e+00	 8.999982169218281e+00	 1.000528635023048e+01
0	 6.428588789766901e+00	 9.142843342671599e+00	 1.000407298123119e+01
0	 6.428588789766898e+00	 9.285704216126852e+00	 1.000304313523005e+01
0	 6.428588789766899e+00	 9.428564672914549e+00	 1.000212906311322e+01
0	 6.428588789766899e+00	 9.571424596365201e+00	 1.000126301769453e+01
0	 6.428588789766899e+00	 9.714283869809321e+00	 1.000037725371561e+01
0	 6.428588789766900e+00	 9.857142376577418e+00	 9.999404027845882e+00
0	 6.428588789766900e+00	 1.000000000000000e+01	 9.998275598682620e+00
0	 6.571448927079809e+00	 8.571398015564816e+00	 1.001013355334184e+01
0	 6.571448927079810e+00	 8.714259388995401e+00	 1.000834290528231e+01
0	 6.571448927079808e+00	 8.857120812436381e+00	 1.000685367857451e+01
0	 6.571448927079810e+00	 8.999982169218281e+00	 1.000560041306989e+01
0	 6.571448927079810e+00	 9.142843342671602e+00	 1.000451765010346e+01
0	 6.571448927079809e+00	 9.285704216126852e+00	 1.000353993249388e+01
0	 6.571448927079809e+00	 9.428564672914550e+00	 1.000260180454338e+01
0	 6.571448927079808e+00	 9.571424596365199e+00	 1.000163781203779e+01
0	 6.571448927079809e+00	 9.714283869809318e+00	 1.000058250224652e+01
0	 6.571448927079808e+00	 9.857142376577416e+00	 9.999370423922699e+00
0	 6.571448927079809e+00	 1.000000000000000e+01	 9.997936127303081e+00
0	 6.714309197725896e+00	 8.571398015564816e+00	 1.000961278726408e+01
0	 6.714309197725896e+00	 8.714259388995401e+00	 1.000818430835160e+01
0	 6.714309197725893e+00	 8.857120812436381e+00	 1.000696719302421e+01
0	 6.714309197725895e+00	 8.999982169218281e+00	 1.000590191746282e+01
0	 6.714309197725896e+00	 9.142843342671600e+00	 1.000492895892691e+01
0	 6.714309197725896e+00	 9.285704216126849e+00	 1.000398879575447e+01
0	 6.714309197725896e+00	 9.428564672914550e+00	 1.000302190736191e+01
0	 6.714309197725893e+00	 9.571424596365198e+00	 1.000196877424412e+01
0	 6.714309197725895e+00	 9.714283869809320e+00	 1.000076987797453e+01
0	 6.714309197725897e+00	 9.857142376577420e+00	 9.999365701205020e+00
0	 6.714309197725897e+00	 1.000000000000000e+01	 9.997696727666007e+00
0	 6.857169568371619e+00	 8.571398015564817e+00	 1.000917312276565e+01
0	 6.857169568371617e+00	 8.714259388995400e+00	 1.000806216371879e+01
0	 6.857169568371615e+00	 8.857120812436383e+00	 1.000707378066669e+01
0	 6.857169568371615e+00	 8.999982169218280e+00	 1.000615802764559e+01
0	 6.857169568371617e+00	 9.142843342671600e+00	 1.000526495943349e+01
0	 6.857169568371616e+00	 9.285704216126852e+00	 1.000434463154991e+01
0	 6.857169568371616e+00	 9.428564672914549e+00	 1.000334710025609e+01
0	 6.857169568371618e+00	 9.571424596365203e+00	 1.000222242255477e+01
0	 6.857169568371615e+00	 9.714283869809321e+00	 1.000092065619035e+01
0	 6.857169568371617e+00	 9.857142376577418e+00	 9.999391859648897e+00
0	 6.857169568371615e+00	 1.000000000000000e+01	 9.997586092157945e+00
0	 7.000030005683427e+00	 8.571398015564817e+00	 1.000884486581109e+01
0	 7.000030005683428e+00	 8.714259388995401e+00	 1.000797976282604e+01
0	 7.000030005683427e+00	 8.857120812436387e+00	 1.000715568579276e+01
0	 7.000030005683427e+00	 8.999982169218281e+00	 1.000633590807850e+01
0	 7.000030005683426e+00	 9.142843342671602e+00	 1.000548370355278e+01
0	 7.000030005683424e+00	 9.285704216126851e+00	 1.000456234658739e+01
0	 7.000030005683428e+00	 9.428564672914547e+00	 1.000353511205632e+01
0	 7.000030005683428e+00	 9.571424596365205e+00	 1.000236527533583e+01
0	 7.000030005683426e+00	 9.714283869809320e+00	 1.000101611230434e+01
0	 7.000030005683425e+00	 9.857142376577418e+00	 9.999450899342520e+00
0	 7.000030005683427e+00	 1.000000000000000e+01	 9.997632913333311e+00
0	 7.142890476327779e+00	 8.571398015564816e+00	 1.000865832260208e+01
0	 7.142890476327777e+00	 8.714259388995400e+00	 1.000794039736423e+01
0	 7.142890476327779e+00	 8.857120812436387e+00	 1.000719515293586e+01
0	 7.142890476327777e+00	 8.999982169218281e+00	 1.000640272344570e+01
0	 7.142890476327777e+00	 9.142843342671602e+00	 1.000554324341212e+01
0	 7.142890476327778e+00	 9.285704216126854e+00	 1.000459684774305e+01
0	 7.142890476327778e+00	 9.428564672914549e+00	 1.000354367173605e+01
0	 7.142890476327777e+00	 9.571424596365201e+00	 1.000236385107822e+01
0	 7.142890476327778e+00	 9.714283869809321e+00	 1.000103752184621e+01
0	 7.142890476327778e+00	 9.857142376577414e+00	 9.999544820506223e+00
0	 7.142890476327777e+00	 1.000000000000000e+01	 9.997865883914111e+00
0	 7.142890476327777e+00	 0.000000000000000e+00	 1.002510453251098e+01
0	 7.142890476327779e+00	 1.428576234225852e-01	 1.004087611101970e+01
0	 7.142890476327778e+00	 2.857161301906819e-01	 1.005457921463512e+01
0	 7.142890476327778e+00	 4.285754036348008e-01	 1.006613947061070e+01
0	 7.142890476327778e+00	 5.714353270854531e-01	 1.007548249385694e+01
0	 7.142890476327776e+00	 7.142957838731497e-01	 1.008253388694223e+01
0	 7.142890476327779e+00	 8.571566573284016e-01	 1.008721924009364e+01
0	 7.142890476327779e+00	 1.000017830781720e+00	 1.008946413119754e+01
0	 7.142890476327778e+00	 1.142879187563616e+00	 1.008919412580004e+01
0	 7.142890476327779e+00	 1.285740611004601e+00	 1.008633477710730e+01
0	 7.142890476327779e+00	 1.428601984435185e+00	 1.008081162598573e+01
0	 7.285740955271013e+00	 0.000000000000000e+00	 1.000530524248137e+01
0	 7.285740955271016e+00	 1.428576234225853e-01	 1.002418989642576e+01
0	 7.285740955271014e+00	 2.857161301906819e-01	 1.004047489742873e+01
0	 7.285740955271014e+00	 4.285754036348007e-01	 1.005411367173365e+01
0	 7.285740955271015e+00	 5.714353270854527e-01	 1.006505963153808e+01
0	 7.285740955271014e+00	 7.142957838731498e-01	 1.007326617499478e+01
0	 7.285740955271015e+00	 8.571566573284018e-01	 1.007868668621263e+01
0	 7.285740955271012e+00	 1.000017830781720e+00	 1.008127453525718e+01
0	 7.285740955271013e+00	 1.142879187563616e+00	 1.008098307815128e+01
0	 7.285740955271015e+00	 1.285740611004601e+00	 1.007776565687532e+01
0	 7.285740955271014e+00	 1.428601984435185e+00	 1.007157559936744e+01
0	 7.428591450879007e+00	 0.000000000000000e+00	 9.993497572549266e+00
0	 7.428591450879007e+00	 1.428576234225853e-01	 1.001275547396542e+01
0	 7.428591450879010e+00	 2.857161301906819e-01	 1.002930743378898e+01
0	 7.428591450879007e+00	 4.285754036348006e-01	 1.004313117194394e+01
0	 7.428591450879007e+00	 5.714353270854530e-01	 1.005420439458239e+01
0	 7.428591450879007e+00	 7.142957838731497e-01	 1.006250479408544e+01
0	 7.428591450879008e+00	 8.571566573284018e-01	 1.006801004906409e+01
0	 7.428591450879005e+00	 1.000017830781720e+00	 1.007069782435988e+01
0	 7.428591450879007e+00	 1.142879187563616e+00	 1.007054577104534e+01
0	 7.428591450879006e+00	 1.285740611004601e+00	 1.006753152642434e+01
0	 7.428591450879006e+00	 1.428601984435185e+00	 1.006163271403223e+01
0	 7.571441979817512e+00	 0.000000000000000e+00	 9.988231770555181e+00
0	 7.571441979817510e+00	 1.428576234225853e-01	 1.000567290766906e+01
0	 7.571441979817513e+00	 2.857161301906818e-01	 1.002064221842394e+01
0	 7.571441979817511e+00	 4.285754036348007e-01	 1.003313821371232e+01
0	 7.571441979817511e+00	 5.714353270854530e-01	 1.004315939249132e+01
0	 7.571441979817509e+00	 7.142957838731497e-01	 1.005070424178344e+01
0	 7.571441979817512e+00	 8.571566573284018e-01	 1.005577123667735e+01
0	 7.571441979817513e+00	 1.000017830781720e+00	 1.005835884032840e+01
0	 7.571441979817512e+00	 1.142879187563616e+00	 1.005846550395906e+01
0	 7.571441979817512e+00	 1.285740611004601e+00	 1.005608966685918e+01
0	 7.571441979817510e+00	 1.428601984435185e+00	 1.005122975638616e+01
0	 7.714292558752281e+00	 0.000000000000000e+00	 9.988058083102286e+00
0	 7.714292558752282e+00	 1.428576234225853e-01	 1.000204226046205e+01
0	 7.714292558752281e+00	 2.857161301906819e-01	 1.001404464505396e+01
0	 7.714292558752282e+00	 4.285754036348008e-01	 1.002408103862646e+01
0	 7.714292558752280e+00	 5.714353270854529e-01	 1.003216723397773e+01
0	 7.714292558752281e+00	 7.142957838731496e-01	 1.003831901495624e+01
0	 7.714292558752281e+00	 8.571566573284017e-01	 1.004255215646136e+01
0	 7.714292558752279e+00	 1.000017830781720e+00	 1.004488242444375e+01
0	 7.714292558752281e+00	 1.142879187563616e+00	 1.004532557590572e+01
0	 7.714292558752281e+00	 1.285740611004601e+00	 1.004389735890137e+01
0	 7.714292558752281e+00	 1.428601984435185e+00	 1.004061351253672e+01
0	 7.857143204349074e+00	 0.000000000000000e+00	 9.991526755556329e+00
0	 7.857143204349071e+00	 1.428576234225853e-01	 1.000096359416474e+01
0	 7.857143204349072e+00	 2.857161301906819e-01	 1.000908010641169e+01
0	 7.857143204349071e+00	 4.285754036348006e-01	 1.001590588739102e+01
0	 7.857143204349073e+00	 5.714353270854531e-01	 1.002147052696593e+01
0	 7.857143204349072e+00	 7.142957838731496e-01	 1.002580360976944e+01
0	 7.857143204349074e+00	 8.571566573284017e-01	 1.002893471520471e+01
0	 7.857143204349074e+00	 1.000017830781720e+00	 1.003089341744524e+01
0	 7.857143204349074e+00	 1.142879187563616e+00	 1.003170928543511e+01
0	 7.857143204349072e+00	 1.285740611004601e+00	 1.003141188288912e+01
0	 7.857143204349073e+00	 1.428601984435185e+00	 1.003003076829285e+01
0	 7.999993933273645e+00	 0.000000000000000e+00	 9.997188032045717e+00
0	 7.999993933273646e+00	 1.428576234225853e-01	 1.000153696949245e+01
0	 7.999993933273644e+00	 2.857161301906819e-01	 1.000531399424205e+01
0	 7.999993933273644e+00	 4.285754036348007e-01	 1.000855899982754e+01
0	 7.999993933273645e+00	 5.714353270854532e-01	 1.001131187859163e+01
0	 7.999993933273646e+00	 7.142957838731498e-01	 1.001361252168686e+01
0	 7.999993933273643e+00	 8.571566573284015e-01	 1.001550081907563e+01
0	 7.999993933273644e+00	 1.000017830781720e+00	 1.001701665953035e+01
0	 7.999993933273642e+00	 1.142879187563616e+00	 1.001819993063344e+01
0	 7.999993933273643e+00	 1.285740611004601e+00	 1.001909051877744e+01
0	 7.999993933273644e+00	 1.428601984435185e+00	 1.001972830916498e+01
0	 8.142844762191748e+00	 0.000000000000000e+00	 1.000359215546146e+01
0	 8.142844762191746e+00	 1.428576234225853e-01	 1.000286244605553e+01
0	 8.142844762191748e+00	 2.857161301906819e-01	 1.000231169930224e+01
0	 8.142844762191748e+00	 4.285754036348007e-01	 1.000198661487457e+01
0	 8.142844762191746e+00	 5.714353270854530e-01	 1.000193389520203e+01
0	 8.142844762191745e+00	 7.142957838731496e-01	 1.000220024547047e+01
0	 8.142844762191748e+00	 8.571566573284017e-01	 1.000283237362200e+01
0	 8.142844762191748e+00	 1.000017830781720e+00	 1.000387699035486e+01
0	 8.142844762191746e+00	 1.142879187563616e+00	 1.000538080912339e+01
0	 8.142844762191748e+00	 1.285740611004601e+00	 1.000739054613795e+01
0	 8.142844762191746e+00	 1.428601984435185e+00	 1.000995292036496e+01
0	 8.285695707769140e+00	 0.000000000000000e+00	 1.000928936745722e+01
0	 8.285695707769138e+00	 1.428576234225852e-01	 1.000404008235929e+01
0	 8.285695707769140e+00	 2.857161301906819e-01	 9.999638611361766e+00
0	 8.285695707769142e+00	 4.285754036348008e-01	 9.996134970587601e+00
0	 8.285695707769143e+00	 5.714353270854531e-01	 9.993579182355703e+00
0	 8.285695707769142e+00	 7.142957838731496e-01	 9.992021275180432e+00
0	 8.285695707769142e+00	 8.571566573284017e-01	 9.991511283771324e+00
0	 8.285695707769142e+00	 1.000017830781720e+00	 9.992099249032821e+00
0	 8.285695707769142e+00	 1.142879187563616e+00	 9.993835218064124e+00
0	 8.285695707769140e+00	 1.285740611004601e+00	 9.996769244159072e+00
0	 8.285695707769142e+00	 1.428601984435185e+00	 1.000095138680616e+01
0	 8.428546786671577e+00	 0.000000000000000e+00	 1.001282990844929e+01
0	 8.428546786671578e+00	 1.428576234225853e-01	 1.000416993580408e+01
0	 8.428546786671578e+00	 2.857161301906819e-01	 9.996860119202388e+00
0	 8.428546786671577e+00	 4.285754036348006e-01	 9.990950304139064e+00
0	 8.428546786671577e+00	 5.714353270854531e-01	 9.986490344822721e+00
0	 8.428546786671577e+00	 7.142957838731497e-01	 9.983530104175127e+00
0	 8.428546786671577e+00	 8.571566573284017e-01	 9.982119453830773e+00
0	 8.428546786671577e+00	 1.000017830781720e+00	 9.982308274136500e+00
0	 8.428546786671578e+00	 1.142879187563616e+00	 9.984146454151247e+00
0	 8.428546786671578e+00	 1.285740611004601e+00	 9.987683891645926e+00
0	 8.428546786671578e+00	 1.428601984435185e+00	 9.992970493103362e+00
0	 8.571398015564816e+00	 0.000000000000000e+00	 1.001276401761663e+01
0	 8.571398015564816e+00	 1.428576234225853e-01	 1.000235206268524e+01
0	 8.571398015564816e+00	 2.857161301906819e-01	 9.993541610618236e+00
0	 8.571398015564816e+00	 4.285754036348007e-01	 9.986378851818385e+00
0	 8.571398015564812e+00	 5.714353270854530e-01	 9.980909986584576e+00
0	 8.571398015564816e+00	 7.142957838731496e-01	 9.977181225111106e+00
0	 8.571398015564817e+00	 8.571566573284017e-01	 9.975238787487172e+00
0	 8.571398015564816e+00	 1.000017830781720e+00	 9.975128903696460e+00
0	 8.571398015564816e+00	 1.142879187563616e+00	 9.976897813616874e+00
0	 8.571398015564814e+00	 1.285740611004601e+00	 9.980591767020353e+00
0	 8.571398015564817e+00	 1.428601984435185e+00	 9.986257023572850e+00
0	 7.142890476327779e+00	 1.428601984435185e+00	 1.008081162598573e+01
0	 7.142890476327779e+00	 1.571453213328422e+00	 1.007441598263755e+01
0	 7.142890476327778e+00	 1.714304292230859e+00	 1.006903558319617e+01
0	 7.142890476327777e+00	 1.857155237808251e+00	 1.006474204230406e+01
0	 7.142890476327778e+00	 2.000006066726356e+00	 1.006160697378924e+01
0	 7.142890476327777e+00	 2.142856795650926e+00	 1.005970199066526e+01
0	 7.142890476327775e+00	 2.285707441247718e+00	 1.005909870513122e+01
0	 7.142890476327777e+00	 2.428558020182488e+00	 1.005986872857173e+01
0	 7.142890476327778e+00	 2.571408549120992e+00	 1.006208367155691e+01
0	 7.142890476327778e+00	 2.714259044728984e+00	 1.006581514384244e+01
0	 7.142890476327779e+00	 2.857109523672222e+00	 1.007113475436951e+01
0	 7.285740955271014e+00	 1.428601984435185e+00	 1.007157559936743e+01
0	 7.285740955271013e+00	 1.571453213328422e+00	 1.006452161867500e+01
0	 7.285740955271013e+00	 1.714304292230858e+00	 1.005877067907888e+01
0	 7.285740955271017e+00	 1.857155237808252e+00	 1.005436508936762e+01
0	 7.285740955271013e+00	 2.000006066726355e+00	 1.005134715733982e+01
0	 7.285740955271013e+00	 2.142856795650925e+00	 1.004975918980413e+01
0	 7.285740955271015e+00	 2.285707441247718e+00	 1.004964349257925e+01
0	 7.285740955271014e+00	 2.428558020182489e+00	 1.005104237049391e+01
0	 7.285740955271015e+00	 2.571408549120993e+00	 1.005399812738685e+01
0	 7.285740955271016e+00	 2.714259044728984e+00	 1.005855306610687e+01
0	 7.285740955271015e+00	 2.857109523672223e+00	 1.006474948851278e+01
0	 7.428591450879006e+00	 1.428601984435185e+00	 1.006163271403223e+01
0	 7.428591450879007e+00	 1.571453213328422e+00	 1.005496569573270e+01
0	 7.428591450879007e+00	 1.714304292230859e+00	 1.004967259763979e+01
0	 7.428591450879008e+00	 1.857155237808252e+00	 1.004577122174147e+01
0	 7.428591450879007e+00	 2.000006066726355e+00	 1.004327936900854e+01
0	 7.428591450879008e+00	 2.142856795650926e+00	 1.004221483939465e+01
0	 7.428591450879007e+00	 2.285707441247718e+00	 1.004259543183624e+01
0	 7.428591450879007e+00	 2.428558020182488e+00	 1.004443894425256e+01
0	 7.428591450879007e+00	 2.571408549120992e+00	 1.004776317354567e+01
0	 7.428591450879007e+00	 2.714259044728984e+00	 1.005258591560044e+01
0	 7.428591450879008e+00	 2.857109523672222e+00	 1.005892496528454e+01
0	 7.571441979817510e+00	 1.428601984435185e+00	 1.005122975638616e+01
0	 7.571441979817513e+00	 1.571453213328422e+00	 1.004576345426444e+01
0	 7.571441979817509e+00	 1.714304292230859e+00	 1.004156737237268e+01
0	 7.571441979817510e+00	 1.857155237808251e+00	 1.003863960514990e+01
0	 7.571441979817508e+00	 2.000006066726355e+00	 1.003697824610931e+01
0	 7.571441979817511e+00	 2.142856795650925e+00	 1.003658138783837e+01
0	 7.571441979817510e+00	 2.285707441247718e+00	 1.003744712199874e+01
0	 7.571441979817509e+00	 2.428558020182487e+00	 1.003957353932633e+01
0	 7.571441979817509e+00	 2.571408549120991e+00	 1.004295872963122e+01
0	 7.571441979817511e+00	 2.714259044728984e+00	 1.004760078179775e+01
0	 7.571441979817511e+00	 2.857109523672222e+00	 1.005349778378443e+01
0	 7.714292558752281e+00	 1.428601984435185e+00	 1.004061351253671e+01
0	 7.714292558752279e+00	 1.571453213328422e+00	 1.003693013451615e+01
0	 7.714292558752281e+00	 1.714304292230859e+00	 1.003428103665781e+01
0	 7.714292558752278e+00	 1.857155237808251e+00	 1.003264940529815e+01
0	 7.714292558752280e+00	 2.000006066726355e+00	 1.003201842602828e+01
0	 7.714292558752281e+00	 2.142856795650926e+00	 1.003237128369392e+01
0	 7.714292558752280e+00	 2.285707441247717e+00	 1.003369116239540e+01
0	 7.714292558752280e+00	 2.428558020182488e+00	 1.003596124548769e+01
0	 7.714292558752281e+00	 2.571408549120992e+00	 1.003916471558037e+01
0	 7.714292558752281e+00	 2.714259044728985e+00	 1.004328475453760e+01
0	 7.714292558752280e+00	 2.857109523672222e+00	 1.004830454347820e+01
0	 7.857143204349073e+00	 1.428601984435185e+00	 1.003003076829285e+01
0	 7.857143204349073e+00	 1.571453213328422e+00	 1.002848097652596e+01
0	 7.857143204349074e+00	 1.714304292230859e+00	 1.002763962376184e+01
0	 7.857143204349075e+00	 1.857155237808252e+00	 1.002747978787239e+01
0	 7.857143204349072e+00	 2.000006066726355e+00	 1.002797454622390e+01
0	 7.857143204349075e+00	 2.142856795650926e+00	 1.002909697567709e+01
0	 7.857143204349073e+00	 2.285707441247718e+00	 1.003082015258696e+01
0	 7.857143204349071e+00	 2.428558020182488e+00	 1.003311715280299e+01
0	 7.857143204349073e+00	 2.571408549120992e+00	 1.003596105166895e+01
0	 7.857143204349076e+00	 2.714259044728984e+00	 1.003932492402301e+01
0	 7.857143204349074e+00	 2.857109523672223e+00	 1.004318184419774e+01
0	 7.999993933273644e+00	 1.428601984435185e+00	 1.001972830916498e+01
0	 7.999993933273644e+00	 1.571453213328422e+00	 1.002043122012415e+01
0	 7.999993933273644e+00	 1.714304292230859e+00	 1.002146916683789e+01
0	 7.999993933273643e+00	 1.857155237808251e+00	 1.002280991853970e+01
0	 7.999993933273643e+00	 2.000006066726355e+00	 1.002442124422691e+01
0	 7.999993933273645e+00	 2.142856795650926e+00	 1.002627091266075e+01
0	 7.999993933273644e+00	 2.285707441247718e+00	 1.002832669236627e+01
0	 7.999993933273642e+00	 2.428558020182489e+00	 1.003055635163237e+01
0	 7.999993933273646e+00	 2.571408549120993e+00	 1.003292765851182e+01
0	 7.999993933273644e+00	 2.714259044728985e+00	 1.003540838082122e+01
0	 7.999993933273644e+00	 2.857109523672223e+00	 1.003796628614103e+01
0	 8.142844762191746e+00	 1.428601984435185e+00	 1.000995292036496e+01
0	 8.142844762191748e+00	 1.571453213328422e+00	 1.001279610493316e+01
0	 8.142844762191748e+00	 1.714304292230859e+00	 1.001559569892553e+01
0	 8.142844762191746e+00	 1.857155237808251e+00	 1.001831896294812e+01
0	 8.142844762191748e+00	 2.000006066726355e+00	 1.002093315764031e+01
0	 8.142844762191750e+00	 2.142856795650926e+00	 1.002340554367494e+01
0	 8.142844762191746e+00	 2.285707441247718e+00	 1.002570338175823e+01
0	 8.142844762191750e+00	 2.428558020182489e+00	 1.002779393262984e+01
0	 8.142844762191750e+00	 2.571408549120993e+00	 1.002964445706282e+01
0	 8.142844762191752e+00	 2.714259044728985e+00	 1.003122221586365e+01
0	 8.142844762191750e+00	 2.857109523672223e+00	 1.003249446987220e+01
0	 8.285695707769142e+00	 1.428601984435185e+00	 1.000095138680616e+01
0	 8.285695707769140e+00	 1.571453213328422e+00	 1.000559087036760e+01
0	 8.285695707769140e+00	 1.714304292230859e+00	 1.000984525295078e+01
0	 8.285695707769140e+00	 1.857155237808251e+00	 1.001368608672662e+01
0	 8.285695707769140e+00	 2.000006066726355e+00	 1.001708492413938e+01
0	 8.285695707769142e+00	 2.142856795650925e+00	 1.002001331790676e+01
0	 8.285695707769138e+00	 2.285707441247717e+00	 1.002244282101988e+01
0	 8.285695707769140e+00	 2.428558020182488e+00	 1.002434498674324e+01
0	 8.285695707769143e+00	 2.571408549120993e+00	 1.002569136861482e+01
0	 8.285695707769143e+00	 2.714259044728985e+00	 1.002645352044597e+01
0	 8.285695707769140e+00	 2.857109523672222e+00	 1.002660299632148e+01
0	 8.428546786671578e+00	 1.428601984435185e+00	 9.992970493103360e+00
0	 8.428546786671577e+00	 1.571453213328422e+00	 9.998830755634257e+00
0	 8.428546786671578e+00	 1.714304292230859e+00	 1.000404386172611e+01
0	 8.428546786671578e+00	 1.857155237808252e+00	 1.000859045548513e+01
0	 8.428546786671577e+00	 2.000006066726355e+00	 1.001245118147171e+01
0	 8.428546786671577e+00	 2.142856795650925e+00	 1.001560668470050e+01
0	 8.428546786671577e+00	 2.285707441247718e+00	 1.001803761064031e+01
0	 8.428546786671577e+00	 2.428558020182488e+00	 1.001972460521426e+01
0	 8.428546786671578e+00	 2.571408549120992e+00	 1.002064831479965e+01
0	 8.428546786671578e+00	 2.714259044728985e+00	 1.002078938622804e+01
0	 8.428546786671578e+00	 2.857109523672222e+00	 1.002012846678521e+01
0	 8.571398015564817e+00	 1.428601984435185e+00	 9.986257023572852e+00
0	 8.571398015564816e+00	 1.571453213328422e+00	 9.992530999732082e+00
0	 8.571398015564817e+00	 1.714304292230859e+00	 9.998017557950412e+00
0	 8.571398015564814e+00	 1.857155237808251e+00	 1.000271123481448e+01
0	 8.571398015564816e+00	 2.000006066726355e+00	 1.000660656745715e+01
0	 8.571398015564817e+00	 2.142856795650926e+00	 1.000969809355748e+01
0	 8.571398015564816e+00	 2.285707441247718e+00	 1.001198035134073e+01
0	 8.571398015564816e+00	 2.428558020182488e+00	 1.001344787957838e+01
0	 8.571398015564814e+00	 2.571408549120992e+00	 1.001409521758813e+01
0	 8.571398015564816e+00	 2.714259044728984e+00	 1.001391690523391e+01
0	 8.571398015564814e+00	 2.857109523672223e+00	 1.001290748292587e+01
0	 7.142890476327779e+00	 2.857109523672222e+00	 1.007113475436951e+01
0	 7.142890476327778e+00	 2.999969994316576e+00	 1.007684059518905e+01
0	 7.142890476327778e+00	 3.142830431628385e+00	 1.008164337675634e+01
0	 7.142890476327780e+00	 3.285690802274106e+00	 1.008548492254977e+01
0	 7.142890476327778e+00	 3.428551072920193e+00	 1.008830705417015e+01
0	 7.142890476327777e+00	 3.571411210233102e+00	 1.009005159134069e+01
0	 7.142890476327779e+00	 3.714271180879290e+00	 1.009066035190709e+01
0	 7.142890476327779e+00	 3.857130951525211e+00	 1.009007515183734e+01
0	 7.142890476327780e+00	 3.999990488837321e+00	 1.008823780522188e+01
0	 7.142890476327779e+00	 4.142849759482075e+00	 1.008509012427343e+01
0	 7.142890476327779e+00	 4.285708730125926e+00	 1.008057391932706e+01
0	 7.285740955271015e+00	 2.857109523672223e+00	 1.006474948851278e+01
0	 7.285740955271011e+00	 2.999969994316575e+00	 1.007119427703602e+01
0	 7.285740955271015e+00	 3.142830431628385e+00	 1.007645421303192e+01
0	 7.285740955271015e+00	 3.285690802274107e+00	 1.008051292113213e+01
0	 7.285740955271014e+00	 3.428551072920193e+00	 1.008335402395508e+01
0	 7.285740955271015e+00	 3.571411210233102e+00	 1.008496114210598e+01
0	 7.285740955271014e+00	 3.714271180879289e+00	 1.008531789417680e+01
0	 7.285740955271016e+00	 3.857130951525211e+00	 1.008440789674627e+01
0	 7.285740955271015e+00	 3.999990488837321e+00	 1.008221476437983e+01
0	 7.285740955271012e+00	 4.142849759482074e+00	 1.007872210962963e+01
0	 7.285740955271015e+00	 4.285708730125926e+00	 1.007391354303448e+01
0	 7.428591450879008e+00	 2.857109523672222e+00	 1.005892496528454e+01
0	 7.428591450879006e+00	 2.999969994316576e+00	 1.006537189709453e+01
0	 7.428591450879006e+00	 3.142830431628385e+00	 1.007051736829776e+01
0	 7.428591450879008e+00	 3.285690802274106e+00	 1.007437928741771e+01
0	 7.428591450879006e+00	 3.428551072920193e+00	 1.007697556101749e+01
0	 7.428591450879006e+00	 3.571411210233103e+00	 1.007832409369973e+01
0	 7.428591450879006e+00	 3.714271180879290e+00	 1.007844278810665e+01
0	 7.428591450879009e+00	 3.857130951525210e+00	 1.007734954492000e+01
0	 7.428591450879009e+00	 3.999990488837320e+00	 1.007506226286109e+01
0	 7.428591450879008e+00	 4.142849759482073e+00	 1.007159883869068e+01
0	 7.428591450879009e+00	 4.285708730125926e+00	 1.006697716720903e+01
0	 7.571441979817511e+00	 2.857109523672222e+00	 1.005349778378443e+01
0	 7.571441979817511e+00	 2.999969994316576e+00	 1.005936673466819e+01
0	 7.571441979817509e+00	 3.142830431628385e+00	 1.006395477965027e+01
0	 7.571441979817509e+00	 3.285690802274105e+00	 1.006730659393719e+01
0	 7.571441979817512e+00	 3.428551072920193e+00	 1.006946685097707e+01
0	 7.571441979817511e+00	 3.571411210233104e+00	 1.007048022245958e+01
0	 7.571441979817510e+00	 3.714271180879290e+00	 1.007039137831598e+01
0	 7.571441979817513e+00	 3.857130951525211e+00	 1.006924498671910e+01
0	 7.571441979817513e+00	 3.999990488837320e+00	 1.006708571408327e+01
0	 7.571441979817513e+00	 4.142849759482075e+00	 1.006395822506437e+01
0	 7.571441979817511e+00	 4.285708730125926e+00	 1.005990718255973e+01
0	 7.714292558752280e+00	 2.857109523672222e+00	 1.004830454347820e+01
0	 7.714292558752280e+00	 2.999969994316575e+00	 1.005317206940340e+01
0	 7.714292558752281e+00	 3.142830431628385e+00	 1.005688838448394e+01
0	 7.714292558752280e+00	 3.285690802274106e+00	 1.005951741345839e+01
0	 7.714292558752280e+00	 3.428551072920192e+00	 1.006112307961890e+01
0	 7.714292558752283e+00	 3.571411210233102e+00	 1.006176930481117e+01
0	 7.714292558752281e+00	 3.714271180879291e+00	 1.006152000943444e+01
0	 7.714292558752280e+00	 3.857130951525209e+00	 1.006043911244155e+01
0	 7.714292558752281e+00	 3.999990488837320e+00	 1.005859053133877e+01
0	 7.714292558752279e+00	 4.142849759482074e+00	 1.005603818218597e+01
0	 7.714292558752279e+00	 4.285708730125925e+00	 1.005284597959646e+01
0	 7.857143204349074e+00	 2.857109523672223e+00	 1.004318184419773e+01
0	 7.857143204349073e+00	 2.999969994316576e+00	 1.004678118128935e+01
0	 7.857143204349076e+00	 3.142830431628385e+00	 1.004944012049129e+01
0	 7.857143204349074e+00	 3.285690802274107e+00	 1.005123431898634e+01
0	 7.857143204349072e+00	 3.428551072920192e+00	 1.005223943289352e+01
0	 7.857143204349075e+00	 3.571411210233104e+00	 1.005253111726819e+01
0	 7.857143204349073e+00	 3.714271180879289e+00	 1.005218502610196e+01
0	 7.857143204349074e+00	 3.857130951525211e+00	 1.005127681232274e+01
0	 7.857143204349073e+00	 3.999990488837320e+00	 1.004988212779470e+01
0	 7.857143204349073e+00	 4.142849759482075e+00	 1.004807662331825e+01
0	 7.857143204349074e+00	 4.285708730125926e+00	 1.004593594863006e+01
0	 7.999993933273644e+00	 2.857109523672223e+00	 1.003796628614102e+01
0	 7.999993933273645e+00	 2.999969994316577e+00	 1.004018735065802e+01
0	 7.999993933273641e+00	 3.142830431628385e+00	 1.004173192566295e+01
0	 7.999993933273644e+00	 3.285690802274106e+00	 1.004267988376324e+01
0	 7.999993933273646e+00	 3.428551072920194e+00	 1.004311109691688e+01
0	 7.999993933273642e+00	 3.571411210233102e+00	 1.004310543643237e+01
0	 7.999993933273642e+00	 3.714271180879290e+00	 1.004274277296873e+01
0	 7.999993933273644e+00	 3.857130951525210e+00	 1.004210297653557e+01
0	 7.999993933273646e+00	 3.999990488837320e+00	 1.004126591649294e+01
0	 7.999993933273645e+00	 4.142849759482074e+00	 1.004031146155148e+01
0	 7.999993933273641e+00	 4.285708730125924e+00	 1.003931947977228e+01
0	 8.142844762191750e+00	 2.857109523672223e+00	 1.003249446987220e+01
0	 8.142844762191746e+00	 2.999969994316576e+00	 1.003338385818420e+01
0	 8.142844762191746e+00	 3.142830431628386e+00	 1.003388573828753e+01
0	 8.142844762191748e+00	 3.285690802274105e+00	 1.003407668126847e+01
0	 8.142844762191746e+00	 3.428551072920193e+00	 1.003403325797031e+01
0	 8.142844762191750e+00	 3.571411210233103e+00	 1.003383203899343e+01
0	 8.142844762191750e+00	 3.714271180879291e+00	 1.003354959469525e+01
0	 8.142844762191748e+00	 3.857130951525211e+00	 1.003326249519030e+01
0	 8.142844762191746e+00	 3.999990488837320e+00	 1.003304731035015e+01
0	 8.142844762191748e+00	 4.142849759482074e+00	 1.003298060980341e+01
0	 8.142844762191748e+00	 4.285708730125926e+00	 1.003313896293580e+01
0	 8.285695707769140e+00	 2.857109523672222e+00	 1.002660299632148e+01
0	 8.285695707769140e+00	 2.999969994316576e+00	 1.002636398488545e+01
0	 8.285695707769140e+00	 3.142830431628385e+00	 1.002602349695180e+01
0	 8.285695707769142e+00	 3.285690802274106e+00	 1.002564728521861e+01
0	 8.285695707769142e+00	 3.428551072920194e+00	 1.002530110250061e+01
0	 8.285695707769140e+00	 3.571411210233102e+00	 1.002505070172916e+01
0	 8.285695707769142e+00	 3.714271180879291e+00	 1.002496183595230e+01
0	 8.285695707769138e+00	 3.857130951525209e+00	 1.002510025833469e+01
0	 8.285695707769142e+00	 3.999990488837320e+00	 1.002553172215769e+01
0	 8.285695707769140e+00	 4.142849759482075e+00	 1.002632198081930e+01
0	 8.285695707769140e+00	 4.285708730125926e+00	 1.002753678783420e+01
0	 8.428546786671578e+00	 2.857109523672222e+00	 1.002012846678521e+01
0	 8.428546786671575e+00	 2.999969994316576e+00	 1.001912101212214e+01
0	 8.428546786671578e+00	 3.142830431628386e+00	 1.001826714054052e+01
0	 8.428546786671578e+00	 3.285690802274107e+00	 1.001761426956741e+01
0	 8.428546786671578e+00	 3.428551072920194e+00	 1.001720981711998e+01
0	 8.428546786671578e+00	 3.571411210233103e+00	 1.001710120150539e+01
0	 8.428546786671578e+00	 3.714271180879290e+00	 1.001733584142093e+01
0	 8.428546786671578e+00	 3.857130951525211e+00	 1.001796115595391e+01
0	 8.428546786671577e+00	 3.999990488837320e+00	 1.001902456458174e+01
0	 8.428546786671578e+00	 4.142849759482075e+00	 1.002057348717190e+01
0	 8.428546786671577e+00	 4.285708730125926e+00	 1.002265534398200e+01
0	 8.571398015564814e+00	 2.857109523672223e+00	 1.001290748292587e+01
0	 8.571398015564816e+00	 2.999969994316575e+00	 1.001164822159744e+01
0	 8.571398015564812e+00	 3.142830431628385e+00	 1.001073860823652e+01
0	 8.571398015564816e+00	 3.285690802274106e+00	 1.001020020850580e+01
0	 8.571398015564816e+00	 3.428551072920193e+00	 1.001005458860601e+01
0	 8.571398015564816e+00	 3.571411210233102e+00	 1.001032331527595e+01
0	 8.571398015564816e+00	 3.714271180879290e+00	 1.001102795579248e+01
0	 8.571398015564816e+00	 3.857130951525211e+00	 1.001219007797055e+01
0	 8.571398015564817e+00	 3.999990488837320e+00	 1.001383125016317e+01
0	 8.571398015564816e+00	 4.142849759482074e+00	 1.001597304126146e+01
0	 8.571398015564817e+00	 4.285708730125926e+00	 1.001863702069465e+01
0	 7.142890476327779e+00	 4.285708730125926e+00	 1.008057391932706e+01
0	 7.142890476327776e+00	 4.428567384102074e+00	 1.007552709903048e+01
0	 7.142890476327778e+00	 4.571425771410667e+00	 1.007084811175543e+01
0	 7.142890476327777e+00	 4.714283958718592e+00	 1.006656957513119e+01
0	 7.142890476327779e+00	 4.857142012692742e+00	 1.006272410560904e+01
0	 7.142890476327777e+00	 5.000000000000001e+00	 1.005934431846209e+01
0	 7.142890476327778e+00	 5.142857987307261e+00	 1.005646282778538e+01
0	 7.142890476327778e+00	 5.285716041281409e+00	 1.005411224649574e+01
0	 7.142890476327777e+00	 5.428574228589334e+00	 1.005232518633186e+01
0	 7.142890476327777e+00	 5.571432615897927e+00	 1.005113425785422e+01
0	 7.142890476327778e+00	 5.714291269874073e+00	 1.005057207044513e+01
0	 7.285740955271015e+00	 4.285708730125926e+00	 1.007391354303448e+01
0	 7.285740955271015e+00	 4.428567384102075e+00	 1.006873182807302e+01
0	 7.285740955271014e+00	 4.571425771410667e+00	 1.006412944609951e+01
0	 7.285740955271017e+00	 4.714283958718593e+00	 1.006010458195789e+01
0	 7.285740955271014e+00	 4.857142012692742e+00	 1.005665541916106e+01
0	 7.285740955271016e+00	 5.000000000000001e+00	 1.005378013989086e+01
0	 7.285740955271012e+00	 5.142857987307261e+00	 1.005147692499806e+01
0	 7.285740955271014e+00	 5.285716041281408e+00	 1.004974395400229e+01
0	 7.285740955271015e+00	 5.428574228589336e+00	 1.004857940509203e+01
0	 7.285740955271014e+00	 5.571432615897928e+00	 1.004798145512463e+01
0	 7.285740955271015e+00	 5.714291269874074e+00	 1.004794827962630e+01
0	 7.428591450879009e+00	 4.285708730125926e+00	 1.006697716720903e+01
0	 7.428591450879008e+00	 4.428567384102075e+00	 1.006213130740297e+01
0	 7.428591450879005e+00	 4.571425771410667e+00	 1.005796359372568e+01
0	 7.428591450879008e+00	 4.714283958718593e+00	 1.005444433176608e+01
0	 7.428591450879007e+00	 4.857142012692742e+00	 1.005154382585920e+01
0	 7.428591450879006e+00	 5.000000000000001e+00	 1.004923237908613e+01
0	 7.428591450879007e+00	 5.142857987307260e+00	 1.004748029327397e+01
0	 7.428591450879007e+00	 5.285716041281409e+00	 1.004625786899584e+01
0	 7.428591450879006e+00	 5.428574228589335e+00	 1.004553540557085e+01
0	 7.428591450879007e+00	 5.571432615897928e+00	 1.004528320106406e+01
0	 7.428591450879008e+00	 5.714291269874074e+00	 1.004547155228655e+01
0	 7.571441979817511e+00	 4.285708730125926e+00	 1.005990718255973e+01
0	 7.571441979817512e+00	 4.428567384102074e+00	 1.005576731929076e+01
0	 7.571441979817512e+00	 4.571425771410667e+00	 1.005230958080762e+01
0	 7.571441979817508e+00	 4.714283958718593e+00	 1.004948294718422e+01
0	 7.571441979817511e+00	 4.857142012692742e+00	 1.004723639749782e+01
0	 7.571441979817513e+00	 5.000000000000001e+00	 1.004551890982895e+01
0	 7.571441979817510e+00	 5.142857987307262e+00	 1.004427946126139e+01
0	 7.571441979817509e+00	 5.285716041281410e+00	 1.004346702788213e+01
0	 7.571441979817512e+00	 5.428574228589337e+00	 1.004303058478140e+01
0	 7.571441979817511e+00	 5.571432615897928e+00	 1.004291910605263e+01
0	 7.571441979817511e+00	 5.714291269874074e+00	 1.004308156479243e+01
0	 7.714292558752279e+00	 4.285708730125925e+00	 1.005284597959646e+01
0	 7.714292558752280e+00	 4.428567384102075e+00	 1.004968164580549e+01
0	 7.714292558752281e+00	 4.571425771410667e+00	 1.004712643333678e+01
0	 7.714292558752281e+00	 4.714283958718593e+00	 1.004511455069436e+01
0	 7.714292558752282e+00	 4.857142012692742e+00	 1.004358020577292e+01
0	 7.714292558752279e+00	 5.000000000000002e+00	 1.004245760585770e+01
0	 7.714292558752283e+00	 5.142857987307262e+00	 1.004168095762457e+01
0	 7.714292558752282e+00	 5.285716041281409e+00	 1.004118446713994e+01
0	 7.714292558752282e+00	 5.428574228589334e+00	 1.004090233986076e+01
0	 7.714292558752281e+00	 5.571432615897927e+00	 1.004076878063458e+01
0	 7.714292558752280e+00	 5.714291269874075e+00	 1.004071799369941e+01
0	 7.857143204349074e+00	 4.285708730125926e+00	 1.004593594863006e+01
0	 7.857143204349076e+00	 4.428567384102076e+00	 1.004391606881489e+01
0	 7.857143204349073e+00	 4.571425771410667e+00	 1.004237317712237e+01
0	 7.857143204349074e+00	 4.714283958718594e+00	 1.004123326463220e+01
0	 7.857143204349072e+00	 4.857142012692741e+00	 1.004042232228216e+01
0	 7.857143204349074e+00	 5.000000000000002e+00	 1.003986634086805e+01
0	 7.857143204349072e+00	 5.142857987307261e+00	 1.003949131104371e+01
0	 7.857143204349073e+00	 5.285716041281408e+00	 1.003922322332103e+01
0	 7.857143204349074e+00	 5.428574228589335e+00	 1.003898806806989e+01
0	 7.857143204349074e+00	 5.571432615897928e+00	 1.003871183551819e+01
0	 7.857143204349075e+00	 5.714291269874074e+00	 1.003832051575183e+01
0	 7.999993933273641e+00	 4.285708730125924e+00	 1.003931947977228e+01
0	 7.999993933273644e+00	 4.428567384102075e+00	 1.003851236998534e+01
0	 7.999993933273642e+00	 4.571425771410667e+00	 1.003800883779131e+01
0	 7.999993933273643e+00	 4.714283958718593e+00	 1.003773321118701e+01
0	 7.999993933273643e+00	 4.857142012692742e+00	 1.003760981852487e+01
0	 7.999993933273643e+00	 5.000000000000001e+00	 1.003756298851296e+01
0	 7.999993933273644e+00	 5.142857987307262e+00	 1.003751705021498e+01
0	 7.999993933273643e+00	 5.285716041281408e+00	 1.003739633305024e+01
0	 7.999993933273645e+00	 5.428574228589335e+00	 1.003712516679370e+01
0	 7.999993933273643e+00	 5.571432615897928e+00	 1.003662788157587e+01
0	 7.999993933273643e+00	 5.714291269874074e+00	 1.003582880788289e+01
0	 8.142844762191748e+00	 4.285708730125926e+00	 1.003313896293580e+01
0	 8.142844762191748e+00	 4.428567384102074e+00	 1.003351233078188e+01
0	 8.142844762191748e+00	 4.571425771410667e+00	 1.003399244078828e+01
0	 8.142844762191746e+00	 4.714283958718594e+00	 1.003450851240167e+01
0	 8.142844762191746e+00	 4.857142012692740e+00	 1.003498976590203e+01
0	 8.142844762191746e+00	 5.000000000000001e+00	 1.003536542240271e+01
0	 8.142844762191748e+00	 5.142857987307259e+00	 1.003556470385049e+01
0	 8.142844762191750e+00	 5.285716041281409e+00	 1.003551683302543e+01
0	 8.142844762191748e+00	 5.428574228589334e+00	 1.003515103354102e+01
0	 8.142844762191748e+00	 5.571432615897929e+00	 1.003439652984408e+01
0	 8.142844762191750e+00	 5.714291269874075e+00	 1.003318254721472e+01
0	 8.285695707769140e+00	 4.285708730125926e+00	 1.002753678783420e+01
0	 8.285695707769140e+00	 4.428567384102073e+00	 1.002895773246822e+01
0	 8.285695707769140e+00	 4.571425771410668e+00	 1.003028301137574e+01
0	 8.285695707769142e+00	 4.714283958718594e+00	 1.003145329017270e+01
0	 8.285695707769142e+00	 4.857142012692742e+00	 1.003240923571628e+01
0	 8.285695707769140e+00	 5.000000000000002e+00	 1.003309151610491e+01
0	 8.285695707769140e+00	 5.142857987307261e+00	 1.003344080067832e+01
0	 8.285695707769140e+00	 5.285716041281408e+00	 1.003339776001747e+01
0	 8.285695707769140e+00	 5.428574228589334e+00	 1.003290306594463e+01
0	 8.285695707769138e+00	 5.571432615897927e+00	 1.003189739152334e+01
0	 8.285695707769140e+00	 5.714291269874073e+00	 1.003032141105830e+01
0	 8.428546786671577e+00	 4.285708730125926e+00	 1.002265534398200e+01
0	 8.428546786671575e+00	 4.428567384102074e+00	 1.002489035610672e+01
0	 8.428546786671578e+00	 4.571425771410667e+00	 1.002683957463386e+01
0	 8.428546786671577e+00	 4.714283958718593e+00	 1.002846166625024e+01
0	 8.428546786671580e+00	 4.857142012692742e+00	 1.002971529917195e+01
0	 8.428546786671575e+00	 5.000000000000000e+00	 1.003055914314444e+01
0	 8.428546786671577e+00	 5.142857987307261e+00	 1.003095186944249e+01
0	 8.428546786671578e+00	 5.285716041281408e+00	 1.003085215087028e+01
0	 8.428546786671575e+00	 5.428574228589335e+00	 1.003021866176125e+01
0	 8.428546786671578e+00	 5.571432615897929e+00	 1.002901007797828e+01
0	 8.428546786671578e+00	 5.714291269874075e+00	 1.002718507691347e+01
0	 8.571398015564817e+00	 4.285708730125926e+00	 1.001863702069465e+01
0	 8.571398015564816e+00	 4.428567384102076e+00	 1.002135198255839e+01
0	 8.571398015564816e+00	 4.571425771410667e+00	 1.002362115546058e+01
0	 8.571398015564816e+00	 4.714283958718593e+00	 1.002542776223800e+01
0	 8.571398015564816e+00	 4.857142012692742e+00	 1.002675502737500e+01
0	 8.571398015564816e+00	 5.000000000000002e+00	 1.002758617700349e+01
0	 8.571398015564814e+00	 5.142857987307261e+00	 1.002790443890303e+01
0	 8.571398015564816e+00	 5.285716041281409e+00	 1.002769304250078e+01
0	 8.571398015564816e+00	 5.428574228589335e+00	 1.002693521887151e+01
0	 8.571398015564816e+00	 5.571432615897928e+00	 1.002561420073759e+01
0	 8.571398015564816e+00	 5.714291269874074e+00	 1.002371322246898e+01
0	 7.142890476327778e+00	 5.714291269874073e+00	 1.005057207044513e+01
0	 7.142890476327777e+00	 5.857150240517927e+00	 1.005022976706189e+01
0	 7.142890476327778e+00	 6.000009511162682e+00	 1.004965323120019e+01
0	 7.142890476327779e+00	 6.142869048474793e+00	 1.004880718170472e+01
0	 7.142890476327777e+00	 6.285728819120713e+00	 1.004765633680486e+01
0	 7.142890476327779e+00	 6.428588789766899e+00	 1.004616541411465e+01
0	 7.142890476327777e+00	 6.571448927079808e+00	 1.004429913063282e+01
0	 7.142890476327779e+00	 6.714309197725897e+00	 1.004202220274284e+01
0	 7.142890476327776e+00	 6.857169568371617e+00	 1.003929934621281e+01
0	 7.142890476327777e+00	 7.000030005683425e+00	 1.003609527619553e+01
0	 7.142890476327779e+00	 7.142890476327780e+00	 1.003237470722851e+01
0	 7.285740955271015e+00	 5.714291269874074e+00	 1.004794827962630e+01
0	 7.285740955271016e+00	 5.857150240517929e+00	 1.004801081559657e+01
0	 7.285740955271013e+00	 6.000009511162681e+00	 1.004769460254928e+01
0	 7.285740955271015e+00	 6.142869048474792e+00	 1.004698971830450e+01
0	 7.285740955271016e+00	 6.285728819120711e+00	 1.004588624004338e+01
0	 7.285740955271015e+00	 6.428588789766900e+00	 1.004437424430822e+01
0	 7.285740955271013e+00	 6.571448927079807e+00	 1.004244380700236e+01
0	 7.285740955271015e+00	 6.714309197725896e+00	 1.004008500339027e+01
0	 7.285740955271014e+00	 6.857169568371615e+00	 1.003728790809752e+01
0	 7.285740955271012e+00	 7.000030005683424e+00	 1.003404259511079e+01
0	 7.285740955271015e+00	 7.142890476327778e+00	 1.003033913777785e+01
0	 7.428591450879008e+00	 5.714291269874074e+00	 1.004547155228655e+01
0	 7.428591450879008e+00	 5.857150240517927e+00	 1.004564129354238e+01
0	 7.428591450879009e+00	 6.000009511162681e+00	 1.004536016108504e+01
0	 7.428591450879010e+00	 6.142869048474793e+00	 1.004463880326349e+01
0	 7.428591450879006e+00	 6.285728819120711e+00	 1.004348786783235e+01
0	 7.428591450879007e+00	 6.428588789766900e+00	 1.004191800195195e+01
0	 7.428591450879006e+00	 6.571448927079810e+00	 1.003993985218831e+01
0	 7.428591450879010e+00	 6.714309197725899e+00	 1.003756406451317e+01
0	 7.428591450879007e+00	 6.857169568371616e+00	 1.003480128430393e+01
0	 7.428591450879004e+00	 7.000030005683424e+00	 1.003166215634376e+01
0	 7.428591450879007e+00	 7.142890476327777e+00	 1.002815732482146e+01
0	 7.571441979817511e+00	 5.714291269874074e+00	 1.004308156479243e+01
0	 7.571441979817510e+00	 5.857150240517928e+00	 1.004312418644980e+01
0	 7.571441979817513e+00	 6.000009511162682e+00	 1.004270483551015e+01
0	 7.571441979817510e+00	 6.142869048474791e+00	 1.004184994250407e+01
0	 7.571441979817512e+00	 6.285728819120713e+00	 1.004058593746473e+01
0	 7.571441979817511e+00	 6.428588789766900e+00	 1.003893924992783e+01
0	 7.571441979817510e+00	 6.571448927079809e+00	 1.003693630893168e+01
0	 7.571441979817512e+00	 6.714309197725898e+00	 1.003460354301713e+01
0	 7.571441979817510e+00	 6.857169568371615e+00	 1.003196738022763e+01
0	 7.571441979817511e+00	 7.000030005683425e+00	 1.002905424810915e+01
0	 7.571441979817511e+00	 7.142890476327779e+00	 1.002589057371030e+01
0	 7.714292558752280e+00	 5.714291269874075e+00	 1.004071799369941e+01
0	 7.714292558752281e+00	 5.857150240517928e+00	 1.004046248006440e+01
0	 7.714292558752280e+00	 6.000009511162681e+00	 1.003978355471192e+01
0	 7.714292558752282e+00	 6.142869048474791e+00	 1.003871864210966e+01
0	 7.714292558752282e+00	 6.285728819120712e+00	 1.003730516636106e+01
0	 7.714292558752283e+00	 6.428588789766900e+00	 1.003558055120543e+01
0	 7.714292558752281e+00	 6.571448927079809e+00	 1.003358222001783e+01
0	 7.714292558752278e+00	 6.714309197725895e+00	 1.003134759580912e+01
0	 7.714292558752278e+00	 6.857169568371614e+00	 1.002891410122601e+01
0	 7.714292558752280e+00	 7.000030005683426e+00	 1.002631915855094e+01
0	 7.714292558752279e+00	 7.142890476327776e+00	 1.002360018970219e+01
0	 7.857143204349075e+00	 5.714291269874074e+00	 1.003832051575183e+01
0	 7.857143204349072e+00	 5.857150240517928e+00	 1.003765916032683e+01
0	 7.857143204349074e+00	 6.000009511162684e+00	 1.003665124776240e+01
0	 7.857143204349075e+00	 6.142869048474791e+00	 1.003534040832474e+01
0	 7.857143204349074e+00	 6.285728819120710e+00	 1.003377027206950e+01
0	 7.857143204349075e+00	 6.428588789766899e+00	 1.003198446884186e+01
0	 7.857143204349074e+00	 6.571448927079810e+00	 1.003002662827646e+01
0	 7.857143204349074e+00	 6.714309197725897e+00	 1.002794037979742e+01
0	 7.857143204349075e+00	 6.857169568371616e+00	 1.002576935261834e+01
0	 7.857143204349074e+00	 7.000030005683427e+00	 1.002355717574230e+01
0	 7.857143204349072e+00	 7.142890476327779e+00	 1.002134747796183e+01
0	 7.999993933273643e+00	 5.714291269874074e+00	 1.003582880788289e+01
0	 7.999993933273645e+00	 5.857150240517928e+00	 1.003471721337283e+01
0	 7.999993933273643e+00	 6.000009511162682e+00	 1.003336284391830e+01
0	 7.999993933273645e+00	 6.142869048474793e+00	 1.003181074755486e+01
0	 7.999993933273643e+00	 6.285728819120711e+00	 1.003010597226571e+01
0	 7.999993933273643e+00	 6.428588789766899e+00	 1.002829356598176e+01
0	 7.999993933273644e+00	 6.571448927079809e+00	 1.002641857658165e+01
0	 7.999993933273643e+00	 6.714309197725896e+00	 1.002452605189164e+01
0	 7.999993933273642e+00	 6.857169568371615e+00	 1.002266103968575e+01
0	 7.999993933273644e+00	 7.000030005683426e+00	 1.002086858768566e+01
0	 7.999993933273645e+00	 7.142890476327779e+00	 1.001919374356073e+01
0	 8.142844762191750e+00	 5.714291269874075e+00	 1.003318254721472e+01
0	 8.142844762191748e+00	 5.857150240517927e+00	 1.003163962553314e+01
0	 8.142844762191746e+00	 6.000009511162682e+00	 1.002997327262101e+01
0	 8.142844762191750e+00	 6.142869048474792e+00	 1.002822516636667e+01
0	 8.142844762191746e+00	 6.285728819120711e+00	 1.002643698475299e+01
0	 8.142844762191748e+00	 6.428588789766899e+00	 1.002465040585738e+01
0	 8.142844762191746e+00	 6.571448927079809e+00	 1.002290710785180e+01
0	 8.142844762191748e+00	 6.714309197725897e+00	 1.002124876900273e+01
0	 8.142844762191745e+00	 6.857169568371616e+00	 1.001971706767117e+01
0	 8.142844762191748e+00	 7.000030005683426e+00	 1.001835368231266e+01
0	 8.142844762191750e+00	 7.142890476327778e+00	 1.001720029147725e+01
0	 8.285695707769140e+00	 5.714291269874073e+00	 1.003032141105830e+01
0	 8.285695707769138e+00	 5.857150240517927e+00	 1.002842938333368e+01
0	 8.285695707769142e+00	 6.000009511162682e+00	 1.002653746349664e+01
0	 8.285695707769140e+00	 6.142869048474792e+00	 1.002467917148787e+01
0	 8.285695707769142e+00	 6.285728819120712e+00	 1.002288802746218e+01
0	 8.285695707769142e+00	 6.428588789766899e+00	 1.002119755178846e+01
0	 8.285695707769140e+00	 6.571448927079808e+00	 1.001964126504970e+01
0	 8.285695707769140e+00	 6.714309197725896e+00	 1.001825268804296e+01
0	 8.285695707769140e+00	 6.857169568371617e+00	 1.001706534177939e+01
0	 8.285695707769140e+00	 7.000030005683424e+00	 1.001611274748418e+01
0	 8.285695707769138e+00	 7.142890476327778e+00	 1.001542842659664e+01
0	 8.428546786671578e+00	 5.714291269874075e+00	 1.002718507691347e+01
0	 8.428546786671578e+00	 5.857150240517927e+00	 1.002508947349538e+01
0	 8.428546786671577e+00	 6.000009511162682e+00	 1.002311034635594e+01
0	 8.428546786671578e+00	 6.142869048474793e+00	 1.002126826980721e+01
0	 8.428546786671573e+00	 6.285728819120710e+00	 1.001958381845170e+01
0	 8.428546786671577e+00	 6.428588789766899e+00	 1.001807756718232e+01
0	 8.428546786671578e+00	 6.571448927079810e+00	 1.001677009118248e+01
0	 8.428546786671577e+00	 6.714309197725897e+00	 1.001568196592597e+01
0	 8.428546786671578e+00	 6.857169568371617e+00	 1.001483376717704e+01
0	 8.428546786671577e+00	 7.000030005683426e+00	 1.001424607099034e+01
0	 8.428546786671575e+00	 7.142890476327779e+00	 1.001393945371094e+01
0	 8.571398015564816e+00	 5.714291269874074e+00	 1.002371322246898e+01
0	 8.571398015564816e+00	 5.857150240517927e+00	 1.002162288293423e+01
0	 8.571398015564816e+00	 6.000009511162681e+00	 1.001974685119438e+01
0	 8.571398015564816e+00	 6.142869048474793e+00	 1.001808796837454e+01
0	 8.571398015564814e+00	 6.285728819120712e+00	 1.001664907590752e+01
0	 8.571398015564816e+00	 6.428588789766899e+00	 1.001543301553383e+01
0	 8.571398015564817e+00	 6.571448927079810e+00	 1.001444262930161e+01
0	 8.571398015564817e+00	 6.714309197725898e+00	 1.001368075956671e+01
0	 8.571398015564816e+00	 6.857169568371617e+00	 1.001315024899261e+01
0	 8.571398015564819e+00	 7.000030005683428e+00	 1.001285394055046e+01
0	 8.571398015564816e+00	 7.142890476327779e+00	 1.001279467751910e+01
0	 7.142890476327779e+00	 7.142890476327780e+00	 1.003237470722851e+01
0	 7.142890476327778e+00	 7.285740955271013e+00	 1.002854247898709e+01
0	 7.142890476327779e+00	 7.428591450879007e+00	 1.002502808279018e+01
0	 7.142890476327778e+00	 7.571441979817512e+00	 1.002183404795970e+01
0	 7.142890476327777e+00	 7.714292558752281e+00	 1.001896290351836e+01
0	 7.142890476327778e+00	 7.857143204349074e+00	 1.001641717818952e+01
0	 7.142890476327777e+00	 7.999993933273643e+00	 1.001419940039731e+01
0	 7.142890476327778e+00	 8.142844762191746e+00	 1.001231209826656e+01
0	 7.142890476327778e+00	 8.285695707769140e+00	 1.001075779962280e+01
0	 7.142890476327778e+00	 8.428546786671575e+00	 1.000953903199231e+01
0	 7.142890476327779e+00	 8.571398015564816e+00	 1.000865832260208e+01
0	 7.285740955271015e+00	 7.142890476327778e+00	 1.003033913777785e+01
0	 7.285740955271015e+00	 7.285740955271015e+00	 1.002659981807978e+01
0	 7.285740955271015e+00	 7.428591450879008e+00	 1.002324376878171e+01
0	 7.285740955271013e+00	 7.571441979817510e+00	 1.002025716522322e+01
0	 7.285740955271013e+00	 7.714292558752281e+00	 1.001762618245779e+01
0	 7.285740955271014e+00	 7.857143204349073e+00	 1.001533699525272e+01
0	 7.285740955271014e+00	 7.999993933273645e+00	 1.001337577808916e+01
0	 7.285740955271014e+00	 8.142844762191746e+00	 1.001172870516209e+01
0	 7.285740955271014e+00	 8.285695707769140e+00	 1.001038195038035e+01
0	 7.285740955271015e+00	 8.428546786671577e+00	 1.000932168736661e+01
0	 7.285740955271014e+00	 8.571398015564816e+00	 1.000853408945739e+01
0	 7.428591450879007e+00	 7.142890476327777e+00	 1.002815732482146e+01
0	 7.428591450879008e+00	 7.285740955271015e+00	 1.002468409685266e+01
0	 7.428591450879009e+00	 7.428591450879008e+00	 1.002161432290136e+01
0	 7.428591450879008e+00	 7.571441979817513e+00	 1.001892123519673e+01
0	 7.428591450879008e+00	 7.714292558752281e+00	 1.001657806571540e+01
0	 7.428591450879005e+00	 7.857143204349073e+00	 1.001455804618146e+01
0	 7.428591450879008e+00	 7.999993933273645e+00	 1.001283440806647e+01
0	 7.428591450879006e+00	 8.142844762191748e+00	 1.001138038258944e+01
0	 7.428591450879005e+00	 8.285695707769140e+00	 1.001016920071680e+01
0	 7.428591450879007e+00	 8.428546786671578e+00	 1.000917409316249e+01
0	 7.428591450879007e+00	 8.571398015564816e+00	 1.000836829038787e+01
0	 7.571441979817511e+00	 7.142890476327779e+00	 1.002589057371030e+01
0	 7.571441979817511e+00	 7.285740955271014e+00	 1.002281574747063e+01
0	 7.571441979817512e+00	 7.428591450879009e+00	 1.002012688293870e+01
0	 7.571441979817508e+00	 7.571441979817509e+00	 1.001778768011561e+01
0	 7.571441979817512e+00	 7.714292558752281e+00	 1.001576183879865e+01
0	 7.571441979817510e+00	 7.857143204349073e+00	 1.001401305858140e+01
0	 7.571441979817513e+00	 7.999993933273644e+00	 1.001250503885369e+01
0	 7.571441979817511e+00	 8.142844762191746e+00	 1.001120147880159e+01
0	 7.571441979817508e+00	 8.285695707769140e+00	 1.001006607740737e+01
0	 7.571441979817509e+00	 8.428546786671577e+00	 1.000906253344961e+01
0	 7.571441979817510e+00	 8.571398015564814e+00	 1.000815454550311e+01
0	 7.714292558752279e+00	 7.142890476327776e+00	 1.002360018970219e+01
0	 7.714292558752280e+00	 7.285740955271013e+00	 1.002101520199565e+01
0	 7.714292558752281e+00	 7.428591450879006e+00	 1.001876858658182e+01
0	 7.714292558752281e+00	 7.571441979817512e+00	 1.001681792212401e+01
0	 7.714292558752278e+00	 7.714292558752279e+00	 1.001512078714049e+01
0	 7.714292558752280e+00	 7.857143204349073e+00	 1.001363476000439e+01
0	 7.714292558752279e+00	 7.999993933273642e+00	 1.001231741894377e+01
0	 7.714292558752280e+00	 8.142844762191750e+00	 1.001112634204160e+01
0	 7.714292558752282e+00	 8.285695707769142e+00	 1.001001910723578e+01
0	 7.714292558752280e+00	 8.428546786671577e+00	 1.000895329231907e+01
0	 7.714292558752279e+00	 8.571398015564812e+00	 1.000788647493921e+01
0	 7.857143204349072e+00	 7.142890476327779e+00	 1.002134747796183e+01
0	 7.857143204349074e+00	 7.285740955271014e+00	 1.001930289238681e+01
0	 7.857143204349072e+00	 7.428591450879005e+00	 1.001752657141731e+01
0	 7.857143204349074e+00	 7.571441979817513e+00	 1.001597338327490e+01
0	 7.857143204349072e+00	 7.714292558752279e+00	 1.001459819609929e+01
0	 7.857143204349074e+00	 7.857143204349075e+00	 1.001335587794835e+01
0	 7.857143204349075e+00	 7.999993933273645e+00	 1.001220129679807e+01
0	 7.857143204349073e+00	 8.142844762191746e+00	 1.001108932054261e+01
0	 7.857143204349073e+00	 8.285695707769138e+00	 1.000997481699425e+01
0	 7.857143204349073e+00	 8.428546786671575e+00	 1.000881265388345e+01
0	 7.857143204349072e+00	 8.571398015564814e+00	 1.000755769885877e+01
0	 7.999993933273645e+00	 7.142890476327779e+00	 1.001919374356073e+01
0	 7.999993933273643e+00	 7.285740955271014e+00	 1.001769925050028e+01
0	 7.999993933273646e+00	 7.428591450879008e+00	 1.001638797493035e+01
0	 7.999993933273642e+00	 7.571441979817511e+00	 1.001521548552999e+01
0	 7.999993933273643e+00	 7.714292558752279e+00	 1.001413735095887e+01
0	 7.999993933273644e+00	 7.857143204349075e+00	 1.001310913985738e+01
0	 7.999993933273644e+00	 7.999993933273643e+00	 1.001208642084647e+01
0	 7.999993933273646e+00	 8.142844762191748e+00	 1.001102476252777e+01
0	 7.999993933273644e+00	 8.285695707769142e+00	 1.000987973348355e+01
0	 7.999993933273643e+00	 8.428546786671577e+00	 1.000860690227674e+01
0	 7.999993933273645e+00	 8.571398015564817e+00	 1.000716183745087e+01
0	 8.142844762191750e+00	 7.142890476327778e+00	 1.001720029147726e+01
0	 8.142844762191750e+00	 7.285740955271015e+00	 1.001622470808931e+01
0	 8.142844762191748e+00	 7.428591450879006e+00	 1.001533993450461e+01
0	 8.142844762191746e+00	 7.571441979817512e+00	 1.001450565075975e+01
0	 8.142844762191748e+00	 7.714292558752281e+00	 1.001368153692851e+01
0	 8.142844762191748e+00	 7.857143204349073e+00	 1.001282727312170e+01
0	 8.142844762191748e+00	 7.999993933273645e+00	 1.001190253948730e+01
0	 8.142844762191746e+00	 8.142844762191746e+00	 1.001086701621034e+01
0	 8.142844762191746e+00	 8.285695707769138e+00	 1.000968038351298e+01
0	 8.142844762191748e+00	 8.428546786671577e+00	 1.000830232165444e+01
0	 8.142844762191750e+00	 8.571398015564817e+00	 1.000669251093108e+01
0	 8.285695707769138e+00	 7.142890476327778e+00	 1.001542842659663e+01
0	 8.285695707769140e+00	 7.285740955271015e+00	 1.001489969680428e+01
0	 8.285695707769142e+00	 7.428591450879006e+00	 1.001436958742229e+01
0	 8.285695707769143e+00	 7.571441979817512e+00	 1.001380530074348e+01
0	 8.285695707769140e+00	 7.714292558752280e+00	 1.001317403914286e+01
0	 8.285695707769140e+00	 7.857143204349074e+00	 1.001244300507767e+01
0	 8.285695707769142e+00	 7.999993933273644e+00	 1.001157940108739e+01
0	 8.285695707769143e+00	 8.142844762191748e+00	 1.001055042979363e+01
0	 8.285695707769140e+00	 8.285695707769140e+00	 1.000932329390031e+01
0	 8.285695707769138e+00	 8.428546786671575e+00	 1.000786519619348e+01
0	 8.285695707769142e+00	 8.571398015564814e+00	 1.000614333954146e+01
0	 8.428546786671575e+00	 7.142890476327779e+00	 1.001393945371094e+01
0	 8.428546786671575e+00	 7.285740955271014e+00	 1.001374464819263e+01
0	 8.428546786671578e+00	 7.428591450879006e+00	 1.001346407086417e+01
0	 8.428546786671577e+00	 7.571441979817509e+00	 1.001307585716921e+01
0	 8.428546786671578e+00	 7.714292558752282e+00	 1.001255814266208e+01
0	 8.428546786671577e+00	 7.857143204349073e+00	 1.001188906300777e+01
0	 8.428546786671578e+00	 7.999993933273643e+00	 1.001104675398196e+01
0	 8.428546786671577e+00	 8.142844762191748e+00	 1.001000935147098e+01
0	 8.428546786671578e+00	 8.285695707769140e+00	 1.000875499147187e+01
0	 8.428546786671578e+00	 8.428546786671578e+00	 1.000726181009228e+01
0	 8.428546786671580e+00	 8.571398015564817e+00	 1.000550794355057e+01
0	 8.571398015564816e+00	 7.142890476327779e+00	 1.001279467751910e+01
0	 8.571398015564816e+00	 7.285740955271013e+00	 1.001277999369892e+01
0	 8.571398015564816e+00	 7.428591450879008e+00	 1.001261052190953e+01
0	 8.571398015564814e+00	 7.571441979817510e+00	 1.001227874163380e+01
0	 8.571398015564814e+00	 7.714292558752279e+00	 1.001177713247175e+01
0	 8.571398015564814e+00	 7.857143204349073e+00	 1.001109817414062e+01
0	 8.571398015564816e+00	 7.999993933273642e+00	 1.001023434647481e+01
0	 8.571398015564817e+00	 8.142844762191748e+00	 1.000917812942584e+01
0	 8.571398015564816e+00	 8.285695707769140e+00	 1.000792200306249e+01
0	 8.571398015564817e+00	 8.428546786671578e+00	 1.000645844757067e+01
0	 8.571398015564816e+00	 8.571398015564816e+00	 1.000477994325345e+01
0	 7.142890476327779e+00	 8.571398015564816e+00	 1.000865832260208e+01
0	 7.142890476327777e+00	 8.714259388995400e+00	 1.000794039736423e+01
0	 7.142890476327779e+00	 8.857120812436387e+00	 1.000719515293586e+01
0	 7.142890476327777e+00	 8.999982169218281e+00	 1.000640272344570e+01
0	 7.142890476327777e+00	 9.142843342671602e+00	 1.000554324341211e+01
0	 7.142890476327778e+00	 9.285704216126854e+00	 1.000459684774305e+01
0	 7.142890476327778e+00	 9.428564672914549e+00	 1.000354367173605e+01
0	 7.142890476327777e+00	 9.571424596365201e+00	 1.000236385107823e+01
0	 7.142890476327778e+00	 9.714283869809321e+00	 1.000103752184621e+01
0	 7.142890476327778e+00	 9.857142376577414e+00	 9.999544820506223e+00
0	 7.142890476327777e+00	 1.000000000000000e+01	 9.997865883914111e+00
0	 7.285740955271014e+00	 8.571398015564816e+00	 1.000853408945740e+01
0	 7.285740955271014e+00	 8.714259388995401e+00	 1.000784576593228e+01
0	 7.285740955271013e+00	 8.857120812436381e+00	 1.000709064718350e+01
0	 7.285740955271013e+00	 8.999982169218281e+00	 1.000626575057808e+01
0	 7.285740955271015e+00	 9.142843342671602e+00	 1.000536809390528e+01
0	 7.285740955271014e+00	 9.285704216126851e+00	 1.000439469537649e+01
0	 7.285740955271014e+00	 9.428564672914547e+00	 1.000334257362526e+01
0	 7.285740955271016e+00	 9.571424596365199e+00	 1.000220874770724e+01
0	 7.285740955271012e+00	 9.714283869809320e+00	 1.000099023710020e+01
0	 7.285740955271016e+00	 9.857142376577416e+00	 9.999684061704167e+00
0	 7.285740955271013e+00	 1.000000000000000e+01	 9.998287241841194e+00
0	 7.428591450879007e+00	 8.571398015564816e+00	 1.000836829038788e+01
0	 7.428591450879005e+00	 8.714259388995398e+00	 1.000760947419026e+01
0	 7.428591450879007e+00	 8.857120812436387e+00	 1.000678014458040e+01
0	 7.428591450879007e+00	 8.999982169218278e+00	 1.000589060835895e+01
0	 7.428591450879006e+00	 9.142843342671600e+00	 1.000495117290209e+01
0	 7.428591450879006e+00	 9.285704216126851e+00	 1.000397214616139e+01
0	 7.428591450879010e+00	 9.428564672914552e+00	 1.000296383666399e+01
0	 7.428591450879008e+00	 9.571424596365199e+00	 1.000193655351238e+01
0	 7.428591450879006e+00	 9.714283869809321e+00	 1.000090060638460e+01
0	 7.428591450879007e+00	 9.857142376577416e+00	 9.999866305534054e+00
0	 7.428591450879007e+00	 1.000000000000000e+01	 9.998843961789690e+00
0	 7.571441979817510e+00	 8.571398015564814e+00	 1.000815454550311e+01
0	 7.571441979817513e+00	 8.714259388995401e+00	 1.000725267814139e+01
0	 7.571441979817510e+00	 8.857120812436385e+00	 1.000630515369602e+01
0	 7.571441979817514e+00	 8.999982169218283e+00	 1.000533197464244e+01
0	 7.571441979817510e+00	 9.142843342671599e+00	 1.000435314427044e+01
0	 7.571441979817511e+00	 9.285704216126852e+00	 1.000338866668408e+01
0	 7.571441979817511e+00	 9.428564672914549e+00	 1.000245854680180e+01
0	 7.571441979817511e+00	 9.571424596365203e+00	 1.000158279035629e+01
0	 7.571441979817509e+00	 9.714283869809316e+00	 1.000078140389464e+01
0	 7.571441979817510e+00	 9.857142376577416e+00	 1.000007439477824e+01
0	 7.571441979817512e+00	 1.000000000000000e+01	 9.999481771182936e+00
0	 7.714292558752279e+00	 8.571398015564812e+00	 1.000788647493921e+01
0	 7.714292558752281e+00	 8.714259388995400e+00	 1.000679653381093e+01
0	 7.714292558752277e+00	 8.857120812436383e+00	 1.000570718310963e+01
0	 7.714292558752280e+00	 8.999982169218278e+00	 1.000464452727504e+01
0	 7.714292558752279e+00	 9.142843342671600e+00	 1.000363467185042e+01
0	 7.714292558752283e+00	 9.285704216126856e+00	 1.000270372348250e+01
0	 7.714292558752280e+00	 9.428564672914549e+00	 1.000187778992158e+01
0	 7.714292558752281e+00	 9.571424596365201e+00	 1.000118298002148e+01
0	 7.714292558752281e+00	 9.714283869809320e+00	 1.000064540373955e+01
0	 7.714292558752281e+00	 9.857142376577420e+00	 1.000029117213678e+01
0	 7.714292558752281e+00	 1.000000000000000e+01	 1.000014639737779e+01
0	 7.857143204349072e+00	 8.571398015564814e+00	 1.000755769885877e+01
0	 7.857143204349072e+00	 8.714259388995398e+00	 1.000626219724617e+01
0	 7.857143204349073e+00	 8.857120812436385e+00	 1.000502774141031e+01
0	 7.857143204349073e+00	 8.999982169218281e+00	 1.000388294409555e+01
0	 7.857143204349072e+00	 9.142843342671599e+00	 1.000285641945412e+01
0	 7.857143204349073e+00	 9.285704216126851e+00	 1.000197678304618e+01
0	 7.857143204349073e+00	 9.428564672914549e+00	 1.000127265183965e+01
0	 7.857143204349074e+00	 9.571424596365203e+00	 1.000077264421045e+01
0	 7.857143204349073e+00	 9.714283869809320e+00	 1.000050537994241e+01
0	 7.857143204349073e+00	 9.857142376577416e+00	 1.000049948022735e+01
0	 7.857143204349074e+00	 1.000000000000000e+01	 1.000078356766514e+01
0	 7.999993933273645e+00	 8.571398015564817e+00	 1.000716183745087e+01
0	 7.999993933273643e+00	 8.714259388995398e+00	 1.000567082451650e+01
0	 7.999993933273643e+00	 8.857120812436383e+00	 1.000430833719696e+01
0	 7.999993933273644e+00	 8.999982169218283e+00	 1.000310190293506e+01
0	 7.999993933273642e+00	 9.142843342671599e+00	 1.000207905086578e+01
0	 7.999993933273645e+00	 9.285704216126854e+00	 1.000126731181623e+01
0	 7.999993933273643e+00	 9.428564672914550e+00	 1.000069421830574e+01
0	 7.999993933273645e+00	 9.571424596365203e+00	 1.000038730454581e+01
0	 7.999993933273643e+00	 9.714283869809320e+00	 1.000037410644028e+01
0	 7.999993933273643e+00	 9.857142376577412e+00	 1.000068216158526e+01
0	 7.999993933273645e+00	 1.000000000000000e+01	 1.000133900926935e+01
0	 8.142844762191750e+00	 8.571398015564817e+00	 1.000669251093107e+01
0	 8.142844762191745e+00	 8.714259388995398e+00	 1.000504357171328e+01
0	 8.142844762191748e+00	 8.857120812436385e+00	 1.000359047907831e+01
0	 8.142844762191746e+00	 8.999982169218280e+00	 1.000235608161706e+01
0	 8.142844762191743e+00	 9.142843342671600e+00	 1.000136322984164e+01
0	 8.142844762191748e+00	 9.285704216126852e+00	 1.000063477618542e+01
0	 8.142844762191746e+00	 9.428564672914547e+00	 1.000019357500296e+01
0	 8.142844762191748e+00	 9.571424596365199e+00	 1.000006248257012e+01
0	 8.142844762191746e+00	 9.714283869809320e+00	 1.000026435708409e+01
0	 8.142844762191748e+00	 9.857142376577416e+00	 1.000082205866354e+01
0	 8.142844762191748e+00	 1.000000000000000e+01	 1.000175844934861e+01
0	 8.285695707769142e+00	 8.571398015564814e+00	 1.000614333954146e+01
0	 8.285695707769142e+00	 8.714259388995401e+00	 1.000440159494995e+01
0	 8.285695707769142e+00	 8.857120812436385e+00	 1.000291567567288e+01
0	 8.285695707769142e+00	 8.999982169218281e+00	 1.000170015795729e+01
0	 8.285695707769138e+00	 9.142843342671600e+00	 1.000076962011011e+01
0	 8.285695707769140e+00	 9.285704216126851e+00	 1.000013864249810e+01
0	 8.285695707769142e+00	 9.428564672914549e+00	 9.999821807547846e+00
0	 8.285695707769140e+00	 9.571424596365203e+00	 9.999833699745906e+00
0	 8.285695707769142e+00	 9.714283869809321e+00	 1.000018890563870e+01
0	 8.285695707769142e+00	 9.857142376577418e+00	 1.000090201383284e+01
0	 8.285695707769140e+00	 9.999999999999998e+00	 1.000198761499500e+01
0	 8.428546786671580e+00	 8.571398015564817e+00	 1.000550794355057e+01
0	 8.428546786671577e+00	 8.714259388995400e+00	 1.000376605036204e+01
0	 8.428546786671577e+00	 8.857120812436385e+00	 1.000232543560903e+01
0	 8.428546786671578e+00	 8.999982169218281e+00	 1.000118880976384e+01
0	 8.428546786671577e+00	 9.142843342671597e+00	 1.000035888537159e+01
0	 8.428546786671575e+00	 9.285704216126849e+00	 9.999838377050192e+00
0	 8.428546786671578e+00	 9.428564672914550e+00	 9.999630001490385e+00
0	 8.428546786671577e+00	 9.571424596365201e+00	 9.999736477455775e+00
0	 8.428546786671578e+00	 9.714283869809321e+00	 1.000016052578294e+01
0	 8.428546786671577e+00	 9.857142376577418e+00	 1.000090486938143e+01
0	 8.428546786671577e+00	 1.000000000000000e+01	 1.000197223323410e+01
0	 8.571398015564816e+00	 8.571398015564816e+00	 1.000477994325345e+01
0	 8.571398015564817e+00	 8.714259388995400e+00	 1.000315809410703e+01
0	 8.571398015564814e+00	 8.857120812436385e+00	 1.000186126752493e+01
0	 8.571398015564817e+00	 8.999982169218281e+00	 1.000087671483715e+01
0	 8.571398015564816e+00	 9.142843342671600e+00	 1.000019168929863e+01
0	 8.571398015564816e+00	 9.285704216126851e+00	 9.999793446089258e+00
0	 8.571398015564816e+00	 9.428564672914549e+00	 9.999669242313868e+00
0	 8.571398015564816e+00	 9.571424596365201e+00	 9.999806337002310e+00
0	 8.571398015564816e+00	 9.714283869809321e+00	 1.000019199110944e+01
0	 8.571398015564816e+00	 9.857142376577418e+00	 1.000081346751534e+01
0	 8.571398015564816e+00	 1.000000000000000e+01	 1.000165803102533e+01
0	 8.571398015564816e+00	 0.000000000000000e+00	 1.001276401761663e+01
0	 8.571398015564816e+00	 1.428576234225853e-01	 1.000235206268524e+01
0	 8.571398015564816e+00	 2.857161301906819e-01	 9.993541610618234e+00
0	 8.571398015564816e+00	 4.285754036348007e-01	 9.986378851818385e+00
0	 8.571398015564812e+00	 5.714353270854530e-01	 9.980909986584576e+00
0	 8.571398015564816e+00	 7.142957838731496e-01	 9.977181225111106e+00
0	 8.571398015564817e+00	 8.571566573284017e-01	 9.975238787487172e+00
0	 8.571398015564816e+00	 1.000017830781720e+00	 9.975128903696456e+00
0	 8.571398015564816e+00	 1.142879187563616e+00	 9.976897813616874e+00
0	 8.571398015564814e+00	 1.285740611004601e+00	 9.980591767020355e+00
0	 8.571398015564817e+00	 1.428601984435185e+00	 9.986257023572850e+00
0	 8.714259388995400e+00	 0.000000000000000e+00	 1.000694116540391e+01
0	 8.714259388995400e+00	 1.428576234225853e-01	 9.996870628770665e+00
0	 8.714259388995401e+00	 2.857161301906819e-01	 9.988346669180741e+00
0	 8.714259388995398e+00	 4.285754036348007e-01	 9.981409232993270e+00
0	 8.714259388995398e+00	 5.714353270854530e-01	 9.976098276044532e+00
0	 8.714259388995400e+00	 7.142957838731496e-01	 9.972453763647223e+00
0	 8.714259388995400e+00	 8.571566573284018e-01	 9.970515670590062e+00
0	 8.714259388995405e+00	 1.000017830781720e+00	 9.970323981137325e+00
0	 8.714259388995401e+00	 1.142879187563616e+00	 9.971918689028627e+00
0	 8.714259388995398e+00	 1.285740611004601e+00	 9.975339797478725e+00
0	 8.714259388995401e+00	 1.428601984435185e+00	 9.980627319177536e+00
0	 8.857120812436385e+00	 0.000000000000000e+00	 9.995334030124454e+00
0	 8.857120812436383e+00	 1.428576234225852e-01	 9.987332430226001e+00
0	 8.857120812436387e+00	 2.857161301906819e-01	 9.980581987698953e+00
0	 8.857120812436387e+00	 4.285754036348008e-01	 9.975114708395360e+00
0	 8.857120812436385e+00	 5.714353270854532e-01	 9.970962605951577e+00
0	 8.857120812436385e+00	 7.142957838731496e-01	 9.968157701787652e+00
0	 8.857120812436385e+00	 8.571566573284017e-01	 9.966732025107031e+00
0	 8.857120812436385e+00	 1.000017830781720e+00	 9.966717612896174e+00
0	 8.857120812436385e+00	 1.142879187563616e+00	 9.968146509924395e+00
0	 8.857120812436381e+00	 1.285740611004601e+00	 9.971050768743705e+00
0	 8.857120812436387e+00	 1.428601984435185e+00	 9.975462449688818e+00
0	 8.999982169218280e+00	 0.000000000000000e+00	 9.979677165261279e+00
0	 8.999982169218283e+00	 1.428576234225853e-01	 9.974820816200150e+00
0	 8.999982169218281e+00	 2.857161301906819e-01	 9.970776830411651e+00
0	 8.999982169218280e+00	 4.285754036348006e-01	 9.967567573717433e+00
0	 8.999982169218281e+00	 5.714353270854531e-01	 9.965215417232656e+00
0	 8.999982169218281e+00	 7.142957838731495e-01	 9.963742737365600e+00
0	 8.999982169218281e+00	 8.571566573284017e-01	 9.963171915817519e+00
0	 8.999982169218280e+00	 1.000017830781720e+00	 9.963525339582342e+00
0	 8.999982169218283e+00	 1.142879187563616e+00	 9.964825400946587e+00
0	 8.999982169218283e+00	 1.285740611004601e+00	 9.967094497489304e+00
0	 8.999982169218283e+00	 1.428601984435185e+00	 9.970355032082068e+00
0	 9.142843342671599e+00	 0.000000000000000e+00	 9.961705120896882e+00
0	 9.142843342671599e+00	 1.428576234225852e-01	 9.960419132347285e+00
0	 9.142843342671595e+00	 2.857161301906818e-01	 9.959460458063973e+00
0	 9.142843342671599e+00	 4.285754036348007e-01	 9.958840121246613e+00
0	 9.142843342671599e+00	 5.714353270854531e-01	 9.958569147575632e+00
0	 9.142843342671600e+00	 7.142957838731496e-01	 9.958658565212080e+00
0	 9.142843342671602e+00	 8.571566573284016e-01	 9.959119404797512e+00
0	 9.142843342671600e+00	 1.000017830781720e+00	 9.959962699453961e+00
0	 9.142843342671599e+00	 1.142879187563616e+00	 9.961199484783876e+00
0	 9.142843342671600e+00	 1.285740611004601e+00	 9.962840798870129e+00
0	 9.142843342671602e+00	 1.428601984435186e+00	 9.964897682276012e+00
0	 9.285704216126852e+00	 0.000000000000000e+00	 9.943152443713267e+00
0	 9.285704216126851e+00	 1.428576234225852e-01	 9.945210720826845e+00
0	 9.285704216126849e+00	 2.857161301906819e-01	 9.947162127907372e+00
0	 9.285704216126851e+00	 4.285754036348007e-01	 9.949004639864386e+00
0	 9.285704216126851e+00	 5.714353270854530e-01	 9.950736231429399e+00
0	 9.285704216126852e+00	 7.142957838731496e-01	 9.952354877155917e+00
0	 9.285704216126854e+00	 8.571566573284018e-01	 9.953858551419557e+00
0	 9.285704216126852e+00	 1.000017830781720e+00	 9.955245228418040e+00
0	 9.285704216126851e+00	 1.142879187563616e+00	 9.956512882171252e+00
0	 9.285704216126851e+00	 1.285740611004601e+00	 9.957659486521333e+00
0	 9.285704216126852e+00	 1.428601984435185e+00	 9.958683015132696e+00
0	 9.428564672914549e+00	 0.000000000000000e+00	 9.925753676991961e+00
0	 9.428564672914549e+00	 1.428576234225853e-01	 9.930278920303559e+00
0	 9.428564672914547e+00	 2.857161301906819e-01	 9.934411093699655e+00
0	 9.428564672914550e+00	 4.285754036348007e-01	 9.938133415046581e+00
0	 9.428564672914549e+00	 5.714353270854532e-01	 9.941429100003742e+00
0	 9.428564672914550e+00	 7.142957838731496e-01	 9.944281362023773e+00
0	 9.428564672914549e+00	 8.571566573284016e-01	 9.946673412352760e+00
0	 9.428564672914550e+00	 1.000017830781720e+00	 9.948588460030370e+00
0	 9.428564672914549e+00	 1.142879187563616e+00	 9.950009711889955e+00
0	 9.428564672914549e+00	 1.285740611004600e+00	 9.950920372558677e+00
0	 9.428564672914550e+00	 1.428601984435186e+00	 9.951303644457546e+00
0	 9.571424596365201e+00	 0.000000000000000e+00	 9.911243360613982e+00
0	 9.571424596365205e+00	 1.428576234225853e-01	 9.916707065947367e+00
0	 9.571424596365201e+00	 2.857161301906819e-01	 9.921736605704893e+00
0	 9.571424596365203e+00	 4.285754036348007e-01	 9.926298728863333e+00
0	 9.571424596365201e+00	 5.714353270854530e-01	 9.930360181269394e+00
0	 9.571424596365201e+00	 7.142957838731496e-01	 9.933887705640029e+00
0	 9.571424596365203e+00	 8.571566573284018e-01	 9.936848041562722e+00
0	 9.571424596365199e+00	 1.000017830781720e+00	 9.939207925495586e+00
0	 9.571424596365201e+00	 1.142879187563616e+00	 9.940934090767541e+00
0	 9.571424596365203e+00	 1.285740611004601e+00	 9.941993267578493e+00
0	 9.571424596365201e+00	 1.428601984435185e+00	 9.942352182999317e+00
0	 9.714283869809320e+00	 0.000000000000000e+00	 9.901356031059736e+00
0	 9.714283869809321e+00	 1.428576234225853e-01	 9.905578489433362e+00
0	 9.714283869809321e+00	 2.857161301906819e-01	 9.909667910693392e+00
0	 9.714283869809318e+00	 4.285754036348007e-01	 9.913572859978943e+00
0	 9.714283869809320e+00	 5.714353270854531e-01	 9.917241899957851e+00
0	 9.714283869809320e+00	 7.142957838731496e-01	 9.920623590826763e+00
0	 9.714283869809320e+00	 8.571566573284015e-01	 9.923666490311472e+00
0	 9.714283869809321e+00	 1.000017830781720e+00	 9.926319153666993e+00
0	 9.714283869809320e+00	 1.142879187563616e+00	 9.928530133677764e+00
0	 9.714283869809320e+00	 1.285740611004601e+00	 9.930247980657649e+00
0	 9.714283869809320e+00	 1.428601984435185e+00	 9.931421242450154e+00
0	 9.857142376577416e+00	 0.000000000000000e+00	 9.897826221408947e+00
0	 9.857142376577416e+00	 1.428576234225853e-01	 9.897976518941645e+00
0	 9.857142376577416e+00	 2.857161301906819e-01	 9.898734251941431e+00
0	 9.857142376577418e+00	 4.285754036348007e-01	 9.900028083651817e+00
0	 9.857142376577416e+00	 5.714353270854531e-01	 9.901786677561333e+00
0	 9.857142376577416e+00	 7.142957838731495e-01	 9.903938697403584e+00
0	 9.857142376577418e+00	 8.571566573284017e-01	 9.906412807157366e+00
0	 9.857142376577418e+00	 1.000017830781720e+00	 9.909137671046601e+00
0	 9.857142376577416e+00	 1.142879187563616e+00	 9.912041953540488e+00
0	 9.857142376577416e+00	 1.285740611004601e+00	 9.915054319353517e+00
0	 9.857142376577418e+00	 1.428601984435185e+00	 9.918103433445474e+00
0	 1.000000000000000e+01	 0.000000000000000e+00	 9.902388461340411e+00
0	 1.000000000000000e+01	 1.428576234225853e-01	 9.894984479157117e+00
0	 1.000000000000000e+01	 2.857161301906819e-01	 9.889464869231203e+00
0	 9.999999999999998e+00	 4.285754036348007e-01	 9.885736671734154e+00
0	 1.000000000000000e+01	 5.714353270854531e-01	 9.883706932332483e+00
0	 1.000000000000000e+01	 7.142957838731496e-01	 9.883282702187476e+00
0	 1.000000000000000e+01	 8.571566573284017e-01	 9.884371037954907e+00
0	 1.000000000000000e+01	 1.000017830781720e+00	 9.886879001784887e+00
0	 1.000000000000000e+01	 1.142879187563616e+00	 9.890713661321731e+00
0	 1.000000000000000e+01	 1.285740611004601e+00	 9.895782089703868e+00
0	 1.000000000000000e+01	 1.428601984435185e+00	 9.901991365563989e+00
0	 8.571398015564817e+00	 1.428601984435185e+00	 9.986257023572847e+00
0	 8.571398015564816e+00	 1.571453213328422e+00	 9.992530999732082e+00
0	 8.571398015564817e+00	 1.714304292230859e+00	 9.998017557950412e+00
0	 8.571398015564814e+00	 1.857155237808251e+00	 1.000271123481448e+01
0	 8.571398015564816e+00	 2.000006066726355e+00	 1.000660656745715e+01
0	 8.571398015564817e+00	 2.142856795650926e+00	 1.000969809355748e+01
0	 8.571398015564816e+00	 2.285707441247718e+00	 1.001198035134073e+01
0	 8.571398015564816e+00	 2.428558020182488e+00	 1.001344787957838e+01
0	 8.571398015564814e+00	 2.571408549120992e+00	 1.001409521758813e+01
0	 8.571398015564816e+00	 2.714259044728984e+00	 1.001391690523391e+01
0	 8.571398015564814e+00	 2.857109523672223e+00	 1.001290748292587e+01
0	 8.714259388995401e+00	 1.428601984435185e+00	 9.980627319177536e+00
0	 8.714259388995401e+00	 1.571453213328423e+00	 9.986470388729352e+00
0	 8.714259388995400e+00	 1.714304292230859e+00	 9.991538359536307e+00
0	 8.714259388995401e+00	 1.857155237808252e+00	 9.995840270860670e+00
0	 8.714259388995400e+00	 2.000006066726356e+00	 9.999385162494463e+00
0	 8.714259388995400e+00	 2.142856795650926e+00	 1.000218207475947e+01
0	 8.714259388995398e+00	 2.285707441247717e+00	 1.000424004850729e+01
0	 8.714259388995400e+00	 2.428558020182488e+00	 1.000556812511928e+01
0	 8.714259388995400e+00	 2.571408549120992e+00	 1.000617534650661e+01
0	 8.714259388995400e+00	 2.714259044728985e+00	 1.000607075511024e+01
0	 8.714259388995398e+00	 2.857109523672221e+00	 1.000526339390094e+01
0	 8.857120812436387e+00	 1.428601984435185e+00	 9.975462449688818e+00
0	 8.857120812436385e+00	 1.571453213328422e+00	 9.980313066220010e+00
0	 8.857120812436385e+00	 1.714304292230859e+00	 9.984526784959211e+00
0	 8.857120812436383e+00	 1.857155237808251e+00	 9.988123565184644e+00
0	 8.857120812436387e+00	 2.000006066726355e+00	 9.991123366600107e+00
0	 8.857120812436385e+00	 2.142856795650926e+00	 9.993546149335044e+00
0	 8.857120812436385e+00	 2.285707441247718e+00	 9.995411873944466e+00
0	 8.857120812436383e+00	 2.428558020182488e+00	 9.996740501409018e+00
0	 8.857120812436383e+00	 2.571408549120992e+00	 9.997551993134959e+00
0	 8.857120812436383e+00	 2.714259044728984e+00	 9.997866310954159e+00
0	 8.857120812436381e+00	 2.857109523672222e+00	 9.997703417124116e+00
0	 8.999982169218283e+00	 1.428601984435185e+00	 9.970355032082065e+00
0	 8.999982169218283e+00	 1.571453213328422e+00	 9.973901033296132e+00
0	 8.999982169218281e+00	 1.714304292230859e+00	 9.977030316225960e+00
0	 8.999982169218280e+00	 1.857155237808252e+00	 9.979770177329717e+00
0	 8.999982169218281e+00	 2.000006066726355e+00	 9.982147913329959e+00
0	 8.999982169218281e+00	 2.142856795650926e+00	 9.984190821213691e+00
0	 8.999982169218283e+00	 2.285707441247717e+00	 9.985926198232294e+00
0	 8.999982169218283e+00	 2.428558020182489e+00	 9.987381341901569e+00
0	 8.999982169218281e+00	 2.571408549120993e+00	 9.988583550001765e+00
0	 8.999982169218281e+00	 2.714259044728985e+00	 9.989560120577531e+00
0	 8.999982169218281e+00	 2.857109523672223e+00	 9.990338351937922e+00
0	 9.142843342671602e+00	 1.428601984435186e+00	 9.964897682276012e+00
0	 9.142843342671599e+00	 1.571453213328422e+00	 9.967076290474422e+00
0	 9.142843342671600e+00	 1.714304292230858e+00	 9.969096435251924e+00
0	 9.142843342671600e+00	 1.857155237808251e+00	 9.970989167216651e+00
0	 9.142843342671600e+00	 2.000006066726355e+00	 9.972785537053648e+00
0	 9.142843342671599e+00	 2.142856795650925e+00	 9.974516595524898e+00
0	 9.142843342671597e+00	 2.285707441247717e+00	 9.976213393469326e+00
0	 9.142843342671600e+00	 2.428558020182488e+00	 9.977906981802779e+00
0	 9.142843342671600e+00	 2.571408549120992e+00	 9.979628411518039e+00
0	 9.142843342671599e+00	 2.714259044728984e+00	 9.981408733684844e+00
0	 9.142843342671599e+00	 2.857109523672221e+00	 9.983278999449864e+00
0	 9.285704216126852e+00	 1.428601984435185e+00	 9.958683015132697e+00
0	 9.285704216126851e+00	 1.571453213328422e+00	 9.959680837696251e+00
0	 9.285704216126851e+00	 1.714304292230859e+00	 9.960772623861047e+00
0	 9.285704216126851e+00	 1.857155237808251e+00	 9.961989595143654e+00
0	 9.285704216126852e+00	 2.000006066726355e+00	 9.963362972954563e+00
0	 9.285704216126854e+00	 2.142856795650925e+00	 9.964923978598149e+00
0	 9.285704216126852e+00	 2.285707441247717e+00	 9.966703833272687e+00
0	 9.285704216126851e+00	 2.428558020182488e+00	 9.968733758070352e+00
0	 9.285704216126854e+00	 2.571408549120992e+00	 9.971044973977223e+00
0	 9.285704216126852e+00	 2.714259044728985e+00	 9.973668701873276e+00
0	 9.285704216126852e+00	 2.857109523672223e+00	 9.976636162532383e+00
0	 9.428564672914550e+00	 1.428601984435186e+00	 9.951303644457546e+00
0	 9.428564672914550e+00	 1.571453213328422e+00	 9.951556674327675e+00
0	 9.428564672914549e+00	 1.714304292230859e+00	 9.952106363785802e+00
0	 9.428564672914549e+00	 1.857155237808251e+00	 9.952980521786383e+00
0	 9.428564672914550e+00	 2.000006066726355e+00	 9.954206957029918e+00
0	 9.428564672914547e+00	 2.142856795650925e+00	 9.955813477962957e+00
0	 9.428564672914550e+00	 2.285707441247718e+00	 9.957827892778106e+00
0	 9.428564672914550e+00	 2.428558020182488e+00	 9.960278009413988e+00
0	 9.428564672914549e+00	 2.571408549120992e+00	 9.963191635555273e+00
0	 9.428564672914549e+00	 2.714259044728984e+00	 9.966596578632695e+00
0	 9.428564672914547e+00	 2.857109523672222e+00	 9.970520645822987e+00
0	 9.571424596365201e+00	 1.428601984435185e+00	 9.942352182999317e+00
0	 9.571424596365201e+00	 1.571453213328422e+00	 9.942545799159458e+00
0	 9.571424596365205e+00	 1.714304292230859e+00	 9.943145136667301e+00
0	 9.571424596365198e+00	 1.857155237808251e+00	 9.944171008197992e+00
0	 9.571424596365205e+00	 2.000006066726356e+00	 9.945644226090767e+00
0	 9.571424596365203e+00	 2.142856795650926e+00	 9.947585602348950e+00
0	 9.571424596365201e+00	 2.285707441247718e+00	 9.950015948639976e+00
0	 9.571424596365203e+00	 2.428558020182488e+00	 9.952956076295360e+00
0	 9.571424596365201e+00	 2.571408549120992e+00	 9.956426796310726e+00
0	 9.571424596365199e+00	 2.714259044728984e+00	 9.960448919345776e+00
0	 9.571424596365201e+00	 2.857109523672222e+00	 9.965043255724286e+00
0	 9.714283869809320e+00	 1.428601984435185e+00	 9.931421242450154e+00
0	 9.714283869809320e+00	 1.571453213328422e+00	 9.932490210407041e+00
0	 9.714283869809320e+00	 1.714304292230859e+00	 9.933936424055256e+00
0	 9.714283869809321e+00	 1.857155237808252e+00	 9.935770115809202e+00
0	 9.714283869809321e+00	 2.000006066726355e+00	 9.938001517762089e+00
0	 9.714283869809321e+00	 2.142856795650926e+00	 9.940640861685923e+00
0	 9.714283869809321e+00	 2.285707441247718e+00	 9.943698379031476e+00
0	 9.714283869809321e+00	 2.428558020182488e+00	 9.947184300928312e+00
0	 9.714283869809321e+00	 2.571408549120992e+00	 9.951108858184801e+00
0	 9.714283869809320e+00	 2.714259044728984e+00	 9.955482281288070e+00
0	 9.714283869809321e+00	 2.857109523672222e+00	 9.960314800404074e+00
0	 9.857142376577418e+00	 1.428601984435185e+00	 9.918103433445470e+00
0	 9.857142376577416e+00	 1.571453213328422e+00	 9.921231905710599e+00
0	 9.857142376577420e+00	 1.714304292230859e+00	 9.924527707408037e+00
0	 9.857142376577418e+00	 1.857155237808251e+00	 9.927986906428334e+00
0	 9.857142376577420e+00	 2.000006066726356e+00	 9.931605570482889e+00
0	 9.857142376577416e+00	 2.142856795650926e+00	 9.935379767103949e+00
0	 9.857142376577418e+00	 2.285707441247718e+00	 9.939305563644641e+00
0	 9.857142376577416e+00	 2.428558020182488e+00	 9.943379027278880e+00
0	 9.857142376577414e+00	 2.571408549120991e+00	 9.947596225001501e+00
0	 9.857142376577416e+00	 2.714259044728984e+00	 9.951953223628214e+00
0	 9.857142376577416e+00	 2.857109523672222e+00	 9.956446089795483e+00
0	 1.000000000000000e+01	 1.428601984435185e+00	 9.901991365563987e+00
0	 1.000000000000000e+01	 1.571453213328422e+00	 9.908612882134976e+00
0	 1.000000000000000e+01	 1.714304292230859e+00	 9.914966468092681e+00
0	 1.000000000000000e+01	 1.857155237808251e+00	 9.921030442241367e+00
0	 1.000000000000000e+01	 2.000006066726355e+00	 9.926783123506219e+00
0	 9.999999999999998e+00	 2.142856795650925e+00	 9.932202830933512e+00
0	 1.000000000000000e+01	 2.285707441247718e+00	 9.937267883690488e+00
0	 1.000000000000000e+01	 2.428558020182488e+00	 9.941956601065487e+00
0	 1.000000000000000e+01	 2.571408549120992e+00	 9.946247302467842e+00
0	 1.000000000000000e+01	 2.714259044728984e+00	 9.950118307427907e+00
0	 9.999999999999998e+00	 2.857109523672222e+00	 9.953547935597115e+00
0	 8.571398015564814e+00	 2.857109523672223e+00	 1.001290748292587e+01
0	 8.571398015564816e+00	 2.999969994316575e+00	 1.001164822159744e+01
0	 8.571398015564812e+00	 3.142830431628385e+00	 1.001073860823652e+01
0	 8.571398015564816e+00	 3.285690802274106e+00	 1.001020020850580e+01
0	 8.571398015564816e+00	 3.428551072920193e+00	 1.001005458860601e+01
0	 8.571398015564816e+00	 3.571411210233102e+00	 1.001032331527595e+01
0	 8.571398015564816e+00	 3.714271180879290e+00	 1.001102795579248e+01
0	 8.571398015564816e+00	 3.857130951525211e+00	 1.001219007797055e+01
0	 8.571398015564817e+00	 3.999990488837320e+00	 1.001383125016317e+01
0	 8.571398015564816e+00	 4.142849759482074e+00	 1.001597304126146e+01
0	 8.571398015564817e+00	 4.285708730125926e+00	 1.001863702069465e+01
0	 8.714259388995398e+00	 2.857109523672221e+00	 1.000526339390094e+01
0	 8.714259388995401e+00	 2.999969994316575e+00	 1.000432942680760e+01
0	 8.714259388995400e+00	 3.142830431628386e+00	 1.000383608670896e+01
0	 8.714259388995401e+00	 3.285690802274106e+00	 1.000377877808329e+01
0	 8.714259388995401e+00	 3.428551072920193e+00	 1.000415290594374e+01
0	 8.714259388995400e+00	 3.571411210233103e+00	 1.000495387583839e+01
0	 8.714259388995401e+00	 3.714271180879290e+00	 1.000617709385021e+01
0	 8.714259388995401e+00	 3.857130951525211e+00	 1.000781796659709e+01
0	 8.714259388995401e+00	 3.999990488837321e+00	 1.000987190123188e+01
0	 8.714259388995400e+00	 4.142849759482074e+00	 1.001233430544236e+01
0	 8.714259388995398e+00	 4.285708730125926e+00	 1.001520058745121e+01
0	 8.857120812436381e+00	 2.857109523672222e+00	 9.997703417124113e+00
0	 8.857120812436388e+00	 2.999969994316576e+00	 9.997525968076680e+00
0	 8.857120812436383e+00	 3.142830431628385e+00	 9.997767463833625e+00
0	 8.857120812436387e+00	 3.285690802274106e+00	 9.998404049741421e+00
0	 8.857120812436385e+00	 3.428551072920193e+00	 9.999411871555306e+00
0	 8.857120812436383e+00	 3.571411210233102e+00	 1.000076707543931e+01
0	 8.857120812436381e+00	 3.714271180879289e+00	 1.000244580796628e+01
0	 8.857120812436385e+00	 3.857130951525210e+00	 1.000442421611787e+01
0	 8.857120812436383e+00	 3.999990488837319e+00	 1.000667844728448e+01
0	 8.857120812436385e+00	 4.142849759482075e+00	 1.000918464926539e+01
0	 8.857120812436381e+00	 4.285708730125926e+00	 1.001191897026869e+01
0	 8.999982169218281e+00	 2.857109523672223e+00	 9.990338351937924e+00
0	 8.999982169218280e+00	 2.999969994316576e+00	 9.991195824757519e+00
0	 8.999982169218283e+00	 3.142830431628385e+00	 9.992367683035486e+00
0	 8.999982169218281e+00	 3.285690802274106e+00	 9.993817714938285e+00
0	 8.999982169218283e+00	 3.428551072920194e+00	 9.995509708833808e+00
0	 8.999982169218281e+00	 3.571411210233102e+00	 9.997407453291306e+00
0	 8.999982169218283e+00	 3.714271180879291e+00	 9.999474737081464e+00
0	 8.999982169218278e+00	 3.857130951525210e+00	 1.000167534917637e+01
0	 8.999982169218283e+00	 3.999990488837320e+00	 1.000397307874955e+01
0	 8.999982169218283e+00	 4.142849759482074e+00	 1.000633171517593e+01
0	 8.999982169218281e+00	 4.285708730125926e+00	 1.000871504803190e+01
0	 9.142843342671599e+00	 2.857109523672221e+00	 9.983278999449860e+00
0	 9.142843342671602e+00	 2.999969994316576e+00	 9.985296977693300e+00
0	 9.142843342671599e+00	 3.142830431628386e+00	 9.987471688833603e+00
0	 9.142843342671602e+00	 3.285690802274107e+00	 9.989761465742019e+00
0	 9.142843342671600e+00	 3.428551072920194e+00	 9.992124641244269e+00
0	 9.142843342671600e+00	 3.571411210233101e+00	 9.994519548120484e+00
0	 9.142843342671599e+00	 3.714271180879289e+00	 9.996904519105279e+00
0	 9.142843342671600e+00	 3.857130951525211e+00	 9.999237886887707e+00
0	 9.142843342671599e+00	 3.999990488837320e+00	 1.000147798411128e+01
0	 9.142843342671602e+00	 4.142849759482074e+00	 1.000358314337399e+01
0	 9.142843342671599e+00	 4.285708730125926e+00	 1.000551169722827e+01
0	 9.285704216126852e+00	 2.857109523672223e+00	 9.976636162532383e+00
0	 9.285704216126852e+00	 2.999969994316576e+00	 9.979787409217577e+00
0	 9.285704216126852e+00	 3.142830431628385e+00	 9.982914426841143e+00
0	 9.285704216126854e+00	 3.285690802274106e+00	 9.985976994830736e+00
0	 9.285704216126852e+00	 3.428551072920193e+00	 9.988934892323599e+00
0	 9.285704216126851e+00	 3.571411210233103e+00	 9.991747898166592e+00
0	 9.285704216126851e+00	 3.714271180879290e+00	 9.994375790916223e+00
0	 9.285704216126852e+00	 3.857130951525211e+00	 9.996778348838610e+00
0	 9.285704216126852e+00	 3.999990488837320e+00	 9.998915349909508e+00
0	 9.285704216126851e+00	 4.142849759482074e+00	 1.000074657181427e+01
0	 9.285704216126852e+00	 4.285708730125926e+00	 1.000223179194789e+01
0	 9.428564672914547e+00	 2.857109523672222e+00	 9.970520645822987e+00
0	 9.428564672914549e+00	 2.999969994316575e+00	 9.974625103154345e+00
0	 9.428564672914549e+00	 3.142830431628386e+00	 9.978530843765482e+00
0	 9.428564672914549e+00	 3.285690802274106e+00	 9.982205995492631e+00
0	 9.428564672914549e+00	 3.428551072920193e+00	 9.985618685680643e+00
0	 9.428564672914552e+00	 3.571411210233104e+00	 9.988737041182972e+00
0	 9.428564672914550e+00	 3.714271180879290e+00	 9.991529188361671e+00
0	 9.428564672914549e+00	 3.857130951525210e+00	 9.993963253087474e+00
0	 9.428564672914550e+00	 3.999990488837321e+00	 9.996007360739654e+00
0	 9.428564672914549e+00	 4.142849759482075e+00	 9.997629636206156e+00
0	 9.428564672914549e+00	 4.285708730125926e+00	 9.998798203883489e+00
0	 9.571424596365201e+00	 2.857109523672222e+00	 9.965043255724286e+00
0	 9.571424596365203e+00	 2.999969994316576e+00	 9.969768044818101e+00
0	 9.571424596365201e+00	 3.142830431628385e+00	 9.974155887408180e+00
0	 9.571424596365199e+00	 3.285690802274106e+00	 9.978190161626021e+00
0	 9.571424596365199e+00	 3.428551072920193e+00	 9.981854244996233e+00
0	 9.571424596365201e+00	 3.571411210233103e+00	 9.985131514436571e+00
0	 9.571424596365201e+00	 3.714271180879290e+00	 9.988005346257907e+00
0	 9.571424596365203e+00	 3.857130951525210e+00	 9.990459116164258e+00
0	 9.571424596365201e+00	 3.999990488837320e+00	 9.992476199252765e+00
0	 9.571424596365201e+00	 4.142849759482074e+00	 9.994039970013688e+00
0	 9.571424596365199e+00	 4.285708730125925e+00	 9.995133802330390e+00
0	 9.714283869809321e+00	 2.857109523672222e+00	 9.960314800404070e+00
0	 9.714283869809321e+00	 2.999969994316576e+00	 9.965174221013896e+00
0	 9.714283869809320e+00	 3.142830431628385e+00	 9.969624506665095e+00
0	 9.714283869809321e+00	 3.285690802274106e+00	 9.973671187739351e+00
0	 9.714283869809321e+00	 3.428551072920194e+00	 9.977319794023202e+00
0	 9.714283869809320e+00	 3.571411210233103e+00	 9.980575854708036e+00
0	 9.714283869809320e+00	 3.714271180879290e+00	 9.983444898390122e+00
0	 9.714283869809320e+00	 3.857130951525209e+00	 9.985932453070587e+00
0	 9.714283869809321e+00	 3.999990488837321e+00	 9.988044046155439e+00
0	 9.714283869809320e+00	 4.142849759482075e+00	 9.989785204455497e+00
0	 9.714283869809320e+00	 4.285708730125926e+00	 9.991161454186464e+00
0	 9.857142376577416e+00	 2.857109523672222e+00	 9.956446089795481e+00
0	 9.857142376577416e+00	 2.999969994316576e+00	 9.960801620037520e+00
0	 9.857142376577416e+00	 3.142830431628386e+00	 9.964771651526489e+00
0	 9.857142376577418e+00	 3.285690802274106e+00	 9.968390768951327e+00
0	 9.857142376577418e+00	 3.428551072920193e+00	 9.971693556586395e+00
0	 9.857142376577418e+00	 3.571411210233103e+00	 9.974714598291618e+00
0	 9.857142376577416e+00	 3.714271180879290e+00	 9.977488477512367e+00
0	 9.857142376577420e+00	 3.857130951525211e+00	 9.980049777279609e+00
0	 9.857142376577418e+00	 3.999990488837320e+00	 9.982433080209747e+00
0	 9.857142376577414e+00	 4.142849759482074e+00	 9.984672968504732e+00
0	 9.857142376577416e+00	 4.285708730125926e+00	 9.986804023952036e+00
0	 9.999999999999998e+00	 2.857109523672222e+00	 9.953547935597115e+00
0	 1.000000000000000e+01	 2.999969994316576e+00	 9.956608231675494e+00
0	 1.000000000000000e+01	 3.142830431628385e+00	 9.959432273077066e+00
0	 1.000000000000000e+01	 3.285690802274106e+00	 9.962090600990903e+00
0	 1.000000000000000e+01	 3.428551072920193e+00	 9.964653756582752e+00
0	 1.000000000000000e+01	 3.571411210233102e+00	 9.967192280995194e+00
0	 1.000000000000000e+01	 3.714271180879290e+00	 9.969776715347535e+00
0	 1.000000000000000e+01	 3.857130951525210e+00	 9.972477600735910e+00
0	 1.000000000000000e+01	 3.999990488837320e+00	 9.975365478233138e+00
0	 1.000000000000000e+01	 4.142849759482075e+00	 9.978510888888936e+00
0	 1.000000000000000e+01	 4.285708730125926e+00	 9.981984373729727e+00
0	 8.571398015564817e+00	 4.285708730125926e+00	 1.001863702069465e+01
0	 8.571398015564816e+00	 4.428567384102076e+00	 1.002135198255839e+01
0	 8.571398015564816e+00	 4.571425771410667e+00	 1.002362115546058e+01
0	 8.571398015564816e+00	 4.714283958718593e+00	 1.002542776223800e+01
0	 8.571398015564816e+00	 4.857142012692742e+00	 1.002675502737500e+01
0	 8.571398015564816e+00	 5.000000000000002e+00	 1.002758617700349e+01
0	 8.571398015564814e+00	 5.142857987307261e+00	 1.002790443890303e+01
0	 8.571398015564816e+00	 5.285716041281409e+00	 1.002769304250078e+01
0	 8.571398015564816e+00	 5.428574228589335e+00	 1.002693521887151e+01
0	 8.571398015564816e+00	 5.571432615897928e+00	 1.002561420073759e+01
0	 8.571398015564816e+00	 5.714291269874074e+00	 1.002371322246899e+01
0	 8.714259388995398e+00	 4.285708730125926e+00	 1.001520058745121e+01
0	 8.714259388995400e+00	 4.428567384102074e+00	 1.001799773700746e+01
0	 8.714259388995398e+00	 4.571425771410667e+00	 1.002026096679582e+01
0	 8.714259388995400e+00	 4.714283958718593e+00	 1.002199802101741e+01
0	 8.714259388995398e+00	 4.857142012692742e+00	 1.002321664543806e+01
0	 8.714259388995400e+00	 5.000000000000000e+00	 1.002392458738849e+01
0	 8.714259388995398e+00	 5.142857987307261e+00	 1.002412959576418e+01
0	 8.714259388995400e+00	 5.285716041281409e+00	 1.002383942102545e+01
0	 8.714259388995400e+00	 5.428574228589335e+00	 1.002306181519748e+01
0	 8.714259388995400e+00	 5.571432615897928e+00	 1.002180453187026e+01
0	 8.714259388995401e+00	 5.714291269874074e+00	 1.002007532619856e+01
0	 8.857120812436381e+00	 4.285708730125926e+00	 1.001191897026869e+01
0	 8.857120812436385e+00	 4.428567384102074e+00	 1.001448323180727e+01
0	 8.857120812436383e+00	 4.571425771410667e+00	 1.001651224691084e+01
0	 8.857120812436383e+00	 4.714283958718593e+00	 1.001803165236288e+01
0	 8.857120812436381e+00	 4.857142012692742e+00	 1.001906708627167e+01
0	 8.857120812436385e+00	 5.000000000000002e+00	 1.001964418807031e+01
0	 8.857120812436383e+00	 5.142857987307260e+00	 1.001978859851669e+01
0	 8.857120812436383e+00	 5.285716041281408e+00	 1.001952595969357e+01
0	 8.857120812436387e+00	 5.428574228589335e+00	 1.001888191500854e+01
0	 8.857120812436385e+00	 5.571432615897929e+00	 1.001788210919402e+01
0	 8.857120812436385e+00	 5.714291269874074e+00	 1.001655218830724e+01
0	 8.999982169218281e+00	 4.285708730125926e+00	 1.000871504803190e+01
0	 8.999982169218283e+00	 4.428567384102075e+00	 1.001085029201543e+01
0	 8.999982169218281e+00	 4.571425771410667e+00	 1.001251340176567e+01
0	 8.999982169218281e+00	 4.714283958718593e+00	 1.001374127766447e+01
0	 8.999982169218281e+00	 4.857142012692742e+00	 1.001457082108388e+01
0	 8.999982169218281e+00	 5.000000000000001e+00	 1.001503893438617e+01
0	 8.999982169218280e+00	 5.142857987307258e+00	 1.001518252092386e+01
0	 8.999982169218281e+00	 5.285716041281408e+00	 1.001503848503975e+01
0	 8.999982169218281e+00	 5.428574228589336e+00	 1.001464373206688e+01
0	 8.999982169218280e+00	 5.571432615897929e+00	 1.001403516832851e+01
0	 8.999982169218280e+00	 5.714291269874074e+00	 1.001324970113820e+01
0	 9.142843342671599e+00	 4.285708730125926e+00	 1.000551169722827e+01
0	 9.142843342671602e+00	 4.428567384102076e+00	 1.000714074031177e+01
0	 9.142843342671602e+00	 4.571425771410667e+00	 1.000840283511247e+01
0	 9.142843342671602e+00	 4.714283958718594e+00	 1.000933951639190e+01
0	 9.142843342671602e+00	 4.857142012692742e+00	 1.000999231953527e+01
0	 9.142843342671597e+00	 5.000000000000001e+00	 1.001040278055147e+01
0	 9.142843342671597e+00	 5.142857987307260e+00	 1.001061243607309e+01
0	 9.142843342671599e+00	 5.285716041281409e+00	 1.001066282335645e+01
0	 9.142843342671600e+00	 5.428574228589334e+00	 1.001059548028154e+01
0	 9.142843342671600e+00	 5.571432615897928e+00	 1.001045194535212e+01
0	 9.142843342671597e+00	 5.714291269874074e+00	 1.001027375769562e+01
0	 9.285704216126852e+00	 4.285708730125926e+00	 1.000223179194789e+01
0	 9.285704216126852e+00	 4.428567384102075e+00	 1.000339639699841e+01
0	 9.285704216126852e+00	 4.571425771410667e+00	 1.000431894849550e+01
0	 9.285704216126854e+00	 4.714283958718593e+00	 1.000503898609461e+01
0	 9.285704216126852e+00	 4.857142012692742e+00	 1.000559604973902e+01
0	 9.285704216126851e+00	 5.000000000000000e+00	 1.000602967965981e+01
0	 9.285704216126851e+00	 5.142857987307261e+00	 1.000637941637586e+01
0	 9.285704216126852e+00	 5.285716041281407e+00	 1.000668480069391e+01
0	 9.285704216126852e+00	 5.428574228589335e+00	 1.000698537370849e+01
0	 9.285704216126852e+00	 5.571432615897926e+00	 1.000732067680200e+01
0	 9.285704216126852e+00	 5.714291269874074e+00	 1.000773025164465e+01
0	 9.428564672914549e+00	 4.285708730125926e+00	 9.998798203883489e+00
0	 9.428564672914550e+00	 4.428567384102075e+00	 9.999659079999741e+00
0	 9.428564672914550e+00	 4.571425771410667e+00	 1.000040014125112e+01
0	 9.428564672914549e+00	 4.714283958718593e+00	 1.000105230240172e+01
0	 9.428564672914550e+00	 4.857142012692742e+00	 1.000164647826083e+01
0	 9.428564672914549e+00	 5.000000000000001e+00	 1.000221358368295e+01
0	 9.428564672914550e+00	 5.142857987307260e+00	 1.000278453356776e+01
0	 9.428564672914549e+00	 5.285716041281409e+00	 1.000339024286025e+01
0	 9.428564672914549e+00	 5.428574228589336e+00	 1.000406162655055e+01
0	 9.428564672914549e+00	 5.571432615897928e+00	 1.000482959967410e+01
0	 9.428564672914550e+00	 5.714291269874074e+00	 1.000572507731154e+01
0	 9.571424596365199e+00	 4.285708730125925e+00	 9.995133802330390e+00
0	 9.571424596365201e+00	 4.428567384102073e+00	 9.995970604862347e+00
0	 9.571424596365199e+00	 4.571425771410667e+00	 9.996784810507789e+00
0	 9.571424596365201e+00	 4.714283958718593e+00	 9.997592079022056e+00
0	 9.571424596365199e+00	 4.857142012692742e+00	 9.998408070118950e+00
0	 9.571424596365203e+00	 5.000000000000001e+00	 9.999248443470830e+00
0	 9.571424596365203e+00	 5.142857987307261e+00	 1.000012885870852e+01
0	 9.571424596365199e+00	 5.285716041281408e+00	 1.000106497542144e+01
0	 9.571424596365203e+00	 5.428574228589335e+00	 1.000207245315752e+01
0	 9.571424596365201e+00	 5.571432615897927e+00	 1.000316695142321e+01
0	 9.571424596365199e+00	 5.714291269874074e+00	 1.000436412968359e+01
0	 9.714283869809320e+00	 4.285708730125926e+00	 9.991161454186464e+00
0	 9.714283869809321e+00	 4.428567384102075e+00	 9.992372784754973e+00
0	 9.714283869809321e+00	 4.571425771410667e+00	 9.993611351185969e+00
0	 9.714283869809321e+00	 4.714283958718594e+00	 9.994870927744055e+00
0	 9.714283869809321e+00	 4.857142012692741e+00	 9.996145288784160e+00
0	 9.714283869809321e+00	 5.000000000000001e+00	 9.997428208751575e+00
0	 9.714283869809320e+00	 5.142857987307260e+00	 9.998713462181954e+00
0	 9.714283869809321e+00	 5.285716041281409e+00	 9.999994823701314e+00
0	 9.714283869809321e+00	 5.428574228589335e+00	 1.000126606802606e+01
0	 9.714283869809320e+00	 5.571432615897927e+00	 1.000252096996296e+01
0	 9.714283869809320e+00	 5.714291269874073e+00	 1.000375330440923e+01
0	 9.857142376577416e+00	 4.285708730125926e+00	 9.986804023952036e+00
0	 9.857142376577416e+00	 4.428567384102075e+00	 9.988907430468469e+00
0	 9.857142376577416e+00	 4.571425771410667e+00	 9.991018155998034e+00
0	 9.857142376577418e+00	 4.714283958718593e+00	 9.993101458435699e+00
0	 9.857142376577420e+00	 4.857142012692742e+00	 9.995122596179645e+00
0	 9.857142376577416e+00	 5.000000000000000e+00	 9.997046828131461e+00
0	 9.857142376577416e+00	 5.142857987307260e+00	 9.998839413696002e+00
0	 9.857142376577416e+00	 5.285716041281407e+00	 1.000046561278161e+01
0	 9.857142376577416e+00	 5.428574228589334e+00	 1.000189068579989e+01
0	 9.857142376577418e+00	 5.571432615897928e+00	 1.000307989366591e+01
0	 9.857142376577416e+00	 5.714291269874074e+00	 1.000399849779807e+01
0	 1.000000000000000e+01	 4.285708730125926e+00	 9.981984373729727e+00
0	 1.000000000000000e+01	 4.428567384102075e+00	 9.985616350415558e+00
0	 1.000000000000000e+01	 4.571425771410668e+00	 9.989143615448240e+00
0	 1.000000000000000e+01	 4.714283958718593e+00	 9.992496279044470e+00
0	 1.000000000000000e+01	 4.857142012692742e+00	 9.995604452681015e+00
0	 1.000000000000000e+01	 5.000000000000002e+00	 9.998398249094762e+00
0	 1.000000000000000e+01	 5.142857987307262e+00	 1.000080778228269e+01
0	 1.000000000000000e+01	 5.285716041281409e+00	 1.000276316750192e+01
0	 1.000000000000000e+01	 5.428574228589335e+00	 1.000419452126973e+01
0	 1.000000000000000e+01	 5.571432615897928e+00	 1.000503196136357e+01
0	 1.000000000000000e+01	 5.714291269874075e+00	 1.000520560682097e+01
0	 8.571398015564816e+00	 5.714291269874074e+00	 1.002371322246899e+01
0	 8.571398015564816e+00	 5.857150240517927e+00	 1.002162288293423e+01
0	 8.571398015564816e+00	 6.000009511162681e+00	 1.001974685119438e+01
0	 8.571398015564816e+00	 6.142869048474793e+00	 1.001808796837454e+01
0	 8.571398015564814e+00	 6.285728819120712e+00	 1.001664907590752e+01
0	 8.571398015564816e+00	 6.428588789766899e+00	 1.001543301553383e+01
0	 8.571398015564817e+00	 6.571448927079810e+00	 1.001444262930161e+01
0	 8.571398015564817e+00	 6.714309197725898e+00	 1.001368075956671e+01
0	 8.571398015564816e+00	 6.857169568371617e+00	 1.001315024899261e+01
0	 8.571398015564819e+00	 7.000030005683428e+00	 1.001285394055046e+01
0	 8.571398015564816e+00	 7.142890476327779e+00	 1.001279467751910e+01
0	 8.714259388995401e+00	 5.714291269874074e+00	 1.002007532619856e+01
0	 8.714259388995400e+00	 5.857150240517928e+00	 1.001824912570894e+01
0	 8.714259388995403e+00	 6.000009511162682e+00	 1.001668585981670e+01
0	 8.714259388995401e+00	 6.142869048474792e+00	 1.001537078787536e+01
0	 8.714259388995400e+00	 6.285728819120712e+00	 1.001428916949464e+01
0	 8.714259388995400e+00	 6.428588789766899e+00	 1.001342626454044e+01
0	 8.714259388995401e+00	 6.571448927079811e+00	 1.001276733313483e+01
0	 8.714259388995400e+00	 6.714309197725897e+00	 1.001229763565605e+01
0	 8.714259388995401e+00	 6.857169568371616e+00	 1.001200243273852e+01
0	 8.714259388995400e+00	 7.000030005683427e+00	 1.001186698527279e+01
0	 8.714259388995398e+00	 7.142890476327777e+00	 1.001187655440557e+01
0	 8.857120812436385e+00	 5.714291269874074e+00	 1.001655218830724e+01
0	 8.857120812436385e+00	 5.857150240517928e+00	 1.001519966675980e+01
0	 8.857120812436385e+00	 6.000009511162680e+00	 1.001409680790596e+01
0	 8.857120812436385e+00	 6.142869048474791e+00	 1.001321638232405e+01
0	 8.857120812436385e+00	 6.285728819120715e+00	 1.001253116074393e+01
0	 8.857120812436387e+00	 6.428588789766901e+00	 1.001201391404697e+01
0	 8.857120812436385e+00	 6.571448927079809e+00	 1.001163741326603e+01
0	 8.857120812436381e+00	 6.714309197725893e+00	 1.001137442958545e+01
0	 8.857120812436383e+00	 6.857169568371615e+00	 1.001119773434107e+01
0	 8.857120812436385e+00	 7.000030005683425e+00	 1.001108009902021e+01
0	 8.857120812436385e+00	 7.142890476327779e+00	 1.001099429526166e+01
0	 8.999982169218280e+00	 5.714291269874074e+00	 1.001324970113820e+01
0	 8.999982169218283e+00	 5.857150240517928e+00	 1.001249467890614e+01
0	 8.999982169218281e+00	 6.000009511162684e+00	 1.001192976108260e+01
0	 8.999982169218281e+00	 6.142869048474792e+00	 1.001152032229548e+01
0	 8.999982169218280e+00	 6.285728819120711e+00	 1.001123173718823e+01
0	 8.999982169218281e+00	 6.428588789766900e+00	 1.001102938041973e+01
0	 8.999982169218280e+00	 6.571448927079809e+00	 1.001087862666441e+01
0	 8.999982169218280e+00	 6.714309197725894e+00	 1.001074485061219e+01
0	 8.999982169218283e+00	 6.857169568371617e+00	 1.001059342696842e+01
0	 8.999982169218281e+00	 7.000030005683427e+00	 1.001038973045402e+01
0	 8.999982169218280e+00	 7.142890476327776e+00	 1.001009913580534e+01
0	 9.142843342671597e+00	 5.714291269874074e+00	 1.001027375769562e+01
0	 9.142843342671599e+00	 5.857150240517928e+00	 1.001015433569797e+01
0	 9.142843342671602e+00	 6.000009511162683e+00	 1.001013478565029e+01
0	 9.142843342671600e+00	 6.142869048474794e+00	 1.001017817890810e+01
0	 9.142843342671597e+00	 6.285728819120711e+00	 1.001024758669692e+01
0	 9.142843342671599e+00	 6.428588789766900e+00	 1.001030608011230e+01
0	 9.142843342671602e+00	 6.571448927079810e+00	 1.001031673011984e+01
0	 9.142843342671599e+00	 6.714309197725896e+00	 1.001024260755515e+01
0	 9.142843342671600e+00	 6.857169568371616e+00	 1.001004678312385e+01
0	 9.142843342671600e+00	 7.000030005683425e+00	 1.000969232740164e+01
0	 9.142843342671599e+00	 7.142890476327778e+00	 1.000914231083420e+01
0	 9.285704216126852e+00	 5.714291269874074e+00	 1.000773025164465e+01
0	 9.285704216126852e+00	 5.857150240517927e+00	 1.000819881141601e+01
0	 9.285704216126852e+00	 6.000009511162681e+00	 1.000866194859596e+01
0	 9.285704216126854e+00	 6.142869048474792e+00	 1.000908552382384e+01
0	 9.285704216126851e+00	 6.285728819120711e+00	 1.000943539747597e+01
0	 9.285704216126851e+00	 6.428588789766899e+00	 1.000967742966556e+01
0	 9.285704216126851e+00	 6.571448927079808e+00	 1.000977748024279e+01
0	 9.285704216126849e+00	 6.714309197725896e+00	 1.000970140879484e+01
0	 9.285704216126852e+00	 6.857169568371616e+00	 1.000941507464577e+01
0	 9.285704216126851e+00	 7.000030005683424e+00	 1.000888433685664e+01
0	 9.285704216126852e+00	 7.142890476327779e+00	 1.000807505422548e+01
0	 9.428564672914550e+00	 5.714291269874074e+00	 1.000572507731154e+01
0	 9.428564672914550e+00	 5.857150240517927e+00	 1.000664828107172e+01
0	 9.428564672914547e+00	 6.000009511162681e+00	 1.000746131758973e+01
0	 9.428564672914549e+00	 6.142869048474791e+00	 1.000813792924823e+01
0	 9.428564672914550e+00	 6.285728819120711e+00	 1.000865185806793e+01
0	 9.428564672914549e+00	 6.428588789766899e+00	 1.000897684570771e+01
0	 9.428564672914552e+00	 6.571448927079810e+00	 1.000908663346450e+01
0	 9.428564672914547e+00	 6.714309197725897e+00	 1.000895496227342e+01
0	 9.428564672914550e+00	 6.857169568371617e+00	 1.000855557270772e+01
0	 9.428564672914547e+00	 7.000030005683427e+00	 1.000786220497874e+01
0	 9.428564672914549e+00	 7.142890476327777e+00	 1.000684859893600e+01
0	 9.571424596365199e+00	 5.714291269874074e+00	 1.000436412968359e+01
0	 9.571424596365203e+00	 5.857150240517928e+00	 1.000552292040734e+01
0	 9.571424596365199e+00	 6.000009511162681e+00	 1.000648296098509e+01
0	 9.571424596365201e+00	 6.142869048474791e+00	 1.000723096793036e+01
0	 9.571424596365201e+00	 6.285728819120712e+00	 1.000775365735198e+01
0	 9.571424596365201e+00	 6.428588789766899e+00	 1.000803774495423e+01
0	 9.571424596365199e+00	 6.571448927079808e+00	 1.000806994603677e+01
0	 9.571424596365201e+00	 6.714309197725895e+00	 1.000783697549465e+01
0	 9.571424596365203e+00	 6.857169568371617e+00	 1.000732554781836e+01
0	 9.571424596365205e+00	 7.000030005683429e+00	 1.000652237709378e+01
0	 9.571424596365203e+00	 7.142890476327779e+00	 1.000541417700220e+01
0	 9.714283869809320e+00	 5.714291269874073e+00	 1.000375330440923e+01
0	 9.714283869809318e+00	 5.857150240517929e+00	 1.000484290589593e+01
0	 9.714283869809320e+00	 6.000009511162683e+00	 1.000567694781883e+01
0	 9.714283869809321e+00	 6.142869048474792e+00	 1.000626021316293e+01
0	 9.714283869809321e+00	 6.285728819120712e+00	 1.000659748454390e+01
0	 9.714283869809321e+00	 6.428588789766899e+00	 1.000669354420800e+01
0	 9.714283869809320e+00	 6.571448927079810e+00	 1.000655317403215e+01
0	 9.714283869809323e+00	 6.714309197725897e+00	 1.000618115552391e+01
0	 9.714283869809320e+00	 6.857169568371615e+00	 1.000558226982146e+01
0	 9.714283869809321e+00	 7.000030005683427e+00	 1.000476129769368e+01
0	 9.714283869809321e+00	 7.142890476327778e+00	 1.000372301954007e+01
0	 9.857142376577416e+00	 5.714291269874074e+00	 1.000399849779807e+01
0	 9.857142376577418e+00	 5.857150240517927e+00	 1.000462841474143e+01
0	 9.857142376577416e+00	 6.000009511162682e+00	 1.000499334781108e+01
0	 9.857142376577416e+00	 6.142869048474791e+00	 1.000512123878235e+01
0	 9.857142376577416e+00	 6.285728819120711e+00	 1.000504002919616e+01
0	 9.857142376577418e+00	 6.428588789766900e+00	 1.000477766035921e+01
0	 9.857142376577416e+00	 6.571448927079808e+00	 1.000436207334386e+01
0	 9.857142376577418e+00	 6.714309197725896e+00	 1.000382120898816e+01
0	 9.857142376577416e+00	 6.857169568371617e+00	 1.000318300789589e+01
0	 9.857142376577418e+00	 7.000030005683426e+00	 1.000247541043647e+01
0	 9.857142376577414e+00	 7.142890476327778e+00	 1.000172635674513e+01
0	 1.000000000000000e+01	 5.714291269874075e+00	 1.000520560682097e+01
0	 1.000000000000000e+01	 5.857150240517928e+00	 1.000489962487873e+01
0	 1.000000000000000e+01	 6.000009511162681e+00	 1.000438223136554e+01
0	 1.000000000000000e+01	 6.142869048474791e+00	 1.000370961916869e+01
0	 9.999999999999998e+00	 6.285728819120711e+00	 1.000293798119793e+01
0	 1.000000000000000e+01	 6.428588789766900e+00	 1.000212351038544e+01
0	 1.000000000000000e+01	 6.571448927079809e+00	 1.000132239968579e+01
0	 1.000000000000000e+01	 6.714309197725897e+00	 1.000059084207600e+01
0	 1.000000000000000e+01	 6.857169568371615e+00	 9.999985030555525e+00
0	 1.000000000000000e+01	 7.000030005683427e+00	 9.999561158146236e+00
0	 1.000000000000000e+01	 7.142890476327777e+00	 9.999375417892393e+00
0	 8.571398015564816e+00	 7.142890476327779e+00	 1.001279467751910e+01
0	 8.571398015564816e+00	 7.285740955271013e+00	 1.001277999369892e+01
0	 8.571398015564816e+00	 7.428591450879008e+00	 1.001261052190953e+01
0	 8.571398015564814e+00	 7.571441979817510e+00	 1.001227874163380e+01
0	 8.571398015564814e+00	 7.714292558752279e+00	 1.001177713247175e+01
0	 8.571398015564814e+00	 7.857143204349073e+00	 1.001109817414062e+01
0	 8.571398015564816e+00	 7.999993933273642e+00	 1.001023434647480e+01
0	 8.571398015564817e+00	 8.142844762191748e+00	 1.000917812942584e+01
0	 8.571398015564816e+00	 8.285695707769140e+00	 1.000792200306249e+01
0	 8.571398015564817e+00	 8.428546786671578e+00	 1.000645844757067e+01
0	 8.571398015564816e+00	 8.571398015564816e+00	 1.000477994325345e+01
0	 8.714259388995398e+00	 7.142890476327777e+00	 1.001187655440557e+01
0	 8.714259388995400e+00	 7.285740955271015e+00	 1.001185796334568e+01
0	 8.714259388995400e+00	 7.428591450879006e+00	 1.001165215277861e+01
0	 8.714259388995401e+00	 7.571441979817512e+00	 1.001126554412800e+01
0	 8.714259388995396e+00	 7.714292558752279e+00	 1.001070455891619e+01
0	 8.714259388995401e+00	 7.857143204349073e+00	 1.000997561876418e+01
0	 8.714259388995400e+00	 7.999993933273644e+00	 1.000908514539158e+01
0	 8.714259388995400e+00	 8.142844762191748e+00	 1.000803956061677e+01
0	 8.714259388995401e+00	 8.285695707769142e+00	 1.000684528635670e+01
0	 8.714259388995401e+00	 8.428546786671578e+00	 1.000550874462705e+01
0	 8.714259388995400e+00	 8.571398015564816e+00	 1.000403635754211e+01
0	 8.857120812436385e+00	 7.142890476327779e+00	 1.001099429526166e+01
0	 8.857120812436385e+00	 7.285740955271013e+00	 1.001082260101870e+01
0	 8.857120812436387e+00	 7.428591450879007e+00	 1.001047619936232e+01
0	 8.857120812436385e+00	 7.571441979817511e+00	 1.000997123634945e+01
0	 8.857120812436387e+00	 7.714292558752279e+00	 1.000932385809809e+01
0	 8.857120812436385e+00	 7.857143204349073e+00	 1.000855021078734e+01
0	 8.857120812436388e+00	 7.999993933273646e+00	 1.000766644065740e+01
0	 8.857120812436381e+00	 8.142844762191746e+00	 1.000668869400954e+01
0	 8.857120812436387e+00	 8.285695707769140e+00	 1.000563311720609e+01
0	 8.857120812436385e+00	 8.428546786671575e+00	 1.000451585667053e+01
0	 8.857120812436383e+00	 8.571398015564814e+00	 1.000335305888734e+01
0	 8.999982169218280e+00	 7.142890476327776e+00	 1.001009913580534e+01
0	 8.999982169218283e+00	 7.285740955271016e+00	 1.000968187703489e+01
0	 8.999982169218278e+00	 7.428591450879007e+00	 1.000913565886668e+01
0	 8.999982169218283e+00	 7.571441979817514e+00	 1.000848213469683e+01
0	 8.999982169218283e+00	 7.714292558752282e+00	 1.000774295793413e+01
0	 8.999982169218280e+00	 7.857143204349074e+00	 1.000693978199996e+01
0	 8.999982169218281e+00	 7.999993933273644e+00	 1.000609426032838e+01
0	 8.999982169218280e+00	 8.142844762191750e+00	 1.000522804636603e+01
0	 8.999982169218280e+00	 8.285695707769138e+00	 1.000436279357224e+01
0	 8.999982169218280e+00	 8.428546786671577e+00	 1.000352015541892e+01
0	 8.999982169218283e+00	 8.571398015564817e+00	 1.000272178539063e+01
0	 9.142843342671599e+00	 7.142890476327778e+00	 1.000914231083420e+01
0	 9.142843342671602e+00	 7.285740955271013e+00	 1.000844376080409e+01
0	 9.142843342671600e+00	 7.428591450879005e+00	 1.000768352769060e+01
0	 9.142843342671602e+00	 7.571441979817513e+00	 1.000688455492783e+01
0	 9.142843342671599e+00	 7.714292558752279e+00	 1.000606978591141e+01
0	 9.142843342671600e+00	 7.857143204349073e+00	 1.000526216399844e+01
0	 9.142843342671599e+00	 7.999993933273642e+00	 1.000448463250754e+01
0	 9.142843342671600e+00	 8.142844762191748e+00	 1.000376013471879e+01
0	 9.142843342671599e+00	 8.285695707769140e+00	 1.000311161387379e+01
0	 9.142843342671599e+00	 8.428546786671575e+00	 1.000256201317566e+01
0	 9.142843342671600e+00	 8.571398015564816e+00	 1.000213427578897e+01
0	 9.285704216126852e+00	 7.142890476327779e+00	 1.000807505422548e+01
0	 9.285704216126854e+00	 7.285740955271016e+00	 1.000711622082900e+01
0	 9.285704216126852e+00	 7.428591450879007e+00	 1.000617280142586e+01
0	 9.285704216126852e+00	 7.571441979817512e+00	 1.000526481215908e+01
0	 9.285704216126854e+00	 7.714292558752281e+00	 1.000441226908752e+01
0	 9.285704216126851e+00	 7.857143204349073e+00	 1.000363518818590e+01
0	 9.285704216126854e+00	 7.999993933273644e+00	 1.000295358534489e+01
0	 9.285704216126852e+00	 8.142844762191750e+00	 1.000238747637095e+01
0	 9.285704216126852e+00	 8.285695707769140e+00	 1.000195687698649e+01
0	 9.285704216126851e+00	 8.428546786671577e+00	 1.000168180282975e+01
0	 9.285704216126851e+00	 8.571398015564816e+00	 1.000158226945488e+01
0	 9.428564672914549e+00	 7.142890476327777e+00	 1.000684859893600e+01
0	 9.428564672914549e+00	 7.285740955271014e+00	 1.000570722470522e+01
0	 9.428564672914550e+00	 7.428591450879009e+00	 1.000465647485722e+01
0	 9.428564672914549e+00	 7.571441979817511e+00	 1.000370922086622e+01
0	 9.428564672914545e+00	 7.714292558752278e+00	 1.000287833409046e+01
0	 9.428564672914547e+00	 7.857143204349073e+00	 1.000217668577213e+01
0	 9.428564672914549e+00	 7.999993933273645e+00	 1.000161714703738e+01
0	 9.428564672914549e+00	 8.142844762191746e+00	 1.000121258889634e+01
0	 9.428564672914549e+00	 8.285695707769143e+00	 1.000097588224311e+01
0	 9.428564672914547e+00	 8.428546786671577e+00	 1.000091989785577e+01
0	 9.428564672914549e+00	 8.571398015564816e+00	 1.000105750639636e+01
0	 9.571424596365203e+00	 7.142890476327779e+00	 1.000541417700220e+01
0	 9.571424596365198e+00	 7.285740955271014e+00	 1.000422473912126e+01
0	 9.571424596365199e+00	 7.428591450879007e+00	 1.000318754196223e+01
0	 9.571424596365201e+00	 7.571441979817511e+00	 1.000230409488383e+01
0	 9.571424596365199e+00	 7.714292558752280e+00	 1.000157590711872e+01
0	 9.571424596365203e+00	 7.857143204349074e+00	 1.000100448777354e+01
0	 9.571424596365199e+00	 7.999993933273644e+00	 1.000059134582891e+01
0	 9.571424596365201e+00	 8.142844762191748e+00	 1.000033799013941e+01
0	 9.571424596365201e+00	 8.285695707769140e+00	 1.000024592943358e+01
0	 9.571424596365203e+00	 8.428546786671578e+00	 1.000031667231394e+01
0	 9.571424596365201e+00	 8.571398015564814e+00	 1.000055172725698e+01
0	 9.714283869809321e+00	 7.142890476327778e+00	 1.000372301954007e+01
0	 9.714283869809321e+00	 7.285740955271014e+00	 1.000267672985841e+01
0	 9.714283869809321e+00	 7.428591450879006e+00	 1.000181899591135e+01
0	 9.714283869809320e+00	 7.571441979817510e+00	 1.000113574740540e+01
0	 9.714283869809321e+00	 7.714292558752279e+00	 1.000061291394115e+01
0	 9.714283869809320e+00	 7.857143204349073e+00	 1.000023642501323e+01
0	 9.714283869809320e+00	 7.999993933273643e+00	 9.999992210010351e+00
0	 9.714283869809321e+00	 8.142844762191748e+00	 9.999866198215299e+00
0	 9.714283869809320e+00	 8.285695707769140e+00	 9.999844318804900e+00
0	 9.714283869809321e+00	 8.428546786671578e+00	 9.999912500850090e+00
0	 9.714283869809321e+00	 8.571398015564816e+00	 1.000005667331585e+01
0	 9.857142376577414e+00	 7.142890476327778e+00	 1.000172635674513e+01
0	 9.857142376577416e+00	 7.285740955271015e+00	 1.000107116179079e+01
0	 9.857142376577416e+00	 7.428591450879007e+00	 1.000060382906783e+01
0	 9.857142376577416e+00	 7.571441979817511e+00	 1.000029049098340e+01
0	 9.857142376577418e+00	 7.714292558752279e+00	 1.000009727989708e+01
0	 9.857142376577416e+00	 7.857143204349073e+00	 9.999990328120944e+00
0	 9.857142376577416e+00	 7.999993933273645e+00	 9.999935767919517e+00
0	 9.857142376577416e+00	 8.142844762191748e+00	 9.999899731509796e+00
0	 9.857142376577418e+00	 8.285695707769142e+00	 9.999848351061232e+00
0	 9.857142376577420e+00	 8.428546786671578e+00	 9.999747758695726e+00
0	 9.857142376577418e+00	 8.571398015564816e+00	 9.999564086487691e+00
0	 1.000000000000000e+01	 7.142890476327777e+00	 9.999375417892395e+00
0	 1.000000000000000e+01	 7.285740955271013e+00	 9.999415998885292e+00
0	 1.000000000000000e+01	 7.428591450879007e+00	 9.999595032987731e+00
0	 1.000000000000000e+01	 7.571441979817512e+00	 9.999854637529101e+00
0	 1.000000000000000e+01	 7.714292558752281e+00	 1.000013692989618e+01
0	 1.000000000000000e+01	 7.857143204349074e+00	 1.000038402753308e+01
0	 1.000000000000000e+01	 7.999993933273645e+00	 1.000053804794123e+01
0	 1.000000000000000e+01	 8.142844762191748e+00	 1.000054110867946e+01
0	 9.999999999999998e+00	 8.285695707769140e+00	 1.000033532736389e+01
0	 1.000000000000000e+01	 8.428546786671577e+00	 9.999862821668060e+00
0	 1.000000000000000e+01	 8.571398015564816e+00	 9.999065709322830e+00
0	 8.571398015564816e+00	 8.571398015564816e+00	 1.000477994325345e+01
0	 8.571398015564817e+00	 8.714259388995400e+00	 1.000315809410703e+01
0	 8.571398015564814e+00	 8.857120812436385e+00	 1.000186126752492e+01
0	 8.571398015564817e+00	 8.999982169218281e+00	 1.000087671483715e+01
0	 8.571398015564816e+00	 9.142843342671600e+00	 1.000019168929863e+01
0	 8.571398015564816e+00	 9.285704216126851e+00	 9.999793446089258e+00
0	 8.571398015564816e+00	 9.428564672914549e+00	 9.999669242313868e+00
0	 8.571398015564816e+00	 9.571424596365201e+00	 9.999806337002312e+00
0	 8.571398015564816e+00	 9.714283869809321e+00	 1.000019199110944e+01
0	 8.571398015564816e+00	 9.857142376577418e+00	 1.000081346751534e+01
0	 8.571398015564816e+00	 1.000000000000000e+01	 1.000165803102533e+01
0	 8.714259388995400e+00	 8.571398015564816e+00	 1.000403635754211e+01
0	 8.714259388995400e+00	 8.714259388995400e+00	 1.000266244921301e+01
0	 8.714259388995398e+00	 8.857120812436383e+00	 1.000159915434590e+01
0	 8.714259388995401e+00	 8.999982169218281e+00	 1.000081928918902e+01
0	 8.714259388995398e+00	 9.142843342671599e+00	 1.000029567158930e+01
0	 8.714259388995398e+00	 9.285704216126852e+00	 1.000000112099231e+01
0	 8.714259388995400e+00	 9.428564672914550e+00	 9.999908458442327e+00
0	 8.714259388995400e+00	 9.571424596365201e+00	 9.999990506582334e+00
0	 8.714259388995401e+00	 9.714283869809321e+00	 1.000022008965412e+01
0	 8.714259388995400e+00	 9.857142376577416e+00	 1.000057003349827e+01
0	 8.714259388995400e+00	 1.000000000000000e+01	 1.000101316555438e+01
0	 8.857120812436383e+00	 8.571398015564814e+00	 1.000335305888734e+01
0	 8.857120812436383e+00	 8.714259388995400e+00	 1.000231279979963e+01
0	 8.857120812436387e+00	 8.857120812436390e+00	 1.000152857228938e+01
0	 8.857120812436383e+00	 8.999982169218278e+00	 1.000096440130461e+01
0	 8.857120812436385e+00	 9.142843342671600e+00	 1.000058431294048e+01
0	 8.857120812436385e+00	 9.285704216126854e+00	 1.000035233443936e+01
0	 8.857120812436383e+00	 9.428564672914549e+00	 1.000023249419078e+01
0	 8.857120812436385e+00	 9.571424596365203e+00	 1.000018882173148e+01
0	 8.857120812436388e+00	 9.714283869809323e+00	 1.000018534774545e+01
0	 8.857120812436381e+00	 9.857142376577416e+00	 1.000018610406395e+01
0	 8.857120812436385e+00	 1.000000000000000e+01	 1.000015512366562e+01
0	 8.999982169218283e+00	 8.571398015564817e+00	 1.000272178539063e+01
0	 8.999982169218283e+00	 8.714259388995398e+00	 1.000205362082475e+01
0	 8.999982169218280e+00	 8.857120812436383e+00	 1.000156118896391e+01
0	 8.999982169218283e+00	 8.999982169218281e+00	 1.000120536713892e+01
0	 8.999982169218281e+00	 9.142843342671600e+00	 1.000094703332203e+01
0	 8.999982169218281e+00	 9.285704216126854e+00	 1.000074706612667e+01
0	 8.999982169218283e+00	 9.428564672914550e+00	 1.000056634480755e+01
0	 8.999982169218280e+00	 9.571424596365203e+00	 1.000036574926069e+01
0	 8.999982169218281e+00	 9.714283869809321e+00	 1.000010616002341e+01
0	 8.999982169218280e+00	 9.857142376577416e+00	 9.999748458274320e+00
0	 8.999982169218280e+00	 1.000000000000000e+01	 9.999253525833462e+00
0	 9.142843342671600e+00	 8.571398015564816e+00	 1.000213427578897e+01
0	 9.142843342671599e+00	 8.714259388995401e+00	 1.000182938784047e+01
0	 9.142843342671599e+00	 8.857120812436385e+00	 1.000160867245925e+01
0	 9.142843342671600e+00	 8.999982169218281e+00	 1.000143550297150e+01
0	 9.142843342671597e+00	 9.142843342671599e+00	 1.000127325285515e+01
0	 9.142843342671599e+00	 9.285704216126852e+00	 1.000108529573999e+01
0	 9.142843342671600e+00	 9.428564672914552e+00	 1.000083500540763e+01
0	 9.142843342671599e+00	 9.571424596365203e+00	 1.000048575579143e+01
0	 9.142843342671599e+00	 9.714283869809320e+00	 1.000000092097660e+01
0	 9.142843342671600e+00	 9.857142376577421e+00	 9.999343875200100e+00
0	 9.142843342671599e+00	 9.999999999999998e+00	 9.998477992850766e+00
0	 9.285704216126851e+00	 8.571398015564816e+00	 1.000158226945488e+01
0	 9.285704216126852e+00	 8.714259388995401e+00	 1.000158457699308e+01
0	 9.285704216126851e+00	 8.857120812436383e+00	 1.000158269134666e+01
0	 9.285704216126852e+00	 8.999982169218281e+00	 1.000154812540629e+01
0	 9.285704216126852e+00	 9.142843342671599e+00	 1.000145239181233e+01
0	 9.285704216126854e+00	 9.285704216126854e+00	 1.000126700295464e+01
0	 9.285704216126851e+00	 9.428564672914549e+00	 1.000096347097277e+01
0	 9.285704216126851e+00	 9.571424596365201e+00	 1.000051330775582e+01
0	 9.285704216126849e+00	 9.714283869809320e+00	 9.999888024942463e+00
0	 9.285704216126852e+00	 9.857142376577416e+00	 9.999059133920913e+00
0	 9.285704216126852e+00	 1.000000000000000e+01	 9.997998145828946e+00
0	 9.428564672914549e+00	 8.571398015564816e+00	 1.000105750639636e+01
0	 9.428564672914550e+00	 8.714259388995400e+00	 1.000126366502311e+01
0	 9.428564672914549e+00	 8.857120812436385e+00	 1.000139491467857e+01
0	 9.428564672914549e+00	 8.999982169218283e+00	 1.000143655137181e+01
0	 9.428564672914550e+00	 9.142843342671600e+00	 1.000137387061738e+01
0	 9.428564672914549e+00	 9.285704216126852e+00	 1.000119216743539e+01
0	 9.428564672914552e+00	 9.428564672914550e+00	 1.000087673635142e+01
0	 9.428564672914550e+00	 9.571424596365203e+00	 1.000041287139647e+01
0	 9.428564672914547e+00	 9.714283869809320e+00	 9.999785866107102e+00
0	 9.428564672914550e+00	 9.857142376577418e+00	 9.998981013525210e+00
0	 9.428564672914549e+00	 1.000000000000000e+01	 9.997983606198147e+00
0	 9.571424596365201e+00	 8.571398015564814e+00	 1.000055172725698e+01
0	 9.571424596365201e+00	 8.714259388995400e+00	 1.000081112926539e+01
0	 9.571424596365203e+00	 8.857120812436385e+00	 1.000095701198888e+01
0	 9.571424596365201e+00	 8.999982169218281e+00	 1.000099409812100e+01
0	 9.571424596365199e+00	 9.142843342671599e+00	 1.000092710984550e+01
0	 9.571424596365201e+00	 9.285704216126852e+00	 1.000076076883657e+01
0	 9.571424596365203e+00	 9.428564672914549e+00	 1.000049979625868e+01
0	 9.571424596365203e+00	 9.571424596365203e+00	 1.000014891276658e+01
0	 9.571424596365201e+00	 9.714283869809321e+00	 9.999712838505365e+00
0	 9.571424596365201e+00	 9.857142376577418e+00	 9.999196293110343e+00
0	 9.571424596365201e+00	 1.000000000000000e+01	 9.998603995706999e+00
0	 9.714283869809321e+00	 8.571398015564816e+00	 1.000005667331585e+01
0	 9.714283869809320e+00	 8.714259388995401e+00	 1.000017144764896e+01
0	 9.714283869809320e+00	 8.857120812436383e+00	 1.000018065329283e+01
0	 9.714283869809320e+00	 8.999982169218281e+00	 1.000011408323133e+01
0	 9.714283869809320e+00	 9.142843342671599e+00	 1.000000153022315e+01
0	 9.714283869809320e+00	 9.285704216126852e+00	 9.999872786801996e+00
0	 9.714283869809321e+00	 9.428564672914549e+00	 9.999757645276404e+00
0	 9.714283869809320e+00	 9.571424596365201e+00	 9.999685897729879e+00
0	 9.714283869809321e+00	 9.714283869809321e+00	 9.999687336020790e+00
0	 9.714283869809320e+00	 9.857142376577416e+00	 9.999791751782436e+00
0	 9.714283869809320e+00	 1.000000000000000e+01	 1.000002893642291e+01
0	 9.857142376577418e+00	 8.571398015564816e+00	 9.999564086487691e+00
0	 9.857142376577416e+00	 8.714259388995400e+00	 9.999289098697174e+00
0	 9.857142376577416e+00	 8.857120812436383e+00	 9.998977509086995e+00
0	 9.857142376577418e+00	 8.999982169218281e+00	 9.998689824604778e+00
0	 9.857142376577418e+00	 9.142843342671599e+00	 9.998486552628169e+00
0	 9.857142376577418e+00	 9.285704216126852e+00	 9.998428200964984e+00
0	 9.857142376577418e+00	 9.428564672914550e+00	 9.998575277853142e+00
0	 9.857142376577418e+00	 9.571424596365201e+00	 9.998988291960622e+00
0	 9.857142376577416e+00	 9.714283869809320e+00	 9.999727752385649e+00
0	 9.857142376577416e+00	 9.857142376577416e+00	 1.000085416865649e+01
0	 9.857142376577416e+00	 9.999999999999998e+00	 1.000242805073176e+01
0	 1.000000000000000e+01	 8.571398015564816e+00	 9.999065709322833e+00
0	 1.000000000000000e+01	 8.714259388995400e+00	 9.998108561527758e+00
0	 1.000000000000000e+01	 8.857120812436385e+00	 9.997259250349446e+00
0	 1.000000000000000e+01	 8.999982169218280e+00	 9.996614640467870e+00
0	 9.999999999999998e+00	 9.142843342671599e+00	 9.996271598089715e+00
0	 1.000000000000000e+01	 9.285704216126852e+00	 9.996326990948372e+00
0	 1.000000000000000e+01	 9.428564672914549e+00	 9.996877688304032e+00
0	 1.000000000000000e+01	 9.571424596365201e+00	 9.998020560943573e+00
0	 1.000000000000000e+01	 9.714283869809320e+00	 9.999852481180797e+00
0	 9.999999999999998e+00	 9.857142376577416e+00	 1.000247032285647e+01
0	 1.000000000000000e+01	 1.000000000000000e+01	 1.000597096133835e+01
1	 1.000000000000000e+00	 0.000000000000000e+00	 2.414250854905706e+01
1	 9.997942136041430e-01	 2.028591802679378e-02	 2.351042894687145e+01
1	 9.991701517322812e-01	 4.073043895732996e-02	 2.284187289314556e+01
1	 9.981179738659461e-01	 6.132242709398375e-02	 2.213623165417696e+01
1	 9.966281528999331e-01	 8.205016480108969e-02	 2.139324578730325e+01
1	 9.946915115410935e-01	 1.029013581149163e-01	 2.061302593508710e+01
1	 9.922992591451227e-01	 1.238631447915628e-01	 1.979607227887421e+01
1	 9.894430288203904e-01	 1.449221048859623e-01	 1.894329239336360e+01
1	 9.861149146151664e-01	 1.660642739430359e-01	 1.805601724120334e+01
1	 9.823075085927058e-01	 1.872751588682954e-01	 1.713601504711151e+01
1	 9.780139375877577e-01	 2.085397565298897e-01	 1.618550279488495e+01
1	 1.014285762337685e+00	 0.000000000000000e+00	 2.322068147474547e+01
1	 1.014077036126061e+00	 2.057571783397239e-02	 2.259006692272474e+01
1	 1.013444059054001e+00	 4.131230433435238e-02	 2.192638921611396e+01
1	 1.012376850023818e+00	 6.219846472164651e-02	 2.122912265713577e+01
1	 1.010865745828442e+00	 8.322231396489504e-02	 2.049806762415152e+01
1	 1.008901438070191e+00	 1.043713824717894e-01	 1.973336982649209e+01
1	 1.006475010523806e+00	 1.256326242515389e-01	 1.893553829340040e+01
1	 1.003577976770334e+00	 1.469924276450039e-01	 1.810546185590771e+01
1	 1.000202317915604e+00	 1.684366287042941e-01	 1.724442387816570e+01
1	 9.963405201949547e-01	 1.899505272900958e-01	 1.635411499537192e+01
1	 9.919856122548429e-01	 2.115189059394628e-01	 1.543664361920985e+01
1	 1.028571613012482e+00	 0.000000000000000e+00	 2.235128630270764e+01
1	 1.028359946966947e+00	 2.086551943237181e-02	 2.172250877074822e+01
1	 1.027718054639657e+00	 4.189417330796975e-02	 2.106384443297358e+01
1	 1.026635814352820e+00	 6.307450776443697e-02	 2.037484848819110e+01
1	 1.025103426796637e+00	 8.439447037447290e-02	 1.965538023700270e+01
1	 1.023111452468066e+00	 1.058414159160936e-01	 1.890562086150185e+01
1	 1.020650849560097e+00	 1.274021146504702e-01	 1.812609000917038e+01
1	 1.017713012125696e+00	 1.490627632031908e-01	 1.731766095619768e+01
1	 1.014289808327531e+00	 1.708089981323072e-01	 1.648157412346735e+01
1	 1.010373618572351e+00	 1.926259122523858e-01	 1.561944871921263e+01
1	 1.005957373317689e+00	 2.144980737680448e-01	 1.473329228605872e+01
1	 1.042857540357000e+00	 0.000000000000000e+00	 2.152950990813103e+01
1	 1.042642934461810e+00	 2.115532258538498e-02	 2.090292999654635e+01
1	 1.041992126831531e+00	 4.247604540310704e-02	 2.024941503338266e+01
1	 1.040894855207496e+00	 6.395055550708173e-02	 1.956859907055769e+01
1	 1.039341184176433e+00	 8.556663307275812e-02	 1.886039948698941e+01
1	 1.037321543129217e+00	 1.073114572475230e-01	 1.812503335522088e+01
1	 1.034826764676397e+00	 1.291716145435108e-01	 1.736303267780443e+01
1	 1.031848123342196e+00	 1.511331098699965e-01	 1.657525828430961e+01
1	 1.028377374345500e+00	 1.731813802898896e-01	 1.576291217816251e+01
1	 1.024406792263879e+00	 1.953013115705125e-01	 1.492754812342560e+01
1	 1.019929209365398e+00	 2.174772575828835e-01	 1.407108026529951e+01
1	 1.057143532703853e+00	 0.000000000000000e+00	 2.075079922708701e+01
1	 1.056925986945660e+00	 2.144512705640483e-02	 2.012676678096722e+01
1	 1.056266263971905e+00	 4.305792014468924e-02	 1.947853812894757e+01
1	 1.055153960942393e+00	 6.482660723430732e-02	 1.880582422327720e+01
1	 1.053579006339744e+00	 8.673880110268559e-02	 1.810859972917098e+01
1	 1.051531698448141e+00	 1.087815052657716e-01	 1.738711803838038e+01
1	 1.049002744295102e+00	 1.309411224858152e-01	 1.664192521367240e+01
1	 1.045983298875552e+00	 1.532034659548943e-01	 1.587387266998397e+01
1	 1.042465004464060e+00	 1.755537732398562e-01	 1.508412839668241e+01
1	 1.038440029808523e+00	 1.979767230598238e-01	 1.427418652641834e+01
1	 1.033901108987072e+00	 2.204564549512274e-01	 1.344587505969987e+01
1	 1.071429578385649e+00	 0.000000000000000e+00	 2.001084392288033e+01
1	 1.071209092753505e+00	 2.173493260882433e-02	 1.938969860553804e+01
1	 1.070540454403061e+00	 4.363979705764136e-02	 1.874689408221460e+01
1	 1.069413119912057e+00	 6.570266223084026e-02	 1.808221633858154e+01
1	 1.067816881658486e+00	 8.791097350719018e-02	 1.739569658327977e+01
1	 1.065741906819336e+00	 1.102515587705330e-01	 1.668762496652155e+01
1	 1.063178776838613e+00	 1.327106370325378e-01	 1.595856328644749e+01
1	 1.060118527181483e+00	 1.552738297673575e-01	 1.520935650319193e+01
1	 1.056552687177763e+00	 1.779261750450211e-01	 1.444114287959182e+01
1	 1.052473319745267e+00	 2.006521445356669e-01	 1.365536256869093e+01
1	 1.047873060771812e+00	 2.234356634403244e-01	 1.285376447182219e+01
1	 1.085715665735001e+00	 0.000000000000000e+00	 1.930556041969441e+01
1	 1.085492240220354e+00	 2.202473900603640e-02	 1.868763224842346e+01
1	 1.084814686467279e+00	 4.422167566688838e-02	 1.805039050590420e+01
1	 1.083672320471032e+00	 6.657871978140713e-02	 1.739369442568267e+01
1	 1.082054798504573e+00	 8.908314932920679e-02	 1.671763106352826e+01
1	 1.079952156637299e+00	 1.117216165615015e-01	 1.602252777731967e+01
1	 1.077354850729328e+00	 1.344801567388329e-01	 1.530896374733568e+01
1	 1.074253796715706e+00	 1.573441996168596e-01	 1.457778037039198e+01
1	 1.070640410981159e+00	 1.802985837681990e-01	 1.383009036056497e+01
1	 1.066506650613095e+00	 2.033275738133893e-01	 1.306728539062789e+01
1	 1.061845053308720e+00	 2.264148806174227e-01	 1.229104211196158e+01
1	 1.100001783084519e+00	 0.000000000000000e+00	 1.863107717933579e+01
1	 1.099775417681215e+00	 2.231454601143399e-02	 1.801668702641766e+01
1	 1.099088948506841e+00	 4.480355549735529e-02	 1.738514750792353e+01
1	 1.097931550973866e+00	 6.745477917073454e-02	 1.673638939687172e+01
1	 1.096292745249919e+00	 9.025532761167027e-02	 1.607055494402803e+01
1	 1.094162436296527e+00	 1.131916774383708e-01	 1.538800917359193e+01
1	 1.091530954389646e+00	 1.362496801598548e-01	 1.468935026783863e+01
1	 1.088389095933940e+00	 1.594145738128738e-01	 1.397541888696754e+01
1	 1.084728164368799e+00	 1.826709974722041e-01	 1.324730627002218e+01
1	 1.080540010950993e+00	 2.060030087083387e-01	 1.250636096430877e+01
1	 1.075817075186898e+00	 2.293941040497704e-01	 1.175419403439783e+01
1	 1.114287918766816e+00	 0.000000000000000e+00	 1.798372110960909e+01
1	 1.114058613471097e+00	 2.260435338841005e-02	 1.737318117123743e+01
1	 1.113363228864028e+00	 4.538543607396710e-02	 1.674748407044819e+01
1	 1.112190799775103e+00	 6.833083968354900e-02	 1.610663048452945e+01
1	 1.110530710266440e+00	 9.142750739751551e-02	 1.545081724902361e+01
1	 1.108372734191518e+00	 1.146617402008348e-01	 1.478044752208193e+01
1	 1.105707076241964e+00	 1.380192058507579e-01	 1.409614008232187e+01
1	 1.102524413291903e+00	 1.614849506648735e-01	 1.339873761858398e+01
1	 1.098815935835233e+00	 1.850434142198511e-01	 1.268931386991588e+01
1	 1.094573389297943e+00	 2.086784470358625e-01	 1.196917947585608e+01
1	 1.089789114995448e+00	 2.323733313046157e-01	 1.123988640078542e+01
1	 1.128574061114501e+00	 0.000000000000000e+00	 1.736000500413216e+01
1	 1.128341815925009e+00	 2.289416090035752e-02	 1.675361923969037e+01
1	 1.127637515881123e+00	 4.596731692164878e-02	 1.613390546266706e+01
1	 1.126450055229290e+00	 6.920690060457710e-02	 1.550093268892134e+01
1	 1.124768681926050e+00	 9.259968772967736e-02	 1.485495176835407e+01
1	 1.122583038716770e+00	 1.161318036485876e-01	 1.419640446923457e+01
1	 1.119883204708684e+00	 1.397887323666966e-01	 1.352593173666167e+01
1	 1.116659737245314e+00	 1.635553284823320e-01	 1.284438099505654e+01
1	 1.112903713875012e+00	 1.874158320739545e-01	 1.215281236483080e+01
1	 1.108606774192931e+00	 2.113538866113081e-01	 1.145250366531032e+01
1	 1.103761161323472e+00	 2.353525599492068e-01	 1.074495407974301e+01
1	 1.142860198460186e+00	 0.000000000000000e+00	 1.675661592341253e+01
1	 1.142625013377961e+00	 2.318396831066934e-02	 1.615468046732598e+01
1	 1.141911797900406e+00	 4.654919756532534e-02	 1.554109159681707e+01
1	 1.140709305690971e+00	 7.008296121854536e-02	 1.491598516665595e+01
1	 1.139006648600664e+00	 9.377186765109072e-02	 1.427966550850695e+01
1	 1.136793338266779e+00	 1.176018665813230e-01	 1.363261348504544e+01
1	 1.134059328212202e+00	 1.415582582628251e-01	 1.297549375500925e+01
1	 1.130795056249892e+00	 1.656257055747228e-01	 1.230916112995360e+01
1	 1.126991486982686e+00	 1.897882490973286e-01	 1.163466590403875e+01
1	 1.122640154174940e+00	 2.140293252500230e-01	 1.095325804031540e+01
1	 1.117733202760072e+00	 2.383317875507917e-01	 1.026639010079010e+01
1	 9.780139375877577e-01	 2.085397565298897e-01	 1.618550279488495e+01
1	 9.732282518626567e-01	 2.298410867697774e-01	 1.520293474496589e+01
1	 9.679444735972303e-01	 2.511647027528097e-01	 1.418620096846854e+01
1	 9.621575490304195e-01	 2.724942383587359e-01	 1.313749772816315e+01
1	 9.558630981313170e-01	 2.938129209596946e-01	 1.205939992750829e+01
1	 9.490574463164518e-01	 3.151036037782406e-01	 1.095486444375462e+01
1	 9.417376544619561e-01	 3.363488008802307e-01	 9.827230890760552e+00
1	 9.339015469729997e-01	 3.575307247119079e-01	 8.680219669607714e+00
1	 9.255477376767898e-01	 3.786313260672552e-01	 7.517927186671169e+00
1	 9.166756533117869e-01	 3.996323363483558e-01	 6.344818143264569e+00
1	 9.072855543946887e-01	 4.205153119584039e-01	 5.165714828108813e+00
1	 9.919856122548429e-01	 2.115189059394628e-01	 1.543664361920985e+01
1	 9.871315593611463e-01	 2.331245419199243e-01	 1.449002987832373e+01
1	 9.817722982959256e-01	 2.547527820123112e-01	 1.351177875455933e+01
1	 9.759027031012107e-01	 2.763870262938928e-01	 1.250399730907006e+01
1	 9.695183311739304e-01	 2.980102625270567e-01	 1.146913964939065e+01
1	 9.626154554363000e-01	 3.196050989795959e-01	 1.041000952559650e+01
1	 9.551910947767374e-01	 3.411537999174934e-01	 9.329760556265374e+00
1	 9.472430425202908e-01	 3.626383236782532e-01	 8.231893957440347e+00
1	 9.387698926915390e-01	 3.840403632092170e-01	 7.120253667841926e+00
1	 9.297710638393701e-01	 4.053413889316473e-01	 5.999018786241120e+00
1	 9.202468202020646e-01	 4.265226937679250e-01	 4.872693261985320e+00
1	 1.005957373317689e+00	 2.144980737680448e-01	 1.473329228605872e+01
1	 1.001034952832426e+00	 2.364080173708703e-01	 1.382070019942386e+01
1	 9.956002085003419e-01	 2.583408834563891e-01	 1.287879766654056e+01
1	 9.896479421661309e-01	 2.802798382979371e-01	 1.190960712524219e+01
1	 9.831736486541901e-01	 3.022076300466622e-01	 1.091546839789613e+01
1	 9.761735483921198e-01	 3.241066220140731e-01	 9.899040597866879e+00
1	 9.686446182803863e-01	 3.459588286647269e-01	 8.863301854101721e+00
1	 9.605846205637468e-01	 3.677459542258090e-01	 7.811546741243887e+00
1	 9.519921294640535e-01	 3.894494337964183e-01	 6.747381321292309e+00
1	 9.428665553405939e-01	 4.110504768153739e-01	 5.674715723801926e+00
1	 9.332081661532802e-01	 4.325301127226065e-01	 4.597754214763690e+00
1	 1.019929209365398e+00	 2.174772575828835e-01	 1.407108026529951e+01
1	 1.014938420921470e+00	 2.396915104413310e-01	 1.319068987420204e+01
1	 1.009428192917151e+00	 2.619290041549622e-01	 1.228312916603223e+01
1	 1.003393254999425e+00	 2.841726711919193e-01	 1.135034049399274e+01
1	 9.968290394198431e-01	 3.064050200908186e-01	 1.039455580475249e+01
1	 9.897317141111275e-01	 3.286081692055633e-01	 9.418297900761184e+00
1	 9.820982139855879e-01	 3.507638831979374e-01	 8.424379697545708e+00
1	 9.739262702075439e-01	 3.728536121834381e-01	 7.415901376720464e+00
1	 9.652144371960356e-01	 3.948585334115306e-01	 6.396245352708143e+00
1	 9.559621171207264e-01	 4.167595953371833e-01	 5.369068990552452e+00
1	 9.461695816632008e-01	 4.385375639164554e-01	 4.338295033531484e+00
1	 1.033901108987072e+00	 2.204564549512274e-01	 1.344587505969987e+01
1	 1.028841952273254e+00	 2.429750184500217e-01	 1.259597301118688e+01
1	 1.023256240253020e+00	 2.655171411779492e-01	 1.172086777795556e+01
1	 1.017138630375336e+00	 2.880655217968899e-01	 1.082242612980613e+01
1	 1.010484492318634e+00	 3.106024292318331e-01	 9.902778451373063e+00
1	 1.003289941520539e+00	 3.331097368779573e-01	 8.964319404227455e+00
1	 9.955518709050284e-01	 3.555689595931317e-01	 8.009706749656154e+00
1	 9.872679805558595e-01	 3.779612933800034e-01	 7.041858245319115e+00
1	 9.784368050891872e-01	 4.002676576372252e-01	 6.063946544987175e+00
1	 9.690577384850337e-01	 4.224687398347229e-01	 5.079392048455205e+00
1	 9.591310561466906e-01	 4.445450424434799e-01	 4.091853668348702e+00
1	 1.047873060771812e+00	 2.234356634403244e-01	 1.285376447182219e+01
1	 1.042745535532752e+00	 2.462585387156576e-01	 1.203273833408857e+01
1	 1.037084339214621e+00	 2.691052915952691e-01	 1.118831622138423e+01
1	 1.030884057068108e+00	 2.919583869338995e-01	 1.032229378587898e+01
1	 1.024139996198312e+00	 3.147998540420133e-01	 9.436706073149979e+00
1	 1.016848219547572e+00	 3.376113213551462e-01	 8.533827626483973e+00
1	 1.009005578051392e+00	 3.603740539263159e-01	 7.616170906664598e+00
1	 1.000609740712870e+00	 3.830689936443673e-01	 6.686482952083649e+00
1	 9.916592223452112e-01	 4.056768020561739e-01	 5.747740218829553e+00
1	 9.821534087387838e-01	 4.281779056456405e-01	 4.803141556907804e+00
1	 9.720925790186141e-01	 4.505525433976866e-01	 3.856099296776304e+00
1	 1.061845053308720e+00	 2.264148806174227e-01	 1.229104211196158e+01
1	 1.056649159344938e+00	 2.495420685569542e-01	 1.149737506342889e+01
1	 1.050912478508621e+00	 2.726934524768401e-01	 1.068197171328799e+01
1	 1.044629523851985e+00	 2.958512634239984e-01	 9.846561028269361e+00
1	 1.037795539906621e+00	 3.189972910936670e-01	 8.993088851966338e+00
1	 1.030406537119441e+00	 3.421129189610210e-01	 8.123717492305198e+00
1	 1.022459324437366e+00	 3.651791622734971e-01	 7.240823768687229e+00
1	 1.013951539782750e+00	 3.881767088053925e-01	 6.346995454465075e+00
1	 1.004881678165811e+00	 4.110859622510484e-01	 5.445026064127347e+00
1	 9.952491171872442e-01	 4.338870881075838e-01	 4.537907949766851e+00
1	 9.850541396938364e-01	 4.565600618730836e-01	 3.628823687950714e+00
1	 1.075817075186898e+00	 2.293941040497704e-01	 1.175419403439783e+01
1	 1.070552812354785e+00	 2.528256052926267e-01	 1.098645989739032e+01
1	 1.064740646841691e+00	 2.762816208925815e-01	 1.019851333863157e+01
1	 1.058375019501212e+00	 2.997441480882371e-01	 9.392021039776722e+00
1	 1.051451112291307e+00	 3.231947369591011e-01	 8.568845698079601e+00
1	 1.043964883163363e+00	 3.466145260194731e-01	 7.731045136629806e+00
1	 1.035913099075635e+00	 3.699842807106812e-01	 6.880870008077010e+00
1	 1.027293366869678e+00	 3.932844346919420e-01	 6.020760037536322e+00
1	 1.018104161752687e+00	 4.164951338045200e-01	 5.153338763055705e+00
1	 1.008344853135681e+00	 4.395962825582002e-01	 4.281406746019787e+00
1	 9.980157275872219e-01	 4.625675929636779e-01	 3.407933239028947e+00
1	 1.089789114995448e+00	 2.323733313046157e-01	 1.123988640078542e+01
1	 1.084456483207269e+00	 2.561091462413904e-01	 1.049674499331750e+01
1	 1.078568832920501e+00	 2.798697939124116e-01	 9.734790391207722e+00
1	 1.072120532790033e+00	 3.036370377476662e-01	 8.955631361215568e+00
1	 1.065106702200117e+00	 3.273921882106234e-01	 8.161053432659992e+00
1	 1.057523246606553e+00	 3.511161388543931e-01	 7.353017568723287e+00
1	 1.049366890978884e+00	 3.747894053138751e-01	 6.533657554924178e+00
1	 1.040635211077830e+00	 3.983921671328784e-01	 5.705276059711965e+00
1	 1.031326662307544e+00	 4.219043122992608e-01	 4.870339333873104e+00
1	 1.021440605889363e+00	 4.453054843351376e-01	 4.031470528319033e+00
1	 1.010977332113635e+00	 4.685751317634770e-01	 3.191441623712254e+00
1	 1.103761161323472e+00	 2.353525599492068e-01	 1.074495407974301e+01
1	 1.098360160547363e+00	 2.593926887219608e-01	 1.002514686127736e+01
1	 1.092397025451718e+00	 2.834579686062492e-01	 9.287811599259815e+00
1	 1.085866052492690e+00	 3.075299292233358e-01	 8.534503487090179e+00
1	 1.078762298480797e+00	 3.315896414205411e-01	 7.766936791242873e+00
1	 1.071081616376229e+00	 3.556177537896724e-01	 6.986983120705371e+00
1	 1.062820689159799e+00	 3.795945321590852e-01	 6.196668527358519e+00
1	 1.053977061511382e+00	 4.034999019570644e-01	 5.398169400755602e+00
1	 1.044549169032083e+00	 4.273134933179419e-01	 4.593807131621908e+00
1	 1.034536364753556e+00	 4.510146887760432e-01	 3.786041530247308e+00
1	 1.023938942687942e+00	 4.745826733664884e-01	 2.977462998657812e+00
1	 1.117733202760072e+00	 2.383317875507917e-01	 1.026639010079010e+01
1	 1.112263833020041e+00	 2.626762300530532e-01	 9.568736089936069e+00
1	 1.106225213142014e+00	 2.870461420440131e-01	 8.854735158536805e+00
1	 1.099611567383429e+00	 3.114228193362967e-01	 8.125893240969605e+00
1	 1.092417889981094e+00	 3.357870931611621e-01	 7.383859176322946e+00
1	 1.084639981399607e+00	 3.601193671492018e-01	 6.630422611865223e+00
1	 1.076274482631064e+00	 3.843996573223178e-01	 5.867510841534623e+00
1	 1.067318907274511e+00	 4.086076349933625e-01	 5.097184550673552e+00
1	 1.057771671128008e+00	 4.327226724432351e-01	 4.321632448296883e+00
1	 1.047632119033529e+00	 4.567238912185653e-01	 3.543164779093805e+00
1	 1.036900548725005e+00	 4.805902128667193e-01	 2.764205719001560e+00
1	 9.072855543946887e-01	 4.205153119584039e-01	 5.165714828108812e+00
1	 8.973778426309759e-01	 4.412631267957646e-01	 3.983776919534223e+00
1	 8.869551416254857e-01	 4.618556531118257e-01	 2.801447555806123e+00
1	 8.760203156838144e-01	 4.822741974000463e-01	 1.622545907070904e+00
1	 8.645771165329884e-01	 5.025000860247010e-01	 4.509598207533605e-01
1	 8.526301882742356e-01	 5.225147171506273e-01	-7.093678387383648e-01
1	 8.401850687269298e-01	 5.422996134099225e-01	-1.854453507414480e+00
1	 8.272481870752481e-01	 5.618364750149920e-01	-2.980287805975729e+00
1	 8.138268577557128e-01	 5.811072330167580e-01	-4.082850892506501e+00
1	 7.999292705517563e-01	 6.000941023989975e-01	-5.158128177909676e+00
1	 7.855644768903997e-01	 6.187796346948449e-01	-6.202126292255199e+00
1	 9.202468202020646e-01	 4.265226937679250e-01	 4.872693261985317e+00
1	 9.101975692236983e-01	 4.475669069570152e-01	 3.743435095301375e+00
1	 8.996259719893256e-01	 4.684536132100533e-01	 2.612789845401090e+00
1	 8.885349337233767e-01	 4.891638519694764e-01	 1.484396377780514e+00
1	 8.769282597492056e-01	 5.096786828324061e-01	 3.619558362258222e-01
1	 8.648106605126151e-01	 5.299792382222528e-01	-7.507814930114920e-01
1	 8.521877529449992e-01	 5.500467768077960e-01	-1.850029914488241e+00
1	 8.390660580763807e-01	 5.698627373749913e-01	-2.931982566414475e+00
1	 8.254529948356356e-01	 5.894087928460177e-01	-3.992826077688362e+00
1	 8.113568700035452e-01	 6.086669041321033e-01	-5.028755537189458e+00
1	 7.967868643137184e-01	 6.276193735016999e-01	-6.035989667926392e+00
1	 9.332081661532802e-01	 4.325301127226065e-01	 4.597754214763691e+00
1	 9.230173750848367e-01	 4.538707260961631e-01	 3.517738811421685e+00
1	 9.122968807007574e-01	 4.750516141051551e-01	 2.435395555908755e+00
1	 9.010496291445451e-01	 4.960535491393559e-01	 1.354191321708606e+00
1	 8.892794793361982e-01	 5.168573240270957e-01	 2.776492968109263e-01
1	 8.769912080664878e-01	 5.374438054487242e-01	-7.906636462168612e-01
1	 8.641905113793015e-01	 5.577939881080805e-01	-1.847150121644932e+00
1	 8.508840021510615e-01	 5.778890493630670e-01	-2.888195857929727e+00
1	 8.370792038036242e-01	 5.977104040055304e-01	-3.910183688606408e+00
1	 8.227845401158297e-01	 6.172397588725924e-01	-4.909507808430115e+00
1	 8.080093211286548e-01	 6.364591669664901e-01	-5.882588191624652e+00
1	 9.461695816632008e-01	 4.385375639164554e-01	 4.338295033531486e+00
1	 9.358372497448788e-01	 4.601745790651598e-01	 3.304329721884870e+00
1	 9.249678574118883e-01	 4.816496504088444e-01	 2.267152450296679e+00
1	 9.135643917270120e-01	 5.029432832831962e-01	 1.230066352561233e+00
1	 9.016307652071653e-01	 5.240360037463283e-01	 1.964253331133152e-01
1	 8.891718209884329e-01	 5.449084127341139e-01	-8.303780755420267e-01
1	 8.761933342276051e-01	 5.655412409840438e-01	-1.846925344519190e+00
1	 8.627020096479817e-01	 5.859154044245705e-01	-2.849784986103159e+00
1	 8.487054751649490e-01	 6.060120597158355e-01	-3.835525907687020e+00
1	 8.342122715560167e-01	 6.258126596194977e-01	-4.800730987322448e+00
1	 8.192318381702112e-01	 6.452990078702501e-01	-5.742010771850111e+00
1	 9.591310561466906e-01	 4.445450424434799e-01	 4.091853668348700e+00
1	 9.486571827343125e-01	 4.664784607159566e-01	 3.100976881410075e+00
1	 9.376388917748257e-01	 4.882477167328359e-01	 2.106062392783790e+00
1	 9.260792112504684e-01	 5.098330487745076e-01	 1.110257791850732e+00
1	 9.139821072753082e-01	 5.312147161276637e-01	 1.167563002236063e-01
1	 9.013524893310293e-01	 5.523730539824955e-01	-8.712149019649857e-01
1	 8.881962116876772e-01	 5.732885291089520e-01	-1.850406790033231e+00
1	 8.745200709158348e-01	 5.939417960048561e-01	-2.817560967982622e+00
1	 8.603317994248791e-01	 6.143137531974732e-01	-3.769422414355245e+00
1	 8.456400549915140e-01	 6.343855993718516e-01	-4.702752409352748e+00
1	 8.304544062733887e-01	 6.541388889940141e-01	-5.614341548133252e+00
1	 9.720925790186141e-01	 4.505525433976866e-01	 3.856099296776304e+00
1	 9.614771635836250e-01	 4.727823659005054e-01	 2.905568249624338e+00
1	 9.503099734416771e-01	 4.948458076888435e-01	 1.950233739172688e+00
1	 9.385940774946075e-01	 5.167228399868020e-01	 9.930959516689750e-01
1	 9.263334954538255e-01	 5.383934553086599e-01	 3.719595895163552e-02
1	 9.135332031468566e-01	 5.598377230979411e-01	-9.143955048684771e-01
1	 9.001991339572849e-01	 5.810358461560730e-01	-1.858589661546275e+00
1	 8.863381763033108e-01	 6.019682175492752e-01	-2.792291622886292e+00
1	 8.719581670886848e-01	 6.226154776709827e-01	-3.712412557100369e+00
1	 8.570678810897280e-01	 6.429585711286867e-01	-4.615881999270878e+00
1	 8.416770162731901e-01	 6.629788031188170e-01	-5.499660214632949e+00
1	 9.850541396938364e-01	 4.565600618730836e-01	 3.628823687950713e+00
1	 9.742971818233045e-01	 4.790862894707577e-01	 2.716102865399402e+00
1	 9.629810920645498e-01	 5.014439178885809e-01	 1.797874327439378e+00
1	 9.511089802391205e-01	 5.236126512935901e-01	 8.769989473223037e-01
1	 9.386849196559177e-01	 5.455722154268761e-01	-4.362588395039690e-02
1	 9.257139524884940e-01	 5.673024139845242e-01	-9.610770489852860e-01
1	 9.122020912341964e-01	 5.887831857986734e-01	-1.872416848074131e+00
1	 8.981563161591034e-01	 6.099946625031818e-01	-2.774704419401870e+00
1	 8.835845686616357e-01	 6.309172263569027e-01	-3.665007354206389e+00
1	 8.684957405180675e-01	 6.515315678890363e-01	-4.540413421999421e+00
1	 8.528996590046160e-01	 6.718187430256928e-01	-5.398042318209523e+00
1	 9.980157275872219e-01	 4.625675929636779e-01	 3.407933239028947e+00
1	 9.871172269838395e-01	 4.853902262786652e-01	 2.530683630474107e+00
1	 9.756522372955513e-01	 5.080420419437623e-01	 1.647285014057022e+00
1	 9.636239092636995e-01	 5.305024770683828e-01	 7.604669916983606e-01
1	 9.510363697947843e-01	 5.527509906198712e-01	-1.270083182668602e-01
1	 9.378947274085201e-01	 5.747671205463175e-01	-1.012356658887554e+00
1	 9.242050737161785e-01	 5.965305417100195e-01	-1.892782326275613e+00
1	 9.099744808319042e-01	 6.180211243119278e-01	-2.765489100725607e+00
1	 8.952109946490014e-01	 6.392189924757736e-01	-3.627691338711401e+00
1	 8.799236239439386e-01	 6.601045826519328e-01	-4.476625143936022e+00
1	 8.641223253026681e-01	 6.806587014956761e-01	-5.309559533290793e+00
1	 1.010977332113635e+00	 4.685751317634770e-01	 3.191441623712254e+00
1	 9.999372885957171e-01	 4.916941711761795e-01	 2.347510647727556e+00
1	 9.883233987867889e-01	 5.146401744661019e-01	 1.496853707118095e+00
1	 9.761388543480359e-01	 5.373923116846914e-01	 6.420771281676301e-01
1	 9.633878357836249e-01	 5.599297750252039e-01	-2.141838929188520e-01
1	 9.500755179595148e-01	 5.822318366873941e-01	-1.069275272624730e+00
1	 9.362080716009995e-01	 6.042779075633790e-01	-1.920534300963099e+00
1	 9.217926606704047e-01	 6.260475964208664e-01	-2.765300108218448e+00
1	 9.068374355560521e-01	 6.475207692481345e-01	-3.600924261563664e+00
1	 8.913515220347494e-01	 6.686776084164091e-01	-4.424781412684450e+00
1	 8.753450060023480e-01	 6.894986713098015e-01	-5.234279915612217e+00
1	 1.023938942687942e+00	 4.745826733664884e-01	 2.977462998657815e+00
1	 1.012757356189425e+00	 4.979981190152524e-01	 2.164875064996207e+00
1	 1.000994566190370e+00	 5.212383100673136e-01	 1.345049852269919e+00
1	 9.886538052718223e-01	 5.442821495160268e-01	 5.204783631935146e-01
1	 9.757393075356403e-01	 5.671085627804335e-01	-3.063228323187575e-01
1	 9.622563141940571e-01	 5.896965563118266e-01	-1.132821202917891e+00
1	 9.482110750864265e-01	 6.120252770320186e-01	-1.956478107286510e+00
1	 9.336108460232977e-01	 6.340740722753503e-01	-2.774758821043929e+00
1	 9.184638818880571e-01	 6.558225498945245e-01	-3.585142665529383e+00
1	 9.027794254579075e-01	 6.772506381814980e-01	-4.385133162437001e+00
1	 8.865676919386577e-01	 6.983386452491029e-01	-5.172268136701920e+00
1	 1.036900548725005e+00	 4.805902128667193e-01	 2.764205719001559e+00
1	 1.025577419295452e+00	 5.043020646478357e-01	 1.981153380235507e+00
1	 1.013665729158402e+00	 5.278364433591113e-01	 1.190419331873737e+00
1	 1.001168751814751e+00	 5.511719849359001e-01	 3.943871637047656e-01
1	 9.880907749640296e-01	 5.742873480231188e-01	-4.045369367511202e-01
1	 9.744371061647262e-01	 5.971612733236881e-01	-1.203933431478409e+00
1	 9.602140743702269e-01	 6.197726437892053e-01	-2.001378895428020e+00
1	 9.454290272392749e-01	 6.421005453207324e-01	-2.794455627968179e+00
1	 9.300903241502864e-01	 6.641243276354837e-01	-3.580761341152346e+00
1	 9.142073248808197e-01	 6.858236649462323e-01	-4.357918851507461e+00
1	 8.977903739465982e-01	 7.071786160946152e-01	-5.123585700794115e+00
1	 7.855644768903997e-01	 6.187796346948449e-01	-6.202126292255199e+00
1	 7.707423701765810e-01	 6.371467715387087e-01	-7.209005861656292e+00
1	 7.554736580333883e-01	 6.551789005581102e-01	-8.174031266026486e+00
1	 7.397698440641727e-01	 6.728598994536507e-01	-9.095151572357651e+00
1	 7.236432017326105e-01	 6.901741818186914e-01	-9.970667027458157e+00
1	 7.071067426773200e-01	 7.071067426773202e-01	-1.079923042715246e+01
1	 6.901741818186911e-01	 7.236432017326108e-01	-1.157984583511770e+01
1	 6.728598994536503e-01	 7.397698440641729e-01	-1.231186468177589e+01
1	 6.551789005581099e-01	 7.554736580333886e-01	-1.299497930329421e+01
1	 6.371467715387082e-01	 7.707423701765813e-01	-1.362921400940719e+01
1	 6.187796346948450e-01	 7.855644768903999e-01	-1.421491379602303e+01
1	 7.967868643137184e-01	 6.276193735016999e-01	-6.035989667926392e+00
1	 7.817530125059616e-01	 6.462488988974351e-01	-7.009679759815339e+00
1	 7.662661751699099e-01	 6.645386306264414e-01	-7.945927576336532e+00
1	 7.503380202466319e-01	 6.824722160700080e-01	-8.842640012738119e+00
1	 7.339809965355638e-01	 7.000338461578212e-01	-9.698041510705261e+00
1	 7.172083015564744e-01	 7.172083015564746e-01	-1.051067636405944e+01
1	 7.000338461578210e-01	 7.339809965355644e-01	-1.127940862154544e+01
1	 6.824722160700076e-01	 7.503380202466323e-01	-1.200341960562458e+01
1	 6.645386306264410e-01	 7.662661751699100e-01	-1.268220309312887e+01
1	 6.462488988974350e-01	 7.817530125059619e-01	-1.331555822981940e+01
1	 6.276193735016997e-01	 7.967868643137183e-01	-1.390358027589731e+01
1	 8.080093211286548e-01	 6.364591669664901e-01	-5.882588191624652e+00
1	 7.927637229176385e-01	 6.553510825365715e-01	-6.825454143048137e+00
1	 7.770587590399142e-01	 6.738984185681055e-01	-7.734944974407152e+00
1	 7.609062617752941e-01	 6.920845921216349e-01	-8.608935484359037e+00
1	 7.443188552600679e-01	 7.098935714617837e-01	-9.445586821177656e+00
1	 7.273099228963158e-01	 7.273099228963160e-01	-1.024334962961360e+01
1	 7.098935714617833e-01	 7.443188552600681e-01	-1.100096502471064e+01
1	 6.920845921216348e-01	 7.609062617752944e-01	-1.171746340102943e+01
1	 6.738984185681052e-01	 7.770587590399144e-01	-1.239216111016823e+01
1	 6.553510825365713e-01	 7.927637229176391e-01	-1.302465506335169e+01
1	 6.364591669664900e-01	 8.080093211286546e-01	-1.361481533876317e+01
1	 8.192318381702112e-01	 6.452990078702501e-01	-5.742010771850111e+00
1	 8.037744924195520e-01	 6.644533150228601e-01	-6.656169641142586e+00
1	 7.878514008294942e-01	 6.832582567394534e-01	-7.540693828322684e+00
1	 7.714745600194860e-01	 7.016970197585825e-01	-8.393435477087460e+00
1	 7.546567694636207e-01	 7.197533496786044e-01	-9.212504248065521e+00
1	 7.374115984472948e-01	 7.374115984472950e-01	-9.996271214503128e+00
1	 7.197533496786042e-01	 7.546567694636210e-01	-1.074337079764136e+01
1	 7.016970197585820e-01	 7.714745600194864e-01	-1.145270074077569e+01
1	 6.832582567394535e-01	 7.878514008294947e-01	-1.212342014312459e+01
1	 6.644533150228599e-01	 8.037744924195523e-01	-1.275494559636203e+01
1	 6.452990078702502e-01	 8.192318381702113e-01	-1.334694548763284e+01
1	 8.304544062733887e-01	 6.541388889940141e-01	-5.614341548133252e+00
1	 8.147853120196392e-01	 6.735555889230431e-01	-6.501675529840868e+00
1	 7.986440917247423e-01	 6.926181374968372e-01	-7.362805593047762e+00
1	 7.820429063485358e-01	 7.113094911309020e-01	-8.195570068856224e+00
1	 7.649947307037208e-01	 7.296131727563099e-01	-8.998038268243230e+00
1	 7.475133199598645e-01	 7.475133199598647e-01	-9.768515037081150e+00
1	 7.296131727563093e-01	 7.649947307037210e-01	-1.050554354687004e+01
1	 7.113094911309018e-01	 7.820429063485362e-01	-1.120790631170785e+01
1	 6.926181374968368e-01	 7.986440917247424e-01	-1.187462444202155e+01
1	 6.735555889230430e-01	 8.147853120196393e-01	-1.250495516533112e+01
1	 6.541388889940140e-01	 8.304544062733888e-01	-1.309838766348029e+01
1	 8.416770162731901e-01	 6.629788031188170e-01	-5.499660214632949e+00
1	 8.257961727258398e-01	 6.826578968038631e-01	-6.361829160261013e+00
1	 8.094368229117508e-01	 7.019780531966077e-01	-7.200931410530470e+00
1	 7.926112921317704e-01	 7.209219983886453e-01	-8.014799759023413e+00
1	 7.753327305378668e-01	 7.394730326429256e-01	-8.801473672920272e+00
1	 7.576150791844760e-01	 7.576150791844760e-01	-9.559204420549332e+00
1	 7.394730326429252e-01	 7.753327305378670e-01	-1.028645861436445e+01
1	 7.209219983886449e-01	 7.926112921317705e-01	-1.098192015236777e+01
1	 7.019780531966074e-01	 8.094368229117511e-01	-1.164449055904043e+01
1	 6.826578968038631e-01	 8.257961727258399e-01	-1.227328774476449e+01
1	 6.629788031188169e-01	 8.416770162731901e-01	-1.286764322022418e+01
1	 8.528996590046160e-01	 6.718187430256928e-01	-5.398042318209523e+00
1	 8.368070655460915e-01	 6.917602312320627e-01	-6.236495433326857e+00
1	 8.202295855766129e-01	 7.113379961951165e-01	-7.054740820230090e+00
1	 8.031797087385171e-01	 7.305345336818637e-01	-7.850613472639565e+00
1	 7.856707605235562e-01	 7.493329212864773e-01	-8.622132920944431e+00
1	 7.677168678715804e-01	 7.677168678715806e-01	-9.367508848025857e+00
1	 7.493329212864771e-01	 7.856707605235564e-01	-1.008514528429578e+01
1	 7.305345336818633e-01	 8.031797087385171e-01	-1.077364335840425e+01
1	 7.113379961951160e-01	 8.202295855766131e-01	-1.143180259632528e+01
1	 6.917602312320622e-01	 8.368070655460919e-01	-1.205862077778335e+01
1	 6.718187430256928e-01	 8.528996590046158e-01	-1.265329237497092e+01
1	 8.641223253026681e-01	 6.806587014956761e-01	-5.309559533290793e+00
1	 8.478179814883333e-01	 7.008625847743832e-01	-6.125546315117426e+00
1	 8.310223709054203e-01	 7.206979588487149e-01	-6.923920570040764e+00
1	 8.137481475381034e-01	 7.401470891606081e-01	-7.702526720096698e+00
1	 7.960088122182878e-01	 7.591928306349918e-01	-8.459373698170989e+00
1	 7.778186777716302e-01	 7.778186777716304e-01	-9.192640970254589e+00
1	 7.591928306349911e-01	 7.960088122182879e-01	-9.900683285137877e+00
1	 7.401470891606079e-01	 8.137481475381038e-01	-1.058203412234928e+01
1	 7.206979588487147e-01	 8.310223709054209e-01	-1.123540782378233e+01
1	 7.008625847743831e-01	 8.478179814883339e-01	-1.185970040919264e+01
1	 6.806587014956762e-01	 8.641223253026682e-01	-1.245398909034656e+01
1	 8.753450060023480e-01	 6.894986713098015e-01	-5.234279915612217e+00
1	 8.588289115605043e-01	 7.099649499975681e-01	-6.028860389467375e+00
1	 8.418151700842661e-01	 7.300579335137545e-01	-6.808173518607927e+00
1	 8.243165998998565e-01	 7.497596569749305e-01	-7.570079898228124e+00
1	 8.063468771795593e-01	 7.690527526364938e-01	-8.312586664418538e+00
1	 7.879205006350769e-01	 7.879205006350771e-01	-9.033853843303239e+00
1	 7.690527526364935e-01	 8.063468771795599e-01	-9.732199560616550e+00
1	 7.497596569749301e-01	 8.243165998998571e-01	-1.040610407777658e+01
1	 7.300579335137545e-01	 8.418151700842664e-01	-1.105421263369501e+01
1	 7.099649499975680e-01	 8.588289115605047e-01	-1.167533708493502e+01
1	 6.894986713098015e-01	 8.753450060023480e-01	-1.226845635017385e+01
1	 8.865676919386577e-01	 6.983386452491029e-01	-5.172268136701920e+00
1	 8.698398467705425e-01	 7.190673194683591e-01	-5.946322444520050e+00
1	 8.526079742992425e-01	 7.394179125465868e-01	-6.707217620945887e+00
1	 8.348850571931041e-01	 7.593722292748818e-01	-7.452836720334002e+00
1	 8.166849469648699e-01	 7.789126792390103e-01	-8.181193371404728e+00
1	 7.980223282123721e-01	 7.980223282123723e-01	-8.890438375886594e+00
1	 7.789126792390099e-01	 8.166849469648703e-01	-9.578865285704079e+00
1	 7.593722292748820e-01	 8.348850571931049e-01	-1.024491492089543e+01
1	 7.394179125465867e-01	 8.526079742992427e-01	-1.088717880233578e+01
1	 7.190673194683589e-01	 8.698398467705428e-01	-1.150440148549374e+01
1	 6.983386452491031e-01	 8.865676919386576e-01	-1.209548179366785e+01
1	 8.977903739465982e-01	 7.071786160946152e-01	-5.123585700794115e+00
1	 8.808507781263871e-01	 7.281696857534988e-01	-5.877823090265052e+00
1	 8.634007747364419e-01	 7.487778883035630e-01	-6.620784990074326e+00
1	 8.454535107871739e-01	 7.689847982105142e-01	-7.350382763862253e+00
1	 8.270230131317176e-01	 7.887726023905666e-01	-8.064644336711957e+00
1	 8.081241522539677e-01	 8.081241522539679e-01	-8.761720967987944e+00
1	 7.887726023905661e-01	 8.270230131317177e-01	-9.439893106236232e+00
1	 7.689847982105142e-01	 8.454535107871741e-01	-1.009757528532230e+01
1	 7.487778883035625e-01	 8.634007747364423e-01	-1.073332003173274e+01
1	 7.281696857534985e-01	 8.808507781263871e-01	-1.134582076404724e+01
1	 7.071786160946154e-01	 8.977903739465983e-01	-1.193391367680574e+01
1	 6.187796346948450e-01	 7.855644768903999e-01	-1.421491379602303e+01
1	 6.000941023989972e-01	 7.999292705517564e-01	-1.475070909431797e+01
1	 5.811072330167577e-01	 8.138268577557130e-01	-1.523511819535470e+01
1	 5.618364750149918e-01	 8.272481870752482e-01	-1.566886611182368e+01
1	 5.422996134099223e-01	 8.401850687269302e-01	-1.605308537227920e+01
1	 5.225147171506268e-01	 8.526301882742356e-01	-1.638929717529488e+01
1	 5.025000860247008e-01	 8.645771165329886e-01	-1.667939006240383e+01
1	 4.822741974000460e-01	 8.760203156838146e-01	-1.692559636390064e+01
1	 4.618556531118254e-01	 8.869551416254861e-01	-1.713046668971933e+01
1	 4.412631267957642e-01	 8.973778426309756e-01	-1.729684275157037e+01
1	 4.205153119584038e-01	 9.072855543946884e-01	-1.742782881221332e+01
1	 6.276193735016997e-01	 7.967868643137183e-01	-1.390358027589731e+01
1	 6.086669041321032e-01	 8.113568700035455e-01	-1.444503981661978e+01
1	 5.894087928460172e-01	 8.254529948356357e-01	-1.493861845230502e+01
1	 5.698627373749912e-01	 8.390660580763810e-01	-1.538478320571823e+01
1	 5.500467768077957e-01	 8.521877529449993e-01	-1.578437608037717e+01
1	 5.299792382222526e-01	 8.648106605126152e-01	-1.613859781910713e+01
1	 5.096786828324057e-01	 8.769282597492060e-01	-1.644898936090269e+01
1	 4.891638519694760e-01	 8.885349337233771e-01	-1.671741122081020e+01
1	 4.684536132100530e-01	 8.996259719893257e-01	-1.694602103471422e+01
1	 4.475669069570151e-01	 9.101975692236984e-01	-1.713724952433273e+01
1	 4.265226937679250e-01	 9.202468202020646e-01	-1.729377514731223e+01
1	 6.364591669664900e-01	 8.080093211286546e-01	-1.361481533876317e+01
1	 6.172397588725922e-01	 8.227845401158298e-01	-1.416152627235109e+01
1	 5.977104040055301e-01	 8.370792038036247e-01	-1.466360307690571e+01
1	 5.778890493630665e-01	 8.508840021510616e-01	-1.512127711355339e+01
1	 5.577939881080803e-01	 8.641905113793019e-01	-1.553512418930263e+01
1	 5.374438054487238e-01	 8.769912080664877e-01	-1.590605073605280e+01
1	 5.168573240270954e-01	 8.892794793361983e-01	-1.623527785717695e+01
1	 4.960535491393556e-01	 9.010496291445454e-01	-1.652432343898488e+01
1	 4.750516141051547e-01	 9.122968807007577e-01	-1.677498254061327e+01
1	 4.538707260961629e-01	 9.230173750848369e-01	-1.698930628878582e+01
1	 4.325301127226065e-01	 9.332081661532802e-01	-1.716957951335841e+01
1	 6.452990078702502e-01	 8.192318381702113e-01	-1.334694548763284e+01
1	 6.258126596194972e-01	 8.342122715560167e-01	-1.389839434557550e+01
1	 6.060120597158354e-01	 8.487054751649494e-01	-1.440821429416592e+01
1	 5.859154044245704e-01	 8.627020096479822e-01	-1.487642243938893e+01
1	 5.655412409840435e-01	 8.761933342276053e-01	-1.530335173431698e+01
1	 5.449084127341138e-01	 8.891718209884333e-01	-1.568963939993406e+01
1	 5.240360037463283e-01	 9.016307652071658e-01	-1.603621337283242e+01
1	 5.029432832831956e-01	 9.135643917270121e-01	-1.634427695157918e+01
1	 4.816496504088442e-01	 9.249678574118884e-01	-1.661529182891246e+01
1	 4.601745790651594e-01	 9.358372497448788e-01	-1.685095970930954e+01
1	 4.385375639164554e-01	 9.461695816632008e-01	-1.705320272082139e+01
1	 6.541388889940140e-01	 8.304544062733888e-01	-1.309838766348029e+01
1	 6.343855993718511e-01	 8.456400549915137e-01	-1.365396579144006e+01
1	 6.143137531974726e-01	 8.603317994248791e-01	-1.417069471671491e+01
1	 5.939417960048556e-01	 8.745200709158348e-01	-1.464839782470004e+01
1	 5.732885291089519e-01	 8.881962116876773e-01	-1.508718762446429e+01
1	 5.523730539824951e-01	 9.013524893310296e-01	-1.548745623777236e+01
1	 5.312147161276634e-01	 9.139821072753086e-01	-1.584986406457438e+01
1	 5.098330487745073e-01	 9.260792112504685e-01	-1.617532677311267e+01
1	 4.882477167328355e-01	 9.376388917748257e-01	-1.646500077730394e+01
1	 4.664784607159561e-01	 9.486571827343124e-01	-1.672026737596514e+01
1	 4.445450424434799e-01	 9.591310561466907e-01	-1.694271573765389e+01
1	 6.629788031188169e-01	 8.416770162731901e-01	-1.286764322022418e+01
1	 6.429585711286866e-01	 8.570678810897284e-01	-1.342665184851094e+01
1	 6.226154776709821e-01	 8.719581670886849e-01	-1.394938065555183e+01
1	 6.019682175492749e-01	 8.863381763033110e-01	-1.443547901528503e+01
1	 5.810358461560727e-01	 9.001991339572852e-01	-1.488486051983375e+01
1	 5.598377230979409e-01	 9.135332031468568e-01	-1.529769536785899e+01
1	 5.383934553086593e-01	 9.263334954538254e-01	-1.567440106953227e+01
1	 5.167228399868015e-01	 9.385940774946077e-01	-1.601563159442926e+01
1	 4.948458076888431e-01	 9.503099734416774e-01	-1.632226510236126e+01
1	 4.727823659005049e-01	 9.614771635836251e-01	-1.659539040859913e+01
1	 4.505525433976866e-01	 9.720925790186141e-01	-1.683629234400073e+01
1	 6.718187430256928e-01	 8.528996590046158e-01	-1.265329237497092e+01
1	 6.515315678890360e-01	 8.684957405180677e-01	-1.321494735497518e+01
1	 6.309172263569022e-01	 8.835845686616357e-01	-1.374269595845024e+01
1	 6.099946625031814e-01	 8.981563161591033e-01	-1.423603247506299e+01
1	 5.887831857986729e-01	 9.122020912341966e-01	-1.469469227066953e+01
1	 5.673024139845239e-01	 9.257139524884941e-01	-1.511864591063710e+01
1	 5.455722154268757e-01	 9.386849196559177e-01	-1.550809173072871e+01
1	 5.236126512935897e-01	 9.511089802391208e-01	-1.586344696177475e+01
1	 5.014439178885804e-01	 9.629810920645500e-01	-1.618533752730988e+01
1	 4.790862894707573e-01	 9.742971818233048e-01	-1.647458664434052e+01
1	 4.565600618730836e-01	 9.850541396938363e-01	-1.673220236631239e+01
1	 6.806587014956762e-01	 8.641223253026682e-01	-1.245398909034656e+01
1	 6.601045826519327e-01	 8.799236239439389e-01	-1.301742532293852e+01
1	 6.392189924757733e-01	 8.952109946490019e-01	-1.354914632808890e+01
1	 6.180211243119271e-01	 9.099744808319040e-01	-1.404850949708362e+01
1	 5.965305417100188e-01	 9.242050737161785e-01	-1.451509186729558e+01
1	 5.747671205463171e-01	 9.378947274085204e-01	-1.494868582037902e+01
1	 5.527509906198709e-01	 9.510363697947847e-01	-1.534929334999467e+01
1	 5.305024770683824e-01	 9.636239092636996e-01	-1.571711898693165e+01
1	 5.080420419437620e-01	 9.756522372955512e-01	-1.605256148173597e+01
1	 4.853902262786647e-01	 9.871172269838395e-01	-1.635620435550318e+01
1	 4.625675929636779e-01	 9.980157275872220e-01	-1.662880543823199e+01
1	 6.894986713098015e-01	 8.753450060023480e-01	-1.226845635017385e+01
1	 6.686776084164091e-01	 8.913515220347497e-01	-1.283273192974428e+01
1	 6.475207692481341e-01	 9.068374355560523e-01	-1.336731407689085e+01
1	 6.260475964208662e-01	 9.217926606704049e-01	-1.387144076716619e+01
1	 6.042779075633788e-01	 9.362080716009999e-01	-1.434454985504826e+01
1	 5.822318366873939e-01	 9.500755179595155e-01	-1.478627619096218e+01
1	 5.599297750252037e-01	 9.633878357836254e-01	-1.519644742103666e+01
1	 5.373923116846910e-01	 9.761388543480363e-01	-1.557507854079386e+01
1	 5.146401744661016e-01	 9.883233987867890e-01	-1.592236528553708e+01
1	 4.916941711761791e-01	 9.999372885957171e-01	-1.623867645032877e+01
1	 4.685751317634771e-01	 1.010977332113636e+00	-1.652454524102020e+01
1	 6.983386452491031e-01	 8.865676919386576e-01	-1.209548179366785e+01
1	 6.772506381814979e-01	 9.027794254579073e-01	-1.265958188938969e+01
1	 6.558225498945240e-01	 9.184638818880573e-01	-1.319585327990715e+01
1	 6.340740722753500e-01	 9.336108460232978e-01	-1.370343134009158e+01
1	 6.120252770320183e-01	 9.482110750864269e-01	-1.418163317304909e+01
1	 5.896965563118265e-01	 9.622563141940575e-01	-1.462995599376733e+01
1	 5.671085627804331e-01	 9.757393075356404e-01	-1.504807430014399e+01
1	 5.442821495160265e-01	 9.886538052718229e-01	-1.543583588757891e+01
1	 5.212383100673131e-01	 1.000994566190370e+00	-1.579325677423857e+01
1	 4.979981190152521e-01	 1.012757356189425e+00	-1.612051511382387e+01
1	 4.745826733664884e-01	 1.023938942687942e+00	-1.641794418106219e+01
1	 7.071786160946154e-01	 8.977903739465983e-01	-1.193391367680574e+01
1	 6.858236649462317e-01	 9.142073248808196e-01	-1.249675417080944e+01
1	 6.641243276354835e-01	 9.300903241502866e-01	-1.303348529094402e+01
1	 6.421005453207319e-01	 9.454290272392751e-01	-1.354315599227962e+01
1	 6.197726437892049e-01	 9.602140743702273e-01	-1.402498037975957e+01
1	 5.971612733236877e-01	 9.744371061647262e-01	-1.447833720991883e+01
1	 5.742873480231185e-01	 9.880907749640297e-01	-1.490276827627293e+01
1	 5.511719849358999e-01	 1.001168751814751e+00	-1.529797572115174e+01
1	 5.278364433591108e-01	 1.013665729158402e+00	-1.566381832709049e+01
1	 5.043020646478351e-01	 1.025577419295452e+00	-1.600030685021198e+01
1	 4.805902128667193e-01	 1.036900548725006e+00	-1.630759846624163e+01
1	 4.205153119584038e-01	 9.072855543946884e-01	-1.742782881221333e+01
1	 3.996323363483559e-01	 9.166756533117867e-01	-1.752711917041308e+01
1	 3.786313260672554e-01	 9.255477376767897e-01	-1.759688928298625e+01
1	 3.575307247119081e-01	 9.339015469729992e-01	-1.763827734338271e+01
1	 3.363488008802308e-01	 9.417376544619560e-01	-1.765262013688218e+01
1	 3.151036037782408e-01	 9.490574463164519e-01	-1.764143885645841e+01
1	 2.938129209596947e-01	 9.558630981313170e-01	-1.760642412420895e+01
1	 2.724942383587361e-01	 9.621575490304196e-01	-1.754942037911890e+01
1	 2.511647027528098e-01	 9.679444735972303e-01	-1.747240979117159e+01
1	 2.298410867697775e-01	 9.732282518626566e-01	-1.737749585907914e+01
1	 2.085397565298897e-01	 9.780139375877577e-01	-1.726688684434092e+01
1	 4.265226937679250e-01	 9.202468202020646e-01	-1.729377514731223e+01
1	 4.053413889316475e-01	 9.297710638393700e-01	-1.741884327753402e+01
1	 3.840403632092172e-01	 9.387698926915389e-01	-1.751435867320878e+01
1	 3.626383236782533e-01	 9.472430425202908e-01	-1.758127871497596e+01
1	 3.411537999174936e-01	 9.551910947767371e-01	-1.762075020066465e+01
1	 3.196050989795961e-01	 9.626154554363000e-01	-1.763409665684759e+01
1	 2.980102625270569e-01	 9.695183311739305e-01	-1.762280486623002e+01
1	 2.763870262938931e-01	 9.759027031012107e-01	-1.758851075786333e+01
1	 2.547527820123113e-01	 9.817722982959253e-01	-1.753298480707436e+01
1	 2.331245419199244e-01	 9.871315593611459e-01	-1.745811709004487e+01
1	 2.115189059394629e-01	 9.919856122548431e-01	-1.736590213430984e+01
1	 4.325301127226065e-01	 9.332081661532802e-01	-1.716957951335841e+01
1	 4.110504768153741e-01	 9.428665553405938e-01	-1.731863012533748e+01
1	 3.894494337964184e-01	 9.519921294640534e-01	-1.743811053469189e+01
1	 3.677459542258094e-01	 9.605846205637468e-01	-1.752881111863539e+01
1	 3.459588286647271e-01	 9.686446182803863e-01	-1.759170303656909e+01
1	 3.241066220140734e-01	 9.761735483921200e-01	-1.762792693665202e+01
1	 3.022076300466623e-01	 9.831736486541902e-01	-1.763878088826494e+01
1	 2.802798382979372e-01	 9.896479421661311e-01	-1.762570767447686e+01
1	 2.583408834563892e-01	 9.956002085003419e-01	-1.759028157911926e+01
1	 2.364080173708705e-01	 1.001034952832426e+00	-1.753419480185184e+01
1	 2.144980737680448e-01	 1.005957373317689e+00	-1.745924363177646e+01
1	 4.385375639164554e-01	 9.461695816632008e-01	-1.705320272082139e+01
1	 4.167595953371834e-01	 9.559621171207261e-01	-1.722446188208174e+01
1	 3.948585334115307e-01	 9.652144371960353e-01	-1.736615524256753e+01
1	 3.728536121834383e-01	 9.739262702075441e-01	-1.747891948577110e+01
1	 3.507638831979376e-01	 9.820982139855879e-01	-1.756356395781780e+01
1	 3.286081692055634e-01	 9.897317141111275e-01	-1.762106067133922e+01
1	 3.064050200908187e-01	 9.968290394198429e-01	-1.765253354512063e+01
1	 2.841726711919194e-01	 1.003393254999424e+00	-1.765924700161329e+01
1	 2.619290041549625e-01	 1.009428192917151e+00	-1.764259404545232e+01
1	 2.396915104413312e-01	 1.014938420921471e+00	-1.760408394558206e+01
1	 2.174772575828835e-01	 1.019929209365398e+00	-1.754532964153881e+01
1	 4.445450424434799e-01	 9.591310561466907e-01	-1.694271573765389e+01
1	 4.224687398347230e-01	 9.690577384850336e-01	-1.713442971582896e+01
1	 4.002676576372253e-01	 9.784368050891873e-01	-1.729661064422560e+01
1	 3.779612933800036e-01	 9.872679805558595e-01	-1.742975434965444e+01
1	 3.555689595931318e-01	 9.955518709050283e-01	-1.753452169457542e+01
1	 3.331097368779574e-01	 1.003289941520539e+00	-1.761172978335573e+01
1	 3.106024292318333e-01	 1.010484492318635e+00	-1.766234241403575e+01
1	 2.880655217968901e-01	 1.017138630375336e+00	-1.768745988650957e+01
1	 2.655171411779494e-01	 1.023256240253020e+00	-1.768830827960231e+01
1	 2.429750184500218e-01	 1.028841952273254e+00	-1.766622830960243e+01
1	 2.204564549512274e-01	 1.033901108987071e+00	-1.762266388148309e+01
1	 4.505525433976866e-01	 9.720925790186141e-01	-1.683629234400073e+01
1	 4.281779056456406e-01	 9.821534087387839e-01	-1.704672652574586e+01
1	 4.056768020561741e-01	 9.916592223452112e-01	-1.722769489188157e+01
1	 3.830689936443673e-01	 1.000609740712869e+00	-1.737956480213715e+01
1	 3.603740539263162e-01	 1.009005578051392e+00	-1.750286149581718e+01
1	 3.376113213551464e-01	 1.016848219547572e+00	-1.759826040817868e+01
1	 3.147998540420135e-01	 1.024139996198311e+00	-1.766657874192173e+01
1	 2.919583869338996e-01	 1.030884057068108e+00	-1.770876639434568e+01
1	 2.691052915952692e-01	 1.037084339214621e+00	-1.772589634276043e+01
1	 2.462585387156577e-01	 1.042745535532752e+00	-1.771915459140274e+01
1	 2.234356634403244e-01	 1.047873060771812e+00	-1.768982978243945e+01
1	 4.565600618730836e-01	 9.850541396938363e-01	-1.673220236631238e+01
1	 4.338870881075840e-01	 9.952491171872442e-01	-1.695964024676432e+01
1	 4.110859622510485e-01	 1.004881678165811e+00	-1.715771984051872e+01
1	 3.881767088053927e-01	 1.013951539782750e+00	-1.732669200595059e+01
1	 3.651791622734972e-01	 1.022459324437367e+00	-1.746695877532678e+01
1	 3.421129189610211e-01	 1.030406537119440e+00	-1.757906669154471e+01
1	 3.189972910936670e-01	 1.037795539906620e+00	-1.766369940949268e+01
1	 2.958512634239985e-01	 1.044629523851985e+00	-1.772166965302255e+01
1	 2.726934524768403e-01	 1.050912478508621e+00	-1.775391062099689e+01
1	 2.495420685569543e-01	 1.056649159344938e+00	-1.776146693705308e+01
1	 2.264148806174227e-01	 1.061845053308720e+00	-1.774548523767135e+01
1	 4.625675929636779e-01	 9.980157275872220e-01	-1.662880543823198e+01
1	 4.395962825582002e-01	 1.008344853135681e+00	-1.687154767552363e+01
1	 4.164951338045202e-01	 1.018104161752687e+00	-1.708508495984891e+01
1	 3.932844346919422e-01	 1.027293366869678e+00	-1.726956321212096e+01
1	 3.699842807106814e-01	 1.035913099075635e+00	-1.742527325239943e+01
1	 3.466145260194732e-01	 1.043964883163362e+00	-1.755264506961196e+01
1	 3.231947369591013e-01	 1.051451112291306e+00	-1.765224136533089e+01
1	 2.997441480882373e-01	 1.058375019501212e+00	-1.772475045381123e+01
1	 2.762816208925816e-01	 1.064740646841691e+00	-1.777097860336627e+01
1	 2.528256052926268e-01	 1.070552812354785e+00	-1.779184190580434e+01
1	 2.293941040497705e-01	 1.075817075186899e+00	-1.778835776115427e+01
1	 4.685751317634771e-01	 1.010977332113636e+00	-1.652454524102020e+01
1	 4.453054843351376e-01	 1.021440605889363e+00	-1.678090877085069e+01
1	 4.219043122992610e-01	 1.031326662307544e+00	-1.700827171419901e+01
1	 3.983921671328786e-01	 1.040635211077830e+00	-1.720668623720488e+01
1	 3.747894053138752e-01	 1.049366890978884e+00	-1.737634354289074e+01
1	 3.511161388543932e-01	 1.057523246606553e+00	-1.751756898874737e+01
1	 3.273921882106235e-01	 1.065106702200117e+00	-1.763081648774983e+01
1	 3.036370377476663e-01	 1.072120532790032e+00	-1.771666226699562e+01
1	 2.798697939124116e-01	 1.078568832920500e+00	-1.777579806136779e+01
1	 2.561091462413906e-01	 1.084456483207268e+00	-1.780902382170899e+01
1	 2.323733313046157e-01	 1.089789114995448e+00	-1.781724001798936e+01
1	 4.745826733664884e-01	 1.023938942687942e+00	-1.641794418106220e+01
1	 4.510146887760434e-01	 1.034536364753556e+00	-1.668626138676465e+01
1	 4.273134933179420e-01	 1.044549169032083e+00	-1.692583836889684e+01
1	 4.034999019570645e-01	 1.053977061511382e+00	-1.713664435963558e+01
1	 3.795945321590853e-01	 1.062820689159798e+00	-1.731878216073872e+01
1	 3.556177537896725e-01	 1.071081616376229e+00	-1.747248402601729e+01
1	 3.315896414205414e-01	 1.078762298480797e+00	-1.759810683657918e+01
1	 3.075299292233359e-01	 1.085866052492690e+00	-1.769612663576710e+01
1	 2.834579686062493e-01	 1.092397025451718e+00	-1.776713259422486e+01
1	 2.593926887219610e-01	 1.098360160547363e+00	-1.781182047799641e+01
1	 2.353525599492068e-01	 1.103761161323472e+00	-1.783098569400351e+01
1	 4.805902128667193e-01	 1.036900548725006e+00	-1.630759846624163e+01
1	 4.567238912185655e-01	 1.047632119033528e+00	-1.658621640018913e+01
1	 4.327226724432352e-01	 1.057771671128007e+00	-1.683641518586464e+01
1	 4.086076349933627e-01	 1.067318907274511e+00	-1.705809159853640e+01
1	 3.843996573223180e-01	 1.076274482631064e+00	-1.725127089407111e+01
1	 3.601193671492018e-01	 1.084639981399606e+00	-1.741610337534890e+01
1	 3.357870931611622e-01	 1.092417889981094e+00	-1.755286026078014e+01
1	 3.114228193362970e-01	 1.099611567383429e+00	-1.766192891530038e+01
1	 2.870461420440134e-01	 1.106225213142014e+00	-1.774380750800118e+01
1	 2.626762300530535e-01	 1.112263833020041e+00	-1.779909916336197e+01
1	 2.383317875507918e-01	 1.117733202760072e+00	-1.782850567488069e+01
1	 2.085397565298897e-01	 9.780139375877577e-01	-1.726688684434092e+01
1	 1.872751588682954e-01	 9.823075085927059e-01	-1.714437685326779e+01
1	 1.660642739430359e-01	 9.861149146151665e-01	-1.701214760406893e+01
1	 1.449221048859622e-01	 9.894430288203904e-01	-1.687006922392545e+01
1	 1.238631447915627e-01	 9.922992591451227e-01	-1.671806056767733e+01
1	 1.029013581149162e-01	 9.946915115410935e-01	-1.655608891231636e+01
1	 8.205016480108950e-02	 9.966281528999332e-01	-1.638416931491301e+01
1	 6.132242709398352e-02	 9.981179738659459e-01	-1.620236365700898e+01
1	 4.073043895732970e-02	 9.991701517322813e-01	-1.601077940026407e+01
1	 2.028591802679350e-02	 9.997942136041430e-01	-1.580956807949789e+01
1	 0.000000000000000e+00	 1.000000000000000e+00	-1.559892356018619e+01
1	 2.115189059394629e-01	 9.919856122548431e-01	-1.736590213430984e+01
1	 1.899505272900958e-01	 9.963405201949547e-01	-1.725971320510617e+01
1	 1.684366287042940e-01	 1.000202317915604e+00	-1.714151765680091e+01
1	 1.469924276450038e-01	 1.003577976770333e+00	-1.701129166833741e+01
1	 1.256326242515388e-01	 1.006475010523806e+00	-1.686906697611931e+01
1	 1.043713824717892e-01	 1.008901438070191e+00	-1.671492945106639e+01
1	 8.322231396489484e-02	 1.010865745828442e+00	-1.654901736772483e+01
1	 6.219846472164627e-02	 1.012376850023818e+00	-1.637151939552432e+01
1	 4.131230433435212e-02	 1.013444059054000e+00	-1.618267234319601e+01
1	 2.057571783397211e-02	 1.014077036126061e+00	-1.598275868785133e+01
1	 0.000000000000000e+00	 1.014285762337685e+00	-1.577210392030484e+01
1	 2.144980737680448e-01	 1.005957373317689e+00	-1.745924363177646e+01
1	 1.926259122523858e-01	 1.010373618572351e+00	-1.736843859421714e+01
1	 1.708089981323071e-01	 1.014289808327531e+00	-1.726356106096708e+01
1	 1.490627632031907e-01	 1.017713012125696e+00	-1.714466357841242e+01
1	 1.274021146504700e-01	 1.020650849560097e+00	-1.701186087682007e+01
1	 1.058414159160934e-01	 1.023111452468066e+00	-1.686532754277226e+01
1	 8.439447037447267e-02	 1.025103426796637e+00	-1.670529540008054e+01
1	 6.307450776443674e-02	 1.026635814352820e+00	-1.653205063542023e+01
1	 4.189417330796949e-02	 1.027718054639657e+00	-1.634593070518431e+01
1	 2.086551943237152e-02	 1.028359946966948e+00	-1.614732105989062e+01
1	 0.000000000000000e+00	 1.028571613012482e+00	-1.593665172187660e+01
1	 2.174772575828835e-01	 1.019929209365398e+00	-1.754532964153881e+01
1	 1.953013115705126e-01	 1.024406792263879e+00	-1.746903055320620e+01
1	 1.731813802898896e-01	 1.028377374345500e+00	-1.737680522445469e+01
1	 1.511331098699964e-01	 1.031848123342196e+00	-1.726875414841717e+01
1	 1.291716145435107e-01	 1.034826764676397e+00	-1.714504642075191e+01
1	 1.073114572475229e-01	 1.037321543129217e+00	-1.700591671527977e+01
1	 8.556663307275791e-02	 1.039341184176433e+00	-1.685166197262618e+01
1	 6.395055550708149e-02	 1.040894855207496e+00	-1.668263784334333e+01
1	 4.247604540310677e-02	 1.041992126831532e+00	-1.649925492679668e+01
1	 2.115532258538469e-02	 1.042642934461811e+00	-1.630197484644129e+01
1	 0.000000000000000e+00	 1.042857540357000e+00	-1.609130620103130e+01
1	 2.204564549512274e-01	 1.033901108987071e+00	-1.762266388148309e+01
1	 1.979767230598238e-01	 1.038440029808523e+00	-1.756004882699129e+01
1	 1.755537732398562e-01	 1.042465004464060e+00	-1.747985707253385e+01
1	 1.532034659548942e-01	 1.045983298875552e+00	-1.738220983252087e+01
1	 1.309411224858151e-01	 1.049002744295103e+00	-1.726730313060219e+01
1	 1.087815052657713e-01	 1.051531698448141e+00	-1.713540428161098e+01
1	 8.673880110268536e-02	 1.053579006339744e+00	-1.698684807940614e+01
1	 6.482660723430707e-02	 1.055153960942393e+00	-1.682203273644112e+01
1	 4.305792014468898e-02	 1.056266263971905e+00	-1.664141562042106e+01
1	 2.144512705640454e-02	 1.056925986945661e+00	-1.644550883245131e+01
1	 0.000000000000000e+00	 1.057143532703853e+00	-1.623487466967850e+01
1	 2.234356634403244e-01	 1.047873060771812e+00	-1.768982978243945e+01
1	 2.006521445356669e-01	 1.052473319745267e+00	-1.764012988584420e+01
1	 1.779261750450211e-01	 1.056552687177763e+00	-1.757139774041956e+01
1	 1.552738297673574e-01	 1.060118527181483e+00	-1.748374918776896e+01
1	 1.327106370325377e-01	 1.063178776838613e+00	-1.737738086958516e+01
1	 1.102515587705329e-01	 1.065741906819336e+00	-1.725256641453558e+01
1	 8.791097350718997e-02	 1.067816881658486e+00	-1.710965231257060e+01
1	 6.570266223083999e-02	 1.069413119912057e+00	-1.694905352596119e+01
1	 4.363979705764108e-02	 1.070540454403061e+00	-1.677124888581758e+01
1	 2.173493260882402e-02	 1.071209092753505e+00	-1.657677632176021e+01
1	 0.000000000000000e+00	 1.071429578385649e+00	-1.636622797085982e+01
1	 2.264148806174227e-01	 1.061845053308720e+00	-1.774548523767135e+01
1	 2.033275738133893e-01	 1.066506650613095e+00	-1.770798187124599e+01
1	 1.802985837681989e-01	 1.070640410981159e+00	-1.765017768449050e+01
1	 1.573441996168595e-01	 1.074253796715706e+00	-1.757215812385034e+01
1	 1.344801567388328e-01	 1.077354850729328e+00	-1.747409520711837e+01
1	 1.117216165615013e-01	 1.079952156637298e+00	-1.735624360966597e+01
1	 8.908314932920657e-02	 1.082054798504573e+00	-1.721893640849499e+01
1	 6.657871978140689e-02	 1.083672320471033e+00	-1.706258053603946e+01
1	 4.422167566688809e-02	 1.084814686467279e+00	-1.688765199518183e+01
1	 2.202473900603610e-02	 1.085492240220354e+00	-1.669469088592065e+01
1	 0.000000000000000e+00	 1.085715665735001e+00	-1.648429629258746e+01
1	 2.293941040497705e-01	 1.075817075186899e+00	-1.778835776115428e+01
1	 2.060030087083387e-01	 1.080540010950993e+00	-1.776237993524562e+01
1	 1.826709974722041e-01	 1.084728164368799e+00	-1.771501217413469e+01
1	 1.594145738128737e-01	 1.088389095933940e+00	-1.764628552270348e+01
1	 1.362496801598547e-01	 1.091530954389646e+00	-1.755632314531468e+01
1	 1.131916774383706e-01	 1.094162436296527e+00	-1.744533650178246e+01
1	 9.025532761167007e-02	 1.096292745249919e+00	-1.731362114066627e+01
1	 6.745477917073431e-02	 1.097931550973866e+00	-1.716155216359823e+01
1	 4.480355549735500e-02	 1.099088948506841e+00	-1.698957941415882e+01
1	 2.231454601143368e-02	 1.099775417681214e+00	-1.679822244400571e+01
1	 0.000000000000000e+00	 1.100001783084519e+00	-1.658806530760588e+01
1	 2.323733313046157e-01	 1.089789114995448e+00	-1.781724001798936e+01
1	 2.086784470358625e-01	 1.094573389297943e+00	-1.780216193803480e+01
1	 1.850434142198511e-01	 1.098815935835233e+00	-1.776477713009155e+01
1	 1.614849506648734e-01	 1.102524413291903e+00	-1.770503919479917e+01
1	 1.380192058507578e-01	 1.105707076241965e+00	-1.762299917393564e+01
1	 1.146617402008347e-01	 1.108372734191518e+00	-1.751880200271601e+01
1	 9.142750739751529e-02	 1.110530710266440e+00	-1.739268252824162e+01
1	 6.833083968354876e-02	 1.112190799775103e+00	-1.724496114876556e+01
1	 4.538543607396681e-02	 1.113363228864028e+00	-1.707603912868096e+01
1	 2.260435338840974e-02	 1.114058613471097e+00	-1.688639364372161e+01
1	 0.000000000000000e+00	 1.114287918766816e+00	-1.667657260985064e+01
1	 2.353525599492068e-01	 1.103761161323472e+00	-1.783098569400351e+01
1	 2.113538866113081e-01	 1.108606774192931e+00	-1.782622447202322e+01
1	 1.874158320739543e-01	 1.112903713875012e+00	-1.779840527861196e+01
1	 1.635553284823320e-01	 1.116659737245314e+00	-1.774738214229184e+01
1	 1.397887323666964e-01	 1.119883204708684e+00	-1.767311162472537e+01
1	 1.161318036485874e-01	 1.122583038716770e+00	-1.757564973231725e+01
1	 9.259968772967715e-02	 1.124768681926050e+00	-1.745514833233104e+01
1	 6.920690060457686e-02	 1.126450055229290e+00	-1.731185112832382e+01
1	 4.596731692164848e-02	 1.127637515881123e+00	-1.714608925055322e+01
1	 2.289416090035721e-02	 1.128341815925009e+00	-1.695827651714954e+01
1	 0.000000000000000e+00	 1.128574061114501e+00	-1.674890442133650e+01
1	 2.383317875507918e-01	 1.117733202760072e+00	-1.782850567488068e+01
1	 2.140293252500230e-01	 1.122640154174940e+00	-1.783351918387009e+01
1	 1.897882490973285e-01	 1.126991486982686e+00	-1.781488259382519e+01
1	 1.656257055747226e-01	 1.130795056249892e+00	-1.777232910220956e+01
1	 1.415582582628250e-01	 1.134059328212202e+00	-1.770569929895002e+01
1	 1.176018665813229e-01	 1.136793338266780e+00	-1.761493871688866e+01
1	 9.377186765109050e-02	 1.139006648600664e+00	-1.750009481484734e+01
1	 7.008296121854513e-02	 1.140709305690971e+00	-1.736131344744282e+01
1	 4.654919756532504e-02	 1.141911797900406e+00	-1.719883487741632e+01
1	 2.318396831066902e-02	 1.142625013377961e+00	-1.701298938710581e+01
1	 0.000000000000000e+00	 1.142860198460186e+00	-1.680419254583073e+01
1	 1.142860198460186e+00	 0.000000000000000e+00	 1.675661592341253e+01
1	 1.142625013377961e+00	 2.318396831066934e-02	 1.615468046732598e+01
1	 1.141911797900406e+00	 4.654919756532534e-02	 1.554109159681707e+01
1	 1.140709305690971e+00	 7.008296121854536e-02	 1.491598516665595e+01
1	 1.139006648600664e+00	 9.377186765109072e-02	 1.427966550850695e+01
1	 1.136793338266779e+00	 1.176018665813230e-01	 1.363261348504544e+01
1	 1.134059328212202e+00	 1.415582582628251e-01	 1.297549375500925e+01
1	 1.130795056249892e+00	 1.656257055747228e-01	 1.230916112995360e+01
1	 1.126991486982686e+00	 1.897882490973286e-01	 1.163466590403875e+01
1	 1.122640154174940e+00	 2.140293252500230e-01	 1.095325804031540e+01
1	 1.117733202760072e+00	 2.383317875507917e-01	 1.026639010079010e+01
1	 1.157145321350848e+00	 0.000000000000000e+00	 1.617546705779075e+01
1	 1.156907196584657e+00	 2.347375514173351e-02	 1.557827766929351e+01
1	 1.156185066306537e+00	 4.713103688965983e-02	 1.497097876762634e+01
1	 1.154967543606921e+00	 7.095895962352061e-02	 1.435377074882279e+01
1	 1.153243604240946e+00	 9.494396433618384e-02	 1.372700994518124e+01
1	 1.151002628747150e+00	 1.190718251251996e-01	 1.309121569753643e+01
1	 1.148234445072978e+00	 1.433276585053856e-01	 1.244707667237118e+01
1	 1.144929371509318e+00	 1.676959356502721e-01	 1.179545631484334e+01
1	 1.141078259721515e+00	 1.921604976561825e-01	 1.113739732967226e+01
1	 1.136672537650634e+00	 2.167045739068282e-01	 1.047412508416394e+01
1	 1.131704252046085e+00	 2.413108035985782e-01	 9.807049831548680e+00
1	 1.171430429241259e+00	 0.000000000000000e+00	 1.561920680694465e+01
1	 1.171189364794196e+00	 2.376354166844703e-02	 1.502705115495204e+01
1	 1.170458319724889e+00	 4.771287560295061e-02	 1.442622218004129e+01
1	 1.169225766550903e+00	 7.183495710857876e-02	 1.381698176521339e+01
1	 1.167480544931648e+00	 9.611605979047652e-02	 1.319973585800875e+01
1	 1.165211904307037e+00	 1.205417821255611e-01	 1.257504060777629e+01
1	 1.162409547049214e+00	 1.450970568900730e-01	 1.194360777971144e+01
1	 1.159063671927114e+00	 1.697661635521416e-01	 1.130630934654374e+01
1	 1.155165017668707e+00	 1.945327437243049e-01	 1.066418115992143e+01
1	 1.150704906391885e+00	 2.193798197548161e-01	 1.001842560606820e+01
1	 1.145675286662146e+00	 2.442898165186466e-01	 9.370413154259722e+00
1	 1.185715523798227e+00	 0.000000000000000e+00	 1.508594489648642e+01
1	 1.185471519673041e+00	 2.405332792465459e-02	 1.449909130597879e+01
1	 1.184731559820883e+00	 4.829471377313913e-02	 1.390489917874777e+01
1	 1.183483976186579e+00	 7.271095377599275e-02	 1.330368893812418e+01
1	 1.181717472333943e+00	 9.728815415079030e-02	 1.269591384982982e+01
1	 1.179421166604382e+00	 1.220117377539762e-01	 1.208216526981258e+01
1	 1.176584635794853e+00	 1.468664536233805e-01	 1.146317719884762e+01
1	 1.173197959152453e+00	 1.718363895219076e-01	 1.083983005410224e+01
1	 1.169251762467883e+00	 1.969049875784915e-01	 1.021315356931498e+01
1	 1.164737262035952e+00	 2.220550631061160e-01	 9.584328737955097e+00
1	 1.159646308238343e+00	 2.472688266585502e-01	 8.954688717777810e+00
1	 1.200000606688556e+00	 0.000000000000000e+00	 1.457388106954618e+01
1	 1.199753662887650e+00	 2.434311394420089e-02	 1.399257944266458e+01
1	 1.199004788259937e+00	 4.887655146816672e-02	 1.340517866781073e+01
1	 1.197742174177614e+00	 7.358694972803567e-02	 1.281205486453929e+01
1	 1.195954388109006e+00	 9.846024755394681e-02	 1.221370640381757e+01
1	 1.193630417297124e+00	 1.234816921820130e-01	 1.161075831078170e+01
1	 1.190759712963843e+00	 1.486358489118020e-01	 1.100396600236709e+01
1	 1.187332234834512e+00	 1.739066138011468e-01	 1.039421827885087e+01
1	 1.183338495762656e+00	 1.992772294955378e-01	 9.782539490071922e+00
1	 1.178769606220092e+00	 2.247303042728567e-01	 9.170090799991678e+00
1	 1.173617318404766e+00	 2.502478343658425e-01	 8.558170477385758e+00
1	 1.214285679579051e+00	 0.000000000000000e+00	 1.408129979159928e+01
1	 1.214035796104490e+00	 2.463289976093064e-02	 1.350578247455586e+01
1	 1.213278006707471e+00	 4.945838875597484e-02	 1.292531572479890e+01
1	 1.212000362187669e+00	 7.446294506698058e-02	 1.234032861170738e+01
1	 1.210191293918011e+00	 9.963234013676772e-02	 1.175136247872405e+01
1	 1.207839658043205e+00	 1.249516455812401e-01	 1.115907454423116e+01
1	 1.204934780210126e+00	 1.504052429618308e-01	 1.056424086356069e+01
1	 1.201466500622466e+00	 1.759768366314353e-01	 9.967758579551067e+00
1	 1.197425219196647e+00	 2.016494697522397e-01	 9.370647391053698e+00
1	 1.192801940581567e+00	 2.274055435671674e-01	 8.774050171867122e+00
1	 1.187588318791500e+00	 2.532268399880767e-01	 8.179232676781750e+00
1	 1.228570744136519e+00	 0.000000000000000e+00	 1.360656532476807e+01
1	 1.228317920990019e+00	 2.492268540868854e-02	 1.303704792435205e+01
1	 1.227551216828906e+00	 5.004022570450483e-02	 1.246364659071283e+01
1	 1.226258541880407e+00	 7.533893989510042e-02	 1.188684068981616e+01
1	 1.224428191422134e+00	 1.008044320360747e-01	 1.130721248124715e+01
1	 1.222048890500565e+00	 1.264215981232256e-01	 1.072544995930120e+01
1	 1.219109839187650e+00	 1.521746359799606e-01	 1.014234907966128e+01
1	 1.215600758165490e+00	 1.780470582543500e-01	 9.558815306990947e+00
1	 1.211511934413471e+00	 2.040217086253930e-01	 8.975864421018755e+00
1	 1.206834266757633e+00	 2.300807813011770e-01	 8.394622521934552e+00
1	 1.201559311028636e+00	 2.562058438728060e-01	 7.816325180202112e+00
1	 1.242855802027764e+00	 0.000000000000000e+00	 1.314811714186702e+01
1	 1.242600039210701e+00	 2.521247092131928e-02	 1.258479929502271e+01
1	 1.241824420289660e+00	 5.062206238169809e-02	 1.201858400547574e+01
1	 1.240516714919490e+00	 7.621493431466822e-02	 1.144999837141962e+01
1	 1.238665082282548e+00	 1.019765233886893e-01	 1.087966358517123e+01
1	 1.236258116327144e+00	 1.278915499795382e-01	 1.030829705552060e+01
1	 1.233284891550360e+00	 1.539440281726847e-01	 9.736713938347455e+00
1	 1.229735009112759e+00	 1.801172789114669e-01	 9.165828018305243e+00
1	 1.225598643056746e+00	 2.063939463917933e-01	 8.596651886864290e+00
1	 1.220866586385550e+00	 2.327560177870144e-01	 8.030296365416239e+00
1	 1.215530296746261e+00	 2.591848463675837e-01	 7.467969126504309e+00
1	 1.257140854919592e+00	 0.000000000000000e+00	 1.270446565316278e+01
1	 1.256882152432996e+00	 2.550225633266756e-02	 1.214753175283979e+01
1	 1.256097618755154e+00	 5.120389885549600e-02	 1.158861286149594e+01
1	 1.254774882968583e+00	 7.709092842795702e-02	 1.102828133003224e+01
1	 1.252901968160429e+00	 1.031486143314331e-01	 1.046719536969448e+01
1	 1.250467337180882e+00	 1.293615013217461e-01	 9.906100495721418e+00
1	 1.247459938952200e+00	 1.557134197464967e-01	 9.345830400203983e+00
1	 1.243869255113450e+00	 1.821874988443626e-01	 8.787307203991535e+00
1	 1.239685346770091e+00	 2.087661833282363e-01	 8.231541040205521e+00
1	 1.234898901102576e+00	 2.354312533368090e-01	 7.679628925493515e+00
1	 1.229501277574464e+00	 2.621638478199633e-01	 7.132752879596839e+00
1	 1.271425904478810e+00	 0.000000000000000e+00	 1.227418822125099e+01
1	 1.271164262323368e+00	 2.579204167657809e-02	 1.172380810147476e+01
1	 1.270370813890807e+00	 5.178573519383996e-02	 1.117228615028115e+01
1	 1.269033047691344e+00	 7.796692233723983e-02	 1.062023757278429e+01
1	 1.267138850716951e+00	 1.043207050011279e-01	 1.006835575183532e+01
1	 1.264676554719722e+00	 1.308314523214177e-01	 9.517413052049342e+00
1	 1.261634983047117e+00	 1.574828109078902e-01	 8.968261072285829e+00
1	 1.258003497816736e+00	 1.842577182946137e-01	 8.421830303025816e+00
1	 1.253772047197120e+00	 2.111384197115177e-01	 7.879129148038210e+00
1	 1.248931212545972e+00	 2.381064882626895e-01	 7.341242273456320e+00
1	 1.243472255143333e+00	 2.651428485774981e-01	 6.809328251905191e+00
1	 1.285710952372222e+00	 0.000000000000000e+00	 1.185592544163808e+01
1	 1.285446370548278e+00	 2.608182698689557e-02	 1.131225502451973e+01
1	 1.284644007362039e+00	 5.236757146467139e-02	 1.076822117930917e+01
1	 1.283291210751439e+00	 7.884291614478972e-02	 1.022447964426416e+01
1	 1.281375731613288e+00	 1.054927955345953e-01	 9.681757190042308e+00
1	 1.278885770601601e+00	 1.323014031501213e-01	 9.140851822270573e+00
1	 1.275810025489054e+00	 1.592522018633586e-01	 8.602632450141513e+00
1	 1.272137738871795e+00	 1.863279375037966e-01	 8.068037983667129e+00
1	 1.267858745981453e+00	 2.135106558184332e-01	 7.538075825386837e+00
1	 1.262963522352994e+00	 2.407817228767851e-01	 7.013819726205265e+00
1	 1.257443231082956e+00	 2.681218489877413e-01	 6.496406979635211e+00
1	 1.117733202760072e+00	 2.383317875507917e-01	 1.026639010079010e+01
1	 1.112263833020041e+00	 2.626762300530532e-01	 9.568736089936069e+00
1	 1.106225213142014e+00	 2.870461420440131e-01	 8.854735158536807e+00
1	 1.099611567383429e+00	 3.114228193362967e-01	 8.125893240969601e+00
1	 1.092417889981094e+00	 3.357870931611621e-01	 7.383859176322946e+00
1	 1.084639981399607e+00	 3.601193671492018e-01	 6.630422611865225e+00
1	 1.076274482631064e+00	 3.843996573223178e-01	 5.867510841534625e+00
1	 1.067318907274511e+00	 4.086076349933625e-01	 5.097184550673551e+00
1	 1.057771671128008e+00	 4.327226724432351e-01	 4.321632448296883e+00
1	 1.047632119033529e+00	 4.567238912185653e-01	 3.543164779093804e+00
1	 1.036900548725005e+00	 4.805902128667193e-01	 2.764205719001559e+00
1	 1.131704252046085e+00	 2.413108035985782e-01	 9.807049831548683e+00
1	 1.126166518197095e+00	 2.659595382211787e-01	 9.130553139528843e+00
1	 1.120052418896942e+00	 2.906340606870188e-01	 8.438798519814192e+00
1	 1.113356106209475e+00	 3.153154330166911e-01	 7.733245790956432e+00
1	 1.106072511802234e+00	 3.399842468424100e-01	 7.015482663830305e+00
1	 1.098197383647950e+00	 3.646206608509515e-01	 6.287222306847274e+00
1	 1.089727320752985e+00	 3.892044412755066e-01	 5.550299943012096e+00
1	 1.080659805637753e+00	 4.137150053315430e-01	 4.806668457256659e+00
1	 1.070993234298678e+00	 4.381314674648408e-01	 4.058393001806460e+00
1	 1.060726943388633e+00	 4.624326882528711e-01	 3.307644597370079e+00
1	 1.049861234363075e+00	 4.865973257739606e-01	 2.556692738580037e+00
1	 1.145675286662146e+00	 2.442898165186466e-01	 9.370413154259722e+00
1	 1.140069188776074e+00	 2.692428429421195e-01	 8.714247667299579e+00
1	 1.133879610133148e+00	 2.942219755630260e-01	 8.043830414908946e+00
1	 1.127100630603702e+00	 3.192080426101740e-01	 7.360577072849117e+00
1	 1.119727119286068e+00	 3.441813961169891e-01	 6.666016997262941e+00
1	 1.111754771661164e+00	 3.691219498266913e-01	 5.961790471442844e+00
1	 1.103180144749660e+00	 3.940092201840262e-01	 5.249645076397337e+00
1	 1.094000689993370e+00	 4.188223703073470e-01	 4.531431170482946e+00
1	 1.084214783587100e+00	 4.435402568075890e-01	 3.809096471980554e+00
1	 1.073821753994628e+00	 4.681414792933418e-01	 3.084679747697185e+00
1	 1.062821906392927e+00	 4.926044323741732e-01	 2.360303620361627e+00
1	 1.159646308238343e+00	 2.472688266585502e-01	 8.954688717777811e+00
1	 1.153971846379076e+00	 2.725261445989176e-01	 8.318073758846575e+00
1	 1.147706788463904e+00	 2.978098870906049e-01	 7.668135701912405e+00
1	 1.140845142169716e+00	 3.231006485708565e-01	 7.006248038709225e+00
1	 1.133381714025693e+00	 3.483785414745347e-01	 6.333884507520376e+00
1	 1.125312147020986e+00	 3.736232346015354e-01	 5.652616040693786e+00
1	 1.116632956190610e+00	 3.988139946083936e-01	 4.964106923157925e+00
1	 1.107341561897807e+00	 4.239297305165887e-01	 4.270110153668525e+00
1	 1.097436320535780e+00	 4.489490411024549e-01	 3.572462008454632e+00
1	 1.086916552379217e+00	 4.738502650059465e-01	 2.873075815343749e+00
1	 1.075782566326606e+00	 4.986115333681203e-01	 2.173934955229365e+00
1	 1.173617318404766e+00	 2.502478343658425e-01	 8.558170477385758e+00
1	 1.167874492628195e+00	 2.758094435746150e-01	 7.940368642484690e+00
1	 1.161533955502484e+00	 3.013977956883258e-01	 7.310099963834456e+00
1	 1.154589642511129e+00	 3.269932513528491e-01	 6.668697694311618e+00
1	 1.147036297614210e+00	 3.525756834046819e-01	 6.017582656345793e+00
1	 1.138869511309155e+00	 3.781245157005969e-01	 5.358259908787481e+00
1	 1.130085756645355e+00	 4.036187651091258e-01	 4.692314707333130e+00
1	 1.120682422907506e+00	 4.290370865550829e-01	 4.021407756339611e+00
1	 1.110657846687221e+00	 4.543578209804138e-01	 3.347269757160158e+00
1	 1.100011340070105e+00	 4.795590460566533e-01	 2.671695265795111e+00
1	 1.088743215676155e+00	 5.046186294565644e-01	 1.996535880577650e+00
1	 1.187588318791500e+00	 2.532268399880767e-01	 8.179232676781748e+00
1	 1.181777129145528e+00	 2.790927402522532e-01	 7.579547798521584e+00
1	 1.175361112862159e+00	 3.049857017747593e-01	 6.968184760115889e+00
1	 1.168334133231548e+00	 3.308858514102632e-01	 6.346438507800178e+00
1	 1.160690871644718e+00	 3.567728223970656e-01	 5.715679616929767e+00
1	 1.152426866107410e+00	 3.826257936489898e-01	 5.077350696246313e+00
1	 1.143538547683417e+00	 4.084235322467395e-01	 4.432962163714221e+00
1	 1.134023274578911e+00	 4.341444390186439e-01	 3.784087397509321e+00
1	 1.123879363583928e+00	 4.597665970724412e-01	 3.132357272436351e+00
1	 1.113106118594998e+00	 4.852678231114311e-01	 2.479454099004105e+00
1	 1.101703855953616e+00	 5.106257213402688e-01	 1.827104989502987e+00
1	 1.201559311028636e+00	 2.562058438728060e-01	 7.816325180202112e+00
1	 1.195679757553171e+00	 2.823760350148740e-01	 7.234100409787601e+00
1	 1.189188262156201e+00	 3.085736057684754e-01	 6.640923209469785e+00
1	 1.182078615934583e+00	 3.347784491972097e-01	 6.038052138707794e+00
1	 1.174345437710318e+00	 3.609699589413216e-01	 5.426810162880594e+00
1	 1.165984212997487e+00	 3.871270689718281e-01	 4.808580812464594e+00
1	 1.156991330874316e+00	 4.132282965817519e-01	 4.184803787347974e+00
1	 1.147364118468464e+00	 4.392517885030855e-01	 3.556970015269052e+00
1	 1.137100872768407e+00	 4.651753700095123e-01	 2.926616179489432e+00
1	 1.126200889481598e+00	 4.909765968362484e-01	 2.295318737093678e+00
1	 1.114664488671034e+00	 5.166328097199970e-01	 1.664687455658407e+00
1	 1.215530296746261e+00	 2.591848463675837e-01	 7.467969126504307e+00
1	 1.209582379473220e+00	 2.856593282455194e-01	 6.902585125959035e+00
1	 1.203015404997883e+00	 3.121615080880448e-01	 6.326915877390360e+00
1	 1.195823092223842e+00	 3.386710451677993e-01	 5.742185461561395e+00
1	 1.187999997404107e+00	 3.651670935270845e-01	 5.149671840747142e+00
1	 1.179541553561126e+00	 3.916283421942254e-01	 4.550702789826638e+00
1	 1.170444107787571e+00	 4.180330586746797e-01	 3.946651341725427e+00
1	 1.160704956132611e+00	 4.443591356042226e-01	 3.338930761264283e+00
1	 1.150322375783163e+00	 4.705841404226023e-01	 2.728989067054099e+00
1	 1.139295654257610e+00	 4.966853678970743e-01	 2.118303126726109e+00
1	 1.127625115340454e+00	 5.226398952965117e-01	 1.508372356416935e+00
1	 1.229501277574464e+00	 2.621638478199633e-01	 7.132752879596839e+00
1	 1.223484996527770e+00	 2.889426203272313e-01	 6.583626116711022e+00
1	 1.216842543000477e+00	 3.157494091520374e-01	 6.024826944091377e+00
1	 1.209567563702936e+00	 3.425636397761434e-01	 5.457546860636143e+00
1	 1.201654552319188e+00	 3.693642266439899e-01	 4.883021403536360e+00
1	 1.193098889380065e+00	 3.961296138412951e-01	 4.302525867800029e+00
1	 1.183896879992705e+00	 4.228378190860399e-01	 3.717370605076156e+00
1	 1.174045789127792e+00	 4.494664809178695e-01	 3.128895920573215e+00
1	 1.163543874170699e+00	 4.759929089426868e-01	 2.538466591943619e+00
1	 1.152390414450741e+00	 5.023941369598771e-01	 1.947466039060634e+00
1	 1.140585737473918e+00	 5.286469787705758e-01	 1.357290178567810e+00
1	 1.243472255143333e+00	 2.651428485774981e-01	 6.809328251905190e+00
1	 1.237387610338918e+00	 2.922259116430513e-01	 6.275909390980513e+00
1	 1.230669677777256e+00	 3.193373093790241e-01	 5.733380630815460e+00
1	 1.223312031975472e+00	 3.464562334763527e-01	 5.182902774530206e+00
1	 1.215309104048657e+00	 3.735613587816728e-01	 4.625671484695354e+00
1	 1.206656222036041e+00	 4.006308844381515e-01	 4.062912807341460e+00
1	 1.197349649059237e+00	 4.276425783763493e-01	 3.495878336038864e+00
1	 1.187386619010453e+00	 4.545738250398405e-01	 2.925840039257877e+00
1	 1.176765369473521e+00	 4.814016762007408e-01	 2.354084778821078e+00
1	 1.165485171588693e+00	 5.081029046906257e-01	 1.781908551757506e+00
1	 1.153546356583469e+00	 5.346540608429523e-01	 1.210610492187300e+00
1	 1.257443231082956e+00	 2.681218489877413e-01	 6.496406979635211e+00
1	 1.251290222528759e+00	 2.955092025760216e-01	 5.978179361639552e+00
1	 1.244496810941490e+00	 3.229252091875747e-01	 5.451357864416409e+00
1	 1.237056498645061e+00	 3.503488267225385e-01	 4.917074471127258e+00
1	 1.228963654185617e+00	 3.777584904297682e-01	 4.376487493853093e+00
1	 1.220213553110794e+00	 4.051321545099082e-01	 3.830776917699371e+00
1	 1.210802416556687e+00	 4.324473371061250e-01	 3.281139441643392e+00
1	 1.200727447337036e+00	 4.596811685659496e-01	 2.728783243433450e+00
1	 1.189986863234135e+00	 4.868104428277399e-01	 2.174922500006346e+00
1	 1.178579927199173e+00	 5.138116717552889e-01	 1.620771698867288e+00
1	 1.166506974181152e+00	 5.406611422144046e-01	 1.067539779602427e+00
1	 1.036900548725005e+00	 4.805902128667193e-01	 2.764205719001559e+00
1	 1.025577419295452e+00	 5.043020646478357e-01	 1.981153380235508e+00
1	 1.013665729158402e+00	 5.278364433591113e-01	 1.190419331873740e+00
1	 1.001168751814751e+00	 5.511719849359001e-01	 3.943871637047665e-01
1	 9.880907749640296e-01	 5.742873480231188e-01	-4.045369367511213e-01
1	 9.744371061647262e-01	 5.971612733236881e-01	-1.203933431478410e+00
1	 9.602140743702269e-01	 6.197726437892053e-01	-2.001378895428020e+00
1	 9.454290272392749e-01	 6.421005453207324e-01	-2.794455627968177e+00
1	 9.300903241502864e-01	 6.641243276354837e-01	-3.580761341152348e+00
1	 9.142073248808197e-01	 6.858236649462323e-01	-4.357918851507462e+00
1	 8.977903739465982e-01	 7.071786160946152e-01	-5.123585700794115e+00
1	 1.049861234363075e+00	 4.865973257739606e-01	 2.556692738580035e+00
1	 1.038396572053436e+00	 5.106055626397865e-01	 1.801572339212002e+00
1	 1.026335992351761e+00	 5.344341081201812e-01	 1.038372330659914e+00
1	 1.013682809675893e+00	 5.580613311114565e-01	 2.693747001160994e-01
1	 1.000441365319234e+00	 5.814656235033427e-01	-5.031187213624223e-01
1	 9.866170331818169e-01	 6.046254602692555e-01	-1.276795161545982e+00
1	 9.722162213254484e-01	 6.275194604093164e-01	-2.049339998455031e+00
1	 9.572463692505458e-01	 6.501264484098677e-01	-2.818445974265340e+00
1	 9.417159408231383e-01	 6.724255158709614e-01	-3.581822462846552e+00
1	 9.256344128128366e-01	 6.943960829442236e-01	-4.337204720282998e+00
1	 9.090122590360994e-01	 7.160179592177930e-01	-5.082363046769272e+00
1	 1.062821906392927e+00	 4.926044323741732e-01	 2.360303620361626e+00
1	 1.051215711351843e+00	 5.169090540135580e-01	 1.631675982931402e+00
1	 1.039006242241894e+00	 5.410317659542637e-01	 8.945963023456460e-01
1	 1.026196854397831e+00	 5.649506700538356e-01	 1.512486646373843e-01
1	 1.012791942706873e+00	 5.886438914470942e-01	-5.961656522679978e-01
1	 9.987969474105339e-01	 6.120896393782246e-01	-1.345436746261093e+00
1	 9.842183556789587e-01	 6.352662688961455e-01	-2.094354820927954e+00
1	 9.690636988541473e-01	 6.581523430727501e-01	-2.840719013299544e+00
1	 9.533415452896359e-01	 6.807266953911941e-01	-3.582346252896859e+00
1	 9.370614887469668e-01	 7.029684919422192e-01	-4.317080084004719e+00
1	 9.202341323432031e-01	 7.248572930607246e-01	-5.042799382437163e+00
1	 1.075782566326606e+00	 4.986115333681203e-01	 2.173934955229365e+00
1	 1.064034838686197e+00	 5.232125395044800e-01	 1.470454245309661e+00
1	 1.051676480306948e+00	 5.476294176309935e-01	 7.581747291125979e-01
1	 1.038710887440483e+00	 5.718400025666855e-01	 3.918626307212825e-02
1	 1.025142508567791e+00	 5.958221526917139e-01	-6.844066580441001e-01
1	 1.010976850271808e+00	 6.195538115212763e-01	-1.410493143337368e+00
1	 9.962204788309452e-01	 6.430130701533314e-01	-2.136964284502766e+00
1	 9.808810174287035e-01	 6.661782302455649e-01	-2.861721608684311e+00
1	 9.649671389060314e-01	 6.890278671644737e-01	-3.582685541110778e+00
1	 9.484885540162959e-01	 7.115408929401473e-01	-4.297803811969751e+00
1	 9.314559951770458e-01	 7.336966186544741e-01	-5.005059741584313e+00
1	 1.088743215676155e+00	 5.046186294565644e-01	 1.996535880577649e+00
1	 1.076853955552018e+00	 5.295160198478809e-01	 1.316945161752483e+00
1	 1.064346708025067e+00	 5.542270639200044e-01	 6.282347398253280e-01
1	 1.051224910263766e+00	 5.787293294536553e-01	-6.759611526257836e-02
1	 1.037493064342832e+00	 6.030004080745422e-01	-7.685359536970615e-01
1	 1.023156743186568e+00	 6.270179775690913e-01	-1.472569071886052e+00
1	 1.008222592181596e+00	 6.507598650845137e-01	-2.177683550317876e+00
1	 9.926983263528391e-01	 6.742041108644978e-01	-2.881879342659877e+00
1	 9.765927230285766e-01	 6.973290321590903e-01	-3.583176353925200e+00
1	 9.599156099539082e-01	 7.201132869379340e-01	-4.279622444629871e+00
1	 9.426778488467652e-01	 7.425359370301068e-01	-4.969301297737417e+00
1	 1.101703855953616e+00	 5.106257213402688e-01	 1.827104989502987e+00
1	 1.089673063444831e+00	 5.358194957790912e-01	 1.170232039833581e+00
1	 1.077016926874399e+00	 5.608247055909321e-01	 5.039445427716460e-01
1	 1.063738924327598e+00	 5.856186515183933e-01	-1.698452022433946e-01
1	 1.049843611472838e+00	 6.101786584329199e-01	-8.492150824210117e-01
1	 1.035336627575747e+00	 6.344821383923496e-01	-1.532240790930512e+00
1	 1.020224697131097e+00	 6.585066545933308e-01	-2.217003534083361e+00
1	 1.004515627005178e+00	 6.822299858657340e-01	-2.901597767696874e+00
1	 9.882182990135243e-01	 7.056301913433348e-01	-3.584138902593951e+00
1	 9.713426578928895e-01	 7.286856749355066e-01	-4.262770918569095e+00
1	 9.538996946614974e-01	 7.513752492186879e-01	-4.935673826282912e+00
1	 1.114664488671034e+00	 5.166328097199970e-01	 1.664687455658404e+00
1	 1.102492163860158e+00	 5.421229680334391e-01	 1.029440827391204e+00
1	 1.089687138333090e+00	 5.674223434134106e-01	 3.845110375351409e-01
1	 1.076252931091896e+00	 5.925079695645479e-01	-2.682729948353539e-01
1	 1.062194151398654e+00	 6.173569046041871e-01	-9.270748148906575e-01
1	 1.047516504860274e+00	 6.419462948617327e-01	-1.590057753823367e+00
1	 1.032226795079638e+00	 6.662534395834214e-01	-2.255392315454010e+00
1	 1.016332920764344e+00	 6.902558561854591e-01	-2.921263570768670e+00
1	 9.998438682171271e-01	 7.139313456854990e-01	-3.585878502423412e+00
1	 9.827696991663241e-01	 7.372580579327912e-01	-4.247473240895513e+00
1	 9.651215339303795e-01	 7.602145562512814e-01	-4.904320134341604e+00
1	 1.127625115340454e+00	 5.226398952965117e-01	 1.508372356416935e+00
1	 1.115311258293522e+00	 5.484264373462548e-01	 8.937376621561579e-01
1	 1.102357343879284e+00	 5.740199781570746e-01	 2.691775915857316e-01
1	 1.088766932016580e+00	 5.993972843957679e-01	-3.635587511143568e-01
1	 1.074544685561123e+00	 6.245351474256848e-01	-1.002716917552768e+00
1	 1.059696376461081e+00	 6.494104478479209e-01	-1.646544148552749e+00
1	 1.044228887427404e+00	 6.740002209584247e-01	-2.293296450192519e+00
1	 1.028150209008962e+00	 6.982817227598582e-01	-2.941245657319390e+00
1	 1.011469431995637e+00	 7.222324961538733e-01	-3.588686428605524e+00
1	 9.941967351072980e-01	 7.458304369297156e-01	-4.233943117117661e+00
1	 9.763433679625483e-01	 7.690538591589523e-01	-4.875376460993477e+00
1	 1.140585737473918e+00	 5.286469787705758e-01	 1.357290178567810e+00
1	 1.128130348240445e+00	 5.547299044528674e-01	 7.623265884702346e-01
1	 1.115027544991130e+00	 5.806176105915594e-01	 1.572219684835947e-01
1	 1.101280928561567e+00	 6.062865968157012e-01	-4.563508501816438e-01
1	 1.086895215401089e+00	 6.317133877347538e-01	-1.076715800338680e+00
1	 1.071876243799097e+00	 6.568745982215950e-01	-1.702200333015354e+00
1	 1.056230975574584e+00	 6.817469996219793e-01	-2.331142192856714e+00
1	 1.039967493117655e+00	 7.063075865251172e-01	-2.961896161316570e+00
1	 1.023094991705307e+00	 7.305336437167493e-01	-3.592840713691484e+00
1	 1.005623767048896e+00	 7.544028129262060e-01	-4.222384536206484e+00
1	 9.875651980671412e-01	 7.778931589727657e-01	-4.848972850211197e+00
1	 1.153546356583469e+00	 5.346540608429523e-01	 1.210610492187300e+00
1	 1.140949435196451e+00	 5.610333700886062e-01	 6.344474279514680e-01
1	 1.127697743146772e+00	 5.872152414864988e-01	 4.795439577101535e-02
1	 1.113794922186774e+00	 6.131759076279970e-01	-5.472685266761578e-01
1	 1.099245742359396e+00	 6.388916263687342e-01	-1.149620053282015e+00
1	 1.084056108295254e+00	 6.643387468534362e-01	-1.757504173518447e+00
1	 1.068233060921365e+00	 6.894937764777240e-01	-2.369336637049231e+00
1	 1.051784774469049e+00	 7.143334484174210e-01	-2.983551387202736e+00
1	 1.034720548702388e+00	 7.388347893424174e-01	-3.598606891297371e+00
1	 1.017050796324203e+00	 7.629751869221899e-01	-4.212992316210070e+00
1	 9.987870255532937e-01	 7.867324567237854e-01	-4.825233498649133e+00
1	 1.166506974181152e+00	 5.406611422144046e-01	 1.067539779602427e+00
1	 1.153768520657062e+00	 5.673368349888009e-01	 5.093737921308497e-01
1	 1.140367939824356e+00	 5.938128716115278e-01	-5.928423831418805e-02
1	 1.126308914352119e+00	 6.200652176363033e-01	-6.369034896397099e-01
1	 1.111596267876887e+00	 6.460698641649667e-01	-1.221953880683777e+00
1	 1.096235971370482e+00	 6.718028946141243e-01	-1.812912294038310e+00
1	 1.080235144867935e+00	 6.972405524292983e-01	-2.408268779641638e+00
1	 1.063602054441766e+00	 7.223593093729551e-01	-3.006532689042851e+00
1	 1.046346104343134e+00	 7.471359339991690e-01	-3.606238690223270e+00
1	 1.028477824266305e+00	 7.715475599175938e-01	-4.205952613490238e+00
1	 1.010008851730144e+00	 7.955717534430776e-01	-4.804277080243970e+00
1	 8.977903739465982e-01	 7.071786160946152e-01	-5.123585700794115e+00
1	 8.808507781263871e-01	 7.281696857534988e-01	-5.877823090265051e+00
1	 8.634007747364419e-01	 7.487778883035630e-01	-6.620784990074326e+00
1	 8.454535107871739e-01	 7.689847982105142e-01	-7.350382763862251e+00
1	 8.270230131317176e-01	 7.887726023905666e-01	-8.064644336711954e+00
1	 8.081241522539677e-01	 8.081241522539679e-01	-8.761720967987944e+00
1	 7.887726023905661e-01	 8.270230131317177e-01	-9.439893106236232e+00
1	 7.689847982105142e-01	 8.454535107871741e-01	-1.009757528532230e+01
1	 7.487778883035625e-01	 8.634007747364423e-01	-1.073332003173274e+01
1	 7.281696857534985e-01	 8.808507781263871e-01	-1.134582076404724e+01
1	 7.071786160946154e-01	 8.977903739465983e-01	-1.193391367680574e+01
1	 9.090122590360994e-01	 7.160179592177930e-01	-5.082363046769272e+00
1	 8.918609276001876e-01	 7.372714056836830e-01	-5.817604898830923e+00
1	 8.741928087810674e-01	 7.581371994127891e-01	-6.543282855473767e+00
1	 8.560212139195389e-01	 7.785966845617895e-01	-7.257339976729719e+00
1	 8.373603451966737e-01	 7.986318253931607e-01	-7.957823191071802e+00
1	 8.182252589692260e-01	 8.182252589692263e-01	-8.642890195969599e+00
1	 7.986318253931602e-01	 8.373603451966736e-01	-9.310815534322106e+00
1	 7.785966845617891e-01	 8.560212139195389e-01	-9.959995803467455e+00
1	 7.581371994127888e-01	 8.741928087810675e-01	-1.058895396319183e+01
1	 7.372714056836827e-01	 8.918609276001878e-01	-1.119634271925883e+01
1	 7.160179592177931e-01	 9.090122590360992e-01	-1.178094696928544e+01
1	 9.202341323432031e-01	 7.248572930607246e-01	-5.042799382437163e+00
1	 9.028710655139545e-01	 7.463731160581214e-01	-5.760022926999724e+00
1	 8.849848314947354e-01	 7.674965006957747e-01	-6.469270162209117e+00
1	 8.665889059565564e-01	 7.882085608215773e-01	-7.168516967610428e+00
1	 8.476976664082401e-01	 8.084910380445101e-01	-7.855831102050550e+00
1	 8.283263550791978e-01	 8.283263550791981e-01	-8.529379213405200e+00
1	 8.084910380445095e-01	 8.476976664082403e-01	-9.187433113069261e+00
1	 7.882085608215771e-01	 8.665889059565568e-01	-9.828375269660402e+00
1	 7.674965006957744e-01	 8.849848314947356e-01	-1.045070348512835e+01
1	 7.463731160581211e-01	 9.028710655139547e-01	-1.105303472562898e+01
1	 7.248572930607247e-01	 9.202341323432032e-01	-1.163410808896032e+01
1	 9.314559951770458e-01	 7.336966186544741e-01	-5.005059741584313e+00
1	 9.138811931521120e-01	 7.554748179384909e-01	-5.705150818422563e+00
1	 8.957768441364098e-01	 7.768557932442529e-01	-6.398733821149629e+00
1	 8.771565881310048e-01	 7.978204281110890e-01	-7.083818449059995e+00
1	 8.580349779723025e-01	 8.183502414946923e-01	-7.758494977396706e+00
1	 8.384274417621956e-01	 8.384274417621959e-01	-8.420941358286289e+00
1	 8.183502414946922e-01	 8.580349779723029e-01	-9.069429670510054e+00
1	 7.978204281110886e-01	 8.771565881310051e-01	-9.702331870526930e+00
1	 7.768557932442528e-01	 8.957768441364100e-01	-1.031812480498096e+01
1	 7.554748179384908e-01	 9.138811931521124e-01	-1.091539445320592e+01
1	 7.336966186544741e-01	 9.314559951770459e-01	-1.149283937685467e+01
1	 9.426778488467652e-01	 7.425359370301068e-01	-4.969301297737417e+00
1	 9.248913117990835e-01	 7.645765123864678e-01	-5.653058708644831e+00
1	 9.065688479650544e-01	 7.862150781499597e-01	-6.331661365450558e+00
1	 8.877242616756615e-01	 8.074322875515353e-01	-7.003153670401349e+00
1	 8.683722810947471e-01	 8.282094368937868e-01	-7.665649966907621e+00
1	 8.485285201965314e-01	 8.485285201965317e-01	-8.317341714280625e+00
1	 8.282094368937866e-01	 8.683722810947477e-01	-8.956504090670272e+00
1	 8.074322875515352e-01	 8.877242616756618e-01	-9.581501974799670e+00
1	 7.862150781499594e-01	 9.065688479650545e-01	-1.019079526402905e+01
1	 7.645765123864676e-01	 9.248913117990837e-01	-1.078294349372801e+01
1	 7.425359370301071e-01	 9.426778488467653e-01	-1.135660973076241e+01
1	 9.538996946614974e-01	 7.513752492186879e-01	-4.935673826282912e+00
1	 9.359014227392927e-01	 7.736782004637299e-01	-5.603813431219075e+00
1	 9.173608442396334e-01	 7.955743565046290e-01	-6.268040913707743e+00
1	 8.982919278233042e-01	 8.170441402641271e-01	-6.926436150623856e+00
1	 8.787095769814606e-01	 8.380686253918720e-01	-7.577138977382987e+00
1	 8.586295915605159e-01	 8.586295915605164e-01	-8.218356419604417e+00
1	 8.380686253918719e-01	 8.787095769814610e-01	-8.848369427734729e+00
1	 8.170441402641268e-01	 8.982919278233045e-01	-9.465539063614724e+00
1	 7.955743565046286e-01	 9.173608442396336e-01	-1.006831209408073e+01
1	 7.736782004637297e-01	 9.359014227392930e-01	-1.065522595334617e+01
1	 7.513752492186877e-01	 9.538996946614970e-01	-1.122491304299316e+01
1	 9.651215339303795e-01	 7.602145562512814e-01	-4.904320134341604e+00
1	 9.469115272571633e-01	 7.827798832319531e-01	-5.557478709436170e+00
1	 9.281528342191102e-01	 8.049336293999959e-01	-6.207861135682660e+00
1	 9.088595878067111e-01	 8.266559873700755e-01	-6.853583429919897e+00
1	 8.890468668383286e-01	 8.479278081390260e-01	-7.492812221422293e+00
1	 8.687306570324631e-01	 8.687306570324635e-01	-8.123772024118381e+00
1	 8.479278081390258e-01	 8.890468668383289e-01	-8.744752082021860e+00
1	 8.266559873700748e-01	 9.088595878067113e-01	-9.354112735447531e+00
1	 8.049336293999955e-01	 9.281528342191108e-01	-9.950291260914153e+00
1	 7.827798832319527e-01	 9.469115272571639e-01	-1.053180714354048e+01
1	 7.602145562512813e-01	 9.651215339303794e-01	-1.109726674712577e+01
1	 9.763433679625483e-01	 7.690538591589523e-01	-4.875376460993477e+00
1	 9.579216266371187e-01	 7.918815617528144e-01	-5.514115334832345e+00
1	 9.389448191624499e-01	 8.142928979277946e-01	-6.151111220391901e+00
1	 9.194272428586596e-01	 8.362678299905909e-01	-6.784516838358924e+00
1	 8.993841518712374e-01	 8.577869862853280e-01	-7.412526797344102e+00
1	 8.788317177906830e-01	 8.788317177906835e-01	-8.033384890767595e+00
1	 8.577869862853276e-01	 8.993841518712375e-01	-8.645391032794633e+00
1	 8.362678299905906e-01	 9.194272428586597e-01	-9.246907779681697e+00
1	 8.142928979277942e-01	 9.389448191624503e-01	-9.836366387490532e+00
1	 7.918815617528140e-01	 9.579216266371190e-01	-1.041227236232892e+01
1	 7.690538591589523e-01	 9.763433679625483e-01	-1.097321046499729e+01
1	 9.875651980671412e-01	 7.778931589727657e-01	-4.848972850211197e+00
1	 9.689317221635829e-01	 8.009832370879902e-01	-5.473781333523693e+00
1	 9.497368003286156e-01	 8.236521631797603e-01	-6.097780846372318e+00
1	 9.299948942119269e-01	 8.458796692468847e-01	-6.719161280335330e+00
1	 9.097214332860737e-01	 8.676461609808563e-01	-7.336146297749686e+00
1	 8.889327750134892e-01	 8.889327750134896e-01	-7.947000637836297e+00
1	 8.676461609808558e-01	 9.097214332860740e-01	-8.550037123386167e+00
1	 8.458796692468844e-01	 9.299948942119275e-01	-9.143623313351229e+00
1	 8.236521631797599e-01	 9.497368003286158e-01	-9.726187750593237e+00
1	 8.009832370879897e-01	 9.689317221635830e-01	-1.029622575858479e+01
1	 7.778931589727656e-01	 9.875651980671409e-01	-1.085230474595376e+01
1	 9.987870255532937e-01	 7.867324567237854e-01	-4.825233498649133e+00
1	 9.799418151209793e-01	 8.100849102991579e-01	-5.436532121325785e+00
1	 9.605287789765713e-01	 8.330114262476276e-01	-6.047860153951323e+00
1	 9.405625430992914e-01	 8.554915062601673e-01	-6.657445033549751e+00
1	 9.200587122887236e-01	 8.775053333756896e-01	-7.263540444479158e+00
1	 8.990338298791927e-01	 8.990338298791930e-01	-7.864433618808347e+00
1	 8.775053333756889e-01	 9.200587122887238e-01	-8.458452394524103e+00
1	 8.554915062601672e-01	 9.405625430992921e-01	-9.043971976086402e+00
1	 8.330114262476271e-01	 9.605287789765714e-01	-9.619421345116670e+00
1	 8.100849102991573e-01	 9.799418151209796e-01	-1.018328927292636e+01
1	 7.867324567237856e-01	 9.987870255532937e-01	-1.073412989110453e+01
1	 1.010008851730144e+00	 7.955717534430776e-01	-4.804277080243970e+00
1	 9.909519067937320e-01	 8.191865824479939e-01	-5.402420648531014e+00
1	 9.713207563652808e-01	 8.423706882231309e-01	-6.001339719365641e+00
1	 9.511301907535311e-01	 8.651033421516505e-01	-6.599299561393106e+00
1	 9.303959900850729e-01	 8.873645046199061e-01	-7.194584747906679e+00
1	 9.091348835661056e-01	 9.091348835661061e-01	-7.785506436907515e+00
1	 8.873645046199057e-01	 9.303959900850729e-01	-8.370409462105483e+00
1	 8.651033421516500e-01	 9.511301907535311e-01	-8.947679178736006e+00
1	 8.423706882231307e-01	 9.713207563652815e-01	-9.515748010743346e+00
1	 8.191865824479935e-01	 9.909519067937324e-01	-1.007310164922142e+01
1	 7.955717534430776e-01	 1.010008851730144e+00	-1.061828485596917e+01
1	 7.071786160946154e-01	 8.977903739465983e-01	-1.193391367680574e+01
1	 6.858236649462317e-01	 9.142073248808196e-01	-1.249675417080944e+01
1	 6.641243276354835e-01	 9.300903241502866e-01	-1.303348529094402e+01
1	 6.421005453207319e-01	 9.454290272392751e-01	-1.354315599227962e+01
1	 6.197726437892049e-01	 9.602140743702273e-01	-1.402498037975957e+01
1	 5.971612733236877e-01	 9.744371061647262e-01	-1.447833720991883e+01
1	 5.742873480231185e-01	 9.880907749640297e-01	-1.490276827627293e+01
1	 5.511719849358999e-01	 1.001168751814751e+00	-1.529797572115174e+01
1	 5.278364433591108e-01	 1.013665729158402e+00	-1.566381832709049e+01
1	 5.043020646478351e-01	 1.025577419295452e+00	-1.600030685021198e+01
1	 4.805902128667193e-01	 1.036900548725006e+00	-1.630759846624163e+01
1	 7.160179592177931e-01	 9.090122590360992e-01	-1.178094696928544e+01
1	 6.943960829442232e-01	 9.256344128128371e-01	-1.234190483256181e+01
1	 6.724255158709611e-01	 9.417159408231384e-01	-1.287834076285286e+01
1	 6.501264484098671e-01	 9.572463692505462e-01	-1.338923094194298e+01
1	 6.275194604093159e-01	 9.722162213254483e-01	-1.387370149894559e+01
1	 6.046254602692551e-01	 9.866170331818170e-01	-1.433102900344998e+01
1	 5.814656235033423e-01	 1.000441365319234e+00	-1.476063993127014e+01
1	 5.580613311114559e-01	 1.013682809675893e+00	-1.516210913355131e+01
1	 5.344341081201810e-01	 1.026335992351761e+00	-1.553515734976324e+01
1	 5.106055626397861e-01	 1.038396572053436e+00	-1.587964781405444e+01
1	 4.865973257739606e-01	 1.049861234363075e+00	-1.619558201245536e+01
1	 7.248572930607247e-01	 9.202341323432032e-01	-1.163410808896032e+01
1	 7.029684919422190e-01	 9.370614887469674e-01	-1.219303131011876e+01
1	 6.807266953911937e-01	 9.533415452896362e-01	-1.272890008721444e+01
1	 6.581523430727497e-01	 9.690636988541473e-01	-1.324062904773248e+01
1	 6.352662688961452e-01	 9.842183556789591e-01	-1.372726874802912e+01
1	 6.120896393782242e-01	 9.987969474105339e-01	-1.418800705265770e+01
1	 5.886438914470936e-01	 1.012791942706873e+00	-1.462216956886318e+01
1	 5.649506700538351e-01	 1.026196854397832e+00	-1.502921915613946e+01
1	 5.410317659542635e-01	 1.039006242241895e+00	-1.540875453998143e+01
1	 5.169090540135576e-01	 1.051215711351843e+00	-1.576050806754870e+01
1	 4.926044323741732e-01	 1.062821906392927e+00	-1.608434265077378e+01
1	 7.336966186544741e-01	 9.314559951770459e-01	-1.149283937685467e+01
1	 7.115408929401470e-01	 9.484885540162963e-01	-1.204952638428346e+01
1	 6.890278671644734e-01	 9.649671389060314e-01	-1.258451471323054e+01
1	 6.661782302455646e-01	 9.808810174287038e-01	-1.309666823792943e+01
1	 6.430130701533312e-01	 9.962204788309453e-01	-1.358497389627222e+01
1	 6.195538115212760e-01	 1.010976850271808e+00	-1.404854385249971e+01
1	 5.958221526917136e-01	 1.025142508567791e+00	-1.448661679140075e+01
1	 5.718400025666852e-01	 1.038710887440483e+00	-1.489855835418585e+01
1	 5.476294176309930e-01	 1.051676480306948e+00	-1.528386073493518e+01
1	 5.232125395044795e-01	 1.064034838686197e+00	-1.564214146475526e+01
1	 4.986115333681203e-01	 1.075782566326606e+00	-1.597314141840068e+01
1	 7.425359370301071e-01	 9.426778488467653e-01	-1.135660973076241e+01
1	 7.201132869379336e-01	 9.599156099539083e-01	-1.191081175301604e+01
1	 6.973290321590896e-01	 9.765927230285767e-01	-1.244456697582252e+01
1	 6.742041108644973e-01	 9.926983263528394e-01	-1.295669892316998e+01
1	 6.507598650845134e-01	 1.008222592181596e+00	-1.344614244136575e+01
1	 6.270179775690907e-01	 1.023156743186568e+00	-1.391194654459382e+01
1	 6.030004080745418e-01	 1.037493064342832e+00	-1.435327646222829e+01
1	 5.787293294536551e-01	 1.051224910263766e+00	-1.476941488944979e+01
1	 5.542270639200043e-01	 1.064346708025068e+00	-1.515976245097283e+01
1	 5.295160198478805e-01	 1.076853955552018e+00	-1.552383739559220e+01
1	 5.046186294565644e-01	 1.088743215676154e+00	-1.586127454667665e+01
1	 7.513752492186877e-01	 9.538996946614970e-01	-1.122491304299316e+01
1	 7.286856749355062e-01	 9.713426578928899e-01	-1.177633633036431e+01
1	 7.056301913433345e-01	 9.882182990135246e-01	-1.230846827879666e+01
1	 6.822299858657339e-01	 1.004515627005178e+00	-1.282010208572519e+01
1	 6.585066545933304e-01	 1.020224697131098e+00	-1.331013162544712e+01
1	 6.344821383923491e-01	 1.035336627575747e+00	-1.377755487925935e+01
1	 6.101786584329194e-01	 1.049843611472838e+00	-1.422147663163048e+01
1	 5.856186515183930e-01	 1.063738924327598e+00	-1.464111042642587e+01
1	 5.608247055909317e-01	 1.077016926874399e+00	-1.503577978502193e+01
1	 5.358194957790905e-01	 1.089673063444831e+00	-1.540491869572125e+01
1	 5.106257213402690e-01	 1.101703855953616e+00	-1.574807139110183e+01
1	 7.602145562512813e-01	 9.651215339303794e-01	-1.109726674712577e+01
1	 7.372580579327910e-01	 9.827696991663243e-01	-1.164557466408668e+01
1	 7.139313456854985e-01	 9.998438682171275e-01	-1.217565740478011e+01
1	 6.902558561854589e-01	 1.016332920764344e+00	-1.268628750210313e+01
1	 6.662534395834212e-01	 1.032226795079638e+00	-1.317632858955238e+01
1	 6.419462948617320e-01	 1.047516504860274e+00	-1.364473931975913e+01
1	 6.173569046041869e-01	 1.062194151398654e+00	-1.409057660749178e+01
1	 5.925079695645477e-01	 1.076252931091897e+00	-1.451299818468193e+01
1	 5.674223434134104e-01	 1.089687138333090e+00	-1.491126446243820e+01
1	 5.421229680334386e-01	 1.102492163860158e+00	-1.528473970227347e+01
1	 5.166328097199971e-01	 1.114664488671035e+00	-1.563289250579316e+01
1	 7.690538591589523e-01	 9.763433679625483e-01	-1.097321046499729e+01
1	 7.458304369297151e-01	 9.941967351072982e-01	-1.151802546241867e+01
1	 7.222324961538731e-01	 1.011469431995637e+00	-1.204559894172704e+01
1	 6.982817227598579e-01	 1.028150209008962e+00	-1.255469208824472e+01
1	 6.740002209584242e-01	 1.044228887427404e+00	-1.304414865536168e+01
1	 6.494104478479207e-01	 1.059696376461081e+00	-1.351289927729818e+01
1	 6.245351474256845e-01	 1.074544685561123e+00	-1.395996515903133e+01
1	 5.993972843957676e-01	 1.088766932016580e+00	-1.438446112553558e+01
1	 5.740199781570746e-01	 1.102357343879285e+00	-1.478559801950322e+01
1	 5.484264373462544e-01	 1.115311258293522e+00	-1.516268444367829e+01
1	 5.226398952965116e-01	 1.127625115340454e+00	-1.551512785075267e+01
1	 7.778931589727656e-01	 9.875651980671409e-01	-1.085230474595376e+01
1	 7.544028129262057e-01	 1.005623767048896e+00	-1.139321022129779e+01
1	 7.305336437167487e-01	 1.023094991705307e+00	-1.191778181672070e+01
1	 7.063075865251167e-01	 1.039967493117656e+00	-1.242477835755950e+01
1	 6.817469996219788e-01	 1.056230975574584e+00	-1.291303372411280e+01
1	 6.568745982215948e-01	 1.071876243799097e+00	-1.338146146637758e+01
1	 6.317133877347535e-01	 1.086895215401090e+00	-1.382905884302379e+01
1	 6.062865968157010e-01	 1.101280928561567e+00	-1.425491026237937e+01
1	 5.806176105915590e-01	 1.115027544991130e+00	-1.465819010985596e+01
1	 5.547299044528670e-01	 1.128130348240445e+00	-1.503816495292791e+01
1	 5.286469787705758e-01	 1.140585737473918e+00	-1.539419512138258e+01
1	 7.867324567237856e-01	 9.987870255532937e-01	-1.073412989110453e+01
1	 7.629751869221895e-01	 1.017050796324203e+00	-1.127067194414610e+01
1	 7.388347893424171e-01	 1.034720548702388e+00	-1.179171792863181e+01
1	 7.143334484174205e-01	 1.051784774469049e+00	-1.229603298292686e+01
1	 6.894937764777238e-01	 1.068233060921365e+00	-1.278245078346462e+01
1	 6.643387468534357e-01	 1.084056108295254e+00	-1.324987837103626e+01
1	 6.388916263687338e-01	 1.099245742359396e+00	-1.369730044287296e+01
1	 6.131759076279966e-01	 1.113794922186774e+00	-1.412378308493051e+01
1	 5.872152414864982e-01	 1.127697743146772e+00	-1.452847692511077e+01
1	 5.610333700886059e-01	 1.140949435196451e+00	-1.491061969456666e+01
1	 5.346540608429523e-01	 1.153546356583469e+00	-1.526953819062924e+01
1	 7.955717534430776e-01	 1.010008851730144e+00	-1.061828485596917e+01
1	 7.715475599175932e-01	 1.028477824266305e+00	-1.114997394701008e+01
1	 7.471359339991688e-01	 1.046346104343135e+00	-1.166694087194289e+01
1	 7.223593093729547e-01	 1.063602054441766e+00	-1.216796545457420e+01
1	 6.972405524292978e-01	 1.080235144867935e+00	-1.265189051391514e+01
1	 6.718028946141240e-01	 1.096235971370482e+00	-1.311762681335446e+01
1	 6.460698641649665e-01	 1.111596267876887e+00	-1.356415751175839e+01
1	 6.200652176363031e-01	 1.126308914352119e+00	-1.399054208854244e+01
1	 5.938128716115273e-01	 1.140367939824357e+00	-1.439591972077980e+01
1	 5.673368349888005e-01	 1.153768520657062e+00	-1.477951209656057e+01
1	 5.406611422144048e-01	 1.166506974181152e+00	-1.514062565499654e+01
1	 4.805902128667193e-01	 1.036900548725006e+00	-1.630759846624163e+01
1	 4.567238912185655e-01	 1.047632119033528e+00	-1.658621640018913e+01
1	 4.327226724432352e-01	 1.057771671128007e+00	-1.683641518586464e+01
1	 4.086076349933627e-01	 1.067318907274511e+00	-1.705809159853640e+01
1	 3.843996573223180e-01	 1.076274482631064e+00	-1.725127089407110e+01
1	 3.601193671492018e-01	 1.084639981399606e+00	-1.741610337534890e+01
1	 3.357870931611622e-01	 1.092417889981094e+00	-1.755286026078014e+01
1	 3.114228193362970e-01	 1.099611567383429e+00	-1.766192891530038e+01
1	 2.870461420440134e-01	 1.106225213142014e+00	-1.774380750800118e+01
1	 2.626762300530535e-01	 1.112263833020041e+00	-1.779909916336197e+01
1	 2.383317875507918e-01	 1.117733202760072e+00	-1.782850567488069e+01
1	 4.865973257739606e-01	 1.049861234363075e+00	-1.619558201245536e+01
1	 4.624326882528714e-01	 1.060726943388633e+00	-1.648331095954683e+01
1	 4.381314674648409e-01	 1.070993234298677e+00	-1.674298468992605e+01
1	 4.137150053315431e-01	 1.080659805637752e+00	-1.697443457553913e+01
1	 3.892044412755069e-01	 1.089727320752985e+00	-1.717761552299193e+01
1	 3.646206608509516e-01	 1.098197383647950e+00	-1.735260317679303e+01
1	 3.399842468424103e-01	 1.106072511802235e+00	-1.749959043452924e+01
1	 3.153154330166913e-01	 1.113356106209476e+00	-1.761888332819367e+01
1	 2.906340606870190e-01	 1.120052418896942e+00	-1.771089632991676e+01
1	 2.659595382211789e-01	 1.126166518197095e+00	-1.777614714346075e+01
1	 2.413108035985782e-01	 1.131704252046085e+00	-1.781525104503679e+01
1	 4.926044323741732e-01	 1.062821906392927e+00	-1.608434265077378e+01
1	 4.681414792933423e-01	 1.073821753994628e+00	-1.638045454387618e+01
1	 4.435402568075893e-01	 1.084214783587100e+00	-1.664889758281331e+01
1	 4.188223703073470e-01	 1.094000689993370e+00	-1.688944151354307e+01
1	 3.940092201840263e-01	 1.103180144749659e+00	-1.710197458679292e+01
1	 3.691219498266916e-01	 1.111754771661164e+00	-1.728650138396485e+01
1	 3.441813961169894e-01	 1.119727119286067e+00	-1.744313996580003e+01
1	 3.192080426101743e-01	 1.127100630603701e+00	-1.757211839193288e+01
1	 2.942219755630262e-01	 1.133879610133147e+00	-1.767377066372908e+01
1	 2.692428429421198e-01	 1.140069188776074e+00	-1.774853214620277e+01
1	 2.442898165186467e-01	 1.145675286662146e+00	-1.779693452735847e+01
1	 4.986115333681203e-01	 1.075782566326606e+00	-1.597314141840068e+01
1	 4.738502650059467e-01	 1.086916552379217e+00	-1.627691758489790e+01
1	 4.489490411024551e-01	 1.097436320535780e+00	-1.655343428026609e+01
1	 4.239297305165890e-01	 1.107341561897807e+00	-1.680240330939413e+01
1	 3.988139946083938e-01	 1.116632956190609e+00	-1.702364986562238e+01
1	 3.736232346015355e-01	 1.125312147020986e+00	-1.721711096562924e+01
1	 3.483785414745348e-01	 1.133381714025693e+00	-1.738283321889469e+01
1	 3.231006485708565e-01	 1.140845142169716e+00	-1.752096997384658e+01
1	 2.978098870906050e-01	 1.147706788463904e+00	-1.763177788727340e+01
1	 2.725261445989179e-01	 1.153971846379076e+00	-1.771561296727212e+01
1	 2.472688266585503e-01	 1.159646308238343e+00	-1.777292614288538e+01
1	 5.046186294565644e-01	 1.088743215676154e+00	-1.586127454667665e+01
1	 4.795590460566536e-01	 1.100011340070106e+00	-1.617200526141216e+01
1	 4.543578209804141e-01	 1.110657846687220e+00	-1.645590946993800e+01
1	 4.290370865550832e-01	 1.120682422907506e+00	-1.671264463297841e+01
1	 4.036187651091259e-01	 1.130085756645355e+00	-1.694197639460666e+01
1	 3.781245157005970e-01	 1.138869511309155e+00	-1.714377761289175e+01
1	 3.525756834046820e-01	 1.147036297614210e+00	-1.731802673792983e+01
1	 3.269932513528492e-01	 1.154589642511129e+00	-1.746480557339759e+01
1	 3.013977956883261e-01	 1.161533955502484e+00	-1.758429646244833e+01
1	 2.758094435746151e-01	 1.167874492628195e+00	-1.767677894272455e+01
1	 2.502478343658426e-01	 1.173617318404765e+00	-1.774262591847080e+01
1	 5.106257213402690e-01	 1.101703855953616e+00	-1.574807139110183e+01
1	 4.852678231114312e-01	 1.113106118594997e+00	-1.606505545565236e+01
1	 4.597665970724414e-01	 1.123879363583928e+00	-1.635567009573255e+01
1	 4.341444390186440e-01	 1.134023274578911e+00	-1.661952194093362e+01
1	 4.084235322467397e-01	 1.143538547683417e+00	-1.685632050806261e+01
1	 3.826257936489901e-01	 1.152426866107410e+00	-1.706587781476739e+01
1	 3.567728223970658e-01	 1.160690871644718e+00	-1.724810735434038e+01
1	 3.308858514102634e-01	 1.168334133231548e+00	-1.740302246192311e+01
1	 3.049857017747594e-01	 1.175361112862159e+00	-1.753073410721301e+01
1	 2.790927402522533e-01	 1.181777129145528e+00	-1.763144815298138e+01
1	 2.532268399880767e-01	 1.187588318791500e+00	-1.770546212223299e+01
1	 5.166328097199971e-01	 1.114664488671035e+00	-1.563289250579316e+01
1	 4.909765968362486e-01	 1.126200889481598e+00	-1.595543685223608e+01
1	 4.651753700095125e-01	 1.137100872768407e+00	-1.625209348278389e+01
1	 4.392517885030857e-01	 1.147364118468464e+00	-1.652242162895460e+01
1	 4.132282965817521e-01	 1.156991330874316e+00	-1.676607802017618e+01
1	 3.871270689718284e-01	 1.165984212997487e+00	-1.698281706802781e+01
1	 3.609699589413218e-01	 1.174345437710318e+00	-1.717249042643433e+01
1	 3.347784491972099e-01	 1.182078615934583e+00	-1.733504595217669e+01
1	 3.085736057684756e-01	 1.189188262156202e+00	-1.747052609513544e+01
1	 2.823760350148741e-01	 1.195679757553171e+00	-1.757906575214155e+01
1	 2.562058438728059e-01	 1.201559311028636e+00	-1.766088962212891e+01
1	 5.226398952965116e-01	 1.127625115340454e+00	-1.551512785075267e+01
1	 4.966853678970744e-01	 1.139295654257610e+00	-1.584254716823780e+01
1	 4.705841404226027e-01	 1.150322375783162e+00	-1.614458559176401e+01
1	 4.443591356042228e-01	 1.160704956132610e+00	-1.642075831154099e+01
1	 4.180330586746799e-01	 1.170444107787572e+00	-1.667067253116650e+01
1	 3.916283421942255e-01	 1.179541553561126e+00	-1.689402821052142e+01
1	 3.651670935270849e-01	 1.187999997404108e+00	-1.709061820037153e+01
1	 3.386710451677995e-01	 1.195823092223842e+00	-1.726032778722596e+01
1	 3.121615080880449e-01	 1.203015404997883e+00	-1.740313367222608e+01
1	 2.856593282455197e-01	 1.209582379473220e+00	-1.751910241252706e+01
1	 2.591848463675838e-01	 1.215530296746261e+00	-1.760838835774294e+01
1	 5.286469787705758e-01	 1.140585737473918e+00	-1.539419512138258e+01
1	 5.023941369598772e-01	 1.152390414450741e+00	-1.572581150395277e+01
1	 4.759929089426871e-01	 1.163543874170699e+00	-1.603257939222864e+01
1	 4.494664809178697e-01	 1.174045789127792e+00	-1.631397321904866e+01
1	 4.228378190860402e-01	 1.183896879992705e+00	-1.656955384895175e+01
1	 3.961296138412954e-01	 1.193098889380064e+00	-1.679896986814492e+01
1	 3.693642266439901e-01	 1.201654552319188e+00	-1.700195828290703e+01
1	 3.425636397761436e-01	 1.209567563702935e+00	-1.717834463921038e+01
1	 3.157494091520378e-01	 1.216842543000477e+00	-1.732804258172773e+01
1	 2.889426203272316e-01	 1.223484996527770e+00	-1.745105287529374e+01
1	 2.621638478199633e-01	 1.229501277574464e+00	-1.754746191628391e+01
1	 5.346540608429523e-01	 1.153546356583469e+00	-1.526953819062924e+01
1	 5.081029046906258e-01	 1.165485171588693e+00	-1.560468080485796e+01
1	 4.814016762007410e-01	 1.176765369473521e+00	-1.591553334563766e+01
1	 4.545738250398405e-01	 1.187386619010453e+00	-1.620153270281765e+01
1	 4.276425783763496e-01	 1.197349649059237e+00	-1.646219651723219e+01
1	 4.006308844381519e-01	 1.206656222036041e+00	-1.669712500652452e+01
1	 3.735613587816729e-01	 1.215309104048657e+00	-1.690600221710696e+01
1	 3.464562334763529e-01	 1.223312031975472e+00	-1.708859670931886e+01
1	 3.193373093790243e-01	 1.230669677777255e+00	-1.724476168836902e+01
1	 2.922259116430516e-01	 1.237387610338918e+00	-1.737443459876564e+01
1	 2.651428485774981e-01	 1.243472255143333e+00	-1.747763620459362e+01
1	 5.406611422144048e-01	 1.166506974181152e+00	-1.514062565499654e+01
1	 5.138116717552891e-01	 1.178579927199173e+00	-1.547863042612051e+01
1	 4.868104428277401e-01	 1.189986863234134e+00	-1.579292998951858e+01
1	 4.596811685659499e-01	 1.200727447337036e+00	-1.608292683996867e+01
1	 4.324473371061253e-01	 1.210802416556687e+00	-1.634809844171173e+01
1	 4.051321545099085e-01	 1.220213553110794e+00	-1.658799957926253e+01
1	 3.777584904297684e-01	 1.228963654185617e+00	-1.680226415302797e+01
1	 3.503488267225386e-01	 1.237056498645061e+00	-1.699060642111194e+01
1	 3.229252091875749e-01	 1.244496810941490e+00	-1.715282169434460e+01
1	 2.955092025760218e-01	 1.251290222528759e+00	-1.728878649689038e+01
1	 2.681218489877413e-01	 1.257443231082956e+00	-1.739845820969775e+01
1	 2.383317875507918e-01	 1.117733202760072e+00	-1.782850567488069e+01
1	 2.140293252500230e-01	 1.122640154174940e+00	-1.783351918387009e+01
1	 1.897882490973285e-01	 1.126991486982686e+00	-1.781488259382520e+01
1	 1.656257055747226e-01	 1.130795056249892e+00	-1.777232910220956e+01
1	 1.415582582628250e-01	 1.134059328212202e+00	-1.770569929895003e+01
1	 1.176018665813229e-01	 1.136793338266780e+00	-1.761493871688866e+01
1	 9.377186765109050e-02	 1.139006648600664e+00	-1.750009481484734e+01
1	 7.008296121854513e-02	 1.140709305690971e+00	-1.736131344744282e+01
1	 4.654919756532504e-02	 1.141911797900406e+00	-1.719883487741632e+01
1	 2.318396831066902e-02	 1.142625013377961e+00	-1.701298938710580e+01
1	 0.000000000000000e+00	 1.142860198460186e+00	-1.680419254583072e+01
1	 2.413108035985782e-01	 1.131704252046085e+00	-1.781525104503679e+01
1	 2.167045739068282e-01	 1.136672537650634e+00	-1.782960642654364e+01
1	 1.921604976561824e-01	 1.141078259721515e+00	-1.781983233889522e+01
1	 1.676959356502720e-01	 1.144929371509319e+00	-1.778553474805225e+01
1	 1.433276585053855e-01	 1.148234445072978e+00	-1.772643149204098e+01
1	 1.190718251251994e-01	 1.151002628747150e+00	-1.764235054947319e+01
1	 9.494396433618364e-02	 1.153243604240947e+00	-1.753322766592909e+01
1	 7.095895962352035e-02	 1.154967543606920e+00	-1.739910339120760e+01
1	 4.713103688965951e-02	 1.156185066306537e+00	-1.724011958292053e+01
1	 2.347375514173319e-02	 1.156907196584657e+00	-1.705651543355817e+01
1	 0.000000000000000e+00	 1.157145321350848e+00	-1.684862307901459e+01
1	 2.442898165186467e-01	 1.145675286662146e+00	-1.779693452735847e+01
1	 2.193798197548161e-01	 1.150704906391885e+00	-1.782029052083336e+01
1	 1.945327437243048e-01	 1.155165017668707e+00	-1.781910694790119e+01
1	 1.697661635521415e-01	 1.159063671927113e+00	-1.779287022816082e+01
1	 1.450970568900728e-01	 1.162409547049214e+00	-1.774118261658725e+01
1	 1.205417821255609e-01	 1.165211904307037e+00	-1.766376117177376e+01
1	 9.611605979047631e-02	 1.167480544931648e+00	-1.756043601165127e+01
1	 7.183495710857847e-02	 1.169225766550903e+00	-1.743114790842072e+01
1	 4.771287560295031e-02	 1.170458319724889e+00	-1.727594527771762e+01
1	 2.376354166844671e-02	 1.171189364794196e+00	-1.709498061943751e+01
1	 0.000000000000000e+00	 1.171430429241259e+00	-1.688850646921195e+01
1	 2.472688266585503e-01	 1.159646308238343e+00	-1.777292614288538e+01
1	 2.220550631061160e-01	 1.164737262035951e+00	-1.780495182769119e+01
1	 1.969049875784914e-01	 1.169251762467882e+00	-1.781209541268806e+01
1	 1.718363895219076e-01	 1.173197959152453e+00	-1.779373117136297e+01
1	 1.468664536233803e-01	 1.176584635794853e+00	-1.774935267097360e+01
1	 1.220117377539760e-01	 1.179421166604382e+00	-1.767857242283434e+01
1	 9.728815415079008e-02	 1.181717472333943e+00	-1.758112075396228e+01
1	 7.271095377599250e-02	 1.183483976186580e+00	-1.745684395041250e+01
1	 4.829471377313882e-02	 1.184731559820883e+00	-1.730570172669826e+01
1	 2.405332792465427e-02	 1.185471519673041e+00	-1.712776407883188e+01
1	 0.000000000000000e+00	 1.185715523798227e+00	-1.692320758075959e+01
1	 2.502478343658426e-01	 1.173617318404765e+00	-1.774262591847080e+01
1	 2.247303042728567e-01	 1.178769606220092e+00	-1.778300022145717e+01
1	 1.992772294955377e-01	 1.183338495762656e+00	-1.779821582741166e+01
1	 1.739066138011467e-01	 1.187332234834512e+00	-1.778754199263600e+01
1	 1.486358489118018e-01	 1.190759712963842e+00	-1.775037023151287e+01
1	 1.234816921820129e-01	 1.193630417297124e+00	-1.768621463179707e+01
1	 9.846024755394656e-02	 1.195954388109006e+00	-1.759471132932140e+01
1	 7.358694972803545e-02	 1.197742174177615e+00	-1.747561719090714e+01
1	 4.887655146816643e-02	 1.199004788259937e+00	-1.732880775908744e+01
1	 2.434311394420056e-02	 1.199753662887651e+00	-1.715427451609246e+01
1	 0.000000000000000e+00	 1.200000606688556e+00	-1.695212152744164e+01
1	 2.532268399880767e-01	 1.187588318791500e+00	-1.770546212223299e+01
1	 2.274055435671674e-01	 1.192801940581567e+00	-1.775387335428593e+01
1	 2.016494697522397e-01	 1.197425219196647e+00	-1.777691367715334e+01
1	 1.759768366314353e-01	 1.201466500622466e+00	-1.777375420032206e+01
1	 1.504052429618307e-01	 1.204934780210126e+00	-1.774369077191000e+01
1	 1.249516455812398e-01	 1.207839658043205e+00	-1.768614494252988e+01
1	 9.963234013676746e-02	 1.210191293918011e+00	-1.760066403070694e+01
1	 7.446294506698030e-02	 1.212000362187670e+00	-1.748692033696894e+01
1	 4.945838875597452e-02	 1.213278006707471e+00	-1.734470955926203e+01
1	 2.463289976093031e-02	 1.214035796104490e+00	-1.717394846687244e+01
1	 0.000000000000000e+00	 1.214285679579051e+00	-1.697467189355469e+01
1	 2.562058438728059e-01	 1.201559311028636e+00	-1.766088962212891e+01
1	 2.300807813011770e-01	 1.206834266757633e+00	-1.771703504167458e+01
1	 2.040217086253929e-01	 1.211511934413471e+00	-1.774766024594755e+01
1	 1.780470582543499e-01	 1.215600758165490e+00	-1.775184482145944e+01
1	 1.521746359799605e-01	 1.219109839187650e+00	-1.772879509998677e+01
1	 1.264215981232255e-01	 1.222048890500565e+00	-1.767784575515349e+01
1	 1.008044320360744e-01	 1.224428191422134e+00	-1.759846044670758e+01
1	 7.533893989510013e-02	 1.226258541880407e+00	-1.749023155780252e+01
1	 5.004022570450450e-02	 1.227551216828906e+00	-1.735287907682734e+01
1	 2.492268540868820e-02	 1.228317920990019e+00	-1.718624868050316e+01
1	 0.000000000000000e+00	 1.228570744136519e+00	-1.699030907909931e+01
1	 2.591848463675838e-01	 1.215530296746261e+00	-1.760838835774295e+01
1	 2.327560177870145e-01	 1.220866586385550e+00	-1.767197375934641e+01
1	 2.063939463917933e-01	 1.225598643056747e+00	-1.770995113461324e+01
1	 1.801172789114668e-01	 1.229735009112759e+00	-1.772131493572365e+01
1	 1.539440281726846e-01	 1.233284891550360e+00	-1.770518790223111e+01
1	 1.278915499795380e-01	 1.236258116327144e+00	-1.766082327506341e+01
1	 1.019765233886890e-01	 1.238665082282548e+00	-1.758760600827473e+01
1	 7.621493431466794e-02	 1.240516714919491e+00	-1.748505302192512e+01
1	 5.062206238169776e-02	 1.241824420289660e+00	-1.735281254635695e+01
1	 2.521247092131893e-02	 1.242600039210701e+00	-1.719066261394343e+01
1	 0.000000000000000e+00	 1.242855802027764e+00	-1.699850875910982e+01
1	 2.621638478199633e-01	 1.229501277574464e+00	-1.754746191628391e+01
1	 2.354312533368090e-01	 1.234898901102576e+00	-1.761820124263133e+01
1	 2.087661833282362e-01	 1.239685346770091e+00	-1.766330487965404e+01
1	 1.821874988443625e-01	 1.243869255113449e+00	-1.768168830933894e+01
1	 1.557134197464966e-01	 1.247459938952200e+00	-1.767239638759345e+01
1	 1.293615013217458e-01	 1.250467337180882e+00	-1.763460616089205e+01
1	 1.031486143314329e-01	 1.252901968160429e+00	-1.756762863457189e+01
1	 7.709092842795674e-02	 1.254774882968582e+00	-1.747090953408852e+01
1	 5.120389885549568e-02	 1.256097618755154e+00	-1.734402910807085e+01
1	 2.550225633266721e-02	 1.256882152432997e+00	-1.718670102842681e+01
1	 0.000000000000000e+00	 1.257140854919592e+00	-1.699877044804169e+01
1	 2.651428485774981e-01	 1.243472255143333e+00	-1.747763620459362e+01
1	 2.381064882626895e-01	 1.248931212545972e+00	-1.755525118028149e+01
1	 2.111384197115176e-01	 1.253772047197120e+00	-1.760726166527748e+01
1	 1.842577182946136e-01	 1.258003497816736e+00	-1.763251012109654e+01
1	 1.574828109078901e-01	 1.261634983047117e+00	-1.762996902272267e+01
1	 1.308314523214175e-01	 1.264676554719722e+00	-1.759874426363128e+01
1	 1.043207050011277e-01	 1.267138850716951e+00	-1.753807747012527e+01
1	 7.796692233723956e-02	 1.269033047691344e+00	-1.744734726410334e+01
1	 5.178573519383965e-02	 1.270370813890807e+00	-1.732606952151176e+01
1	 2.579204167657773e-02	 1.271164262323368e+00	-1.717389668072659e+01
1	 0.000000000000000e+00	 1.271425904478810e+00	-1.699061616095328e+01
1	 2.681218489877413e-01	 1.257443231082956e+00	-1.739845820969775e+01
1	 2.407817228767851e-01	 1.262963522352994e+00	-1.748267799537518e+01
1	 2.135106558184331e-01	 1.267858745981453e+00	-1.754138212128829e+01
1	 1.863279375037964e-01	 1.272137738871794e+00	-1.757334577331395e+01
1	 1.592522018633585e-01	 1.275810025489055e+00	-1.757747435152942e+01
1	 1.323014031501211e-01	 1.278885770601601e+00	-1.755280744982188e+01
1	 1.054927955345951e-01	 1.281375731613288e+00	-1.749852170617383e+01
1	 7.884291614478943e-02	 1.283291210751440e+00	-1.741393256041989e+01
1	 5.236757146467105e-02	 1.284644007362039e+00	-1.729849496498712e+01
1	 2.608182698689521e-02	 1.285446370548278e+00	-1.715180310168067e+01
1	 0.000000000000000e+00	 1.285710952372222e+00	-1.697358916395190e+01
1	 1.285710952372222e+00	 0.000000000000000e+00	 1.185592544163807e+01
1	 1.285446370548278e+00	 2.608182698689557e-02	 1.131225502451973e+01
1	 1.284644007362039e+00	 5.236757146467139e-02	 1.076822117930917e+01
1	 1.283291210751439e+00	 7.884291614478972e-02	 1.022447964426416e+01
1	 1.281375731613288e+00	 1.054927955345953e-01	 9.681757190042308e+00
1	 1.278885770601601e+00	 1.323014031501213e-01	 9.140851822270573e+00
1	 1.275810025489054e+00	 1.592522018633586e-01	 8.602632450141513e+00
1	 1.272137738871795e+00	 1.863279375037966e-01	 8.068037983667129e+00
1	 1.267858745981453e+00	 2.135106558184332e-01	 7.538075825386839e+00
1	 1.262963522352994e+00	 2.407817228767851e-01	 7.013819726205265e+00
1	 1.257443231082956e+00	 2.681218489877413e-01	 6.496406979635211e+00
1	 1.299996999436575e+00	 0.000000000000000e+00	 1.145053144879051e+01
1	 1.299729477738514e+00	 2.637163256653116e-02	 1.091373660832556e+01
1	 1.298918199175054e+00	 5.294944843254041e-02	 1.037729804612268e+01
1	 1.297550371102010e+00	 7.971897122437951e-02	 9.841910660255303e+00
1	 1.295613608311512e+00	 1.066649680506882e-01	 9.308333579932926e+00
1	 1.293095980350323e+00	 1.337714567953443e-01	 8.777389787567502e+00
1	 1.289986059407558e+00	 1.610217165797057e-01	 8.249965223203654e+00
1	 1.286272968549540e+00	 1.883983015152832e-01	 7.727007339890212e+00
1	 1.281946430063098e+00	 2.158830578522009e-01	 7.209523081948916e+00
1	 1.276996813653051e+00	 2.434571446109328e-01	 6.698576262127760e+00
1	 1.271415184225567e+00	 2.711010577649079e-01	 6.195284318308971e+00
1	 1.314283043168385e+00	 0.000000000000000e+00	 1.105928019456695e+01
1	 1.314012581596891e+00	 2.666143807874816e-02	 1.052953632350447e+01
1	 1.313192387658288e+00	 5.353132526498397e-02	 1.000081388897186e+01
1	 1.311809528126306e+00	 8.059502609999267e-02	 9.473846464556123e+00
1	 1.309851481688423e+00	 1.078371402937551e-01	 8.949425210779975e+00
1	 1.307306186784182e+00	 1.352415100980420e-01	 8.428397920934911e+00
1	 1.304162090019159e+00	 1.627912308836290e-01	 7.911667564802979e+00
1	 1.300408194929890e+00	 1.904686650441013e-01	 7.400190304723042e+00
1	 1.296034110858418e+00	 2.182554593327631e-01	 6.894972962052300e+00
1	 1.291030101679448e+00	 2.461325657211033e-01	 6.397069916263622e+00
1	 1.285387134108794e+00	 2.740802658471492e-01	 5.907579423691505e+00
1	 1.328569080234105e+00	 0.000000000000000e+00	 1.068142551378841e+01
1	 1.328295678790551e+00	 2.695124345587626e-02	 1.015889574042065e+01
1	 1.327466569480965e+00	 5.411320182614768e-02	 9.637999635660599e+00
1	 1.326068678497057e+00	 8.147108056711237e-02	 9.119508959512622e+00
1	 1.324089348421717e+00	 1.090093119901755e-01	 8.604246566359512e+00
1	 1.321516386587330e+00	 1.367115627150887e-01	 8.093084878617846e+00
1	 1.318338114015990e+00	 1.645607443621364e-01	 7.586943873015571e+00
1	 1.314543414714499e+00	 1.925390276070737e-01	 7.086788559758637e+00
1	 1.310121785080170e+00	 2.206278597064844e-01	 6.593625938671376e+00
1	 1.305063383157637e+00	 2.488079855829751e-01	 6.108501420747926e+00
1	 1.299359077472413e+00	 2.770594725392778e-01	 5.632494708421253e+00
1	 1.342855107300192e+00	 0.000000000000000e+00	 1.031625298535426e+01
1	 1.342578765986636e+00	 2.724104863024519e-02	 9.801088695552576e+00
1	 1.341740741312307e+00	 5.469507798017722e-02	 9.288118933127512e+00
1	 1.340327818886993e+00	 8.234713442122177e-02	 8.778153150816774e+00
1	 1.338327205189094e+00	 1.101814828663293e-01	 8.272045549632011e+00
1	 1.335726576443923e+00	 1.381816143033586e-01	 7.770692984187894e+00
1	 1.332514128090181e+00	 1.663302566022357e-01	 7.275032394613834e+00
1	 1.328678624605023e+00	 1.946093887210235e-01	 6.786037751062908e+00
1	 1.324209449441108e+00	 2.230002584197293e-01	 6.304716500877156e+00
1	 1.319096654813073e+00	 2.514834035722265e-01	 5.832105512989969e+00
1	 1.313331011056197e+00	 2.800386771461065e-01	 5.369266519119027e+00
1	 1.357141121033102e+00	 0.000000000000000e+00	 9.963078261523876e+00
1	 1.356861839852286e+00	 2.753085353418463e-02	 9.455419593304008e+00
1	 1.356014899821536e+00	 5.527695359121823e-02	 8.950466425417467e+00
1	 1.354586945968846e+00	 8.322318745780412e-02	 8.449065405258688e+00
1	 1.352565048668249e+00	 1.113536526485962e-01	 7.952101723872636e+00
1	 1.349936753038114e+00	 1.396516645197259e-01	 7.460496456613106e+00
1	 1.346690128933866e+00	 1.680997671909346e-01	 6.975203443589181e+00
1	 1.342813821303118e+00	 1.966797479027739e-01	 6.497205701601173e+00
1	 1.338297100653986e+00	 2.253726549188626e-01	 6.027511363542887e+00
1	 1.333129913371210e+00	 2.541588190645365e-01	 5.567149145943469e+00
1	 1.327302931599920e+00	 2.830178789724484e-01	 5.117163350404306e+00
1	 1.371427118099289e+00	 0.000000000000000e+00	 9.621245501589849e+00
1	 1.371144897054645e+00	 2.782065810002433e-02	 9.121221813923103e+00
1	 1.370289041677873e+00	 5.585882852341631e-02	 8.624366139250720e+00
1	 1.368846056415343e+00	 8.409923947234267e-02	 8.131561817339815e+00
1	 1.366802875536880e+00	 1.125258210633557e-01	 7.643724663700990e+00
1	 1.364146913054058e+00	 1.411217130210649e-01	 7.161799749043535e+00
1	 1.360866113239175e+00	 1.698692757152409e-01	 6.686757730986886e+00
1	 1.356949001510443e+00	 1.987501046691477e-01	 6.219590735357687e+00
1	 1.352384735431563e+00	 2.277450486502488e-01	 5.761307788912763e+00
1	 1.347163155557500e+00	 2.568342314355833e-01	 5.312929810204595e+00
1	 1.341274835843357e+00	 2.859970773231161e-01	 4.875484170505159e+00
1	 1.385713095165209e+00	 0.000000000000000e+00	 9.290125902411313e+00
1	 1.385427934260852e+00	 2.811046226009398e-02	 8.797856219874163e+00
1	 1.384563163550541e+00	 5.644070264091715e-02	 8.309169969426867e+00
1	 1.383105146899215e+00	 8.497529026032054e-02	 7.824986676893226e+00
1	 1.381040682472682e+00	 1.136979878369877e-01	 7.346252408081632e+00
1	 1.378357053175909e+00	 1.425917594642498e-01	 6.873935990324616e+00
1	 1.375042077698239e+00	 1.716387817621623e-01	 6.409024798022291e+00
1	 1.371084161928650e+00	 2.008204585369682e-01	 5.952520105090135e+00
1	 1.366472350486590e+00	 2.301174390602525e-01	 5.505432011963182e+00
1	 1.361196378097397e+00	 2.595096400610455e-01	 5.068773959869814e+00
1	 1.355246720526281e+00	 2.889762715029223e-01	 4.643556850411017e+00
1	 1.399999048897318e+00	 0.000000000000000e+00	 8.969116318890674e+00
1	 1.399710948138050e+00	 2.840026594672332e-02	 8.484709753631833e+00
1	 1.398837262108762e+00	 5.702257580786636e-02	 8.004256256934532e+00
1	 1.397364214093191e+00	 8.585133961722100e-02	 7.528711030498119e+00
1	 1.395278466153354e+00	 1.148701526958717e-01	 7.059050008013711e+00
1	 1.392567170087822e+00	 1.440618035061548e-01	 6.596265521902896e+00
1	 1.389218019003189e+00	 1.734082849187067e-01	 6.141361545103329e+00
1	 1.385219299259398e+00	 2.028908090230583e-01	 5.695348516318418e+00
1	 1.380559942531825e+00	 2.324898255952382e-01	 5.259237762144959e+00
1	 1.375229577716355e+00	 2.621850443166021e-01	 4.834035534744271e+00
1	 1.369218582388467e+00	 2.919554608166800e-01	 4.420736689174124e+00
1	 1.414284975962072e+00	 0.000000000000000e+00	 8.657637968035816e+00
1	 1.413993935353380e+00	 2.869006909224202e-02	 8.181194120434952e+00
1	 1.413111334021757e+00	 5.760444788840961e-02	 7.709028453213552e+00
1	 1.411623254670002e+00	 8.672738733852720e-02	 7.242131330058411e+00
1	 1.409516223256593e+00	 1.160423153663875e-01	 6.781508162216237e+00
1	 1.406777260473951e+00	 1.455318448036542e-01	 6.328174523380684e+00
1	 1.403393933846157e+00	 1.751777847718817e-01	 5.883150849979643e+00
1	 1.399354410204343e+00	 2.049611556442411e-01	 5.447456740745136e+00
1	 1.394647508280022e+00	 2.348622077015706e-01	 5.022104874693269e+00
1	 1.389262751139827e+00	 2.648604435779312e-01	 4.608094572089659e+00
1	 1.383190418169687e+00	 2.949346445692019e-01	 4.206405028563204e+00
1	 1.428570873025926e+00	 0.000000000000000e+00	 8.355135210758290e+00
1	 1.428276892573984e+00	 2.897987162897983e-02	 7.886744550054664e+00
1	 1.427385375958749e+00	 5.818631874669251e-02	 7.422913864540567e+00
1	 1.425882265302377e+00	 8.760343321972237e-02	 6.964668162445398e+00
1	 1.423753950460095e+00	 1.172144755749147e-01	 6.513041934650904e+00
1	 1.420987321018450e+00	 1.470018830136220e-01	 6.069073720515983e+00
1	 1.417569818919275e+00	 1.769472809086952e-01	 5.633800268781172e+00
1	 1.413489491465139e+00	 2.070314979173397e-01	 5.208250312849227e+00
1	 1.408735044443936e+00	 2.372345848256141e-01	 4.793437985237307e+00
1	 1.403295895093266e+00	 2.675358372207115e-01	 4.390355901645593e+00
1	 1.397162224609719e+00	 2.979138220653008e-01	 3.999967950816239e+00
1	 1.257443231082956e+00	 2.681218489877413e-01	 6.496406979635212e+00
1	 1.251290222528759e+00	 2.955092025760216e-01	 5.978179361639552e+00
1	 1.244496810941490e+00	 3.229252091875747e-01	 5.451357864416408e+00
1	 1.237056498645061e+00	 3.503488267225385e-01	 4.917074471127256e+00
1	 1.228963654185617e+00	 3.777584904297682e-01	 4.376487493853093e+00
1	 1.220213553110794e+00	 4.051321545099082e-01	 3.830776917699373e+00
1	 1.210802416556687e+00	 4.324473371061250e-01	 3.281139441643392e+00
1	 1.200727447337036e+00	 4.596811685659496e-01	 2.728783243433451e+00
1	 1.189986863234135e+00	 4.868104428277399e-01	 2.174922500006346e+00
1	 1.178579927199173e+00	 5.138116717552889e-01	 1.620771698867289e+00
1	 1.166506974181152e+00	 5.406611422144046e-01	 1.067539779602426e+00
1	 1.271415184225567e+00	 2.711010577649079e-01	 6.195284318308972e+00
1	 1.265193807139827e+00	 2.987927231594999e-01	 5.691817669566152e+00
1	 1.258324911247501e+00	 3.265133599524971e-01	 5.180231298428479e+00
1	 1.250801926674242e+00	 3.542416922368836e-01	 4.661628822928267e+00
1	 1.242619159392876e+00	 3.819559156469745e-01	 4.137132291771503e+00
1	 1.233771832455774e+00	 4.096337394237550e-01	 3.607877370843302e+00
1	 1.224256125010580e+00	 4.372524319055254e-01	 3.075008279305229e+00
1	 1.214069208790389e+00	 4.647888693259974e-01	 2.539672506329965e+00
1	 1.203209281774577e+00	 4.922195877717347e-01	 2.003015343257522e+00
1	 1.191675598724702e+00	 5.195208381204919e-01	 1.466174269446469e+00
1	 1.179468498311525e+00	 5.466686437519975e-01	 9.302732332653416e-01
1	 1.285387134108794e+00	 2.740802658471492e-01	 5.907579423691505e+00
1	 1.279097388507421e+00	 3.020762429769924e-01	 5.418509643652888e+00
1	 1.272153008327603e+00	 3.301015098803087e-01	 4.921757144833913e+00
1	 1.264547351496750e+00	 3.581345568429810e-01	 4.418396245307885e+00
1	 1.256274661414386e+00	 3.861533398848383e-01	 3.909512413220936e+00
1	 1.247330108637632e+00	 4.141353232872624e-01	 3.396197324608125e+00
1	 1.237709830325688e+00	 4.420575255837422e-01	 2.879543720091158e+00
1	 1.227410967131020e+00	 4.698965688942291e-01	 2.360640094828924e+00
1	 1.216431697230087e+00	 4.976287314535489e-01	 1.840565259433853e+00
1	 1.204771267194819e+00	 5.252300031534775e-01	 1.320382812596828e+00
1	 1.192430019417744e+00	 5.526761438877230e-01	 8.011355688156461e-01
1	 1.299359077472413e+00	 2.770594725392778e-01	 5.632494708421253e+00
1	 1.293000963387279e+00	 3.053597612623208e-01	 5.157461961927818e+00
1	 1.285981098955156e+00	 3.336896581337637e-01	 4.675150157197133e+00
1	 1.278292769905249e+00	 3.620274196324957e-01	 4.186603407718835e+00
1	 1.269930157063807e+00	 3.903507621639695e-01	 3.692870299414187e+00
1	 1.260888378492727e+00	 4.186369050500763e-01	 3.194998848093036e+00
1	 1.251163529362787e+00	 4.468626170196096e-01	 2.694031301590525e+00
1	 1.240752719245839e+00	 4.750042660788752e-01	 2.190998823877040e+00
1	 1.229654106515436e+00	 5.030378726110815e-01	 1.686916101401542e+00
1	 1.217866929553885e+00	 5.309391655221452e-01	 1.182775914526361e+00
1	 1.205391534475478e+00	 5.586836412198746e-01	 6.795437190782120e-01
1	 1.313331011056197e+00	 2.800386771461065e-01	 5.369266519119027e+00
1	 1.306904528535139e+00	 3.086432772493075e-01	 4.907915055125188e+00
1	 1.299809179903525e+00	 3.372778038756168e-01	 4.439658498385057e+00
1	 1.292038178692406e+00	 3.659202796970923e-01	 3.965509882097343e+00
1	 1.283585643154801e+00	 3.945481815049779e-01	 3.486480623150884e+00
1	 1.274446638857422e+00	 4.231384836618436e-01	 3.003575406997492e+00
1	 1.264617218982655e+00	 4.516677050919606e-01	 2.517786959576016e+00
1	 1.254094462021758e+00	 4.801119596881671e-01	 2.030090746107255e+00
1	 1.242876506545394e+00	 5.084470099822318e-01	 1.541439639191701e+00
1	 1.230962582746256e+00	 5.366483238943943e-01	 1.052758600835082e+00
1	 1.218353040460395e+00	 5.646911343467459e-01	 5.649394247426093e-01
1	 1.327302931599920e+00	 2.830178789724484e-01	 5.117163350404306e+00
1	 1.320808080706736e+00	 3.119267901717745e-01	 4.669141330235687e+00
1	 1.313637247946070e+00	 3.408659462686223e-01	 4.214561982183940e+00
1	 1.305783574650884e+00	 3.698131361284366e-01	 3.754406411146807e+00
1	 1.297241116501029e+00	 3.987455969284732e-01	 3.289648592403134e+00
1	 1.288004886568078e+00	 4.276400580722102e-01	 2.821250211144482e+00
1	 1.278070896046066e+00	 4.564727886796287e-01	 2.350155428065632e+00
1	 1.267436192345687e+00	 4.852196485303354e-01	 1.877285612969634e+00
1	 1.256098894234734e+00	 5.138561423048991e-01	 1.403534090621898e+00
1	 1.244058223716290e+00	 5.423574769381242e-01	 9.297609449035693e-01
1	 1.231314534348166e+00	 5.706986218666309e-01	 4.567879286110419e-01
1	 1.341274835843357e+00	 2.859970773231161e-01	 4.875484170505158e+00
1	 1.334711616657808e+00	 3.152102992635437e-01	 4.440443505054684e+00
1	 1.327465299856153e+00	 3.444540844755349e-01	 3.999170424785278e+00
1	 1.319528954573350e+00	 3.737059880181925e-01	 3.552613284824378e+00
1	 1.310896573916152e+00	 4.029430074550651e-01	 3.101708359898223e+00
1	 1.301563118461056e+00	 4.321416272308228e-01	 2.647374665255583e+00
1	 1.291524557413797e+00	 4.612778666614478e-01	 2.190508739353799e+00
1	 1.280777907104539e+00	 4.903273314136110e-01	 1.731979432015388e+00
1	 1.269321266498228e+00	 5.192652683169821e-01	 1.272622743729051e+00
1	 1.257153849408346e+00	 5.480666233212343e-01	 8.132367632335660e-01
1	 1.244276013114461e+00	 5.767061023778234e-01	 3.545767514335627e-01
1	 1.355246720526281e+00	 2.889762715029223e-01	 4.643556850411017e+00
1	 1.348615133144092e+00	 3.184938037584375e-01	 4.221153045720496e+00
1	 1.341293332407137e+00	 3.480422176591090e-01	 3.792822098214371e+00
1	 1.333274315252469e+00	 3.775988344580257e-01	 3.359478817224082e+00
1	 1.324552012213832e+00	 4.071404121053632e-01	 2.922021531051343e+00
1	 1.315121331372720e+00	 4.366431900873275e-01	 2.481326915528678e+00
1	 1.304978199946625e+00	 4.660829379162514e-01	 2.038244816798960e+00
1	 1.294119603185224e+00	 4.954350071462250e-01	 1.593593113397089e+00
1	 1.282543620250645e+00	 5.246743867563800e-01	 1.148152664389666e+00
1	 1.270249456766781e+00	 5.537757617116242e-01	 7.026623914677557e-01
1	 1.257237473734949e+00	 5.827135744786170e-01	 2.578145434445872e-01
1	 1.369218582388467e+00	 2.919554608166800e-01	 4.420736689174122e+00
1	 1.362518626921326e+00	 3.217773028902779e-01	 4.010628699888110e+00
1	 1.355121342372383e+00	 3.516303449820993e-01	 3.594882278421773e+00
1	 1.347019653480905e+00	 3.814916745396009e-01	 3.174377916687263e+00
1	 1.338207428207729e+00	 4.113378098999778e-01	 2.749975763224993e+00
1	 1.328679522139431e+00	 4.411447455913710e-01	 2.322510485177014e+00
1	 1.318431820505326e+00	 4.708880013228729e-01	 1.892786153744305e+00
1	 1.307461277474655e+00	 5.005426745364082e-01	 1.461571199214301e+00
1	 1.295765952406758e+00	 5.300834963609923e-01	 1.029593483044402e+00
1	 1.283345042735955e+00	 5.594848907771932e-01	 5.975355353268711e-01
1	 1.270198913185301e+00	 5.887210367673057e-01	 1.660300061946750e-01
1	 1.383190418169687e+00	 2.949346445692019e-01	 4.206405028563204e+00
1	 1.376422094745246e+00	 3.250607958928871e-01	 3.808255118778133e+00
1	 1.368949326525253e+00	 3.552184656072601e-01	 3.404741881345987e+00
1	 1.360764966051325e+00	 3.853845073545832e-01	 2.996710742550139e+00
1	 1.351862818711506e+00	 4.155351998595181e-01	 2.584983449859502e+00
1	 1.342237687597551e+00	 4.456462926925998e-01	 2.170352992641163e+00
1	 1.331885415950674e+00	 4.756930557601458e-01	 1.753578572482767e+00
1	 1.320802926859741e+00	 5.056503323923917e-01	 1.335380669848209e+00
1	 1.308988259881339e+00	 5.354925958687178e-01	 9.164362549351550e-01
1	 1.296440604260223e+00	 5.651940091858410e-01	 4.973741911688753e-01
1	 1.283160328441186e+00	 5.947284878421828e-01	 7.877087970886082e-02
1	 1.397162224609719e+00	 2.979138220653008e-01	 3.999967950816239e+00
1	 1.390325533371589e+00	 3.283442820000868e-01	 3.613441561881250e+00
1	 1.382777281639109e+00	 3.588065786973459e-01	 3.221816180791181e+00
1	 1.374510249756393e+00	 3.892773319946374e-01	 2.825901442465594e+00
1	 1.365518180538822e+00	 4.197325810045940e-01	 2.426480483535149e+00
1	 1.355795824583439e+00	 4.501478303406597e-01	 2.024304946688207e+00
1	 1.345338983143448e+00	 4.804981001069037e-01	 1.620090057664774e+00
1	 1.334144548227396e+00	 5.107579795224063e-01	 1.214509821897566e+00
1	 1.322210539589158e+00	 5.409016840174555e-01	 8.081923887100843e-01
1	 1.309536138283946e+00	 5.709031156054665e-01	 4.017156312976801e-01
1	 1.296121716478273e+00	 6.007359263015425e-01	-4.397009600523583e-03
1	 1.166506974181152e+00	 5.406611422144046e-01	 1.067539779602426e+00
1	 1.153768520657062e+00	 5.673368349888009e-01	 5.093737921308495e-01
1	 1.140367939824356e+00	 5.938128716115278e-01	-5.928423831418916e-02
1	 1.126308914352119e+00	 6.200652176363033e-01	-6.369034896397084e-01
1	 1.111596267876887e+00	 6.460698641649667e-01	-1.221953880683778e+00
1	 1.096235971370482e+00	 6.718028946141243e-01	-1.812912294038310e+00
1	 1.080235144867935e+00	 6.972405524292983e-01	-2.408268779641638e+00
1	 1.063602054441766e+00	 7.223593093729551e-01	-3.006532689042851e+00
1	 1.046346104343134e+00	 7.471359339991690e-01	-3.606238690223271e+00
1	 1.028477824266305e+00	 7.715475599175938e-01	-4.205952613490240e+00
1	 1.010008851730144e+00	 7.955717534430776e-01	-4.804277080243970e+00
1	 1.179468498311525e+00	 5.466686437519975e-01	 9.302732332653422e-01
1	 1.166588502750832e+00	 5.736407407856797e-01	 3.893678881115251e-01
1	 1.153039022721013e+00	 6.004109632086184e-01	-1.621759882816639e-01
1	 1.138823781810755e+00	 6.269550095182069e-01	-7.228935568207675e-01
1	 1.123947657253940e+00	 6.532486040438356e-01	-1.291322505055615e+00
1	 1.108416686368234e+00	 6.792675644554069e-01	-1.866009018385162e+00
1	 1.092238068302214e+00	 7.049878702298854e-01	-2.445513713674350e+00
1	 1.075420160976023e+00	 7.303857316980992e-01	-3.028417486790802e+00
1	 1.057972473135199e+00	 7.554376592802553e-01	-3.613327225783248e+00
1	 1.039905651473637e+00	 7.801205325084171e-01	-4.198881342271174e+00
1	 1.021231462819311e+00	 8.044116684278025e-01	-4.783755075095710e+00
1	 1.192430019417744e+00	 5.526761438877230e-01	 8.011355688156451e-01
1	 1.179408481853434e+00	 5.799446451114831e-01	 2.768037180622204e-01
1	 1.165710102661214e+00	 6.070090532659372e-01	-2.583082199052225e-01
1	 1.151338646349358e+00	 6.338447997922180e-01	-8.027983521464981e-01
1	 1.136299043749081e+00	 6.604273422473320e-01	-1.355268850908946e+00
1	 1.120597398523876e+00	 6.867322325545433e-01	-1.914331683341739e+00
1	 1.104240988935844e+00	 7.127351862223222e-01	-2.478614287421474e+00
1	 1.087238264752729e+00	 7.384121521499232e-01	-3.046765147165623e+00
1	 1.069598839214424e+00	 7.637393826237479e-01	-3.617459220629641e+00
1	 1.051333476014421e+00	 7.886935030983319e-01	-4.189403175221931e+00
1	 1.032454071289771e+00	 8.132515813493250e-01	-4.761340386521593e+00
1	 1.205391534475478e+00	 5.586836412198746e-01	 6.795437190782114e-01
1	 1.192228454973575e+00	 5.862485464953506e-01	 1.711388592944034e-01
1	 1.178381176688414e+00	 6.136071402439868e-01	-3.481817010065384e-01
1	 1.163853505047840e+00	 6.407345868507840e-01	-8.770760270779695e-01
1	 1.148650424480370e+00	 6.676060771004909e-01	-1.414207546290588e+00
1	 1.132778104995295e+00	 6.941968971698589e-01	-1.958250546341724e+00
1	 1.116243903968200e+00	 7.204824985989908e-01	-2.507895605598585e+00
1	 1.099056363014386e+00	 7.464385688556906e-01	-3.061854910181104e+00
1	 1.081225199868051e+00	 7.720411020926786e-01	-3.618867412992205e+00
1	 1.062761295222229e+00	 7.972664696870837e-01	-4.177703791105054e+00
1	 1.043676674522985e+00	 8.220914901451046e-01	-4.737171159717236e+00
1	 1.218353040460395e+00	 5.646911343467459e-01	 5.649394247426102e-01
1	 1.205048419119958e+00	 5.925524434664220e-01	 7.185396768094282e-02
1	 1.191052241846069e+00	 6.202052226032716e-01	-4.322758931349512e-01
1	 1.176368354986110e+00	 6.476243690863536e-01	-9.461652399968344e-01
1	 1.161001796565867e+00	 6.747848069283466e-01	-1.468535577946003e+00
1	 1.144958802940378e+00	 7.016615565596794e-01	-1.998120111331347e+00
1	 1.128246810598658e+00	 7.282298055522725e-01	-2.533668940510879e+00
1	 1.110874453003497e+00	 7.544649799426657e-01	-3.073954134794470e+00
1	 1.092851552383325e+00	 7.803428157500798e-01	-3.617774638483763e+00
1	 1.074189106430633e+00	 8.058394302744172e-01	-4.163960968210459e+00
1	 1.054899269900412e+00	 8.309313927526036e-01	-4.711379661693745e+00
1	 1.231314534348166e+00	 5.706986218666309e-01	 4.567879286110418e-01
1	 1.217868371301289e+00	 5.988563345538357e-01	-2.154843709017540e-02
1	 1.203723295177632e+00	 6.268032988042951e-01	-5.110500730449548e-01
1	 1.188883193244080e+00	 6.545141448913745e-01	-1.010486182260485e+00
1	 1.173353157123633e+00	 6.819635300559350e-01	-1.518633219920189e+00
1	 1.157139489517013e+00	 7.091262089823308e-01	-2.034279958017928e+00
1	 1.140249706026590e+00	 7.359771052745493e-01	-2.556232460197587e+00
1	 1.122692531962562e+00	 7.624913835381123e-01	-3.083318924350971e+00
1	 1.104477894047487e+00	 7.886445216589838e-01	-3.614394351418227e+00
1	 1.085616906973206e+00	 8.144123828600778e-01	-4.148345000296045e+00
1	 1.066121854803511e+00	 8.397712871092807e-01	-4.684092590778684e+00
1	 1.244276013114461e+00	 5.767061023778234e-01	 3.545767514335622e-01
1	 1.230688308526272e+00	 6.051602182867322e-01	-1.095451103611124e-01
1	 1.216394333726560e+00	 6.334013673075607e-01	-5.849443841004927e-01
1	 1.201398016901661e+00	 6.614039126582948e-01	-1.070441540145820e+00
1	 1.185704503271726e+00	 6.891422448082904e-01	-1.564864904136324e+00
1	 1.169320161883087e+00	 7.165908526961383e-01	-2.067055519304471e+00
1	 1.152252587451375e+00	 7.437243959582033e-01	-2.575871911079231e+00
1	 1.134510597134084e+00	 7.705177777692943e-01	-3.090194712948844e+00
1	 1.116104222147779e+00	 7.969462178824213e-01	-3.608931113554196e+00
1	 1.097044694183519e+00	 8.229853254438096e-01	-4.131019086539203e+00
1	 1.077344426613743e+00	 8.486111711525988e-01	-4.655431366778663e+00
1	 1.257237473734949e+00	 5.827135744786170e-01	 2.578145434445878e-01
1	 1.243508227803614e+00	 6.114640931942510e-01	-1.925931509243536e-01
1	 1.229065354536308e+00	 6.399994265735724e-01	-6.543808226611103e-01
1	 1.213912823038762e+00	 6.682936707795627e-01	-1.126417397307712e+00
1	 1.198055832128207e+00	 6.963209495104473e-01	-1.607580037139131e+00
1	 1.181500817196487e+00	 7.240554859594283e-01	-2.096758810648383e+00
1	 1.164255452072385e+00	 7.514716757956159e-01	-2.592861258391136e+00
1	 1.146328645760561e+00	 7.785441607634755e-01	-3.094816815544107e+00
1	 1.127730533971447e+00	 8.052479024834258e-01	-3.601581052615814e+00
1	 1.108472465395146e+00	 8.315582560253585e-01	-4.112139697373923e+00
1	 1.088566982712566e+00	 8.574510428200165e-01	-4.625512403198271e+00
1	 1.270198913185301e+00	 5.887210367673057e-01	 1.660300061946755e-01
1	 1.256328126142018e+00	 6.177679578055311e-01	-2.711310040467761e-01
1	 1.241736354650330e+00	 6.465974750628333e-01	-7.197641640935011e-01
1	 1.226427608735296e+00	 6.751834176476261e-01	-1.178784081999205e+00
1	 1.210407140811137e+00	 7.034996424874411e-01	-1.647113766846389e+00
1	 1.193681452615102e+00	 7.315201070305257e-01	-2.123689114777440e+00
1	 1.176258297088996e+00	 7.592189429791690e-01	-2.607463287416802e+00
1	 1.158146675084499e+00	 7.865705306479199e-01	-3.097410944384285e+00
1	 1.139356826805732e+00	 8.135495735250283e-01	-3.592532292748122e+00
1	 1.119900217941657e+00	 8.401311726044689e-01	-4.091856917935755e+00
1	 1.099789520481441e+00	 8.662909000489963e-01	-4.594447362797257e+00
1	 1.283160328441186e+00	 5.947284878421828e-01	 7.877087970886060e-02
1	 1.269148000550189e+00	 6.240718106497122e-01	-3.455794037203516e-01
1	 1.254407331112081e+00	 6.531955112358475e-01	-7.814828326755140e-01
1	 1.238942371071173e+00	 6.820731516549332e-01	-1.227896962958795e+00
1	 1.222758426438575e+00	 7.106783220643063e-01	-1.683787702843164e+00
1	 1.205862065296819e+00	 7.389847141677566e-01	-2.148133624918815e+00
1	 1.188261119700584e+00	 7.669661957012448e-01	-2.619930168292459e+00
1	 1.169964682348398e+00	 7.945968855498918e-01	-3.098193694151412e+00
1	 1.150983097937877e+00	 8.218512290702613e-01	-3.581965358890943e+00
1	 1.131327949156626e+00	 8.487040731808860e-01	-4.070314770697440e+00
1	 1.111012037301826e+00	 8.751307407769980e-01	-4.562343397663224e+00
1	 1.296121716478273e+00	 6.007359263015425e-01	-4.397009600523527e-03
1	 1.281967848036833e+00	 6.303756502559339e-01	-4.163422583924751e-01
1	 1.267078280965017e+00	 6.597935335531179e-01	-8.399097193199265e-01
1	 1.251457107126304e+00	 6.889628711939321e-01	-1.274097197556890e+00
1	 1.235109686128581e+00	 7.178569865660782e-01	-1.717910593469627e+00
1	 1.218042652399525e+00	 7.464493056294462e-01	-2.170368049444231e+00
1	 1.200263917106523e+00	 7.747134321542246e-01	-2.630503986932462e+00
1	 1.181782664794757e+00	 8.026232235966543e-01	-3.097372998004035e+00
1	 1.162609344655126e+00	 8.301528671821563e-01	-3.570053556896817e+00
1	 1.142755656373624e+00	 8.572769557543545e-01	-4.047651518751320e+00
1	 1.122234530555182e+00	 8.839705629414819e-01	-4.529303374883839e+00
1	 1.010008851730144e+00	 7.955717534430776e-01	-4.804277080243970e+00
1	 9.909519067937320e-01	 8.191865824479939e-01	-5.402420648531015e+00
1	 9.713207563652808e-01	 8.423706882231309e-01	-6.001339719365641e+00
1	 9.511301907535311e-01	 8.651033421516505e-01	-6.599299561393106e+00
1	 9.303959900850729e-01	 8.873645046199061e-01	-7.194584747906675e+00
1	 9.091348835661056e-01	 9.091348835661061e-01	-7.785506436907515e+00
1	 8.873645046199057e-01	 9.303959900850729e-01	-8.370409462105481e+00
1	 8.651033421516500e-01	 9.511301907535311e-01	-8.947679178736006e+00
1	 8.423706882231307e-01	 9.713207563652815e-01	-9.515748010743350e+00
1	 8.191865824479935e-01	 9.909519067937324e-01	-1.007310164922142e+01
1	 7.955717534430776e-01	 1.010008851730144e+00	-1.061828485596917e+01
1	 1.021231462819311e+00	 8.044116684278025e-01	-4.783755075095710e+00
1	 1.001962768568945e+00	 8.282888912141637e-01	-5.369146054376825e+00
1	 9.821134886003536e-01	 8.517306048331553e-01	-5.955980062879259e+00
1	 9.616985775632909e-01	 8.747158503440156e-01	-6.542560567690360e+00
1	 9.407339909236229e-01	 8.972243654649650e-01	-7.127203999467183e+00
1	 9.192366437724240e-01	 9.192366437724245e-01	-7.708246998804321e+00
1	 8.972243654649645e-01	 9.407339909236231e-01	-8.284053522213501e+00
1	 8.747158503440153e-01	 9.616985775632912e-01	-8.853021751124153e+00
1	 8.517306048331549e-01	 9.821134886003540e-01	-9.413590749436620e+00
1	 8.282888912141635e-01	 1.001962768568945e+00	-9.964246817973812e+00
1	 8.044116684278024e-01	 1.021231462819310e+00	-1.050352949763151e+01
1	 1.032454071289771e+00	 8.132515813493250e-01	-4.761340386521593e+00
1	 1.012973627774809e+00	 8.373911978559143e-01	-5.334441339831611e+00
1	 9.929062183169185e-01	 8.610905192586760e-01	-5.909588028451003e+00
1	 9.722669619068304e-01	 8.843283562929767e-01	-6.485122574187499e+00
1	 9.510719893496478e-01	 9.070842240089515e-01	-7.059394343840752e+00
1	 9.293384016212816e-01	 9.293384016212820e-01	-7.630767149633066e+00
1	 9.070842240089511e-01	 9.510719893496479e-01	-8.197626353206337e+00
1	 8.843283562929766e-01	 9.722669619068307e-01	-8.758385816285275e+00
1	 8.610905192586757e-01	 9.929062183169186e-01	-9.311494642735212e+00
1	 8.373911978559138e-01	 1.012973627774809e+00	-9.855443659071721e+00
1	 8.132515813493250e-01	 1.032454071289771e+00	-1.038877158347473e+01
1	 1.043676674522985e+00	 8.220914901451046e-01	-4.737171159717236e+00
1	 1.023984481842198e+00	 8.464935002494818e-01	-5.298398580620250e+00
1	 1.003698942996750e+00	 8.704504293158198e-01	-5.862212932331865e+00
1	 9.828353413182764e-01	 8.939408577557190e-01	-6.426995385485618e+00
1	 9.614099829510372e-01	 9.169440779513309e-01	-6.991129246148273e+00
1	 9.394401547556949e-01	 9.394401547556951e-01	-7.553007098366720e+00
1	 9.169440779513307e-01	 9.614099829510375e-01	-8.111037889602493e+00
1	 8.939408577557187e-01	 9.828353413182769e-01	-8.663653902002194e+00
1	 8.704504293158194e-01	 1.003698942996750e+00	-9.209317553634797e+00
1	 8.464935002494810e-01	 1.023984481842198e+00	-9.746527975722161e+00
1	 8.220914901451046e-01	 1.043676674522985e+00	-1.027382731446814e+01
1	 1.054899269900412e+00	 8.309313927526036e-01	-4.711379661693745e+00
1	 1.034995328201983e+00	 8.555957962711013e-01	-5.261105934232678e+00
1	 1.014491660121622e+00	 8.798103328207122e-01	-5.813901991596744e+00
1	 9.934037133317563e-01	 9.035533524894270e-01	-6.368188387824973e+00
1	 9.717479693156805e-01	 9.268039249915691e-01	-6.922383298942510e+00
1	 9.495419008186826e-01	 9.495419008186831e-01	-7.474909595962846e+00
1	 9.268039249915688e-01	 9.717479693156811e-01	-8.024201895546591e+00
1	 9.035533524894268e-01	 9.934037133317566e-01	-8.568713531267161e+00
1	 8.798103328207117e-01	 1.014491660121623e+00	-9.106923389221631e+00
1	 8.555957962711011e-01	 1.034995328201983e+00	-9.637342553234037e+00
1	 8.309313927526035e-01	 1.054899269900412e+00	-1.015852070710360e+01
1	 1.066121854803511e+00	 8.397712871092807e-01	-4.684092590778684e+00
1	 1.046006164285036e+00	 8.646980837970097e-01	-5.222647846263410e+00
1	 1.025284367173309e+00	 8.891702275894792e-01	-5.764700434735069e+00
1	 1.003972075481396e+00	 9.131658382512866e-01	-6.308710571199536e+00
1	 9.820859460314676e-01	 9.366637628291313e-01	-6.853132162950466e+00
1	 9.596436374532621e-01	 9.596436374532625e-01	-7.396419801638804e+00
1	 9.366637628291312e-01	 9.820859460314681e-01	-7.937035763293731e+00
1	 9.131658382512862e-01	 1.003972075481397e+00	-8.473456959397190e+00
1	 8.891702275894789e-01	 1.025284367173310e+00	-9.004181782559208e+00
1	 8.646980837970095e-01	 1.046006164285037e+00	-9.527736791508863e+00
1	 8.397712871092808e-01	 1.066121854803511e+00	-1.004268318199350e+01
1	 1.077344426613743e+00	 8.486111711525988e-01	-4.655431366778663e+00
1	 1.057016987522231e+00	 8.738003607034422e-01	-5.183105243858483e+00
1	 1.036077061633586e+00	 8.985301114382472e-01	-5.714651605331287e+00
1	 1.014540425301325e+00	 9.227783127984828e-01	-6.248570550090053e+00
1	 9.924239106862870e-01	 9.465235891634832e-01	-6.783352511518434e+00
1	 9.697453623024501e-01	 9.697453623024505e-01	-7.317485157502123e+00
1	 9.465235891634829e-01	 9.924239106862874e-01	-7.849460324285169e+00
1	 9.227783127984824e-01	 1.014540425301325e+00	-8.377780927575619e+00
1	 8.985301114382468e-01	 1.036077061633587e+00	-8.900967794451386e+00
1	 8.738003607034417e-01	 1.057016987522231e+00	-9.417566360495151e+00
1	 8.486111711525989e-01	 1.077344426613743e+00	-9.926153178174985e+00
1	 1.088566982712566e+00	 8.574510428200165e-01	-4.625512403198271e+00
1	 1.068027795344438e+00	 8.829026248666350e-01	-5.142555717199801e+00
1	 1.046869740984227e+00	 9.078899821831418e-01	-5.663797059333978e+00
1	 1.025108760325667e+00	 9.323907738882006e-01	-6.187776582914825e+00
1	 1.002761860868029e+00	 9.563834016940903e-01	-6.713021978492813e+00
1	 9.798470730092648e-01	 9.798470730092651e-01	-7.238055270933747e+00
1	 9.563834016940901e-01	 1.002761860868029e+00	-7.761399671907016e+00
1	 9.323907738881999e-01	 1.025108760325668e+00	-8.281586431634018e+00
1	 9.078899821831412e-01	 1.046869740984227e+00	-8.797161633648514e+00
1	 8.829026248666343e-01	 1.068027795344438e+00	-9.306692876948448e+00
1	 8.574510428200167e-01	 1.088566982712566e+00	-9.808775791264795e+00
1	 1.099789520481441e+00	 8.662909000489963e-01	-4.594447362797257e+00
1	 1.079038585182531e+00	 8.920048741628237e-01	-5.101073689880872e+00
1	 1.057662402707005e+00	 9.172498376402886e-01	-5.612176656371275e+00
1	 1.035677078088552e+00	 9.420032192776239e-01	-6.126336590290057e+00
1	 1.013099794164582e+00	 9.662431981204184e-01	-6.642119109290507e+00
1	 9.899487672167233e-01	 9.899487672167239e-01	-7.158081804170392e+00
1	 9.662431981204176e-01	 1.013099794164582e+00	-7.672780995097146e+00
1	 9.420032192776238e-01	 1.035677078088552e+00	-8.184778504986715e+00
1	 9.172498376402882e-01	 1.057662402707005e+00	-8.692648394178811e+00
1	 8.920048741628231e-01	 1.079038585182531e+00	-9.194983600976855e+00
1	 8.662909000489962e-01	 1.099789520481441e+00	-9.690402433762371e+00
1	 1.111012037301826e+00	 8.751307407769980e-01	-4.562343397663224e+00
1	 1.090049354467381e+00	 9.011071064682441e-01	-5.058730578959993e+00
1	 1.068455044283696e+00	 9.266096756258143e-01	-5.559828645533255e+00
1	 1.046245376124105e+00	 9.516156467239397e-01	-6.064258172183616e+00
1	 1.023437708163836e+00	 9.761029761419320e-01	-6.570623314934494e+00
1	 1.000050442567844e+00	 1.000050442567844e+00	-7.077518370577136e+00
1	 9.761029761419314e-01	 1.023437708163836e+00	-7.583534422034454e+00
1	 9.516156467239396e-01	 1.046245376124105e+00	-8.087266014717230e+00
1	 9.266096756258143e-01	 1.068455044283696e+00	-8.587317808595310e+00
1	 9.011071064682435e-01	 1.090049354467381e+00	-9.082311150972624e+00
1	 8.751307407769979e-01	 1.111012037301826e+00	-9.570890515934812e+00
1	 1.122234530555182e+00	 8.839705629414819e-01	-4.529303374883839e+00
1	 1.101060100629861e+00	 9.102093196591319e-01	-5.015594945412103e+00
1	 1.079247663196073e+00	 9.359694939558444e-01	-5.506789746009201e+00
1	 1.056813651966454e+00	 9.612280539843321e-01	-6.001548624040055e+00
1	 1.033775600453680e+00	 9.859627334580974e-01	-6.498514828846115e+00
1	 1.010152096705643e+00	 1.010152096705644e+00	-6.996320437141870e+00
1	 9.859627334580970e-01	 1.033775600453680e+00	-7.493592873203832e+00
1	 9.612280539843319e-01	 1.056813651966455e+00	-7.988961469896508e+00
1	 9.359694939558441e-01	 1.079247663196073e+00	-8.481064016023710e+00
1	 9.102093196591318e-01	 1.101060100629861e+00	-8.968553235643375e+00
1	 8.839705629414819e-01	 1.122234530555182e+00	-9.450103145844023e+00
1	 7.955717534430776e-01	 1.010008851730144e+00	-1.061828485596917e+01
1	 7.715475599175932e-01	 1.028477824266305e+00	-1.114997394701008e+01
1	 7.471359339991688e-01	 1.046346104343135e+00	-1.166694087194289e+01
1	 7.223593093729547e-01	 1.063602054441766e+00	-1.216796545457421e+01
1	 6.972405524292978e-01	 1.080235144867935e+00	-1.265189051391514e+01
1	 6.718028946141240e-01	 1.096235971370482e+00	-1.311762681335446e+01
1	 6.460698641649665e-01	 1.111596267876887e+00	-1.356415751175839e+01
1	 6.200652176363031e-01	 1.126308914352119e+00	-1.399054208854244e+01
1	 5.938128716115273e-01	 1.140367939824357e+00	-1.439591972077981e+01
1	 5.673368349888005e-01	 1.153768520657062e+00	-1.477951209656056e+01
1	 5.406611422144048e-01	 1.166506974181152e+00	-1.514062565499654e+01
1	 8.044116684278024e-01	 1.021231462819310e+00	-1.050352949763151e+01
1	 7.801205325084165e-01	 1.039905651473637e+00	-1.103006800678643e+01
1	 7.554376592802551e-01	 1.057972473135200e+00	-1.154260820227578e+01
1	 7.303857316980990e-01	 1.075420160976023e+00	-1.203994817015809e+01
1	 7.049878702298847e-01	 1.092238068302214e+00	-1.252094397960798e+01
1	 6.792675644554065e-01	 1.108416686368235e+00	-1.298451471518847e+01
1	 6.532486040438353e-01	 1.123947657253940e+00	-1.342964704413288e+01
1	 6.269550095182067e-01	 1.138823781810756e+00	-1.385539928877831e+01
1	 6.004109632086180e-01	 1.153039022721013e+00	-1.426090498002645e+01
1	 5.736407407856794e-01	 1.166588502750832e+00	-1.464537587360443e+01
1	 5.466686437519976e-01	 1.179468498311525e+00	-1.500810441687231e+01
1	 8.132515813493250e-01	 1.032454071289771e+00	-1.038877158347473e+01
1	 7.886935030983315e-01	 1.051333476014421e+00	-1.091006500151163e+01
1	 7.637393826237476e-01	 1.069598839214425e+00	-1.141804426827443e+01
1	 7.384121521499227e-01	 1.087238264752729e+00	-1.191152472975817e+01
1	 7.127351862223218e-01	 1.104240988935844e+00	-1.238937480379727e+01
1	 6.867322325545427e-01	 1.120597398523877e+00	-1.285052110331126e+01
1	 6.604273422473316e-01	 1.136299043749081e+00	-1.329395312690235e+01
1	 6.338447997922178e-01	 1.151338646349359e+00	-1.371872748498336e+01
1	 6.070090532659367e-01	 1.165710102661214e+00	-1.412397163506794e+01
1	 5.799446451114828e-01	 1.179408481853434e+00	-1.450888710551564e+01
1	 5.526761438877230e-01	 1.192430019417744e+00	-1.487275219279632e+01
1	 8.220914901451046e-01	 1.043676674522985e+00	-1.027382731446814e+01
1	 7.972664696870834e-01	 1.062761295222229e+00	-1.078976299827420e+01
1	 7.720411020926780e-01	 1.081225199868052e+00	-1.129302961131129e+01
1	 7.464385688556904e-01	 1.099056363014387e+00	-1.178245879404036e+01
1	 7.204824985989899e-01	 1.116243903968200e+00	-1.225693044580935e+01
1	 6.941968971698584e-01	 1.132778104995295e+00	-1.271537794681896e+01
1	 6.676060771004905e-01	 1.148650424480371e+00	-1.315679297906059e+01
1	 6.407345868507837e-01	 1.163853505047840e+00	-1.358022991237904e+01
1	 6.136071402439864e-01	 1.178381176688415e+00	-1.398480972699858e+01
1	 5.862485464953503e-01	 1.192228454973575e+00	-1.436972344928097e+01
1	 5.586836412198745e-01	 1.205391534475477e+00	-1.473423508306837e+01
1	 8.309313927526035e-01	 1.054899269900412e+00	-1.015852070710360e+01
1	 8.058394302744167e-01	 1.074189106430634e+00	-1.066896865061273e+01
1	 7.803428157500795e-01	 1.092851552383325e+00	-1.116735410424830e+01
1	 7.544649799426653e-01	 1.110874453003498e+00	-1.165252407274157e+01
1	 7.282298055522719e-01	 1.128246810598657e+00	-1.212336910270167e+01
1	 7.016615565596791e-01	 1.144958802940378e+00	-1.257882861092552e+01
1	 6.747848069283462e-01	 1.161001796565867e+00	-1.301789584259530e+01
1	 6.476243690863530e-01	 1.176368354986110e+00	-1.343962242343007e+01
1	 6.202052226032713e-01	 1.191052241846069e+00	-1.384312247478421e+01
1	 5.925524434664214e-01	 1.205048419119958e+00	-1.422757626589775e+01
1	 5.646911343467459e-01	 1.218353040460394e+00	-1.459223338290528e+01
1	 8.397712871092808e-01	 1.066121854803511e+00	-1.004268318199350e+01
1	 8.144123828600772e-01	 1.085616906973206e+00	-1.054749674650937e+01
1	 7.886445216589832e-01	 1.104477894047487e+00	-1.104081646018587e+01
1	 7.624913835381121e-01	 1.122692531962563e+00	-1.152150379561766e+01
1	 7.359771052745488e-01	 1.140249706026591e+00	-1.198845914393016e+01
1	 7.091262089823306e-01	 1.157139489517013e+00	-1.244062725694041e+01
1	 6.819635300559345e-01	 1.173353157123633e+00	-1.287700234943308e+01
1	 6.545141448913742e-01	 1.188883193244081e+00	-1.329663282347129e+01
1	 6.268032988042945e-01	 1.203723295177632e+00	-1.369862558133899e+01
1	 5.988563345538354e-01	 1.217868371301289e+00	-1.408214989871260e+01
1	 5.706986218666309e-01	 1.231314534348166e+00	-1.444644083489485e+01
1	 8.486111711525989e-01	 1.077344426613743e+00	-9.926153178174985e+00
1	 8.229853254438093e-01	 1.097044694183519e+00	-1.042516978462552e+01
1	 7.969462178824207e-01	 1.116104222147780e+00	-1.091322377190648e+01
1	 7.705177777692939e-01	 1.134510597134084e+00	-1.138919021644809e+01
1	 7.437243959582027e-01	 1.152252587451375e+00	-1.185197858133990e+01
1	 7.165908526961383e-01	 1.169320161883087e+00	-1.230053827973738e+01
1	 6.891422448082899e-01	 1.185704503271726e+00	-1.273386392793900e+01
1	 6.614039126582941e-01	 1.201398016901660e+00	-1.315100024784668e+01
1	 6.334013673075602e-01	 1.216394333726560e+00	-1.355104658295977e+01
1	 6.051602182867317e-01	 1.230688308526273e+00	-1.393316099685193e+01
1	 5.767061023778234e-01	 1.244276013114461e+00	-1.429656392815818e+01
1	 8.574510428200167e-01	 1.088566982712566e+00	-9.808775791264795e+00
1	 8.315582560253580e-01	 1.108472465395146e+00	-1.030181757674306e+01
1	 8.052479024834253e-01	 1.127730533971447e+00	-1.078439107979874e+01
1	 7.785441607634748e-01	 1.146328645760561e+00	-1.125538414771228e+01
1	 7.514716757956155e-01	 1.164255452072385e+00	-1.171371457193112e+01
1	 7.240554859594279e-01	 1.181500817196488e+00	-1.215833578000995e+01
1	 6.963209495104469e-01	 1.198055832128208e+00	-1.258824224611834e+01
1	 6.682936707795624e-01	 1.213912823038763e+00	-1.300247457756529e+01
1	 6.399994265735720e-01	 1.229065354536308e+00	-1.340012423899149e+01
1	 6.114640931942503e-01	 1.243508227803614e+00	-1.378033788049118e+01
1	 5.827135744786168e-01	 1.257237473734950e+00	-1.414232124085157e+01
1	 8.662909000489962e-01	 1.099789520481441e+00	-9.690402433762371e+00
1	 8.401311726044686e-01	 1.119900217941657e+00	-1.017727687453930e+01
1	 8.135495735250280e-01	 1.139356826805732e+00	-1.065414096622817e+01
1	 7.865705306479197e-01	 1.158146675084499e+00	-1.111989452374758e+01
1	 7.592189429791690e-01	 1.176258297088997e+00	-1.157346295105993e+01
1	 7.315201070305251e-01	 1.193681452615102e+00	-1.201380306882861e+01
1	 7.034996424874408e-01	 1.210407140811137e+00	-1.243990868889843e+01
1	 6.751834176476257e-01	 1.226427608735297e+00	-1.285081589072398e+01
1	 6.465974750628329e-01	 1.241736354650330e+00	-1.324560795884999e+01
1	 6.177679578055304e-01	 1.256328126142018e+00	-1.362341994497426e+01
1	 5.887210367673058e-01	 1.270198913185302e+00	-1.398344282291250e+01
1	 8.751307407769979e-01	 1.111012037301826e+00	-9.570890515934812e+00
1	 8.487040731808854e-01	 1.131327949156626e+00	-1.005139101897561e+01
1	 8.218512290702609e-01	 1.150983097937878e+00	-1.052230317448469e+01
1	 7.945968855498914e-01	 1.169964682348398e+00	-1.098253799037588e+01
1	 7.669661957012445e-01	 1.188261119700584e+00	-1.143102779392267e+01
1	 7.389847141677560e-01	 1.205862065296819e+00	-1.186673220221765e+01
1	 7.106783220643060e-01	 1.222758426438575e+00	-1.228864386708212e+01
1	 6.820731516549328e-01	 1.238942371071174e+00	-1.269579394716829e+01
1	 6.531955112358470e-01	 1.254407331112081e+00	-1.308725726376101e+01
1	 6.240718106497117e-01	 1.269148000550190e+00	-1.346215710103766e+01
1	 5.947284878421829e-01	 1.283160328441185e+00	-1.381966961620495e+01
1	 8.839705629414819e-01	 1.122234530555182e+00	-9.450103145844023e+00
1	 8.572769557543541e-01	 1.142755656373625e+00	-9.924009610717414e+00
1	 8.301528671821561e-01	 1.162609344655126e+00	-1.038871425058776e+01
1	 8.026232235966541e-01	 1.181782664794758e+00	-1.084313851914568e+01
1	 7.747134321542239e-01	 1.200263917106523e+00	-1.128622100334398e+01
1	 7.464493056294456e-01	 1.218042652399525e+00	-1.171692354364943e+01
1	 7.178569865660778e-01	 1.235109686128581e+00	-1.213423715575647e+01
1	 6.889628711939315e-01	 1.251457107126304e+00	-1.253718770406574e+01
1	 6.597935335531173e-01	 1.267078280965017e+00	-1.292484128078693e+01
1	 6.303756502559335e-01	 1.281967848036833e+00	-1.329630924861226e+01
1	 6.007359263015425e-01	 1.296121716478273e+00	-1.365075290944697e+01
1	 5.406611422144048e-01	 1.166506974181152e+00	-1.514062565499654e+01
1	 5.138116717552891e-01	 1.178579927199173e+00	-1.547863042612051e+01
1	 4.868104428277401e-01	 1.189986863234134e+00	-1.579292998951858e+01
1	 4.596811685659499e-01	 1.200727447337036e+00	-1.608292683996867e+01
1	 4.324473371061253e-01	 1.210802416556687e+00	-1.634809844171173e+01
1	 4.051321545099085e-01	 1.220213553110794e+00	-1.658799957926253e+01
1	 3.777584904297684e-01	 1.228963654185617e+00	-1.680226415302796e+01
1	 3.503488267225386e-01	 1.237056498645061e+00	-1.699060642111194e+01
1	 3.229252091875749e-01	 1.244496810941490e+00	-1.715282169434460e+01
1	 2.955092025760218e-01	 1.251290222528759e+00	-1.728878649689038e+01
1	 2.681218489877413e-01	 1.257443231082956e+00	-1.739845820969775e+01
1	 5.466686437519976e-01	 1.179468498311525e+00	-1.500810441687231e+01
1	 5.195208381204921e-01	 1.191675598724702e+00	-1.534838173857889e+01
1	 4.922195877717349e-01	 1.203209281774577e+00	-1.566553233975184e+01
1	 4.647888693259978e-01	 1.214069208790389e+00	-1.595893667053262e+01
1	 4.372524319055254e-01	 1.224256125010579e+00	-1.622804451215650e+01
1	 4.096337394237552e-01	 1.233771832455774e+00	-1.647237775802620e+01
1	 3.819559156469748e-01	 1.242619159392876e+00	-1.669153266123565e+01
1	 3.542416922368837e-01	 1.250801926674242e+00	-1.688518154494556e+01
1	 3.265133599524975e-01	 1.258324911247501e+00	-1.705307397773241e+01
1	 2.987927231595001e-01	 1.265193807139827e+00	-1.719503742146894e+01
1	 2.711010577649079e-01	 1.271415184225567e+00	-1.731097736438132e+01
1	 5.526761438877230e-01	 1.192430019417744e+00	-1.487275219279633e+01
1	 5.252300031534778e-01	 1.204771267194820e+00	-1.521477644835474e+01
1	 4.976287314535490e-01	 1.216431697230087e+00	-1.553421641226317e+01
1	 4.698965688942295e-01	 1.227410967131020e+00	-1.583045162555144e+01
1	 4.420575255837426e-01	 1.237709830325687e+00	-1.610292570548260e+01
1	 4.141353232872625e-01	 1.247330108637632e+00	-1.635114938023052e+01
1	 3.861533398848386e-01	 1.256274661414386e+00	-1.657470301657321e+01
1	 3.581345568429812e-01	 1.264547351496750e+00	-1.677323863337957e+01
1	 3.301015098803090e-01	 1.272153008327602e+00	-1.694648139931767e+01
1	 3.020762429769927e-01	 1.279097388507421e+00	-1.709423061862948e+01
1	 2.740802658471492e-01	 1.285387134108794e+00	-1.721636021393432e+01
1	 5.586836412198745e-01	 1.205391534475477e+00	-1.473423508306836e+01
1	 5.309391655221455e-01	 1.217866929553885e+00	-1.507747228147399e+01
1	 5.030378726110818e-01	 1.229654106515435e+00	-1.539863664004703e+01
1	 4.750042660788756e-01	 1.240752719245839e+00	-1.569712725145926e+01
1	 4.468626170196098e-01	 1.251163529362787e+00	-1.597240240518078e+01
1	 4.186369050500766e-01	 1.260888378492727e+00	-1.622398270232629e+01
1	 3.903507621639697e-01	 1.269930157063807e+00	-1.645145369492686e+01
1	 3.620274196324958e-01	 1.278292769905249e+00	-1.665446804011668e+01
1	 3.336896581337639e-01	 1.285981098955156e+00	-1.683274716517052e+01
1	 3.053597612623210e-01	 1.293000963387279e+00	-1.698608244459134e+01
1	 2.770594725392778e-01	 1.299359077472413e+00	-1.711433589544566e+01
1	 5.646911343467459e-01	 1.218353040460394e+00	-1.459223338290528e+01
1	 5.366483238943944e-01	 1.230962582746256e+00	-1.493614151434227e+01
1	 5.084470099822319e-01	 1.242876506545394e+00	-1.525846214571582e+01
1	 4.801119596881672e-01	 1.254094462021757e+00	-1.555863373606493e+01
1	 4.516677050919607e-01	 1.264617218982655e+00	-1.583614942948098e+01
1	 4.231384836618437e-01	 1.274446638857421e+00	-1.609056007976965e+01
1	 3.945481815049780e-01	 1.283585643154801e+00	-1.632147683572374e+01
1	 3.659202796970926e-01	 1.292038178692406e+00	-1.652857327651520e+01
1	 3.372778038756170e-01	 1.299809179903525e+00	-1.671158709183919e+01
1	 3.086432772493077e-01	 1.306904528535139e+00	-1.687032130640929e+01
1	 2.800386771461065e-01	 1.313331011056197e+00	-1.700464505314450e+01
1	 5.706986218666309e-01	 1.231314534348166e+00	-1.444644083489485e+01
1	 5.423574769381242e-01	 1.244058223716290e+00	-1.479047020744017e+01
1	 5.138561423048991e-01	 1.256098894234734e+00	-1.511337596781607e+01
1	 4.852196485303356e-01	 1.267436192345687e+00	-1.541465513735894e+01
1	 4.564727886796288e-01	 1.278070896046066e+00	-1.569385527098743e+01
1	 4.276400580722104e-01	 1.288004886568077e+00	-1.595057722428425e+01
1	 3.987455969284734e-01	 1.297241116501029e+00	-1.618447752207521e+01
1	 3.698131361284367e-01	 1.305783574650884e+00	-1.639527031832748e+01
1	 3.408659462686225e-01	 1.313637247946070e+00	-1.658272894186502e+01
1	 3.119267901717747e-01	 1.320808080706736e+00	-1.674668702693024e+01
1	 2.830178789724484e-01	 1.327302931599920e+00	-1.688703923197003e+01
1	 5.767061023778234e-01	 1.244276013114461e+00	-1.429656392815818e+01
1	 5.480666233212343e-01	 1.257153849408346e+00	-1.464015748689931e+01
1	 5.192652683169823e-01	 1.269321266498228e+00	-1.496307433548716e+01
1	 4.903273314136112e-01	 1.280777907104539e+00	-1.526488866050531e+01
1	 4.612778666614481e-01	 1.291524557413797e+00	-1.554522138382308e+01
1	 4.321416272308229e-01	 1.301563118461056e+00	-1.580374250753194e+01
1	 4.029430074550653e-01	 1.310896573916152e+00	-1.604017310589938e+01
1	 3.737059880181927e-01	 1.319528954573350e+00	-1.625428695575525e+01
1	 3.444540844755351e-01	 1.327465299856153e+00	-1.644591180081555e+01
1	 3.152102992635440e-01	 1.334711616657808e+00	-1.661493024942886e+01
1	 2.859970773231161e-01	 1.341274835843357e+00	-1.676128030903343e+01
1	 5.827135744786168e-01	 1.257237473734950e+00	-1.414232124085157e+01
1	 5.537757617116243e-01	 1.270249456766782e+00	-1.448491487050528e+01
1	 5.246743867563802e-01	 1.282543620250645e+00	-1.480726598797413e+01
1	 4.954350071462251e-01	 1.294119603185224e+00	-1.510904397954491e+01
1	 4.660829379162515e-01	 1.304978199946625e+00	-1.538996151485705e+01
1	 4.366431900873278e-01	 1.315121331372720e+00	-1.564977630784290e+01
1	 4.071404121053634e-01	 1.324552012213832e+00	-1.588829257477733e+01
1	 3.775988344580258e-01	 1.333274315252468e+00	-1.610536218369668e+01
1	 3.480422176591093e-01	 1.341293332407137e+00	-1.630088549284184e+01
1	 3.184938037584378e-01	 1.348615133144092e+00	-1.647481187906022e+01
1	 2.889762715029223e-01	 1.355246720526281e+00	-1.662713996023669e+01
1	 5.887210367673058e-01	 1.270198913185302e+00	-1.398344282291250e+01
1	 5.594848907771935e-01	 1.283345042735955e+00	-1.432446563495444e+01
1	 5.300834963609925e-01	 1.295765952406758e+00	-1.464567153579233e+01
1	 5.005426745364085e-01	 1.307461277474654e+00	-1.494684260061545e+01
1	 4.708880013228732e-01	 1.318431820505326e+00	-1.522780107586545e+01
1	 4.411447455913715e-01	 1.328679522139431e+00	-1.548841039693282e+01
1	 4.113378098999779e-01	 1.338207428207729e+00	-1.572857595756234e+01
1	 3.814916745396011e-01	 1.347019653480905e+00	-1.594824562931564e+01
1	 3.516303449820996e-01	 1.355121342372383e+00	-1.614741003200823e+01
1	 3.217773028902782e-01	 1.362518626921326e+00	-1.632610255849985e+01
1	 2.919554608166801e-01	 1.369218582388467e+00	-1.648439915953970e+01
1	 5.947284878421829e-01	 1.283160328441185e+00	-1.381966961620495e+01
1	 5.651940091858411e-01	 1.296440604260224e+00	-1.415854422144909e+01
1	 5.354925958687180e-01	 1.308988259881339e+00	-1.447802286059842e+01
1	 5.056503323923919e-01	 1.320802926859741e+00	-1.477801726375378e+01
1	 4.756930557601460e-01	 1.331885415950674e+00	-1.505847655373385e+01
1	 4.456462926925999e-01	 1.342237687597550e+00	-1.531938736377736e+01
1	 4.155351998595183e-01	 1.351862818711506e+00	-1.556077376600433e+01
1	 3.853845073545833e-01	 1.360764966051325e+00	-1.578269701429435e+01
1	 3.552184656072604e-01	 1.368949326525253e+00	-1.598525510686604e+01
1	 3.250607958928872e-01	 1.376422094745246e+00	-1.616858217535512e+01
1	 2.949346445692019e-01	 1.383190418169688e+00	-1.633284770856601e+01
1	 6.007359263015425e-01	 1.296121716478273e+00	-1.365075290944697e+01
1	 5.709031156054668e-01	 1.309536138283946e+00	-1.398689567694690e+01
1	 5.409016840174559e-01	 1.322210539589158e+00	-1.430406255106014e+01
1	 5.107579795224065e-01	 1.334144548227396e+00	-1.460231138058129e+01
1	 4.804981001069039e-01	 1.345338983143447e+00	-1.488173495603780e+01
1	 4.501478303406600e-01	 1.355795824583440e+00	-1.514246007304563e+01
1	 4.197325810045943e-01	 1.365518180538823e+00	-1.538464646986664e+01
1	 3.892773319946376e-01	 1.374510249756393e+00	-1.560848564934228e+01
1	 3.588065786973464e-01	 1.382777281639109e+00	-1.581419959594490e+01
1	 3.283442820000870e-01	 1.390325533371589e+00	-1.600203939912373e+01
1	 2.979138220653007e-01	 1.397162224609720e+00	-1.617228379442513e+01
1	 2.681218489877413e-01	 1.257443231082956e+00	-1.739845820969775e+01
1	 2.407817228767851e-01	 1.262963522352994e+00	-1.748267799537518e+01
1	 2.135106558184331e-01	 1.267858745981453e+00	-1.754138212128829e+01
1	 1.863279375037964e-01	 1.272137738871794e+00	-1.757334577331395e+01
1	 1.592522018633585e-01	 1.275810025489055e+00	-1.757747435152942e+01
1	 1.323014031501211e-01	 1.278885770601601e+00	-1.755280744982188e+01
1	 1.054927955345951e-01	 1.281375731613288e+00	-1.749852170617383e+01
1	 7.884291614478943e-02	 1.283291210751440e+00	-1.741393256041988e+01
1	 5.236757146467105e-02	 1.284644007362039e+00	-1.729849496498712e+01
1	 2.608182698689521e-02	 1.285446370548278e+00	-1.715180310168067e+01
1	 0.000000000000000e+00	 1.285710952372222e+00	-1.697358916395189e+01
1	 2.711010577649079e-01	 1.271415184225567e+00	-1.731097736438132e+01
1	 2.434571446109329e-01	 1.276996813653051e+00	-1.740169910443377e+01
1	 2.158830578522008e-01	 1.281946430063098e+00	-1.746708720012717e+01
1	 1.883983015152831e-01	 1.286272968549541e+00	-1.750584022692559e+01
1	 1.610217165797056e-01	 1.289986059407557e+00	-1.751678691203919e+01
1	 1.337714567953441e-01	 1.293095980350324e+00	-1.749889077389878e+01
1	 1.066649680506879e-01	 1.295613608311512e+00	-1.745125358991767e+01
1	 7.971897122437922e-02	 1.297550371102009e+00	-1.737311772656216e+01
1	 5.294944843254006e-02	 1.298918199175053e+00	-1.726386737512018e+01
1	 2.637163256653081e-02	 1.299729477738514e+00	-1.712302874474033e+01
1	 0.000000000000000e+00	 1.299996999436575e+00	-1.695026927128996e+01
1	 2.740802658471492e-01	 1.285387134108794e+00	-1.721636021393432e+01
1	 2.461325657211033e-01	 1.291030101679448e+00	-1.731365012091253e+01
1	 2.182554593327630e-01	 1.296034110858418e+00	-1.738591476835869e+01
1	 1.904686650441012e-01	 1.300408194929889e+00	-1.743175236403581e+01
1	 1.627912308836288e-01	 1.304162090019158e+00	-1.744989110859227e+01
1	 1.352415100980418e-01	 1.307306186784182e+00	-1.743919467689506e+01
1	 1.078371402937548e-01	 1.309851481688423e+00	-1.739866647424251e+01
1	 8.059502609999235e-02	 1.311809528126306e+00	-1.732745269792638e+01
1	 5.353132526498362e-02	 1.313192387658288e+00	-1.722484424480940e+01
1	 2.666143807874780e-02	 1.314012581596891e+00	-1.709027751456692e+01
1	 0.000000000000000e+00	 1.314283043168385e+00	-1.692333416597345e+01
1	 2.770594725392778e-01	 1.299359077472413e+00	-1.711433589544566e+01
1	 2.488079855829751e-01	 1.305063383157637e+00	-1.721827002800045e+01
1	 2.206278597064843e-01	 1.310121785080170e+00	-1.729760909289841e+01
1	 1.925390276070735e-01	 1.314543414714498e+00	-1.735082792195700e+01
1	 1.645607443621362e-01	 1.318338114015989e+00	-1.737653107941060e+01
1	 1.367115627150885e-01	 1.321516386587330e+00	-1.737345936425471e+01
1	 1.090093119901753e-01	 1.324089348421717e+00	-1.734049502321879e+01
1	 8.147108056711205e-02	 1.326068678497057e+00	-1.727666570052332e+01
1	 5.411320182614732e-02	 1.327466569480965e+00	-1.718114716176871e+01
1	 2.695124345587590e-02	 1.328295678790551e+00	-1.705326483924748e+01
1	 0.000000000000000e+00	 1.328569080234105e+00	-1.689249425462273e+01
1	 2.800386771461065e-01	 1.313331011056197e+00	-1.700464505314450e+01
1	 2.514834035722265e-01	 1.319096654813073e+00	-1.711530889746588e+01
1	 2.230002584197293e-01	 1.324209449441108e+00	-1.720192530504423e+01
1	 1.946093887210234e-01	 1.328678624605022e+00	-1.726282344063336e+01
1	 1.663302566022356e-01	 1.332514128090182e+00	-1.729646183434826e+01
1	 1.381816143033584e-01	 1.335726576443923e+00	-1.730143608144996e+01
1	 1.101814828663291e-01	 1.338327205189094e+00	-1.727648517783946e+01
1	 8.234713442122146e-02	 1.340327818886994e+00	-1.722049651234328e+01
1	 5.469507798017686e-02	 1.341740741312307e+00	-1.713250954923311e+01
1	 2.724104863024481e-02	 1.342578765986636e+00	-1.701171824548738e+01
1	 0.000000000000000e+00	 1.342855107300192e+00	-1.685747225702726e+01
1	 2.830178789724484e-01	 1.327302931599920e+00	-1.688703923197003e+01
1	 2.541588190645365e-01	 1.333129913371210e+00	-1.700452730526479e+01
1	 2.253726549188625e-01	 1.338297100653986e+00	-1.709862882790391e+01
1	 1.966797479027737e-01	 1.342813821303118e+00	-1.716750569334628e+01
1	 1.680997671909344e-01	 1.346690128933866e+00	-1.720944868199814e+01
1	 1.396516645197257e-01	 1.349936753038114e+00	-1.722288653226308e+01
1	 1.113536526485959e-01	 1.352565048668249e+00	-1.720639356187413e+01
1	 8.322318745780383e-02	 1.354586945968846e+00	-1.715869585477404e+01
1	 5.527695359121787e-02	 1.356014899821536e+00	-1.707867604249387e+01
1	 2.753085353418426e-02	 1.356861839852286e+00	-1.696537672133582e+01
1	 0.000000000000000e+00	 1.357141121033102e+00	-1.681800255761289e+01
1	 2.859970773231161e-01	 1.341274835843357e+00	-1.676128030903343e+01
1	 2.568342314355833e-01	 1.347163155557500e+00	-1.688569578366447e+01
1	 2.277450486502487e-01	 1.352384735431563e+00	-1.698749483959945e+01
1	 1.987501046691476e-01	 1.356949001510443e+00	-1.706465115299054e+01
1	 1.698692757152408e-01	 1.360866113239175e+00	-1.711526669259502e+01
1	 1.411217130210647e-01	 1.364146913054058e+00	-1.713758233341491e+01
1	 1.125258210633554e-01	 1.366802875536879e+00	-1.712998692484660e+01
1	 8.409923947234235e-02	 1.368846056415343e+00	-1.709102482204517e+01
1	 5.585882852341595e-02	 1.370289041677874e+00	-1.701940190438949e+01
1	 2.782065810002395e-02	 1.371144897054644e+00	-1.691399011873049e+01
1	 0.000000000000000e+00	 1.371427118099289e+00	-1.677383059743122e+01
1	 2.889762715029223e-01	 1.355246720526281e+00	-1.662713996023669e+01
1	 2.595096400610456e-01	 1.361196378097397e+00	-1.675859430724741e+01
1	 2.301174390602524e-01	 1.366472350486590e+00	-1.686830776966571e+01
1	 2.008204585369680e-01	 1.371084161928650e+00	-1.695404549135579e+01
1	 1.716387817621622e-01	 1.375042077698238e+00	-1.701370019413170e+01
1	 1.425917594642496e-01	 1.378357053175909e+00	-1.704530450291939e+01
1	 1.136979878369874e-01	 1.381040682472682e+00	-1.704704161945805e+01
1	 8.497529026032022e-02	 1.383105146899215e+00	-1.701725434595476e+01
1	 5.644070264091678e-02	 1.384563163550541e+00	-1.695445247694262e+01
1	 2.811046226009360e-02	 1.385427934260852e+00	-1.685731859298826e+01
1	 0.000000000000000e+00	 1.385713095165209e+00	-1.672471230374798e+01
1	 2.919554608166801e-01	 1.369218582388467e+00	-1.648439915953970e+01
1	 2.621850443166021e-01	 1.375229577716355e+00	-1.662301181037491e+01
1	 2.324898255952381e-01	 1.380559942531825e+00	-1.674086082627387e+01
1	 2.028908090230582e-01	 1.385219299259399e+00	-1.683548310905544e+01
1	 1.734082849187065e-01	 1.389218019003189e+00	-1.690454229931742e+01
1	 1.440618035061546e-01	 1.392567170087822e+00	-1.694584297975461e+01
1	 1.148701526958714e-01	 1.395278466153354e+00	-1.695734311099663e+01
1	 8.585133961722070e-02	 1.397364214093191e+00	-1.693716469335908e+01
1	 5.702257580786600e-02	 1.398837262108762e+00	-1.688360266656042e+01
1	 2.840026594672293e-02	 1.399710948138050e+00	-1.679513207660298e+01
1	 0.000000000000000e+00	 1.399999048897318e+00	-1.667041355454497e+01
1	 2.949346445692019e-01	 1.383190418169688e+00	-1.633284770856601e+01
1	 2.648604435779311e-01	 1.389262751139826e+00	-1.647874573388878e+01
1	 2.348622077015705e-01	 1.394647508280022e+00	-1.660495555209990e+01
1	 2.049611556442410e-01	 1.399354410204343e+00	-1.670876669393796e+01
1	 1.751777847718815e-01	 1.403393933846157e+00	-1.678759446119751e+01
1	 1.455318448036539e-01	 1.406777260473951e+00	-1.683899617263729e+01
1	 1.160423153663872e-01	 1.409516223256593e+00	-1.686068551647179e+01
1	 8.672738733852689e-02	 1.411623254670002e+00	-1.685054499410965e+01
1	 5.760444788840924e-02	 1.413111334021757e+00	-1.680663646042749e+01
1	 2.869006909224163e-02	 1.413993935353380e+00	-1.672720978492702e+01
1	 0.000000000000000e+00	 1.414284975962072e+00	-1.661070967546822e+01
1	 2.979138220653007e-01	 1.397162224609720e+00	-1.617228379442513e+01
1	 2.675358372207115e-01	 1.403295895093266e+00	-1.632560159900297e+01
1	 2.372345848256142e-01	 1.408735044443937e+00	-1.646040140683489e+01
1	 2.070314979173397e-01	 1.413489491465140e+00	-1.657370680598564e+01
1	 1.769472809086950e-01	 1.417569818919275e+00	-1.666266605542909e+01
1	 1.470018830136218e-01	 1.420987321018450e+00	-1.672457053586280e+01
1	 1.172144755749144e-01	 1.423753950460095e+00	-1.675687117139281e+01
1	 8.760343321972207e-02	 1.425882265302377e+00	-1.675719279730647e+01
1	 5.818631874669211e-02	 1.427385375958748e+00	-1.672334647190728e+01
1	 2.897987162897944e-02	 1.428276892573984e+00	-1.665333975150294e+01
1	 0.000000000000000e+00	 1.428570873025926e+00	-1.654538496695089e+01
1	 1.428570873025926e+00	 0.000000000000000e+00	 8.355135210758290e+00
1	 1.428276892573984e+00	 2.897987162897983e-02	 7.886744550054664e+00
1	 1.427385375958749e+00	 5.818631874669251e-02	 7.422913864540567e+00
1	 1.425882265302377e+00	 8.760343321972237e-02	 6.964668162445398e+00
1	 1.423753950460095e+00	 1.172144755749147e-01	 6.513041934650904e+00
1	 1.420987321018450e+00	 1.470018830136220e-01	 6.069073720515983e+00
1	 1.417569818919275e+00	 1.769472809086952e-01	 5.633800268781172e+00
1	 1.413489491465139e+00	 2.070314979173397e-01	 5.208250312849227e+00
1	 1.408735044443936e+00	 2.372345848256141e-01	 4.793437985237307e+00
1	 1.403295895093266e+00	 2.675358372207115e-01	 4.390355901645593e+00
1	 1.397162224609719e+00	 2.979138220653008e-01	 3.999967950816239e+00
1	 1.442856738422074e+00	 0.000000000000000e+00	 8.062417058312525e+00
1	 1.442559818133399e+00	 2.926967352309299e-02	 7.602110948646466e+00
1	 1.441659386254313e+00	 5.876818831477279e-02	 7.146608330846041e+00
1	 1.440141244326646e+00	 8.847947715852847e-02	 6.696969087353408e+00
1	 1.437991646102674e+00	 1.183866331846208e-01	 6.254256916011656e+00
1	 1.435197350063360e+00	 1.484719179644717e-01	 5.819533336882700e+00
1	 1.431745672568570e+00	 1.787167731226271e-01	 5.393851304211688e+00
1	 1.427624541392580e+00	 2.091018356007429e-01	 4.978248448373229e+00
1	 1.422822549379909e+00	 2.396069566905304e-01	 4.573739978390936e+00
1	 1.417329007939364e+00	 2.702112249327637e-01	 4.181311281475319e+00
1	 1.411134000078413e+00	 3.008929929573673e-01	 3.801910261896651e+00
1	 1.457142577150667e+00	 0.000000000000000e+00	 7.780262117222861e+00
1	 1.456842717030744e+00	 2.955947487604390e-02	 7.328036596066305e+00
1	 1.455933369904449e+00	 5.935005679635650e-02	 6.880822889265913e+00
1	 1.454400196733541e+00	 8.935551946162226e-02	 6.439716730306146e+00
1	 1.452229315167604e+00	 1.195587886058234e-01	 6.005811683017807e+00
1	 1.449407352582267e+00	 1.499419501707724e-01	 5.580192566985210e+00
1	 1.445921499755661e+00	 1.804862620330460e-01	 5.163928499594336e+00
1	 1.441759564933990e+00	 2.111721694191012e-01	 4.758065585391935e+00
1	 1.436910028018618e+00	 2.419793241266670e-01	 4.363619289441719e+00
1	 1.431362094589756e+00	 2.728866076504773e-01	 3.981566537421832e+00
1	 1.425105749465931e+00	 3.038721582881034e-01	 3.612837591217350e+00
1	 1.471428395878593e+00	 0.000000000000000e+00	 7.508102839115520e+00
1	 1.471125595931537e+00	 2.984927582312151e-02	 7.063979973627871e+00
1	 1.470207333570505e+00	 5.993192446306174e-02	 6.625040341096176e+00
1	 1.468659129177392e+00	 9.023156053791931e-02	 6.192416499587751e+00
1	 1.466466964299278e+00	 1.207309423856280e-01	 5.767232540190330e+00
1	 1.463617335206642e+00	 1.514119803186326e-01	 5.350596908856240e+00
1	 1.460097307096061e+00	 1.822557484657932e-01	 4.943594857791547e+00
1	 1.455894568685836e+00	 2.132425003386314e-01	 4.547280563186622e+00
1	 1.450997486934333e+00	 2.443516882411687e-01	 4.162668952365791e+00
1	 1.445395161593315e+00	 2.755619866223831e-01	 3.790727289694623e+00
1	 1.439077479292515e+00	 3.068513194477887e-01	 3.432366576727947e+00
1	 1.485714201272741e+00	 0.000000000000000e+00	 7.245393514098533e+00
1	 1.485408461501291e+00	 3.013907649961475e-02	 6.809420400015812e+00
1	 1.484481283913834e+00	 6.051379158650658e-02	 6.378763389626229e+00
1	 1.482918048312531e+00	 9.110760079633509e-02	 5.954592835949898e+00
1	 1.480704600142087e+00	 1.219030950711400e-01	 5.538064020750530e+00
1	 1.477827304567958e+00	 1.528820090941604e-01	 5.130309350906659e+00
1	 1.474273101205284e+00	 1.840252332467092e-01	 4.732430198622928e+00
1	 1.470029559244577e+00	 2.153128293255499e-01	 4.345488428694716e+00
1	 1.465084932701314e+00	 2.467240501411799e-01	 3.970497662587992e+00
1	 1.459428215498915e+00	 2.782373630970129e-01	 3.608414335560877e+00
1	 1.453049196078406e+00	 3.098304778267026e-01	 3.260128609327952e+00
1	 1.500000000000000e+00	 0.000000000000000e+00	 6.991609230480642e+00
1	 1.499691320405524e+00	 3.042887704081255e-02	 6.563857038683601e+00
1	 1.498755227595788e+00	 6.109565843830920e-02	 6.141513692086616e+00
1	 1.497176960793287e+00	 9.198364064578519e-02	 5.725788305974477e+00
1	 1.494942229340423e+00	 1.230752472094650e-01	 5.317868018267153e+00
1	 1.492037267297686e+00	 1.543520371834642e-01	 4.918909538740984e+00
1	 1.488448888698843e+00	 1.857947172016354e-01	 4.530030357759291e+00
1	 1.484164543206676e+00	 2.173831573460732e-01	 4.152299664429515e+00
1	 1.479172371893830e+00	 2.490964109338453e-01	 3.786729030923548e+00
1	 1.473461262855428e+00	 2.809127383228979e-01	 3.434262926366141e+00
1	 1.467020906343844e+00	 3.128096348151254e-01	 3.095769130096865e+00
1	 1.514285798727260e+00	 0.000000000000000e+00	 6.746244893424380e+00
1	 1.513974179309750e+00	 3.071867758200388e-02	 6.326807961484413e+00
1	 1.513029171277717e+00	 6.167752529008763e-02	 5.912830965305952e+00
1	 1.511435873273994e+00	 9.285968049518506e-02	 5.505562746799292e+00
1	 1.509179858538677e+00	 1.242473993477081e-01	 5.106222967497452e+00
1	 1.506247230027299e+00	 1.558220652726523e-01	 4.715992989174596e+00
1	 1.502624676192253e+00	 1.875642011564123e-01	 4.336006431001055e+00
1	 1.498299527168598e+00	 2.194534853664177e-01	 3.967339460139961e+00
1	 1.493259811086144e+00	 2.514687717263093e-01	 3.611000879785490e+00
1	 1.487494310211727e+00	 2.835881135485694e-01	 3.267922085513324e+00
1	 1.480992616609070e+00	 3.157887918033364e-01	 2.938946967337621e+00
1	 1.528571604121408e+00	 0.000000000000000e+00	 6.508814298674510e+00
1	 1.528257044879485e+00	 3.100847825847763e-02	 6.097809264853122e+00
1	 1.527303121620974e+00	 6.225939241346007e-02	 5.692272141560361e+00
1	 1.525694792408982e+00	 9.373572075345028e-02	 5.293492458843573e+00
1	 1.523417494381241e+00	 1.254195520329751e-01	 4.902723071201216e+00
1	 1.520457199388268e+00	 1.572920940478329e-01	 4.521170348362023e+00
1	 1.516800470301028e+00	 1.893336859368810e-01	 4.149984060969339e+00
1	 1.512434517726803e+00	 2.215238143527999e-01	 3.790247025346408e+00
1	 1.507347256852522e+00	 2.538411336257166e-01	 3.442964578890457e+00
1	 1.501527364116686e+00	 2.862634900225589e-01	 3.109053964718185e+00
1	 1.494964333394326e+00	 3.187679501816155e-01	 2.789333710826629e+00
1	 1.542857422849333e+00	 0.000000000000000e+00	 6.278849257789156e+00
1	 1.542539923780245e+00	 3.129827920552281e-02	 5.876414235130456e+00
1	 1.541577085286909e+00	 6.284126008004454e-02	 5.479410571359417e+00
1	 1.539953724852582e+00	 9.461176182949638e-02	 5.089169443419577e+00
1	 1.537655143512507e+00	 1.265917058123711e-01	 4.706977569945625e+00
1	 1.534667182012065e+00	 1.587621241951145e-01	 4.334066691174766e+00
1	 1.530976277640682e+00	 1.911031723688825e-01	 3.971602763458574e+00
1	 1.526569521477754e+00	 2.235941452714363e-01	 3.620674940100802e+00
1	 1.521434715767229e+00	 2.562134977392117e-01	 3.282284417900639e+00
1	 1.515560431119178e+00	 2.889388689933976e-01	 2.957333236058350e+00
1	 1.508936063219851e+00	 3.217471113402418e-01	 2.646613120856799e+00
1	 1.557143261577926e+00	 0.000000000000000e+00	 6.055898771563346e+00
1	 1.556822822677546e+00	 3.158808055842829e-02	 5.662192559870789e+00
1	 1.555851068936875e+00	 6.342312856145918e-02	 5.273835270151969e+00
1	 1.554212677259125e+00	 9.548780413223884e-02	 4.892200682345584e+00
1	 1.551892812576865e+00	 1.277638612330018e-01	 4.518610052137674e+00
1	 1.548877184530161e+00	 1.602321564006051e-01	 4.154320859177625e+00
1	 1.545152104826728e+00	 1.928726612782576e-01	 3.800515290901353e+00
1	 1.540704545017914e+00	 2.256644790885435e-01	 3.458288541514612e+00
1	 1.535522194404530e+00	 2.585858651739392e-01	 3.128637013627875e+00
1	 1.529593517768076e+00	 2.916142517096169e-01	 2.812446517515305e+00
1	 1.522907812605887e+00	 3.247262766694958e-01	 2.510480569837309e+00
1	 1.571429126974074e+00	 0.000000000000000e+00	 5.839528248575666e+00
1	 1.571105748236902e+00	 3.187788245248305e-02	 5.454729582204878e+00
1	 1.570125079232222e+00	 6.400499812932213e-02	 5.075150206154468e+00
1	 1.568471656282942e+00	 9.636384807059326e-02	 4.702207456884792e+00
1	 1.566130508218708e+00	 1.289360188419724e-01	 4.337257801722131e+00
1	 1.563087213574030e+00	 1.617021913504133e-01	 3.981584834744991e+00
1	 1.559327958474683e+00	 1.946421534908473e-01	 3.636387030581991e+00
1	 1.554839594943744e+00	 2.277348167703377e-01	 3.302765343776225e+00
1	 1.549609699338691e+00	 2.609582370370436e-01	 2.981710749598593e+00
1	 1.543626630612252e+00	 2.942896394197481e-01	 2.674091829876214e+00
1	 1.536879588072675e+00	 3.277054475596566e-01	 2.380642514376634e+00
1	 1.397162224609719e+00	 2.979138220653008e-01	 3.999967950816239e+00
1	 1.390325533371589e+00	 3.283442820000868e-01	 3.613441561881250e+00
1	 1.382777281639109e+00	 3.588065786973459e-01	 3.221816180791181e+00
1	 1.374510249756393e+00	 3.892773319946374e-01	 2.825901442465594e+00
1	 1.365518180538822e+00	 4.197325810045940e-01	 2.426480483535149e+00
1	 1.355795824583439e+00	 4.501478303406597e-01	 2.024304946688207e+00
1	 1.345338983143448e+00	 4.804981001069037e-01	 1.620090057664774e+00
1	 1.334144548227396e+00	 5.107579795224063e-01	 1.214509821897566e+00
1	 1.322210539589158e+00	 5.409016840174555e-01	 8.081923887100843e-01
1	 1.309536138283946e+00	 5.709031156054665e-01	 4.017156312976801e-01
1	 1.296121716478273e+00	 6.007359263015425e-01	-4.397009600523583e-03
1	 1.411134000078413e+00	 3.008929929573673e-01	 3.801910261896651e+00
1	 1.404228941178191e+00	 3.316277608287755e-01	 3.426670023113154e+00
1	 1.396605206100602e+00	 3.623946838337244e-01	 3.046589781751826e+00
1	 1.388255502992416e+00	 3.931701480055892e-01	 2.662443227944451e+00
1	 1.379173512096488e+00	 4.239299528455067e-01	 2.274975022064453e+00
1	 1.369353931515263e+00	 4.546493580103738e-01	 1.884895895733074e+00
1	 1.358792520514022e+00	 4.853031338025658e-01	 1.492877846768865e+00
1	 1.347486140021065e+00	 5.158656153305728e-01	 1.099549475160448e+00
1	 1.335432789987597e+00	 5.463107601761635e-01	 7.054915078291725e-01
1	 1.322631643279300e+00	 5.766122093700307e-01	 3.112325600289252e-01
1	 1.309083075784400e+00	 6.067433514445451e-01	-8.275481933143730e-02
1	 1.425105749465931e+00	 3.038721582881034e-01	 3.612837591217351e+00
1	 1.418132323031283e+00	 3.349112335281558e-01	 3.248548426057059e+00
1	 1.410433104749542e+00	 3.659827822722144e-01	 2.879676734678068e+00
1	 1.402000730570267e+00	 3.970629567499074e-01	 2.506960660516124e+00
1	 1.392828818163903e+00	 4.281273168513230e-01	 2.131106851760743e+00
1	 1.382912013138390e+00	 4.591508772772685e-01	 1.752785660450227e+00
1	 1.372246032771167e+00	 4.901081585288932e-01	 1.372626456384066e+00
1	 1.360827706910340e+00	 5.209732416045713e-01	 9.912131029796223e-01
1	 1.348655015704478e+00	 5.517198262380337e-01	 6.090796426656639e-01
1	 1.335727123829745e+00	 5.823212924777389e-01	 2.267062392541707e-01
1	 1.322044410896074e+00	 6.127507653738173e-01	-1.554845760689620e-01
1	 1.439077479292515e+00	 3.068513194477887e-01	 3.432366576727947e+00
1	 1.432035685419194e+00	 3.381947016305061e-01	 3.078703836897992e+00
1	 1.424260984039027e+00	 3.695708756872476e-01	 2.720714889604235e+00
1	 1.415745938904460e+00	 4.009557600442207e-01	 2.359102720558302e+00
1	 1.406484105113612e+00	 4.323246749808002e-01	 1.994536419076228e+00
1	 1.396470075779993e+00	 4.636523902420470e-01	 1.627646476681626e+00
1	 1.385699526193253e+00	 4.949131765282328e-01	 1.259020220988248e+00
1	 1.374169255121346e+00	 5.260808607279711e-01	 8.891974320025100e-01
1	 1.361877222910231e+00	 5.571288847273165e-01	 5.186661882340661e-01
1	 1.348822586046562e+00	 5.880303675928577e-01	 1.478589896236611e-01
1	 1.335005727861969e+00	 6.187581708928535e-01	-2.228507967389465e-01
1	 1.453049196078406e+00	 3.098304778267026e-01	 3.260128609327952e+00
1	 1.445939034830253e+00	 3.414781666681055e-01	 2.916777673299125e+00
1	 1.438088850422154e+00	 3.731589657532558e-01	 2.569356032859945e+00
1	 1.429491134409508e+00	 4.048485597051586e-01	 2.218531896202863e+00
1	 1.420139379318163e+00	 4.365220291926967e-01	 1.864937236733995e+00
1	 1.410028125767245e+00	 4.681538990054123e-01	 1.509163192594359e+00
1	 1.399153007058650e+00	 4.997181900429310e-01	 1.151755621519595e+00
1	 1.387510790880210e+00	 5.311884750843423e-01	 7.932108581594596e-01
1	 1.375099417775286e+00	 5.625379381682628e-01	 4.339717210110074e-01
1	 1.361918036041029e+00	 5.937394373796537e-01	 7.442381551581184e-02
1	 1.347967032730759e+00	 6.247655708051465e-01	-2.851078213960702e-01
1	 1.467020906343844e+00	 3.128096348151254e-01	 3.095769130096866e+00
1	 1.459842377752788e+00	 3.447616301732324e-01	 2.762425020763740e+00
1	 1.451916710352021e+00	 3.767470541446709e-01	 2.425265223216606e+00
1	 1.443236323499923e+00	 4.087413575493496e-01	 2.084923539902721e+00
1	 1.433794647150103e+00	 4.407193814457703e-01	 1.741995261331214e+00
1	 1.423586169427317e+00	 4.726554056680671e-01	 1.397032667913324e+00
1	 1.412606481645731e+00	 5.045232013153349e-01	 1.050540706805907e+00
1	 1.400852320413059e+00	 5.362960870572544e-01	 7.029728908280981e-01
1	 1.388321606470075e+00	 5.679469890851228e-01	 3.547274663410507e-01
1	 1.375013479924427e+00	 5.994485045023932e-01	 6.143896156126871e-03
1	 1.360928331551120e+00	 6.307729679141900e-01	-3.425002979580050e-01
1	 1.480992616609070e+00	 3.157887918033364e-01	 2.938946967337621e+00
1	 1.473745720675130e+00	 3.480450936781657e-01	 2.615313987726757e+00
1	 1.465744570281727e+00	 3.803351425359247e-01	 2.288120165642640e+00
1	 1.456981512590223e+00	 4.126341553934235e-01	 1.957965261450510e+00
1	 1.447449914981977e+00	 4.449167336987789e-01	 1.625408306202433e+00
1	 1.437144213087383e+00	 4.771569123307148e-01	 1.290963207188618e+00
1	 1.426059956232863e+00	 5.093282125877910e-01	 9.550945477712682e-01
1	 1.414193849946018e+00	 5.414036990302772e-01	 6.182136284870278e-01
1	 1.401543795165028e+00	 5.733560400021475e-01	 2.806747960150933e-01
1	 1.388108923808035e+00	 6.051575716253428e-01	-5.722789443478316e-02
1	 1.373889630371724e+00	 6.367803650234781e-01	-3.952636394782967e-01
1	 1.494964333394326e+00	 3.187679501816155e-01	 2.789333710826629e+00
1	 1.487649070085608e+00	 3.513285587151836e-01	 2.475125096839903e+00
1	 1.479572436664370e+00	 3.839232326014490e-01	 2.157610620204919e+00
1	 1.470726708094918e+00	 4.165269550540093e-01	 1.837356355062447e+00
1	 1.461105189186332e+00	 4.491140879104804e-01	 1.514885487234244e+00
1	 1.450702263074612e+00	 4.816584210940578e-01	 1.190674024869227e+00
1	 1.439513437098418e+00	 5.141332261026461e-01	 8.651467222737546e-01
1	 1.427535385705215e+00	 5.465113133869804e-01	 5.386732637969153e-01
1	 1.414765990030577e+00	 5.787650934435867e-01	 2.115647540458486e-01
1	 1.401204373803133e+00	 6.108666414127690e-01	-1.159294405515034e-01
1	 1.386850935241248e+00	 6.427877649365041e-01	-4.436244557561996e-01
1	 1.508936063219851e+00	 3.217471113402418e-01	 2.646613120856798e+00
1	 1.501552432472550e+00	 3.546120268165655e-01	 2.341550710102730e+00
1	 1.493400315953049e+00	 3.875113260156757e-01	 2.033437843836519e+00
1	 1.484471916428524e+00	 4.204197583477359e-01	 1.722807258317459e+00
1	 1.474760476135717e+00	 4.533114460396327e-01	 1.410146699493874e+00
1	 1.464260325716179e+00	 4.861599340587995e-01	 1.095894740119746e+00
1	 1.452966930520765e+00	 5.189382441022472e-01	 7.804368285873233e-01
1	 1.440876933916774e+00	 5.516189325109339e-01	 4.641016162002048e-01
1	 1.427988197237152e+00	 5.841741519336919e-01	 1.471576088111231e-01
1	 1.414299836021000e+00	 6.165757165289386e-01	-1.701898127202959e-01
1	 1.399812252208365e+00	 6.487951704567616e-01	-4.878009609479414e-01
1	 1.522907812605887e+00	 3.247262766694958e-01	 2.510480569837309e+00
1	 1.515455814324286e+00	 3.578954995145896e-01	 2.214294485664023e+00
1	 1.507228214600859e+00	 3.910994244530367e-01	 1.915314062858338e+00
1	 1.498217144005554e+00	 4.243125670912325e-01	 1.614039040904233e+00
1	 1.488415782202676e+00	 4.575088100449939e-01	 1.310922122691067e+00
1	 1.477818407339255e+00	 4.906614533256427e-01	 1.006364899468418e+00
1	 1.466420442778276e+00	 5.237432688289406e-01	 7.007140256866977e-01
1	 1.454218500806824e+00	 5.567265587857070e-01	 3.942576902705742e-01
1	 1.441210422955184e+00	 5.895832179967133e-01	 8.722242987032558e-02
1	 1.427395316572917e+00	 6.222847996381182e-01	-2.202296720409188e-01
1	 1.412773587321749e+00	 6.548025843877445e-01	-5.280033587221502e-01
1	 1.536879588072675e+00	 3.277054475596566e-01	 2.380642514376634e+00
1	 1.529359222129145e+00	 3.611789783415347e-01	 2.093070864276632e+00
1	 1.521056139060902e+00	 3.946875295879635e-01	 1.802961974295993e+00
1	 1.511962397240521e+00	 4.282053831011283e-01	 1.510782921277769e+00
1	 1.502071113759757e+00	 4.617061818853215e-01	 1.216951753636994e+00
1	 1.491376514271011e+00	 4.951629809952903e-01	 9.218335255139899e-01
1	 1.479873980149320e+00	 5.285483025250732e-01	 6.257365986282842e-01
1	 1.467560092601489e+00	 5.618341945948696e-01	 3.289092581722805e-01
1	 1.454432673355103e+00	 5.949922941569014e-01	 3.153668788263986e-02
1	 1.440490821570163e+00	 6.279938934045739e-01	-2.662616524553066e-01
1	 1.425734946630075e+00	 6.608100095329462e-01	-5.644342063893961e-01
1	 1.296121716478273e+00	 6.007359263015425e-01	-4.397009600523527e-03
1	 1.281967848036833e+00	 6.303756502559339e-01	-4.163422583924751e-01
1	 1.267078280965017e+00	 6.597935335531179e-01	-8.399097193199265e-01
1	 1.251457107126304e+00	 6.889628711939321e-01	-1.274097197556890e+00
1	 1.235109686128581e+00	 7.178569865660782e-01	-1.717910593469627e+00
1	 1.218042652399525e+00	 7.464493056294462e-01	-2.170368049444231e+00
1	 1.200263917106523e+00	 7.747134321542246e-01	-2.630503986932462e+00
1	 1.181782664794757e+00	 8.026232235966543e-01	-3.097372998004035e+00
1	 1.162609344655126e+00	 8.301528671821563e-01	-3.570053556896817e+00
1	 1.142755656373624e+00	 8.572769557543545e-01	-4.047651518751320e+00
1	 1.122234530555182e+00	 8.839705629414819e-01	-4.529303374883839e+00
1	 1.309083075784400e+00	 6.067433514445451e-01	-8.275481933143719e-02
1	 1.294787667106306e+00	 6.366794758887820e-01	-4.826537451199105e-01
1	 1.279749202730872e+00	 6.663915412449152e-01	-8.942334036841748e-01
1	 1.263971815440652e+00	 6.958525754608674e-01	-1.316530681693558e+00
1	 1.247460918440193e+00	 7.250356351552959e-01	-1.748590218736234e+00
1	 1.230223212502171e+00	 7.539138805447811e-01	-2.189468391602756e+00
1	 1.212266687906508e+00	 7.824606514343239e-01	-2.638237189426453e+00
1	 1.193600621044838e+00	 8.106495438518657e-01	-3.093987945247012e+00
1	 1.174235565601107e+00	 8.384544868922558e-01	-3.555834890774762e+00
1	 1.154183338259446e+00	 8.658498193247729e-01	-4.022918502819233e+00
1	 1.133456998932246e+00	 8.928103655112042e-01	-4.494408611990064e+00
1	 1.322044410896074e+00	 6.127507653738173e-01	-1.554845760689621e-01
1	 1.307607462245575e+00	 6.429832897546267e-01	-5.436594436091399e-01
1	 1.292420100844492e+00	 6.729895366205751e-01	-9.435650376591695e-01
1	 1.276486500394384e+00	 7.027422668671673e-01	-1.354277656219216e+00
1	 1.259812127696359e+00	 7.322142703445174e-01	-1.774881043417846e+00
1	 1.242403749867965e+00	 7.613784415263900e-01	-2.204470207135604e+00
1	 1.224269436301516e+00	 7.902078562530934e-01	-2.642155127788896e+00
1	 1.205418555234924e+00	 8.186758491247561e-01	-3.087064325157281e+00
1	 1.185861764844993e+00	 8.467560911061389e-01	-3.538348251360017e+00
1	 1.165610998813772e+00	 8.744226668926508e-01	-3.995182479770410e+00
1	 1.144679446360872e+00	 9.016501515800983e-01	-4.456770661778259e+00
1	 1.335005727861969e+00	 6.187581708928535e-01	-2.228507967389471e-01
1	 1.320427239437255e+00	 6.492870947952859e-01	-5.996107092869114e-01
1	 1.305090981219005e+00	 6.795875227591991e-01	-9.881430327046341e-01
1	 1.289001167827722e+00	 7.096319486280581e-01	-1.387563792671289e+00
1	 1.272163319661003e+00	 7.393928954838045e-01	-1.796996188849294e+00
1	 1.254584270181177e+00	 7.688429920577627e-01	-2.215574241780603e+00
1	 1.236272167892840e+00	 7.979550502259156e-01	-2.642446330918229e+00
1	 1.217236472880059e+00	 8.267021431609495e-01	-3.076778592030470e+00
1	 1.197487947812345e+00	 8.550576836978963e-01	-3.517758143454293e+00
1	 1.177038643369505e+00	 8.829955024586523e-01	-3.964596112357625e+00
1	 1.155901878078191e+00	 9.104899252733928e-01	-4.416530434273542e+00
1	 1.347967032730759e+00	 6.247655708051465e-01	-2.851078213960700e-01
1	 1.333247004663966e+00	 6.555908939525751e-01	-6.507492275446664e-01
1	 1.317761849767537e+00	 6.861855027398904e-01	-1.028196628725996e+00
1	 1.301515823580887e+00	 7.165216239587651e-01	-1.416606081674388e+00
1	 1.284514500098049e+00	 7.465715139232197e-01	-1.815140578801628e+00
1	 1.266764779126081e+00	 7.763075356223882e-01	-2.222973520345938e+00
1	 1.248274888281778e+00	 8.057022369681759e-01	-2.639292077308430e+00
1	 1.229054379495284e+00	 8.347284297060696e-01	-3.063300414805637e+00
1	 1.209114119928721e+00	 8.633592685416175e-01	-3.494222746728135e+00
1	 1.188466277259546e+00	 8.915683300234398e-01	-3.931306194281346e+00
1	 1.167124299321332e+00	 9.193296907163157e-01	-4.373823423074351e+00
1	 1.360928331551120e+00	 6.307729679141900e-01	-3.425002979580044e-01
1	 1.346066763908323e+00	 6.618946901683121e-01	-6.973074743272325e-01
1	 1.330432712403213e+00	 6.927834796417507e-01	-1.063946330916418e+00
1	 1.314030473494097e+00	 7.234112960745130e-01	-1.441613246409541e+00
1	 1.296865674771423e+00	 7.537501290128256e-01	-1.829511329926338e+00
1	 1.278945282386943e+00	 7.837720757037558e-01	-2.226853714449784e+00
1	 1.260277603069626e+00	 8.134494200952568e-01	-2.632866740375224e+00
1	 1.240872280595642e+00	 8.427547125057406e-01	-3.046793000239050e+00
1	 1.220740286619681e+00	 8.716608495113923e-01	-3.467894216972240e+00
1	 1.199893905816797e+00	 9.001411535876770e-01	-3.895453929716210e+00
1	 1.178346715327428e+00	 9.281694520340954e-01	-4.328779963318844e+00
1	 1.373889630371724e+00	 6.367803650234781e-01	-3.952636394782973e-01
1	 1.358886523152945e+00	 6.681984863843136e-01	-7.395091506284673e-01
1	 1.343103575039161e+00	 6.993814565438822e-01	-1.095604321850983e+00
1	 1.326545123407574e+00	 7.303009681905276e-01	-1.462786132659539e+00
1	 1.309216849445051e+00	 7.609287441026844e-01	-1.840298120080247e+00
1	 1.291125785648038e+00	 7.912366157853546e-01	-2.227393489426667e+00
1	 1.272280317857678e+00	 8.211966032225428e-01	-2.623338114218623e+00
1	 1.252690181696174e+00	 8.507809953055863e-01	-3.027413397769442e+00
1	 1.232366453310785e+00	 8.799624304813104e-01	-3.438918970282385e+00
1	 1.211321534374162e+00	 9.087139771520272e-01	-3.857175197001963e+00
1	 1.189569131333609e+00	 9.370092133519605e-01	-4.281525475036745e+00
1	 1.386850935241248e+00	 6.427877649365041e-01	-4.436244557561992e-01
1	 1.371706288380448e+00	 6.745022855423962e-01	-7.775695926018058e-01
1	 1.355774443588506e+00	 7.059794365253866e-01	-1.123374850452975e+00
1	 1.339059779161538e+00	 7.371906435220346e-01	-1.480318076964153e+00
1	 1.321568029882856e+00	 7.681073625428583e-01	-1.847683535979105e+00
1	 1.303306294593635e+00	 7.987011593506748e-01	-2.224764831764537e+00
1	 1.284283038247231e+00	 8.289437899654170e-01	-2.610867721103225e+00
1	 1.264508088311923e+00	 8.588072818512308e-01	-3.005312787273712e+00
1	 1.243992625427591e+00	 8.882640153254620e-01	-3.407437951295274e+00
1	 1.222749168264542e+00	 9.172868047171535e-01	-3.816600797535221e+00
1	 1.200791552577006e+00	 9.458489787951391e-01	-4.232180692843773e+00
1	 1.399812252208365e+00	 6.487951704567616e-01	-4.878009609479409e-01
1	 1.384526065573450e+00	 6.808060905843768e-01	-8.116961588679370e-01
1	 1.368445323964375e+00	 7.125774226653668e-01	-1.147454599333001e+00
1	 1.351574446596209e+00	 7.440803252842588e-01	-1.494395254305078e+00
1	 1.333919221848763e+00	 7.752859876834094e-01	-1.851843401520821e+00
1	 1.315486814908005e+00	 8.061657098832048e-01	-2.219133358335831e+00
1	 1.296285769839580e+00	 8.366909839392637e-01	-2.595611101841623e+00
1	 1.276326005957931e+00	 8.668335758882978e-01	-2.980636750822717e+00
1	 1.255618808395660e+00	 8.965656079179360e-01	-3.373586886509589e+00
1	 1.234176812820839e+00	 9.258596402837190e-01	-3.773856690822405e+00
1	 1.212013984294751e+00	 9.546887524888598e-01	-4.180861882864582e+00
1	 1.412773587321749e+00	 6.548025843877445e-01	-5.280033587221502e-01
1	 1.397345860714569e+00	 6.871099044520724e-01	-8.420885964850193e-01
1	 1.381116222079894e+00	 7.191754180429248e-01	-1.168033031890753e+00
1	 1.364089131551809e+00	 7.509700166924258e-01	-1.505197006636278e+00
1	 1.346270431106699e+00	 7.824646228744004e-01	-1.852947088020977e+00
1	 1.327667352275420e+00	 8.136302708664346e-01	-2.210658608592267e+00
1	 1.308288518236020e+00	 8.444381887594662e-01	-2.577718090180348e+00
1	 1.288143940149242e+00	 8.748598811624115e-01	-2.953525529465383e+00
1	 1.267245007640550e+00	 9.048672121328237e-01	-3.337496523651549e+00
1	 1.245604473375955e+00	 9.344324878523876e-01	-3.729064216583177e+00
1	 1.223236431723973e+00	 9.635285385583509e-01	-4.127681047704922e+00
1	 1.425734946630075e+00	 6.608100095329462e-01	-5.644342063893961e-01
1	 1.410165679786421e+00	 6.934137300872995e-01	-8.689393869403910e-01
1	 1.393787143848190e+00	 7.257734257371631e-01	-1.185292720468256e+00
1	 1.376603839868557e+00	 7.578597209617606e-01	-1.512896153479842e+00
1	 1.358621663420585e+00	 7.896432714658930e-01	-1.851157807512331e+00
1	 1.339847912380150e+00	 8.210948457838531e-01	-2.199494320808809e+00
1	 1.320291289037849e+00	 8.521854080414092e-01	-2.557333072206791e+00
1	 1.299961896400895e+00	 8.828862014191952e-01	-2.924114265995211e+00
1	 1.278871228587822e+00	 9.131688318442138e-01	-3.299292857973040e+00
1	 1.257032155262793e+00	 9.430053514238217e-01	-3.682340304729158e+00
1	 1.234458900101805e+00	 9.723683411288404e-01	-4.072746120234421e+00
1	 1.122234530555182e+00	 8.839705629414819e-01	-4.529303374883839e+00
1	 1.101060100629861e+00	 9.102093196591319e-01	-5.015594945412103e+00
1	 1.079247663196073e+00	 9.359694939558444e-01	-5.506789746009201e+00
1	 1.056813651966454e+00	 9.612280539843321e-01	-6.001548624040055e+00
1	 1.033775600453680e+00	 9.859627334580974e-01	-6.498514828846115e+00
1	 1.010152096705643e+00	 1.010152096705644e+00	-6.996320437141870e+00
1	 9.859627334580970e-01	 1.033775600453680e+00	-7.493592873203832e+00
1	 9.612280539843319e-01	 1.056813651966455e+00	-7.988961469896508e+00
1	 9.359694939558441e-01	 1.079247663196073e+00	-8.481064016023710e+00
1	 9.102093196591318e-01	 1.101060100629861e+00	-8.968553235643375e+00
1	 8.839705629414819e-01	 1.122234530555182e+00	-9.450103145844023e+00
1	 1.133456998932246e+00	 8.928103655112042e-01	-4.494408611990064e+00
1	 1.112070822385416e+00	 9.193115126736295e-01	-4.970797064269258e+00
1	 1.090040258185034e+00	 9.453292915384648e-01	-5.452257159582007e+00
1	 1.067381904382676e+00	 9.708404399374153e-01	-5.937486818487516e+00
1	 1.044113469828073e+00	 9.958224689186665e-01	-6.425165123308234e+00
1	 1.020253728451648e+00	 1.020253728451648e+00	-6.913958629619184e+00
1	 9.958224689186663e-01	 1.044113469828074e+00	-7.402527782136452e+00
1	 9.708404399374146e-01	 1.067381904382677e+00	-7.889533381732982e+00
1	 9.453292915384641e-01	 1.090040258185035e+00	-8.373643049639185e+00
1	 9.193115126736290e-01	 1.112070822385416e+00	-8.853537634918673e+00
1	 8.928103655112043e-01	 1.133456998932246e+00	-9.327917512043129e+00
1	 1.144679446360872e+00	 9.016501515800983e-01	-4.456770661778259e+00
1	 1.123081523587785e+00	 9.284136886975023e-01	-4.923510601761320e+00
1	 1.100832833027974e+00	 9.546890716495984e-01	-5.395481142472259e+00
1	 1.077950137071642e+00	 9.804528079475135e-01	-5.871410995707062e+00
1	 1.054451319905255e+00	 1.005682185974534e+00	-6.350008158764126e+00
1	 1.030355341341413e+00	 1.030355341341414e+00	-6.829966162013159e+00
1	 1.005682185974534e+00	 1.054451319905255e+00	-7.309970435777953e+00
1	 9.804528079475129e-01	 1.077950137071642e+00	-7.788704743433963e+00
1	 9.546890716495977e-01	 1.100832833027974e+00	-8.264857626778538e+00
1	 9.284136886975021e-01	 1.123081523587786e+00	-8.737128809594468e+00
1	 9.016501515800985e-01	 1.144679446360873e+00	-9.204235505897239e+00
1	 1.155901878078191e+00	 9.104899252733928e-01	-4.416530434273542e+00
1	 1.134092209375281e+00	 9.375158519784222e-01	-4.873863319424467e+00
1	 1.111625392761407e+00	 9.640488386571276e-01	-5.336573542013619e+00
1	 1.088518354965175e+00	 9.900651625003817e-01	-5.803414487163059e+00
1	 1.064789155509534e+00	 1.015541889226881e+00	-6.273116325655137e+00
1	 1.040456940089006e+00	 1.040456940089006e+00	-6.744392246794046e+00
1	 1.015541889226881e+00	 1.064789155509535e+00	-7.215944830727599e+00
1	 9.900651625003815e-01	 1.088518354965175e+00	-7.686472506797945e+00
1	 9.640488386571272e-01	 1.111625392761407e+00	-8.154676043418403e+00
1	 9.375158519784218e-01	 1.134092209375281e+00	-8.619265014615317e+00
1	 9.104899252733929e-01	 1.155901878078191e+00	-9.078964188738057e+00
1	 1.167124299321332e+00	 9.193296907163157e-01	-4.373823423074351e+00
1	 1.145102884886215e+00	 9.466180067640608e-01	-4.821978068661233e+00
1	 1.122417942421851e+00	 9.734085969289363e-01	-5.275641908070183e+00
1	 1.099086562995096e+00	 9.996775080817737e-01	-5.733587039590629e+00
1	 1.075126981465220e+00	 1.025401583276890e+00	-6.194559235737713e+00
1	 1.050558529408490e+00	 1.050558529408490e+00	-6.657284209875566e+00
1	 1.025401583276890e+00	 1.075126981465220e+00	-7.120474047604601e+00
1	 9.996775080817734e-01	 1.099086562995096e+00	-7.582833748651948e+00
1	 9.734085969289358e-01	 1.122417942421852e+00	-8.043067823646375e+00
1	 9.466180067640603e-01	 1.145102884886215e+00	-8.499886889531556e+00
1	 9.193296907163158e-01	 1.167124299321332e+00	-8.952014207487482e+00
1	 1.178346715327428e+00	 9.281694520340954e-01	-4.328779963318844e+00
1	 1.156113555258898e+00	 9.557201573020899e-01	-4.767973024591052e+00
1	 1.133210487045824e+00	 9.827683508329064e-01	-5.212789697706274e+00
1	 1.109654766093226e+00	 1.009289849177444e+00	-5.662014985720678e+00
1	 1.085464802596620e+00	 1.035261272725742e+00	-6.114403854422993e+00
1	 1.060660114013930e+00	 1.060660114013931e+00	-6.568687580472843e+00
1	 1.035261272725741e+00	 1.085464802596620e+00	-7.023580294693208e+00
1	 1.009289849177443e+00	 1.109654766093227e+00	-7.477785664935507e+00
1	 9.827683508329058e-01	 1.133210487045824e+00	-7.930003661234735e+00
1	 9.557201573020896e-01	 1.156113555258899e+00	-8.378937345027216e+00
1	 9.281694520340955e-01	 1.178346715327428e+00	-8.823299624030637e+00
1	 1.189569131333609e+00	 9.370092133519605e-01	-4.281525475036745e+00
1	 1.167124225631645e+00	 9.648223078401814e-01	-4.711961906652397e+00
1	 1.144003031669840e+00	 9.921281047369207e-01	-5.148116468261098e+00
1	 1.120222969191389e+00	 1.018902190273145e+00	-5.588781405332754e+00
1	 1.095802623728044e+00	 1.045120962174616e+00	-6.032714625618668e+00
1	 1.070761698619392e+00	 1.070761698619392e+00	-6.478646175869497e+00
1	 1.045120962174616e+00	 1.095802623728045e+00	-6.925284949115120e+00
1	 1.018902190273145e+00	 1.120222969191389e+00	-7.371325565119756e+00
1	 9.921281047369205e-01	 1.144003031669840e+00	-7.815455364523954e+00
1	 9.648223078401810e-01	 1.167124225631645e+00	-8.256361455876284e+00
1	 9.370092133519605e-01	 1.189569131333609e+00	-8.692737754254765e+00
1	 1.200791552577006e+00	 9.458489787951391e-01	-4.232180692843773e+00
1	 1.178134901142766e+00	 9.739244626260072e-01	-4.654054186824343e+00
1	 1.154795581330418e+00	 1.001487863008863e+00	-5.081718059587773e+00
1	 1.130791177221405e+00	 1.028514535854631e+00	-5.513966277269434e+00
1	 1.106140449683802e+00	 1.054980656224697e+00	-5.949553589564652e+00
1	 1.080863287938940e+00	 1.080863287938940e+00	-6.387202181427548e+00
1	 1.054980656224697e+00	 1.106140449683802e+00	-6.825608595691477e+00
1	 1.028514535854631e+00	 1.130791177221405e+00	-7.263450866939780e+00
1	 1.001487863008862e+00	 1.154795581330418e+00	-7.699395804399492e+00
1	 9.739244626260068e-01	 1.178134901142766e+00	-8.132106359906377e+00
1	 9.458489787951390e-01	 1.200791552577005e+00	-8.560249016121899e+00
1	 1.212013984294751e+00	 9.546887524888598e-01	-4.180861882864582e+00
1	 1.189145586930573e+00	 9.830266259072385e-01	-4.594355286270510e+00
1	 1.165588141064074e+00	 1.010847630016615e+00	-5.013686766159247e+00
1	 1.141359395115096e+00	 1.038126890407658e+00	-5.437646622998045e+00
1	 1.116478285288201e+00	 1.064840359477164e+00	-5.864980494116605e+00
1	 1.090964886686639e+00	 1.090964886686639e+00	-6.294396226148456e+00
1	 1.064840359477164e+00	 1.116478285288201e+00	-6.724571063643400e+00
1	 1.038126890407658e+00	 1.141359395115096e+00	-7.154159091419613e+00
1	 1.010847630016614e+00	 1.165588141064074e+00	-7.581798865161177e+00
1	 9.830266259072381e-01	 1.189145586930573e+00	-8.006121162580200e+00
1	 9.546887524888599e-01	 1.212013984294750e+00	-8.425756786188753e+00
1	 1.223236431723973e+00	 9.635285385583509e-01	-4.127681047704922e+00
1	 1.200156288133378e+00	 9.921288019315477e-01	-4.532966761149391e+00
1	 1.176380715907324e+00	 1.020207410128059e+00	-4.944111499692667e+00
1	 1.151927627804283e+00	 1.047739258417978e+00	-5.359896642263774e+00
1	 1.126816135365550e+00	 1.074700076533199e+00	-5.779052899898718e+00
1	 1.101066499576554e+00	 1.101066499576555e+00	-6.200267454071264e+00
1	 1.074700076533199e+00	 1.126816135365550e+00	-6.622191461271148e+00
1	 1.047739258417978e+00	 1.151927627804284e+00	-7.043447858171277e+00
1	 1.020207410128059e+00	 1.176380715907324e+00	-7.462639398099101e+00
1	 9.921288019315472e-01	 1.200156288133379e+00	-7.878356846833875e+00
1	 9.635285385583509e-01	 1.223236431723973e+00	-8.289187264031264e+00
1	 1.234458900101805e+00	 9.723683411288404e-01	-4.072746120234421e+00
1	 1.211167009889495e+00	 1.001230994946606e+00	-4.469986478281449e+00
1	 1.187173310896686e+00	 1.029567207711080e+00	-4.873077942896021e+00
1	 1.162495880220790e+00	 1.057351644371346e+00	-5.280787841336840e+00
1	 1.137154004740159e+00	 1.084559811993984e+00	-5.691826279716210e+00
1	 1.111168131322751e+00	 1.111168131322752e+00	-6.104853591773185e+00
1	 1.084559811993984e+00	 1.137154004740160e+00	-6.518488208739796e+00
1	 1.057351644371345e+00	 1.162495880220790e+00	-6.931314880950515e+00
1	 1.029567207711079e+00	 1.187173310896686e+00	-7.341893177603830e+00
1	 1.001230994946606e+00	 1.211167009889495e+00	-7.748766187836787e+00
1	 9.723683411288406e-01	 1.234458900101806e+00	-8.150469344069863e+00
1	 8.839705629414819e-01	 1.122234530555182e+00	-9.450103145844023e+00
1	 8.572769557543541e-01	 1.142755656373625e+00	-9.924009610717414e+00
1	 8.301528671821561e-01	 1.162609344655126e+00	-1.038871425058776e+01
1	 8.026232235966541e-01	 1.181782664794758e+00	-1.084313851914568e+01
1	 7.747134321542239e-01	 1.200263917106523e+00	-1.128622100334398e+01
1	 7.464493056294456e-01	 1.218042652399525e+00	-1.171692354364943e+01
1	 7.178569865660778e-01	 1.235109686128581e+00	-1.213423715575647e+01
1	 6.889628711939315e-01	 1.251457107126304e+00	-1.253718770406574e+01
1	 6.597935335531173e-01	 1.267078280965017e+00	-1.292484128078693e+01
1	 6.303756502559335e-01	 1.281967848036833e+00	-1.329630924861226e+01
1	 6.007359263015425e-01	 1.296121716478273e+00	-1.365075290944697e+01
1	 8.928103655112043e-01	 1.133456998932246e+00	-9.327917512043129e+00
1	 8.658498193247725e-01	 1.154183338259446e+00	-9.795032854626202e+00
1	 8.384544868922551e-01	 1.174235565601107e+00	-1.025327733164036e+01
1	 8.106495438518655e-01	 1.193600621044838e+00	-1.070159139178044e+01
1	 7.824606514343235e-01	 1.212266687906508e+00	-1.113892916466216e+01
1	 7.539138805447808e-01	 1.230223212502172e+00	-1.156426464470590e+01
1	 7.250356351552953e-01	 1.247460918440193e+00	-1.197659769993496e+01
1	 6.958525754608671e-01	 1.263971815440653e+00	-1.237495985447293e+01
1	 6.663915412449148e-01	 1.279749202730872e+00	-1.275841979688298e+01
1	 6.366794758887817e-01	 1.294787667106307e+00	-1.312608857041023e+01
1	 6.067433514445451e-01	 1.309083075784400e+00	-1.347712440558874e+01
1	 9.016501515800985e-01	 1.144679446360873e+00	-9.204235505897239e+00
1	 8.744226668926504e-01	 1.165610998813773e+00	-9.664375202038601e+00
1	 8.467560911061386e-01	 1.185861764844994e+00	-1.011590395535859e+01
1	 8.186758491247558e-01	 1.205418555234924e+00	-1.055779866795259e+01
1	 7.902078562530926e-01	 1.224269436301516e+00	-1.098904783863792e+01
1	 7.613784415263897e-01	 1.242403749867965e+00	-1.140865763320399e+01
1	 7.322142703445168e-01	 1.259812127696359e+00	-1.181565779657538e+01
1	 7.027422668671670e-01	 1.276486500394385e+00	-1.220910735604233e+01
1	 6.729895366205746e-01	 1.292420100844493e+00	-1.258810006787929e+01
1	 6.429832897546265e-01	 1.307607462245575e+00	-1.295176956339996e+01
1	 6.127507653738173e-01	 1.322044410896074e+00	-1.329929415472061e+01
1	 9.104899252733929e-01	 1.155901878078191e+00	-9.078964188738057e+00
1	 8.829955024586520e-01	 1.177038643369505e+00	-9.531915766442996e+00
1	 8.550576836978958e-01	 1.197487947812345e+00	-9.976452428135699e+00
1	 8.267021431609489e-01	 1.217236472880060e+00	-1.041160444950254e+01
1	 7.979550502259154e-01	 1.236272167892840e+00	-1.083641296216608e+01
1	 7.688429920577622e-01	 1.254584270181178e+00	-1.124993573591908e+01
1	 7.393928954838040e-01	 1.272163319661003e+00	-1.165125281350964e+01
1	 7.096319486280576e-01	 1.289001167827722e+00	-1.203947194936145e+01
1	 6.795875227591985e-01	 1.305090981219005e+00	-1.241373380659423e+01
1	 6.492870947952851e-01	 1.320427239437256e+00	-1.277321687023344e+01
1	 6.187581708928535e-01	 1.335005727861969e+00	-1.311714203849317e+01
1	 9.193296907163158e-01	 1.167124299321332e+00	-8.952014207487482e+00
1	 8.915683300234393e-01	 1.188466277259546e+00	-9.397538323238990e+00
1	 8.633592685416168e-01	 1.209114119928721e+00	-9.834786520093992e+00
1	 8.347284297060690e-01	 1.229054379495284e+00	-1.026285884996794e+01
1	 8.057022369681752e-01	 1.248274888281779e+00	-1.068086679955744e+01
1	 7.763075356223875e-01	 1.266764779126081e+00	-1.108793861295033e+01
1	 7.465715139232193e-01	 1.284514500098049e+00	-1.148322447115198e+01
1	 7.165216239587646e-01	 1.301515823580887e+00	-1.186590148397681e+01
1	 6.861855027398900e-01	 1.317761849767538e+00	-1.223517845255812e+01
1	 6.555908939525746e-01	 1.333247004663966e+00	-1.259030036403015e+01
1	 6.247655708051463e-01	 1.347967032730759e+00	-1.293055258366275e+01
1	 9.281694520340955e-01	 1.178346715327428e+00	-8.823299624030637e+00
1	 9.001411535876764e-01	 1.199893905816797e+00	-9.261131087901708e+00
1	 8.716608495113920e-01	 1.220740286619682e+00	-9.690775205121412e+00
1	 8.427547125057401e-01	 1.240872280595642e+00	-1.011141770858701e+01
1	 8.134494200952562e-01	 1.260277603069626e+00	-1.052225764157278e+01
1	 7.837720757037553e-01	 1.278945282386944e+00	-1.092251205177744e+01
1	 7.537501290128253e-01	 1.296865674771424e+00	-1.131142054046460e+01
1	 7.234112960745126e-01	 1.314030473494097e+00	-1.168824962802098e+01
1	 6.927834796417501e-01	 1.330432712403214e+00	-1.205229689989478e+01
1	 6.618946901683117e-01	 1.346066763908323e+00	-1.240289489993190e+01
1	 6.307729679141899e-01	 1.360928331551119e+00	-1.273941474154902e+01
1	 9.370092133519605e-01	 1.189569131333609e+00	-8.692737754254765e+00
1	 9.087139771520266e-01	 1.211321534374162e+00	-9.122586506713672e+00
1	 8.799624304813101e-01	 1.232366453310785e+00	-9.544292415635656e+00
1	 8.507809953055858e-01	 1.252690181696174e+00	-9.957142320504225e+00
1	 8.211966032225422e-01	 1.272280317857678e+00	-1.036043952150670e+01
1	 7.912366157853544e-01	 1.291125785648038e+00	-1.075350767864933e+01
1	 7.609287441026841e-01	 1.309216849445050e+00	-1.113569455803435e+01
1	 7.303009681905274e-01	 1.326545123407575e+00	-1.150637559429010e+01
1	 6.993814565438816e-01	 1.343103575039162e+00	-1.186495724061965e+01
1	 6.681984863843131e-01	 1.358886523152945e+00	-1.221088008073203e+01
1	 6.367803650234780e-01	 1.373889630371725e+00	-1.254362167998653e+01
1	 9.458489787951390e-01	 1.200791552577005e+00	-8.560249016121899e+00
1	 9.172868047171532e-01	 1.222749168264542e+00	-8.981801059240961e+00
1	 8.882640153254612e-01	 1.243992625427591e+00	-9.395216811110901e+00
1	 8.588072818512302e-01	 1.264508088311923e+00	-9.799899182117143e+00
1	 8.289437899654166e-01	 1.284283038247231e+00	-1.019527194720581e+01
1	 7.987011593506743e-01	 1.303306294593636e+00	-1.058078268617041e+01
1	 7.681073625428576e-01	 1.321568029882856e+00	-1.095590555714002e+01
1	 7.371906435220340e-01	 1.339059779161539e+00	-1.132014388169353e+01
1	 7.059794365253862e-01	 1.355774443588507e+00	-1.167303252234412e+01
1	 6.745022855423957e-01	 1.371706288380448e+00	-1.201414003565840e+01
1	 6.427877649365041e-01	 1.386850935241248e+00	-1.234307058695187e+01
1	 9.546887524888599e-01	 1.212013984294750e+00	-8.425756786188753e+00
1	 9.258596402837188e-01	 1.234176812820839e+00	-8.838675071792180e+00
1	 8.965656079179358e-01	 1.255618808395660e+00	-9.243431559475356e+00
1	 8.668335758882972e-01	 1.276326005957932e+00	-9.639559750582587e+00
1	 8.366909839392632e-01	 1.296285769839580e+00	-1.002661964798672e+01
1	 8.061657098832041e-01	 1.315486814908005e+00	-1.040419957603330e+01
1	 7.752859876834088e-01	 1.333919221848763e+00	-1.077191781377214e+01
1	 7.440803252842582e-01	 1.351574446596210e+00	-1.112942403108031e+01
1	 7.125774226653666e-01	 1.368445323964376e+00	-1.147640051945178e+01
1	 6.808060905843761e-01	 1.384526065573451e+00	-1.181256321145580e+01
1	 6.487951704567616e-01	 1.399812252208365e+00	-1.213766248510987e+01
1	 9.635285385583509e-01	 1.223236431723973e+00	-8.289187264031264e+00
1	 9.344324878523871e-01	 1.245604473375955e+00	-8.693112541154184e+00
1	 9.048672121328234e-01	 1.267245007640551e+00	-9.088824130551634e+00
1	 8.748598811624111e-01	 1.288143940149242e+00	-9.476000216571954e+00
1	 8.444381887594662e-01	 1.308288518236021e+00	-9.854352335496975e+00
1	 8.136302708664341e-01	 1.327667352275421e+00	-1.022362591592484e+01
1	 7.824646228744000e-01	 1.346270431106699e+00	-1.058360060664544e+01
1	 7.509700166924256e-01	 1.364089131551809e+00	-1.093409039451663e+01
1	 7.191754180429246e-01	 1.381116222079895e+00	-1.127494351688123e+01
1	 6.871099044520719e-01	 1.397345860714569e+00	-1.160604217497838e+01
1	 6.548025843877445e-01	 1.412773587321749e+00	-1.192730205657652e+01
1	 9.723683411288406e-01	 1.234458900101806e+00	-8.150469344069863e+00
1	 9.430053514238215e-01	 1.257032155262794e+00	-8.545020967950082e+00
1	 9.131688318442132e-01	 1.278871228587822e+00	-8.931286100773169e+00
1	 8.828862014191952e-01	 1.299961896400895e+00	-9.309101289431521e+00
1	 8.521854080414087e-01	 1.320291289037849e+00	-9.678344477630258e+00
1	 8.210948457838527e-01	 1.339847912380151e+00	-1.003893410970257e+01
1	 7.896432714658925e-01	 1.358621663420585e+00	-1.039082799031175e+01
1	 7.578597209617604e-01	 1.376603839868557e+00	-1.073402191715872e+01
1	 7.257734257371627e-01	 1.393787143848190e+00	-1.106854810571135e+01
1	 6.934137300872991e-01	 1.410165679786422e+00	-1.139447342655771e+01
1	 6.608100095329461e-01	 1.425734946630075e+00	-1.171189747724747e+01
1	 6.007359263015425e-01	 1.296121716478273e+00	-1.365075290944697e+01
1	 5.709031156054668e-01	 1.309536138283946e+00	-1.398689567694690e+01
1	 5.409016840174559e-01	 1.322210539589158e+00	-1.430406255106014e+01
1	 5.107579795224065e-01	 1.334144548227396e+00	-1.460231138058129e+01
1	 4.804981001069039e-01	 1.345338983143447e+00	-1.488173495603780e+01
1	 4.501478303406600e-01	 1.355795824583440e+00	-1.514246007304563e+01
1	 4.197325810045943e-01	 1.365518180538823e+00	-1.538464646986664e+01
1	 3.892773319946376e-01	 1.374510249756393e+00	-1.560848564934228e+01
1	 3.588065786973464e-01	 1.382777281639109e+00	-1.581419959594490e+01
1	 3.283442820000870e-01	 1.390325533371589e+00	-1.600203939912373e+01
1	 2.979138220653007e-01	 1.397162224609720e+00	-1.617228379442513e+01
1	 6.067433514445451e-01	 1.309083075784400e+00	-1.347712440558874e+01
1	 5.766122093700309e-01	 1.322631643279299e+00	-1.381024609366809e+01
1	 5.463107601761639e-01	 1.335432789987598e+00	-1.412487376038962e+01
1	 5.158656153305731e-01	 1.347486140021065e+00	-1.442120927693587e+01
1	 4.853031338025660e-01	 1.358792520514021e+00	-1.469948691970321e+01
1	 4.546493580103738e-01	 1.369353931515262e+00	-1.495997138586805e+01
1	 4.239299528455069e-01	 1.379173512096489e+00	-1.520295574679594e+01
1	 3.931701480055894e-01	 1.388255502992416e+00	-1.542875935594481e+01
1	 3.623946838337248e-01	 1.396605206100602e+00	-1.563772572742005e+01
1	 3.316277608287758e-01	 1.404228941178191e+00	-1.583022040069867e+01
1	 3.008929929573673e-01	 1.411134000078413e+00	-1.600662880626509e+01
1	 6.127507653738173e-01	 1.322044410896074e+00	-1.329929415472061e+01
1	 5.823212924777392e-01	 1.335727123829746e+00	-1.362941345740188e+01
1	 5.517198262380341e-01	 1.348655015704478e+00	-1.394163971678006e+01
1	 5.209732416045715e-01	 1.360827706910340e+00	-1.423629891227549e+01
1	 4.901081585288934e-01	 1.372246032771167e+00	-1.451374640022496e+01
1	 4.591508772772688e-01	 1.382912013138390e+00	-1.477436404564504e+01
1	 4.281273168513232e-01	 1.392828818163903e+00	-1.501855735157924e+01
1	 3.970629567499076e-01	 1.402000730570267e+00	-1.524675260788968e+01
1	 3.659827822722146e-01	 1.410433104749542e+00	-1.545939407991966e+01
1	 3.349112335281559e-01	 1.418132323031283e+00	-1.565694125585574e+01
1	 3.038721582881034e-01	 1.425105749465931e+00	-1.583986616990660e+01
1	 6.187581708928535e-01	 1.335005727861969e+00	-1.311714203849317e+01
1	 5.880303675928579e-01	 1.348822586046562e+00	-1.344429149889779e+01
1	 5.571288847273168e-01	 1.361877222910231e+00	-1.375426374978329e+01
1	 5.260808607279712e-01	 1.374169255121346e+00	-1.404748957267664e+01
1	 4.949131765282329e-01	 1.385699526193252e+00	-1.432442561023958e+01
1	 4.636523902420471e-01	 1.396470075779993e+00	-1.458555077540837e+01
1	 4.323246749808004e-01	 1.406484105113612e+00	-1.483136271403863e+01
1	 4.009557600442210e-01	 1.415745938904460e+00	-1.506237434688014e+01
1	 3.695708756872477e-01	 1.424260984039027e+00	-1.527911051443974e+01
1	 3.381947016305064e-01	 1.432035685419194e+00	-1.548210474586769e+01
1	 3.068513194477885e-01	 1.439077479292515e+00	-1.567189617046858e+01
1	 6.247655708051463e-01	 1.347967032730759e+00	-1.293055258366275e+01
1	 5.937394373796542e-01	 1.361918036041030e+00	-1.325477806176045e+01
1	 5.625379381682628e-01	 1.375099417775286e+00	-1.356265293270076e+01
1	 5.311884750843425e-01	 1.387510790880210e+00	-1.385469405865368e+01
1	 4.997181900429311e-01	 1.399153007058650e+00	-1.413144016378952e+01
1	 4.681538990054125e-01	 1.410028125767245e+00	-1.439344767927274e+01
1	 4.365220291926969e-01	 1.420139379318163e+00	-1.464128669394327e+01
1	 4.048485597051587e-01	 1.429491134409507e+00	-1.487553703924370e+01
1	 3.731589657532560e-01	 1.438088850422154e+00	-1.509678453396596e+01
1	 3.414781666681058e-01	 1.445939034830253e+00	-1.530561741125742e+01
1	 3.098304778267026e-01	 1.453049196078406e+00	-1.550262294710788e+01
1	 6.307729679141899e-01	 1.360928331551119e+00	-1.273941474154902e+01
1	 5.994485045023934e-01	 1.375013479924427e+00	-1.306077490726419e+01
1	 5.679469890851232e-01	 1.388321606470075e+00	-1.336671790497050e+01
1	 5.362960870572546e-01	 1.400852320413059e+00	-1.365782851844862e+01
1	 5.045232013153351e-01	 1.412606481645730e+00	-1.393470891496726e+01
1	 4.726554056680674e-01	 1.423586169427317e+00	-1.419797408201085e+01
1	 4.407193814457706e-01	 1.433794647150102e+00	-1.444824741821426e+01
1	 4.087413575493499e-01	 1.443236323499923e+00	-1.468615650858378e+01
1	 3.767470541446711e-01	 1.451916710352021e+00	-1.491232911048786e+01
1	 3.447616301732327e-01	 1.459842377752788e+00	-1.512738937318272e+01
1	 3.128096348151254e-01	 1.467020906343844e+00	-1.533195430984884e+01
1	 6.367803650234780e-01	 1.373889630371725e+00	-1.254362167998653e+01
1	 6.051575716253430e-01	 1.388108923808035e+00	-1.286218753022492e+01
1	 5.733560400021477e-01	 1.401543795165028e+00	-1.316637270461669e+01
1	 5.414036990302774e-01	 1.414193849946018e+00	-1.345681229076518e+01
1	 5.093282125877912e-01	 1.426059956232863e+00	-1.373415380570020e+01
1	 4.771569123307149e-01	 1.437144213087382e+00	-1.399905237771658e+01
1	 4.449167336987791e-01	 1.447449914981977e+00	-1.425216612735317e+01
1	 4.126341553934238e-01	 1.456981512590223e+00	-1.449415177791025e+01
1	 3.803351425359250e-01	 1.465744570281728e+00	-1.472566052181386e+01
1	 3.480450936781660e-01	 1.473745720675131e+00	-1.494733416494026e+01
1	 3.157887918033364e-01	 1.480992616609070e+00	-1.515980156678877e+01
1	 6.427877649365041e-01	 1.386850935241248e+00	-1.234307058695187e+01
1	 6.108666414127693e-01	 1.401204373803133e+00	-1.265892498520632e+01
1	 5.787650934435871e-01	 1.414765990030577e+00	-1.296153461010172e+01
1	 5.465113133869809e-01	 1.427535385705215e+00	-1.325156775632871e+01
1	 5.141332261026464e-01	 1.439513437098417e+00	-1.352969972207801e+01
1	 4.816584210940583e-01	 1.450702263074612e+00	-1.379660788696173e+01
1	 4.491140879104806e-01	 1.461105189186332e+00	-1.405296703048817e+01
1	 4.165269550540095e-01	 1.470726708094918e+00	-1.429944492063100e+01
1	 3.839232326014494e-01	 1.479572436664371e+00	-1.453669819754349e+01
1	 3.513285587151840e-01	 1.487649070085608e+00	-1.476536857292534e+01
1	 3.187679501816154e-01	 1.494964333394326e+00	-1.498607936100174e+01
1	 6.487951704567616e-01	 1.399812252208365e+00	-1.213766248510987e+01
1	 6.165757165289388e-01	 1.414299836021000e+00	-1.245089972238787e+01
1	 5.841741519336923e-01	 1.427988197237152e+00	-1.275212399097174e+01
1	 5.516189325109340e-01	 1.440876933916775e+00	-1.304202019769917e+01
1	 5.189382441022474e-01	 1.452966930520765e+00	-1.332127435866880e+01
1	 4.861599340587998e-01	 1.464260325716178e+00	-1.359056872189436e+01
1	 4.533114460396329e-01	 1.474760476135716e+00	-1.385057716848060e+01
1	 4.204197583477361e-01	 1.484471916428524e+00	-1.410196091982782e+01
1	 3.875113260156759e-01	 1.493400315953048e+00	-1.434536457360433e+01
1	 3.546120268165657e-01	 1.501552432472550e+00	-1.458141248643472e+01
1	 3.217471113402418e-01	 1.508936063219851e+00	-1.481070551651041e+01
1	 6.548025843877445e-01	 1.412773587321749e+00	-1.192730205657652e+01
1	 6.222847996381184e-01	 1.427395316572917e+00	-1.223802743247626e+01
1	 5.895832179967134e-01	 1.441210422955183e+00	-1.253806416673037e+01
1	 5.567265587857072e-01	 1.454218500806824e+00	-1.282809766680800e+01
1	 5.237432688289408e-01	 1.466420442778276e+00	-1.310880809030913e+01
1	 4.906614533256430e-01	 1.477818407339254e+00	-1.338086565876964e+01
1	 4.575088100449941e-01	 1.488415782202676e+00	-1.364492628457244e+01
1	 4.243125670912327e-01	 1.498217144005554e+00	-1.390162753528528e+01
1	 3.910994244530369e-01	 1.507228214600860e+00	-1.415158495480257e+01
1	 3.578954995145898e-01	 1.515455814324286e+00	-1.439538875574391e+01
1	 3.247262766694958e-01	 1.522907812605887e+00	-1.463360089274328e+01
1	 6.608100095329461e-01	 1.425734946630075e+00	-1.171189747724747e+01
1	 6.279938934045742e-01	 1.440490821570162e+00	-1.202022690008204e+01
1	 5.949922941569017e-01	 1.454432673355103e+00	-1.231928127341604e+01
1	 5.618341945948699e-01	 1.467560092601490e+00	-1.260973085972488e+01
1	 5.285483025250735e-01	 1.479873980149320e+00	-1.289223385089372e+01
1	 4.951629809952906e-01	 1.491376514271011e+00	-1.316743201743848e+01
1	 4.617061818853219e-01	 1.502071113759757e+00	-1.343594670209522e+01
1	 4.282053831011286e-01	 1.511962397240521e+00	-1.369837517777783e+01
1	 3.946875295879637e-01	 1.521056139060901e+00	-1.395528738487638e+01
1	 3.611789783415348e-01	 1.529359222129144e+00	-1.420722305793171e+01
1	 3.277054475596566e-01	 1.536879588072675e+00	-1.445468924693706e+01
1	 2.979138220653007e-01	 1.397162224609720e+00	-1.617228379442513e+01
1	 2.675358372207115e-01	 1.403295895093266e+00	-1.632560159900297e+01
1	 2.372345848256142e-01	 1.408735044443937e+00	-1.646040140683489e+01
1	 2.070314979173397e-01	 1.413489491465140e+00	-1.657370680598564e+01
1	 1.769472809086950e-01	 1.417569818919275e+00	-1.666266605542909e+01
1	 1.470018830136218e-01	 1.420987321018450e+00	-1.672457053586280e+01
1	 1.172144755749144e-01	 1.423753950460095e+00	-1.675687117139281e+01
1	 8.760343321972207e-02	 1.425882265302377e+00	-1.675719279730647e+01
1	 5.818631874669211e-02	 1.427385375958748e+00	-1.672334647190728e+01
1	 2.897987162897944e-02	 1.428276892573984e+00	-1.665333975150294e+01
1	 0.000000000000000e+00	 1.428570873025926e+00	-1.654538496695089e+01
1	 3.008929929573673e-01	 1.411134000078413e+00	-1.600662880626509e+01
1	 2.702112249327637e-01	 1.417329007939364e+00	-1.616757463789247e+01
1	 2.396069566905304e-01	 1.422822549379909e+00	-1.631117881310691e+01
1	 2.091018356007427e-01	 1.427624541392580e+00	-1.643420060163670e+01
1	 1.787167731226268e-01	 1.431745672568571e+00	-1.653352252889651e+01
1	 1.484719179644715e-01	 1.435197350063360e+00	-1.660617106073218e+01
1	 1.183866331846205e-01	 1.437991646102674e+00	-1.664933512332587e+01
1	 8.847947715852815e-02	 1.440141244326646e+00	-1.666038242377065e+01
1	 5.876818831477241e-02	 1.441659386254313e+00	-1.663687356172897e+01
1	 2.926967352309260e-02	 1.442559818133399e+00	-1.657657394579257e+01
1	 0.000000000000000e+00	 1.442856738422074e+00	-1.647746354946200e+01
1	 3.038721582881034e-01	 1.425105749465931e+00	-1.583986616990660e+01
1	 2.728866076504773e-01	 1.431362094589756e+00	-1.600871660377120e+01
1	 2.419793241266670e-01	 1.436910028018619e+00	-1.616132233014254e+01
1	 2.111721694191012e-01	 1.441759564933991e+00	-1.629419934074866e+01
1	 1.804862620330458e-01	 1.445921499755662e+00	-1.640398498062305e+01
1	 1.499419501707722e-01	 1.449407352582267e+00	-1.648746076523870e+01
1	 1.195587886058231e-01	 1.452229315167604e+00	-1.654157290668176e+01
1	 8.935551946162196e-02	 1.454400196733541e+00	-1.656345050483348e+01
1	 5.935005679635611e-02	 1.455933369904449e+00	-1.655042138647978e+01
1	 2.955947487604350e-02	 1.456842717030745e+00	-1.650002560045531e+01
1	 0.000000000000000e+00	 1.457142577150667e+00	-1.641002660012516e+01
1	 3.068513194477885e-01	 1.439077479292515e+00	-1.567189617046858e+01
1	 2.755619866223831e-01	 1.445395161593315e+00	-1.584892665559557e+01
1	 2.443516882411685e-01	 1.450997486934333e+00	-1.601073135308850e+01
1	 2.132425003386314e-01	 1.455894568685836e+00	-1.615360340611166e+01
1	 1.822557484657930e-01	 1.460097307096061e+00	-1.627395493333661e+01
1	 1.514119803186323e-01	 1.463617335206642e+00	-1.636834187891483e+01
1	 1.207309423856277e-01	 1.466466964299278e+00	-1.643348645478542e+01
1	 9.023156053791902e-02	 1.468659129177393e+00	-1.646629712191465e+01
1	 5.993192446306135e-02	 1.470207333570505e+00	-1.646388608595373e+01
1	 2.984927582312111e-02	 1.471125595931537e+00	-1.642358430987281e+01
1	 0.000000000000000e+00	 1.471428395878593e+00	-1.634295407113215e+01
1	 3.098304778267026e-01	 1.453049196078406e+00	-1.550262294710788e+01
1	 2.782373630970130e-01	 1.459428215498915e+00	-1.568810784845754e+01
1	 2.467240501411798e-01	 1.465084932701314e+00	-1.585930916292127e+01
1	 2.153128293255497e-01	 1.470029559244577e+00	-1.601231702711690e+01
1	 1.840252332467091e-01	 1.474273101205284e+00	-1.614333771124544e+01
1	 1.528820090941602e-01	 1.477827304567958e+00	-1.624872040426379e+01
1	 1.219030950711398e-01	 1.480704600142087e+00	-1.632498148394116e+01
1	 9.110760079633477e-02	 1.482918048312530e+00	-1.636882620918677e+01
1	 6.051379158650618e-02	 1.484481283913834e+00	-1.637716780276670e+01
1	 3.013907649961434e-02	 1.485408461501292e+00	-1.634714392137703e+01
1	 0.000000000000000e+00	 1.485714201272741e+00	-1.627613053676789e+01
1	 3.128096348151254e-01	 1.467020906343844e+00	-1.533195430984884e+01
1	 2.809127383228978e-01	 1.473461262855427e+00	-1.552616694837337e+01
1	 2.490964109338452e-01	 1.479172371893830e+00	-1.570696274169633e+01
1	 2.173831573460730e-01	 1.484164543206676e+00	-1.587024809684719e+01
1	 1.857947172016352e-01	 1.488448888698843e+00	-1.601204225925198e+01
1	 1.543520371834640e-01	 1.492037267297686e+00	-1.612850593730598e+01
1	 1.230752472094646e-01	 1.494942229340423e+00	-1.621596731347421e+01
1	 9.198364064578483e-02	 1.497176960793287e+00	-1.627094537026242e+01
1	 6.109565843830880e-02	 1.498755227595788e+00	-1.629017049185932e+01
1	 3.042887704081213e-02	 1.499691320405524e+00	-1.627060233279669e+01
1	 0.000000000000000e+00	 1.500000000000000e+00	-1.620944497332433e+01
1	 3.157887918033364e-01	 1.480992616609070e+00	-1.515980156678877e+01
1	 2.835881135485694e-01	 1.487494310211727e+00	-1.536301425756469e+01
1	 2.514687717263093e-01	 1.493259811086144e+00	-1.555360259826357e+01
1	 2.194534853664175e-01	 1.498299527168598e+00	-1.572730799952994e+01
1	 1.875642011564121e-01	 1.502624676192253e+00	-1.587998097240934e+01
1	 1.558220652726521e-01	 1.506247230027299e+00	-1.600761149829096e+01
1	 1.242473993477078e-01	 1.509179858538677e+00	-1.610635669596748e+01
1	 9.285968049518474e-02	 1.511435873273994e+00	-1.617256570526588e+01
1	 6.167752529008724e-02	 1.513029171277717e+00	-1.620280174079180e+01
1	 3.071867758200346e-02	 1.513974179309750e+00	-1.619386130147328e+01
1	 0.000000000000000e+00	 1.514285798727260e+00	-1.614279055148261e+01
1	 3.187679501816154e-01	 1.494964333394326e+00	-1.498607936100174e+01
1	 2.862634900225589e-01	 1.501527364116686e+00	-1.519856344954521e+01
1	 2.538411336257165e-01	 1.507347256852522e+00	-1.539914260376418e+01
1	 2.215238143527998e-01	 1.512434517726803e+00	-1.558341144767343e+01
1	 1.893336859368808e-01	 1.516800470301028e+00	-1.574706953494802e+01
1	 1.572920940478327e-01	 1.520457199388267e+00	-1.588595337191104e+01
1	 1.254195520329748e-01	 1.523417494381241e+00	-1.599606565702546e+01
1	 9.373572075344996e-02	 1.525694792408982e+00	-1.607360164761067e+01
1	 6.225939241345967e-02	 1.527303121620974e+00	-1.611497260012420e+01
1	 3.100847825847722e-02	 1.528257044879485e+00	-1.611682626399546e+01
1	 0.000000000000000e+00	 1.528571604121408e+00	-1.607606444034745e+01
1	 3.217471113402418e-01	 1.508936063219851e+00	-1.481070551651041e+01
1	 2.889388689933977e-01	 1.515560431119178e+00	-1.503273141337651e+01
1	 2.562134977392116e-01	 1.521434715767229e+00	-1.524349983627409e+01
1	 2.235941452714363e-01	 1.526569521477754e+00	-1.543847632825853e+01
1	 1.911031723688823e-01	 1.530976277640682e+00	-1.561322676825356e+01
1	 1.587621241951142e-01	 1.534667182012064e+00	-1.576345095639887e+01
1	 1.265917058123708e-01	 1.537655143512507e+00	-1.588501334394741e+01
1	 9.461176182949604e-02	 1.539953724852582e+00	-1.597397080985138e+01
1	 6.284126008004413e-02	 1.541577085286909e+00	-1.602659742322792e+01
1	 3.129827920552237e-02	 1.542539923780245e+00	-1.603940616595634e+01
1	 0.000000000000000e+00	 1.542857422849333e+00	-1.600916762237745e+01
1	 3.247262766694958e-01	 1.522907812605887e+00	-1.463360089274328e+01
1	 2.916142517096169e-01	 1.529593517768076e+00	-1.486543810650438e+01
1	 2.585858651739391e-01	 1.535522194404530e+00	-1.508659443400593e+01
1	 2.256644790885433e-01	 1.540704545017914e+00	-1.529242355740417e+01
1	 1.928726612782574e-01	 1.545152104826729e+00	-1.547837448721923e+01
1	 1.602321564006049e-01	 1.548877184530161e+00	-1.564002662093843e+01
1	 1.277638612330015e-01	 1.551892812576865e+00	-1.577312188273801e+01
1	 9.548780413223854e-02	 1.554212677259125e+00	-1.587359383802892e+01
1	 6.342312856145879e-02	 1.555851068936875e+00	-1.593759371492207e+01
1	 3.158808055842786e-02	 1.556822822677546e+00	-1.596151330109012e+01
1	 0.000000000000000e+00	 1.557143261577926e+00	-1.594200471851109e+01
1	 3.277054475596566e-01	 1.536879588072675e+00	-1.445468924693707e+01
1	 2.942896394197481e-01	 1.543626630612252e+00	-1.469660641562844e+01
1	 2.609582370370435e-01	 1.549609699338690e+00	-1.492834945652489e+01
1	 2.277348167703377e-01	 1.554839594943745e+00	-1.514517694296628e+01
1	 1.946421534908471e-01	 1.559327958474682e+00	-1.534243736444004e+01
1	 1.617021913504131e-01	 1.563087213574030e+00	-1.551560557085973e+01
1	 1.289360188419721e-01	 1.566130508218708e+00	-1.566031624292259e+01
1	 9.636384807059289e-02	 1.568471656282942e+00	-1.577239427396607e+01
1	 6.400499812932171e-02	 1.570125079232223e+00	-1.584788198837297e+01
1	 3.187788245248261e-02	 1.571105748236902e+00	-1.588306315918975e+01
1	 0.000000000000000e+00	 1.571429126974074e+00	-1.587448382283933e+01
1	 1.571429126974074e+00	 0.000000000000000e+00	 5.839528248575666e+00
1	 1.571105748236902e+00	 3.187788245248305e-02	 5.454729582204878e+00
1	 1.570125079232222e+00	 6.400499812932213e-02	 5.075150206154468e+00
1	 1.568471656282942e+00	 9.636384807059326e-02	 4.702207456884792e+00
1	 1.566130508218708e+00	 1.289360188419724e-01	 4.337257801722131e+00
1	 1.563087213574030e+00	 1.617021913504133e-01	 3.981584834744991e+00
1	 1.559327958474683e+00	 1.946421534908473e-01	 3.636387030581991e+00
1	 1.554839594943744e+00	 2.277348167703377e-01	 3.302765343776225e+00
1	 1.549609699338691e+00	 2.609582370370436e-01	 2.981710749598593e+00
1	 1.543626630612252e+00	 2.942896394197481e-01	 2.674091829876214e+00
1	 1.536879588072675e+00	 3.277054475596566e-01	 2.380642514376634e+00
1	 1.585715024037928e+00	 0.000000000000000e+00	 5.629944630097250e+00
1	 1.585388705457436e+00	 3.216768498914990e-02	 5.254189880447748e+00
1	 1.584399121168951e+00	 6.458686898734099e-02	 4.883488577713542e+00
1	 1.582730666914771e+00	 9.723989395123972e-02	 4.519300912695428e+00
1	 1.580368235421320e+00	 1.301081790496063e-01	 4.163017654392619e+00
1	 1.577297274117268e+00	 1.631722295591160e-01	 3.815947388306890e+00
1	 1.573503843546176e+00	 1.964116496260304e-01	 3.479303536529728e+00
1	 1.568974676202594e+00	 2.298051590414821e-01	 3.154191255523627e+00
1	 1.563697235500412e+00	 2.633306141588864e-01	 2.841594316017303e+00
1	 1.557659774563367e+00	 2.969650330601948e-01	 2.542362077311627e+00
1	 1.550851394510401e+00	 3.306846250534405e-01	 2.257196675362411e+00
1	 1.600000951102682e+00	 0.000000000000000e+00	 5.427419613026228e+00
1	 1.599671692672685e+00	 3.245748813458729e-02	 5.060792552215395e+00
1	 1.598673193081649e+00	 6.516874106758157e-02	 4.699028775008347e+00
1	 1.596989707490964e+00	 9.811594167191688e-02	 4.343629025295670e+00
1	 1.594605992523555e+00	 1.312803417190980e-01	 3.996015933926714e+00
1	 1.591507364501976e+00	 1.646422708551649e-01	 3.657520509244059e+00
1	 1.587679758387314e+00	 1.981811494773362e-01	 3.329368435104583e+00
1	 1.583109787145346e+00	 2.318755056604247e-01	 3.012666280589316e+00
1	 1.577784801246143e+00	 2.657029962626958e-01	 2.708387734375955e+00
1	 1.571692947984227e+00	 2.996404323188487e-01	 2.417359984799315e+00
1	 1.564823230289037e+00	 3.336638088033086e-01	 2.140250373767348e+00
1	 1.614286904834791e+00	 0.000000000000000e+00	 5.231636239847288e+00
1	 1.613954706549798e+00	 3.274729182112748e-02	 4.874224569112892e+00
1	 1.612947291639554e+00	 6.575061423419915e-02	 4.521461785941185e+00
1	 1.611248774684285e+00	 9.899199102812814e-02	 4.174886966321496e+00
1	 1.608843776203160e+00	 1.324525065768599e-01	 3.835952244582168e+00
1	 1.605717481412379e+00	 1.661123148954807e-01	 3.506008565688734e+00
1	 1.601855699690321e+00	 1.999506526318325e-01	 3.186291272544162e+00
1	 1.597244924473770e+00	 2.339458561440600e-01	 2.877905640819442e+00
1	 1.591872393288765e+00	 2.680753827949168e-01	 2.581812482861268e+00
1	 1.585726147600425e+00	 3.023158365714738e-01	 2.298813950428907e+00
1	 1.578795092148498e+00	 3.366429981141584e-01	 2.029539673208095e+00
1	 1.628572881900711e+00	 0.000000000000000e+00	 5.042288671761765e+00
1	 1.628237743755919e+00	 3.303709598110283e-02	 4.694183883410964e+00
1	 1.627221413511901e+00	 6.633248835134901e-02	 4.350489438011802e+00
1	 1.625507865167491e+00	 9.986804181537659e-02	 4.012780600104758e+00
1	 1.623081583137882e+00	 1.336246733493043e-01	 3.682536727719082e+00
1	 1.619927621532703e+00	 1.675823613369837e-01	 3.361126295698997e+00
1	 1.616031664147422e+00	 2.017201586765867e-01	 3.049791783339004e+00
1	 1.611380084889633e+00	 2.360162100092826e-01	 2.749634547219594e+00
1	 1.605960008341164e+00	 2.704477732019947e-01	 2.461599809381768e+00
1	 1.599759370137554e+00	 3.049912451938342e-01	 2.186461899320107e+00
1	 1.592766976828704e+00	 3.396221922908876e-01	 1.924809895501615e+00
1	 1.642858878966899e+00	 0.000000000000000e+00	 4.859081705420496e+00
1	 1.642520800958195e+00	 3.332690054684562e-02	 4.520378950775179e+00
1	 1.641495555367929e+00	 6.691436328318649e-02	 4.185823927174626e+00
1	 1.639766975613346e+00	 1.007440938291657e-01	 3.857026018912632e+00
1	 1.637319410005468e+00	 1.347968417628436e-01	 3.535489603800025e+00
1	 1.634137781547173e+00	 1.690524098365947e-01	 3.222598356523325e+00
1	 1.630207648450840e+00	 2.034896671986659e-01	 2.919599447392061e+00
1	 1.625515265094705e+00	 2.380865667729873e-01	 2.627587765766481e+00
1	 1.620047643116225e+00	 2.728201669303749e-01	 2.347490306916134e+00
1	 1.613792612321206e+00	 3.076666575616935e-01	 2.080050869518167e+00
1	 1.606738881069569e+00	 3.426013906383932e-01	 1.825815218243685e+00
1	 1.657144892699808e+00	 0.000000000000000e+00	 4.681730314639282e+00
1	 1.656803874823768e+00	 3.361670545068816e-02	 4.352528277667686e+00
1	 1.655769713876872e+00	 6.749623889386683e-02	 4.027187371051870e+00
1	 1.654026102694607e+00	 1.016201468649986e-01	 3.707349102213072e+00
1	 1.651557253483665e+00	 1.359690115438903e-01	 3.394540738066536e+00
1	 1.648347958140016e+00	 1.705224600512339e-01	 3.090158897166079e+00
1	 1.644383649292800e+00	 2.052591777851378e-01	 2.795453070070931e+00
1	 1.639650461790754e+00	 2.401569259520683e-01	 2.511509205665194e+00
1	 1.634135294326828e+00	 2.751925634265019e-01	 2.239233510813920e+00
1	 1.627825870876976e+00	 3.103420730508160e-01	 1.979336619296659e+00
1	 1.620710801611011e+00	 3.455805924615732e-01	 1.732318293190782e+00
1	 1.671430919765895e+00	 0.000000000000000e+00	 4.509959215603127e+00
1	 1.671086962019786e+00	 3.390651062496277e-02	 4.190359991946318e+00
1	 1.670043885707968e+00	 6.807811504754545e-02	 3.874311385046074e+00
1	 1.668285243084035e+00	 1.024962007183786e-01	 3.563485098529519e+00
1	 1.665795110250220e+00	 1.371411824188566e-01	 3.259429228476377e+00
1	 1.662558147995456e+00	 1.719925116378220e-01	 2.963551152860591e+00
1	 1.658559663365526e+00	 2.070286900230698e-01	 2.677100383783954e+00
1	 1.653785671679549e+00	 2.422272870634203e-01	 2.401151528709723e+00
1	 1.648222958685861e+00	 2.775649621368212e-01	 2.136587516736207e+00
1	 1.641859142530455e+00	 3.130174910369654e-01	 1.884083254587420e+00
1	 1.634682735192946e+00	 3.485597970653249e-01	 1.644089884201184e+00
1	 1.685716956831615e+00	 0.000000000000000e+00	 4.343502454166633e+00
1	 1.685370059213394e+00	 3.419631600200176e-02	 4.033611435285664e+00
1	 1.684318067530453e+00	 6.865999160837752e-02	 3.726936679994493e+00
1	 1.682544393454392e+00	 1.033722551848091e-01	 3.425178228545571e+00
1	 1.680032976982881e+00	 1.383133541141549e-01	 3.129903014581584e+00
1	 1.676768347797721e+00	 1.734625642532795e-01	 2.842527060150935e+00
1	 1.672735687361242e+00	 2.087982034995292e-01	 2.564297669804061e+00
1	 1.667920891462859e+00	 2.442976496239379e-01	 2.296275778495655e+00
1	 1.662310632906206e+00	 2.799373625077780e-01	 2.039318618012305e+00
1	 1.655892424007237e+00	 3.156929108959058e-01	 1.794062875344328e+00
1	 1.648654678555294e+00	 3.515390037545457e-01	 1.560908523575880e+00
1	 1.700003000563425e+00	 0.000000000000000e+00	 4.182103013951400e+00
1	 1.699653163071738e+00	 3.448612151413742e-02	 3.882028776137171e+00
1	 1.698592256013564e+00	 6.924186844051838e-02	 3.584812680098719e+00
1	 1.696803550478436e+00	 1.042483100597932e-01	 3.292181308210326e+00
1	 1.694270850359394e+00	 1.394855263561977e-01	 3.005718506116256e+00
1	 1.690978554231035e+00	 1.749326175545268e-01	 2.726846891370800e+00
1	 1.686911717972173e+00	 2.105677178015834e-01	 2.456809399149968e+00
1	 1.682056117842452e+00	 2.463680131505156e-01	 2.196651028317853e+00
1	 1.676398313700747e+00	 2.823097639858172e-01	 1.947200961271046e+00
1	 1.669925712032915e+00	 3.183683320034011e-01	 1.709055239727819e+00
1	 1.662626628437969e+00	 3.545182118341332e-01	 1.482560185717315e+00
1	 1.714289047627778e+00	 0.000000000000000e+00	 4.025512444028058e+00
1	 1.713936270261961e+00	 3.477592709370207e-02	 3.735366642030805e+00
1	 1.712866447826537e+00	 6.982374540812339e-02	 3.447697159947587e+00
1	 1.711062710828929e+00	 1.051243651388343e-01	 3.164255390678242e+00
1	 1.708508727057505e+00	 1.406576988713972e-01	 2.886640230144970e+00
1	 1.705188763979623e+00	 1.764026711984846e-01	 2.616278907388606e+00
1	 1.701087751890541e+00	 2.123372325163000e-01	 2.354407891413606e+00
1	 1.696191347520097e+00	 2.484383771600481e-01	 2.102054046663789e+00
1	 1.690485997782368e+00	 2.846821660173839e-01	 1.860016219281252e+00
1	 1.683959003333080e+00	 3.210437537352151e-01	 1.628847445071109e+00
1	 1.676598581580888e+00	 3.574974206089848e-01	 1.408837977096465e+00
1	 1.536879588072675e+00	 3.277054475596566e-01	 2.380642514376634e+00
1	 1.529359222129145e+00	 3.611789783415347e-01	 2.093070864276632e+00
1	 1.521056139060902e+00	 3.946875295879635e-01	 1.802961974295993e+00
1	 1.511962397240521e+00	 4.282053831011283e-01	 1.510782921277769e+00
1	 1.502071113759757e+00	 4.617061818853215e-01	 1.216951753636994e+00
1	 1.491376514271011e+00	 4.951629809952903e-01	 9.218335255139899e-01
1	 1.479873980149320e+00	 5.285483025250732e-01	 6.257365986282842e-01
1	 1.467560092601489e+00	 5.618341945948696e-01	 3.289092581722805e-01
1	 1.454432673355103e+00	 5.949922941569014e-01	 3.153668788263986e-02
1	 1.440490821570163e+00	 6.279938934045739e-01	-2.662616524553066e-01
1	 1.425734946630075e+00	 6.608100095329462e-01	-5.644342063893961e-01
1	 1.550851394510401e+00	 3.306846250534405e-01	 2.257196675362411e+00
1	 1.543262660753379e+00	 3.644624644466162e-01	 1.977982811529869e+00
1	 1.534884094173004e+00	 3.982756426762859e-01	 1.696490047810411e+00
1	 1.525707680944315e+00	 4.320982077398996e-01	 1.413152403274660e+00
1	 1.515726475586372e+00	 4.659035630296869e-01	 1.128352879877102e+00
1	 1.504934651256828e+00	 4.996645186432699e-01	 8.424196110958903e-01
1	 1.493327547342673e+00	 5.333533468724031e-01	 5.556222963056925e-01
1	 1.480901713970360e+00	 5.669418417260944e-01	 2.681689669711479e-01
1	 1.467654953064725e+00	 6.004013823074373e-01	-1.979687065643254e-02
1	 1.453586355596186e+00	 6.337029998264971e-01	-3.081986737486223e-01
1	 1.438696334669837e+00	 6.668174479949772e-01	-5.970288422123791e-01
1	 1.564823230289037e+00	 3.336638088033086e-01	 2.140250373767348e+00
1	 1.557166128574940e+00	 3.677459574467969e-01	 1.869143202829638e+00
1	 1.548712078323922e+00	 4.018637632994254e-01	 1.596016737887128e+00
1	 1.539452993513331e+00	 4.359910405534110e-01	 1.321270841236191e+00
1	 1.529381866089396e+00	 4.701009529884128e-01	 1.045252322563047e+00
1	 1.518492816714911e+00	 5.041660657444060e-01	 7.682512112151935e-01
1	 1.506781142788726e+00	 5.381584013103312e-01	 4.904973330176210e-01
1	 1.494243363356876e+00	 5.720494995834654e-01	 2.121572374134194e-01
1	 1.480877260541402e+00	 6.058104818172241e-01	-6.666848091180844e-02
1	 1.466681917123116e+00	 6.394121182377791e-01	-3.459474240753260e-01
1	 1.451657749928804e+00	 6.728248990729171e-01	-6.257171578764611e-01
1	 1.578795092148498e+00	 3.366429981141584e-01	 2.029539673208095e+00
1	 1.571069622349703e+00	 3.710294565759766e-01	 1.766296114173755e+00
1	 1.562540088287140e+00	 4.054518906202006e-01	 1.501294047833551e+00
1	 1.553198331740336e+00	 4.398838806333745e-01	 1.234898111187621e+00
1	 1.543037282082569e+00	 4.742983507821346e-01	 9.674178071115460e-01
1	 1.532051007481672e+00	 5.086676212483482e-01	 6.991039092939276e-01
1	 1.520234763348278e+00	 5.429634647176710e-01	 4.301451913013690e-01
1	 1.507585037647940e+00	 5.771571669751688e-01	 1.606655251865332e-01
1	 1.494099592699866e+00	 6.112195914240948e-01	-1.092786067916810e-01
1	 1.479777503095249e+00	 6.451212473062344e-01	-3.797001463121578e-01
1	 1.464619189382567e+00	 6.788323613649613e-01	-6.506830012201759e-01
1	 1.592766976828704e+00	 3.396221922908876e-01	 1.924809895501615e+00
1	 1.584973138833540e+00	 3.743129610680547e-01	 1.669194598779763e+00
1	 1.576368120836146e+00	 4.090400238014308e-01	 1.412082680197516e+00
1	 1.566943692418100e+00	 4.437767270715023e-01	 1.153802512344412e+00
1	 1.556692720379632e+00	 4.784957554314885e-01	 8.946252069083407e-01
1	 1.545609220393526e+00	 5.131691841047462e-01	 6.347611612072819e-01
1	 1.533688405882126e+00	 5.477685359732344e-01	 3.743569491934347e-01
1	 1.520926733730455e+00	 5.822648427093915e-01	 1.134926019265727e-01
1	 1.507321946454855e+00	 6.166287098658830e-01	-1.478206795717228e-01
1	 1.492873110456881e+00	 6.508303856996788e-01	-4.096423389593979e-01
1	 1.477580650006715e+00	 6.848398334693059e-01	-6.721037700762413e-01
1	 1.606738881069569e+00	 3.426013906383932e-01	 1.825815218243686e+00
1	 1.598876674782327e+00	 3.775964701569309e-01	 1.577600296874564e+00
1	 1.590196172744423e+00	 4.126281620059348e-01	 1.328151658637752e+00
1	 1.580689072339393e+00	 4.476695789595059e-01	 1.077760400979702e+00
1	 1.570348177794325e+00	 4.826931659571098e-01	 8.266581891367223e-01
1	 1.559167452286884e+00	 5.176707532632487e-01	 5.750139530858721e-01
1	 1.547142067251067e+00	 5.525736139558342e-01	 3.229309500679223e-01
1	 1.534268448491324e+00	 5.873725255943198e-01	 7.044423720540860e-02
1	 1.520544318721103e+00	 6.220378358804218e-01	-1.824814035958238e-01
1	 1.505968736152310e+00	 6.565395320859273e-01	-4.359530493152075e-01
1	 1.490542128776837e+00	 6.908473139841474e-01	-6.901506926541803e-01
1	 1.620710801611011e+00	 3.455805924615732e-01	 1.732318293190783e+00
1	 1.612780226951937e+00	 3.808799830765046e-01	 1.491283065656071e+00
1	 1.604024240785459e+00	 4.162163043965318e-01	 1.249277969341811e+00
1	 1.594434468296982e+00	 4.515624353890975e-01	 1.006555843219120e+00
1	 1.584003651140387e+00	 4.868905813796344e-01	 7.633078789150207e-01
1	 1.572725699998159e+00	 5.221723276735052e-01	 5.196604768080642e-01
1	 1.560595744315899e+00	 5.573786975442835e-01	 2.756724895427800e-01
1	 1.547610178817450e+00	 5.924802144381413e-01	 3.133289695761798e-02
1	 1.533766706413343e+00	 6.274469682055448e-01	-2.134410461736030e-01
1	 1.519064377125835e+00	 6.622486851327958e-01	-4.588051514942882e-01
1	 1.503503622668521e+00	 6.968548015076813e-01	-7.049890934286347e-01
1	 1.634682735192946e+00	 3.485597970653249e-01	 1.644089884201184e+00
1	 1.626683792098246e+00	 3.841634990606757e-01	 1.410020628220715e+00
1	 1.617852321732738e+00	 4.198044501360408e-01	 1.175246220822664e+00
1	 1.608179877083639e+00	 4.554552954519889e-01	 9.399802856311505e-01
1	 1.597659137231561e+00	 4.910880007196983e-01	 7.043725406483246e-01
1	 1.586283960363763e+00	 5.266739062851653e-01	 4.685058221244765e-01
1	 1.574049433937420e+00	 5.621837856173943e-01	 2.323935184331737e-01
1	 1.560951921595736e+00	 5.975879080490416e-01	-4.022542635835014e-03
1	 1.546989106446313e+00	 6.328561055790852e-01	-2.408737126195065e-01
1	 1.532160030321749e+00	 6.679578435080992e-01	-4.783656101969769e-01
1	 1.516465128657361e+00	 7.028622946381038e-01	-7.167786453997894e-01
1	 1.648654678555294e+00	 3.515390037545457e-01	 1.560908523575880e+00
1	 1.640587366977126e+00	 3.874470173433434e-01	 1.333598240332279e+00
1	 1.631680412359747e+00	 4.233925983872808e-01	 1.105848321004308e+00
1	 1.621925295492131e+00	 4.593481582398919e-01	 8.778322425579340e-01
1	 1.611314632881585e+00	 4.952854229979368e-01	 6.496572755737544e-01
1	 1.599842230220112e+00	 5.311754880478783e-01	 4.213616844285844e-01
1	 1.587503132976426e+00	 5.669888770539796e-01	 1.929123608007353e-01
1	 1.574293673713085e+00	 6.026956052352079e-01	-3.579706672365290e-02
1	 1.560211515734747e+00	 6.382652467388765e-01	-2.649476073146115e-01
1	 1.545255692684351e+00	 6.736670058796529e-01	-4.947957310737947e-01
1	 1.529426643718942e+00	 7.088697919736108e-01	-7.256736095340874e-01
1	 1.662626628437969e+00	 3.545182118341332e-01	 1.482560185717315e+00
1	 1.654490948344454e+00	 3.907305371584074e-01	 1.261808373983200e+00
1	 1.645508509439972e+00	 4.269807483130709e-01	 1.040883170579894e+00
1	 1.635670720315228e+00	 4.632410228445187e-01	 8.199169992023579e-01
1	 1.624970134904200e+00	 4.994828472349860e-01	 5.989737345472727e-01
1	 1.613400506403614e+00	 5.356770719112931e-01	 3.780460872536018e-01
1	 1.600956838293715e+00	 5.717939707328521e-01	 1.570534462110218e-01
1	 1.587635432056398e+00	 6.078033048048268e-01	-6.415977967475439e-02
1	 1.573433931193380e+00	 6.436743904227519e-01	-2.858252816127488e-01
1	 1.558351361157939e+00	 6.793761709152729e-01	-5.082513984733678e-01
1	 1.542388164828857e+00	 7.148772921123988e-01	-7.318230621388407e-01
1	 1.676598581580888e+00	 3.574974206089848e-01	 1.408837977096465e+00
1	 1.668394532956103e+00	 3.940140577397678e-01	 1.194450416769259e+00
1	 1.659336609746896e+00	 4.305688990762300e-01	 9.801563716937125e-01
1	 1.649416148345699e+00	 4.671338883575807e-01	 7.660463295527739e-01
1	 1.638625640113148e+00	 5.036802724514817e-01	 5.521398451833831e-01
1	 1.626958785750686e+00	 5.401786568250593e-01	 3.383831186370030e-01
1	 1.614410546750085e+00	 5.765990655328240e-01	 1.246470553709279e-01
1	 1.600977193512580e+00	 6.129110055660848e-01	-8.927415008126061e-02
1	 1.586656349736946e+00	 6.490835353685447e-01	-3.036638693580347e-01
1	 1.571447032686810e+00	 6.850853372827735e-01	-5.188833013093863e-01
1	 1.555349688962692e+00	 7.208847936526629e-01	-7.353711108742522e-01
1	 1.425734946630075e+00	 6.608100095329462e-01	-5.644342063893961e-01
1	 1.410165679786421e+00	 6.934137300872995e-01	-8.689393869403910e-01
1	 1.393787143848190e+00	 7.257734257371631e-01	-1.185292720468256e+00
1	 1.376603839868557e+00	 7.578597209617606e-01	-1.512896153479842e+00
1	 1.358621663420585e+00	 7.896432714658930e-01	-1.851157807512331e+00
1	 1.339847912380150e+00	 8.210948457838531e-01	-2.199494320808809e+00
1	 1.320291289037849e+00	 8.521854080414092e-01	-2.557333072206791e+00
1	 1.299961896400895e+00	 8.828862014191952e-01	-2.924114265995211e+00
1	 1.278871228587822e+00	 9.131688318442138e-01	-3.299292857973040e+00
1	 1.257032155262793e+00	 9.430053514238217e-01	-3.682340304729158e+00
1	 1.234458900101805e+00	 9.723683411288404e-01	-4.072746120234421e+00
1	 1.438696334669837e+00	 6.668174479949772e-01	-5.970288422123791e-01
1	 1.422985527275958e+00	 6.997175696964119e-01	-8.922134793577573e-01
1	 1.406458093704091e+00	 7.323714480573985e-01	-1.199233612654410e+00
1	 1.389118575926604e+00	 7.647494405036754e-01	-1.517530439036966e+00
1	 1.370972923113356e+00	 7.968219359704288e-01	-1.846551020558064e+00
1	 1.352028499485387e+00	 8.285594372480739e-01	-2.185750439492947e+00
1	 1.332294086446027e+00	 8.599326444966284e-01	-2.534593835854244e+00
1	 1.311779878849165e+00	 8.909125394678691e-01	-2.892558307624598e+00
1	 1.290497475306639e+00	 9.214704699576771e-01	-3.259134655511142e+00
1	 1.268459862481026e+00	 9.515782339985250e-01	-3.633828955808810e+00
1	 1.245681393356093e+00	 9.812081632942572e-01	-4.016163947009113e+00
1	 1.451657749928804e+00	 6.728248990729171e-01	-6.257171578764618e-01
1	 1.435805401687458e+00	 7.060214225439064e-01	-9.118703939609420e-01
1	 1.419129070169253e+00	 7.389694842338115e-01	-1.209848785566249e+00
1	 1.401633338265831e+00	 7.716391745143251e-01	-1.519127918913076e+00
1	 1.383324208743967e+00	 8.040006155504626e-01	-1.839188394017428e+00
1	 1.364209112170008e+00	 8.360240443882061e-01	-2.169517819520729e+00
1	 1.344296909060183e+00	 8.676798972212709e-01	-2.509612695117769e+00
1	 1.323597886115254e+00	 8.989388943720311e-01	-2.858980163290207e+00
1	 1.302123746440581e+00	 9.297721255047077e-01	-3.217139613504227e+00
1	 1.279887593697410e+00	 9.601511345763568e-01	-3.583624123753792e+00
1	 1.256903910177548e+00	 9.900480040233278e-01	-3.957981726297418e+00
1	 1.464619189382567e+00	 6.788323613649613e-01	-6.506830012201756e-01
1	 1.448625300029533e+00	 7.123252871588173e-01	-9.280844638320909e-01
1	 1.431800070287028e+00	 7.455675327267967e-01	-1.217301084612285e+00
1	 1.414148123966046e+00	 7.785289213860510e-01	-1.517838088869528e+00
1	 1.395675517430381e+00	 8.111793085309283e-01	-1.829204332398744e+00
1	 1.376389747591809e+00	 8.434886654624829e-01	-2.150914161968273e+00
1	 1.356299754079610e+00	 8.754271644076367e-01	-2.482489173519779e+00
1	 1.335415915441594e+00	 9.069652642588758e-01	-2.823459851035230e+00
1	 1.313750039276837e+00	 9.380737965482800e-01	-3.173367070373692e+00
1	 1.291315346245472e+00	 9.687240511570182e-01	-3.531763453980704e+00
1	 1.268126447947593e+00	 9.988878612534782e-01	-3.898214564202705e+00
1	 1.477580650006715e+00	 6.848398334693059e-01	-6.721037700762412e-01
1	 1.461445219310796e+00	 7.186291620701782e-01	-9.410239057177776e-01
1	 1.444471091100772e+00	 7.521655919967494e-01	-1.221747641769515e+00
1	 1.426662930107062e+00	 7.854186795111947e-01	-1.513805199476837e+00
1	 1.408026846290560e+00	 8.183580132367593e-01	-1.816728524367558e+00
1	 1.388570402908588e+00	 8.509532987291373e-01	-2.130053037977440e+00
1	 1.368302618703605e+00	 8.831744442480259e-01	-2.453319302266366e+00
1	 1.347233964070615e+00	 9.149916472555970e-01	-2.786074580777428e+00
1	 1.325376351102590e+00	 9.463754811513688e-01	-3.127874281775318e+00
1	 1.302743117458739e+00	 9.772969817402075e-01	-3.478283270020753e+00
1	 1.279349004047656e+00	 1.007727732922136e+00	-3.836877035472055e+00
1	 1.490542128776837e+00	 6.908473139841474e-01	-6.901506926541805e-01
1	 1.474265156539857e+00	 7.249330458070223e-01	-9.508510859121444e-01
1	 1.457142129653841e+00	 7.587636605040647e-01	-1.223340123957393e+00
1	 1.439177753768686e+00	 7.923084472820973e-01	-1.507168484138539e+00
1	 1.420378192442467e+00	 8.255367279928895e-01	-1.801886147763907e+00
1	 1.400751075278142e+00	 8.584179424464018e-01	-2.107044068306766e+00
1	 1.380305500131459e+00	 8.909217349347384e-01	-2.422195772083144e+00
1	 1.359052029244751e+00	 9.230180414893885e-01	-2.746898876403329e+00
1	 1.337002679205026e+00	 9.546771773769483e-01	-3.080716511160419e+00
1	 1.314170904670738e+00	 9.858699243256250e-01	-3.423218631000807e+00
1	 1.290571575859161e+00	 1.016567616966727e+00	-3.773983206606076e+00
1	 1.503503622668521e+00	 6.968548015076813e-01	-7.049890934286341e-01
1	 1.487085108725331e+00	 7.312369368983842e-01	-9.577227723949183e-01
1	 1.469813182989592e+00	 7.653617367091381e-01	-1.222224968571592e+00
1	 1.451692592030731e+00	 7.991982230911011e-01	-1.498062375327469e+00
1	 1.432729553004065e+00	 8.327154511242526e-01	-1.784798064021192e+00
1	 1.412931761858268e+00	 8.658825948725100e-01	-2.081993093600553e+00
1	 1.392308395562468e+00	 8.986690346600738e-01	-2.389208077201552e+00
1	 1.370870108206433e+00	 9.310444450874450e-01	-2.706004691550593e+00
1	 1.348629020871332e+00	 9.629788832879940e-01	-3.031947115655042e+00
1	 1.325598705214996e+00	 9.944428769129717e-01	-3.366603386153229e+00
1	 1.301794160763533e+00	 1.025407511324678e+00	-3.709546657773881e+00
1	 1.516465128657361e+00	 7.028622946381038e-01	-7.167786453997893e-01
1	 1.499905072875827e+00	 7.375408338732975e-01	-9.617903740466387e-01
1	 1.482484248151378e+00	 7.719598190723639e-01	-1.218543606946149e+00
1	 1.464207441973005e+00	 8.060880053305461e-01	-1.486616709739029e+00
1	 1.445080925093318e+00	 8.398941809557829e-01	-1.765581002620288e+00
1	 1.425112459806761e+00	 8.733472542656954e-01	-2.055002335930918e+00
1	 1.404311302195926e+00	 9.064163416163323e-01	-2.354442651965453e+00
1	 1.382688198198093e+00	 9.390708561769601e-01	-2.663461519456085e+00
1	 1.360255373388692e+00	 9.712805969474798e-01	-2.981617627537649e+00
1	 1.337026516425042e+00	 1.003015837501946e+00	-3.308470226531628e+00
1	 1.313016756142200e+00	 1.034247413933416e+00	-3.643580503604919e+00
1	 1.529426643718942e+00	 7.088697919736108e-01	-7.256736095340874e-01
1	 1.512725045999958e+00	 7.438447352607953e-01	-9.632001677068761e-01
1	 1.495155322182557e+00	 7.785579060541381e-01	-1.212432676459127e+00
1	 1.476722300675319e+00	 8.129777923927746e-01	-1.472956923018683e+00
1	 1.457432305828187e+00	 8.470729158124134e-01	-1.744347736169852e+00
1	 1.437293166281423e+00	 8.808119188841904e-01	-2.026170552130508e+00
1	 1.416314217231126e+00	 9.141636539958131e-01	-2.317983000495525e+00
1	 1.394506296462164e+00	 9.470972728851270e-01	-2.619336497221655e+00
1	 1.371881734044294e+00	 9.795823164183801e-01	-2.929777831576293e+00
1	 1.348454335634401e+00	 1.011588804092248e+00	-3.248850734098586e+00
1	 1.324239359376585e+00	 1.043087322730367e+00	-3.576097412924215e+00
1	 1.542388164828857e+00	 7.148772921123988e-01	-7.318230621388406e-01
1	 1.525545025106338e+00	 7.501486395899122e-01	-9.620935137904567e-01
1	 1.507826402126483e+00	 7.851559961148554e-01	-1.204024221949799e+00
1	 1.489237165217485e+00	 8.198675826701277e-01	-1.457204234676583e+00
1	 1.469783692326635e+00	 8.542516540190780e-01	-1.721207246663827e+00
1	 1.449473878440046e+00	 8.882765869862278e-01	-1.995593179398164e+00
1	 1.428317137867365e+00	 9.219109699908171e-01	-2.279909819819263e+00
1	 1.406324400241078e+00	 9.551236933391417e-01	-2.573694504825464e+00
1	 1.383508100125322e+00	 9.878840397636706e-01	-2.876475838468195e+00
1	 1.359882160176601e+00	 1.020161774683578e+00	-3.187775428339694e+00
1	 1.335461967848114e+00	 1.051927235652958e+00	-3.507109627493007e+00
1	 1.555349688962692e+00	 7.208847936526629e-01	-7.353711108742520e-01
1	 1.538365007203576e+00	 7.564525453896814e-01	-9.586070611286790e-01
1	 1.520497485026512e+00	 7.917540877149108e-01	-1.193445887070360e+00
1	 1.501752032679311e+00	 8.267573745549470e-01	-1.439475823761457e+00
1	 1.482135081706625e+00	 8.614303939007104e-01	-1.696264883430452e+00
1	 1.461654593440430e+00	 8.957412568300415e-01	-1.963362473628345e+00
1	 1.440320061303935e+00	 9.296582877936430e-01	-2.240301116848045e+00
1	 1.418142506777267e+00	 9.631501156661962e-01	-2.526598259185633e+00
1	 1.395134468918961e+00	 9.961857650463246e-01	-2.821758154609733e+00
1	 1.371309987385168e+00	 1.028734747275635e+00	-3.125273810548017e+00
1	 1.346684578938213e+00	 1.060767150638615e+00	-3.436628979812864e+00
1	 1.234458900101805e+00	 9.723683411288404e-01	-4.072746120234421e+00
1	 1.211167009889495e+00	 1.001230994946606e+00	-4.469986478281449e+00
1	 1.187173310896686e+00	 1.029567207711080e+00	-4.873077942896021e+00
1	 1.162495880220790e+00	 1.057351644371346e+00	-5.280787841336840e+00
1	 1.137154004740159e+00	 1.084559811993984e+00	-5.691826279716210e+00
1	 1.111168131322751e+00	 1.111168131322752e+00	-6.104853591773185e+00
1	 1.084559811993984e+00	 1.137154004740160e+00	-6.518488208739796e+00
1	 1.057351644371345e+00	 1.162495880220790e+00	-6.931314880950515e+00
1	 1.029567207711079e+00	 1.187173310896686e+00	-7.341893177603830e+00
1	 1.001230994946606e+00	 1.211167009889495e+00	-7.748766187836787e+00
1	 9.723683411288406e-01	 1.234458900101806e+00	-8.150469344069863e+00
1	 1.245681393356093e+00	 9.812081632942572e-01	-4.016163947009113e+00
1	 1.222177756052655e+00	 1.010333208138176e+00	-4.405459064313108e+00
1	 1.197965929809548e+00	 1.038927026041595e+00	-4.800548865847381e+00
1	 1.173064156063485e+00	 1.066964051632084e+00	-5.200190173391691e+00
1	 1.147491897030265e+00	 1.094419569310411e+00	-5.603076530367176e+00
1	 1.121269785460785e+00	 1.121269785460785e+00	-6.007845931272573e+00
1	 1.094419569310411e+00	 1.147491897030266e+00	-6.413089023351223e+00
1	 1.066964051632084e+00	 1.173064156063485e+00	-6.817357707757043e+00
1	 1.038927026041595e+00	 1.197965929809549e+00	-7.219174062671642e+00
1	 1.010333208138175e+00	 1.222177756052656e+00	-7.617039507056113e+00
1	 9.812081632942573e-01	 1.245681393356094e+00	-8.009444121064728e+00
1	 1.256903910177548e+00	 9.900480040233278e-01	-3.957981726297418e+00
1	 1.233188525338287e+00	 1.019435440444377e+00	-4.339362556210665e+00
1	 1.208758571386796e+00	 1.048286864027678e+00	-4.726419175225338e+00
1	 1.183632454099435e+00	 1.076576479078796e+00	-5.117909814286333e+00
1	 1.157829811029820e+00	 1.104279347332226e+00	-5.512524884652859e+00
1	 1.131371460812173e+00	 1.131371460812174e+00	-5.908894885340033e+00
1	 1.104279347332226e+00	 1.157829811029820e+00	-6.305598821895353e+00
1	 1.076576479078796e+00	 1.183632454099436e+00	-6.701173061467622e+00
1	 1.048286864027677e+00	 1.208758571386797e+00	-7.094120543863887e+00
1	 1.019435440444377e+00	 1.233188525338288e+00	-7.482920264116787e+00
1	 9.900480040233277e-01	 1.256903910177548e+00	-7.866036939070121e+00
1	 1.268126447947593e+00	 9.988878612534782e-01	-3.898214564202705e+00
1	 1.244199315177236e+00	 1.028537689741422e+00	-4.271692392947196e+00
1	 1.219551233110184e+00	 1.057646719485435e+00	-4.650670913047786e+00
1	 1.194200771862754e+00	 1.086188924468655e+00	-5.033921348797236e+00
1	 1.168167744326701e+00	 1.114139143758882e+00	-5.420144052357709e+00
1	 1.141473155019926e+00	 1.141473155019926e+00	-5.807976488109425e+00
1	 1.114139143758882e+00	 1.168167744326702e+00	-6.196001755572113e+00
1	 1.086188924468655e+00	 1.194200771862755e+00	-6.582757574602302e+00
1	 1.057646719485435e+00	 1.219551233110185e+00	-6.966745650991442e+00
1	 1.028537689741422e+00	 1.244199315177236e+00	-7.346441336124927e+00
1	 9.988878612534781e-01	 1.268126447947593e+00	-7.720303491082900e+00
1	 1.279349004047656e+00	 1.007727732922136e+00	-3.836877035472055e+00
1	 1.255210123000349e+00	 1.037639953905520e+00	-4.202444171835766e+00
1	 1.230343912461471e+00	 1.067006590230976e+00	-4.573286749313096e+00
1	 1.204769106887557e+00	 1.095801385558832e+00	-4.948200250874432e+00
1	 1.178505694508791e+00	 1.123998956289837e+00	-5.325907697742513e+00
1	 1.151574865727051e+00	 1.151574865727052e+00	-5.705067611054944e+00
1	 1.123998956289837e+00	 1.178505694508792e+00	-6.084282527631888e+00
1	 1.095801385558832e+00	 1.204769106887557e+00	-6.462107993340267e+00
1	 1.067006590230976e+00	 1.230343912461471e+00	-6.837061951780520e+00
1	 1.037639953905520e+00	 1.255210123000350e+00	-7.207634441375795e+00
1	 1.007727732922135e+00	 1.279349004047656e+00	-7.572297510493707e+00
1	 1.290571575859161e+00	 1.016567616966727e+00	-3.773983206606076e+00
1	 1.266220946238475e+00	 1.046742230812884e+00	-4.131613641648219e+00
1	 1.241136606922412e+00	 1.076366474080407e+00	-4.494249954692204e+00
1	 1.215337456707958e+00	 1.105413860106501e+00	-4.860722844966902e+00
1	 1.188843659163968e+00	 1.133858782624547e+00	-5.229790398018127e+00
1	 1.161676590576559e+00	 1.161676590576559e+00	-5.600145926544306e+00
1	 1.133858782624547e+00	 1.188843659163969e+00	-5.970426369319050e+00
1	 1.105413860106501e+00	 1.215337456707958e+00	-6.339221172511170e+00
1	 1.076366474080407e+00	 1.241136606922412e+00	-6.705081571885710e+00
1	 1.046742230812883e+00	 1.266220946238475e+00	-7.066530189652100e+00
1	 1.016567616966727e+00	 1.290571575859161e+00	-7.422070856199242e+00
1	 1.301794160763533e+00	 1.025407511324678e+00	-3.709546657773881e+00
1	 1.277231782322459e+00	 1.055844518339723e+00	-4.059196696089723e+00
1	 1.251929313974762e+00	 1.085726368849838e+00	-4.413544374632277e+00
1	 1.225905818858070e+00	 1.115026345868833e+00	-4.771466269347260e+00
1	 1.199181635880113e+00	 1.143718620462467e+00	-5.131767603965977e+00
1	 1.171778327211458e+00	 1.171778327211458e+00	-5.493189873275915e+00
1	 1.143718620462467e+00	 1.199181635880114e+00	-5.854419017058912e+00
1	 1.115026345868833e+00	 1.225905818858070e+00	-6.214094070845471e+00
1	 1.085726368849838e+00	 1.251929313974763e+00	-6.570816213868520e+00
1	 1.055844518339723e+00	 1.277231782322459e+00	-6.923158129921831e+00
1	 1.025407511324678e+00	 1.301794160763533e+00	-7.269673593314830e+00
1	 1.313016756142200e+00	 1.034247413933416e+00	-3.643580503604919e+00
1	 1.288242628683150e+00	 1.064946814362249e+00	-3.985189367607811e+00
1	 1.262722031100280e+00	 1.095086272355376e+00	-4.331154404787847e+00
1	 1.236474190872010e+00	 1.124638840603001e+00	-4.680408441316246e+00
1	 1.209519622245105e+00	 1.153578467503053e+00	-5.031815602576919e+00
1	 1.181880073274757e+00	 1.181880073274757e+00	-5.384178623487702e+00
1	 1.153578467503053e+00	 1.209519622245105e+00	-5.736246690814188e+00
1	 1.124638840603001e+00	 1.236474190872010e+00	-6.086723746468000e+00
1	 1.095086272355376e+00	 1.262722031100281e+00	-6.434277175203089e+00
1	 1.064946814362248e+00	 1.288242628683150e+00	-6.777546795591630e+00
1	 1.034247413933416e+00	 1.313016756142199e+00	-7.115154069749984e+00
1	 1.324239359376585e+00	 1.043087322730367e+00	-3.576097412924215e+00
1	 1.299253482751394e+00	 1.074049116756672e+00	-3.909587821515888e+00
1	 1.273514755780722e+00	 1.104446182413130e+00	-4.247064967700224e+00
1	 1.247042570283890e+00	 1.134251342066178e+00	-4.587528024175383e+00
1	 1.219857615846823e+00	 1.163438321445762e+00	-4.929911481588523e+00
1	 1.191981826409463e+00	 1.191981826409464e+00	-5.273092051832151e+00
1	 1.163438321445762e+00	 1.219857615846824e+00	-5.615896073541119e+00
1	 1.134251342066178e+00	 1.247042570283891e+00	-5.957107352620612e+00
1	 1.104446182413130e+00	 1.273514755780723e+00	-6.295475365366882e+00
1	 1.074049116756672e+00	 1.299253482751395e+00	-6.629723747460074e+00
1	 1.043087322730367e+00	 1.324239359376585e+00	-6.958558988892436e+00
1	 1.335461967848114e+00	 1.051927235652958e+00	-3.507109627493007e+00
1	 1.310264341958040e+00	 1.083151423399203e+00	-3.832388350413043e+00
1	 1.284307485497844e+00	 1.113806096839209e+00	-4.161261490652393e+00
1	 1.257610954627826e+00	 1.143863848015535e+00	-4.492804395864012e+00
1	 1.230195614273149e+00	 1.173298179990049e+00	-4.826033095809745e+00
1	 1.202083584258589e+00	 1.202083584258589e+00	-5.159910705820095e+00
1	 1.173298179990048e+00	 1.230195614273149e+00	-5.493354291680852e+00
1	 1.143863848015536e+00	 1.257610954627827e+00	-5.825242133600457e+00
1	 1.113806096839208e+00	 1.284307485497845e+00	-6.154421322070143e+00
1	 1.083151423399203e+00	 1.310264341958040e+00	-6.479715614506713e+00
1	 1.051927235652957e+00	 1.335461967848114e+00	-6.799933478629478e+00
1	 1.346684578938213e+00	 1.060767150638615e+00	-3.436628979812864e+00
1	 1.321275203733934e+00	 1.092253732166055e+00	-3.753587368882630e+00
1	 1.295100217733402e+00	 1.123166013449718e+00	-4.073729884630362e+00
1	 1.268179341437932e+00	 1.153476356208247e+00	-4.396217619163675e+00
1	 1.240533615111960e+00	 1.183158040835369e+00	-4.720159035128249e+00
1	 1.212185344465141e+00	 1.212185344465141e+00	-5.044615777741098e+00
1	 1.183158040835369e+00	 1.240533615111961e+00	-5.368608896625997e+00
1	 1.153476356208246e+00	 1.268179341437933e+00	-5.691125420901060e+00
1	 1.123166013449718e+00	 1.295100217733403e+00	-6.011125226674227e+00
1	 1.092253732166054e+00	 1.321275203733934e+00	-6.327548132642552e+00
1	 1.060767150638615e+00	 1.346684578938213e+00	-6.639321156919967e+00
1	 9.723683411288406e-01	 1.234458900101806e+00	-8.150469344069863e+00
1	 9.430053514238215e-01	 1.257032155262794e+00	-8.545020967950082e+00
1	 9.131688318442132e-01	 1.278871228587822e+00	-8.931286100773169e+00
1	 8.828862014191952e-01	 1.299961896400895e+00	-9.309101289431521e+00
1	 8.521854080414087e-01	 1.320291289037849e+00	-9.678344477630258e+00
1	 8.210948457838527e-01	 1.339847912380151e+00	-1.003893410970257e+01
1	 7.896432714658925e-01	 1.358621663420585e+00	-1.039082799031175e+01
1	 7.578597209617604e-01	 1.376603839868557e+00	-1.073402191715872e+01
1	 7.257734257371627e-01	 1.393787143848190e+00	-1.106854810571135e+01
1	 6.934137300872991e-01	 1.410165679786422e+00	-1.139447342655771e+01
1	 6.608100095329461e-01	 1.425734946630075e+00	-1.171189747724747e+01
1	 9.812081632942573e-01	 1.245681393356094e+00	-8.009444121064728e+00
1	 9.515782339985246e-01	 1.268459862481026e+00	-8.394477788443465e+00
1	 9.214704699576766e-01	 1.290497475306639e+00	-8.771208016090242e+00
1	 8.909125394678685e-01	 1.311779878849166e+00	-9.139626519459572e+00
1	 8.599326444966280e-01	 1.332294086446028e+00	-9.499774122629292e+00
1	 8.285594372480736e-01	 1.352028499485388e+00	-9.851738443640594e+00
1	 7.968219359704285e-01	 1.370972923113356e+00	-1.019565130609939e+01
1	 7.647494405036750e-01	 1.389118575926605e+00	-1.053168590857248e+01
1	 7.323714480573981e-01	 1.406458093704092e+00	-1.086005378505953e+01
1	 6.997175696964111e-01	 1.422985527275958e+00	-1.118100159106724e+01
1	 6.668174479949773e-01	 1.438696334669837e+00	-1.149480775055263e+01
1	 9.900480040233277e-01	 1.256903910177548e+00	-7.866036939070121e+00
1	 9.601511345763564e-01	 1.279887593697410e+00	-8.241672025501153e+00
1	 9.297721255047072e-01	 1.302123746440582e+00	-8.609109909954572e+00
1	 8.989388943720305e-01	 1.323597886115255e+00	-8.968478055050236e+00
1	 8.676798972212705e-01	 1.344296909060183e+00	-9.319958916490277e+00
1	 8.360240443882055e-01	 1.364209112170008e+00	-9.663786399588815e+00
1	 8.040006155504622e-01	 1.383324208743968e+00	-1.000024202208066e+01
1	 7.716391745143246e-01	 1.401633338265832e+00	-1.032965082708992e+01
1	 7.389694842338108e-01	 1.419129070169253e+00	-1.065237709169988e+01
1	 7.060214225439060e-01	 1.435805401687458e+00	-1.096881987746222e+01
1	 6.728248990729170e-01	 1.451657749928804e+00	-1.127940846942512e+01
1	 9.988878612534781e-01	 1.268126447947593e+00	-7.720303491082900e+00
1	 9.687240511570175e-01	 1.291315346245473e+00	-8.086679032700758e+00
1	 9.380737965482796e-01	 1.313750039276837e+00	-8.445078197087295e+00
1	 9.069652642588754e-01	 1.335415915441594e+00	-8.795745325405992e+00
1	 8.754271644076362e-01	 1.356299754079611e+00	-9.138983839613537e+00
1	 8.434886654624822e-01	 1.376389747591809e+00	-9.475151656794269e+00
1	 8.111793085309278e-01	 1.395675517430381e+00	-9.804656299309070e+00
1	 7.785289213860508e-01	 1.414148123966047e+00	-1.012794975494889e+01
1	 7.455675327267963e-01	 1.431800070287028e+00	-1.044552314261841e+01
1	 7.123252871588168e-01	 1.448625300029533e+00	-1.075790123961643e+01
1	 6.788323613649613e-01	 1.464619189382567e+00	-1.106563692634016e+01
1	 1.007727732922135e+00	 1.279349004047656e+00	-7.572297510493707e+00
1	 9.772969817402068e-01	 1.302743117458739e+00	-7.929571514040689e+00
1	 9.463754811513685e-01	 1.325376351102590e+00	-8.279196254496824e+00
1	 9.149916472555962e-01	 1.347233964070615e+00	-8.621514616311329e+00
1	 8.831744442480255e-01	 1.368302618703605e+00	-8.956930885218419e+00
1	 8.509532987291364e-01	 1.388570402908589e+00	-9.285905304047100e+00
1	 8.183580132367586e-01	 1.408026846290560e+00	-9.608948323280384e+00
1	 7.854186795111944e-01	 1.426662930107062e+00	-9.926614608849807e+00
1	 7.521655919967490e-01	 1.444471091100773e+00	-1.023949687072736e+01
1	 7.186291620701775e-01	 1.461445219310796e+00	-1.054821957605231e+01
1	 6.848398334693059e-01	 1.477580650006715e+00	-1.085343260983169e+01
1	 1.016567616966727e+00	 1.290571575859161e+00	-7.422070856199242e+00
1	 9.858699243256248e-01	 1.314170904670739e+00	-7.770419639054979e+00
1	 9.546771773769478e-01	 1.337002679205027e+00	-8.111544553479066e+00
1	 9.230180414893882e-01	 1.359052029244751e+00	-8.445869206744916e+00
1	 8.909217349347384e-01	 1.380305500131460e+00	-8.773879189182715e+00
1	 8.584179424464011e-01	 1.400751075278142e+00	-9.096115952294770e+00
1	 8.255367279928891e-01	 1.420378192442468e+00	-9.413170389837772e+00
1	 7.923084472820969e-01	 1.439177753768687e+00	-9.725676190668977e+00
1	 7.587636605040642e-01	 1.457142129653841e+00	-1.003430303293110e+01
1	 7.249330458070220e-01	 1.474265156539858e+00	-1.033974968895405e+01
1	 6.908473139841474e-01	 1.490542128776837e+00	-1.064273710911452e+01
1	 1.025407511324678e+00	 1.301794160763533e+00	-7.269673593314830e+00
1	 9.944428769129710e-01	 1.325598705214997e+00	-7.609291151976779e+00
1	 9.629788832879937e-01	 1.348629020871333e+00	-7.942200784793577e+00
1	 9.310444450874443e-01	 1.370870108206433e+00	-8.268889498429290e+00
1	 8.986690346600733e-01	 1.392308395562468e+00	-8.589905153170438e+00
1	 8.658825948725094e-01	 1.412931761858267e+00	-8.905849841434936e+00
1	 8.327154511242522e-01	 1.432729553004066e+00	-9.217372986636175e+00
1	 7.991982230911002e-01	 1.451692592030731e+00	-9.525164235549896e+00
1	 7.653617367091377e-01	 1.469813182989592e+00	-9.829946217774525e+00
1	 7.312369368983839e-01	 1.487085108725331e+00	-1.013246724529944e+01
1	 6.968548015076812e-01	 1.503503622668521e+00	-1.043349402363700e+01
1	 1.034247413933416e+00	 1.313016756142199e+00	-7.115154069749984e+00
1	 1.003015837501945e+00	 1.337026516425043e+00	-7.446251475306980e+00
1	 9.712805969474790e-01	 1.360255373388693e+00	-7.771239977424491e+00
1	 9.390708561769592e-01	 1.382688198198093e+00	-8.090653138740601e+00
1	 9.064163416163318e-01	 1.404311302195926e+00	-8.405082561448022e+00
1	 8.733472542656946e-01	 1.425112459806762e+00	-8.715170941634563e+00
1	 8.398941809557823e-01	 1.445080925093319e+00	-9.021604870431405e+00
1	 8.060880053305455e-01	 1.464207441973005e+00	-9.325107457529732e+00
1	 7.719598190723636e-01	 1.482484248151379e+00	-9.626430852700045e+00
1	 7.375408338732968e-01	 1.499905072875827e+00	-9.926348739984141e+00
1	 7.028622946381037e-01	 1.516465128657361e+00	-1.022564887726946e+01
1	 1.043087322730367e+00	 1.324239359376585e+00	-6.958558988892436e+00
1	 1.011588804092248e+00	 1.348454335634402e+00	-7.281363808119655e+00
1	 9.795823164183798e-01	 1.371881734044294e+00	-7.598734611305420e+00
1	 9.470972728851269e-01	 1.394506296462165e+00	-7.911235137372441e+00
1	 9.141636539958126e-01	 1.416314217231127e+00	-8.219482691764886e+00
1	 8.808119188841896e-01	 1.437293166281423e+00	-8.524141049500294e+00
1	 8.470729158124131e-01	 1.457432305828188e+00	-8.825913140441285e+00
1	 8.129777923927742e-01	 1.476722300675320e+00	-9.125533592847139e+00
1	 7.785579060541377e-01	 1.495155322182557e+00	-9.423761210935199e+00
1	 7.438447352607950e-01	 1.512725045999959e+00	-9.721371460819489e+00
1	 7.088697919736107e-01	 1.529426643718942e+00	-1.001914903685332e+01
1	 1.051927235652957e+00	 1.335461967848114e+00	-6.799933478629478e+00
1	 1.020161774683578e+00	 1.359882160176601e+00	-7.114689219413310e+00
1	 9.878840397636699e-01	 1.383508100125321e+00	-7.424754724364253e+00
1	 9.551236933391410e-01	 1.406324400241079e+00	-7.730707977120117e+00
1	 9.219109699908166e-01	 1.428317137867365e+00	-8.033174420645583e+00
1	 8.882765869862271e-01	 1.449473878440046e+00	-8.332819879402200e+00
1	 8.542516540190774e-01	 1.469783692326635e+00	-8.630343308009863e+00
1	 8.198675826701273e-01	 1.489237165217485e+00	-8.926469441067628e+00
1	 7.851559961148549e-01	 1.507826402126484e+00	-9.221941418033531e+00
1	 7.501486395899116e-01	 1.525545025106338e+00	-9.517513455294523e+00
1	 7.148772921123988e-01	 1.542388164828856e+00	-9.813943634855132e+00
1	 1.060767150638615e+00	 1.346684578938213e+00	-6.639321156919967e+00
1	 1.028734747275635e+00	 1.371309987385168e+00	-6.946286736797271e+00
1	 9.961857650463243e-01	 1.395134468918961e+00	-7.249368014218392e+00
1	 9.631501156661958e-01	 1.418142506777268e+00	-7.549141719129293e+00
1	 9.296582877936426e-01	 1.440320061303935e+00	-7.846224323420704e+00
1	 8.957412568300408e-01	 1.461654593440431e+00	-8.141265150233901e+00
1	 8.614303939007100e-01	 1.482135081706625e+00	-8.434939362790370e+00
1	 8.267573745549465e-01	 1.501752032679311e+00	-8.727940904153726e+00
1	 7.917540877149102e-01	 1.520497485026513e+00	-9.020975458088337e+00
1	 7.564525453896809e-01	 1.538365007203576e+00	-9.314753498998790e+00
1	 7.208847936526629e-01	 1.555349688962692e+00	-9.609983495885430e+00
1	 6.608100095329461e-01	 1.425734946630075e+00	-1.171189747724747e+01
1	 6.279938934045742e-01	 1.440490821570162e+00	-1.202022690008204e+01
1	 5.949922941569017e-01	 1.454432673355103e+00	-1.231928127341604e+01
1	 5.618341945948699e-01	 1.467560092601490e+00	-1.260973085972488e+01
1	 5.285483025250735e-01	 1.479873980149320e+00	-1.289223385089372e+01
1	 4.951629809952906e-01	 1.491376514271011e+00	-1.316743201743848e+01
1	 4.617061818853219e-01	 1.502071113759757e+00	-1.343594670209522e+01
1	 4.282053831011286e-01	 1.511962397240521e+00	-1.369837517777783e+01
1	 3.946875295879637e-01	 1.521056139060901e+00	-1.395528738487638e+01
1	 3.611789783415348e-01	 1.529359222129144e+00	-1.420722305793171e+01
1	 3.277054475596566e-01	 1.536879588072675e+00	-1.445468924693706e+01
1	 6.668174479949773e-01	 1.438696334669837e+00	-1.149480775055263e+01
1	 6.337029998264974e-01	 1.453586355596186e+00	-1.180096157048495e+01
1	 6.004013823074378e-01	 1.467654953064726e+00	-1.209923740537899e+01
1	 5.669418417260947e-01	 1.480901713970360e+00	-1.239028673211109e+01
1	 5.333533468724034e-01	 1.493327547342673e+00	-1.267474277075987e+01
1	 4.996645186432702e-01	 1.504934651256828e+00	-1.295321647356315e+01
1	 4.659035630296873e-01	 1.515726475586372e+00	-1.322629288441202e+01
1	 4.320982077398997e-01	 1.525707680944315e+00	-1.349452788476869e+01
1	 3.982756426762863e-01	 1.534884094173004e+00	-1.375844533683695e+01
1	 3.644624644466165e-01	 1.543262660753379e+00	-1.401853462989398e+01
1	 3.306846250534405e-01	 1.550851394510401e+00	-1.427524863097904e+01
1	 6.728248990729170e-01	 1.451657749928804e+00	-1.127940846942513e+01
1	 6.394121182377791e-01	 1.466681917123116e+00	-1.158368201994938e+01
1	 6.058104818172244e-01	 1.480877260541401e+00	-1.188136008698480e+01
1	 5.720494995834655e-01	 1.494243363356876e+00	-1.217308324000534e+01
1	 5.381584013103314e-01	 1.506781142788726e+00	-1.245946931544403e+01
1	 5.041660657444063e-01	 1.518492816714911e+00	-1.274110961255183e+01
1	 4.701009529884130e-01	 1.529381866089396e+00	-1.301856547910350e+01
1	 4.359910405534112e-01	 1.539452993513330e+00	-1.329236530026924e+01
1	 4.018637632994256e-01	 1.548712078323922e+00	-1.356300189886504e+01
1	 3.677459574467972e-01	 1.557166128574941e+00	-1.383093035025688e+01
1	 3.336638088033086e-01	 1.564823230289037e+00	-1.409656621050242e+01
1	 6.788323613649613e-01	 1.464619189382567e+00	-1.106563692634016e+01
1	 6.451212473062347e-01	 1.479777503095249e+00	-1.136829257207227e+01
1	 6.112195914240951e-01	 1.494099592699866e+00	-1.166552891565903e+01
1	 5.771571669751691e-01	 1.507585037647940e+00	-1.195798322859770e+01
1	 5.429634647176713e-01	 1.520234763348278e+00	-1.224626725603617e+01
1	 5.086676212483486e-01	 1.532051007481673e+00	-1.253096348873121e+01
1	 4.742983507821348e-01	 1.543037282082569e+00	-1.281262183738603e+01
1	 4.398838806333749e-01	 1.553198331740336e+00	-1.309175672164377e+01
1	 4.054518906202008e-01	 1.562540088287140e+00	-1.336884458084283e+01
1	 3.710294565759769e-01	 1.571069622349703e+00	-1.364432180865218e+01
1	 3.366429981141584e-01	 1.578795092148498e+00	-1.391858310897840e+01
1	 6.848398334693059e-01	 1.477580650006715e+00	-1.085343260983169e+01
1	 6.508303856996792e-01	 1.492873110456881e+00	-1.115470090336323e+01
1	 6.166287098658833e-01	 1.507321946454855e+00	-1.145162770929304e+01
1	 5.822648427093918e-01	 1.520926733730455e+00	-1.174485435123554e+01
1	 5.477685359732346e-01	 1.533688405882126e+00	-1.203499549000353e+01
1	 5.131691841047463e-01	 1.545609220393526e+00	-1.232263534282255e+01
1	 4.784957554314886e-01	 1.556692720379631e+00	-1.260832431075787e+01
1	 4.437767270715026e-01	 1.566943692418100e+00	-1.289257602709718e+01
1	 4.090400238014310e-01	 1.576368120836146e+00	-1.317586483417528e+01
1	 3.743129610680549e-01	 1.584973138833540e+00	-1.345862369106126e+01
1	 3.396221922908876e-01	 1.592766976828704e+00	-1.374124250971547e+01
1	 6.908473139841474e-01	 1.490542128776837e+00	-1.064273710911452e+01
1	 6.565395320859277e-01	 1.505968736152311e+00	-1.094281789758046e+01
1	 6.220378358804222e-01	 1.520544318721102e+00	-1.123954432286483e+01
1	 5.873725255943202e-01	 1.534268448491324e+00	-1.153356886049122e+01
1	 5.525736139558346e-01	 1.547142067251067e+00	-1.182551781841564e+01
1	 5.176707532632490e-01	 1.559167452286884e+00	-1.211598737654432e+01
1	 4.826931659571100e-01	 1.570348177794324e+00	-1.240554003367706e+01
1	 4.476695789595063e-01	 1.580689072339393e+00	-1.269470147656929e+01
1	 4.126281620059352e-01	 1.590196172744423e+00	-1.298395788045691e+01
1	 3.775964701569311e-01	 1.598876674782327e+00	-1.327375364520468e+01
1	 3.426013906383933e-01	 1.606738881069568e+00	-1.356448956628932e+01
1	 6.968548015076812e-01	 1.503503622668521e+00	-1.043349402363700e+01
1	 6.622486851327958e-01	 1.519064377125835e+00	-1.073255750759684e+01
1	 6.274469682055451e-01	 1.533766706413344e+00	-1.102917047454042e+01
1	 5.924802144381417e-01	 1.547610178817451e+00	-1.132400341003119e+01
1	 5.573786975442838e-01	 1.560595744315900e+00	-1.161770273468531e+01
1	 5.221723276735055e-01	 1.572725699998159e+00	-1.191088653886718e+01
1	 4.868905813796346e-01	 1.584003651140387e+00	-1.220414071747341e+01
1	 4.515624353890979e-01	 1.594434468296983e+00	-1.249801552292082e+01
1	 4.162163043965322e-01	 1.604024240785459e+00	-1.279302254899627e+01
1	 3.808799830765049e-01	 1.612780226951937e+00	-1.308963215288965e+01
1	 3.455805924615731e-01	 1.620710801611011e+00	-1.338827131760264e+01
1	 7.028622946381037e-01	 1.516465128657361e+00	-1.022564887726946e+01
1	 6.679578435080994e-01	 1.532160030321748e+00	-1.052383662434593e+01
1	 6.328561055790856e-01	 1.546989106446313e+00	-1.082040158068732e+01
1	 5.975879080490418e-01	 1.560951921595736e+00	-1.111603886663896e+01
1	 5.621837856173949e-01	 1.574049433937420e+00	-1.141142322413789e+01
1	 5.266739062851655e-01	 1.586283960363764e+00	-1.170720432322398e+01
1	 4.910880007196984e-01	 1.597659137231560e+00	-1.200400245482363e+01
1	 4.554552954519890e-01	 1.608179877083638e+00	-1.230240463279824e+01
1	 4.198044501360410e-01	 1.617852321732738e+00	-1.260296112266780e+01
1	 3.841634990606759e-01	 1.626683792098246e+00	-1.290618240890089e+01
1	 3.485597970653248e-01	 1.634682735192947e+00	-1.321253660729843e+01
1	 7.088697919736107e-01	 1.529426643718942e+00	-1.001914903685331e+01
1	 6.736670058796532e-01	 1.545255692684351e+00	-1.031657495242776e+01
1	 6.382652467388765e-01	 1.560211515734747e+00	-1.061313659927341e+01
1	 6.026956052352083e-01	 1.574293673713084e+00	-1.090956013179197e+01
1	 5.669888770539799e-01	 1.587503132976426e+00	-1.120655657376572e+01
1	 5.311754880478785e-01	 1.599842230220111e+00	-1.150481657502527e+01
1	 4.952854229979372e-01	 1.611314632881585e+00	-1.180500553416289e+01
1	 4.593481582398922e-01	 1.621925295492131e+00	-1.210775911660069e+01
1	 4.233925983872811e-01	 1.631680412359747e+00	-1.241367919159721e+01
1	 3.874470173433437e-01	 1.640587366977126e+00	-1.272333020604556e+01
1	 3.515390037545456e-01	 1.648654678555294e+00	-1.303723600726891e+01
1	 7.148772921123988e-01	 1.542388164828856e+00	-9.813943634855132e+00
1	 6.793761709152731e-01	 1.558351361157939e+00	-1.011069489198369e+01
1	 6.436743904227521e-01	 1.573433931193380e+00	-1.040727788115667e+01
1	 6.078033048048269e-01	 1.587635432056398e+00	-1.070445597222905e+01
1	 5.717939707328523e-01	 1.600956838293715e+00	-1.100298419157036e+01
1	 5.356770719112932e-01	 1.613400506403615e+00	-1.130360330887496e+01
1	 4.994828472349865e-01	 1.624970134904201e+00	-1.160703426344856e+01
1	 4.632410228445188e-01	 1.635670720315228e+00	-1.191397296701656e+01
1	 4.269807483130713e-01	 1.645508509439972e+00	-1.222508551422019e+01
1	 3.907305371584079e-01	 1.654490948344454e+00	-1.254100382599141e+01
1	 3.545182118341331e-01	 1.662626628437968e+00	-1.286232174501888e+01
1	 7.208847936526629e-01	 1.555349688962692e+00	-9.609983495885428e+00
1	 6.850853372827741e-01	 1.571447032686810e+00	-9.906121426473863e+00
1	 6.490835353685449e-01	 1.586656349736946e+00	-1.020273102880661e+01
1	 6.129110055660850e-01	 1.600977193512580e+00	-1.050061885898535e+01
1	 5.765990655328243e-01	 1.614410546750085e+00	-1.080059143493198e+01
1	 5.401786568250596e-01	 1.626958785750686e+00	-1.110344853491990e+01
1	 5.036802724514819e-01	 1.638625640113148e+00	-1.140997680273106e+01
1	 4.671338883575810e-01	 1.649416148345699e+00	-1.172094370562806e+01
1	 4.305688990762302e-01	 1.659336609746896e+00	-1.203709188528432e+01
1	 3.940140577397680e-01	 1.668394532956102e+00	-1.235913393556018e+01
1	 3.574974206089847e-01	 1.676598581580888e+00	-1.268774763465881e+01
1	 3.277054475596566e-01	 1.536879588072675e+00	-1.445468924693707e+01
1	 2.942896394197481e-01	 1.543626630612252e+00	-1.469660641562844e+01
1	 2.609582370370435e-01	 1.549609699338690e+00	-1.492834945652489e+01
1	 2.277348167703377e-01	 1.554839594943745e+00	-1.514517694296628e+01
1	 1.946421534908471e-01	 1.559327958474682e+00	-1.534243736444004e+01
1	 1.617021913504131e-01	 1.563087213574030e+00	-1.551560557085973e+01
1	 1.289360188419721e-01	 1.566130508218708e+00	-1.566031624292259e+01
1	 9.636384807059289e-02	 1.568471656282942e+00	-1.577239427396607e+01
1	 6.400499812932171e-02	 1.570125079232223e+00	-1.584788198837297e+01
1	 3.187788245248261e-02	 1.571105748236902e+00	-1.588306315918975e+01
1	 0.000000000000000e+00	 1.571429126974074e+00	-1.587448382283933e+01
1	 3.306846250534405e-01	 1.550851394510401e+00	-1.427524863097904e+01
1	 2.969650330601949e-01	 1.557659774563367e+00	-1.452720222567451e+01
1	 2.633306141588863e-01	 1.563697235500412e+00	-1.476946213067651e+01
1	 2.298051590414819e-01	 1.568974676202594e+00	-1.499722226803821e+01
1	 1.964116496260302e-01	 1.573503843546176e+00	-1.520575949425507e+01
1	 1.631722295591158e-01	 1.577297274117268e+00	-1.539047130643303e+01
1	 1.301081790496060e-01	 1.580368235421320e+00	-1.554691053841827e+01
1	 9.723989395123935e-02	 1.582730666914771e+00	-1.567081692376616e+01
1	 6.458686898734058e-02	 1.584399121168951e+00	-1.575814544312687e+01
1	 3.216768498914947e-02	 1.585388705457435e+00	-1.580509141231913e+01
1	 0.000000000000000e+00	 1.585715024037928e+00	-1.580811230365611e+01
1	 3.336638088033086e-01	 1.564823230289037e+00	-1.409656621050242e+01
1	 2.996404323188487e-01	 1.571692947984227e+00	-1.435822146990696e+01
1	 2.657029962626957e-01	 1.577784801246143e+00	-1.461067622074963e+01
1	 2.318755056604246e-01	 1.583109787145346e+00	-1.484910345952151e+01
1	 1.981811494773361e-01	 1.587679758387314e+00	-1.506874942810399e+01
1	 1.646422708551647e-01	 1.591507364501976e+00	-1.526497242245173e+01
1	 1.312803417190977e-01	 1.594605992523555e+00	-1.543327858438877e+01
1	 9.811594167191655e-02	 1.596989707490964e+00	-1.556935454420214e+01
1	 6.516874106758115e-02	 1.598673193081649e+00	-1.566909682324152e+01
1	 3.245748813458684e-02	 1.599671692672685e+00	-1.572863794529257e+01
1	 0.000000000000000e+00	 1.600000951102682e+00	-1.574436924266700e+01
1	 3.366429981141584e-01	 1.578795092148498e+00	-1.391858310897840e+01
1	 3.023158365714739e-01	 1.585726147600425e+00	-1.418963501456600e+01
1	 2.680753827949167e-01	 1.591872393288765e+00	-1.445198683265514e+01
1	 2.339458561440598e-01	 1.597244924473769e+00	-1.470083327831769e+01
1	 1.999506526318324e-01	 1.601855699690321e+00	-1.493142996344729e+01
1	 1.661123148954805e-01	 1.605717481412379e+00	-1.513913315092102e+01
1	 1.324525065768595e-01	 1.608843776203160e+00	-1.531943651390861e+01
1	 9.899199102812779e-02	 1.611248774684285e+00	-1.546800475817433e+01
1	 6.575061423419873e-02	 1.612947291639554e+00	-1.558070400732817e+01
1	 3.274729182112705e-02	 1.613954706549799e+00	-1.565362889118598e+01
1	 0.000000000000000e+00	 1.614286904834791e+00	-1.568312631528189e+01
1	 3.396221922908876e-01	 1.592766976828704e+00	-1.374124250971547e+01
1	 3.049912451938341e-01	 1.599759370137553e+00	-1.402141474194497e+01
1	 2.704477732019946e-01	 1.605960008341164e+00	-1.429338923776981e+01
1	 2.360162100092825e-01	 1.611380084889633e+00	-1.455242403140111e+01
1	 2.017201586765864e-01	 1.616031664147421e+00	-1.479382309193349e+01
1	 1.675823613369835e-01	 1.619927621532703e+00	-1.501297686820881e+01
1	 1.336246733493040e-01	 1.623081583137882e+00	-1.520539988936681e+01
1	 9.986804181537626e-02	 1.625507865167492e+00	-1.536676526845767e+01
1	 6.633248835134857e-02	 1.627221413511901e+00	-1.549293599893976e+01
1	 3.303709598110238e-02	 1.628237743755919e+00	-1.557999297453282e+01
1	 0.000000000000000e+00	 1.628572881900711e+00	-1.562425970129468e+01
1	 3.426013906383933e-01	 1.606738881069568e+00	-1.356448956628932e+01
1	 3.076666575616935e-01	 1.613792612321206e+00	-1.385353350617764e+01
1	 2.728201669303748e-01	 1.620047643116225e+00	-1.413487886568485e+01
1	 2.380865667729871e-01	 1.625515265094705e+00	-1.440388759148194e+01
1	 2.034896671986657e-01	 1.630207648450840e+00	-1.465595003435527e+01
1	 1.690524098365944e-01	 1.634137781547173e+00	-1.488652613217207e+01
1	 1.347968417628433e-01	 1.637319410005468e+00	-1.509118372722177e+01
1	 1.007440938291653e-01	 1.639766975613346e+00	-1.526563385420271e+01
1	 6.691436328318605e-02	 1.641495555367928e+00	-1.540576287768366e+01
1	 3.332690054684517e-02	 1.642520800958194e+00	-1.550766139874167e+01
1	 0.000000000000000e+00	 1.642858878966899e+00	-1.556764988921640e+01
1	 3.455805924615731e-01	 1.620710801611011e+00	-1.338827131760264e+01
1	 3.103420730508159e-01	 1.627825870876976e+00	-1.368596509131045e+01
1	 2.751925634265017e-01	 1.634135294326828e+00	-1.397645129732819e+01
1	 2.401569259520681e-01	 1.639650461790754e+00	-1.425523541565282e+01
1	 2.052591777851377e-01	 1.644383649292800e+00	-1.451783127379756e+01
1	 1.705224600512337e-01	 1.648347958140015e+00	-1.475980271736411e+01
1	 1.359690115438899e-01	 1.651557253483665e+00	-1.497680252147580e+01
1	 1.016201468649982e-01	 1.654026102694607e+00	-1.516460836761816e+01
1	 6.749623889386641e-02	 1.655769713876872e+00	-1.531915575286113e+01
1	 3.361670545068771e-02	 1.656803874823768e+00	-1.543656773933392e+01
1	 0.000000000000000e+00	 1.657144892699808e+00	-1.551318149072369e+01
1	 3.485597970653248e-01	 1.634682735192947e+00	-1.321253660729843e+01
1	 3.130174910369654e-01	 1.641859142530455e+00	-1.351868417152446e+01
1	 2.775649621368211e-01	 1.648222958685861e+00	-1.381810225843993e+01
1	 2.422272870634201e-01	 1.653785671679549e+00	-1.410647856307926e+01
1	 2.070286900230696e-01	 1.658559663365526e+00	-1.437948658708789e+01
1	 1.719925116378218e-01	 1.662558147995457e+00	-1.463282764843698e+01
1	 1.371411824188563e-01	 1.665795110250220e+00	-1.486227026594653e+01
1	 1.024962007183783e-01	 1.668285243084035e+00	-1.506368673082298e+01
1	 6.807811504754498e-02	 1.670043885707968e+00	-1.523308671948314e+01
1	 3.390651062496230e-02	 1.671086962019786e+00	-1.536664784265344e+01
1	 0.000000000000000e+00	 1.671430919765895e+00	-1.546074306461726e+01
1	 3.515390037545456e-01	 1.648654678555294e+00	-1.303723600726891e+01
1	 3.156929108959057e-01	 1.655892424007237e+00	-1.335166627337793e+01
1	 2.799373625077779e-01	 1.662310632906206e+00	-1.365982761337937e+01
1	 2.442976496239377e-01	 1.667920891462859e+00	-1.395762771179186e+01
1	 2.087982034995289e-01	 1.672735687361241e+00	-1.424093507464752e+01
1	 1.734625642532792e-01	 1.676768347797720e+00	-1.450562123184676e+01
1	 1.383133541141546e-01	 1.680032976982881e+00	-1.474760047540691e+01
1	 1.033722551848087e-01	 1.682544393454391e+00	-1.496286693285863e+01
1	 6.865999160837707e-02	 1.684318067530453e+00	-1.514752881652131e+01
1	 3.419631600200129e-02	 1.685370059213394e+00	-1.529783972972374e+01
1	 0.000000000000000e+00	 1.685716956831615e+00	-1.541022694972696e+01
1	 3.545182118341331e-01	 1.662626628437968e+00	-1.286232174501888e+01
1	 3.183683320034011e-01	 1.669925712032915e+00	-1.318488773995233e+01
1	 2.823097639858171e-01	 1.676398313700747e+00	-1.350162335924366e+01
1	 2.463680131505155e-01	 1.682056117842452e+00	-1.380869317463146e+01
1	 2.105677178015833e-01	 1.686911717972173e+00	-1.410219518883842e+01
1	 1.749326175545266e-01	 1.690978554231035e+00	-1.437820308596070e+01
1	 1.394855263561973e-01	 1.694270850359393e+00	-1.463280620565938e+01
1	 1.042483100597928e-01	 1.696803550478436e+00	-1.486214702685171e+01
1	 6.924186844051797e-02	 1.698592256013564e+00	-1.506245598726309e+01
1	 3.448612151413695e-02	 1.699653163071737e+00	-1.523008350495001e+01
1	 0.000000000000000e+00	 1.700003000563425e+00	-1.536152910623688e+01
1	 3.574974206089847e-01	 1.676598581580888e+00	-1.268774763465881e+01
1	 3.210437537352151e-01	 1.683959003333080e+00	-1.301832569678953e+01
1	 2.846821660173839e-01	 1.690485997782369e+00	-1.334348562028066e+01
1	 2.484383771600480e-01	 1.696191347520098e+00	-1.365968491439795e+01
1	 2.123372325162998e-01	 1.701087751890542e+00	-1.396328476089404e+01
1	 1.764026711984843e-01	 1.705188763979623e+00	-1.425059216966019e+01
1	 1.406576988713968e-01	 1.708508727057505e+00	-1.451790007260711e+01
1	 1.051243651388339e-01	 1.711062710828929e+00	-1.476152512731868e+01
1	 6.982374540812293e-02	 1.712866447826537e+00	-1.497784304164714e+01
1	 3.477592709370159e-02	 1.713936270261961e+00	-1.516332126938379e+01
1	 0.000000000000000e+00	 1.714289047627778e+00	-1.531454896494029e+01
1	 1.714289047627778e+00	 0.000000000000000e+00	 4.025512444028058e+00
1	 1.713936270261961e+00	 3.477592709370207e-02	 3.735366642030807e+00
1	 1.712866447826537e+00	 6.982374540812339e-02	 3.447697159947588e+00
1	 1.711062710828929e+00	 1.051243651388343e-01	 3.164255390678242e+00
1	 1.708508727057505e+00	 1.406576988713972e-01	 2.886640230144970e+00
1	 1.705188763979623e+00	 1.764026711984846e-01	 2.616278907388606e+00
1	 1.701087751890541e+00	 2.123372325163000e-01	 2.354407891413606e+00
1	 1.696191347520097e+00	 2.484383771600481e-01	 2.102054046663789e+00
1	 1.690485997782368e+00	 2.846821660173839e-01	 1.860016219281252e+00
1	 1.683959003333080e+00	 3.210437537352151e-01	 1.628847445071109e+00
1	 1.676598581580888e+00	 3.574974206089848e-01	 1.408837977096465e+00
1	 1.728574095521189e+00	 0.000000000000000e+00	 3.874342329704912e+00
1	 1.728218378486883e+00	 3.506571240396094e-02	 3.593949936259972e+00
1	 1.727139641297820e+00	 7.040558167873665e-02	 3.315704485457833e+00
1	 1.725320873889139e+00	 1.060003589459308e-01	 3.041372044681538e+00
1	 1.722745607954046e+00	 1.418297894041265e-01	 2.772555743759616e+00
1	 1.719397979861821e+00	 1.778726220261430e-01	 2.510675972841903e+00
1	 1.715262794332935e+00	 2.141066234704215e-01	 2.256950704547676e+00
1	 1.710325588575774e+00	 2.505085963676164e-01	 2.012376120929652e+00
1	 1.704572696567506e+00	 2.870544021224812e-01	 1.777707736117438e+00
1	 1.697991313141118e+00	 3.237189883473828e-01	 1.553442214213967e+00
1	 1.690569557521760e+00	 3.604764210173156e-01	 1.339800088841196e+00
1	 1.742859145080407e+00	 0.000000000000000e+00	 3.729252408972857e+00
1	 1.742500488377288e+00	 3.535549774782452e-02	 3.458150769480475e+00
1	 1.741412836433600e+00	 7.098741801690599e-02	 3.188993472737480e+00
1	 1.739579038612174e+00	 1.068763528548506e-01	 2.923543015269098e+00
1	 1.736982490511031e+00	 1.430018800732304e-01	 2.663387295393983e+00
1	 1.733607197401348e+00	 1.793425730249776e-01	 2.409919262909171e+00
1	 1.729437838428791e+00	 2.158760146307364e-01	 2.164316754482511e+00
1	 1.724459831280267e+00	 2.525788158165745e-01	 1.927522704042351e+00
1	 1.718659396996017e+00	 2.894266385043066e-01	 1.700225927679584e+00
1	 1.712023624586264e+00	 3.263942232717196e-01	 1.482842691071569e+00
1	 1.704540535092635e+00	 3.634554217733189e-01	 1.275499273916316e+00
1	 1.757144197972236e+00	 0.000000000000000e+00	 3.590108421397741e+00
1	 1.756782601599632e+00	 3.564528315913626e-02	 3.327834380667713e+00
1	 1.755686034899275e+00	 7.156925449056786e-02	 3.067426354514332e+00
1	 1.753837206661650e+00	 1.077523469678567e-01	 2.810625510125382e+00
1	 1.751219376389558e+00	 1.441739710155140e-01	 2.558985553954524e+00
1	 1.747816418256035e+00	 1.808125243665337e-01	 2.313851916025658e+00
1	 1.743612885831910e+00	 2.176454062037084e-01	 2.076341195128617e+00
1	 1.738594077282574e+00	 2.546490357484635e-01	 1.847321063026445e+00
1	 1.732746100711309e+00	 2.917988754396157e-01	 1.627390835783030e+00
1	 1.726055939305545e+00	 3.290694588203119e-01	 1.416862928444585e+00
1	 1.718511515923357e+00	 3.664344232245056e-01	 1.215745415280693e+00
1	 1.771429255863481e+00	 0.000000000000000e+00	 3.456780436909946e+00
1	 1.771064719820369e+00	 3.593506867173953e-02	 3.202870355841648e+00
1	 1.769959238360241e+00	 7.215109116765889e-02	 2.950869807930276e+00
1	 1.768095379701184e+00	 1.086283413872122e-01	 2.702481343716470e+00
1	 1.765456267250724e+00	 1.453460623677827e-01	 2.459206006217352e+00
1	 1.762025644083712e+00	 1.822824762223564e-01	 2.222322131480789e+00
1	 1.757787938196089e+00	 2.194147983958013e-01	 1.992864498805409e+00
1	 1.752728328231689e+00	 2.567192564048238e-01	 1.771604037661927e+00
1	 1.746832809356790e+00	 2.941711132051639e-01	 1.559028307961004e+00
1	 1.740088258935989e+00	 3.317446953052459e-01	 1.355322977916886e+00
1	 1.732482501643770e+00	 3.694134257183873e-01	 1.160354529059271e+00
1	 1.785714320420949e+00	 0.000000000000000e+00	 3.329142682523183e+00
1	 1.785346844705957e+00	 3.622485431947773e-02	 3.083132454136820e+00
1	 1.784232448481896e+00	 7.273292811611563e-02	 2.839194776730722e+00
1	 1.782353559394390e+00	 1.095043362151798e-01	 2.598976752995070e+00
1	 1.779693164755627e+00	 1.465181542668418e-01	 2.363908764096698e+00
1	 1.776234876542209e+00	 1.837524287639910e-01	 2.135182966971314e+00
1	 1.771962997175129e+00	 2.211841914134787e-01	 1.913732243494094e+00
1	 1.766862585776610e+00	 2.587894780271963e-01	 1.700209817563416e+00
1	 1.760919524575868e+00	 2.965433520777065e-01	 1.494969765224466e+00
1	 1.754120585114621e+00	 3.344199330386080e-01	 1.298048649891552e+00
1	 1.746453493883714e+00	 3.723924296024745e-01	 1.109148519202832e+00
1	 1.799999393311444e+00	 0.000000000000000e+00	 3.207073377306584e+00
1	 1.799628977922850e+00	 3.651464013619429e-02	 2.968498442156642e+00
1	 1.798505666929638e+00	 7.331476540387465e-02	 2.732276301923038e+00
1	 1.796611747404884e+00	 1.103803315540226e-01	 2.499982221883441e+00
1	 1.793930070565364e+00	 1.476902468494966e-01	 2.272958381093019e+00
1	 1.790444117289355e+00	 1.852223821629827e-01	 2.052292145796929e+00
1	 1.786138064422830e+00	 2.229535854632044e-01	 1.838794910223503e+00
1	 1.780996851566330e+00	 2.608597008571214e-01	 1.632981729876970e+00
1	 1.775006248011951e+00	 2.989155923339993e-01	 1.435051980883508e+00
1	 1.768152919478469e+00	 3.370951723324846e-01	 1.244871285056304e+00
1	 1.760424494273034e+00	 3.753714352242781e-01	 1.061954943833215e+00
1	 1.814284476201773e+00	 0.000000000000000e+00	 3.090454575155058e+00
1	 1.813911121137507e+00	 3.680442615573260e-02	 2.858849936155120e+00
1	 1.812778895368865e+00	 7.389660309887248e-02	 2.629993360437154e+00
1	 1.810869945396284e+00	 1.112563275060036e-01	 2.405372314050180e+00
1	 1.808166986341034e+00	 1.488623402525523e-01	 2.186223677414812e+00
1	 1.804653367982980e+00	 1.866923365908769e-01	 1.973511873166741e+00
1	 1.800313141592991e+00	 2.247229807514419e-01	 1.767907690030414e+00
1	 1.795131127249848e+00	 2.629299251361402e-01	 1.569768037009109e+00
1	 1.789092981308450e+00	 3.012878342507974e-01	 1.379116869820315e+00
1	 1.782185263664559e+00	 3.397704134989622e-01	 1.195627536648184e+00
1	 1.774395504441572e+00	 3.783504429313092e-01	 1.018606792629765e+00
1	 1.828569570758740e+00	 0.000000000000000e+00	 2.979172014931456e+00
1	 1.828193276016381e+00	 3.709421241193604e-02	 2.754072251618001e+00
1	 1.827052135464973e+00	 7.447844126904567e-02	 2.532228711350605e+00
1	 1.825128155032205e+00	 1.121323241733859e-01	 2.315025513527464e+00
1	 1.822403913743735e+00	 1.500344346128143e-01	 2.103577573299524e+00
1	 1.818862630280913e+00	 1.881622922192187e-01	 1.898708661118250e+00
1	 1.814488230339411e+00	 2.264923774846551e-01	 1.700930299970548e+00
1	 1.809265414476158e+00	 2.650001511057931e-01	 1.510421743839448e+00
1	 1.803179726108771e+00	 3.036600781048565e-01	 1.327011287642212e+00
1	 1.796217619309920e+00	 3.424456568501271e-01	 1.150159162926762e+00
1	 1.788366526019169e+00	 3.813294530710787e-01	 9.789422746530191e-01
1	 1.842854678649152e+00	 0.000000000000000e+00	 2.873114977580295e+00
1	 1.842475444225930e+00	 3.738399893864804e-02	 2.654054259841514e+00
1	 1.841325388883362e+00	 7.506027998233086e-02	 2.438868749267379e+00
1	 1.839386377976264e+00	 1.130083216584323e-01	 2.228824072742860e+00
1	 1.836640854434564e+00	 1.512065300670879e-01	 2.024896930088782e+00
1	 1.833071905840984e+00	 1.896322492195532e-01	 1.827753161581326e+00
1	 1.828663332315891e+00	 2.282617758693076e-01	 1.637726807689009e+00
1	 1.823399714894257e+00	 2.670703790076208e-01	 1.454800413901979e+00
1	 1.817266484056323e+00	 3.060323241729319e-01	 1.278586839178331e+00
1	 1.810249988051576e+00	 3.451209026980651e-01	 1.108312829301868e+00
1	 1.802337560635670e+00	 3.843084659910977e-01	 9.428046160392192e-01
1	 1.857139801539814e+00	 0.000000000000000e+00	 2.772176149837718e+00
1	 1.856757627432609e+00	 3.767378576971200e-02	 2.558688251132124e+00
1	 1.855598657289427e+00	 7.564211930666453e-02	 2.349803364465408e+00
1	 1.853644615892075e+00	 1.138843200634058e-01	 2.146653867566638e+00
1	 1.850877810074617e+00	 1.523786267521784e-01	 1.950062398640021e+00
1	 1.847281196321023e+00	 1.911022077634259e-01	 1.760520007148675e+00
1	 1.842838449176228e+00	 2.300311761118631e-01	 1.578165464089216e+00
1	 1.837534030153142e+00	 2.691406090831643e-01	 1.402765994052206e+00
1	 1.831353256794514e+00	 3.084045727317791e-01	 1.233699695816861e+00
1	 1.824282371526556e+00	 3.477961513548631e-01	 1.069939919595821e+00
1	 1.816308609920916e+00	 3.872874820388771e-01	 9.100418670339709e-01
1	 1.676598581580888e+00	 3.574974206089848e-01	 1.408837977096465e+00
1	 1.668394532956103e+00	 3.940140577397678e-01	 1.194450416769258e+00
1	 1.659336609746896e+00	 4.305688990762300e-01	 9.801563716937124e-01
1	 1.649416148345699e+00	 4.671338883575807e-01	 7.660463295527737e-01
1	 1.638625640113148e+00	 5.036802724514817e-01	 5.521398451833828e-01
1	 1.626958785750686e+00	 5.401786568250593e-01	 3.383831186370027e-01
1	 1.614410546750085e+00	 5.765990655328240e-01	 1.246470553709275e-01
1	 1.600977193512580e+00	 6.129110055660848e-01	-8.927415008126061e-02
1	 1.586656349736946e+00	 6.490835353685447e-01	-3.036638693580350e-01
1	 1.571447032686810e+00	 6.850853372827735e-01	-5.188833013093863e-01
1	 1.555349688962692e+00	 7.208847936526629e-01	-7.353711108742520e-01
1	 1.690569557521760e+00	 3.604764210173156e-01	 1.339800088841196e+00
1	 1.682297145147446e+00	 3.972973486709880e-01	 1.131624418880187e+00
1	 1.673163742912899e+00	 4.341567988833240e-01	 9.237948836173864e-01
1	 1.663160615017326e+00	 4.710264816027064e-01	 7.163605000618899e-01
1	 1.652280190252409e+00	 5.078774040989901e-01	 5.092971662127515e-01
1	 1.640516116827987e+00	 5.446799268967493e-01	 3.025054366923918e-01
1	 1.627863314250304e+00	 5.814038242630720e-01	 9.580880395384456e-02
1	 1.614318021842113e+00	 6.180183490931940e-01	-1.110474744265740e-01
1	 1.599877843500642e+00	 6.544923019970287e-01	-3.183969658993118e-01
1	 1.584541788300445e+00	 6.907941043493352e-01	-5.266520388326027e-01
1	 1.568310306563534e+00	 7.268918750263221e-01	-7.363031979094539e-01
1	 1.704540535092635e+00	 3.634554217733189e-01	 1.275499273916316e+00
1	 1.696199758960834e+00	 4.005806399854069e-01	 1.073420261747703e+00
1	 1.686990877692122e+00	 4.377446991091438e-01	 8.719119613907194e-01
1	 1.676905083292483e+00	 4.749190753020670e-01	 6.709836746369625e-01
1	 1.665934741984644e+00	 5.120745362362030e-01	 4.705698292602477e-01
1	 1.654073449486839e+00	 5.491811974935525e-01	 2.705279528694332e-01
1	 1.641316083319784e+00	 5.862085835537597e-01	 7.063717245614776e-02
1	 1.627658851727757e+00	 6.231256932159654e-01	-1.294027208264945e-01
1	 1.613099338806441e+00	 6.599010692562723e-01	-3.299716064201184e-01
1	 1.597636545441326e+00	 6.965028720816038e-01	-5.315287384489791e-01
1	 1.581270925675919e+00	 7.328989571004662e-01	-7.346117946581150e-01
1	 1.718511515923357e+00	 3.664344232245056e-01	 1.215745415280693e+00
1	 1.710102376018112e+00	 4.038639320660273e-01	 1.019645595846616e+00
1	 1.700818015697596e+00	 4.413326001722281e-01	 8.243146539120606e-01
1	 1.690649554774556e+00	 4.788116699097500e-01	 6.297238780717483e-01
1	 1.679589296902752e+00	 5.162716693527420e-01	 4.357683521585179e-01
1	 1.667630785308807e+00	 5.536824691405806e-01	 2.422651279881116e-01
1	 1.654768855527909e+00	 5.910133439654144e-01	 4.895194064016095e-02
1	 1.640999684725852e+00	 6.282330385302358e-01	-1.445134953013980e-01
1	 1.626320837196780e+00	 6.653098377772834e-01	-3.385535746586063e-01
1	 1.610731305637117e+00	 7.022116411455900e-01	-5.336702470877552e-01
1	 1.594231547811875e+00	 7.389060405759064e-01	-7.304437963328404e-01
1	 1.732482501643770e+00	 3.694134257183873e-01	 1.160354529059271e+00
1	 1.724004997941130e+00	 4.071472252958528e-01	 9.701142767207257e-01
1	 1.714645158542355e+00	 4.449205024911146e-01	 7.808162344580101e-01
1	 1.704394031066931e+00	 4.827042658798432e-01	 5.923953279771879e-01
1	 1.693243856599635e+00	 5.204688039382299e-01	 4.047093650714695e-01
1	 1.681188125875464e+00	 5.581837423629465e-01	 2.175374079555572e-01
1	 1.668221632444061e+00	 5.958181060585634e-01	 3.057870173870048e-02
1	 1.654340522392739e+00	 6.333403856318414e-01	-1.565478037892725e-01
1	 1.639542340214093e+00	 6.707186081910695e-01	-3.443033066186389e-01
1	 1.623826070415485e+00	 7.079204122073055e-01	-5.332283522366162e-01
1	 1.607192174483439e+00	 7.449131261534553e-01	-7.239413597309399e-01
1	 1.746453493883714e+00	 3.723924296024745e-01	 1.109148519202832e+00
1	 1.737907626351737e+00	 4.104305200578861e-01	 9.246461167661907e-01
1	 1.728472307839431e+00	 4.485084064843417e-01	 7.412359516947045e-01
1	 1.718138513772992e+00	 4.865968636664336e-01	 5.588181870560280e-01
1	 1.706898422668192e+00	 5.246659404822887e-01	 3.772153659897168e-01
1	 1.694745472768375e+00	 5.626850176857625e-01	 1.961709843530801e-01
1	 1.681674415637626e+00	 6.006228703937345e-01	 1.534862990901753e-02
1	 1.667681366284758e+00	 6.384477351166188e-01	-1.656682761536581e-01
1	 1.652763849400814e+00	 6.761273811286392e-01	-3.473761044809703e-01
1	 1.636920841304096e+00	 7.136291859327605e-01	-5.303499843182544e-01
1	 1.620152807202639e+00	 7.509202145339247e-01	-7.152420927669290e-01
1	 1.760424494273034e+00	 3.753714352242781e-01	 1.061954943833215e+00
1	 1.751810262871778e+00	 4.137138167351304e-01	 8.830666488373540e-01
1	 1.742299465201855e+00	 4.520963125704471e-01	 7.053987925483598e-01
1	 1.731883004496130e+00	 4.904894637236090e-01	 5.288183271764824e-01
1	 1.720552996701325e+00	 5.288630794745405e-01	 3.531144878716564e-01
1	 1.708302827569110e+00	 5.671862956341406e-01	 1.779975664263745e-01
1	 1.695127206677984e+00	 6.054276375314546e-01	 3.098258762846640e-03
1	 1.681022217958248e+00	 6.435550875804049e-01	-1.720323795221836e-01
1	 1.665985366299380e+00	 6.815361572210009e-01	-3.479223403259619e-01
1	 1.650015619830615e+00	 7.193379629879657e-01	-5.251774094277997e-01
1	 1.633113447481505e+00	 7.569273064181260e-01	-7.044792349776987e-01
1	 1.774395504441572e+00	 3.783504429313092e-01	 1.018606792629765e+00
1	 1.765712909123104e+00	 4.169971157105886e-01	 8.452069010232086e-01
1	 1.756126632242661e+00	 4.556842211679692e-01	 6.731352562811975e-01
1	 1.745627504839728e+00	 4.943820665054570e-01	 5.022271045944464e-01
1	 1.734207580291934e+00	 5.330602214046075e-01	 3.322402767881535e-01
1	 1.721860191859237e+00	 5.716875767331930e-01	 1.628541638501523e-01
1	 1.708580007134521e+00	 6.102324080322513e-01	-6.330729638135302e-03
1	 1.694363078969549e+00	 6.486624436190352e-01	-1.757926215439103e-01
1	 1.679206892452224e+00	 6.869449370991629e-01	-3.460876502294867e-01
1	 1.663110407522708e+00	 7.250467440389313e-01	-5.178484129625360e-01
1	 1.646074096832072e+00	 7.629344025068715e-01	-6.917818294979835e-01
1	 1.788366526019169e+00	 3.813294530710787e-01	 9.789422746530190e-01
1	 1.779615566727561e+00	 4.202804173672640e-01	 8.109031819835412e-01
1	 1.769953810574883e+00	 4.592721326954460e-01	 6.442811391598805e-01
1	 1.759372016407173e+00	 4.982746724660650e-01	 4.788811457144780e-01
1	 1.747862175032921e+00	 5.372573667621118e-01	 3.144314804689641e-01
1	 1.735417567220324e+00	 5.761888615080321e-01	 1.505828796779200e-01
1	 1.722032818576619e+00	 6.150371824566518e-01	-1.309170589385800e-02
1	 1.707703950875002e+00	 6.537698038283475e-01	-1.770967441169458e-01
1	 1.692428429401783e+00	 6.923537213941328e-01	-3.420131192586236e-01
1	 1.676205205908041e+00	 7.307555297516691e-01	-5.084964746421723e-01
1	 1.659034756766367e+00	 7.689415035009731e-01	-6.772748869727656e-01
1	 1.802337560635670e+00	 3.843084659910977e-01	 9.428046160392193e-01
1	 1.793518237306999e+00	 4.235637220881598e-01	 7.799968762715712e-01
1	 1.783781001811550e+00	 4.628600475714155e-01	 6.186773291415122e-01
1	 1.773116540801850e+00	 5.021672820595204e-01	 4.586221428175061e-01
1	 1.761516782517186e+00	 5.414545160366759e-01	 2.995318466863131e-01
1	 1.748974955233941e+00	 5.806901504837704e-01	 1.410307129240595e-01
1	 1.735485642573661e+00	 6.198419613651838e-01	-1.733328502139014e-02
1	 1.721044835230948e+00	 6.588771688041771e-01	-1.760879081034920e-01
1	 1.705649978690491e+00	 6.977625107369195e-01	-3.358354578610465e-01
1	 1.689300016514280e+00	 7.364643207921889e-01	-4.972509353867931e-01
1	 1.671995428796423e+00	 7.749486101012426e-01	-6.610795418441797e-01
1	 1.816308609920916e+00	 3.872874820388771e-01	 9.100418670339709e-01
1	 1.807420922483264e+00	 4.268470302562786e-01	 7.523342491052339e-01
1	 1.797608207565696e+00	 4.664479662144158e-01	 5.961696100376861e-01
1	 1.786861079627148e+00	 5.060598957399112e-01	 4.412966592185186e-01
1	 1.775171404337629e+00	 5.456516697179217e-01	 2.873899309458302e-01
1	 1.762532357481656e+00	 5.851914441855203e-01	 1.340493702594564e-01
1	 1.748938480695031e+00	 6.246467453183742e-01	-1.919950935828668e-02
1	 1.734385733593725e+00	 6.639845391423612e-01	-1.729048695178056e-01
1	 1.718871541860783e+00	 7.031713057585306e-01	-3.276871701116090e-01
1	 1.702394840869089e+00	 7.421731178265019e-01	-4.842371564911913e-01
1	 1.684956114434273e+00	 7.809557230084924e-01	-6.433132014236519e-01
1	 1.555349688962692e+00	 7.208847936526629e-01	-7.353711108742523e-01
1	 1.538365007203576e+00	 7.564525453896814e-01	-9.586070611286788e-01
1	 1.520497485026512e+00	 7.917540877149108e-01	-1.193445887070360e+00
1	 1.501752032679311e+00	 8.267573745549470e-01	-1.439475823761457e+00
1	 1.482135081706625e+00	 8.614303939007104e-01	-1.696264883430452e+00
1	 1.461654593440430e+00	 8.957412568300415e-01	-1.963362473628345e+00
1	 1.440320061303935e+00	 9.296582877936430e-01	-2.240301116848045e+00
1	 1.418142506777267e+00	 9.631501156661962e-01	-2.526598259185633e+00
1	 1.395134468918961e+00	 9.961857650463246e-01	-2.821758154609733e+00
1	 1.371309987385168e+00	 1.028734747275635e+00	-3.125273810548017e+00
1	 1.346684578938213e+00	 1.060767150638615e+00	-3.436628979812864e+00
1	 1.568310306563534e+00	 7.268918750263221e-01	-7.363031979094536e-01
1	 1.551184092667272e+00	 7.627560102922637e-01	-9.527461259323258e-01
1	 1.533167681707038e+00	 7.983517178423892e-01	-1.180717958760400e+00
1	 1.514266024847395e+00	 8.336466845656623e-01	-1.419803528952061e+00
1	 1.494485607226607e+00	 8.686086316992264e-01	-1.669562315247217e+00
1	 1.473834456517870e+00	 9.032054045928206e-01	-1.929530113713519e+00
1	 1.452322145252416e+00	 9.374050637470668e-01	-2.199220855931667e+00
1	 1.429959786751590e+00	 9.711759766233089e-01	-2.478128561939017e+00
1	 1.406760024561010e+00	 1.004486909704372e+00	-2.765729414097652e+00
1	 1.382737015328290e+00	 1.037307120272059e+00	-3.061483936644530e+00
1	 1.357906405115834e+00	 1.069606447358677e+00	-3.364839264442294e+00
1	 1.581270925675919e+00	 7.328989571004662e-01	-7.346117946581145e-01
1	 1.564003179625969e+00	 7.690594759299150e-01	-9.445198204057480e-01
1	 1.545837879865191e+00	 8.049493487392900e-01	-1.165862311242031e+00
1	 1.526780018474901e+00	 8.405359953798863e-01	-1.398219541714920e+00
1	 1.506836134186976e+00	 8.757868703350351e-01	-1.641141247597465e+00
1	 1.486014321015837e+00	 9.106695532263362e-01	-1.894148356462227e+00
1	 1.464324230600748e+00	 9.451518406042934e-01	-2.156734911601602e+00
1	 1.441777068104277e+00	 9.792018385168768e-01	-2.428370177111423e+00
1	 1.418385581559138e+00	 1.012788055331077e+00	-2.708500909851869e+00
1	 1.394164044604415e+00	 1.045879494268859e+00	-2.996553782030119e+00
1	 1.369128232602603e+00	 1.078445745110314e+00	-3.291937936349271e+00
1	 1.594231547811875e+00	 7.389060405759064e-01	-7.304437963328404e-01
1	 1.576822269575201e+00	 7.753629430380167e-01	-9.340646320820589e-01
1	 1.558508080979141e+00	 8.115469811753018e-01	-1.149005065841204e+00
1	 1.539294015021777e+00	 8.474253078013222e-01	-1.374839668256773e+00
1	 1.519186664028611e+00	 8.829651106455277e-01	-1.611107232319811e+00
1	 1.498194188355300e+00	 9.181337036013143e-01	-1.857312569763092e+00
1	 1.476326318749155e+00	 9.528986192690015e-01	-2.112928547840877e+00
1	 1.453594352213986e+00	 9.872277022831201e-01	-2.377398354365075e+00
1	 1.430011141269625e+00	 1.021089202894761e+00	-2.650137976207423e+00
1	 1.405591076546650e+00	 1.054451870265986e+00	-2.930538873937950e+00
1	 1.380350062707676e+00	 1.087285044924608e+00	-3.217970832899967e+00
1	 1.607192174483439e+00	 7.449131261534553e-01	-7.239413597309399e-01
1	 1.589641364010496e+00	 7.816664123519513e-01	-9.215126458120035e-01
1	 1.571178286527056e+00	 8.181446159201138e-01	-1.130268275597506e+00
1	 1.551808015947974e+00	 8.543146226336708e-01	-1.349775979248343e+00
1	 1.531537198192393e+00	 8.901433534680959e-01	-1.579562416511292e+00
1	 1.510374059957227e+00	 9.255978565884824e-01	-1.819115045291381e+00
1	 1.488328411097860e+00	 9.606454006448713e-01	-2.067884278372519e+00
1	 1.465411640459374e+00	 9.952535688582588e-01	-2.325285916174844e+00
1	 1.441636705048751e+00	 1.029390353363743e+00	-2.590703840202481e+00
1	 1.417018112488103e+00	 1.063024249263388e+00	-2.863492948717126e+00
1	 1.391571896740206e+00	 1.096124347832640e+00	-3.142982313223134e+00
1	 1.620152807202639e+00	 7.509202145339247e-01	-7.152420927669293e-01
1	 1.602460464427385e+00	 7.879698846071012e-01	-9.069917198642419e-01
1	 1.583848497987105e+00	 8.247422537434151e-01	-1.109770087985970e+00
1	 1.564322022713442e+00	 8.612039406806343e-01	-1.323136959233636e+00
1	 1.543887738119204e+00	 8.973215996401301e-01	-1.546605678702583e+00
1	 1.522553937242588e+00	 9.330620130585675e-01	-1.779645121541225e+00
1	 1.500330509047090e+00	 9.683921856355834e-01	-2.021681976652154e+00
1	 1.477228934219098e+00	 1.003279439178514e+00	-2.272103354896845e+00
1	 1.453262274252797e+00	 1.037691507706341e+00	-2.530259705850766e+00
1	 1.428445153761881e+00	 1.071596632261015e+00	-2.795468023448383e+00
1	 1.402793736009346e+00	 1.104963654865492e+00	-3.067015317320456e+00
1	 1.633113447481505e+00	 7.569273064181260e-01	-7.044792349776987e-01
1	 1.615279572321401e+00	 7.942733605388487e-01	-8.906256536380835e-01
1	 1.596518716837457e+00	 8.313398954148942e-01	-1.087624899888449e+00
1	 1.576836036778132e+00	 8.680932627459149e-01	-1.295027648922887e+00
1	 1.556238285249923e+00	 9.044998499990216e-01	-1.512332758547348e+00
1	 1.534733821632353e+00	 9.405261738822969e-01	-1.738989300997932e+00
1	 1.512332613997067e+00	 9.761389751448170e-01	-1.974398980621680e+00
1	 1.489046234871818e+00	 1.011305314180105e+00	-2.217918925213708e+00
1	 1.464887850238044e+00	 1.045992666890878e+00	-2.468864834399974e+00
1	 1.439872201701093e+00	 1.080169020258817e+00	-2.726514464148919e+00
1	 1.414015581824253e+00	 1.113802967054246e+00	-2.990111422361580e+00
1	 1.646074096832072e+00	 7.629344025068715e-01	-6.917818294979836e-01
1	 1.628098689188072e+00	 8.005768408825760e-01	-8.725343474510322e-01
1	 1.609188944556280e+00	 8.379375417042396e-01	-1.063943505241926e+00
1	 1.589350059601992e+00	 8.749825896332135e-01	-1.265549780761546e+00
1	 1.568588841025432e+00	 9.116781053821615e-01	-1.476836380383120e+00
1	 1.546913714547490e+00	 9.479903399303972e-01	-1.697231361773361e+00
1	 1.524334727348017e+00	 9.838857700762513e-01	-1.926110192512915e+00
1	 1.500863543796188e+00	 1.019331194799254e+00	-2.162798732211373e+00
1	 1.476513434360772e+00	 1.054293831885672e+00	-2.406576620797757e+00
1	 1.451299257638845e+00	 1.088741414256743e+00	-2.656681050754000e+00
1	 1.425237435494077e+00	 1.122642285429984e+00	-2.912310896318892e+00
1	 1.659034756766367e+00	 7.689415035009731e-01	-6.772748869727656e-01
1	 1.640917816522931e+00	 8.068803263736651e-01	-8.528339548346611e-01
1	 1.621859182621744e+00	 8.445351933811411e-01	-1.038833235764267e+00
1	 1.601864092644973e+00	 8.818719221462324e-01	-1.234801908143109e+00
1	 1.580939406886612e+00	 9.188563666269413e-01	-1.440206370999096e+00
1	 1.559093617408970e+00	 9.554545120735956e-01	-1.654452464007259e+00
1	 1.536336850500164e+00	 9.916325713335676e-01	-1.876888173971922e+00
1	 1.512680862370868e+00	 1.027357081972180e+00	-2.106806815326402e+00
1	 1.488139027977261e+00	 1.062595003659041e+00	-2.343450666572552e+00
1	 1.462726322908246e+00	 1.097313815254742e+00	-2.586015039052174e+00
1	 1.436459298327973e+00	 1.131481611023788e+00	-2.833652749087679e+00
1	 1.671995428796423e+00	 7.749486101012426e-01	-6.610795418441797e-01
1	 1.653736955821508e+00	 8.131838177474986e-01	-8.316370277454779e-01
1	 1.634529432512017e+00	 8.511328512152869e-01	-1.012398095133275e+00
1	 1.614378137367023e+00	 8.887612610886734e-01	-1.202879528610769e+00
1	 1.593289984274342e+00	 9.260346345707517e-01	-1.402529771925083e+00
1	 1.571273531637759e+00	 9.629186911826185e-01	-1.610731251318592e+00
1	 1.548338984853731e+00	 9.993793798204444e-01	-1.826803236757968e+00
1	 1.524498191974515e+00	 1.035382976635103e+00	-2.050005228387966e+00
1	 1.499764632443794e+00	 1.070896183179308e+00	-2.279540849323765e+00
1	 1.474153398842403e+00	 1.105886224252765e+00	-2.514562219738933e+00
1	 1.447681171635097e+00	 1.140320944866739e+00	-2.754174781227992e+00
1	 1.684956114434273e+00	 7.809557230084924e-01	-6.433132014236520e-01
1	 1.666556108579333e+00	 8.194873157394583e-01	-8.090526550722523e-01
1	 1.647199695705267e+00	 8.577305159763660e-01	-9.847388869714553e-01
1	 1.626892195228096e+00	 8.956506072642391e-01	-1.169875201371544e+00
1	 1.605640574629505e+00	 9.332129100509844e-01	-1.363890946536852e+00
1	 1.583453458654829e+00	 9.703828781281937e-01	-1.566143947573606e+00
1	 1.560341131808945e+00	 1.007126196440562e+00	-1.775923529255512e+00
1	 1.536315533985785e+00	 1.043408879724244e+00	-1.992454115964720e+00
1	 1.511390249116649e+00	 1.079197371414791e+00	-2.214899389004213e+00
1	 1.485580486774423e+00	 1.114458642250760e+00	-2.442366974744343e+00
1	 1.458903056724601e+00	 1.149160287989920e+00	-2.673913630456551e+00
1	 1.346684578938213e+00	 1.060767150638615e+00	-3.436628979812864e+00
1	 1.321275203733934e+00	 1.092253732166055e+00	-3.753587368882630e+00
1	 1.295100217733402e+00	 1.123166013449718e+00	-4.073729884630361e+00
1	 1.268179341437932e+00	 1.153476356208247e+00	-4.396217619163675e+00
1	 1.240533615111960e+00	 1.183158040835369e+00	-4.720159035128249e+00
1	 1.212185344465141e+00	 1.212185344465141e+00	-5.044615777741098e+00
1	 1.183158040835369e+00	 1.240533615111961e+00	-5.368608896625997e+00
1	 1.153476356208246e+00	 1.268179341437933e+00	-5.691125420901060e+00
1	 1.123166013449718e+00	 1.295100217733403e+00	-6.011125226674227e+00
1	 1.092253732166054e+00	 1.321275203733934e+00	-6.327548132642553e+00
1	 1.060767150638615e+00	 1.346684578938213e+00	-6.639321156919967e+00
1	 1.357906405115834e+00	 1.069606447358677e+00	-3.364839264442294e+00
1	 1.332285295407249e+00	 1.101355404315454e+00	-3.673431147609932e+00
1	 1.305892195122514e+00	 1.132525275425623e+00	-3.984796355912426e+00
1	 1.278746989092457e+00	 1.163088192100015e+00	-4.298188292013688e+00
1	 1.250870892908526e+00	 1.193017212079803e+00	-4.612815398196732e+00
1	 1.222286398152247e+00	 1.222286398152248e+00	-4.927846310699469e+00
1	 1.193017212079802e+00	 1.250870892908527e+00	-5.242415364078211e+00
1	 1.163088192100015e+00	 1.278746989092458e+00	-5.555628395555687e+00
1	 1.132525275425623e+00	 1.305892195122514e+00	-5.866568795656014e+00
1	 1.101355404315453e+00	 1.332285295407250e+00	-6.174303748508259e+00
1	 1.069606447358677e+00	 1.357906405115834e+00	-6.477890603064701e+00
1	 1.369128232602603e+00	 1.078445745110314e+00	-3.291937936349271e+00
1	 1.343295388365096e+00	 1.110457077527072e+00	-3.592182635539518e+00
1	 1.316684173770791e+00	 1.141884538493812e+00	-3.894805009155543e+00
1	 1.289314637980051e+00	 1.172700029113527e+00	-4.199154446105449e+00
1	 1.261208171911349e+00	 1.202876384474809e+00	-4.504543689444252e+00
1	 1.232387453018106e+00	 1.232387453018106e+00	-4.810253291498489e+00
1	 1.202876384474808e+00	 1.261208171911349e+00	-5.115536353741341e+00
1	 1.172700029113527e+00	 1.289314637980052e+00	-5.419623508337401e+00
1	 1.141884538493811e+00	 1.316684173770792e+00	-5.721728095322138e+00
1	 1.110457077527072e+00	 1.343295388365097e+00	-6.021051487055939e+00
1	 1.078445745110314e+00	 1.369128232602603e+00	-6.316788509935383e+00
1	 1.380350062707676e+00	 1.087285044924608e+00	-3.217970832899967e+00
1	 1.354305483891912e+00	 1.119558752862599e+00	-3.509879137127265e+00
1	 1.327476154937207e+00	 1.151243803746028e+00	-3.803786745214758e+00
1	 1.299882289333497e+00	 1.182311868369999e+00	-4.099142608527002e+00
1	 1.271545453326321e+00	 1.212735559170472e+00	-4.395367983235126e+00
1	 1.242488510241032e+00	 1.242488510241033e+00	-4.691860145186766e+00
1	 1.212735559170472e+00	 1.271545453326321e+00	-4.987996318803963e+00
1	 1.182311868369999e+00	 1.299882289333497e+00	-5.283137784342379e+00
1	 1.151243803746028e+00	 1.327476154937208e+00	-5.576634125650766e+00
1	 1.119558752862599e+00	 1.354305483891912e+00	-5.867827578894100e+00
1	 1.087285044924608e+00	 1.380350062707676e+00	-6.156057441573104e+00
1	 1.391571896740206e+00	 1.096124347832640e+00	-3.142982313223134e+00
1	 1.365315583272132e+00	 1.128660431383724e+00	-3.426556753935613e+00
1	 1.338268139880734e+00	 1.160603072274015e+00	-3.711771468724967e+00
1	 1.310449944385579e+00	 1.191923710990649e+00	-3.998178451352684e+00
1	 1.281882738359330e+00	 1.222594737316876e+00	-4.285311578163281e+00
1	 1.252589570999343e+00	 1.252589570999343e+00	-4.572689542110706e+00
1	 1.222594737316875e+00	 1.281882738359331e+00	-4.859818924701787e+00
1	 1.191923710990648e+00	 1.310449944385579e+00	-5.146197378049637e+00
1	 1.160603072274015e+00	 1.338268139880735e+00	-5.431316887858315e+00
1	 1.128660431383724e+00	 1.365315583272132e+00	-5.714667087186237e+00
1	 1.096124347832640e+00	 1.391571896740206e+00	-5.995738590276431e+00
1	 1.402793736009346e+00	 1.104963654865492e+00	-3.067015317320456e+00
1	 1.376325687790191e+00	 1.137762114152136e+00	-3.342250432731014e+00
1	 1.349060129860346e+00	 1.169962345169516e+00	-3.618788127932250e+00
1	 1.321017604369081e+00	 1.201535558096693e+00	-3.896286825826842e+00
1	 1.292220028216271e+00	 1.232453920064102e+00	-4.174397028066156e+00
1	 1.262690636471355e+00	 1.262690636471356e+00	-4.452763428085538e+00
1	 1.232453920064102e+00	 1.292220028216272e+00	-4.731027080609794e+00
1	 1.201535558096693e+00	 1.321017604369082e+00	-5.008827608125705e+00
1	 1.169962345169516e+00	 1.349060129860347e+00	-5.285805424327129e+00
1	 1.137762114152136e+00	 1.376325687790191e+00	-5.561603954321097e+00
1	 1.104963654865492e+00	 1.402793736009346e+00	-5.835871831438000e+00
1	 1.414015581824253e+00	 1.113802967054246e+00	-2.990111422361580e+00
1	 1.387335798730527e+00	 1.146863802229525e+00	-3.256994011290469e+00
1	 1.359852126135016e+00	 1.179321623524276e+00	-3.524864752627923e+00
1	 1.331585270516789e+00	 1.211147410809349e+00	-3.793491794919047e+00
1	 1.302557324103033e+00	 1.242313108562236e+00	-4.062646171561752e+00
1	 1.272791707835383e+00	 1.272791707835383e+00	-4.332103053129397e+00
1	 1.242313108562235e+00	 1.302557324103034e+00	-4.601642969434369e+00
1	 1.211147410809349e+00	 1.331585270516789e+00	-4.871052990571539e+00
1	 1.179321623524276e+00	 1.359852126135016e+00	-5.140127856631205e+00
1	 1.146863802229524e+00	 1.387335798730527e+00	-5.408671046360572e+00
1	 1.113802967054246e+00	 1.414015581824252e+00	-5.676495775769156e+00
1	 1.425237435494077e+00	 1.122642285429984e+00	-2.912310896318892e+00
1	 1.398345917377575e+00	 1.155965496677579e+00	-3.170820262043651e+00
1	 1.370644129963715e+00	 1.188680908430038e+00	-3.430028490290221e+00
1	 1.342152944061485e+00	 1.220759270249834e+00	-3.689816664341328e+00
1	 1.312894627225508e+00	 1.252172303961360e+00	-3.950080160189585e+00
1	 1.282892786269745e+00	 1.282892786269745e+00	-4.210728998839384e+00
1	 1.252172303961359e+00	 1.312894627225508e+00	-4.471688076388070e+00
1	 1.220759270249834e+00	 1.342152944061485e+00	-4.732897270303384e+00
1	 1.188680908430037e+00	 1.370644129963716e+00	-4.994311421765062e+00
1	 1.155965496677578e+00	 1.398345917377575e+00	-5.255900195386833e+00
1	 1.122642285429984e+00	 1.425237435494076e+00	-5.517647819056887e+00
1	 1.436459298327973e+00	 1.131481611023788e+00	-2.833652749087679e+00
1	 1.409356045015772e+00	 1.165067198557988e+00	-3.083760933668724e+00
1	 1.381436142605417e+00	 1.198040200978544e+00	-3.334305640531268e+00
1	 1.352720626235953e+00	 1.230371137539366e+00	-3.585284012110885e+00
1	 1.323231938789585e+00	 1.262031507411558e+00	-3.836719485232618e+00
1	 1.292993872952757e+00	 1.292993872952757e+00	-4.088661204484362e+00
1	 1.262031507411557e+00	 1.323231938789586e+00	-4.341183216224773e+00
1	 1.230371137539366e+00	 1.352720626235953e+00	-4.594383451252638e+00
1	 1.198040200978543e+00	 1.381436142605418e+00	-4.848382506674170e+00
1	 1.165067198557988e+00	 1.409356045015773e+00	-5.103322239864270e+00
1	 1.131481611023788e+00	 1.436459298327974e+00	-5.359364189587764e+00
1	 1.447681171635097e+00	 1.140320944866739e+00	-2.754174781227992e+00
1	 1.420366182929554e+00	 1.174168908932441e+00	-2.995846790753128e+00
1	 1.392228165319096e+00	 1.207399502261539e+00	-3.237721687941689e+00
1	 1.363288318272978e+00	 1.239983013799161e+00	-3.479915716737594e+00
1	 1.333569260001157e+00	 1.271890720062913e+00	-3.722584003291010e+00
1	 1.303094969062733e+00	 1.303094969062734e+00	-3.965918991883589e+00
1	 1.271890720062912e+00	 1.333569260001157e+00	-4.210148559207790e+00
1	 1.239983013799161e+00	 1.363288318272979e+00	-4.455533825065586e+00
1	 1.207399502261539e+00	 1.392228165319096e+00	-4.702366681178748e+00
1	 1.174168908932441e+00	 1.420366182929554e+00	-4.950967063123595e+00
1	 1.140320944866739e+00	 1.447681171635097e+00	-5.201679993365761e+00
1	 1.458903056724601e+00	 1.149160287989920e+00	-2.673913630456551e+00
1	 1.431376332403356e+00	 1.183270628862627e+00	-2.907107651623376e+00
1	 1.403020199363723e+00	 1.216758813370768e+00	-3.140301333418893e+00
1	 1.373856021405344e+00	 1.249594900150438e+00	-3.373732984110275e+00
1	 1.343906592066114e+00	 1.281749943065508e+00	-3.607692960675553e+00
1	 1.313196075777992e+00	 1.313196075777993e+00	-3.842521089137156e+00
1	 1.281749943065507e+00	 1.343906592066115e+00	-4.078603655879132e+00
1	 1.249594900150437e+00	 1.373856021405345e+00	-4.316369998478218e+00
1	 1.216758813370767e+00	 1.403020199363723e+00	-4.556288729377788e+00
1	 1.183270628862627e+00	 1.431376332403357e+00	-4.798863630069375e+00
1	 1.149160287989920e+00	 1.458903056724601e+00	-5.044629257242529e+00
1	 1.060767150638615e+00	 1.346684578938213e+00	-6.639321156919967e+00
1	 1.028734747275635e+00	 1.371309987385168e+00	-6.946286736797271e+00
1	 9.961857650463243e-01	 1.395134468918961e+00	-7.249368014218392e+00
1	 9.631501156661958e-01	 1.418142506777268e+00	-7.549141719129293e+00
1	 9.296582877936426e-01	 1.440320061303935e+00	-7.846224323420706e+00
1	 8.957412568300408e-01	 1.461654593440431e+00	-8.141265150233901e+00
1	 8.614303939007100e-01	 1.482135081706625e+00	-8.434939362790370e+00
1	 8.267573745549465e-01	 1.501752032679311e+00	-8.727940904153726e+00
1	 7.917540877149102e-01	 1.520497485026513e+00	-9.020975458088337e+00
1	 7.564525453896809e-01	 1.538365007203576e+00	-9.314753498998790e+00
1	 7.208847936526629e-01	 1.555349688962692e+00	-9.609983495885428e+00
1	 1.069606447358677e+00	 1.357906405115834e+00	-6.477890603064701e+00
1	 1.037307120272059e+00	 1.382737015328291e+00	-6.777388543839161e+00
1	 1.004486909704371e+00	 1.406760024561010e+00	-7.073844185724335e+00
1	 9.711759766233082e-01	 1.429959786751590e+00	-7.367819477657982e+00
1	 9.374050637470666e-01	 1.452322145252417e+00	-7.659907157704701e+00
1	 9.032054045928201e-01	 1.473834456517870e+00	-7.950724193293129e+00
1	 8.686086316992259e-01	 1.494485607226608e+00	-8.240905160459370e+00
1	 8.336466845656616e-01	 1.514266024847395e+00	-8.531095628672150e+00
1	 7.983517178423887e-01	 1.533167681707038e+00	-8.821945616077063e+00
1	 7.627560102922631e-01	 1.551184092667272e+00	-9.114103177408079e+00
1	 7.268918750263222e-01	 1.568310306563534e+00	-9.408208183445057e+00
1	 1.078445745110314e+00	 1.369128232602603e+00	-6.316788509935383e+00
1	 1.045879494268859e+00	 1.394164044604415e+00	-6.609197269748789e+00
1	 1.012788055331076e+00	 1.418385581559138e+00	-6.899417852897222e+00
1	 9.792018385168759e-01	 1.441777068104277e+00	-7.187985792269489e+00
1	 9.451518406042926e-01	 1.464324230600748e+00	-7.475457587584558e+00
1	 9.106695532263354e-01	 1.486014321015837e+00	-7.762404596655905e+00
1	 8.757868703350344e-01	 1.506836134186976e+00	-8.049406929326164e+00
1	 8.405359953798860e-01	 1.526780018474900e+00	-8.337047404532729e+00
1	 8.049493487392894e-01	 1.545837879865191e+00	-8.625905628729644e+00
1	 7.690594759299142e-01	 1.564003179625969e+00	-8.916552250904797e+00
1	 7.328989571004663e-01	 1.581270925675919e+00	-9.209543445775250e+00
1	 1.087285044924608e+00	 1.380350062707676e+00	-6.156057441573104e+00
1	 1.054451870265985e+00	 1.405591076546650e+00	-6.441760483531272e+00
1	 1.021089202894760e+00	 1.430011141269625e+00	-6.726138127047451e+00
1	 9.872277022831192e-01	 1.453594352213985e+00	-7.009688152421530e+00
1	 9.528986192690011e-01	 1.476326318749156e+00	-7.292918626686697e+00
1	 9.181337036013135e-01	 1.498194188355299e+00	-7.576342364430379e+00
1	 8.829651106455275e-01	 1.519186664028611e+00	-7.860471459092476e+00
1	 8.474253078013217e-01	 1.539294015021778e+00	-8.145811937818976e+00
1	 8.115469811753013e-01	 1.558508080979141e+00	-8.432858590210616e+00
1	 7.753629430380159e-01	 1.576822269575201e+00	-8.722090017940724e+00
1	 7.389060405759063e-01	 1.594231547811876e+00	-9.013963948298269e+00
1	 1.096124347832640e+00	 1.391571896740206e+00	-5.995738590276431e+00
1	 1.063024249263387e+00	 1.417018112488103e+00	-6.275124220956407e+00
1	 1.029390353363742e+00	 1.441636705048751e+00	-6.554052536409324e+00
1	 9.952535688582581e-01	 1.465411640459374e+00	-6.832972516687156e+00
1	 9.606454006448711e-01	 1.488328411097861e+00	-7.112331901981134e+00
1	 9.255978565884818e-01	 1.510374059957227e+00	-7.392572340012624e+00
1	 8.901433534680955e-01	 1.531537198192394e+00	-7.674124675813907e+00
1	 8.543146226336705e-01	 1.551808015947975e+00	-7.957404428339328e+00
1	 8.181446159201131e-01	 1.571178286527056e+00	-8.242807495101976e+00
1	 7.816664123519507e-01	 1.589641364010496e+00	-8.530706122298474e+00
1	 7.449131261534554e-01	 1.607192174483440e+00	-8.821445173738194e+00
1	 1.104963654865492e+00	 1.402793736009346e+00	-5.835871831438000e+00
1	 1.071596632261015e+00	 1.428445153761882e+00	-6.109333045848012e+00
1	 1.037691507706341e+00	 1.453262274252797e+00	-6.383207089416002e+00
1	 1.003279439178513e+00	 1.477228934219099e+00	-6.657883373933865e+00
1	 9.683921856355830e-01	 1.500330509047090e+00	-6.933737709183377e+00
1	 9.330620130585670e-01	 1.522553937242589e+00	-7.211128252442978e+00
1	 8.973215996401297e-01	 1.543887738119204e+00	-7.490391676366399e+00
1	 8.612039406806341e-01	 1.564322022713443e+00	-7.771839589793296e+00
1	 8.247422537434145e-01	 1.583848497987105e+00	-8.055755242296977e+00
1	 7.879698846071006e-01	 1.602460464427385e+00	-8.342390539186308e+00
1	 7.509202145339245e-01	 1.620152807202639e+00	-8.631963389337097e+00
1	 1.113802967054246e+00	 1.414015581824252e+00	-5.676495775769156e+00
1	 1.080169020258817e+00	 1.439872201701093e+00	-5.944430108453652e+00
1	 1.045992666890877e+00	 1.464887850238044e+00	-6.213646334960614e+00
1	 1.011305314180105e+00	 1.489046234871818e+00	-6.484463801588702e+00
1	 9.761389751448162e-01	 1.512332613997067e+00	-6.757175065517432e+00
1	 9.405261738822962e-01	 1.534733821632353e+00	-7.032042760554369e+00
1	 9.044998499990210e-01	 1.556238285249923e+00	-7.309296761271177e+00
1	 8.680932627459145e-01	 1.576836036778132e+00	-7.589131668976569e+00
1	 8.313398954148933e-01	 1.596518716837457e+00	-7.871704638708205e+00
1	 7.942733605388482e-01	 1.615279572321401e+00	-8.157133561995259e+00
1	 7.569273064181261e-01	 1.633113447481505e+00	-8.445495615632375e+00
1	 1.122642285429984e+00	 1.425237435494076e+00	-5.517647819056887e+00
1	 1.088741414256743e+00	 1.451299257638846e+00	-5.780457201056381e+00
1	 1.054293831885671e+00	 1.476513434360772e+00	-6.045413419809714e+00
1	 1.019331194799253e+00	 1.500863543796189e+00	-6.312755521150210e+00
1	 9.838857700762512e-01	 1.524334727348017e+00	-6.582681759985539e+00
1	 9.479903399303966e-01	 1.546913714547491e+00	-6.855347495034492e+00
1	 9.116781053821611e-01	 1.568588841025433e+00	-7.130863465968668e+00
1	 8.749825896332130e-01	 1.589350059601992e+00	-7.409294464078759e+00
1	 8.379375417042393e-01	 1.609188944556281e+00	-7.690658402800986e+00
1	 8.005768408825752e-01	 1.628098689188072e+00	-7.974925789682265e+00
1	 7.629344025068716e-01	 1.646074096832072e+00	-8.262019596709676e+00
1	 1.131481611023788e+00	 1.436459298327974e+00	-5.359364189587764e+00
1	 1.097313815254742e+00	 1.462726322908246e+00	-5.617454810979078e+00
1	 1.062595003659041e+00	 1.488139027977262e+00	-5.878550143325265e+00
1	 1.027357081972179e+00	 1.512680862370868e+00	-6.142798951097618e+00
1	 9.916325713335669e-01	 1.536336850500164e+00	-6.410294401281082e+00
1	 9.554545120735946e-01	 1.559093617408970e+00	-6.681073098515718e+00
1	 9.188563666269405e-01	 1.580939406886611e+00	-6.955114590626082e+00
1	 8.818719221462320e-01	 1.601864092644972e+00	-7.232341342123553e+00
1	 8.445351933811404e-01	 1.621859182621744e+00	-7.512619167960715e+00
1	 8.068803263736645e-01	 1.640917816522931e+00	-7.795758114744339e+00
1	 7.689415035009731e-01	 1.659034756766367e+00	-8.081513771850629e+00
1	 1.140320944866739e+00	 1.447681171635097e+00	-5.201679993365761e+00
1	 1.105886224252765e+00	 1.474153398842404e+00	-5.455462171122871e+00
1	 1.070896183179307e+00	 1.499764632443794e+00	-5.713097009640241e+00
1	 1.035382976635102e+00	 1.524498191974515e+00	-5.974633257338531e+00
1	 9.993793798204437e-01	 1.548338984853732e+00	-6.240048463472508e+00
1	 9.629186911826177e-01	 1.571273531637760e+00	-6.509249263800220e+00
1	 9.260346345707511e-01	 1.593289984274343e+00	-6.782072228558047e+00
1	 8.887612610886730e-01	 1.614378137367024e+00	-7.058285255597069e+00
1	 8.511328512152861e-01	 1.634529432512017e+00	-7.337589485703591e+00
1	 8.131838177474978e-01	 1.653736955821508e+00	-7.619621711752865e+00
1	 7.749486101012426e-01	 1.671995428796423e+00	-7.903957248499275e+00
1	 1.149160287989920e+00	 1.458903056724601e+00	-5.044629257242529e+00
1	 1.114458642250760e+00	 1.485580486774424e+00	-5.294517308172601e+00
1	 1.079197371414790e+00	 1.511390249116649e+00	-5.549093277426181e+00
1	 1.043408879724243e+00	 1.536315533985785e+00	-5.808296401327910e+00
1	 1.007126196440562e+00	 1.560341131808945e+00	-6.071978329578152e+00
1	 9.703828781281930e-01	 1.583453458654829e+00	-6.339904770320228e+00
1	 9.332129100509838e-01	 1.605640574629505e+00	-6.611757793335766e+00
1	 8.956506072642383e-01	 1.626892195228096e+00	-6.887138758308943e+00
1	 8.577305159763654e-01	 1.647199695705267e+00	-7.165571828739180e+00
1	 8.194873157394577e-01	 1.666556108579334e+00	-7.446508026416621e+00
1	 7.809557230084923e-01	 1.684956114434272e+00	-7.729329776476654e+00
1	 7.208847936526629e-01	 1.555349688962692e+00	-9.609983495885430e+00
1	 6.850853372827741e-01	 1.571447032686810e+00	-9.906121426473865e+00
1	 6.490835353685449e-01	 1.586656349736946e+00	-1.020273102880662e+01
1	 6.129110055660850e-01	 1.600977193512580e+00	-1.050061885898536e+01
1	 5.765990655328243e-01	 1.614410546750085e+00	-1.080059143493198e+01
1	 5.401786568250596e-01	 1.626958785750686e+00	-1.110344853491990e+01
1	 5.036802724514819e-01	 1.638625640113148e+00	-1.140997680273106e+01
1	 4.671338883575810e-01	 1.649416148345699e+00	-1.172094370562806e+01
1	 4.305688990762302e-01	 1.659336609746896e+00	-1.203709188528432e+01
1	 3.940140577397680e-01	 1.668394532956102e+00	-1.235913393556018e+01
1	 3.574974206089847e-01	 1.676598581580888e+00	-1.268774763465881e+01
1	 7.268918750263222e-01	 1.568310306563534e+00	-9.408208183445058e+00
1	 6.907941043493353e-01	 1.584541788300445e+00	-9.703727086801630e+00
1	 6.544923019970291e-01	 1.599877843500642e+00	-1.000030671261445e+01
1	 6.180183490931941e-01	 1.614318021842112e+00	-1.029879723748081e+01
1	 5.814038242630725e-01	 1.627863314250304e+00	-1.060005800529369e+01
1	 5.446799268967494e-01	 1.640516116827987e+00	-1.090494998839108e+01
1	 5.078774040989904e-01	 1.652280190252410e+00	-1.121432851795654e+01
1	 4.710264816027066e-01	 1.663160615017326e+00	-1.152903633968894e+01
1	 4.341567988833242e-01	 1.673163742912899e+00	-1.184989704455212e+01
1	 3.972973486709883e-01	 1.682297145147446e+00	-1.217770891788140e+01
1	 3.604764210173155e-01	 1.690569557521760e+00	-1.251323924338462e+01
1	 7.328989571004663e-01	 1.581270925675919e+00	-9.209543445775248e+00
1	 6.965028720816041e-01	 1.597636545441325e+00	-9.504377121321188e+00
1	 6.599010692562729e-01	 1.613099338806442e+00	-9.800810834074833e+00
1	 6.231256932159656e-01	 1.627658851727757e+00	-1.009973348997250e+01
1	 5.862085835537600e-01	 1.641316083319784e+00	-1.040205266426821e+01
1	 5.491811974935527e-01	 1.654073449486838e+00	-1.070868624408688e+01
1	 5.120745362362032e-01	 1.665934741984644e+00	-1.102055430005520e+01
1	 4.749190753020673e-01	 1.676905083292483e+00	-1.133857125283029e+01
1	 4.377446991091440e-01	 1.686990877692122e+00	-1.166363839400763e+01
1	 4.005806399854071e-01	 1.696199758960834e+00	-1.199663681410907e+01
1	 3.634554217733189e-01	 1.704540535092635e+00	-1.233842078324958e+01
1	 7.389060405759063e-01	 1.594231547811876e+00	-9.013963948298269e+00
1	 7.022116411455905e-01	 1.610731305637117e+00	-9.308031296074644e+00
1	 6.653098377772835e-01	 1.626320837196780e+00	-9.604188397496982e+00
1	 6.282330385302360e-01	 1.640999684725852e+00	-9.903358095901575e+00
1	 5.910133439654147e-01	 1.654768855527908e+00	-1.020649170155962e+01
1	 5.536824691405809e-01	 1.667630785308807e+00	-1.051455983401362e+01
1	 5.162716693527424e-01	 1.679589296902752e+00	-1.082854345054075e+01
1	 4.788116699097502e-01	 1.690649554774555e+00	-1.114942513633869e+01
1	 4.413326001722285e-01	 1.700818015697596e+00	-1.147818072559555e+01
1	 4.038639320660276e-01	 1.710102376018112e+00	-1.181577131559915e+01
1	 3.664344232245057e-01	 1.718511515923357e+00	-1.216313572861046e+01
1	 7.449131261534554e-01	 1.607192174483440e+00	-8.821445173738196e+00
1	 7.079204122073058e-01	 1.623826070415485e+00	-9.114650675027404e+00
1	 6.707186081910698e-01	 1.639542340214093e+00	-9.410386181357325e+00
1	 6.333403856318418e-01	 1.654340522392739e+00	-9.709603777543656e+00
1	 5.958181060585638e-01	 1.668221632444062e+00	-1.001329410762879e+01
1	 5.581837423629469e-01	 1.681188125875464e+00	-1.032247643498720e+01
1	 5.204688039382303e-01	 1.693243856599634e+00	-1.063818884284960e+01
1	 4.827042658798433e-01	 1.704394031066930e+00	-1.096147866059604e+01
1	 4.449205024911150e-01	 1.714645158542355e+00	-1.129339319466384e+01
1	 4.071472252958531e-01	 1.724004997941130e+00	-1.163497083572032e+01
1	 3.694134257183873e-01	 1.732482501643770e+00	-1.198723260600907e+01
1	 7.509202145339245e-01	 1.620152807202639e+00	-8.631963389337097e+00
1	 7.136291859327608e-01	 1.636920841304096e+00	-8.924197568062148e+00
1	 6.761273811286393e-01	 1.652763849400814e+00	-9.219352667247874e+00
1	 6.384477351166191e-01	 1.667681366284758e+00	-9.518405410217516e+00
1	 6.006228703937347e-01	 1.681674415637626e+00	-9.822381465594614e+00
1	 5.626850176857628e-01	 1.694745472768375e+00	-1.013234474278343e+01
1	 5.246659404822889e-01	 1.706898422668192e+00	-1.044938677942146e+01
1	 4.865968636664338e-01	 1.718138513772993e+00	-1.077461631588991e+01
1	 4.485084064843421e-01	 1.728472307839431e+00	-1.110914914542211e+01
1	 4.104305200578863e-01	 1.737907626351737e+00	-1.145409832098964e+01
1	 3.723924296024744e-01	 1.746453493883714e+00	-1.181056479212583e+01
1	 7.569273064181261e-01	 1.633113447481505e+00	-8.445495615632375e+00
1	 7.193379629879660e-01	 1.650015619830615e+00	-8.736635481449087e+00
1	 6.815361572210011e-01	 1.665985366299380e+00	-9.031037972209079e+00
1	 6.435550875804052e-01	 1.681022217958248e+00	-9.329699936770460e+00
1	 6.054276375314549e-01	 1.695127206677984e+00	-9.633677848283710e+00
1	 5.671862956341406e-01	 1.708302827569109e+00	-9.944076352283203e+00
1	 5.288630794745408e-01	 1.720552996701325e+00	-1.026203685558703e+01
1	 4.904894637236094e-01	 1.731883004496130e+00	-1.058872626080661e+01
1	 4.520963125704475e-01	 1.742299465201855e+00	-1.092532594471242e+01
1	 4.137138167351306e-01	 1.751810262871778e+00	-1.127302107120391e+01
1	 3.753714352242780e-01	 1.760424494273034e+00	-1.163299032135732e+01
1	 7.629344025068716e-01	 1.646074096832072e+00	-8.262019596709676e+00
1	 7.250467440389318e-01	 1.663110407522708e+00	-8.551929070657263e+00
1	 6.869449370991632e-01	 1.679206892452224e+00	-8.845393784259679e+00
1	 6.486624436190357e-01	 1.694363078969549e+00	-9.143426286104640e+00
1	 6.102324080322518e-01	 1.708580007134521e+00	-9.447109720145033e+00
1	 5.716875767331934e-01	 1.721860191859236e+00	-9.757585643281125e+00
1	 5.330602214046076e-01	 1.734207580291934e+00	-1.007604182988780e+01
1	 4.943820665054574e-01	 1.745627504839728e+00	-1.040370017778780e+01
1	 4.556842211679696e-01	 1.756126632242662e+00	-1.074180482363589e+01
1	 4.169971157105890e-01	 1.765712909123104e+00	-1.109161056807040e+01
1	 3.783504429313092e-01	 1.774395504441572e+00	-1.145437170248594e+01
1	 7.689415035009731e-01	 1.659034756766367e+00	-8.081513771850631e+00
1	 7.307555297516694e-01	 1.676205205908041e+00	-8.370044095377777e+00
1	 6.923537213941330e-01	 1.692428429401784e+00	-8.662373300949604e+00
1	 6.537698038283479e-01	 1.707703950875003e+00	-8.959525295523171e+00
1	 6.150371824566522e-01	 1.722032818576619e+00	-9.262605843763236e+00
1	 5.761888615080327e-01	 1.735417567220324e+00	-9.572789671647886e+00
1	 5.372573667621120e-01	 1.747862175032921e+00	-9.891307500475808e+00
1	 4.982746724660653e-01	 1.759372016407173e+00	-1.021943313545986e+01
1	 4.592721326954463e-01	 1.769953810574882e+00	-1.055847072660433e+01
1	 4.202804173672643e-01	 1.779615566727561e+00	-1.090974231187271e+01
1	 3.813294530710786e-01	 1.788366526019169e+00	-1.127457574394577e+01
1	 7.749486101012426e-01	 1.671995428796423e+00	-7.903957248499275e+00
1	 7.364643207921892e-01	 1.689300016514279e+00	-8.190947376640059e+00
1	 6.977625107369196e-01	 1.705649978690491e+00	-8.481931170771443e+00
1	 6.588771688041773e-01	 1.721044835230948e+00	-8.777939636689140e+00
1	 6.198419613651840e-01	 1.735485642573660e+00	-9.080097190721279e+00
1	 5.806901504837709e-01	 1.748974955233940e+00	-9.389608065556065e+00
1	 5.414545160366762e-01	 1.761516782517186e+00	-9.707742587263468e+00
1	 5.021672820595209e-01	 1.773116540801851e+00	-1.003582345736748e+01
1	 4.628600475714159e-01	 1.783781001811550e+00	-1.037521216741424e+01
1	 4.235637220881601e-01	 1.793518237307000e+00	-1.072729566573469e+01
1	 3.843084659910977e-01	 1.802337560635670e+00	-1.109347338721674e+01
1	 7.809557230084923e-01	 1.684956114434272e+00	-7.729329776476655e+00
1	 7.421731178265022e-01	 1.702394840869089e+00	-8.014606755907179e+00
1	 7.031713057585309e-01	 1.718871541860783e+00	-8.304023437276545e+00
1	 6.639845391423617e-01	 1.734385733593725e+00	-8.598613745002185e+00
1	 6.246467453183745e-01	 1.748938480695031e+00	-8.899516856577858e+00
1	 5.851914441855204e-01	 1.762532357481655e+00	-9.207962926496556e+00
1	 5.456516697179219e-01	 1.775171404337629e+00	-9.525258619513780e+00
1	 5.060598957399114e-01	 1.786861079627148e+00	-9.852772596767375e+00
1	 4.664479662144161e-01	 1.797608207565696e+00	-1.019192109196495e+01
1	 4.268470302562790e-01	 1.807420922483264e+00	-1.054415370707408e+01
1	 3.872874820388771e-01	 1.816308609920916e+00	-1.091093954791025e+01
1	 3.574974206089847e-01	 1.676598581580888e+00	-1.268774763465881e+01
1	 3.210437537352151e-01	 1.683959003333080e+00	-1.301832569678953e+01
1	 2.846821660173839e-01	 1.690485997782369e+00	-1.334348562028066e+01
1	 2.484383771600480e-01	 1.696191347520098e+00	-1.365968491439795e+01
1	 2.123372325162998e-01	 1.701087751890542e+00	-1.396328476089404e+01
1	 1.764026711984843e-01	 1.705188763979623e+00	-1.425059216966019e+01
1	 1.406576988713968e-01	 1.708508727057505e+00	-1.451790007260711e+01
1	 1.051243651388339e-01	 1.711062710828929e+00	-1.476152512731868e+01
1	 6.982374540812293e-02	 1.712866447826537e+00	-1.497784304164714e+01
1	 3.477592709370159e-02	 1.713936270261961e+00	-1.516332126938379e+01
1	 0.000000000000000e+00	 1.714289047627778e+00	-1.531454896494029e+01
1	 3.604764210173155e-01	 1.690569557521760e+00	-1.251323924338462e+01
1	 3.237189883473829e-01	 1.697991313141118e+00	-1.285139221685382e+01
1	 2.870544021224811e-01	 1.704572696567507e+00	-1.318450991267169e+01
1	 2.505085963676162e-01	 1.710325588575774e+00	-1.350943976836093e+01
1	 2.141066234704213e-01	 1.715262794332936e+00	-1.382290132133775e+01
1	 1.778726220261427e-01	 1.719397979861820e+00	-1.412152763864551e+01
1	 1.418297894041262e-01	 1.722745607954046e+00	-1.440190495173007e+01
1	 1.060003589459304e-01	 1.725320873889138e+00	-1.466061025544982e+01
1	 7.040558167873620e-02	 1.727139641297820e+00	-1.489424666842270e+01
1	 3.506571240396045e-02	 1.728218378486884e+00	-1.509947638936496e+01
1	 0.000000000000000e+00	 1.728574095521189e+00	-1.527305112074673e+01
1	 3.634554217733189e-01	 1.704540535092635e+00	-1.233842078324958e+01
1	 3.263942232717195e-01	 1.712023624586264e+00	-1.268338460746538e+01
1	 2.894266385043065e-01	 1.718659396996017e+00	-1.302367924379802e+01
1	 2.525788158165745e-01	 1.724459831280267e+00	-1.335669793701722e+01
1	 2.158760146307361e-01	 1.729437838428791e+00	-1.367967319086484e+01
1	 1.793425730249773e-01	 1.733607197401348e+00	-1.398971636101570e+01
1	 1.430018800732300e-01	 1.736982490511031e+00	-1.428385579773466e+01
1	 1.068763528548503e-01	 1.739579038612175e+00	-1.455907328923312e+01
1	 7.098741801690550e-02	 1.741412836433599e+00	-1.481233859181528e+01
1	 3.535549774782404e-02	 1.742500488377288e+00	-1.504064186796778e+01
1	 0.000000000000000e+00	 1.742859145080407e+00	-1.524102388808559e+01
1	 3.664344232245057e-01	 1.718511515923357e+00	-1.216313572861046e+01
1	 3.290694588203119e-01	 1.726055939305545e+00	-1.251414726205144e+01
1	 2.917988754396156e-01	 1.732746100711309e+00	-1.286085767022553e+01
1	 2.546490357484634e-01	 1.738594077282575e+00	-1.320135801118087e+01
1	 2.176454062037082e-01	 1.743612885831910e+00	-1.353354452280212e+01
1	 1.808125243665334e-01	 1.747816418256036e+00	-1.385515528270287e+01
1	 1.441739710155136e-01	 1.751219376389558e+00	-1.416380583937162e+01
1	 1.077523469678564e-01	 1.753837206661650e+00	-1.445702356150343e+01
1	 7.156925449056739e-02	 1.755686034899275e+00	-1.473228048361037e+01
1	 3.564528315913577e-02	 1.756782601599632e+00	-1.498702445752695e+01
1	 0.000000000000000e+00	 1.757144197972236e+00	-1.521870845082800e+01
1	 3.694134257183873e-01	 1.732482501643770e+00	-1.198723260600907e+01
1	 3.317446953052459e-01	 1.740088258935989e+00	-1.234352959723101e+01
1	 2.941711132051638e-01	 1.746832809356790e+00	-1.269591363804432e+01
1	 2.567192564048237e-01	 1.752728328231689e+00	-1.304332185765278e+01
1	 2.194147983958010e-01	 1.757787938196089e+00	-1.338446127689067e+01
1	 1.822824762223561e-01	 1.762025644083713e+00	-1.371784145284120e+01
1	 1.453460623677824e-01	 1.765456267250724e+00	-1.404180659226132e+01
1	 1.086283413872118e-01	 1.768095379701183e+00	-1.435456688074682e+01
1	 7.215109116765843e-02	 1.769959238360240e+00	-1.465422880071826e+01
1	 3.593506867173904e-02	 1.771064719820369e+00	-1.493882423824457e+01
1	 0.000000000000000e+00	 1.771429255863481e+00	-1.520633820599646e+01
1	 3.723924296024744e-01	 1.746453493883714e+00	-1.181056479212583e+01
1	 3.344199330386081e-01	 1.754120585114621e+00	-1.217138585195493e+01
1	 2.965433520777064e-01	 1.760919524575867e+00	-1.252871980737930e+01
1	 2.587894780271962e-01	 1.766862585776609e+00	-1.288249448828944e+01
1	 2.211841914134786e-01	 1.771962997175130e+00	-1.323237114714257e+01
1	 1.837524287639907e-01	 1.776234876542210e+00	-1.357777201974255e+01
1	 1.465181542668414e-01	 1.779693164755627e+00	-1.391790792749396e+01
1	 1.095043362151794e-01	 1.782353559394389e+00	-1.425180567209866e+01
1	 7.273292811611519e-02	 1.784232448481896e+00	-1.457833499371486e+01
1	 3.622485431947724e-02	 1.785346844705956e+00	-1.489623488491293e+01
1	 0.000000000000000e+00	 1.785714320420949e+00	-1.520413907493439e+01
1	 3.753714352242780e-01	 1.760424494273034e+00	-1.163299032135732e+01
1	 3.370951723324846e-01	 1.768152919478469e+00	-1.199757489621267e+01
1	 2.989155923339992e-01	 1.775006248011952e+00	-1.235915288525881e+01
1	 2.608597008571213e-01	 1.780996851566330e+00	-1.271878393530709e+01
1	 2.229535854632042e-01	 1.786138064422830e+00	-1.307722349313388e+01
1	 1.852223821629825e-01	 1.790444117289355e+00	-1.343494422706413e+01
1	 1.476902468494962e-01	 1.793930070565365e+00	-1.379215813696283e+01
1	 1.103803315540222e-01	 1.796611747404885e+00	-1.414883911162570e+01
1	 7.331476540387417e-02	 1.798505666929638e+00	-1.450474570544949e+01
1	 3.651464013619379e-02	 1.799628977922850e+00	-1.485944392093343e+01
1	 0.000000000000000e+00	 1.799999393311444e+00	-1.521232979965485e+01
1	 3.783504429313092e-01	 1.774395504441572e+00	-1.145437170248594e+01
1	 3.397704134989622e-01	 1.782185263664560e+00	-1.182196004877846e+01
1	 3.012878342507974e-01	 1.789092981308450e+00	-1.218709346638062e+01
1	 2.629299251361400e-01	 1.795131127249847e+00	-1.255210113247883e+01
1	 2.247229807514416e-01	 1.800313141592991e+00	-1.291896927454441e+01
1	 1.866923365908766e-01	 1.804653367982979e+00	-1.328935541015715e+01
1	 1.488623402525520e-01	 1.808166986341034e+00	-1.366460399561032e+01
1	 1.112563275060033e-01	 1.810869945396284e+00	-1.404576325426257e+01
1	 7.389660309887201e-02	 1.812778895368865e+00	-1.443360296026806e+01
1	 3.680442615573210e-02	 1.813911121137507e+00	-1.482863296033138e+01
1	 0.000000000000000e+00	 1.814284476201773e+00	-1.523112222518517e+01
1	 3.813294530710786e-01	 1.788366526019169e+00	-1.127457574394577e+01
1	 3.424456568501270e-01	 1.796217619309920e+00	-1.164440890350239e+01
1	 3.036600781048563e-01	 1.803179726108770e+00	-1.201242588134457e+01
1	 2.650001511057929e-01	 1.809265414476159e+00	-1.238235980190194e+01
1	 2.264923774846549e-01	 1.814488230339411e+00	-1.275756098876667e+01
1	 1.881622922192183e-01	 1.818862630280913e+00	-1.314100299258640e+01
1	 1.500344346128140e-01	 1.822403913743735e+00	-1.353529082075519e+01
1	 1.121323241733855e-01	 1.825128155032206e+00	-1.394267115575026e+01
1	 7.447844126904522e-02	 1.827052135464974e+00	-1.436504434436377e+01
1	 3.709421241193553e-02	 1.828193276016381e+00	-1.480397793842471e+01
1	 0.000000000000000e+00	 1.828569570758740e+00	-1.526072156867422e+01
1	 3.843084659910977e-01	 1.802337560635670e+00	-1.109347338721674e+01
1	 3.451209026980651e-01	 1.810249988051577e+00	-1.146479316368298e+01
1	 3.060323241729317e-01	 1.817266484056323e+00	-1.183503805194437e+01
1	 2.670703790076207e-01	 1.823399714894258e+00	-1.220947634603214e+01
1	 2.282617758693074e-01	 1.828663332315890e+00	-1.259295261141690e+01
1	 1.896322492195529e-01	 1.833071905840984e+00	-1.298988448281225e+01
1	 1.512065300670876e-01	 1.836640854434563e+00	-1.340426252865988e+01
1	 1.130083216584319e-01	 1.839386377976264e+00	-1.383965298890161e+01
1	 7.506027998233038e-02	 1.841325388883361e+00	-1.429920317773818e+01
1	 3.738399893864753e-02	 1.842475444225930e+00	-1.478564933176111e+01
1	 0.000000000000000e+00	 1.842854678649152e+00	-1.530132667597993e+01
1	 3.872874820388771e-01	 1.816308609920916e+00	-1.091093954791025e+01
1	 3.477961513548631e-01	 1.824282371526556e+00	-1.128298848408557e+01
1	 3.084045727317791e-01	 1.831353256794514e+00	-1.165482135314113e+01
1	 2.691406090831641e-01	 1.837534030153142e+00	-1.203336974470299e+01
1	 2.300311761118629e-01	 1.842838449176229e+00	-1.242509953959294e+01
1	 1.911022077634256e-01	 1.847281196321023e+00	-1.283599747102521e+01
1	 1.523786267521780e-01	 1.850877810074617e+00	-1.327156168848691e+01
1	 1.138843200634055e-01	 1.853644615892075e+00	-1.373679615449952e+01
1	 7.564211930666406e-02	 1.855598657289427e+00	-1.423620867822368e+01
1	 3.767378576971149e-02	 1.856757627432609e+00	-1.477381236790209e+01
1	 0.000000000000000e+00	 1.857139801539814e+00	-1.535313026641226e+01
1	 1.857139801539814e+00	 0.000000000000000e+00	 2.772176149837719e+00
1	 1.856757627432609e+00	 3.767378576971200e-02	 2.558688251132124e+00
1	 1.855598657289427e+00	 7.564211930666453e-02	 2.349803364465408e+00
1	 1.853644615892075e+00	 1.138843200634058e-01	 2.146653867566638e+00
1	 1.850877810074617e+00	 1.523786267521784e-01	 1.950062398640021e+00
1	 1.847281196321023e+00	 1.911022077634259e-01	 1.760520007148675e+00
1	 1.842838449176228e+00	 2.300311761118631e-01	 1.578165464089216e+00
1	 1.837534030153142e+00	 2.691406090831643e-01	 1.402765994052206e+00
1	 1.831353256794514e+00	 3.084045727317791e-01	 1.233699695816861e+00
1	 1.824282371526556e+00	 3.477961513548631e-01	 1.069939919595821e+00
1	 1.816308609920916e+00	 3.872874820388771e-01	 9.100418670339709e-01
1	 1.871425938885499e+00	 0.000000000000000e+00	 2.677030636086904e+00
1	 1.871040824885513e+00	 3.796359318002383e-02	 2.468197256096010e+00
1	 1.869872939308534e+00	 7.622399995034108e-02	 2.264996491249413e+00
1	 1.867903866353384e+00	 1.147603806773741e-01	 2.068362509364247e+00
1	 1.865115776748616e+00	 1.535508066735918e-01	 1.878903082563618e+00
1	 1.861491495870142e+00	 1.925722706961614e-01	 1.696878501676456e+00
1	 1.857014572678569e+00	 2.318007020079917e-01	 1.522181822832666e+00
1	 1.851669349156259e+00	 2.712109861755549e-01	 1.354320712236277e+00
1	 1.845441029900473e+00	 3.107769897551533e-01	 1.192401157927153e+00
1	 1.838315751506641e+00	 3.504715899935780e-01	 1.035113316922231e+00
1	 1.830280651355449e+00	 3.902667096404622e-01	 8.807197621803330e-01
1	 1.885712081233184e+00	 0.000000000000000e+00	 2.589358000358596e+00
1	 1.885324027339362e+00	 3.825340069197129e-02	 2.383484175241375e+00
1	 1.884147226325385e+00	 7.680588079802278e-02	 2.184807998708865e+00
1	 1.882163121807059e+00	 1.156364415984023e-01	 1.993951671071447e+00
1	 1.879353748407376e+00	 1.547229870057536e-01	 1.811203637647400e+00
1	 1.875701800394163e+00	 1.940423341439140e-01	 1.636499541806184e+00
1	 1.871190701143662e+00	 2.335702285239304e-01	 1.469404681098760e+00
1	 1.865804673107656e+00	 2.732813639930134e-01	 1.309098224677318e+00
1	 1.859528807937886e+00	 3.131494076092566e-01	 1.154359450687805e+00
1	 1.852349136398974e+00	 3.531470295690236e-01	 1.003556259490282e+00
1	 1.844252697680622e+00	 3.932459382850533e-01	 8.546362121760113e-01
1	 1.899998216915481e+00	 0.000000000000000e+00	 2.510508278173430e+00
1	 1.899607223129177e+00	 3.854320806894736e-02	 2.305423854367953e+00
1	 1.898421506682321e+00	 7.738776137463460e-02	 2.109695398522074e+00
1	 1.896422370607763e+00	 1.165125021112167e-01	 1.923521791522466e+00
1	 1.893591713423013e+00	 1.558951667915989e-01	 1.746769951915498e+00
1	 1.889912098287876e+00	 1.955123969063782e-01	 1.578959086495414e+00
1	 1.885366822994288e+00	 2.353397542148335e-01	 1.419246613069978e+00
1	 1.879939990463522e+00	 2.753517408450131e-01	 1.266415994476968e+00
1	 1.873616579401857e+00	 3.155218243569036e-01	 1.118866720346163e+00
1	 1.866382514743161e+00	 3.558224678965475e-01	 9.746066672486796e-01
1	 1.858224737486206e+00	 3.962251655398985e-01	 8.312470585508234e-01
1	 1.914284334264999e+00	 0.000000000000000e+00	 2.441791214418082e+00
1	 1.913890400589984e+00	 3.883301507434495e-02	 2.234865025933430e+00
1	 1.912695768721676e+00	 7.796964120510148e-02	 2.040102542125445e+00
1	 1.910681601110162e+00	 1.173885615005441e-01	 1.857170305792810e+00
1	 1.907829660167639e+00	 1.570673450740623e-01	 1.685413701444210e+00
1	 1.904122377946063e+00	 1.969824577832475e-01	 1.523845746695312e+00
1	 1.899542926653227e+00	 2.371092776358554e-01	 1.371137723142632e+00
1	 1.894075289680050e+00	 2.774221150410274e-01	 1.225611855427033e+00
1	 1.887704332787491e+00	 3.178942380609087e-01	 1.085236240854441e+00
1	 1.880415875078809e+00	 3.584979027914969e-01	 9.476222224550372e-01
1	 1.872196759361968e+00	 3.992043889722462e-01	 8.100243856044342e-01
1	 1.928570421614352e+00	 0.000000000000000e+00	 2.384477756569801e+00
1	 1.928173548056805e+00	 3.912282147155702e-02	 2.172631276821644e+00
1	 1.926970000785793e+00	 7.855151981434853e-02	 1.976460126993973e+00
1	 1.924940801668923e+00	 1.182646190511110e-01	 1.794991756622022e+00
1	 1.922067577013370e+00	 1.582395208960790e-01	 1.626952136058443e+00
1	 1.918332627763509e+00	 1.984525155742158e-01	 1.470760316775208e+00
1	 1.913719000543260e+00	 2.388787973421505e-01	 1.324524996661292e+00
1	 1.908210559213428e+00	 2.794924848905294e-01	 1.186043257549245e+00
1	 1.901792056589895e+00	 3.202666467840865e-01	 1.052801631393015e+00
1	 1.894449205945524e+00	 3.611733320692193e-01	 9.219796377957277e-01
1	 1.886168751897681e+00	 4.021836061493447e-01	 7.904559189063400e-01
1	 1.942856467296148e+00	 0.000000000000000e+00	 2.339801482191248e+00
1	 1.942456653864665e+00	 3.941262702397651e-02	 2.119521973510814e+00
1	 1.941244191217008e+00	 7.913339672730063e-02	 1.919186180635695e+00
1	 1.939199960638711e+00	 1.191406740476439e-01	 1.737077900931624e+00
1	 1.936305452332318e+00	 1.594116933005836e-01	 1.571207874461332e+00
1	 1.932542836135003e+00	 1.999225690789774e-01	 1.419315326573094e+00
1	 1.927895033087166e+00	 2.406483118888731e-01	 1.278871679232928e+00
1	 1.922345787519848e+00	 2.815628487029927e-01	 1.147086545845325e+00
1	 1.915879739304173e+00	 3.226390485892515e-01	 1.020916108337291e+00
1	 1.908482495882913e+00	 3.638487535450625e-01	 8.970739567221492e-01
1	 1.900140703683113e+00	 4.051628146384417e-01	 7.720444502730448e-01
1	 1.957142459643000e+00	 0.000000000000000e+00	 2.308959964046457e+00
1	 1.956739706348589e+00	 3.970243149499637e-02	 2.076313146813596e+00
1	 1.955518328357658e+00	 7.971527146888283e-02	 1.868686523436575e+00
1	 1.953459066374192e+00	 1.200167257748695e-01	 1.683517811688364e+00
1	 1.950543274496597e+00	 1.605838613305110e-01	 1.518008708316310e+00
1	 1.946752991455327e+00	 2.013926170972260e-01	 1.369134613020661e+00
1	 1.942071012707724e+00	 2.424178198311774e-01	 1.233656683163866e+00
1	 1.936480963055499e+00	 2.836332047878904e-01	 1.108136270564289e+00
1	 1.929967369425429e+00	 3.250114415392181e-01	 9.889517699122323e-01
1	 1.922515733430581e+00	 3.665241650343736e-01	 8.723178843609943e-01
1	 1.914112603308034e+00	 4.081420120067854e-01	 7.543072878727058e-01
1	 1.971428386987518e+00	 0.000000000000000e+00	 2.293116075995058e+00
1	 1.971022693843598e+00	 3.999223464800954e-02	 2.043758338235159e+00
1	 1.969792400550084e+00	 8.029714356402012e-02	 1.825355211425912e+00
1	 1.967718107230032e+00	 1.208927735175143e-01	 1.634397975348323e+00
1	 1.964781031878321e+00	 1.617560240287962e-01	 1.467187414828367e+00
1	 1.960963082119269e+00	 2.028626584286554e-01	 1.319852910352014e+00
1	 1.956246927827715e+00	 2.441873197242181e-01	 1.188374019646678e+00
1	 1.950616074276571e+00	 2.857035514546962e-01	 1.068604527391848e+00
1	 1.944054935448770e+00	 3.273838236968006e-01	 9.562989118801213e-01
1	 1.936548907128135e+00	 3.691995643525005e-01	 8.471411474510493e-01
1	 1.928084439362215e+00	 4.111211958216242e-01	 7.367757301853965e-01
1	 1.985714237662315e+00	 0.000000000000000e+00	 2.293399242640679e+00
1	 1.985305604684719e+00	 4.028203624640896e-02	 2.022589409877907e+00
1	 1.984066396136623e+00	 8.087901253763749e-02	 1.789574959971540e+00
1	 1.981977071560896e+00	 1.217688165603047e-01	 1.589802385103904e+00
1	 1.979018712849604e+00	 1.629281804383741e-01	 1.418581577397557e+00
1	 1.975173096521612e+00	 2.043326918729596e-01	 1.271115457962505e+00
1	 1.970422766869918e+00	 2.459568101231494e-01	 1.142532255403309e+00
1	 1.964751109639255e+00	 2.877738870128831e-01	 1.027920326058316e+00
1	 1.958142425869298e+00	 3.297561931248137e-01	 9.223653727021032e-01
1	 1.950582005515181e+00	 3.718749493147904e-01	 8.209898818480517e-01
1	 1.942056200435424e+00	 4.141003636502061e-01	 7.189945626203199e-01
1	 2.000000000000000e+00	 0.000000000000000e+00	 2.310906635539746e+00
1	 1.999588427206973e+00	 4.057183605358756e-02	 2.013517319711541e+00
1	 1.998340303459614e+00	 8.146087791465992e-02	 1.761717549356098e+00
1	 1.996235947721451e+00	 1.226448541879675e-01	 1.549812630143215e+00
1	 1.993256305782559e+00	 1.641003296021794e-01	 1.372033413941899e+00
1	 1.989383023057143e+00	 2.058027162298326e-01	 1.222577625036765e+00
1	 1.984598518257113e+00	 2.477262895831255e-01	 1.095653992563971e+00
1	 1.978886057599742e+00	 2.898442097719247e-01	 9.855289859472136e-01
1	 1.972229829182122e+00	 3.321285478860718e-01	 8.865759067032261e-01
1	 1.964615017131326e+00	 3.745503177365909e-01	 7.933260462221352e-01
1	 1.956027875117432e+00	 4.170795130597794e-01	 7.005215756596040e-01
1	 1.816308609920916e+00	 3.872874820388771e-01	 9.100418670339709e-01
1	 1.807420922483264e+00	 4.268470302562786e-01	 7.523342491052341e-01
1	 1.797608207565696e+00	 4.664479662144158e-01	 5.961696100376860e-01
1	 1.786861079627148e+00	 5.060598957399112e-01	 4.412966592185185e-01
1	 1.775171404337629e+00	 5.456516697179217e-01	 2.873899309458300e-01
1	 1.762532357481656e+00	 5.851914441855203e-01	 1.340493702594562e-01
1	 1.748938480695031e+00	 6.246467453183742e-01	-1.919950935828646e-02
1	 1.734385733593725e+00	 6.639845391423612e-01	-1.729048695178056e-01
1	 1.718871541860783e+00	 7.031713057585306e-01	-3.276871701116090e-01
1	 1.702394840869089e+00	 7.421731178265019e-01	-4.842371564911913e-01
1	 1.684956114434273e+00	 7.809557230084924e-01	-6.433132014236520e-01
1	 1.830280651355449e+00	 3.902667096404622e-01	 8.807197621803330e-01
1	 1.821324594953817e+00	 4.301305715873713e-01	 7.279452842234782e-01
1	 1.811436395253883e+00	 4.700361396521799e-01	 5.767301481076541e-01
1	 1.800606594515861e+00	 5.099527858528720e-01	 4.268106478259632e-01
1	 1.788826995836037e+00	 5.498491214585424e-01	 2.778486510198816e-01
1	 1.776090722503322e+00	 5.896930575450493e-01	 1.294312298053755e-01
1	 1.762392274164796e+00	 6.294518704816068e-01	-1.892913341628116e-02
1	 1.747727579355579e+00	 6.690922721786595e-01	-1.677937384967170e-01
1	 1.732094043955664e+00	 7.085804848838240e-01	-3.177962371144710e-01
1	 1.715490595148239e+00	 7.478823202690240e-01	-4.696405640261024e-01
1	 1.697917720470713e+00	 7.869632625087234e-01	-6.240982211325027e-01
1	 1.844252697680622e+00	 3.932459382850533e-01	 8.546362121760113e-01
1	 1.835228272290978e+00	 4.334141140679417e-01	 7.066921350291027e-01
1	 1.825264587782192e+00	 4.736243143460175e-01	 5.602508041455825e-01
1	 1.814352114215724e+00	 5.138456773285418e-01	 4.150645148194540e-01
1	 1.802482592114112e+00	 5.540465746684604e-01	 2.708071164721478e-01
1	 1.789649092270640e+00	 5.941946724803288e-01	 1.270733717404794e-01
1	 1.775846072343640e+00	 6.342569973268171e-01	-1.662108717353089e-02
1	 1.761069429787372e+00	 6.742000070028453e-01	-1.608391747286281e-01
1	 1.745316550678762e+00	 7.139896659025048e-01	-3.062211161393473e-01
1	 1.728586354011298e+00	 7.535915247099296e-01	-4.534825407433137e-01
1	 1.710879331044161e+00	 7.929708041117344e-01	-6.034118927494063e-01
1	 1.858224737486206e+00	 3.962251655398985e-01	 8.312470585508234e-01
1	 1.849131943140409e+00	 4.366976550167055e-01	 6.881765788510270e-01
1	 1.839092773857973e+00	 4.772124873658478e-01	 5.464622644534449e-01
1	 1.828097627501635e+00	 5.177385669879708e-01	 4.059003462889342e-01
1	 1.816138182020209e+00	 5.582440259199826e-01	 2.662008803532731e-01
1	 1.803207455711374e+00	 5.986962853152487e-01	 1.269865222373209e-01
1	 1.789299864244732e+00	 6.390621219300107e-01	-1.220805985876167e-02
1	 1.774411273993693e+00	 6.793077394437820e-01	-1.519360962836993e-01
1	 1.758539051232120e+00	 7.193988443972456e-01	-2.928379195421018e-01
1	 1.741682106763799e+00	 7.593007264868671e-01	-4.356394350066548e-01
1	 1.723840935569680e+00	 7.989783429115335e-01	-5.811498404749529e-01
1	 1.872196759361968e+00	 3.992043889722462e-01	 8.100243856044341e-01
1	 1.863035596147771e+00	 4.399811917523779e-01	 6.720122795282479e-01
1	 1.852920942188578e+00	 4.808006557815890e-01	 5.351032535448824e-01
1	 1.841843123148493e+00	 5.216314516522095e-01	 3.991649407393966e-01
1	 1.829793754402687e+00	 5.624414717854167e-01	 2.639674176028868e-01
1	 1.816765801753297e+00	 6.031978923737006e-01	 1.291810849804552e-01
1	 1.802753638881248e+00	 6.438672403671951e-01	-5.624752540010325e-03
1	 1.787753101079132e+00	 6.844154653303315e-01	-1.409825606265235e-01
1	 1.771761534817776e+00	 7.248080159507175e-01	-2.775264602626397e-01
1	 1.754777842711275e+00	 7.650099209374835e-01	-4.159912883049907e-01
1	 1.736802523462338e+00	 8.049858740021280e-01	-5.572108056042616e-01
1	 1.886168751897681e+00	 4.021836061493447e-01	 7.904559189063400e-01
1	 1.876939219958725e+00	 4.432647215936743e-01	 6.578243472693400e-01
1	 1.866749081481357e+00	 4.843888166631600e-01	 5.259202365352420e-01
1	 1.855588589931198e+00	 5.255243281423084e-01	 3.947096346490813e-01
1	 1.843449298109903e+00	 5.666389088370701e-01	 2.640460539450099e-01
1	 1.830324119324177e+00	 6.076994899795758e-01	 1.336671531689417e-01
1	 1.816207385266352e+00	 6.486723487143761e-01	 3.192196428994598e-03
1	 1.801094900148275e+00	 6.895231804913566e-01	-1.278796483160826e-01
1	 1.784983990637771e+00	 7.302171761455920e-01	-2.601701147511510e-01
1	 1.767873551159260e+00	 7.707191033994266e-01	-3.944216984618266e-01
1	 1.749764084137201e+00	 8.109933924775250e-01	-5.314965310747768e-01
1	 1.900140703683113e+00	 4.051628146384417e-01	 7.720444502730446e-01
1	 1.890842803218936e+00	 4.465482418593103e-01	 6.452489178863493e-01
1	 1.880577180443664e+00	 4.879769670804797e-01	 5.186671346319930e-01
1	 1.869334016624649e+00	 5.294171932793179e-01	 3.923901357063044e-01
1	 1.857104801990212e+00	 5.708363336472505e-01	 2.663778979133580e-01
1	 1.843882397351781e+00	 6.122010744567645e-01	 1.404545209904950e-01
1	 1.829661092413219e+00	 6.534774430475603e-01	 1.430428268066730e-02
1	 1.814436660305711e+00	 6.946308807557207e-01	-1.125313518251059e-01
1	 1.798206407894145e+00	 7.356263205645408e-01	-2.406556919282268e-01
1	 1.780969221413285e+00	 7.764282692103445e-01	-3.708176888662460e-01
1	 1.762725607009334e+00	 8.170008934317318e-01	-5.039116510961524e-01
1	 1.914112603308034e+00	 4.081420120067854e-01	 7.543072878727060e-01
1	 1.904746334574061e+00	 4.498317498680010e-01	 6.339327504153458e-01
1	 1.894405227782849e+00	 4.915651041034668e-01	 5.131050530576844e-01
1	 1.883079392003745e+00	 5.333100438842887e-01	 3.920663633335373e-01
1	 1.870760254891974e+00	 5.750337427882651e-01	 2.709057758469714e-01
1	 1.857440624763881e+00	 6.167026421291587e-01	 1.495526945941589e-01
1	 1.843114749335018e+00	 6.582825194427546e-01	 2.777120399089017e-02
1	 1.827778370656030e+00	 6.997385619522857e-01	-9.484446921787437e-02
1	 1.811428775788937e+00	 7.410354447902353e-01	-2.188733078711959e-01
1	 1.794064842778885e+00	 7.821374137078839e-01	-3.450695834183150e-01
1	 1.775687081493801e+00	 8.230083719587561e-01	-4.743635856031376e-01
1	 1.928084439362215e+00	 4.111211958216242e-01	 7.367757301853965e-01
1	 1.918649802669765e+00	 4.531152429384617e-01	 6.235328421931067e-01
1	 1.908233212206262e+00	 4.951532248020400e-01	 5.090020207761495e-01
1	 1.896824704843383e+00	 5.372028767782708e-01	 3.936022961298393e-01
1	 1.884415645663542e+00	 5.792311328324216e-01	 2.775741697058445e-01
1	 1.870998790488245e+00	 6.212041893206487e-01	 1.609709025869412e-01
1	 1.856568345044922e+00	 6.630875739759653e-01	 4.365092547947852e-02
1	 1.841120020303820e+00	 7.048462199099149e-01	-7.472850244057699e-02
1	 1.824651083524189e+00	 7.464445444053474e-01	-1.947162659369155e-01
1	 1.807160404561592e+00	 7.878465322296934e-01	-3.170708868996100e-01
1	 1.788648497005671e+00	 8.290158231526051e-01	-4.427624392873881e-01
1	 1.942056200435424e+00	 4.141003636502061e-01	 7.189945626203200e-01
1	 1.932553196151707e+00	 4.563987183894079e-01	 6.137160605126982e-01
1	 1.922061122421255e+00	 4.987413262461179e-01	 5.061327414288962e-01
1	 1.910569943918465e+00	 5.410956887823153e-01	 3.968658258840447e-01
1	 1.898070963153277e+00	 5.834285003520271e-01	 2.863291575648368e-01
1	 1.884556883452640e+00	 6.257057123551258e-01	 1.747181060782864e-01
1	 1.870021868556099e+00	 6.678926027231987e-01	 6.199974200235914e-02
1	 1.854461598353669e+00	 7.099538504574706e-01	-5.209555999241994e-02
1	 1.837873320301940e+00	 7.518536149925487e-01	-1.680809420478094e-01
1	 1.820255896066940e+00	 7.935556201134200e-01	-2.867181704963853e-01
1	 1.801609842960009e+00	 8.350232421072867e-01	-4.090209049780369e-01
1	 1.956027875117432e+00	 4.170795130597794e-01	 7.005215756596042e-01
1	 1.946456503665550e+00	 4.596821735395547e-01	 6.041587900308838e-01
1	 1.935888947135180e+00	 5.023294055056194e-01	 5.042783549224126e-01
1	 1.924315098003887e+00	 5.449884767174719e-01	 4.017286178308958e-01
1	 1.911726196209532e+00	 5.876258419193892e-01	 2.971183566522539e-01
1	 1.898114892584837e+00	 6.302072075564812e-01	 1.908030082949695e-01
1	 1.883475308881720e+00	 6.726976017604614e-01	 8.287233787556392e-02
1	 1.867803093910167e+00	 7.150614494238159e-01	-2.686026375896450e-02
1	 1.851095475324230e+00	 7.572626521345105e-01	-1.388666748835798e-01
1	 1.833351306600461e+00	 7.992646726967115e-01	-2.539109622182184e-01
1	 1.814571108771880e+00	 8.410306239168078e-01	-3.730541711542052e-01
1	 1.684956114434273e+00	 7.809557230084924e-01	-6.433132014236521e-01
1	 1.666556108579333e+00	 8.194873157394583e-01	-8.090526550722522e-01
1	 1.647199695705267e+00	 8.577305159763660e-01	-9.847388869714556e-01
1	 1.626892195228096e+00	 8.956506072642391e-01	-1.169875201371544e+00
1	 1.605640574629505e+00	 9.332129100509844e-01	-1.363890946536852e+00
1	 1.583453458654829e+00	 9.703828781281937e-01	-1.566143947573606e+00
1	 1.560341131808945e+00	 1.007126196440562e+00	-1.775923529255512e+00
1	 1.536315533985785e+00	 1.043408879724244e+00	-1.992454115964720e+00
1	 1.511390249116649e+00	 1.079197371414791e+00	-2.214899389004214e+00
1	 1.485580486774423e+00	 1.114458642250760e+00	-2.442366974744343e+00
1	 1.458903056724601e+00	 1.149160287989920e+00	-2.673913630456551e+00
1	 1.697917720470713e+00	 7.869632625087234e-01	-6.240982211325027e-01
1	 1.679376171684905e+00	 8.257912613720412e-01	-7.851248077850216e-01
1	 1.659870858672978e+00	 8.643286492681638e-01	-9.558115388741195e-01
1	 1.639407141770808e+00	 9.025404426841122e-01	-1.135654146074740e+00
1	 1.617992042057758e+00	 9.403916952936697e-01	-1.324069024635735e+00
1	 1.595634250625419e+00	 9.778475951400555e-01	-1.520395740722988e+00
1	 1.572344131092705e+00	 1.014873563197749e+00	-1.723900178580005e+00
1	 1.548133715201746e+00	 1.051435352769626e+00	-1.933778314676475e+00
1	 1.523016691378873e+00	 1.087499149155750e+00	-2.149160598555452e+00
1	 1.497008386197335e+00	 1.123031669015494e+00	-2.369116912687833e+00
1	 1.470125738732542e+00	 1.158000258835432e+00	-2.592662076424170e+00
1	 1.710879331044161e+00	 7.929708041117344e-01	-6.034118927494063e-01
1	 1.692196239277984e+00	 8.320952092111141e-01	-7.597786296856748e-01
1	 1.672542026076116e+00	 8.709267848693754e-01	-9.254803707809794e-01
1	 1.651922092694297e+00	 9.094302805154478e-01	-1.100018034156055e+00
1	 1.630343513809585e+00	 9.475704830488989e-01	-1.282808339408810e+00
1	 1.607815046859852e+00	 9.853123147644879e-01	-1.473186313991474e+00
1	 1.584347134578076e+00	 1.022620932666389e+00	-1.670408483937192e+00
1	 1.559951900554614e+00	 1.059461828624110e+00	-1.873656736759836e+00
1	 1.534643137710871e+00	 1.095800929802140e+00	-2.082042836362491e+00
1	 1.508436289620492e+00	 1.131604698780583e+00	-2.294613561843863e+00
1	 1.481348424668851e+00	 1.166840232774733e+00	-2.510356434318321e+00
1	 1.723840935569680e+00	 7.989783429115335e-01	-5.811498404749529e-01
1	 1.705016300889208e+00	 8.383991541086286e-01	-7.329392974840919e-01
1	 1.685213187566892e+00	 8.775249173917148e-01	-8.937015300063014e-01
1	 1.664437037778324e+00	 9.163201151317564e-01	-1.062955196323140e+00
1	 1.642694979798230e+00	 9.547492674542318e-01	-1.240130404482938e+00
1	 1.619995837410733e+00	 9.927770309055642e-01	-1.424571143051893e+00
1	 1.596350132462838e+00	 1.030368298519748e+00	-1.615538435522350e+00
1	 1.571770080393091e+00	 1.067488300733048e+00	-1.812214207449629e+00
1	 1.546269578617915e+00	 1.104102706574501e+00	-2.013705846942307e+00
1	 1.519864187711302e+00	 1.140177724545059e+00	-2.219051430702091e+00
1	 1.492571105368532e+00	 1.175680202588859e+00	-2.427225579537077e+00
1	 1.736802523462338e+00	 8.049858740021280e-01	-5.572108056042614e-01
1	 1.717836346049209e+00	 8.447030909165361e-01	-7.045342220175297e-01
1	 1.697884332797518e+00	 8.841230414468964e-01	-8.604324725834216e-01
1	 1.676951966802650e+00	 9.232099409065490e-01	-1.024454310342324e+00
1	 1.655046429936937e+00	 9.619280426472270e-01	-1.196056089059548e+00
1	 1.632176612330666e+00	 1.000241737467358e+00	-1.374604044486575e+00
1	 1.608353114944773e+00	 1.038115654431095e+00	-1.559377333424518e+00
1	 1.583588245065871e+00	 1.075514762541794e+00	-1.749571821497557e+00
1	 1.557896004605275e+00	 1.112404472693372e+00	-1.944304601708875e+00
1	 1.531292071137173e+00	 1.148750739307956e+00	-2.142619217002402e+00
1	 1.503793771666583e+00	 1.184520161058842e+00	-2.343491551336038e+00
1	 1.749764084137201e+00	 8.109933924775250e-01	-5.314965310747767e-01
1	 1.730656364288626e+00	 8.510070144867884e-01	-6.744929655005703e-01
1	 1.710555451420205e+00	 8.907211516466336e-01	-8.256319147842210e-01
1	 1.689466869547038e+00	 9.300997522133370e-01	-9.845043881680712e-01
1	 1.667397854138950e+00	 9.691068027654434e-01	-1.150605641758759e+00
1	 1.644357361672258e+00	 1.007706428353941e+00	-1.323337237207192e+00
1	 1.620356072221661e+00	 1.045862994073695e+00	-1.502009887232612e+00
1	 1.595406384921654e+00	 1.083541207495701e+00	-1.685847081318558e+00
1	 1.569522406178222e+00	 1.120706221379292e+00	-1.873989475752898e+00
1	 1.542719930565512e+00	 1.157323736068305e+00	-2.065500022976047e+00
1	 1.515016414398009e+00	 1.193360100965718e+00	-2.259369806091732e+00
1	 1.762725607009334e+00	 8.170008934317318e-01	-5.039116510961524e-01
1	 1.743476345138092e+00	 8.573109196713373e-01	-6.427471624175536e-01
1	 1.723226533087164e+00	 8.973192426026411e-01	-7.892597867726086e-01
1	 1.701981735791249e+00	 9.369895434256313e-01	-9.430947636390021e-01
1	 1.679749242317513e+00	 9.762855419464395e-01	-1.103798713414006e+00
1	 1.656538075488112e+00	 1.015171097469386e+00	-1.270821401171076e+00
1	 1.632358994491283e+00	 1.053610311120815e+00	-1.443518311257036e+00
1	 1.607224490309136e+00	 1.091567629040120e+00	-1.621154029056214e+00
1	 1.581148773842030e+00	 1.129007945852801e+00	-1.802906416839762e+00
1	 1.554147756663726e+00	 1.165896707825141e+00	-1.987871561111984e+00
1	 1.526239024397810e+00	 1.202200015090521e+00	-2.175069459416851e+00
1	 1.775687081493801e+00	 8.230083719587561e-01	-4.743635856031375e-01
1	 1.756296278128241e+00	 8.636148013221341e-01	-6.092304438719474e-01
1	 1.735897567450607e+00	 9.039173089266328e-01	-7.512771882833287e-01
1	 1.714496555315046e+00	 9.438793089169430e-01	-9.002150807115549e-01
1	 1.692100584385871e+00	 9.834642543277747e-01	-1.055654378870429e+00
1	 1.668718743830833e+00	 1.022635738717768e+00	-1.217105733531544e+00
1	 1.644361871951418e+00	 1.061357599245724e+00	-1.383982415590042e+00
1	 1.619042551577015e+00	 1.099594020620405e+00	-1.555603372876924e+00
1	 1.592775098101968e+00	 1.137309639334439e+00	-1.731197107022494e+00
1	 1.565575540099225e+00	 1.174469647577495e+00	-1.909906350931613e+00
1	 1.537461592500988e+00	 1.211039896214285e+00	-2.090793517695310e+00
1	 1.788648497005671e+00	 8.290158231526051e-01	-4.427624392873881e-01
1	 1.769116152789709e+00	 8.699186542911306e-01	-5.738783652176053e-01
1	 1.748568544162743e+00	 9.105153452303222e-01	-7.116463462235187e-01
1	 1.727011317898189e+00	 9.507690430607832e-01	-8.558552822041027e-01
1	 1.704451870257265e+00	 9.906429340470074e-01	-1.006191157837722e+00
1	 1.680899356753025e+00	 1.030100346003158e+00	-1.162238002352421e+00
1	 1.656364694799848e+00	 1.069104852121687e+00	-1.323479693215864e+00
1	 1.630860559073990e+00	 1.107620375681909e+00	-1.489302607785256e+00
1	 1.604401369463309e+00	 1.145611295044744e+00	-1.658999117243743e+00
1	 1.577003271539414e+00	 1.183042548324400e+00	-1.831771907226929e+00
1	 1.548684109542545e+00	 1.219879737118045e+00	-2.006739099572852e+00
1	 1.801609842960009e+00	 8.350232421072867e-01	-4.090209049780371e-01
1	 1.781935958653133e+00	 8.762224734302785e-01	-5.366283368070127e-01
1	 1.761239452875785e+00	 9.171133461254239e-01	-6.703305741003515e-01
1	 1.739526013320439e+00	 9.576587402306627e-01	-8.100055990258561e-01
1	 1.716803089844941e+00	 9.978215752416968e-01	-9.554270348447050e-01
1	 1.693079904307295e+00	 1.037564913229629e+00	-1.106264598008940e+00
1	 1.668367453234355e+00	 1.076852063421972e+00	-1.262085403368732e+00
1	 1.642678503148756e+00	 1.115646687669985e+00	-1.422356131235560e+00
1	 1.616027578431323e+00	 1.153912906204257e+00	-1.586446055278574e+00
1	 1.588430941651701e+00	 1.191615403064889e+00	-1.753630920191052e+00
1	 1.559906566357481e+00	 1.228719530582835e+00	-1.923097647907754e+00
1	 1.814571108771880e+00	 8.410306239168078e-01	-3.730541711542052e-01
1	 1.794755685249146e+00	 8.825262535915291e-01	-4.974195577010896e-01
1	 1.773910283241944e+00	 9.237113062236514e-01	-6.272942331838065e-01
1	 1.752040631361560e+00	 9.645483948000926e-01	-7.626565398664107e-01
1	 1.729154233062143e+00	 1.005000172049402e+00	-9.033794783406036e-01
1	 1.705260376546246e+00	 1.045029434301255e+00	-1.049230582390440e+00
1	 1.680370137452718e+00	 1.084599226819845e+00	-1.199872651326309e+00
1	 1.654496374150013e+00	 1.123672950029984e+00	-1.354865353799534e+00
1	 1.627653715511282e+00	 1.162214466033516e+00	-1.513667707350937e+00
1	 1.599858541103495e+00	 1.200188204797995e+00	-1.675641427845711e+00
1	 1.571128953780799e+00	 1.237559269389690e+00	-1.840055132657716e+00
1	 1.458903056724601e+00	 1.149160287989920e+00	-2.673913630456551e+00
1	 1.431376332403356e+00	 1.183270628862627e+00	-2.907107651623377e+00
1	 1.403020199363723e+00	 1.216758813370768e+00	-3.140301333418893e+00
1	 1.373856021405344e+00	 1.249594900150438e+00	-3.373732984110275e+00
1	 1.343906592066114e+00	 1.281749943065508e+00	-3.607692960675553e+00
1	 1.313196075777992e+00	 1.313196075777993e+00	-3.842521089137156e+00
1	 1.281749943065507e+00	 1.343906592066115e+00	-4.078603655879132e+00
1	 1.249594900150437e+00	 1.373856021405345e+00	-4.316369998478218e+00
1	 1.216758813370767e+00	 1.403020199363723e+00	-4.556288729377787e+00
1	 1.183270628862627e+00	 1.431376332403357e+00	-4.798863630069376e+00
1	 1.149160287989920e+00	 1.458903056724601e+00	-5.044629257242529e+00
1	 1.470125738732542e+00	 1.158000258835432e+00	-2.592662076424170e+00
1	 1.442387263759201e+00	 1.192372995147767e+00	-2.817497883083159e+00
1	 1.413812999800923e+00	 1.226118789127744e+00	-3.042209394413202e+00
1	 1.384424474999414e+00	 1.259207469086070e+00	-3.267147769133810e+00
1	 1.354244658232962e+00	 1.291609866217064e+00	-3.492727281267626e+00
1	 1.323297899819588e+00	 1.323297899819588e+00	-3.719421795898913e+00
1	 1.291609866217063e+00	 1.354244658232962e+00	-3.947760725397429e+00
1	 1.259207469086070e+00	 1.384424474999415e+00	-4.178324504335396e+00
1	 1.226118789127743e+00	 1.413812999800923e+00	-4.411739627110138e+00
1	 1.192372995147766e+00	 1.442387263759201e+00	-4.648673297455535e+00
1	 1.158000258835432e+00	 1.470125738732542e+00	-4.889827743496218e+00
1	 1.481348424668851e+00	 1.166840232774733e+00	-2.510356434318321e+00
1	 1.453398198969239e+00	 1.201475364618558e+00	-2.727138656001163e+00
1	 1.424605804015899e+00	 1.235478768160576e+00	-2.943788648680927e+00
1	 1.394992932292661e+00	 1.268820041386022e+00	-3.160749393454090e+00
1	 1.364582728018272e+00	 1.301469792819580e+00	-3.378533325998427e+00
1	 1.333399727396883e+00	 1.333399727396884e+00	-3.597718046272699e+00
1	 1.301469792819580e+00	 1.364582728018273e+00	-3.818941456640762e+00
1	 1.268820041386021e+00	 1.394992932292662e+00	-4.042896374404151e+00
1	 1.235478768160575e+00	 1.424605804015899e+00	-4.270324671063256e+00
1	 1.201475364618558e+00	 1.453398198969239e+00	-4.502010996232951e+00
1	 1.166840232774733e+00	 1.481348424668851e+00	-4.738776148922474e+00
1	 1.492571105368532e+00	 1.175680202588859e+00	-2.427225579537077e+00
1	 1.464409129041410e+00	 1.210577729841743e+00	-2.636284705228695e+00
1	 1.435398603194744e+00	 1.244838742825615e+00	-2.845303518929555e+00
1	 1.405561384654415e+00	 1.278432609200344e+00	-3.054796276831924e+00
1	 1.374920792979544e+00	 1.311329714821083e+00	-3.265348372370149e+00
1	 1.343501550260330e+00	 1.343501550260330e+00	-3.477611456089853e+00
1	 1.311329714821082e+00	 1.374920792979545e+00	-3.692297969937728e+00
1	 1.278432609200344e+00	 1.405561384654415e+00	-3.910175147791473e+00
1	 1.244838742825615e+00	 1.435398603194745e+00	-4.132058540507621e+00
1	 1.210577729841742e+00	 1.464409129041410e+00	-4.358805129410023e+00
1	 1.175680202588859e+00	 1.492571105368532e+00	-4.591306096878807e+00
1	 1.503793771666583e+00	 1.184520161058842e+00	-2.343491551336038e+00
1	 1.475420044983652e+00	 1.219680083384064e+00	-2.545183158492295e+00
1	 1.446191388523552e+00	 1.254198705479214e+00	-2.747010532917454e+00
1	 1.416129823454001e+00	 1.288045164679088e+00	-2.949539124974737e+00
1	 1.385258844674276e+00	 1.321189624169597e+00	-3.153402616877324e+00
1	 1.353603360160380e+00	 1.353603360160380e+00	-3.359297626736235e+00
1	 1.321189624169596e+00	 1.385258844674276e+00	-3.567977850635384e+00
1	 1.288045164679088e+00	 1.416129823454001e+00	-3.780247698487924e+00
1	 1.254198705479213e+00	 1.446191388523552e+00	-3.996955485584479e+00
1	 1.219680083384063e+00	 1.475420044983652e+00	-4.218986247034586e+00
1	 1.184520161058843e+00	 1.503793771666584e+00	-4.447254246639343e+00
1	 1.515016414398009e+00	 1.193360100965718e+00	-2.259369806091732e+00
1	 1.486430937803904e+00	 1.228782417812263e+00	-2.454073818273422e+00
1	 1.456984151188414e+00	 1.263558648477723e+00	-2.649158616069373e+00
1	 1.426698240060748e+00	 1.297657699972307e+00	-2.845221215539047e+00
1	 1.395596874659965e+00	 1.331049512813149e+00	-3.042919437656535e+00
1	 1.363705148847485e+00	 1.363705148847485e+00	-3.242966368394474e+00
1	 1.331049512813148e+00	 1.395596874659965e+00	-3.446124317637087e+00
1	 1.297657699972306e+00	 1.426698240060748e+00	-3.653198334731122e+00
1	 1.263558648477722e+00	 1.456984151188414e+00	-3.865029343916469e+00
1	 1.228782417812262e+00	 1.486430937803904e+00	-4.082486967426473e+00
1	 1.193360100965718e+00	 1.515016414398009e+00	-4.306462107633272e+00
1	 1.526239024397810e+00	 1.202200015090521e+00	-2.175069459416851e+00
1	 1.497441798510104e+00	 1.237884725693083e+00	-2.363189431280200e+00
1	 1.467776882375423e+00	 1.272918564177493e+00	-2.551989371211689e+00
1	 1.437266625843982e+00	 1.307270207230050e+00	-2.742078671543586e+00
1	 1.405934874494110e+00	 1.340909372699764e+00	-2.934115645574733e+00
1	 1.373806908072096e+00	 1.373806908072096e+00	-3.128801913459521e+00
1	 1.340909372699764e+00	 1.405934874494111e+00	-3.326876384521725e+00
1	 1.307270207230049e+00	 1.437266625843983e+00	-3.529108893995285e+00
1	 1.272918564177493e+00	 1.467776882375423e+00	-3.736293556487202e+00
1	 1.237884725693082e+00	 1.497441798510105e+00	-3.949241901877735e+00
1	 1.202200015090521e+00	 1.526239024397810e+00	-4.168775861860701e+00
1	 1.537461592500988e+00	 1.211039896214285e+00	-2.090793517695310e+00
1	 1.508452618110191e+00	 1.246986999593266e+00	-2.272755946143758e+00
1	 1.478569573270671e+00	 1.282278444934877e+00	-2.455737346083493e+00
1	 1.447834972173032e+00	 1.316882678602370e+00	-2.640340722834559e+00
1	 1.416272835734211e+00	 1.350769195777470e+00	-2.827201724345212e+00
1	 1.383908629584665e+00	 1.383908629584666e+00	-3.016983120628241e+00
1	 1.350769195777470e+00	 1.416272835734212e+00	-3.210369013622315e+00
1	 1.316882678602369e+00	 1.447834972173032e+00	-3.408058833830184e+00
1	 1.282278444934876e+00	 1.478569573270671e+00	-3.610761182827081e+00
1	 1.246986999593265e+00	 1.508452618110192e+00	-3.819187582643205e+00
1	 1.211039896214285e+00	 1.537461592500988e+00	-4.034046194068387e+00
1	 1.548684109542545e+00	 1.219879737118045e+00	-2.006739099572852e+00
1	 1.519463387612104e+00	 1.256089232079554e+00	-2.182992759935018e+00
1	 1.489362215060251e+00	 1.291638283106225e+00	-2.360630289242500e+00
1	 1.458403270417224e+00	 1.326495106239317e+00	-2.540229956208276e+00
1	 1.426610749937764e+00	 1.360628973994291e+00	-2.722382060227224e+00
1	 1.394010305135645e+00	 1.394010305135645e+00	-2.907683670135461e+00
1	 1.360628973994290e+00	 1.426610749937764e+00	-3.096733263420558e+00
1	 1.326495106239316e+00	 1.458403270417224e+00	-3.290125318759227e+00
1	 1.291638283106225e+00	 1.489362215060251e+00	-3.488444915540514e+00
1	 1.256089232079554e+00	 1.519463387612105e+00	-3.692262394055234e+00
1	 1.219879737118045e+00	 1.548684109542545e+00	-3.902128129293341e+00
1	 1.559906566357481e+00	 1.228719530582835e+00	-1.923097647907754e+00
1	 1.530474098023782e+00	 1.265191415718691e+00	-2.094112954063865e+00
1	 1.500154798930255e+00	 1.300998071047889e+00	-2.266889394948934e+00
1	 1.468971511945886e+00	 1.336107482290944e+00	-2.441962554760638e+00
1	 1.436948608662268e+00	 1.370488699298253e+00	-2.619855161832071e+00
1	 1.404111926475486e+00	 1.404111926475486e+00	-2.801072250580921e+00
1	 1.370488699298252e+00	 1.436948608662268e+00	-2.986096429593055e+00
1	 1.336107482290943e+00	 1.468971511945887e+00	-3.175383303435257e+00
1	 1.300998071047889e+00	 1.500154798930256e+00	-3.369357094207555e+00
1	 1.265191415718691e+00	 1.530474098023782e+00	-3.568406506605647e+00
1	 1.228719530582835e+00	 1.559906566357482e+00	-3.772880877403419e+00
1	 1.571128953780799e+00	 1.237559269389690e+00	-1.840055132657716e+00
1	 1.541484740353162e+00	 1.274293543077417e+00	-2.006323520090201e+00
1	 1.510947316066777e+00	 1.310357801116220e+00	-2.174729537577258e+00
1	 1.479539688128345e+00	 1.345719798907301e+00	-2.345748527001117e+00
1	 1.447286403465221e+00	 1.380348363637383e+00	-2.519813870529528e+00
1	 1.414213485354640e+00	 1.414213485354640e+00	-2.697312737766858e+00
1	 1.380348363637382e+00	 1.447286403465222e+00	-2.878582180025724e+00
1	 1.345719798907301e+00	 1.479539688128346e+00	-3.063905612239923e+00
1	 1.310357801116220e+00	 1.510947316066777e+00	-3.253509718691259e+00
1	 1.274293543077416e+00	 1.541484740353163e+00	-3.447561813846583e+00
1	 1.237559269389690e+00	 1.571128953780800e+00	-3.646167684286319e+00
1	 1.149160287989920e+00	 1.458903056724601e+00	-5.044629257242529e+00
1	 1.114458642250760e+00	 1.485580486774424e+00	-5.294517308172601e+00
1	 1.079197371414790e+00	 1.511390249116649e+00	-5.549093277426181e+00
1	 1.043408879724243e+00	 1.536315533985785e+00	-5.808296401327910e+00
1	 1.007126196440562e+00	 1.560341131808945e+00	-6.071978329578153e+00
1	 9.703828781281930e-01	 1.583453458654829e+00	-6.339904770320229e+00
1	 9.332129100509838e-01	 1.605640574629505e+00	-6.611757793335766e+00
1	 8.956506072642383e-01	 1.626892195228096e+00	-6.887138758308946e+00
1	 8.577305159763654e-01	 1.647199695705267e+00	-7.165571828739182e+00
1	 8.194873157394577e-01	 1.666556108579334e+00	-7.446508026416621e+00
1	 7.809557230084923e-01	 1.684956114434272e+00	-7.729329776476654e+00
1	 1.158000258835432e+00	 1.470125738732542e+00	-4.889827743496218e+00
1	 1.123031669015494e+00	 1.497008386197336e+00	-5.136055464911267e+00
1	 1.087499149155749e+00	 1.523016691378874e+00	-5.387673735872820e+00
1	 1.051435352769625e+00	 1.548133715201746e+00	-5.644528506043999e+00
1	 1.014873563197748e+00	 1.572344131092705e+00	-5.906365903941031e+00
1	 9.778475951400548e-01	 1.595634250625419e+00	-6.172835018400820e+00
1	 9.403916952936689e-01	 1.617992042057758e+00	-6.443491406184331e+00
1	 9.025404426841116e-01	 1.639407141770809e+00	-6.717801279669812e+00
1	 8.643286492681631e-01	 1.659870858672978e+00	-6.995146321916599e+00
1	 8.257912613720407e-01	 1.679376171684905e+00	-7.274829070589683e+00
1	 7.869632625087235e-01	 1.697917720470713e+00	-7.556078807401858e+00
1	 1.166840232774733e+00	 1.481348424668851e+00	-4.738776148922474e+00
1	 1.131604698780582e+00	 1.508436289620493e+00	-4.981336738119012e+00
1	 1.095800929802139e+00	 1.534643137710871e+00	-5.229761952716161e+00
1	 1.059461828624109e+00	 1.559951900554615e+00	-5.483845522067807e+00
1	 1.022620932666388e+00	 1.584347134578076e+00	-5.743278119052514e+00
1	 9.853123147644873e-01	 1.607815046859852e+00	-6.007650728578422e+00
1	 9.475704830488985e-01	 1.630343513809585e+00	-6.276458751148532e+00
1	 9.094302805154472e-01	 1.651922092694298e+00	-6.549106789440468e+00
1	 8.709267848693747e-01	 1.672542026076116e+00	-6.824914059297902e+00
1	 8.320952092111138e-01	 1.692196239277985e+00	-7.103120360937725e+00
1	 7.929708041117345e-01	 1.710879331044161e+00	-7.382892541610540e+00
1	 1.175680202588859e+00	 1.492571105368532e+00	-4.591306096878807e+00
1	 1.140177724545059e+00	 1.519864187711303e+00	-4.830107725123314e+00
1	 1.104102706574500e+00	 1.546269578617915e+00	-5.075052220904793e+00
1	 1.067488300733048e+00	 1.571770080393091e+00	-5.325921073155057e+00
1	 1.030368298519748e+00	 1.596350132462839e+00	-5.582398348147688e+00
1	 9.927770309055636e-01	 1.619995837410733e+00	-5.844074102836975e+00
1	 9.547492674542313e-01	 1.642694979798230e+00	-6.110448483750573e+00
1	 9.163201151317556e-01	 1.664437037778324e+00	-6.380936460300159e+00
1	 8.775249173917143e-01	 1.685213187566893e+00	-6.654873135362380e+00
1	 8.383991541086279e-01	 1.705016300889208e+00	-6.931519570901823e+00
1	 7.989783429115337e-01	 1.723840935569681e+00	-7.210069062311148e+00
1	 1.184520161058843e+00	 1.503793771666584e+00	-4.447254246639343e+00
1	 1.148750739307955e+00	 1.531292071137173e+00	-4.682122596171101e+00
1	 1.112404472693371e+00	 1.557896004605275e+00	-4.923247965584482e+00
1	 1.075514762541794e+00	 1.583588245065872e+00	-5.170438529431048e+00
1	 1.038115654431094e+00	 1.608353114944774e+00	-5.423419416443875e+00
1	 1.000241737467357e+00	 1.632176612330667e+00	-5.681835632450287e+00
1	 9.619280426472262e-01	 1.655046429936937e+00	-5.945255561532697e+00
1	 9.232099409065484e-01	 1.676951966802651e+00	-6.213175002048568e+00
1	 8.841230414468955e-01	 1.697884332797518e+00	-6.485021689079132e+00
1	 8.447030909165353e-01	 1.717836346049210e+00	-6.760160250619540e+00
1	 8.049858740021278e-01	 1.736802523462339e+00	-7.037897541399500e+00
1	 1.193360100965718e+00	 1.515016414398009e+00	-4.306462107633272e+00
1	 1.157323736068305e+00	 1.542719930565512e+00	-4.537142814667541e+00
1	 1.120706221379291e+00	 1.569522406178222e+00	-4.774061406517196e+00
1	 1.083541207495700e+00	 1.595406384921653e+00	-5.017090646969057e+00
1	 1.045862994073694e+00	 1.620356072221661e+00	-5.266043251512196e+00
1	 1.007706428353940e+00	 1.644357361672258e+00	-5.520673791299838e+00
1	 9.691068027654426e-01	 1.667397854138951e+00	-5.780681010866465e+00
1	 9.300997522133365e-01	 1.689466869547039e+00	-6.045710530725761e+00
1	 8.907211516466331e-01	 1.710555451420205e+00	-6.315357902322088e+00
1	 8.510070144867877e-01	 1.730656364288626e+00	-6.589171979687956e+00
1	 8.109933924775248e-01	 1.749764084137200e+00	-6.866658569603698e+00
1	 1.202200015090521e+00	 1.526239024397810e+00	-4.168775861860701e+00
1	 1.165896707825140e+00	 1.554147756663727e+00	-4.394936869729711e+00
1	 1.129007945852801e+00	 1.581148773842030e+00	-4.627213235360266e+00
1	 1.091567629040120e+00	 1.607224490309136e+00	-4.865579223233866e+00
1	 1.053610311120815e+00	 1.632358994491282e+00	-5.109980549039177e+00
1	 1.015171097469386e+00	 1.656538075488112e+00	-5.360334742692163e+00
1	 9.762855419464389e-01	 1.679749242317514e+00	-5.616531704026665e+00
1	 9.369895434256307e-01	 1.701981735791249e+00	-5.878434443492658e+00
1	 8.973192426026407e-01	 1.723226533087165e+00	-6.145879998354755e+00
1	 8.573109196713367e-01	 1.743476345138091e+00	-6.418680513202361e+00
1	 8.170008934317319e-01	 1.762725607009334e+00	-6.696624472096353e+00
1	 1.211039896214285e+00	 1.537461592500988e+00	-4.034046194068387e+00
1	 1.174469647577494e+00	 1.565575540099225e+00	-4.255280020427165e+00
1	 1.137309639334438e+00	 1.592775098101969e+00	-4.482432307047787e+00
1	 1.099594020620405e+00	 1.619042551577015e+00	-4.715614767582085e+00
1	 1.061357599245723e+00	 1.644361871951419e+00	-4.954950453194057e+00
1	 1.022635738717767e+00	 1.668718743830833e+00	-5.200572058988050e+00
1	 9.834642543277738e-01	 1.692100584385871e+00	-5.452620146006486e+00
1	 9.438793089169424e-01	 1.714496555315046e+00	-5.711241298979399e+00
1	 9.039173089266319e-01	 1.735897567450607e+00	-5.976586240380717e+00
1	 8.636148013221334e-01	 1.756296278128241e+00	-6.248807921412803e+00
1	 8.230083719587561e-01	 1.775687081493801e+00	-6.528059610314878e+00
1	 1.219879737118045e+00	 1.548684109542545e+00	-3.902128129293341e+00
1	 1.183042548324399e+00	 1.577003271539414e+00	-4.117954051118554e+00
1	 1.145611295044743e+00	 1.604401369463309e+00	-4.339455344560898e+00
1	 1.107620375681909e+00	 1.630860559073990e+00	-4.566916186056922e+00
1	 1.069104852121687e+00	 1.656364694799849e+00	-4.800680250862740e+00
1	 1.030100346003157e+00	 1.680899356753026e+00	-5.041146453394620e+00
1	 9.906429340470070e-01	 1.704451870257265e+00	-5.288764270581303e+00
1	 9.507690430607827e-01	 1.727011317898189e+00	-5.544028702823936e+00
1	 9.105153452303217e-01	 1.748568544162743e+00	-5.807474930157281e+00
1	 8.699186542911300e-01	 1.769116152789710e+00	-6.079672723322290e+00
1	 8.290158231526052e-01	 1.788648497005671e+00	-6.361220670688214e+00
1	 1.228719530582835e+00	 1.559906566357482e+00	-3.772880877403419e+00
1	 1.191615403064888e+00	 1.588430941651702e+00	-3.982747037325358e+00
1	 1.153912906204256e+00	 1.616027578431323e+00	-4.198026656413794e+00
1	 1.115646687669984e+00	 1.642678503148757e+00	-4.419210479759010e+00
1	 1.076852063421971e+00	 1.668367453234356e+00	-4.646905079050892e+00
1	 1.037564913229628e+00	 1.693079904307296e+00	-4.881825523309339e+00
1	 9.978215752416963e-01	 1.716803089844942e+00	-5.124787245155838e+00
1	 9.576587402306620e-01	 1.739526013320440e+00	-5.376697198140507e+00
1	 9.171133461254229e-01	 1.761239452875786e+00	-5.638544406668135e+00
1	 8.762224734302777e-01	 1.781935958653133e+00	-5.911390014530331e+00
1	 8.350232421072867e-01	 1.801609842960009e+00	-6.196356940927148e+00
1	 1.237559269389690e+00	 1.571128953780800e+00	-3.646167684286319e+00
1	 1.200188204797994e+00	 1.599858541103495e+00	-3.849453121618958e+00
1	 1.162214466033515e+00	 1.627653715511282e+00	-4.057897866221421e+00
1	 1.123672950029984e+00	 1.654496374150013e+00	-4.272232456116509e+00
1	 1.084599226819845e+00	 1.680370137452718e+00	-4.493367644800117e+00
1	 1.045029434301254e+00	 1.705260376546246e+00	-4.722383504639672e+00
1	 1.005000172049402e+00	 1.729154233062144e+00	-4.960517283956732e+00
1	 9.645483948000920e-01	 1.752040631361561e+00	-5.209150160672309e+00
1	 9.237113062236508e-01	 1.773910283241945e+00	-5.469793044853240e+00
1	 8.825262535915284e-01	 1.794755685249146e+00	-5.744071589609335e+00
1	 8.410306239168076e-01	 1.814571108771879e+00	-6.033710574500256e+00
1	 7.809557230084923e-01	 1.684956114434272e+00	-7.729329776476654e+00
1	 7.421731178265022e-01	 1.702394840869089e+00	-8.014606755907181e+00
1	 7.031713057585309e-01	 1.718871541860783e+00	-8.304023437276545e+00
1	 6.639845391423617e-01	 1.734385733593725e+00	-8.598613745002185e+00
1	 6.246467453183745e-01	 1.748938480695031e+00	-8.899516856577858e+00
1	 5.851914441855204e-01	 1.762532357481655e+00	-9.207962926496560e+00
1	 5.456516697179219e-01	 1.775171404337629e+00	-9.525258619513780e+00
1	 5.060598957399114e-01	 1.786861079627148e+00	-9.852772596767377e+00
1	 4.664479662144161e-01	 1.797608207565696e+00	-1.019192109196495e+01
1	 4.268470302562790e-01	 1.807420922483264e+00	-1.054415370707408e+01
1	 3.872874820388771e-01	 1.816308609920916e+00	-1.091093954791025e+01
1	 7.869632625087235e-01	 1.697917720470713e+00	-7.556078807401859e+00
1	 7.478823202690242e-01	 1.715490595148239e+00	-7.839740534080930e+00
1	 7.085804848838243e-01	 1.732094043955664e+00	-8.127843062675517e+00
1	 6.690922721786597e-01	 1.747727579355579e+00	-8.421371645397672e+00
1	 6.294518704816070e-01	 1.762392274164796e+00	-8.721421188387195e+00
1	 5.896930575450495e-01	 1.776090722503322e+00	-9.029182011108068e+00
1	 5.498491214585426e-01	 1.788826995836037e+00	-9.345925378986891e+00
1	 5.099527858528722e-01	 1.800606594515860e+00	-9.672988954615512e+00
1	 4.700361396521803e-01	 1.811436395253883e+00	-1.001176230681649e+01
1	 4.301305715873716e-01	 1.821324594953817e+00	-1.036367260932700e+01
1	 3.902667096404621e-01	 1.830280651355449e+00	-1.073017065201083e+01
1	 7.929708041117345e-01	 1.710879331044161e+00	-7.382892541610540e+00
1	 7.535915247099300e-01	 1.728586354011297e+00	-7.665409672538335e+00
1	 7.139896659025052e-01	 1.745316550678762e+00	-7.952984245397817e+00
1	 6.742000070028458e-01	 1.761069429787372e+00	-8.246455546379696e+00
1	 6.342569973268173e-01	 1.775846072343639e+00	-8.546761885093987e+00
1	 5.941946724803291e-01	 1.789649092270639e+00	-8.854927796403851e+00
1	 5.540465746684606e-01	 1.802482592114111e+00	-9.172051033181527e+00
1	 5.138456773285421e-01	 1.814352114215724e+00	-9.499289481531745e+00
1	 4.736243143460179e-01	 1.825264587782192e+00	-9.837848124598288e+00
1	 4.334141140679419e-01	 1.835228272290978e+00	-1.018896617426326e+01
1	 3.932459382850532e-01	 1.844252697680622e+00	-1.055390448205249e+01
1	 7.989783429115337e-01	 1.723840935569681e+00	-7.210069062311148e+00
1	 7.593007264868672e-01	 1.741682106763799e+00	-7.492049934317266e+00
1	 7.193988443972461e-01	 1.758539051232120e+00	-7.779957022308094e+00
1	 6.793077394437823e-01	 1.774411273993694e+00	-8.074388931839248e+00
1	 6.390621219300110e-01	 1.789299864244733e+00	-8.376017839515946e+00
1	 5.986962853152490e-01	 1.803207455711374e+00	-8.685579526306288e+00
1	 5.582440259199829e-01	 1.816138182020209e+00	-9.003863272688001e+00
1	 5.177385669879710e-01	 1.828097627501634e+00	-9.331701717977015e+00
1	 4.772124873658480e-01	 1.839092773857973e+00	-9.669960781660643e+00
1	 4.366976550167058e-01	 1.849131943140409e+00	-1.001952973898252e+01
1	 3.962251655398985e-01	 1.858224737486205e+00	-1.038131153653977e+01
1	 8.049858740021278e-01	 1.736802523462339e+00	-7.037897541399499e+00
1	 7.650099209374839e-01	 1.754777842711275e+00	-7.320084063591803e+00
1	 7.248080159507176e-01	 1.771761534817776e+00	-7.609256198288779e+00
1	 6.844154653303316e-01	 1.787753101079132e+00	-7.905679657510747e+00
1	 6.438672403671953e-01	 1.802753638881247e+00	-8.209653653266757e+00
1	 6.031978923737010e-01	 1.816765801753297e+00	-8.521505134008772e+00
1	 5.624414717854173e-01	 1.829793754402688e+00	-8.841583006533805e+00
1	 5.216314516522099e-01	 1.841843123148493e+00	-9.170252401217629e+00
1	 4.808006557815893e-01	 1.852920942188577e+00	-9.507889035158808e+00
1	 4.399811917523782e-01	 1.863035596147770e+00	-9.854873723950041e+00
1	 3.992043889722463e-01	 1.872196759361969e+00	-1.021158708846957e+01
1	 8.109933924775248e-01	 1.749764084137200e+00	-6.866658569603698e+00
1	 7.707191033994272e-01	 1.767873551159260e+00	-7.149922268062443e+00
1	 7.302171761455923e-01	 1.784983990637770e+00	-7.441361910759468e+00
1	 6.895231804913569e-01	 1.801094900148274e+00	-7.740820530357129e+00
1	 6.486723487143762e-01	 1.816207385266352e+00	-8.048120166826591e+00
1	 6.076994899795760e-01	 1.830324119324177e+00	-8.363061661848777e+00
1	 5.666389088370706e-01	 1.843449298109902e+00	-8.685424614463093e+00
1	 5.255243281423086e-01	 1.855588589931198e+00	-9.014967496273137e+00
1	 4.843888166631602e-01	 1.866749081481358e+00	-9.351427922739610e+00
1	 4.432647215936746e-01	 1.876939219958725e+00	-9.694523075428330e+00
1	 4.021836061493446e-01	 1.886168751897681e+00	-1.004395026855637e+01
1	 8.170008934317319e-01	 1.762725607009334e+00	-6.696624472096353e+00
1	 7.764282692103445e-01	 1.780969221413285e+00	-6.981962680112042e+00
1	 7.356263205645411e-01	 1.798206407894144e+00	-7.276740169346964e+00
1	 6.946308807557208e-01	 1.814436660305711e+00	-7.580289862450471e+00
1	 6.534774430475607e-01	 1.829661092413220e+00	-7.891854966279806e+00
1	 6.122010744567649e-01	 1.843882397351781e+00	-8.210595662698896e+00
1	 5.708363336472511e-01	 1.857104801990213e+00	-8.535596188111629e+00
1	 5.294171932793182e-01	 1.869334016624649e+00	-8.865872225502688e+00
1	 4.879769670804801e-01	 1.880577180443665e+00	-9.200378532807717e+00
1	 4.465482418593107e-01	 1.890842803218936e+00	-9.538016732452320e+00
1	 4.051628146384416e-01	 1.900140703683113e+00	-9.877643188812547e+00
1	 8.230083719587561e-01	 1.775687081493801e+00	-6.528059610314876e+00
1	 7.821374137078843e-01	 1.794064842778885e+00	-6.816591797810136e+00
1	 7.410354447902358e-01	 1.811428775788938e+00	-7.115843371972450e+00
1	 6.997385619522860e-01	 1.827778370656031e+00	-7.424552000649580e+00
1	 6.582825194427550e-01	 1.843114749335019e+00	-7.741282867909038e+00
1	 6.167026421291589e-01	 1.857440624763881e+00	-8.064443583817379e+00
1	 5.750337427882655e-01	 1.870760254891973e+00	-8.392299761642679e+00
1	 5.333100438842889e-01	 1.883079392003745e+00	-8.722991096898941e+00
1	 4.915651041034672e-01	 1.894405227782849e+00	-9.054547784829612e+00
1	 4.498317498680013e-01	 1.904746334574061e+00	-9.384907117097143e+00
1	 4.081420120067854e-01	 1.914112603308034e+00	-9.711930104427275e+00
1	 8.290158231526052e-01	 1.788648497005671e+00	-6.361220670688214e+00
1	 7.878465322296937e-01	 1.807160404561592e+00	-6.654184906785104e+00
1	 7.464445444053480e-01	 1.824651083524189e+00	-6.959110798549723e+00
1	 7.048462199099151e-01	 1.841120020303820e+00	-7.274057833298741e+00
1	 6.630875739759654e-01	 1.856568345044922e+00	-7.596816381766851e+00
1	 6.212041893206490e-01	 1.870998790488244e+00	-7.924932134047425e+00
1	 5.792311328324219e-01	 1.884415645663543e+00	-8.255731532377725e+00
1	 5.372028767782712e-01	 1.896824704843383e+00	-8.586347931154235e+00
1	 4.951532248020403e-01	 1.908233212206262e+00	-8.913748219170486e+00
1	 4.531152429384621e-01	 1.918649802669765e+00	-9.234759646859660e+00
1	 4.111211958216242e-01	 1.928084439362215e+00	-9.546096612004753e+00
1	 8.350232421072867e-01	 1.801609842960009e+00	-6.196356940927148e+00
1	 7.935556201134204e-01	 1.820255896066940e+00	-6.495106483926002e+00
1	 7.518536149925490e-01	 1.837873320301940e+00	-6.806969083419217e+00
1	 7.099538504574709e-01	 1.854461598353669e+00	-7.129245275102814e+00
1	 6.678926027231988e-01	 1.870021868556099e+00	-7.458856155280896e+00
1	 6.257057123551264e-01	 1.884556883452640e+00	-7.792378635200301e+00
1	 5.834285003520273e-01	 1.898070963153276e+00	-8.126082071924765e+00
1	 5.410956887823155e-01	 1.910569943918465e+00	-8.455965887562076e+00
1	 4.987413262461183e-01	 1.922061122421256e+00	-8.777797795981567e+00
1	 4.563987183894082e-01	 1.932553196151707e+00	-9.087152268041667e+00
1	 4.141003636502062e-01	 1.942056200435424e+00	-9.379448882335337e+00
1	 8.410306239168076e-01	 1.814571108771879e+00	-6.033710574500256e+00
1	 7.992646726967119e-01	 1.833351306600461e+00	-6.339710583820422e+00
1	 7.572626521345107e-01	 1.851095475324230e+00	-6.659832667578872e+00
1	 7.150614494238162e-01	 1.867803093910166e+00	-6.990539731266421e+00
1	 6.726976017604617e-01	 1.883475308881719e+00	-7.327791397888809e+00
1	 6.302072075564815e-01	 1.898114892584837e+00	-7.667091358412628e+00
1	 5.876258419193895e-01	 1.911726196209532e+00	-8.003536528278415e+00
1	 5.449884767174722e-01	 1.924315098003888e+00	-8.331867488810492e+00
1	 5.023294055056197e-01	 1.935888947135180e+00	-8.646519702689925e+00
1	 4.596821735395550e-01	 1.946456503665550e+00	-8.941675009089117e+00
1	 4.170795130597794e-01	 1.956027875117432e+00	-9.211312925977040e+00
1	 3.872874820388771e-01	 1.816308609920916e+00	-1.091093954791025e+01
1	 3.477961513548631e-01	 1.824282371526556e+00	-1.128298848408556e+01
1	 3.084045727317791e-01	 1.831353256794514e+00	-1.165482135314113e+01
1	 2.691406090831641e-01	 1.837534030153142e+00	-1.203336974470299e+01
1	 2.300311761118629e-01	 1.842838449176229e+00	-1.242509953959294e+01
1	 1.911022077634256e-01	 1.847281196321023e+00	-1.283599747102521e+01
1	 1.523786267521780e-01	 1.850877810074617e+00	-1.327156168848691e+01
1	 1.138843200634055e-01	 1.853644615892075e+00	-1.373679615449952e+01
1	 7.564211930666406e-02	 1.855598657289427e+00	-1.423620867822368e+01
1	 3.767378576971149e-02	 1.856757627432609e+00	-1.477381236790209e+01
1	 0.000000000000000e+00	 1.857139801539814e+00	-1.535313026641226e+01
1	 3.902667096404621e-01	 1.830280651355449e+00	-1.073017065201083e+01
1	 3.504715899935780e-01	 1.838315751506641e+00	-1.110164560629345e+01
1	 3.107769897551532e-01	 1.845441029900473e+00	-1.147358150591160e+01
1	 2.712109861755548e-01	 1.851669349156259e+00	-1.185480725338200e+01
1	 2.318007020079915e-01	 1.857014572678568e+00	-1.225365757652063e+01
1	 1.925722706961611e-01	 1.861491495870142e+00	-1.267794672292279e+01
1	 1.535508066735914e-01	 1.865115776748615e+00	-1.313494715824243e+01
1	 1.147603806773737e-01	 1.867903866353385e+00	-1.363137314011416e+01
1	 7.622399995034060e-02	 1.869872939308534e+00	-1.417336899992043e+01
1	 3.796359318002330e-02	 1.871040824885514e+00	-1.476650192989320e+01
1	 0.000000000000000e+00	 1.871425938885499e+00	-1.541575904333838e+01
1	 3.932459382850532e-01	 1.844252697680622e+00	-1.055390448205249e+01
1	 3.531470295690237e-01	 1.852349136398973e+00	-1.092277896507756e+01
1	 3.131494076092565e-01	 1.859528807937886e+00	-1.129240962010227e+01
1	 2.732813639930133e-01	 1.865804673107656e+00	-1.167385841837065e+01
1	 2.335702285239302e-01	 1.871190701143662e+00	-1.207769251557354e+01
1	 1.940423341439138e-01	 1.875701800394163e+00	-1.251394085491622e+01
1	 1.547229870057532e-01	 1.879353748407376e+00	-1.299205683406452e+01
1	 1.156364415984018e-01	 1.882163121807058e+00	-1.352088698151624e+01
1	 7.680588079802229e-02	 1.884147226325386e+00	-1.410864553182352e+01
1	 3.825340069197077e-02	 1.885324027339362e+00	-1.476289473841902e+01
1	 0.000000000000000e+00	 1.885712081233184e+00	-1.549053071785307e+01
1	 3.962251655398985e-01	 1.858224737486205e+00	-1.038131153653977e+01
1	 3.558224678965476e-01	 1.866382514743161e+00	-1.074529934610753e+01
1	 3.155218243569035e-01	 1.873616579401857e+00	-1.111011693757456e+01
1	 2.753517408450131e-01	 1.879939990463523e+00	-1.148938641722079e+01
1	 2.353397542148332e-01	 1.885366822994288e+00	-1.189626189874431e+01
1	 1.955123969063779e-01	 1.889912098287876e+00	-1.234336484164906e+01
1	 1.558951667915985e-01	 1.893591713423012e+00	-1.284272657181472e+01
1	 1.165125021112163e-01	 1.896422370607762e+00	-1.340573803523878e+01
1	 7.738776137463409e-02	 1.898421506682321e+00	-1.404310676028365e+01
1	 3.854320806894682e-02	 1.899607223129177e+00	-1.476482093396076e+01
1	 0.000000000000000e+00	 1.899998216915481e+00	-1.558012043434486e+01
1	 3.992043889722463e-01	 1.872196759361969e+00	-1.021158708846957e+01
1	 3.584979027914968e-01	 1.880415875078809e+00	-1.056815005214529e+01
1	 3.178942380609087e-01	 1.887704332787491e+00	-1.092555017561328e+01
1	 2.774221150410272e-01	 1.894075289680050e+00	-1.130028833842807e+01
1	 2.371092776358552e-01	 1.899542926653227e+00	-1.170845136405352e+01
1	 1.969824577832472e-01	 1.904122377946063e+00	-1.216562197017447e+01
1	 1.570673450740619e-01	 1.907829660167639e+00	-1.268679707700135e+01
1	 1.173885615005437e-01	 1.910681601110162e+00	-1.328631466143083e+01
1	 7.796964120510101e-02	 1.912695768721677e+00	-1.397778924670491e+01
1	 3.883301507434440e-02	 1.913890400589983e+00	-1.477405602513650e+01
1	 0.000000000000000e+00	 1.914284334264999e+00	-1.568712352633611e+01
1	 4.021836061493446e-01	 1.886168751897681e+00	-1.004395026855637e+01
1	 3.611733320692193e-01	 1.894449205945525e+00	-1.039030569908977e+01
1	 3.202666467840865e-01	 1.901792056589895e+00	-1.073759021291808e+01
1	 2.794924848905292e-01	 1.908210559213428e+00	-1.110549392487841e+01
1	 2.388787973421502e-01	 1.913719000543261e+00	-1.151337360394234e+01
1	 1.984525155742156e-01	 1.918332627763510e+00	-1.198013316042473e+01
1	 1.582395208960786e-01	 1.922067577013369e+00	-1.252411372380990e+01
1	 1.182646190511106e-01	 1.924940801668923e+00	-1.316299366705588e+01
1	 7.855151981434802e-02	 1.926970000785793e+00	-1.391369880946037e+01
1	 3.912282147155649e-02	 1.928173548056805e+00	-1.479232291270422e+01
1	 0.000000000000000e+00	 1.928570421614352e+00	-1.581405847468076e+01
1	 4.051628146384416e-01	 1.900140703683113e+00	-9.877643188812547e+00
1	 3.638487535450625e-01	 1.908482495882913e+00	-1.021077106501867e+01
1	 3.226390485892515e-01	 1.915879739304173e+00	-1.054515083343632e+01
1	 2.815628487029925e-01	 1.922345787519847e+00	-1.090396437260606e+01
1	 2.406483118888728e-01	 1.927895033087166e+00	-1.131016736951412e+01
1	 1.999225690789772e-01	 1.932542836135003e+00	-1.178633631559146e+01
1	 1.594116933005831e-01	 1.936305452332318e+00	-1.235452638209813e+01
1	 1.191406740476435e-01	 1.939199960638711e+00	-1.303614072957927e+01
1	 7.913339672730015e-02	 1.941244191217008e+00	-1.385181165378177e+01
1	 3.941262702397597e-02	 1.942456653864665e+00	-1.482129382446940e+01
1	 0.000000000000000e+00	 1.942856467296148e+00	-1.596336973554744e+01
1	 4.081420120067854e-01	 1.914112603308034e+00	-9.711930104427273e+00
1	 3.665241650343737e-01	 1.922515733430581e+00	-1.002857998952492e+01
1	 3.250114415392178e-01	 1.929967369425429e+00	-1.034717752508673e+01
1	 2.836332047878904e-01	 1.936480963055499e+00	-1.069469118204353e+01
1	 2.424178198311772e-01	 1.942071012707724e+00	-1.109799651828897e+01
1	 2.013926170972256e-01	 1.946752991455327e+00	-1.158368570089269e+01
1	 1.605838613305106e-01	 1.950543274496597e+00	-1.217788925195141e+01
1	 1.200167257748691e-01	 1.953459066374192e+00	-1.290611080214235e+01
1	 7.971527146888234e-02	 1.955518328357659e+00	-1.379307545227382e+01
1	 3.970243149499583e-02	 1.956739706348588e+00	-1.486259216564258e+01
1	 0.000000000000000e+00	 1.957142459643000e+00	-1.613743044482493e+01
1	 4.111211958216242e-01	 1.928084439362215e+00	-9.546096612004753e+00
1	 3.691995643525005e-01	 1.936548907128135e+00	-9.842794320802435e+00
1	 3.273838236968005e-01	 1.944054935448769e+00	-1.014264633059848e+01
1	 2.857035514546960e-01	 1.950616074276571e+00	-1.047669505910627e+01
1	 2.441873197242179e-01	 1.956246927827715e+00	-1.087604910326858e+01
1	 2.028626584286550e-01	 1.960963082119268e+00	-1.137165134929032e+01
1	 1.617560240287959e-01	 1.964781031878321e+00	-1.199406070541433e+01
1	 1.208927735175138e-01	 1.967718107230032e+00	-1.277324850115652e+01
1	 8.029714356401962e-02	 1.969792400550084e+00	-1.373841037855367e+01
1	 3.999223464800900e-02	 1.971022693843598e+00	-1.491779428892202e+01
1	 0.000000000000000e+00	 1.971428386987518e+00	-1.633854500520476e+01
1	 4.141003636502062e-01	 1.942056200435424e+00	-9.379448882335339e+00
1	 3.718749493147904e-01	 1.950582005515181e+00	-9.652502908081390e+00
1	 3.297561931248136e-01	 1.958142425869298e+00	-9.930562747844323e+00
1	 2.877738870128829e-01	 1.964751109639256e+00	-1.024902486360830e+01
1	 2.459568101231491e-01	 1.970422766869918e+00	-1.064353650123455e+01
1	 2.043326918729593e-01	 1.975173096521612e+00	-1.114971849280210e+01
1	 1.629281804383737e-01	 1.979018712849604e+00	-1.180290313503811e+01
1	 1.217688165603043e-01	 1.981977071560896e+00	-1.263788847720533e+01
1	 8.087901253763698e-02	 1.984066396136623e+00	-1.368871009636917e+01
1	 4.028203624640840e-02	 1.985305604684719e+00	-1.498843118833934e+01
1	 0.000000000000000e+00	 1.985714237662315e+00	-1.656895156183672e+01
1	 4.170795130597794e-01	 1.956027875117432e+00	-9.211312925977040e+00
1	 3.745503177365909e-01	 1.964615017131326e+00	-9.456820637152061e+00
1	 3.321285478860717e-01	 1.972229829182122e+00	-9.709960677200144e+00
1	 2.898442097719244e-01	 1.978886057599742e+00	-1.001075660264805e+01
1	 2.477262895831253e-01	 1.984598518257113e+00	-1.039969257832435e+01
1	 2.058027162298323e-01	 1.989383023057143e+00	-1.091738701813316e+01
1	 1.641003296021790e-01	 1.993256305782559e+00	-1.160428280890411e+01
1	 1.226448541879670e-01	 1.996235947721450e+00	-1.250035577008144e+01
1	 8.146087791465940e-02	 1.998340303459614e+00	-1.364484270642009e+01
1	 4.057183605358700e-02	 1.999588427206973e+00	-1.507599012066835e+01
1	 0.000000000000000e+00	 2.000000000000000e+00	-1.683082437211693e+01
