label=Stress xy
num_items=882

0:-5.0262327194266165e-01
1:-8.6883208178989013e-01
2:-9.9132831884748229e-01
3:-8.2655970670943135e-01
4:-6.6647376688467441e-01
5:-9.2693644123033492e-01
6:-3.9675521447998330e-01
7:2.2190113418406393e-01
8:5.4387001218165154e-01
9:5.3049340878872697e-01
10:-3.9475560886562860e-01
11:3.7961463683037489e-01
12:1.0990792366825262e+00
13:1.3064200872908924e+00
14:1.1425340821297867e+00
15:6.9740491667620885e-01
16:9.5538117725917604e-01
17:1.1111764521556169e+00
18:1.0142609369892610e+00
19:8.0924855706184728e-01
20:1.2990243432744262e+00
21:1.0599349397429925e+00
22:7.3950079007172809e-01
23:4.5236956153613056e-01
24:2.7429407109402276e-01
25:-5.9475763845638641e-01
26:-4.4672089107067836e-01
27:-2.2237951895972558e-01
28:-2.4695712971982035e-02
29:7.4502002666674019e-02
30:4.4556146556377280e-01
31:2.9766697758995514e-01
32:1.6291775313789567e-01
33:1.1444039466170212e-01
34:1.2460363715730573e-01
35:9.7110181078275604e-01
36:6.6180918554548340e-01
37:3.2832893859526446e-01
38:1.4844050569868081e-01
39:1.2054174245101487e-01
40:6.6778361954556842e-01
41:4.1903519999463690e-01
42:1.5802425319066060e-01
43:3.7920472250956259e-02
44:4.7326511183807735e-02
45:1.8956017588145840e-01
46:5.1498630187780482e-02
47:-7.1739804738505289e-02
48:-8.7717176727449872e-02
49:-2.9266916586809646e-02
50:1.0861829043015275e-01
51:1.3397484532639087e-01
52:9.8946997671299636e-02
53:2.5120699058794962e-02
54:-2.0604958475314111e-02
55:1.3969689151301792e-01
56:1.4868725259643445e-01
57:1.1959143828738329e-01
58:6.7366733967863607e-02
59:3.3982911741579164e-02
60:1.3423666906754661e-01
61:1.5360870753162784e-01
62:1.5361388366310477e-01
63:1.2791962398075077e-01
64:1.0020801062936449e-01
65:7.9751329014407998e-02
66:1.3353575425441158e-01
67:1.7353833904372998e-01
68:1.6828264154743636e-01
69:1.3914986890268025e-01
70:2.1011554924635398e-02
71:1.0245618297162143e-01
72:1.6835400827994179e-01
73:1.7353903468607956e-01
74:1.4375241606442613e-01
75:-3.6168087201650101e-02
76:-4.8746536562480916e-02
77:-3.6678259488877804e-02
78:-8.0723592880127780e-03
79:9.6475875813265988e-03
80:2.1389274702194351e-02
81:8.5098502241180846e-03
82:9.6551917902914803e-03
83:2.0817945697601609e-02
84:2.6291311458913991e-02
85:8.4519906718779805e-02
86:6.1541845047005495e-02
87:4.4260489797713569e-02
88:3.8783440514932155e-02
89:3.7431917109470261e-02
90:1.1749839038398210e-01
91:8.2535991695636385e-02
92:5.1416781085232600e-02
93:3.9553793114683586e-02
94:3.9870506723752371e-02
95:1.1981433513185408e-01
96:8.1096191558875791e-02
97:4.7461211062818684e-02
98:3.6941068424674893e-02
99:4.0571363368284999e-02
100:1.5520717133510532e-02
101:2.0407385438994754e-02
102:1.6458596118376419e-02
103:6.5382281311306030e-03
104:4.8443327762551306e-04
105:2.6686229261707901e-02
106:2.4226017462553928e-02
107:1.6536841834971543e-02
108:8.9039707999919657e-03
109:6.5469140215415984e-03
110:3.6448773839527389e-02
111:3.3186804705696994e-02
112:2.6797283261164057e-02
113:2.1116888820010539e-02
114:1.9154103417761796e-02
115:4.1789664342320350e-02
116:4.3757662732490814e-02
117:4.2184223012903400e-02
118:3.6961765235205321e-02
119:3.2244438042305520e-02
120:4.4854312995349685e-02
121:5.0526087612374135e-02
122:5.1654669552169429e-02
123:4.5981578667549455e-02
124:3.9192083809735836e-02
125:-1.4488069558209887e-03
126:-3.2405669454123654e-03
127:-2.6579790039683981e-03
128:-4.7146556945496329e-04
129:6.7530857843917460e-04
130:6.7707337486678882e-03
131:7.8868427843284215e-03
132:9.4398650193482682e-03
133:9.1209825865099080e-03
134:6.8075958055823045e-03
135:1.9026664060010436e-02
136:1.9117002484638674e-02
137:1.8826955540538842e-02
138:1.6643841588884201e-02
139:1.3265912908624432e-02
140:2.9758855624552980e-02
141:2.5940875515773662e-02
142:2.2333681259338121e-02
143:1.9782404382610284e-02
144:1.7898958814274175e-02
145:3.5186771441568385e-02
146:2.8995576224481685e-02
147:2.3658174034415749e-02
148:2.1342431996775442e-02
149:2.0687186889721935e-02
150:8.9648049646255993e-04
151:1.1634009673899051e-03
152:1.1993763054245765e-03
153:5.8228229029496726e-04
154:-3.4727837006475089e-04
155:4.8666774301185500e-03
156:1.9870475977284119e-03
157:7.0789282738489704e-04
158:3.0910536141099888e-03
159:6.9211115653738716e-03
160:1.0876561214655786e-02
161:6.9612496045969811e-03
162:3.9818103515350967e-03
163:4.9144374271779786e-03
164:8.1663792242963520e-03
165:1.6720414787623660e-02
166:1.3977658874828531e-02
167:9.5367038389504808e-03
168:5.5543259782253381e-03
169:3.6517242307379442e-03
170:2.0386429608914115e-02
171:1.8542810821474874e-02
172:1.3224171168703220e-02
173:5.8948287359077076e-03
174:3.6742364728478976e-04
175:1.4534031959576421e+00
176:9.8892192962966508e-01
177:4.6832173436038371e-01
178:1.1938982710780340e-01
179:-3.0579869421963852e-02
180:1.4402140925553220e+00
181:7.2034982479561149e-01
182:-8.3883380046544317e-03
183:-3.9313214148581693e-01
184:-4.8276815217422231e-01
185:9.1346842483544222e-01
186:1.8230721283428536e-01
187:-5.0749735277289687e-01
188:-8.0182629620082524e-01
189:-8.0844099943490444e-01
190:1.6802198693461581e-01
191:-3.1316976244183081e-01
192:-7.3576051010359056e-01
193:-8.6885926707687078e-01
194:-8.1967594551077039e-01
195:-2.4584637610473506e-01
196:-5.0375783558318643e-01
197:-7.1625688580882862e-01
198:-7.5542756356389240e-01
199:-6.9578603089631164e-01
200:-8.2890691027220395e-02
201:-1.5789061665374346e-01
202:-2.0129495834809422e-01
203:-1.5729253112412428e-01
204:-7.2155483165776371e-02
205:-4.8323974817157295e-01
206:-4.5985376210751272e-01
207:-3.8223042292227477e-01
208:-2.5312323804563031e-01
209:-1.3541426830926001e-01
210:-7.6256068294633950e-01
211:-6.5671230110313661e-01
212:-4.8679596407765058e-01
213:-3.0725040112343788e-01
214:-1.8376042106909204e-01
215:-7.5980432663840070e-01
216:-6.3556738509238297e-01
217:-4.5750462210040305e-01
218:-2.9485061725210676e-01
219:-1.9884389089842072e-01
220:-6.4336270189386657e-01
221:-5.3812881431992010e-01
222:-3.9320237312412643e-01
223:-2.6879804124123713e-01
224:-2.0116248292274749e-01
225:-1.3121627751303133e-02
226:8.0939099084859967e-02
227:1.5751403287703000e-01
228:1.6696685402162575e-01
229:1.3805390143886920e-01
230:-6.8263693947682558e-02
231:3.6767218269615862e-02
232:1.2334408420503622e-01
233:1.4003672967020278e-01
234:1.1703353530816045e-01
235:-1.2268045790200968e-01
236:-2.8079431650935346e-02
237:5.3110844688625335e-02
238:7.8729880850150522e-02
239:7.1519453244780734e-02
240:-1.5622534522337272e-01
241:-8.9307558579668489e-02
242:-2.5406287553815587e-02
243:8.4319311328898694e-03
244:2.0271532438188276e-02
245:-1.7312827732977132e-01
246:-1.2684998348516904e-01
247:-7.4753064371554725e-02
248:-3.4970689624623054e-02
249:-1.1253736170032823e-02
250:1.1433409292585886e-01
251:7.6363904424642332e-02
252:4.4513254813087558e-02
253:3.6270311255269048e-02
254:4.1551539635271084e-02
255:9.7096892819802494e-02
256:6.5917975782055896e-02
257:4.1720139480204518e-02
258:3.8095834066951176e-02
259:4.4609455184162157e-02
260:6.2536725136850851e-02
261:4.9516586805794710e-02
262:4.2157565976395063e-02
263:4.4424345325732091e-02
264:4.9039528927186340e-02
265:2.4341139018698440e-02
266:3.2104478676005362e-02
267:4.2199742571643967e-02
268:4.8439952330402276e-02
269:4.9140489985926475e-02
270:4.4352904814329031e-04
271:1.9806822662729304e-02
272:3.8682494271373442e-02
273:4.6028028866151649e-02
274:4.4267086117016144e-02
275:4.6643013218118763e-02
276:5.3435621548294052e-02
277:5.5157521886984563e-02
278:4.9078092903141995e-02
279:4.1577972156269211e-02
280:4.9735315603966747e-02
281:5.6353889394783301e-02
282:5.7648713523295002e-02
283:5.1223899280934022e-02
284:4.3699409082774920e-02
285:5.1637043978054679e-02
286:5.4259407676243196e-02
287:5.2836701802080319e-02
288:4.7227362363594504e-02
289:4.2179441062162960e-02
290:4.8177799482682124e-02
291:4.5663722095964150e-02
292:4.1707186998183175e-02
293:3.8573044649666821e-02
294:3.7565663913516914e-02
295:4.1448322830023844e-02
296:3.6671206327397961e-02
297:3.2624151182841912e-02
298:3.2185382400053329e-02
299:3.4018967390592195e-02
300:3.7126782390592368e-02
301:3.0283596258445431e-02
302:2.4550237341674386e-02
303:2.2405120870570654e-02
304:2.2135913994817413e-02
305:3.9330643535875107e-02
306:3.2668581777664275e-02
307:2.7158441868658855e-02
308:2.5117266695970707e-02
309:2.4810656823478210e-02
310:3.9560467563116909e-02
311:3.5576395972890681e-02
312:3.1928746280737129e-02
313:2.9542078938502789e-02
314:2.7868239150217935e-02
315:3.7505760737850675e-02
316:3.7275665860980772e-02
317:3.5980078222918939e-02
318:3.2851638905081748e-02
319:2.9263596758648931e-02
320:3.5524158202120994e-02
321:3.7446490735856798e-02
322:3.7271061248136873e-02
323:3.3520543383559573e-02
324:2.8892996084726223e-02
325:2.2084061385047697e-02
326:2.0452695744629858e-02
327:1.4722826762255205e-02
328:6.1665955325463945e-03
329:-6.4291708829954997e-04
330:2.4695173471428317e-02
331:2.2817548794324106e-02
332:1.6418613398053845e-02
333:6.8081960628247470e-03
334:-9.5314911776286579e-04
335:2.6789067187781034e-02
336:2.3572161489631711e-02
337:1.6608537724322157e-02
338:7.8116101431249469e-03
339:1.2359288218663164e-03
340:2.6930741027006089e-02
341:2.2204387609607124e-02
342:1.5287936784948794e-02
343:8.6373815848940546e-03
344:4.3981725973799915e-03
345:2.5965212691087113e-02
346:2.0680839713275549e-02
347:1.4216306805806602e-02
348:8.9535250039346048e-03
349:5.8708669211481176e-03
350:-3.7629939948729191e-01
351:-5.2885661960277430e-01
352:-6.5105860384271874e-01
353:-6.6042981956712876e-01
354:-6.0627103792515979e-01
355:-4.6624340995740698e-01
356:-4.8320833971703475e-01
357:-4.9882695875417632e-01
358:-4.8664081485124067e-01
359:-4.5266494627717280e-01
360:-3.2304339317466696e-01
361:-2.8438647411912388e-01
362:-2.7632521056386677e-01
363:-2.9168530370102508e-01
364:-2.9593839292504465e-01
365:-4.1685779622890676e-02
366:-5.8343921992848664e-02
367:-1.1670918496432395e-01
368:-1.8528184732776551e-01
369:-2.2064085310944462e-01
370:1.2148721329409287e-01
371:3.7175076299473350e-02
372:-7.9689775976101371e-02
373:-1.7372808173798138e-01
374:-2.1621995559585766e-01
375:-5.6221854828319129e-01
376:-4.7458905350429181e-01
377:-3.5541584564309975e-01
378:-2.5526808828276748e-01
379:-2.0249491072048903e-01
380:-4.2599456756451604e-01
381:-3.7266830567654685e-01
382:-2.9994339104885737e-01
383:-2.3910591451519211e-01
384:-2.0755849634393020e-01
385:-2.9212374502836586e-01
386:-2.8077938874693831e-01
387:-2.5922004761589340e-01
388:-2.3444350842653486e-01
389:-2.1720495920264632e-01
390:-2.3153576015316205e-01
391:-2.4545767822850056e-01
392:-2.5099558231276820e-01
393:-2.3990677749997594e-01
394:-2.2336708629263244e-01
395:-2.2957245494008247e-01
396:-2.4717308296578464e-01
397:-2.5506396251907915e-01
398:-2.4229574108741966e-01
399:-2.2204705893205398e-01
400:-1.8118173324480696e-01
401:-1.4391928995526496e-01
402:-9.6245174265928948e-02
403:-5.3282883101116202e-02
404:-2.4652921354564750e-02
405:-1.9487838604957022e-01
406:-1.6872368793619941e-01
407:-1.2588736244060647e-01
408:-7.8741490334814729e-02
409:-4.4691319591345473e-02
410:-2.0838854523619837e-01
411:-1.8643485914877309e-01
412:-1.4483881883880917e-01
413:-9.6830179014427462e-02
414:-6.3128040355663453e-02
415:-2.1231152454940944e-01
416:-1.8709267141462216e-01
417:-1.4508583295510982e-01
418:-1.0209596629713039e-01
419:-7.5076118083832910e-02
420:-2.0844361125543581e-01
421:-1.8065379928066863e-01
422:-1.4045981951697747e-01
423:-1.0406187785417001e-01
424:-8.3226745255049236e-02
425:-1.0079017244055279e-02
426:1.3413046334561076e-02
427:3.5006884243429313e-02
428:4.2362172489669336e-02
429:3.9767946877786543e-02
430:-2.7248988103718806e-02
431:1.2580407267554600e-04
432:2.4025990631661553e-02
433:3.1558217699582426e-02
434:2.8945452515193964e-02
435:-4.6572588664753764e-02
436:-2.0932408107161574e-02
437:1.5914179800237056e-03
438:1.0340864886761319e-02
439:1.0745157855040531e-02
440:-6.2777918143864769e-02
441:-4.3323899966353142e-02
442:-2.4157572699800501e-02
443:-1.2624495968076020e-02
444:-7.1552715815869960e-03
445:-7.4234939079221074e-02
446:-5.9053829166974062e-02
447:-4.1210774884434732e-02
448:-2.6630956938344660e-02
449:-1.7428386188200678e-02
450:3.6464043113514623e-02
451:3.1362109015674565e-02
452:2.8101431547287243e-02
453:2.9311485058754336e-02
454:3.2400327690062930e-02
455:2.5848453194181182e-02
456:2.1798064028245898e-02
457:2.1060875660906562e-02
458:2.5019404755882026e-02
459:2.9571987562595339e-02
460:9.9400909975762564e-03
461:1.0115441181904553e-02
462:1.4160975672853796e-02
463:2.0702379957084738e-02
464:2.5450385555907448e-02
465:-4.6138141386662997e-03
466:8.5154488074791967e-04
467:9.2503449889286132e-03
468:1.6596013446002988e-02
469:2.0131941627491868e-02
470:-1.2747918273987443e-02
471:-4.2811779829035838e-03
472:5.8543073698529490e-03
473:1.2689877859697529e-02
474:1.5110880666437093e-02
475:3.4486706813031967e-02
476:3.7133119753019798e-02
477:3.7210873533065653e-02
478:3.3154432906044376e-02
479:2.8226634045818398e-02
480:3.2153371632663498e-02
481:3.5317370732282125e-02
482:3.5461519496499269e-02
483:3.1241390515675996e-02
484:2.6409644679024420e-02
485:2.7626639631175363e-02
486:3.0081170604377101e-02
487:2.9862578248225281e-02
488:2.6416446903114447e-02
489:2.2957839429322398e-02
490:2.1280480649891138e-02
491:2.2415963294349233e-02
492:2.2096736644462957e-02
493:2.0425084026131728e-02
494:1.9082802027596994e-02
495:1.5613793444168574e-02
496:1.6150057108724986e-02
497:1.6377428458098683e-02
498:1.6375057815781233e-02
499:1.6490413721017068e-02
500:2.5178858676754051e-02
501:1.9887612274563028e-02
502:1.3787500182007289e-02
503:9.0012265062690416e-03
504:6.1170489209736783e-03
505:2.3547727207924352e-02
506:1.8755224673244402e-02
507:1.3374283988940090e-02
508:8.8200792634050545e-03
509:5.5422305253281096e-03
510:2.1058238152676850e-02
511:1.7766524314669511e-02
512:1.3314268482852980e-02
513:7.9765427939406421e-03
514:3.0625694344964382e-03
515:1.8447206159548757e-02
516:1.6872770613492457e-02
517:1.3083425272692906e-02
518:6.5859085616303079e-03
519:4.9862232452248969e-05
520:1.6593397219932551e-02
521:1.5914333731950548e-02
522:1.2357237534358374e-02
523:5.4024295648126865e-03
524:-1.5015440417710624e-03
525:1.7080124056972476e-01
526:5.1917063893311868e-02
527:-8.9194070640121664e-02
528:-1.8718381498295053e-01
529:-2.2706577012262549e-01
530:1.9833544127804564e-01
531:4.1666332987010661e-02
532:-1.1886854695135871e-01
533:-2.1092367747696256e-01
534:-2.4213179506306168e-01
535:1.2622484374009338e-01
536:-2.3214466216622327e-02
537:-1.5954926525273350e-01
538:-2.2355440677495489e-01
539:-2.4047935202007684e-01
540:1.5234400426470424e-03
541:-9.1122278444432797e-02
542:-1.6895881191483456e-01
543:-2.0062763811456241e-01
544:-2.0869001127072739e-01
545:-6.7293392938881771e-02
546:-1.0691876639786140e-01
547:-1.4134172089396840e-01
548:-1.5922300228456815e-01
549:-1.6854255959307610e-01
550:-2.3888500158443696e-01
551:-2.5365708749540467e-01
552:-2.5770432992187153e-01
553:-2.4143057500804083e-01
554:-2.1897278668189146e-01
555:-2.5029223564595898e-01
556:-2.5891625039372695e-01
557:-2.5592433817816329e-01
558:-2.3499907252644303e-01
559:-2.1076758899835149e-01
560:-2.4427974254740917e-01
561:-2.4648915584226053e-01
562:-2.3816250038319850e-01
563:-2.1693521693470477e-01
564:-1.9550953252330852e-01
565:-2.1142838830862790e-01
566:-2.1324886233843543e-01
567:-2.0745255228163878e-01
568:-1.9280427931137689e-01
569:-1.7840717009459092e-01
570:-1.7366444202967282e-01
571:-1.8037639387574333e-01
572:-1.8195047100412928e-01
573:-1.7525734301323084e-01
574:-1.6682303989311356e-01
575:-2.0436836035077777e-01
576:-1.7608777222075195e-01
577:-1.3808484518582922e-01
578:-1.0584522160603795e-01
579:-8.8123517926001080e-02
580:-1.9576571706615467e-01
581:-1.6867174904495824e-01
582:-1.3587591175077998e-01
583:-1.1055143080784141e-01
584:-9.7145652036381452e-02
585:-1.8286347668015687e-01
586:-1.6114817293053341e-01
587:-1.3661399468476085e-01
588:-1.1806525490755734e-01
589:-1.0731580670661238e-01
590:-1.7005707576177992e-01
591:-1.5562276690753796e-01
592:-1.3837967265416326e-01
593:-1.2306507392774349e-01
594:-1.1216394037651238e-01
595:-1.6163001890467474e-01
596:-1.5186756903290155e-01
597:-1.3805338470617520e-01
598:-1.2316540225791069e-01
599:-1.1143565873654772e-01
600:-8.0562281497840796e-02
601:-6.6986099967362309e-02
602:-4.9080184337565509e-02
603:-3.2615063057983368e-02
604:-2.1678544904335663e-02
605:-9.1301341839091818e-02
606:-7.9402426306622628e-02
607:-6.0807923234978578e-02
608:-4.1587437532064446e-02
609:-2.8541666151601558e-02
610:-1.0198811864193438e-01
611:-9.0132544421349853e-02
612:-7.0290723514067691e-02
613:-4.9581670772746840e-02
614:-3.6137250710839085e-02
615:-1.0610168337699759e-01
616:-9.3203255742389565e-02
617:-7.3176496036862035e-02
618:-5.3851460958508998e-02
619:-4.2238655243996663e-02
620:-1.0479803466616995e-01
621:-9.1586867698365437e-02
622:-7.2817893422943300e-02
623:-5.6000324547963214e-02
624:-4.6364305808736891e-02
625:-1.6141396548243977e-02
626:-6.6231569445448397e-03
627:3.8127981302222254e-03
628:1.0095322950176367e-02
629:1.2004108969983053e-02
630:-2.2101939400373680e-02
631:-1.1625464428104469e-02
632:-1.2148574198621209e-03
633:4.3101239266794163e-03
634:5.8356982168173699e-03
635:-2.9838436383579817e-02
636:-1.9881639239617648e-02
637:-1.0263184434106587e-02
638:-4.8796972163977137e-03
639:-2.6817373013233439e-03
640:-3.7093334390301685e-02
641:-2.8781391300454488e-02
642:-1.9953819435554292e-02
643:-1.3614033932110501e-02
644:-9.8599366908015112e-03
645:-4.2171545089778759e-02
646:-3.4962789536947217e-02
647:-2.6158240337492117e-02
648:-1.8564744979265031e-02
649:-1.3574747760394605e-02
650:1.2298234084436860e-02
651:1.2774309468791007e-02
652:1.3559051068822518e-02
653:1.4494545029037454e-02
654:1.5246812143384228e-02
655:6.1085392258918231e-03
656:6.9738463848656894e-03
657:8.9960047118408017e-03
658:1.1363785791672966e-02
659:1.2862304569482209e-02
660:-1.7614122431645442e-03
661:4.4882066007919129e-04
662:4.2315326736495403e-03
663:7.7005554791331927e-03
664:9.3360818573480202e-03
665:-7.9293724772876370e-03
666:-4.1431214186989571e-03
667:8.7174193965414940e-04
668:4.4362905447106792e-03
669:5.5654360013904780e-03
670:-1.1000868038422590e-02
671:-6.4020033574904902e-03
672:-1.1178033522515638e-03
673:2.0364713593381554e-03
674:2.7331234918949359e-03
675:1.5615393300647916e-02
676:1.5216072678556221e-02
677:1.1707830063385709e-02
678:4.7628180003090152e-03
679:-1.9329698760704604e-03
680:1.3462943255814904e-02
681:1.3303828025034081e-02
682:1.0030522783877952e-02
683:3.7823945928872819e-03
684:-1.8268608276477162e-03
685:9.7909779766922490e-03
686:9.5363552964089441e-03
687:6.9832338425665280e-03
688:2.8866614734637214e-03
689:-1.9570053988245465e-04
690:5.6427565302171337e-03
691:5.1961663032247972e-03
692:3.7671087639086658e-03
693:2.3146704584336049e-03
694:1.8252445886246756e-03
695:2.6177628341953019e-03
696:2.2346545224065342e-03
697:1.7804786664785495e-03
698:1.9273713760358877e-03
699:2.6454741281539073e-03
700:-8.6723603893585480e-02
701:-9.9078669545678358e-02
702:-1.1447269310644416e-01
703:-1.3015096650367020e-01
704:-1.4302680313397942e-01
705:-9.5347781146513169e-02
706:-7.2512490253371462e-02
707:-6.6088984661664948e-02
708:-8.2673671719070627e-02
709:-1.0199143583622435e-01
710:-6.1195307306865308e-02
711:-2.6131630614473586e-02
712:-1.7521096711060172e-02
713:-4.1519273601648927e-02
714:-6.6197654917783455e-02
715:-6.8766432998962883e-03
716:7.3806194286595572e-03
717:-2.5879603478377515e-03
718:-3.3071404430024293e-02
719:-5.6399197459424733e-02
720:2.1445433176683633e-02
721:1.0370361559264657e-02
722:-1.5826107889021033e-02
723:-4.5515379206836015e-02
724:-6.2989574457828337e-02
725:-1.5044490817515535e-01
726:-1.6136764666814782e-01
727:-1.6841456526936963e-01
728:-1.6655947093226256e-01
729:-1.6117293008226363e-01
730:-1.1284988027670749e-01
731:-1.3004410720455484e-01
732:-1.4536144434252377e-01
733:-1.5087586678897921e-01
734:-1.5011028224643747e-01
735:-7.8808803597444424e-02
736:-9.9374203850865026e-02
737:-1.1999736178437810e-01
738:-1.3102889451342398e-01
739:-1.3402158442630283e-01
740:-6.6967017570440504e-02
741:-8.4463105225055499e-02
742:-1.0315520530431399e-01
743:-1.1448331323808547e-01
744:-1.1848791241561905e-01
745:-7.0043064289864246e-02
746:-8.2011097425065821e-02
747:-9.5715010792035732e-02
748:-1.0484815099395357e-01
749:-1.0844212122014582e-01
750:-1.5743913859823414e-01
751:-1.4964703243751168e-01
752:-1.3692340843615305e-01
753:-1.2182684668621800e-01
754:-1.0968730754901887e-01
755:-1.4857144539846523e-01
756:-1.4376610217578065e-01
757:-1.3285847923254740e-01
758:-1.1790849213530129e-01
759:-1.0569717830229967e-01
760:-1.3432395583273229e-01
761:-1.3223139766423023e-01
762:-1.2368997578989001e-01
763:-1.1036852725803274e-01
764:-9.9518535173806821e-02
765:-1.1944425224192622e-01
766:-1.1873311388826785e-01
767:-1.1253876384900385e-01
768:-1.0212832533278922e-01
769:-9.3692937960207140e-02
770:-1.0941828672656892e-01
771:-1.0925473179657159e-01
772:-1.0484133635795118e-01
773:-9.6927074239158612e-02
774:-9.0349620225316438e-02
775:-1.0288900250046776e-01
776:-8.9868856035191610e-02
777:-7.2299018795460399e-02
778:-5.7161337892728807e-02
779:-4.8597118124131485e-02
780:-9.9010945082591062e-02
781:-8.6898173959278208e-02
782:-7.1767540622193857e-02
783:-5.9400517715278087e-02
784:-5.2350926662936510e-02
785:-9.3752168706719388e-02
786:-8.3729490891374353e-02
787:-7.1802866370100027e-02
788:-6.2017595494089882e-02
789:-5.5918067983597337e-02
790:-8.9282955951100196e-02
791:-8.1537226143621799e-02
792:-7.1869725248827579e-02
793:-6.3051164260618506e-02
794:-5.6860767856713186e-02
795:-8.6851449300000064e-02
796:-8.0355429261345396e-02
797:-7.1396018575404521e-02
798:-6.2389214754061229e-02
799:-5.5806366276758085e-02
800:-4.4835213433184473e-02
801:-3.8026312234023724e-02
802:-2.8977220805339734e-02
803:-2.0600146244373705e-02
804:-1.5022439708127239e-02
805:-4.9105889689536580e-02
806:-4.2676625821733954e-02
807:-3.3094074069343116e-02
808:-2.3604744344958285e-02
809:-1.7346271522539765e-02
810:-5.2814408425397662e-02
811:-4.6296865077011778e-02
812:-3.6144391605532823e-02
813:-2.6122596064413382e-02
814:-1.9844466305406122e-02
815:-5.3503609287833646e-02
816:-4.6652911634986291e-02
817:-3.6531370540043587e-02
818:-2.7139207425609588e-02
819:-2.1624795095308774e-02
820:-5.2242626697575248e-02
821:-4.5322933922463594e-02
822:-3.5768750639884619e-02
823:-2.7393399687263661e-02
824:-2.2633432572077689e-02
825:-1.2199185046318978e-02
826:-7.3594637789934593e-03
827:-2.1613904617239828e-03
828:6.8157748057944641e-04
829:1.2065362656929553e-03
830:-1.4298754664709718e-02
831:-9.3323836098353624e-03
832:-4.4148608536866106e-03
833:-1.9392966552244509e-03
834:-1.4468108370127883e-03
835:-1.6955171116354435e-02
836:-1.2368267919368472e-02
837:-7.8881376360573491e-03
838:-5.3653730852073114e-03
839:-4.3645379750970612e-03
840:-1.9204675878239225e-02
841:-1.5262541135899376e-02
842:-1.1002424084818045e-02
843:-7.8988882141156434e-03
844:-6.0757130469126916e-03
845:-2.0558747095064833e-02
846:-1.6976016851137372e-02
847:-1.2598192261234089e-02
848:-8.8845106724838446e-03
849:-6.5185494677129857e-03
850:1.0609767137081689e-03
851:8.2500037985967648e-04
852:9.1275486789966522e-04
853:1.6879086626414997e-03
854:2.7113089878424549e-03
855:-1.4797320244645260e-03
856:-1.2750205957654036e-03
857:-3.1903170602075700e-04
858:1.1199612830569221e-03
859:2.2095791744035495e-03
860:-3.9632691449546275e-03
861:-2.9537397994333046e-03
862:-1.2285417793881574e-03
863:1.6738859320448597e-04
864:5.7367032740777166e-04
865:-5.1562051572359591e-03
866:-3.4449618318993735e-03
867:-1.5011291896232116e-03
868:-7.4416540359382804e-04
869:-1.2073713690136634e-03
870:-5.3324178943371841e-03
871:-3.3693823878841091e-03
872:-1.5660168042869744e-03
873:-1.2369628897777052e-03
874:-1.9749974689689553e-03
875:2.8610698775980017e-02
876:3.5703914321034928e-03
877:-2.9813491089288890e-02
878:-5.6598761487988591e-02
879:-6.9549824620419101e-02
880:3.0528504401510431e-02
881:-1.1630832970324381e-02
882:-5.1612265694423988e-02
883:-7.1776565675735982e-02
884:-7.7629153560906661e-02
885:1.5327280373646052e-02
886:-2.9247024178606907e-02
887:-6.4550201125224083e-02
888:-7.5989096105884515e-02
889:-7.6841913888916979e-02
890:-5.3622912293071487e-03
891:-3.2874925175591596e-02
892:-5.3922978813894219e-02
893:-6.1167298212521655e-02
894:-6.3390263490494592e-02
895:-1.3499626430195324e-02
896:-2.2448357957443047e-02
897:-3.2548288828403431e-02
898:-4.1472520223071345e-02
899:-4.8267265756917942e-02
900:-7.4284393373954691e-02
901:-8.2613287999860785e-02
902:-9.2919991639042812e-02
903:-1.0041125688138219e-01
904:-1.0358201799240362e-01
905:-7.9098868917801143e-02
906:-8.2329998208706803e-02
907:-8.7775026117628357e-02
908:-9.2753696137539351e-02
909:-9.5130416303423157e-02
910:-7.6732486026490174e-02
911:-7.7475947256086433e-02
912:-8.0147516880821945e-02
913:-8.3161833338924934e-02
914:-8.4533237247105028e-02
915:-6.4823222333264582e-02
916:-6.7747167472936770e-02
917:-7.1542634928291687e-02
918:-7.4027569961144873e-02
919:-7.4550503159505788e-02
920:-5.2154291616799769e-02
921:-5.8532940963408095e-02
922:-6.4607035675681490e-02
923:-6.7208372049778295e-02
924:-6.7224619294703761e-02
925:-1.0449528811822238e-01
926:-1.0456184206512241e-01
927:-1.0112114635716357e-01
928:-9.4548664538043115e-02
929:-8.8877507825198626e-02
930:-9.5843994163698529e-02
931:-9.6120019892327782e-02
932:-9.4083282552269956e-02
933:-8.9552115602740220e-02
934:-8.5258124461678922e-02
935:-8.4835157964199437e-02
936:-8.4927217107529526e-02
937:-8.3816336966415633e-02
938:-8.0969107503711460e-02
939:-7.7880020279475215e-02
940:-7.4393798600858790e-02
941:-7.3943469185824298e-02
942:-7.2795094835600538e-02
943:-7.0520234602442250e-02
944:-6.8006082873507720e-02
945:-6.6782172674873241e-02
946:-6.5884654113079033e-02
947:-6.4375292682108412e-02
948:-6.2105255421435190e-02
949:-5.9814111094097976e-02
950:-8.5776928217887849e-02
951:-7.9737163942326592e-02
952:-7.0844015477404876e-02
953:-6.1532589553946165e-02
954:-5.4726503777671860e-02
955:-8.2752596173003942e-02
956:-7.7405737722217927e-02
957:-6.8685506047557535e-02
958:-5.9104209826655797e-02
959:-5.2179804554239706e-02
960:-7.5910775448781539e-02
961:-7.1307135909163696e-02
962:-6.3189990970740587e-02
963:-5.4085024024015445e-02
964:-4.7671606719954886e-02
965:-6.6351335835238209e-02
966:-6.2425248365484576e-02
967:-5.5466696578564435e-02
968:-4.7732376953508474e-02
969:-4.2385013816650143e-02
970:-5.8348084312165704e-02
971:-5.4994595174270446e-02
972:-4.9226697330560870e-02
973:-4.2860977601182265e-02
974:-3.8412225605511253e-02
975:-5.1096096556043323e-02
976:-4.4258053475491659e-02
977:-3.5191062377195936e-02
978:-2.7473924539506082e-02
979:-2.3108932672396339e-02
980:-4.8588570341262134e-02
981:-4.2114932327344826e-02
982:-3.4022000049485357e-02
983:-2.7378170897493479e-02
984:-2.3559418676288222e-02
985:-4.4453485794436080e-02
986:-3.8826355452249210e-02
987:-3.2017225009549684e-02
988:-2.6386304626935014e-02
989:-2.2917759890902802e-02
990:-3.9741440371770444e-02
991:-3.5072014049658554e-02
992:-2.9226097673029462e-02
993:-2.4066830922509164e-02
994:-2.0655407777942406e-02
995:-3.6176870524357058e-02
996:-3.2075570867553777e-02
997:-2.6616368009077001e-02
998:-2.1538782399909119e-02
999:-1.8136639480384461e-02
1000:-2.1179799398347875e-02
1001:-1.7702816187594422e-02
1002:-1.3161919291808608e-02
1003:-9.1086796080099112e-03
1004:-6.5251277760928501e-03
1005:-2.1793585873978710e-02
1006:-1.8396639491826832e-02
1007:-1.3595734530562032e-02
1008:-9.1480114914376503e-03
1009:-6.3981257984886807e-03
1010:-2.1190082228158703e-02
1011:-1.7767771670184541e-02
1012:-1.2871948297570624e-02
1013:-8.4780676775404080e-03
1014:-5.9753608791697482e-03
1015:-1.8891112933399633e-02
1016:-1.5515363791661886e-02
1017:-1.0987226691573026e-02
1018:-7.2466425325982669e-03
1019:-5.3137604146608810e-03
1020:-1.6398655565481129e-02
1021:-1.3234717333209708e-02
1022:-9.2941050870841337e-03
1023:-6.2572906860243463e-03
1024:-4.7491904790448233e-03
1025:-5.2626455541469330e-03
1026:-3.2775674982582527e-03
1027:-1.6190668070508230e-03
1028:-1.4180135901661860e-03
1029:-2.1031089154093774e-03
1030:-5.1240307893468473e-03
1031:-3.2369248388544902e-03
1032:-1.7897083091515866e-03
1033:-1.5368417174480866e-03
1034:-1.8378910647715619e-03
1035:-4.9099095650796823e-03
1036:-3.3546585786401678e-03
1037:-2.0230362591271956e-03
1038:-1.2416361604046682e-03
1039:-6.9444121273687983e-04
1040:-4.5534960973209896e-03
1041:-3.3459256940981193e-03
1042:-1.9509362497908897e-03
1043:-5.7754966244177397e-04
1044:5.9044238574547305e-04
1045:-4.1541892886550816e-03
1046:-3.0735849324765464e-03
1047:-1.5620065692899061e-03
1048:-2.0555102051081468e-05
1049:1.1147794373072189e-03
1050:-1.3833859173921600e-02
1051:-1.2651121004892414e-02
1052:-1.7933243349177973e-02
1053:-2.9324120995770805e-02
1054:-3.9333165781164248e-02
1055:-1.0032696767713869e-02
1056:2.4140819878278471e-03
1057:2.0408292304389167e-03
1058:-1.2380964618312840e-02
1059:-2.5672362453614598e-02
1060:-4.9371850799997345e-04
1061:9.2674078236910026e-03
1062:8.0328039842842199e-03
1063:-4.1410195147684745e-03
1064:-1.4421516404639977e-02
1065:4.5476501636947074e-03
1066:-5.2626305956503874e-03
1067:-1.1397073282613511e-02
1068:-1.1562193511666504e-02
1069:-1.0436144687013191e-02
1070:1.0879184034362053e-04
1071:-2.9373652502548368e-02
1072:-3.7998094324502178e-02
1073:-2.3311600041311380e-02
1074:-1.0086336440045767e-02
1075:-4.4708816318328515e-02
1076:-5.3144044509408579e-02
1077:-6.0577379895211822e-02
1078:-6.3294574931038308e-02
1079:-6.3089414603085564e-02
1080:-3.2340347541883058e-02
1081:-4.2466677383105340e-02
1082:-5.0939024926931177e-02
1083:-5.3752116571349276e-02
1084:-5.3510186337422314e-02
1085:-1.9243413878199386e-02
1086:-2.6665345253351975e-02
1087:-3.3325168207889000e-02
1088:-3.6231358292282446e-02
1089:-3.6776300445513117e-02
1090:-1.0019154046033091e-02
1091:-1.0377293333758929e-02
1092:-1.2926766436588107e-02
1093:-1.6383824289973568e-02
1094:-1.8404739550587863e-02
1095:-4.7457681188354979e-03
1096:1.1917877306470610e-03
1097:1.8131226920176343e-03
1098:-2.5785058893234413e-03
1099:-5.8251450439011426e-03
1100:-6.2533819611786334e-02
1101:-6.1434863331823804e-02
1102:-5.9711291054389402e-02
1103:-5.7395129042554352e-02
1104:-5.5210495671228745e-02
1105:-5.2993027741480438e-02
1106:-5.1913106480802489e-02
1107:-5.0146336385833601e-02
1108:-4.7903602158729880e-02
1109:-4.5951672281367421e-02
1110:-3.6774873397713806e-02
1111:-3.6421137532816929e-02
1112:-3.5184446561601031e-02
1113:-3.3259581743268575e-02
1114:-3.1645050192394511e-02
1115:-1.9121838884461641e-02
1116:-1.9707709400429090e-02
1117:-1.9039293585194239e-02
1118:-1.7295577088505369e-02
1119:-1.5911401131479500e-02
1120:-6.9522189423359415e-03
1121:-7.9481307014279360e-03
1122:-7.3064955963862222e-03
1123:-5.3857216944451589e-03
1124:-4.0381374260927590e-03
1125:-5.3853728803793965e-02
1126:-5.0850931374310779e-02
1127:-4.5812537131292699e-02
1128:-4.0241620613725104e-02
1129:-3.6263195021013522e-02
1130:-4.4801111968642907e-02
1131:-4.2428057584083592e-02
1132:-3.8664462203832552e-02
1133:-3.4464877742752573e-02
1134:-3.1293052590384271e-02
1135:-3.0762495070128112e-02
1136:-2.9145803895959548e-02
1137:-2.6860635349247691e-02
1138:-2.4278602912145258e-02
1139:-2.2118030691202242e-02
1140:-1.5251571858859671e-02
1141:-1.4225889481885133e-02
1142:-1.3090218673251618e-02
1143:-1.1896569723730930e-02
1144:-1.0764666236754237e-02
1145:-3.5015589291866257e-03
1146:-2.8026756074938783e-03
1147:-2.3391763076842163e-03
1148:-2.0970022764369143e-03
1149:-1.8036065288093742e-03
1150:-3.4217621144140911e-02
1151:-3.0350703342154721e-02
1152:-2.5002579176167786e-02
1153:-1.9928095964331448e-02
1154:-1.6562512724736037e-02
1155:-2.9574948169684791e-02
1156:-2.6171887172915326e-02
1157:-2.1227760809811546e-02
1158:-1.6470708954838393e-02
1159:-1.3410385093165587e-02
1160:-2.0851214706154551e-02
1161:-1.8280326872953681e-02
1162:-1.4511894821134536e-02
1163:-1.0973398772101992e-02
1164:-8.8237741437951663e-03
1165:-1.0041072120880750e-02
1166:-8.6635165460043680e-03
1167:-6.8461305941669454e-03
1168:-5.2873585438126822e-03
1169:-4.3836066345254322e-03
1170:-1.5759120947753528e-03
1171:-1.3238889039579379e-03
1172:-1.3310141825208751e-03
1173:-1.4842013074455552e-03
1174:-1.4997764081767959e-03
1175:-1.4877567207037796e-02
1176:-1.1907600942175066e-02
1177:-8.3761075034079462e-03
1178:-5.7454258926994285e-03
1179:-4.4258270044079950e-03
1180:-1.1939228485696417e-02
1181:-9.4680414933644569e-03
1182:-6.7181361456237296e-03
1183:-4.7218746891970137e-03
1184:-3.6314303259525962e-03
1185:-7.8465107454044423e-03
1186:-6.2504362621211553e-03
1187:-4.4918451372858723e-03
1188:-3.0924119826363705e-03
1189:-2.1543468400105942e-03
1190:-3.9734128591794949e-03
1191:-3.2240008166966446e-03
1192:-2.1996146051119778e-03
1193:-1.1868699870932618e-03
1194:-4.5878637929377416e-04
1195:-1.4374372408911314e-03
1196:-1.1346814158917635e-03
1197:-4.2083617577471440e-04
1198:3.4248302507181694e-04
1199:7.3587954571806096e-04
1200:-3.8790131100262543e-03
1201:-2.8062039775892055e-03
1202:-1.2304506296826588e-03
1203:2.5651372440394589e-04
1204:1.1666535243096789e-03
1205:-3.1154933579882259e-03
1206:-2.0489317633601151e-03
1207:-5.4600616622116956e-04
1208:5.2668804922372762e-04
1209:8.0502749291019643e-04
1210:-1.6435040413358406e-03
1211:-7.0478399175464646e-04
1212:2.7174420864572833e-04
1213:4.2611659068866019e-04
1214:-1.4142593175962625e-04
1215:-8.0636848463114225e-05
1216:4.0640724546275078e-04
1217:5.2965275203789748e-04
1218:8.9716870890060581e-05
1219:-4.5503742024696840e-04
1220:8.4937925442950214e-04
1221:7.3688237228970504e-04
1222:1.8841719452734507e-04
1223:-7.2167150762120536e-05
1224:3.4275925294486112e-04
1225:0.0000000000000000e+00
1226:0.0000000000000000e+00
1227:0.0000000000000000e+00
1228:0.0000000000000000e+00
1229:0.0000000000000000e+00
1230:0.0000000000000000e+00
1231:0.0000000000000000e+00
1232:0.0000000000000000e+00
1233:0.0000000000000000e+00
1234:0.0000000000000000e+00
1235:0.0000000000000000e+00
1236:0.0000000000000000e+00
1237:0.0000000000000000e+00
1238:0.0000000000000000e+00
1239:0.0000000000000000e+00
1240:0.0000000000000000e+00
1241:0.0000000000000000e+00
1242:0.0000000000000000e+00
1243:0.0000000000000000e+00
1244:0.0000000000000000e+00
1245:0.0000000000000000e+00
1246:0.0000000000000000e+00
1247:0.0000000000000000e+00
1248:0.0000000000000000e+00
1249:0.0000000000000000e+00
1250:0.0000000000000000e+00
1251:0.0000000000000000e+00
1252:0.0000000000000000e+00
1253:0.0000000000000000e+00
1254:0.0000000000000000e+00
1255:0.0000000000000000e+00
1256:0.0000000000000000e+00
1257:0.0000000000000000e+00
1258:0.0000000000000000e+00
1259:0.0000000000000000e+00
1260:0.0000000000000000e+00
1261:0.0000000000000000e+00
1262:0.0000000000000000e+00
1263:0.0000000000000000e+00
1264:0.0000000000000000e+00
1265:0.0000000000000000e+00
1266:0.0000000000000000e+00
1267:0.0000000000000000e+00
1268:0.0000000000000000e+00
1269:0.0000000000000000e+00
1270:0.0000000000000000e+00
1271:0.0000000000000000e+00
1272:0.0000000000000000e+00
1273:0.0000000000000000e+00
1274:0.0000000000000000e+00
1275:0.0000000000000000e+00
1276:0.0000000000000000e+00
1277:0.0000000000000000e+00
1278:0.0000000000000000e+00
1279:0.0000000000000000e+00
1280:0.0000000000000000e+00
1281:0.0000000000000000e+00
1282:0.0000000000000000e+00
1283:0.0000000000000000e+00
1284:0.0000000000000000e+00
1285:0.0000000000000000e+00
1286:0.0000000000000000e+00
1287:0.0000000000000000e+00
1288:0.0000000000000000e+00
1289:0.0000000000000000e+00
1290:0.0000000000000000e+00
1291:0.0000000000000000e+00
1292:0.0000000000000000e+00
1293:0.0000000000000000e+00
1294:0.0000000000000000e+00
1295:0.0000000000000000e+00
1296:0.0000000000000000e+00
1297:0.0000000000000000e+00
1298:0.0000000000000000e+00
1299:0.0000000000000000e+00
1300:0.0000000000000000e+00
1301:0.0000000000000000e+00
1302:0.0000000000000000e+00
1303:0.0000000000000000e+00
1304:0.0000000000000000e+00
1305:0.0000000000000000e+00
1306:0.0000000000000000e+00
1307:0.0000000000000000e+00
1308:0.0000000000000000e+00
1309:0.0000000000000000e+00
1310:0.0000000000000000e+00
1311:0.0000000000000000e+00
1312:0.0000000000000000e+00
1313:0.0000000000000000e+00
1314:0.0000000000000000e+00
1315:0.0000000000000000e+00
1316:0.0000000000000000e+00
1317:0.0000000000000000e+00
1318:0.0000000000000000e+00
1319:0.0000000000000000e+00
1320:0.0000000000000000e+00
1321:0.0000000000000000e+00
1322:0.0000000000000000e+00
1323:0.0000000000000000e+00
1324:0.0000000000000000e+00
1325:0.0000000000000000e+00
1326:0.0000000000000000e+00
1327:0.0000000000000000e+00
1328:0.0000000000000000e+00
1329:0.0000000000000000e+00
1330:0.0000000000000000e+00
1331:0.0000000000000000e+00
1332:0.0000000000000000e+00
1333:0.0000000000000000e+00
1334:0.0000000000000000e+00
1335:0.0000000000000000e+00
1336:0.0000000000000000e+00
1337:0.0000000000000000e+00
1338:0.0000000000000000e+00
1339:0.0000000000000000e+00
1340:0.0000000000000000e+00
1341:0.0000000000000000e+00
1342:0.0000000000000000e+00
1343:0.0000000000000000e+00
1344:0.0000000000000000e+00
1345:0.0000000000000000e+00
1346:0.0000000000000000e+00
1347:0.0000000000000000e+00
1348:0.0000000000000000e+00
1349:0.0000000000000000e+00
1350:0.0000000000000000e+00
1351:0.0000000000000000e+00
1352:0.0000000000000000e+00
1353:0.0000000000000000e+00
1354:0.0000000000000000e+00
1355:0.0000000000000000e+00
1356:0.0000000000000000e+00
1357:0.0000000000000000e+00
1358:0.0000000000000000e+00
1359:0.0000000000000000e+00
1360:0.0000000000000000e+00
1361:0.0000000000000000e+00
1362:0.0000000000000000e+00
1363:0.0000000000000000e+00
1364:0.0000000000000000e+00
1365:0.0000000000000000e+00
1366:0.0000000000000000e+00
1367:0.0000000000000000e+00
1368:0.0000000000000000e+00
1369:0.0000000000000000e+00
1370:0.0000000000000000e+00
1371:0.0000000000000000e+00
1372:0.0000000000000000e+00
1373:0.0000000000000000e+00
1374:0.0000000000000000e+00
1375:0.0000000000000000e+00
1376:0.0000000000000000e+00
1377:0.0000000000000000e+00
1378:0.0000000000000000e+00
1379:0.0000000000000000e+00
1380:0.0000000000000000e+00
1381:0.0000000000000000e+00
1382:0.0000000000000000e+00
1383:0.0000000000000000e+00
1384:0.0000000000000000e+00
1385:0.0000000000000000e+00
1386:0.0000000000000000e+00
1387:0.0000000000000000e+00
1388:0.0000000000000000e+00
1389:0.0000000000000000e+00
1390:0.0000000000000000e+00
1391:0.0000000000000000e+00
1392:0.0000000000000000e+00
1393:0.0000000000000000e+00
1394:0.0000000000000000e+00
1395:0.0000000000000000e+00
1396:0.0000000000000000e+00
1397:0.0000000000000000e+00
1398:0.0000000000000000e+00
1399:0.0000000000000000e+00
1400:0.0000000000000000e+00
1401:0.0000000000000000e+00
1402:0.0000000000000000e+00
1403:0.0000000000000000e+00
1404:0.0000000000000000e+00
1405:0.0000000000000000e+00
1406:0.0000000000000000e+00
1407:0.0000000000000000e+00
1408:0.0000000000000000e+00
1409:0.0000000000000000e+00
1410:0.0000000000000000e+00
1411:0.0000000000000000e+00
1412:0.0000000000000000e+00
1413:0.0000000000000000e+00
1414:0.0000000000000000e+00
1415:0.0000000000000000e+00
1416:0.0000000000000000e+00
1417:0.0000000000000000e+00
1418:0.0000000000000000e+00
1419:0.0000000000000000e+00
1420:0.0000000000000000e+00
1421:0.0000000000000000e+00
1422:0.0000000000000000e+00
1423:0.0000000000000000e+00
1424:0.0000000000000000e+00
1425:0.0000000000000000e+00
1426:0.0000000000000000e+00
1427:0.0000000000000000e+00
1428:0.0000000000000000e+00
1429:0.0000000000000000e+00
1430:0.0000000000000000e+00
1431:0.0000000000000000e+00
1432:0.0000000000000000e+00
1433:0.0000000000000000e+00
1434:0.0000000000000000e+00
1435:0.0000000000000000e+00
1436:0.0000000000000000e+00
1437:0.0000000000000000e+00
1438:0.0000000000000000e+00
1439:0.0000000000000000e+00
1440:0.0000000000000000e+00
1441:0.0000000000000000e+00
1442:0.0000000000000000e+00
1443:0.0000000000000000e+00
1444:0.0000000000000000e+00
1445:0.0000000000000000e+00
1446:0.0000000000000000e+00
1447:0.0000000000000000e+00
1448:0.0000000000000000e+00
1449:0.0000000000000000e+00
1450:0.0000000000000000e+00
1451:0.0000000000000000e+00
1452:0.0000000000000000e+00
1453:0.0000000000000000e+00
1454:0.0000000000000000e+00
1455:0.0000000000000000e+00
1456:0.0000000000000000e+00
1457:0.0000000000000000e+00
1458:0.0000000000000000e+00
1459:0.0000000000000000e+00
1460:0.0000000000000000e+00
1461:0.0000000000000000e+00
1462:0.0000000000000000e+00
1463:0.0000000000000000e+00
1464:0.0000000000000000e+00
1465:0.0000000000000000e+00
1466:0.0000000000000000e+00
1467:0.0000000000000000e+00
1468:0.0000000000000000e+00
1469:0.0000000000000000e+00
1470:0.0000000000000000e+00
1471:0.0000000000000000e+00
1472:0.0000000000000000e+00
1473:0.0000000000000000e+00
1474:0.0000000000000000e+00
1475:0.0000000000000000e+00
1476:0.0000000000000000e+00
1477:0.0000000000000000e+00
1478:0.0000000000000000e+00
1479:0.0000000000000000e+00
1480:0.0000000000000000e+00
1481:0.0000000000000000e+00
1482:0.0000000000000000e+00
1483:0.0000000000000000e+00
1484:0.0000000000000000e+00
1485:0.0000000000000000e+00
1486:0.0000000000000000e+00
1487:0.0000000000000000e+00
1488:0.0000000000000000e+00
1489:0.0000000000000000e+00
1490:0.0000000000000000e+00
1491:0.0000000000000000e+00
1492:0.0000000000000000e+00
1493:0.0000000000000000e+00
1494:0.0000000000000000e+00
1495:0.0000000000000000e+00
1496:0.0000000000000000e+00
1497:0.0000000000000000e+00
1498:0.0000000000000000e+00
1499:0.0000000000000000e+00
1500:0.0000000000000000e+00
1501:0.0000000000000000e+00
1502:0.0000000000000000e+00
1503:0.0000000000000000e+00
1504:0.0000000000000000e+00
1505:0.0000000000000000e+00
1506:0.0000000000000000e+00
1507:0.0000000000000000e+00
1508:0.0000000000000000e+00
1509:0.0000000000000000e+00
1510:0.0000000000000000e+00
1511:0.0000000000000000e+00
1512:0.0000000000000000e+00
1513:0.0000000000000000e+00
1514:0.0000000000000000e+00
1515:0.0000000000000000e+00
1516:0.0000000000000000e+00
1517:0.0000000000000000e+00
1518:0.0000000000000000e+00
1519:0.0000000000000000e+00
1520:0.0000000000000000e+00
1521:0.0000000000000000e+00
1522:0.0000000000000000e+00
1523:0.0000000000000000e+00
1524:0.0000000000000000e+00
1525:0.0000000000000000e+00
1526:0.0000000000000000e+00
1527:0.0000000000000000e+00
1528:0.0000000000000000e+00
1529:0.0000000000000000e+00
1530:0.0000000000000000e+00
1531:0.0000000000000000e+00
1532:0.0000000000000000e+00
1533:0.0000000000000000e+00
1534:0.0000000000000000e+00
1535:0.0000000000000000e+00
1536:0.0000000000000000e+00
1537:0.0000000000000000e+00
1538:0.0000000000000000e+00
1539:0.0000000000000000e+00
1540:0.0000000000000000e+00
1541:0.0000000000000000e+00
1542:0.0000000000000000e+00
1543:0.0000000000000000e+00
1544:0.0000000000000000e+00
1545:0.0000000000000000e+00
1546:0.0000000000000000e+00
1547:0.0000000000000000e+00
1548:0.0000000000000000e+00
1549:0.0000000000000000e+00
1550:0.0000000000000000e+00
1551:0.0000000000000000e+00
1552:0.0000000000000000e+00
1553:0.0000000000000000e+00
1554:0.0000000000000000e+00
1555:0.0000000000000000e+00
1556:0.0000000000000000e+00
1557:0.0000000000000000e+00
1558:0.0000000000000000e+00
1559:0.0000000000000000e+00
1560:0.0000000000000000e+00
1561:0.0000000000000000e+00
1562:0.0000000000000000e+00
1563:0.0000000000000000e+00
1564:0.0000000000000000e+00
1565:0.0000000000000000e+00
1566:0.0000000000000000e+00
1567:0.0000000000000000e+00
1568:0.0000000000000000e+00
1569:0.0000000000000000e+00
1570:0.0000000000000000e+00
1571:0.0000000000000000e+00
1572:0.0000000000000000e+00
1573:0.0000000000000000e+00
1574:0.0000000000000000e+00
1575:0.0000000000000000e+00
1576:0.0000000000000000e+00
1577:0.0000000000000000e+00
1578:0.0000000000000000e+00
1579:0.0000000000000000e+00
1580:0.0000000000000000e+00
1581:0.0000000000000000e+00
1582:0.0000000000000000e+00
1583:0.0000000000000000e+00
1584:0.0000000000000000e+00
1585:0.0000000000000000e+00
1586:0.0000000000000000e+00
1587:0.0000000000000000e+00
1588:0.0000000000000000e+00
1589:0.0000000000000000e+00
1590:0.0000000000000000e+00
1591:0.0000000000000000e+00
1592:0.0000000000000000e+00
1593:0.0000000000000000e+00
1594:0.0000000000000000e+00
1595:0.0000000000000000e+00
1596:0.0000000000000000e+00
1597:0.0000000000000000e+00
1598:0.0000000000000000e+00
1599:0.0000000000000000e+00
1600:0.0000000000000000e+00
1601:0.0000000000000000e+00
1602:0.0000000000000000e+00
1603:0.0000000000000000e+00
1604:0.0000000000000000e+00
1605:0.0000000000000000e+00
1606:0.0000000000000000e+00
1607:0.0000000000000000e+00
1608:0.0000000000000000e+00
1609:0.0000000000000000e+00
1610:0.0000000000000000e+00
1611:0.0000000000000000e+00
1612:0.0000000000000000e+00
1613:0.0000000000000000e+00
1614:0.0000000000000000e+00
1615:0.0000000000000000e+00
1616:0.0000000000000000e+00
1617:0.0000000000000000e+00
1618:0.0000000000000000e+00
1619:0.0000000000000000e+00
1620:0.0000000000000000e+00
1621:0.0000000000000000e+00
1622:0.0000000000000000e+00
1623:0.0000000000000000e+00
1624:0.0000000000000000e+00
1625:0.0000000000000000e+00
1626:0.0000000000000000e+00
1627:0.0000000000000000e+00
1628:0.0000000000000000e+00
1629:0.0000000000000000e+00
1630:0.0000000000000000e+00
1631:0.0000000000000000e+00
1632:0.0000000000000000e+00
1633:0.0000000000000000e+00
1634:0.0000000000000000e+00
1635:0.0000000000000000e+00
1636:0.0000000000000000e+00
1637:0.0000000000000000e+00
1638:0.0000000000000000e+00
1639:0.0000000000000000e+00
1640:0.0000000000000000e+00
1641:0.0000000000000000e+00
1642:0.0000000000000000e+00
1643:0.0000000000000000e+00
1644:0.0000000000000000e+00
1645:0.0000000000000000e+00
1646:0.0000000000000000e+00
1647:0.0000000000000000e+00
1648:0.0000000000000000e+00
1649:0.0000000000000000e+00
1650:0.0000000000000000e+00
1651:0.0000000000000000e+00
1652:0.0000000000000000e+00
1653:0.0000000000000000e+00
1654:0.0000000000000000e+00
1655:0.0000000000000000e+00
1656:0.0000000000000000e+00
1657:0.0000000000000000e+00
1658:0.0000000000000000e+00
1659:0.0000000000000000e+00
1660:0.0000000000000000e+00
1661:0.0000000000000000e+00
1662:0.0000000000000000e+00
1663:0.0000000000000000e+00
1664:0.0000000000000000e+00
1665:0.0000000000000000e+00
1666:0.0000000000000000e+00
1667:0.0000000000000000e+00
1668:0.0000000000000000e+00
1669:0.0000000000000000e+00
1670:0.0000000000000000e+00
1671:0.0000000000000000e+00
1672:0.0000000000000000e+00
1673:0.0000000000000000e+00
1674:0.0000000000000000e+00
1675:0.0000000000000000e+00
1676:0.0000000000000000e+00
1677:0.0000000000000000e+00
1678:0.0000000000000000e+00
1679:0.0000000000000000e+00
1680:0.0000000000000000e+00
1681:0.0000000000000000e+00
1682:0.0000000000000000e+00
1683:0.0000000000000000e+00
1684:0.0000000000000000e+00
1685:0.0000000000000000e+00
1686:0.0000000000000000e+00
1687:0.0000000000000000e+00
1688:0.0000000000000000e+00
1689:0.0000000000000000e+00
1690:0.0000000000000000e+00
1691:0.0000000000000000e+00
1692:0.0000000000000000e+00
1693:0.0000000000000000e+00
1694:0.0000000000000000e+00
1695:0.0000000000000000e+00
1696:0.0000000000000000e+00
1697:0.0000000000000000e+00
1698:0.0000000000000000e+00
1699:0.0000000000000000e+00
1700:0.0000000000000000e+00
1701:0.0000000000000000e+00
1702:0.0000000000000000e+00
1703:0.0000000000000000e+00
1704:0.0000000000000000e+00
1705:0.0000000000000000e+00
1706:0.0000000000000000e+00
1707:0.0000000000000000e+00
1708:0.0000000000000000e+00
1709:0.0000000000000000e+00
1710:0.0000000000000000e+00
1711:0.0000000000000000e+00
1712:0.0000000000000000e+00
1713:0.0000000000000000e+00
1714:0.0000000000000000e+00
1715:0.0000000000000000e+00
1716:0.0000000000000000e+00
1717:0.0000000000000000e+00
1718:0.0000000000000000e+00
1719:0.0000000000000000e+00
1720:0.0000000000000000e+00
1721:0.0000000000000000e+00
1722:0.0000000000000000e+00
1723:0.0000000000000000e+00
1724:0.0000000000000000e+00
1725:0.0000000000000000e+00
1726:0.0000000000000000e+00
1727:0.0000000000000000e+00
1728:0.0000000000000000e+00
1729:0.0000000000000000e+00
1730:0.0000000000000000e+00
1731:0.0000000000000000e+00
1732:0.0000000000000000e+00
1733:0.0000000000000000e+00
1734:0.0000000000000000e+00
1735:0.0000000000000000e+00
1736:0.0000000000000000e+00
1737:0.0000000000000000e+00
1738:0.0000000000000000e+00
1739:0.0000000000000000e+00
1740:0.0000000000000000e+00
1741:0.0000000000000000e+00
1742:0.0000000000000000e+00
1743:0.0000000000000000e+00
1744:0.0000000000000000e+00
1745:0.0000000000000000e+00
1746:0.0000000000000000e+00
1747:0.0000000000000000e+00
1748:0.0000000000000000e+00
1749:0.0000000000000000e+00
1750:0.0000000000000000e+00
1751:0.0000000000000000e+00
1752:0.0000000000000000e+00
1753:0.0000000000000000e+00
1754:0.0000000000000000e+00
1755:0.0000000000000000e+00
1756:0.0000000000000000e+00
1757:0.0000000000000000e+00
1758:0.0000000000000000e+00
1759:0.0000000000000000e+00
1760:0.0000000000000000e+00
1761:0.0000000000000000e+00
1762:0.0000000000000000e+00
1763:0.0000000000000000e+00
1764:0.0000000000000000e+00
1765:0.0000000000000000e+00
1766:0.0000000000000000e+00
1767:0.0000000000000000e+00
1768:0.0000000000000000e+00
1769:0.0000000000000000e+00
1770:0.0000000000000000e+00
1771:0.0000000000000000e+00
1772:0.0000000000000000e+00
1773:0.0000000000000000e+00
1774:0.0000000000000000e+00
1775:0.0000000000000000e+00
1776:0.0000000000000000e+00
1777:0.0000000000000000e+00
1778:0.0000000000000000e+00
1779:0.0000000000000000e+00
1780:0.0000000000000000e+00
1781:0.0000000000000000e+00
1782:0.0000000000000000e+00
1783:0.0000000000000000e+00
1784:0.0000000000000000e+00
1785:0.0000000000000000e+00
1786:0.0000000000000000e+00
1787:0.0000000000000000e+00
1788:0.0000000000000000e+00
1789:0.0000000000000000e+00
1790:0.0000000000000000e+00
1791:0.0000000000000000e+00
1792:0.0000000000000000e+00
1793:0.0000000000000000e+00
1794:0.0000000000000000e+00
1795:0.0000000000000000e+00
1796:0.0000000000000000e+00
1797:0.0000000000000000e+00
1798:0.0000000000000000e+00
1799:0.0000000000000000e+00
1800:0.0000000000000000e+00
1801:0.0000000000000000e+00
1802:0.0000000000000000e+00
1803:0.0000000000000000e+00
1804:0.0000000000000000e+00
1805:0.0000000000000000e+00
1806:0.0000000000000000e+00
1807:0.0000000000000000e+00
1808:0.0000000000000000e+00
1809:0.0000000000000000e+00
1810:0.0000000000000000e+00
1811:0.0000000000000000e+00
1812:0.0000000000000000e+00
1813:0.0000000000000000e+00
1814:0.0000000000000000e+00
1815:0.0000000000000000e+00
1816:0.0000000000000000e+00
1817:0.0000000000000000e+00
1818:0.0000000000000000e+00
1819:0.0000000000000000e+00
1820:0.0000000000000000e+00
1821:0.0000000000000000e+00
1822:0.0000000000000000e+00
1823:0.0000000000000000e+00
1824:0.0000000000000000e+00
1825:0.0000000000000000e+00
1826:0.0000000000000000e+00
1827:0.0000000000000000e+00
1828:0.0000000000000000e+00
1829:0.0000000000000000e+00
1830:0.0000000000000000e+00
1831:0.0000000000000000e+00
1832:0.0000000000000000e+00
1833:0.0000000000000000e+00
1834:0.0000000000000000e+00
1835:0.0000000000000000e+00
1836:0.0000000000000000e+00
1837:0.0000000000000000e+00
1838:0.0000000000000000e+00
1839:0.0000000000000000e+00
1840:0.0000000000000000e+00
1841:0.0000000000000000e+00
1842:0.0000000000000000e+00
1843:0.0000000000000000e+00
1844:0.0000000000000000e+00
1845:0.0000000000000000e+00
1846:0.0000000000000000e+00
1847:0.0000000000000000e+00
1848:0.0000000000000000e+00
1849:0.0000000000000000e+00
1850:0.0000000000000000e+00
1851:0.0000000000000000e+00
1852:0.0000000000000000e+00
1853:0.0000000000000000e+00
1854:0.0000000000000000e+00
1855:0.0000000000000000e+00
1856:0.0000000000000000e+00
1857:0.0000000000000000e+00
1858:0.0000000000000000e+00
1859:0.0000000000000000e+00
1860:0.0000000000000000e+00
1861:0.0000000000000000e+00
1862:0.0000000000000000e+00
1863:0.0000000000000000e+00
1864:0.0000000000000000e+00
1865:0.0000000000000000e+00
1866:0.0000000000000000e+00
1867:0.0000000000000000e+00
1868:0.0000000000000000e+00
1869:0.0000000000000000e+00
1870:0.0000000000000000e+00
1871:0.0000000000000000e+00
1872:0.0000000000000000e+00
1873:0.0000000000000000e+00
1874:0.0000000000000000e+00
1875:0.0000000000000000e+00
1876:0.0000000000000000e+00
1877:0.0000000000000000e+00
1878:0.0000000000000000e+00
1879:0.0000000000000000e+00
1880:0.0000000000000000e+00
1881:0.0000000000000000e+00
1882:0.0000000000000000e+00
1883:0.0000000000000000e+00
1884:0.0000000000000000e+00
1885:0.0000000000000000e+00
1886:0.0000000000000000e+00
1887:0.0000000000000000e+00
1888:0.0000000000000000e+00
1889:0.0000000000000000e+00
1890:0.0000000000000000e+00
1891:0.0000000000000000e+00
1892:0.0000000000000000e+00
1893:0.0000000000000000e+00
1894:0.0000000000000000e+00
1895:0.0000000000000000e+00
1896:0.0000000000000000e+00
1897:0.0000000000000000e+00
1898:0.0000000000000000e+00
1899:0.0000000000000000e+00
1900:0.0000000000000000e+00
1901:0.0000000000000000e+00
1902:0.0000000000000000e+00
1903:0.0000000000000000e+00
1904:0.0000000000000000e+00
1905:0.0000000000000000e+00
1906:0.0000000000000000e+00
1907:0.0000000000000000e+00
1908:0.0000000000000000e+00
1909:0.0000000000000000e+00
1910:0.0000000000000000e+00
1911:0.0000000000000000e+00
1912:0.0000000000000000e+00
1913:0.0000000000000000e+00
1914:0.0000000000000000e+00
1915:0.0000000000000000e+00
1916:0.0000000000000000e+00
1917:0.0000000000000000e+00
1918:0.0000000000000000e+00
1919:0.0000000000000000e+00
1920:0.0000000000000000e+00
1921:0.0000000000000000e+00
1922:0.0000000000000000e+00
1923:0.0000000000000000e+00
1924:0.0000000000000000e+00
1925:0.0000000000000000e+00
1926:0.0000000000000000e+00
1927:0.0000000000000000e+00
1928:0.0000000000000000e+00
1929:0.0000000000000000e+00
1930:0.0000000000000000e+00
1931:0.0000000000000000e+00
1932:0.0000000000000000e+00
1933:0.0000000000000000e+00
1934:0.0000000000000000e+00
1935:0.0000000000000000e+00
1936:0.0000000000000000e+00
1937:0.0000000000000000e+00
1938:0.0000000000000000e+00
1939:0.0000000000000000e+00
1940:0.0000000000000000e+00
1941:0.0000000000000000e+00
1942:0.0000000000000000e+00
1943:0.0000000000000000e+00
1944:0.0000000000000000e+00
1945:0.0000000000000000e+00
1946:0.0000000000000000e+00
1947:0.0000000000000000e+00
1948:0.0000000000000000e+00
1949:0.0000000000000000e+00
1950:0.0000000000000000e+00
1951:0.0000000000000000e+00
1952:0.0000000000000000e+00
1953:0.0000000000000000e+00
1954:0.0000000000000000e+00
1955:0.0000000000000000e+00
1956:0.0000000000000000e+00
1957:0.0000000000000000e+00
1958:0.0000000000000000e+00
1959:0.0000000000000000e+00
1960:0.0000000000000000e+00
1961:0.0000000000000000e+00
1962:0.0000000000000000e+00
1963:0.0000000000000000e+00
1964:0.0000000000000000e+00
1965:0.0000000000000000e+00
1966:0.0000000000000000e+00
1967:0.0000000000000000e+00
1968:0.0000000000000000e+00
1969:0.0000000000000000e+00
1970:0.0000000000000000e+00
1971:0.0000000000000000e+00
1972:0.0000000000000000e+00
1973:0.0000000000000000e+00
1974:0.0000000000000000e+00
1975:0.0000000000000000e+00
1976:0.0000000000000000e+00
1977:0.0000000000000000e+00
1978:0.0000000000000000e+00
1979:0.0000000000000000e+00
1980:0.0000000000000000e+00
1981:0.0000000000000000e+00
1982:0.0000000000000000e+00
1983:0.0000000000000000e+00
1984:0.0000000000000000e+00
1985:0.0000000000000000e+00
1986:0.0000000000000000e+00
1987:0.0000000000000000e+00
1988:0.0000000000000000e+00
1989:0.0000000000000000e+00
1990:0.0000000000000000e+00
1991:0.0000000000000000e+00
1992:0.0000000000000000e+00
1993:0.0000000000000000e+00
1994:0.0000000000000000e+00
1995:0.0000000000000000e+00
1996:0.0000000000000000e+00
1997:0.0000000000000000e+00
1998:0.0000000000000000e+00
1999:0.0000000000000000e+00
2000:0.0000000000000000e+00
2001:0.0000000000000000e+00
2002:0.0000000000000000e+00
2003:0.0000000000000000e+00
2004:0.0000000000000000e+00
2005:0.0000000000000000e+00
2006:0.0000000000000000e+00
2007:0.0000000000000000e+00
2008:0.0000000000000000e+00
2009:0.0000000000000000e+00
2010:0.0000000000000000e+00
2011:0.0000000000000000e+00
2012:0.0000000000000000e+00
2013:0.0000000000000000e+00
2014:0.0000000000000000e+00
2015:0.0000000000000000e+00
2016:0.0000000000000000e+00
2017:0.0000000000000000e+00
2018:0.0000000000000000e+00
2019:0.0000000000000000e+00
2020:0.0000000000000000e+00
2021:0.0000000000000000e+00
2022:0.0000000000000000e+00
2023:0.0000000000000000e+00
2024:0.0000000000000000e+00
2025:0.0000000000000000e+00
2026:0.0000000000000000e+00
2027:0.0000000000000000e+00
2028:0.0000000000000000e+00
2029:0.0000000000000000e+00
2030:0.0000000000000000e+00
2031:0.0000000000000000e+00
2032:0.0000000000000000e+00
2033:0.0000000000000000e+00
2034:0.0000000000000000e+00
2035:0.0000000000000000e+00
2036:0.0000000000000000e+00
2037:0.0000000000000000e+00
2038:0.0000000000000000e+00
2039:0.0000000000000000e+00
2040:0.0000000000000000e+00
2041:0.0000000000000000e+00
2042:0.0000000000000000e+00
2043:0.0000000000000000e+00
2044:0.0000000000000000e+00
2045:0.0000000000000000e+00
2046:0.0000000000000000e+00
2047:0.0000000000000000e+00
2048:0.0000000000000000e+00
2049:0.0000000000000000e+00
2050:0.0000000000000000e+00
2051:0.0000000000000000e+00
2052:0.0000000000000000e+00
2053:0.0000000000000000e+00
2054:0.0000000000000000e+00
2055:0.0000000000000000e+00
2056:0.0000000000000000e+00
2057:0.0000000000000000e+00
2058:0.0000000000000000e+00
2059:0.0000000000000000e+00
2060:0.0000000000000000e+00
2061:0.0000000000000000e+00
2062:0.0000000000000000e+00
2063:0.0000000000000000e+00
2064:0.0000000000000000e+00
2065:0.0000000000000000e+00
2066:0.0000000000000000e+00
2067:0.0000000000000000e+00
2068:0.0000000000000000e+00
2069:0.0000000000000000e+00
2070:0.0000000000000000e+00
2071:0.0000000000000000e+00
2072:0.0000000000000000e+00
2073:0.0000000000000000e+00
2074:0.0000000000000000e+00
2075:0.0000000000000000e+00
2076:0.0000000000000000e+00
2077:0.0000000000000000e+00
2078:0.0000000000000000e+00
2079:0.0000000000000000e+00
2080:0.0000000000000000e+00
2081:0.0000000000000000e+00
2082:0.0000000000000000e+00
2083:0.0000000000000000e+00
2084:0.0000000000000000e+00
2085:0.0000000000000000e+00
2086:0.0000000000000000e+00
2087:0.0000000000000000e+00
2088:0.0000000000000000e+00
2089:0.0000000000000000e+00
2090:0.0000000000000000e+00
2091:0.0000000000000000e+00
2092:0.0000000000000000e+00
2093:0.0000000000000000e+00
2094:0.0000000000000000e+00
2095:0.0000000000000000e+00
2096:0.0000000000000000e+00
2097:0.0000000000000000e+00
2098:0.0000000000000000e+00
2099:0.0000000000000000e+00
2100:0.0000000000000000e+00
2101:0.0000000000000000e+00
2102:0.0000000000000000e+00
2103:0.0000000000000000e+00
2104:0.0000000000000000e+00
2105:0.0000000000000000e+00
2106:0.0000000000000000e+00
2107:0.0000000000000000e+00
2108:0.0000000000000000e+00
2109:0.0000000000000000e+00
2110:0.0000000000000000e+00
2111:0.0000000000000000e+00
2112:0.0000000000000000e+00
2113:0.0000000000000000e+00
2114:0.0000000000000000e+00
2115:0.0000000000000000e+00
2116:0.0000000000000000e+00
2117:0.0000000000000000e+00
2118:0.0000000000000000e+00
2119:0.0000000000000000e+00
2120:0.0000000000000000e+00
2121:0.0000000000000000e+00
2122:0.0000000000000000e+00
2123:0.0000000000000000e+00
2124:0.0000000000000000e+00
2125:0.0000000000000000e+00
2126:0.0000000000000000e+00
2127:0.0000000000000000e+00
2128:0.0000000000000000e+00
2129:0.0000000000000000e+00
2130:0.0000000000000000e+00
2131:0.0000000000000000e+00
2132:0.0000000000000000e+00
2133:0.0000000000000000e+00
2134:0.0000000000000000e+00
2135:0.0000000000000000e+00
2136:0.0000000000000000e+00
2137:0.0000000000000000e+00
2138:0.0000000000000000e+00
2139:0.0000000000000000e+00
2140:0.0000000000000000e+00
2141:0.0000000000000000e+00
2142:0.0000000000000000e+00
2143:0.0000000000000000e+00
2144:0.0000000000000000e+00
2145:0.0000000000000000e+00
2146:0.0000000000000000e+00
2147:0.0000000000000000e+00
2148:0.0000000000000000e+00
2149:0.0000000000000000e+00
2150:0.0000000000000000e+00
2151:0.0000000000000000e+00
2152:0.0000000000000000e+00
2153:0.0000000000000000e+00
2154:0.0000000000000000e+00
2155:0.0000000000000000e+00
2156:0.0000000000000000e+00
2157:0.0000000000000000e+00
2158:0.0000000000000000e+00
2159:0.0000000000000000e+00
2160:0.0000000000000000e+00
2161:0.0000000000000000e+00
2162:0.0000000000000000e+00
2163:0.0000000000000000e+00
2164:0.0000000000000000e+00
2165:0.0000000000000000e+00
2166:0.0000000000000000e+00
2167:0.0000000000000000e+00
2168:0.0000000000000000e+00
2169:0.0000000000000000e+00
2170:0.0000000000000000e+00
2171:0.0000000000000000e+00
2172:0.0000000000000000e+00
2173:0.0000000000000000e+00
2174:0.0000000000000000e+00
2175:0.0000000000000000e+00
2176:0.0000000000000000e+00
2177:0.0000000000000000e+00
2178:0.0000000000000000e+00
2179:0.0000000000000000e+00
2180:0.0000000000000000e+00
2181:0.0000000000000000e+00
2182:0.0000000000000000e+00
2183:0.0000000000000000e+00
2184:0.0000000000000000e+00
2185:0.0000000000000000e+00
2186:0.0000000000000000e+00
2187:0.0000000000000000e+00
2188:0.0000000000000000e+00
2189:0.0000000000000000e+00
2190:0.0000000000000000e+00
2191:0.0000000000000000e+00
2192:0.0000000000000000e+00
2193:0.0000000000000000e+00
2194:0.0000000000000000e+00
2195:0.0000000000000000e+00
2196:0.0000000000000000e+00
2197:0.0000000000000000e+00
2198:0.0000000000000000e+00
2199:0.0000000000000000e+00
2200:0.0000000000000000e+00
2201:0.0000000000000000e+00
2202:0.0000000000000000e+00
2203:0.0000000000000000e+00
2204:0.0000000000000000e+00
2205:0.0000000000000000e+00
2206:0.0000000000000000e+00
2207:0.0000000000000000e+00
2208:0.0000000000000000e+00
2209:0.0000000000000000e+00
2210:0.0000000000000000e+00
2211:0.0000000000000000e+00
2212:0.0000000000000000e+00
2213:0.0000000000000000e+00
2214:0.0000000000000000e+00
2215:0.0000000000000000e+00
2216:0.0000000000000000e+00
2217:0.0000000000000000e+00
2218:0.0000000000000000e+00
2219:0.0000000000000000e+00
2220:0.0000000000000000e+00
2221:0.0000000000000000e+00
2222:0.0000000000000000e+00
2223:0.0000000000000000e+00
2224:0.0000000000000000e+00
2225:0.0000000000000000e+00
2226:0.0000000000000000e+00
2227:0.0000000000000000e+00
2228:0.0000000000000000e+00
2229:0.0000000000000000e+00
2230:0.0000000000000000e+00
2231:0.0000000000000000e+00
2232:0.0000000000000000e+00
2233:0.0000000000000000e+00
2234:0.0000000000000000e+00
2235:0.0000000000000000e+00
2236:0.0000000000000000e+00
2237:0.0000000000000000e+00
2238:0.0000000000000000e+00
2239:0.0000000000000000e+00
2240:0.0000000000000000e+00
2241:0.0000000000000000e+00
2242:0.0000000000000000e+00
2243:0.0000000000000000e+00
2244:0.0000000000000000e+00
2245:0.0000000000000000e+00
2246:0.0000000000000000e+00
2247:0.0000000000000000e+00
2248:0.0000000000000000e+00
2249:0.0000000000000000e+00
2250:0.0000000000000000e+00
2251:0.0000000000000000e+00
2252:0.0000000000000000e+00
2253:0.0000000000000000e+00
2254:0.0000000000000000e+00
2255:0.0000000000000000e+00
2256:0.0000000000000000e+00
2257:0.0000000000000000e+00
2258:0.0000000000000000e+00
2259:0.0000000000000000e+00
2260:0.0000000000000000e+00
2261:0.0000000000000000e+00
2262:0.0000000000000000e+00
2263:0.0000000000000000e+00
2264:0.0000000000000000e+00
2265:0.0000000000000000e+00
2266:0.0000000000000000e+00
2267:0.0000000000000000e+00
2268:0.0000000000000000e+00
2269:0.0000000000000000e+00
2270:0.0000000000000000e+00
2271:0.0000000000000000e+00
2272:0.0000000000000000e+00
2273:0.0000000000000000e+00
2274:0.0000000000000000e+00
2275:0.0000000000000000e+00
2276:0.0000000000000000e+00
2277:0.0000000000000000e+00
2278:0.0000000000000000e+00
2279:0.0000000000000000e+00
2280:0.0000000000000000e+00
2281:0.0000000000000000e+00
2282:0.0000000000000000e+00
2283:0.0000000000000000e+00
2284:0.0000000000000000e+00
2285:0.0000000000000000e+00
2286:0.0000000000000000e+00
2287:0.0000000000000000e+00
2288:0.0000000000000000e+00
2289:0.0000000000000000e+00
2290:0.0000000000000000e+00
2291:0.0000000000000000e+00
2292:0.0000000000000000e+00
2293:0.0000000000000000e+00
2294:0.0000000000000000e+00
2295:0.0000000000000000e+00
2296:0.0000000000000000e+00
2297:0.0000000000000000e+00
2298:0.0000000000000000e+00
2299:0.0000000000000000e+00
2300:0.0000000000000000e+00
2301:0.0000000000000000e+00
2302:0.0000000000000000e+00
2303:0.0000000000000000e+00
2304:0.0000000000000000e+00
2305:0.0000000000000000e+00
2306:0.0000000000000000e+00
2307:0.0000000000000000e+00
2308:0.0000000000000000e+00
2309:0.0000000000000000e+00
2310:0.0000000000000000e+00
2311:0.0000000000000000e+00
2312:0.0000000000000000e+00
2313:0.0000000000000000e+00
2314:0.0000000000000000e+00
2315:0.0000000000000000e+00
2316:0.0000000000000000e+00
2317:0.0000000000000000e+00
2318:0.0000000000000000e+00
2319:0.0000000000000000e+00
2320:0.0000000000000000e+00
2321:0.0000000000000000e+00
2322:0.0000000000000000e+00
2323:0.0000000000000000e+00
2324:0.0000000000000000e+00
2325:0.0000000000000000e+00
2326:0.0000000000000000e+00
2327:0.0000000000000000e+00
2328:0.0000000000000000e+00
2329:0.0000000000000000e+00
2330:0.0000000000000000e+00
2331:0.0000000000000000e+00
2332:0.0000000000000000e+00
2333:0.0000000000000000e+00
2334:0.0000000000000000e+00
2335:0.0000000000000000e+00
2336:0.0000000000000000e+00
2337:0.0000000000000000e+00
2338:0.0000000000000000e+00
2339:0.0000000000000000e+00
2340:0.0000000000000000e+00
2341:0.0000000000000000e+00
2342:0.0000000000000000e+00
2343:0.0000000000000000e+00
2344:0.0000000000000000e+00
2345:0.0000000000000000e+00
2346:0.0000000000000000e+00
2347:0.0000000000000000e+00
2348:0.0000000000000000e+00
2349:0.0000000000000000e+00
2350:0.0000000000000000e+00
2351:0.0000000000000000e+00
2352:0.0000000000000000e+00
2353:0.0000000000000000e+00
2354:0.0000000000000000e+00
2355:0.0000000000000000e+00
2356:0.0000000000000000e+00
2357:0.0000000000000000e+00
2358:0.0000000000000000e+00
2359:0.0000000000000000e+00
2360:0.0000000000000000e+00
2361:0.0000000000000000e+00
2362:0.0000000000000000e+00
2363:0.0000000000000000e+00
2364:0.0000000000000000e+00
2365:0.0000000000000000e+00
2366:0.0000000000000000e+00
2367:0.0000000000000000e+00
2368:0.0000000000000000e+00
2369:0.0000000000000000e+00
2370:0.0000000000000000e+00
2371:0.0000000000000000e+00
2372:0.0000000000000000e+00
2373:0.0000000000000000e+00
2374:0.0000000000000000e+00
2375:0.0000000000000000e+00
2376:0.0000000000000000e+00
2377:0.0000000000000000e+00
2378:0.0000000000000000e+00
2379:0.0000000000000000e+00
2380:0.0000000000000000e+00
2381:0.0000000000000000e+00
2382:0.0000000000000000e+00
2383:0.0000000000000000e+00
2384:0.0000000000000000e+00
2385:0.0000000000000000e+00
2386:0.0000000000000000e+00
2387:0.0000000000000000e+00
2388:0.0000000000000000e+00
2389:0.0000000000000000e+00
2390:0.0000000000000000e+00
2391:0.0000000000000000e+00
2392:0.0000000000000000e+00
2393:0.0000000000000000e+00
2394:0.0000000000000000e+00
2395:0.0000000000000000e+00
2396:0.0000000000000000e+00
2397:0.0000000000000000e+00
2398:0.0000000000000000e+00
2399:0.0000000000000000e+00
2400:0.0000000000000000e+00
2401:0.0000000000000000e+00
2402:0.0000000000000000e+00
2403:0.0000000000000000e+00
2404:0.0000000000000000e+00
2405:0.0000000000000000e+00
2406:0.0000000000000000e+00
2407:0.0000000000000000e+00
2408:0.0000000000000000e+00
2409:0.0000000000000000e+00
2410:0.0000000000000000e+00
2411:0.0000000000000000e+00
2412:0.0000000000000000e+00
2413:0.0000000000000000e+00
2414:0.0000000000000000e+00
2415:0.0000000000000000e+00
2416:0.0000000000000000e+00
2417:0.0000000000000000e+00
2418:0.0000000000000000e+00
2419:0.0000000000000000e+00
2420:0.0000000000000000e+00
2421:0.0000000000000000e+00
2422:0.0000000000000000e+00
2423:0.0000000000000000e+00
2424:0.0000000000000000e+00
2425:0.0000000000000000e+00
2426:0.0000000000000000e+00
2427:0.0000000000000000e+00
2428:0.0000000000000000e+00
2429:0.0000000000000000e+00
2430:0.0000000000000000e+00
2431:0.0000000000000000e+00
2432:0.0000000000000000e+00
2433:0.0000000000000000e+00
2434:0.0000000000000000e+00
2435:0.0000000000000000e+00
2436:0.0000000000000000e+00
2437:0.0000000000000000e+00
2438:0.0000000000000000e+00
2439:0.0000000000000000e+00
2440:0.0000000000000000e+00
2441:0.0000000000000000e+00
2442:0.0000000000000000e+00
2443:0.0000000000000000e+00
2444:0.0000000000000000e+00
2445:0.0000000000000000e+00
2446:0.0000000000000000e+00
2447:0.0000000000000000e+00
2448:0.0000000000000000e+00
2449:0.0000000000000000e+00
