x	y	stress_yy
 1.000000000000000e+00	 0.000000000000000e+00	 2.857622079265389e+01
 9.998426119581704e-01	 1.774123198744521e-02	 2.858182771975711e+01
 9.993659466402713e-01	 3.560484089073321e-02	 2.853643112164099e+01
 9.985633751090949e-01	 5.358344789747921e-02	 2.843960585568732e+01
 9.974284469032259e-01	 7.166933308134273e-02	 2.829099779457219e+01
 9.959549086084808e-01	 8.985443791194039e-02	 2.809032412654648e+01
 9.941367226520526e-01	 1.081303688402291e-01	 2.783737334192150e+01
 9.919680862544972e-01	 1.264884019976692e-01	 2.753200491000369e+01
 9.894434504702301e-01	 1.449194890435835e-01	 2.717414865461104e+01
 9.865575392429453e-01	 1.634142641907508e-01	 2.676380384026356e+01
 9.833053683983746e-01	 1.819630524344169e-01	 2.630103798512386e+01
 1.006250000000000e+00	 0.000000000000000e+00	 2.812649553032770e+01
 1.006091628282923e+00	 1.785211468644953e-02	 2.814033927722476e+01
 1.005611983806831e+00	 3.582737114460879e-02	 2.810368747561838e+01
 1.004804396203657e+00	 5.391834444451910e-02	 2.801607362172845e+01
 1.003662374696605e+00	 7.211726641030378e-02	 2.787709937674880e+01
 1.002179626787651e+00	 9.041602814576799e-02	 2.768643485511578e+01
 1.000350077169160e+00	 1.088061836421904e-01	 2.744381861142320e+01
 9.981678867943173e-01	 1.272789545068561e-01	 2.714905733128129e+01
 9.956274720366283e-01	 1.458252358469619e-01	 2.680202523529194e+01
 9.927235238644350e-01	 1.644356033391194e-01	 2.640266320925041e+01
 9.894510269523811e-01	 1.831003215097977e-01	 2.595097767762556e+01
 1.012500000000000e+00	 0.000000000000000e+00	 2.769488999237154e+01
 1.012340644607676e+00	 1.796299738563339e-02	 2.771653804468446e+01
 1.011858020973390e+00	 3.604990139881666e-02	 2.768819751052602e+01
 1.011045417298220e+00	 5.425324099201662e-02	 2.760936134376143e+01
 1.009896302489984e+00	 7.256519973981979e-02	 2.747958783232293e+01
 1.008404344966822e+00	 9.097761838021910e-02	 2.729850087168785e+01
 1.006563431686269e+00	 1.094819984448144e-01	 2.706578994923161e+01
 1.004367687334138e+00	 1.280695070167151e-01	 2.678120984581758e+01
 1.001811493603026e+00	 1.467309826509912e-01	 2.644458006484875e+01
 9.988895084859244e-01	 1.654569424880867e-01	 2.605578400292409e+01
 9.955966855063876e-01	 1.842375905856931e-01	 2.561476788014632e+01
 1.018750000000000e+00	 0.000000000000000e+00	 2.728110535796857e+01
 1.018589660932429e+00	 1.807388008499677e-02	 2.731013096886177e+01
 1.018104058139949e+00	 3.627243165335684e-02	 2.728967401616279e+01
 1.017286438392782e+00	 5.458813753997182e-02	 2.721918772399033e+01
 1.016130230283362e+00	 7.301313306989071e-02	 2.709818783862687e+01
 1.014629063145992e+00	 9.153920861529373e-02	 2.692625288442472e+01
 1.012776786203376e+00	 1.101578132481012e-01	 2.670302414260535e+01
 1.010567487873958e+00	 1.288600595272462e-01	 2.642820536038826e+01
 1.007995515169424e+00	 1.476367294556714e-01	 2.610156220173989e+01
 1.005055493107414e+00	 1.664782816376525e-01	 2.572292145493296e+01
 1.001742344060394e+00	 1.853748596621032e-01	 2.529217001597627e+01
 1.025000000000000e+00	 0.000000000000000e+00	 2.688485009461349e+01
 1.024838677257182e+00	 1.818476278453967e-02	 2.692083211474361e+01
 1.024350095306509e+00	 3.649496190822931e-02	 2.690783672920722e+01
 1.023527459487344e+00	 5.492303408838464e-02	 2.684527823901934e+01
 1.022364158076741e+00	 7.346106640051656e-02	 2.673263067405871e+01
 1.020853781325163e+00	 9.210079885099187e-02	 2.656942802861822e+01
 1.018990140720484e+00	 1.108336280520508e-01	 2.635526423165848e+01
 1.016767288413778e+00	 1.296506120384494e-01	 2.608979286028351e+01
 1.014179536735822e+00	 1.485424762610025e-01	 2.577272660881059e+01
 1.011221477728904e+00	 1.674996207878169e-01	 2.540383652968569e+01
 1.007888002614401e+00	 1.865121287390279e-01	 2.498295106633611e+01
 1.031250000000000e+00	 0.000000000000000e+00	 2.650583973725468e+01
 1.031087693581935e+00	 1.829564548426209e-02	 2.654836244987332e+01
 1.030596132473068e+00	 3.671749216343408e-02	 2.654241212270609e+01
 1.029768480581907e+00	 5.525793063725515e-02	 2.648736493456773e+01
 1.028598085870120e+00	 7.390899973169740e-02	 2.638265401804962e+01
 1.027078499504333e+00	 9.266238908731353e-02	 2.622776967192866e+01
 1.025203495237593e+00	 1.115094428566631e-01	 2.602225931988028e+01
 1.022967088953599e+00	 1.304411645503246e-01	 2.576572722511061e+01
 1.020363558302220e+00	 1.494482230669844e-01	 2.545783397437211e+01
 1.017387462350393e+00	 1.685209599385800e-01	 2.509829574869199e+01
 1.014033661168407e+00	 1.876493978164674e-01	 2.468688340195516e+01
 1.037500000000000e+00	 0.000000000000000e+00	 2.614379667541906e+01
 1.037336709906687e+00	 1.840652818416404e-02	 2.619244963644243e+01
 1.036842169639627e+00	 3.694002241897115e-02	 2.619313320317181e+01
 1.036009501676469e+00	 5.559282718658328e-02	 2.614518622760494e+01
 1.034832013663499e+00	 7.435693306343316e-02	 2.604800175826198e+01
 1.033303217683504e+00	 9.322397932425873e-02	 2.590102722666271e+01
 1.031416849754700e+00	 1.121852576619383e-01	 2.570376439150339e+01
 1.029166889493419e+00	 1.312317170628720e-01	 2.545576905125428e+01
 1.026547579868618e+00	 1.503539698736173e-01	 2.515665053974765e+01
 1.023553446971883e+00	 1.695422990899415e-01	 2.480607102317991e+01
 1.020179319722414e+00	 1.887866668944215e-01	 2.440374462073654e+01
 1.043750000000000e+00	 0.000000000000000e+00	 2.579844994798527e+01
 1.043585726231441e+00	 1.851741088424553e-02	 2.585282783085209e+01
 1.043088206806186e+00	 3.716255267484050e-02	 2.585973931496957e+01
 1.042250522771031e+00	 5.592772373636909e-02	 2.581848671559470e+01
 1.041065941456877e+00	 7.480486639572383e-02	 2.572842380471404e+01
 1.039527935862674e+00	 9.378556956182743e-02	 2.558895596879600e+01
 1.037630204271808e+00	 1.128610724678761e-01	 2.539954013543366e+01
 1.035366690033239e+00	 1.320222695760914e-01	 2.515968448071566e+01
 1.032731601435016e+00	 1.512597166809010e-01	 2.486894793301487e+01
 1.029719431593373e+00	 1.705636382419017e-01	 2.452693949272705e+01
 1.026324978276420e+00	 1.899239359728902e-01	 2.413331739125504e+01
 1.050000000000000e+00	 0.000000000000000e+00	 2.546953504528626e+01
 1.049834742556193e+00	 1.862829358450653e-02	 2.552923749043308e+01
 1.049334243972746e+00	 3.738508293104217e-02	 2.554197595169083e+01
 1.048491543865594e+00	 5.626262028661252e-02	 2.550701699255167e+01
 1.047299869250256e+00	 7.525279972856946e-02	 2.542367591054325e+01
 1.045752654041845e+00	 9.434715980001965e-02	 2.529131686345931e+01
 1.043843558788917e+00	 1.135368872744768e-01	 2.510935277546813e+01
 1.041566490573060e+00	 1.328128220899829e-01	 2.487724503606417e+01
 1.038915623001414e+00	 1.521654634888356e-01	 2.459450300868552e+01
 1.035885416214862e+00	 1.715849773944605e-01	 2.426068336965499e+01
 1.032470636830427e+00	 1.910612050518737e-01	 2.387538930184440e+01
 1.056250000000000e+00	 0.000000000000000e+00	 2.515679371823799e+01
 1.056083758880946e+00	 1.873917628494705e-02	 2.522142518702771e+01
 1.055580281139305e+00	 3.760761318757611e-02	 2.523959457422368e+01
 1.054732564960156e+00	 5.659751683731362e-02	 2.521053347162884e+01
 1.053533797043635e+00	 7.570073306197002e-02	 2.513351949913282e+01
 1.051977372221015e+00	 9.490875003883539e-02	 2.500787639662023e+01
 1.050056913306024e+00	 1.142127020817402e-01	 2.483297390654104e+01
 1.047766291112880e+00	 1.336033746045466e-01	 2.460822746124916e+01
 1.045099644567812e+00	 1.530712102974211e-01	 2.433309769307735e+01
 1.042051400836352e+00	 1.726063165476179e-01	 2.400708978894797e+01
 1.038616295384433e+00	 1.921984741313718e-01	 2.362975271504201e+01
 1.062500000000000e+00	 0.000000000000000e+00	 2.485997379420456e+01
 1.062332775205699e+00	 1.885005898556710e-02	 2.492914342715131e+01
 1.061826318305864e+00	 3.783014344444238e-02	 2.495235243524404e+01
 1.060973586054718e+00	 5.693241338847238e-02	 2.492879821396621e+01
 1.059767724837014e+00	 7.614866639592552e-02	 2.485772149733994e+01
 1.058202090400186e+00	 9.547034027827464e-02	 2.473840641270567e+01
 1.056270267823132e+00	 1.148885168896664e-01	 2.457018033674900e+01
 1.053966091652700e+00	 1.343939271197823e-01	 2.435241356802990e+01
 1.051283666134210e+00	 1.539769571066575e-01	 2.408451883514336e+01
 1.048217385457842e+00	 1.736276557013739e-01	 2.376595066346876e+01
 1.044761953938440e+00	 1.933357432113846e-01	 2.339620462717144e+01
 9.833053683983746e-01	 1.819630524344169e-01	 2.630103798512386e+01
 9.796822644935034e-01	 2.005558790047255e-01	 2.593866963906149e+01
 9.756838834365029e-01	 2.191824800562895e-01	 2.552050736808999e+01
 9.713062287906588e-01	 2.378323146029681e-01	 2.504663912582782e+01
 9.665456696731551e-01	 2.564945776994924e-01	 2.451722229237652e+01
 9.613989581557346e-01	 2.751582148638952e-01	 2.393248229368425e+01
 9.558632460744549e-01	 2.938119377279353e-01	 2.329271110297984e+01
 9.499361011546518e-01	 3.124442408950446e-01	 2.259826565718169e+01
 9.436155223571460e-01	 3.310434199775670e-01	 2.184956622264013e+01
 9.368999543523497e-01	 3.495975907771368e-01	 2.104709474545998e+01
 9.297883010302649e-01	 3.680947095640363e-01	 2.019139322192011e+01
 9.894510269523811e-01	 1.831003215097977e-01	 2.595097767762556e+01
 9.858052786483755e-01	 2.018093532467337e-01	 2.559999896459933e+01
 9.817819077099568e-01	 2.205523705554095e-01	 2.519371927259978e+01
 9.773768927226789e-01	 2.393187665685201e-01	 2.473224814413055e+01
 9.725865801107072e-01	 2.580976688098880e-01	 2.421576326600384e+01
 9.674077016462317e-01	 2.768779537070331e-01	 2.364450891523938e+01
 9.618373913642839e-01	 2.956482623394122e-01	 2.301879429061431e+01
 9.558732017884812e-01	 3.143970174017273e-01	 2.233899176446499e+01
 9.495131193731493e-01	 3.331124413538996e-01	 2.160553509082722e+01
 9.427555790678886e-01	 3.517825757213222e-01	 2.081891760689627e+01
 9.355994779120133e-01	 3.703953015009669e-01	 1.997969046504898e+01
 9.955966855063876e-01	 1.842375905856931e-01	 2.561476788014632e+01
 9.919282928032525e-01	 2.030628274891613e-01	 2.527523769311093e+01
 9.878799319834289e-01	 2.219222610548627e-01	 2.488090366174569e+01
 9.834475566547416e-01	 2.408052185343287e-01	 2.443189694475997e+01
 9.786274905483354e-01	 2.597007599204731e-01	 2.392841553521941e+01
 9.734164451368482e-01	 2.785976925503035e-01	 2.337072253129530e+01
 9.678115366542858e-01	 2.974845869509739e-01	 2.275914429637555e+01
 9.618103024225481e-01	 3.163497939084582e-01	 2.209406854485903e+01
 9.554107163894633e-01	 3.351814627302534e-01	 2.137594239146667e+01
 9.486112037838231e-01	 3.539675606655133e-01	 2.060527040280860e+01
 9.414106547942513e-01	 3.726958934378975e-01	 1.978261269019377e+01
 1.001742344060394e+00	 1.853748596621032e-01	 2.529217001597627e+01
 9.980513069581337e-01	 2.043163017320081e-01	 2.496414492083257e+01
 9.939779562569206e-01	 2.232921515546490e-01	 2.458181736401285e+01
 9.895182205868467e-01	 2.422916705003936e-01	 2.414534015299487e+01
 9.846684009860402e-01	 2.613038510312478e-01	 2.365493159175158e+01
 9.794251886275848e-01	 2.803174313937059e-01	 2.311087357463900e+01
 9.737856819444611e-01	 2.993209115626206e-01	 2.251350957348871e+01
 9.677474030568511e-01	 3.183025704152370e-01	 2.186324255596699e+01
 9.613083134060882e-01	 3.372504841066287e-01	 2.116053287480547e+01
 9.544668285001519e-01	 3.561525456097096e-01	 2.040589616842056e+01
 9.472218316769787e-01	 3.749964853748279e-01	 1.959990131367146e+01
 1.007888002614401e+00	 1.865121287390279e-01	 2.498295106633611e+01
 1.004174321113020e+00	 2.055697759752741e-01	 2.466648533804632e+01
 1.000075980530431e+00	 2.246620420547685e-01	 2.429622283788955e+01
 9.955888845189947e-01	 2.437781224667150e-01	 2.387233805985356e+01
 9.907093114238209e-01	 2.629069421422117e-01	 2.339506962851846e+01
 9.854339321184411e-01	 2.820371702372406e-01	 2.286471821434603e+01
 9.797598272348097e-01	 3.011572361743525e-01	 2.228164434614768e+01
 9.736845036913911e-01	 3.202553469220638e-01	 2.164626616055591e+01
 9.672059104230238e-01	 3.393195054830256e-01	 2.095905712989746e+01
 9.603224532168761e-01	 3.583375305539113e-01	 2.022054381078532e+01
 9.530330085601965e-01	 3.772970773117587e-01	 1.943130365596365e+01
 1.014033661168407e+00	 1.876493978164674e-01	 2.468688340195516e+01
 1.010297335267911e+00	 2.068232502189596e-01	 2.438202905956337e+01
 1.006174004803960e+00	 2.260319325552212e-01	 2.402388800126127e+01
 1.001659548451185e+00	 2.452645744332930e-01	 2.361265645040473e+01
 9.967502218616779e-01	 2.645100332533653e-01	 2.314859336686437e+01
 9.914426756094166e-01	 2.837569090809074e-01	 2.263201818195316e+01
 9.857339725253311e-01	 3.029935607861695e-01	 2.206330843463741e+01
 9.796216043261683e-01	 3.222081234289389e-01	 2.144289735064308e+01
 9.731035074402697e-01	 3.413885268594439e-01	 2.077127140766966e+01
 9.661780779339952e-01	 3.605225154981184e-01	 2.004896793085123e+01
 9.588441854439034e-01	 3.795976692486892e-01	 1.927657276280316e+01
 1.020179319722414e+00	 1.887866668944215e-01	 2.440374462073654e+01
 1.016420349422807e+00	 2.080767244630642e-01	 2.411055146133471e+01
 1.012272029077508e+00	 2.274018230560070e-01	 2.376458606697076e+01
 1.007730212383418e+00	 2.467510264001274e-01	 2.336606643828396e+01
 1.002791132299611e+00	 2.661131243647080e-01	 2.291527189004132e+01
 9.974514191005122e-01	 2.854766479247067e-01	 2.241254060391459e+01
 9.917081178160261e-01	 3.048298853980715e-01	 2.185826708677671e+01
 9.855587049611820e-01	 3.241608999358619e-01	 2.125289957793998e+01
 9.790011044578272e-01	 3.434575482358837e-01	 2.059693745038417e+01
 9.720337026515093e-01	 3.627075004423307e-01	 1.989092865195926e+01
 9.646553623281005e-01	 3.818982611856199e-01	 1.913546723272604e+01
 1.026324978276420e+00	 1.899239359728902e-01	 2.413331739125504e+01
 1.022543363577707e+00	 2.093301987075882e-01	 2.385183302293198e+01
 1.018370053351074e+00	 2.287717135571260e-01	 2.351809538428655e+01
 1.013800876315694e+00	 2.482374783672184e-01	 2.313234430615584e+01
 1.008832042737620e+00	 2.677162154762403e-01	 2.269487948267268e+01
 1.003460162591727e+00	 2.871963867686380e-01	 2.220605784007738e+01
 9.976822631068937e-01	 3.066662100100584e-01	 2.166629081541737e+01
 9.914958055964327e-01	 3.261136764428331e-01	 2.107604159038841e+01
 9.848987014756948e-01	 3.455265696123449e-01	 2.043582232722683e+01
 9.778893273694182e-01	 3.648924853865486e-01	 1.974619145450186e+01
 9.704665392127867e-01	 3.841988531225504e-01	 1.900775105082035e+01
 1.032470636830427e+00	 1.910612050518737e-01	 2.387538930184440e+01
 1.028666377732612e+00	 2.105836729525316e-01	 2.360565917565386e+01
 1.024468077624660e+00	 2.301416040585781e-01	 2.328419928603303e+01
 1.019871540248012e+00	 2.497239303345657e-01	 2.291127135187379e+01
 1.014872953175706e+00	 2.693193065879620e-01	 2.248719547595032e+01
 1.009468906083062e+00	 2.889161256127015e-01	 2.201234732792576e+01
 1.003656408397935e+00	 3.085025346221304e-01	 2.148715524174665e+01
 9.974329062319199e-01	 3.280664529498522e-01	 2.091209727453472e+01
 9.907962984938736e-01	 3.475955909888275e-01	 2.028769827576767e+01
 9.837449520877224e-01	 3.670774703307719e-01	 1.961452701648667e+01
 9.762777160979634e-01	 3.864994450594811e-01	 1.889319342841198e+01
 1.038616295384433e+00	 1.921984741313718e-01	 2.362975271504201e+01
 1.034789391887522e+00	 2.118371471978942e-01	 2.337182015602540e+01
 1.030566101898264e+00	 2.315114945603634e-01	 2.306268594114798e+01
 1.025942204180373e+00	 2.512103823021695e-01	 2.270263374010170e+01
 1.020913863613867e+00	 2.709223976998731e-01	 2.229200409832812e+01
 1.015477649574516e+00	 2.906358644568973e-01	 2.183119143235511e+01
 1.009630553689149e+00	 3.103388592342876e-01	 2.132064094415323e+01
 1.003370006867644e+00	 3.300192294569194e-01	 2.076084550350001e+01
 9.966938955123628e-01	 3.496646123653316e-01	 2.015234254905037e+01
 9.896005768064216e-01	 3.692624552750004e-01	 1.949571105976114e+01
 9.820888929836292e-01	 3.888000369964116e-01	 1.879156864844212e+01
 1.044761953938440e+00	 1.933357432113846e-01	 2.339620462717144e+01
 1.040912406042436e+00	 2.130906214436760e-01	 2.315011086446768e+01
 1.036664126171887e+00	 2.328813850624820e-01	 2.285334821244397e+01
 1.032012868112777e+00	 2.526968342700299e-01	 2.250622235917235e+01
 1.026954774052105e+00	 2.725254888119737e-01	 2.210909433148453e+01
 1.021486393066090e+00	 2.923556033012253e-01	 2.166237730074812e+01
 1.015604698980536e+00	 3.121751838465296e-01	 2.116653331242703e+01
 1.009307107503605e+00	 3.319720059640348e-01	 2.062206999031608e+01
 1.002591492531163e+00	 3.517336337418573e-01	 2.002953726807812e+01
 9.954562015255156e-01	 3.714474402192345e-01	 1.938952420166419e+01
 9.879000698697850e-01	 3.911006289333422e-01	 1.870265591630233e+01
 9.297883010302649e-01	 3.680947095640363e-01	 2.019139322192011e+01
 9.222799379563009e-01	 3.865225944039564e-01	 1.949910745986619e+01
 9.143747236862125e-01	 4.048689474701951e-01	 1.877978548569871e+01
 9.060730098564396e-01	 4.231213782743761e-01	 1.803809954342907e+01
 8.973756499704220e-01	 4.412674277413337e-01	 1.727875708963205e+01
 8.882840068073012e-01	 4.592945930433334e-01	 1.650648240832446e+01
 8.787999583847406e-01	 4.771903531042267e-01	 1.572599814501856e+01
 8.689259024143142e-01	 4.949421946770166e-01	 1.494200688814481e+01
 8.586647591951593e-01	 5.125376388923134e-01	 1.415917292609720e+01
 8.480199728994641e-01	 5.299642681697645e-01	 1.338210430672271e+01
 8.369955112118155e-01	 5.472097533798151e-01	 1.261533532320636e+01
 9.355994779120133e-01	 3.703953015009669e-01	 1.997969046504898e+01
 9.280441875683143e-01	 3.889383606213795e-01	 1.932305597509350e+01
 9.200895657086207e-01	 4.073993783943855e-01	 1.863808702274917e+01
 9.117359661671008e-01	 4.257658868910541e-01	 1.792914434366591e+01
 9.029842477815930e-01	 4.440253491669986e-01	 1.720062197315682e+01
 8.938357818486097e-01	 4.621651842518100e-01	 1.645693010124981e+01
 8.842924581234251e-01	 4.801727928126123e-01	 1.570247789086855e+01
 8.743566893033125e-01	 4.980355833946136e-01	 1.494165638029186e+01
 8.640314139392792e-01	 5.157409991354902e-01	 1.417882159049502e+01
 8.533200977295901e-01	 5.332765448450113e-01	 1.341827795602126e+01
 8.422267331568615e-01	 5.506298143365619e-01	 1.266426219469009e+01
 9.414106547942513e-01	 3.726958934378975e-01	 1.978261269019377e+01
 9.338084371809028e-01	 3.913541268388074e-01	 1.916015370540663e+01
 9.258044077316606e-01	 4.099298093185950e-01	 1.850808252796188e+01
 9.173989224784216e-01	 4.284103955077757e-01	 1.783045112600584e+01
 9.085928455934221e-01	 4.467832705927415e-01	 1.713134282043599e+01
 8.993875568905439e-01	 4.650357754604085e-01	 1.641485637005190e+01
 8.897849578626738e-01	 4.831552325211740e-01	 1.568509006387318e+01
 8.797874761927823e-01	 5.011289721124513e-01	 1.494612593478364e+01
 8.693980686837476e-01	 5.189443593789822e-01	 1.420201420753215e+01
 8.586202225599109e-01	 5.365888215206579e-01	 1.345675809162615e+01
 8.474579551019182e-01	 5.540498752938035e-01	 1.271429902583983e+01
 9.472218316769787e-01	 3.749964853748279e-01	 1.959990131367146e+01
 9.395726867940670e-01	 3.937698930562402e-01	 1.901016951947285e+01
 9.315192497553330e-01	 4.124602402428239e-01	 1.838956810343377e+01
 9.230618787904028e-01	 4.310549041245410e-01	 1.774184295378304e+01
 9.142014434059086e-01	 4.495411920185621e-01	 1.707076933017173e+01
 9.049393319331042e-01	 4.679063666691290e-01	 1.638013716903197e+01
 8.952774576024867e-01	 4.861376722299120e-01	 1.567373644022115e+01
 8.852182630827238e-01	 5.042223608305295e-01	 1.495534266219507e+01
 8.747647234285647e-01	 5.221477196227892e-01	 1.422870268122421e+01
 8.639203473904270e-01	 5.399010981967042e-01	 1.349752081714577e+01
 8.526891770469852e-01	 5.574699362515393e-01	 1.276544547385083e+01
 9.530330085601965e-01	 3.772970773117587e-01	 1.943130365596365e+01
 9.453369364078064e-01	 3.961856592736778e-01	 1.887287751507889e+01
 9.372340917796379e-01	 4.149906711670723e-01	 1.828234441236067e+01
 9.287248351030430e-01	 4.336994127413499e-01	 1.766314679173620e+01
 9.198100412190532e-01	 4.522991134444608e-01	 1.701875445240858e+01
 9.104911069762908e-01	 4.707769578779718e-01	 1.635265106470244e+01
 9.007699573428634e-01	 4.891201119388264e-01	 1.566832078140923e+01
 8.906490499731375e-01	 5.073157495488487e-01	 1.496923504501567e+01
 8.801313781737309e-01	 5.253510798669113e-01	 1.425883968888350e+01
 8.692204722211382e-01	 5.432133748731504e-01	 1.354054242688959e+01
 8.579203989920631e-01	 5.608899972097702e-01	 1.281770082126624e+01
 9.588441854439034e-01	 3.795976692486892e-01	 1.927657276280316e+01
 9.511011860221213e-01	 3.986014254911200e-01	 1.874805686067326e+01
 9.429489338045741e-01	 4.175211020913396e-01	 1.818621654082240e+01
 9.343877914163432e-01	 4.363439213582025e-01	 1.759419338778535e+01
 9.254186390328555e-01	 4.550570348704370e-01	 1.697515429000745e+01
 9.160428820201031e-01	 4.736475490869366e-01	 1.633227915662894e+01
 9.062624570838042e-01	 4.921025516479170e-01	 1.566874877408047e+01
 8.960798368640226e-01	 5.104091382674083e-01	 1.498773289607534e+01
 8.854980329192457e-01	 5.285544401113488e-01	 1.429237865768610e+01
 8.745205970520447e-01	 5.465256515499963e-01	 1.358579940009037e+01
 8.631516209371515e-01	 5.643100581684956e-01	 1.287106398732959e+01
 9.646553623281005e-01	 3.818982611856199e-01	 1.913546723272604e+01
 9.568654356370115e-01	 4.010171917085674e-01	 1.863549164263515e+01
 9.486637758301428e-01	 4.200515330156266e-01	 1.810099386456342e+01
 9.400507477303035e-01	 4.389884299750987e-01	 1.753481715907983e+01
 9.310272368473159e-01	 4.578149562964914e-01	 1.693982800368117e+01
 9.215946570645412e-01	 4.765181402960232e-01	 1.631890500113386e+01
 9.117549568253088e-01	 4.950849913571840e-01	 1.567492797203873e+01
 9.015106237553792e-01	 5.135025269862085e-01	 1.501076731847477e+01
 8.908646876651094e-01	 5.317578003561013e-01	 1.432927374208548e+01
 8.798207218831460e-01	 5.498379282272423e-01	 1.363326839533360e+01
 8.683828428822506e-01	 5.677301191277159e-01	 1.292553353892797e+01
 9.704665392127867e-01	 3.841988531225504e-01	 1.900775105082035e+01
 9.626296852524775e-01	 4.034329579260195e-01	 1.853497071803115e+01
 9.543786178563443e-01	 4.225819639399329e-01	 1.802648992055974e+01
 9.457137040449235e-01	 4.416329385920386e-01	 1.748485608214126e+01
 9.366358346624336e-01	 4.605728777226235e-01	 1.691263772044258e+01
 9.271464321096058e-01	 4.793887315052321e-01	 1.631241453774046e+01
 9.172474565673776e-01	 4.980674310666272e-01	 1.568676774034520e+01
 9.069414106472073e-01	 5.165959157052494e-01	 1.503827066695398e+01
 8.962313424113213e-01	 5.349611606011688e-01	 1.436947980203805e+01
 8.851208467144427e-01	 5.531502049048878e-01	 1.368292624518778e+01
 8.736140648273601e-01	 5.711501800874307e-01	 1.298110770114110e+01
 9.762777160979634e-01	 3.864994450594811e-01	 1.889319342841198e+01
 9.683939348685184e-01	 4.058487241434762e-01	 1.844628757263034e+01
 9.600934598831773e-01	 4.251123948642585e-01	 1.796252228317260e+01
 9.513766603602029e-01	 4.442774472090221e-01	 1.744415158693004e+01
 9.422444324782094e-01	 4.633307991488334e-01	 1.689344844532112e+01
 9.326982071552958e-01	 4.822593227145630e-01	 1.631269601824430e+01
 9.227399563100104e-01	 5.010498707762467e-01	 1.570417920141205e+01
 9.123721975395075e-01	 5.196893044245311e-01	 1.507017651064162e+01
 9.015979971578829e-01	 5.381645208465515e-01	 1.441295238200549e+01
 8.904209715459344e-01	 5.564624815829333e-01	 1.373474995102629e+01
 8.788452867724807e-01	 5.745702410476402e-01	 1.303778436741465e+01
 9.820888929836292e-01	 3.888000369964116e-01	 1.879156864844212e+01
 9.741581844851348e-01	 4.082644903609378e-01	 1.836924018396062e+01
 9.658083019106427e-01	 4.276428257886032e-01	 1.790891244469950e+01
 9.570396166761425e-01	 4.469219558260492e-01	 1.741254845467239e+01
 9.478530302946430e-01	 4.660887205751214e-01	 1.688212797621486e+01
 9.382499822016122e-01	 4.851299139240159e-01	 1.631963993830309e+01
 9.282324560532075e-01	 5.040323104860426e-01	 1.572707518300997e+01
 9.178029844322793e-01	 5.227826931440532e-01	 1.510641959712583e+01
 9.069646519047925e-01	 5.413678810922494e-01	 1.445964769070390e+01
 8.957210963776212e-01	 5.597747582613785e-01	 1.378871667803340e+01
 8.840765087176115e-01	 5.779903020083444e-01	 1.309556110937155e+01
 9.879000698697850e-01	 3.911006289333422e-01	 1.870265591630233e+01
 9.799224341023264e-01	 4.106802565784042e-01	 1.830363088919806e+01
 9.715231439387405e-01	 4.301732567129675e-01	 1.786548570014047e+01
 9.627025729927416e-01	 4.495664644431200e-01	 1.738989471929387e+01
 9.534616281117343e-01	 4.688466420014871e-01	 1.687854682174727e+01
 9.438017572485543e-01	 4.880005051335908e-01	 1.633313897144038e+01
 9.337249557969681e-01	 5.070147501960147e-01	 1.575537016811020e+01
 9.232337713255229e-01	 5.258760818638161e-01	 1.514693581779401e+01
 9.123313066520513e-01	 5.445712413382624e-01	 1.450952258156620e+01
 9.010212212095033e-01	 5.630870349402235e-01	 1.384480375038608e+01
 8.893077306627528e-01	 5.814103629695434e-01	 1.315443518627760e+01
 8.369955112118155e-01	 5.472097533798151e-01	 1.261533532320636e+01
 8.255958632931958e-01	 5.642618811384013e-01	 1.166690245556337e+01
 8.138260360506314e-01	 5.811085811170719e-01	 1.063753668494758e+01
 8.016915487021741e-01	 5.977379532449607e-01	 9.525653596466096e+00
 7.891984256370140e-01	 6.141382946773878e-01	 8.329877492068167e+00
 7.763531875817183e-01	 6.302981264093361e-01	 7.392920576121913e+00
 7.631628410930560e-01	 6.462062194093811e-01	 7.095167681462815e+00
 7.496348664083717e-01	 6.618516201518141e-01	 6.750373709948004e+00
 7.357772036946522e-01	 6.772236754270479e-01	 6.359418947505402e+00
 7.215982377473873e-01	 6.923120563137026e-01	 5.923266044316850e+00
 7.071067811999999e-01	 7.071067811999999e-01	 5.442956282306469e+00
 8.422267331568615e-01	 5.506298143365619e-01	 1.266426219469009e+01
 8.307558374391992e-01	 5.677885178926072e-01	 1.169901596285827e+01
 8.189124487766651e-01	 5.847405097453250e-01	 1.065333727881835e+01
 8.067021208824219e-01	 6.014738154484074e-01	 9.525673508494942e+00
 7.941309157980921e-01	 6.179766590143967e-01	 8.314677447830102e+00
 7.812053950047828e-01	 6.342374896944958e-01	 7.612910045747102e+00
 7.679326088502425e-01	 6.502450082758343e-01	 7.304551154273747e+00
 7.543200843232992e-01	 6.659881927731690e-01	 6.950695210139097e+00
 7.403758112169828e-01	 6.814563233943530e-01	 6.552278735589783e+00
 7.261082267317559e-01	 6.966390066622472e-01	 6.110314430899148e+00
 7.115261985800000e-01	 7.115261985800000e-01	 5.625887210042173e+00
 8.474579551019182e-01	 5.540498752938035e-01	 1.271429902583983e+01
 8.359158115850330e-01	 5.713151546473932e-01	 1.173258368684906e+01
 8.239988615023875e-01	 5.883724383742136e-01	 1.067092500217853e+01
 8.117126930622570e-01	 6.052096776525153e-01	 9.527801029055761e+00
 7.990634059586957e-01	 6.218150233520632e-01	 8.301891972808532e+00
 7.860576024273511e-01	 6.381768529802788e-01	 7.830609439488772e+00
 7.727023766069515e-01	 6.542837971428469e-01	 7.511836372202882e+00
 7.590053022378079e-01	 6.701247653949884e-01	 7.149101835544643e+00
 7.449744187389942e-01	 6.856889713619976e-01	 6.743398240021343e+00
 7.306182157159447e-01	 7.009659570109767e-01	 6.295787998875271e+00
 7.159456159599997e-01	 7.159456159599997e-01	 5.807399333086757e+00
 8.526891770469852e-01	 5.574699362515393e-01	 1.276544547385083e+01
 8.410757857306971e-01	 5.748417914027592e-01	 1.176760057701922e+01
 8.290852742277991e-01	 5.920043670037379e-01	 1.069029039061454e+01
 8.167232652416798e-01	 6.089455398572853e-01	 9.532022581248651e+00
 8.039958961188250e-01	 6.256533876903869e-01	 8.331579591205625e+00
 7.909098098494234e-01	 6.421162162666851e-01	 8.045993959872932e+00
 7.774721443631831e-01	 6.583225860104184e-01	 7.716994544774440e+00
 7.636905201518980e-01	 6.742613380172727e-01	 7.345561124528087e+00
 7.495730262606862e-01	 6.899216193299823e-01	 6.932741657794337e+00
 7.351282046999533e-01	 7.052929073598913e-01	 6.479647940721115e+00
 7.203650333400000e-01	 7.203650333400000e-01	 5.987451182392573e+00
 8.579203989920631e-01	 5.608899972097702e-01	 1.281770082126624e+01
 8.462357598761909e-01	 5.783684281587049e-01	 1.180406133356944e+01
 8.341716869528994e-01	 5.956362956338981e-01	 1.071142384999128e+01
 8.217338374206899e-01	 6.126814020627164e-01	 9.538324571943479e+00
 8.089283862784800e-01	 6.294917520293684e-01	 8.556125603176211e+00
 7.957620172709999e-01	 6.460555795537147e-01	 8.259039000997682e+00
 7.822419121189371e-01	 6.623613748785490e-01	 7.919997166948539e+00
 7.683757380655698e-01	 6.783979106400215e-01	 7.540040987785575e+00
 7.541716337820585e-01	 6.941542672983068e-01	 7.120273637984786e+00
 7.396381936837823e-01	 7.096198577089906e-01	 6.661855973432651e+00
 7.247844507200000e-01	 7.247844507200000e-01	 6.166001878409490e+00
 8.631516209371515e-01	 5.643100581684956e-01	 1.287106398732959e+01
 8.513957340215149e-01	 5.818950649152308e-01	 1.184196041497204e+01
 8.392580996776892e-01	 5.992682242646935e-01	 1.073431566038303e+01
 8.267444095992872e-01	 6.164172642688088e-01	 9.546693392271402e+00
 8.138608764376605e-01	 6.333301163690070e-01	 8.778120430964494e+00
 8.006142246920805e-01	 6.499949428413678e-01	 8.469720142728004e+00
 7.870116798742137e-01	 6.664001637472385e-01	 8.120816010470849e+00
 7.730609559788225e-01	 6.825344832632347e-01	 7.732509697064543e+00
 7.587702413031117e-01	 6.983869152669711e-01	 7.305959268053919e+00
 7.441481826674313e-01	 7.139468080582752e-01	 6.842374322632414e+00
 7.292038681000002e-01	 7.292038681000002e-01	 6.343011113220876e+00
 8.683828428822506e-01	 5.677301191277159e-01	 1.292553353892797e+01
 8.565557081666693e-01	 5.854217016723366e-01	 1.188129204525234e+01
 8.443445124021676e-01	 6.029001528961246e-01	 1.075895597986214e+01
 8.317549817774722e-01	 6.201531264755632e-01	 9.557115418098915e+00
 8.187933665963669e-01	 6.371684807093032e-01	 8.997543847794882e+00
 8.054664321126650e-01	 6.539343061296441e-01	 8.678013145101270e+00
 7.917814476290129e-01	 6.704389526164871e-01	 8.319423115535781e+00
 7.777461738916568e-01	 6.866710558869126e-01	 7.922935874287954e+00
 7.633688488238451e-01	 7.026195632359751e-01	 7.489764060642228e+00
 7.486581716509005e-01	 7.182737584077447e-01	 7.021165707248285e+00
 7.336232854799999e-01	 7.336232854799998e-01	 6.518439133326098e+00
 8.736140648273601e-01	 5.711501800874307e-01	 1.298110770114110e+01
 8.617156823116540e-01	 5.889483384300224e-01	 1.192205022100719e+01
 8.494309251263351e-01	 6.065320815281915e-01	 1.078533484815190e+01
 8.367655539552444e-01	 6.238889886829790e-01	 9.569577010485505e+00
 8.237258567545990e-01	 6.410068450502567e-01	 9.214375709863257e+00
 8.103186395327536e-01	 6.578736694185437e-01	 8.883893942932417e+00
 7.965512153833346e-01	 6.744777414862947e-01	 8.515790782749422e+00
 7.824313918040724e-01	 6.908076285110547e-01	 8.111288481069529e+00
 7.679674563442594e-01	 7.068522112053192e-01	 7.671653940840440e+00
 7.531681606341897e-01	 7.226007087573990e-01	 7.198193324744657e+00
 7.380427028600000e-01	 7.380427028600000e-01	 6.692246723040852e+00
 8.788452867724807e-01	 5.745702410476402e-01	 1.303778436741465e+01
 8.668756564564685e-01	 5.924749751882881e-01	 1.196422871817438e+01
 8.545173378501915e-01	 6.101640101608941e-01	 1.081344219014904e+01
 8.417761261326044e-01	 6.276248508910564e-01	 9.732425910482169e+00
 8.286583469123571e-01	 6.448452093918678e-01	 9.428595953868342e+00
 8.151708469523458e-01	 6.618130327080666e-01	 9.087338640611252e+00
 8.013209831371788e-01	 6.785165303566613e-01	 8.709891565378722e+00
 7.871166097160693e-01	 6.949442011356617e-01	 8.297536808605129e+00
 7.725660638643541e-01	 7.110848591750031e-01	 7.851595233913244e+00
 7.576781496172991e-01	 7.269276591072382e-01	 7.373420836879634e+00
 7.424621202400000e-01	 7.424621202400000e-01	 6.864395188491081e+00
 8.840765087176115e-01	 5.779903020083444e-01	 1.309556110937155e+01
 8.720356306011133e-01	 5.960016119471337e-01	 1.200782109856095e+01
 8.596037505737371e-01	 6.137959387942320e-01	 1.084326781932024e+01
 8.467866983095513e-01	 6.313607130997950e-01	 9.955978829747073e+00
 8.335908370696403e-01	 6.486835737341364e-01	 9.640184594629407e+00
 8.200230543714424e-01	 6.657523959982129e-01	 9.288323507086739e+00
 8.060907508905455e-01	 6.825553192275871e-01	 8.901698261876856e+00
 7.918018276276478e-01	 6.990807737607330e-01	 8.481650467920346e+00
 7.771646713841293e-01	 7.153175071450268e-01	 8.029554653461032e+00
 7.621881386002289e-01	 7.312546094572627e-01	 7.546812355969475e+00
 7.468815376200000e-01	 7.468815376200000e-01	 7.034846342174529e+00
 8.893077306627528e-01	 5.814103629695434e-01	 1.315443518627760e+01
 8.771956047455883e-01	 5.995282487065593e-01	 1.205282071614070e+01
 8.646901632969713e-01	 6.174278674282060e-01	 1.087480144098071e+01
 8.517972704860859e-01	 6.350965753091955e-01	 1.017670666431798e+01
 8.385233272264496e-01	 6.525219380770625e-01	 9.849121722788814e+00
 8.248752617900429e-01	 6.696917592889825e-01	 9.486824971026710e+00
 8.108605186434350e-01	 6.865941080990718e-01	 9.091183908671409e+00
 7.964870455388072e-01	 7.032173463862690e-01	 8.663599380465183e+00
 7.817632789035854e-01	 7.195501551153906e-01	 8.205499289997178e+00
 7.666981275829784e-01	 7.355815598074721e-01	 7.718332431635543e+00
 7.513009550000000e-01	 7.513009549999999e-01	 7.203562488067496e+00
 7.071067811999999e-01	 7.071067811999999e-01	 5.442956282306469e+00
 6.923120563137025e-01	 7.215982377473872e-01	 4.695510784661246e+00
 6.772236754270478e-01	 7.357772036946522e-01	 4.000251429453372e+00
 6.618516201518141e-01	 7.496348664083716e-01	 3.361930646538212e+00
 6.462062194093813e-01	 7.631628410930559e-01	 2.785010045202856e+00
 6.302981264093362e-01	 7.763531875817182e-01	 2.273643924958894e+00
 6.141382946773881e-01	 7.891984256370137e-01	 1.721232515575612e+00
 5.977379532449610e-01	 8.016915487021739e-01	 1.197658735667510e+00
 5.811085811170723e-01	 8.138260360506312e-01	 7.605504918090517e-01
 5.642618811384018e-01	 8.255958632931955e-01	 4.106509748700371e-01
 5.472097533798151e-01	 8.369955112118155e-01	 1.483553711750611e-01
 7.115261985800000e-01	 7.115261985800000e-01	 5.625887210042173e+00
 6.966390066622471e-01	 7.261082267317559e-01	 4.892537693034908e+00
 6.814563233943529e-01	 7.403758112169828e-01	 4.209842654481815e+00
 6.659881927731691e-01	 7.543200843232991e-01	 3.582382934786121e+00
 6.502450082758344e-01	 7.679326088502423e-01	 3.014453876885035e+00
 6.342374896944960e-01	 7.812053950047827e-01	 2.510049527831585e+00
 6.179766590143968e-01	 7.941309157980918e-01	 2.001499056146149e+00
 6.014738154484077e-01	 8.067021208824215e-01	 1.477725885028189e+00
 5.847405097453254e-01	 8.189124487766647e-01	 1.038093165948025e+00
 5.677885178926079e-01	 8.307558374391990e-01	 6.831522317791150e-01
 5.506298143365619e-01	 8.422267331568615e-01	 4.131154657579457e-01
 7.159456159599997e-01	 7.159456159599997e-01	 5.807399333086757e+00
 7.009659570109767e-01	 7.306182157159445e-01	 5.087238793526713e+00
 6.856889713619977e-01	 7.449744187389944e-01	 4.416231134484861e+00
 6.701247653949886e-01	 7.590053022378079e-01	 3.798787239360069e+00
 6.542837971428470e-01	 7.727023766069515e-01	 3.239037721998889e+00
 6.381768529802789e-01	 7.860576024273510e-01	 2.740817814065670e+00
 6.218150233520633e-01	 7.990634059586953e-01	 2.275335886249743e+00
 6.052096776525157e-01	 8.117126930622568e-01	 1.750739728517491e+00
 5.883724383742140e-01	 8.239988615023872e-01	 1.308000859488519e+00
 5.713151546473938e-01	 8.359158115850326e-01	 9.474786076222348e-01
 5.540498752938033e-01	 8.474579551019181e-01	 6.692022882142379e-01
 7.203650333400000e-01	 7.203650333400000e-01	 5.987451182392573e+00
 7.052929073598913e-01	 7.351282046999533e-01	 5.279589688807848e+00
 6.899216193299822e-01	 7.495730262606861e-01	 4.619409157755348e+00
 6.742613380172728e-01	 7.636905201518981e-01	 4.011152116106468e+00
 6.583225860104187e-01	 7.774721443631831e-01	 3.458785954970830e+00
 6.421162162666852e-01	 7.909098098494235e-01	 2.965988497971799e+00
 6.256533876903871e-01	 8.039958961188245e-01	 2.536135412128327e+00
 6.089455398572854e-01	 8.167232652416794e-01	 2.016728688123639e+00
 5.920043670037384e-01	 8.290852742277985e-01	 1.570317659404675e+00
 5.748417914027597e-01	 8.410757857306965e-01	 1.203689309002881e+00
 5.574699362515394e-01	 8.526891770469853e-01	 9.166895870354005e-01
 7.247844507200000e-01	 7.247844507200000e-01	 6.166001878409490e+00
 7.096198577089906e-01	 7.396381936837823e-01	 5.469566155628774e+00
 6.941542672983066e-01	 7.541716337820585e-01	 4.819368781566160e+00
 6.783979106400215e-01	 7.683757380655698e-01	 4.219485495837456e+00
 6.623613748785490e-01	 7.822419121189368e-01	 3.673721943008805e+00
 6.460555795537150e-01	 7.957620172709999e-01	 3.185599916994670e+00
 6.294917520293684e-01	 8.089283862784796e-01	 2.758345419255622e+00
 6.126814020627168e-01	 8.217338374206893e-01	 2.275719109942823e+00
 5.956362956338984e-01	 8.341716869528992e-01	 1.825085248632071e+00
 5.783684281587055e-01	 8.462357598761905e-01	 1.451840825339953e+00
 5.608899972097702e-01	 8.579203989920631e-01	 1.155648095897937e+00
 7.292038681000002e-01	 7.292038681000002e-01	 6.343011113220876e+00
 7.139468080582750e-01	 7.441481826674315e-01	 5.657144139545121e+00
 6.983869152669708e-01	 7.587702413031114e-01	 5.016101839170151e+00
 6.825344832632350e-01	 7.730609559788224e-01	 4.423794703272230e+00
 6.664001637472386e-01	 7.870116798742136e-01	 3.883868076623799e+00
 6.499949428413679e-01	 8.006142246920803e-01	 3.399689073436899e+00
 6.333301163690073e-01	 8.138608764376605e-01	 2.974335278736167e+00
 6.164172642688094e-01	 8.267444095992870e-01	 2.527735327083890e+00
 5.992682242646939e-01	 8.392580996776887e-01	 2.072342978916929e+00
 5.818950649152315e-01	 8.513957340215146e-01	 1.691987011207188e+00
 5.643100581684956e-01	 8.631516209371515e-01	 1.386145625019179e+00
 7.336232854799999e-01	 7.336232854799998e-01	 6.518439133326098e+00
 7.182737584077443e-01	 7.486581716509005e-01	 5.842299749832475e+00
 7.026195632359752e-01	 7.633688488238450e-01	 5.209599946547561e+00
 6.866710558869124e-01	 7.777461738916568e-01	 4.624086475292324e+00
 6.704389526164871e-01	 7.917814476290129e-01	 4.089245799049415e+00
 6.539343061296442e-01	 8.054664321126649e-01	 3.608291674673318e+00
 6.371684807093034e-01	 8.187933665963669e-01	 3.184154493396575e+00
 6.201531264755638e-01	 8.317549817774720e-01	 2.772799720301324e+00
 6.029001528961251e-01	 8.443445124021672e-01	 2.312127941033582e+00
 5.854217016723370e-01	 8.565557081666688e-01	 1.924179165695416e+00
 5.677301191277159e-01	 8.683828428822506e-01	 1.608247149215565e+00
 7.380427028600000e-01	 7.380427028600000e-01	 6.692246723040852e+00
 7.226007087573990e-01	 7.531681606341899e-01	 6.025009254585212e+00
 7.068522112053193e-01	 7.679674563442594e-01	 5.399854508911321e+00
 6.908076285110548e-01	 7.824313918040724e-01	 4.820366978541587e+00
 6.744777414862950e-01	 7.965512153833347e-01	 4.289875634602748e+00
 6.578736694185440e-01	 8.103186395327532e-01	 3.811442171922139e+00
 6.410068450502572e-01	 8.237258567545989e-01	 3.387850984717231e+00
 6.238889886829795e-01	 8.367655539552442e-01	 3.010932776448393e+00
 6.065320815281922e-01	 8.494309251263347e-01	 2.544475032477197e+00
 5.889483384300228e-01	 8.617156823116533e-01	 2.148466108924322e+00
 5.711501800874307e-01	 8.736140648273601e-01	 1.822014892793265e+00
 7.424621202400000e-01	 7.424621202400000e-01	 6.864395188491081e+00
 7.269276591072382e-01	 7.576781496172993e-01	 6.205249075989294e+00
 7.110848591750030e-01	 7.725660638643540e-01	 5.586856726979383e+00
 6.949442011356618e-01	 7.871166097160693e-01	 5.012641826397179e+00
 6.785165303566618e-01	 8.013209831371789e-01	 4.485777216032876e+00
 6.618130327080668e-01	 8.151708469523457e-01	 4.009173797629739e+00
 6.448452093918681e-01	 8.286583469123566e-01	 3.585471139897914e+00
 6.276248508910567e-01	 8.417761261326038e-01	 3.217029832179482e+00
 6.101640101608945e-01	 8.545173378501912e-01	 2.769417022740490e+00
 5.924749751882885e-01	 8.668756564564680e-01	 2.364894255821646e+00
 5.745702410476402e-01	 8.788452867724807e-01	 2.027508411409032e+00
 7.468815376200000e-01	 7.468815376200000e-01	 7.034846342174529e+00
 7.312546094572628e-01	 7.621881386002289e-01	 6.382995785763421e+00
 7.153175071450267e-01	 7.771646713841294e-01	 5.770597603025805e+00
 6.990807737607332e-01	 7.918018276276478e-01	 5.200916095339550e+00
 6.825553192275873e-01	 8.060907508905454e-01	 4.676969310899613e+00
 6.657523959982131e-01	 8.200230543714422e-01	 4.201518601529765e+00
 6.486835737341368e-01	 8.335908370696401e-01	 3.777059857248724e+00
 6.313607130997955e-01	 8.467866983095510e-01	 3.405816457138616e+00
 6.137959387942328e-01	 8.596037505737367e-01	 2.986984616272372e+00
 5.960016119471342e-01	 8.720356306011128e-01	 2.573507687281631e+00
 5.779903020083443e-01	 8.840765087176113e-01	 2.224784671024506e+00
 7.513009550000000e-01	 7.513009549999999e-01	 7.203562488067496e+00
 7.355815598074721e-01	 7.666981275829785e-01	 6.558226100761294e+00
 7.195501551153904e-01	 7.817632789035854e-01	 5.951067946716543e+00
 7.032173463862691e-01	 7.964870455388074e-01	 5.385194340742286e+00
 6.865941080990721e-01	 8.108605186434350e-01	 4.863469847019294e+00
 6.696917592889826e-01	 8.248752617900426e-01	 4.388507485427970e+00
 6.525219380770629e-01	 8.385233272264494e-01	 3.962660589982450e+00
 6.350965753091958e-01	 8.517972704860857e-01	 3.588016353751975e+00
 6.174278674282064e-01	 8.646901632969710e-01	 3.197206513214024e+00
 5.995282487065600e-01	 8.771956047455878e-01	 2.774348218814418e+00
 5.814103629695434e-01	 8.893077306627528e-01	 2.413898124073250e+00
 5.472097533798151e-01	 8.369955112118155e-01	 1.483553711750611e-01
 5.299642681697644e-01	 8.480199728994640e-01	 6.217060537760380e-02
 5.125376388923134e-01	 8.586647591951594e-01	-1.873756906606586e-02
 4.949421946770166e-01	 8.689259024143141e-01	-9.602886692986369e-02
 4.771903531042269e-01	 8.787999583847403e-01	-1.713154817098188e-01
 4.592945930433337e-01	 8.882840068073012e-01	-2.461429088891580e-01
 4.412674277413340e-01	 8.973756499704219e-01	-3.219718183228749e-01
 4.231213782743766e-01	 9.060730098564395e-01	-4.001611486385420e-01
 4.048689474701956e-01	 9.143747236862123e-01	-4.819525768827544e-01
 3.865225944039570e-01	 9.222799379563006e-01	-5.684564955404761e-01
 3.680947095640363e-01	 9.297883010302649e-01	-6.606396068095659e-01
 5.506298143365619e-01	 8.422267331568615e-01	 4.131154657579457e-01
 5.332765448450111e-01	 8.533200977295902e-01	 3.086727298653953e-01
 5.157409991354902e-01	 8.640314139392792e-01	 2.106614649554084e-01
 4.980355833946137e-01	 8.743566893033123e-01	 1.173641704057979e-01
 4.801727928126124e-01	 8.842924581234249e-01	 2.710713468024706e-02
 4.621651842518101e-01	 8.938357818486095e-01	-6.171978629669062e-02
 4.440253491669989e-01	 9.029842477815928e-01	-1.506444408535581e-01
 4.257658868910544e-01	 9.117359661671006e-01	-2.410948817405327e-01
 4.073993783943859e-01	 9.200895657086202e-01	-3.343832531581488e-01
 3.889383606213802e-01	 9.280441875683141e-01	-4.316912016103784e-01
 3.703953015009669e-01	 9.355994779120133e-01	-5.340569248971909e-01
 5.540498752938033e-01	 8.474579551019181e-01	 6.692022882142379e-01
 5.365888215206579e-01	 8.586202225599111e-01	 5.467458728341632e-01
 5.189443593789823e-01	 8.693980686837477e-01	 4.318638031949228e-01
 5.011289721124513e-01	 8.797874761927823e-01	 3.227793758191443e-01
 4.831552325211743e-01	 8.897849578626740e-01	 2.177559972418519e-01
 4.650357754604088e-01	 8.993875568905439e-01	 1.151175718612861e-01
 4.467832705927418e-01	 9.085928455934219e-01	 1.326783820442867e-02
 4.284103955077760e-01	 9.173989224784213e-01	-8.929153026368297e-02
 4.099298093185955e-01	 9.258044077316606e-01	-1.939442234419873e-01
 3.913541268388080e-01	 9.338084371809026e-01	-3.019441338214739e-01
 3.726958934378975e-01	 9.414106547942513e-01	-4.144018554326925e-01
 5.574699362515394e-01	 8.526891770469853e-01	 9.166895870354005e-01
 5.399010981967040e-01	 8.639203473904269e-01	 7.764648042843090e-01
 5.221477196227893e-01	 8.747647234285648e-01	 6.449455689519782e-01
 5.042223608305298e-01	 8.852182630827238e-01	 5.202945461123196e-01
 4.861376722299123e-01	 8.952774576024866e-01	 4.007108842485374e-01
 4.679063666691294e-01	 9.049393319331043e-01	 2.844512204840515e-01
 4.495411920185625e-01	 9.142014434059086e-01	 1.698496322271943e-01
 4.310549041245414e-01	 9.230618787904022e-01	 5.533634576390778e-02
 4.124602402428245e-01	 9.315192497553326e-01	-6.054496711437785e-02
 3.937698930562408e-01	 9.395726867940669e-01	-1.791214511885983e-01
 3.749964853748279e-01	 9.472218316769787e-01	-3.015770118787342e-01
 5.608899972097702e-01	 8.579203989920631e-01	 1.155648095897937e+00
 5.432133748731502e-01	 8.692204722211383e-01	 9.979013126783054e-01
 5.253510798669114e-01	 8.801313781737310e-01	 8.499799300366664e-01
 5.073157495488487e-01	 8.906490499731374e-01	 7.099845414243269e-01
 4.891201119388265e-01	 9.007699573428634e-01	 5.760486489312394e-01
 4.707769578779721e-01	 9.104911069762904e-01	 4.463602938901552e-01
 4.522991134444609e-01	 9.198100412190532e-01	 3.191826313604669e-01
 4.336994127413503e-01	 9.287248351030428e-01	 1.928732534055448e-01
 4.149906711670727e-01	 9.372340917796372e-01	 6.590208691335908e-02
 3.961856592736783e-01	 9.453369364078062e-01	-6.313228571986018e-02
 3.772970773117587e-01	 9.530330085601965e-01	-1.954880108694605e-01
 5.643100581684956e-01	 8.631516209371515e-01	 1.386145625019179e+00
 5.465256515499962e-01	 8.745205970520447e-01	 1.211124295289243e+00
 5.285544401113488e-01	 8.854980329192457e-01	 1.047037188331524e+00
 5.104091382674085e-01	 8.960798368640223e-01	 8.919213742192817e-01
 4.921025516479172e-01	 9.062624570838039e-01	 7.438433081183670e-01
 4.736475490869367e-01	 9.160428820201030e-01	 6.009210943174070e-01
 4.550570348704374e-01	 9.254186390328553e-01	 4.613456911041378e-01
 4.363439213582029e-01	 9.343877914163433e-01	 3.234008556907484e-01
 4.175211020913402e-01	 9.429489338045740e-01	 1.854816495774285e-01
 3.986014254911208e-01	 9.511011860221212e-01	 4.611134767549041e-02
 3.795976692486892e-01	 9.588441854439034e-01	-9.604338120271949e-02
 5.677301191277159e-01	 8.683828428822506e-01	 1.608247149215565e+00
 5.498379282272422e-01	 8.798207218831462e-01	 1.416199845285945e+00
 5.317578003561012e-01	 8.908646876651093e-01	 1.236184866112768e+00
 5.135025269862087e-01	 9.015106237553792e-01	 1.066174295062662e+00
 4.950849913571840e-01	 9.117549568253086e-01	 9.041661276684807e-01
 4.765181402960235e-01	 9.215946570645411e-01	 7.482071772292227e-01
 4.578149562964917e-01	 9.310272368473156e-01	 5.964149176931570e-01
 4.389884299750991e-01	 9.400507477303033e-01	 4.469980572807610e-01
 4.200515330156271e-01	 9.486637758301429e-01	 2.982756578112895e-01
 4.010171917085680e-01	 9.568654356370115e-01	 1.486946380198886e-01
 3.818982611856199e-01	 9.646553623281005e-01	-3.154476126334238e-03
 5.711501800874307e-01	 8.736140648273601e-01	 1.822014892793265e+00
 5.531502049048879e-01	 8.851208467144429e-01	 1.613191335687718e+00
 5.349611606011688e-01	 8.962313424113215e-01	 1.417487789273213e+00
 5.165959157052494e-01	 9.069414106472075e-01	 1.232809875309757e+00
 4.980674310666273e-01	 9.172474565673775e-01	 1.057085704835565e+00
 4.793887315052324e-01	 9.271464321096057e-01	 8.882894335521142e-01
 4.605728777226239e-01	 9.366358346624336e-01	 7.244637504106144e-01
 4.416329385920389e-01	 9.457137040449229e-01	 5.637410870533799e-01
 4.225819639399335e-01	 9.543786178563439e-01	 4.043633575988059e-01
 4.034329579260200e-01	 9.626296852524771e-01	 2.447000619837907e-01
 3.841988531225504e-01	 9.704665392127868e-01	 8.326461122744466e-02
 5.745702410476402e-01	 8.788452867724807e-01	 2.027508411409032e+00
 5.564624815829332e-01	 8.904209715459345e-01	 1.802159500320498e+00
 5.381645208465516e-01	 9.015979971578829e-01	 1.591008167571807e+00
 5.196893044245311e-01	 9.123721975395076e-01	 1.391892086845262e+00
 5.010498707762467e-01	 9.227399563100103e-01	 1.202668047690346e+00
 4.822593227145632e-01	 9.326982071552959e-01	 1.021236168976960e+00
 4.633307991488338e-01	 9.422444324782093e-01	 8.455630409609327e-01
 4.442774472090224e-01	 9.513766603602027e-01	 6.737035777389198e-01
 4.251123948642589e-01	 9.600934598831772e-01	 5.038213840636807e-01
 4.058487241434767e-01	 9.683939348685179e-01	 3.342074646095048e-01
 3.864994450594811e-01	 9.762777160979634e-01	 1.632971293853622e-01
 5.779903020083443e-01	 8.840765087176113e-01	 2.224784671024506e+00
 5.597747582613782e-01	 8.957210963776211e-01	 1.983162511900722e+00
 5.413678810922493e-01	 9.069646519047926e-01	 1.756805672033309e+00
 5.227826931440533e-01	 9.178029844322793e-01	 1.543482378992165e+00
 5.040323104860427e-01	 9.282324560532074e-01	 1.340976651724592e+00
 4.851299139240161e-01	 9.382499822016119e-01	 1.147113180445702e+00
 4.660887205751217e-01	 9.478530302946427e-01	 9.597811300256300e-01
 4.469219558260496e-01	 9.570396166761423e-01	 7.769566427304424e-01
 4.276428257886037e-01	 9.658083019106425e-01	 5.967238387115761e-01
 4.082644903609384e-01	 9.741581844851345e-01	 4.172941371701051e-01
 3.888000369964116e-01	 9.820888929836291e-01	 2.370237471826313e-01
 5.814103629695434e-01	 8.893077306627528e-01	 2.413898124073250e+00
 5.630870349402235e-01	 9.010212212095035e-01	 2.156256057361266e+00
 5.445712413382625e-01	 9.123313066520512e-01	 1.914937509617972e+00
 5.258760818638161e-01	 9.232337713255228e-01	 1.687639752701829e+00
 5.070147501960148e-01	 9.337249557969681e-01	 1.472072573749748e+00
 4.880005051335911e-01	 9.438017572485543e-01	 1.265983829938389e+00
 4.688466420014874e-01	 9.534616281117341e-01	 1.067183921117486e+00
 4.495664644431204e-01	 9.627025729927415e-01	 8.735689501812669e-01
 4.301732567129680e-01	 9.715231439387403e-01	 6.831423639504670e-01
 4.106802565784049e-01	 9.799224341023263e-01	 4.940348922796443e-01
 3.911006289333422e-01	 9.879000698697851e-01	 3.045226296367005e-01
 3.680947095640363e-01	 9.297883010302649e-01	-6.606396068095659e-01
 3.495975907771368e-01	 9.368999543523497e-01	-6.600152052693602e-01
 3.310434199775671e-01	 9.436155223571460e-01	-6.498112492015804e-01
 3.124442408950447e-01	 9.499361011546517e-01	-6.312342438187599e-01
 2.938119377279355e-01	 9.558632460744549e-01	-6.053712539548290e-01
 2.751582148638955e-01	 9.613989581557346e-01	-5.731814819187564e-01
 2.564945776994927e-01	 9.665456696731550e-01	-5.354895394313584e-01
 2.378323146029685e-01	 9.713062287906586e-01	-4.929804046399107e-01
 2.191824800562900e-01	 9.756838834365028e-01	-4.461960359854680e-01
 2.005558790047262e-01	 9.796822644935033e-01	-3.955335969188032e-01
 1.819630524344169e-01	 9.833053683983746e-01	-3.412452293190853e-01
 3.703953015009669e-01	 9.355994779120133e-01	-5.340569248971909e-01
 3.517825757213222e-01	 9.427555790678886e-01	-5.449051065276846e-01
 3.331124413538995e-01	 9.495131193731492e-01	-5.457434052246699e-01
 3.143970174017274e-01	 9.558732017884815e-01	-5.378015935515073e-01
 2.956482623394123e-01	 9.618373913642837e-01	-5.221897952950445e-01
 2.768779537070334e-01	 9.674077016462316e-01	-4.998898019991747e-01
 2.580976688098884e-01	 9.725865801107073e-01	-4.717481088970135e-01
 2.393187665685206e-01	 9.773768927226786e-01	-4.384706620826999e-01
 2.205523705554100e-01	 9.817819077099564e-01	-4.006192891735258e-01
 2.018093532467343e-01	 9.858052786483757e-01	-3.586097676116453e-01
 1.831003215097977e-01	 9.894510269523811e-01	-3.127114682456194e-01
 3.726958934378975e-01	 9.414106547942513e-01	-4.144018554326925e-01
 3.539675606655132e-01	 9.486112037838230e-01	-4.364053386173590e-01
 3.351814627302535e-01	 9.554107163894632e-01	-4.479917624128271e-01
 3.163497939084583e-01	 9.618103024225479e-01	-4.504152095935892e-01
 2.974845869509741e-01	 9.678115366542858e-01	-4.448097921373808e-01
 2.785976925503037e-01	 9.734164451368483e-01	-4.321807042056371e-01
 2.597007599204735e-01	 9.786274905483355e-01	-4.133970206380120e-01
 2.408052185343291e-01	 9.834475566547415e-01	-3.891862336413925e-01
 2.219222610548632e-01	 9.878799319834292e-01	-3.601305003798578e-01
 2.030628274891619e-01	 9.919282928032523e-01	-3.266645557099013e-01
 1.842375905856931e-01	 9.955966855063876e-01	-2.890752274954420e-01
 3.749964853748279e-01	 9.472218316769787e-01	-3.015770118787342e-01
 3.561525456097095e-01	 9.544668285001520e-01	-3.344193403945463e-01
 3.372504841066288e-01	 9.613083134060882e-01	-3.564603857509501e-01
 3.183025704152371e-01	 9.677474030568510e-01	-3.689795904208744e-01
 2.993209115626208e-01	 9.737856819444610e-01	-3.731359905552476e-01
 2.803174313937061e-01	 9.794251886275849e-01	-3.699590031317439e-01
 2.613038510312481e-01	 9.846684009860400e-01	-3.603409855486590e-01
 2.422916705003941e-01	 9.895182205868467e-01	-3.450315611535708e-01
 2.232921515546495e-01	 9.939779562569203e-01	-3.246336838574737e-01
 2.043163017320087e-01	 9.980513069581338e-01	-2.996013961379296e-01
 1.853748596621032e-01	 1.001742344060394e+00	-2.702392176146629e-01
 3.772970773117587e-01	 9.530330085601965e-01	-1.954880108694605e-01
 3.583375305539111e-01	 9.603224532168760e-01	-2.388534789019454e-01
 3.393195054830256e-01	 9.672059104230238e-01	-2.710561999448640e-01
 3.202553469220640e-01	 9.736845036913914e-01	-2.934020323197792e-01
 3.011572361743527e-01	 9.797598272348095e-01	-3.070758790941257e-01
 2.820371702372408e-01	 9.854339321184409e-01	-3.131322070819373e-01
 2.629069421422121e-01	 9.907093114238208e-01	-3.124873660341221e-01
 2.437781224667155e-01	 9.955888845189943e-01	-3.059137023037350e-01
 2.246620420547690e-01	 1.000075980530430e+00	-2.940354405402612e-01
 2.055697759752747e-01	 1.004174321113020e+00	-2.773262877706482e-01
 1.865121287390279e-01	 1.007888002614401e+00	-2.561086967374120e-01
 3.795976692486892e-01	 9.588441854439034e-01	-9.604338120271949e-02
 3.605225154981182e-01	 9.661780779339951e-01	-1.496169606368394e-01
 3.413885268594440e-01	 9.731035074402699e-01	-1.916889027637081e-01
 3.222081234289389e-01	 9.796216043261682e-01	-2.235925446035019e-01
 3.029935607861696e-01	 9.857339725253310e-01	-2.465396056644726e-01
 2.837569090809076e-01	 9.914426756094166e-01	-2.616104364408507e-01
 2.645100332533655e-01	 9.967502218616775e-01	-2.697460956632036e-01
 2.452645744332935e-01	 1.001659548451185e+00	-2.717422513577761e-01
 2.260319325552216e-01	 1.006174004803959e+00	-2.682448796585324e-01
 2.068232502189601e-01	 1.010297335267911e+00	-2.597477157368280e-01
 1.876493978164674e-01	 1.014033661168407e+00	-2.465913933858808e-01
 3.818982611856199e-01	 9.646553623281005e-01	-3.154476126334238e-03
 3.627075004423307e-01	 9.720337026515093e-01	-6.662174602446425e-02
 3.434575482358837e-01	 9.790011044578270e-01	-1.182708815140787e-01
 3.241608999358621e-01	 9.855587049611820e-01	-1.594637678962676e-01
 3.048298853980715e-01	 9.917081178160257e-01	-1.914398974419060e-01
 2.854766479247068e-01	 9.974514191005122e-01	-2.153063449977553e-01
 2.661131243647083e-01	 1.002791132299611e+00	-2.320296017202654e-01
 2.467510264001279e-01	 1.007730212383418e+00	-2.424292627593854e-01
 2.274018230560075e-01	 1.012272029077507e+00	-2.471735431893203e-01
 2.080767244630648e-01	 1.016420349422806e+00	-2.467765765355066e-01
 1.887866668944215e-01	 1.020179319722414e+00	-2.415974320632568e-01
 3.841988531225504e-01	 9.704665392127868e-01	 8.326461122744466e-02
 3.648924853865486e-01	 9.778893273694184e-01	 1.021753303495365e-02
 3.455265696123448e-01	 9.848987014756949e-01	-5.071713251374677e-02
 3.261136764428331e-01	 9.914958055964326e-01	-1.009308953493560e-01
 3.066662100100585e-01	 9.976822631068936e-01	-1.416919836437303e-01
 2.871963867686382e-01	 1.003460162591727e+00	-1.741350440960261e-01
 2.677162154762406e-01	 1.008832042737620e+00	-1.992527305459930e-01
 2.482374783672188e-01	 1.013800876315694e+00	-2.178891774720317e-01
 2.287717135571265e-01	 1.018370053351074e+00	-2.307353330175843e-01
 2.093301987075888e-01	 1.022543363577707e+00	-2.383261058360557e-01
 1.899239359728903e-01	 1.026324978276420e+00	-2.410392615160211e-01
 3.864994450594811e-01	 9.762777160979634e-01	 1.632971293853622e-01
 3.670774703307718e-01	 9.837449520877224e-01	 8.098365267434549e-02
 3.475955909888275e-01	 9.907962984938734e-01	 1.105481655519913e-02
 3.280664529498523e-01	 9.974329062319202e-01	-4.791159667527189e-02
 3.085025346221306e-01	 1.003656408397935e+00	-9.721352106224046e-02
 2.889161256127017e-01	 1.009468906083062e+00	-1.380140294919672e-01
 2.693193065879623e-01	 1.014872953175705e+00	-1.713326755401314e-01
 2.497239303345661e-01	 1.019871540248013e+00	-1.980387519514677e-01
 2.301416040585787e-01	 1.024468077624660e+00	-2.188464407019439e-01
 2.105836729525321e-01	 1.028666377732611e+00	-2.343118088610834e-01
 1.910612050518737e-01	 1.032470636830427e+00	-2.448315855597691e-01
 3.888000369964116e-01	 9.820888929836291e-01	 2.370237471826313e-01
 3.692624552750004e-01	 9.896005768064214e-01	 1.457568737441917e-01
 3.496646123653316e-01	 9.966938955123624e-01	 6.712498154115787e-02
 3.300192294569195e-01	 1.003370006867644e+00	-3.259448748962335e-04
 3.103388592342877e-01	 1.009630553689149e+00	-5.792452224393507e-02
 2.906358644568975e-01	 1.015477649574516e+00	-1.068631108086970e-01
 2.709223976998735e-01	 1.020913863613867e+00	-1.481889077221448e-01
 2.512103823021700e-01	 1.025942204180373e+00	-1.827969896391521e-01
 2.315114945603640e-01	 1.030566101898264e+00	-2.114252797331515e-01
 2.118371471978947e-01	 1.034789391887521e+00	-2.346513932401528e-01
 1.921984741313718e-01	 1.038616295384433e+00	-2.528912963625012e-01
 3.911006289333422e-01	 9.879000698697851e-01	 3.045226296367005e-01
 3.714474402192345e-01	 9.954562015255159e-01	 2.046150157932529e-01
 3.517336337418573e-01	 1.002591492531163e+00	 1.175709940711891e-01
 3.319720059640349e-01	 1.009307107503605e+00	 4.190365444644550e-02
 3.121751838465298e-01	 1.015604698980536e+00	-2.374728620228028e-02
 2.923556033012256e-01	 1.021486393066090e+00	-8.060434348294532e-02
 2.725254888119741e-01	 1.026954774052105e+00	-1.297431087431478e-01
 2.526968342700303e-01	 1.032012868112777e+00	-1.720850748770122e-01
 2.328813850624824e-01	 1.036664126171887e+00	-2.083924201823466e-01
 2.130906214436766e-01	 1.040912406042435e+00	-2.392647042333551e-01
 1.933357432113846e-01	 1.044761953938440e+00	-2.651374100808201e-01
 1.819630524344169e-01	 9.833053683983746e-01	-3.412452293190853e-01
 1.634142641907509e-01	 9.865575392429453e-01	-2.827315355314703e-01
 1.449194890435836e-01	 9.894434504702300e-01	-2.324012203308441e-01
 1.264884019976694e-01	 9.919680862544974e-01	-1.902001187580771e-01
 1.081303688402294e-01	 9.941367226520524e-01	-1.559033309171545e-01
 8.985443791194073e-02	 9.959549086084808e-01	-1.291225059146974e-01
 7.166933308134309e-02	 9.974284469032259e-01	-1.093141880248432e-01
 5.358344789747966e-02	 9.985633751090948e-01	-9.578908904895300e-02
 3.560484089073371e-02	 9.993659466402712e-01	-8.772214961244984e-02
 1.774123198744578e-02	 9.998426119581703e-01	-8.416325266390867e-02
 0.000000000000000e+00	 1.000000000000000e+00	-8.404845456195975e-02
 1.831003215097977e-01	 9.894510269523811e-01	-3.127114682456194e-01
 1.644356033391195e-01	 9.927235238644349e-01	-2.638885220440028e-01
 1.458252358469621e-01	 9.956274720366282e-01	-2.218727382064798e-01
 1.272789545068563e-01	 9.981678867943174e-01	-1.866241626183149e-01
 1.088061836421906e-01	 1.000350077169160e+00	-1.579341643751695e-01
 9.041602814576831e-02	 1.002179626787651e+00	-1.354325418886768e-01
 7.211726641030418e-02	 1.003662374696605e+00	-1.185957026072018e-01
 5.391834444451954e-02	 1.004804396203657e+00	-1.067557801497419e-01
 3.582737114460929e-02	 1.005611983806831e+00	-9.911055130212798e-02
 1.785211468645011e-02	 1.006091628282923e+00	-9.473401575177842e-02
 0.000000000000000e+00	 1.006250000000000e+00	-9.258750346535916e-02
 1.842375905856931e-01	 9.955966855063876e-01	-2.890752274954420e-01
 1.654569424880868e-01	 9.988895084859243e-01	-2.497517673326750e-01
 1.467309826509914e-01	 1.001811493603026e+00	-2.159023723974238e-01
 1.280695070167153e-01	 1.004367687334138e+00	-1.875011294363120e-01
 1.094819984448147e-01	 1.006563431686269e+00	-1.643553724407991e-01
 9.097761838021945e-02	 1.008404344966822e+00	-1.461126166939470e-01
 7.256519973982017e-02	 1.009896302489984e+00	-1.322685782864479e-01
 5.425324099201707e-02	 1.011045417298220e+00	-1.221761426657428e-01
 3.604990139881718e-02	 1.011858020973390e+00	-1.150551443094692e-01
 1.796299738563396e-02	 1.012340644607676e+00	-1.100028199380008e-01
 0.000000000000000e+00	 1.012500000000000e+00	-1.060047996389404e-01
 1.853748596621032e-01	 1.001742344060394e+00	-2.702392176146629e-01
 1.664782816376526e-01	 1.005055493107414e+00	-2.402256686087054e-01
 1.476367294556716e-01	 1.007995515169424e+00	-2.143958032004760e-01
 1.288600595272464e-01	 1.010567487873958e+00	-1.927375865785925e-01
 1.101578132481015e-01	 1.012776786203377e+00	-1.750740215100617e-01
 9.153920861529408e-02	 1.014629063145992e+00	-1.610699160584157e-01
 7.301313306989110e-02	 1.016130230283363e+00	-1.502397491032461e-01
 5.458813753997226e-02	 1.017286438392782e+00	-1.419564969072766e-01
 3.627243165335736e-02	 1.018104058139949e+00	-1.354612824052888e-01
 1.807388008499735e-02	 1.018589660932429e+00	-1.298737091081561e-01
 0.000000000000000e+00	 1.018750000000000e+00	-1.242027433906223e-01
 1.865121287390279e-01	 1.007888002614401e+00	-2.561086967374120e-01
 1.674996207878170e-01	 1.011221477728904e+00	-2.352170984111712e-01
 1.485424762610026e-01	 1.014179536735822e+00	-2.172611267958793e-01
 1.296506120384496e-01	 1.016767288413778e+00	-2.022424705303463e-01
 1.108336280520510e-01	 1.018990140720485e+00	-1.899995128465561e-01
 9.210079885099220e-02	 1.020853781325163e+00	-1.802139386615544e-01
 7.346106640051696e-02	 1.022364158076741e+00	-1.724184522621055e-01
 5.492303408838512e-02	 1.023527459487344e+00	-1.660054684600625e-01
 3.649496190822983e-02	 1.024350095306509e+00	-1.602366384041964e-01
 1.818476278454025e-02	 1.024838677257182e+00	-1.542530713526542e-01
 0.000000000000000e+00	 1.025000000000000e+00	-1.470861155080967e-01
 1.876493978164674e-01	 1.014033661168407e+00	-2.465913933858808e-01
 1.685209599385800e-01	 1.017387462350393e+00	-2.346353295983525e-01
 1.494482230669846e-01	 1.020363558302220e+00	-2.244087820398510e-01
 1.304411645503248e-01	 1.022967088953598e+00	-2.159270151014532e-01
 1.115094428566634e-01	 1.025203495237592e+00	-2.090435118279470e-01
 9.266238908731386e-02	 1.027078499504333e+00	-2.034564260448688e-01
 7.390899973169777e-02	 1.028598085870120e+00	-1.987161583369255e-01
 5.525793063725560e-02	 1.029768480581907e+00	-1.942339183286492e-01
 3.671749216343461e-02	 1.030596132473068e+00	-1.892911338908223e-01
 1.829564548426268e-02	 1.031087693581935e+00	-1.830495679283288e-01
 0.000000000000000e+00	 1.031250000000000e+00	-1.745620051237764e-01
 1.887866668944215e-01	 1.020179319722414e+00	-2.415974320632568e-01
 1.695422990899416e-01	 1.023553446971883e+00	-2.383919630487386e-01
 1.503539698736174e-01	 1.026547579868618e+00	-2.357514799009186e-01
 1.312317170628722e-01	 1.029166889493419e+00	-2.337046822310467e-01
 1.121852576619385e-01	 1.031416849754700e+00	-2.321198797506758e-01
 9.322397932425906e-02	 1.033303217683504e+00	-2.307112950566390e-01
 7.435693306343355e-02	 1.034832013663499e+00	-2.290465040021199e-01
 5.559282718658375e-02	 1.036009501676469e+00	-2.265548756035614e-01
 3.694002241897168e-02	 1.036842169639627e+00	-2.225368714836082e-01
 1.840652818416463e-02	 1.037336709906688e+00	-2.161740647924986e-01
 0.000000000000000e+00	 1.037500000000000e+00	-2.065397401853577e-01
 1.899239359728903e-01	 1.026324978276420e+00	-2.410392615160211e-01
 1.705636382419018e-01	 1.029719431593373e+00	-2.464008579595776e-01
 1.512597166809012e-01	 1.032731601435016e+00	-2.512041354328054e-01
 1.320222695760916e-01	 1.035366690033239e+00	-2.554910952769496e-01
 1.128610724678764e-01	 1.037630204271808e+00	-2.591446080824635e-01
 9.378556956182779e-02	 1.039527935862675e+00	-2.618945727218662e-01
 7.480486639572421e-02	 1.041065941456877e+00	-2.633252271787385e-01
 5.592772373636954e-02	 1.042250522771031e+00	-2.628834725495865e-01
 3.716255267484104e-02	 1.043088206806186e+00	-2.598880695366659e-01
 1.851741088424612e-02	 1.043585726231440e+00	-2.535395665911975e-01
 0.000000000000000e+00	 1.043750000000000e+00	-2.429308204261358e-01
 1.910612050518737e-01	 1.032470636830427e+00	-2.448315855597691e-01
 1.715849773944606e-01	 1.035885416214862e+00	-2.585780646343960e-01
 1.521654634888358e-01	 1.038915623001414e+00	-2.706838021765061e-01
 1.328128220899832e-01	 1.041566490573059e+00	-2.812039746874966e-01
 1.135368872744771e-01	 1.043843558788917e+00	-2.900357550649821e-01
 9.434715980002001e-02	 1.045752654041845e+00	-2.969243334405616e-01
 7.525279972856985e-02	 1.047299869250256e+00	-3.014701044979482e-01
 5.626262028661300e-02	 1.048491543865594e+00	-3.031368820107549e-01
 3.738508293104270e-02	 1.049334243972746e+00	-3.012609991706561e-01
 1.862829358450712e-02	 1.049834742556193e+00	-2.950611530093381e-01
 0.000000000000000e+00	 1.050000000000000e+00	-2.836488527282470e-01
 1.921984741313718e-01	 1.038616295384433e+00	-2.528912963625012e-01
 1.726063165476180e-01	 1.042051400836352e+00	-2.748417596591164e-01
 1.530712102974213e-01	 1.045099644567812e+00	-2.941096088917527e-01
 1.336033746045468e-01	 1.047766291112880e+00	-3.107630759575724e-01
 1.142127020817405e-01	 1.050056913306025e+00	-3.247133845672892e-01
 9.490875003883573e-02	 1.051977372221015e+00	-3.357206384138878e-01
 7.570073306197043e-02	 1.053533797043635e+00	-3.434008909832476e-01
 5.659751683731409e-02	 1.054732564960156e+00	-3.472342570385454e-01
 3.760761318757667e-02	 1.055580281139305e+00	-3.465739235391454e-01
 1.873917628494765e-02	 1.056083758880946e+00	-3.406559173789594e-01
 0.000000000000000e+00	 1.056250000000000e+00	-3.286094887810735e-01
 1.933357432113846e-01	 1.044761953938440e+00	-2.651374100808201e-01
 1.736276557013740e-01	 1.048217385457841e+00	-2.951121833621815e-01
 1.539769571066577e-01	 1.051283666134210e+00	-3.214026985209641e-01
 1.343939271197825e-01	 1.053966091652700e+00	-3.440901297746932e-01
 1.148885168896667e-01	 1.056270267823133e+00	-3.630995070957508e-01
 9.547034027827500e-02	 1.058202090400186e+00	-3.782054772088586e-01
 7.614866639592593e-02	 1.059767724837014e+00	-3.890392618629894e-01
 5.693241338847285e-02	 1.060973586054718e+00	-3.950966726497969e-01
 3.783014344444292e-02	 1.061826318305864e+00	-3.957470392407587e-01
 1.885005898556771e-02	 1.062332775205699e+00	-3.902429074536338e-01
 0.000000000000000e+00	 1.062500000000000e+00	-3.777303649399113e-01
 1.062500000000000e+00	 0.000000000000000e+00	 2.485997379420456e+01
 1.062332775205699e+00	 1.885005898556710e-02	 2.492914342715131e+01
 1.061826318305864e+00	 3.783014344444238e-02	 2.495235243524404e+01
 1.060973586054718e+00	 5.693241338847238e-02	 2.492879821396621e+01
 1.059767724837014e+00	 7.614866639592552e-02	 2.485772149733994e+01
 1.058202090400186e+00	 9.547034027827464e-02	 2.473840641270567e+01
 1.056270267823132e+00	 1.148885168896664e-01	 2.457018033674900e+01
 1.053966091652700e+00	 1.343939271197823e-01	 2.435241356802990e+01
 1.051283666134210e+00	 1.539769571066575e-01	 2.408451883514336e+01
 1.048217385457842e+00	 1.736276557013739e-01	 2.376595066346876e+01
 1.044761953938440e+00	 1.933357432113846e-01	 2.339620462717144e+01
 1.068750000000000e+00	 0.000000000000000e+00	 2.452760999107113e+01
 1.068581791530452e+00	 1.896094168618715e-02	 2.460295759795452e+01
 1.068072355472424e+00	 3.805267370130863e-02	 2.463232507102694e+01
 1.067214607149281e+00	 5.726730993963111e-02	 2.461489521584703e+01
 1.066001652630393e+00	 7.659659972988102e-02	 2.454989375115593e+01
 1.064426808579356e+00	 9.603193051771391e-02	 2.443658934292485e+01
 1.062483622340241e+00	 1.155643316975926e-01	 2.427429344022186e+01
 1.060165892192520e+00	 1.351844796350180e-01	 2.406235992869171e+01
 1.057467687700608e+00	 1.548827039158939e-01	 2.380018462137025e+01
 1.054383370079331e+00	 1.746489948551299e-01	 2.348720461042849e+01
 1.050907612492446e+00	 1.944730122913974e-01	 2.312289750719085e+01
 1.075000000000000e+00	 0.000000000000000e+00	 2.420723711376416e+01
 1.074830807855205e+00	 1.907182438662768e-02	 2.428856034300271e+01
 1.074318392638983e+00	 3.827520395784258e-02	 2.432388922100176e+01
 1.073455628243843e+00	 5.760220649033222e-02	 2.431239256785783e+01
 1.072235580423771e+00	 7.704453306328159e-02	 2.425328168981849e+01
 1.070651526758527e+00	 9.659352075652965e-02	 2.414581038962452e+01
 1.068696976857349e+00	 1.162401465048560e-01	 2.398927477911167e+01
 1.066365692732341e+00	 1.359750321495816e-01	 2.378301291042225e+01
 1.063651709267006e+00	 1.557884507244794e-01	 2.352640424615614e+01
 1.060549354700821e+00	 1.756703340082873e-01	 2.321886899271632e+01
 1.057053271046452e+00	 1.956102813708955e-01	 2.285986732489516e+01
 1.081250000000000e+00	 0.000000000000000e+00	 2.389867989405288e+01
 1.081079824179958e+00	 1.918270708688868e-02	 2.398577755846437e+01
 1.080564429805542e+00	 3.849773421404425e-02	 2.402687191238693e+01
 1.079696649338405e+00	 5.793710304057566e-02	 2.402111839357280e+01
 1.078469508217150e+00	 7.749246639612721e-02	 2.396771449719896e+01
 1.076876244937698e+00	 9.715511099472188e-02	 2.386589975952829e+01
 1.074910331374456e+00	 1.169159613114567e-01	 2.371495554413960e+01
 1.072565493272161e+00	 1.367655846634732e-01	 2.351420464764852e+01
 1.069835730833404e+00	 1.566941975324140e-01	 2.326301074587664e+01
 1.066715339322311e+00	 1.766916731608461e-01	 2.296077770540169e+01
 1.063198929600459e+00	 1.967475504498789e-01	 2.260694878926185e+01
 1.087500000000000e+00	 0.000000000000000e+00	 2.360176709286191e+01
 1.087328840504710e+00	 1.929358978697016e-02	 2.369443911520508e+01
 1.086810466972102e+00	 3.872026446991361e-02	 2.374110409388827e+01
 1.085937670432968e+00	 5.827199959036147e-02	 2.374090468619995e+01
 1.084703436010529e+00	 7.794039972841793e-02	 2.369302517641410e+01
 1.083100963116868e+00	 9.771670123229059e-02	 2.359669142979157e+01
 1.081123685891564e+00	 1.175917761173946e-01	 2.345117064932849e+01
 1.078765293811981e+00	 1.375561371766926e-01	 2.325577095276188e+01
 1.076019752399802e+00	 1.575999443396977e-01	 2.300984079143447e+01
 1.072881323943800e+00	 1.777130123128063e-01	 2.271276823665140e+01
 1.069344588154466e+00	 1.978848195283477e-01	 2.236398016304873e+01
 1.093750000000000e+00	 0.000000000000000e+00	 2.331633138515242e+01
 1.093577856829463e+00	 1.940447248687211e-02	 2.341437874522500e+01
 1.093056504138661e+00	 3.894279472545068e-02	 2.346642052365629e+01
 1.092178691527530e+00	 5.860689613968959e-02	 2.347158719801990e+01
 1.090937363803908e+00	 7.838833306015368e-02	 2.342905044070481e+01
 1.089325681296038e+00	 9.827829146923577e-02	 2.333802304027480e+01
 1.087337040408672e+00	 1.182675909226697e-01	 2.319775862562285e+01
 1.084965094351801e+00	 1.383466896892400e-01	 2.300755121103303e+01
 1.082203773966200e+00	 1.585056911463306e-01	 2.276673458441586e+01
 1.079047308565290e+00	 1.787343514641679e-01	 2.247468156506972e+01
 1.075490246708472e+00	 1.990220886063018e-01	 2.213080316125727e+01
 1.100000000000000e+00	 0.000000000000000e+00	 2.304220924872797e+01
 1.099826873154216e+00	 1.951535518659454e-02	 2.314543393196741e+01
 1.099302541305220e+00	 3.916532498065545e-02	 2.320265966106336e+01
 1.098419712622092e+00	 5.894179268856010e-02	 2.321300533359425e+01
 1.097171291597286e+00	 7.883626639133445e-02	 2.317563060803489e+01
 1.095550399475209e+00	 9.883988170555745e-02	 2.308973578948950e+01
 1.093550394925781e+00	 1.189434057272821e-01	 2.295456151813551e+01
 1.091164894891622e+00	 1.391372422011153e-01	 2.276938827910993e+01
 1.088387795532598e+00	 1.594114379523125e-01	 2.253353575678697e+01
 1.085213293186780e+00	 1.797556906149309e-01	 2.224636206053824e+01
 1.081635905262479e+00	 2.001593576837413e-01	 2.190726285305758e+01
 1.106250000000000e+00	 0.000000000000000e+00	 2.277924085680958e+01
 1.106075889478969e+00	 1.962623788613744e-02	 2.288744580434571e+01
 1.105548578471779e+00	 3.938785523552792e-02	 2.294966356214958e+01
 1.104660733716655e+00	 5.927668923697292e-02	 2.296500204659361e+01
 1.103405219390665e+00	 7.928419972196032e-02	 2.293260949926265e+01
 1.101775117654379e+00	 9.940147194125559e-02	 2.285167433407134e+01
 1.099763749442888e+00	 1.196192205312317e-01	 2.272142478687718e+01
 1.097364695431442e+00	 1.399277947123184e-01	 2.254112838695634e+01
 1.094571817098996e+00	 1.603171847576436e-01	 2.231009127399056e+01
 1.091379277808269e+00	 1.807770297650953e-01	 2.202765738841699e+01
 1.087781563816485e+00	 2.012966267606660e-01	 2.169320756703796e+01
 1.112500000000000e+00	 0.000000000000000e+00	 2.252726997423174e+01
 1.112324905803722e+00	 1.973712058550081e-02	 2.264025903434265e+01
 1.111794615638339e+00	 3.961038549006810e-02	 2.270727777859251e+01
 1.110901754811217e+00	 5.961158578492812e-02	 2.272742374010368e+01
 1.109639147184044e+00	 7.973213305203126e-02	 2.269983433974510e+01
 1.107999835833550e+00	 9.996306217633021e-02	 2.262368669164166e+01
 1.105977103959996e+00	 1.202950353345184e-01	 2.249819721083236e+01
 1.103564495971262e+00	 1.407183472228495e-01	 2.232262104309573e+01
 1.100755838665394e+00	 1.612229315623238e-01	 2.209625134130907e+01
 1.097545262429759e+00	 1.817983689146612e-01	 2.181841841697492e+01
 1.093927222370492e+00	 2.024338958370761e-01	 2.148848879964801e+01
 1.118750000000000e+00	 0.000000000000000e+00	 2.228614385711813e+01
 1.118573922128475e+00	 1.984800328468466e-02	 2.240372173804171e+01
 1.118040652804898e+00	 3.983291574427597e-02	 2.247535126006384e+01
 1.117142775905779e+00	 5.994648233242565e-02	 2.250012017027272e+01
 1.115873074977423e+00	 8.018006638154726e-02	 2.247715566424009e+01
 1.114224554012720e+00	 1.005246524107813e-01	 2.240562414692543e+01
 1.112190458477105e+00	 1.209708501371425e-01	 2.228473079525071e+01
 1.109764296511083e+00	 1.415088997327085e-01	 2.211371894303122e+01
 1.106939860231791e+00	 1.621286783663531e-01	 2.189186931336612e+01
 1.103711247051248e+00	 1.828197080636284e-01	 2.161849912792320e+01
 1.100072880924498e+00	 2.035711649129715e-01	 2.129296112671111e+01
 1.125000000000000e+00	 0.000000000000000e+00	 2.205571315590126e+01
 1.124822938453228e+00	 1.995888598368899e-02	 2.217768537995793e+01
 1.124286689971457e+00	 4.005544599815156e-02	 2.225373625984058e+01
 1.123383797000342e+00	 6.028137887946552e-02	 2.228294435317100e+01
 1.122107002770802e+00	 8.062799971050830e-02	 2.226442722497856e+01
 1.120449272191891e+00	 1.010862426446089e-01	 2.219734116099822e+01
 1.118403812994212e+00	 1.216466649391038e-01	 2.208088068202844e+01
 1.115964097050903e+00	 1.422994522418954e-01	 2.191427788071865e+01
 1.113123881798190e+00	 1.630344251697315e-01	 2.169680160664502e+01
 1.109877231672738e+00	 1.838410472119971e-01	 2.142775652993059e+01
 1.106218539478505e+00	 2.047084339883523e-01	 2.110648211788613e+01
 1.044761953938440e+00	 1.933357432113846e-01	 2.339620462717144e+01
 1.040912406042436e+00	 2.130906214436760e-01	 2.315011086446768e+01
 1.036664126171887e+00	 2.328813850624820e-01	 2.285334821244397e+01
 1.032012868112777e+00	 2.526968342700299e-01	 2.250622235917235e+01
 1.026954774052105e+00	 2.725254888119737e-01	 2.210909433148453e+01
 1.021486393066090e+00	 2.923556033012253e-01	 2.166237730074812e+01
 1.015604698980536e+00	 3.121751838465296e-01	 2.116653331242703e+01
 1.009307107503605e+00	 3.319720059640348e-01	 2.062206999031608e+01
 1.002591492531163e+00	 3.517336337418573e-01	 2.002953726807812e+01
 9.954562015255156e-01	 3.714474402192345e-01	 1.938952420166419e+01
 9.879000698697850e-01	 3.911006289333422e-01	 1.870265591630233e+01
 1.050907612492446e+00	 1.944730122913974e-01	 2.312289750719085e+01
 1.047035420197350e+00	 2.143440956894556e-01	 2.288663036945331e+01
 1.042762150445510e+00	 2.342512755645911e-01	 2.260025756604258e+01
 1.038083532045181e+00	 2.541832862378689e-01	 2.226410048434476e+01
 1.032995684490343e+00	 2.741285799240362e-01	 2.187853379312313e+01
 1.027495136557664e+00	 2.940753421454934e-01	 2.144398206502544e+01
 1.021578844271924e+00	 3.140115084586851e-01	 2.096091633073604e+01
 1.015244208139567e+00	 3.339247824710317e-01	 2.042985061766055e+01
 1.008489089549963e+00	 3.538026551182274e-01	 1.985133852777446e+01
 1.001311826244610e+00	 3.736324251632710e-01	 1.922596991019973e+01
 9.937112467559408e-01	 3.934012208700279e-01	 1.855436768413180e+01
 1.057053271046452e+00	 1.956102813708955e-01	 2.285986732489516e+01
 1.053158434352260e+00	 2.155975699348112e-01	 2.263342300245838e+01
 1.048860174719115e+00	 2.356211660663481e-01	 2.235743950307273e+01
 1.044154195977542e+00	 2.556697382054088e-01	 2.203225403677627e+01
 1.039036594928505e+00	 2.757316710358331e-01	 2.165825501314105e+01
 1.033503880049119e+00	 2.957950809895098e-01	 2.123587847855185e+01
 1.027552989563138e+00	 3.158478330705825e-01	 2.076560449310198e+01
 1.021181308775291e+00	 3.358775589777437e-01	 2.024795350201388e+01
 1.014386686568452e+00	 3.558716764942655e-01	 1.968348275824154e+01
 1.007167450963309e+00	 3.758174101069072e-01	 1.907278285382649e+01
 9.995224236416068e-01	 3.957018128062240e-01	 1.841647441758791e+01
 1.063198929600459e+00	 1.967475504498789e-01	 2.260694878926185e+01
 1.059281448507165e+00	 2.168510441797428e-01	 2.239032217156121e+01
 1.054958198992700e+00	 2.369910565677531e-01	 2.212472621482257e+01
 1.050224859909860e+00	 2.571561901726496e-01	 2.181051407895721e+01
 1.045077505366590e+00	 2.773347621473644e-01	 2.144808801688376e+01
 1.039512623540453e+00	 2.975148198332742e-01	 2.103789562459547e+01
 1.033527134854179e+00	 3.176841576822217e-01	 2.058042603892756e+01
 1.027118409410778e+00	 3.378303354841708e-01	 2.007620613997572e+01
 1.020284283586630e+00	 3.579406978699713e-01	 1.952579681687443e+01
 1.013023075681613e+00	 3.780023950501429e-01	 1.892978935653339e+01
 1.005333600526783e+00	 3.980024047419303e-01	 1.828880201489631e+01
 1.069344588154466e+00	 1.978848195283477e-01	 2.236398016304873e+01
 1.065404462662065e+00	 2.181045184242504e-01	 2.215716484907026e+01
 1.061056223266267e+00	 2.383609470688061e-01	 2.190195346654141e+01
 1.056295523842136e+00	 2.586426421395913e-01	 2.159871525632238e+01
 1.051118415804600e+00	 2.789378532586300e-01	 2.124786642084955e+01
 1.045521367031668e+00	 2.992345586767867e-01	 2.084986618498398e+01
 1.039501280145047e+00	 3.195204822936026e-01	 2.040521281275410e+01
 1.033055510046029e+00	 3.397831119903131e-01	 1.991443963901310e+01
 1.026181880604498e+00	 3.600097192453450e-01	 1.937811117679082e+01
 1.018878700399522e+00	 3.801873799929781e-01	 1.879681936199293e+01
 1.011144777411469e+00	 4.003029966771468e-01	 1.817117999701475e+01
 1.075490246708472e+00	 1.990220886063018e-01	 2.213080316125727e+01
 1.071527476816960e+00	 2.193579926683340e-01	 2.193379146968896e+01
 1.067154247539815e+00	 2.397308375695072e-01	 2.168896049532653e+01
 1.062366187774369e+00	 2.601290941062338e-01	 2.139669569488128e+01
 1.057159326242533e+00	 2.805409443696300e-01	 2.105742733008510e+01
 1.051530110522764e+00	 3.009542975200473e-01	 2.067162633728801e+01
 1.045475425435741e+00	 3.213568069047253e-01	 2.023980016125776e+01
 1.038992610681042e+00	 3.417358884961704e-01	 1.976248861429252e+01
 1.032079477622055e+00	 3.620787406203865e-01	 1.924025982352440e+01
 1.024734325117036e+00	 3.823723649354131e-01	 1.867370633014217e+01
 1.016955954295667e+00	 4.026035886118737e-01	 1.806344140412688e+01
 1.081635905262479e+00	 2.001593576837413e-01	 2.190726285305758e+01
 1.077650490971851e+00	 2.206114669119936e-01	 2.172004583215223e+01
 1.073252271813344e+00	 2.411007280698562e-01	 2.148558991149103e+01
 1.068436851706560e+00	 2.616155460725773e-01	 2.120429690233827e+01
 1.063200236680390e+00	 2.821440354803643e-01	 2.087661123907908e+01
 1.057538854013740e+00	 3.026740363630561e-01	 2.050301565551079e+01
 1.051449570726263e+00	 3.231931315155898e-01	 2.008402683375681e+01
 1.044929711315819e+00	 3.436886650017428e-01	 1.962019108902944e+01
 1.037977074639301e+00	 3.641477619950956e-01	 1.911208015524057e+01
 1.030589949834155e+00	 3.845573498774476e-01	 1.856028713728845e+01
 1.022767131179374e+00	 4.049041805461109e-01	 1.796542269566368e+01
 1.087781563816485e+00	 2.012966267606660e-01	 2.169320756703796e+01
 1.083773505126737e+00	 2.218649411552293e-01	 2.151577500419735e+01
 1.079350296086854e+00	 2.424706185698532e-01	 2.129168760327538e+01
 1.074507515638708e+00	 2.631019980386217e-01	 2.102136367256429e+01
 1.069241147118170e+00	 2.837471265908331e-01	 2.070526193601508e+01
 1.063547597504596e+00	 3.043937752058130e-01	 2.034387701414343e+01
 1.057423716016611e+00	 3.250294561261961e-01	 1.993773488609211e+01
 1.050866811950359e+00	 3.456414415070305e-01	 1.948738839821590e+01
 1.043874671656237e+00	 3.662167833694728e-01	 1.899341288633412e+01
 1.036445574550879e+00	 3.867423348190817e-01	 1.845640197960169e+01
 1.028578308062591e+00	 4.072047724798582e-01	 1.787696365371485e+01
 1.093927222370492e+00	 2.024338958370761e-01	 2.148848879964801e+01
 1.089896519281619e+00	 2.231184153980409e-01	 2.132082923073805e+01
 1.085448320360346e+00	 2.438405090694982e-01	 2.110710264477077e+01
 1.080578179570813e+00	 2.645884500043669e-01	 2.084774399328895e+01
 1.075282057555875e+00	 2.853502177010361e-01	 2.054322641025217e+01
 1.069556340995332e+00	 3.061135140483180e-01	 2.019405649545469e+01
 1.063397861306787e+00	 3.268657807365442e-01	 1.980076958774692e+01
 1.056803912584663e+00	 3.475942180120331e-01	 1.936392509559283e+01
 1.049772268672862e+00	 3.682858047435176e-01	 1.888410195427703e+01
 1.042301199267208e+00	 3.889273197603155e-01	 1.836189427986023e+01
 1.034389484945319e+00	 4.095053644131160e-01	 1.779790728969564e+01
 1.100072880924498e+00	 2.035711649129715e-01	 2.129296112671111e+01
 1.096019533436496e+00	 2.243718896404286e-01	 2.113506184511657e+01
 1.091546344633818e+00	 2.452103995687912e-01	 2.093168720692887e+01
 1.086648843502876e+00	 2.660749019698130e-01	 2.068328895688650e+01
 1.081322967993503e+00	 2.869533088109736e-01	 2.039035476290670e+01
 1.075565084485949e+00	 3.078332528905711e-01	 2.005340329988822e+01
 1.069372006596789e+00	 3.287021053466341e-01	 1.967297933208056e+01
 1.062741013218729e+00	 3.495469945167510e-01	 1.924964886374103e+01
 1.055669865689176e+00	 3.703548261172301e-01	 1.878399442958811e+01
 1.048156823983142e+00	 3.911123047011489e-01	 1.827661059732177e+01
 1.040200661827557e+00	 4.118059563458840e-01	 1.772809975414229e+01
 1.106218539478505e+00	 2.047084339883523e-01	 2.110648211788613e+01
 1.102142547591368e+00	 2.256253638823922e-01	 2.095832918331397e+01
 1.097644368907272e+00	 2.465802900677321e-01	 2.076529647153788e+01
 1.092719507434896e+00	 2.675613539349601e-01	 2.052785267413581e+01
 1.087363878431055e+00	 2.885563999206455e-01	 2.024650012041438e+01
 1.081573827976446e+00	 3.095529917325723e-01	 1.992176965944664e+01
 1.075346151886618e+00	 3.305384299564658e-01	 1.955421554955410e+01
 1.068678113852559e+00	 3.514997710211838e-01	 1.914441042716889e+01
 1.061567462705180e+00	 3.724238474906107e-01	 1.869294042880408e+01
 1.054012448698681e+00	 3.932972896415817e-01	 1.820040054059896e+01
 1.046011838709305e+00	 4.141065482781622e-01	 1.766739024951408e+01
 9.879000698697850e-01	 3.911006289333422e-01	 1.870265591630233e+01
 9.799224341023264e-01	 4.106802565784042e-01	 1.830363088919806e+01
 9.715231439387405e-01	 4.301732567129675e-01	 1.786548570014047e+01
 9.627025729927416e-01	 4.495664644431200e-01	 1.738989471929387e+01
 9.534616281117343e-01	 4.688466420014871e-01	 1.687854682174727e+01
 9.438017572485543e-01	 4.880005051335908e-01	 1.633313897144038e+01
 9.337249557969681e-01	 5.070147501960147e-01	 1.575537016811020e+01
 9.232337713255229e-01	 5.258760818638161e-01	 1.514693581779401e+01
 9.123313066520513e-01	 5.445712413382624e-01	 1.450952258156620e+01
 9.010212212095033e-01	 5.630870349402235e-01	 1.384480375038608e+01
 8.893077306627528e-01	 5.814103629695434e-01	 1.315443518627760e+01
 9.937112467559408e-01	 3.934012208700279e-01	 1.855436768413180e+01
 9.856866837195182e-01	 4.130960227955830e-01	 1.817552030870161e+01
 9.772379859668383e-01	 4.327036876370156e-01	 1.775661009216604e+01
 9.683655293093409e-01	 4.522109730598609e-01	 1.729909018932916e+01
 9.590702259288256e-01	 4.716045634275238e-01	 1.680442644764889e+01
 9.493535322954965e-01	 4.908710963428529e-01	 1.627409187413928e+01
 9.392174555407290e-01	 5.099971899057048e-01	 1.570956150231882e+01
 9.286645582187663e-01	 5.289694705833431e-01	 1.511230771488420e+01
 9.176979613993100e-01	 5.477746015841011e-01	 1.448379607144123e+01
 9.063213460413853e-01	 5.663993116189709e-01	 1.382548168336533e+01
 8.945389526078945e-01	 5.848304239307373e-01	 1.313880616980040e+01
 9.995224236416068e-01	 3.957018128062240e-01	 1.841647441758791e+01
 9.914509333361347e-01	 4.155117890121816e-01	 1.805687672597214e+01
 9.829528279943034e-01	 4.352341185604122e-01	 1.765629044715346e+01
 9.740284856252802e-01	 4.548554816758983e-01	 1.721594921564802e+01
 9.646788237452593e-01	 4.743624848528250e-01	 1.673709750407330e+01
 9.549053073418127e-01	 4.937416875513668e-01	 1.622098596645835e+01
 9.447099552839260e-01	 5.129796296146545e-01	 1.566886721882226e+01
 9.340953451115379e-01	 5.320628593021577e-01	 1.508199210788827e+01
 9.230646161462197e-01	 5.509779618292758e-01	 1.446160651196502e+01
 9.116214708730722e-01	 5.697115882971237e-01	 1.380894871031029e+01
 8.997701745530251e-01	 5.882504848914254e-01	 1.312524734880848e+01
 1.005333600526783e+00	 3.980024047419303e-01	 1.828880201489631e+01
 9.972151829521758e-01	 4.179275552281999e-01	 1.794754235342907e+01
 9.886676700211366e-01	 4.377645494831572e-01	 1.756438516362435e+01
 9.796914419405602e-01	 4.574999902912326e-01	 1.714034622275189e+01
 9.702874215610352e-01	 4.771204062773904e-01	 1.667645024903609e+01
 9.604570823875030e-01	 4.966122787591327e-01	 1.617372711491469e+01
 9.502024550265588e-01	 5.159620693228640e-01	 1.563320853498515e+01
 9.395261320038379e-01	 5.351562480202601e-01	 1.505592527474373e+01
 9.284312708927811e-01	 5.541813220737867e-01	 1.444290491889333e+01
 9.169215957045638e-01	 5.730238649746812e-01	 1.379517022981790e+01
 9.050013964981454e-01	 5.916705458516085e-01	 1.311373811792433e+01
 1.011144777411469e+00	 4.003029966771468e-01	 1.817117999701475e+01
 1.002979432567642e+00	 4.203433214436381e-01	 1.784736264602396e+01
 9.943825120473380e-01	 4.402949804052509e-01	 1.748075550696579e+01
 9.853543982551802e-01	 4.601444989058631e-01	 1.707215813161211e+01
 9.758960193761530e-01	 4.798783277012201e-01	 1.662237707263820e+01
 9.660088574325675e-01	 4.994828699661508e-01	 1.613222296047257e+01
 9.556949547686274e-01	 5.189445090303332e-01	 1.560250809245799e+01
 9.449569188956666e-01	 5.382496367376501e-01	 1.503404457571302e+01
 9.337979256389933e-01	 5.573846823176335e-01	 1.442764305725617e+01
 9.222217205358604e-01	 5.763361416516439e-01	 1.378411206631952e+01
 9.102326184432551e-01	 5.950906068112862e-01	 1.310425798445582e+01
 1.016955954295667e+00	 4.026035886118737e-01	 1.806344140412688e+01
 1.008743682182532e+00	 4.227590876584961e-01	 1.775618620859721e+01
 1.000097354072907e+00	 4.428254113266928e-01	 1.740526552751957e+01
 9.910173545691401e-01	 4.627890075197903e-01	 1.701126428834244e+01
 9.815046171906131e-01	 4.826362491243143e-01	 1.657477243614937e+01
 9.715606324770055e-01	 5.023534611724205e-01	 1.609638286784484e+01
 9.611874545101324e-01	 5.219269487370622e-01	 1.557668991648342e+01
 9.503877057870229e-01	 5.413430254543278e-01	 1.501628842245926e+01
 9.391645803848566e-01	 5.605880425608164e-01	 1.441577341995043e+01
 9.275218453669620e-01	 5.796484183280118e-01	 1.377574045791343e+01
 9.154638403883543e-01	 5.985106677704586e-01	 1.309678656517690e+01
 1.022767131179374e+00	 4.049041805461109e-01	 1.796542269566368e+01
 1.014507931796846e+00	 4.251748538727739e-01	 1.767386470639216e+01
 1.005812196097844e+00	 4.453558422474835e-01	 1.733778198146439e+01
 9.966803108824406e-01	 4.654335161330140e-01	 1.695754639530284e+01
 9.871132150044155e-01	 4.853941705466728e-01	 1.653353281316767e+01
 9.771124075208182e-01	 5.052240523779424e-01	 1.606611787652295e+01
 9.666799542510731e-01	 5.249093884430506e-01	 1.555567937658986e+01
 9.558184926779082e-01	 5.444364141702932e-01	 1.500259624817763e+01
 9.445312351303716e-01	 5.637914028033356e-01	 1.440724920706149e+01
 9.328219701978685e-01	 5.829606950037846e-01	 1.377002204461353e+01
 9.206950623334427e-01	 6.019307287291257e-01	 1.309130358321728e+01
 1.028578308062591e+00	 4.072047724798582e-01	 1.787696365371485e+01
 1.020272181410586e+00	 4.275906200864714e-01	 1.760025277860337e+01
 1.011527038122148e+00	 4.478862731676225e-01	 1.727817425437985e+01
 1.002343267195081e+00	 4.680780247455344e-01	 1.691088844453898e+01
 9.927218128175602e-01	 4.881520919682955e-01	 1.649855663277452e+01
 9.826641825640046e-01	 5.080946435827163e-01	 1.604134065346675e+01
 9.721724539914497e-01	 5.278918281482988e-01	 1.553940314861695e+01
 9.612492795683215e-01	 5.475298028855463e-01	 1.499290847873770e+01
 9.498978898755376e-01	 5.669947630451908e-01	 1.440202430588626e+01
 9.381220950285795e-01	 5.862729716789624e-01	 1.376692385699574e+01
 9.259262842785204e-01	 6.053507896872874e-01	 1.308778886505846e+01
 1.034389484945319e+00	 4.095053644131160e-01	 1.779790728969564e+01
 1.026036431023750e+00	 4.300063862995889e-01	 1.753520795483827e+01
 1.017241880145820e+00	 4.504167040871099e-01	 1.722631428738660e+01
 1.008006223507062e+00	 4.707225333573513e-01	 1.687117665346510e+01
 9.983304106300468e-01	 4.909100133891827e-01	 1.646974422460522e+01
 9.882159576065646e-01	 5.109652347867418e-01	 1.602196544738903e+01
 9.776649537312624e-01	 5.308742678528068e-01	 1.552778917802168e+01
 9.666800664582632e-01	 5.506231916000871e-01	 1.498716650480015e+01
 9.552645446203550e-01	 5.701981232863822e-01	 1.440005327162936e+01
 9.434222198590958e-01	 5.895852483535454e-01	 1.376641330522681e+01
 9.311575062235878e-01	 6.087708506449440e-01	 1.308622233763028e+01
 1.040200661827557e+00	 4.118059563458840e-01	 1.772809975414229e+01
 1.031800680636339e+00	 4.324221525121261e-01	 1.747859057437981e+01
 1.022956722168861e+00	 4.529471350059460e-01	 1.718207650576282e+01
 1.013669179818383e+00	 4.733670419684648e-01	 1.683829940270300e+01
 1.003939008441876e+00	 4.936679348093340e-01	 1.644699776576072e+01
 9.937677326484990e-01	 5.138358259900195e-01	 1.600790804457271e+01
 9.831574534705112e-01	 5.338567075565744e-01	 1.552076664441401e+01
 9.721108533477332e-01	 5.537165803139155e-01	 1.498531265486675e+01
 9.606311993648238e-01	 5.734014835269095e-01	 1.440129130874677e+01
 9.487223446894167e-01	 5.928975250275335e-01	 1.376845816846147e+01
 9.363887281686443e-01	 6.121909116020950e-01	 1.308658402550543e+01
 1.046011838709305e+00	 4.141065482781622e-01	 1.766739024951408e+01
 1.037564930248352e+00	 4.348379187240829e-01	 1.743026370813955e+01
 1.028671564191268e+00	 4.554775659241302e-01	 1.714533774993956e+01
 1.019332136129044e+00	 4.760115505788748e-01	 1.681214717599287e+01
 1.009547606253047e+00	 4.964258562287498e-01	 1.643022122948932e+01
 9.993195076898076e-01	 5.167064171925492e-01	 1.599908572616007e+01
 9.886499532091959e-01	 5.368391472596017e-01	 1.551826592727515e+01
 9.775416402367314e-01	 5.568099690270316e-01	 1.498729016922932e+01
 9.659978541089431e-01	 5.766048437667730e-01	 1.440569425291085e+01
 9.540224695195425e-01	 5.962098017009265e-01	 1.377302658459270e+01
 9.416199501136904e-01	 6.156109725587411e-01	 1.308885404818672e+01
 8.893077306627528e-01	 5.814103629695434e-01	 1.315443518627760e+01
 8.771956047455883e-01	 5.995282487065593e-01	 1.205282071614070e+01
 8.646901632969713e-01	 6.174278674282060e-01	 1.087480144098071e+01
 8.517972704860859e-01	 6.350965753091955e-01	 1.017670666431798e+01
 8.385233272264496e-01	 6.525219380770625e-01	 9.849121722788814e+00
 8.248752617900429e-01	 6.696917592889825e-01	 9.486824971026710e+00
 8.108605186434350e-01	 6.865941080990718e-01	 9.091183908671409e+00
 7.964870455388072e-01	 7.032173463862690e-01	 8.663599380465183e+00
 7.817632789035854e-01	 7.195501551153906e-01	 8.205499289997178e+00
 7.666981275829784e-01	 7.355815598074721e-01	 7.718332431635543e+00
 7.513009550000000e-01	 7.513009549999999e-01	 7.203562488067496e+00
 8.945389526078945e-01	 5.848304239307373e-01	 1.313880616980040e+01
 8.823555788900659e-01	 6.030548854660724e-01	 1.202595159730836e+01
 8.697765760202160e-01	 6.210597960623453e-01	 1.083754064514452e+01
 8.568078426626430e-01	 6.388324375188241e-01	 1.032731024344432e+01
 8.434558173832986e-01	 6.563603024202654e-01	 9.991726166672164e+00
 8.297274692087055e-01	 6.736311225800625e-01	 9.623172855275426e+00
 8.156302863964140e-01	 6.906328969708853e-01	 9.223060605312103e+00
 8.011722634500895e-01	 7.073539190121366e-01	 8.792826104237120e+00
 7.863618864232010e-01	 7.237828030860738e-01	 8.333925938769355e+00
 7.712081165659308e-01	 7.399085101579741e-01	 7.847830261781272e+00
 7.557203723802501e-01	 7.557203723802501e-01	 7.336016667084442e+00
 8.997701745530251e-01	 5.882504848914254e-01	 1.312524734880848e+01
 8.875155530347181e-01	 6.065815222251801e-01	 1.200137801806464e+01
 8.748629887437914e-01	 6.246917246961796e-01	 1.080278789742274e+01
 8.618184148396573e-01	 6.425682997282492e-01	 1.047579239145434e+01
 8.483883075407015e-01	 6.601986667633651e-01	 1.013228595811846e+01
 8.345796766279892e-01	 6.775704858711397e-01	 9.757544154141852e+00
 8.204000541500502e-01	 6.946716858427967e-01	 9.353019958208655e+00
 8.058574813620352e-01	 7.114904916382033e-01	 8.920185797902754e+00
 7.909604939434562e-01	 7.280154510570566e-01	 8.460526851912284e+00
 7.757181055494675e-01	 7.442354605088755e-01	 7.975534552090338e+00
 7.601397897609999e-01	 7.601397897609999e-01	 7.466700335708004e+00
 9.050013964981454e-01	 5.916705458516085e-01	 1.311373811792433e+01
 8.926755271795451e-01	 6.101081589838829e-01	 1.197907709951061e+01
 8.799494014676975e-01	 6.283236533297093e-01	 1.094249260761195e+01
 8.668289870171290e-01	 6.463041619374698e-01	 1.062212432698403e+01
 8.533207976986584e-01	 6.640370311063614e-01	 1.027077019194258e+01
 8.394318840478930e-01	 6.815098491622142e-01	 9.889906149816984e+00
 8.251698219043438e-01	 6.987104747148062e-01	 9.481027752988489e+00
 8.105426992746441e-01	 7.156270642644686e-01	 9.045643070598290e+00
 7.955591014643508e-01	 7.322480990283387e-01	 8.585265785282321e+00
 7.802280945335894e-01	 7.485624108601769e-01	 8.101408530602468e+00
 7.645592071422498e-01	 7.645592071422498e-01	 7.595576520975654e+00
 9.102326184432551e-01	 5.950906068112862e-01	 1.310425798445582e+01
 8.978355013245468e-01	 6.136347957421805e-01	 1.195902613763911e+01
 8.850358141919341e-01	 6.319555819629341e-01	 1.109608917747983e+01
 8.718395591950577e-01	 6.500400241464864e-01	 1.076627754990871e+01
 8.582532878571697e-01	 6.678753954492540e-01	 1.040714828807414e+01
 8.442840914684180e-01	 6.854492124532863e-01	 1.002022648713082e+01
 8.299395896592946e-01	 7.027492635869140e-01	 9.607050168997006e+00
 8.152279171879165e-01	 7.197636368909328e-01	 9.169162949733272e+00
 8.001577089858843e-01	 7.364807469999202e-01	 8.708106930978536e+00
 7.847380835182960e-01	 7.528893612118782e-01	 8.225415872938365e+00
 7.689786245240000e-01	 7.689786245240000e-01	 7.722608702184106e+00
 9.154638403883543e-01	 5.985106677704586e-01	 1.309678656517690e+01
 9.029954754697234e-01	 6.171614325000729e-01	 1.194120259833839e+01
 8.901222269165024e-01	 6.355875105958542e-01	 1.124740058137722e+01
 8.768501313734441e-01	 6.537758863552985e-01	 1.090822383330761e+01
 8.631857780162346e-01	 6.717137597920432e-01	 1.054138998226836e+01
 8.491362988895632e-01	 6.893885757443554e-01	 1.014847316319149e+01
 8.347093574149024e-01	 7.067880524591198e-01	 9.731053768048991e+00
 8.199131351018522e-01	 7.239002095175959e-01	 9.290710869039865e+00
 8.047563165080572e-01	 7.407133949718012e-01	 8.829014904879299e+00
 7.892480725035875e-01	 7.572163115639795e-01	 8.347520689511494e+00
 7.733980419062499e-01	 7.733980419062499e-01	 7.847760797968514e+00
 9.206950623334427e-01	 6.019307287291257e-01	 1.309130358321728e+01
 9.081554496150746e-01	 6.206880692575600e-01	 1.192558411256504e+01
 8.952086396414011e-01	 6.392194392284697e-01	 1.139640114105180e+01
 8.818607035522877e-01	 6.575117485639065e-01	 1.104793521570220e+01
 8.681182681758537e-01	 6.755521241347289e-01	 1.067346531713382e+01
 8.539885063113296e-01	 6.933279390354222e-01	 1.027461451737717e+01
 8.394791251711674e-01	 7.108268413314237e-01	 9.853005483562779e+00
 8.245983530164511e-01	 7.280367821444579e-01	 9.410252657029838e+00
 8.093549240308695e-01	 7.449460429439818e-01	 8.947954734601637e+00
 7.937580614894639e-01	 7.615432619164807e-01	 8.467687513176292e+00
 7.778174592890001e-01	 7.778174592890001e-01	 7.970997153820417e+00
 9.259262842785204e-01	 6.053507896872874e-01	 1.308778886505846e+01
 9.133154237606012e-01	 6.242147060146422e-01	 1.191214847168130e+01
 9.002950523666308e-01	 6.428513678607802e-01	 1.154306539023054e+01
 8.868712757315890e-01	 6.612476107723105e-01	 1.118538399355832e+01
 8.730507583360266e-01	 6.793904884773112e-01	 1.080334463346444e+01
 8.588407137337162e-01	 6.972673023264860e-01	 1.039861922166721e+01
 8.442488929280895e-01	 7.148656302038259e-01	 9.972872610062540e+00
 8.292835709317136e-01	 7.321733547715186e-01	 9.527754525842596e+00
 8.139535315543212e-01	 7.491786909164617e-01	 9.064891847871392e+00
 7.982680504759251e-01	 7.658702122693813e-01	 8.585881287294375e+00
 7.822368766722498e-01	 7.822368766722498e-01	 8.092282530030023e+00
 9.311575062235878e-01	 6.087708506449440e-01	 1.308622233763028e+01
 9.184753979063021e-01	 6.277413427713190e-01	 1.202974887758804e+01
 9.053814650921912e-01	 6.464832964927860e-01	 1.168736806866482e+01
 8.918818479113473e-01	 6.649834729805102e-01	 1.132054271403967e+01
 8.779832484967536e-01	 6.832288528197900e-01	 1.093099856186270e+01
 8.636929211567237e-01	 7.012066656175473e-01	 1.052045627130030e+01
 8.490186606856686e-01	 7.189044190763259e-01	 1.009062279303607e+01
 8.339687888476395e-01	 7.363099273987780e-01	 9.643183060468944e+00
 8.185521390784121e-01	 7.534113388892411e-01	 9.179792061284051e+00
 8.027780394629711e-01	 7.701971626226821e-01	 8.702067354203978e+00
 7.866562940559999e-01	 7.866562940559998e-01	 8.211582090034838e+00
 9.363887281686443e-01	 6.121909116020950e-01	 1.308658402550543e+01
 9.236353720521780e-01	 6.312679795275907e-01	 1.218231708903672e+01
 9.104678778180825e-01	 6.501152251244868e-01	 1.182928411637605e+01
 8.968924200915631e-01	 6.687193351885058e-01	 1.145338416800594e+01
 8.829157386580347e-01	 6.870672171621656e-01	 1.105639801464566e+01
 8.685451285803517e-01	 7.051460289086058e-01	 1.064009497574374e+01
 8.537884284439049e-01	 7.229432079489243e-01	 1.020622401912975e+01
 8.386540067642287e-01	 7.404465000262365e-01	 9.756505208336401e+00
 8.231507466031421e-01	 7.576439868623197e-01	 9.292621569442058e+00
 8.072880284506020e-01	 7.745241129763826e-01	 8.816211444075169e+00
 7.910757114402500e-01	 7.910757114402501e-01	 8.328861389157966e+00
 9.416199501136904e-01	 6.156109725587411e-01	 1.308885404818672e+01
 9.287953461982286e-01	 6.347946162834570e-01	 1.233240032626764e+01
 9.155542905443047e-01	 6.537471537558830e-01	 1.196878866809254e+01
 9.019029922722360e-01	 6.724551973962970e-01	 1.158388138324325e+01
 8.878482288198697e-01	 6.909055815044373e-01	 1.117951417801851e+01
 8.733973360046003e-01	 7.090853921996617e-01	 1.075750494996566e+01
 8.585581962027985e-01	 7.269819968216206e-01	 1.031964460667325e+01
 8.433392246814813e-01	 7.445830726538936e-01	 9.867688269241302e+00
 8.277493541285117e-01	 7.618766348356980e-01	 9.403346934454596e+00
 8.117980174388175e-01	 7.788510633304829e-01	 8.928279664136259e+00
 7.954951288250000e-01	 7.954951288250000e-01	 8.444086363722823e+00
 7.513009550000000e-01	 7.513009549999999e-01	 7.203562488067496e+00
 7.355815598074721e-01	 7.666981275829785e-01	 6.558226100761294e+00
 7.195501551153904e-01	 7.817632789035854e-01	 5.951067946716543e+00
 7.032173463862691e-01	 7.964870455388074e-01	 5.385194340742286e+00
 6.865941080990721e-01	 8.108605186434350e-01	 4.863469847019294e+00
 6.696917592889826e-01	 8.248752617900426e-01	 4.388507485427970e+00
 6.525219380770629e-01	 8.385233272264494e-01	 3.962660589982450e+00
 6.350965753091958e-01	 8.517972704860857e-01	 3.588016353751975e+00
 6.174278674282064e-01	 8.646901632969710e-01	 3.197206513214024e+00
 5.995282487065600e-01	 8.771956047455878e-01	 2.774348218814418e+00
 5.814103629695434e-01	 8.893077306627528e-01	 2.413898124073250e+00
 7.557203723802501e-01	 7.557203723802501e-01	 7.336016667084442e+00
 7.399085101579740e-01	 7.712081165659308e-01	 6.702202046897224e+00
 7.237828030860739e-01	 7.863618864232009e-01	 6.105133836616822e+00
 7.073539190121367e-01	 8.011722634500895e-01	 5.547788831166208e+00
 6.906328969708851e-01	 8.156302863964138e-01	 5.032907105152716e+00
 6.736311225800627e-01	 8.297274692087052e-01	 4.562982736333581e+00
 6.563603024202660e-01	 8.434558173832984e-01	 4.140256154000414e+00
 6.388324375188248e-01	 8.568078426626426e-01	 3.766708143407519e+00
 6.210597960623457e-01	 8.697765760202157e-01	 3.408202767304958e+00
 6.030548854660730e-01	 8.823555788900653e-01	 2.980630733279029e+00
 5.848304239307369e-01	 8.945389526078942e-01	 2.613200089388974e+00
 7.601397897609999e-01	 7.601397897609999e-01	 7.466700335708004e+00
 7.442354605088753e-01	 7.757181055494676e-01	 6.843789168932912e+00
 7.280154510570568e-01	 7.909604939434562e-01	 6.256221619823059e+00
 7.114904916382033e-01	 8.058574813620351e-01	 5.706846040520856e+00
 6.946716858427970e-01	 8.204000541500504e-01	 5.198279002511542e+00
 6.775704858711399e-01	 8.345796766279889e-01	 4.732896534194606e+00
 6.601986667633652e-01	 8.483883075407014e-01	 4.312826956699597e+00
 6.425682997282496e-01	 8.618184148396570e-01	 3.939945345843525e+00
 6.246917246961800e-01	 8.748629887437908e-01	 3.613077225992128e+00
 6.065815222251809e-01	 8.875155530347177e-01	 3.180536448412068e+00
 5.882504848914254e-01	 8.997701745530254e-01	 2.805906802095511e+00
 7.645592071422498e-01	 7.645592071422498e-01	 7.595576520975654e+00
 7.485624108601771e-01	 7.802280945335894e-01	 6.982961581801167e+00
 7.322480990283387e-01	 7.955591014643507e-01	 6.404316161861590e+00
 7.156270642644686e-01	 8.105426992746441e-01	 5.862361227042970e+00
 6.987104747148063e-01	 8.251698219043436e-01	 5.359590812475737e+00
 6.815098491622146e-01	 8.394318840478930e-01	 4.898263771242025e+00
 6.640370311063616e-01	 8.533207976986582e-01	 4.480397095178244e+00
 6.463041619374702e-01	 8.668289870171284e-01	 4.107760832430776e+00
 6.283236533297095e-01	 8.799494014676970e-01	 3.781874610894790e+00
 6.101081589838835e-01	 8.926755271795445e-01	 3.374077898977349e+00
 5.916705458516085e-01	 9.050013964981454e-01	 2.992040184666140e+00
 7.689786245240000e-01	 7.689786245240000e-01	 7.722608702184106e+00
 7.528893612118782e-01	 7.847380835182961e-01	 7.119693598710803e+00
 7.364807469999202e-01	 8.001577089858843e-01	 6.549402281152822e+00
 7.197636368909330e-01	 8.152279171879164e-01	 6.014329365549400e+00
 7.027492635869141e-01	 8.299395896592944e-01	 5.516847298196675e+00
 6.854492124532865e-01	 8.442840914684178e-01	 5.059098612595047e+00
 6.678753954492541e-01	 8.582532878571694e-01	 4.642989732846457e+00
 6.500400241464864e-01	 8.718395591950574e-01	 4.270186344945731e+00
 6.319555819629344e-01	 8.850358141919340e-01	 3.942110342104925e+00
 6.136347957421812e-01	 8.978355013245466e-01	 3.561266131629977e+00
 5.950906068112861e-01	 9.102326184432551e-01	 3.171620509426417e+00
 7.733980419062499e-01	 7.733980419062499e-01	 7.847760797968514e+00
 7.572163115639794e-01	 7.892480725035876e-01	 7.253959725481656e+00
 7.407133949718012e-01	 8.047563165080570e-01	 6.691464750357952e+00
 7.239002095175960e-01	 8.199131351018518e-01	 6.162745155534274e+00
 7.067880524591199e-01	 8.347093574149022e-01	 5.670052727176861e+00
 6.893885757443559e-01	 8.491362988895631e-01	 5.215414517034047e+00
 6.717137597920434e-01	 8.631857780162342e-01	 4.800627126102413e+00
 6.537758863552989e-01	 8.768501313734439e-01	 4.427252527844272e+00
 6.355875105958546e-01	 8.901222269165020e-01	 4.096615434107795e+00
 6.171614325000735e-01	 9.029954754697230e-01	 3.742110747433045e+00
 5.985106677704586e-01	 9.154638403883543e-01	 3.344666445700188e+00
 7.778174592890001e-01	 7.778174592890001e-01	 7.970997153820417e+00
 7.615432619164805e-01	 7.937580614894640e-01	 7.385734655072970e+00
 7.449460429439817e-01	 8.093549240308695e-01	 6.830488297678873e+00
 7.280367821444578e-01	 8.245983530164510e-01	 6.307603028991365e+00
 7.108268413314239e-01	 8.394791251711672e-01	 5.819210885349763e+00
 6.933279390354223e-01	 8.539885063113293e-01	 5.367224257067163e+00
 6.755521241347291e-01	 8.681182681758534e-01	 4.953330650100290e+00
 6.575117485639072e-01	 8.818607035522879e-01	 4.578988959435835e+00
 6.392194392284701e-01	 8.952086396414006e-01	 4.245427254370741e+00
 6.206880692575607e-01	 9.081554496150744e-01	 3.916619942927198e+00
 6.019307287291257e-01	 9.206950623334427e-01	 3.511195105350116e+00
 7.822368766722498e-01	 7.822368766722498e-01	 8.092282530030023e+00
 7.658702122693813e-01	 7.982680504759252e-01	 7.514993262296740e+00
 7.491786909164617e-01	 8.139535315543212e-01	 6.966457608113455e+00
 7.321733547715186e-01	 8.292835709317133e-01	 6.448897157969982e+00
 7.148656302038259e-01	 8.442488929280891e-01	 5.964325090683792e+00
 6.972673023264863e-01	 8.588407137337162e-01	 5.514539938317757e+00
 6.793904884773115e-01	 8.730507583360264e-01	 5.101120823643969e+00
 6.612476107723109e-01	 8.868712757315885e-01	 4.725424182000353e+00
 6.428513678607806e-01	 9.002950523666304e-01	 4.388581964741643e+00
 6.242147060146426e-01	 9.133154237606005e-01	 4.084800549804763e+00
 6.053507896872875e-01	 9.259262842785204e-01	 3.671222086773296e+00
 7.866562940559999e-01	 7.866562940559998e-01	 8.211582090034838e+00
 7.701971626226820e-01	 8.027780394629711e-01	 7.641710598709190e+00
 7.534113388892411e-01	 8.185521390784118e-01	 7.099357324669713e+00
 7.363099273987781e-01	 8.339687888476395e-01	 6.586621461877010e+00
 7.189044190763261e-01	 8.490186606856686e-01	 6.105398206327325e+00
 7.012066656175475e-01	 8.636929211567236e-01	 5.657373018255583e+00
 6.832288528197903e-01	 8.779832484967532e-01	 5.244017333241686e+00
 6.649834729805106e-01	 8.918818479113471e-01	 4.866585730890646e+00
 6.464832964927864e-01	 9.053814650921909e-01	 4.526114555313833e+00
 6.277413427713194e-01	 9.184753979063016e-01	 4.223421967553902e+00
 6.087708506449439e-01	 9.311575062235877e-01	 3.824761517414847e+00
 7.910757114402500e-01	 7.910757114402501e-01	 8.328861389157966e+00
 7.745241129763826e-01	 8.072880284506018e-01	 7.765861887674447e+00
 7.576439868623196e-01	 8.231507466031421e-01	 7.229172049538746e+00
 7.404465000262366e-01	 8.386540067642286e-01	 6.720769614533706e+00
 7.229432079489243e-01	 8.537884284439047e-01	 6.242432653313493e+00
 7.051460289086060e-01	 8.685451285803516e-01	 5.795734324302700e+00
 6.870672171621656e-01	 8.829157386580343e-01	 5.382039056354699e+00
 6.687193351885065e-01	 8.968924200915627e-01	 5.002500162658479e+00
 6.501152251244874e-01	 9.104678778180821e-01	 4.658058877156840e+00
 6.312679795275914e-01	 9.236353720521774e-01	 4.349444790892961e+00
 6.121909116020950e-01	 9.363887281686443e-01	 3.971826094855497e+00
 7.954951288250000e-01	 7.954951288250000e-01	 8.444086363722823e+00
 7.788510633304829e-01	 8.117980174388176e-01	 7.887422519591713e+00
 7.618766348356981e-01	 8.277493541285117e-01	 7.355886345227836e+00
 7.445830726538939e-01	 8.433392246814815e-01	 6.851335050998346e+00
 7.269819968216208e-01	 8.585581962027984e-01	 6.375430422840410e+00
 7.090853921996618e-01	 8.733973360046001e-01	 5.929634071333984e+00
 6.909055815044375e-01	 8.878482288198696e-01	 5.515204083870985e+00
 6.724551973962977e-01	 9.019029922722359e-01	 5.133193082243194e+00
 6.537471537558837e-01	 9.155542905443044e-01	 4.784447673955813e+00
 6.347946162834578e-01	 9.287953461982281e-01	 4.469609271943103e+00
 6.156109725587411e-01	 9.416199501136904e-01	 4.112427126529919e+00
 5.814103629695434e-01	 8.893077306627528e-01	 2.413898124073250e+00
 5.630870349402235e-01	 9.010212212095035e-01	 2.156256057361266e+00
 5.445712413382625e-01	 9.123313066520512e-01	 1.914937509617972e+00
 5.258760818638161e-01	 9.232337713255228e-01	 1.687639752701829e+00
 5.070147501960148e-01	 9.337249557969681e-01	 1.472072573749748e+00
 4.880005051335911e-01	 9.438017572485543e-01	 1.265983829938389e+00
 4.688466420014874e-01	 9.534616281117341e-01	 1.067183921117486e+00
 4.495664644431204e-01	 9.627025729927415e-01	 8.735689501812669e-01
 4.301732567129680e-01	 9.715231439387403e-01	 6.831423639504670e-01
 4.106802565784049e-01	 9.799224341023263e-01	 4.940348922796443e-01
 3.911006289333422e-01	 9.879000698697851e-01	 3.045226296367005e-01
 5.848304239307369e-01	 8.945389526078942e-01	 2.613200089388974e+00
 5.663993116189709e-01	 9.063213460413853e-01	 2.344636428397870e+00
 5.477746015841012e-01	 9.176979613993099e-01	 2.093065463096982e+00
 5.289694705833432e-01	 9.286645582187661e-01	 1.856090652760243e+00
 5.099971899057049e-01	 9.392174555407289e-01	 1.631326738249014e+00
 4.908710963428531e-01	 9.493535322954965e-01	 1.416426019561880e+00
 4.716045634275242e-01	 9.590702259288257e-01	 1.209103533657061e+00
 4.522109730598614e-01	 9.683655293093409e-01	 1.007160896467201e+00
 4.327036876370162e-01	 9.772379859668380e-01	 8.085085963882874e-01
 4.130960227955836e-01	 9.856866837195180e-01	 6.111865519841135e-01
 3.934012208700279e-01	 9.937112467559407e-01	 4.133827737199616e-01
 5.882504848914254e-01	 8.997701745530254e-01	 2.805906802095511e+00
 5.697115882971235e-01	 9.116214708730721e-01	 2.526572901070311e+00
 5.509779618292757e-01	 9.230646161462196e-01	 2.264897447934006e+00
 5.320628593021578e-01	 9.340953451115379e-01	 2.018388702107121e+00
 5.129796296146547e-01	 9.447099552839259e-01	 1.784565002220562e+00
 4.937416875513670e-01	 9.549053073418127e-01	 1.560981774837705e+00
 4.743624848528252e-01	 9.646788237452590e-01	 1.345257425408291e+00
 4.548554816758987e-01	 9.740284856252801e-01	 1.135097869372126e+00
 4.352341185604127e-01	 9.829528279943034e-01	 9.283194851509335e-01
 4.155117890121822e-01	 9.914509333361347e-01	 7.228702967393457e-01
 3.957018128062240e-01	 9.995224236416069e-01	 5.168492212512898e-01
 5.916705458516085e-01	 9.050013964981454e-01	 2.992040184666140e+00
 5.730238649746811e-01	 9.169215957045638e-01	 2.702090523575722e+00
 5.541813220737866e-01	 9.284312708927810e-01	 2.430461810065345e+00
 5.351562480202601e-01	 9.395261320038381e-01	 2.174565702354391e+00
 5.159620693228643e-01	 9.502024550265585e-01	 1.931822766599903e+00
 4.966122787591330e-01	 9.604570823875029e-01	 1.699690225244467e+00
 4.771204062773908e-01	 9.702874215610349e-01	 1.475688569123957e+00
 4.574999902912328e-01	 9.796914419405599e-01	 1.257426785178743e+00
 4.377645494831579e-01	 9.886676700211364e-01	 1.042625975913376e+00
 4.179275552282006e-01	 9.972151829521756e-01	 8.291411732383922e-01
 3.980024047419303e-01	 1.005333600526783e+00	 6.149811775463667e-01
 5.950906068112861e-01	 9.102326184432551e-01	 3.171620509426417e+00
 5.763361416516438e-01	 9.222217205358602e-01	 2.871212676955752e+00
 5.573846823176336e-01	 9.337979256389933e-01	 2.589785208123097e+00
 5.382496367376501e-01	 9.449569188956662e-01	 2.324651744584660e+00
 5.189445090303334e-01	 9.556949547686272e-01	 2.073133695555382e+00
 4.994828699661510e-01	 9.660088574325674e-01	 1.832588734319923e+00
 4.798783277012205e-01	 9.758960193761527e-01	 1.600438139585510e+00
 4.601444989058635e-01	 9.853543982551796e-01	 1.374192727397352e+00
 4.402949804052514e-01	 9.943825120473377e-01	 1.151477144101469e+00
 4.203433214436386e-01	 1.002979432567641e+00	 9.300523178668800e-01
 4.003029966771468e-01	 1.011144777411470e+00	 7.078358950764077e-01
 5.985106677704586e-01	 9.154638403883543e-01	 3.344666445700188e+00
 5.796484183280115e-01	 9.275218453669616e-01	 3.033961122729425e+00
 5.605880425608165e-01	 9.391645803848568e-01	 2.742892661645786e+00
 5.413430254543278e-01	 9.503877057870228e-01	 2.468675258223295e+00
 5.219269487370624e-01	 9.611874545101319e-01	 2.208529766111287e+00
 5.023534611724207e-01	 9.715606324770055e-01	 1.959712950116293e+00
 4.826362491243146e-01	 9.815046171906129e-01	 1.719545564973341e+00
 4.627890075197908e-01	 9.910173545691400e-01	 1.485438999132003e+00
 4.428254113266935e-01	 1.000097354072907e+00	 1.254920248327028e+00
 4.227590876584968e-01	 1.008743682182532e+00	 1.025655011282417e+00
 4.026035886118738e-01	 1.016955954295667e+00	 7.954687292629339e-01
 6.019307287291257e-01	 9.206950623334427e-01	 3.511195105350116e+00
 5.829606950037844e-01	 9.328219701978683e-01	 3.190356048901108e+00
 5.637914028033356e-01	 9.445312351303716e-01	 2.889807597642280e+00
 5.444364141702933e-01	 9.558184926779082e-01	 2.606663058245792e+00
 5.249093884430507e-01	 9.666799542510727e-01	 2.338041316077658e+00
 5.052240523779427e-01	 9.771124075208180e-01	 2.081096853935725e+00
 4.853941705466731e-01	 9.871132150044153e-01	 1.833048576486679e+00
 4.654335161330144e-01	 9.966803108824400e-01	 1.591207173658626e+00
 4.453558422474840e-01	 1.005812196097843e+00	 1.353000782001781e+00
 4.251748538727744e-01	 1.014507931796846e+00	 1.115998731134490e+00
 4.049041805461109e-01	 1.022767131179374e+00	 8.779331923716405e-01
 6.053507896872875e-01	 9.259262842785204e-01	 3.671222086773296e+00
 5.862729716789624e-01	 9.381220950285796e-01	 3.340416114412003e+00
 5.669947630451909e-01	 9.498978898755376e-01	 3.030551895578652e+00
 5.475298028855463e-01	 9.612492795683215e-01	 2.738640390781944e+00
 5.278918281482990e-01	 9.721724539914495e-01	 2.461697090354458e+00
 5.080946435827165e-01	 9.826641825640043e-01	 2.196772807413644e+00
 4.881520919682958e-01	 9.927218128175598e-01	 1.940983256279737e+00
 4.680780247455348e-01	 1.002343267195081e+00	 1.691537143292077e+00
 4.478862731676229e-01	 1.011527038122148e+00	 1.445762523201425e+00
 4.275906200864721e-01	 1.020272181410586e+00	 1.201131202996312e+00
 4.072047724798582e-01	 1.028578308062591e+00	 9.552810055789540e-01
 6.087708506449439e-01	 9.311575062235877e-01	 3.824761517414847e+00
 5.895852483535453e-01	 9.434222198590957e-01	 3.484158492089454e+00
 5.701981232863821e-01	 9.552645446203548e-01	 3.165145930849222e+00
 5.506231916000872e-01	 9.666800664582632e-01	 2.864630977185739e+00
 5.308742678528070e-01	 9.776649537312624e-01	 2.579524285678449e+00
 5.109652347867422e-01	 9.882159576065646e-01	 2.306771598014675e+00
 4.909100133891830e-01	 9.983304106300467e-01	 2.043384083784567e+00
 4.707225333573518e-01	 1.008006223507062e+00	 1.786467166602627e+00
 4.504167040871105e-01	 1.017241880145820e+00	 1.533247582850629e+00
 4.300063862995895e-01	 1.026036431023750e+00	 1.281098449581371e+00
 4.095053644131160e-01	 1.034389484945319e+00	 1.027562149283207e+00
 6.121909116020950e-01	 9.363887281686443e-01	 3.971826094855497e+00
 5.928975250275331e-01	 9.487223446894166e-01	 3.621598910160488e+00
 5.734014835269095e-01	 9.606311993648234e-01	 3.293608616789169e+00
 5.537165803139156e-01	 9.721108533477332e-01	 2.984657056626490e+00
 5.338567075565744e-01	 9.831574534705111e-01	 2.691548593866218e+00
 5.138358259900199e-01	 9.937677326484989e-01	 2.411122483004587e+00
 4.936679348093344e-01	 1.003939008441876e+00	 2.140283980479384e+00
 4.733670419684652e-01	 1.013669179818383e+00	 1.876033914052242e+00
 4.529471350059464e-01	 1.022956722168860e+00	 1.615496451289956e+00
 4.324221525121268e-01	 1.031800680636338e+00	 1.355944838308810e+00
 4.118059563458840e-01	 1.040200661827557e+00	 1.094824911730385e+00
 6.156109725587411e-01	 9.416199501136904e-01	 4.112427126529919e+00
 5.962098017009265e-01	 9.540224695195425e-01	 3.752751692377103e+00
 5.766048437667731e-01	 9.659978541089431e-01	 3.415957445287055e+00
 5.568099690270316e-01	 9.775416402367315e-01	 3.098739427260502e+00
 5.368391472596018e-01	 9.886499532091958e-01	 2.797794243618441e+00
 5.167064171925495e-01	 9.993195076898073e-01	 2.509853231955303e+00
 4.964258562287501e-01	 1.009547606253046e+00	 2.231714353164165e+00
 4.760115505788752e-01	 1.019332136129044e+00	 1.960272512108094e+00
 4.554775659241309e-01	 1.028671564191268e+00	 1.692548043292789e+00
 4.348379187240837e-01	 1.037564930248352e+00	 1.425713127283808e+00
 4.141065482781622e-01	 1.046011838709305e+00	 1.157115936017383e+00
 3.911006289333422e-01	 9.879000698697851e-01	 3.045226296367005e-01
 3.714474402192345e-01	 9.954562015255159e-01	 2.046150157932529e-01
 3.517336337418573e-01	 1.002591492531163e+00	 1.175709940711891e-01
 3.319720059640349e-01	 1.009307107503605e+00	 4.190365444644550e-02
 3.121751838465298e-01	 1.015604698980536e+00	-2.374728620228028e-02
 2.923556033012256e-01	 1.021486393066090e+00	-8.060434348294532e-02
 2.725254888119741e-01	 1.026954774052105e+00	-1.297431087431478e-01
 2.526968342700303e-01	 1.032012868112777e+00	-1.720850748770122e-01
 2.328813850624824e-01	 1.036664126171887e+00	-2.083924201823466e-01
 2.130906214436766e-01	 1.040912406042435e+00	-2.392647042333551e-01
 1.933357432113846e-01	 1.044761953938440e+00	-2.651374100808201e-01
 3.934012208700279e-01	 9.937112467559407e-01	 4.133827737199616e-01
 3.736324251632709e-01	 1.001311826244610e+00	 3.057228408196011e-01
 3.538026551182274e-01	 1.008489089549963e+00	 2.110838340661025e-01
 3.339247824710317e-01	 1.015244208139567e+00	 1.279438838083689e-01
 3.140115084586853e-01	 1.021578844271924e+00	 5.490935045277290e-02
 2.940753421454938e-01	 1.027495136557664e+00	-9.273755961161978e-03
 2.741285799240366e-01	 1.032995684490343e+00	-6.571037463042728e-02
 2.541832862378694e-01	 1.038083532045181e+00	-1.153490105688233e-01
 2.342512755645915e-01	 1.042762150445510e+00	-1.589763445442278e-01
 2.143440956894562e-01	 1.047035420197350e+00	-1.972137900654674e-01
 1.944730122913974e-01	 1.050907612492446e+00	-2.305159310769436e-01
 3.957018128062240e-01	 9.995224236416069e-01	 5.168492212512898e-01
 3.758174101069071e-01	 1.007167450963309e+00	 4.017417672030188e-01
 3.558716764942655e-01	 1.014386686568452e+00	 2.997920390279216e-01
 3.358775589777437e-01	 1.021181308775290e+00	 2.094420965016375e-01
 3.158478330705827e-01	 1.027552989563138e+00	 1.292639436337888e-01
 2.957950809895101e-01	 1.033503880049119e+00	 5.797122988146963e-02
 2.757316710358335e-01	 1.039036594928505e+00	-5.571102484721813e-03
 2.556697382054092e-01	 1.044154195977542e+00	-6.233922470104414e-02
 2.356211660663486e-01	 1.048860174719115e+00	-1.131448572735927e-01
 2.155975699348118e-01	 1.053158434352260e+00	-1.586316885866279e-01
 1.956102813708955e-01	 1.057053271046452e+00	-1.992737093176404e-01
 3.980024047419303e-01	 1.005333600526783e+00	 6.149811775463667e-01
 3.780023950501428e-01	 1.013023075681613e+00	 4.927309590408304e-01
 3.579406978699713e-01	 1.020284283586630e+00	 3.837548584728716e-01
 3.378303354841709e-01	 1.027118409410778e+00	 2.864577471629408e-01
 3.176841576822218e-01	 1.033527134854179e+00	 1.993762659291791e-01
 2.975148198332744e-01	 1.039512623540453e+00	 1.211908106516457e-01
 2.773347621473646e-01	 1.045077505366590e+00	 5.073542774855300e-02
 2.571561901726500e-01	 1.050224859909860e+00	-1.299438081234205e-02
 2.369910565677537e-01	 1.054958198992700e+00	-7.083591882971874e-02
 2.168510441797434e-01	 1.059281448507164e+00	-1.234555765793535e-01
 1.967475504498789e-01	 1.063198929600459e+00	-1.713470631590046e-01
 4.003029966771468e-01	 1.011144777411470e+00	 7.078358950764077e-01
 3.801873799929781e-01	 1.018878700399522e+00	 5.787476802317035e-01
 3.600097192453450e-01	 1.026181880604498e+00	 4.630296898927304e-01
 3.397831119903131e-01	 1.033055510046029e+00	 3.590484820762176e-01
 3.195204822936028e-01	 1.039501280145047e+00	 2.653043207330614e-01
 2.992345586767869e-01	 1.045521367031669e+00	 1.804434483975199e-01
 2.789378532586302e-01	 1.051118415804599e+00	 1.032682316899134e-01
 2.586426421395918e-01	 1.056295523842136e+00	 3.274517875185001e-02
 2.383609470688068e-01	 1.061056223266267e+00	-3.198914731978508e-02
 2.181045184242510e-01	 1.065404462662065e+00	-9.162427174807197e-02
 1.978848195283477e-01	 1.069344588154465e+00	-1.466739395400514e-01
 4.026035886118738e-01	 1.016955954295667e+00	 7.954687292629339e-01
 3.823723649354130e-01	 1.024734325117036e+00	 6.598473487691743e-01
 3.620787406203865e-01	 1.032079477622055e+00	 5.376721316683233e-01
 3.417358884961705e-01	 1.038992610681042e+00	 4.272701908413215e-01
 3.213568069047254e-01	 1.045475425435741e+00	 3.271043927927089e-01
 3.009542975200477e-01	 1.051530110522764e+00	 2.357859201685417e-01
 2.805409443696303e-01	 1.057159326242533e+00	 1.520846692237550e-01
 2.601290941062343e-01	 1.062366187774369e+00	 7.493748080524343e-02
 2.397308375695078e-01	 1.067154247539815e+00	 3.454228861738962e-03
 2.193579926683346e-01	 1.071527476816960e+00	-6.307818583629654e-02
 1.990220886063018e-01	 1.075490246708472e+00	-1.251938674500486e-01
 4.049041805461109e-01	 1.022767131179374e+00	 8.779331923716405e-01
 3.845573498774476e-01	 1.030589949834155e+00	 7.360835891791451e-01
 3.641477619950957e-01	 1.037977074639302e+00	 6.077360341830820e-01
 3.436886650017429e-01	 1.044929711315819e+00	 4.911770562790629e-01
 3.231931315155899e-01	 1.051449570726263e+00	 3.848310970343443e-01
 3.026740363630564e-01	 1.057538854013740e+00	 2.872733658841886e-01
 2.821440354803646e-01	 1.063200236680389e+00	 1.972404915363044e-01
 2.616155460725778e-01	 1.068436851706560e+00	 1.136389676517107e-01
 2.411007280698567e-01	 1.073252271813344e+00	 3.555141678051710e-02
 2.206114669119943e-01	 1.077650490971851e+00	-3.775927934035694e-02
 2.001593576837413e-01	 1.081635905262479e+00	-1.068479129847089e-01
 4.072047724798582e-01	 1.028578308062591e+00	 9.552810055789540e-01
 3.867423348190817e-01	 1.036445574550879e+00	 8.075082831852178e-01
 3.662167833694727e-01	 1.043874671656237e+00	 6.732735491999764e-01
 3.456414415070306e-01	 1.050866811950359e+00	 5.508216026449160e-01
 3.250294561261963e-01	 1.057423716016612e+00	 4.385374257325481e-01
 3.043937752058133e-01	 1.063547597504596e+00	 3.349593345810113e-01
 2.837471265908335e-01	 1.069241147118170e+00	 2.387898865597853e-01
 2.631019980386221e-01	 1.074507515638708e+00	 1.489045418448209e-01
 2.424706185698538e-01	 1.079350296086854e+00	 6.435810315793011e-02
 2.218649411552299e-01	 1.083773505126737e+00	-1.561101776042229e-02
 2.012966267606660e-01	 1.087781563816485e+00	-9.157863592513893e-02
 4.095053644131160e-01	 1.034389484945319e+00	 1.027562149283207e+00
 3.889273197603154e-01	 1.042301199267208e+00	 8.741716186630246e-01
 3.682858047435176e-01	 1.049772268672862e+00	 7.343351775752709e-01
 3.475942180120332e-01	 1.056803912584663e+00	 6.062547422192188e-01
 3.268657807365444e-01	 1.063397861306787e+00	 4.882747940916112e-01
 3.061135140483183e-01	 1.069556340995332e+00	 3.788958290997733e-01
 2.853502177010366e-01	 1.075282057555875e+00	 2.767855228822973e-01
 2.645884500043674e-01	 1.080578179570813e+00	 1.807876094401801e-01
 2.438405090694987e-01	 1.085448320360345e+00	 8.992849707744810e-02
 2.231184153980416e-01	 1.089896519281619e+00	 3.421670675414656e-03
 2.024338958370761e-01	 1.093927222370492e+00	-7.933004777959640e-02
 4.118059563458840e-01	 1.040200661827557e+00	 1.094824911730385e+00
 3.911123047011488e-01	 1.048156823983142e+00	 9.361221369539721e-01
 3.703548261172301e-01	 1.055669865689176e+00	 7.909698153745719e-01
 3.495469945167511e-01	 1.062741013218729e+00	 6.575258203330354e-01
 3.287021053466342e-01	 1.069372006596789e+00	 5.340930842957508e-01
 3.078332528905713e-01	 1.075565084485949e+00	 4.191333492759992e-01
 2.869533088109739e-01	 1.081322967993503e+00	 3.112785921894314e-01
 2.660749019698135e-01	 1.086648843502876e+00	 2.093401217955870e-01
 2.452103995687917e-01	 1.091546344633818e+00	 1.123153712593399e-01
 2.243718896404292e-01	 1.096019533436496e+00	 1.939243586949102e-02
 2.035711649129715e-01	 1.100072880924498e+00	-7.004757123376049e-02
 4.141065482781622e-01	 1.046011838709305e+00	 1.157115936017383e+00
 3.932972896415818e-01	 1.054012448698682e+00	 9.934067786032299e-01
 3.724238474906106e-01	 1.061567462705180e+00	 8.432247984496546e-01
 3.514997710211839e-01	 1.068678113852559e+00	 7.046826588953814e-01
 3.305384299564659e-01	 1.075346151886618e+00	 5.760406880951305e-01
 3.095529917325726e-01	 1.081573827976446e+00	 4.557209336894696e-01
 2.885563999206459e-01	 1.087363878431055e+00	 3.423188502886445e-01
 2.675613539349605e-01	 1.092719507434895e+00	 2.346126159808399e-01
 2.465802900677326e-01	 1.097644368907272e+00	 1.315701019602442e-01
 2.256253638823929e-01	 1.102142547591368e+00	 3.235354535017532e-02
 2.047084339883523e-01	 1.106218539478505e+00	-6.367800095030463e-02
 1.933357432113846e-01	 1.044761953938440e+00	-2.651374100808201e-01
 1.736276557013740e-01	 1.048217385457841e+00	-2.951121833621815e-01
 1.539769571066577e-01	 1.051283666134210e+00	-3.214026985209641e-01
 1.343939271197825e-01	 1.053966091652700e+00	-3.440901297746932e-01
 1.148885168896667e-01	 1.056270267823133e+00	-3.630995070957508e-01
 9.547034027827500e-02	 1.058202090400186e+00	-3.782054772088586e-01
 7.614866639592593e-02	 1.059767724837014e+00	-3.890392618629894e-01
 5.693241338847285e-02	 1.060973586054718e+00	-3.950966726497969e-01
 3.783014344444292e-02	 1.061826318305864e+00	-3.957470392407587e-01
 1.885005898556771e-02	 1.062332775205699e+00	-3.902429074536338e-01
 0.000000000000000e+00	 1.062500000000000e+00	-3.777303649399113e-01
 1.944730122913974e-01	 1.050907612492446e+00	-2.305159310769436e-01
 1.746489948551299e-01	 1.054383370079331e+00	-2.680687601229161e-01
 1.548827039158940e-01	 1.057467687700608e+00	-3.006397591983609e-01
 1.351844796350182e-01	 1.060165892192520e+00	-3.283272419830876e-01
 1.155643316975929e-01	 1.062483622340241e+00	-3.510750554879665e-01
 9.603193051771425e-02	 1.064426808579356e+00	-3.686781625107534e-01
 7.659659972988145e-02	 1.066001652630392e+00	-3.807894359312778e-01
 5.726730993963160e-02	 1.067214607149281e+00	-3.869275237150438e-01
 3.805267370130919e-02	 1.068072355472424e+00	-3.864856409339885e-01
 1.896094168618776e-02	 1.068581791530452e+00	-3.787411445804505e-01
 0.000000000000000e+00	 1.068750000000000e+00	-3.628657482057669e-01
 1.956102813708955e-01	 1.057053271046452e+00	-1.992737093176404e-01
 1.756703340082874e-01	 1.060549354700821e+00	-2.442115431799263e-01
 1.557884507244795e-01	 1.063651709267005e+00	-2.829133461333244e-01
 1.359750321495818e-01	 1.066365692732341e+00	-3.154944224114788e-01
 1.162401465048564e-01	 1.068696976857349e+00	-3.419171491897499e-01
 9.659352075653001e-02	 1.070651526758527e+00	-3.619963863614868e-01
 7.704453306328200e-02	 1.072235580423771e+00	-3.754061132107767e-01
 5.760220649033269e-02	 1.073455628243843e+00	-3.816871503626449e-01
 3.827520395784313e-02	 1.074318392638983e+00	-3.802558227194113e-01
 1.907182438662829e-02	 1.074830807855205e+00	-3.704134184238463e-01
 0.000000000000000e+00	 1.075000000000000e+00	-3.513563000820836e-01
 1.967475504498789e-01	 1.063198929600459e+00	-1.713470631590046e-01
 1.766916731608462e-01	 1.066715339322310e+00	-2.234781760630349e-01
 1.566941975324142e-01	 1.069835730833404e+00	-2.681620715810418e-01
 1.367655846634734e-01	 1.072565493272161e+00	-3.055309028062485e-01
 1.169159613114570e-01	 1.074910331374456e+00	-3.355652977367525e-01
 9.715511099472224e-02	 1.076876244937697e+00	-3.580996021995522e-01
 7.749246639612764e-02	 1.078469508217150e+00	-3.728283652132776e-01
 5.793710304057614e-02	 1.079696649338406e+00	-3.793139246273496e-01
 3.849773421404479e-02	 1.080564429805542e+00	-3.769949480642323e-01
 1.918270708688930e-02	 1.081079824179958e+00	-3.651957834140687e-01
 0.000000000000000e+00	 1.081250000000000e+00	-3.431364742374980e-01
 1.978848195283477e-01	 1.069344588154465e+00	-1.466739395400514e-01
 1.777130123128064e-01	 1.072881323943800e+00	-2.058078710882962e-01
 1.575999443396979e-01	 1.076019752399802e+00	-2.563260677799697e-01
 1.375561371766928e-01	 1.078765293811981e+00	-2.983773969688106e-01
 1.175917761173949e-01	 1.081123685891564e+00	-3.319604655262012e-01
 9.771670123229093e-02	 1.083100963116868e+00	-3.569287017002103e-01
 7.794039972841832e-02	 1.084703436010529e+00	-3.729966954557709e-01
 5.827199959036193e-02	 1.085937670432968e+00	-3.797476545109340e-01
 3.872026446991417e-02	 1.086810466972101e+00	-3.766418303473529e-01
 1.929358978697078e-02	 1.087328840504711e+00	-3.630257675868287e-01
 0.000000000000000e+00	 1.087500000000000e+00	-3.381422311537294e-01
 1.990220886063018e-01	 1.075490246708472e+00	-1.251938674500486e-01
 1.787343514641680e-01	 1.079047308565290e+00	-1.911413645339000e-01
 1.585056911463307e-01	 1.082203773966200e+00	-2.473469435226963e-01
 1.383466896892402e-01	 1.084965094351801e+00	-2.939760584122291e-01
 1.182675909226700e-01	 1.087337040408672e+00	-3.310450302480796e-01
 9.827829146923614e-02	 1.089325681296038e+00	-3.584259736831670e-01
 7.838833306015408e-02	 1.090937363803908e+00	-3.758529985463506e-01
 5.860689613969008e-02	 1.092178691527530e+00	-3.829295429554085e-01
 3.894279472545124e-02	 1.093056504138661e+00	-3.791366914303649e-01
 1.940447248687273e-02	 1.093577856829463e+00	-3.638423304810283e-01
 0.000000000000000e+00	 1.093750000000000e+00	-3.363109950724996e-01
 2.001593576837413e-01	 1.081635905262479e+00	-1.068479129847089e-01
 1.797556906149310e-01	 1.085213293186779e+00	-1.794208733461873e-01
 1.594114379523127e-01	 1.088387795532598e+00	-2.411677422103811e-01
 1.391372422011155e-01	 1.091164894891622e+00	-2.922704394595086e-01
 1.189434057272824e-01	 1.093550394925780e+00	-3.327627427356803e-01
 9.883988170555776e-02	 1.095550399475208e+00	-3.625350644215333e-01
 7.883626639133488e-02	 1.097171291597286e+00	-3.813405206643625e-01
 5.894179268856058e-02	 1.098419712622092e+00	-3.888021482125961e-01
 3.916532498065600e-02	 1.099302541305220e+00	-3.844211216465423e-01
 1.951535518659516e-02	 1.099826873154216e+00	-3.675858224704154e-01
 0.000000000000000e+00	 1.100000000000000e+00	-3.375816124125381e-01
 2.012966267606660e-01	 1.087781563816485e+00	-9.157863592513893e-02
 1.807770297650954e-01	 1.091379277808269e+00	-1.705900533130276e-01
 1.603171847576438e-01	 1.094571817098996e+00	-2.377329013251122e-01
 1.399277947123187e-01	 1.097364695431442e+00	-2.932054517298091e-01
 1.196192205312319e-01	 1.099763749442888e+00	-3.370586881756026e-01
 9.940147194125595e-02	 1.101775117654379e+00	-3.692009392955504e-01
 7.928419972196075e-02	 1.103405219390665e+00	-3.894038213794695e-01
 5.927668923697343e-02	 1.104660733716655e+00	-3.973093455603740e-01
 3.938785523552848e-02	 1.105548578471779e+00	-3.924380411413870e-01
 1.962623788613807e-02	 1.106075889478969e+00	-3.741979454746218e-01
 0.000000000000000e+00	 1.106250000000000e+00	-3.418943115944000e-01
 2.024338958370761e-01	 1.093927222370492e+00	-7.933004777959640e-02
 1.817983689146613e-01	 1.097545262429758e+00	-1.645939586469392e-01
 1.612229315623240e-01	 1.100755838665394e+00	-2.369882132719998e-01
 1.407183472228497e-01	 1.103564495971262e+00	-2.967273279553475e-01
 1.202950353345188e-01	 1.105977103959996e+00	-3.438792486263971e-01
 9.996306217633058e-02	 1.107999835833550e+00	-3.783698457390581e-01
 7.973213305203170e-02	 1.109639147184044e+00	-3.999887367603234e-01
 5.961158578492860e-02	 1.110901754811217e+00	-4.083962903055975e-01
 3.961038549006866e-02	 1.111794615638339e+00	-4.031316625197077e-01
 1.973712058550145e-02	 1.112324905803722e+00	-3.836217149944905e-01
 0.000000000000000e+00	 1.112500000000000e+00	-3.491906642206017e-01
 2.035711649129715e-01	 1.100072880924498e+00	-7.004757123376049e-02
 1.828197080636285e-01	 1.103711247051248e+00	-1.613790029227888e-01
 1.621286783663532e-01	 1.106939860231791e+00	-2.388807875309258e-01
 1.415088997327088e-01	 1.109764296511083e+00	-3.027835850794878e-01
 1.209708501371428e-01	 1.112190458477105e+00	-3.531720667923262e-01
 1.005246524107817e-01	 1.114224554012720e+00	-3.899892774268263e-01
 8.018006638154769e-02	 1.115873074977423e+00	-4.130423437170938e-01
 5.994648233242615e-02	 1.117142775905780e+00	-4.220093820309057e-01
 3.983291574427654e-02	 1.118040652804898e+00	-4.164474547424031e-01
 1.984800328468531e-02	 1.118573922128475e+00	-3.958014234203371e-01
 0.000000000000000e+00	 1.118750000000000e+00	-3.594135475559530e-01
 2.047084339883523e-01	 1.106218539478505e+00	-6.367800095030463e-02
 1.838410472119971e-01	 1.109877231672737e+00	-1.608929213179344e-01
 1.630344251697317e-01	 1.113123881798189e+00	-2.433590140715127e-01
 1.422994522418957e-01	 1.115964097050903e+00	-3.113229885831919e-01
 1.216466649391041e-01	 1.118403812994212e+00	-3.648860110068211e-01
 1.010862426446093e-01	 1.120449272191891e+00	-4.040079396588452e-01
 8.062799971050875e-02	 1.122107002770802e+00	-4.285129255337743e-01
 6.028137887946602e-02	 1.123383797000342e+00	-4.380962300298734e-01
 4.005544599815213e-02	 1.124286689971457e+00	-4.323321082285403e-01
 1.995888598368964e-02	 1.124822938453228e+00	-4.106826045610283e-01
 0.000000000000000e+00	 1.125000000000000e+00	-3.725071082600619e-01
 1.125000000000000e+00	 0.000000000000000e+00	 2.205571315590126e+01
 1.124822938453228e+00	 1.995888598368899e-02	 2.217768537995793e+01
 1.124286689971457e+00	 4.005544599815156e-02	 2.225373625984058e+01
 1.123383797000342e+00	 6.028137887946552e-02	 2.228294435317100e+01
 1.122107002770802e+00	 8.062799971050830e-02	 2.226442722497856e+01
 1.120449272191891e+00	 1.010862426446089e-01	 2.219734116099822e+01
 1.118403812994212e+00	 1.216466649391038e-01	 2.208088068202844e+01
 1.115964097050903e+00	 1.422994522418954e-01	 2.191427788071865e+01
 1.113123881798190e+00	 1.630344251697315e-01	 2.169680160664502e+01
 1.109877231672738e+00	 1.838410472119971e-01	 2.142775652993059e+01
 1.106218539478505e+00	 2.047084339883523e-01	 2.110648211788613e+01
 1.131250000000000e+00	 0.000000000000000e+00	 2.180483506413874e+01
 1.131071954777978e+00	 2.006976868269332e-02	 2.192995438937482e+01
 1.130532727138007e+00	 4.027797625202714e-02	 2.200925853911487e+01
 1.129624818094883e+00	 6.061627542650540e-02	 2.204180841192791e+01
 1.128340930564143e+00	 8.107593303946935e-02	 2.202670270700136e+01
 1.126673990371002e+00	 1.016478328784365e-01	 2.196307758526368e+01
 1.124617167511235e+00	 1.223224797410650e-01	 2.185010613447530e+01
 1.122163897590606e+00	 1.430900047510823e-01	 2.168699766056888e+01
 1.119307903364434e+00	 1.639401719731100e-01	 2.147299683206752e+01
 1.116043216294032e+00	 1.848623863603657e-01	 2.120738270885765e+01
 1.112364198032268e+00	 2.058457030637330e-01	 2.088946769085407e+01
 1.137500000000000e+00	 0.000000000000000e+00	 2.156320440259541e+01
 1.137320971102724e+00	 2.018065138187717e-02	 2.169121638268853e+01
 1.136778764304539e+00	 4.050050650623501e-02	 2.177352235312835e+01
 1.135865839189383e+00	 6.095117197400295e-02	 2.180916620255302e+01
 1.134574858357410e+00	 8.152386636898536e-02	 2.179722841769694e+01
 1.132898708549996e+00	 1.022094231128876e-01	 2.173682568939258e+01
 1.130830522028087e+00	 1.229982945436891e-01	 2.162711032529358e+01
 1.128363698130076e+00	 1.438805572609413e-01	 2.146726949252641e+01
 1.125491924930371e+00	 1.648459187771392e-01	 2.125652431808632e+01
 1.122209200914935e+00	 1.858837255093329e-01	 2.099412887929307e+01
 1.118509856585547e+00	 2.069829721396284e-01	 2.067936912092836e+01
 1.143750000000000e+00	 0.000000000000000e+00	 2.133070045590465e+01
 1.143569987427465e+00	 2.029153408124055e-02	 2.146135233602753e+01
 1.143024801471052e+00	 4.072303676077520e-02	 2.154641038016800e+01
 1.142106860283841e+00	 6.128606852195812e-02	 2.158490211488756e+01
 1.140808786150602e+00	 8.197179969905631e-02	 2.157589046647441e+01
 1.139123426728873e+00	 1.027710133479622e-01	 2.151847330887320e+01
 1.137043876544769e+00	 1.236741093469759e-01	 2.141178282093334e+01
 1.134563498669313e+00	 1.446711097714725e-01	 2.125498467712489e+01
 1.131675946496002e+00	 1.657516655818194e-01	 2.104727710054124e+01
 1.128375185535448e+00	 1.869050646588988e-01	 2.078788981156362e+01
 1.124655515138340e+00	 2.081202412160386e-01	 2.047608290991406e+01
 1.150000000000000e+00	 0.000000000000000e+00	 2.110720513294644e+01
 1.149819003752202e+00	 2.040241678078345e-02	 2.124024578680995e+01
 1.149270838637547e+00	 4.094556701564766e-02	 2.132780779707722e+01
 1.148347881378257e+00	 6.162096507037097e-02	 2.136890297491999e+01
 1.147042713943719e+00	 8.241973302968218e-02	 2.136257733690849e+01
 1.145348144907632e+00	 1.033326035836604e-01	 2.130791059191128e+01
 1.143257231061281e+00	 1.243499241509254e-01	 2.120401543975541e+01
 1.140763299208316e+00	 1.454616622826756e-01	 2.105003670675303e+01
 1.137859968061326e+00	 1.666574123871505e-01	 2.084515034793448e+01
 1.134541170155570e+00	 1.879264038090633e-01	 2.058856235044158e+01
 1.130801173690648e+00	 2.092575102929633e-01	 2.027950757693435e+01
 1.156250000000000e+00	 0.000000000000000e+00	 2.089260289592195e+01
 1.156068020076935e+00	 2.051329948050587e-02	 2.102778276451979e+01
 1.155516875804023e+00	 4.116809727085244e-02	 2.111760221172735e+01
 1.154588902472632e+00	 6.195586161924145e-02	 2.116105797894413e+01
 1.153276641736761e+00	 8.286766636086300e-02	 2.115717982257289e+01
 1.151572863086273e+00	 1.038941938199820e-01	 2.110502993692412e+01
 1.149470585577622e+00	 1.250257389555378e-01	 2.100370219116870e+01
 1.146963099747086e+00	 1.462522147945509e-01	 2.085232120641533e+01
 1.144043989626343e+00	 1.675631591931325e-01	 2.065004130379118e+01
 1.140707154775301e+00	 1.889477429598262e-01	 2.039604535907851e+01
 1.136946832242471e+00	 2.103947793704027e-01	 2.008954360390834e+01
 1.162500000000000e+00	 0.000000000000000e+00	 2.068678069171573e+01
 1.162317036401662e+00	 2.062418218040783e-02	 2.082385172371579e+01
 1.161762912970481e+00	 4.139062752638950e-02	 2.091568359766731e+01
 1.160829923566964e+00	 6.229075816856960e-02	 2.096125862984149e+01
 1.159510569529729e+00	 8.331559969259870e-02	 2.095959096494365e+01
 1.157797581264797e+00	 1.044557840569273e-01	 2.090972593205106e+01
 1.155683940093792e+00	 1.257015537608129e-01	 2.081073921673130e+01
 1.153162900285622e+00	 1.470427673070983e-01	 2.066173587640372e+01
 1.150228011191053e+00	 1.684689059997653e-01	 2.046184923087910e+01
 1.146873139394641e+00	 1.899690821111878e-01	 2.021023966474782e+01
 1.143092490793808e+00	 2.115320484483569e-01	 1.990609338278783e+01
 1.168750000000000e+00	 0.000000000000000e+00	 2.048962788546041e+01
 1.168566052726385e+00	 2.073506488048930e-02	 2.062834347918990e+01
 1.168008950136921e+00	 4.161315778225886e-02	 2.072194423087036e+01
 1.167070944661255e+00	 6.262565471835538e-02	 2.076939867540756e+01
 1.165744497322621e+00	 8.376353302488941e-02	 2.076970599329470e+01
 1.164022299443203e+00	 1.050173742944959e-01	 2.072189529660485e+01
 1.161897294609792e+00	 1.263773685667508e-01	 2.062502473314095e+01
 1.159362700823924e+00	 1.478333198203177e-01	 2.047818043680853e+01
 1.156412032755457e+00	 1.693746528070491e-01	 2.028047535721831e+01
 1.153039124013590e+00	 1.909904212631480e-01	 2.003104800632805e+01
 1.149238149344660e+00	 2.126693175268256e-01	 1.972906116448683e+01
 1.175000000000000e+00	 0.000000000000000e+00	 2.030103619622163e+01
 1.174815069051104e+00	 2.084594758075031e-02	 2.044115114319515e+01
 1.174254987303342e+00	 4.183568803846051e-02	 2.053627862849936e+01
 1.173311965755504e+00	 6.296055126859884e-02	 2.058537404864678e+01
 1.171978425115439e+00	 8.421146635773503e-02	 2.058742226651185e+01
 1.170247017621492e+00	 1.055789645326882e-01	 2.054143682439124e+01
 1.168110649125622e+00	 1.270531833733514e-01	 2.044645897704528e+01
 1.165562501361993e+00	 1.486238723342092e-01	 2.030155657380054e+01
 1.162596054319553e+00	 1.702803996149837e-01	 2.010582282381377e+01
 1.159205108632150e+00	 1.920117604157068e-01	 1.985837498346237e+01
 1.155383807895026e+00	 2.138065866058091e-01	 1.955835300944108e+01
 1.181250000000000e+00	 0.000000000000000e+00	 2.012089963472460e+01
 1.181064085375818e+00	 2.095683028119083e-02	 2.026217006466615e+01
 1.180501024469744e+00	 4.205821829499447e-02	 2.035858348961593e+01
 1.179552986849712e+00	 6.329544781929992e-02	 2.040908280996281e+01
 1.178212352908183e+00	 8.465939969113560e-02	 2.041263921675377e+01
 1.176471735799663e+00	 1.061405547715039e-01	 2.036825132882858e+01
 1.174324003641281e+00	 1.277289981806149e-01	 2.027494415160385e+01
 1.171762301899829e+00	 1.494144248487729e-01	 2.013176788761816e+01
 1.168780075883342e+00	 1.711861464235691e-01	 1.993779663404719e+01
 1.165371093250317e+00	 1.930330995688642e-01	 1.969212700733203e+01
 1.161529466444907e+00	 2.149438556853072e-01	 1.939387673973722e+01
 1.187500000000000e+00	 0.000000000000000e+00	 1.994911444304737e+01
 1.187313101700527e+00	 2.106771298181088e-02	 2.009129777035928e+01
 1.186747061636129e+00	 4.228074855186074e-02	 2.018875763776224e+01
 1.185794007943877e+00	 6.363034437045868e-02	 2.024042509117427e+01
 1.184446280700851e+00	 8.510733302509109e-02	 2.024525829489221e+01
 1.182696453977716e+00	 1.067021450109431e-01	 2.020224158979985e+01
 1.180537358156770e+00	 1.284048129885411e-01	 2.011038437473806e+01
 1.177962102437431e+00	 1.502049773640085e-01	 1.996871984219735e+01
 1.174964097446825e+00	 1.720918932328055e-01	 1.977630360466729e+01
 1.171537077868094e+00	 1.940544387226202e-01	 1.953221225298426e+01
 1.167675124994303e+00	 2.160811247653200e-01	 1.923554189275325e+01
 1.106218539478505e+00	 2.047084339883523e-01	 2.110648211788613e+01
 1.102142547591368e+00	 2.256253638823922e-01	 2.095832918331397e+01
 1.097644368907272e+00	 2.465802900677321e-01	 2.076529647153788e+01
 1.092719507434896e+00	 2.675613539349601e-01	 2.052785267413581e+01
 1.087363878431055e+00	 2.885563999206455e-01	 2.024650012041438e+01
 1.081573827976446e+00	 3.095529917325723e-01	 1.992176965944664e+01
 1.075346151886618e+00	 3.305384299564658e-01	 1.955421554955410e+01
 1.068678113852559e+00	 3.514997710211838e-01	 1.914441042716889e+01
 1.061567462705180e+00	 3.724238474906107e-01	 1.869294042880408e+01
 1.054012448698681e+00	 3.932972896415817e-01	 1.820040054059896e+01
 1.046011838709305e+00	 4.141065482781622e-01	 1.766739024951408e+01
 1.112364198032268e+00	 2.058457030637330e-01	 2.088946769085407e+01
 1.108265561745950e+00	 2.268788381243560e-01	 2.075021826744368e+01
 1.103742393180392e+00	 2.479501805666731e-01	 2.056647456772788e+01
 1.098790171366544e+00	 2.690478059001071e-01	 2.033873372852249e+01
 1.093404788868202e+00	 2.901594910303174e-01	 2.006752508614252e+01
 1.087582571466509e+00	 3.112727305745735e-01	 1.975340483462529e+01
 1.081320297175989e+00	 3.323747545662974e-01	 1.939695069542164e+01
 1.074615214485912e+00	 3.534525475256167e-01	 1.899875667267477e+01
 1.067465059720694e+00	 3.744928688639911e-01	 1.855942797004147e+01
 1.059868073413723e+00	 3.954822745820148e-01	 1.807957614576378e+01
 1.051823015590553e+00	 4.164071402104405e-01	 1.755981458229625e+01
 1.118509856585547e+00	 2.069829721396284e-01	 2.067936912092836e+01
 1.114388575899955e+00	 2.281323123667437e-01	 2.054907694495357e+01
 1.109840417452864e+00	 2.493200710659661e-01	 2.037468162784283e+01
 1.104860835297491e+00	 2.705342578655532e-01	 2.015670881766353e+01
 1.099445699304615e+00	 2.917625821402549e-01	 1.989571489116717e+01
 1.093591314955824e+00	 3.129924694168266e-01	 1.959228138614655e+01
 1.087294442464618e+00	 3.342110791763873e-01	 1.924700944943251e+01
 1.080552315118551e+00	 3.554053240303347e-01	 1.886051437686031e+01
 1.073362656735540e+00	 3.765618902377038e-01	 1.843342032341137e+01
 1.065723698128166e+00	 3.976672595228482e-01	 1.796635526250563e+01
 1.057634192471292e+00	 4.187077321432085e-01	 1.745994627300247e+01
 1.124655515138340e+00	 2.081202412160386e-01	 2.047608290991406e+01
 1.120511590053385e+00	 2.293857866095552e-01	 2.035479935947195e+01
 1.115938441724688e+00	 2.506899615656110e-01	 2.018980948955748e+01
 1.110931499227738e+00	 2.720207098312985e-01	 1.998166753068979e+01
 1.105486609740293e+00	 2.933656732504580e-01	 1.973095693855595e+01
 1.099600058444391e+00	 3.147122082593315e-01	 1.943828459842467e+01
 1.093268587752507e+00	 3.360474037867355e-01	 1.910427504952006e+01
 1.086489415750475e+00	 3.573581005353373e-01	 1.872956480792074e+01
 1.079260253749718e+00	 3.786309116117486e-01	 1.831479686846729e+01
 1.071579322842008e+00	 3.998522444640818e-01	 1.786061546694511e+01
 1.063445369351519e+00	 4.210083240764662e-01	 1.736766118337736e+01
 1.130801173690648e+00	 2.092575102929633e-01	 2.027950757693435e+01
 1.126634604206239e+00	 2.306392608527909e-01	 2.016728170481137e+01
 1.122036465995865e+00	 2.520598520656080e-01	 2.001175207361038e+01
 1.117002163157283e+00	 2.735071617973428e-01	 1.981350157263357e+01
 1.111527520175237e+00	 2.949687643609268e-01	 1.957314078001629e+01
 1.105608801932210e+00	 3.164319471020885e-01	 1.929130193709526e+01
 1.099242733039653e+00	 3.378837283973417e-01	 1.896863294720452e+01
 1.092426516381683e+00	 3.593108770406249e-01	 1.860579147972787e+01
 1.085157850763229e+00	 3.806999329861257e-01	 1.820343926219246e+01
 1.077434947555251e+00	 4.020372294057160e-01	 1.776223664398777e+01
 1.069256546231237e+00	 4.233089160102137e-01	 1.728283751484650e+01
 1.136946832242471e+00	 2.103947793704027e-01	 2.008954360390834e+01
 1.132757618358517e+00	 2.318927350964506e-01	 1.998642216955822e+01
 1.128134490266393e+00	 2.534297425659570e-01	 1.984040532750485e+01
 1.123072827086128e+00	 2.749936137636863e-01	 1.965210470724167e+01
 1.117568430609446e+00	 2.965718554716611e-01	 1.942215805782405e+01
 1.111617545419281e+00	 3.181516859450972e-01	 1.915122299006332e+01
 1.105216878326057e+00	 3.397200530082062e-01	 1.883997074776643e+01
 1.098363617012176e+00	 3.612636535461974e-01	 1.848908009113618e+01
 1.091055447776072e+00	 3.827689543608349e-01	 1.809923137744744e+01
 1.083290572267894e+00	 4.042222143477506e-01	 1.767110092492453e+01
 1.075067723110444e+00	 4.256095079444508e-01	 1.720535574528171e+01
 1.143092490793808e+00	 2.115320484483569e-01	 1.990609338278783e+01
 1.138880632510218e+00	 2.331462093405342e-01	 1.981212088344975e+01
 1.134232514536273e+00	 2.547996330666580e-01	 1.967566717102596e+01
 1.129143491014272e+00	 2.764800657303289e-01	 1.949737270163395e+01
 1.123609341042921e+00	 2.981749465826611e-01	 1.927790244862539e+01
 1.117626288905604e+00	 3.198714247883579e-01	 1.901793941045321e+01
 1.111191023611719e+00	 3.415563776193289e-01	 1.871817815234985e+01
 1.104300717641954e+00	 3.632164300520547e-01	 1.837931846724672e+01
 1.096953044788247e+00	 3.848379757358763e-01	 1.800205924340391e+01
 1.089146196979938e+00	 4.064071992901855e-01	 1.758709262704478e+01
 1.080878899989141e+00	 4.279100998791776e-01	 1.713509856780637e+01
 1.149238149344660e+00	 2.126693175268256e-01	 1.972906116448683e+01
 1.145003646661344e+00	 2.343996835850418e-01	 1.964427986547166e+01
 1.140330538805506e+00	 2.561695235677111e-01	 1.951743744350577e+01
 1.135214154941715e+00	 2.779665176972706e-01	 1.934920327273692e+01
 1.129650251475662e+00	 2.997780376939267e-01	 1.914026960904191e+01
 1.123635032391178e+00	 3.215911636318705e-01	 1.889134486138850e+01
 1.117165168896640e+00	 3.433927022307099e-01	 1.860314690192335e+01
 1.110237818271017e+00	 3.651692065581970e-01	 1.827639650255560e+01
 1.102850641799755e+00	 3.869069971112501e-01	 1.791181098788889e+01
 1.095001821691382e+00	 4.085921842330208e-01	 1.751009819518744e+01
 1.086690076867327e+00	 4.302106918143942e-01	 1.707195083156404e+01
 1.155383807895026e+00	 2.138065866058091e-01	 1.955835300944108e+01
 1.151126660811894e+00	 2.356531578299734e-01	 1.948280297361208e+01
 1.146428563074090e+00	 2.575394140691162e-01	 1.936561785277156e+01
 1.141284818868457e+00	 2.794529696645113e-01	 1.920749603542738e+01
 1.135691161907668e+00	 3.013811288054580e-01	 1.900915712301169e+01
 1.129643775876004e+00	 3.233109024756349e-01	 1.877133496253500e+01
 1.123139314180819e+00	 3.452290268423490e-01	 1.849477072302909e+01
 1.116174918899365e+00	 3.671219830646241e-01	 1.818020610591689e+01
 1.108748238810594e+00	 3.889760184869558e-01	 1.782837678156971e+01
 1.100857446402227e+00	 4.107771691762566e-01	 1.744000614515727e+01
 1.092501253745003e+00	 4.325112837501006e-01	 1.701579948437752e+01
 1.161529466444907e+00	 2.149438556853072e-01	 1.939387673973722e+01
 1.157249674961867e+00	 2.369066320753289e-01	 1.932759585621081e+01
 1.152526587342026e+00	 2.589093045708732e-01	 1.922011192571472e+01
 1.147355482794497e+00	 2.809394216320512e-01	 1.907215245232195e+01
 1.141732072338939e+00	 3.029842199172548e-01	 1.888446445080210e+01
 1.135652519360083e+00	 3.250306413196512e-01	 1.865780723834000e+01
 1.129113459464256e+00	 3.470653514542463e-01	 1.839294527525463e+01
 1.122112019526998e+00	 3.690747595713361e-01	 1.809064114725272e+01
 1.114645835820765e+00	 3.910450398629938e-01	 1.775164878391063e+01
 1.106713071112472e+00	 4.129621541198926e-01	 1.737670700893702e+01
 1.098312430622169e+00	 4.348118756862965e-01	 1.696653351722816e+01
 1.167675124994303e+00	 2.160811247653200e-01	 1.923554189275325e+01
 1.163372689111265e+00	 2.381601063211085e-01	 1.917856590484464e+01
 1.158624611609315e+00	 2.602791950729823e-01	 1.908082496042068e+01
 1.153426146719838e+00	 2.824258735998902e-01	 1.894307578515244e+01
 1.147772982769477e+00	 3.045873110293172e-01	 1.876609287963273e+01
 1.141661262843413e+00	 3.267503801639193e-01	 1.855066106790657e+01
 1.135087604746951e+00	 3.489016760664018e-01	 1.829756810036336e+01
 1.128049120153915e+00	 3.710275360783329e-01	 1.800759740594625e+01
 1.120543432830269e+00	 3.931140612393641e-01	 1.768152109083575e+01
 1.112568695822117e+00	 4.151471390639291e-01	 1.732009328163057e+01
 1.104123607498825e+00	 4.371124676229823e-01	 1.692404391048873e+01
 1.046011838709305e+00	 4.141065482781622e-01	 1.766739024951408e+01
 1.037564930248352e+00	 4.348379187240829e-01	 1.743026370813955e+01
 1.028671564191268e+00	 4.554775659241302e-01	 1.714533774993956e+01
 1.019332136129044e+00	 4.760115505788748e-01	 1.681214717599287e+01
 1.009547606253047e+00	 4.964258562287498e-01	 1.643022122948932e+01
 9.993195076898076e-01	 5.167064171925492e-01	 1.599908572616007e+01
 9.886499532091959e-01	 5.368391472596017e-01	 1.551826592727515e+01
 9.775416402367314e-01	 5.568099690270316e-01	 1.498729016922932e+01
 9.659978541089431e-01	 5.766048437667730e-01	 1.440569425291085e+01
 9.540224695195425e-01	 5.962098017009265e-01	 1.377302658459270e+01
 9.416199501136904e-01	 6.156109725587411e-01	 1.308885404818672e+01
 1.051823015590553e+00	 4.164071402104405e-01	 1.755981458229625e+01
 1.043329179859871e+00	 4.372536849360401e-01	 1.733211305669941e+01
 1.034386406213196e+00	 4.580079968423149e-01	 1.705608180952105e+01
 1.024995092439249e+00	 4.786560591892849e-01	 1.673109095091917e+01
 1.015156204063796e+00	 4.991837776481654e-01	 1.635650251562922e+01
 1.004871282730738e+00	 5.195770083950788e-01	 1.593167323891731e+01
 9.941424529475568e-01	 5.398215869626289e-01	 1.545595811196399e+01
 9.829724271254705e-01	 5.599033577401479e-01	 1.492871472740941e+01
 9.713645088528782e-01	 5.798082040066367e-01	 1.434930841449980e+01
 9.593225943495680e-01	 5.995220783743195e-01	 1.371711815138287e+01
 9.468511720587311e-01	 6.190310335153869e-01	 1.303154322977760e+01
 1.057634192471292e+00	 4.187077321432085e-01	 1.745994627300247e+01
 1.049093429470974e+00	 4.396694511485773e-01	 1.724105953139067e+01
 1.040101248234794e+00	 4.605384277611506e-01	 1.697332596171083e+01
 1.030658048749201e+00	 4.813005678003983e-01	 1.665595205155704e+01
 1.020764801874358e+00	 5.019416990683169e-01	 1.628813365168248e+01
 1.010423057771539e+00	 5.224475995983565e-01	 1.586905939307105e+01
 9.996349526858346e-01	 5.428040266663965e-01	 1.539791492055623e+01
 9.884032140141622e-01	 5.629967464539760e-01	 1.487388795046041e+01
 9.767311635967921e-01	 5.830115642471638e-01	 1.429617414797783e+01
 9.646227191795888e-01	 6.028343550483076e-01	 1.366398380768197e+01
 9.520823940037718e-01	 6.224510944725381e-01	 1.297654930779828e+01
 1.063445369351519e+00	 4.210083240764662e-01	 1.736766118337736e+01
 1.054857679081662e+00	 4.420852173616946e-01	 1.715698915880661e+01
 1.045816090256063e+00	 4.630688586806381e-01	 1.689696635318607e+01
 1.036321005058900e+00	 4.839450764122154e-01	 1.658663667992063e+01
 1.026373399684734e+00	 5.046996204892040e-01	 1.622503080993303e+01
 1.015974832812209e+00	 5.253181908023822e-01	 1.581117022551405e+01
 1.005127452424029e+00	 5.457864663709044e-01	 1.534407212809126e+01
 9.938340009028072e-01	 5.660901351685169e-01	 1.482275520417168e+01
 9.820978183406851e-01	 5.862149244883551e-01	 1.424624624149168e+01
 9.699228440096039e-01	 6.061466317228905e-01	 1.361358757462113e+01
 9.573136159488123e-01	 6.258711554301947e-01	 1.296073294200836e+01
 1.069256546231237e+00	 4.233089160102137e-01	 1.728283751484650e+01
 1.060621928691935e+00	 4.445009835753922e-01	 1.707979007936608e+01
 1.051530932277003e+00	 4.655992896007773e-01	 1.682690102106931e+01
 1.041983961368346e+00	 4.865895850247356e-01	 1.652305270800090e+01
 1.031981997494924e+00	 5.074575419108267e-01	 1.616711161552254e+01
 1.021526607852750e+00	 5.281887820071562e-01	 1.575793301266220e+01
 1.010619952162139e+00	 5.487689060761527e-01	 1.529436654001661e+01
 9.992647877914053e-01	 5.691835238837701e-01	 1.477526268027347e+01
 9.874644730845572e-01	 5.894182847302104e-01	 1.419948010973253e+01
 9.752229688396137e-01	 6.094589083980684e-01	 1.356589390596721e+01
 9.625448378938531e-01	 6.292912163883564e-01	 1.305230281305754e+01
 1.075067723110444e+00	 4.256095079444508e-01	 1.720535574528171e+01
 1.066386178301793e+00	 4.469167497896701e-01	 1.700935249018317e+01
 1.057245774297613e+00	 4.681297205215678e-01	 1.676302984183510e+01
 1.047646917677539e+00	 4.892340936379593e-01	 1.646510963263137e+01
 1.037590595304927e+00	 5.102154633331852e-01	 1.611429510718362e+01
 1.027078382893161e+00	 5.310593732126778e-01	 1.570927623695424e+01
 1.016112451900167e+00	 5.517513457821414e-01	 1.524873596433896e+01
 1.004695574679956e+00	 5.722769125997353e-01	 1.473135737411378e+01
 9.928311278284079e-01	 5.926216449727295e-01	 1.415583177700274e+01
 9.805230936696185e-01	 6.127711850738412e-01	 1.352086767642989e+01
 9.677760598388938e-01	 6.327112773470236e-01	 1.314163653197601e+01
 1.080878899989141e+00	 4.279100998791776e-01	 1.713509856780637e+01
 1.072150427911236e+00	 4.493325160045279e-01	 1.694556858977955e+01
 1.062960616317895e+00	 4.706601514430098e-01	 1.670525448186534e+01
 1.053309873986479e+00	 4.918786022518866e-01	 1.641271853180899e+01
 1.043199193114743e+00	 5.129733847562792e-01	 1.606650169924017e+01
 1.032630157933442e+00	 5.339299644189478e-01	 1.566512955443176e+01
 1.021604951638111e+00	 5.547337854888702e-01	 1.520711918467366e+01
 1.010126361568459e+00	 5.753703013164130e-01	 1.469098706305607e+01
 9.981977825722382e-01	 5.958250052159125e-01	 1.411525786082803e+01
 9.858232184996180e-01	 6.160834617502090e-01	 1.347847417034613e+01
 9.730072817839345e-01	 6.361313383061961e-01	 1.322870785865130e+01
 1.086690076867327e+00	 4.302106918143942e-01	 1.707195083156404e+01
 1.077914677520265e+00	 4.517482822199661e-01	 1.688833252457108e+01
 1.068675458337847e+00	 4.731905823651034e-01	 1.665347834959059e+01
 1.058972830295167e+00	 4.945231108665172e-01	 1.636579202241760e+01
 1.048807790924374e+00	 5.157313061801091e-01	 1.602365314482686e+01
 1.038181932973593e+00	 5.368005556259656e-01	 1.562542376335928e+01
 1.027097451375972e+00	 5.577162251963393e-01	 1.516945593415879e+01
 1.015557148456916e+00	 5.784636900338032e-01	 1.465410028556928e+01
 1.003564437316047e+00	 5.990283654597593e-01	 1.407771555609620e+01
 9.911233433296119e-01	 6.193957384271715e-01	 1.343867907072781e+01
 9.782385037289751e-01	 6.395513992658737e-01	 1.331349077839030e+01
 1.092501253745003e+00	 4.325112837501006e-01	 1.701579948437752e+01
 1.083678927128878e+00	 4.541640484359845e-01	 1.683754033706188e+01
 1.074390300357470e+00	 4.757210132878483e-01	 1.660760654915895e+01
 1.064635786603601e+00	 4.971676194818512e-01	 1.632424421929962e+01
 1.054416388733817e+00	 5.184892276046746e-01	 1.598567250028244e+01
 1.043733708013614e+00	 5.396711468337316e-01	 1.559009077384612e+01
 1.032589951113749e+00	 5.606986649045488e-01	 1.513568687020218e+01
 1.020987935345326e+00	 5.815570787519055e-01	 1.462064632098621e+01
 1.008931092059835e+00	 6.022317257042702e-01	 1.404316261970139e+01
 9.964234681596010e-01	 6.227080151047293e-01	 1.340144844865815e+01
 9.834697256740159e-01	 6.429714602260568e-01	 1.339595949592360e+01
 1.098312430622169e+00	 4.348118756862965e-01	 1.696653351722816e+01
 1.089443176737076e+00	 4.565798146525831e-01	 1.679308991568362e+01
 1.080105142376764e+00	 4.782514442112452e-01	 1.656754583557607e+01
 1.070298742911783e+00	 4.998121280978887e-01	 1.628799069562788e+01
 1.060024986543074e+00	 5.212471490299757e-01	 1.595248409067356e+01
 1.049285483053505e+00	 5.425417380422455e-01	 1.555906357843255e+01
 1.038082450851443e+00	 5.636811046134985e-01	 1.510575355002961e+01
 1.026418722233688e+00	 5.846504674707201e-01	 1.459057516990351e+01
 1.014297746803603e+00	 6.054350859494450e-01	 1.401155735567667e+01
 1.001723592989585e+00	 6.260202917828819e-01	 1.340459842205445e+01
 9.887009476190566e-01	 6.463915211867450e-01	 1.347608842960094e+01
 1.104123607498825e+00	 4.371124676229823e-01	 1.692404391048873e+01
 1.095207426344859e+00	 4.589955808697618e-01	 1.675488094621801e+01
 1.085819984395729e+00	 4.807818751352930e-01	 1.653320457126119e+01
 1.075961699219711e+00	 5.024566367146296e-01	 1.625694844452834e+01
 1.065633584352145e+00	 5.240050704560124e-01	 1.592401347640708e+01
 1.054837258093266e+00	 5.454123292515075e-01	 1.553227622360449e+01
 1.043574950589053e+00	 5.666635443231888e-01	 1.507959840700541e+01
 1.031849509122004e+00	 5.877438561902472e-01	 1.456383753520142e+01
 1.019664401547349e+00	 6.086384461952836e-01	 1.398285860079517e+01
 1.007023717819563e+00	 6.293325684616293e-01	 1.349243797650706e+01
 9.939321695640974e-01	 6.498115821479387e-01	 1.355385220576938e+01
 9.416199501136904e-01	 6.156109725587411e-01	 1.308885404818672e+01
 9.287953461982286e-01	 6.347946162834570e-01	 1.233240032626764e+01
 9.155542905443047e-01	 6.537471537558830e-01	 1.196878866809254e+01
 9.019029922722360e-01	 6.724551973962970e-01	 1.158388138324325e+01
 8.878482288198697e-01	 6.909055815044373e-01	 1.117951417801851e+01
 8.733973360046003e-01	 7.090853921996617e-01	 1.075750494996566e+01
 8.585581962027985e-01	 7.269819968216206e-01	 1.031964460667325e+01
 8.433392246814813e-01	 7.445830726538936e-01	 9.867688269241302e+00
 8.277493541285117e-01	 7.618766348356980e-01	 9.403346934454596e+00
 8.117980174388175e-01	 7.788510633304829e-01	 8.928279664136259e+00
 7.954951288250000e-01	 7.954951288250000e-01	 8.444086363722823e+00
 9.468511720587311e-01	 6.190310335153869e-01	 1.303154322977760e+01
 9.339553203443668e-01	 6.383212530393263e-01	 1.242049930308837e+01
 9.206407032706924e-01	 6.573790823872896e-01	 1.204886193758891e+01
 9.069135644531378e-01	 6.761910596041109e-01	 1.165799660213342e+01
 8.927807189819817e-01	 6.947439458467489e-01	 1.124980515169631e+01
 8.782495434291595e-01	 7.130247554907800e-01	 1.082616359457328e+01
 8.633279639620208e-01	 7.310207856944068e-01	 1.038891256955810e+01
 8.480244425990657e-01	 7.487196452816732e-01	 9.939848253369160e+00
 8.323479616542008e-01	 7.661092828092362e-01	 9.480713774984189e+00
 8.163080064273257e-01	 7.831780136847859e-01	 9.013191207562668e+00
 7.999145462100000e-01	 7.999145462100000e-01	 8.538894201775442e+00
 9.520823940037718e-01	 6.224510944725381e-01	 1.297654930779828e+01
 9.391152944905047e-01	 6.418478897956055e-01	 1.250657237953606e+01
 9.257271159970799e-01	 6.610110110190202e-01	 1.212702926028457e+01
 9.119241366340395e-01	 6.799269218121736e-01	 1.173031546379747e+01
 8.977132091440939e-01	 6.985823101892439e-01	 1.131839880656555e+01
 8.831017508537183e-01	 7.169641187820254e-01	 1.089321323534424e+01
 8.680977317212428e-01	 7.350595745672746e-01	 1.045664896310450e+01
 8.527096605166501e-01	 7.528562179094989e-01	 1.001054308079526e+01
 8.369465691798901e-01	 7.703419307827950e-01	 9.556670724197804e+00
 8.208179954158336e-01	 7.875049640390939e-01	 9.096736868770607e+00
 8.043339635950000e-01	 8.043339635950000e-01	 8.632368818065791e+00
 9.573136159488123e-01	 6.258711554301947e-01	 1.296073294200836e+01
 9.442752686366426e-01	 6.453745265522945e-01	 1.259058921860244e+01
 9.308135287234676e-01	 6.646429396510756e-01	 1.220325722974242e+01
 9.169347088149411e-01	 6.836627840204852e-01	 1.180080181361683e+01
 9.026456993062059e-01	 7.024206745319219e-01	 1.138525656828006e+01
 8.879539582782775e-01	 7.209034820733984e-01	 1.095861321301311e+01
 8.728674994804648e-01	 7.390983634402241e-01	 1.052281138340767e+01
 8.573948784342346e-01	 7.569927905373705e-01	 1.007972894781228e+01
 8.415451767055792e-01	 7.745745787563738e-01	 9.631172927050324e+00
 8.253279844043415e-01	 7.918319143934071e-01	 9.178871092515021e+00
 8.087533809799999e-01	 8.087533809799999e-01	 8.724464309995293e+00
 9.625448378938531e-01	 6.292912163883564e-01	 1.305230281305754e+01
 9.494352427827805e-01	 6.489011633093938e-01	 1.267251979460801e+01
 9.358999414498556e-01	 6.682748682834557e-01	 1.227751281144417e+01
 9.219452809958428e-01	 6.873986462290458e-01	 1.186941992321561e+01
 9.075781894683177e-01	 7.062590388747831e-01	 1.145034033665994e+01
 8.928061657028364e-01	 7.248428453648986e-01	 1.102232338388558e+01
 8.776372672396872e-01	 7.431371523132548e-01	 1.058735797691583e+01
 8.620800963518189e-01	 7.611293631652880e-01	 1.014736262914256e+01
 8.461437842312681e-01	 7.788072267299735e-01	 9.704176128224304e+00
 8.298379733928497e-01	 7.961588647477253e-01	 9.259548937747564e+00
 8.131727983650000e-01	 8.131727983650002e-01	 8.815135396767987e+00
 9.677760598388938e-01	 6.327112773470236e-01	 1.314163653197601e+01
 9.545952169289185e-01	 6.524278000669034e-01	 1.275233438478772e+01
 9.409863541762431e-01	 6.719067969161605e-01	 1.234976333273834e+01
 9.269558531767447e-01	 6.911345084378552e-01	 1.193613447894025e+01
 9.125106796304298e-01	 7.100974032178278e-01	 1.151361247287622e+01
 8.976583731273953e-01	 7.287822086565260e-01	 1.108430410590394e+01
 8.824070349989093e-01	 7.471759411863674e-01	 1.065024742555724e+01
 8.667653142694032e-01	 7.652659357932511e-01	 1.021340146230399e+01
 8.507423917569572e-01	 7.830398747035932e-01	 9.775636655921051e+00
 8.343479623813578e-01	 8.004858151020487e-01	 9.338726061017137e+00
 8.175922157500000e-01	 8.175922157500000e-01	 8.904337402585433e+00
 9.730072817839345e-01	 6.361313383061961e-01	 1.322870785865130e+01
 9.597551910750564e-01	 6.559544368248231e-01	 1.283000356114798e+01
 9.460727669026306e-01	 6.755387255491899e-01	 1.241997647311306e+01
 9.319664253576463e-01	 6.948703706469137e-01	 1.200091057071148e+01
 9.174431697925417e-01	 7.139357675610549e-01	 1.157503578704899e+01
 9.025105805519547e-01	 7.327215719482812e-01	 1.114451622516200e+01
 8.871768027581314e-01	 7.512147300595617e-01	 1.071143893234465e+01
 8.714505321869878e-01	 7.694025084212606e-01	 1.027780333248145e+01
 8.553409992826465e-01	 7.872725226772334e-01	 9.845511406174339e+00
 8.388579513698659e-01	 8.048127654563769e-01	 9.416358700404956e+00
 8.220116331350001e-01	 8.220116331350001e-01	 8.992026240383273e+00
 9.782385037289751e-01	 6.395513992658737e-01	 1.331349077839030e+01
 9.649151652211946e-01	 6.594810735831528e-01	 1.290549818258523e+01
 9.511591796290183e-01	 6.791706541825440e-01	 1.248812025477992e+01
 9.369769975385481e-01	 6.986062328562213e-01	 1.206371368123377e+01
 9.223756599546538e-01	 7.177741319044656e-01	 1.163457352624355e+01
 9.073627879765136e-01	 7.366609352401633e-01	 1.120292106285304e+01
 8.919465705173536e-01	 7.552535189328373e-01	 1.077089220744284e+01
 8.761357501045718e-01	 7.735390810493157e-01	 1.034052665788363e+01
 8.599396068083356e-01	 7.915051706508940e-01	 9.913757827667908e+00
 8.433679403583738e-01	 8.091397158107105e-01	 9.492403659975924e+00
 8.264310505200000e-01	 8.264310505200000e-01	 9.078158396089716e+00
 9.834697256740159e-01	 6.429714602260568e-01	 1.339595949592360e+01
 9.700751393673327e-01	 6.630077103418927e-01	 1.297878938725569e+01
 9.562455923554058e-01	 6.828025828162225e-01	 1.255416303355948e+01
 9.419875697194495e-01	 7.023420950657775e-01	 1.212450967554789e+01
 9.273081501167657e-01	 7.216124962480595e-01	 1.169218936284920e+01
 9.122149954010728e-01	 7.406002985321730e-01	 1.125948040263432e+01
 8.967163382765756e-01	 7.592923078061944e-01	 1.082856745468102e+01
 8.808209680221564e-01	 7.776756536774166e-01	 1.040153037556624e+01
 8.645382143340248e-01	 7.957378186245753e-01	 9.980333907037423e+00
 8.478779293468820e-01	 8.134666661650491e-01	 9.566818294725849e+00
 8.308504679049999e-01	 8.308504679049999e-01	 9.162690913386255e+00
 9.887009476190566e-01	 6.463915211867450e-01	 1.347608842960094e+01
 9.752351135134707e-01	 6.665343471010428e-01	 1.304984858518761e+01
 9.613320050817936e-01	 6.864345114502256e-01	 1.261807349005556e+01
 9.469981419003517e-01	 7.060779572755831e-01	 1.218326479091778e+01
 9.322406402788780e-01	 7.254508605918366e-01	 1.174784738332758e+01
 9.170672028256317e-01	 7.445396618243101e-01	 1.131415647839259e+01
 9.014861060357979e-01	 7.633310966796333e-01	 1.088442535849187e+01
 8.855061859397407e-01	 7.818122263055637e-01	 1.046077392770635e+01
 8.691368218597136e-01	 7.999704665982765e-01	 1.004519815463864e+01
 8.523879183353901e-01	 8.177936165193931e-01	 9.639560496006121e+00
 8.352698852900000e-01	 8.352698852900000e-01	 9.245581378952199e+00
 9.939321695640974e-01	 6.498115821479387e-01	 1.355385220576938e+01
 9.803950876596085e-01	 6.700609838606030e-01	 1.311864745112679e+01
 9.664184178081813e-01	 6.900664400845536e-01	 1.267982062110817e+01
 9.520087140812531e-01	 7.098138194856372e-01	 1.223994562703368e+01
 9.371731304409899e-01	 7.292892249357966e-01	 1.180151207731572e+01
 9.219194102501905e-01	 7.484790251165740e-01	 1.136691196239533e+01
 9.062558737950199e-01	 7.673698855531537e-01	 1.093842707126540e+01
 8.901914038573248e-01	 7.859487989337565e-01	 1.051821724830964e+01
 8.737354293854029e-01	 8.042031145719988e-01	 1.010830959076569e+01
 8.568979073238980e-01	 8.221205668737418e-01	 9.710588677409691e+00
 8.396893026750000e-01	 8.396893026750000e-01	 9.326787908175813e+00
 7.954951288250000e-01	 7.954951288250000e-01	 8.444086363722823e+00
 7.788510633304829e-01	 8.117980174388176e-01	 7.887422519591713e+00
 7.618766348356981e-01	 8.277493541285117e-01	 7.355886345227836e+00
 7.445830726538939e-01	 8.433392246814815e-01	 6.851335050998346e+00
 7.269819968216208e-01	 8.585581962027984e-01	 6.375430422840410e+00
 7.090853921996618e-01	 8.733973360046001e-01	 5.929634071333984e+00
 6.909055815044375e-01	 8.878482288198696e-01	 5.515204083870985e+00
 6.724551973962977e-01	 9.019029922722359e-01	 5.133193082243194e+00
 6.537471537558837e-01	 9.155542905443044e-01	 4.784447673955813e+00
 6.347946162834578e-01	 9.287953461982281e-01	 4.469609271943103e+00
 6.156109725587411e-01	 9.416199501136904e-01	 4.112427126529919e+00
 7.999145462100000e-01	 7.999145462100000e-01	 8.538894201775442e+00
 7.831780136847859e-01	 8.163080064273256e-01	 7.994742418858930e+00
 7.661092828092363e-01	 8.323479616542008e-01	 7.474039638668151e+00
 7.487196452816735e-01	 8.480244425990657e-01	 6.978510486508968e+00
 7.310207856944070e-01	 8.633279639620203e-01	 6.509690563842270e+00
 7.130247554907800e-01	 8.782495434291592e-01	 6.068922216934498e+00
 6.947439458467491e-01	 8.927807189819814e-01	 5.657351674060536e+00
 6.761910596041113e-01	 9.069135644531373e-01	 5.275927550400661e+00
 6.573790823872900e-01	 9.206407032706921e-01	 4.925400706054729e+00
 6.383212530393267e-01	 9.339553203443661e-01	 4.606325429307264e+00
 6.190310335153868e-01	 9.468511720587310e-01	 4.270666805241600e+00
 8.043339635950000e-01	 8.043339635950000e-01	 8.632368818065791e+00
 7.875049640390938e-01	 8.208179954158338e-01	 8.100164131514653e+00
 7.703419307827949e-01	 8.369465691798900e-01	 7.589762235439771e+00
 7.528562179094990e-01	 8.527096605166500e-01	 7.102756132637629e+00
 7.350595745672750e-01	 8.680977317212426e-01	 6.640556103067581e+00
 7.169641187820257e-01	 8.831017508537182e-01	 6.204385989526003e+00
 6.985823101892442e-01	 8.977132091440936e-01	 5.795280817888926e+00
 6.799269218121738e-01	 9.119241366340392e-01	 5.414085747894496e+00
 6.610110110190206e-01	 9.257271159970796e-01	 5.061456337005704e+00
 6.418478897956060e-01	 9.391152944905041e-01	 4.737860086940000e+00
 6.224510944725382e-01	 9.520823940037717e-01	 4.423075188495448e+00
 8.087533809799999e-01	 8.087533809799999e-01	 8.724464309995293e+00
 7.918319143934069e-01	 8.253279844043416e-01	 8.203651371046014e+00
 7.745745787563737e-01	 8.415451767055789e-01	 7.703027098182316e+00
 7.569927905373705e-01	 8.573948784342346e-01	 7.224053816584902e+00
 7.390983634402241e-01	 8.728674994804647e-01	 6.768017330986783e+00
 7.209034820733986e-01	 8.879539582782773e-01	 6.336023725872606e+00
 7.024206745319221e-01	 9.026456993062053e-01	 5.928997466822218e+00
 6.836627840204855e-01	 9.169347088149408e-01	 5.547680795800320e+00
 6.646429396510761e-01	 9.308135287234671e-01	 5.192634400059474e+00
 6.453745265522951e-01	 9.442752686366421e-01	 4.864239321685146e+00
 6.258711554301947e-01	 9.573136159488123e-01	 4.562700062845769e+00
 8.131727983650000e-01	 8.131727983650002e-01	 8.815135396767987e+00
 7.961588647477253e-01	 8.298379733928497e-01	 8.305168264559113e+00
 7.788072267299734e-01	 8.461437842312683e-01	 7.813807403748338e+00
 7.611293631652880e-01	 8.620800963518190e-01	 7.342385389513161e+00
 7.431371523132551e-01	 8.776372672396869e-01	 6.892064381287523e+00
 7.248428453648990e-01	 8.928061657028363e-01	 6.463833435044254e+00
 7.062590388747834e-01	 9.075781894683174e-01	 6.058507083852611e+00
 6.873986462290460e-01	 9.219452809958424e-01	 5.676725176344853e+00
 6.682748682834563e-01	 9.358999414498549e-01	 5.318953949890791e+00
 6.489011633093946e-01	 9.494352427827804e-01	 4.985488302949109e+00
 6.292912163883564e-01	 9.625448378938530e-01	 4.676455219437898e+00
 8.175922157500000e-01	 8.175922157500000e-01	 8.904337402585433e+00
 8.004858151020484e-01	 8.343479623813579e-01	 8.404679341599730e+00
 7.830398747035930e-01	 8.507423917569573e-01	 7.922076537414329e+00
 7.652659357932513e-01	 8.667653142694031e-01	 7.457732725900200e+00
 7.471759411863675e-01	 8.824070349989092e-01	 7.012687235112480e+00
 7.287822086565264e-01	 8.976583731273955e-01	 6.587812807273023e+00
 7.100974032178277e-01	 9.125106796304293e-01	 6.183814656699949e+00
 6.911345084378557e-01	 9.269558531767442e-01	 5.801230750171257e+00
 6.719067969161608e-01	 9.409863541762425e-01	 5.440433283642168e+00
 6.524278000669040e-01	 9.545952169289181e-01	 5.101631317225602e+00
 6.327112773470236e-01	 9.677760598388938e-01	 4.784874519054132e+00
 8.220116331350001e-01	 8.220116331350001e-01	 8.992026240383273e+00
 8.048127654563769e-01	 8.388579513698659e-01	 8.502149523335300e+00
 7.872725226772334e-01	 8.553409992826465e-01	 8.027808087277371e+00
 7.694025084212605e-01	 8.714505321869874e-01	 7.570077722910691e+00
 7.512147300595617e-01	 8.871768027581312e-01	 7.129875725160305e+00
 7.327215719482814e-01	 9.025105805519545e-01	 6.707959222523733e+00
 7.139357675610553e-01	 9.174431697925413e-01	 6.304924710587876e+00
 6.948703706469143e-01	 9.319664253576463e-01	 5.921208773049133e+00
 6.755387255491904e-01	 9.460727669026302e-01	 5.557089961286358e+00
 6.559544368248238e-01	 9.597551910750561e-01	 5.212691791830814e+00
 6.361313383061961e-01	 9.730072817839345e-01	 4.887986810114826e+00
 8.264310505200000e-01	 8.264310505200000e-01	 9.078158396089716e+00
 8.091397158107105e-01	 8.433679403583740e-01	 8.597544112083609e+00
 7.915051706508940e-01	 8.599396068083356e-01	 8.130975838832333e+00
 7.735390810493158e-01	 8.761357501045718e-01	 7.679402299791176e+00
 7.552535189328373e-01	 8.919465705173535e-01	 7.243619539654068e+00
 7.366609352401636e-01	 9.073627879765136e-01	 6.824269758790421e+00
 7.177741319044660e-01	 9.223756599546535e-01	 6.421841320610349e+00
 6.986062328562216e-01	 9.369769975385476e-01	 6.036669912046942e+00
 6.791706541825444e-01	 9.511591796290180e-01	 5.668940825337663e+00
 6.594810735831534e-01	 9.649151652211940e-01	 5.318692317874900e+00
 6.395513992658737e-01	 9.782385037289751e-01	 4.985819996270918e+00
 8.308504679049999e-01	 8.308504679049999e-01	 9.162690913386255e+00
 8.134666661650493e-01	 8.478779293468821e-01	 8.690828781175588e+00
 7.957378186245750e-01	 8.645382143340247e-01	 8.231553769721934e+00
 7.776756536774168e-01	 8.808209680221560e-01	 7.785688397281937e+00
 7.592923078061947e-01	 8.967163382765756e-01	 7.353908226183667e+00
 7.406002985321734e-01	 9.122149954010725e-01	 6.936741200127010e+00
 7.216124962480599e-01	 9.273081501167655e-01	 6.534568123702858e+00
 7.023420950657779e-01	 9.419875697194494e-01	 6.147624261189889e+00
 6.828025828162230e-01	 9.562455923554054e-01	 5.776002019932837e+00
 6.630077103418933e-01	 9.700751393673320e-01	 5.419654672502929e+00
 6.429714602260568e-01	 9.834697256740159e-01	 5.078401061531557e+00
 8.352698852900000e-01	 8.352698852900000e-01	 9.245581378952199e+00
 8.177936165193930e-01	 8.523879183353901e-01	 8.781969565140550e+00
 7.999704665982764e-01	 8.691368218597135e-01	 8.329516044653531e+00
 7.818122263055638e-01	 8.855061859397407e-01	 7.888917977048246e+00
 7.633310966796335e-01	 9.014861060357977e-01	 7.460731195427377e+00
 7.445396618243102e-01	 9.170672028256315e-01	 7.045370044423945e+00
 7.254508605918367e-01	 9.322406402788775e-01	 6.643108330234104e+00
 7.060779572755834e-01	 9.469981419003513e-01	 6.254081356618732e+00
 6.864345114502264e-01	 9.613320050817933e-01	 5.878289009306770e+00
 6.665343471010433e-01	 9.752351135134701e-01	 5.515599840426631e+00
 6.463915211867450e-01	 9.887009476190566e-01	 5.165756094592072e+00
 8.396893026750000e-01	 8.396893026750000e-01	 9.326787908175813e+00
 8.221205668737418e-01	 8.568979073238983e-01	 8.870932850200864e+00
 8.042031145719988e-01	 8.737354293854029e-01	 8.424837010475953e+00
 7.859487989337567e-01	 8.901914038573251e-01	 7.989073021130721e+00
 7.673698855531540e-01	 9.062558737950197e-01	 7.564077724753581e+00
 7.484790251165745e-01	 9.219194102501905e-01	 7.150152510938167e+00
 7.292892249357970e-01	 9.371731304409896e-01	 6.747464735231420e+00
 7.098138194856376e-01	 9.520087140812531e-01	 6.356050191271342e+00
 6.900664400845541e-01	 9.664184178081808e-01	 5.975816595684743e+00
 6.700609838606034e-01	 9.803950876596081e-01	 5.606548034779671e+00
 6.498115821479389e-01	 9.939321695640974e-01	 5.247910312395491e+00
 6.156109725587411e-01	 9.416199501136904e-01	 4.112427126529919e+00
 5.962098017009265e-01	 9.540224695195425e-01	 3.752751692377103e+00
 5.766048437667731e-01	 9.659978541089431e-01	 3.415957445287055e+00
 5.568099690270316e-01	 9.775416402367315e-01	 3.098739427260502e+00
 5.368391472596018e-01	 9.886499532091958e-01	 2.797794243618441e+00
 5.167064171925495e-01	 9.993195076898073e-01	 2.509853231955303e+00
 4.964258562287501e-01	 1.009547606253046e+00	 2.231714353164165e+00
 4.760115505788752e-01	 1.019332136129044e+00	 1.960272512108094e+00
 4.554775659241309e-01	 1.028671564191268e+00	 1.692548043292789e+00
 4.348379187240837e-01	 1.037564930248352e+00	 1.425713127283808e+00
 4.141065482781622e-01	 1.046011838709305e+00	 1.157115936017383e+00
 6.190310335153868e-01	 9.468511720587310e-01	 4.270666805241600e+00
 5.995220783743195e-01	 9.593225943495681e-01	 3.903129913981783e+00
 5.798082040066365e-01	 9.713645088528782e-01	 3.559106155405872e+00
 5.599033577401479e-01	 9.829724271254705e-01	 3.235171127316228e+00
 5.398215869626292e-01	 9.941424529475568e-01	 2.927901368680635e+00
 5.195770083950791e-01	 1.004871282730738e+00	 2.633908376211766e+00
 4.991837776481658e-01	 1.015156204063795e+00	 2.349871318413669e+00
 4.786560591892854e-01	 1.024995092439249e+00	 2.072568147916943e+00
 4.580079968423154e-01	 1.034386406213196e+00	 1.798904841264429e+00
 4.372536849360407e-01	 1.043329179859870e+00	 1.525942526302775e+00
 4.164071402104405e-01	 1.051823015590553e+00	 1.250922290407629e+00
 6.224510944725382e-01	 9.520823940037717e-01	 4.423075188495448e+00
 6.028343550483074e-01	 9.646227191795886e-01	 4.047812793462647e+00
 5.830115642471638e-01	 9.767311635967921e-01	 3.696694187103966e+00
 5.629967464539762e-01	 9.884032140141623e-01	 3.366174078817789e+00
 5.428040266663967e-01	 9.996349526858344e-01	 3.052707523949211e+00
 5.224475995983568e-01	 1.010423057771539e+00	 2.752784796900511e+00
 5.019416990683172e-01	 1.020764801874358e+00	 2.462964936666193e+00
 4.813005678003988e-01	 1.030658048749201e+00	 2.179907658803268e+00
 4.605384277611511e-01	 1.040101248234793e+00	 1.900403356738291e+00
 4.396694511485779e-01	 1.049093429470974e+00	 1.621400946935784e+00
 4.187077321432086e-01	 1.057634192471292e+00	 1.340033346182803e+00
 6.258711554301947e-01	 9.573136159488123e-01	 4.562700062845769e+00
 6.061466317228903e-01	 9.699228440096038e-01	 4.186801362213195e+00
 5.862149244883551e-01	 9.820978183406850e-01	 3.828726436039791e+00
 5.660901351685169e-01	 9.938340009028072e-01	 3.491757162176735e+00
 5.457864663709047e-01	 1.005127452424029e+00	 3.172225680093722e+00
 5.253181908023825e-01	 1.015974832812209e+00	 2.866499645435562e+00
 5.046996204892044e-01	 1.026373399684734e+00	 2.571016615594052e+00
 4.839450764122157e-01	 1.036321005058900e+00	 2.282316769353480e+00
 4.630688586806387e-01	 1.045816090256062e+00	 1.997073677202839e+00
 4.420852173616953e-01	 1.054857679081662e+00	 1.712122871146986e+00
 4.210083240764662e-01	 1.063445369351519e+00	 1.424487997264370e+00
 6.292912163883564e-01	 9.625448378938530e-01	 4.676455219437898e+00
 6.094589083980682e-01	 9.752229688396137e-01	 4.320095597181757e+00
 5.894182847302104e-01	 9.874644730845572e-01	 3.955206712057476e+00
 5.691835238837700e-01	 9.992647877914050e-01	 3.611928138525503e+00
 5.487689060761529e-01	 1.010619952162139e+00	 3.286467653020319e+00
 5.281887820071565e-01	 1.021526607852750e+00	 2.975068881049372e+00
 5.074575419108270e-01	 1.031981997494923e+00	 2.674046531419846e+00
 4.865895850247360e-01	 1.041983961368346e+00	 2.379819931678012e+00
 4.655992896007778e-01	 1.051530932277002e+00	 2.088944574978735e+00
 4.445009835753929e-01	 1.060621928691935e+00	 1.798141421473359e+00
 4.233089160102137e-01	 1.069256546231237e+00	 1.504323732413831e+00
 6.327112773470236e-01	 9.677760598388938e-01	 4.784874519054132e+00
 6.127711850738411e-01	 9.805230936696182e-01	 4.447694449370537e+00
 5.926216449727295e-01	 9.928311278284081e-01	 4.076137768534859e+00
 5.722769125997355e-01	 1.004695574679956e+00	 3.726693679968597e+00
 5.517513457821415e-01	 1.016112451900167e+00	 3.395444135082865e+00
 5.310593732126782e-01	 1.027078382893161e+00	 3.078507303013601e+00
 5.102154633331856e-01	 1.037590595304926e+00	 2.772073662198746e+00
 4.892340936379598e-01	 1.047646917677539e+00	 2.472440359803599e+00
 4.681297205215683e-01	 1.057245774297613e+00	 2.176043542765664e+00
 4.469167497896708e-01	 1.066386178301793e+00	 1.879488397765118e+00
 4.256095079444508e-01	 1.075067723110444e+00	 1.579576673209995e+00
 6.361313383061961e-01	 9.730072817839345e-01	 4.887986810114826e+00
 6.160834617502088e-01	 9.858232184996180e-01	 4.569595871412861e+00
 5.958250052159125e-01	 9.981977825722380e-01	 4.191521330782182e+00
 5.753703013164133e-01	 1.010126361568460e+00	 3.836059398857517e+00
 5.547337854888702e-01	 1.021604951638110e+00	 3.499164725285268e+00
 5.339299644189480e-01	 1.032630157933441e+00	 3.176828581820210e+00
 5.129733847562796e-01	 1.043199193114743e+00	 2.865115820027904e+00
 4.918786022518870e-01	 1.053309873986479e+00	 2.560200062953335e+00
 4.706601514430104e-01	 1.062960616317895e+00	 2.258396828039682e+00
 4.493325160045286e-01	 1.072150427911236e+00	 1.956194312742762e+00
 4.279100998791777e-01	 1.080878899989141e+00	 1.650281610801169e+00
 6.395513992658737e-01	 9.782385037289751e-01	 4.985819996270918e+00
 6.193957384271717e-01	 9.911233433296119e-01	 4.685796844269904e+00
 5.990283654597595e-01	 1.003564437316047e+00	 4.301358123530401e+00
 5.784636900338033e-01	 1.015557148456916e+00	 3.940029876125951e+00
 5.577162251963395e-01	 1.027097451375971e+00	 3.597637958515136e+00
 5.368005556259661e-01	 1.038181932973593e+00	 3.270045289364191e+00
 5.157313061801094e-01	 1.048807790924373e+00	 2.953189682220746e+00
 4.945231108665177e-01	 1.058972830295166e+00	 2.643119877762842e+00
 4.731905823651038e-01	 1.068675458337847e+00	 2.336029466347474e+00
 4.517482822199669e-01	 1.077914677520264e+00	 2.028288426411112e+00
 4.302106918143942e-01	 1.086690076867327e+00	 1.716472041478442e+00
 6.429714602260568e-01	 9.834697256740159e-01	 5.078401061531557e+00
 6.227080151047291e-01	 9.964234681596010e-01	 4.796293403071139e+00
 6.022317257042701e-01	 1.008931092059835e+00	 4.405647897543150e+00
 5.815570787519058e-01	 1.020987935345326e+00	 4.038608688721870e+00
 5.606986649045491e-01	 1.032589951113749e+00	 3.690871333844965e+00
 5.396711468337320e-01	 1.043733708013614e+00	 3.358168928159932e+00
 5.184892276046750e-01	 1.054416388733817e+00	 3.036310821488337e+00
 4.971676194818518e-01	 1.064635786603601e+00	 2.721219499463793e+00
 4.757210132878490e-01	 1.074390300357470e+00	 2.408965313540570e+00
 4.541640484359853e-01	 1.083678927128878e+00	 2.095798779377604e+00
 4.325112837501006e-01	 1.092501253745003e+00	 1.778180201113068e+00
 6.463915211867450e-01	 9.887009476190566e-01	 5.165756094592072e+00
 6.260202917828818e-01	 1.001723592989585e+00	 4.893472444377513e+00
 6.054350859494450e-01	 1.014297746803602e+00	 4.504389455382531e+00
 5.846504674707204e-01	 1.026418722233689e+00	 4.131798436167467e+00
 5.636811046134986e-01	 1.038082450851443e+00	 3.778871341935163e+00
 5.425417380422458e-01	 1.049285483053505e+00	 3.441209959632794e+00
 5.212471490299762e-01	 1.060024986543074e+00	 3.114493735161854e+00
 4.998121280978892e-01	 1.070298742911782e+00	 2.794517512081987e+00
 4.782514442112457e-01	 1.080105142376764e+00	 2.477227076982004e+00
 4.565798146525838e-01	 1.089443176737076e+00	 2.158752225110366e+00
 4.348118756862965e-01	 1.098312430622169e+00	 1.835437098501036e+00
 6.498115821479389e-01	 9.939321695640974e-01	 5.247910312395491e+00
 6.293325684616292e-01	 1.007023717819563e+00	 4.968200094507628e+00
 6.086384461952835e-01	 1.019664401547349e+00	 4.597580676361666e+00
 5.877438561902473e-01	 1.031849509122004e+00	 4.219600766280573e+00
 5.666635443231889e-01	 1.043574950589053e+00	 3.861643491570664e+00
 5.454123292515077e-01	 1.054837258093266e+00	 3.519177831515697e+00
 5.240050704560129e-01	 1.065633584352145e+00	 3.187751873490429e+00
 5.024566367146301e-01	 1.075961699219711e+00	 2.863031417677754e+00
 4.807818751352936e-01	 1.085819984395729e+00	 2.540836345770570e+00
 4.589955808697626e-01	 1.095207426344859e+00	 2.217174461179705e+00
 4.371124676229823e-01	 1.104123607498825e+00	 1.888272547654466e+00
 4.141065482781622e-01	 1.046011838709305e+00	 1.157115936017383e+00
 3.932972896415818e-01	 1.054012448698682e+00	 9.934067786032299e-01
 3.724238474906106e-01	 1.061567462705180e+00	 8.432247984496546e-01
 3.514997710211839e-01	 1.068678113852559e+00	 7.046826588953814e-01
 3.305384299564659e-01	 1.075346151886618e+00	 5.760406880951305e-01
 3.095529917325726e-01	 1.081573827976446e+00	 4.557209336894696e-01
 2.885563999206459e-01	 1.087363878431055e+00	 3.423188502886445e-01
 2.675613539349605e-01	 1.092719507434895e+00	 2.346126159808399e-01
 2.465802900677326e-01	 1.097644368907272e+00	 1.315701019602442e-01
 2.256253638823929e-01	 1.102142547591368e+00	 3.235354535017532e-02
 2.047084339883523e-01	 1.106218539478505e+00	-6.367800095030463e-02
 4.164071402104405e-01	 1.051823015590553e+00	 1.250922290407629e+00
 3.954822745820146e-01	 1.059868073413723e+00	 1.083577666893608e+00
 3.744928688639911e-01	 1.067465059720694e+00	 9.299121629104152e-01
 3.534525475256168e-01	 1.074615214485912e+00	 7.880123886765704e-01
 3.323747545662977e-01	 1.081320297175989e+00	 6.561140291271219e-01
 3.112727305745738e-01	 1.087582571466509e+00	 5.326161668722973e-01
 2.901594910303177e-01	 1.093404788868202e+00	 4.160932030702806e-01
 2.690478059001075e-01	 1.098790171366544e+00	 3.053043718719817e-01
 2.479501805666736e-01	 1.103742393180392e+00	 1.992008724537597e-01
 2.268788381243566e-01	 1.108265561745949e+00	 9.693066904434655e-02
 2.058457030637330e-01	 1.112364198032268e+00	-2.158966483641223e-03
 4.187077321432086e-01	 1.057634192471292e+00	 1.340033346182803e+00
 3.976672595228481e-01	 1.065723698128166e+00	 1.169474137856430e+00
 3.765618902377038e-01	 1.073362656735540e+00	 1.012723932309471e+00
 3.554053240303347e-01	 1.080552315118551e+00	 8.678419417308290e-01
 3.342110791763875e-01	 1.087294442464619e+00	 7.330379851139786e-01
 3.129924694168268e-01	 1.093591314955825e+00	 6.066870827600905e-01
 2.917625821402552e-01	 1.099445699304615e+00	 4.873416128824739e-01
 2.705342578655537e-01	 1.104860835297491e+00	 3.737410254397115e-01
 2.493200710659666e-01	 1.109840417452864e+00	 2.648191371501625e-01
 2.281323123667443e-01	 1.114388575899955e+00	 1.597090584648728e-01
 2.069829721396284e-01	 1.118509856585547e+00	 5.774582784019833e-02
 4.210083240764662e-01	 1.063445369351519e+00	 1.424487997264370e+00
 3.998522444640818e-01	 1.071579322842008e+00	 1.251133635009331e+00
 3.786309116117485e-01	 1.079260253749718e+00	 1.091696229615484e+00
 3.573581005353375e-01	 1.086489415750474e+00	 9.442062458428722e-01
 3.360474037867355e-01	 1.093268587752506e+00	 8.068464095323362e-01
 3.147122082593319e-01	 1.099600058444391e+00	 6.779665769408079e-01
 2.933656732504584e-01	 1.105486609740293e+00	 5.560961294443134e-01
 2.720207098312989e-01	 1.110931499227738e+00	 4.399538882335563e-01
 2.506899615656116e-01	 1.115938441724688e+00	 3.284555729124694e-01
 2.293857866095559e-01	 1.120511590053385e+00	 2.207188551709609e-01
 2.081202412160386e-01	 1.124655515138340e+00	 1.160660836952370e-01
 4.233089160102137e-01	 1.069256546231237e+00	 1.504323732413831e+00
 4.020372294057158e-01	 1.077434947555251e+00	 1.328592277129073e+00
 3.806999329861257e-01	 1.085157850763229e+00	 1.166863929177433e+00
 3.593108770406250e-01	 1.092426516381683e+00	 1.017139051917433e+00
 3.378837283973419e-01	 1.099242733039652e+00	 8.775720462751604e-01
 3.164319471020888e-01	 1.105608801932210e+00	 7.464864982147661e-01
 2.949687643609271e-01	 1.111527520175236e+00	 6.223878139406198e-01
 2.735071617973433e-01	 1.117002163157283e+00	 5.039733369523047e-01
 2.520598520656086e-01	 1.122036465995865e+00	 3.901399708424624e-01
 2.306392608527916e-01	 1.126634604206239e+00	 2.799893594508831e-01
 2.092575102929633e-01	 1.130801173690648e+00	 1.728307013784238e-01
 4.256095079444508e-01	 1.075067723110444e+00	 1.579576673209995e+00
 4.042222143477505e-01	 1.083290572267895e+00	 1.401884894057506e+00
 3.827689543608349e-01	 1.091055447776072e+00	 1.238260690469238e+00
 3.612636535461975e-01	 1.098363617012176e+00	 1.086672965787617e+00
 3.397200530082063e-01	 1.105216878326057e+00	 9.452465596392232e-01
 3.181516859450976e-01	 1.111617545419281e+00	 8.122776768849678e-01
 2.965718554716615e-01	 1.117568430609446e+00	 6.862467657402651e-01
 2.749936137636868e-01	 1.123072827086128e+00	 5.658288387081605e-01
 2.534297425659577e-01	 1.128134490266393e+00	 4.499012602193149e-01
 2.318927350964513e-01	 1.132757618358517e+00	 3.375490530589158e-01
 2.103947793704027e-01	 1.136946832242471e+00	 2.280678014684689e-01
 4.279100998791777e-01	 1.080878899989141e+00	 1.650281610801169e+00
 4.064071992901853e-01	 1.089146196979938e+00	 1.471045061348476e+00
 3.848379757358764e-01	 1.096953044788247e+00	 1.305918990750408e+00
 3.632164300520547e-01	 1.104300717641954e+00	 1.152839478996323e+00
 3.415563776193291e-01	 1.111191023611719e+00	 1.009900563348061e+00
 3.198714247883581e-01	 1.117626288905603e+00	 8.753699521370892e-01
 2.981749465826615e-01	 1.123609341042921e+00	 7.477021482499528e-01
 2.764800657303294e-01	 1.129143491014272e+00	 6.255489754792738e-01
 2.547996330666586e-01	 1.134232514536273e+00	 5.077675316679251e-01
 2.331462093405349e-01	 1.138880632510219e+00	 3.934256212192180e-01
 2.115320484483569e-01	 1.143092490793808e+00	 2.818047457857307e-01
 4.302106918143942e-01	 1.086690076867327e+00	 1.716472041478442e+00
 4.085921842330207e-01	 1.095001821691382e+00	 1.536105133806097e+00
 3.869069971112501e-01	 1.102850641799755e+00	 1.369870156674404e+00
 3.651692065581971e-01	 1.110237818271017e+00	 1.215668998589066e+00
 3.433927022307101e-01	 1.117165168896640e+00	 1.071563648640884e+00
 3.215911636318707e-01	 1.123635032391178e+00	 9.357921985405477e-01
 2.997780376939272e-01	 1.129650251475662e+00	 8.067822139419074e-01
 2.779665176972710e-01	 1.135214154941714e+00	 6.831614677762401e-01
 2.561695235677117e-01	 1.140330538805506e+00	 5.637660595821457e-01
 2.343996835850424e-01	 1.145003646661344e+00	 4.476459739236880e-01
 2.126693175268256e-01	 1.149238149344660e+00	 3.340681576801141e-01
 4.325112837501006e-01	 1.092501253745003e+00	 1.778180201113068e+00
 4.107771691762565e-01	 1.100857446402227e+00	 1.597096277951588e+00
 3.889760184869559e-01	 1.108748238810594e+00	 1.430144394889781e+00
 3.671219830646241e-01	 1.116174918899365e+00	 1.275190875959120e+00
 3.452290268423492e-01	 1.123139314180819e+00	 1.130264411467730e+00
 3.233109024756352e-01	 1.129643775876005e+00	 9.935723517014416e-01
 3.013811288054584e-01	 1.135691161907668e+00	 8.635143285782112e-01
 2.794529696645118e-01	 1.141284818868457e+00	 7.386931975536122e-01
 2.575394140691167e-01	 1.146428563074090e+00	 6.179233238333255e-01
 2.356531578299741e-01	 1.151126660811894e+00	 5.002362665488915e-01
 2.138065866058091e-01	 1.155383807895026e+00	 3.848839416719536e-01
 4.348118756862965e-01	 1.098312430622169e+00	 1.835437098501036e+00
 4.129621541198925e-01	 1.106713071112472e+00	 1.654048503458140e+00
 3.910450398629938e-01	 1.114645835820765e+00	 1.486770821671119e+00
 3.690747595713362e-01	 1.122112019526998e+00	 1.331433434772051e+00
 3.470653514542465e-01	 1.129113459464256e+00	 1.186030478818334e+00
 3.250306413196514e-01	 1.135652519360083e+00	 1.048737433104002e+00
 3.029842199172552e-01	 1.141732072338939e+00	 9.179249946713426e-01
 2.809394216320517e-01	 1.147355482794497e+00	 7.921702303928246e-01
 2.589093045708738e-01	 1.152526587342026e+00	 6.702650307891278e-01
 2.369066320753296e-01	 1.157249674961867e+00	 5.512219198198116e-01
 2.149438556853072e-01	 1.161529466444908e+00	 4.342773024667375e-01
 4.371124676229823e-01	 1.104123607498825e+00	 1.888272547654466e+00
 4.151471390639290e-01	 1.112568695822117e+00	 1.706990693595812e+00
 3.931140612393640e-01	 1.120543432830269e+00	 1.539777491611326e+00
 3.710275360783331e-01	 1.128049120153915e+00	 1.384423998013577e+00
 3.489016760664020e-01	 1.135087604746951e+00	 1.238888534221792e+00
 3.267503801639197e-01	 1.141661262843413e+00	 1.101313574166494e+00
 3.045873110293177e-01	 1.147772982769477e+00	 9.700398741996723e-01
 2.824258735998907e-01	 1.153426146719838e+00	 8.436178369872676e-01
 2.602791950729829e-01	 1.158624611609314e+00	 7.208161336689998e-01
 2.381601063211092e-01	 1.163372689111265e+00	 6.006276391433265e-01
 2.160811247653200e-01	 1.167675124994303e+00	 4.822727633738140e-01
 2.047084339883523e-01	 1.106218539478505e+00	-6.367800095030463e-02
 1.838410472119971e-01	 1.109877231672737e+00	-1.608929213179344e-01
 1.630344251697317e-01	 1.113123881798189e+00	-2.433590140715127e-01
 1.422994522418957e-01	 1.115964097050903e+00	-3.113229885831919e-01
 1.216466649391041e-01	 1.118403812994212e+00	-3.648860110068211e-01
 1.010862426446093e-01	 1.120449272191891e+00	-4.040079396588452e-01
 8.062799971050875e-02	 1.122107002770802e+00	-4.285129255337743e-01
 6.028137887946602e-02	 1.123383797000342e+00	-4.380962300298734e-01
 4.005544599815213e-02	 1.124286689971457e+00	-4.323321082285403e-01
 1.995888598368964e-02	 1.124822938453228e+00	-4.106826045610283e-01
 0.000000000000000e+00	 1.125000000000000e+00	-3.725071082600619e-01
 2.058457030637330e-01	 1.112364198032268e+00	-2.158966483641223e-03
 1.848623863603658e-01	 1.116043216294032e+00	-1.021854859196605e-01
 1.639401719731101e-01	 1.119307903364434e+00	-1.877243139850298e-01
 1.430900047510826e-01	 1.122163897590606e+00	-2.590534443193606e-01
 1.223224797410653e-01	 1.124617167511235e+00	-3.163010911202606e-01
 1.016478328784369e-01	 1.126673990371002e+00	-3.594499498359229e-01
 8.107593303946981e-02	 1.128340930564143e+00	-3.883428563395954e-01
 6.061627542650592e-02	 1.129624818094884e+00	-4.026896939018874e-01
 4.027797625202772e-02	 1.130532727138008e+00	-4.020753934124515e-01
 2.006976868269397e-02	 1.131071954777978e+00	-3.859688707287539e-01
 0.000000000000000e+00	 1.131250000000000e+00	-3.537327455420303e-01
 2.069829721396284e-01	 1.118509856585547e+00	 5.774582784019833e-02
 1.858837255093331e-01	 1.122209200914935e+00	-4.510812255337893e-02
 1.648459187771394e-01	 1.125491924930371e+00	-1.337617849629367e-01
 1.438805572609416e-01	 1.128363698130077e+00	-2.085243117008915e-01
 1.229982945436894e-01	 1.130830522028088e+00	-2.695507364888170e-01
 1.022094231128880e-01	 1.132898708549996e+00	-3.168462648860941e-01
 8.152386636898580e-02	 1.134574858357410e+00	-3.502719969769270e-01
 6.095117197400344e-02	 1.135865839189383e+00	-3.695519287922400e-01
 4.050050650623559e-02	 1.136778764304539e+00	-3.742810749921366e-01
 2.018065138187782e-02	 1.137320971102724e+00	-3.639345536558876e-01
 0.000000000000000e+00	 1.137500000000000e+00	-3.378774745226185e-01
 2.081202412160386e-01	 1.124655515138340e+00	 1.160660836952370e-01
 1.869050646588989e-01	 1.128375185535448e+00	 1.037132090831072e-02
 1.657516655818196e-01	 1.131675946496002e+00	-8.143679447230223e-02
 1.446711097714727e-01	 1.134563498669313e+00	-1.596984547077815e-01
 1.236741093469762e-01	 1.137043876544769e+00	-2.245952909852358e-01
 1.027710133479626e-01	 1.139123426728873e+00	-2.761546980115452e-01
 8.197179969905675e-02	 1.140808786150602e+00	-3.142556250474269e-01
 6.128606852195863e-02	 1.142106860283841e+00	-3.386356769967327e-01
 4.072303676077577e-02	 1.143024801471052e+00	-3.488993650628314e-01
 2.029153408124120e-02	 1.143569987427466e+00	-3.445273447516297e-01
 0.000000000000000e+00	 1.143750000000000e+00	-3.248864794450339e-01
 2.092575102929633e-01	 1.130801173690648e+00	 1.728307013784238e-01
 1.879264038090633e-01	 1.134541170155570e+00	 6.428416968370509e-02
 1.666574123871507e-01	 1.137859968061326e+00	-3.071556572104761e-02
 1.454616622826758e-01	 1.140763299208316e+00	-1.125396250833424e-01
 1.243499241509257e-01	 1.143257231061281e+00	-1.813960213555792e-01
 1.033326035836607e-01	 1.145348144907632e+00	-2.373340233608965e-01
 8.241973302968258e-02	 1.147042713943719e+00	-2.802500200247666e-01
 6.162096507037146e-02	 1.148347881378257e+00	-3.098947263388245e-01
 4.094556701564825e-02	 1.149270838637547e+00	-3.258815675135687e-01
 2.040241678078410e-02	 1.149819003752202e+00	-3.276960759653815e-01
 0.000000000000000e+00	 1.150000000000000e+00	-3.147061361986307e-01
 2.103947793704027e-01	 1.136946832242471e+00	 2.280678014684689e-01
 1.889477429598263e-01	 1.140707154775301e+00	 1.166609444303834e-01
 1.675631591931326e-01	 1.144043989626343e+00	 1.843484547146401e-02
 1.462522147945511e-01	 1.146963099747086e+00	-6.701243834371806e-02
 1.250257389555381e-01	 1.149470585577622e+00	-1.399150922738097e-01
 1.038941938199824e-01	 1.151572863086273e+00	-2.003439500572715e-01
 8.286766636086342e-02	 1.153276641736761e+00	-2.482124361773572e-01
 6.195586161924196e-02	 1.154588902472632e+00	-2.832838819135770e-01
 4.116809727085302e-02	 1.155516875804024e+00	-3.051800485165388e-01
 2.051329948050653e-02	 1.156068020076935e+00	-3.133906889612550e-01
 0.000000000000000e+00	 1.156250000000000e+00	-3.072839801130711e-01
 2.115320484483569e-01	 1.143092490793808e+00	 2.818047457857307e-01
 1.899690821111879e-01	 1.146873139394641e+00	 1.675313828739744e-01
 1.684689059997655e-01	 1.150228011191053e+00	 6.604657305495509e-02
 1.470427673070985e-01	 1.153162900285622e+00	-2.308235055523711e-02
 1.257015537608132e-01	 1.155683940093792e+00	-1.001155422063362e-01
 1.044557840569276e-01	 1.157797581264796e+00	-1.651450970663064e-01
 8.331559969259918e-02	 1.159510569529729e+00	-2.181010763643689e-01
 6.229075816857012e-02	 1.160829923566965e+00	-2.587589387402769e-01
 4.139062752639009e-02	 1.161762912970481e+00	-2.867482079738914e-01
 2.062418218040849e-02	 1.162317036401662e+00	-3.015622052877536e-01
 0.000000000000000e+00	 1.162500000000000e+00	-3.025686747901104e-01
 2.126693175268256e-01	 1.149238149344660e+00	 3.340681576801141e-01
 1.909904212631481e-01	 1.153039124013591e+00	 2.169244607428615e-01
 1.693746528070492e-01	 1.156412032755456e+00	 1.121509624129273e-01
 1.478333198203180e-01	 1.159362700823924e+00	 1.928436413779799e-02
 1.263773685667511e-01	 1.161897294609792e+00	-6.196126004687907e-02
 1.050173742944963e-01	 1.164022299443203e+00	-1.316989688675396e-01
 8.376353302488986e-02	 1.165744497322621e+00	-1.898750666718678e-01
 6.262565471835592e-02	 1.167070944661255e+00	-2.362766552953346e-01
 4.161315778225946e-02	 1.168008950136921e+00	-2.705404518752510e-01
 2.073506488048997e-02	 1.168566052726385e+00	-2.921626975031717e-01
 0.000000000000000e+00	 1.168750000000000e+00	-3.005099819362860e-01
 2.138065866058091e-01	 1.155383807895026e+00	 3.848839416719536e-01
 1.920117604157069e-01	 1.159205108632150e+00	 2.648684120322142e-01
 1.702803996149838e-01	 1.162596054319553e+00	 1.567785913355642e-01
 1.486238723342095e-01	 1.165562501361993e+00	 6.012063527196343e-02
 1.270531833733518e-01	 1.168110649125622e+00	-2.541696249954328e-02
 1.055789645326885e-01	 1.170247017621491e+00	-9.996793190352848e-02
 8.421146635773549e-02	 1.171978425115439e+00	-1.634944318592739e-01
 6.296055126859935e-02	 1.173311965755504e+00	-2.157947278865939e-01
 4.183568803846112e-02	 1.174254987303342e+00	-2.565121655422409e-01
 2.084594758075098e-02	 1.174815069051104e+00	-2.851452612229637e-01
 0.000000000000000e+00	 1.175000000000000e+00	-3.010587321577900e-01
 2.149438556853072e-01	 1.161529466444908e+00	 4.342773024667375e-01
 1.930330995688643e-01	 1.165371093250318e+00	 3.113907486278165e-01
 1.711861464235693e-01	 1.168780075883342e+00	 1.999592903251757e-01
 1.494144248487731e-01	 1.171762301899829e+00	 9.945861713054249e-02
 1.277289981806152e-01	 1.174324003641281e+00	 9.551827820376779e-03
 1.061405547715043e-01	 1.176471735799662e+00	-6.991519177711858e-02
 8.465939969113606e-02	 1.178212352908183e+00	-1.389200715852066e-01
 6.329544781930047e-02	 1.179552986849712e+00	-1.972717658443508e-01
 4.205821829499507e-02	 1.180501024469744e+00	-2.446196877183724e-01
 2.095683028119151e-02	 1.181064085375818e+00	-2.804639880564801e-01
 0.000000000000000e+00	 1.181250000000000e+00	-3.041667966827470e-01
 2.160811247653200e-01	 1.167675124994303e+00	 4.822727633738140e-01
 1.940544387226203e-01	 1.171537077868094e+00	 3.565182793090338e-01
 1.720918932328057e-01	 1.174964097446825e+00	 2.417221622633343e-01
 1.502049773640088e-01	 1.177962102437431e+00	 1.373297091460859e-01
 1.284048129885414e-01	 1.180537358156770e+00	 4.297880359591932e-02
 1.067021450109435e-01	 1.182696453977716e+00	-4.150477116767481e-02
 8.510733302509156e-02	 1.184446280700851e+00	-1.161137373834136e-01
 6.363034437045921e-02	 1.185794007943877e+00	-1.806672674946852e-01
 4.228074855186133e-02	 1.186747061636128e+00	-2.348202854804893e-01
 2.106771298181156e-02	 1.187313101700527e+00	-2.780739393938310e-01
 0.000000000000000e+00	 1.187500000000000e+00	-3.097870599762789e-01
 1.187500000000000e+00	 0.000000000000000e+00	 1.994911444304737e+01
 1.187313101700527e+00	 2.106771298181088e-02	 2.009129777035928e+01
 1.186747061636129e+00	 4.228074855186074e-02	 2.018875763776224e+01
 1.185794007943877e+00	 6.363034437045868e-02	 2.024042509117427e+01
 1.184446280700851e+00	 8.510733302509109e-02	 2.024525829489221e+01
 1.182696453977716e+00	 1.067021450109431e-01	 2.020224158979985e+01
 1.180537358156770e+00	 1.284048129885411e-01	 2.011038437473806e+01
 1.177962102437431e+00	 1.502049773640085e-01	 1.996871984219735e+01
 1.174964097446825e+00	 1.720918932328055e-01	 1.977630360466729e+01
 1.171537077868094e+00	 1.940544387226202e-01	 1.953221225298426e+01
 1.167675124994303e+00	 2.160811247653200e-01	 1.923554189275325e+01
 1.193750000000000e+00	 0.000000000000000e+00	 1.975620944589011e+01
 1.193562118025237e+00	 2.117859568242864e-02	 1.990449601117081e+01
 1.192993098802513e+00	 4.250327880871776e-02	 2.000725373840470e+01
 1.192035029038043e+00	 6.396524092159654e-02	 2.006344516438973e+01
 1.190680208493520e+00	 8.555526635900922e-02	 2.007206349413121e+01
 1.188921172155769e+00	 1.072637352503236e-01	 2.003213161296727e+01
 1.186750712672258e+00	 1.290806277963820e-01	 1.994270090226174e+01
 1.184161902975033e+00	 1.509955298791275e-01	 1.980284988956966e+01
 1.181148119010307e+00	 1.729976400418885e-01	 1.961168276951966e+01
 1.177703062485872e+00	 1.950757778761808e-01	 1.936832783684001e+01
 1.173820783543699e+00	 2.172183938450901e-01	 1.907193587787222e+01
 1.200000000000000e+00	 0.000000000000000e+00	 1.956829956614400e+01
 1.199811134349951e+00	 2.128947838286231e-02	 1.972279006219703e+01
 1.199239135968915e+00	 4.272580906522406e-02	 1.983096041165155e+01
 1.198276050132250e+00	 6.430013747223499e-02	 1.989180498150835e+01
 1.196914136286263e+00	 8.600319969229764e-02	 1.990435232649349e+01
 1.195145890333940e+00	 1.078253254889630e-01	 1.986766415174397e+01
 1.192964067187918e+00	 1.297564426033898e-01	 1.978083405944051e+01
 1.190361703512868e+00	 1.517860823933409e-01	 1.964298611006095e+01
 1.187332140574097e+00	 1.739033868500136e-01	 1.945327323443460e+01
 1.183869047104040e+00	 1.960971170287520e-01	 1.921087553813611e+01
 1.179966442093580e+00	 2.183556629238602e-01	 1.891499854486203e+01
 1.206250000000000e+00	 0.000000000000000e+00	 1.938533644122986e+01
 1.206060150674669e+00	 2.140036108311187e-02	 1.954612739477499e+01
 1.205485173135337e+00	 4.294833932137965e-02	 1.965982080509727e+01
 1.204517071226500e+00	 6.463503402237403e-02	 1.972544321303434e+01
 1.203148064079082e+00	 8.645113302495638e-02	 1.974205883678710e+01
 1.201370608512229e+00	 1.083869157268612e-01	 1.970876848180568e+01
 1.199177421703747e+00	 1.304322574095644e-01	 1.962470821497424e+01
 1.196561504050937e+00	 1.525766349066487e-01	 1.948904783356060e+01
 1.193516162138193e+00	 1.748091336571810e-01	 1.930098916507154e+01
 1.190035031722598e+00	 1.971184561803339e-01	 1.905976423969395e+01
 1.186112100643947e+00	 2.194929320016303e-01	 1.876463338229099e+01
 1.212500000000000e+00	 0.000000000000000e+00	 1.920727270573540e+01
 1.212309166999392e+00	 2.151124378317734e-02	 1.937445653847159e+01
 1.211731210301776e+00	 4.317086957718450e-02	 1.949377918931179e+01
 1.210758092320790e+00	 6.496993057201365e-02	 1.956429972085602e+01
 1.209381991871975e+00	 8.689906635698544e-02	 1.958511833324764e+01
 1.207595326690635e+00	 1.089485059640183e-01	 1.955537521789667e+01
 1.205390776219747e+00	 1.311080722149057e-01	 1.947424915582374e+01
 1.202761304589240e+00	 1.533671874190509e-01	 1.934095589090616e+01
 1.199700183702596e+00	 1.757148804633906e-01	 1.915474631415502e+01
 1.196201016341548e+00	 1.981397953309263e-01	 1.891490450087085e+01
 1.192257759194798e+00	 2.206302010784004e-01	 1.862074564800285e+01
 1.218750000000000e+00	 0.000000000000000e+00	 1.903406196584655e+01
 1.218558183324120e+00	 2.162212648305870e-02	 1.920772705394947e+01
 1.217977247468234e+00	 4.339339983263862e-02	 1.933278092904633e+01
 1.216999113415123e+00	 6.530482712115383e-02	 1.940831552769746e+01
 1.215615919664943e+00	 8.734699968838479e-02	 1.943346735514263e+01
 1.213820044869159e+00	 1.095100962004343e-01	 1.940741627949478e+01
 1.211604130735918e+00	 1.317838870194137e-01	 1.932938405084481e+01
 1.208961105127776e+00	 1.541577399305475e-01	 1.919863257539741e+01
 1.205884205267306e+00	 1.766206272686425e-01	 1.901446198078066e+01
 1.202367000960888e+00	 1.991611344805294e-01	 1.877620851457203e+01
 1.198403417746136e+00	 2.217674701541706e-01	 1.848324232375092e+01
 1.225000000000000e+00	 0.000000000000000e+00	 1.886565877456204e+01
 1.224807199648853e+00	 2.173300918275596e-02	 1.904588950666355e+01
 1.224223284634710e+00	 4.361593008774201e-02	 1.917677245532038e+01
 1.223240134509497e+00	 6.563972366979463e-02	 1.925743278750542e+01
 1.221849847457984e+00	 8.779493301915442e-02	 1.928704364136776e+01
 1.220044763047800e+00	 1.100716864361092e-01	 1.926482485752740e+01
 1.217817485252259e+00	 1.324597018230886e-01	 1.919004141553604e+01
 1.215160905666546e+00	 1.549482924411386e-01	 1.906200160548875e+01
 1.212068226832323e+00	 1.775263740729365e-01	 1.888005497096679e+01
 1.208532985580619e+00	 2.001824736291430e-01	 1.864359006557839e+01
 1.204549076297958e+00	 2.229047392289407e-01	 1.835203207122080e+01
 1.231250000000000e+00	 0.000000000000000e+00	 1.870201860766245e+01
 1.231056215973589e+00	 2.184389188226912e-02	 1.888889544135866e+01
 1.230469321801205e+00	 4.383846034249466e-02	 1.902570123835937e+01
 1.229481155603913e+00	 6.597462021793600e-02	 1.911159475673794e+01
 1.228083775251102e+00	 8.824286634929433e-02	 1.914578609999935e+01
 1.226269481226559e+00	 1.106332766710430e-01	 1.912753538210105e+01
 1.224030839768770e+00	 1.331355166259303e-01	 1.905615107786004e+01
 1.221360706205549e+00	 1.557388449508240e-01	 1.893098808861776e+01
 1.218252248397647e+00	 1.784321208762728e-01	 1.875144555940784e+01
 1.214698970200740e+00	 2.012038127767673e-01	 1.851696449014369e+01
 1.210694734850266e+00	 2.240420083027108e-01	 1.822702518939240e+01
 1.237500000000000e+00	 0.000000000000000e+00	 1.854309784040773e+01
 1.237305232298331e+00	 2.195477458159818e-02	 1.873669735734011e+01
 1.236715358967718e+00	 4.406099059689659e-02	 1.887951576135185e+01
 1.235722176698372e+00	 6.630951676557795e-02	 1.897074576652330e+01
 1.234317703044293e+00	 8.869079967880458e-02	 1.900963477876963e+01
 1.232494199405435e+00	 1.111948669052357e-01	 1.899548349120910e+01
 1.230244194285452e+00	 1.338113314279386e-01	 1.892764414510025e+01
 1.227560506744785e+00	 1.565293974596039e-01	 1.880551848612978e+01
 1.224436269963278e+00	 1.793378676786513e-01	 1.862855545238649e+01
 1.220864954821253e+00	 2.022251519234022e-01	 1.839624863681567e+01
 1.216840393403059e+00	 2.251792773754809e-01	 1.810813357319422e+01
 1.243750000000000e+00	 0.000000000000000e+00	 1.838885372493710e+01
 1.243554248623077e+00	 2.206565728074314e-02	 1.858924868448952e+01
 1.242961396134250e+00	 4.428352085094780e-02	 1.873816549499817e+01
 1.241963197792871e+00	 6.664441331272049e-02	 1.883483119565818e+01
 1.240551630837560e+00	 8.913873300768514e-02	 1.887853083643219e+01
 1.238718917584429e+00	 1.117564571386872e-01	 1.886860600038278e+01
 1.236457548802304e+00	 1.344871462291139e-01	 1.880445297171735e+01
 1.233760307284256e+00	 1.573199499674782e-01	 1.868552057926021e+01
 1.230620291529215e+00	 1.802436144800721e-01	 1.851130775180403e+01
 1.227030939442157e+00	 2.032464910690478e-01	 1.828136082843911e+01
 1.222986051956337e+00	 2.263165464472510e-01	 1.799527067340407e+01
 1.250000000000000e+00	 0.000000000000000e+00	 1.823924436834720e+01
 1.249803264947827e+00	 2.217653997970400e-02	 1.844650376000062e+01
 1.249207433300800e+00	 4.450605110464827e-02	 1.860160087282271e+01
 1.248204218887413e+00	 6.697930985936362e-02	 1.870379744441606e+01
 1.246785558630901e+00	 8.958666633593600e-02	 1.875241651498643e+01
 1.244943635763541e+00	 1.123180473713977e-01	 1.874684087325283e+01
 1.242670903319327e+00	 1.351629610294558e-01	 1.868651112816973e+01
 1.239960107823959e+00	 1.581105024744469e-01	 1.857092343613727e+01
 1.236804313095460e+00	 1.811493612805350e-01	 1.839962692029004e+01
 1.233196924063451e+00	 2.042678302137040e-01	 1.817222082529810e+01
 1.229131710510101e+00	 2.274538155180212e-01	 1.788835145775284e+01
 1.167675124994303e+00	 2.160811247653200e-01	 1.923554189275325e+01
 1.163372689111265e+00	 2.381601063211085e-01	 1.917856590484464e+01
 1.158624611609315e+00	 2.602791950729823e-01	 1.908082496042068e+01
 1.153426146719838e+00	 2.824258735998902e-01	 1.894307578515244e+01
 1.147772982769477e+00	 3.045873110293172e-01	 1.876609287963273e+01
 1.141661262843413e+00	 3.267503801639193e-01	 1.855066106790657e+01
 1.135087604746951e+00	 3.489016760664018e-01	 1.829756810036336e+01
 1.128049120153915e+00	 3.710275360783329e-01	 1.800759740594625e+01
 1.120543432830269e+00	 3.931140612393641e-01	 1.768152109083575e+01
 1.112568695822117e+00	 4.151471390639291e-01	 1.732009328163057e+01
 1.104123607498825e+00	 4.371124676229823e-01	 1.692404391048873e+01
 1.173820783543699e+00	 2.172183938450901e-01	 1.907193587787222e+01
 1.169495703260665e+00	 2.394135805666024e-01	 1.902255639918018e+01
 1.164722635876613e+00	 2.616490855747768e-01	 1.893269173191898e+01
 1.159496810645199e+00	 2.839123255674001e-01	 1.880306586159703e+01
 1.153813893200052e+00	 3.061904021410506e-01	 1.863441749780766e+01
 1.147670006326803e+00	 3.284701190078732e-01	 1.842749258772122e+01
 1.141061750029733e+00	 3.507380006782731e-01	 1.818303690361356e+01
 1.133986220780951e+00	 3.729803125850908e-01	 1.790178880103894e+01
 1.126441029839928e+00	 3.951830826155557e-01	 1.758447224634595e+01
 1.118424320531960e+00	 4.173321240078634e-01	 1.723179021296808e+01
 1.109934784375726e+00	 4.394130595596578e-01	 1.684441854519231e+01
 1.179966442093580e+00	 2.183556629238602e-01	 1.891499854486203e+01
 1.175618717410646e+00	 2.406670548111010e-01	 1.887296088478006e+01
 1.170820660144577e+00	 2.630189760755901e-01	 1.879072428588502e+01
 1.165567474571305e+00	 2.853987775339527e-01	 1.866898059903685e+01
 1.159854803631439e+00	 3.077934932518603e-01	 1.850843332538651e+01
 1.153678749811061e+00	 3.301898578509470e-01	 1.830979009120559e+01
 1.147035895313430e+00	 3.525743252893175e-01	 1.807375521648424e+01
 1.139923321408939e+00	 3.749330890910854e-01	 1.780102247558747e+01
 1.132338626850566e+00	 3.972521039910581e-01	 1.749226815024608e+01
 1.124279945242797e+00	 4.195171089511926e-01	 1.714814447575234e+01
 1.115745961253626e+00	 4.417136514958230e-01	 1.676927358033937e+01
 1.186112100643947e+00	 2.194929320016303e-01	 1.876463338229099e+01
 1.181741731561207e+00	 2.419205290546043e-01	 1.872968523301461e+01
 1.176918684413208e+00	 2.643888665754223e-01	 1.865483092378569e+01
 1.171638138498153e+00	 2.868852294995479e-01	 1.854073077340768e+01
 1.165895714063635e+00	 3.093965843617461e-01	 1.838805365392765e+01
 1.159687493296186e+00	 3.319095966931401e-01	 1.819746942317610e+01
 1.153010040598041e+00	 3.544106498995350e-01	 1.796964147086437e+01
 1.145860422037879e+00	 3.768858655963167e-01	 1.770521947824497e+01
 1.138236223862183e+00	 3.993211253658713e-01	 1.740483249322067e+01
 1.130135569954629e+00	 4.217020938939169e-01	 1.706908242324494e+01
 1.121557138132527e+00	 4.440142434314778e-01	 1.669853804730014e+01
 1.192257759194798e+00	 2.206302010784004e-01	 1.862074564800285e+01
 1.187864745712349e+00	 2.431740032971122e-01	 1.859263701794952e+01
 1.183016708682507e+00	 2.657587570742733e-01	 1.852492158331755e+01
 1.177708802425745e+00	 2.883716814641856e-01	 1.841822873063817e+01
 1.171936624496643e+00	 3.109996754707081e-01	 1.827319327909143e+01
 1.165696236782179e+00	 3.336293355344531e-01	 1.809044786712512e+01
 1.158984185883568e+00	 3.562469745089258e-01	 1.787061547247890e+01
 1.151797522667771e+00	 3.788386421007850e-01	 1.761430216736894e+01
 1.144133820874777e+00	 4.013901467399952e-01	 1.732209021235916e+01
 1.135991194667456e+00	 4.238870788360361e-01	 1.699453159276869e+01
 1.127368315012427e+00	 4.463148353666224e-01	 1.663214210024282e+01
 1.198403417746136e+00	 2.217674701541706e-01	 1.848324232375092e+01
 1.193987759864072e+00	 2.444274775386249e-01	 1.846172547268717e+01
 1.189114732952471e+00	 2.671286475721432e-01	 1.840090779645228e+01
 1.183779466354081e+00	 2.898581334278660e-01	 1.830138834639339e+01
 1.177977534930460e+00	 3.126027665787462e-01	 1.816376846207322e+01
 1.171704980269040e+00	 3.353490743748857e-01	 1.798864410833159e+01
 1.164958331170010e+00	 3.580832991174897e-01	 1.777659836566214e+01
 1.157734623298615e+00	 3.807914186044899e-01	 1.752819417743923e+01
 1.150031417888351e+00	 4.034591681134298e-01	 1.724396745919656e+01
 1.141846819381277e+00	 4.260720637775503e-01	 1.692442067534695e+01
 1.133179491893328e+00	 4.486154273012568e-01	 1.657001698734376e+01
 1.204549076297958e+00	 2.229047392289407e-01	 1.835203207122080e+01
 1.200110774016376e+00	 2.456809517791422e-01	 1.833686144704406e+01
 1.195212757223104e+00	 2.684985380690320e-01	 1.828270264876621e+01
 1.189850130283160e+00	 2.913445853905891e-01	 1.819012498705112e+01
 1.184018445365089e+00	 3.142058576858606e-01	 1.805969689221735e+01
 1.177713723756769e+00	 3.370688132144380e-01	 1.789197819810149e+01
 1.170932476457367e+00	 3.599196237252267e-01	 1.768751259920969e+01
 1.163671723930411e+00	 3.827441951074317e-01	 1.744682038650379e+01
 1.155929014902902e+00	 4.055281894861752e-01	 1.717039156873292e+01
 1.147702444096093e+00	 4.282570487184595e-01	 1.685867948627261e+01
 1.138990668775229e+00	 4.509160192353808e-01	 1.651209502287915e+01
 1.210694734850266e+00	 2.240420083027108e-01	 1.822702518939240e+01
 1.206233788169260e+00	 2.469344260186642e-01	 1.821795736651761e+01
 1.201310781494402e+00	 2.698684285649395e-01	 1.817022074000879e+01
 1.195920794212983e+00	 2.928310373523547e-01	 1.808435547186642e+01
 1.190059355800528e+00	 3.158089487920512e-01	 1.796089765076961e+01
 1.183722467245366e+00	 3.387885520531099e-01	 1.780037151909685e+01
 1.176906621745638e+00	 3.617559483321369e-01	 1.760328189327010e+01
 1.169608824563159e+00	 3.846969716096105e-01	 1.737010688461609e+01
 1.161826611918434e+00	 4.075972108582314e-01	 1.710129102939598e+01
 1.153558068811903e+00	 4.304420336587637e-01	 1.679723893657309e+01
 1.144801845658129e+00	 4.532166111689946e-01	 1.645830956016658e+01
 1.216840393403059e+00	 2.251792773754809e-01	 1.810813357319422e+01
 1.212356802322724e+00	 2.481879002571909e-01	 1.810492719249611e+01
 1.207408805766368e+00	 2.712383190598660e-01	 1.806337814586605e+01
 1.201991458143549e+00	 2.943174893131630e-01	 1.798399803628277e+01
 1.196100266236777e+00	 3.174120398973179e-01	 1.786729117572841e+01
 1.189731210734830e+00	 3.405082908909015e-01	 1.771374675171578e+01
 1.182880767034825e+00	 3.635922729382204e-01	 1.752383120724020e+01
 1.175545925196858e+00	 3.866497481110260e-01	 1.729798094322889e+01
 1.167724208934942e+00	 4.096662322295982e-01	 1.703659545391427e+01
 1.159413693528708e+00	 4.326270185984630e-01	 1.674003100534060e+01
 1.150613022542030e+00	 4.555172031020980e-01	 1.640859496532673e+01
 1.222986051956337e+00	 2.263165464472510e-01	 1.799527067340407e+01
 1.218479816476771e+00	 2.494413744947223e-01	 1.799768638366861e+01
 1.213506830039000e+00	 2.726082095538112e-01	 1.796209238087663e+01
 1.208062122074858e+00	 2.958039412730140e-01	 1.788897229634953e+01
 1.202141176673837e+00	 3.190151310016608e-01	 1.777879922775534e+01
 1.195739954225163e+00	 3.422280297278128e-01	 1.763202784148598e+01
 1.188854912324927e+00	 3.654285975434768e-01	 1.744908670862800e+01
 1.181483025831510e+00	 3.886025246116783e-01	 1.723037098551096e+01
 1.173621805952430e+00	 4.117352536002757e-01	 1.697623555106846e+01
 1.165269318246508e+00	 4.348120035375572e-01	 1.668698871289608e+01
 1.156424199426930e+00	 4.578177950346912e-01	 1.636288659183597e+01
 1.229131710510101e+00	 2.274538155180212e-01	 1.788835145775284e+01
 1.224602830631397e+00	 2.506948487312582e-01	 1.789615185859234e+01
 1.219604854312299e+00	 2.739781000467753e-01	 1.786628236246034e+01
 1.214132786006912e+00	 2.972903932319075e-01	 1.779919921420674e+01
 1.208182087111708e+00	 3.206182221050798e-01	 1.769534485710865e+01
 1.201748697716363e+00	 3.439477685638436e-01	 1.755513996743653e+01
 1.194829057615943e+00	 3.672649221479065e-01	 1.737897574285011e+01
 1.187420126467113e+00	 3.905553011115673e-01	 1.716720655755390e+01
 1.179519402970896e+00	 4.138042749702640e-01	 1.692014309828980e+01
 1.171124942965302e+00	 4.369969884760465e-01	 1.663804609475867e+01
 1.162235376312831e+00	 4.601183869667742e-01	 1.632112075584252e+01
 1.104123607498825e+00	 4.371124676229823e-01	 1.692404391048873e+01
 1.095207426344859e+00	 4.589955808697618e-01	 1.675488094621801e+01
 1.085819984395729e+00	 4.807818751352930e-01	 1.653320457126119e+01
 1.075961699219711e+00	 5.024566367146296e-01	 1.625694844452834e+01
 1.065633584352145e+00	 5.240050704560124e-01	 1.592401347640708e+01
 1.054837258093266e+00	 5.454123292515075e-01	 1.553227622360449e+01
 1.043574950589053e+00	 5.666635443231888e-01	 1.507959840700541e+01
 1.031849509122004e+00	 5.877438561902472e-01	 1.456383753520142e+01
 1.019664401547349e+00	 6.086384461952836e-01	 1.398285860079517e+01
 1.007023717819563e+00	 6.293325684616293e-01	 1.349243797650706e+01
 9.939321695640974e-01	 6.498115821479387e-01	 1.355385220576938e+01
 1.109934784375726e+00	 4.394130595596578e-01	 1.684441854519231e+01
 1.100971675952930e+00	 4.614113470870209e-01	 1.667388984973756e+01
 1.091534826415010e+00	 4.833123060594928e-01	 1.645135852640332e+01
 1.081624655527969e+00	 5.051011453315740e-01	 1.617471929022871e+01
 1.071242182161545e+00	 5.267629918822849e-01	 1.584182965734867e+01
 1.060389033133340e+00	 5.482829204610176e-01	 1.545051842912690e+01
 1.049067450326945e+00	 5.696459840331191e-01	 1.499859533569436e+01
 1.037280296010556e+00	 5.908372449099866e-01	 1.448386182194573e+01
 1.025031056291269e+00	 6.118418064412863e-01	 1.390412294311374e+01
 1.012323842649639e+00	 6.326448451404717e-01	 1.353080077559545e+01
 9.991633915091432e-01	 6.532316431091377e-01	 1.358867739352569e+01
 1.115745961253626e+00	 4.417136514958230e-01	 1.676927358033937e+01
 1.106735925561992e+00	 4.638271133038600e-01	 1.659731364860005e+01
 1.097249668435252e+00	 4.858427369833438e-01	 1.637386570019743e+01
 1.087287611837141e+00	 5.077456539482217e-01	 1.609678547830639e+01
 1.076850779971789e+00	 5.295209133082932e-01	 1.576388703831922e+01
 1.065940808174170e+00	 5.511535116702756e-01	 1.537295132078997e+01
 1.054559950065485e+00	 5.726284237427899e-01	 1.492173592048792e+01
 1.042711082899626e+00	 5.939306336294381e-01	 1.440798603502013e+01
 1.030397711035560e+00	 6.150451666869525e-01	 1.382944656016948e+01
 1.017623967479915e+00	 6.359571218189092e-01	 1.356885350889860e+01
 1.004394613454200e+00	 6.566517040698419e-01	 1.362301581705205e+01
 1.121557138132527e+00	 4.440142434314778e-01	 1.669853804730014e+01
 1.112500175172043e+00	 4.662428795202793e-01	 1.652508249856635e+01
 1.102964510456456e+00	 4.883731679068466e-01	 1.630065749031344e+01
 1.092950568147225e+00	 5.103901625645730e-01	 1.602307976397697e+01
 1.082459377782877e+00	 5.322788347340370e-01	 1.569011984536451e+01
 1.071492583215756e+00	 5.540241028792817e-01	 1.529951070593038e+01
 1.060052449804673e+00	 5.756108634522009e-01	 1.484895765717925e+01
 1.048141869789214e+00	 5.970240223486021e-01	 1.433614946208008e+01
 1.035764365780220e+00	 6.182485269322830e-01	 1.375877063066856e+01
 1.022924092310392e+00	 6.392693984969415e-01	 1.360654006120359e+01
 1.009625835399267e+00	 6.600717650300515e-01	 1.365681271741694e+01
 1.127368315012427e+00	 4.463148353666224e-01	 1.663214210024282e+01
 1.118264424783085e+00	 4.686586457362788e-01	 1.645712765038309e+01
 1.108679352478621e+00	 4.909035988300008e-01	 1.623166636059607e+01
 1.098613524458221e+00	 5.130346711806275e-01	 1.595353593886283e+01
 1.088067975594809e+00	 5.350367561595164e-01	 1.562046331025577e+01
 1.077044358258099e+00	 5.568946940880360e-01	 1.523013336606239e+01
 1.065544949544507e+00	 5.785933031613522e-01	 1.478019898337608e+01
 1.053572656679322e+00	 6.001174110674783e-01	 1.426829229946992e+01
 1.041131020525250e+00	 6.214518871772771e-01	 1.369203720817242e+01
 1.028224217141069e+00	 6.425816751745689e-01	 1.364380515767061e+01
 1.014857057344345e+00	 6.634918259897664e-01	 1.369001414099132e+01
 1.133179491893328e+00	 4.486154273012568e-01	 1.657001698734376e+01
 1.124028674395118e+00	 4.710744119518586e-01	 1.639338142170604e+01
 1.114394194501747e+00	 4.934340297528066e-01	 1.616682581372734e+01
 1.104276480770130e+00	 5.156791797963856e-01	 1.588808880441853e+01
 1.093676573407586e+00	 5.377946775847315e-01	 1.555485364470174e+01
 1.082596133301196e+00	 5.597652852965380e-01	 1.516475703189952e+01
 1.071037449284990e+00	 5.815757428702439e-01	 1.471539925435192e+01
 1.059003443569948e+00	 6.032107997860668e-01	 1.420435562892269e+01
 1.046497675270649e+00	 6.246552474219352e-01	 1.362918919866573e+01
 1.033524341971947e+00	 6.458939518517909e-01	 1.368059434228506e+01
 1.020088279289433e+00	 6.669118869489865e-01	 1.372256691879956e+01
 1.138990668775229e+00	 4.509160192353808e-01	 1.651209502287915e+01
 1.129792924008141e+00	 4.734901781670184e-01	 1.633377716988317e+01
 1.120109036525835e+00	 4.959644606752637e-01	 1.610607036472550e+01
 1.109939437082952e+00	 5.183236884118471e-01	 1.582667414616991e+01
 1.099285171221208e+00	 5.405525990096824e-01	 1.549322801535017e+01
 1.088147908345050e+00	 5.626358765047884e-01	 1.510332035913989e+01
 1.076529949026119e+00	 5.845581825788758e-01	 1.465449871963584e+01
 1.064434230461093e+00	 6.063041885043677e-01	 1.414428139497423e+01
 1.051864330016418e+00	 6.278586076662573e-01	 1.365961558642717e+01
 1.038824466803024e+00	 6.492062285286080e-01	 1.371685395696879e+01
 1.025319501234533e+00	 6.703319479077121e-01	 1.375441864650288e+01
 1.144801845658129e+00	 4.532166111689946e-01	 1.645830956016658e+01
 1.135557173622154e+00	 4.759059443817585e-01	 1.627824926556627e+01
 1.125823878550885e+00	 4.984948915973726e-01	 1.604933551525120e+01
 1.115602393396687e+00	 5.209681970270120e-01	 1.576922870873761e+01
 1.104893769035673e+00	 5.433105204343691e-01	 1.543552451955090e+01
 1.093699683389660e+00	 5.655064677127867e-01	 1.504576290498961e+01
 1.082022448767896e+00	 5.875406222872480e-01	 1.459743850031592e+01
 1.069865017352757e+00	 6.093975772223811e-01	 1.408801238306395e+01
 1.057230984762557e+00	 6.310619679102430e-01	 1.370064726498586e+01
 1.044124591634302e+00	 6.525185052050200e-01	 1.375253112132840e+01
 1.030550723179642e+00	 6.737520088659428e-01	 1.378551766499224e+01
 1.150613022542030e+00	 4.555172031020980e-01	 1.640859496532673e+01
 1.141321423237157e+00	 4.783217105960788e-01	 1.622673306712286e+01
 1.131538720576894e+00	 5.010253225191327e-01	 1.599655772869230e+01
 1.121265349711334e+00	 5.236127056418803e-01	 1.571569017161742e+01
 1.110502366850982e+00	 5.460684418587913e-01	 1.538168216185330e+01
 1.099251458435025e+00	 5.683770589205329e-01	 1.499202510539742e+01
 1.087514948510320e+00	 5.905230619953608e-01	 1.454416056703016e+01
 1.075295804244939e+00	 6.124909659401065e-01	 1.403549219830060e+01
 1.062597639509066e+00	 6.342653281538930e-01	 1.374121872635116e+01
 1.049424716465781e+00	 6.558307818810271e-01	 1.378757371301642e+01
 1.035781945124762e+00	 6.771720698236789e-01	 1.381581304156946e+01
 1.156424199426930e+00	 4.578177950346912e-01	 1.636288659183597e+01
 1.147085672853151e+00	 4.807374768099794e-01	 1.617916489581882e+01
 1.137253562603866e+00	 5.035557534405447e-01	 1.594767440599989e+01
 1.126928306026894e+00	 5.262572142564520e-01	 1.566599712569115e+01
 1.116110964667136e+00	 5.488263632829492e-01	 1.533164083121229e+01
 1.104803233481147e+00	 5.712476501280273e-01	 1.494204825297563e+01
 1.093007448253392e+00	 5.935055017032136e-01	 1.449460771862073e+01
 1.080726591137641e+00	 6.155843546575444e-01	 1.398666524486695e+01
 1.067964294255944e+00	 6.374686883972069e-01	 1.378127748272520e+01
 1.054724841297460e+00	 6.591430585566289e-01	 1.382193034868485e+01
 1.041013167069893e+00	 6.805921307809202e-01	 1.384525455169571e+01
 1.162235376312831e+00	 4.601183869667742e-01	 1.632112075584252e+01
 1.152849922470135e+00	 4.831532430234600e-01	 1.613548201174622e+01
 1.142968404631799e+00	 5.060861843616077e-01	 1.590262386224912e+01
 1.132591262343367e+00	 5.289017228707272e-01	 1.562008905044188e+01
 1.121719562484135e+00	 5.515842847068427e-01	 1.528534127887807e+01
 1.110355008528024e+00	 5.741182413352696e-01	 1.489577447558370e+01
 1.098499947997111e+00	 5.964879414108067e-01	 1.444872356142920e+01
 1.086157378030861e+00	 6.186777433746946e-01	 1.394147670604340e+01
 1.073330949003193e+00	 6.406720486401843e-01	 1.382077179639938e+01
 1.060024966129339e+00	 6.624553352318258e-01	 1.385555036551050e+01
 1.046244389015035e+00	 6.840121917376669e-01	 1.387379266128747e+01
 9.939321695640974e-01	 6.498115821479387e-01	 1.355385220576938e+01
 9.803950876596085e-01	 6.700609838606030e-01	 1.311864745112679e+01
 9.664184178081813e-01	 6.900664400845536e-01	 1.267982062110817e+01
 9.520087140812531e-01	 7.098138194856372e-01	 1.223994562703368e+01
 9.371731304409899e-01	 7.292892249357966e-01	 1.180151207731572e+01
 9.219194102501905e-01	 7.484790251165740e-01	 1.136691196239533e+01
 9.062558737950199e-01	 7.673698855531537e-01	 1.093842707126540e+01
 8.901914038573248e-01	 7.859487989337565e-01	 1.051821724830964e+01
 8.737354293854029e-01	 8.042031145719988e-01	 1.010830959076569e+01
 8.568979073238980e-01	 8.221205668737418e-01	 9.710588677409691e+00
 8.396893026750000e-01	 8.396893026750000e-01	 9.326787908175813e+00
 9.991633915091432e-01	 6.532316431091377e-01	 1.358867739352569e+01
 9.855550618056569e-01	 6.735876206200734e-01	 1.315199687976977e+01
 9.715048305343937e-01	 6.936983687187062e-01	 1.271299408752397e+01
 9.570192862619038e-01	 7.135496816954405e-01	 1.227424085178607e+01
 9.421056206027849e-01	 7.331275892794399e-01	 1.183821938085429e+01
 9.267716176743770e-01	 7.524183884084656e-01	 1.140730888505684e+01
 9.110256415538237e-01	 7.714086744262558e-01	 1.098377296934192e+01
 8.948766217744553e-01	 7.900853715614955e-01	 1.056974789923320e+01
 8.783340369106124e-01	 8.084357625452413e-01	 1.016723184094308e+01
 8.614078963119114e-01	 8.264475172275958e-01	 9.778075166394840e+00
 8.441087200595001e-01	 8.441087200595001e-01	 9.403971902709172e+00
 1.004394613454200e+00	 6.566517040698419e-01	 1.362301581705205e+01
 9.907150359515253e-01	 6.771142573789536e-01	 1.318467886024091e+01
 9.765912432602549e-01	 6.973302973521833e-01	 1.274531960620252e+01
 9.620298584420524e-01	 7.172855439044925e-01	 1.230750824671021e+01
 9.470381107639466e-01	 7.369659536222664e-01	 1.187372001386392e+01
 9.316238250978180e-01	 7.563577516994849e-01	 1.144632175059669e+01
 9.157954093117904e-01	 7.754474632984393e-01	 1.102755927740049e+01
 8.995618396906774e-01	 7.942219441882802e-01	 1.061954566557986e+01
 8.829326444348630e-01	 8.126684105175038e-01	 1.022425051831057e+01
 8.659178852989348e-01	 8.307744675804550e-01	 9.843490350434708e+00
 8.485281374429998e-01	 8.485281374429998e-01	 9.478920146394263e+00
 1.009625835399267e+00	 6.600717650300515e-01	 1.365681271741694e+01
 9.958750100972136e-01	 6.806408941372439e-01	 1.321664019220766e+01
 9.816776559857661e-01	 7.009622259849853e-01	 1.277674567817179e+01
 9.670404306216990e-01	 7.210214061127938e-01	 1.233969815494001e+01
 9.519706009244742e-01	 7.408043179642758e-01	 1.190796629988023e+01
 9.364760325205139e-01	 7.602971149896309e-01	 1.148390499836437e+01
 9.205651770689204e-01	 7.794862521697045e-01	 1.106974268270888e+01
 9.042470576059916e-01	 7.983585168141111e-01	 1.066756961090877e+01
 8.875312519581541e-01	 8.169010584887872e-01	 1.027932718695271e+01
 8.704278742849682e-01	 8.351014179323191e-01	 9.906798413835471e+00
 8.529475548255000e-01	 8.529475548255000e-01	 9.551599558533082e+00
 1.014857057344345e+00	 6.634918259897664e-01	 1.369001414099132e+01
 1.001034984242723e+00	 6.841675308949445e-01	 1.324782844202697e+01
 9.867640687109261e-01	 7.045941546171117e-01	 1.280722153024928e+01
 9.720510028008432e-01	 7.247572683203436e-01	 1.237076160227795e+01
 9.569030910843684e-01	 7.446426823054686e-01	 1.194091119983610e+01
 9.413282399424644e-01	 7.642364782789047e-01	 1.152001365776481e+01
 9.253349448252137e-01	 7.835250410400512e-01	 1.111028041325864e+01
 9.089322755203972e-01	 8.024950894389877e-01	 1.071377928827346e+01
 8.921298594804861e-01	 8.211337064590906e-01	 1.033242384741462e+01
 8.749378632700119e-01	 8.394283682831883e-01	 9.967963922625165e+00
 8.573669722070002e-01	 8.573669722070002e-01	 9.621977383809813e+00
 1.020088279289433e+00	 6.669118869489865e-01	 1.372256691879956e+01
 1.006194958388052e+00	 6.876941676520552e-01	 1.327819192308663e+01
 9.918504814357353e-01	 7.082260832485628e-01	 1.283669709643187e+01
 9.770615749794853e-01	 7.284931305271426e-01	 1.240065027968987e+01
 9.618355812436289e-01	 7.484810466458445e-01	 1.197250829571795e+01
 9.461804473636692e-01	 7.681758415673056e-01	 1.155460333312747e+01
 9.301047125806703e-01	 7.875638299094797e-01	 1.114913022390050e+01
 9.136174934338949e-01	 8.066316620629101e-01	 1.075813472767063e+01
 8.967284670018588e-01	 8.253663544284147e-01	 1.038350292551074e+01
 8.794478522540661e-01	 8.437553186330627e-01	 1.002695181476565e+01
 8.617863895875000e-01	 8.617863895875000e-01	 9.690021183947833e+00
 1.025319501234533e+00	 6.703319479077121e-01	 1.375441864650288e+01
 1.011354932533201e+00	 6.912208044085763e-01	 1.330767967674836e+01
 9.969368941601940e-01	 7.118580118793385e-01	 1.286512299985637e+01
 9.820721471576257e-01	 7.322289927331905e-01	 1.242931652633784e+01
 9.667680714022555e-01	 7.523194109854036e-01	 1.200271177472309e+01
 9.510326547841293e-01	 7.721152048548340e-01	 1.158763018904035e+01
 9.348744803352895e-01	 7.916026187779894e-01	 1.118625038290417e+01
 9.183027113464844e-01	 8.107682346858788e-01	 1.080059642387334e+01
 9.013270745222728e-01	 8.295990023967594e-01	 1.043252726147623e+01
 8.839578412371303e-01	 8.480822689819423e-01	 1.008372739066513e+01
 8.662058069670001e-01	 8.662058069670000e-01	 9.755698829621608e+00
 1.030550723179642e+00	 6.737520088659428e-01	 1.378551766499224e+01
 1.016514906678171e+00	 6.947474411645072e-01	 1.333624145387130e+01
 1.002023306884302e+00	 7.154899405094388e-01	 1.289245053530779e+01
 9.870827193352637e-01	 7.359648549384874e-01	 1.245671331312739e+01
 9.717005615602485e-01	 7.561577753241460e-01	 1.203147641389848e+01
 9.558848622038438e-01	 7.760545681414897e-01	 1.161905093613027e+01
 9.396442480890722e-01	 7.956414076455809e-01	 1.122159965892683e+01
 9.229879292581658e-01	 8.149048073078929e-01	 1.084112532463464e+01
 9.059256820417273e-01	 8.338316503641242e-01	 1.047946009944805e+01
 8.884678302192046e-01	 8.524092193298268e-01	 1.013825630397831e+01
 8.706252243454998e-01	 8.706252243454998e-01	 9.818978492615980e+00
 1.035781945124762e+00	 6.771720698236789e-01	 1.381581304156946e+01
 1.021674880822961e+00	 6.982740779198485e-01	 1.336382769689566e+01
 1.007109719608059e+00	 7.191218691388637e-01	 1.291863165225890e+01
 9.920932915123994e-01	 7.397007171430333e-01	 1.248279422675468e+01
 9.766330517176076e-01	 7.599961396620710e-01	 1.205875756524569e+01
 9.607370696228129e-01	 7.799939314272727e-01	 1.164882281727388e+01
 9.444140158420178e-01	 7.996801965122539e-01	 1.125513730837821e+01
 9.276731471689389e-01	 8.190413799289532e-01	 1.087968281924872e+01
 9.105242895602228e-01	 8.380642983305095e-01	 1.052426507726641e+01
 8.929778192002894e-01	 8.567361696767165e-01	 1.019050455268685e+01
 8.750446417229999e-01	 8.750446417229999e-01	 9.879828638221415e+00
 1.041013167069893e+00	 6.805921307809202e-01	 1.384525455169571e+01
 1.026834854967571e+00	 7.018007146745996e-01	 1.339038952246581e+01
 1.012196132331465e+00	 7.227537977676133e-01	 1.294361893842079e+01
 9.971038636890334e-01	 7.434365793468282e-01	 1.250751345423472e+01
 9.815655418743334e-01	 7.638345039991798e-01	 1.208451114127498e+01
 9.655892770410368e-01	 7.839332947121831e-01	 1.167690359422487e+01
 9.491837835941268e-01	 8.037189853780083e-01	 1.128682306316421e+01
 9.323583650788039e-01	 8.231779525490596e-01	 1.091623072745653e+01
 9.151228970777588e-01	 8.422969462959150e-01	 1.056690621658187e+01
 8.974878081803843e-01	 8.610631200226114e-01	 1.024043847044690e+01
 8.794640590995000e-01	 8.794640590995000e-01	 9.938218017860311e+00
 1.046244389015035e+00	 6.840121917376669e-01	 1.387379266128747e+01
 1.031994829112001e+00	 7.053273514287609e-01	 1.341587870457557e+01
 1.017282545054521e+00	 7.263857263956877e-01	 1.296736560378696e+01
 1.002114435865165e+00	 7.471724415498717e-01	 1.253082576789285e+01
 9.864980320304254e-01	 7.676728683354713e-01	 1.210869360099275e+01
 9.704414844585151e-01	 7.878726579962206e-01	 1.170325153464136e+01
 9.539535513453988e-01	 8.077577742428446e-01	 1.131661711880061e+01
 9.370435829877606e-01	 8.273145251682116e-01	 1.095073128868544e+01
 9.197215045943361e-01	 8.465295942603415e-01	 1.060734791326056e+01
 9.019977971594892e-01	 8.653900703675113e-01	 1.028802471819833e+01
 8.838834764750000e-01	 8.838834764750000e-01	 9.994115661933492e+00
 8.396893026750000e-01	 8.396893026750000e-01	 9.326787908175813e+00
 8.221205668737418e-01	 8.568979073238983e-01	 8.870932850200864e+00
 8.042031145719988e-01	 8.737354293854029e-01	 8.424837010475953e+00
 7.859487989337567e-01	 8.901914038573251e-01	 7.989073021130721e+00
 7.673698855531540e-01	 9.062558737950197e-01	 7.564077724753581e+00
 7.484790251165745e-01	 9.219194102501905e-01	 7.150152510938167e+00
 7.292892249357970e-01	 9.371731304409896e-01	 6.747464735231420e+00
 7.098138194856376e-01	 9.520087140812531e-01	 6.356050191271342e+00
 6.900664400845541e-01	 9.664184178081808e-01	 5.975816595684743e+00
 6.700609838606034e-01	 9.803950876596081e-01	 5.606548034779671e+00
 6.498115821479389e-01	 9.939321695640974e-01	 5.247910312395491e+00
 8.441087200595001e-01	 8.441087200595001e-01	 9.403971902709172e+00
 8.264475172275958e-01	 8.614078963119115e-01	 8.954836917137834e+00
 8.084357625452414e-01	 8.783340369106125e-01	 8.514818933889249e+00
 7.900853715614956e-01	 8.948766217744553e-01	 8.084407936254928e+00
 7.714086744262557e-01	 9.110256415538234e-01	 7.663960468399284e+00
 7.524183884084661e-01	 9.267716176743768e-01	 7.253700315832422e+00
 7.331275892794401e-01	 9.421056206027846e-01	 6.853720257228989e+00
 7.135496816954408e-01	 9.570192862619037e-01	 6.463984856053031e+00
 6.936983687187067e-01	 9.715048305343934e-01	 6.084334249316550e+00
 6.735876206200737e-01	 9.855550618056563e-01	 5.714488880388178e+00
 6.532316431091376e-01	 9.991633915091431e-01	 5.354055113220609e+00
 8.485281374429998e-01	 8.485281374429998e-01	 9.478920146394263e+00
 8.307744675804549e-01	 8.659178852989347e-01	 9.036204841251632e+00
 8.126684105175038e-01	 8.829326444348630e-01	 8.601985621261782e+00
 7.942219441882802e-01	 8.995618396906773e-01	 8.176670303842304e+00
 7.754474632984396e-01	 9.157954093117905e-01	 7.760535548309205e+00
 7.563577516994852e-01	 9.316238250978179e-01	 7.353727879239076e+00
 7.369659536222667e-01	 9.470381107639463e-01	 6.956265770528336e+00
 7.172855439044931e-01	 9.620298584420520e-01	 6.568042756280570e+00
 6.973302973521838e-01	 9.765912432602546e-01	 6.188831523604740e+00
 6.771142573789543e-01	 9.907150359515251e-01	 5.818288932108435e+00
 6.566517040698420e-01	 1.004394613454200e+00	 5.455961895457825e+00
 8.529475548255000e-01	 8.529475548255000e-01	 9.551599558533082e+00
 8.351014179323191e-01	 8.704278742849684e-01	 9.115008555365836e+00
 8.169010584887871e-01	 8.875312519581540e-01	 8.686313852071006e+00
 7.983585168141113e-01	 9.042470576059914e-01	 8.265841573793903e+00
 7.794862521697046e-01	 9.205651770689203e-01	 7.853788899620305e+00
 7.602971149896314e-01	 9.364760325205137e-01	 7.450225427823296e+00
 7.408043179642763e-01	 9.519706009244739e-01	 7.055095591563926e+00
 7.210214061127939e-01	 9.670404306216985e-01	 6.668222088842079e+00
 7.009622259849856e-01	 9.816776559857655e-01	 6.289310279539658e+00
 6.806408941372446e-01	 9.958750100972134e-01	 5.917953492190270e+00
 6.600717650300515e-01	 1.009625835399267e+00	 5.553639173846681e+00
 8.573669722070002e-01	 8.573669722070002e-01	 9.621977383809813e+00
 8.394283682831882e-01	 8.749378632700121e-01	 9.191220215130933e+00
 8.211337064590907e-01	 8.921298594804862e-01	 8.767780530267741e+00
 8.024950894389877e-01	 9.089322755203972e-01	 8.351903226517143e+00
 7.835250410400514e-01	 9.253349448252136e-01	 7.943706398569153e+00
 7.642364782789050e-01	 9.413282399424643e-01	 7.543183044666335e+00
 7.446426823054690e-01	 9.569030910843680e-01	 7.150203813372647e+00
 7.247572683203440e-01	 9.720510028008429e-01	 6.764520752421976e+00
 7.045941546171119e-01	 9.867640687109256e-01	 6.385772010230544e+00
 6.841675308949453e-01	 1.001034984242722e+00	 6.013487430563401e+00
 6.634918259897663e-01	 1.014857057344345e+00	 5.647094971698916e+00
 8.617863895875000e-01	 8.617863895875000e-01	 9.690021183947833e+00
 8.437553186330626e-01	 8.794478522540661e-01	 9.264812193311649e+00
 8.253663544284148e-01	 8.967284670018589e-01	 8.846362681085267e+00
 8.066316620629101e-01	 9.136174934338948e-01	 8.434836772143841e+00
 7.875638299094797e-01	 9.301047125806697e-01	 8.030273864002755e+00
 7.681758415673059e-01	 9.461804473636691e-01	 7.632590672946140e+00
 7.484810466458448e-01	 9.618355812436283e-01	 7.241584311322239e+00
 7.284931305271432e-01	 9.770615749794852e-01	 6.856936355147389e+00
 7.082260832485632e-01	 9.918504814357350e-01	 6.478217850339716e+00
 6.876941676520559e-01	 1.006194958388051e+00	 6.104895195922225e+00
 6.669118869489865e-01	 1.020088279289433e+00	 5.736336833498756e+00
 8.662058069670001e-01	 8.662058069670000e-01	 9.755698829621608e+00
 8.480822689819422e-01	 8.839578412371304e-01	 9.335757074247702e+00
 8.295990023967594e-01	 9.013270745222729e-01	 8.922037447944533e+00
 8.107682346858788e-01	 9.183027113464843e-01	 8.514623749771605e+00
 7.916026187779897e-01	 9.348744803352894e-01	 8.113477058842239e+00
 7.721152048548343e-01	 9.510326547841291e-01	 7.718438119506946e+00
 7.523194109854038e-01	 9.667680714022550e-01	 7.329230748663882e+00
 7.322289927331912e-01	 9.820721471576254e-01	 6.945466221999777e+00
 7.118580118793392e-01	 9.969368941601936e-01	 6.566648585225169e+00
 6.912208044085769e-01	 1.011354932533201e+00	 6.192180826471997e+00
 6.703319479077121e-01	 1.025319501234533e+00	 5.821371837117085e+00
 8.706252243454998e-01	 8.706252243454998e-01	 9.818978492615980e+00
 8.524092193298268e-01	 8.884678302192049e-01	 9.404027648484043e+00
 8.338316503641243e-01	 9.059256820417273e-01	 8.994782089454796e+00
 8.149048073078931e-01	 9.229879292581655e-01	 8.591245726729088e+00
 7.956414076455811e-01	 9.396442480890721e-01	 8.193301691502372e+00
 7.760545681414899e-01	 9.558848622038436e-01	 7.800715058319764e+00
 7.561577753241461e-01	 9.717005615602481e-01	 7.413136581915724e+00
 7.359648549384878e-01	 9.870827193352631e-01	 7.030107402002216e+00
 7.154899405094394e-01	 1.002023306884302e+00	 6.651064659806747e+00
 6.947474411645078e-01	 1.016514906678170e+00	 6.275347960347080e+00
 6.737520088659427e-01	 1.030550723179642e+00	 5.902206605655513e+00
 8.750446417229999e-01	 8.750446417229999e-01	 9.879828638221415e+00
 8.567361696767164e-01	 8.929778192002895e-01	 9.469596907563918e+00
 8.380642983305094e-01	 9.105242895602227e-01	 9.064573976505073e+00
 8.190413799289534e-01	 9.276731471689387e-01	 8.664684297862919e+00
 7.996801965122540e-01	 9.444140158420177e-01	 8.269733417267657e+00
 7.799939314272731e-01	 9.607370696228128e-01	 7.879411033837098e+00
 7.599961396620715e-01	 9.766330517176075e-01	 7.493295066083293e+00
 7.397007171430338e-01	 9.920932915123990e-01	 7.110856675187824e+00
 7.191218691388643e-01	 1.007109719608059e+00	 6.731466187163559e+00
 6.982740779198489e-01	 1.021674880822960e+00	 6.354399845714113e+00
 6.771720698236789e-01	 1.035781945124762e+00	 5.978847318930084e+00
 8.794640590995000e-01	 8.794640590995000e-01	 9.938218017860311e+00
 8.610631200226112e-01	 8.974878081803844e-01	 9.532438038978238e+00
 8.422969462959152e-01	 9.151228970777590e-01	 9.131390589442693e+00
 8.231779525490597e-01	 9.323583650788039e-01	 8.734921084845482e+00
 8.037189853780086e-01	 9.491837835941267e-01	 8.342757839628179e+00
 7.839332947121833e-01	 9.655892770410365e-01	 7.954515464247773e+00
 7.638345039991801e-01	 9.815655418743330e-01	 7.569699259723459e+00
 7.434365793468286e-01	 9.971038636890330e-01	 7.187710559357892e+00
 7.227537977676141e-01	 1.012196132331465e+00	 6.807852956870521e+00
 7.018007146746001e-01	 1.026834854967570e+00	 6.429339350569423e+00
 6.805921307809202e-01	 1.041013167069893e+00	 6.051299724608951e+00
 8.838834764750000e-01	 8.838834764750000e-01	 9.994115661933492e+00
 8.653900703675113e-01	 9.019977971594896e-01	 9.592524421267157e+00
 8.465295942603415e-01	 9.197215045943362e-01	 9.195209515336813e+00
 8.273145251682117e-01	 9.370435829877607e-01	 8.801937735505991e+00
 8.077577742428449e-01	 9.539535513453986e-01	 8.412360511573365e+00
 7.878726579962209e-01	 9.704414844585149e-01	 8.026017644632654e+00
 7.676728683354718e-01	 9.864980320304252e-01	 7.642342029854873e+00
 7.471724415498724e-01	 1.002114435865165e+00	 7.260665316637631e+00
 7.263857263956882e-01	 1.017282545054521e+00	 6.880224443087323e+00
 7.053273514287616e-01	 1.031994829112000e+00	 6.500168972244149e+00
 6.840121917376669e-01	 1.046244389015035e+00	 6.119569149015968e+00
 6.498115821479389e-01	 9.939321695640974e-01	 5.247910312395491e+00
 6.293325684616292e-01	 1.007023717819563e+00	 4.968200094507628e+00
 6.086384461952835e-01	 1.019664401547349e+00	 4.597580676361666e+00
 5.877438561902473e-01	 1.031849509122004e+00	 4.219600766280573e+00
 5.666635443231889e-01	 1.043574950589053e+00	 3.861643491570664e+00
 5.454123292515077e-01	 1.054837258093266e+00	 3.519177831515697e+00
 5.240050704560129e-01	 1.065633584352145e+00	 3.187751873490429e+00
 5.024566367146301e-01	 1.075961699219711e+00	 2.863031417677754e+00
 4.807818751352936e-01	 1.085819984395729e+00	 2.540836345770570e+00
 4.589955808697626e-01	 1.095207426344859e+00	 2.217174461179705e+00
 4.371124676229823e-01	 1.104123607498825e+00	 1.888272547654466e+00
 6.532316431091376e-01	 9.991633915091431e-01	 5.354055113220609e+00
 6.326448451404717e-01	 1.012323842649639e+00	 5.073763853189121e+00
 6.118418064412861e-01	 1.025031056291269e+00	 4.726545235624278e+00
 5.908372449099867e-01	 1.037280296010556e+00	 4.347168299407521e+00
 5.696459840331194e-01	 1.049067450326945e+00	 3.986640144623519e+00
 5.482829204610178e-01	 1.060389033133340e+00	 3.640283379388332e+00
 5.267629918822854e-01	 1.071242182161545e+00	 3.303507225321253e+00
 5.051011453315745e-01	 1.081624655527969e+00	 2.971846900133955e+00
 4.833123060594934e-01	 1.091534826415010e+00	 2.641000692583359e+00
 4.614113470870215e-01	 1.100971675952930e+00	 2.306864432771176e+00
 4.394130595596578e-01	 1.109934784375726e+00	 1.965563101051871e+00
 6.566517040698420e-01	 1.004394613454200e+00	 5.455961895457825e+00
 6.359571218189091e-01	 1.017623967479915e+00	 5.174965103698081e+00
 6.150451666869523e-01	 1.030397711035560e+00	 4.850587185315540e+00
 5.939306336294382e-01	 1.042711082899626e+00	 4.469867843150319e+00
 5.726284237427900e-01	 1.054559950065485e+00	 4.106836625117301e+00
 5.511535116702759e-01	 1.065940808174170e+00	 3.756668286055650e+00
 5.295209133082934e-01	 1.076850779971789e+00	 3.414631703046277e+00
 5.077456539482222e-01	 1.087287611837140e+00	 3.076130045275292e+00
 4.858427369833444e-01	 1.097249668435252e+00	 2.736738564234323e+00
 4.638271133038607e-01	 1.106735925561991e+00	 2.392239702623682e+00
 4.417136514958230e-01	 1.115745961253627e+00	 2.038655261523719e+00
 6.600717650300515e-01	 1.009625835399267e+00	 5.553639173846681e+00
 6.392693984969413e-01	 1.022924092310392e+00	 5.271816122198392e+00
 6.182485269322829e-01	 1.035764365780220e+00	 4.969691912118559e+00
 5.970240223486021e-01	 1.048141869789214e+00	 4.587690270993543e+00
 5.756108634522011e-01	 1.060052449804673e+00	 4.222229126344345e+00
 5.540241028792821e-01	 1.071492583215757e+00	 3.868333882631253e+00
 5.322788347340374e-01	 1.082459377782877e+00	 3.521131579341128e+00
 5.103901625645734e-01	 1.092950568147224e+00	 3.175891857590841e+00
 4.883731679068472e-01	 1.102964510456456e+00	 2.828065474623148e+00
 4.662428795202800e-01	 1.112500175172043e+00	 2.473320059873146e+00
 4.440142434314778e-01	 1.121557138132527e+00	 2.107572848423324e+00
 6.634918259897663e-01	 1.014857057344345e+00	 5.647094971698916e+00
 6.425816751745685e-01	 1.028224217141069e+00	 5.364328623583013e+00
 6.214518871772772e-01	 1.041131020525250e+00	 5.083844175119561e+00
 6.001174110674784e-01	 1.053572656679322e+00	 4.700625766114054e+00
 5.785933031613523e-01	 1.065544949544507e+00	 4.332813092283304e+00
 5.568946940880363e-01	 1.077044358258099e+00	 3.975280695691235e+00
 5.350367561595167e-01	 1.088067975594809e+00	 3.623012270970567e+00
 5.130346711806280e-01	 1.098613524458221e+00	 3.271142438192975e+00
 4.909035988300013e-01	 1.108679352478621e+00	 2.914995990760577e+00
 4.686586457362795e-01	 1.118264424783085e+00	 2.550124307246972e+00
 4.463148353666224e-01	 1.127368315012427e+00	 2.172338659191031e+00
 6.669118869489865e-01	 1.020088279289433e+00	 5.736336833498756e+00
 6.458939518517908e-01	 1.033524341971946e+00	 5.452513775866883e+00
 6.246552474219352e-01	 1.046497675270649e+00	 5.193028121900655e+00
 6.032107997860670e-01	 1.059003443569948e+00	 4.808663839081717e+00
 5.815757428702442e-01	 1.071037449284989e+00	 4.438583236812862e+00
 5.597652852965385e-01	 1.082596133301196e+00	 4.077508467903692e+00
 5.377946775847320e-01	 1.093676573407586e+00	 3.720278360734614e+00
 5.156791797963862e-01	 1.104276480770130e+00	 3.361891007980468e+00
 4.934340297528071e-01	 1.114394194501747e+00	 2.997543757048867e+00
 4.710744119518592e-01	 1.124028674395118e+00	 2.622670286355550e+00
 4.486154273012568e-01	 1.133179491893328e+00	 2.232974495556763e+00
 6.703319479077121e-01	 1.025319501234533e+00	 5.821371837117085e+00
 6.492062285286079e-01	 1.038824466803024e+00	 5.536382214135472e+00
 6.278586076662573e-01	 1.051864330016418e+00	 5.277490181416988e+00
 6.063041885043678e-01	 1.064434230461093e+00	 4.911793345018300e+00
 5.845581825788760e-01	 1.076529949026119e+00	 4.539533562336422e+00
 5.626358765047886e-01	 1.088147908345050e+00	 4.175016178025417e+00
 5.405525990096829e-01	 1.099285171221207e+00	 3.812933618743684e+00
 5.183236884118476e-01	 1.109939437082952e+00	 3.448145930092881e+00
 4.959644606752645e-01	 1.120109036525835e+00	 3.075721518817194e+00
 4.734901781670192e-01	 1.129792924008140e+00	 2.690974902211572e+00
 4.509160192353808e-01	 1.138990668775229e+00	 2.289501188941076e+00
 6.737520088659427e-01	 1.030550723179642e+00	 5.902206605655513e+00
 6.525185052050199e-01	 1.044124591634303e+00	 5.615944054073411e+00
 6.310619679102433e-01	 1.057230984762557e+00	 5.355143596623127e+00
 6.093975772223811e-01	 1.069865017352757e+00	 5.010002500232455e+00
 5.875406222872481e-01	 1.082022448767896e+00	 4.635657377839173e+00
 5.655064677127868e-01	 1.093699683389660e+00	 4.267802060292063e+00
 5.433105204343693e-01	 1.104893769035673e+00	 3.900981023044401e+00
 5.209681970270125e-01	 1.115602393396687e+00	 3.529914731682019e+00
 4.984948915973730e-01	 1.125823878550884e+00	 3.149541145139509e+00
 4.759059443817594e-01	 1.135557173622153e+00	 2.755054147000599e+00
 4.532166111689946e-01	 1.144801845658129e+00	 2.341938625082213e+00
 6.771720698236789e-01	 1.035781945124762e+00	 5.978847318930084e+00
 6.558307818810269e-01	 1.049424716465781e+00	 5.691208905078571e+00
 6.342653281538930e-01	 1.062597639509066e+00	 5.428413127482082e+00
 6.124909659401068e-01	 1.075295804244940e+00	 5.103278898351612e+00
 5.905230619953610e-01	 1.087514948510320e+00	 4.726947316400031e+00
 5.683770589205333e-01	 1.099251458435025e+00	 4.355863623217426e+00
 5.460684418587918e-01	 1.110502366850982e+00	 3.984422779621897e+00
 5.236127056418808e-01	 1.121265349711334e+00	 3.607204125021418e+00
 5.010253225191333e-01	 1.131538720576894e+00	 3.219013650964877e+00
 4.783217105960796e-01	 1.141321423237157e+00	 2.814923123132787e+00
 4.555172031020980e-01	 1.150613022542030e+00	 2.390305767916904e+00
 6.805921307809202e-01	 1.041013167069893e+00	 6.051299724608951e+00
 6.591430585566289e-01	 1.054724841297460e+00	 5.762185882984751e+00
 6.374686883972068e-01	 1.067964294255944e+00	 5.497311133996657e+00
 6.155843546575445e-01	 1.080726591137641e+00	 5.191609525967732e+00
 5.935055017032137e-01	 1.093007448253392e+00	 4.813395352173161e+00
 5.712476501280276e-01	 1.104803233481147e+00	 4.439197667829232e+00
 5.488263632829495e-01	 1.116110964667136e+00	 4.063260341798478e+00
 5.262572142564526e-01	 1.126928306026894e+00	 3.680020027981840e+00
 5.035557534405452e-01	 1.137253562603866e+00	 3.284149218575116e+00
 4.807374768099801e-01	 1.147085672853151e+00	 2.870596065599488e+00
 4.578177950346912e-01	 1.156424199426930e+00	 2.434620682741516e+00
 6.840121917376669e-01	 1.046244389015035e+00	 6.119569149015968e+00
 6.624553352318256e-01	 1.060024966129339e+00	 5.828883622399087e+00
 6.406720486401845e-01	 1.073330949003192e+00	 5.561849438077362e+00
 6.186777433746947e-01	 1.086157378030861e+00	 5.274980777811856e+00
 5.964879414108071e-01	 1.098499947997111e+00	 4.894992816861096e+00
 5.741182413352699e-01	 1.110355008528024e+00	 4.517800305355287e+00
 5.515842847068431e-01	 1.121719562484134e+00	 4.137494429048761e+00
 5.289017228707278e-01	 1.132591262343367e+00	 3.748367583890154e+00
 5.060861843616085e-01	 1.142968404631799e+00	 3.344957218403447e+00
 4.831532430234608e-01	 1.152849922470135e+00	 2.922086363657704e+00
 4.601183869667742e-01	 1.162235376312831e+00	 2.474900558677468e+00
 4.371124676229823e-01	 1.104123607498825e+00	 1.888272547654466e+00
 4.151471390639290e-01	 1.112568695822117e+00	 1.706990693595812e+00
 3.931140612393640e-01	 1.120543432830269e+00	 1.539777491611326e+00
 3.710275360783331e-01	 1.128049120153915e+00	 1.384423998013577e+00
 3.489016760664020e-01	 1.135087604746951e+00	 1.238888534221792e+00
 3.267503801639197e-01	 1.141661262843413e+00	 1.101313574166494e+00
 3.045873110293177e-01	 1.147772982769477e+00	 9.700398741996723e-01
 2.824258735998907e-01	 1.153426146719838e+00	 8.436178369872676e-01
 2.602791950729829e-01	 1.158624611609314e+00	 7.208161336689998e-01
 2.381601063211092e-01	 1.163372689111265e+00	 6.006276391433265e-01
 2.160811247653200e-01	 1.167675124994303e+00	 4.822727633738140e-01
 4.394130595596578e-01	 1.109934784375726e+00	 1.965563101051871e+00
 4.173321240078633e-01	 1.118424320531960e+00	 1.776875845071069e+00
 3.951830826155557e-01	 1.126441029839928e+00	 1.601838239536061e+00
 3.729803125850909e-01	 1.133986220780951e+00	 1.438180751387042e+00
 3.507380006782733e-01	 1.141061750029733e+00	 1.283805767846407e+00
 3.284701190078735e-01	 1.147670006326803e+00	 1.136804809690871e+00
 3.061904021410511e-01	 1.153813893200052e+00	 9.954729316034365e-01
 2.839123255674006e-01	 1.159496810645199e+00	 8.583203010528773e-01
 2.616490855747774e-01	 1.164722635876612e+00	 7.240809805469375e-01
 2.394135805666031e-01	 1.169495703260665e+00	 5.917189692681717e-01
 2.172183938450901e-01	 1.173820783543699e+00	 4.604315886272918e-01
 4.417136514958230e-01	 1.115745961253627e+00	 2.038655261523719e+00
 4.195171089511924e-01	 1.124279945242797e+00	 1.842830853272789e+00
 3.972521039910581e-01	 1.132338626850566e+00	 1.660220754996843e+00
 3.749330890910854e-01	 1.139923321408939e+00	 1.488493633077042e+00
 3.525743252893177e-01	 1.147035895313430e+00	 1.325494836847008e+00
 3.301898578509472e-01	 1.153678749811061e+00	 1.169263941105755e+00
 3.077934932518606e-01	 1.159854803631439e+00	 1.018049419431848e+00
 2.853987775339532e-01	 1.165567474571304e+00	 8.703204397063560e-01
 2.630189760755907e-01	 1.170820660144577e+00	 7.247758073047463e-01
 2.406670548111017e-01	 1.175618717410646e+00	 5.803501131105682e-01
 2.183556629238602e-01	 1.179966442093580e+00	 4.362171725910879e-01
 4.440142434314778e-01	 1.121557138132527e+00	 2.107572848423324e+00
 4.217020938939168e-01	 1.130135569954629e+00	 1.904881000911900e+00
 3.993211253658713e-01	 1.138236223862182e+00	 1.714951804186295e+00
 3.768858655963168e-01	 1.145860422037879e+00	 1.535390904869307e+00
 3.544106498995352e-01	 1.153010040598041e+00	 1.363985503043202e+00
 3.319095966931405e-01	 1.159687493296186e+00	 1.198722227419094e+00
 3.093965843617464e-01	 1.165895714063635e+00	 1.037802084143837e+00
 2.868852294995484e-01	 1.171638138498153e+00	 8.796524706625615e-01
 2.643888665754230e-01	 1.176918684413208e+00	 7.229362806953799e-01
 2.419205290546050e-01	 1.181741731561207e+00	 5.665581586822768e-01
 2.194929320016303e-01	 1.186112100643947e+00	 4.096679916566752e-01
 4.463148353666224e-01	 1.127368315012427e+00	 2.172338659191031e+00
 4.238870788360359e-01	 1.135991194667456e+00	 1.963050564982352e+00
 4.013901467399953e-01	 1.144133820874777e+00	 1.766057161963079e+00
 3.788386421007849e-01	 1.151797522667771e+00	 1.578899849776373e+00
 3.562469745089259e-01	 1.158984185883568e+00	 1.399306560230626e+00
 3.336293355344535e-01	 1.165696236782179e+00	 1.225209968551698e+00
 3.109996754707084e-01	 1.171936624496642e+00	 1.054762720255375e+00
 2.883716814641861e-01	 1.177708802425745e+00	 8.863496650525240e-01
 2.657587570742740e-01	 1.183016708682507e+00	 7.185971244850051e-01
 2.431740032971129e-01	 1.187864745712349e+00	 5.503792528628142e-01
 2.206302010784005e-01	 1.192257759194798e+00	 3.808215812247424e-01
 4.486154273012568e-01	 1.133179491893328e+00	 2.232974495556763e+00
 4.260720637775501e-01	 1.141846819381277e+00	 2.017362842551251e+00
 4.034591681134298e-01	 1.150031417888351e+00	 1.813561637267955e+00
 3.807914186044901e-01	 1.157734623298615e+00	 1.619046797135601e+00
 3.580832991174899e-01	 1.164958331170010e+00	 1.431485859000399e+00
 3.353490743748860e-01	 1.171704980269041e+00	 1.248756529930956e+00
 3.126027665787466e-01	 1.177977534930460e+00	 1.068962194745854e+00
 2.898581334278665e-01	 1.183779466354080e+00	 8.904443716932544e-01
 2.671286475721439e-01	 1.189114732952472e+00	 7.117921436300974e-01
 2.444274775386255e-01	 1.193987759864072e+00	 5.318486255317774e-01
 2.217674701541706e-01	 1.198403417746136e+00	 3.497145598336036e-01
 4.509160192353808e-01	 1.138990668775229e+00	 2.289501188941076e+00
 4.282570487184594e-01	 1.147702444096093e+00	 2.067840175754548e+00
 4.055281894861753e-01	 1.155929014902903e+00	 1.857489097767546e+00
 3.827441951074318e-01	 1.163671723930411e+00	 1.655857146937999e+00
 3.599196237252269e-01	 1.170932476457367e+00	 1.460550330801619e+00
 3.370688132144383e-01	 1.177713723756769e+00	 1.269390366329042e+00
 3.142058576858610e-01	 1.184018445365089e+00	 1.080430470722062e+00
 2.913445853905896e-01	 1.189850130283160e+00	 8.919680406174761e-01
 2.684985380690326e-01	 1.195212757223103e+00	 7.025542477181099e-01
 2.456809517791429e-01	 1.200110774016376e+00	 5.110006129602578e-01
 2.229047392289407e-01	 1.204549076297958e+00	 3.163826525472686e-01
 4.532166111689946e-01	 1.144801845658129e+00	 2.341938625082213e+00
 4.304420336587637e-01	 1.153558068811903e+00	 2.114503976035067e+00
 4.075972108582314e-01	 1.161826611918434e+00	 1.897862493743299e+00
 3.846969716096106e-01	 1.169608824563158e+00	 1.689355393413382e+00
 3.617559483321371e-01	 1.176906621745638e+00	 1.486526011269174e+00
 3.387885520531103e-01	 1.183722467245366e+00	 1.287139044976930e+00
 3.158089487920516e-01	 1.190059355800528e+00	 1.089196630357866e+00
 2.928310373523552e-01	 1.195920794212983e+00	 8.909512458850424e-01
 2.698684285649402e-01	 1.201310781494402e+00	 6.909154736911061e-01
 2.469344260186649e-01	 1.206233788169260e+00	 4.878686804929304e-01
 2.240420083027108e-01	 1.210694734850266e+00	 2.808607136331327e-01
 4.555172031020980e-01	 1.150613022542030e+00	 2.390305767916904e+00
 4.326270185984629e-01	 1.159413693528708e+00	 2.157374747645030e+00
 4.096662322295982e-01	 1.167724208934942e+00	 1.934703881256634e+00
 3.866497481110260e-01	 1.175545925196858e+00	 1.719565147906746e+00
 3.635922729382206e-01	 1.182880767034825e+00	 1.509438062845900e+00
 3.405082908909018e-01	 1.189731210734830e+00	 1.302029267976093e+00
 3.174120398973183e-01	 1.196100266236777e+00	 1.095288897139475e+00
 2.943174893131635e-01	 1.201991458143549e+00	 8.874237077036591e-01
 2.712383190598666e-01	 1.207408805766367e+00	 6.769070078833492e-01
 2.481879002571916e-01	 1.212356802322725e+00	 4.624854445393569e-01
 2.251792773754809e-01	 1.216840393403059e+00	 2.431827485525251e-01
 4.578177950346912e-01	 1.156424199426930e+00	 2.434620682741516e+00
 4.348120035375572e-01	 1.165269318246508e+00	 2.196472110439461e+00
 4.117352536002757e-01	 1.173621805952430e+00	 1.968034444619569e+00
 3.886025246116783e-01	 1.181483025831510e+00	 1.746509161057402e+00
 3.654285975434771e-01	 1.188854912324926e+00	 1.529310796721324e+00
 3.422280297278130e-01	 1.195739954225163e+00	 1.314086894035685e+00
 3.190151310016611e-01	 1.202141176673837e+00	 1.098734657441690e+00
 2.958039412730145e-01	 1.208062122074858e+00	 8.814143138817099e-01
 2.726082095538118e-01	 1.213506830039000e+00	 6.605592073925328e-01
 2.494413744947230e-01	 1.218479816476770e+00	 4.348826939052908e-01
 2.263165464472511e-01	 1.222986051956338e+00	 2.033819352855890e-01
 4.601183869667742e-01	 1.162235376312831e+00	 2.474900558677468e+00
 4.369969884760465e-01	 1.171124942965302e+00	 2.231814821985528e+00
 4.138042749702640e-01	 1.179519402970896e+00	 1.997874518185462e+00
 3.905553011115675e-01	 1.187420126467113e+00	 1.770209344319866e+00
 3.672649221479067e-01	 1.194829057615943e+00	 1.546167694113839e+00
 3.439477685638439e-01	 1.201748697716363e+00	 1.323336959558344e+00
 3.206182221050803e-01	 1.208182087111708e+00	 1.099560481455149e+00
 2.972903932319080e-01	 1.214132786006911e+00	 8.729511406393982e-01
 2.739781000467759e-01	 1.219604854312299e+00	 6.419016208114912e-01
 2.506948487312590e-01	 1.224602830631397e+00	 4.050914104819474e-01
 2.274538155180212e-01	 1.229131710510101e+00	 1.614906450207083e-01
 2.160811247653200e-01	 1.167675124994303e+00	 4.822727633738140e-01
 1.940544387226203e-01	 1.171537077868094e+00	 3.565182793090338e-01
 1.720918932328057e-01	 1.174964097446825e+00	 2.417221622633343e-01
 1.502049773640088e-01	 1.177962102437431e+00	 1.373297091460859e-01
 1.284048129885414e-01	 1.180537358156770e+00	 4.297880359591932e-02
 1.067021450109435e-01	 1.182696453977716e+00	-4.150477116767481e-02
 8.510733302509156e-02	 1.184446280700851e+00	-1.161137373834136e-01
 6.363034437045921e-02	 1.185794007943877e+00	-1.806672674946852e-01
 4.228074855186133e-02	 1.186747061636128e+00	-2.348202854804893e-01
 2.106771298181156e-02	 1.187313101700527e+00	-2.780739393938310e-01
 0.000000000000000e+00	 1.187500000000000e+00	-3.097870599762789e-01
 2.172183938450901e-01	 1.173820783543699e+00	 4.604315886272918e-01
 1.950757778761809e-01	 1.177703062485871e+00	 3.228638951776557e-01
 1.729976400418887e-01	 1.181148119010307e+00	 2.011315649867285e-01
 1.509955298791278e-01	 1.184161902975033e+00	 9.463128442014934e-02
 1.290806277963824e-01	 1.186750712672259e+00	 2.939928283698379e-03
 1.072637352503240e-01	 1.188921172155769e+00	-7.418934036786040e-02
 8.555526635900967e-02	 1.190680208493520e+00	-1.368326867420600e-01
 6.396524092159707e-02	 1.192035029038043e+00	-1.849027629190252e-01
 4.250327880871838e-02	 1.192993098802513e+00	-2.181572290671336e-01
 2.117859568242933e-02	 1.193562118025237e+00	-2.362084552137436e-01
 0.000000000000000e+00	 1.193750000000000e+00	-2.385342214444948e-01
 2.183556629238602e-01	 1.179966442093580e+00	 4.362171725910879e-01
 1.960971170287521e-01	 1.183869047104040e+00	 2.872896389296165e-01
 1.739033868500138e-01	 1.187332140574097e+00	 1.589898615142473e-01
 1.517860823933411e-01	 1.190361703512869e+00	 5.066641256430615e-02
 1.297564426033901e-01	 1.192964067187918e+00	-3.816412036557493e-02
 1.078253254889633e-01	 1.195145890333940e+00	-1.078202579587277e-01
 8.600319969229811e-02	 1.196914136286264e+00	-1.584604681357695e-01
 6.430013747223554e-02	 1.198276050132250e+00	-1.900895500955229e-01
 4.272580906522468e-02	 1.199239135968915e+00	-2.025663874515085e-01
 2.128947838286300e-02	 1.199811134349951e+00	-1.956128916283320e-01
 0.000000000000000e+00	 1.200000000000000e+00	-1.688239563056426e-01
 2.194929320016303e-01	 1.186112100643947e+00	 4.096679916566752e-01
 1.971184561803340e-01	 1.190035031722598e+00	 2.498292816141654e-01
 1.748091336571812e-01	 1.193516162138193e+00	 1.153270274830409e-01
 1.525766349066489e-01	 1.196561504050938e+00	 5.462171046902942e-03
 1.304322574095647e-01	 1.199177421703747e+00	-8.030827988473832e-02
 1.083869157268616e-01	 1.201370608512229e+00	-1.423736086865310e-01
 8.645113302495687e-02	 1.203148064079081e+00	-1.809734623119483e-01
 6.463503402237457e-02	 1.204517071226499e+00	-1.962034722488779e-01
 4.294833932138025e-02	 1.205485173135336e+00	-1.880222515167544e-01
 2.140036108311256e-02	 1.206060150674669e+00	-1.562595919902114e-01
 0.000000000000000e+00	 1.206250000000000e+00	-1.006256856515662e-01
 2.206302010784005e-01	 1.192257759194798e+00	 3.808215812247424e-01
 1.981397953309263e-01	 1.196201016341548e+00	 2.105157766159280e-01
 1.757148804633908e-01	 1.199700183702596e+00	 7.017232291824826e-02
 1.533671874190511e-01	 1.202761304589240e+00	-4.095499727319463e-02
 1.311080722149060e-01	 1.205390776219747e+00	-1.234680622085091e-01
 1.089485059640187e-01	 1.207595326690635e+00	-1.778260119777224e-01
 8.689906635698587e-02	 1.209381991871974e+00	-2.043485651305521e-01
 6.496993057201417e-02	 1.210758092320790e+00	-2.032208879316917e-01
 4.317086957718512e-02	 1.211731210301776e+00	-1.744998470687031e-01
 2.151124378317803e-02	 1.212309166999392e+00	-1.181214731144709e-01
 0.000000000000000e+00	 1.212500000000000e+00	-3.390946106739112e-02
 2.217674701541706e-01	 1.198403417746136e+00	 3.497145598336036e-01
 1.991611344805295e-01	 1.202367000960888e+00	 1.693812806207140e-01
 1.766206272686426e-01	 1.205884205267306e+00	 2.355431058404633e-02
 1.541577399305477e-01	 1.208961105127776e+00	-8.855926787719182e-02
 1.317838870194141e-01	 1.211604130735917e+00	-1.676195389439137e-01
 1.095100962004347e-01	 1.213820044869159e+00	-2.141546082298045e-01
 8.734699968838523e-02	 1.215615919664942e+00	-2.285631743570959e-01
 6.530482712115437e-02	 1.216999113415123e+00	-2.111186578105486e-01
 4.339339983263925e-02	 1.217977247468234e+00	-1.619747211176146e-01
 2.162212648305939e-02	 1.218558183324120e+00	-8.117201057473244e-02
 0.000000000000000e+00	 1.218750000000000e+00	 3.135405153543869e-02
 2.229047392289407e-01	 1.204549076297958e+00	 3.163826525472686e-01
 2.001824736291431e-01	 1.208532985580619e+00	 1.264571739394369e-01
 1.775263740729367e-01	 1.212068226832323e+00	-2.449912623256423e-02
 1.549482924411388e-01	 1.215160905666546e+00	-1.373254188106248e-01
 1.324597018230889e-01	 1.217817485252259e+00	-2.127393270934572e-01
 1.100716864361096e-01	 1.220044763047800e+00	-2.513370455211579e-01
 8.779493301915486e-02	 1.221849847457984e+00	-2.535951768582487e-01
 6.563972366979517e-02	 1.223240134509497e+00	-2.198741318566830e-01
 4.361593008774263e-02	 1.224223284634710e+00	-1.504229285830962e-01
 2.173300918275665e-02	 1.224807199648852e+00	-4.538522444859905e-02
 0.000000000000000e+00	 1.225000000000000e+00	 9.519358759042462e-02
 2.240420083027108e-01	 1.210694734850266e+00	 2.808607136331327e-01
 2.012038127767674e-01	 1.214698970200741e+00	 8.177408021261656e-02
 1.784321208762730e-01	 1.218252248397647e+00	-7.396076647282945e-02
 1.557388449508243e-01	 1.221360706205549e+00	-1.872288153913155e-01
 1.331355166259306e-01	 1.224030839768770e+00	-2.588045752122872e-01
 1.106332766710434e-01	 1.226269481226559e+00	-2.893514667259021e-01
 8.824286634929480e-02	 1.228083775251101e+00	-2.794229361888410e-01
 6.597462021793657e-02	 1.229481155603914e+00	-2.294651369278695e-01
 4.383846034249530e-02	 1.230469321801205e+00	-1.398210194027554e-01
 2.184389188226982e-02	 1.231056215973589e+00	-1.073566549777416e-02
 0.000000000000000e+00	 1.231250000000000e+00	 1.576372990702188e-01
 2.251792773754809e-01	 1.216840393403059e+00	 2.431827485525251e-01
 2.022251519234024e-01	 1.220864954821254e+00	 3.536188551973796e-02
 1.793378676786515e-01	 1.224436269963278e+00	-1.248040345852528e-01
 1.565293974596041e-01	 1.227560506744785e+00	-2.382453953772683e-01
 1.338113314279390e-01	 1.230244194285452e+00	-3.057929499856815e-01
 1.111948669052361e-01	 1.232494199405435e+00	-3.281764970185692e-01
 8.869079967880507e-02	 1.234317703044294e+00	-3.060252805531394e-01
 6.630951676557850e-02	 1.235722176698371e+00	-2.398699647243747e-01
 4.406099059689723e-02	 1.236715358967718e+00	-1.301460260318588e-01
 2.195477458159889e-02	 1.237305232298331e+00	 2.280159823271455e-02
 0.000000000000000e+00	 1.237500000000000e+00	 2.187127692209847e-01
 2.263165464472511e-01	 1.222986051956338e+00	 2.033819352855890e-01
 2.032464910690479e-01	 1.227030939442157e+00	-1.275024309106021e-02
 1.802436144800723e-01	 1.230620291529215e+00	-1.770029843067309e-01
 1.573199499674784e-01	 1.233760307284256e+00	-2.903516545860902e-01
 1.344871462291142e-01	 1.236457548802304e+00	-3.536826232100505e-01
 1.117564571386876e-01	 1.238718917584429e+00	-3.677912317558341e-01
 8.913873300768561e-02	 1.240551630837560e+00	-3.333814911319763e-01
 6.664441331272104e-02	 1.241963197792871e+00	-2.510673601119400e-01
 4.428352085094844e-02	 1.242961396134250e+00	-1.213754513195817e-01
 2.206565728074385e-02	 1.243554248623077e+00	 5.525099441133641e-02
 0.000000000000000e+00	 1.243750000000000e+00	 2.784470268516044e-01
 2.274538155180212e-01	 1.229131710510101e+00	 1.614906450207083e-01
 2.042678302137041e-01	 1.233196924063451e+00	-6.253383962633818e-02
 1.811493612805352e-01	 1.236804313095460e+00	-2.305322829290932e-01
 1.581105024744471e-01	 1.239960107823959e+00	-3.435246329415063e-01
 1.351629610294562e-01	 1.242670903319327e+00	-4.024522591654938e-01
 1.123180473713981e-01	 1.244943635763541e+00	-4.081752247235512e-01
 8.958666633593650e-02	 1.246785558630901e+00	-3.614712907560171e-01
 6.697930985936418e-02	 1.248204218887413e+00	-2.630365097894576e-01
 4.450605110464891e-02	 1.249207433300800e+00	-1.134872567492975e-01
 2.217653997970472e-02	 1.249803264947827e+00	 8.663645902878447e-02
 0.000000000000000e+00	 1.250000000000000e+00	 3.368665601943754e-01
 1.250000000000000e+00	 0.000000000000000e+00	 1.823924436834720e+01
 1.249803264947827e+00	 2.217653997970400e-02	 1.844650376000062e+01
 1.249207433300800e+00	 4.450605110464827e-02	 1.860160087282271e+01
 1.248204218887413e+00	 6.697930985936362e-02	 1.870379744441606e+01
 1.246785558630901e+00	 8.958666633593600e-02	 1.875241651498643e+01
 1.244943635763541e+00	 1.123180473713977e-01	 1.874684087325283e+01
 1.242670903319327e+00	 1.351629610294558e-01	 1.868651112816973e+01
 1.239960107823959e+00	 1.581105024744469e-01	 1.857092343613727e+01
 1.236804313095460e+00	 1.811493612805350e-01	 1.839962692029004e+01
 1.233196924063451e+00	 2.042678302137040e-01	 1.817222082529810e+01
 1.229131710510101e+00	 2.274538155180212e-01	 1.788835145775284e+01
 1.256250000000000e+00	 0.000000000000000e+00	 1.809601386133474e+01
 1.256052281272580e+00	 2.228742267866487e-02	 1.829417462773674e+01
 1.255453470467359e+00	 4.472858135834873e-02	 1.843485678439893e+01
 1.254445239981975e+00	 6.731420640600676e-02	 1.851613955518339e+01
 1.253019486424280e+00	 9.003459966418687e-02	 1.853624768932240e+01
 1.251168353942711e+00	 1.128796376041081e-01	 1.849356277710513e+01
 1.248884257836435e+00	 1.358387758297978e-01	 1.841291033548131e+01
 1.246159908363780e+00	 1.589010549814156e-01	 1.830695204073665e+01
 1.242988334661858e+00	 1.820551080809980e-01	 1.814837621702710e+01
 1.239362908684941e+00	 2.052891693583602e-01	 1.793664912119519e+01
 1.235277369064108e+00	 2.285910845887912e-01	 1.767126771189342e+01
 1.262500000000000e+00	 0.000000000000000e+00	 1.796010521509142e+01
 1.262301297597333e+00	 2.239830537780982e-02	 1.815240246017717e+01
 1.261699507633918e+00	 4.495111161239994e-02	 1.829050543903112e+01
 1.260686261076537e+00	 6.764910295314928e-02	 1.837242660409756e+01
 1.259253414217659e+00	 9.048253299306740e-02	 1.839631198738717e+01
 1.257393072121882e+00	 1.134412278375596e-01	 1.836045224799771e+01
 1.255097612353543e+00	 1.365145906309730e-01	 1.826329324747506e+01
 1.252359708903599e+00	 1.596916074892898e-01	 1.810344605187808e+01
 1.249172356228256e+00	 1.829608548824187e-01	 1.790000099270280e+01
 1.245528893306431e+00	 2.063105085040057e-01	 1.770292040867544e+01
 1.241423027618114e+00	 2.297283536605613e-01	 1.745496969067877e+01
 1.268750000000000e+00	 0.000000000000000e+00	 1.783139703928629e+01
 1.268550313922086e+00	 2.250918807713888e-02	 1.801714887534974e+01
 1.267945544800477e+00	 4.517364186680187e-02	 1.815195223582811e+01
 1.266927282171100e+00	 6.798399950079123e-02	 1.823375319398925e+01
 1.265487342011038e+00	 9.093046632257763e-02	 1.826061956767657e+01
 1.263617790301053e+00	 1.140028180717523e-01	 1.823075170155307e+01
 1.261310966870651e+00	 1.371904054329814e-01	 1.814249281525336e+01
 1.258559509443420e+00	 1.604821599980697e-01	 1.799433881972518e+01
 1.255356377794653e+00	 1.838666016847972e-01	 1.778494750403919e+01
 1.251694877927920e+00	 2.073318476506407e-01	 1.751314699609711e+01
 1.247568686172121e+00	 2.308656227333315e-01	 1.723945046850581e+01
 1.275000000000000e+00	 0.000000000000000e+00	 1.770977032379051e+01
 1.274799330246839e+00	 2.262007077665204e-02	 1.788830432060939e+01
 1.274191581967037e+00	 4.539617212155452e-02	 1.801909756716501e+01
 1.273168303265662e+00	 6.831889604893260e-02	 1.810003014572205e+01
 1.271721269804416e+00	 9.137839965271760e-02	 1.812909215780742e+01
 1.269842508480223e+00	 1.145644083066860e-01	 1.810439424403454e+01
 1.267524321387759e+00	 1.378662202358230e-01	 1.802417770749702e+01
 1.264759309983240e+00	 1.612727125077552e-01	 1.788682414639189e+01
 1.261540399361052e+00	 1.847723484881335e-01	 1.769086450147247e+01
 1.257860862549410e+00	 2.083531867982649e-01	 1.743498742499033e+01
 1.253714344726127e+00	 2.320028918071015e-01	 1.711804688003917e+01
 1.281250000000000e+00	 0.000000000000000e+00	 1.759510838062370e+01
 1.281048346571591e+00	 2.273095347634931e-02	 1.776576137025400e+01
 1.280437619133596e+00	 4.561870237665793e-02	 1.789184374695249e+01
 1.279409324360224e+00	 6.865379259757337e-02	 1.797116998618034e+01
 1.277955197597795e+00	 9.182633298348723e-02	 1.800165296591359e+01
 1.276067226659394e+00	 1.151259985423610e-01	 1.798131422687520e+01
 1.273737675904867e+00	 1.385420350394979e-01	 1.790829387359265e+01
 1.270959110523060e+00	 1.620632650183463e-01	 1.778086002528406e+01
 1.267724420927449e+00	 1.856780952924276e-01	 1.759741772545434e+01
 1.264026847170899e+00	 2.093745259468787e-01	 1.735651722005680e+01
 1.259860003280134e+00	 2.331401608818716e-01	 1.705686151620411e+01
 1.287500000000000e+00	 0.000000000000000e+00	 1.748729678759103e+01
 1.287297362896344e+00	 2.284183617623067e-02	 1.764941467389946e+01
 1.286683656300156e+00	 4.584123263211204e-02	 1.777009496399767e+01
 1.285650345454787e+00	 6.898868914671358e-02	 1.784708690686056e+01
 1.284189125391174e+00	 9.227426631488660e-02	 1.787822664471070e+01
 1.282291944838563e+00	 1.156875887787769e-01	 1.786144721645498e+01
 1.279951030421975e+00	 1.392178498440060e-01	 1.779478823880253e+01
 1.277158911062880e+00	 1.628538175298428e-01	 1.767640517736964e+01
 1.273908442493848e+00	 1.865838420976794e-01	 1.750457811990098e+01
 1.270192831792389e+00	 2.103958650964817e-01	 1.727771996461894e+01
 1.266005661834140e+00	 2.342774299576418e-01	 1.699438393872641e+01
 1.293750000000000e+00	 0.000000000000000e+00	 1.738622333355433e+01
 1.293546379221097e+00	 2.295271887629613e-02	 1.753916090635127e+01
 1.292929693466715e+00	 4.606376288791689e-02	 1.765375723671676e+01
 1.291891366549349e+00	 6.932358569635320e-02	 1.772769672366345e+01
 1.290423053184553e+00	 9.272219964691561e-02	 1.775873925660297e+01
 1.288516663017734e+00	 1.162491790159341e-01	 1.774472996475457e+01
 1.286164384939083e+00	 1.398936646493473e-01	 1.768360868069275e+01
 1.283358711602701e+00	 1.636443700422450e-01	 1.757341903360508e+01
 1.280092464060246e+00	 1.874895889038891e-01	 1.741231708759852e+01
 1.276358816413878e+00	 2.114172042470742e-01	 1.719857944119076e+01
 1.272151320388147e+00	 2.354146990344119e-01	 1.693061070601645e+01
 1.300000000000000e+00	 0.000000000000000e+00	 1.729177796528138e+01
 1.299795395545850e+00	 2.306360157654569e-02	 1.743489871892199e+01
 1.299175730633274e+00	 4.628629314407247e-02	 1.754273836915399e+01
 1.298132387643911e+00	 6.965848224649224e-02	 1.761291683784579e+01
 1.296656980977931e+00	 9.317013297957434e-02	 1.764311823979646e+01
 1.294741381196904e+00	 1.168107692538323e-01	 1.763110038085503e+01
 1.292377739456191e+00	 1.405694794555218e-01	 1.757470400624138e+01
 1.289558512142521e+00	 1.644349225555528e-01	 1.747186171786786e+01
 1.286276485626644e+00	 1.883953357110564e-01	 1.732060647917255e+01
 1.282524801035368e+00	 2.124385433986560e-01	 1.711907962668977e+01
 1.278296978942153e+00	 2.365519681121820e-01	 1.686553830936074e+01
 1.306250000000000e+00	 0.000000000000000e+00	 1.720385273582169e+01
 1.306044411870603e+00	 2.317448427697935e-02	 1.733652869214664e+01
 1.305421767799833e+00	 4.650882340057878e-02	 1.743694790826343e+01
 1.304373408738474e+00	 6.999337879713068e-02	 1.750266619809333e+01
 1.302890908771310e+00	 9.361806631286276e-02	 1.753129237538528e+01
 1.300966099376075e+00	 1.173723594924717e-01	 1.752049750325613e+01
 1.298591093973299e+00	 1.412452942625296e-01	 1.746802392960365e+01
 1.295758312682341e+00	 1.652254750697662e-01	 1.737169403037983e+01
 1.292460507193042e+00	 1.893010825191816e-01	 1.722941858237431e+01
 1.288690785656857e+00	 2.134598825512272e-01	 1.703920468778598e+01
 1.284442637496160e+00	 2.376892371909521e-01	 1.679916317452788e+01
 1.312500000000000e+00	 0.000000000000000e+00	 1.712234175435665e+01
 1.312293428195356e+00	 2.328536697759712e-02	 1.724395328984857e+01
 1.311667804966393e+00	 4.673135365743582e-02	 1.733629710241095e+01
 1.310614429833036e+00	 7.032827534826856e-02	 1.739686526367709e+01
 1.309124836564689e+00	 9.406599964678088e-02	 1.742319175537772e+01
 1.307190817555246e+00	 1.179339497318521e-01	 1.741286147298541e+01
 1.304804448490407e+00	 1.419211090703706e-01	 1.736351905051242e+01
 1.301958113222162e+00	 1.660160275848852e-01	 1.727287743160357e+01
 1.298644528759440e+00	 1.902068293282645e-01	 1.713872611167279e+01
 1.294856770278348e+00	 2.144812217047878e-01	 1.695893897638415e+01
 1.290588296050166e+00	 2.388265062707223e-01	 1.673148166332833e+01
 1.229131710510101e+00	 2.274538155180212e-01	 1.788835145775284e+01
 1.224602830631397e+00	 2.506948487312582e-01	 1.789615185859234e+01
 1.219604854312299e+00	 2.739781000467753e-01	 1.786628236246034e+01
 1.214132786006912e+00	 2.972903932319075e-01	 1.779919921420674e+01
 1.208182087111708e+00	 3.206182221050798e-01	 1.769534485710865e+01
 1.201748697716363e+00	 3.439477685638436e-01	 1.755513996743653e+01
 1.194829057615943e+00	 3.672649221479065e-01	 1.737897574285011e+01
 1.187420126467113e+00	 3.905553011115673e-01	 1.716720655755390e+01
 1.179519402970896e+00	 4.138042749702640e-01	 1.692014309828980e+01
 1.171124942965302e+00	 4.369969884760465e-01	 1.663804609475867e+01
 1.162235376312831e+00	 4.601183869667742e-01	 1.632112075584252e+01
 1.235277369064108e+00	 2.285910845887912e-01	 1.767126771189342e+01
 1.230725844786311e+00	 2.519483229677920e-01	 1.770155222310956e+01
 1.225702878585923e+00	 2.753479905397300e-01	 1.769240242160976e+01
 1.220203449939315e+00	 2.987768451907797e-01	 1.764430159461556e+01
 1.214222997549946e+00	 3.222213132084609e-01	 1.755772486489125e+01
 1.207757441207937e+00	 3.456675073998146e-01	 1.743313120912627e+01
 1.200803202907330e+00	 3.691012467522495e-01	 1.727095570700156e+01
 1.193357227103075e+00	 3.925080776113381e-01	 1.707160213383787e+01
 1.185416999989696e+00	 4.158732963400970e-01	 1.683543601103565e+01
 1.176980567684397e+00	 4.391819734143383e-01	 1.656277822819469e+01
 1.168046553198987e+00	 4.624189788986123e-01	 1.625389934874127e+01
 1.241423027618114e+00	 2.297283536605613e-01	 1.745496969067877e+01
 1.236848858941221e+00	 2.532017972053164e-01	 1.750792788312478e+01
 1.231800902859527e+00	 2.767178810336470e-01	 1.751971563621709e+01
 1.226274113871676e+00	 3.002632971505668e-01	 1.749084347006259e+01
 1.220263907988107e+00	 3.238244043126896e-01	 1.742181929178234e+01
 1.213766184699391e+00	 3.473872462365465e-01	 1.731314039361060e+01
 1.206777348198544e+00	 3.709375713572464e-01	 1.716528565886140e+01
 1.199294327738798e+00	 3.944608541116351e-01	 1.697870808867315e+01
 1.191314597008185e+00	 4.179423177103084e-01	 1.675382776391920e+01
 1.182836192403096e+00	 4.413669583528400e-01	 1.649102535650983e+01
 1.173857730084653e+00	 4.647195708304708e-01	 1.619063630241229e+01
 1.247568686172121e+00	 2.308656227333315e-01	 1.723945046850581e+01
 1.242971873096125e+00	 2.544552714438313e-01	 1.731526744625162e+01
 1.237898927133112e+00	 2.780877715285263e-01	 1.734820588021405e+01
 1.232344777803994e+00	 3.017497491112686e-01	 1.733880371777261e+01
 1.226304818426193e+00	 3.254274954177657e-01	 1.728760175975816e+01
 1.219774928190726e+00	 3.491069850740389e-01	 1.719513563416877e+01
 1.212751493489585e+00	 3.727738959628968e-01	 1.706192795526311e+01
 1.205231428374285e+00	 3.964136306124584e-01	 1.688848078100067e+01
 1.197212194026364e+00	 4.200113390808984e-01	 1.667526848343770e+01
 1.188691817121400e+00	 4.435519432915518e-01	 1.642273114668697e+01
 1.179668906969829e+00	 4.670201627623501e-01	 1.613126860530556e+01
 1.253714344726127e+00	 2.320028918071015e-01	 1.711804688003917e+01
 1.249094887251026e+00	 2.557087456833370e-01	 1.712355951705446e+01
 1.243996951406679e+00	 2.794576620243678e-01	 1.717785710174154e+01
 1.238415441736271e+00	 3.032362010728850e-01	 1.718816137268322e+01
 1.232345728864202e+00	 3.270305865236896e-01	 1.715504613821684e+01
 1.225783671681941e+00	 3.508267239122920e-01	 1.707908538736066e+01
 1.218725638780453e+00	 3.746102205692011e-01	 1.696084539825791e+01
 1.211168529009536e+00	 3.983664071138083e-01	 1.680087712290606e+01
 1.203109791044231e+00	 4.220803604518669e-01	 1.659970896304585e+01
 1.194547441839309e+00	 4.457369282304736e-01	 1.635784005224345e+01
 1.185480083854516e+00	 4.693207546942498e-01	 1.607573415760888e+01
 1.259860003280134e+00	 2.331401608818716e-01	 1.705686151620411e+01
 1.255217901405921e+00	 2.569622199238332e-01	 1.706503743755794e+01
 1.250094975680227e+00	 2.808275525211718e-01	 1.701109045895488e+01
 1.244486105668504e+00	 3.047226530354161e-01	 1.703889562359834e+01
 1.238386639302136e+00	 3.286336776304611e-01	 1.702412653794381e+01
 1.231792415173036e+00	 3.525464627513059e-01	 1.696495844465433e+01
 1.224699784071148e+00	 3.764465451761588e-01	 1.686200122425580e+01
 1.217105629644550e+00	 4.003191836156846e-01	 1.671585456612841e+01
 1.209007388061788e+00	 4.241493818232139e-01	 1.652710064688842e+01
 1.200403066556823e+00	 4.479219131696051e-01	 1.629629729404714e+01
 1.191291260738712e+00	 4.716213466261701e-01	 1.602397174901023e+01
 1.266005661834140e+00	 2.342774299576418e-01	 1.699438393872641e+01
 1.261340915560812e+00	 2.582156941653200e-01	 1.702851460511144e+01
 1.256192999953756e+00	 2.821974430189380e-01	 1.699848140918156e+01
 1.250556769600694e+00	 3.062091049988621e-01	 1.690532143398091e+01
 1.244427549739992e+00	 3.302367687380802e-01	 1.689481730525294e+01
 1.237801158664012e+00	 3.542662015910801e-01	 1.685272392429702e+01
 1.230673929361669e+00	 3.782828697837702e-01	 1.676535909348280e+01
 1.223042730279327e+00	 4.022719601180870e-01	 1.663337108896185e+01
 1.214904985079035e+00	 4.262184031949395e-01	 1.645739561400689e+01
 1.206258691273942e+00	 4.501068981089469e-01	 1.623804884169158e+01
 1.197102437622420e+00	 4.739219385581109e-01	 1.597592103710820e+01
 1.272151320388147e+00	 2.354146990344119e-01	 1.693061070601645e+01
 1.267463929715698e+00	 2.594691684077975e-01	 1.699089438639288e+01
 1.262291024227266e+00	 2.835673335176665e-01	 1.698499194160783e+01
 1.256627433532842e+00	 3.076955569632227e-01	 1.691397345055534e+01
 1.250468460177773e+00	 3.318398598465470e-01	 1.677916422866818e+01
 1.243809902154868e+00	 3.559859404316154e-01	 1.674235126342206e+01
 1.236648074652018e+00	 3.801191943920355e-01	 1.667088307974391e+01
 1.228979830913867e+00	 4.042247366210158e-01	 1.655338518353685e+01
 1.220802582095970e+00	 4.282874245670436e-01	 1.639054656300372e+01
 1.212114315990666e+00	 4.522918830484985e-01	 1.618304139541054e+01
 1.202913614505637e+00	 4.762225304900724e-01	 1.593152252644775e+01
 1.278296978942153e+00	 2.365519681121820e-01	 1.686553830936074e+01
 1.273586943870580e+00	 2.607226426512657e-01	 1.695216914439843e+01
 1.268389048500758e+00	 2.849372240173575e-01	 1.697060998090289e+01
 1.262698097464947e+00	 3.091820089284981e-01	 1.692196412075511e+01
 1.256509370615478e+00	 3.334429509558612e-01	 1.680759952756175e+01
 1.249818645645604e+00	 3.577056792729111e-01	 1.663381021038314e+01
 1.242622219942193e+00	 3.819555190009543e-01	 1.657853766048129e+01
 1.234916931548170e+00	 4.061775131244710e-01	 1.647585584346838e+01
 1.226700179112595e+00	 4.303564459395262e-01	 1.632650679714909e+01
 1.217969940706995e+00	 4.544768679882602e-01	 1.613122236851489e+01
 1.208724791388365e+00	 4.785231224220544e-01	 1.589071754816098e+01
 1.284442637496160e+00	 2.376892371909521e-01	 1.679916317452788e+01
 1.279709958025457e+00	 2.619761168957245e-01	 1.691233123942590e+01
 1.274487072774230e+00	 2.863071145180106e-01	 1.695532351740499e+01
 1.268768761397010e+00	 3.106684608946882e-01	 1.692927676402343e+01
 1.262550281053106e+00	 3.350460420660233e-01	 1.683560179457294e+01
 1.255827389136221e+00	 3.594254181149676e-01	 1.667598097542344e+01
 1.248596365232195e+00	 3.837918436105267e-01	 1.648828770711781e+01
 1.240854032182237e+00	 4.081302896284527e-01	 1.640074255185866e+01
 1.232597776128909e+00	 4.324254673123873e-01	 1.626523020991515e+01
 1.223825565422929e+00	 4.566618529282319e-01	 1.608253987033304e+01
 1.214535968270603e+00	 4.808237143540569e-01	 1.585344824019238e+01
 1.290588296050166e+00	 2.388265062707223e-01	 1.673148166332833e+01
 1.285832972180329e+00	 2.632295911411738e-01	 1.687137302913890e+01
 1.280585097047684e+00	 2.876770050196261e-01	 1.693912060555772e+01
 1.274839425329030e+00	 3.121549128617932e-01	 1.693589483604352e+01
 1.268591191490658e+00	 3.366491331770328e-01	 1.686314959545819e+01
 1.261836132626718e+00	 3.611451569577848e-01	 1.672261975255405e+01
 1.254570510522024e+00	 3.856281682207529e-01	 1.651631680784034e+01
 1.246791132816067e+00	 4.100830661329606e-01	 1.632800526964262e+01
 1.238495373144913e+00	 4.344944886856272e-01	 1.620667127092362e+01
 1.229681190138468e+00	 4.588468378684135e-01	 1.603694268963934e+01
 1.220347145152351e+00	 4.831243062860801e-01	 1.581965752808892e+01
 1.162235376312831e+00	 4.601183869667742e-01	 1.632112075584252e+01
 1.152849922470135e+00	 4.831532430234600e-01	 1.613548201174622e+01
 1.142968404631799e+00	 5.060861843616077e-01	 1.590262386224912e+01
 1.132591262343367e+00	 5.289017228707272e-01	 1.562008905044188e+01
 1.121719562484135e+00	 5.515842847068427e-01	 1.528534127887807e+01
 1.110355008528024e+00	 5.741182413352696e-01	 1.489577447558370e+01
 1.098499947997111e+00	 5.964879414108067e-01	 1.444872356142920e+01
 1.086157378030861e+00	 6.186777433746946e-01	 1.394147670604340e+01
 1.073330949003193e+00	 6.406720486401843e-01	 1.382077179639938e+01
 1.060024966129339e+00	 6.624553352318258e-01	 1.385555036551050e+01
 1.046244389015035e+00	 6.840121917376669e-01	 1.387379266128747e+01
 1.168046553198987e+00	 4.624189788986123e-01	 1.625389934874127e+01
 1.158614172087327e+00	 4.855690092366507e-01	 1.606648898593478e+01
 1.148683246659897e+00	 5.086166152823455e-01	 1.583266036963646e+01
 1.138254218659966e+00	 5.315462314846507e-01	 1.554993837673600e+01
 1.127328160301226e+00	 5.543422061303684e-01	 1.521576355393703e+01
 1.115906783574966e+00	 5.769888325421380e-01	 1.482750136966200e+01
 1.103992447740872e+00	 5.994703811180300e-01	 1.438245300701400e+01
 1.091588164924104e+00	 6.217711320914886e-01	 1.387786768615075e+01
 1.078697603750451e+00	 6.438754088828303e-01	 1.384000753427762e+01
 1.065325090961221e+00	 6.657676119067247e-01	 1.387148682603317e+01
 1.051475610960176e+00	 6.874322526941609e-01	 1.388762847817696e+01
 1.173857730084653e+00	 4.647195708304708e-01	 1.619063630241229e+01
 1.164378421703943e+00	 4.879847754496809e-01	 1.600147812696210e+01
 1.154398088687362e+00	 5.111470462027798e-01	 1.576670597715777e+01
 1.143917174975906e+00	 5.341907400981674e-01	 1.548382665596115e+01
 1.132936758117659e+00	 5.571001275534228e-01	 1.515025730555474e+01
 1.121458558621282e+00	 5.798594237485101e-01	 1.476333464525193e+01
 1.109484947484068e+00	 6.024528208247721e-01	 1.432032579050229e+01
 1.097018951816876e+00	 6.248645208078578e-01	 1.381844064253166e+01
 1.084064258497361e+00	 6.470787691251477e-01	 1.385929154229178e+01
 1.070625215792908e+00	 6.690798885814347e-01	 1.388736161485087e+01
 1.056706832905307e+00	 6.908523136506443e-01	 1.390129514010937e+01
 1.179668906969829e+00	 4.670201627623501e-01	 1.613126860530556e+01
 1.170142671319985e+00	 4.904005416625506e-01	 1.594038612817508e+01
 1.160112930714196e+00	 5.136774771229113e-01	 1.570469721876147e+01
 1.149580131291185e+00	 5.368352487112770e-01	 1.542169039926116e+01
 1.138545355933435e+00	 5.598580489760057e-01	 1.508875915907989e+01
 1.127010333666973e+00	 5.827300149543865e-01	 1.470321117884653e+01
 1.114977447226701e+00	 6.054352605310340e-01	 1.426227917590682e+01
 1.102449738709176e+00	 6.279579095238026e-01	 1.383884996650359e+01
 1.089430913243922e+00	 6.502821293671381e-01	 1.387856367134263e+01
 1.075925340624400e+00	 6.723921652559541e-01	 1.390311468416502e+01
 1.061938054850427e+00	 6.942723746071171e-01	 1.391473279795817e+01
 1.185480083854516e+00	 4.693207546942498e-01	 1.607573415760888e+01
 1.175906920935450e+00	 4.928163078752600e-01	 1.588315059604285e+01
 1.165827772740397e+00	 5.162079080427396e-01	 1.564657154159613e+01
 1.155243087605805e+00	 5.394797573239798e-01	 1.536346702973689e+01
 1.144153953748553e+00	 5.626159703981174e-01	 1.503120664924137e+01
 1.132562108712037e+00	 5.856006061597665e-01	 1.464706875239902e+01
 1.120469946968770e+00	 6.084177002368153e-01	 1.420825132743246e+01
 1.107880525601004e+00	 6.310512982393227e-01	 1.386285620458787e+01
 1.094797567990135e+00	 6.534854896088003e-01	 1.389776465793441e+01
 1.081225465455697e+00	 6.757044419302840e-01	 1.391868686246507e+01
 1.067169276795537e+00	 6.976924355635792e-01	 1.392788246823120e+01
 1.191291260738712e+00	 4.716213466261701e-01	 1.602397174901023e+01
 1.181671170550340e+00	 4.952320740878091e-01	 1.582971002788535e+01
 1.171542614765965e+00	 5.187383389622651e-01	 1.559226728373763e+01
 1.160906043919765e+00	 5.421242659362761e-01	 1.530909486020338e+01
 1.149762551563013e+00	 5.653738918197578e-01	 1.497753819796798e+01
 1.138113883756475e+00	 5.884711973646505e-01	 1.459484603123875e+01
 1.125962446710275e+00	 6.114001399421159e-01	 1.415818128752027e+01
 1.113311312492361e+00	 6.341446869544182e-01	 1.388684496386354e+01
 1.100164222735998e+00	 6.566888498501349e-01	 1.391683610257414e+01
 1.086525590286798e+00	 6.790167186044237e-01	 1.393401983315525e+01
 1.072400498740636e+00	 7.011124965200309e-01	 1.394068601195763e+01
 1.197102437622420e+00	 4.739219385581109e-01	 1.597592103710820e+01
 1.187435420164655e+00	 4.976478403001977e-01	 1.578000379025090e+01
 1.177257456790902e+00	 5.212687698814874e-01	 1.554172365256445e+01
 1.166569000233066e+00	 5.447687745481652e-01	 1.525851307159481e+01
 1.155371149376815e+00	 5.681318132409268e-01	 1.492769309285449e+01
 1.143665658800288e+00	 5.913417885690386e-01	 1.454648254262956e+01
 1.131454946451216e+00	 6.143825796469359e-01	 1.411200895553095e+01
 1.118742099383246e+00	 6.372380756690891e-01	 1.391075870614993e+01
 1.105530877481513e+00	 6.598922100911414e-01	 1.393572044880143e+01
 1.091825715117704e+00	 6.823289952783738e-01	 1.394905611380452e+01
 1.077631720685724e+00	 7.045325574764719e-01	 1.395308611418988e+01
 1.202913614505637e+00	 4.762225304900724e-01	 1.593152252644775e+01
 1.193199669778394e+00	 5.000636065124259e-01	 1.573397209792021e+01
 1.182972298815206e+00	 5.237992008004068e-01	 1.549488070376006e+01
 1.172231956545706e+00	 5.474132831596474e-01	 1.521166169199531e+01
 1.160979747189960e+00	 5.708897346616243e-01	 1.488161146625198e+01
 1.149217433843474e+00	 5.942123797729305e-01	 1.450191865495045e+01
 1.136947446191592e+00	 6.173650193512751e-01	 1.406967506704643e+01
 1.124172886273659e+00	 6.403314643833351e-01	 1.393454072333867e+01
 1.110897532226679e+00	 6.630955703318204e-01	 1.395436096282500e+01
 1.097125839948415e+00	 6.856412719521339e-01	 1.396373903599774e+01
 1.082862942630802e+00	 7.079526184329022e-01	 1.396502626409960e+01
 1.208724791388365e+00	 4.785231224220544e-01	 1.589071754816098e+01
 1.198963919391559e+00	 5.024793727244938e-01	 1.569155599351631e+01
 1.188687140838879e+00	 5.263296317190230e-01	 1.545167932092113e+01
 1.177894912857687e+00	 5.500577917707230e-01	 1.516848157627510e+01
 1.166588345002447e+00	 5.736476560818506e-01	 1.483923427496111e+01
 1.154769208886034e+00	 5.970829709763263e-01	 1.446109555747643e+01
 1.142439945931405e+00	 6.203474590551337e-01	 1.403112117376846e+01
 1.129603673163601e+00	 6.434248530971567e-01	 1.395813511744019e+01
 1.116264186971496e+00	 6.662989305721714e-01	 1.397270171374686e+01
 1.102425964778931e+00	 6.889535486257042e-01	 1.397801272576758e+01
 1.088094164575869e+00	 7.113726793893220e-01	 1.397645073564815e+01
 1.214535968270603e+00	 4.808237143540569e-01	 1.585344824019238e+01
 1.204728169004148e+00	 5.048951389364015e-01	 1.565269732769963e+01
 1.194401982861919e+00	 5.288600626373363e-01	 1.541206119575083e+01
 1.183557869169008e+00	 5.527023003813917e-01	 1.512891438631055e+01
 1.172196942814276e+00	 5.764055775016056e-01	 1.480050328050837e+01
 1.160320983927969e+00	 5.999535621792261e-01	 1.442395524073975e+01
 1.147932445670653e+00	 6.233298987585119e-01	 1.399628962399398e+01
 1.135034460053071e+00	 6.465182418105536e-01	 1.398148678120249e+01
 1.121630841715964e+00	 6.695022908121946e-01	 1.399068755435444e+01
 1.107726089609252e+00	 6.922658252990848e-01	 1.399182208458884e+01
 1.093325386520926e+00	 7.147927403457311e-01	 1.398730456881126e+01
 1.220347145152351e+00	 4.831243062860801e-01	 1.581965752808892e+01
 1.210492418616161e+00	 5.073109051481485e-01	 1.561733873992901e+01
 1.200116824884327e+00	 5.313904935553466e-01	 1.537596880881832e+01
 1.189220825479669e+00	 5.553468089916533e-01	 1.509290257176987e+01
 1.177805540625447e+00	 5.791634989208891e-01	 1.476536102998600e+01
 1.165872758969277e+00	 6.028241533816298e-01	 1.439044047745233e+01
 1.153424945409339e+00	 6.263123384614093e-01	 1.399142713893714e+01
 1.140465246942069e+00	 6.496116305235261e-01	 1.400454137928440e+01
 1.126997496460084e+00	 6.727056510518903e-01	 1.400826410246160e+01
 1.113026214439379e+00	 6.955781019722753e-01	 1.400511277091576e+01
 1.098556608465972e+00	 7.182128013021298e-01	 1.399753355134107e+01
 1.046244389015035e+00	 6.840121917376669e-01	 1.387379266128747e+01
 1.031994829112001e+00	 7.053273514287609e-01	 1.341587870457557e+01
 1.017282545054521e+00	 7.263857263956877e-01	 1.296736560378696e+01
 1.002114435865165e+00	 7.471724415498717e-01	 1.253082576789285e+01
 9.864980320304254e-01	 7.676728683354713e-01	 1.210869360099275e+01
 9.704414844585151e-01	 7.878726579962206e-01	 1.170325153464136e+01
 9.539535513453988e-01	 8.077577742428446e-01	 1.131661711880061e+01
 9.370435829877606e-01	 8.273145251682116e-01	 1.095073128868544e+01
 9.197215045943361e-01	 8.465295942603415e-01	 1.060734791326056e+01
 9.019977971594892e-01	 8.653900703675113e-01	 1.028802471819833e+01
 8.838834764750000e-01	 8.838834764750000e-01	 9.994115661933492e+00
 1.051475610960176e+00	 6.874322526941609e-01	 1.388762847817696e+01
 1.037154803256432e+00	 7.088539881827172e-01	 1.342974833938063e+01
 1.022368957777577e+00	 7.300176550235996e-01	 1.298252100091314e+01
 1.007125008041297e+00	 7.509083037527912e-01	 1.254849056345782e+01
 9.914305221865173e-01	 7.715112326716713e-01	 1.213005787149686e+01
 9.752936918759935e-01	 7.918120212801945e-01	 1.172946659759187e+01
 9.587233190966710e-01	 8.117965631076398e-01	 1.134879041817086e+01
 9.417288008967177e-01	 8.314510977873407e-01	 1.098992139817392e+01
 9.243201121109133e-01	 8.507622422247574e-01	 1.065455969007967e+01
 9.065077861385945e-01	 8.697170207124085e-01	 1.034420463956985e+01
 8.883028938504999e-01	 8.883028938504999e-01	 1.006014737558922e+01
 1.056706832905307e+00	 6.908523136506443e-01	 1.390129514010937e+01
 1.042314777401042e+00	 7.123806249368533e-01	 1.344317165281606e+01
 1.027455370500983e+00	 7.336495836518623e-01	 1.299695548597241e+01
 1.012135580217930e+00	 7.546441659562123e-01	 1.256516306236825e+01
 9.963630123432429e-01	 7.753495970085053e-01	 1.215016228244430e+01
 9.801458992942172e-01	 7.957513845649138e-01	 1.175415865775149e+01
 9.634930868487798e-01	 8.158353519732722e-01	 1.137918256891149e+01
 9.464140188065826e-01	 8.355876704073780e-01	 1.102707776554024e+01
 9.289187196284495e-01	 8.549948901901324e-01	 1.069949121343692e+01
 9.110177751186892e-01	 8.740439710582958e-01	 1.039786438076295e+01
 8.927223112270000e-01	 8.927223112270000e-01	 1.012342604010846e+01
 1.061938054850427e+00	 6.942723746071171e-01	 1.391473279795817e+01
 1.047474751545831e+00	 7.159072616911690e-01	 1.345609164152938e+01
 1.032541783224740e+00	 7.372815122804754e-01	 1.301061500804815e+01
 1.017146152395066e+00	 7.583800281601359e-01	 1.258079226820317e+01
 1.001295502500602e+00	 7.791879613459726e-01	 1.216895898901217e+01
 9.849981067131865e-01	 7.996907478503786e-01	 1.177728311369496e+01
 9.682628546017255e-01	 8.198741408397413e-01	 1.140775229916411e+01
 9.510992367173559e-01	 8.397242430283235e-01	 1.106216252871676e+01
 9.335173271469447e-01	 8.592275381564664e-01	 1.074210810503880e+01
 9.155277640997740e-01	 8.783709214051727e-01	 1.044897311472711e+01
 8.971417286044999e-01	 8.971417286044999e-01	 1.018392444038388e+01
 1.067169276795537e+00	 6.976924355635792e-01	 1.392788246823120e+01
 1.052634725690801e+00	 7.194338984456645e-01	 1.346845210584396e+01
 1.037628195948848e+00	 7.409134409094399e-01	 1.302344625647367e+01
 1.022156724572704e+00	 7.621158903645615e-01	 1.259532786001156e+01
 1.006227992658595e+00	 7.830263256840737e-01	 1.218640075583028e+01
 9.898503141329006e-01	 8.036301111365883e-01	 1.179879590631904e+01
 9.730326223555081e-01	 8.239129297070470e-01	 1.143445881127104e+01
 9.557844546290369e-01	 8.438608156501772e-01	 1.109513823085350e+01
 9.381159346663995e-01	 8.634601861237600e-01	 1.078237632209642e+01
 9.200377530818485e-01	 8.826978717530395e-01	 1.049750027960555e+01
 9.015611459830002e-01	 9.015611459830002e-01	 1.024161555572817e+01
 1.072400498740636e+00	 7.011124965200309e-01	 1.394068601195763e+01
 1.057794699835950e+00	 7.229605352003399e-01	 1.348019763015660e+01
 1.042714608673307e+00	 7.445453695387545e-01	 1.303539664277695e+01
 1.027167296750845e+00	 7.658517525694892e-01	 1.260872017583735e+01
 1.011160482817222e+00	 7.868646900228088e-01	 1.220244094211780e+01
 9.947025215533607e-01	 8.075694744235438e-01	 1.181865350561514e+01
 9.778023901101277e-01	 8.279517185751901e-01	 1.145926177020922e+01
 9.604696725416267e-01	 8.479973882729391e-01	 1.112596781043469e+01
 9.427145421868133e-01	 8.676928340920127e-01	 1.082026214914157e+01
 9.245477420649126e-01	 8.870248221018960e-01	 1.054341557226620e+01
 9.059805633624998e-01	 9.059805633624998e-01	 1.029647255513247e+01
 1.077631720685724e+00	 7.045325574764719e-01	 1.395308611418988e+01
 1.062954673981279e+00	 7.264871719551946e-01	 1.349127356390749e+01
 1.047801021398116e+00	 7.481772981684202e-01	 1.304641428315194e+01
 1.032177868929487e+00	 7.695876147749188e-01	 1.262092019672440e+01
 1.016092972976482e+00	 7.907030543621769e-01	 1.221703348725020e+01
 9.995547289745658e-01	 8.115088377112445e-01	 1.183681289782672e+01
 9.825721578655839e-01	 8.319905074441695e-01	 1.148212129236087e+01
 9.651548904551243e-01	 8.521339608966091e-01	 1.115461459168307e+01
 9.473131497081860e-01	 8.719254820612244e-01	 1.085573219008258e+01
 9.290577310489665e-01	 8.913517724517419e-01	 1.058668894202273e+01
 9.103999807429998e-01	 9.103999807429998e-01	 1.034846879266277e+01
 1.082862942630802e+00	 7.079526184329022e-01	 1.396502626409960e+01
 1.068114648126788e+00	 7.300138087102296e-01	 1.350162600310042e+01
 1.052887434123277e+00	 7.518092267984363e-01	 1.305644798143793e+01
 1.037188441108631e+00	 7.733234769808507e-01	 1.263187953118524e+01
 1.021025463136376e+00	 7.945414187021792e-01	 1.223013289674724e+01
 1.004406936396516e+00	 8.154482009996902e-01	 1.185323157298044e+01
 9.873419256218769e-01	 8.360292963139859e-01	 1.150299793461104e+01
 9.698401083695299e-01	 8.562705335211870e-01	 1.118104227524321e+01
 9.519117572305179e-01	 8.761581300313951e-01	 1.088875336048985e+01
 9.335677200340101e-01	 8.956787228025782e-01	 1.062729058453664e+01
 9.148193981245000e-01	 9.148193981245000e-01	 1.039757780298897e+01
 1.088094164575869e+00	 7.113726793893220e-01	 1.397645073564815e+01
 1.073274622272477e+00	 7.335404454654443e-01	 1.351120177235624e+01
 1.057973846848787e+00	 7.554411554288034e-01	 1.306544721258883e+01
 1.042199013288277e+00	 7.770593391872846e-01	 1.264155040011743e+01
 1.025957953296904e+00	 7.983797830428151e-01	 1.224169422866186e+01
 1.009259143819212e+00	 8.193875642888815e-01	 1.186786751277470e+01
 9.921116933790072e-01	 8.400680851846395e-01	 1.152185268375749e+01
 9.745253262848439e-01	 8.604071061466734e-01	 1.120521492913201e+01
 9.565103647538094e-01	 8.803907780025253e-01	 1.091929288010361e+01
 9.380777090200438e-01	 9.000056731544042e-01	 1.066519093589526e+01
 9.192388155069999e-01	 9.192388155069999e-01	 1.044377329704378e+01
 1.093325386520926e+00	 7.147927403457311e-01	 1.398730456881126e+01
 1.078434596418345e+00	 7.370670822208386e-01	 1.351994840748259e+01
 1.063060259574649e+00	 7.590730840595213e-01	 1.307336210661857e+01
 1.047209585468426e+00	 7.807952013942209e-01	 1.264988562215329e+01
 1.030890443458066e+00	 8.022181473840848e-01	 1.225167308036348e+01
 1.014111351242653e+00	 8.233269275788180e-01	 1.188067917881836e+01
 9.968814611369740e-01	 8.441068740561294e-01	 1.153864694622606e+01
 9.792105442010659e-01	 8.645436787730676e-01	 1.122709697995072e+01
 9.611089722780598e-01	 8.846234259746146e-01	 1.094731826555770e+01
 9.425876980070672e-01	 9.043326235072198e-01	 1.070036066685982e+01
 9.236582328905000e-01	 9.236582328904998e-01	 1.048702915780578e+01
 1.098556608465972e+00	 7.182128013021298e-01	 1.399753355134107e+01
 1.083594570564393e+00	 7.405937189764126e-01	 1.352781413854007e+01
 1.068146672300861e+00	 7.627050126905897e-01	 1.308014343300419e+01
 1.052220157649077e+00	 7.845310636016593e-01	 1.265683859942856e+01
 1.035822933619861e+00	 8.060565117259884e-01	 1.226002557569598e+01
 1.018963558666840e+00	 8.272662908695000e-01	 1.189162550120322e+01
 1.001651228895778e+00	 8.481456629284566e-01	 1.155334253808004e+01
 9.838957621181963e-01	 8.686802514003705e-01	 1.124665320434666e+01
 9.657075798032695e-01	 8.888560739476630e-01	 1.097279732331013e+01
 9.470976869950806e-01	 9.086595738610254e-01	 1.073277067727832e+01
 9.280776502750000e-01	 9.280776502750000e-01	 1.052731943620331e+01
 8.838834764750000e-01	 8.838834764750000e-01	 9.994115661933492e+00
 8.653900703675113e-01	 9.019977971594896e-01	 9.592524421267157e+00
 8.465295942603415e-01	 9.197215045943362e-01	 9.195209515336813e+00
 8.273145251682117e-01	 9.370435829877607e-01	 8.801937735505991e+00
 8.077577742428449e-01	 9.539535513453986e-01	 8.412360511573365e+00
 7.878726579962209e-01	 9.704414844585149e-01	 8.026017644632654e+00
 7.676728683354718e-01	 9.864980320304252e-01	 7.642342029854873e+00
 7.471724415498724e-01	 1.002114435865165e+00	 7.260665316637631e+00
 7.263857263956882e-01	 1.017282545054521e+00	 6.880224443087323e+00
 7.053273514287616e-01	 1.031994829112000e+00	 6.500168972244149e+00
 6.840121917376669e-01	 1.046244389015035e+00	 6.119569149015968e+00
 8.883028938504999e-01	 8.883028938504999e-01	 1.006014737558922e+01
 8.697170207124085e-01	 9.065077861385945e-01	 9.663920295498935e+00
 8.507622422247573e-01	 9.243201121109134e-01	 9.271208990414173e+00
 8.314510977873408e-01	 9.417288008967176e-01	 8.881715270193572e+00
 8.117965631076401e-01	 9.587233190966709e-01	 8.495028382277757e+00
 7.918120212801949e-01	 9.752936918759934e-01	 8.110629013020828e+00
 7.715112326716718e-01	 9.914305221865169e-01	 7.727894266569372e+00
 7.509083037527915e-01	 1.007125008041296e+00	 7.346103566913095e+00
 7.300176550236002e-01	 1.022368957777577e+00	 6.964445418325573e+00
 7.088539881827178e-01	 1.037154803256431e+00	 6.582024949986062e+00
 6.874322526941609e-01	 1.051475610960176e+00	 6.197872162239380e+00
 8.927223112270000e-01	 8.927223112270000e-01	 1.012342604010846e+01
 8.740439710582957e-01	 9.110177751186894e-01	 9.732357952465097e+00
 8.549948901901324e-01	 9.289187196284494e-01	 9.344067894507988e+00
 8.355876704073782e-01	 9.464140188065825e-01	 8.958192987793693e+00
 8.158353519732724e-01	 9.634930868487797e-01	 8.574260517538388e+00
 7.957513845649140e-01	 9.801458992942171e-01	 8.191692202096897e+00
 7.753495970085054e-01	 9.963630123432425e-01	 7.809809428035887e+00
 7.546441659562128e-01	 1.012135580217930e+00	 7.427839394595617e+00
 7.336495836518627e-01	 1.027455370500983e+00	 7.044922101010815e+00
 7.123806249368541e-01	 1.042314777401041e+00	 6.660118100838744e+00
 6.908523136506445e-01	 1.056706832905307e+00	 6.272416939235191e+00
 8.971417286044999e-01	 8.971417286044999e-01	 1.018392444038388e+01
 8.783709214051726e-01	 9.155277640997740e-01	 9.797813544164478e+00
 8.592275381564666e-01	 9.335173271469448e-01	 9.413765572945456e+00
 8.397242430283236e-01	 9.510992367173554e-01	 9.031353247014209e+00
 8.198741408397413e-01	 9.682628546017253e-01	 8.650042103736956e+00
 7.996907478503786e-01	 9.849981067131861e-01	 8.269195034878033e+00
 7.791879613459731e-01	 1.001295502500602e+00	 7.888077777985822e+00
 7.583800281601363e-01	 1.017146152395066e+00	 7.505865303792737e+00
 7.372815122804759e-01	 1.032541783224740e+00	 7.121649031348641e+00
 7.159072616911698e-01	 1.047474751545831e+00	 6.734444793381861e+00
 6.942723746071172e-01	 1.061938054850427e+00	 6.343201466289928e+00
 9.015611459830002e-01	 9.015611459830002e-01	 1.024161555572817e+01
 8.826978717530394e-01	 9.200377530818484e-01	 9.860263351771456e+00
 8.634601861237601e-01	 9.381159346663995e-01	 9.480281439114785e+00
 8.438608156501772e-01	 9.557844546290369e-01	 9.101178417755110e+00
 8.239129297070475e-01	 9.730326223555081e-01	 8.722358285923541e+00
 8.036301111365888e-01	 9.898503141329006e-01	 8.343125244965787e+00
 7.830263256840739e-01	 1.006227992658595e+00	 7.962689447168942e+00
 7.621158903645616e-01	 1.022156724572704e+00	 7.580173626648792e+00
 7.409134409094401e-01	 1.037628195948848e+00	 7.194620543242573e+00
 7.194338984456653e-01	 1.052634725690800e+00	 6.805001160238097e+00
 6.976924355635794e-01	 1.067169276795537e+00	 6.410223468790964e+00
 9.059805633624998e-01	 9.059805633624998e-01	 1.029647255513247e+01
 8.870248221018959e-01	 9.245477420649123e-01	 9.919683782484404e+00
 8.676928340920127e-01	 9.427145421868132e-01	 9.543594972805010e+00
 8.479973882729391e-01	 9.604696725416264e-01	 9.167650880833438e+00
 8.279517185751899e-01	 9.778023901101274e-01	 8.791194168825518e+00
 8.075694744235439e-01	 9.947025215533604e-01	 8.413470478726660e+00
 7.868646900228091e-01	 1.011160482817222e+00	 8.033634436596428e+00
 7.658517525694896e-01	 1.027167296750844e+00	 7.650756527540108e+00
 7.445453695387551e-01	 1.042714608673307e+00	 7.263830769325150e+00
 7.229605352003404e-01	 1.057794699835950e+00	 6.871783103826483e+00
 7.011124965200309e-01	 1.072400498740636e+00	 6.473480417590886e+00
 9.103999807429998e-01	 9.103999807429998e-01	 1.034846879266277e+01
 8.913517724517422e-01	 9.290577310489665e-01	 9.976051366468480e+00
 8.719254820612242e-01	 9.473131497081859e-01	 9.603685718594472e+00
 8.521339608966090e-01	 9.651548904551241e-01	 9.230753027720343e+00
 8.319905074441698e-01	 9.825721578655838e-01	 8.856534817824713e+00
 8.115088377112447e-01	 9.995547289745654e-01	 8.480218297409834e+00
 7.907030543621775e-01	 1.016092972976482e+00	 8.100902620689769e+00
 7.695876147749194e-01	 1.032177868929486e+00	 7.717606007146340e+00
 7.481772981684206e-01	 1.047801021398116e+00	 7.329273645843140e+00
 7.264871719551955e-01	 1.062954673981279e+00	 6.934786301950520e+00
 7.045325574764718e-01	 1.077631720685724e+00	 6.532969535185002e+00
 9.148193981245000e-01	 9.148193981245000e-01	 1.039757780298897e+01
 8.956787228025780e-01	 9.335677200340105e-01	 1.002934275388409e+01
 8.761581300313951e-01	 9.519117572305179e-01	 9.660533284286410e+00
 8.562705335211872e-01	 9.698401083695301e-01	 9.290467260282398e+00
 8.360292963139861e-01	 9.873419256218768e-01	 8.918365259909212e+00
 8.154482009996905e-01	 1.004406936396516e+00	 8.543356179202968e+00
 7.945414187021796e-01	 1.021025463136376e+00	 8.164483750339121e+00
 7.733234769808512e-01	 1.037188441108631e+00	 7.780713906404743e+00
 7.518092267984370e-01	 1.052887434123276e+00	 7.390942917402048e+00
 7.300138087102302e-01	 1.068114648126788e+00	 6.994006213223284e+00
 7.079526184329022e-01	 1.082862942630802e+00	 6.588687801710615e+00
 9.192388155069999e-01	 9.192388155069999e-01	 1.044377329704378e+01
 9.000056731544041e-01	 9.380777090200438e-01	 1.007953471200280e+01
 8.803907780025252e-01	 9.565103647538092e-01	 9.714117339387988e+00
 8.604071061466734e-01	 9.745253262848437e-01	 9.346775990532333e+00
 8.400680851846395e-01	 9.921116933790067e-01	 8.976670484595539e+00
 8.193875642888817e-01	 1.009259143819211e+00	 8.602871521228863e+00
 7.983797830428155e-01	 1.025957953296904e+00	 8.224367455871713e+00
 7.770593391872852e-01	 1.042199013288277e+00	 7.840071910349993e+00
 7.554411554288040e-01	 1.057973846848787e+00	 7.448832141571253e+00
 7.335404454654451e-01	 1.073274622272476e+00	 7.049438082337803e+00
 7.113726793893219e-01	 1.088094164575869e+00	 6.640631960772712e+00
 9.236582328905000e-01	 9.236582328904998e-01	 1.048702915780578e+01
 9.043326235072198e-01	 9.425876980070673e-01	 1.012660412240605e+01
 8.846234259746145e-01	 9.611089722780597e-01	 9.764417613634997e+00
 8.645436787730679e-01	 9.792105442010659e-01	 9.399661640386395e+00
 8.441068740561295e-01	 9.968814611369736e-01	 9.031435444825393e+00
 8.233269275788182e-01	 1.014111351242653e+00	 8.658751641484805e+00
 8.022181473840851e-01	 1.030890443458065e+00	 8.280543249937097e+00
 7.807952013942214e-01	 1.047209585468426e+00	 7.895671551844133e+00
 7.590730840595219e-01	 1.063060259574648e+00	 7.502934693360240e+00
 7.370670822208393e-01	 1.078434596418344e+00	 7.101076945182674e+00
 7.147927403457311e-01	 1.093325386520926e+00	 6.688798525103003e+00
 9.280776502750000e-01	 9.280776502750000e-01	 1.052731943620331e+01
 9.086595738610254e-01	 9.470976869950807e-01	 1.017052797826256e+01
 8.888560739476632e-01	 9.657075798032694e-01	 9.811413895557514e+00
 8.686802514003706e-01	 9.838957621181965e-01	 9.449106641427786e+00
 8.481456629284567e-01	 1.001651228895778e+00	 9.082645057836222e+00
 8.272662908695003e-01	 1.018963558666839e+00	 8.710983780726362e+00
 8.060565117259888e-01	 1.035822933619860e+00	 8.333000530308844e+00
 7.845310636016597e-01	 1.052220157649077e+00	 7.947504215199324e+00
 7.627050126905903e-01	 1.068146672300861e+00	 7.553243769564439e+00
 7.405937189764134e-01	 1.083594570564393e+00	 7.148917633814850e+00
 7.182128013021298e-01	 1.098556608465972e+00	 6.733183782056210e+00
 6.840121917376669e-01	 1.046244389015035e+00	 6.119569149015968e+00
 6.624553352318256e-01	 1.060024966129339e+00	 5.828883622399087e+00
 6.406720486401845e-01	 1.073330949003192e+00	 5.561849438077362e+00
 6.186777433746947e-01	 1.086157378030861e+00	 5.274980777811856e+00
 5.964879414108071e-01	 1.098499947997111e+00	 4.894992816861096e+00
 5.741182413352699e-01	 1.110355008528024e+00	 4.517800305355287e+00
 5.515842847068431e-01	 1.121719562484134e+00	 4.137494429048761e+00
 5.289017228707278e-01	 1.132591262343367e+00	 3.748367583890154e+00
 5.060861843616085e-01	 1.142968404631799e+00	 3.344957218403447e+00
 4.831532430234608e-01	 1.152849922470135e+00	 2.922086363657704e+00
 4.601183869667742e-01	 1.162235376312831e+00	 2.474900558677468e+00
 6.874322526941609e-01	 1.051475610960176e+00	 6.197872162239380e+00
 6.657676119067247e-01	 1.065325090961221e+00	 5.904669450329539e+00
 6.438754088828305e-01	 1.078697603750451e+00	 5.635025490052964e+00
 6.217711320914885e-01	 1.091588164924104e+00	 5.366439029104172e+00
 5.994703811180299e-01	 1.103992447740871e+00	 4.985279541478000e+00
 5.769888325421382e-01	 1.115906783574966e+00	 4.606084563884751e+00
 5.543422061303688e-01	 1.127328160301226e+00	 4.222755868549148e+00
 5.315462314846513e-01	 1.138254218659966e+00	 3.829404187345920e+00
 5.086166152823460e-01	 1.148683246659897e+00	 3.420394014973135e+00
 4.855690092366515e-01	 1.158614172087327e+00	 2.990385017332676e+00
 4.624189788986122e-01	 1.168046553198987e+00	 2.534369747735899e+00
 6.908523136506445e-01	 1.056706832905307e+00	 6.272416939235191e+00
 6.690798885814346e-01	 1.070625215792908e+00	 5.976497262854986e+00
 6.470787691251478e-01	 1.084064258497361e+00	 5.704055036799740e+00
 6.248645208078580e-01	 1.097018951816876e+00	 5.452981830828226e+00
 6.024528208247724e-01	 1.109484947484068e+00	 5.070647315358528e+00
 5.798594237485105e-01	 1.121458558621282e+00	 4.689452910993617e+00
 5.571001275534232e-01	 1.132936758117659e+00	 4.303109622038916e+00
 5.341907400981678e-01	 1.143917174975905e+00	 3.905545186241183e+00
 5.111470462027804e-01	 1.154398088687362e+00	 3.490949847280858e+00
 4.879847754496816e-01	 1.164378421703943e+00	 3.053818649562132e+00
 4.647195708304709e-01	 1.173857730084653e+00	 2.588989952624601e+00
 6.942723746071172e-01	 1.061938054850427e+00	 6.343201466289928e+00
 6.723921652559540e-01	 1.075925340624400e+00	 6.044369808756441e+00
 6.502821293671381e-01	 1.089430913243922e+00	 5.768945540330602e+00
 6.279579095238026e-01	 1.102449738709176e+00	 5.515608026931389e+00
 6.054352605310341e-01	 1.114977447226701e+00	 5.151086363638565e+00
 5.827300149543866e-01	 1.127010333666972e+00	 4.767902071590731e+00
 5.598580489760063e-01	 1.138545355933435e+00	 4.378558800358758e+00
 5.368352487112776e-01	 1.149580131291185e+00	 3.976799946562467e+00
 5.136774771229119e-01	 1.160112930714195e+00	 3.556640189420605e+00
 4.904005416625514e-01	 1.170142671319984e+00	 3.112408680014630e+00
 4.670201627623500e-01	 1.179668906969829e+00	 2.638788361372723e+00
 6.976924355635794e-01	 1.067169276795537e+00	 6.410223468790964e+00
 6.757044419302837e-01	 1.081225465455696e+00	 6.108289489868621e+00
 6.534854896088002e-01	 1.094797567990135e+00	 5.829704031155170e+00
 6.310512982393228e-01	 1.107880525601004e+00	 5.573051012658429e+00
 6.084177002368153e-01	 1.120469946968770e+00	 5.226586315895094e+00
 5.856006061597669e-01	 1.132562108712037e+00	 4.841428095803683e+00
 5.626159703981178e-01	 1.144153953748553e+00	 4.449105762391695e+00
 5.394797573239803e-01	 1.155243087605805e+00	 4.043177007328987e+00
 5.162079080427404e-01	 1.165827772740396e+00	 3.617479615794323e+00
 4.928163078752609e-01	 1.175906920935450e+00	 3.166175558331495e+00
 4.693207546942497e-01	 1.185480083854516e+00	 2.683791124137330e+00
 7.011124965200309e-01	 1.072400498740636e+00	 6.473480417590886e+00
 6.790167186044237e-01	 1.086525590286798e+00	 6.168258369543192e+00
 6.566888498501349e-01	 1.100164222735998e+00	 5.886337118804127e+00
 6.341446869544183e-01	 1.113311312492361e+00	 5.626205237895566e+00
 6.114001399421161e-01	 1.125962446710274e+00	 5.297136220670926e+00
 5.884711973646509e-01	 1.138113883756475e+00	 4.910026375436187e+00
 5.653738918197583e-01	 1.149762551563013e+00	 4.514752133403473e+00
 5.421242659362764e-01	 1.160906043919765e+00	 4.104684100765144e+00
 5.187383389622658e-01	 1.171542614765965e+00	 3.673481823055888e+00
 4.952320740878099e-01	 1.181671170550340e+00	 3.215138787786737e+00
 4.716213466261701e-01	 1.191291260738712e+00	 2.724023378516867e+00
 7.045325574764718e-01	 1.077631720685724e+00	 6.532969535185002e+00
 6.823289952783737e-01	 1.091825715117704e+00	 6.224278180862619e+00
 6.598922100911414e-01	 1.105530877481513e+00	 5.938851002048610e+00
 6.372380756690891e-01	 1.118742099383246e+00	 5.675081313412391e+00
 6.143825796469359e-01	 1.131454946451215e+00	 5.362724559577584e+00
 5.913417885690389e-01	 1.143665658800287e+00	 4.973691659947715e+00
 5.681318132409272e-01	 1.155371149376815e+00	 4.575498822847855e+00
 5.447687745481656e-01	 1.166569000233065e+00	 4.161328171879924e+00
 5.212687698814882e-01	 1.177257456790902e+00	 3.724659651415604e+00
 4.976478403001985e-01	 1.187435420164655e+00	 3.259316948256277e+00
 4.739219385581109e-01	 1.197102437622420e+00	 2.759509274129002e+00
 7.079526184329022e-01	 1.082862942630802e+00	 6.588687801710615e+00
 6.856412719521338e-01	 1.097125839948416e+00	 6.276350334619737e+00
 6.630955703318204e-01	 1.110897532226679e+00	 5.987251478819476e+00
 6.403314643833352e-01	 1.124172886273659e+00	 5.719689372114049e+00
 6.173650193512753e-01	 1.136947446191592e+00	 5.423339260989248e+00
 5.942123797729307e-01	 1.149217433843473e+00	 5.032418071967500e+00
 5.708897346616248e-01	 1.160979747189960e+00	 4.631346041658491e+00
 5.474132831596480e-01	 1.172231956545706e+00	 4.213115397484705e+00
 5.237992008004075e-01	 1.182972298815206e+00	 3.771025105327205e+00
 5.000636065124267e-01	 1.193199669778394e+00	 3.298727718522180e+00
 4.762225304900723e-01	 1.202913614505637e+00	 2.790271996474165e+00
 7.113726793893219e-01	 1.088094164575869e+00	 6.640631960772712e+00
 6.889535486257039e-01	 1.102425964778931e+00	 6.324475927063022e+00
 6.662989305721714e-01	 1.116264186971496e+00	 6.031543955845827e+00
 6.434248530971567e-01	 1.129603673163601e+00	 5.760039080527759e+00
 6.203474590551340e-01	 1.142439945931405e+00	 5.478967713342692e+00
 5.970829709763266e-01	 1.154769208886034e+00	 5.086199122365200e+00
 5.736476560818511e-01	 1.166588345002446e+00	 4.682293319038788e+00
 5.500577917707236e-01	 1.177894912857687e+00	 4.260051204656424e+00
 5.263296317190237e-01	 1.188687140838879e+00	 3.812589373578397e+00
 5.024793727244947e-01	 1.198963919391558e+00	 3.333387897935189e+00
 4.785231224220544e-01	 1.208724791388365e+00	 2.816333790111599e+00
 7.147927403457311e-01	 1.093325386520926e+00	 6.688798525103003e+00
 6.922658252990845e-01	 1.107726089609253e+00	 6.368655747422959e+00
 6.695022908121944e-01	 1.121630841715964e+00	 6.071733458011416e+00
 6.465182418105536e-01	 1.135034460053070e+00	 5.796139649960164e+00
 6.233298987585121e-01	 1.147932445670653e+00	 5.529596778052607e+00
 5.999535621792262e-01	 1.160320983927968e+00	 5.135027724883273e+00
 5.764055775016060e-01	 1.172196942814275e+00	 4.728339518771906e+00
 5.527023003813921e-01	 1.183557869169008e+00	 4.302140288676686e+00
 5.288600626373371e-01	 1.194401982861919e+00	 3.849362848804130e+00
 5.048951389364020e-01	 1.204728169004147e+00	 3.363313427451779e+00
 4.808237143540569e-01	 1.214535968270603e+00	 2.837715981169434e+00
 7.182128013021298e-01	 1.098556608465972e+00	 6.733183782056210e+00
 6.955781019722753e-01	 1.113026214439379e+00	 6.408890285221991e+00
 6.727056510518901e-01	 1.126997496460084e+00	 6.107824637447077e+00
 6.496116305235261e-01	 1.140465246942069e+00	 5.827999847335763e+00
 6.263123384614094e-01	 1.153424945409338e+00	 5.567298987295620e+00
 6.028241533816301e-01	 1.165872758969277e+00	 5.178896210355922e+00
 5.791634989208896e-01	 1.177805540625446e+00	 4.769482855064744e+00
 5.553468089916540e-01	 1.189220825479669e+00	 4.339386630454093e+00
 5.313904935553472e-01	 1.200116824884327e+00	 3.881355146442361e+00
 5.073109051481494e-01	 1.210492418616161e+00	 3.388519410072945e+00
 4.831243062860801e-01	 1.220347145152352e+00	 2.854438999213309e+00
 4.601183869667742e-01	 1.162235376312831e+00	 2.474900558677468e+00
 4.369969884760465e-01	 1.171124942965302e+00	 2.231814821985528e+00
 4.138042749702640e-01	 1.179519402970896e+00	 1.997874518185462e+00
 3.905553011115675e-01	 1.187420126467113e+00	 1.770209344319866e+00
 3.672649221479067e-01	 1.194829057615943e+00	 1.546167694113839e+00
 3.439477685638439e-01	 1.201748697716363e+00	 1.323336959558344e+00
 3.206182221050803e-01	 1.208182087111708e+00	 1.099560481455149e+00
 2.972903932319080e-01	 1.214132786006911e+00	 8.729511406393982e-01
 2.739781000467759e-01	 1.219604854312299e+00	 6.419016208114912e-01
 2.506948487312590e-01	 1.224602830631397e+00	 4.050914104819474e-01
 2.274538155180212e-01	 1.229131710510101e+00	 1.614906450207083e-01
 4.624189788986122e-01	 1.168046553198987e+00	 2.534369747735899e+00
 4.391819734143381e-01	 1.176980567684396e+00	 2.295455934727340e+00
 4.158732963400971e-01	 1.185416999989696e+00	 2.076699961529530e+00
 3.925080776113382e-01	 1.193357227103074e+00	 1.875274153633764e+00
 3.691012467522498e-01	 1.200803202907330e+00	 1.688529603227515e+00
 3.456675073998150e-01	 1.207757441207937e+00	 1.514017887702975e+00
 3.222213132084613e-01	 1.214222997549946e+00	 1.349509559998947e+00
 2.987768451907803e-01	 1.220203449939315e+00	 1.193009387559951e+00
 2.753479905397306e-01	 1.225702878585923e+00	 1.042768355953235e+00
 2.519483229677927e-01	 1.230725844786310e+00	 8.972924898593246e-01
 2.285910845887912e-01	 1.235277369064108e+00	 7.553485779498896e-01
 4.647195708304709e-01	 1.173857730084653e+00	 2.588989952624601e+00
 4.413669583528400e-01	 1.182836192403096e+00	 2.355843442627436e+00
 4.179423177103084e-01	 1.191314597008185e+00	 2.153730398400920e+00
 3.944608541116353e-01	 1.199294327738798e+00	 1.979863953279321e+00
 3.709375713572466e-01	 1.206777348198544e+00	 1.831596489951803e+00
 3.473872462365468e-01	 1.213766184699391e+00	 1.706442772398351e+00
 3.238244043126900e-01	 1.220263907988107e+00	 1.602099970527122e+00
 3.002632971505673e-01	 1.226274113871676e+00	 1.516464539490628e+00
 2.767178810336476e-01	 1.231800902859527e+00	 1.447645954905984e+00
 2.532017972053171e-01	 1.236848858941221e+00	 1.393977342073830e+00
 2.297283536605614e-01	 1.241423027618114e+00	 1.354023071328159e+00
 4.670201627623500e-01	 1.179668906969829e+00	 2.638788361372723e+00
 4.435519432915516e-01	 1.188691817121399e+00	 2.412986755369855e+00
 4.200113390808985e-01	 1.197212194026364e+00	 2.228959245812787e+00
 3.964136306124587e-01	 1.205231428374286e+00	 2.083957953061520e+00
 3.727738959628970e-01	 1.212751493489585e+00	 1.975335138070929e+00
 3.491069850740392e-01	 1.219774928190726e+00	 1.900567744380076e+00
 3.254274954177661e-01	 1.226304818426193e+00	 1.857278951703848e+00
 3.017497491112690e-01	 1.232344777803995e+00	 1.843256688366265e+00
 2.780877715285269e-01	 1.237898927133113e+00	 1.856469089128196e+00
 2.544552714438321e-01	 1.242971873096125e+00	 1.895076921975855e+00
 2.308656227333314e-01	 1.247568686172121e+00	 1.957443041774623e+00
 4.693207546942497e-01	 1.185480083854516e+00	 2.683791124137330e+00
 4.457369282304732e-01	 1.194547441839309e+00	 2.466894637458630e+00
 4.220803604518669e-01	 1.203109791044231e+00	 2.302379631942137e+00
 3.983664071138084e-01	 1.211168529009536e+00	 2.187535393796507e+00
 3.746102205692012e-01	 1.218725638780453e+00	 2.119712645659347e+00
 3.508267239122922e-01	 1.225783671681941e+00	 2.096349495416537e+00
 3.270305865236900e-01	 1.232345728864203e+00	 2.114994513535582e+00
 3.032362010728854e-01	 1.238415441736270e+00	 2.173326871542819e+00
 2.794576620243686e-01	 1.243996951406679e+00	 2.269173513614687e+00
 2.557087456833377e-01	 1.249094887251025e+00	 2.400523370458925e+00
 2.320028918071016e-01	 1.253714344726127e+00	 2.011656310602512e+00
 4.716213466261701e-01	 1.191291260738712e+00	 2.724023378516867e+00
 4.479219131696051e-01	 1.200403066556823e+00	 2.517575223952132e+00
 4.241493818232140e-01	 1.209007388061788e+00	 2.373984403177168e+00
 4.003191836156846e-01	 1.217105629644550e+00	 2.290575546552729e+00
 3.764465451761590e-01	 1.224699784071148e+00	 2.264696417416502e+00
 3.525464627513061e-01	 1.231792415173036e+00	 2.293745264622986e+00
 3.286336776304615e-01	 1.238386639302135e+00	 2.375195418559477e+00
 3.047226530354167e-01	 1.244486105668503e+00	 2.506617048736699e+00
 2.808275525211725e-01	 1.250094975680227e+00	 2.671208731995754e+00
 2.569622199238338e-01	 1.255217901405921e+00	 2.122162047141356e+00
 2.331401608818716e-01	 1.259860003280134e+00	 1.706593759225291e+00
 4.739219385581109e-01	 1.197102437622420e+00	 2.759509274129002e+00
 4.501068981089468e-01	 1.206258691273942e+00	 2.565036035743775e+00
 4.262184031949395e-01	 1.214904985079035e+00	 2.443766130954979e+00
 4.022719601180871e-01	 1.223042730279327e+00	 2.393057711919499e+00
 3.782828697837705e-01	 1.230673929361669e+00	 2.410254157224614e+00
 3.542662015910805e-01	 1.237801158664011e+00	 2.492712825177869e+00
 3.302367687380806e-01	 1.244427549739992e+00	 2.637831163576099e+00
 3.062091049988626e-01	 1.250556769600694e+00	 2.757403741693654e+00
 2.821974430189387e-01	 1.256192999953756e+00	 2.160581823966545e+00
 2.582156941653208e-01	 1.261340915560812e+00	 1.709868127484904e+00
 2.342774299576418e-01	 1.266005661834140e+00	 1.404429928138349e+00
 4.762225304900723e-01	 1.202913614505637e+00	 2.790271996474165e+00
 4.522918830484984e-01	 1.212114315990666e+00	 2.609283994394280e+00
 4.282874245670436e-01	 1.220802582095970e+00	 2.511717118403851e+00
 4.042247366210159e-01	 1.228979830913867e+00	 2.494961219291974e+00
 3.801191943920355e-01	 1.236648074652018e+00	 2.556353860922854e+00
 3.559859404316157e-01	 1.243809902154868e+00	 2.693210471421499e+00
 3.318398598465474e-01	 1.250468460177773e+00	 2.830298916180969e+00
 3.076955569632233e-01	 1.256627433532842e+00	 2.162217243755199e+00
 2.835673335176672e-01	 1.262291024227266e+00	 1.652223309417716e+00
 2.594691684077982e-01	 1.267463929715698e+00	 1.300181548363098e+00
 2.354146990344119e-01	 1.272151320388147e+00	 1.105112212187060e+00
 4.785231224220544e-01	 1.208724791388365e+00	 2.816333790111599e+00
 4.544768679882601e-01	 1.217969940706995e+00	 2.650325436540420e+00
 4.303564459395263e-01	 1.226700179112595e+00	 2.577829406792376e+00
 4.061775131244711e-01	 1.234916931548171e+00	 2.596265426179542e+00
 3.819555190009544e-01	 1.242622219942193e+00	 2.702963809286281e+00
 3.577056792729115e-01	 1.249818645645604e+00	 2.895197006329489e+00
 3.334429509558617e-01	 1.256509370615477e+00	 2.161490473133589e+00
 3.091820089284987e-01	 1.262698097464947e+00	 1.568825144519955e+00
 2.849372240173580e-01	 1.268389048500758e+00	 1.146092194592999e+00
 2.607226426512664e-01	 1.273586943870580e+00	 8.930552128928853e-01
 2.365519681121820e-01	 1.278296978942153e+00	 8.085891425266836e-01
 4.808237143540569e-01	 1.214535968270603e+00	 2.837715981169434e+00
 4.566618529282317e-01	 1.223825565422929e+00	 2.688166127887641e+00
 4.324254673123873e-01	 1.232597776128909e+00	 2.642094781794876e+00
 4.081302896284528e-01	 1.240854032182237e+00	 2.696949717533270e+00
 3.837918436105269e-01	 1.248596365232195e+00	 2.850052561213135e+00
 3.594254181149679e-01	 1.255827389136221e+00	 2.191693838644328e+00
 3.350460420660236e-01	 1.262550281053106e+00	 1.493918847145244e+00
 3.106684608946887e-01	 1.268768761397010e+00	 9.771951373117518e-01
 2.863071145180112e-01	 1.274487072774230e+00	 6.421484445764127e-01
 2.619761168957251e-01	 1.279709958025457e+00	 4.884430737412755e-01
 2.376892371909521e-01	 1.284442637496160e+00	 5.148103594384339e-01
 4.831243062860801e-01	 1.220347145152352e+00	 2.854438999213309e+00
 4.588468378684135e-01	 1.229681190138468e+00	 2.722811276803707e+00
 4.344944886856272e-01	 1.238495373144912e+00	 2.704504779575529e+00
 4.100830661329607e-01	 1.246791132816066e+00	 2.796993505091914e+00
 3.856281682207531e-01	 1.254570510522024e+00	 2.284735677058492e+00
 3.611451569577851e-01	 1.261836132626718e+00	 1.460577280271212e+00
 3.366491331770333e-01	 1.268591191490658e+00	 8.275618538264502e-01
 3.121549128617937e-01	 1.274839425329030e+00	 3.872957321557859e-01
 2.876770050196267e-01	 1.280585097047684e+00	 1.403529604638032e-01
 2.632295911411746e-01	 1.285832972180329e+00	 8.630010813690525e-02
 2.388265062707223e-01	 1.290588296050167e+00	 2.237265859211117e-01
 2.274538155180212e-01	 1.229131710510101e+00	 1.614906450207083e-01
 2.042678302137041e-01	 1.233196924063451e+00	-6.253383962633818e-02
 1.811493612805352e-01	 1.236804313095460e+00	-2.305322829290932e-01
 1.581105024744471e-01	 1.239960107823959e+00	-3.435246329415063e-01
 1.351629610294562e-01	 1.242670903319327e+00	-4.024522591654938e-01
 1.123180473713981e-01	 1.244943635763541e+00	-4.081752247235512e-01
 8.958666633593650e-02	 1.246785558630901e+00	-3.614712907560171e-01
 6.697930985936418e-02	 1.248204218887413e+00	-2.630365097894576e-01
 4.450605110464891e-02	 1.249207433300800e+00	-1.134872567492975e-01
 2.217653997970472e-02	 1.249803264947827e+00	 8.663645902878447e-02
 0.000000000000000e+00	 1.250000000000000e+00	 3.368665601943754e-01
 2.285910845887912e-01	 1.235277369064108e+00	 7.553485779498896e-01
 2.052891693583603e-01	 1.239362908684941e+00	 6.300570185224410e-01
 1.820551080809982e-01	 1.242988334661858e+00	 5.408695086227922e-01
 1.589010549814159e-01	 1.246159908363780e+00	 4.867901047997703e-01
 1.358387758297981e-01	 1.248884257836435e+00	 4.669690724832178e-01
 1.128796376041085e-01	 1.251168353942711e+00	 3.220858276802940e-01
 9.003459966418732e-02	 1.253019486424280e+00	 1.276064604406759e-01
 6.731420640600730e-02	 1.254445239981975e+00	 3.406104397625698e-02
 4.472858135834938e-02	 1.255453470467359e+00	 3.660016252066356e-02
 2.228742267866558e-02	 1.256052281272580e+00	 1.299698024934852e-01
 0.000000000000000e+00	 1.256250000000000e+00	 3.085533830793026e-01
 2.297283536605614e-01	 1.241423027618114e+00	 1.354023071328159e+00
 2.063105085040058e-01	 1.245528893306430e+00	 1.326117100953440e+00
 1.829608548824189e-01	 1.249172356228256e+00	 1.314559614354177e+00
 1.596916074892901e-01	 1.252359708903599e+00	 9.836538968944173e-01
 1.365145906309733e-01	 1.255097612353542e+00	 6.282675316323869e-01
 1.134412278375601e-01	 1.257393072121882e+00	 3.646849129947414e-01
 9.048253299306791e-02	 1.259253414217659e+00	 1.891631211457492e-01
 6.764910295314984e-02	 1.260686261076538e+00	 9.751797231407155e-02
 4.495111161240058e-02	 1.261699507633918e+00	 8.516169609321667e-02
 2.239830537781054e-02	 1.262301297597333e+00	 1.471415592485597e-01
 0.000000000000000e+00	 1.262500000000000e+00	 2.781790932186472e-01
 2.308656227333314e-01	 1.247568686172121e+00	 1.957443041774623e+00
 2.073318476506408e-01	 1.251694877927920e+00	 1.776587289972992e+00
 1.838666016847974e-01	 1.255356377794653e+00	 1.316053094652776e+00
 1.604821599980700e-01	 1.258559509443420e+00	 9.358826168712870e-01
 1.371904054329817e-01	 1.261310966870651e+00	 6.333971190216718e-01
 1.140028180717527e-01	 1.263617790301052e+00	 4.054554853733294e-01
 9.093046632257813e-02	 1.265487342011038e+00	 2.484863670310091e-01
 6.798399950079179e-02	 1.266927282171100e+00	 1.585219116904633e-01
 4.517364186680252e-02	 1.267945544800478e+00	 1.312327331315846e-01
 2.250918807713961e-02	 1.268550313922086e+00	 1.619637834914940e-01
 0.000000000000000e+00	 1.268750000000000e+00	 2.457708026632832e-01
 2.320028918071016e-01	 1.253714344726127e+00	 2.011656310602512e+00
 2.083531867982651e-01	 1.257860862549410e+00	 1.572447855174355e+00
 1.847723484881337e-01	 1.261540399361052e+00	 1.198502477314234e+00
 1.612727125077554e-01	 1.264759309983240e+00	 8.876545674346776e-01
 1.378662202358234e-01	 1.267524321387759e+00	 6.372979204120131e-01
 1.145644083066865e-01	 1.269842508480223e+00	 4.444135015258237e-01
 9.137839965271810e-02	 1.271721269804417e+00	 3.055990480149176e-01
 6.831889604893317e-02	 1.273168303265662e+00	 2.171001758507323e-01
 4.539617212155518e-02	 1.274191581967037e+00	 1.748426652275559e-01
 2.262007077665277e-02	 1.274799330246838e+00	 1.744656056343432e-01
 0.000000000000000e+00	 1.275000000000000e+00	 2.113550918557308e-01
 2.331401608818716e-01	 1.259860003280134e+00	 1.706593759225291e+00
 2.093745259468788e-01	 1.264026847170900e+00	 1.369932513778578e+00
 1.856780952924278e-01	 1.267724420927450e+00	 1.081438230360313e+00
 1.620632650183464e-01	 1.270959110523060e+00	 8.389646449648467e-01
 1.385420350394982e-01	 1.273737675904867e+00	 6.399764512309489e-01
 1.151259985423613e-01	 1.276067226659393e+00	 4.815746426011662e-01
 9.182633298348773e-02	 1.277955197597795e+00	 3.605235924112231e-01
 6.865379259757394e-02	 1.279409324360224e+00	 2.732795605056746e-01
 4.561870237665859e-02	 1.280437619133596e+00	 2.160203182590796e-01
 2.273095347635003e-02	 1.281048346571592e+00	 1.846755905106641e-01
 0.000000000000000e+00	 1.281250000000000e+00	 1.749580225958043e-01
 2.342774299576418e-01	 1.266005661834140e+00	 1.404429928138349e+00
 2.103958650964818e-01	 1.270192831792389e+00	 1.169006245737477e+00
 1.865838420976796e-01	 1.273908442493847e+00	 9.648416035313723e-01
 1.628538175298431e-01	 1.277158911062880e+00	 7.898079101378754e-01
 1.392178498440063e-01	 1.279951030421975e+00	 6.414391496981682e-01
 1.156875887787774e-01	 1.282291944838564e+00	 5.169543208757008e-01
 9.227426631488705e-02	 1.284189125391174e+00	 4.132820171626077e-01
 6.898868914671415e-02	 1.285650345454787e+00	 3.270863559049726e-01
 4.584123263211269e-02	 1.286683656300156e+00	 2.547939661219671e-01
 2.284183617623139e-02	 1.287297362896344e+00	 1.926217511024766e-01
 0.000000000000000e+00	 1.287500000000000e+00	 1.366051506291603e-01
 2.354146990344119e-01	 1.272151320388147e+00	 1.105112212187060e+00
 2.114172042470743e-01	 1.276358816413878e+00	 9.696348107340871e-01
 1.874895889038893e-01	 1.280092464060245e+00	 8.486942917646774e-01
 1.636443700422453e-01	 1.283358711602701e+00	 7.401795839592624e-01
 1.398936646493476e-01	 1.286164384939082e+00	 6.416923786925237e-01
 1.162491790159345e-01	 1.288516663017734e+00	 5.505676862477882e-01
 9.272219964691610e-02	 1.290423053184553e+00	 4.638959377766774e-01
 6.932358569635377e-02	 1.291891366549349e+00	 3.785463590456262e-01
 4.606376288791754e-02	 1.292929693466715e+00	 2.911913440614731e-01
 2.295271887629687e-02	 1.293546379221097e+00	 1.983315618696968e-01
 0.000000000000000e+00	 1.293750000000000e+00	 9.632153787038589e-02
 2.365519681121820e-01	 1.278296978942153e+00	 8.085891425266836e-01
 2.124385433986561e-01	 1.282524801035368e+00	 7.717847294389109e-01
 1.883953357110566e-01	 1.286276485626644e+00	 7.329784244920006e-01
 1.644349225555531e-01	 1.289558512142521e+00	 6.900750439088621e-01
 1.405694794555221e-01	 1.292377739456191e+00	 6.407424275619851e-01
 1.168107692538327e-01	 1.294741381196905e+00	 5.824296325446625e-01
 9.317013297957484e-02	 1.296656980977931e+00	 5.123865779765870e-01
 6.965848224649281e-02	 1.298132387643911e+00	 4.276848855300637e-01
 4.628629314407312e-02	 1.299175730633274e+00	 3.252396616216888e-01
 2.306360157654643e-02	 1.299795395545850e+00	 2.018319716960866e-01
 0.000000000000000e+00	 1.300000000000000e+00	 5.413176427437172e-02
 2.376892371909521e-01	 1.284442637496160e+00	 5.148103594384339e-01
 2.134598825512273e-01	 1.288690785656858e+00	 5.754232653052878e-01
 1.893010825191818e-01	 1.292460507193041e+00	 6.176765552465096e-01
 1.652254750697665e-01	 1.295758312682341e+00	 6.394898201989236e-01
 1.412452942625299e-01	 1.298591093973299e+00	 6.385955138834540e-01
 1.173723594924721e-01	 1.300966099376075e+00	 6.125548036497699e-01
 9.361806631286326e-02	 1.302890908771310e+00	 5.587747790734405e-01
 6.999337879713126e-02	 1.304373408738474e+00	 4.745267810818417e-01
 4.650882340057943e-02	 1.305421767799833e+00	 3.569656152224707e-01
 2.317448427698010e-02	 1.306044411870603e+00	 2.031494164620722e-01
 0.000000000000000e+00	 1.306250000000000e+00	 1.005993936639205e-02
 2.388265062707223e-01	 1.290588296050167e+00	 2.237265859211117e-01
 2.144812217047879e-01	 1.294856770278347e+00	 3.805184068829233e-01
 1.902068293282647e-01	 1.298644528759439e+00	 5.027716515650278e-01
 1.660160275848855e-01	 1.301958113222162e+00	 5.884195921338595e-01
 1.419211090703709e-01	 1.304804448490407e+00	 6.352577851700536e-01
 1.179339497318526e-01	 1.307190817555246e+00	 6.409575994521226e-01
 9.406599964678142e-02	 1.309124836564689e+00	 6.030810090710073e-01
 7.032827534826916e-02	 1.310614429833036e+00	 5.190964327343552e-01
 4.673135365743648e-02	 1.311667804966393e+00	 3.863954003753047e-01
 2.328536697759787e-02	 1.312293428195356e+00	 2.023098312599021e-01
 0.000000000000000e+00	 1.312500000000000e+00	-3.587028655689761e-02
 1.312500000000000e+00	 0.000000000000000e+00	 1.712234175435665e+01
 1.312293428195356e+00	 2.328536697759712e-02	 1.724395328984857e+01
 1.311667804966393e+00	 4.673135365743582e-02	 1.733629710241095e+01
 1.310614429833036e+00	 7.032827534826856e-02	 1.739686526367709e+01
 1.309124836564689e+00	 9.406599964678088e-02	 1.742319175537772e+01
 1.307190817555246e+00	 1.179339497318521e-01	 1.741286147298541e+01
 1.304804448490407e+00	 1.419211090703706e-01	 1.736351905051242e+01
 1.301958113222162e+00	 1.660160275848852e-01	 1.727287743160357e+01
 1.298644528759440e+00	 1.902068293282645e-01	 1.713872611167279e+01
 1.294856770278348e+00	 2.144812217047878e-01	 1.695893897638415e+01
 1.290588296050166e+00	 2.388265062707223e-01	 1.673148166332833e+01
 1.318750000000000e+00	 0.000000000000000e+00	 1.701539561844240e+01
 1.318542444520106e+00	 2.339624967821717e-02	 1.713650492600303e+01
 1.317913842132943e+00	 4.695388391430206e-02	 1.722749286251837e+01
 1.316855450927578e+00	 7.066317189942732e-02	 1.728592410493858e+01
 1.315358764358031e+00	 9.451393298073640e-02	 1.730941247260612e+01
 1.313415535734358e+00	 1.184955399712914e-01	 1.729562996046564e+01
 1.311017803007430e+00	 1.425969238782968e-01	 1.724231555414443e+01
 1.308157913761866e+00	 1.668065801001209e-01	 1.714728374957227e+01
 1.304828550325684e+00	 1.911125761375009e-01	 1.700843269960729e+01
 1.301022754899642e+00	 2.155025608585438e-01	 1.682375191091345e+01
 1.296733954603930e+00	 2.399637753507351e-01	 1.659132941615922e+01
 1.325000000000000e+00	 0.000000000000000e+00	 1.691004040056465e+01
 1.324791460844852e+00	 2.350713237865770e-02	 1.703108289576798e+01
 1.324159879299474e+00	 4.717641417083602e-02	 1.712115781171360e+01
 1.323096472022077e+00	 7.099806845012840e-02	 1.717790204289958e+01
 1.321592692151297e+00	 9.496186631413696e-02	 1.719900884414171e+01
 1.319640253913352e+00	 1.190571302101072e-01	 1.718223689388361e+01
 1.317231157524282e+00	 1.432727386855602e-01	 1.712541910011499e+01
 1.314357714301335e+00	 1.675971326146845e-01	 1.702647106908760e+01
 1.311012571891621e+00	 1.920183229460863e-01	 1.688339915700828e+01
 1.307188739520545e+00	 2.165239000117011e-01	 1.669430802589798e+01
 1.302879613157208e+00	 2.411010444302331e-01	 1.645740762689661e+01
 1.331250000000000e+00	 0.000000000000000e+00	 1.680624112695806e+01
 1.331040477169594e+00	 2.361801507891870e-02	 1.692764545416731e+01
 1.330405916465988e+00	 4.739894442703767e-02	 1.701724324699455e+01
 1.329337493116535e+00	 7.133296500037184e-02	 1.707274323693246e+01
 1.327826619944489e+00	 9.540979964698258e-02	 1.709191772004933e+01
 1.325864972092228e+00	 1.196187204482994e-01	 1.707261165094000e+01
 1.323444512040963e+00	 1.439485534921608e-01	 1.701275144003654e+01
 1.320557514840572e+00	 1.683876851285760e-01	 1.691035337198656e+01
 1.317196593457252e+00	 1.929240697540210e-01	 1.676353156298583e+01
 1.313354724141057e+00	 2.175452391642600e-01	 1.657050537619219e+01
 1.309025271710002e+00	 2.422383135092166e-01	 1.632960621670889e+01
 1.337500000000000e+00	 0.000000000000000e+00	 1.670396347757261e+01
 1.337289493494331e+00	 2.372889777900018e-02	 1.682615162628404e+01
 1.336651953632483e+00	 4.762147468290704e-02	 1.691570135459477e+01
 1.335578514210952e+00	 7.166786155015764e-02	 1.697039285753209e+01
 1.334060547737606e+00	 9.585773297927327e-02	 1.698807708598351e+01
 1.332089690270987e+00	 1.201803106858681e-01	 1.696668487183114e+01
 1.329657866557475e+00	 1.446243682980987e-01	 1.690423571721094e+01
 1.326757315379575e+00	 1.691782376417955e-01	 1.679884616311619e+01
 1.323380615022576e+00	 1.938298165613047e-01	 1.664873765293625e+01
 1.319520708761180e+00	 2.185665783162201e-01	 1.645224380798942e+01
 1.315170930262309e+00	 2.433755825876853e-01	 1.620781703474179e+01
 1.343750000000000e+00	 0.000000000000000e+00	 1.660317377087101e+01
 1.343538509819063e+00	 2.383978047890213e-02	 1.672656118935240e+01
 1.342897990798959e+00	 4.784400493844411e-02	 1.681648518930328e+01
 1.341819535305325e+00	 7.200275809948578e-02	 1.687079706280155e+01
 1.340294475530649e+00	 9.630566631100902e-02	 1.688742603677945e+01
 1.338314408449628e+00	 1.207419009228132e-01	 1.686438842988871e+01
 1.335871221073816e+00	 1.453001831033738e-01	 1.679979643426434e+01
 1.332957115918344e+00	 1.699687901543429e-01	 1.669186643491443e+01
 1.329564636587593e+00	 1.947355633679376e-01	 1.653892678002421e+01
 1.325686693380910e+00	 2.195879174675818e-01	 1.633942491716293e+01
 1.321316588814132e+00	 2.445128516656394e-01	 1.609193381328200e+01
 1.350000000000000e+00	 0.000000000000000e+00	 1.650383894904826e+01
 1.349787526143790e+00	 2.395066317862456e-02	 1.662883465534661e+01
 1.349144027965417e+00	 4.806653519364887e-02	 1.671954865435932e+01
 1.348060556399658e+00	 7.233765464835626e-02	 1.677390297559068e+01
 1.346528403323616e+00	 9.675359964218985e-02	 1.678990475077745e+01
 1.344539126628152e+00	 1.213034911591349e-01	 1.676565540303475e+01
 1.342084575589987e+00	 1.459759979079862e-01	 1.669935942168163e+01
 1.339156916456880e+00	 1.707593426662181e-01	 1.658933263297521e+01
 1.335748658152303e+00	 1.956413101739195e-01	 1.643400987773412e+01
 1.331852678000251e+00	 2.206092566183448e-01	 1.623195200876393e+01
 1.327462247365469e+00	 2.456501207430789e-01	 1.598185212416561e+01
 1.356250000000000e+00	 0.000000000000000e+00	 1.640592656365990e+01
 1.356036542468514e+00	 2.406154587816746e-02	 1.653293325405161e+01
 1.355390065131856e+00	 4.828906544852134e-02	 1.662484648190265e+01
 1.354301577493950e+00	 7.267255119676910e-02	 1.667965866126708e+01
 1.352762331116509e+00	 9.720153297281571e-02	 1.669545446485743e+01
 1.350763844806558e+00	 1.218650813948331e-01	 1.667042004602618e+01
 1.348297930105987e+00	 1.466518127119358e-01	 1.660285180721047e+01
 1.345356716995183e+00	 1.715498951774213e-01	 1.649116462256579e+01
 1.341932679716706e+00	 1.965470569792506e-01	 1.633389942345746e+01
 1.338018662619200e+00	 2.216305957685092e-01	 1.612973005763964e+01
 1.333607905916321e+00	 2.467873898200036e-01	 1.587746933639237e+01
 1.362500000000000e+00	 0.000000000000000e+00	 1.630940476164589e+01
 1.362285558793233e+00	 2.417242857753083e-02	 1.643881891659934e+01
 1.361636102298277e+00	 4.851159570306152e-02	 1.653233421396216e+01
 1.360542598588199e+00	 7.300744774472430e-02	 1.658801310609849e+01
 1.358996258909327e+00	 9.764946630288662e-02	 1.660401745016048e+01
 1.356988562984846e+00	 1.224266716299077e-01	 1.657861776346335e+01
 1.354511284621816e+00	 1.473276275152226e-01	 1.651020198610750e+01
 1.351556517533252e+00	 1.723404476879523e-01	 1.639728365606512e+01
 1.348116701280803e+00	 1.974528037839308e-01	 1.623850940308176e+01
 1.344184647237759e+00	 2.226519349180751e-01	 1.603266567013529e+01
 1.339753564466688e+00	 2.479246588964137e-01	 1.577868457490645e+01
 1.368750000000000e+00	 0.000000000000000e+00	 1.621424227173734e+01
 1.368534575117946e+00	 2.428331127671468e-02	 1.634645425945629e+01
 1.367882139464680e+00	 4.873412595726941e-02	 1.644196818396526e+01
 1.366783619682406e+00	 7.334234429222182e-02	 1.649891619622786e+01
 1.365230186702071e+00	 9.809739963240263e-02	 1.651553698847558e+01
 1.363213281163017e+00	 1.229882618643588e-01	 1.649018508353756e+01
 1.360724639137475e+00	 1.480034423178466e-01	 1.642133959219985e+01
 1.357756318071087e+00	 1.731310001978114e-01	 1.630761234129494e+01
 1.354300722844592e+00	 1.983585505879601e-01	 1.614775527655045e+01
 1.350350631855927e+00	 2.236732740670422e-01	 1.594066704684521e+01
 1.345899223016569e+00	 2.490619279723092e-01	 1.568539868050598e+01
 1.375000000000000e+00	 0.000000000000000e+00	 1.612040839123407e+01
 1.374783591442656e+00	 2.439419397571901e-02	 1.625580256884786e+01
 1.374128176631065e+00	 4.895665621114498e-02	 1.635370549875151e+01
 1.373024640776572e+00	 7.367724083926172e-02	 1.641231869722153e+01
 1.371464114494739e+00	 9.854533296136368e-02	 1.642995734927018e+01
 1.369437999341071e+00	 1.235498520981864e-01	 1.640505963249531e+01
 1.366937993652964e+00	 1.486792571198079e-01	 1.633619546973589e+01
 1.363956118608690e+00	 1.739215527069983e-01	 1.622207461071408e+01
 1.360484744408075e+00	 1.992642973913386e-01	 1.606155394436118e+01
 1.356516616473704e+00	 2.246946132154110e-01	 1.585364394637994e+01
 1.352044881565965e+00	 2.501991970476900e-01	 1.559751417084695e+01
 1.290588296050166e+00	 2.388265062707223e-01	 1.673148166332833e+01
 1.285832972180329e+00	 2.632295911411738e-01	 1.687137302913890e+01
 1.280585097047684e+00	 2.876770050196261e-01	 1.693912060555772e+01
 1.274839425329030e+00	 3.121549128617932e-01	 1.693589483604352e+01
 1.268591191490658e+00	 3.366491331770328e-01	 1.686314959545819e+01
 1.261836132626718e+00	 3.611451569577848e-01	 1.672261975255405e+01
 1.254570510522024e+00	 3.856281682207529e-01	 1.651631680784034e+01
 1.246791132816067e+00	 4.100830661329606e-01	 1.632800526964262e+01
 1.238495373144913e+00	 4.344944886856272e-01	 1.620667127092362e+01
 1.229681190138468e+00	 4.588468378684135e-01	 1.603694268963934e+01
 1.220347145152351e+00	 4.831243062860801e-01	 1.581965752808892e+01
 1.296733954603930e+00	 2.399637753507351e-01	 1.659132941615922e+01
 1.291955986334910e+00	 2.644830653869112e-01	 1.674146793068499e+01
 1.286683121320804e+00	 2.890468955215656e-01	 1.682204881803151e+01
 1.280910089260678e+00	 3.136413648292485e-01	 1.683404850858037e+01
 1.274632101927805e+00	 3.382522242884095e-01	 1.677871363967907e+01
 1.267844876116782e+00	 3.628648958009760e-01	 1.665755888418308e+01
 1.260544655811395e+00	 3.874644928313499e-01	 1.647236292359747e+01
 1.252728233449420e+00	 4.120358426378261e-01	 1.622516253284829e+01
 1.244392970160427e+00	 4.365635100592008e-01	 1.605905491888110e+01
 1.235536814853510e+00	 4.610318228088950e-01	 1.591465974792125e+01
 1.226158322033599e+00	 4.854248982183585e-01	 1.572367903828379e+01
 1.302879613157208e+00	 2.411010444302331e-01	 1.645740762689661e+01
 1.298079000488916e+00	 2.657365396322340e-01	 1.661667896390808e+01
 1.292781145593277e+00	 2.904167860231908e-01	 1.670894979878540e+01
 1.286980753191626e+00	 3.151278167964899e-01	 1.673500427231152e+01
 1.280673012364218e+00	 3.398553153996730e-01	 1.669588362786621e+01
 1.273853619606097e+00	 3.645846346441547e-01	 1.659288430283992e+01
 1.266518801100025e+00	 3.893008174420352e-01	 1.642755423314079e+01
 1.258665334082059e+00	 4.139886191428804e-01	 1.620168733909295e+01
 1.250290567175273e+00	 4.386325314330636e-01	 1.591731617856939e+01
 1.241392439567952e+00	 4.632168077497661e-01	 1.578975079792355e+01
 1.231969498914337e+00	 4.877254901511262e-01	 1.562381301025287e+01
 1.309025271710002e+00	 2.422383135092166e-01	 1.632960621670889e+01
 1.304202014642346e+00	 2.669900138771422e-01	 1.649691042641699e+01
 1.298879169865101e+00	 2.917866765245016e-01	 1.659974258956442e+01
 1.293051417121872e+00	 3.166142687635176e-01	 1.663869626340937e+01
 1.286713922799896e+00	 3.414584065108233e-01	 1.661460912227152e+01
 1.279862363094664e+00	 3.663043734873209e-01	 1.652856130865106e+01
 1.272492946387913e+00	 3.911371420528085e-01	 1.638187206521762e+01
 1.264602434713982e+00	 4.159413956481234e-01	 1.617609461722693e+01
 1.256188164189451e+00	 4.407015528072157e-01	 1.591300929204833e+01
 1.247248064281795e+00	 4.654017926910268e-01	 1.566224559841107e+01
 1.237780675794566e+00	 4.900260820843841e-01	 1.552010679533861e+01
 1.315170930262309e+00	 2.433755825876853e-01	 1.620781703474179e+01
 1.310325028795200e+00	 2.682434881216357e-01	 1.638206825926717e+01
 1.304977194136277e+00	 2.931565670254980e-01	 1.649434758377957e+01
 1.299122081051418e+00	 3.181007207303314e-01	 1.654505967105330e+01
 1.292754833234839e+00	 3.430614976218603e-01	 1.653484043301285e+01
 1.285871106582482e+00	 3.680241123304743e-01	 1.646455563840999e+01
 1.278467091675059e+00	 3.929734666636698e-01	 1.633529786843193e+01
 1.270539535345190e+00	 4.178941721535551e-01	 1.614838179105892e+01
 1.262085761202962e+00	 4.427705741816572e-01	 1.590533774169131e+01
 1.253103688995038e+00	 4.675867776326771e-01	 1.560790361525572e+01
 1.243591852674283e+00	 4.923266740181315e-01	 1.541260655115869e+01
 1.321316588814132e+00	 2.445128516656394e-01	 1.609193381328200e+01
 1.316448042947478e+00	 2.694969623657147e-01	 1.627206000874086e+01
 1.311075218406805e+00	 2.945264575261802e-01	 1.639268649507364e+01
 1.305192744980262e+00	 3.195871726969313e-01	 1.645403071294071e+01
 1.298795743669048e+00	 3.446645887327842e-01	 1.645652860068241e+01
 1.291879850069553e+00	 3.697438511736153e-01	 1.640083345542219e+01
 1.284441236961463e+00	 3.948097912746193e-01	 1.628781320845672e+01
 1.276476635975684e+00	 4.198469486591758e-01	 1.611854608700351e+01
 1.267983358215805e+00	 4.448395955563878e-01	 1.589431465066787e+01
 1.258959313707681e+00	 4.697717625747170e-01	 1.561659820823773e+01
 1.249403029553489e+00	 4.946272659523686e-01	 1.530135726936723e+01
 1.327462247365469e+00	 2.456501207430789e-01	 1.598185212416561e+01
 1.322571057099179e+00	 2.707504366093789e-01	 1.616679478918899e+01
 1.317173242676686e+00	 2.958963480265481e-01	 1.629468232676017e+01
 1.311263408908406e+00	 3.210736246633174e-01	 1.636554661147922e+01
 1.304836654102523e+00	 3.462676798435946e-01	 1.637962537943728e+01
 1.297888593555875e+00	 3.714635900167438e-01	 1.633736133963219e+01
 1.290415382247125e+00	 3.966461158856571e-01	 1.623939976532425e+01
 1.282413736605462e+00	 4.217997251649850e-01	 1.608658453865094e+01
 1.273880955227980e+00	 4.469086169314079e-01	 1.587995263770736e+01
 1.264814938419724e+00	 4.719567475171465e-01	 1.562072707210667e+01
 1.255214206432187e+00	 4.969278578870955e-01	 1.531030829056449e+01
 1.333607905916321e+00	 2.467873898200036e-01	 1.587746933639237e+01
 1.328694071250305e+00	 2.720039108526287e-01	 1.606618324690070e+01
 1.323271266945917e+00	 2.972662385266016e-01	 1.620025934210782e+01
 1.317334072835849e+00	 3.225600766294896e-01	 1.627954557063625e+01
 1.310877564535264e+00	 3.478707709542920e-01	 1.630408322055779e+01
 1.303897337041450e+00	 3.731833288598597e-01	 1.627410627802366e+01
 1.296389527532046e+00	 3.984824404967829e-01	 1.619003933079094e+01
 1.288350837234525e+00	 4.237525016709830e-01	 1.605249399120969e+01
 1.279778552239487e+00	 4.489776383067170e-01	 1.586226382872205e+01
 1.270670563131168e+00	 4.741417324599657e-01	 1.562031781830345e+01
 1.261025383310373e+00	 4.992284498223120e-01	 1.532779232834748e+01
 1.339753564466688e+00	 2.479246588964137e-01	 1.577868457490645e+01
 1.334817085400855e+00	 2.732573850954637e-01	 1.597013752496715e+01
 1.329369291214502e+00	 2.986361290263408e-01	 1.610934303544217e+01
 1.323404736762591e+00	 3.240465285954480e-01	 1.619596675342641e+01
 1.316918474967270e+00	 3.494738620648761e-01	 1.622985525645862e+01
 1.309906080526277e+00	 3.749030677029628e-01	 1.621103565528351e+01
 1.302363672816225e+00	 4.003187651079968e-01	 1.613971380577500e+01
 1.294287937862873e+00	 4.257052781771698e-01	 1.601627110582731e+01
 1.285676149250327e+00	 4.510466596823156e-01	 1.584125986811003e+01
 1.276526187842013e+00	 4.763267174031744e-01	 1.561539727554242e+01
 1.266836560188049e+00	 5.015290417580184e-01	 1.533955794295935e+01
 1.345899223016569e+00	 2.490619279723092e-01	 1.568539868050598e+01
 1.340940099550829e+00	 2.745108593378843e-01	 1.587857122910788e+01
 1.335467315482438e+00	 3.000060195257656e-01	 1.602186010403927e+01
 1.329475400688631e+00	 3.255329805611925e-01	 1.611475026001536e+01
 1.322959385398542e+00	 3.510769531753470e-01	 1.615689528513784e+01
 1.315914824010355e+00	 3.766228065460536e-01	 1.614811724472183e+01
 1.308337818099662e+00	 4.021550897192988e-01	 1.608840519786398e+01
 1.300225038490506e+00	 4.276580546835455e-01	 1.597791236379280e+01
 1.291573746260498e+00	 4.531156810582033e-01	 1.581695192974905e+01
 1.282381812552258e+00	 4.785117023467728e-01	 1.560599150768167e+01
 1.272647737065215e+00	 5.038296336942143e-01	 1.534564626321756e+01
 1.352044881565965e+00	 2.501991970476900e-01	 1.559751417084695e+01
 1.347063113700226e+00	 2.757643335798901e-01	 1.579139939442928e+01
 1.341565339749727e+00	 3.013759100248763e-01	 1.593773842078609e+01
 1.335546064613972e+00	 3.270194325267234e-01	 1.603583710642106e+01
 1.329000295829080e+00	 3.526800442857046e-01	 1.608515775504970e+01
 1.321923567493685e+00	 3.783425453891318e-01	 1.608531919944001e+01
 1.314311963382357e+00	 4.039914143306890e-01	 1.603609561889070e+01
 1.306162139117423e+00	 4.296108311901097e-01	 1.593741407062406e+01
 1.297471343270002e+00	 4.551847024343806e-01	 1.578935072768989e+01
 1.288237437261903e+00	 4.806966872907608e-01	 1.559212583110633e+01
 1.278458913941872e+00	 5.061302256309002e-01	 1.534609737969802e+01
 1.220347145152351e+00	 4.831243062860801e-01	 1.581965752808892e+01
 1.210492418616161e+00	 5.073109051481485e-01	 1.561733873992901e+01
 1.200116824884327e+00	 5.313904935553466e-01	 1.537596880881832e+01
 1.189220825479669e+00	 5.553468089916533e-01	 1.509290257176987e+01
 1.177805540625447e+00	 5.791634989208891e-01	 1.476536102998600e+01
 1.165872758969277e+00	 6.028241533816298e-01	 1.439044047745233e+01
 1.153424945409339e+00	 6.263123384614093e-01	 1.399142713893714e+01
 1.140465246942069e+00	 6.496116305235261e-01	 1.400454137928440e+01
 1.126997496460084e+00	 6.727056510518903e-01	 1.400826410246160e+01
 1.113026214439379e+00	 6.955781019722753e-01	 1.400511277091576e+01
 1.098556608465972e+00	 7.182128013021298e-01	 1.399753355134107e+01
 1.226158322033599e+00	 4.854248982183585e-01	 1.572367903828379e+01
 1.216256668227679e+00	 5.097266713601056e-01	 1.553461673199557e+01
 1.205831666906254e+00	 5.339209244735311e-01	 1.530463040626667e+01
 1.194883781789874e+00	 5.579913176020634e-01	 1.503119527261464e+01
 1.183414138436196e+00	 5.819214203403049e-01	 1.471165883267307e+01
 1.171424534010207e+00	 6.056947445841594e-01	 1.434324962027809e+01
 1.158917445147699e+00	 6.292947781644367e-01	 1.400640116810501e+01
 1.145896033830808e+00	 6.527050192366423e-01	 1.401363706362608e+01
 1.132364151204019e+00	 6.759090112917536e-01	 1.401093978735339e+01
 1.118326339269404e+00	 6.988903786456683e-01	 1.400106757111840e+01
 1.103787830411013e+00	 7.216328622587757e-01	 1.398671187979416e+01
 1.231969498914337e+00	 4.877254901511262e-01	 1.562381301025287e+01
 1.222020917838783e+00	 5.121424375726427e-01	 1.544870462490708e+01
 1.211546508927853e+00	 5.364513553923669e-01	 1.523082747499905e+01
 1.200546738099826e+00	 5.606358262131770e-01	 1.496777594080446e+01
 1.189022736246758e+00	 5.846793417604563e-01	 1.465702269886252e+01
 1.176976309051008e+00	 6.085653357874372e-01	 1.429592707973996e+01
 1.164409944885977e+00	 6.322772178682041e-01	 1.401822588055182e+01
 1.151326820719500e+00	 6.557984079504705e-01	 1.402027063832095e+01
 1.137730805947933e+00	 6.791123715322809e-01	 1.401185981849208e+01
 1.123626464099425e+00	 7.022026553196564e-01	 1.399599138158597e+01
 1.109019052356053e+00	 7.250529232159268e-01	 1.397560098158389e+01
 1.237780675794566e+00	 4.900260820843841e-01	 1.552010679533861e+01
 1.227785167449470e+00	 5.145582037857600e-01	 1.535963995880915e+01
 1.217261350949121e+00	 5.389817863118544e-01	 1.515458753410056e+01
 1.206209694409525e+00	 5.632803348249937e-01	 1.490266187942580e+01
 1.194631334057134e+00	 5.874372631813432e-01	 1.460145953622844e+01
 1.182528084091679e+00	 6.114359269914629e-01	 1.424846920476662e+01
 1.169902444624171e+00	 6.352596575727122e-01	 1.402688959135976e+01
 1.156757607608145e+00	 6.588917966650112e-01	 1.402441897065852e+01
 1.143097460691826e+00	 6.823157317734723e-01	 1.401098946428561e+01
 1.128926588929440e+00	 7.055149319942393e-01	 1.398983774206480e+01
 1.114250274301094e+00	 7.284729841735833e-01	 1.396414255986133e+01
 1.243591852674283e+00	 4.923266740181315e-01	 1.541260655115869e+01
 1.233549417059744e+00	 5.169739699994577e-01	 1.526745925931340e+01
 1.222976192970061e+00	 5.415122172319934e-01	 1.507593727252696e+01
 1.211872650718971e+00	 5.659248434375140e-01	 1.483586975077776e+01
 1.200239931867323e+00	 5.901951846029659e-01	 1.454497580564201e+01
 1.188079859132219e+00	 6.143065181962365e-01	 1.420087209580139e+01
 1.175394944362282e+00	 6.382420972779603e-01	 1.403238056944950e+01
 1.162188394496743e+00	 6.619851853802644e-01	 1.402605908775563e+01
 1.148464115435698e+00	 6.855190920153277e-01	 1.400829436226792e+01
 1.134226713759450e+00	 7.088272086694172e-01	 1.398256077366833e+01
 1.119481496246134e+00	 7.318930451317450e-01	 1.395227911394725e+01
 1.249403029553489e+00	 4.946272659523686e-01	 1.530135726936723e+01
 1.239313666669602e+00	 5.193897362137354e-01	 1.517219806109123e+01
 1.228691034990672e+00	 5.440426481527839e-01	 1.499490256840984e+01
 1.217535607028164e+00	 5.685693520507380e-01	 1.476741559127366e+01
 1.205848529677326e+00	 5.929531060253246e-01	 1.448757753156249e+01
 1.193631634172630e+00	 6.171771094017584e-01	 1.415313161058127e+01
 1.180887444100310e+00	 6.412245369839490e-01	 1.403468703865379e+01
 1.167619181385294e+00	 6.650785740962296e-01	 1.402516817283982e+01
 1.153830770179549e+00	 6.887224522578466e-01	 1.400374051051513e+01
 1.139526838589454e+00	 7.121394853451900e-01	 1.397411516535667e+01
 1.124712718191175e+00	 7.353131060904122e-01	 1.393995392081667e+01
 1.255214206432187e+00	 4.969278578870955e-01	 1.531030829056449e+01
 1.245077916279045e+00	 5.218055024285934e-01	 1.507389093081227e+01
 1.234405877010954e+00	 5.465730790742260e-01	 1.491150850782600e+01
 1.223198563337104e+00	 5.712138606646651e-01	 1.469731482592939e+01
 1.211457127487143e+00	 5.957110274484186e-01	 1.442927031213932e+01
 1.199183409212911e+00	 6.200477006080283e-01	 1.410524336975470e+01
 1.186379943838253e+00	 6.442069766906778e-01	 1.403379717876115e+01
 1.173049968273797e+00	 6.681719628129074e-01	 1.402172356163537e+01
 1.159197424923379e+00	 6.919258125010295e-01	 1.399729425929954e+01
 1.144826963419454e+00	 7.154517620215577e-01	 1.396445616079234e+01
 1.129943940136216e+00	 7.387331670495848e-01	 1.392711101709719e+01
 1.261025383310373e+00	 4.992284498223120e-01	 1.532779232834748e+01
 1.250842165888073e+00	 5.242212686440315e-01	 1.499211971375937e+01
 1.240120719030906e+00	 5.491035099963195e-01	 1.482577940304705e+01
 1.228861519645791e+00	 5.738583692792957e-01	 1.462558228245077e+01
 1.217065725296773e+00	 5.984689488722483e-01	 1.437005932903482e+01
 1.204735184253062e+00	 6.229182918150461e-01	 1.405720276234479e+01
 1.191872443576114e+00	 6.471894163981470e-01	 1.402969912653066e+01
 1.178480755162254e+00	 6.712653515302975e-01	 1.401570273884956e+01
 1.164564079667188e+00	 6.951291727448764e-01	 1.398892230297426e+01
 1.150127088249448e+00	 7.187640386985205e-01	 1.395353954555921e+01
 1.135175162081257e+00	 7.421532280092624e-01	 1.391369518156601e+01
 1.266836560188049e+00	 5.015290417580184e-01	 1.533955794295935e+01
 1.256606415496686e+00	 5.266370348600500e-01	 1.502038700159684e+01
 1.245835561050529e+00	 5.516339409190646e-01	 1.473773881028782e+01
 1.234524475954226e+00	 5.765028778946298e-01	 1.455223220493345e+01
 1.222674323106217e+00	 6.012268702968138e-01	 1.430994935697675e+01
 1.210286959293083e+00	 6.257888830228119e-01	 1.402005631699878e+01
 1.197364943313891e+00	 6.501718561063564e-01	 1.402238097667895e+01
 1.183911542050663e+00	 6.743587402483997e-01	 1.400708333475599e+01
 1.169930734410976e+00	 6.983325329893871e-01	 1.397859167208187e+01
 1.155427213079437e+00	 7.220763153760781e-01	 1.394132163473265e+01
 1.140406384026297e+00	 7.455732889694454e-01	 1.389965191812777e+01
 1.272647737065215e+00	 5.038296336942143e-01	 1.534564626321756e+01
 1.262370665104885e+00	 5.290528010766486e-01	 1.504355554042308e+01
 1.251550403069823e+00	 5.541643718424611e-01	 1.468210050231365e+01
 1.240187432262408e+00	 5.791473865106674e-01	 1.447727826718726e+01
 1.228282920915474e+00	 6.039847917221149e-01	 1.424894477304903e+01
 1.215838734332974e+00	 6.286594742313260e-01	 1.400957636454958e+01
 1.202857443051585e+00	 6.531542958153062e-01	 1.401183078284000e+01
 1.189342328939026e+00	 6.774521289672144e-01	 1.399584312187074e+01
 1.175297389154743e+00	 7.015358932345620e-01	 1.396626972567834e+01
 1.160727337909421e+00	 7.253885920542307e-01	 1.392775926079089e+01
 1.145637605971338e+00	 7.489933499301337e-01	 1.388492743925941e+01
 1.278458913941872e+00	 5.061302256309002e-01	 1.534609737969802e+01
 1.268134914712668e+00	 5.314685672938273e-01	 1.506165608420857e+01
 1.257265245088787e+00	 5.566948027665093e-01	 1.471597057944454e+01
 1.245850388570336e+00	 5.817918951274083e-01	 1.440073358569718e+01
 1.233891518724545e+00	 6.067427131481519e-01	 1.418704956572910e+01
 1.221390509372735e+00	 6.315300654405880e-01	 1.399527019129285e+01
 1.208349942789196e+00	 6.561367355249965e-01	 1.399803655849898e+01
 1.194773115827342e+00	 6.805455176867415e-01	 1.398196001171979e+01
 1.180664043898490e+00	 7.047392534804007e-01	 1.395192414386748e+01
 1.166027462739399e+00	 7.287008687329783e-01	 1.391280976185634e+01
 1.150868827916379e+00	 7.524134108913275e-01	 1.386946864990592e+01
 1.098556608465972e+00	 7.182128013021298e-01	 1.399753355134107e+01
 1.083594570564393e+00	 7.405937189764126e-01	 1.352781413854007e+01
 1.068146672300861e+00	 7.627050126905897e-01	 1.308014343300419e+01
 1.052220157649077e+00	 7.845310636016593e-01	 1.265683859942856e+01
 1.035822933619861e+00	 8.060565117259884e-01	 1.226002557569598e+01
 1.018963558666840e+00	 8.272662908695000e-01	 1.189162550120322e+01
 1.001651228895778e+00	 8.481456629284566e-01	 1.155334253808004e+01
 9.838957621181963e-01	 8.686802514003705e-01	 1.124665320434666e+01
 9.657075798032695e-01	 8.888560739476630e-01	 1.097279732331013e+01
 9.470976869950806e-01	 9.086595738610254e-01	 1.073277067727832e+01
 9.280776502750000e-01	 9.280776502750000e-01	 1.052731943620331e+01
 1.103787830411013e+00	 7.216328622587757e-01	 1.398671187979416e+01
 1.088754544710532e+00	 7.441203557322817e-01	 1.351084827667600e+01
 1.073233085027249e+00	 7.663369413219960e-01	 1.306011271536213e+01
 1.057230729829979e+00	 7.882669258094729e-01	 1.263692559793365e+01
 1.040755423781972e+00	 8.098948760682998e-01	 1.224350488125562e+01
 1.023815766091398e+00	 8.312056541606180e-01	 1.188185195720545e+01
 1.006420996655000e+00	 8.521844518012427e-01	 1.155373898719168e+01
 9.885809800357809e-01	 8.728168240281502e-01	 1.126069781430324e+01
 9.703061873289587e-01	 8.930887219212011e-01	 1.100401056114099e+01
 9.516076759835886e-01	 9.129865242153282e-01	 1.078470200456812e+01
 9.324970676600002e-01	 9.324970676599998e-01	 1.060353380051799e+01
 1.109019052356053e+00	 7.250529232159268e-01	 1.397560098158389e+01
 1.093914518856669e+00	 7.476469924885608e-01	 1.349378166509507e+01
 1.078319497753636e+00	 7.699688699537266e-01	 1.304015797410057e+01
 1.062241302010880e+00	 7.920027880175354e-01	 1.261725324308195e+01
 1.045687913944085e+00	 8.137332404107951e-01	 1.222737715914065e+01
 1.028667973515957e+00	 8.351450174518638e-01	 1.187261109484624e+01
 1.011190764414222e+00	 8.562232406741106e-01	 1.155479495675950e+01
 9.932661979533650e-01	 8.769533966559755e-01	 1.127551567726652e+01
 9.749047948546473e-01	 8.973213698947596e-01	 1.103609746152149e+01
 9.561176649720968e-01	 9.173134745696363e-01	 1.083759388389546e+01
 9.369164850449999e-01	 9.369164850449998e-01	 1.068078190959008e+01
 1.114250274301094e+00	 7.284729841735833e-01	 1.396414255986133e+01
 1.099074493002808e+00	 7.511736292452502e-01	 1.347655210177227e+01
 1.083405910480024e+00	 7.736007985857821e-01	 1.302021341143335e+01
 1.067251874191782e+00	 7.957386502258470e-01	 1.259775245974848e+01
 1.050620404106197e+00	 8.175716047534728e-01	 1.221157038351717e+01
 1.033520180940517e+00	 8.390843807432369e-01	 1.186382827157755e+01
 1.015960532173444e+00	 8.602620295470599e-01	 1.155643352800697e+01
 9.979514158709494e-01	 8.810899692838472e-01	 1.129102794429935e+01
 9.795034023803366e-01	 9.015540178683387e-01	 1.106897759607302e+01
 9.606276539606046e-01	 9.216404249239492e-01	 1.089136466185554e+01
 9.413359024299999e-01	 9.413359024299999e-01	 1.075898124212897e+01
 1.119481496246134e+00	 7.318930451317450e-01	 1.395227911394725e+01
 1.104234467148945e+00	 7.547002660023494e-01	 1.345909824797495e+01
 1.088492323206412e+00	 7.772327272181625e-01	 1.300021415480041e+01
 1.072262446372684e+00	 7.994745124344078e-01	 1.257835515463434e+01
 1.055552894268309e+00	 8.214099690963341e-01	 1.219601356150699e+01
 1.038372388365076e+00	 8.430237440347367e-01	 1.185542992334811e+01
 1.020730299932666e+00	 8.643008184200909e-01	 1.155857890049666e+01
 1.002636633788534e+00	 8.852265419117646e-01	 1.130715691885683e+01
 9.841020099060258e-01	 9.057866658419381e-01	 1.110257171699317e+01
 9.651376429491126e-01	 9.259673752782678e-01	 1.094593388787079e+01
 9.457553198150001e-01	 9.457553198150001e-01	 1.083805049593975e+01
 1.124712718191175e+00	 7.353131060904122e-01	 1.393995392081667e+01
 1.109394441295084e+00	 7.582269027598593e-01	 1.344135960818607e+01
 1.093578735932799e+00	 7.808646558508671e-01	 1.298009623535130e+01
 1.077273018553585e+00	 8.032103746432173e-01	 1.255899419343263e+01
 1.060485384430421e+00	 8.252483334393783e-01	 1.218063670916593e+01
 1.043224595789634e+00	 8.469631073263645e-01	 1.184734353952074e+01
 1.025500067691889e+00	 8.683396072932037e-01	 1.156115636612263e+01
 1.007321851706118e+00	 8.893631145397281e-01	 1.132382602998602e+01
 9.887006174317148e-01	 9.100193138155579e-01	 1.113680172959950e+01
 9.696476319376208e-01	 9.302943256325911e-01	 1.100122228621668e+01
 9.501747371999997e-01	 9.501747371999997e-01	 1.091790955957230e+01
 1.129943940136216e+00	 7.387331670495848e-01	 1.392711101709719e+01
 1.114554415441221e+00	 7.617535395177784e-01	 1.342327651058543e+01
 1.098665148659187e+00	 7.844965844838963e-01	 1.295979656702609e+01
 1.082283590734487e+00	 8.069462368522756e-01	 1.253960337863030e+01
 1.065417874592533e+00	 8.290866977826059e-01	 1.216537082812813e+01
 1.048076803214194e+00	 8.509024706181193e-01	 1.183949763848909e+01
 1.030269835451111e+00	 8.723783961663978e-01	 1.156409228382451e+01
 1.012007069623703e+00	 8.934996871677371e-01	 1.134095980627077e+01
 9.932992249574037e-01	 9.142519617891984e-01	 1.117159066563767e+01
 9.741576209261288e-01	 9.346212759869191e-01	 1.105715172882728e+01
 9.545941545849999e-01	 9.545941545850000e-01	 1.099847948475775e+01
 1.135175162081257e+00	 7.421532280092624e-01	 1.391369518156601e+01
 1.119714389587359e+00	 7.652801762761083e-01	 1.340479008807062e+01
 1.103751561385575e+00	 7.881285131172503e-01	 1.293925292621433e+01
 1.087294162915389e+00	 8.106820990615832e-01	 1.252011742792269e+01
 1.070350364754645e+00	 8.329250621260166e-01	 1.215014788289757e+01
 1.052929010638752e+00	 8.548418339100015e-01	 1.183182174396643e+01
 1.035039603210333e+00	 8.764171850396733e-01	 1.156731405500193e+01
 1.016692287541287e+00	 8.976362597957921e-01	 1.135848385049692e+01
 9.978978324830928e-01	 9.184846097628588e-01	 1.120686265732652e+01
 9.786676099146367e-01	 9.389482263412526e-01	 1.111364520885085e+01
 9.590135719700000e-01	 9.590135719700000e-01	 1.107968245960700e+01
 1.140406384026297e+00	 7.455732889694454e-01	 1.389965191812777e+01
 1.124874363733497e+00	 7.688068130348483e-01	 1.338584225979998e+01
 1.108837974111962e+00	 7.917604417509290e-01	 1.291840393197397e+01
 1.092304735096290e+00	 8.144179612711395e-01	 1.250047195322260e+01
 1.075282854916757e+00	 8.367634264696103e-01	 1.213490077876304e+01
 1.057781218063311e+00	 8.587811972020112e-01	 1.182424636192812e+01
 1.039809370969555e+00	 8.804559739130304e-01	 1.157075009960431e+01
 1.021377505458871e+00	 9.017728324238934e-01	 1.137632481501440e+01
 1.002496440008782e+00	 9.227172577365401e-01	 1.124254291211780e+01
 9.831775989031449e-01	 9.432751766955915e-01	 1.117062681493413e+01
 9.634329893550000e-01	 9.634329893550000e-01	 1.116144178254703e+01
 1.145637605971338e+00	 7.489933499301337e-01	 1.388492743925941e+01
 1.130034337879635e+00	 7.723334497939982e-01	 1.336637571324147e+01
 1.113924386838350e+00	 7.953923703849323e-01	 1.289718902679276e+01
 1.097315307277192e+00	 8.181538234809448e-01	 1.248060344024434e+01
 1.080215345078869e+00	 8.406017908133875e-01	 1.211956334031997e+01
 1.062633425487870e+00	 8.627205604941481e-01	 1.181670295818536e+01
 1.044579138728777e+00	 8.844947627864692e-01	 1.157432983287657e+01
 1.026062723376455e+00	 9.059094050520402e-01	 1.139441037777460e+01
 1.007095047534471e+00	 9.269499057102417e-01	 1.127855768814789e+01
 9.876875878916530e-01	 9.476021270499351e-01	 1.122802170621086e+01
 9.678524067400001e-01	 9.678524067399999e-01	 1.124368183697113e+01
 1.150868827916379e+00	 7.524134108913275e-01	 1.386946864990592e+01
 1.135194312025773e+00	 7.758600865535584e-01	 1.334633388671106e+01
 1.119010799564737e+00	 7.990242990192603e-01	 1.287554845787378e+01
 1.102325879458094e+00	 8.218896856909991e-01	 1.246044922864462e+01
 1.085147835240981e+00	 8.444401551573475e-01	 1.210407029057626e+01
 1.067485632912430e+00	 8.666599237864125e-01	 1.180912393657125e+01
 1.049348906487999e+00	 8.885335516599899e-01	 1.157798364273850e+01
 1.030747941294040e+00	 9.100459776802332e-01	 1.141266921902151e+01
 1.011693655060161e+00	 9.311825536839636e-01	 1.131483427035786e+01
 9.921975768801612e-01	 9.519290774042841e-01	 1.128575608797252e+01
 9.722718241249999e-01	 9.722718241250000e-01	 1.132632806658077e+01
 9.280776502750000e-01	 9.280776502750000e-01	 1.052731943620331e+01
 9.086595738610254e-01	 9.470976869950807e-01	 1.017052797826256e+01
 8.888560739476632e-01	 9.657075798032694e-01	 9.811413895557514e+00
 8.686802514003706e-01	 9.838957621181965e-01	 9.449106641427786e+00
 8.481456629284567e-01	 1.001651228895778e+00	 9.082645057836222e+00
 8.272662908695003e-01	 1.018963558666839e+00	 8.710983780726362e+00
 8.060565117259888e-01	 1.035822933619860e+00	 8.333000530308844e+00
 7.845310636016597e-01	 1.052220157649077e+00	 7.947504215199324e+00
 7.627050126905903e-01	 1.068146672300861e+00	 7.553243769564439e+00
 7.405937189764134e-01	 1.083594570564393e+00	 7.148917633814850e+00
 7.182128013021298e-01	 1.098556608465972e+00	 6.733183782056210e+00
 9.324970676600002e-01	 9.324970676599998e-01	 1.060353380051799e+01
 9.129865242153280e-01	 9.516076759835886e-01	 1.026531986531302e+01
 8.930887219212011e-01	 9.703061873289585e-01	 9.920033772835787e+00
 8.728168240281500e-01	 9.885809800357807e-01	 9.566378228789270e+00
 8.521844518012431e-01	 1.006420996655000e+00	 9.202986229307502e+00
 8.312056541606185e-01	 1.023815766091398e+00	 8.828429134000704e+00
 8.098948760683004e-01	 1.040755423781972e+00	 8.441225501110953e+00
 7.882669258094734e-01	 1.057230729829978e+00	 8.039850603889857e+00
 7.663369413219966e-01	 1.073233085027248e+00	 7.622746538681691e+00
 7.441203557322823e-01	 1.088754544710531e+00	 7.188332827801212e+00
 7.216328622587757e-01	 1.103787830411013e+00	 6.735017414237896e+00
 9.369164850449999e-01	 9.369164850449998e-01	 1.068078190959008e+01
 9.173134745696362e-01	 9.561176649720968e-01	 1.035960540931779e+01
 8.973213698947596e-01	 9.749047948546473e-01	 1.002667055212781e+01
 8.769533966559757e-01	 9.932661979533652e-01	 9.680256043747496e+00
 8.562232406741107e-01	 1.011190764414222e+00	 9.318591593152755e+00
 8.351450174518641e-01	 1.028667973515957e+00	 8.939867645018934e+00
 8.137332404107952e-01	 1.045687913944084e+00	 8.542245752514035e+00
 7.920027880175360e-01	 1.062241302010880e+00	 8.123869499778126e+00
 7.699688699537273e-01	 1.078319497753636e+00	 7.682875875926797e+00
 7.476469924885617e-01	 1.093914518856669e+00	 7.217406996225999e+00
 7.250529232159270e-01	 1.109019052356054e+00	 6.725622061311338e+00
 9.413359024299999e-01	 9.413359024299999e-01	 1.075898124212897e+01
 9.216404249239490e-01	 9.606276539606046e-01	 1.045332410713616e+01
 9.015540178683386e-01	 9.795034023803367e-01	 1.013128501906807e+01
 8.810899692838472e-01	 9.979514158709493e-01	 9.790721390819112e+00
 8.602620295470602e-01	 1.015960532173444e+00	 9.429462164353669e+00
 8.390843807432369e-01	 1.033520180940516e+00	 9.045319194408929e+00
 8.175716047534735e-01	 1.050620404106197e+00	 8.636099151821089e+00
 7.957386502258476e-01	 1.067251874191781e+00	 8.199615846076679e+00
 7.736007985857828e-01	 1.083405910480024e+00	 7.733702860314271e+00
 7.511736292452510e-01	 1.099074493002807e+00	 7.236226387002354e+00
 7.284729841735834e-01	 1.114250274301094e+00	 6.705098149004917e+00
 9.457553198150001e-01	 9.457553198150001e-01	 1.083805049593975e+01
 9.259673752782676e-01	 9.651376429491128e-01	 1.054641626390993e+01
 9.057866658419381e-01	 9.841020099060257e-01	 1.023383837108230e+01
 8.852265419117648e-01	 1.002636633788534e+00	 9.897755604894519e+00
 8.643008184200911e-01	 1.020730299932666e+00	 9.535598622629873e+00
 8.430237440347370e-01	 1.038372388365075e+00	 9.144802978354253e+00
 8.214099690963346e-01	 1.055552894268308e+00	 8.722822549782100e+00
 7.994745124344083e-01	 1.072262446372683e+00	 8.267143254984751e+00
 7.772327272181627e-01	 1.088492323206411e+00	 7.775296943565099e+00
 7.547002660023502e-01	 1.104234467148945e+00	 7.244875343124527e+00
 7.318930451317451e-01	 1.119481496246135e+00	 6.673543939583752e+00
 9.501747371999997e-01	 9.501747371999997e-01	 1.091790955957230e+01
 9.302943256325906e-01	 9.696476319376206e-01	 1.063882297426484e+01
 9.100193138155579e-01	 9.887006174317148e-01	 1.033429220781018e+01
 8.893631145397282e-01	 1.007321851706118e+00	 1.000134005052924e+01
 8.683396072932036e-01	 1.025500067691888e+00	 9.637001320236360e+00
 8.469631073263647e-01	 1.043224595789634e+00	 9.238337524509921e+00
 8.252483334393791e-01	 1.060485384430421e+00	 8.802451804233058e+00
 8.032103746432178e-01	 1.077273018553585e+00	 8.326504038642678e+00
 7.808646558508675e-01	 1.093578735932799e+00	 7.807725987949607e+00
 7.582269027598596e-01	 1.109394441295083e+00	 7.243436346967691e+00
 7.353131060904122e-01	 1.124712718191175e+00	 6.631055582163707e+00
 9.545941545849999e-01	 9.545941545850000e-01	 1.099847948475775e+01
 9.346212759869191e-01	 9.741576209261290e-01	 1.073048610403722e+01
 9.142519617891982e-01	 9.932992249574039e-01	 1.043260852179507e+01
 8.934996871677374e-01	 1.012007069623702e+00	 1.010145612125963e+01
 8.723783961663977e-01	 1.030269835451110e+00	 9.733670289542967e+00
 8.509024706181197e-01	 1.048076803214193e+00	 9.325940707478845e+00
 8.290866977826064e-01	 1.065417874592532e+00	 8.875021803080688e+00
 8.069462368522762e-01	 1.082283590734487e+00	 8.377749239224563e+00
 7.844965844838970e-01	 1.098665148659187e+00	 7.831056303080930e+00
 7.617535395177794e-01	 1.114554415441221e+00	 7.231990063356998e+00
 7.387331670495846e-01	 1.129943940136216e+00	 6.577727161625187e+00
 9.590135719700000e-01	 9.590135719700000e-01	 1.107968245960700e+01
 9.389482263412525e-01	 9.786676099146371e-01	 1.082134827250260e+01
 9.184846097628588e-01	 9.978978324830928e-01	 1.052874968943143e+01
 8.976362597957924e-01	 1.016692287541287e+00	 1.019808523893374e+01
 8.764171850396734e-01	 1.035039603210333e+00	 9.825605250405811e+00
 8.548418339100019e-01	 1.052929010638752e+00	 9.407629763858754e+00
 8.329250621260171e-01	 1.070350364754645e+00	 8.940566486650873e+00
 8.106820990615835e-01	 1.087294162915388e+00	 8.420928658201579e+00
 7.881285131172509e-01	 1.103751561385574e+00	 7.845352681690461e+00
 7.652801762761091e-01	 1.119714389587359e+00	 7.210615381447277e+00
 7.421532280092624e-01	 1.135175162081257e+00	 6.513650746177971e+00
 9.634329893550000e-01	 9.634329893550000e-01	 1.116144178254703e+01
 9.432751766955914e-01	 9.831775989031449e-01	 1.091135283509591e+01
 9.227172577365401e-01	 1.002496440008782e+00	 1.062267846216013e+01
 9.017728324238935e-01	 1.021377505458871e+00	 1.029120885306203e+01
 8.804559739130307e-01	 1.039809370969554e+00	 9.912805617334079e+00
 8.587811972020114e-01	 1.057781218063311e+00	 9.483421306874760e+00
 8.367634264696108e-01	 1.075282854916756e+00	 8.999118869422405e+00
 8.144179612711401e-01	 1.092304735096290e+00	 8.456090884797570e+00
 7.917604417509295e-01	 1.108837974111962e+00	 7.850678434418178e+00
 7.688068130348489e-01	 1.124874363733497e+00	 7.179389455450192e+00
 7.455732889694453e-01	 1.140406384026297e+00	 6.438916433613602e+00
 9.678524067400001e-01	 9.678524067399999e-01	 1.124368183697113e+01
 9.476021270499351e-01	 9.876875878916528e-01	 1.100044386660361e+01
 9.269499057102418e-01	 1.007095047534471e+00	 1.071435795790638e+01
 9.059094050520404e-01	 1.026062723376456e+00	 1.038080844018611e+01
 8.844947627864692e-01	 1.044579138728777e+00	 9.995270506462901e+00
 8.627205604941484e-01	 1.062633425487870e+00	 9.553331340612495e+00
 8.406017908133878e-01	 1.080215345078868e+00	 9.050711061164478e+00
 8.181538234809453e-01	 1.097315307277192e+00	 8.483283323666253e+00
 7.953923703849328e-01	 1.113924386838349e+00	 7.847095423651236e+00
 7.723334497939990e-01	 1.130034337879634e+00	 7.138387744243364e+00
 7.489933499301337e-01	 1.145637605971338e+00	 6.353612396293380e+00
 9.722718241249999e-01	 9.722718241250000e-01	 1.132632806658077e+01
 9.519290774042841e-01	 9.921975768801613e-01	 1.108856614481531e+01
 9.311825536839639e-01	 1.011693655060161e+00	 1.080375165274982e+01
 9.100459776802337e-01	 1.030747941294040e+00	 1.046686550326445e+01
 8.885335516599900e-01	 1.049348906487999e+00	 1.007299874233273e+01
 8.666599237864128e-01	 1.067485632912429e+00	 9.617375273861841e+00
 8.444401551573480e-01	 1.085147835240981e+00	 9.095374287499213e+00
 8.218896856909996e-01	 1.102325879458094e+00	 8.502552221812994e+00
 7.990242990192606e-01	 1.119010799564737e+00	 7.834664096438063e+00
 7.758600865535590e-01	 1.135194312025773e+00	 7.087684049901343e+00
 7.524134108913275e-01	 1.150868827916379e+00	 6.257824924906886e+00
 7.182128013021298e-01	 1.098556608465972e+00	 6.733183782056210e+00
 6.955781019722753e-01	 1.113026214439379e+00	 6.408890285221991e+00
 6.727056510518901e-01	 1.126997496460084e+00	 6.107824637447077e+00
 6.496116305235261e-01	 1.140465246942069e+00	 5.827999847335763e+00
 6.263123384614094e-01	 1.153424945409338e+00	 5.567298987295620e+00
 6.028241533816301e-01	 1.165872758969277e+00	 5.178896210355922e+00
 5.791634989208896e-01	 1.177805540625446e+00	 4.769482855064744e+00
 5.553468089916540e-01	 1.189220825479669e+00	 4.339386630454093e+00
 5.313904935553472e-01	 1.200116824884327e+00	 3.881355146442361e+00
 5.073109051481494e-01	 1.210492418616161e+00	 3.388519410072945e+00
 4.831243062860801e-01	 1.220347145152352e+00	 2.854438999213309e+00
 7.216328622587757e-01	 1.103787830411013e+00	 6.735017414237896e+00
 6.988903786456683e-01	 1.118326339269405e+00	 6.378641420495597e+00
 6.759090112917537e-01	 1.132364151204019e+00	 6.061352881138463e+00
 6.527050192366420e-01	 1.145896033830808e+00	 5.781723666990600e+00
 6.292947781644367e-01	 1.158917445147699e+00	 5.538124155529441e+00
 6.056947445841596e-01	 1.171424534010207e+00	 5.204758682402820e+00
 5.819214203403053e-01	 1.183414138436195e+00	 4.849926769482886e+00
 5.579913176020641e-01	 1.194883781789874e+00	 4.491619712537763e+00
 5.339209244735317e-01	 1.205831666906254e+00	 4.122682671936194e+00
 5.097266713601063e-01	 1.216256668227679e+00	 3.736279992234349e+00
 4.854248982183585e-01	 1.226158322033600e+00	 3.325942028304640e+00
 7.250529232159270e-01	 1.109019052356054e+00	 6.725622061311338e+00
 7.022026553196562e-01	 1.123626464099425e+00	 6.340042489546020e+00
 6.791123715322810e-01	 1.137730805947933e+00	 6.009261480890956e+00
 6.557984079504707e-01	 1.151326820719500e+00	 5.732405566201555e+00
 6.322772178682045e-01	 1.164409944885977e+00	 5.508328650325154e+00
 6.085653357874374e-01	 1.176976309051007e+00	 5.231744264958696e+00
 5.846793417604569e-01	 1.189022736246757e+00	 4.933762762403782e+00
 5.606358262131775e-01	 1.200546738099826e+00	 4.649340572303214e+00
 5.364513553923675e-01	 1.211546508927852e+00	 4.371417050876621e+00
 5.121424375726434e-01	 1.222020917838782e+00	 4.093187042461281e+00
 4.877254901511263e-01	 1.231969498914337e+00	 3.808149361109797e+00
 7.284729841735834e-01	 1.114250274301094e+00	 6.705098149004917e+00
 7.055149319942392e-01	 1.128926588929440e+00	 6.293155165310560e+00
 6.823157317734723e-01	 1.143097460691826e+00	 5.951575565429848e+00
 6.588917966650112e-01	 1.156757607608145e+00	 5.680036389912964e+00
 6.352596575727123e-01	 1.169902444624171e+00	 5.477871338804571e+00
 6.114359269914631e-01	 1.182528084091678e+00	 5.259757702308448e+00
 5.874372631813438e-01	 1.194631334057134e+00	 5.020870282875771e+00
 5.632803348249946e-01	 1.206209694409525e+00	 4.812405729833837e+00
 5.389817863118551e-01	 1.217261350949121e+00	 4.627394252192576e+00
 5.145582037857609e-01	 1.227785167449471e+00	 4.459058361963591e+00
 4.900260820843840e-01	 1.237780675794565e+00	 4.300863014394689e+00
 7.318930451317451e-01	 1.119481496246135e+00	 6.673543939583752e+00
 7.088272086694171e-01	 1.134226713759450e+00	 6.238039688606003e+00
 6.855190920153277e-01	 1.148464115435698e+00	 5.888319521921186e+00
 6.619851853802645e-01	 1.162188394496743e+00	 5.624606890289603e+00
 6.382420972779607e-01	 1.175394944362282e+00	 5.446711601424287e+00
 6.143065181962369e-01	 1.188079859132219e+00	 5.288704814751281e+00
 5.901951846029665e-01	 1.200239931867324e+00	 5.111130374562046e+00
 5.659248434375147e-01	 1.211872650718971e+00	 4.980673773822062e+00
 5.415122172319942e-01	 1.222976192970061e+00	 4.890452742399141e+00
 5.169739699994584e-01	 1.233549417059743e+00	 4.833714633205876e+00
 4.923266740181315e-01	 1.243591852674283e+00	 4.803888224359702e+00
 7.353131060904122e-01	 1.124712718191175e+00	 6.631055582163707e+00
 7.121394853451900e-01	 1.139526838589454e+00	 6.174754901435003e+00
 6.887224522578466e-01	 1.153830770179549e+00	 5.819517013218237e+00
 6.650785740962298e-01	 1.167619181385294e+00	 5.566107728875552e+00
 6.412245369839491e-01	 1.180887444100309e+00	 5.414809320036214e+00
 6.171771094017587e-01	 1.193631634172630e+00	 5.318492473576574e+00
 5.929531060253250e-01	 1.205848529677326e+00	 5.204425638658268e+00
 5.685693520507384e-01	 1.217535607028164e+00	 5.154005313463821e+00
 5.440426481527847e-01	 1.228691034990672e+00	 5.160433427515246e+00
 5.193897362137363e-01	 1.239313666669601e+00	 5.216979352900395e+00
 4.946272659523686e-01	 1.249403029553489e+00	 5.317033371769966e+00
 7.387331670495846e-01	 1.129943940136216e+00	 6.577727161625187e+00
 7.154517620215577e-01	 1.144826963419454e+00	 6.103358279365288e+00
 6.919258125010296e-01	 1.159197424923379e+00	 5.745190994628574e+00
 6.681719628129075e-01	 1.173049968273797e+00	 5.504529478689697e+00
 6.442069766906779e-01	 1.186379943838253e+00	 5.382124866280609e+00
 6.200477006080287e-01	 1.199183409212911e+00	 5.349028576736367e+00
 5.957110274484191e-01	 1.211457127487143e+00	 5.300640197837073e+00
 5.712138606646656e-01	 1.223198563337104e+00	 5.332262931685843e+00
 5.465730790742267e-01	 1.234405877010953e+00	 5.437179596592056e+00
 5.218055024285942e-01	 1.245077916279045e+00	 5.608678766862766e+00
 4.969278578870955e-01	 1.255214206432187e+00	 5.039010254564683e+00
 7.421532280092624e-01	 1.135175162081257e+00	 6.513650746177971e+00
 7.187640386985203e-01	 1.150127088249448e+00	 6.023905963015049e+00
 6.951291727448764e-01	 1.164564079667188e+00	 5.665363730215746e+00
 6.712653515302975e-01	 1.178480755162254e+00	 5.439862626267635e+00
 6.471894163981472e-01	 1.191872443576114e+00	 5.348619090302187e+00
 6.229182918150463e-01	 1.204735184253062e+00	 5.380222025188118e+00
 5.984689488722489e-01	 1.217065725296773e+00	 5.399659661192239e+00
 5.738583692792963e-01	 1.228861519645791e+00	 5.515311139669463e+00
 5.491035099963203e-01	 1.240120719030906e+00	 5.720536866805625e+00
 5.242212686440323e-01	 1.250842165888073e+00	 5.880539634252507e+00
 4.992284498223121e-01	 1.261025383310373e+00	 4.679955878956882e+00
 7.455732889694453e-01	 1.140406384026297e+00	 6.438916433613602e+00
 7.220763153760779e-01	 1.155427213079437e+00	 5.936452788669744e+00
 6.983325329893872e-01	 1.169930734410976e+00	 5.580056808655009e+00
 6.743587402483999e-01	 1.183911542050663e+00	 5.372097573643913e+00
 6.501718561063566e-01	 1.197364943313891e+00	 5.314253309774492e+00
 6.257888830228123e-01	 1.210286959293083e+00	 5.407522086527132e+00
 6.012268702968143e-01	 1.222674323106217e+00	 5.501371090144883e+00
 5.765028778946305e-01	 1.234524475954226e+00	 5.703016332622836e+00
 5.516339409190654e-01	 1.245835561050529e+00	 6.010353130059449e+00
 5.266370348600508e-01	 1.256606415496686e+00	 5.412620669966902e+00
 5.015290417580184e-01	 1.266836560188050e+00	 4.331503116019082e+00
 7.489933499301337e-01	 1.145637605971338e+00	 6.353612396293380e+00
 7.253885920542303e-01	 1.160727337909420e+00	 5.841052318063062e+00
 7.015358932345619e-01	 1.175297389154743e+00	 5.489291158651740e+00
 6.774521289672144e-01	 1.189342328939026e+00	 5.301224640282218e+00
 6.531542958153065e-01	 1.202857443051585e+00	 5.278989299225165e+00
 6.286594742313263e-01	 1.215838734332974e+00	 5.423972518459745e+00
 6.039847917221155e-01	 1.228282920915474e+00	 5.605662965287259e+00
 5.791473865106680e-01	 1.240187432262407e+00	 5.895246746769004e+00
 5.541643718424620e-01	 1.251550403069823e+00	 6.073861049765240e+00
 5.290528010766492e-01	 1.262370665104884e+00	 4.954108859329784e+00
 5.038296336942143e-01	 1.272647737065215e+00	 3.993521195779818e+00
 7.524134108913275e-01	 1.150868827916379e+00	 6.257824924906886e+00
 7.287008687329781e-01	 1.166027462739399e+00	 5.737756867343085e+00
 7.047392534804008e-01	 1.180664043898489e+00	 5.393087063941176e+00
 6.805455176867417e-01	 1.194773115827342e+00	 5.227234064950960e+00
 6.561367355249966e-01	 1.208349942789195e+00	 5.242789279653696e+00
 6.315300654405884e-01	 1.221390509372735e+00	 5.441526351420860e+00
 6.067427131481523e-01	 1.233891518724545e+00	 5.712425154127683e+00
 5.817918951274088e-01	 1.245850388570336e+00	 6.091872417502940e+00
 5.566948027665101e-01	 1.257265245088788e+00	 5.519954263521193e+00
 5.314685672938282e-01	 1.268134914712668e+00	 4.504894195182414e+00
 5.061302256309002e-01	 1.278458913941872e+00	 3.665882148371622e+00
 4.831243062860801e-01	 1.220347145152352e+00	 2.854438999213309e+00
 4.588468378684135e-01	 1.229681190138468e+00	 2.722811276803707e+00
 4.344944886856272e-01	 1.238495373144912e+00	 2.704504779575529e+00
 4.100830661329607e-01	 1.246791132816066e+00	 2.796993505091914e+00
 3.856281682207531e-01	 1.254570510522024e+00	 2.284735677058492e+00
 3.611451569577851e-01	 1.261836132626718e+00	 1.460577280271212e+00
 3.366491331770333e-01	 1.268591191490658e+00	 8.275618538264502e-01
 3.121549128617937e-01	 1.274839425329030e+00	 3.872957321557859e-01
 2.876770050196267e-01	 1.280585097047684e+00	 1.403529604638032e-01
 2.632295911411746e-01	 1.285832972180329e+00	 8.630010813690525e-02
 2.388265062707223e-01	 1.290588296050167e+00	 2.237265859211117e-01
 4.854248982183585e-01	 1.226158322033600e+00	 3.325942028304640e+00
 4.610318228088948e-01	 1.235536814853510e+00	 3.339386632057169e+00
 4.365635100592007e-01	 1.244392970160427e+00	 3.448745454163690e+00
 4.120358426378263e-01	 1.252728233449420e+00	 3.225477334599049e+00
 3.874644928313501e-01	 1.260544655811395e+00	 2.297828587314438e+00
 3.628648958009764e-01	 1.267844876116781e+00	 1.541792803141457e+00
 3.382522242884100e-01	 1.274632101927805e+00	 9.598637583497154e-01
 3.136413648292490e-01	 1.280910089260678e+00	 5.535426774005014e-01
 2.890468955215663e-01	 1.286683121320804e+00	 3.233554083222803e-01
 2.644830653869120e-01	 1.291955986334910e+00	 2.688753313767744e-01
 2.399637753507351e-01	 1.296733954603930e+00	 3.887516037493013e-01
 4.877254901511263e-01	 1.231969498914337e+00	 3.808149361109797e+00
 4.632168077497660e-01	 1.241392439567952e+00	 3.964408897904153e+00
 4.386325314330637e-01	 1.250290567175273e+00	 4.154117019555601e+00
 4.139886191428805e-01	 1.258665334082059e+00	 3.157744873750035e+00
 3.893008174420354e-01	 1.266518801100025e+00	 2.313017952624327e+00
 3.645846346441551e-01	 1.273853619606097e+00	 1.623211748622599e+00
 3.398553153996735e-01	 1.280673012364218e+00	 1.090657743697766e+00
 3.151278167964904e-01	 1.286980753191625e+00	 7.167529905136734e-01
 2.904167860231914e-01	 1.292781145593276e+00	 5.019755805665014e-01
 2.657365396322348e-01	 1.298079000488916e+00	 4.459056603254108e-01
 2.411010444302332e-01	 1.302879613157209e+00	 5.472516175710100e-01
 4.900260820843840e-01	 1.237780675794565e+00	 4.300863014394689e+00
 4.654017926910266e-01	 1.247248064281795e+00	 4.597717834161527e+00
 4.407015528072157e-01	 1.256188164189451e+00	 3.993329364309327e+00
 4.159413956481236e-01	 1.264602434713982e+00	 3.094126723700209e+00
 3.911371420528086e-01	 1.272492946387913e+00	 2.330274962226601e+00
 3.663043734873212e-01	 1.279862363094664e+00	 1.704829604418661e+00
 3.414584065108237e-01	 1.286713922799895e+00	 1.219961279642255e+00
 3.166142687635181e-01	 1.293051417121872e+00	 8.769638081934157e-01
 2.917866765245021e-01	 1.298879169865100e+00	 6.762679721149774e-01
 2.669900138771429e-01	 1.304202014642346e+00	 6.174606508233067e-01
 2.422383135092166e-01	 1.309025271710002e+00	 6.993089630453855e-01
 4.923266740181315e-01	 1.243591852674283e+00	 4.803888224359702e+00
 4.675867776326769e-01	 1.253103688995038e+00	 4.758589328887785e+00
 4.427705741816572e-01	 1.262085761202962e+00	 3.838796268097437e+00
 4.178941721535553e-01	 1.270539535345190e+00	 3.034568823054321e+00
 3.929734666636701e-01	 1.278467091675059e+00	 2.349571634068858e+00
 3.680241123304747e-01	 1.285871106582482e+00	 1.786642200234675e+00
 3.430614976218608e-01	 1.292754833234839e+00	 1.347791736168131e+00
 3.181007207303319e-01	 1.299122081051417e+00	 1.034211770565930e+00
 2.931565670254987e-01	 1.304977194136277e+00	 8.462862294879216e-01
 2.682434881216365e-01	 1.310325028795200e+00	 7.836087033141619e-01
 2.433755825876854e-01	 1.315170930262310e+00	 8.450045580257228e-01
 4.946272659523686e-01	 1.249403029553489e+00	 5.317033371769966e+00
 4.697717625747169e-01	 1.258959313707681e+00	 4.501747974400825e+00
 4.448395955563879e-01	 1.267983358215805e+00	 3.690437222892075e+00
 4.198469486591757e-01	 1.276476635975683e+00	 2.979018438947021e+00
 3.948097912746196e-01	 1.284441236961463e+00	 2.370880795537045e+00
 3.697438511736156e-01	 1.291879850069553e+00	 1.868645699821341e+00
 3.446645887327847e-01	 1.298795743669049e+00	 1.474166385796116e+00
 3.195871726969319e-01	 1.305192744980262e+00	 1.188533032731240e+00
 2.945264575261808e-01	 1.311075218406805e+00	 1.012083170539090e+00
 2.694969623657154e-01	 1.316448042947477e+00	 9.444170897157571e-01
 2.445128516656394e-01	 1.321316588814132e+00	 9.844179355298714e-01
 4.969278578870955e-01	 1.255214206432187e+00	 5.039010254564683e+00
 4.719567475171464e-01	 1.264814938419724e+00	 4.253308229992639e+00
 4.469086169314078e-01	 1.273880955227980e+00	 3.548173567927377e+00
 4.217997251649851e-01	 1.282413736605462e+00	 2.927424136291089e+00
 3.966461158856573e-01	 1.290415382247125e+00	 2.394176064717935e+00
 3.714635900167441e-01	 1.297888593555875e+00	 1.950836593244431e+00
 3.462676798435952e-01	 1.304836654102523e+00	 1.599102405836825e+00
 3.210736246633179e-01	 1.311263408908405e+00	 1.339963275992682e+00
 2.958963480265487e-01	 1.317173242676685e+00	 1.173710803636233e+00
 2.707504366093798e-01	 1.322571057099180e+00	 1.099951979542370e+00
 2.456501207430789e-01	 1.327462247365469e+00	 1.117627275797544e+00
 4.992284498223121e-01	 1.261025383310373e+00	 4.679955878956882e+00
 4.741417324599655e-01	 1.270670563131169e+00	 4.013164433256310e+00
 4.489776383067170e-01	 1.279778552239487e+00	 3.411928447135256e+00
 4.237525016709831e-01	 1.288350837234525e+00	 2.879735747874127e+00
 3.984824404967830e-01	 1.296389527532046e+00	 2.419431832181402e+00
 3.731833288598599e-01	 1.303897337041450e+00	 2.033211689363188e+00
 3.478707709542924e-01	 1.310877564535264e+00	 1.722616880587319e+00
 3.225600766294902e-01	 1.317334072835848e+00	 1.488537718771575e+00
 2.972662385266022e-01	 1.323271266945917e+00	 1.331220346314262e+00
 2.720039108526294e-01	 1.328694071250305e+00	 1.250278465306069e+00
 2.467873898200036e-01	 1.333607905916321e+00	 1.244709437459858e+00
 5.015290417580184e-01	 1.266836560188050e+00	 4.331503116019082e+00
 4.763267174031743e-01	 1.276526187842013e+00	 3.781213249707841e+00
 4.510466596823156e-01	 1.285676149250326e+00	 3.281626767753872e+00
 4.257052781771699e-01	 1.294287937862873e+00	 2.835904345279207e+00
 4.003187651079970e-01	 1.302363672816225e+00	 2.446623243259617e+00
 3.749030677029633e-01	 1.309906080526277e+00	 2.115768108522118e+00
 3.494738620648765e-01	 1.316918474967270e+00	 1.844726803462233e+00
 3.240465285954486e-01	 1.323404736762591e+00	 1.634291127227091e+00
 2.986361290263415e-01	 1.329369291214502e+00	 1.484662243412237e+00
 2.732573850954645e-01	 1.334817085400855e+00	 1.395460587219423e+00
 2.479246588964137e-01	 1.339753564466688e+00	 1.365739987852355e+00
 5.038296336942143e-01	 1.272647737065215e+00	 3.993521195779818e+00
 4.785117023467727e-01	 1.282381812552258e+00	 3.557353619637145e+00
 4.531156810582034e-01	 1.291573746260498e+00	 3.157195160068701e+00
 4.276580546835455e-01	 1.300225038490505e+00	 2.795882210601100e+00
 4.021550897192990e-01	 1.308337818099662e+00	 2.475726180819641e+00
 3.766228065460540e-01	 1.315914824010355e+00	 2.198503275436467e+00
 3.510769531753474e-01	 1.322959385398542e+00	 1.965449079069270e+00
 3.255329805611931e-01	 1.329475400688632e+00	 1.777257825577703e+00
 3.000060195257663e-01	 1.335467315482438e+00	 1.634086184716093e+00
 2.745108593378850e-01	 1.340940099550828e+00	 1.535561357218796e+00
 2.490619279723092e-01	 1.345899223016569e+00	 1.480793232495451e+00
 5.061302256309002e-01	 1.278458913941872e+00	 3.665882148371622e+00
 4.806966872907608e-01	 1.288237437261904e+00	 3.341486706408269e+00
 4.551847024343805e-01	 1.297471343270002e+00	 3.038561938253414e+00
 4.296108311901099e-01	 1.306162139117423e+00	 2.759622808935483e+00
 4.039914143306892e-01	 1.314311963382357e+00	 2.506717248497811e+00
 3.783425453891321e-01	 1.321923567493685e+00	 2.281414912275887e+00
 3.526800442857051e-01	 1.329000295829079e+00	 2.084800525228527e+00
 3.270194325267239e-01	 1.335546064613972e+00	 1.917471706149003e+00
 3.013759100248770e-01	 1.341565339749727e+00	 1.779541122118356e+00
 2.757643335798909e-01	 1.347063113700226e+00	 1.670642782335769e+00
 2.501991970476900e-01	 1.352044881565965e+00	 1.589942243771817e+00
 2.388265062707223e-01	 1.290588296050167e+00	 2.237265859211117e-01
 2.144812217047879e-01	 1.294856770278347e+00	 3.805184068829233e-01
 1.902068293282647e-01	 1.298644528759439e+00	 5.027716515650278e-01
 1.660160275848855e-01	 1.301958113222162e+00	 5.884195921338595e-01
 1.419211090703709e-01	 1.304804448490407e+00	 6.352577851700536e-01
 1.179339497318526e-01	 1.307190817555246e+00	 6.409575994521226e-01
 9.406599964678142e-02	 1.309124836564689e+00	 6.030810090710073e-01
 7.032827534826916e-02	 1.310614429833036e+00	 5.190964327343552e-01
 4.673135365743648e-02	 1.311667804966393e+00	 3.863954003753047e-01
 2.328536697759787e-02	 1.312293428195356e+00	 2.023098312599021e-01
 0.000000000000000e+00	 1.312500000000000e+00	-3.587028655689761e-02
 2.399637753507351e-01	 1.296733954603930e+00	 3.887516037493013e-01
 2.155025608585439e-01	 1.301022754899641e+00	 5.097700647052206e-01
 1.911125761375011e-01	 1.304828550325684e+00	 6.014288241298669e-01
 1.668065801001212e-01	 1.308157913761865e+00	 6.617911637113389e-01
 1.425969238782971e-01	 1.311017803007429e+00	 6.887556273289557e-01
 1.184955399712918e-01	 1.313415535734357e+00	 6.800702726459849e-01
 9.451393298073690e-02	 1.315358764358030e+00	 6.333482954727008e-01
 7.066317189942789e-02	 1.316855450927578e+00	 5.460847963425552e-01
 4.695388391430273e-02	 1.317913842132943e+00	 4.156744588817780e-01
 2.339624967821792e-02	 1.318542444520106e+00	 2.394299126664117e-01
 0.000000000000000e+00	 1.318750000000000e+00	 1.460055904995738e-02
 2.411010444302332e-01	 1.302879613157209e+00	 5.472516175710100e-01
 2.165239000117013e-01	 1.307188739520545e+00	 6.334852720058921e-01
 1.920183229460866e-01	 1.311012571891622e+00	 6.955008343205411e-01
 1.675971326146847e-01	 1.314357714301335e+00	 7.314911737187297e-01
 1.432727386855606e-01	 1.317231157524282e+00	 7.394574457817285e-01
 1.190571302101076e-01	 1.319640253913352e+00	 7.172240674076751e-01
 9.496186631413750e-02	 1.321592692151297e+00	 6.624551720050977e-01
 7.099806845012901e-02	 1.323096472022077e+00	 5.726723029367649e-01
 4.717641417083670e-02	 1.324159879299474e+00	 4.452731032584347e-01
 2.350713237865846e-02	 1.324791460844853e+00	 2.775507629302905e-01
 0.000000000000000e+00	 1.325000000000000e+00	 6.671399061480177e-02
 2.422383135092166e-01	 1.309025271710002e+00	 6.993089630453855e-01
 2.175452391642600e-01	 1.313354724141057e+00	 7.517317131515804e-01
 1.929240697540212e-01	 1.317196593457252e+00	 7.850415418894054e-01
 1.683876851285763e-01	 1.320557514840572e+00	 7.975604934245228e-01
 1.439485534921612e-01	 1.323444512040963e+00	 7.873919665058060e-01
 1.196187204482998e-01	 1.325864972092228e+00	 7.524364123645644e-01
 9.540979964698310e-02	 1.327826619944489e+00	 6.904086203871935e-01
 7.133296500037242e-02	 1.329337493116535e+00	 5.988563381015011e-01
 4.739894442703836e-02	 1.330405916465988e+00	 4.751799719744785e-01
 2.361801507891946e-02	 1.331040477169594e+00	 3.166531186799797e-01
 0.000000000000000e+00	 1.331250000000000e+00	 1.204436825528243e-01
 2.433755825876854e-01	 1.315170930262310e+00	 8.450045580257228e-01
 2.185665783162203e-01	 1.319520708761180e+00	 8.645759070251968e-01
 1.938298165613050e-01	 1.323380615022576e+00	 8.701038800284955e-01
 1.691782376417957e-01	 1.326757315379574e+00	 8.600392929089336e-01
 1.446243682980991e-01	 1.329657866557475e+00	 8.325874260070045e-01
 1.201803106858685e-01	 1.332089690270987e+00	 7.857244446593312e-01
 9.585773297927377e-02	 1.334060547737606e+00	 7.172155150663915e-01
 7.166786155015821e-02	 1.335578514210952e+00	 6.246343505758649e-01
 4.762147468290773e-02	 1.336651953632483e+00	 5.053839233172739e-01
 2.372889777900094e-02	 1.337289493494331e+00	 3.567180793062825e-01
 0.000000000000000e+00	 1.337500000000000e+00	 1.757638013462874e-01
 2.445128516656394e-01	 1.321316588814132e+00	 9.844179355298714e-01
 2.195879174675819e-01	 1.325686693380911e+00	 9.720832341332011e-01
 1.947355633679378e-01	 1.329564636587593e+00	 9.507398769151008e-01
 1.699687901543431e-01	 1.332957115918344e+00	 9.189670573702167e-01
 1.453001831033742e-01	 1.335871221073816e+00	 8.750715827046007e-01
 1.207419009228137e-01	 1.338314408449628e+00	 8.171050167296192e-01
 9.630566631100955e-02	 1.340294475530648e+00	 7.428826257134666e-01
 7.200275809948638e-02	 1.341819535305326e+00	 6.500038507886632e-01
 4.784400493844480e-02	 1.342897990798959e+00	 5.358740302807468e-01
 2.383978047890289e-02	 1.343538509819063e+00	 3.977270985277709e-01
 0.000000000000000e+00	 1.343750000000000e+00	 2.326489941009728e-01
 2.456501207430789e-01	 1.327462247365469e+00	 1.117627275797544e+00
 2.206092566183449e-01	 1.331852678000251e+00	 1.074317962954052e+00
 1.956413101739197e-01	 1.335748658152303e+00	 1.027000676662176e+00
 1.707593426662184e-01	 1.339156916456880e+00	 9.743826029781693e-01
 1.459759979079865e-01	 1.342084575589986e+00	 9.148717279954668e-01
 1.213034911591353e-01	 1.344539126628152e+00	 8.465947028974219e-01
 9.675359964219032e-02	 1.346528403323616e+00	 7.674166196475398e-01
 7.233765464835687e-02	 1.348060556399659e+00	 6.749624094267790e-01
 4.806653519364956e-02	 1.349144027965417e+00	 5.666395755962749e-01
 2.395066317862532e-02	 1.349787526143790e+00	 4.396619761883089e-01
 0.000000000000000e+00	 1.350000000000000e+00	 2.910743774206640e-01
 2.467873898200036e-01	 1.333607905916321e+00	 1.244709437459858e+00
 2.216305957685093e-01	 1.338018662619201e+00	 1.171343275562462e+00
 1.965470569792508e-01	 1.341932679716706e+00	 1.098936559688590e+00
 1.715498951774215e-01	 1.345356716995183e+00	 1.026324092290729e+00
 1.466518127119361e-01	 1.348297930105986e+00	 9.520146970175061e-01
 1.218650813948335e-01	 1.350763844806558e+00	 8.742098057779104e-01
 9.720153297281622e-02	 1.352762331116509e+00	 7.908240641945612e-01
 7.267255119676969e-02	 1.354301577493949e+00	 6.995076560495251e-01
 4.828906544852202e-02	 1.355390065131856e+00	 5.976700468978533e-01
 2.406154587816823e-02	 1.356036542468514e+00	 4.825048502813628e-01
 0.000000000000000e+00	 1.356250000000000e+00	 3.510155265896610e-01
 2.479246588964137e-01	 1.339753564466688e+00	 1.365739987852355e+00
 2.226519349180751e-01	 1.344184647237759e+00	 1.263221292546219e+00
 1.974528037839310e-01	 1.348116701280802e+00	 1.166596962527704e+00
 1.723404476879526e-01	 1.351556517533252e+00	 1.074829049244075e+00
 1.473276275152229e-01	 1.354511284621816e+00	 9.865268791124718e-01
 1.224266716299081e-01	 1.356988562984847e+00	 8.999663625105346e-01
 9.764946630288715e-02	 1.358996258909327e+00	 8.131114289811315e-01
 7.300744774472488e-02	 1.360542598588198e+00	 7.236372777363727e-01
 4.851159570306221e-02	 1.361636102298277e+00	 6.289551320248685e-01
 2.417242857753161e-02	 1.362285558793232e+00	 5.262381891952309e-01
 0.000000000000000e+00	 1.362500000000000e+00	 4.124484650520580e-01
 2.490619279723092e-01	 1.345899223016569e+00	 1.480793232495451e+00
 2.236732740670424e-01	 1.350350631855927e+00	 1.350013097241633e+00
 1.983585505879603e-01	 1.354300722844592e+00	 1.230030497095328e+00
 1.731310001978117e-01	 1.357756318071088e+00	 1.119934373733324e+00
 1.480034423178470e-01	 1.360724639137475e+00	 1.018434228005550e+00
 1.229882618643592e-01	 1.363213281163017e+00	 9.238801508222798e-01
 9.809739963240316e-02	 1.365230186702070e+00	 8.342850881648499e-01
 7.334234429222242e-02	 1.366783619682406e+00	 7.473490177747052e-01
 4.873412595727009e-02	 1.367882139464680e+00	 6.604847144497774e-01
 2.428331127671546e-02	 1.368534575117946e+00	 5.708447841689027e-01
 0.000000000000000e+00	 1.368750000000000e+00	 4.753496541802220e-01
 2.501991970476900e-01	 1.352044881565965e+00	 1.589942243771817e+00
 2.246946132154111e-01	 1.356516616473704e+00	 1.431778759306499e+00
 1.992642973913387e-01	 1.360484744408075e+00	 1.289284969430521e+00
 1.739215527069986e-01	 1.363956118608690e+00	 1.161676355795455e+00
 1.486792571198083e-01	 1.366937993652964e+00	 1.047762271703834e+00
 1.235498520981868e-01	 1.369437999341071e+00	 9.459666949193142e-01
 9.854533296136422e-02	 1.371464114494739e+00	 8.543513226027402e-01
 7.367724083926232e-02	 1.373024640776572e+00	 7.706406743829864e-01
 4.895665621114569e-02	 1.374128176631064e+00	 6.922488688324208e-01
 2.439419397571979e-02	 1.374783591442656e+00	 6.163077419546832e-01
 0.000000000000000e+00	 1.375000000000000e+00	 5.396959833210433e-01
 1.375000000000000e+00	 0.000000000000000e+00	 1.612040839123407e+01
 1.374783591442656e+00	 2.439419397571901e-02	 1.625580256884786e+01
 1.374128176631065e+00	 4.895665621114498e-02	 1.635370549875151e+01
 1.373024640776572e+00	 7.367724083926172e-02	 1.641231869722153e+01
 1.371464114494739e+00	 9.854533296136368e-02	 1.642995734927018e+01
 1.369437999341071e+00	 1.235498520981864e-01	 1.640505963249531e+01
 1.366937993652964e+00	 1.486792571198079e-01	 1.633619546973589e+01
 1.363956118608690e+00	 1.739215527069983e-01	 1.622207461071408e+01
 1.360484744408075e+00	 1.992642973913386e-01	 1.606155394436118e+01
 1.356516616473704e+00	 2.246946132154110e-01	 1.585364394637994e+01
 1.352044881565965e+00	 2.501991970476900e-01	 1.559751417084695e+01
 1.381250000000000e+00	 0.000000000000000e+00	 1.602301549003435e+01
 1.381032607767365e+00	 2.450507667472334e-02	 1.616075959363943e+01
 1.380374213797448e+00	 4.917918646502058e-02	 1.626070854319797e+01
 1.379265661870738e+00	 7.401213738630162e-02	 1.632108845453860e+01
 1.377698042287408e+00	 9.899326629032473e-02	 1.634024289541791e+01
 1.375662717519124e+00	 1.241114423320140e-01	 1.631664226957709e+01
 1.373151348168453e+00	 1.493550719217692e-01	 1.624889260757133e+01
 1.370155919146292e+00	 1.747121052161853e-01	 1.613574366278574e+01
 1.366668765971558e+00	 2.001700441947170e-01	 1.597609621266917e+01
 1.362682601091481e+00	 2.257159523637796e-01	 1.576900846820659e+01
 1.358190540115361e+00	 2.513364661230708e-01	 1.551370149905945e+01
 1.387500000000000e+00	 0.000000000000000e+00	 1.592805086415737e+01
 1.387281624092079e+00	 2.461595937390718e-02	 1.606826650551654e+01
 1.386620250963851e+00	 4.940171671922845e-02	 1.617038313146677e+01
 1.385506682964945e+00	 7.434703393379914e-02	 1.623265140715678e+01
 1.383931970080151e+00	 9.944119961984073e-02	 1.625344324595725e+01
 1.381887435697295e+00	 1.246730325664651e-01	 1.623126125424733e+01
 1.379364702684112e+00	 1.500308867243932e-01	 1.616474756083839e+01
 1.376355719684127e+00	 1.755026577260442e-01	 1.605269192767027e+01
 1.372852787535346e+00	 2.010757909987462e-01	 1.589403904013735e+01
 1.368848585709649e+00	 2.267372915127469e-01	 1.568789487852152e+01
 1.364336198665242e+00	 2.524737351989661e-01	 1.543353207658032e+01
 1.393750000000000e+00	 0.000000000000000e+00	 1.583546984328279e+01
 1.393530640416798e+00	 2.472684207327057e-02	 1.597827629008259e+01
 1.392866288130272e+00	 4.962424697376861e-02	 1.608267981979935e+01
 1.391747704059194e+00	 7.468193048175430e-02	 1.614695559915262e+01
 1.390165897872969e+00	 9.988913294991165e-02	 1.616950385281226e+01
 1.388112153875584e+00	 1.252346228015397e-01	 1.614885936944141e+01
 1.385578057199942e+00	 1.507067015276800e-01	 1.608370037013825e+01
 1.382555520222197e+00	 1.762932102365753e-01	 1.597285663412077e+01
 1.379036809099443e+00	 2.019815378034264e-01	 1.581531677832755e+01
 1.375014570328208e+00	 2.277586306623127e-01	 1.561023459086005e+01
 1.370481857215608e+00	 2.536110042753762e-01	 1.535693432292433e+01
 1.400000000000000e+00	 0.000000000000000e+00	 1.574522855477442e+01
 1.399779656741521e+00	 2.483772477281347e-02	 1.589074276271916e+01
 1.399112325296712e+00	 4.984677722864109e-02	 1.599755002720208e+01
 1.397988725153484e+00	 7.501682703016717e-02	 1.606394997121604e+01
 1.396399825665862e+00	 1.003370662805375e-01	 1.608837109919586e+01
 1.394336872053990e+00	 1.257962130372379e-01	 1.606938036484954e+01
 1.391791411715942e+00	 1.513825163316296e-01	 1.600569207904351e+01
 1.388755320760499e+00	 1.770837627477785e-01	 1.589617605078521e+01
 1.385220830663846e+00	 2.028872846087575e-01	 1.573986485628144e+01
 1.381180554947157e+00	 2.287799698124770e-01	 1.553596013443544e+01
 1.376627515766460e+00	 2.547482733523009e-01	 1.528383781204295e+01
 1.406250000000000e+00	 0.000000000000000e+00	 1.565728390595386e+01
 1.406028673066248e+00	 2.494860747253589e-02	 1.580562055014666e+01
 1.405358362463170e+00	 5.006930748384587e-02	 1.591494601627383e+01
 1.404229746247817e+00	 7.535172357903763e-02	 1.598358434072547e+01
 1.402633753458830e+00	 1.007849996117184e-01	 1.600999227891473e+01
 1.400561590232514e+00	 1.263578032735595e-01	 1.599276893543348e+01
 1.398004766232112e+00	 1.520583311362419e-01	 1.593066471180948e+01
 1.394955121299035e+00	 1.778743152596537e-01	 1.582258946309768e+01
 1.391404852228556e+00	 2.037930314147395e-01	 1.566761975657680e+01
 1.387346539566497e+00	 2.298013089632401e-01	 1.546500512934588e+01
 1.382773174317797e+00	 2.558855424297404e-01	 1.521417324667046e+01
 1.412500000000000e+00	 0.000000000000000e+00	 1.557159356684478e+01
 1.412277689390981e+00	 2.505949017243785e-02	 1.572286507247425e+01
 1.411604399629646e+00	 5.029183773938292e-02	 1.583482087454245e+01
 1.410470767342191e+00	 7.568662012836579e-02	 1.590580938235212e+01
 1.408867681251872e+00	 1.012329329434541e-01	 1.593431557622321e+01
 1.406786308411154e+00	 1.269193935105047e-01	 1.591897070051321e+01
 1.404218120748453e+00	 1.527341459415170e-01	 1.585856125167810e+01
 1.401154921837804e+00	 1.786648677722011e-01	 1.575203715078293e+01
 1.397588873793573e+00	 2.046987782213723e-01	 1.559851899201906e+01
 1.393512524186229e+00	 2.308226481146017e-01	 1.539730426244000e+01
 1.388918832869620e+00	 2.570228115076946e-01	 1.514787243335077e+01
 1.418750000000000e+00	 0.000000000000000e+00	 1.548811595337347e+01
 1.418526705715717e+00	 2.517037287251933e-02	 1.564243252572429e+01
 1.417850436796141e+00	 5.051436799525229e-02	 1.575712849629447e+01
 1.416711788436608e+00	 7.602151667815157e-02	 1.583057660917690e+01
 1.415101609044989e+00	 1.016808662757448e-01	 1.586129004620997e+01
 1.413011026589914e+00	 1.274809837480734e-01	 1.584793218340693e+01
 1.410431475264964e+00	 1.534099607474549e-01	 1.578932561975455e+01
 1.407354722376808e+00	 1.794554202854205e-01	 1.568446036595604e+01
 1.403772895358897e+00	 2.056045250286560e-01	 1.553250108294906e+01
 1.399678508806351e+00	 2.318439872665619e-01	 1.533279326382005e+01
 1.395064491421928e+00	 2.581600805861633e-01	 1.508486825812441e+01
 1.425000000000000e+00	 0.000000000000000e+00	 1.540681021101119e+01
 1.424775722040459e+00	 2.528125557278033e-02	 1.556427986481687e+01
 1.424096473962654e+00	 5.073689825145396e-02	 1.568182356488305e+01
 1.422952809531066e+00	 7.635641322839502e-02	 1.575783835430428e+01
 1.421335536838181e+00	 1.021287996085904e-01	 1.579086559570088e+01
 1.419235744768790e+00	 1.280425739862656e-01	 1.577960079160627e+01
 1.416644829781647e+00	 1.540857755540556e-01	 1.572290265444022e+01
 1.413554522916044e+00	 1.802459727993121e-01	 1.561980131179769e+01
 1.409956916924528e+00	 2.065102718365906e-01	 1.546950553514801e+01
 1.405844493426863e+00	 2.328653264191207e-01	 1.527140888396376e+01
 1.401210149974721e+00	 2.592973496651468e-01	 1.502509466285540e+01
 1.431250000000000e+00	 0.000000000000000e+00	 1.532763619884527e+01
 1.431024738365205e+00	 2.539213827322085e-02	 1.548836478699979e+01
 1.430342511129185e+00	 5.095942850798790e-02	 1.560886153549940e+01
 1.429193830625566e+00	 7.669130977909612e-02	 1.568754775295768e+01
 1.427569464631448e+00	 1.025767329419910e-01	 1.572299296466198e+01
 1.425460462947784e+00	 1.286041642250814e-01	 1.571392479747141e+01
 1.422858184298499e+00	 1.547615903613190e-01	 1.565923809140440e+01
 1.419754323455514e+00	 1.810365253138757e-01	 1.555800312178884e+01
 1.416140938490465e+00	 2.074160186451761e-01	 1.540947281832137e+01
 1.412010478047766e+00	 2.338866655722781e-01	 1.521308887144503e+01
 1.407355808527999e+00	 2.604346187446449e-01	 1.496848662217827e+01
 1.437500000000000e+00	 0.000000000000000e+00	 1.525055447406571e+01
 1.437273754689956e+00	 2.550302097384090e-02	 1.541464571571113e+01
 1.436588548295736e+00	 5.118195876485416e-02	 1.553819861839384e+01
 1.435434851720107e+00	 7.702620633025486e-02	 1.561965872504237e+01
 1.433803392424789e+00	 1.030246662759464e-01	 1.565762370808783e+01
 1.431685181126896e+00	 1.291657544645206e-01	 1.565085331942935e+01
 1.429071538815521e+00	 1.554374051692452e-01	 1.559827854407839e+01
 1.425954123995218e+00	 1.818270778291114e-01	 1.549900983948660e+01
 1.422324960056710e+00	 2.083217654544126e-01	 1.535234434514376e+01
 1.418176462669061e+00	 2.349080047260341e-01	 1.515777195123658e+01
 1.413501467081764e+00	 2.615718878246577e-01	 1.491498012104667e+01
 1.352044881565965e+00	 2.501991970476900e-01	 1.559751417084695e+01
 1.347063113700226e+00	 2.757643335798901e-01	 1.579139939442928e+01
 1.341565339749727e+00	 3.013759100248763e-01	 1.593773842078609e+01
 1.335546064613972e+00	 3.270194325267234e-01	 1.603583710642106e+01
 1.329000295829080e+00	 3.526800442857046e-01	 1.608515775504970e+01
 1.321923567493685e+00	 3.783425453891318e-01	 1.608531919944001e+01
 1.314311963382357e+00	 4.039914143306890e-01	 1.603609561889070e+01
 1.306162139117423e+00	 4.296108311901097e-01	 1.593741407062406e+01
 1.297471343270002e+00	 4.551847024343806e-01	 1.578935072768989e+01
 1.288237437261903e+00	 4.806966872907608e-01	 1.559212583110633e+01
 1.278458913941872e+00	 5.061302256309002e-01	 1.534609737969802e+01
 1.358190540115361e+00	 2.513364661230708e-01	 1.551370149905945e+01
 1.353186127849626e+00	 2.770178078218983e-01	 1.570828884834191e+01
 1.347663364017024e+00	 3.027458005239962e-01	 1.585640159931192e+01
 1.341616728539333e+00	 3.285058844922754e-01	 1.595726081028965e+01
 1.335041206259655e+00	 3.542831353961002e-01	 1.601023906640429e+01
 1.327932310977075e+00	 3.800622842322698e-01	 1.601486065798166e+01
 1.320286108665139e+00	 4.058277389421656e-01	 1.597080051562473e+01
 1.312099239744460e+00	 4.315636076967925e-01	 1.587788188077600e+01
 1.303368940279661e+00	 4.572537238107131e-01	 1.573607270479492e+01
 1.294093061971747e+00	 4.828816722349465e-01	 1.554548078462637e+01
 1.284270090818772e+00	 5.084308175678308e-01	 1.530634765877453e+01
 1.364336198665242e+00	 2.524737351989661e-01	 1.543353207658032e+01
 1.359309141999607e+00	 2.782712820643258e-01	 1.562829124540533e+01
 1.353761388284989e+00	 3.041156910234494e-01	 1.577763474559507e+01
 1.347687392465439e+00	 3.299923364580840e-01	 1.588069983502733e+01
 1.341082116691042e+00	 3.558862265066854e-01	 1.593677044253976e+01
 1.333941054461333e+00	 3.817820230755401e-01	 1.594527744045645e+01
 1.326260253948836e+00	 4.076640635537275e-01	 1.590579769441186e+01
 1.318036340372447e+00	 4.335163842035232e-01	 1.581805186977484e+01
 1.309266537290299e+00	 4.593227451870668e-01	 1.568190098814826e+01
 1.299948686682584e+00	 4.850666571791373e-01	 1.549734174237721e+01
 1.290081267696672e+00	 5.107314095047611e-01	 1.526450059405332e+01
 1.370481857215608e+00	 2.536110042753762e-01	 1.535693432292433e+01
 1.365432156150168e+00	 2.795247563071725e-01	 1.555134072837607e+01
 1.359859412553620e+00	 3.054855815232357e-01	 1.570137785302892e+01
 1.353758056392287e+00	 3.314787884241489e-01	 1.580610014563803e+01
 1.347123027123238e+00	 3.574893176174600e-01	 1.586470393421851e+01
 1.339949797946458e+00	 3.835017619189425e-01	 1.587652779030744e+01
 1.332234399233448e+00	 4.095003881653743e-01	 1.584105169067984e+01
 1.323973441001387e+00	 4.354691607103021e-01	 1.575789495633597e+01
 1.315164134301916e+00	 4.613917665634422e-01	 1.562681296268037e+01
 1.305804311394416e+00	 4.872516421233336e-01	 1.544769262969756e+01
 1.295892444575573e+00	 5.130320014416919e-01	 1.522054671639230e+01
 1.376627515766460e+00	 2.547482733523009e-01	 1.528383781204295e+01
 1.371555170301310e+00	 2.807782305504387e-01	 1.547737247714042e+01
 1.365957436822919e+00	 3.068554720233552e-01	 1.562757183219418e+01
 1.359828720319880e+00	 3.329652403904703e-01	 1.573340850189440e+01
 1.353163937556245e+00	 3.590924087284239e-01	 1.579399226224475e+01
 1.345958541432452e+00	 3.852215007624771e-01	 1.580857049416278e+01
 1.338208544518974e+00	 4.113367127771062e-01	 1.577652745424305e+01
 1.329910541631279e+00	 4.374219372171289e-01	 1.569738234301676e+01
 1.321061731314511e+00	 4.634607879398391e-01	 1.557078616508015e+01
 1.311659936107243e+00	 4.894366270675354e-01	 1.539651739027417e+01
 1.301703621455474e+00	 5.153325933786226e-01	 1.517447644048281e+01
 1.382773174317797e+00	 2.558855424297404e-01	 1.521417324667046e+01
 1.377678184453033e+00	 2.820317047941241e-01	 1.540632268566662e+01
 1.372055461092884e+00	 3.082253625238078e-01	 1.555615849047688e+01
 1.365899384248215e+00	 3.344516923570482e-01	 1.566257244067598e+01
 1.359204847990063e+00	 3.606954998395774e-01	 1.572458880257469e+01
 1.351967284919313e+00	 3.869412396061441e-01	 1.574136486976521e+01
 1.344182689805416e+00	 4.131730373889231e-01	 1.571219034009352e+01
 1.335847642262123e+00	 4.393747137240041e-01	 1.563648550990948e+01
 1.326959328328084e+00	 4.655298093162573e-01	 1.551379828042232e+01
 1.317515560821064e+00	 4.916216120117423e-01	 1.534379998573434e+01
 1.307514798336374e+00	 5.176331853155530e-01	 1.512628006743112e+01
 1.388918832869620e+00	 2.570228115076946e-01	 1.514787243335077e+01
 1.383801198605336e+00	 2.832851790382287e-01	 1.533812853956989e+01
 1.378153485363516e+00	 3.095952530245936e-01	 1.548708051222748e+01
 1.371970048177294e+00	 3.359381443238827e-01	 1.559354025877677e+01
 1.365245758424692e+00	 3.622985909509202e-01	 1.565644757182202e+01
 1.357976028407042e+00	 3.886609784499432e-01	 1.567487075422145e+01
 1.350156835092773e+00	 4.150093620008250e-01	 1.564800609943730e+01
 1.341784742893919e+00	 4.413274902309270e-01	 1.557517620850097e+01
 1.332856925342636e+00	 4.675988306926970e-01	 1.545582713888464e+01
 1.323371185535879e+00	 4.938065969559547e-01	 1.528952439524893e+01
 1.313325975218275e+00	 5.199337772524837e-01	 1.507594778727143e+01
 1.395064491421928e+00	 2.581600805861633e-01	 1.508486825812441e+01
 1.389924212758221e+00	 2.845386532827527e-01	 1.527272819426952e+01
 1.384251509634814e+00	 3.109651435257125e-01	 1.542028143944457e+01
 1.378040712107117e+00	 3.374245962909735e-01	 1.552626099616695e+01
 1.371286668860131e+00	 3.639016820624525e-01	 1.558952321314643e+01
 1.363984771895638e+00	 3.903807172938745e-01	 1.560904849256275e+01
 1.356130980381045e+00	 4.168456866128121e-01	 1.558394087096684e+01
 1.347721843526666e+00	 4.432802667378981e-01	 1.551342645569467e+01
 1.338754522358166e+00	 4.696678520691583e-01	 1.539685071255180e+01
 1.329226810251690e+00	 4.959915819001726e-01	 1.523367461514576e+01
 1.319137152101175e+00	 5.222343691894142e-01	 1.502346968141229e+01
 1.401210149974721e+00	 2.592973496651468e-01	 1.502509466285540e+01
 1.396047226911685e+00	 2.857921275276960e-01	 1.521006075372158e+01
 1.390349533906780e+00	 3.123350340271647e-01	 1.535570565296687e+01
 1.384111376037683e+00	 3.389110482583209e-01	 1.546068441969516e+01
 1.377327579296380e+00	 3.655047731741742e-01	 1.552377098251376e+01
 1.369993515385103e+00	 3.921004561379380e-01	 1.554385892660596e+01
 1.362105125670231e+00	 4.186820112248841e-01	 1.551996117236375e+01
 1.353658944160366e+00	 4.452330432449173e-01	 1.545120852799035e+01
 1.344652119374675e+00	 4.717368734456409e-01	 1.533684711230343e+01
 1.335082434968495e+00	 4.981765668443958e-01	 1.517623465853358e+01
 1.324948328985076e+00	 5.245349611263449e-01	 1.496883572501888e+01
 1.407355808527999e+00	 2.604346187446449e-01	 1.496848662217827e+01
 1.402170241065731e+00	 2.870456017730587e-01	 1.515006624970842e+01
 1.396447558179412e+00	 3.137049245289500e-01	 1.529329835415772e+01
 1.390182039968992e+00	 3.403975002259247e-01	 1.539676100721777e+01
 1.383368489733441e+00	 3.671078642860854e-01	 1.545914673531579e+01
 1.376002258875435e+00	 3.938201949821338e-01	 1.547926338410679e+01
 1.368079270960332e+00	 4.205183358370412e-01	 1.545603389202382e+01
 1.359596044795017e+00	 4.471858197519847e-01	 1.538849495581588e+01
 1.350549716392163e+00	 4.738058948221451e-01	 1.527579458478359e+01
 1.340938059686295e+00	 5.003615517886245e-01	 1.511718855493564e+01
 1.330759505869976e+00	 5.268355530632755e-01	 1.491203578933262e+01
 1.413501467081764e+00	 2.615718878246577e-01	 1.491498012104667e+01
 1.408293255220358e+00	 2.882990760188405e-01	 1.509268562166842e+01
 1.402545582452712e+00	 3.150748150310687e-01	 1.523300554706771e+01
 1.396252703901046e+00	 3.418839521937852e-01	 1.533444193214230e+01
 1.389409400171311e+00	 3.687109553981860e-01	 1.539560691333919e+01
 1.382011002366635e+00	 3.955399338264619e-01	 1.541522366819589e+01
 1.374053416251349e+00	 4.223546604492833e-01	 1.539212628099810e+01
 1.365533145430621e+00	 4.491385962590999e-01	 1.532525851800689e+01
 1.356447313410629e+00	 4.758749161986708e-01	 1.521367150944949e+01
 1.346793684405089e+00	 5.025465367328585e-01	 1.505652034993277e+01
 1.336570682755877e+00	 5.291361450002061e-01	 1.485305964393043e+01
 1.278458913941872e+00	 5.061302256309002e-01	 1.534609737969802e+01
 1.268134914712668e+00	 5.314685672938273e-01	 1.506165608420857e+01
 1.257265245088787e+00	 5.566948027665093e-01	 1.471597057944454e+01
 1.245850388570336e+00	 5.817918951274083e-01	 1.440073358569718e+01
 1.233891518724545e+00	 6.067427131481519e-01	 1.418704956572910e+01
 1.221390509372735e+00	 6.315300654405880e-01	 1.399527019129285e+01
 1.208349942789196e+00	 6.561367355249965e-01	 1.399803655849898e+01
 1.194773115827342e+00	 6.805455176867415e-01	 1.398196001171979e+01
 1.180664043898490e+00	 7.047392534804007e-01	 1.395192414386748e+01
 1.166027462739399e+00	 7.287008687329783e-01	 1.391280976185634e+01
 1.150868827916379e+00	 7.524134108913275e-01	 1.386946864990592e+01
 1.284270090818772e+00	 5.084308175678308e-01	 1.530634765877453e+01
 1.273899164320742e+00	 5.338843335112962e-01	 1.503457173122749e+01
 1.262980087108079e+00	 5.592252336908833e-01	 1.470226623369978e+01
 1.251513344878617e+00	 5.844364037445010e-01	 1.431143695643700e+01
 1.239500116533984e+00	 6.095006345745566e-01	 1.408255293717134e+01
 1.226942284412871e+00	 6.344006566502240e-01	 1.393957408002286e+01
 1.213842442527176e+00	 6.591191752350567e-01	 1.394971577512313e+01
 1.200203902716014e+00	 6.836389064066248e-01	 1.394243528364236e+01
 1.186030698642567e+00	 7.079426137265713e-01	 1.392269754725791e+01
 1.171327587569675e+00	 7.320131454120232e-01	 1.389546013631624e+01
 1.156100049861672e+00	 7.558334718527737e-01	 1.386564653151392e+01
 1.290081267696672e+00	 5.107314095047611e-01	 1.526450059405332e+01
 1.279663413929810e+00	 5.363000997287651e-01	 1.500549859513872e+01
 1.268694929128350e+00	 5.617556646152571e-01	 1.468667883354112e+01
 1.257176301187853e+00	 5.870809123615933e-01	 1.431012089602182e+01
 1.245108714344344e+00	 6.122585560009611e-01	 1.397873254645492e+01
 1.232494059453884e+00	 6.372712478598600e-01	 1.388107817427510e+01
 1.219334942265980e+00	 6.621016149451170e-01	 1.389860927520084e+01
 1.205634689605445e+00	 6.867322951265079e-01	 1.390013859559341e+01
 1.191397353387330e+00	 7.111459739727419e-01	 1.389071255033292e+01
 1.176627712400551e+00	 7.353254220910681e-01	 1.387536559030385e+01
 1.161331271807471e+00	 7.592535328142199e-01	 1.385909300118462e+01
 1.295892444575573e+00	 5.130320014416919e-01	 1.522054671639230e+01
 1.285427663539874e+00	 5.387158659462338e-01	 1.497442426892093e+01
 1.274409771149602e+00	 5.642860955396309e-01	 1.466919311586308e+01
 1.262839257498046e+00	 5.897254209786860e-01	 1.430700680048993e+01
 1.250717312155628e+00	 6.150164774273658e-01	 1.389018184099022e+01
 1.238045834495775e+00	 6.401418390694961e-01	 1.381976595053176e+01
 1.224827442005608e+00	 6.650840546551771e-01	 1.384469846738662e+01
 1.211065476495635e+00	 6.898256838463910e-01	 1.385504940499994e+01
 1.196764008132779e+00	 7.143493342189123e-01	 1.385594678124295e+01
 1.181927837232027e+00	 7.386376987701130e-01	 1.385250204971101e+01
 1.166562493753775e+00	 7.626735937756662e-01	 1.384978241432879e+01
 1.301703621455474e+00	 5.153325933786226e-01	 1.517447644048281e+01
 1.291191913150932e+00	 5.411316321637026e-01	 1.494133626540810e+01
 1.280124613171834e+00	 5.668165264640049e-01	 1.464979377215711e+01
 1.268502213809195e+00	 5.923699295957787e-01	 1.430207662830206e+01
 1.256325909967832e+00	 6.177743988537704e-01	 1.390057421088039e+01
 1.243597609538544e+00	 6.430124302791322e-01	 1.375562093564347e+01
 1.230319941746060e+00	 6.680664943652374e-01	 1.378796483956333e+01
 1.216496263386585e+00	 6.929190725662742e-01	 1.380714727572887e+01
 1.202130662878911e+00	 7.175526944650831e-01	 1.381837800007611e+01
 1.187227962064104e+00	 7.419499754491581e-01	 1.382684559609042e+01
 1.171793715700584e+00	 7.660936547371126e-01	 1.383768930390720e+01
 1.307514798336374e+00	 5.176331853155530e-01	 1.512628006743112e+01
 1.296956162762986e+00	 5.435473983811714e-01	 1.490622201907056e+01
 1.285839455195048e+00	 5.693469573883787e-01	 1.462846544952079e+01
 1.274165170121301e+00	 5.950144382128715e-01	 1.429531232616630e+01
 1.261934507780960e+00	 6.205323202801751e-01	 1.390922506802148e+01
 1.249149384582191e+00	 6.458830214887679e-01	 1.368862670571033e+01
 1.235812441487336e+00	 6.710489340752979e-01	 1.372838995708176e+01
 1.221927050278294e+00	 6.960124612861573e-01	 1.375641187572168e+01
 1.207497317625729e+00	 7.207560547112536e-01	 1.377798409592636e+01
 1.192528086896780e+00	 7.452622521282031e-01	 1.379837246319579e+01
 1.177024937647899e+00	 7.695137156985589e-01	 1.382278837648562e+01
 1.313325975218275e+00	 5.199337772524837e-01	 1.507594778727143e+01
 1.302720412376035e+00	 5.459631645986402e-01	 1.486906888774864e+01
 1.291554297219242e+00	 5.718773883127527e-01	 1.460519275163972e+01
 1.279828126434363e+00	 5.976589468299638e-01	 1.428669582929822e+01
 1.267543105595009e+00	 6.232902417065795e-01	 1.391611377240246e+01
 1.254701159626717e+00	 6.487536126984043e-01	 1.370824450467153e+01
 1.241304941229435e+00	 6.740313737853578e-01	 1.366595546104626e+01
 1.227357837170762e+00	 6.991058500060402e-01	 1.370282297469168e+01
 1.212863972373232e+00	 7.239594149574241e-01	 1.373474308403939e+01
 1.197828211730057e+00	 7.485745288072478e-01	 1.376705903361535e+01
 1.182256159595719e+00	 7.729337766600055e-01	 1.380505450839360e+01
 1.319137152101175e+00	 5.222343691894142e-01	 1.502346968141229e+01
 1.308484661990080e+00	 5.483789308161091e-01	 1.482986415434077e+01
 1.297269139244416e+00	 5.744078192371266e-01	 1.457996023974400e+01
 1.285491082748381e+00	 6.003034554470567e-01	 1.427620906167386e+01
 1.273151703409980e+00	 6.260481631329843e-01	 1.392917691190065e+01
 1.260252934672119e+00	 6.516242039080401e-01	 1.373919134740727e+01
 1.246797440972357e+00	 6.770138134954182e-01	 1.360064306664675e+01
 1.232788624063990e+00	 7.021992387259236e-01	 1.364636044188256e+01
 1.218230627121419e+00	 7.271627752035947e-01	 1.368863310303388e+01
 1.203128336563934e+00	 7.518868054862928e-01	 1.373288183549303e+01
 1.187487381544044e+00	 7.763538376214514e-01	 1.378446274198533e+01
 1.324948328985076e+00	 5.245349611263449e-01	 1.496883572501888e+01
 1.314248911605120e+00	 5.507946970335781e-01	 1.478859502844668e+01
 1.302983981270572e+00	 5.769382501615004e-01	 1.455275243353921e+01
 1.291154039063356e+00	 6.029479640641492e-01	 1.426383393627629e+01
 1.278760301225874e+00	 6.288060845593889e-01	 1.395115325626714e+01
 1.265804709718400e+00	 6.544947951176762e-01	 1.376516276814267e+01
 1.252289940716104e+00	 6.799962532054784e-01	 1.357353639741426e+01
 1.238219410957978e+00	 7.052926274458067e-01	 1.358700424388561e+01
 1.223597281870291e+00	 7.303661354497651e-01	 1.363963241219617e+01
 1.208428461398411e+00	 7.551990821653378e-01	 1.369581753933656e+01
 1.192718603492874e+00	 7.797738985828978e-01	 1.376098828199881e+01
 1.330759505869976e+00	 5.268355530632755e-01	 1.491203578933262e+01
 1.320013161221155e+00	 5.532104632510469e-01	 1.474524864796788e+01
 1.308698823297708e+00	 5.794686810858742e-01	 1.452355381211286e+01
 1.296816995379287e+00	 6.055924726812419e-01	 1.424955235533566e+01
 1.284368899042690e+00	 6.315640059857937e-01	 1.396808452135613e+01
 1.271356484765559e+00	 6.573653863273122e-01	 1.378621190799825e+01
 1.257782440460674e+00	 6.829786929155387e-01	 1.359966122178932e+01
 1.243650197852724e+00	 7.083860161656897e-01	 1.352473444251428e+01
 1.228963936619848e+00	 7.335694956959358e-01	 1.358771938884519e+01
 1.213728586233489e+00	 7.585113588443829e-01	 1.365584295490914e+01
 1.197949825442210e+00	 7.831939595443440e-01	 1.373460649201017e+01
 1.336570682755877e+00	 5.291361450002061e-01	 1.485305964393043e+01
 1.325777410838185e+00	 5.556262294685158e-01	 1.469981208066647e+01
 1.314413665325824e+00	 5.819991120102481e-01	 1.449234881481770e+01
 1.302479951696174e+00	 6.082369812983345e-01	 1.423334621056281e+01
 1.289977496860428e+00	 6.343219274121985e-01	 1.398002415115730e+01
 1.276908259813596e+00	 6.602359775369483e-01	 1.380239195217523e+01
 1.263274940206069e+00	 6.859611326255990e-01	 1.362102431765004e+01
 1.249080984748231e+00	 7.114794048855729e-01	 1.345953119273399e+01
 1.234330591370090e+00	 7.367728559421065e-01	 1.353287252576693e+01
 1.219028711069166e+00	 7.618236355234280e-01	 1.361293502820231e+01
 1.203181047392051e+00	 7.866140205057904e-01	 1.370529289098074e+01
 1.150868827916379e+00	 7.524134108913275e-01	 1.386946864990592e+01
 1.135194312025773e+00	 7.758600865535584e-01	 1.334633388671106e+01
 1.119010799564737e+00	 7.990242990192603e-01	 1.287554845787378e+01
 1.102325879458094e+00	 8.218896856909991e-01	 1.246044922864462e+01
 1.085147835240981e+00	 8.444401551573475e-01	 1.210407029057626e+01
 1.067485632912430e+00	 8.666599237864125e-01	 1.180912393657125e+01
 1.049348906487999e+00	 8.885335516599899e-01	 1.157798364273850e+01
 1.030747941294040e+00	 9.100459776802332e-01	 1.141266921902151e+01
 1.011693655060161e+00	 9.311825536839636e-01	 1.131483427035786e+01
 9.921975768801612e-01	 9.519290774042841e-01	 1.128575608797252e+01
 9.722718241249999e-01	 9.722718241250000e-01	 1.132632806658077e+01
 1.156100049861672e+00	 7.558334718527737e-01	 1.386564653151392e+01
 1.140354286172117e+00	 7.793867233133236e-01	 1.335049403492073e+01
 1.124097212291288e+00	 8.026562276537506e-01	 1.288694710627590e+01
 1.107336451639120e+00	 8.256255479011780e-01	 1.247831898054952e+01
 1.090080325403184e+00	 8.482785195013993e-01	 1.212762195160043e+01
 1.072337840337052e+00	 8.705992870787405e-01	 1.183754840942388e+01
 1.054118674247262e+00	 8.925723405335509e-01	 1.161045388070500e+01
 1.035433159211647e+00	 9.141825503084495e-01	 1.144834223454561e+01
 1.016292262585860e+00	 9.354152016576956e-01	 1.135285319500824e+01
 9.967075658686718e-01	 9.562560277586354e-01	 1.132525227993516e+01
 9.766912415099999e-01	 9.766912415099999e-01	 1.136642326165245e+01
 1.161331271807471e+00	 7.592535328142199e-01	 1.385909300118462e+01
 1.145514260318869e+00	 7.829133600730888e-01	 1.335169577782232e+01
 1.129183625018162e+00	 8.062881562882408e-01	 1.289518244934912e+01
 1.112347023820395e+00	 8.293614101113566e-01	 1.249284323304124e+01
 1.095012815565571e+00	 8.521168838454509e-01	 1.214766917157839e+01
 1.077190047761802e+00	 8.745386503710683e-01	 1.186233322943691e+01
 1.058888442006607e+00	 8.966111294071121e-01	 1.163917338945338e+01
 1.040118377129301e+00	 9.183191229366652e-01	 1.148017791135658e+01
 1.020890870111580e+00	 9.396478496314279e-01	 1.138697289381208e+01
 1.001217554857188e+00	 9.605829781129869e-01	 1.136081225931550e+01
 9.811106588949999e-01	 9.811106588949999e-01	 1.140257025738850e+01
 1.166562493753775e+00	 7.626735937756662e-01	 1.384978241432879e+01
 1.150674234466033e+00	 7.864399968328540e-01	 1.334991527371313e+01
 1.134270037745361e+00	 8.099200849227309e-01	 1.290023229422358e+01
 1.117357596001919e+00	 8.330972723215352e-01	 1.250400128449942e+01
 1.099945305728141e+00	 8.559552481895029e-01	 1.216419257934357e+01
 1.082042255186680e+00	 8.784780136633965e-01	 1.188346019221882e+01
 1.063658209766032e+00	 9.006499182806732e-01	 1.166412496514794e+01
 1.044803595047000e+00	 9.224556955648811e-01	 1.150815987776379e+01
 1.025489477637320e+00	 9.438804976051598e-01	 1.141717765698191e+01
 1.005727543845708e+00	 9.649099284673383e-01	 1.139242080652244e+01
 9.855300762799999e-01	 9.855300762799999e-01	 1.143475415159511e+01
 1.171793715700584e+00	 7.660936547371126e-01	 1.383768930390720e+01
 1.155834208613606e+00	 7.899666335926191e-01	 1.334512882063680e+01
 1.139356450472885e+00	 8.135520135572212e-01	 1.290207455329170e+01
 1.122368168183692e+00	 8.368331345317139e-01	 1.251177250748521e+01
 1.104877795890894e+00	 8.597936125335544e-01	 1.217717285030879e+01
 1.086894462611684e+00	 8.824173769557242e-01	 1.190091111590301e+01
 1.068427977525540e+00	 9.046887071542343e-01	 1.168529140602791e+01
 1.049488812964745e+00	 9.265922681930969e-01	 1.153227174735734e+01
 1.030088085163080e+00	 9.481131455788923e-01	 1.144345174691274e+01
 1.010237532834234e+00	 9.692368788216899e-01	 1.142006266477625e+01
 9.899494936650000e-01	 9.899494936650000e-01	 1.146295999926663e+01
 1.177024937647899e+00	 7.695137156985589e-01	 1.382278837648562e+01
 1.160994182761590e+00	 7.934932703523844e-01	 1.333731285327850e+01
 1.144442863200734e+00	 8.171839421917112e-01	 1.290068724186940e+01
 1.127378740365715e+00	 8.405689967418930e-01	 1.251613634709267e+01
 1.109810286053830e+00	 8.636319768776062e-01	 1.218659070543178e+01
 1.091746670036817e+00	 8.863567402480522e-01	 1.191466784064687e+01
 1.073197745285130e+00	 9.087274960277958e-01	 1.170265551236190e+01
 1.054174030882536e+00	 9.307288408213130e-01	 1.155249711933524e+01
 1.034686692688861e+00	 9.523457935526245e-01	 1.146577939879980e+01
 1.014747521822765e+00	 9.735638291760412e-01	 1.144372254093360e+01
 9.943689110499998e-01	 9.943689110499998e-01	 1.148717281353663e+01
 1.182256159595719e+00	 7.729337766600055e-01	 1.380505450839360e+01
 1.166154156909983e+00	 7.970199071121491e-01	 1.332644393994120e+01
 1.149529275928907e+00	 8.208158708262014e-01	 1.289604847591866e+01
 1.132389312547985e+00	 8.443048589520714e-01	 1.251707231934431e+01
 1.114742776216950e+00	 8.674703412216576e-01	 1.219242691020721e+01
 1.096598877462076e+00	 8.902961035403801e-01	 1.192471222814492e+01
 1.077967513044800e+00	 9.127662849013570e-01	 1.171620008640200e+01
 1.058859248800373e+00	 9.348654134495288e-01	 1.156881957882173e+01
 1.039285300214663e+00	 9.565784415263566e-01	 1.148414482124057e+01
 1.019257510811301e+00	 9.778907795303925e-01	 1.146338510629361e+01
 9.987883284349999e-01	 9.987883284349999e-01	 1.150737756660431e+01
 1.187487381544044e+00	 7.763538376214514e-01	 1.378446274198533e+01
 1.171314131058787e+00	 8.005465438719146e-01	 1.331249877960309e+01
 1.154615688657405e+00	 8.244477994606917e-01	 1.288813646983076e+01
 1.137399884730505e+00	 8.480407211622503e-01	 1.251456000962857e+01
 1.119675266380252e+00	 8.713087055657096e-01	 1.219466227368613e+01
 1.101451084887463e+00	 8.942354668327080e-01	 1.193102616115411e+01
 1.082737280804553e+00	 9.168050737749180e-01	 1.172590793234135e+01
 1.063544466718256e+00	 9.390019860777447e-01	 1.158122269717743e+01
 1.043883907740484e+00	 9.608110895000885e-01	 1.149853219682078e+01
 1.023767499799842e+00	 9.822177298847439e-01	 1.147903499737996e+01
 1.003207745820000e+00	 1.003207745820000e+00	 1.152355919063614e+01
 1.192718603492874e+00	 7.797738985828978e-01	 1.376098828199881e+01
 1.176474105208001e+00	 8.040731806316798e-01	 1.329545419905167e+01
 1.159702101386227e+00	 8.280797280951818e-01	 1.287692953426786e+01
 1.142410456913274e+00	 8.517765833724290e-01	 1.250857907117860e+01
 1.124607756543738e+00	 8.751470699097612e-01	 1.219327764751997e+01
 1.106303292312977e+00	 8.981748301250361e-01	 1.193359154303211e+01
 1.087507048564387e+00	 9.208438626484794e-01	 1.173176185627070e+01
 1.068229684636184e+00	 9.431385587059604e-01	 1.158969003230095e+01
 1.048482515266327e+00	 9.650437374738212e-01	 1.150892568268421e+01
 1.028277488788389e+00	 9.865446802390954e-01	 1.149065681670389e+01
 1.007627163205000e+00	 1.007627163205000e+00	 1.153570257864342e+01
 1.197949825442210e+00	 7.831939595443440e-01	 1.373460649201017e+01
 1.181634079357625e+00	 8.075998173914450e-01	 1.327528715009304e+01
 1.164788514115374e+00	 8.317116567296722e-01	 1.286240607406060e+01
 1.147421029096291e+00	 8.555124455826076e-01	 1.249910922359130e+01
 1.129540246707407e+00	 8.789854342538130e-01	 1.218825392503128e+01
 1.111155499738618e+00	 9.021141934173639e-01	 1.193239029728744e+01
 1.092276816324302e+00	 9.248826515220406e-01	 1.173374466613726e+01
 1.072914902554159e+00	 9.472751313341764e-01	 1.159420512892290e+01
 1.053081122792189e+00	 9.692763854475532e-01	 1.151530941108892e+01
 1.032787477776940e+00	 9.908716305934469e-01	 1.149823513350684e+01
 1.012046580590000e+00	 1.012046580590000e+00	 1.154379258533756e+01
 1.203181047392051e+00	 7.866140205057904e-01	 1.370529289098074e+01
 1.186794053507660e+00	 8.111264541512102e-01	 1.325197470683435e+01
 1.169874926844846e+00	 8.353435853641624e-01	 1.284454458616169e+01
 1.152431601279559e+00	 8.592483077927865e-01	 1.248613025138437e+01
 1.134472736871259e+00	 8.828237985978646e-01	 1.217957204030719e+01
 1.116007707164387e+00	 9.060535567096920e-01	 1.192740436714123e+01
 1.097046584084299e+00	 9.289214403956018e-01	 1.173183917170434e+01
 1.077600120472180e+00	 9.514117039623922e-01	 1.159475151889241e+01
 1.057679730318073e+00	 9.735090334212855e-01	 1.151766748994793e+01
 1.037297466765497e+00	 9.951985809477983e-01	 1.150175448448344e+01
 1.016465997975000e+00	 1.016465997975000e+00	 1.154781402796255e+01
 9.722718241249999e-01	 9.722718241250000e-01	 1.132632806658077e+01
 9.519290774042841e-01	 9.921975768801613e-01	 1.108856614481531e+01
 9.311825536839639e-01	 1.011693655060161e+00	 1.080375165274982e+01
 9.100459776802337e-01	 1.030747941294040e+00	 1.046686550326445e+01
 8.885335516599900e-01	 1.049348906487999e+00	 1.007299874233273e+01
 8.666599237864128e-01	 1.067485632912429e+00	 9.617375273861841e+00
 8.444401551573480e-01	 1.085147835240981e+00	 9.095374287499213e+00
 8.218896856909996e-01	 1.102325879458094e+00	 8.502552221812994e+00
 7.990242990192606e-01	 1.119010799564737e+00	 7.834664096438063e+00
 7.758600865535590e-01	 1.135194312025773e+00	 7.087684049901343e+00
 7.524134108913275e-01	 1.150868827916379e+00	 6.257824924906886e+00
 9.766912415099999e-01	 9.766912415099999e-01	 1.136642326165245e+01
 9.562560277586355e-01	 9.967075658686718e-01	 1.111151596993363e+01
 9.354152016576956e-01	 1.016292262585860e+00	 1.081426273211242e+01
 9.141825503084493e-01	 1.035433159211647e+00	 1.046977981899266e+01
 8.925723405335512e-01	 1.054118674247262e+00	 1.007327513739634e+01
 8.705992870787408e-01	 1.072337840337052e+00	 9.620070551061120e+00
 8.482785195013998e-01	 1.090080325403184e+00	 9.105624012263434e+00
 8.256255479011786e-01	 1.107336451639120e+00	 8.525551337663643e+00
 8.026562276537511e-01	 1.124097212291287e+00	 7.875647462079593e+00
 7.793867233133243e-01	 1.140354286172116e+00	 7.151907006077193e+00
 7.558334718527737e-01	 1.156100049861672e+00	 6.350543997395929e+00
 9.811106588949999e-01	 9.811106588949999e-01	 1.140257025738850e+01
 9.605829781129870e-01	 1.001217554857188e+00	 1.113114001753774e+01
 9.396478496314277e-01	 1.020890870111580e+00	 1.082204525401632e+01
 9.183191229366653e-01	 1.040118377129301e+00	 1.047053642857524e+01
 8.966111294071121e-01	 1.058888442006606e+00	 1.007193719751556e+01
 8.745386503710685e-01	 1.077190047761802e+00	 9.621666332684306e+00
 8.521168838454513e-01	 1.095012815565571e+00	 9.115259560727186e+00
 8.293614101113571e-01	 1.112347023820395e+00	 8.548391155151133e+00
 8.062881562882414e-01	 1.129183625018162e+00	 7.916895115003528e+00
 7.829133600730896e-01	 1.145514260318869e+00	 7.216785765202167e+00
 7.592535328142201e-01	 1.161331271807471e+00	 6.444277616753920e+00
 9.855300762799999e-01	 9.855300762799999e-01	 1.143475415159511e+01
 9.649099284673383e-01	 1.005727543845708e+00	 1.114741533127071e+01
 9.438804976051600e-01	 1.025489477637320e+00	 1.082706870893875e+01
 9.224556955648811e-01	 1.044803595047000e+00	 1.046909778421840e+01
 9.006499182806736e-01	 1.063658209766032e+00	 1.006894086400139e+01
 8.784780136633965e-01	 1.082042255186679e+00	 9.622112587550987e+00
 8.559552481895034e-01	 1.099945305728141e+00	 9.124225477163250e+00
 8.330972723215360e-01	 1.117357596001919e+00	 8.571011349978633e+00
 8.099200849227313e-01	 1.134270037745361e+00	 7.958342424826077e+00
 7.864399968328548e-01	 1.150674234466033e+00	 7.282251958259689e+00
 7.626735937756665e-01	 1.166562493753775e+00	 6.538954246225867e+00
 9.899494936650000e-01	 9.899494936650000e-01	 1.146295999926663e+01
 9.692368788216895e-01	 1.010237532834234e+00	 1.116031905649518e+01
 9.481131455788923e-01	 1.030088085163080e+00	 1.082930282532094e+01
 9.265922681930970e-01	 1.049488812964745e+00	 1.046542670379383e+01
 9.046887071542349e-01	 1.068427977525540e+00	 1.006424256275760e+01
 8.824173769557243e-01	 1.086894462611684e+00	 9.621359879017307e+00
 8.597936125335547e-01	 1.104877795890894e+00	 9.132467001155806e+00
 8.368331345317145e-01	 1.122368168183692e+00	 8.593352384605168e+00
 8.135520135572217e-01	 1.139356450472884e+00	 7.999925629898710e+00
 7.899666335926200e-01	 1.155834208613606e+00	 7.348238157372479e+00
 7.660936547371126e-01	 1.171793715700584e+00	 6.634503352934907e+00
 9.943689110499998e-01	 9.943689110499998e-01	 1.148717281353663e+01
 9.735638291760411e-01	 1.014747521822765e+00	 1.116982843803321e+01
 9.523457935526246e-01	 1.034686692688861e+00	 1.082871756427940e+01
 9.307288408213129e-01	 1.054174030882536e+00	 1.045948636271221e+01
 9.087274960277958e-01	 1.073197745285129e+00	 1.005779919351173e+01
 8.863567402480523e-01	 1.091746670036816e+00	 9.619359351762233e+00
 8.636319768776065e-01	 1.109810286053830e+00	 9.139930052147223e+00
 8.405689967418934e-01	 1.127378740365714e+00	 8.615355490761615e+00
 8.171839421917121e-01	 1.144442863200733e+00	 8.041581818002561e+00
 7.934932703523850e-01	 1.160994182761589e+00	 7.414677854886605e+00
 7.695137156985589e-01	 1.177024937647899e+00	 6.730855385574923e+00
 9.987883284349999e-01	 9.987883284349999e-01	 1.150737756660431e+01
 9.778907795303925e-01	 1.019257510811301e+00	 1.117592081796556e+01
 9.565784415263565e-01	 1.039285300214663e+00	 1.082528311445859e+01
 9.348654134495289e-01	 1.058859248800373e+00	 1.045124028601374e+01
 9.127662849013571e-01	 1.077967513044800e+00	 1.004956811933116e+01
 8.902961035403805e-01	 1.096598877462076e+00	 9.616062718927957e+00
 8.674703412216582e-01	 1.114742776216949e+00	 9.146561214398012e+00
 8.443048589520721e-01	 1.132389312547985e+00	 8.636962652431201e+00
 8.208158708262021e-01	 1.149529275928906e+00	 8.083248907555546e+00
 7.970199071121501e-01	 1.166154156909983e+00	 7.481505443013077e+00
 7.729337766600054e-01	 1.182256159595719e+00	 6.827941752694051e+00
 1.003207745820000e+00	 1.003207745820000e+00	 1.152355919063614e+01
 9.822177298847440e-01	 1.023767499799843e+00	 1.117857363348981e+01
 9.608110895000884e-01	 1.043883907740484e+00	 1.081896988701936e+01
 9.390019860777449e-01	 1.063544466718255e+00	 1.044065234066665e+01
 9.168050737749183e-01	 1.082737280804552e+00	 1.003950715641927e+01
 8.942354668327084e-01	 1.101451084887463e+00	 9.611422249597833e+00
 8.713087055657097e-01	 1.119675266380252e+00	 9.152307722343206e+00
 8.480407211622506e-01	 1.137399884730505e+00	 8.658116589281059e+00
 8.244477994606924e-01	 1.154615688657404e+00	 8.124865629317092e+00
 8.005465438719155e-01	 1.171314131058787e+00	 7.548656194006632e+00
 7.763538376214514e-01	 1.187487381544044e+00	 6.925694801552384e+00
 1.007627163205000e+00	 1.007627163205000e+00	 1.153570257864342e+01
 9.865446802390953e-01	 1.028277488788389e+00	 1.117776441483404e+01
 9.650437374738209e-01	 1.048482515266327e+00	 1.080974851075912e+01
 9.431385587059605e-01	 1.068229684636184e+00	 1.042768672806887e+01
 9.208438626484795e-01	 1.087507048564386e+00	 1.002757456417622e+01
 8.981748301250362e-01	 1.106303292312976e+00	 9.605390756605205e+00
 8.751470699097615e-01	 1.124607756543738e+00	 9.157117446333551e+00
 8.517765833724296e-01	 1.142410456913274e+00	 8.678760740527437e+00
 8.280797280951826e-01	 1.159702101386227e+00	 8.166371508572716e+00
 8.040731806316804e-01	 1.176474105208001e+00	 7.616066240867941e+00
 7.797738985828977e-01	 1.192718603492874e+00	 7.024047797536438e+00
 1.012046580590000e+00	 1.012046580590000e+00	 1.154379258533756e+01
 9.908716305934467e-01	 1.032787477776941e+00	 1.117347078322576e+01
 9.692763854475531e-01	 1.053081122792190e+00	 1.079758982735964e+01
 9.472751313341764e-01	 1.072914902554159e+00	 1.041230797674607e+01
 9.248826515220406e-01	 1.092276816324302e+00	 1.001372903552442e+01
 9.021141934173643e-01	 1.111155499738618e+00	 9.597921584660474e+00
 8.789854342538133e-01	 1.129540246707406e+00	 9.160938878751120e+00
 8.555124455826082e-01	 1.147421029096291e+00	 8.698839249226321e+00
 8.317116567296727e-01	 1.164788514115374e+00	 8.207706847787424e+00
 8.075998173914459e-01	 1.181634079357625e+00	 7.683672558547777e+00
 7.831939595443440e-01	 1.197949825442210e+00	 7.122934904112610e+00
 1.016465997975000e+00	 1.016465997975000e+00	 1.154781402796255e+01
 9.951985809477983e-01	 1.037297466765497e+00	 1.116567044891380e+01
 9.735090334212854e-01	 1.057679730318073e+00	 1.078246488675964e+01
 9.514117039623926e-01	 1.077600120472180e+00	 1.039448093524003e+01
 9.289214403956021e-01	 1.097046584084299e+00	 9.997929687481889e+00
 9.060535567096923e-01	 1.116007707164387e+00	 9.588968598789116e+00
 8.828237985978652e-01	 1.134472736871258e+00	 9.163721120487530e+00
 8.592483077927872e-01	 1.152431601279558e+00	 8.718296946971549e+00
 8.353435853641630e-01	 1.169874926844845e+00	 8.248812709709343e+00
 8.111264541512111e-01	 1.186794053507659e+00	 7.751412945645658e+00
 7.866140205057904e-01	 1.203181047392051e+00	 7.222291163303188e+00
 7.524134108913275e-01	 1.150868827916379e+00	 6.257824924906886e+00
 7.287008687329781e-01	 1.166027462739399e+00	 5.737756867343085e+00
 7.047392534804008e-01	 1.180664043898489e+00	 5.393087063941176e+00
 6.805455176867417e-01	 1.194773115827342e+00	 5.227234064950960e+00
 6.561367355249966e-01	 1.208349942789195e+00	 5.242789279653696e+00
 6.315300654405884e-01	 1.221390509372735e+00	 5.441526351420860e+00
 6.067427131481523e-01	 1.233891518724545e+00	 5.712425154127683e+00
 5.817918951274088e-01	 1.245850388570336e+00	 6.091872417502940e+00
 5.566948027665101e-01	 1.257265245088788e+00	 5.519954263521193e+00
 5.314685672938282e-01	 1.268134914712668e+00	 4.504894195182414e+00
 5.061302256309002e-01	 1.278458913941872e+00	 3.665882148371622e+00
 7.558334718527737e-01	 1.156100049861672e+00	 6.350543997395929e+00
 7.320131454120230e-01	 1.171327587569675e+00	 5.897914576088148e+00
 7.079426137265714e-01	 1.186030698642568e+00	 5.622375912167762e+00
 6.836389064066248e-01	 1.200203902716013e+00	 5.527247568495562e+00
 6.591191752350567e-01	 1.213842442527175e+00	 5.615014913506831e+00
 6.344006566502244e-01	 1.226942284412870e+00	 5.887339056109248e+00
 6.095006345745568e-01	 1.239500116533983e+00	 6.251705129892860e+00
 5.844364037445016e-01	 1.251513344878616e+00	 6.487410431361651e+00
 5.592252336908839e-01	 1.262980087108078e+00	 5.364033611841829e+00
 5.338843335112970e-01	 1.273899164320741e+00	 4.411167264459555e+00
 5.084308175678307e-01	 1.284270090818772e+00	 3.635103171520849e+00
 7.592535328142201e-01	 1.161331271807471e+00	 6.444277616753920e+00
 7.353254220910680e-01	 1.176627712400551e+00	 6.059055113233887e+00
 7.111459739727419e-01	 1.191397353387331e+00	 5.852613635559139e+00
 6.867322951265080e-01	 1.205634689605445e+00	 5.828173678345749e+00
 6.621016149451171e-01	 1.219334942265980e+00	 5.988114486309280e+00
 6.372712478598603e-01	 1.232494059453884e+00	 6.333984550123496e+00
 6.122585560009616e-01	 1.245108714344344e+00	 6.791201508123308e+00
 5.870809123615939e-01	 1.257176301187853e+00	 6.272875389689508e+00
 5.617556646152578e-01	 1.268694929128350e+00	 5.210643744903176e+00
 5.363000997287658e-01	 1.279663413929810e+00	 4.319660690467156e+00
 5.107314095047613e-01	 1.290081267696673e+00	 3.606234059052218e+00
 7.626735937756665e-01	 1.166562493753775e+00	 6.538954246225867e+00
 7.386376987701131e-01	 1.181927837232027e+00	 6.221109150681146e+00
 7.143493342189123e-01	 1.196764008132779e+00	 6.083733261361829e+00
 6.898256838463911e-01	 1.211065476495635e+00	 6.129947917565275e+00
 6.650840546551774e-01	 1.224827442005608e+00	 6.362026150878588e+00
 6.401418390694964e-01	 1.238045834495775e+00	 6.781403743147526e+00
 6.150164774273663e-01	 1.250717312155627e+00	 7.227222159468248e+00
 5.897254209786869e-01	 1.262839257498046e+00	 6.061168340065596e+00
 5.642860955396317e-01	 1.274409771149602e+00	 5.059773650449651e+00
 5.387158659462348e-01	 1.285427663539873e+00	 4.230363991570579e+00
 5.130320014416919e-01	 1.295892444575573e+00	 3.579264983114432e+00
 7.660936547371126e-01	 1.171793715700584e+00	 6.634503352934907e+00
 7.419499754491579e-01	 1.187227962064104e+00	 6.384008331448515e+00
 7.175526944650831e-01	 1.202130662878911e+00	 6.315668753037436e+00
 6.929190725662743e-01	 1.216496263386585e+00	 6.432506708471378e+00
 6.680664943652378e-01	 1.230319941746060e+00	 6.736688920348170e+00
 6.430124302791326e-01	 1.243597609538544e+00	 7.229538364355970e+00
 6.177743988537708e-01	 1.256325909967832e+00	 6.958510208757668e+00
 5.923699295957793e-01	 1.268502213809195e+00	 5.852278592449746e+00
 5.668165264640056e-01	 1.280124613171834e+00	 4.911413002868356e+00
 5.411316321637035e-01	 1.291191913150932e+00	 4.143267325364420e+00
 5.153325933786226e-01	 1.301703621455474e+00	 3.554186706275625e+00
 7.695137156985589e-01	 1.177024937647899e+00	 6.730855385574923e+00
 7.452622521282030e-01	 1.192528086896780e+00	 6.547685248092721e+00
 7.207560547112538e-01	 1.207497317625729e+00	 6.548354989459707e+00
 6.960124612861573e-01	 1.221927050278294e+00	 6.735787352651702e+00
 6.710489340752978e-01	 1.235812441487335e+00	 7.112042649049069e+00
 6.458830214887683e-01	 1.249149384582191e+00	 7.678330944203713e+00
 6.205323202801756e-01	 1.261934507780959e+00	 6.692909880143242e+00
 5.950144382128718e-01	 1.274165170121300e+00	 5.646196173080807e+00
 5.693469573883796e-01	 1.285839455195047e+00	 4.765552147929426e+00
 5.435473983811723e-01	 1.296956162762986e+00	 4.058361474466803e+00
 5.176331853155531e-01	 1.307514798336374e+00	 3.530990568403848e+00
 7.729337766600054e-01	 1.182256159595719e+00	 6.827941752694051e+00
 7.485745288072477e-01	 1.197828211730057e+00	 6.712073421701483e+00
 7.239594149574241e-01	 1.212863972373231e+00	 6.781727744661177e+00
 6.991058500060402e-01	 1.227357837170763e+00	 7.039728011510190e+00
 6.740313737853580e-01	 1.241304941229434e+00	 7.488028013897390e+00
 6.487536126984045e-01	 1.254701159626717e+00	 7.466370388109262e+00
 6.232902417065803e-01	 1.267543105595009e+00	 6.430411736881826e+00
 5.976589468299645e-01	 1.279828126434363e+00	 5.442911808627290e+00
 5.718773883127533e-01	 1.291554297219241e+00	 4.622182087933187e+00
 5.459631645986411e-01	 1.302720412376035e+00	 3.975637832691864e+00
 5.199337772524836e-01	 1.313325975218275e+00	 3.509668473894293e+00
 7.763538376214514e-01	 1.187487381544044e+00	 6.925694801552384e+00
 7.518868054862928e-01	 1.203128336563934e+00	 6.877107281440617e+00
 7.271627752035946e-01	 1.218230627121419e+00	 7.015723668115826e+00
 7.021992387259236e-01	 1.232788624063990e+00	 7.344267687329677e+00
 6.770138134954183e-01	 1.246797440972357e+00	 7.864586496277886e+00
 6.516242039080404e-01	 1.260252934672119e+00	 7.138484210376305e+00
 6.260481631329848e-01	 1.273151703409980e+00	 6.165447359774885e+00
 6.003034554470570e-01	 1.285491082748381e+00	 5.242416910762561e+00
 5.744078192371274e-01	 1.297269139244416e+00	 4.481294467248221e+00
 5.483789308161100e-01	 1.308484661990080e+00	 3.895088391586595e+00
 5.222343691894142e-01	 1.319137152101175e+00	 3.490212879235488e+00
 7.797738985828977e-01	 1.192718603492874e+00	 7.024047797536438e+00
 7.551990821653375e-01	 1.208428461398411e+00	 7.042722144640005e+00
 7.303661354497654e-01	 1.223597281870291e+00	 7.250280265541907e+00
 7.052926274458069e-01	 1.238219410957977e+00	 7.649346204830885e+00
 6.799962532054785e-01	 1.252289940716104e+00	 7.927875881974920e+00
 6.544947951176765e-01	 1.265804709718400e+00	 6.814571220945134e+00
 6.288060845593895e-01	 1.278760301225874e+00	 5.894943683080177e+00
 6.029479640641499e-01	 1.291154039063356e+00	 5.044703561139116e+00
 5.769382501615010e-01	 1.302983981270571e+00	 4.342881558232314e+00
 5.507946970335790e-01	 1.314248911605119e+00	 3.816705727323984e+00
 5.245349611263448e-01	 1.324948328985076e+00	 3.472616780901760e+00
 7.831939595443440e-01	 1.197949825442210e+00	 7.122934904112610e+00
 7.585113588443827e-01	 1.213728586233489e+00	 7.208854197402170e+00
 7.335694956959355e-01	 1.228963936619848e+00	 7.485335880205587e+00
 7.083860161656899e-01	 1.243650197852724e+00	 7.954904193215611e+00
 6.829786929155388e-01	 1.257782440460674e+00	 7.555423307968899e+00
 6.573653863273125e-01	 1.271356484765559e+00	 6.494603726940424e+00
 6.315640059857941e-01	 1.284368899042689e+00	 5.628146775138596e+00
 6.055924726812424e-01	 1.296816995379287e+00	 4.849764496763971e+00
 5.794686810858749e-01	 1.308698823297708e+00	 4.206936247519081e+00
 5.532104632510477e-01	 1.320013161221154e+00	 3.740482987937281e+00
 5.268355530632755e-01	 1.330759505869976e+00	 3.456873703562509e+00
 7.866140205057904e-01	 1.203181047392051e+00	 7.222291163303188e+00
 7.618236355234277e-01	 1.219028711069166e+00	 7.375440475715109e+00
 7.367728559421065e-01	 1.234330591370090e+00	 7.720829674713476e+00
 7.114794048855733e-01	 1.249080984748231e+00	 8.260883068677577e+00
 6.859611326255991e-01	 1.263274940206068e+00	 7.187118769422154e+00
 6.602359775369485e-01	 1.276908259813596e+00	 6.178554752674270e+00
 6.343219274121989e-01	 1.289977496860427e+00	 5.365030934140770e+00
 6.082369812983350e-01	 1.302479951696174e+00	 4.657593095749403e+00
 5.819991120102488e-01	 1.314413665325824e+00	 4.073452022666045e+00
 5.556262294685167e-01	 1.325777410838185e+00	 3.666413880888055e+00
 5.291361450002061e-01	 1.336570682755877e+00	 3.442977688600308e+00
 5.061302256309002e-01	 1.278458913941872e+00	 3.665882148371622e+00
 4.806966872907608e-01	 1.288237437261904e+00	 3.341486706408269e+00
 4.551847024343805e-01	 1.297471343270002e+00	 3.038561938253414e+00
 4.296108311901099e-01	 1.306162139117423e+00	 2.759622808935483e+00
 4.039914143306892e-01	 1.314311963382357e+00	 2.506717248497811e+00
 3.783425453891321e-01	 1.321923567493685e+00	 2.281414912275887e+00
 3.526800442857051e-01	 1.329000295829079e+00	 2.084800525228527e+00
 3.270194325267239e-01	 1.335546064613972e+00	 1.917471706149003e+00
 3.013759100248770e-01	 1.341565339749727e+00	 1.779541122118356e+00
 2.757643335798909e-01	 1.347063113700226e+00	 1.670642782335769e+00
 2.501991970476900e-01	 1.352044881565965e+00	 1.589942243771817e+00
 5.084308175678307e-01	 1.284270090818772e+00	 3.635103171520849e+00
 4.828816722349463e-01	 1.294093061971747e+00	 3.356780138999158e+00
 4.572537238107129e-01	 1.303368940279662e+00	 3.091601641270177e+00
 4.315636076967926e-01	 1.312099239744460e+00	 2.842089102746995e+00
 4.058277389421659e-01	 1.320286108665139e+00	 2.610322277679473e+00
 3.800622842322702e-01	 1.327932310977075e+00	 2.397926851022791e+00
 3.542831353961007e-01	 1.335041206259655e+00	 2.206066568437173e+00
 3.285058844922760e-01	 1.341616728539334e+00	 2.035439801464625e+00
 3.027458005239970e-01	 1.347663364017024e+00	 1.886280408163644e+00
 2.770178078218990e-01	 1.353186127849626e+00	 1.758362707834136e+00
 2.513364661230708e-01	 1.358190540115361e+00	 1.651010351356240e+00
 5.107314095047613e-01	 1.290081267696673e+00	 3.606234059052218e+00
 4.850666571791372e-01	 1.299948686682584e+00	 3.373185734667528e+00
 4.593227451870668e-01	 1.309266537290299e+00	 3.145043178923656e+00
 4.335163842035233e-01	 1.318036340372447e+00	 2.924335408835402e+00
 4.076640635537278e-01	 1.326260253948836e+00	 2.713174858339512e+00
 3.817820230755405e-01	 1.333941054461333e+00	 2.513243821574103e+00
 3.558862265066858e-01	 1.341082116691041e+00	 2.325785371806591e+00
 3.299923364580845e-01	 1.347687392465439e+00	 2.151598672232010e+00
 3.041156910234501e-01	 1.353761388284989e+00	 1.991038548728848e+00
 2.782712820643266e-01	 1.359309141999607e+00	 1.844019152649842e+00
 2.524737351989662e-01	 1.364336198665242e+00	 1.710021504135432e+00
 5.130320014416919e-01	 1.295892444575573e+00	 3.579264983114432e+00
 4.872516421233334e-01	 1.305804311394416e+00	 3.390701020864010e+00
 4.613917665634422e-01	 1.315164134301916e+00	 3.198890429045743e+00
 4.354691607103022e-01	 1.323973441001387e+00	 3.006370957028493e+00
 4.095003881653745e-01	 1.332234399233448e+00	 2.815288582525290e+00
 3.835017619189429e-01	 1.339949797946458e+00	 2.627382798998414e+00
 3.574893176174603e-01	 1.347123027123238e+00	 2.443976326691250e+00
 3.314787884241495e-01	 1.353758056392288e+00	 2.265969173581968e+00
 3.054855815232364e-01	 1.359859412553620e+00	 2.093836926110499e+00
 2.795247563071733e-01	 1.365432156150168e+00	 1.927633107087582e+00
 2.536110042753762e-01	 1.370481857215608e+00	 1.766995400162463e+00
 5.153325933786226e-01	 1.301703621455474e+00	 3.554186706275625e+00
 4.894366270675352e-01	 1.311659936107242e+00	 3.409323947930772e+00
 4.634607879398391e-01	 1.321061731314510e+00	 3.253147543865326e+00
 4.374219372171291e-01	 1.329910541631279e+00	 3.088205122106938e+00
 4.113367127771064e-01	 1.338208544518974e+00	 2.916677076804450e+00
 3.852215007624775e-01	 1.345958541432452e+00	 2.740360701394605e+00
 3.590924087284244e-01	 1.353163937556245e+00	 2.560658694799810e+00
 3.329652403904709e-01	 1.359828720319879e+00	 2.378571976983336e+00
 3.068554720233559e-01	 1.365957436822919e+00	 2.194696703379668e+00
 2.807782305504394e-01	 1.371555170301310e+00	 2.009225324877017e+00
 2.547482733523010e-01	 1.376627515766460e+00	 1.821951501506679e+00
 5.176331853155531e-01	 1.307514798336374e+00	 3.530990568403848e+00
 4.916216120117422e-01	 1.317515560821064e+00	 3.429052879702778e+00
 4.655298093162574e-01	 1.326959328328084e+00	 3.307818943911667e+00
 4.393747137240041e-01	 1.335847642262122e+00	 3.169847420580945e+00
 4.131730373889233e-01	 1.344182689805416e+00	 3.017354001499561e+00
 3.869412396061445e-01	 1.351967284919313e+00	 2.852194391156493e+00
 3.606954998395778e-01	 1.359204847990063e+00	 2.675851611078347e+00
 3.344516923570488e-01	 1.365899384248215e+00	 2.489427574322801e+00
 3.082253625238085e-01	 1.372055461092884e+00	 2.293638829253078e+00
 2.820317047941249e-01	 1.377678184453033e+00	 2.088816328431501e+00
 2.558855424297404e-01	 1.382773174317797e+00	 1.874909039498298e+00
 5.199337772524836e-01	 1.313325975218275e+00	 3.509668473894293e+00
 4.938065969559546e-01	 1.323371185535879e+00	 3.449886584363131e+00
 4.675988306926970e-01	 1.332856925342635e+00	 3.362909312078617e+00
 4.413274902309272e-01	 1.341784742893918e+00	 3.251307507556462e+00
 4.150093620008253e-01	 1.350156835092773e+00	 3.117333049940574e+00
 3.886609784499435e-01	 1.357976028407041e+00	 2.962900676205983e+00
 3.622985909509207e-01	 1.365245758424692e+00	 2.789574086512057e+00
 3.359381443238832e-01	 1.371970048177294e+00	 2.598556281879649e+00
 3.095952530245943e-01	 1.378153485363516e+00	 2.390684042835006e+00
 2.832851790382296e-01	 1.383801198605337e+00	 2.166426413963880e+00
 2.570228115076946e-01	 1.388918832869620e+00	 1.925887019832397e+00
 5.222343691894142e-01	 1.319137152101175e+00	 3.490212879235488e+00
 4.959915819001725e-01	 1.329226810251690e+00	 3.471824225533156e+00
 4.696678520691583e-01	 1.338754522358166e+00	 3.418423587845287e+00
 4.432802667378983e-01	 1.347721843526666e+00	 3.332595173681723e+00
 4.168456866128122e-01	 1.356130980381044e+00	 3.216627947737710e+00
 3.903807172938748e-01	 1.363984771895638e+00	 3.072496311191431e+00
 3.639016820624529e-01	 1.371286668860131e+00	 2.901845010858627e+00
 3.374245962909742e-01	 1.378040712107117e+00	 2.705978244191995e+00
 3.109651435257134e-01	 1.384251509634814e+00	 2.485852878235890e+00
 2.845386532827535e-01	 1.389924212758220e+00	 2.242075656470626e+00
 2.581600805861633e-01	 1.395064491421928e+00	 1.974904227539918e+00
 5.245349611263448e-01	 1.324948328985076e+00	 3.472616780901760e+00
 4.981765668443958e-01	 1.335082434968495e+00	 3.494865353603083e+00
 4.717368734456409e-01	 1.344652119374675e+00	 3.474366961649316e+00
 4.452330432449174e-01	 1.353658944160366e+00	 3.413720342174973e+00
 4.186820112248843e-01	 1.362105125670231e+00	 3.315252452073106e+00
 3.921004561379385e-01	 1.369993515385103e+00	 3.180997998658404e+00
 3.655047731741747e-01	 1.377327579296380e+00	 3.012683155304659e+00
 3.389110482583216e-01	 1.384111376037683e+00	 2.811713437825470e+00
 3.123350340271656e-01	 1.390349533906780e+00	 2.579165669065420e+00
 2.857921275276968e-01	 1.396047226911685e+00	 2.315783914582035e+00
 2.592973496651467e-01	 1.401210149974721e+00	 2.021979231826231e+00
 5.268355530632755e-01	 1.330759505869976e+00	 3.456873703562509e+00
 5.003615517886243e-01	 1.340938059686295e+00	 3.519009897285215e+00
 4.738058948221451e-01	 1.350549716392163e+00	 3.530744869407100e+00
 4.471858197519847e-01	 1.359596044795017e+00	 3.494693065929335e+00
 4.205183358370413e-01	 1.368079270960332e+00	 3.413220351013392e+00
 3.938201949821342e-01	 1.376002258875435e+00	 3.288422390184162e+00
 3.671078642860858e-01	 1.383368489733440e+00	 3.122107175055053e+00
 3.403975002259254e-01	 1.390182039968992e+00	 2.915781675037774e+00
 3.137049245289508e-01	 1.396447558179412e+00	 2.670642552812730e+00
 2.870456017730594e-01	 1.402170241065731e+00	 2.387570835286569e+00
 2.604346187446449e-01	 1.407355808527999e+00	 2.067130390783408e+00
 5.291361450002061e-01	 1.336570682755877e+00	 3.442977688600308e+00
 5.025465367328584e-01	 1.346793684405089e+00	 3.544258155391266e+00
 4.758749161986708e-01	 1.356447313410629e+00	 3.587562987177261e+00
 4.491385962591000e-01	 1.365533145430621e+00	 3.575523524694540e+00
 4.223546604492835e-01	 1.374053416251349e+00	 3.510545462835557e+00
 3.955399338264623e-01	 1.382011002366635e+00	 3.394786087488321e+00
 3.687109553981865e-01	 1.389409400171311e+00	 3.230135611855114e+00
 3.418839521937857e-01	 1.396252703901046e+00	 3.018202607353283e+00
 3.150748150310693e-01	 1.402545582452712e+00	 2.760303475108572e+00
 2.882990760188414e-01	 1.408293255220358e+00	 2.457455858532105e+00
 2.615718878246577e-01	 1.413501467081764e+00	 2.110375855979518e+00
 2.501991970476900e-01	 1.352044881565965e+00	 1.589942243771817e+00
 2.246946132154111e-01	 1.356516616473704e+00	 1.431778759306499e+00
 1.992642973913387e-01	 1.360484744408075e+00	 1.289284969430521e+00
 1.739215527069986e-01	 1.363956118608690e+00	 1.161676355795455e+00
 1.486792571198083e-01	 1.366937993652964e+00	 1.047762271703834e+00
 1.235498520981868e-01	 1.369437999341071e+00	 9.459666949193142e-01
 9.854533296136422e-02	 1.371464114494739e+00	 8.543513226027402e-01
 7.367724083926232e-02	 1.373024640776572e+00	 7.706406743829864e-01
 4.895665621114569e-02	 1.374128176631064e+00	 6.922488688324208e-01
 2.439419397571979e-02	 1.374783591442656e+00	 6.163077419546832e-01
 0.000000000000000e+00	 1.375000000000000e+00	 5.396959833210433e-01
 2.513364661230708e-01	 1.358190540115361e+00	 1.651010351356240e+00
 2.257159523637797e-01	 1.362682601091481e+00	 1.470106021487172e+00
 2.001700441947172e-01	 1.366668765971557e+00	 1.310569333461222e+00
 1.747121052161855e-01	 1.370155919146292e+00	 1.171560258262047e+00
 1.493550719217695e-01	 1.373151348168453e+00	 1.051810581344398e+00
 1.241114423320144e-01	 1.375662717519124e+00	 9.496458468232979e-01
 9.899326629032527e-02	 1.377698042287408e+00	 8.630097064716892e-01
 7.401213738630220e-02	 1.379265661870737e+00	 7.894903278730345e-01
 4.917918646502127e-02	 1.380374213797448e+00	 7.263485155698411e-01
 2.450507667472413e-02	 1.381032607767365e+00	 6.705472027221177e-01
 0.000000000000000e+00	 1.381250000000000e+00	 6.187819782449218e-01
 2.524737351989662e-01	 1.364336198665242e+00	 1.710021504135432e+00
 2.267372915127470e-01	 1.368848585709650e+00	 1.506524783842178e+00
 2.010757909987465e-01	 1.372852787535346e+00	 1.330062647319164e+00
 1.755026577260445e-01	 1.376355719684127e+00	 1.179740388814346e+00
 1.500308867243935e-01	 1.379364702684112e+00	 1.054213051494497e+00
 1.246730325664655e-01	 1.381887435697295e+00	 9.517085607598762e-01
 9.944119961984128e-02	 1.383931970080151e+00	 8.700533254103913e-01
 7.434703393379977e-02	 1.385506682964945e+00	 8.066999493181316e-01
 4.940171671922915e-02	 1.386620250963851e+00	 7.587566960071520e-01
 2.461595937390798e-02	 1.387281624092079e+00	 7.230183525305055e-01
 0.000000000000000e+00	 1.387500000000000e+00	 6.959981469319929e-01
 2.536110042753762e-01	 1.370481857215608e+00	 1.766995400162463e+00
 2.277586306623127e-01	 1.375014570328208e+00	 1.541051845289256e+00
 2.019815378034266e-01	 1.379036809099443e+00	 1.347779535834201e+00
 1.762932102365756e-01	 1.382555520222196e+00	 1.186229915692024e+00
 1.507067015276803e-01	 1.385578057199941e+00	 1.054982102112848e+00
 1.252346228015402e-01	 1.388112153875584e+00	 9.521672059840710e-01
 9.988913294991221e-02	 1.390165897872969e+00	 8.754951833568320e-01
 7.468193048175492e-02	 1.391747704059193e+00	 8.222838491757701e-01
 4.962424697376933e-02	 1.392866288130272e+00	 7.894896841384840e-01
 2.472684207327137e-02	 1.393530640416798e+00	 7.737400699455734e-01
 0.000000000000000e+00	 1.393750000000000e+00	 7.713665964981157e-01
 2.547482733523010e-01	 1.376627515766460e+00	 1.821951501506679e+00
 2.287799698124772e-01	 1.381180554947157e+00	 1.573703799961341e+00
 2.028872846087578e-01	 1.385220830663846e+00	 1.363734439262354e+00
 1.770837627477788e-01	 1.388755320760499e+00	 1.191041831945320e+00
 1.513825163316299e-01	 1.391791411715942e+00	 1.054129976717556e+00
 1.257962130372383e-01	 1.394336872053990e+00	 9.510339636251834e-01
 1.003370662805381e-01	 1.396399825665862e+00	 8.793480742272248e-01
 7.501682703016777e-02	 1.397988725153484e+00	 8.362560960091301e-01
 4.984677722864180e-02	 1.399112325296711e+00	 8.185634704720796e-01
 2.483772477281427e-02	 1.399779656741521e+00	 8.227308989949730e-01
 0.000000000000000e+00	 1.400000000000000e+00	 8.449090392893394e-01
 2.558855424297404e-01	 1.382773174317797e+00	 1.874909039498298e+00
 2.298013089632402e-01	 1.387346539566498e+00	 1.604497041759473e+00
 2.037930314147397e-01	 1.391404852228556e+00	 1.377941617387029e+00
 1.778743152596541e-01	 1.394955121299035e+00	 1.194188959330287e+00
 1.520583311362423e-01	 1.398004766232112e+00	 1.051668746307512e+00
 1.263578032735599e-01	 1.400561590232513e+00	 9.483208308671215e-01
 1.007849996117189e-01	 1.402633753458829e+00	 8.816245865822890e-01
 7.535172357903826e-02	 1.404229746247817e+00	 8.486305218654816e-01
 5.006930748384658e-02	 1.405358362463170e+00	 8.459937683298134e-01
 2.494860747253669e-02	 1.406028673066248e+00	 8.700090566032710e-01
 0.000000000000000e+00	 1.406250000000000e+00	 9.166468016546198e-01
 2.570228115076946e-01	 1.388918832869620e+00	 1.925887019832397e+00
 2.308226481146018e-01	 1.393512524186229e+00	 1.633447768782358e+00
 2.046987782213725e-01	 1.397588873793573e+00	 1.390415153511988e+00
 1.786648677722014e-01	 1.401154921837804e+00	 1.195683952095823e+00
 1.527341459415174e-01	 1.404218120748453e+00	 1.047610313177691e+00
 1.269193935105052e-01	 1.406786308411155e+00	 9.440396250186073e-01
 1.012329329434546e-01	 1.408867681251872e+00	 8.823371081711970e-01
 7.568662012836641e-02	 1.410470767342191e+00	 8.594207275063902e-01
 5.029183773938364e-02	 1.411604399629646e+00	 8.717960199789578e-01
 2.505949017243865e-02	 1.412277689390980e+00	 9.155924398292904e-01
 0.000000000000000e+00	 1.412500000000000e+00	 9.866008324858093e-01
 2.581600805861633e-01	 1.395064491421928e+00	 1.974904227539918e+00
 2.318439872665620e-01	 1.399678508806351e+00	 1.660571987638138e+00
 2.056045250286563e-01	 1.403772895358897e+00	 1.401168958348903e+00
 1.794554202854209e-01	 1.407354722376807e+00	 1.195539300675655e+00
 1.534099607474552e-01	 1.410431475264964e+00	 1.041966414636888e+00
 1.274809837480738e-01	 1.413011026589914e+00	 9.382019874745363e-01
 1.016808662757453e-01	 1.415101609044989e+00	 8.814978303540247e-01
 7.602151667815218e-02	 1.416711788436608e+00	 8.686400875028754e-01
 5.051436799525300e-02	 1.417850436796140e+00	 8.959854026037214e-01
 2.517037287252014e-02	 1.418526705715717e+00	 9.594986329103798e-01
 0.000000000000000e+00	 1.418750000000000e+00	 1.054791711530703e+00
 2.592973496651467e-01	 1.401210149974721e+00	 2.021979231826231e+00
 2.328653264191207e-01	 1.405844493426863e+00	 1.685885517644388e+00
 2.065102718365908e-01	 1.409956916924527e+00	 1.410216773801921e+00
 1.802459727993124e-01	 1.413554522916044e+00	 1.193767335279750e+00
 1.540857755540559e-01	 1.416644829781646e+00	 1.034748626625190e+00
 1.280425739862661e-01	 1.419235744768790e+00	 9.308193875739132e-01
 1.021287996085909e-01	 1.421335536838181e+00	 8.791187524096112e-01
 7.635641322839565e-02	 1.422952809531066e+00	 8.763017551960534e-01
 5.073689825145467e-02	 1.424096473962654e+00	 9.185768341170819e-01
 2.528125557278113e-02	 1.424775722040459e+00	 1.001744914123388e+00
 0.000000000000000e+00	 1.425000000000000e+00	 1.121239657489523e+00
 2.604346187446449e-01	 1.407355808527999e+00	 2.067130390783408e+00
 2.338866655722782e-01	 1.412010478047767e+00	 1.709403994917931e+00
 2.074160186451763e-01	 1.416140938490465e+00	 1.417572176653489e+00
 1.810365253138760e-01	 1.419754323455514e+00	 1.190380229392852e+00
 1.547615903613194e-01	 1.422858184298499e+00	 1.025968367237015e+00
 1.286041642250818e-01	 1.425460462947784e+00	 9.219031263573190e-01
 1.025767329419915e-01	 1.427569464631447e+00	 8.752116857284281e-01
 7.669130977909673e-02	 1.429193830625565e+00	 8.824186675275981e-01
 5.095942850798862e-02	 1.430342511129185e+00	 9.395849788238407e-01
 2.539213827322167e-02	 1.431024738365205e+00	 1.042348262465956e+00
 0.000000000000000e+00	 1.431250000000000e+00	 1.185964535897028e+00
 2.615718878246577e-01	 1.413501467081764e+00	 2.110375855979518e+00
 2.349080047260342e-01	 1.418176462669061e+00	 1.731142876356430e+00
 2.083217654544127e-01	 1.422324960056710e+00	 1.423248582154386e+00
 1.818270778291117e-01	 1.425954123995218e+00	 1.185390003181118e+00
 1.554374051692456e-01	 1.429071538815522e+00	 1.015636900152268e+00
 1.291657544645211e-01	 1.431685181126896e+00	 9.114643402240650e-01
 1.030246662759470e-01	 1.433803392424789e+00	 8.697882578972322e-01
 7.702620633025550e-02	 1.435434851720107e+00	 8.870035497429234e-01
 5.118195876485489e-02	 1.436588548295735e+00	 9.590242529314350e-01
 2.550302097384172e-02	 1.437273754689955e+00	 1.081325364159826e+00
 0.000000000000000e+00	 1.437500000000000e+00	 1.248985866801235e+00
 1.437500000000000e+00	 0.000000000000000e+00	 1.525055447406571e+01
 1.437273754689956e+00	 2.550302097384090e-02	 1.541464571571113e+01
 1.436588548295736e+00	 5.118195876485416e-02	 1.553819861839384e+01
 1.435434851720107e+00	 7.702620633025486e-02	 1.561965872504237e+01
 1.433803392424789e+00	 1.030246662759464e-01	 1.565762370808783e+01
 1.431685181126896e+00	 1.291657544645206e-01	 1.565085331942935e+01
 1.429071538815521e+00	 1.554374051692452e-01	 1.559827854407839e+01
 1.425954123995218e+00	 1.818270778291114e-01	 1.549900983948660e+01
 1.422324960056710e+00	 2.083217654544126e-01	 1.535234434514376e+01
 1.418176462669061e+00	 2.349080047260341e-01	 1.515777195123658e+01
 1.413501467081764e+00	 2.615718878246577e-01	 1.491498012104667e+01
 1.443750000000000e+00	 0.000000000000000e+00	 1.517943353680221e+01
 1.443522771014708e+00	 2.561390367446096e-02	 1.534040429942940e+01
 1.442834585462295e+00	 5.140448902172040e-02	 1.546169862922524e+01
 1.441675872814669e+00	 7.736110288141362e-02	 1.554181006839707e+01
 1.440037320218168e+00	 1.034725996099020e-01	 1.557938505620504e+01
 1.437909899306067e+00	 1.297273447039599e-01	 1.557323271722304e+01
 1.435284893332629e+00	 1.561132199771715e-01	 1.552233383443748e+01
 1.432153924535038e+00	 1.826176303443471e-01	 1.542584888892239e+01
 1.428508981623108e+00	 2.092275122636489e-01	 1.528312505057758e+01
 1.424342447290551e+00	 2.359293438797900e-01	 1.509370200880993e+01
 1.419647125635770e+00	 2.627091569046704e-01	 1.485731653812902e+01
 1.450000000000000e+00	 0.000000000000000e+00	 1.511027105096989e+01
 1.449771787339461e+00	 2.572478637490148e-02	 1.526821151834669e+01
 1.449080622628854e+00	 5.162701927825435e-02	 1.538732609750165e+01
 1.447916893909232e+00	 7.769599943211471e-02	 1.546615610494765e+01
 1.446271248011546e+00	 1.039205329433025e-01	 1.550339655534536e+01
 1.444134617485237e+00	 1.302889349427757e-01	 1.549790578990653e+01
 1.441498247849737e+00	 1.567890347844348e-01	 1.544871427066133e+01
 1.438353725074858e+00	 1.834081828589108e-01	 1.535503242203918e+01
 1.434693003189506e+00	 2.101332590722344e-01	 1.521625740413294e+01
 1.430508431912040e+00	 2.369506830329474e-01	 1.503197870659458e+01
 1.425792784189776e+00	 2.638464259841685e-01	 1.480198245841035e+01
 1.456250000000000e+00	 0.000000000000000e+00	 1.504303031265485e+01
 1.456020803664214e+00	 2.583566907516248e-02	 1.519802873585811e+01
 1.455326659795413e+00	 5.184954953445603e-02	 1.531504051310676e+01
 1.454157915003794e+00	 7.803089598235814e-02	 1.539265451499926e+01
 1.452505175804925e+00	 1.043684662761481e-01	 1.542961414500437e+01
 1.450359335664408e+00	 1.308505251809679e-01	 1.542482680984247e+01
 1.447711602366845e+00	 1.574648495910355e-01	 1.537737253662121e+01
 1.444553525614679e+00	 1.841987353728023e-01	 1.528651161786680e+01
 1.440877024755904e+00	 2.110390058801690e-01	 1.515169116868266e+01
 1.436674416533530e+00	 2.379720221855062e-01	 1.497255048503549e+01
 1.431938442743783e+00	 2.649836950631520e-01	 1.474892509867271e+01
 1.462500000000000e+00	 0.000000000000000e+00	 1.497767524536077e+01
 1.462269819988967e+00	 2.594655177524396e-02	 1.512981796646650e+01
 1.461572696961973e+00	 5.207207979032537e-02	 1.524480203910743e+01
 1.460398936098356e+00	 7.836579253214396e-02	 1.532126367243181e+01
 1.458739103598304e+00	 1.048163996084388e-01	 1.535799447689319e+01
 1.456584053843578e+00	 1.314121154185366e-01	 1.535395077843350e+01
 1.453924956883954e+00	 1.581406643969734e-01	 1.530826206017344e+01
 1.450753326154499e+00	 1.849892878860217e-01	 1.522023841242367e+01
 1.447061046322302e+00	 2.119447526874527e-01	 1.508937687509225e+01
 1.442840401155020e+00	 2.389933613374664e-01	 1.491536656151870e+01
 1.438084101297789e+00	 2.661209641416207e-01	 1.469809245947902e+01
 1.468750000000000e+00	 0.000000000000000e+00	 1.491417038665942e+01
 1.468518836313720e+00	 2.605743447514591e-02	 1.506354186192906e+01
 1.467818734128532e+00	 5.229461004586246e-02	 1.517657149743058e+01
 1.466639957192918e+00	 7.870068908147208e-02	 1.525194262994309e+01
 1.464973031391683e+00	 1.052643329401746e-01	 1.528849489978529e+01
 1.462808772022749e+00	 1.319737056554817e-01	 1.528523341061130e+01
 1.460138311401061e+00	 1.588164792022485e-01	 1.524133699732971e+01
 1.456953126694319e+00	 1.857798403985691e-01	 1.515616548261071e+01
 1.453245067888700e+00	 2.128504994940856e-01	 1.502926580587937e+01
 1.449006385776509e+00	 2.400147004888280e-01	 1.486037691384029e+01
 1.444229759851796e+00	 2.672582332195749e-01	 1.464943330849712e+01
 1.475000000000000e+00	 0.000000000000000e+00	 1.485248087518085e+01
 1.474767852638473e+00	 2.616831717486834e-02	 1.499916369775638e+01
 1.474064771295091e+00	 5.251714030106722e-02	 1.511031035490424e+01
 1.472880978287481e+00	 7.903558563034258e-02	 1.518465110466711e+01
 1.471206959185062e+00	 1.057122662713554e-01	 1.522107344474781e+01
 1.469033490201918e+00	 1.325352958918034e-01	 1.521863111971881e+01
 1.466351665918169e+00	 1.594922940068609e-01	 1.517655221683028e+01
 1.463152927234139e+00	 1.865703929104444e-01	 1.509424623051464e+01
 1.459429089455097e+00	 2.137562463000675e-01	 1.497130997928921e+01
 1.455172370397999e+00	 2.410360396395911e-01	 1.480753226409637e+01
 1.450375418405802e+00	 2.683955022970143e-01	 1.460289716424727e+01
 1.481250000000000e+00	 0.000000000000000e+00	 1.479257243793274e+01
 1.481016868963226e+00	 2.627919987441124e-02	 1.493664736005291e+01
 1.480310808461651e+00	 5.273967055593970e-02	 1.504598070965217e+01
 1.479121999382043e+00	 7.937048217875543e-02	 1.511934946415630e+01
 1.477440886978440e+00	 1.061601996019813e-01	 1.515568881074753e+01
 1.475258208381089e+00	 1.330968861275015e-01	 1.515410100277636e+01
 1.472565020435277e+00	 1.601681088108104e-01	 1.511386328510737e+01
 1.469352727773960e+00	 1.873609454216476e-01	 1.503443476810877e+01
 1.465613111021496e+00	 2.146619931053986e-01	 1.491546213377284e+01
 1.461338355019488e+00	 2.420573787897555e-01	 1.475678406298038e+01
 1.456521076959809e+00	 2.695327713739390e-01	 1.455843428026158e+01
 1.487500000000000e+00	 0.000000000000000e+00	 1.473441137793957e+01
 1.487265885287978e+00	 2.639008257377461e-02	 1.487595733268941e+01
 1.486556845628210e+00	 5.296220081047987e-02	 1.498354527783123e+01
 1.485363020476606e+00	 7.970537872671062e-02	 1.505599871271747e+01
 1.483674814771819e+00	 1.066081329320522e-01	 1.509230035061912e+01
 1.481482926560260e+00	 1.336584763625762e-01	 1.509160082611839e+01
 1.478778374952386e+00	 1.608439236140972e-01	 1.505322645162771e+01
 1.475552528313780e+00	 1.881514979321786e-01	 1.497668590233935e+01
 1.471797132587894e+00	 2.155677399100788e-01	 1.486167571285661e+01
 1.467504339640978e+00	 2.430787179393213e-01	 1.470808447447650e+01
 1.462666735513815e+00	 2.706700404503491e-01	 1.451599562964256e+01
 1.493750000000000e+00	 0.000000000000000e+00	 1.467796456219207e+01
 1.493514901612731e+00	 2.650096527295846e-02	 1.481705868479737e+01
 1.492802882794769e+00	 5.318473106468775e-02	 1.492296738070190e+01
 1.491604041571168e+00	 8.004027527420814e-02	 1.499456047809034e+01
 1.489908742565198e+00	 1.070560662615682e-01	 1.503086805738608e+01
 1.487707644739430e+00	 1.342200665970273e-01	 1.503108901139113e+01
 1.484991729469493e+00	 1.615197384167212e-01	 1.499459863460327e+01
 1.481752328853600e+00	 1.889420504420376e-01	 1.492095512058644e+01
 1.477981154154291e+00	 2.164734867141081e-01	 1.480990485039186e+01
 1.473670324262467e+00	 2.441000570882885e-01	 1.466138636093698e+01
 1.468812394067822e+00	 2.718073095262445e-01	 1.447553289000922e+01
 1.500000000000000e+00	 0.000000000000000e+00	 1.462319940989791e+01
 1.499763917937484e+00	 2.661184797196279e-02	 1.475991705857606e+01
 1.499048919961329e+00	 5.340726131856333e-02	 1.486421093202186e+01
 1.497845062665731e+00	 8.037517182124802e-02	 1.493499699845961e+01
 1.496142670358577e+00	 1.075039995905293e-01	 1.497135255092327e+01
 1.493932362918601e+00	 1.347816568308549e-01	 1.497252462190039e+01
 1.491205083986602e+00	 1.621955532186825e-01	 1.493793740705900e+01
 1.487952129393421e+00	 1.897326029512245e-01	 1.486719857648808e+01
 1.484165175720690e+00	 2.173792335174866e-01	 1.476010435617298e+01
 1.479836308883957e+00	 2.451213962366572e-01	 1.461664326853333e+01
 1.474958052621829e+00	 2.729445786016254e-01	 1.443699842881983e+01
 1.413501467081764e+00	 2.615718878246577e-01	 1.491498012104667e+01
 1.408293255220358e+00	 2.882990760188405e-01	 1.509268562166842e+01
 1.402545582452712e+00	 3.150748150310687e-01	 1.523300554706771e+01
 1.396252703901046e+00	 3.418839521937852e-01	 1.533444193214230e+01
 1.389409400171311e+00	 3.687109553981860e-01	 1.539560691333919e+01
 1.382011002366635e+00	 3.955399338264619e-01	 1.541522366819589e+01
 1.374053416251349e+00	 4.223546604492833e-01	 1.539212628099810e+01
 1.365533145430621e+00	 4.491385962590999e-01	 1.532525851800689e+01
 1.356447313410629e+00	 4.758749161986708e-01	 1.521367150944949e+01
 1.346793684405089e+00	 5.025465367328585e-01	 1.505652034993277e+01
 1.336570682755877e+00	 5.291361450002061e-01	 1.485305964393043e+01
 1.419647125635770e+00	 2.627091569046704e-01	 1.485731653812902e+01
 1.414416269375272e+00	 2.895525502646201e-01	 1.503541038104624e+01
 1.408643606726335e+00	 3.164447055331777e-01	 1.517595037910199e+01
 1.402323367833450e+00	 3.433704041616241e-01	 1.527741455069944e+01
 1.395450310609549e+00	 3.703140465102484e-01	 1.533839235824884e+01
 1.388019745858209e+00	 3.972596726707300e-01	 1.535758569803449e+01
 1.380027561542736e+00	 4.241909850614387e-01	 1.533380880334869e+01
 1.371470246066582e+00	 4.510913727660968e-01	 1.526598704386449e+01
 1.362344910429429e+00	 4.779439375750409e-01	 1.515315461811845e+01
 1.352649309124184e+00	 5.047315216768951e-01	 1.499445115061098e+01
 1.342381859642033e+00	 5.314367369368920e-01	 1.478911722020308e+01
 1.425792784189776e+00	 2.638464259841685e-01	 1.480198245841035e+01
 1.420539283530182e+00	 2.908060245099756e-01	 1.498025853257271e+01
 1.414741630999939e+00	 3.178145960349348e-01	 1.512081215371815e+01
 1.408394031765811e+00	 3.448568561291640e-01	 1.522209797420893e+01
 1.401491221047711e+00	 3.719171376220453e-01	 1.528268346045247e+01
 1.394028489349664e+00	 3.989794115147464e-01	 1.530124993073349e+01
 1.386001706833951e+00	 4.260273096733362e-01	 1.527659249317970e+01
 1.377407346702306e+00	 4.530441492728087e-01	 1.520761886635838e+01
 1.368242507447918e+00	 4.800129589510790e-01	 1.509334707906238e+01
 1.358504933842883e+00	 5.069165066205312e-01	 1.493290206065451e+01
 1.348193036527699e+00	 5.337373288730878e-01	 1.472551114869445e+01
 1.431938442743783e+00	 2.649836950631520e-01	 1.474892509867271e+01
 1.426662297685086e+00	 2.920594987549073e-01	 1.492717845122220e+01
 1.420839655273525e+00	 3.191844865363399e-01	 1.506754036378464e+01
 1.414464695698129e+00	 3.463433080964048e-01	 1.516844277188188e+01
 1.407532131485796e+00	 3.735202287335765e-01	 1.522843182281439e+01
 1.400037232840998e+00	 4.006991503585108e-01	 1.524616895910110e+01
 1.391975852124992e+00	 4.278636342849753e-01	 1.522043088863498e+01
 1.383344447337793e+00	 4.549969257792358e-01	 1.515010842358326e+01
 1.374140104466097e+00	 4.820819803267847e-01	 1.503420418428857e+01
 1.364360558561187e+00	 5.091014915637669e-01	 1.487182917941489e+01
 1.354004213412875e+00	 5.360379208087941e-01	 1.466219828912466e+01
 1.438084101297789e+00	 2.661209641416207e-01	 1.469809245947902e+01
 1.432785311839987e+00	 2.933129729994148e-01	 1.487611926149093e+01
 1.426937679547091e+00	 3.205543770373928e-01	 1.501608521777680e+01
 1.420535359630405e+00	 3.478297600633465e-01	 1.511640019502901e+01
 1.413573041923805e+00	 3.751233198448422e-01	 1.517558969726271e+01
 1.406045976332213e+00	 4.024188892020233e-01	 1.519229599250969e+01
 1.397949997415859e+00	 4.296999588963562e-01	 1.516527811252378e+01
 1.389281547973044e+00	 4.569497022853781e-01	 1.509341070706613e+01
 1.380037701483964e+00	 4.841510017021584e-01	 1.497568174873391e+01
 1.370216183279096e+00	 5.112864765066022e-01	 1.481118909946573e+01
 1.359815390297562e+00	 5.383385127440107e-01	 1.459913596558673e+01
 1.444229759851796e+00	 2.672582332195749e-01	 1.464943330849712e+01
 1.438908325994883e+00	 2.945664472434986e-01	 1.482703082144977e+01
 1.433035703820639e+00	 3.219242675380938e-01	 1.496639762455135e+01
 1.426606023562638e+00	 3.493162120299891e-01	 1.506592216254785e+01
 1.419613952361738e+00	 3.767264109558421e-01	 1.512410997097954e+01
 1.412054719823309e+00	 4.041386280452839e-01	 1.513958484377751e+01
 1.403924142706554e+00	 4.315362835074790e-01	 1.511108885988113e+01
 1.395218648608058e+00	 4.589024787912356e-01	 1.503748124999110e+01
 1.385935298501521e+00	 4.862200230771998e-01	 1.491773609913904e+01
 1.376071807996610e+00	 5.134714614490371e-01	 1.475093889610852e+01
 1.365626567181759e+00	 5.406391046787375e-01	 1.453628195666638e+01
 1.450375418405802e+00	 2.683955022970143e-01	 1.460289716424727e+01
 1.445031340149773e+00	 2.958199214871581e-01	 1.477986370720210e+01
 1.439133728094169e+00	 3.232941580384429e-01	 1.491842917850749e+01
 1.432676687494829e+00	 3.508026639963326e-01	 1.501696124677903e+01
 1.425654862799595e+00	 3.783295020665765e-01	 1.507394615294233e+01
 1.418063463314284e+00	 4.058583668882927e-01	 1.508798991638373e+01
 1.409898287997076e+00	 4.333726081183434e-01	 1.505781838584428e+01
 1.401155749242835e+00	 4.608552552968079e-01	 1.498227611572382e+01
 1.391832895518768e+00	 4.882890444519092e-01	 1.486032406320480e+01
 1.381927432713729e+00	 5.156564463910716e-01	 1.469103611714542e+01
 1.371437744065466e+00	 5.429396966129747e-01	 1.447359448581280e+01
 1.456521076959809e+00	 2.695327713739390e-01	 1.455843428026158e+01
 1.451154354304659e+00	 2.970733957303938e-01	 1.473456919773577e+01
 1.445231752367678e+00	 3.246640485384398e-01	 1.487213214512431e+01
 1.438747351426976e+00	 3.522891159623769e-01	 1.496947065972054e+01
 1.431695773237376e+00	 3.799325931770453e-01	 1.502505236080562e+01
 1.424072206805141e+00	 4.075781057310496e-01	 1.503746619200734e+01
 1.415872433287425e+00	 4.352089327289497e-01	 1.500542249383633e+01
 1.407092849877375e+00	 4.628080318020955e-01	 1.492775188662598e+01
 1.397730492535703e+00	 4.903580658262861e-01	 1.480340295902353e+01
 1.387783057430453e+00	 5.178414313327057e-01	 1.463143877291087e+01
 1.377248920948683e+00	 5.452402885467222e-01	 1.441103221195358e+01
 1.462666735513815e+00	 2.706700404503491e-01	 1.451599562964256e+01
 1.457277368459541e+00	 2.983268699732054e-01	 1.469109926015659e+01
 1.451329776641170e+00	 3.260339390380849e-01	 1.482745944686237e+01
 1.444818015359082e+00	 3.537755679281221e-01	 1.492340423958958e+01
 1.437736683675080e+00	 3.815356842872483e-01	 1.497738330811382e+01
 1.430080950295877e+00	 4.092978445735545e-01	 1.498796921837992e+01
 1.421846578577599e+00	 4.370452573392979e-01	 1.495385752404751e+01
 1.413029950511678e+00	 4.647608083070982e-01	 1.487386565315213e+01
 1.403628089552328e+00	 4.924270872003310e-01	 1.474693058477683e+01
 1.393638682146782e+00	 5.200264162739394e-01	 1.457210532655458e+01
 1.383060097831411e+00	 5.475408804799798e-01	 1.434855422034572e+01
 1.468812394067822e+00	 2.718073095262445e-01	 1.447553289000922e+01
 1.463400382614418e+00	 2.995803442155932e-01	 1.464940653529235e+01
 1.457427800914642e+00	 3.274038295373778e-01	 1.478436464941919e+01
 1.450888679291144e+00	 3.552620198935682e-01	 1.487871643772159e+01
 1.443777594112709e+00	 3.831387753971859e-01	 1.493089429183494e+01
 1.436089693786494e+00	 4.110175834158076e-01	 1.493945509744371e+01
 1.427820723867601e+00	 4.388815819493878e-01	 1.490308034220585e+01
 1.418967051145745e+00	 4.667135848118161e-01	 1.482057500322025e+01
 1.409525686568642e+00	 4.944961085740436e-01	 1.469086520869170e+01
 1.399494306862716e+00	 5.222114012147729e-01	 1.451299468456826e+01
 1.388871274713649e+00	 5.498414724127478e-01	 1.428612001365690e+01
 1.474958052621829e+00	 2.729445786016254e-01	 1.443699842881983e+01
 1.469523396769290e+00	 3.008338184575568e-01	 1.460944432365709e+01
 1.463525825188096e+00	 3.287737200363188e-01	 1.474280194832852e+01
 1.456959343223164e+00	 3.567484718587153e-01	 1.483536230579719e+01
 1.449818504550261e+00	 3.847418665068577e-01	 1.488554118020577e+01
 1.442098437276991e+00	 4.127373222578090e-01	 1.489188047380554e+01
 1.433794869157430e+00	 4.407179065592195e-01	 1.485304832862840e+01
 1.424904151779574e+00	 4.686663613162489e-01	 1.476783801184761e+01
 1.415423283584646e+00	 4.965651299474242e-01	 1.463516555924799e+01
 1.405349931578255e+00	 5.243963861552059e-01	 1.445406618754948e+01
 1.394682451595397e+00	 5.521420643450262e-01	 1.422368950326910e+01
 1.336570682755877e+00	 5.291361450002061e-01	 1.485305964393043e+01
 1.325777410838185e+00	 5.556262294685158e-01	 1.469981208066647e+01
 1.314413665325824e+00	 5.819991120102481e-01	 1.449234881481770e+01
 1.302479951696174e+00	 6.082369812983345e-01	 1.423334621056281e+01
 1.289977496860428e+00	 6.343219274121985e-01	 1.398002415115730e+01
 1.276908259813596e+00	 6.602359775369483e-01	 1.380239195217523e+01
 1.263274940206069e+00	 6.859611326255990e-01	 1.362102431765004e+01
 1.249080984748231e+00	 7.114794048855729e-01	 1.345953119273399e+01
 1.234330591370090e+00	 7.367728559421065e-01	 1.353287252576693e+01
 1.219028711069166e+00	 7.618236355234280e-01	 1.361293502820231e+01
 1.203181047392051e+00	 7.866140205057904e-01	 1.370529289098074e+01
 1.342381859642033e+00	 5.314367369368920e-01	 1.478911722020308e+01
 1.331541660455420e+00	 5.580419956856946e-01	 1.464670857763728e+01
 1.320128507354096e+00	 5.845295429342963e-01	 1.445229093865639e+01
 1.308142908013167e+00	 6.108814899150754e-01	 1.420856826349006e+01
 1.295586094678219e+00	 6.370798488382351e-01	 1.398201313484521e+01
 1.282460034861637e+00	 6.631065687462101e-01	 1.381171501659708e+01
 1.268767439951416e+00	 6.889435723352889e-01	 1.363989746583233e+01
 1.254511771643640e+00	 7.145727936051001e-01	 1.347464322319401e+01
 1.239697246120185e+00	 7.399762161879451e-01	 1.348938161454141e+01
 1.224328835904646e+00	 7.651359122021751e-01	 1.358905387627906e+01
 1.208412269341645e+00	 7.900340814669840e-01	 1.370364602780462e+01
 1.348193036527699e+00	 5.337373288730878e-01	 1.472551114869445e+01
 1.337305910072070e+00	 5.604577619022931e-01	 1.459379774307144e+01
 1.325843349381697e+00	 5.870599738576927e-01	 1.441226779521171e+01
 1.313805864329412e+00	 6.135259985311128e-01	 1.418365338072374e+01
 1.301194692495198e+00	 6.398377702635364e-01	 1.398068126184473e+01
 1.288011809908807e+00	 6.659771599547242e-01	 1.381756808405762e+01
 1.274259939695847e+00	 6.919260120442388e-01	 1.365512537910561e+01
 1.259942558538096e+00	 7.176661823239147e-01	 1.350144079967285e+01
 1.245063900869301e+00	 7.431795764331197e-01	 1.344332995098885e+01
 1.229628960739132e+00	 7.684481888803278e-01	 1.356229765191095e+01
 1.213643491290238e+00	 7.934541424276723e-01	 1.369880213046972e+01
 1.354004213412875e+00	 5.360379208087941e-01	 1.466219828912466e+01
 1.343070159688135e+00	 5.628735281183114e-01	 1.454103671462978e+01
 1.331558191408627e+00	 5.895904047804380e-01	 1.437223702714264e+01
 1.319468820644909e+00	 6.161705071464469e-01	 1.415855994038733e+01
 1.306803290311363e+00	 6.425956916881018e-01	 1.397606189096944e+01
 1.293563584955108e+00	 6.688477511624903e-01	 1.381998782346027e+01
 1.279752439439361e+00	 6.949084517524483e-01	 1.366674811589962e+01
 1.265373345431599e+00	 7.207595710420167e-01	 1.352443534535764e+01
 1.250430555617438e+00	 7.463829366776308e-01	 1.340147322791502e+01
 1.234929085572623e+00	 7.717604655578855e-01	 1.353264235357683e+01
 1.218874713237832e+00	 7.968742033878552e-01	 1.369073995456680e+01
 1.359815390297562e+00	 5.383385127440107e-01	 1.459913596558673e+01
 1.348834409303615e+00	 5.652892943337495e-01	 1.448838307385716e+01
 1.337273033434886e+00	 5.921208357025314e-01	 1.433215669679503e+01
 1.325131776959660e+00	 6.188150157610773e-01	 1.413324671238659e+01
 1.312411888126715e+00	 6.453536131119314e-01	 1.396818874121388e+01
 1.299115360000539e+00	 6.717183423695080e-01	 1.381901122861204e+01
 1.285244939181958e+00	 6.978908914599173e-01	 1.367480602062348e+01
 1.270804132324149e+00	 7.238529597594070e-01	 1.354367062518273e+01
 1.255797210364595e+00	 7.495862969214776e-01	 1.343403202913168e+01
 1.240229210405119e+00	 7.750727422348485e-01	 1.350006412752320e+01
 1.224105935184426e+00	 8.002942643475329e-01	 1.367943835043247e+01
 1.365626567181759e+00	 5.406391046787375e-01	 1.453628195666638e+01
 1.354598658918510e+00	 5.677050605486075e-01	 1.443579483673823e+01
 1.342987875460474e+00	 5.946512666239735e-01	 1.429198527727190e+01
 1.330794733273664e+00	 6.214595243750047e-01	 1.410767285007358e+01
 1.318020485941253e+00	 6.481115345350257e-01	 1.395709588409023e+01
 1.304667135045098e+00	 6.745889335757778e-01	 1.381467561131057e+01
 1.290737438923640e+00	 7.008733311666466e-01	 1.367933971758099e+01
 1.276234919215746e+00	 7.269463484760849e-01	 1.355919064235042e+01
 1.261163865110774e+00	 7.527896571646605e-01	 1.346265877043696e+01
 1.245529335236620e+00	 7.783850189112159e-01	 1.346453926462005e+01
 1.229337157130020e+00	 8.037143253067056e-01	 1.366487626113350e+01
 1.371437744065466e+00	 5.429396966129747e-01	 1.447359448581280e+01
 1.360362908532820e+00	 5.701208267628853e-01	 1.438323044449324e+01
 1.348702717485391e+00	 5.971816975447641e-01	 1.425168164373112e+01
 1.336457689586921e+00	 6.241040329882285e-01	 1.408179788212295e+01
 1.323629083754977e+00	 6.508694559573840e-01	 1.394281773615945e+01
 1.310218910088789e+00	 6.774595247812997e-01	 1.380701859460714e+01
 1.296229938664404e+00	 7.038557708726348e-01	 1.368039010504046e+01
 1.281665706106391e+00	 7.300397371920500e-01	 1.357103963328277e+01
 1.266530519855974e+00	 7.559930174071795e-01	 1.348740108357520e+01
 1.250829460067127e+00	 7.816972955869887e-01	 1.343821360061920e+01
 1.234568379074614e+00	 8.071343862653727e-01	 1.364703272050225e+01
 1.377248920948683e+00	 5.452402885467222e-01	 1.441103221195358e+01
 1.366127158146545e+00	 5.725365929765829e-01	 1.433064875460679e+01
 1.354417559509638e+00	 5.997121284649031e-01	 1.421120506490295e+01
 1.342120645899430e+00	 6.267485416007487e-01	 1.405816119329098e+01
 1.329237681567888e+00	 6.536273773790069e-01	 1.392538905175228e+01
 1.315770685131609e+00	 6.803301159860735e-01	 1.379607810623988e+01
 1.301722438404252e+00	 7.068382105778832e-01	 1.367799834945525e+01
 1.287096492996082e+00	 7.331331259073032e-01	 1.357926206270158e+01
 1.271897174600194e+00	 7.591963776490347e-01	 1.350830678536812e+01
 1.256129584896638e+00	 7.850095722621667e-01	 1.347387409773484e+01
 1.239799601018208e+00	 8.105544472235345e-01	 1.362588685122149e+01
 1.383060097831411e+00	 5.475408804799798e-01	 1.434855422034572e+01
 1.371891407759686e+00	 5.749523591897004e-01	 1.427800903208277e+01
 1.360132401533214e+00	 6.022425593843905e-01	 1.417051519482214e+01
 1.347783602211193e+00	 6.293930502125656e-01	 1.403328736041099e+01
 1.334846279379986e+00	 6.563852987998939e-01	 1.390484491587255e+01
 1.321322460173559e+00	 6.832007071900991e-01	 1.378189237223314e+01
 1.307214938143183e+00	 7.098206502823909e-01	 1.367220587982905e+01
 1.292527279884821e+00	 7.362265146218439e-01	 1.358390261883212e+01
 1.277263829343436e+00	 7.623997378902261e-01	 1.352542387382666e+01
 1.261429709725155e+00	 7.883218489367496e-01	 1.350551390046776e+01
 1.245030822960801e+00	 8.139745081811909e-01	 1.360141786295818e+01
 1.388871274713649e+00	 5.498414724127478e-01	 1.428612001365690e+01
 1.377655657372240e+00	 5.773681254022376e-01	 1.422527094091886e+01
 1.365847243556119e+00	 6.047729903032266e-01	 1.412957206476674e+01
 1.353446558522208e+00	 6.320375588236792e-01	 1.400543469920020e+01
 1.340454877191269e+00	 6.591432202200452e-01	 1.388122073727988e+01
 1.326874235214639e+00	 6.860712983933770e-01	 1.376449991065697e+01
 1.312707437881198e+00	 7.128030899861587e-01	 1.366305438222383e+01
 1.297958066772607e+00	 7.393199033356723e-01	 1.358500620872699e+01
 1.282630484085699e+00	 7.656030981307534e-01	 1.353880052436047e+01
 1.266729834552678e+00	 7.916341256107376e-01	 1.353318449439234e+01
 1.250262044902395e+00	 8.173945691383421e-01	 1.357718195731106e+01
 1.394682451595397e+00	 5.521420643450262e-01	 1.422368950326910e+01
 1.383419906984210e+00	 5.797838916141946e-01	 1.417239453579413e+01
 1.371562085578352e+00	 6.073034212214110e-01	 1.408833607539921e+01
 1.359109514832477e+00	 6.346820674340894e-01	 1.397463591831724e+01
 1.346063475001740e+00	 6.619011416394612e-01	 1.385455224174455e+01
 1.332426010254849e+00	 6.889418895959066e-01	 1.374393952554282e+01
 1.318199937618296e+00	 7.157855296891861e-01	 1.365058579440401e+01
 1.303388853659439e+00	 7.424132920487886e-01	 1.358261795370784e+01
 1.287997138826982e+00	 7.688064583706170e-01	 1.354848508608177e+01
 1.272029959379205e+00	 7.949464022841308e-01	 1.355693749513962e+01
 1.255493266842989e+00	 8.208146300949881e-01	 1.361700141212649e+01
 1.203181047392051e+00	 7.866140205057904e-01	 1.370529289098074e+01
 1.186794053507660e+00	 8.111264541512102e-01	 1.325197470683435e+01
 1.169874926844846e+00	 8.353435853641624e-01	 1.284454458616169e+01
 1.152431601279559e+00	 8.592483077927865e-01	 1.248613025138437e+01
 1.134472736871259e+00	 8.828237985978646e-01	 1.217957204030719e+01
 1.116007707164387e+00	 9.060535567096920e-01	 1.192740436714123e+01
 1.097046584084299e+00	 9.289214403956018e-01	 1.173183917170434e+01
 1.077600120472180e+00	 9.514117039623922e-01	 1.159475151889241e+01
 1.057679730318073e+00	 9.735090334212855e-01	 1.151766748994793e+01
 1.037297466765497e+00	 9.951985809477983e-01	 1.150175448448344e+01
 1.016465997975000e+00	 1.016465997975000e+00	 1.154781402796255e+01
 1.208412269341645e+00	 7.900340814669840e-01	 1.370364602780462e+01
 1.191954027657402e+00	 8.146530909107680e-01	 1.326413055262635e+01
 1.174961339573990e+00	 8.389755139984805e-01	 1.286782899743187e+01
 1.157442173462472e+00	 8.629841700028186e-01	 1.251771590629635e+01
 1.139405227034742e+00	 8.866621629417849e-01	 1.221648674555112e+01
 1.120859914589782e+00	 9.099929200018938e-01	 1.196654001647484e+01
 1.101816351843927e+00	 9.329602292690323e-01	 1.176996132216365e+01
 1.082285338389846e+00	 9.555482765904630e-01	 1.162850954647685e+01
 1.062278337843626e+00	 9.777416813948473e-01	 1.154360528260492e+01
 1.041807455753759e+00	 9.995255313019448e-01	 1.151632162648842e+01
 1.020885415359750e+00	 1.020885415359750e+00	 1.154737742635685e+01
 1.213643491290238e+00	 7.934541424276723e-01	 1.369880213046972e+01
 1.197114001806148e+00	 8.181797276699108e-01	 1.327245491749719e+01
 1.180047752302154e+00	 8.426074426324538e-01	 1.288668530155975e+01
 1.162452745644430e+00	 8.667200322125564e-01	 1.254431609929740e+01
 1.144337717197305e+00	 8.905005272854425e-01	 1.224789925407619e+01
 1.125712122014301e+00	 9.139322832938437e-01	 1.199969859407462e+01
 1.106586119602734e+00	 9.369990181422018e-01	 1.180167451107393e+01
 1.086970556306756e+00	 9.596848492182428e-01	 1.165547071370516e+01
 1.066876945368499e+00	 9.819743293680688e-01	 1.156240318875465e+01
 1.046317444741425e+00	 1.003852481655681e+00	 1.152345148206865e+01
 1.025304832744000e+00	 1.025304832744000e+00	 1.153925238691971e+01
 1.218874713237832e+00	 7.968742033878552e-01	 1.369073995456680e+01
 1.202273975953900e+00	 8.217063644286381e-01	 1.327693347480207e+01
 1.185134165029337e+00	 8.462393712660828e-01	 1.290110574519251e+01
 1.167463317825433e+00	 8.704558944220010e-01	 1.256592929188159e+01
 1.149270207358948e+00	 8.943388916288371e-01	 1.227381387055697e+01
 1.130564329437945e+00	 9.178716465855418e-01	 1.202688986370615e+01
 1.111355887360721e+00	 9.410378070151098e-01	 1.182699356563142e+01
 1.091655774222912e+00	 9.638214218457319e-01	 1.167565450486668e+01
 1.071475552892692e+00	 9.862069773409504e-01	 1.157408493370308e+01
 1.050827433728497e+00	 1.008179432009007e+00	 1.152317159270644e+01
 1.029724250127750e+00	 1.029724250127750e+00	 1.152346983471410e+01
 1.224105935184426e+00	 8.002942643475329e-01	 1.367943835043247e+01
 1.207433950100656e+00	 8.252330011869504e-01	 1.327755186902034e+01
 1.190220577755541e+00	 8.498712998993674e-01	 1.291108242891178e+01
 1.172473890005481e+00	 8.741917566311519e-01	 1.258255368898015e+01
 1.154202697519670e+00	 8.981772559719686e-01	 1.229423453954166e+01
 1.135416536860714e+00	 9.218110098769875e-01	 1.204812313260941e+01
 1.116125655117888e+00	 9.450765958877564e-01	 1.184593276748004e+01
 1.096340992138312e+00	 9.679579944729305e-01	 1.168907977723810e+01
 1.076074160416205e+00	 9.904396253134916e-01	 1.157867354202333e+01
 1.055337422714973e+00	 1.012506382361924e+00	 1.151550873332559e+01
 1.034143667511000e+00	 1.034143667511000e+00	 1.150005987044862e+01
 1.229337157130020e+00	 8.037143253067056e-01	 1.366487626113350e+01
 1.212593924246418e+00	 8.287596379448477e-01	 1.327429571636977e+01
 1.195306990480764e+00	 8.535032285323073e-01	 1.291660731034158e+01
 1.177484462184574e+00	 8.779276188400088e-01	 1.259418724441943e+01
 1.159135187679473e+00	 9.020156203148375e-01	 1.230916485311505e+01
 1.140268744282607e+00	 9.257503731681815e-01	 1.206340726121133e+01
 1.120895422874235e+00	 9.491153847601420e-01	 1.185850586431842e+01
 1.101026210052957e+00	 9.720945670998383e-01	 1.169576477442362e+01
 1.080672767939038e+00	 9.946722732856925e-01	 1.157619135246441e+01
 1.059847411700855e+00	 1.016833332714430e+00	 1.150048892860094e+01
 1.038563084893750e+00	 1.038563084893750e+00	 1.146905178801680e+01
 1.234568379074614e+00	 8.071343862653727e-01	 1.364703272050225e+01
 1.217753898391184e+00	 8.322862747023296e-01	 1.326715060540527e+01
 1.200393403205007e+00	 8.571351571649026e-01	 1.291767220717743e+01
 1.182495034362711e+00	 8.816634810485721e-01	 1.260082766624184e+01
 1.164067677838354e+00	 9.058539846574435e-01	 1.231860805836545e+01
 1.145120951703626e+00	 9.296897364591236e-01	 1.207275067259271e+01
 1.125665190629761e+00	 9.531541736322663e-01	 1.186472608121240e+01
 1.105711427966847e+00	 9.762311397264556e-01	 1.169572713935687e+01
 1.085271375461190e+00	 9.989049212575531e-01	 1.156666003248160e+01
 1.064357400686141e+00	 1.021160283066526e+00	 1.147813746885374e+01
 1.042982502276000e+00	 1.042982502276000e+00	 1.143047409159093e+01
 1.239799601018208e+00	 8.105544472235345e-01	 1.362588685122149e+01
 1.222913872534956e+00	 8.358129114593970e-01	 1.325610209760274e+01
 1.205479815928270e+00	 8.607670857971537e-01	 1.291426880013821e+01
 1.187505606539894e+00	 8.853993432568418e-01	 1.260247242189044e+01
 1.169000167996316e+00	 9.096923489997869e-01	 1.232256706466343e+01
 1.149973159123768e+00	 9.336290997498135e-01	 1.207616136171488e+01
 1.130434958384467e+00	 9.571929625041291e-01	 1.186460613162163e+01
 1.110396645879981e+00	 9.803677123527816e-01	 1.168898392697315e+01
 1.089869982982663e+00	 1.003137569229073e+00	 1.155010059239885e+01
 1.068867389670832e+00	 1.025487233418211e+00	 1.144847892554463e+01
 1.047401919657750e+00	 1.047401919657750e+00	 1.138435451228268e+01
 1.245030822960801e+00	 8.139745081811909e-01	 1.360141786295818e+01
 1.228073846677732e+00	 8.393395482160491e-01	 1.324113572792758e+01
 1.210566228650553e+00	 8.643990144290601e-01	 1.290638863584363e+01
 1.192516178716120e+00	 8.891352054648176e-01	 1.259911874326380e+01
 1.173932658153357e+00	 9.135307133418670e-01	 1.232104445075646e+01
 1.154825366543036e+00	 9.375684630402511e-01	 1.207364690441328e+01
 1.135204726138353e+00	 9.612317513757309e-01	 1.185815822814688e+01
 1.115081863792361e+00	 9.845042849788175e-01	 1.167555161656229e+01
 1.094468590503455e+00	 1.007370217200253e+00	 1.152653339921365e+01
 1.073377378654929e+00	 1.029814183769487e+00	 1.141153716637504e+01
 1.051821337039000e+00	 1.051821337039000e+00	 1.133072002438389e+01
 1.250262044902395e+00	 8.173945691383421e-01	 1.357718195731106e+01
 1.233233820819513e+00	 8.428661849722860e-01	 1.322223700538966e+01
 1.215652641371857e+00	 8.680309430606221e-01	 1.289402312962009e+01
 1.197526750891392e+00	 8.928710676724997e-01	 1.259076363164391e+01
 1.178865148309478e+00	 9.173690776836846e-01	 1.231404247168585e+01
 1.159677573961428e+00	 9.415078263304372e-01	 1.206521446616681e+01
 1.139974493891418e+00	 9.652705402470714e-01	 1.184539409300843e+01
 1.119767081703985e+00	 9.886408576045624e-01	 1.165544612381153e+01
 1.099067198023567e+00	 1.011602865171093e+00	 1.149597819005646e+01
 1.077887367638430e+00	 1.034141134120353e+00	 1.136733537001070e+01
 1.056240754419750e+00	 1.056240754419750e+00	 1.126959686119950e+01
 1.255493266842989e+00	 8.208146300949881e-01	 1.361700141212649e+01
 1.238393794960300e+00	 8.463928217281081e-01	 1.319939141358379e+01
 1.220739054092179e+00	 8.716628716918398e-01	 1.287716356823529e+01
 1.202537323065708e+00	 8.966069298798882e-01	 1.257740386250032e+01
 1.183797638464679e+00	 9.212074420252394e-01	 1.230156306553073e+01
 1.164529781378945e+00	 9.454471896203712e-01	 1.205087081064596e+01
 1.144744261643663e+00	 9.693093291181504e-01	 1.182632496826281e+01
 1.124452299614854e+00	 9.927774302300170e-01	 1.162868281254710e+01
 1.103665805542999e+00	 1.015835513141593e+00	 1.145845408531227e+01
 1.082397356621336e+00	 1.038468084470809e+00	 1.131589604043640e+01
 1.060660171800000e+00	 1.060660171800000e+00	 1.120101053048510e+01
 1.016465997975000e+00	 1.016465997975000e+00	 1.154781402796255e+01
 9.951985809477983e-01	 1.037297466765497e+00	 1.116567044891380e+01
 9.735090334212854e-01	 1.057679730318073e+00	 1.078246488675964e+01
 9.514117039623926e-01	 1.077600120472180e+00	 1.039448093524003e+01
 9.289214403956021e-01	 1.097046584084299e+00	 9.997929687481889e+00
 9.060535567096923e-01	 1.116007707164387e+00	 9.588968598789116e+00
 8.828237985978652e-01	 1.134472736871258e+00	 9.163721120487530e+00
 8.592483077927872e-01	 1.152431601279558e+00	 8.718296946971549e+00
 8.353435853641630e-01	 1.169874926844845e+00	 8.248812709709343e+00
 8.111264541512111e-01	 1.186794053507659e+00	 7.751412945645658e+00
 7.866140205057904e-01	 1.203181047392051e+00	 7.222291163303188e+00
 1.020885415359750e+00	 1.020885415359750e+00	 1.154737742635685e+01
 9.995255313019447e-01	 1.041807455753759e+00	 1.114044257839598e+01
 9.777416813948473e-01	 1.062278337843626e+00	 1.074257419855781e+01
 9.555482765904629e-01	 1.082285338389845e+00	 1.035056222994044e+01
 9.329602292690325e-01	 1.101816351843927e+00	 9.961081636711519e+00
 9.099929200018941e-01	 1.120859914589782e+00	 9.570709462918748e+00
 8.866621629417855e-01	 1.139405227034742e+00	 9.175942913304114e+00
 8.629841700028190e-01	 1.157442173462472e+00	 8.773218306908150e+00
 8.389755139984812e-01	 1.174961339573989e+00	 8.358930743558469e+00
 8.146530909107688e-01	 1.191954027657401e+00	 7.929454314707085e+00
 7.900340814669840e-01	 1.208412269341645e+00	 7.481162683601605e+00
 1.025304832744000e+00	 1.025304832744000e+00	 1.153925238691971e+01
 1.003852481655681e+00	 1.046317444741425e+00	 1.110940526933644e+01
 9.819743293680691e-01	 1.066876945368499e+00	 1.069868163737912e+01
 9.596848492182430e-01	 1.086970556306756e+00	 1.030437432600170e+01
 9.369990181422019e-01	 1.106586119602734e+00	 9.923618897056594e+00
 9.139322832938440e-01	 1.125712122014301e+00	 9.553408905480261e+00
 8.905005272854427e-01	 1.144337717197305e+00	 9.190612437524146e+00
 8.667200322125570e-01	 1.162452745644430e+00	 8.831989780380514e+00
 8.426074426324545e-01	 1.180047752302153e+00	 8.474212069596099e+00
 8.181797276699113e-01	 1.197114001806148e+00	 8.113880749703867e+00
 7.934541424276725e-01	 1.213643491290239e+00	 7.747547674707544e+00
 1.029724250127750e+00	 1.029724250127750e+00	 1.152346983471410e+01
 1.008179432009007e+00	 1.050827433728497e+00	 1.107256556599793e+01
 9.862069773409505e-01	 1.071475552892692e+00	 1.065077144777529e+01
 9.638214218457319e-01	 1.091655774222912e+00	 1.025587979208398e+01
 9.410378070151100e-01	 1.111355887360721e+00	 9.885483524797442e+00
 9.178716465855419e-01	 1.130564329437945e+00	 9.536989670412300e+00
 8.943388916288376e-01	 1.149270207358948e+00	 9.207634358023801e+00
 8.704558944220014e-01	 1.167463317825433e+00	 8.894499216345547e+00
 8.462393712660834e-01	 1.185134165029337e+00	 8.594529010403605e+00
 8.217063644286390e-01	 1.202273975953900e+00	 8.304550359262375e+00
 7.968742033878553e-01	 1.218874713237833e+00	 8.021291363021648e+00
 1.034143667511000e+00	 1.034143667511000e+00	 1.150005987044862e+01
 1.012506382361923e+00	 1.055337422714973e+00	 1.102993009718480e+01
 9.904396253134916e-01	 1.076074160416205e+00	 1.059882784988642e+01
 9.679579944729305e-01	 1.096340992138312e+00	 1.020504154489567e+01
 9.450765958877567e-01	 1.116125655117888e+00	 9.846618277448956e+00
 9.218110098769879e-01	 1.135416536860714e+00	 9.521375536164397e+00
 8.981772559719691e-01	 1.154202697519670e+00	 9.226914686975284e+00
 8.741917566311522e-01	 1.172473890005481e+00	 8.960636102821004e+00
 8.498712998993679e-01	 1.190220577755540e+00	 8.719755797899241e+00
 8.252330011869511e-01	 1.207433950100656e+00	 8.501323409720229e+00
 8.002942643475330e-01	 1.224105935184426e+00	 8.302241358773349e+00
 1.038563084893750e+00	 1.038563084893750e+00	 1.146905178801680e+01
 1.016833332714429e+00	 1.059847411700855e+00	 1.098150508508258e+01
 9.946722732856925e-01	 1.080672767939038e+00	 1.054283503995943e+01
 9.720945670998383e-01	 1.101026210052957e+00	 1.015182284178712e+01
 9.491153847601421e-01	 1.120895422874235e+00	 9.806966598840884e+00
 9.257503731681819e-01	 1.140268744282607e+00	 9.506491293685684e+00
 9.020156203148380e-01	 1.159135187679472e+00	 9.248360755179844e+00
 8.779276188400094e-01	 1.177484462184573e+00	 9.030291532011994e+00
 8.535032285323079e-01	 1.195306990480764e+00	 8.849768532713689e+00
 8.287596379448484e-01	 1.212593924246417e+00	 8.704062279217267e+00
 8.037143253067056e-01	 1.229337157130020e+00	 8.590247605303439e+00
 1.042982502276000e+00	 1.042982502276000e+00	 1.143047409159093e+01
 1.021160283066525e+00	 1.064357400686141e+00	 1.092729635387274e+01
 9.989049212575530e-01	 1.085271375461190e+00	 1.048277719085488e+01
 9.762311397264556e-01	 1.105711427966847e+00	 1.009618727353528e+01
 9.531541736322664e-01	 1.125665190629761e+00	 9.766472604575632e+00
 9.296897364591239e-01	 1.145120951703625e+00	 9.492262724974294e+00
 9.058539846574439e-01	 1.164067677838354e+00	 9.271881184131441e+00
 8.816634810485726e-01	 1.182495034362711e+00	 9.103358166323492e+00
 8.571351571649034e-01	 1.200393403205007e+00	 8.984445144598588e+00
 8.322862747023305e-01	 1.217753898391184e+00	 8.912631412953941e+00
 8.071343862653726e-01	 1.234568379074614e+00	 8.885162329631934e+00
 1.047401919657750e+00	 1.047401919657750e+00	 1.138435451228268e+01
 1.025487233418211e+00	 1.068867389670833e+00	 1.086730933812948e+01
 1.003137569229073e+00	 1.089869982982662e+00	 1.041863845254077e+01
 9.803677123527821e-01	 1.110396645879981e+00	 1.003809875730761e+01
 9.571929625041291e-01	 1.130434958384467e+00	 9.725081067858129e+00
 9.336290997498136e-01	 1.149973159123768e+00	 9.478616582168840e+00
 9.096923489997870e-01	 1.169000167996316e+00	 9.297385858786736e+00
 8.853993432568421e-01	 1.187505606539893e+00	 9.179730205234177e+00
 8.607670857971543e-01	 1.205479815928270e+00	 9.123665353838135e+00
 8.358129114593977e-01	 1.222913872534955e+00	 9.126897279581737e+00
 8.105544472235345e-01	 1.239799601018207e+00	 9.186839994280144e+00
 1.051821337039000e+00	 1.051821337039000e+00	 1.133072002438389e+01
 1.029814183769487e+00	 1.073377378654929e+00	 1.080154909100447e+01
 1.007370217200253e+00	 1.094468590503455e+00	 1.035040295257211e+01
 9.845042849788176e-01	 1.115081863792361e+00	 9.977521529806708e+00
 9.612317513757310e-01	 1.135204726138352e+00	 9.682737405678290e+00
 9.375684630402514e-01	 1.154825366543035e+00	 9.465480567167003e+00
 9.135307133418675e-01	 1.173932658153357e+00	 9.324785901021357e+00
 8.891352054648182e-01	 1.192516178716120e+00	 9.259303353004547e+00
 8.643990144290609e-01	 1.210566228650553e+00	 9.267310633631411e+00
 8.393395482160498e-01	 1.228073846677731e+00	 9.346728328695576e+00
 8.139745081811909e-01	 1.245030822960801e+00	 9.495137250305842e+00
 1.056240754419750e+00	 1.056240754419750e+00	 1.126959686119950e+01
 1.034141134120353e+00	 1.077887367638430e+00	 1.073002029220684e+01
 1.011602865171093e+00	 1.099067198023567e+00	 1.027805479656139e+01
 9.886408576045628e-01	 1.119767081703985e+00	 9.914420140584319e+00
 9.652705402470714e-01	 1.139974493891418e+00	 9.639387665345396e+00
 9.415078263304374e-01	 1.159677573961427e+00	 9.452783311756816e+00
 9.173690776836849e-01	 1.178865148309478e+00	 9.353993643753302e+00
 8.928710676725004e-01	 1.197526750891392e+00	 9.341974787196634e+00
 8.680309430606228e-01	 1.215652641371856e+00	 9.415264173422605e+00
 8.428661849722869e-01	 1.233233820819513e+00	 9.571994949389101e+00
 8.173945691383421e-01	 1.250262044902395e+00	 9.778574172693153e+00
 1.060660171800000e+00	 1.060660171800000e+00	 1.120101053048510e+01
 1.038468084470809e+00	 1.082397356621336e+00	 1.065272725578282e+01
 1.015835513141593e+00	 1.103665805542999e+00	 1.020157806863438e+01
 9.927774302300173e-01	 1.124452299614854e+00	 9.848759445523953e+00
 9.693093291181506e-01	 1.144744261643662e+00	 9.594978511353789e+00
 9.454471896203714e-01	 1.164529781378944e+00	 9.440454358243462e+00
 9.212074420252399e-01	 1.183797638464678e+00	 9.384922605713625e+00
 8.966069298798891e-01	 1.202537323065708e+00	 9.427643127979543e+00
 8.716628716918403e-01	 1.220739054092179e+00	 9.567410843144117e+00
 8.463928217281088e-01	 1.238393794960299e+00	 9.802569429849971e+00
 8.208146300949881e-01	 1.255493266842989e+00	 9.476612043650915e+00
 7.866140205057904e-01	 1.203181047392051e+00	 7.222291163303188e+00
 7.618236355234277e-01	 1.219028711069166e+00	 7.375440475715109e+00
 7.367728559421065e-01	 1.234330591370090e+00	 7.720829674713476e+00
 7.114794048855733e-01	 1.249080984748231e+00	 8.260883068677577e+00
 6.859611326255991e-01	 1.263274940206068e+00	 7.187118769422154e+00
 6.602359775369485e-01	 1.276908259813596e+00	 6.178554752674270e+00
 6.343219274121989e-01	 1.289977496860427e+00	 5.365030934140770e+00
 6.082369812983350e-01	 1.302479951696174e+00	 4.657593095749403e+00
 5.819991120102488e-01	 1.314413665325824e+00	 4.073452022666045e+00
 5.556262294685167e-01	 1.325777410838185e+00	 3.666413880888055e+00
 5.291361450002061e-01	 1.336570682755877e+00	 3.442977688600308e+00
 7.900340814669840e-01	 1.208412269341645e+00	 7.481162683601605e+00
 7.651359122021751e-01	 1.224328835904646e+00	 7.748167280336926e+00
 7.399762161879453e-01	 1.239697246120185e+00	 8.198782209450840e+00
 7.145727936051000e-01	 1.254511771643640e+00	 8.235476529873791e+00
 6.889435723352891e-01	 1.268767439951415e+00	 7.105147051302415e+00
 6.631065687462104e-01	 1.282460034861637e+00	 6.151720946658521e+00
 6.370798488382357e-01	 1.295586094678219e+00	 5.382322325460321e+00
 6.108814899150761e-01	 1.308142908013167e+00	 4.724456588902338e+00
 5.845295429342969e-01	 1.320128507354096e+00	 4.166136434840016e+00
 5.580419956856956e-01	 1.331541660455420e+00	 3.773437060907006e+00
 5.314367369368919e-01	 1.342381859642033e+00	 3.552809115723063e+00
 7.934541424276725e-01	 1.213643491290239e+00	 7.747547674707544e+00
 7.684481888803277e-01	 1.229628960739132e+00	 8.126687664205173e+00
 7.431795764331197e-01	 1.245063900869301e+00	 8.680903319519365e+00
 7.176661823239149e-01	 1.259942558538095e+00	 8.094278018717841e+00
 6.919260120442391e-01	 1.274259939695846e+00	 7.028188980145013e+00
 6.659771599547245e-01	 1.288011809908807e+00	 6.128360558077961e+00
 6.398377702635368e-01	 1.301194692495198e+00	 5.401642569338596e+00
 6.135259985311134e-01	 1.313805864329411e+00	 4.791368680736110e+00
 5.870599738576936e-01	 1.325843349381697e+00	 4.257563675258499e+00
 5.604577619022939e-01	 1.337305910072069e+00	 3.878002915093901e+00
 5.337373288730878e-01	 1.348193036527699e+00	 3.659090847160492e+00
 7.968742033878553e-01	 1.218874713237833e+00	 8.021291363021648e+00
 7.717604655578856e-01	 1.234929085572623e+00	 8.510870767936595e+00
 7.463829366776306e-01	 1.250430555617438e+00	 9.111591537047246e+00
 7.207595710420169e-01	 1.265373345431599e+00	 7.959669499059130e+00
 6.949084517524486e-01	 1.279752439439361e+00	 6.956206716066909e+00
 6.688477511624905e-01	 1.293563584955108e+00	 6.108453734447741e+00
 6.425956916881024e-01	 1.306803290311363e+00	 5.422988553657273e+00
 6.161705071464476e-01	 1.319468820644910e+00	 4.858359453798000e+00
 5.895904047804387e-01	 1.331558191408627e+00	 4.347776686949631e+00
 5.628735281183124e-01	 1.343070159688135e+00	 3.980165985299671e+00
 5.360379208087941e-01	 1.354004213412875e+00	 3.761887760582892e+00
 8.002942643475330e-01	 1.224105935184426e+00	 8.302241358773349e+00
 7.750727422348481e-01	 1.240229210405119e+00	 8.900587713582020e+00
 7.495862969214776e-01	 1.255797210364595e+00	 8.912338085802324e+00
 7.238529597594070e-01	 1.270804132324149e+00	 7.831595151901736e+00
 6.978908914599178e-01	 1.285244939181959e+00	 6.889163311821344e+00
 6.717183423695084e-01	 1.299115360000538e+00	 6.091981194186403e+00
 6.453536131119321e-01	 1.312411888126714e+00	 5.446357436794418e+00
 6.188150157610780e-01	 1.325131776959660e+00	 4.925458982396540e+00
 5.921208357025323e-01	 1.337273033434886e+00	 4.436818147927941e+00
 5.652892943337505e-01	 1.348834409303615e+00	 4.079980313775102e+00
 5.383385127440107e-01	 1.359815390297562e+00	 3.861264021830733e+00
 8.037143253067056e-01	 1.229337157130020e+00	 8.590247605303439e+00
 7.783850189112159e-01	 1.245529335236620e+00	 9.295711562469091e+00
 7.527896571646605e-01	 1.261163865110774e+00	 8.721227823636966e+00
 7.269463484760850e-01	 1.276234919215747e+00	 7.710000367255151e+00
 7.008733311666465e-01	 1.290737438923639e+00	 6.827022693804455e+00
 6.745889335757782e-01	 1.304667135045099e+00	 6.078924214468774e+00
 6.481115345350261e-01	 1.318020485941253e+00	 5.471746641869718e+00
 6.214595243750053e-01	 1.330794733273663e+00	 4.992697332777972e+00
 5.946512666239744e-01	 1.342987875460474e+00	 4.524730476832461e+00
 5.677050605486085e-01	 1.354598658918510e+00	 4.177499453799483e+00
 5.406391046787375e-01	 1.365626567181759e+00	 3.957283100060124e+00
 8.071343862653726e-01	 1.234568379074614e+00	 8.885162329631934e+00
 7.816972955869885e-01	 1.250829460067127e+00	 9.592980044515937e+00
 7.559930174071795e-01	 1.266530519855974e+00	 8.538187972277143e+00
 7.300397371920501e-01	 1.281665706106391e+00	 7.594831718516867e+00
 7.038557708726352e-01	 1.296229938664404e+00	 6.769749643546172e+00
 6.774595247813002e-01	 1.310218910088789e+00	 6.069264619389033e+00
 6.508694559573845e-01	 1.323629083754977e+00	 5.499153851134643e+00
 6.241040329882289e-01	 1.336457689586920e+00	 5.060104563295084e+00
 5.971816975447647e-01	 1.348702717485391e+00	 4.611555838421912e+00
 5.701208267628863e-01	 1.360362908532820e+00	 4.272776480039873e+00
 5.429396966129747e-01	 1.371437744065466e+00	 4.050007782504764e+00
 8.105544472235345e-01	 1.239799601018207e+00	 9.186839994280144e+00
 7.850095722621667e-01	 1.256129584896639e+00	 9.342147775232295e+00
 7.591963776490347e-01	 1.271897174600194e+00	 8.363147252385600e+00
 7.331331259073032e-01	 1.287096492996083e+00	 7.486036937509203e+00
 7.068382105778832e-01	 1.301722438404252e+00	 6.717309779669375e+00
 6.803301159860737e-01	 1.315770685131609e+00	 6.062984768420567e+00
 6.536273773790073e-01	 1.329237681567888e+00	 5.528577000507273e+00
 6.267485416007493e-01	 1.342120645899430e+00	 5.119071292508076e+00
 5.997121284649038e-01	 1.354417559509638e+00	 4.697336148930444e+00
 5.725365929765839e-01	 1.366127158146545e+00	 4.365863998648836e+00
 5.452402885467222e-01	 1.377248920948683e+00	 4.139500188860328e+00
 8.139745081811909e-01	 1.245030822960801e+00	 9.495137250305842e+00
 7.883218489367493e-01	 1.261429709725155e+00	 9.100932005283052e+00
 7.623997378902262e-01	 1.277263829343436e+00	 8.196035852072205e+00
 7.362265146218441e-01	 1.292527279884821e+00	 7.383564890141082e+00
 7.098206502823914e-01	 1.307214938143183e+00	 6.669669540304371e+00
 6.832007071900995e-01	 1.321322460173559e+00	 6.060067545170553e+00
 6.563852987998944e-01	 1.334846279379985e+00	 5.560014274241243e+00
 6.293930502125664e-01	 1.347783602211193e+00	 5.174276360755343e+00
 6.022425593843912e-01	 1.360132401533213e+00	 4.782113081290303e+00
 5.749523591897012e-01	 1.371891407759685e+00	 4.456814157107633e+00
 5.475408804799798e-01	 1.383060097831411e+00	 4.225821785310577e+00
 8.173945691383421e-01	 1.250262044902395e+00	 9.778574172693153e+00
 7.916341256107372e-01	 1.266729834552678e+00	 8.869244944682347e+00
 7.656030981307533e-01	 1.282630484085698e+00	 8.036785396193583e+00
 7.393199033356723e-01	 1.297958066772606e+00	 7.287365552683195e+00
 7.128030899861588e-01	 1.312707437881198e+00	 6.626796165943547e+00
 6.860712983933771e-01	 1.326874235214639e+00	 6.060496346412824e+00
 6.591432202200460e-01	 1.340454877191269e+00	 5.593464099731108e+00
 6.320375588236798e-01	 1.353446558522208e+00	 5.230249982209392e+00
 6.047729903032273e-01	 1.365847243556118e+00	 4.865928070219310e+00
 5.773681254022385e-01	 1.377655657372240e+00	 4.545678653821035e+00
 5.498414724127477e-01	 1.388871274713649e+00	 4.309033398196609e+00
 8.208146300949881e-01	 1.255493266842989e+00	 9.476612043650915e+00
 7.949464022841306e-01	 1.272029959379206e+00	 8.647000547389938e+00
 7.688064583706171e-01	 1.287997138826982e+00	 7.885328916421246e+00
 7.424132920487887e-01	 1.303388853659439e+00	 7.197389988634475e+00
 7.157855296891864e-01	 1.318199937618296e+00	 6.588657682726069e+00
 6.889418895959070e-01	 1.332426010254849e+00	 6.064255071398156e+00
 6.619011416394617e-01	 1.346063475001740e+00	 5.628925142448358e+00
 6.346820674340899e-01	 1.359109514832477e+00	 5.287004467282451e+00
 6.073034212214117e-01	 1.371562085578352e+00	 4.948822317185852e+00
 5.797838916141955e-01	 1.383419906984210e+00	 4.632508747473525e+00
 5.521420643450261e-01	 1.394682451595398e+00	 4.389195227349346e+00
 5.291361450002061e-01	 1.336570682755877e+00	 3.442977688600308e+00
 5.025465367328584e-01	 1.346793684405089e+00	 3.544258155391266e+00
 4.758749161986708e-01	 1.356447313410629e+00	 3.587562987177261e+00
 4.491385962591000e-01	 1.365533145430621e+00	 3.575523524694540e+00
 4.223546604492835e-01	 1.374053416251349e+00	 3.510545462835557e+00
 3.955399338264623e-01	 1.382011002366635e+00	 3.394786087488321e+00
 3.687109553981865e-01	 1.389409400171311e+00	 3.230135611855114e+00
 3.418839521937857e-01	 1.396252703901046e+00	 3.018202607353283e+00
 3.150748150310693e-01	 1.402545582452712e+00	 2.760303475108572e+00
 2.882990760188414e-01	 1.408293255220358e+00	 2.457455858532105e+00
 2.615718878246577e-01	 1.413501467081764e+00	 2.110375855979518e+00
 5.314367369368919e-01	 1.342381859642033e+00	 3.552809115723063e+00
 5.047315216768948e-01	 1.352649309124183e+00	 3.634922981077324e+00
 4.779439375750410e-01	 1.362344910429429e+00	 3.661105293633817e+00
 4.510913727660969e-01	 1.371470246066582e+00	 3.634181122830319e+00
 4.241909850614390e-01	 1.380027561542737e+00	 3.556732677146453e+00
 3.972596726707304e-01	 1.388019745858209e+00	 3.431076097121090e+00
 3.703140465102490e-01	 1.395450310609549e+00	 3.259242477433663e+00
 3.433704041616247e-01	 1.402323367833450e+00	 3.042963110567257e+00
 3.164447055331784e-01	 1.408643606726335e+00	 2.783658894396419e+00
 2.895525502646208e-01	 1.414416269375272e+00	 2.482433799506794e+00
 2.627091569046704e-01	 1.419647125635770e+00	 2.140072249689396e+00
 5.337373288730878e-01	 1.348193036527699e+00	 3.659090847160492e+00
 5.069165066205310e-01	 1.358504933842883e+00	 3.722400854288772e+00
 4.800129589510790e-01	 1.368242507447918e+00	 3.731813123215990e+00
 4.530441492728088e-01	 1.377407346702306e+00	 3.690347029410578e+00
 4.260273096733365e-01	 1.386001706833951e+00	 3.600761839724957e+00
 3.989794115147466e-01	 1.394028489349663e+00	 3.465533057881772e+00
 3.719171376220459e-01	 1.401491221047711e+00	 3.286833129161237e+00
 3.448568561291647e-01	 1.408394031765811e+00	 3.066516494243424e+00
 3.178145960349354e-01	 1.414741630999939e+00	 2.806108930857113e+00
 2.908060245099766e-01	 1.420539283530181e+00	 2.506801074369425e+00
 2.638464259841685e-01	 1.425792784189777e+00	 2.169445965164728e+00
 5.360379208087941e-01	 1.354004213412875e+00	 3.761887760582892e+00
 5.091014915637667e-01	 1.364360558561187e+00	 3.806748403113483e+00
 4.820819803267848e-01	 1.374140104466097e+00	 3.799735160285416e+00
 4.549969257792361e-01	 1.383344447337793e+00	 3.744062305590288e+00
 4.278636342849755e-01	 1.391975852124992e+00	 3.642666722444227e+00
 4.006991503585112e-01	 1.400037232840998e+00	 3.498183798402033e+00
 3.735202287335769e-01	 1.407532131485796e+00	 3.312927809287912e+00
 3.463433080964055e-01	 1.414464695698129e+00	 3.088876780615635e+00
 3.191844865363405e-01	 1.420839655273525e+00	 2.827661761274662e+00
 2.920594987549080e-01	 1.426662297685086e+00	 2.530560395913088e+00
 2.649836950631520e-01	 1.431938442743783e+00	 2.198494638268593e+00
 5.383385127440107e-01	 1.359815390297562e+00	 3.861264021830733e+00
 5.112864765066020e-01	 1.370216183279095e+00	 3.888021650190926e+00
 4.841510017021583e-01	 1.380037701483964e+00	 3.864919585950755e+00
 4.569497022853783e-01	 1.389281547973044e+00	 3.795367607156991e+00
 4.296999588963565e-01	 1.397949997415859e+00	 3.682480785268773e+00
 4.024188892020237e-01	 1.406045976332213e+00	 3.529054924341213e+00
 3.751233198448426e-01	 1.413573041923805e+00	 3.337546621413970e+00
 3.478297600633471e-01	 1.420535359630405e+00	 3.110057932907027e+00
 3.205543770373935e-01	 1.426937679547092e+00	 2.848325578310812e+00
 2.933129729994157e-01	 1.432785311839987e+00	 2.553714562900785e+00
 2.661209641416207e-01	 1.438084101297789e+00	 2.227216056097424e+00
 5.406391046787375e-01	 1.365626567181759e+00	 3.957283100060124e+00
 5.134714614490369e-01	 1.376071807996609e+00	 3.966276025594965e+00
 4.862200230771999e-01	 1.385935298501522e+00	 3.927414088776392e+00
 4.589024787912355e-01	 1.395218648608058e+00	 3.844303193154468e+00
 4.315362835074791e-01	 1.403924142706554e+00	 3.720237182891157e+00
 4.041386280452844e-01	 1.412054719823309e+00	 3.558172823129387e+00
 3.767264109558426e-01	 1.419613952361738e+00	 3.360709533440485e+00
 3.493162120299898e-01	 1.426606023562638e+00	 3.130073856582714e+00
 3.219242675380946e-01	 1.433035703820639e+00	 2.868108590167949e+00
 2.945664472434993e-01	 1.438908325994882e+00	 2.576266458239528e+00
 2.672582332195749e-01	 1.444229759851796e+00	 2.255608153761768e+00
 5.429396966129747e-01	 1.371437744065466e+00	 4.050007782504764e+00
 5.156564463910714e-01	 1.381927432713729e+00	 4.041566379387575e+00
 4.882890444519091e-01	 1.391832895518768e+00	 3.987265875217086e+00
 4.608552552968080e-01	 1.401155749242835e+00	 3.890908934289484e+00
 4.333726081183437e-01	 1.409898287997076e+00	 3.755968771199854e+00
 4.058583668882930e-01	 1.418063463314284e+00	 3.585563668591035e+00
 3.783295020665770e-01	 1.425654862799595e+00	 3.382436380442951e+00
 3.508026639963331e-01	 1.432676687494828e+00	 3.148938400576319e+00
 3.232941580384436e-01	 1.439133728094168e+00	 2.887019020258418e+00
 2.958199214871590e-01	 1.445031340149773e+00	 2.598219047195816e+00
 2.683955022970143e-01	 1.450375418405802e+00	 2.283669011251619e+00
 5.452402885467222e-01	 1.377248920948683e+00	 4.139500188860328e+00
 5.178414313327057e-01	 1.387783057430453e+00	 4.113946993855730e+00
 4.903580658262861e-01	 1.397730492535703e+00	 4.044521679789677e+00
 4.628080318020956e-01	 1.407092849877375e+00	 3.935224321123666e+00
 4.352089327289499e-01	 1.415872433287424e+00	 3.789708113583299e+00
 4.075781057310500e-01	 1.424072206805140e+00	 3.611253425451282e+00
 3.799325931770458e-01	 1.431695773237376e+00	 3.402746867475321e+00
 3.522891159623776e-01	 1.438747351426976e+00	 3.166665358479930e+00
 3.246640485384406e-01	 1.445231752367678e+00	 2.905065106885030e+00
 2.970733957303947e-01	 1.451154354304659e+00	 2.619575375658124e+00
 2.695327713739390e-01	 1.456521076959809e+00	 2.311396850379715e+00
 5.475408804799798e-01	 1.383060097831411e+00	 4.225821785310577e+00
 5.200264162739394e-01	 1.393638682146782e+00	 4.183471595439595e+00
 4.924270872003310e-01	 1.403628089552328e+00	 4.099227774986700e+00
 4.647608083070983e-01	 1.413029950511678e+00	 3.977288472060880e+00
 4.370452573392981e-01	 1.421846578577599e+00	 3.821487487073489e+00
 4.092978445735550e-01	 1.430080950295877e+00	 3.635267853730127e+00
 3.815356842872488e-01	 1.437736683675080e+00	 3.421660572300103e+00
 3.537755679281229e-01	 1.444818015359082e+00	 3.183268469709414e+00
 3.260339390380856e-01	 1.451329776641170e+00	 2.922255102927921e+00
 2.983268699732062e-01	 1.457277368459541e+00	 2.640338568444335e+00
 2.706700404503491e-01	 1.462666735513815e+00	 2.338790031801639e+00
 5.498414724127477e-01	 1.388871274713649e+00	 4.309033398196609e+00
 5.222114012147727e-01	 1.399494306862716e+00	 4.250193366360367e+00
 4.944961085740436e-01	 1.409525686568642e+00	 4.151429980943650e+00
 4.667135848118161e-01	 1.418967051145745e+00	 4.017140141131376e+00
 4.388815819493879e-01	 1.427820723867601e+00	 3.851338888339383e+00
 4.110175834158080e-01	 1.436089693786493e+00	 3.657632513022498e+00
 3.831387753971863e-01	 1.443777594112708e+00	 3.439196948051974e+00
 3.552620198935689e-01	 1.450888679291144e+00	 3.198761420634840e+00
 3.274038295373786e-01	 1.457427800914642e+00	 2.938597275539391e+00
 2.995803442155939e-01	 1.463400382614418e+00	 2.660511827648786e+00
 2.718073095262445e-01	 1.468812394067822e+00	 2.365847052111507e+00
 5.521420643450261e-01	 1.394682451595398e+00	 4.389195227349346e+00
 5.243963861552059e-01	 1.405349931578256e+00	 4.314164955958359e+00
 4.965651299474242e-01	 1.415423283584646e+00	 4.201173674861420e+00
 4.686663613162491e-01	 1.424904151779574e+00	 4.054817725584276e+00
 4.407179065592197e-01	 1.433794869157430e+00	 3.879294039524299e+00
 4.127373222578093e-01	 1.442098437276990e+00	 3.678372766675994e+00
 3.847418665068583e-01	 1.449818504550261e+00	 3.455375325834456e+00
 3.567484718587159e-01	 1.456959343223164e+00	 3.213157845688424e+00
 3.287737200363195e-01	 1.463525825188096e+00	 2.954099905846611e+00
 3.008338184575576e-01	 1.469523396769290e+00	 2.680098431034049e+00
 2.729445786016254e-01	 1.474958052621829e+00	 2.392566541009837e+00
 2.615718878246577e-01	 1.413501467081764e+00	 2.110375855979518e+00
 2.349080047260342e-01	 1.418176462669061e+00	 1.731142876356430e+00
 2.083217654544127e-01	 1.422324960056710e+00	 1.423248582154386e+00
 1.818270778291117e-01	 1.425954123995218e+00	 1.185390003181118e+00
 1.554374051692456e-01	 1.429071538815522e+00	 1.015636900152268e+00
 1.291657544645211e-01	 1.431685181126896e+00	 9.114643402240650e-01
 1.030246662759470e-01	 1.433803392424789e+00	 8.697882578972322e-01
 7.702620633025550e-02	 1.435434851720107e+00	 8.870035497429234e-01
 5.118195876485489e-02	 1.436588548295735e+00	 9.590242529314350e-01
 2.550302097384172e-02	 1.437273754689955e+00	 1.081325364159826e+00
 0.000000000000000e+00	 1.437500000000000e+00	 1.248985866801235e+00
 2.627091569046704e-01	 1.419647125635770e+00	 2.140072249689396e+00
 2.359293438797902e-01	 1.424342447290550e+00	 1.771370959802124e+00
 2.092275122636491e-01	 1.428508981623108e+00	 1.471467143174684e+00
 1.826176303443475e-01	 1.432153924535038e+00	 1.239052697381372e+00
 1.561132199771718e-01	 1.435284893332629e+00	 1.072195255959424e+00
 1.297273447039604e-01	 1.437909899306067e+00	 9.683706386065023e-01
 1.034725996099025e-01	 1.440037320218168e+00	 9.244983017368724e-01
 7.736110288141423e-02	 1.441675872814669e+00	 9.369793365719802e-01
 5.140448902172114e-02	 1.442834585462295e+00	 1.001736563366652e+00
 2.561390367446178e-02	 1.443522771014708e+00	 1.114256276899017e+00
 0.000000000000000e+00	 1.443750000000000e+00	 1.269631209548296e+00
 2.638464259841685e-01	 1.425792784189777e+00	 2.169445965164728e+00
 2.369506830329476e-01	 1.430508431912040e+00	 1.810962306644144e+00
 2.101332590722346e-01	 1.434693003189506e+00	 1.518781004626248e+00
 1.834081828589110e-01	 1.438353725074858e+00	 1.291588903657046e+00
 1.567890347844352e-01	 1.441498247849737e+00	 1.127451428541381e+00
 1.302889349427761e-01	 1.444134617485237e+00	 1.023844915235522e+00
 1.039205329433031e-01	 1.446271248011546e+00	 9.776919577082339e-01
 7.769599943211536e-02	 1.447916893909232e+00	 9.853993165904270e-01
 5.162701927825510e-02	 1.449080622628854e+00	 1.042897936747050e+00
 2.572478637490230e-02	 1.449771787339461e+00	 1.145684627361141e+00
 0.000000000000000e+00	 1.450000000000000e+00	 1.288864969278340e+00
 2.649836950631520e-01	 1.431938442743783e+00	 2.198494638268593e+00
 2.379720221855063e-01	 1.436674416533530e+00	 1.849917535388784e+00
 2.110390058801692e-01	 1.440877024755904e+00	 1.565193487684099e+00
 1.841987353728026e-01	 1.444553525614678e+00	 1.343004368677834e+00
 1.574648495910358e-01	 1.447711602366845e+00	 1.181413315986946e+00
 1.308505251809683e-01	 1.450359335664407e+00	 1.077896948929748e+00
 1.043684662761487e-01	 1.452505175804925e+00	 1.029380618324132e+00
 7.803089598235878e-02	 1.454157915003794e+00	 1.032276232867249e+00
 5.184954953445677e-02	 1.455326659795414e+00	 1.082522207683141e+00
 2.583566907516331e-02	 1.456020803664214e+00	 1.175625087020774e+00
 0.000000000000000e+00	 1.456250000000000e+00	 1.306702404177756e+00
 2.661209641416207e-01	 1.438084101297789e+00	 2.227216056097424e+00
 2.389933613374665e-01	 1.442840401155020e+00	 1.888237345097005e+00
 2.119447526874530e-01	 1.447061046322302e+00	 1.610707930062496e+00
 1.849892878860220e-01	 1.450753326154498e+00	 1.393304798275076e+00
 1.581406643969737e-01	 1.453924956883953e+00	 1.234088724780155e+00
 1.314121154185371e-01	 1.456584053843578e+00	 1.130536382702578e+00
 1.048163996084394e-01	 1.458739103598304e+00	 1.079575502596949e+00
 7.836579253214460e-02	 1.460398936098356e+00	 1.077622623707808e+00
 5.207207979032613e-02	 1.461572696961973e+00	 1.120622981113175e+00
 2.594655177524479e-02	 1.462269819988967e+00	 1.204092079026432e+00
 0.000000000000000e+00	 1.462500000000000e+00	 1.323158511608937e+00
 2.672582332195749e-01	 1.444229759851796e+00	 2.255608153761768e+00
 2.400147004888282e-01	 1.449006385776509e+00	 1.925922513672988e+00
 2.128504994940858e-01	 1.453245067888700e+00	 1.655327685662196e+00
 1.857798403985694e-01	 1.456953126694319e+00	 1.442495858312384e+00
 1.588164792022489e-01	 1.460138311401061e+00	 1.285485371751528e+00
 1.319737056554822e-01	 1.462808772022748e+00	 1.181772726652436e+00
 1.052643329401752e-01	 1.464973031391683e+00	 1.128287659728294e+00
 7.870068908147274e-02	 1.466639957192919e+00	 1.121450827012313e+00
 5.229461004586320e-02	 1.467818734128532e+00	 1.157213637189038e+00
 2.605743447514675e-02	 1.468518836313720e+00	 1.231099783486021e+00
 0.000000000000000e+00	 1.468750000000000e+00	 1.338248033659922e+00
 2.683955022970143e-01	 1.450375418405802e+00	 2.283669011251619e+00
 2.410360396395911e-01	 1.455172370397999e+00	 1.962973896192863e+00
 2.137562463000678e-01	 1.459429089455098e+00	 1.699056124228221e+00
 1.865703929104446e-01	 1.463152927234139e+00	 1.490583175531333e+00
 1.594922940068612e-01	 1.466351665918169e+00	 1.335610885976046e+00
 1.325352958918039e-01	 1.469033490201919e+00	 1.231615360777193e+00
 1.057122662713560e-01	 1.471206959185061e+00	 1.175527972708870e+00
 7.903558563034321e-02	 1.472880978287481e+00	 1.163772984520578e+00
 5.251714030106797e-02	 1.474064771295091e+00	 1.192307336039958e+00
 2.616831717486917e-02	 1.474767852638473e+00	 1.256662142615795e+00
 0.000000000000000e+00	 1.475000000000000e+00	 1.351985462552649e+00
 2.695327713739390e-01	 1.456521076959809e+00	 2.311396850379715e+00
 2.420573787897556e-01	 1.461338355019488e+00	 1.999392423276447e+00
 2.146619931053989e-01	 1.465613111021496e+00	 1.741896631014345e+00
 1.873609454216478e-01	 1.469352727773960e+00	 1.537572338376978e+00
 1.601681088108108e-01	 1.472565020435277e+00	 1.384472810625342e+00
 1.330968861275020e-01	 1.475258208381089e+00	 1.280073537720190e+00
 1.061601996019819e-01	 1.477440886978441e+00	 1.221307161822980e+00
 7.937048217875606e-02	 1.479121999382043e+00	 1.204601045950437e+00
 5.273967055594043e-02	 1.480310808461651e+00	 1.225917022412244e+00
 2.627919987441209e-02	 1.481016868963226e+00	 1.280792865757368e+00
 0.000000000000000e+00	 1.481250000000000e+00	 1.364385045914858e+00
 2.706700404503491e-01	 1.462666735513815e+00	 2.338790031801639e+00
 2.430787179393214e-01	 1.467504339640978e+00	 2.035179099500051e+00
 2.155677399100790e-01	 1.471797132587893e+00	 1.783852606459330e+00
 1.881514979321789e-01	 1.475552528313780e+00	 1.583468897803429e+00
 1.608439236140976e-01	 1.478778374952385e+00	 1.432078604772506e+00
 1.336584763625767e-01	 1.481482926560260e+00	 1.327156385445291e+00
 1.066081329320528e-01	 1.483674814771819e+00	 1.265635788068332e+00
 7.970537872671124e-02	 1.485363020476606e+00	 1.243946773032296e+00
 5.296220081048062e-02	 1.486556845628210e+00	 1.258055430196525e+00
 2.639008257377546e-02	 1.487265885287978e+00	 1.303505434273053e+00
 0.000000000000000e+00	 1.487500000000000e+00	 1.375460791918171e+00
 2.718073095262445e-01	 1.468812394067822e+00	 2.365847052111507e+00
 2.441000570882887e-01	 1.473670324262468e+00	 2.070335001849999e+00
 2.164734867141083e-01	 1.477981154154292e+00	 1.824927465866882e+00
 1.889420504420379e-01	 1.481752328853600e+00	 1.628278368057092e+00
 1.615197384167217e-01	 1.484991729469493e+00	 1.478435645150444e+00
 1.342200665970278e-01	 1.487707644739430e+00	 1.372872909845463e+00
 1.070560662615688e-01	 1.489908742565198e+00	 1.308524256487535e+00
 8.004027527420879e-02	 1.491604041571168e+00	 1.281821743441394e+00
 5.318473106468850e-02	 1.492802882794769e+00	 1.288735086837427e+00
 2.650096527295932e-02	 1.493514901612731e+00	 1.324813106312405e+00
 0.000000000000000e+00	 1.493750000000000e+00	 1.385226474287845e+00
 2.729445786016254e-01	 1.474958052621829e+00	 2.392566541009837e+00
 2.451213962366573e-01	 1.479836308883957e+00	 2.104861278213282e+00
 2.173792335174868e-01	 1.484165175720689e+00	 1.865124639098618e+00
 1.897326029512248e-01	 1.487952129393421e+00	 1.672006227441235e+00
 1.621955532186829e-01	 1.491205083986602e+00	 1.523551227868346e+00
 1.347816568308554e-01	 1.493932362918601e+00	 1.417231997285296e+00
 1.075039995905299e-01	 1.496142670358577e+00	 1.349982819416891e+00
 8.037517182124869e-02	 1.497845062665730e+00	 1.318237354633542e+00
 5.340726131856410e-02	 1.499048919961328e+00	 1.317968317634788e+00
 2.661184797196365e-02	 1.499763917937484e+00	 1.344728921464499e+00
 0.000000000000000e+00	 1.500000000000000e+00	 1.393695637186603e+00
 1.500000000000000e+00	 0.000000000000000e+00	 1.462319940989791e+01
 1.499763917937484e+00	 2.661184797196279e-02	 1.475991705857606e+01
 1.499048919961329e+00	 5.340726131856333e-02	 1.486421093202186e+01
 1.497845062665731e+00	 8.037517182124802e-02	 1.493499699845961e+01
 1.496142670358577e+00	 1.075039995905293e-01	 1.497135255092327e+01
 1.493932362918601e+00	 1.347816568308549e-01	 1.497252462190039e+01
 1.491205083986602e+00	 1.621955532186825e-01	 1.493793740705900e+01
 1.487952129393421e+00	 1.897326029512245e-01	 1.486719857648808e+01
 1.484165175720690e+00	 2.173792335174866e-01	 1.476010435617298e+01
 1.479836308883957e+00	 2.451213962366572e-01	 1.461664326853333e+01
 1.474958052621829e+00	 2.729445786016254e-01	 1.443699842881983e+01
 1.506250000000000e+00	 0.000000000000000e+00	 1.456394342950836e+01
 1.506012934262237e+00	 2.672273067096712e-02	 1.469876454238574e+01
 1.505294957127888e+00	 5.362979157243891e-02	 1.480182331824970e+01
 1.504086083760293e+00	 8.071006836828791e-02	 1.487207793223772e+01
 1.502376598151955e+00	 1.079519329194903e-01	 1.490864913078267e+01
 1.500157081097772e+00	 1.353432470646825e-01	 1.491082852226294e+01
 1.497418438503709e+00	 1.628713680206438e-01	 1.487808585678235e+01
 1.494151929933242e+00	 1.905231554604115e-01	 1.481007517293989e+01
 1.490349197287088e+00	 2.182849803208650e-01	 1.470663969390617e+01
 1.486002293505447e+00	 2.461427353850259e-01	 1.456781536141406e+01
 1.481103711175835e+00	 2.740818476770061e-01	 1.439383290444620e+01
 1.512500000000000e+00	 0.000000000000000e+00	 1.450615331242921e+01
 1.512261950586990e+00	 2.683361337015097e-02	 1.463914214082405e+01
 1.511540994294447e+00	 5.385232182664679e-02	 1.474101985226573e+01
 1.510327104854855e+00	 8.104496491578544e-02	 1.481078667252882e+01
 1.508610525945334e+00	 1.083998662490063e-01	 1.484760667898675e+01
 1.506381799276942e+00	 1.359048372991336e-01	 1.485081596890456e+01
 1.503631793020817e+00	 1.635471828232679e-01	 1.481992979676020e+01
 1.500351730473061e+00	 1.913137079702705e-01	 1.475464855786430e+01
 1.496533218853485e+00	 2.191907271248942e-01	 1.465486250017212e+01
 1.492168278126936e+00	 2.471640745339931e-01	 1.452065505265582e+01
 1.487249369729841e+00	 2.752191167529016e-01	 1.435230466699021e+01
 1.518750000000000e+00	 0.000000000000000e+00	 1.444979994653811e+01
 1.518510966911743e+00	 2.694449606951435e-02	 1.458101911875599e+01
 1.517787031461007e+00	 5.407485208118697e-02	 1.468176821274045e+01
 1.516568125949417e+00	 8.137986146374061e-02	 1.475108935245809e+01
 1.514844453738713e+00	 1.088477995790772e-01	 1.478818982769936e+01
 1.512606517456113e+00	 1.364664275342083e-01	 1.479245014164221e+01
 1.509845147537925e+00	 1.642229976265546e-01	 1.476343100719347e+01
 1.506551531012881e+00	 1.921042604808016e-01	 1.470087916876858e+01
 1.502717240419883e+00	 2.200964739295745e-01	 1.460473193096070e+01
 1.498334262748426e+00	 2.481854136835590e-01	 1.447512028221114e+01
 1.493395028283848e+00	 2.763563858293117e-01	 1.431237051018534e+01
 1.525000000000000e+00	 0.000000000000000e+00	 1.439485469696059e+01
 1.524759983236496e+00	 2.705537876905726e-02	 1.452436523593710e+01
 1.524033068627566e+00	 5.429738233605944e-02	 1.462403658969551e+01
 1.522809147043980e+00	 8.171475801215346e-02	 1.469295263172933e+01
 1.521078381532092e+00	 1.092957329097031e-01	 1.473036374960781e+01
 1.518831235635283e+00	 1.370280177699064e-01	 1.473569477343039e+01
 1.516058502055033e+00	 1.648988124305042e-01	 1.470855183265667e+01
 1.512751331552701e+00	 1.928948129920047e-01	 1.464872801734604e+01
 1.508901261986281e+00	 2.210022207349055e-01	 1.455620772479367e+01
 1.504500247369916e+00	 2.492067528337234e-01	 1.443116957940185e+01
 1.499540686837854e+00	 2.774936549062363e-01	 1.427398782242467e+01
 1.531250000000000e+00	 0.000000000000000e+00	 1.434128939633020e+01
 1.531008999561248e+00	 2.716626146877968e-02	 1.446915073691349e+01
 1.530279105794125e+00	 5.451991259126421e-02	 1.456779367406786e+01
 1.529050168138543e+00	 8.204965456102394e-02	 1.463634368587859e+01
 1.527312309325470e+00	 1.097436662408839e-01	 1.467409414689218e+01
 1.525055953814453e+00	 1.375896080062280e-01	 1.468051413907255e+01
 1.522271856572141e+00	 1.655746272351165e-01	 1.465525517057995e+01
 1.518951132092522e+00	 1.936853655038800e-01	 1.459815667775819e+01
 1.515085283552679e+00	 2.219079675408875e-01	 1.450925019083643e+01
 1.510666231991405e+00	 2.502280919844864e-01	 1.438876205089155e+01
 1.505686345391861e+00	 2.786309239836758e-01	 1.423711457462518e+01
 1.537500000000000e+00	 0.000000000000000e+00	 1.428907633528630e+01
 1.537258015886002e+00	 2.727714416868163e-02	 1.441534634116874e+01
 1.536525142960684e+00	 5.474244284680128e-02	 1.451300864752852e+01
 1.535291189233104e+00	 8.238455111035210e-02	 1.458123019578953e+01
 1.533546237118850e+00	 1.101915995726197e-01	 1.461934724046284e+01
 1.531280671993623e+00	 1.381511982431732e-01	 1.462687304420822e+01
 1.528485211089249e+00	 1.662504420403917e-01	 1.460350446001238e+01
 1.525150932632342e+00	 1.944759180164274e-01	 1.454912727520224e+01
 1.521269305119077e+00	 2.228137143475203e-01	 1.446382019729946e+01
 1.516832216612895e+00	 2.512494311358480e-01	 1.434785736895068e+01
 1.511832003945867e+00	 2.797681930616300e-01	 1.420170930838770e+01
 1.543750000000000e+00	 0.000000000000000e+00	 1.423818825320286e+01
 1.543507032210754e+00	 2.738802686876311e-02	 1.436292323350947e+01
 1.542771180127244e+00	 5.496497310267064e-02	 1.445965117254881e+01
 1.541532210327667e+00	 8.271944766013789e-02	 1.452758033746400e+01
 1.539780164912228e+00	 1.106395329049104e-01	 1.456608975946016e+01
 1.537505390172794e+00	 1.387127884807419e-01	 1.457473681456698e+01
 1.534698565606357e+00	 1.669262568463296e-01	 1.455326367065783e+01
 1.531350733172162e+00	 1.952664705296468e-01	 1.450160247475679e+01
 1.527453326685475e+00	 2.237194611548041e-01	 1.441987916012171e+01
 1.522998201234384e+00	 2.522707702878081e-01	 1.430841576000725e+01
 1.517977662499874e+00	 2.809054621400987e-01	 1.416773112444465e+01
 1.550000000000000e+00	 0.000000000000000e+00	 1.418859832914115e+01
 1.549756048535507e+00	 2.749890956902411e-02	 1.431185305468395e+01
 1.549017217293803e+00	 5.518750335887230e-02	 1.440769138270669e+01
 1.547773231422229e+00	 8.305434421038133e-02	 1.447536277203951e+01
 1.546014092705607e+00	 1.110874662377560e-01	 1.451428893100771e+01
 1.543730108351965e+00	 1.392743787189341e-01	 1.452407128548315e+01
 1.540911920123465e+00	 1.676020716529302e-01	 1.450449729217642e+01
 1.537550533711983e+00	 1.960570230435383e-01	 1.445554547049683e+01
 1.533637348251873e+00	 2.246252079627387e-01	 1.437738903192755e+01
 1.529164185855874e+00	 2.532921094403670e-01	 1.427039799347415e+01
 1.524123321053880e+00	 2.820427312190821e-01	 1.413513967138719e+01
 1.556250000000000e+00	 0.000000000000000e+00	 1.414028017302090e+01
 1.556005064860260e+00	 2.760979226946463e-02	 1.426210789222670e+01
 1.555263254460362e+00	 5.541003361540625e-02	 1.435709987322689e+01
 1.554014252516792e+00	 8.338924076108242e-02	 1.442454663604781e+01
 1.552248020498986e+00	 1.115353995711566e-01	 1.446391247021288e+01
 1.549954826531135e+00	 1.398359689577499e-01	 1.447484279166226e+01
 1.547125274640573e+00	 1.682778864601936e-01	 1.445717032374359e+01
 1.543750334251803e+00	 1.968475755581020e-01	 1.441091997487162e+01
 1.539821369818271e+00	 2.255309547713241e-01	 1.433631229125011e+01
 1.535330170477364e+00	 2.543134485935243e-01	 1.423376537084589e+01
 1.530268979607887e+00	 2.831800002985802e-01	 1.410389513466404e+01
 1.562500000000000e+00	 0.000000000000000e+00	 1.409320781700292e+01
 1.562254081185013e+00	 2.772067497008468e-02	 1.421366027152270e+01
 1.561509291626922e+00	 5.563256387227252e-02	 1.430784769174786e+01
 1.560255273611354e+00	 8.372413731224117e-02	 1.437510153190691e+01
 1.558481948292364e+00	 1.119833329051120e-01	 1.441492857040671e+01
 1.556179544710306e+00	 1.403975591971891e-01	 1.442701815719417e+01
 1.553338629157681e+00	 1.689537012681199e-01	 1.441124826385970e+01
 1.549950134791623e+00	 1.976381280733377e-01	 1.436769020833691e+01
 1.546005391384669e+00	 2.264367015805606e-01	 1.429661193201299e+01
 1.541496155098854e+00	 2.553347877472804e-01	 1.419847971505691e+01
 1.536414638161893e+00	 2.843172693785931e-01	 1.407395822584437e+01
 1.474958052621829e+00	 2.729445786016254e-01	 1.443699842881983e+01
 1.469523396769290e+00	 3.008338184575568e-01	 1.460944432365709e+01
 1.463525825188096e+00	 3.287737200363188e-01	 1.474280194832852e+01
 1.456959343223164e+00	 3.567484718587153e-01	 1.483536230579719e+01
 1.449818504550261e+00	 3.847418665068577e-01	 1.488554118020577e+01
 1.442098437276991e+00	 4.127373222578090e-01	 1.489188047380554e+01
 1.433794869157430e+00	 4.407179065592195e-01	 1.485304832862840e+01
 1.424904151779574e+00	 4.686663613162489e-01	 1.476783801184761e+01
 1.415423283584646e+00	 4.965651299474242e-01	 1.463516555924799e+01
 1.405349931578255e+00	 5.243963861552059e-01	 1.445406618754948e+01
 1.394682451595397e+00	 5.521420643450262e-01	 1.422368950326910e+01
 1.481103711175835e+00	 2.740818476770061e-01	 1.439383290444620e+01
 1.475646410924160e+00	 3.020872926995206e-01	 1.456429110050831e+01
 1.469623849461540e+00	 3.301436105352598e-01	 1.469578427893278e+01
 1.463030007155163e+00	 3.582349238238624e-01	 1.478663247099935e+01
 1.455859414987775e+00	 3.863449576165295e-01	 1.483528247315706e+01
 1.448107180767428e+00	 4.144570610998101e-01	 1.484030903511826e+01
 1.439769014447172e+00	 4.425542311690510e-01	 1.480041480876658e+01
 1.430841252413286e+00	 4.706191378206820e-01	 1.471442903721550e+01
 1.421320880600494e+00	 4.986341513208047e-01	 1.458130497911883e+01
 1.411205556293597e+00	 5.265813710956390e-01	 1.440011607995985e+01
 1.400493628476901e+00	 5.544426562773045e-01	 1.417005091928816e+01
 1.487249369729841e+00	 2.752191167529016e-01	 1.435230466699021e+01
 1.481769425079030e+00	 3.033407669419081e-01	 1.452073667330644e+01
 1.475721873734985e+00	 3.315135010345528e-01	 1.465032461087135e+01
 1.469100671087162e+00	 3.597213757893086e-01	 1.473941788889012e+01
 1.461900325425290e+00	 3.879480487264671e-01	 1.478649469132812e+01
 1.454115924257865e+00	 4.161767999420633e-01	 1.479016301471367e+01
 1.445743159736915e+00	 4.443905557791411e-01	 1.474916044257813e+01
 1.436778353046997e+00	 4.725719143253997e-01	 1.466235263626121e+01
 1.427218477616342e+00	 5.007031726945174e-01	 1.452873053787274e+01
 1.417061181008938e+00	 5.287663560364723e-01	 1.434740629812515e+01
 1.406304805358404e+00	 5.567432482100724e-01	 1.411760795930477e+01
 1.493395028283848e+00	 2.763563858293117e-01	 1.431237051018534e+01
 1.487892439233899e+00	 3.045942411847198e-01	 1.447873673767776e+01
 1.481819898008429e+00	 3.328833915341977e-01	 1.460637752396568e+01
 1.475171335019160e+00	 3.612078277550537e-01	 1.469367200870476e+01
 1.467941235862803e+00	 3.895511398366703e-01	 1.473913014166274e+01
 1.460124667748303e+00	 4.178965387845683e-01	 1.474139356876639e+01
 1.451717305026657e+00	 4.462268803894891e-01	 1.469923523035777e+01
 1.442715453680708e+00	 4.745246908304025e-01	 1.461155765178462e+01
 1.433116074632190e+00	 5.027721940685621e-01	 1.447738992280931e+01
 1.422916805724280e+00	 5.309513409777060e-01	 1.429588337954909e+01
 1.412115982239908e+00	 5.590438401433302e-01	 1.406630602052482e+01
 1.499540686837854e+00	 2.774936549062363e-01	 1.427398782242467e+01
 1.494015453388770e+00	 3.058477154279554e-01	 1.443824758804170e+01
 1.487917922281873e+00	 3.342532820341947e-01	 1.456389820092353e+01
 1.481241998951159e+00	 3.626942797210982e-01	 1.464934888660979e+01
 1.473982146300317e+00	 3.911542309471390e-01	 1.469314174202548e+01
 1.466133411238740e+00	 4.196162776273251e-01	 1.469395246829761e+01
 1.457691450316400e+00	 4.480632050000954e-01	 1.465058979110151e+01
 1.448652554314419e+00	 4.764774673356900e-01	 1.456199354906224e+01
 1.439013671648038e+00	 5.048412154429391e-01	 1.442723144739351e+01
 1.428772430439622e+00	 5.331363259193402e-01	 1.424549449149494e+01
 1.417927159121411e+00	 5.613444320770776e-01	 1.401609113340542e+01
 1.505686345391861e+00	 2.786309239836758e-01	 1.423711457462518e+01
 1.500138467543639e+00	 3.071011896716151e-01	 1.439922610539061e+01
 1.494015946555317e+00	 3.356231725345437e-01	 1.452284241503505e+01
 1.487312662883158e+00	 3.641807316874416e-01	 1.460640317331666e+01
 1.480023056737831e+00	 3.927573220578734e-01	 1.464848300873374e+01
 1.472142154729177e+00	 4.213360164703340e-01	 1.464779208662706e+01
 1.463665595606142e+00	 4.498995296109599e-01	 1.460317534987992e+01
 1.454589654948131e+00	 4.784302438412626e-01	 1.451361040314386e+01
 1.444911268663885e+00	 5.069102368176484e-01	 1.437820403847699e+01
 1.434628055154963e+00	 5.353213108613747e-01	 1.419618741813318e+01
 1.423738336002914e+00	 5.636450240113147e-01	 1.396690994873129e+01
 1.511832003945867e+00	 2.797681930616300e-01	 1.420170930838770e+01
 1.506261481698509e+00	 3.083546639156987e-01	 1.436162974536730e+01
 1.500113970828761e+00	 3.369930630352448e-01	 1.448316651816894e+01
 1.493383326815156e+00	 3.656671836540841e-01	 1.456479010199745e+01
 1.486063967175345e+00	 3.943604131688734e-01	 1.460510804439405e+01
 1.478150898219614e+00	 4.230557553135945e-01	 1.460286538713137e+01
 1.469639740895884e+00	 4.517358542220827e-01	 1.455694372551979e+01
 1.460526755581842e+00	 4.803830203471198e-01	 1.446635888645865e+01
 1.450808865679734e+00	 5.089792581926899e-01	 1.433025722383078e+01
 1.440483679870304e+00	 5.375062958038094e-01	 1.414791054800292e+01
 1.429549512884418e+00	 5.659456159460415e-01	 1.391870972500667e+01
 1.517977662499874e+00	 2.809054621400987e-01	 1.416773112444465e+01
 1.512384495853379e+00	 3.096081381602064e-01	 1.432541652663277e+01
 1.506211995102205e+00	 3.383629535362978e-01	 1.444482742906051e+01
 1.499453990747155e+00	 3.671536356210258e-01	 1.452446547649419e+01
 1.492104877612859e+00	 3.959635042801389e-01	 1.456297152603399e+01
 1.484159641710052e+00	 4.247754941571071e-01	 1.455912591129961e+01
 1.475613886185627e+00	 4.535721788334636e-01	 1.451184731858453e+01
 1.466463856215553e+00	 4.823357968532621e-01	 1.442019025672249e+01
 1.456706462695581e+00	 5.110482795680634e-01	 1.428334111998088e+01
 1.446339304585646e+00	 5.396912807466449e-01	 1.410061286177758e+01
 1.435360689765921e+00	 5.682462078812581e-01	 1.387143831615312e+01
 1.524123321053880e+00	 2.820427312190821e-01	 1.413513967138719e+01
 1.518507510008248e+00	 3.108616124051379e-01	 1.429054501951484e+01
 1.512310019375649e+00	 3.397328440377028e-01	 1.440778262188294e+01
 1.505524654679154e+00	 3.686400875882667e-01	 1.448538565981340e+01
 1.498145788050373e+00	 3.975665953916701e-01	 1.452202869352105e+01
 1.490168385200489e+00	 4.264952330008714e-01	 1.451652776707756e+01
 1.481588031475369e+00	 4.554085034451027e-01	 1.446783909964568e+01
 1.472400956849264e+00	 4.842885733596892e-01	 1.437505634513791e+01
 1.462604059711430e+00	 5.131173009437693e-01	 1.423740642033831e+01
 1.452194929300987e+00	 5.418762656898806e-01	 1.405424392032668e+01
 1.441171866647424e+00	 5.705467998169644e-01	 1.382504415950537e+01
 1.530268979607887e+00	 2.831800002985802e-01	 1.410389513466404e+01
 1.524630524163118e+00	 3.121150866504935e-01	 1.425697433493055e+01
 1.518408043649094e+00	 3.411027345394598e-01	 1.437199011509374e+01
 1.511595318611152e+00	 3.701265395558064e-01	 1.444750756289796e+01
 1.504186698487888e+00	 3.991696865034671e-01	 1.448223533826057e+01
 1.496177128690926e+00	 4.282149718448877e-01	 1.447502561749333e+01
 1.487562176765111e+00	 4.572448280570000e-01	 1.442487259783706e+01
 1.478338057482976e+00	 4.862413498664013e-01	 1.433090954487820e+01
 1.468501656727278e+00	 5.151863223198072e-01	 1.419240438361505e+01
 1.458050554016329e+00	 5.440612506335166e-01	 1.400875385306533e+01
 1.446983043528928e+00	 5.728473917531604e-01	 1.377947626409595e+01
 1.536414638161893e+00	 2.843172693785931e-01	 1.407395822584437e+01
 1.530753538317988e+00	 3.133685608962730e-01	 1.422466411357443e+01
 1.524506067922538e+00	 3.424726250415691e-01	 1.433740846054914e+01
 1.517665982543151e+00	 3.716129915236455e-01	 1.441078863366822e+01
 1.510227608925401e+00	 4.007727776155295e-01	 1.444354779216503e+01
 1.502185872181363e+00	 4.299347106891560e-01	 1.443457466955557e+01
 1.493536322054853e+00	 4.590811526691556e-01	 1.438290188968346e+01
 1.484275158116687e+00	 4.881941263733981e-01	 1.428770279984801e+01
 1.474399253743126e+00	 5.172553436961776e-01	 1.414828682251793e+01
 1.463906178731671e+00	 5.462462355775533e-01	 1.396409334658352e+01
 1.452794220410432e+00	 5.751479836898463e-01	 1.373468419922135e+01
 1.394682451595397e+00	 5.521420643450262e-01	 1.422368950326910e+01
 1.383419906984210e+00	 5.797838916141946e-01	 1.417239453579413e+01
 1.371562085578352e+00	 6.073034212214110e-01	 1.408833607539921e+01
 1.359109514832477e+00	 6.346820674340894e-01	 1.397463591831724e+01
 1.346063475001740e+00	 6.619011416394612e-01	 1.385455224174455e+01
 1.332426010254849e+00	 6.889418895959066e-01	 1.374393952554282e+01
 1.318199937618296e+00	 7.157855296891861e-01	 1.365058579440401e+01
 1.303388853659439e+00	 7.424132920487886e-01	 1.358261795370784e+01
 1.287997138826982e+00	 7.688064583706170e-01	 1.354848508608177e+01
 1.272029959379205e+00	 7.949464022841308e-01	 1.355693749513962e+01
 1.255493266842989e+00	 8.208146300949881e-01	 1.361700141212649e+01
 1.400493628476901e+00	 5.544426562773045e-01	 1.417005091928816e+01
 1.389184156595890e+00	 5.821996578261492e-01	 1.413202471948640e+01
 1.377276927600261e+00	 6.098338521395856e-01	 1.406265678043524e+01
 1.364772471142394e+00	 6.373265760444775e-01	 1.395928962361023e+01
 1.351672072811843e+00	 6.646590630588380e-01	 1.384491615877324e+01
 1.337977785294685e+00	 6.918124807983751e-01	 1.374109201751795e+01
 1.323692437355024e+00	 7.187679693921251e-01	 1.365554039607819e+01
 1.308819640545916e+00	 7.455066807617844e-01	 1.359632476322829e+01
 1.293363793567934e+00	 7.720098186103230e-01	 1.357183260967179e+01
 1.277330084205435e+00	 7.982586789573238e-01	 1.359075491458037e+01
 1.260724488783330e+00	 8.242346910513867e-01	 1.366206123983883e+01
 1.406304805358404e+00	 5.567432482100724e-01	 1.411760795930477e+01
 1.394948406207575e+00	 5.846154240386793e-01	 1.409247790282693e+01
 1.382991769622188e+00	 6.123642830583929e-01	 1.403742112203663e+01
 1.370435427452354e+00	 6.399710846555257e-01	 1.394165867679093e+01
 1.357280670622023e+00	 6.674169844788725e-01	 1.383268994982406e+01
 1.343529560334643e+00	 6.946830720014699e-01	 1.373533041613551e+01
 1.329184937091928e+00	 7.217504090956284e-01	 1.365723873156018e+01
 1.314250427432633e+00	 7.486000694752518e-01	 1.360641532758460e+01
 1.298730448309200e+00	 7.752131788503775e-01	 1.359118661581891e+01
 1.282630209032066e+00	 8.015709556307123e-01	 1.362018487880858e+01
 1.265955710724165e+00	 8.276547520077956e-01	 1.370232375252738e+01
 1.412115982239908e+00	 5.590438401433302e-01	 1.406630602052482e+01
 1.400712655819265e+00	 5.870311902517846e-01	 1.405370242440260e+01
 1.388706611644135e+00	 6.148947139778319e-01	 1.401258050679196e+01
 1.376098383762357e+00	 6.426155932672334e-01	 1.392176943254145e+01
 1.362889268432281e+00	 6.701749058995650e-01	 1.381790553912026e+01
 1.349081335374723e+00	 6.975536632051906e-01	 1.372669218301139e+01
 1.334677436829008e+00	 7.247328487996956e-01	 1.365572375655078e+01
 1.319681214319590e+00	 7.516934581891910e-01	 1.361293804229364e+01
 1.304097103050783e+00	 7.784165390907811e-01	 1.360660087487343e+01
 1.287930333859095e+00	 8.048832323042956e-01	 1.364528645760625e+01
 1.271186932665496e+00	 8.310748129642156e-01	 1.373785323392640e+01
 1.417927159121411e+00	 5.613444320770776e-01	 1.401609113340542e+01
 1.406476905430959e+00	 5.894469564654653e-01	 1.401564719273948e+01
 1.394421453666101e+00	 6.174251448979032e-01	 1.398808684600699e+01
 1.381761340072405e+00	 6.452601018796008e-01	 1.389964868322583e+01
 1.368497866242617e+00	 6.729328273209150e-01	 1.380059521982223e+01
 1.354633110414925e+00	 7.004242544095372e-01	 1.371521507835393e+01
 1.340169936566265e+00	 7.277152885043265e-01	 1.365103865351343e+01
 1.325112001206788e+00	 7.547868469036019e-01	 1.361594145644054e+01
 1.309463757792679e+00	 7.816198993315334e-01	 1.361812923632041e+01
 1.293230458686525e+00	 8.081955089780742e-01	 1.366611872434863e+01
 1.276418154607321e+00	 8.344948739206457e-01	 1.376871389484771e+01
 1.423738336002914e+00	 5.636450240113147e-01	 1.396690994873129e+01
 1.412241155042658e+00	 5.918627226797215e-01	 1.397826167467139e+01
 1.400136295688087e+00	 6.199555758186068e-01	 1.396389254540418e+01
 1.387424296382497e+00	 6.479046104926282e-01	 1.387532364995789e+01
 1.374106464053031e+00	 6.756907487429232e-01	 1.378079164649850e+01
 1.360184885455249e+00	 7.032948456145095e-01	 1.370093715487037e+01
 1.345662436303699e+00	 7.306977282095222e-01	 1.364322682704651e+01
 1.330542788094227e+00	 7.578802356184845e-01	 1.361547426954464e+01
 1.314830412534892e+00	 7.848232595726343e-01	 1.362582562716491e+01
 1.298530583514354e+00	 8.115077856520477e-01	 1.368274075593062e+01
 1.281649376549641e+00	 8.379149348770869e-01	 1.379496987466968e+01
 1.429549512884418e+00	 5.659456159460415e-01	 1.391870972500667e+01
 1.418005404654362e+00	 5.942784888945529e-01	 1.394149588399228e+01
 1.405851137710092e+00	 6.224860067399426e-01	 1.393995049507356e+01
 1.393087252692631e+00	 6.505491191063152e-01	 1.384882197388678e+01
 1.379715061863522e+00	 6.784486701655890e-01	 1.375852782777988e+01
 1.365736660495695e+00	 7.061654368201082e-01	 1.368389675182157e+01
 1.351154936041308e+00	 7.336801679152812e-01	 1.363233189936813e+01
 1.335973574981907e+00	 7.609736243338384e-01	 1.361158532850170e+01
 1.320197067277419e+00	 7.880266198140840e-01	 1.362974405035647e+01
 1.303830708342583e+00	 8.148200623262166e-01	 1.369521163269566e+01
 1.286880598492456e+00	 8.413349958335385e-01	 1.381668524278842e+01
 1.435360689765921e+00	 5.682462078812581e-01	 1.387143831615312e+01
 1.423769654266071e+00	 5.966942551099597e-01	 1.390530037038401e+01
 1.411565979732116e+00	 6.250164376619105e-01	 1.391615650958511e+01
 1.398750209002810e+00	 6.531936277206623e-01	 1.382017170769420e+01
 1.385323659674092e+00	 6.812065915889126e-01	 1.373383711919239e+01
 1.371288435536264e+00	 7.090360280263326e-01	 1.366413248922151e+01
 1.356647435779093e+00	 7.366626076216045e-01	 1.361839770591121e+01
 1.341404361869827e+00	 7.640670130496644e-01	 1.360432362460084e+01
 1.325563722020261e+00	 7.912299800558826e-01	 1.362993858325129e+01
 1.309130833171212e+00	 8.181323390005806e-01	 1.370359043836593e+01
 1.292111820435765e+00	 8.447550567900007e-01	 1.383392400003484e+01
 1.441171866647424e+00	 5.705467998169644e-01	 1.382504415950537e+01
 1.429533903877785e+00	 5.991100213259422e-01	 1.386962620861236e+01
 1.417280821754159e+00	 6.275468685845105e-01	 1.388271250855684e+01
 1.404413165313032e+00	 6.558381363356690e-01	 1.378940130729743e+01
 1.390932257484740e+00	 6.839645130128943e-01	 1.370675321616322e+01
 1.376840210576954e+00	 7.119066192331832e-01	 1.364168326217682e+01
 1.362139935517056e+00	 7.396450473284916e-01	 1.360146829102438e+01
 1.346835148757988e+00	 7.671604017659619e-01	 1.359373829061315e+01
 1.330930376763418e+00	 7.944333402980298e-01	 1.362646337611292e+01
 1.314430958000241e+00	 8.214446156751395e-01	 1.370793625997373e+01
 1.297343042379568e+00	 8.481751177464735e-01	 1.384675008005674e+01
 1.446983043528928e+00	 5.728473917531604e-01	 1.377947626409595e+01
 1.435298153489503e+00	 6.015257875424997e-01	 1.383442498798292e+01
 1.422995663776222e+00	 6.300772995077428e-01	 1.384742625327488e+01
 1.410076121623298e+00	 6.584826449513355e-01	 1.375653962375213e+01
 1.396540855295465e+00	 6.867224344375334e-01	 1.367731014719547e+01
 1.382391985617766e+00	 7.147772104406597e-01	 1.361658823536292e+01
 1.367632435255193e+00	 7.426274870359431e-01	 1.358158790377731e+01
 1.352265935646390e+00	 7.702537904827310e-01	 1.357987859795100e+01
 1.336297031506891e+00	 7.976367005405259e-01	 1.361937265064735e+01
 1.319731082829669e+00	 8.247568923498938e-01	 1.370830818779550e+01
 1.302574264323867e+00	 8.515951787029566e-01	 1.385522735066826e+01
 1.452794220410432e+00	 5.751479836898463e-01	 1.373468419922135e+01
 1.441062403101226e+00	 6.039415537596328e-01	 1.379964880205052e+01
 1.428710505798304e+00	 6.326077304316075e-01	 1.381032183330061e+01
 1.415739077933607e+00	 6.611271535676618e-01	 1.372161589534965e+01
 1.402149453106269e+00	 6.894803558628309e-01	 1.364554226720665e+01
 1.387943760658700e+00	 7.176478016487622e-01	 1.358888683763252e+01
 1.373124934993508e+00	 7.456099267439584e-01	 1.355880099386605e+01
 1.357696722535032e+00	 7.733471791999723e-01	 1.356279395389472e+01
 1.341663686250679e+00	 8.008400607833711e-01	 1.360872069857483e+01
 1.325031207659498e+00	 8.280691690248432e-01	 1.370476531528691e+01
 1.307805486268661e+00	 8.550152396594510e-01	 1.385941961516604e+01
 1.255493266842989e+00	 8.208146300949881e-01	 1.361700141212649e+01
 1.238393794960300e+00	 8.463928217281081e-01	 1.319939141358379e+01
 1.220739054092179e+00	 8.716628716918398e-01	 1.287716356823529e+01
 1.202537323065708e+00	 8.966069298798882e-01	 1.257740386250032e+01
 1.183797638464679e+00	 9.212074420252394e-01	 1.230156306553073e+01
 1.164529781378945e+00	 9.454471896203712e-01	 1.205087081064596e+01
 1.144744261643663e+00	 9.693093291181504e-01	 1.182632496826281e+01
 1.124452299614854e+00	 9.927774302300170e-01	 1.162868281254710e+01
 1.103665805542999e+00	 1.015835513141593e+00	 1.145845408531227e+01
 1.082397356621336e+00	 1.038468084470809e+00	 1.131589604043640e+01
 1.060660171800000e+00	 1.060660171800000e+00	 1.120101053048510e+01
 1.260724488783330e+00	 8.242346910513867e-01	 1.366206123983883e+01
 1.243553769100878e+00	 8.499194584836376e-01	 1.317796379282627e+01
 1.225825466812330e+00	 8.752948003227293e-01	 1.285915179733391e+01
 1.207547895239878e+00	 9.003427920869238e-01	 1.256243939283905e+01
 1.188730128619748e+00	 9.250458063664253e-01	 1.228927489783498e+01
 1.169381988796335e+00	 9.493865529099308e-01	 1.204088615789608e+01
 1.149514029395777e+00	 9.733481179888603e-01	 1.181826988729346e+01
 1.129137517525577e+00	 9.969140028551169e-01	 1.162218280774571e+01
 1.108264413062261e+00	 1.020068161111763e+00	 1.145313468838007e+01
 1.086907345604037e+00	 1.042795034820970e+00	 1.131138337063584e+01
 1.065079589180000e+00	 1.065079589180000e+00	 1.119693184015498e+01
 1.265955710724165e+00	 8.276547520077956e-01	 1.370232375252738e+01
 1.248713743242038e+00	 8.534460952389972e-01	 1.315223984811000e+01
 1.230911879533116e+00	 8.789267289533080e-01	 1.283671123706669e+01
 1.212558467414709e+00	 9.040786542935462e-01	 1.254293315521651e+01
 1.193662618775475e+00	 9.288841707071374e-01	 1.227235187691185e+01
 1.174234196214349e+00	 9.533259161989946e-01	 1.202619380380958e+01
 1.154283797148450e+00	 9.773869068590926e-01	 1.180545477297635e+01
 1.133822735436765e+00	 1.001050575479798e+00	 1.161089116591175e+01
 1.112863020581863e+00	 1.024300809081613e+00	 1.144301292313237e+01
 1.091417334586924e+00	 1.047121985170951e+00	 1.130207854852208e+01
 1.069499006560000e+00	 1.069499006560000e+00	 1.118809216586459e+01
 1.271186932665496e+00	 8.310748129642156e-01	 1.373785323392640e+01
 1.253873717383776e+00	 8.569727319941872e-01	 1.317113025010231e+01
 1.235998292254537e+00	 8.825586575835757e-01	 1.280983177874174e+01
 1.217569039590202e+00	 9.078145164997565e-01	 1.251887547287390e+01
 1.198595108931859e+00	 9.327225350473748e-01	 1.225078466305104e+01
 1.179086403632987e+00	 9.572652794875629e-01	 1.200678465013839e+01
 1.159053564901683e+00	 9.814256957288473e-01	 1.178787067241784e+01
 1.138507953348418e+00	 1.005187148104060e+00	 1.159479898305683e+01
 1.117461628101804e+00	 1.028533457051143e+00	 1.142807983787648e+01
 1.095927323569995e+00	 1.051448935520752e+00	 1.128797247811106e+01
 1.073918423940000e+00	 1.073918423940000e+00	 1.117448217095671e+01
 1.276418154607321e+00	 8.344948739206457e-01	 1.376871389484771e+01
 1.259033691526095e+00	 8.604993687492068e-01	 1.320154407981836e+01
 1.241084704976595e+00	 8.861905862135325e-01	 1.277850321220032e+01
 1.222579611766356e+00	 9.115503787055541e-01	 1.249025655641810e+01
 1.203527599088901e+00	 9.365608993871378e-01	 1.222456379485365e+01
 1.183938611052248e+00	 9.612046427756348e-01	 1.198264947003218e+01
 1.163823332655474e+00	 9.854644845981245e-01	 1.176550849936817e+01
 1.143193171260535e+00	 1.009323720727904e+00	 1.157389721925840e+01
 1.122060235622086e+00	 1.032766105020355e+00	 1.140832634459395e+01
 1.100437312553251e+00	 1.055775885870373e+00	 1.126905592889181e+01
 1.078337841320000e+00	 1.078337841320000e+00	 1.115609238823293e+01
 1.281649376549641e+00	 8.379149348770869e-01	 1.379496987466968e+01
 1.264193665668994e+00	 8.640260055040572e-01	 1.322723887373088e+01
 1.246171117699287e+00	 8.898225148431782e-01	 1.274271522788729e+01
 1.227590183943172e+00	 9.152862409109391e-01	 1.245706650612011e+01
 1.208460089246600e+00	 9.403992637264267e-01	 1.219367969171614e+01
 1.188790818472132e+00	 9.651440060632105e-01	 1.195377891066206e+01
 1.168593100409825e+00	 9.895032734669248e-01	 1.173835903694299e+01
 1.147878389173117e+00	 1.013460293351330e+00	 1.154817670143411e+01
 1.126658843142707e+00	 1.036998752989247e+00	 1.138374322172226e+01
 1.104947301536692e+00	 1.060102836219815e+00	 1.124531953856993e+01
 1.082757258700000e+00	 1.082757258700000e+00	 1.113291322261781e+01
 1.286880598492456e+00	 8.413349958335385e-01	 1.381668524278842e+01
 1.269353639812472e+00	 8.675526422587369e-01	 1.324827998970637e+01
 1.251257530422616e+00	 8.934544434725129e-01	 1.271719883440145e+01
 1.232600756120649e+00	 9.190221031159114e-01	 1.241929531415799e+01
 1.213392579404956e+00	 9.442376280652408e-01	 1.215812265625279e+01
 1.193643025892639e+00	 9.690833693502907e-01	 1.192016349578207e+01
 1.173362868164735e+00	 9.935420623352470e-01	 1.170641294027785e+01
 1.152563607086163e+00	 1.017596865974336e+00	 1.151762812604815e+01
 1.131257450663668e+00	 1.041231400957819e+00	 1.135432111686937e+01
 1.109457290520318e+00	 1.064429786569076e+00	 1.121675381574776e+01
 1.087176676080000e+00	 1.087176676080000e+00	 1.110493495375805e+01
 1.292111820435765e+00	 8.447550567900007e-01	 1.383392400003484e+01
 1.274513613956531e+00	 8.710792790132477e-01	 1.326473270266449e+01
 1.256343943146581e+00	 8.970863721015367e-01	 1.273195995188954e+01
 1.237611328298788e+00	 9.227579653204714e-01	 1.237693286680473e+01
 1.218325069563970e+00	 9.480759924035813e-01	 1.211788287666000e+01
 1.198495233313770e+00	 9.730227326368746e-01	 1.188179362822709e+01
 1.178132635920203e+00	 9.975808512030923e-01	 1.166966073912004e+01
 1.157248824999674e+00	 1.021733438596924e+00	 1.148224206175208e+01
 1.135856058184969e+00	 1.045464048926072e+00	 1.132005054946221e+01
 1.113967279504129e+00	 1.068756736918158e+00	 1.118334914253699e+01
 1.091596093460000e+00	 1.091596093460000e+00	 1.107214773855886e+01
 1.297343042379568e+00	 8.481751177464735e-01	 1.384675008005674e+01
 1.279673588101169e+00	 8.746059157675882e-01	 1.327666220625042e+01
 1.261430355871181e+00	 9.007183007302495e-01	 1.274208516892525e+01
 1.242621900477588e+00	 9.264938275246187e-01	 1.232996894656333e+01
 1.223257559723641e+00	 9.519143567414473e-01	 1.207295042902293e+01
 1.203347440735524e+00	 9.769620959229626e-01	 1.183865959235026e+01
 1.182902403676230e+00	 1.001619640070460e+00	 1.162809284035563e+01
 1.161934042913649e+00	 1.025870011219093e+00	 1.144200895196163e+01
 1.140454665706610e+00	 1.049696696894006e+00	 1.128092191333060e+01
 1.118477268488125e+00	 1.073083687267059e+00	 1.114509577710892e+01
 1.096015510840000e+00	 1.096015510840000e+00	 1.103454161365783e+01
 1.302574264323867e+00	 8.515951787029566e-01	 1.385522735066826e+01
 1.284833562246388e+00	 8.781325525217590e-01	 1.328413361446698e+01
 1.266516768596416e+00	 9.043502293586512e-01	 1.274764058589028e+01
 1.247632472657050e+00	 9.302296897283534e-01	 1.227839323425091e+01
 1.228190049883970e+00	 9.557527210788390e-01	 1.202331527956655e+01
 1.208199648157901e+00	 9.809014592085544e-01	 1.179075155640311e+01
 1.187672171432817e+00	 1.005658428937350e+00	 1.158169953047699e+01
 1.166619260828089e+00	 1.030006583840844e+00	 1.139691911737165e+01
 1.145053273228591e+00	 1.053929344861620e+00	 1.123692547922967e+01
 1.122987257472306e+00	 1.077410637615781e+00	 1.110198385618336e+01
 1.100434928220000e+00	 1.100434928220000e+00	 1.099210649784039e+01
 1.307805486268661e+00	 8.550152396594510e-01	 1.385941961516604e+01
 1.289993536392186e+00	 8.816591892757598e-01	 1.328721196326731e+01
 1.271603181322287e+00	 9.079821579867418e-01	 1.274869221339423e+01
 1.252643044837173e+00	 9.339655519316756e-01	 1.225087151825600e+01
 1.233122540044957e+00	 9.595910854157564e-01	 1.196896728685316e+01
 1.213051855580902e+00	 9.848408224936506e-01	 1.173805957485660e+01
 1.192441939189963e+00	 1.009697217803762e+00	 1.153047097799049e+01
 1.171304478742993e+00	 1.034143156462176e+00	 1.134696275841037e+01
 1.149651880750912e+00	 1.058161992828915e+00	 1.118805139730118e+01
 1.127497246456672e+00	 1.081737587964323e+00	 1.105400339745754e+01
 1.104854345600000e+00	 1.104854345600000e+00	 1.094483219439698e+01
 1.060660171800000e+00	 1.060660171800000e+00	 1.120101053048510e+01
 1.038468084470809e+00	 1.082397356621336e+00	 1.065272725578282e+01
 1.015835513141593e+00	 1.103665805542999e+00	 1.020157806863438e+01
 9.927774302300173e-01	 1.124452299614854e+00	 9.848759445523953e+00
 9.693093291181506e-01	 1.144744261643662e+00	 9.594978511353789e+00
 9.454471896203714e-01	 1.164529781378944e+00	 9.440454358243462e+00
 9.212074420252399e-01	 1.183797638464678e+00	 9.384922605713625e+00
 8.966069298798891e-01	 1.202537323065708e+00	 9.427643127979543e+00
 8.716628716918403e-01	 1.220739054092179e+00	 9.567410843144117e+00
 8.463928217281088e-01	 1.238393794960299e+00	 9.802569429849971e+00
 8.208146300949881e-01	 1.255493266842989e+00	 9.476612043650915e+00
 1.065079589180000e+00	 1.065079589180000e+00	 1.119693184015498e+01
 1.042795034820970e+00	 1.086907345604037e+00	 1.065926986887576e+01
 1.020068161111763e+00	 1.108264413062261e+00	 1.022576256971936e+01
 9.969140028551168e-01	 1.129137517525577e+00	 9.897891159778240e+00
 9.733481179888606e-01	 1.149514029395777e+00	 9.676617616761146e+00
 9.493865529099312e-01	 1.169381988796335e+00	 9.562385006297053e+00
 9.250458063664260e-01	 1.188730128619748e+00	 9.555121227868732e+00
 9.003427920869244e-01	 1.207547895239878e+00	 9.654246109280841e+00
 8.752948003227302e-01	 1.225825466812329e+00	 9.858681747017600e+00
 8.499194584836383e-01	 1.243553769100878e+00	 1.016686595900600e+01
 8.242346910513866e-01	 1.260724488783330e+00	 9.304136327358073e+00
 1.069499006560000e+00	 1.069499006560000e+00	 1.118809216586459e+01
 1.047121985170951e+00	 1.091417334586924e+00	 1.066210510303285e+01
 1.024300809081613e+00	 1.112863020581863e+00	 1.024725363202305e+01
 1.001050575479798e+00	 1.133822735436765e+00	 9.945301750538984e+00
 9.773869068590928e-01	 1.154283797148450e+00	 9.757464424163503e+00
 9.533259161989951e-01	 1.174234196214349e+00	 9.684406928794631e+00
 9.288841707071376e-01	 1.193662618775474e+00	 9.726247788519743e+00
 9.040786542935469e-01	 1.212558467414709e+00	 9.882565242969147e+00
 8.789267289533088e-01	 1.230911879533116e+00	 1.015240714404185e+01
 8.534460952389981e-01	 1.248713743242037e+00	 1.053430414943489e+01
 8.276547520077958e-01	 1.265955710724166e+00	 9.140330513768347e+00
 1.073918423940000e+00	 1.073918423940000e+00	 1.117448217095671e+01
 1.051448935520752e+00	 1.095927323569995e+00	 1.066121092011849e+01
 1.028533457051143e+00	 1.117461628101804e+00	 1.026601716639486e+01
 1.005187148104060e+00	 1.138507953348417e+00	 9.990945750527260e+00
 9.814256957288476e-01	 1.159053564901683e+00	 9.837462781626117e+00
 9.572652794875629e-01	 1.179086403632986e+00	 9.806454001299674e+00
 9.327225350473752e-01	 1.198595108931859e+00	 9.898226919601193e+00
 9.078145164997570e-01	 1.217569039590201e+00	 1.011251666093570e+01
 8.825586575835764e-01	 1.235998292254537e+00	 1.044849542231587e+01
 8.569727319941879e-01	 1.253873717383776e+00	 1.046262345017852e+01
 8.310748129642157e-01	 1.271186932665496e+00	 8.985122777137798e+00
 1.078337841320000e+00	 1.078337841320000e+00	 1.115609238823293e+01
 1.055775885870373e+00	 1.100437312553251e+00	 1.065656536032647e+01
 1.032766105020355e+00	 1.122060235622086e+00	 1.028201936082472e+01
 1.009323720727904e+00	 1.143193171260535e+00	 1.003477815798444e+01
 9.854644845981252e-01	 1.163823332655474e+00	 9.916557180335975e+00
 9.612046427756350e-01	 1.183938611052248e+00	 9.928460909003254e+00
 9.365608993871383e-01	 1.203527599088900e+00	 1.007098421779817e+01
 9.115503787055544e-01	 1.222579611766355e+00	 1.034401760330304e+01
 8.861905862135331e-01	 1.241084704976594e+00	 1.074685620978629e+01
 8.604993687492078e-01	 1.259033691526094e+00	 1.025156859138201e+01
 8.344948739206458e-01	 1.276418154607321e+00	 8.838442758458477e+00
 1.082757258700000e+00	 1.082757258700000e+00	 1.113291322261781e+01
 1.060102836219814e+00	 1.104947301536692e+00	 1.064814654058063e+01
 1.036998752989247e+00	 1.126658843142707e+00	 1.029522667478772e+01
 1.013460293351329e+00	 1.147878389173117e+00	 1.007675442717132e+01
 9.895032734669248e-01	 1.168593100409825e+00	 9.994692741477081e+00
 9.651440060632110e-01	 1.188790818472131e+00	 1.005036313020019e+01
 9.403992637264270e-01	 1.208460089246599e+00	 1.024444622485578e+01
 9.152862409109398e-01	 1.227590183943171e+00	 1.057698639580874e+01
 8.898225148431790e-01	 1.246171117699287e+00	 1.104740034894412e+01
 8.640260055040576e-01	 1.264193665668993e+00	 1.004853407758779e+01
 8.379149348770869e-01	 1.281649376549641e+00	 8.700221535525364e+00
 1.087176676080000e+00	 1.087176676080000e+00	 1.110493495375805e+01
 1.064429786569076e+00	 1.109457290520318e+00	 1.063593265297670e+01
 1.041231400957819e+00	 1.131257450663668e+00	 1.030560583372545e+01
 1.017596865974336e+00	 1.152563607086163e+00	 1.011683045910065e+01
 9.935420623352474e-01	 1.173362868164734e+00	 1.007181520342415e+01
 9.690833693502909e-01	 1.193643025892639e+00	 1.017209692016941e+01
 9.442376280652416e-01	 1.213392579404956e+00	 1.041854040837158e+01
 9.190221031159123e-01	 1.232600756120648e+00	 1.081134242773931e+01
 8.934544434725138e-01	 1.251257530422616e+00	 1.121302547159340e+01
 8.675526422587380e-01	 1.269353639812472e+00	 9.853459406066058e+00
 8.413349958335384e-01	 1.286880598492456e+00	 8.570391593732834e+00
 1.091596093460000e+00	 1.091596093460000e+00	 1.107214773855886e+01
 1.068756736918158e+00	 1.113967279504129e+00	 1.061990196325921e+01
 1.045464048926072e+00	 1.135856058184969e+00	 1.031312382366299e+01
 1.021733438596924e+00	 1.157248824999674e+00	 1.015496259249214e+01
 9.975808512030923e-01	 1.178132635920203e+00	 1.014787090925108e+01
 9.730227326368749e-01	 1.198495233313770e+00	 1.029359929544592e+01
 9.480759924035820e-01	 1.218325069563969e+00	 1.059319514305352e+01
 9.227579653204717e-01	 1.237611328298787e+00	 1.104700613040115e+01
 8.970863721015374e-01	 1.256343943146580e+00	 1.096685906069681e+01
 8.710792790132486e-01	 1.274513613956530e+00	 9.666285352271910e+00
 8.447550567900006e-01	 1.292111820435765e+00	 8.448886797580935e+00
 1.096015510840000e+00	 1.096015510840000e+00	 1.103454161365783e+01
 1.073083687267059e+00	 1.118477268488125e+00	 1.060003280933759e+01
 1.049696696894006e+00	 1.140454665706610e+00	 1.031774788595442e+01
 1.025870011219093e+00	 1.161934042913649e+00	 1.019110759494866e+01
 1.001619640070460e+00	 1.182902403676230e+00	 1.022280679453702e+01
 9.769620959229626e-01	 1.203347440735523e+00	 1.041480801847204e+01
 9.519143567414479e-01	 1.223257559723641e+00	 1.076833969243099e+01
 9.264938275246192e-01	 1.242621900477588e+00	 1.128389895611216e+01
 9.007183007302502e-01	 1.261430355871180e+00	 1.072805594960224e+01
 8.746059157675891e-01	 1.279673588101168e+00	 9.486953944076049e+00
 8.481751177464736e-01	 1.297343042379568e+00	 8.335642362870672e+00
 1.100434928220000e+00	 1.100434928220000e+00	 1.099210649784039e+01
 1.077410637615781e+00	 1.122987257472306e+00	 1.057630359983634e+01
 1.053929344861620e+00	 1.145053273228591e+00	 1.031944551215617e+01
 1.030006583840844e+00	 1.166619260828089e+00	 1.022522265434402e+01
 1.005658428937350e+00	 1.187672171432817e+00	 1.029657037547125e+01
 9.809014592085546e-01	 1.208199648157901e+00	 1.053566158261998e+01
 9.557527210788394e-01	 1.228190049883970e+00	 1.094390419100691e+01
 9.302296897283541e-01	 1.247632472657049e+00	 1.152194335769941e+01
 9.043502293586517e-01	 1.266516768596416e+00	 1.049656676229183e+01
 8.781325525217598e-01	 1.284833562246387e+00	 9.315408436614671e+00
 8.515951787029569e-01	 1.302574264323867e+00	 8.230594829569714e+00
 1.104854345600000e+00	 1.104854345600000e+00	 1.094483219439698e+01
 1.081737587964323e+00	 1.127497246456672e+00	 1.054869281268151e+01
 1.058161992828914e+00	 1.149651880750912e+00	 1.031818443902243e+01
 1.034143156462176e+00	 1.171304478742993e+00	 1.025726537041704e+01
 1.009697217803762e+00	 1.192441939189963e+00	 1.036910973723882e+01
 9.848408224936508e-01	 1.213051855580902e+00	 1.065609919757307e+01
 9.595910854157568e-01	 1.233122540044956e+00	 1.111981962683970e+01
 9.339655519316764e-01	 1.252643044837173e+00	 1.148883227661859e+01
 9.079821579867426e-01	 1.271603181322287e+00	 1.027234321969175e+01
 8.816591892757607e-01	 1.289993536392186e+00	 9.151593287744758e+00
 8.550152396594510e-01	 1.307805486268661e+00	 8.133682035328526e+00
 8.208146300949881e-01	 1.255493266842989e+00	 9.476612043650915e+00
 7.949464022841306e-01	 1.272029959379206e+00	 8.647000547389938e+00
 7.688064583706171e-01	 1.287997138826982e+00	 7.885328916421246e+00
 7.424132920487887e-01	 1.303388853659439e+00	 7.197389988634475e+00
 7.157855296891864e-01	 1.318199937618296e+00	 6.588657682726069e+00
 6.889418895959070e-01	 1.332426010254849e+00	 6.064255071398156e+00
 6.619011416394617e-01	 1.346063475001740e+00	 5.628925142448358e+00
 6.346820674340899e-01	 1.359109514832477e+00	 5.287004467282451e+00
 6.073034212214117e-01	 1.371562085578352e+00	 4.948822317185852e+00
 5.797838916141955e-01	 1.383419906984210e+00	 4.632508747473525e+00
 5.521420643450261e-01	 1.394682451595398e+00	 4.389195227349346e+00
 8.242346910513866e-01	 1.260724488783330e+00	 9.304136327358073e+00
 7.982586789573239e-01	 1.277330084205436e+00	 8.540951471337246e+00
 7.720098186103231e-01	 1.293363793567934e+00	 7.836965642199095e+00
 7.455066807617844e-01	 1.308819640545915e+00	 7.197698925855446e+00
 7.187679693921253e-01	 1.323692437355023e+00	 6.628389860730155e+00
 6.918124807983754e-01	 1.337977785294685e+00	 6.133963597428309e+00
 6.646590630588385e-01	 1.351672072811842e+00	 5.719002554524930e+00
 6.373265760444783e-01	 1.364772471142394e+00	 5.387719796421681e+00
 6.098338521395865e-01	 1.377276927600260e+00	 5.065240960349819e+00
 5.821996578261501e-01	 1.389184156595890e+00	 4.743751155226428e+00
 5.544426562773045e-01	 1.400493628476901e+00	 4.485585426166329e+00
 8.276547520077958e-01	 1.265955710724166e+00	 9.140330513768347e+00
 8.015709556307121e-01	 1.282630209032065e+00	 8.442205164224656e+00
 7.752131788503775e-01	 1.298730448309200e+00	 7.794607938864837e+00
 7.486000694752522e-01	 1.314250427432633e+00	 7.202788624894266e+00
 7.217504090956285e-01	 1.329184937091928e+00	 6.671752623031342e+00
 6.946830720014702e-01	 1.343529560334642e+00	 6.206229187106095e+00
 6.674169844788731e-01	 1.357280670622022e+00	 5.810641969186685e+00
 6.399710846555262e-01	 1.370435427452353e+00	 5.489082102608680e+00
 6.123642830583935e-01	 1.382991769622188e+00	 5.180944255688075e+00
 5.846154240386801e-01	 1.394948406207575e+00	 4.853459186403004e+00
 5.567432482100724e-01	 1.406304805358404e+00	 4.579710870886498e+00
 8.310748129642157e-01	 1.271186932665496e+00	 8.985122777137798e+00
 8.048832323042955e-01	 1.287930333859095e+00	 8.350704954987805e+00
 7.784165390907811e-01	 1.304097103050783e+00	 7.758213362493979e+00
 7.516934581891912e-01	 1.319681214319590e+00	 7.212629923627325e+00
 7.247328487996958e-01	 1.334677436829008e+00	 6.718729128752596e+00
 6.975536632051906e-01	 1.349081335374722e+00	 6.281046347621929e+00
 6.701749058995655e-01	 1.362889268432281e+00	 5.903848258465651e+00
 6.426155932672342e-01	 1.376098383762358e+00	 5.591105632010727e+00
 6.148947139778327e-01	 1.388706611644135e+00	 5.295971206664953e+00
 5.870311902517856e-01	 1.400712655819265e+00	 4.961677911005746e+00
 5.590438401433302e-01	 1.412115982239907e+00	 4.671621730641107e+00
 8.344948739206458e-01	 1.276418154607321e+00	 8.838442758458477e+00
 8.081955089780740e-01	 1.293230458686525e+00	 8.266395377771975e+00
 7.816198993315334e-01	 1.309463757792679e+00	 7.727740427811971e+00
 7.547868469036020e-01	 1.325112001206789e+00	 7.227194387342468e+00
 7.277152885043270e-01	 1.340169936566265e+00	 6.769303048823973e+00
 7.004242544095375e-01	 1.354633110414925e+00	 6.358409898267841e+00
 6.729328273209159e-01	 1.368497866242617e+00	 5.998626422917015e+00
 6.452601018796016e-01	 1.381761340072405e+00	 5.693804592048549e+00
 6.174251448979040e-01	 1.394421453666101e+00	 5.410360627175295e+00
 5.894469564654664e-01	 1.406476905430959e+00	 5.068452075188734e+00
 5.613444320770775e-01	 1.417927159121411e+00	 4.761367733028893e+00
 8.379149348770869e-01	 1.281649376549641e+00	 8.700221535525364e+00
 8.115077856520477e-01	 1.298530583514354e+00	 8.189222147336750e+00
 7.848232595726343e-01	 1.314830412534892e+00	 7.703148588630691e+00
 7.578802356184845e-01	 1.330542788094227e+00	 7.246454293895573e+00
 7.306977282095222e-01	 1.345662436303698e+00	 6.823458555536382e+00
 7.032948456145099e-01	 1.360184885455249e+00	 6.438314964067458e+00
 6.756907487429237e-01	 1.374106464053030e+00	 6.094981588996325e+00
 6.479046104926288e-01	 1.387424296382496e+00	 5.797193152186960e+00
 6.199555758186077e-01	 1.400136295688087e+00	 5.524151145412868e+00
 5.918627226797222e-01	 1.412241155042658e+00	 5.173826107865398e+00
 5.636450240113147e-01	 1.423738336002914e+00	 4.848998173126947e+00
 8.413349958335384e-01	 1.286880598492456e+00	 8.570391593732834e+00
 8.148200623262166e-01	 1.303830708342583e+00	 8.119132135059333e+00
 7.880266198140840e-01	 1.320197067277418e+00	 7.684398218761606e+00
 7.609736243338386e-01	 1.335973574981907e+00	 7.270382619225121e+00
 7.336801679152816e-01	 1.351154936041308e+00	 6.881180312351335e+00
 7.061654368201085e-01	 1.365736660495695e+00	 6.520756969562477e+00
 6.784486701655896e-01	 1.379715061863522e+00	 6.192919006499619e+00
 6.505491191063160e-01	 1.393087252692631e+00	 5.901285444705769e+00
 6.224860067399434e-01	 1.405851137710091e+00	 5.637381207644849e+00
 5.942784888945538e-01	 1.418005404654362e+00	 5.277844127157246e+00
 5.659456159460416e-01	 1.429549512884418e+00	 4.934561922282906e+00
 8.447550567900006e-01	 1.292111820435765e+00	 8.448886797580935e+00
 8.181323390005806e-01	 1.309130833171212e+00	 8.056073345521398e+00
 7.912299800558825e-01	 1.325563722020261e+00	 7.671450593390773e+00
 7.640670130496645e-01	 1.341404361869827e+00	 7.298953023222838e+00
 7.366626076216045e-01	 1.356647435779093e+00	 6.942453463958748e+00
 7.090360280263329e-01	 1.371288435536263e+00	 6.605731632749468e+00
 6.812065915889132e-01	 1.385323659674092e+00	 6.292444046068165e+00
 6.531936277206629e-01	 1.398750209002810e+00	 6.006095565452948e+00
 6.250164376619113e-01	 1.411565979732115e+00	 5.750012816731672e+00
 5.966942551099607e-01	 1.423769654266070e+00	 5.380549946683549e+00
 5.682462078812581e-01	 1.435360689765921e+00	 5.018107436691459e+00
 8.481751177464736e-01	 1.297343042379568e+00	 8.335642362870672e+00
 8.214446156751392e-01	 1.314430958000241e+00	 7.999994893662084e+00
 7.944333402980298e-01	 1.330930376763419e+00	 7.664267870908393e+00
 7.671604017659621e-01	 1.346835148757988e+00	 7.332139835943769e+00
 7.396450473284920e-01	 1.362139935517055e+00	 7.007263626574471e+00
 7.119066192331835e-01	 1.376840210576953e+00	 6.693234959163322e+00
 6.839645130128947e-01	 1.390932257484739e+00	 6.393562196750483e+00
 6.558381363356698e-01	 1.404413165313033e+00	 6.111637574578767e+00
 6.275468685845115e-01	 1.417280821754159e+00	 5.850710129603321e+00
 5.991100213259430e-01	 1.429533903877784e+00	 5.481987081703366e+00
 5.705467998169644e-01	 1.441171866647424e+00	 5.099682765764927e+00
 8.515951787029569e-01	 1.302574264323867e+00	 8.230594829569714e+00
 8.247568923498935e-01	 1.319731082829669e+00	 7.950846982481449e+00
 7.976367005405257e-01	 1.336297031506891e+00	 7.662813075171682e+00
 7.702537904827312e-01	 1.352265935646389e+00	 7.369918044148745e+00
 7.426274870359432e-01	 1.367632435255193e+00	 7.075596878471680e+00
 7.147772104406598e-01	 1.382391985617766e+00	 6.783263236103269e+00
 6.867224344375342e-01	 1.396540855295465e+00	 6.496279063626019e+00
 6.584826449513360e-01	 1.410076121623298e+00	 6.217925497252741e+00
 6.300772995077437e-01	 1.422995663776222e+00	 5.951375299453650e+00
 6.015257875425005e-01	 1.435298153489502e+00	 5.582198755104413e+00
 5.728473917531604e-01	 1.446983043528928e+00	 5.179335560300667e+00
 8.550152396594510e-01	 1.307805486268661e+00	 8.133682035328526e+00
 8.280691690248430e-01	 1.325031207659498e+00	 7.908580881280020e+00
 8.008400607833711e-01	 1.341663686250679e+00	 7.667050078196281e+00
 7.733471791999724e-01	 1.357696722535032e+00	 7.412263278170739e+00
 7.456099267439587e-01	 1.373124934993508e+00	 7.147439750739997e+00
 7.176478016487625e-01	 1.387943760658700e+00	 6.875813026997890e+00
 6.894803558628312e-01	 1.402149453106268e+00	 6.600600365483836e+00
 6.611271535676625e-01	 1.415739077933607e+00	 6.324973324363735e+00
 6.326077304316082e-01	 1.428710505798304e+00	 6.052029701978434e+00
 6.039415537596338e-01	 1.441062403101226e+00	 5.681227903250721e+00
 5.751479836898462e-01	 1.452794220410432e+00	 5.257113080455297e+00
 5.521420643450261e-01	 1.394682451595398e+00	 4.389195227349346e+00
 5.243963861552059e-01	 1.405349931578256e+00	 4.314164955958359e+00
 4.965651299474242e-01	 1.415423283584646e+00	 4.201173674861420e+00
 4.686663613162491e-01	 1.424904151779574e+00	 4.054817725584276e+00
 4.407179065592197e-01	 1.433794869157430e+00	 3.879294039524299e+00
 4.127373222578093e-01	 1.442098437276990e+00	 3.678372766675994e+00
 3.847418665068583e-01	 1.449818504550261e+00	 3.455375325834456e+00
 3.567484718587159e-01	 1.456959343223164e+00	 3.213157845688424e+00
 3.287737200363195e-01	 1.463525825188096e+00	 2.954099905846611e+00
 3.008338184575576e-01	 1.469523396769290e+00	 2.680098431034049e+00
 2.729445786016254e-01	 1.474958052621829e+00	 2.392566541009837e+00
 5.544426562773045e-01	 1.400493628476901e+00	 4.485585426166329e+00
 5.265813710956386e-01	 1.411205556293596e+00	 4.388312210803741e+00
 4.986341513208047e-01	 1.421320880600494e+00	 4.256165683948789e+00
 4.706191378206821e-01	 1.430841252413286e+00	 4.093896351177365e+00
 4.425542311690513e-01	 1.439769014447172e+00	 3.905835153293251e+00
 4.144570610998106e-01	 1.448107180767428e+00	 3.695865887242655e+00
 3.863449576165301e-01	 1.455859414987775e+00	 3.467403185832510e+00
 3.582349238238630e-01	 1.463030007155163e+00	 3.223376021301420e+00
 3.301436105352605e-01	 1.469623849461540e+00	 2.966216636352222e+00
 3.020872926995213e-01	 1.475646410924159e+00	 2.697854749464065e+00
 2.740818476770061e-01	 1.481103711175835e+00	 2.419716829774372e+00
 5.567432482100724e-01	 1.406304805358404e+00	 4.579710870886498e+00
 5.287663560364722e-01	 1.417061181008938e+00	 4.460365708466711e+00
 5.007031726945173e-01	 1.427218477616342e+00	 4.309219286791775e+00
 4.725719143253998e-01	 1.436778353046997e+00	 4.131177318062770e+00
 4.443905557791414e-01	 1.445743159736915e+00	 3.930705762804750e+00
 4.161767999420637e-01	 1.454115924257865e+00	 3.711803037579518e+00
 3.879480487264677e-01	 1.461900325425289e+00	 3.477977919456414e+00
 3.597213757893091e-01	 1.469100671087162e+00	 3.232233107952612e+00
 3.315135010345536e-01	 1.475721873734985e+00	 2.977054342595715e+00
 3.033407669419090e-01	 1.481769425079029e+00	 2.714404916521560e+00
 2.752191167529016e-01	 1.487249369729841e+00	 2.445725374114456e+00
 5.590438401433302e-01	 1.412115982239907e+00	 4.671621730641107e+00
 5.309513409777057e-01	 1.422916805724280e+00	 4.530369741679671e+00
 5.027721940685621e-01	 1.433116074632189e+00	 4.360373269433554e+00
 4.745246908304026e-01	 1.442715453680708e+00	 4.166694284823530e+00
 4.462268803894894e-01	 1.451717305026657e+00	 3.953934786633248e+00
 4.178965387845687e-01	 1.460124667748302e+00	 3.726208790621734e+00
 3.895511398366707e-01	 1.467941235862803e+00	 3.487120153995867e+00
 3.612078277550544e-01	 1.475171335019160e+00	 3.239746191607405e+00
 3.328833915341984e-01	 1.481819898008429e+00	 2.986626976595234e+00
 3.045942411847207e-01	 1.487892439233899e+00	 2.729760159456448e+00
 2.763563858293117e-01	 1.493395028283848e+00	 2.470601086265953e+00
 5.613444320770775e-01	 1.417927159121411e+00	 4.761367733028893e+00
 5.331363259193399e-01	 1.428772430439621e+00	 4.598368224758848e+00
 5.048412154429391e-01	 1.439013671648038e+00	 4.409666097557311e+00
 4.764774673356902e-01	 1.448652554314419e+00	 4.200480642641880e+00
 4.480632050000957e-01	 1.457691450316399e+00	 3.975550923789351e+00
 4.196162776273255e-01	 1.466133411238740e+00	 3.739107542449062e+00
 3.911542309471395e-01	 1.473982146300317e+00	 3.494850377460958e+00
 3.626942797210987e-01	 1.481241998951159e+00	 3.245932251412190e+00
 3.342532820341955e-01	 1.487917922281873e+00	 2.994948410919570e+00
 3.058477154279563e-01	 1.494015453388769e+00	 2.743931648384791e+00
 2.774936549062364e-01	 1.499540686837854e+00	 2.494352838641226e+00
 5.636450240113147e-01	 1.423738336002914e+00	 4.848998173126947e+00
 5.353213108613746e-01	 1.434628055154963e+00	 4.664404701327705e+00
 5.069102368176485e-01	 1.444911268663886e+00	 4.457135923025444e+00
 4.784302438412626e-01	 1.454589654948131e+00	 4.232569520756277e+00
 4.498995296109602e-01	 1.463665595606142e+00	 3.995582658202125e+00
 4.213360164703343e-01	 1.472142154729176e+00	 3.750523515893998e+00
 3.927573220578739e-01	 1.480023056737831e+00	 3.501188941424335e+00
 3.641807316874422e-01	 1.487312662883157e+00	 3.250808161874748e+00
 3.356231725345445e-01	 1.494015946555317e+00	 3.002032440311497e+00
 3.071011896716159e-01	 1.500138467543639e+00	 2.756930497456745e+00
 2.786309239836758e-01	 1.505686345391861e+00	 2.516989464641251e+00
 5.659456159460416e-01	 1.429549512884418e+00	 4.934561922282906e+00
 5.375062958038094e-01	 1.440483679870304e+00	 4.728522351852283e+00
 5.089792581926899e-01	 1.450808865679733e+00	 4.502820590256650e+00
 4.803830203471199e-01	 1.460526755581842e+00	 4.262993791785975e+00
 4.517358542220828e-01	 1.469639740895884e+00	 4.014058263090154e+00
 4.230557553135949e-01	 1.478150898219614e+00	 3.760480764063581e+00
 3.943604131688737e-01	 1.486063967175345e+00	 3.506156063795301e+00
 3.656671836540847e-01	 1.493383326815156e+00	 3.254390694990954e+00
 3.369930630352455e-01	 1.500113970828761e+00	 3.007892783266892e+00
 3.083546639156997e-01	 1.506261481698509e+00	 2.768767765992304e+00
 2.797681930616300e-01	 1.511832003945867e+00	 2.538519759448507e+00
 5.682462078812581e-01	 1.435360689765921e+00	 5.018107436691459e+00
 5.396912807466447e-01	 1.446339304585646e+00	 4.790764000990870e+00
 5.110482795680634e-01	 1.456706462695582e+00	 4.546757642450394e+00
 4.823357968532622e-01	 1.466463856215553e+00	 4.291786076924750e+00
 4.535721788334638e-01	 1.475613886185626e+00	 4.031005805227720e+00
 4.247754941571074e-01	 1.484159641710051e+00	 3.769003173774196e+00
 3.959635042801394e-01	 1.492104877612859e+00	 3.509771831524949e+00
 3.671536356210264e-01	 1.499453990747155e+00	 3.256696522319608e+00
 3.383629535362985e-01	 1.506211995102205e+00	 3.012543083580408e+00
 3.096081381602072e-01	 1.512384495853378e+00	 2.779454459592380e+00
 2.809054621400987e-01	 1.517977662499874e+00	 2.558952480801127e+00
 5.705467998169644e-01	 1.441171866647424e+00	 5.099682765764927e+00
 5.418762656898803e-01	 1.452194929300987e+00	 4.851172124768737e+00
 5.131173009437692e-01	 1.462604059711430e+00	 4.588984327659393e+00
 4.842885733596893e-01	 1.472400956849264e+00	 4.318978751010988e+00
 4.554085034451030e-01	 1.481588031475369e+00	 4.046453149104878e+00
 4.264952330008718e-01	 1.490168385200489e+00	 3.776114468906130e+00
 3.975665953916707e-01	 1.498145788050373e+00	 3.512056203246277e+00
 3.686400875882673e-01	 1.505524654679154e+00	 3.257742217008455e+00
 3.397328440377036e-01	 1.512310019375649e+00	 3.015996911850229e+00
 3.108616124051388e-01	 1.518507510008248e+00	 2.789001531221238e+00
 2.820427312190821e-01	 1.524123321053880e+00	 2.578296349747602e+00
 5.728473917531604e-01	 1.446983043528928e+00	 5.179335560300667e+00
 5.440612506335166e-01	 1.458050554016329e+00	 4.909788857578523e+00
 5.151863223198073e-01	 1.468501656727278e+00	 4.629537604716869e+00
 4.862413498664013e-01	 1.478338057482975e+00	 4.344603947473948e+00
 4.572448280570001e-01	 1.487562176765111e+00	 4.060427960992484e+00
 4.282149718448880e-01	 1.496177128690926e+00	 3.781838213673479e+00
 3.991696865034675e-01	 1.504186698487888e+00	 3.513029011851118e+00
 3.701265395558071e-01	 1.511595318611152e+00	 3.257544255768451e+00
 3.411027345394607e-01	 1.518408043649094e+00	 3.018267766949171e+00
 3.121150866504944e-01	 1.524630524163118e+00	 2.797419882263829e+00
 2.831800002985802e-01	 1.530268979607887e+00	 2.596560051383092e+00
 5.751479836898462e-01	 1.452794220410432e+00	 5.257113080455297e+00
 5.462462355775531e-01	 1.463906178731671e+00	 4.966655999012724e+00
 5.172553436961776e-01	 1.474399253743126e+00	 4.668454149019793e+00
 4.881941263733983e-01	 1.484275158116687e+00	 4.368693563162518e+00
 4.590811526691558e-01	 1.493536322054853e+00	 4.072957712903633e+00
 4.299347106891563e-01	 1.502185872181363e+00	 3.786197815818102e+00
 4.007727776155301e-01	 1.510227608925401e+00	 3.512709967005692e+00
 3.716129915236462e-01	 1.517665982543151e+00	 3.256119020804327e+00
 3.424726250415698e-01	 1.524506067922538e+00	 3.019369077457702e+00
 3.133685608962740e-01	 1.530753538317988e+00	 2.804720363556982e+00
 2.843172693785931e-01	 1.536414638161893e+00	 2.613752235569475e+00
 2.729445786016254e-01	 1.474958052621829e+00	 2.392566541009837e+00
 2.451213962366573e-01	 1.479836308883957e+00	 2.104861278213282e+00
 2.173792335174868e-01	 1.484165175720689e+00	 1.865124639098618e+00
 1.897326029512248e-01	 1.487952129393421e+00	 1.672006227441235e+00
 1.621955532186829e-01	 1.491205083986602e+00	 1.523551227868346e+00
 1.347816568308554e-01	 1.493932362918601e+00	 1.417231997285296e+00
 1.075039995905299e-01	 1.496142670358577e+00	 1.349982819416891e+00
 8.037517182124869e-02	 1.497845062665730e+00	 1.318237354633542e+00
 5.340726131856410e-02	 1.499048919961328e+00	 1.317968317634788e+00
 2.661184797196365e-02	 1.499763917937484e+00	 1.344728921464499e+00
 0.000000000000000e+00	 1.500000000000000e+00	 1.393695637186603e+00
 2.740818476770061e-01	 1.481103711175835e+00	 2.419716829774372e+00
 2.461427353850260e-01	 1.486002293505446e+00	 2.141852508260640e+00
 2.182849803208652e-01	 1.490349197287087e+00	 1.909496314207794e+00
 1.905231554604118e-01	 1.494151929933241e+00	 1.721341228818590e+00
 1.628713680206442e-01	 1.497418438503709e+00	 1.575476466164709e+00
 1.353432470646830e-01	 1.500157081097771e+00	 1.469418853452968e+00
 1.079519329194909e-01	 1.502376598151955e+00	 1.400147406641633e+00
 8.071006836828858e-02	 1.504086083760293e+00	 1.364140631724914e+00
 5.362979157243968e-02	 1.505294957127888e+00	 1.357416082201798e+00
 2.672273067096798e-02	 1.506012934262237e+00	 1.375571708976215e+00
 0.000000000000000e+00	 1.506250000000000e+00	 1.413828549694895e+00
 2.752191167529016e-01	 1.487249369729841e+00	 2.445725374114456e+00
 2.471640745339932e-01	 1.492168278126937e+00	 2.177579744218606e+00
 2.191907271248945e-01	 1.496533218853485e+00	 1.952526803092776e+00
 1.913137079702708e-01	 1.500351730473061e+00	 1.769302719724638e+00
 1.635471828232682e-01	 1.503631793020817e+00	 1.626040395391489e+00
 1.359048372991341e-01	 1.506381799276942e+00	 1.520300639321984e+00
 1.083998662490069e-01	 1.508610525945334e+00	 1.449106572517288e+00
 8.104496491578612e-02	 1.510327104854855e+00	 1.408980788112646e+00
 5.385232182664757e-02	 1.511540994294447e+00	 1.395984796654950e+00
 2.683361337015184e-02	 1.512261950586990e+00	 1.405760290245216e+00
 0.000000000000000e+00	 1.512500000000000e+00	 1.433571770151949e+00
 2.763563858293117e-01	 1.493395028283848e+00	 2.470601086265953e+00
 2.481854136835590e-01	 1.498334262748426e+00	 2.212052200596580e+00
 2.200964739295747e-01	 1.502717240419883e+00	 1.994225384933336e+00
 1.921042604808019e-01	 1.506551531012881e+00	 1.815899812703406e+00
 1.642229976265550e-01	 1.509845147537926e+00	 1.675251736546980e+00
 1.364664275342087e-01	 1.512606517456112e+00	 1.569885465912486e+00
 1.088477995790778e-01	 1.514844453738713e+00	 1.496867606190468e+00
 8.137986146374129e-02	 1.516568125949417e+00	 1.452764085747259e+00
 5.407485208118774e-02	 1.517787031461007e+00	 1.433679497016774e+00
 2.694449606951522e-02	 1.518510966911742e+00	 1.435298283230557e+00
 0.000000000000000e+00	 1.518750000000000e+00	 1.452927312897148e+00
 2.774936549062364e-01	 1.499540686837854e+00	 2.494352838641226e+00
 2.492067528337235e-01	 1.504500247369916e+00	 2.245279028239046e+00
 2.210022207349058e-01	 1.508901261986281e+00	 2.034601257098052e+00
 1.928948129920050e-01	 1.512751331552702e+00	 1.861141525957095e+00
 1.648988124305046e-01	 1.516058502055033e+00	 1.723119109289793e+00
 1.370280177699069e-01	 1.518831235635283e+00	 1.618181341346976e+00
 1.092957329097037e-01	 1.521078381532092e+00	 1.543437697686079e+00
 8.171475801215411e-02	 1.522809147043980e+00	 1.495496696454976e+00
 5.429738233606022e-02	 1.524033068627566e+00	 1.470505143289274e+00
 2.705537876905812e-02	 1.524759983236495e+00	 1.464189248948093e+00
 0.000000000000000e+00	 1.525000000000000e+00	 1.471897159247724e+00
 2.786309239836758e-01	 1.505686345391861e+00	 2.516989464641251e+00
 2.502280919844865e-01	 1.510666231991405e+00	 2.277269315627719e+00
 2.219079675408878e-01	 1.515085283552680e+00	 2.073663536813452e+00
 1.936853655038803e-01	 1.518951132092522e+00	 1.905036785271159e+00
 1.655746272351170e-01	 1.522271856572142e+00	 1.769651034007888e+00
 1.375896080062285e-01	 1.525055953814453e+00	 1.665196172949409e+00
 1.097436662408845e-01	 1.527312309325471e+00	 1.588823939929493e+00
 8.204965456102463e-02	 1.529050168138542e+00	 1.537184703779535e+00
 5.451991259126499e-02	 1.530279105794125e+00	 1.506466621004680e+00
 2.716626146878055e-02	 1.531008999561248e+00	 1.492436692634400e+00
 0.000000000000000e+00	 1.531250000000000e+00	 1.490483258173188e+00
 2.797681930616300e-01	 1.511832003945867e+00	 2.538519759448507e+00
 2.512494311358481e-01	 1.516832216612895e+00	 2.308032090147178e+00
 2.228137143475205e-01	 1.521269305119077e+00	 2.111421262794142e+00
 1.944759180164277e-01	 1.525150932632342e+00	 1.947594425892605e+00
 1.662504420403921e-01	 1.528485211089249e+00	 1.814855933834706e+00
 1.381511982431737e-01	 1.531280671993624e+00	 1.710937769294108e+00
 1.101915995726203e-01	 1.533546237118849e+00	 1.633033330720347e+00
 8.238455111035277e-02	 1.535291189233104e+00	 1.577834104775058e+00
 5.474244284680205e-02	 1.536525142960684e+00	 1.541568742740898e+00
 2.727714416868250e-02	 1.537258015886001e+00	 1.520044064878854e+00
 0.000000000000000e+00	 1.537500000000000e+00	 1.508687526952558e+00
 2.809054621400987e-01	 1.517977662499874e+00	 2.558952480801127e+00
 2.522707702878083e-01	 1.522998201234384e+00	 2.337576319322630e+00
 2.237194611548043e-01	 1.527453326685475e+00	 2.147883396830027e+00
 1.952664705296471e-01	 1.531350733172163e+00	 1.988823194363211e+00
 1.669262568463299e-01	 1.534698565606357e+00	 1.858742136619141e+00
 1.387127884807424e-01	 1.537505390172794e+00	 1.755413842204471e+00
 1.106395329049110e-01	 1.539780164912228e+00	 1.676072774657625e+00
 8.271944766013857e-02	 1.541532210327667e+00	 1.617450811756694e+00
 5.496497310267141e-02	 1.542771180127243e+00	 1.575816249595972e+00
 2.738802686876399e-02	 1.543507032210754e+00	 1.547014762730845e+00
 0.000000000000000e+00	 1.543750000000000e+00	 1.526511851815425e+00
 2.820427312190821e-01	 1.524123321053880e+00	 2.578296349747602e+00
 2.532921094403671e-01	 1.529164185855874e+00	 2.365910912026112e+00
 2.246252079627389e-01	 1.533637348251873e+00	 2.183058825339469e+00
 1.960570230435387e-01	 1.537550533711983e+00	 2.028731750307876e+00
 1.676020716529306e-01	 1.540911920123465e+00	 1.901317876846368e+00
 1.392743787189347e-01	 1.543730108351965e+00	 1.798632008703387e+00
 1.110874662377566e-01	 1.546014092705607e+00	 1.717949085020430e+00
 8.305434421038199e-02	 1.547773231422229e+00	 1.656040654010349e+00
 5.518750335887309e-02	 1.549017217293803e+00	 1.609213812630735e+00
 2.749890956902499e-02	 1.549756048535507e+00	 1.573352130778968e+00
 0.000000000000000e+00	 1.550000000000000e+00	 1.543958088568664e+00
 2.831800002985802e-01	 1.530268979607887e+00	 2.596560051383092e+00
 2.543134485935246e-01	 1.535330170477364e+00	 2.393044719654852e+00
 2.255309547713244e-01	 1.539821369818271e+00	 2.216956360881046e+00
 1.968475755581023e-01	 1.543750334251803e+00	 2.067328668179669e+00
 1.682778864601940e-01	 1.547125274640573e+00	 1.942591297512092e+00
 1.398359689577504e-01	 1.549954826531135e+00	 1.840599792918442e+00
 1.115353995711571e-01	 1.552248020498986e+00	 1.758668985599460e+00
 8.338924076108310e-02	 1.554014252516792e+00	 1.693609379458348e+00
 5.541003361540703e-02	 1.555263254460362e+00	 1.641766034275435e+00
 2.760979226946552e-02	 1.556005064860260e+00	 1.599059462204692e+00
 0.000000000000000e+00	 1.556250000000000e+00	 1.561028063206745e+00
 2.843172693785931e-01	 1.536414638161893e+00	 2.613752235569475e+00
 2.553347877472805e-01	 1.541496155098853e+00	 2.418986537280205e+00
 2.264367015805608e-01	 1.546005391384669e+00	 2.249584743632043e+00
 1.976381280733380e-01	 1.549950134791623e+00	 2.104622438963329e+00
 1.689537012681203e-01	 1.553338629157681e+00	 1.982570451952653e+00
 1.403975591971896e-01	 1.556179544710306e+00	 1.881324627937056e+00
 1.119833329051127e-01	 1.558481948292365e+00	 1.798239112488265e+00
 8.372413731224189e-02	 1.560255273611354e+00	 1.730162656287858e+00
 5.563256387227331e-02	 1.561509291626922e+00	 1.673477449700674e+00
 2.772067497008558e-02	 1.562254081185013e+00	 1.624139999809284e+00
 0.000000000000000e+00	 1.562500000000000e+00	 1.577723572508711e+00
 1.562500000000000e+00	 0.000000000000000e+00	 1.409320781700292e+01
 1.562254081185013e+00	 2.772067497008468e-02	 1.421366027152270e+01
 1.561509291626922e+00	 5.563256387227252e-02	 1.430784769174786e+01
 1.560255273611354e+00	 8.372413731224117e-02	 1.437510153190691e+01
 1.558481948292364e+00	 1.119833329051120e-01	 1.441492857040671e+01
 1.556179544710306e+00	 1.403975591971891e-01	 1.442701815719417e+01
 1.553338629157681e+00	 1.689537012681199e-01	 1.441124826385970e+01
 1.549950134791623e+00	 1.976381280733377e-01	 1.436769020833691e+01
 1.546005391384669e+00	 2.264367015805606e-01	 1.429661193201299e+01
 1.541496155098854e+00	 2.553347877472804e-01	 1.419847971505691e+01
 1.536414638161893e+00	 2.843172693785931e-01	 1.407395822584437e+01
 1.568750000000000e+00	 0.000000000000000e+00	 1.404345049887582e+01
 1.568503097509764e+00	 2.783155767079450e-02	 1.416294181065049e+01
 1.567755328793471e+00	 5.585509412930491e-02	 1.425656440027086e+01
 1.566496294705896e+00	 8.405903386362877e-02	 1.432370032370200e+01
 1.564715876085706e+00	 1.124312662393450e-01	 1.436390947642788e+01
 1.562404262889417e+00	 1.409591494369401e-01	 1.437693673551019e+01
 1.559551983674704e+00	 1.696295160763774e-01	 1.436271787859827e+01
 1.556149935331327e+00	 1.984286805889095e-01	 1.432138415073596e+01
 1.552189412950914e+00	 2.273424483901224e-01	 1.425326535595923e+01
 1.547662139720148e+00	 2.563561269013357e-01	 1.415889135888590e+01
 1.542560296715657e+00	 2.854545384588632e-01	 1.403899189181101e+01
 1.575000000000000e+00	 0.000000000000000e+00	 1.399458856742600e+01
 1.574752113834510e+00	 2.794244037150431e-02	 1.411322098747212e+01
 1.574001365960003e+00	 5.607762438633730e-02	 1.420637266063464e+01
 1.572737315800395e+00	 8.439393041501633e-02	 1.427347607408756e+01
 1.570949803878972e+00	 1.128791995735780e-01	 1.431414409975253e+01
 1.568628981068412e+00	 1.415207396766912e-01	 1.432817703257898e+01
 1.565765338191556e+00	 1.703053308846351e-01	 1.431556837984578e+01
 1.562349735870797e+00	 1.992192331044811e-01	 1.427650927130267e+01
 1.558373434516851e+00	 2.282481951996842e-01	 1.421139136630628e+01
 1.553828124341051e+00	 2.573774660553909e-01	 1.412080814252904e+01
 1.548705955268936e+00	 2.865918075391333e-01	 1.400555446137331e+01
 1.581250000000000e+00	 0.000000000000000e+00	 1.394660082574944e+01
 1.581001130159251e+00	 2.805332307221413e-02	 1.406447450918103e+01
 1.580247403126516e+00	 5.630015464336971e-02	 1.415724709160468e+01
 1.578978336894853e+00	 8.472882696640388e-02	 1.422440132484097e+01
 1.577183731672165e+00	 1.133271329078109e-01	 1.426560292074761e+01
 1.574853699247288e+00	 1.420823299164422e-01	 1.428070748723968e+01
 1.571978692708238e+00	 1.709811456928926e-01	 1.426976618926034e+01
 1.568549536410034e+00	 2.000097856200529e-01	 1.423303000347496e+01
 1.564557456082482e+00	 2.291539420092460e-01	 1.417095244198593e+01
 1.559994108961564e+00	 2.583988052094462e-01	 1.408419062900681e+01
 1.554851613821729e+00	 2.877290766194034e-01	 1.397360462522968e+01
 1.587500000000000e+00	 0.000000000000000e+00	 1.389946641075162e+01
 1.587250146483988e+00	 2.816420577292394e-02	 1.401667944117535e+01
 1.586493440293011e+00	 5.652268490040210e-02	 1.410916269387297e+01
 1.585219357989269e+00	 8.506372351779147e-02	 1.417644902266318e+01
 1.583417659465281e+00	 1.137750662420439e-01	 1.421825684692550e+01
 1.581078417426047e+00	 1.426439201561932e-01	 1.423449698687266e+01
 1.578192047224749e+00	 1.716569605011502e-01	 1.422527819756048e+01
 1.574749336949037e+00	 2.008003381356247e-01	 1.419091126934314e+01
 1.570741477647806e+00	 2.300596888188078e-01	 1.413191156919780e+01
 1.566160093581686e+00	 2.594201443635014e-01	 1.404899990619740e+01
 1.560997272374037e+00	 2.888663456996735e-01	 1.394310161545299e+01
 1.593750000000000e+00	 0.000000000000000e+00	 1.385316478660230e+01
 1.593499162808720e+00	 2.827508847363375e-02	 1.396981320003429e+01
 1.592739477459488e+00	 5.674521515743452e-02	 1.406209484256906e+01
 1.591460379083644e+00	 8.539862006917905e-02	 1.412959251123908e+01
 1.589651587258324e+00	 1.142229995762769e-01	 1.417207720456874e+01
 1.587303135604688e+00	 1.432055103959443e-01	 1.418951485860484e+01
 1.584405401741090e+00	 1.723327753094078e-01	 1.418207175532773e+01
 1.580949137487806e+00	 2.015908906511965e-01	 1.415011847006849e+01
 1.576925499212823e+00	 2.309654356283696e-01	 1.409423223146290e+01
 1.572326078201416e+00	 2.604414835175567e-01	 1.401519757654555e+01
 1.567142930925859e+00	 2.900036147799436e-01	 1.391400519487524e+01
 1.600000000000000e+00	 0.000000000000000e+00	 1.380767573834356e+01
 1.599748179133448e+00	 2.838597117434357e-02	 1.392385354665921e+01
 1.598985514625946e+00	 5.696774541446693e-02	 1.401601927994687e+01
 1.597701400177976e+00	 8.573351662056661e-02	 1.408380552348386e+01
 1.595885515051292e+00	 1.146709329105099e-01	 1.412703573055100e+01
 1.593527853783212e+00	 1.437671006356952e-01	 1.414573086072066e+01
 1.590618756257261e+00	 1.730085901176654e-01	 1.414011466402503e+01
 1.587148938026342e+00	 2.023814431667682e-01	 1.411061747652637e+01
 1.583109520777533e+00	 2.318711824379315e-01	 1.405787839991032e+01
 1.578492062820757e+00	 2.614628226716120e-01	 1.398274574701239e+01
 1.573288589477196e+00	 2.911408838602137e-01	 1.388627564672134e+01
 1.606250000000000e+00	 0.000000000000000e+00	 1.376297936564718e+01
 1.605997195458171e+00	 2.849685387505339e-02	 1.387877857957473e+01
 1.605231551792385e+00	 5.719027567149931e-02	 1.397091210824224e+01
 1.603942421272267e+00	 8.606841317195418e-02	 1.403906217397061e+01
 1.602119442844185e+00	 1.151188662447429e-01	 1.408310456434865e+01
 1.599752571961618e+00	 1.443286908754463e-01	 1.410311517427384e+01
 1.596832110773261e+00	 1.736844049259230e-01	 1.409937516722470e+01
 1.593348738564645e+00	 2.031719956823400e-01	 1.407237462016793e+01
 1.589293542341937e+00	 2.327769292474933e-01	 1.402281452379083e+01
 1.584658047439706e+00	 2.624841618256673e-01	 1.395160701925978e+01
 1.579434248028048e+00	 2.922781529404838e-01	 1.385987376448454e+01
 1.612500000000000e+00	 0.000000000000000e+00	 1.371905607671716e+01
 1.612246211782889e+00	 2.860773657576319e-02	 1.383456672838553e+01
 1.611477588958806e+00	 5.741280592853173e-02	 1.392674978269648e+01
 1.610183442366516e+00	 8.640330972334177e-02	 1.399533695153353e+01
 1.608353370637002e+00	 1.155667995789758e-01	 1.404025624023866e+01
 1.605977290139907e+00	 1.448902811151973e-01	 1.406163839489423e+01
 1.603045465289090e+00	 1.743602197341805e-01	 1.405982194204038e+01
 1.599548539102714e+00	 2.039625481979117e-01	 1.403535668409401e+01
 1.595477563906032e+00	 2.336826760570551e-01	 1.398900552121064e+01
 1.590824032058265e+00	 2.635055009797226e-01	 1.392174448006336e+01
 1.585579906578415e+00	 2.934154220207539e-01	 1.383476084203771e+01
 1.618750000000000e+00	 0.000000000000000e+00	 1.367588658233350e+01
 1.618495228107603e+00	 2.871861927647300e-02	 1.379119674738504e+01
 1.617723626125209e+00	 5.763533618556411e-02	 1.388350910474168e+01
 1.616424463460724e+00	 8.673820627472935e-02	 1.395260471204309e+01
 1.614587298429746e+00	 1.160147329132088e-01	 1.399846367967697e+01
 1.612202008318077e+00	 1.454518713549483e-01	 1.402127152478438e+01
 1.609258819804750e+00	 1.750360345424381e-01	 1.402142409075756e+01
 1.605748339640549e+00	 2.047531007134834e-01	 1.399953089433622e+01
 1.601661585469822e+00	 2.345884228666169e-01	 1.395641677008054e+01
 1.596990016676433e+00	 2.645268401337778e-01	 1.389312169194717e+01
 1.591725565128296e+00	 2.945526911010241e-01	 1.381089866397328e+01
 1.625000000000000e+00	 0.000000000000000e+00	 1.363345189003350e+01
 1.624744244432312e+00	 2.882950197718282e-02	 1.374864770931122e+01
 1.623969663291593e+00	 5.785786644259654e-02	 1.384116721534305e+01
 1.622665484554890e+00	 8.707310282611692e-02	 1.391084067134760e+01
 1.620821226222414e+00	 1.164626662474418e-01	 1.395770018385240e+01
 1.618426726496131e+00	 1.460134615946994e-01	 1.398198596490084e+01
 1.615472174320239e+00	 1.757118493506958e-01	 1.398415113265709e+01
 1.611948140178151e+00	 2.055436532290552e-01	 1.396486491133907e+01
 1.607845607033305e+00	 2.354941696761788e-01	 1.392501409927310e+01
 1.603156001294210e+00	 2.655481792878331e-01	 1.386570268403483e+01
 1.597871223677692e+00	 2.956899601812942e-01	 1.378824949616657e+01
 1.536414638161893e+00	 2.843172693785931e-01	 1.407395822584437e+01
 1.530753538317988e+00	 3.133685608962730e-01	 1.422466411357443e+01
 1.524506067922538e+00	 3.424726250415691e-01	 1.433740846054914e+01
 1.517665982543151e+00	 3.716129915236455e-01	 1.441078863366822e+01
 1.510227608925401e+00	 4.007727776155295e-01	 1.444354779216503e+01
 1.502185872181363e+00	 4.299347106891560e-01	 1.443457466955557e+01
 1.493536322054853e+00	 4.590811526691556e-01	 1.438290188968346e+01
 1.484275158116687e+00	 4.881941263733981e-01	 1.428770279984801e+01
 1.474399253743126e+00	 5.172553436961776e-01	 1.414828682251793e+01
 1.463906178731671e+00	 5.462462355775533e-01	 1.396409334658352e+01
 1.452794220410432e+00	 5.751479836898463e-01	 1.373468419922135e+01
 1.542560296715657e+00	 2.854545384588632e-01	 1.403899189181101e+01
 1.536876552472572e+00	 3.146220351422623e-01	 1.418675781211941e+01
 1.530604092195668e+00	 3.438425155438446e-01	 1.429712429531310e+01
 1.523736646474821e+00	 3.730994434916128e-01	 1.436872561999827e+01
 1.516268519362587e+00	 4.023758687276868e-01	 1.440034262195994e+01
 1.508194615671486e+00	 4.316544495334902e-01	 1.439090224695080e+01
 1.499510467344311e+00	 4.609174772813535e-01	 1.433947561620133e+01
 1.490212258750159e+00	 4.901469028804191e-01	 1.424527458867516e+01
 1.480296850758795e+00	 5.193243650725585e-01	 1.410764682291330e+01
 1.469761803446910e+00	 5.484312205215924e-01	 1.392606936107029e+01
 1.458605397291925e+00	 5.774485756265320e-01	 1.370014077816938e+01
 1.548705955268936e+00	 2.865918075391333e-01	 1.400555446137331e+01
 1.542999566626585e+00	 3.158755093882468e-01	 1.415032149766409e+01
 1.536702116468169e+00	 3.452124060461014e-01	 1.425824519689683e+01
 1.529807310405832e+00	 3.745858954595374e-01	 1.432799709022131e+01
 1.522309429799113e+00	 4.039789598397677e-01	 1.435839606546831e+01
 1.514203359160981e+00	 4.333741883777049e-01	 1.434840768957100e+01
 1.505484612633201e+00	 4.627538018933785e-01	 1.429714202204759e+01
 1.496149359383153e+00	 4.920996793872031e-01	 1.420384990460669e+01
 1.486194447774108e+00	 5.213933864486286e-01	 1.406791773106397e+01
 1.475617428161945e+00	 5.506162054652366e-01	 1.388886072182765e+01
 1.464416574173397e+00	 5.797491675627279e-01	 1.366631474794576e+01
 1.554851613821729e+00	 2.877290766194034e-01	 1.397360462522968e+01
 1.549122580780026e+00	 3.171289836342266e-01	 1.411531291465389e+01
 1.542800140740040e+00	 3.465822965483394e-01	 1.422072798718009e+01
 1.535877974336185e+00	 3.760723474274193e-01	 1.428855897063121e+01
 1.528350340234982e+00	 4.055820509517725e-01	 1.431766318374135e+01
 1.520212102649847e+00	 4.350939272217999e-01	 1.430704522698919e+01
 1.511458757921522e+00	 4.645901265052303e-01	 1.425585454254633e+01
 1.502086460015668e+00	 4.940524558937504e-01	 1.416338142944032e+01
 1.492092044789063e+00	 5.234624078243881e-01	 1.402905151946819e+01
 1.481473052876775e+00	 5.528011904084860e-01	 1.385241873978087e+01
 1.470227751054849e+00	 5.820497594984342e-01	 1.363315680910507e+01
 1.560997272374037e+00	 2.888663456996735e-01	 1.394310161545299e+01
 1.555245594932896e+00	 3.183824578802018e-01	 1.408169035048799e+01
 1.548898165011282e+00	 3.479521870505585e-01	 1.418453003188523e+01
 1.541948638265880e+00	 3.775587993952588e-01	 1.425036773154948e+01
 1.534391250670192e+00	 4.071851420637012e-01	 1.427809958132723e+01
 1.526220846138085e+00	 4.368136660657752e-01	 1.426676963101842e+01
 1.517432903209274e+00	 4.664264511169088e-01	 1.421556715326974e+01
 1.508023560647705e+00	 4.960052324000608e-01	 1.412382238248692e+01
 1.497989641803662e+00	 5.255314291998369e-01	 1.399100069465418e+01
 1.487328677591401e+00	 5.549861753513400e-01	 1.381669525564921e+01
 1.476038927936281e+00	 5.843503514336510e-01	 1.360061818700477e+01
 1.567142930925859e+00	 2.900036147799436e-01	 1.391400519487524e+01
 1.561368609085195e+00	 3.196359321261722e-01	 1.404941262487307e+01
 1.554996189281895e+00	 3.493220775527588e-01	 1.414960922991342e+01
 1.548019302194916e+00	 3.790452513630554e-01	 1.421338037665780e+01
 1.540432161104744e+00	 4.087882331755536e-01	 1.423966139561407e+01
 1.532229589625694e+00	 4.385334049096308e-01	 1.422753620507973e+01
 1.523407048496457e+00	 4.682627757284142e-01	 1.417623435944491e+01
 1.513960661279265e+00	 4.979580089061347e-01	 1.408512651003119e+01
 1.503887238817903e+00	 5.276004505749748e-01	 1.395371828670897e+01
 1.493184302305821e+00	 5.571711602937992e-01	 1.378164262955788e+01
 1.481850104817692e+00	 5.866509433683776e-01	 1.356865062151494e+01
 1.573288589477196e+00	 2.911408838602137e-01	 1.388627564672134e+01
 1.567491623236923e+00	 3.208894063721380e-01	 1.401843907942669e+01
 1.561094213551879e+00	 3.506919680549402e-01	 1.411592400293111e+01
 1.554089966123295e+00	 3.805317033308095e-01	 1.417755443258108e+01
 1.546473071538638e+00	 4.103913242873297e-01	 1.420230528642317e+01
 1.538238333112674e+00	 4.402531437533668e-01	 1.418930077381899e+01
 1.529381193783072e+00	 4.700991003397464e-01	 1.413781118560905e+01
 1.519897761910345e+00	 4.999107854119714e-01	 1.404724807503913e+01
 1.509784835831787e+00	 5.296694719498022e-01	 1.391715783905257e+01
 1.499039927020037e+00	 5.593561452358632e-01	 1.374721373089323e+01
 1.487661281699082e+00	 5.889515353026149e-01	 1.353720635696932e+01
 1.579434248028048e+00	 2.922781529404838e-01	 1.385987376448454e+01
 1.573614637388079e+00	 3.221428806180992e-01	 1.398872956752341e+01
 1.567192237821233e+00	 3.520618585571028e-01	 1.408343328519942e+01
 1.560160630051014e+00	 3.820181552985210e-01	 1.414284793871336e+01
 1.552513981971875e+00	 4.119944153990298e-01	 1.416598842584475e+01
 1.544247076599027e+00	 4.419728825969831e-01	 1.415201967296663e+01
 1.535355339069118e+00	 4.719354249509055e-01	 1.410025316550612e+01
 1.525834862540947e+00	 5.018635619175712e-01	 1.401014184710597e+01
 1.515682432845313e+00	 5.317384933243188e-01	 1.388127339845109e+01
 1.504895551734049e+00	 5.615411301775324e-01	 1.371336192839512e+01
 1.493472458580452e+00	 5.912521272363621e-01	 1.350623813235071e+01
 1.585579906578415e+00	 2.934154220207539e-01	 1.383476084203771e+01
 1.579737651538663e+00	 3.233963548640555e-01	 1.396024444437707e+01
 1.573290262089959e+00	 3.534317490592466e-01	 1.405209651364030e+01
 1.566231293978076e+00	 3.835046072661898e-01	 1.410921943728033e+01
 1.558554892404452e+00	 4.135975065106537e-01	 1.413066848831035e+01
 1.550255820084751e+00	 4.436926214404798e-01	 1.411564973943252e+01
 1.541329484354596e+00	 4.737717495618914e-01	 1.406351633221857e+01
 1.531771963171071e+00	 5.038163384229345e-01	 1.397376309263770e+01
 1.521580029858483e+00	 5.338075146985245e-01	 1.384601950526185e+01
 1.510751176447856e+00	 5.637261151188064e-01	 1.368004108047926e+01
 1.499283635461801e+00	 5.935527191696199e-01	 1.347569917170484e+01
 1.591725565128296e+00	 2.945526911010241e-01	 1.381089866397328e+01
 1.585860665688677e+00	 3.246498291100073e-01	 1.393294455735268e+01
 1.579388286358056e+00	 3.548016395613714e-01	 1.402187361813246e+01
 1.572301957904480e+00	 3.849910592338159e-01	 1.407662796363238e+01
 1.564595802836372e+00	 4.152005976222014e-01	 1.409630364089514e+01
 1.556264563569846e+00	 4.454123602838567e-01	 1.408014830163104e+01
 1.547303629639504e+00	 4.756080741727041e-01	 1.402755720852752e+01
 1.537709063800717e+00	 5.057691149280610e-01	 1.393806756526014e+01
 1.527477626871296e+00	 5.358765360724195e-01	 1.381135118390463e+01
 1.516606801161458e+00	 5.659111000596857e-01	 1.364720552578438e+01
 1.505094812343129e+00	 5.958533111023879e-01	 1.344554317477617e+01
 1.597871223677692e+00	 2.956899601812942e-01	 1.378824949616657e+01
 1.591983679838119e+00	 3.259033033559543e-01	 1.390679123650199e+01
 1.585486310625523e+00	 3.561715300634775e-01	 1.399272501203154e+01
 1.578372621830225e+00	 3.864775112013996e-01	 1.404503303676123e+01
 1.570636713267633e+00	 4.168036887336727e-01	 1.406285253384393e+01
 1.562273307054313e+00	 4.471320991271142e-01	 1.404547317002887e+01
 1.553277774923845e+00	 4.774443987833438e-01	 1.399233279749551e+01
 1.543646164429885e+00	 5.077218914329503e-01	 1.390301149644928e+01
 1.533375223883752e+00	 5.379455574460040e-01	 1.377722393355274e+01
 1.522462425874856e+00	 5.680960850001699e-01	 1.361481007393684e+01
 1.510905989224438e+00	 5.981539030346663e-01	 1.341572430785989e+01
 1.452794220410432e+00	 5.751479836898463e-01	 1.373468419922135e+01
 1.441062403101226e+00	 6.039415537596328e-01	 1.379964880205052e+01
 1.428710505798304e+00	 6.326077304316075e-01	 1.381032183330061e+01
 1.415739077933607e+00	 6.611271535676618e-01	 1.372161589534965e+01
 1.402149453106269e+00	 6.894803558628309e-01	 1.364554226720665e+01
 1.387943760658700e+00	 7.176478016487622e-01	 1.358888683763252e+01
 1.373124934993508e+00	 7.456099267439584e-01	 1.355880099386605e+01
 1.357696722535032e+00	 7.733471791999723e-01	 1.356279395389472e+01
 1.341663686250679e+00	 8.008400607833711e-01	 1.360872069857483e+01
 1.325031207659498e+00	 8.280691690248432e-01	 1.370476531528691e+01
 1.307805486268661e+00	 8.550152396594510e-01	 1.385941961516604e+01
 1.458605397291925e+00	 5.774485756265320e-01	 1.370014077816938e+01
 1.446826652713034e+00	 6.063573199767659e-01	 1.377837283808974e+01
 1.434425347820558e+00	 6.351381613554720e-01	 1.378750980013590e+01
 1.421402034244165e+00	 6.637716621839881e-01	 1.370306826520483e+01
 1.407758050917385e+00	 6.922382772881277e-01	 1.363157226625471e+01
 1.393495535700005e+00	 7.205183928568646e-01	 1.357974358400905e+01
 1.378617434732239e+00	 7.485923664519735e-01	 1.355467397551407e+01
 1.363127509424127e+00	 7.764405679172131e-01	 1.356381805693779e+01
 1.347030340994946e+00	 8.040434210262158e-01	 1.361498174192405e+01
 1.330331332489821e+00	 8.313814456997923e-01	 1.371630604069185e+01
 1.313036708213954e+00	 8.584353006159450e-01	 1.387624607588480e+01
 1.464416574173397e+00	 5.797491675627279e-01	 1.366631474794576e+01
 1.452590902325008e+00	 6.087730861933235e-01	 1.375747877915664e+01
 1.440140189843133e+00	 6.376685922787043e-01	 1.376299592598484e+01
 1.427064990555171e+00	 6.664161707996548e-01	 1.368260590431829e+01
 1.413366648729051e+00	 6.949961987127670e-01	 1.361546094546824e+01
 1.399047310741927e+00	 7.233889840643412e-01	 1.356821879966764e+01
 1.384109934471627e+00	 7.515748061594247e-01	 1.354791176819775e+01
 1.368558296313887e+00	 7.795339566339821e-01	 1.356194013996453e+01
 1.352396995739855e+00	 8.072467812687117e-01	 1.361806113865040e+01
 1.335631457320734e+00	 8.346937223745465e-01	 1.372437317908538e+01
 1.318267930159753e+00	 8.618553615724284e-01	 1.388929528276368e+01
 1.470227751054849e+00	 5.820497594984342e-01	 1.363315680910507e+01
 1.458355151937147e+00	 6.111888524093055e-01	 1.373691956499219e+01
 1.445855031866031e+00	 6.401990232013043e-01	 1.373680479493696e+01
 1.432727946866629e+00	 6.690606794146613e-01	 1.366025812713640e+01
 1.418975246541266e+00	 6.977541201367485e-01	 1.359724225087126e+01
 1.404599085784468e+00	 7.262595752711917e-01	 1.355435095304928e+01
 1.389602434211672e+00	 7.545572458663122e-01	 1.353855724358938e+01
 1.373989083204313e+00	 7.826273453502797e-01	 1.355720734907392e+01
 1.357763650485408e+00	 8.104501415108589e-01	 1.361801017131030e+01
 1.340931582152236e+00	 8.380059990491053e-01	 1.372902200284762e+01
 1.323499152106056e+00	 8.652754225289011e-01	 1.389862634325039e+01
 1.476038927936281e+00	 5.843503514336510e-01	 1.360061818700477e+01
 1.464119401549451e+00	 6.136046186247126e-01	 1.371664861037920e+01
 1.451569873889250e+00	 6.427294541232723e-01	 1.370896141577404e+01
 1.438390903178537e+00	 6.717051880290080e-01	 1.363605462194556e+01
 1.424583844354031e+00	 7.005120415600723e-01	 1.357695045106060e+01
 1.410150860827627e+00	 7.291301664774160e-01	 1.353817878357641e+01
 1.395094933952374e+00	 7.575396855726352e-01	 1.352665349251954e+01
 1.379419870095404e+00	 7.857207340661058e-01	 1.354966699756308e+01
 1.363130305231604e+00	 8.136535017526577e-01	 1.361488023765745e+01
 1.346231706984329e+00	 8.413182757234694e-01	 1.373030784761191e+01
 1.328730374052866e+00	 8.686954834853633e-01	 1.390429837625772e+01
 1.481850104817692e+00	 5.866509433683776e-01	 1.356865062151494e+01
 1.469883651161920e+00	 6.160203848395440e-01	 1.369661979582733e+01
 1.457284715912793e+00	 6.452598850446081e-01	 1.367949121364282e+01
 1.444053859490896e+00	 6.743496966426952e-01	 1.361002544354195e+01
 1.430192442167345e+00	 7.032699629827381e-01	 1.355462013088113e+01
 1.415702635871404e+00	 7.320007576830144e-01	 1.351974129633951e+01
 1.400587433693733e+00	 7.605221252783948e-01	 1.351224382067985e+01
 1.384850656987160e+00	 7.888141227814599e-01	 1.353936656264880e+01
 1.368496959978442e+00	 8.168568619941075e-01	 1.360872284838408e+01
 1.351531831817010e+00	 8.446305523976381e-01	 1.372828611102467e+01
 1.333961596000180e+00	 8.721155444418152e-01	 1.390637051193897e+01
 1.487661281699082e+00	 5.889515353026149e-01	 1.353720635696932e+01
 1.475647900774554e+00	 6.184361510538003e-01	 1.367678745847727e+01
 1.462999557936658e+00	 6.477903159653114e-01	 1.364842002192283e+01
 1.449716815803705e+00	 6.769942052557227e-01	 1.358220100607317e+01
 1.435801039981207e+00	 7.060278844047462e-01	 1.353028618524886e+01
 1.421254410915799e+00	 7.348713488879874e-01	 1.349907775690816e+01
 1.406079933435749e+00	 7.635045649835898e-01	 1.349537174442630e+01
 1.390281443879582e+00	 7.919075114963423e-01	 1.352635368226592e+01
 1.373863614725924e+00	 8.200602222352084e-01	 1.359958962491488e+01
 1.356831956650282e+00	 8.479428290716119e-01	 1.372301225153429e+01
 1.339192817948000e+00	 8.755356053982561e-01	 1.390490189146821e+01
 1.493472458580452e+00	 5.912521272363621e-01	 1.350623813235071e+01
 1.481412150387353e+00	 6.208519172674809e-01	 1.365710638321663e+01
 1.468714399960845e+00	 6.503207468853829e-01	 1.361577407428407e+01
 1.455379772116964e+00	 6.796387138680900e-01	 1.355261207604696e+01
 1.441409637795619e+00	 7.087858058260963e-01	 1.350398381311848e+01
 1.426806185960812e+00	 7.377419400923338e-01	 1.347622768626353e+01
 1.411572433178421e+00	 7.664870046882211e-01	 1.347608098668102e+01
 1.395712230772668e+00	 7.950009002107532e-01	 1.351067615194057e+01
 1.379230269474048e+00	 8.232635824759605e-01	 1.358753229725298e+01
 1.362132081484143e+00	 8.512551057453904e-01	 1.371454178720829e+01
 1.344424039896325e+00	 8.789556663546864e-01	 1.389995166682607e+01
 1.499283635461801e+00	 5.935527191696199e-01	 1.347569917170484e+01
 1.487176400000318e+00	 6.232676834805864e-01	 1.363753179400280e+01
 1.474429241985355e+00	 6.528511778048220e-01	 1.358157999692959e+01
 1.461042728430674e+00	 6.822832224797979e-01	 1.352128976550244e+01
 1.447018235610581e+00	 7.115437272467887e-01	 1.347574851159126e+01
 1.432357961006444e+00	 7.406125312960544e-01	 1.345123085584849e+01
 1.417064932921751e+00	 7.694694443922883e-01	 1.345441547292865e+01
 1.401143017666420e+00	 7.980942889246924e-01	 1.349238192173617e+01
 1.384596924222816e+00	 8.264669427163642e-01	 1.357260270187555e+01
 1.367432206318594e+00	 8.545673824189737e-01	 1.370293029457761e+01
 1.349655261845156e+00	 8.823757273111060e-01	 1.389157900059001e+01
 1.505094812343129e+00	 5.958533111023879e-01	 1.344554317477617e+01
 1.492940649613448e+00	 6.256834496931164e-01	 1.361261043207842e+01
 1.480144084010187e+00	 6.553816087236289e-01	 1.354586480101743e+01
 1.466705684744835e+00	 6.849277310908459e-01	 1.348826552533974e+01
 1.452626833426091e+00	 7.143016486668234e-01	 1.344561607015902e+01
 1.437909736052693e+00	 7.434831224991492e-01	 1.342412728273230e+01
 1.422557432665738e+00	 7.724518840957914e-01	 1.343041932730635e+01
 1.406573804560838e+00	 8.011876776381598e-01	 1.347151909326998e+01
 1.389963578972226e+00	 8.296703029564186e-01	 1.355485277967823e+01
 1.372732331153635e+00	 8.578796590923621e-01	 1.368823340750806e+01
 1.354886483794492e+00	 8.857957882675153e-01	 1.387984306573009e+01
 1.510905989224438e+00	 5.981539030346663e-01	 1.341572430785989e+01
 1.498704899226743e+00	 6.280992159050709e-01	 1.357314182387033e+01
 1.485858926035341e+00	 6.579120396418038e-01	 1.350865587525789e+01
 1.472368641059446e+00	 6.875722397012342e-01	 1.345357113880334e+01
 1.458235431242151e+00	 7.170595700862002e-01	 1.341362256508160e+01
 1.443461511099561e+00	 7.463537137016176e-01	 1.339495722488724e+01
 1.428049932410381e+00	 7.754343237987306e-01	 1.340413686878314e+01
 1.412004591455921e+00	 8.042810663511559e-01	 1.344813591679864e+01
 1.395330233722280e+00	 8.328736631961249e-01	 1.353433457396749e+01
 1.378032455989265e+00	 8.611919357655554e-01	 1.367050681609826e+01
 1.360117705744333e+00	 8.892158492239139e-01	 1.386480304540887e+01
 1.307805486268661e+00	 8.550152396594510e-01	 1.385941961516604e+01
 1.289993536392186e+00	 8.816591892757598e-01	 1.328721196326731e+01
 1.271603181322287e+00	 9.079821579867418e-01	 1.274869221339423e+01
 1.252643044837173e+00	 9.339655519316756e-01	 1.225087151825600e+01
 1.233122540044957e+00	 9.595910854157564e-01	 1.196896728685316e+01
 1.213051855580902e+00	 9.848408224936506e-01	 1.173805957485660e+01
 1.192441939189963e+00	 1.009697217803762e+00	 1.153047097799049e+01
 1.171304478742993e+00	 1.034143156462176e+00	 1.134696275841037e+01
 1.149651880750912e+00	 1.058161992828915e+00	 1.118805139730118e+01
 1.127497246456672e+00	 1.081737587964323e+00	 1.105400339745754e+01
 1.104854345600000e+00	 1.104854345600000e+00	 1.094483219439698e+01
 1.313036708213954e+00	 8.584353006159450e-01	 1.387624607588480e+01
 1.295153510538482e+00	 8.851858260297635e-01	 1.330111622978643e+01
 1.276689594048649e+00	 9.116140866148424e-01	 1.276006787404284e+01
 1.257653617017774e+00	 9.377014141350201e-01	 1.226020392776109e+01
 1.238055030206403e+00	 9.634294497527136e-01	 1.192799079577514e+01
 1.217904063004340e+00	 9.887801857788088e-01	 1.170247578746150e+01
 1.197211706947519e+00	 1.013736006670265e+00	 1.150158150409697e+01
 1.175989696658275e+00	 1.038279729083631e+00	 1.132609951077161e+01
 1.154250488273572e+00	 1.062394640796369e+00	 1.117657111715140e+01
 1.132007235441336e+00	 1.086064538313068e+00	 1.105328201433759e+01
 1.109273762980250e+00	 1.109273762980250e+00	 1.095625905773357e+01
 1.318267930159753e+00	 8.618553615724284e-01	 1.388929528276368e+01
 1.300313484685193e+00	 8.887124627839414e-01	 1.331127526415543e+01
 1.281776006775354e+00	 9.152460152432740e-01	 1.276771737106155e+01
 1.262664189198669e+00	 9.414372763388218e-01	 1.226581651915886e+01
 1.242987520368112e+00	 9.672678140902248e-01	 1.188315203465520e+01
 1.222756270428031e+00	 9.927195490645876e-01	 1.166305589852911e+01
 1.201981474705336e+00	 1.017774795537424e+00	 1.146889093423060e+01
 1.180674914573848e+00	 1.042416301705748e+00	 1.130147902224910e+01
 1.158849095796573e+00	 1.066627288764463e+00	 1.116138627414588e+01
 1.136517224426409e+00	 1.090391488662397e+00	 1.104891750338268e+01
 1.113693180361000e+00	 1.113693180361000e+00	 1.096411287990606e+01
 1.323499152106056e+00	 8.652754225289011e-01	 1.389862634325039e+01
 1.305473458832319e+00	 8.922390995382944e-01	 1.331774773526799e+01
 1.286862419502405e+00	 9.188779438720364e-01	 1.277169879780586e+01
 1.267674761379857e+00	 9.451731385430812e-01	 1.226776667497939e+01
 1.247920010530085e+00	 9.711061784282898e-01	 1.183443022164653e+01
 1.227608477851973e+00	 9.966589123509875e-01	 1.161977815551285e+01
 1.206751242463414e+00	 1.021813584405241e+00	 1.143237659696469e+01
 1.185360132489711e+00	 1.046552874328530e+00	 1.127307775649042e+01
 1.163447703319914e+00	 1.070859936733196e+00	 1.114247252290144e+01
 1.141027213411893e+00	 1.094718439012311e+00	 1.104088476780915e+01
 1.118112597742250e+00	 1.118112597742250e+00	 1.096836787188559e+01
 1.328730374052866e+00	 8.686954834853633e-01	 1.390429837625772e+01
 1.310633432979860e+00	 8.957657362928220e-01	 1.332059233669505e+01
 1.291948832229799e+00	 9.225098725011295e-01	 1.277207028536780e+01
 1.272685333561339e+00	 9.489090007477977e-01	 1.226611182837008e+01
 1.252852500692320e+00	 9.749445427669090e-01	 1.181046560175918e+01
 1.232460685276167e+00	 1.000598275638008e+00	 1.157262088160739e+01
 1.211521010221754e+00	 1.025852373273715e+00	 1.139201590880647e+01
 1.190045350405866e+00	 1.050689446951974e+00	 1.124087227699205e+01
 1.168046310843596e+00	 1.075092584702569e+00	 1.111980562949631e+01
 1.145537202397786e+00	 1.099045389362810e+00	 1.102915883358324e+01
 1.122532015124000e+00	 1.122532015124000e+00	 1.096899837833425e+01
 1.333961596000180e+00	 8.721155444418152e-01	 1.390637051193897e+01
 1.315793407127817e+00	 8.992923730475251e-01	 1.331986778620098e+01
 1.297035244957538e+00	 9.261418011305536e-01	 1.276889000183600e+01
 1.277695905743115e+00	 9.526448629529717e-01	 1.226090946210308e+01
 1.257784990854818e+00	 9.787829071060822e-01	 1.180377486514428e+01
 1.237312892700614e+00	 1.004537638925649e+00	 1.152156247426240e+01
 1.216290777980355e+00	 1.029891162142846e+00	 1.134778637247277e+01
 1.194730568322311e+00	 1.054826019576082e+00	 1.120483924514109e+01
 1.172644918367617e+00	 1.079325232672581e+00	 1.109336146928467e+01
 1.150047191384090e+00	 1.103372339713894e+00	 1.101371484701321e+01
 1.126951432506250e+00	 1.126951432506250e+00	 1.096597887498322e+01
 1.339192817948000e+00	 8.755356053982561e-01	 1.390490189146821e+01
 1.320953381276188e+00	 9.028190098024018e-01	 1.331563282527108e+01
 1.302121657685622e+00	 9.297737297603085e-01	 1.276221615157320e+01
 1.282706477925184e+00	 9.563807251586027e-01	 1.225221710760609e+01
 1.262717481017578e+00	 9.826212714458091e-01	 1.179358479761900e+01
 1.242165100125312e+00	 1.008477002213910e+00	 1.146658140373351e+01
 1.221060545739217e+00	 1.033929951012634e+00	 1.129966557520603e+01
 1.199415786239046e+00	 1.058962592200853e+00	 1.116495541830328e+01
 1.177243525891979e+00	 1.083557880643232e+00	 1.106311602476211e+01
 1.154557180370804e+00	 1.107699290065562e+00	 1.099452807240017e+01
 1.131370849889000e+00	 1.131370849889000e+00	 1.095928396607340e+01
 1.344424039896325e+00	 8.789556663546864e-01	 1.389995166682607e+01
 1.326113355424975e+00	 9.063456465574543e-01	 1.330794621865017e+01
 1.307208070414051e+00	 9.334056583903945e-01	 1.275210697451057e+01
 1.287717050107547e+00	 9.601165873646914e-01	 1.224009234401556e+01
 1.267649971180602e+00	 9.864596357860904e-01	 1.177995218378232e+01
 1.247017307550263e+00	 1.012416365502792e+00	 1.140765621166486e+01
 1.225830313498341e+00	 1.037968739883080e+00	 1.124763118713044e+01
 1.204101004156072e+00	 1.063099164826288e+00	 1.112119764795613e+01
 1.181842133416682e+00	 1.087790528614522e+00	 1.102904538348178e+01
 1.159067169357928e+00	 1.112026240417816e+00	 1.097157388974164e+01
 1.135790267272250e+00	 1.135790267272250e+00	 1.094888838185475e+01
 1.349655261845156e+00	 8.823757273111060e-01	 1.389157900059001e+01
 1.331273329574176e+00	 9.098722833126813e-01	 1.329686675389157e+01
 1.312294483142824e+00	 9.370375870208112e-01	 1.273862074545816e+01
 1.292727622290204e+00	 9.638524495712373e-01	 1.222459279725236e+01
 1.272582461343888e+00	 9.902980001269256e-01	 1.176293386673375e+01
 1.251869514975465e+00	 1.016355728792296e+00	 1.136215767832660e+01
 1.230600081257725e+00	 1.042007528754182e+00	 1.119166095964503e+01
 1.208786222073389e+00	 1.067235737452386e+00	 1.107354287786467e+01
 1.186440740941724e+00	 1.092023176586452e+00	 1.099112573601749e+01
 1.163577158345462e+00	 1.116353190770654e+00	 1.094482779248964e+01
 1.140209684656000e+00	 1.140209684656000e+00	 1.093476697614449e+01
 1.354886483794492e+00	 8.857957882675153e-01	 1.387984306573009e+01
 1.336433303723793e+00	 9.133989200680831e-01	 1.328245324091719e+01
 1.317380895871940e+00	 9.406695156515589e-01	 1.272181577343198e+01
 1.297738194473155e+00	 9.675883117782405e-01	 1.220577613911848e+01
 1.277514951507438e+00	 9.941363644683148e-01	 1.174258674694460e+01
 1.256721722400919e+00	 1.020295092082419e+00	 1.134087016087143e+01
 1.235369849017371e+00	 1.046046317625942e+00	 1.113173272385493e+01
 1.213471439990996e+00	 1.071372310079148e+00	 1.102196814230001e+01
 1.191039348467107e+00	 1.096255824559021e+00	 1.094933337397567e+01
 1.168087147333406e+00	 1.120680141124077e+00	 1.091426538536032e+01
 1.144629102040250e+00	 1.144629102040250e+00	 1.091689472394142e+01
 1.360117705744333e+00	 8.892158492239139e-01	 1.386480304540887e+01
 1.341593277873824e+00	 9.169255568236596e-01	 1.326476451158688e+01
 1.322467308601402e+00	 9.443014442826372e-01	 1.270175040099569e+01
 1.302748766656399e+00	 9.713241739857011e-01	 1.218370008641463e+01
 1.282447441671250e+00	 9.979747288102582e-01	 1.171896778115410e+01
 1.261573929826626e+00	 1.024234455373163e+00	 1.131628535045800e+01
 1.240139616777278e+00	 1.050085106498359e+00	 1.106782438903892e+01
 1.218156657908895e+00	 1.075508882706573e+00	 1.096645056429869e+01
 1.195637955992831e+00	 1.100488472532229e+00	 1.090364468805220e+01
 1.172597136321760e+00	 1.125007091478085e+00	 1.087986238219453e+01
 1.149048519425000e+00	 1.149048519425000e+00	 1.089524671909599e+01
 1.104854345600000e+00	 1.104854345600000e+00	 1.094483219439698e+01
 1.081737587964323e+00	 1.127497246456672e+00	 1.054869281268151e+01
 1.058161992828914e+00	 1.149651880750912e+00	 1.031818443902243e+01
 1.034143156462176e+00	 1.171304478742993e+00	 1.025726537041704e+01
 1.009697217803762e+00	 1.192441939189963e+00	 1.036910973723882e+01
 9.848408224936508e-01	 1.213051855580902e+00	 1.065609919757307e+01
 9.595910854157568e-01	 1.233122540044956e+00	 1.111981962683970e+01
 9.339655519316764e-01	 1.252643044837173e+00	 1.148883227661859e+01
 9.079821579867426e-01	 1.271603181322287e+00	 1.027234321969175e+01
 8.816591892757607e-01	 1.289993536392186e+00	 9.151593287744758e+00
 8.550152396594510e-01	 1.307805486268661e+00	 8.133682035328526e+00
 1.109273762980250e+00	 1.109273762980250e+00	 1.095625905773357e+01
 1.086064538313068e+00	 1.132007235441336e+00	 1.059129217330574e+01
 1.062394640796369e+00	 1.154250488273572e+00	 1.039579531451283e+01
 1.038279729083631e+00	 1.175989696658275e+00	 1.037383196235130e+01
 1.013736006670265e+00	 1.197211706947519e+00	 1.052866427677720e+01
 9.887801857788093e-01	 1.217904063004340e+00	 1.086274445150084e+01
 9.634294497527139e-01	 1.238055030206403e+00	 1.137771116823868e+01
 9.377014141350207e-01	 1.257653617017774e+00	 1.129043669269316e+01
 9.116140866148432e-01	 1.276689594048648e+00	 1.011647393419683e+01
 8.851858260297641e-01	 1.295153510538482e+00	 9.040843979132926e+00
 8.584353006159450e-01	 1.313036708213954e+00	 8.070746669831903e+00
 1.113693180361000e+00	 1.113693180361000e+00	 1.096411287990606e+01
 1.090391488662397e+00	 1.136517224426409e+00	 1.063074219547405e+01
 1.066627288764463e+00	 1.158849095796573e+00	 1.047066980126268e+01
 1.042416301705748e+00	 1.180674914573848e+00	 1.048806353117148e+01
 1.017774795537425e+00	 1.201981474705336e+00	 1.068627275864742e+01
 9.927195490645879e-01	 1.222756270428030e+00	 1.106781941509012e+01
 9.672678140902250e-01	 1.242987520368112e+00	 1.163439421186812e+01
 9.414372763388225e-01	 1.262664189198668e+00	 1.109691764645082e+01
 9.152460152432748e-01	 1.281776006775354e+00	 9.965655864473806e+00
 8.887124627839423e-01	 1.300313484685192e+00	 8.935289352300625e+00
 8.618553615724286e-01	 1.318267930159753e+00	 8.013118677514129e+00
 1.118112597742250e+00	 1.118112597742250e+00	 1.096836787188559e+01
 1.094718439012311e+00	 1.141027213411893e+00	 1.066701236617506e+01
 1.070859936733196e+00	 1.163447703319914e+00	 1.054277295003450e+01
 1.046552874328529e+00	 1.185360132489711e+00	 1.059992098726393e+01
 1.021813584405241e+00	 1.206751242463414e+00	 1.084189225596288e+01
 9.966589123509875e-01	 1.227608477851972e+00	 1.127127763367356e+01
 9.711061784282905e-01	 1.247920010530085e+00	 1.188981909027909e+01
 9.451731385430816e-01	 1.267674761379856e+00	 1.090825875826674e+01
 9.188779438720368e-01	 1.286862419502404e+00	 9.819869044328954e+00
 8.922390995382953e-01	 1.305473458832319e+00	 8.834906123547551e+00
 8.652754225289012e-01	 1.323499152106057e+00	 7.960771733234235e+00
 1.122532015124000e+00	 1.122532015124000e+00	 1.096899837833425e+01
 1.099045389362810e+00	 1.145537202397787e+00	 1.070007238110574e+01
 1.075092584702569e+00	 1.168046310843595e+00	 1.061207009136556e+01
 1.050689446951974e+00	 1.190045350405865e+00	 1.070936558777325e+01
 1.025852373273715e+00	 1.211521010221754e+00	 1.099548025137072e+01
 1.000598275638008e+00	 1.232460685276167e+00	 1.147307312057603e+01
 9.749445427669094e-01	 1.252852500692319e+00	 1.186789580887939e+01
 9.489090007477980e-01	 1.272685333561338e+00	 1.072444422008508e+01
 9.225098725011300e-01	 1.291948832229799e+00	 9.679094124091993e+00
 8.957657362928233e-01	 1.310633432979860e+00	 8.739671666006346e+00
 8.686954834853634e-01	 1.328730374052866e+00	 7.913680204295879e+00
 1.126951432506250e+00	 1.126951432506250e+00	 1.096597887498322e+01
 1.103372339713894e+00	 1.150047191384090e+00	 1.072989214057806e+01
 1.079325232672581e+00	 1.172644918367618e+00	 1.067852683008176e+01
 1.054826019576082e+00	 1.194730568322310e+00	 1.081635892980046e+01
 1.029891162142846e+00	 1.216290777980355e+00	 1.114699462902147e+01
 1.004537638925649e+00	 1.237312892700614e+00	 1.167316034793714e+01
 9.787829071060827e-01	 1.257784990854817e+00	 1.164806413588022e+01
 9.526448629529723e-01	 1.277695905743114e+00	 1.054545878421190e+01
 9.261418011305544e-01	 1.297035244957538e+00	 9.543312358527388e+00
 8.992923730475255e-01	 1.315793407127816e+00	 8.649563996763145e+00
 8.721155444418150e-01	 1.333961596000181e+00	 7.871819136871201e+00
 1.131370849889000e+00	 1.131370849889000e+00	 1.095928396607340e+01
 1.107699290065562e+00	 1.154557180370804e+00	 1.075644174552396e+01
 1.083557880643232e+00	 1.177243525891979e+00	 1.074210903994026e+01
 1.058962592200854e+00	 1.199415786239046e+00	 1.092086294376589e+01
 1.033929951012635e+00	 1.221060545739217e+00	 1.129639366672639e+01
 1.008477002213911e+00	 1.242165100125312e+00	 1.187149423775134e+01
 9.826212714458099e-01	 1.262717481017578e+00	 1.143285572240910e+01
 9.563807251586035e-01	 1.282706477925184e+00	 1.037128775236976e+01
 9.297737297603094e-01	 1.302121657685622e+00	 9.412505595028536e+00
 9.028190098024031e-01	 1.320953381276187e+00	 8.564561764280413e+00
 8.755356053982560e-01	 1.339192817948000e+00	 7.835164242740638e+00
 1.135790267272250e+00	 1.135790267272250e+00	 1.094888838185475e+01
 1.112026240417816e+00	 1.159067169357928e+00	 1.077969149359151e+01
 1.087790528614522e+00	 1.181842133416682e+00	 1.080278285839814e+01
 1.063099164826289e+00	 1.204101004156072e+00	 1.102283988692292e+01
 1.037968739883080e+00	 1.225830313498340e+00	 1.144363602829993e+01
 1.012416365502793e+00	 1.247017307550262e+00	 1.206803015311539e+01
 9.864596357860909e-01	 1.267649971180602e+00	 1.122226006442760e+01
 9.601165873646920e-01	 1.287717050107547e+00	 1.020191696500960e+01
 9.334056583903951e-01	 1.307208070414050e+00	 9.286656262088535e+00
 9.063456465574551e-01	 1.326113355424974e+00	 8.484644236112672e+00
 8.789556663546864e-01	 1.344424039896325e+00	 7.803691886344469e+00
 1.140209684656000e+00	 1.140209684656000e+00	 1.093476697614449e+01
 1.116353190770654e+00	 1.163577158345462e+00	 1.079961187533208e+01
 1.092023176586452e+00	 1.186440740941724e+00	 1.086051468150083e+01
 1.067235737452387e+00	 1.208786222073389e+00	 1.112225233702364e+01
 1.042007528754183e+00	 1.230600081257725e+00	 1.158868075607798e+01
 1.016355728792296e+00	 1.251869514975465e+00	 1.209395391026398e+01
 9.902980001269259e-01	 1.272582461343888e+00	 1.101626714039997e+01
 9.638524495712381e-01	 1.292727622290204e+00	 1.003733279086963e+01
 9.370375870208120e-01	 1.312294483142823e+00	 9.165747358037882e+00
 9.098722833126820e-01	 1.331273329574175e+00	 8.409791286910474e+00
 8.823757273111060e-01	 1.349655261845156e+00	 7.777379072133192e+00
 1.144629102040250e+00	 1.144629102040250e+00	 1.091689472394142e+01
 1.120680141124077e+00	 1.168087147333406e+00	 1.081617357047736e+01
 1.096255824559021e+00	 1.191039348467107e+00	 1.091527115889096e+01
 1.071372310079148e+00	 1.213471439990996e+00	 1.121906318613306e+01
 1.046046317625942e+00	 1.235369849017371e+00	 1.173148726361140e+01
 1.020295092082419e+00	 1.256721722400919e+00	 1.185307729340466e+01
 9.941363644683151e-01	 1.277514951507437e+00	 1.081486740197858e+01
 9.675883117782412e-01	 1.297738194473155e+00	 9.877522116777170e+00
 9.406695156515595e-01	 1.317380895871940e+00	 9.049762440044628e+00
 9.133989200680839e-01	 1.336433303723792e+00	 8.339983386697837e+00
 8.857957882675153e-01	 1.354886483794492e+00	 7.756203432213163e+00
 1.149048519425000e+00	 1.149048519425000e+00	 1.089524671909599e+01
 1.125007091478085e+00	 1.172597136321760e+00	 1.082934744430057e+01
 1.100488472532229e+00	 1.195637955992831e+00	 1.096701918893093e+01
 1.075508882706574e+00	 1.218156657908895e+00	 1.131323563458324e+01
 1.050085106498359e+00	 1.240139616777278e+00	 1.187201532852669e+01
 1.024234455373164e+00	 1.261573929826626e+00	 1.161657805807941e+01
 9.979747288102585e-01	 1.282447441671249e+00	 1.061805176490445e+01
 9.713241739857018e-01	 1.302748766656399e+00	 9.722472337684971e+00
 9.443014442826381e-01	 1.322467308601402e+00	 8.938685613366992e+00
 9.169255568236604e-01	 1.341593277873824e+00	 8.275201589424876e+00
 8.892158492239141e-01	 1.360117705744333e+00	 7.740143214275351e+00
 8.550152396594510e-01	 1.307805486268661e+00	 8.133682035328526e+00
 8.280691690248430e-01	 1.325031207659498e+00	 7.908580881280020e+00
 8.008400607833711e-01	 1.341663686250679e+00	 7.667050078196281e+00
 7.733471791999724e-01	 1.357696722535032e+00	 7.412263278170739e+00
 7.456099267439587e-01	 1.373124934993508e+00	 7.147439750739997e+00
 7.176478016487625e-01	 1.387943760658700e+00	 6.875813026997890e+00
 6.894803558628312e-01	 1.402149453106268e+00	 6.600600365483836e+00
 6.611271535676625e-01	 1.415739077933607e+00	 6.324973324363735e+00
 6.326077304316082e-01	 1.428710505798304e+00	 6.052029701978434e+00
 6.039415537596338e-01	 1.441062403101226e+00	 5.681227903250721e+00
 5.751479836898462e-01	 1.452794220410432e+00	 5.257113080455297e+00
 8.584353006159450e-01	 1.313036708213954e+00	 8.070746669831903e+00
 8.313814456997922e-01	 1.330331332489821e+00	 7.879541499803000e+00
 8.040434210262158e-01	 1.347030340994946e+00	 7.666805242283238e+00
 7.764405679172129e-01	 1.363127509424127e+00	 7.435625717040151e+00
 7.485923664519737e-01	 1.378617434732239e+00	 7.189157149125602e+00
 7.205183928568650e-01	 1.393495535700005e+00	 6.930588487042190e+00
 6.922382772881284e-01	 1.407758050917385e+00	 6.663112446925654e+00
 6.637716621839886e-01	 1.421402034244164e+00	 6.389895573563346e+00
 6.351381613554726e-01	 1.434425347820557e+00	 6.114049587101801e+00
 6.063573199767668e-01	 1.446826652713035e+00	 5.748533227266796e+00
 5.774485756265320e-01	 1.458605397291925e+00	 5.314402465131083e+00
 8.618553615724286e-01	 1.318267930159753e+00	 8.013118677514129e+00
 8.346937223745464e-01	 1.335631457320734e+00	 7.855163356551385e+00
 8.072467812687117e-01	 1.352396995739855e+00	 7.670610356588246e+00
 7.795339566339824e-01	 1.368558296313887e+00	 7.462463106988794e+00
 7.515748061594252e-01	 1.384109934471627e+00	 7.233812122085538e+00
 7.233889840643415e-01	 1.399047310741927e+00	 6.987802988373920e+00
 6.949961987127676e-01	 1.413366648729051e+00	 6.727604982633737e+00
 6.664161707996552e-01	 1.427064990555171e+00	 6.456380618111996e+00
 6.376685922787050e-01	 1.440140189843133e+00	 6.177256394421674e+00
 6.087730861933243e-01	 1.452590902325008e+00	 5.816246204670236e+00
 5.797491675627279e-01	 1.464416574173397e+00	 5.371733826822238e+00
 8.652754225289012e-01	 1.323499152106057e+00	 7.960771733234235e+00
 8.380059990491054e-01	 1.340931582152236e+00	 7.835426006438941e+00
 8.104501415108589e-01	 1.357763650485408e+00	 7.678450378969327e+00
 7.826273453502798e-01	 1.373989083204313e+00	 7.492765327210568e+00
 7.545572458663122e-01	 1.389602434211672e+00	 7.281398985302074e+00
 7.262595752711919e-01	 1.404599085784468e+00	 7.047454796325550e+00
 6.977541201367492e-01	 1.418975246541267e+00	 6.794079699984783e+00
 6.690606794146621e-01	 1.432727946866629e+00	 6.524433160256329e+00
 6.401990232013050e-01	 1.445855031866030e+00	 6.241657315477500e+00
 6.111888524093066e-01	 1.458355151937147e+00	 5.884391098421990e+00
 5.820497594984342e-01	 1.470227751054849e+00	 5.429131672776093e+00
 8.686954834853634e-01	 1.328730374052866e+00	 7.913680204295879e+00
 8.413182757234693e-01	 1.346231706984328e+00	 7.820309591650835e+00
 8.136535017526578e-01	 1.363130305231604e+00	 7.690310756668968e+00
 7.857207340661055e-01	 1.379419870095404e+00	 7.526522655809808e+00
 7.575396855726354e-01	 1.395094933952374e+00	 7.331912370420236e+00
 7.291301664774165e-01	 1.410150860827627e+00	 7.109542416860245e+00
 7.005120415600727e-01	 1.424583844354030e+00	 6.862538499340769e+00
 6.717051880290086e-01	 1.438390903178536e+00	 6.594058015318141e+00
 6.427294541232730e-01	 1.451569873889250e+00	 6.307259602743089e+00
 6.136046186247135e-01	 1.464119401549450e+00	 5.952992188054347e+00
 5.843503514336509e-01	 1.476038927936281e+00	 5.486620490214789e+00
 8.721155444418150e-01	 1.333961596000181e+00	 7.871819136871201e+00
 8.446305523976381e-01	 1.351531831817011e+00	 7.809794830130507e+00
 8.168568619941073e-01	 1.368496959978442e+00	 7.706177416717416e+00
 7.888141227814599e-01	 1.384850656987160e+00	 7.563725761979525e+00
 7.605221252783949e-01	 1.400587433693733e+00	 7.385347218852093e+00
 7.320007576830150e-01	 1.415702635871404e+00	 7.174064591853179e+00
 7.032699629827385e-01	 1.430192442167344e+00	 6.932983450656722e+00
 6.743496966426958e-01	 1.444053859490895e+00	 6.665260109480077e+00
 6.452598850446088e-01	 1.457284715912793e+00	 6.374070568432439e+00
 6.160203848395449e-01	 1.469883651161920e+00	 6.022073769344560e+00
 5.866509433683776e-01	 1.481850104817692e+00	 5.544224746728166e+00
 8.755356053982560e-01	 1.339192817948000e+00	 7.835164242740638e+00
 8.479428290716118e-01	 1.356831956650282e+00	 7.803863004333437e+00
 8.200602222352082e-01	 1.373863614725924e+00	 7.726036756563047e+00
 7.919075114963425e-01	 1.390281443879582e+00	 7.604365698362871e+00
 7.635045649835900e-01	 1.406079933435748e+00	 7.441698775726596e+00
 7.348713488879877e-01	 1.421254410915799e+00	 7.241020294484406e+00
 7.060278844047467e-01	 1.435801039981207e+00	 7.005416790168495e+00
 6.769942052557231e-01	 1.449716815803704e+00	 6.738044477617619e+00
 6.477903159653122e-01	 1.462999557936657e+00	 6.442097583332442e+00
 6.184361510538011e-01	 1.475647900774554e+00	 6.091660153998359e+00
 5.889515353026147e-01	 1.487661281699082e+00	 5.601968890657919e+00
 8.789556663546864e-01	 1.344424039896325e+00	 7.803691886344469e+00
 8.512551057453903e-01	 1.362132081484143e+00	 7.802495950245135e+00
 8.232635824759605e-01	 1.379230269474048e+00	 7.749875634918558e+00
 7.950009002107533e-01	 1.395712230772668e+00	 7.648433893592962e+00
 7.664870046882212e-01	 1.411572433178421e+00	 7.500962583980366e+00
 7.377419400923343e-01	 1.426806185960812e+00	 7.310408724738185e+00
 7.087858058260970e-01	 1.441409637795619e+00	 7.079840917158264e+00
 6.796387138680906e-01	 1.455379772116964e+00	 6.812416261186574e+00
 6.503207468853838e-01	 1.468714399960845e+00	 6.511348075663211e+00
 6.208519172674818e-01	 1.481412150387353e+00	 6.161775669339093e+00
 5.912521272363623e-01	 1.493472458580452e+00	 5.659877351470669e+00
 8.823757273111060e-01	 1.349655261845156e+00	 7.777379072133192e+00
 8.545673824189736e-01	 1.367432206318594e+00	 7.805676046652446e+00
 8.264669427163641e-01	 1.384596924222816e+00	 7.777681362823955e+00
 7.980942889246926e-01	 1.401143017666420e+00	 7.695922145006055e+00
 7.694694443922886e-01	 1.417064932921751e+00	 7.563134478587241e+00
 7.406125312960549e-01	 1.432357961006443e+00	 7.382229305008411e+00
 7.115437272467893e-01	 1.447018235610580e+00	 7.156258390793981e+00
 6.822832224797986e-01	 1.461042728430674e+00	 6.888380706155749e+00
 6.528511778048227e-01	 1.474429241985354e+00	 6.581829529966033e+00
 6.232676834805871e-01	 1.487176400000318e+00	 6.232444658006939e+00
 5.935527191696199e-01	 1.499283635461801e+00	 5.717974540125093e+00
 8.857957882675153e-01	 1.354886483794492e+00	 7.756203432213163e+00
 8.578796590923619e-01	 1.372732331153635e+00	 7.813386204666291e+00
 8.296703029564185e-01	 1.389963578972226e+00	 7.809441694912349e+00
 8.011876776381598e-01	 1.406573804560837e+00	 7.746822611524443e+00
 7.724518840957916e-01	 1.422557432665737e+00	 7.628210580919122e+00
 7.434831224991493e-01	 1.437909736052693e+00	 7.456481675804034e+00
 7.143016486668240e-01	 1.452626833426091e+00	 7.234671927043118e+00
 6.849277310908466e-01	 1.466705684744835e+00	 6.965943160990804e+00
 6.553816087236299e-01	 1.480144084010187e+00	 6.653549486014711e+00
 6.256834496931172e-01	 1.492940649613448e+00	 6.300804730068789e+00
 5.958533111023879e-01	 1.505094812343129e+00	 5.776284849428417e+00
 8.892158492239141e-01	 1.360117705744333e+00	 7.740143214275351e+00
 8.611919357655553e-01	 1.378032455989265e+00	 7.825609857484014e+00
 8.328736631961249e-01	 1.395330233722280e+00	 7.845144820880147e+00
 8.042810663511559e-01	 1.412004591455920e+00	 7.801127806702523e+00
 7.754343237987309e-01	 1.428049932410381e+00	 7.696187293239348e+00
 7.463537137016183e-01	 1.443461511099561e+00	 7.533165691554952e+00
 7.170595700862009e-01	 1.458235431242151e+00	 7.315084395657513e+00
 6.875722397012348e-01	 1.472368641059446e+00	 7.045109074682836e+00
 6.579120396418046e-01	 1.485858926035341e+00	 6.726515537754585e+00
 6.280992159050719e-01	 1.498704899226743e+00	 6.362656480654053e+00
 5.981539030346663e-01	 1.510905989224438e+00	 5.834832654385831e+00
 5.751479836898462e-01	 1.452794220410432e+00	 5.257113080455297e+00
 5.462462355775531e-01	 1.463906178731671e+00	 4.966655999012724e+00
 5.172553436961776e-01	 1.474399253743126e+00	 4.668454149019793e+00
 4.881941263733983e-01	 1.484275158116687e+00	 4.368693563162518e+00
 4.590811526691558e-01	 1.493536322054853e+00	 4.072957712903633e+00
 4.299347106891563e-01	 1.502185872181363e+00	 3.786197815818102e+00
 4.007727776155301e-01	 1.510227608925401e+00	 3.512709967005692e+00
 3.716129915236462e-01	 1.517665982543151e+00	 3.256119020804327e+00
 3.424726250415698e-01	 1.524506067922538e+00	 3.019369077457702e+00
 3.133685608962740e-01	 1.530753538317988e+00	 2.804720363556982e+00
 2.843172693785931e-01	 1.536414638161893e+00	 2.613752235569475e+00
 5.774485756265320e-01	 1.458605397291925e+00	 5.314402465131083e+00
 5.484312205215922e-01	 1.469761803446910e+00	 5.015857067058185e+00
 5.193243650725585e-01	 1.480296850758795e+00	 4.710772272360233e+00
 4.901469028804192e-01	 1.490212258750159e+00	 4.405421463573395e+00
 4.609174772813538e-01	 1.499510467344311e+00	 4.105463684194921e+00
 4.316544495334906e-01	 1.508194615671486e+00	 3.815913684554468e+00
 4.023758687276873e-01	 1.516268519362587e+00	 3.541118892280443e+00
 3.730994434916134e-01	 1.523736646474820e+00	 3.284743231284622e+00
 3.438425155438454e-01	 1.530604092195668e+00	 3.049757640703726e+00
 3.146220351422631e-01	 1.536876552472572e+00	 2.838437078542581e+00
 2.854545384588631e-01	 1.542560296715657e+00	 2.652363734516046e+00
 5.797491675627279e-01	 1.464416574173397e+00	 5.371733826822238e+00
 5.506162054652365e-01	 1.475617428161945e+00	 5.064878834619275e+00
 5.213933864486286e-01	 1.486194447774108e+00	 4.752693676019286e+00
 4.920996793872032e-01	 1.496149359383153e+00	 4.441540576262446e+00
 4.627538018933788e-01	 1.505484612633201e+00	 4.137155552394863e+00
 4.333741883777052e-01	 1.514203359160981e+00	 3.844618192417131e+00
 4.039789598397683e-01	 1.522309429799113e+00	 3.568328460446264e+00
 3.745858954595381e-01	 1.529807310405832e+00	 3.311990449524496e+00
 3.452124060461023e-01	 1.536702116468168e+00	 3.078602930269134e+00
 3.158755093882477e-01	 1.542999566626585e+00	 2.870456476027328e+00
 2.865918075391333e-01	 1.548705955268936e+00	 2.689136884181081e+00
 5.820497594984342e-01	 1.470227751054849e+00	 5.429131672776093e+00
 5.528011904084855e-01	 1.481473052876775e+00	 5.113744495927594e+00
 5.234624078243881e-01	 1.492092044789063e+00	 4.794240374678016e+00
 4.940524558937505e-01	 1.502086460015668e+00	 4.477071874782350e+00
 4.645901265052305e-01	 1.511458757921521e+00	 4.168053392682943e+00
 4.350939272218002e-01	 1.520212102649847e+00	 3.872330662662922e+00
 4.055820509517730e-01	 1.528350340234982e+00	 3.594357392348187e+00
 3.760723474274201e-01	 1.535877974336185e+00	 3.337878945882505e+00
 3.465822965483402e-01	 1.542800140740040e+00	 3.105922919730317e+00
 3.171289836342275e-01	 1.549122580780026e+00	 2.900796387655809e+00
 2.877290766194034e-01	 1.554851613821729e+00	 2.724089529652362e+00
 5.843503514336509e-01	 1.476038927936281e+00	 5.486620490214789e+00
 5.549861753513398e-01	 1.487328677591400e+00	 5.162477213955711e+00
 5.255314291998369e-01	 1.497989641803661e+00	 4.835434339385582e+00
 4.960052324000611e-01	 1.508023560647705e+00	 4.512036275577188e+00
 4.664264511169090e-01	 1.517432903209274e+00	 4.198177208585733e+00
 4.368136660657755e-01	 1.526220846138085e+00	 3.899070331328603e+00
 4.071851420637017e-01	 1.534391250670192e+00	 3.619224305058522e+00
 3.775587993952594e-01	 1.541948638265880e+00	 3.362426869452741e+00
 3.479521870505594e-01	 1.548898165011282e+00	 3.131735443011199e+00
 3.183824578802027e-01	 1.555245594932896e+00	 2.929474486182537e+00
 2.888663456996736e-01	 1.560997272374037e+00	 2.757239337087322e+00
 5.866509433683776e-01	 1.481850104817692e+00	 5.544224746728166e+00
 5.571711602937991e-01	 1.493184302305821e+00	 5.211100121032801e+00
 5.276004505749751e-01	 1.503887238817903e+00	 4.876297498415981e+00
 4.979580089061347e-01	 1.513960661279264e+00	 4.546454639101351e+00
 4.682627757284144e-01	 1.523407048496457e+00	 4.227546933382438e+00
 4.385334049096312e-01	 1.532229589625694e+00	 3.924856348939388e+00
 4.087882331755541e-01	 1.540432161104744e+00	 3.642947713911110e+00
 3.790452513630562e-01	 1.548019302194916e+00	 3.385652250441809e+00
 3.493220775527597e-01	 1.554996189281895e+00	 3.156058197122205e+00
 3.196359321261731e-01	 1.561368609085195e+00	 2.956508288588075e+00
 2.900036147799436e-01	 1.567142930925859e+00	 2.788603797221016e+00
 5.889515353026147e-01	 1.487661281699082e+00	 5.601968890657919e+00
 5.593561452358632e-01	 1.499039927020037e+00	 5.259636319441841e+00
 5.296694719498021e-01	 1.509784835831786e+00	 4.916851738103222e+00
 4.999107854119714e-01	 1.519897761910345e+00	 4.580347770913614e+00
 4.700991003397467e-01	 1.529381193783072e+00	 4.256182431476619e+00
 4.402531437533670e-01	 1.538238333112675e+00	 3.949707782179651e+00
 4.103913242873304e-01	 1.546473071538638e+00	 3.665546034487768e+00
 3.805317033308102e-01	 1.554089966123294e+00	 3.407573002490937e+00
 3.506919680549410e-01	 1.561094213551879e+00	 3.178908744832475e+00
 3.208894063721390e-01	 1.567491623236923e+00	 2.981915159120520e+00
 2.911408838602137e-01	 1.573288589477196e+00	 2.818200228791834e+00
 5.912521272363623e-01	 1.493472458580452e+00	 5.659877351470669e+00
 5.615411301775322e-01	 1.504895551734049e+00	 5.308108882004236e+00
 5.317384933243187e-01	 1.515682432845313e+00	 4.957118903657106e+00
 5.018635619175714e-01	 1.525834862540947e+00	 4.613736422745522e+00
 4.719354249509057e-01	 1.535355339069118e+00	 4.284103499736657e+00
 4.419728825969835e-01	 1.544247076599027e+00	 3.973643615523680e+00
 4.119944153990303e-01	 1.552513981971874e+00	 3.687037584560285e+00
 3.820181552985216e-01	 1.560160630051014e+00	 3.428206924942979e+00
 3.520618585571035e-01	 1.567192237821233e+00	 3.200304517283821e+00
 3.221428806181000e-01	 1.573614637388079e+00	 3.005712312268326e+00
 2.922781529404839e-01	 1.579434248028048e+00	 2.846045781888651e+00
 5.935527191696199e-01	 1.499283635461801e+00	 5.717974540125093e+00
 5.637261151188064e-01	 1.510751176447856e+00	 5.356540852651006e+00
 5.338075146985244e-01	 1.521580029858483e+00	 4.997120799960268e+00
 5.038163384229346e-01	 1.531771963171071e+00	 4.646641293543466e+00
 4.737717495618916e-01	 1.541329484354596e+00	 4.311329868802694e+00
 4.436926214404802e-01	 1.550255820084750e+00	 3.996682752829913e+00
 4.135975065106542e-01	 1.558554892404452e+00	 3.707440585985172e+00
 3.835046072661905e-01	 1.566231293978076e+00	 3.447571705059975e+00
 3.534317490592473e-01	 1.573290262089959e+00	 3.220262816540194e+00
 3.233963548640565e-01	 1.579737651538663e+00	 3.027916815661587e+00
 2.934154220207539e-01	 1.585579906578415e+00	 2.872157441218628e+00
 5.958533111023879e-01	 1.505094812343129e+00	 5.776284849428417e+00
 5.659111000596855e-01	 1.516606801161459e+00	 5.404955246980562e+00
 5.358765360724195e-01	 1.527477626871297e+00	 5.036879192346953e+00
 5.057691149280611e-01	 1.537709063800717e+00	 4.679083030488921e+00
 4.756080741727043e-01	 1.547303629639504e+00	 4.337881204368822e+00
 4.454123602838571e-01	 1.556264563569846e+00	 4.018844018895515e+00
 4.152005976222019e-01	 1.564595802836371e+00	 3.726773166554954e+00
 3.849910592338166e-01	 1.572301957904479e+00	 3.465684920183593e+00
 3.548016395613723e-01	 1.579388286358056e+00	 3.238800818079617e+00
 3.246498291100082e-01	 1.585860665688677e+00	 3.048545592907092e+00
 2.945526911010241e-01	 1.591725565128296e+00	 2.896552029300109e+00
 5.981539030346663e-01	 1.510905989224438e+00	 5.834832654385831e+00
 5.680960850001697e-01	 1.522462425874857e+00	 5.453375052803217e+00
 5.379455574460040e-01	 1.533375223883753e+00	 5.076415807362812e+00
 5.077218914329505e-01	 1.543646164429884e+00	 4.711082229993142e+00
 4.774443987833440e-01	 1.553277774923845e+00	 4.363777108428031e+00
 4.471320991271145e-01	 1.562273307054313e+00	 4.040146160978570e+00
 4.168036887336734e-01	 1.570636713267633e+00	 3.745053361808124e+00
 3.864775112014002e-01	 1.578372621830225e+00	 3.482564039851584e+00
 3.561715300634783e-01	 1.585486310625523e+00	 3.255935573229728e+00
 3.259033033559553e-01	 1.591983679838119e+00	 3.067615426358665e+00
 2.956899601812942e-01	 1.597871223677692e+00	 2.919246209581284e+00
 2.843172693785931e-01	 1.536414638161893e+00	 2.613752235569475e+00
 2.553347877472805e-01	 1.541496155098853e+00	 2.418986537280205e+00
 2.264367015805608e-01	 1.546005391384669e+00	 2.249584743632043e+00
 1.976381280733380e-01	 1.549950134791623e+00	 2.104622438963329e+00
 1.689537012681203e-01	 1.553338629157681e+00	 1.982570451952653e+00
 1.403975591971896e-01	 1.556179544710306e+00	 1.881324627937056e+00
 1.119833329051127e-01	 1.558481948292365e+00	 1.798239112488265e+00
 8.372413731224189e-02	 1.560255273611354e+00	 1.730162656287858e+00
 5.563256387227331e-02	 1.561509291626922e+00	 1.673477449700674e+00
 2.772067497008558e-02	 1.562254081185013e+00	 1.624139999809284e+00
 0.000000000000000e+00	 1.562500000000000e+00	 1.577723572508711e+00
 2.854545384588631e-01	 1.542560296715657e+00	 2.652363734516046e+00
 2.563561269013357e-01	 1.547662139720148e+00	 2.460695824164969e+00
 2.273424483901226e-01	 1.552189412950914e+00	 2.293194425397615e+00
 1.984286805889098e-01	 1.556149935331327e+00	 2.149006359765328e+00
 1.696295160763778e-01	 1.559551983674704e+00	 2.026668830085212e+00
 1.409591494369407e-01	 1.562404262889418e+00	 1.924139117481687e+00
 1.124312662393456e-01	 1.564715876085706e+00	 1.838827842633683e+00
 8.405903386362944e-02	 1.566496294705896e+00	 1.767635297327105e+00
 5.585509412930571e-02	 1.567755328793471e+00	 1.706990350545424e+00
 2.783155767079539e-02	 1.568503097509764e+00	 1.652891437532976e+00
 0.000000000000000e+00	 1.568750000000000e+00	 1.600949150014130e+00
 2.865918075391333e-01	 1.548705955268936e+00	 2.689136884181081e+00
 2.573774660553910e-01	 1.553828124341051e+00	 2.500612828594676e+00
 2.282481951996844e-01	 1.558373434516852e+00	 2.335093067069185e+00
 1.992192331044815e-01	 1.562349735870797e+00	 2.191795412655689e+00
 1.703053308846354e-01	 1.565765338191557e+00	 2.069323065516313e+00
 1.415207396766917e-01	 1.568628981068412e+00	 1.965694240587899e+00
 1.128791995735786e-01	 1.570949803878972e+00	 1.878375412918397e+00
 8.439393041501703e-02	 1.572737315800395e+00	 1.804317682761173e+00
 5.607762438633811e-02	 1.574001365960003e+00	 1.739995760416029e+00
 2.794244037150521e-02	 1.574752113834509e+00	 1.681449074852774e+00
 0.000000000000000e+00	 1.575000000000000e+00	 1.624324519816981e+00
 2.877290766194034e-01	 1.554851613821729e+00	 2.724089529652362e+00
 2.583988052094463e-01	 1.559994108961564e+00	 2.538753508011980e+00
 2.291539420092462e-01	 1.564557456082482e+00	 2.375294644734586e+00
 2.000097856200533e-01	 1.568549536410034e+00	 2.233001505651643e+00
 1.709811456928930e-01	 1.571978692708238e+00	 2.110542918228213e+00
 1.420823299164427e-01	 1.574853699247288e+00	 2.005997535736228e+00
 1.133271329078116e-01	 1.577183731672164e+00	 1.916887073090920e+00
 8.472882696640460e-02	 1.578978336894853e+00	 1.840212712341341e+00
 5.630015464337051e-02	 1.580247403126516e+00	 1.772494173490484e+00
 2.805332307221503e-02	 1.581001130159251e+00	 1.709810950210146e+00
 0.000000000000000e+00	 1.581250000000000e+00	 1.647845219590691e+00
 2.888663456996736e-01	 1.560997272374037e+00	 2.757239337087322e+00
 2.594201443635016e-01	 1.566160093581686e+00	 2.575133652514378e+00
 2.300596888188081e-01	 1.570741477647806e+00	 2.413812981924488e+00
 2.008003381356250e-01	 1.574749336949036e+00	 2.272636412120051e+00
 1.716569605011506e-01	 1.578192047224750e+00	 2.150338034491261e+00
 1.426439201561938e-01	 1.581078417426047e+00	 2.045056451576617e+00
 1.137750662420445e-01	 1.583417659465282e+00	 1.954368009796976e+00
 8.506372351779215e-02	 1.585219357989269e+00	 1.875323252192101e+00
 5.652268490040292e-02	 1.586493440293011e+00	 1.804486082444690e+00
 2.816420577292484e-02	 1.587250146483988e+00	 1.737975135212501e+00
 0.000000000000000e+00	 1.587500000000000e+00	 1.671506857281728e+00
 2.900036147799436e-01	 1.567142930925859e+00	 2.788603797221016e+00
 2.604414835175569e-01	 1.572326078201417e+00	 2.609768888136115e+00
 2.309654356283699e-01	 1.576925499212823e+00	 2.450661752603456e+00
 2.015908906511968e-01	 1.580949137487806e+00	 2.310711773417214e+00
 1.723327753094082e-01	 1.584405401741090e+00	 2.188717949094386e+00
 1.432055103959447e-01	 1.587303135604688e+00	 2.082878348689356e+00
 1.142229995762775e-01	 1.589651587258324e+00	 1.990823347815844e+00
 8.539862006917975e-02	 1.591460379083644e+00	 1.909652135470521e+00
 5.674521515743533e-02	 1.592739477459488e+00	 1.835971978481187e+00
 2.827508847363466e-02	 1.593499162808720e+00	 1.765939733982733e+00
 0.000000000000000e+00	 1.593750000000000e+00	 1.695305109731286e+00
 2.911408838602137e-01	 1.573288589477196e+00	 2.818200228791834e+00
 2.614628226716121e-01	 1.578492062820757e+00	 2.642674680052020e+00
 2.318711824379317e-01	 1.583109520777533e+00	 2.485854484091405e+00
 2.023814431667685e-01	 1.587148938026342e+00	 2.347239101466390e+00
 1.730085901176658e-01	 1.590618756257261e+00	 2.225692087520742e+00
 1.437671006356958e-01	 1.593527853783212e+00	 2.119470501305126e+00
 1.146709329105105e-01	 1.595885515051292e+00	 2.026258151269261e+00
 8.573351662056733e-02	 1.597701400177977e+00	 1.943202163009789e+00
 5.696774541446772e-02	 1.598985514625945e+00	 1.866952351358703e+00
 2.838597117434448e-02	 1.599748179133447e+00	 1.793702882524641e+00
 0.000000000000000e+00	 1.600000000000000e+00	 1.719235721329896e+00
 2.922781529404839e-01	 1.579434248028048e+00	 2.846045781888651e+00
 2.624841618256674e-01	 1.584658047439706e+00	 2.673866335707646e+00
 2.327769292474935e-01	 1.589293542341936e+00	 2.519404559915641e+00
 2.031719956823402e-01	 1.593348738564645e+00	 2.382229781276935e+00
 1.736844049259234e-01	 1.596832110773261e+00	 2.261269768076178e+00
 1.443286908754468e-01	 1.599752571961618e+00	 2.154840098985501e+00
 1.151188662447435e-01	 1.602119442844184e+00	 2.060677424801523e+00
 8.606841317195489e-02	 1.603942421272267e+00	 1.975976103948856e+00
 5.719027567150013e-02	 1.605231551792385e+00	 1.897427689418882e+00
 2.849685387505430e-02	 1.605997195458171e+00	 1.821262748101674e+00
 0.000000000000000e+00	 1.606250000000000e+00	 1.743294502703472e+00
 2.934154220207539e-01	 1.585579906578415e+00	 2.872157441218628e+00
 2.635055009797226e-01	 1.590824032058265e+00	 2.703359007875715e+00
 2.336826760570553e-01	 1.595477563906032e+00	 2.551325222598690e+00
 2.039625481979120e-01	 1.599548539102714e+00	 2.415695073403950e+00
 1.743602197341809e-01	 1.603045465289091e+00	 2.295460203965272e+00
 1.448902811151979e-01	 1.605977290139907e+00	 2.188994248262847e+00
 1.155667995789764e-01	 1.608353370637003e+00	 2.094086114732629e+00
 8.640330972334247e-02	 1.610183442366516e+00	 2.007976696346000e+00
 5.741280592853253e-02	 1.611477588958806e+00	 1.927398479615352e+00
 2.860773657576412e-02	 1.612246211782890e+00	 1.848617528632546e+00
 0.000000000000000e+00	 1.612500000000000e+00	 1.767477329429297e+00
 2.945526911010241e-01	 1.591725565128296e+00	 2.896552029300109e+00
 2.645268401337780e-01	 1.596990016676433e+00	 2.731167697641766e+00
 2.345884228666171e-01	 1.601661585469822e+00	 2.581629576379904e+00
 2.047531007134838e-01	 1.605748339640549e+00	 2.447646116350482e+00
 1.750360345424385e-01	 1.609258819804750e+00	 2.328272505320372e+00
 1.454518713549488e-01	 1.612202008318077e+00	 2.221939974244596e+00
 1.160147329132094e-01	 1.614587298429746e+00	 2.126489110182491e+00
 8.673820627473004e-02	 1.616424463460724e+00	 2.039206647779324e+00
 5.763533618556493e-02	 1.617723626125208e+00	 1.956865207539850e+00
 2.871861927647393e-02	 1.618495228107603e+00	 1.875765452098292e+00
 0.000000000000000e+00	 1.618750000000000e+00	 1.791780140782411e+00
 2.956899601812942e-01	 1.597871223677692e+00	 2.919246209581284e+00
 2.655481792878333e-01	 1.603156001294210e+00	 2.757307257321528e+00
 2.354941696761790e-01	 1.607845607033304e+00	 2.610330589875201e+00
 2.055436532290555e-01	 1.611948140178152e+00	 2.478093928913991e+00
 1.757118493506961e-01	 1.615472174320238e+00	 2.359715681183940e+00
 1.460134615946999e-01	 1.618426726496131e+00	 2.253684222177561e+00
 1.164626662474424e-01	 1.620821226222415e+00	 2.157891244173197e+00
 8.707310282611766e-02	 1.622665484554890e+00	 2.069668635932588e+00
 5.785786644259735e-02	 1.623969663291593e+00	 1.985828357447895e+00
 2.882950197718375e-02	 1.624744244432313e+00	 1.902704775963781e+00
 0.000000000000000e+00	 1.625000000000000e+00	 1.816198938510218e+00
 1.625000000000000e+00	 0.000000000000000e+00	 1.363345189003350e+01
 1.624744244432312e+00	 2.882950197718282e-02	 1.374864770931122e+01
 1.623969663291593e+00	 5.785786644259654e-02	 1.384116721534305e+01
 1.622665484554890e+00	 8.707310282611692e-02	 1.391084067134760e+01
 1.620821226222414e+00	 1.164626662474418e-01	 1.395770018385240e+01
 1.618426726496131e+00	 1.460134615946994e-01	 1.398198596490084e+01
 1.615472174320239e+00	 1.757118493506958e-01	 1.398415113265709e+01
 1.611948140178151e+00	 2.055436532290552e-01	 1.396486491133907e+01
 1.607845607033305e+00	 2.354941696761788e-01	 1.392501409927310e+01
 1.603156001294210e+00	 2.655481792878331e-01	 1.386570268403483e+01
 1.597871223677692e+00	 2.956899601812942e-01	 1.378824949616657e+01
 1.631250000000000e+00	 0.000000000000000e+00	 1.358963210077549e+01
 1.630993260757022e+00	 2.894038467780288e-02	 1.370489419927083e+01
 1.630215700457977e+00	 5.808039669946277e-02	 1.379774455420337e+01
 1.628906505649055e+00	 8.740799937727568e-02	 1.386804596435020e+01
 1.627055154015083e+00	 1.169105995813973e-01	 1.391586543026276e+01
 1.624651444674184e+00	 1.465750518341386e-01	 1.394148036942516e+01
 1.621685528835727e+00	 1.763876641586219e-01	 1.394538334688076e+01
 1.618147940715754e+00	 2.063342057442909e-01	 1.392828518102826e+01
 1.614029628596787e+00	 2.363999164854151e-01	 1.389111629230764e+01
 1.609321985911987e+00	 2.665695184415890e-01	 1.383502617285500e+01
 1.604016882227088e+00	 2.968272292613070e-01	 1.376138086794229e+01
 1.637500000000000e+00	 0.000000000000000e+00	 1.354679342084521e+01
 1.637242277081736e+00	 2.905126737824340e-02	 1.366214322552957e+01
 1.636461737624380e+00	 5.830292695599672e-02	 1.375533764965104e+01
 1.635147526743263e+00	 8.774289592797678e-02	 1.382627198931786e+01
 1.633289081807826e+00	 1.173585329147979e-01	 1.387504813525002e+01
 1.630876162852355e+00	 1.471366420729544e-01	 1.390198074216412e+01
 1.627898883351387e+00	 1.770634789658854e-01	 1.390760189052425e+01
 1.624347741253588e+00	 2.071247582588545e-01	 1.389266409911099e+01
 1.620213650160576e+00	 2.373056632940006e-01	 1.385814155503968e+01
 1.615487970530155e+00	 2.675908575947465e-01	 1.380522943840215e+01
 1.610162540776969e+00	 2.979644983408051e-01	 1.373534123165862e+01
 1.643750000000000e+00	 0.000000000000000e+00	 1.350491448147742e+01
 1.643491293406455e+00	 2.916215007850441e-02	 1.362037224189487e+01
 1.642707774790801e+00	 5.852545721219839e-02	 1.371392277840308e+01
 1.641388547837511e+00	 8.807779247822020e-02	 1.378549384863149e+01
 1.639523009600644e+00	 1.178064662476435e-01	 1.383522223217142e+01
 1.637100881030644e+00	 1.476982323111466e-01	 1.386345985546028e+01
 1.634112237867216e+00	 1.777392937724860e-01	 1.387077838575498e+01
 1.630547541791658e+00	 2.079153107727461e-01	 1.385797215137965e+01
 1.626397671724672e+00	 2.382114101019352e-01	 1.382605925377013e+01
 1.621653955148714e+00	 2.686121967473053e-01	 1.377628074756895e+01
 1.616308199327335e+00	 2.991017674197885e-01	 1.371009777819090e+01
 1.650000000000000e+00	 0.000000000000000e+00	 1.346397423767623e+01
 1.649740309731178e+00	 2.927303277858588e-02	 1.357955903549821e+01
 1.648953811957240e+00	 5.874798746806775e-02	 1.367347655951559e+01
 1.647629568931803e+00	 8.841268902800600e-02	 1.374568699546065e+01
 1.645756937393537e+00	 1.182543995799342e-01	 1.379636201303207e+01
 1.643325599209050e+00	 1.482598225487153e-01	 1.382589084754821e+01
 1.640325592383216e+00	 1.784151085784239e-01	 1.383488482723788e+01
 1.636747342329961e+00	 2.087058632859655e-01	 1.382418020206719e+01
 1.632581693289076e+00	 2.391171569092189e-01	 1.379483913849896e+01
 1.627819939767663e+00	 2.696335358992655e-01	 1.374814875549958e+01
 1.622453857878187e+00	 3.002390364982573e-01	 1.368561809049155e+01
 1.656250000000000e+00	 0.000000000000000e+00	 1.342395196210600e+01
 1.655989326055906e+00	 2.938391547848783e-02	 1.353968172050602e+01
 1.655199849123698e+00	 5.897051772360483e-02	 1.363397594792446e+01
 1.653870590026135e+00	 8.874758557733416e-02	 1.370682722714487e+01
 1.651990865186505e+00	 1.187023329116699e-01	 1.375844212171791e+01
 1.649550317387574e+00	 1.488214127856604e-01	 1.378924721565087e+01
 1.646538946899387e+00	 1.790909233836990e-01	 1.379989357510680e+01
 1.642947142868497e+00	 2.094964157985129e-01	 1.379125948670659e+01
 1.638765714853786e+00	 2.400229037158518e-01	 1.376445133568555e+01
 1.633985924387004e+00	 2.706548750506270e-01	 1.372080249826421e+01
 1.628599516429524e+00	 3.013763055762114e-01	 1.366187013619261e+01
 1.662500000000000e+00	 0.000000000000000e+00	 1.338482723912049e+01
 1.662238342380638e+00	 2.949479817821026e-02	 1.350071873197244e+01
 1.661445886290174e+00	 5.919304797880959e-02	 1.359539822813186e+01
 1.660111611120509e+00	 8.908248212620462e-02	 1.366889067872429e+01
 1.658224792979547e+00	 1.191502662428507e-01	 1.372143754738141e+01
 1.655775035566215e+00	 1.493830030219821e-01	 1.375350280923167e+01
 1.652752301415727e+00	 1.797667381883114e-01	 1.376577734809504e+01
 1.649146943407266e+00	 2.102869683103881e-01	 1.375918160515166e+01
 1.644949736418803e+00	 2.409286505218337e-01	 1.373486634117250e+01
 1.640151909006735e+00	 2.716762142013901e-01	 1.369421138569875e+01
 1.634745174981347e+00	 3.025135746536508e-01	 1.363882226037475e+01
 1.668750000000000e+00	 0.000000000000000e+00	 1.334657995892594e+01
 1.668487358705375e+00	 2.960568087775316e-02	 1.346264881983021e+01
 1.667691923456669e+00	 5.941557823368207e-02	 1.355772100803459e+01
 1.666352632214926e+00	 8.941737867461748e-02	 1.363185381661558e+01
 1.664458720772665e+00	 1.195981995734766e-01	 1.368532361797596e+01
 1.661999753744974e+00	 1.499445932576803e-01	 1.371863182339828e+01
 1.658965655932239e+00	 1.804425529922609e-01	 1.373250921681990e+01
 1.655346743946269e+00	 2.110775208215913e-01	 1.372791851475453e+01
 1.651133757984127e+00	 2.418343973271648e-01	 1.370605501326829e+01
 1.646317893626857e+00	 2.726975533515545e-01	 1.366834519440540e+01
 1.640890833533655e+00	 3.036508437305756e-01	 1.361644317849901e+01
 1.675000000000000e+00	 0.000000000000000e+00	 1.330919031187474e+01
 1.674736375030116e+00	 2.971656357711654e-02	 1.342545104301597e+01
 1.673937960623183e+00	 5.963810848822224e-02	 1.352092221289065e+01
 1.672593653309383e+00	 8.975227522257265e-02	 1.359569343242983e+01
 1.670692648565856e+00	 1.200461329035475e-01	 1.365007599393484e+01
 1.668224471923850e+00	 1.505061834927549e-01	 1.368460879245393e+01
 1.665179010448921e+00	 1.811183677955477e-01	 1.370006259721758e+01
 1.661546544485506e+00	 2.118680733321223e-01	 1.369744252369585e+01
 1.657317779549757e+00	 2.427401441318451e-01	 1.367798856598471e+01
 1.652483878247370e+00	 2.737188925011204e-01	 1.364317406091014e+01
 1.647036492086448e+00	 3.047881128069856e-01	 1.359470196949677e+01
 1.681250000000000e+00	 0.000000000000000e+00	 1.327263878288670e+01
 1.680985391354862e+00	 2.982744627630038e-02	 1.338910476372685e+01
 1.680183997789714e+00	 5.986063874243013e-02	 1.348498007942020e+01
 1.678834674403883e+00	 9.008717177007020e-02	 1.356038663692765e+01
 1.676926576359123e+00	 1.204940662330635e-01	 1.361567066199148e+01
 1.674449190102844e+00	 1.510677737272060e-01	 1.365140858359277e+01
 1.671392364965773e+00	 1.817941825981718e-01	 1.366841124412487e+01
 1.667746345024976e+00	 2.126586258419814e-01	 1.366772628446381e+01
 1.663501801115695e+00	 2.436458909358743e-01	 1.365063856242561e+01
 1.658649862868273e+00	 2.747402316500875e-01	 1.361866847497254e+01
 1.653182150639726e+00	 3.059253818828811e-01	 1.357356806901374e+01
 1.687500000000000e+00	 0.000000000000000e+00	 1.323690614599388e+01
 1.687234407679612e+00	 2.993832897530472e-02	 1.335358964180427e+01
 1.686430034956264e+00	 6.008316899630570e-02	 1.344987315003789e+01
 1.685075695498425e+00	 9.042206831711008e-02	 1.352591085410931e+01
 1.683160504152464e+00	 1.209419995620246e-01	 1.358208392913662e+01
 1.680673908281956e+00	 1.516293639610336e-01	 1.361900639073520e+01
 1.677605719482796e+00	 1.824699974001331e-01	 1.363752924500296e+01
 1.673946145564679e+00	 2.134491783511683e-01	 1.363874278747819e+01
 1.669685822681940e+00	 2.445516377392528e-01	 1.362397690832184e+01
 1.664815847489567e+00	 2.757615707984563e-01	 1.359479927304458e+01
 1.659327809193490e+00	 3.070626509582619e-01	 1.355301126280408e+01
 1.597871223677692e+00	 2.956899601812942e-01	 1.378824949616657e+01
 1.591983679838119e+00	 3.259033033559543e-01	 1.390679123650199e+01
 1.585486310625523e+00	 3.561715300634775e-01	 1.399272501203154e+01
 1.578372621830225e+00	 3.864775112013996e-01	 1.404503303676123e+01
 1.570636713267633e+00	 4.168036887336727e-01	 1.406285253384393e+01
 1.562273307054313e+00	 4.471320991271142e-01	 1.404547317002887e+01
 1.553277774923845e+00	 4.774443987833438e-01	 1.399233279749551e+01
 1.543646164429885e+00	 5.077218914329503e-01	 1.390301149644928e+01
 1.533375223883752e+00	 5.379455574460040e-01	 1.377722393355274e+01
 1.522462425874856e+00	 5.680960850001699e-01	 1.361481007393684e+01
 1.510905989224438e+00	 5.981539030346663e-01	 1.341572430785989e+01
 1.604016882227088e+00	 2.968272292613070e-01	 1.376138086794229e+01
 1.598106693987561e+00	 3.271567776016917e-01	 1.387561856469010e+01
 1.591584334892991e+00	 3.575414205654170e-01	 1.395825233840545e+01
 1.584443285755970e+00	 3.879639631688548e-01	 1.400835639018270e+01
 1.576677623698894e+00	 4.184067798450495e-01	 1.402516078749415e+01
 1.568282050538780e+00	 4.488518379703053e-01	 1.400804844033713e+01
 1.559251920208185e+00	 4.792807233939407e-01	 1.395655035395985e+01
 1.549583265059052e+00	 5.096746679378159e-01	 1.387033915371750e+01
 1.539272820896208e+00	 5.400145788195776e-01	 1.374922089974373e+01
 1.528318050588254e+00	 5.702810699406513e-01	 1.359312523222349e+01
 1.516717166105746e+00	 6.004544949669445e-01	 1.340209391180141e+01
 1.610162540776969e+00	 2.979644983408051e-01	 1.373534123165862e+01
 1.604229708137575e+00	 3.284102518470145e-01	 1.384535841601232e+01
 1.597682359161087e+00	 3.589113110670421e-01	 1.392476683692219e+01
 1.590513949682374e+00	 3.894504151360964e-01	 1.397273275123094e+01
 1.582718534130813e+00	 4.200098709563130e-01	 1.398857917491337e+01
 1.574290794023876e+00	 4.505715768134840e-01	 1.397178240060501e+01
 1.565226065493094e+00	 4.811170480046260e-01	 1.392196676064017e+01
 1.555520365688698e+00	 5.116274444428701e-01	 1.383889763332282e+01
 1.545170417909021e+00	 5.420836001934404e-01	 1.372247271272360e+01
 1.534173675301857e+00	 5.724660548815224e-01	 1.357271158583248e+01
 1.522528342987074e+00	 6.027550868997125e-01	 1.338974368507258e+01
 1.616308199327335e+00	 2.991017674197885e-01	 1.371009777819090e+01
 1.610352722288160e+00	 3.296637260919227e-01	 1.381597531752644e+01
 1.603780383429813e+00	 3.602812015683529e-01	 1.389223042337855e+01
 1.596584613609435e+00	 3.909368671031240e-01	 1.393812148364299e+01
 1.588759444563391e+00	 4.216129620674633e-01	 1.395306457370683e+01
 1.580299537509599e+00	 4.522913156566502e-01	 1.393662951501840e+01
 1.571200210778572e+00	 4.829533726153993e-01	 1.388853414783289e+01
 1.561457466318821e+00	 5.135802209481133e-01	 1.380863681802462e+01
 1.551068014922191e+00	 5.441526215675925e-01	 1.369692710086639e+01
 1.540029300015664e+00	 5.746510398227832e-01	 1.355351480865130e+01
 1.528339519868424e+00	 6.050556788329703e-01	 1.337861735363745e+01
 1.622453857878187e+00	 3.002390364982573e-01	 1.368561809049155e+01
 1.616475736439317e+00	 3.309172003364162e-01	 1.378743421591072e+01
 1.609878407699167e+00	 3.616510920693493e-01	 1.386060545963319e+01
 1.602655277537155e+00	 3.924233190699378e-01	 1.390448242249371e+01
 1.594800354996627e+00	 4.232160531785004e-01	 1.391857435686588e+01
 1.586308280995952e+00	 4.540110544998036e-01	 1.390254476590906e+01
 1.577174356064618e+00	 4.847896972262606e-01	 1.385620518539167e+01
 1.567394566949424e+00	 5.155329974535450e-01	 1.377950715014473e+01
 1.556965611935718e+00	 5.462216429420339e-01	 1.367253237065236e+01
 1.545884924729675e+00	 5.768360247644334e-01	 1.353548116970288e+01
 1.534150696749794e+00	 6.073562707667176e-01	 1.336865925405946e+01
 1.628599516429524e+00	 3.013763055762114e-01	 1.366187013619261e+01
 1.622598750591044e+00	 3.321706745804952e-01	 1.375970046954632e+01
 1.615976431969151e+00	 3.630209825700317e-01	 1.382985474519021e+01
 1.608725941465533e+00	 3.939097710365377e-01	 1.387177586530277e+01
 1.600841265430521e+00	 4.248191442894241e-01	 1.388506638342127e+01
 1.592317024482932e+00	 4.557307933429447e-01	 1.386948364397823e+01
 1.583148501351233e+00	 4.866260218372102e-01	 1.382493307254692e+01
 1.573331667580505e+00	 5.174857739591656e-01	 1.375145962100956e+01
 1.562863208949602e+00	 5.482906643167647e-01	 1.364923739576050e+01
 1.551740549443892e+00	 5.790210097064734e-01	 1.351855752191686e+01
 1.539961873631183e+00	 6.096568627009548e-01	 1.335981432198075e+01
 1.634745174981347e+00	 3.025135746536508e-01	 1.363882226037475e+01
 1.628721764743343e+00	 3.334241488241595e-01	 1.373273984077863e+01
 1.622074456239764e+00	 3.643908730703995e-01	 1.379994150897284e+01
 1.614796605394570e+00	 3.953962230029239e-01	 1.383996256334189e+01
 1.606882175865073e+00	 4.264222354002347e-01	 1.385249898930700e+01
 1.598325767970541e+00	 4.574505321860730e-01	 1.383740213874079e+01
 1.589122646638416e+00	 4.884623464482479e-01	 1.379467152795505e+01
 1.579268768212064e+00	 5.194385504649748e-01	 1.372444576063057e+01
 1.568760805963843e+00	 5.503596856917847e-01	 1.362699160640673e+01
 1.557596174158312e+00	 5.812059946489029e-01	 1.350269129115355e+01
 1.545773050512594e+00	 6.119574546356817e-01	 1.335202808086127e+01
 1.640890833533655e+00	 3.036508437305756e-01	 1.361644317849901e+01
 1.634844778896213e+00	 3.346776230674092e-01	 1.370651848835246e+01
 1.628172480511006e+00	 3.657607635704529e-01	 1.377082940128179e+01
 1.620867269324265e+00	 3.968826749690960e-01	 1.380900371313774e+01
 1.612923086300283e+00	 4.280253265109321e-01	 1.382083097842957e+01
 1.604334511458780e+00	 4.591702710291890e-01	 1.380625672918430e+01
 1.595096791926168e+00	 4.902986710593737e-01	 1.376537477997151e+01
 1.585205868844101e+00	 5.213913269709728e-01	 1.369841762761656e+01
 1.574658402978441e+00	 5.524287070670939e-01	 1.360574497892197e+01
 1.563451798872938e+00	 5.833909795917220e-01	 1.348783046547514e+01
 1.551584227394026e+00	 6.142580465708982e-01	 1.334524663097093e+01
 1.647036492086448e+00	 3.047881128069856e-01	 1.359470196949677e+01
 1.640967793049654e+00	 3.359310973102442e-01	 1.368100296001635e+01
 1.634270504782878e+00	 3.671306540701922e-01	 1.374248248593386e+01
 1.626937933254618e+00	 3.983691269350544e-01	 1.377886094816487e+01
 1.618963996736152e+00	 4.296284176215161e-01	 1.379002161393712e+01
 1.610343254947646e+00	 4.608900098722922e-01	 1.377600437463681e+01
 1.601070937214489e+00	 4.921349956705876e-01	 1.373699755714150e+01
 1.591142969476616e+00	 5.233441034771597e-01	 1.367332779931164e+01
 1.580555999993397e+00	 5.544977284426924e-01	 1.358544802556342e+01
 1.569307423587768e+00	 5.855759645349308e-01	 1.347392358465675e+01
 1.557395404275478e+00	 6.165586385066044e-01	 1.333941663862823e+01
 1.653182150639726e+00	 3.059253818828811e-01	 1.357356806901374e+01
 1.647090807203667e+00	 3.371845715526647e-01	 1.365616018529223e+01
 1.640368529055378e+00	 3.685005445696171e-01	 1.371486523257562e+01
 1.633008597185629e+00	 3.998555789007989e-01	 1.374949633072404e+01
 1.625004907172679e+00	 4.312315087319870e-01	 1.376003060968341e+01
 1.616351998437140e+00	 4.626097487153829e-01	 1.374660250583883e+01
 1.607045082503378e+00	 4.939713202818896e-01	 1.370949507890260e+01
 1.597080070109610e+00	 5.252968799835352e-01	 1.364912936215346e+01
 1.586453597008709e+00	 5.565667498185802e-01	 1.356605178455303e+01
 1.575163048302802e+00	 5.877609494785292e-01	 1.346091972993164e+01
 1.563206581156950e+00	 6.188592304428004e-01	 1.333448532567892e+01
 1.659327809193490e+00	 3.070626509582619e-01	 1.355301126280408e+01
 1.653213821358251e+00	 3.384380457946705e-01	 1.363195746840538e+01
 1.646466553328508e+00	 3.698704350687277e-01	 1.368794250916815e+01
 1.639079261117299e+00	 4.013420308663297e-01	 1.372087234400103e+01
 1.631045817609864e+00	 4.328345998423445e-01	 1.373081812188131e+01
 1.622360741927263e+00	 4.643294875584612e-01	 1.371800901621340e+01
 1.613019227792837e+00	 4.958076448932799e-01	 1.368282304649439e+01
 1.603017170743082e+00	 5.272496564900995e-01	 1.362577590224543e+01
 1.592351194024379e+00	 5.586357711947575e-01	 1.354750781033752e+01
 1.581018673018042e+00	 5.899459344225172e-01	 1.344876851396406e+01
 1.569017758038443e+00	 6.211598223794863e-01	 1.333040045920843e+01
 1.510905989224438e+00	 5.981539030346663e-01	 1.341572430785989e+01
 1.498704899226743e+00	 6.280992159050709e-01	 1.357314182387033e+01
 1.485858926035341e+00	 6.579120396418038e-01	 1.350865587525789e+01
 1.472368641059446e+00	 6.875722397012342e-01	 1.345357113880334e+01
 1.458235431242151e+00	 7.170595700862002e-01	 1.341362256508160e+01
 1.443461511099561e+00	 7.463537137016176e-01	 1.339495722488724e+01
 1.428049932410381e+00	 7.754343237987306e-01	 1.340413686878314e+01
 1.412004591455921e+00	 8.042810663511559e-01	 1.344813591679864e+01
 1.395330233722280e+00	 8.328736631961249e-01	 1.353433457396749e+01
 1.378032455989265e+00	 8.611919357655554e-01	 1.367050681609826e+01
 1.360117705744333e+00	 8.892158492239139e-01	 1.386480304540887e+01
 1.516717166105746e+00	 6.004544949669445e-01	 1.340209391180141e+01
 1.504469148840036e+00	 6.305149821170279e-01	 1.355359254576664e+01
 1.491573768060486e+00	 6.604424705599883e-01	 1.349541715165238e+01
 1.478031597374035e+00	 6.902167483116444e-01	 1.344567035386251e+01
 1.463844029058172e+00	 7.198174915056160e-01	 1.340993076889353e+01
 1.449013286146367e+00	 7.492243049041473e-01	 1.339419709996111e+01
 1.433542432154936e+00	 7.784167635017578e-01	 1.340489175282805e+01
 1.417435378350883e+00	 8.073744550642719e-01	 1.344885982998425e+01
 1.400696888472175e+00	 8.360770234359882e-01	 1.353336318842048e+01
 1.383332580824695e+00	 8.645042124389481e-01	 1.366606929535180e+01
 1.365348927693926e+00	 8.926359101805599e-01	 1.385503467204625e+01
 1.522528342987074e+00	 6.027550868997125e-01	 1.338974368507258e+01
 1.510233398453159e+00	 6.329307483295651e-01	 1.353354678439015e+01
 1.497288610085289e+00	 6.629729014788242e-01	 1.348129195398990e+01
 1.483694553688130e+00	 6.928612569227576e-01	 1.343648738004114e+01
 1.469452626873565e+00	 7.225754129257673e-01	 1.340455574261871e+01
 1.454565061192434e+00	 7.520948961074250e-01	 1.339134785627473e+01
 1.439034931898658e+00	 7.813992032055255e-01	 1.340314734447183e+01
 1.422866165244939e+00	 8.104678437781002e-01	 1.344667063995921e+01
 1.406063543221113e+00	 8.392803836765154e-01	 1.352906198583694e+01
 1.388632705659136e+00	 8.678164891129364e-01	 1.365788316158696e+01
 1.370580149642520e+00	 8.960559711377108e-01	 1.384109771471280e+01
 1.528339519868424e+00	 6.050556788329703e-01	 1.337861735363745e+01
 1.515997648066111e+00	 6.353465145426825e-01	 1.351301967085956e+01
 1.503003452109750e+00	 6.655033323983115e-01	 1.346630247146101e+01
 1.489357510001732e+00	 6.955057655345744e-01	 1.342605127080668e+01
 1.475061224688332e+00	 7.253333343466544e-01	 1.339753319443905e+01
 1.460116836237761e+00	 7.549654873114507e-01	 1.338645163189182e+01
 1.444527431641547e+00	 7.843816429100335e-01	 1.339895197212757e+01
 1.428296952138089e+00	 8.135612324926409e-01	 1.344162261189440e+01
 1.411430197969092e+00	 8.424837439177071e-01	 1.352149090120319e+01
 1.393932830492587e+00	 8.711287657875193e-01	 1.364601374008493e+01
 1.375811371590114e+00	 8.994760320953675e-01	 1.382306259772052e+01
 1.534150696749794e+00	 6.073562707667176e-01	 1.336865925405946e+01
 1.521761897678894e+00	 6.377622807563802e-01	 1.349202686356119e+01
 1.508718294133869e+00	 6.680337633184505e-01	 1.345047133814797e+01
 1.495020466314838e+00	 6.981502741470951e-01	 1.341439144326021e+01
 1.480669822502471e+00	 7.280912557682772e-01	 1.338889911619113e+01
 1.465668611282346e+00	 7.578360785162249e-01	 1.337955076999259e+01
 1.450019931383603e+00	 7.873640826152816e-01	 1.339235409238740e+01
 1.433727739030334e+00	 8.166546212078941e-01	 1.343377006396089e+01
 1.416796852716114e+00	 8.456871041595622e-01	 1.351070984924173e+01
 1.399232955325050e+00	 8.744410424626973e-01	 1.363052626466768e+01
 1.381042593536707e+00	 9.028960930535290e-01	 1.380099958494483e+01
 1.539961873631183e+00	 6.096568627009548e-01	 1.335981432198075e+01
 1.527526147291506e+00	 6.401780469706577e-01	 1.347058453820021e+01
 1.514433136157647e+00	 6.705641942392412e-01	 1.343382162463055e+01
 1.500683422627451e+00	 7.007947827603189e-01	 1.340153767127533e+01
 1.486278420315984e+00	 7.308491771906359e-01	 1.337868977801453e+01
 1.471220386326192e+00	 7.607066697217463e-01	 1.337068781500385e+01
 1.455512431124825e+00	 7.903465223212703e-01	 1.338340228760375e+01
 1.439158525921672e+00	 8.197480099238595e-01	 1.342316736632987e+01
 1.422163507462178e+00	 8.488904644020812e-01	 1.349677872479366e+01
 1.404533080156522e+00	 8.777533191384700e-01	 1.361148587942342e+01
 1.386273815482302e+00	 9.063161540121963e-01	 1.377497878285142e+01
 1.545773050512594e+00	 6.119574546356817e-01	 1.335202808086127e+01
 1.533290396903949e+00	 6.425938131855157e-01	 1.344870937807701e+01
 1.520147978181083e+00	 6.730946251606833e-01	 1.341637682978121e+01
 1.506346378939569e+00	 7.034392913742459e-01	 1.338752007879197e+01
 1.491887018128869e+00	 7.336070986137296e-01	 1.336694172312032e+01
 1.476772161369298e+00	 7.635772609280164e-01	 1.335990550881596e+01
 1.461004930865214e+00	 7.933289620279990e-01	 1.337214526352556e+01
 1.444589312812105e+00	 8.228413986405373e-01	 1.340986894019509e+01
 1.427530162207283e+00	 8.520938246452641e-01	 1.347975740319246e+01
 1.409833204987005e+00	 8.810655958148379e-01	 1.358895764039358e+01
 1.391505037426895e+00	 9.097362149713689e-01	 1.374507014345511e+01
 1.551584227394026e+00	 6.142580465708982e-01	 1.334524663097093e+01
 1.539054646516221e+00	 6.450095794009539e-01	 1.342641856458135e+01
 1.525862820204178e+00	 6.756250560827767e-01	 1.339816087274450e+01
 1.512009335251194e+00	 7.060837999888765e-01	 1.337236913326081e+01
 1.497495615941127e+00	 7.363650200375594e-01	 1.335369176267754e+01
 1.482323936411663e+00	 7.664478521350343e-01	 1.334724678708506e+01
 1.466497430604770e+00	 7.963114017354682e-01	 1.335863184698755e+01
 1.450020099701632e+00	 8.259347873579272e-01	 1.339392925681735e+01
 1.432896816951430e+00	 8.552971848891112e-01	 1.345970574062907e+01
 1.415133329816498e+00	 8.843778724918006e-01	 1.356300651722138e+01
 1.396736259370489e+00	 9.131562759310466e-01	 1.371134346721224e+01
 1.557395404275478e+00	 6.165586385066044e-01	 1.333941663862823e+01
 1.544818896128324e+00	 6.474253456169724e-01	 1.340372976789982e+01
 1.531577662226931e+00	 6.781554870055218e-01	 1.337919808509634e+01
 1.517672291562324e+00	 7.087283086042107e-01	 1.335611563923443e+01
 1.503104213752759e+00	 7.391229414621251e-01	 1.333897697081386e+01
 1.487875711453289e+00	 7.693184433428000e-01	 1.333275477561819e+01
 1.471989930343493e+00	 7.992938414436775e-01	 1.334291098365099e+01
 1.455450886590253e+00	 8.290281760760296e-01	 1.337540283659069e+01
 1.438263471694619e+00	 8.585005451336220e-01	 1.343668357450946e+01
 1.420433454645002e+00	 8.876901491693581e-01	 1.353369739476384e+01
 1.401967481313083e+00	 9.165763368912295e-01	 1.367386840584825e+01
 1.563206581156950e+00	 6.188592304428004e-01	 1.333448532567892e+01
 1.550583145740257e+00	 6.498411118335709e-01	 1.338066113793034e+01
 1.537292504249342e+00	 6.806859179289186e-01	 1.335951320317791e+01
 1.523335247872960e+00	 7.113728172202480e-01	 1.333879073210171e+01
 1.508712811563763e+00	 7.418808628874262e-01	 1.332283467972793e+01
 1.493427486494174e+00	 7.721890345513140e-01	 1.331647278683869e+01
 1.477482430081382e+00	 8.022762811526275e-01	 1.332503173579507e+01
 1.460881673477968e+00	 8.321215647948442e-01	 1.335434424812886e+01
 1.443630126436850e+00	 8.617039053787966e-01	 1.341075072380320e+01
 1.425733579472517e+00	 8.910024258475109e-01	 1.350109507466775e+01
 1.407198703254676e+00	 9.199963978519178e-01	 1.363271446512210e+01
 1.569017758038443e+00	 6.211598223794863e-01	 1.333040045920843e+01
 1.556347395352019e+00	 6.522568780507497e-01	 1.335723129539861e+01
 1.543007346271411e+00	 6.832163488529666e-01	 1.333913136060000e+01
 1.528998204183102e+00	 7.140173258369891e-01	 1.332042587196091e+01
 1.514321409374140e+00	 7.446387843134632e-01	 1.330530247491029e+01
 1.498979261534318e+00	 7.750596257605761e-01	 1.329844431633034e+01
 1.482974929818439e+00	 8.052587208623178e-01	 1.330504328015747e+01
 1.466312460364777e+00	 8.352149535143715e-01	 1.333080810737239e+01
 1.448996781178123e+00	 8.649072656246355e-01	 1.338196698938540e+01
 1.431033704299042e+00	 8.943147025262583e-01	 1.346526427691070e+01
 1.412429925195270e+00	 9.234164588131116e-01	 1.358795100752954e+01
 1.360117705744333e+00	 8.892158492239139e-01	 1.386480304540887e+01
 1.341593277873824e+00	 9.169255568236596e-01	 1.326476451158688e+01
 1.322467308601402e+00	 9.443014442826372e-01	 1.270175040099569e+01
 1.302748766656399e+00	 9.713241739857011e-01	 1.218370008641463e+01
 1.282447441671250e+00	 9.979747288102582e-01	 1.171896778115410e+01
 1.261573929826626e+00	 1.024234455373163e+00	 1.131628535045800e+01
 1.240139616777278e+00	 1.050085106498359e+00	 1.106782438903892e+01
 1.218156657908895e+00	 1.075508882706573e+00	 1.096645056429869e+01
 1.195637955992831e+00	 1.100488472532229e+00	 1.090364468805220e+01
 1.172597136321760e+00	 1.125007091478085e+00	 1.087986238219453e+01
 1.149048519425000e+00	 1.149048519425000e+00	 1.089524671909599e+01
 1.365348927693926e+00	 8.926359101805599e-01	 1.385503467204625e+01
 1.346753252023566e+00	 9.204521935795263e-01	 1.324547696787472e+01
 1.327553721330546e+00	 9.479333729140336e-01	 1.267608469240523e+01
 1.307759338839313e+00	 9.750600361934927e-01	 1.215509420557522e+01
 1.287379931834733e+00	 1.001813093152530e+00	 1.169115493623832e+01
 1.266426137252021e+00	 1.028173818664219e+00	 1.129329085241457e+01
 1.244909384536906e+00	 1.054123895371055e+00	 1.101418803877037e+01
 1.222841875826560e+00	 1.079645455334231e+00	 1.093447448204423e+01
 1.200236563518384e+00	 1.104721120505608e+00	 1.089871183179155e+01
 1.177107125310022e+00	 1.129334041832186e+00	 1.090750550674967e+01
 1.153467936809750e+00	 1.153467936809750e+00	 1.096112766182543e+01
 1.370580149642520e+00	 8.960559711377108e-01	 1.384109771471280e+01
 1.351913226172313e+00	 9.239788303357978e-01	 1.322262411806147e+01
 1.332640134058710e+00	 9.515653015457344e-01	 1.264742126456899e+01
 1.312769911021271e+00	 9.787958984014881e-01	 1.212402157357095e+01
 1.292312421997296e+00	 1.005651457494905e+00	 1.166136892113640e+01
 1.271278344676540e+00	 1.032113181955278e+00	 1.126877877275439e+01
 1.249679152295714e+00	 1.058162684243653e+00	 1.095865205817498e+01
 1.227527093743471e+00	 1.083782027961689e+00	 1.090106481879383e+01
 1.204835171043257e+00	 1.108953768478686e+00	 1.089279322010030e+01
 1.181617114297689e+00	 1.133660992185886e+00	 1.093459160689878e+01
 1.157887354194000e+00	 1.157887354194000e+00	 1.102686037585651e+01
 1.375811371590114e+00	 8.994760320953675e-01	 1.382306259772052e+01
 1.357073200320065e+00	 9.275054670924751e-01	 1.319626950925015e+01
 1.337726546785893e+00	 9.551972301777403e-01	 1.261581689266196e+01
 1.317780483202274e+00	 9.825317606096879e-01	 1.209053231377979e+01
 1.297244912158939e+00	 1.009489821837384e+00	 1.162965334250117e+01
 1.276130552100184e+00	 1.036052545246339e+00	 1.124278635145250e+01
 1.254448920053700e+00	 1.062201473116154e+00	 1.093985924034006e+01
 1.232212311659627e+00	 1.087918600588949e+00	 1.086616981213372e+01
 1.209433778567449e+00	 1.113186416451465e+00	 1.088583179401741e+01
 1.186127103284760e+00	 1.137987942539187e+00	 1.096105870589976e+01
 1.162306771577750e+00	 1.162306771577750e+00	 1.109237835530590e+01
 1.381042593536707e+00	 9.028960930535290e-01	 1.380099958494483e+01
 1.362233174466821e+00	 9.310321038495566e-01	 1.316647663837405e+01
 1.342812959512097e+00	 9.588291588100507e-01	 1.258132840813865e+01
 1.322791055382322e+00	 9.862676228180917e-01	 1.205467670826693e+01
 1.302177402319661e+00	 1.013328186179966e+00	 1.159605206382228e+01
 1.280982759522953e+00	 1.039991908537403e+00	 1.121535117900780e+01
 1.259218687810867e+00	 1.066240261988556e+00	 1.092278828569898e+01
 1.236897529575027e+00	 1.092055173216009e+00	 1.082973822338434e+01
 1.214032386090963e+00	 1.117419064423946e+00	 1.087777109748181e+01
 1.190637092271236e+00	 1.142314892892088e+00	 1.098684550389801e+01
 1.166726188961000e+00	 1.166726188961000e+00	 1.115761583983935e+01
 1.386273815482302e+00	 9.063161540121963e-01	 1.377497878285142e+01
 1.367393148612583e+00	 9.345587406070441e-01	 1.313330895314337e+01
 1.347899372237320e+00	 9.624610874426662e-01	 1.254401269767125e+01
 1.327801627561415e+00	 9.900034850267000e-01	 1.201650519479015e+01
 1.307109892479464e+00	 1.017166550522652e+00	 1.156060920058086e+01
 1.285834966944846e+00	 1.043931271828469e+00	 1.118651118982933e+01
 1.263988455567214e+00	 1.070279050860860e+00	 1.090471133103207e+01
 1.241582747489673e+00	 1.096191745842871e+00	 1.079171932771840e+01
 1.218630993613795e+00	 1.121651712396126e+00	 1.086855526595661e+01
 1.195147081257118e+00	 1.146641843244589e+00	 1.101189136515428e+01
 1.171145606343750e+00	 1.171145606343750e+00	 1.122250780060449e+01
 1.391505037426895e+00	 9.097362149713689e-01	 1.374507014345511e+01
 1.372553122757349e+00	 9.380853773649360e-01	 1.309682985297030e+01
 1.352985784961564e+00	 9.660930160755863e-01	 1.250392670211181e+01
 1.332812199739552e+00	 9.937393472355119e-01	 1.197606836387402e+01
 1.312042382638345e+00	 1.021004914865441e+00	 1.152336911551214e+01
 1.290687174365864e+00	 1.047870635119539e+00	 1.115630465577170e+01
 1.268758223322740e+00	 1.074317839733066e+00	 1.088566070859893e+01
 1.246267965403562e+00	 1.100328318469534e+00	 1.075206290450212e+01
 1.223229601135948e+00	 1.125884360368007e+00	 1.085812901531045e+01
 1.199657070242404e+00	 1.150968793596690e+00	 1.103613630556227e+01
 1.175565023726000e+00	 1.175565023726000e+00	 1.128698992648119e+01
 1.396736259370489e+00	 9.131562759310466e-01	 1.371134346721224e+01
 1.377713096901120e+00	 9.416120141232338e-01	 1.305710268987383e+01
 1.358072197684827e+00	 9.697249447088112e-01	 1.246112741547751e+01
 1.337822771916734e+00	 9.974752094445286e-01	 1.193341695594841e+01
 1.316974872796307e+00	 1.024843279208334e+00	 1.148437641397612e+01
 1.295539381786007e+00	 1.051809998410611e+00	 1.112477017981592e+01
 1.273527991077446e+00	 1.078356628605173e+00	 1.086566916588682e+01
 1.250953183316696e+00	 1.104464891095998e+00	 1.071839208364057e+01
 1.227828208657420e+00	 1.130117008339588e+00	 1.084643763094858e+01
 1.204167059227095e+00	 1.155295743948392e+00	 1.105952098044534e+01
 1.179984441107750e+00	 1.179984441107750e+00	 1.135099861064106e+01
 1.401967481313083e+00	 9.165763368912295e-01	 1.367386840584825e+01
 1.382873071043897e+00	 9.451386508819365e-01	 1.301419076936354e+01
 1.363158610407110e+00	 9.733568733423409e-01	 1.241567188395881e+01
 1.342833344092961e+00	 1.001211071653749e+00	 1.188860185855210e+01
 1.321907362953348e+00	 1.028681643551330e+00	 1.144367593942999e+01
 1.300391589205275e+00	 1.055749361701685e+00	 1.109194668989160e+01
 1.278297758831332e+00	 1.082395417477183e+00	 1.084476985786283e+01
 1.255638401229076e+00	 1.108601463722264e+00	 1.071374424482387e+01
 1.232426816178213e+00	 1.134349656310871e+00	 1.083342695718664e+01
 1.208677048211191e+00	 1.159622694299693e+00	 1.108198667262638e+01
 1.184403858489000e+00	 1.184403858489000e+00	 1.141447093740754e+01
 1.407198703254676e+00	 9.199963978519178e-01	 1.363271446512210e+01
 1.388033045185679e+00	 9.486652876410443e-01	 1.296815735130437e+01
 1.368245023128413e+00	 9.769888019761754e-01	 1.236761720494970e+01
 1.347843916268233e+00	 1.004946933863174e+00	 1.184167410359844e+01
 1.326839853109469e+00	 1.032520007894430e+00	 1.140131276900313e+01
 1.305243796623667e+00	 1.059688724992762e+00	 1.105787343283742e+01
 1.283067526584397e+00	 1.086434206349094e+00	 1.082299633940062e+01
 1.260323619140700e+00	 1.112738036348330e+00	 1.070856020751052e+01
 1.237025423698325e+00	 1.138582304281854e+00	 1.081904338686264e+01
 1.213187037194693e+00	 1.163949644650594e+00	 1.110347528076500e+01
 1.188823275869750e+00	 1.188823275869750e+00	 1.147734466940888e+01
 1.412429925195270e+00	 9.234164588131116e-01	 1.358795100752954e+01
 1.393193019326465e+00	 9.521919244005576e-01	 1.291906565076179e+01
 1.373331435848735e+00	 9.806207306103145e-01	 1.231702052609952e+01
 1.352854488442549e+00	 1.008682796072803e+00	 1.179268486470149e+01
 1.331772343264670e+00	 1.036358372237633e+00	 1.135733220916974e+01
 1.310096004041184e+00	 1.063628088283842e+00	 1.102258996849467e+01
 1.287837294336642e+00	 1.090472995220908e+00	 1.080038255787454e+01
 1.265008837051568e+00	 1.116874608974198e+00	 1.070286845442380e+01
 1.241624031217757e+00	 1.142814952252537e+00	 1.080323385117877e+01
 1.217697026177599e+00	 1.168276595001096e+00	 1.112392930795263e+01
 1.193242693250000e+00	 1.193242693250000e+00	 1.153955823501772e+01
 1.149048519425000e+00	 1.149048519425000e+00	 1.089524671909599e+01
 1.125007091478085e+00	 1.172597136321760e+00	 1.082934744430057e+01
 1.100488472532229e+00	 1.195637955992831e+00	 1.096701918893093e+01
 1.075508882706574e+00	 1.218156657908895e+00	 1.131323563458324e+01
 1.050085106498359e+00	 1.240139616777278e+00	 1.187201532852669e+01
 1.024234455373164e+00	 1.261573929826626e+00	 1.161657805807941e+01
 9.979747288102585e-01	 1.282447441671249e+00	 1.061805176490445e+01
 9.713241739857018e-01	 1.302748766656399e+00	 9.722472337684971e+00
 9.443014442826381e-01	 1.322467308601402e+00	 8.938685613366992e+00
 9.169255568236604e-01	 1.341593277873824e+00	 8.275201589424876e+00
 8.892158492239141e-01	 1.360117705744333e+00	 7.740143214275351e+00
 1.153467936809750e+00	 1.153467936809750e+00	 1.096112766182543e+01
 1.129334041832186e+00	 1.177107125310022e+00	 1.095478624643538e+01
 1.104721120505608e+00	 1.200236563518384e+00	 1.115048660910895e+01
 1.079645455334231e+00	 1.222841875826560e+00	 1.155297684843485e+01
 1.054123895371056e+00	 1.244909384536906e+00	 1.216605563434734e+01
 1.028173818664220e+00	 1.266426137252021e+00	 1.154169649487308e+01
 1.001813093152530e+00	 1.287379931834733e+00	 1.057804813539676e+01
 9.750600361934932e-01	 1.307759338839313e+00	 9.712750571782642e+00
 9.479333729140343e-01	 1.327553721330545e+00	 8.954576204380949e+00
 9.204521935795271e-01	 1.346753252023566e+00	 8.311979095445341e+00
 8.926359101805597e-01	 1.365348927693926e+00	 7.793043563638983e+00
 1.157887354194000e+00	 1.157887354194000e+00	 1.102686037585651e+01
 1.133660992185886e+00	 1.181617114297689e+00	 1.107947842953424e+01
 1.108953768478686e+00	 1.204835171043257e+00	 1.133264335271698e+01
 1.083782027961689e+00	 1.227527093743472e+00	 1.179087866807889e+01
 1.058162684243654e+00	 1.249679152295714e+00	 1.245776406547956e+01
 1.032113181955278e+00	 1.271278344676540e+00	 1.147041035086021e+01
 1.005651457494906e+00	 1.292312421997296e+00	 1.054108955705810e+01
 9.787958984014886e-01	 1.312769911021270e+00	 9.705543968604529e+00
 9.515653015457353e-01	 1.332640134058710e+00	 8.972474023443311e+00
 9.239788303357988e-01	 1.351913226172312e+00	 8.350279267426989e+00
 8.960559711377111e-01	 1.370580149642521e+00	 7.847006746274676e+00
 1.162306771577750e+00	 1.162306771577750e+00	 1.109237835530590e+01
 1.137987942539187e+00	 1.186127103284760e+00	 1.120336460823088e+01
 1.113186416451466e+00	 1.209433778567450e+00	 1.151343692304420e+01
 1.087918600588948e+00	 1.232212311659627e+00	 1.202689524036066e+01
 1.062201473116154e+00	 1.254448920053700e+00	 1.237862264850237e+01
 1.036052545246339e+00	 1.276130552100184e+00	 1.140272429857376e+01
 1.009489821837385e+00	 1.297244912158939e+00	 1.050718564929661e+01
 9.825317606096885e-01	 1.317780483202274e+00	 9.700866736058241e+00
 9.551972301777408e-01	 1.337726546785893e+00	 8.992397503396989e+00
 9.275054670924758e-01	 1.357073200320064e+00	 8.390124395401564e+00
 8.994760320953675e-01	 1.375811371590114e+00	 7.902058538475847e+00
 1.166726188961000e+00	 1.166726188961000e+00	 1.115761583983935e+01
 1.142314892892088e+00	 1.190637092271236e+00	 1.132638603542179e+01
 1.117419064423946e+00	 1.214032386090963e+00	 1.169281535842764e+01
 1.092055173216009e+00	 1.236897529575027e+00	 1.226098114822632e+01
 1.066240261988556e+00	 1.259218687810868e+00	 1.227685081599423e+01
 1.039991908537403e+00	 1.280982759522953e+00	 1.133864326227608e+01
 1.013328186179967e+00	 1.302177402319661e+00	 1.047634619815796e+01
 9.862676228180922e-01	 1.322791055382321e+00	 9.698733168522510e+00
 9.588291588100516e-01	 1.342812959512097e+00	 9.014365088451406e+00
 9.310321038495578e-01	 1.362233174466821e+00	 8.431536710843105e+00
 9.028960930535292e-01	 1.381042593536708e+00	 7.958224593336217e+00
 1.171145606343750e+00	 1.171145606343750e+00	 1.122250780060449e+01
 1.146641843244589e+00	 1.195147081257118e+00	 1.144848459022264e+01
 1.121651712396126e+00	 1.218630993613795e+00	 1.187072722215694e+01
 1.096191745842871e+00	 1.241582747489672e+00	 1.249309140249325e+01
 1.070279050860860e+00	 1.263988455567214e+00	 1.217924286643494e+01
 1.043931271828470e+00	 1.285834966944846e+00	 1.127817241320856e+01
 1.017166550522653e+00	 1.307109892479463e+00	 1.044858115317890e+01
 9.900034850267007e-01	 1.327801627561414e+00	 9.699157645215561e+00
 9.624610874426672e-01	 1.347899372237320e+00	 9.038395233968309e+00
 9.345587406070448e-01	 1.367393148612582e+00	 8.474538387771840e+00
 9.063161540121963e-01	 1.386273815482302e+00	 8.015530443075454e+00
 1.175565023726000e+00	 1.175565023726000e+00	 1.128698992648119e+01
 1.150968793596690e+00	 1.199657070242404e+00	 1.156960276619832e+01
 1.125884360368007e+00	 1.223229601135948e+00	 1.204712159260676e+01
 1.100328318469534e+00	 1.246267965403562e+00	 1.272318143380892e+01
 1.074317839733066e+00	 1.268758223322740e+00	 1.208579917891172e+01
 1.047870635119539e+00	 1.290687174365865e+00	 1.122131716494960e+01
 1.021004914865442e+00	 1.312042382638345e+00	 1.042390062431563e+01
 9.937393472355127e-01	 1.332812199739552e+00	 9.702154628600526e+00
 9.660930160755871e-01	 1.352985784961563e+00	 9.064506406251814e+00
 9.380853773649371e-01	 1.372553122757349e+00	 8.519151543834164e+00
 9.097362149713688e-01	 1.391505037426895e+00	 8.074001501309951e+00
 1.179984441107750e+00	 1.179984441107750e+00	 1.135099861064106e+01
 1.155295743948391e+00	 1.204167059227096e+00	 1.168968365985578e+01
 1.130117008339588e+00	 1.227828208657420e+00	 1.222194805359121e+01
 1.104464891095998e+00	 1.250953183316696e+00	 1.287899781361333e+01
 1.078356628605173e+00	 1.273527991077446e+00	 1.199652045521224e+01
 1.051809998410611e+00	 1.295539381786007e+00	 1.116808316887665e+01
 1.024843279208334e+00	 1.316974872796307e+00	 1.040231487893872e+01
 9.974752094445288e-01	 1.337822771916733e+00	 9.707738662826424e+00
 9.697249447088119e-01	 1.358072197684826e+00	 9.092717082343841e+00
 9.416120141232347e-01	 1.377713096901120e+00	 8.565398241358261e+00
 9.131562759310466e-01	 1.396736259370489e+00	 8.133663065274973e+00
 1.184403858489000e+00	 1.184403858489000e+00	 1.141447093740754e+01
 1.159622694299693e+00	 1.208677048211191e+00	 1.180867095939484e+01
 1.134349656310871e+00	 1.232426816178213e+00	 1.239515668493392e+01
 1.108601463722264e+00	 1.255638401229076e+00	 1.275409747296520e+01
 1.082395417477183e+00	 1.278297758831331e+00	 1.191140771380284e+01
 1.055749361701686e+00	 1.300391589205274e+00	 1.111847630972850e+01
 1.028681643551331e+00	 1.321907362953348e+00	 1.038383433889685e+01
 1.001211071653750e+00	 1.342833344092961e+00	 9.715924372203801e+00
 9.733568733423418e-01	 1.363158610407109e+00	 9.123045749822980e+00
 9.451386508819374e-01	 1.382873071043896e+00	 8.613300488387516e+00
 9.165763368912295e-01	 1.401967481313083e+00	 8.194540317995259e+00
 1.188823275869750e+00	 1.188823275869750e+00	 1.147734466940888e+01
 1.163949644650594e+00	 1.213187037194693e+00	 1.192650893371125e+01
 1.138582304281854e+00	 1.237025423698325e+00	 1.256669805324844e+01
 1.112738036348330e+00	 1.260323619140700e+00	 1.263391357684931e+01
 1.086434206349094e+00	 1.283067526584397e+00	 1.183046228394351e+01
 1.059688724992763e+00	 1.305243796623667e+00	 1.107250270126945e+01
 1.032520007894430e+00	 1.326839853109469e+00	 1.036846957764502e+01
 1.004946933863175e+00	 1.347843916268232e+00	 9.726726459715898e+00
 9.769888019761761e-01	 1.368245023128412e+00	 9.155510906609749e+00
 9.486652876410454e-01	 1.388033045185678e+00	 8.662880239687347e+00
 9.199963978519178e-01	 1.407198703254676e+00	 8.256658330408225e+00
 1.193242693250000e+00	 1.193242693250000e+00	 1.153955823501772e+01
 1.168276595001096e+00	 1.217697026177599e+00	 1.204314242164152e+01
 1.142814952252537e+00	 1.241624031217757e+00	 1.273652320292339e+01
 1.116874608974198e+00	 1.265008837051569e+00	 1.251844274089735e+01
 1.090472995220908e+00	 1.287837294336642e+00	 1.175368579993121e+01
 1.063628088283843e+00	 1.310096004041184e+00	 1.103016868204663e+01
 1.036358372237633e+00	 1.331772343264670e+00	 1.035623131743785e+01
 1.008682796072804e+00	 1.352854488442549e+00	 9.740159705560270e+00
 9.806207306103155e-01	 1.373331435848735e+00	 9.190131060774142e+00
 9.521919244005584e-01	 1.393193019326464e+00	 8.714159397733285e+00
 9.234164588131116e-01	 1.412429925195270e+00	 8.320042063439388e+00
 8.892158492239141e-01	 1.360117705744333e+00	 7.740143214275351e+00
 8.611919357655553e-01	 1.378032455989265e+00	 7.825609857484014e+00
 8.328736631961249e-01	 1.395330233722280e+00	 7.845144820880147e+00
 8.042810663511559e-01	 1.412004591455920e+00	 7.801127806702523e+00
 7.754343237987309e-01	 1.428049932410381e+00	 7.696187293239348e+00
 7.463537137016183e-01	 1.443461511099561e+00	 7.533165691554952e+00
 7.170595700862009e-01	 1.458235431242151e+00	 7.315084395657513e+00
 6.875722397012348e-01	 1.472368641059446e+00	 7.045109074682836e+00
 6.579120396418046e-01	 1.485858926035341e+00	 6.726515537754585e+00
 6.280992159050719e-01	 1.498704899226743e+00	 6.362656480654053e+00
 5.981539030346663e-01	 1.510905989224438e+00	 5.834832654385831e+00
 8.926359101805597e-01	 1.365348927693926e+00	 7.793043563638983e+00
 8.645042124389483e-01	 1.383332580824695e+00	 7.872822518596371e+00
 8.360770234359883e-01	 1.400696888472176e+00	 7.886653134877518e+00
 8.073744550642719e-01	 1.417435378350882e+00	 7.837045199983214e+00
 7.784167635017579e-01	 1.433542432154935e+00	 7.726754802823688e+00
 7.492243049041478e-01	 1.449013286146367e+00	 7.558748785770064e+00
 7.198174915056166e-01	 1.463844029058171e+00	 7.336169124893447e+00
 6.902167483116450e-01	 1.478031597374035e+00	 7.062297591861133e+00
 6.604424705599888e-01	 1.491573768060485e+00	 6.740521032514549e+00
 6.305149821170289e-01	 1.504469148840036e+00	 6.374297575061647e+00
 6.004544949669445e-01	 1.516717166105746e+00	 5.857299507101564e+00
 8.960559711377111e-01	 1.370580149642521e+00	 7.847006746274676e+00
 8.678164891129363e-01	 1.388632705659136e+00	 7.921213406910812e+00
 8.392803836765155e-01	 1.406063543221113e+00	 7.929445216148409e+00
 8.104678437781005e-01	 1.422866165244939e+00	 7.874342489103134e+00
 7.813992032055257e-01	 1.439034931898658e+00	 7.758789386018427e+00
 7.520948961074254e-01	 1.454565061192434e+00	 7.585877655653045e+00
 7.225754129257681e-01	 1.469452626873565e+00	 7.358870341648799e+00
 6.928612569227585e-01	 1.483694553688130e+00	 7.081165810277678e+00
 6.629729014788250e-01	 1.497288610085289e+00	 6.756262438992196e+00
 6.329307483295660e-01	 1.510233398453158e+00	 6.387724282542814e+00
 6.027550868997125e-01	 1.522528342987074e+00	 5.881212120337739e+00
 8.994760320953675e-01	 1.375811371590114e+00	 7.902058538475847e+00
 8.711287657875193e-01	 1.393932830492588e+00	 7.970805147126421e+00
 8.424837439177072e-01	 1.411430197969092e+00	 7.973540586507958e+00
 8.135612324926411e-01	 1.428296952138089e+00	 7.913036149356017e+00
 7.843816429100336e-01	 1.444527431641547e+00	 7.792304535380135e+00
 7.549654873114510e-01	 1.460116836237760e+00	 7.614562881967373e+00
 7.253333343466550e-01	 1.475061224688332e+00	 7.383195792705758e+00
 6.955057655345755e-01	 1.489357510001731e+00	 7.101718727096348e+00
 6.655033323983124e-01	 1.503003452109750e+00	 6.773742095307938e+00
 6.353465145426834e-01	 1.515997648066111e+00	 6.402936378596511e+00
 6.050556788329702e-01	 1.528339519868424e+00	 5.906581590703798e+00
 9.028960930535292e-01	 1.381042593536708e+00	 7.958224593336217e+00
 8.744410424626970e-01	 1.399232955325050e+00	 8.021620276397289e+00
 8.456871041595623e-01	 1.416796852716114e+00	 8.018958714921865e+00
 8.166546212078944e-01	 1.433727739030334e+00	 7.953142636864512e+00
 7.873640826152819e-01	 1.450019931383602e+00	 7.827313756901498e+00
 7.578360785162251e-01	 1.465668611282346e+00	 7.644815090394985e+00
 7.280912557682777e-01	 1.480669822502471e+00	 7.409153300075571e+00
 6.981502741470955e-01	 1.495020466314838e+00	 7.123961443805596e+00
 6.680337633184514e-01	 1.508718294133869e+00	 6.792962471744680e+00
 6.377622807563811e-01	 1.521761897678893e+00	 6.419933797429805e+00
 6.073562707667176e-01	 1.534150696749793e+00	 5.933419198734341e+00
 9.063161540121963e-01	 1.386273815482302e+00	 8.015530443075454e+00
 8.777533191384701e-01	 1.404533080156522e+00	 8.073681245984581e+00
 8.488904644020812e-01	 1.422163507462178e+00	 8.065719018503074e+00
 8.197480099238597e-01	 1.439158525921673e+00	 7.994678388942684e+00
 7.903465223212706e-01	 1.455512431124824e+00	 7.863830569756809e+00
 7.607066697217468e-01	 1.471220386326192e+00	 7.676644950688436e+00
 7.308491771906361e-01	 1.486278420315983e+00	 7.436750759580271e+00
 7.007947827603194e-01	 1.500683422627451e+00	 7.147899164250708e+00
 6.705641942392422e-01	 1.514433136157647e+00	 6.813926168255627e+00
 6.401780469706588e-01	 1.527526147291506e+00	 6.438716628962657e+00
 6.096568627009548e-01	 1.539961873631183e+00	 5.961736405418300e+00
 9.097362149713688e-01	 1.391505037426895e+00	 8.074001501309951e+00
 8.810655958148377e-01	 1.409833204987005e+00	 8.127010422870631e+00
 8.520938246452641e-01	 1.427530162207282e+00	 8.113840863487582e+00
 8.228413986405373e-01	 1.444589312812105e+00	 8.037659824447896e+00
 7.933289620279993e-01	 1.461004930865214e+00	 7.901868506054511e+00
 7.635772609280168e-01	 1.476772161369298e+00	 7.710063175842787e+00
 7.336070986137304e-01	 1.491887018128869e+00	 7.465996139463821e+00
 7.034392913742465e-01	 1.506346378939569e+00	 7.173537192709158e+00
 6.730946251606840e-01	 1.520147978181083e+00	 6.836635912025740e+00
 6.425938131855167e-01	 1.533290396903949e+00	 6.459285115901631e+00
 6.119574546356817e-01	 1.545773050512594e+00	 5.991544848808219e+00
 9.131562759310466e-01	 1.396736259370489e+00	 8.133663065274973e+00
 8.843778724918004e-01	 1.415133329816498e+00	 8.181630091337837e+00
 8.552971848891112e-01	 1.432896816951430e+00	 8.163343566185530e+00
 8.259347873579275e-01	 1.450020099701632e+00	 8.082103344127896e+00
 7.963114017354684e-01	 1.466497430604770e+00	 7.941441110595122e+00
 7.664478521350345e-01	 1.482323936411663e+00	 7.745080521285736e+00
 7.363650200375601e-01	 1.497495615941127e+00	 7.496897479037580e+00
 7.060837999888770e-01	 1.512009335251193e+00	 7.200880932010214e+00
 6.756250560827777e-01	 1.525862820204178e+00	 6.861094555089396e+00
 6.450095794009549e-01	 1.539054646516221e+00	 6.481639650877851e+00
 6.142580465708982e-01	 1.551584227394026e+00	 6.022856340703219e+00
 9.165763368912295e-01	 1.401967481313083e+00	 8.194540317995259e+00
 8.876901491693577e-01	 1.420433454645002e+00	 8.237562454510565e+00
 8.585005451336221e-01	 1.438263471694619e+00	 8.214246393914834e+00
 8.290281760760296e-01	 1.455450886590253e+00	 8.128025330958010e+00
 7.992938414436781e-01	 1.471989930343493e+00	 7.982561940634263e+00
 7.693184433428004e-01	 1.487875711453288e+00	 7.781707784085890e+00
 7.391229414621255e-01	 1.503104213752758e+00	 7.529462887353136e+00
 7.087283086042114e-01	 1.517672291562324e+00	 7.229935881695755e+00
 6.781554870055228e-01	 1.531577662226930e+00	 6.887305072001682e+00
 6.474253456169733e-01	 1.544818896128324e+00	 6.505780773651132e+00
 6.165586385066044e-01	 1.557395404275478e+00	 6.055682863408309e+00
 9.199963978519178e-01	 1.407198703254676e+00	 8.256658330408225e+00
 8.910024258475104e-01	 1.425733579472517e+00	 8.294829635864781e+00
 8.617039053787966e-01	 1.443630126436850e+00	 8.266568565909690e+00
 8.321215647948442e-01	 1.460881673477967e+00	 8.175442150472007e+00
 8.022762811526276e-01	 1.477482430081382e+00	 8.025244565651196e+00
 7.721890345513144e-01	 1.493427486494173e+00	 7.819955802179082e+00
 7.418808628874268e-01	 1.508712811563762e+00	 7.563700541906277e+00
 7.113728172202488e-01	 1.523335247872960e+00	 7.260707636223804e+00
 6.806859179289194e-01	 1.537292504249342e+00	 6.915270557560273e+00
 6.498411118335717e-01	 1.550583145740256e+00	 6.531709168374222e+00
 6.188592304428006e-01	 1.563206581156950e+00	 6.090036566564255e+00
 9.234164588131116e-01	 1.412429925195270e+00	 8.320042063439388e+00
 8.943147025262583e-01	 1.431033704299042e+00	 8.353453680702259e+00
 8.649072656246355e-01	 1.448996781178123e+00	 8.320329254212492e+00
 8.352149535143714e-01	 1.466312460364777e+00	 8.224370151084061e+00
 8.052587208623180e-01	 1.482974929818439e+00	 8.069502567122314e+00
 7.750596257605765e-01	 1.498979261534318e+00	 7.859835453610899e+00
 7.446387843134635e-01	 1.514321409374140e+00	 7.599618687370510e+00
 7.140173258369897e-01	 1.528998204183102e+00	 7.293201883209548e+00
 6.832163488529674e-01	 1.543007346271411e+00	 6.944994224578794e+00
 6.522568780507507e-01	 1.556347395352019e+00	 6.559425660919036e+00
 6.211598223794863e-01	 1.569017758038443e+00	 6.125929764050039e+00
 5.981539030346663e-01	 1.510905989224438e+00	 5.834832654385831e+00
 5.680960850001697e-01	 1.522462425874857e+00	 5.453375052803217e+00
 5.379455574460040e-01	 1.533375223883753e+00	 5.076415807362812e+00
 5.077218914329505e-01	 1.543646164429884e+00	 4.711082229993142e+00
 4.774443987833440e-01	 1.553277774923845e+00	 4.363777108428031e+00
 4.471320991271145e-01	 1.562273307054313e+00	 4.040146160978570e+00
 4.168036887336734e-01	 1.570636713267633e+00	 3.745053361808124e+00
 3.864775112014002e-01	 1.578372621830225e+00	 3.482564039851584e+00
 3.561715300634783e-01	 1.585486310625523e+00	 3.255935573229728e+00
 3.259033033559553e-01	 1.591983679838119e+00	 3.067615426358665e+00
 2.956899601812942e-01	 1.597871223677692e+00	 2.919246209581284e+00
 6.004544949669445e-01	 1.516717166105746e+00	 5.857299507101564e+00
 5.702810699406512e-01	 1.528318050588254e+00	 5.481782101707553e+00
 5.400145788195776e-01	 1.539272820896208e+00	 5.109735239685456e+00
 5.096746679378160e-01	 1.549583265059052e+00	 4.748354412644523e+00
 4.792807233939410e-01	 1.559251920208185e+00	 4.404107142769021e+00
 4.488518379703058e-01	 1.568282050538780e+00	 4.082699930774224e+00
 4.184067798450501e-01	 1.576677623698894e+00	 3.789053145798166e+00
 3.879639631688556e-01	 1.584443285755970e+00	 3.527283760990184e+00
 3.575414205654178e-01	 1.591584334892991e+00	 3.300695756399840e+00
 3.271567776016927e-01	 1.598106693987561e+00	 3.111777935282359e+00
 2.968272292613070e-01	 1.604016882227088e+00	 2.962208831818351e+00
 6.027550868997125e-01	 1.522528342987074e+00	 5.881212120337739e+00
 5.724660548815224e-01	 1.534173675301857e+00	 5.511198935990243e+00
 5.420836001934404e-01	 1.545170417909021e+00	 5.143652155918281e+00
 5.116274444428703e-01	 1.555520365688698e+00	 4.785837075812347e+00
 4.811170480046262e-01	 1.565226065493095e+00	 4.444287432891015e+00
 4.505715768134845e-01	 1.574290794023875e+00	 4.124771842779491e+00
 4.200098709563136e-01	 1.582718534130813e+00	 3.832268250870059e+00
 3.894504151360970e-01	 1.590513949682374e+00	 3.570946302534562e+00
 3.589113110670430e-01	 1.597682359161087e+00	 3.344157453511229e+00
 3.284102518470154e-01	 1.604229708137575e+00	 3.154432565467130e+00
 2.979644983408051e-01	 1.610162540776969e+00	 3.003486662853113e+00
 6.050556788329702e-01	 1.528339519868424e+00	 5.906581590703798e+00
 5.746510398227829e-01	 1.540029300015663e+00	 5.541637530012415e+00
 5.441526215675925e-01	 1.551068014922191e+00	 5.178179319812417e+00
 5.135802209481134e-01	 1.561457466318822e+00	 4.823543688653069e+00
 4.829533726153996e-01	 1.571200210778572e+00	 4.484332073669999e+00
 4.522913156566505e-01	 1.580299537509599e+00	 4.166376542097741e+00
 4.216129620674638e-01	 1.588759444563391e+00	 3.874713800933439e+00
 3.909368671031247e-01	 1.596584613609435e+00	 3.613567199705954e+00
 3.602812015683537e-01	 1.603780383429812e+00	 3.386336547368198e+00
 3.296637260919236e-01	 1.610352722288160e+00	 3.195595487161845e+00
 2.991017674197885e-01	 1.616308199327335e+00	 3.043096103644913e+00
 6.073562707667176e-01	 1.534150696749793e+00	 5.933419198734341e+00
 5.768360247644333e-01	 1.545884924729676e+00	 5.573109998058991e+00
 5.462216429420340e-01	 1.556965611935718e+00	 5.213329593305582e+00
 5.155329974535452e-01	 1.567394566949424e+00	 4.861487779080591e+00
 4.847896972262609e-01	 1.577174356064618e+00	 4.524255181653804e+00
 4.540110544998041e-01	 1.586308280995951e+00	 4.207528660796196e+00
 4.232160531785009e-01	 1.594800354996627e+00	 3.916404874555130e+00
 3.924233190699384e-01	 1.602655277537155e+00	 3.655161912495897e+00
 3.616510920693503e-01	 1.609878407699167e+00	 3.427248818090487e+00
 3.309172003364172e-01	 1.616475736439316e+00	 3.235282742916523e+00
 3.002390364982573e-01	 1.622453857878187e+00	 3.081053404881666e+00
 6.096568627009548e-01	 1.539961873631183e+00	 5.961736405418300e+00
 5.790210097064733e-01	 1.551740549443892e+00	 5.605628591699849e+00
 5.482906643167648e-01	 1.562863208949603e+00	 5.249115934670573e+00
 5.174857739591655e-01	 1.573331667580505e+00	 4.899682932656991e+00
 4.866260218372105e-01	 1.583148501351233e+00	 4.564070894653562e+00
 4.557307933429451e-01	 1.592317024482932e+00	 4.248242818151690e+00
 4.248191442894248e-01	 1.600841265430521e+00	 3.957356505813935e+00
 3.939097710365385e-01	 1.608725941465533e+00	 3.695745827084809e+00
 3.630209825700325e-01	 1.615976431969152e+00	 3.466909945051534e+00
 3.321706745804961e-01	 1.622598750591043e+00	 3.273510249992235e+00
 3.013763055762114e-01	 1.628599516429524e+00	 3.117374669813170e+00
 6.119574546356817e-01	 1.545773050512594e+00	 5.991544848808219e+00
 5.812059946489028e-01	 1.557596174158313e+00	 5.639205697208872e+00
 5.503596856917846e-01	 1.568760805963843e+00	 5.285551396704178e+00
 5.194385504649748e-01	 1.579268768212063e+00	 4.938142791509578e+00
 4.884623464482482e-01	 1.589122646638416e+00	 4.603793371344539e+00
 4.574505321860734e-01	 1.598325767970541e+00	 4.288533620891219e+00
 4.264222354002353e-01	 1.606882175865073e+00	 3.997583685136784e+00
 3.953962230029244e-01	 1.614796605394570e+00	 3.735334257230044e+00
 3.643908730704004e-01	 1.622074456239764e+00	 3.505335508771434e+00
 3.334241488241605e-01	 1.628721764743343e+00	 3.310293802715917e+00
 3.025135746536508e-01	 1.634745174981347e+00	 3.152075857024135e+00
 6.142580465708982e-01	 1.551584227394026e+00	 6.022856340703219e+00
 5.833909795917219e-01	 1.563451798872938e+00	 5.673853833041402e+00
 5.524287070670939e-01	 1.574658402978441e+00	 5.322649124956582e+00
 5.213913269709730e-01	 1.585205868844101e+00	 4.976881053271256e+00
 4.902986710593740e-01	 1.595096791926168e+00	 4.643436790874623e+00
 4.591702710291893e-01	 1.604334511458779e+00	 4.328415663426445e+00
 4.280253265109326e-01	 1.612923086300283e+00	 4.037101360116361e+00
 3.968826749690968e-01	 1.620867269324265e+00	 3.773942445621177e+00
 3.657607635704538e-01	 1.628172480511006e+00	 3.542540992768469e+00
 3.346776230674101e-01	 1.634844778896212e+00	 3.345649074782299e+00
 3.036508437305756e-01	 1.640890833533655e+00	 3.185172783142239e+00
 6.165586385066044e-01	 1.557395404275478e+00	 6.055682863408309e+00
 5.855759645349308e-01	 1.569307423587768e+00	 5.709585647368401e+00
 5.544977284426924e-01	 1.580555999993397e+00	 5.360422356001408e+00
 5.233441034771597e-01	 1.591142969476616e+00	 5.015911470045209e+00
 4.921349956705878e-01	 1.601070937214489e+00	 4.683015352482073e+00
 4.608900098722927e-01	 1.610343254947645e+00	 4.367903528084454e+00
 4.296284176215167e-01	 1.618963996736152e+00	 4.075924436310927e+00
 3.983691269350552e-01	 1.626937933254618e+00	 3.811585565207292e+00
 3.671306540701930e-01	 1.634270504782878e+00	 3.578541785368811e+00
 3.359310973102453e-01	 1.640967793049654e+00	 3.379591621505077e+00
 3.047881128069858e-01	 1.647036492086448e+00	 3.216681125487351e+00
 6.188592304428006e-01	 1.563206581156950e+00	 6.090036566564255e+00
 5.877609494785291e-01	 1.575163048302803e+00	 5.746413915664675e+00
 5.565667498185800e-01	 1.586453597008709e+00	 5.398884415743918e+00
 5.252968799835352e-01	 1.597080070109610e+00	 5.055247847392097e+00
 4.939713202818898e-01	 1.607045082503378e+00	 4.722543275123986e+00
 4.626097487153834e-01	 1.616351998437140e+00	 4.407011785331476e+00
 4.312315087319875e-01	 1.625004907172679e+00	 4.114067778023995e+00
 3.998555789007996e-01	 1.633008597185629e+00	 3.848278720491623e+00
 3.685005445696179e-01	 1.640368529055378e+00	 3.613353181475783e+00
 3.371845715526657e-01	 1.647090807203667e+00	 3.412136882016663e+00
 3.059253818828811e-01	 1.653182150639726e+00	 3.246616424659899e+00
 6.211598223794863e-01	 1.569017758038443e+00	 6.125929764050039e+00
 5.899459344225172e-01	 1.581018673018042e+00	 5.784351538352318e+00
 5.586357711947575e-01	 1.592351194024379e+00	 5.438048717766103e+00
 5.272496564900997e-01	 1.603017170743082e+00	 5.094904043340652e+00
 4.958076448932801e-01	 1.613019227792837e+00	 4.762034797108551e+00
 4.643294875584616e-01	 1.622360741927263e+00	 4.445754993992892e+00
 4.328345998423452e-01	 1.631045817609864e+00	 4.151546209070391e+00
 4.013420308663305e-01	 1.639079261117299e+00	 3.884036948800874e+00
 3.698704350687285e-01	 1.646466553328508e+00	 3.646990384300269e+00
 3.384380457946716e-01	 1.653213821358251e+00	 3.443300181420022e+00
 3.070626509582619e-01	 1.659327809193490e+00	 3.274994087074028e+00
 2.956899601812942e-01	 1.597871223677692e+00	 2.919246209581284e+00
 2.655481792878333e-01	 1.603156001294210e+00	 2.757307257321528e+00
 2.354941696761790e-01	 1.607845607033304e+00	 2.610330589875201e+00
 2.055436532290555e-01	 1.611948140178152e+00	 2.478093928913991e+00
 1.757118493506961e-01	 1.615472174320238e+00	 2.359715681183940e+00
 1.460134615946999e-01	 1.618426726496131e+00	 2.253684222177561e+00
 1.164626662474424e-01	 1.620821226222415e+00	 2.157891244173197e+00
 8.707310282611766e-02	 1.622665484554890e+00	 2.069668635932588e+00
 5.785786644259735e-02	 1.623969663291593e+00	 1.985828357447895e+00
 2.882950197718375e-02	 1.624744244432313e+00	 1.902704775963781e+00
 0.000000000000000e+00	 1.625000000000000e+00	 1.816198938510218e+00
 2.968272292613070e-01	 1.604016882227088e+00	 2.962208831818351e+00
 2.665695184415892e-01	 1.609321985911987e+00	 2.798344603734552e+00
 2.363999164854154e-01	 1.614029628596787e+00	 2.649396669337569e+00
 2.063342057442913e-01	 1.618147940715754e+00	 2.515201397295646e+00
 1.763876641586224e-01	 1.621685528835727e+00	 2.394927400470315e+00
 1.465750518341391e-01	 1.624651444674184e+00	 2.287104945625369e+00
 1.169105995813979e-01	 1.627055154015083e+00	 2.189659488887634e+00
 8.740799937727638e-02	 1.628906505649055e+00	 2.099948798556722e+00
 5.808039669946360e-02	 1.630215700457977e+00	 2.014803122764472e+00
 2.894038467780381e-02	 1.630993260757022e+00	 1.930567862226568e+00
 0.000000000000000e+00	 1.631250000000000e+00	 1.843148217322328e+00
 2.979644983408051e-01	 1.610162540776969e+00	 3.003486662853113e+00
 2.675908575947467e-01	 1.615487970530155e+00	 2.837736300084694e+00
 2.373056632940009e-01	 1.620213650160576e+00	 2.686884611416402e+00
 2.071247582588548e-01	 1.624347741253588e+00	 2.550826533335575e+00
 1.770634789658858e-01	 1.627898883351386e+00	 2.428780682374801e+00
 1.471366420729549e-01	 1.630876162852356e+00	 2.319318895928416e+00
 1.173585329147985e-01	 1.633289081807827e+00	 2.220399960750744e+00
 8.774289592797750e-02	 1.635147526743263e+00	 2.129406984950129e+00
 5.830292695599756e-02	 1.636461737624380e+00	 2.043187865026183e+00
 2.905126737824433e-02	 1.637242277081736e+00	 1.958098302140658e+00
 0.000000000000000e+00	 1.637500000000000e+00	 1.870046830787503e+00
 2.991017674197885e-01	 1.616308199327335e+00	 3.043096103644913e+00
 2.686121967473054e-01	 1.621653955148714e+00	 2.875496835262264e+00
 2.382114101019355e-01	 1.626397671724672e+00	 2.722806997062563e+00
 2.079153107727464e-01	 1.630547541791658e+00	 2.584980019276279e+00
 1.777392937724865e-01	 1.634112237867216e+00	 2.461284324355642e+00
 1.476982323111471e-01	 1.637100881030644e+00	 2.350333003979673e+00
 1.178064662476441e-01	 1.639523009600644e+00	 2.250117746202081e+00
 8.807779247822094e-02	 1.641388547837511e+00	 2.158046462707469e+00
 5.852545721219923e-02	 1.642707774790801e+00	 2.070984061701693e+00
 2.916215007850534e-02	 1.643491293406455e+00	 1.985295814499983e+00
 0.000000000000000e+00	 1.643750000000000e+00	 1.896892772838493e+00
 3.002390364982573e-01	 1.622453857878187e+00	 3.081053404881666e+00
 2.696335358992656e-01	 1.627819939767663e+00	 2.911640559401605e+00
 2.391171569092192e-01	 1.632581693289076e+00	 2.757176281587008e+00
 2.087058632859658e-01	 1.636747342329960e+00	 2.617672426381566e+00
 1.784151085784243e-01	 1.640325592383216e+00	 2.492447029050404e+00
 1.482598225487158e-01	 1.643325599209050e+00	 2.380154123450232e+00
 1.182543995799348e-01	 1.645756937393537e+00	 2.278817873442075e+00
 8.841268902800672e-02	 1.647629568931802e+00	 2.185870461496719e+00
 5.874798746806859e-02	 1.648953811957240e+00	 2.098193173916714e+00
 2.927303277858682e-02	 1.649740309731178e+00	 2.012160124548242e+00
 0.000000000000000e+00	 1.650000000000000e+00	 1.923684067802629e+00
 3.013763055762114e-01	 1.628599516429524e+00	 3.117374669813170e+00
 2.706548750506272e-01	 1.633985924387004e+00	 2.946181686500241e+00
 2.400229037158520e-01	 1.638765714853786e+00	 2.790004797030693e+00
 2.094964157985132e-01	 1.642947142868496e+00	 2.648914217031543e+00
 1.790909233836995e-01	 1.646538946899387e+00	 2.522277406065358e+00
 1.488214127856610e-01	 1.649550317387573e+00	 2.408789032245378e+00
 1.187023329116705e-01	 1.651990865186505e+00	 2.306505313532124e+00
 8.874758557733488e-02	 1.653870590026135e+00	 2.212882173775951e+00
 5.897051772360567e-02	 1.655199849123698e+00	 2.124816646760569e+00
 2.938391547848877e-02	 1.655989326055905e+00	 2.038690963857161e+00
 0.000000000000000e+00	 1.656250000000000e+00	 1.950418769829255e+00
 3.025135746536508e-01	 1.634745174981347e+00	 3.152075857024135e+00
 2.716762142013902e-01	 1.640151909006734e+00	 2.979134296977618e+00
 2.409286505218340e-01	 1.644949736418803e+00	 2.821304754482384e+00
 2.102869683103885e-01	 1.649146943407266e+00	 2.678715746768385e+00
 1.797667381883118e-01	 1.652752301415727e+00	 2.550783973723172e+00
 1.493830030219827e-01	 1.655775035566215e+00	 2.436244433929431e+00
 1.191502662428514e-01	 1.658224792979547e+00	 2.333184981467470e+00
 8.908248212620537e-02	 1.660111611120509e+00	 2.239084755491048e+00
 5.919304797881043e-02	 1.661445886290174e+00	 2.150855909589066e+00
 2.949479817821121e-02	 1.662238342380638e+00	 2.064888070207425e+00
 0.000000000000000e+00	 1.662500000000000e+00	 1.977094962328518e+00
 3.036508437305756e-01	 1.640890833533655e+00	 3.185172783142239e+00
 2.726975533515546e-01	 1.646317893626857e+00	 3.010512340176360e+00
 2.418343973271651e-01	 1.651133757984127e+00	 2.851088246342642e+00
 2.110775208215916e-01	 1.655346743946270e+00	 2.707087266297304e+00
 1.804425529922614e-01	 1.658965655932239e+00	 2.577975160773301e+00
 1.499445932576808e-01	 1.661999753744974e+00	 2.462526959117516e+00
 1.195981995734772e-01	 1.664458720772664e+00	 2.358861737227404e+00
 8.941737867461820e-02	 1.666352632214925e+00	 2.264481326760535e+00
 5.941557823368290e-02	 1.667691923456669e+00	 2.176312376317938e+00
 2.960568087775412e-02	 1.668487358705375e+00	 2.090751187472677e+00
 0.000000000000000e+00	 1.668750000000000e+00	 2.003710757423178e+00
 3.047881128069858e-01	 1.647036492086448e+00	 3.216681125487351e+00
 2.737188925011204e-01	 1.652483878247369e+00	 3.040329636807688e+00
 2.427401441318452e-01	 1.657317779549757e+00	 2.879367248539204e+00
 2.118680733321227e-01	 1.661546544485506e+00	 2.734038923443570e+00
 1.811183677955482e-01	 1.665179010448920e+00	 2.603859308062919e+00
 1.505061834927555e-01	 1.668224471923850e+00	 2.487643166836845e+00
 1.200461329035482e-01	 1.670692648565856e+00	 2.383540386802538e+00
 8.975227522257340e-02	 1.672593653309383e+00	 2.289074972543849e+00
 5.963810848822310e-02	 1.673937960623182e+00	 2.201187445711875e+00
 2.971656357711749e-02	 1.674736375030116e+00	 2.116280065506066e+00
 0.000000000000000e+00	 1.675000000000000e+00	 2.030264295413667e+00
 3.059253818828811e-01	 1.653182150639726e+00	 3.246616424659899e+00
 2.747402316500878e-01	 1.658649862868273e+00	 3.068599881342890e+00
 2.436458909358746e-01	 1.663501801115695e+00	 2.906153622690905e+00
 2.126586258419818e-01	 1.667746345024976e+00	 2.759580765062947e+00
 1.817941825981722e-01	 1.671392364965773e+00	 2.628444670170269e+00
 1.510677737272065e-01	 1.674449190102844e+00	 2.511599545857440e+00
 1.204940662330642e-01	 1.676926576359123e+00	 2.407225683197084e+00
 9.008717177007092e-02	 1.678834674403883e+00	 2.312868743294710e+00
 5.986063874243096e-02	 1.680183997789714e+00	 2.225482501665547e+00
 2.982744627630135e-02	 1.680985391354862e+00	 2.141474460028105e+00
 0.000000000000000e+00	 1.681250000000000e+00	 2.056753744253730e+00
 3.070626509582619e-01	 1.659327809193490e+00	 3.274994087074028e+00
 2.757615707984564e-01	 1.664815847489567e+00	 3.095336644350242e+00
 2.445516377392530e-01	 1.669685822681940e+00	 2.931459118225782e+00
 2.134491783511687e-01	 1.673946145564679e+00	 2.783722738912785e+00
 1.824699974001335e-01	 1.677605719482796e+00	 2.651739417002850e+00
 1.516293639610341e-01	 1.680673908281956e+00	 2.534402515992391e+00
 1.209419995620252e-01	 1.683160504152465e+00	 2.429922327410838e+00
 9.042206831711083e-02	 1.685075695498425e+00	 2.335865655600055e+00
 6.008316899630656e-02	 1.686430034956264e+00	 2.249198913478928e+00
 2.993832897530568e-02	 1.687234407679612e+00	 2.166334132518865e+00
 0.000000000000000e+00	 1.687500000000000e+00	 2.083177299038859e+00
 1.687500000000000e+00	 0.000000000000000e+00	 1.323690614599388e+01
 1.687234407679612e+00	 2.993832897530472e-02	 1.335358964180427e+01
 1.686430034956264e+00	 6.008316899630570e-02	 1.344987315003789e+01
 1.685075695498425e+00	 9.042206831711008e-02	 1.352591085410931e+01
 1.683160504152464e+00	 1.209419995620246e-01	 1.358208392913662e+01
 1.680673908281956e+00	 1.516293639610336e-01	 1.361900639073520e+01
 1.677605719482796e+00	 1.824699974001331e-01	 1.363752924500296e+01
 1.673946145564679e+00	 2.134491783511683e-01	 1.363874278747819e+01
 1.669685822681940e+00	 2.445516377392528e-01	 1.362397690832184e+01
 1.664815847489567e+00	 2.757615707984563e-01	 1.359479927304458e+01
 1.659327809193490e+00	 3.070626509582619e-01	 1.355301126280408e+01
 1.693750000000000e+00	 0.000000000000000e+00	 1.320177295211908e+01
 1.693483424004365e+00	 3.004921167430905e-02	 1.331776017322124e+01
 1.692676072122824e+00	 6.030569925018127e-02	 1.341370171042868e+01
 1.691316716592987e+00	 9.075696486414997e-02	 1.348977681772649e+01
 1.689394431945843e+00	 1.213899328909856e-01	 1.354639359705173e+01
 1.686898626461127e+00	 1.521909541948612e-01	 1.358419480378147e+01
 1.683819073999904e+00	 1.831458122020943e-01	 1.360406193237442e+01
 1.680145946104500e+00	 2.142397308603553e-01	 1.360711742877457e+01
 1.675869844248338e+00	 2.454573845426312e-01	 1.359472488580770e+01
 1.670981832111057e+00	 2.767829099468250e-01	 1.356848709004730e+01
 1.665473467747497e+00	 3.081999200336427e-01	 1.353024180353724e+01
 1.700000000000000e+00	 0.000000000000000e+00	 1.316770469883691e+01
 1.699732440329118e+00	 3.016009437349289e-02	 1.328296424379451e+01
 1.698922109289383e+00	 6.052822950438915e-02	 1.337852272766120e+01
 1.697557737687550e+00	 9.109186141164750e-02	 1.345458449406138e+01
 1.695628359739222e+00	 1.218378662205016e-01	 1.351158463089339e+01
 1.693123344640297e+00	 1.527525444293123e-01	 1.355019473381919e+01
 1.690032428517012e+00	 1.838216270047183e-01	 1.357132692867124e+01
 1.686345746644320e+00	 2.150302833702142e-01	 1.357613599819061e+01
 1.682053865814736e+00	 2.463631313466605e-01	 1.356601946828773e+01
 1.677147816732546e+00	 2.778042490957921e-01	 1.354261552143922e+01
 1.671619126301503e+00	 3.093371891095381e-01	 1.350779861995234e+01
 1.706250000000000e+00	 0.000000000000000e+00	 1.313467987890242e+01
 1.705981456653871e+00	 3.027097707285627e-02	 1.324917971239447e+01
 1.705168146455942e+00	 6.075075975892932e-02	 1.334431343807377e+01
 1.703798758782112e+00	 9.142675795960269e-02	 1.342031051008025e+01
 1.701862287532601e+00	 1.222857995505725e-01	 1.347763306332059e+01
 1.699348062819467e+00	 1.533141346643870e-01	 1.351698163626517e+01
 1.696245783034120e+00	 1.844974418080051e-01	 1.353929913122478e+01
 1.692545547184140e+00	 2.158208358807454e-01	 1.354577285630880e+01
 1.688237887381133e+00	 2.472688781513406e-01	 1.353783450319399e+01
 1.683313801354036e+00	 2.788255882453579e-01	 1.351715792743817e+01
 1.677764784855510e+00	 3.104744581859482e-01	 1.348565461339670e+01
 1.712500000000000e+00	 0.000000000000000e+00	 1.310267729904494e+01
 1.712230472978624e+00	 3.038185977239917e-02	 1.321638475313688e+01
 1.711414183622501e+00	 6.097329001380181e-02	 1.331105139384040e+01
 1.710039779876674e+00	 9.176165450801552e-02	 1.338693180847863e+01
 1.708096215325980e+00	 1.227337328811984e-01	 1.344451524190399e+01
 1.705572780998638e+00	 1.538757249000851e-01	 1.348453127990531e+01
 1.702459137551228e+00	 1.851732566119547e-01	 1.350795374845639e+01
 1.698745347723960e+00	 2.166113883919485e-01	 1.351600267177420e+01
 1.694421908947532e+00	 2.481746249566718e-01	 1.351014414223589e+01
 1.689479785975525e+00	 2.798469273955224e-01	 1.349208796798866e+01
 1.683910443409516e+00	 3.116117272628728e-01	 1.346378297962098e+01
 1.718750000000000e+00	 0.000000000000000e+00	 1.307167607425950e+01
 1.718479489303377e+00	 3.049274247212160e-02	 1.318455784965135e+01
 1.717660220789061e+00	 6.119582026900659e-02	 1.327871445722840e+01
 1.716280800971236e+00	 9.209655105688599e-02	 1.335442564194078e+01
 1.714330143119358e+00	 1.231816662123792e-01	 1.341220782340019e+01
 1.711797499177809e+00	 1.544373151364067e-01	 1.345281974119731e+01
 1.708672492068336e+00	 1.858490714165671e-01	 1.347726629422095e+01
 1.704945148263781e+00	 2.174019409038238e-01	 1.348680041569317e+01
 1.700605930513929e+00	 2.490803717626537e-01	 1.348292283586803e+01
 1.695645770597015e+00	 2.808682665462853e-01	 1.346737959731219e+01
 1.690056101963523e+00	 3.127489963403123e-01	 1.344215720342635e+01
 1.725000000000000e+00	 0.000000000000000e+00	 1.304165562222232e+01
 1.724728505628130e+00	 3.060362517202355e-02	 1.315367778947423e+01
 1.723906257955620e+00	 6.141835052454363e-02	 1.324728079498075e+01
 1.722521822065799e+00	 9.243144760621412e-02	 1.332276956752410e+01
 1.720564070912737e+00	 1.236295995441150e-01	 1.338068776815060e+01
 1.718022217356979e+00	 1.549989053733518e-01	 1.342182339869663e+01
 1.714885846585444e+00	 1.865248862218422e-01	 1.344721258227403e+01
 1.711144948803601e+00	 2.181924934163711e-01	 1.345814135615405e+01
 1.706789952080327e+00	 2.499861185692865e-01	 1.345614532787812e+01
 1.701811755218505e+00	 2.818896056976470e-01	 1.344300705857630e+01
 1.696201760517529e+00	 3.138862654182665e-01	 1.342075105342805e+01
 1.731250000000000e+00	 0.000000000000000e+00	 1.301259565782716e+01
 1.730977521952883e+00	 3.071450787210503e-02	 1.312372365856273e+01
 1.730152295122179e+00	 6.164088078041300e-02	 1.321672887282007e+01
 1.728762843160361e+00	 9.276634415599994e-02	 1.329194144116482e+01
 1.726797998706116e+00	 1.240775328764057e-01	 1.334993233460151e+01
 1.724246935536150e+00	 1.555604956109206e-01	 1.339151892760364e+01
 1.721099201102552e+00	 1.872007010277801e-01	 1.341776872085814e+01
 1.717344749343422e+00	 2.189830459295906e-01	 1.343000105286657e+01
 1.712973973646725e+00	 2.508918653765703e-01	 1.342978665009222e+01
 1.707977739839994e+00	 2.829109448496073e-01	 1.341894487867875e+01
 1.702347419071536e+00	 3.150235344967352e-01	 1.339953857693246e+01
 1.737500000000000e+00	 0.000000000000000e+00	 1.298447618783979e+01
 1.737226538277636e+00	 3.082539057236603e-02	 1.309467483592785e+01
 1.736398332288739e+00	 6.186341103661466e-02	 1.318703745007132e+01
 1.735003864254923e+00	 9.310124070624338e-02	 1.326191941230266e+01
 1.733031926499494e+00	 1.245254662092513e-01	 1.331991907394248e+01
 1.730471653715320e+00	 1.561220858491128e-01	 1.336188329442817e+01
 1.727312555619660e+00	 1.878765158343807e-01	 1.338891110740648e+01
 1.723544549883241e+00	 2.197735984434821e-01	 1.340235535191667e+01
 1.719157995213124e+00	 2.517976121845049e-01	 1.340382211719403e+01
 1.714143724461484e+00	 2.839322840021660e-01	 1.339516786314466e+01
 1.708493077625542e+00	 3.161608035757187e-01	 1.337849409492463e+01
 1.743750000000000e+00	 0.000000000000000e+00	 1.295727750566722e+01
 1.743475554602388e+00	 3.093627327280654e-02	 1.306651098838241e+01
 1.742644369455298e+00	 6.208594129314861e-02	 1.315818557440022e+01
 1.741244885349486e+00	 9.343613725694445e-02	 1.323268191862077e+01
 1.739265854292874e+00	 1.249733995426519e-01	 1.329062582486016e+01
 1.736696371894490e+00	 1.566836760879286e-01	 1.333289375176900e+01
 1.733525910136768e+00	 1.885523306416441e-01	 1.336061642336012e+01
 1.729744350423062e+00	 2.205641509580457e-01	 1.337518038063449e+01
 1.725342016779521e+00	 2.527033589930904e-01	 1.337822732165599e+01
 1.720309709082974e+00	 2.849536231553233e-01	 1.337165109113301e+01
 1.714638736179549e+00	 3.172980726552168e-01	 1.335759219716360e+01
 1.750000000000000e+00	 0.000000000000000e+00	 1.293098018623923e+01
 1.749724570927141e+00	 3.104715597342660e-02	 1.303921206540174e+01
 1.748890406621857e+00	 6.230847155001487e-02	 1.313015257666415e+01
 1.747485906444048e+00	 9.377103380810323e-02	 1.320420768089865e+01
 1.745499782086252e+00	 1.254213328766073e-01	 1.326203070840422e+01
 1.742921090073661e+00	 1.572452663273678e-01	 1.330452783320503e+01
 1.739739264653876e+00	 1.892281454495704e-01	 1.333286162909660e+01
 1.735944150962882e+00	 2.213547034732815e-01	 1.334845254257208e+01
 1.731526038345920e+00	 2.536091058023268e-01	 1.335297812877850e+01
 1.726475693704463e+00	 2.859749623090794e-01	 1.334836991055043e+01
 1.720784394733555e+00	 3.184353417352296e-01	 1.333680773738297e+01
 1.659327809193490e+00	 3.070626509582619e-01	 1.355301126280408e+01
 1.653213821358251e+00	 3.384380457946705e-01	 1.363195746840538e+01
 1.646466553328508e+00	 3.698704350687277e-01	 1.368794250916815e+01
 1.639079261117299e+00	 4.013420308663297e-01	 1.372087234400103e+01
 1.631045817609864e+00	 4.328345998423445e-01	 1.373081812188131e+01
 1.622360741927263e+00	 4.643294875584612e-01	 1.371800901621340e+01
 1.613019227792837e+00	 4.958076448932799e-01	 1.368282304649439e+01
 1.603017170743082e+00	 5.272496564900995e-01	 1.362577590224543e+01
 1.592351194024379e+00	 5.586357711947575e-01	 1.354750781033752e+01
 1.581018673018042e+00	 5.899459344225172e-01	 1.344876851396406e+01
 1.569017758038443e+00	 6.211598223794863e-01	 1.333040045920843e+01
 1.665473467747497e+00	 3.081999200336427e-01	 1.353024180353724e+01
 1.659336835513121e+00	 3.396915200366789e-01	 1.360601161838326e+01
 1.652564577601952e+00	 3.712403255678477e-01	 1.365980395972209e+01
 1.645149925049297e+00	 4.028284828318817e-01	 1.369163176636969e+01
 1.637086728047378e+00	 4.344376909527403e-01	 1.370167455455724e+01
 1.628369485417700e+00	 4.660492264015991e-01	 1.369027073803540e+01
 1.618993373082579e+00	 4.976439695047564e-01	 1.365790789923586e+01
 1.608954271376793e+00	 5.292024329967823e-01	 1.360521102881321e+01
 1.598248791040227e+00	 5.607047925710897e-01	 1.353292877755546e+01
 1.586874297733384e+00	 5.921309193667030e-01	 1.344191779226764e+01
 1.574828934919947e+00	 6.234604143164172e-01	 1.333312523541084e+01
 1.671619126301503e+00	 3.093371891095381e-01	 1.350779861995234e+01
 1.665459849667991e+00	 3.409449942791063e-01	 1.358049446817613e+01
 1.658662601875397e+00	 3.726102160673008e-01	 1.363218781357535e+01
 1.651220588981296e+00	 4.043149347976904e-01	 1.366299862725731e+01
 1.643127638484892e+00	 4.360407820633255e-01	 1.367321488033694e+01
 1.634378228908138e+00	 4.677689652448694e-01	 1.366328434947473e+01
 1.624967518372321e+00	 4.994802941163183e-01	 1.363380433695632e+01
 1.614891372010504e+00	 5.311552095035129e-01	 1.358550932499821e+01
 1.604146388056075e+00	 5.627738139474437e-01	 1.351925661112609e+01
 1.592729922448725e+00	 5.943159043108938e-01	 1.343600999958309e+01
 1.580640111801450e+00	 6.257610062533474e-01	 1.332852927155101e+01
 1.677764784855510e+00	 3.104744581859482e-01	 1.348565461339670e+01
 1.671582863822860e+00	 3.421984685219530e-01	 1.355537602132316e+01
 1.664760626148841e+00	 3.739801065670871e-01	 1.360506122236153e+01
 1.657291252913295e+00	 4.058013867637552e-01	 1.363493727923357e+01
 1.649168548922406e+00	 4.376438731741000e-01	 1.364540071261196e+01
 1.640386972398575e+00	 4.694887040882719e-01	 1.363700879175515e+01
 1.630941663662064e+00	 5.013166187279652e-01	 1.361046870290096e+01
 1.620828472644215e+00	 5.331079860102919e-01	 1.356662461746211e+01
 1.610043985071923e+00	 5.648428353238190e-01	 1.350644270972593e+01
 1.598585547164067e+00	 5.965008892550900e-01	 1.343099420237136e+01
 1.586451288682954e+00	 6.280615981902781e-01	 1.330762804120438e+01
 1.683910443409516e+00	 3.116117272628728e-01	 1.346378297962098e+01
 1.677705877977730e+00	 3.434519427652192e-01	 1.353062660572091e+01
 1.670858650422285e+00	 3.753499970672065e-01	 1.357839169106094e+01
 1.663361916845294e+00	 4.072878387300768e-01	 1.360741245617426e+01
 1.655209459359920e+00	 4.392469642850639e-01	 1.361819407294483e+01
 1.646395715889012e+00	 4.712084429318064e-01	 1.361140343997764e+01
 1.636915808951806e+00	 5.031529433396970e-01	 1.358785779867743e+01
 1.626765573277927e+00	 5.350607625171188e-01	 1.354851121443190e+01
 1.615941582087771e+00	 5.669118567002158e-01	 1.349443897545811e+01
 1.604441171879408e+00	 5.986858741992918e-01	 1.342681999098214e+01
 1.592262465564457e+00	 6.303621901272086e-01	 1.328696999739003e+01
 1.690056101963523e+00	 3.127489963403123e-01	 1.344215720342635e+01
 1.683828892132600e+00	 3.447054170089046e-01	 1.350621686772561e+01
 1.676956674695729e+00	 3.767198875676593e-01	 1.355214707157604e+01
 1.669432580777292e+00	 4.087742906966546e-01	 1.358038926632860e+01
 1.661250369797434e+00	 4.408500553962175e-01	 1.359155738364775e+01
 1.652404459379449e+00	 4.729281817754734e-01	 1.358642809523183e+01
 1.642889954241548e+00	 5.049892679515139e-01	 1.356592887592192e+01
 1.632702673911639e+00	 5.370135390239938e-01	 1.353112389694417e+01
 1.621839179103619e+00	 5.689808780766341e-01	 1.348319780469915e+01
 1.610296796594750e+00	 6.008708591434987e-01	 1.342343747012853e+01
 1.598073642445961e+00	 6.326627820641393e-01	 1.326656722263167e+01
 1.696201760517529e+00	 3.138862654182665e-01	 1.342075105342805e+01
 1.689951906287470e+00	 3.459588912530093e-01	 1.348211776638406e+01
 1.683054698969174e+00	 3.780897780684451e-01	 1.352629555644652e+01
 1.675503244709291e+00	 4.102607426634892e-01	 1.355383318553698e+01
 1.667291280234948e+00	 4.424531465075602e-01	 1.356545346052266e+01
 1.658413202869887e+00	 4.746479206192725e-01	 1.356204297687870e+01
 1.648864099531290e+00	 5.068255925634159e-01	 1.354463962814658e+01
 1.638639774545350e+00	 5.389663155309168e-01	 1.351441791027971e+01
 1.627736776119467e+00	 5.710498994530739e-01	 1.347267207914468e+01
 1.616152421310091e+00	 6.030558440877112e-01	 1.342079724956896e+01
 1.603884819327464e+00	 6.349633740010698e-01	 1.324643232282248e+01
 1.702347419071536e+00	 3.150235344967352e-01	 1.339953857693246e+01
 1.696074920442340e+00	 3.472123654975333e-01	 1.345830056778941e+01
 1.689152723242617e+00	 3.794596685695640e-01	 1.350080567270080e+01
 1.681573908641289e+00	 4.117471946305799e-01	 1.352771005059573e+01
 1.673332190672463e+00	 4.440562376190926e-01	 1.353984550575851e+01
 1.664421946360324e+00	 4.763676594632039e-01	 1.353820871500067e+01
 1.654838244821033e+00	 5.086619171754030e-01	 1.352394818276322e+01
 1.644576875179060e+00	 5.409190920378879e-01	 1.349834895558367e+01
 1.633634373135315e+00	 5.731189208295351e-01	 1.346281515704920e+01
 1.622008046025433e+00	 6.052408290319289e-01	 1.341885043499081e+01
 1.609695996208967e+00	 6.372639659380004e-01	 1.322657841777793e+01
 1.708493077625542e+00	 3.161608035757187e-01	 1.337849409492463e+01
 1.702197934597209e+00	 3.484658397424765e-01	 1.343473683955879e+01
 1.695250747516062e+00	 3.808295590710161e-01	 1.347564627583998e+01
 1.687644572573288e+00	 4.132336465979274e-01	 1.350198605276515e+01
 1.679373101109977e+00	 4.456593287308143e-01	 1.351469710098190e+01
 1.670430689850761e+00	 4.780873983072674e-01	 1.351488634301438e+01
 1.660812390110775e+00	 5.104982417874748e-01	 1.350381309327950e+01
 1.650513975812772e+00	 5.428718685449071e-01	 1.348287318166658e+01
 1.639531970151163e+00	 5.751879422060177e-01	 1.345358086465493e+01
 1.627863670740774e+00	 6.074258139761523e-01	 1.341754861909084e+01
 1.615507173090471e+00	 6.395645578749311e-01	 1.320701913199258e+01
 1.714638736179549e+00	 3.172980726552168e-01	 1.335759219716360e+01
 1.708320948752080e+00	 3.497193139878392e-01	 1.341139844542953e+01
 1.701348771789506e+00	 3.821994495728015e-01	 1.345078654395111e+01
 1.693715236505286e+00	 4.147200985655312e-01	 1.347662773141713e+01
 1.685414011547490e+00	 4.472624198427255e-01	 1.348997220045704e+01
 1.676439433341198e+00	 4.798071371514632e-01	 1.349203729044260e+01
 1.666786535400517e+00	 5.123345663996319e-01	 1.348419333166283e+01
 1.656451076446484e+00	 5.448246450519744e-01	 1.346794717698161e+01
 1.645429567167011e+00	 5.772569635825219e-01	 1.344492348780480e+01
 1.633719295456116e+00	 6.096107989203808e-01	 1.341684387284733e+01
 1.621318349971974e+00	 6.418651498118615e-01	 1.318776858559565e+01
 1.720784394733555e+00	 3.184353417352296e-01	 1.333680773738297e+01
 1.714443962906949e+00	 3.509727882336210e-01	 1.338825753997137e+01
 1.707446796062951e+00	 3.835693400749202e-01	 1.342619597194693e+01
 1.699785900437286e+00	 4.162065505333916e-01	 1.345160196781884e+01
 1.691454921985004e+00	 4.488655109548259e-01	 1.346563512443162e+01
 1.682448176831636e+00	 4.815268759957912e-01	 1.346962337584084e+01
 1.672760680690260e+00	 5.141708910118742e-01	 1.346504828086773e+01
 1.662388177080195e+00	 5.467774215590896e-01	 1.345352796177382e+01
 1.651327164182859e+00	 5.793259849590476e-01	 1.343679776373546e+01
 1.639574920171458e+00	 6.117957838646149e-01	 1.341668873697953e+01
 1.627129526853477e+00	 6.441657417487924e-01	 1.316884138550047e+01
 1.569017758038443e+00	 6.211598223794863e-01	 1.333040045920843e+01
 1.556347395352019e+00	 6.522568780507497e-01	 1.335723129539861e+01
 1.543007346271411e+00	 6.832163488529666e-01	 1.333913136060000e+01
 1.528998204183102e+00	 7.140173258369891e-01	 1.332042587196091e+01
 1.514321409374140e+00	 7.446387843134632e-01	 1.330530247491029e+01
 1.498979261534318e+00	 7.750596257605761e-01	 1.329844431633034e+01
 1.482974929818439e+00	 8.052587208623178e-01	 1.330504328015747e+01
 1.466312460364777e+00	 8.352149535143715e-01	 1.333080810737239e+01
 1.448996781178123e+00	 8.649072656246355e-01	 1.338196698938540e+01
 1.431033704299042e+00	 8.943147025262583e-01	 1.346526427691070e+01
 1.412429925195270e+00	 9.234164588131116e-01	 1.358795100752954e+01
 1.574828934919947e+00	 6.234604143164172e-01	 1.333312523541084e+01
 1.562111644963699e+00	 6.546726442682187e-01	 1.334107588436240e+01
 1.548722188293320e+00	 6.857467797773404e-01	 1.332730935114366e+01
 1.534661160493019e+00	 7.166618344540818e-01	 1.331191290331849e+01
 1.519930007184242e+00	 7.473967057398677e-01	 1.329892223032925e+01
 1.504531036574154e+00	 7.779302169702121e-01	 1.329287736752114e+01
 1.488467429555166e+00	 8.082411605723778e-01	 1.329883700941376e+01
 1.471743247251253e+00	 8.383083422342548e-01	 1.332238764892281e+01
 1.454363435919075e+00	 8.681106258708061e-01	 1.336964712061637e+01
 1.436333829125271e+00	 8.976269792053031e-01	 1.344726217965359e+01
 1.417661147135611e+00	 9.268365197745579e-01	 1.356239980978508e+01
 1.580640111801450e+00	 6.257610062533474e-01	 1.332852927155101e+01
 1.567875894575384e+00	 6.570884104856876e-01	 1.332483160442974e+01
 1.554437030315247e+00	 6.882772107017143e-01	 1.331508133260445e+01
 1.540324116802979e+00	 7.193063430711742e-01	 1.330266929983410e+01
 1.525538604994423e+00	 7.501546271662722e-01	 1.329147947699087e+01
 1.510082811614113e+00	 7.808008081798481e-01	 1.328590911105648e+01
 1.493959929292071e+00	 8.112236002824381e-01	 1.329088411911611e+01
 1.477174034137970e+00	 8.414017309541375e-01	 1.331186924923373e+01
 1.459730090660341e+00	 8.713139861169762e-01	 1.335487257531876e+01
 1.441633953951901e+00	 9.009392558843483e-01	 1.342644394713760e+01
 1.422892369076447e+00	 9.302565807360041e-01	 1.353366707898882e+01
 1.586451288682954e+00	 6.280615981902781e-01	 1.330762804120438e+01
 1.573640144187073e+00	 6.595041767031560e-01	 1.330851586904829e+01
 1.560151872337194e+00	 6.908076416260881e-01	 1.330247095495683e+01
 1.545987073112983e+00	 7.219508516882670e-01	 1.329272476308393e+01
 1.531147202804681e+00	 7.529125485926770e-01	 1.328300976897224e+01
 1.515634586654192e+00	 7.836713993894840e-01	 1.327758074073476e+01
 1.499452429029151e+00	 8.142060399924984e-01	 1.328123121689107e+01
 1.482604821024928e+00	 8.444951196740208e-01	 1.329930469138292e+01
 1.465096745401923e+00	 8.745173463631473e-01	 1.333770006185223e+01
 1.446934078778931e+00	 9.042515325633931e-01	 1.340287095179324e+01
 1.428123591017778e+00	 9.336766416974505e-01	 1.350181858019513e+01
 1.592262465564457e+00	 6.303621901272086e-01	 1.328696999739003e+01
 1.579404393798768e+00	 6.619199429206251e-01	 1.329214656637135e+01
 1.565866714359160e+00	 6.933380725504621e-01	 1.328950227550470e+01
 1.551650029423031e+00	 7.245953603053595e-01	 1.328210933554517e+01
 1.536755800615017e+00	 7.556704700190813e-01	 1.327354893590250e+01
 1.521186361694394e+00	 7.865419905991201e-01	 1.326793366176976e+01
 1.504944928766408e+00	 8.171884797025586e-01	 1.326992505898702e+01
 1.488035607912126e+00	 8.475885083939039e-01	 1.328474584574877e+01
 1.470463400143821e+00	 8.777207066093177e-01	 1.331818631615625e+01
 1.452234203606361e+00	 9.075638092424382e-01	 1.337660453563543e+01
 1.433354812959603e+00	 9.370967026588966e-01	 1.346691999189511e+01
 1.598073642445961e+00	 6.326627820641393e-01	 1.326656722263167e+01
 1.585168643410467e+00	 6.643357091380938e-01	 1.327574205062670e+01
 1.571581556381145e+00	 6.958685034748359e-01	 1.327619975147547e+01
 1.557312985733122e+00	 7.272398689224522e-01	 1.327085339439758e+01
 1.542364398425431e+00	 7.584283914454862e-01	 1.326313307795307e+01
 1.526738136734718e+00	 7.894125818087561e-01	 1.325700948694690e+01
 1.510437428503841e+00	 8.201709194126190e-01	 1.325701254757197e+01
 1.493466394799565e+00	 8.506818971137871e-01	 1.326824466842335e+01
 1.475830054886032e+00	 8.809240668554883e-01	 1.329638810124867e+01
 1.457534328434190e+00	 9.108760859214829e-01	 1.334770601081657e+01
 1.438586034901923e+00	 9.405167636203430e-01	 1.342903690759089e+01
 1.603884819327464e+00	 6.349633740010698e-01	 1.324643232282248e+01
 1.590932893022171e+00	 6.667514753555628e-01	 1.325932113367337e+01
 1.577296398403151e+00	 6.983989343992100e-01	 1.326258823277508e+01
 1.562975942043257e+00	 7.298843775395447e-01	 1.325898764546018e+01
 1.547972996235923e+00	 7.611863128718909e-01	 1.325179856093634e+01
 1.532289911775165e+00	 7.922831730183922e-01	 1.324485003286279e+01
 1.515929928241450e+00	 8.231533591226792e-01	 1.324254072808993e+01
 1.498897181687245e+00	 8.537752858336700e-01	 1.324985319965912e+01
 1.481196709628559e+00	 8.841274271016587e-01	 1.327236220673538e+01
 1.462834453262419e+00	 9.141883626005282e-01	 1.331623666016765e+01
 1.443817256844737e+00	 9.439368245817894e-01	 1.338823483733507e+01
 1.609695996208967e+00	 6.372639659380004e-01	 1.322657841777793e+01
 1.596697142633879e+00	 6.691672415730315e-01	 1.324290307674097e+01
 1.583011240425175e+00	 7.009293653235837e-01	 1.324869295489989e+01
 1.568638898353435e+00	 7.325288861566372e-01	 1.324654311725909e+01
 1.553581594046492e+00	 7.639442342982955e-01	 1.323958201151077e+01
 1.537841686815733e+00	 7.951537642280282e-01	 1.323149731624635e+01
 1.521422427979236e+00	 8.261357988327395e-01	 1.322655678667502e+01
 1.504327968575165e+00	 8.568686745535533e-01	 1.322962356235019e+01
 1.486563364371402e+00	 8.873307873478292e-01	 1.324616544833004e+01
 1.468134578091048e+00	 9.175006392795729e-01	 1.328225773772750e+01
 1.449048478788046e+00	 9.473568855432356e-01	 1.334457920923704e+01
 1.615507173090471e+00	 6.395645578749311e-01	 1.320701913199258e+01
 1.602461392245594e+00	 6.715830077905004e-01	 1.322650758234764e+01
 1.588726082447218e+00	 7.034597962479575e-01	 1.323453953200168e+01
 1.574301854663658e+00	 7.351733947737300e-01	 1.323355115522341e+01
 1.559190191857140e+00	 7.667021557247001e-01	 1.322652031248943e+01
 1.543393461856423e+00	 7.980243554376641e-01	 1.321699355035935e+01
 1.526914927717198e+00	 8.291182385427995e-01	 1.320910804762068e+01
 1.509758755463326e+00	 8.599620632734364e-01	 1.320760796054583e+01
 1.491930019114559e+00	 8.905341475940000e-01	 1.321785466738491e+01
 1.473434702920077e+00	 9.208129159586179e-01	 1.324583046926050e+01
 1.454279700731850e+00	 9.507769465046818e-01	 1.329813537093689e+01
 1.621318349971974e+00	 6.418651498118615e-01	 1.318776858559565e+01
 1.608225641857312e+00	 6.739987740079694e-01	 1.321015478639162e+01
 1.594440924469281e+00	 7.059902271723314e-01	 1.322015395010155e+01
 1.579964810973923e+00	 7.378179033908225e-01	 1.322004341600600e+01
 1.564798789667865e+00	 7.694600771511048e-01	 1.321265059824935e+01
 1.548945236897236e+00	 8.008949466473003e-01	 1.320138114147431e+01
 1.532407427455336e+00	 8.321006782528598e-01	 1.319024197090402e+01
 1.515189542351727e+00	 8.630554519933195e-01	 1.318385867799600e+01
 1.497296673858032e+00	 8.937375078401704e-01	 1.318748673043090e+01
 1.478734827749506e+00	 9.241251926376630e-01	 1.320701605276331e+01
 1.459510922676149e+00	 9.541970074661282e-01	 1.324896859104739e+01
 1.627129526853477e+00	 6.441657417487924e-01	 1.316884138550047e+01
 1.613989891469035e+00	 6.764145402254380e-01	 1.319386525041223e+01
 1.600155766491363e+00	 7.085206580967054e-01	 1.320556256044963e+01
 1.585627767284233e+00	 7.404624120079152e-01	 1.320605186192591e+01
 1.570407387478669e+00	 7.722179985775096e-01	 1.319801025023938e+01
 1.554497011938170e+00	 8.037655378569362e-01	 1.318470268542778e+01
 1.537899927193651e+00	 8.350831179629202e-01	 1.317000614976271e+01
 1.520620329240370e+00	 8.661488407132028e-01	 1.315842807672820e+01
 1.502663328601820e+00	 8.969408680863411e-01	 1.315511852872839e+01
 1.484034952579334e+00	 9.274374693167079e-01	 1.316587565896100e+01
 1.464742144620942e+00	 9.576170684275744e-01	 1.319714406056526e+01
 1.412429925195270e+00	 9.234164588131116e-01	 1.358795100752954e+01
 1.393193019326465e+00	 9.521919244005576e-01	 1.291906565076179e+01
 1.373331435848735e+00	 9.806207306103145e-01	 1.231702052609952e+01
 1.352854488442549e+00	 1.008682796072803e+00	 1.179268486470149e+01
 1.331772343264670e+00	 1.036358372237633e+00	 1.135733220916974e+01
 1.310096004041184e+00	 1.063628088283842e+00	 1.102258996849467e+01
 1.287837294336642e+00	 1.090472995220908e+00	 1.080038255787454e+01
 1.265008837051568e+00	 1.116874608974198e+00	 1.070286845442380e+01
 1.241624031217757e+00	 1.142814952252537e+00	 1.080323385117877e+01
 1.217697026177599e+00	 1.168276595001096e+00	 1.112392930795263e+01
 1.193242693250000e+00	 1.193242693250000e+00	 1.153955823501772e+01
 1.417661147135611e+00	 9.268365197745579e-01	 1.356239980978508e+01
 1.398352993467046e+00	 9.557185611602756e-01	 1.289118467887981e+01
 1.378417848568896e+00	 9.842526592446160e-01	 1.228908264199294e+01
 1.357865060616741e+00	 1.012418658282557e+00	 1.176719783775250e+01
 1.336704833419778e+00	 1.040196736580927e+00	 1.133704016534845e+01
 1.314948211458636e+00	 1.067567451574986e+00	 1.101047377040096e+01
 1.292607062088847e+00	 1.094511784092762e+00	 1.079965905521493e+01
 1.269694054962415e+00	 1.121011181600089e+00	 1.071698855159642e+01
 1.246222638737179e+00	 1.147047600223230e+00	 1.080302362887874e+01
 1.222207015160503e+00	 1.172603545351601e+00	 1.115630933801430e+01
 1.197662110630250e+00	 1.197662110630250e+00	 1.160912295151005e+01
 1.422892369076447e+00	 9.302565807360041e-01	 1.353366707898882e+01
 1.403512967608213e+00	 9.592451979199987e-01	 1.286051323553078e+01
 1.383504261289712e+00	 9.878845878789374e-01	 1.225871411895744e+01
 1.362875632791640e+00	 1.016154520492355e+00	 1.173960828212060e+01
 1.341637323575625e+00	 1.044035100924302e+00	 1.131494164070520e+01
 1.319800418876838e+00	 1.071506814866254e+00	 1.099681489199787e+01
 1.297376829841789e+00	 1.098550572964796e+00	 1.079762439643242e+01
 1.274379272873970e+00	 1.125147754226224e+00	 1.072999686723006e+01
 1.250821246257260e+00	 1.151280248194243e+00	 1.080671830463874e+01
 1.226717004143997e+00	 1.176930495702510e+00	 1.118665010478579e+01
 1.202081528011000e+00	 1.202081528011000e+00	 1.167690871067637e+01
 1.428123591017778e+00	 9.336766416974505e-01	 1.350181858019513e+01
 1.408672941749964e+00	 9.627718346797269e-01	 1.282711285118912e+01
 1.388590674011183e+00	 9.915165165132788e-01	 1.222597228378631e+01
 1.367886204967244e+00	 1.019890382702198e+00	 1.170996936135685e+01
 1.346569813732208e+00	 1.047873465267756e+00	 1.129108568577985e+01
 1.324652626295787e+00	 1.075446178157647e+00	 1.098165833105451e+01
 1.302146597595471e+00	 1.102589361837009e+00	 1.079431959695528e+01
 1.279064490786234e+00	 1.129284326852604e+00	 1.074193051516888e+01
 1.255419853778001e+00	 1.155512896165577e+00	 1.083750855249650e+01
 1.231226993128080e+00	 1.181257446053824e+00	 1.121490565495392e+01
 1.206500945392250e+00	 1.206500945392250e+00	 1.174286682809019e+01
 1.433354812959603e+00	 9.370967026588966e-01	 1.346691999189511e+01
 1.413832915892299e+00	 9.662984714394596e-01	 1.279104503743051e+01
 1.393677086733310e+00	 9.951484451476398e-01	 1.219091450944578e+01
 1.372896777143555e+00	 1.023626244912085e+00	 1.167833434752592e+01
 1.351502303889529e+00	 1.051711829611290e+00	 1.126552151910273e+01
 1.329504833715484e+00	 1.079385541449165e+00	 1.096504930981865e+01
 1.306916365349891e+00	 1.106628150709402e+00	 1.078978595006908e+01
 1.283749708699208e+00	 1.133420899479229e+00	 1.075282693727361e+01
 1.260018461299403e+00	 1.159745544137230e+00	 1.086742150652695e+01
 1.235736982112754e+00	 1.185584396405543e+00	 1.124103045347038e+01
 1.210920362774000e+00	 1.210920362774000e+00	 1.180694907749666e+01
 1.438586034901923e+00	 9.405167636203430e-01	 1.342903690759089e+01
 1.418992890035221e+00	 9.698251081991978e-01	 1.275237128727526e+01
 1.398763499456092e+00	 9.987803737820208e-01	 1.215359821423526e+01
 1.377907349320572e+00	 1.027362107122018e+00	 1.164475661923274e+01
 1.356434794047587e+00	 1.055550193954903e+00	 1.123829852414091e+01
 1.334357041135929e+00	 1.083324904740807e+00	 1.094703327093479e+01
 1.311686133105050e+00	 1.110666939581975e+00	 1.078406502186496e+01
 1.288434926612891e+00	 1.137557472106099e+00	 1.076272389745690e+01
 1.264617068821463e+00	 1.163978192109203e+00	 1.089649121305704e+01
 1.240246971098017e+00	 1.189911346757668e+00	 1.126497937594617e+01
 1.215339780156250e+00	 1.215339780156250e+00	 1.186910768248199e+01
 1.443817256844737e+00	 9.439368245817894e-01	 1.338823483733507e+01
 1.424152864178726e+00	 9.733517449589402e-01	 1.271115307552477e+01
 1.403849912179530e+00	 1.002412302416422e+00	 1.211408086096631e+01
 1.382917921498295e+00	 1.031097969331995e+00	 1.160928965969292e+01
 1.361367284206381e+00	 1.059388558298596e+00	 1.120946624630952e+01
 1.339209248557122e+00	 1.087264268032574e+00	 1.092765587345198e+01
 1.316455900860948e+00	 1.114705728454728e+00	 1.077719864629741e+01
 1.293120144527284e+00	 1.141694044733213e+00	 1.077165947584937e+01
 1.269215676344183e+00	 1.168210840081495e+00	 1.092475207978141e+01
 1.244756960083870e+00	 1.194238297110197e+00	 1.128670770121297e+01
 1.219759197539000e+00	 1.219759197539000e+00	 1.192929530832444e+01
 1.449048478788046e+00	 9.473568855432356e-01	 1.334457920923704e+01
 1.429312838322817e+00	 9.768783817186882e-01	 1.266745185909016e+01
 1.408936324903624e+00	 1.006044231050842e+00	 1.207241995615907e+01
 1.387928493676725e+00	 1.034833831542017e+00	 1.157198705484405e+01
 1.366299774365914e+00	 1.063226922642369e+00	 1.117907439004909e+01
 1.344061455979063e+00	 1.091203631324466e+00	 1.090696298891734e+01
 1.321225668617584e+00	 1.118744517327660e+00	 1.076922892034953e+01
 1.297805362442385e+00	 1.145830617360572e+00	 1.077967206309174e+01
 1.273814283867563e+00	 1.172443488054108e+00	 1.095223886923951e+01
 1.249266949070313e+00	 1.198565247463130e+00	 1.130617110404405e+01
 1.224178614922250e+00	 1.224178614922250e+00	 1.198746505402146e+01
 1.454279700731850e+00	 9.507769465046818e-01	 1.329813537093689e+01
 1.434472812467493e+00	 9.804050184784409e-01	 1.262132907731415e+01
 1.414022737628372e+00	 1.009676159685283e+00	 1.202867304925598e+01
 1.392939065855861e+00	 1.038569693752084e+00	 1.153290249149848e+01
 1.371232264526183e+00	 1.067065286986221e+00	 1.114717281596486e+01
 1.348913663401752e+00	 1.095142994616482e+00	 1.088500069755412e+01
 1.325995436374960e+00	 1.122783306200772e+00	 1.076019819930176e+01
 1.302490580358196e+00	 1.149967189988176e+00	 1.078680035474988e+01
 1.278412891391603e+00	 1.176676136027041e+00	 1.097898669243329e+01
 1.253776938057347e+00	 1.202892197816469e+00	 1.135099728048513e+01
 1.228598032306000e+00	 1.228598032306000e+00	 1.204357044448877e+01
 1.459510922676149e+00	 9.541970074661282e-01	 1.324896859104739e+01
 1.439632786612753e+00	 9.839316552381987e-01	 1.257284615228588e+01
 1.419109150353777e+00	 1.013308088319743e+00	 1.198289773185295e+01
 1.397949638035703e+00	 1.042305555962196e+00	 1.149208975553540e+01
 1.376164754687189e+00	 1.070903651330153e+00	 1.111381153802859e+01
 1.353765870825189e+00	 1.099082357908623e+00	 1.086181528452220e+01
 1.330765204133074e+00	 1.126822095074064e+00	 1.075014909210334e+01
 1.307175798274717e+00	 1.154103762616025e+00	 1.079308334585041e+01
 1.283011498916303e+00	 1.180908784000293e+00	 1.100503100258250e+01
 1.258286927044970e+00	 1.207219148170213e+00	 1.140046234927721e+01
 1.233017449690250e+00	 1.233017449690250e+00	 1.209756542292757e+01
 1.464742144620942e+00	 9.576170684275744e-01	 1.319714406056526e+01
 1.444792760758599e+00	 9.874582919979615e-01	 1.252206448914887e+01
 1.424195563079837e+00	 1.016940016954224e+00	 1.193515163694626e+01
 1.402960210216252e+00	 1.046041418172352e+00	 1.144960273013173e+01
 1.381097244848933e+00	 1.074742015674165e+00	 1.107904072083952e+01
 1.358618078249374e+00	 1.103021721200889e+00	 1.083745323625825e+01
 1.335534971891927e+00	 1.130860883947535e+00	 1.073912445684228e+01
 1.311861016191946e+00	 1.158240335244118e+00	 1.079856032553315e+01
 1.287610106441662e+00	 1.185141431973865e+00	 1.103040758901379e+01
 1.262796916033183e+00	 1.211546098524362e+00	 1.144936726702703e+01
 1.237436867075000e+00	 1.237436867075000e+00	 1.214940434335533e+01
 1.193242693250000e+00	 1.193242693250000e+00	 1.153955823501772e+01
 1.168276595001096e+00	 1.217697026177599e+00	 1.204314242164152e+01
 1.142814952252537e+00	 1.241624031217757e+00	 1.273652320292339e+01
 1.116874608974198e+00	 1.265008837051569e+00	 1.251844274089735e+01
 1.090472995220908e+00	 1.287837294336642e+00	 1.175368579993121e+01
 1.063628088283843e+00	 1.310096004041184e+00	 1.103016868204663e+01
 1.036358372237633e+00	 1.331772343264670e+00	 1.035623131743785e+01
 1.008682796072804e+00	 1.352854488442549e+00	 9.740159705560270e+00
 9.806207306103155e-01	 1.373331435848735e+00	 9.190131060774142e+00
 9.521919244005584e-01	 1.393193019326464e+00	 8.714159397733285e+00
 9.234164588131116e-01	 1.412429925195270e+00	 8.320042063439388e+00
 1.197662110630250e+00	 1.197662110630250e+00	 1.160912295151005e+01
 1.172603545351600e+00	 1.222207015160503e+00	 1.216143325886472e+01
 1.147047600223230e+00	 1.246222638737179e+00	 1.290260481825290e+01
 1.121011181600089e+00	 1.269694054962414e+00	 1.240112621295038e+01
 1.094511784092762e+00	 1.292607062088846e+00	 1.167032211267621e+01
 1.067567451574987e+00	 1.314948211458636e+00	 1.097694942677621e+01
 1.040196736580928e+00	 1.336704833419778e+00	 1.032930719742731e+01
 1.012418658282557e+00	 1.357865060616741e+00	 9.735655552481173e+00
 9.842526592446170e-01	 1.378417848568895e+00	 9.204160583243659e+00
 9.557185611602764e-01	 1.398352993467045e+00	 8.742839581468150e+00
 9.268365197745579e-01	 1.417661147135611e+00	 8.359507147441981e+00
 1.202081528011000e+00	 1.202081528011000e+00	 1.167690871067637e+01
 1.176930495702510e+00	 1.226717004143996e+00	 1.227757286761415e+01
 1.151280248194243e+00	 1.250821246257260e+00	 1.301063016437693e+01
 1.125147754226224e+00	 1.274379272873969e+00	 1.228798972341089e+01
 1.098550572964796e+00	 1.297376829841789e+00	 1.159075473545320e+01
 1.071506814866255e+00	 1.319800418876837e+00	 1.092715334665847e+01
 1.044035100924302e+00	 1.341637323575625e+00	 1.030544493799339e+01
 1.016154520492355e+00	 1.362875632791639e+00	 9.733864971764181e+00
 9.878845878789382e-01	 1.383504261289711e+00	 9.220569595260645e+00
 9.592451979199997e-01	 1.403512967608212e+00	 8.773580523205995e+00
 9.302565807360044e-01	 1.422892369076447e+00	 8.400730715909052e+00
 1.206500945392250e+00	 1.206500945392250e+00	 1.174286682809019e+01
 1.181257446053824e+00	 1.231226993128080e+00	 1.239151694413243e+01
 1.155512896165577e+00	 1.255419853778001e+00	 1.286475486971350e+01
 1.129284326852604e+00	 1.279064490786233e+00	 1.217903680921290e+01
 1.102589361837009e+00	 1.302146597595471e+00	 1.151499032502453e+01
 1.075446178157647e+00	 1.324652626295786e+00	 1.088078995478475e+01
 1.047873465267757e+00	 1.346569813732209e+00	 1.028465664232937e+01
 1.019890382702198e+00	 1.367886204967244e+00	 9.734802388503521e+00
 9.915165165132793e-01	 1.388590674011182e+00	 9.239374574388185e+00
 9.627718346797278e-01	 1.408672941749963e+00	 8.806400483054279e+00
 9.336766416974506e-01	 1.428123591017778e+00	 8.443732541799355e+00
 1.210920362774000e+00	 1.210920362774000e+00	 1.180694907749666e+01
 1.185584396405543e+00	 1.235736982112754e+00	 1.250322157946076e+01
 1.159745544137230e+00	 1.260018461299402e+00	 1.272345334267319e+01
 1.133420899479229e+00	 1.283749708699208e+00	 1.207427128429915e+01
 1.106628150709403e+00	 1.306916365349891e+00	 1.144303576096340e+01
 1.079385541449165e+00	 1.329504833715484e+00	 1.083786893612360e+01
 1.051711829611290e+00	 1.351502303889528e+00	 1.026695453792435e+01
 1.023626244912086e+00	 1.372896777143555e+00	 9.738482307937462e+00
 9.951484451476403e-01	 1.393677086733309e+00	 9.260592037685390e+00
 9.662984714394607e-01	 1.413832915892299e+00	 8.841317723531196e+00
 9.370967026588967e-01	 1.433354812959603e+00	 8.488532367008292e+00
 1.215339780156250e+00	 1.215339780156250e+00	 1.186910768248199e+01
 1.189911346757667e+00	 1.240246971098017e+00	 1.261264325226041e+01
 1.163978192109203e+00	 1.264617068821463e+00	 1.258672640301020e+01
 1.137557472106099e+00	 1.288434926612891e+00	 1.197369723458398e+01
 1.110666939581975e+00	 1.311686133105050e+00	 1.137489814160291e+01
 1.083324904740808e+00	 1.334357041135929e+00	 1.079840014439448e+01
 1.055550193954903e+00	 1.356434794047586e+00	 1.025235097430164e+01
 1.027362107122019e+00	 1.377907349320572e+00	 9.744919313992469e+00
 9.987803737820216e-01	 1.398763499456092e+00	 9.284238540989330e+00
 9.698251081991983e-01	 1.418992890035219e+00	 8.878350509520240e+00
 9.405167636203430e-01	 1.438586034901923e+00	 8.535149902933281e+00
 1.219759197539000e+00	 1.219759197539000e+00	 1.192929530832444e+01
 1.194238297110196e+00	 1.244756960083870e+00	 1.271973882179127e+01
 1.168210840081495e+00	 1.269215676344183e+00	 1.245457519282456e+01
 1.141694044733213e+00	 1.293120144527284e+00	 1.187731901302701e+01
 1.114705728454728e+00	 1.316455900860948e+00	 1.131058478007193e+01
 1.087264268032574e+00	 1.339209248557122e+00	 1.076239359901199e+01
 1.059388558298596e+00	 1.361367284206381e+00	 1.024085842080910e+01
 1.031097969331996e+00	 1.382917921498295e+00	 9.754128067856314e+00
 1.002412302416422e+00	 1.403849912179530e+00	 9.310330678212180e+00
 9.733517449589413e-01	 1.424152864178725e+00	 8.917517108227933e+00
 9.439368245817893e-01	 1.443817256844737e+00	 8.583604831026205e+00
 1.224178614922250e+00	 1.224178614922250e+00	 1.198746505402146e+01
 1.198565247463131e+00	 1.249266949070313e+00	 1.282446552104127e+01
 1.172443488054108e+00	 1.273814283867563e+00	 1.232700117074424e+01
 1.145830617360573e+00	 1.297805362442386e+00	 1.178514123481220e+01
 1.118744517327660e+00	 1.321225668617585e+00	 1.125010320041934e+01
 1.091203631324466e+00	 1.344061455979062e+00	 1.072985948209424e+01
 1.063226922642369e+00	 1.366299774365913e+00	 1.023248946445593e+01
 1.034833831542018e+00	 1.387928493676724e+00	 9.766123306584383e+00
 1.006044231050843e+00	 1.408936324903623e+00	 9.338885080654714e+00
 9.768783817186892e-01	 1.429312838322816e+00	 8.958835789141942e+00
 9.473568855432356e-01	 1.449048478788046e+00	 8.633916803333516e+00
 1.228598032306000e+00	 1.228598032306000e+00	 1.204357044448877e+01
 1.202892197816469e+00	 1.253776938057346e+00	 1.270622540357336e+01
 1.176676136027041e+00	 1.278412891391603e+00	 1.220400610623142e+01
 1.149967189988176e+00	 1.302490580358197e+00	 1.169716877263203e+01
 1.122783306200772e+00	 1.325995436374960e+00	 1.119346113381941e+01
 1.095142994616482e+00	 1.348913663401752e+00	 1.070080813553659e+01
 1.067065286986222e+00	 1.371232264526182e+00	 1.022725680779608e+01
 1.038569693752085e+00	 1.392939065855860e+00	 9.780919841734786e+00
 1.009676159685284e+00	 1.414022737628372e+00	 9.369918416332556e+00
 9.804050184784417e-01	 1.434472812467492e+00	 9.002324823990801e+00
 9.507769465046820e-01	 1.454279700731850e+00	 8.686105443025554e+00
 1.233017449690250e+00	 1.233017449690250e+00	 1.209756542292757e+01
 1.207219148170213e+00	 1.258286927044970e+00	 1.254953625001065e+01
 1.180908784000293e+00	 1.283011498916303e+00	 1.208559207401271e+01
 1.154103762616025e+00	 1.307175798274717e+00	 1.161340675207238e+01
 1.126822095074064e+00	 1.330765204133074e+00	 1.114066651486079e+01
 1.099082357908623e+00	 1.353765870825189e+00	 1.067525005814844e+01
 1.070903651330154e+00	 1.376164754687188e+00	 1.022517326685835e+01
 1.042305555962197e+00	 1.397949638035703e+00	 9.798532558033333e+00
 1.013308088319744e+00	 1.419109150353776e+00	 9.403447389319854e+00
 9.839316552381997e-01	 1.439632786612753e+00	 9.048002486701783e+00
 9.541970074661282e-01	 1.459510922676149e+00	 8.740190344914009e+00
 1.237436867075000e+00	 1.237436867075000e+00	 1.214940434335533e+01
 1.211546098524362e+00	 1.262796916033183e+00	 1.239780423399661e+01
 1.185141431973866e+00	 1.287610106441662e+00	 1.197176144862735e+01
 1.158240335244119e+00	 1.311861016191947e+00	 1.153386054709661e+01
 1.130860883947535e+00	 1.335534971891926e+00	 1.109172747791319e+01
 1.103021721200889e+00	 1.358618078249374e+00	 1.065319590285105e+01
 1.074742015674166e+00	 1.381097244848932e+00	 1.022625176911914e+01
 1.046041418172353e+00	 1.402960210216252e+00	 9.818976412066526e+00
 1.016940016954224e+00	 1.424195563079836e+00	 9.439488739103872e+00
 9.874582919979624e-01	 1.444792760758598e+00	 9.095887053363786e+00
 9.576170684275744e-01	 1.464742144620942e+00	 8.796191075957857e+00
 9.234164588131116e-01	 1.412429925195270e+00	 8.320042063439388e+00
 8.943147025262583e-01	 1.431033704299042e+00	 8.353453680702259e+00
 8.649072656246355e-01	 1.448996781178123e+00	 8.320329254212492e+00
 8.352149535143714e-01	 1.466312460364777e+00	 8.224370151084061e+00
 8.052587208623180e-01	 1.482974929818439e+00	 8.069502567122314e+00
 7.750596257605765e-01	 1.498979261534318e+00	 7.859835453610899e+00
 7.446387843134635e-01	 1.514321409374140e+00	 7.599618687370510e+00
 7.140173258369897e-01	 1.528998204183102e+00	 7.293201883209548e+00
 6.832163488529674e-01	 1.543007346271411e+00	 6.944994224578794e+00
 6.522568780507507e-01	 1.556347395352019e+00	 6.559425660919036e+00
 6.211598223794863e-01	 1.569017758038443e+00	 6.125929764050039e+00
 9.268365197745579e-01	 1.417661147135611e+00	 8.359507147441981e+00
 8.976269792053030e-01	 1.436333829125271e+00	 8.387819790196414e+00
 8.681106258708061e-01	 1.454363435919075e+00	 8.349864423196479e+00
 8.383083422342547e-01	 1.471743247251253e+00	 8.249460137113925e+00
 8.082411605723779e-01	 1.488467429555166e+00	 8.090647561132197e+00
 7.779302169702126e-01	 1.504531036574154e+00	 7.877646135257933e+00
 7.473967057398683e-01	 1.519930007184242e+00	 7.614811663932411e+00
 7.166618344540825e-01	 1.534661160493018e+00	 7.306594554649771e+00
 6.857467797773414e-01	 1.548722188293320e+00	 6.957499121412835e+00
 6.546726442682196e-01	 1.562111644963699e+00	 6.572044304959700e+00
 6.234604143164172e-01	 1.574828934919947e+00	 6.148803136792043e+00
 9.302565807360044e-01	 1.422892369076447e+00	 8.400730715909052e+00
 9.009392558843482e-01	 1.441633953951901e+00	 8.423989713165795e+00
 8.713139861169762e-01	 1.459730090660341e+00	 8.381237041710822e+00
 8.414017309541378e-01	 1.477174034137971e+00	 8.276410128318680e+00
 8.112236002824385e-01	 1.493959929292071e+00	 8.113664668646638e+00
 7.808008081798483e-01	 1.510082811614112e+00	 7.897331240363016e+00
 7.501546271662729e-01	 1.525538604994423e+00	 7.631872235665865e+00
 7.193063430711750e-01	 1.540324116802979e+00	 7.321839521511214e+00
 6.882772107017152e-01	 1.554437030315246e+00	 6.971833211450070e+00
 6.570884104856882e-01	 1.567875894575384e+00	 6.586461904478892e+00
 6.257610062533474e-01	 1.580640111801450e+00	 6.170304714377877e+00
 9.336766416974506e-01	 1.428123591017778e+00	 8.443732541799355e+00
 9.042515325633931e-01	 1.446934078778931e+00	 8.461980839378752e+00
 8.745173463631472e-01	 1.465096745401923e+00	 8.414462181333795e+00
 8.444951196740210e-01	 1.482604821024928e+00	 8.305232949148401e+00
 8.142060399924985e-01	 1.499452429029151e+00	 8.138564543859133e+00
 7.836713993894844e-01	 1.515634586654192e+00	 7.918899335273067e+00
 7.529125485926775e-01	 1.531147202804680e+00	 7.650806968719128e+00
 7.219508516882679e-01	 1.545987073112983e+00	 7.338941442314073e+00
 6.908076416260890e-01	 1.560151872337194e+00	 6.987999342738897e+00
 6.595041767031573e-01	 1.573640144187073e+00	 6.602679598442774e+00
 6.280615981902781e-01	 1.586451288682954e+00	 6.187645076639900e+00
 9.370967026588967e-01	 1.433354812959603e+00	 8.488532367008292e+00
 9.075638092424378e-01	 1.452234203606361e+00	 8.501810550675970e+00
 8.777207066093177e-01	 1.470463400143821e+00	 8.449554927690381e+00
 8.475885083939039e-01	 1.488035607912126e+00	 8.335941458878505e+00
 8.171884797025589e-01	 1.504944928766408e+00	 8.165357895344730e+00
 7.865419905991206e-01	 1.521186361694394e+00	 7.942359059021289e+00
 7.556704700190821e-01	 1.536755800615016e+00	 7.671622518960055e+00
 7.245953603053601e-01	 1.551650029423030e+00	 7.357905081039546e+00
 6.933380725504629e-01	 1.565866714359160e+00	 7.006000483223307e+00
 6.619199429206262e-01	 1.579404393798768e+00	 6.620698658829200e+00
 6.303621901272087e-01	 1.592262465564457e+00	 6.206746897099241e+00
 9.405167636203430e-01	 1.438586034901923e+00	 8.535149902933281e+00
 9.108760859214828e-01	 1.457534328434190e+00	 8.543496221114861e+00
 8.809240668554882e-01	 1.475830054886032e+00	 8.486530380196067e+00
 8.506818971137872e-01	 1.493466394799565e+00	 8.368548550977266e+00
 8.201709194126190e-01	 1.510437428503840e+00	 8.194055485070821e+00
 7.894125818087568e-01	 1.526738136734719e+00	 7.967719122006129e+00
 7.584283914454867e-01	 1.542364398425430e+00	 7.694325630344965e+00
 7.272398689224527e-01	 1.557312985733121e+00	 7.378735305212620e+00
 6.958685034748369e-01	 1.571581556381145e+00	 7.025839718562801e+00
 6.643357091380949e-01	 1.585168643410467e+00	 6.640520488207952e+00
 6.326627820641393e-01	 1.598073642445961e+00	 6.227609997862469e+00
 9.439368245817893e-01	 1.443817256844737e+00	 8.583604831026205e+00
 9.141883626005279e-01	 1.462834453262419e+00	 8.587055217110521e+00
 8.841274271016587e-01	 1.481196709628559e+00	 8.525403651807560e+00
 8.537752858336701e-01	 1.498897181687245e+00	 8.403067152485592e+00
 8.231533591226793e-01	 1.515929928241450e+00	 8.224668127429398e+00
 7.922831730183926e-01	 1.532289911775164e+00	 7.994988304698255e+00
 7.611863128718915e-01	 1.547972996235922e+00	 7.718923133322184e+00
 7.298843775395454e-01	 1.562975942043256e+00	 7.401437084025913e+00
 6.983989343992109e-01	 1.577296398403150e+00	 7.047520250000279e+00
 6.667514753555638e-01	 1.590932893022171e+00	 6.662146617375813e+00
 6.349633740010698e-01	 1.603884819327464e+00	 6.250234340626614e+00
 9.473568855432356e-01	 1.449048478788046e+00	 8.633916803333516e+00
 9.175006392795728e-01	 1.468134578091048e+00	 8.632504897573838e+00
 8.873307873478292e-01	 1.486563364371402e+00	 8.566189868778297e+00
 8.568686745535535e-01	 1.504327968575165e+00	 8.439510223411430e+00
 8.261357988327398e-01	 1.521422427979236e+00	 8.257206688291497e+00
 7.951537642280284e-01	 1.537841686815733e+00	 8.024175456374824e+00
 7.639442342982959e-01	 1.553581594046492e+00	 7.745421943271987e+00
 7.325288861566380e-01	 1.568638898353435e+00	 7.426015486505050e+00
 7.009293653235847e-01	 1.583011240425174e+00	 7.071045392274776e+00
 6.691672415730326e-01	 1.596697142633879e+00	 6.685578703041072e+00
 6.372639659380005e-01	 1.609695996208968e+00	 6.274620024158834e+00
 9.507769465046820e-01	 1.454279700731850e+00	 8.686105443025554e+00
 9.208129159586177e-01	 1.473434702920077e+00	 8.679862614045886e+00
 8.905341475940000e-01	 1.491930019114559e+00	 8.608904170419263e+00
 8.599620632734365e-01	 1.509758755463326e+00	 8.477890756136915e+00
 8.291182385428000e-01	 1.526914927717198e+00	 8.291682084081199e+00
 7.980243554376647e-01	 1.543393461856423e+00	 8.055289493883542e+00
 7.667021557247008e-01	 1.559190191857140e+00	 7.773829058977686e+00
 7.351733947737308e-01	 1.574301854663657e+00	 7.452475679711820e+00
 7.034597962479584e-01	 1.588726082447218e+00	 7.096418571581301e+00
 6.715830077905014e-01	 1.602461392245593e+00	 6.710818525560250e+00
 6.395645578749309e-01	 1.615507173090471e+00	 6.300767281831908e+00
 9.541970074661282e-01	 1.459510922676149e+00	 8.740190344914009e+00
 9.241251926376627e-01	 1.478734827749506e+00	 8.729145710830513e+00
 8.937375078401703e-01	 1.497296673858032e+00	 8.653561708865002e+00
 8.630554519933197e-01	 1.515189542351727e+00	 8.518221774838265e+00
 8.321006782528602e-01	 1.532407427455336e+00	 8.328105280869174e+00
 8.008949466473005e-01	 1.548945236897235e+00	 8.088339400430755e+00
 7.694600771511054e-01	 1.564798789667865e+00	 7.804151561131789e+00
 7.378179033908233e-01	 1.579964810973923e+00	 7.480822926989225e+00
 7.059902271723324e-01	 1.594440924469281e+00	 7.123643323572488e+00
 6.739987740079703e-01	 1.608225641857311e+00	 6.737867986720961e+00
 6.418651498118616e-01	 1.621318349971974e+00	 6.328676479211182e+00
 9.576170684275744e-01	 1.464742144620942e+00	 8.796191075957857e+00
 9.274374693167078e-01	 1.484034952579334e+00	 8.780371525123648e+00
 8.969408680863411e-01	 1.502663328601820e+00	 8.700177648844241e+00
 8.661488407132029e-01	 1.520620329240370e+00	 8.560516334917260e+00
 8.350831179629206e-01	 1.537899927193651e+00	 8.366487293486362e+00
 8.037655378569367e-01	 1.554497011938170e+00	 8.123334224395977e+00
 7.722179985775099e-01	 1.570407387478668e+00	 7.836396610873471e+00
 7.404624120079160e-01	 1.585627767284233e+00	 7.511062586240776e+00
 7.085206580967062e-01	 1.600155766491363e+00	 7.152723291404625e+00
 6.764145402254393e-01	 1.613989891469035e+00	 6.766729107574038e+00
 6.441657417487924e-01	 1.627129526853478e+00	 6.358348111694617e+00
 6.211598223794863e-01	 1.569017758038443e+00	 6.125929764050039e+00
 5.899459344225172e-01	 1.581018673018042e+00	 5.784351538352318e+00
 5.586357711947575e-01	 1.592351194024379e+00	 5.438048717766103e+00
 5.272496564900997e-01	 1.603017170743082e+00	 5.094904043340652e+00
 4.958076448932801e-01	 1.613019227792837e+00	 4.762034797108551e+00
 4.643294875584616e-01	 1.622360741927263e+00	 4.445754993992892e+00
 4.328345998423452e-01	 1.631045817609864e+00	 4.151546209070391e+00
 4.013420308663305e-01	 1.639079261117299e+00	 3.884036948800874e+00
 3.698704350687285e-01	 1.646466553328508e+00	 3.646990384300269e+00
 3.384380457946716e-01	 1.653213821358251e+00	 3.443300181420022e+00
 3.070626509582619e-01	 1.659327809193490e+00	 3.274994087074028e+00
 6.234604143164172e-01	 1.574828934919947e+00	 6.148803136792043e+00
 5.921309193667026e-01	 1.586874297733384e+00	 5.811334782385401e+00
 5.607047925710898e-01	 1.598248791040227e+00	 5.468407494522245e+00
 5.292024329967824e-01	 1.608954271376793e+00	 5.127999094338483e+00
 4.976439695047568e-01	 1.618993373082579e+00	 4.797316497818998e+00
 4.660492264015995e-01	 1.628369485417700e+00	 4.482757331456785e+00
 4.344376909527409e-01	 1.637086728047378e+00	 4.189880269857683e+00
 4.028284828318824e-01	 1.645149925049298e+00	 3.923384004335738e+00
 3.712403255678485e-01	 1.652564577601952e+00	 3.687094660009404e+00
 3.396915200366797e-01	 1.659336835513121e+00	 3.483961394646093e+00
 3.081999200336427e-01	 1.665473467747497e+00	 3.316059836312357e+00
 6.257610062533474e-01	 1.580640111801450e+00	 6.170304714377877e+00
 5.943159043108935e-01	 1.592729922448725e+00	 5.839446638081016e+00
 5.627738139474436e-01	 1.604146388056075e+00	 5.499529184027519e+00
 5.311552095035132e-01	 1.614891372010505e+00	 5.161515182636010e+00
 4.994802941163187e-01	 1.624967518372322e+00	 4.832702649227450e+00
 4.677689652448698e-01	 1.634378228908138e+00	 4.519574141044368e+00
 4.360407820633261e-01	 1.643127638484892e+00	 4.227766601934563e+00
 4.043149347976909e-01	 1.651220588981296e+00	 3.962049926162524e+00
 3.726102160673017e-01	 1.658662601875397e+00	 3.726314058256043e+00
 3.409449942791072e-01	 1.665459849667990e+00	 3.523564360586963e+00
 3.093371891095380e-01	 1.671619126301503e+00	 3.355924903315935e+00
 6.280615981902781e-01	 1.586451288682954e+00	 6.187645076639900e+00
 5.965008892550897e-01	 1.598585547164066e+00	 5.868700443000633e+00
 5.648428353238192e-01	 1.610043985071923e+00	 5.531427084249058e+00
 5.331079860102921e-01	 1.620828472644216e+00	 5.195465511909185e+00
 5.013166187279654e-01	 1.630941663662063e+00	 4.868206311325761e+00
 4.694887040882723e-01	 1.640386972398575e+00	 4.556218294773763e+00
 4.376438731741006e-01	 1.649168548922406e+00	 4.265217849944232e+00
 4.058013867637560e-01	 1.657291252913295e+00	 4.000047096795914e+00
 3.739801065670880e-01	 1.664760626148841e+00	 3.764660669066889e+00
 3.421984685219540e-01	 1.671582863822860e+00	 3.562120850547995e+00
 3.104744581859482e-01	 1.677764784855510e+00	 3.394600718282200e+00
 6.303621901272087e-01	 1.592262465564457e+00	 6.206746897099241e+00
 5.986858741992914e-01	 1.604441171879408e+00	 5.899109649622372e+00
 5.669118567002159e-01	 1.615941582087771e+00	 5.564114579958734e+00
 5.350607625171189e-01	 1.626765573277927e+00	 5.229863346323117e+00
 5.031529433396973e-01	 1.636915808951806e+00	 4.903840580094296e+00
 4.712084429318067e-01	 1.646395715889012e+00	 4.592702677987706e+00
 4.392469642850647e-01	 1.655209459359920e+00	 4.302246651035261e+00
 4.072878387300774e-01	 1.663361916845293e+00	 4.037387872291371e+00
 3.753499970672075e-01	 1.670858650422285e+00	 3.802146538901002e+00
 3.434519427652201e-01	 1.677705877977730e+00	 3.599642577014332e+00
 3.116117272628729e-01	 1.683910443409516e+00	 3.432098639186709e+00
 6.326627820641393e-01	 1.598073642445961e+00	 6.227609997862469e+00
 6.008708591434987e-01	 1.610296796594750e+00	 5.930687823252035e+00
 5.689808780766343e-01	 1.621839179103619e+00	 5.597605141155252e+00
 5.370135390239940e-01	 1.632702673911638e+00	 5.264722009430778e+00
 5.049892679515141e-01	 1.642889954241548e+00	 4.939618586848541e+00
 4.729281817754737e-01	 1.652404459379449e+00	 4.629040189109984e+00
 4.408500553962180e-01	 1.661250369797434e+00	 4.338865634997752e+00
 4.087742906966554e-01	 1.669432580777292e+00	 4.074084582725047e+00
 3.767198875676602e-01	 1.676956674695729e+00	 3.838783671442445e+00
 3.447054170089054e-01	 1.683828892132599e+00	 3.636141194720984e+00
 3.127489963403123e-01	 1.690056101963523e+00	 3.468429953095828e+00
 6.349633740010698e-01	 1.603884819327464e+00	 6.250234340626614e+00
 6.030558440877111e-01	 1.616152421310091e+00	 5.963448639979757e+00
 5.710498994530738e-01	 1.627736776119467e+00	 5.631912321520073e+00
 5.389663155309170e-01	 1.638639774545350e+00	 5.300054883098511e+00
 5.068255925634162e-01	 1.648864099531291e+00	 4.975553497598664e+00
 4.746479206192728e-01	 1.658413202869886e+00	 4.665243739409433e+00
 4.424531465075608e-01	 1.667291280234948e+00	 4.375087424396092e+00
 4.102607426634898e-01	 1.675503244709290e+00	 4.110149532666020e+00
 3.780897780684459e-01	 1.683054698969173e+00	 3.874584028374083e+00
 3.459588912530103e-01	 1.689951906287470e+00	 3.671628301698465e+00
 3.138862654182665e-01	 1.696201760517529e+00	 3.503605877451534e+00
 6.372639659380005e-01	 1.609695996208968e+00	 6.274620024158834e+00
 6.052408290319290e-01	 1.622008046025433e+00	 5.997405884679251e+00
 5.731189208295351e-01	 1.633634373135315e+00	 5.667049756906986e+00
 5.409190920378881e-01	 1.644576875179061e+00	 5.335875406452582e+00
 5.086619171754031e-01	 1.654838244821033e+00	 5.011658512423144e+00
 4.763676594632043e-01	 1.664421946360323e+00	 4.701326252767310e+00
 4.440562376190931e-01	 1.673332190672462e+00	 4.410924634700224e+00
 4.117471946305807e-01	 1.681573908641290e+00	 4.145595001634425e+00
 3.794596685695649e-01	 1.689152723242617e+00	 3.909559530136882e+00
 3.472123654975343e-01	 1.696074920442339e+00	 3.706115440296748e+00
 3.150235344967352e-01	 1.702347419071536e+00	 3.537637561327912e+00
 6.395645578749309e-01	 1.615507173090471e+00	 6.300767281831908e+00
 6.074258139761521e-01	 1.627863670740775e+00	 6.032573449052153e+00
 5.751879422060177e-01	 1.639531970151163e+00	 5.703031163863952e+00
 5.428718685449073e-01	 1.650513975812772e+00	 5.372197074849304e+00
 5.104982417874752e-01	 1.660812390110775e+00	 5.047946864855348e+00
 4.780873983072679e-01	 1.670430689850761e+00	 4.737300665451349e+00
 4.456593287308149e-01	 1.679373101109976e+00	 4.446389874412639e+00
 4.132336465979282e-01	 1.687644572573288e+00	 4.180433244555057e+00
 3.808295590710171e-01	 1.695250747516061e+00	 3.943722056670845e+00
 3.484658397424776e-01	 1.702197934597209e+00	 3.739614098186329e+00
 3.161608035757187e-01	 1.708493077625542e+00	 3.570536086661188e+00
 6.418651498118616e-01	 1.621318349971974e+00	 6.328676479211182e+00
 6.096107989203805e-01	 1.633719295456116e+00	 6.068965329713008e+00
 5.772569635825218e-01	 1.645429567167011e+00	 5.739870338187682e+00
 5.448246450519745e-01	 1.656451076446484e+00	 5.409033438868066e+00
 5.123345663996322e-01	 1.666786535400517e+00	 5.084431821285899e+00
 4.798071371514636e-01	 1.676439433341198e+00	 4.773179925892874e+00
 4.472624198427259e-01	 1.685414011547490e+00	 4.481495745193248e+00
 4.147200985655319e-01	 1.693715236505287e+00	 4.214676492194780e+00
 3.821994495728024e-01	 1.701348771789506e+00	 3.977083448141263e+00
 3.497193139878401e-01	 1.708320948752079e+00	 3.772135709338677e+00
 3.172980726552168e-01	 1.714638736179549e+00	 3.602312469452516e+00
 6.441657417487924e-01	 1.627129526853478e+00	 6.358348111694617e+00
 6.117957838646149e-01	 1.639574920171458e+00	 6.106595626315878e+00
 5.793259849590476e-01	 1.651327164182859e+00	 5.777581153507151e+00
 5.467774215590897e-01	 1.662388177080194e+00	 5.446398103324466e+00
 5.141708910118744e-01	 1.672760680690260e+00	 5.121126680373696e+00
 4.815268759957916e-01	 1.682448176831636e+00	 4.808976994469997e+00
 4.488655109548266e-01	 1.691454921985005e+00	 4.516254841981856e+00
 4.162065505333923e-01	 1.699785900437285e+00	 4.248336951596579e+00
 3.835693400749209e-01	 1.707446796062950e+00	 4.009655505648889e+00
 3.509727882336220e-01	 1.714443962906949e+00	 3.803691654984756e+00
 3.184353417352296e-01	 1.720784394733555e+00	 3.632977660945587e+00
 3.070626509582619e-01	 1.659327809193490e+00	 3.274994087074028e+00
 2.757615707984564e-01	 1.664815847489567e+00	 3.095336644350242e+00
 2.445516377392530e-01	 1.669685822681940e+00	 2.931459118225782e+00
 2.134491783511687e-01	 1.673946145564679e+00	 2.783722738912785e+00
 1.824699974001335e-01	 1.677605719482796e+00	 2.651739417002850e+00
 1.516293639610341e-01	 1.680673908281956e+00	 2.534402515992391e+00
 1.209419995620252e-01	 1.683160504152465e+00	 2.429922327410838e+00
 9.042206831711083e-02	 1.685075695498425e+00	 2.335865655600055e+00
 6.008316899630656e-02	 1.686430034956264e+00	 2.249198913478928e+00
 2.993832897530568e-02	 1.687234407679612e+00	 2.166334132518865e+00
 0.000000000000000e+00	 1.687500000000000e+00	 2.083177299038859e+00
 3.081999200336427e-01	 1.665473467747497e+00	 3.316059836312357e+00
 2.767829099468250e-01	 1.670981832111057e+00	 3.137560961126653e+00
 2.454573845426315e-01	 1.675869844248338e+00	 2.973897562774292e+00
 2.142397308603556e-01	 1.680145946104500e+00	 2.825486091774851e+00
 1.831458122020947e-01	 1.683819073999904e+00	 2.691988138317633e+00
 1.521909541948618e-01	 1.686898626461127e+00	 2.572341206577394e+00
 1.213899328909863e-01	 1.689394431945843e+00	 2.464794247960824e+00
 9.075696486415070e-02	 1.691316716592987e+00	 2.366947355552156e+00
 6.030569925018214e-02	 1.692676072122823e+00	 2.275795016101304e+00
 3.004921167431000e-02	 1.693483424004365e+00	 2.187772317648342e+00
 0.000000000000000e+00	 1.693750000000000e+00	 2.098803519709510e+00
 3.093371891095380e-01	 1.671619126301503e+00	 3.355924903315935e+00
 2.778042490957923e-01	 1.677147816732546e+00	 3.178513423610575e+00
 2.463631313466607e-01	 1.682053865814735e+00	 3.015030708524931e+00
 2.150302833702146e-01	 1.686345746644320e+00	 2.865948364109602e+00
 1.838216270047188e-01	 1.690032428517012e+00	 2.730977448289545e+00
 1.527525444293128e-01	 1.693123344640297e+00	 2.609099252929231e+00
 1.218378662205023e-01	 1.695628359739222e+00	 2.498600901758080e+00
 9.109186141164824e-02	 1.697557737687550e+00	 2.397115161568697e+00
 6.052822950439003e-02	 1.698922109289383e+00	 2.301663857953625e+00
 3.016009437349386e-02	 1.699732440329118e+00	 2.208704288470363e+00
 0.000000000000000e+00	 1.700000000000000e+00	 2.114178034895057e+00
 3.104744581859482e-01	 1.677764784855510e+00	 3.394600718282200e+00
 2.788255882453581e-01	 1.683313801354035e+00	 3.218204663420758e+00
 2.472688781513409e-01	 1.688237887381133e+00	 3.054868305737764e+00
 2.158208358807457e-01	 1.692545547184140e+00	 2.905118347054850e+00
 1.844974418080056e-01	 1.696245783034120e+00	 2.768715105980397e+00
 1.533141346643875e-01	 1.699348062819468e+00	 2.644683313676506e+00
 1.222857995505732e-01	 1.701862287532601e+00	 2.531347783021752e+00
 9.142675795960345e-02	 1.703798758782112e+00	 2.426373343641296e+00
 6.075075975893020e-02	 1.705168146455942e+00	 2.326808428917262e+00
 3.027097707285725e-02	 1.705981456653871e+00	 2.229131702587376e+00
 0.000000000000000e+00	 1.706250000000000e+00	 2.129301121243017e+00
 3.116117272628729e-01	 1.683910443409516e+00	 3.432098639186709e+00
 2.798469273955225e-01	 1.689479785975525e+00	 3.256645234794608e+00
 2.481746249566721e-01	 1.694421908947531e+00	 3.093420024942397e+00
 2.166113883919488e-01	 1.698745347723960e+00	 2.943004752428378e+00
 1.851732566119552e-01	 1.702459137551228e+00	 2.805208794250497e+00
 1.538757249000856e-01	 1.705572780998639e+00	 2.679099977018587e+00
 1.227337328811991e-01	 1.708096215325980e+00	 2.563040323905249e+00
 9.176165450801628e-02	 1.710039779876674e+00	 2.454726120585282e+00
 6.097329001380267e-02	 1.711414183622501e+00	 2.351231681046835e+00
 3.038185977240015e-02	 1.712230472978624e+00	 2.249056195511753e+00
 0.000000000000000e+00	 1.712500000000000e+00	 2.144173051362338e+00
 3.127489963403123e-01	 1.690056101963523e+00	 3.468429953095828e+00
 2.808682665462856e-01	 1.695645770597015e+00	 3.293845615996548e+00
 2.490803717626540e-01	 1.700605930513930e+00	 3.130695458386326e+00
 2.174019409038241e-01	 1.704945148263781e+00	 2.979616214169418e+00
 1.858490714165675e-01	 1.708672492068336e+00	 2.840466121145242e+00
 1.544373151364073e-01	 1.711797499177808e+00	 2.712355762006348e+00
 1.231816662123799e-01	 1.714330143119358e+00	 2.593683895623836e+00
 9.209655105688676e-02	 1.716280800971236e+00	 2.482177660971069e+00
 6.119582026900745e-02	 1.717660220789061e+00	 2.374936529258071e+00
 3.049274247212257e-02	 1.718479489303377e+00	 2.268479381068152e+00
 0.000000000000000e+00	 1.718750000000000e+00	 2.158794093896523e+00
 3.138862654182665e-01	 1.696201760517529e+00	 3.503605877451534e+00
 2.818896056976471e-01	 1.701811755218504e+00	 3.329816210693493e+00
 2.499861185692868e-01	 1.706789952080327e+00	 3.166704121454799e+00
 2.181924934163715e-01	 1.711144948803601e+00	 3.014961289749699e+00
 1.865248862218426e-01	 1.714885846585444e+00	 2.874494621248743e+00
 1.549989053733525e-01	 1.718022217356979e+00	 2.744457119793996e+00
 1.236295995441156e-01	 1.720564070912737e+00	 2.623283809559372e+00
 9.243144760621491e-02	 1.722521822065799e+00	 2.508732084033910e+00
 6.141835052454450e-02	 1.723906257955620e+00	 2.397925852001227e+00
 3.060362517202453e-02	 1.724728505628129e+00	 2.287402851786608e+00
 0.000000000000000e+00	 1.725000000000000e+00	 2.173164513595699e+00
 3.150235344967352e-01	 1.702347419071536e+00	 3.537637561327912e+00
 2.829109448496074e-01	 1.707977739839994e+00	 3.364567349301320e+00
 2.508918653765705e-01	 1.712973973646726e+00	 3.201455454056550e+00
 2.189830459295909e-01	 1.717344749343421e+00	 3.049048461553740e+00
 1.872007010277805e-01	 1.721099201102551e+00	 2.907301757011794e+00
 1.555604956109212e-01	 1.724246935536149e+00	 2.775410434865384e+00
 1.240775328764063e-01	 1.726797998706116e+00	 2.651845318340134e+00
 9.276634415600067e-02	 1.728762843160361e+00	 2.534393460564456e+00
 6.164088078041387e-02	 1.730152295122179e+00	 2.420202491918354e+00
 3.071450787210601e-02	 1.730977521952883e+00	 2.305828179286484e+00
 0.000000000000000e+00	 1.731250000000000e+00	 2.187284571387062e+00
 3.161608035757187e-01	 1.708493077625542e+00	 3.570536086661188e+00
 2.839322840021661e-01	 1.714143724461484e+00	 3.398109290302834e+00
 2.517976121845051e-01	 1.719157995213123e+00	 3.234958821982497e+00
 2.197735984434824e-01	 1.723544549883241e+00	 3.081886138229523e+00
 1.878765158343812e-01	 1.727312555619659e+00	 2.938894920047908e+00
 1.561220858491134e-01	 1.730471653715320e+00	 2.805222026232776e+00
 1.245254662092519e-01	 1.733031926499494e+00	 2.679373616897401e+00
 9.310124070624412e-02	 1.735003864254923e+00	 2.559165813780168e+00
 6.186341103661554e-02	 1.736398332288739e+00	 2.441769256488131e+00
 3.082539057236702e-02	 1.737226538277635e+00	 2.323756914652671e+00
 0.000000000000000e+00	 1.737500000000000e+00	 2.201154524443331e+00
 3.172980726552168e-01	 1.714638736179549e+00	 3.602312469452516e+00
 2.849536231553236e-01	 1.720309709082974e+00	 3.430452221536459e+00
 2.527033589930906e-01	 1.725342016779521e+00	 3.267223518233336e+00
 2.205641509580461e-01	 1.729744350423062e+00	 3.113482656010216e+00
 1.885523306416446e-01	 1.733525910136767e+00	 2.969281432403174e+00
 1.566836760879291e-01	 1.736696371894490e+00	 2.833898148610823e+00
 1.249733995426525e-01	 1.739265854292873e+00	 2.705873843499565e+00
 9.343613725694523e-02	 1.741244885349486e+00	 2.583053120178042e+00
 6.208594129314950e-02	 1.742644369455297e+00	 2.462628918655807e+00
 3.093627327280755e-02	 1.743475554602389e+00	 2.341190588803933e+00
 0.000000000000000e+00	 1.743750000000000e+00	 2.214774626250315e+00
 3.184353417352296e-01	 1.720784394733555e+00	 3.632977660945587e+00
 2.859749623090795e-01	 1.726475693704463e+00	 3.461606261457742e+00
 2.536091058023270e-01	 1.731526038345919e+00	 3.298258764320028e+00
 2.213547034732818e-01	 1.735944150962883e+00	 3.143846280006039e+00
 1.892281454495708e-01	 1.739739264653876e+00	 2.998468547798496e+00
 1.572452663273684e-01	 1.742921090073661e+00	 2.861444993563167e+00
 1.254213328766080e-01	 1.745499782086253e+00	 2.731351080763604e+00
 9.377103380810400e-02	 1.747485906444048e+00	 2.606059310368406e+00
 6.230847155001575e-02	 1.748890406621857e+00	 2.482784217449592e+00
 3.104715597342760e-02	 1.749724570927141e+00	 2.358130712852244e+00
 0.000000000000000e+00	 1.750000000000000e+00	 2.228145126672168e+00
 1.750000000000000e+00	 0.000000000000000e+00	 1.293098018623923e+01
 1.749724570927141e+00	 3.104715597342660e-02	 1.303921206540174e+01
 1.748890406621857e+00	 6.230847155001487e-02	 1.313015257666415e+01
 1.747485906444048e+00	 9.377103380810323e-02	 1.320420768089865e+01
 1.745499782086252e+00	 1.254213328766073e-01	 1.326203070840422e+01
 1.742921090073661e+00	 1.572452663273678e-01	 1.330452783320503e+01
 1.739739264653876e+00	 1.892281454495704e-01	 1.333286162909660e+01
 1.735944150962882e+00	 2.213547034732815e-01	 1.334845254257208e+01
 1.731526038345920e+00	 2.536091058023268e-01	 1.335297812877850e+01
 1.726475693704463e+00	 2.859749623090794e-01	 1.334836991055043e+01
 1.720784394733555e+00	 3.184353417352296e-01	 1.333680773738297e+01
 1.756250000000000e+00	 0.000000000000000e+00	 1.290463250760751e+01
 1.755973587251892e+00	 3.115803867404666e-02	 1.301167331449043e+01
 1.755136443788407e+00	 6.253100180688112e-02	 1.310173959900683e+01
 1.753726927538590e+00	 9.410593035926200e-02	 1.317526346784533e+01
 1.751733709879594e+00	 1.258692662105629e-01	 1.323292650774022e+01
 1.749145808252773e+00	 1.578068565668071e-01	 1.327566522022864e+01
 1.745952619170899e+00	 1.899039602574965e-01	 1.330467451536048e+01
 1.742143951502586e+00	 2.221452559885172e-01	 1.332140909818443e+01
 1.737710059912165e+00	 2.545148526115631e-01	 1.332758259301229e+01
 1.732641678325758e+00	 2.869963014628353e-01	 1.332516426455088e+01
 1.726930053287319e+00	 3.195726108152424e-01	 1.331637321202528e+01
 1.762500000000000e+00	 0.000000000000000e+00	 1.287925725560723e+01
 1.762222603576638e+00	 3.126892137448718e-02	 1.298506776968166e+01
 1.761382480954939e+00	 6.275353206341507e-02	 1.307421064484758e+01
 1.759967948633089e+00	 9.444082690996308e-02	 1.314714416509264e+01
 1.757967637672860e+00	 1.263171995439634e-01	 1.320457824681664e+01
 1.755370526431766e+00	 1.583684468056228e-01	 1.324747983537380e+01
 1.752165973687751e+00	 1.905797750647600e-01	 1.327707633756464e+01
 1.748343752042055e+00	 2.229358085030808e-01	 1.329485692257019e+01
 1.743894081478101e+00	 2.554205994201487e-01	 1.330257153516263e+01
 1.738807662946661e+00	 2.880176406159928e-01	 1.330222747930435e+01
 1.733075711840597e+00	 3.207098798947405e-01	 1.329608344750341e+01
 1.768750000000000e+00	 0.000000000000000e+00	 1.285483466367660e+01
 1.768471619901379e+00	 3.137980407474818e-02	 1.295937505852894e+01
 1.767628518121452e+00	 6.297606231961674e-02	 1.304754474479848e+01
 1.766208969727548e+00	 9.477572346020650e-02	 1.311982821697089e+01
 1.764201565466052e+00	 1.267651328768090e-01	 1.317696379615764e+01
 1.761595244610644e+00	 1.589300370438151e-01	 1.321994898974851e+01
 1.758379328204433e+00	 1.912555898713607e-01	 1.325004386380044e+01
 1.754543552581293e+00	 2.237263610169724e-01	 1.326877225930422e+01
 1.750078103043732e+00	 2.563263462280832e-01	 1.327792069497497e+01
 1.744973647567174e+00	 2.890389797685515e-01	 1.327953481368154e+01
 1.739221370393391e+00	 3.218471489737239e-01	 1.327591324710990e+01
 1.775000000000000e+00	 0.000000000000000e+00	 1.283134524365632e+01
 1.774720636226116e+00	 3.149068677482966e-02	 1.293457508782000e+01
 1.773874555287947e+00	 6.319859257548609e-02	 1.302172120891501e+01
 1.772449990821964e+00	 9.511062000999231e-02	 1.309329434682575e+01
 1.770435493259169e+00	 1.272130662090997e-01	 1.315006130422516e+01
 1.767819962789402e+00	 1.594916272813838e-01	 1.319305027065955e+01
 1.764592682720944e+00	 1.919314046772986e-01	 1.322355413594665e+01
 1.760743353120295e+00	 2.245169135301917e-01	 1.324313162265565e+01
 1.756262124609056e+00	 2.572320930353669e-01	 1.325360607910588e+01
 1.751139632187295e+00	 2.900603189205118e-01	 1.325706178898454e+01
 1.745367028945698e+00	 3.229844180521926e-01	 1.325583767138619e+01
 1.781250000000000e+00	 0.000000000000000e+00	 1.280876978090506e+01
 1.780969652550848e+00	 3.160156947473162e-02	 1.291064803867830e+01
 1.780120592454423e+00	 6.342112283102316e-02	 1.299671962179354e+01
 1.778691011916338e+00	 9.544551655932045e-02	 1.306752155212347e+01
 1.776669421052212e+00	 1.276609995408355e-01	 1.312384919254294e+01
 1.774044680968043e+00	 1.600532175183290e-01	 1.316676153676676e+01
 1.770806037237285e+00	 1.926072194825737e-01	 1.319758446486605e+01
 1.766943153659065e+00	 2.253074660427391e-01	 1.321791179283874e+01
 1.762446146174073e+00	 2.581378398419998e-01	 1.322960395644049e+01
 1.757305616807026e+00	 2.910816580718733e-01	 1.323478418434254e+01
 1.751512687497521e+00	 3.241216871301467e-01	 1.323583203360967e+01
 1.787500000000000e+00	 0.000000000000000e+00	 1.278708932951782e+01
 1.787218668875576e+00	 3.171245217445404e-02	 1.288757436176681e+01
 1.786366629620881e+00	 6.364365308622792e-02	 1.297251983777164e+01
 1.784932033010671e+00	 9.578041310819092e-02	 1.304248909965841e+01
 1.782903348845179e+00	 1.281089328720163e-01	 1.309830615092268e+01
 1.780269399146567e+00	 1.606148077546506e-01	 1.314106091333911e+01
 1.777019391753456e+00	 1.932830342871860e-01	 1.317211242570291e+01
 1.773142954197601e+00	 2.260980185546144e-01	 1.319308981136363e+01
 1.768630167738783e+00	 2.590435866479818e-01	 1.320589085350802e+01
 1.763471601426367e+00	 2.921029972226363e-01	 1.321267803220451e+01
 1.757658346048858e+00	 3.252589562075862e-01	 1.321587189537506e+01
 1.793750000000000e+00	 0.000000000000000e+00	 1.276628520764413e+01
 1.793467685200299e+00	 3.182333487399695e-02	 1.286533477259210e+01
 1.792612666787321e+00	 6.386618334110040e-02	 1.294910197622883e+01
 1.791173054104962e+00	 9.611530965660378e-02	 1.301817652086097e+01
 1.789137276638072e+00	 1.285568662026422e-01	 1.307341113278993e+01
 1.786494117324974e+00	 1.611763979903488e-01	 1.311592678761001e+01
 1.783232746269456e+00	 1.939588490911356e-01	 1.314711585327884e+01
 1.779342754735904e+00	 2.268885710658175e-01	 1.316864297648406e+01
 1.774814189303186e+00	 2.599493334533128e-01	 1.318244354999328e+01
 1.769637586045316e+00	 2.931243363728007e-01	 1.319071961392593e+01
 1.763804004599710e+00	 3.263962252845110e-01	 1.319593306226841e+01
 1.800000000000000e+00	 0.000000000000000e+00	 1.274633899290370e+01
 1.799716701525018e+00	 3.193421757336032e-02	 1.284391024690649e+01
 1.798858703953742e+00	 6.408871359564058e-02	 1.292644641698508e+01
 1.797414075199210e+00	 9.645020620455896e-02	 1.299456360720320e+01
 1.795371204430890e+00	 1.290047995327131e-01	 1.304914335060754e+01
 1.792718835503261e+00	 1.617379882254234e-01	 1.309133780422927e+01
 1.789446100785286e+00	 1.946346638944224e-01	 1.312257283758441e+01
 1.785542555273972e+00	 2.276791235763486e-01	 1.314454883874001e+01
 1.780998210867283e+00	 2.608550802579930e-01	 1.315923907434150e+01
 1.775803570663875e+00	 2.941456755223666e-01	 1.316888545544753e+01
 1.769949663150077e+00	 3.275334943609210e-01	 1.317599157963117e+01
 1.806250000000000e+00	 0.000000000000000e+00	 1.272723251789738e+01
 1.805965717849731e+00	 3.204510027254416e-02	 1.282328201620559e+01
 1.805104741120144e+00	 6.431124384984846e-02	 1.290453379579494e+01
 1.803655096293418e+00	 9.678510275205648e-02	 1.297163040569980e+01
 1.801605132223634e+00	 1.294527328622291e-01	 1.302548227139418e+01
 1.798943553681433e+00	 1.622995784598745e-01	 1.306727286080950e+01
 1.795659455300944e+00	 1.953104786970464e-01	 1.309846171936451e+01
 1.791742355811808e+00	 2.284696760862076e-01	 1.312078519659298e+01
 1.787182232431072e+00	 2.617608270620223e-01	 1.313625469945463e+01
 1.781969555282043e+00	 2.951670146713338e-01	 1.314715232306362e+01
 1.776095321699958e+00	 3.286707634368164e-01	 1.315602372841200e+01
 1.812500000000000e+00	 0.000000000000000e+00	 1.270894786581080e+01
 1.812214734174441e+00	 3.215598297154849e-02	 1.280343156331869e+01
 1.811350778286529e+00	 6.453377410372405e-02	 1.288334499993489e+01
 1.809896117387584e+00	 9.711999929909639e-02	 1.294935721450229e+01
 1.807839060016302e+00	 1.299006661911901e-01	 1.300240761233506e+01
 1.805168271859486e+00	 1.628611686937021e-01	 1.304371110356475e+01
 1.801872809816433e+00	 1.959862934990077e-01	 1.307476108579510e+01
 1.797942156349410e+00	 2.292602285953946e-01	 1.309733009215136e+01
 1.793366253994555e+00	 2.626665738654008e-01	 1.311346793847650e+01
 1.788135539899820e+00	 2.961883538197025e-01	 1.312549721927816e+01
 1.782240980249354e+00	 3.298080325121973e-01	 1.313600602110484e+01
 1.720784394733555e+00	 3.184353417352296e-01	 1.333680773738297e+01
 1.714443962906949e+00	 3.509727882336210e-01	 1.338825753997137e+01
 1.707446796062951e+00	 3.835693400749202e-01	 1.342619597194693e+01
 1.699785900437286e+00	 4.162065505333916e-01	 1.345160196781884e+01
 1.691454921985004e+00	 4.488655109548259e-01	 1.346563512443162e+01
 1.682448176831636e+00	 4.815268759957912e-01	 1.346962337584084e+01
 1.672760680690260e+00	 5.141708910118742e-01	 1.346504828086773e+01
 1.662388177080195e+00	 5.467774215590896e-01	 1.345352796177382e+01
 1.651327164182859e+00	 5.793259849590476e-01	 1.343679776373546e+01
 1.639574920171458e+00	 6.117957838646149e-01	 1.341668873697953e+01
 1.627129526853477e+00	 6.441657417487924e-01	 1.316884138550047e+01
 1.726930053287319e+00	 3.195726108152424e-01	 1.331637321202528e+01
 1.720566977061533e+00	 3.522262624794006e-01	 1.336599235838335e+01
 1.713544820336080e+00	 3.849392305770292e-01	 1.340305562254680e+01
 1.705856564368955e+00	 4.176930025012306e-01	 1.342864584280878e+01
 1.697495832422190e+00	 4.504686020668884e-01	 1.344402796011785e+01
 1.688456920321759e+00	 4.832466148400593e-01	 1.345063617989959e+01
 1.678734825979717e+00	 5.160072156240295e-01	 1.345005870929239e+01
 1.668325277713667e+00	 5.487301980660866e-01	 1.344402011060063e+01
 1.657224761198529e+00	 5.813950063354179e-01	 1.343436134351663e+01
 1.645430544886697e+00	 6.139807688086515e-01	 1.342301760135461e+01
 1.632940703734971e+00	 6.464663336854780e-01	 1.315703063821227e+01
 1.733075711840597e+00	 3.207098798947405e-01	 1.329608344750341e+01
 1.726689991215546e+00	 3.534797367247562e-01	 1.334393234709990e+01
 1.719642844608581e+00	 3.863091210787862e-01	 1.338017212520437e+01
 1.711927228299967e+00	 4.191794544687705e-01	 1.340598966062480e+01
 1.703536742858716e+00	 4.520716931786853e-01	 1.342275541289835e+01
 1.694465663811254e+00	 4.849663536840757e-01	 1.343201007049448e+01
 1.684708971268607e+00	 5.178435402359270e-01	 1.343544873687923e+01
 1.674262378346661e+00	 5.506829745727986e-01	 1.343490269760257e+01
 1.663122358213840e+00	 5.834640277114557e-01	 1.343231884383220e+01
 1.651286169601731e+00	 6.161657537522875e-01	 1.342973686096033e+01
 1.638751880616444e+00	 6.487669256216739e-01	 1.314549081665858e+01
 1.739221370393391e+00	 3.218471489737239e-01	 1.327591324710990e+01
 1.732813005368987e+00	 3.547332109696877e-01	 1.332204983981506e+01
 1.725740868880452e+00	 3.876790115801912e-01	 1.335751538552103e+01
 1.717997892230319e+00	 4.206659064360111e-01	 1.338360094642784e+01
 1.709577653294585e+00	 4.536747842902166e-01	 1.340178268138879e+01
 1.700474407300119e+00	 4.866860925278401e-01	 1.341370797990828e+01
 1.690683116556928e+00	 5.196798648475660e-01	 1.342117909615875e+01
 1.680199478979176e+00	 5.526357510792256e-01	 1.342613432853300e+01
 1.669019955228796e+00	 5.855330490871615e-01	 1.343062682302715e+01
 1.657141794316562e+00	 6.183507386955233e-01	 1.343680111246842e+01
 1.644563057497895e+00	 6.510675175573803e-01	 1.313423881736272e+01
 1.745367028945698e+00	 3.229844180521926e-01	 1.325583767138619e+01
 1.738936019521857e+00	 3.559866852141954e-01	 1.330031745033991e+01
 1.731838893151694e+00	 3.890489020812443e-01	 1.333505561121469e+01
 1.724068556160014e+00	 4.221523584029530e-01	 1.336144754857440e+01
 1.715618563729795e+00	 4.552778754014821e-01	 1.338107530750741e+01
 1.706483150788357e+00	 4.884058313713526e-01	 1.339569320281152e+01
 1.696657261844680e+00	 5.215161894589470e-01	 1.340721090006356e+01
 1.686136579611213e+00	 5.545885275853678e-01	 1.341767400644286e+01
 1.674917552243394e+00	 5.876020704625352e-01	 1.342924225247538e+01
 1.662997419031187e+00	 6.205357236383587e-01	 1.344416538010238e+01
 1.650374234379327e+00	 6.533681094925969e-01	 1.312329197767192e+01
 1.751512687497521e+00	 3.241216871301467e-01	 1.323583203360967e+01
 1.745059033674157e+00	 3.572401594582790e-01	 1.327870806768820e+01
 1.737936917422307e+00	 3.904187925819453e-01	 1.331276330681954e+01
 1.730139220089050e+00	 4.236388103695954e-01	 1.333949763294626e+01
 1.721659474164347e+00	 4.568809665124822e-01	 1.336059917045230e+01
 1.712491894275967e+00	 4.901255702146132e-01	 1.337792938990485e+01
 1.702631407131863e+00	 5.233525140700698e-01	 1.339350563525441e+01
 1.692073680242773e+00	 5.565413040912253e-01	 1.340948112471073e+01
 1.680815149257635e+00	 5.896710918375766e-01	 1.342812250933363e+01
 1.668853043745608e+00	 6.227207085807935e-01	 1.345178510813649e+01
 1.656185411260738e+00	 6.556687014273237e-01	 1.311266806802348e+01
 1.757658346048858e+00	 3.252589562075862e-01	 1.321587189537506e+01
 1.751182047825884e+00	 3.584936337019386e-01	 1.325719485126515e+01
 1.744034941692291e+00	 3.917886830822943e-01	 1.329060926849688e+01
 1.736209884017429e+00	 4.251252623359390e-01	 1.331771967739950e+01
 1.727700384598241e+00	 4.584840576232165e-01	 1.334032048080475e+01
 1.718500637762947e+00	 4.918453090576220e-01	 1.336038054169475e+01
 1.708605552418479e+00	 5.251888386809342e-01	 1.338002515558676e+01
 1.698010780873853e+00	 5.584940805967976e-01	 1.340151546021878e+01
 1.686712746271519e+00	 5.917401132122858e-01	 1.342722536944741e+01
 1.674708668459824e+00	 6.249056935228279e-01	 1.345961615355230e+01
 1.661996588142128e+00	 6.579692933615608e-01	 1.310238528437330e+01
 1.763804004599710e+00	 3.263962252845110e-01	 1.319593306226841e+01
 1.757305061977040e+00	 3.597471079451743e-01	 1.323575122615684e+01
 1.750132965961646e+00	 3.931585735822912e-01	 1.326856457895463e+01
 1.742280547945149e+00	 4.266117143019832e-01	 1.329608246632936e+01
 1.733741295031477e+00	 4.600871487336852e-01	 1.332020577475614e+01
 1.724509381249300e+00	 4.935650479003789e-01	 1.334301100239934e+01
 1.714579697704524e+00	 5.270251632915406e-01	 1.336673167571341e+01
 1.703947881504455e+00	 5.604468571020852e-01	 1.339373716667160e+01
 1.692610343285047e+00	 5.938091345866627e-01	 1.342650900040513e+01
 1.680564293173836e+00	 6.270906784644620e-01	 1.344239011107553e+01
 1.667807765023498e+00	 6.602698852953083e-01	 1.309246224078269e+01
 1.769949663150077e+00	 3.275334943609210e-01	 1.317599157963117e+01
 1.763428076127625e+00	 3.610005821879859e-01	 1.321435087851755e+01
 1.756230990230371e+00	 3.945284640819363e-01	 1.324660060247244e+01
 1.748351211872210e+00	 4.280981662677285e-01	 1.327455508534834e+01
 1.739782205464054e+00	 4.616902398438882e-01	 1.330022190845498e+01
 1.730518124735023e+00	 4.952847867428838e-01	 1.332578545398112e+01
 1.720553842990002e+00	 5.288614879018886e-01	 1.335358776482084e+01
 1.709884982134579e+00	 5.623996336070879e-01	 1.338610676805415e+01
 1.698507940298216e+00	 5.958781559607078e-01	 1.342593195473705e+01
 1.686419917887642e+00	 6.292756634056959e-01	 1.342416507297859e+01
 1.673618941904847e+00	 6.625704772285660e-01	 1.308291796215956e+01
 1.776095321699958e+00	 3.286707634368164e-01	 1.315602372841200e+01
 1.769551090277639e+00	 3.622540564303737e-01	 1.319296775105321e+01
 1.762329014498468e+00	 3.958983545812292e-01	 1.322468898003027e+01
 1.754421875798614e+00	 4.295846182331746e-01	 1.325310691607488e+01
 1.745823115895974e+00	 4.632933309538260e-01	 1.328033605247127e+01
 1.736526868220119e+00	 4.970045255851370e-01	 1.330866891030368e+01
 1.726527988274911e+00	 5.306978125119785e-01	 1.334055634049529e+01
 1.715822082764225e+00	 5.643524101118058e-01	 1.337858515222548e+01
 1.704405537311030e+00	 5.979471773344204e-01	 1.342545316325535e+01
 1.692275542601245e+00	 6.314606483465293e-01	 1.340609676448884e+01
 1.679430118786176e+00	 6.648710691613339e-01	 1.307377187715034e+01
 1.782240980249354e+00	 3.298080325121973e-01	 1.313600602110484e+01
 1.775674104427081e+00	 3.635075306723373e-01	 1.317157603859792e+01
 1.768427038765936e+00	 3.972682450801703e-01	 1.320280162453768e+01
 1.760492539724359e+00	 4.310710701983217e-01	 1.323170763102983e+01
 1.751864026327236e+00	 4.648964220634977e-01	 1.326051568637541e+01
 1.742535611704586e+00	 4.987242644271382e-01	 1.329162671140936e+01
 1.732502133559251e+00	 5.325341371218103e-01	 1.332760066271592e+01
 1.721759183393393e+00	 5.663051866162386e-01	 1.337113356464502e+01
 1.710303134323486e+00	 6.000161987078011e-01	 1.342503192853210e+01
 1.698131167314643e+00	 6.336456332869622e-01	 1.338820402082010e+01
 1.685241295667484e+00	 6.671716610936123e-01	 1.306504381117901e+01
 1.627129526853477e+00	 6.441657417487924e-01	 1.316884138550047e+01
 1.613989891469035e+00	 6.764145402254380e-01	 1.319386525041223e+01
 1.600155766491363e+00	 7.085206580967054e-01	 1.320556256044963e+01
 1.585627767284233e+00	 7.404624120079152e-01	 1.320605186192591e+01
 1.570407387478669e+00	 7.722179985775096e-01	 1.319801025023938e+01
 1.554497011938170e+00	 8.037655378569362e-01	 1.318470268542778e+01
 1.537899927193651e+00	 8.350831179629202e-01	 1.317000614976271e+01
 1.520620329240370e+00	 8.661488407132028e-01	 1.315842807672820e+01
 1.502663328601820e+00	 8.969408680863411e-01	 1.315511852872839e+01
 1.484034952579334e+00	 9.274374693167079e-01	 1.316587565896100e+01
 1.464742144620942e+00	 9.576170684275744e-01	 1.319714406056526e+01
 1.632940703734971e+00	 6.464663336854780e-01	 1.315703063821227e+01
 1.619754141080844e+00	 6.788303064426171e-01	 1.318528799476409e+01
 1.605870608513617e+00	 7.110510890207534e-01	 1.319928803029925e+01
 1.591290723594789e+00	 7.431069206246562e-01	 1.320101518710108e+01
 1.576015985289785e+00	 7.749759200035463e-01	 1.319302143565893e+01
 1.560048786979474e+00	 8.066361290661981e-01	 1.317845665848349e+01
 1.543392426932382e+00	 8.380655576726103e-01	 1.316109381863793e+01
 1.526051116129465e+00	 8.692422294327300e-01	 1.314534833102554e+01
 1.508029983346087e+00	 9.001442283321798e-01	 1.313629110289281e+01
 1.489335077409657e+00	 9.307497459954553e-01	 1.313965476867471e+01
 1.469973366566236e+00	 9.610371293887680e-01	 1.316183271271382e+01
 1.638751880616444e+00	 6.487669256216739e-01	 1.314549081665858e+01
 1.625518390692817e+00	 6.812460726592154e-01	 1.317680665688604e+01
 1.611585450536192e+00	 7.135815199441501e-01	 1.319292525664762e+01
 1.596953679905796e+00	 7.457514292406936e-01	 1.319569683656274e+01
 1.581624583101451e+00	 7.777338414288473e-01	 1.318754820862012e+01
 1.565600562021397e+00	 8.095067202747122e-01	 1.317151423296401e+01
 1.548884926671770e+00	 8.410479973815600e-01	 1.315126400150278e+01
 1.531481903019225e+00	 8.723356181515441e-01	 1.313112115501217e+01
 1.513396638090996e+00	 9.033475885773545e-01	 1.311607778924469e+01
 1.494635202240570e+00	 9.340620226736079e-01	 1.311180146480787e+01
 1.475204588512034e+00	 9.644571903494563e-01	 1.312463490471768e+01
 1.644563057497895e+00	 6.510675175573803e-01	 1.313423881736272e+01
 1.631282640304955e+00	 6.836618388752337e-01	 1.316844313339208e+01
 1.617300292559089e+00	 7.161119508668949e-01	 1.318650097174776e+01
 1.602616636217254e+00	 7.483959378560275e-01	 1.319012820177409e+01
 1.587233180913666e+00	 7.804917628534128e-01	 1.318162643184438e+01
 1.571152337063938e+00	 8.123773114824782e-01	 1.316391554388782e+01
 1.554377426411815e+00	 8.440304370897695e-01	 1.314056089627463e+01
 1.536912689909651e+00	 8.754290068696466e-01	 1.311579459029629e+01
 1.518763292836549e+00	 9.065509488218652e-01	 1.309453024474551e+01
 1.499935327072073e+00	 9.373742993511657e-01	 1.308237078293769e+01
 1.480435810458338e+00	 9.678772513096394e-01	 1.308560880640673e+01
 1.650374234379327e+00	 6.533681094925969e-01	 1.312329197767192e+01
 1.637046889917259e+00	 6.860776050906721e-01	 1.316021971574363e+01
 1.623015134582309e+00	 7.186423817889885e-01	 1.318004225742731e+01
 1.608279592529162e+00	 7.510404464706582e-01	 1.318434097929451e+01
 1.592841778726431e+00	 7.832496842772426e-01	 1.317529222955566e+01
 1.576704112107097e+00	 8.152479026894961e-01	 1.315570094515719e+01
 1.559869926152517e+00	 8.470128767972385e-01	 1.312902887819905e+01
 1.542343476800742e+00	 8.785223955870369e-01	 1.309941681540955e+01
 1.524129947582745e+00	 9.097543090657123e-01	 1.307170022411191e+01
 1.505235451904165e+00	 9.406865760281283e-01	 1.305141781854820e+01
 1.485667032405147e+00	 9.712973122693169e-01	 1.304481261107090e+01
 1.656185411260738e+00	 6.556687014273237e-01	 1.311266806802348e+01
 1.642811139529729e+00	 6.884933713055299e-01	 1.315215908332241e+01
 1.628729976605851e+00	 7.211728127104307e-01	 1.317357653895548e+01
 1.613942548841521e+00	 7.536849550845854e-01	 1.317836716542680e+01
 1.598450376539745e+00	 7.860076057003369e-01	 1.316858198289278e+01
 1.582255887150873e+00	 8.181184938957657e-01	 1.314691100571795e+01
 1.565362425893876e+00	 8.499953165039678e-01	 1.311671249673882e+01
 1.547774263692498e+00	 8.816157843037145e-01	 1.308203614340504e+01
 1.529496602329584e+00	 9.129576693088951e-01	 1.304763957810076e+01
 1.510535576736846e+00	 9.439988527044959e-01	 1.301899772597926e+01
 1.490898254352462e+00	 9.747173732284895e-01	 1.300230453504851e+01
 1.661996588142128e+00	 6.579692933615608e-01	 1.310238528437330e+01
 1.648575389142363e+00	 6.909091375198078e-01	 1.314428429664860e+01
 1.634444818629717e+00	 7.237032436312213e-01	 1.316713157903904e+01
 1.619605505154330e+00	 7.563294636978091e-01	 1.317223905097716e+01
 1.604058974353607e+00	 7.887655271226950e-01	 1.316153232541776e+01
 1.587807662195269e+00	 8.209890851012879e-01	 1.313758650580001e+01
 1.570854925635891e+00	 8.529777562099562e-01	 1.310365647252808e+01
 1.553205050584919e+00	 8.847091730196798e-01	 1.306370101950530e+01
 1.534863257077065e+00	 9.161610295514143e-01	 1.302240025183011e+01
 1.515835701570118e+00	 9.473111293802687e-01	 1.298516571739792e+01
 1.496129476300282e+00	 9.781374341871568e-01	 1.295814281732330e+01
 1.667807765023498e+00	 6.602698852953083e-01	 1.309246224078269e+01
 1.654339638755162e+00	 6.933249037335053e-01	 1.313661879074078e+01
 1.640159660653904e+00	 7.262336745513602e-01	 1.316073547194340e+01
 1.625268461467589e+00	 7.589739723103295e-01	 1.316598921612419e+01
 1.609667572168019e+00	 7.915234485443178e-01	 1.315418013871830e+01
 1.593359437240282e+00	 8.238596763060615e-01	 1.312776843323654e+01
 1.576347425378564e+00	 8.559601959152042e-01	 1.308990569439041e+01
 1.558635837478006e+00	 8.878025617349329e-01	 1.304446001879985e+01
 1.540229911825189e+00	 9.193643897932694e-01	 1.299603428313521e+01
 1.521135826403979e+00	 9.506234060554466e-01	 1.294997706179071e+01
 1.501360698248607e+00	 9.815574951453184e-01	 1.291238571912993e+01
 1.673618941904847e+00	 6.625704772285660e-01	 1.308291796215956e+01
 1.660103888368127e+00	 6.957406699466228e-01	 1.312918636861421e+01
 1.645874502678413e+00	 7.287641054708478e-01	 1.315441663773652e+01
 1.630931417781299e+00	 7.616184809221465e-01	 1.315965052539534e+01
 1.615276169982980e+00	 7.942813699652049e-01	 1.314656254810173e+01
 1.598911212285913e+00	 8.267302675100872e-01	 1.311749797985964e+01
 1.581839925121894e+00	 8.589426356197122e-01	 1.307550521641868e+01
 1.564066624371758e+00	 8.908959504494737e-01	 1.302436184399052e+01
 1.545596566573957e+00	 9.225677500344607e-01	 1.296859380095898e+01
 1.526435951238430e+00	 9.539356827300297e-01	 1.291348708397720e+01
 1.506591920197438e+00	 9.849775561029749e-01	 1.286509152356770e+01
 1.679430118786176e+00	 6.648710691613339e-01	 1.307377187715034e+01
 1.665868137981257e+00	 6.981564361591599e-01	 1.312201119491420e+01
 1.651589344703245e+00	 7.312945363896837e-01	 1.314820381665213e+01
 1.636594374095460e+00	 7.642629895332601e-01	 1.315325612274714e+01
 1.620884767798491e+00	 7.970392913853563e-01	 1.313871691837844e+01
 1.604462987332163e+00	 8.296008587133651e-01	 1.310681653797101e+01
 1.587332424865880e+00	 8.619250753234798e-01	 1.306050025511593e+01
 1.569497411266175e+00	 8.939893391633021e-01	 1.300345532318366e+01
 1.550963221323367e+00	 9.257711102749879e-01	 1.294013102377555e+01
 1.531736076073471e+00	 9.572479594040176e-01	 1.287575116364408e+01
 1.511823142146774e+00	 9.883976170601261e-01	 1.281631853522228e+01
 1.685241295667484e+00	 6.671716610936123e-01	 1.306504381117901e+01
 1.671632387594552e+00	 7.005722023711169e-01	 1.311511778968097e+01
 1.657304186728400e+00	 7.338249673078681e-01	 1.314212606356967e+01
 1.642257330410071e+00	 7.669074981436702e-01	 1.314683942674761e+01
 1.626493365614551e+00	 7.997972128047722e-01	 1.313068084973249e+01
 1.610014762379030e+00	 8.324714499158945e-01	 1.309576569688555e+01
 1.592824924610524e+00	 8.649075150265071e-01	 1.304493618659501e+01
 1.574928198161258e+00	 8.970827278764184e-01	 1.298178940772795e+01
 1.556329876073421e+00	 9.289744705148517e-01	 1.291069825804679e+01
 1.537036200909101e+00	 9.605602360774108e-01	 1.283682473439936e+01
 1.517054364096615e+00	 9.918176780167721e-01	 1.276612507979513e+01
 1.464742144620942e+00	 9.576170684275744e-01	 1.319714406056526e+01
 1.444792760758599e+00	 9.874582919979615e-01	 1.252206448914887e+01
 1.424195563079837e+00	 1.016940016954224e+00	 1.193515163694626e+01
 1.402960210216252e+00	 1.046041418172352e+00	 1.144960273013173e+01
 1.381097244848933e+00	 1.074742015674165e+00	 1.107904072083952e+01
 1.358618078249374e+00	 1.103021721200889e+00	 1.083745323625825e+01
 1.335534971891927e+00	 1.130860883947535e+00	 1.073912445684228e+01
 1.311861016191946e+00	 1.158240335244118e+00	 1.079856032553315e+01
 1.287610106441662e+00	 1.185141431973865e+00	 1.103040758901379e+01
 1.262796916033183e+00	 1.211546098524362e+00	 1.144936726702703e+01
 1.237436867075000e+00	 1.237436867075000e+00	 1.214940434335533e+01
 1.469973366566236e+00	 9.610371293887680e-01	 1.316183271271382e+01
 1.449952734904942e+00	 9.909849287575220e-01	 1.249005043462327e+01
 1.429281975806387e+00	 1.020571945588552e+00	 1.190826497307063e+01
 1.407970782397278e+00	 1.049777280382406e+00	 1.142986421445251e+01
 1.386029735011136e+00	 1.078580380018125e+00	 1.106866513402915e+01
 1.363470285673997e+00	 1.106961084493153e+00	 1.083885186508165e+01
 1.340304739651190e+00	 1.134899672821056e+00	 1.075490662425932e+01
 1.316546234109554e+00	 1.162376907872312e+00	 1.083153390085994e+01
 1.292208713967361e+00	 1.189374079947587e+00	 1.108357841797114e+01
 1.267306905021693e+00	 1.215873048878712e+00	 1.152593746939934e+01
 1.241856284460000e+00	 1.241856284460000e+00	 1.222657192237847e+01
 1.475204588512034e+00	 9.644571903494563e-01	 1.312463490471768e+01
 1.455112709051695e+00	 9.945115655166717e-01	 1.245639480903739e+01
 1.434368388533261e+00	 1.024203874222555e+00	 1.187995174100689e+01
 1.412981354578553e+00	 1.053513142592212e+00	 1.140888405136049e+01
 1.390962225173523e+00	 1.082418744361902e+00	 1.105720269671923e+01
 1.368322493098747e+00	 1.110900447785290e+00	 1.083928842971128e+01
 1.345074507410534e+00	 1.138938461694494e+00	 1.076982177120420e+01
 1.321231452027207e+00	 1.166513480500458e+00	 1.086370617823822e+01
 1.296807321493081e+00	 1.193606727921289e+00	 1.113598492249196e+01
 1.271816894010209e+00	 1.220199999233055e+00	 1.160175229112356e+01
 1.246275701845000e+00	 1.246275701844999e+00	 1.230114310454094e+01
 1.480435810458338e+00	 9.678772513096394e-01	 1.308560880640673e+01
 1.460272683198859e+00	 9.980382022754115e-01	 1.242115330340035e+01
 1.439454801260461e+00	 1.027835802856233e+00	 1.185026514778157e+01
 1.417991926760077e+00	 1.057249004801768e+00	 1.138671296479667e+01
 1.395894715336092e+00	 1.086257108705496e+00	 1.104470165704826e+01
 1.373174700523625e+00	 1.114839811077299e+00	 1.083880871645383e+01
 1.349844275169960e+00	 1.142977250567851e+00	 1.078391324309027e+01
 1.325916669944907e+00	 1.170650053128560e+00	 1.089511809034273e+01
 1.301405929018821e+00	 1.197839375894970e+00	 1.118766565810331e+01
 1.276326882998730e+00	 1.224526949587394e+00	 1.167684795378998e+01
 1.250695119230000e+00	 1.250695119230000e+00	 1.234345447628940e+01
 1.485667032405147e+00	 9.712973122693169e-01	 1.304481261107090e+01
 1.465432657346432e+00	 1.001564839033741e+00	 1.238438167273399e+01
 1.444541213987985e+00	 1.031467731489587e+00	 1.181925850299294e+01
 1.423002498941851e+00	 1.060984867011076e+00	 1.136340181775572e+01
 1.400827205498846e+00	 1.090095473048907e+00	 1.103121043653161e+01
 1.378026907948629e+00	 1.118779174369182e+00	 1.083745871708447e+01
 1.354614042929468e+00	 1.147016039441127e+00	 1.079722462058805e+01
 1.330601887862652e+00	 1.174786625756615e+00	 1.092581083252829e+01
 1.306004536544582e+00	 1.202072023868631e+00	 1.123865946801071e+01
 1.280836871987256e+00	 1.228853899941728e+00	 1.175126098918982e+01
 1.255114536615000e+00	 1.255114536615000e+00	 1.222993276408101e+01
 1.490898254352462e+00	 9.747173732284895e-01	 1.300230453504851e+01
 1.470592631494415e+00	 1.005091475791661e+00	 1.234613573494949e+01
 1.449627626715833e+00	 1.035099660122617e+00	 1.178698521701176e+01
 1.428013071123873e+00	 1.064720729220134e+00	 1.133900160984581e+01
 1.405759695661782e+00	 1.093933837392134e+00	 1.101677762702012e+01
 1.382879115373761e+00	 1.122718537660937e+00	 1.083528462524144e+01
 1.359383810689057e+00	 1.151054828314322e+00	 1.080979971549777e+01
 1.335287105780443e+00	 1.178923198384624e+00	 1.095582585822124e+01
 1.310603144070363e+00	 1.206304671842271e+00	 1.128900547805091e+01
 1.285346860975787e+00	 1.233180850296056e+00	 1.182502823387192e+01
 1.259533954000000e+00	 1.259533954000000e+00	 1.212328137509015e+01
 1.496129476300282e+00	 9.781374341871568e-01	 1.295814281732330e+01
 1.475752605642808e+00	 1.008618112549170e+00	 1.230647136974830e+01
 1.454714039444006e+00	 1.038731588755321e+00	 1.175349879921925e+01
 1.433023643306143e+00	 1.068456591428943e+00	 1.131356347490070e+01
 1.410692185824901e+00	 1.097772201735178e+00	 1.100145198772176e+01
 1.387731322799021e+00	 1.126657900952564e+00	 1.083233283289740e+01
 1.364153578448728e+00	 1.155093617187434e+00	 1.082168256670834e+01
 1.339972323698279e+00	 1.183059771012588e+00	 1.098520487440743e+01
 1.315201751596165e+00	 1.210537319815891e+00	 1.133874309175108e+01
 1.289856849964323e+00	 1.237507800650379e+00	 1.189818682381612e+01
 1.263953371385000e+00	 1.263953371385000e+00	 1.202344060101100e+01
 1.501360698248607e+00	 9.815574951453184e-01	 1.291238571912993e+01
 1.480912579791613e+00	 1.012144749306270e+00	 1.226544451754545e+01
 1.459800452172504e+00	 1.042363517387702e+00	 1.171885285628250e+01
 1.438034215488664e+00	 1.072192453637504e+00	 1.128713867864086e+01
 1.415624675988204e+00	 1.101610566078040e+00	 1.098528244228652e+01
 1.392583530224407e+00	 1.130597264244064e+00	 1.082864992690412e+01
 1.368923346208480e+00	 1.159132406060465e+00	 1.083291743624214e+01
 1.344657541616162e+00	 1.187196343640505e+00	 1.101398983721522e+01
 1.319800359121986e+00	 1.214769967789490e+00	 1.138791198549090e+01
 1.294366838952864e+00	 1.241834751004697e+00	 1.197077418921572e+01
 1.268372788770000e+00	 1.268372788770000e+00	 1.193035104672075e+01
 1.506591920197438e+00	 9.849775561029749e-01	 1.286509152356770e+01
 1.486072553940827e+00	 1.015671386062959e+00	 1.222311117841550e+01
 1.464886864901326e+00	 1.045995446019757e+00	 1.168310109046514e+01
 1.443044787671432e+00	 1.075928315845815e+00	 1.125977861638429e+01
 1.420557166151689e+00	 1.105448930420718e+00	 1.096831807595100e+01
 1.397435737649922e+00	 1.134536627535437e+00	 1.082428268560881e+01
 1.373693113968314e+00	 1.163171194933414e+00	 1.084354880537986e+01
 1.349342759534091e+00	 1.191332916268376e+00	 1.104222294758983e+01
 1.324398966647829e+00	 1.219002615763069e+00	 1.143655210376535e+01
 1.298876827941411e+00	 1.246161701359010e+00	 1.204282804937012e+01
 1.272792206155000e+00	 1.272792206155000e+00	 1.184395362484200e+01
 1.511823142146774e+00	 9.883976170601261e-01	 1.281631853522228e+01
 1.491232528090451e+00	 1.019198022819238e+00	 1.217952741106040e+01
 1.469973277630474e+00	 1.049627374651488e+00	 1.164629729797357e+01
 1.448055359854450e+00	 1.079664178053878e+00	 1.123153481080380e+01
 1.425489656315358e+00	 1.109287294763213e+00	 1.095060813274311e+01
 1.402287945075563e+00	 1.138475990826683e+00	 1.081927807554160e+01
 1.378462881728230e+00	 1.167209983806282e+00	 1.085362137086803e+01
 1.354027977452066e+00	 1.195469488896202e+00	 1.106994664705794e+01
 1.328997574173691e+00	 1.223235263736628e+00	 1.148470365454635e+01
 1.303386816929962e+00	 1.250488651713318e+00	 1.209476628034843e+01
 1.277211623540000e+00	 1.277211623540000e+00	 1.176418955041858e+01
 1.517054364096615e+00	 9.918176780167721e-01	 1.276612507979513e+01
 1.496392502240485e+00	 1.022724659575107e+00	 1.213474933179878e+01
 1.475059690359945e+00	 1.053259303282894e+00	 1.160849536733736e+01
 1.453065932037716e+00	 1.083400040261692e+00	 1.120245890973174e+01
 1.430422146479210e+00	 1.113125659105525e+00	 1.093220201274421e+01
 1.407140152501332e+00	 1.142415354117801e+00	 1.081368324817052e+01
 1.383232649488227e+00	 1.171248772679068e+00	 1.086318004120376e+01
 1.358713195370086e+00	 1.199606061523981e+00	 1.109720361357955e+01
 1.333596181699575e+00	 1.227467911710166e+00	 1.153240710473979e+01
 1.307896805918519e+00	 1.254815602067621e+00	 1.199595600439978e+01
 1.281631040925000e+00	 1.281631040925000e+00	 1.169100033570169e+01
 1.237436867075000e+00	 1.237436867075000e+00	 1.214940434335533e+01
 1.211546098524362e+00	 1.262796916033183e+00	 1.239780423399661e+01
 1.185141431973866e+00	 1.287610106441662e+00	 1.197176144862735e+01
 1.158240335244119e+00	 1.311861016191947e+00	 1.153386054709661e+01
 1.130860883947535e+00	 1.335534971891926e+00	 1.109172747791319e+01
 1.103021721200889e+00	 1.358618078249374e+00	 1.065319590285105e+01
 1.074742015674166e+00	 1.381097244848932e+00	 1.022625176911914e+01
 1.046041418172353e+00	 1.402960210216252e+00	 9.818976412066526e+00
 1.016940016954224e+00	 1.424195563079836e+00	 9.439488739103872e+00
 9.874582919979624e-01	 1.444792760758598e+00	 9.095887053363786e+00
 9.576170684275744e-01	 1.464742144620942e+00	 8.796191075957857e+00
 1.241856284460000e+00	 1.241856284460000e+00	 1.222657192237847e+01
 1.215873048878711e+00	 1.267306905021694e+00	 1.227739494048419e+01
 1.189374079947587e+00	 1.292208713967361e+00	 1.188711111410966e+01
 1.162376907872312e+00	 1.316546234109554e+00	 1.148073974785610e+01
 1.134899672821056e+00	 1.340304739651190e+00	 1.106583963981169e+01
 1.106961084493153e+00	 1.363470285673997e+00	 1.065019483403088e+01
 1.078580380018126e+00	 1.386029735011135e+00	 1.024175905233674e+01
 1.049777280382407e+00	 1.407970782397278e+00	 9.848598556024180e+00
 1.020571945588552e+00	 1.429281975806386e+00	 9.478833992321128e+00
 9.909849287575228e-01	 1.449952734904941e+00	 9.140581789123779e+00
 9.610371293887680e-01	 1.469973366566236e+00	 8.841895662593949e+00
 1.246275701845000e+00	 1.246275701844999e+00	 1.230114310454094e+01
 1.220199999233055e+00	 1.271816894010209e+00	 1.216155470985435e+01
 1.193606727921289e+00	 1.296807321493081e+00	 1.180662919047060e+01
 1.166513480500459e+00	 1.321231452027207e+00	 1.143139635254927e+01
 1.138938461694495e+00	 1.345074507410534e+00	 1.104334910516230e+01
 1.110900447785290e+00	 1.368322493098747e+00	 1.065022312472614e+01
 1.082418744361902e+00	 1.390962225173522e+00	 1.025994113997526e+01
 1.053513142592212e+00	 1.412981354578553e+00	 9.880555546235124e+00
 1.024203874222555e+00	 1.434368388533261e+00	 9.520189908088664e+00
 9.945115655166725e-01	 1.455112709051694e+00	 9.186979918993245e+00
 9.644571903494564e-01	 1.475204588512035e+00	 8.889014388218902e+00
 1.250695119230000e+00	 1.250695119230000e+00	 1.234345447628940e+01
 1.224526949587394e+00	 1.276326882998730e+00	 1.205028781307476e+01
 1.197839375894970e+00	 1.301405929018821e+00	 1.173032337903479e+01
 1.170650053128560e+00	 1.325916669944906e+00	 1.138584122325011e+01
 1.142977250567852e+00	 1.349844275169960e+00	 1.102426962339096e+01
 1.114839811077299e+00	 1.373174700523624e+00	 1.065329713531327e+01
 1.086257108705497e+00	 1.395894715336092e+00	 1.028081672474041e+01
 1.057249004801769e+00	 1.417991926760077e+00	 9.914868127676808e+00
 1.027835802856234e+00	 1.439454801260460e+00	 9.563579002932311e+00
 9.980382022754126e-01	 1.460272683198858e+00	 9.235105450419251e+00
 9.678772513096395e-01	 1.480435810458338e+00	 8.937572471416974e+00
 1.255114536615000e+00	 1.255114536615000e+00	 1.222993276408101e+01
 1.228853899941727e+00	 1.280836871987256e+00	 1.194359879286212e+01
 1.202072023868631e+00	 1.306004536544582e+00	 1.165820159746933e+01
 1.174786625756615e+00	 1.330601887862652e+00	 1.134408538611656e+01
 1.147016039441128e+00	 1.354614042929468e+00	 1.100861505899248e+01
 1.118779174369182e+00	 1.378026907948629e+00	 1.065943329555310e+01
 1.090095473048907e+00	 1.400827205498845e+00	 1.030440452644726e+01
 1.060984867011076e+00	 1.423002498941850e+00	 9.951557033636821e+00
 1.031467731489588e+00	 1.444541213987984e+00	 9.609023746427555e+00
 1.001564839033742e+00	 1.465432657346431e+00	 9.284982312225896e+00
 9.712973122693170e-01	 1.485667032405148e+00	 8.987595024103967e+00
 1.259533954000000e+00	 1.259533954000000e+00	 1.212328137509015e+01
 1.233180850296056e+00	 1.285346860975787e+00	 1.184149245891463e+01
 1.206304671842271e+00	 1.310603144070363e+00	 1.159027197598829e+01
 1.178923198384624e+00	 1.335287105780442e+00	 1.130614002851122e+01
 1.151054828314322e+00	 1.359383810689057e+00	 1.099639938951152e+01
 1.122718537660937e+00	 1.382879115373761e+00	 1.066864810337274e+01
 1.093933837392135e+00	 1.405759695661781e+00	 1.033072329154274e+01
 1.064720729220135e+00	 1.428013071123872e+00	 9.990642985918583e+00
 1.035099660122618e+00	 1.449627626715832e+00	 9.656546562022966e+00
 1.005091475791662e+00	 1.470592631494415e+00	 9.336634355992866e+00
 9.747173732284895e-01	 1.490898254352462e+00	 9.039107053399061e+00
 1.263953371385000e+00	 1.263953371385000e+00	 1.202344060101100e+01
 1.237507800650379e+00	 1.289856849964323e+00	 1.174397388324502e+01
 1.210537319815891e+00	 1.315201751596164e+00	 1.152654285363645e+01
 1.183059771012587e+00	 1.339972323698280e+00	 1.127201649618351e+01
 1.155093617187434e+00	 1.364153578448728e+00	 1.098763670356563e+01
 1.126657900952565e+00	 1.387731322799020e+00	 1.068095812367473e+01
 1.097772201735179e+00	 1.410692185824901e+00	 1.035979179264134e+01
 1.068456591428944e+00	 1.433023643306143e+00	 1.003214669504100e+01
 1.038731588755322e+00	 1.454714039444006e+00	 9.706169827846448e+00
 1.008618112549171e+00	 1.475752605642809e+00	 9.390085357406020e+00
 9.781374341871567e-01	 1.496129476300282e+00	 9.092133463456822e+00
 1.268372788770000e+00	 1.268372788770000e+00	 1.193035104672075e+01
 1.241834751004697e+00	 1.294366838952864e+00	 1.165104839560983e+01
 1.214769967789490e+00	 1.319800359121986e+00	 1.146702277465184e+01
 1.187196343640505e+00	 1.344657541616162e+00	 1.124172629051035e+01
 1.159132406060465e+00	 1.368923346208480e+00	 1.098234119891136e+01
 1.130597264244065e+00	 1.392583530224407e+00	 1.069637998716976e+01
 1.101610566078040e+00	 1.415624675988203e+00	 1.039162882806841e+01
 1.072192453637504e+00	 1.438034215488663e+00	 1.007608886043582e+01
 1.042363517387702e+00	 1.459800452172503e+00	 9.757915877495364e+00
 1.012144749306271e+00	 1.480912579791612e+00	 9.445359017579408e+00
 9.815574951453184e-01	 1.501360698248607e+00	 9.146699057260875e+00
 1.272792206155000e+00	 1.272792206155000e+00	 1.184395362484200e+01
 1.246161701359010e+00	 1.298876827941411e+00	 1.156272157903518e+01
 1.219002615763069e+00	 1.324398966647828e+00	 1.141172048490272e+01
 1.191332916268376e+00	 1.349342759534091e+00	 1.121528106579398e+01
 1.163171194933414e+00	 1.373693113968314e+00	 1.098052718054809e+01
 1.134536627535437e+00	 1.397435737649921e+00	 1.071493038923409e+01
 1.105448930420718e+00	 1.420557166151689e+00	 1.042625322141414e+01
 1.075928315845816e+00	 1.443044787671432e+00	 1.012249017063970e+01
 1.045995446019758e+00	 1.464886864901326e+00	 9.811807000809040e+00
 1.015671386062960e+00	 1.486072553940826e+00	 9.502478964350722e+00
 9.849775561029749e-01	 1.506591920197438e+00	 9.202828538380476e+00
 1.277211623540000e+00	 1.277211623540000e+00	 1.176418955041858e+01
 1.250488651713318e+00	 1.303386816929962e+00	 1.148229463886441e+01
 1.223235263736627e+00	 1.328997574173691e+00	 1.136064492839970e+01
 1.195469488896202e+00	 1.354027977452066e+00	 1.119269262661646e+01
 1.167209983806282e+00	 1.378462881728230e+00	 1.098220905886398e+01
 1.138475990826683e+00	 1.402287945075563e+00	 1.073662608879106e+01
 1.109287294763213e+00	 1.425489656315358e+00	 1.046368382109650e+01
 1.079664178053879e+00	 1.448055359854449e+00	 1.017137130348305e+01
 1.049627374651488e+00	 1.469973277630473e+00	 9.867865444626119e+00
 1.019198022819239e+00	 1.491232528090450e+00	 9.561468753548036e+00
 9.883976170601261e-01	 1.511823142146774e+00	 9.260546512690539e+00
 1.281631040925000e+00	 1.281631040925000e+00	 1.169100033570169e+01
 1.254815602067621e+00	 1.307896805918519e+00	 1.143325536516657e+01
 1.227467911710166e+00	 1.333596181699575e+00	 1.131380524387884e+01
 1.199606061523981e+00	 1.358713195370086e+00	 1.117397292524853e+01
 1.171248772679068e+00	 1.383232649488227e+00	 1.098740134781807e+01
 1.142415354117801e+00	 1.407140152501331e+00	 1.076148390721528e+01
 1.113125659105525e+00	 1.430422146479210e+00	 1.050393949993317e+01
 1.083400040261693e+00	 1.453065932037716e+00	 1.022275292627436e+01
 1.053259303282895e+00	 1.475059690359944e+00	 9.926113413526078e+00
 1.022724659575108e+00	 1.496392502240484e+00	 9.622351870231739e+00
 9.918176780167723e-01	 1.517054364096615e+00	 9.319877490055694e+00
 9.576170684275744e-01	 1.464742144620942e+00	 8.796191075957857e+00
 9.274374693167078e-01	 1.484034952579334e+00	 8.780371525123648e+00
 8.969408680863411e-01	 1.502663328601820e+00	 8.700177648844241e+00
 8.661488407132029e-01	 1.520620329240370e+00	 8.560516334917260e+00
 8.350831179629206e-01	 1.537899927193651e+00	 8.366487293486362e+00
 8.037655378569367e-01	 1.554497011938170e+00	 8.123334224395977e+00
 7.722179985775099e-01	 1.570407387478668e+00	 7.836396610873471e+00
 7.404624120079160e-01	 1.585627767284233e+00	 7.511062586240776e+00
 7.085206580967062e-01	 1.600155766491363e+00	 7.152723291404625e+00
 6.764145402254393e-01	 1.613989891469035e+00	 6.766729107574038e+00
 6.441657417487924e-01	 1.627129526853478e+00	 6.358348111694617e+00
 9.610371293887680e-01	 1.469973366566236e+00	 8.841895662593949e+00
 9.307497459954552e-01	 1.489335077409657e+00	 8.814851836986904e+00
 9.001442283321800e-01	 1.508029983346088e+00	 8.724787838236267e+00
 8.692422294327299e-01	 1.526051116129465e+00	 8.576771833543859e+00
 8.380655576726104e-01	 1.543392426932381e+00	 8.376056468771266e+00
 8.066361290661985e-01	 1.560048786979474e+00	 8.128029296603282e+00
 7.749759200035468e-01	 1.576015985289785e+00	 7.838163897908053e+00
 7.431069206246569e-01	 1.591290723594789e+00	 7.511972147363879e+00
 7.110510890207544e-01	 1.605870608513616e+00	 7.154958044674992e+00
 6.788303064426181e-01	 1.619754141080843e+00	 6.772573498602965e+00
 6.464663336854781e-01	 1.632940703734971e+00	 6.370176413254258e+00
 9.644571903494564e-01	 1.475204588512035e+00	 8.889014388218902e+00
 9.340620226736078e-01	 1.494635202240570e+00	 8.850898650452415e+00
 9.033475885773545e-01	 1.513396638090996e+00	 8.751096800781898e+00
 8.723356181515446e-01	 1.531481903019225e+00	 8.594838795945074e+00
 8.410479973815603e-01	 1.548884926671770e+00	 8.387530770754463e+00
 8.095067202747127e-01	 1.565600562021396e+00	 8.134704722214863e+00
 7.777338414288482e-01	 1.581624583101451e+00	 7.841968953668665e+00
 7.457514292406943e-01	 1.596953679905796e+00	 7.514959734435708e+00
 7.135815199441510e-01	 1.611585450536191e+00	 7.159294599901218e+00
 6.812460726592166e-01	 1.625518390692817e+00	 6.780527682083383e+00
 6.487669256216740e-01	 1.638751880616444e+00	 6.384107422112706e+00
 9.678772513096395e-01	 1.480435810458338e+00	 8.937572471416974e+00
 9.373742993511653e-01	 1.499935327072073e+00	 8.888533637644851e+00
 9.065509488218652e-01	 1.518763292836549e+00	 8.779122811815178e+00
 8.754290068696468e-01	 1.536912689909651e+00	 8.614732257806271e+00
 8.440304370897697e-01	 1.554377426411815e+00	 8.400922159601160e+00
 8.123773114824784e-01	 1.571152337063937e+00	 8.143369556487462e+00
 7.804917628534136e-01	 1.587233180913666e+00	 7.847818105063856e+00
 7.483959378560285e-01	 1.602616636217254e+00	 7.520029127980767e+00
 7.161119508668959e-01	 1.617300292559089e+00	 7.165734378025883e+00
 6.836618388752349e-01	 1.631282640304956e+00	 6.790590910437585e+00
 6.510675175573802e-01	 1.644563057497895e+00	 6.400138416909938e+00
 9.712973122693170e-01	 1.485667032405148e+00	 8.987595024103967e+00
 9.406865760281281e-01	 1.505235451904165e+00	 8.927778402725460e+00
 9.097543090657123e-01	 1.524129947582745e+00	 8.808884115099339e+00
 8.785223955870370e-01	 1.542343476800742e+00	 8.636467257267466e+00
 8.470128767972389e-01	 1.559869926152517e+00	 8.416242629549508e+00
 8.152479026894964e-01	 1.576704112107096e+00	 8.154032917918425e+00
 7.832496842772432e-01	 1.592841778726430e+00	 7.855717768932064e+00
 7.510404464706590e-01	 1.608279592529161e+00	 7.527184222637617e+00
 7.186423817889896e-01	 1.623015134582309e+00	 7.174278935765038e+00
 6.860776050906732e-01	 1.637046889917259e+00	 6.802762590986903e+00
 6.533681094925968e-01	 1.650374234379327e+00	 6.418266847767306e+00
 9.747173732284895e-01	 1.490898254352462e+00	 9.039107053399061e+00
 9.439988527044957e-01	 1.510535576736846e+00	 8.968654483084425e+00
 9.129576693088952e-01	 1.529496602329584e+00	 8.840398923378988e+00
 8.816157843037147e-01	 1.547774263692498e+00	 8.660058834881639e+00
 8.499953165039679e-01	 1.565362425893875e+00	 8.433504208311732e+00
 8.181184938957664e-01	 1.582255887150873e+00	 8.166703987136671e+00
 7.860076057003373e-01	 1.598450376539744e+00	 7.865674450464577e+00
 7.536849550845862e-01	 1.613942548841520e+00	 7.536429025156739e+00
 7.211728127104318e-01	 1.628729976605852e+00	 7.184929963227441e+00
 6.884933713055310e-01	 1.642811139529728e+00	 6.817042283233065e+00
 6.556687014273237e-01	 1.656185411260738e+00	 6.438490333279193e+00
 9.781374341871567e-01	 1.496129476300282e+00	 9.092133463456822e+00
 9.473111293802686e-01	 1.515835701570118e+00	 9.011183350508619e+00
 9.161610295514143e-01	 1.534863257077065e+00	 8.873685418923996e+00
 8.847091730196800e-01	 1.553205050584919e+00	 8.685522033570951e+00
 8.529777562099562e-01	 1.570854925635891e+00	 8.452718956489122e+00
 8.209890851012881e-01	 1.587807662195268e+00	 8.181392005816770e+00
 7.887655271226959e-01	 1.604058974353607e+00	 7.877694741659653e+00
 7.563294636978098e-01	 1.619605505154330e+00	 7.547767652440156e+00
 7.237032436312221e-01	 1.634444818629716e+00	 7.197689281581131e+00
 6.909091375198089e-01	 1.648575389142362e+00	 6.833429696198380e+00
 6.579692933615608e-01	 1.661996588142128e+00	 6.460806657568121e+00
 9.815574951453184e-01	 1.501360698248607e+00	 9.146699057260875e+00
 9.506234060554466e-01	 1.521135826403979e+00	 9.055386412324195e+00
 9.193643897932694e-01	 1.540229911825189e+00	 8.908761754059203e+00
 8.878025617349331e-01	 1.558635837478006e+00	 8.712871898586735e+00
 8.559601959152047e-01	 1.576347425378564e+00	 8.473898966999524e+00
 8.238596763060617e-01	 1.593359437240281e+00	 8.198106275614741e+00
 7.915234485443184e-01	 1.609667572168019e+00	 7.891785319811161e+00
 7.589739723103301e-01	 1.625268461467589e+00	 7.561204329622925e+00
 7.262336745513612e-01	 1.640159660653904e+00	 7.212558840770885e+00
 6.933249037335062e-01	 1.654339638755162e+00	 6.851924685820450e+00
 6.602698852953084e-01	 1.667807765023497e+00	 6.485213767400204e+00
 9.849775561029749e-01	 1.506591920197438e+00	 9.202828538380476e+00
 9.539356827300294e-01	 1.526435951238430e+00	 9.101285012515550e+00
 9.225677500344607e-01	 1.545596566573957e+00	 8.945646051685245e+00
 8.908959504494738e-01	 1.564066624371758e+00	 8.742123477468192e+00
 8.589426356197126e-01	 1.581839925121894e+00	 8.497056364516151e+00
 8.267302675100876e-01	 1.598911212285913e+00	 8.216856157127509e+00
 7.942813699652056e-01	 1.615276169982980e+00	 7.907952946027386e+00
 7.616184809221475e-01	 1.630931417781299e+00	 7.576743388193190e+00
 7.287641054708485e-01	 1.645874502678413e+00	 7.229540717282722e+00
 6.957406699466238e-01	 1.660103888368127e+00	 6.872527252402021e+00
 6.625704772285660e-01	 1.673618941904847e+00	 6.511709769362266e+00
 9.883976170601261e-01	 1.511823142146774e+00	 9.260546512690539e+00
 9.572479594040174e-01	 1.531736076073471e+00	 9.148900432821712e+00
 9.257711102749879e-01	 1.550963221323367e+00	 8.984356405786924e+00
 8.939893391633021e-01	 1.569497411266175e+00	 8.773291820003717e+00
 8.619250753234802e-01	 1.587332424865880e+00	 8.522203304917591e+00
 8.296008587133652e-01	 1.604462987332162e+00	 8.237651068872260e+00
 7.970392913853571e-01	 1.620884767798491e+00	 7.926204463781074e+00
 7.642629895332607e-01	 1.636594374095460e+00	 7.594389264153500e+00
 7.312945363896846e-01	 1.651589344703245e+00	 7.248637111953825e+00
 6.981564361591609e-01	 1.665868137981257e+00	 6.895237538113008e+00
 6.648710691613339e-01	 1.679430118786176e+00	 6.540292927095963e+00
 9.918176780167723e-01	 1.517054364096615e+00	 9.319877490055694e+00
 9.605602360774108e-01	 1.537036200909102e+00	 9.198253893809063e+00
 9.289744705148517e-01	 1.556329876073421e+00	 9.024910881931753e+00
 8.970827278764184e-01	 1.574928198161258e+00	 8.806391978190899e+00
 8.649075150265074e-01	 1.592824924610523e+00	 8.549351974750634e+00
 8.324714499158948e-01	 1.610014762379030e+00	 8.260500486288990e+00
 7.997972128047728e-01	 1.626493365614551e+00	 7.946546797489082e+00
 7.669074981436709e-01	 1.642257330410071e+00	 7.614146496217922e+00
 7.338249673078692e-01	 1.657304186728399e+00	 7.269850347829514e+00
 7.005722023711179e-01	 1.671632387594552e+00	 6.920055824544306e+00
 6.671716610936123e-01	 1.685241295667484e+00	 6.570961658590871e+00
 6.441657417487924e-01	 1.627129526853478e+00	 6.358348111694617e+00
 6.117957838646149e-01	 1.639574920171458e+00	 6.106595626315878e+00
 5.793259849590476e-01	 1.651327164182859e+00	 5.777581153507151e+00
 5.467774215590897e-01	 1.662388177080194e+00	 5.446398103324466e+00
 5.141708910118744e-01	 1.672760680690260e+00	 5.121126680373696e+00
 4.815268759957916e-01	 1.682448176831636e+00	 4.808976994469997e+00
 4.488655109548266e-01	 1.691454921985005e+00	 4.516254841981856e+00
 4.162065505333923e-01	 1.699785900437285e+00	 4.248336951596579e+00
 3.835693400749209e-01	 1.707446796062950e+00	 4.009655505648889e+00
 3.509727882336220e-01	 1.714443962906949e+00	 3.803691654984756e+00
 3.184353417352296e-01	 1.720784394733555e+00	 3.632977660945587e+00
 6.464663336854781e-01	 1.632940703734971e+00	 6.370176413254258e+00
 6.139807688086512e-01	 1.645430544886697e+00	 6.131393990860280e+00
 5.813950063354179e-01	 1.657224761198529e+00	 5.806949631185521e+00
 5.487301980660868e-01	 1.668325277713667e+00	 5.479258542152941e+00
 5.160072156240300e-01	 1.678734825979718e+00	 5.156498500934637e+00
 4.832466148400598e-01	 1.688456920321759e+00	 4.845972337060270e+00
 4.504686020668891e-01	 1.697495832422189e+00	 4.554073121194762e+00
 4.176930025012313e-01	 1.705856564368955e+00	 4.286258906389287e+00
 3.849392305770300e-01	 1.713544820336080e+00	 4.047036833025459e+00
 3.522262624794016e-01	 1.720566977061533e+00	 3.839956314473024e+00
 3.195726108152424e-01	 1.726930053287319e+00	 3.667610935177624e+00
 6.487669256216740e-01	 1.638751880616444e+00	 6.384107422112706e+00
 6.161657537522873e-01	 1.651286169601732e+00	 6.157746133495996e+00
 5.834640277114557e-01	 1.663122358213840e+00	 5.837457583765488e+00
 5.506829745727987e-01	 1.674262378346661e+00	 5.512872561142331e+00
 5.178435402359274e-01	 1.684708971268607e+00	 5.192267939428113e+00
 4.849663536840761e-01	 1.694465663811254e+00	 4.883040631379349e+00
 4.520716931786860e-01	 1.703536742858716e+00	 4.591672181796020e+00
 4.191794544687711e-01	 1.711927228299966e+00	 4.323703002319338e+00
 3.863091210787871e-01	 1.719642844608581e+00	 4.083716059192684e+00
 3.534797367247572e-01	 1.726689991215546e+00	 3.875329730026508e+00
 3.207098798947405e-01	 1.733075711840597e+00	 3.701199459358576e+00
 6.510675175573802e-01	 1.644563057497895e+00	 6.400138416909938e+00
 6.183507386955230e-01	 1.657141794316561e+00	 6.185663411223555e+00
 5.855330490871615e-01	 1.669019955228796e+00	 5.869116567514148e+00
 5.526357510792258e-01	 1.680199478979176e+00	 5.547251824112328e+00
 5.196798648475665e-01	 1.690683116556928e+00	 5.228446680965195e+00
 4.866860925278405e-01	 1.700474407300119e+00	 4.920193502908100e+00
 4.536747842902172e-01	 1.709577653294584e+00	 4.629063513919450e+00
 4.206659064360120e-01	 1.717997892230319e+00	 4.360680523498599e+00
 3.876790115801922e-01	 1.725740868880452e+00	 4.119704196429748e+00
 3.547332109696887e-01	 1.732813005368987e+00	 3.909822580948019e+00
 3.218471489737239e-01	 1.739221370393391e+00	 3.733753523125485e+00
 6.533681094925968e-01	 1.650374234379327e+00	 6.418266847767306e+00
 6.205357236383585e-01	 1.662997419031187e+00	 6.215157319808819e+00
 5.876020704625352e-01	 1.674917552243394e+00	 5.901938246978162e+00
 5.545885275853680e-01	 1.686136579611213e+00	 5.582408074929646e+00
 5.215161894589473e-01	 1.696657261844680e+00	 5.265046464742997e+00
 4.884058313713530e-01	 1.706483150788357e+00	 4.957442607539180e+00
 4.552778754014828e-01	 1.715618563729795e+00	 4.666258616728173e+00
 4.221523584029536e-01	 1.724068556160014e+00	 4.397202743981198e+00
 3.890489020812452e-01	 1.731838893151694e+00	 4.155012230161903e+00
 3.559866852141964e-01	 1.738936019521858e+00	 3.943445505171868e+00
 3.229844180521926e-01	 1.745367028945698e+00	 3.765283362500940e+00
 6.556687014273237e-01	 1.656185411260738e+00	 6.438490333279193e+00
 6.227207085807933e-01	 1.668853043745608e+00	 6.246239491349581e+00
 5.896710918375767e-01	 1.680815149257636e+00	 5.935934393084084e+00
 5.565413040912253e-01	 1.692073680242772e+00	 5.618353136103022e+00
 5.233525140700700e-01	 1.702631407131864e+00	 5.302079083096368e+00
 4.901255702146137e-01	 1.712491894275966e+00	 4.994799631043363e+00
 4.568809665124828e-01	 1.721659474164347e+00	 4.703268998256928e+00
 4.236388103695963e-01	 1.730139220089051e+00	 4.433280927940208e+00
 3.904187925819462e-01	 1.737936917422307e+00	 4.189651119431978e+00
 3.572401594582800e-01	 1.745059033674156e+00	 3.976209099989833e+00
 3.241216871301467e-01	 1.751512687497521e+00	 3.795799160832624e+00
 6.579692933615608e-01	 1.661996588142128e+00	 6.460806657568121e+00
 6.249056935228279e-01	 1.674708668459824e+00	 6.278921691891704e+00
 5.917401132122858e-01	 1.686712746271519e+00	 5.971116881278463e+00
 5.584940805967978e-01	 1.698010780873852e+00	 5.655098907408531e+00
 5.251888386809346e-01	 1.708605552418478e+00	 5.339556380568463e+00
 4.918453090576224e-01	 1.718500637762947e+00	 5.032276288547076e+00
 4.584840576232170e-01	 1.727700384598241e+00	 4.740106175256273e+00
 4.251252623359397e-01	 1.736209884017428e+00	 4.468926329840322e+00
 3.917886830822951e-01	 1.744034941692291e+00	 4.223631797360285e+00
 3.584936337019397e-01	 1.751182047825884e+00	 4.008123922761170e+00
 3.252589562075862e-01	 1.757658346048858e+00	 3.825311049715169e+00
 6.602698852953084e-01	 1.667807765023497e+00	 6.485213767400204e+00
 6.270906784644620e-01	 1.680564293173836e+00	 6.306293133303891e+00
 5.938091345866630e-01	 1.692610343285047e+00	 6.007497689706932e+00
 5.604468571020855e-01	 1.703947881504455e+00	 5.692657364544024e+00
 5.270251632915408e-01	 1.714579697704524e+00	 5.377490253001723e+00
 4.935650479003793e-01	 1.724509381249299e+00	 5.069884324020927e+00
 4.600871487336858e-01	 1.733741295031477e+00	 4.776781673041413e+00
 4.266117143019840e-01	 1.742280547945149e+00	 4.504150194606705e+00
 3.931585735822921e-01	 1.750132965961646e+00	 4.256965171597877e+00
 3.597471079451753e-01	 1.757305061977040e+00	 4.039200491608970e+00
 3.263962252845110e-01	 1.763804004599710e+00	 3.853829109891404e+00
 6.625704772285660e-01	 1.673618941904847e+00	 6.511709769362266e+00
 6.292756634056957e-01	 1.686419917887643e+00	 6.335112192038977e+00
 5.958781559607076e-01	 1.698507940298217e+00	 6.045088897431535e+00
 5.623996336070880e-01	 1.709884982134579e+00	 5.731040557810148e+00
 5.288614879018888e-01	 1.720553842990002e+00	 5.415892646645983e+00
 4.952847867428843e-01	 1.730518124735024e+00	 5.107635509779353e+00
 4.616902398438889e-01	 1.739782205464055e+00	 4.813307025343006e+00
 4.280981662677294e-01	 1.748351211872211e+00	 4.538963757791443e+00
 3.945284640819371e-01	 1.756230990230371e+00	 4.289662124767554e+00
 3.610005821879869e-01	 1.763428076127625e+00	 4.069449286100818e+00
 3.275334943609210e-01	 1.769949663150077e+00	 3.881363372135037e+00
 6.648710691613339e-01	 1.679430118786176e+00	 6.540292927095963e+00
 6.314606483465289e-01	 1.692275542601245e+00	 6.365693935235706e+00
 5.979471773344205e-01	 1.704405537311030e+00	 6.083902682684188e+00
 5.643524101118058e-01	 1.715822082764225e+00	 5.770260610820491e+00
 5.306978125119788e-01	 1.726527988274911e+00	 5.454775557288563e+00
 4.970045255851375e-01	 1.736526868220118e+00	 5.145541645989736e+00
 4.632933309538264e-01	 1.745823115895974e+00	 4.849693774162036e+00
 4.295846182331754e-01	 1.754421875798614e+00	 4.573378245734573e+00
 3.958983545812301e-01	 1.762329014498468e+00	 4.321733514897322e+00
 3.622540564303746e-01	 1.769551090277638e+00	 4.098880747916295e+00
 3.286707634368164e-01	 1.776095321699958e+00	 3.907923818115576e+00
 6.671716610936123e-01	 1.685241295667484e+00	 6.570961658590871e+00
 6.336456332869622e-01	 1.698131167314644e+00	 6.398038107372565e+00
 6.000161987078009e-01	 1.710303134323486e+00	 6.123951321157556e+00
 5.663051866162389e-01	 1.721759183393393e+00	 5.810329719236686e+00
 5.325341371218105e-01	 1.732502133559251e+00	 5.494151029397949e+00
 4.987242644271387e-01	 1.742535611704585e+00	 5.183614560192344e+00
 4.648964220634984e-01	 1.751864026327236e+00	 4.885953469627000e+00
 4.310710701983224e-01	 1.760492539724359e+00	 4.607404875723862e+00
 3.972682450801711e-01	 1.768427038765935e+00	 4.353190175844622e+00
 3.635075306723383e-01	 1.775674104427080e+00	 4.127505281499701e+00
 3.298080325121973e-01	 1.782240980249354e+00	 3.933520381244380e+00
 3.184353417352296e-01	 1.720784394733555e+00	 3.632977660945587e+00
 2.859749623090795e-01	 1.726475693704463e+00	 3.461606261457742e+00
 2.536091058023270e-01	 1.731526038345919e+00	 3.298258764320028e+00
 2.213547034732818e-01	 1.735944150962883e+00	 3.143846280006039e+00
 1.892281454495708e-01	 1.739739264653876e+00	 2.998468547798496e+00
 1.572452663273684e-01	 1.742921090073661e+00	 2.861444993563167e+00
 1.254213328766080e-01	 1.745499782086253e+00	 2.731351080763604e+00
 9.377103380810400e-02	 1.747485906444048e+00	 2.606059310368406e+00
 6.230847155001575e-02	 1.748890406621857e+00	 2.482784217449592e+00
 3.104715597342760e-02	 1.749724570927141e+00	 2.358130712852244e+00
 0.000000000000000e+00	 1.750000000000000e+00	 2.228145126672168e+00
 3.195726108152424e-01	 1.726930053287319e+00	 3.667610935177624e+00
 2.869963014628354e-01	 1.732641678325757e+00	 3.495788564794756e+00
 2.545148526115634e-01	 1.737710059912164e+00	 3.331556340813682e+00
 2.221452559885176e-01	 1.742143951502586e+00	 3.175873533422730e+00
 1.899039602574970e-01	 1.745952619170899e+00	 3.028880830443481e+00
 1.578068565668077e-01	 1.749145808252773e+00	 2.889931490110741e+00
 1.258692662105635e-01	 1.751733709879594e+00	 2.757627848671539e+00
 9.410593035926275e-02	 1.753726927538590e+00	 2.629862532733750e+00
 6.253100180688201e-02	 1.755136443788407e+00	 2.503863718231637e+00
 3.115803867404765e-02	 1.755973587251892e+00	 2.376243778346866e+00
 0.000000000000000e+00	 1.756250000000000e+00	 2.243050671055395e+00
 3.207098798947405e-01	 1.733075711840597e+00	 3.701199459358576e+00
 2.880176406159930e-01	 1.738807662946661e+00	 3.528832043354997e+00
 2.554205994201488e-01	 1.743894081478101e+00	 3.363657203447031e+00
 2.229358085030811e-01	 1.748343752042055e+00	 3.206682393148246e+00
 1.905797750647605e-01	 1.752165973687751e+00	 3.058089123732659e+00
 1.583684468056234e-01	 1.755370526431767e+00	 2.917264217763075e+00
 1.263171995439641e-01	 1.757967637672860e+00	 2.782836479652224e+00
 9.444082690996386e-02	 1.759967948633090e+00	 2.652718127377080e+00
 6.275353206341597e-02	 1.761382480954939e+00	 2.524150321202629e+00
 3.126892137448819e-02	 1.762222603576638e+00	 2.393752125631492e+00
 0.000000000000000e+00	 1.762500000000000e+00	 2.257572249111055e+00
 3.218471489737239e-01	 1.739221370393391e+00	 3.733753523125485e+00
 2.890389797685517e-01	 1.744973647567173e+00	 3.560746296383226e+00
 2.563263462280835e-01	 1.750078103043732e+00	 3.394570213049611e+00
 2.237263610169727e-01	 1.754543552581292e+00	 3.236280937729755e+00
 1.912555898713611e-01	 1.758379328204433e+00	 3.086100683958318e+00
 1.589300370438156e-01	 1.761595244610643e+00	 2.943449574222084e+00
 1.267651328768097e-01	 1.764201565466052e+00	 2.806982479858588e+00
 9.477572346020728e-02	 1.766208969727547e+00	 2.674630679062474e+00
 6.297606231961764e-02	 1.767628518121452e+00	 2.543647662758922e+00
 3.137980407474919e-02	 1.768471619901379e+00	 2.410658418369434e+00
 0.000000000000000e+00	 1.768750000000000e+00	 2.271711529769458e+00
 3.229844180521926e-01	 1.745367028945698e+00	 3.765283362500940e+00
 2.900603189205119e-01	 1.751139632187295e+00	 3.591540863008000e+00
 2.572320930353673e-01	 1.756262124609057e+00	 3.424304166055140e+00
 2.245169135301921e-01	 1.760743353120295e+00	 3.264677179223305e+00
 1.919314046772990e-01	 1.764592682720944e+00	 3.112922700975447e+00
 1.594916272813844e-01	 1.767819962789402e+00	 2.968493892914232e+00
 1.272130662091004e-01	 1.770435493259169e+00	 2.830071295394721e+00
 9.511062000999307e-02	 1.772449990821963e+00	 2.695604718746090e+00
 6.319859257548699e-02	 1.773874555287947e+00	 2.562359333696568e+00
 3.149068677483068e-02	 1.774720636226116e+00	 2.426965284741812e+00
 0.000000000000000e+00	 1.775000000000000e+00	 2.285470158454468e+00
 3.241216871301467e-01	 1.751512687497521e+00	 3.795799160832624e+00
 2.910816580718735e-01	 1.757305616807026e+00	 3.621225223297730e+00
 2.581378398420001e-01	 1.762446146174073e+00	 3.452867795630633e+00
 2.253074660427395e-01	 1.766943153659065e+00	 3.291879064360531e+00
 1.926072194825741e-01	 1.770806037237285e+00	 3.138562299368172e+00
 1.600532175183295e-01	 1.774044680968043e+00	 2.992403444120249e+00
 1.276609995408362e-01	 1.776669421052211e+00	 2.852108313369497e+00
 9.544551655932124e-02	 1.778691011916338e+00	 2.715644724521065e+00
 6.342112283102407e-02	 1.780120592454423e+00	 2.580288880010988e+00
 3.160156947473262e-02	 1.780969652550848e+00	 2.442675318070779e+00
 0.000000000000000e+00	 1.781250000000000e+00	 2.298849757496698e+00
 3.252589562075862e-01	 1.757658346048858e+00	 3.825311049715169e+00
 2.921029972226365e-01	 1.763471601426366e+00	 3.649808799292266e+00
 2.590435866479820e-01	 1.768630167738783e+00	 3.480269772782721e+00
 2.260980185546148e-01	 1.773142954197601e+00	 3.317894475690319e+00
 1.932830342871865e-01	 1.777019391753456e+00	 3.163026539590405e+00
 1.606148077546511e-01	 1.780269399146567e+00	 3.015184436077503e+00
 1.281089328720170e-01	 1.782903348845179e+00	 2.873098862927485e+00
 9.578041310819174e-02	 1.784932033010671e+00	 2.734755122541631e+00
 6.364365308622884e-02	 1.786366629620881e+00	 2.597439803681094e+00
 3.171245217445506e-02	 1.787218668875576e+00	 2.457791077429249e+00
 0.000000000000000e+00	 1.787500000000000e+00	 2.311851926536757e+00
 3.263962252845110e-01	 1.763804004599710e+00	 3.853829109891404e+00
 2.931243363728009e-01	 1.769637586045316e+00	 3.677300956014219e+00
 2.599493334533131e-01	 1.774814189303186e+00	 3.506518707440111e+00
 2.268885710658179e-01	 1.779342754735904e+00	 3.342731232697424e+00
 1.939588490911360e-01	 1.783232746269456e+00	 3.186322419083264e+00
 1.611763979903493e-01	 1.786494117324973e+00	 3.036843016061157e+00
 1.285568662026429e-01	 1.789137276638072e+00	 2.893048216259832e+00
 9.611530965660454e-02	 1.791173054104961e+00	 2.752940287927714e+00
 6.386618334110131e-02	 1.792612666787321e+00	 2.613815563434499e+00
 3.182333487399797e-02	 1.793467685200299e+00	 2.472315088236750e+00
 0.000000000000000e+00	 1.793750000000000e+00	 2.324478242920371e+00
 3.275334943609210e-01	 1.769949663150077e+00	 3.881363372135037e+00
 2.941456755223667e-01	 1.775803570663875e+00	 3.703711002458697e+00
 2.608550802579933e-01	 1.780998210867283e+00	 3.531623149514678e+00
 2.276791235763490e-01	 1.785542555273972e+00	 3.366397092897371e+00
 1.946346638944229e-01	 1.789446100785285e+00	 3.208456873369542e+00
 1.617379882254240e-01	 1.792718835503262e+00	 3.057385271443138e+00
 1.290047995327138e-01	 1.795371204430890e+00	 2.911961589591942e+00
 9.645020620455973e-02	 1.797414075199210e+00	 2.770204545650922e+00
 6.408871359564150e-02	 1.798858703953742e+00	 2.629419575500078e+00
 3.193421757336135e-02	 1.799716701525018e+00	 2.486249842844721e+00
 0.000000000000000e+00	 1.800000000000000e+00	 2.336730262085895e+00
 3.286707634368164e-01	 1.776095321699958e+00	 3.907923818115576e+00
 2.951670146713340e-01	 1.781969555282043e+00	 3.729048192562882e+00
 2.617608270620226e-01	 1.787182232431072e+00	 3.555591589939162e+00
 2.284696760862081e-01	 1.791742355811808e+00	 3.388899752908340e+00
 1.953104786970469e-01	 1.795659455300944e+00	 3.229436777124057e+00
 1.622995784598751e-01	 1.798943553681433e+00	 3.076817230728483e+00
 1.294527328622298e-01	 1.801605132223633e+00	 2.929844144152817e+00
 9.678510275205729e-02	 1.803655096293418e+00	 2.786552171402689e+00
 6.431124384984938e-02	 1.805104741120144e+00	 2.644255214342472e+00
 3.204510027254520e-02	 1.805965717849732e+00	 2.499597801107900e+00
 0.000000000000000e+00	 1.806250000000000e+00	 2.348609517942942e+00
 3.298080325121973e-01	 1.782240980249354e+00	 3.933520381244380e+00
 2.961883538197027e-01	 1.788135539899820e+00	 3.753321726154985e+00
 2.626665738654010e-01	 1.793366253994555e+00	 3.578432461684599e+00
 2.292602285953950e-01	 1.797942156349410e+00	 3.410246849500778e+00
 1.959862934990082e-01	 1.801872809816433e+00	 3.249268945223133e+00
 1.628611686937027e-01	 1.805168271859486e+00	 3.095144864568828e+00
 1.299006661911909e-01	 1.807839060016302e+00	 2.946700987121812e+00
 9.711999929909720e-02	 1.809896117387584e+00	 2.801987392443348e+00
 6.453377410372496e-02	 1.811350778286528e+00	 2.658325813381716e+00
 3.215598297154953e-02	 1.812214734174441e+00	 2.512361390944299e+00
 0.000000000000000e+00	 1.812500000000000e+00	 2.360117523244082e+00
 1.812500000000000e+00	 0.000000000000000e+00	 1.270894786581080e+01
 1.812214734174441e+00	 3.215598297154849e-02	 1.280343156331869e+01
 1.811350778286529e+00	 6.453377410372405e-02	 1.288334499993489e+01
 1.809896117387584e+00	 9.711999929909639e-02	 1.294935721450229e+01
 1.807839060016302e+00	 1.299006661911901e-01	 1.300240761233506e+01
 1.805168271859486e+00	 1.628611686937021e-01	 1.304371110356475e+01
 1.801872809816433e+00	 1.959862934990077e-01	 1.307476108579510e+01
 1.797942156349410e+00	 2.292602285953946e-01	 1.309733009215136e+01
 1.793366253994555e+00	 2.626665738654008e-01	 1.311346793847650e+01
 1.788135539899820e+00	 2.961883538197025e-01	 1.312549721927816e+01
 1.782240980249354e+00	 3.298080325121973e-01	 1.313600602110484e+01
 1.818750000000000e+00	 0.000000000000000e+00	 1.269644509106725e+01
 1.818463750499151e+00	 3.226686567055283e-02	 1.278528976998046e+01
 1.817596815452913e+00	 6.475630435759962e-02	 1.286046525296626e+01
 1.816137138481750e+00	 9.745489584613629e-02	 1.292268808186140e+01
 1.814072987808971e+00	 1.303485995201512e-01	 1.297294618248679e+01
 1.811392990037540e+00	 1.634227589275297e-01	 1.301250383289756e+01
 1.808086164331922e+00	 1.966621083009689e-01	 1.304290445140088e+01
 1.804141956887013e+00	 2.300507811045816e-01	 1.306597102479661e+01
 1.799550275558037e+00	 2.635723206687792e-01	 1.308380401018042e+01
 1.794301524517598e+00	 2.972096929680711e-01	 1.309877655974431e+01
 1.788386638798750e+00	 3.309453015875781e-01	 1.311352693735524e+01
 1.825000000000000e+00	 0.000000000000000e+00	 1.268495847706145e+01
 1.824712766823865e+00	 3.237774836973667e-02	 1.276813876907141e+01
 1.823842852619315e+00	 6.497883461180749e-02	 1.283853645050833e+01
 1.822378159575957e+00	 9.778979239363381e-02	 1.289691549194973e+01
 1.820306915601714e+00	 1.307965328496672e-01	 1.294431231458397e+01
 1.817617708215711e+00	 1.639843491619808e-01	 1.298204059029854e+01
 1.814299518847581e+00	 1.973379231035930e-01	 1.301169383677875e+01
 1.810341757424848e+00	 2.308413336144405e-01	 1.303514562741653e+01
 1.805734297121826e+00	 2.644780674728084e-01	 1.305454724893130e+01
 1.800467509135765e+00	 2.982310321170383e-01	 1.307232265594569e+01
 1.794532297348631e+00	 3.320825706634735e-01	 1.309116059137741e+01
 1.831250000000000e+00	 0.000000000000000e+00	 1.267446848407154e+01
 1.830961783148583e+00	 3.248863106910005e-02	 1.275195821918251e+01
 1.830088889785736e+00	 6.520136486634766e-02	 1.281753749953868e+01
 1.828619180670206e+00	 9.812468894158899e-02	 1.287201765304625e+01
 1.826540843394532e+00	 1.312444661797381e-01	 1.291648357400686e+01
 1.823842426393999e+00	 1.645459393970554e-01	 1.295229835697050e+01
 1.820512873363410e+00	 1.980137379068798e-01	 1.298110570062469e+01
 1.816541557962917e+00	 2.316318861249716e-01	 1.300482990083853e+01
 1.811918318685923e+00	 2.653838142774887e-01	 1.302567326530149e+01
 1.806633493754324e+00	 2.992523712666042e-01	 1.304611079878508e+01
 1.800677955898997e+00	 3.332198397398835e-01	 1.306888202794631e+01
 1.837500000000000e+00	 0.000000000000000e+00	 1.266495583822215e+01
 1.837210799473306e+00	 3.259951376864296e-02	 1.273672804821889e+01
 1.836334926952176e+00	 6.542389512122014e-02	 1.279744757865543e+01
 1.834860201764497e+00	 9.845958549000183e-02	 1.284797304616665e+01
 1.832774771187425e+00	 1.316923995103640e-01	 1.288943779877137e+01
 1.830067144572405e+00	 1.651075296327535e-01	 1.292325438540881e+01
 1.826726227879410e+00	 1.986895527108294e-01	 1.295111677031896e+01
 1.822741358501220e+00	 2.324224386361748e-01	 1.297500011067960e+01
 1.818102340250326e+00	 2.662895610828197e-01	 1.299715792945336e+01
 1.812799478373273e+00	 3.002737104167686e-01	 1.302011653223452e+01
 1.806823614449849e+00	 3.343571088168083e-01	 1.304666653705054e+01
 1.843750000000000e+00	 0.000000000000000e+00	 1.265640152697854e+01
 1.843459815798034e+00	 3.271039646836538e-02	 1.272242844883528e+01
 1.842580964118634e+00	 6.564642537642493e-02	 1.277824613347346e+01
 1.841101222858829e+00	 9.879448203887231e-02	 1.282476042044061e+01
 1.839008698980393e+00	 1.321403328415448e-01	 1.286315309490831e+01
 1.836291862750929e+00	 1.656691198690752e-01	 1.289488619480338e+01
 1.832939582395581e+00	 1.993653675154417e-01	 1.292170403737209e+01
 1.828941159039756e+00	 2.332129911480501e-01	 1.294563278285841e+01
 1.824286361815036e+00	 2.671953078888017e-01	 1.296897736673951e+01
 1.818965462992614e+00	 3.012950495675316e-01	 1.299431564904594e+01
 1.812969273001186e+00	 3.354943778942477e-01	 1.302448964973609e+01
 1.850000000000000e+00	 0.000000000000000e+00	 1.264878679473209e+01
 1.849708832122766e+00	 3.282127916826733e-02	 1.270903987396400e+01
 1.848827001285110e+00	 6.586895563196198e-02	 1.275991287211400e+01
 1.847342243953203e+00	 9.912937858820044e-02	 1.280235878858282e+01
 1.845242626773435e+00	 1.325882661732805e-01	 1.283760783193588e+01
 1.842516580929570e+00	 1.662307101060204e-01	 1.286717156653354e+01
 1.839152936911922e+00	 2.000411823207169e-01	 1.289284475296320e+01
 1.835140959578525e+00	 2.340035436605974e-01	 1.291670469919829e+01
 1.830470383380053e+00	 2.681010546954345e-01	 1.294110795339207e+01
 1.825131447612345e+00	 3.023163887188933e-01	 1.296868418654890e+01
 1.819114931553009e+00	 3.366316469722018e-01	 1.300232713403447e+01
 1.856250000000000e+00	 0.000000000000000e+00	 1.264209313847482e+01
 1.855957848447503e+00	 3.293216186834880e-02	 1.269654303243300e+01
 1.855073038451605e+00	 6.609148588783136e-02	 1.274242776078545e+01
 1.853583265047620e+00	 9.946427513798624e-02	 1.278074742245560e+01
 1.851476554566552e+00	 1.330361995055713e-01	 1.281278063842399e+01
 1.848741299108329e+00	 1.667923003435891e-01	 1.284008853975411e+01
 1.845366291428434e+00	 2.007169971266548e-01	 1.286451642356856e+01
 1.841340760117528e+00	 2.347940961738168e-01	 1.288819289311906e+01
 1.836654404945377e+00	 2.690068015027183e-01	 1.291352631229917e+01
 1.831297432232466e+00	 3.033377278708534e-01	 1.294319842253303e+01
 1.825260590105317e+00	 3.377689160506706e-01	 1.298015499097305e+01
 1.862500000000000e+00	 0.000000000000000e+00	 1.263630230356126e+01
 1.862206864772244e+00	 3.304304456860981e-02	 1.268491888467246e+01
 1.861319075618118e+00	 6.631401614403300e-02	 1.272577101945282e+01
 1.859824286142078e+00	 9.979917168822970e-02	 1.275990584872072e+01
 1.857710482359744e+00	 1.334841328384169e-01	 1.278865039764778e+01
 1.854966017287205e+00	 1.673538905817814e-01	 1.281361540707037e+01
 1.851579645945115e+00	 2.013928119332554e-01	 1.283669680667791e+01
 1.847540560656764e+00	 2.355846486877083e-01	 1.286007464541565e+01
 1.842838426511008e+00	 2.699125483106529e-01	 1.288620930886638e+01
 1.837463416852979e+00	 3.043590670234123e-01	 1.291783487121354e+01
 1.831406248658110e+00	 3.389061851296540e-01	 1.295794945066573e+01
 1.868750000000000e+00	 0.000000000000000e+00	 1.263139627955517e+01
 1.868455881096990e+00	 3.315392726905033e-02	 1.267414863850726e+01
 1.867565112784650e+00	 6.653654640056696e-02	 1.270992311759459e+01
 1.866065307236577e+00	 1.001340682389308e-01	 1.273981384457858e+01
 1.863944410153010e+00	 1.339320661718174e-01	 1.276519624332822e+01
 1.861190735466199e+00	 1.679154808205970e-01	 1.278773071029964e+01
 1.857793000461968e+00	 2.020686267405188e-01	 1.280936390659715e+01
 1.853740361196235e+00	 2.363752012022720e-01	 1.283232748012133e+01
 1.849022448076945e+00	 2.708182951192383e-01	 1.285913404696132e+01
 1.843629401473883e+00	 3.053804061765696e-01	 1.289257027927749e+01
 1.837551907211388e+00	 3.400434542091521e-01	 1.293568696848203e+01
 1.875000000000000e+00	 0.000000000000000e+00	 1.262735729615944e+01
 1.874704897421741e+00	 3.326480996967039e-02	 1.266421374503395e+01
 1.873811149951200e+00	 6.675907665743322e-02	 1.269486477004395e+01
 1.872306328331119e+00	 1.004689647900895e-01	 1.272045143359257e+01
 1.870178337946352e+00	 1.343799995057729e-01	 1.274239755545814e+01
 1.867415453645311e+00	 1.684770710600363e-01	 1.276241323631794e+01
 1.864006354978990e+00	 2.027444415484450e-01	 1.278249597033449e+01
 1.859940161735938e+00	 2.371657537175077e-01	 1.280492916045377e+01
 1.855206469643190e+00	 2.717240419284747e-01	 1.283227786493913e+01
 1.849795386095177e+00	 3.064017453303257e-01	 1.286738162200941e+01
 1.843697565765152e+00	 3.411807232891650e-01	 1.291334422129292e+01
 1.782240980249354e+00	 3.298080325121973e-01	 1.313600602110484e+01
 1.775674104427081e+00	 3.635075306723373e-01	 1.317157603859792e+01
 1.768427038765936e+00	 3.972682450801703e-01	 1.320280162453768e+01
 1.760492539724359e+00	 4.310710701983217e-01	 1.323170763102983e+01
 1.751864026327236e+00	 4.648964220634977e-01	 1.326051568637541e+01
 1.742535611704586e+00	 4.987242644271382e-01	 1.329162671140936e+01
 1.732502133559251e+00	 5.325341371218103e-01	 1.332760066271592e+01
 1.721759183393393e+00	 5.663051866162386e-01	 1.337113356464502e+01
 1.710303134323486e+00	 6.000161987078011e-01	 1.342503192853210e+01
 1.698131167314643e+00	 6.336456332869622e-01	 1.338820402082010e+01
 1.685241295667484e+00	 6.671716610936123e-01	 1.306504381117901e+01
 1.788386638798750e+00	 3.309453015875781e-01	 1.311352693735524e+01
 1.781797118576522e+00	 3.647610049143010e-01	 1.315070737505324e+01
 1.774525063033403e+00	 3.986381355791112e-01	 1.318406267692895e+01
 1.766563203650104e+00	 4.325575221634688e-01	 1.321569223430890e+01
 1.757904936758497e+00	 4.664995131731696e-01	 1.324789443013591e+01
 1.748544355189052e+00	 5.004440032691393e-01	 1.328314877195316e+01
 1.738476278843591e+00	 5.343704617316418e-01	 1.332409521438634e+01
 1.727696284022560e+00	 5.682579631206718e-01	 1.337351073461964e+01
 1.716200731335942e+00	 6.020852200811815e-01	 1.343428326132581e+01
 1.703986792028042e+00	 6.358306182273954e-01	 1.337946501909356e+01
 1.691052472548792e+00	 6.694722530258906e-01	 1.306443665818471e+01
 1.794532297348631e+00	 3.320825706634735e-01	 1.309116059137741e+01
 1.787920132726536e+00	 3.660144791566886e-01	 1.312991279839402e+01
 1.780623087301499e+00	 4.000080260784041e-01	 1.316535299752926e+01
 1.772633867576509e+00	 4.340439741289149e-01	 1.319965547636981e+01
 1.763945847190417e+00	 4.681026042831071e-01	 1.323519576693713e+01
 1.754553098674148e+00	 5.021637421113926e-01	 1.327453239396439e+01
 1.744450424128500e+00	 5.362067863417318e-01	 1.332038577497617e+01
 1.733633384652205e+00	 5.702107396253894e-01	 1.337561433723863e+01
 1.722098328348754e+00	 6.041542414548942e-01	 1.344318795410353e+01
 1.709842416741643e+00	 6.380156031682285e-01	 1.337056299279305e+01
 1.696863649430120e+00	 6.717728449586584e-01	 1.306386085387289e+01
 1.800677955898997e+00	 3.332198397398835e-01	 1.306888202794631e+01
 1.794043146877121e+00	 3.672679533995003e-01	 1.310916586686302e+01
 1.786721111570225e+00	 4.013779165780492e-01	 1.314664466917557e+01
 1.778704531503570e+00	 4.355304260946600e-01	 1.318356797978550e+01
 1.769986757622994e+00	 4.697056953933103e-01	 1.322238887836349e+01
 1.760561842159872e+00	 5.038834809538976e-01	 1.326574534155171e+01
 1.750424569413978e+00	 5.380431109520798e-01	 1.331643871895621e+01
 1.739570485282330e+00	 5.721635161303921e-01	 1.337740938956951e+01
 1.727995925361924e+00	 6.062232628289389e-01	 1.345170970321345e+01
 1.715698041455451e+00	 6.402005881094623e-01	 1.336152175653822e+01
 1.702674826311470e+00	 6.740734368919162e-01	 1.306334175063022e+01
 1.806823614449849e+00	 3.343571088168083e-01	 1.304666653705054e+01
 1.800166161028277e+00	 3.685214276427360e-01	 1.308844039263177e+01
 1.792819135839580e+00	 4.027478070780460e-01	 1.312791003692300e+01
 1.784775195431290e+00	 4.370168780607045e-01	 1.316740063718975e+01
 1.776027668056230e+00	 4.713087865037789e-01	 1.320944322343508e+01
 1.766570585646224e+00	 5.056032197966543e-01	 1.325675566314627e+01
 1.756398714700025e+00	 5.398794355626861e-01	 1.331222071149930e+01
 1.745507585912932e+00	 5.741162926356796e-01	 1.337886120523514e+01
 1.733893522375451e+00	 6.082922842033158e-01	 1.345981250686835e+01
 1.721553666169462e+00	 6.423855730510967e-01	 1.335236543156151e+01
 1.708486003192839e+00	 6.763740288256637e-01	 1.306290501162732e+01
 1.812969273001186e+00	 3.354943778942477e-01	 1.302448964973609e+01
 1.806289175180005e+00	 3.697749018863957e-01	 1.306771043749665e+01
 1.798917160109563e+00	 4.041176975783952e-01	 1.310912170360060e+01
 1.790845859359668e+00	 4.385033300270479e-01	 1.315112460669979e+01
 1.782068578490124e+00	 4.729118776145134e-01	 1.319632853390527e+01
 1.772579329133205e+00	 5.073229586396631e-01	 1.324753168668270e+01
 1.762372859986639e+00	 5.417157601735507e-01	 1.330769870355310e+01
 1.751444686544013e+00	 5.760690691412522e-01	 1.337993538938729e+01
 1.739791119389335e+00	 6.103613055780250e-01	 1.346746066002918e+01
 1.727409290883678e+00	 6.445705579931309e-01	 1.334311844051127e+01
 1.714297180074229e+00	 6.786746207599007e-01	 1.306257660555131e+01
 1.819114931553009e+00	 3.366316469722018e-01	 1.300232713403447e+01
 1.812412189332304e+00	 3.710283761304792e-01	 1.304695030866232e+01
 1.805015184380177e+00	 4.054875880790962e-01	 1.309025252545695e+01
 1.796916523288705e+00	 4.399897819936905e-01	 1.313471130743180e+01
 1.788109488924676e+00	 4.745149687255134e-01	 1.318301480965375e+01
 1.778588072620814e+00	 5.090426974829237e-01	 1.323804201487777e+01
 1.768347005273822e+00	 5.435520847846733e-01	 1.330283992701287e+01
 1.757381787175571e+00	 5.780218456471096e-01	 1.338059783378226e+01
 1.745688716403577e+00	 6.124303269530667e-01	 1.347461874939248e+01
 1.733264915598099e+00	 6.467555429355658e-01	 1.333380550236036e+01
 1.720108356955640e+00	 6.809752126946277e-01	 1.306238280144501e+01
 1.825260590105317e+00	 3.377689160506706e-01	 1.298015499097305e+01
 1.818535203485174e+00	 3.722818503749868e-01	 1.302613455461012e+01
 1.811113208651418e+00	 4.068574785801491e-01	 1.307127560789385e+01
 1.802987187218399e+00	 4.414762339606322e-01	 1.311813241510701e+01
 1.794150399359887e+00	 4.761180598367789e-01	 1.316947231417259e+01
 1.784596816109052e+00	 5.107624363264364e-01	 1.322825552060446e+01
 1.774321150561575e+00	 5.453884093960544e-01	 1.329761188999166e+01
 1.763318887807608e+00	 5.799746221532518e-01	 1.338081471195575e+01
 1.751586313418175e+00	 6.144993483284402e-01	 1.348125164847894e+01
 1.739120540312725e+00	 6.489405278784011e-01	 1.332445162741747e+01
 1.725919533837072e+00	 6.832758046298443e-01	 1.306235016365044e+01
 1.831406248658110e+00	 3.389061851296540e-01	 1.295794945066573e+01
 1.824658217638615e+00	 3.735353246199183e-01	 1.300523796104997e+01
 1.817211232923290e+00	 4.082273690815543e-01	 1.305216430128596e+01
 1.809057851148752e+00	 4.429626859278729e-01	 1.310135985774623e+01
 1.800191309795755e+00	 4.777211509483101e-01	 1.315567157014331e+01
 1.790605559597918e+00	 5.124821751702008e-01	 1.321814134235907e+01
 1.780295295849896e+00	 5.472247340076934e-01	 1.329198237218579e+01
 1.769255988440124e+00	 5.819273986596788e-01	 1.338055247449518e+01
 1.757483910433130e+00	 6.165683697041460e-01	 1.348732451282099e+01
 1.744976165027555e+00	 6.511255128216370e-01	 1.331508211243897e+01
 1.731730710718524e+00	 6.855763965655506e-01	 1.306250554685418e+01
 1.837551907211388e+00	 3.400434542091521e-01	 1.293568696848203e+01
 1.830781231792628e+00	 3.747887988652740e-01	 1.298423554695324e+01
 1.823309257195791e+00	 4.095972595833112e-01	 1.303289219688420e+01
 1.815128515079763e+00	 4.444491378954128e-01	 1.308436581145077e+01
 1.806232220232282e+00	 4.793242420601070e-01	 1.314158335510246e+01
 1.796614303087412e+00	 5.142019140142170e-01	 1.320766887981941e+01
 1.786269441138785e+00	 5.490610586195906e-01	 1.328591942033337e+01
 1.775193089073118e+00	 5.838801751663909e-01	 1.337977784440662e+01
 1.763381507448442e+00	 6.186373910801840e-01	 1.349280277524687e+01
 1.750831789742589e+00	 6.533104977652731e-01	 1.330572253583879e+01
 1.737541887599996e+00	 6.878769885017465e-01	 1.306287609123209e+01
 1.843697565765152e+00	 3.411807232891650e-01	 1.291334422129292e+01
 1.836904245947212e+00	 3.760422731110535e-01	 1.296310256066509e+01
 1.829407281468921e+00	 4.109671500854205e-01	 1.301343312280117e+01
 1.821199179011433e+00	 4.459355898632519e-01	 1.306712269626781e+01
 1.812273130669467e+00	 4.809273331721696e-01	 1.312717869719416e+01
 1.802623046577536e+00	 5.159216528584852e-01	 1.319680778949178e+01
 1.792243586428243e+00	 5.508973832317464e-01	 1.327939134376355e+01
 1.781130189706590e+00	 5.858329516733878e-01	 1.337845781257448e+01
 1.769279104464112e+00	 6.207064124565543e-01	 1.349765214125896e+01
 1.756687414457829e+00	 6.554954827093096e-01	 1.329639875299409e+01
 1.743353064481490e+00	 6.901775804384325e-01	 1.306348921769113e+01
 1.685241295667484e+00	 6.671716610936123e-01	 1.306504381117901e+01
 1.671632387594552e+00	 7.005722023711169e-01	 1.311511778968097e+01
 1.657304186728400e+00	 7.338249673078681e-01	 1.314212606356967e+01
 1.642257330410071e+00	 7.669074981436702e-01	 1.314683942674761e+01
 1.626493365614551e+00	 7.997972128047722e-01	 1.313068084973249e+01
 1.610014762379030e+00	 8.324714499158945e-01	 1.309576569688555e+01
 1.592824924610524e+00	 8.649075150265071e-01	 1.304493618659501e+01
 1.574928198161258e+00	 8.970827278764184e-01	 1.298178940772795e+01
 1.556329876073421e+00	 9.289744705148517e-01	 1.291069825804679e+01
 1.537036200909101e+00	 9.605602360774108e-01	 1.283682473439936e+01
 1.517054364096615e+00	 9.918176780167721e-01	 1.276612507979513e+01
 1.691052472548792e+00	 6.694722530258906e-01	 1.306443665818471e+01
 1.677396637207845e+00	 7.029879685830717e-01	 1.311490658288789e+01
 1.663019028753545e+00	 7.363553982260429e-01	 1.314166523583098e+01
 1.647920286724661e+00	 7.695520067540583e-01	 1.314539898675412e+01
 1.632101963430572e+00	 8.025551342241490e-01	 1.312745567955791e+01
 1.615566537425837e+00	 8.353420411183631e-01	 1.308988574084737e+01
 1.598317424355079e+00	 8.678899547294463e-01	 1.303547746631220e+01
 1.580358985056221e+00	 9.001761165894143e-01	 1.296778578774035e+01
 1.561696530823317e+00	 9.321778307545576e-01	 1.289115387635942e+01
 1.542336325744532e+00	 9.638725127506039e-01	 1.281072700298441e+01
 1.522285586046208e+00	 9.952377389731706e-01	 1.273245815157626e+01
 1.696863649430120e+00	 6.717728449586584e-01	 1.306386085387289e+01
 1.683160886820968e+00	 7.054037347956016e-01	 1.311473384932760e+01
 1.668733870778347e+00	 7.388858291448498e-01	 1.314123684726309e+01
 1.653583243038756e+00	 7.721965153651064e-01	 1.314397129140744e+01
 1.637710561245965e+00	 8.053130556441837e-01	 1.312420948768918e+01
 1.621118312471904e+00	 8.382126323214577e-01	 1.308393661036169e+01
 1.603809924098801e+00	 8.708723944329494e-01	 1.302588682026687e+01
 1.585789771950277e+00	 9.032695053028814e-01	 1.295357278744304e+01
 1.567063185572253e+00	 9.353811909946120e-01	 1.287130796369819e+01
 1.547636450578973e+00	 9.671847894239924e-01	 1.278422101623100e+01
 1.527516807994802e+00	 9.986577999295797e-01	 1.269826191033729e+01
 1.702674826311470e+00	 6.740734368919162e-01	 1.306334175063022e+01
 1.688925136433920e+00	 7.078195010087068e-01	 1.311462814295199e+01
 1.674448712802809e+00	 7.414162600642891e-01	 1.314087251992267e+01
 1.659246199352357e+00	 7.748410239768142e-01	 1.314259088901979e+01
 1.643319159060731e+00	 8.080709770648760e-01	 1.312097959888684e+01
 1.626670087517230e+00	 8.410832235251786e-01	 1.307795824934977e+01
 1.609302423841690e+00	 8.738548341370166e-01	 1.301620664729577e+01
 1.591220558843427e+00	 9.063628940168208e-01	 1.293919508995024e+01
 1.572429840320234e+00	 9.385845512350157e-01	 1.285120731102862e+01
 1.552936575412424e+00	 9.704970660975756e-01	 1.275735549138247e+01
 1.532748029942396e+00	 1.002077860885999e+00	 1.266358681355167e+01
 1.708486003192839e+00	 6.763740288256637e-01	 1.306290501162732e+01
 1.694689386046702e+00	 7.102352672223876e-01	 1.311461830855411e+01
 1.680163554826928e+00	 7.439466909843603e-01	 1.314060414702268e+01
 1.664909155665463e+00	 7.774855325891817e-01	 1.314129257967173e+01
 1.648927756874871e+00	 8.108288984862261e-01	 1.311780357062758e+01
 1.632221862561816e+00	 8.439538147295249e-01	 1.307199081577145e+01
 1.614794923583745e+00	 8.768372738416478e-01	 1.300647954200950e+01
 1.596651345735672e+00	 9.094562827312315e-01	 1.292469755633620e+01
 1.577796495067255e+00	 9.417879114757681e-01	 1.283089886995052e+01
 1.558236700244886e+00	 9.738093427713544e-01	 1.273017928951507e+01
 1.537979251888989e+00	 1.005497921842430e+00	 1.262848344628477e+01
 1.714297180074229e+00	 6.786746207599007e-01	 1.306257660555131e+01
 1.700453635659315e+00	 7.126510334366438e-01	 1.311473347683856e+01
 1.685878396850706e+00	 7.464771219050640e-01	 1.314046388833646e+01
 1.670572111978077e+00	 7.801300412022091e-01	 1.314011141094488e+01
 1.654536354688384e+00	 8.135868199082344e-01	 1.311471918916000e+01
 1.637773637605661e+00	 8.468244059344975e-01	 1.306607467799745e+01
 1.620287423324968e+00	 8.798197135468433e-01	 1.299674829147444e+01
 1.602082132627010e+00	 9.125496714461142e-01	 1.291012522261895e+01
 1.583163149813319e+00	 9.449912717168690e-01	 1.281042974997519e+01
 1.563536825076358e+00	 9.771216194453278e-01	 1.270274141310026e+01
 1.543210473834583e+00	 1.008917982798871e+00	 1.259300251903158e+01
 1.720108356955640e+00	 6.809752126946277e-01	 1.306238280144501e+01
 1.706217885271757e+00	 7.150667996514753e-01	 1.311500305959209e+01
 1.691593238874142e+00	 7.490075528263999e-01	 1.314048416569507e+01
 1.676235068290194e+00	 7.827745498158960e-01	 1.313908267374116e+01
 1.660144952501269e+00	 8.163447413309002e-01	 1.311176446564012e+01
 1.643325412648767e+00	 8.496949971400961e-01	 1.306025041125502e+01
 1.625779923065357e+00	 8.828021532526024e-01	 1.298705587196170e+01
 1.607512919517443e+00	 9.156430601614681e-01	 1.289552329680507e+01
 1.588529804558424e+00	 9.481946319583185e-01	 1.278984721585820e+01
 1.568836949906841e+00	 9.804338961194968e-01	 1.267509100361618e+01
 1.548441695779177e+00	 1.012338043755323e+00	 1.255719486559752e+01
 1.725919533837072e+00	 6.832758046298443e-01	 1.306235016365044e+01
 1.711982134884030e+00	 7.174825658668821e-01	 1.311545674495141e+01
 1.697308080897236e+00	 7.515379837483674e-01	 1.314069765857549e+01
 1.681898024601818e+00	 7.854190584302428e-01	 1.313824189818648e+01
 1.665753550313527e+00	 8.191026627542237e-01	 1.310897763234514e+01
 1.648877187691133e+00	 8.525655883463207e-01	 1.305455879414560e+01
 1.631272422804913e+00	 8.857845929589255e-01	 1.297744544576191e+01
 1.612943706406970e+00	 9.187364488772942e-01	 1.288093715599435e+01
 1.593896459302571e+00	 9.513979922001172e-01	 1.276919868498568e+01
 1.574137074736334e+00	 9.837461727938606e-01	 1.264727733920756e+01
 1.553672917722771e+00	 1.015758104711785e+00	 1.252111144102302e+01
 1.731730710718524e+00	 6.855763965655506e-01	 1.306250554685418e+01
 1.717746384496133e+00	 7.198983320828645e-01	 1.311612449276656e+01
 1.703022922919989e+00	 7.540684146709677e-01	 1.314113729977778e+01
 1.687560980912949e+00	 7.880635670452498e-01	 1.313762484961693e+01
 1.671362148125159e+00	 8.218605841782054e-01	 1.310639713896330e+01
 1.654428962732758e+00	 8.554361795531710e-01	 1.304904080523250e+01
 1.636764922543635e+00	 8.887670326658127e-01	 1.296796035806406e+01
 1.618374493295590e+00	 9.218298375935916e-01	 1.286641234354268e+01
 1.599263114045760e+00	 9.546013524422646e-01	 1.274853172481356e+01
 1.579437199564838e+00	 9.870584494684195e-01	 1.261934983239252e+01
 1.558904139665364e+00	 1.019178165668257e+00	 1.248480331954891e+01
 1.737541887599996e+00	 6.878769885017465e-01	 1.306287609123209e+01
 1.723510634108066e+00	 7.223140982994221e-01	 1.311703653005711e+01
 1.708737764942400e+00	 7.565988455942002e-01	 1.314183627118877e+01
 1.693223937223585e+00	 7.907080756609162e-01	 1.313726752464553e+01
 1.676970745936163e+00	 8.246185056028446e-01	 1.310406164895827e+01
 1.659980737773643e+00	 8.583067707606478e-01	 1.304373761969702e+01
 1.642257422281525e+00	 8.917494723732642e-01	 1.295864413389703e+01
 1.623805280183305e+00	 9.249232263103609e-01	 1.285199456628177e+01
 1.604629768787991e+00	 9.578047126847604e-01	 1.272789405035783e+01
 1.584737324392353e+00	 9.903707261431738e-01	 1.259135802781565e+01
 1.564135361606958e+00	 1.022598226624741e+00	 1.244832169262342e+01
 1.743353064481490e+00	 6.901775804384325e-01	 1.306348921769113e+01
 1.729274883719828e+00	 7.247298645165551e-01	 1.311822334655943e+01
 1.714452606964470e+00	 7.591292765180647e-01	 1.314282799963080e+01
 1.698886893533727e+00	 7.933525842772426e-01	 1.313720614730750e+01
 1.682579343746540e+00	 8.273764270281420e-01	 1.310201003600623e+01
 1.665532512813788e+00	 8.611773619687499e-01	 1.303869060606143e+01
 1.647749922018582e+00	 8.947319120812797e-01	 1.294954047513221e+01
 1.629236067070115e+00	 9.280166150276020e-01	 1.283772969179456e+01
 1.609996423529265e+00	 9.610080729276056e-01	 1.270733352173541e+01
 1.590037449218878e+00	 9.936830028181232e-01	 1.256335160004589e+01
 1.569366583547552e+00	 1.026018287581235e+00	 1.241171786694857e+01
 1.517054364096615e+00	 9.918176780167721e-01	 1.276612507979513e+01
 1.496392502240485e+00	 1.022724659575107e+00	 1.213474933179878e+01
 1.475059690359945e+00	 1.053259303282894e+00	 1.160849536733736e+01
 1.453065932037716e+00	 1.083400040261692e+00	 1.120245890973174e+01
 1.430422146479210e+00	 1.113125659105525e+00	 1.093220201274421e+01
 1.407140152501332e+00	 1.142415354117801e+00	 1.081368324817052e+01
 1.383232649488227e+00	 1.171248772679068e+00	 1.086318004120376e+01
 1.358713195370086e+00	 1.199606061523981e+00	 1.109720361357955e+01
 1.333596181699575e+00	 1.227467911710166e+00	 1.153240710473979e+01
 1.307896805918519e+00	 1.254815602067621e+00	 1.199595600439978e+01
 1.281631040925000e+00	 1.281631040925000e+00	 1.169100033570169e+01
 1.522285586046208e+00	 9.952377389731706e-01	 1.273245815157626e+01
 1.501552476390225e+00	 1.026251296330681e+00	 1.211035098498022e+01
 1.480146103089079e+00	 1.056891231913963e+00	 1.159380818702446e+01
 1.458076504220608e+00	 1.087135902469130e+00	 1.119801297112145e+01
 1.435354636642654e+00	 1.116964023447428e+00	 1.093862341503611e+01
 1.411992359926664e+00	 1.146354717408483e+00	 1.083170223269070e+01
 1.388002417247765e+00	 1.175287561551395e+00	 1.089363859251476e+01
 1.363398413287630e+00	 1.203742634151284e+00	 1.114106244495203e+01
 1.338194789224968e+00	 1.231700559683214e+00	 1.159075193327596e+01
 1.312406794906578e+00	 1.259142552421427e+00	 1.190689290687634e+01
 1.286050458309500e+00	 1.286050458309500e+00	 1.161823355043992e+01
 1.527516807994802e+00	 9.986577999295797e-01	 1.269826191033729e+01
 1.506712450538963e+00	 1.029777933086076e+00	 1.208538493573312e+01
 1.485232515817213e+00	 1.060523160544680e+00	 1.157849226858453e+01
 1.463087076402499e+00	 1.090871764676066e+00	 1.119285499656015e+01
 1.440287126805097e+00	 1.120802387788697e+00	 1.094422774710258e+01
 1.416844567350996e+00	 1.150294080698419e+00	 1.084877804218113e+01
 1.392772185006303e+00	 1.179326350422886e+00	 1.092300759724478e+01
 1.368083631204173e+00	 1.207879206777678e+00	 1.118366602960233e+01
 1.342793396749361e+00	 1.235933207655303e+00	 1.164765755430480e+01
 1.316916783893637e+00	 1.263469502774243e+00	 1.182289470060906e+01
 1.290469875693000e+00	 1.290469875693000e+00	 1.155048852556899e+01
 1.532748029942396e+00	 1.002077860885999e+00	 1.266358681355167e+01
 1.511872424686703e+00	 1.033304569841290e+00	 1.205990220243872e+01
 1.490318928544347e+00	 1.064155089175047e+00	 1.156259909216618e+01
 1.468097648583390e+00	 1.094607626882500e+00	 1.118703682874445e+01
 1.445219616966541e+00	 1.124640752129334e+00	 1.094906711542468e+01
 1.421696774774329e+00	 1.154233443987611e+00	 1.086496294913154e+01
 1.397541952763841e+00	 1.183365139293539e+00	 1.095133939763816e+01
 1.372768849119717e+00	 1.212015779403165e+00	 1.122506668531869e+01
 1.347392004272754e+00	 1.240165855626433e+00	 1.170317616950502e+01
 1.321426772879696e+00	 1.267796453126068e+00	 1.174391721503696e+01
 1.294889293075500e+00	 1.294889293075500e+00	 1.148772234799778e+01
 1.537979251888989e+00	 1.005497921842430e+00	 1.262848344628477e+01
 1.517032398833442e+00	 1.036831206596325e+00	 1.203395392888685e+01
 1.495405341270482e+00	 1.067787017805064e+00	 1.154618026049592e+01
 1.473108220763281e+00	 1.098343489088432e+00	 1.118061042947360e+01
 1.450152107126984e+00	 1.128479116469336e+00	 1.095319374146824e+01
 1.426548982196661e+00	 1.158172807276057e+00	 1.088030933626397e+01
 1.402311720520379e+00	 1.187403928163355e+00	 1.097868644078843e+01
 1.377454067034261e+00	 1.216152352027743e+00	 1.126531682873494e+01
 1.351990611795148e+00	 1.244398503596604e+00	 1.175736007278678e+01
 1.325936761864755e+00	 1.272123403476905e+00	 1.166991636461791e+01
 1.299308710457000e+00	 1.299308710457000e+00	 1.142989218185506e+01
 1.543210473834583e+00	 1.008917982798871e+00	 1.259300251903158e+01
 1.522192372979182e+00	 1.040357843351180e+00	 1.200759138215014e+01
 1.500491753995615e+00	 1.071418946434729e+00	 1.152928749680056e+01
 1.478118792942173e+00	 1.102079351293862e+00	 1.117362787763035e+01
 1.455084597286428e+00	 1.132317480808704e+00	 1.095665995973598e+01
 1.431401189617994e+00	 1.162112170563757e+00	 1.089486969466375e+01
 1.407081488275916e+00	 1.191442717032335e+00	 1.100510127686128e+01
 1.382139284947804e+00	 1.220288924651413e+00	 1.130446897365531e+01
 1.356589219316541e+00	 1.248631151565816e+00	 1.181026164872832e+01
 1.330446750848815e+00	 1.276450353826751e+00	 1.160084814738672e+01
 1.303728127837500e+00	 1.303728127837500e+00	 1.137695526718044e+01
 1.548441695779177e+00	 1.012338043755323e+00	 1.255719486559752e+01
 1.527352347123920e+00	 1.043884480105855e+00	 1.198086595050163e+01
 1.505578166719749e+00	 1.075050875064044e+00	 1.151197264277176e+01
 1.483129365120063e+00	 1.105815213498790e+00	 1.116614136720349e+01
 1.460017087444871e+00	 1.136155845147439e+00	 1.095951821585724e+01
 1.436253397038326e+00	 1.166051533850713e+00	 1.090869662194957e+01
 1.411851256030454e+00	 1.195481505900478e+00	 1.103063655735324e+01
 1.386824502860348e+00	 1.224425497274175e+00	 1.134257572941287e+01
 1.361187826836934e+00	 1.252863799534069e+00	 1.177350642220496e+01
 1.334956739831873e+00	 1.280777304175607e+00	 1.153666864354413e+01
 1.308147545217000e+00	 1.308147545217000e+00	 1.132886891864212e+01
 1.553672917722771e+00	 1.015758104711785e+00	 1.252111144102302e+01
 1.532512321267659e+00	 1.047411116860351e+00	 1.195382914137431e+01
 1.510664579442883e+00	 1.078682803693008e+00	 1.149428765657182e+01
 1.488139937296955e+00	 1.109551075703215e+00	 1.115820320534979e+01
 1.464949577602315e+00	 1.139994209485540e+00	 1.096182106471786e+01
 1.441105604457659e+00	 1.169990897136922e+00	 1.092184282047979e+01
 1.416621023783992e+00	 1.199520294767784e+00	 1.105534503338629e+01
 1.391509720771891e+00	 1.228562069896028e+00	 1.137968979926159e+01
 1.365786434356328e+00	 1.257096447501362e+00	 1.169838018542900e+01
 1.339466728813933e+00	 1.285104254523474e+00	 1.147733401407333e+01
 1.312566962595500e+00	 1.312566962595500e+00	 1.128559052428083e+01
 1.558904139665364e+00	 1.019178165668257e+00	 1.248480331954891e+01
 1.537672295410399e+00	 1.050937753614667e+00	 1.192653257936182e+01
 1.515750992165017e+00	 1.082314732321622e+00	 1.147628461087914e+01
 1.493150509472846e+00	 1.113286937907139e+00	 1.114986581049539e+01
 1.469882067758758e+00	 1.143832573823008e+00	 1.096362116862643e+01
 1.445957811875991e+00	 1.173930260422387e+00	 1.093436109559486e+01
 1.421390791536530e+00	 1.203559083634253e+00	 1.107927955403580e+01
 1.396194938682435e+00	 1.232698642516974e+00	 1.141586397879997e+01
 1.370385041874721e+00	 1.261329095467697e+00	 1.162809372145274e+01
 1.343976717794992e+00	 1.289431204870351e+00	 1.142280049938437e+01
 1.316986379973000e+00	 1.316986379973000e+00	 1.124707754427832e+01
 1.564135361606958e+00	 1.022598226624741e+00	 1.244832169262342e+01
 1.542832269552138e+00	 1.054464390368803e+00	 1.189902800425929e+01
 1.520837404886151e+00	 1.085946660949884e+00	 1.145801569097358e+01
 1.498161081647737e+00	 1.117022800110560e+00	 1.114118171047510e+01
 1.474814557914202e+00	 1.147670938159842e+00	 1.096497129551836e+01
 1.450810019293323e+00	 1.177869623707106e+00	 1.094630435389559e+01
 1.426160559288068e+00	 1.207597872499885e+00	 1.110249306469263e+01
 1.400880156591978e+00	 1.236835215137011e+00	 1.145115115442727e+01
 1.374983649392114e+00	 1.265561743433072e+00	 1.156260225969642e+01
 1.348486706775051e+00	 1.293758155216238e+00	 1.137302441798622e+01
 1.321405797349500e+00	 1.321405797349500e+00	 1.121328750975117e+01
 1.569366583547552e+00	 1.026018287581235e+00	 1.241171786694857e+01
 1.547992243692877e+00	 1.057991027122759e+00	 1.187136726914323e+01
 1.525923817606285e+00	 1.089578589577796e+00	 1.143953319285956e+01
 1.503171653821628e+00	 1.120758662313480e+00	 1.113220354070867e+01
 1.479747048068646e+00	 1.151509302496042e+00	 1.096592431719508e+01
 1.455662226709656e+00	 1.181808986991081e+00	 1.095772560155520e+01
 1.430930327038606e+00	 1.211636661364681e+00	 1.112503860545802e+01
 1.405565374500522e+00	 1.240971787756141e+00	 1.148560430183012e+01
 1.379582256908508e+00	 1.269794391397488e+00	 1.150186111289275e+01
 1.352996695754110e+00	 1.298085105561136e+00	 1.132796216518477e+01
 1.325825214725000e+00	 1.325825214725000e+00	 1.118417802156868e+01
 1.281631040925000e+00	 1.281631040925000e+00	 1.169100033570169e+01
 1.254815602067621e+00	 1.307896805918519e+00	 1.143325536516657e+01
 1.227467911710166e+00	 1.333596181699575e+00	 1.131380524387884e+01
 1.199606061523981e+00	 1.358713195370086e+00	 1.117397292524853e+01
 1.171248772679068e+00	 1.383232649488227e+00	 1.098740134781807e+01
 1.142415354117801e+00	 1.407140152501331e+00	 1.076148390721528e+01
 1.113125659105525e+00	 1.430422146479210e+00	 1.050393949993317e+01
 1.083400040261693e+00	 1.453065932037716e+00	 1.022275292627436e+01
 1.053259303282895e+00	 1.475059690359944e+00	 9.926113413526078e+00
 1.022724659575108e+00	 1.496392502240484e+00	 9.622351870231739e+00
 9.918176780167723e-01	 1.517054364096615e+00	 9.319877490055694e+00
 1.286050458309500e+00	 1.286050458309500e+00	 1.161823355043992e+01
 1.259142552421427e+00	 1.312406794906578e+00	 1.137474605972229e+01
 1.231700559683214e+00	 1.338194789224968e+00	 1.124725788085068e+01
 1.203742634151284e+00	 1.363398413287630e+00	 1.112822717120843e+01
 1.175287561551396e+00	 1.388002417247764e+00	 1.095970402164508e+01
 1.146354717408483e+00	 1.411992359926664e+00	 1.074913408528837e+01
 1.116964023447429e+00	 1.435354636642654e+00	 1.050429931906857e+01
 1.087135902469131e+00	 1.458076504220607e+00	 1.023325777397155e+01
 1.056891231913963e+00	 1.480146103089079e+00	 9.944281448159650e+00
 1.026251296330682e+00	 1.501552476390223e+00	 9.645792820776840e+00
 9.952377389731706e-01	 1.522285586046208e+00	 9.346300692253584e+00
 1.290469875693000e+00	 1.290469875693000e+00	 1.155048852556899e+01
 1.263469502774243e+00	 1.316916783893637e+00	 1.132119260372992e+01
 1.235933207655303e+00	 1.342793396749361e+00	 1.118405496099010e+01
 1.207879206777679e+00	 1.368083631204174e+00	 1.108571274046454e+01
 1.179326350422886e+00	 1.392772185006302e+00	 1.093512269597553e+01
 1.150294080698420e+00	 1.416844567350996e+00	 1.073978352781690e+01
 1.120802387788698e+00	 1.440287126805097e+00	 1.050754106248876e+01
 1.090871764676067e+00	 1.463087076402499e+00	 1.024652742505122e+01
 1.060523160544681e+00	 1.485232515817213e+00	 9.965098216878655e+00
 1.029777933086077e+00	 1.506712450538963e+00	 9.671768323626647e+00
 9.986577999295800e-01	 1.527516807994802e+00	 9.375146986601631e+00
 1.294889293075500e+00	 1.294889293075500e+00	 1.148772234799778e+01
 1.267796453126068e+00	 1.321426772879696e+00	 1.127255371191022e+01
 1.240165855626434e+00	 1.347392004272755e+00	 1.112421550765254e+01
 1.212015779403165e+00	 1.372768849119717e+00	 1.104644878895261e+01
 1.183365139293539e+00	 1.397541952763840e+00	 1.091367652360097e+01
 1.154233443987611e+00	 1.421696774774328e+00	 1.073345125096878e+01
 1.124640752129334e+00	 1.445219616966541e+00	 1.051368347890249e+01
 1.094607626882501e+00	 1.468097648583389e+00	 1.026258023295060e+01
 1.064155089175048e+00	 1.490318928544346e+00	 9.988581553415649e+00
 1.033304569841291e+00	 1.511872424686703e+00	 9.700295572091504e+00
 1.002077860886000e+00	 1.532748029942396e+00	 9.406432809297042e+00
 1.299308710457000e+00	 1.299308710457000e+00	 1.142989218185506e+01
 1.272123403476904e+00	 1.325936761864755e+00	 1.122878816445263e+01
 1.244398503596604e+00	 1.351990611795148e+00	 1.106775859913623e+01
 1.216152352027743e+00	 1.377454067034261e+00	 1.101045451826953e+01
 1.187403928163356e+00	 1.402311720520379e+00	 1.089538469495229e+01
 1.158172807276057e+00	 1.426548982196661e+00	 1.073015630180318e+01
 1.128479116469336e+00	 1.450152107126984e+00	 1.052274534244363e+01
 1.098343489088433e+00	 1.473108220763280e+00	 1.028143457235266e+01
 1.067787017805064e+00	 1.495405341270480e+00	 1.001474930986105e+01
 1.036831206596326e+00	 1.517032398833442e+00	 9.731391776242475e+00
 1.005497921842430e+00	 1.537979251888989e+00	 9.440174612984881e+00
 1.303728127837500e+00	 1.303728127837500e+00	 1.137695526718044e+01
 1.276450353826750e+00	 1.330446750848814e+00	 1.118985480590529e+01
 1.248631151565816e+00	 1.356589219316541e+00	 1.101470336775044e+01
 1.220288924651413e+00	 1.382139284947804e+00	 1.097774917489871e+01
 1.191442717032335e+00	 1.407081488275916e+00	 1.088026643746220e+01
 1.162112170563758e+00	 1.431401189617994e+00	 1.072991775774623e+01
 1.132317480808705e+00	 1.455084597286428e+00	 1.053474545223877e+01
 1.102079351293863e+00	 1.478118792942172e+00	 1.030310883882600e+01
 1.071418946434730e+00	 1.500491753995615e+00	 1.004361935635223e+01
 1.040357843351181e+00	 1.522192372979180e+00	 9.765074162626082e+00
 1.008917982798871e+00	 1.543210473834583e+00	 9.476388866480136e+00
 1.308147545217000e+00	 1.308147545217000e+00	 1.132886891864212e+01
 1.280777304175607e+00	 1.334956739831874e+00	 1.115571254408846e+01
 1.252863799534069e+00	 1.361187826836934e+00	 1.098393568683557e+01
 1.224425497274175e+00	 1.386824502860348e+00	 1.094835204945250e+01
 1.195481505900478e+00	 1.411851256030454e+00	 1.086834101493942e+01
 1.166051533850713e+00	 1.436253397038326e+00	 1.073275472607841e+01
 1.136155845147440e+00	 1.460017087444871e+00	 1.054970263198580e+01
 1.105815213498791e+00	 1.483129365120063e+00	 1.032762144847203e+01
 1.075050875064045e+00	 1.505578166719749e+00	 1.007520958076818e+01
 1.043884480105856e+00	 1.527352347123920e+00	 9.801359973986669e+00
 1.012338043755322e+00	 1.548441695779177e+00	 9.515092054493728e+00
 1.312566962595500e+00	 1.312566962595500e+00	 1.128559052428083e+01
 1.285104254523474e+00	 1.339466728813933e+00	 1.112632034902878e+01
 1.257096447501362e+00	 1.365786434356328e+00	 1.096668166069589e+01
 1.228562069896028e+00	 1.391509720771891e+00	 1.092228247592922e+01
 1.199520294767784e+00	 1.416621023783992e+00	 1.085962772695698e+01
 1.169990897136923e+00	 1.441105604457658e+00	 1.073868634343181e+01
 1.139994209485541e+00	 1.464949577602314e+00	 1.056763572954023e+01
 1.109551075703216e+00	 1.488139937296954e+00	 1.035499083757924e+01
 1.078682803693009e+00	 1.510664579442883e+00	 1.010953788843137e+01
 1.047411116860352e+00	 1.532512321267659e+00	 9.840266468993343e+00
 1.015758104711785e+00	 1.553672917722771e+00	 9.556300677365595e+00
 1.316986379973000e+00	 1.316986379973000e+00	 1.124707754427832e+01
 1.289431204870351e+00	 1.343976717794992e+00	 1.110163725191571e+01
 1.261329095467697e+00	 1.370385041874721e+00	 1.095409386336332e+01
 1.232698642516974e+00	 1.396194938682435e+00	 1.089955983098470e+01
 1.203559083634253e+00	 1.421390791536530e+00	 1.085414590825171e+01
 1.173930260422388e+00	 1.445957811875990e+00	 1.074773177529766e+01
 1.143832573823008e+00	 1.469882067758758e+00	 1.058856361650923e+01
 1.113286937907140e+00	 1.493150509472845e+00	 1.038523546228447e+01
 1.082314732321622e+00	 1.515750992165017e+00	 1.014662220181421e+01
 1.050937753614668e+00	 1.537672295410398e+00	 9.881810921973502e+00
 1.019178165668257e+00	 1.558904139665364e+00	 9.600031250802040e+00
 1.321405797349500e+00	 1.321405797349500e+00	 1.121328750975117e+01
 1.293758155216238e+00	 1.348486706775051e+00	 1.108162234407910e+01
 1.265561743433071e+00	 1.374983649392114e+00	 1.094613293884238e+01
 1.236835215137012e+00	 1.400880156591978e+00	 1.088020353321969e+01
 1.207597872499885e+00	 1.426160559288068e+00	 1.085191492813669e+01
 1.177869623707107e+00	 1.450810019293323e+00	 1.075991021554377e+01
 1.147670938159842e+00	 1.474814557914202e+00	 1.061250518785527e+01
 1.117022800110561e+00	 1.498161081647737e+00	 1.041837379824129e+01
 1.085946660949885e+00	 1.520837404886151e+00	 1.018648046025348e+01
 1.054464390368804e+00	 1.542832269552137e+00	 9.926010622649827e+00
 1.022598226624741e+00	 1.564135361606958e+00	 9.646300305619063e+00
 1.325825214725000e+00	 1.325825214725000e+00	 1.118417802156868e+01
 1.298085105561136e+00	 1.352996695754110e+00	 1.106623477598616e+01
 1.269794391397488e+00	 1.379582256908508e+00	 1.094275958076686e+01
 1.240971787756141e+00	 1.405565374500522e+00	 1.086423304248008e+01
 1.211636661364681e+00	 1.430930327038606e+00	 1.085295418992438e+01
 1.181808986991081e+00	 1.455662226709656e+00	 1.077524088594153e+01
 1.151509302496042e+00	 1.479747048068645e+00	 1.063947936150656e+01
 1.120758662313480e+00	 1.503171653821628e+00	 1.045442434029418e+01
 1.089578589577797e+00	 1.525923817606285e+00	 1.022913061966818e+01
 1.057991027122760e+00	 1.547992243692877e+00	 9.972882875884682e+00
 1.026018287581235e+00	 1.569366583547552e+00	 9.695124387490083e+00
 9.918176780167723e-01	 1.517054364096615e+00	 9.319877490055694e+00
 9.605602360774108e-01	 1.537036200909102e+00	 9.198253893809063e+00
 9.289744705148517e-01	 1.556329876073421e+00	 9.024910881931753e+00
 8.970827278764184e-01	 1.574928198161258e+00	 8.806391978190899e+00
 8.649075150265074e-01	 1.592824924610523e+00	 8.549351974750634e+00
 8.324714499158948e-01	 1.610014762379030e+00	 8.260500486288990e+00
 7.997972128047728e-01	 1.626493365614551e+00	 7.946546797489082e+00
 7.669074981436709e-01	 1.642257330410071e+00	 7.614146496217922e+00
 7.338249673078692e-01	 1.657304186728399e+00	 7.269850347829514e+00
 7.005722023711179e-01	 1.671632387594552e+00	 6.920055824544306e+00
 6.671716610936123e-01	 1.685241295667484e+00	 6.570961658590871e+00
 9.952377389731706e-01	 1.522285586046208e+00	 9.346300692253584e+00
 9.638725127506038e-01	 1.542336325744532e+00	 9.220134979623626e+00
 9.321778307545576e-01	 1.561696530823317e+00	 9.042762025624416e+00
 9.001761165894141e-01	 1.580358985056220e+00	 8.820847403603773e+00
 8.678899547294464e-01	 1.598317424355078e+00	 8.561163444688457e+00
 8.353420411183636e-01	 1.615566537425836e+00	 8.270532109474264e+00
 8.025551342241495e-01	 1.632101963430571e+00	 7.955769199069650e+00
 7.695520067540592e-01	 1.647920286724660e+00	 7.623630402550775e+00
 7.363553982260438e-01	 1.663019028753544e+00	 7.280759640365229e+00
 7.029879685830729e-01	 1.677396637207844e+00	 6.933640121072496e+00
 6.694722530258906e-01	 1.691052472548792e+00	 6.588548482854925e+00
 9.986577999295800e-01	 1.527516807994802e+00	 9.375146986601631e+00
 9.671847894239922e-01	 1.547636450578973e+00	 9.244425090829061e+00
 9.353811909946120e-01	 1.567063185572253e+00	 9.062994705063396e+00
 9.032695053028820e-01	 1.585789771950277e+00	 8.837644235735027e+00
 8.708723944329498e-01	 1.603809924098801e+00	 8.575264358887878e+00
 8.382126323214583e-01	 1.621118312471904e+00	 8.282790203942696e+00
 8.053130556441842e-01	 1.637710561245965e+00	 7.967144922867424e+00
 7.721965153651070e-01	 1.653583243038755e+00	 7.635185146589937e+00
 7.388858291448508e-01	 1.668733870778347e+00	 7.293648792343541e+00
 7.054037347956026e-01	 1.683160886820967e+00	 6.949105642804186e+00
 6.717728449586586e-01	 1.696863649430120e+00	 6.607911071231194e+00
 1.002077860886000e+00	 1.532748029942396e+00	 9.406432809297042e+00
 9.704970660975755e-01	 1.552936575412424e+00	 9.271138833259444e+00
 9.385845512350157e-01	 1.572429840320234e+00	 9.085621770016207e+00
 9.063628940168208e-01	 1.591220558843427e+00	 8.856793647521137e+00
 8.738548341370168e-01	 1.609302423841689e+00	 8.591664297368995e+00
 8.410832235251787e-01	 1.626670087517230e+00	 8.297282845117049e+00
 8.080709770648766e-01	 1.643319159060731e+00	 7.980680632131547e+00
 7.748410239768150e-01	 1.659246199352357e+00	 7.648816075629021e+00
 7.414162600642901e-01	 1.674448712802808e+00	 7.308521934786775e+00
 7.078195010087081e-01	 1.688925136433920e+00	 6.966455407298715e+00
 6.740734368919161e-01	 1.702674826311469e+00	 6.629051433401443e+00
 1.005497921842430e+00	 1.537979251888989e+00	 9.440174612984881e+00
 9.738093427713542e-01	 1.558236700244886e+00	 9.300290843236910e+00
 9.417879114757680e-01	 1.577796495067255e+00	 9.110656113570258e+00
 9.094562827312316e-01	 1.596651345735672e+00	 8.878306866824547e+00
 8.768372738416481e-01	 1.614794923583745e+00	 8.610372905448674e+00
 8.439538147295255e-01	 1.632221862561815e+00	 8.314018182840897e+00
 8.108288984862270e-01	 1.648927756874871e+00	 7.996383072406503e+00
 7.774855325891824e-01	 1.664909155665463e+00	 7.664528625877729e+00
 7.439466909843615e-01	 1.680163554826928e+00	 7.325383293000534e+00
 7.102352672223888e-01	 1.694689386046702e+00	 6.985692530519023e+00
 6.763740288256636e-01	 1.708486003192839e+00	 6.651971680328274e+00
 1.008917982798871e+00	 1.543210473834583e+00	 9.476388866480136e+00
 9.771216194453277e-01	 1.563536825076358e+00	 9.331895787055416e+00
 9.449912717168690e-01	 1.583163149813319e+00	 9.138110671397801e+00
 9.125496714461142e-01	 1.602082132627010e+00	 8.902195175502976e+00
 8.798197135468434e-01	 1.620287423324967e+00	 8.631399892633089e+00
 8.468244059344980e-01	 1.637773637605661e+00	 8.333004440117598e+00
 8.135868199082349e-01	 1.654536354688384e+00	 8.014259070136841e+00
 7.801300412022097e-01	 1.670572111978076e+00	 7.682328320954296e+00
 7.464771219050649e-01	 1.685878396850706e+00	 7.344237184976972e+00
 7.126510334366450e-01	 1.700453635659315e+00	 7.006820225163681e+00
 6.786746207599007e-01	 1.714297180074229e+00	 6.676674022538637e+00
 1.012338043755322e+00	 1.548441695779177e+00	 9.515092054493728e+00
 9.804338961194966e-01	 1.568836949906841e+00	 9.365968360474252e+00
 9.481946319583185e-01	 1.588529804558423e+00	 9.167998421037389e+00
 9.156430601614683e-01	 1.607512919517443e+00	 8.928469908497004e+00
 8.828021532526026e-01	 1.625779923065356e+00	 8.654755031533682e+00
 8.496949971400968e-01	 1.643325412648767e+00	 8.354249911874662e+00
 8.163447413309008e-01	 1.660144952501269e+00	 8.034315531300784e+00
 7.827745498158967e-01	 1.676235068290194e+00	 7.702220770409239e+00
 7.490075528264006e-01	 1.691593238874142e+00	 7.365088019828177e+00
 7.150667996514761e-01	 1.706217885271758e+00	 7.029841799032626e+00
 6.809752126946277e-01	 1.720108356955640e+00	 6.703160768441868e+00
 1.015758104711785e+00	 1.553672917722771e+00	 9.556300677365595e+00
 9.837461727938606e-01	 1.574137074736334e+00	 9.402523288222394e+00
 9.513979922001172e-01	 1.593896459302571e+00	 9.200332381188217e+00
 9.187364488772943e-01	 1.612943706406970e+00	 8.957142452936855e+00
 8.857845929589260e-01	 1.631272422804912e+00	 8.680448156804664e+00
 8.525655883463210e-01	 1.648877187691132e+00	 8.377762963752241e+00
 8.191026627542245e-01	 1.665753550313527e+00	 8.056559440071251e+00
 7.854190584302437e-01	 1.681898024601818e+00	 7.724211668278899e+00
 7.515379837483687e-01	 1.697308080897237e+00	 7.387940296252346e+00
 7.174825658668833e-01	 1.711982134884030e+00	 7.054760653426071e+00
 6.832758046298443e-01	 1.725919533837072e+00	 6.731434322682006e+00
 1.019178165668257e+00	 1.558904139665364e+00	 9.600031250802040e+00
 9.870584494684193e-01	 1.579437199564838e+00	 9.441575323511689e+00
 9.546013524422646e-01	 1.599263114045760e+00	 9.235125611020461e+00
 9.218298375935920e-01	 1.618374493295591e+00	 8.988224247266562e+00
 8.887670326658134e-01	 1.636764922543636e+00	 8.708489164102442e+00
 8.554361795531716e-01	 1.654428962732758e+00	 8.403552030917648e+00
 8.218605841782060e-01	 1.671362148125159e+00	 8.080997857504119e+00
 7.880635670452506e-01	 1.687560980912949e+00	 7.748306791667043e+00
 7.540684146709687e-01	 1.703022922919989e+00	 7.412798601031250e+00
 7.198983320828656e-01	 1.717746384496133e+00	 7.081580281576249e+00
 6.855763965655506e-01	 1.731730710718524e+00	 6.761497184522945e+00
 1.022598226624741e+00	 1.564135361606958e+00	 9.646300305619063e+00
 9.903707261431737e-01	 1.584737324392353e+00	 9.483139247561112e+00
 9.578047126847604e-01	 1.604629768787991e+00	 9.272391209497844e+00
 9.249232263103609e-01	 1.623805280183305e+00	 9.021726780385659e+00
 8.917494723732645e-01	 1.642257422281525e+00	 8.738888009065146e+00
 8.583067707606482e-01	 1.659980737773643e+00	 8.431625616901751e+00
 8.246185056028454e-01	 1.676970745936163e+00	 8.107637920252134e+00
 7.907080756609171e-01	 1.693223937223585e+00	 7.774511999356853e+00
 7.565988455942011e-01	 1.708737764942400e+00	 7.439667607556386e+00
 7.223140982994231e-01	 1.723510634108065e+00	 7.110304267109482e+00
 6.878769885017465e-01	 1.737541887599996e+00	 6.793351946266197e+00
 1.026018287581235e+00	 1.569366583547552e+00	 9.695124387490083e+00
 9.936830028181231e-01	 1.590037449218878e+00	 9.527229869130064e+00
 9.610080729276056e-01	 1.609996423529265e+00	 9.312142314714325e+00
 9.280166150276021e-01	 1.629236067070115e+00	 9.057661590808575e+00
 8.947319120812797e-01	 1.647749922018582e+00	 8.771654706312660e+00
 8.611773619687507e-01	 1.665532512813788e+00	 8.461992292460057e+00
 8.273764270281423e-01	 1.682579343746540e+00	 8.136486839305212e+00
 7.933525842772433e-01	 1.698886893533727e+00	 7.802833230449106e+00
 7.591292765180656e-01	 1.714452606964470e+00	 7.468552074386146e+00
 7.247298645165563e-01	 1.729274883719828e+00	 7.140936282539878e+00
 6.901775804384324e-01	 1.743353064481490e+00	 6.827001291700416e+00
 6.671716610936123e-01	 1.685241295667484e+00	 6.570961658590871e+00
 6.336456332869622e-01	 1.698131167314644e+00	 6.398038107372565e+00
 6.000161987078009e-01	 1.710303134323486e+00	 6.123951321157556e+00
 5.663051866162389e-01	 1.721759183393393e+00	 5.810329719236686e+00
 5.325341371218105e-01	 1.732502133559251e+00	 5.494151029397949e+00
 4.987242644271387e-01	 1.742535611704585e+00	 5.183614560192344e+00
 4.648964220634984e-01	 1.751864026327236e+00	 4.885953469627000e+00
 4.310710701983224e-01	 1.760492539724359e+00	 4.607404875723862e+00
 3.972682450801711e-01	 1.768427038765935e+00	 4.353190175844622e+00
 3.635075306723383e-01	 1.775674104427080e+00	 4.127505281499701e+00
 3.298080325121973e-01	 1.782240980249354e+00	 3.933520381244380e+00
 6.694722530258906e-01	 1.691052472548792e+00	 6.588548482854925e+00
 6.358306182273950e-01	 1.703986792028041e+00	 6.415488775442546e+00
 6.020852200811814e-01	 1.716200731335942e+00	 6.148485027025453e+00
 5.682579631206719e-01	 1.727696284022560e+00	 5.835799923546340e+00
 5.343704617316423e-01	 1.738476278843592e+00	 5.521300275811145e+00
 5.004440032691398e-01	 1.748544355189052e+00	 5.213305441987978e+00
 4.664995131731703e-01	 1.757904936758497e+00	 4.919155987111800e+00
 4.325575221634695e-01	 1.766563203650104e+00	 4.645183412284116e+00
 3.986381355791121e-01	 1.774525063033403e+00	 4.396690213848490e+00
 3.647610049143020e-01	 1.781797118576522e+00	 4.177939975993556e+00
 3.309453015875780e-01	 1.788386638798750e+00	 3.992157105046592e+00
 6.717728449586586e-01	 1.696863649430120e+00	 6.607911071231194e+00
 6.380156031682285e-01	 1.709842416741644e+00	 6.434531268041939e+00
 6.041542414548939e-01	 1.722098328348754e+00	 6.174234494184850e+00
 5.702107396253896e-01	 1.733633384652206e+00	 5.862216187659264e+00
 5.362067863417321e-01	 1.744450424128501e+00	 5.549144783317136e+00
 5.021637421113929e-01	 1.754553098674148e+00	 5.243461067150619e+00
 4.681026042831078e-01	 1.763945847190417e+00	 4.952614249446879e+00
 4.340439741289156e-01	 1.772633867576508e+00	 4.683031309798121e+00
 4.000080260784050e-01	 1.780623087301499e+00	 4.440096794380907e+00
 3.660144791566897e-01	 1.787920132726536e+00	 4.228142765666878e+00
 3.320825706634735e-01	 1.794532297348631e+00	 4.050448508438625e+00
 6.740734368919161e-01	 1.702674826311469e+00	 6.629051433401443e+00
 6.402005881094620e-01	 1.715698041455450e+00	 6.455167436966618e+00
 6.062232628289389e-01	 1.727995925361924e+00	 6.201212730579959e+00
 5.721635161303924e-01	 1.739570485282329e+00	 5.889590174736057e+00
 5.380431109520802e-01	 1.750424569413978e+00	 5.577694910159795e+00
 5.038834809538980e-01	 1.760561842159872e+00	 5.274090534735738e+00
 4.697056953933108e-01	 1.769986757622994e+00	 4.986336147642735e+00
 4.355304260946609e-01	 1.778704531503570e+00	 4.720955307323909e+00
 4.013779165780501e-01	 1.786721111570225e+00	 4.483415565116436e+00
 3.672679533995013e-01	 1.794043146877121e+00	 4.278118271373677e+00
 3.332198397398835e-01	 1.800677955898997e+00	 4.108398253525409e+00
 6.763740288256636e-01	 1.708486003192839e+00	 6.651971680328274e+00
 6.423855730510963e-01	 1.721553666169462e+00	 6.477399226842946e+00
 6.082922842033158e-01	 1.733893522375451e+00	 6.229432829000739e+00
 5.741162926356800e-01	 1.745507585912932e+00	 5.917933625270788e+00
 5.398794355626865e-01	 1.756398714700024e+00	 5.606961084881894e+00
 5.056032197966548e-01	 1.766570585646224e+00	 5.305203007549309e+00
 4.713087865037796e-01	 1.776027668056229e+00	 5.020329630400241e+00
 4.370168780607052e-01	 1.784775195431289e+00	 4.758962196042047e+00
 4.027478070780471e-01	 1.792819135839580e+00	 4.526652220777181e+00
 3.685214276427370e-01	 1.800166161028277e+00	 4.327871156434113e+00
 3.343571088168084e-01	 1.806823614449849e+00	 4.166010040790835e+00
 6.786746207599007e-01	 1.714297180074229e+00	 6.676674022538637e+00
 6.445705579931308e-01	 1.727409290883678e+00	 6.501228673555326e+00
 6.103613055780253e-01	 1.739791119389336e+00	 6.258907965644990e+00
 5.760690691412522e-01	 1.751444686544012e+00	 5.947258355779400e+00
 5.417157601735511e-01	 1.762372859986639e+00	 5.636953805134227e+00
 5.073229586396636e-01	 1.772579329133204e+00	 5.336807711067181e+00
 4.729118776145140e-01	 1.782068578490123e+00	 5.054602703132582e+00
 4.385033300270487e-01	 1.790845859359668e+00	 4.797058818371389e+00
 4.041176975783961e-01	 1.798917160109564e+00	 4.569812502334977e+00
 3.697749018863967e-01	 1.806289175180004e+00	 4.377406125915384e+00
 3.354943778942477e-01	 1.812969273001186e+00	 4.223287608447762e+00
 6.809752126946277e-01	 1.720108356955640e+00	 6.703160768441868e+00
 6.467555429355656e-01	 1.733264915598099e+00	 6.526657902704385e+00
 6.124303269530665e-01	 1.745688716403577e+00	 6.289651398709452e+00
 5.780218456471096e-01	 1.757381787175571e+00	 5.977576257516009e+00
 5.435520847846738e-01	 1.768347005273823e+00	 5.667683636507929e+00
 5.090426974829243e-01	 1.778588072620814e+00	 5.368913932376355e+00
 4.745149687255139e-01	 1.788109488924676e+00	 5.089163427007254e+00
 4.399897819936912e-01	 1.796916523288704e+00	 4.835252067103855e+00
 4.054875880790970e-01	 1.805015184380176e+00	 4.612902196230143e+00
 3.710283761304803e-01	 1.812412189332303e+00	 4.426727925926149e+00
 3.366316469722018e-01	 1.819114931553009e+00	 4.280234731800494e+00
 6.832758046298443e-01	 1.725919533837072e+00	 6.731434322682006e+00
 6.489405278784010e-01	 1.739120540312725e+00	 6.553689128096372e+00
 6.144993483284402e-01	 1.751586313418174e+00	 6.321676467009092e+00
 5.799746221532519e-01	 1.763318887807608e+00	 6.008899295214741e+00
 5.453884093960546e-01	 1.774321150561575e+00	 5.699161211391047e+00
 5.107624363264367e-01	 1.784596816109052e+00	 5.401531019137529e+00
 4.761180598367796e-01	 1.794150399359887e+00	 5.124019918008061e+00
 4.414762339606330e-01	 1.802987187218399e+00	 4.873548884556318e+00
 4.068574785801500e-01	 1.811113208651418e+00	 4.655927133606292e+00
 3.722818503749878e-01	 1.818535203485173e+00	 4.475841342925628e+00
 3.377689160506706e-01	 1.825260590105316e+00	 4.336855222620189e+00
 6.855763965655506e-01	 1.731730710718524e+00	 6.761497184522945e+00
 6.511255128216368e-01	 1.744976165027555e+00	 6.582324650263738e+00
 6.165683697041461e-01	 1.757483910433130e+00	 6.354996588624434e+00
 5.819273986596790e-01	 1.769255988440124e+00	 6.041239505856418e+00
 5.472247340076937e-01	 1.780295295849896e+00	 5.731397227847070e+00
 5.124821751702011e-01	 1.790605559597918e+00	 5.434668378569858e+00
 4.777211509483107e-01	 1.800191309795755e+00	 5.159180346014485e+00
 4.429626859278737e-01	 1.809057851148753e+00	 4.911956261740020e+00
 4.082273690815551e-01	 1.817211232923290e+00	 4.698893189559747e+00
 3.735353246199194e-01	 1.824658217638615e+00	 4.524751203046830e+00
 3.389061851296541e-01	 1.831406248658110e+00	 4.393152928533296e+00
 6.878769885017465e-01	 1.737541887599996e+00	 6.793351946266197e+00
 6.533104977652731e-01	 1.750831789742589e+00	 6.612566855014290e+00
 6.186373910801841e-01	 1.763381507448442e+00	 6.389625259576746e+00
 5.838801751663910e-01	 1.775193089073118e+00	 6.074608997460872e+00
 5.490610586195909e-01	 1.786269441138784e+00	 5.764402448517554e+00
 5.142019140142174e-01	 1.796614303087412e+00	 5.468335476453431e+00
 4.793242420601077e-01	 1.806232220232282e+00	 5.194652933901122e+00
 4.444491378954136e-01	 1.815128515079763e+00	 4.950481237545639e+00
 4.095972595833122e-01	 1.823309257195791e+00	 4.741806282405161e+00
 3.747887988652751e-01	 1.830781231792628e+00	 4.573462371432781e+00
 3.400434542091521e-01	 1.837551907211388e+00	 4.449131732421718e+00
 6.901775804384324e-01	 1.743353064481490e+00	 6.827001291700416e+00
 6.554954827093095e-01	 1.756687414457829e+00	 6.644418212010225e+00
 6.207064124565543e-01	 1.769279104464112e+00	 6.425576052527856e+00
 5.858329516733880e-01	 1.781130189706590e+00	 6.109019947902588e+00
 5.508973832317466e-01	 1.792243586428243e+00	 5.798187699545206e+00
 5.159216528584857e-01	 1.802623046577535e+00	 5.502541836154132e+00
 4.809273331721702e-01	 1.812273130669467e+00	 5.230445956654099e+00
 4.459355898632527e-01	 1.821199179011433e+00	 4.989130897945513e+00
 4.109671500854213e-01	 1.829407281468920e+00	 4.784672372955088e+00
 3.760422731110546e-01	 1.836904245947212e+00	 4.621979751586496e+00
 3.411807232891650e-01	 1.843697565765152e+00	 4.504795551835212e+00
 3.298080325121973e-01	 1.782240980249354e+00	 3.933520381244380e+00
 2.961883538197027e-01	 1.788135539899820e+00	 3.753321726154985e+00
 2.626665738654010e-01	 1.793366253994555e+00	 3.578432461684599e+00
 2.292602285953950e-01	 1.797942156349410e+00	 3.410246849500778e+00
 1.959862934990082e-01	 1.801872809816433e+00	 3.249268945223133e+00
 1.628611686937027e-01	 1.805168271859486e+00	 3.095144864568828e+00
 1.299006661911909e-01	 1.807839060016302e+00	 2.946700987121812e+00
 9.711999929909720e-02	 1.809896117387584e+00	 2.801987392443348e+00
 6.453377410372496e-02	 1.811350778286528e+00	 2.658325813381716e+00
 3.215598297154953e-02	 1.812214734174441e+00	 2.512361390944299e+00
 0.000000000000000e+00	 1.812500000000000e+00	 2.360117523244082e+00
 3.309453015875780e-01	 1.788386638798750e+00	 3.992157105046592e+00
 2.972096929680713e-01	 1.794301524517597e+00	 3.820641867490706e+00
 2.635723206687794e-01	 1.799550275558037e+00	 3.650640403719826e+00
 2.300507811045819e-01	 1.804141956887013e+00	 3.483606211842526e+00
 1.966621083009694e-01	 1.808086164331921e+00	 3.320106086863015e+00
 1.634227589275303e-01	 1.811392990037540e+00	 3.159851952011161e+00
 1.303485995201519e-01	 1.814072987808971e+00	 3.001738668470245e+00
 9.745489584613706e-02	 1.816137138481749e+00	 2.843887116708513e+00
 6.475630435760055e-02	 1.817596815452913e+00	 2.683691832418936e+00
 3.226686567055386e-02	 1.818463750499150e+00	 2.517872479307215e+00
 0.000000000000000e+00	 1.818750000000000e+00	 2.342528448907002e+00
 3.320825706634735e-01	 1.794532297348631e+00	 4.050448508438625e+00
 2.982310321170386e-01	 1.800467509135765e+00	 3.887314359038697e+00
 2.644780674728088e-01	 1.805734297121826e+00	 3.721960628928607e+00
 2.308413336144408e-01	 1.810341757424848e+00	 3.555899918645034e+00
 1.973379231035935e-01	 1.814299518847581e+00	 3.389761423770546e+00
 1.639843491619814e-01	 1.817617708215711e+00	 3.223322339869392e+00
 1.307965328496679e-01	 1.820306915601714e+00	 3.055545287346105e+00
 9.778979239363461e-02	 1.822378159575957e+00	 2.884621047815535e+00
 6.497883461180844e-02	 1.823842852619315e+00	 2.708015893035116e+00
 3.237774836973772e-02	 1.824712766823864e+00	 2.522522786415614e+00
 0.000000000000000e+00	 1.825000000000000e+00	 2.324315744857042e+00
 3.332198397398835e-01	 1.800677955898997e+00	 4.108398253525409e+00
 2.992523712666044e-01	 1.806633493754324e+00	 3.953344171113824e+00
 2.653838142774890e-01	 1.811918318685923e+00	 3.792399117414369e+00
 2.316318861249720e-01	 1.816541557962917e+00	 3.627134667248389e+00
 1.980137379068803e-01	 1.820512873363411e+00	 3.458242084092238e+00
 1.645459393970560e-01	 1.823842426393999e+00	 3.285563307013334e+00
 1.312444661797388e-01	 1.826540843394532e+00	 3.108127999804677e+00
 9.812468894158978e-02	 1.828619180670206e+00	 2.924195952185161e+00
 6.520136486634860e-02	 1.830088889785737e+00	 2.731304112062245e+00
 3.248863106910110e-02	 1.830961783148583e+00	 2.526317526550247e+00
 0.000000000000000e+00	 1.831250000000000e+00	 2.305483476955804e+00
 3.343571088168084e-01	 1.806823614449849e+00	 4.166010040790835e+00
 3.002737104167688e-01	 1.812799478373273e+00	 4.018736278938574e+00
 2.662895610828201e-01	 1.818102340250326e+00	 3.861961826268075e+00
 2.324224386361751e-01	 1.822741358501219e+00	 3.697317109555071e+00
 1.986895527108298e-01	 1.826726227879411e+00	 3.525555133541042e+00
 1.651075296327542e-01	 1.830067144572405e+00	 3.346582058235931e+00
 1.316923995103647e-01	 1.832774771187425e+00	 3.159493881447331e+00
 9.845958549000262e-02	 1.834860201764497e+00	 2.962618514578458e+00
 6.542389512122110e-02	 1.836334926952176e+00	 2.753562528535747e+00
 3.259951376864401e-02	 1.837210799473306e+00	 2.529261845014728e+00
 0.000000000000000e+00	 1.837500000000000e+00	 2.286035655747182e+00
 3.354943778942477e-01	 1.812969273001186e+00	 4.223287608447762e+00
 3.012950495675319e-01	 1.818965462992614e+00	 4.083495662560458e+00
 2.671953078888020e-01	 1.824286361815036e+00	 3.930654689958381e+00
 2.332129911480504e-01	 1.828941159039756e+00	 3.766453852800685e+00
 1.993653675154421e-01	 1.832939582395581e+00	 3.591707576454870e+00
 1.656691198690758e-01	 1.836291862750929e+00	 3.406385725508727e+00
 1.321403328415455e-01	 1.839008698980392e+00	 3.209649928785426e+00
 9.879448203887313e-02	 1.841101222858829e+00	 2.999895339481484e+00
 6.564642537642587e-02	 1.842580964118634e+00	 2.774797105012444e+00
 3.271039646836642e-02	 1.843459815798034e+00	 2.531360819305211e+00
 0.000000000000000e+00	 1.843750000000000e+00	 2.265976237394636e+00
 3.366316469722018e-01	 1.819114931553009e+00	 4.280234731800494e+00
 3.023163887188934e-01	 1.825131447612345e+00	 4.147627306770137e+00
 2.681010546954348e-01	 1.830470383380053e+00	 3.998483620713698e+00
 2.340035436605978e-01	 1.835140959578525e+00	 3.834551460307301e+00
 2.000411823207173e-01	 1.839152936911922e+00	 3.656706356832903e+00
 1.662307101060210e-01	 1.842516580929570e+00	 3.464981369212071e+00
 1.325882661732813e-01	 1.845242626773435e+00	 3.258603060575533e+00
 9.912937858820127e-02	 1.847342243953204e+00	 3.036032952460718e+00
 6.586895563196292e-02	 1.848827001285110e+00	 2.795013728863383e+00
 3.282127916826838e-02	 1.849708832122766e+00	 2.532619460255093e+00
 0.000000000000000e+00	 1.850000000000000e+00	 2.245309124599903e+00
 3.377689160506706e-01	 1.825260590105316e+00	 4.336855222620189e+00
 3.033377278708537e-01	 1.831297432232466e+00	 4.211136201021831e+00
 2.690068015027186e-01	 1.836654404945377e+00	 4.065454508896564e+00
 2.347940961738172e-01	 1.841340760117528e+00	 3.901616452223960e+00
 2.007169971266552e-01	 1.845366291428433e+00	 3.720558359351658e+00
 1.667923003435897e-01	 1.848741299108329e+00	 3.522375979340076e+00
 1.330361995055720e-01	 1.851476554566552e+00	 3.306360119129030e+00
 9.946427513798704e-02	 1.853583265047620e+00	 3.071037801491611e+00
 6.609148588783229e-02	 1.855073038451605e+00	 2.814218213538282e+00
 3.293216186834987e-02	 1.855957848447503e+00	 2.533042713157825e+00
 0.000000000000000e+00	 1.856250000000000e+00	 2.224038167503301e+00
 3.389061851296541e-01	 1.831406248658110e+00	 4.393152928533296e+00
 3.043590670234124e-01	 1.837463416852979e+00	 4.274027339354694e+00
 2.699125483106531e-01	 1.842838426511007e+00	 4.131573223370566e+00
 2.355846486877087e-01	 1.847540560656764e+00	 3.967655306250343e+00
 2.013928119332558e-01	 1.851579645945115e+00	 3.783270410360417e+00
 1.673538905817820e-01	 1.854966017287206e+00	 3.578576476681967e+00
 1.334841328384176e-01	 1.857710482359744e+00	 3.352927871594974e+00
 9.979917168823051e-02	 1.859824286142078e+00	 3.104916258261238e+00
 6.631401614403395e-02	 1.861319075618118e+00	 2.832416299807217e+00
 3.304304456861087e-02	 1.862206864772245e+00	 2.532635458866184e+00
 0.000000000000000e+00	 1.862500000000000e+00	 2.202167164565365e+00
 3.400434542091521e-01	 1.837551907211388e+00	 4.449131732421718e+00
 3.053804061765699e-01	 1.843629401473883e+00	 4.336305720316311e+00
 2.708182951192387e-01	 1.849022448076945e+00	 4.196845611859734e+00
 2.363752012022724e-01	 1.853740361196235e+00	 4.032674458347190e+00
 2.020686267405193e-01	 1.857793000461968e+00	 3.844849278856380e+00
 1.679154808205977e-01	 1.861190735466199e+00	 3.633589713979075e+00
 1.339320661718181e-01	 1.863944410153010e+00	 3.398313011216402e+00
 1.001340682389316e-01	 1.866065307236577e+00	 3.137674619443194e+00
 6.653654640056790e-02	 1.867565112784649e+00	 2.849613656975171e+00
 3.315392726905140e-02	 1.868455881096990e+00	 2.531402514870623e+00
 0.000000000000000e+00	 1.868750000000000e+00	 2.179699863431120e+00
 3.411807232891650e-01	 1.843697565765152e+00	 4.504795551835212e+00
 3.064017453303258e-01	 1.849795386095177e+00	 4.397976346888039e+00
 2.717240419284750e-01	 1.855206469643190e+00	 4.261277501301338e+00
 2.371657537175081e-01	 1.859940161735939e+00	 4.096680303430946e+00
 2.027444415484455e-01	 1.864006354978991e+00	 3.905301677440428e+00
 1.684770710600370e-01	 1.867415453645311e+00	 3.687422477059056e+00
 1.343799995057737e-01	 1.870178337946352e+00	 3.442522158562153e+00
 1.004689647900904e-01	 1.872306328331119e+00	 3.169319107948055e+00
 6.675907665743416e-02	 1.873811149951200e+00	 2.865815884073153e+00
 3.326480996967145e-02	 1.874704897421741e+00	 2.529348636353892e+00
 0.000000000000000e+00	 1.875000000000000e+00	 2.156639961776765e+00
 1.875000000000000e+00	 0.000000000000000e+00	 1.262735729615944e+01
 1.874704897421741e+00	 3.326480996967039e-02	 1.266421374503395e+01
 1.873811149951200e+00	 6.675907665743322e-02	 1.269486477004395e+01
 1.872306328331119e+00	 1.004689647900895e-01	 1.272045143359257e+01
 1.870178337946352e+00	 1.343799995057729e-01	 1.274239755545814e+01
 1.867415453645311e+00	 1.684770710600363e-01	 1.276241323631794e+01
 1.864006354978990e+00	 2.027444415484450e-01	 1.278249597033449e+01
 1.859940161735938e+00	 2.371657537175077e-01	 1.280492916045377e+01
 1.855206469643190e+00	 2.717240419284747e-01	 1.283227786493913e+01
 1.849795386095177e+00	 3.064017453303257e-01	 1.286738162200941e+01
 1.843697565765152e+00	 3.411807232891650e-01	 1.291334422129292e+01
 1.881250000000000e+00	 0.000000000000000e+00	 1.262200809740415e+01
 1.880953913746494e+00	 3.337569267029044e-02	 1.265552882675494e+01
 1.880057187117759e+00	 6.698160691429947e-02	 1.268477128318296e+01
 1.878547349425682e+00	 1.008038613412483e-01	 1.271287849103499e+01
 1.876412265739731e+00	 1.348279328397284e-01	 1.274301139929879e+01
 1.873640171824482e+00	 1.690386612994756e-01	 1.277054285388777e+01
 1.870219709496098e+00	 2.034202563563713e-01	 1.279058893740641e+01
 1.866139962275759e+00	 2.379563062327434e-01	 1.281228166984443e+01
 1.861390491209588e+00	 2.726297887377112e-01	 1.283825702465425e+01
 1.855961370716666e+00	 3.074230844840817e-01	 1.287143256591990e+01
 1.849843224319159e+00	 3.423179923691777e-01	 1.291499711452706e+01
 1.887500000000000e+00	 0.000000000000000e+00	 1.261694756796104e+01
 1.887202930071246e+00	 3.348657537073096e-02	 1.264682179916528e+01
 1.886303224284318e+00	 6.720413717083341e-02	 1.267201627767553e+01
 1.884788370520244e+00	 1.011387578919494e-01	 1.269569844914717e+01
 1.882646193533109e+00	 1.352758661731290e-01	 1.272105525273464e+01
 1.879864890003652e+00	 1.696002515382913e-01	 1.275129044069478e+01
 1.876433064013207e+00	 2.040960711636347e-01	 1.278962244765232e+01
 1.872339762815579e+00	 2.387468587473070e-01	 1.281995532568815e+01
 1.867574512775986e+00	 2.735355355462966e-01	 1.284460309673324e+01
 1.862127355338156e+00	 3.084444236372391e-01	 1.287589504967905e+01
 1.855988882873165e+00	 3.434552614486758e-01	 1.291710528083029e+01
 1.893750000000000e+00	 0.000000000000000e+00	 1.261216732765243e+01
 1.893451946396000e+00	 3.359745807099197e-02	 1.263852747214294e+01
 1.892549261450878e+00	 6.742666742703507e-02	 1.265981282845881e+01
 1.891029391614806e+00	 1.014736544421928e-01	 1.267921496940207e+01
 1.888880121326488e+00	 1.357237995059746e-01	 1.269994649975354e+01
 1.886089608182823e+00	 1.701618417764836e-01	 1.272523845195276e+01
 1.882646418530314e+00	 2.047718859702353e-01	 1.275833823550842e+01
 1.878539563355399e+00	 2.395374112611985e-01	 1.280250816718801e+01
 1.873758534342384e+00	 2.744412823542313e-01	 1.285129219431002e+01
 1.868293339959646e+00	 3.094657627897978e-01	 1.288074293976274e+01
 1.862134541427172e+00	 3.445925305276593e-01	 1.291964028202610e+01
 1.900000000000000e+00	 0.000000000000000e+00	 1.260765910656619e+01
 1.899700962720752e+00	 3.370834077107344e-02	 1.263063718893141e+01
 1.898795298617437e+00	 6.764919768290445e-02	 1.264815186306465e+01
 1.897270412709369e+00	 1.018085509919786e-01	 1.266341853403281e+01
 1.895114049119867e+00	 1.361717328382653e-01	 1.267967514700154e+01
 1.892314326361993e+00	 1.707234320140523e-01	 1.270017965945981e+01
 1.888859773047423e+00	 2.054477007761732e-01	 1.272820807145529e+01
 1.884739363895219e+00	 2.403279637744180e-01	 1.276705304044074e+01
 1.879942555908781e+00	 2.753470291615150e-01	 1.282002309749392e+01
 1.874459324581135e+00	 3.104871019417580e-01	 1.288595036613392e+01
 1.868280199981178e+00	 3.457297996061280e-01	 1.292257396291357e+01
 1.906250000000000e+00	 0.000000000000000e+00	 1.260341474324805e+01
 1.905949979045505e+00	 3.381922347097539e-02	 1.262314241583867e+01
 1.905041335783997e+00	 6.787172793844151e-02	 1.263702444726196e+01
 1.903511433803931e+00	 1.021434475413067e-01	 1.264829977923730e+01
 1.901347976913246e+00	 1.366196661700011e-01	 1.266023137135959e+01
 1.898539044541164e+00	 1.712850222509975e-01	 1.267610375034181e+01
 1.895073127564530e+00	 2.061235155814483e-01	 1.269922112176112e+01
 1.890939164435040e+00	 2.411185162869653e-01	 1.273290607046672e+01
 1.886126577475180e+00	 2.762527759681478e-01	 1.278049886583888e+01
 1.880625309202625e+00	 3.115084410931195e-01	 1.284535737699904e+01
 1.874425858535184e+00	 3.468670686840821e-01	 1.292587844662848e+01
 1.912500000000000e+00	 0.000000000000000e+00	 1.259942618292941e+01
 1.912198995370258e+00	 3.393010617069783e-02	 1.261603474022641e+01
 1.911287372950556e+00	 6.809425819364628e-02	 1.262642178279801e+01
 1.909752454898493e+00	 1.024783440901772e-01	 1.263384949266237e+01
 1.907581904706625e+00	 1.370675995011819e-01	 1.264160551716173e+01
 1.904763762720334e+00	 1.718466124873191e-01	 1.265300059570165e+01
 1.901286482081638e+00	 2.067993303860607e-01	 1.267136675369908e+01
 1.897138964974860e+00	 2.419090687988406e-01	 1.270005608946237e+01
 1.892310599041577e+00	 2.771585227741298e-01	 1.274244016962456e+01
 1.886791293824114e+00	 3.125297802438826e-01	 1.280191003752176e+01
 1.880571517089191e+00	 3.480043377615216e-01	 1.288187682665981e+01
 1.918750000000000e+00	 0.000000000000000e+00	 1.259568547578994e+01
 1.918448011695011e+00	 3.404098887024072e-02	 1.260930586853845e+01
 1.917533410117115e+00	 6.831678844851877e-02	 1.261633520518376e+01
 1.915993475993056e+00	 1.028132406385901e-01	 1.262005861093724e+01
 1.913815832500003e+00	 1.375155328318078e-01	 1.262378809346795e+01
 1.910988480899505e+00	 1.724082027230172e-01	 1.263086024762285e+01
 1.907499836598747e+00	 2.074751451900103e-01	 1.264463453227346e+01
 1.903338765514680e+00	 2.426996213100438e-01	 1.266849214458478e+01
 1.898494620607976e+00	 2.780642695794608e-01	 1.270583550676414e+01
 1.892957278445604e+00	 3.135511193940470e-01	 1.276008836897691e+01
 1.886717175643197e+00	 3.491416068384464e-01	 1.283469651972027e+01
 1.925000000000000e+00	 0.000000000000000e+00	 1.259218477525363e+01
 1.924697028019764e+00	 3.415187156960411e-02	 1.260294762436743e+01
 1.923779447283674e+00	 6.853931870305895e-02	 1.260675618152240e+01
 1.922234497087618e+00	 1.031481371865453e-01	 1.260691821725491e+01
 1.920049760293382e+00	 1.379634661618787e-01	 1.260676977139005e+01
 1.917213199078675e+00	 1.729697929580918e-01	 1.260967293623155e+01
 1.913713191115854e+00	 2.081509599932970e-01	 1.261901421700983e+01
 1.909538566054500e+00	 2.434901738205749e-01	 1.263820349446210e+01
 1.904678642174374e+00	 2.789700163841410e-01	 1.267067360404455e+01
 1.899123263067094e+00	 3.145724585436129e-01	 1.271988053476100e+01
 1.892862834197204e+00	 3.502788759148564e-01	 1.278930423804879e+01
 1.931249999999999e+00	 0.000000000000000e+00	 1.258891633631837e+01
 1.930946044344516e+00	 3.426275426878794e-02	 1.259695194655946e+01
 1.930025484450233e+00	 6.876184895726682e-02	 1.259767630838005e+01
 1.928475518182180e+00	 1.034830337340428e-01	 1.259441953900066e+01
 1.926283688086761e+00	 1.384113994913947e-01	 1.259054138146934e+01
 1.923437917257845e+00	 1.735313831925430e-01	 1.258942906681553e+01
 1.919926545632962e+00	 2.088267747959211e-01	 1.259449575880737e+01
 1.915738366594320e+00	 2.442807263304339e-01	 1.260917960577165e+01
 1.910862663740771e+00	 2.798757631881704e-01	 1.263694341342304e+01
 1.905289247688583e+00	 3.155937976925801e-01	 1.268127494098809e+01
 1.899008492751210e+00	 3.514161449907519e-01	 1.274568781021517e+01
 1.937500000000000e+00	 0.000000000000000e+00	 1.258587251391754e+01
 1.937195060669269e+00	 3.437363696779228e-02	 1.259131088735496e+01
 1.936271521616793e+00	 6.898437921114241e-02	 1.258908730969755e+01
 1.934716539276743e+00	 1.038179302810827e-01	 1.258255394542634e+01
 1.932517615880140e+00	 1.388593328203557e-01	 1.257509391110537e+01
 1.929662635437016e+00	 1.740929734263706e-01	 1.257011921699909e+01
 1.926139900150070e+00	 2.095025895978823e-01	 1.257106929685230e+01
 1.921938167134141e+00	 2.450712788396208e-01	 1.258141014988435e+01
 1.917046685307170e+00	 2.807815099915488e-01	 1.260463410839544e+01
 1.911455232310073e+00	 3.166151368409488e-01	 1.264426023257514e+01
 1.905154151305217e+00	 3.525534140661327e-01	 1.270383532125483e+01
 1.843697565765152e+00	 3.411807232891650e-01	 1.291334422129292e+01
 1.836904245947212e+00	 3.760422731110535e-01	 1.296310256066509e+01
 1.829407281468921e+00	 4.109671500854205e-01	 1.301343312280117e+01
 1.821199179011433e+00	 4.459355898632519e-01	 1.306712269626781e+01
 1.812273130669467e+00	 4.809273331721696e-01	 1.312717869719416e+01
 1.802623046577536e+00	 5.159216528584852e-01	 1.319680778949178e+01
 1.792243586428243e+00	 5.508973832317464e-01	 1.327939134376355e+01
 1.781130189706590e+00	 5.858329516733878e-01	 1.337845781257448e+01
 1.769279104464112e+00	 6.207064124565543e-01	 1.349765214125896e+01
 1.756687414457829e+00	 6.554954827093096e-01	 1.329639875299409e+01
 1.743353064481490e+00	 6.901775804384325e-01	 1.306348921769113e+01
 1.849843224319159e+00	 3.423179923691777e-01	 1.291499711452706e+01
 1.843027260102082e+00	 3.772957473568355e-01	 1.296030347319681e+01
 1.835505305742365e+00	 4.123370405875389e-01	 1.300741727563806e+01
 1.827269842943432e+00	 4.474220418311122e-01	 1.305921996349891e+01
 1.818314041106981e+00	 4.825304242842701e-01	 1.311881392855002e+01
 1.808631790067972e+00	 5.176413917028131e-01	 1.318950060028490e+01
 1.798217731717985e+00	 5.527337078439885e-01	 1.327475533832816e+01
 1.787067290340301e+00	 5.877857281805031e-01	 1.337819921002272e+01
 1.775176701479960e+00	 6.227754338330799e-01	 1.350356777558351e+01
 1.762543039173170e+00	 6.576804676535437e-01	 1.328979521966486e+01
 1.749164241362994e+00	 6.924781723753630e-01	 1.306879750754964e+01
 1.855988882873165e+00	 3.434552614486758e-01	 1.291710528083029e+01
 1.849150274256951e+00	 3.785492216021981e-01	 1.295791227045169e+01
 1.841603330015809e+00	 4.137069310893243e-01	 1.300175090614225e+01
 1.833340506875431e+00	 4.489084937987162e-01	 1.305159759347300e+01
 1.824354951544495e+00	 4.841335153961813e-01	 1.311065005899315e+01
 1.814640533558410e+00	 5.193611305470091e-01	 1.318230490428455e+01
 1.804191877007728e+00	 5.545700324561454e-01	 1.327013193058756e+01
 1.793004390974013e+00	 5.897385046875703e-01	 1.337784531706515e+01
 1.781074298495808e+00	 6.248444552095840e-01	 1.350927177830453e+01
 1.768398663888512e+00	 6.598654525977723e-01	 1.328372944792256e+01
 1.754975418244496e+00	 6.947787643122935e-01	 1.307481255391628e+01
 1.862134541427172e+00	 3.445925305276593e-01	 1.291964028202610e+01
 1.855273288411821e+00	 3.798026958471413e-01	 1.295589905161183e+01
 1.847701354289253e+00	 4.150768215907763e-01	 1.299640270698113e+01
 1.839411170807429e+00	 4.503949457660634e-01	 1.304422293313342e+01
 1.830395861982009e+00	 4.857366065079031e-01	 1.310265315522423e+01
 1.820649277048847e+00	 5.210808693910727e-01	 1.317518555812830e+01
 1.810166022297470e+00	 5.564063570682174e-01	 1.326548484198162e+01
 1.798941491607724e+00	 5.916912811945895e-01	 1.337735879946105e+01
 1.786971895511656e+00	 6.269134765860667e-01	 1.349427061249552e+01
 1.774254288603854e+00	 6.620504375419956e-01	 1.327822364684616e+01
 1.760786595126000e+00	 6.970793562492242e-01	 1.308155854763454e+01
 1.868280199981178e+00	 3.457297996061280e-01	 1.292257396291357e+01
 1.861396302566691e+00	 3.810561700916653e-01	 1.295423420694909e+01
 1.853799378562697e+00	 4.164467120918953e-01	 1.299134166902217e+01
 1.845481834739428e+00	 4.518813977331543e-01	 1.303706363370109e+01
 1.836436772419523e+00	 4.873396976194352e-01	 1.309478959323863e+01
 1.826658020539285e+00	 5.228006082350038e-01	 1.316810773167972e+01
 1.816140167587212e+00	 5.582426816802045e-01	 1.326077810999789e+01
 1.804878592241435e+00	 5.936440577015606e-01	 1.337670264070821e+01
 1.792869492527504e+00	 6.289824979625277e-01	 1.347796894680398e+01
 1.780109913319195e+00	 6.642354224862134e-01	 1.327330034316704e+01
 1.766597772007503e+00	 6.993799481861547e-01	 1.308905999539219e+01
 1.874425858535184e+00	 3.468670686840821e-01	 1.292587844662848e+01
 1.867519316721562e+00	 3.823096443357701e-01	 1.295288841305313e+01
 1.859897402836141e+00	 4.178166025926812e-01	 1.298653707644445e+01
 1.851552498671426e+00	 4.533678496999888e-01	 1.303008764568633e+01
 1.842477682857037e+00	 4.889427887307781e-01	 1.308702605325604e+01
 1.832666764029722e+00	 5.245203470788029e-01	 1.316103690289354e+01
 1.822114312876954e+00	 5.600790062921066e-01	 1.325597608299059e+01
 1.810815692875146e+00	 5.955968342084837e-01	 1.337584013683409e+01
 1.798767089543352e+00	 6.310515193389675e-01	 1.346207434360708e+01
 1.785965538034537e+00	 6.664204074304259e-01	 1.326898237606155e+01
 1.772408948889007e+00	 7.016805401230853e-01	 1.309734171454361e+01
 1.880571517089191e+00	 3.480043377615216e-01	 1.288187682665981e+01
 1.873642330876431e+00	 3.835631185794554e-01	 1.295183262815294e+01
 1.865995427109586e+00	 4.191864930931339e-01	 1.298195850194593e+01
 1.857623162603425e+00	 4.548543016665667e-01	 1.302326321399852e+01
 1.848518593294551e+00	 4.905458798419314e-01	 1.307932951474954e+01
 1.838675507520159e+00	 5.262400859224698e-01	 1.315393885278145e+01
 1.828088458166697e+00	 5.619153309039234e-01	 1.325104341510106e+01
 1.816752793508858e+00	 5.975496107153585e-01	 1.337473489128913e+01
 1.804664686559200e+00	 6.331205407153858e-01	 1.344660795697123e+01
 1.791821162749878e+00	 6.686053923746327e-01	 1.326529289204572e+01
 1.778220125770510e+00	 7.039811320600159e-01	 1.310642882803344e+01
 1.886717175643197e+00	 3.491416068384464e-01	 1.283469651972027e+01
 1.879765345031301e+00	 3.848165928227216e-01	 1.290911000581614e+01
 1.872093451383029e+00	 4.205563835932533e-01	 1.297757580204445e+01
 1.863693826535424e+00	 4.563407536328881e-01	 1.301655887315135e+01
 1.854559503732065e+00	 4.921489709528956e-01	 1.307166725157166e+01
 1.844684251010597e+00	 5.279598247660047e-01	 1.314677966047637e+01
 1.834062603456440e+00	 5.637516555156553e-01	 1.324594506127751e+01
 1.822689894142569e+00	 5.995023872221856e-01	 1.337335080993987e+01
 1.810562283575048e+00	 6.351895620917827e-01	 1.343159124389339e+01
 1.797676787465220e+00	 6.707903773188345e-01	 1.326225533996973e+01
 1.784031302652014e+00	 7.062817239969464e-01	 1.311634675941965e+01
 1.892862834197204e+00	 3.502788759148564e-01	 1.278930423804879e+01
 1.885888359186170e+00	 3.860700670655682e-01	 1.285613989839984e+01
 1.878191475656474e+00	 4.219262740930396e-01	 1.294482388548987e+01
 1.869764490467422e+00	 4.578272055989531e-01	 1.300994344256140e+01
 1.860600414169579e+00	 4.937520620636701e-01	 1.306400682717561e+01
 1.850692994501034e+00	 5.296795636094069e-01	 1.313952569839275e+01
 1.840036748746182e+00	 5.655879801273022e-01	 1.324064627239181e+01
 1.828626994776280e+00	 6.014551637289643e-01	 1.337165209615955e+01
 1.816459880590896e+00	 6.372585834681580e-01	 1.341704595938333e+01
 1.803532412180561e+00	 6.729753622630306e-01	 1.325989346610983e+01
 1.789842479533517e+00	 7.085823159338770e-01	 1.312712122799335e+01
 1.899008492751210e+00	 3.514161449907519e-01	 1.274568781021517e+01
 1.892011373341041e+00	 3.873235413079958e-01	 1.280503736154406e+01
 1.884289499929918e+00	 4.232961645924927e-01	 1.288760527793229e+01
 1.875835154399421e+00	 4.593136575647616e-01	 1.299588511858558e+01
 1.866641324607093e+00	 4.953551531742553e-01	 1.305631608992910e+01
 1.856701737991471e+00	 5.313993024526771e-01	 1.313214362748097e+01
 1.846010894035924e+00	 5.674243047388638e-01	 1.323511259045106e+01
 1.834564095409992e+00	 6.034079402356953e-01	 1.336960324601419e+01
 1.822357477606744e+00	 6.393276048445120e-01	 1.340299415164145e+01
 1.809388036895903e+00	 6.751603472072217e-01	 1.325823130935573e+01
 1.795653656415020e+00	 7.108829078708077e-01	 1.313877824399352e+01
 1.905154151305217e+00	 3.525534140661327e-01	 1.270383532125483e+01
 1.898134387495910e+00	 3.885770155500040e-01	 1.275579070597593e+01
 1.890387524203363e+00	 4.246660550916128e-01	 1.283232661436717e+01
 1.881905818331420e+00	 4.608001095303136e-01	 1.293596572601369e+01
 1.872682235044607e+00	 4.969582442846509e-01	 1.304856316851899e+01
 1.862710481481908e+00	 5.331190412958152e-01	 1.312460039257353e+01
 1.851985039325666e+00	 5.692606293503407e-01	 1.322930984390187e+01
 1.840501196043703e+00	 6.053607167423780e-01	 1.336716904354161e+01
 1.828255074622592e+00	 6.413966262208445e-01	 1.338945815732983e+01
 1.815243661611244e+00	 6.773453321514071e-01	 1.325729319649093e+01
 1.801464833296524e+00	 7.131834998077383e-01	 1.315134410391429e+01
 1.743353064481490e+00	 6.901775804384325e-01	 1.306348921769113e+01
 1.729274883719828e+00	 7.247298645165551e-01	 1.311822334655943e+01
 1.714452606964470e+00	 7.591292765180647e-01	 1.314282799963080e+01
 1.698886893533727e+00	 7.933525842772426e-01	 1.313720614730750e+01
 1.682579343746540e+00	 8.273764270281420e-01	 1.310201003600623e+01
 1.665532512813788e+00	 8.611773619687499e-01	 1.303869060606143e+01
 1.647749922018582e+00	 8.947319120812797e-01	 1.294954047513221e+01
 1.629236067070115e+00	 9.280166150276020e-01	 1.283772969179456e+01
 1.609996423529265e+00	 9.610080729276056e-01	 1.270733352173541e+01
 1.590037449218878e+00	 9.936830028181232e-01	 1.256335160004589e+01
 1.569366583547552e+00	 1.026018287581235e+00	 1.241171786694857e+01
 1.749164241362994e+00	 6.924781723753630e-01	 1.306879750754964e+01
 1.735039133331508e+00	 7.271456307339783e-01	 1.312612799502611e+01
 1.720167448986379e+00	 7.616597074422550e-01	 1.315222055244617e+01
 1.704549849843644e+00	 7.959970928939205e-01	 1.314683021198061e+01
 1.688187941556643e+00	 8.301343484538067e-01	 1.311047168206506e+01
 1.671084287853624e+00	 8.640479531772267e-01	 1.304446996770971e+01
 1.653242421755309e+00	 8.977143517896650e-01	 1.295100448967842e+01
 1.634666853956591e+00	 9.311100037451990e-01	 1.283314589438802e+01
 1.615363078270216e+00	 9.642114331707824e-01	 1.269488480460200e+01
 1.595337574045107e+00	 9.969952794933697e-01	 1.254115183274336e+01
 1.574597805487893e+00	 1.029438348537982e+00	 1.237782826333834e+01
 1.754975418244496e+00	 6.947787643122935e-01	 1.307481255391628e+01
 1.740803382943193e+00	 7.295613969514062e-01	 1.313462940615019e+01
 1.725882291008306e+00	 7.641901383664642e-01	 1.316208720686872e+01
 1.710212806153604e+00	 7.986416015106421e-01	 1.315679275459732e+01
 1.693796539366823e+00	 8.328922698795495e-01	 1.311912301899079e+01
 1.676636062893582e+00	 8.669185443858251e-01	 1.305027696926761e+01
 1.658734921492213e+00	 9.006967914982268e-01	 1.295232083426136e+01
 1.640097640843308e+00	 9.342033924630367e-01	 1.282822597303509e+01
 1.620729733011482e+00	 9.674147934142741e-01	 1.268189859372077e+01
 1.600637698871738e+00	 1.000307556169016e+00	 1.251820063067341e+01
 1.579829027428729e+00	 1.032858409495223e+00	 1.234296117557154e+01
 1.760786595126000e+00	 6.970793562492242e-01	 1.308155854763454e+01
 1.746567632554882e+00	 7.319771631688389e-01	 1.314375625541009e+01
 1.731597133030253e+00	 7.667205692906933e-01	 1.317246097397511e+01
 1.715875762463608e+00	 8.012861101274074e-01	 1.316713096191050e+01
 1.699405137177081e+00	 8.356501913053702e-01	 1.312800523883728e+01
 1.682187837933662e+00	 8.697891355945461e-01	 1.305615662774925e+01
 1.664227421229294e+00	 9.036792312069647e-01	 1.295353816109082e+01
 1.645528427730266e+00	 9.372967811811150e-01	 1.282302201654561e+01
 1.626096387753065e+00	 9.706181536580812e-01	 1.266843020771668e+01
 1.605937823698767e+00	 1.003619832845063e+00	 1.249455632798854e+01
 1.585060249370059e+00	 1.036278470452959e+00	 1.230717773226669e+01
 1.766597772007503e+00	 6.993799481861547e-01	 1.308905999539219e+01
 1.752331882166577e+00	 7.343929293862763e-01	 1.315353749795924e+01
 1.737311975052219e+00	 7.692510002149416e-01	 1.318337510880210e+01
 1.721538718773656e+00	 8.039306187442162e-01	 1.317788222944318e+01
 1.705013734987417e+00	 8.384081127312688e-01	 1.313715970783396e+01
 1.687739612973864e+00	 8.726597268033887e-01	 1.306215410041536e+01
 1.669719920966550e+00	 9.066616709158788e-01	 1.295470522942933e+01
 1.650959214617464e+00	 9.403901698994340e-01	 1.281758618839217e+01
 1.631463042494962e+00	 9.738215139022037e-01	 1.265453500835880e+01
 1.611237948526197e+00	 1.006932109521509e+00	 1.247027727140459e+01
 1.590291471311884e+00	 1.039698531411190e+00	 1.227053904502732e+01
 1.772408948889007e+00	 7.016805401230853e-01	 1.309734171454361e+01
 1.758096131778276e+00	 7.368086956037189e-01	 1.316400236404119e+01
 1.743026817074204e+00	 7.717814311392092e-01	 1.319486310634721e+01
 1.727201675083747e+00	 8.065751273610690e-01	 1.318908415806607e+01
 1.710622332797831e+00	 8.411660341572453e-01	 1.314662796353058e+01
 1.693291388014188e+00	 8.755303180123531e-01	 1.306831468247424e+01
 1.675212420703984e+00	 9.096441106249700e-01	 1.295587090383724e+01
 1.656390001504903e+00	 9.434835586179938e-01	 1.281197072548611e+01
 1.636829697237174e+00	 9.770248741466409e-01	 1.264026839985311e+01
 1.616538073354026e+00	 1.010244386198355e+00	 1.244542181999484e+01
 1.595522693254205e+00	 1.043118592369915e+00	 1.223310620872114e+01
 1.778220125770510e+00	 7.039811320600159e-01	 1.310642882803344e+01
 1.763860381389980e+00	 7.392244618211660e-01	 1.317518035449477e+01
 1.748741659096210e+00	 7.743118620634962e-01	 1.320695869764776e+01
 1.732864631393882e+00	 8.092196359779650e-01	 1.320077455064225e+01
 1.716230930608322e+00	 8.439239555832994e-01	 1.315645171199786e+01
 1.698843163054634e+00	 8.784009092214400e-01	 1.307468380482762e+01
 1.680704920441593e+00	 9.126265503342367e-01	 1.295708415245215e+01
 1.661820788392582e+00	 9.465769473367939e-01	 1.280622793697752e+01
 1.642196351979700e+00	 9.802282343913934e-01	 1.262568582814911e+01
 1.621838198182256e+00	 1.013556662875601e+00	 1.242004834498813e+01
 1.600753915197019e+00	 1.046538653329136e+00	 1.219494030175340e+01
 1.784031302652014e+00	 7.062817239969464e-01	 1.311634675941965e+01
 1.769624631001689e+00	 7.416402280386180e-01	 1.318710123634691e+01
 1.754456501118233e+00	 7.768422929878022e-01	 1.321969584593663e+01
 1.738527587704060e+00	 8.118641445949047e-01	 1.321299140873733e+01
 1.721839528418892e+00	 8.466818770094314e-01	 1.316667282508278e+01
 1.704394938095203e+00	 8.812715004306488e-01	 1.308130703186076e+01
 1.686197420179379e+00	 9.156089900436801e-01	 1.295839404530202e+01
 1.667251575280503e+00	 9.496703360558350e-01	 1.280041020307876e+01
 1.647563006722544e+00	 9.834315946364610e-01	 1.261084278025986e+01
 1.627138323010884e+00	 1.016868939553246e+00	 1.239421522957090e+01
 1.605985137140328e+00	 1.049958714288851e+00	 1.215610238633492e+01
 1.789842479533517e+00	 7.085823159338770e-01	 1.312712122799335e+01
 1.775388880613403e+00	 7.440559942560749e-01	 1.319979503849146e+01
 1.760171343140277e+00	 7.793727239121279e-01	 1.323310874287279e+01
 1.744190544014283e+00	 8.145086532118884e-01	 1.322577292939382e+01
 1.727448126229540e+00	 8.494397984356417e-01	 1.317733333771747e+01
 1.709946713135892e+00	 8.841420916399795e-01	 1.308823005927545e+01
 1.691689919917341e+00	 9.185914297532995e-01	 1.295984975265104e+01
 1.672682362168664e+00	 9.527637247751163e-01	 1.279456997391082e+01
 1.652929661465701e+00	 9.866349548818437e-01	 1.259579478359546e+01
 1.632438447839913e+00	 1.020181216231292e+00	 1.236798086869294e+01
 1.611216359084132e+00	 1.053378775249060e+00	 1.211665350874520e+01
 1.795653656415020e+00	 7.108829078708077e-01	 1.313877824399352e+01
 1.781153130225120e+00	 7.464717604735366e-01	 1.321329204745182e+01
 1.765886185162340e+00	 7.819031548364728e-01	 1.324723180484512e+01
 1.749853500324549e+00	 8.171531618289156e-01	 1.323915750196804e+01
 1.733056724040265e+00	 8.521977198619295e-01	 1.318847544528028e+01
 1.715498488176705e+00	 8.870126828494326e-01	 1.309549871196517e+01
 1.697182419655479e+00	 9.215738694630954e-01	 1.296150054337771e+01
 1.678113149057065e+00	 9.558571134946384e-01	 1.278875976837212e+01
 1.658296316209173e+00	 9.898383151275415e-01	 1.258059740530933e+01
 1.637738572669342e+00	 1.023493492909737e+00	 1.234140366887720e+01
 1.616447581028430e+00	 1.056798836209764e+00	 1.207665469959004e+01
 1.801464833296524e+00	 7.131834998077383e-01	 1.315134410391429e+01
 1.786917379836844e+00	 7.488875266910028e-01	 1.322762280322567e+01
 1.771601027184422e+00	 7.844335857608368e-01	 1.326209966934775e+01
 1.755516456634858e+00	 8.197976704459864e-01	 1.325318370502831e+01
 1.738665321851069e+00	 8.549556412882953e-01	 1.320014150100789e+01
 1.721050263217639e+00	 8.898832740590076e-01	 1.310315894193137e+01
 1.702674919393794e+00	 9.245563091730674e-01	 1.296339578338437e+01
 1.683543935945708e+00	 9.589505022144015e-01	 1.278303217302920e+01
 1.663662970952961e+00	 9.930416753735546e-01	 1.256530625165718e+01
 1.643038697499170e+00	 1.026805769588582e+00	 1.231454204803309e+01
 1.621678802973224e+00	 1.060218897170963e+00	 1.203616697405436e+01
 1.569366583547552e+00	 1.026018287581235e+00	 1.241171786694857e+01
 1.547992243692877e+00	 1.057991027122759e+00	 1.187136726914323e+01
 1.525923817606285e+00	 1.089578589577796e+00	 1.143953319285956e+01
 1.503171653821628e+00	 1.120758662313480e+00	 1.113220354070867e+01
 1.479747048068646e+00	 1.151509302496042e+00	 1.096592431719508e+01
 1.455662226709656e+00	 1.181808986991081e+00	 1.095772560155520e+01
 1.430930327038606e+00	 1.211636661364681e+00	 1.112503860545802e+01
 1.405565374500522e+00	 1.240971787756141e+00	 1.148560430183012e+01
 1.379582256908508e+00	 1.269794391397488e+00	 1.150186111289275e+01
 1.352996695754110e+00	 1.298085105561136e+00	 1.132796216518477e+01
 1.325825214725000e+00	 1.325825214725000e+00	 1.118417802156868e+01
 1.574597805487893e+00	 1.029438348537982e+00	 1.237782826333834e+01
 1.553152217833412e+00	 1.061517663876921e+00	 1.184305831982353e+01
 1.531010230326257e+00	 1.093210518205870e+00	 1.141695675943271e+01
 1.508182225995395e+00	 1.124494524516523e+00	 1.111563527577010e+01
 1.484679538222997e+00	 1.155347666832333e+00	 1.095577379618480e+01
 1.460514434125924e+00	 1.185748350275118e+00	 1.095454589145991e+01
 1.435700094789103e+00	 1.215675450229516e+00	 1.112953515645272e+01
 1.410250592409043e+00	 1.245108360375293e+00	 1.149864305149889e+01
 1.384180864424891e+00	 1.274027039361914e+00	 1.142212768412648e+01
 1.357506684733166e+00	 1.302412055906035e+00	 1.126097376272277e+01
 1.330244632100500e+00	 1.330244632100500e+00	 1.113040867133007e+01
 1.579829027428729e+00	 1.032858409495223e+00	 1.234296117557154e+01
 1.558312191974536e+00	 1.065044300631672e+00	 1.181381894827365e+01
 1.536096643046904e+00	 1.096842446834620e+00	 1.139347306320594e+01
 1.513192798169912e+00	 1.128230386720318e+00	 1.109815923491036e+01
 1.489612028378167e+00	 1.159186031169442e+00	 1.094469169021751e+01
 1.465366641543066e+00	 1.189687713560029e+00	 1.095038801407484e+01
 1.440469862540519e+00	 1.219714239095272e+00	 1.113298485126387e+01
 1.414935810318517e+00	 1.249244932995399e+00	 1.151054495737174e+01
 1.388779471942253e+00	 1.278259687327319e+00	 1.134672147626605e+01
 1.362016673713218e+00	 1.306739006251930e+00	 1.119835200874339e+01
 1.334664049477000e+00	 1.334664049477000e+00	 1.108104740498718e+01
 1.585060249370059e+00	 1.036278470452959e+00	 1.230717773226669e+01
 1.563472166116250e+00	 1.068570937387013e+00	 1.178371003231539e+01
 1.541183055768226e+00	 1.100474375464045e+00	 1.136914262840801e+01
 1.518203370345182e+00	 1.131966248924864e+00	 1.107983548742821e+01
 1.494544518534152e+00	 1.163024395507367e+00	 1.093273751433526e+01
 1.470218848961080e+00	 1.193627076845812e+00	 1.094531083341470e+01
 1.445239630292853e+00	 1.223753027961944e+00	 1.113544580920326e+01
 1.419621028228946e+00	 1.253381505616459e+00	 1.144474458633558e+01
 1.393378079460596e+00	 1.282492335293705e+00	 1.127560135036384e+01
 1.366526662694264e+00	 1.311065956598820e+00	 1.114005609759133e+01
 1.339083466854500e+00	 1.339083466854500e+00	 1.103605388589641e+01
 1.590291471311884e+00	 1.039698531411190e+00	 1.227053904502732e+01
 1.568632140258553e+00	 1.072097574142944e+00	 1.175279244132416e+01
 1.546269468490224e+00	 1.104106304094145e+00	 1.134402597881255e+01
 1.523213942521202e+00	 1.135702111130161e+00	 1.106072410956245e+01
 1.499477008690954e+00	 1.166862759846109e+00	 1.091997079730173e+01
 1.475071056379967e+00	 1.197566440132467e+00	 1.093937323336969e+01
 1.450009398046105e+00	 1.227791816829535e+00	 1.113697617496887e+01
 1.424306246140329e+00	 1.257518078238474e+00	 1.136556009582441e+01
 1.397976686979918e+00	 1.286724983261070e+00	 1.120872620190431e+01
 1.371036651676306e+00	 1.315392906946705e+00	 1.108604526155814e+01
 1.343502884233000e+00	 1.343502884233000e+00	 1.099538781819361e+01
 1.595522693254205e+00	 1.043118592369915e+00	 1.223310620872114e+01
 1.573792114401447e+00	 1.075624210899465e+00	 1.172112703636764e+01
 1.551355881212897e+00	 1.107738232724921e+00	 1.131818363774540e+01
 1.528224514697972e+00	 1.139437973336209e+00	 1.104088518437782e+01
 1.504409498848574e+00	 1.170701124185668e+00	 1.090645108137787e+01
 1.479923263799726e+00	 1.201505803419995e+00	 1.093263411737938e+01
 1.454779165800276e+00	 1.231830605698046e+00	 1.113763411822882e+01
 1.428991464052666e+00	 1.261654650861442e+00	 1.129054234324317e+01
 1.402575294500219e+00	 1.290957631229414e+00	 1.114605496023912e+01
 1.375546640659342e+00	 1.319719857295584e+00	 1.103627877025963e+01
 1.347922301612500e+00	 1.347922301612499e+00	 1.095900894612480e+01
 1.600753915197019e+00	 1.046538653329136e+00	 1.219494030175340e+01
 1.578952088544930e+00	 1.079150847656575e+00	 1.168877467034145e+01
 1.556442293936245e+00	 1.111370161356372e+00	 1.129167612809194e+01
 1.533235086875494e+00	 1.143173835543007e+00	 1.102037880165372e+01
 1.509341989007010e+00	 1.174539488526044e+00	 1.089223792210084e+01
 1.484775471220358e+00	 1.205445166708396e+00	 1.092515240811373e+01
 1.459548933555365e+00	 1.235869394567474e+00	 1.113747783321330e+01
 1.433676681965957e+00	 1.265791223485364e+00	 1.121965008439910e+01
 1.407173902021500e+00	 1.295190279198738e+00	 1.108754658803408e+01
 1.380056629643373e+00	 1.324046807645458e+00	 1.099071593002666e+01
 1.352341718993000e+00	 1.352341718993000e+00	 1.092687705339100e+01
 1.605985137140328e+00	 1.049958714288851e+00	 1.215610238633492e+01
 1.584112062689004e+00	 1.082677484414276e+00	 1.165579618810222e+01
 1.561528706660269e+00	 1.115002089988499e+00	 1.126456397230435e+01
 1.538245659053767e+00	 1.146909697750558e+00	 1.099926505777462e+01
 1.514274479166263e+00	 1.178377852867237e+00	 1.087739088806818e+01
 1.489627678641863e+00	 1.209384529997670e+00	 1.091698704715952e+01
 1.464318701311373e+00	 1.239908183437820e+00	 1.113656553831476e+01
 1.438361899880201e+00	 1.269927796110241e+00	 1.115284210388308e+01
 1.411772509543760e+00	 1.299422927169041e+00	 1.103316008072643e+01
 1.384566618628399e+00	 1.328373757996328e+00	 1.094931608330679e+01
 1.356761136374500e+00	 1.356761136374500e+00	 1.089895196250600e+01
 1.611216359084132e+00	 1.053378775249060e+00	 1.211665350874520e+01
 1.589272036833667e+00	 1.086204121172566e+00	 1.162225242659827e+01
 1.566615119384969e+00	 1.118634018621301e+00	 1.123690769240854e+01
 1.543256231232791e+00	 1.150645559958859e+00	 1.097760405562302e+01
 1.519206969326333e+00	 1.182216217209246e+00	 1.086196956072552e+01
 1.494479886064241e+00	 1.213323893287817e+00	 1.090819699471339e+01
 1.469088469068299e+00	 1.243946972309086e+00	 1.113495547569540e+01
 1.443047117795401e+00	 1.274064368736072e+00	 1.109007721460223e+01
 1.416371117067001e+00	 1.303655575140325e+00	 1.098285446599269e+01
 1.389076607614419e+00	 1.332700708348192e+00	 1.091203860807788e+01
 1.361180553757000e+00	 1.361180553757000e+00	 1.087519353416574e+01
 1.616447581028430e+00	 1.056798836209764e+00	 1.207665469959004e+01
 1.594432010978921e+00	 1.089730757931447e+00	 1.158820421499734e+01
 1.571701532110344e+00	 1.122265947254778e+00	 1.120876781001107e+01
 1.548266803412566e+00	 1.154381422167911e+00	 1.095545590447424e+01
 1.524139459487220e+00	 1.186054581552073e+00	 1.084603353415882e+01
 1.499332093487491e+00	 1.217263256578835e+00	 1.089884122928087e+01
 1.473858236826143e+00	 1.247985761181269e+00	 1.113270591090263e+01
 1.447732335711554e+00	 1.278200941362856e+00	 1.103131425732201e+01
 1.420969724591221e+00	 1.307888223112588e+00	 1.093658880322739e+01
 1.393586596601435e+00	 1.337027658701051e+00	 1.087884291727340e+01
 1.365599971140500e+00	 1.365599971140500e+00	 1.085556166663092e+01
 1.621678802973224e+00	 1.060218897170963e+00	 1.203616697405436e+01
 1.599591985124764e+00	 1.093257394690917e+00	 1.155371237481220e+01
 1.576787944836393e+00	 1.125897875888930e+00	 1.118020484630605e+01
 1.553277375593093e+00	 1.158117284377714e+00	 1.093288071989332e+01
 1.529071949648924e+00	 1.189892945895716e+00	 1.082964241489039e+01
 1.504184300911613e+00	 1.221202619870727e+00	 1.088897874738087e+01
 1.478628004584906e+00	 1.252024550054371e+00	 1.109842110850942e+01
 1.452417553628661e+00	 1.282337513990595e+00	 1.097651210021659e+01
 1.425568332116420e+00	 1.312120871085830e+00	 1.089432218303112e+01
 1.398096585589446e+00	 1.341354609054905e+00	 1.084968845821854e+01
 1.370019388525000e+00	 1.370019388525000e+00	 1.084001629512076e+01
 1.325825214725000e+00	 1.325825214725000e+00	 1.118417802156868e+01
 1.298085105561136e+00	 1.352996695754110e+00	 1.106623477598616e+01
 1.269794391397488e+00	 1.379582256908508e+00	 1.094275958076686e+01
 1.240971787756141e+00	 1.405565374500522e+00	 1.086423304248008e+01
 1.211636661364681e+00	 1.430930327038606e+00	 1.085295418992438e+01
 1.181808986991081e+00	 1.455662226709656e+00	 1.077524088594153e+01
 1.151509302496042e+00	 1.479747048068645e+00	 1.063947936150656e+01
 1.120758662313480e+00	 1.503171653821628e+00	 1.045442434029418e+01
 1.089578589577797e+00	 1.525923817606285e+00	 1.022913061966818e+01
 1.057991027122760e+00	 1.547992243692877e+00	 9.972882875884682e+00
 1.026018287581235e+00	 1.569366583547552e+00	 9.695124387490083e+00
 1.330244632100500e+00	 1.330244632100500e+00	 1.113040867133007e+01
 1.302412055906035e+00	 1.357506684733167e+00	 1.102362734437097e+01
 1.274027039361914e+00	 1.384180864424891e+00	 1.090983042288200e+01
 1.245108360375293e+00	 1.410250592409042e+00	 1.081549366480049e+01
 1.215675450229517e+00	 1.435700094789103e+00	 1.081928251999764e+01
 1.185748350275119e+00	 1.460514434125925e+00	 1.075417475962741e+01
 1.155347666832334e+00	 1.484679538222997e+00	 1.062864193205784e+01
 1.124494524516524e+00	 1.508182225995395e+00	 1.045153334159268e+01
 1.093210518205872e+00	 1.531010230326256e+00	 1.023200686019621e+01
 1.061517663876921e+00	 1.553152217833411e+00	 9.979457918745661e+00
 1.029438348537982e+00	 1.574597805487893e+00	 9.703447379798256e+00
 1.334664049477000e+00	 1.334664049477000e+00	 1.108104740498718e+01
 1.306739006251931e+00	 1.362016673713218e+00	 1.098541968330562e+01
 1.278259687327319e+00	 1.388779471942253e+00	 1.088130470983466e+01
 1.249244932995399e+00	 1.414935810318518e+00	 1.077011235696967e+01
 1.219714239095272e+00	 1.440469862540518e+00	 1.078889051212338e+01
 1.189687713560029e+00	 1.465366641543066e+00	 1.073630554117109e+01
 1.159186031169442e+00	 1.489612028378166e+00	 1.062091508219172e+01
 1.128230386720319e+00	 1.513192798169912e+00	 1.045166381504779e+01
 1.096842446834621e+00	 1.536096643046904e+00	 1.023781349849983e+01
 1.065044300631673e+00	 1.558312191974535e+00	 9.988871142059214e+00
 1.032858409495223e+00	 1.579829027428729e+00	 9.714516022631804e+00
 1.339083466854500e+00	 1.339083466854500e+00	 1.103605388589641e+01
 1.311065956598820e+00	 1.366526662694264e+00	 1.095157256083402e+01
 1.282492335293705e+00	 1.393378079460596e+00	 1.085714432535361e+01
 1.253381505616459e+00	 1.419621028228945e+00	 1.074940526196277e+01
 1.223753027961944e+00	 1.445239630292852e+00	 1.076179796021440e+01
 1.193627076845812e+00	 1.470218848961080e+00	 1.072165247239908e+01
 1.163024395507368e+00	 1.494544518534152e+00	 1.061631739970397e+01
 1.131966248924865e+00	 1.518203370345181e+00	 1.045483359614265e+01
 1.100474375464046e+00	 1.541183055768225e+00	 1.024656752340655e+01
 1.068570937387014e+00	 1.563472166116249e+00	 1.000113859784896e+01
 1.036278470452959e+00	 1.585060249370060e+00	 9.728345345486247e+00
 1.343502884233000e+00	 1.343502884233000e+00	 1.099538781819361e+01
 1.315392906946705e+00	 1.371036651676306e+00	 1.092204678129746e+01
 1.286724983261070e+00	 1.397976686979918e+00	 1.083731118583248e+01
 1.257518078238473e+00	 1.424306246140329e+00	 1.073770815108776e+01
 1.227791816829536e+00	 1.450009398046105e+00	 1.073802468614893e+01
 1.197566440132468e+00	 1.475071056379966e+00	 1.071023482204360e+01
 1.166862759846110e+00	 1.499477008690954e+00	 1.061486749909633e+01
 1.135702111130161e+00	 1.523213942521201e+00	 1.046106054772245e+01
 1.104106304094146e+00	 1.546269468490223e+00	 1.025828595261507e+01
 1.072097574142945e+00	 1.568632140258553e+00	 1.001627636936450e+01
 1.039698531411190e+00	 1.590291471311884e+00	 9.744950412273166e+00
 1.347922301612500e+00	 1.347922301612499e+00	 1.095900894612480e+01
 1.319719857295584e+00	 1.375546640659342e+00	 1.089680318473973e+01
 1.290957631229414e+00	 1.402575294500219e+00	 1.082176723979360e+01
 1.261654650861442e+00	 1.428991464052666e+00	 1.073031833106045e+01
 1.231830605698046e+00	 1.454779165800276e+00	 1.071759053931270e+01
 1.201505803419996e+00	 1.479923263799726e+00	 1.070207188530100e+01
 1.170701124185669e+00	 1.504409498848574e+00	 1.061658402113749e+01
 1.139437973336209e+00	 1.528224514697972e+00	 1.047036255954596e+01
 1.107738232724922e+00	 1.551355881212896e+00	 1.027298583222210e+01
 1.075624210899465e+00	 1.573792114401447e+00	 1.003430057056915e+01
 1.043118592369915e+00	 1.595522693254204e+00	 9.764346320756772e+00
 1.352341718993000e+00	 1.352341718993000e+00	 1.092687705339100e+01
 1.324046807645458e+00	 1.380056629643373e+00	 1.087580264632395e+01
 1.295190279198738e+00	 1.407173902021500e+00	 1.081047446736327e+01
 1.265791223485365e+00	 1.433676681965957e+00	 1.072719889533166e+01
 1.235869394567474e+00	 1.459548933555365e+00	 1.070051539614866e+01
 1.205445166708397e+00	 1.484775471220358e+00	 1.069718298340001e+01
 1.174539488526045e+00	 1.509341989007009e+00	 1.062148563243456e+01
 1.143173835543009e+00	 1.533235086875494e+00	 1.048275754784567e+01
 1.111370161356373e+00	 1.556442293936245e+00	 1.029068423625818e+01
 1.079150847656576e+00	 1.578952088544930e+00	 1.005522734563821e+01
 1.046538653329136e+00	 1.600753915197019e+00	 9.786548202000189e+00
 1.356761136374500e+00	 1.356761136374500e+00	 1.089895196250600e+01
 1.328373757996328e+00	 1.384566618628399e+00	 1.085900607576029e+01
 1.299422927169041e+00	 1.411772509543760e+00	 1.080339487975717e+01
 1.269927796110242e+00	 1.438361899880202e+00	 1.072831296579650e+01
 1.239908183437821e+00	 1.464318701311372e+00	 1.068681915971706e+01
 1.209384529997671e+00	 1.489627678641863e+00	 1.069558746317717e+01
 1.178377852867237e+00	 1.514274479166263e+00	 1.062959102501221e+01
 1.146909697750558e+00	 1.538245659053767e+00	 1.049826345489667e+01
 1.115002089988500e+00	 1.561528706660269e+00	 1.031139826623298e+01
 1.082677484414277e+00	 1.584112062689003e+00	 1.007907286846654e+01
 1.049958714288851e+00	 1.605985137140328e+00	 9.811571219823362e+00
 1.361180553757000e+00	 1.361180553757000e+00	 1.087519353416574e+01
 1.332700708348191e+00	 1.389076607614420e+00	 1.084637441674527e+01
 1.303655575140325e+00	 1.416371117067001e+00	 1.080049051877532e+01
 1.274064368736072e+00	 1.443047117795401e+00	 1.073362369233307e+01
 1.243946972309086e+00	 1.469088469068298e+00	 1.067652175926283e+01
 1.213323893287817e+00	 1.494479886064240e+00	 1.069730469666147e+01
 1.182216217209247e+00	 1.519206969326333e+00	 1.064091891589966e+01
 1.150645559958859e+00	 1.543256231232791e+00	 1.051689824859382e+01
 1.118634018621301e+00	 1.566615119384968e+00	 1.033514505068867e+01
 1.086204121172567e+00	 1.589272036833667e+00	 1.010585334218697e+01
 1.053378775249060e+00	 1.611216359084132e+00	 9.839430570271334e+00
 1.365599971140500e+00	 1.365599971140500e+00	 1.085556166663092e+01
 1.337027658701051e+00	 1.393586596601436e+00	 1.083786864641182e+01
 1.307888223112588e+00	 1.420969724591221e+00	 1.080172345630760e+01
 1.278200941362857e+00	 1.447732335711554e+00	 1.074309425234927e+01
 1.247985761181269e+00	 1.473858236826143e+00	 1.066964314979236e+01
 1.217263256578836e+00	 1.499332093487490e+00	 1.070235408066653e+01
 1.186054581552073e+00	 1.524139459487219e+00	 1.065548804672650e+01
 1.154381422167912e+00	 1.548266803412566e+00	 1.053867992203731e+01
 1.122265947254778e+00	 1.571701532110343e+00	 1.036194174476315e+01
 1.089730757931448e+00	 1.594432010978920e+00	 1.013558499869630e+01
 1.056798836209764e+00	 1.616447581028431e+00	 9.870141481092817e+00
 1.370019388525000e+00	 1.370019388525000e+00	 1.084001629512076e+01
 1.341354609054905e+00	 1.398096585589446e+00	 1.083344977479003e+01
 1.312120871085830e+00	 1.425568332116420e+00	 1.080705579384797e+01
 1.282337513990595e+00	 1.452417553628662e+00	 1.075668785033915e+01
 1.252024550054371e+00	 1.478628004584906e+00	 1.067816529432165e+01
 1.221202619870727e+00	 1.504184300911613e+00	 1.071075503639100e+01
 1.189892945895717e+00	 1.529071949648923e+00	 1.067331718332584e+01
 1.158117284377715e+00	 1.553277375593092e+00	 1.056362649312605e+01
 1.125897875888931e+00	 1.576787944836393e+00	 1.039180552976066e+01
 1.093257394690918e+00	 1.599591985124763e+00	 1.016828409819166e+01
 1.060218897170963e+00	 1.621678802973224e+00	 9.903719211228534e+00
 1.026018287581235e+00	 1.569366583547552e+00	 9.695124387490083e+00
 9.936830028181231e-01	 1.590037449218878e+00	 9.527229869130064e+00
 9.610080729276056e-01	 1.609996423529265e+00	 9.312142314714325e+00
 9.280166150276021e-01	 1.629236067070115e+00	 9.057661590808575e+00
 8.947319120812797e-01	 1.647749922018582e+00	 8.771654706312660e+00
 8.611773619687507e-01	 1.665532512813788e+00	 8.461992292460057e+00
 8.273764270281423e-01	 1.682579343746540e+00	 8.136486839305212e+00
 7.933525842772433e-01	 1.698886893533727e+00	 7.802833230449106e+00
 7.591292765180656e-01	 1.714452606964470e+00	 7.468552074386146e+00
 7.247298645165563e-01	 1.729274883719828e+00	 7.140936282539878e+00
 6.901775804384324e-01	 1.743353064481490e+00	 6.827001291700416e+00
 1.029438348537982e+00	 1.574597805487893e+00	 9.703447379798256e+00
 9.969952794933697e-01	 1.595337574045108e+00	 9.531350169147773e+00
 9.642114331707825e-01	 1.615363078270216e+00	 9.313356432748140e+00
 9.311100037451990e-01	 1.634666853956591e+00	 9.057422324019516e+00
 8.977143517896651e-01	 1.653242421755309e+00	 8.771563023312140e+00
 8.640479531772270e-01	 1.671084287853624e+00	 8.463788448258292e+00
 8.301343484538072e-01	 1.688187941556642e+00	 8.142040787957633e+00
 7.959970928939213e-01	 1.704549849843644e+00	 7.814134407536421e+00
 7.616597074422556e-01	 1.720167448986378e+00	 7.487698625442325e+00
 7.271456307339794e-01	 1.735039133331508e+00	 7.170123816669611e+00
 6.924781723753631e-01	 1.749164241362994e+00	 6.868511241902190e+00
 1.032858409495223e+00	 1.579829027428729e+00	 9.714516022631804e+00
 1.000307556169016e+00	 1.600637698871738e+00	 9.538279897332860e+00
 9.674147934142741e-01	 1.620729733011482e+00	 9.317425060965245e+00
 9.342033924630371e-01	 1.640097640843308e+00	 9.060064661131641e+00
 9.006967914982269e-01	 1.658734921492213e+00	 8.774362793737769e+00
 8.669185443858256e-01	 1.676636062893581e+00	 8.468469438116562e+00
 8.328922698795500e-01	 1.693796539366822e+00	 8.150457283334282e+00
 7.986416015106429e-01	 1.710212806153604e+00	 7.828260997060424e+00
 7.641901383664652e-01	 1.725882291008305e+00	 7.509619443383484e+00
 7.295613969514073e-01	 1.740803382943193e+00	 7.202021305940761e+00
 6.947787643122936e-01	 1.754975418244497e+00	 6.912654518658933e+00
 1.036278470452959e+00	 1.585060249370060e+00	 9.728345345486247e+00
 1.003619832845063e+00	 1.605937823698767e+00	 9.548031437087982e+00
 9.706181536580814e-01	 1.626096387753065e+00	 9.324358058801920e+00
 9.372967811811151e-01	 1.645528427730266e+00	 9.065596065773576e+00
 9.036792312069651e-01	 1.664227421229294e+00	 8.780059219208821e+00
 8.697891355945462e-01	 1.682187837933661e+00	 8.476038340667596e+00
 8.356501913053709e-01	 1.699405137177081e+00	 8.161737424894843e+00
 8.012861101274084e-01	 1.715875762463608e+00	 7.845212267461110e+00
 7.667205692906942e-01	 1.731597133030252e+00	 7.534312117658878e+00
 7.319771631688402e-01	 1.746567632554882e+00	 7.236624816240543e+00
 6.970793562492242e-01	 1.760786595126000e+00	 6.959425822641018e+00
 1.039698531411190e+00	 1.590291471311884e+00	 9.744950412273166e+00
 1.006932109521509e+00	 1.611237948526197e+00	 9.560617230543542e+00
 9.738215139022037e-01	 1.631463042494962e+00	 9.334165366935299e+00
 9.403901698994342e-01	 1.650959214617464e+00	 9.074024103499955e+00
 9.066616709158793e-01	 1.669719920966551e+00	 8.788657622103649e+00
 8.726597268033890e-01	 1.687739612973863e+00	 8.486498372264611e+00
 8.384081127312694e-01	 1.705013734987417e+00	 8.175882464894936e+00
 8.039306187442171e-01	 1.721538718773655e+00	 7.864987653154268e+00
 7.692510002149425e-01	 1.737311975052219e+00	 7.561774414973588e+00
 7.343929293862776e-01	 1.752331882166576e+00	 7.273930600092333e+00
 6.993799481861548e-01	 1.766597772007503e+00	 7.008820048639198e+00
 1.043118592369915e+00	 1.595522693254204e+00	 9.764346320756772e+00
 1.010244386198355e+00	 1.616538073354026e+00	 9.576049777595482e+00
 9.770248741466410e-01	 1.636829697237174e+00	 9.346857005951506e+00
 9.434835586179938e-01	 1.656390001504903e+00	 9.085356440120538e+00
 9.096441106249700e-01	 1.675212420703983e+00	 8.800163443579711e+00
 8.755303180123537e-01	 1.693291388014188e+00	 8.499852884723259e+00
 8.411660341572458e-01	 1.710622332797830e+00	 8.192893805880926e+00
 8.065751273610696e-01	 1.727201675083747e+00	 7.887586751810703e+00
 7.717814311392101e-01	 1.743026817074204e+00	 7.592004276382691e+00
 7.368086956037200e-01	 1.758096131778275e+00	 7.313935093595380e+00
 7.016805401230853e-01	 1.772408948889007e+00	 7.060832282382503e+00
 1.046538653329136e+00	 1.600753915197019e+00	 9.786548202000189e+00
 1.013556662875601e+00	 1.621838198182255e+00	 9.594341634960987e+00
 9.802282343913934e-01	 1.642196351979701e+00	 9.362443075040522e+00
 9.465769473367940e-01	 1.661820788392583e+00	 9.099600840062021e+00
 9.126265503342368e-01	 1.680704920441593e+00	 8.814582241632827e+00
 8.784009092214405e-01	 1.698843163054634e+00	 8.516105363108316e+00
 8.439239555833000e-01	 1.716230930608323e+00	 8.212772998234218e+00
 8.092196359779656e-01	 1.732864631393881e+00	 7.913009321688502e+00
 7.743118620634970e-01	 1.748741659096209e+00	 7.624999814442470e+00
 7.392244618211672e-01	 1.763860381389979e+00	 7.356634913425747e+00
 7.039811320600158e-01	 1.778220125770510e+00	 7.115457797418275e+00
 1.049958714288851e+00	 1.605985137140328e+00	 9.811571219823362e+00
 1.016868939553246e+00	 1.627138323010885e+00	 9.615505415253571e+00
 9.834315946364612e-01	 1.647563006722544e+00	 9.380933750715077e+00
 9.496703360558351e-01	 1.667251575280503e+00	 9.116765164762013e+00
 9.156089900436801e-01	 1.686197420179379e+00	 8.831919689194386e+00
 8.812715004306494e-01	 1.704394938095202e+00	 8.535259423563506e+00
 8.466818770094322e-01	 1.721839528418892e+00	 8.235521737763971e+00
 8.118641445949056e-01	 1.738527587704060e+00	 7.941255279017735e+00
 7.768422929878033e-01	 1.754456501118233e+00	 7.660759310416948e+00
 7.416402280386193e-01	 1.769624631001688e+00	 7.402026853894919e+00
 7.062817239969467e-01	 1.784031302652014e+00	 7.172692052053136e+00
 1.053378775249060e+00	 1.611216359084132e+00	 9.839430570271334e+00
 1.020181216231292e+00	 1.632438447839913e+00	 9.639553786075014e+00
 9.866349548818437e-01	 1.652929661465701e+00	 9.402339285556524e+00
 9.527637247751165e-01	 1.672682362168664e+00	 9.136857371093868e+00
 9.185914297532997e-01	 1.691689919917341e+00	 8.852181572265495e+00
 8.841420916399799e-01	 1.709946713135892e+00	 8.557318811183698e+00
 8.494397984356421e-01	 1.727448126229540e+00	 8.261141863345603e+00
 8.145086532118893e-01	 1.744190544014283e+00	 7.972324695435683e+00
 7.793727239121288e-01	 1.760171343140276e+00	 7.699281211539549e+00
 7.440559942560760e-01	 1.775388880613402e+00	 7.450107884066379e+00
 7.085823159338770e-01	 1.789842479533517e+00	 7.232530686353920e+00
 1.056798836209764e+00	 1.616447581028431e+00	 9.870141481092817e+00
 1.023493492909737e+00	 1.637738572669342e+00	 9.666499469126069e+00
 9.898383151275414e-01	 1.658296316209173e+00	 9.426670006982958e+00
 9.558571134946384e-01	 1.678113149057065e+00	 9.159885509822884e+00
 9.215738694630955e-01	 1.697182419655479e+00	 8.875373788087273e+00
 8.870126828494330e-01	 1.715498488176704e+00	 8.582287397928003e+00
 8.521977198619303e-01	 1.733056724040265e+00	 8.289635354606375e+00
 8.171531618289163e-01	 1.749853500324548e+00	 8.006217795472761e+00
 7.819031548364739e-01	 1.765886185162340e+00	 7.740564128327039e+00
 7.464717604735375e-01	 1.781153130225120e+00	 7.500875144927953e+00
 7.108829078708077e-01	 1.795653656415020e+00	 7.294969519206211e+00
 1.060218897170963e+00	 1.621678802973224e+00	 9.903719211228534e+00
 1.026805769588582e+00	 1.643038697499170e+00	 9.696355239333830e+00
 9.930416753735546e-01	 1.663662970952961e+00	 9.453936316042741e+00
 9.589505022144016e-01	 1.683543935945708e+00	 9.185857724091402e+00
 9.245563091730679e-01	 1.702674919393794e+00	 8.901502343346552e+00
 8.898832740590080e-01	 1.721050263217639e+00	 8.610169180573962e+00
 8.549556412882957e-01	 1.738665321851068e+00	 8.321004329654855e+00
 8.197976704459873e-01	 1.755516456634858e+00	 8.042934954085760e+00
 7.844335857608379e-01	 1.771601027184422e+00	 7.784606831946475e+00
 7.488875266910041e-01	 1.786917379836844e+00	 7.554325946618423e+00
 7.131834998077382e-01	 1.801464833296524e+00	 7.360004545430396e+00
 6.901775804384324e-01	 1.743353064481490e+00	 6.827001291700416e+00
 6.554954827093095e-01	 1.756687414457829e+00	 6.644418212010225e+00
 6.207064124565543e-01	 1.769279104464112e+00	 6.425576052527856e+00
 5.858329516733880e-01	 1.781130189706590e+00	 6.109019947902588e+00
 5.508973832317466e-01	 1.792243586428243e+00	 5.798187699545206e+00
 5.159216528584857e-01	 1.802623046577535e+00	 5.502541836154132e+00
 4.809273331721702e-01	 1.812273130669467e+00	 5.230445956654099e+00
 4.459355898632527e-01	 1.821199179011433e+00	 4.989130897945513e+00
 4.109671500854213e-01	 1.829407281468920e+00	 4.784672372955088e+00
 3.760422731110546e-01	 1.836904245947212e+00	 4.621979751586496e+00
 3.411807232891650e-01	 1.843697565765152e+00	 4.504795551835212e+00
 6.924781723753631e-01	 1.749164241362994e+00	 6.868511241902190e+00
 6.576804676535433e-01	 1.762543039173170e+00	 6.691124624233041e+00
 6.227754338330800e-01	 1.775176701479960e+00	 6.478170719588502e+00
 5.877857281805032e-01	 1.787067290340301e+00	 6.156691592505609e+00
 5.527337078439887e-01	 1.798217731717985e+00	 5.836673443773863e+00
 5.176413917028136e-01	 1.808631790067972e+00	 5.527702076756386e+00
 4.825304242842708e-01	 1.818314041106981e+00	 5.238269351527595e+00
 4.474220418311129e-01	 1.827269842943432e+00	 4.975738307664403e+00
 4.123370405875398e-01	 1.835505305742364e+00	 4.746319821821893e+00
 3.772957473568365e-01	 1.843027260102081e+00	 4.555060476254983e+00
 3.423179923691778e-01	 1.849843224319159e+00	 4.405841208069798e+00
 6.947787643122936e-01	 1.754975418244497e+00	 6.912654518658933e+00
 6.598654525977720e-01	 1.768398663888512e+00	 6.739911770051997e+00
 6.248444552095840e-01	 1.781074298495808e+00	 6.532250145262402e+00
 5.897385046875706e-01	 1.793004390974013e+00	 6.205269094836907e+00
 5.545700324561459e-01	 1.804191877007728e+00	 5.875541200142049e+00
 5.193611305470094e-01	 1.814640533558410e+00	 5.552776922246909e+00
 4.841335153961819e-01	 1.824354951544495e+00	 5.245597537484231e+00
 4.489084937987169e-01	 1.833340506875430e+00	 4.961499215121020e+00
 4.137069310893252e-01	 1.841603330015809e+00	 4.706828695686450e+00
 3.785492216021991e-01	 1.849150274256952e+00	 4.486770249617189e+00
 3.434552614486758e-01	 1.855988882873165e+00	 4.305343488452626e+00
 6.970793562492242e-01	 1.760786595126000e+00	 6.959425822641018e+00
 6.620504375419951e-01	 1.774254288603853e+00	 6.790777744664799e+00
 6.269134765860668e-01	 1.786971895511656e+00	 6.582439862711979e+00
 5.916912811945897e-01	 1.798941491607724e+00	 6.254766421227473e+00
 5.564063570682178e-01	 1.810166022297470e+00	 5.914806136051165e+00
 5.210808693910731e-01	 1.820649277048847e+00	 5.577782438063585e+00
 4.857366065079035e-01	 1.830395861982009e+00	 5.252447181777459e+00
 4.503949457660643e-01	 1.839411170807429e+00	 4.946430600300011e+00
 4.150768215907774e-01	 1.847701354289253e+00	 4.666216005597942e+00
 3.798026958471424e-01	 1.855273288411821e+00	 4.417125839779726e+00
 3.445925305276593e-01	 1.862134541427171e+00	 4.203318652004043e+00
 6.993799481861548e-01	 1.766597772007503e+00	 7.008820048639198e+00
 6.642354224862130e-01	 1.780109913319195e+00	 6.843720782475171e+00
 6.289824979625277e-01	 1.792869492527504e+00	 6.633761865477982e+00
 5.936440577015607e-01	 1.804878592241435e+00	 6.305197582492518e+00
 5.582426816802049e-01	 1.816140167587212e+00	 5.954483423610889e+00
 5.228006082350044e-01	 1.826658020539285e+00	 5.602734659634246e+00
 4.873396976194359e-01	 1.836436772419523e+00	 5.258834891976482e+00
 4.518813977331551e-01	 1.845481834739427e+00	 4.930549358844833e+00
 4.164467120918964e-01	 1.853799378562697e+00	 4.624498658586978e+00
 3.810561700916664e-01	 1.861396302566691e+00	 4.346143896085882e+00
 3.457297996061280e-01	 1.868280199981178e+00	 4.099782829112621e+00
 7.016805401230853e-01	 1.772408948889007e+00	 7.060832282382503e+00
 6.664204074304255e-01	 1.785965538034536e+00	 6.898739254811312e+00
 6.310515193389676e-01	 1.798767089543353e+00	 6.686658000693432e+00
 5.955968342084837e-01	 1.810815692875146e+00	 6.356576633202169e+00
 5.600790062921068e-01	 1.822114312876954e+00	 5.994588239562007e+00
 5.245203470788035e-01	 1.832666764029722e+00	 5.627649592869377e+00
 4.889427887307788e-01	 1.842477682857037e+00	 5.264777216944718e+00
 4.533678496999896e-01	 1.851552498671427e+00	 4.913872303439470e+00
 4.178166025926822e-01	 1.859897402836141e+00	 4.581693459371107e+00
 3.823096443357710e-01	 1.867519316721560e+00	 4.273840951063763e+00
 3.468670686840821e-01	 1.874425858535184e+00	 3.994752023643138e+00
 7.039811320600158e-01	 1.778220125770510e+00	 7.115457797418275e+00
 6.686053923746326e-01	 1.791821162749878e+00	 6.955831667688321e+00
 6.331205407153857e-01	 1.804664686559200e+00	 6.741129659969495e+00
 5.975496107153589e-01	 1.816752793508858e+00	 6.408917670966616e+00
 5.619153309039238e-01	 1.828088458166697e+00	 6.035135765201106e+00
 5.262400859224703e-01	 1.838675507520159e+00	 5.652543214643948e+00
 4.905458798419322e-01	 1.848518593294551e+00	 5.270290647798672e+00
 4.548543016665674e-01	 1.857623162603425e+00	 4.896416165165063e+00
 4.191864930931347e-01	 1.865995427109586e+00	 4.537817112026106e+00
 3.835631185794566e-01	 1.873642330876431e+00	 4.200233422334138e+00
 3.480043377615216e-01	 1.880571517089191e+00	 4.189156016626564e+00
 7.062817239969467e-01	 1.784031302652014e+00	 7.172692052053136e+00
 6.707903773188344e-01	 1.797676787465220e+00	 7.014996659614976e+00
 6.351895620917827e-01	 1.810562283575048e+00	 6.797178319929762e+00
 5.995023872221856e-01	 1.822689894142569e+00	 6.462234835735183e+00
 5.637516555156555e-01	 1.834062603456439e+00	 6.076141186306186e+00
 5.279598247660050e-01	 1.844684251010596e+00	 5.677431473270296e+00
 4.921489709528961e-01	 1.854559503732065e+00	 5.275391618848768e+00
 4.563407536328890e-01	 1.863693826535424e+00	 4.878197594827896e+00
 4.205563835932543e-01	 1.872093451383029e+00	 4.492886221625773e+00
 3.848165928227226e-01	 1.879765345031300e+00	 4.394412887025095e+00
 3.491416068384463e-01	 1.886717175643198e+00	 4.414258287594280e+00
 7.085823159338770e-01	 1.789842479533517e+00	 7.232530686353920e+00
 6.729753622630306e-01	 1.803532412180561e+00	 7.076232999442287e+00
 6.372585834681581e-01	 1.816459880590896e+00	 6.854805540831010e+00
 6.014551637289645e-01	 1.828626994776280e+00	 6.516542309108827e+00
 5.655879801273024e-01	 1.840036748746181e+00	 6.117619693063617e+00
 5.296795636094075e-01	 1.850692994501034e+00	 5.702330288962425e+00
 4.937520620636707e-01	 1.860600414169579e+00	 5.280096508521630e+00
 4.578272055989540e-01	 1.869764490467423e+00	 4.859233164263410e+00
 4.219262740930406e-01	 1.878191475656473e+00	 4.633656866312688e+00
 3.860700670655695e-01	 1.885888359186170e+00	 4.664972007217891e+00
 3.502788759148564e-01	 1.892862834197204e+00	 4.639113305930351e+00
 7.108829078708077e-01	 1.795653656415020e+00	 7.294969519206211e+00
 6.751603472072215e-01	 1.809388036895903e+00	 7.139539584254923e+00
 6.393276048445120e-01	 1.822357477606744e+00	 6.914012965209432e+00
 6.034079402356953e-01	 1.834564095409991e+00	 6.571854313666106e+00
 5.674243047388642e-01	 1.846010894035924e+00	 6.159586479997305e+00
 5.313993024526776e-01	 1.856701737991471e+00	 5.727255554289655e+00
 4.953551531742559e-01	 1.866641324607093e+00	 5.284421640263920e+00
 4.593136575647624e-01	 1.875835154399421e+00	 4.889765264743716e+00
 4.232961645924937e-01	 1.884289499929918e+00	 4.944224980855071e+00
 3.873235413079969e-01	 1.892011373341040e+00	 4.935379774858797e+00
 3.514161449907519e-01	 1.899008492751210e+00	 4.863727661178408e+00
 7.131834998077382e-01	 1.801464833296524e+00	 7.360004545430396e+00
 6.773453321514072e-01	 1.815243661611245e+00	 7.204915437302544e+00
 6.413966262208445e-01	 1.828255074622592e+00	 6.974802316553456e+00
 6.053607167423782e-01	 1.840501196043703e+00	 6.628185112302689e+00
 5.692606293503408e-01	 1.851985039325666e+00	 6.202056745898286e+00
 5.331190412958158e-01	 1.862710481481908e+00	 5.752223134623557e+00
 4.969582442846516e-01	 1.872682235044607e+00	 5.288383283429461e+00
 4.608001095303144e-01	 1.881905818331420e+00	 5.234915072104872e+00
 4.246660550916136e-01	 1.890387524203362e+00	 5.254763496792866e+00
 3.885770155500051e-01	 1.898134387495910e+00	 5.205641534408129e+00
 3.525534140661327e-01	 1.905154151305217e+00	 5.088107826300767e+00
 3.411807232891650e-01	 1.843697565765152e+00	 4.504795551835212e+00
 3.064017453303258e-01	 1.849795386095177e+00	 4.397976346888039e+00
 2.717240419284750e-01	 1.855206469643190e+00	 4.261277501301338e+00
 2.371657537175081e-01	 1.859940161735939e+00	 4.096680303430946e+00
 2.027444415484455e-01	 1.864006354978991e+00	 3.905301677440428e+00
 1.684770710600370e-01	 1.867415453645311e+00	 3.687422477059056e+00
 1.343799995057737e-01	 1.870178337946352e+00	 3.442522158562153e+00
 1.004689647900904e-01	 1.872306328331119e+00	 3.169319107948055e+00
 6.675907665743416e-02	 1.873811149951200e+00	 2.865815884073153e+00
 3.326480996967145e-02	 1.874704897421741e+00	 2.529348636353892e+00
 0.000000000000000e+00	 1.875000000000000e+00	 2.156639961776765e+00
 3.423179923691778e-01	 1.849843224319159e+00	 4.405841208069798e+00
 3.074230844840818e-01	 1.855961370716666e+00	 4.268936719857313e+00
 2.726297887377115e-01	 1.861390491209588e+00	 4.109912230467656e+00
 2.379563062327438e-01	 1.866139962275759e+00	 3.930723014159126e+00
 2.034202563563717e-01	 1.870219709496098e+00	 3.732427825133759e+00
 1.690386612994762e-01	 1.873640171824482e+00	 3.515218666110850e+00
 1.348279328397292e-01	 1.876412265739731e+00	 3.322889218784770e+00
 1.008038613412491e-01	 1.878547349425681e+00	 3.114945763653223e+00
 6.698160691430041e-02	 1.880057187117759e+00	 2.847722836997605e+00
 3.337569267029151e-02	 1.880953913746494e+00	 2.526915722737887e+00
 0.000000000000000e+00	 1.881250000000000e+00	 2.158553071323901e+00
 3.434552614486758e-01	 1.855988882873165e+00	 4.305343488452626e+00
 3.084444236372392e-01	 1.862127355338156e+00	 4.138454320565105e+00
 2.735355355462969e-01	 1.867574512775985e+00	 3.957190733790269e+00
 2.387468587473074e-01	 1.872339762815578e+00	 3.763482731676866e+00
 2.040960711636352e-01	 1.876433064013207e+00	 3.616137232253000e+00
 1.696002515382919e-01	 1.879864890003653e+00	 3.517543953050143e+00
 1.352758661731298e-01	 1.882646193533110e+00	 3.354476907283413e+00
 1.011387578919502e-01	 1.884788370520244e+00	 3.131753508834586e+00
 6.720413717083439e-02	 1.886303224284319e+00	 2.854602805057500e+00
 3.348657537073204e-02	 1.887202930071247e+00	 2.528622648791500e+00
 0.000000000000000e+00	 1.887500000000000e+00	 2.159736323637877e+00
 3.445925305276593e-01	 1.862134541427171e+00	 4.203318652004043e+00
 3.094657627897980e-01	 1.868293339959645e+00	 4.006542531561851e+00
 2.744412823542315e-01	 1.873758534342383e+00	 3.803123998880147e+00
 2.395374112611989e-01	 1.878539563355399e+00	 3.751796507219125e+00
 2.047718859702358e-01	 1.882646418530314e+00	 3.692225403090526e+00
 1.701618417764841e-01	 1.886089608182823e+00	 3.568864483715729e+00
 1.357237995059753e-01	 1.888880121326488e+00	 3.386008942647077e+00
 1.014736544421937e-01	 1.891029391614806e+00	 3.148397551038856e+00
 6.742666742703604e-02	 1.892549261450878e+00	 2.861171455933018e+00
 3.359745807099305e-02	 1.893451946395999e+00	 2.529832052861255e+00
 0.000000000000000e+00	 1.893750000000000e+00	 2.160198304708966e+00
 3.457297996061280e-01	 1.868280199981178e+00	 4.099782829112621e+00
 3.104871019417582e-01	 1.874459324581135e+00	 3.873214629456680e+00
 2.753470291615153e-01	 1.879942555908782e+00	 3.884560278535156e+00
 2.403279637744184e-01	 1.884739363895219e+00	 3.857727050355212e+00
 2.054477007761737e-01	 1.888859773047422e+00	 3.768355832362843e+00
 1.707234320140529e-01	 1.892314326361993e+00	 3.620200951585402e+00
 1.361717328382661e-01	 1.895114049119867e+00	 3.417489632726520e+00
 1.018085509919795e-01	 1.897270412709368e+00	 3.164882806976615e+00
 6.764919768290541e-02	 1.898795298617437e+00	 2.867434608655851e+00
 3.370834077107453e-02	 1.899700962720752e+00	 2.530550942073443e+00
 0.000000000000000e+00	 1.900000000000000e+00	 2.159947487553707e+00
 3.468670686840821e-01	 1.874425858535184e+00	 3.994752023643138e+00
 3.115084410931198e-01	 1.880625309202625e+00	 4.026253762922015e+00
 2.762527759681481e-01	 1.886126577475180e+00	 4.025328615407168e+00
 2.411185162869658e-01	 1.890939164435040e+00	 3.963688739944335e+00
 2.061235155814488e-01	 1.895073127564531e+00	 3.844532453762990e+00
 1.712850222509980e-01	 1.898539044541163e+00	 3.671557294035985e+00
 1.366196661700018e-01	 1.901347976913246e+00	 3.448923221867653e+00
 1.021434475413076e-01	 1.903511433803931e+00	 3.181214124347196e+00
 6.787172793844248e-02	 1.905041335783996e+00	 2.873398003403202e+00
 3.381922347097648e-02	 1.905949979045505e+00	 2.530786230627298e+00
 0.000000000000000e+00	 1.906250000000000e+00	 2.158992234067287e+00
 3.480043377615216e-01	 1.880571517089191e+00	 4.189156016626564e+00
 3.125297802438828e-01	 1.886791293824114e+00	 4.206776287201737e+00
 2.771585227741301e-01	 1.892310599041578e+00	 4.166075857656860e+00
 2.419090687988410e-01	 1.897138964974860e+00	 4.069685743050005e+00
 2.067993303860612e-01	 1.901286482081638e+00	 3.920759136175230e+00
 1.718466124873197e-01	 1.904763762720334e+00	 3.722937387032363e+00
 1.370675995011826e-01	 1.907581904706625e+00	 3.480313891949583e+00
 1.024783440901781e-01	 1.909752454898493e+00	 3.197396282965859e+00
 6.809425819364724e-02	 1.911287372950555e+00	 2.879067302786539e+00
 3.393010617069891e-02	 1.912198995370258e+00	 2.530544741312263e+00
 0.000000000000000e+00	 1.912500000000000e+00	 2.157340796839095e+00
 3.491416068384463e-01	 1.886717175643198e+00	 4.414258287594280e+00
 3.135511193940472e-01	 1.892957278445604e+00	 4.387184749141086e+00
 2.780642695794611e-01	 1.898494620607976e+00	 4.306806697899450e+00
 2.426996213100442e-01	 1.903338765514680e+00	 4.175722155180566e+00
 2.074751451900107e-01	 1.907499836598746e+00	 3.997039684731267e+00
 1.724082027230179e-01	 1.910988480899505e+00	 3.774345046128378e+00
 1.375155328318085e-01	 1.913815832500004e+00	 3.511665763401739e+00
 1.028132406385909e-01	 1.915993475993055e+00	 3.213433995869191e+00
 6.831678844851972e-02	 1.917533410117115e+00	 2.884448093114459e+00
 3.404098887024182e-02	 1.918448011695011e+00	 2.529833206997119e+00
 0.000000000000000e+00	 1.918750000000000e+00	 2.155001320932637e+00
 3.502788759148564e-01	 1.892862834197204e+00	 4.639113305930351e+00
 3.145724585436130e-01	 1.899123263067094e+00	 4.567484651482324e+00
 2.789700163841413e-01	 1.904678642174373e+00	 4.447525746219156e+00
 2.434901738205753e-01	 1.909538566054500e+00	 4.281802001450673e+00
 2.081509599932975e-01	 1.913713191115854e+00	 4.073377841845354e+00
 1.729697929580925e-01	 1.917213199078675e+00	 3.825784027446653e+00
 1.379634661618794e-01	 1.920049760293382e+00	 3.542982896201638e+00
 1.031481371865461e-01	 1.922234497087618e+00	 3.229331910399508e+00
 6.853931870305990e-02	 1.923779447283674e+00	 2.889545885631581e+00
 3.415187156960520e-02	 1.924697028019764e+00	 2.528658272089997e+00
 0.000000000000000e+00	 1.925000000000000e+00	 2.151981845631473e+00
 3.514161449907519e-01	 1.899008492751210e+00	 4.863727661178408e+00
 3.155937976925804e-01	 1.905289247688583e+00	 4.747681399377944e+00
 2.798757631881706e-01	 1.910862663740771e+00	 4.588237531504333e+00
 2.442807263304344e-01	 1.915738366594321e+00	 4.387929237720471e+00
 2.088267747959216e-01	 1.919926545632962e+00	 4.149777288228235e+00
 1.735313831925436e-01	 1.923437917257845e+00	 3.877258028641350e+00
 1.384113994913954e-01	 1.926283688086761e+00	 3.574269290852970e+00
 1.034830337340436e-01	 1.928475518182180e+00	 3.245094609267648e+00
 6.876184895726777e-02	 1.930025484450233e+00	 2.894366117733758e+00
 3.426275426878905e-02	 1.930946044344517e+00	 2.527026493969500e+00
 0.000000000000000e+00	 1.931249999999999e+00	 2.148290306150756e+00
 3.525534140661327e-01	 1.905154151305217e+00	 5.088107826300767e+00
 3.166151368409489e-01	 1.911455232310073e+00	 4.927780301964320e+00
 2.807815099915490e-01	 1.917046685307169e+00	 4.728946502757388e+00
 2.450712788396212e-01	 1.921938167134141e+00	 4.494107751712230e+00
 2.095025895978829e-01	 1.926139900150070e+00	 4.226241643883156e+00
 1.740929734263712e-01	 1.929662635437016e+00	 3.928770689840299e+00
 1.388593328203565e-01	 1.932517615880140e+00	 3.605528889344717e+00
 1.038179302810835e-01	 1.934716539276743e+00	 3.260726611595935e+00
 6.898437921114338e-02	 1.936271521616793e+00	 2.898914154157969e+00
 3.437363696779339e-02	 1.937195060669269e+00	 2.524944344388030e+00
 0.000000000000000e+00	 1.937500000000000e+00	 2.143934535315918e+00
 1.937500000000000e+00	 0.000000000000000e+00	 1.258587251391754e+01
 1.937195060669269e+00	 3.437363696779228e-02	 1.259131088735496e+01
 1.936271521616793e+00	 6.898437921114241e-02	 1.258908730969755e+01
 1.934716539276743e+00	 1.038179302810827e-01	 1.258255394542634e+01
 1.932517615880140e+00	 1.388593328203557e-01	 1.257509391110537e+01
 1.929662635437016e+00	 1.740929734263706e-01	 1.257011921699909e+01
 1.926139900150070e+00	 2.095025895978823e-01	 1.257106929685230e+01
 1.921938167134141e+00	 2.450712788396208e-01	 1.258141014988435e+01
 1.917046685307170e+00	 2.807815099915488e-01	 1.260463410839544e+01
 1.911455232310073e+00	 3.166151368409488e-01	 1.264426023257514e+01
 1.905154151305217e+00	 3.525534140661327e-01	 1.270383532125483e+01
 1.943750000000000e+00	 0.000000000000000e+00	 1.257960658208650e+01
 1.943444076994022e+00	 3.448451966688636e-02	 1.258394473847406e+01
 1.942517558783352e+00	 6.920690946518412e-02	 1.258106601398475e+01
 1.940957560371305e+00	 1.041528268283514e-01	 1.257417409976555e+01
 1.938751543673519e+00	 1.393072661495943e-01	 1.256649577577027e+01
 1.935887353616187e+00	 1.746545636605100e-01	 1.256127918283260e+01
 1.932353254667178e+00	 2.101784044001750e-01	 1.256179274457388e+01
 1.928137967673961e+00	 2.458618313491438e-01	 1.257132476423538e+01
 1.923230706873568e+00	 2.816872567952527e-01	 1.259318371038741e+01
 1.917621216931563e+00	 3.176364759896168e-01	 1.263069919313374e+01
 1.911299809859223e+00	 3.536906831417707e-01	 1.268722361901681e+01
 1.950000000000000e+00	 0.000000000000000e+00	 1.257608864270950e+01
 1.949693093318775e+00	 3.459540236633951e-02	 1.257884913623031e+01
 1.948763595949912e+00	 6.942943971989045e-02	 1.257483588359600e+01
 1.947198581465867e+00	 1.044877233765354e-01	 1.256710456623552e+01
 1.944985471466897e+00	 1.397551994799427e-01	 1.255872610253645e+01
 1.942112071795357e+00	 1.752161538958963e-01	 1.255278525008139e+01
 1.938566609184286e+00	 2.108542192037932e-01	 1.255237991939232e+01
 1.934337768213782e+00	 2.466523838600110e-01	 1.256062122531031e+01
 1.929414728439965e+00	 2.825930036002584e-01	 1.258063429051812e+01
 1.923787201553052e+00	 3.186578151394818e-01	 1.261555980285148e+01
 1.917445468413230e+00	 3.548279522184382e-01	 1.266855631406677e+01
 1.956250000000000e+00	 0.000000000000000e+00	 1.257528701156083e+01
 1.955942109643528e+00	 3.470628506615170e-02	 1.257599794955969e+01
 1.955009633116471e+00	 6.965196997526137e-02	 1.257037639455253e+01
 1.953439602560430e+00	 1.048226199256347e-01	 1.256133047372565e+01
 1.951219399260276e+00	 1.402031328114009e-01	 1.255177571040824e+01
 1.948336789974528e+00	 1.757777441325298e-01	 1.254463395619372e+01
 1.944779963701394e+00	 2.115300340087369e-01	 1.254283309624366e+01
 1.940537568753602e+00	 2.474429363722222e-01	 1.254930755494277e+01
 1.935598750006363e+00	 2.834987504065657e-01	 1.256699961696547e+01
 1.929953186174542e+00	 3.196791542905442e-01	 1.259886156542782e+01
 1.923591126967236e+00	 3.559652212961348e-01	 1.264785862425298e+01
 1.962500000000000e+00	 0.000000000000000e+00	 1.257717040803524e+01
 1.962191125968281e+00	 3.481716776632295e-02	 1.257536538953769e+01
 1.961255670283030e+00	 6.987450023129686e-02	 1.256766730302962e+01
 1.959680623654992e+00	 1.051575164756493e-01	 1.255683716887242e+01
 1.957453327053655e+00	 1.406510661439691e-01	 1.254563557339696e+01
 1.954561508153698e+00	 1.763393343704102e-01	 1.253682193064222e+01
 1.950993318218502e+00	 2.122058488150062e-01	 1.253315457895830e+01
 1.946737369293422e+00	 2.482334888857777e-01	 1.253739174068098e+01
 1.941782771572761e+00	 2.844044972141748e-01	 1.255229336049354e+01
 1.936119170796031e+00	 3.207004934428037e-01	 1.258062382417542e+01
 1.929736785521243e+00	 3.571024903748611e-01	 1.262515554432574e+01
 1.968750000000000e+00	 0.000000000000000e+00	 1.258170794874131e+01
 1.968440142293034e+00	 3.492805046685322e-02	 1.257692600394883e+01
 1.967501707449589e+00	 7.009703048799699e-02	 1.256668864090943e+01
 1.965921644749554e+00	 1.054924130265792e-01	 1.255361021260316e+01
 1.963687254847034e+00	 1.410989994776471e-01	 1.254029681806029e+01
 1.960786226332869e+00	 1.769009246095377e-01	 1.252934589346328e+01
 1.957206672735610e+00	 2.128816636226010e-01	 1.252334669980231e+01
 1.952937169833243e+00	 2.490240414006774e-01	 1.252488173633198e+01
 1.947966793139159e+00	 2.853102440230858e-01	 1.253652909599893e+01
 1.942285155417521e+00	 3.217218325962603e-01	 1.256086576456589e+01
 1.935882444075249e+00	 3.582397594546164e-01	 1.260047184947859e+01
 1.975000000000000e+00	 0.000000000000000e+00	 1.258886914121642e+01
 1.974689158617787e+00	 3.503893316774256e-02	 1.258065467195864e+01
 1.973747744616148e+00	 7.031956074536168e-02	 1.256742071141869e+01
 1.972162665844116e+00	 1.058273095784245e-01	 1.255163537674530e+01
 1.969921182640413e+00	 1.415469328124351e-01	 1.253575072108872e+01
 1.967010944512039e+00	 1.774625148499123e-01	 1.252220265382397e+01
 1.963420027252718e+00	 2.135574784315214e-01	 1.251341181902749e+01
 1.959136970373063e+00	 2.498145939169212e-01	 1.251178546249548e+01
 1.954150814705557e+00	 2.862159908332985e-01	 1.251972030402756e+01
 1.948451140039011e+00	 3.227431717509142e-01	 1.253960641672733e+01
 1.942028102629256e+00	 3.593770285354013e-01	 1.257383209882235e+01
 1.981250000000000e+00	 0.000000000000000e+00	 1.259862387776066e+01
 1.980938174942539e+00	 3.514981586899095e-02	 1.258652659888724e+01
 1.979993781782708e+00	 7.054209100339096e-02	 1.256984408484885e+01
 1.978403686938679e+00	 1.061622061311850e-01	 1.255089864069993e+01
 1.976155110433791e+00	 1.419948661483328e-01	 1.253198870693741e+01
 1.973235662691210e+00	 1.780241050915339e-01	 1.251538910861626e+01
 1.969633381769826e+00	 2.142332932417672e-01	 1.250335232443008e+01
 1.965336770912883e+00	 2.506051464345093e-01	 1.249811080708763e+01
 1.960334836271955e+00	 2.871217376448129e-01	 1.250188037226290e+01
 1.954617124660500e+00	 3.237645109067652e-01	 1.251686465789451e+01
 1.948173761183262e+00	 3.605142976172153e-01	 1.254526063879333e+01
 1.987500000000000e+00	 0.000000000000000e+00	 1.261094242938716e+01
 1.987187191267293e+00	 3.526069857059839e-02	 1.259451731108062e+01
 1.986239818949267e+00	 7.076462126208484e-02	 1.257393959435688e+01
 1.984644708033241e+00	 1.064971026848608e-01	 1.255138618817798e+01
 1.982389038227170e+00	 1.424427994853405e-01	 1.252900234550296e+01
 1.979460380870380e+00	 1.785856953344024e-01	 1.250890224107769e+01
 1.975846736286934e+00	 2.149091080533387e-01	 1.249317063091745e+01
 1.971536571452703e+00	 2.513956989534414e-01	 1.248386562585497e+01
 1.966518857838353e+00	 2.880274844576291e-01	 1.248302259698610e+01
 1.960783109281990e+00	 3.247858500638134e-01	 1.249265921481288e+01
 1.954319419737269e+00	 3.616515667000588e-01	 1.251478160649727e+01
 1.993750000000000e+00	 0.000000000000000e+00	 1.262579543988607e+01
 1.993436207592045e+00	 3.537158127256488e-02	 1.260460265087942e+01
 1.992485856115826e+00	 7.098715152144332e-02	 1.257968833184517e+01
 1.990885729127804e+00	 1.068319992394520e-01	 1.255308440399799e+01
 1.988622966020549e+00	 1.428907328234580e-01	 1.252678334984367e+01
 1.985685099049550e+00	 1.791472855785181e-01	 1.250273911943800e+01
 1.982060090804042e+00	 2.155849228662357e-01	 1.248286918008341e+01
 1.977736371992524e+00	 2.521862514737178e-01	 1.246905774287861e+01
 1.972702879404751e+00	 2.889332312717472e-01	 1.246316018450856e+01
 1.966949093903479e+00	 3.258071892220589e-01	 1.246700866609730e+01
 1.960465078291275e+00	 3.627888357839316e-01	 1.248241893299045e+01
 2.000000000000000e+00	 0.000000000000000e+00	 1.264315392000000e+01
 1.999685223916798e+00	 3.548246397489042e-02	 1.261675877168112e+01
 1.998731893282386e+00	 7.120968178146642e-02	 1.258707164391856e+01
 1.997126750222366e+00	 1.071668957949584e-01	 1.255597987094366e+01
 1.994856893813928e+00	 1.433386661626855e-01	 1.252532357394263e+01
 1.991909817228721e+00	 1.797088758238808e-01	 1.249689689559107e+01
 1.988273445321150e+00	 2.162607376804582e-01	 1.247245043979096e+01
 1.983936172532344e+00	 2.529768039953384e-01	 1.245369495106895e+01
 1.978886900971149e+00	 2.898389780871670e-01	 1.244230625257772e+01
 1.973115078524969e+00	 3.268285283815016e-01	 1.243993144454666e+01
 1.966610736845282e+00	 3.639261048688338e-01	 1.244819634649911e+01
 1.905154151305217e+00	 3.525534140661327e-01	 1.270383532125483e+01
 1.898134387495910e+00	 3.885770155500040e-01	 1.275579070597593e+01
 1.890387524203363e+00	 4.246660550916128e-01	 1.283232661436717e+01
 1.881905818331420e+00	 4.608001095303136e-01	 1.293596572601369e+01
 1.872682235044607e+00	 4.969582442846509e-01	 1.304856316851899e+01
 1.862710481481908e+00	 5.331190412958152e-01	 1.312460039257353e+01
 1.851985039325666e+00	 5.692606293503407e-01	 1.322930984390187e+01
 1.840501196043703e+00	 6.053607167423780e-01	 1.336716904354161e+01
 1.828255074622592e+00	 6.413966262208445e-01	 1.338945815732983e+01
 1.815243661611244e+00	 6.773453321514071e-01	 1.325729319649093e+01
 1.801464833296524e+00	 7.131834998077383e-01	 1.315134410391429e+01
 1.911299809859223e+00	 3.536906831417707e-01	 1.268722361901681e+01
 1.904257401650780e+00	 3.898304897922171e-01	 1.273294734884996e+01
 1.896485548476807e+00	 4.260359455908806e-01	 1.280326542255906e+01
 1.887976482263419e+00	 4.622865614959513e-01	 1.290095295728552e+01
 1.878723145482122e+00	 4.985613353950653e-01	 1.302880353123851e+01
 1.868719224972345e+00	 5.348387801388996e-01	 1.313459128186046e+01
 1.857959184615408e+00	 5.710969539616868e-01	 1.323764558764713e+01
 1.846438296677414e+00	 6.073134932488479e-01	 1.337535205905603e+01
 1.834152671638440e+00	 6.434656475968770e-01	 1.338424930200575e+01
 1.821099286326586e+00	 6.795303170952005e-01	 1.326207872756425e+01
 1.807276010178027e+00	 7.154840917441793e-01	 1.316772824190797e+01
 1.917445468413230e+00	 3.548279522184382e-01	 1.266855631406677e+01
 1.910380415805650e+00	 3.910839640352596e-01	 1.270884903140428e+01
 1.902583572750251e+00	 4.274058360907768e-01	 1.277375254149752e+01
 1.894047146195417e+00	 4.637730134620167e-01	 1.286629279450058e+01
 1.884764055919635e+00	 5.001644265057059e-01	 1.298952193182867e+01
 1.874727968462783e+00	 5.365585189820093e-01	 1.314419357106604e+01
 1.863933329905151e+00	 5.729332785728566e-01	 1.324623185199124e+01
 1.852375397311125e+00	 6.092662697549402e-01	 1.338442117584320e+01
 1.840050268654288e+00	 6.455346689723308e-01	 1.338170021514148e+01
 1.826954911041928e+00	 6.817153020382143e-01	 1.327049577262850e+01
 1.813087187059531e+00	 7.177846836796407e-01	 1.318869297384733e+01
 1.923591126967236e+00	 3.559652212961348e-01	 1.264785862425298e+01
 1.916503429960519e+00	 3.923374382791311e-01	 1.268351443042222e+01
 1.908681597023695e+00	 4.287757265913020e-01	 1.274380006898347e+01
 1.900117810127416e+00	 4.652594654285097e-01	 1.283199072813632e+01
 1.890804966357150e+00	 5.017675176165729e-01	 1.295139547621928e+01
 1.880736711953220e+00	 5.382782578251440e-01	 1.310536257421680e+01
 1.869907475194893e+00	 5.747696031838503e-01	 1.325502967038638e+01
 1.858312497944836e+00	 6.112190462606552e-01	 1.339432916101420e+01
 1.845947865670136e+00	 6.476036903472060e-01	 1.338181395852081e+01
 1.832810535757269e+00	 6.839002869804490e-01	 1.328254210203706e+01
 1.818898363941034e+00	 7.200852756141226e-01	 1.321423074738210e+01
 1.929736785521243e+00	 3.571024903748611e-01	 1.262515554432574e+01
 1.922626444115389e+00	 3.935909125238320e-01	 1.265696209295648e+01
 1.914779621297139e+00	 4.301456170924555e-01	 1.271342006686927e+01
 1.906188474059415e+00	 4.667459173954304e-01	 1.279805230676681e+01
 1.896845876794663e+00	 5.033706087276667e-01	 1.291442318137337e+01
 1.886745455443657e+00	 5.399979966683037e-01	 1.306614332701855e+01
 1.875881620484636e+00	 5.766059277946676e-01	 1.325687467088708e+01
 1.864249598578547e+00	 6.131718227659926e-01	 1.340502921539711e+01
 1.851845462685984e+00	 6.496727117215030e-01	 1.338459412057983e+01
 1.838666160472610e+00	 6.860852719219048e-01	 1.329821610500084e+01
 1.824709540822537e+00	 7.223858675476251e-01	 1.324433472031959e+01
 1.935882444075249e+00	 3.582397594546164e-01	 1.260047184947859e+01
 1.928749458270259e+00	 3.948443867693622e-01	 1.262921043838834e+01
 1.920877645570583e+00	 4.315155075942379e-01	 1.268262456162949e+01
 1.912259137991413e+00	 4.682323693627788e-01	 1.276448313614057e+01
 1.902886787232178e+00	 5.049736998389868e-01	 1.287860421408550e+01
 1.892754198934094e+00	 5.417177355114888e-01	 1.302885915491660e+01
 1.881855765774378e+00	 5.784422524053087e-01	 1.321917702519935e+01
 1.870186699212259e+00	 6.151245992709524e-01	 1.341647496665257e+01
 1.857743059701832e+00	 6.517417330952211e-01	 1.339004480804744e+01
 1.844521785187952e+00	 6.882702568625808e-01	 1.331751677976517e+01
 1.830520717704041e+00	 7.246864594801484e-01	 1.327899874935241e+01
 1.942028102629256e+00	 3.593770285354013e-01	 1.257383209882235e+01
 1.934872472425128e+00	 3.960978610157214e-01	 1.260027776044777e+01
 1.926975669844028e+00	 4.328853980966488e-01	 1.265142554492057e+01
 1.918329801923412e+00	 4.697188213305548e-01	 1.273128887827588e+01
 1.908927697669691e+00	 5.065767909505333e-01	 1.284393788861104e+01
 1.898762942424532e+00	 5.434374743546988e-01	 1.299350301601305e+01
 1.887829911064120e+00	 5.802785770157736e-01	 1.318417879473207e+01
 1.876123799845970e+00	 6.170773757755349e-01	 1.342022768347905e+01
 1.863640656717680e+00	 6.538107544683608e-01	 1.339817063774447e+01
 1.850377409903294e+00	 6.904552418024777e-01	 1.334044372397315e+01
 1.836331894585544e+00	 7.269870514116921e-01	 1.331821737900012e+01
 1.948173761183262e+00	 3.605142976172153e-01	 1.254526063879333e+01
 1.940995486579999e+00	 3.973513352629100e-01	 1.257018222919539e+01
 1.933073694117472e+00	 4.342552885996884e-01	 1.261983497413003e+01
 1.924400465855411e+00	 4.712052732987587e-01	 1.269847525057325e+01
 1.914968608107205e+00	 5.081798820623066e-01	 1.281042366434030e+01
 1.904771685914969e+00	 5.451572131979341e-01	 1.296006810324593e+01
 1.893804056353862e+00	 5.821149016260623e-01	 1.315186690738192e+01
 1.882060900479681e+00	 6.190301522797398e-01	 1.339035203277014e+01
 1.869538253733528e+00	 6.558797758409221e-01	 1.340897672853807e+01
 1.856233034618636e+00	 6.926402267415958e-01	 1.336699712521141e+01
 1.842143071467048e+00	 7.292876433422565e-01	 1.336198583076023e+01
 1.954319419737269e+00	 3.616515667000588e-01	 1.251478160649727e+01
 1.947118500734868e+00	 3.986048095109278e-01	 1.253894189296678e+01
 1.939171718390916e+00	 4.356251791033567e-01	 1.258786477291530e+01
 1.930471129787409e+00	 4.726917252673901e-01	 1.266604802494468e+01
 1.921009518544720e+00	 5.097829731743061e-01	 1.277806114351650e+01
 1.910780429405406e+00	 5.468769520411942e-01	 1.292854784069691e+01
 1.899778201643604e+00	 5.839512262361745e-01	 1.312222861027474e+01
 1.887998001113392e+00	 6.209829287835670e-01	 1.336390323086673e+01
 1.875435850749376e+00	 6.579487972129047e-01	 1.341950766868266e+01
 1.862088659333976e+00	 6.948252116799342e-01	 1.339717775173433e+01
 1.847954248348551e+00	 7.315882352718412e-01	 1.341029999246389e+01
 1.960465078291275e+00	 3.627888357839316e-01	 1.248241893299045e+01
 1.953241514889738e+00	 3.998582837597748e-01	 1.250657468028061e+01
 1.945269742664360e+00	 4.369950696076534e-01	 1.255552683173240e+01
 1.936541793719408e+00	 4.741781772364493e-01	 1.263401302695917e+01
 1.927050428982233e+00	 5.113860642865321e-01	 1.274685006899674e+01
 1.916789172895843e+00	 5.485966908844798e-01	 1.289893587996830e+01
 1.905752346933347e+00	 5.857875508461107e-01	 1.309525146476196e+01
 1.893935101747103e+00	 6.229357052870169e-01	 1.334086275966474e+01
 1.881333447765223e+00	 6.600178185843085e-01	 1.339697032689733e+01
 1.867944284049318e+00	 6.970101966174935e-01	 1.343098694336259e+01
 1.853765425230054e+00	 7.338888272004463e-01	 1.346315640783175e+01
 1.966610736845282e+00	 3.639261048688338e-01	 1.244819634649911e+01
 1.959364529044608e+00	 4.011117580094511e-01	 1.247309840171063e+01
 1.951367766937805e+00	 4.383649601125791e-01	 1.252283300835472e+01
 1.942612457651407e+00	 4.756646292059362e-01	 1.260237613500439e+01
 1.933091339419748e+00	 5.129891553989847e-01	 1.271679032205486e+01
 1.922797916386281e+00	 5.503164297277904e-01	 1.287122609662810e+01
 1.911726492223089e+00	 5.876238754558706e-01	 1.307092334151085e+01
 1.899872202380815e+00	 6.248884817900893e-01	 1.332121249537474e+01
 1.887231044781072e+00	 6.620868399551341e-01	 1.337959913969541e+01
 1.873799908764660e+00	 6.991951815542736e-01	 1.346842660255250e+01
 1.859576602111558e+00	 7.361894191280726e-01	 1.352055226622579e+01
 1.801464833296524e+00	 7.131834998077383e-01	 1.315134410391429e+01
 1.786917379836844e+00	 7.488875266910028e-01	 1.322762280322567e+01
 1.771601027184422e+00	 7.844335857608368e-01	 1.326209966934775e+01
 1.755516456634858e+00	 8.197976704459864e-01	 1.325318370502831e+01
 1.738665321851069e+00	 8.549556412882953e-01	 1.320014150100789e+01
 1.721050263217639e+00	 8.898832740590076e-01	 1.310315894193137e+01
 1.702674919393794e+00	 9.245563091730674e-01	 1.296339578338437e+01
 1.683543935945708e+00	 9.589505022144015e-01	 1.278303217302920e+01
 1.663662970952961e+00	 9.930416753735546e-01	 1.256530625165718e+01
 1.643038697499170e+00	 1.026805769588582e+00	 1.231454204803309e+01
 1.621678802973224e+00	 1.060218897170963e+00	 1.203616697405436e+01
 1.807276010178027e+00	 7.154840917441793e-01	 1.316772824190797e+01
 1.792681629448569e+00	 7.513032929078940e-01	 1.324403886069824e+01
 1.777315869206514e+00	 7.869640166845691e-01	 1.327837296746407e+01
 1.761179412945189e+00	 8.224421790623974e-01	 1.326882413544742e+01
 1.744273919661911e+00	 8.577135627140031e-01	 1.321434858879493e+01
 1.726602038258635e+00	 8.927538652679566e-01	 1.311482874034022e+01
 1.708167419132196e+00	 9.275387488824756e-01	 1.297112957248698e+01
 1.688974722834470e+00	 9.620438909336927e-01	 1.278514691777475e+01
 1.669029625696907e+00	 9.962450356192188e-01	 1.255984675865459e+01
 1.648338822329198e+00	 1.030118046267232e+00	 1.229929474437384e+01
 1.626910024918265e+00	 1.063638958132152e+00	 1.200867521604360e+01
 1.813087187059531e+00	 7.177846836796407e-01	 1.318869297384733e+01
 1.798445879060296e+00	 7.537190591236296e-01	 1.326450513878014e+01
 1.783030711228606e+00	 7.894944476070173e-01	 1.329814579130361e+01
 1.766842369255521e+00	 8.250866876774451e-01	 1.328739346133423e+01
 1.749882517472753e+00	 8.604714841383175e-01	 1.323089451878958e+01
 1.732153813299630e+00	 8.956244564755316e-01	 1.312822854724746e+01
 1.713659918870599e+00	 9.305211885905793e-01	 1.297996653187056e+01
 1.694405509723232e+00	 9.651372796517999e-01	 1.278772090171800e+01
 1.674396280440852e+00	 9.994483958638706e-01	 1.255418652961828e+01
 1.653638947159227e+00	 1.033430322945092e+00	 1.228317187147295e+01
 1.632141246863306e+00	 1.067059019092824e+00	 1.197961952056974e+01
 1.818898363941034e+00	 7.200852756141226e-01	 1.321423074738210e+01
 1.804210128672022e+00	 7.561348253382095e-01	 1.328902267749654e+01
 1.788745553250698e+00	 7.920248785281819e-01	 1.332142768772365e+01
 1.772505325565852e+00	 8.277311962911299e-01	 1.330890963305821e+01
 1.755491115283595e+00	 8.632294055612384e-01	 1.324980552394737e+01
 1.737705588340625e+00	 8.984950476817326e-01	 1.314339273990735e+01
 1.719152418609001e+00	 9.335036282973785e-01	 1.298994902775980e+01
 1.699836296611995e+00	 9.682306683687227e-01	 1.279080430807840e+01
 1.679762935184798e+00	 1.002651756107509e+00	 1.254838337660608e+01
 1.658939071989255e+00	 1.036742599622162e+00	 1.226623866642650e+01
 1.637372468808346e+00	 1.070479080052980e+00	 1.194907233092834e+01
 1.824709540822537e+00	 7.223858675476251e-01	 1.324433472031959e+01
 1.809974378283746e+00	 7.585505915516338e-01	 1.331759313968477e+01
 1.794460395272789e+00	 7.945553094480627e-01	 1.334822873867934e+01
 1.778168281876184e+00	 8.303757049034513e-01	 1.333339104815972e+01
 1.761099713094437e+00	 8.659873269827660e-01	 1.327110819641415e+01
 1.743257363381620e+00	 9.013656388865593e-01	 1.316035596689266e+01
 1.724644918347405e+00	 9.364860680028737e-01	 1.300111961009897e+01
 1.705267083500758e+00	 9.713240570844620e-01	 1.279444741663533e+01
 1.685129589928743e+00	 1.005855116350135e+00	 1.254249512168248e+01
 1.664239196819284e+00	 1.040054876298442e+00	 1.224856029055822e+01
 1.642603690753387e+00	 1.073899141012621e+00	 1.191710592980590e+01
 1.830520717704041e+00	 7.246864594801484e-01	 1.327899874935241e+01
 1.815738627895473e+00	 7.609663577639028e-01	 1.335021880110850e+01
 1.800175237294881e+00	 7.970857403666599e-01	 1.337855955273021e+01
 1.783831238186514e+00	 8.330202135144094e-01	 1.336085654425202e+01
 1.766708310905279e+00	 8.687452484028998e-01	 1.329482948182469e+01
 1.748809138422616e+00	 9.042362300900124e-01	 1.317915314378794e+01
 1.730137418085807e+00	 9.394685077070646e-01	 1.301352100963582e+01
 1.710697870389520e+00	 9.744174457990171e-01	 1.279870060219537e+01
 1.690496244672688e+00	 1.009058476591749e+00	 1.253657959675973e+01
 1.669539321649312e+00	 1.043367152973931e+00	 1.223020183062228e+01
 1.647834912698428e+00	 1.077319201971746e+00	 1.188379244182931e+01
 1.836331894585544e+00	 7.269870514116921e-01	 1.331821737900012e+01
 1.821502877507198e+00	 7.633821239750157e-01	 1.338690254075946e+01
 1.805890079316973e+00	 7.996161712839734e-01	 1.341243125670774e+01
 1.789494194496846e+00	 8.356647221240044e-01	 1.339132539205811e+01
 1.772316908716121e+00	 8.715031698216402e-01	 1.332099667370947e+01
 1.754360913463612e+00	 9.071068212920912e-01	 1.319981944896475e+01
 1.735629917824210e+00	 9.424509474099512e-01	 1.302719613506069e+01
 1.716128657278282e+00	 9.775108345123882e-01	 1.280361433308871e+01
 1.695862899416633e+00	 1.012261836832350e+00	 1.253069464344207e+01
 1.674839446479340e+00	 1.046679429648631e+00	 1.221122829998313e+01
 1.653066134643468e+00	 1.080739262930354e+00	 1.184920383606679e+01
 1.842143071467048e+00	 7.292876433422565e-01	 1.336198583076023e+01
 1.827267127118924e+00	 7.657978901849734e-01	 1.342764783134288e+01
 1.811604921339065e+00	 8.021466022000032e-01	 1.344985548754071e+01
 1.795157150807177e+00	 8.383092307322362e-01	 1.342481728857937e+01
 1.777925506526964e+00	 8.742610912389873e-01	 1.334963740800742e+01
 1.759912688504607e+00	 9.099774124927964e-01	 1.322239031943663e+01
 1.741122417562612e+00	 9.454333871115331e-01	 1.304218807019987e+01
 1.721559444167045e+00	 9.806042232245752e-01	 1.280923916969403e+01
 1.701229554160579e+00	 1.015465197071938e+00	 1.252489811287283e+01
 1.680139571309368e+00	 1.049991706322541e+00	 1.219170463977311e+01
 1.658297356588509e+00	 1.084159323888447e+00	 1.181341192848143e+01
 1.847954248348551e+00	 7.315882352718412e-01	 1.341029999246389e+01
 1.833031376730649e+00	 7.682136563937753e-01	 1.347245872994223e+01
 1.817319763361157e+00	 8.046770331147494e-01	 1.349084438423484e+01
 1.800820107117509e+00	 8.409537393391046e-01	 1.346135235039301e+01
 1.783534104337806e+00	 8.770190126549408e-01	 1.338077965768210e+01
 1.765464463545602e+00	 9.128480036921272e-01	 1.324690144679255e+01
 1.746614917301015e+00	 9.484158268118108e-01	 1.305854007126191e+01
 1.726990231055807e+00	 9.836976119355786e-01	 1.281562576299115e+01
 1.706596208904524e+00	 1.018668557310514e+00	 1.251924786558441e+01
 1.685439696139396e+00	 1.053303982995660e+00	 1.217169572002820e+01
 1.663528578533549e+00	 1.087579384846024e+00	 1.177648838433852e+01
 1.853765425230054e+00	 7.338888272004463e-01	 1.346315640783175e+01
 1.838795626342375e+00	 7.706294226014219e-01	 1.352133986885983e+01
 1.823034605383248e+00	 8.072074640282115e-01	 1.353541058000323e+01
 1.806483063427840e+00	 8.435982479446100e-01	 1.350095110707568e+01
 1.789142702148648e+00	 8.797769340695007e-01	 1.341445172743916e+01
 1.771016238586598e+00	 9.157185948900839e-01	 1.327338877320657e+01
 1.752107417039418e+00	 9.513982665107843e-01	 1.307629556413568e+01
 1.732421017944570e+00	 9.867910006453979e-01	 1.282282485314101e+01
 1.711962863648470e+00	 1.021871917548076e+00	 1.251380177135122e+01
 1.690739820969425e+00	 1.056616259667989e+00	 1.215126634080227e+01
 1.668759800478590e+00	 1.090999445803085e+00	 1.173850472056765e+01
 1.859576602111558e+00	 7.361894191280726e-01	 1.352055226622579e+01
 1.844559875954101e+00	 7.730451888079128e-01	 1.357429644662901e+01
 1.828749447405340e+00	 8.097378949403902e-01	 1.358356719454441e+01
 1.812146019738172e+00	 8.462427565487523e-01	 1.354363449475038e+01
 1.794751299959490e+00	 8.825348554826673e-01	 1.345068224854292e+01
 1.776568013627593e+00	 9.185891860866668e-01	 1.330188848752250e+01
 1.757599916777820e+00	 9.543807062084535e-01	 1.309549814173909e+01
 1.737851804833333e+00	 9.898843893540332e-01	 1.283088726809215e+01
 1.717329518392415e+00	 1.025075277784627e+00	 1.250861770904517e+01
 1.696039945799453e+00	 1.059928536339529e+00	 1.213048123326072e+01
 1.673991022423631e+00	 1.094419506759630e+00	 1.169953230808036e+01
 1.621678802973224e+00	 1.060218897170963e+00	 1.203616697405436e+01
 1.599591985124764e+00	 1.093257394690917e+00	 1.155371237481220e+01
 1.576787944836393e+00	 1.125897875888930e+00	 1.118020484630605e+01
 1.553277375593093e+00	 1.158117284377714e+00	 1.093288071989332e+01
 1.529071949648924e+00	 1.189892945895716e+00	 1.082964241489039e+01
 1.504184300911613e+00	 1.221202619870727e+00	 1.088897874738087e+01
 1.478628004584906e+00	 1.252024550054371e+00	 1.109842110850942e+01
 1.452417553628661e+00	 1.282337513990595e+00	 1.097651210021659e+01
 1.425568332116420e+00	 1.312120871085830e+00	 1.089432218303112e+01
 1.398096585589446e+00	 1.341354609054905e+00	 1.084968845821854e+01
 1.370019388525000e+00	 1.370019388525000e+00	 1.084001629512076e+01
 1.626910024918265e+00	 1.063638958132152e+00	 1.200867521604360e+01
 1.604751959270904e+00	 1.096784031450565e+00	 1.153309853063255e+01
 1.581874357562790e+00	 1.129529804523423e+00	 1.116496939617307e+01
 1.558287947774017e+00	 1.161853146587997e+00	 1.092161359191808e+01
 1.534004439811075e+00	 1.193731310239953e+00	 1.082103931920183e+01
 1.509036508336235e+00	 1.225141983163302e+00	 1.088185712739906e+01
 1.483397772344218e+00	 1.256063338928220e+00	 1.103228487436029e+01
 1.457102771546368e+00	 1.286474086619120e+00	 1.091423500649471e+01
 1.430166939642268e+00	 1.316353519059871e+00	 1.083500247696305e+01
 1.402606574578156e+00	 1.345681559409546e+00	 1.079234687033074e+01
 1.374438805910250e+00	 1.374438805910250e+00	 1.078359232004459e+01
 1.632141246863306e+00	 1.067059019092824e+00	 1.197961952056974e+01
 1.609911933417050e+00	 1.100310668209977e+00	 1.151088379878598e+01
 1.586960770289209e+00	 1.133161733157923e+00	 1.114807890755424e+01
 1.563298519954986e+00	 1.165589008798488e+00	 1.090862050151352e+01
 1.538936929973306e+00	 1.197569674584561e+00	 1.081062312489707e+01
 1.513888715760980e+00	 1.229081346456369e+00	 1.087281975312510e+01
 1.488167540103710e+00	 1.260102127802645e+00	 1.096842504897867e+01
 1.461787989464320e+00	 1.290610659248262e+00	 1.085423501408182e+01
 1.434765547168438e+00	 1.320586167034532e+00	 1.077797415360637e+01
 1.407116563567272e+00	 1.350008509764767e+00	 1.073732378120424e+01
 1.378858223296000e+00	 1.378858223296000e+00	 1.072952595525767e+01
 1.637372468808346e+00	 1.070479080052980e+00	 1.194907233092834e+01
 1.615071907563200e+00	 1.103837304969154e+00	 1.148714123618309e+01
 1.592047183015646e+00	 1.136793661792429e+00	 1.112960686848154e+01
 1.568309092136000e+00	 1.169324871009188e+00	 1.089397518486622e+01
 1.543869420135618e+00	 1.201408038929540e+00	 1.079846763362197e+01
 1.518740923185852e+00	 1.233020709749930e+00	 1.086194030998851e+01
 1.492937307863381e+00	 1.264140916677645e+00	 1.090681551577309e+01
 1.466473207382516e+00	 1.294747231878022e+00	 1.079648642075799e+01
 1.439364154694926e+00	 1.324818815009812e+00	 1.072321197822668e+01
 1.411626552556793e+00	 1.354335460120568e+00	 1.068459447348126e+01
 1.383277640682250e+00	 1.383277640682250e+00	 1.067779304714963e+01
 1.642603690753387e+00	 1.073899141012621e+00	 1.191710592980590e+01
 1.620231881709356e+00	 1.107363941728095e+00	 1.146194373640951e+01
 1.597133595742103e+00	 1.140425590426941e+00	 1.110962660140228e+01
 1.573319664317058e+00	 1.173060733220096e+00	 1.087775121078120e+01
 1.548801910298009e+00	 1.205246403274890e+00	 1.078464647831250e+01
 1.523593130610847e+00	 1.236960073043985e+00	 1.084929231385356e+01
 1.497707075623232e+00	 1.268179705553220e+00	 1.084742998820763e+01
 1.471158425300957e+00	 1.298883804508399e+00	 1.074096335445814e+01
 1.443962762221735e+00	 1.329051462985710e+00	 1.067069054682351e+01
 1.416136541546718e+00	 1.358662410476948e+00	 1.063413406159592e+01
 1.387697058069000e+00	 1.387697058069000e+00	 1.062836927543741e+01
 1.647834912698428e+00	 1.077319201971746e+00	 1.188379244182931e+01
 1.625391855855516e+00	 1.110890578486802e+00	 1.143536403231844e+01
 1.602220008468580e+00	 1.144057519061459e+00	 1.108821126580730e+01
 1.578330236498161e+00	 1.176796595431213e+00	 1.086002198333858e+01
 1.553734400460479e+00	 1.209084767620610e+00	 1.076923312587227e+01
 1.528445338035967e+00	 1.240899436338533e+00	 1.083494911371056e+01
 1.502476843383263e+00	 1.272218494429372e+00	 1.079024201249956e+01
 1.475843643219643e+00	 1.303020377139393e+00	 1.068763977596838e+01
 1.448561369748863e+00	 1.333284110962227e+00	 1.062038428881699e+01
 1.420646530537048e+00	 1.362989360833909e+00	 1.058591749444365e+01
 1.392116475456250e+00	 1.392116475456250e+00	 1.058123015581021e+01
 1.653066134643468e+00	 1.080739262930354e+00	 1.184920383606679e+01
 1.630551830001681e+00	 1.114417215245272e+00	 1.140747469857389e+01
 1.607306421195076e+00	 1.147689447695984e+00	 1.106543386080960e+01
 1.583340808679309e+00	 1.180532457642537e+00	 1.084086074450013e+01
 1.558666890623030e+00	 1.212923131966702e+00	 1.075230087980004e+01
 1.533297545461211e+00	 1.244838799633574e+00	 1.081898389431623e+01
 1.507246611143473e+00	 1.276257283306099e+00	 1.073522497026534e+01
 1.480528861138573e+00	 1.307156949771005e+00	 1.063648948157043e+01
 1.453159977276312e+00	 1.337516758939363e+00	 1.057226746968360e+01
 1.425156519527784e+00	 1.367316311191448e+00	 1.053991955800105e+01
 1.396535892844000e+00	 1.396535892844000e+00	 1.053635104252547e+01
 1.658297356588509e+00	 1.084159323888447e+00	 1.181341192848143e+01
 1.635711804147851e+00	 1.117943852003508e+00	 1.137834815414581e+01
 1.612392833921593e+00	 1.151321376330514e+00	 1.104136722767372e+01
 1.588351380860501e+00	 1.184268319854071e+00	 1.082034057666630e+01
 1.563599380785660e+00	 1.216761496313164e+00	 1.073392288276689e+01
 1.538149752886581e+00	 1.248778162929109e+00	 1.080146967878443e+01
 1.512016378903863e+00	 1.280296072183401e+00	 1.068235208111714e+01
 1.485214079057749e+00	 1.311293522403235e+00	 1.058748610563655e+01
 1.457758584804080e+00	 1.341749406917118e+00	 1.052631419354198e+01
 1.429666508518924e+00	 1.371643261549568e+00	 1.049611487789549e+01
 1.400955310232250e+00	 1.400955310232250e+00	 1.049370713095455e+01
 1.663528578533549e+00	 1.087579384846024e+00	 1.177648838433852e+01
 1.640871778294026e+00	 1.121470488761508e+00	 1.134805666475803e+01
 1.617479246648130e+00	 1.154953304965052e+00	 1.101608405229780e+01
 1.593361953041739e+00	 1.188004182065812e+00	 1.079853440518496e+01
 1.568531870948370e+00	 1.220599860659997e+00	 1.071417211914486e+01
 1.543001960312075e+00	 1.252717526225136e+00	 1.075777386492826e+01
 1.516786146664433e+00	 1.284334861061279e+00	 1.063159640521012e+01
 1.489899296977169e+00	 1.315430095036082e+00	 1.054060312317509e+01
 1.462357192332169e+00	 1.345982054895491e+00	 1.048249840569032e+01
 1.434176497510469e+00	 1.375970211908267e+00	 1.045447792192612e+01
 1.405374727621000e+00	 1.405374727621000e+00	 1.045327346008133e+01
 1.668759800478590e+00	 1.090999445803085e+00	 1.173850472056765e+01
 1.646031752440207e+00	 1.124997125519273e+00	 1.131667234529021e+01
 1.622565659374687e+00	 1.158585233599594e+00	 1.098965686764873e+01
 1.598372525223021e+00	 1.191740044277763e+00	 1.077551500081319e+01
 1.573464361111159e+00	 1.224438225007201e+00	 1.069312141748834e+01
 1.547854167737693e+00	 1.256656889521658e+00	 1.070451906621939e+01
 1.521555914425183e+00	 1.288373649939733e+00	 1.058293084574145e+01
 1.494584514896834e+00	 1.319566667669546e+00	 1.049581385232848e+01
 1.466955799860576e+00	 1.350214702874484e+00	 1.044079389509521e+01
 1.438686486502419e+00	 1.380297162267546e+00	 1.041498300253752e+01
 1.409794145010250e+00	 1.409794145010250e+00	 1.041502491495329e+01
 1.673991022423631e+00	 1.094419506759630e+00	 1.169953230808036e+01
 1.651191726586392e+00	 1.128523762276803e+00	 1.128426716213491e+01
 1.627652072101263e+00	 1.162217162234144e+00	 1.096215805615174e+01
 1.603383097404348e+00	 1.195475906489921e+00	 1.075135498213265e+01
 1.578396851274028e+00	 1.228276589354776e+00	 1.067084345296854e+01
 1.552706375163437e+00	 1.260596252818672e+00	 1.065333783682813e+01
 1.526325682186112e+00	 1.292412438818762e+00	 1.053632815140295e+01
 1.499269732816743e+00	 1.323703240303628e+00	 1.045309145682437e+01
 1.471554407389304e+00	 1.354447350854096e+00	 1.040117429683461e+01
 1.443196475494775e+00	 1.384624112627405e+00	 1.037760427924752e+01
 1.414213562400000e+00	 1.414213562400000e+00	 1.037893622908689e+01
 1.370019388525000e+00	 1.370019388525000e+00	 1.084001629512076e+01
 1.341354609054905e+00	 1.398096585589446e+00	 1.083344977479003e+01
 1.312120871085830e+00	 1.425568332116420e+00	 1.080705579384797e+01
 1.282337513990595e+00	 1.452417553628662e+00	 1.075668785033915e+01
 1.252024550054371e+00	 1.478628004584906e+00	 1.067816529432165e+01
 1.221202619870727e+00	 1.504184300911613e+00	 1.071075503639100e+01
 1.189892945895717e+00	 1.529071949648923e+00	 1.067331718332584e+01
 1.158117284377715e+00	 1.553277375593092e+00	 1.056362649312605e+01
 1.125897875888931e+00	 1.576787944836393e+00	 1.039180552976066e+01
 1.093257394690918e+00	 1.599591985124763e+00	 1.016828409819166e+01
 1.060218897170963e+00	 1.621678802973224e+00	 9.903719211228534e+00
 1.374438805910250e+00	 1.374438805910250e+00	 1.078359232004459e+01
 1.345681559409546e+00	 1.402606574578157e+00	 1.077628278177597e+01
 1.316353519059871e+00	 1.430166939642268e+00	 1.075064755967092e+01
 1.286474086619120e+00	 1.457102771546368e+00	 1.070264623170148e+01
 1.256063338928221e+00	 1.483397772344218e+00	 1.062819243195644e+01
 1.225141983163302e+00	 1.509036508336234e+00	 1.064904984243798e+01
 1.193731310239954e+00	 1.534004439811075e+00	 1.062548891026928e+01
 1.161853146587998e+00	 1.558287947774016e+00	 1.053120048407490e+01
 1.129529804523424e+00	 1.581874357562790e+00	 1.037656971105965e+01
 1.096784031450566e+00	 1.604751959270904e+00	 1.017228080940463e+01
 1.063638958132152e+00	 1.626910024918265e+00	 9.929235704430436e+00
 1.378858223296000e+00	 1.378858223296000e+00	 1.072952595525767e+01
 1.350008509764767e+00	 1.407116563567272e+00	 1.072203974789389e+01
 1.320586167034532e+00	 1.434765547168438e+00	 1.069772251707068e+01
 1.290610659248262e+00	 1.461787989464320e+00	 1.065263791729570e+01
 1.260102127802645e+00	 1.488167540103709e+00	 1.058279185275449e+01
 1.229081346456370e+00	 1.513888715760980e+00	 1.059170276782144e+01
 1.197569674584562e+00	 1.538936929973306e+00	 1.058238368036731e+01
 1.165589008798489e+00	 1.563298519954986e+00	 1.050383488336339e+01
 1.133161733157924e+00	 1.586960770289208e+00	 1.036670422828379e+01
 1.100310668209978e+00	 1.609911933417049e+00	 1.018193054947778e+01
 1.067059019092824e+00	 1.632141246863306e+00	 9.960660965608424e+00
 1.383277640682250e+00	 1.383277640682250e+00	 1.067779304714963e+01
 1.354335460120567e+00	 1.411626552556793e+00	 1.067069217863152e+01
 1.324818815009812e+00	 1.439364154694926e+00	 1.064824803402988e+01
 1.294747231878022e+00	 1.466473207382516e+00	 1.060662634577855e+01
 1.264140916677645e+00	 1.492937307863381e+00	 1.054192327834281e+01
 1.233020709749931e+00	 1.518740923185851e+00	 1.053872403012846e+01
 1.201408038929541e+00	 1.543869420135618e+00	 1.054400666744487e+01
 1.169324871009189e+00	 1.568309092135999e+00	 1.048152995917918e+01
 1.136793661792430e+00	 1.592047183015645e+00	 1.036220459300402e+01
 1.103837304969155e+00	 1.615071907563200e+00	 1.019722423286685e+01
 1.070479080052980e+00	 1.637372468808346e+00	 9.997981481631973e+00
 1.387697058069000e+00	 1.387697058069000e+00	 1.062836927543741e+01
 1.358662410476948e+00	 1.416136541546718e+00	 1.062221147783552e+01
 1.329051462985710e+00	 1.443962762221735e+00	 1.060219144029207e+01
 1.298883804508399e+00	 1.471158425300957e+00	 1.056457497921986e+01
 1.268179705553221e+00	 1.497707075623232e+00	 1.050554651354701e+01
 1.236960073043986e+00	 1.523593130610847e+00	 1.049012398795353e+01
 1.205246403274890e+00	 1.548801910298009e+00	 1.051036324206026e+01
 1.173060733220097e+00	 1.573319664317057e+00	 1.046428622998784e+01
 1.140425590426942e+00	 1.597133595742102e+00	 1.036306661833837e+01
 1.107363941728096e+00	 1.620231881709355e+00	 1.021815312448285e+01
 1.073899141012621e+00	 1.642603690753387e+00	 1.004118413629083e+01
 1.392116475456250e+00	 1.392116475456250e+00	 1.058123015581021e+01
 1.362989360833908e+00	 1.420646530537048e+00	 1.057656894932481e+01
 1.333284110962227e+00	 1.448561369748863e+00	 1.055952002796887e+01
 1.303020377139394e+00	 1.475843643219643e+00	 1.052644730273052e+01
 1.272218494429372e+00	 1.502476843383263e+00	 1.047362144507061e+01
 1.240899436338533e+00	 1.528445338035967e+00	 1.044591313865982e+01
 1.209084767620611e+00	 1.553734400460479e+00	 1.048145896838246e+01
 1.176796595431213e+00	 1.578330236498160e+00	 1.045210446056003e+01
 1.144057519061460e+00	 1.602220008468579e+00	 1.036928641416589e+01
 1.110890578486802e+00	 1.625391855855515e+00	 1.024470883412879e+01
 1.077319201971746e+00	 1.647834912698428e+00	 1.009025620399545e+01
 1.396535892844000e+00	 1.396535892844000e+00	 1.053635104252547e+01
 1.367316311191448e+00	 1.425156519527784e+00	 1.053373579847312e+01
 1.337516758939363e+00	 1.453159977276312e+00	 1.052020105213532e+01
 1.307156949771005e+00	 1.480528861138573e+00	 1.049220682409819e+01
 1.276257283306099e+00	 1.507246611143473e+00	 1.044610804019942e+01
 1.244838799633575e+00	 1.533297545461211e+00	 1.040610211618373e+01
 1.212923131966702e+00	 1.558666890623029e+00	 1.045729960112750e+01
 1.180532457642538e+00	 1.583340808679309e+00	 1.044498565807425e+01
 1.147689447695985e+00	 1.607306421195076e+00	 1.038086038243050e+01
 1.114417215245273e+00	 1.630551830001680e+00	 1.027688331104269e+01
 1.080739262930354e+00	 1.653066134643468e+00	 1.014518534359543e+01
 1.400955310232250e+00	 1.400955310232250e+00	 1.049370713095455e+01
 1.371643261549568e+00	 1.429666508518924e+00	 1.049368313376205e+01
 1.341749406917117e+00	 1.457758584804080e+00	 1.048420173141419e+01
 1.311293522403234e+00	 1.485214079057749e+00	 1.046181707342961e+01
 1.280296072183401e+00	 1.512016378903863e+00	 1.042296634553065e+01
 1.248778162929109e+00	 1.538149752886580e+00	 1.037070168888065e+01
 1.216761496313165e+00	 1.563599380785660e+00	 1.043789108255297e+01
 1.184268319854072e+00	 1.588351380860501e+00	 1.044293106829367e+01
 1.151321376330515e+00	 1.612392833921592e+00	 1.039778521253525e+01
 1.117943852003509e+00	 1.635711804147850e+00	 1.031466883854352e+01
 1.084159323888447e+00	 1.658297356588509e+00	 1.020595959231647e+01
 1.405374727621000e+00	 1.405374727621000e+00	 1.045327346008133e+01
 1.375970211908267e+00	 1.434176497510469e+00	 1.045638196830406e+01
 1.345982054895491e+00	 1.462357192332168e+00	 1.045148924854890e+01
 1.315430095036082e+00	 1.489899296977169e+00	 1.043524160279954e+01
 1.284334861061280e+00	 1.516786146664433e+00	 1.040415648572594e+01
 1.252717526225137e+00	 1.543001960312074e+00	 1.035468721748225e+01
 1.220599860659997e+00	 1.568531870948369e+00	 1.042323953950950e+01
 1.188004182065814e+00	 1.593361953041738e+00	 1.044594217181422e+01
 1.154953304965052e+00	 1.617479246648130e+00	 1.042005787682124e+01
 1.121470488761509e+00	 1.640871778294025e+00	 1.035805802877890e+01
 1.087579384846024e+00	 1.663528578533549e+00	 1.027256735981070e+01
 1.409794145010250e+00	 1.409794145010250e+00	 1.041502491495329e+01
 1.380297162267546e+00	 1.438686486502419e+00	 1.042180322133779e+01
 1.350214702874484e+00	 1.466955799860576e+00	 1.042203075096611e+01
 1.319566667669546e+00	 1.494584514896834e+00	 1.041244398590648e+01
 1.288373649939733e+00	 1.521555914425182e+00	 1.038963866228730e+01
 1.256656889521658e+00	 1.547854167737693e+00	 1.035013465573642e+01
 1.224438225007201e+00	 1.573464361111159e+00	 1.041335128054714e+01
 1.191740044277763e+00	 1.598372525223020e+00	 1.045402068038459e+01
 1.158585233599595e+00	 1.622565659374686e+00	 1.044767562613407e+01
 1.124997125519274e+00	 1.646031752440205e+00	 1.040704381757034e+01
 1.090999445803085e+00	 1.668759800478590e+00	 1.034499742231942e+01
 1.414213562400000e+00	 1.414213562400000e+00	 1.037893622908689e+01
 1.384624112627405e+00	 1.443196475494774e+00	 1.038991771969462e+01
 1.354447350854096e+00	 1.471554407389304e+00	 1.039579335132747e+01
 1.323703240303628e+00	 1.499269732816743e+00	 1.039338781773510e+01
 1.292412438818763e+00	 1.526325682186112e+00	 1.037937315235730e+01
 1.260596252818672e+00	 1.552706375163436e+00	 1.035033379723738e+01
 1.228276589354776e+00	 1.578396851274027e+00	 1.040823279307660e+01
 1.195475906489922e+00	 1.603383097404348e+00	 1.046716853329387e+01
 1.162217162234145e+00	 1.627652072101262e+00	 1.048063598547141e+01
 1.128523762276804e+00	 1.651191726586391e+00	 1.046161945935635e+01
 1.094419506759630e+00	 1.673991022423631e+00	 1.042323891694504e+01
 1.060218897170963e+00	 1.621678802973224e+00	 9.903719211228534e+00
 1.026805769588582e+00	 1.643038697499170e+00	 9.696355239333830e+00
 9.930416753735546e-01	 1.663662970952961e+00	 9.453936316042741e+00
 9.589505022144016e-01	 1.683543935945708e+00	 9.185857724091402e+00
 9.245563091730679e-01	 1.702674919393794e+00	 8.901502343346552e+00
 8.898832740590080e-01	 1.721050263217639e+00	 8.610169180573962e+00
 8.549556412882957e-01	 1.738665321851068e+00	 8.321004329654855e+00
 8.197976704459873e-01	 1.755516456634858e+00	 8.042934954085760e+00
 7.844335857608379e-01	 1.771601027184422e+00	 7.784606831946475e+00
 7.488875266910041e-01	 1.786917379836844e+00	 7.554325946618423e+00
 7.131834998077382e-01	 1.801464833296524e+00	 7.360004545430396e+00
 1.063638958132152e+00	 1.626910024918265e+00	 9.929235704430436e+00
 1.030118046267232e+00	 1.648338822329198e+00	 9.737550031032299e+00
 9.962450356192190e-01	 1.669029625696907e+00	 9.505890821831510e+00
 9.620438909336927e-01	 1.688974722834470e+00	 9.243524611428246e+00
 9.275387488824757e-01	 1.708167419132196e+00	 8.959726353062457e+00
 8.927538652679571e-01	 1.726602038258635e+00	 8.663707715251022e+00
 8.577135627140037e-01	 1.744273919661910e+00	 8.364547712356419e+00
 8.224421790623984e-01	 1.761179412945189e+00	 8.071126267253913e+00
 7.869640166845701e-01	 1.777315869206514e+00	 7.792061253063203e+00
 7.513032929078951e-01	 1.792681629448569e+00	 7.535649504358993e+00
 7.154840917441793e-01	 1.807276010178027e+00	 7.309812227436039e+00
 1.067059019092824e+00	 1.632141246863306e+00	 9.960660965608424e+00
 1.033430322945092e+00	 1.653638947159227e+00	 9.783807932330726e+00
 9.994483958638706e-01	 1.674396280440852e+00	 9.562087437492169e+00
 9.651372796517996e-01	 1.694405509723232e+00	 9.304639308125573e+00
 9.305211885905795e-01	 1.713659918870599e+00	 9.020632520291461e+00
 8.956244564755320e-01	 1.732153813299629e+00	 8.719193254674435e+00
 8.604714841383184e-01	 1.749882517472753e+00	 8.409335190256062e+00
 8.250866876774460e-01	 1.766842369255521e+00	 8.099892640604731e+00
 7.894944476070181e-01	 1.783030711228605e+00	 7.799457086565762e+00
 7.537190591236307e-01	 1.798445879060295e+00	 7.516317602930336e+00
 7.177846836796407e-01	 1.813087187059531e+00	 7.258405616073487e+00
 1.070479080052980e+00	 1.637372468808346e+00	 9.997981481631973e+00
 1.036742599622162e+00	 1.658939071989255e+00	 9.835121483151077e+00
 1.002651756107509e+00	 1.679762935184797e+00	 9.622524456825417e+00
 9.682306683687230e-01	 1.699836296611995e+00	 9.369205556237112e+00
 9.335036282973791e-01	 1.719152418609001e+00	 9.084229724105951e+00
 8.984950476817329e-01	 1.737705588340626e+00	 8.776639498934346e+00
 8.632294055612392e-01	 1.755491115283595e+00	 8.455384964530012e+00
 8.277311962911307e-01	 1.772505325565852e+00	 8.129256453365466e+00
 7.920248785281830e-01	 1.788745553250697e+00	 7.806820564410572e+00
 7.561348253382103e-01	 1.804210128672021e+00	 7.496360000208787e+00
 7.200852756141227e-01	 1.818898363941034e+00	 7.205817667625325e+00
 1.073899141012621e+00	 1.642603690753387e+00	 1.004118413629083e+01
 1.040054876298441e+00	 1.664239196819284e+00	 9.891483533055762e+00
 1.005855116350136e+00	 1.685129589928743e+00	 9.687200399618002e+00
 9.713240570844623e-01	 1.705267083500758e+00	 9.437227243904902e+00
 9.364860680028740e-01	 1.724644918347404e+00	 9.150526913645074e+00
 9.013656388865601e-01	 1.743257363381621e+00	 8.836060146150068e+00
 8.659873269827665e-01	 1.761099713094437e+00	 8.502715166427468e+00
 8.303757049034521e-01	 1.778168281876183e+00	 8.159239951048059e+00
 7.945553094480639e-01	 1.794460395272789e+00	 7.814177725291804e+00
 7.585505915516348e-01	 1.809974378283746e+00	 7.475806205565680e+00
 7.223858675476252e-01	 1.824709540822538e+00	 7.152081038979494e+00
 1.077319201971746e+00	 1.647834912698428e+00	 1.009025620399545e+01
 1.043367152973931e+00	 1.669539321649312e+00	 9.952887236333432e+00
 1.009058476591749e+00	 1.690496244672688e+00	 9.756114008056560e+00
 9.744174457990175e-01	 1.710697870389520e+00	 9.508708403040760e+00
 9.394685077070648e-01	 1.730137418085806e+00	 9.219533107002253e+00
 9.042362300900129e-01	 1.748809138422616e+00	 8.897468892501074e+00
 8.687452484029006e-01	 1.766708310905279e+00	 8.551343858381021e+00
 8.330202135144101e-01	 1.783831238186514e+00	 8.189865247572179e+00
 7.970857403666609e-01	 1.800175237294881e+00	 7.821554417709525e+00
 7.609663577639038e-01	 1.815738627895472e+00	 7.454685483811200e+00
 7.246864594801484e-01	 1.830520717704041e+00	 7.097228092381912e+00
 1.080739262930354e+00	 1.653066134643468e+00	 1.014518534359543e+01
 1.046679429648631e+00	 1.674839446479340e+00	 1.001932604717680e+01
 1.012261836832350e+00	 1.695862899416633e+00	 9.829264243207955e+00
 9.775108345123885e-01	 1.716128657278282e+00	 9.583653207051263e+00
 9.424509474099513e-01	 1.735629917824209e+00	 9.291257390133895e+00
 9.071068212920917e-01	 1.754360913463611e+00	 8.960879432257986e+00
 8.715031698216408e-01	 1.772316908716121e+00	 8.601289035095556e+00
 8.356647221240052e-01	 1.789494194496846e+00	 8.221154327346920e+00
 7.996161712839743e-01	 1.805890079316973e+00	 7.828976302978685e+00
 7.633821239750168e-01	 1.821502877507198e+00	 7.433026859064466e+00
 7.269870514116920e-01	 1.836331894585544e+00	 7.041290900098486e+00
 1.084159323888447e+00	 1.658297356588509e+00	 1.020595959231647e+01
 1.049991706322540e+00	 1.680139571309368e+00	 1.009079371495254e+01
 1.015465197071938e+00	 1.701229554160579e+00	 9.906650281567215e+00
 9.806042232245756e-01	 1.721559444167045e+00	 9.662065968605969e+00
 9.454333871115334e-01	 1.741122417562612e+00	 9.365708915789618e+00
 9.099774124927966e-01	 1.759912688504607e+00	 9.026305457812372e+00
 8.742610912389879e-01	 1.777925506526964e+00	 8.652568624616134e+00
 8.383092307322371e-01	 1.795157150807177e+00	 8.253129047313939e+00
 8.021466022000041e-01	 1.811604921339064e+00	 7.836468858181579e+00
 7.657978901849745e-01	 1.827267127118923e+00	 7.410859118549575e+00
 7.292876433422564e-01	 1.842143071467048e+00	 6.984301248988851e+00
 1.087579384846024e+00	 1.663528578533549e+00	 1.027256735981070e+01
 1.053303982995660e+00	 1.685439696139397e+00	 1.016728427956032e+01
 1.018668557310514e+00	 1.706596208904524e+00	 9.988271511670437e+00
 9.836976119355786e-01	 1.726990231055807e+00	 9.743951137447763e+00
 9.484158268118111e-01	 1.746614917301015e+00	 9.442896902461438e+00
 9.128480036921276e-01	 1.765464463545602e+00	 9.093760659706815e+00
 8.770190126549415e-01	 1.783534104337806e+00	 8.705200489376592e+00
 8.409537393391054e-01	 1.800820107117508e+00	 8.285811138951233e+00
 8.046770331147501e-01	 1.817319763361156e+00	 7.844057379064848e+00
 7.682136563937766e-01	 1.833031376730649e+00	 7.388210816320745e+00
 7.315882352718411e-01	 1.847954248348551e+00	 6.926290644993872e+00
 1.090999445803085e+00	 1.668759800478590e+00	 1.034499742231942e+01
 1.056616259667989e+00	 1.690739820969425e+00	 1.024879206687864e+01
 1.021871917548077e+00	 1.711962863648470e+00	 1.007412753077070e+01
 9.867910006453979e-01	 1.732421017944569e+00	 9.829313298244610e+00
 9.513982665107844e-01	 1.752107417039417e+00	 9.522830633353852e+00
 9.157185948900844e-01	 1.771016238586598e+00	 9.163258726663187e+00
 8.797769340695013e-01	 1.789142702148648e+00	 8.759202427227564e+00
 8.435982479446109e-01	 1.806483063427840e+00	 8.319222210239909e+00
 8.072074640282126e-01	 1.823034605383248e+00	 7.851766982881612e+00
 7.706294226014232e-01	 1.838795626342375e+00	 7.365110276916654e+00
 7.338888272004465e-01	 1.853765425230055e+00	 6.867290317538937e+00
 1.094419506759630e+00	 1.673991022423631e+00	 1.042323891694504e+01
 1.059928536339529e+00	 1.696039945799453e+00	 1.033531168429668e+01
 1.025075277784627e+00	 1.717329518392415e+00	 1.016421814157757e+01
 9.898843893540332e-01	 1.737851804833332e+00	 9.918157168480885e+00
 9.543807062084537e-01	 1.757599916777820e+00	 9.605519455372129e+00
 9.185891860866674e-01	 1.776568013627593e+00	 9.234813345611638e+00
 8.825348554826680e-01	 1.794751299959490e+00	 8.814592172445694e+00
 8.462427565487531e-01	 1.812146019738171e+00	 8.353383747594103e+00
 8.097378949403913e-01	 1.828749447405340e+00	 7.859622611180331e+00
 7.730451888079141e-01	 1.844559875954101e+00	 7.341585598946851e+00
 7.361894191280726e-01	 1.859576602111558e+00	 6.807331223854218e+00
 7.131834998077382e-01	 1.801464833296524e+00	 7.360004545430396e+00
 6.773453321514072e-01	 1.815243661611245e+00	 7.204915437302544e+00
 6.413966262208445e-01	 1.828255074622592e+00	 6.974802316553456e+00
 6.053607167423782e-01	 1.840501196043703e+00	 6.628185112302689e+00
 5.692606293503408e-01	 1.851985039325666e+00	 6.202056745898286e+00
 5.331190412958158e-01	 1.862710481481908e+00	 5.752223134623557e+00
 4.969582442846516e-01	 1.872682235044607e+00	 5.288383283429461e+00
 4.608001095303144e-01	 1.881905818331420e+00	 5.234915072104872e+00
 4.246660550916136e-01	 1.890387524203362e+00	 5.254763496792866e+00
 3.885770155500051e-01	 1.898134387495910e+00	 5.205641534408129e+00
 3.525534140661327e-01	 1.905154151305217e+00	 5.088107826300767e+00
 7.154840917441793e-01	 1.807276010178027e+00	 7.309812227436039e+00
 6.795303170952004e-01	 1.821099286326586e+00	 7.111956484420240e+00
 6.434656475968770e-01	 1.834152671638440e+00	 6.841461226471208e+00
 6.073134932488481e-01	 1.846438296677414e+00	 6.462016261235663e+00
 5.710969539616871e-01	 1.857959184615408e+00	 6.001373653869586e+00
 5.348387801389002e-01	 1.868719224972345e+00	 5.521271091555656e+00
 4.985613353950658e-01	 1.878723145482121e+00	 5.260235130890330e+00
 4.622865614959522e-01	 1.887976482263419e+00	 5.323550455923123e+00
 4.260359455908815e-01	 1.896485548476807e+00	 5.320445713329764e+00
 3.898304897922183e-01	 1.904257401650780e+00	 5.250868502386464e+00
 3.536906831417707e-01	 1.911299809859224e+00	 5.115437723706892e+00
 7.177846836796407e-01	 1.813087187059531e+00	 7.258405616073487e+00
 6.817153020382142e-01	 1.826954911041928e+00	 7.018122830974715e+00
 6.455346689723309e-01	 1.840050268654288e+00	 6.707572917151190e+00
 6.092662697549404e-01	 1.852375397311125e+00	 6.295519756237015e+00
 5.729332785728569e-01	 1.863933329905151e+00	 5.800554657529323e+00
 5.365585189820097e-01	 1.874727968462782e+00	 5.290375594641625e+00
 5.001644265057066e-01	 1.884764055919635e+00	 5.375125901375402e+00
 4.637730134620175e-01	 1.894047146195417e+00	 5.413432472442915e+00
 4.274058360907779e-01	 1.902583572750251e+00	 5.387725069123746e+00
 3.910839640352607e-01	 1.910380415805650e+00	 5.298017664981453e+00
 3.548279522184382e-01	 1.917445468413230e+00	 5.144989000122106e+00
 7.200852756141227e-01	 1.818898363941034e+00	 7.205817667625325e+00
 6.839002869804489e-01	 1.832810535757269e+00	 6.923442068477096e+00
 6.476036903472060e-01	 1.845947865670136e+00	 6.573159789698505e+00
 6.112190462606555e-01	 1.858312497944836e+00	 6.128723157110421e+00
 5.747696031838505e-01	 1.869907475194893e+00	 5.599621387808907e+00
 5.382782578251445e-01	 1.880736711953220e+00	 5.416174834694445e+00
 5.017675176165737e-01	 1.890804966357149e+00	 5.490881848120065e+00
 4.652594654285104e-01	 1.900117810127416e+00	 5.504552064428175e+00
 4.287757265913029e-01	 1.908681597023695e+00	 5.456589613867876e+00
 3.923374382791323e-01	 1.916503429960519e+00	 5.347074330383846e+00
 3.559652212961349e-01	 1.923591126967236e+00	 5.176744374859485e+00
 7.223858675476252e-01	 1.824709540822538e+00	 7.152081038979494e+00
 6.860852719219046e-01	 1.838666160472611e+00	 6.827941547462062e+00
 6.496727117215030e-01	 1.851845462685984e+00	 6.438244060699049e+00
 6.131718227659927e-01	 1.864249598578548e+00	 5.961653893561929e+00
 5.766059277946679e-01	 1.875881620484635e+00	 5.453640938091626e+00
 5.399979966683043e-01	 1.886745455443657e+00	 5.559341826550870e+00
 5.033706087276673e-01	 1.896845876794663e+00	 5.607496977469988e+00
 4.667459173954313e-01	 1.906188474059414e+00	 5.596900240618229e+00
 4.301456170924566e-01	 1.914779621297139e+00	 5.527027506587944e+00
 3.935909125238332e-01	 1.922626444115389e+00	 5.398023957129038e+00
 3.571024903748610e-01	 1.929736785521243e+00	 5.210686756215247e+00
 7.246864594801484e-01	 1.830520717704041e+00	 7.097228092381912e+00
 6.882702568625807e-01	 1.844521785187952e+00	 6.731648381313233e+00
 6.517417330952211e-01	 1.857743059701832e+00	 6.302847765148252e+00
 6.151245992709528e-01	 1.870186699212259e+00	 5.794339267264652e+00
 5.784422524053089e-01	 1.881855765774378e+00	 5.625615828524574e+00
 5.417177355114892e-01	 1.892754198934094e+00	 5.702971692777735e+00
 5.049736998389875e-01	 1.902886787232177e+00	 5.724965315757054e+00
 4.682323693627796e-01	 1.912259137991413e+00	 5.690468074680453e+00
 4.315155075942388e-01	 1.920877645570583e+00	 5.599027013906953e+00
 3.948443867693633e-01	 1.928749458270259e+00	 5.450852151710959e+00
 3.582397594546164e-01	 1.935882444075250e+00	 5.246799238468784e+00
 7.269870514116920e-01	 1.836331894585544e+00	 7.041290900098486e+00
 6.904552418024776e-01	 1.850377409903293e+00	 6.634589450015357e+00
 6.538107544683609e-01	 1.863640656717680e+00	 6.166992759324391e+00
 6.170773757755350e-01	 1.876123799845970e+00	 5.696746391004913e+00
 5.802785770157739e-01	 1.887829911064120e+00	 5.797640361648985e+00
 5.434374743546992e-01	 1.898762942424531e+00	 5.847061529634986e+00
 5.065767909505342e-01	 1.908927697669692e+00	 5.843280908983328e+00
 4.697188213305556e-01	 1.918329801923412e+00	 5.785246704183135e+00
 4.328853980966498e-01	 1.926975669844027e+00	 5.672576508342233e+00
 3.960978610157225e-01	 1.934872472425128e+00	 5.505544666240721e+00
 3.593770285354013e-01	 1.942028102629256e+00	 5.285065098940205e+00
 7.292876433422564e-01	 1.842143071467048e+00	 6.984301248988851e+00
 6.926402267415954e-01	 1.856233034618636e+00	 6.536791403835833e+00
 6.558797758409219e-01	 1.869538253733528e+00	 6.030700723607694e+00
 6.190301522797400e-01	 1.882060900479681e+00	 5.898403478408631e+00
 5.821149016260625e-01	 1.893804056353862e+00	 5.969714749798928e+00
 5.451572131979345e-01	 1.904771685914969e+00	 5.991608407047773e+00
 5.081798820623071e-01	 1.914968608107205e+00	 5.962437822510453e+00
 4.712052732987594e-01	 1.924400465855410e+00	 5.881227329587109e+00
 4.342552885996893e-01	 1.933073694117472e+00	 5.747664466635781e+00
 3.973513352629112e-01	 1.940995486579998e+00	 5.562087396149998e+00
 3.605142976172154e-01	 1.948173761183262e+00	 5.325467795102748e+00
 7.315882352718411e-01	 1.847954248348551e+00	 6.926290644993872e+00
 6.948252116799341e-01	 1.862088659333976e+00	 6.438280666936529e+00
 6.579487972129046e-01	 1.875435850749376e+00	 5.920846390898186e+00
 6.209829287835672e-01	 1.887998001113393e+00	 6.099684490739222e+00
 5.839512262361748e-01	 1.899778201643604e+00	 6.141839132328824e+00
 5.468769520411948e-01	 1.910780429405406e+00	 6.136609369019991e+00
 5.097829731743068e-01	 1.921009518544719e+00	 6.082430140755480e+00
 4.726917252673908e-01	 1.930471129787409e+00	 5.978401213257451e+00
 4.356251791033576e-01	 1.939171718390916e+00	 5.824279468114873e+00
 3.986048095109289e-01	 1.947118500734868e+00	 5.620466377937383e+00
 3.616515667000588e-01	 1.954319419737269e+00	 5.367990961750844e+00
 7.338888272004465e-01	 1.853765425230055e+00	 6.867290317538937e+00
 6.970101966174933e-01	 1.867944284049318e+00	 6.339083440917663e+00
 6.600178185843085e-01	 1.881333447765224e+00	 6.146891366908511e+00
 6.229357052870170e-01	 1.893935101747104e+00	 6.300592676239612e+00
 5.857875508461109e-01	 1.905752346933347e+00	 6.314013576757178e+00
 5.485966908844803e-01	 1.916789172895843e+00	 6.282061434041079e+00
 5.113860642865328e-01	 1.927050428982233e+00	 6.203251966892133e+00
 4.741781772364501e-01	 1.936541793719408e+00	 6.076759678492980e+00
 4.369950696076544e-01	 1.945269742664360e+00	 5.902410193084856e+00
 3.998582837597759e-01	 1.953241514889738e+00	 5.680667786957515e+00
 3.627888357839316e-01	 1.960465078291275e+00	 5.412618408220227e+00
 7.361894191280726e-01	 1.859576602111558e+00	 6.807331223854218e+00
 6.991951815542736e-01	 1.873799908764660e+00	 6.239225708295578e+00
 6.620868399551343e-01	 1.887231044781072e+00	 6.372162230626867e+00
 6.248884817900895e-01	 1.899872202380815e+00	 6.501131164874215e+00
 5.876238754558710e-01	 1.911726492223089e+00	 6.486238079889173e+00
 5.503164297277909e-01	 1.922797916386281e+00	 6.427961595484280e+00
 5.129891553989854e-01	 1.933091339419748e+00	 6.324897422557854e+00
 4.756646292059370e-01	 1.942612457651407e+00	 6.176294108573764e+00
 4.383649601125800e-01	 1.951367766937804e+00	 5.982045421250707e+00
 4.011117580094523e-01	 1.959364529044608e+00	 5.742677935251180e+00
 3.639261048688338e-01	 1.966610736845282e+00	 5.459334115660852e+00
 3.525534140661327e-01	 1.905154151305217e+00	 5.088107826300767e+00
 3.166151368409489e-01	 1.911455232310073e+00	 4.927780301964320e+00
 2.807815099915490e-01	 1.917046685307169e+00	 4.728946502757388e+00
 2.450712788396212e-01	 1.921938167134141e+00	 4.494107751712230e+00
 2.095025895978829e-01	 1.926139900150070e+00	 4.226241643883156e+00
 1.740929734263712e-01	 1.929662635437016e+00	 3.928770689840299e+00
 1.388593328203565e-01	 1.932517615880140e+00	 3.605528889344717e+00
 1.038179302810835e-01	 1.934716539276743e+00	 3.260726611595935e+00
 6.898437921114338e-02	 1.936271521616793e+00	 2.898914154157969e+00
 3.437363696779339e-02	 1.937195060669269e+00	 2.524944344388030e+00
 0.000000000000000e+00	 1.937500000000000e+00	 2.143934535315918e+00
 3.536906831417707e-01	 1.911299809859224e+00	 5.115437723706892e+00
 3.176364759896169e-01	 1.917621216931563e+00	 4.942086351069027e+00
 2.816872567952530e-01	 1.923230706873567e+00	 4.733825469850750e+00
 2.458618313491441e-01	 1.928137967673961e+00	 4.492969887866501e+00
 2.101784044001755e-01	 1.932353254667178e+00	 4.222309774147641e+00
 1.746545636605106e-01	 1.935887353616187e+00	 3.925080053516349e+00
 1.393072661495950e-01	 1.938751543673519e+00	 3.604927683402797e+00
 1.041528268283523e-01	 1.940957560371305e+00	 3.265877188350934e+00
 6.920690946518510e-02	 1.942517558783352e+00	 2.912294823836529e+00
 3.448451966688747e-02	 1.943444076994022e+00	 2.548851733167790e+00
 0.000000000000000e+00	 1.943750000000000e+00	 2.180486449755342e+00
 3.548279522184382e-01	 1.917445468413230e+00	 5.144989000122106e+00
 3.186578151394820e-01	 1.923787201553052e+00	 4.958242830465986e+00
 2.825930036002586e-01	 1.929414728439965e+00	 4.740154814432014e+00
 2.466523838600113e-01	 1.934337768213781e+00	 4.492854196409872e+00
 2.108542192037936e-01	 1.938566609184286e+00	 4.218944731610559e+00
 1.752161538958969e-01	 1.942112071795357e+00	 3.921474826423313e+00
 1.397551994799434e-01	 1.944985471466897e+00	 3.603905512973305e+00
 1.044877233765363e-01	 1.947198581465867e+00	 3.270076632418024e+00
 6.942943971989146e-02	 1.948763595949912e+00	 2.924171598159671e+00
 3.459540236634062e-02	 1.949693093318776e+00	 2.570681102731644e+00
 0.000000000000000e+00	 1.950000000000000e+00	 2.214366121013215e+00
 3.559652212961349e-01	 1.923591126967236e+00	 5.176744374859485e+00
 3.196791542905443e-01	 1.929953186174542e+00	 4.976236195888692e+00
 2.834987504065660e-01	 1.935598750006363e+00	 4.747924908135327e+00
 2.474429363722227e-01	 1.940537568753602e+00	 4.493755134049437e+00
 2.115300340087374e-01	 1.944779963701394e+00	 4.216145216904650e+00
 1.757777441325304e-01	 1.948336789974527e+00	 3.917958101675933e+00
 1.402031328114017e-01	 1.951219399260276e+00	 3.602470001966956e+00
 1.048226199256356e-01	 1.953439602560430e+00	 3.273337226655560e+00
 6.965196997526236e-02	 1.955009633116471e+00	 2.934561537034549e+00
 3.470628506615281e-02	 1.955942109643528e+00	 2.590454398218869e+00
 0.000000000000000e+00	 1.956250000000000e+00	 2.245600477885449e+00
 3.571024903748610e-01	 1.929736785521243e+00	 5.210686756215247e+00
 3.207004934428038e-01	 1.936119170796031e+00	 4.996053049671660e+00
 2.844044972141750e-01	 1.941782771572761e+00	 4.757126224073824e+00
 2.482334888857781e-01	 1.946737369293422e+00	 4.495667211230638e+00
 2.122058488150067e-01	 1.950993318218502e+00	 4.213909934168452e+00
 1.763393343704108e-01	 1.954561508153698e+00	 3.914532923297152e+00
 1.406510661439699e-01	 1.957453327053655e+00	 3.600628670366602e+00
 1.051575164756502e-01	 1.959680623654992e+00	 3.275671093051993e+00
 6.987450023129788e-02	 1.961255670283030e+00	 2.943481480577970e+00
 3.481716776632405e-02	 1.962191125968281e+00	 2.608193284211075e+00
 0.000000000000000e+00	 1.962500000000000e+00	 2.274216106126169e+00
 3.582397594546164e-01	 1.935882444075250e+00	 5.246799238468784e+00
 3.217218325962605e-01	 1.942285155417521e+00	 5.017680138423787e+00
 2.853102440230860e-01	 1.947966793139159e+00	 4.767749335228222e+00
 2.490240414006778e-01	 1.952937169833242e+00	 4.498584991284856e+00
 2.128816636226015e-01	 1.957206672735610e+00	 4.212237590991164e+00
 1.769009246095384e-01	 1.960786226332869e+00	 3.911202286997024e+00
 1.410989994776479e-01	 1.963687254847033e+00	 3.598388935878398e+00
 1.054924130265801e-01	 1.965921644749554e+00	 3.277090195279549e+00
 7.009703048799798e-02	 1.967501707449589e+00	 2.950948052605832e+00
 3.492805046685434e-02	 1.968440142293034e+00	 2.623919149186343e+00
 0.000000000000000e+00	 1.968750000000000e+00	 2.300239253892860e+00
 3.593770285354013e-01	 1.942028102629256e+00	 5.285065098940205e+00
 3.227431717509144e-01	 1.948451140039011e+00	 5.041104350744807e+00
 2.862159908332987e-01	 1.954150814705557e+00	 4.779784912867292e+00
 2.498145939169217e-01	 1.959136970373063e+00	 4.502503089592204e+00
 2.135574784315219e-01	 1.963420027252718e+00	 4.211126898357824e+00
 1.774625148499129e-01	 1.967010944512039e+00	 3.907969140937326e+00
 1.415469328124358e-01	 1.969921182640412e+00	 3.595758115548453e+00
 1.058273095784254e-01	 1.972162665844117e+00	 3.277606341198845e+00
 7.031956074536268e-02	 1.973747744616148e+00	 2.956977664054942e+00
 3.503893316774369e-02	 1.974689158617787e+00	 2.637653109887297e+00
 0.000000000000000e+00	 1.975000000000000e+00	 2.323695837087929e+00
 3.605142976172154e-01	 1.948173761183262e+00	 5.325467795102748e+00
 3.237645109067654e-01	 1.954617124660500e+00	 5.066312714986504e+00
 2.871217376448132e-01	 1.960334836271955e+00	 4.793223724997122e+00
 2.506051464345096e-01	 1.965336770912883e+00	 4.507416172760776e+00
 2.142332932417677e-01	 1.969633381769826e+00	 4.210576570595520e+00
 1.780241050915345e-01	 1.973235662691209e+00	 3.904836386481211e+00
 1.419948661483336e-01	 1.976155110433791e+00	 3.592743427351942e+00
 1.061622061311859e-01	 1.978403686938679e+00	 3.277231185316837e+00
 7.054209100339198e-02	 1.979993781782708e+00	 2.961586516341003e+00
 3.514981586899208e-02	 1.980938174942540e+00	 2.649416015607328e+00
 0.000000000000000e+00	 1.981250000000000e+00	 2.344611444599507e+00
 3.616515667000588e-01	 1.954319419737269e+00	 5.367990961750844e+00
 3.247858500638137e-01	 1.960783109281990e+00	 5.093292397054411e+00
 2.880274844576294e-01	 1.966518857838353e+00	 4.808056634840481e+00
 2.513956989534418e-01	 1.971536571452704e+00	 4.513318957821098e+00
 2.149091080533392e-01	 1.975846736286934e+00	 4.210585325321708e+00
 1.785856953344031e-01	 1.979460380870380e+00	 3.901806878929849e+00
 1.424427994853412e-01	 1.982389038227170e+00	 3.589351991750181e+00
 1.064971026848617e-01	 1.984644708033241e+00	 3.275976231198229e+00
 7.076462126208585e-02	 1.986239818949267e+00	 2.964790604653397e+00
 3.526069857059952e-02	 1.987187191267292e+00	 2.659228452395778e+00
 0.000000000000000e+00	 1.987500000000000e+00	 2.363011343442989e+00
 3.627888357839316e-01	 1.960465078291275e+00	 5.412618408220227e+00
 3.258071892220591e-01	 1.966949093903479e+00	 5.122030698252850e+00
 2.889332312717475e-01	 1.972702879404751e+00	 4.824274599343876e+00
 2.521862514737182e-01	 1.977736371992524e+00	 4.520206211435869e+00
 2.155849228662362e-01	 1.982060090804042e+00	 4.211151883391080e+00
 1.791472855785187e-01	 1.985685099049550e+00	 3.898883428243320e+00
 1.428907328234588e-01	 1.988622966020549e+00	 3.585590833218981e+00
 1.068319992394529e-01	 1.990885729127804e+00	 3.273852833830520e+00
 7.098715152144433e-02	 1.992485856115826e+00	 2.966605721187094e+00
 3.537158127256602e-02	 1.993436207592045e+00	 2.667110747184059e+00
 0.000000000000000e+00	 1.993750000000000e+00	 2.378920483806275e+00
 3.639261048688338e-01	 1.966610736845282e+00	 5.459334115660852e+00
 3.268285283815017e-01	 1.973115078524969e+00	 5.152515053168602e+00
 2.898389780871672e-01	 1.978886900971149e+00	 4.841868667713818e+00
 2.529768039953388e-01	 1.983936172532344e+00	 4.528072749124755e+00
 2.162607376804587e-01	 1.988273445321150e+00	 4.212274968846940e+00
 1.797088758238815e-01	 1.991909817228721e+00	 3.896068799749830e+00
 1.433386661626862e-01	 1.994856893813928e+00	 3.581466881748240e+00
 1.071668957949593e-01	 1.997126750222366e+00	 3.270872201946359e+00
 7.120968178146743e-02	 1.998731893282386e+00	 2.967047458314410e+00
 3.548246397489156e-02	 1.999685223916798e+00	 2.673082971834204e+00
 0.000000000000000e+00	 2.000000000000000e+00	 2.392363504000015e+00
