x	y	stress_xx
 1.0000000000e+00	 0.0000000000e+00	 1.0482889988e-01
 9.9984261196e-01	 1.7741231987e-02	 1.2785782157e-01
 9.9936594664e-01	 3.5604840891e-02	 1.6336851690e-01
 9.9856337511e-01	 5.3583447897e-02	 2.1203698706e-01
 9.9742844690e-01	 7.1669333081e-02	 2.7444276371e-01
 9.9595490861e-01	 8.9854437912e-02	 3.5105950613e-01
 9.9413672265e-01	 1.0813036884e-01	 4.4224581777e-01
 9.9196808625e-01	 1.2648840200e-01	 5.4823637664e-01
 9.8944345047e-01	 1.4491948904e-01	 6.6913347755e-01
 9.8655753924e-01	 1.6341426419e-01	 8.0489908712e-01
 9.8330536840e-01	 1.8196305243e-01	 9.5534751398e-01
 1.0062500000e+00	 0.0000000000e+00	 2.1134502150e-01
 1.0060916283e+00	 1.7852114686e-02	 2.3535371387e-01
 1.0056119838e+00	 3.5827371145e-02	 2.7080877735e-01
 1.0048043962e+00	 5.3918344445e-02	 3.1834901748e-01
 1.0036623747e+00	 7.2117266410e-02	 3.7851759415e-01
 1.0021796268e+00	 9.0416028146e-02	 4.5175275650e-01
 1.0003500772e+00	 1.0880618364e-01	 5.3837880396e-01
 9.9816788679e-01	 1.2727895451e-01	 6.3859736774e-01
 9.9562747204e-01	 1.4582523585e-01	 7.5247911108e-01
 9.9272352386e-01	 1.6443560334e-01	 8.7995594862e-01
 9.8945102695e-01	 1.8310032151e-01	 1.0208138874e+00
 1.0125000000e+00	 0.0000000000e+00	 3.2562673927e-01
 1.0123406446e+00	 1.7962997386e-02	 3.5039474237e-01
 1.0118580210e+00	 3.6049901399e-02	 3.8559763751e-01
 1.0110454173e+00	 5.4253240992e-02	 4.3183790392e-01
 1.0098963025e+00	 7.2565199740e-02	 4.8962315311e-01
 1.0084043450e+00	 9.0977618380e-02	 5.5935699622e-01
 1.0065634317e+00	 1.0948199844e-01	 6.4133014416e-01
 1.0043676873e+00	 1.2806950702e-01	 7.3571183529e-01
 1.0018114936e+00	 1.4673098265e-01	 8.4254168829e-01
 9.9888950849e-01	 1.6545694249e-01	 9.6172208110e-01
 9.9559668551e-01	 1.8423759059e-01	 1.0930111579e+00
 1.0187500000e+00	 0.0000000000e+00	 4.4754598714e-01
 1.0185896609e+00	 1.8073880085e-02	 4.7285531104e-01
 1.0181040581e+00	 3.6272431653e-02	 5.0761171790e-01
 1.0172864384e+00	 5.4588137540e-02	 5.5238222150e-01
 1.0161302303e+00	 7.3013133070e-02	 6.0763969999e-01
 1.0146290631e+00	 9.1539208615e-02	 6.7375389037e-01
 1.0127767862e+00	 1.1015781325e-01	 7.5098262274e-01
 1.0105674879e+00	 1.2886005953e-01	 8.3946338873e-01
 1.0079955152e+00	 1.4763672946e-01	 9.3920534216e-01
 1.0050554931e+00	 1.6647828164e-01	 1.0500818325e+00
 1.0017423441e+00	 1.8537485966e-01	 1.1718235729e+00
 1.0250000000e+00	 0.0000000000e+00	 5.7697782260e-01
 1.0248386773e+00	 1.8184762785e-02	 6.0261287518e-01
 1.0243500953e+00	 3.6494961908e-02	 6.3673062586e-01
 1.0235274595e+00	 5.4923034088e-02	 6.7986347553e-01
 1.0223641581e+00	 7.3461066401e-02	 7.3245037584e-01
 1.0208537813e+00	 9.2100798851e-02	 7.9482794569e-01
 1.0189901407e+00	 1.1083362805e-01	 8.6722183428e-01
 1.0167672884e+00	 1.2965061204e-01	 9.4973842524e-01
 1.0141795367e+00	 1.4854247626e-01	 1.0423569800e+00
 1.0112214777e+00	 1.6749962079e-01	 1.1449223208e+00
 1.0078880026e+00	 1.8651212874e-01	 1.2571381555e+00
 1.0312500000e+00	 0.0000000000e+00	 7.1380033205e-01
 1.0310876936e+00	 1.8295645484e-02	 7.3954784899e-01
 1.0305961325e+00	 3.6717492163e-02	 7.7283686500e-01
 1.0297684806e+00	 5.5257930637e-02	 8.1416601263e-01
 1.0285980859e+00	 7.3908999732e-02	 8.6394111607e-01
 1.0270784995e+00	 9.2662389087e-02	 9.2246642443e-01
 1.0252034952e+00	 1.1150944286e-01	 9.8993609844e-01
 1.0229670890e+00	 1.3044116455e-01	 1.0664260452e+00
 1.0203635583e+00	 1.4944822307e-01	 1.1518861993e+00
 1.0173874624e+00	 1.6852095994e-01	 1.2461333503e+00
 1.0140336612e+00	 1.8764939782e-01	 1.3488446199e+00
 1.0375000000e+00	 0.0000000000e+00	 8.5789453959e-01
 1.0373367099e+00	 1.8406528184e-02	 8.8354351641e-01
 1.0368421696e+00	 3.6940022419e-02	 9.1581574796e-01
 1.0360095017e+00	 5.5592827187e-02	 9.5517693522e-01
 1.0348320137e+00	 7.4356933063e-02	 1.0020005663e+00
 1.0333032177e+00	 9.3223979324e-02	 1.0565592614e+00
 1.0314168498e+00	 1.1218525766e-01	 1.1190163779e+00
 1.0291668895e+00	 1.3123171706e-01	 1.1894179709e+00
 1.0265475799e+00	 1.5035396987e-01	 1.2676852067e+00
 1.0235534470e+00	 1.6954229909e-01	 1.3536073306e+00
 1.0201793197e+00	 1.8878666689e-01	 1.4468352906e+00
 1.0437500000e+00	 0.0000000000e+00	 1.0091443190e+00
 1.0435857262e+00	 1.8517410884e-02	 1.0344859452e+00
 1.0430882068e+00	 3.7162552675e-02	 1.0655553123e+00
 1.0422505228e+00	 5.5927723736e-02	 1.1027860190e+00
 1.0410659415e+00	 7.4804866396e-02	 1.1465200012e+00
 1.0395279359e+00	 9.3785569562e-02	 1.1969989838e+00
 1.0376302043e+00	 1.1286107247e-01	 1.2543561992e+00
 1.0353666900e+00	 1.3202226958e-01	 1.3186084680e+00
 1.0327316014e+00	 1.5125971668e-01	 1.3896487402e+00
 1.0297194316e+00	 1.7056363824e-01	 1.4672391985e+00
 1.0263249783e+00	 1.8992393597e-01	 1.5510050245e+00
 1.0500000000e+00	 0.0000000000e+00	 1.1674363090e+00
 1.0498347426e+00	 1.8628293585e-02	 1.1922639042e+00
 1.0493342440e+00	 3.7385082931e-02	 1.2219462395e+00
 1.0484915439e+00	 5.6262620287e-02	 1.2568856332e+00
 1.0472998693e+00	 7.5252799729e-02	 1.2973932461e+00
 1.0457526540e+00	 9.4347159800e-02	 1.3436806344e+00
 1.0438435588e+00	 1.1353688727e-01	 1.3958515765e+00
 1.0415664906e+00	 1.3281282209e-01	 1.4538942695e+00
 1.0389156230e+00	 1.5216546349e-01	 1.5176739932e+00
 1.0358854162e+00	 1.7158497739e-01	 1.5869263431e+00
 1.0324706368e+00	 1.9106120505e-01	 1.6612511350e+00
 1.0562500000e+00	 0.0000000000e+00	 1.3326598315e+00
 1.0560837589e+00	 1.8739176285e-02	 1.3567687833e+00
 1.0555802811e+00	 3.7607613188e-02	 1.3848817766e+00
 1.0547325650e+00	 5.6597516837e-02	 1.4173706644e+00
 1.0535337970e+00	 7.5700733062e-02	 1.4545166019e+00
 1.0519773722e+00	 9.4908750039e-02	 1.4965016967e+00
 1.0500569133e+00	 1.1421270208e-01	 1.5434009378e+00
 1.0477662911e+00	 1.3360337460e-01	 1.5951745035e+00
 1.0450996446e+00	 1.5307121030e-01	 1.6516605423e+00
 1.0420514008e+00	 1.7260631655e-01	 1.7125685327e+00
 1.0386162954e+00	 1.9219847413e-01	 1.7774733198e+00
 1.0625000000e+00	 0.0000000000e+00	 1.5047068124e+00
 1.0623327752e+00	 1.8850058986e-02	 1.5278945161e+00
 1.0618263183e+00	 3.7830143444e-02	 1.5542576608e+00
 1.0609735861e+00	 5.6932413388e-02	 1.5841384417e+00
 1.0597677248e+00	 7.6148666396e-02	 1.6177887720e+00
 1.0582020904e+00	 9.5470340278e-02	 1.6553620234e+00
 1.0562702678e+00	 1.1488851689e-01	 1.6969050543e+00
 1.0539660917e+00	 1.3439392712e-01	 1.7423506219e+00
 1.0512836661e+00	 1.5397695711e-01	 1.7915102773e+00
 1.0482173855e+00	 1.7362765570e-01	 1.8440678454e+00
 1.0447619539e+00	 1.9333574321e-01	 1.8995735904e+00
 9.8330536840e-01	 1.8196305243e-01	 9.5534751398e-01
 9.7968226449e-01	 2.0055587900e-01	 1.1723370269e+00
 9.7568388344e-01	 2.1918248006e-01	 1.3945119493e+00
 9.7130622879e-01	 2.3783231460e-01	 1.6211090167e+00
 9.6654566967e-01	 2.5649457770e-01	 1.8512220039e+00
 9.6139895816e-01	 2.7515821486e-01	 2.0838001424e+00
 9.5586324607e-01	 2.9381193773e-01	 2.3176476446e+00
 9.4993610115e-01	 3.1244424090e-01	 2.5514244040e+00
 9.4361552236e-01	 3.3104341998e-01	 2.7836479280e+00
 9.3689995435e-01	 3.4959759078e-01	 3.0126965524e+00
 9.2978830103e-01	 3.6809470956e-01	 3.2368139740e+00
 9.8945102695e-01	 1.8310032151e-01	 1.0208138874e+00
 9.8580527865e-01	 2.0180935325e-01	 1.2275199108e+00
 9.8178190771e-01	 2.2055237056e-01	 1.4386068883e+00
 9.7737689272e-01	 2.3931876657e-01	 1.6533292685e+00
 9.7258658011e-01	 2.5809766881e-01	 1.8708004179e+00
 9.6740770165e-01	 2.7687795371e-01	 2.0899910566e+00
 9.6183739136e-01	 2.9564826234e-01	 2.3097287991e+00
 9.5587320179e-01	 3.1439701740e-01	 2.5286988715e+00
 9.4951311937e-01	 3.3311244135e-01	 2.7454460611e+00
 9.4275557907e-01	 3.5178257572e-01	 2.9583779473e+00
 9.3559947791e-01	 3.7039530150e-01	 3.1657694501e+00
 9.9559668551e-01	 1.8423759059e-01	 1.0930111579e+00
 9.9192829280e-01	 2.0306282749e-01	 1.2896621022e+00
 9.8787993198e-01	 2.2192226105e-01	 1.4899138988e+00
 9.8344755665e-01	 2.4080521853e-01	 1.6930385060e+00
 9.7862749055e-01	 2.5970075992e-01	 1.8981685909e+00
 9.7341644514e-01	 2.7859769255e-01	 2.1042959793e+00
 9.6781153665e-01	 2.9748458695e-01	 2.3102712132e+00
 9.6181030242e-01	 3.1634979391e-01	 2.5148042835e+00
 9.5541071639e-01	 3.3518146273e-01	 2.7164665962e+00
 9.4861120378e-01	 3.5396756067e-01	 2.9136942198e+00
 9.4141065479e-01	 3.7269589344e-01	 3.1047924507e+00
 1.0017423441e+00	 1.8537485966e-01	 1.1718235729e+00
 9.9805130696e-01	 2.0431630173e-01	 1.3586441666e+00
 9.9397795626e-01	 2.2329215155e-01	 1.5483096388e+00
 9.8951822059e-01	 2.4229167050e-01	 1.7401092570e+00
 9.8466840099e-01	 2.6130385103e-01	 1.9331946987e+00
 9.7942518863e-01	 2.8031743139e-01	 2.1265785156e+00
 9.7378568194e-01	 2.9932091156e-01	 2.3191337052e+00
 9.6774740306e-01	 3.1830257042e-01	 2.5095944588e+00
 9.6130831341e-01	 3.3725048411e-01	 2.6965581435e+00
 9.5446682850e-01	 3.5615254561e-01	 2.8784885667e+00
 9.4722183168e-01	 3.7499648537e-01	 3.0537205589e+00
 1.0078880026e+00	 1.8651212874e-01	 1.2571381555e+00
 1.0041743211e+00	 2.0556977598e-01	 1.4343495391e+00
 1.0000759805e+00	 2.2466204205e-01	 1.6136737382e+00
 9.9558888452e-01	 2.4377812247e-01	 1.7944171297e+00
 9.9070931142e-01	 2.6290694214e-01	 1.9757501138e+00
 9.8543393212e-01	 2.8203717024e-01	 2.1567055903e+00
 9.7975982723e-01	 3.0115723617e-01	 2.3361785432e+00
 9.7368450369e-01	 3.2025534692e-01	 2.5129268028e+00
 9.6720591042e-01	 3.3931950548e-01	 2.6855730435e+00
 9.6032245322e-01	 3.5833753055e-01	 2.8526080652e+00
 9.5303300856e-01	 3.7729707731e-01	 3.0123953949e+00
 1.0140336612e+00	 1.8764939782e-01	 1.3488446199e+00
 1.0102973353e+00	 2.0682325022e-01	 1.5166644380e+00
 1.0061740048e+00	 2.2603193256e-01	 1.6858887084e+00
 1.0016595485e+00	 2.4526457443e-01	 1.8558407194e+00
 9.9675022186e-01	 2.6451003325e-01	 2.0257093083e+00
 9.9144267561e-01	 2.8375690908e-01	 2.1945473473e+00
 9.8573397253e-01	 3.0299356079e-01	 2.3612713405e+00
 9.7962160433e-01	 3.2220812343e-01	 2.5246621990e+00
 9.7310350744e-01	 3.4138852686e-01	 2.6833672539e+00
 9.6617807793e-01	 3.6052251550e-01	 2.8359035553e+00
 9.5884418544e-01	 3.7959766925e-01	 2.9806624929e+00
 1.0201793197e+00	 1.8878666689e-01	 1.4468352906e+00
 1.0164203494e+00	 2.0807672446e-01	 1.6054777805e+00
 1.0122720291e+00	 2.2740182306e-01	 1.7648398555e+00
 1.0077302124e+00	 2.4675102640e-01	 1.9242615188e+00
 1.0027911323e+00	 2.6611312436e-01	 2.0829497606e+00
 9.9745141910e-01	 2.8547664792e-01	 2.2399770526e+00
 9.9170811782e-01	 3.0482988540e-01	 2.3942809549e+00
 9.8555870496e-01	 3.2416089994e-01	 2.5446649040e+00
 9.7900110446e-01	 3.4345754824e-01	 2.6898002406e+00
 9.7203370265e-01	 3.6270750044e-01	 2.8282295263e+00
 9.6465536233e-01	 3.8189826119e-01	 2.9583711839e+00
 1.0263249783e+00	 1.8992393597e-01	 1.5510050245e+00
 1.0225433636e+00	 2.0933019871e-01	 1.7006811023e+00
 1.0183700534e+00	 2.2877171356e-01	 1.8504151968e+00
 1.0138008763e+00	 2.4823747837e-01	 1.9995638310e+00
 1.0088320427e+00	 2.6771621548e-01	 2.1473518657e+00
 1.0034601626e+00	 2.8719638677e-01	 2.2928710009e+00
 9.9768226311e-01	 3.0666621001e-01	 2.4350793914e+00
 9.9149580560e-01	 3.2611367644e-01	 2.5728024466e+00
 9.8489870148e-01	 3.4552656961e-01	 2.7047348729e+00
 9.7788932737e-01	 3.6489248539e-01	 2.8294440078e+00
 9.7046653921e-01	 3.8419885312e-01	 2.9453744818e+00
 1.0324706368e+00	 1.9106120505e-01	 1.6612511350e+00
 1.0286663777e+00	 2.1058367295e-01	 1.8021684793e+00
 1.0244680776e+00	 2.3014160406e-01	 1.9425053799e+00
 1.0198715402e+00	 2.4972393033e-01	 2.0816346857e+00
 1.0148729532e+00	 2.6931930659e-01	 2.2187988478e+00
 1.0094689061e+00	 2.8891612561e-01	 2.3531084254e+00
 1.0036564084e+00	 3.0850253462e-01	 2.4835417089e+00
 9.9743290623e-01	 3.2806645295e-01	 2.6089455306e+00
 9.9079629849e-01	 3.4759559099e-01	 2.7280373217e+00
 9.8374495209e-01	 3.6707747033e-01	 2.8394084641e+00
 9.7627771610e-01	 3.8649944506e-01	 2.9415289737e+00
 1.0386162954e+00	 1.9219847413e-01	 1.7774733198e+00
 1.0347893919e+00	 2.1183714720e-01	 1.9098364528e+00
 1.0305661019e+00	 2.3151149456e-01	 2.0410036049e+00
 1.0259422042e+00	 2.5121038230e-01	 2.1703637589e+00
 1.0209138636e+00	 2.7092239770e-01	 2.2971766772e+00
 1.0154776496e+00	 2.9063586446e-01	 2.4205714109e+00
 1.0096305537e+00	 3.1033885923e-01	 2.5395459293e+00
 1.0033700069e+00	 3.3001922946e-01	 2.6529679405e+00
 9.9669389551e-01	 3.4966461237e-01	 2.7595769624e+00
 9.8960057681e-01	 3.6926245528e-01	 2.8579876927e+00
 9.8208889298e-01	 3.8880003700e-01	 2.9466947142e+00
 1.0447619539e+00	 1.9333574321e-01	 1.8995735904e+00
 1.0409124060e+00	 2.1309062144e-01	 2.0235839566e+00
 1.0366641262e+00	 2.3288138506e-01	 2.1458055497e+00
 1.0320128681e+00	 2.5269683427e-01	 2.2656432950e+00
 1.0269547741e+00	 2.7252548881e-01	 2.3823739891e+00
 1.0214863931e+00	 2.9235560330e-01	 2.4951448098e+00
 1.0156046990e+00	 3.1217518385e-01	 2.6029729508e+00
 1.0093071075e+00	 3.3197200596e-01	 2.7047464512e+00
 1.0025914925e+00	 3.5173363374e-01	 2.7992262804e+00
 9.9545620153e-01	 3.7144744022e-01	 2.8850497262e+00
 9.8790006987e-01	 3.9110062893e-01	 2.9607351236e+00
 9.2978830103e-01	 3.6809470956e-01	 3.2368139740e+00
 9.2227993796e-01	 3.8652259440e-01	 3.4751860075e+00
 9.1437472369e-01	 4.0486894747e-01	 3.7091122595e+00
 9.0607300986e-01	 4.2312137827e-01	 3.9382187478e+00
 8.9737564997e-01	 4.4126742774e-01	 4.1620355867e+00
 8.8828400681e-01	 4.5929459304e-01	 4.3800008432e+00
 8.7879995838e-01	 4.7719035310e-01	 4.5914654411e+00
 8.6892590241e-01	 4.9494219468e-01	 4.7956990889e+00
 8.5866475920e-01	 5.1253763889e-01	 4.9918971949e+00
 8.4801997290e-01	 5.2996426817e-01	 5.1791887189e+00
 8.3699551121e-01	 5.4720975338e-01	 5.3566448971e+00
 9.3559947791e-01	 3.7039530150e-01	 3.1657694501e+00
 9.2804418757e-01	 3.8893836062e-01	 3.3953465105e+00
 9.2008956571e-01	 4.0739937839e-01	 3.6196279551e+00
 9.1173596617e-01	 4.2576588689e-01	 3.8381339950e+00
 9.0298424778e-01	 4.4402534917e-01	 4.0502892033e+00
 8.9383578185e-01	 4.6216518425e-01	 4.2554269334e+00
 8.8429245812e-01	 4.8017279281e-01	 4.4527948025e+00
 8.7435668930e-01	 4.9803558339e-01	 4.6415612158e+00
 8.6403141394e-01	 5.1574099914e-01	 4.8208228880e+00
 8.5332009773e-01	 5.3327654485e-01	 4.9896133078e+00
 8.4222673316e-01	 5.5062981434e-01	 5.1469120777e+00
 9.4141065479e-01	 3.7269589344e-01	 3.1047924507e+00
 9.3380843718e-01	 3.9135412684e-01	 3.3252839983e+00
 9.2580440773e-01	 4.0992980932e-01	 3.5396491058e+00
 9.1739892248e-01	 4.2841039551e-01	 3.7473024290e+00
 9.0859284559e-01	 4.4678327059e-01	 3.9475631865e+00
 8.9938755689e-01	 4.6503577546e-01	 4.1396601383e+00
 8.8978495786e-01	 4.8315523252e-01	 4.3227376509e+00
 8.7978747619e-01	 5.0112897211e-01	 4.4958628159e+00
 8.6939806868e-01	 5.1894435938e-01	 4.6580335791e+00
 8.5862022256e-01	 5.3658882152e-01	 4.8081878194e+00
 8.4745795510e-01	 5.5404987529e-01	 4.9452133041e+00
 9.4722183168e-01	 3.7499648537e-01	 3.0537205589e+00
 9.3957268679e-01	 3.9376989306e-01	 3.2648439092e+00
 9.3151924976e-01	 4.1246024024e-01	 3.4690288006e+00
 9.2306187879e-01	 4.3105490412e-01	 3.6655845657e+00
 9.1420144341e-01	 4.4954119202e-01	 3.8537252357e+00
 9.0493933193e-01	 4.6790636667e-01	 4.0325750796e+00
 8.9527745760e-01	 4.8613767223e-01	 4.2011752493e+00
 8.8521826308e-01	 5.0422236083e-01	 4.3584914942e+00
 8.7476472343e-01	 5.2214771962e-01	 4.5034228984e+00
 8.6392034739e-01	 5.3990109820e-01	 4.6348115741e+00
 8.5268917705e-01	 5.5746993625e-01	 4.7514532358e+00
 9.5303300856e-01	 3.7729707731e-01	 3.0123953949e+00
 9.4533693641e-01	 3.9618565927e-01	 3.2138755476e+00
 9.3723409178e-01	 4.1499067117e-01	 3.4076238302e+00
 9.2872483510e-01	 4.3369941274e-01	 3.5928444648e+00
 9.1981004122e-01	 4.5229911344e-01	 3.7686464438e+00
 9.1049110698e-01	 4.7077695788e-01	 3.9340496286e+00
 9.0076995734e-01	 4.8912011194e-01	 4.0879919744e+00
 8.9064904997e-01	 5.0731574955e-01	 4.2293378421e+00
 8.8013137817e-01	 5.2535107987e-01	 4.3568873428e+00
 8.6922047222e-01	 5.4321337487e-01	 4.4693866489e+00
 8.5792039899e-01	 5.6088999721e-01	 4.5655391868e+00
 9.5884418544e-01	 3.7959766925e-01	 2.9806624929e+00
 9.5110118602e-01	 3.9860142549e-01	 3.1722319671e+00
 9.4294893380e-01	 4.1752110209e-01	 3.3552945748e+00
 9.3438779142e-01	 4.3634392136e-01	 3.5289496226e+00
 9.2541863903e-01	 4.5505703487e-01	 3.6922011940e+00
 9.1604288202e-01	 4.7364754909e-01	 3.8439648079e+00
 9.0626245708e-01	 4.9210255165e-01	 3.9830752230e+00
 8.9607983686e-01	 5.1040913827e-01	 4.1082953467e+00
 8.8549803292e-01	 5.2855444011e-01	 4.2183261897e+00
 8.7452059705e-01	 5.4652565155e-01	 4.3118177936e+00
 8.6315162094e-01	 5.6431005817e-01	 4.3873810457e+00
 9.6465536233e-01	 3.8189826119e-01	 2.9583711839e+00
 9.5686543564e-01	 4.0101719171e-01	 3.1397698571e+00
 9.4866377583e-01	 4.2005153302e-01	 3.3119048961e+00
 9.4005074773e-01	 4.3898842998e-01	 3.4737708684e+00
 9.3102723685e-01	 4.5781495630e-01	 3.6242670607e+00
 9.2159465706e-01	 4.7651814030e-01	 3.7622046964e+00
 9.1175495683e-01	 4.9508499136e-01	 3.8863153202e+00
 9.0151062376e-01	 5.1350252699e-01	 3.9952603043e+00
 8.9086468767e-01	 5.3175780036e-01	 4.0876414130e+00
 8.7982072188e-01	 5.4983792823e-01	 4.1620123503e+00
 8.6838284288e-01	 5.6773011913e-01	 4.2168911972e+00
 9.7046653921e-01	 3.8419885312e-01	 2.9453744818e+00
 9.6262968525e-01	 4.0343295793e-01	 3.1163494341e+00
 9.5437861786e-01	 4.2258196394e-01	 3.2773220327e+00
 9.4571370404e-01	 4.4163293859e-01	 3.4271822646e+00
 9.3663583466e-01	 4.6057287772e-01	 3.5647247140e+00
 9.2714643211e-01	 4.7938873151e-01	 3.6886563381e+00
 9.1724745657e-01	 4.9806743107e-01	 3.7976054327e+00
 9.0694141065e-01	 5.1659591571e-01	 3.8901317353e+00
 8.9623134241e-01	 5.3496116060e-01	 3.9647376023e+00
 8.8512084671e-01	 5.5315020490e-01	 4.0198801762e+00
 8.7361406483e-01	 5.7115018009e-01	 4.0539844483e+00
 9.7627771610e-01	 3.8649944506e-01	 2.9415289737e+00
 9.6839393487e-01	 4.0584872414e-01	 3.1018343370e+00
 9.6009345988e-01	 4.2511239486e-01	 3.2514165000e+00
 9.5137666036e-01	 4.4427744721e-01	 3.3890610107e+00
 9.4224443248e-01	 4.6333079915e-01	 3.5134578275e+00
 9.3269820716e-01	 4.8225932271e-01	 3.6232096536e+00
 9.2273995631e-01	 5.0104987078e-01	 3.7168414833e+00
 9.1237219754e-01	 5.1968930442e-01	 3.7928113039e+00
 9.0159799716e-01	 5.3816452085e-01	 3.8495218851e+00
 8.9042097155e-01	 5.5646248158e-01	 3.8853335681e+00
 8.7884528677e-01	 5.7457024105e-01	 3.8985779557e+00
 9.8208889298e-01	 3.8880003700e-01	 2.9466947142e+00
 9.7415818449e-01	 4.0826449036e-01	 3.0960915255e+00
 9.6580830191e-01	 4.2764282579e-01	 3.2340619932e+00
 9.5703961668e-01	 4.4692195583e-01	 3.3592873505e+00
 9.4785303029e-01	 4.6608872058e-01	 3.4703529895e+00
 9.3824998220e-01	 4.8512991392e-01	 3.5657573547e+00
 9.2823245605e-01	 5.0403231049e-01	 3.6439220700e+00
 9.1780298443e-01	 5.2278269314e-01	 3.7032032397e+00
 9.0696465190e-01	 5.4136788109e-01	 3.7419038517e+00
 8.9572109638e-01	 5.5977475826e-01	 3.7582871906e+00
 8.8407650872e-01	 5.7799030201e-01	 3.7505911564e+00
 9.8790006987e-01	 3.9110062893e-01	 2.9607351236e+00
 9.7992243410e-01	 4.1068025658e-01	 3.0989911825e+00
 9.7152314394e-01	 4.3017325671e-01	 3.2251352936e+00
 9.6270257299e-01	 4.4956646444e-01	 3.3377444822e+00
 9.5346162811e-01	 4.6884664200e-01	 3.4352996173e+00
 9.4380175725e-01	 4.8800050513e-01	 3.5161948630e+00
 9.3372495580e-01	 5.0701475020e-01	 3.5787483870e+00
 9.2323377133e-01	 5.2587608186e-01	 3.6212142619e+00
 9.1233130665e-01	 5.4457124134e-01	 3.6417954828e+00
 9.0102122121e-01	 5.6308703494e-01	 3.6386580065e+00
 8.8930773066e-01	 5.8141036297e-01	 3.6099457005e+00
 8.3699551121e-01	 5.4720975338e-01	 5.3566448971e+00
 8.2559586329e-01	 5.6426188114e-01	 5.4842652955e+00
 8.1382603605e-01	 5.8110858112e-01	 5.5132705645e+00
 8.0169154870e-01	 5.9773795324e-01	 5.4420198909e+00
 7.8919842564e-01	 6.1413829468e-01	 5.2691950117e+00
 7.7635318758e-01	 6.3029812641e-01	 5.1411613031e+00
 7.6316284109e-01	 6.4620621941e-01	 5.2208682820e+00
 7.4963486641e-01	 6.6185162015e-01	 5.2157257585e+00
 7.3577720369e-01	 6.7722367543e-01	 5.1281017746e+00
 7.2159823775e-01	 6.9231205631e-01	 4.9606246039e+00
 7.0710678120e-01	 7.0710678120e-01	 4.7161695400e+00
 8.4222673316e-01	 5.5062981434e-01	 5.1469120777e+00
 8.3075583744e-01	 5.6778851789e-01	 5.2519361024e+00
 8.1891244878e-01	 5.8474050975e-01	 5.2602651543e+00
 8.0670212088e-01	 6.0147381545e-01	 5.1702505879e+00
 7.9413091580e-01	 6.1797665901e-01	 4.9805600678e+00
 7.8120539500e-01	 6.3423748969e-01	 4.9445166945e+00
 7.6793260885e-01	 6.5024500828e-01	 5.0124179702e+00
 7.5432008432e-01	 6.6598819277e-01	 4.9978029922e+00
 7.4037581122e-01	 6.8145632339e-01	 4.9030660497e+00
 7.2610822673e-01	 6.9663900666e-01	 4.7308537065e+00
 7.1152619858e-01	 7.1152619858e-01	 4.4840514401e+00
 8.4745795510e-01	 5.5404987529e-01	 4.9452133041e+00
 8.3591581159e-01	 5.7131515465e-01	 5.0278391842e+00
 8.2399886150e-01	 5.8837243837e-01	 5.0156633884e+00
 8.1171269306e-01	 6.0520967765e-01	 4.9070283388e+00
 7.9906340596e-01	 6.2181502335e-01	 4.7005865883e+00
 7.8605760243e-01	 6.3817685298e-01	 4.7543741739e+00
 7.7270237661e-01	 6.5428379714e-01	 4.8104162307e+00
 7.5900530224e-01	 6.7012476539e-01	 4.7862522812e+00
 7.4497441874e-01	 6.8568897136e-01	 4.6843031964e+00
 7.3061821572e-01	 7.0096595701e-01	 4.5072342122e+00
 7.1594561596e-01	 7.1594561596e-01	 4.2579414171e+00
 8.5268917705e-01	 5.5746993625e-01	 4.7514532358e+00
 8.4107578573e-01	 5.7484179140e-01	 4.8118787392e+00
 8.2908527423e-01	 5.9200436700e-01	 4.7793694573e+00
 8.1672326524e-01	 6.0894553986e-01	 4.6522577787e+00
 8.0399589612e-01	 6.2565338769e-01	 4.4463540831e+00
 7.9090980985e-01	 6.4211621627e-01	 4.5706005071e+00
 7.7747214436e-01	 6.5832258601e-01	 4.6147299802e+00
 7.6369052015e-01	 6.7426133802e-01	 4.5809411981e+00
 7.4957302626e-01	 6.8992161933e-01	 4.4716819491e+00
 7.3512820470e-01	 7.0529290736e-01	 4.2896365231e+00
 7.2036503334e-01	 7.2036503334e-01	 4.0377120455e+00
 8.5792039899e-01	 5.6088999721e-01	 4.5655391868e+00
 8.4623575988e-01	 5.7836842816e-01	 4.6039616601e+00
 8.3417168695e-01	 5.9563629563e-01	 4.5512902746e+00
 8.2173383742e-01	 6.1268140206e-01	 4.4058462836e+00
 8.0892838628e-01	 6.2949175203e-01	 4.2830154653e+00
 7.9576201727e-01	 6.4605557955e-01	 4.3930652023e+00
 7.8224191212e-01	 6.6236137488e-01	 4.4252288621e+00
 7.6837573807e-01	 6.7839791064e-01	 4.3817400144e+00
 7.5417163378e-01	 6.9415426730e-01	 4.2650737023e+00
 7.3963819368e-01	 7.0961985771e-01	 4.0779336515e+00
 7.2478445072e-01	 7.2478445072e-01	 3.8232384487e+00
 8.6315162094e-01	 5.6431005817e-01	 4.3873810457e+00
 8.5139573402e-01	 5.8189506492e-01	 4.4039974522e+00
 8.3925809968e-01	 5.9926822426e-01	 4.3313353952e+00
 8.2674440960e-01	 6.1641726427e-01	 4.1677038877e+00
 8.1386087644e-01	 6.3333011637e-01	 4.1258186738e+00
 8.0061422469e-01	 6.4999494284e-01	 4.2216404273e+00
 7.8701167987e-01	 6.6640016375e-01	 4.2417851633e+00
 7.7306095598e-01	 6.8253448326e-01	 4.1885216188e+00
 7.5877024130e-01	 6.9838691527e-01	 4.0643524300e+00
 7.4414818267e-01	 7.1394680806e-01	 3.8720011404e+00
 7.2920386810e-01	 7.2920386810e-01	 3.6143982217e+00
 8.6838284288e-01	 5.6773011913e-01	 4.2168911972e+00
 8.5655570817e-01	 5.8542170167e-01	 4.2118981552e+00
 8.4434451240e-01	 6.0290015290e-01	 4.1194169347e+00
 8.3175498178e-01	 6.2015312648e-01	 3.9377432029e+00
 8.1879336660e-01	 6.3716848071e-01	 3.9746388206e+00
 8.0546643211e-01	 6.5393430613e-01	 4.0562009293e+00
 7.9178144763e-01	 6.7043895262e-01	 4.0642737351e+00
 7.7774617389e-01	 6.8667105589e-01	 4.0011614383e+00
 7.6336884882e-01	 7.0261956324e-01	 3.8693946080e+00
 7.4865817165e-01	 7.1827375841e-01	 3.6717169879e+00
 7.3362328548e-01	 7.3362328548e-01	 3.4110713567e+00
 8.7361406483e-01	 5.7115018009e-01	 4.0539844483e+00
 8.6171568231e-01	 5.8894833843e-01	 4.0275782671e+00
 8.4943092513e-01	 6.0653208153e-01	 3.9154494937e+00
 8.3676555396e-01	 6.2388898868e-01	 3.7158793416e+00
 8.2372585675e-01	 6.4100684505e-01	 3.8293535245e+00
 8.1031863953e-01	 6.5787366942e-01	 3.8966239576e+00
 7.9655121538e-01	 6.7447774149e-01	 3.8925719160e+00
 7.8243139180e-01	 6.9080762851e-01	 3.8195373620e+00
 7.6796745634e-01	 7.0685221121e-01	 3.6800791391e+00
 7.5316816063e-01	 7.2260070876e-01	 3.4769615733e+00
 7.3804270286e-01	 7.3804270286e-01	 3.2131401714e+00
 8.7884528677e-01	 5.7457024105e-01	 3.8985779557e+00
 8.6687565646e-01	 5.9247497519e-01	 3.8509546708e+00
 8.5451733785e-01	 6.1016401016e-01	 3.7193500831e+00
 8.4177612613e-01	 6.2762485089e-01	 3.5655684456e+00
 8.2865834691e-01	 6.4484520939e-01	 3.6898428359e+00
 8.1517084695e-01	 6.6181303271e-01	 3.7427891891e+00
 8.0132098314e-01	 6.7851653036e-01	 3.7265594581e+00
 7.8711660972e-01	 6.9494420114e-01	 3.6435296683e+00
 7.7256606386e-01	 7.1108485918e-01	 3.4962872807e+00
 7.5767814962e-01	 7.2692765911e-01	 3.2876175862e+00
 7.4246212024e-01	 7.4246212024e-01	 3.0204892397e+00
 8.8407650872e-01	 5.7799030201e-01	 3.7505911564e+00
 8.7203563060e-01	 5.9600161195e-01	 3.6819465638e+00
 8.5960375057e-01	 6.1379593879e-01	 3.5310380532e+00
 8.4678669831e-01	 6.3136071310e-01	 3.4481545069e+00
 8.3359083707e-01	 6.4868357373e-01	 3.5559891657e+00
 8.2002305437e-01	 6.6575239600e-01	 3.5945786566e+00
 8.0609075089e-01	 6.8255531923e-01	 3.5661184552e+00
 7.9180182763e-01	 6.9908077376e-01	 3.4730209538e+00
 7.7716467138e-01	 7.1531750715e-01	 3.3179025753e+00
 7.6218813860e-01	 7.3125460946e-01	 3.1035699582e+00
 7.4688153762e-01	 7.4688153762e-01	 2.8330053250e+00
 8.8930773066e-01	 5.8141036297e-01	 3.6099457005e+00
 8.7719560475e-01	 5.9952824871e-01	 3.5204753900e+00
 8.6469016330e-01	 6.1742786743e-01	 3.3504350248e+00
 8.5179727049e-01	 6.3509657531e-01	 3.3362956168e+00
 8.3852332723e-01	 6.5252193808e-01	 3.4276772148e+00
 8.2487526179e-01	 6.6969175929e-01	 3.4518766796e+00
 8.1086051864e-01	 6.8659410810e-01	 3.4111332745e+00
 7.9648704554e-01	 7.0321734639e-01	 3.3078960653e+00
 7.8176327890e-01	 7.1955015512e-01	 3.1448107831e+00
 7.6669812758e-01	 7.3558155981e-01	 2.9247057971e+00
 7.5130095500e-01	 7.5130095500e-01	 2.6505773159e+00
 7.0710678120e-01	 7.0710678120e-01	 4.7161695400e+00
 6.9231205631e-01	 7.2159823775e-01	 4.5000994383e+00
 6.7722367543e-01	 7.3577720369e-01	 4.2744025536e+00
 6.6185162015e-01	 7.4963486641e-01	 4.0427601407e+00
 6.4620621941e-01	 7.6316284109e-01	 3.8088227789e+00
 6.3029812641e-01	 7.7635318758e-01	 3.5761935133e+00
 6.1413829468e-01	 7.8919842564e-01	 3.0867901751e+00
 5.9773795324e-01	 8.0169154870e-01	 2.4879380455e+00
 5.8110858112e-01	 8.1382603605e-01	 1.9126100252e+00
 5.6426188114e-01	 8.2559586329e-01	 1.3627895415e+00
 5.4720975338e-01	 8.3699551121e-01	 8.4033797787e-01
 7.1152619858e-01	 7.1152619858e-01	 4.4840514401e+00
 6.9663900666e-01	 7.2610822673e-01	 4.2698166706e+00
 6.8145632339e-01	 7.4037581122e-01	 4.0473797014e+00
 6.6598819277e-01	 7.5432008432e-01	 3.8202867865e+00
 6.5024500828e-01	 7.6793260885e-01	 3.5920486863e+00
 6.3423748969e-01	 7.8120539500e-01	 3.3661243840e+00
 6.1797665901e-01	 7.9413091580e-01	 2.9778249766e+00
 6.0147381545e-01	 8.0670212088e-01	 2.3851485625e+00
 5.8474050975e-01	 8.1891244878e-01	 1.8167433097e+00
 5.6778851789e-01	 8.3075583744e-01	 1.2744018641e+00
 5.5062981434e-01	 8.4222673316e-01	 7.5979416645e-01
 7.1594561596e-01	 7.1594561596e-01	 4.2579414171e+00
 7.0096595701e-01	 7.3061821572e-01	 4.0447776981e+00
 6.8568897136e-01	 7.4497441874e-01	 3.8248269576e+00
 6.7012476539e-01	 7.5900530224e-01	 3.6015021214e+00
 6.5428379714e-01	 7.7270237661e-01	 3.3781758040e+00
 6.3817685298e-01	 7.8605760243e-01	 3.1581645947e+00
 6.2181502335e-01	 7.9906340596e-01	 2.8689869172e+00
 6.0520967765e-01	 8.1171269306e-01	 2.2817404242e+00
 5.8837243837e-01	 8.2399886150e-01	 1.7195135176e+00
 5.7131515465e-01	 8.3591581159e-01	 1.1839090478e+00
 5.5404987529e-01	 8.4745795510e-01	 6.7640647608e-01
 7.2036503334e-01	 7.2036503334e-01	 4.0377120455e+00
 7.0529290736e-01	 7.3512820470e-01	 3.8248688042e+00
 6.8992161933e-01	 7.4957302626e-01	 3.6066446014e+00
 6.7426133802e-01	 7.6369052015e-01	 3.3863206807e+00
 6.5832258601e-01	 7.7747214436e-01	 3.1671331567e+00
 6.4211621627e-01	 7.9090980985e-01	 2.9522578652e+00
 6.2565338769e-01	 8.0399589612e-01	 2.7447959167e+00
 6.0894553986e-01	 8.1672326524e-01	 2.1776827986e+00
 5.9200436700e-01	 8.2908527423e-01	 1.6209058090e+00
 5.7484179140e-01	 8.4107578573e-01	 1.0913123204e+00
 5.5746993625e-01	 8.5268917705e-01	 5.9019224428e-01
 7.2478445072e-01	 7.2478445072e-01	 3.8232384487e+00
 7.0961985771e-01	 7.3963819368e-01	 3.6099784801e+00
 6.9415426730e-01	 7.5417163378e-01	 3.3927347726e+00
 6.7839791064e-01	 7.6837573807e-01	 3.1746585077e+00
 6.6236137488e-01	 7.8224191212e-01	 2.9588509206e+00
 6.4605557955e-01	 7.9576201727e-01	 2.7483487069e+00
 6.2949175203e-01	 8.0892838628e-01	 2.5461101587e+00
 6.1268140206e-01	 8.2173383742e-01	 2.0729449157e+00
 5.9563629563e-01	 8.3417168695e-01	 1.5209050394e+00
 5.7836842816e-01	 8.4623575988e-01	 9.9661223722e-01
 5.6088999721e-01	 8.5792039899e-01	 5.0116776784e-01
 7.2920386810e-01	 7.2920386810e-01	 3.6143982217e+00
 7.1394680806e-01	 7.4414818267e-01	 3.3999973576e+00
 6.9838691527e-01	 7.5877024130e-01	 3.1830014148e+00
 6.8253448326e-01	 7.7306095598e-01	 2.9664331084e+00
 6.6640016375e-01	 7.8701167987e-01	 2.7532603887e+00
 6.4999494284e-01	 8.0061422469e-01	 2.5463823984e+00
 6.3333011637e-01	 8.1386087644e-01	 2.3486161853e+00
 6.1641726427e-01	 8.2674440960e-01	 1.9674960667e+00
 5.9926822426e-01	 8.3925809968e-01	 1.4194957689e+00
 5.8189506492e-01	 8.5139573402e-01	 8.9980870137e-01
 5.6431005817e-01	 8.6315162094e-01	 4.0934833436e-01
 7.3362328548e-01	 7.3362328548e-01	 3.4110713567e+00
 7.1827375841e-01	 7.4865817165e-01	 3.1948181445e+00
 7.0261956324e-01	 7.6336884882e-01	 2.9773502213e+00
 6.8667105589e-01	 7.7774617389e-01	 2.7615634071e+00
 6.7043895262e-01	 7.9178144763e-01	 2.5502939369e+00
 6.5393430613e-01	 8.0546643211e-01	 2.3463049625e+00
 6.3716848071e-01	 8.1879336660e-01	 2.1522738354e+00
 6.2015312648e-01	 8.3175498178e-01	 1.8613056012e+00
 6.0290015290e-01	 8.4434451240e-01	 1.3166622712e+00
 5.8542170167e-01	 8.5655570817e-01	 8.0090098337e-01
 5.6773011913e-01	 8.6838284288e-01	 3.1474825268e-01
 7.3804270286e-01	 7.3804270286e-01	 3.2131401714e+00
 7.2260070876e-01	 7.5316816063e-01	 2.9943355627e+00
 7.0685221121e-01	 7.6796745634e-01	 2.7756885828e+00
 6.9080762851e-01	 7.8243139180e-01	 2.5599697043e+00
 6.7447774149e-01	 7.9655121538e-01	 2.3498849921e+00
 6.5787366942e-01	 8.1031863953e-01	 2.1480631440e+00
 6.4100684505e-01	 8.2372585675e-01	 1.9570433383e+00
 6.2388898868e-01	 8.3676555396e-01	 1.7543429261e+00
 6.0653208153e-01	 8.4943092513e-01	 1.2123885421e+00
 5.8894833843e-01	 8.6171568231e-01	 6.9988774017e-01
 5.7115018009e-01	 8.7361406483e-01	 2.1738088213e-01
 7.4246212024e-01	 7.4246212024e-01	 3.0204892397e+00
 7.2692765911e-01	 7.5767814962e-01	 2.7984462883e+00
 7.1108485918e-01	 7.7256606386e-01	 2.5779255369e+00
 6.9494420114e-01	 7.8711660972e-01	 2.3615736353e+00
 6.7851653036e-01	 8.0132098314e-01	 2.1519680003e+00
 6.6181303271e-01	 8.1517084695e-01	 1.9516043884e+00
 6.4484520939e-01	 8.2865834691e-01	 1.7628853025e+00
 6.2762485089e-01	 8.4177612613e-01	 1.5881093119e+00
 6.1016401016e-01	 8.5451733785e-01	 1.1066583078e+00
 5.9247497519e-01	 8.6687565646e-01	 5.9676703338e-01
 5.7457024105e-01	 8.7884528677e-01	 1.1725866081e-01
 7.4688153762e-01	 7.4688153762e-01	 2.8330053250e+00
 7.3125460946e-01	 7.6218813860e-01	 2.6070488934e+00
 7.1531750715e-01	 7.7716467138e-01	 2.3839717189e+00
 6.9908077376e-01	 7.9180182763e-01	 2.1662981311e+00
 6.8255531923e-01	 8.0609075089e-01	 1.9564783968e+00
 6.6575239600e-01	 8.2002305437e-01	 1.7568768207e+00
 6.4868357373e-01	 8.3359083707e-01	 1.5697607040e+00
 6.3136071310e-01	 8.4678669831e-01	 1.3972902406e+00
 6.1379593879e-01	 8.5960375057e-01	 9.9945503271e-01
 5.9600161195e-01	 8.7203563060e-01	 4.9153634685e-01
 5.7799030201e-01	 8.8407650872e-01	 1.4393132873e-02
 7.5130095500e-01	 7.5130095500e-01	 2.6505773159e+00
 7.3558155981e-01	 7.6669812758e-01	 2.4200437908e+00
 7.1955015512e-01	 7.8176327890e-01	 2.1937393156e+00
 7.0321734639e-01	 7.9648704554e-01	 1.9740673800e+00
 6.8659410810e-01	 8.1086051864e-01	 1.7633525773e+00
 6.6969175929e-01	 8.2487526179e-01	 1.5638292259e+00
 6.5252193808e-01	 8.3852332723e-01	 1.3776308757e+00
 6.3509657531e-01	 8.5179727049e-01	 1.2067807749e+00
 6.1742786743e-01	 8.6469016330e-01	 8.9076192760e-01
 5.9952824871e-01	 8.7719560475e-01	 3.8419260373e-01
 5.8141036297e-01	 8.8930773066e-01	-9.1205025225e-02
 5.4720975338e-01	 8.3699551121e-01	 8.4033797787e-01
 5.2996426817e-01	 8.4801997290e-01	 4.2692279238e-01
 5.1253763889e-01	 8.5866475920e-01	-4.3116048739e-03
 4.9494219468e-01	 8.6892590241e-01	-4.5078205610e-01
 4.7719035310e-01	 8.7879995838e-01	-9.0986147217e-01
 4.5929459304e-01	 8.8828400681e-01	-1.3788844529e+00
 4.4126742774e-01	 8.9737564997e-01	-1.8551531014e+00
 4.2312137827e-01	 9.0607300986e-01	-2.3359430266e+00
 4.0486894747e-01	 9.1437472369e-01	-2.8185095237e+00
 3.8652259440e-01	 9.2227993796e-01	-3.3000939204e+00
 3.6809470956e-01	 9.2978830103e-01	-3.7779300716e+00
 5.5062981434e-01	 8.4222673316e-01	 7.5979416645e-01
 5.3327654485e-01	 8.5332009773e-01	 3.5836550612e-01
 5.1574099914e-01	 8.6403141394e-01	-5.8925587093e-02
 4.9803558339e-01	 8.7435668930e-01	-4.8966124693e-01
 4.8017279281e-01	 8.8429245812e-01	-9.3138391489e-01
 4.6216518425e-01	 8.9383578185e-01	-1.3816010898e+00
 4.4402534917e-01	 9.0298424778e-01	-1.8377902726e+00
 4.2576588689e-01	 9.1173596617e-01	-2.2974041072e+00
 4.0739937839e-01	 9.2008956571e-01	-2.7578757118e+00
 3.8893836062e-01	 9.2804418757e-01	-3.2166241964e+00
 3.7039530150e-01	 9.3559947791e-01	-3.6710603521e+00
 5.5404987529e-01	 8.4745795510e-01	 6.7640647608e-01
 5.3658882152e-01	 8.5862022256e-01	 2.8643280006e-01
 5.1894435938e-01	 8.6939806868e-01	-1.1746610279e-01
 5.0112897211e-01	 8.7978747619e-01	-5.3303692537e-01
 4.8315523252e-01	 8.8978495786e-01	-9.5799087058e-01
 4.6503577546e-01	 8.9938755689e-01	-1.3900075318e+00
 4.4678327059e-01	 9.0859284559e-01	-1.8267389702e+00
 4.2841039551e-01	 9.1739892248e-01	-2.2658139947e+00
 4.0992980932e-01	 9.2580440773e-01	-2.7048426475e+00
 3.9135412684e-01	 9.3380843718e-01	-3.1414208938e+00
 3.7269589344e-01	 9.4141065479e-01	-3.5731355097e+00
 5.5746993625e-01	 8.5268917705e-01	 5.9019224428e-01
 5.3990109820e-01	 8.6392034739e-01	 2.1115439475e-01
 5.2214771962e-01	 8.7476472343e-01	-1.7989061775e-01
 5.0422236083e-01	 8.8521826308e-01	-5.8085334276e-01
 4.8613767223e-01	 8.9527745760e-01	-9.8961300607e-01
 4.6790636667e-01	 9.0493933193e-01	-1.4040205225e+00
 4.4954119202e-01	 9.1420144341e-01	-1.8219017067e+00
 4.3105490412e-01	 9.2306187879e-01	-2.2410606952e+00
 4.1246024024e-01	 9.3151924976e-01	-2.6592835869e+00
 3.9376989306e-01	 9.3957268679e-01	-3.0743423080e+00
 3.7499648537e-01	 9.4722183168e-01	-3.4839986988e+00
 5.6088999721e-01	 8.5792039899e-01	 5.0116776784e-01
 5.4321337487e-01	 8.6922047222e-01	 1.3255869347e-01
 5.2535107987e-01	 8.8013137817e-01	-2.4615820138e-01
 5.0731574955e-01	 8.9064904997e-01	-6.3305664980e-01
 4.8912011194e-01	 9.0076995734e-01	-1.0261831919e+00
 4.7077695788e-01	 9.1049110698e-01	-1.4235593211e+00
 4.5229911344e-01	 9.1981004122e-01	-1.8231838303e+00
 4.3369941274e-01	 9.2872483510e-01	-2.2230353771e+00
 4.1499067117e-01	 9.3723409178e-01	-2.6210752812e+00
 3.9618565927e-01	 9.4533693641e-01	-3.0152505662e+00
 3.7729707731e-01	 9.5303300856e-01	-3.4034972486e+00
 5.6431005817e-01	 8.6315162094e-01	 4.0934833436e-01
 5.4652565155e-01	 8.7452059705e-01	 5.0672822174e-02
 5.2855444011e-01	 8.8549803292e-01	-3.1622947818e-01
 5.1040913827e-01	 8.9607983686e-01	-6.8959483895e-01
 4.9210255165e-01	 9.0626245708e-01	-1.0676364354e+00
 4.7364754909e-01	 9.1604288202e-01	-1.4485456267e+00
 4.5505703487e-01	 9.2541863903e-01	-1.8304934391e+00
 4.3634392136e-01	 9.3438779142e-01	-2.2116322750e+00
 4.1752110209e-01	 9.4294893380e-01	-2.5900978699e+00
 3.9860142549e-01	 9.5110118602e-01	-2.9640115124e+00
 3.7959766925e-01	 9.5884418544e-01	-3.3314825368e+00
 5.6773011913e-01	 8.6838284288e-01	 3.1474825268e-01
 5.4983792823e-01	 8.7982072188e-01	-3.4477332018e-02
 5.3175780036e-01	 8.9086468767e-01	-3.9006658082e-01
 5.1350252699e-01	 9.0151062376e-01	-7.5041768899e-01
 4.9508499136e-01	 9.1175495683e-01	-1.1139098165e+00
 4.7651814030e-01	 9.2159465706e-01	-1.4789035050e+00
 4.5781495630e-01	 9.3102723685e-01	-1.8437412981e+00
 4.3898842998e-01	 9.4005074773e-01	-2.2067485975e+00
 4.2005153302e-01	 9.4866377583e-01	-2.5662347793e+00
 4.0101719171e-01	 9.5686543564e-01	-2.9204945945e+00
 3.8189826119e-01	 9.6465536233e-01	-3.2678098674e+00
 5.7115018009e-01	 8.7361406483e-01	 2.1738088213e-01
 5.5315020490e-01	 8.8512084671e-01	-1.2286708377e-01
 5.3496116060e-01	 8.9623134241e-01	-4.6763310507e-01
 5.1659591571e-01	 9.0694141065e-01	-8.1547671150e-01
 4.9806743107e-01	 9.1724745657e-01	-1.1649424256e+00
 4.7938873151e-01	 9.2714643211e-01	-1.5145593166e+00
 4.6057287772e-01	 9.3663583466e-01	-1.8628407594e+00
 4.4163293859e-01	 9.4571370404e-01	-2.2082844380e+00
 4.2258196394e-01	 9.5437861786e-01	-2.5493726236e+00
 4.0343295793e-01	 9.6262968525e-01	-2.8845727568e+00
 3.8419885312e-01	 9.7046653921e-01	-3.2123383534e+00
 5.7457024105e-01	 8.7884528677e-01	 1.1725866081e-01
 5.5646248158e-01	 8.9042097155e-01	-2.1447291372e-01
 5.3816452085e-01	 9.0159799716e-01	-5.4889406621e-01
 5.1968930442e-01	 9.1237219754e-01	-8.8472509932e-01
 5.0104987078e-01	 9.2273995631e-01	-1.2206753038e+00
 4.8225932271e-01	 9.3269820716e-01	-1.5554416496e+00
 4.6333079915e-01	 9.4224443248e-01	-1.8877076853e+00
 4.4427744721e-01	 9.5137666036e-01	-2.2161426891e+00
 4.2511239486e-01	 9.6009345988e-01	-2.5394011106e+00
 4.0584872414e-01	 9.6839393487e-01	-2.8561223362e+00
 3.8649944506e-01	 9.7627771610e-01	-3.1649308030e+00
 5.7799030201e-01	 8.8407650872e-01	 1.4393132873e-02
 5.5977475826e-01	 8.9572109638e-01	-3.0927243404e-01
 5.4136788109e-01	 9.0696465190e-01	-6.3381585703e-01
 5.2278269314e-01	 9.1780298443e-01	-9.5811767681e-01
 5.0403231049e-01	 9.2823245605e-01	-1.2810513849e+00
 4.8512991392e-01	 9.3824998220e-01	-1.6014812532e+00
 4.6608872058e-01	 9.4785303029e-01	-1.9182603737e+00
 4.4692195583e-01	 9.5703961668e-01	-2.2302289594e+00
 4.2764282579e-01	 9.6580830191e-01	-2.5362129498e+00
 4.0826449036e-01	 9.7415818449e-01	-2.8350229612e+00
 3.8880003700e-01	 9.8208889298e-01	-3.1254536109e+00
 5.8141036297e-01	 8.8930773066e-01	-9.1205025225e-02
 5.6308703494e-01	 9.0102122121e-01	-4.0724435509e-01
 5.4457124134e-01	 9.1233130665e-01	-7.2236620731e-01
 5.2587608186e-01	 9.2323377133e-01	-1.0356108518e+00
 5.0701475020e-01	 9.3372495580e-01	-1.3460154402e+00
 4.8800050513e-01	 9.4380175725e-01	-1.6526109743e+00
 4.6884664200e-01	 9.5346162811e-01	-1.9544194870e+00
 4.4956646444e-01	 9.6270257299e-01	-2.2504514940e+00
 4.3017325671e-01	 9.7152314394e-01	-2.5397037642e+00
 4.1068025658e-01	 9.7992243410e-01	-2.8211574558e+00
 3.9110062893e-01	 9.8790006987e-01	-3.0937766522e+00
 3.6809470956e-01	 9.2978830103e-01	-3.7779300716e+00
 3.4959759078e-01	 9.3689995435e-01	-4.2707991950e+00
 3.3104341998e-01	 9.4361552236e-01	-4.7388211438e+00
 3.1244424090e-01	 9.4993610115e-01	-5.1811768042e+00
 2.9381193773e-01	 9.5586324607e-01	-5.5970750365e+00
 2.7515821486e-01	 9.6139895816e-01	-5.9857513929e+00
 2.5649457770e-01	 9.6654566967e-01	-6.3464670951e+00
 2.3783231460e-01	 9.7130622879e-01	-6.6785082774e+00
 2.1918248006e-01	 9.7568388344e-01	-6.9811854948e+00
 2.0055587900e-01	 9.7968226449e-01	-7.2538334916e+00
 1.8196305243e-01	 9.8330536840e-01	-7.4958112194e+00
 3.7039530150e-01	 9.3559947791e-01	-3.6710603521e+00
 3.5178257572e-01	 9.4275557907e-01	-4.1491351483e+00
 3.3311244135e-01	 9.4951311937e-01	-4.6025999365e+00
 3.1439701740e-01	 9.5587320179e-01	-5.0307020650e+00
 2.9564826234e-01	 9.6183739136e-01	-5.4327145899e+00
 2.7687795371e-01	 9.6740770165e-01	-5.8079347285e+00
 2.5809766881e-01	 9.7258658011e-01	-6.1556826002e+00
 2.3931876657e-01	 9.7737689272e-01	-6.4753002583e+00
 2.2055237056e-01	 9.8178190771e-01	-6.7661510148e+00
 2.0180935325e-01	 9.8580527865e-01	-7.0276190523e+00
 1.8310032151e-01	 9.8945102695e-01	-7.2591093139e+00
 3.7269589344e-01	 9.4141065479e-01	-3.5731355097e+00
 3.5396756067e-01	 9.4861120378e-01	-4.0365663115e+00
 3.3518146273e-01	 9.5541071639e-01	-4.4756309949e+00
 3.1634979391e-01	 9.6181030242e-01	-4.8896433733e+00
 2.9748458695e-01	 9.6781153665e-01	-5.2779406728e+00
 2.7859769255e-01	 9.7341644514e-01	-5.6398817219e+00
 2.5970075992e-01	 9.7862749055e-01	-5.9748454544e+00
 2.4080521853e-01	 9.8344755665e-01	-6.2822297312e+00
 2.2192226105e-01	 9.8787993198e-01	-6.5614504812e+00
 2.0306282749e-01	 9.9192829280e-01	-6.8119411586e+00
 1.8423759059e-01	 9.9559668551e-01	-7.0331525040e+00
 3.7499648537e-01	 9.4722183168e-01	-3.4839986988e+00
 3.5615254561e-01	 9.5446682850e-01	-3.9329304881e+00
 3.3725048411e-01	 9.6130831341e-01	-4.3577467305e+00
 3.1830257042e-01	 9.6774740306e-01	-4.7578277199e+00
 2.9932091156e-01	 9.7378568194e-01	-5.1325748391e+00
 2.8031743139e-01	 9.7942518863e-01	-5.4814084853e+00
 2.6130385103e-01	 9.8466840099e-01	-5.8037663351e+00
 2.4229167050e-01	 9.8951822059e-01	-6.0991019563e+00
 2.2329215155e-01	 9.9397795626e-01	-6.3668837660e+00
 2.0431630173e-01	 9.9805130696e-01	-6.6065943328e+00
 1.8537485966e-01	 1.0017423441e+00	-6.8177300108e+00
 3.7729707731e-01	 9.5303300856e-01	-3.4034972486e+00
 3.5833753055e-01	 9.6032245322e-01	-3.8380697604e+00
 3.3931950548e-01	 9.6720591042e-01	-4.2487839394e+00
 3.2025534692e-01	 9.7368450369e-01	-4.6350865874e+00
 3.0115723617e-01	 9.7975982723e-01	-4.9964432425e+00
 2.8203717024e-01	 9.8543393212e-01	-5.3323358396e+00
 2.6290694214e-01	 9.9070931142e-01	-5.6422607380e+00
 2.4377812247e-01	 9.9558888452e-01	-5.9257271225e+00
 2.2466204205e-01	 1.0000759805e+00	-6.1822557800e+00
 2.0556977598e-01	 1.0041743211e+00	-6.4113782465e+00
 1.8651212874e-01	 1.0078880026e+00	-6.6126363154e+00
 3.7959766925e-01	 9.5884418544e-01	-3.3314825368e+00
 3.6052251550e-01	 9.6617807793e-01	-3.7518303603e+00
 3.4138852686e-01	 9.7310350744e-01	-4.1485836695e+00
 3.2220812343e-01	 9.7962160433e-01	-4.5212558139e+00
 3.0299356079e-01	 9.8573397253e-01	-4.8693764969e+00
 2.8375690908e-01	 9.9144267561e-01	-5.1924891718e+00
 2.6451003325e-01	 9.9675022186e-01	-5.4901488311e+00
 2.4526457443e-01	 1.0016595485e+00	-5.7619201980e+00
 2.2603193256e-01	 1.0061740048e+00	-6.0073763204e+00
 2.0682325022e-01	 1.0102973353e+00	-6.2260975652e+00
 1.8764939782e-01	 1.0140336612e+00	-6.4176709999e+00
 3.8189826119e-01	 9.6465536233e-01	-3.2678098674e+00
 3.6270750044e-01	 9.7203370265e-01	-3.6740625439e+00
 3.4345754824e-01	 9.7900110446e-01	-4.0569910924e+00
 3.2416089994e-01	 9.8555870496e-01	-4.4161754618e+00
 3.0482988540e-01	 9.9170811782e-01	-4.7512095424e+00
 2.8547664792e-01	 9.9745141910e-01	-5.0616982974e+00
 2.6611312436e-01	 1.0027911323e+00	-5.3472553142e+00
 2.4675102640e-01	 1.0077302124e+00	-5.6075007858e+00
 2.2740182306e-01	 1.0122720291e+00	-5.8420599235e+00
 2.0807672446e-01	 1.0164203494e+00	-6.0505617973e+00
 1.8878666689e-01	 1.0201793197e+00	-6.2326385933e+00
 3.8419885312e-01	 9.7046653921e-01	-3.2123383534e+00
 3.6489248539e-01	 9.7788932737e-01	-3.6046204710e+00
 3.4552656961e-01	 9.8489870148e-01	-3.9738553801e+00
 3.2611367644e-01	 9.9149580560e-01	-4.3196896913e+00
 3.0666621001e-01	 9.9768226311e-01	-4.6417815151e+00
 2.8719638677e-01	 1.0034601626e+00	-4.9397973275e+00
 2.6771621548e-01	 1.0088320427e+00	-5.2134092829e+00
 2.4823747837e-01	 1.0138008763e+00	-5.4622929860e+00
 2.2877171356e-01	 1.0183700534e+00	-5.6861257231e+00
 2.0933019871e-01	 1.0225433636e+00	-5.8845851497e+00
 1.8992393597e-01	 1.0263249783e+00	-6.0573484238e+00
 3.8649944506e-01	 9.7627771610e-01	-3.1649308030e+00
 3.6707747033e-01	 9.8374495209e-01	-3.5433620894e+00
 3.4759559099e-01	 9.9079629849e-01	-3.8990295856e+00
 3.2806645295e-01	 9.9743290623e-01	-4.2316466386e+00
 3.0850253462e-01	 1.0036564084e+00	-4.5409356232e+00
 2.8891612561e-01	 1.0094689061e+00	-4.8266245414e+00
 2.6931930659e-01	 1.0148729532e+00	-5.0884440979e+00
 2.4972393033e-01	 1.0198715402e+00	-5.3261252608e+00
 2.3014160406e-01	 1.0244680776e+00	-5.5393973131e+00
 2.1058367295e-01	 1.0286663777e+00	-5.7279863873e+00
 1.9106120505e-01	 1.0324706368e+00	-5.8916144758e+00
 3.8880003700e-01	 9.8208889298e-01	-3.1254536109e+00
 3.6926245528e-01	 9.8960057681e-01	-3.4901490222e+00
 3.4966461237e-01	 9.9669389551e-01	-3.8323705283e+00
 3.3001922946e-01	 1.0033700069e+00	-4.1518982981e+00
 3.1033885923e-01	 1.0096305537e+00	-4.4485190256e+00
 2.9063586446e-01	 1.0154776496e+00	-4.7220222633e+00
 2.7092239770e-01	 1.0209138636e+00	-4.9721972589e+00
 2.5121038230e-01	 1.0259422042e+00	-5.1988303063e+00
 2.3151149456e-01	 1.0305661019e+00	-5.4017026161e+00
 2.1183714720e-01	 1.0347893919e+00	-5.5805886989e+00
 1.9219847413e-01	 1.0386162954e+00	-5.7352552520e+00
 3.9110062893e-01	 9.8790006987e-01	-3.0937766522e+00
 3.7144744022e-01	 9.9545620153e-01	-3.4448464602e+00
 3.5173363374e-01	 1.0025914925e+00	-3.7737386834e+00
 3.3197200596e-01	 1.0093071075e+00	-4.0803004090e+00
 3.1217518385e-01	 1.0156046990e+00	-4.3643827162e+00
 2.9235560330e-01	 1.0214863931e+00	-4.6258367429e+00
 2.7252548881e-01	 1.0269547741e+00	-4.8645102828e+00
 2.5269683427e-01	 1.0320128681e+00	-5.0802449276e+00
 2.3288138506e-01	 1.0366641262e+00	-5.2728737560e+00
 2.1309062144e-01	 1.0409124060e+00	-5.4422195663e+00
 1.9333574321e-01	 1.0447619539e+00	-5.5880936408e+00
 1.8196305243e-01	 9.8330536840e-01	-7.4958112194e+00
 1.6341426419e-01	 9.8655753924e-01	-7.7469416635e+00
 1.4491948904e-01	 9.8944345047e-01	-7.9699315908e+00
 1.2648840200e-01	 9.9196808625e-01	-8.1647769529e+00
 1.0813036884e-01	 9.9413672265e-01	-8.3314677984e+00
 8.9854437912e-02	 9.9595490861e-01	-8.4699884908e+00
 7.1669333081e-02	 9.9742844690e-01	-8.5803182452e+00
 5.3583447897e-02	 9.9856337511e-01	-8.6624319507e+00
 3.5604840891e-02	 9.9936594664e-01	-8.7163012451e+00
 1.7741231987e-02	 9.9984261196e-01	-8.7418958046e+00
 0.0000000000e+00	 1.0000000000e+00	-8.7391848145e+00
 1.8310032151e-01	 9.8945102695e-01	-7.2591093139e+00
 1.6443560334e-01	 9.9272352386e-01	-7.5041775373e+00
 1.4582523585e-01	 9.9562747204e-01	-7.7214282939e+00
 1.2727895451e-01	 9.9816788679e-01	-7.9108699178e+00
 1.0880618364e-01	 1.0003500772e+00	-8.0725034574e+00
 9.0416028146e-02	 1.0021796268e+00	-8.2063228723e+00
 7.2117266410e-02	 1.0036623747e+00	-8.3123155628e+00
 5.3918344445e-02	 1.0048043962e+00	-8.3904631951e+00
 3.5827371145e-02	 1.0056119838e+00	-8.4407427901e+00
 1.7852114686e-02	 1.0060916283e+00	-8.4631280368e+00
 0.0000000000e+00	 1.0062500000e+00	-8.4575907963e+00
 1.8423759059e-01	 9.9559668551e-01	-7.0331525040e+00
 1.6545694249e-01	 9.9888950849e-01	-7.2721703961e+00
 1.4673098265e-01	 1.0018114936e+00	-7.4837057585e+00
 1.2806950702e-01	 1.0043676873e+00	-7.6677792417e+00
 1.0948199844e-01	 1.0065634317e+00	-7.8244027852e+00
 9.0977618380e-02	 1.0084043450e+00	-7.9535797965e+00
 7.2565199740e-02	 1.0098963025e+00	-8.0553056732e+00
 5.4253240992e-02	 1.0110454173e+00	-8.1295686348e+00
 3.6049901399e-02	 1.0118580210e+00	-8.1763508269e+00
 1.7962997386e-02	 1.0123406446e+00	-8.1956296615e+00
 0.0000000000e+00	 1.0125000000e+00	-8.1873793551e+00
 1.8537485966e-01	 1.0017423441e+00	-6.8177300108e+00
 1.6647828164e-01	 1.0050554931e+00	-7.0507079429e+00
 1.4763672946e-01	 1.0079955152e+00	-7.2565501184e+00
 1.2886005953e-01	 1.0105674879e+00	-7.4352894425e+00
 1.1015781325e-01	 1.0127767862e+00	-7.5869486424e+00
 9.1539208615e-02	 1.0146290631e+00	-7.7115404285e+00
 7.3013133070e-02	 1.0161302303e+00	-7.8090680129e+00
 5.4588137540e-02	 1.0172864384e+00	-7.8795259486e+00
 3.6272431653e-02	 1.0181040581e+00	-7.9229012514e+00
 1.8073880085e-02	 1.0185896609e+00	-7.9391747694e+00
 0.0000000000e+00	 1.0187500000e+00	-7.9283227582e+00
 1.8651212874e-01	 1.0078880026e+00	-6.6126363154e+00
 1.6749962079e-01	 1.0112214777e+00	-6.8395831601e+00
 1.4854247626e-01	 1.0141795367e+00	-7.0397528085e+00
 1.2965061204e-01	 1.0167672884e+00	-7.2131903639e+00
 1.1083362805e-01	 1.0189901407e+00	-7.3599292415e+00
 9.2100798851e-02	 1.0208537813e+00	-7.4799913146e+00
 7.3461066401e-02	 1.0223641581e+00	-7.5733874308e+00
 5.4923034088e-02	 1.0235274595e+00	-7.6401182602e+00
 3.6494961908e-02	 1.0243500953e+00	-7.6801754387e+00
 1.8184762785e-02	 1.0248386773e+00	-7.6935429671e+00
 0.0000000000e+00	 1.0250000000e+00	-7.6801988275e+00
 1.8764939782e-01	 1.0140336612e+00	-6.4176709999e+00
 1.6852095994e-01	 1.0173874624e+00	-6.6385941496e+00
 1.4944822307e-01	 1.0203635583e+00	-6.8331104047e+00
 1.3044116455e-01	 1.0229670890e+00	-7.0012770139e+00
 1.1150944286e-01	 1.0252034952e+00	-7.1431379853e+00
 9.2662389087e-02	 1.0270784995e+00	-7.2587242191e+00
 7.3908999732e-02	 1.0285980859e+00	-7.3480540232e+00
 5.5257930637e-02	 1.0297684806e+00	-7.4111339730e+00
 3.6717492163e-02	 1.0305961325e+00	-7.4479600773e+00
 1.8295645484e-02	 1.0310876936e+00	-7.4585192105e+00
 0.0000000000e+00	 1.0312500000e+00	-7.4427907709e+00
 1.8878666689e-01	 1.0201793197e+00	-6.2326385933e+00
 1.6954229909e-01	 1.0235534470e+00	-6.4475439791e+00
 1.5035396987e-01	 1.0265475799e+00	-6.6364244690e+00
 1.3123171706e-01	 1.0291668895e+00	-6.7993494094e+00
 1.1218525766e-01	 1.0314168498e+00	-6.9363733102e+00
 9.3223979324e-02	 1.0333032177e+00	-7.0475359668e+00
 7.4356933063e-02	 1.0348320137e+00	-7.1328629763e+00
 5.5592827187e-02	 1.0360095017e+00	-7.1923666110e+00
 3.6940022419e-02	 1.0368421696e+00	-7.2260470092e+00
 1.8406528184e-02	 1.0373367099e+00	-7.2338936430e+00
 0.0000000000e+00	 1.0375000000e+00	-7.2158870204e+00
 1.8992393597e-01	 1.0263249783e+00	-6.0573484238e+00
 1.7056363824e-01	 1.0297194316e+00	-6.2662405326e+00
 1.5125971668e-01	 1.0327316014e+00	-6.4495014001e+00
 1.3202226958e-01	 1.0353666900e+00	-6.6072124260e+00
 1.1286107247e-01	 1.0376302043e+00	-6.7394385359e+00
 9.3785569562e-02	 1.0395279359e+00	-6.8462282921e+00
 7.4804866396e-02	 1.0410659415e+00	-6.9276144138e+00
 5.5927723736e-02	 1.0422505228e+00	-6.9836146656e+00
 3.7162552675e-02	 1.0430882068e+00	-7.0142330756e+00
 1.8517410884e-02	 1.0435857262e+00	-7.0194614406e+00
 0.0000000000e+00	 1.0437500000e+00	-6.9992810754e+00
 1.9106120505e-01	 1.0324706368e+00	-5.8916144758e+00
 1.7158497739e-01	 1.0358854162e+00	-6.0944963679e+00
 1.5216546349e-01	 1.0389156230e+00	-6.2721522892e+00
 1.3281282209e-01	 1.0415664906e+00	-6.4246756536e+00
 1.1353688727e-01	 1.0438435588e+00	-6.5521417194e+00
 9.4347159800e-02	 1.0457526540e+00	-6.6546076922e+00
 7.5252799729e-02	 1.0472998693e+00	-6.7321132496e+00
 5.6262620287e-02	 1.0484915439e+00	-6.7846814476e+00
 3.7385082931e-02	 1.0493342440e+00	-6.8123199677e+00
 1.8628293585e-02	 1.0498347426e+00	-6.8150226621e+00
 0.0000000000e+00	 1.0500000000e+00	-6.7927713518e+00
 1.9219847413e-01	 1.0386162954e+00	-5.7352552520e+00
 1.7260631655e-01	 1.0420514008e+00	-5.9321285778e+00
 1.5307121030e-01	 1.0450996446e+00	-6.1041927818e+00
 1.3360337460e-01	 1.0477662911e+00	-6.2515532569e+00
 1.1421270208e-01	 1.0500569133e+00	-6.3742955155e+00
 9.4908750039e-02	 1.0519773722e+00	-6.4724852867e+00
 7.5700733062e-02	 1.0535337970e+00	-6.5461690464e+00
 5.6597516837e-02	 1.0547325650e+00	-6.5953749448e+00
 3.7607613188e-02	 1.0555802811e+00	-6.6201140838e+00
 1.8739176285e-02	 1.0560837589e+00	-6.6203821044e+00
 0.0000000000e+00	 1.0562500000e+00	-6.5961610369e+00
 1.9333574321e-01	 1.0447619539e+00	-5.5880936408e+00
 1.7362765570e-01	 1.0482173855e+00	-5.7789586567e+00
 1.5397695711e-01	 1.0512836661e+00	-5.9454429432e+00
 1.3439392712e-01	 1.0539660917e+00	-6.0876638406e+00
 1.1488851689e-01	 1.0562702678e+00	-6.2057170414e+00
 9.5470340278e-02	 1.0582020904e+00	-6.2996766813e+00
 7.6148666396e-02	 1.0597677248e+00	-6.3695958791e+00
 5.6932413388e-02	 1.0609735861e+00	-6.4155076845e+00
 3.7830143444e-02	 1.0618263183e+00	-6.4374263904e+00
 1.8850058986e-02	 1.0623327752e+00	-6.4353491634e+00
 0.0000000000e+00	 1.0625000000e+00	-6.4092579490e+00
 1.0625000000e+00	 0.0000000000e+00	 1.5047068124e+00
 1.0623327752e+00	 1.8850058986e-02	 1.5278945161e+00
 1.0618263183e+00	 3.7830143444e-02	 1.5542576608e+00
 1.0609735861e+00	 5.6932413388e-02	 1.5841384417e+00
 1.0597677248e+00	 7.6148666396e-02	 1.6177887720e+00
 1.0582020904e+00	 9.5470340278e-02	 1.6553620234e+00
 1.0562702678e+00	 1.1488851689e-01	 1.6969050543e+00
 1.0539660917e+00	 1.3439392712e-01	 1.7423506219e+00
 1.0512836661e+00	 1.5397695711e-01	 1.7915102773e+00
 1.0482173855e+00	 1.7362765570e-01	 1.8440678454e+00
 1.0447619539e+00	 1.9333574321e-01	 1.8995735904e+00
 1.0687500000e+00	 0.0000000000e+00	 1.5672789440e+00
 1.0685817915e+00	 1.8960941686e-02	 1.5942354977e+00
 1.0680723555e+00	 3.8052673701e-02	 1.6230071413e+00
 1.0672146071e+00	 5.7267309940e-02	 1.6539031087e+00
 1.0660016526e+00	 7.6596599730e-02	 1.6871444591e+00
 1.0644268086e+00	 9.6031930518e-02	 1.7228559911e+00
 1.0624836223e+00	 1.1556433170e-01	 1.7610584483e+00
 1.0601658922e+00	 1.3518447964e-01	 1.8016611104e+00
 1.0574676877e+00	 1.5488270392e-01	 1.8444548700e+00
 1.0543833701e+00	 1.7464899486e-01	 1.8891058942e+00
 1.0509076125e+00	 1.9447301229e-01	 1.9351499749e+00
 1.0750000000e+00	 0.0000000000e+00	 1.6349900438e+00
 1.0748308079e+00	 1.9071824387e-02	 1.6655715164e+00
 1.0743183926e+00	 3.8275203958e-02	 1.6966361793e+00
 1.0734556282e+00	 5.7602206490e-02	 1.7284611514e+00
 1.0722355804e+00	 7.7044533063e-02	 1.7612374262e+00
 1.0706515268e+00	 9.6593520757e-02	 1.7950619542e+00
 1.0686969769e+00	 1.1624014650e-01	 1.8299300196e+00
 1.0663656927e+00	 1.3597503215e-01	 1.8657280055e+00
 1.0636517093e+00	 1.5578845072e-01	 1.9022266459e+00
 1.0605493547e+00	 1.7567033401e-01	 1.9390748655e+00
 1.0570532710e+00	 1.9561028137e-01	 1.9757943080e+00
 1.0812500000e+00	 0.0000000000e+00	 1.7077649968e+00
 1.0810798242e+00	 1.9182707087e-02	 1.7418283441e+00
 1.0805644298e+00	 3.8497734214e-02	 1.7750711299e+00
 1.0796966493e+00	 5.7937103041e-02	 1.8077391976e+00
 1.0784695082e+00	 7.7492466396e-02	 1.8399942567e+00
 1.0768762449e+00	 9.7155110995e-02	 1.8719061280e+00
 1.0749103314e+00	 1.1691596131e-01	 1.9034452859e+00
 1.0725654933e+00	 1.3676558466e-01	 1.9344757915e+00
 1.0698357308e+00	 1.5669419753e-01	 1.9647487158e+00
 1.0667153393e+00	 1.7669167316e-01	 1.9938961508e+00
 1.0631989296e+00	 1.9674755045e-01	 2.0214259124e+00
 1.0875000000e+00	 0.0000000000e+00	 1.7855304150e+00
 1.0873288405e+00	 1.9293589787e-02	 1.8229334476e+00
 1.0868104670e+00	 3.8720264470e-02	 1.8582400199e+00
 1.0859376704e+00	 5.8271999590e-02	 1.8916655324e+00
 1.0847034360e+00	 7.7940399728e-02	 1.9233431855e+00
 1.0831009631e+00	 9.7716701232e-02	 1.9533163824e+00
 1.0811236859e+00	 1.1759177612e-01	 1.9815314311e+00
 1.0787652938e+00	 1.3755613718e-01	 2.0078306407e+00
 1.0760197524e+00	 1.5759994434e-01	 2.0319459089e+00
 1.0728813239e+00	 1.7771301231e-01	 2.0534929010e+00
 1.0693445882e+00	 1.9788481953e-01	 2.0719659205e+00
 1.0937500000e+00	 0.0000000000e+00	 1.8682145875e+00
 1.0935778568e+00	 1.9404472487e-02	 1.9088159404e+00
 1.0930565041e+00	 3.8942794725e-02	 1.9460725004e+00
 1.0921786915e+00	 5.8606896140e-02	 1.9801700505e+00
 1.0909373638e+00	 7.8388333060e-02	 2.0112140511e+00
 1.0893256813e+00	 9.8278291469e-02	 2.0392221937e+00
 1.0873370404e+00	 1.1826759092e-01	 2.0641172580e+00
 1.0849650944e+00	 1.3834668969e-01	 2.0857203650e+00
 1.0822037740e+00	 1.5850569115e-01	 2.1037447245e+00
 1.0790473086e+00	 1.7873435146e-01	 2.1177899759e+00
 1.0754902467e+00	 1.9902208861e-01	 2.1273372228e+00
 1.1000000000e+00	 0.0000000000e+00	 1.9557474334e+00
 1.0998268732e+00	 1.9515355187e-02	 1.9994065359e+00
 1.0993025413e+00	 3.9165324981e-02	 2.0384998000e+00
 1.0984197126e+00	 5.8941792689e-02	 2.0731842107e+00
 1.0971712916e+00	 7.8836266391e-02	 2.1035382505e+00
 1.0955503995e+00	 9.8839881706e-02	 2.1295545998e+00
 1.0935503949e+00	 1.1894340573e-01	 2.1511331421e+00
 1.0911648949e+00	 1.3913724220e-01	 2.1680743694e+00
 1.0883877955e+00	 1.5941143795e-01	 2.1800732839e+00
 1.0852132932e+00	 1.7975569061e-01	 2.1867138960e+00
 1.0816359053e+00	 2.0015935768e-01	 2.1874644174e+00
 1.1062500000e+00	 0.0000000000e+00	 2.0480604555e+00
 1.1060758895e+00	 1.9626237886e-02	 2.0946375023e+00
 1.1055485785e+00	 3.9387855236e-02	 2.1354546809e+00
 1.1046607337e+00	 5.9276689237e-02	 2.1706409915e+00
 1.1034052194e+00	 7.9284199722e-02	 2.2002486953e+00
 1.1017751177e+00	 9.9401471941e-02	 2.2242461558e+00
 1.0997637494e+00	 1.1961922053e-01	 2.2425109873e+00
 1.0973646954e+00	 1.3992779471e-01	 2.2548236069e+00
 1.0945718171e+00	 1.6031718476e-01	 2.2608612851e+00
 1.0913792778e+00	 1.8077702977e-01	 2.2601927955e+00
 1.0877815638e+00	 2.0129662676e-01	 2.2522737625e+00
 1.1125000000e+00	 0.0000000000e+00	 2.1450866959e+00
 1.1123249058e+00	 1.9737120586e-02	 2.1944426186e+00
 1.1117946156e+00	 3.9610385490e-02	 2.2368713957e+00
 1.1109017548e+00	 5.9611585785e-02	 2.2724748487e+00
 1.1096391472e+00	 7.9732133052e-02	 2.3012797687e+00
 1.1079998358e+00	 9.9963062176e-02	 2.3232308910e+00
 1.1059771040e+00	 1.2029503533e-01	 2.3381841828e+00
 1.1035644960e+00	 1.4071834722e-01	 2.3459005350e+00
 1.1007558387e+00	 1.6122293156e-01	 2.3460399579e+00
 1.0975452624e+00	 1.8179836891e-01	 2.3381563769e+00
 1.0939272224e+00	 2.0243389584e-01	 2.3216931293e+00
 1.1187500000e+00	 0.0000000000e+00	 2.2467606929e+00
 1.1185739221e+00	 1.9848003285e-02	 2.2987571330e+00
 1.1180406528e+00	 3.9832915744e-02	 2.3426856452e+00
 1.1171427759e+00	 5.9946482332e-02	 2.3786216739e+00
 1.1158730750e+00	 8.0180066382e-02	 2.4065672847e+00
 1.1142245540e+00	 1.0052465241e-01	 2.4264442685e+00
 1.1121904585e+00	 1.2097085014e-01	 2.4380875617e+00
 1.1097642965e+00	 1.4150889973e-01	 2.4412390739e+00
 1.1069398602e+00	 1.6212867837e-01	 2.4355420218e+00
 1.1037112471e+00	 1.8281970806e-01	 2.4205358670e+00
 1.1000728809e+00	 2.0357116491e-01	 2.3956519570e+00
 1.1250000000e+00	 0.0000000000e+00	 2.3530184396e+00
 1.1248229385e+00	 1.9958885984e-02	 2.4075177214e+00
 1.1242866900e+00	 4.0055445998e-02	 2.4528345389e+00
 1.1233837970e+00	 6.0281378879e-02	 2.4890187547e+00
 1.1221070028e+00	 8.0627999711e-02	 2.5160484482e+00
 1.1204492722e+00	 1.0108624264e-01	 2.5338231446e+00
 1.1184038130e+00	 1.2164666494e-01	 2.5421573611e+00
 1.1159640971e+00	 1.4229945224e-01	 2.5407745657e+00
 1.1131238818e+00	 1.6303442517e-01	 2.5293016443e+00
 1.1098772317e+00	 1.8384104721e-01	 2.5072639750e+00
 1.1062185395e+00	 2.0470843399e-01	 2.4740812092e+00
 1.0447619539e+00	 1.9333574321e-01	 1.8995735904e+00
 1.0409124060e+00	 2.1309062144e-01	 2.0235839566e+00
 1.0366641262e+00	 2.3288138506e-01	 2.1458055497e+00
 1.0320128681e+00	 2.5269683427e-01	 2.2656432950e+00
 1.0269547741e+00	 2.7252548881e-01	 2.3823739891e+00
 1.0214863931e+00	 2.9235560330e-01	 2.4951448098e+00
 1.0156046990e+00	 3.1217518385e-01	 2.6029729508e+00
 1.0093071075e+00	 3.3197200596e-01	 2.7047464512e+00
 1.0025914925e+00	 3.5173363374e-01	 2.7992262804e+00
 9.9545620153e-01	 3.7144744022e-01	 2.8850497262e+00
 9.8790006987e-01	 3.9110062893e-01	 2.9607351236e+00
 1.0509076125e+00	 1.9447301229e-01	 1.9351499749e+00
 1.0470354202e+00	 2.1434409569e-01	 2.0508066613e+00
 1.0427621504e+00	 2.3425127556e-01	 2.1645616390e+00
 1.0380835320e+00	 2.5418328624e-01	 2.2758335782e+00
 1.0329956845e+00	 2.7412857992e-01	 2.3839122904e+00
 1.0274951366e+00	 2.9407534215e-01	 2.4879571874e+00
 1.0215788443e+00	 3.1401150846e-01	 2.5869968762e+00
 1.0152442081e+00	 3.3392478247e-01	 2.6799299614e+00
 1.0084890895e+00	 3.5380265512e-01	 2.7655271151e+00
 1.0013118262e+00	 3.7363242516e-01	 2.8424344652e+00
 9.9371124676e-01	 3.9340122087e-01	 2.9091783378e+00
 1.0570532710e+00	 1.9561028137e-01	 1.9757943080e+00
 1.0531584344e+00	 2.1559756993e-01	 2.0832476704e+00
 1.0488601747e+00	 2.3562116607e-01	 2.1887031075e+00
 1.0441541960e+00	 2.5566973821e-01	 2.2915928349e+00
 1.0390365949e+00	 2.7573167104e-01	 2.3912194076e+00
 1.0335038800e+00	 2.9579508099e-01	 2.4867541262e+00
 1.0275529896e+00	 3.1584783307e-01	 2.5772365911e+00
 1.0211813088e+00	 3.3587755898e-01	 2.6615754766e+00
 1.0143866866e+00	 3.5587167649e-01	 2.7385505872e+00
 1.0071674510e+00	 3.7581741011e-01	 2.8068162451e+00
 9.9952242364e-01	 3.9570181281e-01	 2.8649060483e+00
 1.0631989296e+00	 1.9674755045e-01	 2.0214259124e+00
 1.0592814485e+00	 2.1685104418e-01	 2.1208242349e+00
 1.0549581990e+00	 2.3699105657e-01	 2.2181450713e+00
 1.0502248599e+00	 2.5715619017e-01	 2.3128339853e+00
 1.0450775054e+00	 2.7733476215e-01	 2.4042060051e+00
 1.0395126235e+00	 2.9751481983e-01	 2.4914439759e+00
 1.0335271349e+00	 3.1768415768e-01	 2.5735980731e+00
 1.0271184094e+00	 3.3783033548e-01	 2.6495865469e+00
 1.0202842836e+00	 3.5794069787e-01	 2.7181977648e+00
 1.0130230757e+00	 3.7800239505e-01	 2.7780935993e+00
 1.0053336005e+00	 3.9800240474e-01	 2.8278142021e+00
 1.0693445882e+00	 1.9788481953e-01	 2.0719659205e+00
 1.0654044627e+00	 2.1810451842e-01	 2.1634554674e+00
 1.0610562233e+00	 2.3836094707e-01	 2.2528045637e+00
 1.0562955238e+00	 2.5864264214e-01	 2.3394719247e+00
 1.0511184158e+00	 2.7893785326e-01	 2.4227847830e+00
 1.0455213670e+00	 2.9923455868e-01	 2.5019371864e+00
 1.0395012801e+00	 3.1952048229e-01	 2.5759894672e+00
 1.0330555100e+00	 3.3978311199e-01	 2.6438689595e+00
 1.0261818806e+00	 3.6000971925e-01	 2.7043720256e+00
 1.0188787004e+00	 3.8018737999e-01	 2.7561674459e+00
 1.0111447774e+00	 4.0030299668e-01	 2.7978012090e+00
 1.0754902467e+00	 1.9902208861e-01	 2.1273372228e+00
 1.0715274768e+00	 2.1935799267e-01	 2.2110622889e+00
 1.0671542475e+00	 2.3973083757e-01	 2.2926004797e+00
 1.0623661878e+00	 2.6012909411e-01	 2.3714234667e+00
 1.0571593262e+00	 2.8054094437e-01	 2.4468704199e+00
 1.0515301105e+00	 3.0095429752e-01	 2.5181462476e+00
 1.0454754254e+00	 3.2135680690e-01	 2.5843210240e+00
 1.0389926107e+00	 3.4173588850e-01	 2.6443306750e+00
 1.0320794776e+00	 3.6207874062e-01	 2.6969789918e+00
 1.0247343251e+00	 3.8237236494e-01	 2.7409410206e+00
 1.0169559543e+00	 4.0260358861e-01	 2.7747678716e+00
 1.0816359053e+00	 2.0015935768e-01	 2.1874644174e+00
 1.0776504910e+00	 2.2061146691e-01	 2.2635673776e+00
 1.0732522718e+00	 2.4110072807e-01	 2.3374535233e+00
 1.0684368517e+00	 2.6161554607e-01	 2.4086072892e+00
 1.0632002367e+00	 2.8214403548e-01	 2.4763795156e+00
 1.0575388540e+00	 3.0267403636e-01	 2.5399856322e+00
 1.0514495707e+00	 3.2319313152e-01	 2.5985050396e+00
 1.0449297113e+00	 3.4368866500e-01	 2.6508817659e+00
 1.0379770746e+00	 3.6414776200e-01	 2.6959264653e+00
 1.0305899498e+00	 3.8455734988e-01	 2.7323198099e+00
 1.0227671312e+00	 4.0490418055e-01	 2.7586173173e+00
 1.0877815638e+00	 2.0129662676e-01	 2.2522737625e+00
 1.0837735051e+00	 2.2186494116e-01	 2.3208951188e+00
 1.0793502961e+00	 2.4247061857e-01	 2.3872861568e+00
 1.0745075156e+00	 2.6310199804e-01	 2.4509438810e+00
 1.0692411471e+00	 2.8374712659e-01	 2.5112305379e+00
 1.0635475975e+00	 3.0439377521e-01	 2.5673717390e+00
 1.0574237160e+00	 3.2502945613e-01	 2.6184557979e+00
 1.0508668120e+00	 3.4564144151e-01	 2.6634343563e+00
 1.0438746717e+00	 3.6621678337e-01	 2.7011243669e+00
 1.0364455746e+00	 3.8674233482e-01	 2.7302114884e+00
 1.0285783081e+00	 4.0720477248e-01	 2.7492549324e+00
 1.0939272224e+00	 2.0243389584e-01	 2.3216931293e+00
 1.0898965193e+00	 2.2311841540e-01	 2.3829715577e+00
 1.0854483204e+00	 2.4384050907e-01	 2.4420225507e+00
 1.0805781796e+00	 2.6458845000e-01	 2.4983554918e+00
 1.0752820576e+00	 2.8535021770e-01	 2.5513437691e+00
 1.0695563410e+00	 3.0611351405e-01	 2.6002228389e+00
 1.0633978613e+00	 3.2686578074e-01	 2.6440895151e+00
 1.0568039126e+00	 3.4759421801e-01	 2.6819025648e+00
 1.0497722687e+00	 3.6828580474e-01	 2.7124846763e+00
 1.0423011993e+00	 3.8892731976e-01	 2.7345258566e+00
 1.0343894849e+00	 4.0950536441e-01	 2.7465882992e+00
 1.1000728809e+00	 2.0357116491e-01	 2.3956519570e+00
 1.0960195334e+00	 2.2437188964e-01	 2.4497243522e+00
 1.0915463446e+00	 2.4521039957e-01	 2.5015885367e+00
 1.0866488435e+00	 2.6607490197e-01	 2.5507660822e+00
 1.0813229680e+00	 2.8695330881e-01	 2.5966412562e+00
 1.0755650845e+00	 3.0783325289e-01	 2.6384590229e+00
 1.0693720066e+00	 3.2870210535e-01	 2.6753242851e+00
 1.0627410132e+00	 3.4954699452e-01	 2.7062024486e+00
 1.0556698657e+00	 3.7035482612e-01	 2.7299213748e+00
 1.0481568240e+00	 3.9111230470e-01	 2.7451747819e+00
 1.0402006618e+00	 4.1180595635e-01	 2.7505271338e+00
 1.1062185395e+00	 2.0470843399e-01	 2.4740812092e+00
 1.1021425476e+00	 2.2562536388e-01	 2.5210827287e+00
 1.0976443689e+00	 2.4658029007e-01	 2.5659115608e+00
 1.0927195074e+00	 2.6756135393e-01	 2.6081012767e+00
 1.0873638784e+00	 2.8855639992e-01	 2.6470467614e+00
 1.0815738280e+00	 3.0955299173e-01	 2.6820021513e+00
 1.0753461519e+00	 3.3053842996e-01	 2.7120800279e+00
 1.0686781139e+00	 3.5149977102e-01	 2.7362519496e+00
 1.0615674627e+00	 3.7242384749e-01	 2.7533503899e+00
 1.0540124487e+00	 3.9329728964e-01	 2.7620721413e+00
 1.0460118387e+00	 4.1410654828e-01	 2.7609832276e+00
 9.8790006987e-01	 3.9110062893e-01	 2.9607351236e+00
 9.7992243410e-01	 4.1068025658e-01	 3.0989911825e+00
 9.7152314394e-01	 4.3017325671e-01	 3.2251352936e+00
 9.6270257299e-01	 4.4956646444e-01	 3.3377444822e+00
 9.5346162811e-01	 4.6884664200e-01	 3.4352996173e+00
 9.4380175725e-01	 4.8800050513e-01	 3.5161948630e+00
 9.3372495580e-01	 5.0701475020e-01	 3.5787483870e+00
 9.2323377133e-01	 5.2587608186e-01	 3.6212142619e+00
 9.1233130665e-01	 5.4457124134e-01	 3.6417954828e+00
 9.0102122121e-01	 5.6308703494e-01	 3.6386580065e+00
 8.8930773066e-01	 5.8141036297e-01	 3.6099457005e+00
 9.9371124676e-01	 3.9340122087e-01	 2.9091783378e+00
 9.8568668372e-01	 4.1309602280e-01	 3.0400031893e+00
 9.7723798597e-01	 4.3270368764e-01	 3.1579480740e+00
 9.6836552931e-01	 4.5221097306e-01	 3.2615072978e+00
 9.5907022593e-01	 4.7160456343e-01	 3.3490793433e+00
 9.4935353230e-01	 4.9087109634e-01	 3.4189767995e+00
 9.3921745554e-01	 5.0999718991e-01	 3.4694375650e+00
 9.2866455822e-01	 5.2896947058e-01	 3.4986372585e+00
 9.1769796140e-01	 5.4777460158e-01	 3.5047027569e+00
 9.0632134604e-01	 5.6639931162e-01	 3.4857267605e+00
 8.9453895261e-01	 5.8483042393e-01	 3.4397832718e+00
 9.9952242364e-01	 3.9570181281e-01	 2.8649060483e+00
 9.9145093334e-01	 4.1551178901e-01	 2.9881995625e+00
 9.8295282799e-01	 4.3523411856e-01	 3.0978634796e+00
 9.7402848563e-01	 4.5485548168e-01	 3.1923092542e+00
 9.6467882375e-01	 4.7436248485e-01	 3.2698527807e+00
 9.5490530734e-01	 4.9374168755e-01	 3.3287248014e+00
 9.4470995528e-01	 5.1297962961e-01	 3.3670826053e+00
 9.3409534511e-01	 5.3206285930e-01	 3.3830229504e+00
 9.2306461615e-01	 5.5097796183e-01	 3.3745961233e+00
 9.1162147087e-01	 5.6971158830e-01	 3.3398210341e+00
 8.9977017455e-01	 5.8825048489e-01	 3.2767012268e+00
 1.0053336005e+00	 3.9800240474e-01	 2.8278142021e+00
 9.9721518295e-01	 4.1792755523e-01	 2.9434805463e+00
 9.8866767002e-01	 4.3776454948e-01	 3.0447858821e+00
 9.7969144194e-01	 4.5749999029e-01	 3.1300586685e+00
 9.7028742156e-01	 4.7712040628e-01	 3.1975319977e+00
 9.6045708239e-01	 4.9661227876e-01	 3.2453544810e+00
 9.5020245503e-01	 5.1596206932e-01	 3.2716024462e+00
 9.3952613200e-01	 5.3515624802e-01	 3.2742933715e+00
 9.2843127089e-01	 5.5418132207e-01	 3.2514004703e+00
 9.1692159570e-01	 5.7302386497e-01	 3.2008683172e+00
 9.0500139650e-01	 5.9167054585e-01	 3.1206293945e+00
 1.0111447774e+00	 4.0030299668e-01	 2.7978012090e+00
 1.0029794326e+00	 4.2034332144e-01	 2.9057487689e+00
 9.9438251205e-01	 4.4029498041e-01	 2.9986219633e+00
 9.8535439826e-01	 4.6014449891e-01	 3.0746660994e+00
 9.7589601938e-01	 4.7987832770e-01	 3.1320312406e+00
 9.6600885743e-01	 4.9948286997e-01	 3.1687835717e+00
 9.5569495477e-01	 5.1894450903e-01	 3.1829180950e+00
 9.4495691890e-01	 5.3824963674e-01	 3.1723725792e+00
 9.3379792564e-01	 5.5738468232e-01	 3.1350426699e+00
 9.2222172054e-01	 5.7633614165e-01	 3.0687980506e+00
 9.1023261844e-01	 5.9509060681e-01	 2.9714995278e+00
 1.0169559543e+00	 4.0260358861e-01	 2.7747678716e+00
 1.0087436822e+00	 4.2275908766e-01	 2.8749091744e+00
 1.0000973541e+00	 4.4282541133e-01	 2.9592806490e+00
 9.9101735457e-01	 4.6278900752e-01	 3.0260442827e+00
 9.8150461719e-01	 4.8263624912e-01	 3.0732668715e+00
 9.7156063248e-01	 5.0235346117e-01	 3.0989318665e+00
 9.6118745451e-01	 5.2192694874e-01	 3.1009525690e+00
 9.5038770579e-01	 5.4134302545e-01	 3.0771865964e+00
 9.3916458038e-01	 5.6058804256e-01	 3.0254515212e+00
 9.2752184537e-01	 5.7964841833e-01	 2.9435415696e+00
 9.1546384039e-01	 5.9851066777e-01	 2.8292452476e+00
 1.0227671312e+00	 4.0490418055e-01	 2.7586173173e+00
 1.0145079318e+00	 4.2517485387e-01	 2.8508689570e+00
 1.0058121961e+00	 4.4535584225e-01	 2.9266730452e+00
 9.9668031088e-01	 4.6543351613e-01	 2.9841080697e+00
 9.8711321500e-01	 4.8539417055e-01	 3.0211573087e+00
 9.7711240752e-01	 5.0522405238e-01	 3.0357211603e+00
 9.6667995425e-01	 5.2490938844e-01	 3.0256308382e+00
 9.5581849268e-01	 5.4443641417e-01	 2.9886633556e+00
 9.4453123513e-01	 5.6379140280e-01	 2.9225576957e+00
 9.3282197020e-01	 5.8296069500e-01	 2.8250320502e+00
 9.2069506233e-01	 6.0193072873e-01	 2.6938019905e+00
 1.0285783081e+00	 4.0720477248e-01	 2.7492549324e+00
 1.0202721814e+00	 4.2759062009e-01	 2.8335374972e+00
 1.0115270381e+00	 4.4788627317e-01	 2.9007123769e+00
 1.0023432672e+00	 4.6807802475e-01	 2.9487743673e+00
 9.9272181282e-01	 4.8815209197e-01	 2.9756229680e+00
 9.8266418256e-01	 5.0809464358e-01	 2.9790751931e+00
 9.7217245399e-01	 5.2789182815e-01	 2.9568797703e+00
 9.6124927957e-01	 5.4752980289e-01	 2.9067326451e+00
 9.4989788988e-01	 5.6699476305e-01	 2.8262936843e+00
 9.3812209503e-01	 5.8627297168e-01	 2.7132044577e+00
 9.2592628428e-01	 6.0535078969e-01	 2.5651069571e+00
 1.0343894849e+00	 4.0950536441e-01	 2.7465882992e+00
 1.0260364310e+00	 4.3000638630e-01	 2.8228263010e+00
 1.0172418801e+00	 4.5041670409e-01	 2.8813139279e+00
 1.0080062235e+00	 4.7072253336e-01	 2.9199620806e+00
 9.9833041063e-01	 4.9091001339e-01	 2.9365862069e+00
 9.8821595761e-01	 5.1096523479e-01	 2.9289195949e+00
 9.7766495373e-01	 5.3087426785e-01	 2.8946280773e+00
 9.6668006646e-01	 5.5062319160e-01	 2.8313260569e+00
 9.5526454462e-01	 5.7019812329e-01	 2.7365937463e+00
 9.4342221986e-01	 5.8958524835e-01	 2.6079954956e+00
 9.3115750622e-01	 6.0877085064e-01	 2.4430990628e+00
 1.0402006618e+00	 4.1180595635e-01	 2.7505271338e+00
 1.0318006806e+00	 4.3242215251e-01	 2.8186489399e+00
 1.0229567222e+00	 4.5294713501e-01	 2.8683949837e+00
 1.0136691798e+00	 4.7336704197e-01	 2.8975920568e+00
 1.0039390084e+00	 4.9366793481e-01	 2.9039712704e+00
 9.9376773265e-01	 5.1383582599e-01	 2.8851818337e+00
 9.8315745347e-01	 5.3385670756e-01	 2.8388062641e+00
 9.7211085335e-01	 5.5371658031e-01	 2.7623769360e+00
 9.6063119936e-01	 5.7340148353e-01	 2.6533938598e+00
 9.4872234469e-01	 5.9289752503e-01	 2.5093435577e+00
 9.3638872817e-01	 6.1219091160e-01	 2.3277188894e+00
 1.0460118387e+00	 4.1410654828e-01	 2.7609832276e+00
 1.0375649302e+00	 4.3483791872e-01	 2.8209209938e+00
 1.0286715642e+00	 4.5547756592e-01	 2.8618747761e+00
 1.0193321361e+00	 4.7601155058e-01	 2.8815870311e+00
 1.0095476063e+00	 4.9642585623e-01	 2.8777042382e+00
 9.9931950769e-01	 5.1670641719e-01	 2.8477911639e+00
 9.8864995321e-01	 5.3683914726e-01	 2.7893465785e+00
 9.7754164024e-01	 5.5680996903e-01	 2.6998203322e+00
 9.6599785411e-01	 5.7660484377e-01	 2.5766316742e+00
 9.5402246952e-01	 5.9620980170e-01	 2.4171886807e+00
 9.4161995011e-01	 6.1561097256e-01	 2.2189086391e+00
 8.8930773066e-01	 5.8141036297e-01	 3.6099457005e+00
 8.7719560475e-01	 5.9952824871e-01	 3.5204753900e+00
 8.6469016330e-01	 6.1742786743e-01	 3.3504350248e+00
 8.5179727049e-01	 6.3509657531e-01	 3.3362956168e+00
 8.3852332723e-01	 6.5252193808e-01	 3.4276772148e+00
 8.2487526179e-01	 6.6969175929e-01	 3.4518766796e+00
 8.1086051864e-01	 6.8659410810e-01	 3.4111332745e+00
 7.9648704554e-01	 7.0321734639e-01	 3.3078960653e+00
 7.8176327890e-01	 7.1955015512e-01	 3.1448107831e+00
 7.6669812758e-01	 7.3558155981e-01	 2.9247057971e+00
 7.5130095500e-01	 7.5130095500e-01	 2.6505773159e+00
 8.9453895261e-01	 5.8483042393e-01	 3.4397832718e+00
 8.8235557889e-01	 6.0305488547e-01	 3.3337810640e+00
 8.6977657602e-01	 6.2105979606e-01	 3.1495113031e+00
 8.5680784266e-01	 6.3883243752e-01	 3.2072534863e+00
 8.4345581738e-01	 6.5636030242e-01	 3.2880555604e+00
 8.2972746921e-01	 6.7363112258e-01	 3.3042395822e+00
 8.1563028640e-01	 6.9063289697e-01	 3.2580467580e+00
 8.0117226345e-01	 7.0735391901e-01	 3.1519187602e+00
 7.8636188642e-01	 7.2378280309e-01	 2.9884845028e+00
 7.7120811657e-01	 7.3990851016e-01	 2.7705460800e+00
 7.5572037238e-01	 7.5572037238e-01	 2.5010639852e+00
 8.9977017455e-01	 5.8825048489e-01	 3.2767012268e+00
 8.8751555303e-01	 6.0658152223e-01	 3.1542107894e+00
 8.7486298874e-01	 6.2469172470e-01	 2.9557249092e+00
 8.6181841484e-01	 6.4256829973e-01	 3.0829559877e+00
 8.4838830754e-01	 6.6019866676e-01	 3.1529899852e+00
 8.3457967663e-01	 6.7757048587e-01	 3.1609442415e+00
 8.2040005415e-01	 6.9467168584e-01	 3.1090625017e+00
 8.0585748136e-01	 7.1149049164e-01	 2.9997796982e+00
 7.9096049394e-01	 7.2801545106e-01	 2.8357086351e+00
 7.7571810555e-01	 7.4423546051e-01	 2.6196258891e+00
 7.6013978976e-01	 7.6013978976e-01	 2.3544570444e+00
 9.0500139650e-01	 5.9167054585e-01	 3.1206293945e+00
 8.9267552718e-01	 6.1010815898e-01	 2.9816969119e+00
 8.7994940147e-01	 6.2832365333e-01	 2.8426066705e+00
 8.6682898702e-01	 6.4630416194e-01	 2.9633052907e+00
 8.5332079770e-01	 6.6403703111e-01	 3.0223848774e+00
 8.3943188405e-01	 6.8150984916e-01	 3.0218977805e+00
 8.2516982190e-01	 6.9871047471e-01	 2.9640908779e+00
 8.1054269927e-01	 7.1562706426e-01	 2.8513930117e+00
 7.9555910146e-01	 7.3224809903e-01	 2.6864015789e+00
 7.8022809453e-01	 7.4856241086e-01	 2.4718683910e+00
 7.6455920714e-01	 7.6455920714e-01	 2.2106849205e+00
 9.1023261844e-01	 5.9509060681e-01	 2.9714995278e+00
 8.9783550132e-01	 6.1363479574e-01	 2.8161736701e+00
 8.8503581419e-01	 6.3195558196e-01	 2.7411208950e+00
 8.7183955920e-01	 6.5004002415e-01	 2.8482053620e+00
 8.5825328786e-01	 6.6787539545e-01	 2.8961463579e+00
 8.4428409147e-01	 6.8544921245e-01	 2.8870089793e+00
 8.2993958966e-01	 7.0274926359e-01	 2.8230438293e+00
 8.1522791719e-01	 7.1976363689e-01	 2.7066743066e+00
 8.0015770899e-01	 7.3648074700e-01	 2.5404830993e+00
 7.8473808352e-01	 7.5288936121e-01	 2.3271979994e+00
 7.6897862452e-01	 7.6897862452e-01	 2.0696771591e+00
 9.1546384039e-01	 5.9851066777e-01	 2.8292452476e+00
 9.0299547547e-01	 6.1716143250e-01	 2.6575771410e+00
 8.9012222692e-01	 6.3558751060e-01	 2.6442488998e+00
 8.7685013137e-01	 6.5377588636e-01	 2.7375619142e+00
 8.6318577802e-01	 6.7171375979e-01	 2.7741822309e+00
 8.4913629889e-01	 6.8938857574e-01	 2.7561882279e+00
 8.3470935741e-01	 7.0678805246e-01	 2.6858348247e+00
 8.1991313510e-01	 7.2390020952e-01	 2.5655406201e+00
 8.0475631651e-01	 7.4071339497e-01	 2.3978742872e+00
 7.8924807250e-01	 7.5721631156e-01	 2.1855403395e+00
 7.7339804191e-01	 7.7339804191e-01	 1.9313643920e+00
 9.2069506233e-01	 6.0193072873e-01	 2.6938019905e+00
 9.0815544962e-01	 6.2068806926e-01	 2.5058451878e+00
 8.9520863964e-01	 6.3921943923e-01	 2.5518965472e+00
 8.8186070355e-01	 6.5751174856e-01	 2.6312823562e+00
 8.6811826818e-01	 6.7555212413e-01	 2.6564019358e+00
 8.5398850631e-01	 6.9332793904e-01	 2.6293474806e+00
 8.3947912517e-01	 7.1082684133e-01	 2.5523788153e+00
 8.2459835302e-01	 7.2803678214e-01	 2.4279103803e+00
 8.0935492403e-01	 7.4494604294e-01	 2.2584975230e+00
 7.9375806149e-01	 7.6154326192e-01	 2.0468222135e+00
 7.7781745929e-01	 7.7781745929e-01	 1.7956783071e+00
 9.2592628428e-01	 6.0535078969e-01	 2.5651069571e+00
 9.1331542376e-01	 6.2421470601e-01	 2.3609174096e+00
 9.0029505237e-01	 6.4285136786e-01	 2.4639713965e+00
 8.8687127573e-01	 6.6124761077e-01	 2.5292757449e+00
 8.7305075834e-01	 6.7939048848e-01	 2.5427165014e+00
 8.5884071373e-01	 6.9726730233e-01	 2.5064002115e+00
 8.4424889293e-01	 7.1486563020e-01	 2.4225921931e+00
 8.2928357093e-01	 7.3217335477e-01	 2.2937033664e+00
 8.1395353155e-01	 7.4917869092e-01	 2.1222764390e+00
 7.9826805048e-01	 7.6587021227e-01	 1.9109715674e+00
 7.8223687667e-01	 7.8223687667e-01	 1.6625516177e+00
 9.3115750622e-01	 6.0877085064e-01	 2.4430990628e+00
 9.1847539791e-01	 6.2774134277e-01	 2.2778694060e+00
 9.0538146509e-01	 6.4648329649e-01	 2.3803826566e+00
 8.9188184791e-01	 6.6498347298e-01	 2.4314527394e+00
 8.7798324850e-01	 6.8322885282e-01	 2.4330385009e+00
 8.6369292116e-01	 7.0120666562e-01	 2.3872613719e+00
 8.4901866069e-01	 7.1890441908e-01	 2.2963927501e+00
 8.3396878885e-01	 7.3630992740e-01	 2.1628406712e+00
 8.1855213908e-01	 7.5341133889e-01	 1.9891358851e+00
 8.0277803946e-01	 7.7019716262e-01	 1.7779174590e+00
 7.8665629406e-01	 7.8665629406e-01	 1.5319180343e+00
 9.3638872817e-01	 6.1219091160e-01	 2.3277188894e+00
 9.2363537205e-01	 6.3126797953e-01	 2.2152459484e+00
 9.1046787782e-01	 6.5011522512e-01	 2.3010411399e+00
 8.9689242009e-01	 6.6871933519e-01	 2.3377255561e+00
 8.8291573866e-01	 6.8706721716e-01	 2.3272820090e+00
 8.6854512858e-01	 7.0514602891e-01	 2.2718473491e+00
 8.5378842844e-01	 7.2294320795e-01	 2.1736996394e+00
 8.3865400676e-01	 7.4044650003e-01	 2.0352446645e+00
 8.2315074660e-01	 7.5764398686e-01	 1.8590018941e+00
 8.0728802845e-01	 7.7452411298e-01	 1.6475900267e+00
 7.9107571144e-01	 7.9107571144e-01	 1.4037122365e+00
 9.4161995011e-01	 6.1561097256e-01	 2.2189086391e+00
 9.2879534620e-01	 6.3479461628e-01	 2.1569091771e+00
 9.1555429054e-01	 6.5374715376e-01	 2.2258592174e+00
 9.0190299227e-01	 6.7245519740e-01	 2.2480079252e+00
 8.8784822882e-01	 6.9090558150e-01	 2.2253625600e+00
 8.7339733600e-01	 7.0908539220e-01	 2.1600759267e+00
 8.5855819620e-01	 7.2698199682e-01	 2.0544333376e+00
 8.4333922468e-01	 7.4458307265e-01	 1.9108389570e+00
 8.2774935413e-01	 7.6187663484e-01	 1.7318016495e+00
 8.1179801744e-01	 7.7885106333e-01	 1.5199204594e+00
 7.9549512882e-01	 7.9549512882e-01	 1.2778698461e+00
 7.5130095500e-01	 7.5130095500e-01	 2.6505773159e+00
 7.3558155981e-01	 7.6669812758e-01	 2.4200437908e+00
 7.1955015512e-01	 7.8176327890e-01	 2.1937393156e+00
 7.0321734639e-01	 7.9648704554e-01	 1.9740673800e+00
 6.8659410810e-01	 8.1086051864e-01	 1.7633525773e+00
 6.6969175929e-01	 8.2487526179e-01	 1.5638292259e+00
 6.5252193808e-01	 8.3852332723e-01	 1.3776308757e+00
 6.3509657531e-01	 8.5179727049e-01	 1.2067807749e+00
 6.1742786743e-01	 8.6469016330e-01	 8.9076192760e-01
 5.9952824871e-01	 8.7719560475e-01	 3.8419260373e-01
 5.8141036297e-01	 8.8930773066e-01	-9.1205025225e-02
 7.5572037238e-01	 7.5572037238e-01	 2.5010639852e+00
 7.3990851016e-01	 7.7120811657e-01	 2.2733954110e+00
 7.2378280309e-01	 7.8636188642e-01	 2.0501311764e+00
 7.0735391901e-01	 8.0117226345e-01	 1.8336109447e+00
 6.9063289697e-01	 8.1563028640e-01	 1.6260944642e+00
 6.7363112258e-01	 8.2972746921e-01	 1.4297504296e+00
 6.5636030242e-01	 8.4345581738e-01	 1.2466462395e+00
 6.3883243752e-01	 8.5680784266e-01	 1.0787387188e+00
 6.2105979606e-01	 8.6977657602e-01	 8.4395808514e-01
 6.0305488547e-01	 8.8235557889e-01	 3.3863213477e-01
 5.8483042393e-01	 8.9453895261e-01	-1.3575478122e-01
 7.6013978976e-01	 7.6013978976e-01	 2.3544570444e+00
 7.4423546051e-01	 7.7571810555e-01	 2.1292657928e+00
 7.2801545106e-01	 7.9096049394e-01	 1.9086592613e+00
 7.1149049164e-01	 8.0585748136e-01	 1.6949142013e+00
 6.9467168584e-01	 8.2040005415e-01	 1.4902263971e+00
 6.7757048587e-01	 8.3457967663e-01	 1.2966997642e+00
 6.6019866676e-01	 8.4838830754e-01	 1.1163363524e+00
 6.4256829973e-01	 8.6181841484e-01	 9.5102732415e-01
 6.2469172470e-01	 8.7486298874e-01	 7.9602791474e-01
 6.0658152223e-01	 8.8751555303e-01	 2.9168128151e-01
 5.8825048489e-01	 8.9977017455e-01	-1.8194822682e-01
 7.6455920714e-01	 7.6455920714e-01	 2.2106849205e+00
 7.4856241086e-01	 7.8022809453e-01	 1.9875896821e+00
 7.3224809903e-01	 7.9555910146e-01	 1.7692646651e+00
 7.1562706426e-01	 8.1054269927e-01	 1.5579246128e+00
 6.9871047471e-01	 8.2516982190e-01	 1.3557022152e+00
 6.8150984916e-01	 8.3943188405e-01	 1.1646374409e+00
 6.6403703111e-01	 8.5332079770e-01	 9.8666778342e-01
 6.4630416194e-01	 8.6682898702e-01	 8.2361949070e-01
 6.2832365333e-01	 8.7994940147e-01	 6.7719983407e-01
 6.1010815898e-01	 8.9267552718e-01	 2.4332271432e-01
 5.9167054585e-01	 9.0500139650e-01	-2.2979569634e-01
 7.6897862452e-01	 7.6897862452e-01	 2.0696771591e+00
 7.5288936121e-01	 7.8473808352e-01	 1.8483027913e+00
 7.3648074700e-01	 8.0015770899e-01	 1.6318892979e+00
 7.1976363689e-01	 8.1522791719e-01	 1.4225903068e+00
 7.0274926359e-01	 8.2993958966e-01	 1.2224762726e+00
 6.8544921245e-01	 8.4428409147e-01	 1.0335240381e+00
 6.6787539545e-01	 8.5825328786e-01	 8.5760732146e-01
 6.5004002415e-01	 8.7183955920e-01	 6.9648819352e-01
 6.3195558196e-01	 8.8503581419e-01	 5.5180960297e-01
 6.1363479574e-01	 8.9783550132e-01	 1.9353889631e-01
 5.9509060681e-01	 9.1023261844e-01	-2.7930786887e-01
 7.7339804191e-01	 7.7339804191e-01	 1.9313643920e+00
 7.5721631156e-01	 7.8924807250e-01	 1.7113417716e+00
 7.4071339497e-01	 8.0475631651e-01	 1.4964758616e+00
 7.2390020952e-01	 8.1991313510e-01	 1.2888600565e+00
 7.0678805246e-01	 8.3470935741e-01	 1.0905034235e+00
 6.8938857574e-01	 8.4913629889e-01	 9.0332049037e-01
 6.7171375979e-01	 8.6318577802e-01	 7.2912196937e-01
 6.5377588636e-01	 8.7685013137e-01	 5.6960648095e-01
 6.3558751060e-01	 8.9012222692e-01	 4.2635333149e-01
 6.1716143250e-01	 9.0299547547e-01	 1.4231208916e-01
 5.9851066777e-01	 9.1546384039e-01	-3.3049575841e-01
 7.7781745929e-01	 7.7781745929e-01	 1.7956783071e+00
 7.6154326192e-01	 7.9375806149e-01	 1.5766441868e+00
 7.4494604294e-01	 8.0935492403e-01	 1.3629678276e+00
 7.2803678214e-01	 8.2459835302e-01	 1.1566832625e+00
 7.1082684133e-01	 8.3947912517e-01	 9.5973900845e-01
 6.9332793904e-01	 8.5398850631e-01	 7.7398807828e-01
 6.7555212413e-01	 8.6811826818e-01	 6.0117893776e-01
 6.5751174856e-01	 8.8186070355e-01	 4.4294747253e-01
 6.3921943923e-01	 8.9520863964e-01	 3.0081001643e-01
 6.2068806926e-01	 9.0815544962e-01	 8.9624358922e-02
 6.0193072873e-01	 9.2069506233e-01	-3.8337070439e-01
 7.8223687667e-01	 7.8223687667e-01	 1.6625516177e+00
 7.6587021227e-01	 7.9826805048e-01	 1.4441484869e+00
 7.4917869092e-01	 8.1395353155e-01	 1.2313094150e+00
 7.3217335477e-01	 8.2928357093e-01	 1.0260099346e+00
 7.1486563020e-01	 8.4424889293e-01	 8.3013884017e-01
 6.9726730233e-01	 8.5884071373e-01	 6.4548841894e-01
 6.7939048848e-01	 8.7305075834e-01	 4.7374563913e-01
 6.6124761077e-01	 8.8687127573e-01	 3.1648435693e-01
 6.4285136786e-01	 9.0029505237e-01	 1.7515859298e-01
 6.2421470601e-01	 9.1331542376e-01	 3.5457581491e-02
 6.0535078969e-01	 9.2592628428e-01	-4.3794436246e-01
 7.8665629406e-01	 7.8665629406e-01	 1.5319180343e+00
 7.7019716262e-01	 8.0277803946e-01	 1.3137939839e+00
 7.5341133889e-01	 8.1855213908e-01	 1.1014455695e+00
 7.3630992740e-01	 8.3396878885e-01	 8.9679067535e-01
 7.1890441908e-01	 8.4901866069e-01	 7.0165919049e-01
 7.0120666562e-01	 8.6369292116e-01	 5.1778345633e-01
 6.8322885282e-01	 8.7798324850e-01	 3.4678968222e-01
 6.6498347298e-01	 8.9188184791e-01	 1.9019039005e-01
 6.4648329649e-01	 9.0538146509e-01	 4.9377936450e-02
 6.2774134277e-01	 9.1847539791e-01	-7.4380852062e-02
 6.0877085064e-01	 9.3115750622e-01	-4.9422869560e-01
 7.9107571144e-01	 7.9107571144e-01	 1.4037122365e+00
 7.7452411298e-01	 8.0728802845e-01	 1.1855208271e+00
 7.5764398686e-01	 8.2315074660e-01	 9.7332194319e-01
 7.4044650003e-01	 8.3865400676e-01	 7.6897666289e-01
 7.2294320795e-01	 8.5378842844e-01	 5.7425677749e-01
 7.0514602891e-01	 8.6854512858e-01	 3.9083545225e-01
 6.8706721716e-01	 8.8291573866e-01	 2.2027886651e-01
 6.6871933519e-01	 8.9689242009e-01	 6.4038893122e-02
 6.5011522512e-01	 9.1046787782e-01	-7.6553136039e-02
 6.3126797953e-01	 9.2363537205e-01	-2.0029154463e-01
 6.1219091160e-01	 9.3638872817e-01	-5.5223596554e-01
 7.9549512882e-01	 7.9549512882e-01	 1.2778698461e+00
 7.7885106333e-01	 8.1179801744e-01	 1.0592699801e+00
 7.6187663484e-01	 8.2774935413e-01	 8.4688487493e-01
 7.4458307265e-01	 8.4333922468e-01	 6.4251963536e-01
 7.2698199682e-01	 8.5855819620e-01	 4.4788875312e-01
 7.0908539220e-01	 8.7339733600e-01	 2.6460697746e-01
 6.9090558150e-01	 8.8784822882e-01	 9.4181176944e-02
 6.7245519740e-01	 9.0190299227e-01	-6.1996749084e-02
 6.5374715376e-01	 9.1555429054e-01	-2.0265586395e-01
 6.3479461628e-01	 9.2879534620e-01	-3.2665105995e-01
 6.1561097256e-01	 9.4161995011e-01	-6.1197872446e-01
 5.8141036297e-01	 8.8930773066e-01	-9.1205025225e-02
 5.6308703494e-01	 9.0102122121e-01	-4.0724435509e-01
 5.4457124134e-01	 9.1233130665e-01	-7.2236620731e-01
 5.2587608186e-01	 9.2323377133e-01	-1.0356108518e+00
 5.0701475020e-01	 9.3372495580e-01	-1.3460154402e+00
 4.8800050513e-01	 9.4380175725e-01	-1.6526109743e+00
 4.6884664200e-01	 9.5346162811e-01	-1.9544194870e+00
 4.4956646444e-01	 9.6270257299e-01	-2.2504514940e+00
 4.3017325671e-01	 9.7152314394e-01	-2.5397037642e+00
 4.1068025658e-01	 9.7992243410e-01	-2.8211574558e+00
 3.9110062893e-01	 9.8790006987e-01	-3.0937766522e+00
 5.8483042393e-01	 8.9453895261e-01	-1.3575478122e-01
 5.6639931162e-01	 9.0632134604e-01	-4.4528945875e-01
 5.4777460158e-01	 9.1769796140e-01	-7.5232524513e-01
 5.2896947058e-01	 9.2866455822e-01	-1.0560585751e+00
 5.0999718991e-01	 9.3921745554e-01	-1.3556858370e+00
 4.9087109634e-01	 9.4935353230e-01	-1.6503995110e+00
 4.7160456343e-01	 9.5907022593e-01	-1.9393845268e+00
 4.5221097306e-01	 9.6836552931e-01	-2.2218149034e+00
 4.3270368764e-01	 9.7723798597e-01	-2.4968507267e+00
 4.1309602280e-01	 9.8568668372e-01	-2.7636355161e+00
 3.9340122087e-01	 9.9371124676e-01	-3.0212940187e+00
 5.8825048489e-01	 8.9977017455e-01	-1.8194822682e-01
 5.6971158830e-01	 9.1162147087e-01	-4.8539534324e-01
 5.5097796183e-01	 9.2306461615e-01	-7.8477492000e-01
 5.3206285930e-01	 9.3409534511e-01	-1.0794391291e+00
 5.1297962961e-01	 9.4470995528e-01	-1.3687431440e+00
 4.9374168755e-01	 9.5490530734e-01	-1.6520404482e+00
 4.7436248485e-01	 9.6467882375e-01	-1.9286783692e+00
 4.5485548168e-01	 9.7402848563e-01	-2.1979939075e+00
 4.3523411856e-01	 9.8295282799e-01	-2.4593099220e+00
 4.1551178901e-01	 9.9145093334e-01	-2.7119317268e+00
 3.9570181281e-01	 9.9952242364e-01	-2.9551441456e+00
 5.9167054585e-01	 9.0500139650e-01	-2.2979569634e-01
 5.7302386497e-01	 9.1692159570e-01	-5.2756241855e-01
 5.5418132207e-01	 9.2843127089e-01	-8.1970542401e-01
 5.3515624802e-01	 9.3952613200e-01	-1.1057322184e+00
 5.1596206932e-01	 9.5020245503e-01	-1.3851563334e+00
 4.9661227876e-01	 9.6045708239e-01	-1.6574918053e+00
 4.7712040628e-01	 9.7028742156e-01	-1.9222478857e+00
 4.5749999029e-01	 9.7969144194e-01	-2.1789240599e+00
 4.3776454948e-01	 9.8866767002e-01	-2.4270054405e+00
 4.1792755523e-01	 9.9721518295e-01	-2.6659585953e+00
 3.9800240474e-01	 1.0053336005e+00	-2.8952278623e+00
 5.9509060681e-01	 9.1023261844e-01	-2.7930786887e-01
 5.7633614165e-01	 9.2222172054e-01	-5.7179164353e-01
 5.5738468232e-01	 9.3379792564e-01	-8.5710770838e-01
 5.3824963674e-01	 9.4495691890e-01	-1.1349185229e+00
 5.1894450903e-01	 9.5569495477e-01	-1.4048955739e+00
 4.9948286997e-01	 9.6600885743e-01	-1.6667130245e+00
 4.7987832770e-01	 9.7589601938e-01	-1.9200416010e+00
 4.6014449891e-01	 9.8535439826e-01	-2.1645428017e+00
 4.4029498041e-01	 9.9438251205e-01	-2.3998634980e+00
 4.2034332144e-01	 1.0029794326e+00	-2.6256309950e+00
 4.0030299668e-01	 1.0111447774e+00	-2.8414486069e+00
 5.9851066777e-01	 9.1546384039e-01	-3.3049575841e-01
 5.7964841833e-01	 9.2752184537e-01	-6.1808451026e-01
 5.6058804256e-01	 9.3916458038e-01	-8.9697346178e-01
 5.4134302545e-01	 9.5038770579e-01	-1.1669796695e+00
 5.2192694874e-01	 9.6118745451e-01	-1.4279321964e+00
 5.0235346117e-01	 9.7156063248e-01	-1.6796649296e+00
 4.8263624912e-01	 9.8150461719e-01	-1.9220096454e+00
 4.6278900752e-01	 9.9101735457e-01	-2.1547894071e+00
 4.4282541133e-01	 1.0000973541e+00	-2.3778123745e+00
 4.2275908766e-01	 1.0087436822e+00	-2.5908660974e+00
 4.0260358861e-01	 1.0169559543e+00	-2.7937123524e+00
 6.0193072873e-01	 9.2069506233e-01	-3.8337070439e-01
 5.8296069500e-01	 9.3282197020e-01	-6.6644302887e-01
 5.6379140280e-01	 9.4453123513e-01	-9.3929508945e-01
 5.4443641417e-01	 9.5581849268e-01	-1.2018982060e+00
 5.2490938844e-01	 9.6667995425e-01	-1.4542386609e+00
 5.0522405238e-01	 9.7711240752e-01	-1.6963096872e+00
 4.8539417055e-01	 9.8711321500e-01	-1.9281037096e+00
 4.6543351613e-01	 9.9668031088e-01	-2.1496049318e+00
 4.4535584225e-01	 1.0058121961e+00	-2.3607823559e+00
 4.2517485387e-01	 1.0145079318e+00	-2.5615833072e+00
 4.0490418055e-01	 1.0227671312e+00	-2.7519275341e+00
 6.0535078969e-01	 9.2592628428e-01	-4.3794436246e-01
 5.8627297168e-01	 9.3812209503e-01	-7.1686971290e-01
 5.6699476305e-01	 9.4989788988e-01	-9.8406569286e-01
 5.4752980289e-01	 9.6124927957e-01	-1.2396575739e+00
 5.2789182815e-01	 9.7217245399e-01	-1.4837885249e+00
 5.0809464358e-01	 9.8266418256e-01	-1.7166107687e+00
 4.8815209197e-01	 9.9272181282e-01	-1.9382770000e+00
 4.6807802475e-01	 1.0023432672e+00	-2.1489321626e+00
 4.4788627317e-01	 1.0115270381e+00	-2.3487056769e+00
 4.2759062009e-01	 1.0202721814e+00	-2.5377041986e+00
 4.0720477248e-01	 1.0285783081e+00	-2.7160049803e+00
 6.0877085064e-01	 9.3115750622e-01	-4.9422869560e-01
 5.8958524835e-01	 9.4342221986e-01	-7.6936756519e-01
 5.7019812329e-01	 9.5526454462e-01	-1.0312790502e+00
 5.5062319160e-01	 9.6668006646e-01	-1.2802420846e+00
 5.3087426785e-01	 9.7766495373e-01	-1.5165564124e+00
 5.1096523479e-01	 9.8821595761e-01	-1.7405329133e+00
 4.9091001339e-01	 9.9833041063e-01	-1.9524841967e+00
 4.7072253336e-01	 1.0080062235e+00	-2.1527155685e+00
 4.5041670409e-01	 1.0172418801e+00	-2.3415164670e+00
 4.3000638630e-01	 1.0260364310e+00	-2.5191524552e+00
 4.0950536441e-01	 1.0343894849e+00	-2.6858578450e+00
 6.1219091160e-01	 9.3638872817e-01	-5.5223596554e-01
 5.9289752503e-01	 9.4872234469e-01	-8.2394006416e-01
 5.7340148353e-01	 9.6063119936e-01	-1.0809295975e+00
 5.5371658031e-01	 9.7211085335e-01	-1.3236368941e+00
 5.3385670756e-01	 9.8315745347e-01	-1.5525179840e+00
 5.1383582599e-01	 9.9376773265e-01	-1.7680420931e+00
 4.9366793481e-01	 1.0039390084e+00	-1.9706814123e+00
 4.7336704197e-01	 1.0136691798e+00	-2.1609012540e+00
 4.5294713501e-01	 1.0229567222e+00	-2.3391506967e+00
 4.3242215251e-01	 1.0318006806e+00	-2.5058538103e+00
 4.1180595635e-01	 1.0402006618e+00	-2.6614015431e+00
 6.1561097256e-01	 9.4161995011e-01	-6.1197872446e-01
 5.9620980170e-01	 9.5402246952e-01	-8.8059115067e-01
 5.7660484377e-01	 9.6599785411e-01	-1.1330124104e+00
 5.5680996903e-01	 9.7754164024e-01	-1.3698279800e+00
 5.3683914726e-01	 9.8864995321e-01	-1.5916499084e+00
 5.1670641719e-01	 9.9931950769e-01	-1.7991054783e+00
 4.9642585623e-01	 1.0095476063e+00	-1.9928261515e+00
 4.7601155058e-01	 1.0193321361e+00	-2.1734369135e+00
 4.5547756592e-01	 1.0286715642e+00	-2.3415461271e+00
 4.3483791872e-01	 1.0375649302e+00	-2.4977359903e+00
 4.1410654828e-01	 1.0460118387e+00	-2.6425536873e+00
 3.9110062893e-01	 9.8790006987e-01	-3.0937766522e+00
 3.7144744022e-01	 9.9545620153e-01	-3.4448464602e+00
 3.5173363374e-01	 1.0025914925e+00	-3.7737386834e+00
 3.3197200596e-01	 1.0093071075e+00	-4.0803004090e+00
 3.1217518385e-01	 1.0156046990e+00	-4.3643827162e+00
 2.9235560330e-01	 1.0214863931e+00	-4.6258367429e+00
 2.7252548881e-01	 1.0269547741e+00	-4.8645102828e+00
 2.5269683427e-01	 1.0320128681e+00	-5.0802449276e+00
 2.3288138506e-01	 1.0366641262e+00	-5.2728737560e+00
 2.1309062144e-01	 1.0409124060e+00	-5.4422195663e+00
 1.9333574321e-01	 1.0447619539e+00	-5.5880936408e+00
 3.9340122087e-01	 9.9371124676e-01	-3.0212940187e+00
 3.7363242516e-01	 1.0013118262e+00	-3.3611764235e+00
 3.5380265512e-01	 1.0084890895e+00	-3.6791014356e+00
 3.3392478247e-01	 1.0152442081e+00	-3.9749780578e+00
 3.1401150846e-01	 1.0215788443e+00	-4.2487169830e+00
 2.9407534215e-01	 1.0274951366e+00	-4.5002264050e+00
 2.7412857992e-01	 1.0329956845e+00	-4.7294083869e+00
 2.5418328624e-01	 1.0380835320e+00	-4.9361558021e+00
 2.3425127556e-01	 1.0427621504e+00	-5.1203498499e+00
 2.1434409569e-01	 1.0470354202e+00	-5.2818581427e+00
 1.9447301229e-01	 1.0509076125e+00	-5.4205333527e+00
 3.9570181281e-01	 9.9952242364e-01	-2.9551441456e+00
 3.7581741011e-01	 1.0071674510e+00	-3.2839160312e+00
 3.5587167649e-01	 1.0143866866e+00	-3.5909572724e+00
 3.3587755898e-01	 1.0211813088e+00	-3.8762389457e+00
 3.1584783307e-01	 1.0275529896e+00	-4.1397314837e+00
 2.9579508099e-01	 1.0335038800e+00	-4.3814002287e+00
 2.7573167104e-01	 1.0390365949e+00	-4.6012015724e+00
 2.5566973821e-01	 1.0441541960e+00	-4.7990796950e+00
 2.3562116607e-01	 1.0488601747e+00	-4.9749639082e+00
 2.1559756993e-01	 1.0531584344e+00	-5.1287665966e+00
 1.9561028137e-01	 1.0570532710e+00	-5.2603817479e+00
 3.9800240474e-01	 1.0053336005e+00	-2.8952278623e+00
 3.7800239505e-01	 1.0130230757e+00	-3.2129620947e+00
 3.5794069787e-01	 1.0202842836e+00	-3.5091989562e+00
 3.3783033548e-01	 1.0271184094e+00	-3.7839717655e+00
 3.1768415768e-01	 1.0335271349e+00	-4.0373108302e+00
 2.9751481983e-01	 1.0395126235e+00	-4.2692387431e+00
 2.7733476215e-01	 1.0450775054e+00	-4.4797662926e+00
 2.5715619017e-01	 1.0502248599e+00	-4.6688890000e+00
 2.3699105657e-01	 1.0549581990e+00	-4.8365842891e+00
 2.1685104418e-01	 1.0592814485e+00	-4.9828092831e+00
 1.9674755045e-01	 1.0631989296e+00	-5.1074992184e+00
 4.0030299668e-01	 1.0111447774e+00	-2.8414486069e+00
 3.8018737999e-01	 1.0188787004e+00	-3.1482141018e+00
 3.6000971925e-01	 1.0261818806e+00	-3.4337219948e+00
 3.3978311199e-01	 1.0330555100e+00	-3.6980680250e+00
 3.1952048229e-01	 1.0395012801e+00	-3.9413425200e+00
 2.9923455868e-01	 1.0455213670e+00	-4.1636254344e+00
 2.7893785326e-01	 1.0511184158e+00	-4.3649820303e+00
 2.5864264214e-01	 1.0562955238e+00	-4.5454592127e+00
 2.3836094707e-01	 1.0610562233e+00	-4.7050825256e+00
 2.1810451842e-01	 1.0654044627e+00	-4.8438538054e+00
 1.9788481953e-01	 1.0693445882e+00	-4.9617494778e+00
 4.0260358861e-01	 1.0169559543e+00	-2.7937123524e+00
 3.8237236494e-01	 1.0247343251e+00	-3.0895741403e+00
 3.6207874062e-01	 1.0320794776e+00	-3.3644245628e+00
 3.4173588850e-01	 1.0389926107e+00	-3.6184219668e+00
 3.2135680690e-01	 1.0454754254e+00	-3.8517168541e+00
 3.0095429752e-01	 1.0515301105e+00	-4.0644466616e+00
 2.8054094437e-01	 1.0571593262e+00	-4.2567312110e+00
 2.6012909411e-01	 1.0623661878e+00	-4.4286688418e+00
 2.3973083757e-01	 1.0671542475e+00	-4.5803332352e+00
 2.1935799267e-01	 1.0715274768e+00	-4.7117709225e+00
 1.9902208861e-01	 1.0754902467e+00	-4.8229994667e+00
 4.0490418055e-01	 1.0227671312e+00	-2.7519275341e+00
 3.8455734988e-01	 1.0305899498e+00	-3.0369468244e+00
 3.6414776200e-01	 1.0379770746e+00	-3.3012074259e+00
 3.4368866500e-01	 1.0449297113e+00	-3.5449304902e+00
 3.2319313152e-01	 1.0514495707e+00	-3.7683268570e+00
 3.0267403636e-01	 1.0575388540e+00	-3.9715915748e+00
 2.8214403548e-01	 1.0632002367e+00	-4.1548991193e+00
 2.6161554607e-01	 1.0684368517e+00	-4.3183993243e+00
 2.4110072807e-01	 1.0732522718e+00	-4.4622140322e+00
 2.2061146691e-01	 1.0776504910e+00	-4.5864344590e+00
 2.0015935768e-01	 1.0816359053e+00	-4.6911192609e+00
 4.0720477248e-01	 1.0285783081e+00	-2.7160049803e+00
 3.8674233482e-01	 1.0364455746e+00	-2.9902392232e+00
 3.6621678337e-01	 1.0438746717e+00	-3.2439738677e+00
 3.4564144151e-01	 1.0508668120e+00	-3.4774930766e+00
 3.2502945613e-01	 1.0574237160e+00	-3.6910682001e+00
 3.0439377521e-01	 1.0635475975e+00	-3.8849520365e+00
 2.8374712659e-01	 1.0692411471e+00	-4.0593738184e+00
 2.6310199804e-01	 1.0745075156e+00	-4.2145349418e+00
 2.4247061857e-01	 1.0793502961e+00	-4.3506054428e+00
 2.2186494116e-01	 1.0837735051e+00	-4.4677212191e+00
 2.0129662676e-01	 1.0877815638e+00	-4.5659819826e+00
 4.0950536441e-01	 1.0343894849e+00	-2.6858578450e+00
 3.8892731976e-01	 1.0423011993e+00	-2.9493607916e+00
 3.6828580474e-01	 1.0497722687e+00	-3.1926296189e+00
 3.4759421801e-01	 1.0568039126e+00	-3.4160117166e+00
 3.2686578074e-01	 1.0633978613e+00	-3.6198391270e+00
 3.0611351405e-01	 1.0695563410e+00	-3.8044225450e+00
 2.8535021770e-01	 1.0752820576e+00	-3.9700460718e+00
 2.6458845000e-01	 1.0805781796e+00	-4.1169627413e+00
 2.4384050907e-01	 1.0854483204e+00	-4.2453908234e+00
 2.2311841540e-01	 1.0898965193e+00	-4.3555109024e+00
 2.0243389584e-01	 1.0939272224e+00	-4.4474637153e+00
 4.1180595635e-01	 1.0402006618e+00	-2.6614015431e+00
 3.9111230470e-01	 1.0481568240e+00	-2.9142233037e+00
 3.7035482612e-01	 1.0556698657e+00	-3.1470827891e+00
 3.4954699452e-01	 1.0627410132e+00	-3.3603908401e+00
 3.2870210535e-01	 1.0693720066e+00	-3.5545403819e+00
 3.0783325289e-01	 1.0755650845e+00	-3.7299001613e+00
 2.8695330881e-01	 1.0813229680e+00	-3.8868092681e+00
 2.6607490197e-01	 1.0866488435e+00	-4.0255724576e+00
 2.4521039957e-01	 1.0915463446e+00	-4.1464562817e+00
 2.2437188964e-01	 1.0960195334e+00	-4.2496860231e+00
 2.0357116491e-01	 1.1000728809e+00	-4.3354434207e+00
 4.1410654828e-01	 1.0460118387e+00	-2.6425536873e+00
 3.9329728964e-01	 1.0540124487e+00	-2.8847407887e+00
 3.7242384749e-01	 1.0615674627e+00	-3.1072438006e+00
 3.5149977102e-01	 1.0686781139e+00	-3.3105372487e+00
 3.3053842996e-01	 1.0753461519e+00	-3.4950751401e+00
 3.0955299173e-01	 1.0815738280e+00	-3.6612844377e+00
 2.8855639992e-01	 1.0873638784e+00	-3.8095593476e+00
 2.6756135393e-01	 1.0927195074e+00	-3.9402564388e+00
 2.4658029007e-01	 1.0976443689e+00	-4.0536906002e+00
 2.2562536388e-01	 1.1021425476e+00	-4.1501318321e+00
 2.0470843399e-01	 1.1062185395e+00	-4.2298028588e+00
 1.9333574321e-01	 1.0447619539e+00	-5.5880936408e+00
 1.7362765570e-01	 1.0482173855e+00	-5.7789586567e+00
 1.5397695711e-01	 1.0512836661e+00	-5.9454429432e+00
 1.3439392712e-01	 1.0539660917e+00	-6.0876638406e+00
 1.1488851689e-01	 1.0562702678e+00	-6.2057170414e+00
 9.5470340278e-02	 1.0582020904e+00	-6.2996766813e+00
 7.6148666396e-02	 1.0597677248e+00	-6.3695958791e+00
 5.6932413388e-02	 1.0609735861e+00	-6.4155076845e+00
 3.7830143444e-02	 1.0618263183e+00	-6.4374263904e+00
 1.8850058986e-02	 1.0623327752e+00	-6.4353491634e+00
 0.0000000000e+00	 1.0625000000e+00	-6.4092579490e+00
 1.9447301229e-01	 1.0509076125e+00	-5.4205333527e+00
 1.7464899486e-01	 1.0543833701e+00	-5.6066154880e+00
 1.5488270392e-01	 1.0574676877e+00	-5.7684671007e+00
 1.3518447964e-01	 1.0601658922e+00	-5.9062196042e+00
 1.1556433170e-01	 1.0624836223e+00	-6.0199816777e+00
 9.6031930518e-02	 1.0644268086e+00	-6.1098393163e+00
 7.6596599730e-02	 1.0660016526e+00	-6.1758563422e+00
 5.7267309940e-02	 1.0672146071e+00	-6.2180753364e+00
 3.8052673701e-02	 1.0680723555e+00	-6.2365189453e+00
 1.8960941686e-02	 1.0685817915e+00	-6.2311915165e+00
 0.0000000000e+00	 1.0687500000e+00	-6.2020810186e+00
 1.9561028137e-01	 1.0570532710e+00	-5.2603817479e+00
 1.7567033401e-01	 1.0605493547e+00	-5.4416617856e+00
 1.5578845072e-01	 1.0636517093e+00	-5.5988754464e+00
 1.3597503215e-01	 1.0663656927e+00	-5.7321681723e+00
 1.1624014650e-01	 1.0686969769e+00	-5.8416615360e+00
 9.6593520757e-02	 1.0706515268e+00	-5.9274532518e+00
 7.7044533063e-02	 1.0722355804e+00	-5.9896176612e+00
 5.7602206490e-02	 1.0734556282e+00	-6.0282066495e+00
 3.8275203958e-02	 1.0743183926e+00	-6.0432509500e+00
 1.9071824387e-02	 1.0748308079e+00	-6.0347617874e+00
 0.0000000000e+00	 1.0750000000e+00	-6.0027328151e+00
 1.9674755045e-01	 1.0631989296e+00	-5.1074992184e+00
 1.7669167316e-01	 1.0667153393e+00	-5.2839568836e+00
 1.5669419753e-01	 1.0698357308e+00	-5.4365261844e+00
 1.3676558466e-01	 1.0725654933e+00	-5.5653665508e+00
 1.1691596131e-01	 1.0749103314e+00	-5.6706123602e+00
 9.7155110995e-02	 1.0768762449e+00	-5.7523729104e+00
 7.7492466396e-02	 1.0784695082e+00	-5.8107328816e+00
 5.7937103041e-02	 1.0796966493e+00	-5.8457532406e+00
 3.8497734214e-02	 1.0805644298e+00	-5.8574725449e+00
 1.9182707087e-02	 1.0810798242e+00	-5.8459085961e+00
 0.0000000000e+00	 1.0812500000e+00	-5.8110603968e+00
 1.9788481953e-01	 1.0693445882e+00	-4.9617494778e+00
 1.7771301231e-01	 1.0728813239e+00	-5.1333634455e+00
 1.5759994434e-01	 1.0760197524e+00	-5.2812808586e+00
 1.3755613718e-01	 1.0787652938e+00	-5.4056750990e+00
 1.1759177612e-01	 1.0811236859e+00	-5.5066932636e+00
 9.7716701232e-02	 1.0831009631e+00	-5.5844561024e+00
 7.7940399728e-02	 1.0847034360e+00	-5.6390584576e+00
 5.8271999590e-02	 1.0859376704e+00	-5.6705701587e+00
 3.8720264470e-02	 1.0868104670e+00	-5.6790373282e+00
 1.9293589787e-02	 1.0873288405e+00	-5.6644840479e+00
 0.0000000000e+00	 1.0875000000e+00	-5.6269143383e+00
 1.9902208861e-01	 1.0754902467e+00	-4.8229994667e+00
 1.7873435146e-01	 1.0790473086e+00	-4.9897473693e+00
 1.5850569115e-01	 1.0822037740e+00	-5.1330042575e+00
 1.3834668969e-01	 1.0849650944e+00	-5.2529574333e+00
 1.1826759092e-01	 1.0873370404e+00	-5.3497666322e+00
 9.8278291469e-02	 1.0893256813e+00	-5.4235639288e+00
 7.8388333060e-02	 1.0909373638e+00	-5.4744541545e+00
 5.8606896140e-02	 1.0921786915e+00	-5.5025157866e+00
 3.8942794725e-02	 1.0930565041e+00	-5.5078022570e+00
 1.9404472487e-02	 1.0935778568e+00	-5.4903436346e+00
 0.0000000000e+00	 1.0937500000e+00	-5.4501486295e+00
 2.0015935768e-01	 1.0816359053e+00	-4.6911192609e+00
 1.7975569061e-01	 1.0852132932e+00	-4.8529776955e+00
 1.5941143795e-01	 1.0883877955e+00	-4.9915643223e+00
 1.3913724220e-01	 1.0911648949e+00	-5.1070803353e+00
 1.1894340573e-01	 1.0935503949e+00	-5.1996980323e+00
 9.8839881706e-02	 1.0955503995e+00	-5.2695606880e+00
 7.8836266391e-02	 1.0971712916e+00	-5.3167829551e+00
 5.8941792689e-02	 1.0984197126e+00	-5.3414517465e+00
 3.9165324981e-02	 1.0993025413e+00	-5.3436275520e+00
 1.9515355187e-02	 1.0998268732e+00	-5.3233461377e+00
 0.0000000000e+00	 1.1000000000e+00	-5.2806205787e+00
 2.0129662676e-01	 1.0877815638e+00	-4.5659819826e+00
 1.8077702977e-01	 1.0913792778e+00	-4.7229265181e+00
 1.6031718476e-01	 1.0945718171e+00	-4.8568320572e+00
 1.3992779471e-01	 1.0973646954e+00	-4.9679136621e+00
 1.1961922053e-01	 1.0997637494e+00	-5.0563561198e+00
 9.9401471941e-02	 1.1017751177e+00	-5.1223137858e+00
 7.9284199722e-02	 1.1034052194e+00	-5.1659109683e+00
 5.9276689237e-02	 1.1046607337e+00	-5.1872428083e+00
 3.9387855236e-02	 1.1055485785e+00	-5.1863766052e+00
 1.9626237886e-02	 1.1060758895e+00	-5.1633535360e+00
 0.0000000000e+00	 1.1062500000e+00	-5.1181907188e+00
 2.0243389584e-01	 1.0939272224e+00	-4.4474637153e+00
 1.8179836891e-01	 1.0975452624e+00	-4.5994688993e+00
 1.6122293156e-01	 1.1007558387e+00	-4.7286814440e+00
 1.4071834722e-01	 1.1035644960e+00	-4.8353302598e+00
 1.2029503533e-01	 1.1059771040e+00	-4.9196125543e+00
 9.9963062176e-02	 1.1079998358e+00	-4.9816936472e+00
 7.9732133052e-02	 1.1096391472e+00	-5.0217073413e+00
 5.9611585785e-02	 1.1109017548e+00	-5.0397568014e+00
 3.9610385490e-02	 1.1117946156e+00	-5.0359158910e+00
 1.9737120586e-02	 1.1123249058e+00	-5.0102309154e+00
 0.0000000000e+00	 1.1125000000e+00	-4.9627227170e+00
 2.0357116491e-01	 1.1000728809e+00	-4.3354434207e+00
 1.8281970806e-01	 1.1037112471e+00	-4.4824827862e+00
 1.6212867837e-01	 1.1069398602e+00	-4.6069893584e+00
 1.4150889973e-01	 1.1097642965e+00	-4.7092058803e+00
 1.2097085014e-01	 1.1121904585e+00	-4.7893419147e+00
 1.0052465241e-01	 1.1142245540e+00	-4.8475736332e+00
 8.0180066382e-02	 1.1158730750e+00	-4.8840441754e+00
 5.9946482332e-02	 1.1171427759e+00	-4.8988645288e+00
 3.9832915744e-02	 1.1180406528e+00	-4.8921148799e+00
 1.9848003285e-02	 1.1185739221e+00	-4.8638463821e+00
 0.0000000000e+00	 1.1187500000e+00	-4.8140832869e+00
 2.0470843399e-01	 1.1062185395e+00	-4.2298028588e+00
 1.8384104721e-01	 1.1098772317e+00	-4.3718489308e+00
 1.6303442517e-01	 1.1131238818e+00	-4.4916354901e+00
 1.4229945224e-01	 1.1159640971e+00	-4.5894191003e+00
 1.2164666494e-01	 1.1184038130e+00	-4.6654216181e+00
 1.0108624264e-01	 1.1204492722e+00	-4.7198299584e+00
 8.0627999711e-02	 1.1221070028e+00	-4.7527964431e+00
 6.0281378879e-02	 1.1233837970e+00	-4.7644396851e+00
 4.0055445998e-02	 1.1242866900e+00	-4.7548459555e+00
 1.9958885984e-02	 1.1248229385e+00	-4.7240709791e+00
 0.0000000000e+00	 1.1250000000e+00	-4.6721421039e+00
 1.1250000000e+00	 0.0000000000e+00	 2.3530184396e+00
 1.1248229385e+00	 1.9958885984e-02	 2.4075177214e+00
 1.1242866900e+00	 4.0055445998e-02	 2.4528345389e+00
 1.1233837970e+00	 6.0281378879e-02	 2.4890187547e+00
 1.1221070028e+00	 8.0627999711e-02	 2.5160484482e+00
 1.1204492722e+00	 1.0108624264e-01	 2.5338231446e+00
 1.1184038130e+00	 1.2164666494e-01	 2.5421573611e+00
 1.1159640971e+00	 1.4229945224e-01	 2.5407745657e+00
 1.1131238818e+00	 1.6303442517e-01	 2.5293016443e+00
 1.1098772317e+00	 1.8384104721e-01	 2.5072639750e+00
 1.1062185395e+00	 2.0470843399e-01	 2.4740812092e+00
 1.1312500000e+00	 0.0000000000e+00	 2.3925877443e+00
 1.1310719548e+00	 2.0069768683e-02	 2.4471890909e+00
 1.1305327271e+00	 4.0277976252e-02	 2.4919721200e+00
 1.1296248181e+00	 6.0616275427e-02	 2.5269686565e+00
 1.1283409306e+00	 8.1075933039e-02	 2.5521389548e+00
 1.1266739904e+00	 1.0164783288e-01	 2.5673649624e+00
 1.1246171675e+00	 1.2232247974e-01	 2.5724439065e+00
 1.1221638976e+00	 1.4309000475e-01	 2.5670822992e+00
 1.1193079034e+00	 1.6394017197e-01	 2.5508904583e+00
 1.1160432163e+00	 1.8486238636e-01	 2.5233776435e+00
 1.1123641980e+00	 2.0584570306e-01	 2.4839479058e+00
 1.1375000000e+00	 0.0000000000e+00	 2.4361202332e+00
 1.1373209711e+00	 2.0180651382e-02	 2.4906697690e+00
 1.1367787643e+00	 4.0500506506e-02	 2.5347855472e+00
 1.1358658392e+00	 6.0951171974e-02	 2.5684820590e+00
 1.1345748584e+00	 8.1523866369e-02	 2.5917023915e+00
 1.1328987085e+00	 1.0220942311e-01	 2.6043115214e+00
 1.1308305220e+00	 1.2299829454e-01	 2.6060899372e+00
 1.1283636981e+00	 1.4388055726e-01	 2.5967276865e+00
 1.1254919249e+00	 1.6484591878e-01	 2.5758189455e+00
 1.1222092009e+00	 1.8588372551e-01	 2.5428572122e+00
 1.1185098566e+00	 2.0698297214e-01	 2.4972312211e+00
 1.1437500000e+00	 0.0000000000e+00	 2.4835641714e+00
 1.1435699874e+00	 2.0291534081e-02	 2.5379089144e+00
 1.1430248015e+00	 4.0723036761e-02	 2.5812247317e+00
 1.1421068603e+00	 6.1286068522e-02	 2.6135094798e+00
 1.1408087862e+00	 8.1971799699e-02	 2.6346897328e+00
 1.1391234267e+00	 1.0277101335e-01	 2.6446140998e+00
 1.1370438765e+00	 1.2367410935e-01	 2.6430468784e+00
 1.1345634987e+00	 1.4467110977e-01	 2.6296621393e+00
 1.1316759465e+00	 1.6575166558e-01	 2.6040383400e+00
 1.1283751855e+00	 1.8690506466e-01	 2.5656535706e+00
 1.1246555151e+00	 2.0812024122e-01	 2.5138815296e+00
 1.1500000000e+00	 0.0000000000e+00	 2.5348689484e+00
 1.1498190038e+00	 2.0402416781e-02	 2.5888567807e+00
 1.1492708386e+00	 4.0945567016e-02	 2.6312406531e+00
 1.1483478814e+00	 6.1620965070e-02	 2.6620024841e+00
 1.1470427139e+00	 8.2419733030e-02	 2.6810529844e+00
 1.1453481449e+00	 1.0333260358e-01	 2.6882249953e+00
 1.1432572311e+00	 1.2434992415e-01	 2.6832671679e+00
 1.1407632992e+00	 1.4546166228e-01	 2.6658380798e+00
 1.1378599681e+00	 1.6665741239e-01	 2.6355008898e+00
 1.1345411702e+00	 1.8792640381e-01	 2.5917186305e+00
 1.1308011737e+00	 2.0925751029e-01	 2.5338502416e+00
 1.1562500000e+00	 0.0000000000e+00	 2.5899850479e+00
 1.1560680201e+00	 2.0513299481e-02	 2.6434646860e+00
 1.1555168758e+00	 4.1168097271e-02	 2.6847853314e+00
 1.1545889025e+00	 6.1955861619e-02	 2.7139136564e+00
 1.1532766417e+00	 8.2867666361e-02	 2.7307451552e+00
 1.1515728631e+00	 1.0389419382e-01	 2.7350974975e+00
 1.1494705856e+00	 1.2502573896e-01	 2.7267042284e+00
 1.1469630997e+00	 1.4625221479e-01	 2.7052089138e+00
 1.1440439896e+00	 1.6756315919e-01	 2.6701598297e+00
 1.1407071548e+00	 1.8894774296e-01	 2.6210052986e+00
 1.1369468322e+00	 2.1039477937e-01	 2.5570897759e+00
 1.1625000000e+00	 0.0000000000e+00	 2.6488640186e+00
 1.1623170364e+00	 2.0624182180e-02	 2.7016849853e+00
 1.1617629130e+00	 4.1390627526e-02	 2.7418117984e+00
 1.1608299236e+00	 6.2290758169e-02	 2.7691965732e+00
 1.1595105695e+00	 8.3315599693e-02	 2.7837202306e+00
 1.1577975813e+00	 1.0445578406e-01	 2.7851858612e+00
 1.1556839401e+00	 1.2570155376e-01	 2.7733124419e+00
 1.1531629003e+00	 1.4704276731e-01	 2.7477290042e+00
 1.1502280112e+00	 1.6846890600e-01	 2.7079693545e+00
 1.1468731394e+00	 1.8996908211e-01	 2.6534674500e+00
 1.1430924908e+00	 2.1153204845e-01	 2.5835535325e+00
 1.1687500000e+00	 0.0000000000e+00	 2.7114584455e+00
 1.1685660527e+00	 2.0735064880e-02	 2.7634710419e+00
 1.1680089501e+00	 4.1613157782e-02	 2.8022740709e+00
 1.1670709447e+00	 6.2625654718e-02	 2.8278057766e+00
 1.1657444973e+00	 8.3763533025e-02	 2.8399331461e+00
 1.1640222994e+00	 1.0501737429e-01	 2.8384452806e+00
 1.1618972946e+00	 1.2637736857e-01	 2.8230471229e+00
 1.1593627008e+00	 1.4783331982e-01	 2.7933536449e+00
 1.1564120328e+00	 1.6937465281e-01	 2.7488845935e+00
 1.1530391240e+00	 1.9099042126e-01	 2.6890599015e+00
 1.1492381493e+00	 2.1266931753e-01	 2.6131958661e+00
 1.1750000000e+00	 0.0000000000e+00	 2.7777219227e+00
 1.1748150691e+00	 2.0845947581e-02	 2.8287772009e+00
 1.1742549873e+00	 4.1835688038e-02	 2.8661271246e+00
 1.1733119658e+00	 6.2960551269e-02	 2.8896967481e+00
 1.1719784251e+00	 8.4211466358e-02	 2.8993397622e+00
 1.1702470176e+00	 1.0557896453e-01	 2.8948318643e+00
 1.1681106491e+00	 1.2705318337e-01	 2.8758644948e+00
 1.1655625014e+00	 1.4862387233e-01	 2.8420390369e+00
 1.1625960543e+00	 1.7028039961e-01	 2.7928615855e+00
 1.1592051086e+00	 1.9201176042e-01	 2.7277383875e+00
 1.1553838079e+00	 2.1380658661e-01	 2.6459720610e+00
 1.1812500000e+00	 0.0000000000e+00	 2.8476090259e+00
 1.1810640854e+00	 2.0956830281e-02	 2.8975587634e+00
 1.1805010245e+00	 4.2058218295e-02	 2.9333268683e+00
 1.1795529868e+00	 6.3295447819e-02	 2.9548258846e+00
 1.1782123529e+00	 8.4659399691e-02	 2.9618968397e+00
 1.1764717358e+00	 1.0614055477e-01	 2.9543026111e+00
 1.1743240036e+00	 1.2772899818e-01	 2.9317216647e+00
 1.1717623019e+00	 1.4941442485e-01	 2.8937422637e+00
 1.1687800759e+00	 1.7118614642e-01	 2.8398572549e+00
 1.1653710933e+00	 1.9303309957e-01	 2.7694595352e+00
 1.1615294664e+00	 2.1494385569e-01	 2.6818383064e+00
 1.1875000000e+00	 0.0000000000e+00	 2.9210752877e+00
 1.1873131017e+00	 2.1067712982e-02	 2.9697719613e+00
 1.1867470616e+00	 4.2280748552e-02	 3.0038301199e+00
 1.1857940079e+00	 6.3630344370e-02	 3.0231504734e+00
 1.1844462807e+00	 8.5107333025e-02	 3.0275620165e+00
 1.1826964540e+00	 1.0670214501e-01	 3.0168153868e+00
 1.1805373582e+00	 1.2840481299e-01	 2.9905766010e+00
 1.1779621024e+00	 1.5020497736e-01	 2.9484212680e+00
 1.1749640974e+00	 1.7209189323e-01	 2.8898293882e+00
 1.1715370779e+00	 1.9405443872e-01	 2.8141808411e+00
 1.1676751250e+00	 2.1608112477e-01	 2.7207516726e+00
 1.1062185395e+00	 2.0470843399e-01	 2.4740812092e+00
 1.1021425476e+00	 2.2562536388e-01	 2.5210827287e+00
 1.0976443689e+00	 2.4658029007e-01	 2.5659115608e+00
 1.0927195074e+00	 2.6756135393e-01	 2.6081012767e+00
 1.0873638784e+00	 2.8855639992e-01	 2.6470467614e+00
 1.0815738280e+00	 3.0955299173e-01	 2.6820021513e+00
 1.0753461519e+00	 3.3053842996e-01	 2.7120800279e+00
 1.0686781139e+00	 3.5149977102e-01	 2.7362519496e+00
 1.0615674627e+00	 3.7242384749e-01	 2.7533503899e+00
 1.0540124487e+00	 3.9329728964e-01	 2.7620721413e+00
 1.0460118387e+00	 4.1410654828e-01	 2.7609832276e+00
 1.1123641980e+00	 2.0584570306e-01	 2.4839479058e+00
 1.1082655617e+00	 2.2687883812e-01	 2.5261479478e+00
 1.1037423932e+00	 2.4795018057e-01	 2.5660821969e+00
 1.0987901714e+00	 2.6904780590e-01	 2.6032969631e+00
 1.0934047889e+00	 2.9015949103e-01	 2.6371989311e+00
 1.0875825715e+00	 3.1127273057e-01	 2.6670530428e+00
 1.0813202972e+00	 3.3237475457e-01	 2.6919816501e+00
 1.0746152145e+00	 3.5345254753e-01	 2.7109650188e+00
 1.0674650597e+00	 3.7449286886e-01	 2.7228432557e+00
 1.0598680734e+00	 3.9548227458e-01	 2.7263197165e+00
 1.0518230156e+00	 4.1640714021e-01	 2.7199659394e+00
 1.1185098566e+00	 2.0698297214e-01	 2.4972312211e+00
 1.1143885759e+00	 2.2813231237e-01	 2.5347829779e+00
 1.1098404175e+00	 2.4932007107e-01	 2.5699935315e+00
 1.1048608353e+00	 2.7053425787e-01	 2.6024217306e+00
 1.0994456993e+00	 2.9176258214e-01	 2.6314857822e+00
 1.0935913150e+00	 3.1299246942e-01	 2.6564610788e+00
 1.0872944425e+00	 3.3421107918e-01	 2.6764793086e+00
 1.0805523151e+00	 3.5540532403e-01	 2.6905289317e+00
 1.0733626567e+00	 3.7656189024e-01	 2.6974570950e+00
 1.0657236981e+00	 3.9766725952e-01	 2.6959730454e+00
 1.0576341925e+00	 4.1870773214e-01	 2.6846530847e+00
 1.1246555151e+00	 2.0812024122e-01	 2.5138815296e+00
 1.1205115901e+00	 2.2938578661e-01	 2.5469362296e+00
 1.1159384417e+00	 2.5068996157e-01	 2.5775919524e+00
 1.1109314992e+00	 2.7202070983e-01	 2.6054198855e+00
 1.1054866097e+00	 2.9336567325e-01	 2.6298494825e+00
 1.0996000584e+00	 3.1471220826e-01	 2.6501662331e+00
 1.0932685878e+00	 3.3604740379e-01	 2.6655107288e+00
 1.0864894158e+00	 3.5735810054e-01	 2.6748791118e+00
 1.0792602537e+00	 3.7863091161e-01	 2.6771249776e+00
 1.0715793228e+00	 3.9985224446e-01	 2.6709627930e+00
 1.0634453694e+00	 4.2100832408e-01	 2.6549728746e+00
 1.1308011737e+00	 2.0925751029e-01	 2.5338502416e+00
 1.1266346042e+00	 2.3063926085e-01	 2.5625571967e+00
 1.1220364660e+00	 2.5205985207e-01	 2.5888249798e+00
 1.1170021632e+00	 2.7350716180e-01	 2.6122369193e+00
 1.1115275202e+00	 2.9496876436e-01	 2.6322334408e+00
 1.1056088019e+00	 3.1643194710e-01	 2.6481097783e+00
 1.0992427330e+00	 3.3788372840e-01	 2.6590149955e+00
 1.0924265164e+00	 3.5931087704e-01	 2.6639524056e+00
 1.0851578508e+00	 3.8069993299e-01	 2.6617814620e+00
 1.0774349476e+00	 4.0203722941e-01	 2.6512211818e+00
 1.0692565462e+00	 4.2330891601e-01	 2.6308551481e+00
 1.1369468322e+00	 2.1039477937e-01	 2.5570897759e+00
 1.1327576184e+00	 2.3189273510e-01	 2.5815964267e+00
 1.1281344903e+00	 2.5342974257e-01	 2.6036412363e+00
 1.1230728271e+00	 2.7499361376e-01	 2.6228194768e+00
 1.1175684306e+00	 2.9657185547e-01	 2.6385822726e+00
 1.1116175454e+00	 3.1815168595e-01	 2.6502342504e+00
 1.1052168783e+00	 3.3972005301e-01	 2.6569325160e+00
 1.0983636170e+00	 3.6126365355e-01	 2.6576870436e+00
 1.0910554478e+00	 3.8276895436e-01	 2.6513625551e+00
 1.0832905723e+00	 4.0422221435e-01	 2.6366819489e+00
 1.0750677231e+00	 4.2560950794e-01	 2.6122313280e+00
 1.1430924908e+00	 2.1153204845e-01	 2.5835535325e+00
 1.1388806325e+00	 2.3314620934e-01	 2.6040054927e+00
 1.1342325145e+00	 2.5479963307e-01	 2.6219904170e+00
 1.1291434910e+00	 2.7648006573e-01	 2.6371153252e+00
 1.1236093410e+00	 2.9817494658e-01	 2.6488417682e+00
 1.1176262889e+00	 3.1987142479e-01	 2.6564834153e+00
 1.1111910236e+00	 3.4155637762e-01	 2.6592049850e+00
 1.1043007176e+00	 3.6321643005e-01	 2.6560226037e+00
 1.0969530448e+00	 3.8483797574e-01	 2.6458056733e+00
 1.0891461970e+00	 4.0640719929e-01	 2.6272803060e+00
 1.0808789000e+00	 4.2791009988e-01	 2.5990343785e+00
 1.1492381493e+00	 2.1266931753e-01	 2.6131958661e+00
 1.1450036467e+00	 2.3439968359e-01	 2.6297369656e+00
 1.1403305388e+00	 2.5616952357e-01	 2.6438232606e+00
 1.1352141549e+00	 2.7796651770e-01	 2.6550733238e+00
 1.1296502515e+00	 2.9977803769e-01	 2.6629588610e+00
 1.1236350324e+00	 3.2159116363e-01	 2.6668022355e+00
 1.1171651689e+00	 3.4339270223e-01	 2.6657753497e+00
 1.1102378183e+00	 3.6516920656e-01	 2.6588999748e+00
 1.1028506418e+00	 3.8690699711e-01	 2.6450496049e+00
 1.0950018217e+00	 4.0859218423e-01	 2.6229528995e+00
 1.0866900769e+00	 4.3021069181e-01	 2.5911987636e+00
 1.1553838079e+00	 2.1380658661e-01	 2.6459720610e+00
 1.1511266608e+00	 2.3565315783e-01	 2.6587443881e+00
 1.1464285631e+00	 2.5753941407e-01	 2.6690915220e+00
 1.1412848189e+00	 2.7945296966e-01	 2.6766433950e+00
 1.1356911619e+00	 3.0138112881e-01	 2.6808815975e+00
 1.1296437759e+00	 3.2331090248e-01	 2.6811368382e+00
 1.1231393142e+00	 3.4522902684e-01	 2.6765877767e+00
 1.1161749189e+00	 3.6712198306e-01	 2.6662613220e+00
 1.1087482388e+00	 3.8897601849e-01	 2.6490344737e+00
 1.1008574464e+00	 4.1077716918e-01	 2.6236377725e+00
 1.0925012537e+00	 4.3251128375e-01	 2.5886604077e+00
 1.1615294664e+00	 2.1494385569e-01	 2.6818383064e+00
 1.1572496750e+00	 2.3690663208e-01	 2.6909822485e+00
 1.1525265873e+00	 2.5890930457e-01	 2.6977479455e+00
 1.1473554828e+00	 2.8093942163e-01	 2.7017764963e+00
 1.1417320723e+00	 3.0298421992e-01	 2.7025591072e+00
 1.1356525194e+00	 3.2503064132e-01	 2.6994344849e+00
 1.1291134595e+00	 3.4706535145e-01	 2.6915876199e+00
 1.1221120195e+00	 3.6907475957e-01	 2.6780500528e+00
 1.1146458358e+00	 3.9104503986e-01	 2.6577017032e+00
 1.1067130711e+00	 4.1296215412e-01	 2.6292743277e+00
 1.0983124306e+00	 4.3481187569e-01	 2.5913566565e+00
 1.1676751250e+00	 2.1608112477e-01	 2.7207516726e+00
 1.1633726891e+00	 2.3816010632e-01	 2.7264059561e+00
 1.1586246116e+00	 2.6027919507e-01	 2.7297462382e+00
 1.1534261467e+00	 2.8242587360e-01	 2.7304245931e+00
 1.1477729828e+00	 3.0458731103e-01	 2.7279415747e+00
 1.1416612628e+00	 3.2675038016e-01	 2.7216435413e+00
 1.1350876047e+00	 3.4890167607e-01	 2.7107213890e+00
 1.1280491202e+00	 3.7102753608e-01	 2.6942107847e+00
 1.1205434328e+00	 3.9311406124e-01	 2.6709939830e+00
 1.1125686958e+00	 4.1514713906e-01	 2.6398032921e+00
 1.1041236075e+00	 4.3711246762e-01	 2.5992262401e+00
 1.0460118387e+00	 4.1410654828e-01	 2.7609832276e+00
 1.0375649302e+00	 4.3483791872e-01	 2.8209209938e+00
 1.0286715642e+00	 4.5547756592e-01	 2.8618747761e+00
 1.0193321361e+00	 4.7601155058e-01	 2.8815870311e+00
 1.0095476063e+00	 4.9642585623e-01	 2.8777042382e+00
 9.9931950769e-01	 5.1670641719e-01	 2.8477911639e+00
 9.8864995321e-01	 5.3683914726e-01	 2.7893465785e+00
 9.7754164024e-01	 5.5680996903e-01	 2.6998203322e+00
 9.6599785411e-01	 5.7660484377e-01	 2.5766316742e+00
 9.5402246952e-01	 5.9620980170e-01	 2.4171886807e+00
 9.4161995011e-01	 6.1561097256e-01	 2.2189086391e+00
 1.0518230156e+00	 4.1640714021e-01	 2.7199659394e+00
 1.0433291799e+00	 4.3725368494e-01	 2.7726475178e+00
 1.0343864062e+00	 4.5800799684e-01	 2.8060354453e+00
 1.0249950924e+00	 4.7865605919e-01	 2.8177988727e+00
 1.0151562041e+00	 4.9918377765e-01	 2.8055097300e+00
 1.0048712827e+00	 5.1957700840e-01	 2.7666574097e+00
 9.9414245295e-01	 5.3982158696e-01	 2.6986649282e+00
 9.8297242713e-01	 5.5990335774e-01	 2.5989064693e+00
 9.7136450885e-01	 5.7980820401e-01	 2.4647261905e+00
 9.5932259435e-01	 5.9952207837e-01	 2.2934581541e+00
 9.4685117206e-01	 6.1903103352e-01	 2.0824472266e+00
 1.0576341925e+00	 4.1870773214e-01	 2.6846530847e+00
 1.0490934295e+00	 4.3966945115e-01	 2.7300612408e+00
 1.0401012482e+00	 4.6053842776e-01	 2.7558798698e+00
 1.0306580487e+00	 4.8130056780e-01	 2.7597044604e+00
 1.0207648019e+00	 5.0194169907e-01	 2.7390319730e+00
 1.0104230578e+00	 5.2244759960e-01	 2.6912759435e+00
 9.9963495269e-01	 5.4280402667e-01	 2.6137830925e+00
 9.8840321401e-01	 5.6299674645e-01	 2.5038513384e+00
 9.7673116360e-01	 5.8301156425e-01	 2.3587490937e+00
 9.6462271918e-01	 6.0283435505e-01	 2.1757357031e+00
 9.5208239400e-01	 6.2245109447e-01	 1.9520828620e+00
 1.0634453694e+00	 4.2100832408e-01	 2.6549728746e+00
 1.0548576791e+00	 4.4208521736e-01	 2.6930932647e+00
 1.0458160903e+00	 4.6306885868e-01	 2.7113419691e+00
 1.0363210051e+00	 4.8394507641e-01	 2.7072404486e+00
 1.0263733997e+00	 5.0469962049e-01	 2.6782102645e+00
 1.0159748328e+00	 5.2531819080e-01	 2.6215886055e+00
 1.0051274524e+00	 5.4578646637e-01	 2.5346453452e+00
 9.9383400090e-01	 5.6609013517e-01	 2.4146015282e+00
 9.8209781834e-01	 5.8621492449e-01	 2.2586491602e+00
 9.6992284401e-01	 6.0614663172e-01	 2.0639721558e+00
 9.5731361595e-01	 6.2587115543e-01	 1.8435648611e+00
 1.0692565462e+00	 4.2330891601e-01	 2.6308551481e+00
 1.0606219287e+00	 4.4450098358e-01	 2.6616762752e+00
 1.0515309323e+00	 4.6559928960e-01	 2.6723572046e+00
 1.0419839614e+00	 4.8658958502e-01	 2.6603449947e+00
 1.0319819975e+00	 5.0745754191e-01	 2.6229853701e+00
 1.0215266079e+00	 5.2818878201e-01	 2.5575386715e+00
 1.0106199522e+00	 5.4876890608e-01	 2.4611973657e+00
 9.9926478779e-01	 5.6918352388e-01	 2.3311050070e+00
 9.8746447308e-01	 5.8941828473e-01	 2.1643765230e+00
 9.7522296884e-01	 6.0945890840e-01	 1.9581196768e+00
 9.6254483789e-01	 6.2929121639e-01	 1.7858192115e+00
 1.0750677231e+00	 4.2560950794e-01	 2.6122313280e+00
 1.0663861783e+00	 4.4691674979e-01	 2.6357444988e+00
 1.0572457743e+00	 4.6812972052e-01	 2.6388625382e+00
 1.0476469177e+00	 4.8923409364e-01	 2.6189577195e+00
 1.0375905953e+00	 5.1021546333e-01	 2.5732994831e+00
 1.0270783829e+00	 5.3105937321e-01	 2.4990708134e+00
 1.0161124519e+00	 5.5175134578e-01	 2.3933862015e+00
 1.0046955747e+00	 5.7227691260e-01	 2.2533110853e+00
 9.9283112783e-01	 5.9262164497e-01	 2.0758826348e+00
 9.8052309367e-01	 6.1277118507e-01	 1.8581317321e+00
 9.6777605984e-01	 6.3271127735e-01	 1.7316971159e+00
 1.0808789000e+00	 4.2791009988e-01	 2.5990343785e+00
 1.0721504279e+00	 4.4933251600e-01	 2.6152336614e+00
 1.0629606163e+00	 4.7066015144e-01	 2.6107963920e+00
 1.0533098740e+00	 4.9187860225e-01	 2.5830196669e+00
 1.0431991931e+00	 5.1297338476e-01	 2.5290961870e+00
 1.0326301579e+00	 5.3392996442e-01	 2.4461310623e+00
 1.0216049516e+00	 5.5473378549e-01	 2.3311602309e+00
 1.0101263616e+00	 5.7537030132e-01	 2.1811703798e+00
 9.9819778257e-01	 5.9582500522e-01	 1.9931202332e+00
 9.8582321850e-01	 6.1608346175e-01	 1.7639630534e+00
 9.7300728178e-01	 6.3613133831e-01	 1.6811239454e+00
 1.0866900769e+00	 4.3021069181e-01	 2.5911987636e+00
 1.0779146775e+00	 4.5174828222e-01	 2.6000809480e+00
 1.0686754583e+00	 4.7319058237e-01	 2.5880986092e+00
 1.0589728303e+00	 4.9452311087e-01	 2.5524732667e+00
 1.0488077909e+00	 5.1573130618e-01	 2.4903204177e+00
 1.0381819330e+00	 5.3680055563e-01	 2.3986667718e+00
 1.0270974514e+00	 5.5771622520e-01	 2.2744691278e+00
 1.0155571485e+00	 5.7846369003e-01	 2.1146347786e+00
 1.0035644373e+00	 5.9902836546e-01	 1.9160433057e+00
 9.9112334333e-01	 6.1939573843e-01	 1.6755696045e+00
 9.7823850373e-01	 6.3955139927e-01	 1.6340262881e+00
 1.0925012537e+00	 4.3251128375e-01	 2.5886604077e+00
 1.0836789271e+00	 4.5416404844e-01	 2.5902249645e+00
 1.0743903004e+00	 4.7572101329e-01	 2.5707104162e+00
 1.0646357866e+00	 4.9716761948e-01	 2.5272622970e+00
 1.0544163887e+00	 5.1848922760e-01	 2.4569184279e+00
 1.0437337080e+00	 5.3967114683e-01	 2.3566265830e+00
 1.0325899511e+00	 5.6069866490e-01	 2.2232638271e+00
 1.0209879353e+00	 5.8155707875e-01	 2.0536574071e+00
 1.0089310921e+00	 6.0223172570e-01	 1.8446070566e+00
 9.9642346816e-01	 6.2270801510e-01	 1.5929085489e+00
 9.8346972567e-01	 6.4297146023e-01	 1.5903319173e+00
 1.0983124306e+00	 4.3481187569e-01	 2.5913566565e+00
 1.0894431767e+00	 4.5657981465e-01	 2.5856056993e+00
 1.0801051424e+00	 4.7825144421e-01	 2.5585743862e+00
 1.0702987429e+00	 4.9981212810e-01	 2.5073318492e+00
 1.0600249865e+00	 5.2124714903e-01	 2.4288377521e+00
 1.0492854831e+00	 5.4254173804e-01	 2.3199603902e+00
 1.0380824509e+00	 5.6368110461e-01	 2.1774964911e+00
 1.0264187222e+00	 5.8465046747e-01	 1.9981925956e+00
 1.0142977468e+00	 6.0543508595e-01	 1.7787678751e+00
 1.0017235930e+00	 6.2602029178e-01	 1.5321385676e+00
 9.8870094762e-01	 6.4639152119e-01	 1.5499697597e+00
 1.1041236075e+00	 4.3711246762e-01	 2.5992262401e+00
 1.0952074263e+00	 4.5899558087e-01	 2.5861644876e+00
 1.0858199844e+00	 4.8078187514e-01	 2.5516344035e+00
 1.0759616992e+00	 5.0245663671e-01	 2.4926282928e+00
 1.0656335844e+00	 5.2400507046e-01	 2.4060271728e+00
 1.0548372581e+00	 5.4541232925e-01	 2.2886193082e+00
 1.0435749506e+00	 5.6666354432e-01	 2.1371204777e+00
 1.0318495091e+00	 5.8774385619e-01	 1.9481958473e+00
 1.0196644015e+00	 6.0863844620e-01	 1.7184833040e+00
 1.0070237178e+00	 6.2933256846e-01	 1.5118997395e+00
 9.9393216956e-01	 6.4981158215e-01	 1.5128698652e+00
 9.4161995011e-01	 6.1561097256e-01	 2.2189086391e+00
 9.2879534620e-01	 6.3479461628e-01	 2.1569091771e+00
 9.1555429054e-01	 6.5374715376e-01	 2.2258592174e+00
 9.0190299227e-01	 6.7245519740e-01	 2.2480079252e+00
 8.8784822882e-01	 6.9090558150e-01	 2.2253625600e+00
 8.7339733600e-01	 7.0908539220e-01	 2.1600759267e+00
 8.5855819620e-01	 7.2698199682e-01	 2.0544333376e+00
 8.4333922468e-01	 7.4458307265e-01	 1.9108389570e+00
 8.2774935413e-01	 7.6187663484e-01	 1.7318016495e+00
 8.1179801744e-01	 7.7885106333e-01	 1.5199204594e+00
 7.9549512882e-01	 7.9549512882e-01	 1.2778698461e+00
 9.4685117206e-01	 6.1903103352e-01	 2.0824472266e+00
 9.3395532034e-01	 6.3832125304e-01	 2.0727950345e+00
 9.2064070327e-01	 6.5737908239e-01	 2.1293334992e+00
 9.0691356445e-01	 6.7619105960e-01	 2.1417186074e+00
 8.9278071898e-01	 6.9474394585e-01	 2.1119700766e+00
 8.7824954343e-01	 7.1302475549e-01	 2.0422432221e+00
 8.6332796396e-01	 7.3102078569e-01	 1.9348157435e+00
 8.4802444260e-01	 7.4871964528e-01	 1.7920739478e+00
 8.3234796165e-01	 7.6610928281e-01	 1.6164985352e+00
 8.1630800643e-01	 7.8317801368e-01	 1.4106500727e+00
 7.9991454621e-01	 7.9991454621e-01	 1.1771542847e+00
 9.5208239400e-01	 6.2245109447e-01	 1.9520828620e+00
 9.3911529449e-01	 6.4184788980e-01	 1.9923940843e+00
 9.2572711600e-01	 6.6101101102e-01	 2.0363522818e+00
 9.1192413663e-01	 6.7992692181e-01	 2.0387787916e+00
 8.9771320914e-01	 6.9858231019e-01	 2.0017063447e+00
 8.8310175085e-01	 7.1696411878e-01	 1.9272933837e+00
 8.6809773172e-01	 7.3505957457e-01	 1.8178106700e+00
 8.5270966052e-01	 7.5285621791e-01	 1.6756273839e+00
 8.3694656918e-01	 7.7034193078e-01	 1.5031968427e+00
 8.2081799542e-01	 7.8750496404e-01	 1.3030419659e+00
 8.0433396359e-01	 8.0433396359e-01	 1.0777406171e+00
 9.5731361595e-01	 6.2587115543e-01	 1.8435648611e+00
 9.4427526864e-01	 6.4537452655e-01	 1.9156288808e+00
 9.3081352872e-01	 6.6464293965e-01	 1.9468396446e+00
 9.1693470881e-01	 6.8366278402e-01	 1.9391145684e+00
 9.0264569931e-01	 7.0242067453e-01	 1.8944999523e+00
 8.8795395828e-01	 7.2090348207e-01	 1.8151579818e+00
 8.7286749948e-01	 7.3909836344e-01	 1.7033531531e+00
 8.5739487843e-01	 7.5699279054e-01	 1.5614382458e+00
 8.4154517671e-01	 7.7457457876e-01	 1.3918399710e+00
 8.2532798440e-01	 7.9183191439e-01	 1.1970444242e+00
 8.0875338098e-01	 8.0875338098e-01	 9.7958247447e-01
 9.6254483789e-01	 6.2929121639e-01	 1.7858192115e+00
 9.4943524278e-01	 6.4890116331e-01	 1.8424232621e+00
 9.3589994145e-01	 6.6827486828e-01	 1.8607209035e+00
 9.2194528100e-01	 6.8739864623e-01	 1.8426532076e+00
 9.0757818947e-01	 7.0625903887e-01	 1.7902805997e+00
 8.9280616570e-01	 7.2484284536e-01	 1.7057696229e+00
 8.7763726724e-01	 7.4313715231e-01	 1.5913791782e+00
 8.6208009635e-01	 7.6112936317e-01	 1.4494463673e+00
 8.4614378423e-01	 7.7880722673e-01	 1.2823720669e+00
 8.2983797339e-01	 7.9615886475e-01	 1.0926063660e+00
 8.1317279837e-01	 8.1317279837e-01	 8.8263399820e-01
 9.6777605984e-01	 6.3271127735e-01	 1.7316971159e+00
 9.5459521693e-01	 6.5242780007e-01	 1.7727023155e+00
 9.4098635418e-01	 6.7190679692e-01	 1.7779225777e+00
 9.2695585318e-01	 6.9113450844e-01	 1.7493231268e+00
 9.1251067963e-01	 7.1009740322e-01	 1.6889790698e+00
 8.9765837313e-01	 7.2878220866e-01	 1.5990619208e+00
 8.8240703500e-01	 7.4717594119e-01	 1.4818256538e+00
 8.6676531427e-01	 7.6526593579e-01	 1.3395924121e+00
 8.5074239176e-01	 7.8303987470e-01	 1.1747380050e+00
 8.3434796238e-01	 8.0048581510e-01	 9.8967732613e-01
 8.1759221575e-01	 8.1759221575e-01	 7.8684982543e-01
 9.7300728178e-01	 6.3613133831e-01	 1.6811239454e+00
 9.5975519108e-01	 6.5595443682e-01	 1.7063923437e+00
 9.4607276690e-01	 6.7553872555e-01	 1.6983723570e+00
 9.3196642536e-01	 6.9487037065e-01	 1.6590538603e+00
 9.1744316979e-01	 7.1393576756e-01	 1.5905271986e+00
 9.0251058055e-01	 7.3272157195e-01	 1.4949694700e+00
 8.8717680276e-01	 7.5121473006e-01	 1.3746303877e+00
 8.7145053219e-01	 7.6940250842e-01	 1.2318178521e+00
 8.5534099928e-01	 7.8727252268e-01	 1.0688833678e+00
 8.3885795137e-01	 8.0481276546e-01	 8.8820743880e-01
 8.2201163314e-01	 8.2201163314e-01	 6.9218507598e-01
 9.7823850373e-01	 6.3955139927e-01	 1.6340262881e+00
 9.6491516522e-01	 6.5948107358e-01	 1.6434208323e+00
 9.5115917963e-01	 6.7917065418e-01	 1.6219990711e+00
 9.3697699754e-01	 6.9860623286e-01	 1.5717760293e+00
 9.2237565995e-01	 7.1777413190e-01	 1.4948578474e+00
 9.0736278798e-01	 7.3666093524e-01	 1.3934278196e+00
 8.9194657052e-01	 7.5525351893e-01	 1.2697320619e+00
 8.7613575010e-01	 7.7353908105e-01	 1.1260649452e+00
 8.5993960681e-01	 7.9150517065e-01	 9.6475442715e-01
 8.4336794036e-01	 8.0913971581e-01	 7.8814742187e-01
 8.2643105052e-01	 8.2643105052e-01	 5.9859533940e-01
 9.8346972567e-01	 6.4297146023e-01	 1.5903319173e+00
 9.7007513937e-01	 6.6300771034e-01	 1.5837164185e+00
 9.5624559236e-01	 6.8280258282e-01	 1.5487326584e+00
 9.4198756972e-01	 7.0234209507e-01	 1.4874213128e+00
 9.2730815012e-01	 7.2161249625e-01	 1.4019048752e+00
 9.1221499540e-01	 7.4060029853e-01	 1.2943734473e+00
 8.9671633828e-01	 7.5929230781e-01	 1.1670702102e+00
 8.8082096802e-01	 7.7767565368e-01	 1.0222767146e+00
 8.6453821433e-01	 7.9573781862e-01	 8.6229812541e-01
 8.4787792935e-01	 8.1346666617e-01	 6.8944856124e-01
 8.3085046790e-01	 8.3085046790e-01	 5.0603666245e-01
 9.8870094762e-01	 6.4639152119e-01	 1.5499697597e+00
 9.7523511351e-01	 6.6653434710e-01	 1.5272088607e+00
 9.6133200508e-01	 6.8643451145e-01	 1.4785041375e+00
 9.4699814190e-01	 7.0607795728e-01	 1.4059224200e+00
 9.3224064028e-01	 7.2545086059e-01	 1.3116031127e+00
 9.1706720283e-01	 7.4453966182e-01	 1.1977437355e+00
 9.0148610604e-01	 7.6333109668e-01	 1.0665851952e+00
 8.8550618594e-01	 7.8181222631e-01	 9.2039692874e-01
 8.6913682186e-01	 7.9997046660e-01	 7.6146205823e-01
 8.5238791834e-01	 8.1779361652e-01	 5.9206269582e-01
 8.3526988529e-01	 8.3526988529e-01	 4.1446553708e-01
 9.9393216956e-01	 6.4981158215e-01	 1.5128698652e+00
 9.8039508766e-01	 6.7006098386e-01	 1.4738290086e+00
 9.6641841781e-01	 6.9006644008e-01	 1.4112455784e+00
 9.5200871408e-01	 7.0981381949e-01	 1.3272130628e+00
 9.3717313044e-01	 7.2928922494e-01	 1.2238883363e+00
 9.2191941025e-01	 7.4847902512e-01	 1.1034769472e+00
 9.0625587380e-01	 7.6736988555e-01	 9.6821818640e-01
 8.9019140386e-01	 7.8594879893e-01	 8.2037008147e-01
 8.7373542939e-01	 8.0420311457e-01	 6.6219445704e-01
 8.5689790732e-01	 8.2212056687e-01	 4.9594220300e-01
 8.3968930267e-01	 8.3968930267e-01	 3.2383888863e-01
 7.9549512882e-01	 7.9549512882e-01	 1.2778698461e+00
 7.7885106333e-01	 8.1179801744e-01	 1.0592699801e+00
 7.6187663484e-01	 8.2774935413e-01	 8.4688487493e-01
 7.4458307265e-01	 8.4333922468e-01	 6.4251963536e-01
 7.2698199682e-01	 8.5855819620e-01	 4.4788875312e-01
 7.0908539220e-01	 8.7339733600e-01	 2.6460697746e-01
 6.9090558150e-01	 8.8784822882e-01	 9.4181176944e-02
 6.7245519740e-01	 9.0190299227e-01	-6.1996749084e-02
 6.5374715376e-01	 9.1555429054e-01	-2.0265586395e-01
 6.3479461628e-01	 9.2879534620e-01	-3.2665105995e-01
 6.1561097256e-01	 9.4161995011e-01	-6.1197872446e-01
 7.9991454621e-01	 7.9991454621e-01	 1.1771542847e+00
 7.8317801368e-01	 8.1630800643e-01	 9.6453041874e-01
 7.6610928281e-01	 8.3234796165e-01	 7.5735422300e-01
 7.4871964528e-01	 8.4802444260e-01	 5.5740178539e-01
 7.3102078569e-01	 8.6332796396e-01	 3.6636070090e-01
 7.1302475549e-01	 8.7824954343e-01	 1.8582100348e-01
 6.9474394585e-01	 8.9278071898e-01	 1.7267084372e-02
 6.7619105960e-01	 9.0691356445e-01	-1.3792934484e-01
 6.5737908239e-01	 9.2064070327e-01	-2.7851519924e-01
 6.3832125304e-01	 9.3395532034e-01	-4.0336084583e-01
 6.1903103352e-01	 9.4685117206e-01	-6.2437432726e-01
 8.0433396359e-01	 8.0433396359e-01	 1.0777406171e+00
 7.8750496404e-01	 8.2081799542e-01	 8.7087496110e-01
 7.7034193078e-01	 8.3694656918e-01	 6.6870534002e-01
 7.5285621791e-01	 8.5270966052e-01	 4.7297939283e-01
 7.3505957457e-01	 8.6809773172e-01	 2.8535832616e-01
 7.1696411878e-01	 8.8310175085e-01	 1.0740790523e-01
 6.9858231019e-01	 8.9771320914e-01	-5.9409573049e-02
 6.7992692181e-01	 9.1192413663e-01	-2.1374226685e-01
 6.6101101102e-01	 9.2572711600e-01	-3.5435469093e-01
 6.4184788980e-01	 9.3911529449e-01	-4.8013250126e-01
 6.2245109447e-01	 9.5208239400e-01	-6.3791955710e-01
 8.0875338098e-01	 8.0875338098e-01	 9.7958247447e-01
 7.9183191439e-01	 8.2532798440e-01	 7.7826036505e-01
 7.7457457876e-01	 8.4154517671e-01	 5.8089798019e-01
 7.5699279054e-01	 8.5739487843e-01	 3.8921507348e-01
 7.3909836344e-01	 8.7286749948e-01	 2.0484696727e-01
 7.2090348207e-01	 8.8795395828e-01	 2.9335600587e-02
 7.0242067453e-01	 9.0264569931e-01	-1.3587844482e-01
 6.8366278402e-01	 9.1693470881e-01	-2.8946288233e-01
 6.6464293965e-01	 9.3081352872e-01	-4.3019957743e-01
 6.4537452655e-01	 9.4427526864e-01	-5.5698929228e-01
 6.2587115543e-01	 9.5731361595e-01	-6.6885529994e-01
 8.1317279837e-01	 8.1317279837e-01	 8.8263399820e-01
 7.9615886475e-01	 8.2983797339e-01	 6.8664382402e-01
 7.7880722673e-01	 8.4614378423e-01	 4.9389226294e-01
 7.6112936317e-01	 8.6208009635e-01	 3.0607174217e-01
 7.4313715231e-01	 8.7763726724e-01	 1.2479219963e-01
 7.2484284536e-01	 8.9280616570e-01	-4.8427813302e-02
 7.0625903887e-01	 9.0757818947e-01	-2.1216905448e-01
 6.8739864623e-01	 9.2194528100e-01	-3.6511848136e-01
 6.6827486828e-01	 9.3589994145e-01	-5.0607506436e-01
 6.4890116331e-01	 9.4943524278e-01	-6.3395449179e-01
 6.2929121639e-01	 9.6254483789e-01	-7.4779274891e-01
 8.1759221575e-01	 8.1759221575e-01	 7.8684982543e-01
 8.0048581510e-01	 8.3434796238e-01	 5.9598295520e-01
 7.8303987470e-01	 8.5074239176e-01	 4.0764866313e-01
 7.6526593579e-01	 8.6676531427e-01	 2.2351260472e-01
 7.4717594119e-01	 8.8240703500e-01	 4.5159829234e-02
 7.2878220866e-01	 8.9765837313e-01	-1.2591406483e-01
 7.1009740322e-01	 9.1251067963e-01	-2.8831080300e-01
 6.9113450844e-01	 9.2695585318e-01	-4.4073627901e-01
 6.7190679692e-01	 9.4098635418e-01	-5.8200632538e-01
 6.5242780007e-01	 9.5459521693e-01	-7.1105137937e-01
 6.3271127735e-01	 9.6777605984e-01	-8.2692002675e-01
 8.2201163314e-01	 8.2201163314e-01	 6.9218507598e-01
 8.0481276546e-01	 8.3885795137e-01	 5.0623578815e-01
 7.8727252268e-01	 8.5534099928e-01	 3.2212800142e-01
 7.6940250842e-01	 8.7145053219e-01	 1.4150115006e-01
 7.5121473006e-01	 8.8717680276e-01	-3.4084113478e-02
 7.3272157195e-01	 9.0251058055e-01	-2.0315471262e-01
 7.1393576756e-01	 9.1744316979e-01	-3.6433297211e-01
 6.9487037065e-01	 9.3196642536e-01	-5.1634341734e-01
 6.7553872555e-01	 9.4607276690e-01	-6.5801850312e-01
 6.5595443682e-01	 9.5975519108e-01	-7.8830324108e-01
 6.3613133831e-01	 9.7300728178e-01	-9.0625870831e-01
 8.2643105052e-01	 8.2643105052e-01	 5.9859533940e-01
 8.0913971581e-01	 8.4336794036e-01	 4.1736075375e-01
 7.9150517065e-01	 8.5993960681e-01	 2.3729143506e-01
 7.7353908105e-01	 8.7613575010e-01	 6.0001142737e-02
 7.5525351893e-01	 8.9194657052e-01	-1.1297337967e-01
 7.3666093524e-01	 9.0736278798e-01	-2.8018115010e-01
 7.1777413190e-01	 9.2237565995e-01	-4.4026472745e-01
 6.9860623286e-01	 9.3697699754e-01	-5.9196696734e-01
 6.7917065418e-01	 9.5115917963e-01	-7.3413670994e-01
 6.5948107358e-01	 9.6491516522e-01	-8.6573336933e-01
 6.3955139927e-01	 9.7823850373e-01	-9.8583040705e-01
 8.3085046790e-01	 8.3085046790e-01	 5.0603666245e-01
 8.1346666617e-01	 8.4787792935e-01	 3.2931667360e-01
 7.9573781862e-01	 8.6453821433e-01	 1.5310044895e-01
 7.7767565368e-01	 8.8082096802e-01	-2.1023384500e-02
 7.5929230781e-01	 8.9671633828e-01	-1.9154150788e-01
 7.4060029853e-01	 9.1221499540e-01	-3.5702460985e-01
 7.2161249625e-01	 9.2730815012e-01	-5.1613512169e-01
 7.0234209507e-01	 9.4198756972e-01	-6.6763393085e-01
 6.8280258282e-01	 9.5624559236e-01	-8.1038602880e-01
 6.6300771034e-01	 9.7007513937e-01	-9.4336506268e-01
 6.4297146023e-01	 9.8346972567e-01	-1.0656567740e+00
 8.3526988529e-01	 8.3526988529e-01	 4.1446553708e-01
 8.1779361652e-01	 8.5238791834e-01	 2.4206274960e-01
 7.9997046660e-01	 8.6913682186e-01	 6.9516846929e-02
 7.8181222631e-01	 8.8550618594e-01	-1.0160813773e-01
 7.6333109668e-01	 9.0148610604e-01	-2.6982182969e-01
 7.4453966182e-01	 9.1706720283e-01	-4.3371616789e-01
 7.2545086059e-01	 9.3224064028e-01	-5.9197309747e-01
 7.0607795728e-01	 9.4699814190e-01	-7.4337124236e-01
 6.8643451145e-01	 9.6133200508e-01	-8.8679151396e-01
 6.6653434710e-01	 9.7523511351e-01	-1.0212216257e+00
 6.4639152119e-01	 9.8870094762e-01	-1.1457594966e+00
 8.3968930267e-01	 8.3968930267e-01	 3.2383888863e-01
 8.2212056687e-01	 8.5689790732e-01	 1.5555855399e-01
 8.0420311457e-01	 8.7373542939e-01	-1.3497256562e-02
 7.8594879893e-01	 8.9019140386e-01	-1.8178856878e-01
 7.6736988555e-01	 9.0625587380e-01	-3.4784747511e-01
 7.4847902512e-01	 9.2191941025e-01	-5.1028674777e-01
 7.2928922494e-01	 9.3717313044e-01	-6.6780749036e-01
 7.0981381949e-01	 9.5200871408e-01	-8.1920577081e-01
 6.9006644008e-01	 9.6641841781e-01	-9.6337819183e-01
 6.7006098386e-01	 9.8039508766e-01	-1.0993263687e+00
 6.4981158215e-01	 9.9393216956e-01	-1.2261602982e+00
 6.1561097256e-01	 9.4161995011e-01	-6.1197872446e-01
 5.9620980170e-01	 9.5402246952e-01	-8.8059115067e-01
 5.7660484377e-01	 9.6599785411e-01	-1.1330124104e+00
 5.5680996903e-01	 9.7754164024e-01	-1.3698279800e+00
 5.3683914726e-01	 9.8864995321e-01	-1.5916499084e+00
 5.1670641719e-01	 9.9931950769e-01	-1.7991054783e+00
 4.9642585623e-01	 1.0095476063e+00	-1.9928261515e+00
 4.7601155058e-01	 1.0193321361e+00	-2.1734369135e+00
 4.5547756592e-01	 1.0286715642e+00	-2.3415461271e+00
 4.3483791872e-01	 1.0375649302e+00	-2.4977359903e+00
 4.1410654828e-01	 1.0460118387e+00	-2.6425536873e+00
 6.1903103352e-01	 9.4685117206e-01	-6.2437432726e-01
 5.9952207837e-01	 9.5932259435e-01	-8.9164867847e-01
 5.7980820401e-01	 9.7136450885e-01	-1.1411646320e+00
 5.5990335774e-01	 9.8297242713e-01	-1.3736705839e+00
 5.3982158696e-01	 9.9414245295e-01	-1.5899444823e+00
 5.1957700840e-01	 1.0048712827e+00	-1.7907816101e+00
 4.9918377765e-01	 1.0151562041e+00	-1.9769826597e+00
 4.7865605919e-01	 1.0249950924e+00	-2.1493422216e+00
 4.5800799684e-01	 1.0343864062e+00	-2.3086378034e+00
 4.3725368494e-01	 1.0433291799e+00	-2.4556194789e+00
 4.1640714021e-01	 1.0518230156e+00	-2.5910002619e+00
 6.2245109447e-01	 9.5208239400e-01	-6.3791955710e-01
 6.0283435505e-01	 9.6462271918e-01	-9.0422589505e-01
 5.8301156425e-01	 9.7673116360e-01	-1.1512174027e+00
 5.6299674645e-01	 9.8840321401e-01	-1.3798051022e+00
 5.4280402667e-01	 9.9963495269e-01	-1.5909325266e+00
 5.2244759960e-01	 1.0104230578e+00	-1.7855626232e+00
 5.0194169907e-01	 1.0207648019e+00	-1.9646649576e+00
 4.8130056780e-01	 1.0306580487e+00	-2.1292033465e+00
 4.6053842776e-01	 1.0401012482e+00	-2.2801240412e+00
 4.3966945115e-01	 1.0490934295e+00	-2.4183445686e+00
 4.1870773214e-01	 1.0576341925e+00	-2.5447433280e+00
 6.2587115543e-01	 9.5731361595e-01	-6.6885529994e-01
 6.0614663172e-01	 9.6992284401e-01	-9.1833736687e-01
 5.8621492449e-01	 9.8209781834e-01	-1.1631761987e+00
 5.6609013517e-01	 9.9383400090e-01	-1.3882276915e+00
 5.4578646637e-01	 1.0051274524e+00	-1.5946006709e+00
 5.2531819080e-01	 1.0159748328e+00	-1.7834254352e+00
 5.0469962049e-01	 1.0263733997e+00	-1.9558400884e+00
 4.8394507641e-01	 1.0363210051e+00	-2.1129773167e+00
 4.6306885868e-01	 1.0458160903e+00	-2.2559517366e+00
 4.4208521736e-01	 1.0548576791e+00	-2.3858479278e+00
 4.2100832408e-01	 1.0634453694e+00	-2.5037092529e+00
 6.2929121639e-01	 9.6254483789e-01	-7.4779274891e-01
 6.0945890840e-01	 9.7522296884e-01	-9.3399787172e-01
 5.8941828473e-01	 9.8746447308e-01	-1.1770468815e+00
 5.6918352388e-01	 9.9926478779e-01	-1.3989350726e+00
 5.4876890608e-01	 1.0106199522e+00	-1.6009362922e+00
 5.2818878201e-01	 1.0215266079e+00	-1.7843478982e+00
 5.0745754191e-01	 1.0319819975e+00	-1.9504762199e+00
 4.8658958502e-01	 1.0419839614e+00	-2.1006224786e+00
 4.6559928960e-01	 1.0515309323e+00	-2.2360692997e+00
 4.4450098358e-01	 1.0606219287e+00	-2.3580679369e+00
 4.2330891601e-01	 1.0692565462e+00	-2.4678263158e+00
 6.3271127735e-01	 9.6777605984e-01	-8.2692002675e-01
 6.1277118507e-01	 9.8052309367e-01	-9.5122239297e-01
 5.9262164497e-01	 9.9283112783e-01	-1.1928356880e+00
 5.7227691260e-01	 1.0046955747e+00	-1.4119245156e+00
 5.5175134578e-01	 1.0161124519e+00	-1.6099274949e+00
 5.3105937321e-01	 1.0270783829e+00	-1.7883087732e+00
 5.1021546333e-01	 1.0375905953e+00	-1.9485426142e+00
 4.8923409364e-01	 1.0476469177e+00	-2.0920984611e+00
 4.6812972052e-01	 1.0572457743e+00	-2.2204266134e+00
 4.4691674979e-01	 1.0663861783e+00	-2.3349446421e+00
 4.2560950794e-01	 1.0750677231e+00	-2.4370246566e+00
 6.3613133831e-01	 9.7300728178e-01	-9.0625870831e-01
 6.1608346175e-01	 9.8582321850e-01	-9.7002611405e-01
 5.9582500522e-01	 9.9819778257e-01	-1.2105492203e+00
 5.7537030132e-01	 1.0101263616e+00	-1.4271938251e+00
 5.5473378549e-01	 1.0216049516e+00	-1.6215630912e+00
 5.3392996442e-01	 1.0326301579e+00	-1.7952877062e+00
 5.1297338476e-01	 1.0431991931e+00	-1.9500095982e+00
 4.9187860225e-01	 1.0533098740e+00	-2.0873661409e+00
 4.7066015144e-01	 1.0629606163e+00	-2.2089749941e+00
 4.4933251600e-01	 1.0721504279e+00	-2.3164197105e+00
 4.2791009988e-01	 1.0808789000e+00	-2.4112362254e+00
 6.3955139927e-01	 9.7823850373e-01	-9.8583040705e-01
 6.1939573843e-01	 9.9112334333e-01	-9.9042441312e-01
 5.9902836546e-01	 1.0035644373e+00	-1.2301944357e+00
 5.7846369003e-01	 1.0155571485e+00	-1.4447413260e+00
 5.5771622520e-01	 1.0270974514e+00	-1.6358325821e+00
 5.3680055563e-01	 1.0381819330e+00	-1.8052652041e+00
 5.1573130618e-01	 1.0488077909e+00	-1.9548485351e+00
 4.9452311087e-01	 1.0589728303e+00	-2.0863876089e+00
 4.7319058237e-01	 1.0686754583e+00	-2.2016671531e+00
 4.5174828222e-01	 1.0779146775e+00	-2.3024363870e+00
 4.3021069181e-01	 1.0866900769e+00	-2.3903947342e+00
 6.4297146023e-01	 9.8346972567e-01	-1.0656567740e+00
 6.2270801510e-01	 9.9642346816e-01	-1.0124328579e+00
 6.0223172570e-01	 1.0089310921e+00	-1.2517786374e+00
 5.8155707875e-01	 1.0209879353e+00	-1.4645658495e+00
 5.6069866490e-01	 1.0325899511e+00	-1.6527261394e+00
 5.3967114683e-01	 1.0437337080e+00	-1.8182226119e+00
 5.1848922760e-01	 1.0544163887e+00	-1.9630317971e+00
 4.9716761948e-01	 1.0646357866e+00	-2.0891261384e+00
 4.7572101329e-01	 1.0743903004e+00	-2.1984571597e+00
 4.5416404844e-01	 1.0836789271e+00	-2.2929394520e+00
 4.3251128375e-01	 1.0925012537e+00	-2.3744356104e+00
 6.4639152119e-01	 9.8870094762e-01	-1.1457594966e+00
 6.2602029178e-01	 1.0017235930e+00	-1.0538322759e+00
 6.0543508595e-01	 1.0142977468e+00	-1.2753094657e+00
 5.8465046747e-01	 1.0264187222e+00	-1.4866667196e+00
 5.6368110461e-01	 1.0380824509e+00	-1.6722345874e+00
 5.4254173804e-01	 1.0492854831e+00	-1.8341420908e+00
 5.2124714903e-01	 1.0600249865e+00	-1.9745327382e+00
 4.9981212810e-01	 1.0702987429e+00	-2.0955461537e+00
 4.7825144421e-01	 1.0801051424e+00	-2.1993004050e+00
 4.5657981465e-01	 1.0894431767e+00	-2.2878751810e+00
 4.3481187569e-01	 1.0983124306e+00	-2.3632959510e+00
 6.4981158215e-01	 9.9393216956e-01	-1.2261602982e+00
 6.2933256846e-01	 1.0070237178e+00	-1.1361476995e+00
 6.0863844620e-01	 1.0196644015e+00	-1.3007948883e+00
 5.8774385619e-01	 1.0318495091e+00	-1.5110437406e+00
 5.6666354432e-01	 1.0435749506e+00	-1.6943493863e+00
 5.4541232925e-01	 1.0548372581e+00	-1.8530065961e+00
 5.2400507046e-01	 1.0656335844e+00	-1.9893256689e+00
 5.0245663671e-01	 1.0759616992e+00	-2.1056131994e+00
 4.8078187514e-01	 1.0858199844e+00	-2.2041535675e+00
 4.5899558087e-01	 1.0952074263e+00	-2.2871913054e+00
 4.3711246762e-01	 1.1041236075e+00	-2.3569144788e+00
 4.1410654828e-01	 1.0460118387e+00	-2.6425536873e+00
 3.9329728964e-01	 1.0540124487e+00	-2.8847407887e+00
 3.7242384749e-01	 1.0615674627e+00	-3.1072438006e+00
 3.5149977102e-01	 1.0686781139e+00	-3.3105372487e+00
 3.3053842996e-01	 1.0753461519e+00	-3.4950751401e+00
 3.0955299173e-01	 1.0815738280e+00	-3.6612844377e+00
 2.8855639992e-01	 1.0873638784e+00	-3.8095593476e+00
 2.6756135393e-01	 1.0927195074e+00	-3.9402564388e+00
 2.4658029007e-01	 1.0976443689e+00	-4.0536906002e+00
 2.2562536388e-01	 1.1021425476e+00	-4.1501318321e+00
 2.0470843399e-01	 1.1062185395e+00	-4.2298028588e+00
 4.1640714021e-01	 1.0518230156e+00	-2.5910002619e+00
 3.9548227458e-01	 1.0598680734e+00	-2.8234029438e+00
 3.7449286886e-01	 1.0674650597e+00	-3.0365220462e+00
 3.5345254753e-01	 1.0746152145e+00	-3.2308466452e+00
 3.3237475457e-01	 1.0813202972e+00	-3.4068436491e+00
 3.1127273057e-01	 1.0875825715e+00	-3.5649511730e+00
 2.9015949103e-01	 1.0934047889e+00	-3.7055727458e+00
 2.6904780590e-01	 1.0987901714e+00	-3.8290723662e+00
 2.4795018057e-01	 1.1037423932e+00	-3.9357704163e+00
 2.2687883812e-01	 1.1082655617e+00	-4.0259404265e+00
 2.0584570306e-01	 1.1123641980e+00	-4.0998066788e+00
 4.1870773214e-01	 1.0576341925e+00	-2.5447433280e+00
 3.9766725952e-01	 1.0657236981e+00	-2.7671782027e+00
 3.7656189024e-01	 1.0733626567e+00	-2.9707358145e+00
 3.5540532403e-01	 1.0805523151e+00	-3.1559204426e+00
 3.3421107918e-01	 1.0872944425e+00	-3.3232125064e+00
 3.1299246942e-01	 1.0935913150e+00	-3.4730618384e+00
 2.9176258214e-01	 1.0994456993e+00	-3.6058818083e+00
 2.7053425787e-01	 1.1048608353e+00	-3.7220443149e+00
 2.4932007107e-01	 1.1098404175e+00	-3.8218756546e+00
 2.2813231237e-01	 1.1143885759e+00	-3.9056532594e+00
 2.0698297214e-01	 1.1185098566e+00	-3.9736032908e+00
 4.2100832408e-01	 1.0634453694e+00	-2.5037092529e+00
 3.9985224446e-01	 1.0715793228e+00	-2.7159931647e+00
 3.7863091161e-01	 1.0792602537e+00	-2.9098119246e+00
 3.5735810054e-01	 1.0864894158e+00	-3.0856856697e+00
 3.3604740379e-01	 1.0932685878e+00	-3.2441089426e+00
 3.1471220826e-01	 1.0996000584e+00	-3.3855438599e+00
 2.9336567325e-01	 1.1054866097e+00	-3.5104141520e+00
 2.7202070983e-01	 1.1109314992e+00	-3.6191000899e+00
 2.5068996157e-01	 1.1159384417e+00	-3.7119343069e+00
 2.2938578661e-01	 1.1205115901e+00	-3.7891985093e+00
 2.0812024122e-01	 1.1246555151e+00	-3.8511210611e+00
 4.2330891601e-01	 1.0692565462e+00	-2.4678263158e+00
 4.0203722941e-01	 1.0774349476e+00	-2.6697763125e+00
 3.8069993299e-01	 1.0851578508e+00	-2.8536790511e+00
 3.5931087704e-01	 1.0924265164e+00	-3.0200711841e+00
 3.3788372840e-01	 1.0992427330e+00	-3.1694619906e+00
 3.1643194710e-01	 1.1056088019e+00	-3.3023264404e+00
 2.9496876436e-01	 1.1115275202e+00	-3.4190991464e+00
 2.7350716180e-01	 1.1170021632e+00	-3.5201692250e+00
 2.5205985207e-01	 1.1220364660e+00	-3.6058760708e+00
 2.3063926085e-01	 1.1266346042e+00	-3.6765060388e+00
 2.0925751029e-01	 1.1308011737e+00	-3.7322900193e+00
 4.2560950794e-01	 1.0750677231e+00	-2.4370246566e+00
 4.0422221435e-01	 1.0832905723e+00	-2.6284579615e+00
 3.8276895436e-01	 1.0910554478e+00	-2.8022676746e+00
 3.6126365355e-01	 1.0983636170e+00	-2.9590076224e+00
 3.3972005301e-01	 1.1052168783e+00	-3.0992024371e+00
 3.1815168595e-01	 1.1116175454e+00	-3.2233405119e+00
 2.9657185547e-01	 1.1175684306e+00	-3.3318678658e+00
 2.7499361376e-01	 1.1230728271e+00	-3.4251829361e+00
 2.5342974257e-01	 1.1281344903e+00	-3.5036323042e+00
 2.3189273510e-01	 1.1327576184e+00	-3.5675073494e+00
 2.1039477937e-01	 1.1369468322e+00	-3.6170418139e+00
 4.2791009988e-01	 1.0808789000e+00	-2.4112362254e+00
 4.0640719929e-01	 1.0891461970e+00	-2.5919702105e+00
 3.8483797574e-01	 1.0969530448e+00	-2.7555100322e+00
 3.6321643005e-01	 1.1043007176e+00	-2.9024273528e+00
 3.4155637762e-01	 1.1111910236e+00	-3.0332627753e+00
 3.1987142479e-01	 1.1176262889e+00	-3.1485186889e+00
 2.9817494658e-01	 1.1236093410e+00	-3.2486530442e+00
 2.7648006573e-01	 1.1291434910e+00	-3.3340740761e+00
 2.5479963307e-01	 1.1342325145e+00	-3.4051359802e+00
 2.3314620934e-01	 1.1388806325e+00	-3.4621355373e+00
 2.1153204845e-01	 1.1430924908e+00	-3.5053096681e+00
 4.3021069181e-01	 1.0866900769e+00	-2.3903947342e+00
 4.0859218423e-01	 1.0950018217e+00	-2.5602468939e+00
 3.8690699711e-01	 1.1028506418e+00	-2.7133400716e+00
 3.6516920656e-01	 1.1102378183e+00	-2.8502644287e+00
 3.4339270223e-01	 1.1171651689e+00	-2.9715771593e+00
 3.2159116363e-01	 1.1236350324e+00	-3.0777952232e+00
 2.9977803769e-01	 1.1296502515e+00	-3.1693890300e+00
 2.7796651770e-01	 1.1352141549e+00	-3.2467770907e+00
 2.5616952357e-01	 1.1403305388e+00	-3.3103216441e+00
 2.3439968359e-01	 1.1450036467e+00	-3.3603252511e+00
 2.1266931753e-01	 1.1492381493e+00	-3.3970283384e+00
 4.3251128375e-01	 1.0925012537e+00	-2.3744356104e+00
 4.1077716918e-01	 1.1008574464e+00	-2.5332235356e+00
 3.8897601849e-01	 1.1087482388e+00	-2.6756934046e+00
 3.6712198306e-01	 1.1161749189e+00	-2.8024545437e+00
 3.4522902684e-01	 1.1231393142e+00	-2.9140813600e+00
 3.2331090248e-01	 1.1296437759e+00	-3.0111059609e+00
 3.0138112881e-01	 1.1356911619e+00	-3.0940117439e+00
 2.7945296966e-01	 1.1412848189e+00	-3.1632279767e+00
 2.5753941407e-01	 1.1464285631e+00	-3.2191253717e+00
 2.3565315783e-01	 1.1511266608e+00	-3.2620126498e+00
 2.1380658661e-01	 1.1553838079e+00	-3.2921340732e+00
 4.3481187569e-01	 1.0983124306e+00	-2.3632959510e+00
 4.1296215412e-01	 1.1067130711e+00	-2.5108373045e+00
 3.9104503986e-01	 1.1146458358e+00	-2.6425072638e+00
 3.6907475957e-01	 1.1221120195e+00	-2.7589349882e+00
 3.4706535145e-01	 1.1291134595e+00	-2.8607127223e+00
 3.2503064132e-01	 1.1356525194e+00	-2.9483882997e+00
 3.0298421992e-01	 1.1417320723e+00	-3.0224586370e+00
 2.8093942163e-01	 1.1473554828e+00	-3.0833642404e+00
 2.5890930457e-01	 1.1525265873e+00	-3.1314847285e+00
 2.3690663208e-01	 1.1572496750e+00	-3.1671353635e+00
 2.1494385569e-01	 1.1615294664e+00	-3.1905645738e+00
 4.3711246762e-01	 1.1041236075e+00	-2.3569144788e+00
 4.1514713906e-01	 1.1125686958e+00	-2.4930269710e+00
 3.9311406124e-01	 1.1205434328e+00	-2.6137204597e+00
 3.7102753608e-01	 1.1280491202e+00	-2.7196446076e+00
 3.4890167607e-01	 1.1350876047e+00	-2.8114101238e+00
 3.2675038016e-01	 1.1416612628e+00	-2.8895811483e+00
 3.0458731103e-01	 1.1477729828e+00	-2.9546686501e+00
 2.8242587360e-01	 1.1534261467e+00	-3.0071248582e+00
 2.6027919507e-01	 1.1586246116e+00	-3.0473387307e+00
 2.3816010632e-01	 1.1633726891e+00	-3.0756324544e+00
 2.1608112477e-01	 1.1676751250e+00	-3.0922589557e+00
 2.0470843399e-01	 1.1062185395e+00	-4.2298028588e+00
 1.8384104721e-01	 1.1098772317e+00	-4.3718489308e+00
 1.6303442517e-01	 1.1131238818e+00	-4.4916354901e+00
 1.4229945224e-01	 1.1159640971e+00	-4.5894191003e+00
 1.2164666494e-01	 1.1184038130e+00	-4.6654216181e+00
 1.0108624264e-01	 1.1204492722e+00	-4.7198299584e+00
 8.0627999711e-02	 1.1221070028e+00	-4.7527964431e+00
 6.0281378879e-02	 1.1233837970e+00	-4.7644396851e+00
 4.0055445998e-02	 1.1242866900e+00	-4.7548459555e+00
 1.9958885984e-02	 1.1248229385e+00	-4.7240709791e+00
 0.0000000000e+00	 1.1250000000e+00	-4.6721421039e+00
 2.0584570306e-01	 1.1123641980e+00	-4.0998066788e+00
 1.8486238636e-01	 1.1160432163e+00	-4.2371872416e+00
 1.6394017197e-01	 1.1193079034e+00	-4.3527420332e+00
 1.4309000475e-01	 1.1221638976e+00	-4.4467942005e+00
 1.2232247974e-01	 1.1246171675e+00	-4.5196277806e+00
 1.0164783288e-01	 1.1266739904e+00	-4.5714873736e+00
 8.1075933039e-02	 1.1283409306e+00	-4.6025784310e+00
 6.0616275427e-02	 1.1296248181e+00	-4.6130681096e+00
 4.0277976252e-02	 1.1305327271e+00	-4.6030866367e+00
 2.0069768683e-02	 1.1310719548e+00	-4.5727291302e+00
 0.0000000000e+00	 1.1312500000e+00	-4.5220578175e+00
 2.0698297214e-01	 1.1185098566e+00	-3.9736032908e+00
 1.8588372551e-01	 1.1222092009e+00	-4.1065868907e+00
 1.6484591878e-01	 1.1254919249e+00	-4.2181870188e+00
 1.4388055726e-01	 1.1283636981e+00	-4.3087930136e+00
 1.2299829454e-01	 1.1308305220e+00	-4.3787506734e+00
 1.0220942311e-01	 1.1328987085e+00	-4.4283618394e+00
 8.1523866369e-02	 1.1345748584e+00	-4.4578846265e+00
 6.0951171974e-02	 1.1358658392e+00	-4.4675342487e+00
 4.0500506506e-02	 1.1367787643e+00	-4.4574843848e+00
 2.0180651382e-02	 1.1373209711e+00	-4.4278690257e+00
 0.0000000000e+00	 1.1375000000e+00	-4.3787847452e+00
 2.0812024122e-01	 1.1246555151e+00	-3.8511210611e+00
 1.8690506466e-01	 1.1283751855e+00	-3.9799703690e+00
 1.6575166558e-01	 1.1316759465e+00	-4.0878870935e+00
 1.4467110977e-01	 1.1345634987e+00	-4.1753263823e+00
 1.2367410935e-01	 1.1370438765e+00	-4.2426953855e+00
 1.0277101335e-01	 1.1391234267e+00	-4.2903527509e+00
 8.1971799699e-02	 1.1408087862e+00	-4.3186087985e+00
 6.1286068522e-02	 1.1421068603e+00	-4.3277263210e+00
 4.0723036761e-02	 1.1430248015e+00	-4.3179219516e+00
 2.0291534081e-02	 1.1435699874e+00	-4.2893680414e+00
 0.0000000000e+00	 1.1437500000e+00	-4.2421949833e+00
 2.0925751029e-01	 1.1308011737e+00	-3.7322900193e+00
 1.8792640381e-01	 1.1345411702e+00	-3.8572619432e+00
 1.6665741239e-01	 1.1378599681e+00	-3.9617607917e+00
 1.4546166228e-01	 1.1407632992e+00	-4.0463071500e+00
 1.2434992415e-01	 1.1432572311e+00	-4.1113691196e+00
 1.0333260358e-01	 1.1453481449e+00	-4.1573617290e+00
 8.2419733030e-02	 1.1470427139e+00	-4.1846470539e+00
 6.1620965070e-02	 1.1483478814e+00	-4.1935349949e+00
 4.0945567016e-02	 1.1492708386e+00	-4.1842846500e+00
 2.0402416781e-02	 1.1498190038e+00	-4.1571062239e+00
 0.0000000000e+00	 1.1500000000e+00	-4.1121634091e+00
 2.1039477937e-01	 1.1369468322e+00	-3.6170418139e+00
 1.8894774296e-01	 1.1407071548e+00	-3.7383876074e+00
 1.6756315919e-01	 1.1440439896e+00	-3.8397284851e+00
 1.4625221479e-01	 1.1469630997e+00	-3.9216501067e+00
 1.2502573896e-01	 1.1494705856e+00	-3.9846811344e+00
 1.0389419382e-01	 1.1515728631e+00	-4.0292925602e+00
 8.2867666361e-02	 1.1532766417e+00	-4.0558977745e+00
 6.1955861619e-02	 1.1545889025e+00	-4.0648533223e+00
 4.1168097271e-02	 1.1555168758e+00	-4.0564602843e+00
 2.0513299481e-02	 1.1560680201e+00	-4.0309662193e+00
 0.0000000000e+00	 1.1562500000e+00	-3.9885676049e+00
 2.1153204845e-01	 1.1430924908e+00	-3.5053096681e+00
 1.8996908211e-01	 1.1468731394e+00	-3.6232750372e+00
 1.6846890600e-01	 1.1502280112e+00	-3.7217123328e+00
 1.4704276731e-01	 1.1531629003e+00	-3.8012719365e+00
 1.2570155376e-01	 1.1556839401e+00	-3.8625426897e+00
 1.0445578406e-01	 1.1577975813e+00	-3.9060511388e+00
 8.3315599693e-02	 1.1595105695e+00	-3.9322615558e+00
 6.2290758169e-02	 1.1608299236e+00	-3.9415766750e+00
 4.1390627526e-02	 1.1617629130e+00	-3.9343390838e+00
 2.0624182180e-02	 1.1623170364e+00	-3.9108332026e+00
 0.0000000000e+00	 1.1625000000e+00	-3.8712877858e+00
 2.1266931753e-01	 1.1492381493e+00	-3.3970283384e+00
 1.9099042126e-01	 1.1530391240e+00	-3.5118535439e+00
 1.6937465281e-01	 1.1564120328e+00	-3.6076362337e+00
 1.4783331982e-01	 1.1593627008e+00	-3.6850911675e+00
 1.2637736857e-01	 1.1618972946e+00	-3.7448669926e+00
 1.0501737429e-01	 1.1640222994e+00	-3.7875454101e+00
 8.3763533025e-02	 1.1657444973e+00	-3.8136411480e+00
 6.2625654718e-02	 1.1670709447e+00	-3.8236026819e+00
 4.1613157782e-02	 1.1680089501e+00	-3.8178136376e+00
 2.0735064880e-02	 1.1685660527e+00	-3.7965948101e+00
 0.0000000000e+00	 1.1687500000e+00	-3.7602067291e+00
 2.1380658661e-01	 1.1553838079e+00	-3.2921340732e+00
 1.9201176042e-01	 1.1592051086e+00	-3.4040540318e+00
 1.7028039961e-01	 1.1625960543e+00	-3.4974257803e+00
 1.4862387233e-01	 1.1655625014e+00	-3.5730281220e+00
 1.2705318337e-01	 1.1681106491e+00	-3.6315691461e+00
 1.0557896453e-01	 1.1702470176e+00	-3.6736853160e+00
 8.4211466358e-02	 1.1719784251e+00	-3.6999413986e+00
 6.2960551269e-02	 1.1733119658e+00	-3.7108311697e+00
 4.1835688038e-02	 1.1742549873e+00	-3.7067788318e+00
 2.0845947581e-02	 1.1748150691e+00	-3.6881410746e+00
 0.0000000000e+00	 1.1750000000e+00	-3.6552097063e+00
 2.1494385569e-01	 1.1615294664e+00	-3.1905645738e+00
 1.9303309957e-01	 1.1653710933e+00	-3.2998089556e+00
 1.7118614642e-01	 1.1687800759e+00	-3.3910082137e+00
 1.4941442485e-01	 1.1717623019e+00	-3.4650048696e+00
 1.2772899818e-01	 1.1743240036e+00	-3.5225660984e+00
 1.0614055477e-01	 1.1764717358e+00	-3.5643827423e+00
 8.4659399691e-02	 1.1782123529e+00	-3.5910691967e+00
 6.3295447819e-02	 1.1795529868e+00	-3.6031641042e+00
 4.2058218295e-02	 1.1805010245e+00	-3.6011317890e+00
 2.0956830281e-02	 1.1810640854e+00	-3.5853643611e+00
 0.0000000000e+00	 1.1812500000e+00	-3.5561844169e+00
 2.1608112477e-01	 1.1676751250e+00	-3.0922589557e+00
 1.9405443872e-01	 1.1715370779e+00	-3.1990522798e+00
 1.7209189323e-01	 1.1749640974e+00	-3.2883123806e+00
 1.5020497736e-01	 1.1779621024e+00	-3.3609451810e+00
 1.2840481299e-01	 1.1805373582e+00	-3.4177765949e+00
 1.0670214501e-01	 1.1826964540e+00	-3.4595514672e+00
 8.5107333025e-02	 1.1844462807e+00	-3.4869334196e+00
 6.3630344370e-02	 1.1857940079e+00	-3.5005055345e+00
 4.2280748552e-02	 1.1867470616e+00	-3.5007718092e+00
 2.1067712982e-02	 1.1873131017e+00	-3.4881593061e+00
 0.0000000000e+00	 1.1875000000e+00	-3.4630209246e+00
 1.1875000000e+00	 0.0000000000e+00	 2.9210752877e+00
 1.1873131017e+00	 2.1067712982e-02	 2.9697719613e+00
 1.1867470616e+00	 4.2280748552e-02	 3.0038301199e+00
 1.1857940079e+00	 6.3630344370e-02	 3.0231504734e+00
 1.1844462807e+00	 8.5107333025e-02	 3.0275620165e+00
 1.1826964540e+00	 1.0670214501e-01	 3.0168153868e+00
 1.1805373582e+00	 1.2840481299e-01	 2.9905766010e+00
 1.1779621024e+00	 1.5020497736e-01	 2.9484212680e+00
 1.1749640974e+00	 1.7209189323e-01	 2.8898293882e+00
 1.1715370779e+00	 1.9405443872e-01	 2.8141808411e+00
 1.1676751250e+00	 2.1608112477e-01	 2.7207516726e+00
 1.1937500000e+00	 0.0000000000e+00	 2.9325847098e+00
 1.1935621180e+00	 2.1178595682e-02	 2.9925458215e+00
 1.1929930988e+00	 4.2503278809e-02	 3.0358400336e+00
 1.1920350290e+00	 6.3965240922e-02	 3.0623374449e+00
 1.1906802085e+00	 8.5555266359e-02	 3.0718409696e+00
 1.1889211722e+00	 1.0726373525e-01	 3.0640799587e+00
 1.1867507127e+00	 1.2908062780e-01	 3.0387041939e+00
 1.1841619030e+00	 1.5099552988e-01	 2.9952783560e+00
 1.1811481190e+00	 1.7299764004e-01	 2.9332770710e+00
 1.1777030625e+00	 1.9507577788e-01	 2.8520806391e+00
 1.1738207835e+00	 2.1721839385e-01	 2.7509715531e+00
 1.2000000000e+00	 0.0000000000e+00	 2.9462348965e+00
 1.1998111343e+00	 2.1289478383e-02	 3.0174099515e+00
 1.1992391360e+00	 4.2725809065e-02	 3.0699264862e+00
 1.1982760501e+00	 6.4300137472e-02	 3.1036248651e+00
 1.1969141363e+00	 8.6003199692e-02	 3.1182827211e+00
 1.1951458903e+00	 1.0782532549e-01	 3.1136088327e+00
 1.1929640672e+00	 1.2975644260e-01	 3.0892373702e+00
 1.1903617035e+00	 1.5178608239e-01	 3.0447226122e+00
 1.1873321406e+00	 1.7390338685e-01	 2.9795342323e+00
 1.1838690471e+00	 1.9609711703e-01	 2.8930532639e+00
 1.1799664421e+00	 2.1835566292e-01	 2.7845688445e+00
 1.2062500000e+00	 0.0000000000e+00	 2.9620051209e+00
 1.2060601507e+00	 2.1400361083e-02	 3.0443427635e+00
 1.2054851731e+00	 4.2948339321e-02	 3.1060666528e+00
 1.2045170712e+00	 6.4635034022e-02	 3.1469882901e+00
 1.2031480641e+00	 8.6451133025e-02	 3.1668608205e+00
 1.2013706085e+00	 1.0838691573e-01	 3.1653731596e+00
 1.1991774217e+00	 1.3043225741e-01	 3.1421444858e+00
 1.1965615041e+00	 1.5257663491e-01	 3.0967191972e+00
 1.1935161621e+00	 1.7480913366e-01	 3.0285624347e+00
 1.1900350317e+00	 1.9711845618e-01	 2.9370562751e+00
 1.1861121006e+00	 2.1949293200e-01	 2.8214966959e+00
 1.2125000000e+00	 0.0000000000e+00	 2.9798750837e+00
 1.2123091670e+00	 2.1511243783e-02	 3.0733231047e+00
 1.2117312103e+00	 4.3170869577e-02	 3.1442381601e+00
 1.2107580923e+00	 6.4969930572e-02	 3.1924037533e+00
 1.2093819919e+00	 8.6899066357e-02	 3.2175493299e+00
 1.2075953267e+00	 1.0894850596e-01	 3.2193446477e+00
 1.2053907762e+00	 1.3110807221e-01	 3.1973945079e+00
 1.2027613046e+00	 1.5336718742e-01	 3.1512339470e+00
 1.1997001837e+00	 1.7571488046e-01	 3.0803239896e+00
 1.1962010163e+00	 1.9813979533e-01	 2.9840480640e+00
 1.1922577592e+00	 2.2063020108e-01	 2.8617091821e+00
 1.2187500000e+00	 0.0000000000e+00	 2.9998249018e+00
 1.2185581833e+00	 2.1622126483e-02	 3.1043302460e+00
 1.2179772475e+00	 4.3393399833e-02	 3.1844190748e+00
 1.2169991134e+00	 6.5304827121e-02	 3.2398477532e+00
 1.2156159197e+00	 8.7346999688e-02	 3.2703228107e+00
 1.2138200449e+00	 1.0951009620e-01	 3.2754955477e+00
 1.2116041307e+00	 1.3178388702e-01	 3.2549569991e+00
 1.2089611051e+00	 1.5415773993e-01	 3.2082333554e+00
 1.2058842053e+00	 1.7662062727e-01	 3.1347819382e+00
 1.2023670010e+00	 1.9916113448e-01	 3.0339878331e+00
 1.1984034177e+00	 2.2176747015e-01	 2.9051612795e+00
 1.2250000000e+00	 0.0000000000e+00	 3.0218350978e+00
 1.2248071996e+00	 2.1733009183e-02	 3.1373438714e+00
 1.2242232846e+00	 4.3615930088e-02	 3.2265878925e+00
 1.2232401345e+00	 6.5639723670e-02	 3.2892972417e+00
 1.2218498475e+00	 8.7794933019e-02	 3.3251563112e+00
 1.2200447630e+00	 1.1007168644e-01	 3.3337986395e+00
 1.2178174853e+00	 1.3245970182e-01	 3.3148021028e+00
 1.2151609057e+00	 1.5494829244e-01	 3.2676845573e+00
 1.2120682268e+00	 1.7752637407e-01	 3.1919000325e+00
 1.2085329856e+00	 2.0018247363e-01	 3.0868355754e+00
 1.2045490763e+00	 2.2290473923e-01	 2.9518088438e+00
 1.2312500000e+00	 0.0000000000e+00	 3.0458865900e+00
 1.2310562160e+00	 2.1843891882e-02	 3.1723440674e+00
 1.2304693218e+00	 4.3838460342e-02	 3.2707235265e+00
 1.2294811556e+00	 6.5974620218e-02	 3.3407296125e+00
 1.2280837753e+00	 8.8242866349e-02	 3.3820253537e+00
 1.2262694812e+00	 1.1063327667e-01	 3.3942272186e+00
 1.2240308398e+00	 1.3313551663e-01	 3.3769005279e+00
 1.2213607062e+00	 1.5573884495e-01	 3.3295553122e+00
 1.2182522484e+00	 1.7843212088e-01	 3.2516427175e+00
 1.2146989702e+00	 2.0120381278e-01	 3.1425520535e+00
 1.2106947349e+00	 2.2404200830e-01	 3.0016085868e+00
 1.2375000000e+00	 0.0000000000e+00	 3.0719606820e+00
 1.2373052323e+00	 2.1954774582e-02	 3.2093113131e+00
 1.2367153590e+00	 4.4060990597e-02	 3.3168052977e+00
 1.2357221767e+00	 6.6309516766e-02	 3.3941226901e+00
 1.2343177030e+00	 8.8690799679e-02	 3.4409059231e+00
 1.2324941994e+00	 1.1119486691e-01	 3.4567550831e+00
 1.2302441943e+00	 1.3381133143e-01	 3.4412235347e+00
 1.2275605067e+00	 1.5652939746e-01	 3.3938139890e+00
 1.2244362700e+00	 1.7933786768e-01	 3.3139751136e+00
 1.2208649548e+00	 2.0222515192e-01	 3.2010987812e+00
 1.2168403934e+00	 2.2517927738e-01	 3.0545180557e+00
 1.2437500000e+00	 0.0000000000e+00	 3.1000390534e+00
 1.2435542486e+00	 2.2065657281e-02	 3.2482264697e+00
 1.2429613961e+00	 4.4283520851e-02	 3.3648129241e+00
 1.2419631978e+00	 6.6644413313e-02	 3.4494547185e+00
 1.2405516308e+00	 8.9138733008e-02	 3.5017744549e+00
 1.2387189176e+00	 1.1175645714e-01	 3.5213565210e+00
 1.2364575488e+00	 1.3448714623e-01	 3.5077429212e+00
 1.2337603073e+00	 1.5731994997e-01	 3.4604295500e+00
 1.2306202915e+00	 1.8024361448e-01	 3.3788629997e+00
 1.2270309394e+00	 2.0324649107e-01	 3.2624380040e+00
 1.2229860520e+00	 2.2631654645e-01	 3.1104956112e+00
 1.2500000000e+00	 0.0000000000e+00	 3.1301037500e+00
 1.2498032649e+00	 2.2176539980e-02	 3.2890707717e+00
 1.2492074333e+00	 4.4506051105e-02	 3.4147265109e+00
 1.2482042189e+00	 6.6979309859e-02	 3.5067043513e+00
 1.2467855586e+00	 8.9586666336e-02	 3.5646078242e+00
 1.2449436358e+00	 1.1231804737e-01	 3.5880062977e+00
 1.2426709033e+00	 1.3516296103e-01	 3.5764310095e+00
 1.2399601078e+00	 1.5811050247e-01	 3.5293715365e+00
 1.2368043131e+00	 1.8114936128e-01	 3.4462727968e+00
 1.2331969241e+00	 2.0426783021e-01	 3.3265326810e+00
 1.2291317105e+00	 2.2745381552e-01	 3.1695004081e+00
 1.1676751250e+00	 2.1608112477e-01	 2.7207516726e+00
 1.1633726891e+00	 2.3816010632e-01	 2.7264059561e+00
 1.1586246116e+00	 2.6027919507e-01	 2.7297462382e+00
 1.1534261467e+00	 2.8242587360e-01	 2.7304245931e+00
 1.1477729828e+00	 3.0458731103e-01	 2.7279415747e+00
 1.1416612628e+00	 3.2675038016e-01	 2.7216435413e+00
 1.1350876047e+00	 3.4890167607e-01	 2.7107213890e+00
 1.1280491202e+00	 3.7102753608e-01	 2.6942107847e+00
 1.1205434328e+00	 3.9311406124e-01	 2.6709939830e+00
 1.1125686958e+00	 4.1514713906e-01	 2.6398032921e+00
 1.1041236075e+00	 4.3711246762e-01	 2.5992262401e+00
 1.1738207835e+00	 2.1721839385e-01	 2.7509715531e+00
 1.1694957033e+00	 2.3941358057e-01	 2.7503490693e+00
 1.1647226359e+00	 2.6164908557e-01	 2.7474325060e+00
 1.1594968106e+00	 2.8391232557e-01	 2.7418619758e+00
 1.1538138932e+00	 3.0619040214e-01	 2.7331238908e+00
 1.1476700063e+00	 3.2847011901e-01	 2.7205482974e+00
 1.1410617500e+00	 3.5073800068e-01	 2.7033076426e+00
 1.1339862208e+00	 3.7298031259e-01	 2.6804170639e+00
 1.1264410298e+00	 3.9518308262e-01	 2.6507362881e+00
 1.1184243205e+00	 4.1733212401e-01	 2.6129732043e+00
 1.1099347844e+00	 4.3941305956e-01	 2.5656891645e+00
 1.1799664421e+00	 2.1835566292e-01	 2.7845688445e+00
 1.1756187174e+00	 2.4066705481e-01	 2.7776938884e+00
 1.1708206601e+00	 2.6301897608e-01	 2.7685621022e+00
 1.1655674746e+00	 2.8539877753e-01	 2.7568016374e+00
 1.1598548036e+00	 3.0779349325e-01	 2.7418846921e+00
 1.1536787498e+00	 3.3018985785e-01	 2.7231248547e+00
 1.1470358953e+00	 3.5257432529e-01	 2.6996759002e+00
 1.1399233214e+00	 3.7493308909e-01	 2.6705321369e+00
 1.1323386269e+00	 3.9725210399e-01	 2.6345303860e+00
 1.1242799452e+00	 4.1951710895e-01	 2.5903536619e+00
 1.1157459613e+00	 4.4171365150e-01	 2.5365366063e+00
 1.1861121006e+00	 2.1949293200e-01	 2.8214966959e+00
 1.1817417316e+00	 2.4192052905e-01	 2.8083937436e+00
 1.1769186844e+00	 2.6438886658e-01	 2.7930885026e+00
 1.1716381385e+00	 2.8688522950e-01	 2.7751971614e+00
 1.1658957141e+00	 3.0939658436e-01	 2.7541776303e+00
 1.1596874933e+00	 3.3190959669e-01	 2.7293268905e+00
 1.1530100406e+00	 3.5441064990e-01	 2.6997798205e+00
 1.1458604220e+00	 3.7688586560e-01	 2.6645095971e+00
 1.1382362239e+00	 3.9932112537e-01	 2.6223297551e+00
 1.1301355700e+00	 4.2170209389e-01	 2.5718979757e+00
 1.1215571381e+00	 4.4401424343e-01	 2.5117216538e+00
 1.1922577592e+00	 2.2063020108e-01	 2.8617091821e+00
 1.1878647457e+00	 2.4317400330e-01	 2.8424028910e+00
 1.1830167087e+00	 2.6575875707e-01	 2.8209661110e+00
 1.1777088024e+00	 2.8837168146e-01	 2.7970030642e+00
 1.1719366245e+00	 3.1099967547e-01	 2.7699572967e+00
 1.1656962368e+00	 3.3362933553e-01	 2.7391090316e+00
 1.1589841859e+00	 3.5624697451e-01	 2.7035740235e+00
 1.1517975227e+00	 3.7883864210e-01	 2.6623040126e+00
 1.1441338209e+00	 4.0139014674e-01	 2.6140888649e+00
 1.1359911947e+00	 4.2388707884e-01	 2.5575604666e+00
 1.1273683150e+00	 4.4631483537e-01	 2.4911984263e+00
 1.1984034177e+00	 2.2176747015e-01	 2.9051612795e+00
 1.1939877599e+00	 2.4442747754e-01	 2.8796764886e+00
 1.1891147330e+00	 2.6712864757e-01	 2.8521502358e+00
 1.1837794664e+00	 2.8985813343e-01	 2.8221747712e+00
 1.1779775349e+00	 3.1260276658e-01	 2.7891791986e+00
 1.1717049803e+00	 3.3534907437e-01	 2.7524268295e+00
 1.1649583312e+00	 3.5808329912e-01	 2.7110140649e+00
 1.1577346233e+00	 3.8079141860e-01	 2.6638709015e+00
 1.1500314179e+00	 4.0345916811e-01	 2.6097631505e+00
 1.1418468194e+00	 4.2607206378e-01	 2.5472964392e+00
 1.1331794919e+00	 4.4861542730e-01	 2.4749220476e+00
 1.2045490763e+00	 2.2290473923e-01	 2.9518088438e+00
 1.2001107740e+00	 2.4568095178e-01	 2.9201705735e+00
 1.1952127572e+00	 2.6849853807e-01	 2.8865970666e+00
 1.1898501303e+00	 2.9134458539e-01	 2.8506685937e+00
 1.1840184454e+00	 3.1420585769e-01	 2.8117997355e+00
 1.1777137238e+00	 3.3706881321e-01	 2.7692367369e+00
 1.1709324765e+00	 3.5991962373e-01	 2.7220564131e+00
 1.1636717239e+00	 3.8274419511e-01	 2.6691667074e+00
 1.1559290149e+00	 4.0552818949e-01	 2.6093089883e+00
 1.1477024441e+00	 4.2825704872e-01	 2.5410621572e+00
 1.1389906688e+00	 4.5091601924e-01	 2.4628486206e+00
 1.2106947349e+00	 2.2404200830e-01	 3.0016085868e+00
 1.2062337882e+00	 2.4693442602e-01	 2.9638420396e+00
 1.2013107815e+00	 2.6986842856e-01	 2.9242636521e+00
 1.1959207942e+00	 2.9283103735e-01	 2.8824417062e+00
 1.1900593558e+00	 3.1580894879e-01	 2.8377761769e+00
 1.1837224672e+00	 3.3878855205e-01	 2.7894960849e+00
 1.1769066217e+00	 3.6175594833e-01	 2.7366584254e+00
 1.1696088246e+00	 3.8469697161e-01	 2.6781487761e+00
 1.1618266119e+00	 4.0759721086e-01	 2.6126836719e+00
 1.1535580688e+00	 4.3044203366e-01	 2.5388148189e+00
 1.1448018457e+00	 4.5321661117e-01	 2.4549352020e+00
 1.2168403934e+00	 2.2517927738e-01	 3.0545180557e+00
 1.2123568023e+00	 2.4818790026e-01	 3.0106486159e+00
 1.2074088058e+00	 2.7123831906e-01	 2.9651078782e+00
 1.2019914581e+00	 2.9431748931e-01	 2.9174521245e+00
 1.1961002662e+00	 3.1741203990e-01	 2.8670666399e+00
 1.1897312107e+00	 3.4050829089e-01	 2.8131630609e+00
 1.1828807670e+00	 3.6359227294e-01	 2.7547783259e+00
 1.1755459252e+00	 3.8664974811e-01	 2.6907753326e+00
 1.1677242089e+00	 4.0966623223e-01	 2.6198453888e+00
 1.1594136935e+00	 4.3262701860e-01	 2.5405125333e+00
 1.1506130225e+00	 4.5551720310e-01	 2.4511397789e+00
 1.2229860520e+00	 2.2631654645e-01	 3.1104956112e+00
 1.2184798165e+00	 2.4944137449e-01	 3.0605488454e+00
 1.2135068300e+00	 2.7260820955e-01	 3.0090884471e+00
 1.2080621221e+00	 2.9580394127e-01	 2.9556586852e+00
 1.2021411767e+00	 3.1901513100e-01	 2.8996300683e+00
 1.1957399542e+00	 3.4222802973e-01	 2.8401966867e+00
 1.1888549123e+00	 3.6542859754e-01	 2.7763751837e+00
 1.1814830258e+00	 3.8860252461e-01	 2.7070054592e+00
 1.1736218060e+00	 4.1173525360e-01	 2.6307531984e+00
 1.1652693182e+00	 4.3481200354e-01	 2.5461142978e+00
 1.1564241994e+00	 4.5781779503e-01	 2.4514212445e+00
 1.2291317105e+00	 2.2745381552e-01	 3.1695004081e+00
 1.2246028306e+00	 2.5069484873e-01	 3.1135020649e+00
 1.2196048543e+00	 2.7397810005e-01	 3.0561648568e+00
 1.2141327860e+00	 2.9729039323e-01	 2.9970210244e+00
 1.2081820871e+00	 3.2061822211e-01	 2.9354262115e+00
 1.2017486977e+00	 3.4394776856e-01	 2.8705567983e+00
 1.1948290576e+00	 3.6726492215e-01	 2.8014088914e+00
 1.1874201265e+00	 3.9055530111e-01	 2.7267990739e+00
 1.1795194030e+00	 4.1380427497e-01	 2.6453670097e+00
 1.1711249430e+00	 4.3699698848e-01	 2.5555799755e+00
 1.1622353763e+00	 4.6011838697e-01	 2.4557393765e+00
 1.1041236075e+00	 4.3711246762e-01	 2.5992262401e+00
 1.0952074263e+00	 4.5899558087e-01	 2.5861644876e+00
 1.0858199844e+00	 4.8078187514e-01	 2.5516344035e+00
 1.0759616992e+00	 5.0245663671e-01	 2.4926282928e+00
 1.0656335844e+00	 5.2400507046e-01	 2.4060271728e+00
 1.0548372581e+00	 5.4541232925e-01	 2.2886193082e+00
 1.0435749506e+00	 5.6666354432e-01	 2.1371204777e+00
 1.0318495091e+00	 5.8774385619e-01	 1.9481958473e+00
 1.0196644015e+00	 6.0863844620e-01	 1.7184833040e+00
 1.0070237178e+00	 6.2933256846e-01	 1.5118997395e+00
 9.9393216956e-01	 6.4981158215e-01	 1.5128698652e+00
 1.1099347844e+00	 4.3941305956e-01	 2.5656891645e+00
 1.1009716760e+00	 4.6141134709e-01	 2.5415557437e+00
 1.0915348264e+00	 4.8331230606e-01	 2.4969605384e+00
 1.0816246555e+00	 5.0510114533e-01	 2.4288592776e+00
 1.0712421822e+00	 5.2676299188e-01	 2.3340907645e+00
 1.0603890331e+00	 5.4828292046e-01	 2.2093956042e+00
 1.0490674503e+00	 5.6964598403e-01	 2.0514367062e+00
 1.0372802960e+00	 5.9083724491e-01	 1.8568214390e+00
 1.0250310563e+00	 6.1184180644e-01	 1.6221252860e+00
 1.0123238426e+00	 6.3264484514e-01	 1.4599460700e+00
 9.9916339151e-01	 6.5323164311e-01	 1.4519553794e+00
 1.1157459613e+00	 4.4171365150e-01	 2.5365366063e+00
 1.1067359256e+00	 4.6382711330e-01	 2.5014633221e+00
 1.0972496684e+00	 4.8584273698e-01	 2.4469357582e+00
 1.0872876118e+00	 5.0774565395e-01	 2.3698722845e+00
 1.0768507800e+00	 5.2952091331e-01	 2.2670686685e+00
 1.0659408082e+00	 5.5115351167e-01	 2.1352169978e+00
 1.0545599501e+00	 5.7262842374e-01	 1.9709264239e+00
 1.0427110829e+00	 5.9393063363e-01	 1.7707456012e+00
 1.0303977110e+00	 6.1504516669e-01	 1.5311866715e+00
 1.0176239675e+00	 6.3595712182e-01	 1.4111643361e+00
 1.0043946135e+00	 6.5665170407e-01	 1.3941312156e+00
 1.1215571381e+00	 4.4401424343e-01	 2.5117216538e+00
 1.1125001752e+00	 4.6624287952e-01	 2.4658409133e+00
 1.1029645105e+00	 4.8837316791e-01	 2.4015144959e+00
 1.0929505681e+00	 5.1039016256e-01	 2.3156226272e+00
 1.0824593778e+00	 5.3227883473e-01	 2.2049172139e+00
 1.0714925832e+00	 5.5402410288e-01	 2.0660409650e+00
 1.0600524498e+00	 5.7561086345e-01	 1.8955483805e+00
 1.0481418698e+00	 5.9702402235e-01	 1.6899284799e+00
 1.0357643658e+00	 6.1824852693e-01	 1.4456291200e+00
 1.0229240923e+00	 6.3926939850e-01	 1.3654884614e+00
 1.0096258354e+00	 6.6007176503e-01	 1.3393311690e+00
 1.1273683150e+00	 4.4631483537e-01	 2.4911984263e+00
 1.1182644248e+00	 4.6865864574e-01	 2.4346432438e+00
 1.1086793525e+00	 4.9090359883e-01	 2.3606522240e+00
 1.0986135245e+00	 5.1303467118e-01	 2.2660666606e+00
 1.0880679756e+00	 5.3503675616e-01	 2.1475937710e+00
 1.0770443583e+00	 5.5689469409e-01	 2.0018260206e+00
 1.0655449495e+00	 5.7859330316e-01	 1.8252623605e+00
 1.0535726567e+00	 6.0011741107e-01	 1.6143312501e+00
 1.0411310205e+00	 6.2145188718e-01	 1.3654153120e+00
 1.0282242171e+00	 6.4258167517e-01	 1.3228533804e+00
 1.0148570573e+00	 6.6349182599e-01	 1.2874900346e+00
 1.1331794919e+00	 4.4861542730e-01	 2.4749220476e+00
 1.1240286744e+00	 4.7107441195e-01	 2.4078260499e+00
 1.1143941945e+00	 4.9343402975e-01	 2.3243054284e+00
 1.1042764808e+00	 5.1567917980e-01	 2.2211617542e+00
 1.0936765734e+00	 5.3779467758e-01	 2.0950567242e+00
 1.0825961333e+00	 5.5976528530e-01	 1.9425316916e+00
 1.0710374493e+00	 5.8157574287e-01	 1.7600291569e+00
 1.0590034436e+00	 6.0321079979e-01	 1.5439160890e+00
 1.0464976753e+00	 6.2465524742e-01	 1.2905089230e+00
 1.0335243420e+00	 6.4589395185e-01	 1.2831950135e+00
 1.0200882793e+00	 6.6691188695e-01	 1.2385435815e+00
 1.1389906688e+00	 4.5091601924e-01	 2.4628486206e+00
 1.1297929240e+00	 4.7349017817e-01	 2.3853460516e+00
 1.1201090365e+00	 4.9596446068e-01	 2.2924315818e+00
 1.1099394371e+00	 5.1832368841e-01	 2.1808662663e+00
 1.0992851712e+00	 5.4055259901e-01	 2.0472654465e+00
 1.0881479083e+00	 5.6263587650e-01	 1.8881184915e+00
 1.0765299490e+00	 5.8455818258e-01	 1.6998105451e+00
 1.0644342305e+00	 6.0630418850e-01	 1.4786461511e+00
 1.0518643300e+00	 6.2785860767e-01	 1.2590090840e+00
 1.0388244668e+00	 6.4920622853e-01	 1.2464502409e+00
 1.0253195012e+00	 6.7033194791e-01	 1.1924285278e+00
 1.1448018457e+00	 4.5321661117e-01	 2.4549352020e+00
 1.1355571736e+00	 4.7590594438e-01	 2.3671609282e+00
 1.1258238786e+00	 4.9849489160e-01	 2.2649891193e+00
 1.1156023934e+00	 5.2096819703e-01	 2.1451395186e+00
 1.1048937690e+00	 5.4331052043e-01	 2.0041802745e+00
 1.0936996834e+00	 5.6550646771e-01	 1.8385478952e+00
 1.0820224488e+00	 5.8754062229e-01	 1.6445692583e+00
 1.0698650174e+00	 6.0939757722e-01	 1.4184855429e+00
 1.0572309848e+00	 6.3106196791e-01	 1.2351605826e+00
 1.0441245916e+00	 6.5251850521e-01	 1.2125568791e+00
 1.0305507232e+00	 6.7375200887e-01	 1.1490825168e+00
 1.1506130225e+00	 4.5551720310e-01	 2.4511397789e+00
 1.1413214232e+00	 4.7832171060e-01	 2.3532292934e+00
 1.1315387206e+00	 5.0102532252e-01	 2.2419374138e+00
 1.1212653497e+00	 5.2361270564e-01	 2.1139417724e+00
 1.1105023669e+00	 5.4606844186e-01	 1.9657624833e+00
 1.0992514584e+00	 5.6837705892e-01	 1.7937823147e+00
 1.0875149485e+00	 5.9052306200e-01	 1.5942689633e+00
 1.0752958042e+00	 6.1249096594e-01	 1.3633992992e+00
 1.0625976395e+00	 6.3426532815e-01	 1.2141800548e+00
 1.0494247165e+00	 6.5583078188e-01	 1.1814536566e+00
 1.0357819451e+00	 6.7717206982e-01	 1.1084440935e+00
 1.1564241994e+00	 4.5781779503e-01	 2.4514212445e+00
 1.1470856729e+00	 4.8073747681e-01	 2.3435106724e+00
 1.1372535626e+00	 5.0355575344e-01	 2.2232367522e+00
 1.1269283060e+00	 5.2625721426e-01	 2.0872342044e+00
 1.1161109647e+00	 5.4882636328e-01	 1.9319742641e+00
 1.1048032335e+00	 5.7124765013e-01	 1.7537850756e+00
 1.0930074483e+00	 5.9350550170e-01	 1.5488742366e+00
 1.0807265911e+00	 6.1558435466e-01	 1.3133533592e+00
 1.0679642943e+00	 6.3746868840e-01	 1.1960074132e+00
 1.0547248413e+00	 6.5914305856e-01	 1.1530801911e+00
 1.0410131671e+00	 6.8059213078e-01	 1.0704526820e+00
 1.1622353763e+00	 4.6011838697e-01	 2.4557393765e+00
 1.1528499225e+00	 4.8315324302e-01	 2.3379654787e+00
 1.1429684046e+00	 5.0608618436e-01	 2.2088483133e+00
 1.1325912623e+00	 5.2890172287e-01	 2.0649788842e+00
 1.1217195625e+00	 5.5158428471e-01	 1.9027787002e+00
 1.1103550085e+00	 5.7411824134e-01	 1.7185203943e+00
 1.0984999480e+00	 5.9648794141e-01	 1.5083505423e+00
 1.0861573780e+00	 6.1867774337e-01	 1.2683145449e+00
 1.0733309490e+00	 6.4067204864e-01	 1.1805834460e+00
 1.0600249661e+00	 6.6245533523e-01	 1.1273769676e+00
 1.0462443890e+00	 6.8401219174e-01	 1.0350485634e+00
 9.9393216956e-01	 6.4981158215e-01	 1.5128698652e+00
 9.8039508766e-01	 6.7006098386e-01	 1.4738290086e+00
 9.6641841781e-01	 6.9006644008e-01	 1.4112455784e+00
 9.5200871408e-01	 7.0981381949e-01	 1.3272130628e+00
 9.3717313044e-01	 7.2928922494e-01	 1.2238883363e+00
 9.2191941025e-01	 7.4847902512e-01	 1.1034769472e+00
 9.0625587380e-01	 7.6736988555e-01	 9.6821818640e-01
 8.9019140386e-01	 7.8594879893e-01	 8.2037008147e-01
 8.7373542939e-01	 8.0420311457e-01	 6.6219445704e-01
 8.5689790732e-01	 8.2212056687e-01	 4.9594220300e-01
 8.3968930267e-01	 8.3968930267e-01	 3.2383888863e-01
 9.9916339151e-01	 6.5323164311e-01	 1.4519553794e+00
 9.8555506181e-01	 6.7358762062e-01	 1.4047807423e+00
 9.7150483053e-01	 6.9369836872e-01	 1.3357067546e+00
 9.5701928626e-01	 7.1354968170e-01	 1.2468261106e+00
 9.4210562060e-01	 7.3312758928e-01	 1.1402884309e+00
 9.2677161767e-01	 7.5241838841e-01	 1.0182854204e+00
 9.1102564155e-01	 7.7140867443e-01	 8.8303584675e-01
 8.9487662177e-01	 7.9008537156e-01	 7.3677048029e-01
 8.7833403691e-01	 8.0843576255e-01	 5.8171714152e-01
 8.6140789631e-01	 8.2644751723e-01	 4.2008599657e-01
 8.4410872006e-01	 8.4410872006e-01	 2.5405524037e-01
 1.0043946135e+00	 6.5665170407e-01	 1.3941312156e+00
 9.9071503595e-01	 6.7711425738e-01	 1.3386038571e+00
 9.7659124326e-01	 6.9733029735e-01	 1.2628056397e+00
 9.6202985844e-01	 7.1728554390e-01	 1.1688291631e+00
 9.4703811076e-01	 7.3696595362e-01	 1.0588175261e+00
 9.3162382510e-01	 7.5635775170e-01	 9.3494935327e-01
 9.1579540931e-01	 7.7544746330e-01	 7.9942367719e-01
 8.9956183969e-01	 7.9422194419e-01	 6.5444482230e-01
 8.8293264443e-01	 8.1266841052e-01	 5.0220743441e-01
 8.6591788530e-01	 8.3077446758e-01	 3.4488179985e-01
 8.4852813744e-01	 8.4852813744e-01	 1.8459959357e-01
 1.0096258354e+00	 6.6007176503e-01	 1.3393311690e+00
 9.9587501010e-01	 6.8064089414e-01	 1.2752341933e+00
 9.8167765599e-01	 7.0096222598e-01	 1.1924803964e+00
 9.6704043062e-01	 7.2102140611e-01	 1.0931629813e+00
 9.5197060092e-01	 7.4080431796e-01	 9.7941925579e-01
 9.3647603252e-01	 7.6029711499e-01	 8.5341552348e-01
 9.2056517707e-01	 7.7948625217e-01	 7.1733186753e-01
 9.0424705761e-01	 7.9835851681e-01	 5.7334697315e-01
 8.8753125196e-01	 8.1690105849e-01	 4.2362313596e-01
 8.7042787428e-01	 8.3510141793e-01	 2.7029160066e-01
 8.5294755483e-01	 8.5294755483e-01	 1.1543837013e-01
 1.0148570573e+00	 6.6349182599e-01	 1.2874900346e+00
 1.0010349842e+00	 6.8416753089e-01	 1.2146085348e+00
 9.8676406871e-01	 7.0459415462e-01	 1.1246700698e+00
 9.7205100280e-01	 7.2475726832e-01	 1.0197691425e+00
 9.5690309108e-01	 7.4464268231e-01	 9.0203799838e-01
 9.4132823994e-01	 7.6423647828e-01	 7.7363137753e-01
 9.2533494483e-01	 7.8352504104e-01	 6.3671119546e-01
 9.0893227552e-01	 8.0249508944e-01	 4.9343130086e-01
 8.9212985948e-01	 8.2113370646e-01	 3.4592245880e-01
 8.7493786327e-01	 8.3942836828e-01	 1.9627770496e-01
 8.5736697221e-01	 8.5736697221e-01	 4.6538211665e-02
 1.0200882793e+00	 6.6691188695e-01	 1.2385435815e+00
 1.0061949584e+00	 6.8769416765e-01	 1.1566645850e+00
 9.9185048144e-01	 7.0822608325e-01	 1.0593145648e+00
 9.7706157498e-01	 7.2849313053e-01	 9.4859001912e-01
 9.6183558124e-01	 7.4848104665e-01	 8.2661885825e-01
 9.4618044736e-01	 7.6817584157e-01	 6.9554501351e-01
 9.3010471258e-01	 7.8756382991e-01	 5.5751301140e-01
 9.1361749343e-01	 8.0663166206e-01	 4.1465266284e-01
 8.9672846700e-01	 8.2536635443e-01	 2.6906401733e-01
 8.7944785225e-01	 8.4375531863e-01	 1.2280272863e-01
 8.6178638959e-01	 8.6178638959e-01	-2.2134026076e-02
 1.0253195012e+00	 6.7033194791e-01	 1.1924285278e+00
 1.0113549325e+00	 6.9122080441e-01	 1.1013409435e+00
 9.9693689416e-01	 7.1185801188e-01	 9.9635462415e-01
 9.8207214716e-01	 7.3222899273e-01	 8.7956875855e-01
 9.6676807140e-01	 7.5231941099e-01	 7.5310764703e-01
 9.5103265478e-01	 7.7211520485e-01	 6.1910516446e-01
 9.3487448034e-01	 7.9160261878e-01	 4.7968922392e-01
 9.1830271135e-01	 8.1076823469e-01	 3.3696639352e-01
 9.0132707452e-01	 8.2959900240e-01	 1.9300681750e-01
 8.8395784124e-01	 8.4808226898e-01	 4.9829589606e-02
 8.6620580697e-01	 8.6620580697e-01	-9.0611278695e-02
 1.0305507232e+00	 6.7375200887e-01	 1.1490825168e+00
 1.0165149067e+00	 6.9474744116e-01	 1.0485770829e+00
 1.0020233069e+00	 7.1548994051e-01	 9.3573180736e-01
 9.8708271934e-01	 7.3596485494e-01	 8.1264926354e-01
 9.7170056156e-01	 7.5615777532e-01	 6.8145086569e-01
 9.5588486220e-01	 7.7605456814e-01	 5.4426118229e-01
 9.3964424809e-01	 7.9564140765e-01	 4.0319228560e-01
 9.2298792926e-01	 8.1490480731e-01	 2.6032829213e-01
 9.0592568204e-01	 8.3383165036e-01	 1.1771024684e-01
 8.8846783022e-01	 8.5240921933e-01	-2.2678499791e-02
 8.7062522435e-01	 8.7062522435e-01	-1.5892627844e-01
 1.0357819451e+00	 6.7717206982e-01	 1.1084440935e+00
 1.0216748808e+00	 6.9827407792e-01	 9.9831332697e-01
 1.0071097196e+00	 7.1912186914e-01	 8.7738846988e-01
 9.9209329151e-01	 7.3970071714e-01	 7.4777617303e-01
 9.7663305172e-01	 7.5999613966e-01	 6.1159568711e-01
 9.6073706962e-01	 7.7999393143e-01	 4.7096302213e-01
 9.4441401584e-01	 7.9968019651e-01	 3.2797517925e-01
 9.2767314717e-01	 8.1904137993e-01	 1.8469461103e-01
 9.1052428956e-01	 8.3806429833e-01	 4.3134064867e-02
 8.9297781920e-01	 8.5673616968e-01	-9.4758040305e-02
 8.7504464172e-01	 8.7504464172e-01	-2.2711155934e-01
 1.0410131671e+00	 6.8059213078e-01	 1.0704526820e+00
 1.0268348550e+00	 7.0180071467e-01	 9.5049082956e-01
 1.0121961323e+00	 7.2275379777e-01	 8.2126774317e-01
 9.9710386369e-01	 7.4343657935e-01	 6.8489484370e-01
 9.8156554187e-01	 7.6383450400e-01	 5.4348993923e-01
 9.6558927704e-01	 7.8393329471e-01	 3.9916122720e-01
 9.4918378359e-01	 8.0371898538e-01	 2.5399140461e-01
 9.3235836508e-01	 8.2317795255e-01	 1.1002204433e-01
 9.1512289708e-01	 8.4229694630e-01	-3.0761606312e-02
 8.9748780818e-01	 8.6106312002e-01	-1.6644525294e-01
 8.7946405910e-01	 8.7946405910e-01	-2.9519946217e-01
 1.0462443890e+00	 6.8401219174e-01	 1.0350485634e+00
 1.0319948291e+00	 7.0532735143e-01	 9.0505155340e-01
 1.0172825451e+00	 7.2638572640e-01	 7.6731351531e-01
 1.0021144359e+00	 7.4717244155e-01	 6.2395133199e-01
 9.8649803203e-01	 7.6767286834e-01	 4.7708208864e-01
 9.7044148446e-01	 7.8787265800e-01	 3.2880691405e-01
 9.5395355135e-01	 8.0775777424e-01	 1.8119496543e-01
 9.3704358299e-01	 8.2731452517e-01	 3.6267716805e-02
 9.1972150459e-01	 8.4652959426e-01	-1.0401629102e-01
 9.0199779716e-01	 8.6539007037e-01	-2.3777608596e-01
 8.8388347647e-01	 8.8388347647e-01	-3.6322213932e-01
 8.3968930267e-01	 8.3968930267e-01	 3.2383888863e-01
 8.2212056687e-01	 8.5689790732e-01	 1.5555855399e-01
 8.0420311457e-01	 8.7373542939e-01	-1.3497256562e-02
 7.8594879893e-01	 8.9019140386e-01	-1.8178856878e-01
 7.6736988555e-01	 9.0625587380e-01	-3.4784747511e-01
 7.4847902512e-01	 9.2191941025e-01	-5.1028674777e-01
 7.2928922494e-01	 9.3717313044e-01	-6.6780749036e-01
 7.0981381949e-01	 9.5200871408e-01	-8.1920577081e-01
 6.9006644008e-01	 9.6641841781e-01	-9.6337819183e-01
 6.7006098386e-01	 9.8039508766e-01	-1.0993263687e+00
 6.4981158215e-01	 9.9393216956e-01	-1.2261602982e+00
 8.4410872006e-01	 8.4410872006e-01	 2.5405524037e-01
 8.2644751723e-01	 8.6140789631e-01	 9.0334512709e-02
 8.0843576255e-01	 8.7833403691e-01	-7.4488344875e-02
 7.9008537156e-01	 8.9487662177e-01	-2.3888458784e-01
 7.7140867443e-01	 9.1102564155e-01	-4.0139732256e-01
 7.5241838841e-01	 9.2677161767e-01	-5.6065012311e-01
 7.3312758928e-01	 9.4210562060e-01	-7.1535467980e-01
 7.1354968170e-01	 9.5701928626e-01	-8.6431742201e-01
 6.9369836872e-01	 9.7150483053e-01	-1.0064450717e+00
 6.7358762062e-01	 9.8555506181e-01	-1.1407490975e+00
 6.5323164311e-01	 9.9916339151e-01	-1.2663490526e+00
 8.4852813744e-01	 8.4852813744e-01	 1.8459959357e-01
 8.3077446758e-01	 8.6591788530e-01	 2.5305627735e-02
 8.1266841052e-01	 8.8293264443e-01	-1.3540635352e-01
 7.9422194419e-01	 8.9956183969e-01	-2.9601840685e-01
 7.7544746330e-01	 9.1579540931e-01	-4.5508427201e-01
 7.5635775170e-01	 9.3162382510e-01	-6.1123799408e-01
 7.3696595362e-01	 9.4703811076e-01	-7.6320157036e-01
 7.1728554390e-01	 9.6202985844e-01	-9.0979156431e-01
 6.9733029735e-01	 9.7659124326e-01	-1.0499246427e+00
 6.7711425738e-01	 9.9071503595e-01	-1.1826220061e+00
 6.5665170407e-01	 1.0043946135e+00	-1.3070126967e+00
 8.5294755483e-01	 8.5294755483e-01	 1.1543837013e-01
 8.3510141793e-01	 8.7042787428e-01	-3.9560094535e-02
 8.1690105849e-01	 8.8753125196e-01	-1.9628173157e-01
 7.9835851681e-01	 9.0424705761e-01	-3.5321897224e-01
 7.7948625217e-01	 9.2056517707e-01	-5.0893581093e-01
 7.6029711499e-01	 9.3647603252e-01	-6.6207643476e-01
 7.4080431796e-01	 9.5197060092e-01	-8.1137287014e-01
 7.2102140611e-01	 9.6704043062e-01	-9.5565158895e-01
 7.0096222598e-01	 9.8167765599e-01	-1.0938390300e+00
 6.8064089414e-01	 9.9587501010e-01	-1.2249660066e+00
 6.6007176503e-01	 1.0096258354e+00	-1.3481709836e+00
 8.5736697221e-01	 8.5736697221e-01	 4.6538211665e-02
 8.3942836828e-01	 8.7493786327e-01	-1.0429446655e-01
 8.2113370646e-01	 8.9212985948e-01	-2.5714478369e-01
 8.0249508944e-01	 9.0893227552e-01	-4.1051512077e-01
 7.8352504104e-01	 9.2533494483e-01	-5.6297934993e-01
 7.6423647828e-01	 9.4132823994e-01	-7.1319147307e-01
 7.4464268231e-01	 9.5690309108e-01	-8.5989326965e-01
 7.2475726832e-01	 9.7205100280e-01	-1.0019208960e+00
 7.0459415462e-01	 9.8676406871e-01	-1.1382103921e+00
 6.8416753089e-01	 1.0010349842e+00	-1.2678020661e+00
 6.6349182599e-01	 1.0148570573e+00	-1.3898437410e+00
 8.6178638959e-01	 8.6178638959e-01	-2.2134026076e-02
 8.4375531863e-01	 8.7944785225e-01	-1.6892912425e-01
 8.2536635443e-01	 8.9672846700e-01	-3.1802567378e-01
 8.0663166206e-01	 9.1361749343e-01	-4.6793558236e-01
 7.8756382991e-01	 9.3010471258e-01	-6.1724222469e-01
 7.6817584157e-01	 9.4618044736e-01	-7.6460909194e-01
 7.4848104665e-01	 9.6183558124e-01	-9.0878744225e-01
 7.2849313053e-01	 9.7706157498e-01	-1.0486228942e+00
 7.0822608325e-01	 9.9185048144e-01	-1.1830609196e+00
 6.8769416765e-01	 1.0061949584e+00	-1.3111512053e+00
 6.6691188695e-01	 1.0200882793e+00	-1.4320508698e+00
 8.6620580697e-01	 8.6620580697e-01	-9.0611278695e-02
 8.4808226898e-01	 8.8395784124e-01	-2.3349553157e-01
 8.2959900240e-01	 9.0132707452e-01	-3.7895442861e-01
 8.1076823469e-01	 9.1830271135e-01	-5.2550898279e-01
 7.9160261878e-01	 9.3487448034e-01	-6.7175169787e-01
 7.7211520485e-01	 9.5103265478e-01	-8.1635523047e-01
 7.5231941099e-01	 9.6676807140e-01	-9.5808004462e-01
 7.3222899273e-01	 9.8207214716e-01	-1.0957810007e+00
 7.1185801188e-01	 9.9693689416e-01	-1.2284128345e+00
 6.9122080441e-01	 1.0113549325e+00	-1.3550344972e+00
 6.7033194791e-01	 1.0253195012e+00	-1.4748123415e+00
 8.7062522435e-01	 8.7062522435e-01	-1.5892627844e-01
 8.5240921933e-01	 8.8846783022e-01	-2.9802498479e-01
 8.3383165036e-01	 9.0592568204e-01	-4.3996094130e-01
 8.1490480731e-01	 9.2298792926e-01	-5.8326384641e-01
 7.9564140765e-01	 9.3964424809e-01	-7.2653496102e-01
 7.7605456814e-01	 9.5588486220e-01	-8.6845578499e-01
 7.5615777532e-01	 9.7170056156e-01	-1.0077957172e+00
 7.3596485494e-01	 9.8708271934e-01	-1.1434186407e+00
 7.1548994051e-01	 1.0020233069e+00	-1.2742883893e+00
 6.9474744116e-01	 1.0165149067e+00	-1.3994730658e+00
 6.7375200887e-01	 1.0305507232e+00	-1.5181481970e+00
 8.7504464172e-01	 8.7504464172e-01	-2.2711155934e-01
 8.5673616968e-01	 8.9297781920e-01	-3.6254861680e-01
 8.3806429833e-01	 9.1052428956e-01	-5.0107497467e-01
 8.1904137993e-01	 9.2767314717e-01	-6.4122859859e-01
 7.9968019651e-01	 9.4441401584e-01	-7.8161913630e-01
 7.7999393143e-01	 9.6073706962e-01	-9.2093661021e-01
 7.5999613966e-01	 9.7663305172e-01	-1.0579590844e+00
 7.3970071714e-01	 9.9209329151e-01	-1.1915592474e+00
 7.1912186914e-01	 1.0071097196e+00	-1.3207098665e+00
 6.9827407792e-01	 1.0216748808e+00	-1.4444880845e+00
 6.7717206982e-01	 1.0357819451e+00	-1.5620785445e+00
 8.7946405910e-01	 8.7946405910e-01	-2.9519946217e-01
 8.6106312002e-01	 8.9748780818e-01	-4.2709740117e-01
 8.4229694630e-01	 9.1512289708e-01	-5.6232616452e-01
 8.2317795255e-01	 9.3235836508e-01	-6.9943156834e-01
 8.0371898538e-01	 9.4918378359e-01	-8.3703127829e-01
 7.8393329471e-01	 9.6558927704e-01	-9.7382352022e-01
 7.6383450400e-01	 9.8156554187e-01	-1.1085947554e+00
 7.4343657935e-01	 9.9710386369e-01	-1.2402262620e+00
 7.2275379777e-01	 1.0121961323e+00	-1.3676995776e+00
 7.0180071467e-01	 1.0268348550e+00	-1.4901007754e+00
 6.8059213078e-01	 1.0410131671e+00	-1.6066235580e+00
 8.8388347647e-01	 8.8388347647e-01	-3.6322213932e-01
 8.6539007037e-01	 9.0199779716e-01	-4.9170215615e-01
 8.4652959426e-01	 9.1972150459e-01	-6.2374402284e-01
 8.2731452517e-01	 9.3704358299e-01	-7.5790099058e-01
 8.0775777424e-01	 9.5395355135e-01	-8.9279837563e-01
 7.8787265800e-01	 9.7044148446e-01	-1.0271422895e+00
 7.6767286834e-01	 9.8649803203e-01	-1.1597273243e+00
 7.4717244155e-01	 1.0021144359e+00	-1.2894431330e+00
 7.2638572640e-01	 1.0172825451e+00	-1.4152798625e+00
 7.0532735143e-01	 1.0319948291e+00	-1.5363324077e+00
 6.8401219174e-01	 1.0462443890e+00	-1.6518034757e+00
 6.4981158215e-01	 9.9393216956e-01	-1.2261602982e+00
 6.2933256846e-01	 1.0070237178e+00	-1.1361476995e+00
 6.0863844620e-01	 1.0196644015e+00	-1.3007948883e+00
 5.8774385619e-01	 1.0318495091e+00	-1.5110437406e+00
 5.6666354432e-01	 1.0435749506e+00	-1.6943493863e+00
 5.4541232925e-01	 1.0548372581e+00	-1.8530065961e+00
 5.2400507046e-01	 1.0656335844e+00	-1.9893256689e+00
 5.0245663671e-01	 1.0759616992e+00	-2.1056131994e+00
 4.8078187514e-01	 1.0858199844e+00	-2.2041535675e+00
 4.5899558087e-01	 1.0952074263e+00	-2.2871913054e+00
 4.3711246762e-01	 1.1041236075e+00	-2.3569144788e+00
 6.5323164311e-01	 9.9916339151e-01	-1.2663490526e+00
 6.3264484514e-01	 1.0123238426e+00	-1.1754214315e+00
 6.1184180644e-01	 1.0250310563e+00	-1.2825034081e+00
 5.9083724491e-01	 1.0372802960e+00	-1.4910962084e+00
 5.6964598403e-01	 1.0490674503e+00	-1.6727040764e+00
 5.4828292046e-01	 1.0603890331e+00	-1.8297393690e+00
 5.2676299188e-01	 1.0712421822e+00	-1.9646278214e+00
 5.0510114533e-01	 1.0816246555e+00	-2.0797887280e+00
 4.8331230606e-01	 1.0915348264e+00	-2.1776158764e+00
 4.6141134709e-01	 1.1009716760e+00	-2.2604593928e+00
 4.3941305956e-01	 1.1099347844e+00	-2.3306086410e+00
 6.5665170407e-01	 1.0043946135e+00	-1.3070126967e+00
 6.3595712182e-01	 1.0176239675e+00	-1.2154042775e+00
 6.1504516669e-01	 1.0303977110e+00	-1.2660489481e+00
 5.9393063363e-01	 1.0427110829e+00	-1.4731401264e+00
 5.7262842374e-01	 1.0545599501e+00	-1.6532018436e+00
 5.5115351167e-01	 1.0659408082e+00	-1.8087643097e+00
 5.2952091331e-01	 1.0768507800e+00	-1.9423689641e+00
 5.0774565395e-01	 1.0872876118e+00	-2.0565480671e+00
 4.8584273698e-01	 1.0972496684e+00	-2.1538050754e+00
 4.6382711330e-01	 1.1067359256e+00	-2.2365959638e+00
 4.4171365150e-01	 1.1157459613e+00	-2.3073116386e+00
 6.6007176503e-01	 1.0096258354e+00	-1.3481709836e+00
 6.3926939850e-01	 1.0229240923e+00	-1.2561114321e+00
 6.1824852693e-01	 1.0357643658e+00	-1.2514424994e+00
 5.9702402235e-01	 1.0481418698e+00	-1.4571811060e+00
 5.7561086345e-01	 1.0600524498e+00	-1.6358429216e+00
 5.5402410288e-01	 1.0714925832e+00	-1.7900762890e+00
 5.3227883473e-01	 1.0824593778e+00	-1.9225386327e+00
 5.1039016256e-01	 1.0929505681e+00	-2.0358754570e+00
 4.8837316791e-01	 1.1029645105e+00	-2.1327001611e+00
 4.6624287952e-01	 1.1125001752e+00	-2.2155748346e+00
 4.4401424343e-01	 1.1215571381e+00	-2.2869921822e+00
 6.6349182599e-01	 1.0148570573e+00	-1.3898437410e+00
 6.4258167517e-01	 1.0282242171e+00	-1.2975582531e+00
 6.2145188718e-01	 1.0411310205e+00	-1.2386953054e+00
 6.0011741107e-01	 1.0535726567e+00	-1.4432250988e+00
 5.7859330316e-01	 1.0655449495e+00	-1.6206279722e+00
 5.5689469409e-01	 1.0770443583e+00	-1.7736706938e+00
 5.3503675616e-01	 1.0880679756e+00	-1.9051269655e+00
 5.1303467118e-01	 1.0986135245e+00	-2.0177558267e+00
 4.9090359883e-01	 1.1086793525e+00	-2.1142809042e+00
 4.6865864574e-01	 1.1182644248e+00	-2.1973706795e+00
 4.4631483537e-01	 1.1273683150e+00	-2.2696199224e+00
 6.6691188695e-01	 1.0200882793e+00	-1.4320508698e+00
 6.4589395185e-01	 1.0335243420e+00	-1.3397602578e+00
 6.2465524742e-01	 1.0464976753e+00	-1.2278188550e+00
 6.0321079979e-01	 1.0590034436e+00	-1.4312783882e+00
 5.8157574287e-01	 1.0710374493e+00	-1.6075580751e+00
 5.5976528530e-01	 1.0825961333e+00	-1.7595434136e+00
 5.3779467758e-01	 1.0936765734e+00	-1.8901246887e+00
 5.1567917980e-01	 1.1042764808e+00	-2.0021747767e+00
 4.9343402975e-01	 1.1143941945e+00	-2.0985278293e+00
 4.7107441195e-01	 1.1240286744e+00	-2.1819590083e+00
 4.4861542730e-01	 1.1331794919e+00	-2.2551654267e+00
 6.7033194791e-01	 1.0253195012e+00	-1.4748123415e+00
 6.4920622853e-01	 1.0388244668e+00	-1.3827331185e+00
 6.2785860767e-01	 1.0518643300e+00	-1.2650645770e+00
 6.0630418850e-01	 1.0644342305e+00	-1.4213475810e+00
 5.8455818258e-01	 1.0765299490e+00	-1.5966347167e+00
 5.6263587650e-01	 1.0881479083e+00	-1.7476908283e+00
 5.4055259901e-01	 1.0992851712e+00	-1.8775231006e+00
 5.1832368841e-01	 1.1099394371e+00	-1.9891185616e+00
 4.9596446068e-01	 1.1201090365e+00	-2.0854221959e+00
 4.7349017817e-01	 1.1297929240e+00	-2.1693161456e+00
 4.5091601924e-01	 1.1389906688e+00	-2.2436001551e+00
 6.7375200887e-01	 1.0305507232e+00	-1.5181481970e+00
 6.5251850521e-01	 1.0441245916e+00	-1.4264926586e+00
 6.3106196791e-01	 1.0572309848e+00	-1.3089284264e+00
 6.0939757722e-01	 1.0698650174e+00	-1.4134395990e+00
 5.8754062229e-01	 1.0820224488e+00	-1.5878597800e+00
 5.6550646771e-01	 1.0936996834e+00	-1.7381097949e+00
 5.4331052043e-01	 1.1048937690e+00	-1.8673140576e+00
 5.2096819703e-01	 1.1156023934e+00	-1.9785740734e+00
 4.9849489160e-01	 1.1258238786e+00	-2.0749459798e+00
 4.7590594438e-01	 1.1355571736e+00	-2.1594192097e+00
 4.5321661117e-01	 1.1448018457e+00	-2.2348964383e+00
 6.7717206982e-01	 1.0357819451e+00	-1.5620785445e+00
 6.5583078188e-01	 1.0494247165e+00	-1.4710548492e+00
 6.3426532815e-01	 1.0625976395e+00	-1.3537971131e+00
 6.1249096594e-01	 1.0752958042e+00	-1.4075616711e+00
 5.9052306200e-01	 1.0875149485e+00	-1.5812355346e+00
 5.6837705892e-01	 1.0992514584e+00	-1.7307976363e+00
 5.4606844186e-01	 1.1105023669e+00	-1.8594899600e+00
 5.2361270564e-01	 1.1212653497e+00	-1.9705288257e+00
 5.0102532252e-01	 1.1315387206e+00	-2.0670818548e+00
 4.7832171060e-01	 1.1413214232e+00	-2.1522460928e+00
 4.5551720310e-01	 1.1506130225e+00	-2.2290274552e+00
 6.8059213078e-01	 1.0410131671e+00	-1.6066235580e+00
 6.5914305856e-01	 1.0547248413e+00	-1.5164358048e+00
 6.3746868840e-01	 1.0679642943e+00	-1.3996826391e+00
 6.1558435466e-01	 1.0807265911e+00	-1.4037213256e+00
 5.9350550170e-01	 1.0930074483e+00	-1.5767646269e+00
 5.7124765013e-01	 1.1048032335e+00	-1.7257521290e+00
 5.4882636328e-01	 1.1161109647e+00	-1.8540437381e+00
 5.2625721426e-01	 1.1269283060e+00	-1.9649709379e+00
 5.0355575344e-01	 1.1372535626e+00	-2.0618131754e+00
 4.8073747681e-01	 1.1470856729e+00	-2.1477754413e+00
 4.5781779503e-01	 1.1564241994e+00	-2.2259672115e+00
 6.8401219174e-01	 1.0462443890e+00	-1.6518034757e+00
 6.6245533523e-01	 1.0600249661e+00	-1.5626517803e+00
 6.4067204864e-01	 1.0733309490e+00	-1.4465972230e+00
 6.1867774337e-01	 1.0861573780e+00	-1.4019263828e+00
 5.9648794141e-01	 1.0984999480e+00	-1.5744500706e+00
 5.7411824134e-01	 1.1103550085e+00	-1.7229714920e+00
 5.5158428471e-01	 1.1217195625e+00	-1.8509688393e+00
 5.2890172287e-01	 1.1325912623e+00	-1.9618891199e+00
 5.0608618436e-01	 1.1429684046e+00	-2.0591239597e+00
 4.8315324302e-01	 1.1528499225e+00	-2.1459866374e+00
 4.6011838697e-01	 1.1622353763e+00	-2.2256905197e+00
 4.3711246762e-01	 1.1041236075e+00	-2.3569144788e+00
 4.1514713906e-01	 1.1125686958e+00	-2.4930269710e+00
 3.9311406124e-01	 1.1205434328e+00	-2.6137204597e+00
 3.7102753608e-01	 1.1280491202e+00	-2.7196446076e+00
 3.4890167607e-01	 1.1350876047e+00	-2.8114101238e+00
 3.2675038016e-01	 1.1416612628e+00	-2.8895811483e+00
 3.0458731103e-01	 1.1477729828e+00	-2.9546686501e+00
 2.8242587360e-01	 1.1534261467e+00	-3.0071248582e+00
 2.6027919507e-01	 1.1586246116e+00	-3.0473387307e+00
 2.3816010632e-01	 1.1633726891e+00	-3.0756324544e+00
 2.1608112477e-01	 1.1676751250e+00	-3.0922589557e+00
 4.3941305956e-01	 1.1099347844e+00	-2.3306086410e+00
 4.1733212401e-01	 1.1184243205e+00	-2.4612698762e+00
 3.9518308262e-01	 1.1264410298e+00	-2.5765777716e+00
 3.7298031259e-01	 1.1339862208e+00	-2.6772691689e+00
 3.5073800068e-01	 1.1410617500e+00	-2.7640390461e+00
 3.2847011901e-01	 1.1476700063e+00	-2.8375325417e+00
 3.0619040214e-01	 1.1538138932e+00	-2.8983380288e+00
 2.8391232557e-01	 1.1594968106e+00	-2.9469812588e+00
 2.6164908557e-01	 1.1647226359e+00	-2.9839205808e+00
 2.3941358057e-01	 1.1694957033e+00	-3.0095432293e+00
 2.1721839385e-01	 1.1738207835e+00	-3.0241626595e+00
 4.4171365150e-01	 1.1157459613e+00	-2.3073116386e+00
 4.1951710895e-01	 1.1242799452e+00	-2.4326260432e+00
 3.9725210399e-01	 1.1323386269e+00	-2.5426600871e+00
 3.7493308909e-01	 1.1399233214e+00	-2.6382379355e+00
 3.5257432529e-01	 1.1470358953e+00	-2.7201389437e+00
 3.3018985785e-01	 1.1536787498e+00	-2.7890893213e+00
 3.0779349325e-01	 1.1598548036e+00	-2.8457548811e+00
 2.8539877753e-01	 1.1655674746e+00	-2.8907348962e+00
 2.6301897608e-01	 1.1708206601e+00	-2.9245570694e+00
 2.4066705481e-01	 1.1756187174e+00	-2.9476736090e+00
 2.1835566292e-01	 1.1799664421e+00	-2.9604583903e+00
 4.4401424343e-01	 1.1215571381e+00	-2.2869921822e+00
 4.2170209389e-01	 1.1301355700e+00	-2.4070597045e+00
 3.9932112537e-01	 1.1382362239e+00	-2.5119271304e+00
 3.7688586560e-01	 1.1458604220e+00	-2.6025061030e+00
 3.5441064990e-01	 1.1530100406e+00	-2.6796604745e+00
 3.3190959669e-01	 1.1596874933e+00	-2.7441976078e+00
 3.0939658436e-01	 1.1658957141e+00	-2.7968608013e+00
 2.8688522950e-01	 1.1716381385e+00	-2.8383228581e+00
 2.6438886658e-01	 1.1769186844e+00	-2.8691808064e+00
 2.4192052905e-01	 1.1817417316e+00	-2.8899517637e+00
 2.1949293200e-01	 1.1861121006e+00	-2.9010699246e+00
 4.4631483537e-01	 1.1273683150e+00	-2.2696199224e+00
 4.2388707884e-01	 1.1359911947e+00	-2.3845361031e+00
 4.0139014674e-01	 1.1441338209e+00	-2.4843397069e+00
 3.7883864210e-01	 1.1517975227e+00	-2.5700300209e+00
 3.5624697451e-01	 1.1589841859e+00	-2.6425555229e+00
 3.3362933553e-01	 1.1656962368e+00	-2.7028048220e+00
 3.1099967547e-01	 1.1719366245e+00	-2.7515987574e+00
 2.8837168146e-01	 1.1777088024e+00	-2.7896836803e+00
 2.6575875707e-01	 1.1830167087e+00	-2.8177259248e+00
 2.4317400330e-01	 1.1878647457e+00	-2.8363074612e+00
 2.2063020108e-01	 1.1922577592e+00	-2.8459227112e+00
 4.4861542730e-01	 1.1331794919e+00	-2.2551654267e+00
 4.2607206378e-01	 1.1418468194e+00	-2.3650214665e+00
 4.0345916811e-01	 1.1500314179e+00	-2.4598596763e+00
 3.8079141860e-01	 1.1577346233e+00	-2.5407671625e+00
 3.5808329912e-01	 1.1649583312e+00	-2.6087771684e+00
 3.3534907437e-01	 1.1717049803e+00	-2.6648596513e+00
 3.1260276658e-01	 1.1779775349e+00	-2.7099130564e+00
 2.8985813343e-01	 1.1837794664e+00	-2.7447573099e+00
 2.6712864757e-01	 1.1891147330e+00	-2.7701280413e+00
 2.4442747754e-01	 1.1939877599e+00	-2.7866720261e+00
 2.2176747015e-01	 1.1984034177e+00	-2.7949438287e+00
 4.5091601924e-01	 1.1389906688e+00	-2.2436001551e+00
 4.2825704872e-01	 1.1477024441e+00	-2.3484829819e+00
 4.0552818949e-01	 1.1559290149e+00	-2.4384499251e+00
 3.8274419511e-01	 1.1636717239e+00	-2.5146760966e+00
 3.5991962373e-01	 1.1709324765e+00	-2.5782796548e+00
 3.3706881321e-01	 1.1777137238e+00	-2.6303120174e+00
 3.1420585769e-01	 1.1840184454e+00	-2.6717493096e+00
 2.9134458539e-01	 1.1898501303e+00	-2.7034850690e+00
 2.6849853807e-01	 1.1952127572e+00	-2.7263242188e+00
 2.4568095178e-01	 1.2001107740e+00	-2.7409783000e+00
 2.2290473923e-01	 1.2045490763e+00	-2.7480619432e+00
 4.5321661117e-01	 1.1448018457e+00	-2.2348964383e+00
 4.3044203366e-01	 1.1535580688e+00	-2.3348887715e+00
 4.0759721086e-01	 1.1618266119e+00	-2.4200743407e+00
 3.8469697161e-01	 1.1696088246e+00	-2.4917164597e+00
 3.6175594833e-01	 1.1769066217e+00	-2.5510183611e+00
 3.3878855205e-01	 1.1837224672e+00	-2.5991130450e+00
 3.1580894879e-01	 1.1900593558e+00	-2.6370544000e+00
 2.9283103735e-01	 1.1959207942e+00	-2.6658096203e+00
 2.6986842856e-01	 1.2013107815e+00	-2.6862529294e+00
 2.4693442602e-01	 1.2062337882e+00	-2.6991606030e+00
 2.2404200830e-01	 1.2106947349e+00	-2.7052072689e+00
 4.5551720310e-01	 1.1506130225e+00	-2.2290274552e+00
 4.3262701860e-01	 1.1594136935e+00	-2.3242078689e+00
 4.0966623223e-01	 1.1677242089e+00	-2.4046977863e+00
 3.8664974811e-01	 1.1755459252e+00	-2.4718489288e+00
 3.6359227294e-01	 1.1828807670e+00	-2.5269497726e+00
 3.4050829089e-01	 1.1897312107e+00	-2.5712150313e+00
 3.1741203990e-01	 1.1961002662e+00	-2.6057764497e+00
 2.9431748931e-01	 1.2019914581e+00	-2.6316749326e+00
 2.7123831906e-01	 1.2074088058e+00	-2.6498540192e+00
 2.4818790026e-01	 1.2123568023e+00	-2.6611546963e+00
 2.2517927738e-01	 1.2168403934e+00	-2.6663115284e+00
 4.5781779503e-01	 1.1564241994e+00	-2.2259672115e+00
 4.3481200354e-01	 1.1652693182e+00	-2.3164101966e+00
 4.1173525360e-01	 1.1736218060e+00	-2.3922860760e+00
 3.8860252461e-01	 1.1814830258e+00	-2.4550351954e+00
 3.6542859754e-01	 1.1888549123e+00	-2.5060314530e+00
 3.4222802973e-01	 1.1957399542e+00	-2.5465714167e+00
 3.1901513100e-01	 1.2021411767e+00	-2.5778647892e+00
 2.9580394127e-01	 1.2080621221e+00	-2.6010262485e+00
 2.7260820955e-01	 1.2135068300e+00	-2.6170686731e+00
 2.4944137449e-01	 1.2184798165e+00	-2.6268977461e+00
 2.2631654645e-01	 1.2229860520e+00	-2.6313079149e+00
 4.6011838697e-01	 1.1622353763e+00	-2.2256905197e+00
 4.3699698848e-01	 1.1711249430e+00	-2.3114665431e+00
 4.1380427497e-01	 1.1795194030e+00	-2.3828059515e+00
 3.9055530111e-01	 1.1874201265e+00	-2.4412379401e+00
 3.6726492215e-01	 1.1948290576e+00	-2.4882220178e+00
 3.4394776856e-01	 1.2017486977e+00	-2.5251367562e+00
 3.2061822211e-01	 1.2081820871e+00	-2.5532699269e+00
 2.9729039323e-01	 1.2141327860e+00	-2.5738100524e+00
 2.7397810005e-01	 1.2196048543e+00	-2.5878393822e+00
 2.5069484873e-01	 1.2246028306e+00	-2.5963282884e+00
 2.2745381552e-01	 1.2291317105e+00	-2.6001310556e+00
 2.1608112477e-01	 1.1676751250e+00	-3.0922589557e+00
 1.9405443872e-01	 1.1715370779e+00	-3.1990522798e+00
 1.7209189323e-01	 1.1749640974e+00	-3.2883123806e+00
 1.5020497736e-01	 1.1779621024e+00	-3.3609451810e+00
 1.2840481299e-01	 1.1805373582e+00	-3.4177765949e+00
 1.0670214501e-01	 1.1826964540e+00	-3.4595514672e+00
 8.5107333025e-02	 1.1844462807e+00	-3.4869334196e+00
 6.3630344370e-02	 1.1857940079e+00	-3.5005055345e+00
 4.2280748552e-02	 1.1867470616e+00	-3.5007718092e+00
 2.1067712982e-02	 1.1873131017e+00	-3.4881593061e+00
 0.0000000000e+00	 1.1875000000e+00	-3.4630209246e+00
 2.1721839385e-01	 1.1738207835e+00	-3.0241626595e+00
 1.9507577788e-01	 1.1777030625e+00	-3.1323018352e+00
 1.7299764004e-01	 1.1811481190e+00	-3.2213427768e+00
 1.5099552988e-01	 1.1841619030e+00	-3.2922078578e+00
 1.2908062780e-01	 1.1867507127e+00	-3.3457437585e+00
 1.0726373525e-01	 1.1889211722e+00	-3.3827201095e+00
 8.5555266359e-02	 1.1906802085e+00	-3.4038290415e+00
 6.3965240922e-02	 1.1920350290e+00	-3.4096855781e+00
 4.2503278809e-02	 1.1929930988e+00	-3.4008288025e+00
 2.1178595682e-02	 1.1935621180e+00	-3.3777237258e+00
 0.0000000000e+00	 1.1937500000e+00	-3.3407637844e+00
 2.1835566292e-01	 1.1799664421e+00	-2.9604583903e+00
 1.9609711703e-01	 1.1838690471e+00	-3.0697161295e+00
 1.7390338685e-01	 1.1873321406e+00	-3.1583441230e+00
 1.5178608239e-01	 1.1903617035e+00	-3.2272811232e+00
 1.2975644260e-01	 1.1929640672e+00	-3.2773944118e+00
 1.0782532549e-01	 1.1951458903e+00	-3.3094781498e+00
 8.6003199692e-02	 1.1969141363e+00	-3.3242526357e+00
 6.4300137472e-02	 1.1982760501e+00	-3.3223644113e+00
 4.2725809065e-02	 1.1992391360e+00	-3.3043871452e+00
 2.1289478383e-02	 1.1998111343e+00	-3.2708232245e+00
 0.0000000000e+00	 1.2000000000e+00	-3.2221059821e+00
 2.1949293200e-01	 1.1861121006e+00	-2.9010699246e+00
 1.9711845618e-01	 1.1900350317e+00	-3.0112209262e+00
 1.7480913366e-01	 1.1935161621e+00	-3.0992438210e+00
 1.5257663491e-01	 1.1965615041e+00	-3.1660936740e+00
 1.3043225741e-01	 1.1991774217e+00	-3.2126582086e+00
 1.0838691573e-01	 1.2013706085e+00	-3.2397558663e+00
 8.6451133025e-02	 1.2031480641e+00	-3.2481347788e+00
 6.4635034022e-02	 1.2045170712e+00	-3.2384725896e+00
 4.2948339321e-02	 1.2054851731e+00	-3.2113770595e+00
 2.1400361083e-02	 1.2060601507e+00	-3.1673873863e+00
 0.0000000000e+00	 1.2062500000e+00	-3.1069761670e+00
 2.2063020108e-01	 1.1922577592e+00	-2.8459227112e+00
 1.9813979533e-01	 1.1962010163e+00	-2.9567436052e+00
 1.7571488046e-01	 1.1997001837e+00	-3.0439708418e+00
 1.5336718742e-01	 1.2027613046e+00	-3.1085757368e+00
 1.3110807221e-01	 1.2053907762e+00	-3.1514663004e+00
 1.0894850596e-01	 1.2075953267e+00	-3.1734850116e+00
 8.6899066357e-02	 1.2093819919e+00	-3.1754075060e+00
 6.4969930572e-02	 1.2107580923e+00	-3.1579421191e+00
 4.3170869577e-02	 1.2117312103e+00	-3.1217302178e+00
 2.1511243783e-02	 1.2123091670e+00	-3.0673472526e+00
 0.0000000000e+00	 1.2125000000e+00	-2.9953044594e+00
 2.2176747015e-01	 1.1984034177e+00	-2.7949438287e+00
 1.9916113448e-01	 1.2023670010e+00	-2.9062131218e+00
 1.7662062727e-01	 1.2058842053e+00	-2.9924556851e+00
 1.5415773993e-01	 1.2089611051e+00	-3.0546590280e+00
 1.3178388702e-01	 1.2116041307e+00	-3.0937512986e+00
 1.0951009620e-01	 1.2138200449e+00	-3.1105987748e+00
 8.7346999688e-02	 1.2156159197e+00	-3.1060042737e+00
 6.5304827121e-02	 1.2169991134e+00	-3.0807064194e+00
 4.3393399833e-02	 1.2179772475e+00	-3.0353797055e+00
 2.1622126483e-02	 1.2185581833e+00	-2.9706352844e+00
 0.0000000000e+00	 1.2187500000e+00	-2.8870224131e+00
 2.2290473923e-01	 1.2045490763e+00	-2.7480619432e+00
 2.0018247363e-01	 1.2085329856e+00	-2.8595599660e+00
 1.7752637407e-01	 1.2120682268e+00	-2.9446303402e+00
 1.5494829244e-01	 1.2151609057e+00	-3.0042767166e+00
 1.3245970182e-01	 1.2178174853e+00	-3.0394472366e+00
 1.1007168644e-01	 1.2200447630e+00	-3.0510317450e+00
 8.7794933019e-02	 1.2218498475e+00	-3.0398599234e+00
 6.5639723670e-02	 1.2232401345e+00	-3.0067002875e+00
 4.3615930088e-02	 1.2242232846e+00	-2.9522599849e+00
 2.1733009183e-02	 1.2248071996e+00	-2.8771853260e+00
 0.0000000000e+00	 1.2250000000e+00	-2.7820629787e+00
 2.2404200830e-01	 1.2106947349e+00	-2.7052072689e+00
 2.0120381278e-01	 1.2146989702e+00	-2.8167161239e+00
 1.7843212088e-01	 1.2182522484e+00	-2.9004282483e+00
 1.5573884495e-01	 1.2213607062e+00	-2.9573633865e+00
 1.3313551663e-01	 1.2240308398e+00	-2.9884895342e+00
 1.1063327667e-01	 1.2262694812e+00	-2.9947198756e+00
 8.8242866349e-02	 1.2280837753e+00	-2.9769106462e+00
 6.5974620218e-02	 1.2294811556e+00	-2.9358598626e+00
 4.3838460342e-02	 1.2304693218e+00	-2.8723068602e+00
 2.1843891882e-02	 1.2310562160e+00	-2.7869325702e+00
 0.0000000000e+00	 1.2312500000e+00	-2.6803604683e+00
 2.2517927738e-01	 1.2168403934e+00	-2.6663115284e+00
 2.0222515192e-01	 1.2208649548e+00	-2.7776150397e+00
 1.7933786768e-01	 1.2244362700e+00	-2.8597842659e+00
 1.5652939746e-01	 1.2275605067e+00	-2.9138550015e+00
 1.3381133143e-01	 1.2302441943e+00	-2.9408149621e+00
 1.1119486691e-01	 1.2324941994e+00	-2.9416004501e+00
 8.8690799679e-02	 1.2343177030e+00	-2.9170939493e+00
 6.6309516766e-02	 1.2357221767e+00	-2.8681225927e+00
 4.4060990597e-02	 1.2367153590e+00	-2.7954574438e+00
 2.1954774582e-02	 1.2373052323e+00	-2.6998135241e+00
 0.0000000000e+00	 1.2375000000e+00	-2.5818505210e+00
 2.2631654645e-01	 1.2229860520e+00	-2.6313079149e+00
 2.0324649107e-01	 1.2270309394e+00	-2.7421915793e+00
 1.8024361448e-01	 1.2306202915e+00	-2.8226346291e+00
 1.5731994997e-01	 1.2337603073e+00	-2.8736888702e+00
 1.3448714623e-01	 1.2364575488e+00	-2.8963616086e+00
 1.1175645714e-01	 1.2387189176e+00	-2.8916120485e+00
 8.9138733008e-02	 1.2405516308e+00	-2.8603486224e+00
 6.6644413313e-02	 1.2419631978e+00	-2.8034272013e+00
 4.4283520851e-02	 1.2429613961e+00	-2.7216501231e+00
 2.2065657281e-02	 1.2435542486e+00	-2.6157659761e+00
 0.0000000000e+00	 1.2437500000e+00	-2.4864700697e+00
 2.2745381552e-01	 1.2291317105e+00	-2.6001310556e+00
 2.0426783021e-01	 1.2331969241e+00	-2.7103819944e+00
 1.8114936128e-01	 1.2368043131e+00	-2.7889169192e+00
 1.5811050247e-01	 1.2399601078e+00	-2.8368036123e+00
 1.3516296103e-01	 1.2426709033e+00	-2.8550688459e+00
 1.1231804737e-01	 1.2449436358e+00	-2.8446945147e+00
 8.9586666336e-02	 1.2467855586e+00	-2.8066147060e+00
 6.6979309859e-02	 1.2482042189e+00	-2.7417136557e+00
 4.4506051105e-02	 1.2492074333e+00	-2.6508245289e+00
 2.2176539980e-02	 1.2498032649e+00	-2.5347289636e+00
 0.0000000000e+00	 1.2500000000e+00	-2.3941573083e+00
 1.2500000000e+00	 0.0000000000e+00	 3.1301037500e+00
 1.2498032649e+00	 2.2176539980e-02	 3.2890707717e+00
 1.2492074333e+00	 4.4506051105e-02	 3.4147265109e+00
 1.2482042189e+00	 6.6979309859e-02	 3.5067043513e+00
 1.2467855586e+00	 8.9586666336e-02	 3.5646078242e+00
 1.2449436358e+00	 1.1231804737e-01	 3.5880062977e+00
 1.2426709033e+00	 1.3516296103e-01	 3.5764310095e+00
 1.2399601078e+00	 1.5811050247e-01	 3.5293715365e+00
 1.2368043131e+00	 1.8114936128e-01	 3.4462727968e+00
 1.2331969241e+00	 2.0426783021e-01	 3.3265326810e+00
 1.2291317105e+00	 2.2745381552e-01	 3.1695004081e+00
 1.2562500000e+00	 0.0000000000e+00	 3.1636131425e+00
 1.2560522813e+00	 2.2287422679e-02	 3.2959747122e+00
 1.2554534705e+00	 4.4728581358e-02	 3.3812085776e+00
 1.2544452400e+00	 6.7314206406e-02	 3.4165179853e+00
 1.2530194864e+00	 9.0034599664e-02	 3.3993455846e+00
 1.2511683539e+00	 1.1287963760e-01	 3.3273967448e+00
 1.2488842578e+00	 1.3583877583e-01	 3.2598977639e+00
 1.2461599084e+00	 1.5890105498e-01	 3.2270076840e+00
 1.2429883347e+00	 1.8205510808e-01	 3.1656940089e+00
 1.2393629087e+00	 2.0528916936e-01	 3.0753369261e+00
 1.2352773691e+00	 2.2859108459e-01	 2.9552394467e+00
 1.2625000000e+00	 0.0000000000e+00	 3.2002604753e+00
 1.2623012976e+00	 2.2398305378e-02	 3.3150447499e+00
 1.2616995076e+00	 4.4951111612e-02	 3.3889346706e+00
 1.2606862611e+00	 6.7649102953e-02	 3.4192128437e+00
 1.2592534142e+00	 9.0482532993e-02	 3.4033865262e+00
 1.2573930721e+00	 1.1344122784e-01	 3.3392100453e+00
 1.2550976124e+00	 1.3651459063e-01	 3.2247065415e+00
 1.2523597089e+00	 1.5969160749e-01	 3.0581888157e+00
 1.2491723562e+00	 1.8296085488e-01	 2.8856167195e+00
 1.2455288933e+00	 2.0631050850e-01	 2.8239003218e+00
 1.2414230276e+00	 2.2972835366e-01	 2.7399360091e+00
 1.2687500000e+00	 0.0000000000e+00	 3.2399937240e+00
 1.2685503139e+00	 2.2509188077e-02	 3.3370719058e+00
 1.2679455448e+00	 4.5173641867e-02	 3.3994163471e+00
 1.2669272822e+00	 6.7983999501e-02	 3.4243878406e+00
 1.2654873420e+00	 9.0930466323e-02	 3.4095572324e+00
 1.2636177903e+00	 1.1400281807e-01	 3.3527269549e+00
 1.2613109669e+00	 1.3719040543e-01	 3.2519518987e+00
 1.2585595094e+00	 1.6048216000e-01	 3.1055594113e+00
 1.2553563778e+00	 1.8386660168e-01	 2.9121682037e+00
 1.2516948779e+00	 2.0733184765e-01	 2.6707059459e+00
 1.2475686862e+00	 2.3086562273e-01	 2.5236104851e+00
 1.2750000000e+00	 0.0000000000e+00	 3.2827618843e+00
 1.2747993302e+00	 2.2620070777e-02	 3.3620077690e+00
 1.2741915820e+00	 4.5396172122e-02	 3.4126086665e+00
 1.2731683033e+00	 6.8318896049e-02	 3.4320023960e+00
 1.2717212698e+00	 9.1378399653e-02	 3.4178223876e+00
 1.2698425085e+00	 1.1456440831e-01	 3.3679183372e+00
 1.2675243214e+00	 1.3786622024e-01	 3.2803762174e+00
 1.2647593100e+00	 1.6127271251e-01	 3.1535374373e+00
 1.2615403994e+00	 1.8477234849e-01	 2.9860169375e+00
 1.2578608625e+00	 2.0835318680e-01	 2.7767200071e+00
 1.2537143447e+00	 2.3200289181e-01	 2.5248576087e+00
 1.2812500000e+00	 0.0000000000e+00	 3.3285149470e+00
 1.2810483466e+00	 2.2730953476e-02	 3.3898048682e+00
 1.2804376191e+00	 4.5618702377e-02	 3.4284675529e+00
 1.2794093244e+00	 6.8653792598e-02	 3.4420167018e+00
 1.2779551976e+00	 9.1826332983e-02	 3.4281473356e+00
 1.2760672267e+00	 1.1512599854e-01	 3.3847555832e+00
 1.2737376759e+00	 1.3854203504e-01	 3.3099578408e+00
 1.2709591105e+00	 1.6206326502e-01	 3.2021091021e+00
 1.2677244209e+00	 1.8567809529e-01	 3.0598202501e+00
 1.2640268472e+00	 2.0937452595e-01	 2.8819741046e+00
 1.2598600033e+00	 2.3314016088e-01	 2.6677400153e+00
 1.2875000000e+00	 0.0000000000e+00	 3.3772038741e+00
 1.2872973629e+00	 2.2841836176e-02	 3.4204166484e+00
 1.2866836563e+00	 4.5841232632e-02	 3.4469497748e+00
 1.2856503455e+00	 6.8988689147e-02	 3.4543917029e+00
 1.2841891254e+00	 9.2274266315e-02	 3.4404980634e+00
 1.2822919448e+00	 1.1568758878e-01	 3.4032105984e+00
 1.2799510304e+00	 1.3921784984e-01	 3.3406754789e+00
 1.2771589111e+00	 1.6285381753e-01	 3.2512608138e+00
 1.2739084425e+00	 1.8658384210e-01	 3.1335731479e+00
 1.2701928318e+00	 2.1039586510e-01	 2.9864727469e+00
 1.2660056618e+00	 2.3427742996e-01	 2.8090874679e+00
 1.2937500000e+00	 0.0000000000e+00	 3.4287805750e+00
 1.2935463792e+00	 2.2952718876e-02	 3.4537974493e+00
 1.2929296935e+00	 4.6063762888e-02	 3.4680129240e+00
 1.2918913665e+00	 6.9323585696e-02	 3.4690890789e+00
 1.2904230532e+00	 9.2722199647e-02	 3.4548411858e+00
 1.2885166630e+00	 1.1624917902e-01	 3.4232557908e+00
 1.2861643849e+00	 1.3989366465e-01	 3.3725082000e+00
 1.2833587116e+00	 1.6364437004e-01	 3.3009791759e+00
 1.2800924641e+00	 1.8748958890e-01	 3.2072706502e+00
 1.2763588164e+00	 2.1141720425e-01	 3.0902202553e+00
 1.2721513204e+00	 2.3541469903e-01	 2.9489144774e+00
 1.3000000000e+00	 0.0000000000e+00	 3.4831978841e+00
 1.2997953955e+00	 2.3063601577e-02	 3.4899024836e+00
 1.2991757306e+00	 4.6286293144e-02	 3.4916153964e+00
 1.2981323876e+00	 6.9658482246e-02	 3.4860712267e+00
 1.2966569810e+00	 9.3170132980e-02	 3.4711439302e+00
 1.2947413812e+00	 1.1681076925e-01	 3.4448640585e+00
 1.2923777395e+00	 1.4056947946e-01	 3.4054354216e+00
 1.2895585121e+00	 1.6443492256e-01	 3.3512509821e+00
 1.2862764856e+00	 1.8839533571e-01	 3.2809077899e+00
 1.2825248010e+00	 2.1243854340e-01	 3.1932207681e+00
 1.2782969789e+00	 2.3655196811e-01	 3.0872351574e+00
 1.3062500000e+00	 0.0000000000e+00	 3.5404095384e+00
 1.3060444119e+00	 2.3174484277e-02	 3.5286878160e+00
 1.3054217678e+00	 4.6508823401e-02	 3.5177163726e+00
 1.3043734087e+00	 6.9993378797e-02	 3.5053012433e+00
 1.3028909088e+00	 9.3618066313e-02	 3.4893741220e+00
 1.3009660994e+00	 1.1737235949e-01	 3.4680087778e+00
 1.2985910940e+00	 1.4124529426e-01	 3.4394369026e+00
 1.2957583127e+00	 1.6522547507e-01	 3.4020632121e+00
 1.2924605072e+00	 1.8930108252e-01	 3.3544796121e+00
 1.2886907857e+00	 2.1345988255e-01	 3.2954782452e+00
 1.2844426375e+00	 2.3768923719e-01	 3.2240632341e+00
 1.3125000000e+00	 0.0000000000e+00	 3.6003701562e+00
 1.3122934282e+00	 2.3285366978e-02	 3.5701103431e+00
 1.3116678050e+00	 4.6731353657e-02	 3.5462757989e+00
 1.3106144298e+00	 7.0328275348e-02	 3.5267429087e+00
 1.3091248366e+00	 9.4065999647e-02	 3.5095001706e+00
 1.3071908176e+00	 1.1793394973e-01	 3.4926637922e+00
 1.3048044485e+00	 1.4192110907e-01	 3.4744927345e+00
 1.3019581132e+00	 1.6601602758e-01	 3.4534030273e+00
 1.2986445288e+00	 1.9020682933e-01	 3.4279811746e+00
 1.2948567703e+00	 2.1448122170e-01	 3.3969964722e+00
 1.2905882961e+00	 2.3882650627e-01	 3.3594120548e+00
 1.2291317105e+00	 2.2745381552e-01	 3.1695004081e+00
 1.2246028306e+00	 2.5069484873e-01	 3.1135020649e+00
 1.2196048543e+00	 2.7397810005e-01	 3.0561648568e+00
 1.2141327860e+00	 2.9729039323e-01	 2.9970210244e+00
 1.2081820871e+00	 3.2061822211e-01	 2.9354262115e+00
 1.2017486977e+00	 3.4394776856e-01	 2.8705567983e+00
 1.1948290576e+00	 3.6726492215e-01	 2.8014088914e+00
 1.1874201265e+00	 3.9055530111e-01	 2.7267990739e+00
 1.1795194030e+00	 4.1380427497e-01	 2.6453670097e+00
 1.1711249430e+00	 4.3699698848e-01	 2.5555799755e+00
 1.1622353763e+00	 4.6011838697e-01	 2.4557393765e+00
 1.2352773691e+00	 2.2859108459e-01	 2.9552394467e+00
 1.2307258448e+00	 2.5194832297e-01	 2.9379992939e+00
 1.2257028786e+00	 2.7534799054e-01	 2.9151032323e+00
 1.2202034499e+00	 2.9877684519e-01	 2.8860218990e+00
 1.2142229975e+00	 3.2222131321e-01	 2.8500615584e+00
 1.2077574412e+00	 3.4566750740e-01	 2.8063620865e+00
 1.2008032029e+00	 3.6910124675e-01	 2.7538965848e+00
 1.1933572271e+00	 3.9250807761e-01	 2.6914727228e+00
 1.1854170000e+00	 4.1587329634e-01	 2.6177358972e+00
 1.1769805677e+00	 4.3918197341e-01	 2.5311742781e+00
 1.1680465532e+00	 4.6241897890e-01	 2.4301257913e+00
 1.2414230276e+00	 2.2972835366e-01	 2.7399360091e+00
 1.2368488589e+00	 2.5320179721e-01	 2.7616638892e+00
 1.2318009029e+00	 2.7671788103e-01	 2.7734821696e+00
 1.2262741139e+00	 3.0026329715e-01	 2.7748002630e+00
 1.2202639080e+00	 3.2382440431e-01	 2.7648752590e+00
 1.2137661847e+00	 3.4738724624e-01	 2.7428105537e+00
 1.2067773482e+00	 3.7093757136e-01	 2.7075560819e+00
 1.1992943277e+00	 3.9446085411e-01	 2.6579102471e+00
 1.1913145970e+00	 4.1794231771e-01	 2.5925236321e+00
 1.1828361924e+00	 4.4136695835e-01	 2.5099045562e+00
 1.1738577301e+00	 4.6471957083e-01	 2.4084265228e+00
 1.2475686862e+00	 2.3086562273e-01	 2.5236104851e+00
 1.2429718731e+00	 2.5445527144e-01	 2.5845137081e+00
 1.2378989271e+00	 2.7808777153e-01	 2.6313162939e+00
 1.2323447778e+00	 3.0174974911e-01	 2.6633668019e+00
 1.2263048184e+00	 3.2542749542e-01	 2.6798733456e+00
 1.2197749282e+00	 3.4910698507e-01	 2.6799028607e+00
 1.2127514935e+00	 3.7277389596e-01	 2.6623819499e+00
 1.2052314284e+00	 3.9641363061e-01	 2.6260993963e+00
 1.1972121940e+00	 4.2001133908e-01	 2.5697104220e+00
 1.1886918171e+00	 4.4355194329e-01	 2.4917427524e+00
 1.1796689070e+00	 4.6702016276e-01	 2.3906045280e+00
 1.2537143447e+00	 2.3200289181e-01	 2.5248576087e+00
 1.2490948873e+00	 2.5570874568e-01	 2.4065662228e+00
 1.2439969514e+00	 2.7945766202e-01	 2.4886199136e+00
 1.2384154417e+00	 3.0323620107e-01	 2.5517319687e+00
 1.2323457289e+00	 3.2703058652e-01	 2.5950617174e+00
 1.2257836717e+00	 3.5082672391e-01	 2.6176396495e+00
 1.2187256388e+00	 3.7461022057e-01	 2.6183688672e+00
 1.2111685290e+00	 3.9836640711e-01	 2.5960281772e+00
 1.2031097910e+00	 4.2208036045e-01	 2.5492768929e+00
 1.1945474418e+00	 4.4573692823e-01	 2.4766614044e+00
 1.1854800839e+00	 4.6932075469e-01	 2.3766235512e+00
 1.2598600033e+00	 2.3314016088e-01	 2.6677400153e+00
 1.2552179014e+00	 2.5696221992e-01	 2.5378998541e+00
 1.2500949757e+00	 2.8082755252e-01	 2.3510941665e+00
 1.2444861057e+00	 3.0472265304e-01	 2.4399059896e+00
 1.2383866393e+00	 3.2863367763e-01	 2.5104461434e+00
 1.2317924152e+00	 3.5254646275e-01	 2.5560215441e+00
 1.2246997841e+00	 3.7644654518e-01	 2.5755116216e+00
 1.2171056296e+00	 4.0031918362e-01	 2.5676848478e+00
 1.2090073881e+00	 4.2414938182e-01	 2.5312040794e+00
 1.2004030666e+00	 4.4792191317e-01	 2.4646336303e+00
 1.1912912607e+00	 4.7162134663e-01	 2.3664481041e+00
 1.2660056618e+00	 2.3427742996e-01	 2.8090874679e+00
 1.2613409156e+00	 2.5821569417e-01	 2.7216835327e+00
 1.2561930000e+00	 2.8219744302e-01	 2.5721816895e+00
 1.2505567696e+00	 3.0620910500e-01	 2.3613648585e+00
 1.2444275497e+00	 3.3023676874e-01	 2.4260322658e+00
 1.2378011587e+00	 3.5426620159e-01	 2.4950491508e+00
 1.2306739294e+00	 3.7828286978e-01	 2.5338051068e+00
 1.2230427303e+00	 4.0227196012e-01	 2.5410579107e+00
 1.2149049851e+00	 4.2621840319e-01	 2.5154734141e+00
 1.2062586913e+00	 4.5010689811e-01	 2.4556331148e+00
 1.1971024376e+00	 4.7392193856e-01	 2.3600434477e+00
 1.2721513204e+00	 2.3541469903e-01	 2.9489144774e+00
 1.2674639297e+00	 2.5946916841e-01	 2.9040987841e+00
 1.2622910242e+00	 2.8356733352e-01	 2.7920937387e+00
 1.2566274335e+00	 3.0769555696e-01	 2.6136570300e+00
 1.2504684602e+00	 3.3183985985e-01	 2.3700029493e+00
 1.2438099022e+00	 3.5598594043e-01	 2.4347230585e+00
 1.2366480747e+00	 3.8011919439e-01	 2.4932443202e+00
 1.2289798309e+00	 4.0422473662e-01	 2.5161361079e+00
 1.2208025821e+00	 4.2828742457e-01	 2.5020667185e+00
 1.2121143160e+00	 4.5229188305e-01	 2.4496340953e+00
 1.2029136145e+00	 4.7622253049e-01	 2.3573755740e+00
 1.2782969789e+00	 2.3655196811e-01	 3.0872351574e+00
 1.2735869439e+00	 2.6072264265e-01	 3.0851562233e+00
 1.2683890485e+00	 2.8493722402e-01	 3.0108366608e+00
 1.2626980975e+00	 3.0918200893e-01	 2.8650097435e+00
 1.2565093706e+00	 3.3344295096e-01	 2.6488866746e+00
 1.2498186456e+00	 3.5770567927e-01	 2.3750438395e+00
 1.2426222199e+00	 3.8195551900e-01	 2.4538243605e+00
 1.2349169315e+00	 4.0617751312e-01	 2.4929084143e+00
 1.2267001791e+00	 4.3035644594e-01	 2.4909661936e+00
 1.2179699407e+00	 4.5447686799e-01	 2.4466113486e+00
 1.2087247914e+00	 4.7852312242e-01	 2.3584111885e+00
 1.2844426375e+00	 2.3768923719e-01	 3.2240632341e+00
 1.2797099580e+00	 2.6197611690e-01	 3.2648661247e+00
 1.2744870728e+00	 2.8630711452e-01	 3.2284165227e+00
 1.2687687614e+00	 3.1066846089e-01	 3.1154240990e+00
 1.2625502811e+00	 3.3504604207e-01	 2.9270977401e+00
 1.2558273891e+00	 3.5942541811e-01	 2.6651525266e+00
 1.2485963652e+00	 3.8379184361e-01	 2.4155404251e+00
 1.2408540322e+00	 4.0813028963e-01	 2.4713640327e+00
 1.2325977761e+00	 4.3242546731e-01	 2.4821544104e+00
 1.2238255654e+00	 4.5666185293e-01	 2.4465401784e+00
 1.2145359683e+00	 4.8082371435e-01	 2.3631176929e+00
 1.2905882961e+00	 2.3882650627e-01	 3.3594120548e+00
 1.2858329722e+00	 2.6322959114e-01	 3.4432384302e+00
 1.2805850970e+00	 2.8767700502e-01	 3.4448391181e+00
 1.2748394253e+00	 3.1215491286e-01	 3.3649009954e+00
 1.2685911915e+00	 3.3664913318e-01	 3.2046314021e+00
 1.2618361326e+00	 3.6114515696e-01	 2.9657657940e+00
 1.2545705105e+00	 3.8562816822e-01	 2.6505719093e+00
 1.2467911328e+00	 4.1008306613e-01	 2.4514923882e+00
 1.2384953731e+00	 4.3449448869e-01	 2.4756143018e+00
 1.2296811901e+00	 4.5884683787e-01	 2.4493964021e+00
 1.2203471452e+00	 4.8312430629e-01	 2.3714631689e+00
 1.1622353763e+00	 4.6011838697e-01	 2.4557393765e+00
 1.1528499225e+00	 4.8315324302e-01	 2.3379654787e+00
 1.1429684046e+00	 5.0608618436e-01	 2.2088483133e+00
 1.1325912623e+00	 5.2890172287e-01	 2.0649788842e+00
 1.1217195625e+00	 5.5158428471e-01	 1.9027787002e+00
 1.1103550085e+00	 5.7411824134e-01	 1.7185203943e+00
 1.0984999480e+00	 5.9648794141e-01	 1.5083505423e+00
 1.0861573780e+00	 6.1867774337e-01	 1.2683145449e+00
 1.0733309490e+00	 6.4067204864e-01	 1.1805834460e+00
 1.0600249661e+00	 6.6245533523e-01	 1.1273769676e+00
 1.0462443890e+00	 6.8401219174e-01	 1.0350485634e+00
 1.1680465532e+00	 4.6241897890e-01	 2.4301257913e+00
 1.1586141721e+00	 4.8556900924e-01	 2.3039827795e+00
 1.1486832467e+00	 5.0861661528e-01	 2.1677114176e+00
 1.1382542187e+00	 5.3154623148e-01	 2.0178636757e+00
 1.1273281603e+00	 5.5434220613e-01	 1.8508154017e+00
 1.1159067836e+00	 5.7698883254e-01	 1.6627871341e+00
 1.1039924477e+00	 5.9947038112e-01	 1.4498671635e+00
 1.0915881649e+00	 6.2177113209e-01	 1.2080367100e+00
 1.0786976038e+00	 6.4387540888e-01	 1.1504355125e+00
 1.0653250910e+00	 6.6576761191e-01	 1.0898884609e+00
 1.0514756110e+00	 6.8743225269e-01	 9.9101210888e-01
 1.1738577301e+00	 4.6471957083e-01	 2.4084265228e+00
 1.1643784217e+00	 4.8798477545e-01	 2.2740714804e+00
 1.1543980887e+00	 5.1114704620e-01	 2.1308036210e+00
 1.1439171750e+00	 5.3419074010e-01	 1.9751350194e+00
 1.1329367581e+00	 5.5710012755e-01	 1.8033949611e+00
 1.1214585586e+00	 5.7985942375e-01	 1.6117509507e+00
 1.1094849475e+00	 6.0245282082e-01	 1.3962320225e+00
 1.0970189518e+00	 6.2486452081e-01	 1.1527542168e+00
 1.0840642585e+00	 6.4707876913e-01	 1.1229787706e+00
 1.0706252158e+00	 6.6907988858e-01	 1.0550165196e+00
 1.0567068329e+00	 6.9085231365e-01	 9.4951129854e-01
 1.1796689070e+00	 4.6702016276e-01	 2.3906045280e+00
 1.1701426713e+00	 4.9040054166e-01	 2.2481949062e+00
 1.1601129307e+00	 5.1367747712e-01	 2.0980887649e+00
 1.1495801313e+00	 5.3683524871e-01	 1.9367574207e+00
 1.1385453559e+00	 5.5985804898e-01	 1.7604826918e+00
 1.1270103337e+00	 5.8273001495e-01	 1.5653781070e+00
 1.1149774472e+00	 6.0543526053e-01	 1.3474124693e+00
 1.1024497387e+00	 6.2795790952e-01	 1.1346347005e+00
 1.0894309132e+00	 6.5028212937e-01	 1.0981556435e+00
 1.0759253406e+00	 6.7239216526e-01	 1.0227031745e+00
 1.0619380549e+00	 6.9427237461e-01	 9.1048789439e-01
 1.1854800839e+00	 4.6932075469e-01	 2.3766235512e+00
 1.1759069209e+00	 4.9281630788e-01	 2.2263171783e+00
 1.1658277727e+00	 5.1620790804e-01	 2.0695314952e+00
 1.1552430876e+00	 5.3947975732e-01	 1.9026961951e+00
 1.1441539537e+00	 5.6261597040e-01	 1.7220447214e+00
 1.1325621087e+00	 5.8560060616e-01	 1.5236356820e+00
 1.1204699470e+00	 6.0841770024e-01	 1.3033766696e+00
 1.1078805256e+00	 6.3105129824e-01	 1.1206854575e+00
 1.0947975680e+00	 6.5348548961e-01	 1.0759093639e+00
 1.0812254655e+00	 6.7570444193e-01	 9.9289125914e-01
 1.0671692768e+00	 6.9769243556e-01	 8.7388445282e-01
 1.1912912607e+00	 4.7162134663e-01	 2.3664481041e+00
 1.1816711706e+00	 4.9523207409e-01	 2.2084031951e+00
 1.1715426148e+00	 5.1873833896e-01	 2.0450972423e+00
 1.1609060439e+00	 5.4212426594e-01	 1.8729174480e+00
 1.1497625516e+00	 5.6537389182e-01	 1.6880479712e+00
 1.1381138838e+00	 5.8847119736e-01	 1.4864915501e+00
 1.1259624467e+00	 6.1140013994e-01	 1.2640935845e+00
 1.1133113125e+00	 6.3414468695e-01	 1.1093265118e+00
 1.1001642227e+00	 6.5668884985e-01	 1.0561839534e+00
 1.0865255903e+00	 6.7901671860e-01	 9.6552439008e-01
 1.0724004987e+00	 7.0111249652e-01	 8.3964430530e-01
 1.1971024376e+00	 4.7392193856e-01	 2.3600434477e+00
 1.1874354202e+00	 4.9764784030e-01	 2.1944186132e+00
 1.1772574568e+00	 5.2126876988e-01	 2.0247522022e+00
 1.1665690002e+00	 5.4476877455e-01	 1.8473880564e+00
 1.1553711494e+00	 5.6813181324e-01	 1.6584601375e+00
 1.1436656588e+00	 5.9134178857e-01	 1.4539143624e+00
 1.1314549465e+00	 6.1438257965e-01	 1.2295329516e+00
 1.1187420994e+00	 6.3723807567e-01	 1.1005031809e+00
 1.1055308775e+00	 6.5989221009e-01	 1.0389242043e+00
 1.0918257151e+00	 6.8232899528e-01	 9.4054694826e-01
 1.0776317207e+00	 7.0453255748e-01	 8.0771153953e-01
 1.2029136145e+00	 4.7622253049e-01	 2.3573755740e+00
 1.1931996698e+00	 5.0006360651e-01	 2.1843298293e+00
 1.1829722988e+00	 5.2379920080e-01	 2.0084633180e+00
 1.1722319565e+00	 5.4741328316e-01	 1.8260756495e+00
 1.1609797472e+00	 5.7088973466e-01	 1.6332496725e+00
 1.1492174338e+00	 5.9421237977e-01	 1.4258735275e+00
 1.1369474462e+00	 6.1736501935e-01	 1.1996652660e+00
 1.1241728863e+00	 6.4033146438e-01	 1.0941615380e+00
 1.1108975322e+00	 6.6309557033e-01	 1.0240756599e+00
 1.0971258399e+00	 6.8564127195e-01	 9.1790406027e-01
 1.0828629426e+00	 7.0795261843e-01	 7.7803098124e-01
 1.2087247914e+00	 4.7852312242e-01	 2.3584111885e+00
 1.1989639194e+00	 5.0247937272e-01	 2.1781039621e+00
 1.1886871408e+00	 5.2632963172e-01	 1.9961982619e+00
 1.1778949129e+00	 5.5005779177e-01	 1.8089485907e+00
 1.1665883450e+00	 5.7364765608e-01	 1.6123857660e+00
 1.1547692089e+00	 5.9708297098e-01	 1.4023391938e+00
 1.1424399459e+00	 6.2034745906e-01	 1.1744617620e+00
 1.1296036732e+00	 6.4342485310e-01	 1.0902483937e+00
 1.1162641870e+00	 6.6629893057e-01	 1.0115845973e+00
 1.1024259648e+00	 6.8895354863e-01	 8.9754158052e-01
 1.0880941646e+00	 7.1137267939e-01	 7.5054817636e-01
 1.2145359683e+00	 4.8082371435e-01	 2.3631176929e+00
 1.2047281690e+00	 5.0489513894e-01	 2.1757088352e+00
 1.1944019829e+00	 5.2886006264e-01	 1.9879254178e+00
 1.1835578692e+00	 5.5270230038e-01	 1.7959759604e+00
 1.1721969428e+00	 5.7640557750e-01	 1.5958383284e+00
 1.1603209839e+00	 5.9995356218e-01	 1.3832822311e+00
 1.1479324457e+00	 6.2332989876e-01	 1.1538943957e+00
 1.1350344601e+00	 6.4651824181e-01	 1.0887112780e+00
 1.1216308417e+00	 6.6950229081e-01	 1.0013980097e+00
 1.1077260896e+00	 6.9226582530e-01	 8.7940607381e-01
 1.0933253865e+00	 7.1479274035e-01	 7.2520937387e-01
 1.2203471452e+00	 4.8312430629e-01	 2.3714631689e+00
 1.2104924186e+00	 5.0731090515e-01	 2.1771129603e+00
 1.2001168249e+00	 5.3139049356e-01	 1.9836138644e+00
 1.1892208255e+00	 5.5534680899e-01	 1.7871275389e+00
 1.1778055406e+00	 5.7916349892e-01	 1.5835779728e+00
 1.1658727590e+00	 6.0282415338e-01	 1.3686742141e+00
 1.1534249454e+00	 6.2631233846e-01	 1.1491519414e+00
 1.1404652469e+00	 6.4961163052e-01	 1.0894984239e+00
 1.1269974965e+00	 6.7270565105e-01	 9.9346358884e-01
 1.1130262144e+00	 6.9557810197e-01	 8.6344479841e-01
 1.0985566085e+00	 7.1821280130e-01	 7.0196150903e-01
 1.0462443890e+00	 6.8401219174e-01	 1.0350485634e+00
 1.0319948291e+00	 7.0532735143e-01	 9.0505155340e-01
 1.0172825451e+00	 7.2638572640e-01	 7.6731351531e-01
 1.0021144359e+00	 7.4717244155e-01	 6.2395133199e-01
 9.8649803203e-01	 7.6767286834e-01	 4.7708208864e-01
 9.7044148446e-01	 7.8787265800e-01	 3.2880691405e-01
 9.5395355135e-01	 8.0775777424e-01	 1.8119496543e-01
 9.3704358299e-01	 8.2731452517e-01	 3.6267716805e-02
 9.1972150459e-01	 8.4652959426e-01	-1.0401629102e-01
 9.0199779716e-01	 8.6539007037e-01	-2.3777608596e-01
 8.8388347647e-01	 8.8388347647e-01	-3.6322213932e-01
 1.0514756110e+00	 6.8743225269e-01	 9.9101210888e-01
 1.0371548033e+00	 7.0885398818e-01	 8.5410356343e-01
 1.0223689578e+00	 7.3001765502e-01	 7.1098325803e-01
 1.0071250080e+00	 7.5090830375e-01	 5.6375362410e-01
 9.9143052219e-01	 7.7151123267e-01	 4.1451093210e-01
 9.7529369188e-01	 7.9181202128e-01	 2.6532905064e-01
 9.5872331910e-01	 8.1179656311e-01	 1.1824338588e-01
 9.4172880090e-01	 8.3145109779e-01	-2.4764836781e-02
 9.2432011211e-01	 8.5076224222e-01	-1.6178378990e-01
 9.0650778614e-01	 8.6971702071e-01	-2.9098560622e-01
 8.8830289385e-01	 8.8830289385e-01	-4.1064013913e-01
 1.0567068329e+00	 6.9085231365e-01	 9.4951129854e-01
 1.0423147774e+00	 7.1238062494e-01	 8.0541838936e-01
 1.0274553705e+00	 7.3364958365e-01	 6.5663055164e-01
 1.0121355802e+00	 7.5464416596e-01	 5.0523659284e-01
 9.9636301234e-01	 7.7534959701e-01	 3.5331282415e-01
 9.8014589929e-01	 7.9575138456e-01	 2.0290673314e-01
 9.6349308685e-01	 8.1583535197e-01	 5.6020873657e-02
 9.4641401881e-01	 8.3558767041e-01	-8.5402863638e-02
 9.2891871963e-01	 8.5499489019e-01	-2.1949844004e-01
 9.1101777512e-01	 8.7404397106e-01	-3.4449016212e-01
 8.9272231123e-01	 8.9272231123e-01	-4.5870633241e-01
 1.0619380549e+00	 6.9427237461e-01	 9.1048789439e-01
 1.0474747515e+00	 7.1590726169e-01	 7.5894040150e-01
 1.0325417832e+00	 7.3728151228e-01	 6.0420260963e-01
 1.0171461524e+00	 7.5838002816e-01	 4.4835052733e-01
 1.0012955025e+00	 7.7918796135e-01	 2.9344135887e-01
 9.8499810671e-01	 7.9969074785e-01	 1.4149708624e-01
 9.6826285460e-01	 8.1987414084e-01	-5.5116946764e-03
 9.5109923672e-01	 8.3972424303e-01	-1.4568151914e-01
 9.3351732715e-01	 8.5922753816e-01	-2.7719121821e-01
 9.1552776410e-01	 8.7837092141e-01	-3.9831634760e-01
 8.9714172860e-01	 8.9714172860e-01	-5.0744273298e-01
 1.0671692768e+00	 6.9769243556e-01	 8.7388445282e-01
 1.0526347257e+00	 7.1943389845e-01	 7.1461470030e-01
 1.0376281959e+00	 7.4091344091e-01	 5.5364730724e-01
 1.0221567246e+00	 7.6211589036e-01	 3.9304630605e-01
 1.0062279927e+00	 7.8302632568e-01	 2.3485064344e-01
 9.8985031413e-01	 8.0363011114e-01	 8.1057667736e-02
 9.7303262236e-01	 8.2391292971e-01	-6.6393093088e-02
 9.5578445463e-01	 8.4386081565e-01	-2.0563569623e-01
 9.3811593467e-01	 8.6346018612e-01	-3.3489292908e-01
 9.2003775308e-01	 8.8269787175e-01	-4.5249067797e-01
 9.0156114598e-01	 9.0156114598e-01	-5.5687137241e-01
 1.0724004987e+00	 7.0111249652e-01	 8.3964430530e-01
 1.0577946998e+00	 7.2296053520e-01	 6.7238709853e-01
 1.0427146087e+00	 7.4454536954e-01	 5.0491316530e-01
 1.0271672968e+00	 7.6585175257e-01	 3.3927538242e-01
 1.0111604828e+00	 7.8686469002e-01	 1.7749528560e-01
 9.9470252155e-01	 8.0756947442e-01	 2.1546457911e-02
 9.7780239011e-01	 8.2795171858e-01	-1.2666175459e-01
 9.6046967254e-01	 8.4799738827e-01	-2.6530003183e-01
 9.4271454219e-01	 8.6769283409e-01	-3.9263420945e-01
 9.2454774206e-01	 8.8702482210e-01	-5.0703959184e-01
 9.0598056336e-01	 9.0598056336e-01	-6.0701429964e-01
 1.0776317207e+00	 7.0453255748e-01	 8.0771153953e-01
 1.0629546740e+00	 7.2648717196e-01	 6.3220410401e-01
 1.0478010214e+00	 7.4817729817e-01	 4.5794933457e-01
 1.0321778689e+00	 7.6958761477e-01	 2.8698977088e-01
 1.0160929730e+00	 7.9070305436e-01	 1.2133038152e-01
 9.9955472897e-01	 8.1150883771e-01	-3.7078150675e-02
 9.8257215787e-01	 8.3199050744e-01	-1.8635577952e-01
 9.6515489046e-01	 8.5213396090e-01	-3.2470891305e-01
 9.4731314971e-01	 8.7192548206e-01	-4.5044553230e-01
 9.2905773105e-01	 8.9135177245e-01	-5.6198945294e-01
 9.1039998074e-01	 9.1039998074e-01	-6.5789358052e-01
 1.0828629426e+00	 7.0795261843e-01	 7.7803098124e-01
 1.0681146481e+00	 7.3001380871e-01	 5.9401290282e-01
 1.0528874341e+00	 7.5180922680e-01	 4.1270558053e-01
 1.0371884411e+00	 7.7332347698e-01	 2.3614203335e-01
 1.0210254631e+00	 7.9454141870e-01	 6.6311503958e-02
 1.0044069364e+00	 8.1544820100e-01	-9.4857363165e-02
 9.8734192562e-01	 8.3602929631e-01	-2.4551294358e-01
 9.6984010837e-01	 8.5627053352e-01	-3.8389648323e-01
 9.5191175723e-01	 8.7615813003e-01	-5.0835721073e-01
 9.3356772003e-01	 8.9567872280e-01	-6.1736655201e-01
 9.1481939812e-01	 9.1481939812e-01	-7.0953129741e-01
 1.0880941646e+00	 7.1137267939e-01	 7.5054817636e-01
 1.0732746223e+00	 7.3354044547e-01	 5.5776134298e-01
 1.0579738468e+00	 7.5544115543e-01	 3.6913226857e-01
 1.0421990133e+00	 7.7705933919e-01	 1.8668526603e-01
 1.0259579533e+00	 7.9837978304e-01	 1.2394690872e-02
 1.0092591438e+00	 8.1938756429e-01	-1.5183199207e-01
 9.9211169338e-01	 8.4006808518e-01	-3.0417070561e-01
 9.7452532628e-01	 8.6040710615e-01	-4.4289664777e-01
 9.5651036475e-01	 8.8039077800e-01	-5.6639940186e-01
 9.3807770902e-01	 9.0000567315e-01	-6.7319710845e-01
 9.1923881551e-01	 9.1923881551e-01	-7.6194954878e-01
 1.0933253865e+00	 7.1479274035e-01	 7.2520937387e-01
 1.0784345964e+00	 7.3706708222e-01	 5.2339791862e-01
 1.0630602596e+00	 7.5907308406e-01	 3.2718034969e-01
 1.0472095855e+00	 7.8079520139e-01	 1.3857308667e-01
 1.0308904435e+00	 8.0221814738e-01	-4.0463565766e-02
 1.0141113512e+00	 8.2332692758e-01	-2.0804246665e-01
 9.9688146114e-01	 8.4410687406e-01	-3.6236621521e-01
 9.7921054420e-01	 8.6454367877e-01	-5.0174307987e-01
 9.6110897228e-01	 8.8462342597e-01	-6.2460211050e-01
 9.4258769801e-01	 9.0433262351e-01	-7.2950727213e-01
 9.2365823289e-01	 9.2365823289e-01	-8.1517044883e-01
 1.0985566085e+00	 7.1821280130e-01	 7.0196150903e-01
 1.0835945706e+00	 7.4059371898e-01	 4.9087175460e-01
 1.0681466723e+00	 7.6270501269e-01	 2.8680134651e-01
 1.0522201576e+00	 7.8453106360e-01	 9.1759622085e-02
 1.0358229336e+00	 8.0605651173e-01	-9.2306330754e-02
 1.0189635587e+00	 8.2726629087e-01	-2.6352884208e-01
 1.0016512289e+00	 8.4814566293e-01	-4.2013632009e-01
 9.8389576212e-01	 8.6868025140e-01	-5.6046922602e-01
 9.6570757980e-01	 8.8885607395e-01	-6.8299519283e-01
 9.4709768700e-01	 9.0865957386e-01	-7.8632312497e-01
 9.2807765027e-01	 9.2807765027e-01	-8.6921612712e-01
 8.8388347647e-01	 8.8388347647e-01	-3.6322213932e-01
 8.6539007037e-01	 9.0199779716e-01	-4.9170215615e-01
 8.4652959426e-01	 9.1972150459e-01	-6.2374402284e-01
 8.2731452517e-01	 9.3704358299e-01	-7.5790099058e-01
 8.0775777424e-01	 9.5395355135e-01	-8.9279837563e-01
 7.8787265800e-01	 9.7044148446e-01	-1.0271422895e+00
 7.6767286834e-01	 9.8649803203e-01	-1.1597273243e+00
 7.4717244155e-01	 1.0021144359e+00	-1.2894431330e+00
 7.2638572640e-01	 1.0172825451e+00	-1.4152798625e+00
 7.0532735143e-01	 1.0319948291e+00	-1.5363324077e+00
 6.8401219174e-01	 1.0462443890e+00	-1.6518034757e+00
 8.8830289385e-01	 8.8830289385e-01	-4.1064013913e-01
 8.6971702071e-01	 9.0650778614e-01	-5.3340150581e-01
 8.5076224222e-01	 9.2432011211e-01	-6.6066567518e-01
 8.3145109779e-01	 9.4172880090e-01	-7.9095701539e-01
 8.1179656311e-01	 9.5872331910e-01	-9.2286978864e-01
 7.9181202128e-01	 9.7529369188e-01	-1.0550770766e+00
 7.7151123267e-01	 9.9143052219e-01	-1.1863386618e+00
 7.5090830375e-01	 1.0071250080e+00	-1.3155078036e+00
 7.3001765502e-01	 1.0223689578e+00	-1.4415368639e+00
 7.0885398818e-01	 1.0371548033e+00	-1.5634817517e+00
 6.8743225269e-01	 1.0514756110e+00	-1.6805051716e+00
 8.9272231123e-01	 8.9272231123e-01	-4.5870633241e-01
 8.7404397106e-01	 9.1101777512e-01	-5.7573472092e-01
 8.5499489019e-01	 9.2891871963e-01	-6.9818986178e-01
 8.3558767041e-01	 9.4641401881e-01	-8.2456710271e-01
 8.1583535197e-01	 9.6349308685e-01	-9.5342957801e-01
 7.9575138456e-01	 9.8014589929e-01	-1.0834173300e+00
 7.7534959701e-01	 9.9636301234e-01	-1.2132553864e+00
 7.5464416596e-01	 1.0121355802e+00	-1.3417607323e+00
 7.3364958365e-01	 1.0274553705e+00	-1.4678481278e+00
 7.1238062494e-01	 1.0423147774e+00	-1.5905347416e+00
 6.9085231365e-01	 1.0567068329e+00	-1.7089435833e+00
 8.9714172860e-01	 8.9714172860e-01	-5.0744273298e-01
 8.7837092141e-01	 9.1552776410e-01	-6.1872454039e-01
 8.5922753816e-01	 9.3351732715e-01	-7.3634016681e-01
 8.3972424303e-01	 9.5109923672e-01	-8.5875579930e-01
 8.1987414084e-01	 9.6826285460e-01	-9.8450336740e-01
 7.9969074785e-01	 9.8499810671e-01	-1.1121898612e+00
 7.7918796135e-01	 1.0012955025e+00	-1.2405056055e+00
 7.5838002816e-01	 1.0171461524e+00	-1.3682314266e+00
 7.3728151228e-01	 1.0325417832e+00	-1.4942446622e+00
 7.1590726169e-01	 1.0474747515e+00	-1.6175239829e+00
 6.9427237461e-01	 1.0619380549e+00	-1.7371530065e+00
 9.0156114598e-01	 9.0156114598e-01	-5.5687137241e-01
 8.8269787175e-01	 9.2003775308e-01	-6.6239371235e-01
 8.6346018612e-01	 9.3811593467e-01	-7.7514017171e-01
 8.4386081565e-01	 9.5578445463e-01	-8.9354763390e-01
 8.2391292971e-01	 9.7303262236e-01	-1.0161167439e+00
 8.0363011114e-01	 9.8985031413e-01	-1.1414214236e+00
 7.8302632568e-01	 1.0062279927e+00	-1.2681173432e+00
 7.6211589036e-01	 1.0221567246e+00	-1.3949492824e+00
 7.4091344091e-01	 1.0376281959e+00	-1.5207573323e+00
 7.1943389845e-01	 1.0526347257e+00	-1.6444819039e+00
 6.9769243556e-01	 1.0671692768e+00	-1.7651675227e+00
 9.0598056336e-01	 9.0598056336e-01	-6.0701429964e-01
 8.8702482210e-01	 9.2454774206e-01	-7.0676499387e-01
 8.6769283409e-01	 9.4271454219e-01	-8.1461345522e-01
 8.4799738827e-01	 9.6046967254e-01	-9.2896711768e-01
 8.2795171858e-01	 9.7780239011e-01	-1.0482952589e+00
 8.0756947442e-01	 9.9470252155e-01	-1.1711387136e+00
 7.8686469002e-01	 1.0111604828e+00	-1.2961185422e+00
 7.6585175257e-01	 1.0271672968e+00	-1.4219435868e+00
 7.4454536954e-01	 1.0427146087e+00	-1.5474168643e+00
 7.2296053520e-01	 1.0577946998e+00	-1.6714407605e+00
 7.0111249652e-01	 1.0724004987e+00	-1.7930210045e+00
 9.1039998074e-01	 9.1039998074e-01	-6.5789358052e-01
 8.9135177245e-01	 9.2905773105e-01	-7.5186115078e-01
 8.7192548206e-01	 9.4731314971e-01	-8.5478359347e-01
 8.5213396090e-01	 9.6515489046e-01	-9.6503874467e-01
 8.3199050744e-01	 9.8257215787e-01	-1.0810644290e+00
 8.1150883771e-01	 9.9955472897e-01	-1.2013683720e+00
 7.9070305436e-01	 1.0160929730e+00	-1.3245370659e+00
 7.6958761477e-01	 1.0321778689e+00	-1.4492435209e+00
 7.4817729817e-01	 1.0478010214e+00	-1.5742538484e+00
 7.2648717196e-01	 1.0629546740e+00	-1.6984326402e+00
 7.0453255748e-01	 1.0776317207e+00	-1.8207471211e+00
 9.1481939812e-01	 9.1481939812e-01	-7.0953129741e-01
 8.9567872280e-01	 9.3356772003e-01	-7.9770495745e-01
 8.7615813003e-01	 9.5191175723e-01	-8.9567416004e-01
 8.5627053352e-01	 9.6984010837e-01	-1.0017869921e+00
 8.3602929631e-01	 9.8734192562e-01	-1.1144497369e+00
 8.1544820100e-01	 1.0044069364e+00	-1.2321369853e+00
 7.9454141870e-01	 1.0210254631e+00	-1.3534007002e+00
 7.7332347698e-01	 1.0371884411e+00	-1.4768781621e+00
 7.5180922680e-01	 1.0528874341e+00	-1.6012987422e+00
 7.3001380871e-01	 1.0681146481e+00	-1.7254894659e+00
 7.0795261843e-01	 1.0828629426e+00	-1.8483793425e+00
 9.1923881551e-01	 9.1923881551e-01	-7.6194954878e-01
 9.0000567315e-01	 9.3807770902e-01	-8.4431919655e-01
 8.8039077800e-01	 9.5651036475e-01	-9.3730872600e-01
 8.6040710615e-01	 9.7452532628e-01	-1.0392363211e+00
 8.4006808518e-01	 9.9211169338e-01	-1.1484766319e+00
 8.1938756429e-01	 1.0092591438e+00	-1.2634710871e+00
 7.9837978304e-01	 1.0259579533e+00	-1.3827371554e+00
 7.7705933919e-01	 1.0421990133e+00	-1.5048764866e+00
 7.5544115543e-01	 1.0579738468e+00	-1.6285818739e+00
 7.3354044547e-01	 1.0732746223e+00	-1.7526430004e+00
 7.1137267939e-01	 1.0880941646e+00	-1.8759509448e+00
 9.2365823289e-01	 9.2365823289e-01	-8.1517044883e-01
 9.0433262351e-01	 9.4258769801e-01	-8.9172665892e-01
 8.8462342597e-01	 9.6110897228e-01	-9.7971086001e-01
 8.6454367877e-01	 9.7921054420e-01	-1.0774111765e+00
 8.4410687406e-01	 9.9688146114e-01	-1.1831705313e+00
 8.2332692758e-01	 1.0141113512e+00	-1.2953971594e+00
 8.0221814738e-01	 1.0308904435e+00	-1.4125740681e+00
 7.8079520139e-01	 1.0472095855e+00	-1.5332673721e+00
 7.5907308406e-01	 1.0630602596e+00	-1.6561334453e+00
 7.3706708222e-01	 1.0784345964e+00	-1.7799248497e+00
 7.1479274035e-01	 1.0933253865e+00	-1.9034950145e+00
 9.2807765027e-01	 9.2807765027e-01	-8.6921612712e-01
 9.0865957386e-01	 9.4709768700e-01	-9.3995014332e-01
 8.8885607395e-01	 9.6570757980e-01	-1.0229041283e+00
 8.6868025140e-01	 9.8389576212e-01	-1.1163359878e+00
 8.4814566293e-01	 1.0016512289e+00	-1.2185568206e+00
 8.2726629087e-01	 1.0189635587e+00	-1.3279416339e+00
 8.0605651173e-01	 1.0358229336e+00	-1.4429390028e+00
 7.8453106360e-01	 1.0522201576e+00	-1.5620795998e+00
 7.6270501269e-01	 1.0681466723e+00	-1.6839835353e+00
 7.4059371898e-01	 1.0835945706e+00	-1.8073664669e+00
 7.1821280130e-01	 1.0985566085e+00	-1.9310444535e+00
 6.8401219174e-01	 1.0462443890e+00	-1.6518034757e+00
 6.6245533523e-01	 1.0600249661e+00	-1.5626517803e+00
 6.4067204864e-01	 1.0733309490e+00	-1.4465972230e+00
 6.1867774337e-01	 1.0861573780e+00	-1.4019263828e+00
 5.9648794141e-01	 1.0984999480e+00	-1.5744500706e+00
 5.7411824134e-01	 1.1103550085e+00	-1.7229714920e+00
 5.5158428471e-01	 1.1217195625e+00	-1.8509688393e+00
 5.2890172287e-01	 1.1325912623e+00	-1.9618891199e+00
 5.0608618436e-01	 1.1429684046e+00	-2.0591239597e+00
 4.8315324302e-01	 1.1528499225e+00	-2.1459866374e+00
 4.6011838697e-01	 1.1622353763e+00	-2.2256905197e+00
 6.8743225269e-01	 1.0514756110e+00	-1.6805051716e+00
 6.6576761191e-01	 1.0653250910e+00	-1.5950880566e+00
 6.4387540888e-01	 1.0786976038e+00	-1.4814934122e+00
 6.2177113209e-01	 1.0915881649e+00	-1.3898446270e+00
 5.9947038112e-01	 1.1039924477e+00	-1.5619041749e+00
 5.7698883254e-01	 1.1159067836e+00	-1.7093252018e+00
 5.5434220613e-01	 1.1273281603e+00	-1.8357886921e+00
 5.3154623148e-01	 1.1382542187e+00	-1.9449425013e+00
 5.0861661528e-01	 1.1486832467e+00	-2.0403762049e+00
 4.8556900924e-01	 1.1586141721e+00	-2.1255972212e+00
 4.6241897890e-01	 1.1680465532e+00	-2.2040083836e+00
 6.9085231365e-01	 1.0567068329e+00	-1.7089435833e+00
 6.6907988858e-01	 1.0706252158e+00	-1.6277372915e+00
 6.4707876913e-01	 1.0840642585e+00	-1.5170806294e+00
 6.2486452081e-01	 1.0970189518e+00	-1.3797609564e+00
 6.0245282082e-01	 1.1094849475e+00	-1.5517639949e+00
 5.7985942375e-01	 1.1214585586e+00	-1.6984960095e+00
 5.5710012755e-01	 1.1329367581e+00	-1.8238405296e+00
 5.3419074010e-01	 1.1439171750e+00	-1.9316460026e+00
 5.1114704620e-01	 1.1543980887e+00	-2.0256996874e+00
 4.8798477545e-01	 1.1643784217e+00	-2.1097028655e+00
 4.6471957083e-01	 1.1738577301e+00	-2.1872475494e+00
 6.9427237461e-01	 1.0619380549e+00	-1.7371530065e+00
 6.7239216526e-01	 1.0759253406e+00	-1.6606258188e+00
 6.5028212937e-01	 1.0894309132e+00	-1.5533770754e+00
 6.2795790952e-01	 1.1024497387e+00	-1.4162771897e+00
 6.0543526053e-01	 1.1149774472e+00	-1.5440300126e+00
 5.8273001495e-01	 1.1270103337e+00	-1.6904752021e+00
 5.5985804898e-01	 1.1385453559e+00	-1.8151063836e+00
 5.3683524871e-01	 1.1495801313e+00	-1.9219723604e+00
 5.1367747712e-01	 1.1601129307e+00	-2.0150578290e+00
 4.9040054166e-01	 1.1701426713e+00	-2.0982576772e+00
 4.6702016276e-01	 1.1796689070e+00	-2.1753528281e+00
 6.9769243556e-01	 1.0671692768e+00	-1.7651675227e+00
 6.7570444193e-01	 1.0812254655e+00	-1.6937799097e+00
 6.5348548961e-01	 1.0947975680e+00	-1.5904010415e+00
 6.3105129824e-01	 1.1078805256e+00	-1.4560440537e+00
 6.0841770024e-01	 1.1204699470e+00	-1.5387031125e+00
 5.8560060616e-01	 1.1325621087e+00	-1.6852546277e+00
 5.6261597040e-01	 1.1441539537e+00	-1.8095690065e+00
 5.3947975732e-01	 1.1552430876e+00	-1.9158951922e+00
 5.1620790804e-01	 1.1658277727e+00	-2.0084150929e+00
 4.9281630788e-01	 1.1759069209e+00	-2.0912169653e+00
 4.6932075469e-01	 1.1854800839e+00	-2.1682703938e+00
 7.0111249652e-01	 1.0724004987e+00	-1.7930210045e+00
 6.7901671860e-01	 1.0865255903e+00	-1.7272257736e+00
 6.5668884985e-01	 1.1001642227e+00	-1.6281709071e+00
 6.3414468695e-01	 1.1133113125e+00	-1.4970113938e+00
 6.1140013994e-01	 1.1259624467e+00	-1.5357845721e+00
 5.8847119736e-01	 1.1381138838e+00	-1.6828266817e+00
 5.6537389182e-01	 1.1497625516e+00	-1.8072118535e+00
 5.4212426594e-01	 1.1609060439e+00	-1.9133889746e+00
 5.1873833896e-01	 1.1715426148e+00	-2.0057369583e+00
 4.9523207409e-01	 1.1816711706e+00	-2.0885372118e+00
 4.7162134663e-01	 1.1912912607e+00	-2.1659477501e+00
 7.0453255748e-01	 1.0776317207e+00	-1.8207471211e+00
 6.8232899528e-01	 1.0918257151e+00	-1.7609895603e+00
 6.5989221009e-01	 1.1055308775e+00	-1.6667051373e+00
 6.3723807567e-01	 1.1187420994e+00	-1.5391898420e+00
 6.1438257965e-01	 1.1314549465e+00	-1.5352760521e+00
 5.9134178857e-01	 1.1436656588e+00	-1.6831842936e+00
 5.6813181324e-01	 1.1553711494e+00	-1.8080190656e+00
 5.4476877455e-01	 1.1665690002e+00	-1.9144290229e+00
 5.2126876988e-01	 1.1772574568e+00	-2.0069898959e+00
 4.9764784030e-01	 1.1874354202e+00	-2.0901760433e+00
 4.7392193856e-01	 1.1971024376e+00	-2.1683336985e+00
 7.0795261843e-01	 1.0828629426e+00	-1.8483793425e+00
 6.8564127195e-01	 1.0971258399e+00	-1.7950973607e+00
 6.6309557033e-01	 1.1108975322e+00	-1.7060222816e+00
 6.4033146438e-01	 1.1241728863e+00	-1.5825902581e+00
 6.1736501935e-01	 1.1369474462e+00	-1.5371795872e+00
 5.9421237977e-01	 1.1492174338e+00	-1.6863209139e+00
 5.7088973466e-01	 1.1609797472e+00	-1.8119754533e+00
 5.4741328316e-01	 1.1722319565e+00	-1.9189914701e+00
 5.2379920080e-01	 1.1829722988e+00	-2.0121413435e+00
 5.0006360651e-01	 1.1931996698e+00	-2.0960922029e+00
 4.7622253049e-01	 1.2029136145e+00	-2.1753783063e+00
 7.1137267939e-01	 1.0880941646e+00	-1.8759509448e+00
 6.8895354863e-01	 1.1024259648e+00	-1.8295752088e+00
 6.6629893057e-01	 1.1162641870e+00	-1.7461409709e+00
 6.4342485310e-01	 1.1296036732e+00	-1.6272237249e+00
 6.2034745906e-01	 1.1424399459e+00	-1.5414975773e+00
 5.9708297098e-01	 1.1547692089e+00	-1.6922305019e+00
 5.7364765608e-01	 1.1665883450e+00	-1.8190664802e+00
 5.5005779177e-01	 1.1778949129e+00	-1.9270532479e+00
 5.2632963172e-01	 1.1886871408e+00	-2.0211596833e+00
 5.0247937272e-01	 1.1989639194e+00	-2.1062455239e+00
 4.7852312242e-01	 1.2087247914e+00	-2.1870328766e+00
 7.1479274035e-01	 1.0933253865e+00	-1.9034950145e+00
 6.9226582530e-01	 1.1077260896e+00	-1.8644490827e+00
 6.6950229081e-01	 1.1216308417e+00	-1.7870799164e+00
 6.4651824181e-01	 1.1350344601e+00	-1.6731015425e+00
 6.2332989876e-01	 1.1479324457e+00	-1.5482327785e+00
 5.9995356218e-01	 1.1603209839e+00	-1.7009075134e+00
 5.7640557750e-01	 1.1721969428e+00	-1.8292782474e+00
 5.5270230038e-01	 1.1835578692e+00	-1.9385920674e+00
 5.2886006264e-01	 1.1944019829e+00	-2.0340142189e+00
 5.0489513894e-01	 1.2047281690e+00	-2.1205969035e+00
 4.8082371435e-01	 1.2145359683e+00	-2.2032499186e+00
 7.1821280130e-01	 1.0985566085e+00	-1.9310444535e+00
 6.9557810197e-01	 1.1130262144e+00	-1.8997449061e+00
 6.7270565105e-01	 1.1269974965e+00	-1.8288579070e+00
 6.4961163052e-01	 1.1404652469e+00	-1.7202352230e+00
 6.2631233846e-01	 1.1534249454e+00	-1.5759306160e+00
 6.0282415338e-01	 1.1658727590e+00	-1.7123468886e+00
 5.7916349892e-01	 1.1778055406e+00	-1.8425974785e+00
 5.5534680899e-01	 1.1892208255e+00	-1.9535864003e+00
 5.3139049356e-01	 1.2001168249e+00	-2.0506751536e+00
 5.0731090515e-01	 1.2104924186e+00	-2.1391082774e+00
 4.8312430629e-01	 1.2203471452e+00	-2.2239831189e+00
 4.6011838697e-01	 1.1622353763e+00	-2.2256905197e+00
 4.3699698848e-01	 1.1711249430e+00	-2.3114665431e+00
 4.1380427497e-01	 1.1795194030e+00	-2.3828059515e+00
 3.9055530111e-01	 1.1874201265e+00	-2.4412379401e+00
 3.6726492215e-01	 1.1948290576e+00	-2.4882220178e+00
 3.4394776856e-01	 1.2017486977e+00	-2.5251367562e+00
 3.2061822211e-01	 1.2081820871e+00	-2.5532699269e+00
 2.9729039323e-01	 1.2141327860e+00	-2.5738100524e+00
 2.7397810005e-01	 1.2196048543e+00	-2.5878393822e+00
 2.5069484873e-01	 1.2246028306e+00	-2.5963282884e+00
 2.2745381552e-01	 1.2291317105e+00	-2.6001310556e+00
 4.6241897890e-01	 1.1680465532e+00	-2.2040083836e+00
 4.3918197341e-01	 1.1769805677e+00	-2.2795085496e+00
 4.1587329634e-01	 1.1854170000e+00	-2.3365755733e+00
 3.9250807761e-01	 1.1933572271e+00	-2.3766761261e+00
 3.6910124675e-01	 1.2008032029e+00	-2.4012237590e+00
 3.4566750740e-01	 1.2077574412e+00	-2.4115672290e+00
 3.2222131321e-01	 1.2142229975e+00	-2.4089801539e+00
 2.9877684519e-01	 1.2202034499e+00	-2.3946520287e+00
 2.7534799054e-01	 1.2257028786e+00	-2.3696806210e+00
 2.5194832297e-01	 1.2307258448e+00	-2.3350657425e+00
 2.2859108459e-01	 1.2352773691e+00	-2.2917043820e+00
 4.6471957083e-01	 1.1738577301e+00	-2.1872475494e+00
 4.4136695835e-01	 1.1828361924e+00	-2.2515870246e+00
 4.1794231771e-01	 1.1913145970e+00	-2.2935502175e+00
 3.9446085411e-01	 1.1992943277e+00	-2.3145425082e+00
 3.7093757136e-01	 1.2067773482e+00	-2.3159325505e+00
 3.4738724624e-01	 1.2137661847e+00	-2.2990401751e+00
 3.2382440431e-01	 1.2202639080e+00	-2.2651255622e+00
 3.0026329715e-01	 1.2262741139e+00	-2.2153797262e+00
 2.7671788103e-01	 1.2318009029e+00	-2.1509163303e+00
 2.5320179721e-01	 1.2368488589e+00	-2.0727648397e+00
 2.2972835366e-01	 1.2414230276e+00	-1.9818649993e+00
 4.6702016276e-01	 1.1796689070e+00	-2.1753528281e+00
 4.4355194329e-01	 1.1886918171e+00	-2.2276569283e+00
 4.2001133908e-01	 1.1972121940e+00	-2.2536942880e+00
 3.9641363061e-01	 1.2052314284e+00	-2.2548102230e+00
 3.7277389596e-01	 1.2127514935e+00	-2.2323295474e+00
 3.4910698507e-01	 1.2197749282e+00	-2.1875440515e+00
 3.2542749542e-01	 1.2263048184e+00	-2.1217011953e+00
 3.0174974911e-01	 1.2323447778e+00	-2.0359940594e+00
 2.7808777153e-01	 1.2378989271e+00	-1.9315525848e+00
 2.5445527144e-01	 1.2429718731e+00	-1.8094361075e+00
 2.3086562273e-01	 1.2475686862e+00	-1.6706271864e+00
 4.6932075469e-01	 1.1854800839e+00	-2.1682703938e+00
 4.4573692823e-01	 1.1945474418e+00	-2.2076743639e+00
 4.2208036045e-01	 1.2031097910e+00	-2.2169731254e+00
 3.9836640711e-01	 1.2111685290e+00	-2.1974531523e+00
 3.7461022057e-01	 1.2187256388e+00	-2.1503964726e+00
 3.5082672391e-01	 1.2257836717e+00	-2.0770677216e+00
 3.2703058652e-01	 1.2323457289e+00	-1.9787023547e+00
 3.0323620107e-01	 1.2384154417e+00	-1.8564960690e+00
 2.7945766202e-01	 1.2439969514e+00	-1.7115954668e+00
 2.5570874568e-01	 1.2490948873e+00	-1.5450899775e+00
 2.3200289181e-01	 1.2537143447e+00	-1.5955584009e+00
 4.7162134663e-01	 1.1912912607e+00	-2.1659477501e+00
 4.4792191317e-01	 1.2004030666e+00	-2.1915965493e+00
 4.2414938182e-01	 1.2090073881e+00	-2.1833529843e+00
 4.0031918362e-01	 1.2171056296e+00	-2.1424459051e+00
 3.7644654518e-01	 1.2246997841e+00	-2.0701156040e+00
 3.5254646275e-01	 1.2317924152e+00	-1.9676004447e+00
 3.2863367763e-01	 1.2383866393e+00	-1.8361245947e+00
 3.0472265304e-01	 1.2444861057e+00	-1.6768869181e+00
 2.8082755252e-01	 1.2500949757e+00	-1.4972600212e+00
 2.5696221992e-01	 1.2552179014e+00	-1.6178252324e+00
 2.3314016088e-01	 1.2598600033e+00	-1.6759517386e+00
 4.7392193856e-01	 1.1971024376e+00	-2.1683336985e+00
 4.5010689811e-01	 1.2062586913e+00	-2.1793817903e+00
 4.2621840319e-01	 1.2149049851e+00	-2.1528010112e+00
 4.0227196012e-01	 1.2230427303e+00	-2.0897637997e+00
 3.7828286978e-01	 1.2306739294e+00	-1.9914697603e+00
 3.5426620159e-01	 1.2378011587e+00	-1.8591318668e+00
 3.3023676874e-01	 1.2444275497e+00	-1.6939637155e+00
 3.0620910500e-01	 1.2505567696e+00	-1.5338856565e+00
 2.8219744302e-01	 1.2561930000e+00	-1.6755544996e+00
 2.5821569417e-01	 1.2613409156e+00	-1.7496839326e+00
 2.3427742996e-01	 1.2660056618e+00	-1.7566460237e+00
 4.7622253049e-01	 1.2029136145e+00	-2.1753783063e+00
 4.5229188305e-01	 1.2121143160e+00	-2.1709894544e+00
 4.2828742457e-01	 1.2208025821e+00	-2.1252852228e+00
 4.0422473662e-01	 1.2289798309e+00	-2.0393828469e+00
 3.8011919439e-01	 1.2366480747e+00	-1.9144422881e+00
 3.5598594043e-01	 1.2438099022e+00	-1.7516520111e+00
 3.3183985985e-01	 1.2504684602e+00	-1.5833124068e+00
 3.0769555696e-01	 1.2566274335e+00	-1.7551723026e+00
 2.8356733352e-01	 1.2622910242e+00	-1.8547757809e+00
 2.5946916841e-01	 1.2674639297e+00	-1.8821377679e+00
 2.3541469903e-01	 1.2721513204e+00	-1.8376454481e+00
 4.7852312242e-01	 1.2087247914e+00	-2.1870328766e+00
 4.5447686799e-01	 1.2179699407e+00	-2.1663799451e+00
 4.3035644594e-01	 1.2267001791e+00	-2.1007744851e+00
 4.0617751312e-01	 1.2349169315e+00	-1.9912797332e+00
 3.8195551900e-01	 1.2426222199e+00	-1.8390170497e+00
 3.5770567927e-01	 1.2498186456e+00	-1.6451512690e+00
 3.3344295096e-01	 1.2565093706e+00	-1.8436640829e+00
 3.0918200893e-01	 1.2626980975e+00	-1.9777470008e+00
 2.8493722402e-01	 1.2683890485e+00	-2.0349175742e+00
 2.6072264265e-01	 1.2735869439e+00	-2.0151859644e+00
 2.3655196811e-01	 1.2782969789e+00	-1.9189540369e+00
 4.8082371435e-01	 1.2145359683e+00	-2.2032499186e+00
 4.5666185293e-01	 1.2238255654e+00	-2.1655146769e+00
 4.3242546731e-01	 1.2325977761e+00	-2.0792384932e+00
 4.0813028963e-01	 1.2408540322e+00	-1.9454318047e+00
 3.8379184361e-01	 1.2485963652e+00	-1.7651784099e+00
 3.5942541811e-01	 1.2558273891e+00	-1.9286800781e+00
 3.3504604207e-01	 1.2625502811e+00	-2.1056938543e+00
 3.1066846089e-01	 1.2687687614e+00	-2.2015973348e+00
 2.8630711452e-01	 1.2744870728e+00	-2.2159735955e+00
 2.6197611690e-01	 1.2797099580e+00	-2.1488276638e+00
 2.3768923719e-01	 1.2844426375e+00	-2.0005756521e+00
 4.8312430629e-01	 1.2203471452e+00	-2.2239831189e+00
 4.5884683787e-01	 1.2296811901e+00	-2.1683560520e+00
 4.3449448869e-01	 1.2384953731e+00	-2.0606477514e+00
 4.1008306613e-01	 1.2467911328e+00	-1.9018170512e+00
 3.8562816822e-01	 1.2545705105e+00	-1.9986411217e+00
 3.6114515696e-01	 1.2618361326e+00	-2.2263949906e+00
 3.3664913318e-01	 1.2685911915e+00	-2.3693826897e+00
 3.1215491286e-01	 1.2748394253e+00	-2.4267109971e+00
 2.8767700502e-01	 1.2805850970e+00	-2.3979375674e+00
 2.6322959114e-01	 1.2858329722e+00	-2.2830619252e+00
 2.3882650627e-01	 1.2905882961e+00	-2.0825139970e+00
 2.2745381552e-01	 1.2291317105e+00	-2.6001310556e+00
 2.0426783021e-01	 1.2331969241e+00	-2.7103819944e+00
 1.8114936128e-01	 1.2368043131e+00	-2.7889169192e+00
 1.5811050247e-01	 1.2399601078e+00	-2.8368036123e+00
 1.3516296103e-01	 1.2426709033e+00	-2.8550688459e+00
 1.1231804737e-01	 1.2449436358e+00	-2.8446945147e+00
 8.9586666336e-02	 1.2467855586e+00	-2.8066147060e+00
 6.6979309859e-02	 1.2482042189e+00	-2.7417136557e+00
 4.4506051105e-02	 1.2492074333e+00	-2.6508245289e+00
 2.2176539980e-02	 1.2498032649e+00	-2.5347289636e+00
 0.0000000000e+00	 1.2500000000e+00	-2.3941573083e+00
 2.2859108459e-01	 1.2352773691e+00	-2.2917043820e+00
 2.0528916936e-01	 1.2393629087e+00	-2.3576904807e+00
 1.8205510808e-01	 1.2429883347e+00	-2.4005541462e+00
 1.5890105498e-01	 1.2461599084e+00	-2.4214087779e+00
 1.3583877583e-01	 1.2488842578e+00	-2.4212957058e+00
 1.1287963760e-01	 1.2511683539e+00	-2.4691796586e+00
 9.0034599664e-02	 1.2530194864e+00	-2.5334429020e+00
 6.7314206406e-02	 1.2544452400e+00	-2.5501589948e+00
 4.4728581358e-02	 1.2554534705e+00	-2.5219680006e+00
 2.2287422679e-02	 1.2560522813e+00	-2.4516751153e+00
 0.0000000000e+00	 1.2562500000e+00	-2.3422316979e+00
 2.2972835366e-01	 1.2414230276e+00	-1.9818649993e+00
 2.0631050850e-01	 1.2455288933e+00	-2.0043744821e+00
 1.8296085488e-01	 1.2491723562e+00	-2.0122828542e+00
 1.5969160749e-01	 1.2523597089e+00	-2.1502785500e+00
 1.3651459063e-01	 1.2550976124e+00	-2.2928557662e+00
 1.1344122784e-01	 1.2573930721e+00	-2.3908141961e+00
 9.0482532993e-02	 1.2592534142e+00	-2.4463775103e+00
 6.7649102953e-02	 1.2606862611e+00	-2.4619501583e+00
 4.4951111612e-02	 1.2616995076e+00	-2.4401000958e+00
 2.2398305378e-02	 1.2623012976e+00	-2.3835411761e+00
 0.0000000000e+00	 1.2625000000e+00	-2.2951153507e+00
 2.3086562273e-01	 1.2475686862e+00	-1.6706271864e+00
 2.0733184765e-01	 1.2516948779e+00	-1.7571912223e+00
 1.8386660168e-01	 1.2553563778e+00	-1.9563849399e+00
 1.6048216000e-01	 1.2585595094e+00	-2.1146668018e+00
 1.3719040543e-01	 1.2613109669e+00	-2.2338654878e+00
 1.1400281807e-01	 1.2636177903e+00	-2.3159999808e+00
 9.0930466323e-02	 1.2654873420e+00	-2.3632644448e+00
 6.7983999501e-02	 1.2669272822e+00	-2.3780125078e+00
 4.5173641867e-02	 1.2679455448e+00	-2.3627410938e+00
 2.2509188077e-02	 1.2685503139e+00	-2.3200739499e+00
 0.0000000000e+00	 1.2687500000e+00	-2.2527450051e+00
 2.3200289181e-01	 1.2537143447e+00	-1.5955584009e+00
 2.0835318680e-01	 1.2578608625e+00	-1.7921078677e+00
 1.8477234849e-01	 1.2615403994e+00	-1.9535425532e+00
 1.6127271251e-01	 1.2647593100e+00	-2.0815272207e+00
 1.3786622024e-01	 1.2675243214e+00	-2.1779071555e+00
 1.1456440831e-01	 1.2698425085e+00	-2.2446947428e+00
 9.1378399653e-02	 1.2717212698e+00	-2.2840553559e+00
 6.8318896049e-02	 1.2731683033e+00	-2.2982926945e+00
 4.5396172122e-02	 1.2741915820e+00	-2.2898337123e+00
 2.2620070777e-02	 1.2747993302e+00	-2.2612132693e+00
 0.0000000000e+00	 1.2750000000e+00	-2.2150586400e+00
 2.3314016088e-01	 1.2598600033e+00	-1.6759517386e+00
 2.0937452595e-01	 1.2640268472e+00	-1.8281201039e+00
 1.8567809529e-01	 1.2677244209e+00	-1.9525121275e+00
 1.6206326502e-01	 1.2709591105e+00	-2.0508334592e+00
 1.3854203504e-01	 1.2737376759e+00	-2.1249463158e+00
 1.1512599854e-01	 1.2760672267e+00	-2.1768570050e+00
 9.1826332983e-02	 1.2779551976e+00	-2.2087028138e+00
 6.8653792598e-02	 1.2794093244e+00	-2.2227383942e+00
 4.5618702377e-02	 1.2804376191e+00	-2.2213217764e+00
 2.2730953476e-02	 1.2810483466e+00	-2.2069001368e+00
 0.0000000000e+00	 1.2812500000e+00	-2.1819954447e+00
 2.3427742996e-01	 1.2660056618e+00	-1.7566460237e+00
 2.1039586510e-01	 1.2701928318e+00	-1.8652211324e+00
 1.8658384210e-01	 1.2739084425e+00	-1.9532767822e+00
 1.6285381753e-01	 1.2771589111e+00	-2.0225596297e+00
 1.3921784984e-01	 1.2799510304e+00	-2.0749491431e+00
 1.1568758878e-01	 1.2822919448e+00	-2.1124460634e+00
 9.2274266315e-02	 1.2841891254e+00	-2.1371602856e+00
 6.8988689147e-02	 1.2856503455e+00	-2.1512982822e+00
 4.5841232632e-02	 1.2866836563e+00	-2.1571501922e+00
 2.2841836176e-02	 1.2872973629e+00	-2.1570766958e+00
 0.0000000000e+00	 1.2875000000e+00	-2.1534957890e+00
 2.3541469903e-01	 1.2721513204e+00	-1.8376454481e+00
 2.1141720425e-01	 1.2763588164e+00	-1.9034042120e+00
 1.8748958890e-01	 1.2800924641e+00	-1.9558199009e+00
 1.6364437004e-01	 1.2833587116e+00	-1.9966802940e+00
 1.3989366465e-01	 1.2861643849e+00	-2.0278824241e+00
 1.1624917902e-01	 1.2885166630e+00	-2.0514219686e+00
 9.2722199647e-02	 1.2904230532e+00	-2.0693821141e+00
 6.9323585696e-02	 1.2918913665e+00	-2.0839220091e+00
 4.6063762888e-02	 1.2929296935e+00	-2.0972649202e+00
 2.2952718876e-02	 1.2935463792e+00	-2.1116862029e+00
 0.0000000000e+00	 1.2937500000e+00	-2.1295011952e+00
 2.3655196811e-01	 1.2782969789e+00	-1.9189540369e+00
 2.1243854340e-01	 1.2825248010e+00	-1.9426626575e+00
 1.8839533571e-01	 1.2862764856e+00	-1.9601251246e+00
 1.6443492256e-01	 1.2895585121e+00	-1.9731704518e+00
 1.4056947946e-01	 1.2923777395e+00	-1.9837135435e+00
 1.1681076925e-01	 1.2947413812e+00	-1.9937455079e+00
 9.3170132980e-02	 1.2966569810e+00	-2.0053234964e+00
 6.9658482246e-02	 1.2981323876e+00	-2.0205601776e+00
 4.6286293144e-02	 1.2991757306e+00	-2.0416129504e+00
 2.3063601577e-02	 1.2997953955e+00	-2.0706730018e+00
 0.0000000000e+00	 1.3000000000e+00	-2.1099543100e+00
 2.3768923719e-01	 1.2844426375e+00	-2.0005756521e+00
 2.1345988255e-01	 1.2886907857e+00	-1.9829898384e+00
 1.8930108252e-01	 1.2924605072e+00	-1.9661763459e+00
 1.6522547507e-01	 1.2957583127e+00	-1.9520055308e+00
 1.4124529426e-01	 1.2985910940e+00	-1.9424104695e+00
 1.1737235949e-01	 1.3009660994e+00	-1.9393781872e+00
 9.3618066313e-02	 1.3028909088e+00	-1.9449404638e+00
 6.9993378797e-02	 1.3043734087e+00	-1.9611643197e+00
 4.6508823401e-02	 1.3054217678e+00	-1.9901422772e+00
 2.3174484277e-02	 1.3060444119e+00	-2.0339824966e+00
 0.0000000000e+00	 1.3062500000e+00	-2.0947988779e+00
 2.3882650627e-01	 1.2905882961e+00	-2.0825139970e+00
 2.1448122170e-01	 1.2948567703e+00	-2.0243791773e+00
 1.9020682933e-01	 1.2986445288e+00	-1.9739577032e+00
 1.6601602758e-01	 1.3019581132e+00	-1.9331613762e+00
 1.4192110907e-01	 1.3048044485e+00	-1.9039417399e+00
 1.1793394973e-01	 1.3071908176e+00	-1.8882822144e+00
 9.4065999647e-02	 1.3091248366e+00	-1.8881898616e+00
 7.0328275348e-02	 1.3106144298e+00	-1.9056868741e+00
 4.6731353657e-02	 1.3116678050e+00	-1.9428018759e+00
 2.3285366978e-02	 1.3122934282e+00	-2.0015611271e+00
 0.0000000000e+00	 1.3125000000e+00	-2.0839797148e+00
 1.3125000000e+00	 0.0000000000e+00	 3.6003701562e+00
 1.3122934282e+00	 2.3285366978e-02	 3.5701103431e+00
 1.3116678050e+00	 4.6731353657e-02	 3.5462757989e+00
 1.3106144298e+00	 7.0328275348e-02	 3.5267429087e+00
 1.3091248366e+00	 9.4065999647e-02	 3.5095001706e+00
 1.3071908176e+00	 1.1793394973e-01	 3.4926637922e+00
 1.3048044485e+00	 1.4192110907e-01	 3.4744927345e+00
 1.3019581132e+00	 1.6601602758e-01	 3.4534030273e+00
 1.2986445288e+00	 1.9020682933e-01	 3.4279811746e+00
 1.2948567703e+00	 2.1448122170e-01	 3.3969964722e+00
 1.2905882961e+00	 2.3882650627e-01	 3.3594120548e+00
 1.3187500000e+00	 0.0000000000e+00	 3.5934018616e+00
 1.3185424445e+00	 2.3396249678e-02	 3.5700466377e+00
 1.3179138421e+00	 4.6953883914e-02	 3.5506074546e+00
 1.3168554509e+00	 7.0663171899e-02	 3.5329360624e+00
 1.3153587644e+00	 9.4513932981e-02	 3.5150070793e+00
 1.3134155357e+00	 1.1849553997e-01	 3.4949341896e+00
 1.3110178030e+00	 1.4259692388e-01	 3.4709857555e+00
 1.3081579138e+00	 1.6680658010e-01	 3.4415996593e+00
 1.3048285503e+00	 1.9111257614e-01	 3.4053971915e+00
 1.3010227549e+00	 2.1550256086e-01	 3.3611957971e+00
 1.2967339546e+00	 2.3996377535e-01	 3.3080204947e+00
 1.3250000000e+00	 0.0000000000e+00	 3.5871153890e+00
 1.3247914608e+00	 2.3507132379e-02	 3.5709204547e+00
 1.3241598793e+00	 4.7176414171e-02	 3.5561469006e+00
 1.3230964720e+00	 7.0998068450e-02	 3.5406218357e+00
 1.3215926922e+00	 9.4961866314e-02	 3.5223059934e+00
 1.3196402539e+00	 1.1905713021e-01	 3.4993105298e+00
 1.3172311575e+00	 1.4327273869e-01	 3.4699132041e+00
 1.3143577143e+00	 1.6759713261e-01	 3.4325737485e+00
 1.3110125719e+00	 1.9201832295e-01	 3.3859482391e+00
 1.3071887395e+00	 2.1652390001e-01	 3.3289022707e+00
 1.3028796132e+00	 2.4110104443e-01	 3.2605227479e+00
 1.3312500000e+00	 0.0000000000e+00	 3.5814957496e+00
 1.3310404772e+00	 2.3618015079e-02	 3.5727138291e+00
 1.3304059165e+00	 4.7398944427e-02	 3.5628727920e+00
 1.3293374931e+00	 7.1332965000e-02	 3.5497750985e+00
 1.3278266199e+00	 9.5409799647e-02	 3.5313675888e+00
 1.3258649721e+00	 1.1961872045e-01	 3.5057588851e+00
 1.3234445120e+00	 1.4394855349e-01	 3.4712361395e+00
 1.3205575148e+00	 1.6838768513e-01	 3.4262809327e+00
 1.3171965935e+00	 1.9292406975e-01	 3.3695841270e+00
 1.3133547241e+00	 2.1754523916e-01	 3.3000594713e+00
 1.3090252717e+00	 2.4223831351e-01	 3.2168557623e+00
 1.3375000000e+00	 0.0000000000e+00	 3.5765282350e+00
 1.3372894935e+00	 2.3728897779e-02	 3.5754091264e+00
 1.3366519536e+00	 4.7621474683e-02	 3.5707641720e+00
 1.3355785142e+00	 7.1667861550e-02	 3.5603711709e+00
 1.3340605477e+00	 9.5857732979e-02	 3.5421630608e+00
 1.3320896903e+00	 1.2018031069e-01	 3.5142459227e+00
 1.3296578666e+00	 1.4462436830e-01	 3.4749162973e+00
 1.3267573154e+00	 1.6917823764e-01	 3.4226776135e+00
 1.3233806150e+00	 1.9382981656e-01	 3.3562555226e+00
 1.3195207088e+00	 2.1856657832e-01	 3.2746119347e+00
 1.3151709303e+00	 2.4337558259e-01	 3.1769575496e+00
 1.3437500000e+00	 0.0000000000e+00	 3.5721984100e+00
 1.3435385098e+00	 2.3839780479e-02	 3.5789890356e+00
 1.3428979908e+00	 4.7844004938e-02	 3.5798004621e+00
 1.3418195353e+00	 7.2002758099e-02	 3.5723858132e+00
 1.3402944755e+00	 9.6305666311e-02	 3.5546641124e+00
 1.3383144084e+00	 1.2074190092e-01	 3.5247388908e+00
 1.3358712211e+00	 1.4530018310e-01	 3.4809160739e+00
 1.3329571159e+00	 1.6996879015e-01	 3.4217209386e+00
 1.3295646366e+00	 1.9473556337e-01	 3.3459139311e+00
 1.3256866934e+00	 2.1958791747e-01	 3.2525051322e+00
 1.3213165888e+00	 2.4451285167e-01	 3.1407671606e+00
 1.3500000000e+00	 0.0000000000e+00	 3.5684921072e+00
 1.3497875261e+00	 2.3950663179e-02	 3.5834365612e+00
 1.3491440280e+00	 4.8066535194e-02	 3.5899614538e+00
 1.3480605564e+00	 7.2337654648e-02	 3.5857952156e+00
 1.3465284033e+00	 9.6753599642e-02	 3.5688429420e+00
 1.3445391266e+00	 1.2130349116e-01	 3.5372056052e+00
 1.3420845756e+00	 1.4597599791e-01	 3.4891985106e+00
 1.3391569165e+00	 1.7075934267e-01	 3.4233687848e+00
 1.3357486582e+00	 1.9564131017e-01	 3.3385116757e+00
 1.3318526780e+00	 2.2060925662e-01	 3.2336854488e+00
 1.3274622474e+00	 2.4565012074e-01	 3.1082246608e+00
 1.3562500000e+00	 0.0000000000e+00	 3.5653954199e+00
 1.3560365425e+00	 2.4061545878e-02	 3.5887350160e+00
 1.3553900651e+00	 4.8289065449e-02	 3.6012272997e+00
 1.3543015775e+00	 7.2672551197e-02	 3.6005759882e+00
 1.3527623311e+00	 9.7201532973e-02	 3.5846722327e+00
 1.3507638448e+00	 1.2186508139e-01	 3.5516144359e+00
 1.3482979301e+00	 1.4665181271e-01	 3.4997272793e+00
 1.3453567170e+00	 1.7154989518e-01	 3.4275797408e+00
 1.3419326797e+00	 1.9654705698e-01	 3.3340018795e+00
 1.3380186626e+00	 2.2163059577e-01	 3.2181001620e+00
 1.3336079059e+00	 2.4678738982e-01	 3.0792711070e+00
 1.3625000000e+00	 0.0000000000e+00	 3.5628946970e+00
 1.3622855588e+00	 2.4172428578e-02	 3.5948680143e+00
 1.3616361023e+00	 4.8511595703e-02	 3.6135785057e+00
 1.3605425986e+00	 7.3007447745e-02	 3.6167051513e+00
 1.3589962589e+00	 9.7649466303e-02	 3.6021251406e+00
 1.3569885630e+00	 1.2242667163e-01	 3.5679342952e+00
 1.3545112846e+00	 1.4732762752e-01	 3.5124666677e+00
 1.3515565175e+00	 1.7234044769e-01	 3.4343130911e+00
 1.3481167013e+00	 1.9745280378e-01	 3.3323384467e+00
 1.3441846472e+00	 2.2265193492e-01	 3.2056974217e+00
 1.3397535645e+00	 2.4792465890e-01	 3.0538485249e+00
 1.3687500000e+00	 0.0000000000e+00	 3.5609765364e+00
 1.3685345751e+00	 2.4283311277e-02	 3.6018194647e+00
 1.3678821395e+00	 4.8734125957e-02	 3.6269959224e+00
 1.3667836197e+00	 7.3342344292e-02	 3.6341601264e+00
 1.3652301867e+00	 9.8097399632e-02	 3.6211752844e+00
 1.3632132812e+00	 1.2298826186e-01	 3.5861346242e+00
 1.3607246391e+00	 1.4800344232e-01	 3.5273815656e+00
 1.3577563181e+00	 1.7313100020e-01	 3.4435288001e+00
 1.3543007228e+00	 1.9835855059e-01	 3.3334760448e+00
 1.3503506319e+00	 2.2367327407e-01	 3.1964262300e+00
 1.3458992230e+00	 2.4906192797e-01	 3.0318998870e+00
 1.3750000000e+00	 0.0000000000e+00	 3.5596277798e+00
 1.3747835914e+00	 2.4394193976e-02	 3.6095735638e+00
 1.3741281766e+00	 4.8956656211e-02	 3.6414607378e+00
 1.3730246408e+00	 7.3677240839e-02	 3.6529187266e+00
 1.3714641145e+00	 9.8545332961e-02	 3.6417967343e+00
 1.3694379993e+00	 1.2354985210e-01	 3.6061853818e+00
 1.3669379937e+00	 1.4867925712e-01	 3.5444374507e+00
 1.3639561186e+00	 1.7392155271e-01	 3.4551874966e+00
 1.3604847444e+00	 1.9926429739e-01	 3.3373700872e+00
 1.3565166165e+00	 2.2469461322e-01	 3.1902364219e+00
 1.3520448816e+00	 2.5019919705e-01	 3.0133690905e+00
 1.2905882961e+00	 2.3882650627e-01	 3.3594120548e+00
 1.2858329722e+00	 2.6322959114e-01	 3.4432384302e+00
 1.2805850970e+00	 2.8767700502e-01	 3.4448391181e+00
 1.2748394253e+00	 3.1215491286e-01	 3.3649009954e+00
 1.2685911915e+00	 3.3664913318e-01	 3.2046314021e+00
 1.2618361326e+00	 3.6114515696e-01	 2.9657657940e+00
 1.2545705105e+00	 3.8562816822e-01	 2.6505719093e+00
 1.2467911328e+00	 4.1008306613e-01	 2.4514923882e+00
 1.2384953731e+00	 4.3449448869e-01	 2.4756143018e+00
 1.2296811901e+00	 4.5884683787e-01	 2.4493964021e+00
 1.2203471452e+00	 4.8312430629e-01	 2.3714631689e+00
 1.2967339546e+00	 2.3996377535e-01	 3.3080204947e+00
 1.2919559863e+00	 2.6448306539e-01	 3.3867533059e+00
 1.2866831213e+00	 2.8904689552e-01	 3.3891435312e+00
 1.2809100893e+00	 3.1364136483e-01	 3.3158559299e+00
 1.2746321019e+00	 3.3825222429e-01	 3.1680579717e+00
 1.2678448761e+00	 3.6286489580e-01	 2.9474269118e+00
 1.2605446558e+00	 3.8746449283e-01	 2.6561534306e+00
 1.2527282334e+00	 4.1203584264e-01	 2.2969416629e+00
 1.2443929702e+00	 4.3656351006e-01	 2.2001261512e+00
 1.2355368149e+00	 4.6103182281e-01	 2.2199809151e+00
 1.2261583220e+00	 4.8542489822e-01	 2.1939364696e+00
 1.3028796132e+00	 2.4110104443e-01	 3.2605227479e+00
 1.2980790005e+00	 2.6573653963e-01	 3.3335171943e+00
 1.2927811456e+00	 2.9041678602e-01	 3.3359843693e+00
 1.2869807532e+00	 3.1512781680e-01	 3.2685674307e+00
 1.2806730124e+00	 3.3985531540e-01	 3.1323947013e+00
 1.2738536196e+00	 3.6458463464e-01	 2.9290861680e+00
 1.2665188011e+00	 3.8930081744e-01	 2.6607565988e+00
 1.2586653341e+00	 4.1398861914e-01	 2.3300151034e+00
 1.2502905672e+00	 4.3863253143e-01	 1.9399610002e+00
 1.2413924396e+00	 4.6321680775e-01	 1.9880024560e+00
 1.2319694989e+00	 4.8772549015e-01	 2.0128294506e+00
 1.3090252717e+00	 2.4223831351e-01	 3.2168557623e+00
 1.3042020146e+00	 2.6699001388e-01	 3.2834747526e+00
 1.2988791699e+00	 2.9178667652e-01	 3.2853147725e+00
 1.2930514171e+00	 3.1661426876e-01	 3.2229978957e+00
 1.2867139228e+00	 3.4145840651e-01	 3.0976140197e+00
 1.2798623631e+00	 3.6630437349e-01	 2.9107267942e+00
 1.2724929464e+00	 3.9113714205e-01	 2.6643762151e+00
 1.2646024347e+00	 4.1594139565e-01	 2.3610777200e+00
 1.2561881642e+00	 4.4070155281e-01	 2.0038176487e+00
 1.2472480643e+00	 4.6540179269e-01	 1.7535149819e+00
 1.2377806758e+00	 4.9002608208e-01	 1.8282129471e+00
 1.3151709303e+00	 2.4337558259e-01	 3.1769575496e+00
 1.3103250288e+00	 2.6824348812e-01	 3.2365715385e+00
 1.3049771941e+00	 2.9315656703e-01	 3.2370886024e+00
 1.2991220811e+00	 3.1810072073e-01	 3.1791102487e+00
 1.2927548332e+00	 3.4306149762e-01	 3.0636886717e+00
 1.2858711066e+00	 3.6802411233e-01	 2.8923321116e+00
 1.2784670917e+00	 3.9297346666e-01	 2.6670069296e+00
 1.2705395353e+00	 4.1789417215e-01	 2.3901362372e+00
 1.2620857612e+00	 4.4277057418e-01	 2.0645949523e+00
 1.2531036890e+00	 4.6758677763e-01	 1.6937011830e+00
 1.2435918527e+00	 4.9232667402e-01	 1.6401565279e+00
 1.3213165888e+00	 2.4451285167e-01	 3.1407671606e+00
 1.3164480429e+00	 2.6949696237e-01	 3.1927539892e+00
 1.3110752184e+00	 2.9452645753e-01	 3.1912604248e+00
 1.3051927450e+00	 3.1958717270e-01	 3.1368679279e+00
 1.2987957437e+00	 3.4466458873e-01	 3.0305917104e+00
 1.2918798501e+00	 3.6974385117e-01	 2.8738855294e+00
 1.2844412370e+00	 3.9480979127e-01	 2.6686432439e+00
 1.2764766360e+00	 4.1984694866e-01	 2.4171969808e+00
 1.2679833582e+00	 4.4483959556e-01	 2.1223117851e+00
 1.2589593137e+00	 4.6977176257e-01	 1.7871766626e+00
 1.2494030296e+00	 4.9462726595e-01	 1.4487285249e+00
 1.3274622474e+00	 2.4565012074e-01	 3.1082246608e+00
 1.3225710571e+00	 2.7075043661e-01	 3.1519694006e+00
 1.3171732427e+00	 2.9589634803e-01	 3.1477854937e+00
 1.3112634089e+00	 3.2107362466e-01	 3.0962348736e+00
 1.3048366541e+00	 3.4626767984e-01	 2.9982964905e+00
 1.2978885936e+00	 3.7146359002e-01	 2.8553705423e+00
 1.2904153822e+00	 3.9664611589e-01	 2.6692795153e+00
 1.2824137366e+00	 4.2179972516e-01	 2.4422658874e+00
 1.2738809552e+00	 4.4690861693e-01	 2.1769863724e+00
 1.2648149384e+00	 4.7195674752e-01	 1.8765026210e+00
 1.2552142064e+00	 4.9692785789e-01	 1.5442683251e+00
 1.3336079059e+00	 2.4678738982e-01	 3.0792711070e+00
 1.3286940713e+00	 2.7200391085e-01	 3.1141659080e+00
 1.3232712669e+00	 2.9726623853e-01	 3.1066197351e+00
 1.3173340728e+00	 3.2256007663e-01	 3.0571755166e+00
 1.3108775645e+00	 3.4787077095e-01	 2.9667766611e+00
 1.3038973370e+00	 3.7318332886e-01	 2.8367707290e+00
 1.2963895275e+00	 3.9848244050e-01	 2.6689099600e+00
 1.2883508372e+00	 4.2375250167e-01	 2.4653485132e+00
 1.2797785522e+00	 4.4897763831e-01	 2.2286363066e+00
 1.2706705631e+00	 4.7414173246e-01	 1.9617093736e+00
 1.2610253833e+00	 4.9922844982e-01	 1.6678766921e+00
 1.3397535645e+00	 2.4792465890e-01	 3.0538485249e+00
 1.3348170854e+00	 2.7325738510e-01	 3.0792924665e+00
 1.3293692912e+00	 2.9863612903e-01	 3.0677197321e+00
 1.3234047368e+00	 3.2404652860e-01	 3.0196547672e+00
 1.3169184750e+00	 3.4947386206e-01	 2.9360061587e+00
 1.3099060805e+00	 3.7490306770e-01	 2.8180697499e+00
 1.3023636728e+00	 4.0031876511e-01	 2.6675286560e+00
 1.2942879379e+00	 4.2570527818e-01	 2.4864500428e+00
 1.2856761493e+00	 4.5104665968e-01	 2.2772785607e+00
 1.2765261878e+00	 4.7632671740e-01	 2.0428263560e+00
 1.2668365602e+00	 5.0152904176e-01	 1.7862596214e+00
 1.3458992230e+00	 2.4906192797e-01	 3.0318998870e+00
 1.3409400996e+00	 2.7451085934e-01	 3.0472988325e+00
 1.3354673155e+00	 3.0000601953e-01	 3.0310427094e+00
 1.3294754007e+00	 3.2553298056e-01	 2.9836380041e+00
 1.3229593854e+00	 3.5107695318e-01	 2.9059592013e+00
 1.3159148240e+00	 3.7662280655e-01	 2.7992513455e+00
 1.3083378181e+00	 4.0215508972e-01	 2.6651295465e+00
 1.3002250385e+00	 4.2765805468e-01	 2.5055752976e+00
 1.2915737463e+00	 4.5311568106e-01	 2.3229295032e+00
 1.2823818126e+00	 4.7851170235e-01	 2.1198821444e+00
 1.2726477371e+00	 5.0382963369e-01	 1.8994585480e+00
 1.3520448816e+00	 2.5019919705e-01	 3.0133690905e+00
 1.3470631137e+00	 2.7576433358e-01	 3.0181355454e+00
 1.3415653397e+00	 3.0137591002e-01	 2.9965465191e+00
 1.3355460646e+00	 3.2701943253e-01	 2.9490910638e+00
 1.3290002958e+00	 3.5268004429e-01	 2.8766102814e+00
 1.3219235675e+00	 3.7834254539e-01	 2.7802993344e+00
 1.3143119634e+00	 4.0399141433e-01	 2.6617064431e+00
 1.3061621391e+00	 4.2961083119e-01	 2.5227287440e+00
 1.2974713433e+00	 4.5518470243e-01	 2.3656049114e+00
 1.2882374373e+00	 4.8069668729e-01	 2.1929044752e+00
 1.2784589139e+00	 5.0613022563e-01	 2.0075138055e+00
 1.2203471452e+00	 4.8312430629e-01	 2.3714631689e+00
 1.2104924186e+00	 5.0731090515e-01	 2.1771129603e+00
 1.2001168249e+00	 5.3139049356e-01	 1.9836138644e+00
 1.1892208255e+00	 5.5534680899e-01	 1.7871275389e+00
 1.1778055406e+00	 5.7916349892e-01	 1.5835779728e+00
 1.1658727590e+00	 6.0282415338e-01	 1.3686742141e+00
 1.1534249454e+00	 6.2631233846e-01	 1.1491519414e+00
 1.1404652469e+00	 6.4961163052e-01	 1.0894984239e+00
 1.1269974965e+00	 6.7270565105e-01	 9.9346358884e-01
 1.1130262144e+00	 6.9557810197e-01	 8.6344479841e-01
 1.0985566085e+00	 7.1821280130e-01	 7.0196150903e-01
 1.2261583220e+00	 4.8542489822e-01	 2.1939364696e+00
 1.2162566682e+00	 5.0972667136e-01	 2.0411518962e+00
 1.2058316669e+00	 5.3392092447e-01	 1.8840033103e+00
 1.1948837818e+00	 5.5799131760e-01	 1.7186642630e+00
 1.1834141384e+00	 5.8192142034e-01	 1.5410884203e+00
 1.1714245340e+00	 6.0569474458e-01	 1.3470327235e+00
 1.1589174451e+00	 6.2929477816e-01	 1.1671713857e+00
 1.1458960338e+00	 6.5270501924e-01	 1.1091663296e+00
 1.1323641512e+00	 6.7590901129e-01	 1.0097109239e+00
 1.1183263393e+00	 6.9889037865e-01	 8.7145951209e-01
 1.1037878304e+00	 7.2163286226e-01	 6.9721078051e-01
 1.2319694989e+00	 4.8772549015e-01	 2.0128294506e+00
 1.2220209178e+00	 5.1214243757e-01	 1.9023376723e+00
 1.2115465089e+00	 5.3645135539e-01	 1.7823288288e+00
 1.2005467381e+00	 5.6063582621e-01	 1.6489870304e+00
 1.1890227362e+00	 5.8467934176e-01	 1.4982940822e+00
 1.1769763091e+00	 6.0856533579e-01	 1.3260530819e+00
 1.1644099449e+00	 6.3227721787e-01	 1.1846085295e+00
 1.1513268207e+00	 6.5579840795e-01	 1.1291012089e+00
 1.1377308059e+00	 6.7911237153e-01	 1.0271233808e+00
 1.1236264641e+00	 7.0220265532e-01	 8.8158544767e-01
 1.1090190524e+00	 7.2505292322e-01	 6.9556426904e-01
 1.2377806758e+00	 4.9002608208e-01	 1.8282129471e+00
 1.2277851674e+00	 5.1455820379e-01	 1.7607336057e+00
 1.2172613509e+00	 5.3898178631e-01	 1.6786455057e+00
 1.2062096944e+00	 5.6328033482e-01	 1.5781419855e+00
 1.1946313341e+00	 5.8743726318e-01	 1.4552314579e+00
 1.1825280841e+00	 6.1143592699e-01	 1.3057614470e+00
 1.1699024446e+00	 6.3525965757e-01	 1.2014547180e+00
 1.1567576076e+00	 6.5889179667e-01	 1.1492808509e+00
 1.1430974607e+00	 6.8231573177e-01	 1.0456645161e+00
 1.1289265889e+00	 7.0551493199e-01	 8.9377127727e-01
 1.1142502743e+00	 7.2847298417e-01	 6.9695513470e-01
 1.2435918527e+00	 4.9232667402e-01	 1.6401565279e+00
 1.2335494171e+00	 5.1697397000e-01	 1.6164019037e+00
 1.2229761930e+00	 5.4151221723e-01	 1.5730074877e+00
 1.2118726507e+00	 5.6592484344e-01	 1.5061745191e+00
 1.2002399319e+00	 5.9019518460e-01	 1.4119364921e+00
 1.1880798591e+00	 6.1430651820e-01	 1.2861836344e+00
 1.1753949444e+00	 6.3824209728e-01	 1.2177011807e+00
 1.1621883945e+00	 6.6198518538e-01	 1.1696831682e+00
 1.1484641154e+00	 6.8551909202e-01	 1.0652982629e+00
 1.1342267138e+00	 7.0882720867e-01	 9.0796631413e-01
 1.1194814962e+00	 7.3189304513e-01	 7.0131745570e-01
 1.2494030296e+00	 4.9462726595e-01	 1.4487285249e+00
 1.2393136667e+00	 5.1938973621e-01	 1.4694036898e+00
 1.2286910350e+00	 5.4404264815e-01	 1.4654680045e+00
 1.2175356070e+00	 5.6856935205e-01	 1.4331292855e+00
 1.2058485297e+00	 5.9295310603e-01	 1.3684445874e+00
 1.1936316342e+00	 6.1717710940e-01	 1.2673451258e+00
 1.1808874441e+00	 6.4122453698e-01	 1.2333390340e+00
 1.1676191814e+00	 6.6507857410e-01	 1.1902861945e+00
 1.1538307702e+00	 6.8872245226e-01	 1.0859889217e+00
 1.1395268386e+00	 7.1213948535e-01	 9.2412049772e-01
 1.1247127182e+00	 7.3531310609e-01	 7.0858620700e-01
 1.2552142064e+00	 4.9692785789e-01	 1.5442683251e+00
 1.2450779163e+00	 5.2180550243e-01	 1.3197990288e+00
 1.2344058770e+00	 5.4657307907e-01	 1.3560793900e+00
 1.2231985633e+00	 5.7121386066e-01	 1.3590502200e+00
 1.2114571275e+00	 5.9571102745e-01	 1.3247906173e+00
 1.1991834092e+00	 6.2004770061e-01	 1.2492710768e+00
 1.1863799438e+00	 6.4420697669e-01	 1.2483592841e+00
 1.1730499683e+00	 6.6817196281e-01	 1.2110680817e+00
 1.1591974249e+00	 6.9192581250e-01	 1.1077011521e+00
 1.1448269634e+00	 7.1545176202e-01	 9.4218437922e-01
 1.1299439401e+00	 7.3873316705e-01	 7.1869723954e-01
 1.2610253833e+00	 4.9922844982e-01	 1.6678766921e+00
 1.2508421659e+00	 5.2422126864e-01	 1.2132887455e+00
 1.2401207190e+00	 5.4910351000e-01	 1.2448931032e+00
 1.2288615196e+00	 5.7385836928e-01	 1.2839805550e+00
 1.2170657253e+00	 5.9846894887e-01	 1.2810089382e+00
 1.2047351843e+00	 6.2291829182e-01	 1.2319863238e+00
 1.1918724436e+00	 6.4718941640e-01	 1.2627528293e+00
 1.1784807552e+00	 6.7126535153e-01	 1.2320070970e+00
 1.1645640797e+00	 6.9512917274e-01	 1.1303999640e+00
 1.1501270882e+00	 7.1876403870e-01	 9.6210910744e-01
 1.1351751621e+00	 7.4215322801e-01	 7.3158726008e-01
 1.2668365602e+00	 5.0152904176e-01	 1.7862596214e+00
 1.2566064155e+00	 5.2663703486e-01	 1.3697354144e+00
 1.2458355611e+00	 5.5163394092e-01	 1.1319597478e+00
 1.2345244760e+00	 5.7650287789e-01	 1.2079628366e+00
 1.2226743231e+00	 6.0122687030e-01	 1.2371334010e+00
 1.2102869593e+00	 6.2578888302e-01	 1.2202281375e+00
 1.1973649433e+00	 6.5017185611e-01	 1.2765104627e+00
 1.1839115421e+00	 6.7435874025e-01	 1.2530816207e+00
 1.1699307344e+00	 6.9833253299e-01	 1.1540507106e+00
 1.1554272131e+00	 7.2207631538e-01	 9.8384641510e-01
 1.1404063840e+00	 7.4557328897e-01	 7.4719381155e-01
 1.2726477371e+00	 5.0382963369e-01	 1.8994585480e+00
 1.2623706651e+00	 5.2905280108e-01	 1.5214468413e+00
 1.2515504031e+00	 5.5416437184e-01	 1.0983702332e+00
 1.2401874323e+00	 5.7914738651e-01	 1.1310389398e+00
 1.2282829209e+00	 6.0398479172e-01	 1.1931973631e+00
 1.2158387343e+00	 6.2865947423e-01	 1.2203399613e+00
 1.2028574431e+00	 6.5315429582e-01	 1.2896228742e+00
 1.1893423289e+00	 6.7745212897e-01	 1.2742701430e+00
 1.1752973892e+00	 7.0153589323e-01	 1.1786190794e+00
 1.1607273379e+00	 7.2538859205e-01	 1.0073486055e+00
 1.1456376060e+00	 7.4899334993e-01	 7.6545525400e-01
 1.2784589139e+00	 5.0613022563e-01	 2.0075138055e+00
 1.2681349147e+00	 5.3146856729e-01	 1.6684544614e+00
 1.2572652451e+00	 5.5669480277e-01	 1.2791748664e+00
 1.2458503886e+00	 5.8179189513e-01	 1.0532500843e+00
 1.2338915187e+00	 6.0674271315e-01	 1.1492336992e+00
 1.2213905094e+00	 6.3153006544e-01	 1.2190943601e+00
 1.2083499428e+00	 6.5613673552e-01	 1.3020806534e+00
 1.1947731158e+00	 6.8054551769e-01	 1.2955512620e+00
 1.1806640439e+00	 7.0473925348e-01	 1.2040710854e+00
 1.1660274627e+00	 7.2870086873e-01	 1.0325685397e+00
 1.1508688279e+00	 7.5241341089e-01	 7.8631074595e-01
 1.0985566085e+00	 7.1821280130e-01	 7.0196150903e-01
 1.0835945706e+00	 7.4059371898e-01	 4.9087175460e-01
 1.0681466723e+00	 7.6270501269e-01	 2.8680134651e-01
 1.0522201576e+00	 7.8453106360e-01	 9.1759622085e-02
 1.0358229336e+00	 8.0605651173e-01	-9.2306330754e-02
 1.0189635587e+00	 8.2726629087e-01	-2.6352884208e-01
 1.0016512289e+00	 8.4814566293e-01	-4.2013632009e-01
 9.8389576212e-01	 8.6868025140e-01	-5.6046922602e-01
 9.6570757980e-01	 8.8885607395e-01	-6.8299519283e-01
 9.4709768700e-01	 9.0865957386e-01	-7.8632312497e-01
 9.2807765027e-01	 9.2807765027e-01	-8.6921612712e-01
 1.1037878304e+00	 7.2163286226e-01	 6.9721078051e-01
 1.0887545447e+00	 7.4412035573e-01	 4.6884295286e-01
 1.0732330850e+00	 7.6633694132e-01	 2.5030127043e-01
 1.0572307298e+00	 7.8826692581e-01	 4.3635481188e-02
 1.0407554238e+00	 8.0989487607e-01	-1.4917781677e-01
 1.0238157661e+00	 8.3120565416e-01	-3.2625269006e-01
 1.0064209967e+00	 8.5218445180e-01	-4.8581081650e-01
 9.8858098004e-01	 8.7281682403e-01	-6.2619768282e-01
 9.7030618733e-01	 8.9308872192e-01	-7.4589785984e-01
 9.5160767598e-01	 9.1298652422e-01	-8.4354918998e-01
 9.3249706766e-01	 9.3249706766e-01	-9.1795573312e-01
 1.1090190524e+00	 7.2505292322e-01	 6.9556426904e-01
 1.0939145189e+00	 7.4764699249e-01	 4.4981073134e-01
 1.0783194978e+00	 7.6996886995e-01	 2.1666791222e-01
 1.0622413020e+00	 7.9200278802e-01	-1.7735349370e-03
 1.0456879139e+00	 8.1373324041e-01	-2.0350695621e-01
 1.0286679735e+00	 8.3514501745e-01	-3.8662756126e-01
 1.0111907644e+00	 8.5622324067e-01	-5.4934965919e-01
 9.9326619795e-01	 8.7695339666e-01	-6.9002308250e-01
 9.7490479485e-01	 8.9732136989e-01	-8.0714862213e-01
 9.5611766497e-01	 9.1731347457e-01	-8.9939230632e-01
 9.3691648504e-01	 9.3691648504e-01	-9.6559836741e-01
 1.1142502743e+00	 7.2847298417e-01	 6.9695513470e-01
 1.0990744930e+00	 7.5117362925e-01	 4.3370828337e-01
 1.0834059105e+00	 7.7360079859e-01	 1.8583486494e-01
 1.0672518742e+00	 7.9573865023e-01	-4.4533063973e-02
 1.0506204041e+00	 8.1757160475e-01	-2.5535824600e-01
 1.0335201809e+00	 8.3908438074e-01	-4.4471643928e-01
 1.0159605322e+00	 8.6026202955e-01	-6.1081394593e-01
 9.9795141587e-01	 8.8108996928e-01	-7.5200426544e-01
 9.7950340238e-01	 9.0155401787e-01	-8.6680369316e-01
 9.6062765396e-01	 9.2164042492e-01	-9.5390569409e-01
 9.4133590243e-01	 9.4133590243e-01	-1.0121938944e+00
 1.1194814962e+00	 7.3189304513e-01	 7.0131745570e-01
 1.1042344671e+00	 7.5470026600e-01	 4.2046970719e-01
 1.0884923232e+00	 7.7723272722e-01	 1.5773660705e-01
 1.0722624464e+00	 7.9947451243e-01	-8.4707884100e-02
 1.0555528943e+00	 8.2140996910e-01	-3.0479535578e-01
 1.0383723884e+00	 8.4302374403e-01	-5.0058151904e-01
 1.0207302999e+00	 8.6430081842e-01	-6.7026403060e-01
 1.0026366338e+00	 8.8522654191e-01	-8.1219937911e-01
 9.8410200991e-01	 9.0578666584e-01	-9.2491865060e-01
 9.6513764295e-01	 9.2596737528e-01	-1.0071420007e+00
 9.4575531982e-01	 9.4575531982e-01	-1.0577916747e+00
 1.1247127182e+00	 7.3531310609e-01	 7.0858620700e-01
 1.1093944413e+00	 7.5822690276e-01	 4.1002998495e-01
 1.0935787359e+00	 7.8086465585e-01	 1.3230848183e-01
 1.0772730186e+00	 8.0321037464e-01	-1.2236193399e-01
 1.0604853844e+00	 8.2524833344e-01	-3.5188114722e-01
 1.0432245958e+00	 8.4696310733e-01	-5.5428422509e-01
 1.0255000677e+00	 8.6833960729e-01	-7.2775954048e-01
 1.0073218517e+00	 8.8936311454e-01	-8.7066589425e-01
 9.8870061743e-01	 9.1001931382e-01	-9.8154845117e-01
 9.6964763194e-01	 9.3029432563e-01	-1.0591533144e+00
 9.5017473720e-01	 9.5017473720e-01	-1.1024405773e+00
 1.1299439401e+00	 7.3873316705e-01	 7.1869723954e-01
 1.1145544154e+00	 7.6175353952e-01	 4.0232496222e-01
 1.0986651487e+00	 7.8449658448e-01	 1.0948667735e-01
 1.0822835907e+00	 8.0694623685e-01	-1.5755833222e-01
 1.0654178746e+00	 8.2908669778e-01	-3.9667769262e-01
 1.0480768032e+00	 8.5090247062e-01	-6.0588522948e-01
 1.0302698355e+00	 8.7237839617e-01	-7.8335939311e-01
 1.0120070696e+00	 8.9349968717e-01	-9.2746062048e-01
 9.9329922496e-01	 9.1425196179e-01	-1.0367474450e+00
 9.7415762093e-01	 9.3462127599e-01	-1.1099911768e+00
 9.5459415458e-01	 9.5459415458e-01	-1.1461889904e+00
 1.1351751621e+00	 7.4215322801e-01	 7.3158726008e-01
 1.1197143896e+00	 7.6528017628e-01	 3.9729132810e-01
 1.1037515614e+00	 7.8812851312e-01	 8.9208206996e-02
 1.0872941629e+00	 8.1068209906e-01	-1.9035939621e-01
 1.0703503648e+00	 8.3292506213e-01	-4.3924629320e-01
 1.0529290106e+00	 8.5484183391e-01	-6.5544446904e-01
 1.0350396032e+00	 8.7641718504e-01	-8.3712181261e-01
 1.0166922875e+00	 8.9763625980e-01	-9.8263972158e-01
 9.9789783248e-01	 9.1848460976e-01	-1.0905693896e+00
 9.7866760991e-01	 9.3894822634e-01	-1.1597065960e+00
 9.5901357197e-01	 9.5901357197e-01	-1.1890848330e+00
 1.1404063840e+00	 7.4557328897e-01	 7.4719381155e-01
 1.1248743637e+00	 7.6880681303e-01	 3.9486659591e-01
 1.1088379741e+00	 7.9176044175e-01	 7.1410890567e-02
 1.0923047351e+00	 8.1441796127e-01	-2.2082666054e-01
 1.0752828549e+00	 8.3676342647e-01	-4.7964749672e-01
 1.0577812181e+00	 8.5878119720e-01	-7.0302116229e-01
 1.0398093710e+00	 8.8045597391e-01	-8.8910434560e-01
 1.0213775055e+00	 9.0177283242e-01	-1.0362587303e+00
 1.0024964400e+00	 9.2271725774e-01	-1.1430674634e+00
 9.8317759890e-01	 9.4327517670e-01	-1.2083500583e+00
 9.6343298935e-01	 9.6343298935e-01	-1.2311755651e+00
 1.1456376060e+00	 7.4899334993e-01	 7.6545525400e-01
 1.1300343379e+00	 7.7233344979e-01	 3.9498908430e-01
 1.1139243868e+00	 7.9539237038e-01	 5.6033335839e-02
 1.0973153073e+00	 8.1815382348e-01	-2.4902089487e-01
 1.0802153451e+00	 8.4060179081e-01	-5.1794111471e-01
 1.0626334255e+00	 8.6272056049e-01	-7.4867382585e-01
 1.0445791387e+00	 8.8449476279e-01	-9.3936387666e-01
 1.0260627234e+00	 9.0590940505e-01	-1.0883725626e+00
 1.0070950475e+00	 9.2694990571e-01	-1.1942942790e+00
 9.8768758789e-01	 9.4760212705e-01	-1.2559715406e+00
 9.6785240674e-01	 9.6785240674e-01	-1.2725081986e+00
 1.1508688279e+00	 7.5241341089e-01	 7.8631074595e-01
 1.1351943120e+00	 7.7586008655e-01	 3.9759789901e-01
 1.1190107996e+00	 7.9902429902e-01	 4.3014920670e-02
 1.1023258795e+00	 8.2188968569e-01	-2.7500212132e-01
 1.0851478352e+00	 8.4444015516e-01	-5.5418623918e-01
 1.0674856329e+00	 8.6665992379e-01	-7.9246029035e-01
 1.0493489065e+00	 8.8853355166e-01	-9.8795664338e-01
 1.0307479413e+00	 9.1004597768e-01	-1.1390355321e+00
 1.0116936551e+00	 9.3118255368e-01	-1.2443018963e+00
 9.9219757688e-01	 9.5192907740e-01	-1.3026205216e+00
 9.7227182412e-01	 9.7227182413e-01	-1.3131293076e+00
 9.2807765027e-01	 9.2807765027e-01	-8.6921612712e-01
 9.0865957386e-01	 9.4709768700e-01	-9.3995014332e-01
 8.8885607395e-01	 9.6570757980e-01	-1.0229041283e+00
 8.6868025140e-01	 9.8389576212e-01	-1.1163359878e+00
 8.4814566293e-01	 1.0016512289e+00	-1.2185568206e+00
 8.2726629087e-01	 1.0189635587e+00	-1.3279416339e+00
 8.0605651173e-01	 1.0358229336e+00	-1.4429390028e+00
 7.8453106360e-01	 1.0522201576e+00	-1.5620795998e+00
 7.6270501269e-01	 1.0681466723e+00	-1.6839835353e+00
 7.4059371898e-01	 1.0835945706e+00	-1.8073664669e+00
 7.1821280130e-01	 1.0985566085e+00	-1.9310444535e+00
 9.3249706766e-01	 9.3249706766e-01	-9.1795573312e-01
 9.1298652422e-01	 9.5160767598e-01	-9.7672401826e-01
 8.9308872192e-01	 9.7030618733e-01	-1.0491863429e+00
 8.7281682403e-01	 9.8858098004e-01	-1.1338012790e+00
 8.5218445180e-01	 1.0064209967e+00	-1.2290748307e+00
 8.3120565416e-01	 1.0238157661e+00	-1.3335704041e+00
 8.0989487607e-01	 1.0407554238e+00	-1.4459177488e+00
 7.8826692581e-01	 1.0572307298e+00	-1.5648208036e+00
 7.6633694132e-01	 1.0732330850e+00	-1.6890643897e+00
 7.4412035573e-01	 1.0887545447e+00	-1.8175197143e+00
 7.2163286226e-01	 1.1037878304e+00	-1.9491486625e+00
 9.3691648504e-01	 9.3691648504e-01	-9.6559836741e-01
 9.1731347457e-01	 9.5611766497e-01	-1.0132369317e+00
 8.9732136989e-01	 9.7490479485e-01	-1.0760199877e+00
 8.7695339666e-01	 9.9326619795e-01	-1.1526050054e+00
 8.5622324067e-01	 1.0111907644e+00	-1.2416912152e+00
 8.3514501745e-01	 1.0286679735e+00	-1.3420288378e+00
 8.1373324041e-01	 1.0456879139e+00	-1.4524273148e+00
 7.9200278802e-01	 1.0622413020e+00	-1.5717624745e+00
 7.6996886995e-01	 1.0783194978e+00	-1.6989825832e+00
 7.4764699249e-01	 1.0939145189e+00	-1.8331132456e+00
 7.2505292322e-01	 1.1090190524e+00	-1.9732611392e+00
 9.4133590243e-01	 9.4133590243e-01	-1.0121938944e+00
 9.2164042492e-01	 9.6062765396e-01	-1.0495275165e+00
 9.0155401787e-01	 9.7950340238e-01	-1.1034326621e+00
 8.8108996928e-01	 9.9795141587e-01	-1.1727639511e+00
 8.6026202955e-01	 1.0159605322e+00	-1.2564121804e+00
 8.3908438074e-01	 1.0335201809e+00	-1.3533128204e+00
 8.1757160475e-01	 1.0506204041e+00	-1.4624535400e+00
 7.9573865023e-01	 1.0672518742e+00	-1.5828806982e+00
 7.7360079859e-01	 1.0834059105e+00	-1.7137047568e+00
 7.5117362925e-01	 1.0990744930e+00	-1.8541045832e+00
 7.2847298417e-01	 1.1142502743e+00	-2.0033306280e+00
 9.4575531982e-01	 9.4575531982e-01	-1.0577916747e+00
 9.2596737528e-01	 9.6513764295e-01	-1.0856341170e+00
 9.0578666584e-01	 9.8410200991e-01	-1.1314518877e+00
 8.8522654191e-01	 1.0026366338e+00	-1.1942950280e+00
 8.6430081842e-01	 1.0207302999e+00	-1.2732442606e+00
 8.4302374403e-01	 1.0383723884e+00	-1.3674187595e+00
 8.2140996910e-01	 1.0555528943e+00	-1.4759829741e+00
 7.9947451243e-01	 1.0722624464e+00	-1.5981524522e+00
 7.7723272722e-01	 1.0884923232e+00	-1.7331986189e+00
 7.5470026600e-01	 1.1042344671e+00	-1.8804524840e+00
 7.3189304513e-01	 1.1194814962e+00	-2.0393072678e+00
 9.5017473720e-01	 9.5017473720e-01	-1.1024405773e+00
 9.3029432563e-01	 9.6964763194e-01	-1.1215947962e+00
 9.1001931382e-01	 9.8870061743e-01	-1.1601051104e+00
 8.8936311454e-01	 1.0073218517e+00	-1.2172152730e+00
 8.6833960729e-01	 1.0255000677e+00	-1.2921943109e+00
 8.4696310733e-01	 1.0432245958e+00	-1.3843435731e+00
 8.2524833344e-01	 1.0604853844e+00	-1.4930028607e+00
 8.0321037464e-01	 1.0772730186e+00	-1.6175555857e+00
 7.8086465585e-01	 1.0935787359e+00	-1.7574329199e+00
 7.5822690276e-01	 1.1093944413e+00	-1.9121169113e+00
 7.3531310609e-01	 1.1247127182e+00	-2.0811425605e+00
 9.5459415458e-01	 9.5459415458e-01	-1.1461889904e+00
 9.3462127599e-01	 9.7415762093e-01	-1.1574473417e+00
 9.1425196179e-01	 9.9329922496e-01	-1.1894197018e+00
 8.9349968717e-01	 1.0120070696e+00	-1.2415418451e+00
 8.7237839617e-01	 1.0302698355e+00	-1.3132694991e+00
 8.5090247062e-01	 1.0480768032e+00	-1.4040846775e+00
 8.2908669778e-01	 1.0654178746e+00	-1.5135011216e+00
 8.0694623685e-01	 1.0822835907e+00	-1.6410687991e+00
 7.8449658448e-01	 1.0986651487e+00	-1.7863774283e+00
 7.6175353952e-01	 1.1145544154e+00	-1.9490590062e+00
 7.3873316705e-01	 1.1299439401e+00	-2.1287893390e+00
 9.5901357197e-01	 9.5901357197e-01	-1.1890848330e+00
 9.3894822634e-01	 9.7866760991e-01	-1.1932292726e+00
 9.1848460976e-01	 9.9789783248e-01	-1.2194229611e+00
 8.9763625980e-01	 1.0166922875e+00	-1.2672920224e+00
 8.7641718504e-01	 1.0350396032e+00	-1.3364772989e+00
 8.5484183391e-01	 1.0529290106e+00	-1.4266399762e+00
 8.3292506213e-01	 1.0703503648e+00	-1.5374663409e+00
 8.1068209906e-01	 1.0872941629e+00	-1.6686716247e+00
 7.8812851312e-01	 1.1037515614e+00	-1.8200029073e+00
 7.6528017628e-01	 1.1197143896e+00	-1.9912410610e+00
 7.4215322801e-01	 1.1351751621e+00	-2.1822017365e+00
 9.6343298935e-01	 9.6343298935e-01	-1.2311755651e+00
 9.4327517670e-01	 9.8317759890e-01	-1.2289778453e+00
 9.2271725774e-01	 1.0024964400e+00	-1.2501421171e+00
 9.0177283242e-01	 1.0213775055e+00	-1.2944831997e+00
 8.8045597391e-01	 1.0398093710e+00	-1.3618254828e+00
 8.5878119720e-01	 1.0577812181e+00	-1.4520078484e+00
 8.3676342647e-01	 1.0752828549e+00	-1.5648877498e+00
 8.1441796127e-01	 1.0923047351e+00	-1.7003444071e+00
 7.9176044175e-01	 1.1088379741e+00	-1.8582810921e+00
 7.6880681303e-01	 1.1248743637e+00	-2.0386264924e+00
 7.4557328897e-01	 1.1404063840e+00	-2.2413351567e+00
 9.6785240674e-01	 9.6785240674e-01	-1.2725081986e+00
 9.4760212705e-01	 9.8768758789e-01	-1.2647300596e+00
 9.2694990571e-01	 1.0070950475e+00	-1.2816043291e+00
 9.0590940505e-01	 1.0260627234e+00	-1.3231328856e+00
 8.8449476279e-01	 1.0445791387e+00	-1.3893221154e+00
 8.6272056049e-01	 1.0626334255e+00	-1.4801871381e+00
 8.4060179081e-01	 1.0802153451e+00	-1.5957552121e+00
 8.1815382348e-01	 1.0973153073e+00	-1.7360682853e+00
 7.9539237038e-01	 1.1139243868e+00	-1.9011846673e+00
 7.7233344979e-01	 1.1300343379e+00	-2.0911798162e+00
 7.4899334993e-01	 1.1456376060e+00	-2.3061462450e+00
 9.7227182412e-01	 9.7227182413e-01	-1.3131293076e+00
 9.5192907740e-01	 9.9219757688e-01	-1.3005226645e+00
 9.3118255368e-01	 1.0116936551e+00	-1.3138366889e+00
 9.1004597768e-01	 1.0307479413e+00	-1.3532586997e+00
 8.8853355166e-01	 1.0493489065e+00	-1.4189755466e+00
 8.6665992379e-01	 1.0674856329e+00	-1.5111771439e+00
 8.4444015516e-01	 1.0851478352e+00	-1.6300592094e+00
 8.2188968569e-01	 1.1023258795e+00	-1.7758251741e+00
 7.9902429902e-01	 1.1190107996e+00	-1.9486872459e+00
 7.7586008655e-01	 1.1351943120e+00	-2.1488666218e+00
 7.5241341089e-01	 1.1508688279e+00	-2.3765928600e+00
 7.1821280130e-01	 1.0985566085e+00	-1.9310444535e+00
 6.9557810197e-01	 1.1130262144e+00	-1.8997449061e+00
 6.7270565105e-01	 1.1269974965e+00	-1.8288579070e+00
 6.4961163052e-01	 1.1404652469e+00	-1.7202352230e+00
 6.2631233846e-01	 1.1534249454e+00	-1.5759306160e+00
 6.0282415338e-01	 1.1658727590e+00	-1.7123468886e+00
 5.7916349892e-01	 1.1778055406e+00	-1.8425974785e+00
 5.5534680899e-01	 1.1892208255e+00	-1.9535864003e+00
 5.3139049356e-01	 1.2001168249e+00	-2.0506751536e+00
 5.0731090515e-01	 1.2104924186e+00	-2.1391082774e+00
 4.8312430629e-01	 1.2203471452e+00	-2.2239831189e+00
 7.2163286226e-01	 1.1037878304e+00	-1.9491486625e+00
 6.9889037865e-01	 1.1183263393e+00	-1.9317609046e+00
 6.7590901129e-01	 1.1323641512e+00	-1.8689013111e+00
 6.5270501924e-01	 1.1458960338e+00	-1.7620977392e+00
 6.2929477816e-01	 1.1589174451e+00	-1.6131106179e+00
 6.0569474458e-01	 1.1714245340e+00	-1.6951596473e+00
 5.8192142034e-01	 1.1834141384e+00	-1.8059443827e+00
 5.5799131760e-01	 1.1948837818e+00	-1.8906197344e+00
 5.3392092447e-01	 1.2058316669e+00	-1.9544274386e+00
 5.0972667136e-01	 1.2162566682e+00	-2.0025199759e+00
 4.8542489822e-01	 1.2261583220e+00	-2.0399299314e+00
 7.2505292322e-01	 1.1090190524e+00	-1.9732611392e+00
 7.0220265532e-01	 1.1236264641e+00	-1.9682722224e+00
 6.7911237153e-01	 1.1377308059e+00	-1.9119786168e+00
 6.5579840795e-01	 1.1513268207e+00	-1.8055866342e+00
 6.3227721787e-01	 1.1644099449e+00	-1.6505655917e+00
 6.0856533579e-01	 1.1769763091e+00	-1.6776275741e+00
 5.8467934176e-01	 1.1890227362e+00	-1.7676457000e+00
 5.6063582621e-01	 1.2005467381e+00	-1.8247747684e+00
 5.3645135539e-01	 1.2115465089e+00	-1.8541388689e+00
 5.1214243757e-01	 1.2220209178e+00	-1.8608003252e+00
 4.8772549015e-01	 1.2319694989e+00	-1.8497286427e+00
 7.2847298417e-01	 1.1142502743e+00	-2.0033306280e+00
 7.0551493199e-01	 1.1289265889e+00	-2.0092479843e+00
 6.8231573177e-01	 1.1430974607e+00	-1.9580784556e+00
 6.5889179667e-01	 1.1567576076e+00	-1.8507091415e+00
 6.3525965757e-01	 1.1699024446e+00	-1.6883204418e+00
 6.1143592699e-01	 1.1825280841e+00	-1.6597906364e+00
 5.8743726318e-01	 1.1946313341e+00	-1.7277565301e+00
 5.6328033482e-01	 1.2062096944e+00	-1.7561207837e+00
 5.3898178631e-01	 1.2172613509e+00	-1.7498919432e+00
 5.1455820379e-01	 1.2277851674e+00	-1.7140440660e+00
 4.9002608208e-01	 1.2377806758e+00	-1.6534852518e+00
 7.3189304513e-01	 1.1194814962e+00	-2.0393072678e+00
 7.0882720867e-01	 1.1342267138e+00	-2.0546583240e+00
 6.8551909202e-01	 1.1484641154e+00	-2.0071900973e+00
 6.6198518538e-01	 1.1621883945e+00	-1.8974727791e+00
 6.3824209728e-01	 1.1753949444e+00	-1.7264000188e+00
 6.1430651820e-01	 1.1880798591e+00	-1.6416884264e+00
 5.9019518460e-01	 1.2002399319e+00	-1.6863312939e+00
 5.6592484344e-01	 1.2118726507e+00	-1.6847260966e+00
 5.4151221723e-01	 1.2229761930e+00	-1.6417679273e+00
 5.1697397000e-01	 1.2335494171e+00	-1.5623444566e+00
 4.9232667402e-01	 1.2435918527e+00	-1.4513040441e+00
 7.3531310609e-01	 1.1247127182e+00	-2.0811425605e+00
 7.1213948535e-01	 1.1395268386e+00	-2.1044743613e+00
 6.8872245226e-01	 1.1538307702e+00	-2.0593034361e+00
 6.6507857410e-01	 1.1676191814e+00	-1.9458853426e+00
 6.4122453698e-01	 1.1808874441e+00	-1.7648291205e+00
 6.1717710940e-01	 1.1936316342e+00	-1.6233601700e+00
 5.9295310603e-01	 1.2058485297e+00	-1.6434237491e+00
 5.6856935205e-01	 1.2175356070e+00	-1.6106580811e+00
 5.4404264815e-01	 1.2286910350e+00	-1.5298468826e+00
 5.1938973621e-01	 1.2393136667e+00	-1.4057933069e+00
 4.9462726595e-01	 1.2494030296e+00	-1.2432876315e+00
 7.3873316705e-01	 1.1299439401e+00	-2.1287893390e+00
 7.1545176202e-01	 1.1448269634e+00	-2.1586681788e+00
 6.9192581250e-01	 1.1591974249e+00	-2.1144089754e+00
 6.6817196281e-01	 1.1730499683e+00	-1.9959548988e+00
 6.4420697669e-01	 1.1863799438e+00	-1.8036324933e+00
 6.2004770061e-01	 1.1991834092e+00	-1.6048447352e+00
 5.9571102745e-01	 1.2114571275e+00	-1.5990870055e+00
 5.7121386066e-01	 1.2231985633e+00	-1.5339831901e+00
 5.4657307907e-01	 1.2344058770e+00	-1.4142076940e+00
 5.2180550243e-01	 1.2450779163e+00	-1.2444810126e+00
 4.9692785789e-01	 1.2552142064e+00	-1.3731120700e+00
 7.4215322801e-01	 1.1351751621e+00	-2.1822017365e+00
 7.1876403870e-01	 1.1501270882e+00	-2.2172127999e+00
 6.9512917274e-01	 1.1645640797e+00	-2.1724978142e+00
 6.7126535153e-01	 1.1784807552e+00	-2.0476897794e+00
 6.4718941640e-01	 1.1918724436e+00	-1.8428348336e+00
 6.2291829182e-01	 1.2047351843e+00	-1.5861806402e+00
 5.9846894887e-01	 1.2170657253e+00	-1.5533735402e+00
 5.7385836928e-01	 1.2288615196e+00	-1.4547669772e+00
 5.4910351000e-01	 1.2401207190e+00	-1.2949280972e+00
 5.2422126864e-01	 1.2508421659e+00	-1.1334036873e+00
 4.9922844982e-01	 1.2610253833e+00	-1.5368118055e+00
 7.4557328897e-01	 1.1404063840e+00	-2.2413351567e+00
 7.2207631538e-01	 1.1554272131e+00	-2.2800821673e+00
 6.9833253299e-01	 1.1699307344e+00	-2.2335616331e+00
 6.7435874025e-01	 1.1839115421e+00	-2.1010985749e+00
 6.5017185611e-01	 1.1973649433e+00	-1.8824607885e+00
 6.2578888302e-01	 1.2102869593e+00	-1.5778494748e+00
 6.0122687030e-01	 1.2226743231e+00	-1.5063352119e+00
 5.7650287789e-01	 1.2345244760e+00	-1.3730741171e+00
 5.5163394092e-01	 1.2458355611e+00	-1.1720847048e+00
 5.2663703486e-01	 1.2566064155e+00	-1.3386256185e+00
 5.0152904176e-01	 1.2668365602e+00	-1.6951320243e+00
 7.4899334993e-01	 1.1456376060e+00	-2.3061462450e+00
 7.2538859205e-01	 1.1607273379e+00	-2.3472511218e+00
 7.0153589323e-01	 1.1752973892e+00	-2.2975926816e+00
 6.7745212897e-01	 1.1893423289e+00	-2.1561901290e+00
 6.5315429582e-01	 1.2028574431e+00	-1.9225349572e+00
 6.2865947423e-01	 1.2158387343e+00	-1.5965821789e+00
 6.0398479172e-01	 1.2282829209e+00	-1.4580232749e+00
 5.7914738651e-01	 1.2401874323e+00	-1.2889684255e+00
 5.5416437184e-01	 1.2515504031e+00	-1.1454661490e+00
 5.2905280108e-01	 1.2623706651e+00	-1.5392868666e+00
 5.0382963369e-01	 1.2726477371e+00	-1.8481416461e+00
 7.5241341089e-01	 1.1508688279e+00	-2.3765928600e+00
 7.2870086873e-01	 1.1660274627e+00	-2.4186953821e+00
 7.0473925348e-01	 1.1806640439e+00	-2.3645837644e+00
 6.8054551769e-01	 1.1947731158e+00	-2.2129735324e+00
 6.5613673552e-01	 1.2083499428e+00	-1.9630818920e+00
 6.3153006544e-01	 1.2213905094e+00	-1.6146195559e+00
 6.0674271315e-01	 1.2338915187e+00	-1.4084883933e+00
 5.8179189513e-01	 1.2458503886e+00	-1.2025128789e+00
 5.5669480277e-01	 1.2572652451e+00	-1.3830764784e+00
 5.3146856729e-01	 1.2681349147e+00	-1.7354430195e+00
 5.0613022563e-01	 1.2784589139e+00	-1.9959081001e+00
 4.8312430629e-01	 1.2203471452e+00	-2.2239831189e+00
 4.5884683787e-01	 1.2296811901e+00	-2.1683560520e+00
 4.3449448869e-01	 1.2384953731e+00	-2.0606477514e+00
 4.1008306613e-01	 1.2467911328e+00	-1.9018170512e+00
 3.8562816822e-01	 1.2545705105e+00	-1.9986411217e+00
 3.6114515696e-01	 1.2618361326e+00	-2.2263949906e+00
 3.3664913318e-01	 1.2685911915e+00	-2.3693826897e+00
 3.1215491286e-01	 1.2748394253e+00	-2.4267109971e+00
 2.8767700502e-01	 1.2805850970e+00	-2.3979375674e+00
 2.6322959114e-01	 1.2858329722e+00	-2.2830619252e+00
 2.3882650627e-01	 1.2905882961e+00	-2.0825139970e+00
 4.8542489822e-01	 1.2261583220e+00	-2.0399299314e+00
 4.6103182281e-01	 1.2355368149e+00	-1.9183585827e+00
 4.3656351006e-01	 1.2443929702e+00	-1.7509420995e+00
 4.1203584264e-01	 1.2527282334e+00	-1.7214832495e+00
 3.8746449283e-01	 1.2605446558e+00	-1.9903357377e+00
 3.6286489580e-01	 1.2678448761e+00	-2.1823496483e+00
 3.3825222429e-01	 1.2746321019e+00	-2.2964231067e+00
 3.1364136483e-01	 1.2809100893e+00	-2.3318829970e+00
 2.8904689552e-01	 1.2866831213e+00	-2.2884787570e+00
 2.6448306539e-01	 1.2919559863e+00	-2.1663736682e+00
 2.3996377535e-01	 1.2967339546e+00	-1.9661337955e+00
 4.8772549015e-01	 1.2319694989e+00	-1.8497286427e+00
 4.6321680775e-01	 1.2413924396e+00	-1.6638339812e+00
 4.3863253143e-01	 1.2502905672e+00	-1.4576488538e+00
 4.1398861914e-01	 1.2586653341e+00	-1.7548471611e+00
 3.8930081744e-01	 1.2665188011e+00	-1.9829700699e+00
 3.6458463464e-01	 1.2738536196e+00	-2.1407583774e+00
 3.3985531540e-01	 1.2806730124e+00	-2.2273568911e+00
 3.1512781680e-01	 1.2869807532e+00	-2.2423109193e+00
 2.9041678602e-01	 1.2927811456e+00	-2.1855602410e+00
 2.6573653963e-01	 1.2980790005e+00	-2.0574306878e+00
 2.4110104443e-01	 1.3028796132e+00	-1.8586234905e+00
 4.9002608208e-01	 1.2377806758e+00	-1.6534852518e+00
 4.6540179269e-01	 1.2472480643e+00	-1.4048624231e+00
 4.4070155281e-01	 1.2561881642e+00	-1.5356970478e+00
 4.1594139565e-01	 1.2646024347e+00	-1.7875732689e+00
 3.9113714205e-01	 1.2724929464e+00	-1.9765330217e+00
 3.6630437349e-01	 1.2798623631e+00	-2.1015899539e+00
 3.4145840651e-01	 1.2867139228e+00	-2.1621336544e+00
 3.1661426876e-01	 1.2930514171e+00	-2.1579261916e+00
 2.9178667652e-01	 1.2988791699e+00	-2.0890962560e+00
 2.6699001388e-01	 1.3042020146e+00	-1.9561310348e+00
 2.4223831351e-01	 1.3090252717e+00	-1.7598659607e+00
 4.9232667402e-01	 1.2435918527e+00	-1.4513040441e+00
 4.6758677763e-01	 1.2531036890e+00	-1.3475711359e+00
 4.4277057418e-01	 1.2620857612e+00	-1.6115021194e+00
 4.1789417215e-01	 1.2705395353e+00	-1.8196711712e+00
 3.9297346666e-01	 1.2784670917e+00	-1.9710135306e+00
 3.6802411233e-01	 1.2858711066e+00	-2.0648135807e+00
 3.4306149762e-01	 1.2927548332e+00	-2.1007038097e+00
 3.1810072073e-01	 1.2991220811e+00	-2.0786613973e+00
 2.9315656703e-01	 1.3049771941e+00	-1.9990025309e+00
 2.6824348812e-01	 1.3103250288e+00	-1.8623745687e+00
 2.4337558259e-01	 1.3151709303e+00	-1.6697461903e+00
 4.9462726595e-01	 1.2494030296e+00	-1.2432876315e+00
 4.6977176257e-01	 1.2589593137e+00	-1.4690022021e+00
 4.4483959556e-01	 1.2679833582e+00	-1.6850944460e+00
 4.1984694866e-01	 1.2764766360e+00	-1.8511500987e+00
 3.9480979127e-01	 1.2844412370e+00	-1.9664005677e+00
 3.6974385117e-01	 1.2918798501e+00	-2.0303988777e+00
 3.4466458873e-01	 1.2987957437e+00	-2.0430185521e+00
 3.1958717270e-01	 1.3051927450e+00	-2.0044502497e+00
 2.9452645753e-01	 1.3110752184e+00	-1.9151962520e+00
 2.6949696237e-01	 1.3164480429e+00	-1.7760629155e+00
 2.4451285167e-01	 1.3213165888e+00	-1.5881512196e+00
 4.9692785789e-01	 1.2552142064e+00	-1.3731120700e+00
 4.7195674752e-01	 1.2648149384e+00	-1.5866120036e+00
 4.4690861693e-01	 1.2738809552e+00	-1.7565036366e+00
 4.2179972516e-01	 1.2824137366e+00	-1.8820189224e+00
 3.9664611589e-01	 1.2904153822e+00	-1.9626831369e+00
 3.7146359002e-01	 1.2978885936e+00	-1.9983158723e+00
 3.4626767984e-01	 1.3048366541e+00	-1.9890298416e+00
 3.2107362466e-01	 1.3112634089e+00	-1.9352275651e+00
 2.9589634803e-01	 1.3171732427e+00	-1.8375960294e+00
 2.7075043661e-01	 1.3225710571e+00	-1.6970994268e+00
 2.4565012074e-01	 1.3274622474e+00	-1.5149700977e+00
 4.9922844982e-01	 1.2610253833e+00	-1.5368118055e+00
 4.7414173246e-01	 1.2706705631e+00	-1.7004505691e+00
 4.4897763831e-01	 1.2797785522e+00	-1.8257585498e+00
 4.2375250167e-01	 1.2883508372e+00	-1.9122861624e+00
 3.9848244050e-01	 1.2963895275e+00	-1.9598502739e+00
 3.7318332886e-01	 1.3038973370e+00	-1.9685349899e+00
 3.4787077095e-01	 1.3108775645e+00	-1.9386903845e+00
 3.2256007663e-01	 1.3173340728e+00	-1.8709292376e+00
 2.9726623853e-01	 1.3232712669e+00	-1.7661218643e+00
 2.7200391085e-01	 1.3286940713e+00	-1.6253891402e+00
 2.4678738982e-01	 1.3336079059e+00	-1.4500938362e+00
 5.0152904176e-01	 1.2668365602e+00	-1.6951320243e+00
 4.7632671740e-01	 1.2765261878e+00	-1.8105667875e+00
 4.5104665968e-01	 1.2856761493e+00	-1.8928873105e+00
 4.2570527818e-01	 1.2942879379e+00	-1.9419599959e+00
 4.0031876511e-01	 1.3023636728e+00	-1.9578910456e+00
 3.7490306770e-01	 1.3099060805e+00	-1.9410270447e+00
 3.4947386206e-01	 1.3169184750e+00	-1.8919536171e+00
 3.2404652860e-01	 1.3234047368e+00	-1.8114922145e+00
 2.9863612903e-01	 1.3293692912e+00	-1.7006951168e+00
 2.7325738510e-01	 1.3348170854e+00	-1.5608387404e+00
 2.4792465890e-01	 1.3397535645e+00	-1.3934153640e+00
 5.0382963369e-01	 1.2726477371e+00	-1.8481416461e+00
 4.7851170235e-01	 1.2823818126e+00	-1.9170084344e+00
 4.5311568106e-01	 1.2915737463e+00	-1.9579173271e+00
 4.2765805468e-01	 1.3002250385e+00	-1.9710482646e+00
 4.0215508972e-01	 1.3083378181e+00	-1.9567945496e+00
 3.7662280655e-01	 1.3159148240e+00	-1.9157632311e+00
 3.5107695318e-01	 1.3229593854e+00	-1.8487736885e+00
 3.2553298056e-01	 1.3294754007e+00	-1.7568544723e+00
 3.0000601953e-01	 1.3354673155e+00	-1.6412384750e+00
 2.7451085934e-01	 1.3409400996e+00	-1.5033565219e+00
 2.4906192797e-01	 1.3458992230e+00	-1.3448294839e+00
 5.0613022563e-01	 1.2784589139e+00	-1.9959081001e+00
 4.8069668729e-01	 1.2882374373e+00	-2.0198221973e+00
 4.5518470243e-01	 1.2974713433e+00	-2.0208753078e+00
 4.2961083119e-01	 1.3061621391e+00	-1.9995584829e+00
 4.0399141433e-01	 1.3143119634e+00	-1.9565499131e+00
 3.7834254539e-01	 1.3219235675e+00	-1.8927151149e+00
 3.5268004429e-01	 1.3290002958e+00	-1.8091054446e+00
 3.2701943253e-01	 1.3355460646e+00	-1.7069549930e+00
 3.0137591002e-01	 1.3415653397e+00	-1.5876759251e+00
 2.7576433358e-01	 1.3470631137e+00	-1.4528523520e+00
 2.5019919705e-01	 1.3520448816e+00	-1.3042328295e+00
 2.3882650627e-01	 1.2905882961e+00	-2.0825139970e+00
 2.1448122170e-01	 1.2948567703e+00	-2.0243791773e+00
 1.9020682933e-01	 1.2986445288e+00	-1.9739577032e+00
 1.6601602758e-01	 1.3019581132e+00	-1.9331613762e+00
 1.4192110907e-01	 1.3048044485e+00	-1.9039417399e+00
 1.1793394973e-01	 1.3071908176e+00	-1.8882822144e+00
 9.4065999647e-02	 1.3091248366e+00	-1.8881898616e+00
 7.0328275348e-02	 1.3106144298e+00	-1.9056868741e+00
 4.6731353657e-02	 1.3116678050e+00	-1.9428018759e+00
 2.3285366978e-02	 1.3122934282e+00	-2.0015611271e+00
 0.0000000000e+00	 1.3125000000e+00	-2.0839797148e+00
 2.3996377535e-01	 1.2967339546e+00	-1.9661337955e+00
 2.1550256086e-01	 1.3010227549e+00	-1.9216090136e+00
 1.9111257614e-01	 1.3048285503e+00	-1.8838784451e+00
 1.6680658010e-01	 1.3081579138e+00	-1.8545715917e+00
 1.4259692388e-01	 1.3110178030e+00	-1.8353743473e+00
 1.1849553997e-01	 1.3134155357e+00	-1.8280214539e+00
 9.4513932981e-02	 1.3153587644e+00	-1.8342884865e+00
 7.0663171899e-02	 1.3168554509e+00	-1.8559834629e+00
 4.6953883914e-02	 1.3179138421e+00	-1.8949381735e+00
 2.3396249678e-02	 1.3185424445e+00	-1.9529993248e+00
 0.0000000000e+00	 1.3187500000e+00	-2.0320195899e+00
 2.4110104443e-01	 1.3028796132e+00	-1.8586234905e+00
 2.1652390001e-01	 1.3071887395e+00	-1.8263635009e+00
 1.9201832295e-01	 1.3110125719e+00	-1.7999909954e+00
 1.6759713261e-01	 1.3143577143e+00	-1.7808548830e+00
 1.4327273869e-01	 1.3172311575e+00	-1.7703770553e+00
 1.1905713021e-01	 1.3196402539e+00	-1.7700451621e+00
 9.4961866314e-02	 1.3215926922e+00	-1.7814048123e+00
 7.0998068450e-02	 1.3230964720e+00	-1.8060513028e+00
 4.7176414171e-02	 1.3241598793e+00	-1.8456209746e+00
 2.3507132379e-02	 1.3247914608e+00	-1.9017822949e+00
 0.0000000000e+00	 1.3250000000e+00	-1.9762267645e+00
 2.4223831351e-01	 1.3090252717e+00	-1.7598659607e+00
 2.1754523916e-01	 1.3133547241e+00	-1.7385450107e+00
 1.9292406975e-01	 1.3171965935e+00	-1.7222169177e+00
 1.6838768513e-01	 1.3205575148e+00	-1.7119516784e+00
 1.4394855349e-01	 1.3234445120e+00	-1.7089088054e+00
 1.1961872045e-01	 1.3258649721e+00	-1.7143304181e+00
 9.5409799647e-02	 1.3278266199e+00	-1.7295336582e+00
 7.1332965000e-02	 1.3293374931e+00	-1.7559025354e+00
 4.7398944427e-02	 1.3304059165e+00	-1.7948793073e+00
 2.3618015079e-02	 1.3310404772e+00	-1.8479554989e+00
 0.0000000000e+00	 1.3312500000e+00	-1.9166626648e+00
 2.4337558259e-01	 1.3151709303e+00	-1.6697461903e+00
 2.1856657832e-01	 1.3195207088e+00	-1.6580576674e+00
 1.9382981656e-01	 1.3233806150e+00	-1.6504791811e+00
 1.6917823764e-01	 1.3267573154e+00	-1.6478034704e+00
 1.4462436830e-01	 1.3296578666e+00	-1.6509292667e+00
 1.2018031069e-01	 1.3320896903e+00	-1.6608546982e+00
 9.5857732979e-02	 1.3340605477e+00	-1.6786699172e+00
 7.1667861550e-02	 1.3355785142e+00	-1.7055490596e+00
 4.7621474683e-02	 1.3366519536e+00	-1.7427416477e+00
 2.3728897779e-02	 1.3372894935e+00	-1.7915635442e+00
 0.0000000000e+00	 1.3375000000e+00	-1.8533875692e+00
 2.4451285167e-01	 1.3213165888e+00	-1.5881512196e+00
 2.1958791747e-01	 1.3256866934e+00	-1.5848073079e+00
 1.9473556337e-01	 1.3295646366e+00	-1.5847021283e+00
 1.6996879015e-01	 1.3329571159e+00	-1.5883527906e+00
 1.4530018310e-01	 1.3358712211e+00	-1.5963988192e+00
 1.2074190092e-01	 1.3383144084e+00	-1.6095958674e+00
 9.6305666311e-02	 1.3402944755e+00	-1.6288085546e+00
 7.2002758099e-02	 1.3418195353e+00	-1.6550025373e+00
 4.7844004938e-02	 1.3428979908e+00	-1.6892359321e+00
 2.3839780479e-02	 1.3435385098e+00	-1.7326502038e+00
 0.0000000000e+00	 1.3437500000e+00	-1.7864606343e+00
 2.4565012074e-01	 1.3274622474e+00	-1.5149700977e+00
 2.2060925662e-01	 1.3318526780e+00	-1.5187014418e+00
 1.9564131017e-01	 1.3357486582e+00	-1.5248114433e+00
 1.7075934267e-01	 1.3391569165e+00	-1.5335431859e+00
 1.4597599791e-01	 1.3420845756e+00	-1.5452785370e+00
 1.2130349116e-01	 1.3445391266e+00	-1.5605321697e+00
 9.6753599642e-02	 1.3465284033e+00	-1.5799446061e+00
 7.2337654648e-02	 1.3480605564e+00	-1.6042743984e+00
 4.8066535194e-02	 1.3491440280e+00	-1.6343895701e+00
 2.3950663179e-02	 1.3497875261e+00	-1.6712584359e+00
 0.0000000000e+00	 1.3500000000e+00	-1.7159399214e+00
 2.4678738982e-01	 1.3336079059e+00	-1.4500938362e+00
 2.2163059577e-01	 1.3380186626e+00	-1.4596492134e+00
 1.9654705698e-01	 1.3419326797e+00	-1.4707341207e+00
 1.7154989518e-01	 1.3453567170e+00	-1.4833191947e+00
 1.4665181271e-01	 1.3482979301e+00	-1.4975301727e+00
 1.2186508139e-01	 1.3507638448e+00	-1.5136422199e+00
 9.7201532973e-02	 1.3527623311e+00	-1.5320731765e+00
 7.2672551197e-02	 1.3543015775e+00	-1.5533758470e+00
 4.8289065449e-02	 1.3553900651e+00	-1.5782294567e+00
 2.4061545878e-02	 1.3560365425e+00	-1.6074304024e+00
 0.0000000000e+00	 1.3562500000e+00	-1.6418824215e+00
 2.4792465890e-01	 1.3397535645e+00	-1.3934153640e+00
 2.2265193492e-01	 1.3441846472e+00	-1.4075613634e+00
 1.9745280378e-01	 1.3481167013e+00	-1.4223984359e+00
 1.7234044769e-01	 1.3515565175e+00	-1.4376263249e+00
 1.4732762752e-01	 1.3545112846e+00	-1.4531161417e+00
 1.2242667163e-01	 1.3569885630e+00	-1.4689049946e+00
 9.7649466303e-02	 1.3589962589e+00	-1.4851894378e+00
 7.3007447745e-02	 1.3605425986e+00	-1.5023178656e+00
 4.8511595703e-02	 1.3616361023e+00	-1.5207819836e+00
 2.4172428578e-02	 1.3622855588e+00	-1.5412074875e+00
 0.0000000000e+00	 1.3625000000e+00	-1.5643440800e+00
 2.4906192797e-01	 1.3458992230e+00	-1.3448294839e+00
 2.2367327407e-01	 1.3503506319e+00	-1.3623501929e+00
 1.9835855059e-01	 1.3543007228e+00	-1.3797339151e+00
 1.7313100020e-01	 1.3577563181e+00	-1.3964110309e+00
 1.4800344232e-01	 1.3607246391e+00	-1.4119995069e+00
 1.2298826186e-01	 1.3632132812e+00	-1.4262998246e+00
 9.8097399632e-02	 1.3652301867e+00	-1.4392886279e+00
 7.3342344292e-02	 1.3667836197e+00	-1.4511112210e+00
 4.8734125957e-02	 1.3678821395e+00	-1.4620730513e+00
 2.4283311277e-02	 1.3685345751e+00	-1.4726303148e+00
 0.0000000000e+00	 1.3687500000e+00	-1.4833798202e+00
 2.5019919705e-01	 1.3520448816e+00	-1.3042328295e+00
 2.2469461322e-01	 1.3565166165e+00	-1.3239295281e+00
 1.9926429739e-01	 1.3604847444e+00	-1.3426713079e+00
 1.7392155271e-01	 1.3639561186e+00	-1.3596206928e+00
 1.4867925712e-01	 1.3669379937e+00	-1.3741439642e+00
 1.2354985210e-01	 1.3694379993e+00	-1.3858063860e+00
 9.8545332961e-02	 1.3714641145e+00	-1.3943660489e+00
 7.3677240839e-02	 1.3730246408e+00	-1.3997664686e+00
 4.8956656211e-02	 1.3741281766e+00	-1.4021280798e+00
 2.4394193976e-02	 1.3747835914e+00	-1.4017387656e+00
 0.0000000000e+00	 1.3750000000e+00	-1.3990435671e+00
 1.3750000000e+00	 0.0000000000e+00	 3.5596277798e+00
 1.3747835914e+00	 2.4394193976e-02	 3.6095735638e+00
 1.3741281766e+00	 4.8956656211e-02	 3.6414607378e+00
 1.3730246408e+00	 7.3677240839e-02	 3.6529187266e+00
 1.3714641145e+00	 9.8545332961e-02	 3.6417967343e+00
 1.3694379993e+00	 1.2354985210e-01	 3.6061853818e+00
 1.3669379937e+00	 1.4867925712e-01	 3.5444374507e+00
 1.3639561186e+00	 1.7392155271e-01	 3.4551874966e+00
 1.3604847444e+00	 1.9926429739e-01	 3.3373700872e+00
 1.3565166165e+00	 2.2469461322e-01	 3.1902364219e+00
 1.3520448816e+00	 2.5019919705e-01	 3.0133690905e+00
 1.3812500000e+00	 0.0000000000e+00	 3.5463871352e+00
 1.3810326078e+00	 2.4505076675e-02	 3.6029488795e+00
 1.3803742138e+00	 4.9179186465e-02	 3.6399906162e+00
 1.3792656619e+00	 7.4012137386e-02	 3.6551145086e+00
 1.3776980423e+00	 9.8993266290e-02	 3.6461500790e+00
 1.3756627175e+00	 1.2411144233e-01	 3.6111763235e+00
 1.3731513482e+00	 1.4935507192e-01	 3.5485429099e+00
 1.3701559191e+00	 1.7471210522e-01	 3.4568902121e+00
 1.3666687660e+00	 2.0017004419e-01	 3.3351679355e+00
 1.3626826011e+00	 2.2571595236e-01	 3.1826520810e+00
 1.3581905401e+00	 2.5133646612e-01	 2.9989600049e+00
 1.3875000000e+00	 0.0000000000e+00	 3.5341871801e+00
 1.3872816241e+00	 2.4615959374e-02	 3.5974936630e+00
 1.3866202510e+00	 4.9401716719e-02	 3.6398206544e+00
 1.3855066830e+00	 7.4347033934e-02	 3.6587429953e+00
 1.3839319701e+00	 9.9441199620e-02	 3.6520704928e+00
 1.3818874357e+00	 1.2467303257e-01	 3.6178705152e+00
 1.3793647027e+00	 1.5003088672e-01	 3.5544896438e+00
 1.3763557197e+00	 1.7550265773e-01	 3.4605741313e+00
 1.3728527875e+00	 2.0107579100e-01	 3.3350889144e+00
 1.3688485857e+00	 2.2673729151e-01	 3.1773349256e+00
 1.3643361987e+00	 2.5247373520e-01	 2.9869644517e+00
 1.3937500000e+00	 0.0000000000e+00	 3.5230087700e+00
 1.3935306404e+00	 2.4726842073e-02	 3.5931875867e+00
 1.3928662881e+00	 4.9624246974e-02	 3.6409291132e+00
 1.3917477041e+00	 7.4681930482e-02	 3.6637808049e+00
 1.3901658979e+00	 9.9889132950e-02	 3.6595327189e+00
 1.3881121539e+00	 1.2523462280e-01	 3.6262405908e+00
 1.3855780572e+00	 1.5070670153e-01	 3.5622479427e+00
 1.3825555202e+00	 1.7629321024e-01	 3.4662069665e+00
 1.3790368091e+00	 2.0198153780e-01	 3.3370979257e+00
 1.3750145703e+00	 2.2775863066e-01	 3.1742468144e+00
 1.3704818572e+00	 2.5361100428e-01	 2.9773410176e+00
 1.4000000000e+00	 0.0000000000e+00	 3.5128331023e+00
 1.3997796567e+00	 2.4837724773e-02	 3.5900106816e+00
 1.3991123253e+00	 4.9846777229e-02	 3.6432946310e+00
 1.3979887252e+00	 7.5016827030e-02	 3.6702049550e+00
 1.3963998257e+00	 1.0033706628e-01	 3.6685119240e+00
 1.3943368721e+00	 1.2579621304e-01	 3.6362596352e+00
 1.3917914117e+00	 1.5138251633e-01	 3.5717885780e+00
 1.3887553208e+00	 1.7708376275e-01	 3.4737569444e+00
 1.3852208307e+00	 2.0288728461e-01	 3.3411604207e+00
 1.3811805549e+00	 2.2877996981e-01	 3.1733501949e+00
 1.3766275158e+00	 2.5474827335e-01	 2.9700489196e+00
 1.4062500000e+00	 0.0000000000e+00	 3.5036417087e+00
 1.4060286731e+00	 2.4948607473e-02	 3.5879433287e+00
 1.4053583625e+00	 5.0069307484e-02	 3.6468962150e+00
 1.4042297462e+00	 7.5351723579e-02	 3.6779928534e+00
 1.4026337535e+00	 1.0078499961e-01	 3.6789836892e+00
 1.4005615902e+00	 1.2635780327e-01	 3.6479011743e+00
 1.3980047662e+00	 1.5205833114e-01	 3.5830827917e+00
 1.3949551213e+00	 1.7787431526e-01	 3.4831927945e+00
 1.3914048522e+00	 2.0379303141e-01	 3.3472423884e+00
 1.3873465396e+00	 2.2980130896e-01	 3.1746080897e+00
 1.3827731743e+00	 2.5588554243e-01	 2.9650479900e+00
 1.4125000000e+00	 0.0000000000e+00	 3.4954164479e+00
 1.4122776894e+00	 2.5059490172e-02	 3.5869662517e+00
 1.4116043996e+00	 5.0291837739e-02	 3.6517132334e+00
 1.4104707673e+00	 7.5686620128e-02	 3.6871222895e+00
 1.4088676813e+00	 1.0123293294e-01	 3.6909240007e+00
 1.4067863084e+00	 1.2691939351e-01	 3.6611391654e+00
 1.4042181207e+00	 1.5273414594e-01	 3.5961022861e+00
 1.4011549218e+00	 1.7866486777e-01	 3.4944837379e+00
 1.3975888738e+00	 2.0469877822e-01	 3.3553103439e+00
 1.3935125242e+00	 2.3082264811e-01	 3.1779840842e+00
 1.3889188329e+00	 2.5702281151e-01	 2.9622986636e+00
 1.4187500000e+00	 0.0000000000e+00	 3.4881394981e+00
 1.4185267057e+00	 2.5170372873e-02	 3.5870605094e+00
 1.4178504368e+00	 5.0514367995e-02	 3.6577254070e+00
 1.4167117884e+00	 7.6021516678e-02	 3.6975714261e+00
 1.4151016090e+00	 1.0168086628e-01	 3.7043092410e+00
 1.4130110266e+00	 1.2748098375e-01	 3.6759479876e+00
 1.4104314753e+00	 1.5340996075e-01	 3.6108192133e+00
 1.4073547224e+00	 1.7945542029e-01	 3.5075994765e+00
 1.4037728954e+00	 2.0560452503e-01	 3.3653313164e+00
 1.3996785088e+00	 2.3184398727e-01	 3.1834423138e+00
 1.3950644914e+00	 2.5816008059e-01	 2.9617619636e+00
 1.4250000000e+00	 0.0000000000e+00	 3.4817933501e+00
 1.4247757220e+00	 2.5281255573e-02	 3.5882074880e+00
 1.4240964740e+00	 5.0736898251e-02	 3.6649128018e+00
 1.4229528095e+00	 7.6356413228e-02	 3.7093187911e+00
 1.4213355368e+00	 1.0212879961e-01	 3.7191161802e+00
 1.4192357448e+00	 1.2804257399e-01	 3.6923024327e+00
 1.4166448298e+00	 1.5408577555e-01	 3.6272061657e+00
 1.4135545229e+00	 1.8024597280e-01	 3.5225101823e+00
 1.4099569169e+00	 2.0651027184e-01	 3.3772728378e+00
 1.4058444934e+00	 2.3286532642e-01	 3.1909474525e+00
 1.4012101500e+00	 2.5929734967e-01	 2.9633994897e+00
 1.4312500000e+00	 0.0000000000e+00	 3.4763608009e+00
 1.4310247384e+00	 2.5392138273e-02	 3.5903888945e+00
 1.4303425111e+00	 5.0959428508e-02	 3.6732558216e+00
 1.4291938306e+00	 7.6691309779e-02	 3.7223432694e+00
 1.4275694646e+00	 1.0257673294e-01	 3.7353219675e+00
 1.4254604629e+00	 1.2860416423e-01	 3.7101776959e+00
 1.4228581843e+00	 1.5476159036e-01	 3.6452361660e+00
 1.4197543235e+00	 1.8103652531e-01	 3.5391864877e+00
 1.4161409385e+00	 2.0741601865e-01	 3.3911029323e+00
 1.4120104780e+00	 2.3388666557e-01	 3.2004647002e+00
 1.4073558085e+00	 2.6043461874e-01	 2.9671734045e+00
 1.4375000000e+00	 0.0000000000e+00	 3.4718249462e+00
 1.4372737547e+00	 2.5503020974e-02	 3.5935867491e+00
 1.4365885483e+00	 5.1181958765e-02	 3.6827352001e+00
 1.4354348517e+00	 7.7026206330e-02	 3.7366240953e+00
 1.4338033924e+00	 1.0302466628e-01	 3.7529041229e+00
 1.4316851811e+00	 1.2916575446e-01	 3.7295493673e+00
 1.4290715388e+00	 1.5543740517e-01	 3.6648826584e+00
 1.4259541240e+00	 1.8182707783e-01	 3.5575994747e+00
 1.4223249601e+00	 2.0832176545e-01	 3.4067901052e+00
 1.4181764627e+00	 2.3490800473e-01	 3.2119597723e+00
 1.4135014671e+00	 2.6157188782e-01	 2.9730464221e+00
 1.3520448816e+00	 2.5019919705e-01	 3.0133690905e+00
 1.3470631137e+00	 2.7576433358e-01	 3.0181355454e+00
 1.3415653397e+00	 3.0137591002e-01	 2.9965465191e+00
 1.3355460646e+00	 3.2701943253e-01	 2.9490910638e+00
 1.3290002958e+00	 3.5268004429e-01	 2.8766102814e+00
 1.3219235675e+00	 3.7834254539e-01	 2.7802993344e+00
 1.3143119634e+00	 4.0399141433e-01	 2.6617064431e+00
 1.3061621391e+00	 4.2961083119e-01	 2.5227287440e+00
 1.2974713433e+00	 4.5518470243e-01	 2.3656049114e+00
 1.2882374373e+00	 4.8069668729e-01	 2.1929044752e+00
 1.2784589139e+00	 5.0613022563e-01	 2.0075138055e+00
 1.3581905401e+00	 2.5133646612e-01	 2.9989600049e+00
 1.3531861278e+00	 2.7701780782e-01	 2.9967169172e+00
 1.3476633640e+00	 3.0274580052e-01	 2.9701489104e+00
 1.3416167285e+00	 3.2850588449e-01	 2.9197537696e+00
 1.3350412063e+00	 3.5428313540e-01	 2.8463779091e+00
 1.3279323110e+00	 3.8006228423e-01	 2.7512181388e+00
 1.3202861087e+00	 4.0582773894e-01	 2.6358204097e+00
 1.3120992397e+00	 4.3156360770e-01	 2.5020754112e+00
 1.3033689403e+00	 4.5725372381e-01	 2.3522109253e+00
 1.2940930620e+00	 4.8288167223e-01	 2.1887808717e+00
 1.2842700908e+00	 5.0843081757e-01	 2.0146510176e+00
 1.3643361987e+00	 2.5247373520e-01	 2.9869644517e+00
 1.3593091420e+00	 2.7827128206e-01	 2.9774375014e+00
 1.3537613883e+00	 3.0411569102e-01	 2.9455858616e+00
 1.3476873925e+00	 3.2999233646e-01	 2.8919165344e+00
 1.3410821167e+00	 3.5588622651e-01	 2.8172818485e+00
 1.3339410545e+00	 3.8178202308e-01	 2.7228809835e+00
 1.3262602539e+00	 4.0766406355e-01	 2.6102584623e+00
 1.3180363404e+00	 4.3351638420e-01	 2.4812994878e+00
 1.3092665373e+00	 4.5932274519e-01	 2.3382220273e+00
 1.2999486867e+00	 4.8506665718e-01	 2.1835655834e+00
 1.2900812677e+00	 5.1073140950e-01	 2.0201766255e+00
 1.3704818572e+00	 2.5361100428e-01	 2.9773410176e+00
 1.3654321562e+00	 2.7952475631e-01	 2.9602580795e+00
 1.3598594126e+00	 3.0548558152e-01	 2.9228205717e+00
 1.3537580564e+00	 3.3147878842e-01	 2.8655451989e+00
 1.3471230271e+00	 3.5748931762e-01	 2.7892908081e+00
 1.3399497979e+00	 3.8350176192e-01	 2.6952596718e+00
 1.3322343992e+00	 4.0950038817e-01	 2.5849957274e+00
 1.3239734410e+00	 4.3546916071e-01	 2.4603796518e+00
 1.3151641343e+00	 4.6139176656e-01	 2.3236206756e+00
 1.3058043114e+00	 4.8725164212e-01	 2.1772450769e+00
 1.2958924446e+00	 5.1303200144e-01	 2.0240813313e+00
 1.3766275158e+00	 2.5474827335e-01	 2.9700489196e+00
 1.3715551703e+00	 2.8077823055e-01	 2.9451400055e+00
 1.3659574368e+00	 3.0685547202e-01	 2.9018167491e+00
 1.3598287203e+00	 3.3296524039e-01	 2.8406060451e+00
 1.3531639376e+00	 3.5909240873e-01	 2.7623738646e+00
 1.3459585414e+00	 3.8522150076e-01	 2.6683262971e+00
 1.3382085445e+00	 4.1133671278e-01	 2.5600075380e+00
 1.3299105416e+00	 4.3742193722e-01	 2.4392946995e+00
 1.3210617313e+00	 4.6346078794e-01	 2.3083893533e+00
 1.3116599361e+00	 4.8943662707e-01	 2.1698057454e+00
 1.3017036215e+00	 5.1533259338e-01	 2.0263556613e+00
 1.3827731743e+00	 2.5588554243e-01	 2.9650479900e+00
 1.3776781845e+00	 2.8203170479e-01	 2.9320451926e+00
 1.3720554611e+00	 3.0822536252e-01	 2.8825386001e+00
 1.3658993842e+00	 3.3445169236e-01	 2.8170657866e+00
 1.3592048480e+00	 3.6069549984e-01	 2.7365004546e+00
 1.3519672849e+00	 3.8694123961e-01	 2.6420532363e+00
 1.3441826898e+00	 4.1317303739e-01	 2.5352694292e+00
 1.3358476423e+00	 4.3937471372e-01	 2.4180235427e+00
 1.3269593283e+00	 4.6552980932e-01	 2.2925105681e+00
 1.3175155608e+00	 4.9162161201e-01	 2.1612339111e+00
 1.3075147983e+00	 5.1763318532e-01	 2.0269899703e+00
 1.3889188329e+00	 2.5702281151e-01	 2.9622986636e+00
 1.3838011986e+00	 2.8328517904e-01	 2.9209361012e+00
 1.3781534854e+00	 3.0959525302e-01	 2.8649508181e+00
 1.3719700482e+00	 3.3593814432e-01	 2.7948915592e+00
 1.3652457584e+00	 3.6229859095e-01	 2.7116403669e+00
 1.3579760284e+00	 3.8866097845e-01	 2.6164131435e+00
 1.3501568351e+00	 4.1500936200e-01	 2.5107571335e+00
 1.3417847429e+00	 4.4132749023e-01	 2.3965452066e+00
 1.3328569253e+00	 4.6759883069e-01	 2.2759668515e+00
 1.3233711855e+00	 4.9380659696e-01	 2.1515158263e+00
 1.3133259752e+00	 5.1993377725e-01	 2.0259744448e+00
 1.3950644914e+00	 2.5816008059e-01	 2.9617619636e+00
 1.3899242128e+00	 2.8453865328e-01	 2.9117757266e+00
 1.3842515096e+00	 3.1096514353e-01	 2.8490185728e+00
 1.3780407121e+00	 3.3742459629e-01	 2.7740509111e+00
 1.3712866689e+00	 3.6390168206e-01	 2.6877637345e+00
 1.3639847719e+00	 3.9038071729e-01	 2.5913789438e+00
 1.3561309804e+00	 4.1684568661e-01	 2.4864465769e+00
 1.3477218435e+00	 4.4328026674e-01	 2.3748388266e+00
 1.3387545224e+00	 4.6966785207e-01	 2.2587407588e+00
 1.3292268103e+00	 4.9599158190e-01	 2.1406376751e+00
 1.3191371521e+00	 5.2223436919e-01	 2.0232991072e+00
 1.4012101500e+00	 2.5929734967e-01	 2.9633994897e+00
 1.3960472269e+00	 2.8579212753e-01	 2.9045275874e+00
 1.3903495339e+00	 3.1233503403e-01	 2.8347074997e+00
 1.3841113760e+00	 3.3891104826e-01	 2.7545117942e+00
 1.3773275793e+00	 3.6550477317e-01	 2.6648410273e+00
 1.3699935154e+00	 3.9210045614e-01	 2.5669238276e+00
 1.3621051257e+00	 4.1868201122e-01	 2.4623138739e+00
 1.3536589442e+00	 4.4523304324e-01	 2.3528836467e+00
 1.3446521194e+00	 4.7173687345e-01	 2.2408148677e+00
 1.3350824350e+00	 4.9817656684e-01	 2.1285855748e+00
 1.3249483290e+00	 5.2453496113e-01	 2.0189538192e+00
 1.4073558085e+00	 2.6043461874e-01	 2.9671734045e+00
 1.4021702411e+00	 2.8704560177e-01	 2.8991557142e+00
 1.3964475582e+00	 3.1370492453e-01	 2.8219836898e+00
 1.3901820400e+00	 3.4039750023e-01	 2.7362425555e+00
 1.3833684897e+00	 3.6710786429e-01	 2.6428430444e+00
 1.3760022589e+00	 3.9382019498e-01	 2.5430212445e+00
 1.3680792710e+00	 4.2051833584e-01	 2.4383353242e+00
 1.3595960448e+00	 4.4718581975e-01	 2.3306590164e+00
 1.3505497164e+00	 4.7380589482e-01	 2.2221717786e+00
 1.3409380597e+00	 5.0036155179e-01	 2.1153455776e+00
 1.3307595059e+00	 5.2683555306e-01	 2.0129282852e+00
 1.4135014671e+00	 2.6157188782e-01	 2.9730464221e+00
 1.4082932552e+00	 2.8829907602e-01	 2.8956246381e+00
 1.4025455825e+00	 3.1507481503e-01	 2.8108136801e+00
 1.3962527039e+00	 3.4188395219e-01	 2.7192119280e+00
 1.3894094002e+00	 3.6871095540e-01	 2.6217409071e+00
 1.3820110024e+00	 3.9553993383e-01	 2.5196448981e+00
 1.3740534163e+00	 4.2235466045e-01	 2.4144874082e+00
 1.3655331454e+00	 4.4913859626e-01	 2.3081443888e+00
 1.3564473134e+00	 4.7587491620e-01	 2.2027941140e+00
 1.3467936844e+00	 5.0254653673e-01	 2.1009036715e+00
 1.3365706828e+00	 5.2913614500e-01	 2.0052120560e+00
 1.2784589139e+00	 5.0613022563e-01	 2.0075138055e+00
 1.2681349147e+00	 5.3146856729e-01	 1.6684544614e+00
 1.2572652451e+00	 5.5669480277e-01	 1.2791748664e+00
 1.2458503886e+00	 5.8179189513e-01	 1.0532500843e+00
 1.2338915187e+00	 6.0674271315e-01	 1.1492336992e+00
 1.2213905094e+00	 6.3153006544e-01	 1.2190943601e+00
 1.2083499428e+00	 6.5613673552e-01	 1.3020806534e+00
 1.1947731158e+00	 6.8054551769e-01	 1.2955512620e+00
 1.1806640439e+00	 7.0473925348e-01	 1.2040710854e+00
 1.1660274627e+00	 7.2870086873e-01	 1.0325685397e+00
 1.1508688279e+00	 7.5241341089e-01	 7.8631074595e-01
 1.2842700908e+00	 5.0843081757e-01	 2.0146510176e+00
 1.2738991643e+00	 5.3388433351e-01	 1.6935424848e+00
 1.2629800871e+00	 5.5922523369e-01	 1.3232069108e+00
 1.2515133449e+00	 5.8443640374e-01	 9.0851186144e-01
 1.2395001165e+00	 6.0950063457e-01	 9.6000459339e-01
 1.2269422844e+00	 6.3440065665e-01	 1.0736292727e+00
 1.2138424425e+00	 6.5911917524e-01	 1.1790586907e+00
 1.2002039027e+00	 6.8363890641e-01	 1.1956023191e+00
 1.1860306986e+00	 7.0794261373e-01	 1.1278526055e+00
 1.1713275876e+00	 7.3201314541e-01	 9.8076380289e-01
 1.1561000499e+00	 7.5583347185e-01	 7.5962685006e-01
 1.2900812677e+00	 5.1073140950e-01	 2.0201766255e+00
 1.2796634139e+00	 5.3630009973e-01	 1.7169030146e+00
 1.2686949291e+00	 5.6175566462e-01	 1.3653860469e+00
 1.2571763012e+00	 5.8708091236e-01	 9.7056736007e-01
 1.2451087143e+00	 6.1225855600e-01	 7.7178476525e-01
 1.2324940595e+00	 6.3727124786e-01	 9.2702692489e-01
 1.2193349423e+00	 6.6210161495e-01	 1.0547721699e+00
 1.2056346896e+00	 6.8673229513e-01	 1.0942533634e+00
 1.1913973534e+00	 7.1114597397e-01	 1.0500910861e+00
 1.1766277124e+00	 7.3532542209e-01	 9.2726603815e-01
 1.1613312718e+00	 7.5925353281e-01	 7.3109360858e-01
 1.2958924446e+00	 5.1303200144e-01	 2.0240813313e+00
 1.2854276635e+00	 5.3871586595e-01	 1.7385254869e+00
 1.2744097711e+00	 5.6428609554e-01	 1.4057005255e+00
 1.2628392575e+00	 5.8972542098e-01	 1.0306231045e+00
 1.2507173122e+00	 6.1501647743e-01	 6.1870514367e-01
 1.2380458345e+00	 6.4014183907e-01	 7.7928551362e-01
 1.2248274420e+00	 6.6508405466e-01	 9.2921934019e-01
 1.2110654765e+00	 6.8982568385e-01	 9.9150280997e-01
 1.1967640081e+00	 7.1434933422e-01	 9.7078522438e-01
 1.1819278372e+00	 7.3863769877e-01	 8.7207434320e-01
 1.1665624938e+00	 7.6267359378e-01	 7.0071064005e-01
 1.3017036215e+00	 5.1533259338e-01	 2.0263556613e+00
 1.2911919132e+00	 5.4113163216e-01	 1.7583991571e+00
 1.2801246132e+00	 5.6681652646e-01	 1.4441384097e+00
 1.2685022138e+00	 5.9236992960e-01	 1.0886660510e+00
 1.2563259100e+00	 6.1777439885e-01	 6.9747034234e-01
 1.2435976095e+00	 6.4301243028e-01	 6.3040301639e-01
 1.2303199417e+00	 6.6806649437e-01	 8.0239821711e-01
 1.2164962634e+00	 6.9291907257e-01	 8.8734882413e-01
 1.2021306629e+00	 7.1755269447e-01	 8.8993344961e-01
 1.1872279621e+00	 7.4194997545e-01	 8.1518752790e-01
 1.1717937157e+00	 7.6609365474e-01	 6.6847725335e-01
 1.3075147983e+00	 5.1763318532e-01	 2.0269899703e+00
 1.2969561628e+00	 5.4354739838e-01	 1.7765131042e+00
 1.2858394552e+00	 5.6934695739e-01	 1.4806875795e+00
 1.2741651701e+00	 5.9501443821e-01	 1.1446829640e+00
 1.2619345078e+00	 6.2053232028e-01	 7.7406487793e-01
 1.2491493846e+00	 6.4588302149e-01	 4.8037719616e-01
 1.2358124415e+00	 6.7104893408e-01	 6.7430658746e-01
 1.2219270503e+00	 6.9601246129e-01	 7.8178932658e-01
 1.2074973176e+00	 7.2075605471e-01	 8.0753392895e-01
 1.1925280869e+00	 7.4526225213e-01	 7.5660412052e-01
 1.1770249376e+00	 7.6951371570e-01	 6.3439245461e-01
 1.3133259752e+00	 5.1993377725e-01	 2.0259744448e+00
 1.3027204124e+00	 5.4596316460e-01	 1.7928562339e+00
 1.2915542972e+00	 5.7187738831e-01	 1.5153357351e+00
 1.2798281264e+00	 5.9765894683e-01	 1.1986604203e+00
 1.2675431056e+00	 6.2329024171e-01	 8.4847429208e-01
 1.2547011596e+00	 6.4875361270e-01	 5.3867041413e-01
 1.2413049412e+00	 6.7403137379e-01	 5.4494201456e-01
 1.2273578372e+00	 6.9910585001e-01	 6.7482199904e-01
 1.2128639724e+00	 7.2395941496e-01	 7.2358457322e-01
 1.1978282117e+00	 7.4857452881e-01	 6.9632237403e-01
 1.1822561596e+00	 7.7293377666e-01	 5.9845495390e-01
 1.3191371521e+00	 5.2223436919e-01	 2.0232991072e+00
 1.3084846620e+00	 5.4837893082e-01	 1.8074172835e+00
 1.2972691392e+00	 5.7440781924e-01	 1.5480704016e+00
 1.2854910827e+00	 6.0030345545e-01	 1.2505848131e+00
 1.2731517034e+00	 6.2604816313e-01	 9.2405116127e-01
 1.2602529347e+00	 6.5162420391e-01	 6.3079191993e-01
 1.2467974410e+00	 6.7701381350e-01	 4.1430184313e-01
 1.2327886241e+00	 7.0219923873e-01	 5.6644428943e-01
 1.2182306271e+00	 7.2716277520e-01	 6.3808304259e-01
 1.2031283366e+00	 7.5188680549e-01	 6.3434027211e-01
 1.1874873815e+00	 7.7635383762e-01	 5.6066317174e-01
 1.3249483290e+00	 5.2453496113e-01	 2.0189538192e+00
 1.3142489116e+00	 5.5079469703e-01	 1.8201848245e+00
 1.3029839813e+00	 5.7693825016e-01	 1.5788789324e+00
 1.2911540391e+00	 6.0294796406e-01	 1.3004423557e+00
 1.2787603012e+00	 6.2880608456e-01	 1.0015325190e+00
 1.2658047097e+00	 6.5449479512e-01	 7.1863842271e-01
 1.2522899407e+00	 6.7999625321e-01	 3.7841343868e-01
 1.2382194110e+00	 7.0529262745e-01	 4.5665341703e-01
 1.2235972819e+00	 7.3036613545e-01	 5.5102675208e-01
 1.2084284614e+00	 7.5519908217e-01	 5.7065553512e-01
 1.1927186035e+00	 7.7977389858e-01	 5.2101524546e-01
 1.3307595059e+00	 5.2683555306e-01	 2.0129282852e+00
 1.3200131612e+00	 5.5321046325e-01	 1.8311472672e+00
 1.3086988233e+00	 5.7946868109e-01	 1.6077485132e+00
 1.2968169954e+00	 6.0559247268e-01	 1.3482190864e+00
 1.2843688990e+00	 6.3156400599e-01	 1.0748371648e+00
 1.2713564848e+00	 6.5736538633e-01	 8.0225123680e-01
 1.2577824405e+00	 6.8297869292e-01	 4.7341307568e-01
 1.2436501979e+00	 7.0838601617e-01	 3.4544637749e-01
 1.2289639366e+00	 7.3356949570e-01	 4.6241287686e-01
 1.2137285862e+00	 7.5851135884e-01	 5.0526562578e-01
 1.1979498254e+00	 7.8319395954e-01	 4.7950903539e-01
 1.3365706828e+00	 5.2913614500e-01	 2.0052120560e+00
 1.3257774108e+00	 5.5562622947e-01	 1.8402928634e+00
 1.3144136653e+00	 5.8199911201e-01	 1.6346661656e+00
 1.3024799517e+00	 6.0823698130e-01	 1.3939008710e+00
 1.2899774969e+00	 6.3432192741e-01	 1.1440046364e+00
 1.2769082598e+00	 6.6023597754e-01	 8.8167148448e-01
 1.2632749402e+00	 6.8596113263e-01	 5.6415573404e-01
 1.2490809847e+00	 7.1147940489e-01	 2.3281994763e-01
 1.2343305914e+00	 7.3677285594e-01	 3.7223835753e-01
 1.2190287111e+00	 7.6182363552e-01	 4.3816775482e-01
 1.2031810474e+00	 7.8661402051e-01	 4.3614213087e-01
 1.1508688279e+00	 7.5241341089e-01	 7.8631074595e-01
 1.1351943120e+00	 7.7586008655e-01	 3.9759789901e-01
 1.1190107996e+00	 7.9902429902e-01	 4.3014920670e-02
 1.1023258795e+00	 8.2188968569e-01	-2.7500212132e-01
 1.0851478352e+00	 8.4444015516e-01	-5.5418623918e-01
 1.0674856329e+00	 8.6665992379e-01	-7.9246029035e-01
 1.0493489065e+00	 8.8853355166e-01	-9.8795664338e-01
 1.0307479413e+00	 9.1004597768e-01	-1.1390355321e+00
 1.0116936551e+00	 9.3118255368e-01	-1.2443018963e+00
 9.9219757688e-01	 9.5192907740e-01	-1.3026205216e+00
 9.7227182412e-01	 9.7227182413e-01	-1.3131293076e+00
 1.1561000499e+00	 7.5583347185e-01	 7.5962685006e-01
 1.1403542862e+00	 7.7938672331e-01	 3.8152886134e-01
 1.1240972123e+00	 8.0265622765e-01	 3.5042570464e-02
 1.1073364516e+00	 8.2562554790e-01	-2.7733199788e-01
 1.0900803254e+00	 8.4827851950e-01	-5.5325528458e-01
 1.0723378403e+00	 8.7059928708e-01	-7.9056932424e-01
 1.0541186742e+00	 8.9257234053e-01	-9.8731781736e-01
 1.0354331592e+00	 9.1418255031e-01	-1.1417649307e+00
 1.0162922626e+00	 9.3541520166e-01	-1.2524126210e+00
 9.9670756587e-01	 9.5625602776e-01	-1.3180162902e+00
 9.7669124151e-01	 9.7669124151e-01	-1.3375985975e+00
 1.1613312718e+00	 7.5925353281e-01	 7.3109360858e-01
 1.1455142603e+00	 7.8291336007e-01	 3.6367697605e-01
 1.1291836250e+00	 8.0628815629e-01	 2.5378546100e-02
 1.1123470238e+00	 8.2936141011e-01	-2.8123735448e-01
 1.0950128156e+00	 8.5211688385e-01	-5.5375832063e-01
 1.0771900478e+00	 8.7453865037e-01	-7.8994536329e-01
 1.0588884420e+00	 8.9661112941e-01	-9.8775339052e-01
 1.0401183771e+00	 9.1831912294e-01	-1.1453504566e+00
 1.0208908701e+00	 9.3964784963e-01	-1.2611355703e+00
 1.0012175549e+00	 9.6058297811e-01	-1.3337548676e+00
 9.8111065889e-01	 9.8111065889e-01	-1.3621159685e+00
 1.1665624938e+00	 7.6267359378e-01	 7.0071064005e-01
 1.1506742345e+00	 7.8643999683e-01	 3.4403943038e-01
 1.1342700377e+00	 8.0992008492e-01	 1.4017327311e-02
 1.1173575960e+00	 8.3309727232e-01	-2.8672668970e-01
 1.0999453057e+00	 8.5595524819e-01	-5.5570708895e-01
 1.0820422552e+00	 8.7847801366e-01	-7.9060365006e-01
 1.0636582098e+00	 9.0064991828e-01	-9.8928235688e-01
 1.0448035950e+00	 9.2245569556e-01	-1.1498150976e+00
 1.0254894776e+00	 9.4388049761e-01	-1.2704979598e+00
 1.0057275438e+00	 9.6490992847e-01	-1.3498679219e+00
 9.8553007628e-01	 9.8553007628e-01	-1.3867177559e+00
 1.1717937157e+00	 7.6609365474e-01	 6.6847725335e-01
 1.1558342086e+00	 7.8996663359e-01	 3.2261313337e-01
 1.1393564505e+00	 8.1355201356e-01	 9.5315244304e-04
 1.1223681682e+00	 8.3683313453e-01	-2.9380870133e-01
 1.1048777959e+00	 8.5979361253e-01	-5.5911348289e-01
 1.0868944626e+00	 8.8241737696e-01	-7.9255952618e-01
 1.0684279775e+00	 9.0468870715e-01	-9.9192375165e-01
 1.0494888130e+00	 9.2659226819e-01	-1.1551818199e+00
 1.0300880852e+00	 9.4811314558e-01	-1.2805269157e+00
 1.0102375328e+00	 9.6923687882e-01	-1.3663869588e+00
 9.8994949366e-01	 9.8994949366e-01	-1.4114400555e+00
 1.1770249376e+00	 7.6951371570e-01	 6.3439245461e-01
 1.1609941828e+00	 7.9349327035e-01	 2.9939472201e-01
 1.1444428632e+00	 8.1718394219e-01	-1.3819976180e-02
 1.1273787404e+00	 8.4056899674e-01	-3.0249228197e-01
 1.1098102861e+00	 8.6363197688e-01	-5.6398954417e-01
 1.0917466700e+00	 8.8635674025e-01	-7.9582843006e-01
 1.0731977453e+00	 9.0872749603e-01	-9.9569665030e-01
 1.0541740309e+00	 9.3072884082e-01	-1.1614735686e+00
 1.0346866927e+00	 9.5234579355e-01	-1.2912494763e+00
 1.0147475218e+00	 9.7356382918e-01	-1.3833433256e+00
 9.9436891105e-01	 9.9436891105e-01	-1.4363187288e+00
 1.1822561596e+00	 7.7293377666e-01	 5.9845495390e-01
 1.1661541569e+00	 7.9701990711e-01	 2.7438056731e-01
 1.1495292759e+00	 8.2081587083e-01	-3.0308287035e-02
 1.1323893125e+00	 8.4430485895e-01	-3.1278651466e-01
 1.1147427762e+00	 8.6747034122e-01	-5.7034745959e-01
 1.0965988775e+00	 8.9029610354e-01	-8.0042589482e-01
 1.0779675130e+00	 9.1276628490e-01	-1.0006201677e+00
 1.0588592488e+00	 9.3486541345e-01	-1.1687132678e+00
 1.0392853002e+00	 9.5657844153e-01	-1.3026925947e+00
 1.0192575108e+00	 9.7789077953e-01	-1.4007682144e+00
 9.9878832843e-01	 9.9878832843e-01	-1.4613894081e+00
 1.1874873815e+00	 7.7635383762e-01	 5.6066317174e-01
 1.1713141311e+00	 8.0054654387e-01	 2.4756678010e-01
 1.1546156887e+00	 8.2444779946e-01	-4.8518234317e-02
 1.1373998847e+00	 8.4804072116e-01	-3.2470066875e-01
 1.1196752664e+00	 8.7130870557e-01	-5.7819955783e-01
 1.1014510849e+00	 8.9423546683e-01	-8.0636754620e-01
 1.0827372808e+00	 9.1680507377e-01	-1.0067134571e+00
 1.0635444667e+00	 9.3900198608e-01	-1.1769238214e+00
 1.0438839077e+00	 9.6081108950e-01	-1.3148831400e+00
 1.0237674998e+00	 9.8221772988e-01	-1.4186926655e+00
 1.0032077458e+00	 1.0032077458e+00	-1.4866875020e+00
 1.1927186035e+00	 7.7977389858e-01	 5.2101524546e-01
 1.1764741052e+00	 8.0407318063e-01	 2.1894921678e-01
 1.1597021014e+00	 8.2807972810e-01	-6.8456492990e-02
 1.1424104569e+00	 8.5177658337e-01	-3.3824419575e-01
 1.1246077565e+00	 8.7514706991e-01	-5.8755830633e-01
 1.1063032923e+00	 8.9817483013e-01	-8.1366910048e-01
 1.0875070486e+00	 9.2084386265e-01	-1.0139957096e+00
 1.0682296846e+00	 9.4313855871e-01	-1.1861281134e+00
 1.0484825153e+00	 9.6504373747e-01	-1.3278478993e+00
 1.0282774888e+00	 9.8654468024e-01	-1.4371475709e+00
 1.0076271632e+00	 1.0076271632e+00	-1.5122481997e+00
 1.1979498254e+00	 7.8319395954e-01	 4.7950903539e-01
 1.1816340794e+00	 8.0759981739e-01	 1.8852348485e-01
 1.1647885141e+00	 8.3171165673e-01	-9.0129953962e-02
 1.1474210291e+00	 8.5551244558e-01	-3.5342672542e-01
 1.1295402467e+00	 8.7898543425e-01	-5.9843630829e-01
 1.1111554997e+00	 9.0211419342e-01	-8.2234636254e-01
 1.0922768163e+00	 9.2488265152e-01	-1.0224861531e+00
 1.0729149026e+00	 9.4727513133e-01	-1.1963490085e+00
 1.0530811228e+00	 9.6927638545e-01	-1.3416135799e+00
 1.0327874778e+00	 9.9087163059e-01	-1.4561636775e+00
 1.0120465806e+00	 1.0120465806e+00	-1.5381064764e+00
 1.2031810474e+00	 7.8661402051e-01	 4.3614213087e-01
 1.1867940535e+00	 8.1112645415e-01	 1.5628494834e-01
 1.1698749268e+00	 8.3534358536e-01	-1.1354571940e-01
 1.1524316013e+00	 8.5924830779e-01	-3.7025806182e-01
 1.1344727369e+00	 8.8282379860e-01	-6.1084629972e-01
 1.1160077072e+00	 9.0605355671e-01	-8.3241522396e-01
 1.0970465841e+00	 9.2892144040e-01	-1.0322040514e+00
 1.0776001205e+00	 9.5141170396e-01	-1.2076093523e+00
 1.0576797303e+00	 9.7350903342e-01	-1.3562068105e+00
 1.0372974668e+00	 9.9519858095e-01	-1.4757715904e+00
 1.0164659980e+00	 1.0164659980e+00	-1.5642970974e+00
 9.7227182412e-01	 9.7227182413e-01	-1.3131293076e+00
 9.5192907740e-01	 9.9219757688e-01	-1.3005226645e+00
 9.3118255368e-01	 1.0116936551e+00	-1.3138366889e+00
 9.1004597768e-01	 1.0307479413e+00	-1.3532586997e+00
 8.8853355166e-01	 1.0493489065e+00	-1.4189755466e+00
 8.6665992379e-01	 1.0674856329e+00	-1.5111771439e+00
 8.4444015516e-01	 1.0851478352e+00	-1.6300592094e+00
 8.2188968569e-01	 1.1023258795e+00	-1.7758251741e+00
 7.9902429902e-01	 1.1190107996e+00	-1.9486872459e+00
 7.7586008655e-01	 1.1351943120e+00	-2.1488666218e+00
 7.5241341089e-01	 1.1508688279e+00	-2.3765928600e+00
 9.7669124151e-01	 9.7669124151e-01	-1.3375985975e+00
 9.5625602776e-01	 9.9670756587e-01	-1.3356983618e+00
 9.3541520166e-01	 1.0162922626e+00	-1.3566082112e+00
 9.1418255031e-01	 1.0354331592e+00	-1.4004850129e+00
 8.9257234053e-01	 1.0541186742e+00	-1.4674982215e+00
 8.7059928708e-01	 1.0723378403e+00	-1.5578334953e+00
 8.4827851950e-01	 1.0900803254e+00	-1.6716954375e+00
 8.2562554790e-01	 1.1073364516e+00	-1.8093094281e+00
 8.0265622765e-01	 1.1240972123e+00	-1.9709225302e+00
 7.7938672331e-01	 1.1403542862e+00	-2.1568034682e+00
 7.5583347185e-01	 1.1561000499e+00	-2.3672416895e+00
 9.8111065889e-01	 9.8111065889e-01	-1.3621159685e+00
 9.6058297811e-01	 1.0012175549e+00	-1.3708749490e+00
 9.3964784963e-01	 1.0208908701e+00	-1.3993508974e+00
 9.1831912294e-01	 1.0401183771e+00	-1.4476700343e+00
 8.9661112941e-01	 1.0588884420e+00	-1.5159842013e+00
 8.7453865037e-01	 1.0771900478e+00	-1.6044745617e+00
 8.5211688385e-01	 1.0950128156e+00	-1.7133543453e+00
 8.2936141011e-01	 1.1123470238e+00	-1.8428706039e+00
 8.0628815629e-01	 1.1291836250e+00	-1.9933049621e+00
 7.8291336007e-01	 1.1455142603e+00	-2.1649733619e+00
 7.5925353281e-01	 1.1613312718e+00	-2.3582248168e+00
 9.8553007628e-01	 9.8553007628e-01	-1.3867177559e+00
 9.6490992847e-01	 1.0057275438e+00	-1.4060899666e+00
 9.4388049761e-01	 1.0254894776e+00	-1.4421031206e+00
 9.2245569556e-01	 1.0448035950e+00	-1.4948525948e+00
 9.0064991828e-01	 1.0636582098e+00	-1.5644723985e+00
 8.7847801366e-01	 1.0820422552e+00	-1.6511389609e+00
 8.5595524819e-01	 1.0999453057e+00	-1.7550738805e+00
 8.3309727232e-01	 1.1173575960e+00	-1.8765456057e+00
 8.0992008492e-01	 1.1342700377e+00	-2.0158700315e+00
 7.8643999683e-01	 1.1506742345e+00	-2.1734100125e+00
 7.6267359378e-01	 1.1665624938e+00	-2.3495738092e+00
 9.8994949366e-01	 9.8994949366e-01	-1.4114400555e+00
 9.6923687882e-01	 1.0102375328e+00	-1.4413806992e+00
 9.4811314558e-01	 1.0300880852e+00	-1.4849029875e+00
 9.2659226819e-01	 1.0494888130e+00	-1.5420712538e+00
 9.0468870715e-01	 1.0684279775e+00	-1.6130014551e+00
 8.8241737696e-01	 1.0868944626e+00	-1.6978650469e+00
 8.5979361253e-01	 1.1048777959e+00	-1.7968917392e+00
 8.3683313453e-01	 1.1223681682e+00	-1.9103711039e+00
 8.1355201356e-01	 1.1393564505e+00	-2.0386530187e+00
 7.8996663359e-01	 1.1558342086e+00	-2.1821469487e+00
 7.6609365474e-01	 1.1717937157e+00	-2.3413200883e+00
 9.9436891105e-01	 9.9436891105e-01	-1.4363187288e+00
 9.7356382918e-01	 1.0147475218e+00	-1.4767841810e+00
 9.5234579355e-01	 1.0346866927e+00	-1.5277883440e+00
 9.3072884082e-01	 1.0541740309e+00	-1.5893643054e+00
 9.0872749603e-01	 1.0731977453e+00	-1.6616097485e+00
 8.8635674025e-01	 1.0917466700e+00	-1.7446909154e+00
 8.6363197688e-01	 1.1098102861e+00	-1.8388453715e+00
 8.4056899674e-01	 1.1273787404e+00	-1.9443835408e+00
 8.1718394219e-01	 1.1444428632e+00	-2.0616889982e+00
 7.9349327035e-01	 1.1609941828e+00	-2.1912175224e+00
 7.6951371570e-01	 1.1770249376e+00	-2.3334949322e+00
 9.9878832843e-01	 9.9878832843e-01	-1.4613894081e+00
 9.7789077953e-01	 1.0192575108e+00	-1.5123372017e+00
 9.5657844153e-01	 1.0392853002e+00	-1.5707967809e+00
 9.3486541345e-01	 1.0588592488e+00	-1.6367697839e+00
 9.1276628490e-01	 1.0779675130e+00	-1.7103353973e+00
 8.9029610354e-01	 1.0965988775e+00	-1.7916544098e+00
 8.6747034122e-01	 1.1147427762e+00	-1.8809719869e+00
 8.4430485895e-01	 1.1323893125e+00	-1.9786191351e+00
 8.2081587083e-01	 1.1495292759e+00	-2.0850128442e+00
 7.9701990711e-01	 1.1661541569e+00	-2.2006549124e+00
 7.7293377666e-01	 1.1822561596e+00	-2.3261294795e+00
 1.0032077458e+00	 1.0032077458e+00	-1.4866875020e+00
 9.8221772988e-01	 1.0237674998e+00	-1.5480763114e+00
 9.6081108950e-01	 1.0438839077e+00	-1.6139656401e+00
 9.3900198608e-01	 1.0635444667e+00	-1.6843254701e+00
 9.1680507377e-01	 1.0827372808e+00	-1.7592162671e+00
 8.9423546683e-01	 1.1014510849e+00	-1.8387931267e+00
 8.7130870557e-01	 1.1196752664e+00	-1.9233085595e+00
 8.4804072116e-01	 1.1373998847e+00	-2.0131138869e+00
 8.2444779946e-01	 1.1546156887e+00	-2.1086592341e+00
 8.0054654387e-01	 1.1713141311e+00	-2.2104921287e+00
 7.7635383762e-01	 1.1874873815e+00	-2.3192547320e+00
 1.0076271632e+00	 1.0076271632e+00	-1.5122481997e+00
 9.8654468024e-01	 1.0282774888e+00	-1.5840378264e+00
 9.6504373747e-01	 1.0484825153e+00	-1.6573320195e+00
 9.4313855871e-01	 1.0682296846e+00	-1.7320688960e+00
 9.2084386265e-01	 1.0875070486e+00	-1.8082899760e+00
 8.9817483013e-01	 1.1063032923e+00	-1.8861444210e+00
 8.7514706991e-01	 1.1246077565e+00	-1.9658918333e+00
 8.5177658337e-01	 1.1424104569e+00	-2.0479035829e+00
 8.2807972810e-01	 1.1597021014e+00	-2.1326626534e+00
 8.0407318063e-01	 1.1764741052e+00	-2.2207620157e+00
 7.7977389858e-01	 1.1927186035e+00	-2.3129015578e+00
 1.0120465806e+00	 1.0120465806e+00	-1.5381064764e+00
 9.9087163059e-01	 1.0327874778e+00	-1.6202578338e+00
 9.6927638545e-01	 1.0530811228e+00	-1.7009327783e+00
 9.4727513133e-01	 1.0729149026e+00	-1.7800373513e+00
 9.2488265152e-01	 1.0922768163e+00	-1.8575939000e+00
 9.0211419342e-01	 1.1111554997e+00	-1.9337454119e+00
 8.7898543425e-01	 1.1295402467e+00	-2.0087583273e+00
 8.5551244558e-01	 1.1474210291e+00	-2.0830238005e+00
 8.3171165673e-01	 1.1647885141e+00	-2.1570573997e+00
 8.0759981739e-01	 1.1816340794e+00	-2.2314972560e+00
 7.8319395954e-01	 1.1979498254e+00	-2.3071006939e+00
 1.0164659980e+00	 1.0164659980e+00	-1.5642970974e+00
 9.9519858095e-01	 1.0372974668e+00	-1.6567721968e+00
 9.7350903342e-01	 1.0576797303e+00	-1.7448045428e+00
 9.5141170396e-01	 1.0776001205e+00	-1.8282678876e+00
 9.2892144040e-01	 1.0970465841e+00	-1.9071651783e+00
 9.0605355671e-01	 1.1160077072e+00	-1.9816329871e+00
 8.8282379860e-01	 1.1344727369e+00	-2.0519443399e+00
 8.5924830779e-01	 1.1524316013e+00	-2.1185099129e+00
 8.3534358536e-01	 1.1698749268e+00	-2.1818775868e+00
 8.1112645415e-01	 1.1867940535e+00	-2.2427303740e+00
 7.8661402051e-01	 1.2031810474e+00	-2.3018827498e+00
 7.5241341089e-01	 1.1508688279e+00	-2.3765928600e+00
 7.2870086873e-01	 1.1660274627e+00	-2.4186953821e+00
 7.0473925348e-01	 1.1806640439e+00	-2.3645837644e+00
 6.8054551769e-01	 1.1947731158e+00	-2.2129735324e+00
 6.5613673552e-01	 1.2083499428e+00	-1.9630818920e+00
 6.3153006544e-01	 1.2213905094e+00	-1.6146195559e+00
 6.0674271315e-01	 1.2338915187e+00	-1.4084883933e+00
 5.8179189513e-01	 1.2458503886e+00	-1.2025128789e+00
 5.5669480277e-01	 1.2572652451e+00	-1.3830764784e+00
 5.3146856729e-01	 1.2681349147e+00	-1.7354430195e+00
 5.0613022563e-01	 1.2784589139e+00	-1.9959081001e+00
 7.5583347185e-01	 1.1561000499e+00	-2.3672416895e+00
 7.3201314541e-01	 1.1713275876e+00	-2.3786991066e+00
 7.0794261373e-01	 1.1860306986e+00	-2.2930096307e+00
 6.8363890641e-01	 1.2002039027e+00	-2.1089581559e+00
 6.5911917524e-01	 1.2138424425e+00	-1.8258364562e+00
 6.3440065665e-01	 1.2269422844e+00	-1.4434345995e+00
 6.0950063457e-01	 1.2395001165e+00	-1.1647479168e+00
 5.8443640374e-01	 1.2515133449e+00	-1.0180227057e+00
 5.5922523369e-01	 1.2629800871e+00	-1.4335342901e+00
 5.3388433351e-01	 1.2738991643e+00	-1.7581271166e+00
 5.0843081757e-01	 1.2842700908e+00	-1.9906653436e+00
 7.5925353281e-01	 1.1613312718e+00	-2.3582248168e+00
 7.3532542209e-01	 1.1766277124e+00	-2.3391537418e+00
 7.1114597397e-01	 1.1913973534e+00	-2.2220006899e+00
 6.8673229513e-01	 1.2056346896e+00	-2.0056197197e+00
 6.6210161495e-01	 1.2193349423e+00	-1.6893769998e+00
 6.3727124786e-01	 1.2324940595e+00	-1.2731418103e+00
 6.1225855600e-01	 1.2451087143e+00	-9.2258605157e-01
 5.8708091236e-01	 1.2571763012e+00	-1.0971223571e+00
 5.6175566462e-01	 1.2686949291e+00	-1.4852861369e+00
 5.3630009973e-01	 1.2796634139e+00	-1.7823509654e+00
 5.1073140950e-01	 1.2900812677e+00	-1.9872080378e+00
 7.6267359378e-01	 1.1665624938e+00	-2.3495738092e+00
 7.3863769877e-01	 1.1819278372e+00	-2.3000883530e+00
 7.1434933422e-01	 1.1967640081e+00	-2.1515833854e+00
 6.8982568385e-01	 1.2110654765e+00	-1.9029819311e+00
 6.6508405466e-01	 1.2248274420e+00	-1.5537243858e+00
 6.4014183907e-01	 1.2380458345e+00	-1.1037591057e+00
 6.1501647743e-01	 1.2507173122e+00	-7.2642499222e-01
 5.8972542098e-01	 1.2628392575e+00	-1.1772464899e+00
 5.6428609554e-01	 1.2744097711e+00	-1.5383056563e+00
 5.3871586595e-01	 1.2854276635e+00	-1.8080865817e+00
 5.1303200144e-01	 1.2958924446e+00	-1.9855065403e+00
 7.6609365474e-01	 1.1717937157e+00	-2.3413200883e+00
 7.4194997545e-01	 1.1872279621e+00	-2.2615318994e+00
 7.1755269447e-01	 1.2021306629e+00	-2.0817840955e+00
 6.9291907257e-01	 1.2164962634e+00	-1.8010684746e+00
 6.6806649437e-01	 1.2303199417e+00	-1.4188994982e+00
 6.4301243028e-01	 1.2435976095e+00	-9.3530446782e-01
 6.1777439885e-01	 1.2563259100e+00	-8.3421089170e-01
 5.9236992960e-01	 1.2685022138e+00	-1.2583704817e+00
 5.6681652646e-01	 1.2801246132e+00	-1.5925666879e+00
 5.4113163216e-01	 1.2911919132e+00	-1.8353062301e+00
 5.1533259338e-01	 1.3017036215e+00	-1.9855315046e+00
 7.6951371570e-01	 1.1770249376e+00	-2.3334949322e+00
 7.4526225213e-01	 1.1925280869e+00	-2.2235132365e+00
 7.2075605471e-01	 1.2074973176e+00	-2.0126291353e+00
 6.9601246129e-01	 1.2219270503e+00	-1.6999030127e+00
 6.7104893408e-01	 1.2358124415e+00	-1.2849232408e+00
 6.4588302149e-01	 1.2491493846e+00	-7.6779594236e-01
 6.2053232028e-01	 1.2619345078e+00	-9.4273382976e-01
 5.9501443821e-01	 1.2741651701e+00	-1.3404698623e+00
 5.6934695739e-01	 1.2858394552e+00	-1.6480432688e+00
 5.4354739838e-01	 1.2969561628e+00	-1.8639824185e+00
 5.1763318532e-01	 1.3075147983e+00	-1.9872538742e+00
 7.7293377666e-01	 1.1822561596e+00	-2.3261294795e+00
 7.4857452881e-01	 1.1978282117e+00	-2.1860611182e+00
 7.2395941496e-01	 1.2128639724e+00	-1.9441447576e+00
 6.9910585001e-01	 1.2273578372e+00	-1.5995091864e+00
 6.7403137379e-01	 1.2413049412e+00	-1.1518165374e+00
 6.4875361270e-01	 1.2547011596e+00	-8.8483209053e-01
 6.2329024171e-01	 1.2675431056e+00	-1.0519708970e+00
 5.9765894683e-01	 1.2798281264e+00	-1.4235203106e+00
 5.7187738831e-01	 1.2915542972e+00	-1.7047096293e+00
 5.4596316460e-01	 1.3027204124e+00	-1.8940878928e+00
 5.1993377725e-01	 1.3133259752e+00	-1.9906448756e+00
 7.7635383762e-01	 1.1874873815e+00	-2.3192547320e+00
 7.5188680549e-01	 1.2031283366e+00	-2.1492041990e+00
 7.2716277520e-01	 1.2182306271e+00	-1.8763571546e+00
 7.0219923873e-01	 1.2327886241e+00	-1.4999106153e+00
 6.7701381350e-01	 1.2467974410e+00	-1.0196003312e+00
 6.5162420391e-01	 1.2602529347e+00	-1.0531496613e+00
 6.2604816313e-01	 1.2731517034e+00	-1.1749400493e+00
 6.0030345545e-01	 1.2854910827e+00	-1.5074976506e+00
 5.7440781924e-01	 1.2972691392e+00	-1.7625401884e+00
 5.4837893082e-01	 1.3084846620e+00	-1.9255956319e+00
 5.2223436919e-01	 1.3191371521e+00	-1.9956760126e+00
 7.7977389858e-01	 1.1927186035e+00	-2.3129015578e+00
 7.5519908217e-01	 1.2084284614e+00	-2.1129710366e+00
 7.3036613545e-01	 1.2235972819e+00	-1.8092924589e+00
 7.0529262745e-01	 1.2382194110e+00	-1.4011308985e+00
 6.7999625321e-01	 1.2522899407e+00	-1.0228026449e+00
 6.5449479512e-01	 1.2658047097e+00	-1.2213436773e+00
 6.2880608456e-01	 1.2787603012e+00	-1.3194526863e+00
 6.0294796406e-01	 1.2911540391e+00	-1.5923778490e+00
 5.7693825016e-01	 1.3029839813e+00	-1.8215095503e+00
 5.5079469703e-01	 1.3142489116e+00	-1.9584788421e+00
 5.2453496113e-01	 1.3249483290e+00	-2.0023190598e+00
 7.8319395954e-01	 1.1979498254e+00	-2.3071006939e+00
 7.5851135884e-01	 1.2137285862e+00	-2.0773900935e+00
 7.3356949570e-01	 1.2289639366e+00	-1.7429767453e+00
 7.0838601617e-01	 1.2436501979e+00	-1.3031936148e+00
 6.8297869292e-01	 1.2577824405e+00	-1.2141412876e+00
 6.5736538633e-01	 1.2713564848e+00	-1.3894018543e+00
 6.3156400599e-01	 1.2843688990e+00	-1.4640424925e+00
 6.0559247268e-01	 1.2968169954e+00	-1.6781370116e+00
 5.7946868109e-01	 1.3086988233e+00	-1.8815924993e+00
 5.5321046325e-01	 1.3200131612e+00	-1.9927109525e+00
 5.2683555306e-01	 1.3307595059e+00	-2.0105460569e+00
 7.8661402051e-01	 1.2031810474e+00	-2.3018827498e+00
 7.6182363552e-01	 1.2190287111e+00	-2.0424897394e+00
 7.3677285594e-01	 1.2343305914e+00	-1.6774360315e+00
 7.1147940489e-01	 1.2490809847e+00	-1.2061223231e+00
 6.8596113263e-01	 1.2632749402e+00	-1.4051253135e+00
 6.6023597754e-01	 1.2769082598e+00	-1.5573119653e+00
 6.3432192741e-01	 1.2899774969e+00	-1.6086954345e+00
 6.0823698130e-01	 1.3024799517e+00	-1.7647513804e+00
 5.8199911201e-01	 1.3144136653e+00	-1.9427639972e+00
 5.5562622947e-01	 1.3257774108e+00	-2.0282656101e+00
 5.2913614500e-01	 1.3365706828e+00	-2.0203293030e+00
 5.0613022563e-01	 1.2784589139e+00	-1.9959081001e+00
 4.8069668729e-01	 1.2882374373e+00	-2.0198221973e+00
 4.5518470243e-01	 1.2974713433e+00	-2.0208753078e+00
 4.2961083119e-01	 1.3061621391e+00	-1.9995584829e+00
 4.0399141433e-01	 1.3143119634e+00	-1.9565499131e+00
 3.7834254539e-01	 1.3219235675e+00	-1.8927151149e+00
 3.5268004429e-01	 1.3290002958e+00	-1.8091054446e+00
 3.2701943253e-01	 1.3355460646e+00	-1.7069549930e+00
 3.0137591002e-01	 1.3415653397e+00	-1.5876759251e+00
 2.7576433358e-01	 1.3470631137e+00	-1.4528523520e+00
 2.5019919705e-01	 1.3520448816e+00	-1.3042328295e+00
 5.0843081757e-01	 1.2842700908e+00	-1.9906653436e+00
 4.8288167223e-01	 1.2940930620e+00	-1.9944192288e+00
 4.5725372381e-01	 1.3033689403e+00	-1.9798091020e+00
 4.3156360770e-01	 1.3120992397e+00	-1.9472195324e+00
 4.0582773894e-01	 1.3202861087e+00	-1.8972111857e+00
 3.8006228423e-01	 1.3279323110e+00	-1.8305219379e+00
 3.5428313540e-01	 1.3350412063e+00	-1.7480663255e+00
 3.2850588449e-01	 1.3416167285e+00	-1.6509333757e+00
 3.0274580052e-01	 1.3476633640e+00	-1.5403828798e+00
 2.7701780782e-01	 1.3531861278e+00	-1.4178401868e+00
 2.5133646612e-01	 1.3581905401e+00	-1.2848896084e+00
 5.1073140950e-01	 1.2900812677e+00	-1.9872080378e+00
 4.8506665718e-01	 1.2999486867e+00	-1.9707786869e+00
 4.5932274519e-01	 1.3092665373e+00	-1.9404397872e+00
 4.3351638420e-01	 1.3180363404e+00	-1.8964696413e+00
 4.0766406355e-01	 1.3262602539e+00	-1.8393117179e+00
 3.8178202308e-01	 1.3339410545e+00	-1.7695766901e+00
 3.5588622651e-01	 1.3410821167e+00	-1.6880428176e+00
 3.2999233646e-01	 1.3476873925e+00	-1.5956547102e+00
 3.0411569102e-01	 1.3537613883e+00	-1.4935205296e+00
 2.7827128206e-01	 1.3593091420e+00	-1.3829077003e+00
 2.5247373520e-01	 1.3643361987e+00	-1.2652372168e+00
 5.1303200144e-01	 1.2958924446e+00	-1.9855065403e+00
 4.8725164212e-01	 1.3058043114e+00	-1.9488728379e+00
 4.6139176656e-01	 1.3151641343e+00	-1.9027420516e+00
 4.3546916071e-01	 1.3239734410e+00	-1.8472864201e+00
 4.0950038817e-01	 1.3322343992e+00	-1.7828325290e+00
 3.8350176192e-01	 1.3399497979e+00	-1.7098642707e+00
 3.5748931762e-01	 1.3471230271e+00	-1.6290241563e+00
 3.3147878842e-01	 1.3537580564e+00	-1.5411130079e+00
 3.0548558152e-01	 1.3598594126e+00	-1.4470880851e+00
 2.7952475631e-01	 1.3654321562e+00	-1.3480597089e+00
 2.5361100428e-01	 1.3704818572e+00	-1.2452864656e+00
 5.1533259338e-01	 1.3017036215e+00	-1.9855315046e+00
 4.8943662707e-01	 1.3116599361e+00	-1.9286742278e+00
 4.6346078794e-01	 1.3210617313e+00	-1.8666908374e+00
 4.3742193722e-01	 1.3299105416e+00	-1.7996476978e+00
 4.1133671278e-01	 1.3382085445e+00	-1.7277548116e+00
 3.8522150076e-01	 1.3459585414e+00	-1.6513696989e+00
 3.5909240873e-01	 1.3531639376e+00	-1.5709996345e+00
 3.3296524039e-01	 1.3598287203e+00	-1.4873022671e+00
 3.0685547202e-01	 1.3659574368e+00	-1.4010846654e+00
 2.8077823055e-01	 1.3715551703e+00	-1.3133008505e+00
 2.5474827335e-01	 1.3766275158e+00	-1.2250478927e+00
 5.1763318532e-01	 1.3075147983e+00	-1.9872538742e+00
 4.9162161201e-01	 1.3175155608e+00	-1.9101556760e+00
 4.6552980932e-01	 1.3269593283e+00	-1.8322613344e+00
 4.3937471372e-01	 1.3358476423e+00	-1.7535315164e+00
 4.1317303739e-01	 1.3441826898e+00	-1.6740599282e+00
 3.8694123961e-01	 1.3519672849e+00	-1.5940781111e+00
 3.6069549984e-01	 1.3592048480e+00	-1.5139586017e+00
 3.3445169236e-01	 1.3658993842e+00	-1.4342164737e+00
 3.0822536252e-01	 1.3720554611e+00	-1.3555092995e+00
 2.8203170479e-01	 1.3776781845e+00	-1.2786355882e+00
 2.5588554243e-01	 1.3827731743e+00	-1.2045317686e+00
 5.1993377725e-01	 1.3133259752e+00	-1.9906448756e+00
 4.9380659696e-01	 1.3233711855e+00	-1.8932902692e+00
 4.6759883069e-01	 1.3328569253e+00	-1.7994289749e+00
 4.4132749023e-01	 1.3417847429e+00	-1.7089161266e+00
 4.1500936200e-01	 1.3501568351e+00	-1.6217294071e+00
 3.8866097845e-01	 1.3579760284e+00	-1.5379747587e+00
 3.6229859095e-01	 1.3652457584e+00	-1.4578904629e+00
 3.3593814432e-01	 1.3719700482e+00	-1.3818496010e+00
 3.0959525302e-01	 1.3781534854e+00	-1.3103609290e+00
 2.8328517904e-01	 1.3838011986e+00	-1.2440682143e+00
 2.5702281151e-01	 1.3889188329e+00	-1.1837481029e+00
 5.2223436919e-01	 1.3191371521e+00	-1.9956760126e+00
 4.9599158190e-01	 1.3292268103e+00	-1.8780513559e+00
 4.6966785207e-01	 1.3387545224e+00	-1.7681694284e+00
 4.4328026674e-01	 1.3477218435e+00	-1.6657799828e+00
 4.1684568661e-01	 1.3561309804e+00	-1.5707449388e+00
 3.9038071729e-01	 1.3639847719e+00	-1.4830450053e+00
 3.6390168206e-01	 1.3712866689e+00	-1.4027846768e+00
 3.3742459629e-01	 1.3780407121e+00	-1.3301956106e+00
 3.1096514353e-01	 1.3842515096e+00	-1.2656384093e+00
 2.8453865328e-01	 1.3899242128e+00	-1.2096028541e+00
 2.5816008059e-01	 1.3950644914e+00	-1.1627066494e+00
 5.2453496113e-01	 1.3249483290e+00	-2.0023190598e+00
 4.9817656684e-01	 1.3350824350e+00	-1.8644125402e+00
 4.7173687345e-01	 1.3446521194e+00	-1.7384585962e+00
 4.4523304324e-01	 1.3536589442e+00	-1.6241017393e+00
 4.1868201122e-01	 1.3621051257e+00	-1.5210883728e+00
 3.9210045614e-01	 1.3699935154e+00	-1.4292743241e+00
 3.6550477317e-01	 1.3773275793e+00	-1.3486307552e+00
 3.3891104826e-01	 1.3841113760e+00	-1.2792484520e+00
 3.1233503403e-01	 1.3903495339e+00	-1.2213405121e+00
 2.8579212753e-01	 1.3960472269e+00	-1.1752434693e+00
 2.5929734967e-01	 1.4012101500e+00	-1.1414169123e+00
 5.2683555306e-01	 1.3307595059e+00	-2.0105460569e+00
 5.0036155179e-01	 1.3409380597e+00	-1.8523476764e+00
 4.7380589482e-01	 1.3505497164e+00	-1.7102726066e+00
 4.4718581975e-01	 1.3595960448e+00	-1.5838602453e+00
 4.2051833584e-01	 1.3680792710e+00	-1.4727417136e+00
 3.9382019498e-01	 1.3760022589e+00	-1.3766482958e+00
 3.6710786429e-01	 1.3833684897e+00	-1.2954182614e+00
 3.4039750023e-01	 1.3901820400e+00	-1.2290020634e+00
 3.1370492453e-01	 1.3964475582e+00	-1.1774659268e+00
 2.8704560177e-01	 1.4021702411e+00	-1.1409938619e+00
 2.6043461874e-01	 1.4073558085e+00	-1.1198881513e+00
 5.2913614500e-01	 1.3365706828e+00	-2.0203293030e+00
 5.0254653673e-01	 1.3467936844e+00	-1.8418308635e+00
 4.7587491620e-01	 1.3564473134e+00	-1.6835878095e+00
 4.4913859626e-01	 1.3655331454e+00	-1.5450345408e+00
 4.2235466045e-01	 1.3740534163e+00	-1.4256871176e+00
 3.9553993383e-01	 1.3820110024e+00	-1.3251526063e+00
 3.6871095540e-01	 1.3894094002e+00	-1.2431368097e+00
 3.4188395219e-01	 1.3962527039e+00	-1.1794503714e+00
 3.1507481503e-01	 1.4025455825e+00	-1.1340132626e+00
 2.8829907602e-01	 1.4082932552e+00	-1.1068576776e+00
 2.6157188782e-01	 1.4135014671e+00	-1.0981293869e+00
 2.5019919705e-01	 1.3520448816e+00	-1.3042328295e+00
 2.2469461322e-01	 1.3565166165e+00	-1.3239295281e+00
 1.9926429739e-01	 1.3604847444e+00	-1.3426713079e+00
 1.7392155271e-01	 1.3639561186e+00	-1.3596206928e+00
 1.4867925712e-01	 1.3669379937e+00	-1.3741439642e+00
 1.2354985210e-01	 1.3694379993e+00	-1.3858063860e+00
 9.8545332961e-02	 1.3714641145e+00	-1.3943660489e+00
 7.3677240839e-02	 1.3730246408e+00	-1.3997664686e+00
 4.8956656211e-02	 1.3741281766e+00	-1.4021280798e+00
 2.4394193976e-02	 1.3747835914e+00	-1.4017387656e+00
 0.0000000000e+00	 1.3750000000e+00	-1.3990435671e+00
 2.5133646612e-01	 1.3581905401e+00	-1.2848896084e+00
 2.2571595236e-01	 1.3626826011e+00	-1.3088464963e+00
 2.0017004419e-01	 1.3666687660e+00	-1.3289310550e+00
 1.7471210522e-01	 1.3701559191e+00	-1.3444446428e+00
 1.4935507192e-01	 1.3731513482e+00	-1.3548987649e+00
 1.2411144233e-01	 1.3756627175e+00	-1.3600095128e+00
 9.8993266290e-02	 1.3776980423e+00	-1.3596906236e+00
 7.4012137386e-02	 1.3792656619e+00	-1.3540453002e+00
 4.9179186465e-02	 1.3803742138e+00	-1.3433569366e+00
 2.4505076675e-02	 1.3810326078e+00	-1.3280788947e+00
 0.0000000000e+00	 1.3812500000e+00	-1.3088234785e+00
 2.5247373520e-01	 1.3643361987e+00	-1.2652372168e+00
 2.2673729151e-01	 1.3688485857e+00	-1.2938710102e+00
 2.0107579100e-01	 1.3728527875e+00	-1.3157293221e+00
 1.7550265773e-01	 1.3763557197e+00	-1.3302511557e+00
 1.5003088672e-01	 1.3793647027e+00	-1.3370920758e+00
 1.2467303257e-01	 1.3818874357e+00	-1.3361178662e+00
 9.9441199620e-02	 1.3839319701e+00	-1.3273968069e+00
 7.4347033934e-02	 1.3855066830e+00	-1.3111907176e+00
 4.9401716719e-02	 1.3866202510e+00	-1.2879449172e+00
 2.4615959374e-02	 1.3872816241e+00	-1.2582772480e+00
 0.0000000000e+00	 1.3875000000e+00	-1.2229663177e+00
 2.5361100428e-01	 1.3704818572e+00	-1.2452864656e+00
 2.2775863066e-01	 1.3750145703e+00	-1.2790089135e+00
 2.0198153780e-01	 1.3790368091e+00	-1.3030666662e+00
 1.7629321024e-01	 1.3825555202e+00	-1.3170351949e+00
 1.5070670153e-01	 1.3855780572e+00	-1.3207129740e+00
 1.2523462280e-01	 1.3881121539e+00	-1.3141143586e+00
 9.9889132950e-02	 1.3901658979e+00	-1.2974610819e+00
 7.4681930482e-02	 1.3917477041e+00	-1.2711725251e+00
 4.9624246974e-02	 1.3928662881e+00	-1.2358549114e+00
 2.4726842073e-02	 1.3935306404e+00	-1.1922895813e+00
 0.0000000000e+00	 1.3937500000e+00	-1.1414205015e+00
 2.5474827335e-01	 1.3766275158e+00	-1.2250478927e+00
 2.2877996981e-01	 1.3811805549e+00	-1.2642658773e+00
 2.0288728461e-01	 1.3852208307e+00	-1.2909435766e+00
 1.7708376275e-01	 1.3887553208e+00	-1.3047917664e+00
 1.5138251633e-01	 1.3917914117e+00	-1.3057506939e+00
 1.2579621304e-01	 1.3943368721e+00	-1.2939821778e+00
 1.0033706628e-01	 1.3963998257e+00	-1.2698603297e+00
 7.5016827030e-02	 1.3979887252e+00	-1.2339610505e+00
 4.9846777229e-02	 1.3991123253e+00	-1.1870504628e+00
 2.4837724773e-02	 1.3997796567e+00	-1.1300724366e+00
 0.0000000000e+00	 1.4000000000e+00	-1.0641353678e+00
 2.5588554243e-01	 1.3827731743e+00	-1.2045317686e+00
 2.2980130896e-01	 1.3873465396e+00	-1.2496474037e+00
 2.0379303141e-01	 1.3914048522e+00	-1.2793604771e+00
 1.7787431526e-01	 1.3949551213e+00	-1.2935159181e+00
 1.5205833114e-01	 1.3980047662e+00	-1.2921946233e+00
 1.2635780327e-01	 1.4005615902e+00	-1.2757047815e+00
 1.0078499961e-01	 1.4026337535e+00	-1.2445718207e+00
 7.5351723579e-02	 1.4042297462e+00	-1.1995271347e+00
 5.0069307484e-02	 1.4053583625e+00	-1.1414957539e+00
 2.4948607473e-02	 1.4060286731e+00	-1.0715831240e+00
 0.0000000000e+00	 1.4062500000e+00	-9.9106115511e-01
 2.5702281151e-01	 1.3889188329e+00	-1.1837481029e+00
 2.3082264811e-01	 1.3935125242e+00	-1.2351588297e+00
 2.0469877822e-01	 1.3975888738e+00	-1.2683177266e+00
 1.7866486777e-01	 1.4011549218e+00	-1.2832027386e+00
 1.5273414594e-01	 1.4042181207e+00	-1.2800343003e+00
 1.2691939351e-01	 1.4067863084e+00	-1.2592658906e+00
 1.0123293294e-01	 1.4088676813e+00	-1.2215732059e+00
 7.5686620128e-02	 1.4104707673e+00	-1.1678421192e+00
 5.0291837739e-02	 1.4116043996e+00	-1.0991555917e+00
 2.5059490172e-02	 1.4122776894e+00	-1.0167797052e+00
 0.0000000000e+00	 1.4125000000e+00	-9.2214898266e-01
 2.5816008059e-01	 1.3950644914e+00	-1.1627066494e+00
 2.3184398727e-01	 1.3996785088e+00	-1.2208053307e+00
 2.0560452503e-01	 1.4037728954e+00	-1.2578156215e+00
 1.7945542029e-01	 1.4073547224e+00	-1.2738473562e+00
 1.5340996075e-01	 1.4104314753e+00	-1.2692594100e+00
 1.2748098375e-01	 1.4130110266e+00	-1.2446494839e+00
 1.0168086628e-01	 1.4151016090e+00	-1.2008425083e+00
 7.6021516678e-02	 1.4167117884e+00	-1.1388778358e+00
 5.0514367995e-02	 1.4178504368e+00	-1.0599953945e+00
 2.5170372873e-02	 1.4185267057e+00	-9.6562097676e-01
 0.0000000000e+00	 1.4187500000e+00	-8.5735083104e-01
 2.5929734967e-01	 1.4012101500e+00	-1.1414169123e+00
 2.3286532642e-01	 1.4058444934e+00	-1.2065919240e+00
 2.0651027184e-01	 1.4099569169e+00	-1.2478543961e+00
 1.8024597280e-01	 1.4135545229e+00	-1.2654449384e+00
 1.5408577555e-01	 1.4166448298e+00	-1.2598597809e+00
 1.2804257399e-01	 1.4192357448e+00	-1.2318397923e+00
 1.0212879961e-01	 1.4213355368e+00	-1.1823581154e+00
 7.6356413228e-02	 1.4229528095e+00	-1.1126065955e+00
 5.0736898251e-02	 1.4240964740e+00	-1.0239811782e+00
 2.5281255573e-02	 1.4247757220e+00	-9.1806645386e-01
 0.0000000000e+00	 1.4250000000e+00	-7.9661952329e-01
 2.6043461874e-01	 1.4073558085e+00	-1.1198881513e+00
 2.3388666557e-01	 1.4120104780e+00	-1.1925234727e+00
 2.0741601865e-01	 1.4161409385e+00	-1.2384342247e+00
 1.8103652531e-01	 1.4197543235e+00	-1.2579906907e+00
 1.5476159036e-01	 1.4228581843e+00	-1.2518253822e+00
 1.2860416423e-01	 1.4254604629e+00	-1.2208212932e+00
 1.0257673294e-01	 1.4275694646e+00	-1.1660987703e+00
 7.6691309779e-02	 1.4291938306e+00	-1.0890011783e+00
 5.0959428508e-02	 1.4303425111e+00	-9.9107954326e-01
 2.5392138273e-02	 1.4310247384e+00	-8.7407635489e-01
 0.0000000000e+00	 1.4312500000e+00	-7.3990870650e-01
 2.6157188782e-01	 1.4135014671e+00	-1.0981293869e+00
 2.3490800473e-01	 1.4181764627e+00	-1.1786046884e+00
 2.0832176545e-01	 1.4223249601e+00	-1.2295552227e+00
 1.8182707783e-01	 1.4259541240e+00	-1.2514798561e+00
 1.5543740517e-01	 1.4290715388e+00	-1.2451463204e+00
 1.2916575446e-01	 1.4316851811e+00	-1.2115787052e+00
 1.0302466628e-01	 1.4338033924e+00	-1.1520435649e+00
 7.7026206330e-02	 1.4354348517e+00	-1.0680348229e+00
 5.1181958765e-02	 1.4365885483e+00	-9.6125766203e-01
 2.5503020974e-02	 1.4372737547e+00	-8.3361158597e-01
 0.0000000000e+00	 1.4375000000e+00	-6.8717283387e-01
 1.4375000000e+00	 0.0000000000e+00	 3.4718249462e+00
 1.4372737547e+00	 2.5503020974e-02	 3.5935867491e+00
 1.4365885483e+00	 5.1181958765e-02	 3.6827352001e+00
 1.4354348517e+00	 7.7026206330e-02	 3.7366240953e+00
 1.4338033924e+00	 1.0302466628e-01	 3.7529041229e+00
 1.4316851811e+00	 1.2916575446e-01	 3.7295493673e+00
 1.4290715388e+00	 1.5543740517e-01	 3.6648826584e+00
 1.4259541240e+00	 1.8182707783e-01	 3.5575994747e+00
 1.4223249601e+00	 2.0832176545e-01	 3.4067901052e+00
 1.4181764627e+00	 2.3490800473e-01	 3.2119597723e+00
 1.4135014671e+00	 2.6157188782e-01	 2.9730464221e+00
 1.4437500000e+00	 0.0000000000e+00	 3.4773408576e+00
 1.4435227710e+00	 2.5613903674e-02	 3.5916346326e+00
 1.4428345855e+00	 5.1404489022e-02	 3.6746218833e+00
 1.4416758728e+00	 7.7361102881e-02	 3.7236996404e+00
 1.4400373202e+00	 1.0347259961e-01	 3.7365628895e+00
 1.4379098993e+00	 1.2972734470e-01	 3.7112310075e+00
 1.4352848933e+00	 1.5611321998e-01	 3.6460730231e+00
 1.4321539245e+00	 1.8261763034e-01	 3.5398314084e+00
 1.4285089816e+00	 2.0922751226e-01	 3.3916441036e+00
 1.4243424473e+00	 2.3592934388e-01	 3.2010644770e+00
 1.4196471256e+00	 2.6270915690e-01	 2.9680789259e+00
 1.4500000000e+00	 0.0000000000e+00	 3.4836961053e+00
 1.4497717873e+00	 2.5724786375e-02	 3.5906842486e+00
 1.4490806226e+00	 5.1627019278e-02	 3.6676480499e+00
 1.4479168939e+00	 7.7695999432e-02	 3.7120271340e+00
 1.4462712480e+00	 1.0392053294e-01	 3.7215602128e+00
 1.4441346175e+00	 1.3028893494e-01	 3.6943114601e+00
 1.4414982478e+00	 1.5678903478e-01	 3.6286956882e+00
 1.4383537251e+00	 1.8340818286e-01	 3.5235020325e+00
 1.4346930032e+00	 2.1013325907e-01	 3.3779158436e+00
 1.4305084319e+00	 2.3695068303e-01	 3.1915384895e+00
 1.4257927842e+00	 2.6384642598e-01	 2.9644047695e+00
 1.4562500000e+00	 0.0000000000e+00	 3.4908749592e+00
 1.4560208037e+00	 2.5835669075e-02	 3.5907182562e+00
 1.4553266598e+00	 5.1849549534e-02	 3.6617948585e+00
 1.4541579150e+00	 7.8030895982e-02	 3.7015863488e+00
 1.4525051758e+00	 1.0436846628e-01	 3.7078745999e+00
 1.4503593357e+00	 1.3085052518e-01	 3.6787680919e+00
 1.4477116024e+00	 1.5746484959e-01	 3.6127270110e+00
 1.4445535256e+00	 1.8419873537e-01	 3.5085868306e+00
 1.4408770248e+00	 2.1103900588e-01	 3.3655800768e+00
 1.4366744165e+00	 2.3797202219e-01	 3.1833559757e+00
 1.4319384427e+00	 2.6498369506e-01	 2.9619976851e+00
 1.4625000000e+00	 0.0000000000e+00	 3.4988619577e+00
 1.4622698200e+00	 2.5946551775e-02	 3.5917196065e+00
 1.4615726970e+00	 5.2072079790e-02	 3.6570437791e+00
 1.4603989361e+00	 7.8365792532e-02	 3.6923573857e+00
 1.4587391036e+00	 1.0481639961e-01	 3.6954848992e+00
 1.4565840538e+00	 1.3141211542e-01	 3.6645786209e+00
 1.4539249569e+00	 1.5814066440e-01	 3.5981437057e+00
 1.4507533262e+00	 1.8498928789e-01	 3.4950616458e+00
 1.4470610463e+00	 2.1194475269e-01	 3.3546119127e+00
 1.4428404012e+00	 2.3899336134e-01	 3.1764914544e+00
 1.4380841013e+00	 2.6612096414e-01	 2.9608317487e+00
 1.4687500000e+00	 0.0000000000e+00	 3.5076419028e+00
 1.4685188363e+00	 2.6057434475e-02	 3.5936715363e+00
 1.4678187341e+00	 5.2294610046e-02	 3.6533765870e+00
 1.4666399572e+00	 7.8700689081e-02	 3.6843206669e+00
 1.4649730314e+00	 1.0526433294e-01	 3.6843702931e+00
 1.4628087720e+00	 1.3197370566e-01	 3.6517211083e+00
 1.4601383114e+00	 1.5881647920e-01	 3.5849228361e+00
 1.4569531267e+00	 1.8577984040e-01	 3.4829026730e+00
 1.4532450679e+00	 2.1285049949e-01	 3.3449868111e+00
 1.4490063858e+00	 2.4001470049e-01	 3.1709197896e+00
 1.4442297599e+00	 2.6725823322e-01	 2.9608813731e+00
 1.4750000000e+00	 0.0000000000e+00	 3.5171998538e+00
 1.4747678526e+00	 2.6168317175e-02	 3.5965575619e+00
 1.4740647713e+00	 5.2517140301e-02	 3.6507753561e+00
 1.4728809783e+00	 7.9035585630e-02	 3.6774569288e+00
 1.4712069592e+00	 1.0571226627e-01	 3.6745102911e+00
 1.4690334902e+00	 1.3253529589e-01	 3.6401739515e+00
 1.4663516659e+00	 1.5949229401e-01	 3.5730418078e+00
 1.4631529272e+00	 1.8657039291e-01	 3.4720864512e+00
 1.4594290895e+00	 2.1375624630e-01	 3.3366805750e+00
 1.4551723704e+00	 2.4103603964e-01	 3.1666161837e+00
 1.4503754184e+00	 2.6839550230e-01	 2.9621213004e+00
 1.4812500000e+00	 0.0000000000e+00	 3.5275211223e+00
 1.4810168690e+00	 2.6279199874e-02	 3.6003614735e+00
 1.4803108085e+00	 5.2739670556e-02	 3.6492224524e+00
 1.4791219994e+00	 7.9370482179e-02	 3.6717472158e+00
 1.4774408870e+00	 1.0616019960e-01	 3.6658847227e+00
 1.4752582084e+00	 1.3309688613e-01	 3.6299158770e+00
 1.4725650204e+00	 1.6016810881e-01	 3.5624783612e+00
 1.4693527278e+00	 1.8736094542e-01	 3.4625898567e+00
 1.4656131110e+00	 2.1466199311e-01	 3.3296693431e+00
 1.4613383550e+00	 2.4205737879e-01	 3.1635561698e+00
 1.4565210770e+00	 2.6953277137e-01	 2.9645265953e+00
 1.4875000000e+00	 0.0000000000e+00	 3.5385912669e+00
 1.4872658853e+00	 2.6390082574e-02	 3.6050673292e+00
 1.4865568456e+00	 5.2962200810e-02	 3.6487005282e+00
 1.4853630205e+00	 7.9705378727e-02	 3.6671728735e+00
 1.4836748148e+00	 1.0660813293e-01	 3.6584737307e+00
 1.4814829266e+00	 1.3365847636e-01	 3.6209259337e+00
 1.4787783750e+00	 1.6084392361e-01	 3.5532105645e+00
 1.4755525283e+00	 1.8815149793e-01	 3.4543900954e+00
 1.4717971326e+00	 2.1556773991e-01	 3.3239295828e+00
 1.4675043396e+00	 2.4307871794e-01	 3.1617156051e+00
 1.4626667355e+00	 2.7067004045e-01	 2.9680726384e+00
 1.4937500000e+00	 0.0000000000e+00	 3.5503960875e+00
 1.4935149016e+00	 2.6500965273e-02	 3.6106594494e+00
 1.4928028828e+00	 5.3184731065e-02	 3.6491925160e+00
 1.4916040416e+00	 8.0040275274e-02	 3.6637155425e+00
 1.4899087426e+00	 1.0705606626e-01	 3.6522577647e+00
 1.4877076447e+00	 1.3422006660e-01	 3.6131834856e+00
 1.4849917295e+00	 1.6151973842e-01	 3.5452168067e+00
 1.4817523289e+00	 1.8894205044e-01	 3.4474646964e+00
 1.4779811542e+00	 2.1647348671e-01	 3.3194380834e+00
 1.4736703243e+00	 2.4410005709e-01	 3.1610706642e+00
 1.4688123941e+00	 2.7180730953e-01	 2.9727351192e+00
 1.5000000000e+00	 0.0000000000e+00	 3.5629216210e+00
 1.4997639179e+00	 2.6611847972e-02	 3.6171224116e+00
 1.4990489200e+00	 5.3407261319e-02	 3.6506816226e+00
 1.4978450627e+00	 8.0375171821e-02	 3.6613571524e+00
 1.4961426704e+00	 1.0750399959e-01	 3.6472175748e+00
 1.4939323629e+00	 1.3478165683e-01	 3.6066682057e+00
 1.4912050840e+00	 1.6219555322e-01	 3.5384757910e+00
 1.4879521294e+00	 1.8973260295e-01	 3.4417915052e+00
 1.4841651757e+00	 2.1737923352e-01	 3.3161719492e+00
 1.4798363089e+00	 2.4512139624e-01	 3.1615978319e+00
 1.4749580526e+00	 2.7294457860e-01	 2.9784900302e+00
 1.4135014671e+00	 2.6157188782e-01	 2.9730464221e+00
 1.4082932552e+00	 2.8829907602e-01	 2.8956246381e+00
 1.4025455825e+00	 3.1507481503e-01	 2.8108136801e+00
 1.3962527039e+00	 3.4188395219e-01	 2.7192119280e+00
 1.3894094002e+00	 3.6871095540e-01	 2.6217409071e+00
 1.3820110024e+00	 3.9553993383e-01	 2.5196448981e+00
 1.3740534163e+00	 4.2235466045e-01	 2.4144874082e+00
 1.3655331454e+00	 4.4913859626e-01	 2.3081443888e+00
 1.3564473134e+00	 4.7587491620e-01	 2.2027941140e+00
 1.3467936844e+00	 5.0254653673e-01	 2.1009036715e+00
 1.3365706828e+00	 5.2913614500e-01	 2.0052120560e+00
 1.4196471256e+00	 2.6270915690e-01	 2.9680789259e+00
 1.4144162694e+00	 2.8955255026e-01	 2.8926957956e+00
 1.4086436067e+00	 3.1644470553e-01	 2.8087005825e+00
 1.4023233678e+00	 3.4337040416e-01	 2.7167035890e+00
 1.3954503106e+00	 3.7031404651e-01	 2.6176467566e+00
 1.3880197459e+00	 3.9725967267e-01	 2.5128033951e+00
 1.3800275615e+00	 4.2419098506e-01	 2.4037747144e+00
 1.3714702461e+00	 4.5109137277e-01	 2.2924830420e+00
 1.3623449104e+00	 4.7794393758e-01	 2.1811616363e+00
 1.3526493091e+00	 5.0473152168e-01	 2.0723410490e+00
 1.3423818596e+00	 5.3143673694e-01	 1.9688320202e+00
 1.4257927842e+00	 2.6384642598e-01	 2.9644047695e+00
 1.4205392835e+00	 2.9080602451e-01	 2.8909895081e+00
 1.4147416310e+00	 3.1781459603e-01	 2.8077376773e+00
 1.4083940318e+00	 3.4485685613e-01	 2.7152721028e+00
 1.4014912210e+00	 3.7191713762e-01	 2.6145557982e+00
 1.3940284893e+00	 3.9897941151e-01	 2.5068918117e+00
 1.3860017068e+00	 4.2602730967e-01	 2.3939198166e+00
 1.3774073467e+00	 4.5304414927e-01	 2.2776093257e+00
 1.3682425074e+00	 4.8001295895e-01	 2.1602494378e+00
 1.3585049338e+00	 5.0691650662e-01	 2.0444350653e+00
 1.3481930365e+00	 5.3373732887e-01	 1.9330496298e+00
 1.4319384427e+00	 2.6498369506e-01	 2.9619976851e+00
 1.4266622977e+00	 2.9205949875e-01	 2.8904788108e+00
 1.4208396553e+00	 3.1918448654e-01	 2.8078971336e+00
 1.4144646957e+00	 3.4634330810e-01	 2.7148886040e+00
 1.4075321315e+00	 3.7352022873e-01	 2.6124379652e+00
 1.4000372328e+00	 4.0069915036e-01	 2.5018787148e+00
 1.3919758521e+00	 4.2786363428e-01	 2.3848897529e+00
 1.3833444473e+00	 4.5499692578e-01	 2.2634885903e+00
 1.3741401045e+00	 4.8208198033e-01	 2.1400210248e+00
 1.3643605586e+00	 5.0910149156e-01	 2.0171472321e+00
 1.3540042134e+00	 5.3603792081e-01	 1.8978242555e+00
 1.4380841013e+00	 2.6612096414e-01	 2.9608317487e+00
 1.4327853118e+00	 2.9331297300e-01	 2.8911370771e+00
 1.4269376795e+00	 3.2055437704e-01	 2.8091514546e+00
 1.4205353596e+00	 3.4782976006e-01	 2.7155245593e+00
 1.4135730419e+00	 3.7512331984e-01	 2.6112635224e+00
 1.4060459763e+00	 4.0241888920e-01	 2.4977330043e+00
 1.3979499974e+00	 4.2969995890e-01	 2.3766518976e+00
 1.3892815480e+00	 4.5694970229e-01	 2.2500865269e+00
 1.3800377015e+00	 4.8415100170e-01	 2.1204402520e+00
 1.3702161833e+00	 5.1128647651e-01	 1.9904394179e+00
 1.3598153903e+00	 5.3833851274e-01	 1.8631156353e+00
 1.4442297599e+00	 2.6725823322e-01	 2.9608813731e+00
 1.4389083260e+00	 2.9456644724e-01	 2.8929380113e+00
 1.4330357038e+00	 3.2192426754e-01	 2.8114734706e+00
 1.4266060236e+00	 3.4931621203e-01	 2.7171517602e+00
 1.4196139524e+00	 3.7672641096e-01	 2.6110030590e+00
 1.4120547198e+00	 4.0413862805e-01	 2.4944239058e+00
 1.4039241427e+00	 4.3153628351e-01	 2.3691739537e+00
 1.3952186486e+00	 4.5890247879e-01	 2.2373691605e+00
 1.3859352985e+00	 4.8622002308e-01	 2.1014713144e+00
 1.3760718080e+00	 5.1347146145e-01	 1.9642738402e+00
 1.3656265672e+00	 5.4063910468e-01	 1.8288838666e+00
 1.4503754184e+00	 2.6839550230e-01	 2.9621213004e+00
 1.4450313401e+00	 2.9581992149e-01	 2.8958556417e+00
 1.4391337281e+00	 3.2329415804e-01	 2.8148363322e+00
 1.4326766875e+00	 3.5080266400e-01	 2.7197423161e+00
 1.4256548628e+00	 3.7832950207e-01	 2.6116274820e+00
 1.4180634633e+00	 4.0585836689e-01	 2.4919209637e+00
 1.4098982880e+00	 4.3337260812e-01	 2.3624239465e+00
 1.4011557492e+00	 4.6085525530e-01	 2.2253028429e+00
 1.3918328955e+00	 4.8828904445e-01	 2.0830787404e+00
 1.3819274327e+00	 5.1565644639e-01	 1.9386130585e+00
 1.3714377441e+00	 5.4293969661e-01	 1.7950893990e+00
 1.4565210770e+00	 2.6953277137e-01	 2.9645265953e+00
 1.4511543543e+00	 2.9707339573e-01	 2.8998643141e+00
 1.4452317524e+00	 3.2466404854e-01	 2.8192135035e+00
 1.4387473514e+00	 3.5228911596e-01	 2.7232686481e+00
 1.4316957732e+00	 3.7993259318e-01	 2.6131080091e+00
 1.4240722068e+00	 4.0757810573e-01	 2.4901940348e+00
 1.4158724333e+00	 4.3520893273e-01	 2.3563702159e+00
 1.4070928499e+00	 4.6280803180e-01	 2.2138542458e+00
 1.3977304925e+00	 4.9035806583e-01	 2.0652273847e+00
 1.3877830574e+00	 5.1784143133e-01	 1.9134199664e+00
 1.3772489209e+00	 5.4524028855e-01	 1.7616930265e+00
 1.4626667355e+00	 2.7067004045e-01	 2.9680726384e+00
 1.4572773685e+00	 2.9832686997e-01	 2.9049386845e+00
 1.4513297766e+00	 3.2603393904e-01	 2.8245787553e+00
 1.4448180154e+00	 3.5377556793e-01	 2.7277034819e+00
 1.4377366837e+00	 3.8153568429e-01	 2.6154161624e+00
 1.4300809503e+00	 4.0929784457e-01	 2.4892132812e+00
 1.4218465786e+00	 4.3704525734e-01	 2.3509814107e+00
 1.4130299505e+00	 4.6476080831e-01	 2.2029903536e+00
 1.4036280896e+00	 4.9242708720e-01	 2.0478824213e+00
 1.3936386821e+00	 5.2002641627e-01	 1.8886577855e+00
 1.3830600978e+00	 5.4754088048e-01	 1.7286558804e+00
 1.4688123941e+00	 2.7180730953e-01	 2.9727351192e+00
 1.4634003826e+00	 2.9958034422e-01	 2.9110537131e+00
 1.4574278009e+00	 3.2740382954e-01	 2.8309061590e+00
 1.4508886793e+00	 3.5526201989e-01	 2.7330198416e+00
 1.4437775941e+00	 3.8313877540e-01	 2.6185237620e+00
 1.4360896938e+00	 4.1101758342e-01	 2.4889491643e+00
 1.4278207239e+00	 4.3888158195e-01	 2.3462264817e+00
 1.4189670511e+00	 4.6671358481e-01	 2.1926784578e+00
 1.4095256866e+00	 4.9449610857e-01	 2.0310093372e+00
 1.3994943069e+00	 5.2221140121e-01	 1.8642900575e+00
 1.3888712747e+00	 5.4984147241e-01	 1.6959394224e+00
 1.4749580526e+00	 2.7294457860e-01	 2.9784900302e+00
 1.4695233968e+00	 3.0083381846e-01	 2.9181846577e+00
 1.4635258252e+00	 3.2877372004e-01	 2.8381700800e+00
 1.4569593432e+00	 3.5674847186e-01	 2.7391910435e+00
 1.4498185046e+00	 3.8474186651e-01	 2.6224029200e+00
 1.4420984373e+00	 4.1273732226e-01	 2.4893724386e+00
 1.4337948692e+00	 4.4071790656e-01	 2.3420746751e+00
 1.4249041518e+00	 4.6866636132e-01	 2.1828861497e+00
 1.4154232836e+00	 4.9656512995e-01	 2.0145739255e+00
 1.4053499316e+00	 5.2439638616e-01	 1.8402806386e+00
 1.3946824516e+00	 5.5214206435e-01	 1.6635054373e+00
 1.3365706828e+00	 5.2913614500e-01	 2.0052120560e+00
 1.3257774108e+00	 5.5562622947e-01	 1.8402928634e+00
 1.3144136653e+00	 5.8199911201e-01	 1.6346661656e+00
 1.3024799517e+00	 6.0823698130e-01	 1.3939008710e+00
 1.2899774969e+00	 6.3432192741e-01	 1.1440046364e+00
 1.2769082598e+00	 6.6023597754e-01	 8.8167148448e-01
 1.2632749402e+00	 6.8596113263e-01	 5.6415573404e-01
 1.2490809847e+00	 7.1147940489e-01	 2.3281994763e-01
 1.2343305914e+00	 7.3677285594e-01	 3.7223835753e-01
 1.2190287111e+00	 7.6182363552e-01	 4.3816775482e-01
 1.2031810474e+00	 7.8661402051e-01	 4.3614213087e-01
 1.3423818596e+00	 5.3143673694e-01	 1.9688320202e+00
 1.3315416605e+00	 5.5804199569e-01	 1.8066299427e+00
 1.3201285074e+00	 5.8452954293e-01	 1.6079730216e+00
 1.3081429080e+00	 6.1088148992e-01	 1.3784764489e+00
 1.2955860947e+00	 6.3707984884e-01	 1.1459912535e+00
 1.2824600349e+00	 6.6310656875e-01	 8.9297342727e-01
 1.2687674400e+00	 6.8894357234e-01	 5.8896025757e-01
 1.2545117716e+00	 7.1457279361e-01	 2.3899777689e-01
 1.2396972461e+00	 7.3997621619e-01	 2.3227313875e-01
 1.2243288359e+00	 7.6513591220e-01	 3.3216934176e-01
 1.2084122693e+00	 7.9003408147e-01	 3.6745308628e-01
 1.3481930365e+00	 5.3373732887e-01	 1.9330496298e+00
 1.3373059101e+00	 5.6045776190e-01	 1.7731719106e+00
 1.3258433494e+00	 5.8705997386e-01	 1.5810545854e+00
 1.3138058643e+00	 6.1352599853e-01	 1.3623603430e+00
 1.3011946925e+00	 6.3983777026e-01	 1.1450020919e+00
 1.2880118099e+00	 6.6597715995e-01	 9.0087036565e-01
 1.2742599397e+00	 6.9192601204e-01	 6.0989424296e-01
 1.2599425585e+00	 7.1766618232e-01	 2.7703062726e-01
 1.2450639009e+00	 7.4317957643e-01	 9.0153379947e-02
 1.2296289607e+00	 7.6844818888e-01	 2.2338648157e-01
 1.2136434913e+00	 7.9345414243e-01	 2.9531958951e-01
 1.3540042134e+00	 5.3603792081e-01	 1.8978242555e+00
 1.3430701597e+00	 5.6287352812e-01	 1.7398802254e+00
 1.3315581914e+00	 5.8959040478e-01	 1.5538748351e+00
 1.3194688206e+00	 6.1617050715e-01	 1.3455194878e+00
 1.3068032903e+00	 6.4259569169e-01	 1.1410622269e+00
 1.2935635850e+00	 6.6884775116e-01	 9.0539378176e-01
 1.2797524394e+00	 6.9490845175e-01	 6.2699596439e-01
 1.2653733454e+00	 7.2075957104e-01	 3.1073677673e-01
 1.2504305556e+00	 7.4638293668e-01	-3.8290181156e-02
 1.2349290856e+00	 7.7176046556e-01	 1.1182944015e-01
 1.2188747132e+00	 7.9687420339e-01	 2.1975877103e-01
 1.3598153903e+00	 5.3833851274e-01	 1.8631156353e+00
 1.3488344093e+00	 5.6528929433e-01	 1.7067166506e+00
 1.3372730334e+00	 5.9212083570e-01	 1.5263979843e+00
 1.3251317770e+00	 6.1881501576e-01	 1.3279209754e+00
 1.3124118881e+00	 6.4535361311e-01	 1.1341968060e+00
 1.2991153600e+00	 6.7171834237e-01	 9.0657513705e-01
 1.2852449392e+00	 6.9789089146e-01	 6.4030357489e-01
 1.2708041323e+00	 7.2385295976e-01	 3.4016143724e-01
 1.2557972104e+00	 7.4958629692e-01	 1.1139700072e-02
 1.2402292104e+00	 7.7507274223e-01	-2.4919831013e-03
 1.2241059352e+00	 8.0029426435e-01	 1.4078716552e-01
 1.3656265672e+00	 5.4063910468e-01	 1.8288838666e+00
 1.3545986589e+00	 5.6770506055e-01	 1.6736432486e+00
 1.3429878755e+00	 5.9465126662e-01	 1.4985884770e+00
 1.3307947333e+00	 6.2145952438e-01	 1.3095320524e+00
 1.3180204859e+00	 6.4811153454e-01	 1.1244310477e+00
 1.3046671350e+00	 6.7458893358e-01	 9.0444587275e-01
 1.2907374389e+00	 7.0087333117e-01	 6.4985510885e-01
 1.2762349192e+00	 7.2694634848e-01	 3.6534959646e-01
 1.2611638651e+00	 7.5278965716e-01	 5.5818008766e-02
 1.2455293352e+00	 7.7838501891e-01	-1.1956844546e-01
 1.2293371571e+00	 8.0371432531e-01	 5.8420724591e-02
 1.3714377441e+00	 5.4293969661e-01	 1.7950893990e+00
 1.3603629085e+00	 5.7012082676e-01	 1.6406223741e+00
 1.3487027175e+00	 5.9718169754e-01	 1.4704109824e+00
 1.3364576896e+00	 6.2410403299e-01	 1.2903201162e+00
 1.3236290838e+00	 6.5086945596e-01	 1.1117902396e+00
 1.3102189101e+00	 6.7745952478e-01	 8.9903741028e-01
 1.2962299387e+00	 7.0385577087e-01	 6.5568848459e-01
 1.2816657061e+00	 7.3003973719e-01	 3.8634602262e-01
 1.2665305199e+00	 7.5599301741e-01	 9.5796705038e-02
 1.2508294601e+00	 7.8169729559e-01	-2.1099474130e-01
 1.2345683791e+00	 8.0713438627e-01	-2.7325170870e-02
 1.3772489209e+00	 5.4524028855e-01	 1.7616930265e+00
 1.3661271581e+00	 5.7253659298e-01	 1.6076166681e+00
 1.3544175595e+00	 5.9971212846e-01	 1.4418303907e+00
 1.3421206459e+00	 6.2674854160e-01	 1.2712575011e+00
 1.3292376816e+00	 6.5362737738e-01	 1.0962997371e+00
 1.3157706851e+00	 6.8033011599e-01	 8.9038115164e-01
 1.3017224384e+00	 7.0683821058e-01	 6.5784150673e-01
 1.2870964930e+00	 7.3313312591e-01	 4.0319526908e-01
 1.2718971746e+00	 7.5919637765e-01	 1.3112742614e-01
 1.2561295849e+00	 7.8500957226e-01	-1.5351227828e-01
 1.2397996010e+00	 8.1055444722e-01	-1.1643569867e-01
 1.3830600978e+00	 5.4754088048e-01	 1.7286558804e+00
 1.3718914078e+00	 5.7495235919e-01	 1.5745890521e+00
 1.3601324015e+00	 6.0224255938e-01	 1.4128118080e+00
 1.3477836022e+00	 6.2939305021e-01	 1.2505157360e+00
 1.3348462794e+00	 6.5638529880e-01	 1.0779849621e+00
 1.3213224602e+00	 6.8320070719e-01	 8.7850847987e-01
 1.3072149381e+00	 7.0982065028e-01	 6.5635186869e-01
 1.2925272799e+00	 7.3622651462e-01	 4.1594167887e-01
 1.2772638293e+00	 7.6239973789e-01	 1.6186149326e-01
 1.2614297097e+00	 7.8832184894e-01	-1.0115352484e-01
 1.2450308230e+00	 8.1397450818e-01	-2.0889658357e-01
 1.3888712747e+00	 5.4984147241e-01	 1.6959394224e+00
 1.3776556574e+00	 5.7736812540e-01	 1.5415027216e+00
 1.3658472436e+00	 6.0477299030e-01	 1.3833205520e+00
 1.3534465585e+00	 6.3203755882e-01	 1.2273276246e+00
 1.3404548772e+00	 6.5914322022e-01	 1.0568714014e+00
 1.3268742352e+00	 6.8607129839e-01	 8.6345075941e-01
 1.3127074379e+00	 7.1280308999e-01	 6.5125715491e-01
 1.2979580668e+00	 7.3931990334e-01	 4.2462938909e-01
 1.2826304841e+00	 7.6560309813e-01	 1.8804991812e-01
 1.2667298346e+00	 7.9163412561e-01	-5.3860284174e-02
 1.2502620449e+00	 8.1739456914e-01	-2.9634840935e-01
 1.3946824516e+00	 5.5214206435e-01	 1.6635054373e+00
 1.3834199070e+00	 5.7978389161e-01	 1.5083211410e+00
 1.3715620856e+00	 6.0730342122e-01	 1.3533221475e+00
 1.3591095148e+00	 6.3468206743e-01	 1.2017132660e+00
 1.3460634750e+00	 6.6190114164e-01	 1.0329846055e+00
 1.3324260103e+00	 6.8894188960e-01	 8.4523933651e-01
 1.3181999376e+00	 7.1578552969e-01	 6.4259484319e-01
 1.3033888537e+00	 7.4241329205e-01	 4.2930233521e-01
 1.2879971388e+00	 7.6880645837e-01	 2.0974340943e-01
 1.2720299594e+00	 7.9494640228e-01	-1.1574770079e-02
 1.2554932668e+00	 8.2081463009e-01	-2.3002577393e-01
 1.2031810474e+00	 7.8661402051e-01	 4.3614213087e-01
 1.1867940535e+00	 8.1112645415e-01	 1.5628494834e-01
 1.1698749268e+00	 8.3534358536e-01	-1.1354571940e-01
 1.1524316013e+00	 8.5924830779e-01	-3.7025806182e-01
 1.1344727369e+00	 8.8282379860e-01	-6.1084629972e-01
 1.1160077072e+00	 9.0605355671e-01	-8.3241522396e-01
 1.0970465841e+00	 9.2892144040e-01	-1.0322040514e+00
 1.0776001205e+00	 9.5141170396e-01	-1.2076093523e+00
 1.0576797303e+00	 9.7350903342e-01	-1.3562068105e+00
 1.0372974668e+00	 9.9519858095e-01	-1.4757715904e+00
 1.0164659980e+00	 1.0164659980e+00	-1.5642970974e+00
 1.2084122693e+00	 7.9003408147e-01	 3.6745308628e-01
 1.1919540277e+00	 8.1465309091e-01	 1.1296863794e-01
 1.1749613396e+00	 8.3897551400e-01	-1.3589506602e-01
 1.1574421735e+00	 8.6298417000e-01	-3.7601957302e-01
 1.1394052270e+00	 8.8666216294e-01	-6.0435697064e-01
 1.1208599146e+00	 9.0999292000e-01	-8.1795461225e-01
 1.1018163518e+00	 9.3296022927e-01	-1.0139792384e+00
 1.0822853384e+00	 9.5554827659e-01	-1.1897402461e+00
 1.0622783378e+00	 9.7774168139e-01	-1.3427118657e+00
 1.0418074558e+00	 9.9952553130e-01	-1.4705540147e+00
 1.0208854154e+00	 1.0208854154e+00	-1.5711316128e+00
 1.2136434913e+00	 7.9345414243e-01	 2.9531958951e-01
 1.1971140018e+00	 8.1817972767e-01	 6.6160815025e-02
 1.1800477523e+00	 8.4260744263e-01	-1.6174386644e-01
 1.1624527456e+00	 8.6672003221e-01	-3.8524872977e-01
 1.1443377172e+00	 8.9050052729e-01	-6.0126320535e-01
 1.1257121220e+00	 9.1393228329e-01	-8.0677679590e-01
 1.1065861196e+00	 9.3699901814e-01	-9.9888346724e-01
 1.0869705563e+00	 9.5968484922e-01	-1.1748052631e+00
 1.0668769454e+00	 9.8197432937e-01	-1.3319149009e+00
 1.0463174447e+00	 1.0038524817e+00	-1.4677571147e+00
 1.0253048327e+00	 1.0253048327e+00	-1.5800685261e+00
 1.2188747132e+00	 7.9687420339e-01	 2.1975877103e-01
 1.2022739760e+00	 8.2170636443e-01	 1.5877630003e-02
 1.1851341650e+00	 8.4623937127e-01	-1.9107739619e-01
 1.1674633178e+00	 8.7045589442e-01	-3.9793267742e-01
 1.1492702074e+00	 8.9433889163e-01	-6.0155445967e-01
 1.1305643294e+00	 9.1787164659e-01	-7.9887397769e-01
 1.1113558874e+00	 9.4103780702e-01	-9.8691211889e-01
 1.0916557742e+00	 9.6382142185e-01	-1.1628033871e+00
 1.0714755529e+00	 9.8620697734e-01	-1.3238189197e+00
 1.0508274337e+00	 1.0081794320e+00	-1.4673883226e+00
 1.0297242501e+00	 1.0297242501e+00	-1.5911200976e+00
 1.2241059352e+00	 8.0029426435e-01	 1.4078716552e-01
 1.2074339501e+00	 8.2523300119e-01	-3.7865357190e-02
 1.1902205778e+00	 8.4987129990e-01	-2.2388150793e-01
 1.1724738900e+00	 8.7419175663e-01	-4.1405911699e-01
 1.1542026975e+00	 8.9817725597e-01	-6.0522071567e-01
 1.1354165369e+00	 9.2181100988e-01	-7.9423884907e-01
 1.1161256551e+00	 9.4507659589e-01	-9.7806101727e-01
 1.0963409921e+00	 9.6795799447e-01	-1.1537339911e+00
 1.0760741604e+00	 9.9043962531e-01	-1.3184272539e+00
 1.0553374227e+00	 1.0125063824e+00	-1.4694553297e+00
 1.0341436675e+00	 1.0341436675e+00	-1.6042987697e+00
 1.2293371571e+00	 8.0371432531e-01	 5.8420724591e-02
 1.2125939242e+00	 8.2875963794e-01	-9.5053164536e-02
 1.1953069905e+00	 8.5350322853e-01	-2.6014261919e-01
 1.1774844622e+00	 8.7792761884e-01	-4.3361629342e-01
 1.1591351877e+00	 9.0201562031e-01	-6.1225247038e-01
 1.1402687443e+00	 9.2575037317e-01	-7.9286457974e-01
 1.1208954229e+00	 9.4911538476e-01	-9.7232641995e-01
 1.1010262101e+00	 9.7209456710e-01	-1.1475968296e+00
 1.0806727679e+00	 9.9467227329e-01	-1.3157435563e+00
 1.0598474117e+00	 1.0168333327e+00	-1.4739660808e+00
 1.0385630849e+00	 1.0385630849e+00	-1.6196171631e+00
 1.2345683791e+00	 8.0713438627e-01	-2.7325170870e-02
 1.2177538984e+00	 8.3228627470e-01	-1.5567137569e-01
 1.2003934032e+00	 8.5713515716e-01	-2.9984770036e-01
 1.1824950344e+00	 8.8166348105e-01	-4.5659298399e-01
 1.1640676778e+00	 9.0585398466e-01	-6.2264072497e-01
 1.1451209517e+00	 9.2968973646e-01	-7.9474480750e-01
 1.1256651906e+00	 9.5315417363e-01	-9.6970500895e-01
 1.1057114280e+00	 9.7623113973e-01	-1.1443920301e+00
 1.0852713755e+00	 9.9890492126e-01	-1.3157717943e+00
 1.0643574007e+00	 1.0211602831e+00	-1.4809287688e+00
 1.0429825023e+00	 1.0429825023e+00	-1.6370880732e+00
 1.2397996010e+00	 8.1055444722e-01	-1.1643569867e-01
 1.2229138725e+00	 8.3581291146e-01	-2.1970612804e-01
 1.2054798159e+00	 8.6076708580e-01	-3.4298426310e-01
 1.1875056065e+00	 8.8539934326e-01	-4.8297848713e-01
 1.1690001680e+00	 9.0969234900e-01	-6.3637697404e-01
 1.1499731591e+00	 9.3362909975e-01	-7.9987362838e-01
 1.1304349584e+00	 9.5719296250e-01	-9.7019388180e-01
 1.1103966459e+00	 9.8036771235e-01	-1.1441200856e+00
 1.0898699830e+00	 1.0031375692e+00	-1.3185162428e+00
 1.0688673897e+00	 1.0254872334e+00	-1.4903518294e+00
 1.0474019197e+00	 1.0474019197e+00	-1.6567244663e+00
 1.2450308230e+00	 8.1397450818e-01	-2.0889658357e-01
 1.2280738467e+00	 8.3933954822e-01	-2.8714410108e-01
 1.2105662287e+00	 8.6439901443e-01	-3.8954034887e-01
 1.1925161787e+00	 8.8913520546e-01	-5.1276261145e-01
 1.1739326582e+00	 9.1353071334e-01	-6.5345319530e-01
 1.1548253665e+00	 9.3756846304e-01	-8.0824558703e-01
 1.1352047261e+00	 9.6123175138e-01	-9.7379054278e-01
 1.1150818638e+00	 9.8450428498e-01	-1.1467818466e+00
 1.0944685905e+00	 1.0073702172e+00	-1.3239814781e+00
 1.0733773787e+00	 1.0298141838e+00	-1.5022439362e+00
 1.0518213370e+00	 1.0518213370e+00	-1.6785394757e+00
 1.2502620449e+00	 8.1739456914e-01	-2.9634840935e-01
 1.2332338208e+00	 8.4286618497e-01	-3.5797250508e-01
 1.2156526414e+00	 8.6803094306e-01	-4.3950451795e-01
 1.1975267509e+00	 8.9287106767e-01	-5.4593566505e-01
 1.1788651483e+00	 9.1736907768e-01	-6.7386183945e-01
 1.1596775740e+00	 9.4150782633e-01	-8.1985566732e-01
 1.1399744939e+00	 9.6527054025e-01	-9.8049289444e-01
 1.1197670817e+00	 9.8864085760e-01	-1.1523785137e+00
 1.0990671980e+00	 1.0116028652e+00	-1.3321723715e+00
 1.0778873676e+00	 1.0341411341e+00	-1.5166139957e+00
 1.0562407544e+00	 1.0562407544e+00	-1.7025463990e+00
 1.2554932668e+00	 8.2081463009e-01	-2.3002577393e-01
 1.2383937950e+00	 8.4639282173e-01	-4.3217906999e-01
 1.2207390541e+00	 8.7166287169e-01	-4.9286583854e-01
 1.2025373231e+00	 8.9660692988e-01	-5.8248844516e-01
 1.1837976385e+00	 9.2120744203e-01	-6.9759582031e-01
 1.1645297814e+00	 9.4544718962e-01	-8.3469928320e-01
 1.1447442616e+00	 9.6930932912e-01	-9.9029922927e-01
 1.1244522996e+00	 9.9277743023e-01	-1.1609116305e+00
 1.1036658055e+00	 1.0158355131e+00	-1.3430940829e+00
 1.0823973566e+00	 1.0384680845e+00	-1.5334711421e+00
 1.0606601718e+00	 1.0606601718e+00	-1.7287586937e+00
 1.0164659980e+00	 1.0164659980e+00	-1.5642970974e+00
 9.9519858095e-01	 1.0372974668e+00	-1.6567721968e+00
 9.7350903342e-01	 1.0576797303e+00	-1.7448045428e+00
 9.5141170396e-01	 1.0776001205e+00	-1.8282678876e+00
 9.2892144040e-01	 1.0970465841e+00	-1.9071651783e+00
 9.0605355671e-01	 1.1160077072e+00	-1.9816329871e+00
 8.8282379860e-01	 1.1344727369e+00	-2.0519443399e+00
 8.5924830779e-01	 1.1524316013e+00	-2.1185099129e+00
 8.3534358536e-01	 1.1698749268e+00	-2.1818775868e+00
 8.1112645415e-01	 1.1867940535e+00	-2.2427303740e+00
 7.8661402051e-01	 1.2031810474e+00	-2.3018827498e+00
 1.0208854154e+00	 1.0208854154e+00	-1.5711316128e+00
 9.9952553130e-01	 1.0418074558e+00	-1.6794159435e+00
 9.7774168139e-01	 1.0622783378e+00	-1.7781103553e+00
 9.5554827659e-01	 1.0822853384e+00	-1.8668800749e+00
 9.3296022927e-01	 1.1018163518e+00	-1.9455421343e+00
 9.0999292000e-01	 1.1208599146e+00	-2.0140705744e+00
 8.8666216294e-01	 1.1394052270e+00	-2.0725999063e+00
 8.6298417000e-01	 1.1574421735e+00	-2.1214267979e+00
 8.3897551400e-01	 1.1749613396e+00	-2.1610099723e+00
 8.1465309091e-01	 1.1919540277e+00	-2.1919683322e+00
 7.9003408147e-01	 1.2084122693e+00	-2.2150773424e+00
 1.0253048327e+00	 1.0253048327e+00	-1.5800685261e+00
 1.0038524817e+00	 1.0463174447e+00	-1.7035171347e+00
 9.8197432937e-01	 1.0668769454e+00	-1.8122626836e+00
 9.5968484922e-01	 1.0869705563e+00	-1.9057627725e+00
 9.3699901814e-01	 1.1065861196e+00	-1.9836493480e+00
 9.1393228329e-01	 1.1257121220e+00	-2.0457346775e+00
 8.9050052729e-01	 1.1443377172e+00	-2.0920154426e+00
 8.6672003221e-01	 1.1624527456e+00	-2.1226749127e+00
 8.4260744263e-01	 1.1800477523e+00	-2.1380831876e+00
 8.1817972767e-01	 1.1971140018e+00	-2.1387955173e+00
 7.9345414243e-01	 1.2136434913e+00	-2.1255487348e+00
 1.0297242501e+00	 1.0297242501e+00	-1.5911200976e+00
 1.0081794320e+00	 1.0508274337e+00	-1.7290969301e+00
 9.8620697734e-01	 1.0714755529e+00	-1.8472910080e+00
 9.6382142185e-01	 1.0916557742e+00	-1.9449531864e+00
 9.4103780702e-01	 1.1113558874e+00	-2.0215311411e+00
 9.1787164659e-01	 1.1305643294e+00	-2.0766761110e+00
 8.9433889163e-01	 1.1492702074e+00	-2.1102476212e+00
 8.7045589442e-01	 1.1674633178e+00	-2.1223161437e+00
 8.4623937127e-01	 1.1851341650e+00	-2.1131636809e+00
 8.2170636443e-01	 1.2022739760e+00	-2.0832822810e+00
 7.9687420339e-01	 1.2188747132e+00	-2.0333705203e+00
 1.0341436675e+00	 1.0341436675e+00	-1.6042987697e+00
 1.0125063824e+00	 1.0553374227e+00	-1.7561765240e+00
 9.9043962531e-01	 1.0760741604e+00	-1.8832247055e+00
 9.6795799447e-01	 1.0963409921e+00	-1.9844882906e+00
 9.4507659589e-01	 1.1161256551e+00	-2.0592314840e+00
 9.2181100988e-01	 1.1354165369e+00	-2.1069452280e+00
 8.9817725597e-01	 1.1542026975e+00	-2.1273525537e+00
 8.7419175663e-01	 1.1724738900e+00	-2.1204117265e+00
 8.4987129990e-01	 1.1902205778e+00	-2.0863171700e+00
 8.2523300119e-01	 1.2074339501e+00	-2.0254981756e+00
 8.0029426435e-01	 1.2241059352e+00	-1.9386154336e+00
 1.0385630849e+00	 1.0385630849e+00	-1.6196171631e+00
 1.0168333327e+00	 1.0598474117e+00	-1.7847771453e+00
 9.9467227329e-01	 1.0806727679e+00	-1.9200930524e+00
 9.7209456710e-01	 1.1010262101e+00	-2.0244048319e+00
 9.4911538476e-01	 1.1208954229e+00	-2.0967940030e+00
 9.2575037317e-01	 1.1402687443e+00	-2.1365919306e+00
 9.0201562031e-01	 1.1591351877e+00	-2.1433858026e+00
 8.7792761884e-01	 1.1774844622e+00	-2.1170222598e+00
 8.5350322853e-01	 1.1953069905e+00	-2.0576086579e+00
 8.2875963794e-01	 1.2125939242e+00	-1.9655119709e+00
 8.0371432531e-01	 1.2293371571e+00	-1.8413553694e+00
 1.0429825023e+00	 1.0429825023e+00	-1.6370880732e+00
 1.0211602831e+00	 1.0643574007e+00	-1.8149200564e+00
 9.9890492126e-01	 1.0852713755e+00	-1.9579252260e+00
 9.7623113973e-01	 1.1057114280e+00	-2.0647393348e+00
 9.5315417363e-01	 1.1256651906e+00	-2.1342619876e+00
 9.2968973646e-01	 1.1451209517e+00	-2.1656656786e+00
 9.0585398466e-01	 1.1640676778e+00	-2.1584023931e+00
 8.8166348105e-01	 1.1824950344e+00	-2.1122077192e+00
 8.5713515716e-01	 1.2003934032e+00	-2.0271024485e+00
 8.3228627470e-01	 1.2177538984e+00	-1.9033916709e+00
 8.0713438627e-01	 1.2345683791e+00	-1.7416614001e+00
 1.0474019197e+00	 1.0474019197e+00	-1.6567244663e+00
 1.0254872334e+00	 1.0688673897e+00	-1.8466265524e+00
 1.0031375692e+00	 1.0898699830e+00	-1.9967503067e+00
 9.8036771235e-01	 1.1103966459e+00	-2.1055281060e+00
 9.5719296250e-01	 1.1304349584e+00	-2.1716783978e+00
 9.3362909975e-01	 1.1499731591e+00	-2.1942154998e+00
 9.0969234900e-01	 1.1690001680e+00	-2.1724568240e+00
 8.8539934326e-01	 1.1875056065e+00	-2.1060274697e+00
 8.6076708580e-01	 1.2054798159e+00	-1.9948621604e+00
 8.3581291146e-01	 1.2229138725e+00	-1.8392045296e+00
 8.1055444722e-01	 1.2397996010e+00	-1.6396037930e+00
 1.0518213370e+00	 1.0518213370e+00	-1.6785394757e+00
 1.0298141838e+00	 1.0733773787e+00	-1.8799179606e+00
 1.0073702172e+00	 1.0944685905e+00	-2.0365972805e+00
 9.8450428498e-01	 1.1150818638e+00	-2.1468072392e+00
 9.6123175138e-01	 1.1352047261e+00	-2.2090858708e+00
 9.3756846304e-01	 1.1548253665e+00	-2.2222899983e+00
 9.1353071334e-01	 1.1739326582e+00	-2.1856030795e+00
 8.8913520546e-01	 1.1925161787e+00	-2.0985402793e+00
 8.6439901443e-01	 1.2105662287e+00	-1.9609507420e+00
 8.3933954822e-01	 1.2280738467e+00	-1.7730170672e+00
 8.1397450818e-01	 1.2450308230e+00	-1.5352520276e+00
 1.0562407544e+00	 1.0562407544e+00	-1.7025463990e+00
 1.0341411341e+00	 1.0778873676e+00	-1.9148156398e+00
 1.0116028652e+00	 1.0990671980e+00	-2.0774950403e+00
 9.8864085760e-01	 1.1197670817e+00	-2.1886126195e+00
 9.6527054025e-01	 1.1399744939e+00	-2.2465267278e+00
 9.4150782633e-01	 1.1596775740e+00	-2.2499373636e+00
 9.1736907768e-01	 1.1788651483e+00	-2.1978946392e+00
 8.9287106767e-01	 1.1975267509e+00	-2.0898043308e+00
 8.6803094306e-01	 1.2156526414e+00	-1.9254304853e+00
 8.4286618497e-01	 1.2332338208e+00	-1.7048950854e+00
 8.1739456914e-01	 1.2502620449e+00	-1.4421057181e+00
 1.0606601718e+00	 1.0606601718e+00	-1.7287586937e+00
 1.0384680845e+00	 1.0823973566e+00	-1.9513409796e+00
 1.0158355131e+00	 1.1036658055e+00	-2.1194723884e+00
 9.9277743023e-01	 1.1244522996e+00	-2.2309799276e+00
 9.6930932912e-01	 1.1447442616e+00	-2.2840429807e+00
 9.4544718962e-01	 1.1645297814e+00	-2.2772053796e+00
 9.2120744203e-01	 1.1837976385e+00	-2.2093844892e+00
 8.9660692988e-01	 1.2025373231e+00	-2.0798772345e+00
 8.7166287169e-01	 1.2207390541e+00	-1.8883630396e+00
 8.4639282173e-01	 1.2383937950e+00	-1.6349036819e+00
 8.2081463009e-01	 1.2554932668e+00	-1.6004121564e+00
 7.8661402051e-01	 1.2031810474e+00	-2.3018827498e+00
 7.6182363552e-01	 1.2190287111e+00	-2.0424897394e+00
 7.3677285594e-01	 1.2343305914e+00	-1.6774360315e+00
 7.1147940489e-01	 1.2490809847e+00	-1.2061223231e+00
 6.8596113263e-01	 1.2632749402e+00	-1.4051253135e+00
 6.6023597754e-01	 1.2769082598e+00	-1.5573119653e+00
 6.3432192741e-01	 1.2899774969e+00	-1.6086954345e+00
 6.0823698130e-01	 1.3024799517e+00	-1.7647513804e+00
 5.8199911201e-01	 1.3144136653e+00	-1.9427639972e+00
 5.5562622947e-01	 1.3257774108e+00	-2.0282656101e+00
 5.2913614500e-01	 1.3365706828e+00	-2.0203293030e+00
 7.9003408147e-01	 1.2084122693e+00	-2.2150773424e+00
 7.6513591220e-01	 1.2243288359e+00	-1.9074103451e+00
 7.3997621619e-01	 1.2396972461e+00	-1.4974259867e+00
 7.1457279361e-01	 1.2545117716e+00	-1.2417617640e+00
 6.8894357234e-01	 1.2687674400e+00	-1.4653357328e+00
 6.6310656875e-01	 1.2824600349e+00	-1.5942035220e+00
 6.3707984884e-01	 1.2955860947e+00	-1.6270058486e+00
 6.1088148992e-01	 1.3081429080e+00	-1.7352904575e+00
 5.8452954293e-01	 1.3201285074e+00	-1.9026767697e+00
 5.5804199569e-01	 1.3315416605e+00	-1.9825392667e+00
 5.3143673694e-01	 1.3423818596e+00	-1.9740101848e+00
 7.9345414243e-01	 1.2136434913e+00	-2.1255487348e+00
 7.6844818888e-01	 1.2296289607e+00	-1.7704500292e+00
 7.4317957643e-01	 1.2450639009e+00	-1.3163335007e+00
 7.1766618232e-01	 1.2599425585e+00	-1.3280561514e+00
 6.9192601204e-01	 1.2742599397e+00	-1.5245537167e+00
 6.6597715995e-01	 1.2880118099e+00	-1.6308877102e+00
 6.3983777026e-01	 1.3011946925e+00	-1.6458547821e+00
 6.1352599853e-01	 1.3138058643e+00	-1.7076346399e+00
 5.8705997386e-01	 1.3258433494e+00	-1.8650746106e+00
 5.6045776190e-01	 1.3373059101e+00	-1.9399334285e+00
 5.3373732887e-01	 1.3481930365e+00	-1.9314013154e+00
 7.9687420339e-01	 1.2188747132e+00	-2.0333705203e+00
 7.7176046556e-01	 1.2349290856e+00	-1.6316706025e+00
 7.4638293668e-01	 1.2504305556e+00	-1.1579924516e+00
 7.2075957104e-01	 1.2653733454e+00	-1.4125423931e+00
 6.9490845175e-01	 1.2797524394e+00	-1.5827768077e+00
 6.6884775116e-01	 1.2935635850e+00	-1.6673529166e+00
 6.4259569169e-01	 1.3068032903e+00	-1.6652219992e+00
 6.1617050715e-01	 1.3194688206e+00	-1.6817477238e+00
 5.8959040478e-01	 1.3315581914e+00	-1.8299143701e+00
 5.6287352812e-01	 1.3430701597e+00	-1.9003985480e+00
 5.3603792081e-01	 1.3540042134e+00	-1.8924473011e+00
 8.0029426435e-01	 1.2241059352e+00	-1.9386154336e+00
 7.7507274223e-01	 1.2402292104e+00	-1.4911332142e+00
 7.4958629692e-01	 1.2557972104e+00	-1.2704331248e+00
 7.2385295976e-01	 1.2708041323e+00	-1.4952274184e+00
 6.9789089146e-01	 1.2852449392e+00	-1.6400024293e+00
 6.7171834237e-01	 1.2991153600e+00	-1.7035875722e+00
 6.4535361311e-01	 1.3124118881e+00	-1.6850874631e+00
 6.1881501576e-01	 1.3251317770e+00	-1.6575938496e+00
 5.9212083570e-01	 1.3372730334e+00	-1.7971533786e+00
 5.6528929433e-01	 1.3488344093e+00	-1.8638856847e+00
 5.3833851274e-01	 1.3598153903e+00	-1.8570934721e+00
 8.0371432531e-01	 1.2293371571e+00	-1.8413553694e+00
 7.7838501891e-01	 1.2455293352e+00	-1.3488983664e+00
 7.5278965716e-01	 1.2611638651e+00	-1.3802498815e+00
 7.2694634848e-01	 1.2762349192e+00	-1.5761178713e+00
 7.0087333117e-01	 1.2907374389e+00	-1.6962278883e+00
 6.7458893358e-01	 1.3046671350e+00	-1.7395801516e+00
 6.4811153454e-01	 1.3180204859e+00	-1.7054313318e+00
 6.2145952438e-01	 1.3307947333e+00	-1.6351374947e+00
 5.9465126662e-01	 1.3429878755e+00	-1.7667494369e+00
 5.6770506055e-01	 1.3545986589e+00	-1.8303464920e+00
 5.4063910468e-01	 1.3656265672e+00	-1.8252858668e+00
 8.0713438627e-01	 1.2345683791e+00	-1.7416614001e+00
 7.8169729559e-01	 1.2508294601e+00	-1.2492287519e+00
 7.5599301741e-01	 1.2665305199e+00	-1.4874587428e+00
 7.3003973719e-01	 1.2816657061e+00	-1.6552201164e+00
 7.0385577087e-01	 1.2962299387e+00	-1.7514503772e+00
 6.7745952478e-01	 1.3102189101e+00	-1.7753191716e+00
 6.5086945596e-01	 1.3236290838e+00	-1.7262339536e+00
 6.2410403299e-01	 1.3364576896e+00	-1.6143434664e+00
 5.9718169754e-01	 1.3487027175e+00	-1.7386608057e+00
 5.7012082676e-01	 1.3603629085e+00	-1.7997332048e+00
 5.4293969661e-01	 1.3714377441e+00	-1.7969712173e+00
 8.1055444722e-01	 1.2397996010e+00	-1.6396037930e+00
 7.8500957226e-01	 1.2561295849e+00	-1.3851482501e+00
 7.5919637765e-01	 1.2718971746e+00	-1.5920752871e+00
 7.3313312591e-01	 1.2870964930e+00	-1.7325402451e+00
 7.0683821058e-01	 1.3017224384e+00	-1.8056669769e+00
 6.8033011599e-01	 1.3157706851e+00	-1.8107931909e+00
 6.5362737738e-01	 1.3292376816e+00	-1.7474758636e+00
 6.2674854160e-01	 1.3421206459e+00	-1.6154954210e+00
 5.9971212846e-01	 1.3544175595e+00	-1.7128461963e+00
 5.7253659298e-01	 1.3661271581e+00	-1.7719986269e+00
 5.4524028855e-01	 1.3772489209e+00	-1.7720969343e+00
 8.1397450818e-01	 1.2450308230e+00	-1.5352520276e+00
 7.8832184894e-01	 1.2614297097e+00	-1.5176576441e+00
 7.6239973789e-01	 1.2772638293e+00	-1.6941146588e+00
 7.3622651462e-01	 1.2925272799e+00	-1.8080840811e+00
 7.0982065028e-01	 1.3072149381e+00	-1.8588746588e+00
 6.8320070719e-01	 1.3213224602e+00	-1.8459908087e+00
 6.5638529880e-01	 1.3348462794e+00	-1.7691377795e+00
 6.2939305021e-01	 1.3477836022e+00	-1.6282256833e+00
 6.0224255938e-01	 1.3601324015e+00	-1.6892647610e+00
 5.7495235919e-01	 1.3718914078e+00	-1.7470961195e+00
 5.4754088048e-01	 1.3830600978e+00	-1.7506110928e+00
 8.1739456914e-01	 1.2502620449e+00	-1.4421057181e+00
 7.9163412561e-01	 1.2667298346e+00	-1.6467812607e+00
 7.6560309813e-01	 1.2826304841e+00	-1.7935915781e+00
 7.3931990334e-01	 1.2979580668e+00	-1.8818571860e+00
 7.1280308999e-01	 1.3127074379e+00	-1.9110702870e+00
 6.8607129839e-01	 1.3268742352e+00	-1.8809006640e+00
 6.5914322022e-01	 1.3404548772e+00	-1.7912005975e+00
 6.3203755882e-01	 1.3534465585e+00	-1.6420087504e+00
 6.0477299030e-01	 1.3658472436e+00	-1.6678760839e+00
 5.7736812540e-01	 1.3776556574e+00	-1.7249795891e+00
 5.4984147241e-01	 1.3888712747e+00	-1.7324624189e+00
 8.2081463009e-01	 1.2554932668e+00	-1.6004121564e+00
 7.9494640228e-01	 1.2720299594e+00	-1.7725428443e+00
 7.6880645837e-01	 1.2879971388e+00	-1.8905203494e+00
 7.4241329205e-01	 1.3033888537e+00	-1.9538648650e+00
 7.1578552969e-01	 1.3181999376e+00	-1.9622506209e+00
 6.8894188960e-01	 1.3324260103e+00	-1.9155114352e+00
 6.6190114164e-01	 1.3460634750e+00	-1.8136453893e+00
 6.3468206743e-01	 1.3591095148e+00	-1.6568185702e+00
 6.0730342122e-01	 1.3715620856e+00	-1.6486401718e+00
 5.7978389161e-01	 1.3834199070e+00	-1.7056034767e+00
 5.5214206435e-01	 1.3946824516e+00	-1.7176002754e+00
 5.2913614500e-01	 1.3365706828e+00	-2.0203293030e+00
 5.0254653673e-01	 1.3467936844e+00	-1.8418308635e+00
 4.7587491620e-01	 1.3564473134e+00	-1.6835878095e+00
 4.4913859626e-01	 1.3655331454e+00	-1.5450345408e+00
 4.2235466045e-01	 1.3740534163e+00	-1.4256871176e+00
 3.9553993383e-01	 1.3820110024e+00	-1.3251526063e+00
 3.6871095540e-01	 1.3894094002e+00	-1.2431368097e+00
 3.4188395219e-01	 1.3962527039e+00	-1.1794503714e+00
 3.1507481503e-01	 1.4025455825e+00	-1.1340132626e+00
 2.8829907602e-01	 1.4082932552e+00	-1.1068576776e+00
 2.6157188782e-01	 1.4135014671e+00	-1.0981293869e+00
 5.3143673694e-01	 1.3423818596e+00	-1.9740101848e+00
 5.0473152168e-01	 1.3526493091e+00	-1.8003188428e+00
 4.7794393758e-01	 1.3623449104e+00	-1.6468604687e+00
 4.5109137277e-01	 1.3714702461e+00	-1.5128909523e+00
 4.2419098506e-01	 1.3800275615e+00	-1.3977550133e+00
 3.9725967267e-01	 1.3880197459e+00	-1.3008961403e+00
 3.7031404651e-01	 1.3954503106e+00	-1.2218648474e+00
 3.4337040416e-01	 1.4023233678e+00	-1.1603252317e+00
 3.1644470553e-01	 1.4086436067e+00	-1.1160598433e+00
 2.8955255026e-01	 1.4144162694e+00	-1.0889728943e+00
 2.6270915690e-01	 1.4196471256e+00	-1.0790918547e+00
 5.3373732887e-01	 1.3481930365e+00	-1.9314013154e+00
 5.0691650662e-01	 1.3585049338e+00	-1.7620491558e+00
 4.8001295895e-01	 1.3682425074e+00	-1.6129077922e+00
 4.5304414927e-01	 1.3774073467e+00	-1.4830549514e+00
 4.2602730967e-01	 1.3860017068e+00	-1.3716643660e+00
 3.9897941151e-01	 1.3940284893e+00	-1.2780163088e+00
 3.7191713762e-01	 1.4014912210e+00	-1.2015063726e+00
 3.4485685613e-01	 1.4083940318e+00	-1.1416524834e+00
 3.1781459603e-01	 1.4147416310e+00	-1.0981001518e+00
 2.9080602451e-01	 1.4205392835e+00	-1.0706259946e+00
 2.6384642598e-01	 1.4257927842e+00	-1.0591395734e+00
 5.3603792081e-01	 1.3540042134e+00	-1.8924473011e+00
 5.0910149156e-01	 1.3643605586e+00	-1.7269741320e+00
 4.8208198033e-01	 1.3741401045e+00	-1.5816897702e+00
 4.5499692578e-01	 1.3833444473e+00	-1.4554941115e+00
 4.2786363428e-01	 1.3919758521e+00	-1.3473902411e+00
 4.0069915036e-01	 1.4000372328e+00	-1.2564955632e+00
 3.7352022873e-01	 1.4075321315e+00	-1.1820511052e+00
 3.4634330810e-01	 1.4144646957e+00	-1.1234289841e+00
 3.1918448654e-01	 1.4208396553e+00	-1.0801380408e+00
 2.9205949875e-01	 1.4266622977e+00	-1.0518276733e+00
 2.6498369506e-01	 1.4319384427e+00	-1.0382899166e+00
 5.3833851274e-01	 1.3598153903e+00	-1.8570934721e+00
 5.1128647651e-01	 1.3702161833e+00	-1.6950467094e+00
 4.8415100170e-01	 1.3800377015e+00	-1.5531668868e+00
 4.5694970229e-01	 1.3892815480e+00	-1.4301763864e+00
 4.2969995890e-01	 1.3979499974e+00	-1.3249079716e+00
 4.0241888920e-01	 1.4060459763e+00	-1.2363165120e+00
 3.7512331984e-01	 1.4135730419e+00	-1.1634888120e+00
 3.4782976006e-01	 1.4205353596e+00	-1.1056515301e+00
 3.2055437704e-01	 1.4269376795e+00	-1.0621771960e+00
 2.9331297300e-01	 1.4327853118e+00	-1.0325883538e+00
 2.6612096414e-01	 1.4380841013e+00	-1.0165598843e+00
 5.4063910468e-01	 1.3656265672e+00	-1.8252858668e+00
 5.1347146145e-01	 1.3760718080e+00	-1.6662204216e+00
 4.8622002308e-01	 1.3859352985e+00	-1.5273001098e+00
 4.5890247879e-01	 1.3952186486e+00	-1.4070701022e+00
 4.3153628351e-01	 1.4039241427e+00	-1.3041931527e+00
 4.0413862805e-01	 1.4120547198e+00	-1.2174619169e+00
 3.7672641096e-01	 1.4196139524e+00	-1.1458093058e+00
 3.4931621203e-01	 1.4266060236e+00	-1.0883168582e+00
 3.2192426754e-01	 1.4330357038e+00	-1.0442211390e+00
 2.9456644724e-01	 1.4389083260e+00	-1.0129181938e+00
 2.6725823322e-01	 1.4442297599e+00	-9.9396611063e-01
 5.4293969661e-01	 1.3714377441e+00	-1.7969712173e+00
 5.1565644639e-01	 1.3819274327e+00	-1.6404493852e+00
 4.8828904445e-01	 1.3918328955e+00	-1.5040508798e+00
 4.6085525530e-01	 1.4011557492e+00	-1.3861439495e+00
 4.3337260812e-01	 1.4098982880e+00	-1.2852216363e+00
 4.0585836689e-01	 1.4180634633e+00	-1.1999146897e+00
 3.7832950207e-01	 1.4256548628e+00	-1.1290024446e+00
 3.5080266400e-01	 1.4326766875e+00	-1.0714216466e+00
 3.2329415804e-01	 1.4391337281e+00	-1.0262732317e+00
 2.9581992149e-01	 1.4450313401e+00	-9.9282709071e-01
 2.6839550230e-01	 1.4503754184e+00	-9.7052487174e-01
 5.4524028855e-01	 1.3772489209e+00	-1.7720969343e+00
 5.1784143133e-01	 1.3877830574e+00	-1.6176882875e+00
 4.9035806583e-01	 1.3977304925e+00	-1.4833811011e+00
 4.6280803180e-01	 1.4070928499e+00	-1.3673669755e+00
 4.3520893273e-01	 1.4158724333e+00	-1.2679695256e+00
 4.0757810573e-01	 1.4240722068e+00	-1.1836578894e+00
 3.7993259318e-01	 1.4316957732e+00	-1.1130581306e+00
 3.5228911596e-01	 1.4387473514e+00	-1.0549625164e+00
 3.2466404854e-01	 1.4452317524e+00	-1.0083366787e+00
 2.9707339573e-01	 1.4511543543e+00	-9.7232468755e-01
 2.6953277137e-01	 1.4565210770e+00	-9.4625209331e-01
 5.4754088048e-01	 1.3830600978e+00	-1.7506110928e+00
 5.2002641627e-01	 1.3936386821e+00	-1.5978923743e+00
 4.9242708720e-01	 1.4036280896e+00	-1.4652531312e+00
 4.6476080831e-01	 1.4130299505e+00	-1.3507085767e+00
 4.3704525734e-01	 1.4218465786e+00	-1.2524131697e+00
 4.0929784457e-01	 1.4300809503e+00	-1.1686747187e+00
 3.8153568429e-01	 1.4377366837e+00	-1.0979663089e+00
 3.5377556793e-01	 1.4448180154e+00	-1.0389360328e+00
 3.2603393904e-01	 1.4513297766e+00	-9.9041453137e-01
 2.9832686997e-01	 1.4572773685e+00	-9.5142037792e-01
 2.7067004045e-01	 1.4626667355e+00	-9.2116335797e-01
 5.4984147241e-01	 1.3888712747e+00	-1.7324624189e+00
 5.2221140121e-01	 1.3994943069e+00	-1.5810174386e+00
 4.9449610857e-01	 1.4095256866e+00	-1.4496297718e+00
 4.6671358481e-01	 1.4189670511e+00	-1.3361384914e+00
 4.3888158195e-01	 1.4278207239e+00	-1.2385291585e+00
 4.1101758342e-01	 1.4360896938e+00	-1.1549485213e+00
 3.8313877540e-01	 1.4437775941e+00	-1.0837169672e+00
 3.5526201989e-01	 1.4508886793e+00	-1.0233387059e+00
 3.2740382954e-01	 1.4574278009e+00	-9.7250969070e-01
 2.9958034422e-01	 1.4634003826e+00	-9.3012331142e-01
 2.7180730953e-01	 1.4688123941e+00	-8.9527391240e-01
 5.5214206435e-01	 1.3946824516e+00	-1.7176002754e+00
 5.2439638616e-01	 1.4053499316e+00	-1.5670198088e+00
 4.9656512995e-01	 1.4154232836e+00	-1.4364742591e+00
 4.6866636132e-01	 1.4249041518e+00	-1.3236267928e+00
 4.4071790656e-01	 1.4337948692e+00	-1.2262943176e+00
 4.1273732226e-01	 1.4420984373e+00	-1.1424627788e+00
 3.8474186651e-01	 1.4498185046e+00	-1.0703001345e+00
 3.5674847186e-01	 1.4569593432e+00	-1.0081669924e+00
 3.2877372004e-01	 1.4635258252e+00	-9.5462491048e-01
 3.0083381846e-01	 1.4695233968e+00	-9.0844239867e-01
 2.7294457860e-01	 1.4749580526e+00	-8.6859867437e-01
 2.6157188782e-01	 1.4135014671e+00	-1.0981293869e+00
 2.3490800473e-01	 1.4181764627e+00	-1.1786046884e+00
 2.0832176545e-01	 1.4223249601e+00	-1.2295552227e+00
 1.8182707783e-01	 1.4259541240e+00	-1.2514798561e+00
 1.5543740517e-01	 1.4290715388e+00	-1.2451463204e+00
 1.2916575446e-01	 1.4316851811e+00	-1.2115787052e+00
 1.0302466628e-01	 1.4338033924e+00	-1.1520435649e+00
 7.7026206330e-02	 1.4354348517e+00	-1.0680348229e+00
 5.1181958765e-02	 1.4365885483e+00	-9.6125766203e-01
 2.5503020974e-02	 1.4372737547e+00	-8.3361158597e-01
 0.0000000000e+00	 1.4375000000e+00	-6.8717283387e-01
 2.6270915690e-01	 1.4196471256e+00	-1.0790918547e+00
 2.3592934388e-01	 1.4243424473e+00	-1.1543342446e+00
 2.0922751226e-01	 1.4285089816e+00	-1.2006928540e+00
 1.8261763034e-01	 1.4321539245e+00	-1.2187644198e+00
 1.5611321998e-01	 1.4352848933e+00	-1.2094107740e+00
 1.2972734470e-01	 1.4379098993e+00	-1.1737461603e+00
 1.0347259961e-01	 1.4400373202e+00	-1.1131231811e+00
 7.7361102881e-02	 1.4416758728e+00	-1.0291175598e+00
 5.1404489022e-02	 1.4428345855e+00	-9.2351190654e-01
 2.5613903674e-02	 1.4435227710e+00	-7.9827867187e-01
 0.0000000000e+00	 1.4437500000e+00	-6.5556247208e-01
 2.6384642598e-01	 1.4257927842e+00	-1.0591395734e+00
 2.3695068303e-01	 1.4305084319e+00	-1.1296611968e+00
 2.1013325907e-01	 1.4346930032e+00	-1.1719212121e+00
 1.8340818286e-01	 1.4383537251e+00	-1.1866135259e+00
 1.5678903478e-01	 1.4414982478e+00	-1.1746934554e+00
 1.3028893494e-01	 1.4441346175e+00	-1.1373648683e+00
 1.0392053294e-01	 1.4462712480e+00	-1.0760659692e+00
 7.7695999432e-02	 1.4479168939e+00	-9.9245391788e-01
 5.1627019278e-02	 1.4490806226e+00	-8.8838846750e-01
 2.5724786375e-02	 1.4497717873e+00	-7.6591480900e-01
 0.0000000000e+00	 1.4500000000e+00	-6.2724580399e-01
 2.6498369506e-01	 1.4319384427e+00	-1.0382899166e+00
 2.3797202219e-01	 1.4366744165e+00	-1.1045970487e+00
 2.1103900588e-01	 1.4408770248e+00	-1.1432460432e+00
 1.8419873537e-01	 1.4445535256e+00	-1.1550272815e+00
 1.5746484959e-01	 1.4477116024e+00	-1.1409889568e+00
 1.3085052518e-01	 1.4503593357e+00	-1.1024240365e+00
 1.0436846628e-01	 1.4525051758e+00	-1.0408558866e+00
 7.8030895982e-02	 1.4541579150e+00	-9.5802274405e-01
 5.1849549534e-02	 1.4553266598e+00	-8.5586122575e-01
 2.5835669075e-02	 1.4560208037e+00	-7.3648906051e-01
 0.0000000000e+00	 1.4562500000e+00	-6.0218722717e-01
 2.6612096414e-01	 1.4380841013e+00	-1.0165598843e+00
 2.3899336134e-01	 1.4428404012e+00	-1.0791530421e+00
 2.1194475269e-01	 1.4470610463e+00	-1.1146729406e+00
 1.8498928789e-01	 1.4507533262e+00	-1.1240057468e+00
 1.5814066440e-01	 1.4539249569e+00	-1.1082919265e+00
 1.3141211542e-01	 1.4565840538e+00	-1.0689130282e+00
 1.0481639961e-01	 1.4587391036e+00	-1.0074771435e+00
 7.8365792532e-02	 1.4603989361e+00	-9.2580323228e-01
 5.2072079790e-02	 1.4615726970e+00	-8.2590449978e-01
 2.5946551775e-02	 1.4622698200e+00	-7.0997101440e-01
 0.0000000000e+00	 1.4625000000e+00	-5.8035174778e-01
 2.6725823322e-01	 1.4442297599e+00	-9.9396611063e-01
 2.4001470049e-01	 1.4490063858e+00	-1.0533401621e+00
 2.1285049949e-01	 1.4532450679e+00	-1.0862073473e+00
 1.8577984040e-01	 1.4569531267e+00	-1.0935489356e+00
 1.5881647920e-01	 1.4601383114e+00	-1.0765970678e+00
 1.3197370566e-01	 1.4628087720e+00	-1.0368213598e+00
 1.0526433294e-01	 1.4649730314e+00	-9.7591419841e-01
 7.8700689081e-02	 1.4666399572e+00	-8.9577491626e-01
 5.2294610046e-02	 1.4678187341e+00	-7.9849303642e-01
 2.6057434475e-02	 1.4685188363e+00	-6.8633077230e-01
 0.0000000000e+00	 1.4687500000e+00	-5.6170496761e-01
 2.6839550230e-01	 1.4503754184e+00	-9.7052487174e-01
 2.4103603964e-01	 1.4551723704e+00	-1.0271691429e+00
 2.1375624630e-01	 1.4594290895e+00	-1.0578545596e+00
 1.8657039291e-01	 1.4631529272e+00	-1.0636568167e+00
 1.5949229401e-01	 1.4663516659e+00	-1.0458991376e+00
 1.3253529589e-01	 1.4690334902e+00	-1.0061386976e+00
 1.0571226627e-01	 1.4712069592e+00	-9.4615175221e-01
 7.9035585630e-02	 1.4728809783e+00	-8.6791766226e-01
 5.2517140301e-02	 1.4740647713e+00	-7.7360200175e-01
 2.6168317175e-02	 1.4747678526e+00	-6.6553893865e-01
 0.0000000000e+00	 1.4750000000e+00	-5.4621307148e-01
 2.6953277137e-01	 1.4565210770e+00	-9.4625209331e-01
 2.4205737879e-01	 1.4613383550e+00	-1.0006504727e+00
 2.1466199311e-01	 1.4656131110e+00	-1.0296197302e+00
 1.8736094542e-01	 1.4693527278e+00	-1.0343293148e+00
 1.6016810881e-01	 1.4725650204e+00	-1.0161929457e+00
 1.3309688613e-01	 1.4752582084e+00	-9.7685485396e-01
 1.0616019960e-01	 1.4774408870e+00	-9.1817474344e-01
 7.9370482179e-02	 1.4791219994e+00	-8.4221166202e-01
 5.2739670556e-02	 1.4803108085e+00	-7.5120697231e-01
 2.6279199874e-02	 1.4810168690e+00	-6.4756661006e-01
 0.0000000000e+00	 1.4812500000e+00	-5.3384281492e-01
 2.7067004045e-01	 1.4626667355e+00	-9.2116335797e-01
 2.4307871794e-01	 1.4675043396e+00	-9.7379439910e-01
 2.1556773991e-01	 1.4717971326e+00	-1.0015078712e+00
 1.8815149793e-01	 1.4755525283e+00	-1.0055663112e+00
 1.6084392361e-01	 1.4787783750e+00	-9.8747335299e-01
 1.3365847636e-01	 1.4814829266e+00	-9.4895978508e-01
 1.0660813293e-01	 1.4836748148e+00	-8.9196834314e-01
 7.9705378727e-02	 1.4853630205e+00	-8.1863742600e-01
 5.2962200810e-02	 1.4865568456e+00	-7.3128392640e-01
 2.6390082574e-02	 1.4872658853e+00	-6.3238536495e-01
 0.0000000000e+00	 1.4875000000e+00	-5.2456151219e-01
 2.7180730953e-01	 1.4688123941e+00	-8.9527391240e-01
 2.4410005709e-01	 1.4736703243e+00	-9.4661093413e-01
 2.1647348671e-01	 1.4779811542e+00	-9.7352385673e-01
 1.8894205044e-01	 1.4817523289e+00	-9.7736764508e-01
 1.6151973842e-01	 1.4849917295e+00	-9.5973527098e-01
 1.3422006660e-01	 1.4877076447e+00	-9.2244358741e-01
 1.0705606626e-01	 1.4899087426e+00	-8.6751795004e-01
 8.0040275274e-02	 1.4916040416e+00	-7.9717577664e-01
 5.3184731065e-02	 1.4928028828e+00	-7.1380923573e-01
 2.6500965273e-02	 1.4935149016e+00	-6.1996725353e-01
 0.0000000000e+00	 1.4937500000e+00	-5.1833702461e-01
 2.7294457860e-01	 1.4749580526e+00	-8.6859867437e-01
 2.4512139624e-01	 1.4798363089e+00	-9.1910985908e-01
 2.1737923352e-01	 1.4841651757e+00	-9.4567242634e-01
 1.8973260295e-01	 1.4879521294e+00	-9.4973311394e-01
 1.6219555322e-01	 1.4912050840e+00	-9.3297366052e-01
 1.3478165683e-01	 1.4939323629e+00	-8.9729649498e-01
 1.0750399959e-01	 1.4961426704e+00	-8.4480918578e-01
 8.0375171821e-02	 1.4978450627e+00	-7.7780784191e-01
 5.3407261319e-02	 1.4990489200e+00	-6.9875965720e-01
 2.6611847972e-02	 1.4997639179e+00	-6.1028478791e-01
 0.0000000000e+00	 1.5000000000e+00	-5.1513774913e-01
 1.5000000000e+00	 0.0000000000e+00	 3.5629216210e+00
 1.4997639179e+00	 2.6611847972e-02	 3.6171224116e+00
 1.4990489200e+00	 5.3407261319e-02	 3.6506816226e+00
 1.4978450627e+00	 8.0375171821e-02	 3.6613571524e+00
 1.4961426704e+00	 1.0750399959e-01	 3.6472175748e+00
 1.4939323629e+00	 1.3478165683e-01	 3.6066682057e+00
 1.4912050840e+00	 1.6219555322e-01	 3.5384757910e+00
 1.4879521294e+00	 1.8973260295e-01	 3.4417915052e+00
 1.4841651757e+00	 2.1737923352e-01	 3.3161719492e+00
 1.4798363089e+00	 2.4512139624e-01	 3.1615978319e+00
 1.4749580526e+00	 2.7294457860e-01	 2.9784900302e+00
 1.5062500000e+00	 0.0000000000e+00	 3.5619726238e+00
 1.5060129343e+00	 2.6722730671e-02	 3.6112360569e+00
 1.5052949571e+00	 5.3629791572e-02	 3.6407620338e+00
 1.5040860838e+00	 8.0710068368e-02	 3.6483404015e+00
 1.5023765982e+00	 1.0795193292e-01	 3.6320738075e+00
 1.5001570811e+00	 1.3534324706e-01	 3.5904037853e+00
 1.4974184385e+00	 1.6287136802e-01	 3.5221354388e+00
 1.4941519299e+00	 1.9052315546e-01	 3.4264604109e+00
 1.4903491973e+00	 2.1828498032e-01	 3.3029778229e+00
 1.4860022935e+00	 2.4614273539e-01	 3.1517128684e+00
 1.4811037112e+00	 2.7408184768e-01	 2.9731327519e+00
 1.5125000000e+00	 0.0000000000e+00	 3.5616518538e+00
 1.5122619506e+00	 2.6833613370e-02	 3.6061189029e+00
 1.5115409943e+00	 5.3852321827e-02	 3.6317302672e+00
 1.5103271049e+00	 8.1044964916e-02	 3.6363071852e+00
 1.5086105259e+00	 1.0839986625e-01	 3.6179858889e+00
 1.5063817993e+00	 1.3590483730e-01	 3.5752437152e+00
 1.5036317930e+00	 1.6354718282e-01	 3.5069237899e+00
 1.5003517305e+00	 1.9131370797e-01	 3.4122579719e+00
 1.4965332189e+00	 2.1919072712e-01	 3.2908877382e+00
 1.4921682781e+00	 2.4716407453e-01	 3.1428826931e+00
 1.4872493697e+00	 2.7521911675e-01	 2.9687563903e+00
 1.5187500000e+00	 0.0000000000e+00	 3.5619468342e+00
 1.5185109669e+00	 2.6944496070e-02	 3.6017571493e+00
 1.5177870315e+00	 5.4074852081e-02	 3.6235712637e+00
 1.5165681259e+00	 8.1379861464e-02	 3.6252412530e+00
 1.5148444537e+00	 1.0884779958e-01	 3.6049364496e+00
 1.5126065175e+00	 1.3646642753e-01	 3.5611695826e+00
 1.5098451475e+00	 1.6422299763e-01	 3.4928214686e+00
 1.5065515310e+00	 1.9210426048e-01	 3.3991639337e+00
 1.5027172404e+00	 2.2009647393e-01	 3.2798806501e+00
 1.4983342627e+00	 2.4818541368e-01	 3.1350855639e+00
 1.4933950283e+00	 2.7635638583e-01	 2.9653386038e+00
 1.5250000000e+00	 0.0000000000e+00	 3.5628452931e+00
 1.5247599832e+00	 2.7055378769e-02	 3.5981372181e+00
 1.5240330686e+00	 5.4297382336e-02	 3.6162702009e+00
 1.5228091470e+00	 8.1714758012e-02	 3.6151266042e+00
 1.5210783815e+00	 1.0929573291e-01	 3.5929083797e+00
 1.5188312356e+00	 1.3702801777e-01	 3.5481632423e+00
 1.5160585021e+00	 1.6489881243e-01	 3.4798093712e+00
 1.5127513316e+00	 1.9289481299e-01	 3.3871583163e+00
 1.5089012620e+00	 2.2100222073e-01	 3.2699357881e+00
 1.5045002474e+00	 2.4920675283e-01	 3.1283000101e+00
 1.4995406868e+00	 2.7749365491e-01	 2.9628573160e+00
 1.5312500000e+00	 0.0000000000e+00	 3.5643351587e+00
 1.5310089996e+00	 2.7166261469e-02	 3.5952457484e+00
 1.5302791058e+00	 5.4519912591e-02	 3.6098124886e+00
 1.5290501681e+00	 8.2049654561e-02	 3.6059474826e+00
 1.5273123093e+00	 1.0974366624e-01	 3.5818848239e+00
 1.5250559538e+00	 1.3758960801e-01	 3.5362068107e+00
 1.5222718566e+00	 1.6557462724e-01	 3.4678686612e+00
 1.5189511321e+00	 1.9368536550e-01	 3.3762214088e+00
 1.5150852836e+00	 2.2190796754e-01	 3.2610326506e+00
 1.5106662320e+00	 2.5022809198e-01	 3.1225048267e+00
 1.5056863454e+00	 2.7863092398e-01	 2.9612907109e+00
 1.5375000000e+00	 0.0000000000e+00	 3.5664045555e+00
 1.5372580159e+00	 2.7277144169e-02	 3.5930695923e+00
 1.5365251430e+00	 5.4742442847e-02	 3.6041837639e+00
 1.5352911892e+00	 8.2384551110e-02	 3.5976883712e+00
 1.5335462371e+00	 1.1019159957e-01	 3.5718491762e+00
 1.5312806720e+00	 1.3815119824e-01	 3.5252826609e+00
 1.5284852111e+00	 1.6625044204e-01	 3.4569807633e+00
 1.5251509326e+00	 1.9447591802e-01	 3.3663337642e+00
 1.5212693051e+00	 2.2281371435e-01	 3.2531509994e+00
 1.5168322166e+00	 2.5124943114e-01	 3.1176790693e+00
 1.5118320039e+00	 2.7976819306e-01	 2.9606172270e+00
 1.5437500000e+00	 0.0000000000e+00	 3.5690418005e+00
 1.5435070322e+00	 2.7388026869e-02	 3.5915958106e+00
 1.5427711801e+00	 5.4964973103e-02	 3.5993698868e+00
 1.5415322103e+00	 8.2719447660e-02	 3.5903339880e+00
 1.5397801649e+00	 1.1063953290e-01	 3.5627850746e+00
 1.5375053902e+00	 1.3871278848e-01	 3.5153734176e+00
 1.5346985656e+00	 1.6692625685e-01	 3.4471273585e+00
 1.5313507332e+00	 1.9526647053e-01	 3.3574761939e+00
 1.5274533267e+00	 2.2371946115e-01	 3.2462708542e+00
 1.5229982012e+00	 2.5227077029e-01	 3.1138020486e+00
 1.5179776625e+00	 2.8090546214e-01	 2.9608155526e+00
 1.5500000000e+00	 0.0000000000e+00	 3.5722353988e+00
 1.5497560485e+00	 2.7498909569e-02	 3.5908116684e+00
 1.5490172173e+00	 5.5187503359e-02	 3.5953569355e+00
 1.5477732314e+00	 8.3054344210e-02	 3.5838692805e+00
 1.5460140927e+00	 1.1108746624e-01	 3.5546763965e+00
 1.5437301084e+00	 1.3927437872e-01	 3.5064619515e+00
 1.5409119201e+00	 1.6760207165e-01	 3.4382903787e+00
 1.5375505337e+00	 1.9605702304e-01	 3.3496297622e+00
 1.5336373483e+00	 2.2462520796e-01	 3.2403724877e+00
 1.5291641859e+00	 2.5329210944e-01	 3.1108533253e+00
 1.5241233211e+00	 2.8204273122e-01	 2.9618646206e+00
 1.5562500000e+00	 0.0000000000e+00	 3.5759740406e+00
 1.5560050649e+00	 2.7609792269e-02	 3.5907046312e+00
 1.5552632545e+00	 5.5410033615e-02	 3.5921312019e+00
 1.5540142525e+00	 8.3389240761e-02	 3.5782794220e+00
 1.5522480205e+00	 1.1153539957e-01	 3.5475072538e+00
 1.5499548265e+00	 1.3983596896e-01	 3.4985313748e+00
 1.5471252746e+00	 1.6827788646e-01	 3.4304520015e+00
 1.5437503343e+00	 1.9684757556e-01	 3.3427757818e+00
 1.5398213698e+00	 2.2553095477e-01	 3.2354364205e+00
 1.5353301705e+00	 2.5431344859e-01	 3.1088127051e+00
 1.5302689796e+00	 2.8318000030e-01	 2.9637436033e+00
 1.5625000000e+00	 0.0000000000e+00	 3.5802465967e+00
 1.5622540812e+00	 2.7720674970e-02	 3.5912623609e+00
 1.5615092916e+00	 5.5632563872e-02	 3.5896791878e+00
 1.5602552736e+00	 8.3724137312e-02	 3.5735498061e+00
 1.5584819483e+00	 1.1198333291e-01	 3.5412619881e+00
 1.5561795447e+00	 1.4039755920e-01	 3.4915650363e+00
 1.5533386292e+00	 1.6895370127e-01	 3.4235946459e+00
 1.5499501348e+00	 1.9763812807e-01	 3.3368958082e+00
 1.5460053914e+00	 2.2643670158e-01	 3.2314434157e+00
 1.5414961551e+00	 2.5533478775e-01	 3.1076602337e+00
 1.5364146382e+00	 2.8431726938e-01	 2.9664319083e+00
 1.4749580526e+00	 2.7294457860e-01	 2.9784900302e+00
 1.4695233968e+00	 3.0083381846e-01	 2.9181846577e+00
 1.4635258252e+00	 3.2877372004e-01	 2.8381700800e+00
 1.4569593432e+00	 3.5674847186e-01	 2.7391910435e+00
 1.4498185046e+00	 3.8474186651e-01	 2.6224029200e+00
 1.4420984373e+00	 4.1273732226e-01	 2.4893724386e+00
 1.4337948692e+00	 4.4071790656e-01	 2.3420746751e+00
 1.4249041518e+00	 4.6866636132e-01	 2.1828861497e+00
 1.4154232836e+00	 4.9656512995e-01	 2.0145739255e+00
 1.4053499316e+00	 5.2439638616e-01	 1.8402806386e+00
 1.3946824516e+00	 5.5214206435e-01	 1.6635054373e+00
 1.4811037112e+00	 2.7408184768e-01	 2.9731327519e+00
 1.4756464109e+00	 3.0208729270e-01	 2.9136371030e+00
 1.4696238495e+00	 3.3014361054e-01	 2.8336017580e+00
 1.4630300072e+00	 3.5823492382e-01	 2.7338108800e+00
 1.4558594150e+00	 3.8634495762e-01	 2.6154674896e+00
 1.4481071808e+00	 4.1445706110e-01	 2.4801941866e+00
 1.4397690144e+00	 4.4255423117e-01	 2.3300300666e+00
 1.4308412524e+00	 4.7061913782e-01	 2.1674236791e+00
 1.4213208806e+00	 4.9863415132e-01	 1.9952219202e+00
 1.4112055563e+00	 5.2658137110e-01	 1.8166547874e+00
 1.4004936285e+00	 5.5444265628e-01	 1.6353159746e+00
 1.4872493697e+00	 2.7521911675e-01	 2.9687563903e+00
 1.4817694251e+00	 3.0334076694e-01	 2.9100494217e+00
 1.4757218737e+00	 3.3151350103e-01	 2.8299659706e+00
 1.4691006711e+00	 3.5972137579e-01	 2.7293300829e+00
 1.4619003254e+00	 3.8794804873e-01	 2.6093929587e+00
 1.4541159243e+00	 4.1617679994e-01	 2.4718336634e+00
 1.4457431597e+00	 4.4439055578e-01	 2.3187559686e+00
 1.4367783530e+00	 4.7257191433e-01	 2.1526811709e+00
 1.4272184776e+00	 5.0070317269e-01	 1.9765367744e+00
 1.4170611810e+00	 5.2876635604e-01	 1.7936409680e+00
 1.4063048054e+00	 5.5674324821e-01	 1.6076828722e+00
 1.4933950283e+00	 2.7635638583e-01	 2.9653386038e+00
 1.4878924392e+00	 3.0459424118e-01	 2.9073978202e+00
 1.4818198980e+00	 3.3288339153e-01	 2.8272373567e+00
 1.4751713350e+00	 3.6120782776e-01	 2.7257216114e+00
 1.4679412359e+00	 3.8955113984e-01	 2.6041504979e+00
 1.4601246677e+00	 4.1789653878e-01	 2.4642601455e+00
 1.4517173050e+00	 4.4622688039e-01	 2.3082196636e+00
 1.4427154537e+00	 4.7452469083e-01	 2.1386238173e+00
 1.4331160746e+00	 5.0277219407e-01	 1.9584814995e+00
 1.4229168057e+00	 5.3095134098e-01	 1.7711999261e+00
 1.4121159822e+00	 5.5904384014e-01	 1.5805645321e+00
 1.4995406868e+00	 2.7749365491e-01	 2.9628573160e+00
 1.4940154534e+00	 3.0584771543e-01	 2.9056587770e+00
 1.4879179223e+00	 3.3425328203e-01	 2.8253908352e+00
 1.4812419990e+00	 3.6269427972e-01	 2.7229587130e+00
 1.4739821463e+00	 3.9115423095e-01	 2.5997115754e+00
 1.4661334112e+00	 4.1961627763e-01	 2.4574432175e+00
 1.4576914503e+00	 4.4806320500e-01	 2.2983887520e+00
 1.4486525543e+00	 4.7647746734e-01	 2.1252171400e+00
 1.4390136716e+00	 5.0484121544e-01	 1.9410194485e+00
 1.4287724304e+00	 5.3313632592e-01	 1.7492927623e+00
 1.4179271591e+00	 5.6134443208e-01	 1.5539197248e+00
 1.5056863454e+00	 2.7863092398e-01	 2.9612907109e+00
 1.5001384675e+00	 3.0710118967e-01	 2.9048090375e+00
 1.4940159466e+00	 3.3562317253e-01	 2.8244015994e+00
 1.4873126629e+00	 3.6418073169e-01	 2.7210149180e+00
 1.4800230567e+00	 3.9275732206e-01	 2.5960479508e+00
 1.4721421547e+00	 4.2133601647e-01	 2.4513527648e+00
 1.4636655956e+00	 4.4989952961e-01	 2.2892311462e+00
 1.4545896549e+00	 4.7843024384e-01	 2.1124269835e+00
 1.4449112687e+00	 5.0691023682e-01	 1.9241143093e+00
 1.4346280552e+00	 5.3532131086e-01	 1.7278809247e+00
 1.4237383360e+00	 5.6364502401e-01	 1.5277075812e+00
 1.5118320039e+00	 2.7976819306e-01	 2.9606172270e+00
 1.5062614817e+00	 3.0835466392e-01	 2.9048256085e+00
 1.5001139708e+00	 3.3699306304e-01	 2.8242451112e+00
 1.4933833268e+00	 3.6566718365e-01	 2.7198640336e+00
 1.4860639672e+00	 3.9436041317e-01	 2.5931316695e+00
 1.4781508982e+00	 4.2305575531e-01	 2.4459589685e+00
 1.4696397409e+00	 4.5173585422e-01	 2.2807150639e+00
 1.4605267556e+00	 4.8038302035e-01	 2.1002195089e+00
 1.4508088657e+00	 5.0897925819e-01	 1.9077300978e+00
 1.4404836799e+00	 5.3750629580e-01	 1.7069262015e+00
 1.4295495129e+00	 5.6594561595e-01	 1.5018875858e+00
 1.5179776625e+00	 2.8090546214e-01	 2.9608155526e+00
 1.5123844959e+00	 3.0960813816e-01	 2.9056857531e+00
 1.5062119951e+00	 3.3836295354e-01	 2.8248970962e+00
 1.4994539907e+00	 3.6715363562e-01	 2.7194801381e+00
 1.4921048776e+00	 3.9596350428e-01	 2.5909350569e+00
 1.4841596417e+00	 4.2477549416e-01	 2.4412322984e+00
 1.4756138862e+00	 4.5357217883e-01	 2.2728090222e+00
 1.4664638562e+00	 4.8233579685e-01	 2.0885611870e+00
 1.4567064627e+00	 5.1104827957e-01	 1.8918311514e+00
 1.4463393046e+00	 5.3969128075e-01	 1.6863907144e+00
 1.4353606898e+00	 5.6824620788e-01	 1.4764195692e+00
 1.5241233211e+00	 2.8204273122e-01	 2.9618646206e+00
 1.5185075100e+00	 3.1086161241e-01	 2.9073669850e+00
 1.5123100194e+00	 3.3973284404e-01	 2.8263335376e+00
 1.5055246547e+00	 3.6864008759e-01	 2.7198375755e+00
 1.4981457881e+00	 3.9756659539e-01	 2.5894307125e+00
 1.4901683852e+00	 4.2649523300e-01	 2.4371435080e+00
 1.4815880315e+00	 4.5540850345e-01	 2.2654818311e+00
 1.4724009568e+00	 4.8428857336e-01	 2.0774187926e+00
 1.4626040597e+00	 5.1311730094e-01	 1.8763821222e+00
 1.4521949293e+00	 5.4187626569e-01	 1.6662369121e+00
 1.4411718666e+00	 5.7054679982e-01	 1.4512637013e+00
 1.5302689796e+00	 2.8318000030e-01	 2.9637436033e+00
 1.5246305242e+00	 3.1211508665e-01	 2.9098470642e+00
 1.5184080436e+00	 3.4110273454e-01	 2.8285306717e+00
 1.5115953186e+00	 3.7012653956e-01	 2.7209109505e+00
 1.5041866985e+00	 3.9916968650e-01	 2.5885915044e+00
 1.4961771287e+00	 4.2821497184e-01	 2.4336636284e+00
 1.4875621768e+00	 4.5724482806e-01	 2.2587025882e+00
 1.4783380575e+00	 4.8624134987e-01	 2.0667593981e+00
 1.4685016567e+00	 5.1518632232e-01	 1.8613479711e+00
 1.4580505540e+00	 5.4406125063e-01	 1.6464275632e+00
 1.4469830435e+00	 5.7284739175e-01	 1.4263804844e+00
 1.5364146382e+00	 2.8431726938e-01	 2.9664319083e+00
 1.5307535383e+00	 3.1336856090e-01	 2.9131039914e+00
 1.5245060679e+00	 3.4247262504e-01	 2.8314649823e+00
 1.5176659825e+00	 3.7161299152e-01	 2.7226751228e+00
 1.5102276089e+00	 4.0077277762e-01	 2.5883905642e+00
 1.5021858722e+00	 4.2993471069e-01	 2.4307639628e+00
 1.4935363221e+00	 4.5908115267e-01	 2.2524406726e+00
 1.4842751581e+00	 4.8819412637e-01	 2.0565503673e+00
 1.4743992537e+00	 5.1725534370e-01	 1.8466939611e+00
 1.4639061787e+00	 5.4624623558e-01	 1.6269257503e+00
 1.4527942204e+00	 5.7514798369e-01	 1.4017307466e+00
 1.3946824516e+00	 5.5214206435e-01	 1.6635054373e+00
 1.3834199070e+00	 5.7978389161e-01	 1.5083211410e+00
 1.3715620856e+00	 6.0730342122e-01	 1.3533221475e+00
 1.3591095148e+00	 6.3468206743e-01	 1.2017132660e+00
 1.3460634750e+00	 6.6190114164e-01	 1.0329846055e+00
 1.3324260103e+00	 6.8894188960e-01	 8.4523933651e-01
 1.3181999376e+00	 7.1578552969e-01	 6.4259484319e-01
 1.3033888537e+00	 7.4241329205e-01	 4.2930233521e-01
 1.2879971388e+00	 7.6880645837e-01	 2.0974340943e-01
 1.2720299594e+00	 7.9494640228e-01	-1.1574770079e-02
 1.2554932668e+00	 8.2081463009e-01	-2.3002577393e-01
 1.4004936285e+00	 5.5444265628e-01	 1.6353159746e+00
 1.3891841566e+00	 5.8219965783e-01	 1.4827044167e+00
 1.3772769276e+00	 6.0983385214e-01	 1.3331823888e+00
 1.3647724711e+00	 6.3732657604e-01	 1.1857789447e+00
 1.3516720728e+00	 6.6465906306e-01	 1.0190829112e+00
 1.3379777853e+00	 6.9181248080e-01	 8.3622756007e-01
 1.3236924374e+00	 7.1876796939e-01	 6.4124186385e-01
 1.3088196405e+00	 7.4550668076e-01	 4.3827903845e-01
 1.2933637936e+00	 7.7200981861e-01	 2.3161348495e-01
 1.2773300842e+00	 7.9825867896e-01	 2.5636396403e-02
 1.2607244888e+00	 8.2423469105e-01	-1.7515007299e-01
 1.4063048054e+00	 5.5674324821e-01	 1.6076828722e+00
 1.3949484062e+00	 5.8461542404e-01	 1.4572206938e+00
 1.3829917696e+00	 6.1236428306e-01	 1.3127271884e+00
 1.3704354275e+00	 6.3997108466e-01	 1.1676870655e+00
 1.3572806706e+00	 6.6741698448e-01	 1.0026640587e+00
 1.3435295603e+00	 6.9468307200e-01	 8.2431502006e-01
 1.3291849371e+00	 7.2175040910e-01	 6.3658065678e-01
 1.3142504274e+00	 7.4860006948e-01	 4.4351642178e-01
 1.2987304483e+00	 7.7521317885e-01	 2.4928983761e-01
 1.2826302090e+00	 8.0157095563e-01	 5.8176532246e-02
 1.2659557107e+00	 8.2765475201e-01	-1.2544511942e-01
 1.4121159822e+00	 5.5904384014e-01	 1.5805645321e+00
 1.4007126558e+00	 5.8703119025e-01	 1.4318304995e+00
 1.3887066116e+00	 6.1489471398e-01	 1.2919194566e+00
 1.3760983838e+00	 6.4261559327e-01	 1.1474553113e+00
 1.3628892684e+00	 6.7017490590e-01	 9.8375125350e-01
 1.3490813354e+00	 6.9755366321e-01	 8.0953066097e-01
 1.3346774368e+00	 7.2473284880e-01	 6.2864611227e-01
 1.3196812143e+00	 7.5169345819e-01	 4.4505551741e-01
 1.3040971031e+00	 7.7841653909e-01	 2.6281982669e-01
 1.2879303339e+00	 8.0488323230e-01	 8.6099497297e-02
 1.2711869327e+00	 8.3107481296e-01	-8.0850391274e-02
 1.4179271591e+00	 5.6134443208e-01	 1.5539197248e+00
 1.4064769054e+00	 5.8944695647e-01	 1.4064946689e+00
 1.3944214537e+00	 6.1742514490e-01	 1.2707223469e+00
 1.3817613401e+00	 6.4526010188e-01	 1.1251015387e+00
 1.3684978662e+00	 6.7293282732e-01	 9.6236780083e-01
 1.3546331104e+00	 7.0042425441e-01	 7.9190344905e-01
 1.3401699366e+00	 7.2771528850e-01	 6.1747305986e-01
 1.3251120012e+00	 7.5478684690e-01	 4.4293721016e-01
 1.3094637578e+00	 7.8161989933e-01	 2.7225057330e-01
 1.2932304587e+00	 8.0819550898e-01	 1.0945881860e-01
 1.2764181546e+00	 8.3449487392e-01	-4.1305797810e-02
 1.4237383360e+00	 5.6364502401e-01	 1.5277075812e+00
 1.4122411550e+00	 5.9186272268e-01	 1.3811743391e+00
 1.4001362957e+00	 6.1995557582e-01	 1.2490992513e+00
 1.3874242964e+00	 6.4790461049e-01	 1.1006437745e+00
 1.3741064641e+00	 6.7569074874e-01	 9.3853710399e-01
 1.3601848855e+00	 7.0329484561e-01	 7.7146237188e-01
 1.3456624363e+00	 7.3069772821e-01	 6.0309626958e-01
 1.3305427881e+00	 7.5788023562e-01	 4.3720224038e-01
 1.3148304125e+00	 7.8482325957e-01	 2.7762896522e-01
 1.2985305835e+00	 8.1150778565e-01	 1.2830769718e-01
 1.2816493765e+00	 8.3791493488e-01	-6.7516706742e-03
 1.4295495129e+00	 5.6594561595e-01	 1.5018875858e+00
 1.4180054047e+00	 5.9427848889e-01	 1.3558309425e+00
 1.4058511377e+00	 6.2248600674e-01	 1.2270137950e+00
 1.3930872527e+00	 6.5054911911e-01	 1.0741002124e+00
 1.3797150619e+00	 6.7844867017e-01	 9.1228266224e-01
 1.3657366605e+00	 7.0616543682e-01	 7.4823643791e-01
 1.3511549360e+00	 7.3368016792e-01	 5.8555045316e-01
 1.3359735750e+00	 7.6097362433e-01	 4.2789120695e-01
 1.3201970673e+00	 7.8802661981e-01	 2.7900166168e-01
 1.3038307083e+00	 8.1482006233e-01	 1.4269901468e-01
 1.2868805985e+00	 8.4133499583e-01	 2.2871244674e-02
 1.4353606898e+00	 5.6824620788e-01	 1.4764195692e+00
 1.4237696543e+00	 5.9669425511e-01	 1.3304262013e+00
 1.4115659797e+00	 6.2501643766e-01	 1.2044051604e+00
 1.3987502090e+00	 6.5319362772e-01	 1.0454892098e+00
 1.3853236597e+00	 6.8120659159e-01	 8.8362806887e-01
 1.3712884355e+00	 7.0903602803e-01	 7.2225467610e-01
 1.3566474358e+00	 7.3666260762e-01	 5.6487026520e-01
 1.3414043619e+00	 7.6406701305e-01	 4.1504457011e-01
 1.3255637220e+00	 7.9122998006e-01	 2.7641509797e-01
 1.3091308332e+00	 8.1813233900e-01	 1.5268533982e-01
 1.2921118204e+00	 8.4475505679e-01	 4.7621797338e-02
 1.4411718666e+00	 5.7054679982e-01	 1.4512637013e+00
 1.4295339039e+00	 5.9911002133e-01	 1.3049221213e+00
 1.4172808218e+00	 6.2754686858e-01	 1.1768882573e+00
 1.4044131653e+00	 6.5583813634e-01	 1.0148292838e+00
 1.3909322575e+00	 6.8396451301e-01	 8.5259700929e-01
 1.3768402106e+00	 7.1190661923e-01	 6.9354613542e-01
 1.3621399355e+00	 7.3964504733e-01	 5.4109030434e-01
 1.3468351488e+00	 7.6716040177e-01	 3.9870265427e-01
 1.3309303768e+00	 7.9443334030e-01	 2.6991548995e-01
 1.3144309580e+00	 8.2144461568e-01	 1.5831893470e-01
 1.2973430424e+00	 8.4817511775e-01	 6.7558439164e-02
 1.4469830435e+00	 5.7284739175e-01	 1.4263804844e+00
 1.4352981535e+00	 6.0152578754e-01	 1.2792809866e+00
 1.4229956638e+00	 6.3007729951e-01	 1.1476409669e+00
 1.4100761216e+00	 6.5848264495e-01	 9.8213910885e-01
 1.3965408553e+00	 6.8672243444e-01	 8.1921325919e-01
 1.3823919856e+00	 7.1477721044e-01	 6.6213988452e-01
 1.3676324353e+00	 7.4262748704e-01	 5.1424511439e-01
 1.3522659356e+00	 7.7025379048e-01	 3.7890565074e-01
 1.3362970315e+00	 7.9763670054e-01	 2.5954883845e-01
 1.3197310828e+00	 8.2475689235e-01	 1.5965176097e-01
 1.3025742643e+00	 8.5159517870e-01	 8.2739232711e-02
 1.4527942204e+00	 5.7514798369e-01	 1.4017307466e+00
 1.4410624031e+00	 6.0394155376e-01	 1.2534653537e+00
 1.4287105058e+00	 6.3260773043e-01	 1.1166772777e+00
 1.4157390779e+00	 6.6112715357e-01	 9.4743751298e-01
 1.4021494531e+00	 6.8948035586e-01	 7.8350068274e-01
 1.3879437607e+00	 7.1764780165e-01	 6.2806501130e-01
 1.3731249350e+00	 7.4560992674e-01	 4.8436918538e-01
 1.3576967225e+00	 7.7334717920e-01	 3.5569362037e-01
 1.3416636863e+00	 8.0084006078e-01	 2.4536093361e-01
 1.3250312077e+00	 8.2806916902e-01	 1.5673548583e-01
 1.3078054863e+00	 8.5501523966e-01	 9.3221859042e-02
 1.2554932668e+00	 8.2081463009e-01	-2.3002577393e-01
 1.2383937950e+00	 8.4639282173e-01	-4.3217906999e-01
 1.2207390541e+00	 8.7166287169e-01	-4.9286583854e-01
 1.2025373231e+00	 8.9660692988e-01	-5.8248844516e-01
 1.1837976385e+00	 9.2120744203e-01	-6.9759582031e-01
 1.1645297814e+00	 9.4544718962e-01	-8.3469928320e-01
 1.1447442616e+00	 9.6930932912e-01	-9.9029922927e-01
 1.1244522996e+00	 9.9277743023e-01	-1.1609116305e+00
 1.1036658055e+00	 1.0158355131e+00	-1.3430940829e+00
 1.0823973566e+00	 1.0384680845e+00	-1.5334711421e+00
 1.0606601718e+00	 1.0606601718e+00	-1.7287586937e+00
 1.2607244888e+00	 8.2423469105e-01	-1.7515007299e-01
 1.2435537691e+00	 8.4991945848e-01	-5.2117453248e-01
 1.2258254668e+00	 8.7529480032e-01	-5.6469577355e-01
 1.2075478952e+00	 9.0034279209e-01	-6.3931791671e-01
 1.1887301286e+00	 9.2504580637e-01	-7.4151759534e-01
 1.1693819888e+00	 9.4938655291e-01	-8.6772641818e-01
 1.1495140294e+00	 9.7334811799e-01	-1.0143581017e+00
 1.1291375175e+00	 9.9691400286e-01	-1.1778354505e+00
 1.1082644131e+00	 1.0200681611e+00	-1.3546169164e+00
 1.0869073456e+00	 1.0427950348e+00	-1.5412224722e+00
 1.0650795892e+00	 1.0650795892e+00	-1.7342585433e+00
 1.2659557107e+00	 8.2765475201e-01	-1.2544511942e-01
 1.2487137432e+00	 8.5344609524e-01	-6.1319486719e-01
 1.2309118795e+00	 8.7892672895e-01	-6.3950959939e-01
 1.2125584674e+00	 9.0407865429e-01	-6.9906937190e-01
 1.1936626188e+00	 9.2888417071e-01	-7.8827812808e-01
 1.1742341962e+00	 9.5332591620e-01	-9.0348743690e-01
 1.1542837971e+00	 9.7738690686e-01	-1.0410240735e+00
 1.1338227354e+00	 1.0010505755e+00	-1.1972174826e+00
 1.1128630206e+00	 1.0243008091e+00	-1.3684268519e+00
 1.0914173346e+00	 1.0471219852e+00	-1.5510675256e+00
 1.0694990066e+00	 1.0694990066e+00	-1.7416365001e+00
 1.2711869327e+00	 8.3107481296e-01	-8.0850391274e-02
 1.2538737174e+00	 8.5697273199e-01	-5.9431113650e-01
 1.2359982923e+00	 8.8255865758e-01	-7.1730269631e-01
 1.2175690396e+00	 9.0781451650e-01	-7.6174045692e-01
 1.1985951089e+00	 9.3272253505e-01	-8.3787751391e-01
 1.1790864036e+00	 9.5726527949e-01	-9.4198506164e-01
 1.1590535649e+00	 9.8142569573e-01	-1.0703026655e+00
 1.1385079533e+00	 1.0051871481e+00	-1.2190662116e+00
 1.1174616281e+00	 1.0285334571e+00	-1.3845354963e+00
 1.0959273236e+00	 1.0514489355e+00	-1.5630211829e+00
 1.0739184239e+00	 1.0739184239e+00	-1.7509108617e+00
 1.2764181546e+00	 8.3449487392e-01	-4.1305797810e-02
 1.2590336915e+00	 8.6049936875e-01	-5.4232256782e-01
 1.2410847050e+00	 8.8619058621e-01	-7.9807083242e-01
 1.2225796118e+00	 9.1155037871e-01	-8.2732917871e-01
 1.2035275991e+00	 9.3656089939e-01	-8.9031617845e-01
 1.1839386111e+00	 9.6120464278e-01	-9.8322231088e-01
 1.1638233327e+00	 9.8546448460e-01	-1.1021996574e+00
 1.1431931713e+00	 1.0093237207e+00	-1.2433903399e+00
 1.1220602356e+00	 1.0327661050e+00	-1.4029546301e+00
 1.1004373126e+00	 1.0557758859e+00	-1.5770984507e+00
 1.0783378413e+00	 1.0783378413e+00	-1.7621000015e+00
 1.2816493765e+00	 8.3791493488e-01	-6.7516706742e-03
 1.2641936657e+00	 8.6402600550e-01	-4.9524564558e-01
 1.2461711177e+00	 8.8982251484e-01	-8.8181015573e-01
 1.2275901839e+00	 9.1528624091e-01	-8.9583389769e-01
 1.2084600892e+00	 9.4039926373e-01	-9.4559487078e-01
 1.1887908185e+00	 9.6514400606e-01	-1.0272024932e+00
 1.1685931004e+00	 9.8950327347e-01	-1.1367210820e+00
 1.1478783892e+00	 1.0134602934e+00	-1.2701987835e+00
 1.1266588431e+00	 1.0369987530e+00	-1.4236962042e+00
 1.1049473015e+00	 1.0601028362e+00	-1.5933144593e+00
 1.0827572587e+00	 1.0827572587e+00	-1.7752223670e+00
 1.2868805985e+00	 8.4133499583e-01	 2.2871244674e-02
 1.2693536398e+00	 8.6755264226e-01	-4.5302167979e-01
 1.2512575304e+00	 8.9345444347e-01	-9.3415729386e-01
 1.2326007561e+00	 9.1902210312e-01	-9.6725332048e-01
 1.2133925794e+00	 9.4423762807e-01	-1.0037146569e+00
 1.1936430259e+00	 9.6908336935e-01	-1.0739292014e+00
 1.1733628682e+00	 9.9354206234e-01	-1.1738732205e+00
 1.1525636071e+00	 1.0175968660e+00	-1.2995006672e+00
 1.1312574507e+00	 1.0412314010e+00	-1.4467723358e+00
 1.1094572905e+00	 1.0644297866e+00	-1.6116844604e+00
 1.0871766761e+00	 1.0871766761e+00	-1.7902964785e+00
 1.2921118204e+00	 8.4475505679e-01	 4.7621797338e-02
 1.2745136140e+00	 8.7107927901e-01	-4.1559236719e-01
 1.2563439431e+00	 8.9708637210e-01	-8.8592805216e-01
 1.2376113283e+00	 9.2275796532e-01	-1.0415864930e+00
 1.2183250696e+00	 9.4807599240e-01	-1.0646769133e+00
 1.1984952333e+00	 9.7302273264e-01	-1.1234063068e+00
 1.1781326359e+00	 9.9758085120e-01	-1.2136625975e+00
 1.1572488250e+00	 1.0217334386e+00	-1.3313053209e+00
 1.1358560582e+00	 1.0454640489e+00	-1.4721953057e+00
 1.1139672795e+00	 1.0687567369e+00	-1.6322238243e+00
 1.0915960935e+00	 1.0915960935e+00	-1.8073409278e+00
 1.2973430424e+00	 8.4817511775e-01	 6.7558439164e-02
 1.2796735881e+00	 8.7460591577e-01	-3.8289978346e-01
 1.2614303559e+00	 9.0071830073e-01	-8.4234656383e-01
 1.2426219005e+00	 9.2649382752e-01	-1.1188327934e+00
 1.2232575597e+00	 9.5191435674e-01	-1.1284833206e+00
 1.2033474407e+00	 9.7696209592e-01	-1.1756379534e+00
 1.1829024037e+00	 1.0016196401e+00	-1.2560959756e+00
 1.1619340429e+00	 1.0258700112e+00	-1.3656222748e+00
 1.1404546657e+00	 1.0496966969e+00	-1.4999775545e+00
 1.1184772685e+00	 1.0730836873e+00	-1.6549480377e+00
 1.0960155108e+00	 1.0960155108e+00	-1.8263743761e+00
 1.3025742643e+00	 8.5159517870e-01	 8.2739232711e-02
 1.2848335622e+00	 8.7813255252e-01	-3.5488637562e-01
 1.2665167686e+00	 9.0435022936e-01	-8.0335605631e-01
 1.2476324727e+00	 9.3022968973e-01	-1.1989919257e+00
 1.2281900499e+00	 9.5575272108e-01	-1.1951358578e+00
 1.2081996482e+00	 9.8090145921e-01	-1.2306285529e+00
 1.1876721714e+00	 1.0056584289e+00	-1.3011803511e+00
 1.1666192608e+00	 1.0300065838e+00	-1.4024612562e+00
 1.1450532732e+00	 1.0539293449e+00	-1.5301316796e+00
 1.1229872575e+00	 1.0774106376e+00	-1.6798727012e+00
 1.1004349282e+00	 1.1004349282e+00	-1.8474155532e+00
 1.3078054863e+00	 8.5501523966e-01	 9.3221859042e-02
 1.2899935364e+00	 8.8165918928e-01	-3.3149495457e-01
 1.2716031813e+00	 9.0798215799e-01	-7.6890010014e-01
 1.2526430448e+00	 9.3396555193e-01	-1.2153777247e+00
 1.2331225400e+00	 9.5959108542e-01	-1.2646367957e+00
 1.2130518556e+00	 9.8484082249e-01	-1.2883827787e+00
 1.1924419392e+00	 1.0096972178e+00	-1.3489229492e+00
 1.1713044787e+00	 1.0341431565e+00	-1.4418321847e+00
 1.1496518808e+00	 1.0581619928e+00	-1.5626704321e+00
 1.1274972465e+00	 1.0817375880e+00	-1.7070135273e+00
 1.1048543456e+00	 1.1048543456e+00	-1.8704832561e+00
 1.0606601718e+00	 1.0606601718e+00	-1.7287586937e+00
 1.0384680845e+00	 1.0823973566e+00	-1.9513409796e+00
 1.0158355131e+00	 1.1036658055e+00	-2.1194723884e+00
 9.9277743023e-01	 1.1244522996e+00	-2.2309799276e+00
 9.6930932912e-01	 1.1447442616e+00	-2.2840429807e+00
 9.4544718962e-01	 1.1645297814e+00	-2.2772053796e+00
 9.2120744203e-01	 1.1837976385e+00	-2.2093844892e+00
 8.9660692988e-01	 1.2025373231e+00	-2.0798772345e+00
 8.7166287169e-01	 1.2207390541e+00	-1.8883630396e+00
 8.4639282173e-01	 1.2383937950e+00	-1.6349036819e+00
 8.2081463009e-01	 1.2554932668e+00	-1.6004121564e+00
 1.0650795892e+00	 1.0650795892e+00	-1.7342585433e+00
 1.0427950348e+00	 1.0869073456e+00	-1.9550318643e+00
 1.0200681611e+00	 1.1082644131e+00	-2.1177749074e+00
 9.9691400286e-01	 1.1291375175e+00	-2.2201995293e+00
 9.7334811799e-01	 1.1495140294e+00	-2.2603866842e+00
 9.4938655291e-01	 1.1693819888e+00	-2.2367989408e+00
 9.2504580637e-01	 1.1887301286e+00	-2.1482899039e+00
 9.0034279209e-01	 1.2075478952e+00	-1.9941104707e+00
 8.7529480032e-01	 1.2258254668e+00	-1.7739118891e+00
 8.4991945848e-01	 1.2435537691e+00	-1.4877456211e+00
 8.2423469105e-01	 1.2607244888e+00	-1.6814908589e+00
 1.0694990066e+00	 1.0694990066e+00	-1.7416365001e+00
 1.0471219852e+00	 1.0914173346e+00	-1.9603046987e+00
 1.0243008091e+00	 1.1128630206e+00	-2.1173814988e+00
 1.0010505755e+00	 1.1338227354e+00	-2.2104638673e+00
 9.7738690686e-01	 1.1542837971e+00	-2.2375345653e+00
 9.5332591620e-01	 1.1742341962e+00	-2.1969751094e+00
 9.2888417071e-01	 1.1936626188e+00	-2.0875755306e+00
 9.0407865429e-01	 1.2125584674e+00	-1.9085408593e+00
 8.7892672895e-01	 1.2309118795e+00	-1.6594943025e+00
 8.5344609524e-01	 1.2487137432e+00	-1.3404771178e+00
 8.2765475201e-01	 1.2659557107e+00	-1.7602180368e+00
 1.0739184239e+00	 1.0739184239e+00	-1.7509108617e+00
 1.0514489355e+00	 1.0959273236e+00	-1.9671820548e+00
 1.0285334571e+00	 1.1174616281e+00	-2.1183186399e+00
 1.0051871481e+00	 1.1385079533e+00	-2.2018029474e+00
 9.8142569573e-01	 1.1590535649e+00	-2.2155197743e+00
 9.5726527949e-01	 1.1790864036e+00	-2.1577697903e+00
 9.3272253505e-01	 1.1985951089e+00	-2.0272796336e+00
 9.0781451650e-01	 1.2175690396e+00	-1.8232086247e+00
 8.8255865758e-01	 1.2359982923e+00	-1.5451520634e+00
 8.5697273199e-01	 1.2538737174e+00	-1.3826236229e+00
 8.3107481296e-01	 1.2711869327e+00	-1.8366030415e+00
 1.0783378413e+00	 1.0783378413e+00	-1.7621000015e+00
 1.0557758859e+00	 1.1004373126e+00	-1.9756865148e+00
 1.0327661050e+00	 1.1220602356e+00	-2.1206127585e+00
 1.0093237207e+00	 1.1431931713e+00	-2.1942466711e+00
 9.8546448460e-01	 1.1638233327e+00	-2.1943753079e+00
 9.6120464278e-01	 1.1839386111e+00	-2.1192186905e+00
 9.3656089939e-01	 1.2035275991e+00	-1.9674402405e+00
 9.1155037871e-01	 1.2225796118e+00	-1.7381537225e+00
 8.8619058621e-01	 1.2410847050e+00	-1.4309266590e+00
 8.6049936875e-01	 1.2590336915e+00	-1.4856759747e+00
 8.3449487392e-01	 1.2764181546e+00	-1.9106548916e+00
 1.0827572587e+00	 1.0827572587e+00	-1.7752223670e+00
 1.0601028362e+00	 1.1049473015e+00	-1.9858406711e+00
 1.0369987530e+00	 1.1266588431e+00	-2.1242902334e+00
 1.0134602934e+00	 1.1478783892e+00	-2.1878248376e+00
 9.8950327347e-01	 1.1685931004e+00	-2.1741340118e+00
 9.6514400606e-01	 1.1887908185e+00	-2.0813573231e+00
 9.4039926373e-01	 1.2084600892e+00	-1.9080951482e+00
 9.1528624091e-01	 1.2275901839e+00	-1.6534158449e+00
 8.8982251484e-01	 1.2461711177e+00	-1.3168592870e+00
 8.6402600550e-01	 1.2641936657e+00	-1.5864445375e+00
 8.3791493488e-01	 1.2816493765e+00	-1.9823822794e+00
 1.0871766761e+00	 1.0871766761e+00	-1.7902964785e+00
 1.0644297866e+00	 1.1094572905e+00	-1.9976671262e+00
 1.0412314010e+00	 1.1312574507e+00	-2.1293773959e+00
 1.0175968660e+00	 1.1525636071e+00	-2.1825671453e+00
 9.9354206234e-01	 1.1733628682e+00	-2.1548285839e+00
 9.6908336935e-01	 1.1936430259e+00	-2.0442210113e+00
 9.4423762807e-01	 1.2133925794e+00	-1.8492819262e+00
 9.1902210312e-01	 1.2326007561e+00	-1.5690344260e+00
 8.9345444347e-01	 1.2512575304e+00	-1.2617076109e+00
 8.6755264226e-01	 1.2693536398e+00	-1.6849364291e+00
 8.4133499583e-01	 1.2868805985e+00	-2.0517935777e+00
 1.0915960935e+00	 1.0915960935e+00	-1.8073409278e+00
 1.0687567369e+00	 1.1139672795e+00	-2.0111884924e+00
 1.0454640489e+00	 1.1358560582e+00	-2.1359005305e+00
 1.0217334386e+00	 1.1572488250e+00	-2.1785031948e+00
 9.9758085120e-01	 1.1781326359e+00	-2.1364915773e+00
 9.7302273264e-01	 1.1984952333e+00	-2.0078448924e+00
 9.4807599240e-01	 1.2183250696e+00	-1.7910379225e+00
 9.2275796532e-01	 1.2376113283e+00	-1.4850486471e+00
 8.9708637210e-01	 1.2563439431e+00	-1.3840462319e+00
 8.7107927901e-01	 1.2745136140e+00	-1.7811584689e+00
 8.4475505679e-01	 1.2921118204e+00	-2.1188968461e+00
 1.0960155108e+00	 1.0960155108e+00	-1.8263743761e+00
 1.0730836873e+00	 1.1184772685e+00	-2.0264273916e+00
 1.0496966969e+00	 1.1404546657e+00	-2.1438858758e+00
 1.0258700112e+00	 1.1619340429e+00	-2.1756624900e+00
 1.0016196401e+00	 1.1829024037e+00	-2.1191554036e+00
 9.7696209592e-01	 1.2033474407e+00	-1.9722639213e+00
 9.5191435674e-01	 1.2232575597e+00	-1.7334002671e+00
 9.2649382752e-01	 1.2426219005e+00	-1.4014974415e+00
 9.0071830073e-01	 1.2614303559e+00	-1.5041882723e+00
 8.7460591577e-01	 1.2796735881e+00	-1.8751171841e+00
 8.4817511775e-01	 1.2973430424e+00	-2.1836998375e+00
 1.1004349282e+00	 1.1004349282e+00	-1.8474155532e+00
 1.0774106376e+00	 1.1229872575e+00	-2.0434064550e+00
 1.0539293449e+00	 1.1450532732e+00	-2.1533596255e+00
 1.0300065838e+00	 1.1666192608e+00	-2.1740744406e+00
 1.0056584289e+00	 1.1876721714e+00	-2.1028523349e+00
 9.8090145921e-01	 1.2081996482e+00	-1.9375128742e+00
 9.5575272108e-01	 1.2281900499e+00	-1.6764058768e+00
 9.3022968973e-01	 1.2476324727e+00	-1.3184194999e+00
 9.0435022936e-01	 1.2665167686e+00	-1.6221384644e+00
 8.7813255252e-01	 1.2848335622e+00	-1.9668188153e+00
 8.5159517870e-01	 1.3025742643e+00	-2.2462100042e+00
 1.1048543456e+00	 1.1048543456e+00	-1.8704832561e+00
 1.0817375880e+00	 1.1274972465e+00	-2.0621483231e+00
 1.0581619928e+00	 1.1496518808e+00	-2.1643479294e+00
 1.0341431565e+00	 1.1713044787e+00	-2.1737683637e+00
 1.0096972178e+00	 1.1924419392e+00	-2.0876145074e+00
 9.8484082249e-01	 1.2130518556e+00	-1.9036263523e+00
 9.5959108542e-01	 1.2331225400e+00	-1.6200914596e+00
 9.3396555193e-01	 1.2526430448e+00	-1.3524969239e+00
 9.0798215799e-01	 1.2716031813e+00	-1.7379012784e+00
 8.8165918928e-01	 1.2899935364e+00	-2.0562693224e+00
 8.5501523966e-01	 1.3078054863e+00	-2.3064345037e+00
 8.2081463009e-01	 1.2554932668e+00	-1.6004121564e+00
 7.9494640228e-01	 1.2720299594e+00	-1.7725428443e+00
 7.6880645837e-01	 1.2879971388e+00	-1.8905203494e+00
 7.4241329205e-01	 1.3033888537e+00	-1.9538648650e+00
 7.1578552969e-01	 1.3181999376e+00	-1.9622506209e+00
 6.8894188960e-01	 1.3324260103e+00	-1.9155114352e+00
 6.6190114164e-01	 1.3460634750e+00	-1.8136453893e+00
 6.3468206743e-01	 1.3591095148e+00	-1.6568185702e+00
 6.0730342122e-01	 1.3715620856e+00	-1.6486401718e+00
 5.7978389161e-01	 1.3834199070e+00	-1.7056034767e+00
 5.5214206435e-01	 1.3946824516e+00	-1.7176002754e+00
 8.2423469105e-01	 1.2607244888e+00	-1.6814908589e+00
 7.9825867896e-01	 1.2773300842e+00	-1.8253388227e+00
 7.7200981861e-01	 1.2933637936e+00	-1.9196265998e+00
 7.4550668076e-01	 1.3088196405e+00	-1.9639419263e+00
 7.1876796939e-01	 1.3236924374e+00	-1.9580083144e+00
 6.9181248080e-01	 1.3379777853e+00	-1.9016908182e+00
 6.6465906306e-01	 1.3516720728e+00	-1.7950010132e+00
 6.3732657604e-01	 1.3647724711e+00	-1.6381011268e+00
 6.0983385214e-01	 1.3772769276e+00	-1.6040400646e+00
 5.8219965783e-01	 1.3891841566e+00	-1.6684961912e+00
 5.5444265628e-01	 1.4004936285e+00	-1.6924744504e+00
 8.2765475201e-01	 1.2659557107e+00	-1.7602180368e+00
 8.0157095563e-01	 1.2826302090e+00	-1.8762114727e+00
 7.7521317885e-01	 1.2987304483e+00	-1.9472036527e+00
 7.4860006948e-01	 1.3142504274e+00	-1.9728491547e+00
 7.2175040910e-01	 1.3291849371e+00	-1.9529201633e+00
 6.9468307200e-01	 1.3435295603e+00	-1.8873124523e+00
 6.6741698448e-01	 1.3572806706e+00	-1.7760506692e+00
 6.3997108466e-01	 1.3704354275e+00	-1.6192928548e+00
 6.1236428306e-01	 1.3829917696e+00	-1.5600313112e+00
 5.8461542404e-01	 1.3949484062e+00	-1.6321410398e+00
 5.5674324821e-01	 1.4063048054e+00	-1.6682219320e+00
 8.3107481296e-01	 1.2711869327e+00	-1.8366030415e+00
 8.0488323230e-01	 1.2879303339e+00	-1.9251656675e+00
 7.7841653909e-01	 1.3040971031e+00	-1.9732523750e+00
 7.5169345819e-01	 1.3196812143e+00	-1.9805838857e+00
 7.2473284880e-01	 1.3346774368e+00	-1.9469804492e+00
 6.9755366321e-01	 1.3490813354e+00	-1.8723680434e+00
 6.7017490590e-01	 1.3628892684e+00	-1.7567839649e+00
 6.4261559327e-01	 1.3760983838e+00	-1.6003817389e+00
 6.1489471398e-01	 1.3887066116e+00	-1.5165934394e+00
 5.8703119025e-01	 1.4007126558e+00	-1.5965174414e+00
 5.5904384014e-01	 1.4121159822e+00	-1.6448224817e+00
 8.3449487392e-01	 1.2764181546e+00	-1.9106548916e+00
 8.0819550898e-01	 1.2932304587e+00	-1.9722060265e+00
 7.8161989933e-01	 1.3094637578e+00	-1.9977734515e+00
 7.5478684690e-01	 1.3251120012e+00	-1.9871433374e+00
 7.2771528850e-01	 1.3401699366e+00	-1.9401833930e+00
 7.0042425441e-01	 1.3546331104e+00	-1.8568492852e+00
 6.7293282732e-01	 1.3684978662e+00	-1.7371905368e+00
 6.4526010188e-01	 1.3817613401e+00	-1.5813558269e+00
 6.1742514490e-01	 1.3944214537e+00	-1.4737060658e+00
 5.8944695647e-01	 1.4064769054e+00	-1.5616049220e+00
 5.6134443208e-01	 1.4179271591e+00	-1.6222559791e+00
 8.3791493488e-01	 1.2816493765e+00	-1.9823822794e+00
 8.1150778565e-01	 1.2985305835e+00	-2.0173369208e+00
 7.8482325957e-01	 1.3148304125e+00	-2.0207673890e+00
 7.5788023562e-01	 1.3305427881e+00	-1.9925246127e+00
 7.3069772821e-01	 1.3456624363e+00	-1.9325231559e+00
 7.0329484561e-01	 1.3601848855e+00	-1.8407478600e+00
 6.7569074874e-01	 1.3741064641e+00	-1.7172600506e+00
 6.4790461049e-01	 1.3874242964e+00	-1.5622032284e+00
 6.1995557582e-01	 1.4001362957e+00	-1.4313488944e+00
 5.9186272268e-01	 1.4122411550e+00	-1.5273831126e+00
 5.6364502401e-01	 1.4237383360e+00	-1.6005024188e+00
 8.4133499583e-01	 1.2868805985e+00	-2.0517935777e+00
 8.1482006233e-01	 1.3038307083e+00	-2.0605624778e+00
 7.8802661981e-01	 1.3201970673e+00	-2.0422345201e+00
 7.6097362433e-01	 1.3359735750e+00	-1.9967247018e+00
 7.3368016792e-01	 1.3511549360e+00	-1.9239938405e+00
 7.0616543682e-01	 1.3657366605e+00	-1.8240554386e+00
 6.7844867017e-01	 1.3797150619e+00	-1.6969822000e+00
 6.5054911911e-01	 1.3930872527e+00	-1.5429121133e+00
 6.2248600674e-01	 1.4058511377e+00	-1.3895017140e+00
 5.9427848889e-01	 1.4180054047e+00	-1.4938317469e+00
 5.6594561595e-01	 1.4295495129e+00	-1.5795419090e+00
 8.4475505679e-01	 1.2921118204e+00	-2.1188968461e+00
 8.1813233900e-01	 1.3091308332e+00	-2.1018865866e+00
 7.9122998006e-01	 1.3255637220e+00	-2.0621750060e+00
 7.6406701305e-01	 1.3414043619e+00	-1.9997404845e+00
 7.3666260762e-01	 1.3566474358e+00	-1.9145894926e+00
 7.0903602803e-01	 1.3712884355e+00	-1.8067636807e+00
 6.8120659159e-01	 1.3853236597e+00	-1.6763467064e+00
 6.5319362772e-01	 1.3987502090e+00	-1.5234707109e+00
 6.2501643766e-01	 1.4115659797e+00	-1.3483223610e+00
 5.9669425511e-01	 1.4237696543e+00	-1.4609306596e+00
 5.6824620788e-01	 1.4353606898e+00	-1.5593546682e+00
 8.4817511775e-01	 1.2973430424e+00	-2.1836998375e+00
 8.2144461568e-01	 1.3144309580e+00	-2.1413129027e+00
 7.9443334030e-01	 1.3309303768e+00	-2.0805888408e+00
 7.6716040177e-01	 1.3468351488e+00	-2.0015687322e+00
 7.3964504733e-01	 1.3621399355e+00	-1.9043041017e+00
 7.1190661923e-01	 1.3768402106e+00	-1.7888642351e+00
 6.8396451301e-01	 1.3909322575e+00	-1.6553433185e+00
 6.5583813634e-01	 1.4044131653e+00	-1.5038673082e+00
 6.2754686858e-01	 1.4172808218e+00	-1.3346004431e+00
 5.9911002133e-01	 1.4295339039e+00	-1.4286597839e+00
 5.7054679982e-01	 1.4411718666e+00	-1.5399210239e+00
 8.5159517870e-01	 1.3025742643e+00	-2.2462100042e+00
 8.2475689235e-01	 1.3197310828e+00	-2.1788448524e+00
 7.9763670054e-01	 1.3362970315e+00	-2.0974758544e+00
 7.7025379048e-01	 1.3522659356e+00	-2.0022061101e+00
 7.4262748704e-01	 1.3676324353e+00	-1.8931316022e+00
 7.1477721044e-01	 1.3823919856e+00	-1.7703487396e+00
 6.8672243444e-01	 1.3965408553e+00	-1.6339618111e+00
 6.5848264495e-01	 1.4100761216e+00	-1.4840902494e+00
 6.3007729951e-01	 1.4229956638e+00	-1.3208756140e+00
 6.0152578754e-01	 1.4352981535e+00	-1.3969991499e+00
 5.7284739175e-01	 1.4469830435e+00	-1.5212214095e+00
 8.5501523966e-01	 1.3078054863e+00	-2.3064345037e+00
 8.2806916902e-01	 1.3250312077e+00	-2.2144856377e+00
 8.0084006078e-01	 1.3416636863e+00	-2.1128357156e+00
 7.7334717920e-01	 1.3576967225e+00	-2.0016491798e+00
 7.4560992674e-01	 1.3731249350e+00	-1.8810658750e+00
 7.1764780165e-01	 1.3879437607e+00	-1.7512088219e+00
 6.8948035586e-01	 1.4021494531e+00	-1.6121919854e+00
 6.6112715357e-01	 1.4157390779e+00	-1.4641279344e+00
 6.3260773043e-01	 1.4287105058e+00	-1.3071352946e+00
 6.0394155376e-01	 1.4410624031e+00	-1.3659288824e+00
 5.7514798369e-01	 1.4527942204e+00	-1.5032363632e+00
 5.5214206435e-01	 1.3946824516e+00	-1.7176002754e+00
 5.2439638616e-01	 1.4053499316e+00	-1.5670198088e+00
 4.9656512995e-01	 1.4154232836e+00	-1.4364742591e+00
 4.6866636132e-01	 1.4249041518e+00	-1.3236267928e+00
 4.4071790656e-01	 1.4337948692e+00	-1.2262943176e+00
 4.1273732226e-01	 1.4420984373e+00	-1.1424627788e+00
 3.8474186651e-01	 1.4498185046e+00	-1.0703001345e+00
 3.5674847186e-01	 1.4569593432e+00	-1.0081669924e+00
 3.2877372004e-01	 1.4635258252e+00	-9.5462491048e-01
 3.0083381846e-01	 1.4695233968e+00	-9.0844239867e-01
 2.7294457860e-01	 1.4749580526e+00	-8.6859867437e-01
 5.5444265628e-01	 1.4004936285e+00	-1.6924744504e+00
 5.2658137110e-01	 1.4112055563e+00	-1.5488077875e+00
 4.9863415132e-01	 1.4213208806e+00	-1.4236785477e+00
 4.7061913782e-01	 1.4308412524e+00	-1.3147060770e+00
 4.4255423117e-01	 1.4397690144e+00	-1.2196717039e+00
 4.1445706110e-01	 1.4481071808e+00	-1.1365340709e+00
 3.8634495762e-01	 1.4558594150e+00	-1.0634420920e+00
 3.5823492382e-01	 1.4630300072e+00	-9.9874551844e-01
 3.3014361054e-01	 1.4696238495e+00	-9.4100311949e-01
 3.0208729270e-01	 1.4756464109e+00	-8.8898851593e-01
 2.7408184768e-01	 1.4811037112e+00	-8.4169372405e-01
 5.5674324821e-01	 1.4063048054e+00	-1.6682219320e+00
 5.2876635604e-01	 1.4170611810e+00	-1.5314756484e+00
 5.0070317269e-01	 1.4272184776e+00	-1.4117777026e+00
 4.7257191433e-01	 1.4367783530e+00	-1.3067029852e+00
 4.4439055578e-01	 1.4457431597e+00	-1.2139966219e+00
 4.1617679994e-01	 1.4541159243e+00	-1.1315893431e+00
 3.8794804873e-01	 1.4619003254e+00	-1.0576104264e+00
 3.5972137579e-01	 1.4691006711e+00	-9.9039819387e-01
 3.3151350103e-01	 1.4757218737e+00	-9.2850807554e-01
 3.0334076694e-01	 1.4817694251e+00	-8.7071827669e-01
 2.7521911675e-01	 1.4872493697e+00	-8.1603311184e-01
 5.5904384014e-01	 1.4121159822e+00	-1.6448224817e+00
 5.3095134098e-01	 1.4229168057e+00	-1.5150048619e+00
 5.0277219407e-01	 1.4331160746e+00	-1.4007547387e+00
 4.7452469083e-01	 1.4427154537e+00	-1.2996019105e+00
 4.4622688039e-01	 1.4517173050e+00	-1.2092546744e+00
 4.1789653878e-01	 1.4601246677e+00	-1.1276152376e+00
 3.8955113984e-01	 1.4679412359e+00	-1.0527926477e+00
 3.6120782776e-01	 1.4751713350e+00	-9.8311322471e-01
 3.3288339153e-01	 1.4818198980e+00	-9.1712850876e-01
 3.0459424118e-01	 1.4878924392e+00	-8.5362076357e-01
 2.7635638583e-01	 1.4933950283e+00	-7.9160610219e-01
 5.6134443208e-01	 1.4179271591e+00	-1.6222559791e+00
 5.3313632592e-01	 1.4287724304e+00	-1.4993770039e+00
 5.0484121544e-01	 1.4390136716e+00	-1.3905927672e+00
 4.7647746734e-01	 1.4486525543e+00	-1.2933873351e+00
 4.4806320500e-01	 1.4576914503e+00	-1.2054315482e+00
 4.1961627763e-01	 1.4661334112e+00	-1.1245984778e+00
 3.9115423095e-01	 1.4739821463e+00	-1.0489763471e+00
 3.6269427972e-01	 1.4812419990e+00	-9.7687890038e-01
 3.3425328203e-01	 1.4879179223e+00	-9.0685323683e-01
 3.0584771543e-01	 1.4940154534e+00	-8.3768515315e-01
 2.7749365491e-01	 1.4995406868e+00	-7.6840206198e-01
 5.6364502401e-01	 1.4237383360e+00	-1.6005024188e+00
 5.3532131086e-01	 1.4346280552e+00	-1.4845737542e+00
 5.0691023682e-01	 1.4449112687e+00	-1.3812749935e+00
 4.7843024384e-01	 1.4545896549e+00	-1.2880438285e+00
 4.4989952961e-01	 1.4636655956e+00	-1.2025130126e+00
 4.2133601647e-01	 1.4721421547e+00	-1.1225258674e+00
 3.9275732206e-01	 1.4800230567e+00	-1.0461491959e+00
 3.6418073169e-01	 1.4873126629e+00	-9.7168359192e-01
 3.3562317253e-01	 1.4940159466e+00	-8.9767116320e-01
 3.0710118967e-01	 1.5001384675e+00	-8.2290071395e-01
 2.7863092398e-01	 1.5056863454e+00	-7.4641045839e-01
 5.6594561595e-01	 1.4295495129e+00	-1.5795419090e+00
 5.3750629580e-01	 1.4404836799e+00	-1.4705768941e+00
 5.0897925819e-01	 1.4508088657e+00	-1.3727847157e+00
 4.8038302035e-01	 1.4605267556e+00	-1.2835560453e+00
 4.5173585422e-01	 1.4696397409e+00	-1.2004849177e+00
 4.2305575531e-01	 1.4781508982e+00	-1.1213842883e+00
 3.9436041317e-01	 1.4860639672e+00	-1.0442989431e+00
 3.6566718365e-01	 1.4933833268e+00	-9.6751575034e-01
 3.3699306304e-01	 1.5001139708e+00	-8.8957127530e-01
 3.0835466392e-01	 1.5062614817e+00	-8.0925680467e-01
 2.7976819306e-01	 1.5118320039e+00	-7.2562085691e-01
 5.6824620788e-01	 1.4353606898e+00	-1.5593546682e+00
 5.3969128075e-01	 1.4463393046e+00	-1.4573683045e+00
 5.1104827957e-01	 1.4567064627e+00	-1.3651053221e+00
 4.8233579685e-01	 1.4664638562e+00	-1.2799087244e+00
 4.5357217883e-01	 1.4756138862e+00	-1.1993331929e+00
 4.2477549416e-01	 1.4841596417e+00	-1.1211606993e+00
 3.9596350428e-01	 1.4921048776e+00	-1.0434134142e+00
 3.6715363562e-01	 1.4994539907e+00	-9.6436390501e-01
 3.3836295354e-01	 1.5062119951e+00	-8.8254264287e-01
 3.0960813816e-01	 1.5123844959e+00	-7.9674287228e-01
 2.8090546214e-01	 1.5179776625e+00	-7.0602291931e-01
 5.7054679982e-01	 1.4411718666e+00	-1.5399210239e+00
 5.4187626569e-01	 1.4521949293e+00	-1.4449299639e+00
 5.1311730094e-01	 1.4626040597e+00	-1.3582202898e+00
 4.8428857336e-01	 1.4724009568e+00	-1.2770866863e+00
 4.5540850345e-01	 1.4815880315e+00	-1.1990438449e+00
 4.2649523300e-01	 1.4901683852e+00	-1.1218421340e+00
 3.9756659539e-01	 1.4981457881e+00	-1.0434805099e+00
 3.6864008759e-01	 1.5055246547e+00	-9.6221666208e-01
 3.3973284404e-01	 1.5123100194e+00	-8.7657441631e-01
 3.1086161241e-01	 1.5185075100e+00	-7.8534845026e-01
 2.8204273122e-01	 1.5241233211e+00	-6.8760640173e-01
 5.7284739175e-01	 1.4469830435e+00	-1.5212214095e+00
 5.4406125063e-01	 1.4580505540e+00	-1.4332439461e+00
 5.1518632232e-01	 1.4685016567e+00	-1.3521131829e+00
 4.8624134987e-01	 1.4783380575e+00	-1.2750748322e+00
 4.5724482806e-01	 1.4875621768e+00	-1.1996029566e+00
 4.2821497184e-01	 1.4961771287e+00	-1.1234157001e+00
 3.9916968650e-01	 1.5041866985e+00	-1.0444882041e+00
 3.7012653956e-01	 1.5115953186e+00	-9.6106270292e-01
 3.4110273454e-01	 1.5184080436e+00	-8.7165582503e-01
 3.1211508665e-01	 1.5246305242e+00	-7.7506315691e-01
 2.8318000030e-01	 1.5302689796e+00	-6.7036115276e-01
 5.7514798369e-01	 1.4527942204e+00	-1.5032363632e+00
 5.4624623558e-01	 1.4639061787e+00	-1.4222924190e+00
 5.1725534370e-01	 1.4743992537e+00	-1.3467676505e+00
 4.8819412637e-01	 1.4842751581e+00	-1.2738581418e+00
 4.5908115267e-01	 1.4935363221e+00	-1.2009966851e+00
 4.2993471069e-01	 1.5021858722e+00	-1.1258685773e+00
 4.0077277762e-01	 1.5102276089e+00	-1.0464245428e+00
 3.7161299152e-01	 1.5176659825e+00	-9.6089078263e-01
 3.4247262504e-01	 1.5245060679e+00	-8.6777617590e-01
 3.1336856090e-01	 1.5307535383e+00	-7.6587669360e-01
 2.8431726938e-01	 1.5364146382e+00	-6.5427711159e-01
 2.7294457860e-01	 1.4749580526e+00	-8.6859867437e-01
 2.4512139624e-01	 1.4798363089e+00	-9.1910985908e-01
 2.1737923352e-01	 1.4841651757e+00	-9.4567242634e-01
 1.8973260295e-01	 1.4879521294e+00	-9.4973311394e-01
 1.6219555322e-01	 1.4912050840e+00	-9.3297366052e-01
 1.3478165683e-01	 1.4939323629e+00	-8.9729649498e-01
 1.0750399959e-01	 1.4961426704e+00	-8.4480918578e-01
 8.0375171821e-02	 1.4978450627e+00	-7.7780784191e-01
 5.3407261319e-02	 1.4990489200e+00	-6.9875965720e-01
 2.6611847972e-02	 1.4997639179e+00	-6.1028478791e-01
 0.0000000000e+00	 1.5000000000e+00	-5.1513774913e-01
 2.7408184768e-01	 1.4811037112e+00	-8.4169372405e-01
 2.4614273539e-01	 1.4860022935e+00	-8.8954209730e-01
 2.1828498032e-01	 1.4903491973e+00	-9.1454614584e-01
 1.9052315546e-01	 1.4941519299e+00	-9.1813001659e-01
 1.6287136802e-01	 1.4974184385e+00	-9.0195249033e-01
 1.3534324706e-01	 1.5001570811e+00	-8.6789279706e-01
 1.0795193292e-01	 1.5023765982e+00	-8.1803517577e-01
 8.0710068368e-02	 1.5040860838e+00	-7.5465237089e-01
 5.3629791572e-02	 1.5052949571e+00	-6.8018825784e-01
 2.6722730671e-02	 1.5060129343e+00	-5.9723978841e-01
 0.0000000000e+00	 1.5062500000e+00	-5.0853844251e-01
 2.7521911675e-01	 1.4872493697e+00	-8.1603311184e-01
 2.4716407453e-01	 1.4921682781e+00	-8.6127089960e-01
 2.1919072712e-01	 1.4965332189e+00	-8.8474919212e-01
 1.9131370797e-01	 1.5003517305e+00	-8.8786959034e-01
 1.6354718282e-01	 1.5036317930e+00	-8.7226802787e-01
 1.3590483730e-01	 1.5063817993e+00	-8.3980070992e-01
 1.0839986625e-01	 1.5086105259e+00	-7.9252878068e-01
 8.1044964916e-02	 1.5103271049e+00	-7.3270191225e-01
 5.3852321827e-02	 1.5115409943e+00	-6.6274100817e-01
 2.6833613370e-02	 1.5122619506e+00	-5.8522021330e-01
 0.0000000000e+00	 1.5125000000e+00	-5.0284841734e-01
 2.7635638583e-01	 1.4933950283e+00	-7.9160610219e-01
 2.4818541368e-01	 1.4983342627e+00	-8.3428568852e-01
 2.2009647393e-01	 1.5027172404e+00	-8.5627125416e-01
 1.9210426048e-01	 1.5065515310e+00	-8.5894189542e-01
 1.6422299763e-01	 1.5098451475e+00	-8.4391080603e-01
 1.3646642753e-01	 1.5126065175e+00	-8.1301133694e-01
 1.0884779958e-01	 1.5148444537e+00	-7.6828176870e-01
 8.1379861464e-02	 1.5165681259e+00	-7.1194898974e-01
 5.4074852081e-02	 1.5177870315e+00	-6.4641127477e-01
 2.6944496070e-02	 1.5185109669e+00	-5.7422035571e-01
 0.0000000000e+00	 1.5187500000e+00	-4.9806297350e-01
 2.7749365491e-01	 1.4995406868e+00	-7.6840206198e-01
 2.4920675283e-01	 1.5045002474e+00	-8.0857599720e-01
 2.2100222073e-01	 1.5089012620e+00	-8.2910213719e-01
 1.9289481299e-01	 1.5127513316e+00	-8.3133711160e-01
 1.6489881243e-01	 1.5160585021e+00	-8.1687147800e-01
 1.3702801777e-01	 1.5188312356e+00	-7.8751590025e-01
 1.0929573291e-01	 1.5210783815e+00	-7.4528602285e-01
 8.1714758012e-02	 1.5228091470e+00	-6.9238623578e-01
 5.4297382336e-02	 1.5240330686e+00	-6.3119252448e-01
 2.7055378769e-02	 1.5247599832e+00	-5.6423459844e-01
 0.0000000000e+00	 1.5250000000e+00	-4.9417748791e-01
 2.7863092398e-01	 1.5056863454e+00	-7.4641045839e-01
 2.5022809198e-01	 1.5106662320e+00	-7.8413146716e-01
 2.2190796754e-01	 1.5150852836e+00	-8.0323176041e-01
 1.9368536550e-01	 1.5189511321e+00	-8.0504553570e-01
 1.6557462724e-01	 1.5222718566e+00	-7.9114081488e-01
 1.3758960801e-01	 1.5250559538e+00	-7.6330573831e-01
 1.0974366624e-01	 1.5273123093e+00	-7.2353353869e-01
 8.2049654561e-02	 1.5290501681e+00	-6.7400638928e-01
 5.4519912591e-02	 1.5302791058e+00	-6.1707832237e-01
 2.7166261469e-02	 1.5310089996e+00	-5.5525741221e-01
 0.0000000000e+00	 1.5312500000e+00	-4.9118741298e-01
 2.7976819306e-01	 1.5118320039e+00	-7.2562085691e-01
 2.5124943114e-01	 1.5168322166e+00	-7.6094184604e-01
 2.2281371435e-01	 1.5212693051e+00	-7.7865015459e-01
 1.9447591802e-01	 1.5251509326e+00	-7.8005757930e-01
 1.6625044204e-01	 1.5284852111e+00	-7.6670970324e-01
 1.3815119824e-01	 1.5312806720e+00	-7.4037230357e-01
 1.1019159957e-01	 1.5335462371e+00	-7.0301642198e-01
 8.2384551110e-02	 1.5352911892e+00	-6.5680229342e-01
 5.4742442847e-02	 1.5365251430e+00	-6.0406232976e-01
 2.7277144169e-02	 1.5372580159e+00	-5.4728335381e-01
 0.0000000000e+00	 1.5375000000e+00	-4.8908827506e-01
 2.8090546214e-01	 1.5179776625e+00	-7.0602291931e-01
 2.5227077029e-01	 1.5229982012e+00	-7.3899698548e-01
 2.2371946115e-01	 1.5274533267e+00	-7.5534745987e-01
 1.9526647053e-01	 1.5313507332e+00	-7.5636376633e-01
 1.6692625685e-01	 1.5346985656e+00	-7.4356914278e-01
 1.3871278848e-01	 1.5375053902e+00	-7.1870716013e-01
 1.1063953290e-01	 1.5397801649e+00	-6.8372688650e-01
 8.2719447660e-02	 1.5415322103e+00	-6.4076689357e-01
 5.4964973103e-02	 1.5427711801e+00	-5.9213830225e-01
 2.7388026869e-02	 1.5435070322e+00	-5.4030706441e-01
 0.0000000000e+00	 1.5437500000e+00	-4.8787567294e-01
 2.8204273122e-01	 1.5241233211e+00	-6.8760640173e-01
 2.5329210944e-01	 1.5291641859e+00	-7.1828683903e-01
 2.2462520796e-01	 1.5336373483e+00	-7.3331392356e-01
 1.9605702304e-01	 1.5375505337e+00	-7.3395473085e-01
 1.6760207165e-01	 1.5409119201e+00	-7.2171024409e-01
 1.3927437872e-01	 1.5437301084e+00	-6.9830198150e-01
 1.1108746624e-01	 1.5460140927e+00	-6.6565725184e-01
 8.3054344210e-02	 1.5477732314e+00	-6.2589323523e-01
 5.5187503359e-02	 1.5490172173e+00	-5.8130008782e-01
 2.7498909569e-02	 1.5497560485e+00	-5.3432326781e-01
 0.0000000000e+00	 1.5500000000e+00	-4.8754527642e-01
 2.8318000030e-01	 1.5302689796e+00	-6.7036115276e-01
 2.5431344859e-01	 1.5353301705e+00	-6.9880146010e-01
 2.2553095477e-01	 1.5398213698e+00	-7.1253989791e-01
 1.9684757556e-01	 1.5437503343e+00	-7.1282121483e-01
 1.6827788646e-01	 1.5471252746e+00	-7.0112422636e-01
 1.3983596896e-01	 1.5499548265e+00	-6.7914854842e-01
 1.1153539957e-01	 1.5522480205e+00	-6.4879994128e-01
 8.3389240761e-02	 1.5540142525e+00	-6.1217446202e-01
 5.5410033615e-02	 1.5552632545e+00	-5.7154162500e-01
 2.7609792269e-02	 1.5560050649e+00	-5.2932676882e-01
 0.0000000000e+00	 1.5562500000e+00	-4.8809282483e-01
 2.8431726938e-01	 1.5364146382e+00	-6.5427711159e-01
 2.5533478775e-01	 1.5414961551e+00	-6.8053099995e-01
 2.2643670158e-01	 1.5460053914e+00	-6.9301583811e-01
 1.9763812807e-01	 1.5499501348e+00	-6.9295406600e-01
 1.6895370127e-01	 1.5533386292e+00	-6.8180241528e-01
 1.4039755920e-01	 1.5561795447e+00	-6.6123874669e-01
 1.1198333291e-01	 1.5584819483e+00	-6.3314747971e-01
 8.3724137312e-02	 1.5602552736e+00	-5.9960381371e-01
 5.5632563872e-02	 1.5615092916e+00	-5.6285694100e-01
 2.7720674970e-02	 1.5622540812e+00	-5.2531245162e-01
 0.0000000000e+00	 1.5625000000e+00	-4.8951412568e-01
 1.5625000000e+00	 0.0000000000e+00	 3.5802465967e+00
 1.5622540812e+00	 2.7720674970e-02	 3.5912623609e+00
 1.5615092916e+00	 5.5632563872e-02	 3.5896791878e+00
 1.5602552736e+00	 8.3724137312e-02	 3.5735498061e+00
 1.5584819483e+00	 1.1198333291e-01	 3.5412619881e+00
 1.5561795447e+00	 1.4039755920e-01	 3.4915650363e+00
 1.5533386292e+00	 1.6895370127e-01	 3.4235946459e+00
 1.5499501348e+00	 1.9763812807e-01	 3.3368958082e+00
 1.5460053914e+00	 2.2643670158e-01	 3.2314434157e+00
 1.5414961551e+00	 2.5533478775e-01	 3.1076602337e+00
 1.5364146382e+00	 2.8431726938e-01	 2.9664319083e+00
 1.5687500000e+00	 0.0000000000e+00	 3.5762176856e+00
 1.5685030975e+00	 2.7831557671e-02	 3.5844861941e+00
 1.5677553288e+00	 5.5855094129e-02	 3.5805217552e+00
 1.5664962947e+00	 8.4059033864e-02	 3.5624022053e+00
 1.5647158761e+00	 1.1243126624e-01	 3.5285442714e+00
 1.5624042629e+00	 1.4095914944e-01	 3.4777301774e+00
 1.5595519837e+00	 1.6962951608e-01	 3.4091325985e+00
 1.5561499353e+00	 1.9842868059e-01	 3.3223376237e+00
 1.5521894130e+00	 2.2734244839e-01	 3.2173653864e+00
 1.5476621397e+00	 2.5635612690e-01	 3.0946880237e+00
 1.5425602967e+00	 2.8545453846e-01	 2.9552446309e+00
 1.5750000000e+00	 0.0000000000e+00	 3.5725725116e+00
 1.5747521138e+00	 2.7942440372e-02	 3.5782429640e+00
 1.5740013660e+00	 5.6077624386e-02	 3.5720273180e+00
 1.5727373158e+00	 8.4393930415e-02	 3.5520280158e+00
 1.5709498039e+00	 1.1287919957e-01	 3.5166903033e+00
 1.5686289811e+00	 1.4152073968e-01	 3.4648289596e+00
 1.5657653382e+00	 1.7030533088e-01	 3.3956533478e+00
 1.5623497359e+00	 1.9921923310e-01	 3.3087904413e+00
 1.5583734345e+00	 2.2824819520e-01	 3.2043054839e+00
 1.5538281243e+00	 2.5737746606e-01	 3.0827199395e+00
 1.5487059553e+00	 2.8659180754e-01	 2.9450263976e+00
 1.5812500000e+00	 0.0000000000e+00	 3.5693019903e+00
 1.5810011302e+00	 2.8053323072e-02	 3.5725221758e+00
 1.5802474031e+00	 5.6300154643e-02	 3.5641839819e+00
 1.5789783369e+00	 8.4728826966e-02	 3.5424139587e+00
 1.5771837317e+00	 1.1332713291e-01	 3.5056854374e+00
 1.5748536992e+00	 1.4208232992e-01	 3.4528453895e+00
 1.5719786927e+00	 1.7098114569e-01	 3.3831395775e+00
 1.5685495364e+00	 2.0000978562e-01	 3.2962356498e+00
 1.5645574561e+00	 2.2915394201e-01	 3.1922438334e+00
 1.5599941090e+00	 2.5839880521e-01	 3.0717348789e+00
 1.5548516138e+00	 2.8772907662e-01	 2.9357549186e+00
 1.5875000000e+00	 0.0000000000e+00	 3.5663971805e+00
 1.5872501465e+00	 2.8164205773e-02	 3.5673134955e+00
 1.5864934403e+00	 5.6522684900e-02	 3.5569800306e+00
 1.5852193580e+00	 8.5063723518e-02	 3.5335469479e+00
 1.5834176595e+00	 1.1377506624e-01	 3.4955152338e+00
 1.5810784174e+00	 1.4264392016e-01	 3.4417636925e+00
 1.5781920472e+00	 1.7165696050e-01	 3.3715742008e+00
 1.5747493369e+00	 2.0080033814e-01	 3.2846548759e+00
 1.5707414776e+00	 2.3005968882e-01	 3.1811608056e+00
 1.5661600936e+00	 2.5942014436e-01	 3.0617119903e+00
 1.5609972724e+00	 2.8886634570e-01	 2.9274081583e+00
 1.5937500000e+00	 0.0000000000e+00	 3.5638492810e+00
 1.5934991628e+00	 2.8275088474e-02	 3.5626067472e+00
 1.5927394775e+00	 5.6745215157e-02	 3.5504039222e+00
 1.5914603791e+00	 8.5398620069e-02	 3.5254140867e+00
 1.5896515873e+00	 1.1422299958e-01	 3.4861654554e+00
 1.5873031356e+00	 1.4320551040e-01	 3.4315683084e+00
 1.5844054017e+00	 1.7233277531e-01	 3.3609403553e+00
 1.5809491375e+00	 2.0159089065e-01	 3.2740299800e+00
 1.5769254992e+00	 2.3096543563e-01	 3.1710370113e+00
 1.5723260782e+00	 2.6044148352e-01	 3.0526306676e+00
 1.5671429309e+00	 2.9000361478e-01	 2.9199643305e+00
 1.6000000000e+00	 0.0000000000e+00	 3.5616496284e+00
 1.5997481791e+00	 2.8385971174e-02	 3.5583919098e+00
 1.5989855146e+00	 5.6967745414e-02	 3.5444442852e+00
 1.5977014002e+00	 8.5733516621e-02	 3.5180026635e+00
 1.5958855151e+00	 1.1467093291e-01	 3.4776220635e+00
 1.5935278538e+00	 1.4376710064e-01	 3.4222438873e+00
 1.5906187563e+00	 1.7300859012e-01	 3.3512213992e+00
 1.5871489380e+00	 2.0238144317e-01	 3.2643430510e+00
 1.5831095208e+00	 2.3187118244e-01	 3.1618532974e+00
 1.5784920628e+00	 2.6146282267e-01	 3.0444705458e+00
 1.5732885895e+00	 2.9114088386e-01	 2.9134018932e+00
 1.6062500000e+00	 0.0000000000e+00	 3.5597896938e+00
 1.6059971955e+00	 2.8496853875e-02	 3.5546591142e+00
 1.6052315518e+00	 5.7190275671e-02	 3.5390899160e+00
 1.6039424213e+00	 8.6068413172e-02	 3.5113001490e+00
 1.6021194428e+00	 1.1511886624e-01	 3.4698712140e+00
 1.5997525720e+00	 1.4432869088e-01	 3.4137752853e+00
 1.5968321108e+00	 1.7368440493e-01	 3.3424009067e+00
 1.5933487386e+00	 2.0317199568e-01	 3.2555764024e+00
 1.5892935423e+00	 2.3277692925e-01	 3.1535907415e+00
 1.5846580474e+00	 2.6248416183e-01	 3.0372114960e+00
 1.5794342480e+00	 2.9227815294e-01	 2.9076995441e+00
 1.6125000000e+00	 0.0000000000e+00	 3.5582610809e+00
 1.6122462118e+00	 2.8607736576e-02	 3.5513986400e+00
 1.6114775890e+00	 5.7412805929e-02	 3.5343297752e+00
 1.6101834424e+00	 8.6403309723e-02	 3.5052941918e+00
 1.6083533706e+00	 1.1556679958e-01	 3.4628992542e+00
 1.6059772901e+00	 1.4489028112e-01	 3.4061475610e+00
 1.6030454653e+00	 1.7436021973e-01	 3.3344626638e+00
 1.5995485391e+00	 2.0396254820e-01	 3.2477125679e+00
 1.5954775639e+00	 2.3368267606e-01	 3.1462306482e+00
 1.5908240321e+00	 2.6350550098e-01	 3.0308336212e+00
 1.5855799066e+00	 2.9341542202e-01	 2.9028362157e+00
 1.6187500000e+00	 0.0000000000e+00	 3.5570555228e+00
 1.6184952281e+00	 2.8718619276e-02	 3.5486009129e+00
 1.6177236261e+00	 5.7635336186e-02	 3.5301529845e+00
 1.6164244635e+00	 8.6738206275e-02	 3.4999726155e+00
 1.6145872984e+00	 1.1601473291e-01	 3.4566927182e+00
 1.6122020083e+00	 1.4545187135e-01	 3.3993459709e+00
 1.6092588198e+00	 1.7503603454e-01	 3.3273906645e+00
 1.6057483396e+00	 2.0475310071e-01	 3.2407342966e+00
 1.6016615855e+00	 2.3458842287e-01	 3.1397545442e+00
 1.5969900167e+00	 2.6452684013e-01	 3.0253172511e+00
 1.5917255651e+00	 2.9455269110e-01	 2.8987910712e+00
 1.6250000000e+00	 0.0000000000e+00	 3.5561648798e+00
 1.6247442444e+00	 2.8829501977e-02	 3.5462565019e+00
 1.6239696633e+00	 5.7857866443e-02	 3.5265488236e+00
 1.6226654846e+00	 8.7073102826e-02	 3.4953234154e+00
 1.6208212262e+00	 1.1646266625e-01	 3.4512383240e+00
 1.6184267265e+00	 1.4601346159e-01	 3.3933559661e+00
 1.6154721743e+00	 1.7571184935e-01	 3.3211691064e+00
 1.6119481402e+00	 2.0554365323e-01	 3.2346245497e+00
 1.6078456070e+00	 2.3549416968e-01	 3.1341441743e+00
 1.6031560013e+00	 2.6554817929e-01	 3.0206429386e+00
 1.5978712237e+00	 2.9568996018e-01	 2.8955434995e+00
 1.5364146382e+00	 2.8431726938e-01	 2.9664319083e+00
 1.5307535383e+00	 3.1336856090e-01	 2.9131039914e+00
 1.5245060679e+00	 3.4247262504e-01	 2.8314649823e+00
 1.5176659825e+00	 3.7161299152e-01	 2.7226751228e+00
 1.5102276089e+00	 4.0077277762e-01	 2.5883905642e+00
 1.5021858722e+00	 4.2993471069e-01	 2.4307639628e+00
 1.4935363221e+00	 4.5908115267e-01	 2.2524406726e+00
 1.4842751581e+00	 4.8819412637e-01	 2.0565503673e+00
 1.4743992537e+00	 5.1725534370e-01	 1.8466939611e+00
 1.4639061787e+00	 5.4624623558e-01	 1.6269257503e+00
 1.4527942204e+00	 5.7514798369e-01	 1.4017307466e+00
 1.5425602967e+00	 2.8545453846e-01	 2.9552446309e+00
 1.5368765525e+00	 3.1462203514e-01	 2.9007778405e+00
 1.5306040922e+00	 3.4384251554e-01	 2.8180777567e+00
 1.5237366465e+00	 3.7309944349e-01	 2.7083554755e+00
 1.5162685194e+00	 4.0237586873e-01	 2.5733236026e+00
 1.5081946157e+00	 4.3165444953e-01	 2.4151966941e+00
 1.4995104673e+00	 4.6091747728e-01	 2.2366872401e+00
 1.4902122588e+00	 4.9014690288e-01	 2.0409970161e+00
 1.4802968508e+00	 5.1932436507e-01	 1.8318036776e+00
 1.4697618034e+00	 5.4843122052e-01	 1.6132425144e+00
 1.4586053973e+00	 5.7744857563e-01	 1.3898833404e+00
 1.5487059553e+00	 2.8659180754e-01	 2.9450263976e+00
 1.5429995666e+00	 3.1587550939e-01	 2.8893558747e+00
 1.5367021165e+00	 3.4521240605e-01	 2.8055146178e+00
 1.5298073104e+00	 3.7458589546e-01	 2.6947650027e+00
 1.5223094298e+00	 4.0397895984e-01	 2.5588766010e+00
 1.5142033592e+00	 4.3337418838e-01	 2.4001264673e+00
 1.5054846126e+00	 4.6275380189e-01	 2.2212949106e+00
 1.4961493594e+00	 4.9209967939e-01	 2.0256565766e+00
 1.4861944478e+00	 5.2139338645e-01	 1.8169667114e+00
 1.4756174282e+00	 5.5061620547e-01	 1.5994425278e+00
 1.4644165742e+00	 5.7974916756e-01	 1.3777396470e+00
 1.5548516138e+00	 2.8772907662e-01	 2.9357549186e+00
 1.5491225808e+00	 3.1712898363e-01	 2.8788147661e+00
 1.5428001407e+00	 3.4658229655e-01	 2.7937511842e+00
 1.5358779743e+00	 3.7607234743e-01	 2.6818782575e+00
 1.5283503402e+00	 4.0558205095e-01	 2.5450230393e+00
 1.5202121026e+00	 4.3509392722e-01	 2.3855256850e+00
 1.5114587579e+00	 4.6459012651e-01	 2.2062350109e+00
 1.5020864600e+00	 4.9405245589e-01	 2.0104993051e+00
 1.4920920448e+00	 5.2346240782e-01	 1.8021522593e+00
 1.4814730529e+00	 5.5280119041e-01	 1.5854939438e+00
 1.4702277511e+00	 5.8204975950e-01	 1.3652667976e+00
 1.5609972724e+00	 2.8886634570e-01	 2.9274081583e+00
 1.5552455949e+00	 3.1838245788e-01	 2.8691314414e+00
 1.5488981650e+00	 3.4795218705e-01	 2.7827633280e+00
 1.5419486383e+00	 3.7755879940e-01	 2.6696700448e+00
 1.5343912507e+00	 4.0718514206e-01	 2.5317366467e+00
 1.5262208461e+00	 4.3681366607e-01	 2.3713669962e+00
 1.5174329032e+00	 4.6642645112e-01	 2.1914791097e+00
 1.5080235606e+00	 4.9600523240e-01	 1.9954956949e+00
 1.4979896418e+00	 5.2553142920e-01	 1.7873297492e+00
 1.4873286776e+00	 5.5498617535e-01	 1.5713651398e+00
 1.4760389279e+00	 5.8435035143e-01	 1.3524321396e+00
 1.5671429309e+00	 2.9000361478e-01	 2.9199643305e+00
 1.5613686091e+00	 3.1963593213e-01	 2.8602830762e+00
 1.5549961893e+00	 3.4932207755e-01	 2.7725271700e+00
 1.5480193022e+00	 3.7904525136e-01	 2.6581154168e+00
 1.5404321611e+00	 4.0878823318e-01	 2.5189913970e+00
 1.5322295896e+00	 4.3853340491e-01	 2.3576232912e+00
 1.5234070485e+00	 4.6826277573e-01	 2.1769990130e+00
 1.5139606613e+00	 4.9795800891e-01	 1.9806164717e+00
 1.5038872388e+00	 5.2760045057e-01	 1.7724688353e+00
 1.4931843023e+00	 5.5717116029e-01	 1.5570247127e+00
 1.4818501048e+00	 5.8665094337e-01	 1.3392032323e+00
 1.5732885895e+00	 2.9114088386e-01	 2.9134018932e+00
 1.5674916232e+00	 3.2088940637e-01	 2.8522470910e+00
 1.5610942136e+00	 3.5069196805e-01	 2.7630190747e+00
 1.5540899661e+00	 3.8053170333e-01	 2.6471896679e+00
 1.5464730715e+00	 4.1039132429e-01	 2.5067615041e+00
 1.5382383331e+00	 4.4025314375e-01	 2.3442676971e+00
 1.5293811938e+00	 4.7009910034e-01	 2.1627667594e+00
 1.5198977619e+00	 4.9991078541e-01	 1.9658325889e+00
 1.5097848358e+00	 5.2966947195e-01	 1.7575393937e+00
 1.4990399270e+00	 5.5935614524e-01	 1.5424414749e+00
 1.4876612817e+00	 5.8895153530e-01	 1.3255478431e+00
 1.5794342480e+00	 2.9227815294e-01	 2.9076995441e+00
 1.5736146374e+00	 3.2214288062e-01	 2.8450011457e+00
 1.5671922378e+00	 3.5206185856e-01	 2.7542156457e+00
 1.5601606301e+00	 3.8201815530e-01	 2.6368683300e+00
 1.5525139820e+00	 4.1199441540e-01	 2.4950214170e+00
 1.5442470766e+00	 4.4197288260e-01	 2.3312735731e+00
 1.5353553391e+00	 4.7193542495e-01	 2.1487546159e+00
 1.5258348625e+00	 5.0186356192e-01	 1.9511152233e+00
 1.5156824328e+00	 5.3173849332e-01	 1.7425115185e+00
 1.5048955517e+00	 5.6154113018e-01	 1.5275844499e+00
 1.4934724586e+00	 5.9125212724e-01	 1.3114339432e+00
 1.5855799066e+00	 2.9341542202e-01	 2.9028362157e+00
 1.5797376515e+00	 3.2339635486e-01	 2.8385231354e+00
 1.5732902621e+00	 3.5343174906e-01	 2.7460937209e+00
 1.5662312940e+00	 3.8350460727e-01	 2.6271271680e+00
 1.5585548924e+00	 4.1359750651e-01	 2.4837458154e+00
 1.5502558201e+00	 4.4369262144e-01	 2.3186145060e+00
 1.5413294844e+00	 4.7377174956e-01	 2.1349350728e+00
 1.5317719632e+00	 5.0381633842e-01	 1.9364357704e+00
 1.5215800299e+00	 5.3380751470e-01	 1.7273555168e+00
 1.5107511764e+00	 5.6372611512e-01	 1.5124228684e+00
 1.4992836355e+00	 5.9355271917e-01	 1.2968297033e+00
 1.5917255651e+00	 2.9455269110e-01	 2.8987910712e+00
 1.5858606657e+00	 3.2464982911e-01	 2.8327911858e+00
 1.5793882864e+00	 3.5480163956e-01	 2.7386303681e+00
 1.5723019579e+00	 3.8499105923e-01	 2.6179421750e+00
 1.5645958028e+00	 4.1520059762e-01	 2.4729096053e+00
 1.5562645636e+00	 4.4541236028e-01	 2.3062643057e+00
 1.5473036296e+00	 4.7560807417e-01	 2.1212808402e+00
 1.5377090638e+00	 5.0576911493e-01	 1.9217658408e+00
 1.5274776269e+00	 5.3587653607e-01	 1.7120419054e+00
 1.5166068012e+00	 5.6591110006e-01	 1.4969261641e+00
 1.5050948123e+00	 5.9585331110e-01	 1.2817034907e+00
 1.5978712237e+00	 2.9568996018e-01	 2.8955434995e+00
 1.5919836798e+00	 3.2590330336e-01	 2.8277836486e+00
 1.5854863106e+00	 3.5617153006e-01	 2.7318028807e+00
 1.5783726218e+00	 3.8647751120e-01	 2.6092895686e+00
 1.5706367133e+00	 4.1680368873e-01	 2.4624879146e+00
 1.5622733071e+00	 4.4713209913e-01	 2.2941970012e+00
 1.5532777749e+00	 4.7744439878e-01	 2.1077648431e+00
 1.5436461644e+00	 5.0772189143e-01	 1.9070772555e+00
 1.5333752239e+00	 5.3794555745e-01	 1.6965414062e+00
 1.5224624259e+00	 5.6809608500e-01	 1.4810639698e+00
 1.5109059892e+00	 5.9815390303e-01	 1.2660238645e+00
 1.4527942204e+00	 5.7514798369e-01	 1.4017307466e+00
 1.4410624031e+00	 6.0394155376e-01	 1.2534653537e+00
 1.4287105058e+00	 6.3260773043e-01	 1.1166772777e+00
 1.4157390779e+00	 6.6112715357e-01	 9.4743751298e-01
 1.4021494531e+00	 6.8948035586e-01	 7.8350068274e-01
 1.3879437607e+00	 7.1764780165e-01	 6.2806501130e-01
 1.3731249350e+00	 7.4560992674e-01	 4.8436918538e-01
 1.3576967225e+00	 7.7334717920e-01	 3.5569362037e-01
 1.3416636863e+00	 8.0084006078e-01	 2.4536093361e-01
 1.3250312077e+00	 8.2806916902e-01	 1.5673548583e-01
 1.3078054863e+00	 8.5501523966e-01	 9.3221859042e-02
 1.4586053973e+00	 5.7744857563e-01	 1.3898833404e+00
 1.4468266527e+00	 6.0635731998e-01	 1.2469084790e+00
 1.4344253478e+00	 6.3513816136e-01	 1.1088587704e+00
 1.4214020342e+00	 6.6377166218e-01	 9.3948834190e-01
 1.4077580509e+00	 6.9223827729e-01	 7.7665813297e-01
 1.3934955357e+00	 7.2051839286e-01	 6.2350590387e-01
 1.3786174347e+00	 7.4859236645e-01	 4.8320658977e-01
 1.3631275094e+00	 7.7644056792e-01	 3.5897395281e-01
 1.3470303410e+00	 8.0404342103e-01	 2.5406145669e-01
 1.3303313325e+00	 8.3138144570e-01	 1.7176222065e-01
 1.3130367082e+00	 8.5843530062e-01	 1.1540791756e-01
 1.4644165742e+00	 5.7974916756e-01	 1.3777396470e+00
 1.4525909023e+00	 6.0877308619e-01	 1.2397269294e+00
 1.4401401898e+00	 6.3766859228e-01	 1.0990646160e+00
 1.4270649906e+00	 6.6641617080e-01	 9.2937815478e-01
 1.4133666487e+00	 6.9499619871e-01	 7.6745906310e-01
 1.3990473107e+00	 7.2338898406e-01	 6.1638452884e-01
 1.3841099345e+00	 7.5157480616e-01	 4.7926567205e-01
 1.3685582963e+00	 7.7953395663e-01	 3.5924958603e-01
 1.3523969957e+00	 8.0724678127e-01	 2.5952061578e-01
 1.3356314573e+00	 8.3469372237e-01	 1.8330072703e-01
 1.3182679302e+00	 8.6185536157e-01	 1.3384882653e-01
 1.4702277511e+00	 5.8204975950e-01	 1.3652667976e+00
 1.4583551519e+00	 6.1118885241e-01	 1.2318885063e+00
 1.4458550319e+00	 6.4019902320e-01	 1.0873128366e+00
 1.4327279469e+00	 6.6906067941e-01	 9.1712844873e-01
 1.4189752465e+00	 6.9775412014e-01	 7.5592848972e-01
 1.4045990858e+00	 7.2625957527e-01	 6.0672945900e-01
 1.3896024342e+00	 7.5455724587e-01	 4.7257859036e-01
 1.3739890832e+00	 7.8262734535e-01	 3.5655628491e-01
 1.3577636505e+00	 8.1045014151e-01	 2.6177779612e-01
 1.3409315822e+00	 8.3800599905e-01	 1.9139401635e-01
 1.3234991521e+00	 8.6527542253e-01	 1.4859122150e-01
 1.4760389279e+00	 5.8435035143e-01	 1.3524321396e+00
 1.4641194015e+00	 6.1360461862e-01	 1.2233611928e+00
 1.4515698739e+00	 6.4272945412e-01	 1.0736215989e+00
 1.4383909032e+00	 6.7170518803e-01	 9.0276082784e-01
 1.4245838444e+00	 7.0051204156e-01	 7.4209149696e-01
 1.4101508608e+00	 7.2913016648e-01	 5.9456929390e-01
 1.3950949340e+00	 7.5753968557e-01	 4.6317748748e-01
 1.3794198701e+00	 7.8572073407e-01	 3.5092975562e-01
 1.3631303052e+00	 8.1365350175e-01	 2.6087227973e-01
 1.3462317070e+00	 8.4131827572e-01	 1.9608495116e-01
 1.3287303741e+00	 8.6869548349e-01	 1.5968154249e-01
 1.4818501048e+00	 5.8665094337e-01	 1.3392032323e+00
 1.4698836512e+00	 6.1602038484e-01	 1.2141131493e+00
 1.4572847159e+00	 6.4525988504e-01	 1.0580092118e+00
 1.4440538595e+00	 6.7434969664e-01	 8.8629700098e-01
 1.4301924422e+00	 7.0326996298e-01	 7.2597323515e-01
 1.4157026359e+00	 7.3200075768e-01	 5.7993265934e-01
 1.4005874337e+00	 7.6052212528e-01	 4.5109449119e-01
 1.3848506570e+00	 7.8881412278e-01	 3.4240564683e-01
 1.3684969600e+00	 8.1685686199e-01	 2.5684324741e-01
 1.3515318318e+00	 8.4463055240e-01	 1.9741624806e-01
 1.3339615960e+00	 8.7211554444e-01	 1.6716603782e-01
 1.4876612817e+00	 5.8895153530e-01	 1.3255478431e+00
 1.4756479008e+00	 6.1843615105e-01	 1.2041127109e+00
 1.4629995579e+00	 6.4779031597e-01	 1.0404941235e+00
 1.4497168158e+00	 6.7699420526e-01	 8.6775877984e-01
 1.4358010400e+00	 7.0602788440e-01	 7.0759891954e-01
 1.4212544109e+00	 7.3487134889e-01	 5.6284820683e-01
 1.4060799334e+00	 7.6350456498e-01	 4.3636171450e-01
 1.3902814439e+00	 7.9190751150e-01	 3.3101955078e-01
 1.3738636147e+00	 8.2006022224e-01	 2.4972978079e-01
 1.3568319567e+00	 8.4794282907e-01	 1.9543048054e-01
 1.3391928179e+00	 8.7553560540e-01	 1.7109076787e-01
 1.4934724586e+00	 5.9125212724e-01	 1.3114339432e+00
 1.4814121504e+00	 6.2085191727e-01	 1.1933283834e+00
 1.4687144000e+00	 6.5032074689e-01	 1.0210949185e+00
 1.4553797721e+00	 6.7963871387e-01	 8.4716807690e-01
 1.4414096378e+00	 7.0878580583e-01	 6.8699382906e-01
 1.4268061860e+00	 7.3774194009e-01	 5.4334461312e-01
 1.4115724332e+00	 7.6648700469e-01	 4.1901125601e-01
 1.3957122308e+00	 7.9500090021e-01	 3.1680700441e-01
 1.3792302695e+00	 8.2326358248e-01	 2.3957086416e-01
 1.3621320815e+00	 8.5125510575e-01	 1.9017008179e-01
 1.3444240399e+00	 8.7895566635e-01	 1.7150160868e-01
 1.4992836355e+00	 5.9355271917e-01	 1.2968297033e+00
 1.4871764000e+00	 6.2326768348e-01	 1.1817288404e+00
 1.4744292420e+00	 6.5285117780e-01	 9.9983031562e-01
 1.4610427284e+00	 6.8228322248e-01	 8.2454690345e-01
 1.4470182356e+00	 7.1154372725e-01	 6.6418330504e-01
 1.4323579610e+00	 7.4061253130e-01	 5.2145057971e-01
 1.4170649329e+00	 7.6946944439e-01	 3.9907520010e-01
 1.4011430177e+00	 7.9809428892e-01	 2.9980349041e-01
 1.3845969242e+00	 8.2646694272e-01	 2.2640538646e-01
 1.3674322063e+00	 8.5456738242e-01	 1.8167734743e-01
 1.3496552618e+00	 8.8237572731e-01	 1.6844425558e-01
 1.5050948123e+00	 5.9585331110e-01	 1.2817034907e+00
 1.4929406496e+00	 6.2568344969e-01	 1.1669557657e+00
 1.4801440840e+00	 6.5538160872e-01	 9.7671916464e-01
 1.4667056847e+00	 6.8492773109e-01	 7.9991736772e-01
 1.4526268334e+00	 7.1430164867e-01	 6.3919275005e-01
 1.4379097361e+00	 7.4348312250e-01	 4.9719483233e-01
 1.4225574327e+00	 7.7245188410e-01	 3.7658561729e-01
 1.4065738046e+00	 8.0118767764e-01	 2.8004443829e-01
 1.3899635790e+00	 8.2967030296e-01	 2.1027214303e-01
 1.3727323312e+00	 8.5787965909e-01	 1.6999443813e-01
 1.3548864838e+00	 8.8579578827e-01	 1.6196422667e-01
 1.5109059892e+00	 5.9815390303e-01	 1.2660238645e+00
 1.4987048992e+00	 6.2809921591e-01	 1.1448999870e+00
 1.4858589260e+00	 6.5791203964e-01	 9.5178044430e-01
 1.4723686411e+00	 6.8757223970e-01	 7.7330167301e-01
 1.4582354312e+00	 7.1705957009e-01	 6.1204762669e-01
 1.4434615111e+00	 7.4635371370e-01	 4.7060612052e-01
 1.4280499324e+00	 7.7543432380e-01	 3.5157456446e-01
 1.4120045915e+00	 8.0428106635e-01	 2.5756522540e-01
 1.3953302337e+00	 8.3287366320e-01	 1.9120983748e-01
 1.3780324560e+00	 8.6119193577e-01	 1.5516338221e-01
 1.3601177057e+00	 8.8921584922e-01	 1.5210686620e-01
 1.3078054863e+00	 8.5501523966e-01	 9.3221859042e-02
 1.2899935364e+00	 8.8165918928e-01	-3.3149495457e-01
 1.2716031813e+00	 9.0798215799e-01	-7.6890010014e-01
 1.2526430448e+00	 9.3396555193e-01	-1.2153777247e+00
 1.2331225400e+00	 9.5959108542e-01	-1.2646367957e+00
 1.2130518556e+00	 9.8484082249e-01	-1.2883827787e+00
 1.1924419392e+00	 1.0096972178e+00	-1.3489229492e+00
 1.1713044787e+00	 1.0341431565e+00	-1.4418321847e+00
 1.1496518808e+00	 1.0581619928e+00	-1.5626704321e+00
 1.1274972465e+00	 1.0817375880e+00	-1.7070135273e+00
 1.1048543456e+00	 1.1048543456e+00	-1.8704832561e+00
 1.3130367082e+00	 8.5843530062e-01	 1.1540791756e-01
 1.2951535105e+00	 8.8518582603e-01	-3.0202635158e-01
 1.2766895940e+00	 9.1161408661e-01	-7.3232579448e-01
 1.2576536170e+00	 9.3770141414e-01	-1.1718571922e+00
 1.2380550302e+00	 9.6342944975e-01	-1.3335537144e+00
 1.2179040630e+00	 9.8878018578e-01	-1.3446225920e+00
 1.1972117069e+00	 1.0137360067e+00	-1.3926152106e+00
 1.1759896967e+00	 1.0382797291e+00	-1.4730444711e+00
 1.1542504883e+00	 1.0623946408e+00	-1.5814091457e+00
 1.1320072354e+00	 1.0860645383e+00	-1.7132251242e+00
 1.1092737630e+00	 1.1092737630e+00	-1.8640558890e+00
 1.3182679302e+00	 8.6185536157e-01	 1.3384882653e-01
 1.3003134847e+00	 8.8871246278e-01	-2.7627745640e-01
 1.2817760068e+00	 9.1524601524e-01	-6.9944772146e-01
 1.2626641892e+00	 9.4143727634e-01	-1.1320115975e+00
 1.2429875204e+00	 9.6726781409e-01	-1.4047608230e+00
 1.2227562704e+00	 9.9271954906e-01	-1.4031726928e+00
 1.2019814747e+00	 1.0177747955e+00	-1.4386298146e+00
 1.1806749146e+00	 1.0424163017e+00	-1.5065826778e+00
 1.1588490958e+00	 1.0666272888e+00	-1.6024684814e+00
 1.1365172244e+00	 1.0903914887e+00	-1.7217428114e+00
 1.1136931804e+00	 1.1136931804e+00	-1.8599105315e+00
 1.3234991521e+00	 8.6527542253e-01	 1.4859122150e-01
 1.3054734588e+00	 8.9223909954e-01	-2.5420148413e-01
 1.2868624195e+00	 9.1887794387e-01	-6.7021905482e-01
 1.2676747614e+00	 9.4517313854e-01	-1.0957941825e+00
 1.2479200105e+00	 9.7110617843e-01	-1.4782679175e+00
 1.2276084779e+00	 9.9665891235e-01	-1.4640440053e+00
 1.2067512425e+00	 1.0218135844e+00	-1.4869788082e+00
 1.1853601325e+00	 1.0465528743e+00	-1.5424599649e+00
 1.1634477033e+00	 1.0708599367e+00	-1.6258626998e+00
 1.1410272134e+00	 1.0947184390e+00	-1.7325819335e+00
 1.1181125977e+00	 1.1181125977e+00	-1.8580635924e+00
 1.3287303741e+00	 8.6869548349e-01	 1.5968154249e-01
 1.3106334330e+00	 8.9576573629e-01	-2.3575183849e-01
 1.2919488322e+00	 9.2250987250e-01	-6.4459314942e-01
 1.2726853336e+00	 9.4890900075e-01	-1.0631583619e+00
 1.2528525007e+00	 9.7494454277e-01	-1.4875452210e+00
 1.2324606853e+00	 1.0005982756e+00	-1.5272476093e+00
 1.2115210102e+00	 1.0258523733e+00	-1.5376743839e+00
 1.1900453504e+00	 1.0506894470e+00	-1.5806896282e+00
 1.1680463108e+00	 1.0750925847e+00	-1.6516061865e+00
 1.1455372024e+00	 1.0990453894e+00	-1.7457579492e+00
 1.1225320151e+00	 1.1225320151e+00	-1.8585315829e+00
 1.3339615960e+00	 8.7211554444e-01	 1.6716603782e-01
 1.3157934071e+00	 8.9929237305e-01	-2.2088210806e-01
 1.2970352450e+00	 9.2614180113e-01	-6.2252353764e-01
 1.2776959057e+00	 9.5264486295e-01	-1.0340577199e+00
 1.2577849909e+00	 9.7878290711e-01	-1.4515611892e+00
 1.2373128927e+00	 1.0045376389e+00	-1.5927947365e+00
 1.2162907780e+00	 1.0298911621e+00	-1.5907288772e+00
 1.1947305683e+00	 1.0548260196e+00	-1.6212850965e+00
 1.1726449184e+00	 1.0793252327e+00	-1.6797134499e+00
 1.1500471914e+00	 1.1033723397e+00	-1.7612864287e+00
 1.1269514325e+00	 1.1269514325e+00	-1.8613311150e+00
 1.3391928179e+00	 8.7553560540e-01	 1.7109076787e-01
 1.3209533813e+00	 9.0281900980e-01	-2.0954606275e-01
 1.3021216577e+00	 9.2977372976e-01	-6.0396392595e-01
 1.2827064779e+00	 9.5638072516e-01	-1.0084460074e+00
 1.2627174810e+00	 9.8262127145e-01	-1.4190478108e+00
 1.2421651001e+00	 1.0084770022e+00	-1.6606967682e+00
 1.2210605457e+00	 1.0339299510e+00	-1.6461547635e+00
 1.1994157862e+00	 1.0589625922e+00	-1.6642599289e+00
 1.1772435259e+00	 1.0835578806e+00	-1.7101991184e+00
 1.1545571804e+00	 1.1076992901e+00	-1.7791830522e+00
 1.1313708499e+00	 1.1313708499e+00	-1.8664788991e+00
 1.3444240399e+00	 8.7895566635e-01	 1.7150160868e-01
 1.3261133554e+00	 9.0634564656e-01	-2.0169765019e-01
 1.3072080704e+00	 9.3340565839e-01	-5.8886819150e-01
 1.2877170501e+00	 9.6011658736e-01	-9.8627713802e-01
 1.2676499712e+00	 9.8645963579e-01	-1.3899591442e+00
 1.2470173076e+00	 1.0124163655e+00	-1.7309652321e+00
 1.2258303135e+00	 1.0379687399e+00	-1.7039646556e+00
 1.2041010042e+00	 1.0630991648e+00	-1.7096278122e+00
 1.1818421334e+00	 1.0877905286e+00	-1.7430779382e+00
 1.1590671694e+00	 1.1120262404e+00	-1.7994636070e+00
 1.1357902673e+00	 1.1357902673e+00	-1.8739917421e+00
 1.3496552618e+00	 8.8237572731e-01	 1.6844425558e-01
 1.3312733296e+00	 9.0987228331e-01	-1.9729099234e-01
 1.3122944831e+00	 9.3703758702e-01	-5.7719037881e-01
 1.2927276223e+00	 9.6385244957e-01	-9.6750518559e-01
 1.2725824613e+00	 9.9029800013e-01	-1.3642494000e+00
 1.2518695150e+00	 1.0163557288e+00	-1.7632063725e+00
 1.2306000813e+00	 1.0420075288e+00	-1.7641713012e+00
 1.2087862221e+00	 1.0672357375e+00	-1.7574025589e+00
 1.1864407409e+00	 1.0920231766e+00	-1.7783647712e+00
 1.1635771583e+00	 1.1163531908e+00	-1.8221439861e+00
 1.1402096847e+00	 1.1402096847e+00	-1.8838865461e+00
 1.3548864838e+00	 8.8579578827e-01	 1.6196422667e-01
 1.3364333037e+00	 9.1339892007e-01	-1.9628038211e-01
 1.3173808959e+00	 9.4066951565e-01	-5.6888469656e-01
 1.2977381945e+00	 9.6758831178e-01	-9.5208438066e-01
 1.2775149515e+00	 9.9413636447e-01	-1.3418729377e+00
 1.2567217224e+00	 1.0202950921e+00	-1.7340083162e+00
 1.2353698490e+00	 1.0460463176e+00	-1.8267875797e+00
 1.2134714400e+00	 1.0713723101e+00	-1.8075981040e+00
 1.1910393485e+00	 1.0962558246e+00	-1.8160745926e+00
 1.1680871473e+00	 1.1206801411e+00	-1.8472401855e+00
 1.1446291020e+00	 1.1446291020e+00	-1.8961803056e+00
 1.3601177057e+00	 8.8921584922e-01	 1.5210686620e-01
 1.3415932779e+00	 9.1692555682e-01	-1.9862028007e-01
 1.3224673086e+00	 9.4430144428e-01	-5.6390551442e-01
 1.3027487667e+00	 9.7132417399e-01	-9.3996910764e-01
 1.2824474417e+00	 9.9797472881e-01	-1.3227842631e+00
 1.2615739298e+00	 1.0242344554e+00	-1.7080836691e+00
 1.2401396168e+00	 1.0500851065e+00	-1.8918265005e+00
 1.2181566579e+00	 1.0755088827e+00	-1.8602285032e+00
 1.1956379560e+00	 1.1004884725e+00	-1.8562224886e+00
 1.1725971363e+00	 1.1250070915e+00	-1.8747683027e+00
 1.1490485194e+00	 1.1490485194e+00	-1.9108901067e+00
 1.1048543456e+00	 1.1048543456e+00	-1.8704832561e+00
 1.0817375880e+00	 1.1274972465e+00	-2.0621483231e+00
 1.0581619928e+00	 1.1496518808e+00	-2.1643479294e+00
 1.0341431565e+00	 1.1713044787e+00	-2.1737683637e+00
 1.0096972178e+00	 1.1924419392e+00	-2.0876145074e+00
 9.8484082249e-01	 1.2130518556e+00	-1.9036263523e+00
 9.5959108542e-01	 1.2331225400e+00	-1.6200914596e+00
 9.3396555193e-01	 1.2526430448e+00	-1.3524969239e+00
 9.0798215799e-01	 1.2716031813e+00	-1.7379012784e+00
 8.8165918928e-01	 1.2899935364e+00	-2.0562693224e+00
 8.5501523966e-01	 1.3078054863e+00	-2.3064345037e+00
 1.1092737630e+00	 1.1092737630e+00	-1.8640558890e+00
 1.0860645383e+00	 1.1320072354e+00	-2.0429148147e+00
 1.0623946408e+00	 1.1542504883e+00	-2.1306256890e+00
 1.0382797291e+00	 1.1759896967e+00	-2.1238127082e+00
 1.0137360067e+00	 1.1972117069e+00	-2.0196283899e+00
 9.8878018578e-01	 1.2179040630e+00	-1.8157703766e+00
 9.6342944975e-01	 1.2380550302e+00	-1.5104941129e+00
 9.3770141414e-01	 1.2576536170e+00	-1.4383711646e+00
 9.1161408661e-01	 1.2766895940e+00	-1.8049793490e+00
 8.8518582603e-01	 1.2951535105e+00	-2.1036257359e+00
 8.5843530062e-01	 1.3130367082e+00	-2.3331245830e+00
 1.1136931804e+00	 1.1136931804e+00	-1.8599105315e+00
 1.0903914887e+00	 1.1365172244e+00	-2.0258692607e+00
 1.0666272888e+00	 1.1588490958e+00	-2.0989988736e+00
 1.0424163017e+00	 1.1806749146e+00	-2.0758613838e+00
 1.0177747955e+00	 1.2019814747e+00	-1.9535568747e+00
 9.9271954906e-01	 1.2227562704e+00	-1.7297405910e+00
 9.6726781409e-01	 1.2429875204e+00	-1.4026358346e+00
 9.4143727634e-01	 1.2626641892e+00	-1.5232212082e+00
 9.1524601524e-01	 1.2817760068e+00	-1.8710081487e+00
 8.8871246278e-01	 1.3003134847e+00	-2.1499222355e+00
 8.6185536157e-01	 1.3182679302e+00	-2.3587582767e+00
 1.1181125977e+00	 1.1181125977e+00	-1.8580635924e+00
 1.0947184390e+00	 1.1410272134e+00	-2.0110298242e+00
 1.0708599367e+00	 1.1634477033e+00	-2.0694872371e+00
 1.0465528743e+00	 1.1853601325e+00	-2.0299355675e+00
 1.0218135844e+00	 1.2067512425e+00	-1.8894223910e+00
 9.9665891235e-01	 1.2276084779e+00	-1.6455605034e+00
 9.7110617843e-01	 1.2479200105e+00	-1.2965410351e+00
 9.4517313854e-01	 1.2676747614e+00	-1.6070364278e+00
 9.1887794387e-01	 1.2868624195e+00	-1.9359779947e+00
 8.9223909954e-01	 1.3054734588e+00	-2.1951499784e+00
 8.6527542253e-01	 1.3234991521e+00	-2.3833274762e+00
 1.1225320151e+00	 1.1225320151e+00	-1.8585315829e+00
 1.0990453894e+00	 1.1455372024e+00	-1.9984147477e+00
 1.0750925847e+00	 1.1680463108e+00	-2.0421105913e+00
 1.0506894470e+00	 1.1900453504e+00	-1.9860564748e+00
 1.0258523733e+00	 1.2115210102e+00	-1.8272473892e+00
 1.0005982756e+00	 1.2324606853e+00	-1.5632536269e+00
 9.7494454277e-01	 1.2528525007e+00	-1.3104943968e+00
 9.4890900075e-01	 1.2726853336e+00	-1.6898061758e+00
 9.2250987250e-01	 1.2919488322e+00	-1.9998791734e+00
 8.9576573629e-01	 1.3106334330e+00	-2.2393000830e+00
 8.6869548349e-01	 1.3287303741e+00	-2.4068240280e+00
 1.1269514325e+00	 1.1269514325e+00	-1.8613311150e+00
 1.1033723397e+00	 1.1500471914e+00	-1.9880423514e+00
 1.0793252327e+00	 1.1726449184e+00	-2.0168888052e+00
 1.0548260196e+00	 1.1947305683e+00	-1.9442453593e+00
 1.0298911621e+00	 1.2162907780e+00	-1.7670543401e+00
 1.0045376389e+00	 1.2373128927e+00	-1.4828434797e+00
 9.7878290711e-01	 1.2577849909e+00	-1.4102544639e+00
 9.5264486295e-01	 1.2776959057e+00	-1.7715197844e+00
 9.2614180113e-01	 1.2970352450e+00	-2.0627019410e+00
 8.9929237305e-01	 1.3157934071e+00	-2.2823636296e+00
 8.7211554444e-01	 1.3339615960e+00	-2.4292397347e+00
 1.1313708499e+00	 1.1313708499e+00	-1.8664788991e+00
 1.1076992901e+00	 1.1545571804e+00	-1.9799310321e+00
 1.0835578806e+00	 1.1772435259e+00	-1.9938418034e+00
 1.0589625922e+00	 1.1994157862e+00	-1.9045235116e+00
 1.0339299510e+00	 1.2210605457e+00	-1.7088657349e+00
 1.0084770022e+00	 1.2421651001e+00	-1.4043535849e+00
 9.8262127145e-01	 1.2627174810e+00	-1.5089833125e+00
 9.5638072516e-01	 1.2827064779e+00	-1.8521665657e+00
 9.2977372976e-01	 1.3021216577e+00	-2.1244365243e+00
 9.0281900980e-01	 1.3209533813e+00	-2.3243316613e+00
 8.7553560540e-01	 1.3391928179e+00	-2.4505663556e+00
 1.1357902673e+00	 1.1357902673e+00	-1.8739917421e+00
 1.1120262404e+00	 1.1590671694e+00	-1.9740992613e+00
 1.0877905286e+00	 1.1818421334e+00	-1.9729895654e+00
 1.0630991648e+00	 1.2041010042e+00	-1.8669122587e+00
 1.0379687399e+00	 1.2258303135e+00	-1.6527040840e+00
 1.0124163655e+00	 1.2470173076e+00	-1.3278074704e+00
 9.8645963579e-01	 1.2676499712e+00	-1.6066692358e+00
 9.6011658736e-01	 1.2877170501e+00	-1.9317358126e+00
 9.3340565839e-01	 1.3072080704e+00	-2.1850731211e+00
 9.0634564656e-01	 1.3261133554e+00	-2.3651951845e+00
 8.7895566635e-01	 1.3444240399e+00	-2.4707956076e+00
 1.1402096847e+00	 1.1402096847e+00	-1.8838865461e+00
 1.1163531908e+00	 1.1635771583e+00	-1.9705655842e+00
 1.0920231766e+00	 1.1864407409e+00	-1.9543521245e+00
 1.0672357375e+00	 1.2087862221e+00	-1.8314329632e+00
 1.0420075288e+00	 1.2306000813e+00	-1.5985919178e+00
 1.0163557288e+00	 1.2518695150e+00	-1.3255350057e+00
 9.9029800013e-01	 1.2725824613e+00	-1.7033005191e+00
 9.6385244957e-01	 1.2927276223e+00	-2.0102167985e+00
 9.3703758702e-01	 1.3122944831e+00	-2.2446019007e+00
 9.0987228331e-01	 1.3312733296e+00	-2.4049451700e+00
 8.8237572731e-01	 1.3496552618e+00	-2.4899191662e+00
 1.1446291020e+00	 1.1446291020e+00	-1.8961803056e+00
 1.1206801411e+00	 1.1680871473e+00	-1.9693486175e+00
 1.0962558246e+00	 1.1910393485e+00	-1.9379495665e+00
 1.0713723101e+00	 1.2134714400e+00	-1.7981070227e+00
 1.0460463176e+00	 1.2353698490e+00	-1.5465517851e+00
 1.0202950921e+00	 1.2567217224e+00	-1.4385232593e+00
 9.9413636447e-01	 1.2775149515e+00	-1.7988654397e+00
 9.6758831178e-01	 1.2977381945e+00	-2.0875987783e+00
 9.4066951565e-01	 1.3173808959e+00	-2.3030130047e+00
 9.1339892007e-01	 1.3364333037e+00	-2.4435725530e+00
 8.8579578827e-01	 1.3548864838e+00	-2.5079286662e+00
 1.1490485194e+00	 1.1490485194e+00	-1.9108901067e+00
 1.1250070915e+00	 1.1725971363e+00	-1.9704670492e+00
 1.1004884725e+00	 1.1956379560e+00	-1.9238020289e+00
 1.0755088827e+00	 1.2181566579e+00	-1.7669558692e+00
 1.0500851065e+00	 1.2401396168e+00	-1.4966062536e+00
 1.0242344554e+00	 1.2615739298e+00	-1.5504791715e+00
 9.9797472881e-01	 1.2824474417e+00	-1.8933522672e+00
 9.7132417399e-01	 1.3027487667e+00	-2.1638709884e+00
 9.4430144428e-01	 1.3224673086e+00	-2.3602965472e+00
 9.1692555682e-01	 1.3415932779e+00	-2.4810682345e+00
 8.8921584922e-01	 1.3601177057e+00	-2.5248157022e+00
 8.5501523966e-01	 1.3078054863e+00	-2.3064345037e+00
 8.2806916902e-01	 1.3250312077e+00	-2.2144856377e+00
 8.0084006078e-01	 1.3416636863e+00	-2.1128357156e+00
 7.7334717920e-01	 1.3576967225e+00	-2.0016491798e+00
 7.4560992674e-01	 1.3731249350e+00	-1.8810658750e+00
 7.1764780165e-01	 1.3879437607e+00	-1.7512088219e+00
 6.8948035586e-01	 1.4021494531e+00	-1.6121919854e+00
 6.6112715357e-01	 1.4157390779e+00	-1.4641279344e+00
 6.3260773043e-01	 1.4287105058e+00	-1.3071352946e+00
 6.0394155376e-01	 1.4410624031e+00	-1.3659288824e+00
 5.7514798369e-01	 1.4527942204e+00	-1.5032363632e+00
 8.5843530062e-01	 1.3130367082e+00	-2.3331245830e+00
 8.3138144570e-01	 1.3303313325e+00	-2.2259282387e+00
 8.0404342103e-01	 1.3470303410e+00	-2.1123956945e+00
 7.7644056792e-01	 1.3631275094e+00	-1.9926414917e+00
 7.4859236645e-01	 1.3786174347e+00	-1.8667437609e+00
 7.2051839286e-01	 1.3934955357e+00	-1.7347525586e+00
 6.9223827729e-01	 1.4077580509e+00	-1.5966982467e+00
 6.6377166218e-01	 1.4214020342e+00	-1.4525998038e+00
 6.3513816136e-01	 1.4344253478e+00	-1.3024729662e+00
 6.0635731998e-01	 1.4468266527e+00	-1.3434559315e+00
 5.7744857563e-01	 1.4586053973e+00	-1.4912739221e+00
 8.6185536157e-01	 1.3182679302e+00	-2.3587582767e+00
 8.3469372237e-01	 1.3356314573e+00	-2.2363363190e+00
 8.0724678127e-01	 1.3523969957e+00	-2.1109220317e+00
 7.7953395663e-01	 1.3685582963e+00	-1.9825799887e+00
 7.5157480616e-01	 1.3841099345e+00	-1.8513265894e+00
 7.2338898406e-01	 1.3990473107e+00	-1.7171389593e+00
 6.9499619871e-01	 1.4133666487e+00	-1.5799639394e+00
 6.6641617080e-01	 1.4270649906e+00	-1.4397270502e+00
 6.3766859228e-01	 1.4401401898e+00	-1.2963413193e+00
 6.0877308619e-01	 1.4525909023e+00	-1.3198246363e+00
 5.7974916756e-01	 1.4644165742e+00	-1.4780104553e+00
 8.6527542253e-01	 1.3234991521e+00	-2.3833274762e+00
 8.3800599905e-01	 1.3409315822e+00	-2.2457023442e+00
 8.1045014151e-01	 1.3577636505e+00	-2.1084080675e+00
 7.8262734535e-01	 1.3739890832e+00	-1.9714591816e+00
 7.5455724587e-01	 1.3896024342e+00	-1.8348103324e+00
 7.2625957527e-01	 1.4045990858e+00	-1.6983657413e+00
 6.9775412014e-01	 1.4189752465e+00	-1.5619888042e+00
 6.6906067941e-01	 1.4327279469e+00	-1.4255117081e+00
 6.4019902320e-01	 1.4458550319e+00	-1.2887449450e+00
 6.1118885241e-01	 1.4583551519e+00	-1.2950356625e+00
 5.8204975950e-01	 1.4702277511e+00	-1.4634502436e+00
 8.6869548349e-01	 1.3287303741e+00	-2.4068240280e+00
 8.4131827572e-01	 1.3462317070e+00	-2.2540187314e+00
 8.1365350175e-01	 1.3631303052e+00	-2.1048470858e+00
 7.8572073407e-01	 1.3794198701e+00	-1.9592735125e+00
 7.5753968557e-01	 1.3950949340e+00	-1.8171908767e+00
 7.2913016648e-01	 1.4101508608e+00	-1.6784305159e+00
 7.0051204156e-01	 1.4245838444e+00	-1.5427724508e+00
 6.7170518803e-01	 1.4383909032e+00	-1.4099556516e+00
 6.4272945412e-01	 1.4515698739e+00	-1.2796882402e+00
 6.1360461862e-01	 1.4641194015e+00	-1.2690894443e+00
 5.8435035143e-01	 1.4760389279e+00	-1.4475972948e+00
 8.7211554444e-01	 1.3339615960e+00	-2.4292397347e+00
 8.4463055240e-01	 1.3515318318e+00	-2.2612778505e+00
 8.1685686199e-01	 1.3684969600e+00	-2.1002323155e+00
 7.8881412278e-01	 1.3848506570e+00	-1.9460173567e+00
 7.6052212528e-01	 1.4005874337e+00	-1.7984640255e+00
 7.3200075768e-01	 1.4157026359e+00	-1.6573307906e+00
 7.0326996298e-01	 1.4301924422e+00	-1.5223143596e+00
 6.7434969664e-01	 1.4440538595e+00	-1.3930605970e+00
 6.4525988504e-01	 1.4572847159e+00	-1.2691754117e+00
 6.1602038484e-01	 1.4698836512e+00	-1.2419861885e+00
 5.8665094337e-01	 1.4818501048e+00	-1.4304553491e+00
 8.7553560540e-01	 1.3391928179e+00	-2.4505663556e+00
 8.4794282907e-01	 1.3568319567e+00	-2.2674720250e+00
 8.2006022224e-01	 1.3738636147e+00	-2.0945569318e+00
 7.9190751150e-01	 1.3902814439e+00	-1.9316850238e+00
 7.6350456498e-01	 1.4060799334e+00	-1.7786255004e+00
 7.3487134889e-01	 1.4212544109e+00	-1.6350639707e+00
 7.0602788440e-01	 1.4358010400e+00	-1.5006138854e+00
 6.7699420526e-01	 1.4497168158e+00	-1.3748281062e+00
 6.4779031597e-01	 1.4629995579e+00	-1.2572104792e+00
 6.1843615105e-01	 1.4756479008e+00	-1.2137258796e+00
 5.8895153530e-01	 1.4876612817e+00	-1.4120278845e+00
 8.7895566635e-01	 1.3444240399e+00	-2.4707956076e+00
 8.5125510575e-01	 1.3621320815e+00	-2.2725935329e+00
 8.2326358248e-01	 1.3792302695e+00	-2.0878140568e+00
 7.9500090021e-01	 1.3957122308e+00	-1.9162707586e+00
 7.6648700469e-01	 1.4115724332e+00	-1.7576709427e+00
 7.3774194009e-01	 1.4268061860e+00	-1.6116273616e+00
 7.0878580583e-01	 1.4414096378e+00	-1.4776702588e+00
 6.7963871387e-01	 1.4553797721e+00	-1.3552595895e+00
 6.5032074689e-01	 1.4687144000e+00	-1.2437972795e+00
 6.2085191727e-01	 1.4814121504e+00	-1.1843082834e+00
 5.9125212724e-01	 1.4934724586e+00	-1.3923181215e+00
 8.8237572731e-01	 1.3496552618e+00	-2.4899191662e+00
 8.5456738242e-01	 1.3674322063e+00	-2.2766346075e+00
 8.2646694272e-01	 1.3845969242e+00	-2.0799967609e+00
 7.9809428892e-01	 1.4011430177e+00	-1.8997687431e+00
 7.6946944439e-01	 1.4170649329e+00	-1.7355959152e+00
 7.4061253130e-01	 1.4323579610e+00	-1.5870181706e+00
 7.1154372725e-01	 1.4470182356e+00	-1.4534825890e+00
 6.8228322248e-01	 1.4610427284e+00	-1.3343563086e+00
 6.5285117780e-01	 1.4744292420e+00	-1.2289394700e+00
 6.2326768348e-01	 1.4871764000e+00	-1.1537329518e+00
 5.9355271917e-01	 1.4992836355e+00	-1.3713290287e+00
 8.8579578827e-01	 1.3548864838e+00	-2.5079286662e+00
 8.5787965909e-01	 1.3727323312e+00	-2.2795874385e+00
 8.2967030296e-01	 1.3899635790e+00	-2.0710980634e+00
 8.0118767764e-01	 1.4065738046e+00	-1.8821730970e+00
 7.7245188410e-01	 1.4225574327e+00	-1.7123959035e+00
 7.4348312250e-01	 1.4379097361e+00	-1.5612335088e+00
 7.1430164867e-01	 1.4526268334e+00	-1.4280498663e+00
 6.8492773109e-01	 1.4667056847e+00	-1.3121193797e+00
 6.5538160872e-01	 1.4801440840e+00	-1.2126405320e+00
 6.2568344969e-01	 1.4929406496e+00	-1.1287494748e+00
 5.9585331110e-01	 1.5050948123e+00	-1.3490633268e+00
 8.8921584922e-01	 1.3601177057e+00	-2.5248157022e+00
 8.6119193577e-01	 1.3780324560e+00	-2.2814441726e+00
 8.3287366320e-01	 1.3953302337e+00	-2.0611109340e+00
 8.0428106635e-01	 1.4120045915e+00	-1.8634778793e+00
 7.7543432380e-01	 1.4280499324e+00	-1.6880663175e+00
 7.4635371370e-01	 1.4434615111e+00	-1.5342703932e+00
 7.1705957009e-01	 1.4582354312e+00	-1.4013709643e+00
 6.8757223970e-01	 1.4723686411e+00	-1.2885497759e+00
 6.5791203964e-01	 1.4858589260e+00	-1.1949037739e+00
 6.2809921591e-01	 1.4987048992e+00	-1.1194594072e+00
 5.9815390303e-01	 1.5109059892e+00	-1.3255234943e+00
 5.7514798369e-01	 1.4527942204e+00	-1.5032363632e+00
 5.4624623558e-01	 1.4639061787e+00	-1.4222924190e+00
 5.1725534370e-01	 1.4743992537e+00	-1.3467676505e+00
 4.8819412637e-01	 1.4842751581e+00	-1.2738581418e+00
 4.5908115267e-01	 1.4935363221e+00	-1.2009966851e+00
 4.2993471069e-01	 1.5021858722e+00	-1.1258685773e+00
 4.0077277762e-01	 1.5102276089e+00	-1.0464245428e+00
 3.7161299152e-01	 1.5176659825e+00	-9.6089078263e-01
 3.4247262504e-01	 1.5245060679e+00	-8.6777617590e-01
 3.1336856090e-01	 1.5307535383e+00	-7.6587669360e-01
 2.8431726938e-01	 1.5364146382e+00	-6.5427711159e-01
 5.7744857563e-01	 1.4586053973e+00	-1.4912739221e+00
 5.4843122052e-01	 1.4697618034e+00	-1.4141990646e+00
 5.1932436507e-01	 1.4802968508e+00	-1.3412571546e+00
 4.9014690288e-01	 1.4902122588e+00	-1.2696971070e+00
 4.6091747728e-01	 1.4995104673e+00	-1.1970090817e+00
 4.3165444953e-01	 1.5081946157e+00	-1.1209400712e+00
 4.0237586873e-01	 1.5162685194e+00	-1.0395065895e+00
 3.7309944349e-01	 1.5237366465e+00	-9.5100446065e-01
 3.4384251554e-01	 1.5306040922e+00	-8.5401573787e-01
 3.1462203514e-01	 1.5368765525e+00	-7.4741281499e-01
 2.8545453846e-01	 1.5425602967e+00	-6.3035981938e-01
 5.7974916756e-01	 1.4644165742e+00	-1.4780104553e+00
 5.5061620547e-01	 1.4756174282e+00	-1.4051832964e+00
 5.2139338645e-01	 1.4861944478e+00	-1.3352059654e+00
 4.9209967939e-01	 1.4961493594e+00	-1.2653789733e+00
 4.6275380189e-01	 1.5054846126e+00	-1.1932486509e+00
 4.3337418838e-01	 1.5142033592e+00	-1.1166225331e+00
 4.0397895984e-01	 1.5223094298e+00	-1.0335818162e+00
 3.7458589546e-01	 1.5298073104e+00	-9.4249089045e-01
 3.4521240605e-01	 1.5367021165e+00	-8.4200397965e-01
 3.1587550939e-01	 1.5429995666e+00	-7.3106895275e-01
 2.8659180754e-01	 1.5487059553e+00	-6.0892839887e-01
 5.8204975950e-01	 1.4702277511e+00	-1.4634502436e+00
 5.5280119041e-01	 1.4814730529e+00	-1.3952467796e+00
 5.2346240782e-01	 1.4920920448e+00	-1.3286130348e+00
 4.9405245589e-01	 1.5020864600e+00	-1.2608998856e+00
 4.6459012651e-01	 1.5114587579e+00	-1.1897086419e+00
 4.3509392722e-01	 1.5202121026e+00	-1.1129062312e+00
 4.0558205095e-01	 1.5283503402e+00	-1.0286374300e+00
 3.7607234743e-01	 1.5358779743e+00	-9.3533414256e-01
 3.4658229655e-01	 1.5428001407e+00	-8.3172176459e-01
 3.1712898363e-01	 1.5491225808e+00	-7.1682269746e-01
 2.8772907662e-01	 1.5548516138e+00	-5.8995710752e-01
 5.8435035143e-01	 1.4760389279e+00	-1.4475972948e+00
 5.5498617535e-01	 1.4873286776e+00	-1.3843909630e+00
 5.2553142920e-01	 1.4979896418e+00	-1.3214771561e+00
 4.9600523240e-01	 1.5080235606e+00	-1.2562558897e+00
 4.6642645112e-01	 1.5174329032e+00	-1.1863822642e+00
 4.3681366607e-01	 1.5262208461e+00	-1.1097814552e+00
 4.0718514206e-01	 1.5343912507e+00	-1.0246607211e+00
 3.7755879940e-01	 1.5419486383e+00	-9.2951843271e-01
 3.4795218705e-01	 1.5488981650e+00	-8.2315016396e-01
 3.1838245788e-01	 1.5552455949e+00	-7.0465191088e-01
 2.8886634570e-01	 1.5609972724e+00	-5.7342053747e-01
 5.8665094337e-01	 1.4818501048e+00	-1.4304553491e+00
 5.5717116029e-01	 1.4931843023e+00	-1.3726170831e+00
 5.2760045057e-01	 1.5038872388e+00	-1.3137969674e+00
 4.9795800891e-01	 1.5139606613e+00	-1.2514429335e+00
 4.6826277573e-01	 1.5234070485e+00	-1.1832626886e+00
 4.3853340491e-01	 1.5322295896e+00	-1.1072385154e+00
 4.0878823318e-01	 1.5404321611e+00	-1.0216390606e+00
 3.7904525136e-01	 1.5480193022e+00	-9.2502811893e-01
 3.4932207755e-01	 1.5549961893e+00	-8.1627045299e-01
 3.1963593213e-01	 1.5613686091e+00	-6.9453472064e-01
 2.9000361478e-01	 1.5671429309e+00	-5.5929360902e-01
 5.8895153530e-01	 1.4876612817e+00	-1.4120278845e+00
 5.5935614524e-01	 1.4990399270e+00	-1.3599261686e+00
 5.2966947195e-01	 1.5097848358e+00	-1.3055709542e+00
 4.9991078541e-01	 1.5198977619e+00	-1.2464568694e+00
 4.7009910034e-01	 1.5293811938e+00	-1.1803430479e+00
 4.4025314375e-01	 1.5382383331e+00	-1.1052677429e+00
 4.1039132429e-01	 1.5464730715e+00	-1.0195598998e+00
 3.8053170333e-01	 1.5540899661e+00	-9.2184769882e-01
 3.5069196805e-01	 1.5610942136e+00	-8.1106410676e-01
 3.2088940637e-01	 1.5674916232e+00	-6.8644951506e-01
 2.9114088386e-01	 1.5732885895e+00	-5.4755156423e-01
 5.9125212724e-01	 1.4934724586e+00	-1.3923181215e+00
 5.6154113018e-01	 1.5048955517e+00	-1.3463190444e+00
 5.3173849332e-01	 1.5156824328e+00	-1.2967974528e+00
 5.0186356192e-01	 1.5258348625e+00	-1.2412934559e+00
 4.7193542495e-01	 1.5353553391e+00	-1.1776164376e+00
 4.4197288260e-01	 1.5442470766e+00	-1.1038594885e+00
 4.1199441540e-01	 1.5525139820e+00	-1.0184107679e+00
 3.8201815530e-01	 1.5601606301e+00	-9.1996180681e-01
 3.5206185856e-01	 1.5671922378e+00	-8.0751279643e-01
 3.2214288062e-01	 1.5736146374e+00	-6.8037493807e-01
 2.9227815294e-01	 1.5794342480e+00	-5.3816996061e-01
 5.9355271917e-01	 1.4992836355e+00	-1.3713290287e+00
 5.6372611512e-01	 1.5107511764e+00	-1.3317963353e+00
 5.3380751470e-01	 1.5215800299e+00	-1.2874746530e+00
 5.0381633842e-01	 1.5317719632e+00	-1.2359483598e+00
 4.7377174956e-01	 1.5413294844e+00	-1.1750759167e+00
 4.4369262144e-01	 1.5502558201e+00	-1.1030041230e+00
 4.1359750651e-01	 1.5585548924e+00	-1.0181792705e+00
 3.8350460727e-01	 1.5662312940e+00	-9.1935521153e-01
 3.5343174906e-01	 1.5732902621e+00	-8.0559838535e-01
 3.2339635486e-01	 1.5797376515e+00	-6.7628988425e-01
 2.9341542202e-01	 1.5855799066e+00	-5.3112466507e-01
 5.9585331110e-01	 1.5050948123e+00	-1.3490633268e+00
 5.6591110006e-01	 1.5166068012e+00	-1.3163584700e+00
 5.3587653607e-01	 1.5274776269e+00	-1.2776006008e+00
 5.0576911493e-01	 1.5377090638e+00	-1.2304171572e+00
 4.7560807417e-01	 1.5473036296e+00	-1.1727145082e+00
 4.4541236028e-01	 1.5562645636e+00	-1.1026920364e+00
 4.1520059762e-01	 1.5645958028e+00	-1.0188530889e+00
 3.8499105923e-01	 1.5723019579e+00	-9.2001281317e-01
 3.5480163956e-01	 1.5793882864e+00	-8.0530292542e-01
 3.2464982911e-01	 1.5858606657e+00	-6.7417349401e-01
 2.9455269110e-01	 1.5917255651e+00	-5.2639184788e-01
 5.9815390303e-01	 1.5109059892e+00	-1.3255234943e+00
 5.6809608500e-01	 1.5224624259e+00	-1.3000056850e+00
 5.3794555745e-01	 1.5333752239e+00	-1.2671732016e+00
 5.0772189143e-01	 1.5436461644e+00	-1.2246953362e+00
 4.7744439878e-01	 1.5532777749e+00	-1.1705252001e+00
 4.4713209913e-01	 1.5622733071e+00	-1.1029136375e+00
 4.1680368873e-01	 1.5706367133e+00	-1.0204199776e+00
 3.8647751120e-01	 1.5783726218e+00	-9.2191964103e-01
 3.5617153006e-01	 1.5854863106e+00	-8.0660865340e-01
 3.2590330336e-01	 1.5919836798e+00	-6.7400514883e-01
 2.9568996018e-01	 1.5978712237e+00	-5.2394797691e-01
 2.8431726938e-01	 1.5364146382e+00	-6.5427711159e-01
 2.5533478775e-01	 1.5414961551e+00	-6.8053099995e-01
 2.2643670158e-01	 1.5460053914e+00	-6.9301583811e-01
 1.9763812807e-01	 1.5499501348e+00	-6.9295406600e-01
 1.6895370127e-01	 1.5533386292e+00	-6.8180241528e-01
 1.4039755920e-01	 1.5561795447e+00	-6.6123874669e-01
 1.1198333291e-01	 1.5584819483e+00	-6.3314747971e-01
 8.3724137312e-02	 1.5602552736e+00	-5.9960381371e-01
 5.5632563872e-02	 1.5615092916e+00	-5.6285694100e-01
 2.7720674970e-02	 1.5622540812e+00	-5.2531245162e-01
 0.0000000000e+00	 1.5625000000e+00	-4.8951412568e-01
 2.8545453846e-01	 1.5425602967e+00	-6.3035981938e-01
 2.5635612690e-01	 1.5476621397e+00	-6.5601806937e-01
 2.2734244839e-01	 1.5521894130e+00	-6.6877693270e-01
 1.9842868059e-01	 1.5561499353e+00	-6.6976560244e-01
 1.6962951608e-01	 1.5595519837e+00	-6.6035095368e-01
 1.4095914944e-01	 1.5624042629e+00	-6.4212460783e-01
 1.1243126624e-01	 1.5647158761e+00	-6.1688855019e-01
 8.4059033864e-02	 1.5664962947e+00	-5.8663950117e-01
 5.5855094129e-02	 1.5677553288e+00	-5.5355224341e-01
 2.7831557671e-02	 1.5685030975e+00	-5.1996210627e-01
 0.0000000000e+00	 1.5687500000e+00	-4.8834680586e-01
 2.8659180754e-01	 1.5487059553e+00	-6.0892839887e-01
 2.5737746606e-01	 1.5538281243e+00	-6.3377281212e-01
 2.2824819520e-01	 1.5583734345e+00	-6.4657171205e-01
 1.9921923310e-01	 1.5623497359e+00	-6.4836144394e-01
 1.7030533088e-01	 1.5657653382e+00	-6.4041947311e-01
 1.4152073968e-01	 1.5686289811e+00	-6.2425167343e-01
 1.1287919957e-01	 1.5709498039e+00	-6.0157812951e-01
 8.4393930415e-02	 1.5727373158e+00	-5.7431765489e-01
 5.6077624386e-02	 1.5740013660e+00	-5.4457122978e-01
 2.7942440372e-02	 1.5747521138e+00	-5.1460456191e-01
 0.0000000000e+00	 1.5750000000e+00	-4.8682997068e-01
 2.8772907662e-01	 1.5548516138e+00	-5.8995710752e-01
 2.5839880521e-01	 1.5599941090e+00	-6.1377294810e-01
 2.2915394201e-01	 1.5645574561e+00	-6.2638141202e-01
 2.0000978562e-01	 1.5685495364e+00	-6.2872638806e-01
 1.7098114569e-01	 1.5719786927e+00	-6.2199637119e-01
 1.4208232992e-01	 1.5748536992e+00	-6.0761197212e-01
 1.1332713291e-01	 1.5771837317e+00	-5.8721190133e-01
 8.4728826966e-02	 1.5789783369e+00	-5.6263763074e-01
 5.6300154643e-02	 1.5802474031e+00	-5.3591693890e-01
 2.8053323072e-02	 1.5810011302e+00	-5.0924654472e-01
 0.0000000000e+00	 1.5812500000e+00	-4.8497403224e-01
 2.8886634570e-01	 1.5609972724e+00	-5.7342053747e-01
 2.5942014436e-01	 1.5661600936e+00	-5.9599648775e-01
 2.3005968882e-01	 1.5707414776e+00	-6.0818751328e-01
 2.0080033814e-01	 1.5747493369e+00	-6.1084543011e-01
 1.7165696050e-01	 1.5781920472e+00	-6.0507019475e-01
 1.4264392016e-01	 1.5810784174e+00	-5.9219763208e-01
 1.1377506624e-01	 1.5834176595e+00	-5.7378559797e-01
 8.5063723518e-02	 1.5852193580e+00	-5.5159878139e-01
 5.6522684900e-02	 1.5864934403e+00	-5.2759235357e-01
 2.8164205773e-02	 1.5872501465e+00	-5.0389467127e-01
 0.0000000000e+00	 1.5875000000e+00	-4.8278923865e-01
 2.9000361478e-01	 1.5671429309e+00	-5.5929360902e-01
 2.6044148352e-01	 1.5723260782e+00	-5.8042172634e-01
 2.3096543563e-01	 1.5769254992e+00	-5.9197173657e-01
 2.0159089065e-01	 1.5809491375e+00	-5.9470375920e-01
 1.7233277531e-01	 1.5844054017e+00	-5.8962963692e-01
 1.4320551040e-01	 1.5873031356e+00	-5.7800087902e-01
 1.1422299958e-01	 1.5896515873e+00	-5.6129499948e-01
 8.5398620069e-02	 1.5914603791e+00	-5.4120045639e-01
 5.6745215157e-02	 1.5927394775e+00	-5.1960040171e-01
 2.8275088474e-02	 1.5934991628e+00	-4.9855545066e-01
 0.0000000000e+00	 1.5937500000e+00	-4.8028567729e-01
 2.9114088386e-01	 1.5732885895e+00	-5.4755156423e-01
 2.6146282267e-01	 1.5784920628e+00	-5.6702723846e-01
 2.3187118244e-01	 1.5831095208e+00	-5.7771603797e-01
 2.0238144317e-01	 1.5871489380e+00	-5.8028675445e-01
 1.7300859012e-01	 1.5906187563e+00	-5.7566353426e-01
 1.4376710064e-01	 1.5935278538e+00	-5.6501403430e-01
 1.1467093291e-01	 1.5958855151e+00	-5.4973593271e-01
 8.5733516621e-02	 1.5977014002e+00	-5.3144200223e-01
 5.6967745414e-02	 1.5989855146e+00	-5.1194395741e-01
 2.8385971174e-02	 1.5997481791e+00	-4.9323528663e-01
 0.0000000000e+00	 1.6000000000e+00	-4.7747327792e-01
 2.9227815294e-01	 1.5794342480e+00	-5.3816996061e-01
 2.6248416183e-01	 1.5846580474e+00	-5.5579187253e-01
 2.3277692925e-01	 1.5892935423e+00	-5.6540260432e-01
 2.0317199568e-01	 1.5933487386e+00	-5.6757998137e-01
 1.7368440493e-01	 1.5968321108e+00	-5.6316086399e-01
 1.4432869088e-01	 1.5997525720e+00	-5.5322951311e-01
 1.1511886624e-01	 1.6021194428e+00	-5.3910427036e-01
 8.6068413172e-02	 1.6039424213e+00	-5.2232276238e-01
 5.7190275672e-02	 1.6052315518e+00	-5.0462584199e-01
 2.8496853875e-02	 1.6059971955e+00	-4.8794047960e-01
 0.0000000000e+00	 1.6062500000e+00	-4.7436181574e-01
 2.9341542202e-01	 1.5855799066e+00	-5.3112466507e-01
 2.6350550098e-01	 1.5908240321e+00	-5.4669474552e-01
 2.3368267606e-01	 1.5954775639e+00	-5.5501384878e-01
 2.0396254820e-01	 1.5995485391e+00	-5.5656918815e-01
 1.7436021973e-01	 1.6030454653e+00	-5.5211074126e-01
 1.4489028112e-01	 1.6059772901e+00	-5.4263982259e-01
 1.1556679958e-01	 1.6083533706e+00	-5.2939593014e-01
 8.6403309723e-02	 1.6101834424e+00	-5.1384207734e-01
 5.7412805929e-02	 1.6114775890e+00	-4.9764882502e-01
 2.8607736576e-02	 1.6122462118e+00	-4.8267722869e-01
 0.0000000000e+00	 1.6125000000e+00	-4.7096091441e-01
 2.9455269110e-01	 1.5917255651e+00	-5.2639184788e-01
 2.6452684013e-01	 1.5969900167e+00	-5.3971523775e-01
 2.3458842287e-01	 1.6016615855e+00	-5.4653240643e-01
 2.0475310071e-01	 1.6057483396e+00	-5.4724030221e-01
 1.7503603454e-01	 1.6092588198e+00	-5.4250241644e-01
 1.4545187135e-01	 1.6122020083e+00	-5.3323756009e-01
 1.1601473291e-01	 1.6145872984e+00	-5.2060687388e-01
 8.6738206275e-02	 1.6164244635e+00	-5.0599928475e-01
 5.7635336186e-02	 1.6177236261e+00	-4.9101562531e-01
 2.8718619276e-02	 1.6184952281e+00	-4.7745163363e-01
 0.0000000000e+00	 1.6187500000e+00	-4.6728004894e-01
 2.9568996018e-01	 1.5978712237e+00	-5.2394797691e-01
 2.6554817929e-01	 1.6031560013e+00	-5.3483298786e-01
 2.3549416968e-01	 1.6078456070e+00	-5.3994113001e-01
 2.0554365323e-01	 1.6119481402e+00	-5.3957942672e-01
 1.7571184935e-01	 1.6154721743e+00	-5.3432527261e-01
 1.4601346159e-01	 1.6184267265e+00	-5.2501541142e-01
 1.1646266625e-01	 1.6208212262e+00	-5.1273310667e-01
 8.7073102826e-02	 1.6226654846e+00	-4.9879371940e-01
 5.7857866443e-02	 1.6239696633e+00	-4.8472891193e-01
 2.8829501977e-02	 1.6247442444e+00	-4.7226969674e-01
 0.0000000000e+00	 1.6250000000e+00	-4.6332854860e-01
 1.6250000000e+00	 0.0000000000e+00	 3.5561648798e+00
 1.6247442444e+00	 2.8829501977e-02	 3.5462565019e+00
 1.6239696633e+00	 5.7857866443e-02	 3.5265488236e+00
 1.6226654846e+00	 8.7073102826e-02	 3.4953234154e+00
 1.6208212262e+00	 1.1646266625e-01	 3.4512383240e+00
 1.6184267265e+00	 1.4601346159e-01	 3.3933559661e+00
 1.6154721743e+00	 1.7571184935e-01	 3.3211691064e+00
 1.6119481402e+00	 2.0554365323e-01	 3.2346245497e+00
 1.6078456070e+00	 2.3549416968e-01	 3.1341441743e+00
 1.6031560013e+00	 2.6554817929e-01	 3.0206429386e+00
 1.5978712237e+00	 2.9568996018e-01	 2.8955434995e+00
 1.6312500000e+00	 0.0000000000e+00	 3.5504063382e+00
 1.6309932608e+00	 2.8940384678e-02	 3.5394245476e+00
 1.6302157005e+00	 5.8080396699e-02	 3.5186438825e+00
 1.6289065056e+00	 8.7407999377e-02	 3.4863558798e+00
 1.6270551540e+00	 1.1691059958e-01	 3.4412332645e+00
 1.6246514447e+00	 1.4657505183e-01	 3.3823580579e+00
 1.6216855288e+00	 1.7638766416e-01	 3.3092477418e+00
 1.6181479407e+00	 2.0633420574e-01	 3.2218791035e+00
 1.6140296286e+00	 2.3639991649e-01	 3.1207093853e+00
 1.6093219859e+00	 2.6656951844e-01	 3.0066943664e+00
 1.6040168822e+00	 2.9682722926e-01	 2.8813030130e+00
 1.6375000000e+00	 0.0000000000e+00	 3.5450682719e+00
 1.6372422771e+00	 2.9051267378e-02	 3.5331223594e+00
 1.6364617376e+00	 5.8302926956e-02	 3.5113601382e+00
 1.6351475267e+00	 8.7742895928e-02	 3.4780827019e+00
 1.6332890818e+00	 1.1735853291e-01	 3.4319771101e+00
 1.6308761629e+00	 1.4713664207e-01	 3.3721447163e+00
 1.6278988834e+00	 1.7706347897e-01	 3.2981275228e+00
 1.6243477413e+00	 2.0712475826e-01	 3.2099321820e+00
 1.6202136502e+00	 2.3730566329e-01	 3.1080512662e+00
 1.6154879705e+00	 2.6759085759e-01	 2.9934814277e+00
 1.6101625408e+00	 2.9796449834e-01	 2.8677380830e+00
 1.6437500000e+00	 0.0000000000e+00	 3.5401415231e+00
 1.6434912934e+00	 2.9162150079e-02	 3.5273398371e+00
 1.6427077748e+00	 5.8525457212e-02	 3.5046865334e+00
 1.6413885478e+00	 8.8077792478e-02	 3.4704918531e+00
 1.6395230096e+00	 1.1780646625e-01	 3.4234568489e+00
 1.6371008810e+00	 1.4769823231e-01	 3.3627019365e+00
 1.6341122379e+00	 1.7773929377e-01	 3.2877934440e+00
 1.6305475418e+00	 2.0791531077e-01	 3.1987677743e+00
 1.6263976717e+00	 2.3821141010e-01	 3.0961527980e+00
 1.6216539551e+00	 2.6861219675e-01	 2.9809860960e+00
 1.6163081993e+00	 2.9910176742e-01	 2.8548296800e+00
 1.6500000000e+00	 0.0000000000e+00	 3.5356170724e+00
 1.6497403097e+00	 2.9273032779e-02	 3.5220670298e+00
 1.6489538120e+00	 5.8747987468e-02	 3.4986121689e+00
 1.6476295689e+00	 8.8412689028e-02	 3.4635714715e+00
 1.6457569374e+00	 1.1825439958e-01	 3.4156596432e+00
 1.6433255992e+00	 1.4825982255e-01	 3.3540158940e+00
 1.6403255924e+00	 1.7841510858e-01	 3.2782306854e+00
 1.6367473423e+00	 2.0870586329e-01	 3.1883700586e+00
 1.6325816933e+00	 2.3911715691e-01	 3.0849971541e+00
 1.6278199398e+00	 2.6963353590e-01	 2.9691905395e+00
 1.6224538579e+00	 3.0023903650e-01	 2.8425589697e+00
 1.6562500000e+00	 0.0000000000e+00	 3.5314860366e+00
 1.6559893261e+00	 2.9383915478e-02	 3.5172941325e+00
 1.6551998491e+00	 5.8970517724e-02	 3.4931263009e+00
 1.6538705900e+00	 8.8747585577e-02	 3.4573098586e+00
 1.6519908652e+00	 1.1870233291e-01	 3.4085728262e+00
 1.6495503174e+00	 1.4882141279e-01	 3.3460729413e+00
 1.6465389469e+00	 1.7909092338e-01	 3.2694246093e+00
 1.6429471429e+00	 2.0949641580e-01	 3.1787233997e+00
 1.6387657149e+00	 2.4002290372e-01	 3.0745676971e+00
 1.6339859244e+00	 2.7065487505e-01	 2.9580771172e+00
 1.6285995164e+00	 3.0137630558e-01	 2.8309073095e+00
 1.6625000000e+00	 0.0000000000e+00	 3.5277396662e+00
 1.6622383424e+00	 2.9494798178e-02	 3.5130114840e+00
 1.6614458863e+00	 5.9193047979e-02	 3.4882183382e+00
 1.6601116111e+00	 8.9082482126e-02	 3.4516954766e+00
 1.6582247930e+00	 1.1915026624e-01	 3.4021838983e+00
 1.6557750356e+00	 1.4938300302e-01	 3.3388596045e+00
 1.6527523014e+00	 1.7976673819e-01	 3.2613607564e+00
 1.6491469434e+00	 2.1028696831e-01	 3.1698123448e+00
 1.6449497364e+00	 2.4092865052e-01	 3.0648479751e+00
 1.6401519090e+00	 2.7167621420e-01	 2.9476283755e+00
 1.6347451750e+00	 3.0251357465e-01	 2.8198562446e+00
 1.6687500000e+00	 0.0000000000e+00	 3.5243693427e+00
 1.6684873587e+00	 2.9605680878e-02	 3.5092095635e+00
 1.6676919235e+00	 5.9415578234e-02	 3.4838778390e+00
 1.6663526322e+00	 8.9417378675e-02	 3.4467169450e+00
 1.6644587208e+00	 1.1959819957e-01	 3.3964805244e+00
 1.6619997537e+00	 1.4994459326e-01	 3.3323625798e+00
 1.6589656559e+00	 1.8044255299e-01	 3.2540248427e+00
 1.6553467439e+00	 2.1107752082e-01	 3.1616216201e+00
 1.6511337580e+00	 2.4183439733e-01	 3.0558217181e+00
 1.6463178936e+00	 2.7269755335e-01	 2.9378270443e+00
 1.6408908335e+00	 3.0365084373e-01	 2.8093875045e+00
 1.6750000000e+00	 0.0000000000e+00	 3.5213665763e+00
 1.6747363750e+00	 2.9716563577e-02	 3.5058789887e+00
 1.6739379606e+00	 5.9638108488e-02	 3.4800945082e+00
 1.6725936533e+00	 8.9752275223e-02	 3.4423630378e+00
 1.6706926486e+00	 1.2004613290e-01	 3.3914505309e+00
 1.6682244719e+00	 1.5050618349e-01	 3.3265687309e+00
 1.6651790104e+00	 1.8111836780e-01	 3.2474027562e+00
 1.6615465445e+00	 2.1186807333e-01	 3.1541361280e+00
 1.6573177795e+00	 2.4274014413e-01	 3.0474728348e+00
 1.6524838782e+00	 2.7371889250e-01	 2.9286560341e+00
 1.6470364921e+00	 3.0478811281e-01	 2.7994829998e+00
 1.6812500000e+00	 0.0000000000e+00	 3.5187230034e+00
 1.6809853914e+00	 2.9827446276e-02	 3.5030105125e+00
 1.6801839978e+00	 5.9860638742e-02	 3.4768581949e+00
 1.6788346744e+00	 9.0087171770e-02	 3.4386226807e+00
 1.6769265764e+00	 1.2049406623e-01	 3.3870819023e+00
 1.6744491901e+00	 1.5106777373e-01	 3.3214650854e+00
 1.6713923650e+00	 1.8179418260e-01	 3.2414805540e+00
 1.6677463450e+00	 2.1265862584e-01	 3.1473409431e+00
 1.6635018011e+00	 2.4364589094e-01	 3.0397854090e+00
 1.6586498629e+00	 2.7474023165e-01	 2.9200984321e+00
 1.6531821506e+00	 3.0592538188e-01	 2.7901248184e+00
 1.6875000000e+00	 0.0000000000e+00	 3.5164303842e+00
 1.6872344077e+00	 2.9938328975e-02	 3.5005950212e+00
 1.6864300350e+00	 6.0083168996e-02	 3.4741588897e+00
 1.6850756955e+00	 9.0422068317e-02	 3.4354849482e+00
 1.6831605042e+00	 1.2094199956e-01	 3.3833627785e+00
 1.6806739083e+00	 1.5162936396e-01	 3.3170388317e+00
 1.6776057195e+00	 1.8246999740e-01	 3.2362444584e+00
 1.6739461456e+00	 2.1344917835e-01	 3.1412213097e+00
 1.6696858227e+00	 2.4455163774e-01	 3.0327436969e+00
 1.6648158475e+00	 2.7576157080e-01	 2.9121374994e+00
 1.6593278092e+00	 3.0706265096e-01	 2.7812952229e+00
 1.5978712237e+00	 2.9568996018e-01	 2.8955434995e+00
 1.5919836798e+00	 3.2590330336e-01	 2.8277836486e+00
 1.5854863106e+00	 3.5617153006e-01	 2.7318028807e+00
 1.5783726218e+00	 3.8647751120e-01	 2.6092895686e+00
 1.5706367133e+00	 4.1680368873e-01	 2.4624879146e+00
 1.5622733071e+00	 4.4713209913e-01	 2.2941970012e+00
 1.5532777749e+00	 4.7744439878e-01	 2.1077648431e+00
 1.5436461644e+00	 5.0772189143e-01	 1.9070772555e+00
 1.5333752239e+00	 5.3794555745e-01	 1.6965414062e+00
 1.5224624259e+00	 5.6809608500e-01	 1.4810639698e+00
 1.5109059892e+00	 5.9815390303e-01	 1.2660238645e+00
 1.6040168822e+00	 2.9682722926e-01	 2.8813030130e+00
 1.5981066940e+00	 3.2715677760e-01	 2.8103869826e+00
 1.5915843349e+00	 3.5754142057e-01	 2.7120900310e+00
 1.5844432858e+00	 3.8796396317e-01	 2.5881816984e+00
 1.5766776237e+00	 4.1840677985e-01	 2.4409913067e+00
 1.5682820505e+00	 4.4885183797e-01	 2.2734066661e+00
 1.5592519202e+00	 4.7928072339e-01	 2.0888677268e+00
 1.5495832651e+00	 5.0967466794e-01	 1.8913549890e+00
 1.5392728209e+00	 5.4001457882e-01	 1.6853725408e+00
 1.5283180506e+00	 5.7028106994e-01	 1.4759256425e+00
 1.5167171661e+00	 6.0045449497e-01	 1.2684928409e+00
 1.6101625408e+00	 2.9796449834e-01	 2.8677380830e+00
 1.6042297081e+00	 3.2841025185e-01	 2.7936324465e+00
 1.5976823592e+00	 3.5891131107e-01	 2.6929636543e+00
 1.5905139497e+00	 3.8945041514e-01	 2.5675827008e+00
 1.5827185341e+00	 4.2000987096e-01	 2.4199044157e+00
 1.5742907940e+00	 4.5057157681e-01	 2.2529058274e+00
 1.5652260655e+00	 4.8111704800e-01	 2.0701194136e+00
 1.5555203657e+00	 5.1162744444e-01	 1.8756210537e+00
 1.5451704179e+00	 5.4208360019e-01	 1.6740125496e+00
 1.5341736753e+00	 5.7246605488e-01	 1.4703986390e+00
 1.5225283430e+00	 6.0275508690e-01	 1.2703584844e+00
 1.6163081993e+00	 2.9910176742e-01	 2.8548296800e+00
 1.6103527223e+00	 3.2966372609e-01	 2.7774994972e+00
 1.6037803834e+00	 3.6028120157e-01	 2.6744017476e+00
 1.5965846136e+00	 3.9093686710e-01	 2.5474691730e+00
 1.5887594446e+00	 4.2161296207e-01	 2.3992025046e+00
 1.5802995375e+00	 4.5229131566e-01	 2.2326684852e+00
 1.5712002108e+00	 4.8295337262e-01	 2.0514927188e+00
 1.5614574663e+00	 5.1358022095e-01	 1.8598471632e+00
 1.5510680149e+00	 5.4415262157e-01	 1.6624321344e+00
 1.5400293000e+00	 5.7465103982e-01	 1.4644527456e+00
 1.5283395199e+00	 6.0505567883e-01	 1.2715897678e+00
 1.6224538579e+00	 3.0023903650e-01	 2.8425589697e+00
 1.6164757364e+00	 3.3091720034e-01	 2.7619677938e+00
 1.6098784077e+00	 3.6165109207e-01	 2.6563825161e+00
 1.6026552775e+00	 3.9242331907e-01	 2.5278179238e+00
 1.5948003550e+00	 4.2321605318e-01	 2.3788610497e+00
 1.5863082810e+00	 4.5401105450e-01	 2.2126688528e+00
 1.5771743561e+00	 4.8478969723e-01	 2.0329606677e+00
 1.5673945669e+00	 5.1553299745e-01	 1.8440052369e+00
 1.5569656119e+00	 5.4622164294e-01	 1.6506021964e+00
 1.5458849247e+00	 5.7683602476e-01	 1.4580579392e+00
 1.5341506967e+00	 6.0735627077e-01	 1.2721558441e+00
 1.6285995164e+00	 3.0137630558e-01	 2.8309073095e+00
 1.6225987506e+00	 3.3217067458e-01	 2.7470171941e+00
 1.6159764320e+00	 3.6302098257e-01	 2.6388843687e+00
 1.6087259415e+00	 3.9390977104e-01	 2.5086059694e+00
 1.6008412654e+00	 4.2481914429e-01	 2.3588557360e+00
 1.5923170245e+00	 4.5573079334e-01	 2.1928813519e+00
 1.5831485014e+00	 4.8662602184e-01	 2.0144964922e+00
 1.5733316676e+00	 5.1748577396e-01	 1.8280673963e+00
 1.5628632089e+00	 5.4829066432e-01	 1.6384938326e+00
 1.5517405494e+00	 5.7902100971e-01	 1.4511843840e+00
 1.5399618736e+00	 6.0965686270e-01	 1.2720260429e+00
 1.6347451750e+00	 3.0251357465e-01	 2.8198562446e+00
 1.6287217647e+00	 3.3342414882e-01	 2.7326277510e+00
 1.6220744562e+00	 3.6439087307e-01	 2.6218859146e+00
 1.6147966054e+00	 3.9539622300e-01	 2.4898105297e+00
 1.6068821759e+00	 4.2642223540e-01	 2.3391624541e+00
 1.5983257680e+00	 4.5745053219e-01	 2.1732806090e+00
 1.5891226466e+00	 4.8846234645e-01	 1.9960736268e+00
 1.5792687682e+00	 5.1943855046e-01	 1.8120059612e+00
 1.5687608060e+00	 5.5035968569e-01	 1.6260783317e+00
 1.5575961742e+00	 5.8120599465e-01	 1.4438024279e+00
 1.5457730505e+00	 6.1195745464e-01	 1.2711698675e+00
 1.6408908335e+00	 3.0365084373e-01	 2.8093875045e+00
 1.6348447789e+00	 3.3467762307e-01	 2.7187797086e+00
 1.6281724805e+00	 3.6576076357e-01	 2.6053659596e+00
 1.6208672693e+00	 3.9688267497e-01	 2.4714090245e+00
 1.6129230863e+00	 4.2802532651e-01	 2.3197572956e+00
 1.6043345115e+00	 4.5917027103e-01	 2.1538414518e+00
 1.5950967919e+00	 4.9029867106e-01	 1.9776657042e+00
 1.5852058688e+00	 5.2139132697e-01	 1.7957934456e+00
 1.5746584030e+00	 5.5242870707e-01	 1.6133271709e+00
 1.5634517989e+00	 5.8339097959e-01	 1.4358825990e+00
 1.5515842274e+00	 6.1425804657e-01	 1.2695569910e+00
 1.6470364921e+00	 3.0478811281e-01	 2.7994829998e+00
 1.6409677930e+00	 3.3593109731e-01	 2.7054534987e+00
 1.6342705048e+00	 3.6713065407e-01	 2.5893035021e+00
 1.6269379333e+00	 3.9836912694e-01	 2.4533790693e+00
 1.6189639967e+00	 4.2962841762e-01	 2.3006165498e+00
 1.6103432549e+00	 4.6089000987e-01	 2.1345389047e+00
 1.6010709372e+00	 4.9213499567e-01	 1.9592465525e+00
 1.5911429695e+00	 5.2334410348e-01	 1.7794025547e+00
 1.5805560000e+00	 5.5449772844e-01	 1.6002120122e+00
 1.5693074236e+00	 5.8557596453e-01	 1.4273956023e+00
 1.5573954043e+00	 6.1655863851e-01	 1.2671572539e+00
 1.6531821506e+00	 3.0592538188e-01	 2.7901248184e+00
 1.6470908072e+00	 3.3718457155e-01	 2.6926297376e+00
 1.6403685291e+00	 3.6850054457e-01	 2.5736777299e+00
 1.6330085972e+00	 3.9985557890e-01	 2.4356984725e+00
 1.6250049072e+00	 4.3123150873e-01	 2.2817166998e+00
 1.6163519984e+00	 4.6260974872e-01	 2.1153481861e+00
 1.6070450825e+00	 4.9397132028e-01	 1.9407901910e+00
 1.5970800701e+00	 5.2529687998e-01	 1.7628061808e+00
 1.5864535970e+00	 5.5656674982e-01	 1.5867046990e+00
 1.5751630483e+00	 5.8776094948e-01	 1.4183123165e+00
 1.5632065812e+00	 6.1885923044e-01	 1.2639406604e+00
 1.6593278092e+00	 3.0706265096e-01	 2.7812952229e+00
 1.6532138214e+00	 3.3843804579e-01	 2.6802892220e+00
 1.6464665533e+00	 3.6987043507e-01	 2.5584680162e+00
 1.6390792611e+00	 4.0134203087e-01	 2.4183452311e+00
 1.6310458176e+00	 4.3283459984e-01	 2.2630344190e+00
 1.6223607419e+00	 4.6432948756e-01	 2.0962447042e+00
 1.6130192278e+00	 4.9580764489e-01	 1.9222708267e+00
 1.6030171707e+00	 5.2724965649e-01	 1.7459773999e+00
 1.5923511940e+00	 5.5863577119e-01	 1.5727772527e+00
 1.5810186730e+00	 5.8994593442e-01	 1.4086037907e+00
 1.5690177580e+00	 6.2115982238e-01	 1.2598773755e+00
 1.5109059892e+00	 5.9815390303e-01	 1.2660238645e+00
 1.4987048992e+00	 6.2809921591e-01	 1.1448999870e+00
 1.4858589260e+00	 6.5791203964e-01	 9.5178044430e-01
 1.4723686411e+00	 6.8757223970e-01	 7.7330167301e-01
 1.4582354312e+00	 7.1705957009e-01	 6.1204762669e-01
 1.4434615111e+00	 7.4635371370e-01	 4.7060612052e-01
 1.4280499324e+00	 7.7543432380e-01	 3.5157456446e-01
 1.4120045915e+00	 8.0428106635e-01	 2.5756522540e-01
 1.3953302337e+00	 8.3287366320e-01	 1.9120983748e-01
 1.3780324560e+00	 8.6119193577e-01	 1.5516338221e-01
 1.3601177057e+00	 8.8921584922e-01	 1.5210686620e-01
 1.5167171661e+00	 6.0045449497e-01	 1.2684928409e+00
 1.5044691488e+00	 6.3051498212e-01	 1.1471352711e+00
 1.4915737681e+00	 6.6044247056e-01	 9.5635706853e-01
 1.4780315974e+00	 6.9021674831e-01	 7.7953851684e-01
 1.4638440291e+00	 7.1981749151e-01	 6.1918424061e-01
 1.4490132861e+00	 7.4922430490e-01	 4.7780622372e-01
 1.4335424322e+00	 7.7841676350e-01	 3.5793015537e-01
 1.4174353784e+00	 8.0737445506e-01	 2.6210129054e-01
 1.4006968885e+00	 8.3607702344e-01	 1.9288963795e-01
 1.3833325808e+00	 8.6450421244e-01	 1.5289429127e-01
 1.3653489277e+00	 8.9263591018e-01	 1.4474672546e-01
 1.5225283430e+00	 6.0275508690e-01	 1.2703584844e+00
 1.5102333985e+00	 6.3293074833e-01	 1.1477143856e+00
 1.4972886101e+00	 6.6297290148e-01	 9.5912694485e-01
 1.4836945537e+00	 6.9286125692e-01	 7.8382284926e-01
 1.4694526269e+00	 7.2257541293e-01	 6.2422731821e-01
 1.4545650612e+00	 7.5209489611e-01	 4.8277643469e-01
 1.4390349319e+00	 7.8139920321e-01	 3.6192410650e-01
 1.4228661652e+00	 8.1046784378e-01	 2.6414852732e-01
 1.4060635432e+00	 8.3928038368e-01	 1.9195794457e-01
 1.3886327057e+00	 8.6781648911e-01	 1.4789554376e-01
 1.3705801496e+00	 8.9605597114e-01	 1.3454326547e-01
 1.5283395199e+00	 6.0505567883e-01	 1.2715897678e+00
 1.5159976481e+00	 6.3534651454e-01	 1.1466537015e+00
 1.5030034521e+00	 6.6550333240e-01	 9.6010962355e-01
 1.4893575100e+00	 6.9550576553e-01	 7.8617727389e-01
 1.4750612247e+00	 7.2533333435e-01	 6.2720238214e-01
 1.4601168362e+00	 7.5496548731e-01	 4.8554505260e-01
 1.4445274316e+00	 7.8438164291e-01	 3.6358734309e-01
 1.4282969521e+00	 8.1356123249e-01	 2.6374032904e-01
 1.4114301980e+00	 8.4248374392e-01	 1.8845045348e-01
 1.3939328305e+00	 8.7112876579e-01	 1.4020496672e-01
 1.3758113716e+00	 8.9947603210e-01	 1.2153626594e-01
 1.5341506967e+00	 6.0735627077e-01	 1.2721558441e+00
 1.5217618977e+00	 6.3776228076e-01	 1.1439697379e+00
 1.5087182941e+00	 6.6803376332e-01	 9.5932477120e-01
 1.4950204663e+00	 6.9815027415e-01	 7.8662448045e-01
 1.4806698225e+00	 7.2809125577e-01	 6.2813501238e-01
 1.4656686113e+00	 7.5783607852e-01	 4.8614040652e-01
 1.4500199314e+00	 7.8736408262e-01	 3.6295079433e-01
 1.4337277390e+00	 8.1665462121e-01	 2.6091006849e-01
 1.4167968527e+00	 8.4568710416e-01	 1.8240281743e-01
 1.3992329553e+00	 8.7444104246e-01	 1.2986032253e-01
 1.3810425935e+00	 9.0289609305e-01	 1.0576542231e-01
 1.5399618736e+00	 6.0965686270e-01	 1.2720260429e+00
 1.5275261473e+00	 6.4017804697e-01	 1.1396791583e+00
 1.5144331362e+00	 6.7056419424e-01	 9.5679216837e-01
 1.5006834226e+00	 7.0079478276e-01	 7.8518724319e-01
 1.4862784203e+00	 7.3084917719e-01	 6.2705084511e-01
 1.4712203863e+00	 7.6070666972e-01	 4.8459085486e-01
 1.4555124311e+00	 7.9034652232e-01	 3.6004539326e-01
 1.4391585259e+00	 8.1974800992e-01	 2.5569109831e-01
 1.4221635075e+00	 8.4889046440e-01	 1.7385064658e-01
 1.4045330802e+00	 8.7775331914e-01	 1.1689931013e-01
 1.3862738155e+00	 9.0631615401e-01	 8.7270347391e-02
 1.5457730505e+00	 6.1195745464e-01	 1.2711698675e+00
 1.5332903969e+00	 6.4259381319e-01	 1.1337987685e+00
 1.5201479782e+00	 6.7309462516e-01	 9.5253170755e-01
 1.5063463789e+00	 7.0343929137e-01	 7.8188841921e-01
 1.4918870181e+00	 7.3360709861e-01	 6.2397557171e-01
 1.4767721614e+00	 7.6357726093e-01	 4.8092478481e-01
 1.4610049309e+00	 7.9332896203e-01	 3.5490207669e-01
 1.4445893128e+00	 8.2284139864e-01	 2.4811675139e-01
 1.4275301622e+00	 8.5209382465e-01	 1.6282950930e-01
 1.4098332050e+00	 8.8106559581e-01	 1.0135956619e-01
 1.3915050374e+00	 9.0973621497e-01	 6.6090572853e-02
 1.5515842274e+00	 6.1425804657e-01	 1.2695569910e+00
 1.5390546465e+00	 6.4500957940e-01	 1.1263455138e+00
 1.5258628202e+00	 6.7562505608e-01	 9.4656339103e-01
 1.5120093353e+00	 7.0608379999e-01	 7.7675094700e-01
 1.4974956159e+00	 7.3636502004e-01	 6.1893493770e-01
 1.4823239364e+00	 7.6644785214e-01	 4.7517061179e-01
 1.4664974306e+00	 7.9631140174e-01	 3.4755178516e-01
 1.4500200997e+00	 8.2593478736e-01	 2.3822034121e-01
 1.4328968170e+00	 8.5529718489e-01	 1.4937493293e-01
 1.4151333298e+00	 8.8437787249e-01	 8.3278666292e-02
 1.3967362594e+00	 9.1315627593e-01	 4.2265550789e-02
 1.5573954043e+00	 6.1655863851e-01	 1.2671572539e+00
 1.5448188961e+00	 6.4742534562e-01	 1.1173364762e+00
 1.5315776622e+00	 6.7815548701e-01	 9.3890732885e-01
 1.5176722916e+00	 7.0872830860e-01	 7.6979784486e-01
 1.5031042138e+00	 7.3912294146e-01	 6.1195474174e-01
 1.4878757115e+00	 7.6931844334e-01	 4.6735677894e-01
 1.4719899303e+00	 7.9929384144e-01	 3.3802546285e-01
 1.4554508866e+00	 8.2902817608e-01	 2.2603516224e-01
 1.4382634717e+00	 8.5850054513e-01	 1.3352240459e-01
 1.4204334546e+00	 8.8769014917e-01	 6.2694126054e-02
 1.4019674813e+00	 9.1657633689e-01	 1.5834655182e-02
 1.5632065812e+00	 6.1885923044e-01	 1.2639406604e+00
 1.5505831457e+00	 6.4984111183e-01	 1.1067888719e+00
 1.5372925042e+00	 6.8068591793e-01	 9.2958373683e-01
 1.5233352479e+00	 7.1137281722e-01	 7.6105220946e-01
 1.5087128116e+00	 7.4188086289e-01	 6.0306083460e-01
 1.4934274865e+00	 7.7218903455e-01	 4.5751175662e-01
 1.4774824301e+00	 8.0227628115e-01	 3.2635405750e-01
 1.4608816735e+00	 8.3212156479e-01	 2.1159449026e-01
 1.4436301264e+00	 8.6170390538e-01	 1.1530737188e-01
 1.4257335795e+00	 8.9100242585e-01	 3.9643402264e-02
 1.4071987033e+00	 9.1999639785e-01	-1.3162816640e-02
 1.5690177580e+00	 6.2115982238e-01	 1.2598773755e+00
 1.5563473954e+00	 6.5225687805e-01	 1.0947200492e+00
 1.5430073463e+00	 6.8321634885e-01	 9.1861293454e-01
 1.5289982042e+00	 7.1401732584e-01	 7.5053721436e-01
 1.5143214094e+00	 7.4463878431e-01	 5.9227911826e-01
 1.4989792615e+00	 7.7505962576e-01	 4.4566404186e-01
 1.4829749298e+00	 8.0525872086e-01	 3.1256852036e-01
 1.4663124604e+00	 8.3521495351e-01	 1.9493158274e-01
 1.4489967812e+00	 8.6490726562e-01	 9.4765243648e-02
 1.4310337043e+00	 8.9431470253e-01	 1.4163893957e-02
 1.4124299252e+00	 9.2341645881e-01	-4.4687642585e-02
 1.3601177057e+00	 8.8921584922e-01	 1.5210686620e-01
 1.3415932779e+00	 9.1692555682e-01	-1.9862028007e-01
 1.3224673086e+00	 9.4430144428e-01	-5.6390551442e-01
 1.3027487667e+00	 9.7132417399e-01	-9.3996910764e-01
 1.2824474417e+00	 9.9797472881e-01	-1.3227842631e+00
 1.2615739298e+00	 1.0242344554e+00	-1.7080836691e+00
 1.2401396168e+00	 1.0500851065e+00	-1.8918265005e+00
 1.2181566579e+00	 1.0755088827e+00	-1.8602285032e+00
 1.1956379560e+00	 1.1004884725e+00	-1.8562224886e+00
 1.1725971363e+00	 1.1250070915e+00	-1.8747683027e+00
 1.1490485194e+00	 1.1490485194e+00	-1.9108901067e+00
 1.3653489277e+00	 8.9263591018e-01	 1.4474672546e-01
 1.3467532520e+00	 9.2045219358e-01	-2.0788159355e-01
 1.3275537213e+00	 9.4793337291e-01	-5.7259323216e-01
 1.3077593388e+00	 9.7506003619e-01	-9.4554435788e-01
 1.2873799318e+00	 1.0018130932e+00	-1.3226489702e+00
 1.2664261373e+00	 1.0281738187e+00	-1.6995856635e+00
 1.2449093845e+00	 1.0541238954e+00	-1.9691752617e+00
 1.2228418758e+00	 1.0796454553e+00	-1.9180378185e+00
 1.2002365635e+00	 1.1047211205e+00	-1.8915919372e+00
 1.1771071253e+00	 1.1293340418e+00	-1.8847468743e+00
 1.1534679368e+00	 1.1534679368e+00	-1.8924889230e+00
 1.3705801496e+00	 8.9605597114e-01	 1.3454326547e-01
 1.3519132262e+00	 9.2397883034e-01	-2.1984897883e-01
 1.3326401341e+00	 9.5156530155e-01	-5.8387267237e-01
 1.3127699110e+00	 9.7879589840e-01	-9.5362038701e-01
 1.2923124220e+00	 1.0056514575e+00	-1.3249473353e+00
 1.2712783447e+00	 1.0321131820e+00	-1.6934783409e+00
 1.2496791523e+00	 1.0581626842e+00	-2.0481721290e+00
 1.2275270937e+00	 1.0837820280e+00	-1.9775219558e+00
 1.2048351710e+00	 1.1089537685e+00	-1.9286746934e+00
 1.1816171143e+00	 1.1336609922e+00	-1.8964885849e+00
 1.1578873542e+00	 1.1578873542e+00	-1.8759116234e+00
 1.3758113716e+00	 8.9947603210e-01	 1.2153626594e-01
 1.3570732003e+00	 9.2750546709e-01	-2.3448369813e-01
 1.3377265468e+00	 9.5519723018e-01	-5.9770601531e-01
 1.3177804832e+00	 9.8253176061e-01	-9.6416016769e-01
 1.2972449122e+00	 1.0094898218e+00	-1.3296429962e+00
 1.2761305521e+00	 1.0360525452e+00	-1.6897258755e+00
 1.2544489201e+00	 1.0622014731e+00	-2.0397648195e+00
 1.2322123117e+00	 1.0879186006e+00	-2.0387043134e+00
 1.2094337786e+00	 1.1131864165e+00	-1.9674947794e+00
 1.1861271033e+00	 1.1379879425e+00	-1.9100178239e+00
 1.1623067716e+00	 1.1623067716e+00	-1.8611827043e+00
 1.3810425935e+00	 9.0289609305e-01	 1.0576542231e-01
 1.3622331745e+00	 9.3103210385e-01	-2.5174707320e-01
 1.3428129595e+00	 9.5882915881e-01	-6.1405547904e-01
 1.3227910554e+00	 9.8626762282e-01	-9.7712669161e-01
 1.3021774023e+00	 1.0133281862e+00	-1.3366995941e+00
 1.2809827595e+00	 1.0399919085e+00	-1.6882924322e+00
 1.2592186878e+00	 1.0662402620e+00	-2.0272131185e+00
 1.2368975296e+00	 1.0920551732e+00	-2.1016082645e+00
 1.2140323861e+00	 1.1174190644e+00	-2.0080761902e+00
 1.1906370923e+00	 1.1423148929e+00	-1.9253589533e+00
 1.1667261890e+00	 1.1667261890e+00	-1.8483266385e+00
 1.3862738155e+00	 9.0631615401e-01	 8.7270347391e-02
 1.3673931486e+00	 9.3455874061e-01	-2.7160048419e-01
 1.3478993722e+00	 9.6246108744e-01	-6.3288331866e-01
 1.3278016276e+00	 9.9000348503e-01	-9.9248296916e-01
 1.3071098925e+00	 1.0171665505e+00	-1.3460807733e+00
 1.2858349669e+00	 1.0439312718e+00	-1.6891421669e+00
 1.2639884556e+00	 1.0702790509e+00	-2.0169271839e+00
 1.2415827475e+00	 1.0961917458e+00	-2.1662571583e+00
 1.2186309936e+00	 1.1216517124e+00	-2.0504428934e+00
 1.1951470813e+00	 1.1466418432e+00	-1.9425363084e+00
 1.1711456063e+00	 1.1711456063e+00	-1.8373678754e+00
 1.3915050374e+00	 9.0973621497e-01	 6.6090572853e-02
 1.3725531228e+00	 9.3808537736e-01	-2.9400536857e-01
 1.3529857850e+00	 9.6609301608e-01	-6.5415182563e-01
 1.3328121997e+00	 9.9373934724e-01	-1.0101920291e+00
 1.3120423826e+00	 1.0210049149e+00	-1.3577501818e+00
 1.2906871744e+00	 1.0478706351e+00	-1.6922392270e+00
 1.2687582233e+00	 1.0743178397e+00	-2.0088715419e+00
 1.2462679654e+00	 1.1003283185e+00	-2.2326743204e+00
 1.2232296011e+00	 1.1258843604e+00	-2.0946188303e+00
 1.1996570702e+00	 1.1509687936e+00	-1.9615741979e+00
 1.1755650237e+00	 1.1755650237e+00	-1.8283308411e+00
 1.3967362594e+00	 9.1315627593e-01	 4.2265550789e-02
 1.3777130969e+00	 9.4161201412e-01	-3.1892322002e-01
 1.3580721977e+00	 9.6972494471e-01	-6.7782332711e-01
 1.3378227719e+00	 9.9747520944e-01	-1.0302169180e+00
 1.3169748728e+00	 1.0248432792e+00	-1.3716714703e+00
 1.2955393818e+00	 1.0518099984e+00	-1.6975477510e+00
 1.2735279911e+00	 1.0783566286e+00	-2.0030107008e+00
 1.2509531833e+00	 1.1044648911e+00	-2.2830432740e+00
 1.2278282087e+00	 1.1301170083e+00	-2.1406279158e+00
 1.2041670592e+00	 1.1552957439e+00	-1.9824969048e+00
 1.1799844411e+00	 1.1799844411e+00	-1.8212399395e+00
 1.4019674813e+00	 9.1657633689e-01	 1.5834655182e-02
 1.3828730710e+00	 9.4513865088e-01	-3.4631558740e-01
 1.3631586104e+00	 9.7335687334e-01	-7.0386018526e-01
 1.3428333441e+00	 1.0012110717e+00	-1.0525207004e+00
 1.3219073630e+00	 1.0286816436e+00	-1.3878082930e+00
 1.3003915892e+00	 1.0557493617e+00	-1.7050318690e+00
 1.2782977588e+00	 1.0823954175e+00	-1.9993091523e+00
 1.2556384012e+00	 1.1086014637e+00	-2.2655807117e+00
 1.2324268162e+00	 1.1343496563e+00	-2.1884940394e+00
 1.2086770482e+00	 1.1596226943e+00	-2.0053286868e+00
 1.1844038585e+00	 1.1844038585e+00	-1.8161195520e+00
 1.4071987033e+00	 9.1999639785e-01	-1.3162816640e-02
 1.3880330452e+00	 9.4866528764e-01	-3.7614407375e-01
 1.3682450231e+00	 9.7698880198e-01	-7.3222479658e-01
 1.3478439163e+00	 1.0049469339e+00	-1.0770664579e+00
 1.3268398531e+00	 1.0325200079e+00	-1.4061243072e+00
 1.3052437966e+00	 1.0596887250e+00	-1.7146557030e+00
 1.2830675266e+00	 1.0864342063e+00	-1.9977313708e+00
 1.2603236191e+00	 1.1127380363e+00	-2.2502496151e+00
 1.2370254237e+00	 1.1385823043e+00	-2.2382410655e+00
 1.2131870372e+00	 1.1639496447e+00	-2.0300937766e+00
 1.1888232759e+00	 1.1888232759e+00	-1.8129940387e+00
 1.4124299252e+00	 9.2341645881e-01	-4.4687642585e-02
 1.3931930193e+00	 9.5219192440e-01	-4.0837033525e-01
 1.3733314358e+00	 9.8062073061e-01	-7.6287959133e-01
 1.3528544884e+00	 1.0086827961e+00	-1.1038172892e+00
 1.3317723433e+00	 1.0363583722e+00	-1.4265831730e+00
 1.3100960040e+00	 1.0636280883e+00	-1.7263833667e+00
 1.2878372943e+00	 1.0904729952e+00	-1.9982418145e+00
 1.2650088371e+00	 1.1168746090e+00	-2.2370146767e+00
 1.2416240312e+00	 1.1428149523e+00	-2.2898928337e+00
 1.2176970262e+00	 1.1682765950e+00	-2.0568163826e+00
 1.1932426933e+00	 1.1932426932e+00	-1.8118877380e+00
 1.1490485194e+00	 1.1490485194e+00	-1.9108901067e+00
 1.1250070915e+00	 1.1725971363e+00	-1.9704670492e+00
 1.1004884725e+00	 1.1956379560e+00	-1.9238020289e+00
 1.0755088827e+00	 1.2181566579e+00	-1.7669558692e+00
 1.0500851065e+00	 1.2401396168e+00	-1.4966062536e+00
 1.0242344554e+00	 1.2615739298e+00	-1.5504791715e+00
 9.9797472881e-01	 1.2824474417e+00	-1.8933522672e+00
 9.7132417399e-01	 1.3027487667e+00	-2.1638709884e+00
 9.4430144428e-01	 1.3224673086e+00	-2.3602965472e+00
 9.1692555682e-01	 1.3415932779e+00	-2.4810682345e+00
 8.8921584922e-01	 1.3601177057e+00	-2.5248157022e+00
 1.1534679368e+00	 1.1534679368e+00	-1.8924889230e+00
 1.1293340418e+00	 1.1771071253e+00	-1.9231535744e+00
 1.1047211205e+00	 1.2002365635e+00	-1.8491205259e+00
 1.0796454553e+00	 1.2228418758e+00	-1.6664816515e+00
 1.0541238954e+00	 1.2449093845e+00	-1.3719426901e+00
 1.0281738187e+00	 1.2664261373e+00	-1.5827011096e+00
 1.0018130932e+00	 1.2873799318e+00	-1.9097236133e+00
 9.7506003619e-01	 1.3077593388e+00	-2.1672180008e+00
 9.4793337291e-01	 1.3275537213e+00	-2.3534440624e+00
 9.2045219358e-01	 1.3467532520e+00	-2.4668293247e+00
 8.9263591018e-01	 1.3653489277e+00	-2.5059815865e+00
 1.1578873542e+00	 1.1578873542e+00	-1.8759116234e+00
 1.1336609922e+00	 1.1816171143e+00	-1.8778768324e+00
 1.1089537685e+00	 1.2048351710e+00	-1.7766638367e+00
 1.0837820280e+00	 1.2275270937e+00	-1.5683949443e+00
 1.0581626842e+00	 1.2496791523e+00	-1.2498034238e+00
 1.0321131820e+00	 1.2712783447e+00	-1.6144384041e+00
 1.0056514575e+00	 1.2923124220e+00	-1.9257290941e+00
 9.7879589840e-01	 1.3127699110e+00	-2.1703053263e+00
 9.5156530155e-01	 1.3326401341e+00	-2.3464251246e+00
 9.2397883034e-01	 1.3519132262e+00	-2.4525039333e+00
 8.9605597114e-01	 1.3705801496e+00	-2.4871274083e+00
 1.1623067716e+00	 1.1623067716e+00	-1.8611827043e+00
 1.1379879425e+00	 1.1861271033e+00	-1.8346595503e+00
 1.1131864165e+00	 1.2094337786e+00	-1.7064530539e+00
 1.0879186006e+00	 1.2322123117e+00	-1.4727153422e+00
 1.0622014731e+00	 1.2544489201e+00	-1.2879594321e+00
 1.0360525452e+00	 1.2761305521e+00	-1.6456717450e+00
 1.0094898218e+00	 1.2972449122e+00	-1.9413485645e+00
 9.8253176061e-01	 1.3177804832e+00	-2.1731122051e+00
 9.5519723018e-01	 1.3377265468e+00	-2.3392185795e+00
 9.2750546709e-01	 1.3570732003e+00	-2.4380707302e+00
 8.9947603210e-01	 1.3758113716e+00	-2.4682318792e+00
 1.1667261890e+00	 1.1667261890e+00	-1.8483266385e+00
 1.1423148929e+00	 1.1906370923e+00	-1.7935244623e+00
 1.1174190644e+00	 1.2140323861e+00	-1.6385093053e+00
 1.0920551732e+00	 1.2368975296e+00	-1.3794625009e+00
 1.0662402620e+00	 1.2592186878e+00	-1.3369474632e+00
 1.0399919085e+00	 1.2809827595e+00	-1.6763819257e+00
 1.0133281862e+00	 1.3021774023e+00	-1.9565619995e+00
 9.8626762282e-01	 1.3227910554e+00	-2.1756180113e+00
 9.5882915881e-01	 1.3428129595e+00	-2.3318034170e+00
 9.3103210385e-01	 1.3622331745e+00	-2.4235085374e+00
 9.0289609305e-01	 1.3810425935e+00	-2.4492738672e+00
 1.1711456063e+00	 1.1711456063e+00	-1.8373678754e+00
 1.1466418432e+00	 1.1951470813e+00	-1.7544943099e+00
 1.1216517124e+00	 1.2186309936e+00	-1.5728537541e+00
 1.0961917458e+00	 1.2415827475e+00	-1.2886561360e+00
 1.0702790509e+00	 1.2639884556e+00	-1.3852653274e+00
 1.0439312718e+00	 1.2858349669e+00	-1.7065498408e+00
 1.0171665505e+00	 1.3071098925e+00	-1.9713494917e+00
 9.9000348503e-01	 1.3278016276e+00	-2.1778022498e+00
 9.6246108744e-01	 1.3478993722e+00	-2.3241587685e+00
 9.3455874061e-01	 1.3673931486e+00	-2.4087963256e+00
 9.0631615401e-01	 1.3862738155e+00	-2.4302323936e+00
 1.1755650237e+00	 1.1755650237e+00	-1.8283308411e+00
 1.1509687936e+00	 1.1996570702e+00	-1.7175918416e+00
 1.1258843604e+00	 1.2232296011e+00	-1.5095075973e+00
 1.1003283185e+00	 1.2462679654e+00	-1.2003160220e+00
 1.0743178397e+00	 1.2687582233e+00	-1.4328950167e+00
 1.0478706351e+00	 1.2906871744e+00	-1.7361564847e+00
 1.0210049149e+00	 1.3120423826e+00	-1.9856912491e+00
 9.9373934724e-01	 1.3328121997e+00	-2.1796445543e+00
 9.6609301608e-01	 1.3529857850e+00	-2.3162639043e+00
 9.3808537736e-01	 1.3725531228e+00	-2.3939132118e+00
 9.0973621497e-01	 1.3915050374e+00	-2.4110866305e+00
 1.1799844411e+00	 1.1799844411e+00	-1.8212399395e+00
 1.1552957439e+00	 1.2041670592e+00	-1.6828398127e+00
 1.1301170083e+00	 1.2278282087e+00	-1.4484920660e+00
 1.1044648911e+00	 1.2509531833e+00	-1.1453997912e+00
 1.0783566286e+00	 1.2735279911e+00	-1.4798186017e+00
 1.0518099984e+00	 1.2955393818e+00	-1.7651829489e+00
 1.0248432792e+00	 1.3169748728e+00	-1.9995675931e+00
 9.9747520944e-01	 1.3378227719e+00	-2.1811246847e+00
 9.6972494471e-01	 1.3580721977e+00	-2.3080982312e+00
 9.4161201412e-01	 1.3777130969e+00	-2.3788384566e+00
 9.1315627593e-01	 1.3967362594e+00	-2.3918158979e+00
 1.1844038585e+00	 1.1844038585e+00	-1.8161195520e+00
 1.1596226943e+00	 1.2086770482e+00	-1.6502609853e+00
 1.1343496563e+00	 1.2324268162e+00	-1.3898284241e+00
 1.1086014637e+00	 1.2556384012e+00	-1.2120905547e+00
 1.0823954175e+00	 1.2782977588e+00	-1.5260182311e+00
 1.0557493617e+00	 1.3003915892e+00	-1.7936104211e+00
 1.0286816436e+00	 1.3219073630e+00	-2.0129589565e+00
 1.0012110717e+00	 1.3428333441e+00	-2.1822225246e+00
 9.7335687334e-01	 1.3631586104e+00	-2.2996412893e+00
 9.4513865088e-01	 1.3828730710e+00	-2.3635514611e+00
 9.1657633689e-01	 1.4019674813e+00	-2.3723996607e+00
 1.1888232759e+00	 1.1888232759e+00	-1.8129940387e+00
 1.1639496447e+00	 1.2131870372e+00	-1.6198781282e+00
 1.1385823043e+00	 1.2370254237e+00	-1.3335379679e+00
 1.1127380363e+00	 1.2603236191e+00	-1.2779052051e+00
 1.0864342063e+00	 1.2830675266e+00	-1.5714761295e+00
 1.0596887250e+00	 1.3052437966e+00	-1.8214201827e+00
 1.0325200079e+00	 1.3268398531e+00	-2.0258458809e+00
 1.0049469339e+00	 1.3478439163e+00	-2.1829180795e+00
 9.7698880198e-01	 1.3682450231e+00	-2.2908727502e+00
 9.4866528764e-01	 1.3880330452e+00	-2.3480317648e+00
 9.1999639785e-01	 1.4071987033e+00	-2.3528175261e+00
 1.1932426933e+00	 1.1932426932e+00	-1.8118877380e+00
 1.1682765950e+00	 1.2176970262e+00	-1.5917140165e+00
 1.1428149523e+00	 1.2416240312e+00	-1.2796420258e+00
 1.1168746090e+00	 1.2650088371e+00	-1.3428271672e+00
 1.0904729952e+00	 1.2878372943e+00	-1.6161745961e+00
 1.0636280883e+00	 1.3100960040e+00	-1.8485936076e+00
 1.0363583722e+00	 1.3317723433e+00	-2.0382090152e+00
 1.0086827961e+00	 1.3528544884e+00	-2.1831914737e+00
 9.8062073061e-01	 1.3733314358e+00	-2.2817724143e+00
 9.5219192440e-01	 1.3931930193e+00	-2.3322590427e+00
 9.2341645881e-01	 1.4124299252e+00	-2.3330492412e+00
 8.8921584922e-01	 1.3601177057e+00	-2.5248157022e+00
 8.6119193577e-01	 1.3780324560e+00	-2.2814441726e+00
 8.3287366320e-01	 1.3953302337e+00	-2.0611109340e+00
 8.0428106635e-01	 1.4120045915e+00	-1.8634778793e+00
 7.7543432380e-01	 1.4280499324e+00	-1.6880663175e+00
 7.4635371370e-01	 1.4434615111e+00	-1.5342703932e+00
 7.1705957009e-01	 1.4582354312e+00	-1.4013709643e+00
 6.8757223970e-01	 1.4723686411e+00	-1.2885497759e+00
 6.5791203964e-01	 1.4858589260e+00	-1.1949037739e+00
 6.2809921591e-01	 1.4987048992e+00	-1.1194594072e+00
 5.9815390303e-01	 1.5109059892e+00	-1.3255234943e+00
 8.9263591018e-01	 1.3653489277e+00	-2.5059815865e+00
 8.6450421244e-01	 1.3833325808e+00	-2.2640614648e+00
 8.3607702344e-01	 1.4006968885e+00	-2.0458901287e+00
 8.0737445506e-01	 1.4174353784e+00	-1.8510220570e+00
 7.7841676350e-01	 1.4335424322e+00	-1.6788702161e+00
 7.4922430490e-01	 1.4490132861e+00	-1.5287200424e+00
 7.1981749151e-01	 1.4638440291e+00	-1.3997438741e+00
 6.9021674831e-01	 1.4780315974e+00	-1.2910156655e+00
 6.6044247056e-01	 1.4915737681e+00	-1.2015258248e+00
 6.3051498212e-01	 1.5044691488e+00	-1.1301960199e+00
 6.0045449497e-01	 1.5167171661e+00	-1.3154604067e+00
 8.9605597114e-01	 1.3705801496e+00	-2.4871274083e+00
 8.6781648911e-01	 1.3886327057e+00	-2.2464656439e+00
 8.3928038368e-01	 1.4060635432e+00	-2.0302647829e+00
 8.1046784378e-01	 1.4228661652e+00	-1.8379720120e+00
 7.8139920321e-01	 1.4390349319e+00	-1.6688920666e+00
 7.5209489611e-01	 1.4545650612e+00	-1.5222017776e+00
 7.2257541293e-01	 1.4694526269e+00	-1.3969650567e+00
 6.9286125692e-01	 1.4836945537e+00	-1.2921481532e+00
 6.6297290148e-01	 1.4972886101e+00	-1.2066350160e+00
 6.3293074833e-01	 1.5102333985e+00	-1.1392426041e+00
 6.0275508690e-01	 1.5225283430e+00	-1.3039493478e+00
 8.9947603210e-01	 1.3758113716e+00	-2.4682318792e+00
 8.7112876579e-01	 1.3939328305e+00	-2.2286384800e+00
 8.4248374392e-01	 1.4114301980e+00	-2.0142197590e+00
 8.1356123249e-01	 1.4282969521e+00	-1.8243157256e+00
 7.8438164291e-01	 1.4445274316e+00	-1.6581229894e+00
 7.5496548731e-01	 1.4601168362e+00	-1.5147098706e+00
 7.2533333435e-01	 1.4750612247e+00	-1.3930319416e+00
 6.9550576553e-01	 1.4893575100e+00	-1.2919478253e+00
 6.6550333240e-01	 1.5030034521e+00	-1.2102350835e+00
 6.3534651454e-01	 1.5159976481e+00	-1.1466060313e+00
 6.0505567883e-01	 1.5283395199e+00	-1.2909941270e+00
 9.0289609305e-01	 1.3810425935e+00	-2.4492738672e+00
 8.7444104246e-01	 1.3992329553e+00	-2.2105618590e+00
 8.4568710416e-01	 1.4167968527e+00	-1.9977399941e+00
 8.1665462121e-01	 1.4337277390e+00	-1.8100412127e+00
 7.8736408262e-01	 1.4500199314e+00	-1.6465540963e+00
 7.5783607852e-01	 1.4656686113e+00	-1.5062385435e+00
 7.2809125577e-01	 1.4806698225e+00	-1.3879418669e+00
 6.9815027415e-01	 1.4950204663e+00	-1.2904151356e+00
 6.6803376332e-01	 1.5087182941e+00	-1.2123295890e+00
 6.3776228076e-01	 1.5217618977e+00	-1.1522929581e+00
 6.0735627077e-01	 1.5341506967e+00	-1.2765982981e+00
 9.0631615401e-01	 1.3862738155e+00	-2.4302323936e+00
 8.7775331914e-01	 1.4045330802e+00	-2.1922177800e+00
 8.4889046440e-01	 1.4221635075e+00	-1.9808104981e+00
 8.1974800992e-01	 1.4391585259e+00	-1.7951365202e+00
 7.9034652232e-01	 1.4555124311e+00	-1.6341764911e+00
 7.6070666972e-01	 1.4712203863e+00	-1.4967819692e+00
 7.3084917719e-01	 1.4862784203e+00	-1.3816920812e+00
 7.0079478276e-01	 1.5006834226e+00	-1.2875504074e+00
 6.7056419424e-01	 1.5144331362e+00	-1.2129219239e+00
 6.4017804697e-01	 1.5275261473e+00	-1.1563098300e+00
 6.0965686270e-01	 1.5399618736e+00	-1.2607651644e+00
 9.0973621497e-01	 1.3915050374e+00	-2.4110866305e+00
 8.8106559581e-01	 1.4098332050e+00	-2.1735883537e+00
 8.5209382465e-01	 1.4275301622e+00	-1.9634163528e+00
 8.2284139864e-01	 1.4445893128e+00	-1.7795897272e+00
 7.9332896203e-01	 1.4610049309e+00	-1.6209812694e+00
 7.6357726093e-01	 1.4767721614e+00	-1.4863342729e+00
 7.3360709861e-01	 1.4918870181e+00	-1.3742797449e+00
 7.0343929137e-01	 1.5063463789e+00	-1.2833538363e+00
 6.7309462516e-01	 1.5201479782e+00	-1.2120153121e+00
 6.4259381319e-01	 1.5332903969e+00	-1.1586628861e+00
 6.1195745464e-01	 1.5457730505e+00	-1.2434977830e+00
 9.1315627593e-01	 1.3967362594e+00	-2.3918158979e+00
 8.8437787249e-01	 1.4151333298e+00	-2.1546557997e+00
 8.5529718489e-01	 1.4328968170e+00	-1.9455427103e+00
 8.2593478736e-01	 1.4500200997e+00	-1.7633889440e+00
 7.9631140174e-01	 1.4664974306e+00	-1.6069595189e+00
 7.6644785214e-01	 1.4823239364e+00	-1.4748895325e+00
 7.3636502004e-01	 1.4974956159e+00	-1.3657019323e+00
 7.0608379999e-01	 1.5120093353e+00	-1.2778254926e+00
 6.7562505608e-01	 1.5258628202e+00	-1.2096128131e+00
 6.4500957940e-01	 1.5390546465e+00	-1.1593581623e+00
 6.1425804657e-01	 1.5515842274e+00	-1.2247989700e+00
 9.1657633689e-01	 1.4019674813e+00	-2.3723996607e+00
 8.8769014917e-01	 1.4204334546e+00	-2.1354024450e+00
 8.5850054513e-01	 1.4382634717e+00	-1.9271747916e+00
 8.2902817608e-01	 1.4554508866e+00	-1.7465223115e+00
 7.9929384144e-01	 1.4719899303e+00	-1.5921023198e+00
 7.6931844334e-01	 1.4878757115e+00	-1.4624417797e+00
 7.3912294146e-01	 1.5031042138e+00	-1.3559556332e+00
 7.0872830860e-01	 1.5176722916e+00	-1.2709653237e+00
 6.7815548701e-01	 1.5315776622e+00	-1.2057173253e+00
 6.4742534562e-01	 1.5448188961e+00	-1.1584014954e+00
 6.1655863851e-01	 1.5573954043e+00	-1.2046713045e+00
 9.1999639785e-01	 1.4071987033e+00	-2.3528175261e+00
 8.9100242585e-01	 1.4257335795e+00	-2.1158107216e+00
 8.6170390538e-01	 1.4436301264e+00	-1.9082978857e+00
 8.3212156479e-01	 1.4608816735e+00	-1.7289780010e+00
 8.0227628115e-01	 1.4774824301e+00	-1.5764007445e+00
 7.7218903455e-01	 1.4934274865e+00	-1.4489850010e+00
 7.4188086289e-01	 1.5087128116e+00	-1.3450377539e+00
 7.1137281722e-01	 1.5233352479e+00	-1.2627731559e+00
 6.8068591793e-01	 1.5372925042e+00	-1.2003315888e+00
 6.4984111183e-01	 1.5505831457e+00	-1.1557985266e+00
 6.1885923044e-01	 1.5632065812e+00	-1.1831171332e+00
 9.2341645881e-01	 1.4124299252e+00	-2.3330492412e+00
 8.9431470253e-01	 1.4310337043e+00	-2.0958631648e+00
 8.6490726562e-01	 1.4489967812e+00	-1.8888973479e+00
 8.3521495351e-01	 1.4663124604e+00	-1.7107442131e+00
 8.0525872086e-01	 1.4829749298e+00	-1.5598458580e+00
 7.7505962576e-01	 1.4989792615e+00	-1.4345131382e+00
 7.4463878431e-01	 1.5143214094e+00	-1.3329451194e+00
 7.1401732584e-01	 1.5289982042e+00	-1.2532486974e+00
 6.8321634885e-01	 1.5430073463e+00	-1.1934581885e+00
 6.5225687805e-01	 1.5563473954e+00	-1.1515547055e+00
 6.2115982238e-01	 1.5690177580e+00	-1.1601385748e+00
 5.9815390303e-01	 1.5109059892e+00	-1.3255234943e+00
 5.6809608500e-01	 1.5224624259e+00	-1.3000056850e+00
 5.3794555745e-01	 1.5333752239e+00	-1.2671732016e+00
 5.0772189143e-01	 1.5436461644e+00	-1.2246953362e+00
 4.7744439878e-01	 1.5532777749e+00	-1.1705252001e+00
 4.4713209913e-01	 1.5622733071e+00	-1.1029136375e+00
 4.1680368873e-01	 1.5706367133e+00	-1.0204199776e+00
 3.8647751120e-01	 1.5783726218e+00	-9.2191964103e-01
 3.5617153006e-01	 1.5854863106e+00	-8.0660865340e-01
 3.2590330336e-01	 1.5919836798e+00	-6.7400514883e-01
 2.9568996018e-01	 1.5978712237e+00	-5.2394797691e-01
 6.0045449497e-01	 1.5167171661e+00	-1.3154604067e+00
 5.7028106994e-01	 1.5283180506e+00	-1.2899584054e+00
 5.4001457882e-01	 1.5392728209e+00	-1.2570456698e+00
 5.0967466794e-01	 1.5495832651e+00	-1.2144241276e+00
 4.7928072339e-01	 1.5592519202e+00	-1.1600805359e+00
 4.4885183797e-01	 1.5682820505e+00	-1.0923004018e+00
 4.1840677985e-01	 1.5766776237e+00	-1.0096787228e+00
 3.8796396317e-01	 1.5844432858e+00	-9.1112756264e-01
 3.5754142057e-01	 1.5915843349e+00	-7.9588051653e-01
 3.2715677760e-01	 1.5981066940e+00	-6.6349414902e-01
 2.9682722926e-01	 1.6040168822e+00	-5.1384651943e-01
 6.0275508690e-01	 1.5225283430e+00	-1.3039493478e+00
 5.7246605488e-01	 1.5341736753e+00	-1.2788378343e+00
 5.4208360019e-01	 1.5451704179e+00	-1.2462128472e+00
 5.1162744444e-01	 1.5555203657e+00	-1.2038078468e+00
 4.8111704800e-01	 1.5652260655e+00	-1.1496421925e+00
 4.5057157681e-01	 1.5742907940e+00	-1.0820350737e+00
 4.2000987096e-01	 1.5827185341e+00	-9.9961624102e-01
 3.8945041514e-01	 1.5905139497e+00	-9.0133355455e-01
 3.5891131107e-01	 1.5976823592e+00	-7.8645740212e-01
 3.2841025185e-01	 1.6042297081e+00	-6.5458207334e-01
 2.9796449834e-01	 1.6101625408e+00	-5.0562420408e-01
 6.0505567883e-01	 1.5283395199e+00	-1.2909941270e+00
 5.7465103982e-01	 1.5400293000e+00	-1.2666454584e+00
 5.4415262157e-01	 1.5510680149e+00	-1.2346739128e+00
 5.1358022095e-01	 1.5614574663e+00	-1.1928433821e+00
 4.8295337262e-01	 1.5712002108e+00	-1.1392047861e+00
 4.5229131566e-01	 1.5802995375e+00	-1.0721100177e+00
 4.2161296207e-01	 1.5887594446e+00	-9.9022266736e-01
 3.9093686710e-01	 1.5965846136e+00	-8.9252554628e-01
 3.6028120157e-01	 1.6037803834e+00	-7.7832505994e-01
 3.2966372609e-01	 1.6103527223e+00	-6.4725251929e-01
 2.9910176742e-01	 1.6163081993e+00	-4.9926250536e-01
 6.0735627077e-01	 1.5341506967e+00	-1.2765982981e+00
 5.7683602476e-01	 1.5458849247e+00	-1.2533825591e+00
 5.4622164294e-01	 1.5569656119e+00	-1.2224278900e+00
 5.1553299745e-01	 1.5673945669e+00	-1.1815275150e+00
 4.8478969723e-01	 1.5771743561e+00	-1.1287628744e+00
 4.5401105450e-01	 1.5863082810e+00	-1.0625175872e+00
 4.2321605318e-01	 1.5948003550e+00	-9.8148817225e-01
 3.9242331907e-01	 1.6026552775e+00	-8.8469154857e-01
 3.6165109207e-01	 1.6098784077e+00	-7.7146936581e-01
 3.3091720034e-01	 1.6164757364e+00	-6.4148925425e-01
 3.0023903650e-01	 1.6224538579e+00	-4.9474311044e-01
 6.0965686270e-01	 1.5399618736e+00	-1.2607651644e+00
 5.7902100971e-01	 1.5517405494e+00	-1.2390502161e+00
 5.4829066432e-01	 1.5628632089e+00	-1.2094736490e+00
 5.1748577396e-01	 1.5733316676e+00	-1.1698569218e+00
 4.8662602184e-01	 1.5831485014e+00	-1.1183109572e+00
 4.5573079334e-01	 1.5923170245e+00	-1.0532501243e+00
 4.2481914429e-01	 1.6008412654e+00	-9.7340296092e-01
 3.9390977104e-01	 1.6087259415e+00	-8.7781965182e-01
 3.6302098257e-01	 1.6159764320e+00	-7.6587631921e-01
 3.3217067458e-01	 1.6225987506e+00	-6.3727621235e-01
 3.0137630558e-01	 1.6285995164e+00	-4.9204791517e-01
 6.1195745464e-01	 1.5457730505e+00	-1.2434977830e+00
 5.8120599465e-01	 1.5575961742e+00	-1.2236493114e+00
 5.5035968569e-01	 1.5687608060e+00	-1.1958099100e+00
 5.1943855046e-01	 1.5792687682e+00	-1.1578281761e+00
 4.8846234645e-01	 1.5891226466e+00	-1.1078434777e+00
 4.5745053219e-01	 1.5983257680e+00	-1.0442999605e+00
 4.2642223540e-01	 1.6068821759e+00	-9.6595727266e-01
 3.9539622300e-01	 1.6147966054e+00	-8.7189802464e-01
 3.6439087307e-01	 1.6220744562e+00	-7.6153204101e-01
 3.3342414882e-01	 1.6287217647e+00	-6.3459749124e-01
 3.0251357465e-01	 1.6347451750e+00	-4.9115902015e-01
 6.1425804657e-01	 1.5515842274e+00	-1.2247989700e+00
 5.8339097959e-01	 1.5634517989e+00	-1.2071805329e+00
 5.5242870707e-01	 1.5746584030e+00	-1.1814352458e+00
 5.2139132697e-01	 1.5852058688e+00	-1.1454377500e+00
 4.9029867106e-01	 1.5950967919e+00	-1.0973548237e+00
 4.5917027103e-01	 1.6043345115e+00	-1.0356594166e+00
 4.2802532651e-01	 1.6129230863e+00	-9.5914138021e-01
 3.9688267497e-01	 1.6208672693e+00	-8.6691491234e-01
 3.6576076357e-01	 1.6281724805e+00	-7.5842277115e-01
 3.3467762307e-01	 1.6348447789e+00	-6.3343734910e-01
 3.0365084373e-01	 1.6408908335e+00	-4.9205872689e-01
 6.1655863851e-01	 1.5573954043e+00	-1.2046713045e+00
 5.8557596453e-01	 1.5693074236e+00	-1.1896443781e+00
 5.5449772844e-01	 1.5805560000e+00	-1.1663480848e+00
 5.2334410348e-01	 1.5911429695e+00	-1.1326820168e+00
 4.9213499567e-01	 1.6010709372e+00	-1.0868393286e+00
 4.6089000987e-01	 1.6103432549e+00	-1.0273208027e+00
 4.2962841762e-01	 1.6189639967e+00	-9.5294558916e-01
 3.9836912694e-01	 1.6269379333e+00	-8.6285863550e-01
 3.6713065407e-01	 1.6342705048e+00	-7.5653486645e-01
 3.3593109731e-01	 1.6409677930e+00	-6.3378020160e-01
 3.0478811281e-01	 1.6470364921e+00	-4.9472953408e-01
 6.1885923044e-01	 1.5632065812e+00	-1.1831171332e+00
 5.8776094948e-01	 1.5751630483e+00	-1.1710411575e+00
 5.5656674982e-01	 1.5864535970e+00	-1.1505467134e+00
 5.2529687998e-01	 1.5970800701e+00	-1.1195572521e+00
 4.9397132028e-01	 1.6070450825e+00	-1.0762912720e+00
 4.6260974872e-01	 1.6163519984e+00	-1.0192764190e+00
 4.3123150873e-01	 1.6250049072e+00	-9.4736023730e-01
 3.9985557890e-01	 1.6330085972e+00	-8.5971758861e-01
 3.6850054457e-01	 1.6403685291e+00	-7.5585479838e-01
 3.3718457155e-01	 1.6470908072e+00	-6.3561061901e-01
 3.0592538188e-01	 1.6531821506e+00	-4.9915413390e-01
 6.2115982238e-01	 1.5690177580e+00	-1.1601385748e+00
 5.8994593442e-01	 1.5810186730e+00	-1.1513709983e+00
 5.5863577119e-01	 1.5923511940e+00	-1.1340292788e+00
 5.2724965649e-01	 1.6030171707e+00	-1.1060596362e+00
 4.9580764489e-01	 1.6130192278e+00	-1.0657048814e+00
 4.6432948756e-01	 1.6223607419e+00	-1.0115185555e+00
 4.3283459984e-01	 1.6310458176e+00	-9.4237569403e-01
 4.0134203087e-01	 1.6390792611e+00	-8.5748023867e-01
 3.6987043507e-01	 1.6464665533e+00	-7.5636915103e-01
 3.3843804579e-01	 1.6532138214e+00	-6.3891332331e-01
 3.0706265096e-01	 1.6593278092e+00	-5.0531540846e-01
 2.9568996018e-01	 1.5978712237e+00	-5.2394797691e-01
 2.6554817929e-01	 1.6031560013e+00	-5.3483298786e-01
 2.3549416968e-01	 1.6078456070e+00	-5.3994113001e-01
 2.0554365323e-01	 1.6119481402e+00	-5.3957942672e-01
 1.7571184935e-01	 1.6154721743e+00	-5.3432527261e-01
 1.4601346159e-01	 1.6184267265e+00	-5.2501541142e-01
 1.1646266625e-01	 1.6208212262e+00	-5.1273310667e-01
 8.7073102826e-02	 1.6226654846e+00	-4.9879371940e-01
 5.7857866443e-02	 1.6239696633e+00	-4.8472891193e-01
 2.8829501977e-02	 1.6247442444e+00	-4.7226969674e-01
 0.0000000000e+00	 1.6250000000e+00	-4.6332854860e-01
 2.9682722926e-01	 1.6040168822e+00	-5.1384651943e-01
 2.6656951844e-01	 1.6093219859e+00	-5.2476361120e-01
 2.3639991649e-01	 1.6140296286e+00	-5.3015960971e-01
 2.0633420574e-01	 1.6181479407e+00	-5.3027689621e-01
 1.7638766416e-01	 1.6216855288e+00	-5.2563259334e-01
 1.4657505183e-01	 1.6246514447e+00	-5.1700762497e-01
 1.1691059958e-01	 1.6270551540e+00	-5.0543393146e-01
 8.7407999377e-02	 1.6289065056e+00	-4.9218005709e-01
 5.8080396699e-02	 1.6302157005e+00	-4.7873533052e-01
 2.8940384678e-02	 1.6309932608e+00	-4.6679286045e-01
 0.0000000000e+00	 1.6312500000e+00	-4.5823156676e-01
 2.9796449834e-01	 1.6101625408e+00	-5.0562420408e-01
 2.6759085759e-01	 1.6154879705e+00	-5.1645061140e-01
 2.3730566329e-01	 1.6202136502e+00	-5.2199918619e-01
 2.0712475826e-01	 1.6243477413e+00	-5.2244783693e-01
 1.7706347897e-01	 1.6278988834e+00	-5.1825363211e-01
 1.4713664207e-01	 1.6308761629e+00	-5.1014193978e-01
 1.1735853291e-01	 1.6332890818e+00	-4.9909368498e-01
 8.7742895928e-02	 1.6351475267e+00	-4.8633094417e-01
 5.8302926956e-02	 1.6364617376e+00	-4.7330109980e-01
 2.9051267378e-02	 1.6372422771e+00	-4.6165977964e-01
 0.0000000000e+00	 1.6375000000e+00	-4.5325280406e-01
 2.9910176742e-01	 1.6163081993e+00	-4.9926250536e-01
 2.6861219675e-01	 1.6216539551e+00	-5.0987780522e-01
 2.3821141010e-01	 1.6263976717e+00	-5.1544602582e-01
 2.0791531077e-01	 1.6305475418e+00	-5.1608076730e-01
 1.7773929377e-01	 1.6341122379e+00	-5.1217925704e-01
 1.4769823231e-01	 1.6371008810e+00	-5.0441156675e-01
 1.1780646625e-01	 1.6395230096e+00	-4.9370790974e-01
 8.8077792478e-02	 1.6413885478e+00	-4.8124423963e-01
 5.8525457212e-02	 1.6427077748e+00	-4.6842637624e-01
 2.9162150079e-02	 1.6434912934e+00	-4.5687288583e-01
 0.0000000000e+00	 1.6437500000e+00	-4.4839694133e-01
 3.0023903650e-01	 1.6224538579e+00	-4.9474311044e-01
 2.6963353590e-01	 1.6278199398e+00	-5.0502919655e-01
 2.3911715691e-01	 1.6325816933e+00	-5.1048645587e-01
 2.0870586329e-01	 1.6367473423e+00	-5.1116433959e-01
 1.7841510858e-01	 1.6403255924e+00	-5.0740044235e-01
 1.4825982255e-01	 1.6433255992e+00	-4.9980979460e-01
 1.1825439958e-01	 1.6457569374e+00	-4.8927219724e-01
 8.8412689028e-02	 1.6476295689e+00	-4.7691782204e-01
 5.8747987468e-02	 1.6489538120e+00	-4.6411130614e-01
 2.9273032779e-02	 1.6497403097e+00	-4.5243457014e-01
 0.0000000000e+00	 1.6500000000e+00	-4.4366858846e-01
 3.0137630558e-01	 1.6285995164e+00	-4.9204791517e-01
 2.7065487505e-01	 1.6339859244e+00	-5.0188897294e-01
 2.4002290372e-01	 1.6387657149e+00	-5.0710696141e-01
 2.0949641580e-01	 1.6429471429e+00	-5.0768733737e-01
 1.7909092338e-01	 1.6465389469e+00	-5.0390826643e-01
 1.4882141279e-01	 1.6495503174e+00	-4.9632998843e-01
 1.1870233291e-01	 1.6519908652e+00	-4.8578218701e-01
 8.8747585577e-02	 1.6538705900e+00	-4.7334958924e-01
 5.8970517724e-02	 1.6551998491e+00	-4.6035602577e-01
 2.9383915478e-02	 1.6559893261e+00	-4.4834718407e-01
 0.0000000000e+00	 1.6562500000e+00	-4.3907228578e-01
 3.0251357465e-01	 1.6347451750e+00	-4.9115902015e-01
 2.7167621420e-01	 1.6401519090e+00	-5.0044150212e-01
 2.4092865052e-01	 1.6449497364e+00	-5.0529418237e-01
 2.1028696831e-01	 1.6491469434e+00	-5.0563867305e-01
 1.7976673819e-01	 1.6527523014e+00	-5.0169390984e-01
 1.4938300302e-01	 1.6557750356e+00	-4.9396558824e-01
 1.1915026624e-01	 1.6582247930e+00	-4.8323356575e-01
 8.9082482126e-02	 1.6601116111e+00	-4.7053745793e-01
 5.9193047979e-02	 1.6614458863e+00	-4.5716066160e-01
 2.9494798178e-02	 1.6622383424e+00	-4.4461304023e-01
 0.0000000000e+00	 1.6625000000e+00	-4.3461250534e-01
 3.0365084373e-01	 1.6408908335e+00	-4.9205872689e-01
 2.7269755335e-01	 1.6463178936e+00	-5.0067132862e-01
 2.4183439733e-01	 1.6511337580e+00	-5.0503491065e-01
 2.1107752082e-01	 1.6553467439e+00	-5.0500738547e-01
 1.8044255299e-01	 1.6589656559e+00	-5.0074865338e-01
 1.4994459326e-01	 1.6619997537e+00	-4.9271010757e-01
 1.1959819957e-01	 1.6644587208e+00	-4.8162206639e-01
 8.9417378675e-02	 1.6663526322e+00	-4.6847936332e-01
 5.9415578234e-02	 1.6676919235e+00	-4.5452533046e-01
 2.9605680878e-02	 1.6684873587e+00	-4.4123441308e-01
 0.0000000000e+00	 1.6687500000e+00	-4.3029365217e-01
 3.0478811281e-01	 1.6470364921e+00	-4.9472953408e-01
 2.7371889250e-01	 1.6524838782e+00	-5.0256317046e-01
 2.4274014413e-01	 1.6573177795e+00	-5.0631608728e-01
 2.1186807333e-01	 1.6615465445e+00	-5.0578263754e-01
 1.8111836780e-01	 1.6651790104e+00	-5.0106387628e-01
 1.5050618349e-01	 1.6682244719e+00	-4.9255713212e-01
 1.2004613290e-01	 1.6706926486e+00	-4.8094346727e-01
 8.9752275223e-02	 1.6725936533e+00	-4.6717325883e-01
 5.9638108488e-02	 1.6739379606e+00	-4.5245013973e-01
 2.9716563577e-02	 1.6747363750e+00	-4.3821353964e-01
 0.0000000000e+00	 1.6750000000e+00	-4.2612006557e-01
 3.0592538188e-01	 1.6531821506e+00	-4.9915413390e-01
 2.7474023165e-01	 1.6586498629e+00	-5.0610191599e-01
 2.4364589094e-01	 1.6635018011e+00	-5.0912479962e-01
 2.1265862584e-01	 1.6677463450e+00	-5.0795371393e-01
 1.8179418260e-01	 1.6713923650e+00	-5.0263105431e-01
 1.5106777373e-01	 1.6744491901e+00	-4.9350031838e-01
 1.2049406623e-01	 1.6769265764e+00	-4.8119359128e-01
 9.0087171770e-02	 1.6788346744e+00	-4.6661711570e-01
 5.9860638742e-02	 1.6801839978e+00	-4.5093518751e-01
 2.9827446276e-02	 1.6809853914e+00	-4.3555262018e-01
 0.0000000000e+00	 1.6812500000e+00	-4.2209602033e-01
 3.0706265096e-01	 1.6593278092e+00	-5.0531540846e-01
 2.7576157080e-01	 1.6648158475e+00	-5.1127262064e-01
 2.4455163774e-01	 1.6696858227e+00	-5.1344827869e-01
 2.1344917835e-01	 1.6739461456e+00	-5.1151001880e-01
 1.8246999740e-01	 1.6776057195e+00	-5.0544175802e-01
 1.5162936396e-01	 1.6806739083e+00	-4.9553339235e-01
 1.2094199956e-01	 1.6831605042e+00	-4.8236830504e-01
 9.0422068317e-02	 1.6850756955e+00	-4.6680892267e-01
 6.0083168996e-02	 1.6864300350e+00	-4.4998056280e-01
 2.9938328975e-02	 1.6872344077e+00	-4.3325381888e-01
 0.0000000000e+00	 1.6875000000e+00	-4.1822572788e-01
 1.6875000000e+00	 0.0000000000e+00	 3.5164303842e+00
 1.6872344077e+00	 2.9938328975e-02	 3.5005950212e+00
 1.6864300350e+00	 6.0083168996e-02	 3.4741588897e+00
 1.6850756955e+00	 9.0422068317e-02	 3.4354849482e+00
 1.6831605042e+00	 1.2094199956e-01	 3.3833627785e+00
 1.6806739083e+00	 1.5162936396e-01	 3.3170388317e+00
 1.6776057195e+00	 1.8246999740e-01	 3.2362444584e+00
 1.6739461456e+00	 2.1344917835e-01	 3.1412213097e+00
 1.6696858227e+00	 2.4455163774e-01	 3.0327436969e+00
 1.6648158475e+00	 2.7576157080e-01	 2.9121374994e+00
 1.6593278092e+00	 3.0706265096e-01	 2.7812952229e+00
 1.6937500000e+00	 0.0000000000e+00	 3.5137406032e+00
 1.6934834240e+00	 3.0049211674e-02	 3.4957253298e+00
 1.6926760721e+00	 6.0305699250e-02	 3.4672597575e+00
 1.6913167166e+00	 9.0756964864e-02	 3.4267171340e+00
 1.6893944319e+00	 1.2138993289e-01	 3.3729017512e+00
 1.6868986265e+00	 1.5219095419e-01	 3.3050793930e+00
 1.6838190740e+00	 1.8314581220e-01	 3.2230055387e+00
 1.6801459461e+00	 2.1423973086e-01	 3.1269509032e+00
 1.6758698442e+00	 2.4545738454e-01	 3.0177238986e+00
 1.6709818321e+00	 2.7678290995e-01	 2.8966896030e+00
 1.6654734677e+00	 3.0819992003e-01	 2.7657848339e+00
 1.7000000000e+00	 0.0000000000e+00	 3.5115072253e+00
 1.6997324403e+00	 3.0160094373e-02	 3.4914005618e+00
 1.6989221093e+00	 6.0528229504e-02	 3.4609734702e+00
 1.6975577377e+00	 9.1091861412e-02	 3.4186090586e+00
 1.6956283597e+00	 1.2183786622e-01	 3.3631259735e+00
 1.6931233446e+00	 1.5275254443e-01	 3.2938090552e+00
 1.6900324285e+00	 1.8382162700e-01	 3.2104377178e+00
 1.6863457466e+00	 2.1503028337e-01	 3.1133116343e+00
 1.6820538658e+00	 2.4636313135e-01	 3.0032733028e+00
 1.6771478167e+00	 2.7780424910e-01	 2.8817270802e+00
 1.6716191263e+00	 3.0933718911e-01	 2.7506542744e+00
 1.7062500000e+00	 0.0000000000e+00	 3.5097210331e+00
 1.7059814567e+00	 3.0270977073e-02	 3.4876107816e+00
 1.7051681465e+00	 6.0750759759e-02	 3.4552893782e+00
 1.7037987588e+00	 9.1426757960e-02	 3.4111493638e+00
 1.7018622875e+00	 1.2228579955e-01	 3.3540233861e+00
 1.6993480628e+00	 1.5331413466e-01	 3.2832150671e+00
 1.6962457830e+00	 1.8449744181e-01	 3.1985275648e+00
 1.6925455472e+00	 2.1582083588e-01	 3.1002894060e+00
 1.6882378874e+00	 2.4726887815e-01	 2.9893771631e+00
 1.6833138014e+00	 2.7882558825e-01	 2.8672345549e+00
 1.6777647849e+00	 3.1047445819e-01	 2.7358875609e+00
 1.7125000000e+00	 0.0000000000e+00	 3.5083729439e+00
 1.7122304730e+00	 3.0381859772e-02	 3.4843461950e+00
 1.7114141836e+00	 6.0973290014e-02	 3.4501969784e+00
 1.7100397799e+00	 9.1761654508e-02	 3.4043268421e+00
 1.7080962153e+00	 1.2273373288e-01	 3.3455820836e+00
 1.7055727810e+00	 1.5387572490e-01	 3.2732848334e+00
 1.7024591376e+00	 1.8517325661e-01	 3.1872618043e+00
 1.6987453477e+00	 2.1661138839e-01	 3.0878702760e+00
 1.6944219089e+00	 2.4817462496e-01	 2.9760208857e+00
 1.6894797860e+00	 2.7984692740e-01	 2.8531967998e+00
 1.6839104434e+00	 3.1161172726e-01	 2.7214688539e+00
 1.7187500000e+00	 0.0000000000e+00	 3.5074540068e+00
 1.7184794893e+00	 3.0492742472e-02	 3.4815971462e+00
 1.7176602208e+00	 6.1195820269e-02	 3.4456859118e+00
 1.7162808010e+00	 9.2096551057e-02	 3.3981304345e+00
 1.7143301431e+00	 1.2318166621e-01	 3.3377903113e+00
 1.7117974992e+00	 1.5443731514e-01	 3.2640059110e+00
 1.7086724921e+00	 1.8584907142e-01	 3.1766273140e+00
 1.7049451483e+00	 2.1740194090e-01	 3.0760404542e+00
 1.7006059305e+00	 2.4908037176e-01	 2.9631900263e+00
 1.6956457706e+00	 2.8086826655e-01	 2.8395987334e+00
 1.6900561020e+00	 3.1274899634e-01	 2.7073824544e+00
 1.7250000000e+00	 0.0000000000e+00	 3.5069554009e+00
 1.7247285056e+00	 3.0603625172e-02	 3.4793541156e+00
 1.7239062580e+00	 6.1418350525e-02	 3.4417459605e+00
 1.7225218221e+00	 9.2431447606e-02	 3.3925492269e+00
 1.7205640709e+00	 1.2362959954e-01	 3.3306364629e+00
 1.7180222174e+00	 1.5499890537e-01	 3.2553660068e+00
 1.7148858466e+00	 1.8652488622e-01	 3.1666111219e+00
 1.7111449488e+00	 2.1819249342e-01	 3.0647862994e+00
 1.7067899521e+00	 2.4998611857e-01	 2.9508702878e+00
 1.7018117552e+00	 2.8188960570e-01	 2.8264254179e+00
 1.6962017605e+00	 3.1388626542e-01	 2.6936128023e+00
 1.7312500000e+00	 0.0000000000e+00	 3.5068684325e+00
 1.7309775220e+00	 3.0714507872e-02	 3.4776077173e+00
 1.7301522951e+00	 6.1640880780e-02	 3.4383670458e+00
 1.7287628432e+00	 9.2766344156e-02	 3.3875724482e+00
 1.7267979987e+00	 1.2407753288e-01	 3.3241090778e+00
 1.7242469355e+00	 1.5556049561e-01	 3.2473529749e+00
 1.7210992011e+00	 1.8720070103e-01	 3.1572004033e+00
 1.7173447493e+00	 2.1898304593e-01	 3.0540943174e+00
 1.7129739736e+00	 2.5089186538e-01	 2.9390475172e+00
 1.7079777398e+00	 2.8291094485e-01	 2.8136620561e+00
 1.7023474191e+00	 3.1502353450e-01	 2.6801444732e+00
 1.7375000000e+00	 0.0000000000e+00	 3.5071845332e+00
 1.7372265383e+00	 3.0825390572e-02	 3.4763486964e+00
 1.7363983323e+00	 6.1863411037e-02	 3.4355392247e+00
 1.7350038643e+00	 9.3101240706e-02	 3.3831894674e+00
 1.7330319265e+00	 1.2452546621e-01	 3.3181968379e+00
 1.7304716537e+00	 1.5612208585e-01	 3.2399548138e+00
 1.7273125556e+00	 1.8787651583e-01	 3.1483824784e+00
 1.7235445499e+00	 2.1977359844e-01	 3.0439511574e+00
 1.7191579952e+00	 2.5179761218e-01	 2.9277077034e+00
 1.7141437245e+00	 2.8393228400e-01	 2.8012939889e+00
 1.7084930776e+00	 3.1616080358e-01	 2.6669621762e+00
 1.7437500000e+00	 0.0000000000e+00	 3.5078952572e+00
 1.7434755546e+00	 3.0936273273e-02	 3.4755679271e+00
 1.7426443695e+00	 6.2085941293e-02	 3.4332526885e+00
 1.7412448853e+00	 9.3436137257e-02	 3.3793897914e+00
 1.7392658543e+00	 1.2497339954e-01	 3.3128885659e+00
 1.7366963719e+00	 1.5668367609e-01	 3.2331596639e+00
 1.7335259101e+00	 1.8855233064e-01	 3.1401448096e+00
 1.7297443504e+00	 2.2056415096e-01	 3.0343436103e+00
 1.7253420168e+00	 2.5270335899e-01	 2.9168369745e+00
 1.7203097091e+00	 2.8495362316e-01	 2.7893066934e+00
 1.7146387362e+00	 3.1729807266e-01	 2.6540507515e+00
 1.7500000000e+00	 0.0000000000e+00	 3.5089922796e+00
 1.7497245709e+00	 3.1047155973e-02	 3.4752564103e+00
 1.7488904066e+00	 6.2308471550e-02	 3.4314977598e+00
 1.7474859064e+00	 9.3771033808e-02	 3.3761630620e+00
 1.7454997821e+00	 1.2542133288e-01	 3.3081732223e+00
 1.7429210901e+00	 1.5724526633e-01	 3.2269558050e+00
 1.7397392647e+00	 1.8922814545e-01	 3.1324749990e+00
 1.7359441510e+00	 2.2135470347e-01	 3.0252586057e+00
 1.7315260383e+00	 2.5360910580e-01	 2.9064215951e+00
 1.7264756937e+00	 2.8597496231e-01	 2.7776857796e+00
 1.7207843947e+00	 3.1843534174e-01	 2.6413951680e+00
 1.6593278092e+00	 3.0706265096e-01	 2.7812952229e+00
 1.6532138214e+00	 3.3843804579e-01	 2.6802892220e+00
 1.6464665533e+00	 3.6987043507e-01	 2.5584680162e+00
 1.6390792611e+00	 4.0134203087e-01	 2.4183452311e+00
 1.6310458176e+00	 4.3283459984e-01	 2.2630344190e+00
 1.6223607419e+00	 4.6432948756e-01	 2.0962447042e+00
 1.6130192278e+00	 4.9580764489e-01	 1.9222708267e+00
 1.6030171707e+00	 5.2724965649e-01	 1.7459773999e+00
 1.5923511940e+00	 5.5863577119e-01	 1.5727772527e+00
 1.5810186730e+00	 5.8994593442e-01	 1.4086037907e+00
 1.5690177580e+00	 6.2115982238e-01	 1.2598773755e+00
 1.6654734677e+00	 3.0819992003e-01	 2.7657848339e+00
 1.6593368355e+00	 3.3969152004e-01	 2.6623393541e+00
 1.6525645776e+00	 3.7124032557e-01	 2.5388065856e+00
 1.6451499250e+00	 4.0282848283e-01	 2.3977890948e+00
 1.6370867280e+00	 4.3443769095e-01	 2.2424941047e+00
 1.6283694854e+00	 4.6604922640e-01	 2.0767287752e+00
 1.6189933731e+00	 4.9764396950e-01	 1.9048898171e+00
 1.6089542714e+00	 5.2920243300e-01	 1.7319472568e+00
 1.5982487910e+00	 5.6070479257e-01	 1.5634222222e+00
 1.5868742977e+00	 5.9213091937e-01	 1.4053586857e+00
 1.5748289349e+00	 6.2346041432e-01	 1.2642891656e+00
 1.6716191263e+00	 3.0933718911e-01	 2.7506542744e+00
 1.6654598497e+00	 3.4094499428e-01	 2.6447336710e+00
 1.6586626019e+00	 3.7261021607e-01	 2.5194311947e+00
 1.6512205890e+00	 4.0431493480e-01	 2.3774386611e+00
 1.6431276385e+00	 4.3604078206e-01	 2.2220573769e+00
 1.6343782289e+00	 4.6776896524e-01	 2.0571930543e+00
 1.6249675184e+00	 4.9948029412e-01	 1.8873449972e+00
 1.6148913720e+00	 5.3115520950e-01	 1.7175893708e+00
 1.6041463881e+00	 5.6277381395e-01	 1.5535564304e+00
 1.5927299224e+00	 5.9431590431e-01	 1.4014016437e+00
 1.5806401118e+00	 6.2576100625e-01	 1.2642101851e+00
 1.6777647849e+00	 3.1047445819e-01	 2.7358875609e+00
 1.6715828638e+00	 3.4219846852e-01	 2.6274546042e+00
 1.6647606261e+00	 3.7398010657e-01	 2.5003227350e+00
 1.6572912529e+00	 4.0580138676e-01	 2.3572733325e+00
 1.6491685489e+00	 4.3764387317e-01	 2.2017022049e+00
 1.6403869724e+00	 4.6948870409e-01	 2.0376141406e+00
 1.6309416637e+00	 5.0131661873e-01	 1.8696116639e+00
 1.6208284726e+00	 5.3310798601e-01	 1.7028778113e+00
 1.6100439851e+00	 5.6484283532e-01	 1.5431528001e+00
 1.5985855472e+00	 5.9650088926e-01	 1.3967045283e+00
 1.5864512887e+00	 6.2806159819e-01	 1.2557008311e+00
 1.6839104434e+00	 3.1161172726e-01	 2.7214688539e+00
 1.6777058780e+00	 3.4345194277e-01	 2.6104847370e+00
 1.6708586504e+00	 3.7534999707e-01	 2.4814622563e+00
 1.6633619168e+00	 4.0728783873e-01	 2.3372726741e+00
 1.6552094594e+00	 4.3924696429e-01	 2.1814067242e+00
 1.6463957159e+00	 4.7120844293e-01	 2.0179688000e+00
 1.6369158090e+00	 5.0315294334e-01	 1.8516652807e+00
 1.6267655733e+00	 5.3506076252e-01	 1.6877868118e+00
 1.6159415821e+00	 5.6691185670e-01	 1.5321844138e+00
 1.6044411719e+00	 5.9868587420e-01	 1.3912393566e+00
 1.5922624656e+00	 6.3036219013e-01	 1.2458350392e+00
 1.6900561020e+00	 3.1274899634e-01	 2.7073824544e+00
 1.6838288921e+00	 3.4470541701e-01	 2.5938068016e+00
 1.6769566747e+00	 3.7671988757e-01	 2.4628309636e+00
 1.6694325808e+00	 4.0877429070e-01	 2.3174164110e+00
 1.6612503698e+00	 4.4085005540e-01	 2.1611492329e+00
 1.6524044594e+00	 4.7292818178e-01	 1.9982339626e+00
 1.6428899542e+00	 5.0498926795e-01	 1.8334814741e+00
 1.6327026739e+00	 5.3701353902e-01	 1.6722907667e+00
 1.6218391791e+00	 5.6898087808e-01	 1.5206245109e+00
 1.6102967966e+00	 6.0087085914e-01	 1.3849782961e+00
 1.5980736424e+00	 6.3266278206e-01	 1.2346280979e+00
 1.6962017605e+00	 3.1388626542e-01	 2.6936128023e+00
 1.6899519063e+00	 3.4595889125e-01	 2.5774036765e+00
 1.6830546990e+00	 3.7808977807e-01	 2.4444102144e+00
 1.6755032447e+00	 4.1026074266e-01	 2.2976844252e+00
 1.6672912802e+00	 4.4245314651e-01	 2.1409081890e+00
 1.6584132029e+00	 4.7464792062e-01	 1.9783867195e+00
 1.6488640995e+00	 5.0682559256e-01	 1.8150360315e+00
 1.6386397745e+00	 5.3896631553e-01	 1.6563642285e+00
 1.6277367761e+00	 5.7104989945e-01	 1.5084464846e+00
 1.6161524213e+00	 6.0305584409e-01	 1.3778936628e+00
 1.6038848193e+00	 6.3496337400e-01	 1.2220954360e+00
 1.7023474191e+00	 3.1502353450e-01	 2.6801444732e+00
 1.6960749204e+00	 3.4721236550e-01	 2.5612583837e+00
 1.6891527232e+00	 3.7945966857e-01	 2.4261815157e+00
 1.6815739086e+00	 4.1174719463e-01	 2.2780567530e+00
 1.6733321907e+00	 4.4405623762e-01	 2.1206622074e+00
 1.6644219464e+00	 4.7636765946e-01	 1.9584043197e+00
 1.6548382448e+00	 5.0866191718e-01	 1.7963048974e+00
 1.6445768752e+00	 5.4091909204e-01	 1.6399819049e+00
 1.6336343731e+00	 5.7311892083e-01	 1.4956238794e+00
 1.6220080460e+00	 6.0524082903e-01	 1.3699579177e+00
 1.6096959962e+00	 6.3726396594e-01	 1.2082526197e+00
 1.7084930776e+00	 3.1616080358e-01	 2.6669621762e+00
 1.7021979346e+00	 3.4846583974e-01	 2.5453540863e+00
 1.6952507475e+00	 3.8082955907e-01	 2.4081265216e+00
 1.6876445726e+00	 4.1323364660e-01	 2.2585135819e+00
 1.6793731011e+00	 4.4565932873e-01	 2.1003900572e+00
 1.6704306899e+00	 4.7808739831e-01	 1.9382641676e+00
 1.6608123901e+00	 5.1049824179e-01	 1.7772641714e+00
 1.6505139758e+00	 5.4287186854e-01	 1.6231186562e+00
 1.6395319702e+00	 5.7518794221e-01	 1.4821303883e+00
 1.6278636707e+00	 6.0742581398e-01	 1.3611436646e+00
 1.6155071731e+00	 6.3956455787e-01	 1.1931153508e+00
 1.7146387362e+00	 3.1729807266e-01	 2.6540507515e+00
 1.7083209488e+00	 3.4971931399e-01	 2.5296740859e+00
 1.7013487718e+00	 3.8219944957e-01	 2.3902270306e+00
 1.6937152365e+00	 4.1472009857e-01	 2.2390352481e+00
 1.6854140115e+00	 4.4726241984e-01	 2.0800706589e+00
 1.6764394333e+00	 4.7980713715e-01	 1.9179438201e+00
 1.6667865354e+00	 5.1233456640e-01	 1.7578901046e+00
 1.6564510764e+00	 5.4482464505e-01	 1.6057494921e+00
 1.6454295672e+00	 5.7725696358e-01	 1.4679398497e+00
 1.6337192955e+00	 6.0961079892e-01	 1.3514236475e+00
 1.6213183500e+00	 6.4186514981e-01	 1.1766994637e+00
 1.7207843947e+00	 3.1843534174e-01	 2.6413951680e+00
 1.7144439629e+00	 3.5097278823e-01	 2.5142018199e+00
 1.7074467961e+00	 3.8356934007e-01	 2.3724649828e+00
 1.6997859004e+00	 4.1620655053e-01	 2.2196022340e+00
 1.6914549220e+00	 4.4886551095e-01	 2.0596830815e+00
 1.6824481768e+00	 4.8152687600e-01	 1.8974209838e+00
 1.6727606807e+00	 5.1417089101e-01	 1.7381590976e+00
 1.6623881771e+00	 5.4677742156e-01	 1.5878495695e+00
 1.6513271642e+00	 5.7932598496e-01	 1.4530262456e+00
 1.6395749202e+00	 6.1179578386e-01	 1.3407707480e+00
 1.6271295269e+00	 6.4416574175e-01	 1.1590209234e+00
 1.5690177580e+00	 6.2115982238e-01	 1.2598773755e+00
 1.5563473954e+00	 6.5225687805e-01	 1.0947200492e+00
 1.5430073463e+00	 6.8321634885e-01	 9.1861293454e-01
 1.5289982042e+00	 7.1401732584e-01	 7.5053721436e-01
 1.5143214094e+00	 7.4463878431e-01	 5.9227911826e-01
 1.4989792615e+00	 7.7505962576e-01	 4.4566404186e-01
 1.4829749298e+00	 8.0525872086e-01	 3.1256852036e-01
 1.4663124604e+00	 8.3521495351e-01	 1.9493158274e-01
 1.4489967812e+00	 8.6490726562e-01	 9.4765243648e-02
 1.4310337043e+00	 8.9431470253e-01	 1.4163893957e-02
 1.4124299252e+00	 9.2341645881e-01	-4.4687642585e-02
 1.5748289349e+00	 6.2346041432e-01	 1.2642891656e+00
 1.5621116450e+00	 6.5467264427e-01	 1.0927396080e+00
 1.5487221883e+00	 6.8574677978e-01	 9.1972271184e-01
 1.5346611605e+00	 7.1666183445e-01	 7.5397233935e-01
 1.5199300072e+00	 7.4739670574e-01	 5.9719377142e-01
 1.5045310366e+00	 7.7793021697e-01	 4.5113550780e-01
 1.4884674296e+00	 8.0824116057e-01	 3.1760188804e-01
 1.4717432473e+00	 8.3830834223e-01	 1.9846507519e-01
 1.4543634359e+00	 8.6811062587e-01	 9.5676153337e-02
 1.4363338291e+00	 8.9762697921e-01	 1.1275093250e-02
 1.4176611471e+00	 9.2683651977e-01	-5.2600652399e-02
 1.5806401118e+00	 6.2576100625e-01	 1.2642101851e+00
 1.5678758946e+00	 6.5708841049e-01	 1.0892532627e+00
 1.5544370303e+00	 6.8827721070e-01	 9.1921199506e-01
 1.5403241168e+00	 7.1930634307e-01	 7.5567694733e-01
 1.5255386050e+00	 7.5015462717e-01	 6.0027229174e-01
 1.5100828116e+00	 7.8080080818e-01	 4.5466947919e-01
 1.4939599293e+00	 8.1122360028e-01	 3.2060051006e-01
 1.4771740341e+00	 8.4140173095e-01	 1.9987055017e-01
 1.4597300907e+00	 8.7131398612e-01	 9.4369636511e-02
 1.4416339540e+00	 9.0093925588e-01	 6.0832205602e-03
 1.4228923691e+00	 9.3025658074e-01	-6.2898695688e-02
 1.5864512887e+00	 6.2806159819e-01	 1.2557008311e+00
 1.5736401442e+00	 6.5950417670e-01	 1.0842789596e+00
 1.5601518723e+00	 6.9080764163e-01	 9.1710156021e-01
 1.5459870731e+00	 7.2195085169e-01	 7.5567451909e-01
 1.5311472028e+00	 7.5291254859e-01	 6.0154073219e-01
 1.5156345867e+00	 7.8367139939e-01	 4.5629444096e-01
 1.4994524290e+00	 8.1420603999e-01	 3.2159515581e-01
 1.4826048210e+00	 8.4449511967e-01	 1.9918090711e-01
 1.4650967454e+00	 8.7451734636e-01	 9.0880561761e-02
 1.4469340788e+00	 9.0425153256e-01	-1.3750533852e-03
 1.4281235910e+00	 9.3367664170e-01	-7.5543472217e-02
 1.5922624656e+00	 6.3036219013e-01	 1.2458350392e+00
 1.5794043938e+00	 6.6191994292e-01	 1.0778347643e+00
 1.5658667144e+00	 6.9333807255e-01	 9.1341227737e-01
 1.5516500294e+00	 7.2459536031e-01	 7.5398860559e-01
 1.5367558006e+00	 7.5567047002e-01	 6.0102519322e-01
 1.5211863617e+00	 7.8654199060e-01	 4.5603890411e-01
 1.5049449288e+00	 8.1718847970e-01	 3.2061660072e-01
 1.4880356079e+00	 8.4758850839e-01	 1.9642903291e-01
 1.4704634001e+00	 8.7772070661e-01	 8.5243767931e-02
 1.4522342036e+00	 9.0756380924e-01	-1.1063103290e-02
 1.4333548130e+00	 9.3709670266e-01	-9.0496741335e-02
 1.5980736424e+00	 6.3266278206e-01	 1.2346280979e+00
 1.5851686434e+00	 6.6433570914e-01	 1.0699388595e+00
 1.5715815564e+00	 6.9586850347e-01	 9.0816510904e-01
 1.5573129857e+00	 7.2723986892e-01	 7.5064282669e-01
 1.5423643984e+00	 7.5842839145e-01	 5.9875182189e-01
 1.5267381367e+00	 7.8941258181e-01	 4.5393140528e-01
 1.5104374285e+00	 8.2017091941e-01	 3.1769562620e-01
 1.4934663948e+00	 8.5068189711e-01	 1.9164780208e-01
 1.4758300549e+00	 8.8092406686e-01	 7.7494064657e-02
 1.4575343284e+00	 9.1087608592e-01	-2.2944348463e-02
 1.4385860349e+00	 9.4051676362e-01	-1.0772032089e-01
 1.6038848193e+00	 6.3496337400e-01	 1.2220954360e+00
 1.5909328930e+00	 6.6675147536e-01	 1.0606095429e+00
 1.5772963984e+00	 6.9839893440e-01	 9.0138110841e-01
 1.5629759420e+00	 7.2988437754e-01	 7.4566086991e-01
 1.5479729962e+00	 7.6118631287e-01	 5.9474681106e-01
 1.5322899118e+00	 7.9228317302e-01	 4.5000050626e-01
 1.5159299282e+00	 8.2315335912e-01	 3.1286301949e-01
 1.4988971817e+00	 8.5377528583e-01	 1.8487007706e-01
 1.4811967096e+00	 8.8412742710e-01	 6.7666232900e-02
 1.4628344533e+00	 9.1418836260e-01	-3.6982252010e-02
 1.4438172568e+00	 9.4393682458e-01	-1.2717608615e-01
 1.6096959962e+00	 6.3726396594e-01	 1.2082526197e+00
 1.5966971426e+00	 6.6916724157e-01	 1.0498652250e+00
 1.5830112404e+00	 7.0092936532e-01	 8.9308141775e-01
 1.5686388984e+00	 7.3252888616e-01	 7.3906648916e-01
 1.5535815940e+00	 7.6394423430e-01	 5.8903639850e-01
 1.5378416868e+00	 7.9515376423e-01	 4.4427479355e-01
 1.5214224280e+00	 8.2613579883e-01	 3.0614957356e-01
 1.5043279686e+00	 8.5686867455e-01	 1.7612870838e-01
 1.4865633644e+00	 8.8733078735e-01	 5.5795025463e-02
 1.4681345781e+00	 9.1750063928e-01	-5.3140320044e-02
 1.4490484788e+00	 9.4735688554e-01	-1.4882596882e-01
 1.6155071731e+00	 6.3956455787e-01	 1.1931153508e+00
 1.6024613922e+00	 6.7158300779e-01	 1.0377244270e+00
 1.5887260824e+00	 7.0345979625e-01	 8.8328726684e-01
 1.5743018547e+00	 7.3517339477e-01	 7.3088350359e-01
 1.5591901919e+00	 7.6670215572e-01	 5.8164686614e-01
 1.5433934619e+00	 7.9802435544e-01	 4.3678287789e-01
 1.5269149277e+00	 8.2911823854e-01	 2.9758608702e-01
 1.5097587555e+00	 8.5996206327e-01	 1.6545653487e-01
 1.4919300191e+00	 8.9053414759e-01	 4.1915167493e-02
 1.4734347029e+00	 9.2081291596e-01	-7.1382100912e-02
 1.4542797007e+00	 9.5077694650e-01	-1.7263195596e-01
 1.6213183500e+00	 6.4186514981e-01	 1.1766994637e+00
 1.6082256419e+00	 6.7399877401e-01	 1.0242057791e+00
 1.5944409245e+00	 7.0599022717e-01	 8.7201997133e-01
 1.5799648110e+00	 7.3781790339e-01	 7.2113579643e-01
 1.5647987897e+00	 7.6946007715e-01	 5.7260453925e-01
 1.5489452369e+00	 8.0089494665e-01	 4.2755339384e-01
 1.5324074275e+00	 8.3210067825e-01	 2.8720336402e-01
 1.5151895424e+00	 8.6305545199e-01	 1.5288638390e-01
 1.4972966739e+00	 8.9373750784e-01	 2.6061356981e-02
 1.4787348277e+00	 9.2412519264e-01	-9.1671184436e-02
 1.4595109227e+00	 9.5419700747e-01	-1.9855608903e-01
 1.6271295269e+00	 6.4416574175e-01	 1.1590209234e+00
 1.6139898915e+00	 6.7641454023e-01	 1.0093280184e+00
 1.6001557665e+00	 7.0852065810e-01	 8.5930093126e-01
 1.5856277673e+00	 7.4046241201e-01	 7.0984731379e-01
 1.5704073875e+00	 7.7221799858e-01	 5.6193578567e-01
 1.5544970119e+00	 8.0376553786e-01	 4.1661499938e-01
 1.5378999272e+00	 8.3508311796e-01	 2.7503221413e-01
 1.5206203292e+00	 8.6614884071e-01	 1.3845107158e-01
 1.5026633286e+00	 8.9694086809e-01	 8.2682652472e-03
 1.4840349526e+00	 9.2743746932e-01	-1.1397120117e-01
 1.4647421446e+00	 9.5761706843e-01	-2.2656046293e-01
 1.4124299252e+00	 9.2341645881e-01	-4.4687642585e-02
 1.3931930193e+00	 9.5219192440e-01	-4.0837033525e-01
 1.3733314358e+00	 9.8062073061e-01	-7.6287959133e-01
 1.3528544884e+00	 1.0086827961e+00	-1.1038172892e+00
 1.3317723433e+00	 1.0363583722e+00	-1.4265831730e+00
 1.3100960040e+00	 1.0636280883e+00	-1.7263833667e+00
 1.2878372943e+00	 1.0904729952e+00	-1.9982418145e+00
 1.2650088371e+00	 1.1168746090e+00	-2.2370146767e+00
 1.2416240312e+00	 1.1428149523e+00	-2.2898928337e+00
 1.2176970262e+00	 1.1682765950e+00	-2.0568163826e+00
 1.1932426933e+00	 1.1932426932e+00	-1.8118877380e+00
 1.4176611471e+00	 9.2683651977e-01	-5.2600652399e-02
 1.3983529935e+00	 9.5571856116e-01	-4.1594667814e-01
 1.3784178486e+00	 9.8425265924e-01	-7.6810296547e-01
 1.3578650606e+00	 1.0124186583e+00	-1.1046364023e+00
 1.3367048334e+00	 1.0401967366e+00	-1.4209150378e+00
 1.3149482115e+00	 1.0675674516e+00	-1.7121166677e+00
 1.2926070621e+00	 1.0945117841e+00	-1.9732403512e+00
 1.2696940550e+00	 1.1210111816e+00	-2.1991208884e+00
 1.2462226387e+00	 1.1470476002e+00	-2.3179651009e+00
 1.2222070152e+00	 1.1726035454e+00	-2.0616093288e+00
 1.1976621106e+00	 1.1976621106e+00	-1.7909124522e+00
 1.4228923691e+00	 9.3025658074e-01	-6.2898695688e-02
 1.4035129676e+00	 9.5924519792e-01	-4.2584642550e-01
 1.3835042613e+00	 9.8788458788e-01	-7.7560837543e-01
 1.3628756328e+00	 1.0161545205e+00	-1.1077168032e+00
 1.3416373236e+00	 1.0440351009e+00	-1.4175083370e+00
 1.3198004189e+00	 1.0715068149e+00	-1.7001326300e+00
 1.2973768298e+00	 1.0985505730e+00	-1.9505639509e+00
 1.2743792729e+00	 1.1251477542e+00	-2.1636157415e+00
 1.2508212463e+00	 1.1512802482e+00	-2.3339581306e+00
 1.2267170041e+00	 1.1769304957e+00	-2.0688747970e+00
 1.2020815280e+00	 1.2020815280e+00	-1.7725197543e+00
 1.4281235910e+00	 9.3367664170e-01	-7.5543472217e-02
 1.4086729417e+00	 9.6277183468e-01	-4.3803136341e-01
 1.3885906740e+00	 9.9151651651e-01	-7.8535761388e-01
 1.3678862050e+00	 1.0198903827e+00	-1.1130202115e+00
 1.3465698137e+00	 1.0478734653e+00	-1.4163246381e+00
 1.3246526263e+00	 1.0754461782e+00	-1.6903925898e+00
 1.3021465976e+00	 1.1025893618e+00	-1.9301736398e+00
 1.2790644908e+00	 1.1292843269e+00	-2.1304598739e+00
 1.2554198538e+00	 1.1555128962e+00	-2.2859034901e+00
 1.2312269931e+00	 1.1812574461e+00	-2.0786317965e+00
 1.2065009454e+00	 1.2065009454e+00	-1.7567282645e+00
 1.4333548130e+00	 9.3709670266e-01	-9.0496741335e-02
 1.4138329159e+00	 9.6629847144e-01	-4.5246332765e-01
 1.3936770867e+00	 9.9514844515e-01	-7.9731251551e-01
 1.3728967771e+00	 1.0236262449e+00	-1.1205083835e+00
 1.3515023039e+00	 1.0517118296e+00	-1.4173255419e+00
 1.3295048337e+00	 1.0793855414e+00	-1.6828579158e+00
 1.3069163653e+00	 1.1066281507e+00	-1.9120304780e+00
 1.2837497087e+00	 1.1334208995e+00	-2.0996139617e+00
 1.2600184613e+00	 1.1597455441e+00	-2.2402425432e+00
 1.2357369821e+00	 1.1855843964e+00	-2.0908993892e+00
 1.2109203628e+00	 1.2109203628e+00	-1.7435566656e+00
 1.4385860349e+00	 9.4051676362e-01	-1.0772032089e-01
 1.4189928900e+00	 9.6982510820e-01	-4.6910420284e-01
 1.3987634995e+00	 9.9878037378e-01	-8.1143495633e-01
 1.3779073493e+00	 1.0273621071e+00	-1.1301431116e+00
 1.3564347940e+00	 1.0555501940e+00	-1.4204726822e+00
 1.3343570411e+00	 1.0833249047e+00	-1.6774900087e+00
 1.3116861331e+00	 1.1106669396e+00	-1.8960955593e+00
 1.2884349266e+00	 1.1375574721e+00	-2.0710387178e+00
 1.2646170688e+00	 1.1639781921e+00	-2.1969355494e+00
 1.2402469711e+00	 1.1899113468e+00	-2.1056966881e+00
 1.2153397802e+00	 1.2153397802e+00	-1.7330237022e+00
 1.4438172568e+00	 9.4393682458e-01	-1.2717608615e-01
 1.4241528642e+00	 9.7335174496e-01	-4.8791592148e-01
 1.4038499122e+00	 1.0024123024e+00	-8.2768685286e-01
 1.3829179215e+00	 1.0310979693e+00	-1.1418862233e+00
 1.3613672842e+00	 1.0593885583e+00	-1.4257277249e+00
 1.3392092486e+00	 1.0872642680e+00	-1.6742503007e+00
 1.3164559009e+00	 1.1147057285e+00	-1.8823300104e+00
 1.2931201445e+00	 1.1416940447e+00	-2.0446948920e+00
 1.2692156763e+00	 1.1682108401e+00	-2.1559428103e+00
 1.2447569601e+00	 1.1942382971e+00	-2.1230428564e+00
 1.2197591975e+00	 1.2197591975e+00	-1.7251481795e+00
 1.4490484788e+00	 9.4735688554e-01	-1.4882596882e-01
 1.4293128383e+00	 9.7687838172e-01	-5.0886046314e-01
 1.4089363249e+00	 1.0060442311e+00	-8.4603016144e-01
 1.3879284937e+00	 1.0348338315e+00	-1.1556995809e+00
 1.3662997744e+00	 1.0632269226e+00	-1.4330523679e+00
 1.3440614560e+00	 1.0912036313e+00	-1.6731002551e+00
 1.3212256686e+00	 1.1187445173e+00	-1.8706949899e+00
 1.2978053624e+00	 1.1458306174e+00	-2.0205432694e+00
 1.2738142839e+00	 1.1724434881e+00	-2.1172246690e+00
 1.2492669491e+00	 1.1985652475e+00	-2.1429571068e+00
 1.2241786149e+00	 1.2241786149e+00	-1.7199489620e+00
 1.4542797007e+00	 9.5077694650e-01	-1.7263195596e-01
 1.4344728125e+00	 9.8040501848e-01	-5.3189985358e-01
 1.4140227376e+00	 1.0096761597e+00	-8.6642687751e-01
 1.3929390659e+00	 1.0385696938e+00	-1.1715450807e+00
 1.3712322645e+00	 1.0670652870e+00	-1.4424083401e+00
 1.3489136634e+00	 1.0951429946e+00	-1.6740013651e+00
 1.3259954364e+00	 1.1227833062e+00	-1.8611516886e+00
 1.3024905804e+00	 1.1499671900e+00	-1.9985446707e+00
 1.2784128914e+00	 1.1766761360e+00	-2.0807415095e+00
 1.2537769381e+00	 1.2028921978e+00	-2.1022002035e+00
 1.2285980323e+00	 1.2285980323e+00	-1.7174449725e+00
 1.4595109227e+00	 9.5419700747e-01	-1.9855608903e-01
 1.4396327866e+00	 9.8393165524e-01	-5.5699616396e-01
 1.4191091504e+00	 1.0133080883e+00	-8.8883903487e-01
 1.3979496380e+00	 1.0423055560e+00	-1.1893846527e+00
 1.3761647547e+00	 1.0709036513e+00	-1.4537574009e+00
 1.3537658708e+00	 1.0990823579e+00	-1.6769151543e+00
 1.3307652041e+00	 1.1268220951e+00	-1.8536613279e+00
 1.3071757983e+00	 1.1541037626e+00	-1.9786599509e+00
 1.2830114989e+00	 1.1809087840e+00	-2.0464537558e+00
 1.2582869270e+00	 1.2072191482e+00	-2.0514852316e+00
 1.2330174497e+00	 1.2330174497e+00	-1.7176551913e+00
 1.4647421446e+00	 9.5761706843e-01	-2.2656046293e-01
 1.4447927608e+00	 9.8745829200e-01	-5.8411150999e-01
 1.4241955631e+00	 1.0169400170e+00	-9.1322870505e-01
 1.4029602102e+00	 1.0460414182e+00	-1.2091802593e+00
 1.3810972448e+00	 1.0747420157e+00	-1.4670613399e+00
 1.3586180782e+00	 1.1030217212e+00	-1.6818031751e+00
 1.3355349719e+00	 1.1308608839e+00	-1.8481851602e+00
 1.3118610162e+00	 1.1582403352e+00	-1.9608499989e+00
 1.2876101064e+00	 1.1851414320e+00	-2.0143218712e+00
 1.2627969160e+00	 1.2115460985e+00	-2.0030275757e+00
 1.2374368671e+00	 1.2374368671e+00	-1.7205986547e+00
 1.1932426933e+00	 1.1932426932e+00	-1.8118877380e+00
 1.1682765950e+00	 1.2176970262e+00	-1.5917140165e+00
 1.1428149523e+00	 1.2416240312e+00	-1.2796420258e+00
 1.1168746090e+00	 1.2650088371e+00	-1.3428271672e+00
 1.0904729952e+00	 1.2878372943e+00	-1.6161745961e+00
 1.0636280883e+00	 1.3100960040e+00	-1.8485936076e+00
 1.0363583722e+00	 1.3317723433e+00	-2.0382090152e+00
 1.0086827961e+00	 1.3528544884e+00	-2.1831914737e+00
 9.8062073061e-01	 1.3733314358e+00	-2.2817724143e+00
 9.5219192440e-01	 1.3931930193e+00	-2.3322590427e+00
 9.2341645881e-01	 1.4124299252e+00	-2.3330492412e+00
 1.1976621106e+00	 1.1976621106e+00	-1.7909124522e+00
 1.1726035454e+00	 1.2222070152e+00	-1.5461313774e+00
 1.1470476002e+00	 1.2462226387e+00	-1.2109937746e+00
 1.1210111816e+00	 1.2696940550e+00	-1.3923555658e+00
 1.0945117841e+00	 1.2926070621e+00	-1.6484394528e+00
 1.0675674516e+00	 1.3149482115e+00	-1.8663790815e+00
 1.0401967366e+00	 1.3367048334e+00	-2.0442667511e+00
 1.0124186583e+00	 1.3578650606e+00	-2.1802302060e+00
 9.8425265924e-01	 1.3784178486e+00	-2.2724479305e+00
 9.5571856116e-01	 1.3983529935e+00	-2.3191645631e+00
 9.2683651977e-01	 1.4176611471e+00	-2.3187062630e+00
 1.2020815280e+00	 1.2020815280e+00	-1.7725197543e+00
 1.1769304957e+00	 1.2267170041e+00	-1.5031988679e+00
 1.1512802482e+00	 1.2508212463e+00	-1.1688428817e+00
 1.1251477542e+00	 1.2743792729e+00	-1.4410824365e+00
 1.0985505730e+00	 1.2973768298e+00	-1.6799016343e+00
 1.0715068149e+00	 1.3198004189e+00	-1.8833503855e+00
 1.0440351009e+00	 1.3416373236e+00	-2.0494883460e+00
 1.0161545205e+00	 1.3628756328e+00	-2.1764002365e+00
 9.8788458788e-01	 1.3835042613e+00	-2.2622114997e+00
 9.5924519792e-01	 1.4035129676e+00	-2.3051041303e+00
 9.3025658074e-01	 1.4228923691e+00	-2.3033325074e+00
 1.2065009454e+00	 1.2065009454e+00	-1.7567282645e+00
 1.1812574461e+00	 1.2312269931e+00	-1.4629350426e+00
 1.1555128962e+00	 1.2554198538e+00	-1.2368016626e+00
 1.1292843269e+00	 1.2790644908e+00	-1.4889899977e+00
 1.1025893618e+00	 1.3021465976e+00	-1.7105437446e+00
 1.0754461782e+00	 1.3246526263e+00	-1.8994907080e+00
 1.0478734653e+00	 1.3465698137e+00	-2.0538577688e+00
 1.0198903827e+00	 1.3678862050e+00	-2.1716865087e+00
 9.9151651651e-01	 1.3885906740e+00	-2.2510492301e+00
 9.6277183468e-01	 1.4086729417e+00	-2.2900652033e+00
 9.3367664170e-01	 1.4281235910e+00	-2.2869169664e+00
 1.2109203628e+00	 1.2109203628e+00	-1.7435566656e+00
 1.1855843964e+00	 1.2357369821e+00	-1.4253585234e+00
 1.1597455441e+00	 1.2600184613e+00	-1.3039139980e+00
 1.1334208995e+00	 1.2837497087e+00	-1.5360605385e+00
 1.1066281507e+00	 1.3069163653e+00	-1.7403484556e+00
 1.0793855414e+00	 1.3295048337e+00	-1.9147833002e+00
 1.0517118296e+00	 1.3515023039e+00	-2.0573590443e+00
 1.0236262449e+00	 1.3728967771e+00	-2.1660740117e+00
 9.9514844515e-01	 1.3936770867e+00	-2.2389472628e+00
 9.6629847144e-01	 1.4138329159e+00	-2.2740352593e+00
 9.3709670266e-01	 1.4333548130e+00	-2.2694486325e+00
 1.2153397802e+00	 1.2153397802e+00	-1.7330237022e+00
 1.1899113468e+00	 1.2402469711e+00	-1.3904879995e+00
 1.1639781921e+00	 1.2646170688e+00	-1.3701620614e+00
 1.1375574721e+00	 1.2884349266e+00	-1.5822764172e+00
 1.1106669396e+00	 1.3116861331e+00	-1.7692985063e+00
 1.0833249047e+00	 1.3343570411e+00	-1.9292114756e+00
 1.0555501940e+00	 1.3564347940e+00	-2.0599762515e+00
 1.0273621071e+00	 1.3779073493e+00	-2.1595477792e+00
 9.9878037378e-01	 1.3987634995e+00	-2.2258917713e+00
 9.6982510820e-01	 1.4189928900e+00	-2.2570017930e+00
 9.4051676362e-01	 1.4385860349e+00	-2.2509164990e+00
 1.2197591975e+00	 1.2197591975e+00	-1.7251481795e+00
 1.1942382971e+00	 1.2447569601e+00	-1.3583422251e+00
 1.1682108401e+00	 1.2692156763e+00	-1.4355280943e+00
 1.1416940447e+00	 1.2931201445e+00	-1.6276200603e+00
 1.1147057285e+00	 1.3164559009e+00	-1.7973767013e+00
 1.0872642680e+00	 1.3392092486e+00	-1.9427586080e+00
 1.0593885583e+00	 1.3613672842e+00	-2.0616935232e+00
 1.0310979693e+00	 1.3829179215e+00	-2.1520928886e+00
 1.0024123024e+00	 1.4038499122e+00	-2.2118689608e+00
 9.7335174496e-01	 1.4241528642e+00	-2.2389523167e+00
 9.4393682458e-01	 1.4438172568e+00	-2.2313095600e+00
 1.2241786149e+00	 1.2241786149e+00	-1.7199489620e+00
 1.1985652475e+00	 1.2492669491e+00	-1.3289400190e+00
 1.1724434881e+00	 1.2738142839e+00	-1.4999944047e+00
 1.1458306174e+00	 1.2978053624e+00	-1.6720739609e+00
 1.1187445173e+00	 1.3212256686e+00	-1.8245659095e+00
 1.0912036313e+00	 1.3440614560e+00	-1.9554081314e+00
 1.0632269226e+00	 1.3662997744e+00	-2.0624950445e+00
 1.0348338315e+00	 1.3879284937e+00	-2.1436944605e+00
 1.0060442311e+00	 1.4089363249e+00	-2.1968650680e+00
 9.7687838172e-01	 1.4293128383e+00	-2.2198743596e+00
 9.4735688554e-01	 1.4490484788e+00	-2.2106168099e+00
 1.2285980323e+00	 1.2285980323e+00	-1.7174449725e+00
 1.2028921978e+00	 1.2537769381e+00	-1.3966317436e+00
 1.1766761360e+00	 1.2784128914e+00	-1.5635433667e+00
 1.1499671900e+00	 1.3024905804e+00	-1.7156206780e+00
 1.1227833062e+00	 1.3259954364e+00	-1.8508490632e+00
 1.0951429946e+00	 1.3489136634e+00	-1.9671435380e+00
 1.0670652870e+00	 1.3712322645e+00	-2.0623650524e+00
 1.0385696938e+00	 1.3929390659e+00	-2.1343376577e+00
 1.0096761597e+00	 1.4140227376e+00	-2.1808663598e+00
 9.8040501848e-01	 1.4344728125e+00	-2.1997554676e+00
 9.5077694650e-01	 1.4542797007e+00	-2.1888272440e+00
 1.2330174497e+00	 1.2330174497e+00	-1.7176551913e+00
 1.2072191482e+00	 1.2582869270e+00	-1.4819797014e+00
 1.1809087840e+00	 1.2830114989e+00	-1.6261574183e+00
 1.1541037626e+00	 1.3071757983e+00	-1.7582428349e+00
 1.1268220951e+00	 1.3307652041e+00	-1.8762091570e+00
 1.0990823579e+00	 1.3537658708e+00	-1.9779483780e+00
 1.0709036513e+00	 1.3761647547e+00	-2.0612878342e+00
 1.0423055560e+00	 1.3979496380e+00	-2.1240076846e+00
 1.0133080883e+00	 1.4191091504e+00	-2.1638591335e+00
 9.8393165524e-01	 1.4396327866e+00	-2.1785832031e+00
 9.5419700747e-01	 1.4595109227e+00	-2.1659298581e+00
 1.2374368671e+00	 1.2374368671e+00	-1.7205986547e+00
 1.2115460985e+00	 1.2627969160e+00	-1.5663562179e+00
 1.1851414320e+00	 1.2876101064e+00	-1.6878190610e+00
 1.1582403352e+00	 1.3118610162e+00	-1.7999231182e+00
 1.1308608839e+00	 1.3355349719e+00	-1.9006292463e+00
 1.1030217212e+00	 1.3586180782e+00	-1.9878062578e+00
 1.0747420157e+00	 1.3810972448e+00	-2.0592477273e+00
 1.0460414182e+00	 1.4029602102e+00	-2.1126897862e+00
 1.0169400170e+00	 1.4241955631e+00	-2.1458297158e+00
 9.8745829200e-01	 1.4447927608e+00	-2.1563451447e+00
 9.5761706843e-01	 1.4647421446e+00	-2.1419136486e+00
 9.2341645881e-01	 1.4124299252e+00	-2.3330492412e+00
 8.9431470253e-01	 1.4310337043e+00	-2.0958631648e+00
 8.6490726562e-01	 1.4489967812e+00	-1.8888973479e+00
 8.3521495351e-01	 1.4663124604e+00	-1.7107442131e+00
 8.0525872086e-01	 1.4829749298e+00	-1.5598458580e+00
 7.7505962576e-01	 1.4989792615e+00	-1.4345131382e+00
 7.4463878431e-01	 1.5143214094e+00	-1.3329451194e+00
 7.1401732584e-01	 1.5289982042e+00	-1.2532486974e+00
 6.8321634885e-01	 1.5430073463e+00	-1.1934581885e+00
 6.5225687805e-01	 1.5563473954e+00	-1.1515547055e+00
 6.2115982238e-01	 1.5690177580e+00	-1.1601385748e+00
 9.2683651977e-01	 1.4176611471e+00	-2.3187062630e+00
 8.9762697921e-01	 1.4363338291e+00	-2.0835588451e+00
 8.6811062587e-01	 1.4543634359e+00	-1.8787318526e+00
 8.3830834223e-01	 1.4717432473e+00	-1.7027524088e+00
 8.0824116057e-01	 1.4884674296e+00	-1.5539976866e+00
 7.7793021697e-01	 1.5045310366e+00	-1.4307143601e+00
 7.4739670574e-01	 1.5199300072e+00	-1.3310384152e+00
 7.1666183445e-01	 1.5346611605e+00	-1.2530151131e+00
 6.8574677978e-01	 1.5487221883e+00	-1.1946189102e+00
 6.5467264427e-01	 1.5621116450e+00	-1.1537731431e+00
 6.2346041432e-01	 1.5748289349e+00	-1.1421433436e+00
 9.3025658074e-01	 1.4228923691e+00	-2.3033325074e+00
 9.0093925588e-01	 1.4416339540e+00	-2.0701669838e+00
 8.7131398612e-01	 1.4597300907e+00	-1.8674277165e+00
 8.4140173095e-01	 1.4771740341e+00	-1.6935763496e+00
 8.1122360028e-01	 1.4939599293e+00	-1.5469249355e+00
 7.8080080818e-01	 1.5100828116e+00	-1.4256557568e+00
 7.5015462717e-01	 1.5255386050e+00	-1.3278414970e+00
 7.1930634307e-01	 1.5403241168e+00	-1.2514655503e+00
 6.8827721070e-01	 1.5544370303e+00	-1.1944422716e+00
 6.5708841049e-01	 1.5678758946e+00	-1.1546369737e+00
 6.2576100625e-01	 1.5806401118e+00	-1.1298854888e+00
 9.3367664170e-01	 1.4281235910e+00	-2.2869169664e+00
 9.0425153256e-01	 1.4469340788e+00	-2.0556780749e+00
 8.7451734636e-01	 1.4650967454e+00	-1.8549769258e+00
 8.4449511967e-01	 1.4826048210e+00	-1.6832095004e+00
 8.1420603999e-01	 1.4994524290e+00	-1.5386225313e+00
 7.8367139939e-01	 1.5156345867e+00	-1.4193336963e+00
 7.5291254859e-01	 1.5311472028e+00	-1.3233521505e+00
 7.2195085169e-01	 1.5459870731e+00	-1.2485991848e+00
 6.9080764163e-01	 1.5601518723e+00	-1.1929288087e+00
 6.5950417670e-01	 1.5736401442e+00	-1.1541480602e+00
 6.2806159819e-01	 1.5864512887e+00	-1.1300368616e+00
 9.3709670266e-01	 1.4333548130e+00	-2.2694486325e+00
 9.0756380924e-01	 1.4522342036e+00	-2.0400825966e+00
 8.7772070661e-01	 1.4704634001e+00	-1.8413714344e+00
 8.4758850839e-01	 1.4880356079e+00	-1.6716452781e+00
 8.1718847970e-01	 1.5049449288e+00	-1.5290853373e+00
 7.8654199060e-01	 1.5211863617e+00	-1.4117444680e+00
 7.5567047002e-01	 1.5367558006e+00	-1.3175680679e+00
 7.2459536031e-01	 1.5516500294e+00	-1.2444150855e+00
 6.9333807255e-01	 1.5658667144e+00	-1.1900789368e+00
 6.6191994292e-01	 1.5794043938e+00	-1.1523081317e+00
 6.3036219013e-01	 1.5922624656e+00	-1.1288264243e+00
 9.4051676362e-01	 1.4385860349e+00	-2.2509164990e+00
 9.1087608592e-01	 1.4575343284e+00	-2.0233710112e+00
 8.8092406686e-01	 1.4758300549e+00	-1.8266031647e+00
 8.5068189711e-01	 1.4934663948e+00	-1.6588770522e+00
 8.2017091941e-01	 1.5104374285e+00	-1.5183081541e+00
 7.8941258181e-01	 1.5267381367e+00	-1.4028842841e+00
 7.5842839145e-01	 1.5423643984e+00	-1.3104868500e+00
 7.2723986892e-01	 1.5573129857e+00	-1.2389122154e+00
 6.9586850347e-01	 1.5715815564e+00	-1.1858929524e+00
 6.6433570914e-01	 1.5851686434e+00	-1.1491187857e+00
 6.3266278206e-01	 1.5980736424e+00	-1.1262570406e+00
 9.4393682458e-01	 1.4438172568e+00	-2.2313095600e+00
 9.1418836260e-01	 1.4628344533e+00	-2.0055337656e+00
 8.8412742710e-01	 1.4811967096e+00	-1.8106640079e+00
 8.5377528583e-01	 1.4988971817e+00	-1.6448981459e+00
 8.2315335912e-01	 1.5159299282e+00	-1.5062857211e+00
 7.9228317302e-01	 1.5322899118e+00	-1.3927492811e+00
 7.6118631287e-01	 1.5479729962e+00	-1.3021060080e+00
 7.2988437754e-01	 1.5629759420e+00	-1.2320894346e+00
 6.9839893440e-01	 1.5772963984e+00	-1.1803710355e+00
 6.6675147536e-01	 1.5909328930e+00	-1.1445814908e+00
 6.3496337400e-01	 1.6038848193e+00	-1.1223314326e+00
 9.4735688554e-01	 1.4490484788e+00	-2.2106168099e+00
 9.1750063928e-01	 1.4681345781e+00	-1.9865612918e+00
 8.8733078735e-01	 1.4865633644e+00	-1.7935458247e+00
 8.5686867455e-01	 1.5043279686e+00	-1.6297018368e+00
 8.2613579883e-01	 1.5214224280e+00	-1.4930127174e+00
 7.9515376423e-01	 1.5378416868e+00	-1.3813355208e+00
 7.6394423430e-01	 1.5535815940e+00	-1.2924229644e+00
 7.3252888616e-01	 1.5686388984e+00	-1.2239455014e+00
 7.0092936532e-01	 1.5830112404e+00	-1.1735132519e+00
 6.6916724157e-01	 1.5966971426e+00	-1.1386975886e+00
 6.3726396594e-01	 1.6096959962e+00	-1.1170521843e+00
 9.5077694650e-01	 1.4542797007e+00	-2.1888272440e+00
 9.2081291596e-01	 1.4734347029e+00	-1.9664440067e+00
 8.9053414759e-01	 1.4919300191e+00	-1.7752404458e+00
 8.5996206327e-01	 1.5097587555e+00	-1.6132813577e+00
 8.2911823854e-01	 1.5269149277e+00	-1.4784837630e+00
 7.9802435544e-01	 1.5433934619e+00	-1.3686389920e+00
 7.6670215572e-01	 1.5591901919e+00	-1.2814350553e+00
 7.3517339477e-01	 1.5743018547e+00	-1.2144790743e+00
 7.0345979625e-01	 1.5887260824e+00	-1.1653195547e+00
 6.7158300779e-01	 1.6024613922e+00	-1.1314682964e+00
 6.3956455787e-01	 1.6155071731e+00	-1.1104217434e+00
 9.5419700747e-01	 1.4595109227e+00	-2.1659298581e+00
 9.2412519264e-01	 1.4787348277e+00	-1.9451723128e+00
 8.9373750784e-01	 1.4972966739e+00	-1.7557396726e+00
 8.6305545199e-01	 1.5151895424e+00	-1.5956298977e+00
 8.3210067825e-01	 1.5324074275e+00	-1.4626934199e+00
 8.0089494665e-01	 1.5489452369e+00	-1.3546556119e+00
 7.6946007715e-01	 1.5647987897e+00	-1.2691395319e+00
 7.3781790339e-01	 1.5799648110e+00	-1.2036887140e+00
 7.0599022717e-01	 1.5944409245e+00	-1.1557897871e+00
 6.7399877401e-01	 1.6082256419e+00	-1.1228947094e+00
 6.4186514981e-01	 1.6213183500e+00	-1.1024424239e+00
 9.5761706843e-01	 1.4647421446e+00	-2.1419136486e+00
 9.2743746932e-01	 1.4840349526e+00	-1.9227365983e+00
 8.9694086809e-01	 1.5026633286e+00	-1.7350352773e+00
 8.6614884071e-01	 1.5206203292e+00	-1.5767406024e+00
 8.3508311796e-01	 1.5378999272e+00	-1.4456361930e+00
 8.0376553786e-01	 1.5544970119e+00	-1.3393812270e+00
 7.7221799858e-01	 1.5704073875e+00	-1.2555335614e+00
 7.4046241201e-01	 1.5856277673e+00	-1.1915728850e+00
 7.0852065810e-01	 1.6001557665e+00	-1.1449236836e+00
 6.7641454023e-01	 1.6139898915e+00	-1.1129778025e+00
 6.4416574175e-01	 1.6271295269e+00	-1.0931164088e+00
 6.2115982238e-01	 1.5690177580e+00	-1.1601385748e+00
 5.8994593442e-01	 1.5810186730e+00	-1.1513709983e+00
 5.5863577119e-01	 1.5923511940e+00	-1.1340292788e+00
 5.2724965649e-01	 1.6030171707e+00	-1.1060596362e+00
 4.9580764489e-01	 1.6130192278e+00	-1.0657048814e+00
 4.6432948756e-01	 1.6223607419e+00	-1.0115185555e+00
 4.3283459984e-01	 1.6310458176e+00	-9.4237569403e-01
 4.0134203087e-01	 1.6390792611e+00	-8.5748023867e-01
 3.6987043507e-01	 1.6464665533e+00	-7.5636915103e-01
 3.3843804579e-01	 1.6532138214e+00	-6.3891332331e-01
 3.0706265096e-01	 1.6593278092e+00	-5.0531540846e-01
 6.2346041432e-01	 1.5748289349e+00	-1.1421433436e+00
 5.9213091937e-01	 1.5868742977e+00	-1.1352242960e+00
 5.6070479257e-01	 1.5982487910e+00	-1.1197661952e+00
 5.2920243300e-01	 1.6089542714e+00	-1.0937062771e+00
 4.9764396950e-01	 1.6189933731e+00	-1.0552802584e+00
 4.6604922640e-01	 1.6283694854e+00	-1.0030366306e+00
 4.3443769095e-01	 1.6370867280e+00	-9.3584755093e-01
 4.0282848283e-01	 1.6451499250e+00	-8.5291634753e-01
 3.7124032557e-01	 1.6525645776e+00	-7.5378169948e-01
 3.3969152004e-01	 1.6593368355e+00	-6.3831858290e-01
 3.0819992003e-01	 1.6654734677e+00	-5.0673610857e-01
 6.2576100625e-01	 1.5806401118e+00	-1.1298854888e+00
 5.9431590431e-01	 1.5927299224e+00	-1.1183271343e+00
 5.6277381395e-01	 1.6041463881e+00	-1.1050077483e+00
 5.3115520950e-01	 1.6148913720e+00	-1.0811044171e+00
 4.9948029412e-01	 1.6249675184e+00	-1.0448449048e+00
 4.6776896524e-01	 1.6343782289e+00	-9.9477185589e-01
 4.3604078206e-01	 1.6431276385e+00	-9.2975381316e-01
 4.0431493480e-01	 1.6512205890e+00	-8.4899282079e-01
 3.7261021607e-01	 1.6586626019e+00	-7.5202867052e-01
 3.4094499428e-01	 1.6654598497e+00	-6.3873988467e-01
 3.0933718911e-01	 1.6716191263e+00	-5.0934156169e-01
 6.2806159819e-01	 1.5864512887e+00	-1.1300368616e+00
 5.9650088926e-01	 1.5985855472e+00	-1.1006756293e+00
 5.6484283532e-01	 1.6100439851e+00	-1.0897492124e+00
 5.3310798601e-01	 1.6208284726e+00	-1.0682485066e+00
 5.0131661873e-01	 1.6309416637e+00	-1.0343924646e+00
 4.6948870409e-01	 1.6403869724e+00	-9.8671708467e-01
 4.3764387317e-01	 1.6491685489e+00	-9.2408655950e-01
 4.0580138676e-01	 1.6572912529e+00	-8.4570097771e-01
 3.7398010657e-01	 1.6647606261e+00	-7.5110063843e-01
 3.4219846852e-01	 1.6715828638e+00	-6.4016707197e-01
 3.1047445819e-01	 1.6777647849e+00	-5.1312089391e-01
 6.3036219013e-01	 1.5922624656e+00	-1.1288264243e+00
 5.9868587420e-01	 1.6044411719e+00	-1.0822657772e+00
 5.6691185670e-01	 1.6159415821e+00	-1.0739857683e+00
 5.3506076252e-01	 1.6267655733e+00	-1.0551329285e+00
 5.0315294334e-01	 1.6369158090e+00	-1.0239165389e+00
 4.7120844293e-01	 1.6463957159e+00	-9.7886515235e-01
 4.3924696429e-01	 1.6552094594e+00	-9.1883787448e-01
 4.0728783873e-01	 1.6633619168e+00	-8.4303216633e-01
 3.7534999707e-01	 1.6708586504e+00	-7.5098822851e-01
 3.4345194277e-01	 1.6777058780e+00	-6.4259006069e-01
 3.1161172726e-01	 1.6839104434e+00	-5.1806332458e-01
 6.3266278206e-01	 1.5980736424e+00	-1.1262570406e+00
 6.0087085914e-01	 1.6102967966e+00	-1.0630934571e+00
 5.6898087808e-01	 1.6218391791e+00	-1.0577125056e+00
 5.3701353902e-01	 1.6327026739e+00	-1.0417519993e+00
 5.0498926795e-01	 1.6428899542e+00	-1.0134106874e+00
 4.7292818178e-01	 1.6524044594e+00	-9.7120887669e-01
 4.4085005540e-01	 1.6612503698e+00	-9.1399984828e-01
 4.0877429070e-01	 1.6694325808e+00	-8.4097776290e-01
 3.7671988757e-01	 1.6769566747e+00	-7.5168211618e-01
 3.4470541701e-01	 1.6838288921e+00	-6.4599883792e-01
 3.1274899634e-01	 1.6900561020e+00	-5.2415816457e-01
 6.3496337400e-01	 1.6038848193e+00	-1.1223314326e+00
 6.0305584409e-01	 1.6161524213e+00	-1.0431544327e+00
 5.7104989945e-01	 1.6277367761e+00	-1.0409244238e+00
 5.3896631553e-01	 1.6386397745e+00	-1.0280999707e+00
 5.0682559256e-01	 1.6488640995e+00	-1.0028684288e+00
 4.7464792062e-01	 1.6584132029e+00	-9.6374105808e-01
 4.4245314651e-01	 1.6672912802e+00	-9.0956457660e-01
 4.1026074266e-01	 1.6755032447e+00	-8.3952917141e-01
 3.7808977807e-01	 1.6830546990e+00	-7.5317302605e-01
 3.4595889125e-01	 1.6899519063e+00	-6.5038346067e-01
 3.1388626542e-01	 1.6962017605e+00	-5.3139481458e-01
 6.3726396594e-01	 1.6096959962e+00	-1.1170521843e+00
 6.0524082903e-01	 1.6220080460e+00	-1.0224443547e+00
 5.7311892083e-01	 1.6336343731e+00	-1.0236164342e+00
 5.4091909204e-01	 1.6445768752e+00	-1.0141710302e+00
 5.0866191718e-01	 1.6548382448e+00	-9.9228324174e-01
 4.7636765946e-01	 1.6644219464e+00	-9.5645447986e-01
 4.4405623762e-01	 1.6733321907e+00	-9.0552416059e-01
 4.1174719463e-01	 1.6815739086e+00	-8.3867782307e-01
 3.7945966857e-01	 1.6891527232e+00	-7.5545173101e-01
 3.4721236550e-01	 1.6960749204e+00	-6.5573405461e-01
 3.1502353450e-01	 1.7023474191e+00	-5.3976276361e-01
 6.3956455787e-01	 1.6155071731e+00	-1.1104217434e+00
 6.0742581398e-01	 1.6278636707e+00	-1.0009587624e+00
 5.7518794221e-01	 1.6395319702e+00	-1.0057833615e+00
 5.4287186854e-01	 1.6505139758e+00	-9.9995930256e-01
 5.1049824179e-01	 1.6608123901e+00	-9.8164856534e-01
 4.7808739831e-01	 1.6704306899e+00	-9.4934190867e-01
 4.4565932873e-01	 1.6793731011e+00	-9.0187070674e-01
 4.1323364660e-01	 1.6876445726e+00	-8.3841517584e-01
 3.8082955907e-01	 1.6952507475e+00	-7.5850905143e-01
 3.4846583974e-01	 1.7021979346e+00	-6.6204081282e-01
 3.1616080358e-01	 1.7084930776e+00	-5.4925158728e-01
 6.4186514981e-01	 1.6213183500e+00	-1.1024424239e+00
 6.0961079892e-01	 1.6337192955e+00	-9.7869308641e-01
 5.7725696358e-01	 1.6454295672e+00	-9.8741994516e-01
 5.4482464505e-01	 1.6564510764e+00	-9.8545885112e-01
 5.1233456640e-01	 1.6667865354e+00	-9.7095780000e-01
 4.7980713715e-01	 1.6764394333e+00	-9.4239609471e-01
 4.4726241984e-01	 1.6854140115e+00	-8.9859632676e-01
 4.1472009857e-01	 1.6937152365e+00	-8.3873271392e-01
 3.8219944957e-01	 1.7013487718e+00	-7.6233585424e-01
 3.4971931399e-01	 1.7083209488e+00	-6.6929399458e-01
 3.1729807266e-01	 1.7146387362e+00	-5.5985094633e-01
 6.4416574175e-01	 1.6271295269e+00	-1.0931164088e+00
 6.1179578386e-01	 1.6395749202e+00	-9.5564264980e-01
 5.7932598496e-01	 1.6513271642e+00	-9.6852084114e-01
 5.4677742156e-01	 1.6623881771e+00	-9.7066367850e-01
 5.1417089101e-01	 1.6727606807e+00	-9.6020430806e-01
 4.8152687600e-01	 1.6824481768e+00	-9.3560977202e-01
 4.4886551095e-01	 1.6914549220e+00	-8.9569313754e-01
 4.1620655053e-01	 1.6997859004e+00	-8.3962194731e-01
 3.8356934007e-01	 1.7074467961e+00	-7.6692305214e-01
 3.5097278823e-01	 1.7144439629e+00	-6.7748392422e-01
 3.1843534174e-01	 1.7207843947e+00	-5.7155058509e-01
 3.0706265096e-01	 1.6593278092e+00	-5.0531540846e-01
 2.7576157080e-01	 1.6648158475e+00	-5.1127262064e-01
 2.4455163774e-01	 1.6696858227e+00	-5.1344827869e-01
 2.1344917835e-01	 1.6739461456e+00	-5.1151001880e-01
 1.8246999740e-01	 1.6776057195e+00	-5.0544175802e-01
 1.5162936396e-01	 1.6806739083e+00	-4.9553339235e-01
 1.2094199956e-01	 1.6831605042e+00	-4.8236830504e-01
 9.0422068317e-02	 1.6850756955e+00	-4.6680892267e-01
 6.0083168996e-02	 1.6864300350e+00	-4.4998056280e-01
 2.9938328975e-02	 1.6872344077e+00	-4.3325381888e-01
 0.0000000000e+00	 1.6875000000e+00	-4.1822572788e-01
 3.0819992003e-01	 1.6654734677e+00	-5.0673610857e-01
 2.7678290995e-01	 1.6709818321e+00	-5.1075579658e-01
 2.4545738454e-01	 1.6758698442e+00	-5.1150856465e-01
 2.1423973086e-01	 1.6801459461e+00	-5.0862296046e-01
 1.8314581220e-01	 1.6838190740e+00	-5.0204635981e-01
 1.5219095419e-01	 1.6868986265e+00	-4.9203473838e-01
 1.2138993289e-01	 1.6893944319e+00	-4.7914022424e-01
 9.0756964864e-02	 1.6913167166e+00	-4.6419667085e-01
 6.0305699250e-02	 1.6926760721e+00	-4.4830349588e-01
 3.0049211674e-02	 1.6934834240e+00	-4.3280803399e-01
 0.0000000000e+00	 1.6937500000e+00	-4.1928665093e-01
 3.0933718911e-01	 1.6716191263e+00	-5.0934156169e-01
 2.7780424910e-01	 1.6771478167e+00	-5.1143547084e-01
 2.4636313135e-01	 1.6820538658e+00	-5.1076089274e-01
 2.1503028337e-01	 1.6863457466e+00	-5.0690730059e-01
 1.8382162700e-01	 1.6900324285e+00	-4.9978560549e-01
 1.5275254443e-01	 1.6931233446e+00	-4.8961799946e-01
 1.2183786622e-01	 1.6956283597e+00	-4.7692554972e-01
 9.1091861412e-02	 1.6975577377e+00	-4.6251378573e-01
 6.0528229504e-02	 1.6989221093e+00	-4.4745652623e-01
 3.0160094373e-02	 1.6997324403e+00	-4.3307819674e-01
 0.0000000000e+00	 1.7000000000e+00	-4.2093488678e-01
 3.1047445819e-01	 1.6777647849e+00	-5.1312089391e-01
 2.7882558825e-01	 1.6833138014e+00	-5.1330164424e-01
 2.4726887815e-01	 1.6882378874e+00	-5.1119617962e-01
 2.1582083588e-01	 1.6925455472e+00	-5.0635490960e-01
 1.8449744181e-01	 1.6962457830e+00	-4.9865235389e-01
 1.5331413466e-01	 1.6993480628e+00	-4.8827705446e-01
 1.2228579955e-01	 1.7018622875e+00	-4.7571920906e-01
 9.1426757960e-02	 1.7037987588e+00	-4.6175626943e-01
 6.0750759759e-02	 1.7051681465e+00	-4.4743675369e-01
 3.0270977073e-02	 1.7059814567e+00	-4.3406252523e-01
 0.0000000000e+00	 1.7062500000e+00	-4.2316978992e-01
 3.1161172726e-01	 1.6839104434e+00	-5.1806332458e-01
 2.7984692740e-01	 1.6894797860e+00	-5.1634440765e-01
 2.4817462496e-01	 1.6944219089e+00	-5.1280542762e-01
 2.1661138839e-01	 1.6987453477e+00	-5.0695773792e-01
 1.8517325661e-01	 1.7024591376e+00	-4.9863953705e-01
 1.5387572490e-01	 1.7055727810e+00	-4.8800584752e-01
 1.2273373288e-01	 1.7080962153e+00	-4.7551618602e-01
 9.1761654508e-02	 1.7100397799e+00	-4.6192017011e-01
 6.0973290014e-02	 1.7114141836e+00	-4.4824131288e-01
 3.0381859772e-02	 1.7122304730e+00	-4.3575926016e-01
 0.0000000000e+00	 1.7125000000e+00	-4.2599072426e-01
 3.1274899634e-01	 1.6900561020e+00	-5.2415816457e-01
 2.8086826655e-01	 1.6956457706e+00	-5.2055394035e-01
 2.4908037176e-01	 1.7006059305e+00	-5.1557972315e-01
 2.1740194090e-01	 1.7049451483e+00	-5.0870781453e-01
 1.8584907142e-01	 1.7086724921e+00	-4.9974015887e-01
 1.5443731514e-01	 1.7117974992e+00	-4.8879838678e-01
 1.2318166621e-01	 1.7143301431e+00	-4.7631151947e-01
 9.2096551057e-02	 1.7162808010e+00	-4.6300158107e-01
 6.1195820269e-02	 1.7176602208e+00	-4.4986737262e-01
 3.0492742472e-02	 1.7184794893e+00	-4.3816666440e-01
 0.0000000000e+00	 1.7187500000e+00	-4.2939706296e-01
 3.1388626542e-01	 1.6962017605e+00	-5.3139481458e-01
 2.8188960570e-01	 1.7018117552e+00	-5.2592050846e-01
 2.4998611857e-01	 1.7067899521e+00	-5.1951023517e-01
 2.1819249342e-01	 1.7111449488e+00	-5.1159724555e-01
 1.8652488622e-01	 1.7148858466e+00	-5.0194729382e-01
 1.5499890537e-01	 1.7180222174e+00	-4.9064874331e-01
 1.2362959954e-01	 1.7205640709e+00	-4.7810030244e-01
 9.2431447606e-02	 1.7225218221e+00	-4.6499663995e-01
 6.1418350525e-02	 1.7239062580e+00	-4.5231213524e-01
 3.0603625172e-02	 1.7247285056e+00	-4.4128302261e-01
 0.0000000000e+00	 1.7250000000e+00	-4.3338818828e-01
 3.1502353450e-01	 1.7023474191e+00	-5.3976276361e-01
 2.8291094485e-01	 1.7079777398e+00	-5.3243446333e-01
 2.5089186538e-01	 1.7129739736e+00	-5.2458821373e-01
 2.1898304593e-01	 1.7173447493e+00	-5.1561821286e-01
 1.8720070103e-01	 1.7210992011e+00	-5.0525408569e-01
 1.5556049561e-01	 1.7242469355e+00	-4.9355104993e-01
 1.2407753288e-01	 1.7267979987e+00	-4.8087768112e-01
 9.2766344156e-02	 1.7287628432e+00	-4.6790152797e-01
 6.1640880780e-02	 1.7301522951e+00	-4.5557283604e-01
 3.0714507872e-02	 1.7309775220e+00	-4.4510664083e-01
 0.0000000000e+00	 1.7312500000e+00	-4.3796349138e-01
 3.1616080358e-01	 1.7084930776e+00	-5.4925158728e-01
 2.8393228400e-01	 1.7141437245e+00	-5.4008624001e-01
 2.5179761218e-01	 1.7191579952e+00	-5.3080498847e-01
 2.1977359844e-01	 1.7235445499e+00	-5.2076297269e-01
 1.8787651583e-01	 1.7273125556e+00	-5.0965374628e-01
 1.5612208585e-01	 1.7304716537e+00	-4.9749950010e-01
 1.2452546621e-01	 1.7330319265e+00	-4.8463885390e-01
 9.3101240706e-02	 1.7350038643e+00	-4.7171246907e-01
 6.1863411037e-02	 1.7363983323e+00	-4.5964674265e-01
 3.0825390572e-02	 1.7372265383e+00	-4.4963584610e-01
 0.0000000000e+00	 1.7375000000e+00	-4.4312237220e-01
 3.1729807266e-01	 1.7146387362e+00	-5.5985094633e-01
 2.8495362316e-01	 1.7203097091e+00	-5.4886635580e-01
 2.5270335899e-01	 1.7253420168e+00	-5.3815196724e-01
 2.2056415096e-01	 1.7297443504e+00	-5.2702385434e-01
 1.8855233064e-01	 1.7335259101e+00	-5.1513955425e-01
 1.5668367609e-01	 1.7366963719e+00	-5.0248834684e-01
 1.2497339954e-01	 1.7392658543e+00	-4.8937907045e-01
 9.3436137257e-02	 1.7412448853e+00	-4.7642572920e-01
 6.2085941293e-02	 1.7426443695e+00	-4.6453115448e-01
 3.0936273273e-02	 1.7434755546e+00	-4.5486898610e-01
 0.0000000000e+00	 1.7437500000e+00	-4.4886423926e-01
 3.1843534174e-01	 1.7207843947e+00	-5.7155058509e-01
 2.8597496231e-01	 1.7264756937e+00	-5.5876540872e-01
 2.5360910580e-01	 1.7315260383e+00	-5.4662063467e-01
 2.2135470347e-01	 1.7359441510e+00	-5.3439325886e-01
 1.8922814545e-01	 1.7397392647e+00	-5.2170485388e-01
 1.5724526633e-01	 1.7429210901e+00	-5.0851190167e-01
 1.2542133288e-01	 1.7454997821e+00	-4.9509363077e-01
 9.3771033808e-02	 1.7474859064e+00	-4.8203761558e-01
 6.2308471550e-02	 1.7488904066e+00	-4.7022340214e-01
 3.1047155973e-02	 1.7497245709e+00	-4.6080442875e-01
 0.0000000000e+00	 1.7500000000e+00	-4.5518850956e-01
 1.7500000000e+00	 0.0000000000e+00	 3.5089922796e+00
 1.7497245709e+00	 3.1047155973e-02	 3.4752564103e+00
 1.7488904066e+00	 6.2308471550e-02	 3.4314977598e+00
 1.7474859064e+00	 9.3771033808e-02	 3.3761630620e+00
 1.7454997821e+00	 1.2542133288e-01	 3.3081732223e+00
 1.7429210901e+00	 1.5724526633e-01	 3.2269558050e+00
 1.7397392647e+00	 1.8922814545e-01	 3.1324749990e+00
 1.7359441510e+00	 2.2135470347e-01	 3.0252586057e+00
 1.7315260383e+00	 2.5360910580e-01	 2.9064215951e+00
 1.7264756937e+00	 2.8597496231e-01	 2.7776857796e+00
 1.7207843947e+00	 3.1843534174e-01	 2.6413951680e+00
 1.7562500000e+00	 0.0000000000e+00	 3.5081867524e+00
 1.7559735873e+00	 3.1158038674e-02	 3.4727526266e+00
 1.7551364438e+00	 6.2531001807e-02	 3.4273413013e+00
 1.7537269275e+00	 9.4105930359e-02	 3.3704078025e+00
 1.7517337099e+00	 1.2586926621e-01	 3.3008862429e+00
 1.7491458083e+00	 1.5780685657e-01	 3.2182225417e+00
 1.7459526192e+00	 1.8990396026e-01	 3.1224045903e+00
 1.7421439515e+00	 2.2214525599e-01	 3.0139894037e+00
 1.7377100599e+00	 2.5451485261e-01	 2.8941268006e+00
 1.7326416783e+00	 2.8699630146e-01	 2.7645791553e+00
 1.7269300533e+00	 3.1957261082e-01	 2.6277367822e+00
 1.7625000000e+00	 0.0000000000e+00	 3.5077979794e+00
 1.7622226036e+00	 3.1268921374e-02	 3.4707475135e+00
 1.7613824810e+00	 6.2753532063e-02	 3.4237441225e+00
 1.7599679486e+00	 9.4440826910e-02	 3.3652506953e+00
 1.7579676377e+00	 1.2631719954e-01	 3.2942142004e+00
 1.7553705264e+00	 1.5836844681e-01	 3.2100986419e+00
 1.7521659737e+00	 1.9057977506e-01	 3.1129154301e+00
 1.7483437520e+00	 2.2293580850e-01	 3.0032507011e+00
 1.7438940815e+00	 2.5542059942e-01	 2.8822891247e+00
 1.7388076629e+00	 2.8801764062e-01	 2.7518337382e+00
 1.7330757118e+00	 3.2070987989e-01	 2.6143213643e+00
 1.7687500000e+00	 0.0000000000e+00	 3.5078174894e+00
 1.7684716199e+00	 3.1379804075e-02	 3.4692319395e+00
 1.7676285181e+00	 6.2976062320e-02	 3.4206964318e+00
 1.7662089697e+00	 9.4775723460e-02	 3.3606812911e+00
 1.7642015655e+00	 1.2676513288e-01	 3.2881459912e+00
 1.7615952446e+00	 1.5893003704e-01	 3.2025723531e+00
 1.7583793282e+00	 1.9125558987e-01	 3.1039951243e+00
 1.7545435526e+00	 2.2372636102e-01	 2.9930294722e+00
 1.7500781030e+00	 2.5632634623e-01	 2.8708949221e+00
 1.7449736476e+00	 2.8903897977e-01	 2.7394352785e+00
 1.7392213704e+00	 3.2184714897e-01	 2.6011340780e+00
 1.7750000000e+00	 0.0000000000e+00	 3.5082369301e+00
 1.7747206362e+00	 3.1490686775e-02	 3.4681968978e+00
 1.7738745553e+00	 6.3198592575e-02	 3.4181885673e+00
 1.7724499908e+00	 9.5110620010e-02	 3.3566892733e+00
 1.7704354933e+00	 1.2721306621e-01	 3.2826706467e+00
 1.7678199628e+00	 1.5949162728e-01	 3.1956320586e+00
 1.7645926827e+00	 1.9193140468e-01	 3.0956314147e+00
 1.7607433531e+00	 2.2451691353e-01	 2.9833128253e+00
 1.7562621246e+00	 2.5723209304e-01	 2.8599306791e+00
 1.7511396322e+00	 2.9006031892e-01	 2.7273696539e+00
 1.7453670289e+00	 3.2298441805e-01	 2.5881602089e+00
 1.7812500000e+00	 0.0000000000e+00	 3.5090480669e+00
 1.7809696526e+00	 3.1601569475e-02	 3.4676335046e+00
 1.7801205925e+00	 6.3421122831e-02	 3.4162109941e+00
 1.7786910119e+00	 9.5445516559e-02	 3.3532644560e+00
 1.7766694211e+00	 1.2766099954e-01	 3.2777773307e+00
 1.7740446810e+00	 1.6005321752e-01	 3.1892662754e+00
 1.7708060372e+00	 1.9260721948e-01	 3.0878121763e+00
 1.7669431537e+00	 2.2530746604e-01	 2.9740880010e+00
 1.7624461462e+00	 2.5813783984e-01	 2.8493830114e+00
 1.7573056168e+00	 2.9108165807e-01	 2.7156228676e+00
 1.7515126875e+00	 3.2412168713e-01	 2.5753851631e+00
 1.7875000000e+00	 0.0000000000e+00	 3.5102427799e+00
 1.7872186689e+00	 3.1712452174e-02	 3.4675329962e+00
 1.7863666296e+00	 6.3643653086e-02	 3.4147543022e+00
 1.7849320330e+00	 9.5780413108e-02	 3.3503967809e+00
 1.7829033488e+00	 1.2810893287e-01	 3.2734553373e+00
 1.7802693991e+00	 1.6061480775e-01	 3.1834636514e+00
 1.7770193918e+00	 1.9328303429e-01	 3.0805254150e+00
 1.7731429542e+00	 2.2609801855e-01	 2.9653423692e+00
 1.7686301677e+00	 2.5904358665e-01	 2.8392386615e+00
 1.7634716014e+00	 2.9210299722e-01	 2.7041810460e+00
 1.7576583460e+00	 3.2525895621e-01	 2.5627944648e+00
 1.7937500000e+00	 0.0000000000e+00	 3.5118130628e+00
 1.7934676852e+00	 3.1823334874e-02	 3.4678867278e+00
 1.7926126668e+00	 6.3866183341e-02	 3.4138092041e+00
 1.7911730541e+00	 9.6115309657e-02	 3.3480763158e+00
 1.7891372766e+00	 1.2855686620e-01	 3.2696940883e+00
 1.7864941173e+00	 1.6117639799e-01	 3.1782129636e+00
 1.7832327463e+00	 1.9395884909e-01	 3.0737592656e+00
 1.7793427547e+00	 2.2688857107e-01	 2.9570634274e+00
 1.7748141893e+00	 2.5994933345e-01	 2.8294844969e+00
 1.7696375860e+00	 2.9312433637e-01	 2.6930304366e+00
 1.7638040046e+00	 3.2639622528e-01	 2.5503737544e+00
 1.8000000000e+00	 0.0000000000e+00	 3.5137510201e+00
 1.7997167015e+00	 3.1934217573e-02	 3.4686861706e+00
 1.7988587040e+00	 6.4088713596e-02	 3.4133665332e+00
 1.7974140752e+00	 9.6450206205e-02	 3.3462932522e+00
 1.7953712044e+00	 1.2900479953e-01	 3.2664831315e+00
 1.7927188355e+00	 1.6173798823e-01	 3.1735031157e+00
 1.7894461008e+00	 1.9463466389e-01	 3.0675019891e+00
 1.7855425553e+00	 2.2767912358e-01	 2.9492387981e+00
 1.7809982109e+00	 2.6085508026e-01	 2.8201075075e+00
 1.7758035707e+00	 2.9414567552e-01	 2.6821574056e+00
 1.7699496632e+00	 3.2753349436e-01	 2.5381087861e+00
 1.8062500000e+00	 0.0000000000e+00	 3.5160488659e+00
 1.8059657178e+00	 3.2045100273e-02	 3.4699229105e+00
 1.8051047411e+00	 6.4311243850e-02	 3.4134172410e+00
 1.8036550963e+00	 9.6785102752e-02	 3.3450379032e+00
 1.8016051322e+00	 1.2945273286e-01	 3.2638121380e+00
 1.7989435537e+00	 1.6229957846e-01	 3.1693231357e+00
 1.7956594553e+00	 1.9531047870e-01	 3.0617419711e+00
 1.7917423558e+00	 2.2846967609e-01	 2.9418562266e+00
 1.7871822324e+00	 2.6176082706e-01	 2.8110948040e+00
 1.7819695553e+00	 2.9516701467e-01	 2.6715484365e+00
 1.7760953217e+00	 3.2867076344e-01	 2.5259854263e+00
 1.8125000000e+00	 0.0000000000e+00	 3.5186989215e+00
 1.8122147342e+00	 3.2155982972e-02	 3.4715886456e+00
 1.8113507783e+00	 6.4533774104e-02	 3.4139523956e+00
 1.8098961174e+00	 9.7119999299e-02	 3.3443007010e+00
 1.8078390600e+00	 1.2990066619e-01	 3.2616709007e+00
 1.8051682719e+00	 1.6286116869e-01	 3.1656621739e+00
 1.8018728098e+00	 1.9598629350e-01	 3.0564677190e+00
 1.7979421563e+00	 2.2926022860e-01	 2.9349035794e+00
 1.7933662540e+00	 2.6266657387e-01	 2.8024336153e+00
 1.7881355399e+00	 2.9618835382e-01	 2.6611901272e+00
 1.7822409802e+00	 3.2980803251e-01	 2.5139896517e+00
 1.7207843947e+00	 3.1843534174e-01	 2.6413951680e+00
 1.7144439629e+00	 3.5097278823e-01	 2.5142018199e+00
 1.7074467961e+00	 3.8356934007e-01	 2.3724649828e+00
 1.6997859004e+00	 4.1620655053e-01	 2.2196022340e+00
 1.6914549220e+00	 4.4886551095e-01	 2.0596830815e+00
 1.6824481768e+00	 4.8152687600e-01	 1.8974209838e+00
 1.6727606807e+00	 5.1417089101e-01	 1.7381590976e+00
 1.6623881771e+00	 5.4677742156e-01	 1.5878495695e+00
 1.6513271642e+00	 5.7932598496e-01	 1.4530262456e+00
 1.6395749202e+00	 6.1179578386e-01	 1.3407707480e+00
 1.6271295269e+00	 6.4416574175e-01	 1.1590209234e+00
 1.7269300533e+00	 3.1957261082e-01	 2.6277367822e+00
 1.7205669771e+00	 3.5222626248e-01	 2.4983881662e+00
 1.7135448203e+00	 3.8493923058e-01	 2.3551273055e+00
 1.7058565644e+00	 4.1769300250e-01	 2.2014617798e+00
 1.6974958324e+00	 4.5046860207e-01	 2.0415563670e+00
 1.6884569203e+00	 4.8324661484e-01	 1.8802246944e+00
 1.6787348260e+00	 5.1600721562e-01	 1.7229145506e+00
 1.6683252777e+00	 5.4873019807e-01	 1.5756866709e+00
 1.6572247612e+00	 5.8139500634e-01	 1.4451868741e+00
 1.6454305449e+00	 6.1398076881e-01	 1.3386114984e+00
 1.6329407037e+00	 6.4646633369e-01	 1.1512733749e+00
 1.7330757118e+00	 3.2070987989e-01	 2.6143213643e+00
 1.7266899912e+00	 3.5347973672e-01	 2.4827546208e+00
 1.7196428446e+00	 3.8630912108e-01	 2.3378838258e+00
 1.7119272283e+00	 4.1917945447e-01	 2.1833069297e+00
 1.7035367429e+00	 4.5207169318e-01	 2.0232844565e+00
 1.6944656638e+00	 4.8496635368e-01	 1.8627307878e+00
 1.6847089713e+00	 5.1784354024e-01	 1.7071990379e+00
 1.6742623783e+00	 5.5068297457e-01	 1.5628593330e+00
 1.6631223582e+00	 5.8346402771e-01	 1.4364703725e+00
 1.6512861696e+00	 6.1616575375e-01	 1.3353442222e+00
 1.6387518806e+00	 6.4876692562e-01	 1.1421544934e+00
 1.7392213704e+00	 3.2184714897e-01	 2.6011340780e+00
 1.7328130054e+00	 3.5473321097e-01	 2.4672849609e+00
 1.7257408689e+00	 3.8767901158e-01	 2.3207169744e+00
 1.7179978922e+00	 4.2066590644e-01	 2.1651188123e+00
 1.7095776533e+00	 4.5367478429e-01	 2.0048472267e+00
 1.7004744073e+00	 4.8668609253e-01	 1.8449179444e+00
 1.6906831166e+00	 5.1967986485e-01	 1.6909901051e+00
 1.6801994790e+00	 5.5263575108e-01	 1.5493440334e+00
 1.6690199552e+00	 5.8553304909e-01	 1.4268522230e+00
 1.6571417943e+00	 6.1835073870e-01	 1.3309434854e+00
 1.6445630575e+00	 6.5106751756e-01	 1.1316821158e+00
 1.7453670289e+00	 3.2298441805e-01	 2.5881602089e+00
 1.7389360195e+00	 3.5598668521e-01	 2.4519630911e+00
 1.7318388932e+00	 3.8904890208e-01	 2.3036093125e+00
 1.7240685562e+00	 4.2215235840e-01	 2.1468786890e+00
 1.7156185637e+00	 4.5527787540e-01	 1.9862246876e+00
 1.7064831508e+00	 4.8840583137e-01	 1.8267649766e+00
 1.6966572618e+00	 5.2151618946e-01	 1.6742654265e+00
 1.6861365796e+00	 5.5458852759e-01	 1.5351173736e+00
 1.6749175522e+00	 5.8760207046e-01	 1.4163080261e+00
 1.6629974190e+00	 6.2053572364e-01	 1.3253839641e+00
 1.6503742344e+00	 6.5336810949e-01	 1.1198741798e+00
 1.7515126875e+00	 3.2412168713e-01	 2.5753851631e+00
 1.7450590337e+00	 3.5724015946e-01	 2.4367730412e+00
 1.7379369174e+00	 3.9041879258e-01	 2.2865435302e+00
 1.7301392201e+00	 4.2363881037e-01	 2.1285679516e+00
 1.7216594742e+00	 4.5688096651e-01	 1.9673969798e+00
 1.7124918943e+00	 4.9012557021e-01	 1.8082508263e+00
 1.7026314071e+00	 5.2335251407e-01	 1.6570028031e+00
 1.6920736802e+00	 5.5654130409e-01	 1.5201560776e+00
 1.6808151493e+00	 5.8967109184e-01	 1.4048134980e+00
 1.6688530437e+00	 6.2272070858e-01	 1.3186404426e+00
 1.6561854113e+00	 6.5566870143e-01	 1.1067487214e+00
 1.7576583460e+00	 3.2525895621e-01	 2.5627944648e+00
 1.7511820478e+00	 3.5849363370e-01	 2.4216989638e+00
 1.7440349417e+00	 3.9178868308e-01	 2.2695024437e+00
 1.7362098840e+00	 4.2512526234e-01	 2.1101681202e+00
 1.7277003846e+00	 4.5848405762e-01	 1.9483443725e+00
 1.7185006378e+00	 4.9184530906e-01	 1.7893545624e+00
 1.7086055524e+00	 5.2518883868e-01	 1.6391801602e+00
 1.6980107809e+00	 5.5849408060e-01	 1.5044369892e+00
 1.6867127463e+00	 5.9174011321e-01	 1.3923444688e+00
 1.6747086685e+00	 6.2490569352e-01	 1.3106878115e+00
 1.6619965881e+00	 6.5796929336e-01	 1.0923238738e+00
 1.7638040046e+00	 3.2639622528e-01	 2.5503737544e+00
 1.7573050620e+00	 3.5974710795e-01	 2.4067251325e+00
 1.7501329660e+00	 3.9315857358e-01	 2.2524689936e+00
 1.7422805479e+00	 4.2661171430e-01	 2.0916608408e+00
 1.7337412950e+00	 4.6008714873e-01	 1.9290472610e+00
 1.7245093812e+00	 4.9356504790e-01	 1.7700553791e+00
 1.7145796977e+00	 5.2702516329e-01	 1.6207755455e+00
 1.7039478815e+00	 5.6044685710e-01	 1.4879370700e+00
 1.6926103433e+00	 5.9380913459e-01	 1.3788768807e+00
 1.6805642932e+00	 6.2709067846e-01	 1.2906795987e+00
 1.6678077650e+00	 6.6026988530e-01	 1.0766178652e+00
 1.7699496632e+00	 3.2753349436e-01	 2.5381087861e+00
 1.7634280761e+00	 3.6100058219e-01	 2.3918359395e+00
 1.7562309902e+00	 3.9452846408e-01	 2.2354262422e+00
 1.7483512119e+00	 4.2809816627e-01	 2.0730278831e+00
 1.7397822055e+00	 4.6169023984e-01	 1.9094861649e+00
 1.7305181247e+00	 4.9528478674e-01	 1.7503325933e+00
 1.7205538430e+00	 5.2886148790e-01	 1.6017671266e+00
 1.7098849821e+00	 5.6239963361e-01	 1.4706333975e+00
 1.6985079403e+00	 5.9587815596e-01	 1.3643867859e+00
 1.6864199179e+00	 6.2927566341e-01	 1.2689168337e+00
 1.6736189419e+00	 6.6257047723e-01	 1.0596490174e+00
 1.7760953217e+00	 3.2867076344e-01	 2.5259854263e+00
 1.7695510903e+00	 3.6225405643e-01	 2.3770158938e+00
 1.7623290145e+00	 3.9589835458e-01	 2.2183573718e+00
 1.7544218758e+00	 4.2958461823e-01	 2.0542511386e+00
 1.7458231159e+00	 4.6329333095e-01	 1.8896417256e+00
 1.7365268682e+00	 4.9700452559e-01	 1.7301656427e+00
 1.7265279883e+00	 5.3069781251e-01	 1.5821331895e+00
 1.7158220828e+00	 5.6435241011e-01	 1.4525031632e+00
 1.7044055373e+00	 5.9794717733e-01	 1.3488503444e+00
 1.6922755426e+00	 6.3146064835e-01	 1.2459034940e+00
 1.6794301188e+00	 6.6487106916e-01	 1.0414357443e+00
 1.7822409802e+00	 3.2980803251e-01	 2.5139896517e+00
 1.7756741044e+00	 3.6350753067e-01	 2.3622496191e+00
 1.7684270388e+00	 3.9726824508e-01	 2.2012456825e+00
 1.7604925397e+00	 4.3107107020e-01	 2.0353126180e+00
 1.7518640263e+00	 4.6489642206e-01	 1.8694947041e+00
 1.7425356117e+00	 4.9872426443e-01	 1.7095340836e+00
 1.7325021336e+00	 5.3253413712e-01	 1.5618521357e+00
 1.7217591834e+00	 5.6630518662e-01	 1.4335236701e+00
 1.7103031343e+00	 6.0001619871e-01	 1.3322438228e+00
 1.6981311673e+00	 6.3364563329e-01	 1.2216562794e+00
 1.6852412957e+00	 6.6717166109e-01	 1.0219965501e+00
 1.6271295269e+00	 6.4416574175e-01	 1.1590209234e+00
 1.6139898915e+00	 6.7641454023e-01	 1.0093280184e+00
 1.6001557665e+00	 7.0852065810e-01	 8.5930093126e-01
 1.5856277673e+00	 7.4046241201e-01	 7.0984731379e-01
 1.5704073875e+00	 7.7221799858e-01	 5.6193578567e-01
 1.5544970119e+00	 8.0376553786e-01	 4.1661499938e-01
 1.5378999272e+00	 8.3508311796e-01	 2.7503221413e-01
 1.5206203292e+00	 8.6614884071e-01	 1.3845107158e-01
 1.5026633286e+00	 8.9694086809e-01	 8.2682652472e-03
 1.4840349526e+00	 9.2743746932e-01	-1.1397120117e-01
 1.4647421446e+00	 9.5761706843e-01	-2.2656046293e-01
 1.6329407037e+00	 6.4646633369e-01	 1.1512733749e+00
 1.6197541411e+00	 6.7883030644e-01	 1.0059497759e+00
 1.6058706085e+00	 7.1105108902e-01	 8.5938317119e-01
 1.5912907236e+00	 7.4310692062e-01	 7.1240700003e-01
 1.5760159853e+00	 7.7497592000e-01	 5.6592035432e-01
 1.5600487870e+00	 8.0663612907e-01	 4.2090770419e-01
 1.5433924269e+00	 8.3806555767e-01	 2.7845811387e-01
 1.5260511161e+00	 8.6924222943e-01	 1.3978363408e-01
 1.5080299833e+00	 9.0014422833e-01	 6.2365562166e-03
 1.4893350774e+00	 9.3074974600e-01	-1.2067478325e-01
 1.4699733666e+00	 9.6103712939e-01	-2.3927195063e-01
 1.6387518806e+00	 6.4876692562e-01	 1.1421544934e+00
 1.6255183907e+00	 6.8124607266e-01	 1.0011545783e+00
 1.6115854505e+00	 7.1358151994e-01	 8.5800847678e-01
 1.5969536799e+00	 7.4575142924e-01	 7.1347510999e-01
 1.5816245831e+00	 7.7773384143e-01	 5.6838373693e-01
 1.5656005620e+00	 8.0950672027e-01	 4.2365434376e-01
 1.5488849267e+00	 8.4104799738e-01	 2.8031750493e-01
 1.5314819030e+00	 8.7233561815e-01	 1.3953339553e-01
 1.5133966381e+00	 9.0334758858e-01	 2.6096333147e-03
 1.4946352022e+00	 9.3406202267e-01	-1.2898236764e-01
 1.4752045885e+00	 9.6445719035e-01	-2.5359284061e-01
 1.6445630575e+00	 6.5106751756e-01	 1.1316821158e+00
 1.6312826403e+00	 6.8366183888e-01	 9.9496248592e-01
 1.6173002926e+00	 7.1611195087e-01	 8.5519900367e-01
 1.6026166362e+00	 7.4839593786e-01	 7.1307576003e-01
 1.5872331809e+00	 7.8049176285e-01	 5.6935186931e-01
 1.5711523371e+00	 8.1237731148e-01	 4.2488252582e-01
 1.5543774264e+00	 8.4403043709e-01	 2.8063951352e-01
 1.5369126899e+00	 8.7542900687e-01	 1.3773084159e-01
 1.5187632928e+00	 9.0655094882e-01	-2.5808224517e-03
 1.4999353271e+00	 9.3737429935e-01	-1.3886124674e-01
 1.4804358105e+00	 9.6787725131e-01	-2.6948957163e-01
 1.6503742344e+00	 6.5336810949e-01	 1.1198741798e+00
 1.6370468899e+00	 6.8607760509e-01	 9.8739364420e-01
 1.6230151346e+00	 7.1864238179e-01	 8.5097697885e-01
 1.6082795925e+00	 7.5104044647e-01	 7.1123312524e-01
 1.5928417787e+00	 7.8324968428e-01	 5.6885073473e-01
 1.5767041121e+00	 8.1524790269e-01	 4.2461989563e-01
 1.5598699262e+00	 8.4701287680e-01	 2.7945329482e-01
 1.5423434768e+00	 8.7852239559e-01	 1.3440647978e-01
 1.5241299476e+00	 9.0975430907e-01	-9.3031138798e-03
 1.5052354519e+00	 9.4068657603e-01	-1.5027870097e-01
 1.4856670324e+00	 9.7129731227e-01	-2.8692857320e-01
 1.6561854113e+00	 6.5566870143e-01	 1.1067487214e+00
 1.6428111395e+00	 6.8849337131e-01	 9.7846828243e-01
 1.6287299766e+00	 7.2117281271e-01	 8.4536469941e-01
 1.6139425488e+00	 7.5368495508e-01	 7.0797143844e-01
 1.5984503765e+00	 7.8600760570e-01	 5.6690636308e-01
 1.5822558872e+00	 8.1811849390e-01	 4.2289413534e-01
 1.5653624259e+00	 8.4999531650e-01	 2.7678803249e-01
 1.5477742637e+00	 8.8161578430e-01	 1.2959083912e-01
 1.5294966023e+00	 9.1295766931e-01	-1.7525527855e-02
 1.5105355767e+00	 9.4399885270e-01	-1.6320199899e-01
 1.4908982544e+00	 9.7471737323e-01	-3.0587626573e-01
 1.6619965881e+00	 6.5796929336e-01	 1.0923238738e+00
 1.6485753891e+00	 6.9090913752e-01	 9.6820671218e-01
 1.6344448186e+00	 7.2370324363e-01	 8.3838453131e-01
 1.6196055052e+00	 7.5632946370e-01	 7.0331498914e-01
 1.6040589744e+00	 7.8876552712e-01	 5.6354483009e-01
 1.5878076622e+00	 8.2098908510e-01	 4.1973296331e-01
 1.5708549256e+00	 8.5297775621e-01	 2.7267293821e-01
 1.5532050506e+00	 8.8470917302e-01	 1.2331446974e-01
 1.5348632571e+00	 9.1616102955e-01	-2.7216335628e-02
 1.5158357016e+00	 9.4731112938e-01	-1.7759839788e-01
 1.4961294763e+00	 9.7813743419e-01	-3.2629906067e-01
 1.6678077650e+00	 6.6026988530e-01	 1.0766178652e+00
 1.6543396388e+00	 6.9332490373e-01	 9.5662932588e-01
 1.6401596607e+00	 7.2623367455e-01	 8.3005890822e-01
 1.6252684615e+00	 7.5897397231e-01	 6.9728812257e-01
 1.6096675722e+00	 7.9152344854e-01	 5.5879225646e-01
 1.5933594372e+00	 8.2385967631e-01	 4.1516413349e-01
 1.5763474254e+00	 8.5596019592e-01	 2.6713725112e-01
 1.5586358375e+00	 8.8780256173e-01	 1.1560794251e-01
 1.5402299118e+00	 9.1936438979e-01	-3.8343793090e-02
 1.5211358264e+00	 9.5062340606e-01	-1.9343514334e-01
 1.5013606982e+00	 9.8155749515e-01	-3.4816336070e-01
 1.6736189419e+00	 6.6257047723e-01	 1.0596490174e+00
 1.6601038884e+00	 6.9574066995e-01	 9.4375659541e-01
 1.6458745027e+00	 7.2876410547e-01	 8.2041033028e-01
 1.6309314178e+00	 7.6161848092e-01	 6.8991523872e-01
 1.6152761700e+00	 7.9428136997e-01	 5.5267480714e-01
 1.5989112123e+00	 8.2673026751e-01	 4.0921543484e-01
 1.5818399251e+00	 8.5894263562e-01	 2.6021023738e-01
 1.5640666244e+00	 8.9089595045e-01	 1.0650184869e-01
 1.5455965666e+00	 9.2256775003e-01	-5.0876141036e-02
 1.5264359512e+00	 9.5393568273e-01	-2.1067946990e-01
 1.5065919202e+00	 9.8497755610e-01	-3.7143555987e-01
 1.6794301188e+00	 6.6487106916e-01	 1.0414357443e+00
 1.6658681380e+00	 6.9815643616e-01	 9.2960907073e-01
 1.6515893447e+00	 7.3129453639e-01	 8.0946136300e-01
 1.6365943741e+00	 7.6426298953e-01	 6.8122079138e-01
 1.6208847678e+00	 7.9703929139e-01	 5.4521869055e-01
 1.6044629873e+00	 8.2960085871e-01	 4.0191469065e-01
 1.5873324249e+00	 8.6192507532e-01	 2.5192118974e-01
 1.5694974113e+00	 8.9398933916e-01	 9.6026799567e-02
 1.5509632213e+00	 9.2577111027e-01	-6.4781605427e-02
 1.5317360761e+00	 9.5724795940e-01	-2.2929860112e-01
 1.5118231421e+00	 9.8839761706e-01	-3.9608204373e-01
 1.6852412957e+00	 6.6717166109e-01	 1.0219965501e+00
 1.6716323876e+00	 7.0057220237e-01	 9.1420737854e-01
 1.6573041867e+00	 7.3382496731e-01	 7.9723463612e-01
 1.6422573304e+00	 7.6690749814e-01	 6.7122928720e-01
 1.6264933656e+00	 7.9979721280e-01	 5.3645015783e-01
 1.6100147624e+00	 8.3247144992e-01	 3.9328975801e-01
 1.5928249246e+00	 8.6490751503e-01	 2.4229942699e-01
 1.5749281982e+00	 8.9708272788e-01	 8.4213426121e-02
 1.5563298761e+00	 9.2897447051e-01	-8.0028397647e-02
 1.5370362009e+00	 9.6056023608e-01	-2.4925974978e-01
 1.5170543641e+00	 9.9181767802e-01	-4.2206918950e-01
 1.4647421446e+00	 9.5761706843e-01	-2.2656046293e-01
 1.4447927608e+00	 9.8745829200e-01	-5.8411150999e-01
 1.4241955631e+00	 1.0169400170e+00	-9.1322870505e-01
 1.4029602102e+00	 1.0460414182e+00	-1.2091802593e+00
 1.3810972448e+00	 1.0747420157e+00	-1.4670613399e+00
 1.3586180782e+00	 1.1030217212e+00	-1.6818031751e+00
 1.3355349719e+00	 1.1308608839e+00	-1.8481851602e+00
 1.3118610162e+00	 1.1582403352e+00	-1.9608499989e+00
 1.2876101064e+00	 1.1851414320e+00	-2.0143218712e+00
 1.2627969160e+00	 1.2115460985e+00	-2.0030275757e+00
 1.2374368671e+00	 1.2374368671e+00	-1.7205986547e+00
 1.4699733666e+00	 9.6103712939e-01	-2.3927195063e-01
 1.4499527349e+00	 9.9098492876e-01	-5.9615164939e-01
 1.4292819758e+00	 1.0205719456e+00	-9.2262809035e-01
 1.4079707824e+00	 1.0497772804e+00	-1.2139606376e+00
 1.3860297350e+00	 1.0785803800e+00	-1.4652387184e+00
 1.3634702857e+00	 1.1069610845e+00	-1.6713908796e+00
 1.3403047397e+00	 1.1348996728e+00	-1.8271968519e+00
 1.3165462341e+00	 1.1623769079e+00	-1.9273026570e+00
 1.2922087140e+00	 1.1893740799e+00	-1.9662387502e+00
 1.2673069050e+00	 1.2158730489e+00	-1.9384411469e+00
 1.2418562845e+00	 1.2418562845e+00	-1.7077110182e+00
 1.4752045885e+00	 9.6445719035e-01	-2.5359284061e-01
 1.4551127091e+00	 9.9451156552e-01	-6.0980435467e-01
 1.4343683885e+00	 1.0242038742e+00	-9.3366374147e-01
 1.4129813546e+00	 1.0535131426e+00	-1.2204217618e+00
 1.3909622252e+00	 1.0824187444e+00	-1.4651622579e+00
 1.3683224931e+00	 1.1109004478e+00	-1.6628111593e+00
 1.3450745074e+00	 1.1389384617e+00	-1.8081485032e+00
 1.3212314520e+00	 1.1665134805e+00	-1.8958235065e+00
 1.2968073215e+00	 1.1936067279e+00	-1.9203726824e+00
 1.2718168940e+00	 1.2201999992e+00	-1.8762409517e+00
 1.2462757018e+00	 1.2462757018e+00	-1.6978723382e+00
 1.4804358105e+00	 9.6787725131e-01	-2.6948957163e-01
 1.4602726832e+00	 9.9803820228e-01	-6.2503537761e-01
 1.4394548013e+00	 1.0278358029e+00	-9.4630065356e-01
 1.4179919268e+00	 1.0572490048e+00	-1.2285278024e+00
 1.3958947153e+00	 1.0862571087e+00	-1.4667952382e+00
 1.3731747005e+00	 1.1148398111e+00	-1.6560263390e+00
 1.3498442752e+00	 1.1429772506e+00	-1.7910014213e+00
 1.3259166699e+00	 1.1706500531e+00	-1.8663727761e+00
 1.3014059290e+00	 1.1978393759e+00	-1.8766827595e+00
 1.2763268830e+00	 1.2245269496e+00	-1.8163848877e+00
 1.2506951192e+00	 1.2506951192e+00	-1.6946278710e+00
 1.4856670324e+00	 9.7129731227e-01	-2.8692857320e-01
 1.4654326573e+00	 1.0015648390e+00	-6.4181046207e-01
 1.4445412140e+00	 1.0314677315e+00	-9.6050381725e-01
 1.4230024989e+00	 1.0609848670e+00	-1.2382429309e+00
 1.4008272055e+00	 1.0900954730e+00	-1.4701009474e+00
 1.3780269079e+00	 1.1187791744e+00	-1.6509987608e+00
 1.3546140429e+00	 1.1470160394e+00	-1.7757169420e+00
 1.3306018879e+00	 1.1747866258e+00	-1.8389107369e+00
 1.3060045365e+00	 1.2020720239e+00	-1.8351281305e+00
 1.2808368720e+00	 1.2288538999e+00	-1.7588309271e+00
 1.2551145366e+00	 1.2551145366e+00	-1.7107933850e+00
 1.4908982544e+00	 9.7471737323e-01	-3.0587626573e-01
 1.4705926315e+00	 1.0050914758e+00	-6.6009534418e-01
 1.4496276267e+00	 1.0350996601e+00	-9.7623821867e-01
 1.4280130711e+00	 1.0647207292e+00	-1.2495313194e+00
 1.4057596957e+00	 1.0939338374e+00	-1.4750426817e+00
 1.3828791154e+00	 1.1227185377e+00	-1.6476907846e+00
 1.3593838107e+00	 1.1510548283e+00	-1.7622564298e+00
 1.3352871058e+00	 1.1789231984e+00	-1.8133977012e+00
 1.3106031441e+00	 1.2063046718e+00	-1.7956680010e+00
 1.2853468610e+00	 1.2331808503e+00	-1.7035371154e+00
 1.2595339540e+00	 1.2595339540e+00	-1.7255961279e+00
 1.4961294763e+00	 9.7813743419e-01	-3.2629906067e-01
 1.4757526056e+00	 1.0086181125e+00	-6.7985575242e-01
 1.4547140394e+00	 1.0387315888e+00	-9.9346883963e-01
 1.4330236433e+00	 1.0684565914e+00	-1.2623571411e+00
 1.4106921858e+00	 1.0977722017e+00	-1.4815837450e+00
 1.3877313228e+00	 1.1266579010e+00	-1.6460647867e+00
 1.3641535784e+00	 1.1550936172e+00	-1.7505812771e+00
 1.3399723237e+00	 1.1830597710e+00	-1.7897940224e+00
 1.3152017516e+00	 1.2105373198e+00	-1.7582616321e+00
 1.2898568500e+00	 1.2375078007e+00	-1.6504615704e+00
 1.2639533714e+00	 1.2639533714e+00	-1.7390478033e+00
 1.5013606982e+00	 9.8155749515e-01	-3.4816336070e-01
 1.4809125798e+00	 1.0121447493e+00	-7.0105740779e-01
 1.4598004522e+00	 1.0423635174e+00	-1.0121606576e+00
 1.4380342155e+00	 1.0721924536e+00	-1.2766845699e+00
 1.4156246760e+00	 1.1016105661e+00	-1.4896874492e+00
 1.3925835302e+00	 1.1305972642e+00	-1.6460831603e+00
 1.3689233462e+00	 1.1591324061e+00	-1.7406529037e+00
 1.3446575416e+00	 1.1871963436e+00	-1.7680600938e+00
 1.3198003591e+00	 1.2147699678e+00	-1.7228683397e+00
 1.2943668390e+00	 1.2418347510e+00	-1.5995624809e+00
 1.2683727888e+00	 1.2683727888e+00	-1.7511602039e+00
 1.5065919202e+00	 9.8497755610e-01	-3.7143555987e-01
 1.4860725539e+00	 1.0156713861e+00	-7.2366602392e-01
 1.4648868649e+00	 1.0459954460e+00	-1.0322786458e+00
 1.4430447877e+00	 1.0759283158e+00	-1.2924777802e+00
 1.4205571662e+00	 1.1054489304e+00	-1.4993171137e+00
 1.3974357376e+00	 1.1345366275e+00	-1.6477083152e+00
 1.3736931140e+00	 1.1631711949e+00	-1.7324327563e+00
 1.3493427595e+00	 1.1913329163e+00	-1.7481563481e+00
 1.3243989666e+00	 1.2190026158e+00	-1.6894474929e+00
 1.2988768279e+00	 1.2461617014e+00	-1.5507981050e+00
 1.2727922062e+00	 1.2727922062e+00	-1.7619452099e+00
 1.5118231421e+00	 9.8839761706e-01	-3.9608204373e-01
 1.4912325281e+00	 1.0191980228e+00	-7.4764730721e-01
 1.4699732776e+00	 1.0496273747e+00	-1.0537877733e+00
 1.4480553599e+00	 1.0796641781e+00	-1.3097009475e+00
 1.4254896563e+00	 1.1092872948e+00	-1.5104360656e+00
 1.4022879451e+00	 1.1384759908e+00	-1.6509026768e+00
 1.3784628817e+00	 1.1672099838e+00	-1.7258823081e+00
 1.3540279775e+00	 1.1954694889e+00	-1.7300432569e+00
 1.3289975742e+00	 1.2232352637e+00	-1.6579585139e+00
 1.3033868169e+00	 1.2504886517e+00	-1.5125321217e+00
 1.2772116235e+00	 1.2772116235e+00	-1.7714147873e+00
 1.5170543641e+00	 9.9181767802e-01	-4.2206918950e-01
 1.4963925022e+00	 1.0227246596e+00	-7.7296695694e-01
 1.4750596904e+00	 1.0532593033e+00	-1.0766530053e+00
 1.4530659320e+00	 1.0834000403e+00	-1.3283182479e+00
 1.4304221465e+00	 1.1131256591e+00	-1.5230076392e+00
 1.4071401525e+00	 1.1424153541e+00	-1.6556286869e+00
 1.3832326495e+00	 1.1712487727e+00	-1.7209630585e+00
 1.3587131954e+00	 1.1996060615e+00	-1.7136813296e+00
 1.3335961817e+00	 1.2274679117e+00	-1.6283608766e+00
 1.3078968059e+00	 1.2548156021e+00	-1.5404195858e+00
 1.2816310409e+00	 1.2816310409e+00	-1.7795809866e+00
 1.2374368671e+00	 1.2374368671e+00	-1.7205986547e+00
 1.2115460985e+00	 1.2627969160e+00	-1.5663562179e+00
 1.1851414320e+00	 1.2876101064e+00	-1.6878190610e+00
 1.1582403352e+00	 1.3118610162e+00	-1.7999231182e+00
 1.1308608839e+00	 1.3355349719e+00	-1.9006292463e+00
 1.1030217212e+00	 1.3586180782e+00	-1.9878062578e+00
 1.0747420157e+00	 1.3810972448e+00	-2.0592477273e+00
 1.0460414182e+00	 1.4029602102e+00	-2.1126897862e+00
 1.0169400170e+00	 1.4241955631e+00	-2.1458297158e+00
 9.8745829200e-01	 1.4447927608e+00	-2.1563451447e+00
 9.5761706843e-01	 1.4647421446e+00	-2.1419136486e+00
 1.2418562845e+00	 1.2418562845e+00	-1.7077110182e+00
 1.2158730489e+00	 1.2673069050e+00	-1.6311668834e+00
 1.1893740799e+00	 1.2922087140e+00	-1.7304538983e+00
 1.1623769079e+00	 1.3165462341e+00	-1.8236107707e+00
 1.1348996728e+00	 1.3403047397e+00	-1.9085739119e+00
 1.1069610845e+00	 1.3634702857e+00	-1.9831750960e+00
 1.0785803800e+00	 1.3860297350e+00	-2.0451585865e+00
 1.0497772804e+00	 1.4079707824e+00	-2.0921993185e+00
 1.0205719456e+00	 1.4292819758e+00	-2.1219219460e+00
 9.9098492876e-01	 1.4499527349e+00	-2.1319205553e+00
 9.6103712939e-01	 1.4699733666e+00	-2.1197788355e+00
 1.2462757018e+00	 1.2462757018e+00	-1.6978723382e+00
 1.2201999992e+00	 1.2718168940e+00	-1.6952265807e+00
 1.1936067279e+00	 1.2968073215e+00	-1.7723312634e+00
 1.1665134805e+00	 1.3212314520e+00	-1.8465230050e+00
 1.1389384617e+00	 1.3450745074e+00	-1.9157136600e+00
 1.1109004478e+00	 1.3683224931e+00	-1.9776978710e+00
 1.0824187444e+00	 1.3909622252e+00	-2.0301705151e+00
 1.0535131426e+00	 1.4129813546e+00	-2.0707452748e+00
 1.0242038742e+00	 1.4343683885e+00	-2.0969741407e+00
 9.9451156552e-01	 1.4551127091e+00	-2.1063676409e+00
 9.6445719035e-01	 1.4752045885e+00	-2.0964155841e+00
 1.2506951192e+00	 1.2506951192e+00	-1.6946278710e+00
 1.2245269496e+00	 1.2763268830e+00	-1.7585152810e+00
 1.1978393759e+00	 1.3014059290e+00	-1.8134314056e+00
 1.1706500531e+00	 1.3259166699e+00	-1.8686405611e+00
 1.1429772506e+00	 1.3498442752e+00	-1.9220299334e+00
 1.1148398111e+00	 1.3731747005e+00	-1.9713569377e+00
 1.0862571087e+00	 1.3958947153e+00	-2.0142669860e+00
 1.0572490048e+00	 1.4179919268e+00	-2.0483124486e+00
 1.0278358029e+00	 1.4394548013e+00	-2.0709726123e+00
 9.9803820228e-01	 1.4602726832e+00	-2.0796744269e+00
 9.6787725131e-01	 1.4804358105e+00	-2.0718138214e+00
 1.2551145366e+00	 1.2551145366e+00	-1.7107933850e+00
 1.2288538999e+00	 1.2808368720e+00	-1.8210130507e+00
 1.2020720239e+00	 1.3060045365e+00	-1.8537346670e+00
 1.1747866258e+00	 1.3306018879e+00	-1.8899442683e+00
 1.1470160394e+00	 1.3546140429e+00	-1.9275042572e+00
 1.1187791744e+00	 1.3780269079e+00	-1.9641347235e+00
 1.0900954730e+00	 1.4008272055e+00	-1.9974315326e+00
 1.0609848670e+00	 1.4230024989e+00	-2.0248856794e+00
 1.0314677315e+00	 1.4445412140e+00	-2.0439037023e+00
 1.0015648390e+00	 1.4654326573e+00	-2.0518289479e+00
 9.7129731227e-01	 1.4856670324e+00	-2.0459634617e+00
 1.2595339540e+00	 1.2595339540e+00	-1.7255961279e+00
 1.2331808503e+00	 1.2853468610e+00	-1.8827000491e+00
 1.2063046718e+00	 1.3106031441e+00	-1.8932214813e+00
 1.1789231984e+00	 1.3352871058e+00	-1.9104150429e+00
 1.1510548283e+00	 1.3593838107e+00	-1.9321182370e+00
 1.1227185377e+00	 1.3828791154e+00	-1.9560137270e+00
 1.0939338374e+00	 1.4057596957e+00	-1.9796477479e+00
 1.0647207292e+00	 1.4280130711e+00	-2.0004498517e+00
 1.0350996601e+00	 1.4496276267e+00	-2.0157537804e+00
 1.0050914758e+00	 1.4705926315e+00	-2.0228192481e+00
 9.7471737323e-01	 1.4908982544e+00	-2.0188544073e+00
 1.2639533714e+00	 1.2639533714e+00	-1.7390478033e+00
 1.2375078007e+00	 1.2898568500e+00	-1.9435565269e+00
 1.2105373198e+00	 1.3152017516e+00	-1.9318723724e+00
 1.1830597710e+00	 1.3399723237e+00	-1.9300338873e+00
 1.1550936172e+00	 1.3641535784e+00	-1.9358535576e+00
 1.1266579010e+00	 1.3877313228e+00	-1.9469765172e+00
 1.0977722017e+00	 1.4106921858e+00	-1.9608992831e+00
 1.0684565914e+00	 1.4330236433e+00	-1.9749898947e+00
 1.0387315888e+00	 1.4547140394e+00	-1.9865092444e+00
 1.0086181125e+00	 1.4757526056e+00	-1.9926333804e+00
 9.7813743419e-01	 1.4961294763e+00	-1.9904765482e+00
 1.2683727888e+00	 1.2683727888e+00	-1.7511602039e+00
 1.2418347510e+00	 1.2943668390e+00	-2.0035628251e+00
 1.2147699678e+00	 1.3198003591e+00	-1.9696679523e+00
 1.1871963436e+00	 1.3446575416e+00	-1.9487818882e+00
 1.1591324061e+00	 1.3689233462e+00	-1.9386919817e+00
 1.1305972642e+00	 1.3925835302e+00	-1.9370057316e+00
 1.1016105661e+00	 1.4156246760e+00	-1.9411698471e+00
 1.0721924536e+00	 1.4380342155e+00	-1.9484907809e+00
 1.0423635174e+00	 1.4598004522e+00	-1.9561565195e+00
 1.0121447493e+00	 1.4809125798e+00	-1.9612594069e+00
 9.8155749515e-01	 1.5013606982e+00	-1.9608197624e+00
 1.2727922062e+00	 1.2727922062e+00	-1.7619452099e+00
 1.2461617014e+00	 1.2988768279e+00	-2.0626993729e+00
 1.2190026158e+00	 1.3243989666e+00	-2.0065889199e+00
 1.1913329163e+00	 1.3493427595e+00	-1.9666402150e+00
 1.1631711949e+00	 1.3736931140e+00	-1.9406153483e+00
 1.1345366275e+00	 1.3974357376e+00	-1.9260840755e+00
 1.1054489304e+00	 1.4205571662e+00	-1.9204432052e+00
 1.0759283158e+00	 1.4430447877e+00	-1.9209375258e+00
 1.0459954460e+00	 1.4648868649e+00	-1.9246820578e+00
 1.0156713861e+00	 1.4860725539e+00	-1.9286853982e+00
 9.8497755610e-01	 1.5065919202e+00	-1.9298739166e+00
 1.2772116235e+00	 1.2772116235e+00	-1.7714147873e+00
 1.2504886517e+00	 1.3033868169e+00	-2.1132791342e+00
 1.2232352637e+00	 1.3289975742e+00	-2.0426160597e+00
 1.1954694889e+00	 1.3540279775e+00	-1.9835901188e+00
 1.1672099838e+00	 1.3784628817e+00	-1.9416055716e+00
 1.1384759908e+00	 1.4022879451e+00	-1.9141943209e+00
 1.1092872948e+00	 1.4254896563e+00	-1.8987031780e+00
 1.0796641781e+00	 1.4480553599e+00	-1.8923151870e+00
 1.0496273747e+00	 1.4699732776e+00	-1.8920723379e+00
 1.0191980228e+00	 1.4912325281e+00	-1.8948994339e+00
 9.8839761706e-01	 1.5118231421e+00	-1.8976288658e+00
 1.2816310409e+00	 1.2816310409e+00	-1.7795809866e+00
 1.2548156021e+00	 1.3078968059e+00	-2.1025074582e+00
 1.2274679117e+00	 1.3335961817e+00	-2.0777302397e+00
 1.1996060615e+00	 1.3587131954e+00	-1.9996129306e+00
 1.1712487727e+00	 1.3832326495e+00	-1.9416446398e+00
 1.1424153541e+00	 1.4071401525e+00	-1.9013193046e+00
 1.1131256591e+00	 1.4304221465e+00	-1.8759336407e+00
 1.0834000403e+00	 1.4530659320e+00	-1.8626088635e+00
 1.0532593033e+00	 1.4750596904e+00	-1.8583138644e+00
 1.0227246596e+00	 1.4963925022e+00	-1.8598896016e+00
 9.9181767802e-01	 1.5170543641e+00	-1.8640744537e+00
 9.5761706843e-01	 1.4647421446e+00	-2.1419136486e+00
 9.2743746932e-01	 1.4840349526e+00	-1.9227365983e+00
 8.9694086809e-01	 1.5026633286e+00	-1.7350352773e+00
 8.6614884071e-01	 1.5206203292e+00	-1.5767406024e+00
 8.3508311796e-01	 1.5378999272e+00	-1.4456361930e+00
 8.0376553786e-01	 1.5544970119e+00	-1.3393812270e+00
 7.7221799858e-01	 1.5704073875e+00	-1.2555335614e+00
 7.4046241201e-01	 1.5856277673e+00	-1.1915728850e+00
 7.0852065810e-01	 1.6001557665e+00	-1.1449236836e+00
 6.7641454023e-01	 1.6139898915e+00	-1.1129778025e+00
 6.4416574175e-01	 1.6271295269e+00	-1.0931164088e+00
 9.6103712939e-01	 1.4699733666e+00	-2.1197788355e+00
 9.3074974600e-01	 1.4893350774e+00	-1.9060884513e+00
 9.0014422833e-01	 1.5080299833e+00	-1.7232850362e+00
 8.6924222943e-01	 1.5260511161e+00	-1.5692323003e+00
 8.3806555767e-01	 1.5433924269e+00	-1.4416496141e+00
 8.0663612907e-01	 1.5600487870e+00	-1.3381351915e+00
 7.7497592000e-01	 1.5760159853e+00	-1.2561895120e+00
 7.4310692062e-01	 1.5912907236e+00	-1.1932387531e+00
 7.1105108902e-01	 1.6058706085e+00	-1.1466580056e+00
 6.7883030644e-01	 1.6197541411e+00	-1.1137940586e+00
 6.4646633369e-01	 1.6329407037e+00	-1.0919875543e+00
 9.6445719035e-01	 1.4752045885e+00	-2.0964155841e+00
 9.3406202267e-01	 1.4946352022e+00	-1.8881547720e+00
 9.0334758858e-01	 1.5133966381e+00	-1.7102028986e+00
 8.7233561815e-01	 1.5314819030e+00	-1.5603562330e+00
 8.4104799738e-01	 1.5488849267e+00	-1.4362696351e+00
 8.0950672027e-01	 1.5656005620e+00	-1.3354800657e+00
 7.7773384143e-01	 1.5816245831e+00	-1.2554303159e+00
 7.4575142924e-01	 1.5969536799e+00	-1.1934927189e+00
 7.1358151994e-01	 1.6115854505e+00	-1.1469926193e+00
 6.8124607266e-01	 1.6255183907e+00	-1.1132313829e+00
 6.4876692562e-01	 1.6387518806e+00	-1.0895087468e+00
 9.6787725131e-01	 1.4804358105e+00	-2.0718138214e+00
 9.3737429935e-01	 1.4999353271e+00	-1.8689269911e+00
 9.0655094882e-01	 1.5187632928e+00	-1.6957817376e+00
 8.7542900687e-01	 1.5369126899e+00	-1.5501066522e+00
 8.4403043709e-01	 1.5543774264e+00	-1.4294918185e+00
 8.1237731148e-01	 1.5711523371e+00	-1.3314126538e+00
 7.8049176285e-01	 1.5872331809e+00	-1.2532539460e+00
 7.4839593786e-01	 1.6026166362e+00	-1.1923338492e+00
 7.1611195087e-01	 1.6173002926e+00	-1.1459276085e+00
 6.8366183888e-01	 1.6312826403e+00	-1.1112907976e+00
 6.5106751756e-01	 1.6445630575e+00	-1.0856818660e+00
 9.7129731227e-01	 1.4856670324e+00	-2.0459634617e+00
 9.4068657603e-01	 1.5052354519e+00	-1.8483965106e+00
 9.0975430907e-01	 1.5241299476e+00	-1.6800143828e+00
 8.7852239559e-01	 1.5423434768e+00	-1.5384777518e+00
 8.4701287680e-01	 1.5598699262e+00	-1.4213116567e+00
 8.1524790269e-01	 1.5767041121e+00	-1.3259296775e+00
 7.8324968428e-01	 1.5928417787e+00	-1.2496582825e+00
 7.5104044647e-01	 1.6082795925e+00	-1.1897611088e+00
 7.1864238179e-01	 1.6230151346e+00	-1.1434629468e+00
 6.8607760509e-01	 1.6370468899e+00	-1.1079732073e+00
 6.5336810949e-01	 1.6503742344e+00	-1.0805086683e+00
 9.7471737323e-01	 1.4908982544e+00	-2.0188544073e+00
 9.4399885270e-01	 1.5105355767e+00	-1.8265547043e+00
 9.1295766931e-01	 1.5294966023e+00	-1.6628936210e+00
 8.8161578430e-01	 1.5477742637e+00	-1.5254636693e+00
 8.4999531650e-01	 1.5653624259e+00	-1.4117245731e+00
 8.1811849390e-01	 1.5822558872e+00	-1.3190277784e+00
 7.8600760570e-01	 1.5984503765e+00	-1.2446411145e+00
 7.5368495508e-01	 1.6139425488e+00	-1.1857733622e+00
 7.2117281271e-01	 1.6287299766e+00	-1.1395984995e+00
 6.8849337131e-01	 1.6428111395e+00	-1.1032794013e+00
 6.5566870143e-01	 1.6561854113e+00	-1.0739907888e+00
 9.7813743419e-01	 1.4961294763e+00	-1.9904765482e+00
 9.4731112938e-01	 1.5158357016e+00	-1.8033929185e+00
 9.1616102955e-01	 1.5348632571e+00	-1.6444121967e+00
 8.8470917302e-01	 1.5532050506e+00	-1.5110584867e+00
 8.5297775621e-01	 1.5708549256e+00	-1.4007259229e+00
 8.2098908510e-01	 1.5878076622e+00	-1.3107035187e+00
 7.8876552712e-01	 1.6040589744e+00	-1.2382001420e+00
 7.5632946370e-01	 1.6196055052e+00	-1.1803693756e+00
 7.2370324363e-01	 1.6344448186e+00	-1.1343340253e+00
 6.9090913752e-01	 1.6485753891e+00	-1.0972100556e+00
 6.5796929336e-01	 1.6619965881e+00	-1.0661297438e+00
 9.8155749515e-01	 1.5013606982e+00	-1.9608197624e+00
 9.5062340606e-01	 1.5211358264e+00	-1.7789024724e+00
 9.1936438979e-01	 1.5402299118e+00	-1.6245628132e+00
 8.8780256173e-01	 1.5586358375e+00	-1.4952562313e+00
 8.5596019592e-01	 1.5763474254e+00	-1.3883109950e+00
 8.2385967631e-01	 1.5933594372e+00	-1.3009533827e+00
 7.9152344854e-01	 1.6096675722e+00	-1.2303329772e+00
 7.5897397231e-01	 1.6252684615e+00	-1.1735478185e+00
 7.2623367455e-01	 1.6401596607e+00	-1.1276691787e+00
 6.9332490373e-01	 1.6543396388e+00	-1.0897657352e+00
 6.6026988530e-01	 1.6678077650e+00	-1.0569269326e+00
 9.8497755610e-01	 1.5065919202e+00	-1.9298739166e+00
 9.5393568273e-01	 1.5264359512e+00	-1.7530746586e+00
 9.2256775003e-01	 1.5455965666e+00	-1.6033381331e+00
 8.9089595045e-01	 1.5640666244e+00	-1.4780508770e+00
 8.5894263562e-01	 1.5818399251e+00	-1.3744750124e+00
 8.2673026751e-01	 1.5989112123e+00	-1.2897737785e+00
 7.9428136997e-01	 1.6152761700e+00	-1.2210371459e+00
 7.6161848092e-01	 1.6309314178e+00	-1.1653072652e+00
 7.2876410547e-01	 1.6458745027e+00	-1.1196035112e+00
 6.9574066995e-01	 1.6601038884e+00	-1.0809468956e+00
 6.6257047723e-01	 1.6736189419e+00	-1.0463836396e+00
 9.8839761706e-01	 1.5118231421e+00	-1.8976288658e+00
 9.5724795940e-01	 1.5317360761e+00	-1.7259007434e+00
 9.2577111027e-01	 1.5509632213e+00	-1.5807307792e+00
 8.9398933916e-01	 1.5694974113e+00	-1.4594363449e+00
 8.6192507532e-01	 1.5873324249e+00	-1.3592131339e+00
 8.2960085871e-01	 1.6044629873e+00	-1.2771610390e+00
 7.9703929139e-01	 1.6208847678e+00	-1.2103100891e+00
 7.6426298953e-01	 1.6365943741e+00	-1.1556461969e+00
 7.3129453639e-01	 1.6515893447e+00	-1.1101364734e+00
 6.9815643616e-01	 1.6658681380e+00	-1.0707538847e+00
 6.6487106916e-01	 1.6794301188e+00	-1.0345010364e+00
 9.9181767802e-01	 1.5170543641e+00	-1.8640744537e+00
 9.6056023608e-01	 1.5370362009e+00	-1.6973719674e+00
 9.2897447051e-01	 1.5563298761e+00	-1.5567333350e+00
 8.9708272788e-01	 1.5749281982e+00	-1.4394065043e+00
 8.6490751503e-01	 1.5928249246e+00	-1.3425204550e+00
 8.3247144992e-01	 1.6100147624e+00	-1.2631114232e+00
 7.9979721280e-01	 1.6264933656e+00	-1.1981491648e+00
 7.6690749814e-01	 1.6422573304e+00	-1.1445630028e+00
 7.3382496731e-01	 1.6573041867e+00	-1.0992674168e+00
 7.0057220237e-01	 1.6716323876e+00	-1.0591869449e+00
 6.6717166109e-01	 1.6852412957e+00	-1.0212801835e+00
 6.4416574175e-01	 1.6271295269e+00	-1.0931164088e+00
 6.1179578386e-01	 1.6395749202e+00	-9.5564264980e-01
 5.7932598496e-01	 1.6513271642e+00	-9.6852084114e-01
 5.4677742156e-01	 1.6623881771e+00	-9.7066367850e-01
 5.1417089101e-01	 1.6727606807e+00	-9.6020430806e-01
 4.8152687600e-01	 1.6824481768e+00	-9.3560977202e-01
 4.4886551095e-01	 1.6914549220e+00	-8.9569313754e-01
 4.1620655053e-01	 1.6997859004e+00	-8.3962194731e-01
 3.8356934007e-01	 1.7074467961e+00	-7.6692305214e-01
 3.5097278823e-01	 1.7144439629e+00	-6.7748392422e-01
 3.1843534174e-01	 1.7207843947e+00	-5.7155058509e-01
 6.4646633369e-01	 1.6329407037e+00	-1.0919875543e+00
 6.1398076881e-01	 1.6454305449e+00	-9.3864902618e-01
 5.8139500634e-01	 1.6572247612e+00	-9.5360063633e-01
 5.4873019807e-01	 1.6683252777e+00	-9.5812467260e-01
 5.1600721562e-01	 1.6787348260e+00	-9.5033159859e-01
 4.8324661484e-01	 1.6884569203e+00	-9.2866735079e-01
 4.5046860207e-01	 1.6974958324e+00	-8.9192568483e-01
 4.1769300250e-01	 1.7058565644e+00	-8.3925681072e-01
 3.8493923058e-01	 1.7135448203e+00	-7.7017237720e-01
 3.5222626248e-01	 1.7205669771e+00	-6.8454690404e-01
 3.1957261082e-01	 1.7269300533e+00	-5.8261579680e-01
 6.4876692562e-01	 1.6387518806e+00	-1.0895087468e+00
 6.1616575375e-01	 1.6512861696e+00	-9.2084890616e-01
 5.8346402771e-01	 1.6631223582e+00	-9.3811436919e-01
 5.5068297457e-01	 1.6742623783e+00	-9.4524946114e-01
 5.1784354024e-01	 1.6847089713e+00	-9.4034114675e-01
 4.8496635368e-01	 1.6944656638e+00	-9.2181350605e-01
 4.5207169318e-01	 1.7035367429e+00	-8.8844030013e-01
 4.1917945447e-01	 1.7119272283e+00	-8.3935379272e-01
 3.8630912108e-01	 1.7196428446e+00	-7.7404988747e-01
 3.5347973672e-01	 1.7266899912e+00	-6.9238967994e-01
 3.2070987989e-01	 1.7330757118e+00	-5.9459755948e-01
 6.5106751756e-01	 1.6445630575e+00	-1.0856818660e+00
 6.1835073870e-01	 1.6571417943e+00	-9.0223743063e-01
 5.8553304909e-01	 1.6690199552e+00	-9.2205665979e-01
 5.5263575108e-01	 1.6801994790e+00	-9.3203218227e-01
 5.1967986485e-01	 1.6906831166e+00	-9.3022664606e-01
 4.8668609253e-01	 1.7004744073e+00	-9.1504152233e-01
 4.5367478429e-01	 1.7095776533e+00	-8.8522989301e-01
 4.2066590644e-01	 1.7179978922e+00	-8.3990546036e-01
 3.8767901158e-01	 1.7257408689e+00	-7.7854783836e-01
 3.5473321097e-01	 1.7328130054e+00	-7.0100422516e-01
 3.2184714897e-01	 1.7392213704e+00	-6.0748759221e-01
 6.5336810949e-01	 1.6503742344e+00	-1.0805086683e+00
 6.2053572364e-01	 1.6629974190e+00	-8.8280963888e-01
 5.8760207046e-01	 1.6749175522e+00	-9.0542204741e-01
 5.5458852759e-01	 1.6861365796e+00	-9.1846691340e-01
 5.2151618946e-01	 1.6966572618e+00	-9.1998174842e-01
 4.8840583137e-01	 1.7064831508e+00	-9.0834466076e-01
 4.5527787540e-01	 1.7156185637e+00	-8.8228736690e-01
 4.2215235840e-01	 1.7240685562e+00	-8.4090439084e-01
 3.8904890208e-01	 1.7318388932e+00	-7.8365851083e-01
 3.5598668521e-01	 1.7389360195e+00	-7.1038255291e-01
 3.2298441805e-01	 1.7453670289e+00	-6.2127766750e-01
 6.5566870143e-01	 1.6561854113e+00	-1.0739907888e+00
 6.2272070858e-01	 1.6688530437e+00	-8.6256047037e-01
 5.8967109184e-01	 1.6808151493e+00	-8.8820499207e-01
 5.5654130409e-01	 1.6920736802e+00	-9.0454767226e-01
 5.2335251407e-01	 1.7026314071e+00	-9.0960006482e-01
 4.9012557021e-01	 1.7124918943e+00	-9.0171615941e-01
 4.5688096651e-01	 1.7216594742e+00	-8.7960561913e-01
 4.2363881037e-01	 1.7301392201e+00	-8.4234317136e-01
 3.9041879258e-01	 1.7379369174e+00	-7.8937421097e-01
 3.5724015946e-01	 1.7450590337e+00	-7.2051671568e-01
 3.2412168713e-01	 1.7515126875e+00	-6.3595961036e-01
 6.5796929336e-01	 1.6619965881e+00	-1.0661297438e+00
 6.2490569352e-01	 1.6747086685e+00	-8.4148476653e-01
 5.9174011321e-01	 1.6867127463e+00	-8.7039987581e-01
 5.5849408060e-01	 1.6980107809e+00	-8.9026841796e-01
 5.2518883868e-01	 1.7086055524e+00	-8.9907516608e-01
 4.9184530906e-01	 1.7185006378e+00	-8.9514923375e-01
 4.5848405762e-01	 1.7277003846e+00	-8.7717754114e-01
 4.2512526234e-01	 1.7362098840e+00	-8.4421439897e-01
 3.9178868308e-01	 1.7440349417e+00	-7.9568726953e-01
 3.5849363370e-01	 1.7511820478e+00	-7.3139880452e-01
 3.2525895621e-01	 1.7576583460e+00	-6.5152529735e-01
 6.6026988530e-01	 1.6678077650e+00	-1.0569269326e+00
 6.2709067846e-01	 1.6805642932e+00	-8.3575047103e-01
 5.9380913459e-01	 1.6926103433e+00	-8.5200100412e-01
 5.6044685710e-01	 1.7039478815e+00	-8.7562305198e-01
 5.2702516329e-01	 1.7145796977e+00	-8.8840058350e-01
 4.9356504790e-01	 1.7245093812e+00	-8.8863707703e-01
 4.6008714873e-01	 1.7337412950e+00	-8.7499601848e-01
 4.2661171430e-01	 1.7422805479e+00	-8.4651068033e-01
 3.9315857358e-01	 1.7501329660e+00	-8.0259004148e-01
 3.5974710795e-01	 1.7573050620e+00	-7.4302094843e-01
 3.2639622528e-01	 1.7638040046e+00	-6.6796665568e-01
 6.6257047723e-01	 1.6736189419e+00	-1.0463836396e+00
 6.2927566341e-01	 1.6864199179e+00	-8.2961964440e-01
 5.9587815596e-01	 1.6985079403e+00	-8.3300260724e-01
 5.6239963361e-01	 1.7098849821e+00	-8.6060541920e-01
 5.2886148790e-01	 1.7205538430e+00	-8.7756980961e-01
 4.9528478674e-01	 1.7305181247e+00	-8.8217286062e-01
 4.6169023984e-01	 1.7397822055e+00	-8.7305393099e-01
 4.2809816627e-01	 1.7483512119e+00	-8.4922463160e-01
 3.9452846408e-01	 1.7562309902e+00	-8.1007490563e-01
 3.6100058219e-01	 1.7634280761e+00	-7.5537531364e-01
 3.2753349436e-01	 1.7699496632e+00	-6.8527566237e-01
 6.6487106916e-01	 1.6794301188e+00	-1.0345010364e+00
 6.3146064835e-01	 1.6922755426e+00	-8.2235648131e-01
 5.9794717733e-01	 1.7044055373e+00	-8.1339884148e-01
 5.6435241011e-01	 1.7158220828e+00	-8.4520930887e-01
 5.3069781251e-01	 1.7265279883e+00	-8.6657629876e-01
 4.9700452559e-01	 1.7365268682e+00	-8.7574973448e-01
 4.6329333095e-01	 1.7458231159e+00	-8.7134415285e-01
 4.2958461823e-01	 1.7544218758e+00	-8.5234887827e-01
 3.9589835458e-01	 1.7623290145e+00	-8.1813426419e-01
 3.6225405643e-01	 1.7695510903e+00	-7.6845410298e-01
 3.2867076344e-01	 1.7760953217e+00	-7.0344434335e-01
 6.6717166109e-01	 1.6852412957e+00	-1.0212801835e+00
 6.3364563329e-01	 1.6981311673e+00	-8.1396108074e-01
 6.0001619871e-01	 1.7103031343e+00	-7.9318379045e-01
 5.6630518662e-01	 1.7217591834e+00	-8.2942845556e-01
 5.3253413712e-01	 1.7325021336e+00	-8.5541346789e-01
 4.9872426443e-01	 1.7425356117e+00	-8.6936082743e-01
 4.6489642206e-01	 1.7518640263e+00	-8.6985955271e-01
 4.3107107020e-01	 1.7604925397e+00	-8.5587605496e-01
 3.9726824508e-01	 1.7684270388e+00	-8.2676054236e-01
 3.6350753067e-01	 1.7756741044e+00	-7.8224955528e-01
 3.2980803251e-01	 1.7822409802e+00	-7.2246477264e-01
 3.1843534174e-01	 1.7207843947e+00	-5.7155058509e-01
 2.8597496231e-01	 1.7264756937e+00	-5.5876540872e-01
 2.5360910580e-01	 1.7315260383e+00	-5.4662063467e-01
 2.2135470347e-01	 1.7359441510e+00	-5.3439325886e-01
 1.8922814545e-01	 1.7397392647e+00	-5.2170485388e-01
 1.5724526633e-01	 1.7429210901e+00	-5.0851190167e-01
 1.2542133288e-01	 1.7454997821e+00	-4.9509363077e-01
 9.3771033808e-02	 1.7474859064e+00	-4.8203761558e-01
 6.2308471550e-02	 1.7488904066e+00	-4.7022340214e-01
 3.1047155973e-02	 1.7497245709e+00	-4.6080442875e-01
 0.0000000000e+00	 1.7500000000e+00	-4.5518850956e-01
 3.1957261082e-01	 1.7269300533e+00	-5.8261579680e-01
 2.8699630146e-01	 1.7326416783e+00	-5.6849574026e-01
 2.5451485261e-01	 1.7377100599e+00	-5.5525474650e-01
 2.2214525599e-01	 1.7421439515e+00	-5.4214652497e-01
 1.8990396026e-01	 1.7459526192e+00	-5.2877228527e-01
 1.5780685657e-01	 1.7491458083e+00	-5.1507107269e-01
 1.2586926621e-01	 1.7517337099e+00	-5.0130757988e-01
 9.4105930359e-02	 1.7537269275e+00	-4.8805769439e-01
 6.2531001807e-02	 1.7551364438e+00	-4.7619204867e-01
 3.1158038674e-02	 1.7559735873e+00	-4.6685784358e-01
 0.0000000000e+00	 1.7562500000e+00	-4.6145921574e-01
 3.2070987989e-01	 1.7330757118e+00	-5.9459755948e-01
 2.8801764062e-01	 1.7388076629e+00	-5.7920978257e-01
 2.5542059942e-01	 1.7438940815e+00	-5.6492432637e-01
 2.2293580850e-01	 1.7483437520e+00	-5.5097151188e-01
 1.9057977506e-01	 1.7521659737e+00	-5.3693214898e-01
 1.5836844681e-01	 1.7553705264e+00	-5.2272787267e-01
 1.2631719954e-01	 1.7579676377e+00	-5.0860892699e-01
 9.4440826910e-02	 1.7599679486e+00	-4.9513965809e-01
 6.2753532063e-02	 1.7613824810e+00	-4.8318198583e-01
 3.1268921374e-02	 1.7622226036e+00	-4.7387712700e-01
 0.0000000000e+00	 1.7625000000e+00	-4.6862584336e-01
 3.2184714897e-01	 1.7392213704e+00	-6.0748759221e-01
 2.8903897977e-01	 1.7449736476e+00	-5.9089960409e-01
 2.5632634623e-01	 1.7500781030e+00	-5.7562181703e-01
 2.2372636102e-01	 1.7545435526e+00	-5.6086105957e-01
 1.9125558987e-01	 1.7583793282e+00	-5.4617770304e-01
 1.5893003704e-01	 1.7615952446e+00	-5.3147599667e-01
 1.2676513288e-01	 1.7642015655e+00	-5.1699182132e-01
 9.4775723460e-02	 1.7662089697e+00	-5.0327812560e-01
 6.2976062320e-02	 1.7676285181e+00	-4.9118831615e-01
 3.1379804075e-02	 1.7684716199e+00	-4.8185787762e-01
 0.0000000000e+00	 1.7687500000e+00	-4.7668449823e-01
 3.2298441805e-01	 1.7453670289e+00	-6.2127766750e-01
 2.9006031892e-01	 1.7511396322e+00	-6.0355733102e-01
 2.5723209304e-01	 1.7562621246e+00	-5.8733972238e-01
 2.2451691353e-01	 1.7607433531e+00	-5.7180807154e-01
 1.9193140468e-01	 1.7645926827e+00	-5.5650227048e-01
 1.5949162728e-01	 1.7678199628e+00	-5.4130920527e-01
 1.2721306621e-01	 1.7704354933e+00	-5.2645047727e-01
 9.5110620010e-02	 1.7724499908e+00	-5.1246777971e-01
 6.3198592575e-02	 1.7738745553e+00	-5.0020620386e-01
 3.1490686775e-02	 1.7747206362e+00	-4.9079575276e-01
 0.0000000000e+00	 1.7750000000e+00	-4.8563134104e-01
 3.2412168713e-01	 1.7515126875e+00	-6.3595961036e-01
 2.9108165807e-01	 1.7573056168e+00	-6.1717514630e-01
 2.5813783984e-01	 1.7624461462e+00	-6.0007060639e-01
 2.2530746604e-01	 1.7669431537e+00	-5.8380551372e-01
 1.9260721948e-01	 1.7708060372e+00	-5.6789923819e-01
 1.6005321752e-01	 1.7740446810e+00	-5.5222132343e-01
 1.2766099954e-01	 1.7766694211e+00	-5.3697917322e-01
 9.5445516559e-02	 1.7786910119e+00	-5.2270336594e-01
 6.3421122831e-02	 1.7801205925e+00	-5.1023087382e-01
 3.1601569475e-02	 1.7809696526e+00	-5.0068646739e-01
 0.0000000000e+00	 1.7812500000e+00	-4.9546258635e-01
 3.2525895621e-01	 1.7576583460e+00	-6.5152529735e-01
 2.9210299722e-01	 1.7634716014e+00	-6.3174528863e-01
 2.5904358665e-01	 1.7686301677e+00	-6.1380709203e-01
 2.2609801855e-01	 1.7731429542e+00	-5.9684641339e-01
 1.9328303429e-01	 1.7770193918e+00	-5.8036205582e-01
 1.6061480775e-01	 1.7802693991e+00	-5.6420623939e-01
 1.2810893287e-01	 1.7829033488e+00	-5.4857225045e-01
 9.5780413108e-02	 1.7849320330e+00	-5.3397969147e-01
 6.3643653086e-02	 1.7863666296e+00	-5.2125761044e-01
 3.1712452174e-02	 1.7872186689e+00	-5.1152579310e-01
 0.0000000000e+00	 1.7875000000e+00	-5.0617450167e-01
 3.2639622528e-01	 1.7638040046e+00	-6.6796665568e-01
 2.9312433637e-01	 1.7696375860e+00	-6.4726005151e-01
 2.5994933345e-01	 1.7748141893e+00	-6.2854186024e-01
 2.2688857107e-01	 1.7793427547e+00	-6.1092385809e-01
 1.9395884909e-01	 1.7832327463e+00	-5.9388423466e-01
 1.6117639799e-01	 1.7864941173e+00	-5.7725790350e-01
 1.2855686620e-01	 1.7891372766e+00	-5.6122411201e-01
 9.6115309657e-02	 1.7911730541e+00	-5.4629162403e-01
 6.3866183341e-02	 1.7926126668e+00	-5.3328175667e-01
 3.1823334874e-02	 1.7934676852e+00	-5.2330955721e-01
 0.0000000000e+00	 1.7937500000e+00	-5.1776340652e-01
 3.2753349436e-01	 1.7699496632e+00	-6.8527566237e-01
 2.9414567552e-01	 1.7758035707e+00	-6.6371178227e-01
 2.6085508026e-01	 1.7809982109e+00	-6.4426764895e-01
 2.2767912358e-01	 1.7855425553e+00	-6.2603099456e-01
 1.9463466389e-01	 1.7894461008e+00	-6.0845934658e-01
 1.6173798823e-01	 1.7927188355e+00	-5.9137032721e-01
 1.2900479953e-01	 1.7953712044e+00	-5.7492922168e-01
 9.6450206205e-02	 1.7974140752e+00	-5.5963409090e-01
 6.4088713596e-02	 1.7988587040e+00	-5.4629871296e-01
 3.1934217573e-02	 1.7997167015e+00	-5.3603364169e-01
 0.0000000000e+00	 1.8000000000e+00	-5.3022567154e-01
 3.2867076344e-01	 1.7760953217e+00	-7.0344434335e-01
 2.9516701467e-01	 1.7819695553e+00	-6.8109288112e-01
 2.6176082706e-01	 1.7871822324e+00	-6.6097725207e-01
 2.2846967609e-01	 1.7917423558e+00	-6.4216102778e-01
 1.9531047870e-01	 1.7956594553e+00	-6.2408102298e-01
 1.6229957846e-01	 1.7989435537e+00	-6.0653758200e-01
 1.2945273286e-01	 1.8016051322e+00	-5.8968210288e-01
 9.6785102752e-02	 1.8036550963e+00	-5.7400207781e-01
 6.4311243850e-02	 1.8051047411e+00	-5.6030393626e-01
 3.2045100273e-02	 1.8059657178e+00	-5.4969398228e-01
 0.0000000000e+00	 1.8062500000e+00	-5.4355771762e-01
 3.2980803251e-01	 1.7822409802e+00	-7.2246477264e-01
 2.9618835382e-01	 1.7881355399e+00	-6.9939580028e-01
 2.6266657387e-01	 1.7933662540e+00	-6.7866351856e-01
 2.2926022860e-01	 1.7979421563e+00	-6.5930721987e-01
 1.9598629350e-01	 1.8018728098e+00	-6.4074295379e-01
 1.6286116869e-01	 1.8051682719e+00	-6.2275379830e-01
 1.2990066619e-01	 1.8078390600e+00	-6.0547733770e-01
 9.7119999299e-02	 1.8098961174e+00	-5.8939062801e-01
 6.4533774104e-02	 1.8113507783e+00	-5.7529293908e-01
 3.2155982972e-02	 1.8122147342e+00	-5.6428656755e-01
 0.0000000000e+00	 1.8125000000e+00	-5.5775601499e-01
 1.8125000000e+00	 0.0000000000e+00	 3.5186989215e+00
 1.8122147342e+00	 3.2155982972e-02	 3.4715886456e+00
 1.8113507783e+00	 6.4533774104e-02	 3.4139523956e+00
 1.8098961174e+00	 9.7119999299e-02	 3.3443007010e+00
 1.8078390600e+00	 1.2990066619e-01	 3.2616709007e+00
 1.8051682719e+00	 1.6286116869e-01	 3.1656621739e+00
 1.8018728098e+00	 1.9598629350e-01	 3.0564677190e+00
 1.7979421563e+00	 2.2926022860e-01	 2.9349035794e+00
 1.7933662540e+00	 2.6266657387e-01	 2.8024336153e+00
 1.7881355399e+00	 2.9618835382e-01	 2.6611901272e+00
 1.7822409802e+00	 3.2980803251e-01	 2.5139896517e+00
 1.8187500000e+00	 0.0000000000e+00	 3.5330882872e+00
 1.8184637505e+00	 3.2266865671e-02	 3.4756220617e+00
 1.8175968155e+00	 6.4756304358e-02	 3.4089716358e+00
 1.8161371385e+00	 9.7454895846e-02	 3.3316949575e+00
 1.8140729878e+00	 1.3034859952e-01	 3.2428789223e+00
 1.8113929900e+00	 1.6342275893e-01	 3.1421743687e+00
 1.8080861643e+00	 1.9666210830e-01	 3.0298281897e+00
 1.8041419569e+00	 2.3005078110e-01	 2.9067120551e+00
 1.7995502756e+00	 2.6357232067e-01	 2.7743472426e+00
 1.7943015245e+00	 2.9720969297e-01	 2.6349250795e+00
 1.7883866388e+00	 3.3094530159e-01	 2.4913225129e+00
 1.8250000000e+00	 0.0000000000e+00	 3.5479131503e+00
 1.8247127668e+00	 3.2377748370e-02	 3.4801992908e+00
 1.8238428526e+00	 6.4978834612e-02	 3.4046111642e+00
 1.8223781596e+00	 9.7789792394e-02	 3.3197534612e+00
 1.8203069156e+00	 1.3079653285e-01	 3.2247620518e+00
 1.8176177082e+00	 1.6398434916e-01	 3.1193389523e+00
 1.8142995188e+00	 1.9733792310e-01	 3.0037843748e+00
 1.8103417574e+00	 2.3084133361e-01	 2.8790253532e+00
 1.8057342971e+00	 2.6447806747e-01	 2.7466404378e+00
 1.8004675091e+00	 2.9823103212e-01	 2.6088799605e+00
 1.7945322973e+00	 3.3208257066e-01	 2.4686813843e+00
 1.8312500000e+00	 0.0000000000e+00	 3.5631651367e+00
 1.8309617831e+00	 3.2488631069e-02	 3.4853110145e+00
 1.8300888898e+00	 6.5201364866e-02	 3.4008608160e+00
 1.8286191807e+00	 9.8124688942e-02	 3.3084653024e+00
 1.8265408434e+00	 1.3124446618e-01	 3.2073087402e+00
 1.8238424264e+00	 1.6454593940e-01	 3.0971438453e+00
 1.8205128734e+00	 1.9801373791e-01	 2.9783237784e+00
 1.8165415580e+00	 2.3163188612e-01	 2.8518306785e+00
 1.8119183187e+00	 2.6538381428e-01	 2.7193002279e+00
 1.8066334938e+00	 2.9925237127e-01	 2.5830417449e+00
 1.8006779559e+00	 3.3321983974e-01	 2.4460533177e+00
 1.8375000000e+00	 0.0000000000e+00	 3.5788359862e+00
 1.8372107995e+00	 3.2599513769e-02	 3.4909480378e+00
 1.8363349270e+00	 6.5423895121e-02	 3.3977105565e+00
 1.8348602018e+00	 9.8459585490e-02	 3.2978197060e+00
 1.8327747712e+00	 1.3169239951e-01	 3.1905075745e+00
 1.8300671446e+00	 1.6510752963e-01	 3.0755771044e+00
 1.8267262279e+00	 1.9868955271e-01	 2.9534340371e+00
 1.8227413585e+00	 2.3242243864e-01	 2.8251153625e+00
 1.8181023403e+00	 2.6628956108e-01	 2.6923137580e+00
 1.8127994784e+00	 3.0027371042e-01	 2.5573975143e+00
 1.8068236144e+00	 3.3435710882e-01	 2.4234254577e+00
 1.8437500000e+00	 0.0000000000e+00	 3.5949175505e+00
 1.8434598158e+00	 3.2710396468e-02	 3.4971012865e+00
 1.8425809641e+00	 6.5646425376e-02	 3.3951504789e+00
 1.8411012229e+00	 9.8794482039e-02	 3.2878060289e+00
 1.8390086990e+00	 1.3214033284e-01	 3.1743472763e+00
 1.8362918628e+00	 1.6566911987e-01	 3.0546269194e+00
 1.8329395824e+00	 1.9936536752e-01	 2.9291029178e+00
 1.8289411590e+00	 2.3321299115e-01	 2.7988668611e+00
 1.8242863618e+00	 2.6719530789e-01	 2.6656682890e+00
 1.8189654630e+00	 3.0129504957e-01	 2.5319344546e+00
 1.8129692730e+00	 3.3549437789e-01	 2.4007850399e+00
 1.8500000000e+00	 0.0000000000e+00	 3.6114017915e+00
 1.8497088321e+00	 3.2821279168e-02	 3.5037618057e+00
 1.8488270013e+00	 6.5868955632e-02	 3.3931708020e+00
 1.8473422440e+00	 9.9129378588e-02	 3.2784137581e+00
 1.8452426268e+00	 1.3258826617e-01	 3.1588166984e+00
 1.8425165809e+00	 1.6623071011e-01	 3.0342816115e+00
 1.8391529369e+00	 2.0004118232e-01	 2.9053183153e+00
 1.8351409596e+00	 2.3400354366e-01	 2.7730727524e+00
 1.8304703834e+00	 2.6810105470e-01	 2.6393511959e+00
 1.8251314476e+00	 3.0231638872e-01	 2.5066398553e+00
 1.8191149316e+00	 3.3663164697e-01	 2.3781193891e+00
 1.8562500000e+00	 0.0000000000e+00	 3.6282807794e+00
 1.8559578484e+00	 3.2932161868e-02	 3.5109207573e+00
 1.8550730385e+00	 6.6091485888e-02	 3.3917618680e+00
 1.8535832650e+00	 9.9464275138e-02	 3.2696325081e+00
 1.8514765546e+00	 1.3303619951e-01	 3.1439048237e+00
 1.8487412991e+00	 1.6679230034e-01	 3.0145296307e+00
 1.8453662914e+00	 2.0071699713e-01	 2.8820682503e+00
 1.8413407601e+00	 2.3479409617e-01	 2.7477207349e+00
 1.8366544049e+00	 2.6900680150e-01	 2.6133499658e+00
 1.8312974322e+00	 3.0333772787e-01	 2.4815011069e+00
 1.8252605901e+00	 3.3776891605e-01	 2.3554159182e+00
 1.8625000000e+00	 0.0000000000e+00	 3.6455466907e+00
 1.8622068648e+00	 3.3043044569e-02	 3.5185694186e+00
 1.8613190756e+00	 6.6314016144e-02	 3.3909141408e+00
 1.8598242861e+00	 9.9799171688e-02	 3.2614520192e+00
 1.8577104824e+00	 1.3348413284e-01	 3.1296007620e+00
 1.8549660173e+00	 1.6735389058e-01	 2.9953595540e+00
 1.8515796459e+00	 2.0139281193e-01	 2.8593408673e+00
 1.8475405607e+00	 2.3558464869e-01	 2.7227986251e+00
 1.8428384265e+00	 2.6991254831e-01	 2.5876521960e+00
 1.8374634169e+00	 3.0435906702e-01	 2.4565056995e+00
 1.8314062487e+00	 3.3890618513e-01	 2.3326621264e+00
 1.8687500000e+00	 0.0000000000e+00	 3.6631918067e+00
 1.8684558811e+00	 3.3153927269e-02	 3.5266991797e+00
 1.8675651128e+00	 6.6536546401e-02	 3.3906182036e+00
 1.8660653072e+00	 1.0013406824e-01	 3.2538621552e+00
 1.8639444102e+00	 1.3393206617e-01	 3.1158937488e+00
 1.8611907355e+00	 1.6791548082e-01	 2.9767600829e+00
 1.8577930005e+00	 2.0206862674e-01	 2.8371244324e+00
 1.8537403612e+00	 2.3637520120e-01	 2.6982943561e+00
 1.8490224481e+00	 2.7081829512e-01	 2.5622455920e+00
 1.8436294015e+00	 3.0538040618e-01	 2.4316412213e+00
 1.8375519072e+00	 3.4004345421e-01	 2.3098455979e+00
 1.8750000000e+00	 0.0000000000e+00	 3.6812085115e+00
 1.8747048974e+00	 3.3264809970e-02	 3.5353015422e+00
 1.8738111500e+00	 6.6759076657e-02	 3.3908647573e+00
 1.8723063283e+00	 1.0046896479e-01	 3.2468529013e+00
 1.8701783379e+00	 1.3437999951e-01	 3.1027731425e+00
 1.8674154536e+00	 1.6847707106e-01	 2.9587200414e+00
 1.8640063550e+00	 2.0274444155e-01	 2.8154073315e+00
 1.8599401617e+00	 2.3716575372e-01	 2.6741959750e+00
 1.8552064696e+00	 2.7172404193e-01	 2.5371179661e+00
 1.8497953861e+00	 3.0640174533e-01	 2.4068953566e+00
 1.8436975658e+00	 3.4118072329e-01	 2.2869540008e+00
 1.7822409802e+00	 3.2980803251e-01	 2.5139896517e+00
 1.7756741044e+00	 3.6350753067e-01	 2.3622496191e+00
 1.7684270388e+00	 3.9726824508e-01	 2.2012456825e+00
 1.7604925397e+00	 4.3107107020e-01	 2.0353126180e+00
 1.7518640263e+00	 4.6489642206e-01	 1.8694947041e+00
 1.7425356117e+00	 4.9872426443e-01	 1.7095340836e+00
 1.7325021336e+00	 5.3253413712e-01	 1.5618521357e+00
 1.7217591834e+00	 5.6630518662e-01	 1.4335236701e+00
 1.7103031343e+00	 6.0001619871e-01	 1.3322438228e+00
 1.6981311673e+00	 6.3364563329e-01	 1.2216562794e+00
 1.6852412957e+00	 6.6717166109e-01	 1.0219965501e+00
 1.7883866388e+00	 3.3094530159e-01	 2.4913225129e+00
 1.7817971186e+00	 3.6476100491e-01	 2.3426281683e+00
 1.7745250630e+00	 3.9863813558e-01	 2.1843303093e+00
 1.7665632037e+00	 4.3255752216e-01	 2.0208347444e+00
 1.7579049368e+00	 4.6649951317e-01	 1.8572652033e+00
 1.7485443552e+00	 5.0044400327e-01	 1.6994514906e+00
 1.7384762788e+00	 5.3437046173e-01	 1.5539105711e+00
 1.7276962840e+00	 5.6825796312e-01	 1.4278203919e+00
 1.7162007313e+00	 6.0208522008e-01	 1.3289863253e+00
 1.7039867920e+00	 6.3583061823e-01	 1.2100757938e+00
 1.6910524725e+00	 6.6947225303e-01	 1.0138159018e+00
 1.7945322973e+00	 3.3208257066e-01	 2.4686813843e+00
 1.7879201327e+00	 3.6601447916e-01	 2.3229287281e+00
 1.7806230873e+00	 4.0000802608e-01	 2.1672153205e+00
 1.7726338676e+00	 4.3404397413e-01	 2.0060185453e+00
 1.7639458472e+00	 4.6810260428e-01	 1.8445422269e+00
 1.7545530987e+00	 5.0216374211e-01	 1.6887045771e+00
 1.7444504241e+00	 5.3620678634e-01	 1.5451189906e+00
 1.7336333847e+00	 5.7021073963e-01	 1.4210674952e+00
 1.7220983283e+00	 6.0415424145e-01	 1.3244667380e+00
 1.7098424167e+00	 6.3801560317e-01	 1.1971664613e+00
 1.6968636494e+00	 6.7177284496e-01	 1.0043399344e+00
 1.8006779559e+00	 3.3321983974e-01	 2.4460533177e+00
 1.7940431469e+00	 3.6726795340e-01	 2.3031372920e+00
 1.7867211116e+00	 4.0137791658e-01	 2.1498856247e+00
 1.7787045315e+00	 4.3553042609e-01	 1.9908478208e+00
 1.7699867576e+00	 4.6970569539e-01	 1.8313084477e+00
 1.7605618422e+00	 5.0388348095e-01	 1.6772748731e+00
 1.7504245694e+00	 5.3804311095e-01	 1.5354577709e+00
 1.7395704853e+00	 5.7216351613e-01	 1.4132441975e+00
 1.7279959254e+00	 6.0622326283e-01	 1.3186631184e+00
 1.7156980415e+00	 6.4020058811e-01	 1.1829465862e+00
 1.7026748263e+00	 6.7407343689e-01	 9.9358850620e-01
 1.8068236144e+00	 3.3435710882e-01	 2.4234254577e+00
 1.8001661610e+00	 3.6852142764e-01	 2.2832399466e+00
 1.7928191358e+00	 4.0274780708e-01	 2.1323262228e+00
 1.7847751954e+00	 4.3701687806e-01	 1.9753064630e+00
 1.7760276681e+00	 4.7130878650e-01	 1.8175466287e+00
 1.7665705856e+00	 5.0560321980e-01	 1.6651439970e+00
 1.7563987147e+00	 5.3987943556e-01	 1.5249073748e+00
 1.7455075859e+00	 5.7411629264e-01	 1.4043297992e+00
 1.7338935224e+00	 6.0829228420e-01	 1.3115536029e+00
 1.7215536662e+00	 6.4238557305e-01	 1.1674345472e+00
 1.7084860032e+00	 6.7637402883e-01	 9.8158154488e-01
 1.8129692730e+00	 3.3549437789e-01	 2.4007850399e+00
 1.8062891752e+00	 3.6977490189e-01	 2.2632228696e+00
 1.7989171601e+00	 4.0411769758e-01	 2.1145222074e+00
 1.7908458594e+00	 4.3850333003e-01	 1.9593784544e+00
 1.7820685785e+00	 4.7291187761e-01	 1.8032396221e+00
 1.7725793291e+00	 5.0732295864e-01	 1.6522936544e+00
 1.7623728600e+00	 5.4171576017e-01	 1.5134483492e+00
 1.7514446865e+00	 5.7606906914e-01	 1.3943036817e+00
 1.7397911194e+00	 6.1036130558e-01	 1.3031164053e+00
 1.7274092909e+00	 6.4457055799e-01	 1.1506487965e+00
 1.7142971801e+00	 6.7867462076e-01	 9.6833904655e-01
 1.8191149316e+00	 3.3663164697e-01	 2.3781193891e+00
 1.8124121893e+00	 3.7102837613e-01	 2.2430723287e+00
 1.8050151844e+00	 4.0548758808e-01	 2.0964587602e+00
 1.7969165233e+00	 4.3998978199e-01	 1.9430478662e+00
 1.7881094889e+00	 4.7451496873e-01	 1.7883703676e+00
 1.7785880726e+00	 5.0904269748e-01	 1.6387056364e+00
 1.7683470053e+00	 5.4355208478e-01	 1.5010613244e+00
 1.7573817872e+00	 5.7802184565e-01	 1.3831453067e+00
 1.7456887164e+00	 6.1243032695e-01	 1.2933298161e+00
 1.7332649156e+00	 6.4675554294e-01	 1.1326078580e+00
 1.7201083570e+00	 6.8097521269e-01	 9.5388107444e-01
 1.8252605901e+00	 3.3776891605e-01	 2.3554159182e+00
 1.8185352035e+00	 3.7228185037e-01	 2.2227746799e+00
 1.8111132087e+00	 4.0685747858e-01	 2.0781211512e+00
 1.8029871872e+00	 4.4147623396e-01	 1.9262988571e+00
 1.7941503994e+00	 4.7611805984e-01	 1.7729218908e+00
 1.7845968161e+00	 5.1076243633e-01	 1.6243618184e+00
 1.7743211506e+00	 5.4538840940e-01	 1.4877270124e+00
 1.7633188878e+00	 5.7997462215e-01	 1.3708342146e+00
 1.7515863134e+00	 6.1449934833e-01	 1.2821722006e+00
 1.7391205403e+00	 6.4894052788e-01	 1.1133303268e+00
 1.7259195338e+00	 6.8327580463e-01	 9.3822775780e-01
 1.8314062487e+00	 3.3890618513e-01	 2.3326621264e+00
 1.8246582176e+00	 3.7353532462e-01	 2.2023163657e+00
 1.8172112329e+00	 4.0822736908e-01	 2.0594947371e+00
 1.8090578511e+00	 4.4296268593e-01	 1.9091156715e+00
 1.8001913098e+00	 4.7772115095e-01	 1.7568773021e+00
 1.7906055596e+00	 5.1248217517e-01	 1.6092441583e+00
 1.7802952958e+00	 5.4722473401e-01	 1.4734262054e+00
 1.7692559884e+00	 5.8192739866e-01	 1.3573500228e+00
 1.7574839104e+00	 6.1656836970e-01	 1.2696219979e+00
 1.7449761650e+00	 6.5112551282e-01	 1.0928348674e+00
 1.7317307107e+00	 6.8557639657e-01	 9.2139929079e-01
 1.8375519072e+00	 3.4004345421e-01	 2.3098455979e+00
 1.8307812318e+00	 3.7478879887e-01	 2.1816839142e+00
 1.8233092572e+00	 4.0959725958e-01	 2.0405649595e+00
 1.8151285151e+00	 4.4444913790e-01	 1.8914826385e+00
 1.8062322202e+00	 4.7932424206e-01	 1.7402197948e+00
 1.7966143031e+00	 5.1420191401e-01	 1.5933346957e+00
 1.7862694411e+00	 5.4906105862e-01	 1.4581397746e+00
 1.7751930891e+00	 5.8388017517e-01	 1.3426724251e+00
 1.7633815074e+00	 6.1863739108e-01	 1.2556577197e+00
 1.7508317897e+00	 6.5331049777e-01	 1.0711402128e+00
 1.7375418876e+00	 6.8787698850e-01	 9.0341593140e-01
 1.8436975658e+00	 3.4118072329e-01	 2.2869540008e+00
 1.8369042459e+00	 3.7604227311e-01	 2.1608639373e+00
 1.8294072815e+00	 4.1096715009e-01	 2.0213173441e+00
 1.8211991790e+00	 4.4593558986e-01	 1.8733841701e+00
 1.8122731307e+00	 4.8092733317e-01	 1.7229326443e+00
 1.8026230466e+00	 5.1592165286e-01	 1.5766155499e+00
 1.7922435864e+00	 5.5089738323e-01	 1.4418486689e+00
 1.7811301897e+00	 5.8583295167e-01	 1.3267811898e+00
 1.7692791045e+00	 6.2070641246e-01	 1.2402579490e+00
 1.7566874145e+00	 6.5549548271e-01	 1.0482651633e+00
 1.7433530645e+00	 6.9017758044e-01	 8.8429800039e-01
 1.6852412957e+00	 6.6717166109e-01	 1.0219965501e+00
 1.6716323876e+00	 7.0057220237e-01	 9.1420737854e-01
 1.6573041867e+00	 7.3382496731e-01	 7.9723463612e-01
 1.6422573304e+00	 7.6690749814e-01	 6.7122928720e-01
 1.6264933656e+00	 7.9979721280e-01	 5.3645015783e-01
 1.6100147624e+00	 8.3247144992e-01	 3.9328975801e-01
 1.5928249246e+00	 8.6490751503e-01	 2.4229942699e-01
 1.5749281982e+00	 8.9708272788e-01	 8.4213426121e-02
 1.5563298761e+00	 9.2897447051e-01	-8.0028397647e-02
 1.5370362009e+00	 9.6056023608e-01	-2.4925974978e-01
 1.5170543641e+00	 9.9181767802e-01	-4.2206918950e-01
 1.6910524725e+00	 6.6947225303e-01	 1.0138159018e+00
 1.6773966372e+00	 7.0298796858e-01	 9.0839705707e-01
 1.6630190288e+00	 7.3635539823e-01	 7.9334455707e-01
 1.6479202867e+00	 7.6955200675e-01	 6.6875193625e-01
 1.6321019634e+00	 8.0255513422e-01	 5.3482410117e-01
 1.6155665374e+00	 8.3534204112e-01	 3.9190373982e-01
 1.5983174244e+00	 8.6788995473e-01	 2.4049703919e-01
 1.5803589851e+00	 9.0017611659e-01	 8.1298329577e-02
 1.5616965308e+00	 9.3217783075e-01	-8.4786727597e-02
 1.5423363257e+00	 9.6387251275e-01	-2.5661978690e-01
 1.5222855860e+00	 9.9523773897e-01	-4.3281066864e-01
 1.6968636494e+00	 6.7177284496e-01	 1.0043399344e+00
 1.6831608868e+00	 7.0540373480e-01	 9.0131176884e-01
 1.6687338708e+00	 7.3888582914e-01	 7.8820153895e-01
 1.6535832430e+00	 7.7219651537e-01	 6.6504486887e-01
 1.6377105612e+00	 8.0531305564e-01	 5.3199227360e-01
 1.6211183125e+00	 8.3821263232e-01	 3.8933615926e-01
 1.6038099241e+00	 8.7087239443e-01	 2.3753711716e-01
 1.5857897720e+00	 9.0326950530e-01	 7.7249123527e-02
 1.5670631856e+00	 9.3538119099e-01	-9.0656744430e-02
 1.5476364506e+00	 9.6718478942e-01	-2.6507046095e-01
 1.5275168080e+00	 9.9865779993e-01	-4.4462344634e-01
 1.7026748263e+00	 6.7407343689e-01	 9.9358850620e-01
 1.6889251364e+00	 7.0781950101e-01	 8.9297300061e-01
 1.6744487128e+00	 7.4141626006e-01	 7.8182860883e-01
 1.6592461994e+00	 7.7484102398e-01	 6.6013255893e-01
 1.6433191591e+00	 8.0807097706e-01	 5.2798049698e-01
 1.6266700875e+00	 8.4108322353e-01	 3.8561408246e-01
 1.6093024238e+00	 8.7385483414e-01	 2.3344786285e-01
 1.5912205588e+00	 9.0636289402e-01	 7.2095032913e-02
 1.5724298403e+00	 9.3858455124e-01	-9.7608317154e-02
 1.5529365754e+00	 9.7049706610e-01	-2.7458085557e-01
 1.5327480299e+00	 1.0020778609e+00	-4.5747594486e-01
 1.7084860032e+00	 6.7637402883e-01	 9.8158154488e-01
 1.6946893860e+00	 7.1023526722e-01	 8.8340230209e-01
 1.6801635548e+00	 7.4394669098e-01	 7.7424885087e-01
 1.6649091557e+00	 7.7748553259e-01	 6.5403953215e-01
 1.6489277569e+00	 8.1082889849e-01	 5.2281464055e-01
 1.6322218626e+00	 8.4395381473e-01	 3.8076461916e-01
 1.6147949236e+00	 8.7683727384e-01	 2.2825751881e-01
 1.5966513457e+00	 9.0945628273e-01	 6.5865320955e-02
 1.5777964951e+00	 9.4178791148e-01	-1.0561127804e-01
 1.5582367002e+00	 9.7380934277e-01	-2.8512001843e-01
 1.5379792519e+00	 1.0054979218e+00	-4.7133655053e-01
 1.7142971801e+00	 6.7867462076e-01	 9.6833904655e-01
 1.7004536357e+00	 7.1265103344e-01	 8.7262128484e-01
 1.6858783969e+00	 7.4647712191e-01	 7.6548540535e-01
 1.6705721120e+00	 7.8013004120e-01	 6.4679036529e-01
 1.6545363547e+00	 8.1358681991e-01	 5.1652062016e-01
 1.6377736376e+00	 8.4682440593e-01	 3.7481492199e-01
 1.6202874233e+00	 8.7981971355e-01	 2.2199436746e-01
 1.6020821326e+00	 9.1254967145e-01	 5.8589288507e-02
 1.5831631498e+00	 9.4499127172e-01	-1.1463542325e-01
 1.5635368251e+00	 9.7712161945e-01	-2.9665696185e-01
 1.5432104738e+00	 1.0089179828e+00	-4.8617361437e-01
 1.7201083570e+00	 6.8097521269e-01	 9.5388107444e-01
 1.7062178853e+00	 7.1506679965e-01	 8.6065162130e-01
 1.6915932389e+00	 7.4900755283e-01	 7.5556146766e-01
 1.6762350683e+00	 7.8277454982e-01	 6.3840968522e-01
 1.6601449525e+00	 8.1634474133e-01	 5.0912439746e-01
 1.6433254126e+00	 8.4969499714e-01	 3.6779218575e-01
 1.6257799231e+00	 8.8280215325e-01	 2.1468673045e-01
 1.6075129195e+00	 9.1564306016e-01	 5.0296273415e-02
 1.5885298046e+00	 9.4819463196e-01	-1.2465051345e-01
 1.5688369499e+00	 9.8043389612e-01	-3.0916066343e-01
 1.5484416958e+00	 1.0123380438e+00	-5.0195545265e-01
 1.7259195338e+00	 6.8327580463e-01	 9.3822775780e-01
 1.7119821349e+00	 7.1748256587e-01	 8.4751504369e-01
 1.6973080809e+00	 7.5153798375e-01	 7.4450028748e-01
 1.6818980246e+00	 7.8541905843e-01	 6.2892216811e-01
 1.6657535503e+00	 8.1910266275e-01	 5.0065197912e-01
 1.6488771877e+00	 8.5256558835e-01	 3.5972364666e-01
 1.6312724228e+00	 8.8578459296e-01	 2.0636296798e-01
 1.6129437064e+00	 9.1873644888e-01	 4.1015649902e-02
 1.5938964593e+00	 9.5139799220e-01	-1.3562627439e-01
 1.5741370747e+00	 9.8374617279e-01	-3.2260006659e-01
 1.5536729177e+00	 1.0157581047e+00	-5.1865034751e-01
 1.7317307107e+00	 6.8557639657e-01	 9.2139929079e-01
 1.7177463845e+00	 7.1989833208e-01	 8.3323334303e-01
 1.7030229229e+00	 7.5406841467e-01	 7.3232516775e-01
 1.6875609809e+00	 7.8806356705e-01	 6.1835253863e-01
 1.6713621481e+00	 8.2186058418e-01	 4.9112941610e-01
 1.6544289627e+00	 8.5543617955e-01	 3.5063658171e-01
 1.6367649225e+00	 8.8876703267e-01	 1.9705147817e-01
 1.6183744933e+00	 9.2182983759e-01	 3.0776827949e-02
 1.5992631140e+00	 9.5460135244e-01	-1.4753239750e-01
 1.5794371996e+00	 9.8705844947e-01	-3.3694408119e-01
 1.5589041397e+00	 1.0191781657e+00	-5.3622654752e-01
 1.7375418876e+00	 6.8787698850e-01	 9.0341593140e-01
 1.7235106341e+00	 7.2231409830e-01	 8.1782836818e-01
 1.7087377649e+00	 7.5659884559e-01	 7.1905946389e-01
 1.6932239372e+00	 7.9070807566e-01	 6.0672556909e-01
 1.6769707459e+00	 8.2461850560e-01	 4.8058280289e-01
 1.6599807378e+00	 8.5830677076e-01	 3.4055830798e-01
 1.6422574223e+00	 8.9174947237e-01	 1.8678069640e-01
 1.6238052802e+00	 9.2492322631e-01	 1.9609252706e-02
 1.6046297688e+00	 9.5780471268e-01	-1.6033854050e-01
 1.5847373244e+00	 9.9037072614e-01	-3.5216158404e-01
 1.5641353616e+00	 1.0225982266e+00	-5.5465226822e-01
 1.7433530645e+00	 6.9017758044e-01	 8.8429800039e-01
 1.7292748837e+00	 7.2472986452e-01	 8.0132202486e-01
 1.7144526070e+00	 7.5912927652e-01	 7.0472658284e-01
 1.6988868935e+00	 7.9335258428e-01	 5.9406607865e-01
 1.6825793437e+00	 8.2737642703e-01	 4.6903827680e-01
 1.6655325128e+00	 8.6117736197e-01	 3.2951618191e-01
 1.6477499220e+00	 8.9473191208e-01	 1.7557909473e-01
 1.6292360671e+00	 9.2801661503e-01	 7.5424038983e-03
 1.6099964235e+00	 9.6100807293e-01	-1.7401432788e-01
 1.5900374492e+00	 9.9368300282e-01	-3.6822141950e-01
 1.5693665835e+00	 1.0260182876e+00	-5.7389569272e-01
 1.5170543641e+00	 9.9181767802e-01	-4.2206918950e-01
 1.4963925022e+00	 1.0227246596e+00	-7.7296695694e-01
 1.4750596904e+00	 1.0532593033e+00	-1.0766530053e+00
 1.4530659320e+00	 1.0834000403e+00	-1.3283182479e+00
 1.4304221465e+00	 1.1131256591e+00	-1.5230076392e+00
 1.4071401525e+00	 1.1424153541e+00	-1.6556286869e+00
 1.3832326495e+00	 1.1712487727e+00	-1.7209630585e+00
 1.3587131954e+00	 1.1996060615e+00	-1.7136813296e+00
 1.3335961817e+00	 1.2274679117e+00	-1.6283608766e+00
 1.3078968059e+00	 1.2548156021e+00	-1.5404195858e+00
 1.2816310409e+00	 1.2816310409e+00	-1.7795809866e+00
 1.5222855860e+00	 9.9523773897e-01	-4.3281066864e-01
 1.5015524764e+00	 1.0262512963e+00	-7.8054452041e-01
 1.4801461031e+00	 1.0568912319e+00	-1.0800541451e+00
 1.4580765042e+00	 1.0871359025e+00	-1.3265594033e+00
 1.4353546366e+00	 1.1169640234e+00	-1.5151337382e+00
 1.4119923599e+00	 1.1463547174e+00	-1.6407124488e+00
 1.3880024172e+00	 1.1752875616e+00	-1.6981040820e+00
 1.3633984133e+00	 1.2037426342e+00	-1.6820049970e+00
 1.3381947892e+00	 1.2317005597e+00	-1.5870171036e+00
 1.3124067949e+00	 1.2591425524e+00	-1.5576755291e+00
 1.2860504583e+00	 1.2860504583e+00	-1.7825499634e+00
 1.5275168080e+00	 9.9865779993e-01	-4.4462344634e-01
 1.5067124505e+00	 1.0297779331e+00	-7.8927574545e-01
 1.4852325158e+00	 1.0605231605e+00	-1.0847061563e+00
 1.4630870764e+00	 1.0908717647e+00	-1.3261635651e+00
 1.4402871268e+00	 1.1208023878e+00	-1.5087499066e+00
 1.4168445674e+00	 1.1502940807e+00	-1.6274281948e+00
 1.3927721850e+00	 1.1793263504e+00	-1.6770337015e+00
 1.3680836312e+00	 1.2078792068e+00	-1.6522883343e+00
 1.3427933967e+00	 1.2359332077e+00	-1.5478182217e+00
 1.3169167839e+00	 1.2634695028e+00	-1.5739171833e+00
 1.2904698757e+00	 1.2904698757e+00	-1.7846501875e+00
 1.5327480299e+00	 1.0020778609e+00	-4.5747594486e-01
 1.5118724247e+00	 1.0333045698e+00	-7.9912749929e-01
 1.4903189285e+00	 1.0641550892e+00	-1.0905743518e+00
 1.4680976486e+00	 1.0946076269e+00	-1.3270944968e+00
 1.4452196170e+00	 1.1246407521e+00	-1.5038183661e+00
 1.4216967748e+00	 1.1542334440e+00	-1.6157366165e+00
 1.3975419528e+00	 1.1833651393e+00	-1.6577110927e+00
 1.3727688491e+00	 1.2120157794e+00	-1.6244890190e+00
 1.3473920043e+00	 1.2401658556e+00	-1.5107204304e+00
 1.3214267729e+00	 1.2677964531e+00	-1.5891544256e+00
 1.2948892931e+00	 1.2948892931e+00	-1.7858897536e+00
 1.5379792519e+00	 1.0054979218e+00	-4.7133655053e-01
 1.5170323988e+00	 1.0368312066e+00	-8.1006662636e-01
 1.4954053413e+00	 1.0677870178e+00	-1.0976240360e+00
 1.4731082208e+00	 1.0983434891e+00	-1.3293159681e+00
 1.4501521071e+00	 1.1284791165e+00	-1.5003013606e+00
 1.4265489822e+00	 1.1581728073e+00	-1.6055984444e+00
 1.4023117205e+00	 1.1874039282e+00	-1.6400954881e+00
 1.3774540670e+00	 1.2161523520e+00	-1.5985648038e+00
 1.3519906118e+00	 1.2443985036e+00	-1.4756800242e+00
 1.3259367619e+00	 1.2721234035e+00	-1.6033972482e+00
 1.2993087105e+00	 1.2993087105e+00	-1.7862768921e+00
 1.5432104738e+00	 1.0089179828e+00	-4.8617361437e-01
 1.5221923730e+00	 1.0403578434e+00	-8.2205994866e-01
 1.5004917540e+00	 1.0714189464e+00	-1.1058205049e+00
 1.4781187929e+00	 1.1020793513e+00	-1.3327917550e+00
 1.4550845973e+00	 1.1323174808e+00	-1.4981611563e+00
 1.4314011896e+00	 1.1621121706e+00	-1.5969744475e+00
 1.4070814883e+00	 1.1914427170e+00	-1.6241461761e+00
 1.3821392849e+00	 1.2202889247e+00	-1.5744735159e+00
 1.3565892193e+00	 1.2486311516e+00	-1.4426533908e+00
 1.3304467508e+00	 1.2764503538e+00	-1.6166557562e+00
 1.3037281278e+00	 1.3037281278e+00	-1.7858199673e+00
 1.5484416958e+00	 1.0123380438e+00	-5.0195545265e-01
 1.5273523471e+00	 1.0438844801e+00	-8.3507426616e-01
 1.5055781667e+00	 1.0750508751e+00	-1.1151290457e+00
 1.4831293651e+00	 1.1058152135e+00	-1.3374856397e+00
 1.4600170874e+00	 1.1361558451e+00	-1.4973600406e+00
 1.4362533970e+00	 1.1660515339e+00	-1.5898254329e+00
 1.4118512560e+00	 1.1954815059e+00	-1.6098225002e+00
 1.3868245029e+00	 1.2244254973e+00	-1.5521730554e+00
 1.3611878268e+00	 1.2528637995e+00	-1.4493948468e+00
 1.3349567398e+00	 1.2807773042e+00	-1.6289401663e+00
 1.3081475452e+00	 1.3081475452e+00	-1.7845274747e+00
 1.5536729177e+00	 1.0157581047e+00	-5.1865034751e-01
 1.5325123213e+00	 1.0474111169e+00	-8.4907635715e-01
 1.5106645794e+00	 1.0786828037e+00	-1.1255149376e+00
 1.4881399373e+00	 1.1095510757e+00	-1.3433614103e+00
 1.4649495776e+00	 1.1399942095e+00	-1.4978603224e+00
 1.4411056045e+00	 1.1699908971e+00	-1.5841122449e+00
 1.4166210238e+00	 1.1995202948e+00	-1.5970838582e+00
 1.3915097208e+00	 1.2285620699e+00	-1.5316213942e+00
 1.3657864344e+00	 1.2570964475e+00	-1.4735979849e+00
 1.3394667288e+00	 1.2851042545e+00	-1.6402608043e+00
 1.3125669626e+00	 1.3125669626e+00	-1.7824080392e+00
 1.5589041397e+00	 1.0191781657e+00	-5.3622654752e-01
 1.5376722954e+00	 1.0509377536e+00	-8.6403297863e-01
 1.5157509922e+00	 1.0823147323e+00	-1.1369434516e+00
 1.4931505095e+00	 1.1132869379e+00	-1.3503828608e+00
 1.4698820678e+00	 1.1438325738e+00	-1.4996243313e+00
 1.4459578119e+00	 1.1739302604e+00	-1.5797957642e+00
 1.4213907915e+00	 1.2035590836e+00	-1.5858897008e+00
 1.3961949387e+00	 1.2326986425e+00	-1.5127765747e+00
 1.3703850419e+00	 1.2613290955e+00	-1.4967137462e+00
 1.3439767178e+00	 1.2894312049e+00	-1.6506281036e+00
 1.3169863800e+00	 1.3169863800e+00	-1.7794704126e+00
 1.5641353616e+00	 1.0225982266e+00	-5.5465226822e-01
 1.5428322696e+00	 1.0544643904e+00	-8.7991086662e-01
 1.5208374049e+00	 1.0859466609e+00	-1.1493798506e+00
 1.4981610816e+00	 1.1170228001e+00	-1.3585137912e+00
 1.4748145579e+00	 1.1476709382e+00	-1.5026144174e+00
 1.4508100193e+00	 1.1778696237e+00	-1.5768369077e+00
 1.4261605593e+00	 1.2075978725e+00	-1.5761995312e+00
 1.4008801566e+00	 1.2368352151e+00	-1.4955967087e+00
 1.3749836494e+00	 1.2655617434e+00	-1.5187542427e+00
 1.3484867068e+00	 1.2937581552e+00	-1.6600526034e+00
 1.3214057973e+00	 1.3214057973e+00	-1.7757234718e+00
 1.5693665835e+00	 1.0260182876e+00	-5.7389569272e-01
 1.5479922437e+00	 1.0579910271e+00	-8.9667673655e-01
 1.5259238176e+00	 1.0895785896e+00	-1.1627893899e+00
 1.5031716538e+00	 1.1207586623e+00	-1.3677180072e+00
 1.4797470481e+00	 1.1515093025e+00	-1.5067929510e+00
 1.4556622267e+00	 1.1818089870e+00	-1.5751966278e+00
 1.4309303270e+00	 1.2116366614e+00	-1.5679729039e+00
 1.4055653745e+00	 1.2409717878e+00	-1.4800399764e+00
 1.3795822569e+00	 1.2697943914e+00	-1.5397316716e+00
 1.3529966958e+00	 1.2980851056e+00	-1.6685449469e+00
 1.3258252147e+00	 1.3258252147e+00	-1.7711762163e+00
 1.2816310409e+00	 1.2816310409e+00	-1.7795809866e+00
 1.2548156021e+00	 1.3078968059e+00	-2.1025074582e+00
 1.2274679117e+00	 1.3335961817e+00	-2.0777302397e+00
 1.1996060615e+00	 1.3587131954e+00	-1.9996129306e+00
 1.1712487727e+00	 1.3832326495e+00	-1.9416446398e+00
 1.1424153541e+00	 1.4071401525e+00	-1.9013193046e+00
 1.1131256591e+00	 1.4304221465e+00	-1.8759336407e+00
 1.0834000403e+00	 1.4530659320e+00	-1.8626088635e+00
 1.0532593033e+00	 1.4750596904e+00	-1.8583138644e+00
 1.0227246596e+00	 1.4963925022e+00	-1.8598896016e+00
 9.9181767802e-01	 1.5170543641e+00	-1.8640744537e+00
 1.2860504583e+00	 1.2860504583e+00	-1.7825499634e+00
 1.2591425524e+00	 1.3124067949e+00	-2.0919623264e+00
 1.2317005597e+00	 1.3381947892e+00	-2.1182176077e+00
 1.2037426342e+00	 1.3633984133e+00	-2.0251001756e+00
 1.1752875616e+00	 1.3880024172e+00	-1.9545094310e+00
 1.1463547174e+00	 1.4119923599e+00	-1.9038650329e+00
 1.1169640234e+00	 1.4353546366e+00	-1.8703803720e+00
 1.0871359025e+00	 1.4580765042e+00	-1.8510848080e+00
 1.0568912319e+00	 1.4801461031e+00	-1.8428474100e+00
 1.0262512963e+00	 1.5015524764e+00	-1.8424019541e+00
 9.9523773897e-01	 1.5222855860e+00	-1.8463729205e+00
 1.2904698757e+00	 1.2904698757e+00	-1.7846501875e+00
 1.2634695028e+00	 1.3169167839e+00	-2.0804370706e+00
 1.2359332077e+00	 1.3427933967e+00	-2.1579496871e+00
 1.2078792068e+00	 1.3680836312e+00	-2.0497187909e+00
 1.1793263504e+00	 1.3927721850e+00	-1.9663877336e+00
 1.1502940807e+00	 1.4168445674e+00	-1.9053019507e+00
 1.1208023878e+00	 1.4402871268e+00	-1.8635915608e+00
 1.0908717647e+00	 1.4630870764e+00	-1.8381941202e+00
 1.0605231605e+00	 1.4852325158e+00	-1.8258789284e+00
 1.0297779331e+00	 1.5067124505e+00	-1.8232726323e+00
 9.9865779993e-01	 1.5275168080e+00	-1.8268858684e+00
 1.2948892931e+00	 1.2948892931e+00	-1.7858897536e+00
 1.2677964531e+00	 1.3214267729e+00	-2.0679405607e+00
 1.2401658556e+00	 1.3473920043e+00	-2.1969055855e+00
 1.2120157794e+00	 1.3727688491e+00	-2.0734493610e+00
 1.1833651393e+00	 1.3975419528e+00	-1.9772617451e+00
 1.1542334440e+00	 1.4216967748e+00	-1.9056140001e+00
 1.1246407521e+00	 1.4452196170e+00	-1.8555530211e+00
 1.0946076269e+00	 1.4680976486e+00	-1.8239246092e+00
 1.0641550892e+00	 1.4903189285e+00	-1.8073983413e+00
 1.0333045698e+00	 1.5118724247e+00	-1.8024937829e+00
 1.0020778609e+00	 1.5327480299e+00	-1.8056077756e+00
 1.2993087105e+00	 1.2993087105e+00	-1.7862768921e+00
 1.2721234035e+00	 1.3259367619e+00	-2.0544817883e+00
 1.2443985036e+00	 1.3519906118e+00	-2.2350645161e+00
 1.2161523520e+00	 1.3774540670e+00	-2.0962725584e+00
 1.1874039282e+00	 1.4023117205e+00	-1.9871137317e+00
 1.1581728073e+00	 1.4265489822e+00	-1.9047851714e+00
 1.1284791165e+00	 1.4501521071e+00	-1.8462505939e+00
 1.0983434891e+00	 1.4731082208e+00	-1.8082640875e+00
 1.0677870178e+00	 1.4954053413e+00	-1.7873955491e+00
 1.0368312066e+00	 1.5170323988e+00	-1.7800575054e+00
 1.0054979218e+00	 1.5379792519e+00	-1.7825330463e+00
 1.3037281278e+00	 1.3037281278e+00	-1.7858199673e+00
 1.2764503538e+00	 1.3304467508e+00	-2.0400698645e+00
 1.2486311516e+00	 1.3565892193e+00	-2.2724057959e+00
 1.2202889247e+00	 1.3821392849e+00	-2.1181691422e+00
 1.1914427170e+00	 1.4070814883e+00	-1.9959260276e+00
 1.1621121706e+00	 1.4314011896e+00	-1.9027995030e+00
 1.1323174808e+00	 1.4550845973e+00	-1.8356701460e+00
 1.1020793513e+00	 1.4781187929e+00	-1.7912003708e+00
 1.0714189464e+00	 1.5004917540e+00	-1.7658604315e+00
 1.0403578434e+00	 1.5221923730e+00	-1.7559558532e+00
 1.0089179828e+00	 1.5432104738e+00	-1.7576560119e+00
 1.3081475452e+00	 1.3081475452e+00	-1.7845274747e+00
 1.2807773042e+00	 1.3349567398e+00	-2.0247140176e+00
 1.2528637995e+00	 1.3611878268e+00	-2.2655282892e+00
 1.2244254973e+00	 1.3868245029e+00	-2.1391199566e+00
 1.1954815059e+00	 1.4118512560e+00	-2.0036810336e+00
 1.1660515339e+00	 1.4362533970e+00	-1.8996410799e+00
 1.1361558451e+00	 1.4600170874e+00	-1.8237975702e+00
 1.1058152135e+00	 1.4831293651e+00	-1.7727212782e+00
 1.0750508751e+00	 1.5055781667e+00	-1.7427828478e+00
 1.0438844801e+00	 1.5273523471e+00	-1.7301808343e+00
 1.0123380438e+00	 1.5484416958e+00	-1.7309709322e+00
 1.3125669626e+00	 1.3125669626e+00	-1.7824080392e+00
 1.2851042545e+00	 1.3394667288e+00	-2.0084235917e+00
 1.2570964475e+00	 1.3657864344e+00	-2.2368942559e+00
 1.2285620699e+00	 1.3915097208e+00	-2.1591059293e+00
 1.1995202948e+00	 1.4166210238e+00	-2.0103612160e+00
 1.1699908971e+00	 1.4411056045e+00	-1.8952940334e+00
 1.1399942095e+00	 1.4649495776e+00	-1.8106187846e+00
 1.1095510757e+00	 1.4881399373e+00	-1.7528146321e+00
 1.0786828037e+00	 1.5106645794e+00	-1.7181526371e+00
 1.0474111169e+00	 1.5325123213e+00	-1.7027244120e+00
 1.0157581047e+00	 1.5536729177e+00	-1.7024719968e+00
 1.3169863800e+00	 1.3169863800e+00	-1.7794704126e+00
 1.2894312049e+00	 1.3439767178e+00	-1.9912080444e+00
 1.2613290955e+00	 1.3703850419e+00	-2.2072144402e+00
 1.2326986425e+00	 1.3961949387e+00	-2.1781080704e+00
 1.2035590836e+00	 1.4213907915e+00	-2.0159491058e+00
 1.1739302604e+00	 1.4459578119e+00	-1.8897425400e+00
 1.1438325738e+00	 1.4698820678e+00	-1.7961197320e+00
 1.1132869379e+00	 1.4931505095e+00	-1.7314682577e+00
 1.0823147323e+00	 1.5157509922e+00	-1.6919596186e+00
 1.0509377536e+00	 1.5376722954e+00	-1.6735785057e+00
 1.0191781657e+00	 1.5589041397e+00	-1.6721533261e+00
 1.3214057973e+00	 1.3214057973e+00	-1.7757234718e+00
 1.2937581552e+00	 1.3484867068e+00	-1.9730769449e+00
 1.2655617434e+00	 1.3749836494e+00	-2.1764991725e+00
 1.2368352151e+00	 1.4008801566e+00	-2.1961074705e+00
 1.2075978725e+00	 1.4261605593e+00	-2.0204272971e+00
 1.1778696237e+00	 1.4508100193e+00	-1.8829708208e+00
 1.1476709382e+00	 1.4748145579e+00	-1.7802863798e+00
 1.1170228001e+00	 1.4981610816e+00	-1.7086699838e+00
 1.0859466609e+00	 1.5208374049e+00	-1.6641935923e+00
 1.0544643904e+00	 1.5428322696e+00	-1.6427349919e+00
 1.0225982266e+00	 1.5641353616e+00	-1.6400089725e+00
 1.3258252147e+00	 1.3258252147e+00	-1.7711762163e+00
 1.2980851056e+00	 1.3529966958e+00	-1.9540399721e+00
 1.2697943914e+00	 1.3795822569e+00	-2.1447588783e+00
 1.2409717878e+00	 1.4055653745e+00	-2.2130853003e+00
 1.2116366614e+00	 1.4309303270e+00	-2.0237784465e+00
 1.1818089870e+00	 1.4556622267e+00	-1.8749631407e+00
 1.1515093025e+00	 1.4797470481e+00	-1.7631047195e+00
 1.1207586623e+00	 1.5031716538e+00	-1.6844076420e+00
 1.0895785896e+00	 1.5259238176e+00	-1.6348443390e+00
 1.0579910271e+00	 1.5479922437e+00	-1.6101857041e+00
 1.0260182876e+00	 1.5693665835e+00	-1.6060329216e+00
 9.9181767802e-01	 1.5170543641e+00	-1.8640744537e+00
 9.6056023608e-01	 1.5370362009e+00	-1.6973719674e+00
 9.2897447051e-01	 1.5563298761e+00	-1.5567333350e+00
 8.9708272788e-01	 1.5749281982e+00	-1.4394065043e+00
 8.6490751503e-01	 1.5928249246e+00	-1.3425204550e+00
 8.3247144992e-01	 1.6100147624e+00	-1.2631114232e+00
 7.9979721280e-01	 1.6264933656e+00	-1.1981491648e+00
 7.6690749814e-01	 1.6422573304e+00	-1.1445630028e+00
 7.3382496731e-01	 1.6573041867e+00	-1.0992674168e+00
 7.0057220237e-01	 1.6716323876e+00	-1.0591869449e+00
 6.6717166109e-01	 1.6852412957e+00	-1.0212801835e+00
 9.9523773897e-01	 1.5222855860e+00	-1.8463729205e+00
 9.6387251275e-01	 1.5423363257e+00	-1.6827369790e+00
 9.3217783075e-01	 1.5616965308e+00	-1.5447921562e+00
 9.0017611659e-01	 1.5803589851e+00	-1.4297505056e+00
 8.6788995473e-01	 1.5983174244e+00	-1.3347066584e+00
 8.3534204112e-01	 1.6155665374e+00	-1.2566642846e+00
 8.0255513422e-01	 1.6321019634e+00	-1.1925625793e+00
 7.6955200675e-01	 1.6479202867e+00	-1.1393025173e+00
 7.3635539823e-01	 1.6630190288e+00	-1.0937726342e+00
 7.0298796858e-01	 1.6773966372e+00	-1.0528740992e+00
 6.6947225303e-01	 1.6910524725e+00	-1.0135448681e+00
 9.9865779993e-01	 1.5275168080e+00	-1.8268858684e+00
 9.6718478942e-01	 1.5476364506e+00	-1.6663668276e+00
 9.3538119099e-01	 1.5670631856e+00	-1.5311750382e+00
 9.0326950530e-01	 1.5857897720e+00	-1.4184862320e+00
 8.7087239443e-01	 1.6038099241e+00	-1.3253602432e+00
 8.3821263232e-01	 1.6211183125e+00	-1.2487677095e+00
 8.0531305564e-01	 1.6377105612e+00	-1.1856167829e+00
 7.7219651537e-01	 1.6535832430e+00	-1.1327795970e+00
 7.3888582914e-01	 1.6687338708e+00	-1.0871182398e+00
 7.0540373480e-01	 1.6831608868e+00	-1.0455100028e+00
 6.7177284496e-01	 1.6968636494e+00	-1.0048716881e+00
 1.0020778609e+00	 1.5327480299e+00	-1.8056077756e+00
 9.7049706610e-01	 1.5529365754e+00	-1.6482563930e+00
 9.3858455124e-01	 1.5724298403e+00	-1.5158772246e+00
 9.0636289402e-01	 1.5912205588e+00	-1.4056092515e+00
 8.7385483414e-01	 1.6093024238e+00	-1.3144770617e+00
 8.4108322353e-01	 1.6266700875e+00	-1.2394177926e+00
 8.0807097706e-01	 1.6433191591e+00	-1.1773080711e+00
 7.7484102398e-01	 1.6592461994e+00	-1.1249906944e+00
 7.4141626006e-01	 1.6744487128e+00	-1.0793007994e+00
 7.0781950101e-01	 1.6889251364e+00	-1.0370912899e+00
 6.7407343689e-01	 1.7026748263e+00	-9.9525730121e-01
 1.0054979218e+00	 1.5379792519e+00	-1.7825330463e+00
 9.7380934277e-01	 1.5582367002e+00	-1.6284004804e+00
 9.4178791148e-01	 1.5777964951e+00	-1.4988938842e+00
 9.0945628273e-01	 1.5966513457e+00	-1.3911150585e+00
 8.7683727384e-01	 1.6147949236e+00	-1.3020528941e+00
 8.4395381473e-01	 1.6322218626e+00	-1.2286105593e+00
 8.1082889849e-01	 1.6489277569e+00	-1.1676326725e+00
 7.7748553259e-01	 1.6649091557e+00	-1.1159321989e+00
 7.4394669098e-01	 1.6801635548e+00	-1.0703168199e+00
 7.1023526722e-01	 1.6946893860e+00	-1.0276145410e+00
 6.7637402883e-01	 1.7084860032e+00	-9.8469831719e-01
 1.0089179828e+00	 1.5432104738e+00	-1.7576560119e+00
 9.7712161945e-01	 1.5635368251e+00	-1.6067938218e+00
 9.4499127172e-01	 1.5831631498e+00	-1.4802201132e+00
 9.1254967145e-01	 1.6020821326e+00	-1.3749990754e+00
 8.7981971355e-01	 1.6202874233e+00	-1.2880834501e+00
 8.4682440593e-01	 1.6377736376e+00	-1.2163419667e+00
 8.1358681991e-01	 1.6545363547e+00	-1.1565867505e+00
 7.8013004120e-01	 1.6705721120e+00	-1.1056004382e+00
 7.4647712191e-01	 1.6858783969e+00	-1.0601627509e+00
 7.1265103344e-01	 1.7004536357e+00	-1.0170762842e+00
 6.7867462076e-01	 1.7142971801e+00	-9.7319129859e-01
 1.0123380438e+00	 1.5484416958e+00	-1.7309709322e+00
 9.8043389612e-01	 1.5688369499e+00	-1.5834310768e+00
 9.4819463196e-01	 1.5885298046e+00	-1.4598509356e+00
 9.1564306016e-01	 1.6075129195e+00	-1.3572566535e+00
 8.8280215325e-01	 1.6257799231e+00	-1.2725643697e+00
 8.4969499714e-01	 1.6433254126e+00	-1.2026079044e+00
 8.1634474133e-01	 1.6601449525e+00	-1.1441664038e+00
 7.8277454982e-01	 1.6762350683e+00	-1.0939916793e+00
 7.4900755283e-01	 1.6915932389e+00	-1.0488349850e+00
 7.1506679965e-01	 1.7062178853e+00	-1.0054729954e+00
 6.8097521269e-01	 1.7201083570e+00	-9.6073276153e-01
 1.0157581047e+00	 1.5536729177e+00	-1.7024719968e+00
 9.8374617279e-01	 1.5741370747e+00	-1.5583068348e+00
 9.5139799220e-01	 1.5938964593e+00	-1.4377813049e+00
 9.1873644888e-01	 1.6129437064e+00	-1.3378830741e+00
 8.8578459296e-01	 1.6312724228e+00	-1.2554912250e+00
 8.5256558835e-01	 1.6488771877e+00	-1.1874041960e+00
 8.1910266275e-01	 1.6657535503e+00	-1.1303676682e+00
 7.8541905843e-01	 1.6818980246e+00	-1.0811021291e+00
 7.5153798375e-01	 1.6973080809e+00	-1.0363298594e+00
 7.1748256587e-01	 1.7119821349e+00	-9.9280109976e-01
 6.8327580463e-01	 1.7259195338e+00	-9.4731917645e-01
 1.0191781657e+00	 1.5589041397e+00	-1.6721533261e+00
 9.8705844947e-01	 1.5794371996e+00	-1.5314156149e+00
 9.5460135244e-01	 1.5992631140e+00	-1.4140061049e+00
 9.2182983759e-01	 1.6183744933e+00	-1.3168735501e+00
 8.8876703267e-01	 1.6367649225e+00	-1.2368595205e+00
 8.5543617955e-01	 1.6544289627e+00	-1.1707266002e+00
 8.2186058418e-01	 1.6713621481e+00	-1.1151865171e+00
 7.8806356705e-01	 1.6875609809e+00	-1.0669279360e+00
 7.5406841467e-01	 1.7030229229e+00	-1.0226436564e+00
 7.1989833208e-01	 1.7177463845e+00	-9.7905697220e-01
 6.8557639657e-01	 1.7317307107e+00	-9.3294696894e-01
 1.0225982266e+00	 1.5641353616e+00	-1.6400089725e+00
 9.9037072614e-01	 1.5847373244e+00	-1.5027518681e+00
 9.5780471268e-01	 1.6046297688e+00	-1.3885201515e+00
 9.2492322631e-01	 1.6238052802e+00	-1.2942232268e+00
 8.9174947237e-01	 1.6422574223e+00	-1.2166646951e+00
 8.5830677076e-01	 1.6599807378e+00	-1.1525708116e+00
 8.2461850560e-01	 1.6769707459e+00	-1.0986188627e+00
 7.9070807566e-01	 1.6932239372e+00	-1.0514651903e+00
 7.5659884559e-01	 1.7087377649e+00	-1.0077726046e+00
 7.2231409830e-01	 1.7235106341e+00	-9.6423693845e-01
 6.8787698850e-01	 1.7375418876e+00	-9.1761252043e-01
 1.0260182876e+00	 1.5693665835e+00	-1.6060329216e+00
 9.9368300282e-01	 1.5900374492e+00	-1.4723099780e+00
 9.6100807293e-01	 1.6099964235e+00	-1.3613181929e+00
 9.2801661503e-01	 1.6292360671e+00	-1.2699271832e+00
 8.9473191208e-01	 1.6477499220e+00	-1.1949021226e+00
 8.6117736197e-01	 1.6655325128e+00	-1.1329324621e+00
 8.2737642703e-01	 1.6825793437e+00	-1.0806605571e+00
 7.9335258428e-01	 1.6988868935e+00	-1.0347099258e+00
 7.5912927652e-01	 1.7144526070e+00	-9.9171287947e-01
 7.2472986452e-01	 1.7292748837e+00	-9.4833727575e-01
 6.9017758044e-01	 1.7433530645e+00	-9.0131216897e-01
 6.6717166109e-01	 1.6852412957e+00	-1.0212801835e+00
 6.3364563329e-01	 1.6981311673e+00	-8.1396108074e-01
 6.0001619871e-01	 1.7103031343e+00	-7.9318379045e-01
 5.6630518662e-01	 1.7217591834e+00	-8.2942845556e-01
 5.3253413712e-01	 1.7325021336e+00	-8.5541346789e-01
 4.9872426443e-01	 1.7425356117e+00	-8.6936082743e-01
 4.6489642206e-01	 1.7518640263e+00	-8.6985955271e-01
 4.3107107020e-01	 1.7604925397e+00	-8.5587605496e-01
 3.9726824508e-01	 1.7684270388e+00	-8.2676054236e-01
 3.6350753067e-01	 1.7756741044e+00	-7.8224955528e-01
 3.2980803251e-01	 1.7822409802e+00	-7.2246477264e-01
 6.6947225303e-01	 1.6910524725e+00	-1.0135448681e+00
 6.3583061823e-01	 1.7039867920e+00	-8.1134008566e-01
 6.0208522008e-01	 1.7162007313e+00	-7.7893431348e-01
 5.6825796312e-01	 1.7276962840e+00	-8.1907409095e-01
 5.3437046173e-01	 1.7384762788e+00	-8.4865406264e-01
 5.0044400327e-01	 1.7485443552e+00	-8.6583875426e-01
 4.6649951317e-01	 1.7579049368e+00	-8.6916481290e-01
 4.3255752216e-01	 1.7665632037e+00	-8.5755160370e-01
 3.9863813558e-01	 1.7745250630e+00	-8.3030778480e-01
 3.6476100491e-01	 1.7817971186e+00	-7.8713396214e-01
 3.3094530159e-01	 1.7883866388e+00	-7.2812156567e-01
 6.7177284496e-01	 1.6968636494e+00	-1.0048716881e+00
 6.3801560317e-01	 1.7098424167e+00	-8.0786558857e-01
 6.0415424145e-01	 1.7220983283e+00	-7.6422403123e-01
 5.7021073963e-01	 1.7336333847e+00	-8.0837220184e-01
 5.3620678634e-01	 1.7444504241e+00	-8.4165316619e-01
 5.0216374211e-01	 1.7545530987e+00	-8.6217334310e-01
 4.6810260428e-01	 1.7639458472e+00	-8.6841643132e-01
 4.3404397413e-01	 1.7726338676e+00	-8.5925423057e-01
 4.0000802608e-01	 1.7806230873e+00	-8.3395338833e-01
 3.6601447916e-01	 1.7879201327e+00	-7.9217817504e-01
 3.3208257066e-01	 1.7945322973e+00	-7.3398943058e-01
 6.7407343689e-01	 1.7026748263e+00	-9.9525730121e-01
 6.4020058811e-01	 1.7156980415e+00	-8.0353456877e-01
 6.0622326283e-01	 1.7279959254e+00	-7.4904515263e-01
 5.7216351613e-01	 1.7395704853e+00	-7.9731585333e-01
 5.3804311095e-01	 1.7504245694e+00	-8.3440468986e-01
 5.0388348095e-01	 1.7605618422e+00	-8.5835933828e-01
 4.6970569539e-01	 1.7699867576e+00	-8.6760996916e-01
 4.3553042609e-01	 1.7787045315e+00	-8.6098029453e-01
 4.0137791658e-01	 1.7867211116e+00	-8.3769448794e-01
 3.6726795340e-01	 1.7940431469e+00	-7.9738008084e-01
 3.3321983974e-01	 1.8006779559e+00	-7.4006697970e-01
 6.7637402883e-01	 1.7084860032e+00	-9.8469831719e-01
 6.4238557305e-01	 1.7215536662e+00	-7.9834395906e-01
 6.0829228420e-01	 1.7338935224e+00	-7.3338984143e-01
 5.7411629264e-01	 1.7455075859e+00	-7.8589806645e-01
 5.3987943556e-01	 1.7563987147e+00	-8.2690250177e-01
 5.0560321980e-01	 1.7665705856e+00	-8.5439144168e-01
 4.7130878650e-01	 1.7760276681e+00	-8.6674094556e-01
 4.3701687806e-01	 1.7847751954e+00	-8.6272611274e-01
 4.0274780708e-01	 1.7928191358e+00	-8.4152817689e-01
 3.6852142764e-01	 1.8001661610e+00	-8.0273752455e-01
 3.3435710882e-01	 1.8068236144e+00	-7.4635278317e-01
 6.7867462076e-01	 1.7142971801e+00	-9.7319129859e-01
 6.4457055799e-01	 1.7274092909e+00	-7.9229064649e-01
 6.1036130558e-01	 1.7397911194e+00	-7.1725021697e-01
 5.7606906914e-01	 1.7514446865e+00	-7.7411181887e-01
 5.4171576017e-01	 1.7623728600e+00	-8.1914042762e-01
 5.0732295864e-01	 1.7725793291e+00	-8.5026431336e-01
 4.7291187761e-01	 1.7820685785e+00	-8.6580483838e-01
 4.3850333003e-01	 1.7908458594e+00	-8.6448796133e-01
 4.0411769758e-01	 1.7989171601e+00	-8.4545150747e-01
 3.6977490189e-01	 1.8062891752e+00	-8.0824831004e-01
 3.3549437789e-01	 1.8129692730e+00	-7.5284536966e-01
 6.8097521269e-01	 1.7201083570e+00	-9.6073276153e-01
 6.4675554294e-01	 1.7332649156e+00	-7.8537147321e-01
 6.1243032695e-01	 1.7456887164e+00	-7.0061835491e-01
 5.7802184565e-01	 1.7573817872e+00	-7.6195004571e-01
 5.4355208478e-01	 1.7683470053e+00	-8.1111225134e-01
 5.0904269748e-01	 1.7785880726e+00	-8.4597257234e-01
 4.7451496873e-01	 1.7881094889e+00	-8.6479708484e-01
 4.3998978199e-01	 1.7969165233e+00	-8.6626207606e-01
 4.0548758808e-01	 1.8050151844e+00	-8.4946149165e-01
 3.7102837613e-01	 1.8124121893e+00	-8.1391020074e-01
 3.3663164697e-01	 1.8191149316e+00	-7.5954322708e-01
 6.8327580463e-01	 1.7259195338e+00	-9.4731917645e-01
 6.4894052788e-01	 1.7391205403e+00	-7.7758323714e-01
 6.1449934833e-01	 1.7515863134e+00	-6.8348628798e-01
 5.7997462215e-01	 1.7633188878e+00	-7.4940564017e-01
 5.4538840940e-01	 1.7743211506e+00	-8.0281171586e-01
 5.1076243633e-01	 1.7845968161e+00	-8.4151079724e-01
 4.7611805984e-01	 1.7941503994e+00	-8.6371308221e-01
 4.4147623396e-01	 1.8029871872e+00	-8.6804465300e-01
 4.0685747858e-01	 1.8111132087e+00	-8.5355510179e-01
 3.7228185037e-01	 1.8185352035e+00	-8.1972092033e-01
 3.3776891605e-01	 1.8252605901e+00	-7.6644480326e-01
 6.8557639657e-01	 1.7317307107e+00	-9.3294696894e-01
 6.5112551282e-01	 1.7449761650e+00	-7.6892269278e-01
 6.1656836970e-01	 1.7574839104e+00	-6.6584600671e-01
 5.8192739866e-01	 1.7692559884e+00	-7.3647145430e-01
 5.4722473401e-01	 1.7802952958e+00	-7.9423252376e-01
 5.1248217517e-01	 1.7906055596e+00	-8.3687352697e-01
 4.7772115095e-01	 1.8001913098e+00	-8.6254818854e-01
 4.4296268593e-01	 1.8090578511e+00	-8.6983184923e-01
 4.0822736908e-01	 1.8172112329e+00	-8.5772927127e-01
 3.7353532462e-01	 1.8246582176e+00	-8.2567815338e-01
 3.3890618513e-01	 1.8314062487e+00	-7.7354850660e-01
 6.8787698850e-01	 1.7375418876e+00	-9.1761252043e-01
 6.5331049777e-01	 1.7508317897e+00	-7.5938655189e-01
 6.1863739108e-01	 1.7633815074e+00	-6.4768946009e-01
 5.8388017517e-01	 1.7751930891e+00	-7.2314029965e-01
 5.4906105862e-01	 1.7862694411e+00	-7.8536833795e-01
 5.1420191401e-01	 1.7966143031e+00	-8.3205526141e-01
 4.7932424206e-01	 1.8062322202e+00	-8.6129772323e-01
 4.4444913790e-01	 1.8151285151e+00	-8.7161978344e-01
 4.0959725958e-01	 1.8233092572e+00	-8.6198089518e-01
 3.7478879887e-01	 1.8307812318e+00	-8.3177954603e-01
 3.4004345421e-01	 1.8375519072e+00	-7.8085270678e-01
 6.9017758044e-01	 1.7433530645e+00	-9.0131216897e-01
 6.5549548271e-01	 1.7566874145e+00	-7.4897148423e-01
 6.2070641246e-01	 1.7692791045e+00	-6.2900855634e-01
 5.8583295167e-01	 1.7811301897e+00	-7.0940494795e-01
 5.5089738323e-01	 1.7922435864e+00	-7.7621278233e-01
 5.1592165286e-01	 1.8026230466e+00	-8.2705046205e-01
 4.8092733317e-01	 1.8122731307e+00	-8.5995696776e-01
 4.4593558986e-01	 1.8211991790e+00	-8.7340453661e-01
 4.1096715009e-01	 1.8294072815e+00	-8.6630683094e-01
 3.7604227311e-01	 1.8369042459e+00	-8.3802270664e-01
 3.4118072329e-01	 1.8436975658e+00	-7.8835573534e-01
 3.2980803251e-01	 1.7822409802e+00	-7.2246477264e-01
 2.9618835382e-01	 1.7881355399e+00	-6.9939580028e-01
 2.6266657387e-01	 1.7933662540e+00	-6.7866351856e-01
 2.2926022860e-01	 1.7979421563e+00	-6.5930721987e-01
 1.9598629350e-01	 1.8018728098e+00	-6.4074295379e-01
 1.6286116869e-01	 1.8051682719e+00	-6.2275379830e-01
 1.2990066619e-01	 1.8078390600e+00	-6.0547733770e-01
 9.7119999299e-02	 1.8098961174e+00	-5.8939062801e-01
 6.4533774104e-02	 1.8113507783e+00	-5.7529293908e-01
 3.2155982972e-02	 1.8122147342e+00	-5.6428656755e-01
 0.0000000000e+00	 1.8125000000e+00	-5.5775601499e-01
 3.3094530159e-01	 1.7883866388e+00	-7.2812156567e-01
 2.9720969297e-01	 1.7943015245e+00	-7.0035944629e-01
 2.6357232067e-01	 1.7995502756e+00	-6.7647580507e-01
 2.3005078110e-01	 1.8041419569e+00	-6.5550969751e-01
 1.9666210830e-01	 1.8080861643e+00	-6.3687456922e-01
 1.6342275893e-01	 1.8113929900e+00	-6.2034868579e-01
 1.3034859952e-01	 1.8140729878e+00	-6.0606275679e-01
 9.7454895846e-02	 1.8161371385e+00	-5.9448503496e-01
 6.4756304358e-02	 1.8175968155e+00	-5.8640418058e-01
 3.2266865671e-02	 1.8184637505e+00	-5.8291018546e-01
 0.0000000000e+00	 1.8187500000e+00	-5.8537365204e-01
 3.3208257066e-01	 1.7945322973e+00	-7.3398943058e-01
 2.9823103212e-01	 1.8004675091e+00	-7.0177728538e-01
 2.6447806747e-01	 1.8057342971e+00	-6.7495909205e-01
 2.3084133361e-01	 1.8103417574e+00	-6.5257348773e-01
 1.9733792310e-01	 1.8142995188e+00	-6.3403122560e-01
 1.6398434916e-01	 1.8176177082e+00	-6.1910576065e-01
 1.3079653285e-01	 1.8203069156e+00	-6.0792101652e-01
 9.7789792394e-02	 1.8223781596e+00	-6.0093661495e-01
 6.4978834612e-02	 1.8238428526e+00	-5.9893085843e-01
 3.2377748370e-02	 1.8247127668e+00	-6.0298176126e-01
 0.0000000000e+00	 1.8250000000e+00	-6.1444642508e-01
 3.3321983974e-01	 1.8006779559e+00	-7.4006697970e-01
 2.9925237127e-01	 1.8066334938e+00	-7.0364655544e-01
 2.6538381428e-01	 1.8119183187e+00	-6.7410937280e-01
 2.3163188612e-01	 1.8165415580e+00	-6.5049346762e-01
 1.9801373791e-01	 1.8205128734e+00	-6.3220681070e-01
 1.6454593940e-01	 1.8238424264e+00	-6.1901804653e-01
 1.3124446618e-01	 1.8265408434e+00	-6.1104439979e-01
 9.8124688942e-02	 1.8286191807e+00	-6.0873703151e-01
 6.5201364866e-02	 1.8300888898e+00	-6.1286413619e-01
 3.2488631069e-02	 1.8309617831e+00	-6.2449207572e-01
 0.0000000000e+00	 1.8312500000e+00	-6.4496484710e-01
 3.3435710882e-01	 1.8068236144e+00	-7.4635278317e-01
 3.0027371042e-01	 1.8127994784e+00	-7.0596447983e-01
 2.6628956108e-01	 1.8181023403e+00	-6.7392265135e-01
 2.3242243864e-01	 1.8227413585e+00	-6.4926454797e-01
 1.9868955271e-01	 1.8267262279e+00	-6.3139526656e-01
 1.6510752963e-01	 1.8300671446e+00	-6.2007863954e-01
 1.3169239951e-01	 1.8327747712e+00	-6.1542527781e-01
 9.8459585490e-02	 1.8348602018e+00	-6.1787805008e-01
 6.5423895121e-02	 1.8363349270e+00	-6.2819529060e-01
 3.2599513769e-02	 1.8372107995e+00	-6.4743203186e-01
 0.0000000000e+00	 1.8375000000e+00	-6.7691956018e-01
 3.3549437789e-01	 1.8129692730e+00	-7.5284536966e-01
 3.0129504957e-01	 1.8189654630e+00	-7.0872826763e-01
 2.6719530789e-01	 1.8242863618e+00	-6.7439494230e-01
 2.3321299115e-01	 1.8289411590e+00	-6.4888167263e-01
 1.9936536752e-01	 1.8329395824e+00	-6.3159058849e-01
 1.6566911987e-01	 1.8362918628e+00	-6.2228070699e-01
 1.3214033284e-01	 1.8390086990e+00	-6.2105610862e-01
 9.8794482039e-02	 1.8411012229e+00	-6.2835153627e-01
 6.5646425376e-02	 1.8425809641e+00	-6.4491570969e-01
 3.2710396468e-02	 1.8434598158e+00	-6.7179265289e-01
 0.0000000000e+00	 1.8437500000e+00	-7.1030133326e-01
 3.3663164697e-01	 1.8191149316e+00	-7.5954322708e-01
 3.0231638872e-01	 1.8251314476e+00	-7.1193511385e-01
 2.6810105470e-01	 1.8304703834e+00	-6.7552227063e-01
 2.3400354366e-01	 1.8351409596e+00	-6.4933981800e-01
 2.0004118232e-01	 1.8391529369e+00	-6.3278682422e-01
 1.6623071011e-01	 1.8425165809e+00	-6.2561748618e-01
 1.3258826617e-01	 1.8452426268e+00	-6.2792943561e-01
 9.9129378588e-02	 1.8473422440e+00	-6.4014945418e-01
 6.5868955632e-02	 1.8488270013e+00	-6.6301689088e-01
 3.2821279168e-02	 1.8497088321e+00	-6.9756508013e-01
 0.0000000000e+00	 1.8500000000e+00	-7.4510106004e-01
 3.3776891605e-01	 1.8252605901e+00	-7.6644480326e-01
 3.0333772787e-01	 1.8312974322e+00	-7.1558219971e-01
 2.6900680150e-01	 1.8366544049e+00	-6.7730067155e-01
 2.3479409617e-01	 1.8413407601e+00	-6.5063399247e-01
 2.0071699713e-01	 1.8453662914e+00	-6.3497807300e-01
 1.6679230034e-01	 1.8487412991e+00	-6.3008228328e-01
 1.3303619951e-01	 1.8514765546e+00	-6.3603788611e-01
 9.9464275138e-02	 1.8535832650e+00	-6.5326386470e-01
 6.6091485888e-02	 1.8550730385e+00	-6.8249043915e-01
 3.2932161868e-02	 1.8559578484e+00	-7.2474057108e-01
 0.0000000000e+00	 1.8562500000e+00	-7.8130975685e-01
 3.3890618513e-01	 1.8314062487e+00	-7.7354850660e-01
 3.0435906702e-01	 1.8374634169e+00	-7.1966669285e-01
 2.6991254831e-01	 1.8428384265e+00	-6.7972619029e-01
 2.3558464869e-01	 1.8475405607e+00	-6.5275923586e-01
 2.0139281193e-01	 1.8515796459e+00	-6.3815848473e-01
 1.6735389058e-01	 1.8549660173e+00	-6.3566847209e-01
 1.3348413284e-01	 1.8577104824e+00	-6.4537416994e-01
 9.9799171688e-02	 1.8598242861e+00	-6.6768692395e-01
 6.6314016144e-02	 1.8613190756e+00	-7.0332806524e-01
 3.3043044569e-02	 1.8622068648e+00	-7.5331049743e-01
 0.0000000000e+00	 1.8625000000e+00	-8.1891856063e-01
 3.4004345421e-01	 1.8375519072e+00	-7.8085270678e-01
 3.0538040618e-01	 1.8436294015e+00	-7.2418574754e-01
 2.7081829512e-01	 1.8490224481e+00	-6.8279488196e-01
 2.3637520120e-01	 1.8537403612e+00	-6.5571061895e-01
 2.0206862674e-01	 1.8577930005e+00	-6.4232225913e-01
 1.6791548082e-01	 1.8611907355e+00	-6.4236949296e-01
 1.3393206617e-01	 1.8639444102e+00	-6.5593107806e-01
 1.0013406824e-01	 1.8660653072e+00	-6.8341088164e-01
 6.6536546401e-02	 1.8675651128e+00	-7.2552158385e-01
 3.3153927269e-02	 1.8684558811e+00	-7.8326634318e-01
 0.0000000000e+00	 1.8687500000e+00	-8.5791872687e-01
 3.4118072329e-01	 1.8436975658e+00	-7.8835573534e-01
 3.0640174533e-01	 1.8497953861e+00	-7.2913650494e-01
 2.7172404193e-01	 1.8552064696e+00	-6.8650281139e-01
 2.3716575372e-01	 1.8599401617e+00	-6.5948324289e-01
 2.0274444155e-01	 1.8640063550e+00	-6.4746364489e-01
 1.6847707106e-01	 1.8674154536e+00	-6.5017885169e-01
 1.3437999951e-01	 1.8701783379e+00	-6.6770148121e-01
 1.0046896479e-01	 1.8723063283e+00	-7.0042807953e-01
 6.6759076657e-02	 1.8738111500e+00	-7.4906291195e-01
 3.3264809970e-02	 1.8747048974e+00	-8.1459970274e-01
 0.0000000000e+00	 1.8750000000e+00	-8.9830162765e-01
 1.8750000000e+00	 0.0000000000e+00	 3.6812085115e+00
 1.8747048974e+00	 3.3264809970e-02	 3.5353015422e+00
 1.8738111500e+00	 6.6759076657e-02	 3.3908647573e+00
 1.8723063283e+00	 1.0046896479e-01	 3.2468529013e+00
 1.8701783379e+00	 1.3437999951e-01	 3.1027731425e+00
 1.8674154536e+00	 1.6847707106e-01	 2.9587200414e+00
 1.8640063550e+00	 2.0274444155e-01	 2.8154073315e+00
 1.8599401617e+00	 2.3716575372e-01	 2.6741959750e+00
 1.8552064696e+00	 2.7172404193e-01	 2.5371179661e+00
 1.8497953861e+00	 3.0640174533e-01	 2.4068953566e+00
 1.8436975658e+00	 3.4118072329e-01	 2.2869540008e+00
 1.8812500000e+00	 0.0000000000e+00	 3.6950731670e+00
 1.8809539137e+00	 3.3375692670e-02	 3.5458531425e+00
 1.8800571871e+00	 6.6981606914e-02	 3.4022234613e+00
 1.8785473494e+00	 1.0080386134e-01	 3.2676816051e+00
 1.8764122657e+00	 1.3482793284e-01	 3.1455685198e+00
 1.8736401718e+00	 1.6903866130e-01	 3.0208841788e+00
 1.8702197095e+00	 2.0342025636e-01	 2.8782402064e+00
 1.8661399623e+00	 2.3795630623e-01	 2.7348749214e+00
 1.8613904912e+00	 2.7262978874e-01	 2.5928407067e+00
 1.8559613707e+00	 3.0742308448e-01	 2.4548958929e+00
 1.8498432243e+00	 3.4231799237e-01	 2.3245189687e+00
 1.8875000000e+00	 0.0000000000e+00	 3.7090615379e+00
 1.8872029301e+00	 3.3486575371e-02	 3.5555068212e+00
 1.8863032243e+00	 6.7204137171e-02	 3.4062463506e+00
 1.8847883705e+00	 1.0113875789e-01	 3.2647753853e+00
 1.8826461935e+00	 1.3527586617e-01	 3.1344345707e+00
 1.8798648900e+00	 1.6960025154e-01	 3.0183894602e+00
 1.8764330640e+00	 2.0409607116e-01	 2.9196107074e+00
 1.8723397628e+00	 2.3874685875e-01	 2.7959704474e+00
 1.8675745128e+00	 2.7353553555e-01	 2.6490203858e+00
 1.8621273553e+00	 3.0844442364e-01	 2.5033887632e+00
 1.8559888829e+00	 3.4345526145e-01	 2.3626070472e+00
 1.8937500000e+00	 0.0000000000e+00	 3.7231700327e+00
 1.8934519464e+00	 3.3597458071e-02	 3.5652929859e+00
 1.8925492615e+00	 6.7426667427e-02	 3.4104280991e+00
 1.8910293916e+00	 1.0147365444e-01	 3.2620685588e+00
 1.8888801213e+00	 1.3572379951e-01	 3.1235548184e+00
 1.8860896082e+00	 1.7016184178e-01	 2.9980542205e+00
 1.8826464185e+00	 2.0477188597e-01	 2.8885412959e+00
 1.8785395634e+00	 2.3953741126e-01	 2.7977789394e+00
 1.8737585343e+00	 2.7444128235e-01	 2.7056431244e+00
 1.8682933400e+00	 3.0946576279e-01	 2.5523579904e+00
 1.8621345414e+00	 3.4459253053e-01	 2.4011999824e+00
 1.9000000000e+00	 0.0000000000e+00	 3.7373951072e+00
 1.8997009627e+00	 3.3708340771e-02	 3.5752080251e+00
 1.8987952986e+00	 6.7649197683e-02	 3.4147649572e+00
 1.8972704127e+00	 1.0180855099e-01	 3.2595571652e+00
 1.8951140491e+00	 1.3617173284e-01	 3.1129250167e+00
 1.8923143264e+00	 1.7072343201e-01	 2.9780377067e+00
 1.8888597730e+00	 2.0544770078e-01	 2.8578736605e+00
 1.8847393639e+00	 2.4032796377e-01	 2.7552018191e+00
 1.8799425559e+00	 2.7534702916e-01	 2.6725640092e+00
 1.8744593246e+00	 3.1048710194e-01	 2.6017877388e+00
 1.8682802000e+00	 3.4572979961e-01	 2.4402796795e+00
 1.9062500000e+00	 0.0000000000e+00	 3.7517332636e+00
 1.9059499790e+00	 3.3819223471e-02	 3.5852483791e+00
 1.9050413358e+00	 6.7871727938e-02	 3.4192532333e+00
 1.9035114338e+00	 1.0214344754e-01	 3.2572373095e+00
 1.9013479769e+00	 1.3661966617e-01	 3.1025409943e+00
 1.8985390445e+00	 1.7128502225e-01	 2.9583353962e+00
 1.8950731276e+00	 2.0612351558e-01	 2.8276028510e+00
 1.8909391644e+00	 2.4111851629e-01	 2.7131183147e+00
 1.8861265775e+00	 2.7625277597e-01	 2.6174318474e+00
 1.8806253092e+00	 3.1150844109e-01	 2.5428523878e+00
 1.8744258585e+00	 3.4686706868e-01	 2.4798282005e+00
 1.9125000000e+00	 0.0000000000e+00	 3.7661810498e+00
 1.9121989954e+00	 3.3930106171e-02	 3.5954105388e+00
 1.9112873730e+00	 6.8094258194e-02	 3.4238892928e+00
 1.9097524549e+00	 1.0247834409e-01	 3.2551051612e+00
 1.9075819047e+00	 1.3706759950e-01	 3.0923986531e+00
 1.9047637627e+00	 1.7184661249e-01	 2.9389428501e+00
 1.9012864821e+00	 2.0679933039e-01	 2.7977240126e+00
 1.8971389650e+00	 2.4190906880e-01	 2.6715230791e+00
 1.8923105990e+00	 2.7715852277e-01	 2.5628982620e+00
 1.8867912938e+00	 3.1252978024e-01	 2.4741689397e+00
 1.8805715171e+00	 3.4800433776e-01	 2.4074010446e+00
 1.9187500000e+00	 0.0000000000e+00	 3.7807350589e+00
 1.9184480117e+00	 3.4040988870e-02	 3.6056910452e+00
 1.9175334101e+00	 6.8316788449e-02	 3.4286695572e+00
 1.9159934760e+00	 1.0281324064e-01	 3.2531569536e+00
 1.9138158325e+00	 1.3751553283e-01	 3.0824939673e+00
 1.9109884809e+00	 1.7240820272e-01	 2.9198557115e+00
 1.9074998366e+00	 2.0747514519e-01	 2.7682323838e+00
 1.9033387655e+00	 2.4269962131e-01	 2.6304108713e+00
 1.8984946206e+00	 2.7806426958e-01	 2.5089574558e+00
 1.8929572784e+00	 3.1355111939e-01	 2.4062018236e+00
 1.8867171756e+00	 3.4914160684e-01	 2.3242225749e+00
 1.9250000000e+00	 0.0000000000e+00	 3.7953919279e+00
 1.9246970280e+00	 3.4151871570e-02	 3.6160864881e+00
 1.9237794473e+00	 6.8539318703e-02	 3.4335905030e+00
 1.9222344971e+00	 1.0314813719e-01	 3.2513889822e+00
 1.9200497603e+00	 1.3796346616e-01	 3.0728229823e+00
 1.9172131991e+00	 1.7296979296e-01	 2.9010697043e+00
 1.9137131911e+00	 2.0815095999e-01	 2.7391232952e+00
 1.9095385661e+00	 2.4349017382e-01	 2.5897765544e+00
 1.9046786422e+00	 2.7897001638e-01	 2.4556037498e+00
 1.8991232631e+00	 3.1457245854e-01	 2.3389447419e+00
 1.8928628342e+00	 3.5027887591e-01	 2.2418906145e+00
 1.9312500000e+00	 0.0000000000e+00	 3.8101483375e+00
 1.9309460443e+00	 3.4262754269e-02	 3.6265935059e+00
 1.9300254845e+00	 6.8761848957e-02	 3.4386486614e+00
 1.9284755182e+00	 1.0348303373e-01	 3.2497976040e+00
 1.9262836881e+00	 1.3841139949e-01	 3.0633818130e+00
 1.9234379173e+00	 1.7353138319e-01	 2.8825806323e+00
 1.9199265456e+00	 2.0882677480e-01	 2.7103921676e+00
 1.9157383666e+00	 2.4428072633e-01	 2.5496150943e+00
 1.9108626637e+00	 2.7987576319e-01	 2.4028315810e+00
 1.9052892477e+00	 3.1559379769e-01	 2.2723915275e+00
 1.8990084928e+00	 3.5141614499e-01	 2.1603983164e+00
 1.9375000000e+00	 0.0000000000e+00	 3.8250010115e+00
 1.9371950607e+00	 3.4373636968e-02	 3.6372087843e+00
 1.9362715216e+00	 6.8984379211e-02	 3.4438406165e+00
 1.9347165393e+00	 1.0381793028e-01	 3.2483792367e+00
 1.9325176159e+00	 1.3885933282e-01	 3.0541666434e+00
 1.9296626354e+00	 1.7409297343e-01	 2.8643843771e+00
 1.9261399002e+00	 2.0950258960e-01	 2.6820345110e+00
 1.9219381671e+00	 2.4507127884e-01	 2.5099215579e+00
 1.9170466853e+00	 2.8078150999e-01	 2.3506355006e+00
 1.9114552323e+00	 3.1661513684e-01	 2.2065361423e+00
 1.9051541513e+00	 3.5255341407e-01	 2.0797389779e+00
 1.8436975658e+00	 3.4118072329e-01	 2.2869540008e+00
 1.8369042459e+00	 3.7604227311e-01	 2.1608639373e+00
 1.8294072815e+00	 4.1096715009e-01	 2.0213173441e+00
 1.8211991790e+00	 4.4593558986e-01	 1.8733841701e+00
 1.8122731307e+00	 4.8092733317e-01	 1.7229326443e+00
 1.8026230466e+00	 5.1592165286e-01	 1.5766155499e+00
 1.7922435864e+00	 5.5089738323e-01	 1.4418486689e+00
 1.7811301897e+00	 5.8583295167e-01	 1.3267811898e+00
 1.7692791045e+00	 6.2070641246e-01	 1.2402579490e+00
 1.7566874145e+00	 6.5549548271e-01	 1.0482651633e+00
 1.7433530645e+00	 6.9017758044e-01	 8.8429800039e-01
 1.8498432243e+00	 3.4231799237e-01	 2.3245189687e+00
 1.8430272601e+00	 3.7729574736e-01	 2.1868941746e+00
 1.8355053057e+00	 4.1233704059e-01	 2.0369157449e+00
 1.8272698429e+00	 4.4742204183e-01	 1.8797596197e+00
 1.8183140411e+00	 4.8253042428e-01	 1.7214043903e+00
 1.8086317901e+00	 5.1764139170e-01	 1.5686170880e+00
 1.7982177317e+00	 5.5273370784e-01	 1.4289310711e+00
 1.7870672903e+00	 5.8778572818e-01	 1.3106158034e+00
 1.7751767015e+00	 6.2277543383e-01	 1.2226383963e+00
 1.7625430392e+00	 6.5768046765e-01	 1.0234531461e+00
 1.7491642414e+00	 6.9247817238e-01	 8.6497676372e-01
 1.8559888829e+00	 3.4345526145e-01	 2.3626070472e+00
 1.8491502743e+00	 3.7854922160e-01	 2.2133280608e+00
 1.8416033300e+00	 4.1370693109e-01	 2.0527694818e+00
 1.8333405069e+00	 4.4890849380e-01	 1.8862136605e+00
 1.8243549515e+00	 4.8413351540e-01	 1.7197500962e+00
 1.8146405336e+00	 5.1936113055e-01	 1.5602607407e+00
 1.8041918770e+00	 5.5457003246e-01	 1.4153973288e+00
 1.7930043910e+00	 5.8973850469e-01	 1.2935505261e+00
 1.7810742985e+00	 6.2484445521e-01	 1.2038107702e+00
 1.7683986639e+00	 6.5986545260e-01	 9.9767308754e-01
 1.7549754182e+00	 6.9477876431e-01	 8.4462932376e-01
 1.8621345414e+00	 3.4459253053e-01	 2.4011999824e+00
 1.8552732884e+00	 3.7980269585e-01	 2.2401463353e+00
 1.8477013543e+00	 4.1507682159e-01	 2.0688583640e+00
 1.8394111708e+00	 4.5039494577e-01	 1.8927252529e+00
 1.8303958620e+00	 4.8573660651e-01	 1.7179479595e+00
 1.8206492770e+00	 5.2108086939e-01	 1.5515240346e+00
 1.8101660223e+00	 5.5640635707e-01	 1.4012243944e+00
 1.7989414916e+00	 5.9169128119e-01	 1.2755618382e+00
 1.7869718955e+00	 6.2691347659e-01	 1.1750105809e+00
 1.7742542886e+00	 6.6205043754e-01	 9.7094225498e-01
 1.7607865951e+00	 6.9707935625e-01	 8.2327551465e-01
 1.8682802000e+00	 3.4572979961e-01	 2.4402796795e+00
 1.8613963026e+00	 3.8105617009e-01	 2.2673298968e+00
 1.8537993786e+00	 4.1644671209e-01	 2.0851623577e+00
 1.8454818347e+00	 4.5188139773e-01	 1.8992735097e+00
 1.8364367724e+00	 4.8733969762e-01	 1.7159763243e+00
 1.8266580205e+00	 5.2280060824e-01	 1.5423846343e+00
 1.8161401676e+00	 5.5824268168e-01	 1.3863893483e+00
 1.8048785922e+00	 5.9364405770e-01	 1.2566263365e+00
 1.7928694925e+00	 6.2898249796e-01	 1.1445895497e+00
 1.7801099133e+00	 6.6423542249e-01	 9.4327800155e-01
 1.7665977720e+00	 6.9937994819e-01	 8.0093523805e-01
 1.8744258585e+00	 3.4686706868e-01	 2.4798282005e+00
 1.8675193167e+00	 3.8230964434e-01	 2.2948598002e+00
 1.8598974028e+00	 4.1781660259e-01	 2.1016615831e+00
 1.8515524987e+00	 4.5336784970e-01	 1.9058376937e+00
 1.8424776829e+00	 4.8894278873e-01	 1.7138136787e+00
 1.8326667640e+00	 5.2452034708e-01	 1.5328203410e+00
 1.8221143129e+00	 5.6007900629e-01	 1.3708693975e+00
 1.8108156929e+00	 5.9559683421e-01	 1.2367207317e+00
 1.7987670895e+00	 6.3105151934e-01	 1.1132857390e+00
 1.7859655380e+00	 6.6642040743e-01	 9.1469776472e-01
 1.7724089489e+00	 7.0168054012e-01	 7.7762846201e-01
 1.8805715171e+00	 3.4800433776e-01	 2.4074010446e+00
 1.8736423309e+00	 3.8356311858e-01	 2.3227172543e+00
 1.8659954271e+00	 4.1918649309e-01	 2.1183363120e+00
 1.8576231626e+00	 4.5485430167e-01	 1.9123972155e+00
 1.8485185933e+00	 4.9054587984e-01	 1.7114386523e+00
 1.8386755075e+00	 5.2624008592e-01	 1.5228090893e+00
 1.8280884582e+00	 5.6191533090e-01	 1.3546418726e+00
 1.8167527935e+00	 5.9754961072e-01	 1.2158218468e+00
 1.8046646866e+00	 6.3312054072e-01	 1.0811142732e+00
 1.7918211627e+00	 6.6860539237e-01	 8.8521906487e-01
 1.7782201258e+00	 7.0398113206e-01	 7.5337521993e-01
 1.8867171756e+00	 3.4914160684e-01	 2.3242225749e+00
 1.8797653450e+00	 3.8481659282e-01	 2.2520638932e+00
 1.8720934514e+00	 4.2055638359e-01	 2.1351669656e+00
 1.8636938265e+00	 4.5634075363e-01	 1.9189316310e+00
 1.8545595037e+00	 4.9214897095e-01	 1.7088300144e+00
 1.8446842510e+00	 5.2795982477e-01	 1.5123289456e+00
 1.8340626035e+00	 5.6375165552e-01	 1.3376842263e+00
 1.8226898941e+00	 5.9950238722e-01	 1.1939066154e+00
 1.8105622836e+00	 6.3518956209e-01	 1.0480903733e+00
 1.7976767875e+00	 6.7079037732e-01	 8.5485950400e-01
 1.7840313027e+00	 7.0628172400e-01	 7.2819560947e-01
 1.8928628342e+00	 3.5027887591e-01	 2.2418906145e+00
 1.8858883592e+00	 3.8607006707e-01	 2.1540527774e+00
 1.8781914757e+00	 4.2192627409e-01	 2.0850742687e+00
 1.8697644905e+00	 4.5782720560e-01	 1.9254206387e+00
 1.8606004142e+00	 4.9375206206e-01	 1.7059666713e+00
 1.8506929945e+00	 5.2967956361e-01	 1.5013581060e+00
 1.8400367487e+00	 5.6558798013e-01	 1.3199740315e+00
 1.8286269948e+00	 6.0145516373e-01	 1.1709520796e+00
 1.8164598806e+00	 6.3725858347e-01	 1.0142293562e+00
 1.8035324122e+00	 6.7297536226e-01	 8.2363676436e-01
 1.7898424795e+00	 7.0858231593e-01	 7.0210979148e-01
 1.8990084928e+00	 3.5141614499e-01	 2.1603983164e+00
 1.8920113733e+00	 3.8732354131e-01	 2.0568940458e+00
 1.8842894999e+00	 4.2329616459e-01	 1.9745891861e+00
 1.8758351544e+00	 4.5931365756e-01	 1.9143068674e+00
 1.8666413246e+00	 4.9535515317e-01	 1.7028276642e+00
 1.8567017380e+00	 5.3139930245e-01	 1.4898748936e+00
 1.8460108940e+00	 5.6742430474e-01	 1.3014889792e+00
 1.8345640954e+00	 6.0340794024e-01	 1.1469353885e+00
 1.8223574776e+00	 6.3932760484e-01	 9.7954663215e-01
 1.8093880369e+00	 6.7516034721e-01	 7.9156860715e-01
 1.7956536564e+00	 7.1088290787e-01	 6.7513798902e-01
 1.9051541513e+00	 3.5255341407e-01	 2.0797389779e+00
 1.8981343875e+00	 3.8857701555e-01	 1.9605815744e+00
 1.8903875242e+00	 4.2466605509e-01	 1.8649532975e+00
 1.8819058183e+00	 4.6080010953e-01	 1.7936980091e+00
 1.8726822350e+00	 4.9695824428e-01	 1.6993921668e+00
 1.8627104815e+00	 5.3311904130e-01	 1.4778577573e+00
 1.8519850393e+00	 5.6926062935e-01	 1.2822068763e+00
 1.8405011960e+00	 6.0536071674e-01	 1.1218337966e+00
 1.8282550746e+00	 6.4139662622e-01	 9.4405770419e-01
 1.8152436616e+00	 6.7734533215e-01	 7.5867287129e-01
 1.8014648333e+00	 7.1318349981e-01	 6.4730048636e-01
 1.7433530645e+00	 6.9017758044e-01	 8.8429800039e-01
 1.7292748837e+00	 7.2472986452e-01	 8.0132202486e-01
 1.7144526070e+00	 7.5912927652e-01	 7.0472658284e-01
 1.6988868935e+00	 7.9335258428e-01	 5.9406607865e-01
 1.6825793437e+00	 8.2737642703e-01	 4.6903827680e-01
 1.6655325128e+00	 8.6117736197e-01	 3.2951618191e-01
 1.6477499220e+00	 8.9473191208e-01	 1.7557909473e-01
 1.6292360671e+00	 9.2801661503e-01	 7.5424038983e-03
 1.6099964235e+00	 9.6100807293e-01	-1.7401432788e-01
 1.5900374492e+00	 9.9368300282e-01	-3.6822141950e-01
 1.5693665835e+00	 1.0260182876e+00	-5.7389569272e-01
 1.7491642414e+00	 6.9247817238e-01	 8.6497676372e-01
 1.7350391333e+00	 7.2714563073e-01	 7.8710273373e-01
 1.7201674490e+00	 7.6165970744e-01	 6.9495689300e-01
 1.7045498498e+00	 7.9599709289e-01	 5.8800402922e-01
 1.6881879416e+00	 8.3013434845e-01	 4.6585619785e-01
 1.6710842879e+00	 8.6404795318e-01	 3.2830534883e-01
 1.6532424218e+00	 8.9771435179e-01	 1.7535511556e-01
 1.6346668540e+00	 9.3111000375e-01	 7.2513182009e-03
 1.6153630783e+00	 9.6421143317e-01	-1.7548926745e-01
 1.5953375740e+00	 9.9699527949e-01	-3.7205231926e-01
 1.5745978055e+00	 1.0294383485e+00	-5.8130198723e-01
 1.7549754182e+00	 6.9477876431e-01	 8.4462932376e-01
 1.7408033829e+00	 7.2956139695e-01	 7.7182848801e-01
 1.7258822910e+00	 7.6419013837e-01	 6.8410554553e-01
 1.7102128062e+00	 7.9864160151e-01	 5.8083526469e-01
 1.6937965394e+00	 8.3289226988e-01	 4.6154359822e-01
 1.6766360629e+00	 8.6691854439e-01	 3.2594106083e-01
 1.6587349215e+00	 9.0069679150e-01	 1.7395525488e-01
 1.6400976408e+00	 9.3420339246e-01	 5.7620892126e-03
 1.6207297330e+00	 9.6741479341e-01	-1.7818476572e-01
 1.6006376989e+00	 1.0003075562e+00	-3.7712663712e-01
 1.5798290274e+00	 1.0328584095e+00	-5.8997526216e-01
 1.7607865951e+00	 6.9707935625e-01	 8.2327551465e-01
 1.7465676326e+00	 7.3197716317e-01	 7.5552133427e-01
 1.7315971330e+00	 7.6672056929e-01	 6.7219670536e-01
 1.7158757625e+00	 8.0128611013e-01	 5.7258596765e-01
 1.6994051372e+00	 8.3565019131e-01	 4.5612857122e-01
 1.6821878379e+00	 8.6978913559e-01	 3.2245320881e-01
 1.6642274212e+00	 9.0367923121e-01	 1.7141108234e-01
 1.6455284277e+00	 9.3729678118e-01	 3.1078408599e-03
 1.6260963878e+00	 9.7061815366e-01	-1.8206627406e-01
 1.6059378237e+00	 1.0036198328e+00	-3.8340853416e-01
 1.5850602494e+00	 1.0362784705e+00	-5.9987852713e-01
 1.7665977720e+00	 6.9937994819e-01	 8.0093523805e-01
 1.7523318822e+00	 7.3439292939e-01	 7.3820337261e-01
 1.7373119751e+00	 7.6925100021e-01	 6.5925457762e-01
 1.7215387188e+00	 8.0393061874e-01	 5.6328234839e-01
 1.7050137350e+00	 8.3840811273e-01	 4.4963922607e-01
 1.6877396130e+00	 8.7265972680e-01	 3.1787168871e-01
 1.6697199210e+00	 9.0666167092e-01	 1.6775416248e-01
 1.6509592146e+00	 9.4039016990e-01	-6.7831721223e-04
 1.6314630425e+00	 9.7382151390e-01	-1.8709926646e-01
 1.6112379485e+00	 1.0069321095e+00	-3.9086220147e-01
 1.5902914713e+00	 1.0396985314e+00	-6.1097482827e-01
 1.7724089489e+00	 7.0168054012e-01	 7.7762846201e-01
 1.7580961318e+00	 7.3680869560e-01	 7.1989675575e-01
 1.7430268171e+00	 7.7178143114e-01	 6.4530340701e-01
 1.7272016751e+00	 8.0657512736e-01	 5.5295064442e-01
 1.7106223328e+00	 8.4116603416e-01	 4.4210368769e-01
 1.6932913880e+00	 8.7553031801e-01	 3.1222640138e-01
 1.6752124207e+00	 9.0964411062e-01	 1.6301605489e-01
 1.6563900015e+00	 9.4348355862e-01	-5.5632894063e-03
 1.6368296972e+00	 9.7702487415e-01	-1.9324923912e-01
 1.6165380734e+00	 1.0102443862e+00	-3.9945185968e-01
 1.5955226933e+00	 1.0431185924e+00	-6.2322724754e-01
 1.7782201258e+00	 7.0398113206e-01	 7.5337521993e-01
 1.7638603814e+00	 7.3922446182e-01	 7.0062368818e-01
 1.7487416591e+00	 7.7431186206e-01	 6.3036747714e-01
 1.7328646314e+00	 8.0921963598e-01	 5.4161712007e-01
 1.7162309306e+00	 8.4392395558e-01	 4.3355009645e-01
 1.6988431631e+00	 8.7840090922e-01	 3.0554725256e-01
 1.6807049204e+00	 9.1262655033e-01	 1.5722831424e-01
 1.6618207884e+00	 9.4657694734e-01	-1.1513993943e-02
 1.6421963520e+00	 9.8022823439e-01	-2.0048171011e-01
 1.6218381982e+00	 1.0135566629e+00	-4.0914175840e-01
 1.6007539152e+00	 1.0465386533e+00	-6.3659890222e-01
 1.7840313027e+00	 7.0628172400e-01	 7.2819560947e-01
 1.7696246310e+00	 7.4164022804e-01	 6.8040642533e-01
 1.7544565011e+00	 7.7684229299e-01	 6.1447110992e-01
 1.7385275877e+00	 8.1186414459e-01	 5.2930806602e-01
 1.7218395284e+00	 8.4668187701e-01	 4.2400660787e-01
 1.7043949381e+00	 8.8127150043e-01	 2.9786415274e-01
 1.6861974202e+00	 9.1560899004e-01	 1.5042249039e-01
 1.6672515753e+00	 9.4967033606e-01	-1.8497362634e-02
 1.6475630067e+00	 9.8343159464e-01	-2.0876221903e-01
 1.6271383230e+00	 1.0168689396e+00	-4.1989617584e-01
 1.6059851371e+00	 1.0499587143e+00	-6.5105294427e-01
 1.7898424795e+00	 7.0858231593e-01	 7.0210979148e-01
 1.7753888806e+00	 7.4405599426e-01	 6.5926727272e-01
 1.7601713431e+00	 7.7937272391e-01	 5.9763866491e-01
 1.7441905440e+00	 8.1450865321e-01	 5.1604979886e-01
 1.7274481262e+00	 8.4943979844e-01	 4.1350139243e-01
 1.7099467131e+00	 8.8414209164e-01	 2.8920701711e-01
 1.6916899199e+00	 9.1859142975e-01	 1.4263012844e-01
 1.6726823622e+00	 9.5276372478e-01	-2.6480340667e-02
 1.6529296615e+00	 9.8663495488e-01	-2.1805632662e-01
 1.6324384478e+00	 1.0201812162e+00	-4.3167941829e-01
 1.6112163591e+00	 1.0533787752e+00	-6.6655255981e-01
 1.7956536564e+00	 7.1088290787e-01	 6.7513798902e-01
 1.7811531302e+00	 7.4647176047e-01	 6.3722858518e-01
 1.7658861852e+00	 7.8190315484e-01	 5.7989453873e-01
 1.7498535003e+00	 8.1715316183e-01	 5.0186866072e-01
 1.7330567240e+00	 8.5219771986e-01	 4.0206263528e-01
 1.7154984882e+00	 8.8701268285e-01	 2.7960576549e-01
 1.6971824197e+00	 9.2157386946e-01	 1.3388276884e-01
 1.6781131491e+00	 9.5585711349e-01	-3.5429886381e-02
 1.6582963162e+00	 9.8983831513e-01	-2.2832961446e-01
 1.6377385727e+00	 1.0234934929e+00	-4.4445581965e-01
 1.6164475810e+00	 1.0567988362e+00	-6.8306096853e-01
 1.8014648333e+00	 7.1318349981e-01	 6.4730048636e-01
 1.7869173798e+00	 7.4888752669e-01	 6.1431276601e-01
 1.7716010272e+00	 7.8443358576e-01	 5.6126316446e-01
 1.7555164566e+00	 8.1979767045e-01	 4.8679101881e-01
 1.7386653219e+00	 8.5495564129e-01	 3.8971853603e-01
 1.7210502632e+00	 8.8988327406e-01	 2.6909032225e-01
 1.7026749194e+00	 9.2455630917e-01	 1.2421194744e-01
 1.6835439359e+00	 9.5895050221e-01	-4.5312971062e-02
 1.6636629710e+00	 9.9304167537e-01	-2.3954768458e-01
 1.6430386975e+00	 1.0268057696e+00	-4.5818974106e-01
 1.6216788030e+00	 1.0602188972e+00	-7.0054142319e-01
 1.5693665835e+00	 1.0260182876e+00	-5.7389569272e-01
 1.5479922437e+00	 1.0579910271e+00	-8.9667673655e-01
 1.5259238176e+00	 1.0895785896e+00	-1.1627893899e+00
 1.5031716538e+00	 1.1207586623e+00	-1.3677180072e+00
 1.4797470481e+00	 1.1515093025e+00	-1.5067929510e+00
 1.4556622267e+00	 1.1818089870e+00	-1.5751966278e+00
 1.4309303270e+00	 1.2116366614e+00	-1.5679729039e+00
 1.4055653745e+00	 1.2409717878e+00	-1.4800399764e+00
 1.3795822569e+00	 1.2697943914e+00	-1.5397316716e+00
 1.3529966958e+00	 1.2980851056e+00	-1.6685449469e+00
 1.3258252147e+00	 1.3258252147e+00	-1.7711762163e+00
 1.5745978055e+00	 1.0294383485e+00	-5.8130198723e-01
 1.5531522178e+00	 1.0615176639e+00	-9.0237101812e-01
 1.5310102303e+00	 1.0932105182e+00	-1.1661207312e+00
 1.5081822260e+00	 1.1244945245e+00	-1.3680467968e+00
 1.4846795382e+00	 1.1553476668e+00	-1.5034888798e+00
 1.4605144341e+00	 1.1857483503e+00	-1.5676364921e+00
 1.4357000948e+00	 1.2156754502e+00	-1.5555382600e+00
 1.4102505924e+00	 1.2451083604e+00	-1.4621146865e+00
 1.3841808644e+00	 1.2740270394e+00	-1.5574808454e+00
 1.3575066847e+00	 1.3024120559e+00	-1.6757800170e+00
 1.3302446321e+00	 1.3302446321e+00	-1.7673902599e+00
 1.5798290274e+00	 1.0328584095e+00	-5.8997526216e-01
 1.5583121920e+00	 1.0650443006e+00	-9.0935086851e-01
 1.5360966430e+00	 1.0968424468e+00	-1.1707700592e+00
 1.5131927982e+00	 1.1282303867e+00	-1.3697400233e+00
 1.4896120284e+00	 1.1591860312e+00	-1.5016098573e+00
 1.4653666415e+00	 1.1896877136e+00	-1.5615762305e+00
 1.4404698625e+00	 1.2197142391e+00	-1.5446925032e+00
 1.4149358103e+00	 1.2492449330e+00	-1.4458813787e+00
 1.3887794719e+00	 1.2782596873e+00	-1.5742896005e+00
 1.3620166737e+00	 1.3067390063e+00	-1.6821478529e+00
 1.3346640495e+00	 1.3346640495e+00	-1.7628107275e+00
 1.5850602494e+00	 1.0362784705e+00	-5.9987852713e-01
 1.5634721661e+00	 1.0685709374e+00	-9.1757834716e-01
 1.5411830558e+00	 1.1004743755e+00	-1.1766985034e+00
 1.5182033703e+00	 1.1319662489e+00	-1.3727579098e+00
 1.4945445185e+00	 1.1630243955e+00	-1.5011152253e+00
 1.4702188490e+00	 1.1936270768e+00	-1.5569743308e+00
 1.4452396303e+00	 1.2237530280e+00	-1.5353932970e+00
 1.4196210282e+00	 1.2533815056e+00	-1.4640149619e+00
 1.3933780795e+00	 1.2824923353e+00	-1.5901694131e+00
 1.3665266627e+00	 1.3110659566e+00	-1.6876589703e+00
 1.3390834669e+00	 1.3390834669e+00	-1.7574470903e+00
 1.5902914713e+00	 1.0396985314e+00	-6.1097482827e-01
 1.5686321403e+00	 1.0720975741e+00	-9.2701555475e-01
 1.5462694685e+00	 1.1041063041e+00	-1.1838672404e+00
 1.5232139425e+00	 1.1357021111e+00	-1.3770607320e+00
 1.4994770087e+00	 1.1668627598e+00	-1.5019643847e+00
 1.4750710564e+00	 1.1975664401e+00	-1.5537893478e+00
 1.4500093980e+00	 1.2277918168e+00	-1.5275983796e+00
 1.4243062461e+00	 1.2575180782e+00	-1.4887056170e+00
 1.3979766870e+00	 1.2867249833e+00	-1.6051318520e+00
 1.3710366517e+00	 1.3153929069e+00	-1.6923239878e+00
 1.3435028842e+00	 1.3435028842e+00	-1.7513089328e+00
 1.5955226933e+00	 1.0431185924e+00	-6.2322724754e-01
 1.5737921144e+00	 1.0756242109e+00	-9.3762463244e-01
 1.5513558812e+00	 1.1077382327e+00	-1.1922374922e+00
 1.5282245147e+00	 1.1394379733e+00	-1.3826088176e+00
 1.5044094988e+00	 1.1707011242e+00	-1.5041167954e+00
 1.4799232638e+00	 1.2015058034e+00	-1.5519799020e+00
 1.4547791658e+00	 1.2318306057e+00	-1.5212655632e+00
 1.4289914641e+00	 1.2616546509e+00	-1.5124203043e+00
 1.4025752945e+00	 1.2909576312e+00	-1.6191885778e+00
 1.3755466407e+00	 1.3197198573e+00	-1.6961536253e+00
 1.3479223016e+00	 1.3479223016e+00	-1.7444059510e+00
 1.6007539152e+00	 1.0465386533e+00	-6.3659890222e-01
 1.5789520885e+00	 1.0791508477e+00	-9.4936776129e-01
 1.5564422939e+00	 1.1113701614e+00	-1.2017705263e+00
 1.5332350869e+00	 1.1431738355e+00	-1.3893625451e+00
 1.5093419890e+00	 1.1745394885e+00	-1.5075319744e+00
 1.4847754712e+00	 1.2054451667e+00	-1.5515046786e+00
 1.4595489336e+00	 1.2358693946e+00	-1.5163527326e+00
 1.4336766820e+00	 1.2657912235e+00	-1.5351716199e+00
 1.4071739020e+00	 1.2951902792e+00	-1.6323513407e+00
 1.3800566296e+00	 1.3240468076e+00	-1.6991587022e+00
 1.3523417190e+00	 1.3523417190e+00	-1.7367479506e+00
 1.6059851371e+00	 1.0499587143e+00	-6.5105294427e-01
 1.5841120627e+00	 1.0826774844e+00	-9.6220716155e-01
 1.5615287067e+00	 1.1150020900e+00	-1.2124276544e+00
 1.5382456591e+00	 1.1469096978e+00	-1.3972823433e+00
 1.5142744792e+00	 1.1783778529e+00	-1.5121694957e+00
 1.4896276786e+00	 1.2093845300e+00	-1.5523224265e+00
 1.4643187013e+00	 1.2399081834e+00	-1.5128178437e+00
 1.4383618999e+00	 1.2699277961e+00	-1.5569722394e+00
 1.4117725095e+00	 1.2994229272e+00	-1.6446319798e+00
 1.3845666186e+00	 1.3283737580e+00	-1.7013501358e+00
 1.3567611364e+00	 1.3567611364e+00	-1.7283448454e+00
 1.6112163591e+00	 1.0533787752e+00	-6.6655255981e-01
 1.5892720368e+00	 1.0862041212e+00	-9.7610509207e-01
 1.5666151194e+00	 1.1186340186e+00	-1.2241702317e+00
 1.5432562312e+00	 1.1506455600e+00	-1.4063286904e+00
 1.5192069693e+00	 1.1822162172e+00	-1.5179889887e+00
 1.4944798861e+00	 1.2133238933e+00	-1.5543919573e+00
 1.4690884691e+00	 1.2439469723e+00	-1.5106189227e+00
 1.4430471178e+00	 1.2740643687e+00	-1.5778349170e+00
 1.4163711171e+00	 1.3036555751e+00	-1.6560424208e+00
 1.3890766076e+00	 1.3327007083e+00	-1.7027389399e+00
 1.3611805538e+00	 1.3611805538e+00	-1.7192066552e+00
 1.6164475810e+00	 1.0567988362e+00	-6.8306096853e-01
 1.5944320110e+00	 1.0897307579e+00	-9.9102384966e-01
 1.5717015321e+00	 1.1222659473e+00	-1.2369596567e+00
 1.5482668034e+00	 1.1543814222e+00	-1.4164621131e+00
 1.5241394595e+00	 1.1860545816e+00	-1.5249501378e+00
 1.4993320935e+00	 1.2172632566e+00	-1.5576721443e+00
 1.4738582368e+00	 1.2479857612e+00	-1.5097140650e+00
 1.4477323357e+00	 1.2782009414e+00	-1.5977724838e+00
 1.4209697246e+00	 1.3078882231e+00	-1.6665946755e+00
 1.3935865966e+00	 1.3370276587e+00	-1.7033362230e+00
 1.3655999711e+00	 1.3655999711e+00	-1.7093435042e+00
 1.6216788030e+00	 1.0602188972e+00	-7.0054142319e-01
 1.5995919851e+00	 1.0932573947e+00	-1.0069257684e+00
 1.5767879448e+00	 1.1258978759e+00	-1.2507573699e+00
 1.5532773756e+00	 1.1581172844e+00	-1.4276431859e+00
 1.5290719496e+00	 1.1898929459e+00	-1.5330126811e+00
 1.5041843009e+00	 1.2212026199e+00	-1.5621219212e+00
 1.4786280046e+00	 1.2520245501e+00	-1.5235052625e+00
 1.4524175536e+00	 1.2823375140e+00	-1.6167978465e+00
 1.4255683321e+00	 1.3121208711e+00	-1.6763008398e+00
 1.3980965856e+00	 1.3413546091e+00	-1.7031531867e+00
 1.3700193885e+00	 1.3700193885e+00	-1.6987656197e+00
 1.3258252147e+00	 1.3258252147e+00	-1.7711762163e+00
 1.2980851056e+00	 1.3529966958e+00	-1.9540399721e+00
 1.2697943914e+00	 1.3795822569e+00	-2.1447588783e+00
 1.2409717878e+00	 1.4055653745e+00	-2.2130853003e+00
 1.2116366614e+00	 1.4309303270e+00	-2.0237784465e+00
 1.1818089870e+00	 1.4556622267e+00	-1.8749631407e+00
 1.1515093025e+00	 1.4797470481e+00	-1.7631047195e+00
 1.1207586623e+00	 1.5031716538e+00	-1.6844076420e+00
 1.0895785896e+00	 1.5259238176e+00	-1.6348443390e+00
 1.0579910271e+00	 1.5479922437e+00	-1.6101857041e+00
 1.0260182876e+00	 1.5693665835e+00	-1.6060329216e+00
 1.3302446321e+00	 1.3302446321e+00	-1.7673902599e+00
 1.3024120559e+00	 1.3575066847e+00	-1.9375287485e+00
 1.2740270394e+00	 1.3841808644e+00	-2.1171845018e+00
 1.2451083604e+00	 1.4102505924e+00	-2.2358426260e+00
 1.2156754502e+00	 1.4357000948e+00	-2.0343172993e+00
 1.1857483503e+00	 1.4605144341e+00	-1.8754133604e+00
 1.1553476668e+00	 1.4846795382e+00	-1.7555061718e+00
 1.1244945245e+00	 1.5081822260e+00	-1.6707022050e+00
 1.0932105182e+00	 1.5310102303e+00	-1.6168684822e+00
 1.0615176639e+00	 1.5531522178e+00	-1.5896637014e+00
 1.0294383485e+00	 1.5745978055e+00	-1.5845707319e+00
 1.3346640495e+00	 1.3346640495e+00	-1.7628107275e+00
 1.3067390063e+00	 1.3620166737e+00	-1.9200999253e+00
 1.2782596873e+00	 1.3887794719e+00	-2.0885557360e+00
 1.2492449330e+00	 1.4149358103e+00	-2.2574721086e+00
 1.2197142391e+00	 1.4404698625e+00	-2.0436081753e+00
 1.1896877136e+00	 1.4653666415e+00	-1.8744930634e+00
 1.1591860312e+00	 1.4896120284e+00	-1.7464122024e+00
 1.1282303867e+00	 1.5131927982e+00	-1.6553741105e+00
 1.0968424468e+00	 1.5360966430e+00	-1.5971404310e+00
 1.0650443006e+00	 1.5583121920e+00	-1.5672576907e+00
 1.0328584095e+00	 1.5798290274e+00	-1.5610904647e+00
 1.3390834669e+00	 1.3390834669e+00	-1.7574470903e+00
 1.3110659566e+00	 1.3665266627e+00	-1.9017638109e+00
 1.2824923353e+00	 1.3933780795e+00	-2.0588837829e+00
 1.2533815056e+00	 1.4196210282e+00	-2.2290163551e+00
 1.2237530280e+00	 1.4452396303e+00	-2.0516347677e+00
 1.1936270768e+00	 1.4702188490e+00	-1.8721876637e+00
 1.1630243955e+00	 1.4945445185e+00	-1.7358100523e+00
 1.1319662489e+00	 1.5182033703e+00	-1.6384125285e+00
 1.1004743755e+00	 1.5411830558e+00	-1.5756513807e+00
 1.0685709374e+00	 1.5634721661e+00	-1.5429609842e+00
 1.0362784705e+00	 1.5850602494e+00	-1.5355876357e+00
 1.3435028842e+00	 1.3435028842e+00	-1.7513089328e+00
 1.3153929069e+00	 1.3710366517e+00	-1.8825308125e+00
 1.2867249833e+00	 1.3979766870e+00	-2.0281799275e+00
 1.2575180782e+00	 1.4243062461e+00	-2.1884568545e+00
 1.2277918168e+00	 1.4500093980e+00	-2.0583808167e+00
 1.1975664401e+00	 1.4750710564e+00	-1.8684826031e+00
 1.1668627598e+00	 1.4994770087e+00	-1.7236869698e+00
 1.1357021111e+00	 1.5232139425e+00	-1.6198066142e+00
 1.1041063041e+00	 1.5462694685e+00	-1.5523924894e+00
 1.0720975741e+00	 1.5686321403e+00	-1.5167668338e+00
 1.0396985314e+00	 1.5902914713e+00	-1.5080576758e+00
 1.3479223016e+00	 1.3479223016e+00	-1.7444059510e+00
 1.3197198573e+00	 1.3755466407e+00	-1.8624114343e+00
 1.2909576312e+00	 1.4025752945e+00	-1.9964555358e+00
 1.2616546509e+00	 1.4289914641e+00	-2.1467306736e+00
 1.2318306057e+00	 1.4547791658e+00	-2.0638301086e+00
 1.2015058034e+00	 1.4799232638e+00	-1.8633633502e+00
 1.1707011242e+00	 1.5044094988e+00	-1.7100302098e+00
 1.1394379733e+00	 1.5282245147e+00	-1.5995455084e+00
 1.1077382327e+00	 1.5513558812e+00	-1.5273548786e+00
 1.0756242109e+00	 1.5737921144e+00	-1.4886684312e+00
 1.0431185924e+00	 1.5955226933e+00	-1.4784959316e+00
 1.3523417190e+00	 1.3523417190e+00	-1.7367479506e+00
 1.3240468076e+00	 1.3800566296e+00	-1.8414162757e+00
 1.2951902792e+00	 1.4071739020e+00	-1.9637220537e+00
 1.2657912235e+00	 1.4336766820e+00	-2.1038501571e+00
 1.2358693946e+00	 1.4595489336e+00	-2.0679664756e+00
 1.2054451667e+00	 1.4847754712e+00	-1.8568154005e+00
 1.1745394885e+00	 1.5093419890e+00	-1.6948270342e+00
 1.1431738355e+00	 1.5332350869e+00	-1.5776183379e+00
 1.1113701614e+00	 1.5564422939e+00	-1.5005296337e+00
 1.0791508477e+00	 1.5789520885e+00	-1.4586589096e+00
 1.0465386533e+00	 1.6007539152e+00	-1.4468976677e+00
 1.3567611364e+00	 1.3567611364e+00	-1.7283448454e+00
 1.3283737580e+00	 1.3845666186e+00	-1.8195560304e+00
 1.2994229272e+00	 1.4117725095e+00	-1.9299910060e+00
 1.2699277961e+00	 1.4383618999e+00	-2.0598277115e+00
 1.2399081834e+00	 1.4643187013e+00	-2.0707737943e+00
 1.2093845300e+00	 1.4896276786e+00	-1.8488242754e+00
 1.1783778529e+00	 1.5142744792e+00	-1.6780647113e+00
 1.1469096978e+00	 1.5382456591e+00	-1.5540142154e+00
 1.1150020900e+00	 1.5615287067e+00	-1.4719078048e+00
 1.0826774844e+00	 1.5841120627e+00	-1.4267313441e+00
 1.0499587143e+00	 1.6059851371e+00	-1.4132580671e+00
 1.3611805538e+00	 1.3611805538e+00	-1.7192066552e+00
 1.3327007083e+00	 1.3890766076e+00	-1.7968414840e+00
 1.3036555751e+00	 1.4163711171e+00	-1.8952739945e+00
 1.2740643687e+00	 1.4430471178e+00	-2.0146758049e+00
 1.2439469723e+00	 1.4690884691e+00	-2.0722359856e+00
 1.2133238933e+00	 1.4944798861e+00	-1.8393755225e+00
 1.1822162172e+00	 1.5192069693e+00	-1.6597305161e+00
 1.1506455600e+00	 1.5432562312e+00	-1.5287222399e+00
 1.1186340186e+00	 1.5666151194e+00	-1.4414804070e+00
 1.0862041212e+00	 1.5892720368e+00	-1.3928787531e+00
 1.0533787752e+00	 1.6112163591e+00	-1.3775722334e+00
 1.3655999711e+00	 1.3655999711e+00	-1.7093435042e+00
 1.3370276587e+00	 1.3935865966e+00	-1.7732835132e+00
 1.3078882231e+00	 1.4209697246e+00	-1.8595826974e+00
 1.2782009414e+00	 1.4477323357e+00	-1.9684069654e+00
 1.2479857612e+00	 1.4738582368e+00	-2.0723370137e+00
 1.2172632566e+00	 1.4993320935e+00	-1.8284547146e+00
 1.1860545816e+00	 1.5241394595e+00	-1.6398117300e+00
 1.1543814222e+00	 1.5482668034e+00	-1.5017314972e+00
 1.1222659473e+00	 1.5717015321e+00	-1.4092384212e+00
 1.0897307579e+00	 1.5944320110e+00	-1.3570940988e+00
 1.0567988362e+00	 1.6164475810e+00	-1.3398351916e+00
 1.3700193885e+00	 1.3700193885e+00	-1.6987656197e+00
 1.3413546091e+00	 1.3980965856e+00	-1.7488930840e+00
 1.3121208711e+00	 1.4255683321e+00	-1.8229288676e+00
 1.2823375140e+00	 1.4524175536e+00	-1.9210337806e+00
 1.2520245501e+00	 1.4786280046e+00	-2.0433667497e+00
 1.2212026199e+00	 1.5041843009e+00	-1.8160474494e+00
 1.1898929459e+00	 1.5290719496e+00	-1.6182956407e+00
 1.1581172844e+00	 1.5532773756e+00	-1.4730310596e+00
 1.1258978759e+00	 1.5767879448e+00	-1.3751727945e+00
 1.0932573947e+00	 1.5995919851e+00	-1.3193702885e+00
 1.0602188972e+00	 1.6216788030e+00	-1.3000418892e+00
 1.0260182876e+00	 1.5693665835e+00	-1.6060329216e+00
 9.9368300282e-01	 1.5900374492e+00	-1.4723099780e+00
 9.6100807293e-01	 1.6099964235e+00	-1.3613181929e+00
 9.2801661503e-01	 1.6292360671e+00	-1.2699271832e+00
 8.9473191208e-01	 1.6477499220e+00	-1.1949021226e+00
 8.6117736197e-01	 1.6655325128e+00	-1.1329324621e+00
 8.2737642703e-01	 1.6825793437e+00	-1.0806605571e+00
 7.9335258428e-01	 1.6988868935e+00	-1.0347099258e+00
 7.5912927652e-01	 1.7144526070e+00	-9.9171287947e-01
 7.2472986452e-01	 1.7292748837e+00	-9.4833727575e-01
 6.9017758044e-01	 1.7433530645e+00	-9.0131216897e-01
 1.0294383485e+00	 1.5745978055e+00	-1.5845707319e+00
 9.9699527949e-01	 1.5953375740e+00	-1.4547675156e+00
 9.6421143317e-01	 1.6153630783e+00	-1.3470554591e+00
 9.3111000375e-01	 1.6346668540e+00	-1.2582445861e+00
 8.9771435179e-01	 1.6532424218e+00	-1.1850434149e+00
 8.6404795318e-01	 1.6710842879e+00	-1.1240879930e+00
 8.3013434845e-01	 1.6881879416e+00	-1.0719708149e+00
 7.9599709289e-01	 1.7045498498e+00	-1.0252693481e+00
 7.6165970744e-01	 1.7201674490e+00	-9.8057390248e-01
 7.2714563073e-01	 1.7350391333e+00	-9.3451459557e-01
 6.9247817238e-01	 1.7491642414e+00	-8.8378718461e-01
 1.0328584095e+00	 1.5798290274e+00	-1.5610904647e+00
 1.0003075562e+00	 1.6006376989e+00	-1.4352008299e+00
 9.6741479341e-01	 1.6207297330e+00	-1.3307731212e+00
 9.3420339246e-01	 1.6400976408e+00	-1.2445574214e+00
 9.0069679150e-01	 1.6587349215e+00	-1.1732052193e+00
 8.6691854439e-01	 1.6766360629e+00	-1.1132987600e+00
 8.3289226988e-01	 1.6937965394e+00	-1.0613802572e+00
 7.9864160151e-01	 1.7102128062e+00	-1.0139806891e+00
 7.6419013837e-01	 1.7258822910e+00	-9.6764790971e-01
 7.2956139695e-01	 1.7408033829e+00	-9.1897382971e-01
 6.9477876431e-01	 1.7549754182e+00	-8.6462043250e-01
 1.0362784705e+00	 1.5850602494e+00	-1.5355876357e+00
 1.0036198328e+00	 1.6059378237e+00	-1.4136064324e+00
 9.7061815366e-01	 1.6260963878e+00	-1.3124686326e+00
 9.3729678118e-01	 1.6455284277e+00	-1.2288640291e+00
 9.0367923121e-01	 1.6642274212e+00	-1.1593867044e+00
 8.6978913559e-01	 1.6821878379e+00	-1.1005647006e+00
 8.3565019131e-01	 1.6994051372e+00	-1.0488895290e+00
 8.0128611013e-01	 1.7158757625e+00	-1.0008452378e+00
 7.6672056929e-01	 1.7315971330e+00	-9.5293677004e-01
 7.3197716317e-01	 1.7465676326e+00	-9.0171736106e-01
 6.9707935625e-01	 1.7607865951e+00	-8.4381474270e-01
 1.0396985314e+00	 1.5902914713e+00	-1.5080576758e+00
 1.0069321095e+00	 1.6112379485e+00	-1.3899807410e+00
 9.7382151390e-01	 1.6314630425e+00	-1.2921393460e+00
 9.4039016990e-01	 1.6509592146e+00	-1.2111626417e+00
 9.0666167092e-01	 1.6697199210e+00	-1.1435869256e+00
 8.7265972680e-01	 1.6877396130e+00	-1.0858856345e+00
 8.3840811273e-01	 1.7050137350e+00	-1.0344991534e+00
 8.0393061874e-01	 1.7215387188e+00	-9.8586415891e-01
 7.6925100021e-01	 1.7373119751e+00	-9.3644222586e-01
 7.3439292939e-01	 1.7523318822e+00	-8.8274744496e-01
 6.9937994819e-01	 1.7665977720e+00	-8.2137281760e-01
 1.0431185924e+00	 1.5955226933e+00	-1.4784959316e+00
 1.0102443862e+00	 1.6165380734e+00	-1.3643200814e+00
 9.7702487415e-01	 1.6368296972e+00	-1.2697825145e+00
 9.4348355862e-01	 1.6563900015e+00	-1.1914513856e+00
 9.0964411062e-01	 1.6752124207e+00	-1.1258048270e+00
 8.7553031801e-01	 1.6932913880e+00	-1.0692612653e+00
 8.4116603416e-01	 1.7106223328e+00	-1.0182095340e+00
 8.0657512736e-01	 1.7272016751e+00	-9.6903849457e-01
 7.7178143114e-01	 1.7430268171e+00	-9.1816589523e-01
 7.3680869560e-01	 1.7580961318e+00	-8.6206621136e-01
 7.0168054012e-01	 1.7724089489e+00	-7.9729723401e-01
 1.0465386533e+00	 1.6007539152e+00	-1.4468976677e+00
 1.0135566629e+00	 1.6218381982e+00	-1.3366206891e+00
 9.8022823439e-01	 1.6421963520e+00	-1.2453952936e+00
 9.4657694734e-01	 1.6618207884e+00	-1.1697282836e+00
 9.1262655033e-01	 1.6807049204e+00	-1.1060392432e+00
 8.7840090922e-01	 1.6988431631e+00	-1.0506911827e+00
 8.4392395558e-01	 1.7162309306e+00	-1.0000209566e+00
 8.0921963598e-01	 1.7328646314e+00	-9.5036916647e-01
 7.7431186206e-01	 1.7487416591e+00	-8.9810927379e-01
 7.3922446182e-01	 1.7638603814e+00	-8.3967566681e-01
 7.0398113206e-01	 1.7782201258e+00	-7.7159044522e-01
 1.0499587143e+00	 1.6059851371e+00	-1.4132580671e+00
 1.0168689396e+00	 1.6271383230e+00	-1.3068787103e+00
 9.8343159464e-01	 1.6475630067e+00	-1.2189747426e+00
 9.4967033606e-01	 1.6672515753e+00	-1.1459912560e+00
 9.1560899004e-01	 1.6861974202e+00	-1.0842889013e+00
 8.8127150043e-01	 1.7043949381e+00	-1.0301748641e+00
 8.4668187701e-01	 1.7218395284e+00	-9.7993359135e-01
 8.1186414459e-01	 1.7385275877e+00	-9.2985697782e-01
 7.7684229299e-01	 1.7544565011e+00	-8.7627373688e-01
 7.4164022804e-01	 1.7696246310e+00	-8.1557769651e-01
 7.0628172400e-01	 1.7840313027e+00	-7.4425478297e-01
 1.0533787752e+00	 1.6112163591e+00	-1.3775722334e+00
 1.0201812162e+00	 1.6324384478e+00	-1.2750902035e+00
 9.8663495488e-01	 1.6529296615e+00	-1.1905178263e+00
 9.5276372478e-01	 1.6726823622e+00	-1.1202381222e+00
 9.1859142975e-01	 1.6916899199e+00	-1.0605524222e+00
 8.8414209164e-01	 1.7099467131e+00	-1.0077116768e+00
 8.4943979844e-01	 1.7274481262e+00	-9.5794749455e-01
 8.1450865321e-01	 1.7441905440e+00	-9.0750261523e-01
 7.7937272391e-01	 1.7601713431e+00	-8.5266054140e-01
 7.4405599426e-01	 1.7753888806e+00	-7.8977406626e-01
 7.0858231593e-01	 1.7898424795e+00	-7.1529245949e-01
 1.0567988362e+00	 1.6164475810e+00	-1.3398351916e+00
 1.0234934929e+00	 1.6377385727e+00	-1.2412511414e+00
 9.8983831513e-01	 1.6582963162e+00	-1.1600214165e+00
 9.5585711349e-01	 1.6781131491e+00	-1.0924666029e+00
 9.2157386946e-01	 1.6971824197e+00	-1.0348283227e+00
 8.8701268285e-01	 1.7154984882e+00	-9.8330087942e-01
 8.5219771986e-01	 1.7330567240e+00	-9.3406261036e-01
 8.1715316183e-01	 1.7498535003e+00	-8.8330665067e-01
 7.8190315484e-01	 1.7658861852e+00	-8.2727082776e-01
 7.4647176047e-01	 1.7811531302e+00	-7.6226642438e-01
 7.1088290787e-01	 1.7956536564e+00	-6.8470556937e-01
 1.0602188972e+00	 1.6216788030e+00	-1.3000418892e+00
 1.0268057696e+00	 1.6430386975e+00	-1.2053574116e+00
 9.9304167537e-01	 1.6636629710e+00	-1.1274822932e+00
 9.5895050221e-01	 1.6835439359e+00	-1.0626743210e+00
 9.2455630917e-01	 1.7026749194e+00	-1.0071150171e+00
 8.8988327406e-01	 1.7210502632e+00	-9.5694162367e-01
 8.5495564129e-01	 1.7386653219e+00	-9.0827877273e-01
 8.1979767045e-01	 1.7555164566e+00	-8.5726954324e-01
 7.8443358576e-01	 1.7716010272e+00	-8.0010562178e-01
 7.4888752669e-01	 1.7869173798e+00	-7.3305630364e-01
 7.1318349981e-01	 1.8014648333e+00	-6.5249609148e-01
 6.9017758044e-01	 1.7433530645e+00	-9.0131216897e-01
 6.5549548271e-01	 1.7566874145e+00	-7.4897148423e-01
 6.2070641246e-01	 1.7692791045e+00	-6.2900855634e-01
 5.8583295167e-01	 1.7811301897e+00	-7.0940494795e-01
 5.5089738323e-01	 1.7922435864e+00	-7.7621278233e-01
 5.1592165286e-01	 1.8026230466e+00	-8.2705046205e-01
 4.8092733317e-01	 1.8122731307e+00	-8.5995696776e-01
 4.4593558986e-01	 1.8211991790e+00	-8.7340453661e-01
 4.1096715009e-01	 1.8294072815e+00	-8.6630683094e-01
 3.7604227311e-01	 1.8369042459e+00	-8.3802270664e-01
 3.4118072329e-01	 1.8436975658e+00	-7.8835573534e-01
 6.9247817238e-01	 1.7491642414e+00	-8.8378718461e-01
 6.5768046765e-01	 1.7625430392e+00	-7.3490916825e-01
 6.2277543383e-01	 1.7751767015e+00	-6.0660607423e-01
 5.8778572818e-01	 1.7870672903e+00	-6.9375783276e-01
 5.5273370784e-01	 1.7982177317e+00	-7.6907953156e-01
 5.1764139170e-01	 1.8086317901e+00	-8.3013599967e-01
 4.8253042428e-01	 1.8183140411e+00	-8.7491023115e-01
 4.4742204183e-01	 1.8272698429e+00	-9.0181655104e-01
 4.1233704059e-01	 1.8355053057e+00	-9.0970924457e-01
 3.7729574736e-01	 1.8430272601e+00	-8.9788675739e-01
 3.4231799237e-01	 1.8498432243e+00	-8.6609161890e-01
 6.9477876431e-01	 1.7549754182e+00	-8.6462043250e-01
 6.5986545260e-01	 1.7683986639e+00	-7.1946197683e-01
 6.2484445521e-01	 1.7810742985e+00	-5.8331816136e-01
 5.8973850469e-01	 1.7930043910e+00	-6.7748663891e-01
 5.5457003246e-01	 1.8041918770e+00	-7.6156122416e-01
 5.1936113055e-01	 1.8146405336e+00	-8.3305250317e-01
 4.8413351540e-01	 1.8243549515e+00	-8.8988690722e-01
 4.4890849380e-01	 1.8333405069e+00	-9.3042036692e-01
 4.1370693109e-01	 1.8416033300e+00	-9.5344740222e-01
 3.7854922160e-01	 1.8491502743e+00	-9.5820575385e-01
 3.4345526145e-01	 1.8559888829e+00	-9.4437670700e-01
 6.9707935625e-01	 1.7607865951e+00	-8.4381474270e-01
 6.6205043754e-01	 1.7742542886e+00	-7.0263140008e-01
 6.2691347659e-01	 1.7869718955e+00	-5.7167163357e-01
 5.9169128119e-01	 1.7989414916e+00	-6.6058605536e-01
 5.5640635707e-01	 1.8101660223e+00	-7.5365217105e-01
 5.2108086939e-01	 1.8206492770e+00	-8.3579403860e-01
 4.8573660651e-01	 1.8303958620e+00	-9.0488094695e-01
 4.5039494577e-01	 1.8394111708e+00	-9.5920994654e-01
 4.1507682159e-01	 1.8477013543e+00	-9.9751540022e-01
 3.7980269585e-01	 1.8552732884e+00	-1.0189740455e+00
 3.4459253053e-01	 1.8621345414e+00	-1.0232057174e+00
 6.9937994819e-01	 1.7665977720e+00	-8.2137281760e-01
 6.6423542249e-01	 1.7801099133e+00	-6.8441882375e-01
 6.2898249796e-01	 1.7928694925e+00	-5.5990929086e-01
 5.9364405770e-01	 1.8048785922e+00	-6.4305070710e-01
 5.5824268168e-01	 1.8161401676e+00	-7.4534663612e-01
 5.2280060824e-01	 1.8266580205e+00	-8.3835463981e-01
 4.8733969762e-01	 1.8364367724e+00	-9.1988628186e-01
 4.5188139773e-01	 1.8454818347e+00	-9.8817924335e-01
 4.1644671209e-01	 1.8537993786e+00	-1.0419073346e+00
 3.8105617009e-01	 1.8613963026e+00	-1.0801859877e+00
 3.4572979961e-01	 1.8682802000e+00	-1.1025733783e+00
 7.0168054012e-01	 1.7724089489e+00	-7.9729723401e-01
 6.6642040743e-01	 1.7859655380e+00	-6.6482553099e-01
 6.3105151934e-01	 1.7987670895e+00	-5.4700311595e-01
 5.9559683421e-01	 1.8108156929e+00	-6.2487515613e-01
 5.6007900629e-01	 1.8221143129e+00	-7.3663883705e-01
 5.2452034708e-01	 1.8326667640e+00	-8.4072830902e-01
 4.8894278873e-01	 1.8424776829e+00	-9.3489682437e-01
 4.5336784970e-01	 1.8515524987e+00	-1.0173222021e+00
 4.1781660259e-01	 1.8598974028e+00	-1.0866173009e+00
 3.8230964434e-01	 1.8675193167e+00	-1.1418359422e+00
 3.4686706868e-01	 1.8744258585e+00	-1.1824744283e+00
 7.0398113206e-01	 1.7782201258e+00	-7.7159044522e-01
 6.6860539237e-01	 1.7918211627e+00	-6.4385270398e-01
 6.3312054072e-01	 1.8046646866e+00	-5.3295317255e-01
 5.9754961072e-01	 1.8167527935e+00	-6.0605390259e-01
 5.6191533090e-01	 1.8280884582e+00	-7.2752294597e-01
 5.2624008592e-01	 1.8386755075e+00	-8.4290901732e-01
 4.9054587984e-01	 1.8485185933e+00	-9.4990646803e-01
 4.5485430167e-01	 1.8576231626e+00	-1.0466327589e+00
 4.1918649309e-01	 1.8659954271e+00	-1.1316393946e+00
 3.8356311858e-01	 1.8736423309e+00	-1.2039182761e+00
 3.4800433776e-01	 1.8805715171e+00	-1.1337849695e+00
 7.0628172400e-01	 1.7840313027e+00	-7.4425478297e-01
 6.7079037732e-01	 1.7976767875e+00	-6.2150142564e-01
 6.3518956209e-01	 1.8105622836e+00	-5.1775944526e-01
 5.9950238722e-01	 1.8226898941e+00	-5.8658138566e-01
 5.6375165552e-01	 1.8340626035e+00	-7.1799309032e-01
 5.2795982477e-01	 1.8446842510e+00	-8.4489070517e-01
 4.9214897095e-01	 1.8545595037e+00	-9.6490908789e-01
 4.5634075363e-01	 1.8636938265e+00	-1.0761048415e+00
 4.2055638359e-01	 1.8720934514e+00	-1.1769677106e+00
 3.8481659282e-01	 1.8797653450e+00	-1.1510048731e+00
 3.4914160684e-01	 1.8867171756e+00	-1.0714597271e+00
 7.0858231593e-01	 1.7898424795e+00	-7.1529245949e-01
 6.7297536226e-01	 1.8035324122e+00	-5.9777268118e-01
 6.3725858347e-01	 1.8164598806e+00	-5.0142184090e-01
 6.0145516373e-01	 1.8286269948e+00	-5.6645198464e-01
 5.6558798013e-01	 1.8400367487e+00	-7.0804335346e-01
 5.2967956361e-01	 1.8506929945e+00	-8.4666728290e-01
 4.9375206206e-01	 1.8606004142e+00	-9.7989854078e-01
 4.5782720560e-01	 1.8697644905e+00	-1.1057323694e+00
 4.2192627409e-01	 1.8781914757e+00	-1.1425224132e+00
 3.8607006707e-01	 1.8858883592e+00	-1.0648983092e+00
 3.5027887591e-01	 1.8928628342e+00	-1.0087637440e+00
 7.1088290787e-01	 1.7956536564e+00	-6.8470556937e-01
 6.7516034721e-01	 1.8093880369e+00	-5.7266735970e-01
 6.3932760484e-01	 1.8223574776e+00	-4.8394018973e-01
 6.0340794024e-01	 1.8345640954e+00	-5.4566001986e-01
 5.6742430474e-01	 1.8460108940e+00	-6.9766777547e-01
 5.3139930245e-01	 1.8567017380e+00	-8.4823263120e-01
 4.9535515317e-01	 1.8666413246e+00	-9.9486866561e-01
 4.5931365756e-01	 1.8758351544e+00	-1.1139812356e+00
 4.2329616459e-01	 1.8842894999e+00	-1.0348883797e+00
 3.8732354131e-01	 1.8920113733e+00	-9.7839348425e-01
 3.5141614499e-01	 1.8990084928e+00	-9.4569848357e-01
 7.1318349981e-01	 1.8014648333e+00	-6.5249609148e-01
 6.7734533215e-01	 1.8152436616e+00	-5.4618625577e-01
 6.4139662622e-01	 1.8282550746e+00	-4.6531424669e-01
 6.0536071674e-01	 1.8405011960e+00	-5.2419975367e-01
 5.6926062935e-01	 1.8519850393e+00	-6.8686035380e-01
 5.3311904130e-01	 1.8627104815e+00	-8.4958060161e-01
 4.9695824428e-01	 1.8726822350e+00	-1.0098132836e+00
 4.6080010953e-01	 1.8819058183e+00	-9.8705762247e-01
 4.2466605509e-01	 1.8903875242e+00	-9.2681758458e-01
 3.8857701555e-01	 1.8981343875e+00	-8.9149247238e-01
 3.5255341407e-01	 1.9051541513e+00	-8.8226541855e-01
 3.4118072329e-01	 1.8436975658e+00	-7.8835573534e-01
 3.0640174533e-01	 1.8497953861e+00	-7.2913650494e-01
 2.7172404193e-01	 1.8552064696e+00	-6.8650281139e-01
 2.3716575372e-01	 1.8599401617e+00	-6.5948324289e-01
 2.0274444155e-01	 1.8640063550e+00	-6.4746364489e-01
 1.6847707106e-01	 1.8674154536e+00	-6.5017885169e-01
 1.3437999951e-01	 1.8701783379e+00	-6.6770148121e-01
 1.0046896479e-01	 1.8723063283e+00	-7.0042807953e-01
 6.6759076657e-02	 1.8738111500e+00	-7.4906291195e-01
 3.3264809970e-02	 1.8747048974e+00	-8.1459970274e-01
 0.0000000000e+00	 1.8750000000e+00	-8.9830162765e-01
 3.4231799237e-01	 1.8498432243e+00	-8.6609161890e-01
 3.0742308448e-01	 1.8559613707e+00	-8.1965807313e-01
 2.7262978874e-01	 1.8613904912e+00	-7.8628163859e-01
 2.3795630623e-01	 1.8661399623e+00	-7.6506392527e-01
 2.0342025636e-01	 1.8702197095e+00	-7.5547564481e-01
 1.6903866130e-01	 1.8736401718e+00	-7.5734759262e-01
 1.3482793284e-01	 1.8764122657e+00	-7.5180159022e-01
 1.0080386134e-01	 1.8785473494e+00	-7.5603942114e-01
 6.6981606914e-02	 1.8800571871e+00	-7.8871490573e-01
 3.3375692670e-02	 1.8809539137e+00	-8.4733237098e-01
 0.0000000000e+00	 1.8812500000e+00	-9.2924447460e-01
 3.4345526145e-01	 1.8559888829e+00	-9.4437670700e-01
 3.0844442364e-01	 1.8621273553e+00	-9.1090799864e-01
 2.7353553555e-01	 1.8675745128e+00	-8.8697445641e-01
 2.3874685875e-01	 1.8723397628e+00	-8.7174997539e-01
 2.0409607116e-01	 1.8764330640e+00	-8.4000201374e-01
 1.6960025154e-01	 1.8798648900e+00	-7.9055225231e-01
 1.3527586617e-01	 1.8826461935e+00	-7.7191137410e-01
 1.0113875789e-01	 1.8847883705e+00	-7.8203619979e-01
 6.7204137171e-02	 1.8863032243e+00	-8.1869783089e-01
 3.3486575371e-02	 1.8872029301e+00	-8.7949874770e-01
 0.0000000000e+00	 1.8875000000e+00	-9.6189032177e-01
 3.4459253053e-01	 1.8621345414e+00	-1.0232057174e+00
 3.0946576279e-01	 1.8682933400e+00	-1.0028803903e+00
 2.7444128235e-01	 1.8737585343e+00	-9.8857455987e-01
 2.3953741126e-01	 1.8785395634e+00	-9.1224382922e-01
 2.0477188597e-01	 1.8826464185e+00	-8.4249385453e-01
 1.7016184178e-01	 1.8860896082e+00	-8.0322302047e-01
 1.3572379951e-01	 1.8888801213e+00	-7.9268380835e-01
 1.0147365444e-01	 1.8910293916e+00	-8.0892825918e-01
 6.7426667427e-02	 1.8925492615e+00	-8.4982405690e-01
 3.3597458071e-02	 1.8934519464e+00	-9.1307120421e-01
 0.0000000000e+00	 1.8937500000e+00	-9.9621913517e-01
 3.4572979961e-01	 1.8682802000e+00	-1.1025733783e+00
 3.1048710194e-01	 1.8744593246e+00	-1.0955693842e+00
 2.7534702916e-01	 1.8799425559e+00	-9.8943146868e-01
 2.4032796377e-01	 1.8847393639e+00	-9.0244548280e-01
 2.0544770078e-01	 1.8888597730e+00	-8.4522608037e-01
 1.7072343201e-01	 1.8923143264e+00	-8.1633214600e-01
 1.3617173284e-01	 1.8951140491e+00	-8.1410902952e-01
 1.0180855099e-01	 1.8972704127e+00	-8.3670341695e-01
 6.7649197683e-02	 1.8987952986e+00	-8.8207897317e-01
 3.3708340771e-02	 1.8997009627e+00	-9.4803259854e-01
 0.0000000000e+00	 1.9000000000e+00	-1.0322111444e+00
 3.4686706868e-01	 1.8744258585e+00	-1.1824744283e+00
 3.1150844109e-01	 1.8806253092e+00	-1.0654677786e+00
 2.7625277597e-01	 1.8861265775e+00	-9.6475245383e-01
 2.4111851629e-01	 1.8909391644e+00	-8.9270299452e-01
 2.0612351558e-01	 1.8950731276e+00	-8.4819320120e-01
 1.7128502225e-01	 1.8985390445e+00	-8.2987208127e-01
 1.3661966617e-01	 1.9013479769e+00	-8.3617731265e-01
 1.0214344754e-01	 1.9035114338e+00	-8.6534965704e-01
 6.7871727938e-02	 1.9050413358e+00	-9.1544816488e-01
 3.3819223471e-02	 1.9059499790e+00	-9.8436601549e-01
 0.0000000000e+00	 1.9062500000e+00	-1.0698468385e+00
 3.4800433776e-01	 1.8805715171e+00	-1.1337849695e+00
 3.1252978024e-01	 1.8867912938e+00	-1.0232882280e+00
 2.7715852277e-01	 1.8923105990e+00	-9.3996593314e-01
 2.4190906880e-01	 1.8971389650e+00	-8.8301287068e-01
 2.0679933039e-01	 1.9012864821e+00	-8.5138981361e-01
 1.7184661249e-01	 1.9047637627e+00	-8.4383538919e-01
 1.3706759950e-01	 1.9075819047e+00	-8.5887906897e-01
 1.0247834409e-01	 1.9097524549e+00	-8.9485512696e-01
 6.8094258194e-02	 1.9112873730e+00	-9.4991740974e-01
 3.3930106171e-02	 1.9121989954e+00	-1.0220547629e+00
 0.0000000000e+00	 1.9125000000e+00	-1.1091069612e+00
 3.4914160684e-01	 1.8867171756e+00	-1.0714597271e+00
 3.1355111939e-01	 1.8929572784e+00	-9.8085898323e-01
 2.7806426958e-01	 1.8984946206e+00	-9.1507023658e-01
 2.4269962131e-01	 1.9033387655e+00	-8.7337168111e-01
 2.0747514519e-01	 1.9074998366e+00	-8.5481059938e-01
 1.7240820272e-01	 1.9109884809e+00	-8.5821474141e-01
 1.3751553283e-01	 1.9138158325e+00	-8.8220484369e-01
 1.0281324064e-01	 1.9159934760e+00	-9.2520813512e-01
 6.8316788449e-02	 1.9175334101e+00	-9.8547267489e-01
 3.4040988870e-02	 1.9184480117e+00	-1.0610823682e+00
 0.0000000000e+00	 1.9187500000e+00	-1.1499725076e+00
 3.5027887591e-01	 1.8928628342e+00	-1.0087637440e+00
 3.1457245854e-01	 1.8991232631e+00	-9.3818002625e-01
 2.7897001638e-01	 1.9046786422e+00	-8.9006373707e-01
 2.4349017382e-01	 1.9095385661e+00	-8.6377605811e-01
 2.0815095999e-01	 1.9137131911e+00	-8.5845032414e-01
 1.7296979296e-01	 1.9172131991e+00	-8.7300291653e-01
 1.3796346616e-01	 1.9200497603e+00	-9.0614531385e-01
 1.0314813719e-01	 1.9222344971e+00	-9.5639714822e-01
 6.8539318703e-02	 1.9237794473e+00	-1.0221001138e+00
 3.4151871570e-02	 1.9246970280e+00	-1.1014325744e+00
 0.0000000000e+00	 1.9250000000e+00	-1.1924247192e+00
 3.5141614499e-01	 1.8990084928e+00	-9.4569848357e-01
 3.1559379769e-01	 1.9052892477e+00	-8.9525136392e-01
 2.7987576319e-01	 1.9108626637e+00	-8.6494484984e-01
 2.4428072633e-01	 1.9157383666e+00	-8.5422269544e-01
 2.0882677480e-01	 1.9199265456e+00	-8.6230383599e-01
 1.7353138319e-01	 1.9234379173e+00	-8.8819279841e-01
 1.3841139949e-01	 1.9262836881e+00	-9.3069128616e-01
 1.0348303373e-01	 1.9284755182e+00	-9.8841078870e-01
 6.8761848957e-02	 1.9300254845e+00	-1.0597860633e+00
 3.4262754269e-02	 1.9309460443e+00	-1.1430893372e+00
 0.0000000000e+00	 1.9312500000e+00	-1.2364450805e+00
 3.5255341407e-01	 1.9051541513e+00	-8.8226541855e-01
 3.1661513684e-01	 1.9114552323e+00	-8.5207302768e-01
 2.8078150999e-01	 1.9170466853e+00	-8.3971203168e-01
 2.4507127884e-01	 1.9219381671e+00	-8.4470834734e-01
 2.0950258960e-01	 1.9261399002e+00	-8.6636606417e-01
 1.7409297343e-01	 1.9296626354e+00	-9.0377737442e-01
 1.3885933282e-01	 1.9325176159e+00	-9.5583369492e-01
 1.0381793028e-01	 1.9347165393e+00	-1.0212378322e+00
 6.8984379211e-02	 1.9362715216e+00	-1.0985170405e+00
 3.4373636968e-02	 1.9371950607e+00	-1.1860368211e+00
 0.0000000000e+00	 1.9375000000e+00	-1.2820153150e+00
 1.9375000000e+00	 0.0000000000e+00	 3.8250010115e+00
 1.9371950607e+00	 3.4373636968e-02	 3.6372087843e+00
 1.9362715216e+00	 6.8984379211e-02	 3.4438406165e+00
 1.9347165393e+00	 1.0381793028e-01	 3.2483792367e+00
 1.9325176159e+00	 1.3885933282e-01	 3.0541666434e+00
 1.9296626354e+00	 1.7409297343e-01	 2.8643843771e+00
 1.9261399002e+00	 2.0950258960e-01	 2.6820345110e+00
 1.9219381671e+00	 2.4507127884e-01	 2.5099215579e+00
 1.9170466853e+00	 2.8078150999e-01	 2.3506355006e+00
 1.9114552323e+00	 3.1661513684e-01	 2.2065361423e+00
 1.9051541513e+00	 3.5255341407e-01	 2.0797389779e+00
 1.9437500000e+00	 0.0000000000e+00	 3.8294888692e+00
 1.9434440770e+00	 3.4484519667e-02	 3.6408182062e+00
 1.9425175588e+00	 6.9206909465e-02	 3.4466236090e+00
 1.9409575604e+00	 1.0415282683e-01	 3.2503262187e+00
 1.9387515437e+00	 1.3930726615e-01	 3.0552016190e+00
 1.9358873536e+00	 1.7465456366e-01	 2.8643601439e+00
 1.9323532547e+00	 2.1017840440e-01	 2.6807279373e+00
 1.9281379677e+00	 2.4586183135e-01	 2.5070289664e+00
 1.9232307069e+00	 2.8168725680e-01	 2.3457681952e+00
 1.9176212169e+00	 3.1763647599e-01	 2.1992161196e+00
 1.9112998099e+00	 3.5369068314e-01	 2.0693948628e+00
 1.9500000000e+00	 0.0000000000e+00	 3.8351544381e+00
 1.9496930933e+00	 3.4595402366e-02	 3.6453469738e+00
 1.9487635959e+00	 6.9429439720e-02	 3.4500718887e+00
 1.9471985815e+00	 1.0448772338e-01	 3.2526891021e+00
 1.9449854715e+00	 1.3975519948e-01	 3.0564081345e+00
 1.9421120718e+00	 1.7521615390e-01	 2.8642684494e+00
 1.9385666092e+00	 2.1085421920e-01	 2.6791205802e+00
 1.9343377682e+00	 2.4665238386e-01	 2.5036082482e+00
 1.9294147284e+00	 2.8259300360e-01	 2.3401516791e+00
 1.9237872016e+00	 3.1865781514e-01	 2.1909323195e+00
 1.9174454684e+00	 3.5482795222e-01	 2.0578791566e+00
 1.9562500000e+00	 0.0000000000e+00	 3.8419841390e+00
 1.9559421096e+00	 3.4706285066e-02	 3.6507840746e+00
 1.9550096331e+00	 6.9651969975e-02	 3.4541770369e+00
 1.9534396026e+00	 1.0482261993e-01	 3.2554620851e+00
 1.9512193993e+00	 1.4020313281e-01	 3.0577830244e+00
 1.9483367900e+00	 1.7577774413e-01	 2.8641087792e+00
 1.9447799637e+00	 2.1153003401e-01	 2.6772145869e+00
 1.9405375688e+00	 2.4744293637e-01	 2.4996642188e+00
 1.9355987500e+00	 2.8349875041e-01	 2.3337934366e+00
 1.9299531862e+00	 3.1967915429e-01	 2.1816948913e+00
 1.9235911270e+00	 3.5596522130e-01	 2.0452046646e+00
 1.9625000000e+00	 0.0000000000e+00	 3.8499645661e+00
 1.9621911260e+00	 3.4817167766e-02	 3.6571186407e+00
 1.9612556703e+00	 6.9874500231e-02	 3.4589307508e+00
 1.9596806237e+00	 1.0515751648e-01	 3.2586394533e+00
 1.9574533271e+00	 1.4065106614e-01	 3.0593231816e+00
 1.9545615082e+00	 1.7633933437e-01	 2.8638806491e+00
 1.9509933182e+00	 2.1220584882e-01	 2.6750121072e+00
 1.9467373693e+00	 2.4823348889e-01	 2.4952016674e+00
 1.9417827716e+00	 2.8440449721e-01	 2.3267008984e+00
 1.9361191708e+00	 3.2070049344e-01	 2.1715139036e+00
 1.9297367855e+00	 3.5710249037e-01	 2.0313840843e+00
 1.9687500000e+00	 0.0000000000e+00	 3.8590824835e+00
 1.9684401423e+00	 3.4928050467e-02	 3.6643399464e+00
 1.9675017074e+00	 7.0097030488e-02	 3.4643248413e+00
 1.9659216447e+00	 1.0549241303e-01	 3.2622155777e+00
 1.9636872548e+00	 1.4109899948e-01	 3.0610255570e+00
 1.9607862263e+00	 1.7690092461e-01	 2.8635836050e+00
 1.9572066727e+00	 2.1288166362e-01	 2.6725152926e+00
 1.9529371698e+00	 2.4902404140e-01	 2.4902253583e+00
 1.9479667931e+00	 2.8531024402e-01	 2.3188814426e+00
 1.9422851554e+00	 3.2172183260e-01	 2.1603993452e+00
 1.9358824441e+00	 3.5823975945e-01	 2.0164300069e+00
 1.9750000000e+00	 0.0000000000e+00	 3.8693248232e+00
 1.9746891586e+00	 3.5038933168e-02	 3.6724374056e+00
 1.9737477446e+00	 7.0319560745e-02	 3.4703512317e+00
 1.9721626658e+00	 1.0582730958e-01	 3.2661849141e+00
 1.9699211826e+00	 1.4154693281e-01	 3.0628871584e+00
 1.9670109445e+00	 1.7746251485e-01	 2.8632172221e+00
 1.9634200273e+00	 2.1355747843e-01	 2.6697262971e+00
 1.9591369704e+00	 2.4981459392e-01	 2.4847400305e+00
 1.9541508147e+00	 2.8621599083e-01	 2.3103423957e+00
 1.9484511400e+00	 3.2274317175e-01	 2.1483611268e+00
 1.9420281026e+00	 3.5937702854e-01	 2.0003549195e+00
 1.9812500000e+00	 0.0000000000e+00	 3.8806786817e+00
 1.9809381749e+00	 3.5149815869e-02	 3.6814005700e+00
 1.9799937818e+00	 7.0542091003e-02	 3.4770019555e+00
 1.9784036869e+00	 1.0616220613e-01	 3.2705420014e+00
 1.9761551104e+00	 1.4199486615e-01	 3.0649050495e+00
 1.9732356627e+00	 1.7802410509e-01	 2.8627811045e+00
 1.9696333818e+00	 2.1423329324e-01	 2.6666472766e+00
 1.9653367709e+00	 2.5060514643e-01	 2.4787503984e+00
 1.9603348363e+00	 2.8712173764e-01	 2.3010910328e+00
 1.9546171247e+00	 3.2376451091e-01	 2.1354090820e+00
 1.9481737612e+00	 3.6051429762e-01	 1.9831712062e+00
 1.9875000000e+00	 0.0000000000e+00	 3.8931313181e+00
 1.9871871913e+00	 3.5260698571e-02	 3.6912191266e+00
 1.9862398189e+00	 7.0764621262e-02	 3.4842691548e+00
 1.9846447080e+00	 1.0649710268e-01	 3.2752814601e+00
 1.9823890382e+00	 1.4244279949e-01	 3.0670763491e+00
 1.9794603809e+00	 1.7858569533e-01	 2.8622748849e+00
 1.9758467363e+00	 2.1490910805e-01	 2.6632803889e+00
 1.9715365715e+00	 2.5139569895e-01	 2.4722611526e+00
 1.9665188578e+00	 2.8802748446e-01	 2.2911345794e+00
 1.9607831093e+00	 3.2478585006e-01	 2.1215529685e+00
 1.9543194197e+00	 3.6165156670e-01	 1.9648911499e+00
 1.9937500000e+00	 0.0000000000e+00	 3.9066701512e+00
 1.9934362076e+00	 3.5371581273e-02	 3.7018828958e+00
 1.9924858561e+00	 7.0987151521e-02	 3.4921450787e+00
 1.9908857291e+00	 1.0683199924e-01	 3.2803979916e+00
 1.9886229660e+00	 1.4289073282e-01	 3.0693982302e+00
 1.9856850990e+00	 1.7914728558e-01	 2.8616982240e+00
 1.9820600908e+00	 2.1558492287e-01	 2.6596277941e+00
 1.9777363720e+00	 2.5218625147e-01	 2.4652769595e+00
 1.9727028794e+00	 2.8893323127e-01	 2.2804802111e+00
 1.9669490939e+00	 3.2580718922e-01	 2.1068024693e+00
 1.9604650783e+00	 3.6278883578e-01	 1.9455269342e+00
 2.0000000000e+00	 0.0000000000e+00	 3.9212827569e+00
 1.9996852239e+00	 3.5482463975e-02	 3.7133818295e+00
 1.9987318933e+00	 7.1209681781e-02	 3.5006220817e+00
 1.9971267502e+00	 1.0716689579e-01	 3.2858863763e+00
 1.9948568938e+00	 1.4333866616e-01	 3.0718679193e+00
 1.9919098172e+00	 1.7970887582e-01	 2.8610508101e+00
 1.9882734453e+00	 2.1626073768e-01	 2.6556916541e+00
 1.9839361725e+00	 2.5297680400e-01	 2.4578024622e+00
 1.9788869010e+00	 2.8983897809e-01	 2.2691350553e+00
 1.9731150785e+00	 3.2682852838e-01	 2.0911671943e+00
 1.9666107368e+00	 3.6392610487e-01	 1.9250906442e+00
 1.9051541513e+00	 3.5255341407e-01	 2.0797389779e+00
 1.8981343875e+00	 3.8857701555e-01	 1.9605815744e+00
 1.8903875242e+00	 4.2466605509e-01	 1.8649532975e+00
 1.8819058183e+00	 4.6080010953e-01	 1.7936980091e+00
 1.8726822350e+00	 4.9695824428e-01	 1.6993921668e+00
 1.8627104815e+00	 5.3311904130e-01	 1.4778577573e+00
 1.8519850393e+00	 5.6926062935e-01	 1.2822068763e+00
 1.8405011960e+00	 6.0536071674e-01	 1.1218337966e+00
 1.8282550746e+00	 6.4139662622e-01	 9.4405770419e-01
 1.8152436616e+00	 6.7734533215e-01	 7.5867287129e-01
 1.8014648333e+00	 7.1318349981e-01	 6.4730048636e-01
 1.9112998099e+00	 3.5369068314e-01	 2.0693948628e+00
 1.9042574017e+00	 3.8983048979e-01	 1.9451290641e+00
 1.8964855485e+00	 4.2603594559e-01	 1.8433369434e+00
 1.8879764823e+00	 4.6228656150e-01	 1.7649526578e+00
 1.8787231455e+00	 4.9856133540e-01	 1.7106076486e+00
 1.8687192250e+00	 5.3483878014e-01	 1.5544496767e+00
 1.8579591846e+00	 5.7109695396e-01	 1.3457678207e+00
 1.8464382967e+00	 6.0731349325e-01	 1.1709017402e+00
 1.8341526716e+00	 6.4346564760e-01	 9.7192862822e-01
 1.8210992863e+00	 6.7953031710e-01	 7.7540537289e-01
 1.8072760102e+00	 7.1548409174e-01	 6.5292663750e-01
 1.9174454684e+00	 3.5482795222e-01	 2.0578791566e+00
 1.9103804158e+00	 3.9108396404e-01	 1.9288805641e+00
 1.9025835728e+00	 4.2740583609e-01	 1.8213128469e+00
 1.8940471462e+00	 4.6377301346e-01	 1.7361997258e+00
 1.8847640559e+00	 5.0016442651e-01	 1.6742665337e+00
 1.8747279685e+00	 5.3655851898e-01	 1.6305033222e+00
 1.8639333299e+00	 5.7293327857e-01	 1.4089975396e+00
 1.8523753973e+00	 6.0926626975e-01	 1.2198417433e+00
 1.8400502687e+00	 6.4553466897e-01	 1.0005392588e+00
 1.8269549110e+00	 6.8171530204e-01	 7.9339291090e-01
 1.8130871871e+00	 7.1778468368e-01	 6.6032551216e-01
 1.9235911270e+00	 3.5596522130e-01	 2.0452046646e+00
 1.9165034300e+00	 3.9233743828e-01	 1.9118459961e+00
 1.9086815970e+00	 4.2877572659e-01	 1.7988879731e+00
 1.9001178101e+00	 4.6525946543e-01	 1.7074431520e+00
 1.8908049664e+00	 5.0176751762e-01	 1.6383299690e+00
 1.8807367120e+00	 5.3827825783e-01	 1.5920695768e+00
 1.8699074752e+00	 5.7476960318e-01	 1.4718692906e+00
 1.8583124979e+00	 6.1121904626e-01	 1.2686217604e+00
 1.8459478657e+00	 6.4760369035e-01	 1.0298908500e+00
 1.8328105358e+00	 6.8390028698e-01	 8.1263393288e-01
 1.8188983639e+00	 7.2008527561e-01	 6.6949267449e-01
 1.9297367855e+00	 3.5710249037e-01	 2.0313840843e+00
 1.9226264441e+00	 3.9359091252e-01	 1.8940352176e+00
 1.9147796213e+00	 4.3014561709e-01	 1.7760692682e+00
 1.9061884741e+00	 4.6674591740e-01	 1.6786869026e+00
 1.8968458768e+00	 5.0337060873e-01	 1.6027988742e+00
 1.8867454554e+00	 5.3999799667e-01	 1.5490227626e+00
 1.8758816205e+00	 5.7660592779e-01	 1.5176822751e+00
 1.8642495986e+00	 6.1317182277e-01	 1.3172099673e+00
 1.8518454627e+00	 6.4967271172e-01	 1.0599849270e+00
 1.8386661605e+00	 6.8608527192e-01	 8.3312720914e-01
 1.8247095408e+00	 7.2238586755e-01	 6.8042406318e-01
 1.9358824441e+00	 3.5823975945e-01	 2.0164300069e+00
 1.9287494583e+00	 3.9484438677e-01	 1.8754580234e+00
 1.9208776456e+00	 4.3151550759e-01	 1.7528636598e+00
 1.9122591380e+00	 4.6823236936e-01	 1.6499349699e+00
 1.9028867872e+00	 5.0497369984e-01	 1.5676742425e+00
 1.8927541989e+00	 5.4171773551e-01	 1.5067946424e+00
 1.8818557658e+00	 5.7844225241e-01	 1.4677194033e+00
 1.8701866992e+00	 6.1512459927e-01	 1.3655747571e+00
 1.8577430597e+00	 6.5174173310e-01	 1.0908232827e+00
 1.8445217852e+00	 6.8827025686e-01	 8.5487182760e-01
 1.8305207177e+00	 7.2468645948e-01	 6.9311598551e-01
 1.9420281026e+00	 3.5937702854e-01	 2.0003549195e+00
 1.9348724724e+00	 3.9609786102e-01	 1.8561241462e+00
 1.9269756698e+00	 4.3288539810e-01	 1.7292780569e+00
 1.9183298019e+00	 4.6971882133e-01	 1.6211913730e+00
 1.9089276977e+00	 5.0657679095e-01	 1.5329571384e+00
 1.8987629424e+00	 5.4343747435e-01	 1.4653832662e+00
 1.8878299111e+00	 5.8027857702e-01	 1.4189916222e+00
 1.8761237998e+00	 6.1707737578e-01	 1.3940197322e+00
 1.8636406567e+00	 6.5381075447e-01	 1.1224079725e+00
 1.8503774099e+00	 6.9045524180e-01	 8.7786718875e-01
 1.8363318946e+00	 7.2698705141e-01	 7.0756511153e-01
 1.9481737612e+00	 3.6051429762e-01	 1.9831712062e+00
 1.9409954866e+00	 3.9735133526e-01	 1.8360432575e+00
 1.9330736941e+00	 4.3425528860e-01	 1.7053193505e+00
 1.9244004659e+00	 4.7120527330e-01	 1.5924601563e+00
 1.9149686081e+00	 5.0817988206e-01	 1.4986486975e+00
 1.9047716859e+00	 5.4515721320e-01	 1.4247868003e+00
 1.8938040564e+00	 5.8211490163e-01	 1.3714940725e+00
 1.8820609005e+00	 6.1903015228e-01	 1.3391094917e+00
 1.8695382537e+00	 6.5587977584e-01	 1.1547413110e+00
 1.8562330346e+00	 6.9264022674e-01	 9.0211300077e-01
 1.8421430715e+00	 7.2928764334e-01	 7.2376846831e-01
 1.9543194197e+00	 3.6165156670e-01	 1.9648911499e+00
 1.9471185007e+00	 3.9860480951e-01	 1.8152249691e+00
 1.9391717184e+00	 4.3562517910e-01	 1.6809944137e+00
 1.9304711298e+00	 4.7269172527e-01	 1.5637453899e+00
 1.9210095185e+00	 5.0978297317e-01	 1.4647501248e+00
 1.9107804294e+00	 5.4687695204e-01	 1.3850035260e+00
 1.8997782016e+00	 5.8395122624e-01	 1.3252220557e+00
 1.8879980011e+00	 6.2098292878e-01	 1.2858452026e+00
 1.8754358507e+00	 6.5794879721e-01	 1.1809057935e+00
 1.8620886593e+00	 6.9482521168e-01	 9.2760927463e-01
 1.8479542483e+00	 7.3158823527e-01	 7.4172343436e-01
 1.9604650783e+00	 3.6278883578e-01	 1.9455269342e+00
 1.9532415149e+00	 3.9985828376e-01	 1.7936788335e+00
 1.9452697427e+00	 4.3699506961e-01	 1.6563101021e+00
 1.9365417937e+00	 4.7417817724e-01	 1.5350511688e+00
 1.9270504290e+00	 5.1138606429e-01	 1.4312626936e+00
 1.9167891729e+00	 5.4859669088e-01	 1.3460318370e+00
 1.9057523469e+00	 5.8578755085e-01	 1.2801710312e+00
 1.8939351017e+00	 6.2293570529e-01	 1.2342193381e+00
 1.8813334478e+00	 6.6001781858e-01	 1.1220986383e+00
 1.8679442840e+00	 6.9701019662e-01	 9.5435631938e-01
 1.8537654252e+00	 7.3388882720e-01	 7.6142773411e-01
 1.9666107368e+00	 3.6392610487e-01	 1.9250906442e+00
 1.9593645290e+00	 4.0111175801e-01	 1.7714143450e+00
 1.9513677669e+00	 4.3836496011e-01	 1.6312732539e+00
 1.9426124577e+00	 4.7566462921e-01	 1.5063816124e+00
 1.9330913394e+00	 5.1298915540e-01	 1.3981877450e+00
 1.9227979164e+00	 5.5031642973e-01	 1.3078702386e+00
 1.9117264922e+00	 5.8762387546e-01	 1.2363366140e+00
 1.8998722024e+00	 6.2488848179e-01	 1.1842245723e+00
 1.8872310448e+00	 6.6208683996e-01	 1.0658761640e+00
 1.8737999088e+00	 6.9919518155e-01	 9.8235473750e-01
 1.8595766021e+00	 7.3618941913e-01	 7.8287943248e-01
 1.8014648333e+00	 7.1318349981e-01	 6.4730048636e-01
 1.7869173798e+00	 7.4888752669e-01	 6.1431276601e-01
 1.7716010272e+00	 7.8443358576e-01	 5.6126316446e-01
 1.7555164566e+00	 8.1979767045e-01	 4.8679101881e-01
 1.7386653219e+00	 8.5495564129e-01	 3.8971853603e-01
 1.7210502632e+00	 8.8988327406e-01	 2.6909032225e-01
 1.7026749194e+00	 9.2455630917e-01	 1.2421194744e-01
 1.6835439359e+00	 9.5895050221e-01	-4.5312971062e-02
 1.6636629710e+00	 9.9304167537e-01	-2.3954768458e-01
 1.6430386975e+00	 1.0268057696e+00	-4.5818974106e-01
 1.6216788030e+00	 1.0602188972e+00	-7.0054142319e-01
 1.8072760102e+00	 7.1548409174e-01	 6.5292663750e-01
 1.7926816294e+00	 7.5130329291e-01	 6.0869980491e-01
 1.7773158692e+00	 7.8696401668e-01	 5.4684516508e-01
 1.7611794129e+00	 8.2244217906e-01	 4.6582761255e-01
 1.7442739197e+00	 8.5771356271e-01	 3.6428624673e-01
 1.7266020383e+00	 8.9275386527e-01	 2.4107478766e-01
 1.7081674191e+00	 9.2753874888e-01	 9.5301081750e-02
 1.6889747228e+00	 9.6204389093e-01	-7.3634826210e-02
 1.6690296257e+00	 9.9624503562e-01	-2.6600458080e-01
 1.6483388223e+00	 1.0301180463e+00	-4.8171788388e-01
 1.6269100249e+00	 1.0636389581e+00	-7.2029184950e-01
 1.8130871871e+00	 7.1778468368e-01	 6.6032551216e-01
 1.7984458791e+00	 7.5371905912e-01	 6.0454194914e-01
 1.7830307112e+00	 7.8949444761e-01	 5.3354626656e-01
 1.7668423693e+00	 8.2508668768e-01	 4.4562882736e-01
 1.7498825175e+00	 8.6047148414e-01	 3.3924559974e-01
 1.7321538133e+00	 8.9562445648e-01	 2.1305946342e-01
 1.7136599189e+00	 9.3052118859e-01	 6.5980659982e-02
 1.6944055097e+00	 9.6513727965e-01	-1.0279414331e-01
 1.6743962804e+00	 9.9944839586e-01	-2.9374471014e-01
 1.6536389472e+00	 1.0334303229e+00	-5.0699254049e-01
 1.6321412469e+00	 1.0670590191e+00	-7.4226914042e-01
 1.8188983639e+00	 7.2008527561e-01	 6.6949267449e-01
 1.8042101287e+00	 7.5613482534e-01	 6.0183982001e-01
 1.7887455533e+00	 7.9202487853e-01	 5.2137224709e-01
 1.7725053256e+00	 8.2773119629e-01	 4.2620568819e-01
 1.7554911153e+00	 8.6322940556e-01	 3.1461294648e-01
 1.7377055883e+00	 8.9849504768e-01	 1.8506609662e-01
 1.7191524186e+00	 9.3350362830e-01	 3.6277883425e-02
 1.6998362966e+00	 9.6823066837e-01	-1.3275821935e-01
 1.6797629352e+00	 1.0026517561e+00	-3.2272983140e-01
 1.6589390720e+00	 1.0367425996e+00	-5.3396990634e-01
 1.6373724688e+00	 1.0704790801e+00	-7.6642391422e-01
 1.8247095408e+00	 7.2238586755e-01	 6.8042406318e-01
 1.8099743783e+00	 7.5855059155e-01	 6.0059436353e-01
 1.7944603953e+00	 7.9455530945e-01	 5.1032915803e-01
 1.7781682819e+00	 8.3037570490e-01	 4.0756943987e-01
 1.7610997131e+00	 8.6598732698e-01	 2.9040480337e-01
 1.7432573634e+00	 9.0136563889e-01	 1.5711654298e-01
 1.7246449183e+00	 9.3648606800e-01	 6.2200041101e-03
 1.7052670835e+00	 9.7132405708e-01	-1.6349435975e-01
 1.6851295899e+00	 1.0058551164e+00	-3.5292177231e-01
 1.6642391968e+00	 1.0400548763e+00	-5.6260630741e-01
 1.6426036908e+00	 1.0738991410e+00	-7.9270698230e-01
 1.8305207177e+00	 7.2468645948e-01	 6.9311598551e-01
 1.8157386279e+00	 7.6096635776e-01	 6.0080684535e-01
 1.8001752373e+00	 7.9708574037e-01	 5.0042331955e-01
 1.7838312382e+00	 8.3302021351e-01	 3.8973154369e-01
 1.7667083109e+00	 8.6874524840e-01	 2.6663784924e-01
 1.7488091384e+00	 9.0423623009e-01	 1.2923276509e-01
 1.7301374181e+00	 9.3946850771e-01	-2.4165675991e-02
 1.7106978704e+00	 9.7441744580e-01	-1.9496987829e-01
 1.6904962447e+00	 1.0090584766e+00	-3.8428242841e-01
 1.6695393216e+00	 1.0433671530e+00	-5.9285819811e-01
 1.6478349127e+00	 1.0773192020e+00	-8.2106934614e-01
 1.8363318946e+00	 7.2698705141e-01	 7.0756511153e-01
 1.8215028775e+00	 7.6338212398e-01	 6.0247884560e-01
 1.8058900793e+00	 7.9961617128e-01	 4.9166131641e-01
 1.7894941945e+00	 8.3566472212e-01	 3.7270367387e-01
 1.7723169087e+00	 8.7150316982e-01	 2.4332892275e-01
 1.7543609135e+00	 9.0710682129e-01	 1.0143683070e-01
 1.7356299178e+00	 9.4245094741e-01	-5.4851805762e-02
 1.7161286573e+00	 9.7751083451e-01	-2.2715209694e-01
 1.6958628994e+00	 1.0122618368e+00	-4.1677376203e-01
 1.6748394465e+00	 1.0466794296e+00	-6.2468215928e-01
 1.6530661346e+00	 1.0807392629e+00	-8.5146219433e-01
 1.8421430715e+00	 7.2928764334e-01	 7.2376846831e-01
 1.8272671271e+00	 7.6579789018e-01	 6.0561225400e-01
 1.8116049213e+00	 8.0214660220e-01	 4.8404999377e-01
 1.7951571508e+00	 8.3830923073e-01	 3.5649771430e-01
 1.7779255065e+00	 8.7426109124e-01	 2.2049501987e-01
 1.7599126885e+00	 9.0997741249e-01	 7.3750911121e-02
 1.7411224176e+00	 9.4543338711e-01	-8.5810985715e-02
 1.7215594442e+00	 9.8060422322e-01	-2.6000834572e-01
 1.7012295542e+00	 1.0154651971e+00	-4.5035780115e-01
 1.6801395713e+00	 1.0499917063e+00	-6.5803489619e-01
 1.6582973566e+00	 1.0841593239e+00	-8.8383689959e-01
 1.8479542483e+00	 7.3158823527e-01	 7.4172343436e-01
 1.8330313767e+00	 7.6821365639e-01	 6.1020926495e-01
 1.8173197634e+00	 8.0467703311e-01	 4.7759645313e-01
 1.8008201071e+00	 8.4095373934e-01	 3.4112575518e-01
 1.7835341043e+00	 8.7701901265e-01	 1.9815329141e-01
 1.7654644635e+00	 9.1284800369e-01	 4.6197279550e-02
 1.7466149173e+00	 9.4841582681e-01	-1.1701576875e-01
 1.7269902311e+00	 9.8369761194e-01	-2.9350596263e-01
 1.7065962089e+00	 1.0186685573e+00	-4.8499663847e-01
 1.6854396961e+00	 1.0533039830e+00	-6.9287323656e-01
 1.6635285785e+00	 1.0875793848e+00	-9.1814501585e-01
 1.8537654252e+00	 7.3388882720e-01	 7.6142773411e-01
 1.8387956263e+00	 7.7062942260e-01	 6.1627237280e-01
 1.8230346054e+00	 8.0720746403e-01	 4.7230804824e-01
 1.8064830634e+00	 8.4359824794e-01	 3.2660008982e-01
 1.7891427021e+00	 8.7977693407e-01	 1.7632104057e-01
 1.7710162386e+00	 9.1571859489e-01	 1.8798309489e-02
 1.7521074170e+00	 9.5139826651e-01	-1.4843866090e-01
 1.7324210179e+00	 9.8679100065e-01	-3.2761229345e-01
 1.7119628636e+00	 1.0218719175e+00	-5.2065243029e-01
 1.6907398210e+00	 1.0566162597e+00	-7.2915412867e-01
 1.6687598005e+00	 1.0909994458e+00	-9.5433827546e-01
 1.8595766021e+00	 7.3618941913e-01	 7.8287943248e-01
 1.8445598760e+00	 7.7304518881e-01	 6.2380436712e-01
 1.8287494474e+00	 8.0973789494e-01	 4.6819238124e-01
 1.8121460197e+00	 8.4624275655e-01	 3.1293321145e-01
 1.7947513000e+00	 8.8253485548e-01	 1.5501572059e-01
 1.7765680136e+00	 9.1858918609e-01	-8.4235268270e-03
 1.7575999168e+00	 9.5438070621e-01	-1.8005212208e-01
 1.7378518048e+00	 9.8988438935e-01	-3.6229469169e-01
 1.7173295184e+00	 1.0250752778e+00	-5.5728739562e-01
 1.6960399458e+00	 1.0599285363e+00	-7.6683463945e-01
 1.6739910224e+00	 1.0944195068e+00	-9.9236858638e-01
 1.6216788030e+00	 1.0602188972e+00	-7.0054142319e-01
 1.5995919851e+00	 1.0932573947e+00	-1.0069257684e+00
 1.5767879448e+00	 1.1258978759e+00	-1.2507573699e+00
 1.5532773756e+00	 1.1581172844e+00	-1.4276431859e+00
 1.5290719496e+00	 1.1898929459e+00	-1.5330126811e+00
 1.5041843009e+00	 1.2212026199e+00	-1.5621219212e+00
 1.4786280046e+00	 1.2520245501e+00	-1.5235052625e+00
 1.4524175536e+00	 1.2823375140e+00	-1.6167978465e+00
 1.4255683321e+00	 1.3121208711e+00	-1.6763008398e+00
 1.3980965856e+00	 1.3413546091e+00	-1.7031531867e+00
 1.3700193885e+00	 1.3700193885e+00	-1.6987656197e+00
 1.6269100249e+00	 1.0636389581e+00	-7.2029184950e-01
 1.6047519593e+00	 1.0967840315e+00	-1.0171911535e+00
 1.5818743576e+00	 1.1295298045e+00	-1.2527459501e+00
 1.5582879478e+00	 1.1618531466e+00	-1.4225705091e+00
 1.5340044398e+00	 1.1937313102e+00	-1.5220925698e+00
 1.5090365083e+00	 1.2251419832e+00	-1.5465572226e+00
 1.4833977723e+00	 1.2560633389e+00	-1.5296715205e+00
 1.4571027715e+00	 1.2864740866e+00	-1.6165243093e+00
 1.4301669396e+00	 1.3163535191e+00	-1.6705476455e+00
 1.4026065746e+00	 1.3456815594e+00	-1.6928959904e+00
 1.3744388059e+00	 1.3744388059e+00	-1.6849955815e+00
 1.6321412469e+00	 1.0670590191e+00	-7.4226914042e-01
 1.6099119334e+00	 1.1003106682e+00	-1.0296537265e+00
 1.5869607703e+00	 1.1331617332e+00	-1.2569060186e+00
 1.5632985200e+00	 1.1655890088e+00	-1.4196478648e+00
 1.5389369300e+00	 1.1975696746e+00	-1.5133054957e+00
 1.5138887158e+00	 1.2290813465e+00	-1.5331131913e+00
 1.4881675401e+00	 1.2601021278e+00	-1.5358307310e+00
 1.4617879895e+00	 1.2906106592e+00	-1.6162105000e+00
 1.4347655472e+00	 1.3205861670e+00	-1.6647108463e+00
 1.4071165636e+00	 1.3500085098e+00	-1.6825020778e+00
 1.3788582233e+00	 1.3788582233e+00	-1.6710263158e+00
 1.6373724688e+00	 1.0704790801e+00	-7.6642391422e-01
 1.6150719076e+00	 1.1038373050e+00	-1.0442635730e+00
 1.5920471830e+00	 1.1367936618e+00	-1.2631872517e+00
 1.5683090921e+00	 1.1693248710e+00	-1.4188246459e+00
 1.5438694201e+00	 1.2014080389e+00	-1.5066006956e+00
 1.5187409232e+00	 1.2330207097e+00	-1.5217390359e+00
 1.4929373079e+00	 1.2641409167e+00	-1.5419876732e+00
 1.4664732074e+00	 1.2947472319e+00	-1.6158614382e+00
 1.4393641547e+00	 1.3248188150e+00	-1.6587957090e+00
 1.4116265526e+00	 1.3543354601e+00	-1.6719769702e+00
 1.3832776407e+00	 1.3832776407e+00	-1.6568636065e+00
 1.6426036908e+00	 1.0738991410e+00	-7.9270698230e-01
 1.6202318817e+00	 1.1073639417e+00	-1.0609709712e+00
 1.5971335957e+00	 1.1404255904e+00	-1.2715395171e+00
 1.5733196643e+00	 1.1730607332e+00	-1.4200504341e+00
 1.5488019103e+00	 1.2052464033e+00	-1.5019275923e+00
 1.5235931306e+00	 1.2369600730e+00	-1.5123841481e+00
 1.4977070756e+00	 1.2681797056e+00	-1.5481473056e+00
 1.4711584253e+00	 1.2988838045e+00	-1.6154823177e+00
 1.4439627622e+00	 1.3290514630e+00	-1.6528076694e+00
 1.4161365415e+00	 1.3586624105e+00	-1.6613263521e+00
 1.3876970581e+00	 1.3876970581e+00	-1.6425133938e+00
 1.6478349127e+00	 1.0773192020e+00	-8.2106934614e-01
 1.6253918559e+00	 1.1108905785e+00	-1.0797263883e+00
 1.6022200085e+00	 1.1440575191e+00	-1.2819128701e+00
 1.5783302365e+00	 1.1767965954e+00	-1.4232749975e+00
 1.5537344005e+00	 1.2090847676e+00	-1.4992357920e+00
 1.5284453380e+00	 1.2408994363e+00	-1.5049980998e+00
 1.5024768434e+00	 1.2722184944e+00	-1.5543147627e+00
 1.4758436432e+00	 1.3030203771e+00	-1.6150785041e+00
 1.4485613697e+00	 1.3332841110e+00	-1.6467523300e+00
 1.4206465305e+00	 1.3629893608e+00	-1.6505560689e+00
 1.3921164755e+00	 1.3921164755e+00	-1.6279817723e+00
 1.6530661346e+00	 1.0807392629e+00	-8.5146219433e-01
 1.6305518300e+00	 1.1144172152e+00	-1.1004804781e+00
 1.6073064212e+00	 1.1476894477e+00	-1.2942575514e+00
 1.5833408087e+00	 1.1805324576e+00	-1.4284482870e+00
 1.5586668906e+00	 1.2129231320e+00	-1.4984750816e+00
 1.5332975455e+00	 1.2448387996e+00	-1.4995306398e+00
 1.5072466111e+00	 1.2762572833e+00	-1.5604953523e+00
 1.4805288611e+00	 1.3071569498e+00	-1.6146555319e+00
 1.4531599773e+00	 1.3375167589e+00	-1.6406354568e+00
 1.4251565195e+00	 1.3673163112e+00	-1.6396721237e+00
 1.3965358928e+00	 1.3965358928e+00	-1.6132749887e+00
 1.6582973566e+00	 1.0841593239e+00	-8.8383689959e-01
 1.6357118041e+00	 1.1179438520e+00	-1.1231840779e+00
 1.6123928339e+00	 1.1513213763e+00	-1.3085239835e+00
 1.5883513809e+00	 1.1842683199e+00	-1.4355204338e+00
 1.5635993808e+00	 1.2167614963e+00	-1.4995954253e+00
 1.5381497529e+00	 1.2487781629e+00	-1.4959316917e+00
 1.5120163789e+00	 1.2802960722e+00	-1.5666945531e+00
 1.4852140791e+00	 1.3112935224e+00	-1.6142191019e+00
 1.4577585848e+00	 1.3417494069e+00	-1.6344629772e+00
 1.4296665085e+00	 1.3716432615e+00	-1.6286806755e+00
 1.4009553102e+00	 1.4009553102e+00	-1.5983994387e+00
 1.6635285785e+00	 1.0875793848e+00	-9.1814501585e-01
 1.6408717783e+00	 1.1214704888e+00	-1.1477882053e+00
 1.6174792466e+00	 1.1549533050e+00	-1.3246627684e+00
 1.5933619530e+00	 1.1880041821e+00	-1.4444417463e+00
 1.5685318709e+00	 1.2205998607e+00	-1.5025469622e+00
 1.5430019603e+00	 1.2527175262e+00	-1.5046867628e+00
 1.5167861467e+00	 1.2843348611e+00	-1.5729180114e+00
 1.4898992970e+00	 1.3154300950e+00	-1.6137750782e+00
 1.4623571923e+00	 1.3459820549e+00	-1.6282409772e+00
 1.4341764975e+00	 1.3759702119e+00	-1.6175880365e+00
 1.4053747276e+00	 1.4053747276e+00	-1.5833616655e+00
 1.6687598005e+00	 1.0909994458e+00	-9.5433827546e-01
 1.6460317524e+00	 1.1249971255e+00	-1.1742440558e+00
 1.6225656594e+00	 1.1585852336e+00	-1.3426246844e+00
 1.5983725252e+00	 1.1917400443e+00	-1.4551627075e+00
 1.5734643611e+00	 1.2244382250e+00	-1.5072800036e+00
 1.5478541677e+00	 1.2566568895e+00	-1.5185012415e+00
 1.5215559144e+00	 1.2883736499e+00	-1.5791715391e+00
 1.4945845149e+00	 1.3195666677e+00	-1.6133294862e+00
 1.4669557999e+00	 1.3502147029e+00	-1.6219756991e+00
 1.4386864865e+00	 1.3802971623e+00	-1.6064006695e+00
 1.4097941450e+00	 1.4097941450e+00	-1.5681683567e+00
 1.6739910224e+00	 1.0944195068e+00	-9.9236858638e-01
 1.6511917266e+00	 1.1285237623e+00	-1.2025029999e+00
 1.6276520721e+00	 1.1622171622e+00	-1.3623606834e+00
 1.6033830974e+00	 1.1954759065e+00	-1.4676339724e+00
 1.5783968513e+00	 1.2282765894e+00	-1.5137450302e+00
 1.5527063752e+00	 1.2605962528e+00	-1.5323728422e+00
 1.5263256822e+00	 1.2924124388e+00	-1.5854611106e+00
 1.4992697328e+00	 1.3237032403e+00	-1.6128885098e+00
 1.4715544074e+00	 1.3544473509e+00	-1.6156735388e+00
 1.4431964755e+00	 1.3846241126e+00	-1.5951251858e+00
 1.4142135624e+00	 1.4142135624e+00	-1.5528263428e+00
 1.3700193885e+00	 1.3700193885e+00	-1.6987656197e+00
 1.3413546091e+00	 1.3980965856e+00	-1.7488930840e+00
 1.3121208711e+00	 1.4255683321e+00	-1.8229288676e+00
 1.2823375140e+00	 1.4524175536e+00	-1.9210337806e+00
 1.2520245501e+00	 1.4786280046e+00	-2.0433667497e+00
 1.2212026199e+00	 1.5041843009e+00	-1.8160474494e+00
 1.1898929459e+00	 1.5290719496e+00	-1.6182956407e+00
 1.1581172844e+00	 1.5532773756e+00	-1.4730310596e+00
 1.1258978759e+00	 1.5767879448e+00	-1.3751727945e+00
 1.0932573947e+00	 1.5995919851e+00	-1.3193702885e+00
 1.0602188972e+00	 1.6216788030e+00	-1.3000418892e+00
 1.3744388059e+00	 1.3744388059e+00	-1.6849955815e+00
 1.3456815594e+00	 1.4026065746e+00	-1.7282320160e+00
 1.3163535191e+00	 1.4301669396e+00	-1.7959891786e+00
 1.2864740866e+00	 1.4571027715e+00	-1.8883000799e+00
 1.2560633389e+00	 1.4833977723e+00	-2.0051968613e+00
 1.2251419832e+00	 1.5090365083e+00	-1.8243887010e+00
 1.1937313102e+00	 1.5340044398e+00	-1.6186475086e+00
 1.1618531466e+00	 1.5582879478e+00	-1.4658232768e+00
 1.1295298045e+00	 1.5818743576e+00	-1.3606325163e+00
 1.0967840315e+00	 1.6047519593e+00	-1.2975216748e+00
 1.0636389581e+00	 1.6269100249e+00	-1.2707066873e+00
 1.3788582233e+00	 1.3788582233e+00	-1.6710263158e+00
 1.3500085098e+00	 1.4071165636e+00	-1.7069497951e+00
 1.3205861670e+00	 1.4347655472e+00	-1.7680002871e+00
 1.2906106592e+00	 1.4617879895e+00	-1.8540841851e+00
 1.2601021278e+00	 1.4881675401e+00	-1.9651080565e+00
 1.2290813465e+00	 1.5138887158e+00	-1.8302482672e+00
 1.1975696746e+00	 1.5389369300e+00	-1.6161407170e+00
 1.1655890088e+00	 1.5632985200e+00	-1.4553872889e+00
 1.1331617332e+00	 1.5869607703e+00	-1.3425023604e+00
 1.1003106682e+00	 1.6099119334e+00	-1.2717297944e+00
 1.0670590191e+00	 1.6321412469e+00	-1.2370834900e+00
 1.3832776407e+00	 1.3832776407e+00	-1.6568636065e+00
 1.3543354601e+00	 1.4116265526e+00	-1.6850558342e+00
 1.3248188150e+00	 1.4393641547e+00	-1.7389752218e+00
 1.2947472319e+00	 1.4664732074e+00	-1.8184027207e+00
 1.2641409167e+00	 1.4929373079e+00	-1.9231205298e+00
 1.2330207097e+00	 1.5187409232e+00	-1.8336210819e+00
 1.2014080389e+00	 1.5438694201e+00	-1.6107744179e+00
 1.1693248710e+00	 1.5683090921e+00	-1.4417264743e+00
 1.1367936618e+00	 1.5920471830e+00	-1.3207899302e+00
 1.1038373050e+00	 1.6150719076e+00	-1.2420064658e+00
 1.0704790801e+00	 1.6373724688e+00	-1.1991883121e+00
 1.3876970581e+00	 1.3876970581e+00	-1.6425133938e+00
 1.3586624105e+00	 1.4161365415e+00	-1.6625596534e+00
 1.3290514630e+00	 1.4439627622e+00	-1.7089270679e+00
 1.2988838045e+00	 1.4711584253e+00	-1.7812723170e+00
 1.2681797056e+00	 1.4977070756e+00	-1.8792544314e+00
 1.2369600730e+00	 1.5235931306e+00	-1.8345019844e+00
 1.2052464033e+00	 1.5488019103e+00	-1.6025476189e+00
 1.1730607332e+00	 1.5733196643e+00	-1.4248440161e+00
 1.1404255904e+00	 1.5971335957e+00	-1.2955025840e+00
 1.1073639417e+00	 1.6202318817e+00	-1.2083632127e+00
 1.0738991410e+00	 1.6426036908e+00	-1.1570368246e+00
 1.3921164755e+00	 1.3921164755e+00	-1.6279817723e+00
 1.3629893608e+00	 1.4206465305e+00	-1.6394708779e+00
 1.3332841110e+00	 1.4485613697e+00	-1.6778689664e+00
 1.3030203771e+00	 1.4758436432e+00	-1.7427096110e+00
 1.2722184944e+00	 1.5024768434e+00	-1.8335298682e+00
 1.2408994363e+00	 1.5284453380e+00	-1.8328857210e+00
 1.2090847676e+00	 1.5537344005e+00	-1.5914591846e+00
 1.1767965954e+00	 1.5783302365e+00	-1.4047429057e+00
 1.1440575191e+00	 1.6022200085e+00	-1.2666474390e+00
 1.1108905785e+00	 1.6253918559e+00	-1.1708112691e+00
 1.0773192020e+00	 1.6478349127e+00	-1.1106443605e+00
 1.3965358928e+00	 1.3965358928e+00	-1.6132749887e+00
 1.3673163112e+00	 1.4251565195e+00	-1.6157992362e+00
 1.3375167589e+00	 1.4531599773e+00	-1.6458141134e+00
 1.3071569498e+00	 1.4805288611e+00	-1.7027312456e+00
 1.2762572833e+00	 1.5072466111e+00	-1.7859669042e+00
 1.2448387996e+00	 1.5332975455e+00	-1.8287669461e+00
 1.2129231320e+00	 1.5586668906e+00	-1.5775078392e+00
 1.1805324576e+00	 1.5833408087e+00	-1.3814259451e+00
 1.1476894477e+00	 1.6073064212e+00	-1.2342313750e+00
 1.1144172152e+00	 1.6305518300e+00	-1.1293615836e+00
 1.0807392629e+00	 1.6530661346e+00	-1.0600259198e+00
 1.4009553102e+00	 1.4009553102e+00	-1.5983994387e+00
 1.3716432615e+00	 1.4296665085e+00	-1.5915545589e+00
 1.3417494069e+00	 1.4577585848e+00	-1.6127757590e+00
 1.3112935224e+00	 1.4852140791e+00	-1.6613538699e+00
 1.2802960722e+00	 1.5120163789e+00	-1.7365855614e+00
 1.2487781629e+00	 1.5381497529e+00	-1.8221402243e+00
 1.2167614963e+00	 1.5635993808e+00	-1.5606921688e+00
 1.1842683199e+00	 1.5883513809e+00	-1.3548957506e+00
 1.1513213763e+00	 1.6123928339e+00	-1.1982610382e+00
 1.1179438520e+00	 1.6357118041e+00	-1.0840248240e+00
 1.0841593239e+00	 1.6582973566e+00	-1.0051961749e+00
 1.4053747276e+00	 1.4053747276e+00	-1.5833616655e+00
 1.3759702119e+00	 1.4341764975e+00	-1.5667467770e+00
 1.3459820549e+00	 1.4623571923e+00	-1.5787672065e+00
 1.3154300950e+00	 1.4898992970e+00	-1.6185941387e+00
 1.2843348611e+00	 1.5167861467e+00	-1.6854058206e+00
 1.2527175262e+00	 1.5430019603e+00	-1.7783719457e+00
 1.2205998607e+00	 1.5685318709e+00	-1.5410106234e+00
 1.1880041821e+00	 1.5933619530e+00	-1.3251547552e+00
 1.1549533050e+00	 1.6174792466e+00	-1.1587428449e+00
 1.1214704888e+00	 1.6408717783e+00	-1.0348113816e+00
 1.0875793848e+00	 1.6635285785e+00	-9.4616947583e-01
 1.4097941450e+00	 1.4097941450e+00	-1.5681683567e+00
 1.3802971623e+00	 1.4386864865e+00	-1.5413859200e+00
 1.3502147029e+00	 1.4669557999e+00	-1.5438018116e+00
 1.3195666677e+00	 1.4945845149e+00	-1.5744687130e+00
 1.2883736499e+00	 1.5215559144e+00	-1.6324476216e+00
 1.2566568895e+00	 1.5478541677e+00	-1.7167925611e+00
 1.2244382250e+00	 1.5734643611e+00	-1.5184615191e+00
 1.1917400443e+00	 1.5983725252e+00	-1.2922052117e+00
 1.1585852336e+00	 1.6225656594e+00	-1.1156829849e+00
 1.1249971255e+00	 1.6460317524e+00	-9.8173137573e-01
 1.0909994458e+00	 1.6687598005e+00	-8.8295985525e-01
 1.4142135624e+00	 1.4142135624e+00	-1.5528263428e+00
 1.3846241126e+00	 1.4431964755e+00	-1.5154821146e+00
 1.3544473509e+00	 1.4715544074e+00	-1.5078929815e+00
 1.3237032403e+00	 1.4992697328e+00	-1.5289942593e+00
 1.2924124388e+00	 1.5263256822e+00	-1.5777308641e+00
 1.2605962528e+00	 1.5527063752e+00	-1.6530423431e+00
 1.2282765894e+00	 1.5783968513e+00	-1.4930430403e+00
 1.1954759065e+00	 1.6033830974e+00	-1.2560491953e+00
 1.1622171622e+00	 1.6276520721e+00	-1.0690874255e+00
 1.1285237623e+00	 1.6511917266e+00	-9.2479465778e-01
 1.0944195068e+00	 1.6739910224e+00	-8.1558103335e-01
 1.0602188972e+00	 1.6216788030e+00	-1.3000418892e+00
 1.0268057696e+00	 1.6430386975e+00	-1.2053574116e+00
 9.9304167537e-01	 1.6636629710e+00	-1.1274822932e+00
 9.5895050221e-01	 1.6835439359e+00	-1.0626743210e+00
 9.2455630917e-01	 1.7026749194e+00	-1.0071150171e+00
 8.8988327406e-01	 1.7210502632e+00	-9.5694162367e-01
 8.5495564129e-01	 1.7386653219e+00	-9.0827877273e-01
 8.1979767045e-01	 1.7555164566e+00	-8.5726954324e-01
 7.8443358576e-01	 1.7716010272e+00	-8.0010562178e-01
 7.4888752669e-01	 1.7869173798e+00	-7.3305630364e-01
 7.1318349981e-01	 1.8014648333e+00	-6.5249609148e-01
 1.0636389581e+00	 1.6269100249e+00	-1.2707066873e+00
 1.0301180463e+00	 1.6483388223e+00	-1.1747891361e+00
 9.9624503562e-01	 1.6690296257e+00	-1.0966137054e+00
 9.6204389093e-01	 1.6889747228e+00	-1.0325947876e+00
 9.2753874888e-01	 1.7081674191e+00	-9.7906318703e-01
 8.9275386527e-01	 1.7266020383e+00	-9.3229774977e-01
 8.5771356271e-01	 1.7442739197e+00	-8.8855672546e-01
 8.2244217906e-01	 1.7611794129e+00	-8.4410856502e-01
 7.8696401668e-01	 1.7773158692e+00	-7.9526186969e-01
 7.5130329291e-01	 1.7926816294e+00	-7.3839422713e-01
 7.1548409174e-01	 1.8072760102e+00	-6.6997969099e-01
 1.0670590191e+00	 1.6321412469e+00	-1.2370834900e+00
 1.0334303229e+00	 1.6536389472e+00	-1.1405342605e+00
 9.9944839586e-01	 1.6743962804e+00	-1.0626580777e+00
 9.6513727965e-01	 1.6944055097e+00	-1.0000245576e+00
 9.3052118859e-01	 1.7136599189e+00	-9.4911242463e-01
 8.9562445648e-01	 1.7321538133e+00	-9.0634079071e-01
 8.6047148414e-01	 1.7498825175e+00	-8.6810021535e-01
 8.2508668768e-01	 1.7668423693e+00	-8.3078324889e-01
 7.8949444761e-01	 1.7830307112e+00	-7.9081417458e-01
 7.5371905912e-01	 1.7984458791e+00	-7.4467768437e-01
 7.1778468368e-01	 1.8130871871e+00	-6.8894624347e-01
 1.0704790801e+00	 1.6373724688e+00	-1.1991883121e+00
 1.0367425996e+00	 1.6589390720e+00	-1.1026039864e+00
 1.0026517561e+00	 1.6797629352e+00	-1.0256218695e+00
 9.6823066837e-01	 1.6998362966e+00	-9.6496542690e-01
 9.3350362830e-01	 1.7191524186e+00	-9.1725994778e-01
 8.9849504768e-01	 1.7377055883e+00	-8.7906347896e-01
 8.6322940556e-01	 1.7554911153e+00	-8.4689758865e-01
 8.2773119629e-01	 1.7725053256e+00	-8.1727766021e-01
 7.9202487853e-01	 1.7887455533e+00	-7.8674243222e-01
 7.5613482534e-01	 1.8042101287e+00	-7.5188251825e-01
 7.2008527561e-01	 1.8188983639e+00	-7.0936766078e-01
 1.0738991410e+00	 1.6426036908e+00	-1.1570368246e+00
 1.0400548763e+00	 1.6642391968e+00	-1.0610092378e+00
 1.0058551164e+00	 1.6851295899e+00	-9.8551132781e-01
 9.7132405708e-01	 1.7052670835e+00	-9.2741904328e-01
 9.3648606800e-01	 1.7246449183e+00	-8.8350288966e-01
 9.0136563889e-01	 1.7432573634e+00	-8.5045852468e-01
 8.6598732698e-01	 1.7610997131e+00	-8.2493723048e-01
 8.3037570490e-01	 1.7781682819e+00	-8.0357596323e-01
 7.9455530945e-01	 1.7944603953e+00	-7.8302669581e-01
 7.5855059155e-01	 1.8099743783e+00	-7.5998478628e-01
 7.2238586755e-01	 1.8247095408e+00	-7.3121612504e-01
 1.0773192020e+00	 1.6478349127e+00	-1.1106443605e+00
 1.0433671530e+00	 1.6695393216e+00	-1.0157606652e+00
 1.0090584766e+00	 1.6904962447e+00	-9.4233249057e-01
 9.7441744580e-01	 1.7106978704e+00	-8.8738690865e-01
 9.3946850771e-01	 1.7301374181e+00	-8.4783830008e-01
 9.0423623009e-01	 1.7488091384e+00	-8.2051861606e-01
 8.6874524840e-01	 1.7667083109e+00	-8.0220756428e-01
 8.3302021351e-01	 1.7838312382e+00	-7.8966241948e-01
 7.9708574037e-01	 1.8001752373e+00	-7.7964717359e-01
 7.6096635776e-01	 1.8157386279e+00	-7.6896075719e-01
 7.2468645948e-01	 1.8305207177e+00	-7.5446408432e-01
 1.0807392629e+00	 1.6530661346e+00	-1.0600259198e+00
 1.0466794296e+00	 1.6748394465e+00	-9.6686865032e-01
 1.0122618368e+00	 1.6958628994e+00	-8.9609118980e-01
 9.7751083451e-01	 1.7161286573e+00	-8.4487038148e-01
 9.4245094741e-01	 1.7356299178e+00	-8.1026314683e-01
 9.0710682129e-01	 1.7543609135e+00	-7.8923641969e-01
 8.7150316982e-01	 1.7723169087e+00	-7.7869705117e-01
 8.3566472212e-01	 1.7894941945e+00	-7.7552138630e-01
 7.9961617128e-01	 1.8058900793e+00	-7.7658422629e-01
 7.6338212398e-01	 1.8215028775e+00	-7.7878690761e-01
 7.2698705141e-01	 1.8363318946e+00	-7.7908424846e-01
 1.0841593239e+00	 1.6582973566e+00	-1.0051961749e+00
 1.0499917063e+00	 1.6801395713e+00	-9.1434330998e-01
 1.0154651971e+00	 1.7012295542e+00	-8.4679305494e-01
 9.8060422322e-01	 1.7215594442e+00	-7.9987067901e-01
 9.4543338711e-01	 1.7411224176e+00	-7.7077431698e-01
 9.0997741249e-01	 1.7599126885e+00	-7.5660458089e-01
 8.7426109124e-01	 1.7779255065e+00	-7.5439418938e-01
 8.3830923073e-01	 1.7951571508e+00	-7.6113731525e-01
 8.0214660220e-01	 1.8116049213e+00	-7.7381836478e-01
 7.6579789018e-01	 1.8272671271e+00	-7.8943991878e-01
 7.2928764334e-01	 1.8421430715e+00	-8.0504958491e-01
 1.0875793848e+00	 1.6635285785e+00	-9.4616947583e-01
 1.0533039830e+00	 1.6854396961e+00	-8.5819450049e-01
 1.0186685573e+00	 1.7065962089e+00	-7.9444351607e-01
 9.8369761194e-01	 1.7269902311e+00	-7.5238887952e-01
 9.4841582681e-01	 1.7466149173e+00	-7.2936861811e-01
 9.1284800369e-01	 1.7654644635e+00	-7.2261572407e-01
 8.7701901265e-01	 1.7835341043e+00	-7.2928751364e-01
 8.4095373934e-01	 1.8008201071e+00	-7.4649475068e-01
 8.0467703311e-01	 1.8173197634e+00	-7.7133024768e-01
 7.6821365639e-01	 1.8330313767e+00	-8.0089667332e-01
 7.3158823527e-01	 1.8479542483e+00	-8.3233331469e-01
 1.0909994458e+00	 1.6687598005e+00	-8.8295985525e-01
 1.0566162597e+00	 1.6907398210e+00	-7.9843182166e-01
 1.0218719175e+00	 1.7119628636e+00	-7.3904780697e-01
 9.8679100065e-01	 1.7324210179e+00	-7.0242592448e-01
 9.5139826651e-01	 1.7521074170e+00	-6.8604277960e-01
 9.1571859489e-01	 1.7710162386e+00	-6.8726245301e-01
 8.7977693407e-01	 1.7891427021e+00	-7.0336559464e-01
 8.4359824794e-01	 1.8064830634e+00	-7.3157832827e-01
 8.0720746403e-01	 1.8230346054e+00	-7.6910067907e-01
 7.7062942260e-01	 1.8387956263e+00	-8.1313425208e-01
 7.3388882720e-01	 1.8537654252e+00	-8.6090890845e-01
 1.0944195068e+00	 1.6739910224e+00	-8.1558103335e-01
 1.0599285363e+00	 1.6960399458e+00	-7.3506462078e-01
 1.0250752778e+00	 1.7173295184e+00	-6.8061096824e-01
 9.8988438935e-01	 1.7378518048e+00	-6.4998262067e-01
 9.5438070621e-01	 1.7575999168e+00	-6.4079345381e-01
 9.1858918609e-01	 1.7765680136e+00	-6.5053735122e-01
 8.8253485548e-01	 1.7947513000e+00	-6.7661703843e-01
 8.4624275655e-01	 1.8121460197e+00	-7.1637277358e-01
 8.0973789494e-01	 1.8287494474e+00	-7.6711060620e-01
 7.7304518881e-01	 1.8445598760e+00	-8.2612993104e-01
 7.3618941913e-01	 1.8595766021e+00	-8.9075008250e-01
 7.1318349981e-01	 1.8014648333e+00	-6.5249609148e-01
 6.7734533215e-01	 1.8152436616e+00	-5.4618625577e-01
 6.4139662622e-01	 1.8282550746e+00	-4.6531424669e-01
 6.0536071674e-01	 1.8405011960e+00	-5.2419975367e-01
 5.6926062935e-01	 1.8519850393e+00	-6.8686035380e-01
 5.3311904130e-01	 1.8627104815e+00	-8.4958060161e-01
 4.9695824428e-01	 1.8726822350e+00	-1.0098132836e+00
 4.6080010953e-01	 1.8819058183e+00	-9.8705762247e-01
 4.2466605509e-01	 1.8903875242e+00	-9.2681758458e-01
 3.8857701555e-01	 1.8981343875e+00	-8.9149247238e-01
 3.5255341407e-01	 1.9051541513e+00	-8.8226541855e-01
 7.1548409174e-01	 1.8072760102e+00	-6.6997969099e-01
 6.7953031710e-01	 1.8210992863e+00	-5.8472923741e-01
 6.4346564760e-01	 1.8341526716e+00	-5.2512456915e-01
 6.0731349325e-01	 1.8464382967e+00	-5.9266967005e-01
 5.7109695396e-01	 1.8579591846e+00	-7.7484452586e-01
 5.3483878014e-01	 1.8687192250e+00	-9.5593687429e-01
 4.9856133540e-01	 1.8787231455e+00	-1.0351257530e+00
 4.6228656150e-01	 1.8879764823e+00	-9.6819619837e-01
 4.2603594559e-01	 1.8964855485e+00	-9.2380547888e-01
 3.8983048979e-01	 1.9042574017e+00	-9.0327240904e-01
 3.5369068314e-01	 1.9112998099e+00	-9.0761763539e-01
 7.1778468368e-01	 1.8130871871e+00	-6.8894624347e-01
 6.8171530204e-01	 1.8269549110e+00	-6.2423389271e-01
 6.4553466897e-01	 1.8400502687e+00	-5.8537699699e-01
 6.0926626975e-01	 1.8523753973e+00	-6.6131555952e-01
 5.7293327857e-01	 1.8639333299e+00	-8.6252834374e-01
 5.3655851898e-01	 1.8747279685e+00	-1.0615145665e+00
 5.0016442651e-01	 1.8847640559e+00	-9.9776062118e-01
 4.6377301346e-01	 1.8940471462e+00	-9.4698183118e-01
 4.2740583609e-01	 1.9025835728e+00	-9.1786398630e-01
 3.9108396404e-01	 1.9103804158e+00	-9.1155738064e-01
 3.5482795222e-01	 1.9174454684e+00	-9.2892109723e-01
 7.2008527561e-01	 1.8188983639e+00	-7.0936766078e-01
 6.8390028698e-01	 1.8328105358e+00	-6.6467835040e-01
 6.4760369035e-01	 1.8459478657e+00	-6.4605585449e-01
 6.1121904626e-01	 1.8583124979e+00	-7.3012331224e-01
 5.7476960318e-01	 1.8699074752e+00	-9.4990430456e-01
 5.3827825783e-01	 1.8807367120e+00	-1.0133791598e+00
 5.0176751762e-01	 1.8908049664e+00	-9.5864532947e-01
 4.6525946543e-01	 1.9001178101e+00	-9.2343616777e-01
 4.2877572659e-01	 1.9086815970e+00	-9.0901988137e-01
 3.9233743828e-01	 1.9165034300e+00	-9.1637921814e-01
 3.5596522130e-01	 1.9235911270e+00	-9.4621261355e-01
 7.2238586755e-01	 1.8247095408e+00	-7.3121612504e-01
 6.8608527192e-01	 1.8386661605e+00	-7.0604093580e-01
 6.4967271172e-01	 1.8518454627e+00	-7.0714558910e-01
 6.1317182277e-01	 1.8642495986e+00	-7.9907886852e-01
 5.7660592779e-01	 1.8758816205e+00	-1.0133720135e+00
 5.3999799667e-01	 1.8867454554e+00	-9.5685113256e-01
 5.0337060873e-01	 1.8968458768e+00	-9.1779616734e-01
 4.6674591740e-01	 1.9061884741e+00	-8.9758061906e-01
 4.3014561709e-01	 1.9147796213e+00	-8.9729963324e-01
 3.9359091252e-01	 1.9226264441e+00	-9.1776937880e-01
 3.5710249037e-01	 1.9297367855e+00	-9.5952855291e-01
 7.2468645948e-01	 1.8305207177e+00	-7.5446408432e-01
 6.8827025686e-01	 1.8445217852e+00	-7.4830016769e-01
 6.5174173310e-01	 1.8577430597e+00	-7.6863076950e-01
 6.1512459927e-01	 1.8701866992e+00	-8.6816821798e-01
 5.7844225241e-01	 1.8818557658e+00	-9.4010816174e-01
 5.4171773551e-01	 1.8927541989e+00	-8.9918500251e-01
 5.0497369984e-01	 1.9028867872e+00	-8.7522926133e-01
 4.6823236936e-01	 1.9122591380e+00	-8.6943636385e-01
 4.3151550759e-01	 1.9208776456e+00	-8.8272941063e-01
 3.9484438677e-01	 1.9287494583e+00	-9.1575895210e-01
 3.5823975945e-01	 1.9358824441e+00	-9.6890484994e-01
 7.2698705141e-01	 1.8363318946e+00	-7.7908424846e-01
 6.9045524180e-01	 1.8503774099e+00	-7.9143475528e-01
 6.5381075447e-01	 1.8636406567e+00	-8.3049608365e-01
 6.1707737578e-01	 1.8761237998e+00	-9.0740058129e-01
 5.8027857702e-01	 1.8878299111e+00	-8.6629929885e-01
 5.4343747435e-01	 1.8987629424e+00	-8.4039169738e-01
 5.0657679095e-01	 1.9089276977e+00	-8.3096057764e-01
 4.6971882133e-01	 1.9183298019e+00	-8.3902435238e-01
 4.3288539810e-01	 1.9269756698e+00	-8.6533508650e-01
 3.9609786102e-01	 1.9348724724e+00	-9.1037866559e-01
 3.5937702854e-01	 1.9420281026e+00	-9.7437701221e-01
 7.2928764334e-01	 1.8421430715e+00	-8.0504958491e-01
 6.9264022674e-01	 1.8562330346e+00	-8.3542359518e-01
 6.5587977584e-01	 1.8695382537e+00	-8.9272633695e-01
 6.1903015228e-01	 1.8820609005e+00	-8.1831214842e-01
 5.8211490163e-01	 1.8938040564e+00	-7.9195124571e-01
 5.4515721320e-01	 1.9047716859e+00	-7.8048205497e-01
 5.0817988206e-01	 1.9149686081e+00	-7.8500592465e-01
 4.7120527330e-01	 1.9244004659e+00	-8.0636531006e-01
 4.3425528860e-01	 1.9330736941e+00	-8.4514224274e-01
 3.9735133526e-01	 1.9409954866e+00	-9.0165889056e-01
 3.6051429762e-01	 1.9481737612e+00	-9.7598012698e-01
 7.3158823527e-01	 1.8479542483e+00	-8.3233331469e-01
 6.9482521168e-01	 1.8620886593e+00	-8.8024576844e-01
 6.5794879721e-01	 1.8754358507e+00	-9.4379764774e-01
 6.2098292878e-01	 1.8879980011e+00	-7.2926889337e-01
 5.8395122624e-01	 1.8997782016e+00	-7.1706980217e-01
 5.4687695204e-01	 1.9107804294e+00	-7.1946682456e-01
 5.0978297317e-01	 1.9210095185e+00	-7.3738095541e-01
 4.7269172527e-01	 1.9304711298e+00	-7.7147974089e-01
 4.3562517910e-01	 1.9391717184e+00	-8.2217617476e-01
 3.9860480951e-01	 1.9471185007e+00	-8.8962964769e-01
 3.6165156670e-01	 1.9543194197e+00	-9.7374886779e-01
 7.3388882720e-01	 1.8537654252e+00	-8.6090890845e-01
 6.9701019662e-01	 1.8679442840e+00	-9.2588053769e-01
 6.6001781858e-01	 1.8813334478e+00	-8.5102126351e-01
 6.2293570529e-01	 1.8939351017e+00	-6.4027167448e-01
 5.8578755085e-01	 1.9057523469e+00	-6.4166074736e-01
 5.4859669088e-01	 1.9167891729e+00	-6.5735666832e-01
 5.1138606429e-01	 1.9270504290e+00	-6.8810117005e-01
 4.7417817724e-01	 1.9365417937e+00	-7.3438793102e-01
 4.3699506961e-01	 1.9452697427e+00	-7.9646189598e-01
 3.9985828376e-01	 1.9532415149e+00	-8.7432061248e-01
 3.6278883578e-01	 1.9604650783e+00	-9.6771750095e-01
 7.3618941913e-01	 1.8595766021e+00	-8.9075008250e-01
 6.9919518155e-01	 1.8737999088e+00	-9.7230734431e-01
 6.6208683996e-01	 1.8872310448e+00	-7.5864182889e-01
 6.2488848179e-01	 1.8998722024e+00	-5.5132139567e-01
 5.8762387546e-01	 1.9117264922e+00	-5.6572984004e-01
 5.5031642973e-01	 1.9227979164e+00	-5.9416216260e-01
 5.1298915540e-01	 1.9330913394e+00	-6.3718191820e-01
 4.7566462921e-01	 1.9426124577e+00	-6.9510995210e-01
 4.3836496011e-01	 1.9513677669e+00	-7.6802414221e-01
 4.0111175801e-01	 1.9593645290e+00	-8.5576112072e-01
 3.6392610487e-01	 1.9666107368e+00	-9.5791989191e-01
 3.5255341407e-01	 1.9051541513e+00	-8.8226541855e-01
 3.1661513684e-01	 1.9114552323e+00	-8.5207302768e-01
 2.8078150999e-01	 1.9170466853e+00	-8.3971203168e-01
 2.4507127884e-01	 1.9219381671e+00	-8.4470834734e-01
 2.0950258960e-01	 1.9261399002e+00	-8.6636606417e-01
 1.7409297343e-01	 1.9296626354e+00	-9.0377737442e-01
 1.3885933282e-01	 1.9325176159e+00	-9.5583369492e-01
 1.0381793028e-01	 1.9347165393e+00	-1.0212378322e+00
 6.8984379211e-02	 1.9362715216e+00	-1.0985170405e+00
 3.4373636968e-02	 1.9371950607e+00	-1.1860368211e+00
 0.0000000000e+00	 1.9375000000e+00	-1.2820153150e+00
 3.5369068314e-01	 1.9112998099e+00	-9.0761763539e-01
 3.1763647599e-01	 1.9176212169e+00	-8.8642292035e-01
 2.8168725680e-01	 1.9232307069e+00	-8.8021485194e-01
 2.4586183135e-01	 1.9281379677e+00	-8.8890029611e-01
 2.1017840440e-01	 1.9323532547e+00	-9.1215697505e-01
 1.7465456366e-01	 1.9358873536e+00	-9.4944226561e-01
 1.3930726615e-01	 1.9387515437e+00	-1.0000032879e+00
 1.0415282683e-01	 1.9409575604e+00	-1.0628881366e+00
 6.9206909465e-02	 1.9425175588e+00	-1.1369581038e+00
 3.4484519667e-02	 1.9434440770e+00	-1.2209007421e+00
 0.0000000000e+00	 1.9437500000e+00	-1.3132436172e+00
 3.5482795222e-01	 1.9174454684e+00	-9.2892109723e-01
 3.1865781514e-01	 1.9237872016e+00	-9.1771024432e-01
 2.8259300360e-01	 1.9294147284e+00	-9.1865522798e-01
 2.4665238386e-01	 1.9343377682e+00	-9.3204212297e-01
 2.1085421920e-01	 1.9385666092e+00	-9.5792055617e-01
 1.7521615390e-01	 1.9421120718e+00	-9.9611137819e-01
 1.3975519948e-01	 1.9449854715e+00	-1.0462157233e+00
 1.0448772338e-01	 1.9471985815e+00	-1.1076253110e+00
 6.9429439720e-02	 1.9487635959e+00	-1.1795338381e+00
 3.4595402366e-02	 1.9496930933e+00	-1.2609493095e+00
 0.0000000000e+00	 1.9500000000e+00	-1.3507071535e+00
 3.5596522130e-01	 1.9235911270e+00	-9.4621261355e-01
 3.1967915429e-01	 1.9299531862e+00	-9.4596206438e-01
 2.8349875041e-01	 1.9355987500e+00	-9.5505038488e-01
 2.4744293637e-01	 1.9405375688e+00	-9.7414113631e-01
 2.1153003401e-01	 1.9447799637e+00	-1.0036541400e+00
 1.7577774413e-01	 1.9483367900e+00	-1.0437720267e+00
 1.4020313281e-01	 1.9512193993e+00	-1.0944482724e+00
 1.0482261993e-01	 1.9534396026e+00	-1.1554165748e+00
 6.9651969975e-02	 1.9550096331e+00	-1.2262014181e+00
 3.4706285066e-02	 1.9559421096e+00	-1.3061296751e+00
 0.0000000000e+00	 1.9562500000e+00	-1.3943430901e+00
 3.5710249037e-01	 1.9297367855e+00	-9.5952855291e-01
 3.2070049344e-01	 1.9361191708e+00	-9.7120512490e-01
 2.8440449721e-01	 1.9417827716e+00	-9.8941734916e-01
 2.4823348889e-01	 1.9467373693e+00	-1.0152045690e+00
 2.1220584882e-01	 1.9509933182e+00	-1.0493551074e+00
 1.7633933437e-01	 1.9545615082e+00	-1.0924116987e+00
 1.4065106614e-01	 1.9574533271e+00	-1.1446785051e+00
 1.0515751648e-01	 1.9596806237e+00	-1.2062295713e+00
 6.9874500231e-02	 1.9612556703e+00	-1.2769185677e+00
 3.4817167766e-02	 1.9621911260e+00	-1.3563896660e+00
 0.0000000000e+00	 1.9625000000e+00	-1.4440893934e+00
 3.5823975945e-01	 1.9358824441e+00	-9.6890484994e-01
 3.2172183260e-01	 1.9422851554e+00	-9.9346585488e-01
 2.8531024402e-01	 1.9479667931e+00	-1.0217729519e+00
 2.4902404140e-01	 1.9529371698e+00	-1.0552395797e+00
 2.1288166362e-01	 1.9572066727e+00	-1.0950208871e+00
 1.7690092461e-01	 1.9607862263e+00	-1.1420180525e+00
 1.4109899948e-01	 1.9636872548e+00	-1.1968842846e+00
 1.0549241303e-01	 1.9659216447e+00	-1.2600323611e+00
 7.0097030488e-02	 1.9675017074e+00	-1.3316435518e+00
 3.4928050467e-02	 1.9684401423e+00	-1.4116777734e+00
 0.0000000000e+00	 1.9687500000e+00	-1.4998848178e+00
 3.5937702854e-01	 1.9420281026e+00	-9.7437701221e-01
 3.2274317175e-01	 1.9484511400e+00	-1.0127703730e+00
 2.8621599083e-01	 1.9541508147e+00	-1.0521338321e+00
 2.4981459392e-01	 1.9591369704e+00	-1.0942532538e+00
 2.1355747843e-01	 1.9634200273e+00	-1.1406489546e+00
 1.7746251485e-01	 1.9670109445e+00	-1.1925789137e+00
 1.4154693281e-01	 1.9699211826e+00	-1.2510437636e+00
 1.0582730958e-01	 1.9721626658e+00	-1.3167934155e+00
 7.0319560745e-02	 1.9737477446e+00	-1.3903351677e+00
 3.5038933168e-02	 1.9746891586e+00	-1.4719431428e+00
 0.0000000000e+00	 1.9750000000e+00	-1.5616688929e+00
 3.6051429762e-01	 1.9481737612e+00	-9.7598012698e-01
 3.2376451091e-01	 1.9546171247e+00	-1.0291444925e+00
 2.8712173764e-01	 1.9603348363e+00	-1.0805164391e+00
 2.5060514643e-01	 1.9653367709e+00	-1.1322526047e+00
 2.1423329324e-01	 1.9696333818e+00	-1.1862368316e+00
 1.7802410509e-01	 1.9732356627e+00	-1.2440822732e+00
 1.4199486615e-01	 1.9761551104e+00	-1.3071353789e+00
 1.0616220613e-01	 1.9784036869e+00	-1.3764816095e+00
 7.0542091003e-02	 1.9799937818e+00	-1.4529527364e+00
 3.5149815869e-02	 1.9809381749e+00	-1.5371355628e+00
 0.0000000000e+00	 1.9812500000e+00	-1.6293819113e+00
 3.6165156670e-01	 1.9543194197e+00	-9.7374886779e-01
 3.2478585006e-01	 1.9607831093e+00	-1.0426137259e+00
 2.8802748446e-01	 1.9665188578e+00	-1.1069370362e+00
 2.5139569895e-01	 1.9715365715e+00	-1.1692445751e+00
 2.1490910805e-01	 1.9758467363e+00	-1.2317820853e+00
 1.7858569533e-01	 1.9794603809e+00	-1.2965162846e+00
 1.4244279949e-01	 1.9823890382e+00	-1.3651378472e+00
 1.0649710268e-01	 1.9846447080e+00	-1.4390662163e+00
 7.0764621262e-02	 1.9862398189e+00	-1.5194560946e+00
 3.5260698571e-02	 1.9871871913e+00	-1.6072054559e+00
 0.0000000000e+00	 1.9875000000e+00	-1.7029649166e+00
 3.6278883578e-01	 1.9604650783e+00	-9.6771750095e-01
 3.2580718922e-01	 1.9669490939e+00	-1.0532032898e+00
 2.8893323127e-01	 1.9727028794e+00	-1.1314117034e+00
 2.5218625147e-01	 1.9777363720e+00	-1.2052360377e+00
 2.1558492287e-01	 1.9820600908e+00	-1.2772823278e+00
 1.7914728558e-01	 1.9856850990e+00	-1.3498692609e+00
 1.4289073282e-01	 1.9886229660e+00	-1.4250301611e+00
 1.0683199924e-01	 1.9908857291e+00	-1.5045169004e+00
 7.0987151521e-02	 1.9924858561e+00	-1.5898055867e+00
 3.5371581273e-02	 1.9934362076e+00	-1.6821038680e+00
 0.0000000000e+00	 1.9937500000e+00	-1.7823596916e+00
 3.6392610487e-01	 1.9666107368e+00	-9.5791989191e-01
 3.2682852838e-01	 1.9731150785e+00	-1.0609381096e+00
 2.8983897809e-01	 1.9788869010e+00	-1.1539563399e+00
 2.5297680400e-01	 1.9839361725e+00	-1.2402337969e+00
 2.1626073768e-01	 1.9882734453e+00	-1.3227352151e+00
 1.7970887582e-01	 1.9919098172e+00	-1.4041296731e+00
 1.4333866616e-01	 1.9948568938e+00	-1.4867915843e+00
 1.0716689579e-01	 1.9971267502e+00	-1.5728037118e+00
 7.1209681781e-02	 1.9987318933e+00	-1.6639620565e+00
 3.5482463975e-02	 1.9996852239e+00	-1.7617824586e+00
 0.0000000000e+00	 2.0000000000e+00	-1.8675087471e+00
