patch_n	x	y	stress_yy
0	 0.000000000000000e+00	 0.000000000000000e+00	 3.455548246153845e+00
0	 0.000000000000000e+00	 6.250000000000000e-02	 2.842225683969230e+00
0	 0.000000000000000e+00	 1.250000000000000e-01	 2.166866700184615e+00
0	 0.000000000000000e+00	 1.875000000000000e-01	 1.429471294800000e+00
0	 0.000000000000000e+00	 2.500000000000000e-01	 6.300394678153843e-01
0	 0.000000000000000e+00	 3.125000000000000e-01	-2.314287807692309e-01
0	 0.000000000000000e+00	 3.750000000000000e-01	-1.154933450953846e+00
0	 0.000000000000000e+00	 4.375000000000000e-01	-2.140474542738461e+00
0	 0.000000000000000e+00	 5.000000000000000e-01	-3.188052056123076e+00
0	 0.000000000000000e+00	 5.624999999999999e-01	-4.297665991107691e+00
0	 0.000000000000000e+00	 6.250000000000000e-01	-5.469316347692307e+00
0	 6.250000000000000e-02	 0.000000000000000e+00	 3.899920647415383e+00
0	 6.250000000000000e-02	 6.250000000000000e-02	 3.165636388881846e+00
0	 6.249999999999997e-02	 1.250000000000000e-01	 2.373065364555076e+00
0	 6.250000000000000e-02	 1.875000000000000e-01	 1.522207574435075e+00
0	 6.249999999999999e-02	 2.499999999999999e-01	 6.130630185218455e-01
0	 6.250000000000000e-02	 3.125000000000001e-01	-3.543683031846155e-01
0	 6.249999999999999e-02	 3.750000000000000e-01	-1.380086390684307e+00
0	 6.250000000000000e-02	 4.375000000000000e-01	-2.464091243977230e+00
0	 6.250000000000000e-02	 5.000000000000000e-01	-3.606382863063384e+00
0	 6.250000000000000e-02	 5.624999999999999e-01	-4.806961247942767e+00
0	 6.250000000000000e-02	 6.250000000000000e-01	-6.065826398615386e+00
0	 1.250000000000000e-01	 0.000000000000000e+00	 4.250994576061538e+00
0	 1.250000000000000e-01	 6.249999999999999e-02	 3.429172515825230e+00
0	 1.250000000000000e-01	 1.250000000000000e-01	 2.552813345602461e+00
0	 1.250000000000000e-01	 1.875000000000000e-01	 1.621917065393230e+00
0	 1.250000000000000e-01	 2.500000000000001e-01	 6.364836751975378e-01
0	 1.250000000000000e-01	 3.125000000000001e-01	-4.034868249846156e-01
0	 1.250000000000000e-01	 3.750000000000000e-01	-1.497994435153231e+00
0	 1.250000000000000e-01	 4.375000000000000e-01	-2.647039155308307e+00
0	 1.250000000000000e-01	 4.999999999999999e-01	-3.850620985449845e+00
0	 1.250000000000000e-01	 5.624999999999999e-01	-5.108739925577845e+00
0	 1.250000000000000e-01	 6.250000000000001e-01	-6.421395975692306e+00
0	 1.875000000000000e-01	 0.000000000000000e+00	 4.508770032092306e+00
0	 1.875000000000000e-01	 6.250000000000000e-02	 3.632834064799385e+00
0	 1.875000000000001e-01	 1.250000000000000e-01	 2.706110643326769e+00
0	 1.875000000000000e-01	 1.875000000000000e-01	 1.728599767674460e+00
0	 1.875000000000000e-01	 2.500000000000000e-01	 7.003014378424616e-01
0	 1.875000000000000e-01	 3.125000000000000e-01	-3.787843461692307e-01
0	 1.875000000000000e-01	 3.749999999999999e-01	-1.508657584360615e+00
0	 1.875000000000001e-01	 4.375000000000001e-01	-2.689318276731692e+00
0	 1.875000000000000e-01	 4.999999999999999e-01	-3.920766423282460e+00
0	 1.875000000000000e-01	 5.624999999999999e-01	-5.203002024012922e+00
0	 1.875000000000000e-01	 6.250000000000002e-01	-6.536025078923076e+00
0	 2.500000000000000e-01	 0.000000000000000e+00	 4.673247015507692e+00
0	 2.499999999999999e-01	 6.249999999999999e-02	 3.776621035804308e+00
0	 2.500000000000000e-01	 1.250000000000000e-01	 2.832957257727999e+00
0	 2.500000000000000e-01	 1.875000000000000e-01	 1.842255681278769e+00
0	 2.500000000000000e-01	 2.500000000000000e-01	 8.045163064566150e-01
0	 2.500000000000001e-01	 3.125000000000000e-01	-2.802608667384617e-01
0	 2.500000000000001e-01	 3.750000000000001e-01	-1.412075838306461e+00
0	 2.500000000000000e-01	 4.375000000000000e-01	-2.590928608247383e+00
0	 2.500000000000000e-01	 5.000000000000000e-01	-3.816819176561230e+00
0	 2.499999999999999e-01	 5.624999999999999e-01	-5.089747543247999e+00
0	 2.500000000000000e-01	 6.249999999999999e-01	-6.409713708307692e+00
0	 3.125000000000000e-01	 0.000000000000000e+00	 4.744425526307692e+00
0	 3.125000000000001e-01	 6.250000000000000e-02	 3.860533428839999e+00
0	 3.125000000000001e-01	 1.250000000000000e-01	 2.933353188806153e+00
0	 3.125000000000001e-01	 1.875000000000000e-01	 1.962884806206153e+00
0	 3.125000000000000e-01	 2.500000000000000e-01	 9.491282810399998e-01
0	 3.125000000000000e-01	 3.125000000000000e-01	-1.079163866923078e-01
0	 3.125000000000000e-01	 3.750000000000000e-01	-1.208249196990769e+00
0	 3.125000000000000e-01	 4.375000000000000e-01	-2.351870149855384e+00
0	 3.125000000000000e-01	 4.999999999999999e-01	-3.538779245286152e+00
0	 3.124999999999999e-01	 5.625000000000000e-01	-4.768976483283076e+00
0	 3.125000000000000e-01	 6.250000000000000e-01	-6.042461863846154e+00
0	 3.750000000000000e-01	 0.000000000000000e+00	 4.722305564492308e+00
0	 3.750000000000000e-01	 6.249999999999999e-02	 3.884571243906461e+00
0	 3.750000000000000e-01	 1.250000000000000e-01	 3.007298436561230e+00
0	 3.749999999999999e-01	 1.875000000000000e-01	 2.090487142456614e+00
0	 3.750000000000001e-01	 2.500000000000001e-01	 1.134137361592616e+00
0	 3.750000000000000e-01	 3.125000000000000e-01	 1.382490939692307e-01
0	 3.749999999999999e-01	 3.749999999999999e-01	-8.971776604135383e-01
0	 3.750000000000000e-01	 4.375000000000000e-01	-1.972142901555692e+00
0	 3.749999999999999e-01	 4.999999999999998e-01	-3.086646629457229e+00
0	 3.750000000000000e-01	 5.625000000000000e-01	-4.240688844118152e+00
0	 3.750000000000000e-01	 6.250000000000000e-01	-5.434269545538462e+00
0	 4.375000000000000e-01	 0.000000000000000e+00	 4.606887130061538e+00
0	 4.374999999999999e-01	 6.249999999999999e-02	 3.848734481003691e+00
0	 4.375000000000000e-01	 1.250000000000000e-01	 3.054793000993230e+00
0	 4.375000000000000e-01	 1.875000000000001e-01	 2.225062690030153e+00
0	 4.375000000000000e-01	 2.500000000000000e-01	 1.359543548114461e+00
0	 4.374999999999999e-01	 3.125000000000000e-01	 4.582355752461534e-01
0	 4.375000000000000e-01	 3.749999999999999e-01	-4.788612285747696e-01
0	 4.374999999999999e-01	 4.374999999999999e-01	-1.451746863348308e+00
0	 4.375000000000000e-01	 4.999999999999999e-01	-2.460421329074461e+00
0	 4.375000000000000e-01	 5.625000000000000e-01	-3.504884625753228e+00
0	 4.374999999999999e-01	 6.250000000000001e-01	-4.585136753384615e+00
0	 5.000000000000000e-01	 0.000000000000000e+00	 4.398170223015384e+00
0	 4.999999999999999e-01	 6.249999999999999e-02	 3.753023140131692e+00
0	 4.999999999999999e-01	 1.250000000000000e-01	 3.075836882102152e+00
0	 4.999999999999999e-01	 1.875000000000000e-01	 2.366611448926768e+00
0	 5.000000000000000e-01	 2.500000000000000e-01	 1.625346840605538e+00
0	 4.999999999999999e-01	 3.125000000000000e-01	 8.520430571384611e-01
0	 4.999999999999999e-01	 3.750000000000000e-01	 4.670009852553791e-02
0	 4.999999999999999e-01	 4.375000000000000e-01	-7.906820352332317e-01
0	 4.999999999999999e-01	 4.999999999999999e-01	-1.660103344137846e+00
0	 4.999999999999999e-01	 5.624999999999999e-01	-2.561563828188308e+00
0	 4.999999999999999e-01	 6.250000000000000e-01	-3.495063487384618e+00
0	 5.624999999999999e-01	 0.000000000000000e+00	 4.096154843353847e+00
0	 5.624999999999999e-01	 6.250000000000000e-02	 3.597437221290461e+00
0	 5.624999999999999e-01	 1.250000000000000e-01	 3.070430079888000e+00
0	 5.624999999999999e-01	 1.875000000000000e-01	 2.515133419146461e+00
0	 5.625000000000000e-01	 2.500000000000001e-01	 1.931547239065846e+00
0	 5.624999999999999e-01	 3.124999999999999e-01	 1.319671539646153e+00
0	 5.625000000000001e-01	 3.750000000000001e-01	 6.795063208873839e-01
0	 5.625000000000000e-01	 4.375000000000000e-01	 1.105158278953786e-02
0	 5.624999999999999e-01	 4.999999999999999e-01	-6.856926746473854e-01
0	 5.624999999999999e-01	 5.624999999999999e-01	-1.410726451423385e+00
0	 5.624999999999999e-01	 6.250000000000000e-01	-2.164049747538463e+00
0	 6.250000000000000e-01	 0.000000000000000e+00	 3.700840991076923e+00
0	 6.250000000000000e-01	 6.250000000000000e-02	 3.381976724479999e+00
0	 6.250000000000000e-01	 1.250000000000000e-01	 3.038572594350769e+00
0	 6.250000000000000e-01	 1.875000000000000e-01	 2.670628600689231e+00
0	 6.249999999999999e-01	 2.500000000000000e-01	 2.278144743495385e+00
0	 6.250000000000000e-01	 3.125000000000000e-01	 1.861121022769231e+00
0	 6.249999999999999e-01	 3.750000000000000e-01	 1.419557438510769e+00
0	 6.250000000000001e-01	 4.374999999999999e-01	 9.534539907199997e-01
0	 6.250000000000000e-01	 5.000000000000000e-01	 4.628106793969236e-01
0	 6.250000000000000e-01	 5.624999999999999e-01	-5.237249545846091e-02
0	 6.250000000000000e-01	 6.250000000000000e-01	-5.920955338461539e-01
0	 0.000000000000000e+00	 6.250000000000000e-01	-5.469316347692307e+00
0	 0.000000000000000e+00	 6.875000000000000e-01	-7.514085816307648e-01
0	 0.000000000000000e+00	 7.500000000000002e-01	 4.008966146707699e+00
0	 0.000000000000000e+00	 8.125000000000002e-01	 8.811807837323089e+00
0	 0.000000000000000e+00	 8.750000000000002e-01	 1.365711649021540e+01
0	 0.000000000000000e+00	 9.375000000000002e-01	 1.854489210538464e+01
0	 0.000000000000000e+00	 1.000000000000000e+00	 2.347513468283079e+01
0	 0.000000000000000e+00	 1.062500000000000e+00	 2.844784422255388e+01
0	 0.000000000000000e+00	 1.125000000000000e+00	 3.346302072455388e+01
0	 0.000000000000000e+00	 1.187500000000000e+00	 3.852066418883080e+01
0	 0.000000000000000e+00	 1.250000000000000e+00	 4.362077461538461e+01
0	 6.250000000000000e-02	 6.250000000000000e-01	-6.065826398615386e+00
0	 6.250000000000000e-02	 6.875000000000001e-01	-1.054999125032303e+00
0	 6.250000000000000e-02	 7.500000000000000e-01	 3.996485551101546e+00
0	 6.250000000000000e-02	 8.125000000000002e-01	 9.088627629786163e+00
0	 6.249999999999999e-02	 8.750000000000002e-01	 1.422142711102155e+01
0	 6.249999999999998e-02	 9.375000000000002e-01	 1.939488399480771e+01
0	 6.250000000000000e-02	 1.000000000000000e+00	 2.460899828114464e+01
0	 6.250000000000000e-02	 1.062500000000000e+00	 2.986376997003234e+01
0	 6.249999999999999e-02	 1.125000000000000e+00	 3.515919906147081e+01
0	 6.250000000000000e-02	 1.187500000000001e+00	 4.049528555546003e+01
0	 6.250000000000000e-02	 1.250000000000000e+00	 4.587202945199999e+01
0	 1.250000000000000e-01	 6.250000000000001e-01	-6.421395975692306e+00
0	 1.250000000000000e-01	 6.875000000000000e-01	-1.181193227264611e+00
0	 1.250000000000000e-01	 7.500000000000000e-01	 4.097857363987702e+00
0	 1.250000000000000e-01	 8.125000000000004e-01	 9.415755798064630e+00
0	 1.250000000000000e-01	 8.750000000000002e-01	 1.477250207496617e+01
0	 1.250000000000000e-01	 9.375000000000002e-01	 2.016809619469232e+01
0	 1.250000000000000e-01	 1.000000000000000e+00	 2.560253815724311e+01
0	 1.250000000000000e-01	 1.062500000000000e+00	 3.107582796261849e+01
0	 1.250000000000000e-01	 1.125000000000000e+00	 3.658796561081849e+01
0	 1.250000000000000e-01	 1.187500000000000e+00	 4.213895110184310e+01
0	 1.250000000000000e-01	 1.250000000000000e+00	 4.772878443569230e+01
0	 1.875000000000000e-01	 6.250000000000002e-01	-6.536025078923076e+00
0	 1.875000000000000e-01	 6.875000000000001e-01	-1.129990888327688e+00
0	 1.875000000000000e-01	 7.500000000000001e-01	 4.313081585366161e+00
0	 1.875000000000001e-01	 8.125000000000002e-01	 9.793192342158479e+00
0	 1.875000000000000e-01	 8.750000000000002e-01	 1.531034138204924e+01
0	 1.875000000000000e-01	 9.375000000000002e-01	 2.086452870503849e+01
0	 1.875000000000000e-01	 1.000000000000000e+00	 2.645575431112619e+01
0	 1.875000000000000e-01	 1.062500000000000e+00	 3.208401820031234e+01
0	 1.875000000000001e-01	 1.125000000000000e+00	 3.774932037259696e+01
0	 1.875000000000000e-01	 1.187500000000000e+00	 4.345166082798003e+01
0	 1.875000000000000e-01	 1.250000000000000e+00	 4.919103956646155e+01
0	 2.500000000000000e-01	 6.249999999999999e-01	-6.409713708307692e+00
0	 2.500000000000001e-01	 6.875000000000001e-01	-9.013921082215335e-01
0	 2.500000000000001e-01	 7.500000000000002e-01	 4.642158215236933e+00
0	 2.500000000000001e-01	 8.125000000000002e-01	 1.022093726206771e+01
0	 2.500000000000001e-01	 8.750000000000002e-01	 1.583494503227079e+01
0	 2.499999999999999e-01	 9.375000000000002e-01	 2.148418152584618e+01
0	 2.499999999999999e-01	 1.000000000000000e+00	 2.716864674279388e+01
0	 2.500000000000001e-01	 1.062500000000001e+00	 3.288834068311387e+01
0	 2.500000000000001e-01	 1.125000000000000e+00	 3.864326334680619e+01
0	 2.500000000000000e-01	 1.187500000000000e+00	 4.443341473387080e+01
0	 2.500000000000000e-01	 1.250000000000000e+00	 5.025879484430768e+01
0	 3.125000000000000e-01	 6.250000000000000e-01	-6.042461863846154e+00
0	 3.125000000000000e-01	 6.875000000000000e-01	-4.953968869461497e-01
0	 3.125000000000000e-01	 7.500000000000001e-01	 5.085087253600008e+00
0	 3.125000000000001e-01	 8.125000000000002e-01	 1.069899055779232e+01
0	 3.125000000000000e-01	 8.750000000000002e-01	 1.634631302563079e+01
0	 3.125000000000000e-01	 9.375000000000002e-01	 2.202705465711541e+01
0	 3.125000000000000e-01	 1.000000000000000e+00	 2.774121545224618e+01
0	 3.124999999999999e-01	 1.062500000000000e+00	 3.348879541102310e+01
0	 3.125000000000001e-01	 1.125000000000001e+00	 3.926979453344619e+01
0	 3.125000000000000e-01	 1.187500000000001e+00	 4.508421281951544e+01
0	 3.125000000000000e-01	 1.250000000000000e+00	 5.093205026923076e+01
0	 3.750000000000000e-01	 6.250000000000000e-01	-5.434269545538462e+00
0	 3.750000000000000e-01	 6.875000000000001e-01	 8.799477549846602e-02
0	 3.750000000000000e-01	 7.500000000000001e-01	 5.641868700455394e+00
0	 3.750000000000000e-01	 8.125000000000002e-01	 1.122735222933232e+01
0	 3.749999999999999e-01	 8.750000000000001e-01	 1.684444536212925e+01
0	 3.750000000000000e-01	 9.375000000000002e-01	 2.249314809884618e+01
0	 3.750000000000000e-01	 1.000000000000000e+00	 2.817346043948310e+01
0	 3.750000000000000e-01	 1.062500000000001e+00	 3.388538238404004e+01
0	 3.750000000000001e-01	 1.125000000000000e+00	 3.962891393251694e+01
0	 3.750000000000000e-01	 1.187500000000001e+00	 4.540405508491388e+01
0	 3.750000000000000e-01	 1.250000000000000e+00	 5.121080584123077e+01
0	 4.374999999999999e-01	 6.250000000000001e-01	-4.585136753384615e+00
0	 4.374999999999998e-01	 6.875000000000000e-01	 8.487828791123109e-01
0	 4.375000000000000e-01	 7.500000000000003e-01	 6.312502555803086e+00
0	 4.374999999999999e-01	 8.125000000000001e-01	 1.180602227668770e+01
0	 4.375000000000000e-01	 8.750000000000002e-01	 1.732934204176617e+01
0	 4.375000000000001e-01	 9.375000000000003e-01	 2.288246185103849e+01
0	 4.375000000000000e-01	 1.000000000000000e+00	 2.846538170450464e+01
0	 4.374999999999999e-01	 1.062500000000000e+00	 3.407810160216464e+01
0	 4.375000000000000e-01	 1.125000000000000e+00	 3.972062154401851e+01
0	 4.374999999999999e-01	 1.187500000000000e+00	 4.539294153006619e+01
0	 4.374999999999999e-01	 1.250000000000000e+00	 5.109506156030770e+01
0	 4.999999999999999e-01	 6.250000000000000e-01	-3.495063487384618e+00
0	 5.000000000000000e-01	 6.875000000000001e-01	 1.786967423895387e+00
0	 4.999999999999999e-01	 7.500000000000000e-01	 7.096988819643081e+00
0	 4.999999999999999e-01	 8.125000000000002e-01	 1.243500069985847e+01
0	 5.000000000000000e-01	 8.750000000000003e-01	 1.780100306454156e+01
0	 4.999999999999999e-01	 9.375000000000001e-01	 2.319499591369233e+01
0	 5.000000000000000e-01	 1.000000000000000e+00	 2.861697924731079e+01
0	 4.999999999999999e-01	 1.062500000000000e+00	 3.406695306539696e+01
0	 5.000000000000000e-01	 1.125000000000001e+00	 3.954491736795081e+01
0	 5.000000000000000e-01	 1.187500000000001e+00	 4.505087215497234e+01
0	 4.999999999999999e-01	 1.250000000000000e+00	 5.058481742646153e+01
0	 5.624999999999999e-01	 6.250000000000000e-01	-2.164049747538463e+00
0	 5.625000000000000e-01	 6.875000000000001e-01	 2.902548409847696e+00
0	 5.625000000000000e-01	 7.500000000000002e-01	 7.995327491975392e+00
0	 5.624999999999999e-01	 8.125000000000002e-01	 1.311428749884463e+01
0	 5.625000000000000e-01	 8.750000000000002e-01	 1.825942843045540e+01
0	 5.625000000000000e-01	 9.375000000000003e-01	 2.343075028680772e+01
0	 5.625000000000001e-01	 1.000000000000000e+00	 2.862825306790157e+01
0	 5.625000000000000e-01	 1.062500000000000e+00	 3.385193677373695e+01
0	 5.624999999999999e-01	 1.125000000000000e+00	 3.910180140431387e+01
0	 5.625000000000000e-01	 1.187500000000000e+00	 4.437784695963234e+01
0	 5.624999999999999e-01	 1.250000000000000e+00	 4.968007343969231e+01
0	 6.250000000000000e-01	 6.250000000000000e-01	-5.920955338461539e-01
0	 6.250000000000000e-01	 6.875000000000000e-01	 4.195525836969236e+00
0	 6.250000000000000e-01	 7.500000000000002e-01	 9.007518572800009e+00
0	 6.250000000000000e-01	 8.125000000000002e-01	 1.384388267364617e+01
0	 6.250000000000000e-01	 8.750000000000002e-01	 1.870461813950771e+01
0	 6.250000000000000e-01	 9.375000000000002e-01	 2.358972497038464e+01
0	 6.250000000000000e-01	 1.000000000000000e+00	 2.849920316627695e+01
0	 6.250000000000001e-01	 1.062500000000000e+00	 3.343305272718464e+01
0	 6.250000000000001e-01	 1.125000000000001e+00	 3.839127365310772e+01
0	 6.250000000000000e-01	 1.187500000000000e+00	 4.337386594404619e+01
0	 6.250000000000000e-01	 1.250000000000000e+00	 4.838082960000001e+01
0	 0.000000000000000e+00	 1.250000000000000e+00	 4.362077461538461e+01
0	 0.000000000000000e+00	 1.312500000000000e+00	 4.144121037292307e+01
0	 0.000000000000000e+00	 1.375000000000000e+00	 3.923899307323077e+01
0	 0.000000000000000e+00	 1.437500000000000e+00	 3.701412271630769e+01
0	 0.000000000000000e+00	 1.500000000000000e+00	 3.476659930215383e+01
0	 0.000000000000000e+00	 1.562500000000000e+00	 3.249642283076922e+01
0	 0.000000000000000e+00	 1.625000000000000e+00	 3.020359330215383e+01
0	 0.000000000000000e+00	 1.687500000000000e+00	 2.788811071630768e+01
0	 0.000000000000000e+00	 1.750000000000000e+00	 2.554997507323074e+01
0	 0.000000000000000e+00	 1.812500000000000e+00	 2.318918637292306e+01
0	 0.000000000000000e+00	 1.875000000000000e+00	 2.080574461538461e+01
0	 6.250000000000000e-02	 1.250000000000000e+00	 4.587202945199999e+01
0	 6.250000000000000e-02	 1.312500000000000e+00	 4.325877413932308e+01
0	 6.250000000000000e-02	 1.375000000000000e+00	 4.062456647753844e+01
0	 6.250000000000000e-02	 1.437500000000000e+00	 3.796940646664613e+01
0	 6.249999999999999e-02	 1.500000000000000e+00	 3.529329410664614e+01
0	 6.249999999999998e-02	 1.562500000000000e+00	 3.259622939753844e+01
0	 6.250000000000000e-02	 1.625000000000000e+00	 2.987821233932306e+01
0	 6.250000000000000e-02	 1.687500000000000e+00	 2.713924293199998e+01
0	 6.249999999999999e-02	 1.750000000000000e+00	 2.437932117556920e+01
0	 6.250000000000000e-02	 1.812500000000001e+00	 2.159844707003074e+01
0	 6.250000000000000e-02	 1.875000000000000e+00	 1.879662061538461e+01
0	 1.250000000000000e-01	 1.250000000000000e+00	 4.772878443569230e+01
0	 1.250000000000000e-01	 1.312500000000000e+00	 4.473902170886151e+01
0	 1.250000000000000e-01	 1.375000000000000e+00	 4.173000734104615e+01
0	 1.250000000000000e-01	 1.437500000000001e+00	 3.870174133224614e+01
0	 1.250000000000000e-01	 1.500000000000000e+00	 3.565422368246151e+01
0	 1.250000000000000e-01	 1.562500000000000e+00	 3.258745439169229e+01
0	 1.250000000000000e-01	 1.625000000000000e+00	 2.950143345993844e+01
0	 1.250000000000000e-01	 1.687500000000000e+00	 2.639616088719998e+01
0	 1.250000000000000e-01	 1.750000000000000e+00	 2.327163667347689e+01
0	 1.250000000000000e-01	 1.812500000000000e+00	 2.012786081876920e+01
0	 1.250000000000000e-01	 1.875000000000000e+00	 1.696483332307691e+01
0	 1.875000000000000e-01	 1.250000000000000e+00	 4.919103956646155e+01
0	 1.875000000000000e-01	 1.312500000000000e+00	 4.588195308153846e+01
0	 1.875000000000000e-01	 1.375000000000000e+00	 4.255531566375383e+01
0	 1.875000000000001e-01	 1.437500000000000e+00	 3.921112731310768e+01
0	 1.875000000000000e-01	 1.500000000000000e+00	 3.584938802959999e+01
0	 1.875000000000000e-01	 1.562500000000001e+00	 3.247009781323075e+01
0	 1.875000000000000e-01	 1.625000000000000e+00	 2.907325666399997e+01
0	 1.875000000000000e-01	 1.687500000000000e+00	 2.565886458190766e+01
0	 1.875000000000001e-01	 1.750000000000001e+00	 2.222692156695383e+01
0	 1.875000000000000e-01	 1.812500000000000e+00	 1.877742761913843e+01
0	 1.875000000000000e-01	 1.875000000000000e+00	 1.531038273846153e+01
0	 2.500000000000000e-01	 1.250000000000000e+00	 5.025879484430768e+01
0	 2.500000000000001e-01	 1.312500000000000e+00	 4.668756825735382e+01
0	 2.500000000000001e-01	 1.375000000000000e+00	 4.310049144566153e+01
0	 2.500000000000001e-01	 1.437500000000000e+00	 3.949756440923075e+01
0	 2.500000000000001e-01	 1.500000000000000e+00	 3.587878714806153e+01
0	 2.499999999999999e-01	 1.562500000000000e+00	 3.224415966215382e+01
0	 2.499999999999999e-01	 1.625000000000000e+00	 2.859368195150766e+01
0	 2.500000000000001e-01	 1.687500000000000e+00	 2.492735401612305e+01
0	 2.500000000000001e-01	 1.750000000000001e+00	 2.124517585599997e+01
0	 2.500000000000000e-01	 1.812500000000000e+00	 1.754714747113842e+01
0	 2.500000000000000e-01	 1.875000000000000e+00	 1.383326886153846e+01
0	 3.125000000000000e-01	 1.250000000000000e+00	 5.093205026923076e+01
0	 3.125000000000000e-01	 1.312500000000000e+00	 4.715586723630769e+01
0	 3.125000000000000e-01	 1.375000000000000e+00	 4.336553468676923e+01
0	 3.125000000000001e-01	 1.437500000000000e+00	 3.956105262061536e+01
0	 3.125000000000000e-01	 1.500000000000000e+00	 3.574242103784614e+01
0	 3.125000000000000e-01	 1.562500000000000e+00	 3.190963993846152e+01
0	 3.125000000000000e-01	 1.625000000000000e+00	 2.806270932246151e+01
0	 3.124999999999999e-01	 1.687500000000000e+00	 2.420162918984613e+01
0	 3.125000000000001e-01	 1.750000000000001e+00	 2.032639954061536e+01
0	 3.125000000000000e-01	 1.812500000000000e+00	 1.643702037476919e+01
0	 3.125000000000000e-01	 1.875000000000000e+00	 1.253349169230769e+01
0	 3.750000000000000e-01	 1.250000000000000e+00	 5.121080584123077e+01
0	 3.750000000000000e-01	 1.312500000000000e+00	 4.728685001839998e+01
0	 3.750000000000000e-01	 1.375000000000000e+00	 4.335044538707692e+01
0	 3.750000000000000e-01	 1.437500000000000e+00	 3.940159194726152e+01
0	 3.749999999999999e-01	 1.500000000000000e+00	 3.544028969895383e+01
0	 3.750000000000000e-01	 1.562500000000000e+00	 3.146653864215381e+01
0	 3.750000000000000e-01	 1.625000000000000e+00	 2.748033877686151e+01
0	 3.750000000000000e-01	 1.687500000000001e+00	 2.348169010307689e+01
0	 3.750000000000001e-01	 1.750000000000001e+00	 1.947059262079997e+01
0	 3.750000000000000e-01	 1.812500000000001e+00	 1.544704633003073e+01
0	 3.750000000000000e-01	 1.875000000000000e+00	 1.141105123076922e+01
0	 4.374999999999999e-01	 1.250000000000000e+00	 5.109506156030770e+01
0	 4.374999999999998e-01	 1.312500000000000e+00	 4.708051660363076e+01
0	 4.375000000000000e-01	 1.375000000000000e+00	 4.305522354658461e+01
0	 4.374999999999999e-01	 1.437500000000000e+00	 3.901918238916922e+01
0	 4.375000000000000e-01	 1.500000000000000e+00	 3.497239313138460e+01
0	 4.375000000000001e-01	 1.562500000000000e+00	 3.091485577323076e+01
0	 4.375000000000000e-01	 1.625000000000000e+00	 2.684657031470767e+01
0	 4.374999999999999e-01	 1.687500000000000e+00	 2.276753675581536e+01
0	 4.375000000000000e-01	 1.750000000000000e+00	 1.867775509655382e+01
0	 4.374999999999999e-01	 1.812500000000000e+00	 1.457722533692304e+01
0	 4.374999999999999e-01	 1.875000000000000e+00	 1.046594747692307e+01
0	 4.999999999999999e-01	 1.250000000000000e+00	 5.058481742646153e+01
0	 5.000000000000000e-01	 1.312500000000000e+00	 4.653686699199999e+01
0	 4.999999999999999e-01	 1.375000000000000e+00	 4.247986916529227e+01
0	 4.999999999999999e-01	 1.437500000000000e+00	 3.841382394633844e+01
0	 5.000000000000000e-01	 1.500000000000000e+00	 3.433873133513845e+01
0	 4.999999999999999e-01	 1.562500000000000e+00	 3.025459133169229e+01
0	 5.000000000000000e-01	 1.625000000000000e+00	 2.616140393599998e+01
0	 4.999999999999999e-01	 1.687500000000000e+00	 2.205916914806151e+01
0	 5.000000000000000e-01	 1.750000000000001e+00	 1.794788696787689e+01
0	 5.000000000000000e-01	 1.812500000000001e+00	 1.382755739544612e+01
0	 4.999999999999999e-01	 1.875000000000000e+00	 9.698180430769229e+00
0	 5.624999999999999e-01	 1.250000000000000e+00	 4.968007343969231e+01
0	 5.625000000000000e-01	 1.312500000000000e+00	 4.565590118350769e+01
0	 5.625000000000000e-01	 1.375000000000000e+00	 4.162438224319999e+01
0	 5.624999999999999e-01	 1.437500000000000e+00	 3.758551661876922e+01
0	 5.625000000000000e-01	 1.500000000000000e+00	 3.353930431021536e+01
0	 5.625000000000000e-01	 1.562500000000000e+00	 2.948574531753844e+01
0	 5.625000000000001e-01	 1.625000000000001e+00	 2.542483964073844e+01
0	 5.625000000000000e-01	 1.687500000000000e+00	 2.135658727981536e+01
0	 5.624999999999999e-01	 1.750000000000000e+00	 1.728098823476919e+01
0	 5.625000000000000e-01	 1.812500000000001e+00	 1.319804250559996e+01
0	 5.624999999999999e-01	 1.875000000000000e+00	 9.107750092307690e+00
0	 6.250000000000000e-01	 1.250000000000000e+00	 4.838082960000001e+01
0	 6.250000000000000e-01	 1.312500000000000e+00	 4.443761917815384e+01
0	 6.250000000000000e-01	 1.375000000000000e+00	 4.048876278030768e+01
0	 6.250000000000000e-01	 1.437500000000000e+00	 3.653426040646153e+01
0	 6.250000000000000e-01	 1.500000000000000e+00	 3.257411205661537e+01
0	 6.250000000000000e-01	 1.562500000000000e+00	 2.860831773076921e+01
0	 6.250000000000000e-01	 1.625000000000000e+00	 2.463687742892305e+01
0	 6.250000000000001e-01	 1.687500000000000e+00	 2.065979115107690e+01
0	 6.250000000000001e-01	 1.750000000000001e+00	 1.667705889723074e+01
0	 6.250000000000000e-01	 1.812500000000000e+00	 1.268868066738458e+01
0	 6.250000000000000e-01	 1.875000000000000e+00	 8.694656461538459e+00
0	 0.000000000000000e+00	 1.875000000000000e+00	 2.080574461538461e+01
0	 0.000000000000000e+00	 1.937500000000000e+00	 1.903620090061537e+01
0	 0.000000000000000e+00	 2.000000000000000e+00	 1.728038996553846e+01
0	 0.000000000000000e+00	 2.062500000000000e+00	 1.553831181015384e+01
0	 0.000000000000000e+00	 2.125000000000000e+00	 1.380996643446153e+01
0	 0.000000000000000e+00	 2.187500000000000e+00	 1.209535383846152e+01
0	 0.000000000000000e+00	 2.250000000000000e+00	 1.039447402215383e+01
0	 0.000000000000000e+00	 2.312500000000000e+00	 8.707326985538455e+00
0	 0.000000000000000e+00	 2.375000000000000e+00	 7.033912728615372e+00
0	 0.000000000000000e+00	 2.437500000000000e+00	 5.374231251384601e+00
0	 0.000000000000000e+00	 2.500000000000000e+00	 3.728282553846157e+00
0	 6.250000000000000e-02	 1.875000000000000e+00	 1.879662061538461e+01
0	 6.250000000000000e-02	 1.937500000000000e+00	 1.727768155536922e+01
0	 6.250000000000000e-02	 2.000000000000000e+00	 1.577133235009230e+01
0	 6.250000000000000e-02	 2.062500000000000e+00	 1.427757299955383e+01
0	 6.249999999999999e-02	 2.125000000000000e+00	 1.279640350375383e+01
0	 6.249999999999998e-02	 2.187500000000000e+00	 1.132782386269229e+01
0	 6.250000000000000e-02	 2.250000000000000e+00	 9.871834076369224e+00
0	 6.250000000000000e-02	 2.312500000000000e+00	 8.428434144784607e+00
0	 6.249999999999999e-02	 2.375000000000000e+00	 6.997624067938454e+00
0	 6.250000000000000e-02	 2.437500000000000e+00	 5.579403845830766e+00
0	 6.250000000000000e-02	 2.500000000000000e+00	 4.173773478461544e+00
0	 1.250000000000000e-01	 1.875000000000000e+00	 1.696483332307691e+01
0	 1.250000000000000e-01	 1.937500000000000e+00	 1.567763736396923e+01
0	 1.250000000000000e-01	 2.000000000000000e+00	 1.440188833464615e+01
0	 1.250000000000000e-01	 2.062500000000001e+00	 1.313758623510769e+01
0	 1.250000000000000e-01	 2.125000000000001e+00	 1.188473106535384e+01
0	 1.250000000000000e-01	 2.187500000000000e+00	 1.064332282538461e+01
0	 1.250000000000000e-01	 2.250000000000000e+00	 9.413361515199995e+00
0	 1.250000000000000e-01	 2.312500000000000e+00	 8.194847134800000e+00
0	 1.250000000000000e-01	 2.375000000000000e+00	 6.987779684184612e+00
0	 1.250000000000000e-01	 2.437500000000000e+00	 5.792159163353848e+00
0	 1.250000000000000e-01	 2.500000000000000e+00	 4.607985572307688e+00
0	 1.875000000000000e-01	 1.875000000000000e+00	 1.531038273846153e+01
0	 1.875000000000000e-01	 1.937500000000000e+00	 1.423606832641538e+01
0	 1.875000000000000e-01	 2.000000000000000e+00	 1.317205791919999e+01
0	 1.875000000000001e-01	 2.062500000000000e+00	 1.211835151681538e+01
0	 1.875000000000000e-01	 2.125000000000000e+00	 1.107494911926153e+01
0	 1.875000000000000e-01	 2.187500000000000e+00	 1.004185072653846e+01
0	 1.875000000000000e-01	 2.250000000000000e+00	 9.019056338646148e+00
0	 1.875000000000000e-01	 2.312500000000000e+00	 8.006565955584607e+00
0	 1.875000000000001e-01	 2.375000000000001e+00	 7.004379577353835e+00
0	 1.875000000000000e-01	 2.437500000000000e+00	 6.012497203953842e+00
0	 1.875000000000000e-01	 2.500000000000000e+00	 5.030918835384613e+00
0	 2.500000000000000e-01	 1.875000000000000e+00	 1.383326886153846e+01
0	 2.500000000000001e-01	 1.937500000000000e+00	 1.295297444270769e+01
0	 2.500000000000001e-01	 2.000000000000000e+00	 1.208184110375384e+01
0	 2.500000000000001e-01	 2.062500000000000e+00	 1.121986884467691e+01
0	 2.500000000000001e-01	 2.125000000000001e+00	 1.036705766547692e+01
0	 2.499999999999999e-01	 2.187500000000000e+00	 9.523407566153841e+00
0	 2.499999999999999e-01	 2.250000000000000e+00	 8.688918546707685e+00
0	 2.500000000000001e-01	 2.312500000000001e+00	 7.863590607138456e+00
0	 2.500000000000001e-01	 2.375000000000000e+00	 7.047423747446145e+00
0	 2.500000000000000e-01	 2.437500000000001e+00	 6.240417967630767e+00
0	 2.500000000000000e-01	 2.500000000000000e+00	 5.442573267692298e+00
0	 3.125000000000000e-01	 1.875000000000000e+00	 1.253349169230769e+01
0	 3.125000000000000e-01	 1.937500000000000e+00	 1.182835571284615e+01
0	 3.125000000000000e-01	 2.000000000000000e+00	 1.113123788830769e+01
0	 3.125000000000001e-01	 2.062500000000000e+00	 1.044213821869230e+01
0	 3.125000000000000e-01	 2.125000000000000e+00	 9.761056703999994e+00
0	 3.125000000000000e-01	 2.187500000000000e+00	 9.087993344230766e+00
0	 3.125000000000000e-01	 2.250000000000000e+00	 8.422948139384609e+00
0	 3.124999999999999e-01	 2.312500000000000e+00	 7.765921089461534e+00
0	 3.125000000000001e-01	 2.375000000000001e+00	 7.116912194461530e+00
0	 3.125000000000000e-01	 2.437500000000000e+00	 6.475921454384608e+00
0	 3.125000000000000e-01	 2.500000000000000e+00	 5.842948869230765e+00
0	 3.750000000000000e-01	 1.875000000000000e+00	 1.141105123076922e+01
0	 3.750000000000000e-01	 1.937500000000000e+00	 1.086221213683077e+01
0	 3.750000000000000e-01	 2.000000000000000e+00	 1.032024827286154e+01
0	 3.750000000000000e-01	 2.062500000000000e+00	 9.785159638861536e+00
0	 3.749999999999999e-01	 2.125000000000000e+00	 9.256946234830769e+00
0	 3.750000000000000e-01	 2.187500000000000e+00	 8.735608060769232e+00
0	 3.750000000000000e-01	 2.250000000000000e+00	 8.221145116676919e+00
0	 3.750000000000000e-01	 2.312500000000001e+00	 7.713557402553843e+00
0	 3.750000000000001e-01	 2.375000000000001e+00	 7.212844918399998e+00
0	 3.750000000000000e-01	 2.437500000000001e+00	 6.719007664215381e+00
0	 3.750000000000000e-01	 2.500000000000000e+00	 6.232045640000004e+00
0	 4.374999999999999e-01	 1.875000000000000e+00	 1.046594747692307e+01
0	 4.374999999999998e-01	 1.937500000000000e+00	 1.005454371466153e+01
0	 4.375000000000000e-01	 2.000000000000000e+00	 9.648872257415382e+00
0	 4.374999999999999e-01	 2.062500000000000e+00	 9.248933105184616e+00
0	 4.375000000000000e-01	 2.125000000000000e+00	 8.854726257969224e+00
0	 4.375000000000001e-01	 2.187500000000001e+00	 8.466251715769225e+00
0	 4.375000000000000e-01	 2.250000000000001e+00	 8.083509478584613e+00
0	 4.374999999999999e-01	 2.312500000000000e+00	 7.706499546415379e+00
0	 4.375000000000000e-01	 2.375000000000000e+00	 7.335221919261533e+00
0	 4.374999999999999e-01	 2.437500000000000e+00	 6.969676597123071e+00
0	 4.374999999999999e-01	 2.500000000000000e+00	 6.609863579999999e+00
0	 4.999999999999999e-01	 1.875000000000000e+00	 9.698180430769229e+00
0	 5.000000000000000e-01	 1.937500000000000e+00	 9.405350446338460e+00
0	 4.999999999999999e-01	 2.000000000000000e+00	 9.117109841969226e+00
0	 4.999999999999999e-01	 2.062500000000000e+00	 8.833458617661538e+00
0	 5.000000000000000e-01	 2.125000000000000e+00	 8.554396773415387e+00
0	 4.999999999999999e-01	 2.187500000000000e+00	 8.279924309230765e+00
0	 5.000000000000000e-01	 2.250000000000000e+00	 8.010041225107688e+00
0	 4.999999999999999e-01	 2.312500000000001e+00	 7.744747521046154e+00
0	 5.000000000000000e-01	 2.375000000000000e+00	 7.484043197046160e+00
0	 5.000000000000000e-01	 2.437500000000000e+00	 7.227928253107697e+00
0	 4.999999999999999e-01	 2.500000000000000e+00	 6.976402689230771e+00
0	 5.624999999999999e-01	 1.875000000000000e+00	 9.107750092307690e+00
0	 5.625000000000000e-01	 1.937500000000000e+00	 8.914632331861540e+00
0	 5.625000000000000e-01	 2.000000000000000e+00	 8.724961026523076e+00
0	 5.624999999999999e-01	 2.062500000000000e+00	 8.538736176292307e+00
0	 5.625000000000000e-01	 2.125000000000000e+00	 8.355957781169234e+00
0	 5.625000000000000e-01	 2.187500000000000e+00	 8.176625841153843e+00
0	 5.625000000000001e-01	 2.250000000000001e+00	 8.000740356246151e+00
0	 5.625000000000000e-01	 2.312500000000000e+00	 7.828301326446155e+00
0	 5.624999999999999e-01	 2.375000000000000e+00	 7.659308751753847e+00
0	 5.625000000000000e-01	 2.437500000000001e+00	 7.493762632169222e+00
0	 5.624999999999999e-01	 2.500000000000000e+00	 7.331662967692305e+00
0	 6.250000000000000e-01	 1.875000000000000e+00	 8.694656461538459e+00
0	 6.250000000000000e-01	 1.937500000000000e+00	 8.582389371230764e+00
0	 6.250000000000000e-01	 2.000000000000000e+00	 8.472425811076917e+00
0	 6.250000000000000e-01	 2.062500000000000e+00	 8.364765781076919e+00
0	 6.250000000000000e-01	 2.125000000000000e+00	 8.259409281230768e+00
0	 6.250000000000000e-01	 2.187500000000000e+00	 8.156356311538458e+00
0	 6.250000000000000e-01	 2.250000000000000e+00	 8.055606872000002e+00
0	 6.250000000000001e-01	 2.312500000000000e+00	 7.957160962615384e+00
0	 6.250000000000001e-01	 2.375000000000001e+00	 7.861018583384621e+00
0	 6.250000000000000e-01	 2.437500000000001e+00	 7.767179734307694e+00
0	 6.250000000000000e-01	 2.500000000000000e+00	 7.675644415384618e+00
0	 0.000000000000000e+00	 2.500000000000000e+00	 3.728282553846157e+00
0	 0.000000000000000e+00	 2.562500000000000e+00	 4.348755608000004e+00
0	 0.000000000000000e+00	 2.625000000000000e+00	 4.953786770461537e+00
0	 0.000000000000000e+00	 2.687499999999999e+00	 5.543376041230768e+00
0	 0.000000000000000e+00	 2.750000000000000e+00	 6.117523420307682e+00
0	 0.000000000000000e+00	 2.812499999999999e+00	 6.676228907692308e+00
0	 0.000000000000000e+00	 2.874999999999999e+00	 7.219492503384603e+00
0	 0.000000000000000e+00	 2.937499999999999e+00	 7.747314207384597e+00
0	 0.000000000000000e+00	 2.999999999999998e+00	 8.259694019692294e+00
0	 0.000000000000000e+00	 3.062499999999998e+00	 8.756631940307685e+00
0	 0.000000000000000e+00	 3.125000000000000e+00	 9.238127969230773e+00
0	 6.250000000000000e-02	 2.500000000000000e+00	 4.173773478461544e+00
0	 6.249999999999999e-02	 2.562500000000000e+00	 4.725285703876918e+00
0	 6.249999999999998e-02	 2.624999999999999e+00	 5.263193103200003e+00
0	 6.250000000000000e-02	 2.687499999999999e+00	 5.787495676430768e+00
0	 6.250000000000000e-02	 2.749999999999999e+00	 6.298193423569225e+00
0	 6.249999999999997e-02	 2.812499999999999e+00	 6.795286344615382e+00
0	 6.249999999999999e-02	 2.874999999999999e+00	 7.278774439569223e+00
0	 6.249999999999999e-02	 2.937499999999998e+00	 7.748657708430759e+00
0	 6.249999999999999e-02	 2.999999999999999e+00	 8.204936151199989e+00
0	 6.249999999999999e-02	 3.062499999999997e+00	 8.647609767876911e+00
0	 6.250000000000000e-02	 3.125000000000000e+00	 9.076678558461532e+00
0	 1.250000000000000e-01	 2.500000000000000e+00	 4.607985572307688e+00
0	 1.250000000000000e-01	 2.562499999999999e+00	 5.093898648984618e+00
0	 1.250000000000000e-01	 2.625000000000000e+00	 5.568043965169229e+00
0	 1.250000000000000e-01	 2.687500000000000e+00	 6.030421520861535e+00
0	 1.250000000000000e-01	 2.749999999999998e+00	 6.481031316061534e+00
0	 1.250000000000000e-01	 2.812499999999999e+00	 6.919873350769222e+00
0	 1.250000000000000e-01	 2.874999999999998e+00	 7.346947624984608e+00
0	 1.250000000000000e-01	 2.937499999999999e+00	 7.762254138707680e+00
0	 1.250000000000000e-01	 2.999999999999999e+00	 8.165792891938452e+00
0	 1.250000000000000e-01	 3.062499999999997e+00	 8.557563884676917e+00
0	 1.250000000000000e-01	 3.125000000000000e+00	 8.937567116923081e+00
0	 1.875000000000000e-01	 2.500000000000000e+00	 5.030918835384613e+00
0	 1.875000000000000e-01	 2.562500000000000e+00	 5.454594443323076e+00
0	 1.875000000000000e-01	 2.625000000000000e+00	 5.868339356369221e+00
0	 1.875000000000000e-01	 2.687500000000000e+00	 6.272153574523076e+00
0	 1.875000000000000e-01	 2.749999999999999e+00	 6.666037097784608e+00
0	 1.875000000000000e-01	 2.812499999999999e+00	 7.049989926153837e+00
0	 1.875000000000000e-01	 2.874999999999999e+00	 7.424012059630760e+00
0	 1.875000000000000e-01	 2.937499999999999e+00	 7.788103498215385e+00
0	 1.875000000000001e-01	 2.999999999999998e+00	 8.142264241907688e+00
0	 1.875000000000000e-01	 3.062499999999998e+00	 8.486494290707679e+00
0	 1.875000000000000e-01	 3.125000000000000e+00	 8.820793644615389e+00
0	 2.500000000000000e-01	 2.500000000000000e+00	 5.442573267692298e+00
0	 2.500000000000001e-01	 2.562500000000000e+00	 5.807373086892307e+00
0	 2.500000000000001e-01	 2.625000000000000e+00	 6.164079276799995e+00
0	 2.500000000000000e-01	 2.687499999999999e+00	 6.512691837415383e+00
0	 2.500000000000000e-01	 2.749999999999999e+00	 6.853210768738464e+00
0	 2.499999999999999e-01	 2.812499999999999e+00	 7.185636070769224e+00
0	 2.500000000000000e-01	 2.874999999999998e+00	 7.509967743507687e+00
0	 2.500000000000000e-01	 2.937499999999999e+00	 7.826205786953841e+00
0	 2.500000000000000e-01	 2.999999999999998e+00	 8.134350201107692e+00
0	 2.499999999999999e-01	 3.062499999999997e+00	 8.434400985969225e+00
0	 2.500000000000000e-01	 3.125000000000000e+00	 8.726358141538466e+00
0	 3.125000000000000e-01	 2.500000000000000e+00	 5.842948869230765e+00
0	 3.125000000000000e-01	 2.562500000000000e+00	 6.152234579692306e+00
0	 3.125000000000001e-01	 2.625000000000000e+00	 6.455263726461542e+00
0	 3.125000000000000e-01	 2.687499999999999e+00	 6.752036309538457e+00
0	 3.125000000000001e-01	 2.750000000000000e+00	 7.042552328923074e+00
0	 3.125000000000000e-01	 2.812499999999999e+00	 7.326811784615382e+00
0	 3.125000000000000e-01	 2.874999999999999e+00	 7.604814676615381e+00
0	 3.125000000000000e-01	 2.937499999999998e+00	 7.876561004923069e+00
0	 3.125000000000000e-01	 2.999999999999999e+00	 8.142050769538461e+00
0	 3.125000000000000e-01	 3.062499999999998e+00	 8.401283970461527e+00
0	 3.125000000000000e-01	 3.125000000000000e+00	 8.654260607692313e+00
0	 3.750000000000000e-01	 2.500000000000000e+00	 6.232045640000004e+00
0	 3.749999999999999e-01	 2.562500000000000e+00	 6.489178921723078e+00
0	 3.750000000000001e-01	 2.625000000000000e+00	 6.741892705353841e+00
0	 3.749999999999999e-01	 2.687499999999999e+00	 6.990186990892305e+00
0	 3.750000000000000e-01	 2.750000000000000e+00	 7.234061778338453e+00
0	 3.750000000000001e-01	 2.812500000000000e+00	 7.473517067692307e+00
0	 3.749999999999999e-01	 2.874999999999999e+00	 7.708552858953841e+00
0	 3.749999999999999e-01	 2.937499999999999e+00	 7.939169152123066e+00
0	 3.750000000000001e-01	 2.999999999999998e+00	 8.165365947199991e+00
0	 3.750000000000001e-01	 3.062499999999998e+00	 8.387143244184605e+00
0	 3.750000000000000e-01	 3.125000000000000e+00	 8.604501043076930e+00
0	 4.374999999999999e-01	 2.500000000000000e+00	 6.609863579999999e+00
0	 4.374999999999999e-01	 2.562500000000000e+00	 6.818206112984613e+00
0	 4.375000000000000e-01	 2.625000000000000e+00	 7.023966213476921e+00
0	 4.375000000000001e-01	 2.687500000000000e+00	 7.227143881476921e+00
0	 4.375000000000000e-01	 2.749999999999999e+00	 7.427739116984609e+00
0	 4.375000000000000e-01	 2.812499999999999e+00	 7.625751919999994e+00
0	 4.375000000000000e-01	 2.875000000000000e+00	 7.821182290523074e+00
0	 4.375000000000000e-01	 2.937499999999999e+00	 8.014030228553844e+00
0	 4.374999999999999e-01	 2.999999999999998e+00	 8.204295734092305e+00
0	 4.375000000000000e-01	 3.062499999999998e+00	 8.391978807138463e+00
0	 4.374999999999999e-01	 3.125000000000000e+00	 8.577079447692309e+00
0	 4.999999999999999e-01	 2.500000000000000e+00	 6.976402689230771e+00
0	 4.999999999999999e-01	 2.562500000000000e+00	 7.139316153476924e+00
0	 4.999999999999999e-01	 2.625000000000000e+00	 7.301484250830764e+00
0	 4.999999999999998e-01	 2.687499999999999e+00	 7.462906981292301e+00
0	 5.000000000000000e-01	 2.749999999999999e+00	 7.623584344861539e+00
0	 4.999999999999999e-01	 2.812499999999999e+00	 7.783516341538459e+00
0	 4.999999999999999e-01	 2.874999999999999e+00	 7.942702971323074e+00
0	 4.999999999999999e-01	 2.937499999999998e+00	 8.101144234215381e+00
0	 5.000000000000000e-01	 2.999999999999998e+00	 8.258840130215383e+00
0	 4.999999999999999e-01	 3.062499999999997e+00	 8.415790659323074e+00
0	 4.999999999999999e-01	 3.125000000000000e+00	 8.571995821538458e+00
0	 5.624999999999999e-01	 2.500000000000000e+00	 7.331662967692305e+00
0	 5.624999999999999e-01	 2.562500000000000e+00	 7.452509043200002e+00
0	 5.624999999999999e-01	 2.625000000000000e+00	 7.574446817415384e+00
0	 5.625000000000001e-01	 2.687500000000000e+00	 7.697476290338459e+00
0	 5.625000000000000e-01	 2.750000000000000e+00	 7.821597461969231e+00
0	 5.624999999999999e-01	 2.812499999999999e+00	 7.946810332307691e+00
0	 5.624999999999999e-01	 2.874999999999999e+00	 8.073114901353843e+00
0	 5.625000000000000e-01	 2.937499999999999e+00	 8.200511169107690e+00
0	 5.625000000000000e-01	 2.999999999999999e+00	 8.328999135569228e+00
0	 5.625000000000000e-01	 3.062499999999998e+00	 8.458578800738456e+00
0	 5.624999999999999e-01	 3.125000000000000e+00	 8.589250164615388e+00
0	 6.250000000000000e-01	 2.500000000000000e+00	 7.675644415384618e+00
0	 6.250000000000000e-01	 2.562500000000000e+00	 7.757784782153852e+00
0	 6.250000000000001e-01	 2.625000000000000e+00	 7.842853913230771e+00
0	 6.249999999999999e-01	 2.687499999999999e+00	 7.930851808615382e+00
0	 6.250000000000000e-01	 2.750000000000000e+00	 8.021778468307694e+00
0	 6.250000000000000e-01	 2.812499999999999e+00	 8.115633892307695e+00
0	 6.250000000000000e-01	 2.874999999999999e+00	 8.212418080615381e+00
0	 6.249999999999999e-01	 2.937499999999998e+00	 8.312131033230765e+00
0	 6.250000000000000e-01	 2.999999999999998e+00	 8.414772750153841e+00
0	 6.250000000000000e-01	 3.062499999999998e+00	 8.520343231384615e+00
0	 6.250000000000000e-01	 3.125000000000000e+00	 8.628842476923078e+00
0	 0.000000000000000e+00	 3.125000000000000e+00	 9.238127969230773e+00
0	 0.000000000000000e+00	 3.187500000000000e+00	 9.126518952307684e+00
0	 0.000000000000000e+00	 3.250000000000000e+00	 9.025586658461538e+00
0	 0.000000000000000e+00	 3.312499999999999e+00	 8.935331087692310e+00
0	 0.000000000000000e+00	 3.374999999999999e+00	 8.855752239999997e+00
0	 0.000000000000000e+00	 3.437499999999999e+00	 8.786850115384610e+00
0	 0.000000000000000e+00	 3.499999999999999e+00	 8.728624713846152e+00
0	 0.000000000000000e+00	 3.562499999999999e+00	 8.681076035384615e+00
0	 0.000000000000000e+00	 3.624999999999998e+00	 8.644204079999989e+00
0	 0.000000000000000e+00	 3.687499999999998e+00	 8.618008847692286e+00
0	 0.000000000000000e+00	 3.750000000000000e+00	 8.602490338461530e+00
0	 6.250000000000000e-02	 3.125000000000000e+00	 9.076678558461532e+00
0	 6.249999999999999e-02	 3.187499999999999e+00	 8.990398341769232e+00
0	 6.249999999999998e-02	 3.249999999999999e+00	 8.913453028923076e+00
0	 6.250000000000000e-02	 3.312500000000000e+00	 8.845842619923072e+00
0	 6.250000000000000e-02	 3.374999999999999e+00	 8.787567114769224e+00
0	 6.249999999999997e-02	 3.437499999999998e+00	 8.738626513461535e+00
0	 6.249999999999999e-02	 3.499999999999999e+00	 8.699020815999999e+00
0	 6.249999999999999e-02	 3.562499999999999e+00	 8.668750022384600e+00
0	 6.249999999999999e-02	 3.624999999999998e+00	 8.647814132615373e+00
0	 6.249999999999999e-02	 3.687499999999998e+00	 8.636213146692310e+00
0	 6.250000000000000e-02	 3.750000000000001e+00	 8.633947064615379e+00
0	 1.250000000000000e-01	 3.125000000000000e+00	 8.937567116923081e+00
0	 1.250000000000000e-01	 3.187500000000000e+00	 8.874513718923076e+00
0	 1.250000000000000e-01	 3.250000000000000e+00	 8.819453405538455e+00
0	 1.250000000000000e-01	 3.312500000000000e+00	 8.772386176769233e+00
0	 1.250000000000000e-01	 3.374999999999999e+00	 8.733312032615382e+00
0	 1.250000000000000e-01	 3.437500000000000e+00	 8.702230973076924e+00
0	 1.250000000000000e-01	 3.499999999999998e+00	 8.679142998153843e+00
0	 1.250000000000000e-01	 3.562499999999998e+00	 8.664048107846156e+00
0	 1.250000000000000e-01	 3.624999999999999e+00	 8.656946302153839e+00
0	 1.250000000000000e-01	 3.687499999999998e+00	 8.657837581076917e+00
0	 1.250000000000000e-01	 3.750000000000000e+00	 8.666721944615375e+00
0	 1.875000000000000e-01	 3.125000000000000e+00	 8.820793644615389e+00
0	 1.875000000000000e-01	 3.187500000000000e+00	 8.778865083769235e+00
0	 1.875000000000000e-01	 3.250000000000000e+00	 8.743587788307693e+00
0	 1.875000000000000e-01	 3.312500000000000e+00	 8.714961758230768e+00
0	 1.875000000000000e-01	 3.374999999999999e+00	 8.692986993538462e+00
0	 1.875000000000000e-01	 3.437499999999999e+00	 8.677663494230769e+00
0	 1.875000000000000e-01	 3.499999999999999e+00	 8.668991260307692e+00
0	 1.875000000000000e-01	 3.562499999999999e+00	 8.666970291769227e+00
0	 1.875000000000001e-01	 3.624999999999999e+00	 8.671600588615386e+00
0	 1.875000000000000e-01	 3.687499999999998e+00	 8.682882150846149e+00
0	 1.875000000000000e-01	 3.750000000000000e+00	 8.700814978461535e+00
0	 2.500000000000000e-01	 3.125000000000000e+00	 8.726358141538466e+00
0	 2.500000000000001e-01	 3.187500000000000e+00	 8.703452436307693e+00
0	 2.500000000000001e-01	 3.250000000000000e+00	 8.685856177230770e+00
0	 2.500000000000000e-01	 3.312500000000000e+00	 8.673569364307692e+00
0	 2.500000000000000e-01	 3.374999999999999e+00	 8.666591997538459e+00
0	 2.499999999999999e-01	 3.437499999999999e+00	 8.664924076923072e+00
0	 2.500000000000000e-01	 3.499999999999998e+00	 8.668565602461534e+00
0	 2.500000000000000e-01	 3.562499999999997e+00	 8.677516574153843e+00
0	 2.500000000000000e-01	 3.624999999999999e+00	 8.691776991999992e+00
0	 2.499999999999999e-01	 3.687499999999998e+00	 8.711346855999990e+00
0	 2.500000000000000e-01	 3.750000000000000e+00	 8.736226166153852e+00
0	 3.125000000000000e-01	 3.125000000000000e+00	 8.654260607692313e+00
0	 3.125000000000000e-01	 3.187499999999999e+00	 8.648275776538458e+00
0	 3.125000000000001e-01	 3.250000000000000e+00	 8.646258572307694e+00
0	 3.125000000000000e-01	 3.312499999999999e+00	 8.648208994999997e+00
0	 3.125000000000001e-01	 3.375000000000000e+00	 8.654127044615382e+00
0	 3.125000000000000e-01	 3.437499999999999e+00	 8.664012721153846e+00
0	 3.125000000000000e-01	 3.499999999999999e+00	 8.677866024615385e+00
0	 3.125000000000000e-01	 3.562499999999998e+00	 8.695686955000003e+00
0	 3.125000000000000e-01	 3.624999999999998e+00	 8.717475512307683e+00
0	 3.125000000000000e-01	 3.687499999999998e+00	 8.743231696538459e+00
0	 3.125000000000000e-01	 3.750000000000000e+00	 8.772955507692306e+00
0	 3.750000000000000e-01	 3.125000000000000e+00	 8.604501043076930e+00
0	 3.749999999999999e-01	 3.187500000000000e+00	 8.613335104461539e+00
0	 3.750000000000001e-01	 3.250000000000000e+00	 8.624794973538460e+00
0	 3.749999999999999e-01	 3.312499999999999e+00	 8.638880650307692e+00
0	 3.750000000000000e-01	 3.375000000000000e+00	 8.655592134769224e+00
0	 3.750000000000001e-01	 3.437500000000000e+00	 8.674929426923079e+00
0	 3.749999999999999e-01	 3.499999999999999e+00	 8.696892526769238e+00
0	 3.749999999999999e-01	 3.562499999999999e+00	 8.721481434307691e+00
0	 3.750000000000001e-01	 3.624999999999998e+00	 8.748696149538457e+00
0	 3.750000000000001e-01	 3.687499999999998e+00	 8.778536672461536e+00
0	 3.750000000000000e-01	 3.750000000000000e+00	 8.811003003076932e+00
0	 4.374999999999999e-01	 3.125000000000000e+00	 8.577079447692309e+00
0	 4.374999999999999e-01	 3.187499999999999e+00	 8.598630420076926e+00
0	 4.375000000000000e-01	 3.249999999999999e+00	 8.621465380923079e+00
0	 4.375000000000001e-01	 3.312500000000000e+00	 8.645584330230768e+00
0	 4.375000000000000e-01	 3.375000000000000e+00	 8.670987267999998e+00
0	 4.375000000000000e-01	 3.437499999999999e+00	 8.697674194230766e+00
0	 4.375000000000000e-01	 3.500000000000000e+00	 8.725645108923075e+00
0	 4.375000000000000e-01	 3.562499999999999e+00	 8.754900012076931e+00
0	 4.374999999999999e-01	 3.624999999999999e+00	 8.785438903692310e+00
0	 4.375000000000000e-01	 3.687499999999998e+00	 8.817261783769226e+00
0	 4.374999999999999e-01	 3.750000000000000e+00	 8.850368652307695e+00
0	 4.999999999999999e-01	 3.125000000000000e+00	 8.571995821538458e+00
0	 4.999999999999999e-01	 3.187499999999999e+00	 8.604161723384610e+00
0	 4.999999999999999e-01	 3.250000000000000e+00	 8.636269794461537e+00
0	 4.999999999999998e-01	 3.312499999999999e+00	 8.668320034769227e+00
0	 5.000000000000000e-01	 3.374999999999999e+00	 8.700312444307690e+00
0	 4.999999999999999e-01	 3.437499999999998e+00	 8.732247023076921e+00
0	 4.999999999999999e-01	 3.499999999999998e+00	 8.764123771076925e+00
0	 4.999999999999999e-01	 3.562499999999999e+00	 8.795942688307694e+00
0	 5.000000000000000e-01	 3.624999999999999e+00	 8.827703774769228e+00
0	 4.999999999999999e-01	 3.687499999999998e+00	 8.859407030461540e+00
0	 4.999999999999999e-01	 3.750000000000000e+00	 8.891052455384623e+00
0	 5.624999999999999e-01	 3.125000000000000e+00	 8.589250164615388e+00
0	 5.624999999999999e-01	 3.187500000000000e+00	 8.629929014384608e+00
0	 5.624999999999999e-01	 3.250000000000000e+00	 8.669208214153842e+00
0	 5.625000000000001e-01	 3.312500000000000e+00	 8.707087763923068e+00
0	 5.625000000000000e-01	 3.375000000000000e+00	 8.743567663692305e+00
0	 5.624999999999999e-01	 3.437499999999998e+00	 8.778647913461532e+00
0	 5.624999999999999e-01	 3.499999999999999e+00	 8.812328513230767e+00
0	 5.625000000000000e-01	 3.562499999999999e+00	 8.844609462999999e+00
0	 5.625000000000000e-01	 3.624999999999998e+00	 8.875490762769227e+00
0	 5.625000000000000e-01	 3.687499999999998e+00	 8.904972412538454e+00
0	 5.624999999999999e-01	 3.750000000000000e+00	 8.933054412307690e+00
0	 6.250000000000000e-01	 3.125000000000000e+00	 8.628842476923078e+00
0	 6.250000000000000e-01	 3.187500000000000e+00	 8.675932293076912e+00
0	 6.250000000000001e-01	 3.250000000000000e+00	 8.720280640000000e+00
0	 6.249999999999999e-01	 3.312499999999999e+00	 8.761887517692308e+00
0	 6.250000000000000e-01	 3.374999999999999e+00	 8.800752926153844e+00
0	 6.250000000000000e-01	 3.437499999999999e+00	 8.836876865384614e+00
0	 6.250000000000000e-01	 3.499999999999999e+00	 8.870259335384617e+00
0	 6.249999999999999e-01	 3.562499999999998e+00	 8.900900336153848e+00
0	 6.250000000000000e-01	 3.624999999999999e+00	 8.928799867692309e+00
0	 6.250000000000000e-01	 3.687499999999998e+00	 8.953957929999993e+00
0	 6.250000000000000e-01	 3.750000000000000e+00	 8.976374523076924e+00
0	 0.000000000000000e+00	 3.750000000000000e+00	 8.602490338461530e+00
0	 0.000000000000000e+00	 3.812500000000000e+00	 8.678210787076914e+00
0	 0.000000000000000e+00	 3.874999999999999e+00	 8.750219812923076e+00
0	 0.000000000000000e+00	 3.937500000000000e+00	 8.818517415999990e+00
0	 0.000000000000000e+00	 4.000000000000000e+00	 8.883103596307683e+00
0	 0.000000000000000e+00	 4.062499999999999e+00	 8.943978353846154e+00
0	 0.000000000000000e+00	 4.124999999999999e+00	 9.001141688615375e+00
0	 0.000000000000000e+00	 4.187499999999999e+00	 9.054593600615378e+00
0	 0.000000000000000e+00	 4.249999999999998e+00	 9.104334089846152e+00
0	 0.000000000000000e+00	 4.312499999999998e+00	 9.150363156307691e+00
0	 0.000000000000000e+00	 4.375000000000000e+00	 9.192680800000002e+00
0	 6.250000000000000e-02	 3.750000000000001e+00	 8.633947064615379e+00
0	 6.249999999999999e-02	 3.812500000000000e+00	 8.702997198399993e+00
0	 6.249999999999998e-02	 3.874999999999999e+00	 8.768886472369225e+00
0	 6.250000000000000e-02	 3.937499999999999e+00	 8.831614886523077e+00
0	 6.250000000000000e-02	 3.999999999999999e+00	 8.891182440861529e+00
0	 6.249999999999997e-02	 4.062499999999998e+00	 8.947589135384607e+00
0	 6.249999999999999e-02	 4.124999999999999e+00	 9.000834970092313e+00
0	 6.249999999999999e-02	 4.187499999999998e+00	 9.050919944984610e+00
0	 6.249999999999999e-02	 4.249999999999999e+00	 9.097844060061529e+00
0	 6.249999999999999e-02	 4.312499999999998e+00	 9.141607315323075e+00
0	 6.250000000000000e-02	 4.375000000000000e+00	 9.182209710769232e+00
0	 1.250000000000000e-01	 3.750000000000000e+00	 8.666721944615375e+00
0	 1.250000000000000e-01	 3.812500000000000e+00	 8.729361431261530e+00
0	 1.250000000000000e-01	 3.875000000000000e+00	 8.789390621046149e+00
0	 1.250000000000000e-01	 3.937499999999999e+00	 8.846809513969228e+00
0	 1.250000000000000e-01	 3.999999999999999e+00	 8.901618110030764e+00
0	 1.250000000000000e-01	 4.062499999999999e+00	 8.953816409230763e+00
0	 1.250000000000000e-01	 4.124999999999997e+00	 9.003404411569226e+00
0	 1.250000000000000e-01	 4.187499999999997e+00	 9.050382117046157e+00
0	 1.250000000000000e-01	 4.249999999999999e+00	 9.094749525661532e+00
0	 1.250000000000000e-01	 4.312499999999999e+00	 9.136506637415380e+00
0	 1.250000000000000e-01	 4.375000000000001e+00	 9.175653452307685e+00
0	 1.875000000000000e-01	 3.750000000000000e+00	 8.700814978461535e+00
0	 1.875000000000000e-01	 3.812500000000000e+00	 8.757303485661541e+00
0	 1.875000000000000e-01	 3.875000000000000e+00	 8.811732258953848e+00
0	 1.875000000000000e-01	 3.937499999999999e+00	 8.864101298338454e+00
0	 1.875000000000000e-01	 3.999999999999998e+00	 8.914410603815380e+00
0	 1.875000000000000e-01	 4.062499999999999e+00	 8.962660175384608e+00
0	 1.875000000000000e-01	 4.124999999999999e+00	 9.008850013046153e+00
0	 1.875000000000000e-01	 4.187499999999999e+00	 9.052980116799999e+00
0	 1.875000000000001e-01	 4.249999999999999e+00	 9.095050486646146e+00
0	 1.875000000000000e-01	 4.312499999999998e+00	 9.135061122584611e+00
0	 1.875000000000000e-01	 4.375000000000001e+00	 9.173012024615394e+00
0	 2.500000000000000e-01	 3.750000000000000e+00	 8.736226166153852e+00
0	 2.500000000000001e-01	 3.812500000000001e+00	 8.786823361600000e+00
0	 2.500000000000001e-01	 3.875000000000000e+00	 8.835911386092310e+00
0	 2.500000000000000e-01	 3.937500000000000e+00	 8.883490239630770e+00
0	 2.500000000000000e-01	 3.999999999999999e+00	 8.929559922215381e+00
0	 2.499999999999999e-01	 4.062499999999999e+00	 8.974120433846149e+00
0	 2.500000000000000e-01	 4.124999999999998e+00	 9.017171774523074e+00
0	 2.500000000000000e-01	 4.187499999999997e+00	 9.058713944246144e+00
0	 2.500000000000000e-01	 4.249999999999998e+00	 9.098746943015383e+00
0	 2.499999999999999e-01	 4.312499999999997e+00	 9.137270770830755e+00
0	 2.500000000000000e-01	 4.375000000000000e+00	 9.174285427692293e+00
0	 3.125000000000000e-01	 3.750000000000000e+00	 8.772955507692306e+00
0	 3.125000000000000e-01	 3.812499999999999e+00	 8.817921059076916e+00
0	 3.125000000000001e-01	 3.875000000000000e+00	 8.861928002461541e+00
0	 3.125000000000000e-01	 3.937499999999999e+00	 8.904976337846154e+00
0	 3.125000000000001e-01	 3.999999999999999e+00	 8.947066065230766e+00
0	 3.125000000000000e-01	 4.062499999999999e+00	 8.988197184615384e+00
0	 3.125000000000000e-01	 4.124999999999999e+00	 9.028369695999992e+00
0	 3.125000000000000e-01	 4.187499999999998e+00	 9.067583599384607e+00
0	 3.125000000000000e-01	 4.249999999999998e+00	 9.105838894769223e+00
0	 3.125000000000000e-01	 4.312499999999998e+00	 9.143135582153832e+00
0	 3.125000000000000e-01	 4.375000000000000e+00	 9.179473661538459e+00
0	 3.750000000000000e-01	 3.750000000000000e+00	 8.811003003076932e+00
0	 3.749999999999999e-01	 3.812500000000000e+00	 8.850596578092301e+00
0	 3.750000000000001e-01	 3.875000000000000e+00	 8.889782108061535e+00
0	 3.749999999999999e-01	 3.937499999999999e+00	 8.928559592984609e+00
0	 3.750000000000000e-01	 4.000000000000000e+00	 8.966929032861529e+00
0	 3.750000000000001e-01	 4.062500000000000e+00	 9.004890427692303e+00
0	 3.749999999999999e-01	 4.124999999999998e+00	 9.042443777476917e+00
0	 3.749999999999999e-01	 4.187499999999999e+00	 9.079589082215382e+00
0	 3.750000000000001e-01	 4.249999999999999e+00	 9.116326341907687e+00
0	 3.750000000000001e-01	 4.312499999999998e+00	 9.152655556553839e+00
0	 3.750000000000000e-01	 4.375000000000001e+00	 9.188576726153824e+00
0	 4.374999999999999e-01	 3.750000000000000e+00	 8.850368652307695e+00
0	 4.374999999999999e-01	 3.812500000000000e+00	 8.884849918646148e+00
0	 4.375000000000000e-01	 3.875000000000000e+00	 8.919473702892308e+00
0	 4.375000000000001e-01	 3.937499999999999e+00	 8.954240005046156e+00
0	 4.375000000000000e-01	 4.000000000000000e+00	 8.989148825107689e+00
0	 4.375000000000000e-01	 4.062499999999999e+00	 9.024200163076927e+00
0	 4.375000000000000e-01	 4.124999999999999e+00	 9.059394018953848e+00
0	 4.375000000000000e-01	 4.187499999999998e+00	 9.094730392738466e+00
0	 4.374999999999999e-01	 4.249999999999998e+00	 9.130209284430757e+00
0	 4.375000000000000e-01	 4.312499999999998e+00	 9.165830694030754e+00
0	 4.374999999999999e-01	 4.375000000000000e+00	 9.201594621538465e+00
0	 4.999999999999999e-01	 3.750000000000000e+00	 8.891052455384623e+00
0	 4.999999999999999e-01	 3.812499999999999e+00	 8.920681080738458e+00
0	 4.999999999999999e-01	 3.875000000000000e+00	 8.951002786953845e+00
0	 4.999999999999998e-01	 3.937499999999998e+00	 8.982017574030767e+00
0	 5.000000000000000e-01	 3.999999999999999e+00	 9.013725441969228e+00
0	 4.999999999999999e-01	 4.062499999999998e+00	 9.046126390769221e+00
0	 4.999999999999999e-01	 4.124999999999998e+00	 9.079220420430762e+00
0	 4.999999999999999e-01	 4.187499999999998e+00	 9.113007530953846e+00
0	 5.000000000000000e-01	 4.249999999999998e+00	 9.147487722338465e+00
0	 4.999999999999999e-01	 4.312499999999997e+00	 9.182660994584605e+00
0	 4.999999999999999e-01	 4.375000000000000e+00	 9.218527347692303e+00
0	 5.624999999999999e-01	 3.750000000000000e+00	 8.933054412307690e+00
0	 5.624999999999999e-01	 3.812500000000000e+00	 8.958090064369234e+00
0	 5.624999999999999e-01	 3.874999999999999e+00	 8.984369360246165e+00
0	 5.625000000000001e-01	 3.937500000000000e+00	 9.011892299938459e+00
0	 5.625000000000000e-01	 3.999999999999999e+00	 9.040658883446152e+00
0	 5.624999999999999e-01	 4.062499999999998e+00	 9.070669110769224e+00
0	 5.624999999999999e-01	 4.124999999999998e+00	 9.101922981907691e+00
0	 5.625000000000000e-01	 4.187499999999998e+00	 9.134420496861532e+00
0	 5.625000000000000e-01	 4.249999999999998e+00	 9.168161655630765e+00
0	 5.625000000000000e-01	 4.312499999999998e+00	 9.203146458215393e+00
0	 5.624999999999999e-01	 4.375000000000000e+00	 9.239374904615376e+00
0	 6.250000000000000e-01	 3.750000000000000e+00	 8.976374523076924e+00
0	 6.250000000000000e-01	 3.812500000000000e+00	 8.997076869538470e+00
0	 6.250000000000001e-01	 3.875000000000000e+00	 9.019573422769234e+00
0	 6.249999999999999e-01	 3.937499999999999e+00	 9.043864182769221e+00
0	 6.250000000000000e-01	 4.000000000000000e+00	 9.069949149538461e+00
0	 6.250000000000000e-01	 4.062499999999999e+00	 9.097828323076925e+00
0	 6.250000000000000e-01	 4.124999999999999e+00	 9.127501703384612e+00
0	 6.249999999999999e-01	 4.187499999999998e+00	 9.158969290461529e+00
0	 6.250000000000000e-01	 4.249999999999998e+00	 9.192231084307695e+00
0	 6.250000000000000e-01	 4.312499999999998e+00	 9.227287084923068e+00
0	 6.250000000000000e-01	 4.375000000000000e+00	 9.264137292307685e+00
0	 0.000000000000000e+00	 4.375000000000000e+00	 9.192680800000002e+00
0	 0.000000000000000e+00	 4.437500000000000e+00	 9.205827961846152e+00
0	 0.000000000000000e+00	 4.500000000000000e+00	 9.220784967384617e+00
0	 0.000000000000000e+00	 4.562499999999999e+00	 9.237551816615390e+00
0	 0.000000000000000e+00	 4.625000000000000e+00	 9.256128509538458e+00
0	 0.000000000000000e+00	 4.687499999999999e+00	 9.276515046153840e+00
0	 0.000000000000000e+00	 4.749999999999998e+00	 9.298711426461541e+00
0	 0.000000000000000e+00	 4.812499999999999e+00	 9.322717650461549e+00
0	 0.000000000000000e+00	 4.874999999999998e+00	 9.348533718153851e+00
0	 0.000000000000000e+00	 4.937499999999998e+00	 9.376159629538460e+00
0	 0.000000000000000e+00	 5.000000000000000e+00	 9.405595384615388e+00
0	 6.250000000000000e-02	 4.375000000000000e+00	 9.182209710769232e+00
0	 6.249999999999999e-02	 4.437499999999999e+00	 9.197173620184607e+00
0	 6.249999999999998e-02	 4.499999999999999e+00	 9.213719285046151e+00
0	 6.250000000000000e-02	 4.562500000000000e+00	 9.231846705353846e+00
0	 6.250000000000000e-02	 4.624999999999999e+00	 9.251555881107686e+00
0	 6.249999999999997e-02	 4.687499999999998e+00	 9.272846812307696e+00
0	 6.249999999999999e-02	 4.749999999999999e+00	 9.295719498953842e+00
0	 6.249999999999999e-02	 4.812499999999997e+00	 9.320173941046155e+00
0	 6.249999999999999e-02	 4.874999999999998e+00	 9.346210138584606e+00
0	 6.249999999999999e-02	 4.937499999999996e+00	 9.373828091569230e+00
0	 6.250000000000000e-02	 5.000000000000001e+00	 9.403027800000007e+00
0	 1.250000000000000e-01	 4.375000000000001e+00	 9.175653452307685e+00
0	 1.250000000000000e-01	 4.437499999999999e+00	 9.192213016984619e+00
0	 1.250000000000000e-01	 4.500000000000001e+00	 9.210126248861544e+00
0	 1.250000000000000e-01	 4.562499999999999e+00	 9.229393147938458e+00
0	 1.250000000000000e-01	 4.624999999999998e+00	 9.250013714215381e+00
0	 1.250000000000000e-01	 4.687499999999997e+00	 9.271987947692310e+00
0	 1.250000000000000e-01	 4.749999999999998e+00	 9.295315848369228e+00
0	 1.250000000000000e-01	 4.812499999999998e+00	 9.319997416246158e+00
0	 1.250000000000000e-01	 4.875000000000000e+00	 9.346032651323087e+00
0	 1.250000000000000e-01	 4.937499999999998e+00	 9.373421553599986e+00
0	 1.250000000000000e-01	 5.000000000000000e+00	 9.402164123076926e+00
0	 1.875000000000000e-01	 4.375000000000001e+00	 9.173012024615394e+00
0	 1.875000000000000e-01	 4.437500000000000e+00	 9.190946152246150e+00
0	 1.875000000000000e-01	 4.499999999999999e+00	 9.210005858830765e+00
0	 1.875000000000000e-01	 4.562500000000000e+00	 9.230191144369229e+00
0	 1.875000000000000e-01	 4.624999999999998e+00	 9.251502008861536e+00
0	 1.875000000000000e-01	 4.687500000000000e+00	 9.273938452307686e+00
0	 1.875000000000000e-01	 4.749999999999998e+00	 9.297500474707693e+00
0	 1.875000000000000e-01	 4.812499999999999e+00	 9.322188076061547e+00
0	 1.875000000000001e-01	 4.874999999999998e+00	 9.348001256369233e+00
0	 1.875000000000000e-01	 4.937499999999997e+00	 9.374940015630759e+00
0	 1.875000000000000e-01	 5.000000000000000e+00	 9.403004353846162e+00
0	 2.500000000000000e-01	 4.375000000000000e+00	 9.174285427692293e+00
0	 2.500000000000001e-01	 4.437500000000001e+00	 9.193373025969219e+00
0	 2.500000000000001e-01	 4.500000000000000e+00	 9.213358114953847e+00
0	 2.500000000000000e-01	 4.562499999999999e+00	 9.234240694646143e+00
0	 2.500000000000000e-01	 4.624999999999999e+00	 9.256020765046161e+00
0	 2.499999999999999e-01	 4.687499999999998e+00	 9.278698326153840e+00
0	 2.500000000000000e-01	 4.749999999999998e+00	 9.302273377969227e+00
0	 2.500000000000000e-01	 4.812499999999997e+00	 9.326745920492302e+00
0	 2.500000000000000e-01	 4.874999999999998e+00	 9.352115953723075e+00
0	 2.499999999999999e-01	 4.937499999999997e+00	 9.378383477661533e+00
0	 2.500000000000000e-01	 5.000000000000000e+00	 9.405548492307698e+00
0	 3.125000000000000e-01	 4.375000000000000e+00	 9.179473661538459e+00
0	 3.125000000000000e-01	 4.437499999999999e+00	 9.199493638153836e+00
0	 3.125000000000001e-01	 4.500000000000000e+00	 9.220183017230774e+00
0	 3.125000000000000e-01	 4.562499999999999e+00	 9.241541798769227e+00
0	 3.125000000000001e-01	 4.625000000000000e+00	 9.263569982769230e+00
0	 3.125000000000000e-01	 4.687499999999999e+00	 9.286267569230777e+00
0	 3.125000000000000e-01	 4.749999999999998e+00	 9.309634558153844e+00
0	 3.125000000000000e-01	 4.812499999999998e+00	 9.333670949538455e+00
0	 3.125000000000000e-01	 4.874999999999998e+00	 9.358376743384619e+00
0	 3.125000000000000e-01	 4.937499999999998e+00	 9.383751939692301e+00
0	 3.125000000000000e-01	 5.000000000000000e+00	 9.409796538461537e+00
0	 3.750000000000000e-01	 4.375000000000001e+00	 9.188576726153824e+00
0	 3.749999999999999e-01	 4.437499999999999e+00	 9.209307988799992e+00
0	 3.750000000000001e-01	 4.500000000000000e+00	 9.230480565661535e+00
0	 3.749999999999999e-01	 4.562499999999999e+00	 9.252094456738455e+00
0	 3.750000000000000e-01	 4.624999999999999e+00	 9.274149662030769e+00
0	 3.750000000000001e-01	 4.687499999999998e+00	 9.296646181538465e+00
0	 3.749999999999999e-01	 4.749999999999998e+00	 9.319584015261535e+00
0	 3.749999999999999e-01	 4.812499999999999e+00	 9.342963163200007e+00
0	 3.750000000000001e-01	 4.874999999999999e+00	 9.366783625353854e+00
0	 3.750000000000001e-01	 4.937499999999999e+00	 9.391045401723064e+00
0	 3.750000000000000e-01	 5.000000000000001e+00	 9.415748492307705e+00
0	 4.374999999999999e-01	 4.375000000000000e+00	 9.201594621538465e+00
0	 4.374999999999999e-01	 4.437499999999998e+00	 9.222816077907687e+00
0	 4.375000000000000e-01	 4.500000000000000e+00	 9.244250760246153e+00
0	 4.375000000000001e-01	 4.562500000000000e+00	 9.265898668553845e+00
0	 4.375000000000000e-01	 4.624999999999999e+00	 9.287759802830765e+00
0	 4.375000000000000e-01	 4.687499999999998e+00	 9.309834163076914e+00
0	 4.375000000000000e-01	 4.750000000000000e+00	 9.332121749292302e+00
0	 4.375000000000000e-01	 4.812499999999999e+00	 9.354622561476926e+00
0	 4.374999999999999e-01	 4.874999999999998e+00	 9.377336599630764e+00
0	 4.375000000000000e-01	 4.937499999999998e+00	 9.400263863753828e+00
0	 4.374999999999999e-01	 5.000000000000000e+00	 9.423404353846147e+00
0	 4.999999999999999e-01	 4.375000000000000e+00	 9.218527347692303e+00
0	 4.999999999999999e-01	 4.437500000000000e+00	 9.240017905476918e+00
0	 4.999999999999999e-01	 4.500000000000000e+00	 9.261493600984611e+00
0	 4.999999999999998e-01	 4.562499999999999e+00	 9.282954434215378e+00
0	 5.000000000000000e-01	 4.624999999999999e+00	 9.304400405169224e+00
0	 4.999999999999999e-01	 4.687499999999998e+00	 9.325831513846145e+00
0	 4.999999999999999e-01	 4.749999999999997e+00	 9.347247760246146e+00
0	 4.999999999999999e-01	 4.812500000000000e+00	 9.368649144369236e+00
0	 5.000000000000000e-01	 4.874999999999998e+00	 9.390035666215383e+00
0	 4.999999999999999e-01	 4.937499999999997e+00	 9.411407325784616e+00
0	 4.999999999999999e-01	 5.000000000000000e+00	 9.432764123076922e+00
0	 5.624999999999999e-01	 4.375000000000000e+00	 9.239374904615376e+00
0	 5.624999999999999e-01	 4.437500000000000e+00	 9.260913471507685e+00
0	 5.624999999999999e-01	 4.500000000000000e+00	 9.282209087876906e+00
0	 5.625000000000001e-01	 4.562500000000000e+00	 9.303261753723069e+00
0	 5.625000000000000e-01	 4.624999999999999e+00	 9.324071469046142e+00
0	 5.624999999999999e-01	 4.687499999999998e+00	 9.344638233846155e+00
0	 5.624999999999999e-01	 4.749999999999999e+00	 9.364962048123072e+00
0	 5.625000000000000e-01	 4.812499999999998e+00	 9.385042911876923e+00
0	 5.625000000000000e-01	 4.874999999999998e+00	 9.404880825107687e+00
0	 5.625000000000000e-01	 4.937499999999997e+00	 9.424475787815380e+00
0	 5.624999999999999e-01	 5.000000000000000e+00	 9.443827799999996e+00
0	 6.250000000000000e-01	 4.375000000000000e+00	 9.264137292307685e+00
0	 6.250000000000000e-01	 4.437499999999999e+00	 9.285502775999980e+00
0	 6.250000000000001e-01	 4.500000000000001e+00	 9.306397220923067e+00
0	 6.249999999999999e-01	 4.562499999999999e+00	 9.326820627076927e+00
0	 6.250000000000000e-01	 4.625000000000000e+00	 9.346772994461537e+00
0	 6.250000000000000e-01	 4.687499999999999e+00	 9.366254323076916e+00
0	 6.250000000000000e-01	 4.749999999999999e+00	 9.385264612923081e+00
0	 6.249999999999999e-01	 4.812499999999998e+00	 9.403803863999995e+00
0	 6.250000000000000e-01	 4.874999999999998e+00	 9.421872076307690e+00
0	 6.250000000000000e-01	 4.937499999999998e+00	 9.439469249846152e+00
0	 6.250000000000000e-01	 5.000000000000000e+00	 9.456595384615387e+00
0	 0.000000000000000e+00	 5.000000000000000e+00	 9.405595384615388e+00
0	 0.000000000000000e+00	 5.062500000000000e+00	 9.422549840000014e+00
0	 0.000000000000000e+00	 5.125000000000000e+00	 9.439250006153847e+00
0	 0.000000000000000e+00	 5.187499999999999e+00	 9.455695883076910e+00
0	 0.000000000000000e+00	 5.249999999999999e+00	 9.471887470769236e+00
0	 0.000000000000000e+00	 5.312499999999999e+00	 9.487824769230768e+00
0	 0.000000000000000e+00	 5.374999999999998e+00	 9.503507778461525e+00
0	 0.000000000000000e+00	 5.437499999999999e+00	 9.518936498461535e+00
0	 0.000000000000000e+00	 5.499999999999998e+00	 9.534110929230758e+00
0	 0.000000000000000e+00	 5.562499999999998e+00	 9.549031070769214e+00
0	 0.000000000000000e+00	 5.625000000000000e+00	 9.563696923076911e+00
0	 6.250000000000000e-02	 5.000000000000001e+00	 9.403027800000007e+00
0	 6.249999999999999e-02	 5.062499999999999e+00	 9.419910929076927e+00
0	 6.249999999999998e-02	 5.125000000000000e+00	 9.436601784000006e+00
0	 6.250000000000000e-02	 5.187500000000000e+00	 9.453100364769226e+00
0	 6.250000000000000e-02	 5.249999999999998e+00	 9.469406671384604e+00
0	 6.249999999999997e-02	 5.312499999999998e+00	 9.485520703846138e+00
0	 6.249999999999999e-02	 5.374999999999998e+00	 9.501442462153841e+00
0	 6.249999999999999e-02	 5.437499999999997e+00	 9.517171946307686e+00
0	 6.249999999999999e-02	 5.499999999999998e+00	 9.532709156307670e+00
0	 6.249999999999999e-02	 5.562499999999997e+00	 9.548054092153837e+00
0	 6.250000000000000e-02	 5.625000000000000e+00	 9.563206753846154e+00
0	 1.250000000000000e-01	 5.000000000000000e+00	 9.402164123076926e+00
0	 1.250000000000000e-01	 5.062499999999999e+00	 9.418912624307710e+00
0	 1.250000000000000e-01	 5.125000000000000e+00	 9.435530866461530e+00
0	 1.250000000000000e-01	 5.187499999999999e+00	 9.452018849538465e+00
0	 1.250000000000000e-01	 5.249999999999998e+00	 9.468376573538462e+00
0	 1.250000000000000e-01	 5.312499999999998e+00	 9.484604038461532e+00
0	 1.250000000000000e-01	 5.374999999999997e+00	 9.500701244307699e+00
0	 1.250000000000000e-01	 5.437499999999998e+00	 9.516668191076917e+00
0	 1.250000000000000e-01	 5.499999999999998e+00	 9.532504878769236e+00
0	 1.250000000000000e-01	 5.562499999999998e+00	 9.548211307384603e+00
0	 1.250000000000000e-01	 5.625000000000000e+00	 9.563787476923066e+00
0	 1.875000000000000e-01	 5.000000000000000e+00	 9.403004353846162e+00
0	 1.875000000000000e-01	 5.062500000000000e+00	 9.419554925692312e+00
0	 1.875000000000000e-01	 5.124999999999999e+00	 9.436037253538457e+00
0	 1.875000000000000e-01	 5.187500000000000e+00	 9.452451337384616e+00
0	 1.875000000000000e-01	 5.249999999999999e+00	 9.468797177230760e+00
0	 1.875000000000000e-01	 5.312500000000000e+00	 9.485074773076921e+00
0	 1.875000000000000e-01	 5.374999999999998e+00	 9.501284124923073e+00
0	 1.875000000000000e-01	 5.437499999999999e+00	 9.517425232769224e+00
0	 1.875000000000001e-01	 5.499999999999997e+00	 9.533498096615375e+00
0	 1.875000000000000e-01	 5.562499999999998e+00	 9.549502716461530e+00
0	 1.875000000000000e-01	 5.625000000000001e+00	 9.565439092307669e+00
0	 2.500000000000000e-01	 5.000000000000000e+00	 9.405548492307698e+00
0	 2.500000000000001e-01	 5.062500000000000e+00	 9.421837833230773e+00
0	 2.500000000000001e-01	 5.125000000000001e+00	 9.438120945230771e+00
0	 2.500000000000000e-01	 5.187499999999999e+00	 9.454397828307693e+00
0	 2.500000000000000e-01	 5.249999999999999e+00	 9.470668482461541e+00
0	 2.499999999999999e-01	 5.312499999999997e+00	 9.486932907692296e+00
0	 2.500000000000000e-01	 5.374999999999999e+00	 9.503191103999997e+00
0	 2.500000000000000e-01	 5.437499999999996e+00	 9.519443071384611e+00
0	 2.500000000000000e-01	 5.499999999999999e+00	 9.535688809846148e+00
0	 2.499999999999999e-01	 5.562499999999996e+00	 9.551928319384597e+00
0	 2.500000000000000e-01	 5.625000000000001e+00	 9.568161599999989e+00
0	 3.125000000000000e-01	 5.000000000000000e+00	 9.409796538461537e+00
0	 3.125000000000000e-01	 5.062499999999999e+00	 9.425761346923075e+00
0	 3.125000000000001e-01	 5.125000000000000e+00	 9.441781941538464e+00
0	 3.125000000000000e-01	 5.187499999999999e+00	 9.457858322307695e+00
0	 3.125000000000001e-01	 5.250000000000001e+00	 9.473990489230765e+00
0	 3.125000000000000e-01	 5.312499999999999e+00	 9.490178442307688e+00
0	 3.125000000000000e-01	 5.375000000000000e+00	 9.506422181538458e+00
0	 3.125000000000000e-01	 5.437499999999998e+00	 9.522721706923072e+00
0	 3.125000000000000e-01	 5.499999999999997e+00	 9.539077018461533e+00
0	 3.125000000000000e-01	 5.562499999999997e+00	 9.555488116153846e+00
0	 3.125000000000000e-01	 5.625000000000000e+00	 9.571954999999985e+00
0	 3.750000000000000e-01	 5.000000000000001e+00	 9.415748492307705e+00
0	 3.749999999999999e-01	 5.062500000000000e+00	 9.431325466769227e+00
0	 3.750000000000001e-01	 5.125000000000000e+00	 9.447020242461541e+00
0	 3.749999999999999e-01	 5.187499999999998e+00	 9.462832819384614e+00
0	 3.750000000000000e-01	 5.250000000000001e+00	 9.478763197538466e+00
0	 3.750000000000001e-01	 5.312500000000001e+00	 9.494811376923074e+00
0	 3.749999999999999e-01	 5.374999999999998e+00	 9.510977357538451e+00
0	 3.749999999999999e-01	 5.437499999999999e+00	 9.527261139384608e+00
0	 3.750000000000001e-01	 5.499999999999999e+00	 9.543662722461541e+00
0	 3.750000000000001e-01	 5.562500000000000e+00	 9.560182106769227e+00
0	 3.750000000000000e-01	 5.625000000000001e+00	 9.576819292307677e+00
0	 4.374999999999999e-01	 5.000000000000000e+00	 9.423404353846147e+00
0	 4.374999999999999e-01	 5.062500000000000e+00	 9.438530192769230e+00
0	 4.375000000000000e-01	 5.124999999999999e+00	 9.453835848000001e+00
0	 4.375000000000001e-01	 5.187500000000000e+00	 9.469321319538464e+00
0	 4.375000000000000e-01	 5.250000000000000e+00	 9.484986607384608e+00
0	 4.375000000000000e-01	 5.312499999999998e+00	 9.500831711538446e+00
0	 4.375000000000000e-01	 5.374999999999998e+00	 9.516856631999993e+00
0	 4.375000000000000e-01	 5.437499999999999e+00	 9.533061368769220e+00
0	 4.374999999999999e-01	 5.499999999999998e+00	 9.549445921846139e+00
0	 4.375000000000000e-01	 5.562499999999998e+00	 9.566010291230770e+00
0	 4.374999999999999e-01	 5.625000000000000e+00	 9.582754476923068e+00
0	 4.999999999999999e-01	 5.000000000000000e+00	 9.432764123076922e+00
0	 4.999999999999999e-01	 5.062499999999999e+00	 9.447375524923075e+00
0	 4.999999999999999e-01	 5.124999999999999e+00	 9.462228758153845e+00
0	 4.999999999999998e-01	 5.187499999999999e+00	 9.477323822769229e+00
0	 5.000000000000000e-01	 5.250000000000000e+00	 9.492660718769226e+00
0	 4.999999999999999e-01	 5.312499999999998e+00	 9.508239446153842e+00
0	 4.999999999999999e-01	 5.374999999999998e+00	 9.524060004923072e+00
0	 4.999999999999999e-01	 5.437499999999999e+00	 9.540122395076923e+00
0	 5.000000000000000e-01	 5.499999999999998e+00	 9.556426616615390e+00
0	 4.999999999999999e-01	 5.562499999999998e+00	 9.572972669538467e+00
0	 4.999999999999999e-01	 5.625000000000001e+00	 9.589760553846151e+00
0	 5.624999999999999e-01	 5.000000000000000e+00	 9.443827799999996e+00
0	 5.624999999999999e-01	 5.062500000000000e+00	 9.457861463230779e+00
0	 5.624999999999999e-01	 5.125000000000000e+00	 9.472198972923074e+00
0	 5.625000000000001e-01	 5.187500000000001e+00	 9.486840329076927e+00
0	 5.625000000000000e-01	 5.249999999999999e+00	 9.501785531692303e+00
0	 5.624999999999999e-01	 5.312499999999998e+00	 9.517034580769225e+00
0	 5.624999999999999e-01	 5.374999999999998e+00	 9.532587476307690e+00
0	 5.625000000000000e-01	 5.437499999999999e+00	 9.548444218307679e+00
0	 5.625000000000000e-01	 5.499999999999999e+00	 9.564604806769225e+00
0	 5.625000000000000e-01	 5.562499999999997e+00	 9.581069241692305e+00
0	 5.624999999999999e-01	 5.625000000000000e+00	 9.597837523076921e+00
0	 6.250000000000000e-01	 5.000000000000000e+00	 9.456595384615387e+00
0	 6.250000000000000e-01	 5.062500000000000e+00	 9.469988007692308e+00
0	 6.250000000000001e-01	 5.125000000000001e+00	 9.483746492307702e+00
0	 6.249999999999999e-01	 5.187499999999999e+00	 9.497870838461532e+00
0	 6.250000000000000e-01	 5.249999999999999e+00	 9.512361046153845e+00
0	 6.250000000000000e-01	 5.312499999999999e+00	 9.527217115384614e+00
0	 6.250000000000000e-01	 5.374999999999998e+00	 9.542439046153842e+00
0	 6.249999999999999e-01	 5.437499999999998e+00	 9.558026838461537e+00
0	 6.250000000000000e-01	 5.499999999999998e+00	 9.573980492307687e+00
0	 6.250000000000000e-01	 5.562499999999998e+00	 9.590300007692306e+00
0	 6.250000000000000e-01	 5.625000000000000e+00	 9.606985384615378e+00
0	 0.000000000000000e+00	 5.625000000000000e+00	 9.563696923076911e+00
0	 0.000000000000000e+00	 5.687499999999999e+00	 9.575760067692302e+00
0	 0.000000000000000e+00	 5.749999999999999e+00	 9.588093009230747e+00
0	 0.000000000000000e+00	 5.812499999999999e+00	 9.600695747692308e+00
0	 0.000000000000000e+00	 5.874999999999999e+00	 9.613568283076916e+00
0	 0.000000000000000e+00	 5.937499999999998e+00	 9.626710615384615e+00
0	 0.000000000000000e+00	 5.999999999999998e+00	 9.640122744615390e+00
0	 0.000000000000000e+00	 6.062499999999999e+00	 9.653804670769219e+00
0	 0.000000000000000e+00	 6.124999999999998e+00	 9.667756393846137e+00
0	 0.000000000000000e+00	 6.187499999999998e+00	 9.681977913846158e+00
0	 0.000000000000000e+00	 6.250000000000000e+00	 9.696469230769225e+00
0	 6.250000000000000e-02	 5.625000000000000e+00	 9.563206753846154e+00
0	 6.249999999999999e-02	 5.687499999999998e+00	 9.575264334923077e+00
0	 6.249999999999998e-02	 5.749999999999999e+00	 9.587569558153831e+00
0	 6.250000000000000e-02	 5.812499999999999e+00	 9.600122423538451e+00
0	 6.250000000000000e-02	 5.874999999999998e+00	 9.612922931076918e+00
0	 6.249999999999997e-02	 5.937499999999998e+00	 9.625971080769226e+00
0	 6.249999999999999e-02	 5.999999999999999e+00	 9.639266872615377e+00
0	 6.249999999999999e-02	 6.062499999999996e+00	 9.652810306615379e+00
0	 6.249999999999999e-02	 6.124999999999998e+00	 9.666601382769242e+00
0	 6.249999999999999e-02	 6.187499999999997e+00	 9.680640101076893e+00
0	 6.250000000000000e-02	 6.250000000000000e+00	 9.694926461538437e+00
0	 1.250000000000000e-01	 5.625000000000000e+00	 9.563787476923066e+00
0	 1.250000000000000e-01	 5.687499999999998e+00	 9.575809555999996e+00
0	 1.250000000000000e-01	 5.750000000000001e+00	 9.588057122461521e+00
0	 1.250000000000000e-01	 5.812499999999999e+00	 9.600530176307693e+00
0	 1.250000000000000e-01	 5.874999999999998e+00	 9.613228717538462e+00
0	 1.250000000000000e-01	 5.937499999999999e+00	 9.626152746153842e+00
0	 1.250000000000000e-01	 5.999999999999997e+00	 9.639302262153841e+00
0	 1.250000000000000e-01	 6.062499999999997e+00	 9.652677265538449e+00
0	 1.250000000000000e-01	 6.125000000000000e+00	 9.666277756307686e+00
0	 1.250000000000000e-01	 6.187499999999998e+00	 9.680103734461539e+00
0	 1.250000000000000e-01	 6.250000000000000e+00	 9.694155199999980e+00
0	 1.875000000000000e-01	 5.625000000000001e+00	 9.565439092307669e+00
0	 1.875000000000000e-01	 5.687500000000000e+00	 9.577395730923069e+00
0	 1.875000000000000e-01	 5.749999999999999e+00	 9.589555702153840e+00
0	 1.875000000000000e-01	 5.812500000000001e+00	 9.601919005999996e+00
0	 1.875000000000000e-01	 5.874999999999999e+00	 9.614485642461537e+00
0	 1.875000000000000e-01	 5.937500000000000e+00	 9.627255611538454e+00
0	 1.875000000000000e-01	 5.999999999999998e+00	 9.640228913230761e+00
0	 1.875000000000000e-01	 6.062500000000000e+00	 9.653405547538460e+00
0	 1.875000000000001e-01	 6.125000000000000e+00	 9.666785514461532e+00
0	 1.875000000000000e-01	 6.187499999999997e+00	 9.680368814000001e+00
0	 1.875000000000000e-01	 6.250000000000001e+00	 9.694155446153855e+00
0	 2.500000000000000e-01	 5.625000000000001e+00	 9.568161599999989e+00
0	 2.500000000000001e-01	 5.687500000000000e+00	 9.580022859692303e+00
0	 2.500000000000001e-01	 5.750000000000000e+00	 9.592065297230771e+00
0	 2.500000000000000e-01	 5.812500000000000e+00	 9.604288912615370e+00
0	 2.500000000000000e-01	 5.874999999999999e+00	 9.616693705846147e+00
0	 2.499999999999999e-01	 5.937499999999999e+00	 9.629279676923069e+00
0	 2.500000000000000e-01	 5.999999999999997e+00	 9.642046825846146e+00
0	 2.500000000000000e-01	 6.062499999999998e+00	 9.654995152615378e+00
0	 2.500000000000000e-01	 6.124999999999999e+00	 9.668124657230766e+00
0	 2.499999999999999e-01	 6.187499999999996e+00	 9.681435339692312e+00
0	 2.500000000000000e-01	 6.250000000000000e+00	 9.694927199999992e+00
0	 3.125000000000000e-01	 5.625000000000000e+00	 9.571954999999985e+00
0	 3.125000000000000e-01	 5.687499999999999e+00	 9.583690942307687e+00
0	 3.125000000000001e-01	 5.750000000000000e+00	 9.595585907692294e+00
0	 3.125000000000000e-01	 5.812499999999998e+00	 9.607639896153843e+00
0	 3.125000000000001e-01	 5.875000000000000e+00	 9.619852907692312e+00
0	 3.125000000000000e-01	 5.937499999999999e+00	 9.632224942307689e+00
0	 3.125000000000000e-01	 5.999999999999998e+00	 9.644756000000005e+00
0	 3.125000000000000e-01	 6.062499999999997e+00	 9.657446080769226e+00
0	 3.125000000000000e-01	 6.124999999999998e+00	 9.670295184615377e+00
0	 3.125000000000000e-01	 6.187499999999999e+00	 9.683303311538475e+00
0	 3.125000000000000e-01	 6.250000000000000e+00	 9.696470461538460e+00
0	 3.750000000000000e-01	 5.625000000000001e+00	 9.576819292307677e+00
0	 3.749999999999999e-01	 5.687499999999999e+00	 9.588399978769216e+00
0	 3.750000000000001e-01	 5.750000000000001e+00	 9.600117533538466e+00
0	 3.749999999999999e-01	 5.812499999999999e+00	 9.611971956615383e+00
0	 3.750000000000000e-01	 5.875000000000000e+00	 9.623963247999999e+00
0	 3.750000000000001e-01	 5.937499999999999e+00	 9.636091407692311e+00
0	 3.749999999999999e-01	 5.999999999999998e+00	 9.648356435692305e+00
0	 3.749999999999999e-01	 6.062499999999998e+00	 9.660758331999993e+00
0	 3.750000000000001e-01	 6.124999999999998e+00	 9.673297096615386e+00
0	 3.750000000000001e-01	 6.187499999999999e+00	 9.685972729538454e+00
0	 3.750000000000000e-01	 6.250000000000001e+00	 9.698785230769225e+00
0	 4.374999999999999e-01	 5.625000000000000e+00	 9.582754476923068e+00
0	 4.374999999999999e-01	 5.687500000000000e+00	 9.594149969076913e+00
0	 4.375000000000000e-01	 5.750000000000000e+00	 9.605660174769227e+00
0	 4.375000000000001e-01	 5.812500000000000e+00	 9.617285094000005e+00
0	 4.375000000000000e-01	 5.874999999999999e+00	 9.629024726769234e+00
0	 4.375000000000000e-01	 5.937499999999999e+00	 9.640879073076929e+00
0	 4.375000000000000e-01	 6.000000000000000e+00	 9.652848132923070e+00
0	 4.375000000000000e-01	 6.062499999999998e+00	 9.664931906307691e+00
0	 4.374999999999999e-01	 6.124999999999998e+00	 9.677130393230767e+00
0	 4.375000000000000e-01	 6.187499999999997e+00	 9.689443593692323e+00
0	 4.374999999999999e-01	 6.250000000000000e+00	 9.701871507692312e+00
0	 4.999999999999999e-01	 5.625000000000001e+00	 9.589760553846151e+00
0	 4.999999999999999e-01	 5.687500000000000e+00	 9.600940913230762e+00
0	 4.999999999999999e-01	 5.750000000000000e+00	 9.612213831384619e+00
0	 4.999999999999998e-01	 5.812499999999998e+00	 9.623579308307697e+00
0	 5.000000000000000e-01	 5.874999999999999e+00	 9.635037344000001e+00
0	 4.999999999999999e-01	 5.937499999999998e+00	 9.646587938461536e+00
0	 4.999999999999999e-01	 5.999999999999998e+00	 9.658231091692304e+00
0	 4.999999999999999e-01	 6.062499999999998e+00	 9.669966803692315e+00
0	 5.000000000000000e-01	 6.124999999999999e+00	 9.681795074461538e+00
0	 4.999999999999999e-01	 6.187499999999997e+00	 9.693715904000001e+00
0	 4.999999999999999e-01	 6.250000000000001e+00	 9.705729292307696e+00
0	 5.624999999999999e-01	 5.625000000000000e+00	 9.597837523076921e+00
0	 5.624999999999999e-01	 5.687500000000000e+00	 9.608772811230768e+00
0	 5.624999999999999e-01	 5.749999999999999e+00	 9.619778503384588e+00
0	 5.625000000000001e-01	 5.812499999999999e+00	 9.630854599538459e+00
0	 5.625000000000000e-01	 5.874999999999999e+00	 9.642001099692305e+00
0	 5.624999999999999e-01	 5.937499999999997e+00	 9.653218003846144e+00
0	 5.624999999999999e-01	 5.999999999999998e+00	 9.664505311999996e+00
0	 5.625000000000000e-01	 6.062499999999999e+00	 9.675863024153850e+00
0	 5.625000000000000e-01	 6.124999999999998e+00	 9.687291140307691e+00
0	 5.625000000000000e-01	 6.187499999999998e+00	 9.698789660461541e+00
0	 5.624999999999999e-01	 6.250000000000000e+00	 9.710358584615374e+00
0	 6.250000000000000e-01	 5.625000000000000e+00	 9.606985384615378e+00
0	 6.250000000000000e-01	 5.687500000000000e+00	 9.617645663076917e+00
0	 6.250000000000001e-01	 5.750000000000000e+00	 9.628354190769228e+00
0	 6.249999999999999e-01	 5.812499999999999e+00	 9.639110967692309e+00
0	 6.250000000000000e-01	 5.874999999999999e+00	 9.649915993846150e+00
0	 6.250000000000000e-01	 5.937499999999999e+00	 9.660769269230775e+00
0	 6.250000000000000e-01	 5.999999999999998e+00	 9.671670793846159e+00
0	 6.249999999999999e-01	 6.062499999999998e+00	 9.682620567692313e+00
0	 6.250000000000000e-01	 6.124999999999998e+00	 9.693618590769230e+00
0	 6.250000000000000e-01	 6.187499999999998e+00	 9.704664863076935e+00
0	 6.250000000000000e-01	 6.250000000000000e+00	 9.715759384615389e+00
0	 0.000000000000000e+00	 6.250000000000000e+00	 9.696469230769225e+00
0	 0.000000000000000e+00	 6.312500000000001e+00	 9.705085249230763e+00
0	 0.000000000000000e+00	 6.374999999999999e+00	 9.713798412307693e+00
0	 0.000000000000000e+00	 6.437499999999999e+00	 9.722608719999982e+00
0	 0.000000000000000e+00	 6.499999999999999e+00	 9.731516172307698e+00
0	 0.000000000000000e+00	 6.562499999999999e+00	 9.740520769230779e+00
0	 0.000000000000000e+00	 6.624999999999998e+00	 9.749622510769212e+00
0	 0.000000000000000e+00	 6.687499999999999e+00	 9.758821396923082e+00
0	 0.000000000000000e+00	 6.749999999999998e+00	 9.768117427692324e+00
0	 0.000000000000000e+00	 6.812499999999998e+00	 9.777510603076921e+00
0	 0.000000000000000e+00	 6.875000000000000e+00	 9.787000923076935e+00
0	 6.250000000000000e-02	 6.250000000000000e+00	 9.694926461538437e+00
0	 6.249999999999999e-02	 6.312499999999999e+00	 9.703648984923047e+00
0	 6.249999999999998e-02	 6.374999999999999e+00	 9.712470419692290e+00
0	 6.250000000000000e-02	 6.437500000000000e+00	 9.721390765846154e+00
0	 6.250000000000000e-02	 6.499999999999997e+00	 9.730410023384607e+00
0	 6.249999999999997e-02	 6.562499999999997e+00	 9.739528192307681e+00
0	 6.249999999999999e-02	 6.624999999999998e+00	 9.748745272615391e+00
0	 6.249999999999999e-02	 6.687499999999997e+00	 9.758061264307711e+00
0	 6.249999999999999e-02	 6.749999999999999e+00	 9.767476167384604e+00
0	 6.249999999999999e-02	 6.812499999999997e+00	 9.776989981846166e+00
0	 6.250000000000000e-02	 6.875000000000001e+00	 9.786602707692332e+00
0	 1.250000000000000e-01	 6.250000000000000e+00	 9.694155199999980e+00
0	 1.250000000000000e-01	 6.312499999999998e+00	 9.702951446769227e+00
0	 1.250000000000000e-01	 6.375000000000000e+00	 9.711848371692295e+00
0	 1.250000000000000e-01	 6.437499999999999e+00	 9.720845974769224e+00
0	 1.250000000000000e-01	 6.499999999999998e+00	 9.729944255999996e+00
0	 1.250000000000000e-01	 6.562499999999998e+00	 9.739143215384619e+00
0	 1.250000000000000e-01	 6.624999999999998e+00	 9.748442852923075e+00
0	 1.250000000000000e-01	 6.687499999999996e+00	 9.757843168615393e+00
0	 1.250000000000000e-01	 6.750000000000000e+00	 9.767344162461544e+00
0	 1.250000000000000e-01	 6.812499999999997e+00	 9.776945834461545e+00
0	 1.250000000000000e-01	 6.874999999999999e+00	 9.786648184615409e+00
0	 1.875000000000000e-01	 6.250000000000001e+00	 9.694155446153855e+00
0	 1.875000000000000e-01	 6.312500000000000e+00	 9.702992634769233e+00
0	 1.875000000000000e-01	 6.374999999999999e+00	 9.711932268307692e+00
0	 1.875000000000000e-01	 6.437499999999998e+00	 9.720974346769225e+00
0	 1.875000000000000e-01	 6.499999999999998e+00	 9.730118870153836e+00
0	 1.875000000000000e-01	 6.562499999999998e+00	 9.739365838461543e+00
0	 1.875000000000000e-01	 6.624999999999998e+00	 9.748715251692314e+00
0	 1.875000000000000e-01	 6.687499999999998e+00	 9.758167109846152e+00
0	 1.875000000000001e-01	 6.750000000000000e+00	 9.767721412923091e+00
0	 1.875000000000000e-01	 6.812499999999998e+00	 9.777378160923069e+00
0	 1.875000000000000e-01	 6.875000000000001e+00	 9.787137353846138e+00
0	 2.500000000000000e-01	 6.250000000000000e+00	 9.694927199999992e+00
0	 2.500000000000001e-01	 6.312500000000002e+00	 9.703772548923087e+00
0	 2.500000000000001e-01	 6.375000000000001e+00	 9.712722109538456e+00
0	 2.500000000000000e-01	 6.437500000000000e+00	 9.721775881846147e+00
0	 2.500000000000000e-01	 6.499999999999998e+00	 9.730933865846145e+00
0	 2.499999999999999e-01	 6.562499999999996e+00	 9.740196061538459e+00
0	 2.500000000000000e-01	 6.624999999999996e+00	 9.749562468923070e+00
0	 2.500000000000000e-01	 6.687499999999997e+00	 9.759033087999988e+00
0	 2.500000000000000e-01	 6.749999999999998e+00	 9.768607918769220e+00
0	 2.499999999999999e-01	 6.812499999999996e+00	 9.778286961230753e+00
0	 2.500000000000000e-01	 6.875000000000000e+00	 9.788070215384613e+00
0	 3.125000000000000e-01	 6.250000000000000e+00	 9.696470461538460e+00
0	 3.125000000000000e-01	 6.312499999999999e+00	 9.705291189230753e+00
0	 3.125000000000001e-01	 6.375000000000000e+00	 9.714217895384616e+00
0	 3.125000000000000e-01	 6.437499999999999e+00	 9.723250579999998e+00
0	 3.125000000000001e-01	 6.499999999999999e+00	 9.732389243076927e+00
0	 3.125000000000000e-01	 6.562500000000000e+00	 9.741633884615384e+00
0	 3.125000000000000e-01	 6.624999999999998e+00	 9.750984504615380e+00
0	 3.125000000000000e-01	 6.687499999999998e+00	 9.760441103076930e+00
0	 3.125000000000000e-01	 6.749999999999998e+00	 9.770003680000002e+00
0	 3.125000000000000e-01	 6.812499999999998e+00	 9.779672235384599e+00
0	 3.125000000000000e-01	 6.875000000000000e+00	 9.789446769230770e+00
0	 3.750000000000000e-01	 6.250000000000001e+00	 9.698785230769225e+00
0	 3.749999999999999e-01	 6.312499999999998e+00	 9.707548555692306e+00
0	 3.750000000000001e-01	 6.375000000000001e+00	 9.716419625846145e+00
0	 3.749999999999999e-01	 6.437500000000000e+00	 9.725398441230757e+00
0	 3.750000000000000e-01	 6.500000000000000e+00	 9.734485001846142e+00
0	 3.750000000000001e-01	 6.562499999999999e+00	 9.743679307692304e+00
0	 3.749999999999999e-01	 6.624999999999998e+00	 9.752981358769230e+00
0	 3.749999999999999e-01	 6.687499999999997e+00	 9.762391155076930e+00
0	 3.750000000000001e-01	 6.749999999999999e+00	 9.771908696615382e+00
0	 3.750000000000001e-01	 6.812499999999999e+00	 9.781533983384611e+00
0	 3.750000000000000e-01	 6.875000000000000e+00	 9.791267015384619e+00
0	 4.374999999999999e-01	 6.250000000000000e+00	 9.701871507692312e+00
0	 4.374999999999999e-01	 6.312499999999997e+00	 9.710544648307678e+00
0	 4.375000000000000e-01	 6.374999999999998e+00	 9.719327300923082e+00
0	 4.375000000000001e-01	 6.437500000000000e+00	 9.728219465538459e+00
0	 4.375000000000000e-01	 6.500000000000000e+00	 9.737221142153849e+00
0	 4.375000000000000e-01	 6.562499999999999e+00	 9.746332330769235e+00
0	 4.375000000000000e-01	 6.624999999999999e+00	 9.755553031384622e+00
0	 4.375000000000000e-01	 6.687499999999998e+00	 9.764883243999996e+00
0	 4.374999999999999e-01	 6.749999999999999e+00	 9.774322968615387e+00
0	 4.375000000000000e-01	 6.812499999999998e+00	 9.783872205230756e+00
0	 4.374999999999999e-01	 6.875000000000000e+00	 9.793530953846137e+00
0	 4.999999999999999e-01	 6.250000000000001e+00	 9.705729292307696e+00
0	 4.999999999999999e-01	 6.312499999999999e+00	 9.714279467076922e+00
0	 4.999999999999999e-01	 6.375000000000000e+00	 9.722940920615395e+00
0	 4.999999999999998e-01	 6.437499999999999e+00	 9.731713652923078e+00
0	 5.000000000000000e-01	 6.499999999999998e+00	 9.740597664000008e+00
0	 4.999999999999999e-01	 6.562499999999998e+00	 9.749592953846147e+00
0	 4.999999999999999e-01	 6.624999999999997e+00	 9.758699522461535e+00
0	 4.999999999999999e-01	 6.687499999999998e+00	 9.767917369846154e+00
0	 5.000000000000000e-01	 6.749999999999999e+00	 9.777246496000011e+00
0	 4.999999999999999e-01	 6.812499999999998e+00	 9.786686900923053e+00
0	 4.999999999999999e-01	 6.875000000000000e+00	 9.796238584615379e+00
0	 5.624999999999999e-01	 6.250000000000000e+00	 9.710358584615374e+00
0	 5.624999999999999e-01	 6.312499999999999e+00	 9.718753012000001e+00
0	 5.624999999999999e-01	 6.375000000000000e+00	 9.727260484923079e+00
0	 5.625000000000001e-01	 6.437500000000000e+00	 9.735881003384614e+00
0	 5.625000000000000e-01	 6.500000000000000e+00	 9.744614567384616e+00
0	 5.624999999999999e-01	 6.562499999999998e+00	 9.753461176923082e+00
0	 5.624999999999999e-01	 6.624999999999998e+00	 9.762420831999993e+00
0	 5.625000000000000e-01	 6.687500000000000e+00	 9.771493532615379e+00
0	 5.625000000000000e-01	 6.749999999999998e+00	 9.780679278769215e+00
0	 5.625000000000000e-01	 6.812499999999998e+00	 9.789978070461515e+00
0	 5.624999999999999e-01	 6.875000000000000e+00	 9.799389907692312e+00
0	 6.250000000000000e-01	 6.250000000000000e+00	 9.715759384615389e+00
0	 6.250000000000000e-01	 6.312500000000000e+00	 9.723965283076922e+00
0	 6.250000000000001e-01	 6.375000000000000e+00	 9.732285993846167e+00
0	 6.249999999999999e-01	 6.437499999999999e+00	 9.740721516923070e+00
0	 6.250000000000000e-01	 6.499999999999999e+00	 9.749271852307693e+00
0	 6.250000000000000e-01	 6.562499999999998e+00	 9.757937000000004e+00
0	 6.250000000000000e-01	 6.624999999999998e+00	 9.766716959999981e+00
0	 6.249999999999999e-01	 6.687499999999998e+00	 9.775611732307695e+00
0	 6.250000000000000e-01	 6.749999999999998e+00	 9.784621316923078e+00
0	 6.250000000000000e-01	 6.812499999999998e+00	 9.793745713846160e+00
0	 6.250000000000000e-01	 6.875000000000000e+00	 9.802984923076917e+00
0	 0.000000000000000e+00	 6.875000000000000e+00	 9.787000923076935e+00
0	 0.000000000000000e+00	 6.937500000000000e+00	 9.794023886153862e+00
0	 0.000000000000000e+00	 6.999999999999999e+00	 9.801158375384617e+00
0	 0.000000000000000e+00	 7.062499999999999e+00	 9.808404390769246e+00
0	 0.000000000000000e+00	 7.125000000000000e+00	 9.815761932307698e+00
0	 0.000000000000000e+00	 7.187499999999998e+00	 9.823231000000016e+00
0	 0.000000000000000e+00	 7.249999999999999e+00	 9.830811593846173e+00
0	 0.000000000000000e+00	 7.312499999999999e+00	 9.838503713846160e+00
0	 0.000000000000000e+00	 7.374999999999998e+00	 9.846307359999997e+00
0	 0.000000000000000e+00	 7.437499999999998e+00	 9.854222532307711e+00
0	 0.000000000000000e+00	 7.500000000000000e+00	 9.862249230769240e+00
0	 6.250000000000000e-02	 6.875000000000001e+00	 9.786602707692332e+00
0	 6.249999999999999e-02	 6.937499999999998e+00	 9.793614687999998e+00
0	 6.249999999999998e-02	 6.999999999999998e+00	 9.800736555076940e+00
0	 6.250000000000000e-02	 7.062499999999998e+00	 9.807968308923082e+00
0	 6.250000000000000e-02	 7.124999999999996e+00	 9.815309949538463e+00
0	 6.249999999999997e-02	 7.187499999999999e+00	 9.822761476923077e+00
0	 6.249999999999999e-02	 7.249999999999998e+00	 9.830322891076943e+00
0	 6.249999999999999e-02	 7.312499999999997e+00	 9.837994192000011e+00
0	 6.249999999999999e-02	 7.374999999999998e+00	 9.845775379692300e+00
0	 6.249999999999999e-02	 7.437499999999997e+00	 9.853666454153869e+00
0	 6.250000000000000e-02	 7.500000000000000e+00	 9.861667415384632e+00
0	 1.250000000000000e-01	 6.874999999999999e+00	 9.786648184615409e+00
0	 1.250000000000000e-01	 6.937499999999998e+00	 9.793636388307702e+00
0	 1.250000000000000e-01	 6.999999999999999e+00	 9.800732839384619e+00
0	 1.250000000000000e-01	 7.062499999999997e+00	 9.807937537846154e+00
0	 1.250000000000000e-01	 7.124999999999997e+00	 9.815250483692315e+00
0	 1.250000000000000e-01	 7.187499999999998e+00	 9.822671676923072e+00
0	 1.250000000000000e-01	 7.249999999999998e+00	 9.830201117538456e+00
0	 1.250000000000000e-01	 7.312499999999996e+00	 9.837838805538462e+00
0	 1.250000000000000e-01	 7.375000000000000e+00	 9.845584740923071e+00
0	 1.250000000000000e-01	 7.437499999999998e+00	 9.853438923692314e+00
0	 1.250000000000000e-01	 7.500000000000000e+00	 9.861401353846162e+00
0	 1.875000000000000e-01	 6.875000000000001e+00	 9.787137353846138e+00
0	 1.875000000000000e-01	 6.937499999999999e+00	 9.794088987076936e+00
0	 1.875000000000000e-01	 6.999999999999999e+00	 9.801147228307705e+00
0	 1.875000000000000e-01	 7.062500000000000e+00	 9.808312077538462e+00
0	 1.875000000000000e-01	 7.124999999999997e+00	 9.815583534769234e+00
0	 1.875000000000000e-01	 7.187499999999998e+00	 9.822961600000003e+00
0	 1.875000000000000e-01	 7.249999999999998e+00	 9.830446273230777e+00
0	 1.875000000000000e-01	 7.312499999999999e+00	 9.838037554461543e+00
0	 1.875000000000001e-01	 7.374999999999998e+00	 9.845735443692330e+00
0	 1.875000000000000e-01	 7.437499999999998e+00	 9.853539940923072e+00
0	 1.875000000000000e-01	 7.500000000000001e+00	 9.861451046153867e+00
0	 2.500000000000000e-01	 6.875000000000000e+00	 9.788070215384613e+00
0	 2.500000000000001e-01	 6.937500000000000e+00	 9.794972484307680e+00
0	 2.500000000000001e-01	 7.000000000000001e+00	 9.801979721846152e+00
0	 2.500000000000000e-01	 7.062500000000000e+00	 9.809091927999988e+00
0	 2.500000000000000e-01	 7.124999999999997e+00	 9.816309102769230e+00
0	 2.499999999999999e-01	 7.187499999999997e+00	 9.823631246153850e+00
0	 2.500000000000000e-01	 7.249999999999997e+00	 9.831058358153843e+00
0	 2.500000000000000e-01	 7.312499999999996e+00	 9.838590438769229e+00
0	 2.500000000000000e-01	 7.374999999999998e+00	 9.846227488000006e+00
0	 2.499999999999999e-01	 7.437499999999996e+00	 9.853969505846138e+00
0	 2.500000000000000e-01	 7.500000000000000e+00	 9.861816492307698e+00
0	 3.125000000000000e-01	 6.875000000000000e+00	 9.789446769230770e+00
0	 3.125000000000000e-01	 6.937499999999998e+00	 9.796286879999997e+00
0	 3.125000000000001e-01	 7.000000000000000e+00	 9.803230320000006e+00
0	 3.125000000000000e-01	 7.062499999999999e+00	 9.810277089230770e+00
0	 3.125000000000001e-01	 7.125000000000001e+00	 9.817427187692299e+00
0	 3.125000000000000e-01	 7.187499999999999e+00	 9.824680615384622e+00
0	 3.125000000000000e-01	 7.249999999999999e+00	 9.832037372307685e+00
0	 3.125000000000000e-01	 7.312499999999997e+00	 9.839497458461533e+00
0	 3.125000000000000e-01	 7.374999999999998e+00	 9.847060873846143e+00
0	 3.125000000000000e-01	 7.437499999999997e+00	 9.854727618461537e+00
0	 3.125000000000000e-01	 7.500000000000000e+00	 9.862497692307702e+00
0	 3.750000000000000e-01	 6.875000000000000e+00	 9.791267015384619e+00
0	 3.749999999999999e-01	 6.937499999999998e+00	 9.798032174153823e+00
0	 3.750000000000001e-01	 7.000000000000002e+00	 9.804899022769225e+00
0	 3.749999999999999e-01	 7.062499999999999e+00	 9.811867561230766e+00
0	 3.750000000000000e-01	 7.125000000000000e+00	 9.818937789538465e+00
0	 3.750000000000001e-01	 7.187500000000000e+00	 9.826109707692297e+00
0	 3.749999999999999e-01	 7.249999999999998e+00	 9.833383315692307e+00
0	 3.749999999999999e-01	 7.312499999999998e+00	 9.840758613538465e+00
0	 3.750000000000001e-01	 7.374999999999998e+00	 9.848235601230767e+00
0	 3.750000000000001e-01	 7.437500000000000e+00	 9.855814278769245e+00
0	 3.750000000000000e-01	 7.500000000000000e+00	 9.863494646153850e+00
0	 4.374999999999999e-01	 6.875000000000000e+00	 9.793530953846137e+00
0	 4.374999999999999e-01	 6.937499999999997e+00	 9.800208366769246e+00
0	 4.375000000000000e-01	 7.000000000000000e+00	 9.806985830153849e+00
0	 4.375000000000001e-01	 7.062500000000001e+00	 9.813863344000001e+00
0	 4.375000000000000e-01	 7.125000000000000e+00	 9.820840908307687e+00
0	 4.375000000000000e-01	 7.187499999999999e+00	 9.827918523076921e+00
0	 4.375000000000000e-01	 7.249999999999999e+00	 9.835096188307682e+00
0	 4.375000000000000e-01	 7.312499999999998e+00	 9.842373904000002e+00
0	 4.374999999999999e-01	 7.374999999999998e+00	 9.849751670153839e+00
0	 4.375000000000000e-01	 7.437499999999998e+00	 9.857229486769214e+00
0	 4.374999999999999e-01	 7.500000000000000e+00	 9.864807353846173e+00
0	 4.999999999999999e-01	 6.875000000000000e+00	 9.796238584615379e+00
0	 4.999999999999999e-01	 6.937499999999998e+00	 9.802815457846140e+00
0	 4.999999999999999e-01	 7.000000000000001e+00	 9.809490742153853e+00
0	 4.999999999999998e-01	 7.062499999999998e+00	 9.816264437538448e+00
0	 5.000000000000000e-01	 7.124999999999998e+00	 9.823136543999992e+00
0	 4.999999999999999e-01	 7.187499999999997e+00	 9.830107061538451e+00
0	 4.999999999999999e-01	 7.249999999999998e+00	 9.837175990153828e+00
0	 4.999999999999999e-01	 7.312499999999998e+00	 9.844343329846126e+00
0	 5.000000000000000e-01	 7.375000000000000e+00	 9.851609080615374e+00
0	 4.999999999999999e-01	 7.437499999999997e+00	 9.858973242461543e+00
0	 4.999999999999999e-01	 7.500000000000002e+00	 9.866435815384600e+00
0	 5.624999999999999e-01	 6.875000000000000e+00	 9.799389907692312e+00
0	 5.624999999999999e-01	 6.937500000000000e+00	 9.805853447384608e+00
0	 5.624999999999999e-01	 6.999999999999998e+00	 9.812413758769221e+00
0	 5.625000000000001e-01	 7.062500000000001e+00	 9.819070841846143e+00
0	 5.625000000000000e-01	 7.125000000000001e+00	 9.825824696615371e+00
0	 5.624999999999999e-01	 7.187499999999999e+00	 9.832675323076920e+00
0	 5.624999999999999e-01	 7.249999999999998e+00	 9.839622721230747e+00
0	 5.625000000000000e-01	 7.312499999999999e+00	 9.846666891076923e+00
0	 5.625000000000000e-01	 7.374999999999998e+00	 9.853807832615377e+00
0	 5.625000000000000e-01	 7.437499999999997e+00	 9.861045545846146e+00
0	 5.624999999999999e-01	 7.500000000000000e+00	 9.868380030769202e+00
0	 6.250000000000000e-01	 6.875000000000000e+00	 9.802984923076917e+00
0	 6.250000000000000e-01	 6.937500000000000e+00	 9.809322335384614e+00
0	 6.250000000000001e-01	 7.000000000000000e+00	 9.815754879999979e+00
0	 6.249999999999999e-01	 7.062500000000000e+00	 9.822282556923078e+00
0	 6.250000000000000e-01	 7.125000000000000e+00	 9.828905366153842e+00
0	 6.250000000000000e-01	 7.187499999999998e+00	 9.835623307692309e+00
0	 6.250000000000000e-01	 7.249999999999998e+00	 9.842436381538461e+00
0	 6.249999999999999e-01	 7.312499999999998e+00	 9.849344587692300e+00
0	 6.250000000000000e-01	 7.374999999999998e+00	 9.856347926153834e+00
0	 6.250000000000000e-01	 7.437499999999998e+00	 9.863446396923067e+00
0	 6.250000000000000e-01	 7.500000000000000e+00	 9.870639999999991e+00
0	 0.000000000000000e+00	 7.500000000000000e+00	 9.862249230769240e+00
0	 0.000000000000000e+00	 7.562500000000001e+00	 9.867428953846172e+00
0	 0.000000000000000e+00	 7.624999999999999e+00	 9.872726276923089e+00
0	 0.000000000000000e+00	 7.687499999999999e+00	 9.878141200000011e+00
0	 0.000000000000000e+00	 7.750000000000000e+00	 9.883673723076939e+00
0	 0.000000000000000e+00	 7.812499999999998e+00	 9.889323846153848e+00
0	 0.000000000000000e+00	 7.874999999999999e+00	 9.895091569230765e+00
0	 0.000000000000000e+00	 7.937499999999998e+00	 9.900976892307684e+00
0	 0.000000000000000e+00	 7.999999999999998e+00	 9.906979815384616e+00
0	 0.000000000000000e+00	 8.062499999999996e+00	 9.913100338461565e+00
0	 0.000000000000000e+00	 8.125000000000000e+00	 9.919338461538453e+00
0	 6.250000000000000e-02	 7.500000000000000e+00	 9.861667415384632e+00
0	 6.249999999999999e-02	 7.562500000000001e+00	 9.866875398769231e+00
0	 6.249999999999998e-02	 7.624999999999998e+00	 9.872199758153855e+00
0	 6.250000000000000e-02	 7.687499999999999e+00	 9.877640493538475e+00
0	 6.250000000000000e-02	 7.749999999999999e+00	 9.883197604923069e+00
0	 6.249999999999997e-02	 7.812499999999997e+00	 9.888871092307685e+00
0	 6.249999999999999e-02	 7.875000000000000e+00	 9.894660955692306e+00
0	 6.249999999999999e-02	 7.937499999999996e+00	 9.900567195076921e+00
0	 6.249999999999999e-02	 7.999999999999997e+00	 9.906589810461535e+00
0	 6.249999999999999e-02	 8.062499999999995e+00	 9.912728801846143e+00
0	 6.250000000000000e-02	 8.125000000000002e+00	 9.918984169230741e+00
0	 1.250000000000000e-01	 7.500000000000000e+00	 9.861401353846162e+00
0	 1.250000000000000e-01	 7.562499999999998e+00	 9.866625385230787e+00
0	 1.250000000000000e-01	 7.625000000000000e+00	 9.871964568615386e+00
0	 1.250000000000000e-01	 7.687500000000000e+00	 9.877418903999992e+00
0	 1.250000000000000e-01	 7.749999999999997e+00	 9.882988391384609e+00
0	 1.250000000000000e-01	 7.812499999999998e+00	 9.888673030769221e+00
0	 1.250000000000000e-01	 7.874999999999996e+00	 9.894472822153851e+00
0	 1.250000000000000e-01	 7.937499999999998e+00	 9.900387765538472e+00
0	 1.250000000000000e-01	 8.000000000000002e+00	 9.906417860923076e+00
0	 1.250000000000000e-01	 8.062499999999998e+00	 9.912563108307683e+00
0	 1.250000000000000e-01	 8.125000000000000e+00	 9.918823507692286e+00
0	 1.875000000000000e-01	 7.500000000000001e+00	 9.861451046153867e+00
0	 1.875000000000000e-01	 7.562499999999999e+00	 9.866678913230771e+00
0	 1.875000000000000e-01	 7.625000000000000e+00	 9.872020708307693e+00
0	 1.875000000000000e-01	 7.687499999999999e+00	 9.877476431384622e+00
0	 1.875000000000000e-01	 7.749999999999996e+00	 9.883046082461538e+00
0	 1.875000000000000e-01	 7.812499999999999e+00	 9.888729661538459e+00
0	 1.875000000000000e-01	 7.874999999999999e+00	 9.894527168615383e+00
0	 1.875000000000000e-01	 7.937499999999999e+00	 9.900438603692304e+00
0	 1.875000000000001e-01	 7.999999999999998e+00	 9.906463966769227e+00
0	 1.875000000000000e-01	 8.062499999999998e+00	 9.912603257846174e+00
0	 1.875000000000000e-01	 8.125000000000002e+00	 9.918856476923072e+00
0	 2.500000000000000e-01	 7.500000000000000e+00	 9.861816492307698e+00
0	 2.500000000000001e-01	 7.562500000000000e+00	 9.867035982769242e+00
0	 2.500000000000001e-01	 7.625000000000001e+00	 9.872368177230781e+00
0	 2.500000000000000e-01	 7.687499999999998e+00	 9.877813075692314e+00
0	 2.500000000000000e-01	 7.749999999999998e+00	 9.883370678153852e+00
0	 2.499999999999999e-01	 7.812499999999998e+00	 9.889040984615388e+00
0	 2.500000000000000e-01	 7.874999999999996e+00	 9.894823995076937e+00
0	 2.500000000000000e-01	 7.937499999999996e+00	 9.900719709538464e+00
0	 2.500000000000000e-01	 8.000000000000000e+00	 9.906728128000005e+00
0	 2.499999999999999e-01	 8.062499999999996e+00	 9.912849250461530e+00
0	 2.500000000000000e-01	 8.125000000000000e+00	 9.919083076923080e+00
0	 3.125000000000000e-01	 7.500000000000000e+00	 9.862497692307702e+00
0	 3.125000000000000e-01	 7.562499999999998e+00	 9.867696593846151e+00
0	 3.125000000000001e-01	 7.625000000000000e+00	 9.873006975384627e+00
0	 3.125000000000000e-01	 7.687499999999999e+00	 9.878428836923078e+00
0	 3.125000000000001e-01	 7.750000000000000e+00	 9.883962178461545e+00
0	 3.125000000000000e-01	 7.812499999999999e+00	 9.889607000000009e+00
0	 3.125000000000000e-01	 7.874999999999997e+00	 9.895363301538453e+00
0	 3.125000000000000e-01	 7.937499999999998e+00	 9.901231083076922e+00
0	 3.125000000000000e-01	 7.999999999999998e+00	 9.907210344615400e+00
0	 3.125000000000000e-01	 8.062499999999996e+00	 9.913301086153844e+00
0	 3.125000000000000e-01	 8.125000000000000e+00	 9.919503307692313e+00
0	 3.750000000000000e-01	 7.500000000000000e+00	 9.863494646153850e+00
0	 3.749999999999999e-01	 7.562499999999999e+00	 9.868660746461545e+00
0	 3.750000000000001e-01	 7.625000000000001e+00	 9.873937102769228e+00
0	 3.749999999999999e-01	 7.687499999999999e+00	 9.879323715076938e+00
0	 3.750000000000000e-01	 7.750000000000000e+00	 9.884820583384615e+00
0	 3.750000000000001e-01	 7.812500000000000e+00	 9.890427707692325e+00
0	 3.749999999999999e-01	 7.874999999999998e+00	 9.896145088000004e+00
0	 3.749999999999999e-01	 7.937499999999999e+00	 9.901972724307718e+00
0	 3.750000000000001e-01	 7.999999999999999e+00	 9.907910616615407e+00
0	 3.750000000000001e-01	 8.062500000000000e+00	 9.913958764923070e+00
0	 3.750000000000000e-01	 8.125000000000002e+00	 9.920117169230748e+00
0	 4.374999999999999e-01	 7.500000000000000e+00	 9.864807353846173e+00
0	 4.374999999999999e-01	 7.562499999999998e+00	 9.869928440615395e+00
0	 4.375000000000000e-01	 7.625000000000000e+00	 9.875158559384616e+00
0	 4.375000000000001e-01	 7.687499999999999e+00	 9.880497710153858e+00
0	 4.375000000000000e-01	 7.750000000000000e+00	 9.885945892923074e+00
0	 4.375000000000000e-01	 7.812500000000000e+00	 9.891503107692307e+00
0	 4.375000000000000e-01	 7.874999999999999e+00	 9.897169354461552e+00
0	 4.375000000000000e-01	 7.937499999999998e+00	 9.902944633230780e+00
0	 4.374999999999999e-01	 7.999999999999998e+00	 9.908828944000017e+00
0	 4.375000000000000e-01	 8.062499999999998e+00	 9.914822286769240e+00
0	 4.374999999999999e-01	 8.125000000000000e+00	 9.920924661538438e+00
0	 4.999999999999999e-01	 7.500000000000002e+00	 9.866435815384600e+00
0	 4.999999999999999e-01	 7.562499999999999e+00	 9.871499676307673e+00
0	 4.999999999999999e-01	 7.625000000000001e+00	 9.876671345230767e+00
0	 4.999999999999998e-01	 7.687499999999998e+00	 9.881950822153838e+00
0	 5.000000000000000e-01	 7.749999999999999e+00	 9.887338107076914e+00
0	 4.999999999999999e-01	 7.812499999999999e+00	 9.892833200000000e+00
0	 4.999999999999999e-01	 7.874999999999997e+00	 9.898436100923089e+00
0	 4.999999999999999e-01	 7.937499999999998e+00	 9.904146809846171e+00
0	 5.000000000000000e-01	 7.999999999999999e+00	 9.909965326769232e+00
0	 4.999999999999999e-01	 8.062499999999996e+00	 9.915891651692338e+00
0	 4.999999999999999e-01	 8.125000000000002e+00	 9.921925784615382e+00
0	 5.624999999999999e-01	 7.500000000000000e+00	 9.868380030769202e+00
0	 5.624999999999999e-01	 7.562500000000001e+00	 9.873374453538442e+00
0	 5.624999999999999e-01	 7.625000000000001e+00	 9.878475460307691e+00
0	 5.625000000000001e-01	 7.687500000000000e+00	 9.883683051076915e+00
0	 5.625000000000000e-01	 7.750000000000000e+00	 9.888997225846156e+00
0	 5.624999999999999e-01	 7.812499999999997e+00	 9.894417984615375e+00
0	 5.624999999999999e-01	 7.874999999999999e+00	 9.899945327384611e+00
0	 5.625000000000000e-01	 7.937499999999999e+00	 9.905579254153853e+00
0	 5.625000000000000e-01	 7.999999999999998e+00	 9.911319764923078e+00
0	 5.625000000000000e-01	 8.062499999999998e+00	 9.917166859692308e+00
0	 5.624999999999999e-01	 8.125000000000002e+00	 9.923120538461577e+00
0	 6.250000000000000e-01	 7.500000000000000e+00	 9.870639999999991e+00
0	 6.250000000000000e-01	 7.562500000000000e+00	 9.875552772307685e+00
0	 6.250000000000001e-01	 7.625000000000000e+00	 9.880570904615398e+00
0	 6.249999999999999e-01	 7.687499999999999e+00	 9.885694396923066e+00
0	 6.250000000000000e-01	 7.750000000000000e+00	 9.890923249230779e+00
0	 6.250000000000000e-01	 7.812499999999999e+00	 9.896257461538459e+00
0	 6.250000000000000e-01	 7.874999999999998e+00	 9.901697033846149e+00
0	 6.249999999999999e-01	 7.937499999999997e+00	 9.907241966153851e+00
0	 6.250000000000000e-01	 7.999999999999998e+00	 9.912892258461550e+00
0	 6.250000000000000e-01	 8.062499999999996e+00	 9.918647910769236e+00
0	 6.250000000000000e-01	 8.125000000000000e+00	 9.924508923076937e+00
0	 0.000000000000000e+00	 8.125000000000000e+00	 9.919338461538453e+00
0	 0.000000000000000e+00	 8.187500000000000e+00	 9.923110840000007e+00
0	 0.000000000000000e+00	 8.250000000000000e+00	 9.927020590769200e+00
0	 0.000000000000000e+00	 8.312499999999998e+00	 9.931067713846140e+00
0	 0.000000000000000e+00	 8.374999999999998e+00	 9.935252209230761e+00
0	 0.000000000000000e+00	 8.437500000000000e+00	 9.939574076923071e+00
0	 0.000000000000000e+00	 8.500000000000000e+00	 9.944033316923070e+00
0	 0.000000000000000e+00	 8.562500000000000e+00	 9.948629929230764e+00
0	 0.000000000000000e+00	 8.624999999999998e+00	 9.953363913846179e+00
0	 0.000000000000000e+00	 8.687499999999998e+00	 9.958235270769221e+00
0	 0.000000000000000e+00	 8.750000000000000e+00	 9.963243999999996e+00
0	 6.250000000000000e-02	 8.125000000000002e+00	 9.918984169230741e+00
0	 6.249999999999999e-02	 8.187500000000000e+00	 9.922757384769220e+00
0	 6.249999999999998e-02	 8.249999999999998e+00	 9.926667268307673e+00
0	 6.250000000000000e-02	 8.312499999999998e+00	 9.930713819846137e+00
0	 6.250000000000000e-02	 8.375000000000000e+00	 9.934897039384602e+00
0	 6.249999999999997e-02	 8.437499999999995e+00	 9.939216926923059e+00
0	 6.249999999999999e-02	 8.500000000000002e+00	 9.943673482461524e+00
0	 6.249999999999999e-02	 8.562499999999996e+00	 9.948266705999981e+00
0	 6.249999999999999e-02	 8.625000000000000e+00	 9.952996597538441e+00
0	 6.249999999999999e-02	 8.687499999999996e+00	 9.957863157076906e+00
0	 6.250000000000000e-02	 8.750000000000002e+00	 9.962866384615385e+00
0	 1.250000000000000e-01	 8.125000000000000e+00	 9.918823507692286e+00
0	 1.250000000000000e-01	 8.187499999999998e+00	 9.922591508000028e+00
0	 1.250000000000000e-01	 8.250000000000000e+00	 9.926495471999996e+00
0	 1.250000000000000e-01	 8.312500000000000e+00	 9.930535399692303e+00
0	 1.250000000000000e-01	 8.374999999999996e+00	 9.934711291076930e+00
0	 1.250000000000000e-01	 8.437500000000000e+00	 9.939023146153843e+00
0	 1.250000000000000e-01	 8.499999999999995e+00	 9.943470964923083e+00
0	 1.250000000000000e-01	 8.562500000000000e+00	 9.948054747384605e+00
0	 1.250000000000000e-01	 8.625000000000000e+00	 9.952774493538465e+00
0	 1.250000000000000e-01	 8.687499999999998e+00	 9.957630203384603e+00
0	 1.250000000000000e-01	 8.750000000000000e+00	 9.962621876923080e+00
0	 1.875000000000000e-01	 8.125000000000002e+00	 9.918856476923072e+00
0	 1.875000000000000e-01	 8.187500000000000e+00	 9.922613209692319e+00
0	 1.875000000000000e-01	 8.250000000000000e+00	 9.926505201846149e+00
0	 1.875000000000000e-01	 8.312500000000002e+00	 9.930532453384609e+00
0	 1.875000000000000e-01	 8.374999999999996e+00	 9.934694964307685e+00
0	 1.875000000000000e-01	 8.437500000000000e+00	 9.938992734615383e+00
0	 1.875000000000000e-01	 8.499999999999998e+00	 9.943425764307687e+00
0	 1.875000000000000e-01	 8.562500000000000e+00	 9.947994053384617e+00
0	 1.875000000000001e-01	 8.625000000000000e+00	 9.952697601846150e+00
0	 1.875000000000000e-01	 8.687499999999998e+00	 9.957536409692318e+00
0	 1.875000000000000e-01	 8.750000000000000e+00	 9.962510476923079e+00
0	 2.500000000000000e-01	 8.125000000000000e+00	 9.919083076923080e+00
0	 2.500000000000001e-01	 8.187499999999998e+00	 9.922822489846144e+00
0	 2.500000000000001e-01	 8.250000000000002e+00	 9.926696457846145e+00
0	 2.500000000000000e-01	 8.312500000000000e+00	 9.930704980923068e+00
0	 2.500000000000000e-01	 8.374999999999998e+00	 9.934848059076920e+00
0	 2.499999999999999e-01	 8.437499999999998e+00	 9.939125692307691e+00
0	 2.500000000000000e-01	 8.499999999999998e+00	 9.943537880615377e+00
0	 2.500000000000000e-01	 8.562499999999996e+00	 9.948084623999996e+00
0	 2.500000000000000e-01	 8.624999999999998e+00	 9.952765922461525e+00
0	 2.499999999999999e-01	 8.687499999999996e+00	 9.957581775999993e+00
0	 2.500000000000000e-01	 8.750000000000002e+00	 9.962532184615382e+00
0	 3.125000000000000e-01	 8.125000000000000e+00	 9.919503307692313e+00
0	 3.125000000000000e-01	 8.187499999999996e+00	 9.923219348461547e+00
0	 3.125000000000001e-01	 8.250000000000002e+00	 9.927069239999994e+00
0	 3.125000000000000e-01	 8.312499999999998e+00	 9.931052982307692e+00
0	 3.125000000000001e-01	 8.375000000000000e+00	 9.935170575384618e+00
0	 3.125000000000000e-01	 8.437499999999998e+00	 9.939422019230776e+00
0	 3.125000000000000e-01	 8.500000000000000e+00	 9.943807313846150e+00
0	 3.125000000000000e-01	 8.562499999999996e+00	 9.948326459230763e+00
0	 3.125000000000000e-01	 8.624999999999998e+00	 9.952979455384614e+00
0	 3.125000000000000e-01	 8.687499999999998e+00	 9.957766302307679e+00
0	 3.125000000000000e-01	 8.750000000000000e+00	 9.962686999999990e+00
0	 3.750000000000000e-01	 8.125000000000002e+00	 9.920117169230748e+00
0	 3.749999999999999e-01	 8.187500000000000e+00	 9.923803785538489e+00
0	 3.750000000000001e-01	 8.250000000000000e+00	 9.927623548307700e+00
0	 3.749999999999999e-01	 8.312500000000000e+00	 9.931576457538458e+00
0	 3.750000000000000e-01	 8.375000000000002e+00	 9.935662513230774e+00
0	 3.750000000000001e-01	 8.437500000000002e+00	 9.939881715384617e+00
0	 3.749999999999999e-01	 8.499999999999998e+00	 9.944234064000007e+00
0	 3.749999999999999e-01	 8.562500000000000e+00	 9.948719559076920e+00
0	 3.750000000000001e-01	 8.625000000000000e+00	 9.953338200615361e+00
0	 3.750000000000001e-01	 8.687499999999998e+00	 9.958089988615358e+00
0	 3.750000000000000e-01	 8.750000000000002e+00	 9.962974923076919e+00
0	 4.374999999999999e-01	 8.125000000000000e+00	 9.920924661538438e+00
0	 4.374999999999999e-01	 8.187499999999998e+00	 9.924575801076926e+00
0	 4.375000000000000e-01	 8.249999999999998e+00	 9.928359382769219e+00
0	 4.375000000000001e-01	 8.312500000000002e+00	 9.932275406615394e+00
0	 4.375000000000000e-01	 8.375000000000000e+00	 9.936323872615391e+00
0	 4.375000000000000e-01	 8.437499999999998e+00	 9.940504780769233e+00
0	 4.375000000000000e-01	 8.500000000000000e+00	 9.944818131076913e+00
0	 4.375000000000000e-01	 8.562499999999998e+00	 9.949263923538455e+00
0	 4.374999999999999e-01	 8.624999999999998e+00	 9.953842158153863e+00
0	 4.375000000000000e-01	 8.687499999999998e+00	 9.958552834923063e+00
0	 4.374999999999999e-01	 8.750000000000000e+00	 9.963395953846122e+00
0	 4.999999999999999e-01	 8.125000000000002e+00	 9.921925784615382e+00
0	 4.999999999999999e-01	 8.187500000000000e+00	 9.925535395076935e+00
0	 4.999999999999999e-01	 8.250000000000002e+00	 9.929276743384635e+00
0	 4.999999999999998e-01	 8.312499999999998e+00	 9.933149829538472e+00
0	 5.000000000000000e-01	 8.374999999999998e+00	 9.937154653538485e+00
0	 4.999999999999999e-01	 8.437499999999998e+00	 9.941291215384620e+00
0	 4.999999999999999e-01	 8.499999999999998e+00	 9.945559515076921e+00
0	 4.999999999999999e-01	 8.562499999999998e+00	 9.949959552615386e+00
0	 5.000000000000000e-01	 8.625000000000000e+00	 9.954491327999996e+00
0	 4.999999999999999e-01	 8.687499999999998e+00	 9.959154841230758e+00
0	 4.999999999999999e-01	 8.750000000000000e+00	 9.963950092307691e+00
0	 5.624999999999999e-01	 8.125000000000002e+00	 9.923120538461577e+00
0	 5.624999999999999e-01	 8.187500000000000e+00	 9.926682567538480e+00
0	 5.624999999999999e-01	 8.250000000000000e+00	 9.930375630153849e+00
0	 5.625000000000001e-01	 8.312500000000000e+00	 9.934199726307698e+00
0	 5.625000000000000e-01	 8.375000000000000e+00	 9.938154855999997e+00
0	 5.624999999999999e-01	 8.437499999999998e+00	 9.942241019230764e+00
0	 5.624999999999999e-01	 8.499999999999998e+00	 9.946458216000000e+00
0	 5.625000000000000e-01	 8.562499999999998e+00	 9.950806446307691e+00
0	 5.625000000000000e-01	 8.624999999999998e+00	 9.955285710153852e+00
0	 5.625000000000000e-01	 8.687499999999996e+00	 9.959896007538479e+00
0	 5.624999999999999e-01	 8.750000000000000e+00	 9.964637338461531e+00
0	 6.250000000000000e-01	 8.125000000000000e+00	 9.924508923076937e+00
0	 6.250000000000000e-01	 8.187500000000000e+00	 9.928017318461546e+00
0	 6.250000000000001e-01	 8.250000000000002e+00	 9.931656043076913e+00
0	 6.249999999999999e-01	 8.312500000000000e+00	 9.935425096923094e+00
0	 6.250000000000000e-01	 8.374999999999998e+00	 9.939324479999996e+00
0	 6.250000000000000e-01	 8.437500000000000e+00	 9.943354192307694e+00
0	 6.250000000000000e-01	 8.500000000000000e+00	 9.947514233846160e+00
0	 6.249999999999999e-01	 8.562499999999998e+00	 9.951804604615379e+00
0	 6.250000000000000e-01	 8.625000000000000e+00	 9.956225304615380e+00
0	 6.250000000000000e-01	 8.687499999999998e+00	 9.960776333846106e+00
0	 6.250000000000000e-01	 8.750000000000000e+00	 9.965457692307684e+00
0	 0.000000000000000e+00	 8.750000000000000e+00	 9.963243999999996e+00
0	 0.000000000000000e+00	 8.812500000000002e+00	 9.965406815384624e+00
0	 0.000000000000000e+00	 8.875000000000000e+00	 9.967753969230760e+00
0	 0.000000000000000e+00	 8.937499999999998e+00	 9.970285461538435e+00
0	 0.000000000000000e+00	 9.000000000000000e+00	 9.973001292307698e+00
0	 0.000000000000000e+00	 9.062499999999998e+00	 9.975901461538434e+00
0	 0.000000000000000e+00	 9.124999999999998e+00	 9.978985969230738e+00
0	 0.000000000000000e+00	 9.187500000000000e+00	 9.982254815384598e+00
0	 0.000000000000000e+00	 9.249999999999998e+00	 9.985707999999986e+00
0	 0.000000000000000e+00	 9.312499999999998e+00	 9.989345523076860e+00
0	 0.000000000000000e+00	 9.375000000000000e+00	 9.993167384615367e+00
0	 6.250000000000000e-02	 8.750000000000002e+00	 9.962866384615385e+00
0	 6.249999999999999e-02	 8.812499999999998e+00	 9.965029902769233e+00
0	 6.249999999999998e-02	 8.875000000000000e+00	 9.967376527999996e+00
0	 6.250000000000000e-02	 8.937499999999998e+00	 9.969906260307685e+00
0	 6.250000000000000e-02	 8.999999999999996e+00	 9.972619099692306e+00
0	 6.249999999999997e-02	 9.062499999999996e+00	 9.975515046153841e+00
0	 6.249999999999999e-02	 9.124999999999996e+00	 9.978594099692298e+00
0	 6.249999999999999e-02	 9.187499999999996e+00	 9.981856260307669e+00
0	 6.249999999999999e-02	 9.249999999999998e+00	 9.985301528000019e+00
0	 6.249999999999999e-02	 9.312499999999996e+00	 9.988929902769202e+00
0	 6.250000000000000e-02	 9.375000000000000e+00	 9.992741384615378e+00
0	 1.250000000000000e-01	 8.750000000000000e+00	 9.962621876923080e+00
0	 1.250000000000000e-01	 8.812500000000000e+00	 9.964783190153842e+00
0	 1.250000000000000e-01	 8.875000000000000e+00	 9.967126379076905e+00
0	 1.250000000000000e-01	 8.937499999999998e+00	 9.969651443692303e+00
0	 1.250000000000000e-01	 8.999999999999996e+00	 9.972358383999993e+00
0	 1.250000000000000e-01	 9.062499999999998e+00	 9.975247199999993e+00
0	 1.250000000000000e-01	 9.124999999999998e+00	 9.978317891692296e+00
0	 1.250000000000000e-01	 9.187499999999996e+00	 9.981570459076909e+00
0	 1.250000000000000e-01	 9.250000000000000e+00	 9.985004902153845e+00
0	 1.250000000000000e-01	 9.312499999999998e+00	 9.988621220923086e+00
0	 1.250000000000000e-01	 9.375000000000000e+00	 9.992419415384621e+00
0	 1.875000000000000e-01	 8.750000000000000e+00	 9.962510476923079e+00
0	 1.875000000000000e-01	 8.812500000000000e+00	 9.964666677538460e+00
0	 1.875000000000000e-01	 8.875000000000000e+00	 9.967003522461523e+00
0	 1.875000000000000e-01	 8.937499999999998e+00	 9.969521011692299e+00
0	 1.875000000000000e-01	 8.999999999999996e+00	 9.972219145230756e+00
0	 1.875000000000000e-01	 9.062500000000002e+00	 9.975097923076900e+00
0	 1.875000000000000e-01	 9.124999999999998e+00	 9.978157345230766e+00
0	 1.875000000000000e-01	 9.187500000000000e+00	 9.981397411692306e+00
0	 1.875000000000001e-01	 9.249999999999998e+00	 9.984818122461512e+00
0	 1.875000000000000e-01	 9.312499999999998e+00	 9.988419477538443e+00
0	 1.875000000000000e-01	 9.375000000000002e+00	 9.992201476923078e+00
0	 2.500000000000000e-01	 8.750000000000002e+00	 9.962532184615382e+00
0	 2.500000000000001e-01	 8.812500000000000e+00	 9.964680364923094e+00
0	 2.500000000000001e-01	 8.875000000000002e+00	 9.967007958153841e+00
0	 2.500000000000000e-01	 8.937500000000000e+00	 9.969514964307702e+00
0	 2.500000000000000e-01	 9.000000000000000e+00	 9.972201383384615e+00
0	 2.499999999999999e-01	 9.062499999999996e+00	 9.975067215384627e+00
0	 2.500000000000000e-01	 9.124999999999995e+00	 9.978112460307690e+00
0	 2.500000000000000e-01	 9.187499999999998e+00	 9.981337118153853e+00
0	 2.500000000000000e-01	 9.249999999999998e+00	 9.984741188923074e+00
0	 2.499999999999999e-01	 9.312499999999996e+00	 9.988324672615386e+00
0	 2.500000000000000e-01	 9.375000000000000e+00	 9.992087569230765e+00
0	 3.125000000000000e-01	 8.750000000000000e+00	 9.962686999999990e+00
0	 3.125000000000000e-01	 8.812499999999998e+00	 9.964824252307686e+00
0	 3.125000000000001e-01	 8.875000000000002e+00	 9.967139686153848e+00
0	 3.125000000000000e-01	 8.937500000000000e+00	 9.969633301538460e+00
0	 3.125000000000001e-01	 9.000000000000002e+00	 9.972305098461534e+00
0	 3.125000000000000e-01	 9.062499999999998e+00	 9.975155076923063e+00
0	 3.125000000000000e-01	 9.124999999999998e+00	 9.978183236923069e+00
0	 3.125000000000000e-01	 9.187499999999996e+00	 9.981389578461549e+00
0	 3.125000000000000e-01	 9.249999999999998e+00	 9.984774101538465e+00
0	 3.125000000000000e-01	 9.312499999999998e+00	 9.988336806153841e+00
0	 3.125000000000000e-01	 9.375000000000000e+00	 9.992077692307694e+00
0	 3.750000000000000e-01	 8.750000000000002e+00	 9.962974923076919e+00
0	 3.749999999999999e-01	 8.812500000000000e+00	 9.965098339692316e+00
0	 3.750000000000001e-01	 8.875000000000000e+00	 9.967398706461516e+00
0	 3.749999999999999e-01	 8.937499999999998e+00	 9.969876023384604e+00
0	 3.750000000000000e-01	 9.000000000000000e+00	 9.972530290461533e+00
0	 3.750000000000001e-01	 9.062500000000000e+00	 9.975361507692305e+00
0	 3.749999999999999e-01	 9.124999999999998e+00	 9.978369675076948e+00
0	 3.749999999999999e-01	 9.187500000000000e+00	 9.981554792615375e+00
0	 3.750000000000001e-01	 9.249999999999998e+00	 9.984916860307687e+00
0	 3.750000000000001e-01	 9.312499999999998e+00	 9.988455878153866e+00
0	 3.750000000000000e-01	 9.375000000000000e+00	 9.992171846153846e+00
0	 4.374999999999999e-01	 8.750000000000000e+00	 9.963395953846122e+00
0	 4.374999999999999e-01	 8.812499999999998e+00	 9.965502627076903e+00
0	 4.375000000000000e-01	 8.875000000000000e+00	 9.967785019076901e+00
0	 4.375000000000001e-01	 8.937500000000000e+00	 9.970243129846148e+00
0	 4.375000000000000e-01	 9.000000000000000e+00	 9.972876959384614e+00
0	 4.375000000000000e-01	 9.062499999999998e+00	 9.975686507692314e+00
0	 4.375000000000000e-01	 9.125000000000000e+00	 9.978671774769225e+00
0	 4.375000000000000e-01	 9.187499999999996e+00	 9.981832760615360e+00
0	 4.374999999999999e-01	 9.249999999999998e+00	 9.985169465230772e+00
0	 4.375000000000000e-01	 9.312499999999998e+00	 9.988681888615378e+00
0	 4.374999999999999e-01	 9.375000000000000e+00	 9.992370030769242e+00
0	 4.999999999999999e-01	 8.750000000000000e+00	 9.963950092307691e+00
0	 4.999999999999999e-01	 8.812499999999998e+00	 9.966037114461512e+00
0	 4.999999999999999e-01	 8.875000000000000e+00	 9.968298623999987e+00
0	 4.999999999999998e-01	 8.937499999999998e+00	 9.970734620923073e+00
0	 5.000000000000000e-01	 8.999999999999998e+00	 9.973345105230765e+00
0	 4.999999999999999e-01	 9.062499999999998e+00	 9.976130076923090e+00
0	 4.999999999999999e-01	 9.124999999999998e+00	 9.979089535999988e+00
0	 4.999999999999999e-01	 9.187499999999998e+00	 9.982223482461560e+00
0	 5.000000000000000e-01	 9.249999999999998e+00	 9.985531916307684e+00
0	 4.999999999999999e-01	 9.312499999999996e+00	 9.989014837538477e+00
0	 4.999999999999999e-01	 9.375000000000000e+00	 9.992672246153846e+00
0	 5.624999999999999e-01	 8.750000000000000e+00	 9.964637338461531e+00
0	 5.624999999999999e-01	 8.812500000000000e+00	 9.966701801846146e+00
0	 5.624999999999999e-01	 8.875000000000000e+00	 9.968939521230759e+00
0	 5.625000000000001e-01	 8.937500000000002e+00	 9.971350496615372e+00
0	 5.625000000000000e-01	 8.999999999999998e+00	 9.973934728000001e+00
0	 5.624999999999999e-01	 9.062499999999998e+00	 9.976692215384617e+00
0	 5.624999999999999e-01	 9.125000000000000e+00	 9.979622958769237e+00
0	 5.625000000000000e-01	 9.187500000000000e+00	 9.982726958153833e+00
0	 5.625000000000000e-01	 9.250000000000000e+00	 9.986004213538466e+00
0	 5.625000000000000e-01	 9.312499999999998e+00	 9.989454724923089e+00
0	 5.624999999999999e-01	 9.375000000000000e+00	 9.993078492307728e+00
0	 6.250000000000000e-01	 8.750000000000000e+00	 9.965457692307684e+00
0	 6.250000000000000e-01	 8.812500000000000e+00	 9.967496689230764e+00
0	 6.250000000000001e-01	 8.875000000000002e+00	 9.969707710769246e+00
0	 6.249999999999999e-01	 8.937499999999998e+00	 9.972090756923075e+00
0	 6.250000000000000e-01	 9.000000000000000e+00	 9.974645827692308e+00
0	 6.250000000000000e-01	 9.062500000000000e+00	 9.977372923076906e+00
0	 6.250000000000000e-01	 9.124999999999998e+00	 9.980272043076909e+00
0	 6.249999999999999e-01	 9.187499999999998e+00	 9.983343187692306e+00
0	 6.250000000000000e-01	 9.249999999999998e+00	 9.986586356923095e+00
0	 6.250000000000000e-01	 9.312499999999998e+00	 9.990001550769234e+00
0	 6.250000000000000e-01	 9.375000000000000e+00	 9.993588769230778e+00
0	 0.000000000000000e+00	 9.375000000000000e+00	 9.993167384615367e+00
0	 0.000000000000000e+00	 9.437500000000002e+00	 9.993171747692287e+00
0	 0.000000000000000e+00	 9.500000000000000e+00	 9.993438006153832e+00
0	 0.000000000000000e+00	 9.562499999999998e+00	 9.993966160000005e+00
0	 0.000000000000000e+00	 9.625000000000000e+00	 9.994756209230763e+00
0	 0.000000000000000e+00	 9.687500000000000e+00	 9.995808153846196e+00
0	 0.000000000000000e+00	 9.749999999999998e+00	 9.997121993846186e+00
0	 0.000000000000000e+00	 9.812499999999998e+00	 9.998697729230820e+00
0	 0.000000000000000e+00	 9.874999999999998e+00	 1.000053536000001e+01
0	 0.000000000000000e+00	 9.937499999999998e+00	 1.000263488615387e+01
0	 0.000000000000000e+00	 1.000000000000000e+01	 1.000499630769235e+01
0	 6.250000000000000e-02	 9.375000000000000e+00	 9.992741384615378e+00
0	 6.250000000000000e-02	 9.437500000000000e+00	 9.992745259538447e+00
0	 6.249999999999997e-02	 9.499999999999998e+00	 9.993009515076917e+00
0	 6.249999999999999e-02	 9.562500000000000e+00	 9.993534151230760e+00
0	 6.250000000000000e-02	 9.625000000000000e+00	 9.994319168000002e+00
0	 6.249999999999999e-02	 9.687499999999996e+00	 9.995364565384669e+00
0	 6.250000000000000e-02	 9.749999999999998e+00	 9.996670343384642e+00
0	 6.250000000000000e-02	 9.812500000000000e+00	 9.998236502000054e+00
0	 6.250000000000000e-02	 9.874999999999998e+00	 1.000006304123083e+01
0	 6.249999999999999e-02	 9.937499999999996e+00	 1.000214996107694e+01
0	 6.250000000000000e-02	 1.000000000000000e+01	 1.000449726153843e+01
0	 1.250000000000000e-01	 9.375000000000000e+00	 9.992419415384621e+00
0	 1.250000000000000e-01	 9.437499999999998e+00	 9.992423469846139e+00
0	 1.250000000000000e-01	 9.499999999999998e+00	 9.992686390153843e+00
0	 1.250000000000000e-01	 9.562500000000002e+00	 9.993208176307691e+00
0	 1.250000000000000e-01	 9.624999999999998e+00	 9.993988828307691e+00
0	 1.250000000000000e-01	 9.687500000000000e+00	 9.995028346153854e+00
0	 1.250000000000000e-01	 9.749999999999998e+00	 9.996326729846141e+00
0	 1.250000000000000e-01	 9.812499999999998e+00	 9.997883979384641e+00
0	 1.250000000000000e-01	 9.875000000000000e+00	 9.999700094769210e+00
0	 1.250000000000000e-01	 9.937499999999998e+00	 1.000177507600002e+01
0	 1.250000000000000e-01	 1.000000000000000e+01	 1.000410892307694e+01
0	 1.875000000000000e-01	 9.375000000000002e+00	 9.992201476923078e+00
0	 1.875000000000000e-01	 9.437500000000000e+00	 9.992206378615405e+00
0	 1.875000000000000e-01	 9.499999999999998e+00	 9.992468631384629e+00
0	 1.875000000000000e-01	 9.562499999999998e+00	 9.992988235230783e+00
0	 1.875000000000000e-01	 9.624999999999998e+00	 9.993765190153841e+00
0	 1.875000000000001e-01	 9.687500000000000e+00	 9.994799496153874e+00
0	 1.875000000000000e-01	 9.749999999999998e+00	 9.996091153230784e+00
0	 1.875000000000001e-01	 9.812499999999996e+00	 9.997640161384647e+00
0	 1.875000000000001e-01	 9.875000000000000e+00	 9.999446520615436e+00
0	 1.875000000000000e-01	 9.937499999999998e+00	 1.000151023092312e+01
0	 1.875000000000000e-01	 1.000000000000000e+01	 1.000383129230772e+01
0	 2.500000000000000e-01	 9.375000000000000e+00	 9.992087569230765e+00
0	 2.500000000000000e-01	 9.437499999999998e+00	 9.992093985846148e+00
0	 2.500000000000000e-01	 9.500000000000000e+00	 9.992356238769235e+00
0	 2.500000000000000e-01	 9.562499999999998e+00	 9.992874328000017e+00
0	 2.500000000000000e-01	 9.624999999999998e+00	 9.993648253538485e+00
0	 2.500000000000000e-01	 9.687500000000000e+00	 9.994678015384649e+00
0	 2.500000000000000e-01	 9.749999999999998e+00	 9.995963613538468e+00
0	 2.500000000000001e-01	 9.812500000000002e+00	 9.997505048000011e+00
0	 2.500000000000000e-01	 9.874999999999996e+00	 9.999302318769296e+00
0	 2.499999999999999e-01	 9.937499999999996e+00	 1.000135542584614e+01
0	 2.500000000000000e-01	 1.000000000000000e+01	 1.000366436923079e+01
0	 3.125000000000000e-01	 9.375000000000000e+00	 9.992077692307694e+00
0	 3.125000000000000e-01	 9.437500000000000e+00	 9.992086291538458e+00
0	 3.125000000000001e-01	 9.500000000000000e+00	 9.992349212307705e+00
0	 3.125000000000000e-01	 9.562500000000000e+00	 9.992866454615394e+00
0	 3.125000000000001e-01	 9.625000000000000e+00	 9.993638018461549e+00
0	 3.125000000000000e-01	 9.687500000000002e+00	 9.994663903846179e+00
0	 3.125000000000000e-01	 9.750000000000000e+00	 9.995944110769249e+00
0	 3.125000000000000e-01	 9.812500000000000e+00	 9.997478639230778e+00
0	 3.125000000000000e-01	 9.874999999999996e+00	 9.999267489230785e+00
0	 3.125000000000000e-01	 9.937499999999998e+00	 1.000131066076920e+01
0	 3.125000000000000e-01	 1.000000000000000e+01	 1.000360815384617e+01
0	 3.750000000000000e-01	 9.375000000000000e+00	 9.992171846153846e+00
0	 3.750000000000001e-01	 9.437500000000000e+00	 9.992183295692318e+00
0	 3.750000000000000e-01	 9.500000000000000e+00	 9.992447552000005e+00
0	 3.750000000000001e-01	 9.562500000000000e+00	 9.992964615076943e+00
0	 3.750000000000000e-01	 9.625000000000000e+00	 9.993734484923095e+00
0	 3.750000000000000e-01	 9.687500000000000e+00	 9.994757161538471e+00
0	 3.750000000000000e-01	 9.750000000000000e+00	 9.996032644923083e+00
0	 3.750000000000000e-01	 9.812500000000000e+00	 9.997560935076940e+00
0	 3.750000000000001e-01	 9.874999999999998e+00	 9.999342032000049e+00
0	 3.750000000000000e-01	 9.937499999999998e+00	 1.000137593569234e+01
0	 3.750000000000000e-01	 1.000000000000000e+01	 1.000366264615388e+01
0	 4.374999999999999e-01	 9.375000000000000e+00	 9.992370030769242e+00
0	 4.375000000000000e-01	 9.437500000000002e+00	 9.992384998307713e+00
0	 4.375000000000000e-01	 9.500000000000000e+00	 9.992651257846155e+00
0	 4.375000000000000e-01	 9.562500000000000e+00	 9.993168809384596e+00
0	 4.374999999999999e-01	 9.624999999999998e+00	 9.993937652923091e+00
0	 4.374999999999999e-01	 9.687499999999998e+00	 9.994957788461528e+00
0	 4.375000000000000e-01	 9.750000000000000e+00	 9.996229216000026e+00
0	 4.375000000000000e-01	 9.812499999999998e+00	 9.997751935538476e+00
0	 4.375000000000000e-01	 9.875000000000000e+00	 9.999525947076931e+00
0	 4.375000000000000e-01	 9.937499999999998e+00	 1.000155125061536e+01
0	 4.375000000000000e-01	 1.000000000000000e+01	 1.000382784615382e+01
0	 4.999999999999999e-01	 9.375000000000000e+00	 9.992672246153846e+00
0	 5.000000000000000e-01	 9.437500000000002e+00	 9.992691399384608e+00
0	 4.999999999999999e-01	 9.500000000000000e+00	 9.992960329846168e+00
0	 4.999999999999999e-01	 9.562500000000002e+00	 9.993479037538474e+00
0	 4.999999999999999e-01	 9.625000000000000e+00	 9.994247522461524e+00
0	 4.999999999999999e-01	 9.687499999999996e+00	 9.995265784615402e+00
0	 5.000000000000000e-01	 9.750000000000002e+00	 9.996533823999991e+00
0	 5.000000000000000e-01	 9.812500000000000e+00	 9.998051640615454e+00
0	 5.000000000000000e-01	 9.875000000000000e+00	 9.999819234461553e+00
0	 4.999999999999999e-01	 9.937499999999998e+00	 1.000183660553850e+01
0	 5.000000000000000e-01	 1.000000000000000e+01	 1.000410375384614e+01
0	 5.624999999999999e-01	 9.375000000000000e+00	 9.993078492307728e+00
0	 5.625000000000000e-01	 9.437500000000002e+00	 9.993102498923079e+00
0	 5.625000000000001e-01	 9.500000000000002e+00	 9.993374768000010e+00
0	 5.625000000000000e-01	 9.562500000000000e+00	 9.993895299538469e+00
0	 5.624999999999999e-01	 9.625000000000000e+00	 9.994664093538468e+00
0	 5.624999999999999e-01	 9.687499999999998e+00	 9.995681150000010e+00
0	 5.624999999999999e-01	 9.749999999999998e+00	 9.996946468923083e+00
0	 5.625000000000000e-01	 9.812499999999998e+00	 9.998460050307708e+00
0	 5.625000000000000e-01	 9.874999999999998e+00	 1.000022189415387e+01
0	 5.625000000000000e-01	 9.937500000000000e+00	 1.000223200046151e+01
0	 5.624999999999999e-01	 1.000000000000000e+01	 1.000449036923080e+01
0	 6.250000000000000e-01	 9.375000000000000e+00	 9.993588769230778e+00
0	 6.250000000000000e-01	 9.437499999999998e+00	 9.993618296923088e+00
0	 6.249999999999999e-01	 9.500000000000000e+00	 9.993894572307703e+00
0	 6.250000000000000e-01	 9.562500000000000e+00	 9.994417595384611e+00
0	 6.250000000000001e-01	 9.625000000000000e+00	 9.995187366153848e+00
0	 6.250000000000000e-01	 9.687499999999998e+00	 9.996203884615410e+00
0	 6.250000000000000e-01	 9.749999999999998e+00	 9.997467150769202e+00
0	 6.250000000000000e-01	 9.812500000000000e+00	 9.998977164615377e+00
0	 6.250000000000001e-01	 9.875000000000000e+00	 1.000073392615386e+01
0	 6.250000000000000e-01	 9.937499999999998e+00	 1.000273743538460e+01
0	 6.250000000000000e-01	 1.000000000000000e+01	 1.000498769230769e+01
0	 6.250000000000000e-01	 0.000000000000000e+00	 3.700840991076923e+00
0	 6.250000000000000e-01	 6.250000000000000e-02	 3.381976724479999e+00
0	 6.250000000000000e-01	 1.250000000000000e-01	 3.038572594350769e+00
0	 6.250000000000000e-01	 1.875000000000000e-01	 2.670628600689231e+00
0	 6.249999999999999e-01	 2.500000000000000e-01	 2.278144743495385e+00
0	 6.250000000000000e-01	 3.125000000000000e-01	 1.861121022769231e+00
0	 6.249999999999999e-01	 3.750000000000000e-01	 1.419557438510769e+00
0	 6.250000000000001e-01	 4.374999999999999e-01	 9.534539907199997e-01
0	 6.250000000000000e-01	 5.000000000000000e-01	 4.628106793969236e-01
0	 6.250000000000000e-01	 5.624999999999999e-01	-5.237249545846091e-02
0	 6.250000000000000e-01	 6.250000000000000e-01	-5.920955338461539e-01
0	 6.875000000000000e-01	 0.000000000000000e+00	 2.252414148553845e+00
0	 6.875000000000000e-01	 6.250000000000000e-02	 2.098689576800921e+00
0	 6.874999999999999e-01	 1.250000000000000e-01	 1.934550053148308e+00
0	 6.875000000000000e-01	 1.875000000000000e-01	 1.759995577595999e+00
0	 6.875000000000001e-01	 2.500000000000001e-01	 1.575026150143999e+00
0	 6.875000000000001e-01	 3.125000000000001e-01	 1.379641770792308e+00
0	 6.875000000000000e-01	 3.749999999999999e-01	 1.173842439540923e+00
0	 6.875000000000002e-01	 4.375000000000000e-01	 9.576281563898466e-01
0	 6.875000000000001e-01	 5.000000000000000e-01	 7.309989213390771e-01
0	 6.875000000000001e-01	 5.624999999999999e-01	 4.939547343886159e-01
0	 6.875000000000000e-01	 6.249999999999999e-01	 2.464955955384621e-01
0	 7.500000000000002e-01	 0.000000000000000e+00	 9.923665158769203e-01
0	 7.500000000000001e-01	 6.250000000000000e-02	 9.808925427218448e-01
0	 7.500000000000000e-01	 1.250000000000000e-01	 9.731285292996905e-01
0	 7.500000000000002e-01	 1.875000000000000e-01	 9.690744756104601e-01
0	 7.500000000000002e-01	 2.500000000000001e-01	 9.687303816541524e-01
0	 7.500000000000002e-01	 3.125000000000000e-01	 9.720962474307682e-01
0	 7.500000000000000e-01	 3.749999999999999e-01	 9.791720729403073e-01
0	 7.500000000000001e-01	 4.375000000000000e-01	 9.899578581827682e-01
0	 7.500000000000000e-01	 4.999999999999999e-01	 1.004453603158154e+00
0	 7.500000000000002e-01	 5.625000000000001e-01	 1.022659307866462e+00
0	 7.500000000000001e-01	 6.250000000000001e-01	 1.044574972307694e+00
0	 8.125000000000002e-01	 0.000000000000000e+00	-7.930190695384898e-02
0	 8.125000000000002e-01	 6.250000000000000e-02	 2.858562224276717e-02
0	 8.125000000000003e-01	 1.250000000000000e-01	 1.543080228049210e-01
0	 8.125000000000001e-01	 1.875000000000001e-01	 2.978652947326128e-01
0	 8.125000000000002e-01	 2.500000000000001e-01	 4.592574380258441e-01
0	 8.125000000000002e-01	 3.125000000000000e-01	 6.384844526846143e-01
0	 8.125000000000001e-01	 3.750000000000000e-01	 8.355463387089235e-01
0	 8.125000000000001e-01	 4.374999999999999e-01	 1.050443096098770e+00
0	 8.125000000000002e-01	 4.999999999999999e-01	 1.283174724854153e+00
0	 8.125000000000003e-01	 5.625000000000000e-01	 1.533741224975078e+00
0	 8.125000000000002e-01	 6.249999999999999e-01	 1.802142596461540e+00
0	 8.750000000000002e-01	 0.000000000000000e+00	-9.625911199384645e-01
0	 8.750000000000001e-01	 6.249999999999999e-02	-7.582311846363106e-01
0	 8.750000000000002e-01	 1.250000000000000e-01	-5.219114663360021e-01
0	 8.750000000000002e-01	 1.875000000000000e-01	-2.536319650375405e-01
0	 8.750000000000001e-01	 2.500000000000000e-01	 4.660731925907591e-02
0	 8.750000000000001e-01	 3.125000000000000e-01	 3.788063865538445e-01
0	 8.750000000000004e-01	 3.750000000000001e-01	 7.429652368467674e-01
0	 8.750000000000002e-01	 4.375000000000000e-01	 1.139083870137844e+00
0	 8.750000000000001e-01	 4.999999999999999e-01	 1.567162286427076e+00
0	 8.750000000000001e-01	 5.624999999999999e-01	 2.027200485714464e+00
0	 8.750000000000002e-01	 6.250000000000001e-01	 2.519198468000001e+00
0	 9.375000000000002e-01	 0.000000000000000e+00	-1.657501123076926e+00
0	 9.375000000000001e-01	 6.249999999999998e-02	-1.379557877915386e+00
0	 9.375000000000002e-01	 1.250000000000000e-01	-1.055529938123079e+00
0	 9.375000000000002e-01	 1.875000000000000e-01	-6.854173037000031e-01
0	 9.375000000000002e-01	 2.499999999999999e-01	-2.692199746461554e-01
0	 9.375000000000004e-01	 3.125000000000001e-01	 1.930620490384598e-01
0	 9.375000000000003e-01	 3.749999999999999e-01	 7.014287673538453e-01
0	 9.375000000000003e-01	 4.375000000000000e-01	 1.255880180300000e+00
0	 9.375000000000001e-01	 4.999999999999999e-01	 1.856416287876925e+00
0	 9.375000000000004e-01	 5.625000000000001e-01	 2.503037090084618e+00
0	 9.375000000000004e-01	 6.250000000000000e-01	 3.195742586923080e+00
0	 1.000000000000000e+00	 0.000000000000000e+00	-2.164031916369233e+00
0	 1.000000000000000e+00	 6.249999999999999e-02	-1.835394457594465e+00
0	 1.000000000000000e+00	 1.250000000000000e-01	-1.446547392556308e+00
0	 1.000000000000000e+00	 1.875000000000000e-01	-9.974907212547706e-01
0	 1.000000000000000e+00	 2.500000000000001e-01	-4.882244436898464e-01
0	 1.000000000000000e+00	 3.124999999999999e-01	 8.125144013845986e-02
0	 1.000000000000000e+00	 3.750000000000000e-01	 7.109369302301554e-01
0	 1.000000000000000e+00	 4.375000000000001e-01	 1.400832026585232e+00
0	 1.000000000000000e+00	 5.000000000000000e-01	 2.150936729203693e+00
0	 1.000000000000001e+00	 5.625000000000001e-01	 2.961251038085540e+00
0	 1.000000000000000e+00	 6.250000000000000e-01	 3.831774953230772e+00
0	 1.062500000000000e+00	 0.000000000000000e+00	-2.482183499815388e+00
0	 1.062500000000001e+00	 6.250000000000000e-02	-2.125740923673539e+00
0	 1.062500000000000e+00	 1.250000000000000e-01	-1.694963829635696e+00
0	 1.062500000000000e+00	 1.875000000000000e-01	-1.189852217701848e+00
0	 1.062500000000000e+00	 2.500000000000001e-01	-6.104060878719988e-01
0	 1.062500000000000e+00	 3.125000000000000e-01	 4.337455985384331e-02
0	 1.062500000000001e+00	 3.750000000000000e-01	 7.714897254756909e-01
0	 1.062500000000000e+00	 4.374999999999999e-01	 1.573939408993537e+00
0	 1.062500000000000e+00	 4.999999999999999e-01	 2.450723610407384e+00
0	 1.062500000000000e+00	 5.625000000000000e-01	 3.401842329717231e+00
0	 1.062500000000000e+00	 6.250000000000000e-01	 4.427295566923076e+00
0	 1.125000000000000e+00	 0.000000000000000e+00	-2.611955873415385e+00
0	 1.125000000000000e+00	 6.249999999999999e-02	-2.250597276152617e+00
0	 1.125000000000000e+00	 1.250000000000000e-01	-1.800779249361231e+00
0	 1.125000000000000e+00	 1.875000000000000e-01	-1.262501793041232e+00
0	 1.125000000000000e+00	 2.500000000000000e-01	-6.357649071926161e-01
0	 1.125000000000000e+00	 3.125000000000000e-01	 7.943140818461636e-02
0	 1.125000000000000e+00	 3.750000000000000e-01	 8.830871530904583e-01
0	 1.125000000000001e+00	 4.375000000000001e-01	 1.775202327524924e+00
0	 1.125000000000000e+00	 5.000000000000000e-01	 2.755776931487998e+00
0	 1.125000000000000e+00	 5.624999999999999e-01	 3.824810964979692e+00
0	 1.125000000000000e+00	 6.250000000000000e-01	 4.982304428000003e+00
0	 1.187500000000000e+00	 0.000000000000000e+00	-2.553349037169230e+00
0	 1.187500000000000e+00	 6.250000000000000e-02	-2.209963515031692e+00
0	 1.187500000000000e+00	 1.250000000000000e-01	-1.763993651732921e+00
0	 1.187500000000001e+00	 1.875000000000000e-01	-1.215439447272924e+00
0	 1.187500000000000e+00	 2.500000000000000e-01	-5.643009016516931e-01
0	 1.187500000000001e+00	 3.125000000000001e-01	 1.894219851307657e-01
0	 1.187500000000001e+00	 3.750000000000000e-01	 1.045729213074463e+00
0	 1.187500000000001e+00	 4.375000000000000e-01	 2.004620782179382e+00
0	 1.187500000000001e+00	 5.000000000000000e-01	 3.066096692445540e+00
0	 1.187500000000000e+00	 5.625000000000000e-01	 4.230156943872921e+00
0	 1.187500000000000e+00	 6.250000000000000e-01	 5.496801536461542e+00
0	 1.250000000000000e+00	 0.000000000000000e+00	-2.306362991076924e+00
0	 1.250000000000000e+00	 6.250000000000000e-02	-2.003839640310772e+00
0	 1.250000000000000e+00	 1.250000000000000e-01	-1.584607036750770e+00
0	 1.250000000000000e+00	 1.875000000000000e-01	-1.048665180396927e+00
0	 1.250000000000000e+00	 2.500000000000000e-01	-3.960140712492315e-01
0	 1.250000000000000e+00	 3.125000000000000e-01	 3.733462906923073e-01
0	 1.250000000000000e+00	 3.750000000000000e-01	 1.259415905427693e+00
0	 1.250000000000000e+00	 4.374999999999999e-01	 2.262194772956917e+00
0	 1.250000000000000e+00	 5.000000000000000e-01	 3.381682893279999e+00
0	 1.250000000000000e+00	 5.624999999999999e-01	 4.617880266396920e+00
0	 1.250000000000000e+00	 6.250000000000000e-01	 5.970786892307692e+00
0	 6.250000000000000e-01	 6.250000000000000e-01	-5.920955338461539e-01
0	 6.250000000000000e-01	 6.875000000000000e-01	 4.195525836969236e+00
0	 6.250000000000000e-01	 7.500000000000002e-01	 9.007518572800009e+00
0	 6.250000000000000e-01	 8.125000000000002e-01	 1.384388267364617e+01
0	 6.250000000000000e-01	 8.750000000000002e-01	 1.870461813950771e+01
0	 6.250000000000000e-01	 9.375000000000002e-01	 2.358972497038464e+01
0	 6.250000000000000e-01	 1.000000000000000e+00	 2.849920316627695e+01
0	 6.250000000000001e-01	 1.062500000000000e+00	 3.343305272718464e+01
0	 6.250000000000001e-01	 1.125000000000001e+00	 3.839127365310772e+01
0	 6.250000000000000e-01	 1.187500000000000e+00	 4.337386594404619e+01
0	 6.250000000000000e-01	 1.250000000000000e+00	 4.838082960000001e+01
0	 6.875000000000000e-01	 6.249999999999999e-01	 2.464955955384621e-01
0	 6.875000000000000e-01	 6.875000000000000e-01	 4.794701673672313e+00
0	 6.874999999999999e-01	 7.500000000000000e-01	 9.359603957243085e+00
0	 6.875000000000001e-01	 8.125000000000003e-01	 1.394120244625078e+01
0	 6.875000000000001e-01	 8.750000000000002e-01	 1.853949714069540e+01
0	 6.875000000000000e-01	 9.375000000000003e-01	 2.315448804057694e+01
0	 6.875000000000000e-01	 1.000000000000000e+00	 2.778617514589540e+01
0	 6.875000000000001e-01	 1.062500000000000e+00	 3.243455845665079e+01
0	 6.875000000000001e-01	 1.125000000000000e+00	 3.709963797284312e+01
0	 6.875000000000001e-01	 1.187500000000001e+00	 4.178141369447235e+01
0	 6.875000000000000e-01	 1.250000000000000e+00	 4.647988562153845e+01
0	 7.500000000000001e-01	 6.250000000000001e-01	 1.044574972307694e+00
0	 7.500000000000002e-01	 6.875000000000001e-01	 5.344730637021544e+00
0	 7.500000000000003e-01	 7.500000000000003e-01	 9.653907347593853e+00
0	 7.500000000000001e-01	 8.125000000000001e-01	 1.397210510402463e+01
0	 7.500000000000002e-01	 8.750000000000003e-01	 1.829932390631386e+01
0	 7.500000000000002e-01	 9.375000000000002e-01	 2.263556375446156e+01
0	 7.500000000000000e-01	 1.000000000000000e+00	 2.698082464846772e+01
0	 7.500000000000001e-01	 1.062500000000000e+00	 3.133510658833233e+01
0	 7.500000000000001e-01	 1.125000000000000e+00	 3.569840957405542e+01
0	 7.500000000000001e-01	 1.187500000000001e+00	 4.007073360563695e+01
0	 7.500000000000001e-01	 1.250000000000000e+00	 4.445207868307691e+01
0	 8.125000000000002e-01	 6.249999999999999e-01	 1.802142596461540e+00
0	 8.125000000000003e-01	 6.875000000000001e-01	 5.845612727016926e+00
0	 8.125000000000003e-01	 7.500000000000003e-01	 9.890428743852308e+00
0	 8.125000000000001e-01	 8.125000000000000e-01	 1.393659064696770e+01
0	 8.125000000000001e-01	 8.750000000000001e-01	 1.798409843636308e+01
0	 8.125000000000003e-01	 9.375000000000003e-01	 2.203295211203848e+01
0	 8.125000000000001e-01	 1.000000000000000e+00	 2.608315167399386e+01
0	 8.125000000000003e-01	 1.062500000000000e+00	 3.013469712222925e+01
0	 8.125000000000001e-01	 1.125000000000000e+00	 3.418758845674464e+01
0	 8.125000000000001e-01	 1.187500000000000e+00	 3.824182567754002e+01
0	 8.125000000000002e-01	 1.250000000000000e+00	 4.229740878461537e+01
0	 8.750000000000002e-01	 6.250000000000001e-01	 2.519198468000001e+00
0	 8.749999999999999e-01	 6.875000000000000e-01	 6.297347943658465e+00
0	 8.750000000000002e-01	 7.500000000000002e-01	 1.006916814601847e+01
0	 8.750000000000002e-01	 8.125000000000001e-01	 1.383465907508000e+01
0	 8.749999999999999e-01	 8.749999999999999e-01	 1.759382073084309e+01
0	 8.750000000000002e-01	 9.375000000000002e-01	 2.134665311330771e+01
0	 8.750000000000003e-01	 1.000000000000000e+00	 2.509315622247385e+01
0	 8.750000000000003e-01	 1.062500000000001e+00	 2.883333005834156e+01
0	 8.750000000000001e-01	 1.125000000000000e+00	 3.256717462091078e+01
0	 8.750000000000002e-01	 1.187500000000001e+00	 3.629468991018156e+01
0	 8.750000000000002e-01	 1.250000000000000e+00	 4.001587592615383e+01
0	 9.375000000000004e-01	 6.250000000000000e-01	 3.195742586923080e+00
0	 9.375000000000003e-01	 6.875000000000000e-01	 6.699936286946159e+00
0	 9.375000000000002e-01	 7.500000000000001e-01	 1.019012555409231e+01
0	 9.375000000000002e-01	 8.125000000000001e-01	 1.366631038836154e+01
0	 9.375000000000003e-01	 8.750000000000003e-01	 1.712849078975385e+01
0	 9.375000000000002e-01	 9.375000000000002e-01	 2.057666675826924e+01
0	 9.375000000000003e-01	 1.000000000000000e+00	 2.401083829390770e+01
0	 9.375000000000004e-01	 1.062500000000000e+00	 2.743100539666924e+01
0	 9.375000000000004e-01	 1.125000000000000e+00	 3.083716806655386e+01
0	 9.375000000000002e-01	 1.187500000000000e+00	 3.422932630356156e+01
0	 9.375000000000004e-01	 1.250000000000000e+00	 3.760748010769230e+01
0	 1.000000000000000e+00	 6.250000000000000e-01	 3.831774953230772e+00
0	 1.000000000000000e+00	 6.875000000000001e-01	 7.053377756880003e+00
0	 1.000000000000000e+00	 7.500000000000001e-01	 1.025330096807385e+01
0	 1.000000000000000e+00	 8.125000000000001e-01	 1.343154458681231e+01
0	 1.000000000000000e+00	 8.750000000000003e-01	 1.658810861309539e+01
0	 1.000000000000000e+00	 9.375000000000003e-01	 1.972299304692309e+01
0	 1.000000000000000e+00	 1.000000000000000e+00	 2.283619788829539e+01
0	 1.000000000000000e+00	 1.062500000000001e+00	 2.592772313721233e+01
0	 1.000000000000001e+00	 1.125000000000001e+00	 2.899756879367386e+01
0	 1.000000000000000e+00	 1.187500000000000e+00	 3.204573485768002e+01
0	 1.000000000000000e+00	 1.250000000000000e+00	 3.507222132923075e+01
0	 1.062500000000000e+00	 6.250000000000000e-01	 4.427295566923076e+00
0	 1.062500000000000e+00	 6.875000000000001e-01	 7.357672353460004e+00
0	 1.062500000000000e+00	 7.500000000000002e-01	 1.025869438796308e+01
0	 1.062500000000000e+00	 8.125000000000001e-01	 1.313036167043231e+01
0	 1.062500000000000e+00	 8.750000000000002e-01	 1.597267420086770e+01
0	 1.062500000000001e+00	 9.375000000000003e-01	 1.878563197926924e+01
0	 1.062500000000000e+00	 1.000000000000000e+00	 2.156923500563692e+01
0	 1.062500000000000e+00	 1.062500000000000e+00	 2.432348327997077e+01
0	 1.062500000000000e+00	 1.125000000000000e+00	 2.704837680227077e+01
0	 1.062500000000000e+00	 1.187500000000000e+00	 2.974391557253693e+01
0	 1.062500000000000e+00	 1.250000000000000e+00	 3.241009959076921e+01
0	 1.125000000000000e+00	 6.250000000000000e-01	 4.982304428000003e+00
0	 1.125000000000000e+00	 6.875000000000001e-01	 7.612820076686152e+00
0	 1.125000000000000e+00	 7.500000000000001e-01	 1.020630581376000e+01
0	 1.125000000000001e+00	 8.125000000000002e-01	 1.276276163922154e+01
0	 1.125000000000000e+00	 8.750000000000001e-01	 1.528218755307077e+01
0	 1.125000000000000e+00	 9.375000000000003e-01	 1.776458355530769e+01
0	 1.125000000000001e+00	 1.000000000000001e+00	 2.020994964593232e+01
0	 1.125000000000001e+00	 1.062500000000000e+00	 2.261828582494461e+01
0	 1.125000000000000e+00	 1.125000000000000e+00	 2.498959209234461e+01
0	 1.125000000000000e+00	 1.187500000000000e+00	 2.732386844813231e+01
0	 1.125000000000000e+00	 1.250000000000000e+00	 2.962111489230767e+01
0	 1.187500000000000e+00	 6.250000000000000e-01	 5.496801536461542e+00
0	 1.187500000000001e+00	 6.875000000000001e-01	 7.818820926558463e+00
0	 1.187500000000000e+00	 7.500000000000002e-01	 1.009613524546462e+01
0	 1.187500000000000e+00	 8.125000000000000e-01	 1.232874449318000e+01
0	 1.187500000000000e+00	 8.750000000000000e-01	 1.451664866970461e+01
0	 1.187500000000000e+00	 9.375000000000000e-01	 1.665984777503845e+01
0	 1.187500000000000e+00	 1.000000000000000e+00	 1.875834180918154e+01
0	 1.187500000000000e+00	 1.062500000000000e+00	 2.081213077213384e+01
0	 1.187500000000000e+00	 1.125000000000000e+00	 2.282121466389538e+01
0	 1.187500000000000e+00	 1.187500000000001e+00	 2.478559348446615e+01
0	 1.187500000000000e+00	 1.250000000000000e+00	 2.670526723384613e+01
0	 1.250000000000000e+00	 6.250000000000000e-01	 5.970786892307692e+00
0	 1.250000000000000e+00	 6.875000000000000e-01	 7.975674903076926e+00
0	 1.250000000000000e+00	 7.500000000000002e-01	 9.928182683076924e+00
0	 1.250000000000000e+00	 8.125000000000002e-01	 1.182831023230769e+01
0	 1.250000000000000e+00	 8.750000000000002e-01	 1.367605755076923e+01
0	 1.250000000000000e+00	 9.375000000000002e-01	 1.547142463846154e+01
0	 1.250000000000000e+00	 1.000000000000000e+00	 1.721441149538462e+01
0	 1.250000000000000e+00	 1.062500000000000e+00	 1.890501812153847e+01
0	 1.250000000000000e+00	 1.125000000000001e+00	 2.054324451692309e+01
0	 1.250000000000000e+00	 1.187500000000000e+00	 2.212909068153848e+01
0	 1.250000000000000e+00	 1.250000000000000e+00	 2.366255661538462e+01
0	 6.250000000000000e-01	 1.250000000000000e+00	 4.838082960000001e+01
0	 6.250000000000000e-01	 1.312500000000000e+00	 4.443761917815384e+01
0	 6.250000000000000e-01	 1.375000000000000e+00	 4.048876278030768e+01
0	 6.250000000000000e-01	 1.437500000000000e+00	 3.653426040646153e+01
0	 6.250000000000000e-01	 1.500000000000000e+00	 3.257411205661537e+01
0	 6.250000000000000e-01	 1.562500000000000e+00	 2.860831773076921e+01
0	 6.250000000000000e-01	 1.625000000000000e+00	 2.463687742892305e+01
0	 6.250000000000001e-01	 1.687500000000000e+00	 2.065979115107690e+01
0	 6.250000000000001e-01	 1.750000000000001e+00	 1.667705889723074e+01
0	 6.250000000000000e-01	 1.812500000000000e+00	 1.268868066738458e+01
0	 6.250000000000000e-01	 1.875000000000000e+00	 8.694656461538459e+00
0	 6.875000000000000e-01	 1.250000000000000e+00	 4.647988562153845e+01
0	 6.875000000000000e-01	 1.312500000000000e+00	 4.267662941403076e+01
0	 6.874999999999999e-01	 1.375000000000000e+00	 3.886927901181538e+01
0	 6.875000000000001e-01	 1.437500000000000e+00	 3.505783441489228e+01
0	 6.875000000000001e-01	 1.500000000000000e+00	 3.124229562326152e+01
0	 6.875000000000000e-01	 1.562500000000000e+00	 2.742266263692305e+01
0	 6.875000000000000e-01	 1.625000000000000e+00	 2.359893545587690e+01
0	 6.875000000000001e-01	 1.687500000000000e+00	 1.977111408012305e+01
0	 6.875000000000001e-01	 1.750000000000001e+00	 1.593919850966150e+01
0	 6.875000000000001e-01	 1.812500000000000e+00	 1.210318874449227e+01
0	 6.875000000000000e-01	 1.875000000000000e+00	 8.263084784615378e+00
0	 7.500000000000001e-01	 1.250000000000000e+00	 4.445207868307691e+01
0	 7.500000000000002e-01	 1.312500000000000e+00	 4.080987097667690e+01
0	 7.500000000000003e-01	 1.375000000000000e+00	 3.716512085686151e+01
0	 7.500000000000001e-01	 1.437500000000000e+00	 3.351782832363076e+01
0	 7.500000000000002e-01	 1.500000000000000e+00	 2.986799337698459e+01
0	 7.500000000000002e-01	 1.562500000000001e+00	 2.621561601692305e+01
0	 7.500000000000000e-01	 1.625000000000000e+00	 2.256069624344612e+01
0	 7.500000000000001e-01	 1.687500000000001e+00	 1.890323405655382e+01
0	 7.500000000000001e-01	 1.750000000000000e+00	 1.524322945624612e+01
0	 7.500000000000001e-01	 1.812500000000001e+00	 1.158068244252305e+01
0	 7.500000000000001e-01	 1.875000000000000e+00	 7.915593015384609e+00
0	 8.125000000000002e-01	 1.250000000000000e+00	 4.229740878461537e+01
0	 8.125000000000003e-01	 1.312500000000000e+00	 3.883734386609228e+01
0	 8.125000000000003e-01	 1.375000000000000e+00	 3.537628831544614e+01
0	 8.125000000000001e-01	 1.437500000000000e+00	 3.191424213267689e+01
0	 8.125000000000001e-01	 1.500000000000000e+00	 2.845120531778459e+01
0	 8.125000000000003e-01	 1.562500000000001e+00	 2.498717787076922e+01
0	 8.125000000000001e-01	 1.625000000000000e+00	 2.152215979163075e+01
0	 8.125000000000003e-01	 1.687500000000001e+00	 1.805615108036920e+01
0	 8.125000000000001e-01	 1.750000000000000e+00	 1.458915173698459e+01
0	 8.125000000000001e-01	 1.812500000000000e+00	 1.112116176147689e+01
0	 8.125000000000002e-01	 1.875000000000000e+00	 7.652181153846152e+00
0	 8.750000000000002e-01	 1.250000000000000e+00	 4.001587592615383e+01
0	 8.749999999999999e-01	 1.312500000000000e+00	 3.675904808227691e+01
0	 8.750000000000002e-01	 1.375000000000000e+00	 3.350278138756920e+01
0	 8.750000000000002e-01	 1.437500000000000e+00	 3.024707584203075e+01
0	 8.749999999999999e-01	 1.500000000000000e+00	 2.699193144566152e+01
0	 8.750000000000002e-01	 1.562500000000000e+00	 2.373734819846152e+01
0	 8.750000000000003e-01	 1.625000000000001e+00	 2.048332610043074e+01
0	 8.750000000000003e-01	 1.687500000000000e+00	 1.722986515156920e+01
0	 8.750000000000001e-01	 1.750000000000000e+00	 1.397696535187689e+01
0	 8.750000000000002e-01	 1.812500000000001e+00	 1.072462670135382e+01
0	 8.750000000000002e-01	 1.875000000000000e+00	 7.472849200000004e+00
0	 9.375000000000004e-01	 1.250000000000000e+00	 3.760748010769230e+01
0	 9.375000000000003e-01	 1.312500000000000e+00	 3.457498362523075e+01
0	 9.375000000000002e-01	 1.375000000000000e+00	 3.154460007323074e+01
0	 9.375000000000002e-01	 1.437500000000000e+00	 2.851632945169229e+01
0	 9.375000000000003e-01	 1.500000000000000e+00	 2.549017176061537e+01
0	 9.375000000000002e-01	 1.562500000000000e+00	 2.246612699999997e+01
0	 9.375000000000003e-01	 1.625000000000000e+00	 1.944419516984613e+01
0	 9.375000000000004e-01	 1.687500000000001e+00	 1.642437627015381e+01
0	 9.375000000000004e-01	 1.750000000000001e+00	 1.340667030092305e+01
0	 9.375000000000002e-01	 1.812500000000000e+00	 1.039107726215381e+01
0	 9.375000000000004e-01	 1.875000000000000e+00	 7.377597153846149e+00
0	 1.000000000000000e+00	 1.250000000000000e+00	 3.507222132923075e+01
0	 1.000000000000000e+00	 1.312500000000000e+00	 3.228515049495383e+01
0	 1.000000000000000e+00	 1.375000000000000e+00	 2.950174437243075e+01
0	 1.000000000000000e+00	 1.437500000000000e+00	 2.672200296166152e+01
0	 1.000000000000000e+00	 1.500000000000000e+00	 2.394592626264612e+01
0	 1.000000000000000e+00	 1.562500000000000e+00	 2.117351427538459e+01
0	 1.000000000000000e+00	 1.625000000000000e+00	 1.840476699987690e+01
0	 1.000000000000000e+00	 1.687500000000001e+00	 1.563968443612305e+01
0	 1.000000000000001e+00	 1.750000000000000e+00	 1.287826658412306e+01
0	 1.000000000000000e+00	 1.812500000000000e+00	 1.012051344387690e+01
0	 1.000000000000000e+00	 1.875000000000000e+00	 7.366425015384621e+00
0	 1.062500000000000e+00	 1.250000000000000e+00	 3.241009959076921e+01
0	 1.062500000000000e+00	 1.312500000000000e+00	 2.988954869144614e+01
0	 1.062500000000000e+00	 1.375000000000000e+00	 2.737421428516921e+01
0	 1.062500000000000e+00	 1.437500000000000e+00	 2.486409637193844e+01
0	 1.062500000000000e+00	 1.500000000000000e+00	 2.235919495175382e+01
0	 1.062500000000001e+00	 1.562500000000000e+00	 1.985951002461536e+01
0	 1.062500000000000e+00	 1.625000000000000e+00	 1.736504159052305e+01
0	 1.062500000000000e+00	 1.687500000000000e+00	 1.487578964947690e+01
0	 1.062500000000000e+00	 1.750000000000000e+00	 1.239175420147690e+01
0	 1.062500000000000e+00	 1.812500000000000e+00	 9.912935246523055e+00
0	 1.062500000000000e+00	 1.875000000000000e+00	 7.439332784615372e+00
0	 1.125000000000000e+00	 1.250000000000000e+00	 2.962111489230767e+01
0	 1.125000000000000e+00	 1.312500000000000e+00	 2.738817821470767e+01
0	 1.125000000000000e+00	 1.375000000000000e+00	 2.516200981144613e+01
0	 1.125000000000001e+00	 1.437500000000000e+00	 2.294260968252306e+01
0	 1.125000000000000e+00	 1.500000000000000e+00	 2.072997782793844e+01
0	 1.125000000000000e+00	 1.562500000000000e+00	 1.852411424769229e+01
0	 1.125000000000001e+00	 1.625000000000001e+00	 1.632501894178460e+01
0	 1.125000000000001e+00	 1.687500000000001e+00	 1.413269191021536e+01
0	 1.125000000000000e+00	 1.750000000000001e+00	 1.194713315298459e+01
0	 1.125000000000000e+00	 1.812500000000001e+00	 9.768342670092279e+00
0	 1.125000000000000e+00	 1.875000000000000e+00	 7.596320461538461e+00
0	 1.187500000000000e+00	 1.250000000000000e+00	 2.670526723384613e+01
0	 1.187500000000001e+00	 1.312500000000000e+00	 2.478103906473844e+01
0	 1.187500000000000e+00	 1.375000000000000e+00	 2.286513095126151e+01
0	 1.187500000000000e+00	 1.437500000000000e+00	 2.095754289341536e+01
0	 1.187500000000000e+00	 1.500000000000000e+00	 1.905827489119997e+01
0	 1.187500000000000e+00	 1.562500000000000e+00	 1.716732694461536e+01
0	 1.187500000000000e+00	 1.625000000000000e+00	 1.528469905366152e+01
0	 1.187500000000000e+00	 1.687500000000000e+00	 1.341039121833843e+01
0	 1.187500000000000e+00	 1.750000000000001e+00	 1.154440343864614e+01
0	 1.187500000000000e+00	 1.812500000000001e+00	 9.686735714584596e+00
0	 1.187500000000000e+00	 1.875000000000000e+00	 7.837388046153842e+00
0	 1.250000000000000e+00	 1.250000000000000e+00	 2.366255661538462e+01
0	 1.250000000000000e+00	 1.312500000000000e+00	 2.206813124153846e+01
0	 1.250000000000000e+00	 1.375000000000000e+00	 2.048357770461538e+01
0	 1.250000000000000e+00	 1.437500000000000e+00	 1.890889600461538e+01
0	 1.250000000000000e+00	 1.500000000000000e+00	 1.734408614153845e+01
0	 1.250000000000000e+00	 1.562500000000000e+00	 1.578914811538460e+01
0	 1.250000000000000e+00	 1.625000000000000e+00	 1.424408192615383e+01
0	 1.250000000000000e+00	 1.687500000000000e+00	 1.270888757384614e+01
0	 1.250000000000000e+00	 1.750000000000001e+00	 1.118356505846152e+01
0	 1.250000000000000e+00	 1.812500000000000e+00	 9.668114379999984e+00
0	 1.250000000000000e+00	 1.875000000000000e+00	 8.162535538461533e+00
0	 6.250000000000000e-01	 1.875000000000000e+00	 8.694656461538459e+00
0	 6.250000000000000e-01	 1.937500000000000e+00	 8.582389371230764e+00
0	 6.250000000000000e-01	 2.000000000000000e+00	 8.472425811076917e+00
0	 6.250000000000000e-01	 2.062500000000000e+00	 8.364765781076919e+00
0	 6.250000000000000e-01	 2.125000000000000e+00	 8.259409281230768e+00
0	 6.250000000000000e-01	 2.187500000000000e+00	 8.156356311538458e+00
0	 6.250000000000000e-01	 2.250000000000000e+00	 8.055606872000002e+00
0	 6.250000000000001e-01	 2.312500000000000e+00	 7.957160962615384e+00
0	 6.250000000000001e-01	 2.375000000000001e+00	 7.861018583384621e+00
0	 6.250000000000000e-01	 2.437500000000001e+00	 7.767179734307694e+00
0	 6.250000000000000e-01	 2.500000000000000e+00	 7.675644415384618e+00
0	 6.875000000000000e-01	 1.875000000000000e+00	 8.263084784615378e+00
0	 6.875000000000000e-01	 1.937500000000000e+00	 8.234740344723075e+00
0	 6.874999999999999e-01	 2.000000000000000e+00	 8.206531241661533e+00
0	 6.875000000000001e-01	 2.062500000000000e+00	 8.178457475430768e+00
0	 6.875000000000001e-01	 2.125000000000000e+00	 8.150519046030768e+00
0	 6.875000000000000e-01	 2.187500000000001e+00	 8.122715953461540e+00
0	 6.875000000000000e-01	 2.250000000000000e+00	 8.095048197723074e+00
0	 6.875000000000001e-01	 2.312500000000001e+00	 8.067515778815384e+00
0	 6.875000000000001e-01	 2.375000000000001e+00	 8.040118696738466e+00
0	 6.875000000000001e-01	 2.437500000000000e+00	 8.012856951492305e+00
0	 6.875000000000000e-01	 2.500000000000000e+00	 7.985730543076924e+00
0	 7.500000000000001e-01	 1.875000000000000e+00	 7.915593015384609e+00
0	 7.500000000000002e-01	 1.937500000000000e+00	 7.960324801292304e+00
0	 7.500000000000003e-01	 2.000000000000000e+00	 8.003023730707689e+00
0	 7.500000000000001e-01	 2.062500000000000e+00	 8.043689803630764e+00
0	 7.500000000000002e-01	 2.125000000000000e+00	 8.082323020061533e+00
0	 7.500000000000002e-01	 2.187500000000000e+00	 8.118923379999996e+00
0	 7.500000000000000e-01	 2.250000000000000e+00	 8.153490883446153e+00
0	 7.500000000000001e-01	 2.312500000000001e+00	 8.186025530400000e+00
0	 7.500000000000001e-01	 2.375000000000001e+00	 8.216527320861534e+00
0	 7.500000000000001e-01	 2.437500000000000e+00	 8.244996254830774e+00
0	 7.500000000000001e-01	 2.500000000000000e+00	 8.271432332307699e+00
0	 8.125000000000002e-01	 1.875000000000000e+00	 7.652181153846152e+00
0	 8.125000000000003e-01	 1.937500000000000e+00	 7.759142740938458e+00
0	 8.125000000000003e-01	 2.000000000000000e+00	 7.861903278215383e+00
0	 8.125000000000001e-01	 2.062500000000000e+00	 7.960462765676918e+00
0	 8.125000000000001e-01	 2.125000000000000e+00	 8.054821203323078e+00
0	 8.125000000000003e-01	 2.187500000000001e+00	 8.144978591153841e+00
0	 8.125000000000001e-01	 2.250000000000000e+00	 8.230934929169230e+00
0	 8.125000000000003e-01	 2.312500000000000e+00	 8.312690217369230e+00
0	 8.125000000000001e-01	 2.375000000000000e+00	 8.390244455753850e+00
0	 8.125000000000001e-01	 2.437500000000001e+00	 8.463597644323078e+00
0	 8.125000000000002e-01	 2.500000000000000e+00	 8.532749783076925e+00
0	 8.750000000000002e-01	 1.875000000000000e+00	 7.472849200000004e+00
0	 8.749999999999999e-01	 1.937500000000000e+00	 7.631194163661533e+00
0	 8.750000000000002e-01	 2.000000000000000e+00	 7.783169884184609e+00
0	 8.750000000000002e-01	 2.062500000000000e+00	 7.928776361569224e+00
0	 8.749999999999999e-01	 2.125000000000000e+00	 8.068013595815383e+00
0	 8.750000000000002e-01	 2.187500000000000e+00	 8.200881586923083e+00
0	 8.750000000000003e-01	 2.250000000000000e+00	 8.327380334892306e+00
0	 8.750000000000003e-01	 2.312500000000000e+00	 8.447509839723077e+00
0	 8.750000000000001e-01	 2.375000000000000e+00	 8.561270101415380e+00
0	 8.750000000000002e-01	 2.437500000000000e+00	 8.668661119969229e+00
0	 8.750000000000002e-01	 2.500000000000000e+00	 8.769682895384619e+00
0	 9.375000000000004e-01	 1.875000000000000e+00	 7.377597153846149e+00
0	 9.375000000000003e-01	 1.937500000000000e+00	 7.576479069461536e+00
0	 9.375000000000002e-01	 2.000000000000000e+00	 7.766823548615378e+00
0	 9.375000000000002e-01	 2.062500000000000e+00	 7.948630591307687e+00
0	 9.375000000000003e-01	 2.125000000000001e+00	 8.121900197538460e+00
0	 9.375000000000002e-01	 2.187500000000000e+00	 8.286632367307696e+00
0	 9.375000000000003e-01	 2.250000000000000e+00	 8.442827100615387e+00
0	 9.375000000000004e-01	 2.312500000000001e+00	 8.590484397461536e+00
0	 9.375000000000004e-01	 2.375000000000000e+00	 8.729604257846161e+00
0	 9.375000000000002e-01	 2.437500000000001e+00	 8.860186681769235e+00
0	 9.375000000000004e-01	 2.500000000000000e+00	 8.982231669230769e+00
0	 1.000000000000000e+00	 1.875000000000000e+00	 7.366425015384621e+00
0	 1.000000000000000e+00	 1.937500000000000e+00	 7.594997458338463e+00
0	 1.000000000000000e+00	 2.000000000000000e+00	 7.812864271507691e+00
0	 1.000000000000000e+00	 2.062500000000000e+00	 8.020025454892313e+00
0	 1.000000000000000e+00	 2.125000000000000e+00	 8.216481008492309e+00
0	 1.000000000000000e+00	 2.187500000000000e+00	 8.402230932307695e+00
0	 1.000000000000000e+00	 2.250000000000000e+00	 8.577275226338461e+00
0	 1.000000000000000e+00	 2.312500000000001e+00	 8.741613890584615e+00
0	 1.000000000000001e+00	 2.375000000000001e+00	 8.895246925046157e+00
0	 1.000000000000000e+00	 2.437500000000000e+00	 9.038174329723082e+00
0	 1.000000000000000e+00	 2.500000000000000e+00	 9.170396104615385e+00
0	 1.062500000000000e+00	 1.875000000000000e+00	 7.439332784615372e+00
0	 1.062500000000000e+00	 1.937500000000000e+00	 7.686749330292300e+00
0	 1.062500000000000e+00	 2.000000000000000e+00	 7.921292052861537e+00
0	 1.062500000000000e+00	 2.062500000000000e+00	 8.142960952323079e+00
0	 1.062500000000000e+00	 2.125000000000000e+00	 8.351756028676924e+00
0	 1.062500000000001e+00	 2.187500000000000e+00	 8.547677281923077e+00
0	 1.062500000000000e+00	 2.250000000000000e+00	 8.730724712061544e+00
0	 1.062500000000000e+00	 2.312500000000000e+00	 8.900898319092313e+00
0	 1.062500000000000e+00	 2.375000000000000e+00	 9.058198103015389e+00
0	 1.062500000000000e+00	 2.437500000000000e+00	 9.202624063830774e+00
0	 1.062500000000000e+00	 2.500000000000000e+00	 9.334176201538471e+00
0	 1.125000000000000e+00	 1.875000000000000e+00	 7.596320461538461e+00
0	 1.125000000000000e+00	 1.937500000000000e+00	 7.851734685323077e+00
0	 1.125000000000000e+00	 2.000000000000000e+00	 8.092106892676920e+00
0	 1.125000000000001e+00	 2.062500000000000e+00	 8.317437083600002e+00
0	 1.125000000000000e+00	 2.125000000000000e+00	 8.527725258092307e+00
0	 1.125000000000000e+00	 2.187500000000000e+00	 8.722971416153847e+00
0	 1.125000000000001e+00	 2.250000000000001e+00	 8.903175557784618e+00
0	 1.125000000000001e+00	 2.312500000000001e+00	 9.068337682984616e+00
0	 1.125000000000000e+00	 2.375000000000001e+00	 9.218457791753845e+00
0	 1.125000000000000e+00	 2.437500000000001e+00	 9.353535884092317e+00
0	 1.125000000000000e+00	 2.500000000000000e+00	 9.473571959999999e+00
0	 1.187500000000000e+00	 1.875000000000000e+00	 7.837388046153842e+00
0	 1.187500000000001e+00	 1.937500000000000e+00	 8.089953523430767e+00
0	 1.187500000000000e+00	 2.000000000000000e+00	 8.325308790953844e+00
0	 1.187500000000000e+00	 2.062500000000000e+00	 8.543453848723082e+00
0	 1.187500000000000e+00	 2.125000000000000e+00	 8.744388696738465e+00
0	 1.187500000000000e+00	 2.187500000000000e+00	 8.928113334999997e+00
0	 1.187500000000000e+00	 2.250000000000000e+00	 9.094627763507697e+00
0	 1.187500000000000e+00	 2.312500000000000e+00	 9.243931982261547e+00
0	 1.187500000000000e+00	 2.375000000000001e+00	 9.376025991261544e+00
0	 1.187500000000000e+00	 2.437500000000000e+00	 9.490909790507692e+00
0	 1.187500000000000e+00	 2.500000000000000e+00	 9.588583380000005e+00
0	 1.250000000000000e+00	 1.875000000000000e+00	 8.162535538461533e+00
0	 1.250000000000000e+00	 1.937500000000000e+00	 8.401405844615379e+00
0	 1.250000000000000e+00	 2.000000000000000e+00	 8.620897747692304e+00
0	 1.250000000000000e+00	 2.062500000000000e+00	 8.821011247692304e+00
0	 1.250000000000000e+00	 2.125000000000000e+00	 9.001746344615386e+00
0	 1.250000000000000e+00	 2.187500000000000e+00	 9.163103038461539e+00
0	 1.250000000000000e+00	 2.250000000000000e+00	 9.305081329230770e+00
0	 1.250000000000000e+00	 2.312500000000000e+00	 9.427681216923073e+00
0	 1.250000000000000e+00	 2.375000000000001e+00	 9.530902701538466e+00
0	 1.250000000000000e+00	 2.437500000000001e+00	 9.614745783076927e+00
0	 1.250000000000000e+00	 2.500000000000000e+00	 9.679210461538464e+00
0	 6.250000000000000e-01	 2.500000000000000e+00	 7.675644415384618e+00
0	 6.250000000000000e-01	 2.562500000000000e+00	 7.757784782153852e+00
0	 6.250000000000001e-01	 2.625000000000000e+00	 7.842853913230771e+00
0	 6.249999999999999e-01	 2.687499999999999e+00	 7.930851808615382e+00
0	 6.250000000000000e-01	 2.750000000000000e+00	 8.021778468307694e+00
0	 6.250000000000000e-01	 2.812499999999999e+00	 8.115633892307695e+00
0	 6.250000000000000e-01	 2.874999999999999e+00	 8.212418080615381e+00
0	 6.249999999999999e-01	 2.937499999999998e+00	 8.312131033230765e+00
0	 6.250000000000000e-01	 2.999999999999998e+00	 8.414772750153841e+00
0	 6.250000000000000e-01	 3.062499999999998e+00	 8.520343231384615e+00
0	 6.250000000000000e-01	 3.125000000000000e+00	 8.628842476923078e+00
0	 6.875000000000000e-01	 2.500000000000000e+00	 7.985730543076924e+00
0	 6.875000000000000e-01	 2.562500000000000e+00	 8.039702548707695e+00
0	 6.875000000000000e-01	 2.624999999999999e+00	 8.096908759446162e+00
0	 6.874999999999999e-01	 2.687499999999999e+00	 8.157349175292305e+00
0	 6.874999999999999e-01	 2.749999999999999e+00	 8.221023796246156e+00
0	 6.875000000000000e-01	 2.812499999999999e+00	 8.287932622307693e+00
0	 6.875000000000000e-01	 2.874999999999999e+00	 8.358075653476927e+00
0	 6.875000000000001e-01	 2.937499999999998e+00	 8.431452889753846e+00
0	 6.874999999999999e-01	 2.999999999999999e+00	 8.508064331138465e+00
0	 6.875000000000001e-01	 3.062499999999999e+00	 8.587909977630765e+00
0	 6.875000000000000e-01	 3.125000000000000e+00	 8.670989829230772e+00
0	 7.500000000000001e-01	 2.500000000000000e+00	 8.271432332307699e+00
0	 7.500000000000000e-01	 2.562500000000000e+00	 8.300108776799998e+00
0	 7.500000000000001e-01	 2.625000000000000e+00	 8.332324867200002e+00
0	 7.500000000000001e-01	 2.687500000000000e+00	 8.368080603507691e+00
0	 7.500000000000000e-01	 2.750000000000000e+00	 8.407375985723073e+00
0	 7.500000000000001e-01	 2.812499999999999e+00	 8.450211013846157e+00
0	 7.500000000000002e-01	 2.874999999999999e+00	 8.496585687876928e+00
0	 7.500000000000001e-01	 2.937499999999999e+00	 8.546500007815382e+00
0	 7.500000000000000e-01	 2.999999999999998e+00	 8.599953973661529e+00
0	 7.500000000000000e-01	 3.062499999999998e+00	 8.656947585415381e+00
0	 7.500000000000001e-01	 3.125000000000000e+00	 8.717480843076915e+00
0	 8.125000000000002e-01	 2.500000000000000e+00	 8.532749783076925e+00
0	 8.125000000000002e-01	 2.562500000000000e+00	 8.539003466430767e+00
0	 8.125000000000002e-01	 2.625000000000000e+00	 8.549102236492306e+00
0	 8.125000000000002e-01	 2.687499999999999e+00	 8.563046093261535e+00
0	 8.124999999999999e-01	 2.749999999999999e+00	 8.580835036738460e+00
0	 8.125000000000002e-01	 2.812499999999999e+00	 8.602469066923080e+00
0	 8.125000000000001e-01	 2.874999999999999e+00	 8.627948183815381e+00
0	 8.125000000000000e-01	 2.937499999999998e+00	 8.657272387415389e+00
0	 8.125000000000001e-01	 2.999999999999998e+00	 8.690441677723081e+00
0	 8.125000000000001e-01	 3.062499999999997e+00	 8.727456054738459e+00
0	 8.125000000000002e-01	 3.125000000000000e+00	 8.768315518461538e+00
0	 8.750000000000002e-01	 2.500000000000000e+00	 8.769682895384619e+00
0	 8.750000000000003e-01	 2.562500000000000e+00	 8.756386617600006e+00
0	 8.750000000000002e-01	 2.625000000000000e+00	 8.747240867323073e+00
0	 8.750000000000002e-01	 2.687499999999999e+00	 8.742245644553851e+00
0	 8.750000000000003e-01	 2.749999999999999e+00	 8.741400949292309e+00
0	 8.749999999999999e-01	 2.812499999999998e+00	 8.744706781538461e+00
0	 8.750000000000002e-01	 2.874999999999999e+00	 8.752163141292302e+00
0	 8.750000000000001e-01	 2.937499999999999e+00	 8.763770028553843e+00
0	 8.750000000000002e-01	 2.999999999999999e+00	 8.779527443323076e+00
0	 8.750000000000001e-01	 3.062499999999998e+00	 8.799435385600001e+00
0	 8.750000000000002e-01	 3.125000000000000e+00	 8.823493855384617e+00
0	 9.375000000000004e-01	 2.500000000000000e+00	 8.982231669230769e+00
0	 9.375000000000003e-01	 2.562499999999999e+00	 8.952258230307699e+00
0	 9.375000000000004e-01	 2.625000000000000e+00	 8.926740759692308e+00
0	 9.375000000000003e-01	 2.687500000000000e+00	 8.905679257384616e+00
0	 9.375000000000000e-01	 2.749999999999999e+00	 8.889073723384616e+00
0	 9.375000000000003e-01	 2.812500000000000e+00	 8.876924157692304e+00
0	 9.375000000000004e-01	 2.874999999999998e+00	 8.869230560307695e+00
0	 9.375000000000003e-01	 2.937499999999999e+00	 8.865992931230773e+00
0	 9.375000000000003e-01	 2.999999999999999e+00	 8.867211270461535e+00
0	 9.375000000000003e-01	 3.062499999999999e+00	 8.872885577999998e+00
0	 9.375000000000004e-01	 3.125000000000000e+00	 8.883015853846150e+00
0	 1.000000000000000e+00	 2.500000000000000e+00	 9.170396104615385e+00
0	 1.000000000000000e+00	 2.562500000000000e+00	 9.126618304553855e+00
0	 1.000000000000000e+00	 2.625000000000000e+00	 9.087601913600000e+00
0	 1.000000000000000e+00	 2.687499999999999e+00	 9.053346931753852e+00
0	 1.000000000000000e+00	 2.749999999999999e+00	 9.023853359015382e+00
0	 1.000000000000000e+00	 2.812499999999999e+00	 8.999121195384618e+00
0	 1.000000000000000e+00	 2.874999999999999e+00	 8.979150440861538e+00
0	 1.000000000000000e+00	 2.937499999999998e+00	 8.963941095446156e+00
0	 1.000000000000000e+00	 2.999999999999999e+00	 8.953493159138455e+00
0	 1.000000000000000e+00	 3.062499999999998e+00	 8.947806631938455e+00
0	 1.000000000000000e+00	 3.125000000000000e+00	 8.946881513846154e+00
0	 1.062500000000000e+00	 2.500000000000000e+00	 9.334176201538471e+00
0	 1.062500000000000e+00	 2.562500000000000e+00	 9.279466840338461e+00
0	 1.062500000000000e+00	 2.625000000000000e+00	 9.229824329046153e+00
0	 1.062500000000000e+00	 2.687499999999999e+00	 9.185248667661542e+00
0	 1.062500000000001e+00	 2.749999999999999e+00	 9.145739856184612e+00
0	 1.062500000000001e+00	 2.812500000000000e+00	 9.111297894615387e+00
0	 1.062500000000000e+00	 2.874999999999998e+00	 9.081922782953844e+00
0	 1.062500000000001e+00	 2.937499999999999e+00	 9.057614521200001e+00
0	 1.062500000000000e+00	 2.999999999999998e+00	 9.038373109353847e+00
0	 1.062500000000001e+00	 3.062499999999998e+00	 9.024198547415384e+00
0	 1.062500000000000e+00	 3.125000000000000e+00	 9.015090835384612e+00
0	 1.125000000000000e+00	 2.500000000000000e+00	 9.473571959999999e+00
0	 1.125000000000000e+00	 2.562500000000000e+00	 9.410803837661541e+00
0	 1.125000000000001e+00	 2.625000000000000e+00	 9.353408006030765e+00
0	 1.125000000000000e+00	 2.687500000000000e+00	 9.301384465107695e+00
0	 1.125000000000001e+00	 2.750000000000000e+00	 9.254733214892312e+00
0	 1.125000000000000e+00	 2.812499999999999e+00	 9.213454255384619e+00
0	 1.125000000000000e+00	 2.874999999999999e+00	 9.177547586584613e+00
0	 1.125000000000000e+00	 2.937499999999999e+00	 9.147013208492314e+00
0	 1.125000000000000e+00	 2.999999999999998e+00	 9.121851121107699e+00
0	 1.125000000000000e+00	 3.062499999999998e+00	 9.102061324430755e+00
0	 1.125000000000000e+00	 3.125000000000000e+00	 9.087643818461537e+00
0	 1.187500000000000e+00	 2.500000000000000e+00	 9.588583380000005e+00
0	 1.187500000000000e+00	 2.562500000000000e+00	 9.520629296523079e+00
0	 1.187500000000000e+00	 2.625000000000000e+00	 9.458352944553843e+00
0	 1.187500000000000e+00	 2.687499999999999e+00	 9.401754324092311e+00
0	 1.187500000000001e+00	 2.749999999999999e+00	 9.350833435138458e+00
0	 1.187500000000000e+00	 2.812499999999999e+00	 9.305590277692303e+00
0	 1.187500000000000e+00	 2.874999999999998e+00	 9.266024851753842e+00
0	 1.187500000000000e+00	 2.937499999999998e+00	 9.232137157323081e+00
0	 1.187500000000000e+00	 2.999999999999998e+00	 9.203927194399997e+00
0	 1.187500000000000e+00	 3.062499999999998e+00	 9.181394962984612e+00
0	 1.187500000000000e+00	 3.125000000000000e+00	 9.164540463076918e+00
0	 1.250000000000000e+00	 2.500000000000000e+00	 9.679210461538464e+00
0	 1.250000000000000e+00	 2.562500000000000e+00	 9.608943216923086e+00
0	 1.250000000000000e+00	 2.625000000000000e+00	 9.544659144615391e+00
0	 1.250000000000000e+00	 2.687499999999999e+00	 9.486358244615388e+00
0	 1.250000000000000e+00	 2.750000000000000e+00	 9.434040516923076e+00
0	 1.250000000000000e+00	 2.812499999999999e+00	 9.387705961538465e+00
0	 1.250000000000000e+00	 2.874999999999999e+00	 9.347354578461536e+00
0	 1.250000000000000e+00	 2.937499999999998e+00	 9.312986367692304e+00
0	 1.250000000000000e+00	 2.999999999999998e+00	 9.284601329230766e+00
0	 1.250000000000000e+00	 3.062499999999998e+00	 9.262199463076934e+00
0	 1.250000000000000e+00	 3.125000000000000e+00	 9.245780769230766e+00
0	 6.250000000000000e-01	 3.125000000000000e+00	 8.628842476923078e+00
0	 6.250000000000000e-01	 3.187500000000000e+00	 8.675932293076912e+00
0	 6.250000000000001e-01	 3.250000000000000e+00	 8.720280640000000e+00
0	 6.249999999999999e-01	 3.312499999999999e+00	 8.761887517692308e+00
0	 6.250000000000000e-01	 3.374999999999999e+00	 8.800752926153844e+00
0	 6.250000000000000e-01	 3.437499999999999e+00	 8.836876865384614e+00
0	 6.250000000000000e-01	 3.499999999999999e+00	 8.870259335384617e+00
0	 6.249999999999999e-01	 3.562499999999998e+00	 8.900900336153848e+00
0	 6.250000000000000e-01	 3.624999999999999e+00	 8.928799867692309e+00
0	 6.250000000000000e-01	 3.687499999999998e+00	 8.953957929999993e+00
0	 6.250000000000000e-01	 3.750000000000000e+00	 8.976374523076924e+00
0	 6.875000000000000e-01	 3.125000000000000e+00	 8.670989829230772e+00
0	 6.875000000000000e-01	 3.187499999999999e+00	 8.716870815615382e+00
0	 6.875000000000000e-01	 3.250000000000000e+00	 8.759890657230764e+00
0	 6.874999999999999e-01	 3.312499999999998e+00	 8.800049354076926e+00
0	 6.874999999999999e-01	 3.374999999999998e+00	 8.837346906153837e+00
0	 6.875000000000000e-01	 3.437499999999998e+00	 8.871783313461536e+00
0	 6.875000000000000e-01	 3.499999999999999e+00	 8.903358576000002e+00
0	 6.875000000000001e-01	 3.562499999999999e+00	 8.932072693769223e+00
0	 6.874999999999999e-01	 3.624999999999998e+00	 8.957925666769237e+00
0	 6.875000000000001e-01	 3.687499999999998e+00	 8.980917495000009e+00
0	 6.875000000000000e-01	 3.750000000000000e+00	 9.001048178461531e+00
0	 7.500000000000001e-01	 3.125000000000000e+00	 8.717480843076915e+00
0	 7.500000000000000e-01	 3.187500000000000e+00	 8.762053901230757e+00
0	 7.500000000000001e-01	 3.250000000000000e+00	 8.803646139076928e+00
0	 7.500000000000001e-01	 3.312500000000000e+00	 8.842257556615388e+00
0	 7.500000000000000e-01	 3.374999999999999e+00	 8.877888153846154e+00
0	 7.500000000000001e-01	 3.437500000000000e+00	 8.910537930769232e+00
0	 7.500000000000002e-01	 3.499999999999999e+00	 8.940206887384614e+00
0	 7.500000000000001e-01	 3.562499999999999e+00	 8.966895023692306e+00
0	 7.500000000000000e-01	 3.624999999999998e+00	 8.990602339692300e+00
0	 7.500000000000000e-01	 3.687499999999998e+00	 9.011328835384612e+00
0	 7.500000000000001e-01	 3.750000000000000e+00	 9.029074510769238e+00
0	 8.125000000000002e-01	 3.125000000000000e+00	 8.768315518461538e+00
0	 8.125000000000002e-01	 3.187500000000000e+00	 8.811481549923084e+00
0	 8.125000000000002e-01	 3.250000000000000e+00	 8.851547085538463e+00
0	 8.125000000000002e-01	 3.312499999999999e+00	 8.888512125307695e+00
0	 8.124999999999999e-01	 3.374999999999998e+00	 8.922376669230765e+00
0	 8.125000000000002e-01	 3.437499999999999e+00	 8.953140717307692e+00
0	 8.125000000000001e-01	 3.499999999999999e+00	 8.980804269538469e+00
0	 8.125000000000000e-01	 3.562499999999999e+00	 9.005367325923080e+00
0	 8.125000000000001e-01	 3.624999999999998e+00	 9.026829886461545e+00
0	 8.125000000000001e-01	 3.687499999999998e+00	 9.045191951153845e+00
0	 8.125000000000002e-01	 3.750000000000000e+00	 9.060453520000001e+00
0	 8.750000000000002e-01	 3.125000000000000e+00	 8.823493855384617e+00
0	 8.750000000000003e-01	 3.187500000000000e+00	 8.865153761692302e+00
0	 8.750000000000002e-01	 3.250000000000000e+00	 8.903593496615382e+00
0	 8.750000000000002e-01	 3.312500000000000e+00	 8.938813060153844e+00
0	 8.750000000000003e-01	 3.374999999999999e+00	 8.970812452307690e+00
0	 8.749999999999999e-01	 3.437499999999998e+00	 8.999591673076925e+00
0	 8.750000000000002e-01	 3.499999999999999e+00	 9.025150722461536e+00
0	 8.750000000000001e-01	 3.562499999999998e+00	 9.047489600461533e+00
0	 8.750000000000002e-01	 3.624999999999999e+00	 9.066608307076930e+00
0	 8.750000000000001e-01	 3.687499999999998e+00	 9.082506842307696e+00
0	 8.750000000000002e-01	 3.750000000000000e+00	 9.095185206153840e+00
0	 9.375000000000004e-01	 3.125000000000000e+00	 8.883015853846150e+00
0	 9.375000000000003e-01	 3.187500000000000e+00	 8.923070536538454e+00
0	 9.375000000000004e-01	 3.250000000000000e+00	 8.959785372307694e+00
0	 9.375000000000003e-01	 3.312500000000000e+00	 8.993160361153837e+00
0	 9.375000000000000e-01	 3.374999999999999e+00	 9.023195503076929e+00
0	 9.375000000000003e-01	 3.437499999999999e+00	 9.049890798076914e+00
0	 9.375000000000004e-01	 3.499999999999999e+00	 9.073246246153847e+00
0	 9.375000000000003e-01	 3.562499999999999e+00	 9.093261847307694e+00
0	 9.375000000000003e-01	 3.624999999999998e+00	 9.109937601538469e+00
0	 9.375000000000003e-01	 3.687499999999999e+00	 9.123273508846154e+00
0	 9.375000000000004e-01	 3.750000000000000e+00	 9.133269569230777e+00
0	 1.000000000000000e+00	 3.125000000000000e+00	 8.946881513846154e+00
0	 1.000000000000000e+00	 3.187500000000000e+00	 8.985231874461537e+00
0	 1.000000000000000e+00	 3.250000000000000e+00	 9.020122712615377e+00
0	 1.000000000000000e+00	 3.312499999999999e+00	 9.051554028307692e+00
0	 1.000000000000000e+00	 3.374999999999999e+00	 9.079525821538455e+00
0	 1.000000000000000e+00	 3.437499999999999e+00	 9.104038092307704e+00
0	 1.000000000000000e+00	 3.499999999999998e+00	 9.125090840615384e+00
0	 1.000000000000000e+00	 3.562499999999999e+00	 9.142684066461541e+00
0	 1.000000000000000e+00	 3.624999999999998e+00	 9.156817769846143e+00
0	 1.000000000000000e+00	 3.687499999999998e+00	 9.167491950769229e+00
0	 1.000000000000000e+00	 3.750000000000000e+00	 9.174706609230771e+00
0	 1.062500000000000e+00	 3.125000000000000e+00	 9.015090835384612e+00
0	 1.062500000000000e+00	 3.187500000000000e+00	 9.051637775461529e+00
0	 1.062500000000000e+00	 3.250000000000000e+00	 9.084605517538455e+00
0	 1.062500000000000e+00	 3.312499999999999e+00	 9.113994061615383e+00
0	 1.062500000000001e+00	 3.374999999999999e+00	 9.139803407692304e+00
0	 1.062500000000001e+00	 3.437499999999999e+00	 9.162033555769236e+00
0	 1.062500000000000e+00	 3.499999999999999e+00	 9.180684505846150e+00
0	 1.062500000000001e+00	 3.562499999999999e+00	 9.195756257923080e+00
0	 1.062500000000000e+00	 3.624999999999998e+00	 9.207248811999994e+00
0	 1.062500000000001e+00	 3.687499999999999e+00	 9.215162168076921e+00
0	 1.062500000000000e+00	 3.750000000000000e+00	 9.219496326153845e+00
0	 1.125000000000000e+00	 3.125000000000000e+00	 9.087643818461537e+00
0	 1.125000000000000e+00	 3.187500000000000e+00	 9.122288239538456e+00
0	 1.125000000000001e+00	 3.250000000000000e+00	 9.153233787076923e+00
0	 1.125000000000000e+00	 3.312499999999999e+00	 9.180480461076916e+00
0	 1.125000000000001e+00	 3.375000000000000e+00	 9.204028261538459e+00
0	 1.125000000000000e+00	 3.437499999999999e+00	 9.223877188461538e+00
0	 1.125000000000000e+00	 3.499999999999999e+00	 9.240027241846155e+00
0	 1.125000000000000e+00	 3.562499999999998e+00	 9.252478421692302e+00
0	 1.125000000000000e+00	 3.624999999999998e+00	 9.261230727999996e+00
0	 1.125000000000000e+00	 3.687499999999998e+00	 9.266284160769237e+00
0	 1.125000000000000e+00	 3.750000000000000e+00	 9.267638720000008e+00
0	 1.187500000000000e+00	 3.125000000000000e+00	 9.164540463076918e+00
0	 1.187500000000000e+00	 3.187499999999999e+00	 9.197183266692301e+00
0	 1.187500000000000e+00	 3.250000000000000e+00	 9.226007521230757e+00
0	 1.187500000000000e+00	 3.312500000000000e+00	 9.251013226692308e+00
0	 1.187500000000001e+00	 3.375000000000000e+00	 9.272200383076921e+00
0	 1.187500000000000e+00	 3.437499999999998e+00	 9.289568990384613e+00
0	 1.187500000000000e+00	 3.499999999999999e+00	 9.303119048615383e+00
0	 1.187500000000000e+00	 3.562499999999998e+00	 9.312850557769231e+00
0	 1.187500000000000e+00	 3.624999999999999e+00	 9.318763517846154e+00
0	 1.187500000000000e+00	 3.687499999999998e+00	 9.320857928846154e+00
0	 1.187500000000000e+00	 3.750000000000000e+00	 9.319133790769238e+00
0	 1.250000000000000e+00	 3.125000000000000e+00	 9.245780769230766e+00
0	 1.250000000000000e+00	 3.187500000000000e+00	 9.276322856923063e+00
0	 1.250000000000000e+00	 3.250000000000000e+00	 9.302926719999999e+00
0	 1.250000000000000e+00	 3.312499999999999e+00	 9.325592358461540e+00
0	 1.250000000000000e+00	 3.374999999999999e+00	 9.344319772307689e+00
0	 1.250000000000000e+00	 3.437499999999999e+00	 9.359108961538459e+00
0	 1.250000000000000e+00	 3.499999999999999e+00	 9.369959926153847e+00
0	 1.250000000000000e+00	 3.562499999999998e+00	 9.376872666153847e+00
0	 1.250000000000000e+00	 3.624999999999999e+00	 9.379847181538462e+00
0	 1.250000000000000e+00	 3.687499999999998e+00	 9.378883472307685e+00
0	 1.250000000000000e+00	 3.750000000000000e+00	 9.373981538461541e+00
0	 6.250000000000000e-01	 3.750000000000000e+00	 8.976374523076924e+00
0	 6.250000000000000e-01	 3.812500000000000e+00	 8.997076869538470e+00
0	 6.250000000000001e-01	 3.875000000000000e+00	 9.019573422769234e+00
0	 6.249999999999999e-01	 3.937499999999999e+00	 9.043864182769221e+00
0	 6.250000000000000e-01	 4.000000000000000e+00	 9.069949149538461e+00
0	 6.250000000000000e-01	 4.062499999999999e+00	 9.097828323076925e+00
0	 6.250000000000000e-01	 4.124999999999999e+00	 9.127501703384612e+00
0	 6.249999999999999e-01	 4.187499999999998e+00	 9.158969290461529e+00
0	 6.250000000000000e-01	 4.249999999999998e+00	 9.192231084307695e+00
0	 6.250000000000000e-01	 4.312499999999998e+00	 9.227287084923068e+00
0	 6.250000000000000e-01	 4.375000000000000e+00	 9.264137292307685e+00
0	 6.875000000000000e-01	 3.750000000000000e+00	 9.001048178461531e+00
0	 6.875000000000000e-01	 3.812499999999999e+00	 9.022158800123075e+00
0	 6.875000000000000e-01	 3.874999999999999e+00	 9.044946947569237e+00
0	 6.874999999999999e-01	 3.937499999999998e+00	 9.069412620800000e+00
0	 6.874999999999999e-01	 3.999999999999999e+00	 9.095555819815381e+00
0	 6.875000000000000e-01	 4.062499999999998e+00	 9.123376544615375e+00
0	 6.875000000000000e-01	 4.124999999999999e+00	 9.152874795199995e+00
0	 6.875000000000001e-01	 4.187499999999998e+00	 9.184050571569223e+00
0	 6.874999999999999e-01	 4.249999999999998e+00	 9.216903873723071e+00
0	 6.875000000000001e-01	 4.312499999999997e+00	 9.251434701661530e+00
0	 6.875000000000000e-01	 4.375000000000000e+00	 9.287643055384619e+00
0	 7.500000000000001e-01	 3.750000000000000e+00	 9.029074510769238e+00
0	 7.500000000000000e-01	 3.812499999999999e+00	 9.050301927630773e+00
0	 7.500000000000001e-01	 3.875000000000000e+00	 9.073090189292317e+00
0	 7.500000000000001e-01	 3.937500000000000e+00	 9.097439295753849e+00
0	 7.500000000000000e-01	 3.999999999999999e+00	 9.123349247015373e+00
0	 7.500000000000001e-01	 4.062499999999999e+00	 9.150820043076921e+00
0	 7.500000000000002e-01	 4.124999999999999e+00	 9.179851683938459e+00
0	 7.500000000000001e-01	 4.187499999999997e+00	 9.210444169599993e+00
0	 7.500000000000000e-01	 4.249999999999998e+00	 9.242597500061525e+00
0	 7.500000000000000e-01	 4.312499999999998e+00	 9.276311675323079e+00
0	 7.500000000000001e-01	 4.375000000000000e+00	 9.311586695384602e+00
0	 8.125000000000002e-01	 3.750000000000000e+00	 9.060453520000001e+00
0	 8.125000000000002e-01	 3.812500000000000e+00	 9.081506252061549e+00
0	 8.125000000000002e-01	 3.875000000000000e+00	 9.104003147938458e+00
0	 8.125000000000002e-01	 3.937499999999999e+00	 9.127944207630769e+00
0	 8.124999999999999e-01	 3.999999999999998e+00	 9.153329431138461e+00
0	 8.125000000000002e-01	 4.062499999999999e+00	 9.180158818461543e+00
0	 8.125000000000001e-01	 4.124999999999999e+00	 9.208432369599990e+00
0	 8.125000000000000e-01	 4.187499999999998e+00	 9.238150084553840e+00
0	 8.125000000000001e-01	 4.249999999999998e+00	 9.269311963323082e+00
0	 8.125000000000001e-01	 4.312499999999997e+00	 9.301918005907698e+00
0	 8.125000000000002e-01	 4.375000000000000e+00	 9.335968212307677e+00
0	 8.750000000000002e-01	 3.750000000000000e+00	 9.095185206153840e+00
0	 8.750000000000003e-01	 3.812500000000000e+00	 9.115771773415389e+00
0	 8.750000000000002e-01	 3.875000000000000e+00	 9.137685823507692e+00
0	 8.750000000000002e-01	 3.937499999999999e+00	 9.160927356430761e+00
0	 8.750000000000003e-01	 4.000000000000000e+00	 9.185496372184616e+00
0	 8.749999999999999e-01	 4.062499999999998e+00	 9.211392870769226e+00
0	 8.750000000000002e-01	 4.124999999999999e+00	 9.238616852184604e+00
0	 8.750000000000001e-01	 4.187499999999998e+00	 9.267168316430759e+00
0	 8.750000000000002e-01	 4.249999999999998e+00	 9.297047263507681e+00
0	 8.750000000000001e-01	 4.312499999999998e+00	 9.328253693415380e+00
0	 8.750000000000002e-01	 4.375000000000000e+00	 9.360787606153847e+00
0	 9.375000000000004e-01	 3.750000000000000e+00	 9.133269569230777e+00
0	 9.375000000000003e-01	 3.812500000000000e+00	 9.153098491692305e+00
0	 9.375000000000004e-01	 3.875000000000000e+00	 9.174138215999999e+00
0	 9.375000000000003e-01	 3.937499999999999e+00	 9.196388742153847e+00
0	 9.375000000000000e-01	 3.999999999999998e+00	 9.219850070153836e+00
0	 9.375000000000003e-01	 4.062500000000000e+00	 9.244522199999993e+00
0	 9.375000000000004e-01	 4.124999999999998e+00	 9.270405131692305e+00
0	 9.375000000000003e-01	 4.187499999999998e+00	 9.297498865230772e+00
0	 9.375000000000003e-01	 4.249999999999998e+00	 9.325803400615378e+00
0	 9.375000000000003e-01	 4.312499999999999e+00	 9.355318737846153e+00
0	 9.375000000000004e-01	 4.375000000000001e+00	 9.386044876923076e+00
0	 1.000000000000000e+00	 3.750000000000000e+00	 9.174706609230771e+00
0	 1.000000000000000e+00	 3.812500000000000e+00	 9.193486406892303e+00
0	 1.000000000000000e+00	 3.875000000000000e+00	 9.213360325415394e+00
0	 1.000000000000000e+00	 3.937499999999999e+00	 9.234328364799998e+00
0	 1.000000000000000e+00	 4.000000000000000e+00	 9.256390525046159e+00
0	 1.000000000000000e+00	 4.062499999999998e+00	 9.279546806153839e+00
0	 1.000000000000000e+00	 4.124999999999999e+00	 9.303797208123068e+00
0	 1.000000000000000e+00	 4.187499999999998e+00	 9.329141730953838e+00
0	 1.000000000000000e+00	 4.249999999999998e+00	 9.355580374646154e+00
0	 1.000000000000000e+00	 4.312499999999998e+00	 9.383113139199995e+00
0	 1.000000000000000e+00	 4.375000000000000e+00	 9.411740024615378e+00
0	 1.062500000000000e+00	 3.750000000000000e+00	 9.219496326153845e+00
0	 1.062500000000000e+00	 3.812500000000000e+00	 9.236935519015393e+00
0	 1.062500000000000e+00	 3.875000000000000e+00	 9.255352151753847e+00
0	 1.062500000000000e+00	 3.937499999999999e+00	 9.274746224369224e+00
0	 1.062500000000001e+00	 3.999999999999999e+00	 9.295117736861535e+00
0	 1.062500000000001e+00	 4.062500000000000e+00	 9.316466689230769e+00
0	 1.062500000000000e+00	 4.124999999999998e+00	 9.338793081476922e+00
0	 1.062500000000001e+00	 4.187499999999999e+00	 9.362096913599995e+00
0	 1.062500000000000e+00	 4.249999999999998e+00	 9.386378185599998e+00
0	 1.062500000000001e+00	 4.312499999999999e+00	 9.411636897476919e+00
0	 1.062500000000000e+00	 4.375000000000000e+00	 9.437873049230779e+00
0	 1.125000000000000e+00	 3.750000000000000e+00	 9.267638720000008e+00
0	 1.125000000000000e+00	 3.812500000000000e+00	 9.283445828061554e+00
0	 1.125000000000001e+00	 3.875000000000000e+00	 9.300113695015384e+00
0	 1.125000000000000e+00	 3.937499999999999e+00	 9.317642320861532e+00
0	 1.125000000000001e+00	 4.000000000000000e+00	 9.336031705599996e+00
0	 1.125000000000000e+00	 4.062499999999998e+00	 9.355281849230767e+00
0	 1.125000000000000e+00	 4.124999999999999e+00	 9.375392751753839e+00
0	 1.125000000000000e+00	 4.187499999999998e+00	 9.396364413169222e+00
0	 1.125000000000000e+00	 4.249999999999998e+00	 9.418196833476918e+00
0	 1.125000000000000e+00	 4.312499999999997e+00	 9.440890012676919e+00
0	 1.125000000000000e+00	 4.375000000000000e+00	 9.464443950769219e+00
0	 1.187500000000000e+00	 3.750000000000000e+00	 9.319133790769238e+00
0	 1.187500000000000e+00	 3.812499999999999e+00	 9.333017334030774e+00
0	 1.187500000000000e+00	 3.874999999999999e+00	 9.347644955199996e+00
0	 1.187500000000000e+00	 3.937500000000000e+00	 9.363016654276928e+00
0	 1.187500000000001e+00	 3.999999999999999e+00	 9.379132431261539e+00
0	 1.187500000000000e+00	 4.062499999999998e+00	 9.395992286153838e+00
0	 1.187500000000000e+00	 4.124999999999999e+00	 9.413596218953847e+00
0	 1.187500000000000e+00	 4.187499999999997e+00	 9.431944229661530e+00
0	 1.187500000000000e+00	 4.249999999999998e+00	 9.451036318276911e+00
0	 1.187500000000000e+00	 4.312499999999998e+00	 9.470872484799990e+00
0	 1.187500000000000e+00	 4.375000000000000e+00	 9.491452729230764e+00
0	 1.250000000000000e+00	 3.750000000000000e+00	 9.373981538461541e+00
0	 1.250000000000000e+00	 3.812500000000000e+00	 9.385650036923087e+00
0	 1.250000000000000e+00	 3.875000000000000e+00	 9.397945932307692e+00
0	 1.250000000000000e+00	 3.937499999999999e+00	 9.410869224615380e+00
0	 1.250000000000000e+00	 4.000000000000000e+00	 9.424419913846153e+00
0	 1.250000000000000e+00	 4.062499999999999e+00	 9.438598000000002e+00
0	 1.250000000000000e+00	 4.124999999999999e+00	 9.453403483076912e+00
0	 1.250000000000000e+00	 4.187499999999998e+00	 9.468836363076916e+00
0	 1.250000000000000e+00	 4.249999999999998e+00	 9.484896640000001e+00
0	 1.250000000000000e+00	 4.312499999999998e+00	 9.501584313846156e+00
0	 1.250000000000000e+00	 4.375000000000000e+00	 9.518899384615381e+00
0	 6.250000000000000e-01	 4.375000000000000e+00	 9.264137292307685e+00
0	 6.250000000000000e-01	 4.437499999999999e+00	 9.285502775999980e+00
0	 6.250000000000001e-01	 4.500000000000001e+00	 9.306397220923067e+00
0	 6.249999999999999e-01	 4.562499999999999e+00	 9.326820627076927e+00
0	 6.250000000000000e-01	 4.625000000000000e+00	 9.346772994461537e+00
0	 6.250000000000000e-01	 4.687499999999999e+00	 9.366254323076916e+00
0	 6.250000000000000e-01	 4.749999999999999e+00	 9.385264612923081e+00
0	 6.249999999999999e-01	 4.812499999999998e+00	 9.403803863999995e+00
0	 6.250000000000000e-01	 4.874999999999998e+00	 9.421872076307690e+00
0	 6.250000000000000e-01	 4.937499999999998e+00	 9.439469249846152e+00
0	 6.250000000000000e-01	 5.000000000000000e+00	 9.456595384615387e+00
0	 6.875000000000000e-01	 4.375000000000000e+00	 9.287643055384619e+00
0	 6.875000000000000e-01	 4.437499999999999e+00	 9.307324386246147e+00
0	 6.875000000000000e-01	 4.499999999999999e+00	 9.326555019446145e+00
0	 6.874999999999999e-01	 4.562499999999999e+00	 9.345334954984612e+00
0	 6.874999999999999e-01	 4.624999999999999e+00	 9.363664192861535e+00
0	 6.875000000000000e-01	 4.687499999999998e+00	 9.381542733076920e+00
0	 6.875000000000000e-01	 4.749999999999998e+00	 9.398970575630759e+00
0	 6.875000000000001e-01	 4.812499999999997e+00	 9.415947720523070e+00
0	 6.874999999999999e-01	 4.874999999999998e+00	 9.432474167753844e+00
0	 6.875000000000001e-01	 4.937499999999997e+00	 9.448549917323078e+00
0	 6.875000000000000e-01	 5.000000000000000e+00	 9.464174969230777e+00
0	 7.500000000000001e-01	 4.375000000000000e+00	 9.311586695384602e+00
0	 7.500000000000000e-01	 4.437499999999999e+00	 9.329697058030753e+00
0	 7.500000000000001e-01	 4.499999999999999e+00	 9.347377064123069e+00
0	 7.500000000000001e-01	 4.562499999999999e+00	 9.364626713661536e+00
0	 7.500000000000000e-01	 4.624999999999999e+00	 9.381446006646147e+00
0	 7.500000000000001e-01	 4.687499999999999e+00	 9.397834943076923e+00
0	 7.500000000000002e-01	 4.749999999999998e+00	 9.413793522953846e+00
0	 7.500000000000001e-01	 4.812499999999997e+00	 9.429321746276930e+00
0	 7.500000000000000e-01	 4.874999999999997e+00	 9.444419613046154e+00
0	 7.500000000000000e-01	 4.937499999999997e+00	 9.459087123261545e+00
0	 7.500000000000001e-01	 5.000000000000001e+00	 9.473324276923096e+00
0	 8.125000000000002e-01	 4.375000000000000e+00	 9.335968212307677e+00
0	 8.125000000000002e-01	 4.437500000000000e+00	 9.352620791353853e+00
0	 8.125000000000002e-01	 4.500000000000000e+00	 9.368863354953834e+00
0	 8.125000000000002e-01	 4.562500000000000e+00	 9.384695903107691e+00
0	 8.124999999999999e-01	 4.624999999999997e+00	 9.400118435815374e+00
0	 8.125000000000002e-01	 4.687499999999999e+00	 9.415130953076918e+00
0	 8.125000000000001e-01	 4.749999999999998e+00	 9.429733454892318e+00
0	 8.125000000000000e-01	 4.812499999999998e+00	 9.443925941261529e+00
0	 8.125000000000001e-01	 4.874999999999996e+00	 9.457708412184617e+00
0	 8.125000000000001e-01	 4.937499999999996e+00	 9.471080867661538e+00
0	 8.125000000000002e-01	 5.000000000000000e+00	 9.484043307692307e+00
0	 8.750000000000002e-01	 4.375000000000000e+00	 9.360787606153847e+00
0	 8.750000000000003e-01	 4.437500000000001e+00	 9.376095586215378e+00
0	 8.750000000000002e-01	 4.500000000000000e+00	 9.391013891938451e+00
0	 8.750000000000002e-01	 4.562499999999999e+00	 9.405542523323069e+00
0	 8.750000000000003e-01	 4.625000000000000e+00	 9.419681480369222e+00
0	 8.749999999999999e-01	 4.687499999999998e+00	 9.433430763076920e+00
0	 8.750000000000002e-01	 4.749999999999999e+00	 9.446790371446149e+00
0	 8.750000000000001e-01	 4.812500000000000e+00	 9.459760305476923e+00
0	 8.750000000000002e-01	 4.874999999999998e+00	 9.472340565169219e+00
0	 8.750000000000001e-01	 4.937499999999998e+00	 9.484531150523082e+00
0	 8.750000000000002e-01	 5.000000000000000e+00	 9.496332061538471e+00
0	 9.375000000000004e-01	 4.375000000000001e+00	 9.386044876923076e+00
0	 9.375000000000003e-01	 4.437500000000000e+00	 9.400121442615371e+00
0	 9.375000000000004e-01	 4.500000000000000e+00	 9.413828675076910e+00
0	 9.375000000000003e-01	 4.562500000000000e+00	 9.427166574307680e+00
0	 9.375000000000000e-01	 4.624999999999998e+00	 9.440135140307696e+00
0	 9.375000000000003e-01	 4.687500000000001e+00	 9.452734373076918e+00
0	 9.375000000000004e-01	 4.749999999999999e+00	 9.464964272615381e+00
0	 9.375000000000003e-01	 4.812499999999999e+00	 9.476824838923079e+00
0	 9.375000000000003e-01	 4.874999999999998e+00	 9.488316072000012e+00
0	 9.375000000000003e-01	 4.937499999999998e+00	 9.499437971846147e+00
0	 9.375000000000004e-01	 5.000000000000001e+00	 9.510190538461524e+00
0	 1.000000000000000e+00	 4.375000000000000e+00	 9.411740024615378e+00
0	 1.000000000000000e+00	 4.437499999999999e+00	 9.424698360553830e+00
0	 1.000000000000000e+00	 4.499999999999999e+00	 9.437307704369232e+00
0	 1.000000000000000e+00	 4.562499999999999e+00	 9.449568056061542e+00
0	 1.000000000000000e+00	 4.624999999999999e+00	 9.461479415630771e+00
0	 1.000000000000000e+00	 4.687499999999999e+00	 9.473041783076923e+00
0	 1.000000000000000e+00	 4.749999999999998e+00	 9.484255158400000e+00
0	 1.000000000000000e+00	 4.812499999999999e+00	 9.495119541600008e+00
0	 1.000000000000000e+00	 4.874999999999998e+00	 9.505634932676930e+00
0	 1.000000000000000e+00	 4.937499999999999e+00	 9.515801331630751e+00
0	 1.000000000000000e+00	 5.000000000000000e+00	 9.525618738461546e+00
0	 1.062500000000000e+00	 4.375000000000000e+00	 9.437873049230779e+00
0	 1.062500000000000e+00	 4.437500000000000e+00	 9.449826340030768e+00
0	 1.062500000000000e+00	 4.499999999999999e+00	 9.461450979815378e+00
0	 1.062500000000000e+00	 4.562499999999998e+00	 9.472746968584609e+00
0	 1.062500000000001e+00	 4.625000000000000e+00	 9.483714306338451e+00
0	 1.062500000000001e+00	 4.687500000000000e+00	 9.494352993076919e+00
0	 1.062500000000000e+00	 4.749999999999998e+00	 9.504663028800003e+00
0	 1.062500000000001e+00	 4.812499999999999e+00	 9.514644413507682e+00
0	 1.062500000000000e+00	 4.874999999999997e+00	 9.524297147200006e+00
0	 1.062500000000001e+00	 4.937499999999998e+00	 9.533621229876928e+00
0	 1.062500000000000e+00	 5.000000000000000e+00	 9.542616661538442e+00
0	 1.125000000000000e+00	 4.375000000000000e+00	 9.464443950769219e+00
0	 1.125000000000000e+00	 4.437500000000000e+00	 9.475505381046151e+00
0	 1.125000000000001e+00	 4.500000000000000e+00	 9.486258501415378e+00
0	 1.125000000000000e+00	 4.562499999999999e+00	 9.496703311876917e+00
0	 1.125000000000001e+00	 4.624999999999999e+00	 9.506839812430758e+00
0	 1.125000000000000e+00	 4.687499999999998e+00	 9.516668003076916e+00
0	 1.125000000000000e+00	 4.749999999999999e+00	 9.526187883815387e+00
0	 1.125000000000000e+00	 4.812499999999998e+00	 9.535399454646152e+00
0	 1.125000000000000e+00	 4.874999999999998e+00	 9.544302715569220e+00
0	 1.125000000000000e+00	 4.937499999999997e+00	 9.552897666584620e+00
0	 1.125000000000000e+00	 5.000000000000000e+00	 9.561184307692301e+00
0	 1.187500000000000e+00	 4.375000000000000e+00	 9.491452729230764e+00
0	 1.187500000000000e+00	 4.437499999999999e+00	 9.501735483599987e+00
0	 1.187500000000000e+00	 4.499999999999999e+00	 9.511730269169226e+00
0	 1.187500000000000e+00	 4.562499999999999e+00	 9.521437085938455e+00
0	 1.187500000000001e+00	 4.624999999999999e+00	 9.530855933907686e+00
0	 1.187500000000000e+00	 4.687499999999998e+00	 9.539986813076919e+00
0	 1.187500000000000e+00	 4.749999999999998e+00	 9.548829723446152e+00
0	 1.187500000000000e+00	 4.812499999999998e+00	 9.557384665015377e+00
0	 1.187500000000000e+00	 4.874999999999998e+00	 9.565651637784605e+00
0	 1.187500000000000e+00	 4.937499999999997e+00	 9.573630641753848e+00
0	 1.187500000000000e+00	 5.000000000000001e+00	 9.581321676923078e+00
0	 1.250000000000000e+00	 4.375000000000000e+00	 9.518899384615381e+00
0	 1.250000000000000e+00	 4.437499999999999e+00	 9.528516647692285e+00
0	 1.250000000000000e+00	 4.500000000000001e+00	 9.537866283076923e+00
0	 1.250000000000000e+00	 4.562499999999999e+00	 9.546948290769235e+00
0	 1.250000000000000e+00	 4.625000000000000e+00	 9.555762670769230e+00
0	 1.250000000000000e+00	 4.687499999999999e+00	 9.564309423076915e+00
0	 1.250000000000000e+00	 4.749999999999999e+00	 9.572588547692309e+00
0	 1.250000000000000e+00	 4.812499999999998e+00	 9.580600044615371e+00
0	 1.250000000000000e+00	 4.874999999999998e+00	 9.588343913846151e+00
0	 1.250000000000000e+00	 4.937499999999998e+00	 9.595820155384605e+00
0	 1.250000000000000e+00	 5.000000000000000e+00	 9.603028769230765e+00
0	 6.250000000000000e-01	 5.000000000000000e+00	 9.456595384615387e+00
0	 6.250000000000000e-01	 5.062500000000000e+00	 9.469988007692308e+00
0	 6.250000000000001e-01	 5.125000000000001e+00	 9.483746492307702e+00
0	 6.249999999999999e-01	 5.187499999999999e+00	 9.497870838461532e+00
0	 6.250000000000000e-01	 5.249999999999999e+00	 9.512361046153845e+00
0	 6.250000000000000e-01	 5.312499999999999e+00	 9.527217115384614e+00
0	 6.250000000000000e-01	 5.374999999999998e+00	 9.542439046153842e+00
0	 6.249999999999999e-01	 5.437499999999998e+00	 9.558026838461537e+00
0	 6.250000000000000e-01	 5.499999999999998e+00	 9.573980492307687e+00
0	 6.250000000000000e-01	 5.562499999999998e+00	 9.590300007692306e+00
0	 6.250000000000000e-01	 5.625000000000000e+00	 9.606985384615378e+00
0	 6.875000000000000e-01	 5.000000000000000e+00	 9.464174969230777e+00
0	 6.875000000000000e-01	 5.062499999999999e+00	 9.477698113999994e+00
0	 6.875000000000000e-01	 5.125000000000000e+00	 9.491550628307692e+00
0	 6.874999999999999e-01	 5.187499999999999e+00	 9.505732512153845e+00
0	 6.874999999999999e-01	 5.249999999999998e+00	 9.520243765538460e+00
0	 6.875000000000000e-01	 5.312499999999998e+00	 9.535084388461536e+00
0	 6.875000000000000e-01	 5.374999999999998e+00	 9.550254380923064e+00
0	 6.875000000000001e-01	 5.437499999999998e+00	 9.565753742923070e+00
0	 6.874999999999999e-01	 5.499999999999998e+00	 9.581582474461531e+00
0	 6.875000000000001e-01	 5.562499999999997e+00	 9.597740575538456e+00
0	 6.875000000000000e-01	 5.625000000000000e+00	 9.614228046153826e+00
0	 7.500000000000001e-01	 5.000000000000001e+00	 9.473324276923096e+00
0	 7.500000000000000e-01	 5.062499999999999e+00	 9.486876949538470e+00
0	 7.500000000000001e-01	 5.124999999999999e+00	 9.500722499692316e+00
0	 7.500000000000001e-01	 5.187500000000000e+00	 9.514860927384616e+00
0	 7.500000000000000e-01	 5.249999999999999e+00	 9.529292232615379e+00
0	 7.500000000000001e-01	 5.312499999999999e+00	 9.544016415384615e+00
0	 7.500000000000002e-01	 5.374999999999999e+00	 9.559033475692301e+00
0	 7.500000000000001e-01	 5.437499999999997e+00	 9.574343413538459e+00
0	 7.500000000000000e-01	 5.499999999999996e+00	 9.589946228923065e+00
0	 7.500000000000000e-01	 5.562499999999998e+00	 9.605841921846162e+00
0	 7.500000000000001e-01	 5.625000000000000e+00	 9.622030492307651e+00
0	 8.125000000000002e-01	 5.000000000000000e+00	 9.484043307692307e+00
0	 8.125000000000002e-01	 5.062499999999999e+00	 9.497524514307697e+00
0	 8.125000000000002e-01	 5.124999999999998e+00	 9.511262106461547e+00
0	 8.125000000000002e-01	 5.187499999999999e+00	 9.525256084153845e+00
0	 8.124999999999999e-01	 5.249999999999997e+00	 9.539506447384611e+00
0	 8.125000000000002e-01	 5.312499999999999e+00	 9.554013196153848e+00
0	 8.125000000000001e-01	 5.374999999999998e+00	 9.568776330461526e+00
0	 8.125000000000000e-01	 5.437499999999998e+00	 9.583795850307695e+00
0	 8.125000000000001e-01	 5.499999999999998e+00	 9.599071755692304e+00
0	 8.125000000000001e-01	 5.562499999999996e+00	 9.614604046615367e+00
0	 8.125000000000002e-01	 5.625000000000000e+00	 9.630392723076906e+00
0	 8.750000000000002e-01	 5.000000000000000e+00	 9.496332061538471e+00
0	 8.750000000000003e-01	 5.062500000000001e+00	 9.509640808307692e+00
0	 8.750000000000002e-01	 5.124999999999999e+00	 9.523169448615381e+00
0	 8.750000000000002e-01	 5.187500000000000e+00	 9.536917982461528e+00
0	 8.750000000000003e-01	 5.250000000000000e+00	 9.550886409846155e+00
0	 8.749999999999999e-01	 5.312499999999997e+00	 9.565074730769226e+00
0	 8.750000000000002e-01	 5.374999999999999e+00	 9.579482945230765e+00
0	 8.750000000000001e-01	 5.437499999999999e+00	 9.594111053230773e+00
0	 8.750000000000002e-01	 5.499999999999998e+00	 9.608959054769226e+00
0	 8.750000000000001e-01	 5.562499999999999e+00	 9.624026949846158e+00
0	 8.750000000000002e-01	 5.625000000000000e+00	 9.639314738461527e+00
0	 9.375000000000004e-01	 5.000000000000001e+00	 9.510190538461524e+00
0	 9.375000000000003e-01	 5.062500000000001e+00	 9.523225831538454e+00
0	 9.375000000000004e-01	 5.124999999999999e+00	 9.536444526153845e+00
0	 9.375000000000003e-01	 5.187500000000000e+00	 9.549846622307680e+00
0	 9.375000000000000e-01	 5.249999999999998e+00	 9.563432119999984e+00
0	 9.375000000000003e-01	 5.312500000000000e+00	 9.577201019230763e+00
0	 9.375000000000004e-01	 5.375000000000000e+00	 9.591153319999988e+00
0	 9.375000000000003e-01	 5.437500000000000e+00	 9.605289022307680e+00
0	 9.375000000000003e-01	 5.499999999999998e+00	 9.619608126153832e+00
0	 9.375000000000003e-01	 5.562499999999998e+00	 9.634110631538459e+00
0	 9.375000000000004e-01	 5.625000000000000e+00	 9.648796538461539e+00
0	 1.000000000000000e+00	 5.000000000000000e+00	 9.525618738461546e+00
0	 1.000000000000000e+00	 5.062500000000000e+00	 9.538279584000005e+00
0	 1.000000000000000e+00	 5.125000000000000e+00	 9.551087339076924e+00
0	 1.000000000000000e+00	 5.187499999999999e+00	 9.564042003692311e+00
0	 1.000000000000000e+00	 5.250000000000000e+00	 9.577143577846147e+00
0	 1.000000000000000e+00	 5.312499999999999e+00	 9.590392061538456e+00
0	 1.000000000000000e+00	 5.374999999999999e+00	 9.603787454769225e+00
0	 1.000000000000000e+00	 5.437499999999998e+00	 9.617329757538451e+00
0	 1.000000000000000e+00	 5.499999999999998e+00	 9.631018969846147e+00
0	 1.000000000000000e+00	 5.562499999999998e+00	 9.644855091692307e+00
0	 1.000000000000000e+00	 5.625000000000000e+00	 9.658838123076926e+00
0	 1.062500000000000e+00	 5.000000000000000e+00	 9.542616661538442e+00
0	 1.062500000000000e+00	 5.062500000000000e+00	 9.554802065692316e+00
0	 1.062500000000000e+00	 5.124999999999999e+00	 9.567097887384627e+00
0	 1.062500000000000e+00	 5.187499999999999e+00	 9.579504126615380e+00
0	 1.062500000000001e+00	 5.250000000000000e+00	 9.592020783384601e+00
0	 1.062500000000001e+00	 5.312499999999999e+00	 9.604647857692308e+00
0	 1.062500000000000e+00	 5.374999999999998e+00	 9.617385349538457e+00
0	 1.062500000000001e+00	 5.437500000000000e+00	 9.630233258923075e+00
0	 1.062500000000000e+00	 5.499999999999998e+00	 9.643191585846152e+00
0	 1.062500000000001e+00	 5.562499999999998e+00	 9.656260330307692e+00
0	 1.062500000000000e+00	 5.625000000000000e+00	 9.669439492307710e+00
0	 1.125000000000000e+00	 5.000000000000000e+00	 9.561184307692301e+00
0	 1.125000000000000e+00	 5.062499999999999e+00	 9.572793276615387e+00
0	 1.125000000000001e+00	 5.124999999999999e+00	 9.584476171076917e+00
0	 1.125000000000000e+00	 5.187499999999999e+00	 9.596232991076935e+00
0	 1.125000000000001e+00	 5.250000000000000e+00	 9.608063736615382e+00
0	 1.125000000000000e+00	 5.312500000000000e+00	 9.619968407692296e+00
0	 1.125000000000000e+00	 5.374999999999999e+00	 9.631947004307696e+00
0	 1.125000000000000e+00	 5.437499999999999e+00	 9.643999526461538e+00
0	 1.125000000000000e+00	 5.499999999999998e+00	 9.656125974153847e+00
0	 1.125000000000000e+00	 5.562499999999998e+00	 9.668326347384598e+00
0	 1.125000000000000e+00	 5.625000000000000e+00	 9.680600646153861e+00
0	 1.187500000000000e+00	 5.000000000000001e+00	 9.581321676923078e+00
0	 1.187500000000000e+00	 5.062499999999999e+00	 9.592253216769233e+00
0	 1.187500000000000e+00	 5.125000000000000e+00	 9.603222190153840e+00
0	 1.187500000000000e+00	 5.187499999999999e+00	 9.614228597076918e+00
0	 1.187500000000001e+00	 5.250000000000001e+00	 9.625272437538452e+00
0	 1.187500000000000e+00	 5.312499999999998e+00	 9.636353711538451e+00
0	 1.187500000000000e+00	 5.374999999999998e+00	 9.647472419076919e+00
0	 1.187500000000000e+00	 5.437499999999998e+00	 9.658628560153838e+00
0	 1.187500000000000e+00	 5.499999999999998e+00	 9.669822134769216e+00
0	 1.187500000000000e+00	 5.562499999999998e+00	 9.681053142923068e+00
0	 1.187500000000000e+00	 5.625000000000000e+00	 9.692321584615385e+00
0	 1.250000000000000e+00	 5.000000000000000e+00	 9.603028769230765e+00
0	 1.250000000000000e+00	 5.062500000000000e+00	 9.613181886153843e+00
0	 1.250000000000000e+00	 5.125000000000001e+00	 9.623335944615391e+00
0	 1.250000000000000e+00	 5.187499999999999e+00	 9.633490944615364e+00
0	 1.250000000000000e+00	 5.249999999999999e+00	 9.643646886153837e+00
0	 1.250000000000000e+00	 5.312499999999999e+00	 9.653803769230768e+00
0	 1.250000000000000e+00	 5.374999999999998e+00	 9.663961593846143e+00
0	 1.250000000000000e+00	 5.437499999999998e+00	 9.674120360000000e+00
0	 1.250000000000000e+00	 5.499999999999998e+00	 9.684280067692303e+00
0	 1.250000000000000e+00	 5.562499999999998e+00	 9.694440716923078e+00
0	 1.250000000000000e+00	 5.625000000000000e+00	 9.704602307692303e+00
0	 6.250000000000000e-01	 5.625000000000000e+00	 9.606985384615378e+00
0	 6.250000000000000e-01	 5.687500000000000e+00	 9.617645663076917e+00
0	 6.250000000000001e-01	 5.750000000000000e+00	 9.628354190769228e+00
0	 6.249999999999999e-01	 5.812499999999999e+00	 9.639110967692309e+00
0	 6.250000000000000e-01	 5.874999999999999e+00	 9.649915993846150e+00
0	 6.250000000000000e-01	 5.937499999999999e+00	 9.660769269230775e+00
0	 6.250000000000000e-01	 5.999999999999998e+00	 9.671670793846159e+00
0	 6.249999999999999e-01	 6.062499999999998e+00	 9.682620567692313e+00
0	 6.250000000000000e-01	 6.124999999999998e+00	 9.693618590769230e+00
0	 6.250000000000000e-01	 6.187499999999998e+00	 9.704664863076935e+00
0	 6.250000000000000e-01	 6.250000000000000e+00	 9.715759384615389e+00
0	 6.875000000000000e-01	 5.625000000000000e+00	 9.614228046153826e+00
0	 6.875000000000000e-01	 5.687499999999998e+00	 9.624527767076918e+00
0	 6.875000000000000e-01	 5.749999999999999e+00	 9.634875628307684e+00
0	 6.874999999999999e-01	 5.812499999999997e+00	 9.645271629846158e+00
0	 6.874999999999999e-01	 5.874999999999998e+00	 9.655715771692300e+00
0	 6.875000000000000e-01	 5.937499999999998e+00	 9.666208053846148e+00
0	 6.875000000000000e-01	 5.999999999999999e+00	 9.676748476307685e+00
0	 6.875000000000001e-01	 6.062499999999998e+00	 9.687337039076919e+00
0	 6.874999999999999e-01	 6.124999999999999e+00	 9.697973742153849e+00
0	 6.875000000000001e-01	 6.187499999999999e+00	 9.708658585538469e+00
0	 6.875000000000000e-01	 6.250000000000000e+00	 9.719391569230782e+00
0	 7.500000000000001e-01	 5.625000000000000e+00	 9.622030492307651e+00
0	 7.500000000000000e-01	 5.687499999999998e+00	 9.631970667999994e+00
0	 7.500000000000001e-01	 5.750000000000000e+00	 9.641958875076927e+00
0	 7.500000000000001e-01	 5.812499999999999e+00	 9.651995113538458e+00
0	 7.500000000000000e-01	 5.874999999999999e+00	 9.662079383384615e+00
0	 7.500000000000001e-01	 5.937499999999999e+00	 9.672211684615382e+00
0	 7.500000000000002e-01	 5.999999999999999e+00	 9.682392017230770e+00
0	 7.500000000000001e-01	 6.062499999999998e+00	 9.692620381230775e+00
0	 7.500000000000000e-01	 6.124999999999996e+00	 9.702896776615393e+00
0	 7.500000000000000e-01	 6.187499999999998e+00	 9.713221203384620e+00
0	 7.500000000000001e-01	 6.250000000000000e+00	 9.723593661538489e+00
0	 8.125000000000002e-01	 5.625000000000000e+00	 9.630392723076906e+00
0	 8.125000000000002e-01	 5.687499999999999e+00	 9.639974365846141e+00
0	 8.125000000000002e-01	 5.749999999999999e+00	 9.649603931076909e+00
0	 8.125000000000002e-01	 5.812500000000001e+00	 9.659281418769234e+00
0	 8.124999999999999e-01	 5.874999999999997e+00	 9.669006828923074e+00
0	 8.125000000000002e-01	 5.937499999999999e+00	 9.678780161538466e+00
0	 8.125000000000001e-01	 5.999999999999998e+00	 9.688601416615395e+00
0	 8.125000000000000e-01	 6.062499999999998e+00	 9.698470594153854e+00
0	 8.125000000000001e-01	 6.124999999999996e+00	 9.708387694153854e+00
0	 8.125000000000001e-01	 6.187499999999998e+00	 9.718352716615394e+00
0	 8.125000000000002e-01	 6.250000000000000e+00	 9.728365661538447e+00
0	 8.750000000000002e-01	 5.625000000000000e+00	 9.639314738461527e+00
0	 8.750000000000003e-01	 5.687500000000001e+00	 9.648538860615368e+00
0	 8.750000000000002e-01	 5.749999999999999e+00	 9.657810796307695e+00
0	 8.750000000000002e-01	 5.812499999999999e+00	 9.667130545538470e+00
0	 8.750000000000003e-01	 5.874999999999999e+00	 9.676498108307694e+00
0	 8.749999999999999e-01	 5.937499999999998e+00	 9.685913484615375e+00
0	 8.750000000000002e-01	 5.999999999999999e+00	 9.695376674461547e+00
0	 8.750000000000001e-01	 6.062499999999998e+00	 9.704887677846163e+00
0	 8.750000000000002e-01	 6.124999999999999e+00	 9.714446494769227e+00
0	 8.750000000000001e-01	 6.187499999999998e+00	 9.724053125230762e+00
0	 8.750000000000002e-01	 6.250000000000001e+00	 9.733707569230777e+00
0	 9.375000000000004e-01	 5.625000000000000e+00	 9.648796538461539e+00
0	 9.375000000000003e-01	 5.687500000000000e+00	 9.657664152307685e+00
0	 9.375000000000004e-01	 5.749999999999999e+00	 9.666579470769229e+00
0	 9.375000000000003e-01	 5.812500000000000e+00	 9.675542493846152e+00
0	 9.375000000000000e-01	 5.874999999999998e+00	 9.684553221538458e+00
0	 9.375000000000003e-01	 5.937499999999999e+00	 9.693611653846162e+00
0	 9.375000000000004e-01	 5.999999999999999e+00	 9.702717790769245e+00
0	 9.375000000000003e-01	 6.062499999999999e+00	 9.711871632307695e+00
0	 9.375000000000003e-01	 6.124999999999998e+00	 9.721073178461547e+00
0	 9.375000000000003e-01	 6.187499999999998e+00	 9.730322429230775e+00
0	 9.375000000000004e-01	 6.250000000000000e+00	 9.739619384615382e+00
0	 1.000000000000000e+00	 5.625000000000000e+00	 9.658838123076926e+00
0	 1.000000000000000e+00	 5.687500000000000e+00	 9.667350240923072e+00
0	 1.000000000000000e+00	 5.749999999999999e+00	 9.675909954461538e+00
0	 1.000000000000000e+00	 5.812499999999999e+00	 9.684517263692305e+00
0	 1.000000000000000e+00	 5.874999999999999e+00	 9.693172168615391e+00
0	 1.000000000000000e+00	 5.937499999999999e+00	 9.701874669230774e+00
0	 1.000000000000000e+00	 5.999999999999999e+00	 9.710624765538464e+00
0	 1.000000000000000e+00	 6.062499999999998e+00	 9.719422457538471e+00
0	 1.000000000000000e+00	 6.124999999999998e+00	 9.728267745230792e+00
0	 1.000000000000000e+00	 6.187499999999998e+00	 9.737160628615394e+00
0	 1.000000000000000e+00	 6.250000000000000e+00	 9.746101107692304e+00
0	 1.062500000000000e+00	 5.625000000000000e+00	 9.669439492307710e+00
0	 1.062500000000000e+00	 5.687500000000000e+00	 9.677597126461539e+00
0	 1.062500000000000e+00	 5.750000000000000e+00	 9.685802247384618e+00
0	 1.062500000000000e+00	 5.812499999999999e+00	 9.694054855076919e+00
0	 1.062500000000001e+00	 5.875000000000000e+00	 9.702354949538456e+00
0	 1.062500000000001e+00	 5.937499999999999e+00	 9.710702530769233e+00
0	 1.062500000000000e+00	 5.999999999999999e+00	 9.719097598769238e+00
0	 1.062500000000001e+00	 6.062500000000000e+00	 9.727540153538470e+00
0	 1.062500000000000e+00	 6.124999999999998e+00	 9.736030195076928e+00
0	 1.062500000000001e+00	 6.187499999999999e+00	 9.744567723384627e+00
0	 1.062500000000000e+00	 6.249999999999999e+00	 9.753152738461544e+00
0	 1.125000000000000e+00	 5.625000000000000e+00	 9.680600646153861e+00
0	 1.125000000000000e+00	 5.687499999999999e+00	 9.688404808923064e+00
0	 1.125000000000001e+00	 5.749999999999999e+00	 9.696256349538459e+00
0	 1.125000000000000e+00	 5.812499999999999e+00	 9.704155268000006e+00
0	 1.125000000000001e+00	 5.875000000000000e+00	 9.712101564307694e+00
0	 1.125000000000000e+00	 5.937499999999999e+00	 9.720095238461544e+00
0	 1.125000000000000e+00	 5.999999999999999e+00	 9.728136290461549e+00
0	 1.125000000000000e+00	 6.062499999999997e+00	 9.736224720307703e+00
0	 1.125000000000000e+00	 6.124999999999997e+00	 9.744360528000003e+00
0	 1.125000000000000e+00	 6.187499999999998e+00	 9.752543713538479e+00
0	 1.125000000000000e+00	 6.250000000000000e+00	 9.760774276923071e+00
0	 1.187500000000000e+00	 5.625000000000000e+00	 9.692321584615385e+00
0	 1.187500000000000e+00	 5.687499999999999e+00	 9.699773288307696e+00
0	 1.187500000000000e+00	 5.750000000000000e+00	 9.707272260923069e+00
0	 1.187500000000000e+00	 5.812499999999999e+00	 9.714818502461540e+00
0	 1.187500000000001e+00	 5.875000000000000e+00	 9.722412012923071e+00
0	 1.187500000000000e+00	 5.937499999999998e+00	 9.730052792307685e+00
0	 1.187500000000000e+00	 5.999999999999999e+00	 9.737740840615391e+00
0	 1.187500000000000e+00	 6.062499999999999e+00	 9.745476157846156e+00
0	 1.187500000000000e+00	 6.124999999999998e+00	 9.753258743999996e+00
0	 1.187500000000000e+00	 6.187499999999998e+00	 9.761088599076940e+00
0	 1.187500000000000e+00	 6.250000000000000e+00	 9.768965723076946e+00
0	 1.250000000000000e+00	 5.625000000000000e+00	 9.704602307692303e+00
0	 1.250000000000000e+00	 5.687500000000000e+00	 9.711702564615376e+00
0	 1.250000000000000e+00	 5.750000000000000e+00	 9.718849981538458e+00
0	 1.250000000000000e+00	 5.812499999999999e+00	 9.726044558461542e+00
0	 1.250000000000000e+00	 5.874999999999999e+00	 9.733286295384620e+00
0	 1.250000000000000e+00	 5.937499999999999e+00	 9.740575192307706e+00
0	 1.250000000000000e+00	 5.999999999999998e+00	 9.747911249230786e+00
0	 1.250000000000000e+00	 6.062499999999998e+00	 9.755294466153854e+00
0	 1.250000000000000e+00	 6.124999999999998e+00	 9.762724843076931e+00
0	 1.250000000000000e+00	 6.187499999999998e+00	 9.770202380000024e+00
0	 1.250000000000000e+00	 6.250000000000000e+00	 9.777727076923089e+00
0	 6.250000000000000e-01	 6.250000000000000e+00	 9.715759384615389e+00
0	 6.250000000000000e-01	 6.312500000000000e+00	 9.723965283076922e+00
0	 6.250000000000001e-01	 6.375000000000000e+00	 9.732285993846167e+00
0	 6.249999999999999e-01	 6.437499999999999e+00	 9.740721516923070e+00
0	 6.250000000000000e-01	 6.499999999999999e+00	 9.749271852307693e+00
0	 6.250000000000000e-01	 6.562499999999998e+00	 9.757937000000004e+00
0	 6.250000000000000e-01	 6.624999999999998e+00	 9.766716959999981e+00
0	 6.249999999999999e-01	 6.687499999999998e+00	 9.775611732307695e+00
0	 6.250000000000000e-01	 6.749999999999998e+00	 9.784621316923078e+00
0	 6.250000000000000e-01	 6.812499999999998e+00	 9.793745713846160e+00
0	 6.250000000000000e-01	 6.875000000000000e+00	 9.802984923076917e+00
0	 6.875000000000000e-01	 6.250000000000000e+00	 9.719391569230782e+00
0	 6.875000000000000e-01	 6.312499999999998e+00	 9.727514545538467e+00
0	 6.875000000000000e-01	 6.375000000000000e+00	 9.735744656000000e+00
0	 6.874999999999999e-01	 6.437499999999997e+00	 9.744081900615383e+00
0	 6.874999999999999e-01	 6.499999999999998e+00	 9.752526279384618e+00
0	 6.875000000000000e-01	 6.562499999999997e+00	 9.761077792307685e+00
0	 6.875000000000000e-01	 6.624999999999998e+00	 9.769736439384610e+00
0	 6.875000000000001e-01	 6.687499999999997e+00	 9.778502220615369e+00
0	 6.874999999999999e-01	 6.749999999999999e+00	 9.787375136000010e+00
0	 6.875000000000001e-01	 6.812499999999998e+00	 9.796355185538451e+00
0	 6.875000000000000e-01	 6.874999999999999e+00	 9.805442369230768e+00
0	 7.500000000000001e-01	 6.250000000000000e+00	 9.723593661538489e+00
0	 7.500000000000000e-01	 6.312499999999998e+00	 9.731610454153845e+00
0	 7.500000000000001e-01	 6.375000000000000e+00	 9.739726702769234e+00
0	 7.500000000000001e-01	 6.437500000000000e+00	 9.747942407384626e+00
0	 7.500000000000000e-01	 6.500000000000000e+00	 9.756257568000001e+00
0	 7.500000000000001e-01	 6.562499999999999e+00	 9.764672184615385e+00
0	 7.500000000000002e-01	 6.624999999999999e+00	 9.773186257230766e+00
0	 7.500000000000001e-01	 6.687499999999998e+00	 9.781799785846145e+00
0	 7.500000000000000e-01	 6.749999999999996e+00	 9.790512770461522e+00
0	 7.500000000000000e-01	 6.812499999999998e+00	 9.799325211076919e+00
0	 7.500000000000001e-01	 6.875000000000001e+00	 9.808237107692287e+00
0	 8.125000000000002e-01	 6.250000000000000e+00	 9.728365661538447e+00
0	 8.125000000000002e-01	 6.312500000000000e+00	 9.736253008923075e+00
0	 8.125000000000002e-01	 6.374999999999998e+00	 9.744232134153851e+00
0	 8.125000000000002e-01	 6.437499999999999e+00	 9.752303037230785e+00
0	 8.124999999999999e-01	 6.499999999999998e+00	 9.760465718153842e+00
0	 8.125000000000002e-01	 6.562499999999999e+00	 9.768720176923065e+00
0	 8.125000000000001e-01	 6.624999999999999e+00	 9.777066413538464e+00
0	 8.125000000000000e-01	 6.687499999999997e+00	 9.785504427999999e+00
0	 8.125000000000001e-01	 6.749999999999997e+00	 9.794034220307688e+00
0	 8.125000000000001e-01	 6.812499999999997e+00	 9.802655790461555e+00
0	 8.125000000000002e-01	 6.875000000000000e+00	 9.811369138461560e+00
0	 8.750000000000002e-01	 6.250000000000001e+00	 9.733707569230777e+00
0	 8.750000000000003e-01	 6.312500000000001e+00	 9.741442209846159e+00
0	 8.750000000000002e-01	 6.375000000000000e+00	 9.749260950153850e+00
0	 8.750000000000002e-01	 6.437499999999999e+00	 9.757163790153850e+00
0	 8.750000000000003e-01	 6.499999999999998e+00	 9.765150729846155e+00
0	 8.749999999999999e-01	 6.562499999999996e+00	 9.773221769230773e+00
0	 8.750000000000002e-01	 6.624999999999999e+00	 9.781376908307696e+00
0	 8.750000000000001e-01	 6.687499999999998e+00	 9.789616147076927e+00
0	 8.750000000000002e-01	 6.749999999999999e+00	 9.797939485538452e+00
0	 8.750000000000001e-01	 6.812499999999997e+00	 9.806346923692322e+00
0	 8.750000000000002e-01	 6.875000000000000e+00	 9.814838461538461e+00
0	 9.375000000000004e-01	 6.250000000000000e+00	 9.739619384615382e+00
0	 9.375000000000003e-01	 6.312500000000000e+00	 9.747178056923094e+00
0	 9.375000000000004e-01	 6.374999999999999e+00	 9.754813150769220e+00
0	 9.375000000000003e-01	 6.437499999999999e+00	 9.762524666153849e+00
0	 9.375000000000000e-01	 6.499999999999998e+00	 9.770312603076919e+00
0	 9.375000000000003e-01	 6.562499999999999e+00	 9.778176961538467e+00
0	 9.375000000000004e-01	 6.625000000000000e+00	 9.786117741538465e+00
0	 9.375000000000003e-01	 6.687499999999999e+00	 9.794134943076918e+00
0	 9.375000000000003e-01	 6.749999999999999e+00	 9.802228566153836e+00
0	 9.375000000000003e-01	 6.812499999999998e+00	 9.810398610769218e+00
0	 9.375000000000004e-01	 6.875000000000000e+00	 9.818645076923064e+00
0	 1.000000000000000e+00	 6.250000000000000e+00	 9.746101107692304e+00
0	 1.000000000000000e+00	 6.312499999999999e+00	 9.753460550153854e+00
0	 1.000000000000000e+00	 6.375000000000000e+00	 9.760888736000020e+00
0	 1.000000000000000e+00	 6.437499999999999e+00	 9.768385665230769e+00
0	 1.000000000000000e+00	 6.499999999999999e+00	 9.775951337846154e+00
0	 1.000000000000000e+00	 6.562499999999999e+00	 9.783585753846159e+00
0	 1.000000000000000e+00	 6.624999999999999e+00	 9.791288913230769e+00
0	 1.000000000000000e+00	 6.687499999999997e+00	 9.799060815999997e+00
0	 1.000000000000000e+00	 6.749999999999998e+00	 9.806901462153830e+00
0	 1.000000000000000e+00	 6.812499999999998e+00	 9.814810851692325e+00
0	 1.000000000000000e+00	 6.875000000000000e+00	 9.822788984615393e+00
0	 1.062500000000000e+00	 6.249999999999999e+00	 9.753152738461544e+00
0	 1.062500000000000e+00	 6.312499999999999e+00	 9.760289689538464e+00
0	 1.062500000000000e+00	 6.374999999999997e+00	 9.767487705846174e+00
0	 1.062500000000000e+00	 6.437499999999998e+00	 9.774746787384624e+00
0	 1.062500000000001e+00	 6.500000000000000e+00	 9.782066934153853e+00
0	 1.062500000000001e+00	 6.562500000000000e+00	 9.789448146153854e+00
0	 1.062500000000000e+00	 6.624999999999998e+00	 9.796890423384614e+00
0	 1.062500000000001e+00	 6.687499999999999e+00	 9.804393765846154e+00
0	 1.062500000000000e+00	 6.749999999999999e+00	 9.811958173538482e+00
0	 1.062500000000001e+00	 6.812499999999999e+00	 9.819583646461533e+00
0	 1.062500000000000e+00	 6.875000000000000e+00	 9.827270184615344e+00
0	 1.125000000000000e+00	 6.250000000000000e+00	 9.760774276923071e+00
0	 1.125000000000000e+00	 6.312499999999999e+00	 9.767665475076944e+00
0	 1.125000000000001e+00	 6.375000000000000e+00	 9.774610060307710e+00
0	 1.125000000000000e+00	 6.437499999999999e+00	 9.781608032615390e+00
0	 1.125000000000001e+00	 6.500000000000000e+00	 9.788659392000012e+00
0	 1.125000000000000e+00	 6.562500000000000e+00	 9.795764138461550e+00
0	 1.125000000000000e+00	 6.624999999999999e+00	 9.802922271999995e+00
0	 1.125000000000000e+00	 6.687499999999997e+00	 9.810133792615378e+00
0	 1.125000000000000e+00	 6.749999999999997e+00	 9.817398700307688e+00
0	 1.125000000000000e+00	 6.812499999999999e+00	 9.824716995076905e+00
0	 1.125000000000000e+00	 6.874999999999999e+00	 9.832088676923075e+00
0	 1.187500000000000e+00	 6.250000000000000e+00	 9.768965723076946e+00
0	 1.187500000000000e+00	 6.312499999999997e+00	 9.775587906769253e+00
0	 1.187500000000000e+00	 6.375000000000000e+00	 9.782255799384629e+00
0	 1.187500000000000e+00	 6.437500000000000e+00	 9.788969400923085e+00
0	 1.187500000000001e+00	 6.499999999999999e+00	 9.795728711384623e+00
0	 1.187500000000000e+00	 6.562499999999997e+00	 9.802533730769223e+00
0	 1.187500000000000e+00	 6.624999999999999e+00	 9.809384459076920e+00
0	 1.187500000000000e+00	 6.687499999999998e+00	 9.816280896307687e+00
0	 1.187500000000000e+00	 6.749999999999998e+00	 9.823223042461528e+00
0	 1.187500000000000e+00	 6.812499999999998e+00	 9.830210897538457e+00
0	 1.187500000000000e+00	 6.875000000000000e+00	 9.837244461538454e+00
0	 1.250000000000000e+00	 6.250000000000000e+00	 9.777727076923089e+00
0	 1.250000000000000e+00	 6.312500000000000e+00	 9.784056984615390e+00
0	 1.250000000000000e+00	 6.375000000000000e+00	 9.790424923076930e+00
0	 1.250000000000000e+00	 6.437499999999999e+00	 9.796830892307682e+00
0	 1.250000000000000e+00	 6.499999999999999e+00	 9.803274892307705e+00
0	 1.250000000000000e+00	 6.562499999999998e+00	 9.809756923076927e+00
0	 1.250000000000000e+00	 6.624999999999998e+00	 9.816276984615371e+00
0	 1.250000000000000e+00	 6.687499999999998e+00	 9.822835076923077e+00
0	 1.250000000000000e+00	 6.749999999999998e+00	 9.829431199999997e+00
0	 1.250000000000000e+00	 6.812499999999998e+00	 9.836065353846159e+00
0	 1.250000000000000e+00	 6.875000000000000e+00	 9.842737538461527e+00
0	 6.250000000000000e-01	 6.875000000000000e+00	 9.802984923076917e+00
0	 6.250000000000000e-01	 6.937500000000000e+00	 9.809322335384614e+00
0	 6.250000000000001e-01	 7.000000000000000e+00	 9.815754879999979e+00
0	 6.249999999999999e-01	 7.062500000000000e+00	 9.822282556923078e+00
0	 6.250000000000000e-01	 7.125000000000000e+00	 9.828905366153842e+00
0	 6.250000000000000e-01	 7.187499999999998e+00	 9.835623307692309e+00
0	 6.250000000000000e-01	 7.249999999999998e+00	 9.842436381538461e+00
0	 6.249999999999999e-01	 7.312499999999998e+00	 9.849344587692300e+00
0	 6.250000000000000e-01	 7.374999999999998e+00	 9.856347926153834e+00
0	 6.250000000000000e-01	 7.437499999999998e+00	 9.863446396923067e+00
0	 6.250000000000000e-01	 7.500000000000000e+00	 9.870639999999991e+00
0	 6.875000000000000e-01	 6.874999999999999e+00	 9.805442369230768e+00
0	 6.875000000000000e-01	 6.937499999999997e+00	 9.811685680307690e+00
0	 6.875000000000000e-01	 7.000000000000001e+00	 9.818021348923068e+00
0	 6.874999999999999e-01	 7.062499999999997e+00	 9.824449375076913e+00
0	 6.874999999999999e-01	 7.124999999999997e+00	 9.830969758769228e+00
0	 6.875000000000000e-01	 7.187499999999997e+00	 9.837582499999995e+00
0	 6.875000000000000e-01	 7.249999999999998e+00	 9.844287598769212e+00
0	 6.875000000000001e-01	 7.312499999999997e+00	 9.851085055076915e+00
0	 6.874999999999999e-01	 7.374999999999999e+00	 9.857974868923066e+00
0	 6.875000000000001e-01	 7.437499999999997e+00	 9.864957040307686e+00
0	 6.875000000000000e-01	 7.500000000000000e+00	 9.872031569230758e+00
0	 7.500000000000001e-01	 6.875000000000001e+00	 9.808237107692287e+00
0	 7.500000000000000e-01	 6.937499999999998e+00	 9.814376495999998e+00
0	 7.500000000000001e-01	 7.000000000000000e+00	 9.820605467076920e+00
0	 7.500000000000001e-01	 7.062499999999998e+00	 9.826924020923068e+00
0	 7.500000000000000e-01	 7.124999999999999e+00	 9.833332157538440e+00
0	 7.500000000000001e-01	 7.187499999999999e+00	 9.839829876923060e+00
0	 7.500000000000002e-01	 7.249999999999999e+00	 9.846417179076921e+00
0	 7.500000000000001e-01	 7.312499999999999e+00	 9.853094063999993e+00
0	 7.500000000000000e-01	 7.374999999999996e+00	 9.859860531692290e+00
0	 7.500000000000000e-01	 7.437499999999997e+00	 9.866716582153844e+00
0	 7.500000000000001e-01	 7.500000000000000e+00	 9.873662215384595e+00
0	 8.125000000000002e-01	 6.875000000000000e+00	 9.811369138461560e+00
0	 8.125000000000002e-01	 6.937500000000000e+00	 9.817394782461562e+00
0	 8.125000000000002e-01	 6.999999999999999e+00	 9.823507234461538e+00
0	 8.125000000000002e-01	 7.062499999999999e+00	 9.829706494461547e+00
0	 8.124999999999999e-01	 7.124999999999999e+00	 9.835992562461522e+00
0	 8.125000000000002e-01	 7.187499999999999e+00	 9.842365438461547e+00
0	 8.125000000000001e-01	 7.249999999999996e+00	 9.848825122461539e+00
0	 8.125000000000000e-01	 7.312499999999999e+00	 9.855371614461523e+00
0	 8.125000000000001e-01	 7.374999999999998e+00	 9.862004914461528e+00
0	 8.125000000000001e-01	 7.437499999999997e+00	 9.868725022461529e+00
0	 8.125000000000002e-01	 7.500000000000000e+00	 9.875531938461499e+00
0	 8.750000000000002e-01	 6.875000000000000e+00	 9.814838461538461e+00
0	 8.750000000000003e-01	 6.937500000000002e+00	 9.820740539692299e+00
0	 8.750000000000002e-01	 6.999999999999999e+00	 9.826726651076935e+00
0	 8.750000000000002e-01	 7.062500000000000e+00	 9.832796795692305e+00
0	 8.750000000000003e-01	 7.124999999999999e+00	 9.838950973538452e+00
0	 8.749999999999999e-01	 7.187499999999996e+00	 9.845189184615382e+00
0	 8.750000000000002e-01	 7.250000000000000e+00	 9.851511428923073e+00
0	 8.750000000000001e-01	 7.312499999999997e+00	 9.857917706461514e+00
0	 8.750000000000002e-01	 7.375000000000000e+00	 9.864408017230760e+00
0	 8.750000000000001e-01	 7.437499999999998e+00	 9.870982361230762e+00
0	 8.750000000000002e-01	 7.500000000000000e+00	 9.877640738461530e+00
0	 9.375000000000004e-01	 6.875000000000000e+00	 9.818645076923064e+00
0	 9.375000000000003e-01	 6.937500000000000e+00	 9.824413767692301e+00
0	 9.375000000000004e-01	 6.999999999999999e+00	 9.830263716923064e+00
0	 9.375000000000003e-01	 7.062500000000001e+00	 9.836194924615372e+00
0	 9.375000000000000e-01	 7.124999999999998e+00	 9.842207390769222e+00
0	 9.375000000000003e-01	 7.187499999999999e+00	 9.848301115384615e+00
0	 9.375000000000004e-01	 7.250000000000000e+00	 9.854476098461529e+00
0	 9.375000000000003e-01	 7.312499999999999e+00	 9.860732340000004e+00
0	 9.375000000000003e-01	 7.374999999999997e+00	 9.867069839999980e+00
0	 9.375000000000003e-01	 7.437499999999999e+00	 9.873488598461519e+00
0	 9.375000000000004e-01	 7.500000000000000e+00	 9.879988615384617e+00
0	 1.000000000000000e+00	 6.875000000000000e+00	 9.822788984615393e+00
0	 1.000000000000000e+00	 6.937500000000001e+00	 9.828414466461538e+00
0	 1.000000000000000e+00	 6.999999999999999e+00	 9.834118432000006e+00
0	 1.000000000000000e+00	 7.062499999999998e+00	 9.839900881230761e+00
0	 1.000000000000000e+00	 7.125000000000000e+00	 9.845761814153837e+00
0	 1.000000000000000e+00	 7.187499999999999e+00	 9.851701230769230e+00
0	 1.000000000000000e+00	 7.249999999999999e+00	 9.857719131076905e+00
0	 1.000000000000000e+00	 7.312499999999999e+00	 9.863815515076910e+00
0	 1.000000000000000e+00	 7.374999999999998e+00	 9.869990382769229e+00
0	 1.000000000000000e+00	 7.437499999999999e+00	 9.876243734153837e+00
0	 1.000000000000000e+00	 7.499999999999999e+00	 9.882575569230749e+00
0	 1.062500000000000e+00	 6.875000000000000e+00	 9.827270184615344e+00
0	 1.062500000000000e+00	 6.937500000000000e+00	 9.832742635999965e+00
0	 1.062500000000000e+00	 6.999999999999999e+00	 9.838290796307685e+00
0	 1.062500000000000e+00	 7.062499999999999e+00	 9.843914665538456e+00
0	 1.062500000000001e+00	 7.125000000000000e+00	 9.849614243692303e+00
0	 1.062500000000001e+00	 7.187500000000000e+00	 9.855389530769234e+00
0	 1.062500000000000e+00	 7.249999999999998e+00	 9.861240526769215e+00
0	 1.062500000000001e+00	 7.312499999999999e+00	 9.867167231692294e+00
0	 1.062500000000000e+00	 7.374999999999998e+00	 9.873169645538450e+00
0	 1.062500000000001e+00	 7.437499999999998e+00	 9.879247768307664e+00
0	 1.062500000000000e+00	 7.500000000000000e+00	 9.885401599999994e+00
0	 1.125000000000000e+00	 6.874999999999999e+00	 9.832088676923075e+00
0	 1.125000000000000e+00	 6.937500000000000e+00	 9.837398276307681e+00
0	 1.125000000000001e+00	 7.000000000000000e+00	 9.842780809846136e+00
0	 1.125000000000000e+00	 7.062500000000000e+00	 9.848236277538453e+00
0	 1.125000000000001e+00	 7.125000000000001e+00	 9.853764679384597e+00
0	 1.125000000000000e+00	 7.187499999999998e+00	 9.859366015384612e+00
0	 1.125000000000000e+00	 7.249999999999998e+00	 9.865040285538461e+00
0	 1.125000000000000e+00	 7.312499999999998e+00	 9.870787489846141e+00
0	 1.125000000000000e+00	 7.374999999999998e+00	 9.876607628307674e+00
0	 1.125000000000000e+00	 7.437499999999997e+00	 9.882500700923085e+00
0	 1.125000000000000e+00	 7.500000000000000e+00	 9.888466707692281e+00
0	 1.187500000000000e+00	 6.875000000000000e+00	 9.837244461538454e+00
0	 1.187500000000000e+00	 6.937499999999997e+00	 9.842381387384616e+00
0	 1.187500000000000e+00	 7.000000000000000e+00	 9.847588472615364e+00
0	 1.187500000000000e+00	 7.062500000000000e+00	 9.852865717230777e+00
0	 1.187500000000001e+00	 7.125000000000000e+00	 9.858213121230772e+00
0	 1.187500000000000e+00	 7.187499999999998e+00	 9.863630684615369e+00
0	 1.187500000000000e+00	 7.249999999999999e+00	 9.869118407384608e+00
0	 1.187500000000000e+00	 7.312499999999998e+00	 9.874676289538442e+00
0	 1.187500000000000e+00	 7.374999999999998e+00	 9.880304331076918e+00
0	 1.187500000000000e+00	 7.437499999999998e+00	 9.886002531999981e+00
0	 1.187500000000000e+00	 7.500000000000000e+00	 9.891770892307678e+00
0	 1.250000000000000e+00	 6.875000000000000e+00	 9.842737538461527e+00
0	 1.250000000000000e+00	 6.937500000000000e+00	 9.847691969230766e+00
0	 1.250000000000000e+00	 7.000000000000000e+00	 9.852713784615359e+00
0	 1.250000000000000e+00	 7.062500000000000e+00	 9.857802984615383e+00
0	 1.250000000000000e+00	 7.125000000000000e+00	 9.862959569230759e+00
0	 1.250000000000000e+00	 7.187499999999998e+00	 9.868183538461537e+00
0	 1.250000000000000e+00	 7.249999999999998e+00	 9.873474892307694e+00
0	 1.250000000000000e+00	 7.312499999999998e+00	 9.878833630769220e+00
0	 1.250000000000000e+00	 7.374999999999998e+00	 9.884259753846132e+00
0	 1.250000000000000e+00	 7.437499999999998e+00	 9.889753261538463e+00
0	 1.250000000000000e+00	 7.500000000000000e+00	 9.895314153846146e+00
0	 6.250000000000000e-01	 7.500000000000000e+00	 9.870639999999991e+00
0	 6.250000000000000e-01	 7.562500000000000e+00	 9.875552772307685e+00
0	 6.250000000000001e-01	 7.625000000000000e+00	 9.880570904615398e+00
0	 6.249999999999999e-01	 7.687499999999999e+00	 9.885694396923066e+00
0	 6.250000000000000e-01	 7.750000000000000e+00	 9.890923249230779e+00
0	 6.250000000000000e-01	 7.812499999999999e+00	 9.896257461538459e+00
0	 6.250000000000000e-01	 7.874999999999998e+00	 9.901697033846149e+00
0	 6.249999999999999e-01	 7.937499999999997e+00	 9.907241966153851e+00
0	 6.250000000000000e-01	 7.999999999999998e+00	 9.912892258461550e+00
0	 6.250000000000000e-01	 8.062499999999996e+00	 9.918647910769236e+00
0	 6.250000000000000e-01	 8.125000000000000e+00	 9.924508923076937e+00
0	 6.875000000000000e-01	 7.500000000000000e+00	 9.872031569230758e+00
0	 6.875000000000000e-01	 7.562499999999999e+00	 9.876884395384614e+00
0	 6.875000000000000e-01	 7.624999999999998e+00	 9.881839895384616e+00
0	 6.874999999999999e-01	 7.687499999999996e+00	 9.886898069230769e+00
0	 6.874999999999999e-01	 7.749999999999998e+00	 9.892058916923077e+00
0	 6.875000000000000e-01	 7.812499999999996e+00	 9.897322438461533e+00
0	 6.875000000000000e-01	 7.875000000000000e+00	 9.902688633846154e+00
0	 6.875000000000001e-01	 7.937499999999996e+00	 9.908157503076929e+00
0	 6.874999999999999e-01	 7.999999999999999e+00	 9.913729046153854e+00
0	 6.875000000000001e-01	 8.062499999999996e+00	 9.919403263076909e+00
0	 6.875000000000000e-01	 8.125000000000002e+00	 9.925180153846190e+00
0	 7.500000000000001e-01	 7.500000000000000e+00	 9.873662215384595e+00
0	 7.500000000000000e-01	 7.562499999999998e+00	 9.878447083076926e+00
0	 7.500000000000001e-01	 7.624999999999999e+00	 9.883331938461525e+00
0	 7.500000000000001e-01	 7.687500000000000e+00	 9.888316781538453e+00
0	 7.500000000000000e-01	 7.749999999999999e+00	 9.893401612307688e+00
0	 7.500000000000001e-01	 7.812499999999998e+00	 9.898586430769232e+00
0	 7.500000000000002e-01	 7.875000000000000e+00	 9.903871236923075e+00
0	 7.500000000000001e-01	 7.937499999999998e+00	 9.909256030769246e+00
0	 7.500000000000000e-01	 7.999999999999996e+00	 9.914740812307723e+00
0	 7.500000000000000e-01	 8.062499999999998e+00	 9.920325581538455e+00
0	 7.500000000000001e-01	 8.125000000000000e+00	 9.926010338461548e+00
0	 8.125000000000002e-01	 7.500000000000000e+00	 9.875531938461499e+00
0	 8.125000000000002e-01	 7.562500000000000e+00	 9.880240835384621e+00
0	 8.125000000000002e-01	 7.624999999999999e+00	 9.885047033846138e+00
0	 8.125000000000002e-01	 7.687499999999999e+00	 9.889950533846156e+00
0	 8.124999999999999e-01	 7.749999999999997e+00	 9.894951335384608e+00
0	 8.125000000000002e-01	 7.812499999999999e+00	 9.900049438461554e+00
0	 8.125000000000001e-01	 7.874999999999997e+00	 9.905244843076911e+00
0	 8.125000000000000e-01	 7.937499999999998e+00	 9.910537549230780e+00
0	 8.125000000000001e-01	 7.999999999999997e+00	 9.915927556923089e+00
0	 8.125000000000001e-01	 8.062499999999998e+00	 9.921414866153821e+00
0	 8.125000000000002e-01	 8.124999999999998e+00	 9.926999476923113e+00
0	 8.750000000000002e-01	 7.500000000000000e+00	 9.877640738461530e+00
0	 8.750000000000003e-01	 7.562500000000001e+00	 9.882265652307673e+00
0	 8.750000000000002e-01	 7.625000000000001e+00	 9.886985181538446e+00
0	 8.750000000000002e-01	 7.687499999999999e+00	 9.891799326153832e+00
0	 8.750000000000003e-01	 7.749999999999999e+00	 9.896708086153843e+00
0	 8.749999999999999e-01	 7.812499999999996e+00	 9.901711461538461e+00
0	 8.750000000000002e-01	 7.874999999999998e+00	 9.906809452307696e+00
0	 8.750000000000001e-01	 7.937499999999998e+00	 9.912002058461550e+00
0	 8.750000000000002e-01	 7.999999999999998e+00	 9.917289280000007e+00
0	 8.750000000000001e-01	 8.062499999999998e+00	 9.922671116923107e+00
0	 8.750000000000002e-01	 8.125000000000002e+00	 9.928147569230790e+00
0	 9.375000000000004e-01	 7.500000000000000e+00	 9.879988615384617e+00
0	 9.375000000000003e-01	 7.562500000000000e+00	 9.884521533846126e+00
0	 9.375000000000004e-01	 7.625000000000000e+00	 9.889146381538445e+00
0	 9.375000000000003e-01	 7.687500000000000e+00	 9.893863158461539e+00
0	 9.375000000000000e-01	 7.749999999999997e+00	 9.898671864615368e+00
0	 9.375000000000003e-01	 7.812500000000000e+00	 9.903572499999997e+00
0	 9.375000000000004e-01	 7.874999999999999e+00	 9.908565064615384e+00
0	 9.375000000000003e-01	 7.937499999999999e+00	 9.913649558461543e+00
0	 9.375000000000003e-01	 7.999999999999998e+00	 9.918825981538458e+00
0	 9.375000000000003e-01	 8.062500000000000e+00	 9.924094333846179e+00
0	 9.375000000000004e-01	 8.125000000000000e+00	 9.929454615384627e+00
0	 1.000000000000000e+00	 7.499999999999999e+00	 9.882575569230749e+00
0	 1.000000000000000e+00	 7.562500000000000e+00	 9.887008479999988e+00
0	 1.000000000000000e+00	 7.625000000000001e+00	 9.891530633846132e+00
0	 1.000000000000000e+00	 7.687499999999998e+00	 9.896142030769241e+00
0	 1.000000000000000e+00	 7.750000000000000e+00	 9.900842670769238e+00
0	 1.000000000000000e+00	 7.812499999999998e+00	 9.905632553846161e+00
0	 1.000000000000000e+00	 7.874999999999999e+00	 9.910511679999999e+00
0	 1.000000000000000e+00	 7.937499999999998e+00	 9.915480049230757e+00
0	 1.000000000000000e+00	 7.999999999999997e+00	 9.920537661538470e+00
0	 1.000000000000000e+00	 8.062499999999998e+00	 9.925684516923067e+00
0	 1.000000000000000e+00	 8.125000000000000e+00	 9.930920615384649e+00
0	 1.062500000000000e+00	 7.500000000000000e+00	 9.885401599999994e+00
0	 1.062500000000000e+00	 7.562500000000000e+00	 9.889726490769213e+00
0	 1.062500000000000e+00	 7.624999999999999e+00	 9.894137938461533e+00
0	 1.062500000000000e+00	 7.687499999999998e+00	 9.898635943076920e+00
0	 1.062500000000001e+00	 7.750000000000000e+00	 9.903220504615387e+00
0	 1.062500000000001e+00	 7.812500000000000e+00	 9.907891623076928e+00
0	 1.062500000000000e+00	 7.874999999999998e+00	 9.912649298461547e+00
0	 1.062500000000001e+00	 7.937500000000000e+00	 9.917493530769221e+00
0	 1.062500000000000e+00	 7.999999999999998e+00	 9.922424320000021e+00
0	 1.062500000000001e+00	 8.062500000000000e+00	 9.927441666153856e+00
0	 1.062500000000000e+00	 8.125000000000000e+00	 9.932545569230779e+00
0	 1.125000000000000e+00	 7.500000000000000e+00	 9.888466707692281e+00
0	 1.125000000000000e+00	 7.562499999999999e+00	 9.892675566153841e+00
0	 1.125000000000001e+00	 7.624999999999999e+00	 9.896968295384609e+00
0	 1.125000000000000e+00	 7.687500000000000e+00	 9.901344895384609e+00
0	 1.125000000000001e+00	 7.749999999999999e+00	 9.905805366153849e+00
0	 1.125000000000000e+00	 7.812499999999999e+00	 9.910349707692323e+00
0	 1.125000000000000e+00	 7.874999999999998e+00	 9.914977920000005e+00
0	 1.125000000000000e+00	 7.937499999999998e+00	 9.919690003076925e+00
0	 1.125000000000000e+00	 7.999999999999998e+00	 9.924485956923085e+00
0	 1.125000000000000e+00	 8.062499999999996e+00	 9.929365781538461e+00
0	 1.125000000000000e+00	 8.125000000000000e+00	 9.934329476923091e+00
0	 1.187500000000000e+00	 7.500000000000000e+00	 9.891770892307678e+00
0	 1.187500000000000e+00	 7.562499999999998e+00	 9.895855706153807e+00
0	 1.187500000000000e+00	 7.625000000000000e+00	 9.900021704615378e+00
0	 1.187500000000000e+00	 7.687500000000000e+00	 9.904268887692309e+00
0	 1.187500000000001e+00	 7.750000000000000e+00	 9.908597255384624e+00
0	 1.187500000000000e+00	 7.812499999999998e+00	 9.913006807692298e+00
0	 1.187500000000000e+00	 7.874999999999998e+00	 9.917497544615385e+00
0	 1.187500000000000e+00	 7.937499999999998e+00	 9.922069466153859e+00
0	 1.187500000000000e+00	 7.999999999999999e+00	 9.926722572307694e+00
0	 1.187500000000000e+00	 8.062499999999998e+00	 9.931456863076910e+00
0	 1.187500000000000e+00	 8.125000000000000e+00	 9.936272338461546e+00
0	 1.250000000000000e+00	 7.500000000000000e+00	 9.895314153846146e+00
0	 1.250000000000000e+00	 7.562500000000000e+00	 9.899266910769231e+00
0	 1.250000000000000e+00	 7.625000000000000e+00	 9.903298166153858e+00
0	 1.250000000000000e+00	 7.687499999999999e+00	 9.907407920000004e+00
0	 1.250000000000000e+00	 7.750000000000000e+00	 9.911596172307696e+00
0	 1.250000000000000e+00	 7.812499999999999e+00	 9.915862923076917e+00
0	 1.250000000000000e+00	 7.874999999999998e+00	 9.920208172307689e+00
0	 1.250000000000000e+00	 7.937499999999997e+00	 9.924631920000010e+00
0	 1.250000000000000e+00	 7.999999999999998e+00	 9.929134166153856e+00
0	 1.250000000000000e+00	 8.062499999999996e+00	 9.933714910769236e+00
0	 1.250000000000000e+00	 8.125000000000000e+00	 9.938374153846160e+00
0	 6.250000000000000e-01	 8.125000000000000e+00	 9.924508923076937e+00
0	 6.250000000000000e-01	 8.187500000000000e+00	 9.928017318461546e+00
0	 6.250000000000001e-01	 8.250000000000002e+00	 9.931656043076913e+00
0	 6.249999999999999e-01	 8.312500000000000e+00	 9.935425096923094e+00
0	 6.250000000000000e-01	 8.374999999999998e+00	 9.939324479999996e+00
0	 6.250000000000000e-01	 8.437500000000000e+00	 9.943354192307694e+00
0	 6.250000000000000e-01	 8.500000000000000e+00	 9.947514233846160e+00
0	 6.249999999999999e-01	 8.562499999999998e+00	 9.951804604615379e+00
0	 6.250000000000000e-01	 8.625000000000000e+00	 9.956225304615380e+00
0	 6.250000000000000e-01	 8.687499999999998e+00	 9.960776333846106e+00
0	 6.250000000000000e-01	 8.750000000000000e+00	 9.965457692307684e+00
0	 6.875000000000000e-01	 8.125000000000002e+00	 9.925180153846190e+00
0	 6.875000000000000e-01	 8.187499999999998e+00	 9.928646450000020e+00
0	 6.875000000000000e-01	 8.250000000000000e+00	 9.932240550769233e+00
0	 6.874999999999999e-01	 8.312499999999996e+00	 9.935962456153852e+00
0	 6.874999999999999e-01	 8.374999999999998e+00	 9.939812166153850e+00
0	 6.875000000000000e-01	 8.437499999999996e+00	 9.943789680769232e+00
0	 6.875000000000000e-01	 8.500000000000002e+00	 9.947894999999987e+00
0	 6.875000000000001e-01	 8.562499999999998e+00	 9.952128123846144e+00
0	 6.874999999999999e-01	 8.624999999999998e+00	 9.956489052307690e+00
0	 6.875000000000001e-01	 8.687499999999996e+00	 9.960977785384600e+00
0	 6.875000000000000e-01	 8.750000000000002e+00	 9.965594323076907e+00
0	 7.500000000000001e-01	 8.125000000000000e+00	 9.926010338461548e+00
0	 7.500000000000000e-01	 8.187499999999996e+00	 9.929429624615405e+00
0	 7.500000000000001e-01	 8.250000000000000e+00	 9.932974190769242e+00
0	 7.500000000000001e-01	 8.312500000000002e+00	 9.936644036923079e+00
0	 7.500000000000000e-01	 8.375000000000000e+00	 9.940439163076938e+00
0	 7.500000000000001e-01	 8.437500000000000e+00	 9.944359569230786e+00
0	 7.500000000000002e-01	 8.499999999999996e+00	 9.948405255384619e+00
0	 7.500000000000001e-01	 8.562500000000000e+00	 9.952576221538429e+00
0	 7.500000000000000e-01	 8.624999999999998e+00	 9.956872467692310e+00
0	 7.500000000000000e-01	 8.687499999999998e+00	 9.961293993846139e+00
0	 7.500000000000001e-01	 8.749999999999998e+00	 9.965840800000004e+00
0	 8.125000000000002e-01	 8.124999999999998e+00	 9.926999476923113e+00
0	 8.125000000000002e-01	 8.187499999999998e+00	 9.930366842307699e+00
0	 8.125000000000002e-01	 8.250000000000002e+00	 9.933856963076908e+00
0	 8.125000000000002e-01	 8.312500000000000e+00	 9.937469839230776e+00
0	 8.124999999999999e-01	 8.374999999999998e+00	 9.941205470769233e+00
0	 8.125000000000002e-01	 8.437499999999998e+00	 9.945063857692304e+00
0	 8.125000000000001e-01	 8.500000000000000e+00	 9.949045000000000e+00
0	 8.125000000000000e-01	 8.562499999999998e+00	 9.953148897692305e+00
0	 8.125000000000001e-01	 8.624999999999998e+00	 9.957375550769232e+00
0	 8.125000000000001e-01	 8.687499999999996e+00	 9.961724959230768e+00
0	 8.125000000000002e-01	 8.750000000000000e+00	 9.966197123076883e+00
0	 8.750000000000002e-01	 8.125000000000002e+00	 9.928147569230790e+00
0	 8.750000000000003e-01	 8.187500000000002e+00	 9.931458103076920e+00
0	 8.750000000000002e-01	 8.250000000000000e+00	 9.934888867692319e+00
0	 8.750000000000002e-01	 8.312500000000000e+00	 9.938439863076940e+00
0	 8.750000000000003e-01	 8.375000000000000e+00	 9.942111089230767e+00
0	 8.749999999999999e-01	 8.437499999999998e+00	 9.945902546153839e+00
0	 8.750000000000002e-01	 8.500000000000000e+00	 9.949814233846162e+00
0	 8.750000000000001e-01	 8.562499999999998e+00	 9.953846152307678e+00
0	 8.750000000000002e-01	 8.624999999999998e+00	 9.957998301538456e+00
0	 8.750000000000001e-01	 8.687499999999998e+00	 9.962270681538470e+00
0	 8.750000000000002e-01	 8.750000000000000e+00	 9.966663292307683e+00
0	 9.375000000000004e-01	 8.125000000000000e+00	 9.929454615384627e+00
0	 9.375000000000003e-01	 8.187500000000000e+00	 9.932703406923084e+00
0	 9.375000000000004e-01	 8.250000000000000e+00	 9.936069904615403e+00
0	 9.375000000000003e-01	 8.312500000000000e+00	 9.939554108461522e+00
0	 9.375000000000000e-01	 8.374999999999998e+00	 9.943156018461545e+00
0	 9.375000000000003e-01	 8.437500000000002e+00	 9.946875634615372e+00
0	 9.375000000000004e-01	 8.500000000000000e+00	 9.950712956923054e+00
0	 9.375000000000003e-01	 8.562500000000000e+00	 9.954667985384624e+00
0	 9.375000000000003e-01	 8.625000000000000e+00	 9.958740720000012e+00
0	 9.375000000000003e-01	 8.687499999999998e+00	 9.962931160769218e+00
0	 9.375000000000004e-01	 8.750000000000002e+00	 9.967239307692287e+00
0	 1.000000000000000e+00	 8.125000000000000e+00	 9.930920615384649e+00
0	 1.000000000000000e+00	 8.187500000000002e+00	 9.934102753846162e+00
0	 1.000000000000000e+00	 8.250000000000000e+00	 9.937400073846167e+00
0	 1.000000000000000e+00	 8.312499999999998e+00	 9.940812575384619e+00
0	 1.000000000000000e+00	 8.375000000000000e+00	 9.944340258461555e+00
0	 1.000000000000000e+00	 8.437500000000000e+00	 9.947983123076927e+00
0	 1.000000000000000e+00	 8.500000000000000e+00	 9.951741169230768e+00
0	 1.000000000000000e+00	 8.562499999999998e+00	 9.955614396923080e+00
0	 1.000000000000000e+00	 8.624999999999998e+00	 9.959602806153816e+00
0	 1.000000000000000e+00	 8.687499999999998e+00	 9.963706396923056e+00
0	 1.000000000000000e+00	 8.750000000000000e+00	 9.967925169230757e+00
0	 1.062500000000000e+00	 8.125000000000000e+00	 9.932545569230779e+00
0	 1.062500000000000e+00	 8.187500000000000e+00	 9.935656143846158e+00
0	 1.062500000000000e+00	 8.249999999999998e+00	 9.938879375384611e+00
0	 1.062500000000000e+00	 8.312500000000000e+00	 9.942215263846162e+00
0	 1.062500000000001e+00	 8.374999999999998e+00	 9.945663809230776e+00
0	 1.062500000000001e+00	 8.437500000000000e+00	 9.949225011538477e+00
0	 1.062500000000000e+00	 8.499999999999998e+00	 9.952898870769260e+00
0	 1.062500000000001e+00	 8.562500000000000e+00	 9.956685386923077e+00
0	 1.062500000000000e+00	 8.624999999999998e+00	 9.960584560000008e+00
0	 1.062500000000001e+00	 8.687500000000000e+00	 9.964596390000009e+00
0	 1.062500000000000e+00	 8.750000000000000e+00	 9.968720876923069e+00
0	 1.125000000000000e+00	 8.125000000000000e+00	 9.934329476923091e+00
0	 1.125000000000000e+00	 8.187500000000000e+00	 9.937363576923099e+00
0	 1.125000000000001e+00	 8.250000000000000e+00	 9.940507809230773e+00
0	 1.125000000000000e+00	 8.312499999999998e+00	 9.943762173846176e+00
0	 1.125000000000001e+00	 8.375000000000000e+00	 9.947126670769233e+00
0	 1.125000000000000e+00	 8.437500000000000e+00	 9.950601300000006e+00
0	 1.125000000000000e+00	 8.499999999999998e+00	 9.954186061538481e+00
0	 1.125000000000000e+00	 8.562499999999998e+00	 9.957880955384612e+00
0	 1.125000000000000e+00	 8.624999999999998e+00	 9.961685981538466e+00
0	 1.125000000000000e+00	 8.687499999999998e+00	 9.965601139999979e+00
0	 1.125000000000000e+00	 8.750000000000000e+00	 9.969626430769210e+00
0	 1.187500000000000e+00	 8.125000000000000e+00	 9.936272338461546e+00
0	 1.187500000000000e+00	 8.187499999999998e+00	 9.939225053076919e+00
0	 1.187500000000000e+00	 8.250000000000000e+00	 9.942285375384635e+00
0	 1.187500000000000e+00	 8.312499999999998e+00	 9.945453305384621e+00
0	 1.187500000000001e+00	 8.375000000000000e+00	 9.948728843076932e+00
0	 1.187500000000000e+00	 8.437499999999998e+00	 9.952111988461544e+00
0	 1.187500000000000e+00	 8.499999999999998e+00	 9.955602741538454e+00
0	 1.187500000000000e+00	 8.562499999999998e+00	 9.959201102307691e+00
0	 1.187500000000000e+00	 8.624999999999998e+00	 9.962907070769242e+00
0	 1.187500000000000e+00	 8.687500000000000e+00	 9.966720646923090e+00
0	 1.187500000000000e+00	 8.750000000000000e+00	 9.970641830769246e+00
0	 1.250000000000000e+00	 8.125000000000000e+00	 9.938374153846160e+00
0	 1.250000000000000e+00	 8.187500000000000e+00	 9.941240572307688e+00
0	 1.250000000000000e+00	 8.250000000000002e+00	 9.944212073846140e+00
0	 1.250000000000000e+00	 8.312500000000000e+00	 9.947288658461545e+00
0	 1.250000000000000e+00	 8.374999999999998e+00	 9.950470326153843e+00
0	 1.250000000000000e+00	 8.437500000000000e+00	 9.953757076923081e+00
0	 1.250000000000000e+00	 8.500000000000000e+00	 9.957148910769241e+00
0	 1.250000000000000e+00	 8.562499999999998e+00	 9.960645827692311e+00
0	 1.250000000000000e+00	 8.625000000000000e+00	 9.964247827692311e+00
0	 1.250000000000000e+00	 8.687499999999998e+00	 9.967954910769214e+00
0	 1.250000000000000e+00	 8.750000000000000e+00	 9.971767076923081e+00
0	 6.250000000000000e-01	 8.750000000000000e+00	 9.965457692307684e+00
0	 6.250000000000000e-01	 8.812500000000000e+00	 9.967496689230764e+00
0	 6.250000000000001e-01	 8.875000000000002e+00	 9.969707710769246e+00
0	 6.249999999999999e-01	 8.937499999999998e+00	 9.972090756923075e+00
0	 6.250000000000000e-01	 9.000000000000000e+00	 9.974645827692308e+00
0	 6.250000000000000e-01	 9.062500000000000e+00	 9.977372923076906e+00
0	 6.250000000000000e-01	 9.124999999999998e+00	 9.980272043076909e+00
0	 6.249999999999999e-01	 9.187499999999998e+00	 9.983343187692306e+00
0	 6.250000000000000e-01	 9.249999999999998e+00	 9.986586356923095e+00
0	 6.250000000000000e-01	 9.312499999999998e+00	 9.990001550769234e+00
0	 6.250000000000000e-01	 9.375000000000000e+00	 9.993588769230778e+00
0	 6.875000000000000e-01	 8.750000000000002e+00	 9.965594323076907e+00
0	 6.875000000000000e-01	 8.812499999999996e+00	 9.967604298769206e+00
0	 6.875000000000000e-01	 8.874999999999998e+00	 9.969783358153828e+00
0	 6.874999999999999e-01	 8.937499999999998e+00	 9.972131501230772e+00
0	 6.874999999999999e-01	 8.999999999999998e+00	 9.974648727999993e+00
0	 6.875000000000000e-01	 9.062499999999996e+00	 9.977335038461529e+00
0	 6.875000000000000e-01	 9.124999999999998e+00	 9.980190432615379e+00
0	 6.875000000000001e-01	 9.187499999999996e+00	 9.983214910461541e+00
0	 6.874999999999999e-01	 9.249999999999998e+00	 9.986408472000006e+00
0	 6.875000000000001e-01	 9.312499999999998e+00	 9.989771117230797e+00
0	 6.875000000000000e-01	 9.375000000000000e+00	 9.993302846153847e+00
0	 7.500000000000001e-01	 8.749999999999998e+00	 9.965840800000004e+00
0	 7.500000000000000e-01	 8.812499999999998e+00	 9.967819815999979e+00
0	 7.500000000000001e-01	 8.875000000000002e+00	 9.969964974769205e+00
0	 7.500000000000001e-01	 8.937499999999998e+00	 9.972276276307689e+00
0	 7.500000000000000e-01	 8.999999999999998e+00	 9.974753720615372e+00
0	 7.500000000000001e-01	 9.062499999999998e+00	 9.977397307692309e+00
0	 7.500000000000002e-01	 9.125000000000000e+00	 9.980207037538467e+00
0	 7.500000000000001e-01	 9.187499999999998e+00	 9.983182910153840e+00
0	 7.500000000000000e-01	 9.249999999999996e+00	 9.986324925538465e+00
0	 7.500000000000000e-01	 9.312499999999996e+00	 9.989633083692322e+00
0	 7.500000000000001e-01	 9.375000000000000e+00	 9.993107384615396e+00
0	 8.125000000000002e-01	 8.750000000000000e+00	 9.966197123076883e+00
0	 8.125000000000002e-01	 8.812499999999998e+00	 9.968143240923068e+00
0	 8.125000000000002e-01	 8.875000000000000e+00	 9.970252560615377e+00
0	 8.125000000000002e-01	 8.937500000000002e+00	 9.972525082153833e+00
0	 8.124999999999999e-01	 8.999999999999996e+00	 9.974960805538473e+00
0	 8.125000000000002e-01	 9.062499999999998e+00	 9.977559730769222e+00
0	 8.125000000000001e-01	 9.124999999999998e+00	 9.980321857846150e+00
0	 8.125000000000000e-01	 9.187499999999998e+00	 9.983247186769242e+00
0	 8.125000000000001e-01	 9.249999999999998e+00	 9.986335717538470e+00
0	 8.125000000000001e-01	 9.312499999999998e+00	 9.989587450153842e+00
0	 8.125000000000002e-01	 9.375000000000002e+00	 9.993002384615405e+00
0	 8.750000000000002e-01	 8.750000000000000e+00	 9.966663292307683e+00
0	 8.750000000000003e-01	 8.812500000000004e+00	 9.968574573538461e+00
0	 8.750000000000002e-01	 8.875000000000000e+00	 9.970646115692308e+00
0	 8.750000000000002e-01	 8.937500000000000e+00	 9.972877918769235e+00
0	 8.750000000000003e-01	 9.000000000000000e+00	 9.975269982769234e+00
0	 8.749999999999999e-01	 9.062499999999998e+00	 9.977822307692298e+00
0	 8.750000000000002e-01	 9.125000000000000e+00	 9.980534893538456e+00
0	 8.750000000000001e-01	 9.187499999999998e+00	 9.983407740307701e+00
0	 8.750000000000002e-01	 9.250000000000000e+00	 9.986440847999997e+00
0	 8.750000000000001e-01	 9.312499999999998e+00	 9.989634216615411e+00
0	 8.750000000000002e-01	 9.375000000000002e+00	 9.992987846153865e+00
0	 9.375000000000004e-01	 8.750000000000002e+00	 9.967239307692287e+00
0	 9.375000000000003e-01	 8.812500000000000e+00	 9.969113813846171e+00
0	 9.375000000000004e-01	 8.874999999999998e+00	 9.971145639999982e+00
0	 9.375000000000003e-01	 8.937500000000000e+00	 9.973334786153835e+00
0	 9.375000000000000e-01	 8.999999999999998e+00	 9.975681252307668e+00
0	 9.375000000000003e-01	 9.062500000000002e+00	 9.978185038461522e+00
0	 9.375000000000004e-01	 9.124999999999998e+00	 9.980846144615370e+00
0	 9.375000000000003e-01	 9.187499999999998e+00	 9.983664570769227e+00
0	 9.375000000000003e-01	 9.249999999999998e+00	 9.986640316923063e+00
0	 9.375000000000003e-01	 9.312499999999998e+00	 9.989773383076924e+00
0	 9.375000000000004e-01	 9.375000000000002e+00	 9.993063769230757e+00
0	 1.000000000000000e+00	 8.750000000000000e+00	 9.967925169230757e+00
0	 1.000000000000000e+00	 8.812500000000000e+00	 9.969760961846159e+00
0	 1.000000000000000e+00	 8.874999999999998e+00	 9.971751133538437e+00
0	 1.000000000000000e+00	 8.937499999999998e+00	 9.973895684307688e+00
0	 1.000000000000000e+00	 9.000000000000000e+00	 9.976194614153842e+00
0	 1.000000000000000e+00	 9.062500000000000e+00	 9.978647923076929e+00
0	 1.000000000000000e+00	 9.124999999999998e+00	 9.981255611076906e+00
0	 1.000000000000000e+00	 9.187499999999998e+00	 9.984017678153862e+00
0	 1.000000000000000e+00	 9.249999999999998e+00	 9.986934124307691e+00
0	 1.000000000000000e+00	 9.312499999999998e+00	 9.990004949538497e+00
0	 1.000000000000000e+00	 9.374999999999998e+00	 9.993230153846159e+00
0	 1.062500000000000e+00	 8.750000000000000e+00	 9.968720876923069e+00
0	 1.062500000000000e+00	 8.812500000000000e+00	 9.970516017538456e+00
0	 1.062500000000000e+00	 8.875000000000000e+00	 9.972462596307683e+00
0	 1.062500000000000e+00	 8.937499999999998e+00	 9.974560613230745e+00
0	 1.062500000000001e+00	 8.999999999999998e+00	 9.976810068307715e+00
0	 1.062500000000001e+00	 9.062499999999998e+00	 9.979210961538458e+00
0	 1.062500000000000e+00	 9.124999999999998e+00	 9.981763292923084e+00
0	 1.062500000000001e+00	 9.187500000000000e+00	 9.984467062461544e+00
0	 1.062500000000000e+00	 9.249999999999998e+00	 9.987322270153854e+00
0	 1.062500000000001e+00	 9.312500000000000e+00	 9.990328916000006e+00
0	 1.062500000000000e+00	 9.375000000000000e+00	 9.993487000000007e+00
0	 1.125000000000000e+00	 8.750000000000000e+00	 9.969626430769210e+00
0	 1.125000000000000e+00	 8.812500000000000e+00	 9.971378980923090e+00
0	 1.125000000000001e+00	 8.874999999999998e+00	 9.973280028307679e+00
0	 1.125000000000000e+00	 8.937500000000000e+00	 9.975329572923087e+00
0	 1.125000000000001e+00	 9.000000000000002e+00	 9.977527614769231e+00
0	 1.125000000000000e+00	 9.062499999999998e+00	 9.979874153846158e+00
0	 1.125000000000000e+00	 9.124999999999998e+00	 9.982369190153829e+00
0	 1.125000000000000e+00	 9.187499999999996e+00	 9.985012723692311e+00
0	 1.125000000000000e+00	 9.250000000000000e+00	 9.987804754461539e+00
0	 1.125000000000000e+00	 9.312499999999996e+00	 9.990745282461535e+00
0	 1.125000000000000e+00	 9.375000000000000e+00	 9.993834307692310e+00
0	 1.187500000000000e+00	 8.750000000000000e+00	 9.970641830769246e+00
0	 1.187500000000000e+00	 8.812499999999998e+00	 9.972349851999992e+00
0	 1.187500000000000e+00	 8.875000000000000e+00	 9.974203429538473e+00
0	 1.187500000000000e+00	 8.937499999999998e+00	 9.976202563384613e+00
0	 1.187500000000001e+00	 9.000000000000000e+00	 9.978347253538455e+00
0	 1.187500000000000e+00	 9.062499999999998e+00	 9.980637500000009e+00
0	 1.187500000000000e+00	 9.124999999999998e+00	 9.983073302769231e+00
0	 1.187500000000000e+00	 9.187499999999998e+00	 9.985654661846151e+00
0	 1.187500000000000e+00	 9.249999999999998e+00	 9.988381577230758e+00
0	 1.187500000000000e+00	 9.312499999999998e+00	 9.991254048923079e+00
0	 1.187500000000000e+00	 9.375000000000000e+00	 9.994272076923085e+00
0	 1.250000000000000e+00	 8.750000000000000e+00	 9.971767076923081e+00
0	 1.250000000000000e+00	 8.812500000000000e+00	 9.973428630769241e+00
0	 1.250000000000000e+00	 8.875000000000002e+00	 9.975232800000027e+00
0	 1.250000000000000e+00	 8.937499999999998e+00	 9.977179584615383e+00
0	 1.250000000000000e+00	 9.000000000000000e+00	 9.979268984615391e+00
0	 1.250000000000000e+00	 9.062500000000000e+00	 9.981500999999987e+00
0	 1.250000000000000e+00	 9.124999999999998e+00	 9.983875630769223e+00
0	 1.250000000000000e+00	 9.187499999999998e+00	 9.986392876923063e+00
0	 1.250000000000000e+00	 9.249999999999998e+00	 9.989052738461536e+00
0	 1.250000000000000e+00	 9.312499999999998e+00	 9.991855215384620e+00
0	 1.250000000000000e+00	 9.375000000000000e+00	 9.994800307692307e+00
0	 6.250000000000000e-01	 9.375000000000000e+00	 9.993588769230778e+00
0	 6.250000000000000e-01	 9.437499999999998e+00	 9.993618296923088e+00
0	 6.249999999999999e-01	 9.500000000000000e+00	 9.993894572307703e+00
0	 6.250000000000000e-01	 9.562500000000000e+00	 9.994417595384611e+00
0	 6.250000000000001e-01	 9.625000000000000e+00	 9.995187366153848e+00
0	 6.250000000000000e-01	 9.687499999999998e+00	 9.996203884615410e+00
0	 6.250000000000000e-01	 9.749999999999998e+00	 9.997467150769202e+00
0	 6.250000000000000e-01	 9.812500000000000e+00	 9.998977164615377e+00
0	 6.250000000000001e-01	 9.875000000000000e+00	 1.000073392615386e+01
0	 6.250000000000000e-01	 9.937499999999998e+00	 1.000273743538460e+01
0	 6.250000000000000e-01	 1.000000000000000e+01	 1.000498769230769e+01
0	 6.875000000000000e-01	 9.375000000000000e+00	 9.993302846153847e+00
0	 6.875000000000001e-01	 9.437499999999998e+00	 9.993320495230750e+00
0	 6.875000000000000e-01	 9.500000000000000e+00	 9.993580371692330e+00
0	 6.875000000000001e-01	 9.562500000000000e+00	 9.994082475538479e+00
0	 6.875000000000000e-01	 9.625000000000000e+00	 9.994826806769227e+00
0	 6.875000000000000e-01	 9.687499999999996e+00	 9.995813365384599e+00
0	 6.875000000000000e-01	 9.749999999999998e+00	 9.997042151384589e+00
0	 6.875000000000001e-01	 9.812500000000000e+00	 9.998513164769243e+00
0	 6.875000000000000e-01	 9.874999999999998e+00	 1.000022640553843e+01
0	 6.875000000000000e-01	 9.937499999999996e+00	 1.000218187369228e+01
0	 6.875000000000000e-01	 1.000000000000000e+01	 1.000437956923077e+01
0	 7.500000000000001e-01	 9.375000000000000e+00	 9.993107384615396e+00
0	 7.500000000000001e-01	 9.437499999999998e+00	 9.993115438153861e+00
0	 7.500000000000001e-01	 9.499999999999998e+00	 9.993361198769231e+00
0	 7.500000000000002e-01	 9.562500000000000e+00	 9.993844666461555e+00
0	 7.500000000000001e-01	 9.624999999999998e+00	 9.994565841230772e+00
0	 7.500000000000003e-01	 9.687499999999998e+00	 9.995524723076896e+00
0	 7.500000000000002e-01	 9.750000000000000e+00	 9.996721312000007e+00
0	 7.500000000000002e-01	 9.812499999999998e+00	 9.998155607999976e+00
0	 7.499999999999999e-01	 9.874999999999996e+00	 9.999827611076922e+00
0	 7.500000000000001e-01	 9.937499999999998e+00	 1.000173732123076e+01
0	 7.500000000000002e-01	 1.000000000000000e+01	 1.000388473846151e+01
0	 8.125000000000002e-01	 9.375000000000002e+00	 9.993002384615405e+00
0	 8.125000000000000e-01	 9.437500000000000e+00	 9.993003125692312e+00
0	 8.125000000000001e-01	 9.499999999999998e+00	 9.993237053538447e+00
0	 8.125000000000003e-01	 9.562499999999998e+00	 9.993704168153846e+00
0	 8.125000000000000e-01	 9.624999999999998e+00	 9.994404469538450e+00
0	 8.125000000000002e-01	 9.687499999999998e+00	 9.995337957692319e+00
0	 8.124999999999999e-01	 9.749999999999996e+00	 9.996504632615405e+00
0	 8.125000000000001e-01	 9.812499999999996e+00	 9.997904494307662e+00
0	 8.125000000000003e-01	 9.875000000000000e+00	 9.999537542769255e+00
0	 8.125000000000002e-01	 9.937499999999998e+00	 1.000140377800004e+01
0	 8.125000000000002e-01	 1.000000000000000e+01	 1.000350319999997e+01
0	 8.750000000000002e-01	 9.375000000000002e+00	 9.992987846153865e+00
0	 8.750000000000001e-01	 9.437500000000000e+00	 9.992983557846161e+00
0	 8.750000000000002e-01	 9.499999999999998e+00	 9.993207936000008e+00
0	 8.750000000000003e-01	 9.562500000000000e+00	 9.993660980615379e+00
0	 8.750000000000004e-01	 9.625000000000002e+00	 9.994342691692303e+00
0	 8.750000000000002e-01	 9.687500000000000e+00	 9.995253069230738e+00
0	 8.750000000000002e-01	 9.750000000000000e+00	 9.996392113230721e+00
0	 8.750000000000003e-01	 9.812500000000002e+00	 9.997759823692309e+00
0	 8.750000000000002e-01	 9.874999999999998e+00	 9.999356200615367e+00
0	 8.750000000000000e-01	 9.937499999999996e+00	 1.000118124400002e+01
0	 8.750000000000002e-01	 1.000000000000000e+01	 1.000323495384611e+01
0	 9.375000000000004e-01	 9.375000000000002e+00	 9.993063769230757e+00
0	 9.375000000000002e-01	 9.437499999999998e+00	 9.993056734615385e+00
0	 9.375000000000004e-01	 9.499999999999996e+00	 9.993273846153825e+00
0	 9.375000000000002e-01	 9.562500000000000e+00	 9.993715103846140e+00
0	 9.375000000000002e-01	 9.624999999999998e+00	 9.994380507692295e+00
0	 9.375000000000002e-01	 9.687499999999998e+00	 9.995270057692283e+00
0	 9.375000000000003e-01	 9.749999999999998e+00	 9.996383753846146e+00
0	 9.375000000000002e-01	 9.812499999999998e+00	 9.997721596153818e+00
0	 9.375000000000003e-01	 9.874999999999998e+00	 9.999283584615352e+00
0	 9.375000000000004e-01	 9.937499999999998e+00	 1.000106971923073e+01
0	 9.375000000000002e-01	 1.000000000000000e+01	 1.000307999999996e+01
0	 1.000000000000000e+00	 9.374999999999998e+00	 9.993230153846159e+00
0	 1.000000000000000e+00	 9.437500000000002e+00	 9.993222656000000e+00
0	 1.000000000000000e+00	 9.499999999999998e+00	 9.993434784000005e+00
0	 1.000000000000001e+00	 9.562499999999998e+00	 9.993866537846150e+00
0	 1.000000000000000e+00	 9.624999999999998e+00	 9.994517917538476e+00
0	 1.000000000000000e+00	 9.687499999999998e+00	 9.995388923076918e+00
0	 1.000000000000000e+00	 9.750000000000000e+00	 9.996479554461533e+00
0	 1.000000000000000e+00	 9.812499999999998e+00	 9.997789811692313e+00
0	 1.000000000000000e+00	 9.875000000000000e+00	 9.999319694769239e+00
0	 1.000000000000000e+00	 9.937500000000000e+00	 1.000106920369228e+01
0	 1.000000000000000e+00	 1.000000000000000e+01	 1.000303833846154e+01
0	 1.062500000000000e+00	 9.375000000000000e+00	 9.993487000000007e+00
0	 1.062500000000001e+00	 9.437500000000002e+00	 9.993481321999994e+00
0	 1.062500000000000e+00	 9.500000000000000e+00	 9.993690749538450e+00
0	 1.062500000000001e+00	 9.562500000000000e+00	 9.994115282615391e+00
0	 1.062500000000000e+00	 9.624999999999998e+00	 9.994754921230783e+00
0	 1.062500000000000e+00	 9.687500000000000e+00	 9.995609665384613e+00
0	 1.062500000000000e+00	 9.750000000000000e+00	 9.996679515076917e+00
0	 1.062500000000001e+00	 9.812500000000000e+00	 9.997964470307705e+00
0	 1.062500000000000e+00	 9.874999999999996e+00	 9.999464531076910e+00
0	 1.062500000000000e+00	 9.937499999999998e+00	 1.000117969738461e+01
0	 1.062500000000000e+00	 1.000000000000000e+01	 1.000310996923072e+01
0	 1.125000000000000e+00	 9.375000000000000e+00	 9.993834307692310e+00
0	 1.125000000000000e+00	 9.437499999999998e+00	 9.993832732615386e+00
0	 1.125000000000000e+00	 9.500000000000000e+00	 9.994041742769220e+00
0	 1.125000000000001e+00	 9.562500000000000e+00	 9.994461338153858e+00
0	 1.125000000000000e+00	 9.625000000000000e+00	 9.995091518769231e+00
0	 1.125000000000000e+00	 9.687499999999998e+00	 9.995932284615350e+00
0	 1.125000000000000e+00	 9.749999999999998e+00	 9.996983635692297e+00
0	 1.125000000000000e+00	 9.812500000000000e+00	 9.998245572000037e+00
0	 1.125000000000000e+00	 9.874999999999998e+00	 9.999718093538418e+00
0	 1.125000000000000e+00	 9.937499999999998e+00	 1.000140120030769e+01
0	 1.125000000000000e+00	 1.000000000000000e+01	 1.000329489230767e+01
0	 1.187500000000000e+00	 9.375000000000000e+00	 9.994272076923085e+00
0	 1.187500000000000e+00	 9.437499999999998e+00	 9.994276887846173e+00
0	 1.187500000000001e+00	 9.500000000000000e+00	 9.994487763692327e+00
0	 1.187500000000001e+00	 9.562500000000000e+00	 9.994904704461526e+00
0	 1.187500000000000e+00	 9.624999999999996e+00	 9.995527710153846e+00
0	 1.187500000000000e+00	 9.687499999999998e+00	 9.996356780769233e+00
0	 1.187500000000000e+00	 9.750000000000000e+00	 9.997391916307716e+00
0	 1.187500000000000e+00	 9.812500000000000e+00	 9.998633116769241e+00
0	 1.187500000000000e+00	 9.874999999999998e+00	 1.000008038215388e+01
0	 1.187500000000000e+00	 9.937499999999996e+00	 1.000173371246150e+01
0	 1.187500000000000e+00	 1.000000000000000e+01	 1.000359310769224e+01
0	 1.250000000000000e+00	 9.375000000000000e+00	 9.994800307692307e+00
0	 1.250000000000000e+00	 9.437499999999998e+00	 9.994813787692296e+00
0	 1.250000000000000e+00	 9.500000000000000e+00	 9.995028812307698e+00
0	 1.250000000000000e+00	 9.562500000000000e+00	 9.995445381538456e+00
0	 1.250000000000000e+00	 9.625000000000000e+00	 9.996063495384623e+00
0	 1.250000000000000e+00	 9.687499999999998e+00	 9.996883153846152e+00
0	 1.250000000000000e+00	 9.749999999999998e+00	 9.997904356923051e+00
0	 1.250000000000000e+00	 9.812500000000000e+00	 9.999127104615379e+00
0	 1.250000000000000e+00	 9.875000000000000e+00	 1.000055139692310e+01
0	 1.250000000000000e+00	 9.937499999999998e+00	 1.000217723384615e+01
0	 1.250000000000000e+00	 1.000000000000000e+01	 1.000400461538461e+01
0	 1.250000000000000e+00	 0.000000000000000e+00	-2.306362991076924e+00
0	 1.250000000000000e+00	 6.250000000000000e-02	-2.003839640310772e+00
0	 1.250000000000000e+00	 1.250000000000000e-01	-1.584607036750770e+00
0	 1.250000000000000e+00	 1.875000000000000e-01	-1.048665180396927e+00
0	 1.250000000000000e+00	 2.500000000000000e-01	-3.960140712492315e-01
0	 1.250000000000000e+00	 3.125000000000000e-01	 3.733462906923073e-01
0	 1.250000000000000e+00	 3.750000000000000e-01	 1.259415905427693e+00
0	 1.250000000000000e+00	 4.374999999999999e-01	 2.262194772956917e+00
0	 1.250000000000000e+00	 5.000000000000000e-01	 3.381682893279999e+00
0	 1.250000000000000e+00	 5.624999999999999e-01	 4.617880266396920e+00
0	 1.250000000000000e+00	 6.250000000000000e-01	 5.970786892307692e+00
0	 1.312500000000000e+00	 0.000000000000000e+00	-8.182598882769216e-01
0	 1.312500000000000e+00	 6.250000000000000e-02	-4.267525106796946e-01
0	 1.312500000000000e+00	 1.250000000000000e-01	 6.439094120123734e-02
0	 1.312500000000000e+00	 1.875000000000000e-01	 6.551704673658474e-01
0	 1.312500000000000e+00	 2.500000000000001e-01	 1.345586067814159e+00
0	 1.312500000000000e+00	 3.125000000000001e-01	 2.135637742546153e+00
0	 1.312500000000000e+00	 3.749999999999999e-01	 3.025325491561848e+00
0	 1.312500000000000e+00	 4.375000000000000e-01	 4.014649314861227e+00
0	 1.312500000000000e+00	 5.000000000000000e-01	 5.103609212444307e+00
0	 1.312500000000000e+00	 5.624999999999999e-01	 6.292205184311075e+00
0	 1.312500000000000e+00	 6.249999999999999e-01	 7.580437230461540e+00
0	 1.375000000000000e+00	 0.000000000000000e+00	 5.806213265230777e-01
0	 1.375000000000000e+00	 6.250000000000000e-02	 1.051138709228311e+00
0	 1.375000000000000e+00	 1.250000000000000e-01	 1.604218987707078e+00
0	 1.375000000000000e+00	 1.875000000000000e-01	 2.239862161959389e+00
0	 1.375000000000000e+00	 2.500000000000001e-01	 2.958068231985234e+00
0	 1.375000000000000e+00	 3.125000000000000e-01	 3.758837197784613e+00
0	 1.375000000000000e+00	 3.749999999999999e-01	 4.642169059357539e+00
0	 1.375000000000000e+00	 4.375000000000000e-01	 5.608063816703996e+00
0	 1.375000000000000e+00	 4.999999999999999e-01	 6.656521469823997e+00
0	 1.375000000000000e+00	 5.625000000000001e-01	 7.787542018717537e+00
0	 1.375000000000000e+00	 6.250000000000001e-01	 9.001125463384621e+00
0	 1.437500000000000e+00	 0.000000000000000e+00	 1.890280653323077e+00
0	 1.437500000000000e+00	 6.250000000000000e-02	 2.429834019413232e+00
0	 1.437500000000000e+00	 1.250000000000000e-01	 3.034877102766768e+00
0	 1.437500000000000e+00	 1.875000000000001e-01	 3.705409903383695e+00
0	 1.437500000000000e+00	 2.500000000000001e-01	 4.441432421264001e+00
0	 1.437500000000000e+00	 3.125000000000000e-01	 5.242944656407695e+00
0	 1.437500000000000e+00	 3.750000000000000e-01	 6.109946608814774e+00
0	 1.437500000000000e+00	 4.374999999999999e-01	 7.042438278485236e+00
0	 1.437500000000000e+00	 4.999999999999999e-01	 8.040419665419080e+00
0	 1.437500000000000e+00	 5.625000000000000e-01	 9.103890769616310e+00
0	 1.437500000000000e+00	 6.249999999999999e-01	 1.023285159107692e+01
0	 1.500000000000000e+00	 0.000000000000000e+00	 3.110718092123081e+00
0	 1.500000000000000e+00	 6.249999999999999e-02	 3.709333419875080e+00
0	 1.500000000000000e+00	 1.250000000000000e-01	 4.356365286380311e+00
0	 1.500000000000000e+00	 1.875000000000000e-01	 5.051813691638769e+00
0	 1.500000000000000e+00	 2.500000000000000e-01	 5.795678635650460e+00
0	 1.500000000000000e+00	 3.125000000000000e-01	 6.587960118415388e+00
0	 1.500000000000001e+00	 3.750000000000001e-01	 7.428658139933541e+00
0	 1.500000000000000e+00	 4.375000000000000e-01	 8.317772700204923e+00
0	 1.500000000000000e+00	 4.999999999999999e-01	 9.255303799229539e+00
0	 1.500000000000000e+00	 5.624999999999999e-01	 1.024125143700739e+01
0	 1.500000000000000e+00	 6.250000000000001e-01	 1.127561561353846e+01
0	 1.562500000000000e+00	 0.000000000000000e+00	 4.241933642923082e+00
0	 1.562500000000000e+00	 6.249999999999998e-02	 4.889636910613848e+00
0	 1.562500000000000e+00	 1.250000000000000e-01	 5.568683538547695e+00
0	 1.562500000000000e+00	 1.875000000000000e-01	 6.279073526724620e+00
0	 1.562500000000000e+00	 2.499999999999999e-01	 7.020806875144618e+00
0	 1.562500000000000e+00	 3.125000000000001e-01	 7.793883583807696e+00
0	 1.562500000000000e+00	 3.749999999999999e-01	 8.598303652713852e+00
0	 1.562500000000000e+00	 4.375000000000000e-01	 9.434067081863077e+00
0	 1.562500000000000e+00	 4.999999999999999e-01	 1.030117387125539e+01
0	 1.562500000000001e+00	 5.625000000000001e-01	 1.119962402089077e+01
0	 1.562500000000000e+00	 6.250000000000000e-01	 1.212941753076923e+01
0	 1.625000000000000e+00	 0.000000000000000e+00	 5.283927305723080e+00
0	 1.625000000000000e+00	 6.249999999999999e-02	 5.970744491629539e+00
0	 1.625000000000000e+00	 1.250000000000000e-01	 6.671831859268923e+00
0	 1.625000000000000e+00	 1.875000000000000e-01	 7.387189408641234e+00
0	 1.625000000000000e+00	 2.500000000000001e-01	 8.116817139746466e+00
0	 1.625000000000000e+00	 3.124999999999999e-01	 8.860715052584620e+00
0	 1.625000000000000e+00	 3.750000000000000e-01	 9.618883147155696e+00
0	 1.625000000000000e+00	 4.375000000000001e-01	 1.039132142345970e+01
0	 1.625000000000000e+00	 5.000000000000000e-01	 1.117802988149661e+01
0	 1.625000000000001e+00	 5.625000000000001e-01	 1.197900852126646e+01
0	 1.625000000000000e+00	 6.250000000000000e-01	 1.279425734276924e+01
0	 1.687500000000000e+00	 0.000000000000000e+00	 6.236699080523081e+00
0	 1.687500000000001e+00	 6.250000000000000e-02	 6.952656162922159e+00
0	 1.687500000000001e+00	 1.250000000000000e-01	 7.665810248544005e+00
0	 1.687500000000000e+00	 1.875000000000000e-01	 8.376161337388620e+00
0	 1.687500000000000e+00	 2.500000000000001e-01	 9.083709429456009e+00
0	 1.687500000000000e+00	 3.125000000000000e-01	 9.788454524746157e+00
0	 1.687500000000000e+00	 3.750000000000000e-01	 1.049039662325908e+01
0	 1.687500000000000e+00	 4.374999999999999e-01	 1.118953572499477e+01
0	 1.687500000000000e+00	 4.999999999999999e-01	 1.188587182995323e+01
0	 1.687500000000000e+00	 5.625000000000000e-01	 1.257940493813446e+01
0	 1.687500000000000e+00	 6.250000000000000e-01	 1.327013504953846e+01
0	 1.750000000000000e+00	 0.000000000000000e+00	 7.100248967323082e+00
0	 1.750000000000000e+00	 6.249999999999999e-02	 7.835371924491700e+00
0	 1.750000000000000e+00	 1.250000000000000e-01	 8.550618706372930e+00
0	 1.750000000000000e+00	 1.875000000000000e-01	 9.245989312966774e+00
0	 1.750000000000001e+00	 2.500000000000000e-01	 9.921483744273235e+00
0	 1.750000000000001e+00	 3.125000000000000e-01	 1.057710200029231e+01
0	 1.750000000000000e+00	 3.750000000000000e-01	 1.121284408102400e+01
0	 1.750000000000000e+00	 4.375000000000001e-01	 1.182870998646831e+01
0	 1.750000000000001e+00	 5.000000000000000e-01	 1.242469971662523e+01
0	 1.750000000000001e+00	 5.624999999999999e-01	 1.300081327149477e+01
0	 1.750000000000000e+00	 6.250000000000000e-01	 1.355705065107693e+01
0	 1.812500000000000e+00	 0.000000000000000e+00	 7.874576966123080e+00
0	 1.812500000000001e+00	 6.250000000000000e-02	 8.618891776338156e+00
0	 1.812500000000000e+00	 1.250000000000000e-01	 9.326257232755696e+00
0	 1.812500000000000e+00	 1.875000000000000e-01	 9.996673335375698e+00
0	 1.812500000000000e+00	 2.500000000000000e-01	 1.063014008419816e+01
0	 1.812500000000000e+00	 3.125000000000001e-01	 1.122665747922308e+01
0	 1.812500000000001e+00	 3.750000000000000e-01	 1.178622552045047e+01
0	 1.812500000000001e+00	 4.375000000000000e-01	 1.230884420788031e+01
0	 1.812500000000001e+00	 5.000000000000000e-01	 1.279451354151261e+01
0	 1.812500000000000e+00	 5.625000000000000e-01	 1.324323352134739e+01
0	 1.812500000000001e+00	 6.250000000000000e-01	 1.365500414738462e+01
0	 1.875000000000000e+00	 0.000000000000000e+00	 8.559683076923076e+00
0	 1.875000000000000e+00	 6.250000000000000e-02	 9.303215718461537e+00
0	 1.875000000000000e+00	 1.250000000000000e-01	 9.992725827692306e+00
0	 1.875000000000000e+00	 1.875000000000000e-01	 1.062821340461539e+01
0	 1.875000000000000e+00	 2.500000000000000e-01	 1.120967844923077e+01
0	 1.875000000000000e+00	 3.125000000000000e-01	 1.173712096153846e+01
0	 1.875000000000000e+00	 3.750000000000000e-01	 1.221054094153846e+01
0	 1.875000000000000e+00	 4.374999999999999e-01	 1.262993838923077e+01
0	 1.875000000000000e+00	 5.000000000000000e-01	 1.299531330461538e+01
0	 1.875000000000000e+00	 5.624999999999999e-01	 1.330666568769231e+01
0	 1.875000000000000e+00	 6.250000000000000e-01	 1.356399553846154e+01
0	 1.250000000000000e+00	 6.250000000000000e-01	 5.970786892307692e+00
0	 1.250000000000000e+00	 6.875000000000000e-01	 7.975674903076926e+00
0	 1.250000000000000e+00	 7.500000000000002e-01	 9.928182683076924e+00
0	 1.250000000000000e+00	 8.125000000000002e-01	 1.182831023230769e+01
0	 1.250000000000000e+00	 8.750000000000002e-01	 1.367605755076923e+01
0	 1.250000000000000e+00	 9.375000000000002e-01	 1.547142463846154e+01
0	 1.250000000000000e+00	 1.000000000000000e+00	 1.721441149538462e+01
0	 1.250000000000000e+00	 1.062500000000000e+00	 1.890501812153847e+01
0	 1.250000000000000e+00	 1.125000000000001e+00	 2.054324451692309e+01
0	 1.250000000000000e+00	 1.187500000000000e+00	 2.212909068153848e+01
0	 1.250000000000000e+00	 1.250000000000000e+00	 2.366255661538462e+01
0	 1.312500000000000e+00	 6.249999999999999e-01	 7.580437230461540e+00
0	 1.312500000000000e+00	 6.875000000000000e-01	 9.144660313723085e+00
0	 1.312500000000000e+00	 7.500000000000000e-01	 1.066249072313846e+01
0	 1.312500000000000e+00	 8.125000000000003e-01	 1.213392845870770e+01
0	 1.312500000000000e+00	 8.750000000000002e-01	 1.355897352043077e+01
0	 1.312500000000000e+00	 9.375000000000003e-01	 1.493762590830770e+01
0	 1.312500000000000e+00	 1.000000000000000e+00	 1.626988562233847e+01
0	 1.312500000000000e+00	 1.062500000000000e+00	 1.755575266252308e+01
0	 1.312500000000000e+00	 1.125000000000000e+00	 1.879522702886154e+01
0	 1.312500000000000e+00	 1.187500000000001e+00	 1.998830872135385e+01
0	 1.312500000000000e+00	 1.250000000000000e+00	 2.113499774000000e+01
0	 1.375000000000000e+00	 6.250000000000001e-01	 9.001125463384621e+00
0	 1.375000000000000e+00	 6.875000000000001e-01	 1.017279712535385e+01
0	 1.375000000000000e+00	 7.500000000000003e-01	 1.130406367040001e+01
0	 1.375000000000000e+00	 8.125000000000001e-01	 1.239492509852307e+01
0	 1.375000000000000e+00	 8.750000000000003e-01	 1.344538140972308e+01
0	 1.375000000000000e+00	 9.375000000000002e-01	 1.445543260400000e+01
0	 1.375000000000000e+00	 1.000000000000000e+00	 1.542507868135385e+01
0	 1.375000000000000e+00	 1.062500000000000e+00	 1.635431964178461e+01
0	 1.375000000000000e+00	 1.125000000000000e+00	 1.724315548529231e+01
0	 1.375000000000000e+00	 1.187500000000001e+00	 1.809158621187692e+01
0	 1.375000000000000e+00	 1.250000000000000e+00	 1.889961182153847e+01
0	 1.437500000000000e+00	 6.249999999999999e-01	 1.023285159107692e+01
0	 1.437500000000000e+00	 6.875000000000001e-01	 1.106008533796923e+01
0	 1.437500000000001e+00	 7.500000000000003e-01	 1.185290152486154e+01
0	 1.437500000000000e+00	 8.125000000000000e-01	 1.261130015175386e+01
0	 1.437500000000000e+00	 8.750000000000001e-01	 1.333528121864615e+01
0	 1.437500000000000e+00	 9.375000000000003e-01	 1.402484472553846e+01
0	 1.437500000000000e+00	 1.000000000000000e+00	 1.467999067243077e+01
0	 1.437500000000000e+00	 1.062500000000000e+00	 1.530071905932308e+01
0	 1.437500000000000e+00	 1.125000000000000e+00	 1.588702988621538e+01
0	 1.437500000000000e+00	 1.187500000000000e+00	 1.643892315310769e+01
0	 1.437500000000000e+00	 1.250000000000000e+00	 1.695639885999999e+01
0	 1.500000000000000e+00	 6.250000000000001e-01	 1.127561561353846e+01
0	 1.500000000000000e+00	 6.875000000000000e-01	 1.180652495156923e+01
0	 1.500000000000000e+00	 7.500000000000002e-01	 1.230900428652308e+01
0	 1.500000000000000e+00	 8.125000000000001e-01	 1.278305361840000e+01
0	 1.500000000000000e+00	 8.749999999999999e-01	 1.322867294720000e+01
0	 1.500000000000000e+00	 9.375000000000002e-01	 1.364586227292308e+01
0	 1.500000000000000e+00	 1.000000000000000e+00	 1.403462159556923e+01
0	 1.500000000000001e+00	 1.062500000000001e+00	 1.439495091513845e+01
0	 1.500000000000000e+00	 1.125000000000000e+00	 1.472685023163076e+01
0	 1.500000000000000e+00	 1.187500000000001e+00	 1.503031954504615e+01
0	 1.500000000000000e+00	 1.250000000000000e+00	 1.530535885538461e+01
0	 1.562500000000000e+00	 6.250000000000000e-01	 1.212941753076923e+01
0	 1.562500000000000e+00	 6.875000000000000e-01	 1.241211596615385e+01
0	 1.562500000000000e+00	 7.500000000000001e-01	 1.267237195538461e+01
0	 1.562500000000000e+00	 8.125000000000001e-01	 1.291018549846154e+01
0	 1.562500000000001e+00	 8.750000000000003e-01	 1.312555659538461e+01
0	 1.562500000000000e+00	 9.375000000000002e-01	 1.331848524615385e+01
0	 1.562500000000000e+00	 1.000000000000000e+00	 1.348897145076923e+01
0	 1.562500000000000e+00	 1.062500000000000e+00	 1.363701520923077e+01
0	 1.562500000000000e+00	 1.125000000000000e+00	 1.376261652153845e+01
0	 1.562500000000000e+00	 1.187500000000000e+00	 1.386577538769230e+01
0	 1.562500000000000e+00	 1.250000000000000e+00	 1.394649180769230e+01
0	 1.625000000000000e+00	 6.250000000000000e-01	 1.279425734276924e+01
0	 1.625000000000000e+00	 6.875000000000001e-01	 1.287685838172308e+01
0	 1.625000000000000e+00	 7.500000000000001e-01	 1.294300453144615e+01
0	 1.625000000000001e+00	 8.125000000000001e-01	 1.299269579193846e+01
0	 1.625000000000000e+00	 8.750000000000003e-01	 1.302593216320000e+01
0	 1.625000000000000e+00	 9.375000000000003e-01	 1.304271364523077e+01
0	 1.625000000000000e+00	 1.000000000000000e+00	 1.304304023803077e+01
0	 1.625000000000001e+00	 1.062500000000001e+00	 1.302691194160000e+01
0	 1.625000000000001e+00	 1.125000000000001e+00	 1.299432875593846e+01
0	 1.625000000000000e+00	 1.187500000000000e+00	 1.294529068104615e+01
0	 1.625000000000000e+00	 1.250000000000000e+00	 1.287979771692307e+01
0	 1.687500000000000e+00	 6.250000000000000e-01	 1.327013504953846e+01
0	 1.687500000000000e+00	 6.875000000000001e-01	 1.320075219827693e+01
0	 1.687500000000001e+00	 7.500000000000002e-01	 1.312090201470769e+01
0	 1.687500000000000e+00	 8.125000000000001e-01	 1.303058449883077e+01
0	 1.687500000000000e+00	 8.750000000000002e-01	 1.292979965064615e+01
0	 1.687500000000001e+00	 9.375000000000003e-01	 1.281854747015384e+01
0	 1.687500000000000e+00	 1.000000000000000e+00	 1.269682795735384e+01
0	 1.687500000000000e+00	 1.062500000000000e+00	 1.256464111224615e+01
0	 1.687500000000000e+00	 1.125000000000000e+00	 1.242198693483076e+01
0	 1.687500000000000e+00	 1.187500000000000e+00	 1.226886542510769e+01
0	 1.687500000000000e+00	 1.250000000000000e+00	 1.210527658307692e+01
0	 1.750000000000000e+00	 6.250000000000000e-01	 1.355705065107693e+01
0	 1.750000000000000e+00	 6.875000000000001e-01	 1.338379741581538e+01
0	 1.750000000000000e+00	 7.500000000000001e-01	 1.320606440516923e+01
0	 1.750000000000000e+00	 8.125000000000002e-01	 1.302385161913845e+01
0	 1.750000000000000e+00	 8.750000000000001e-01	 1.283715905772307e+01
0	 1.750000000000000e+00	 9.375000000000003e-01	 1.264598672092307e+01
0	 1.750000000000001e+00	 1.000000000000001e+00	 1.245033460873846e+01
0	 1.750000000000001e+00	 1.062500000000000e+00	 1.225020272116923e+01
0	 1.750000000000001e+00	 1.125000000000000e+00	 1.204559105821538e+01
0	 1.750000000000001e+00	 1.187500000000000e+00	 1.183649961987692e+01
0	 1.750000000000000e+00	 1.250000000000000e+00	 1.162292840615384e+01
0	 1.812500000000001e+00	 6.250000000000000e-01	 1.365500414738462e+01
0	 1.812500000000000e+00	 6.875000000000001e-01	 1.342599403433846e+01
0	 1.812500000000001e+00	 7.500000000000002e-01	 1.319849170283076e+01
0	 1.812500000000000e+00	 8.125000000000000e-01	 1.297249715286154e+01
0	 1.812500000000000e+00	 8.750000000000000e-01	 1.274801038443077e+01
0	 1.812500000000000e+00	 9.375000000000000e-01	 1.252503139753846e+01
0	 1.812500000000000e+00	 1.000000000000000e+00	 1.230356019218461e+01
0	 1.812500000000000e+00	 1.062500000000000e+00	 1.208359676836923e+01
0	 1.812500000000000e+00	 1.125000000000000e+00	 1.186514112609230e+01
0	 1.812500000000001e+00	 1.187500000000001e+00	 1.164819326535384e+01
0	 1.812500000000001e+00	 1.250000000000000e+00	 1.143275318615384e+01
0	 1.875000000000000e+00	 6.250000000000000e-01	 1.356399553846154e+01
0	 1.875000000000000e+00	 6.875000000000000e-01	 1.332734205384615e+01
0	 1.875000000000000e+00	 7.500000000000002e-01	 1.309818390769231e+01
0	 1.875000000000000e+00	 8.125000000000002e-01	 1.287652110000000e+01
0	 1.875000000000000e+00	 8.750000000000002e-01	 1.266235363076923e+01
0	 1.875000000000000e+00	 9.375000000000002e-01	 1.245568150000000e+01
0	 1.875000000000000e+00	 1.000000000000000e+00	 1.225650470769230e+01
0	 1.875000000000000e+00	 1.062500000000000e+00	 1.206482325384615e+01
0	 1.875000000000000e+00	 1.125000000000001e+00	 1.188063713846154e+01
0	 1.875000000000000e+00	 1.187500000000000e+00	 1.170394636153846e+01
0	 1.875000000000000e+00	 1.250000000000000e+00	 1.153475092307692e+01
0	 1.250000000000000e+00	 1.250000000000000e+00	 2.366255661538462e+01
0	 1.250000000000000e+00	 1.312500000000000e+00	 2.206813124153846e+01
0	 1.250000000000000e+00	 1.375000000000000e+00	 2.048357770461538e+01
0	 1.250000000000000e+00	 1.437500000000000e+00	 1.890889600461538e+01
0	 1.250000000000000e+00	 1.500000000000000e+00	 1.734408614153845e+01
0	 1.250000000000000e+00	 1.562500000000000e+00	 1.578914811538460e+01
0	 1.250000000000000e+00	 1.625000000000000e+00	 1.424408192615383e+01
0	 1.250000000000000e+00	 1.687500000000000e+00	 1.270888757384614e+01
0	 1.250000000000000e+00	 1.750000000000001e+00	 1.118356505846152e+01
0	 1.250000000000000e+00	 1.812500000000000e+00	 9.668114379999984e+00
0	 1.250000000000000e+00	 1.875000000000000e+00	 8.162535538461533e+00
0	 1.312500000000000e+00	 1.250000000000000e+00	 2.113499774000000e+01
0	 1.312500000000000e+00	 1.312500000000000e+00	 1.984911558246154e+01
0	 1.312500000000000e+00	 1.375000000000000e+00	 1.857205072861537e+01
0	 1.312500000000000e+00	 1.437500000000000e+00	 1.730380317846153e+01
0	 1.312500000000000e+00	 1.500000000000000e+00	 1.604437293199998e+01
0	 1.312500000000000e+00	 1.562500000000000e+00	 1.479375998923076e+01
0	 1.312500000000000e+00	 1.625000000000000e+00	 1.355196435015384e+01
0	 1.312500000000000e+00	 1.687500000000000e+00	 1.231898601476922e+01
0	 1.312500000000000e+00	 1.750000000000001e+00	 1.109482498307691e+01
0	 1.312500000000000e+00	 1.812500000000000e+00	 9.879481255076904e+00
0	 1.312500000000000e+00	 1.875000000000000e+00	 8.672954830769225e+00
0	 1.375000000000000e+00	 1.250000000000000e+00	 1.889961182153847e+01
0	 1.375000000000000e+00	 1.312500000000000e+00	 1.788821961846152e+01
0	 1.375000000000000e+00	 1.375000000000000e+00	 1.688459018584614e+01
0	 1.375000000000000e+00	 1.437500000000000e+00	 1.588872352369230e+01
0	 1.375000000000000e+00	 1.500000000000000e+00	 1.490061963199999e+01
0	 1.375000000000000e+00	 1.562500000000001e+00	 1.392027851076922e+01
0	 1.375000000000000e+00	 1.625000000000000e+00	 1.294770015999999e+01
0	 1.375000000000000e+00	 1.687500000000001e+00	 1.198288457969230e+01
0	 1.375000000000000e+00	 1.750000000000000e+00	 1.102583176984615e+01
0	 1.375000000000000e+00	 1.812500000000001e+00	 1.007654173046153e+01
0	 1.375000000000000e+00	 1.875000000000000e+00	 9.135014461538461e+00
0	 1.437500000000000e+00	 1.250000000000000e+00	 1.695639885999999e+01
0	 1.437500000000000e+00	 1.312500000000000e+00	 1.618544334953845e+01
0	 1.437500000000001e+00	 1.375000000000000e+00	 1.542119607630769e+01
0	 1.437500000000000e+00	 1.437500000000000e+00	 1.466365704030768e+01
0	 1.437500000000000e+00	 1.500000000000000e+00	 1.391282624153845e+01
0	 1.437500000000000e+00	 1.562500000000001e+00	 1.316870367999999e+01
0	 1.437500000000000e+00	 1.625000000000000e+00	 1.243128935569230e+01
0	 1.437500000000000e+00	 1.687500000000001e+00	 1.170058326861538e+01
0	 1.437500000000000e+00	 1.750000000000000e+00	 1.097658541876922e+01
0	 1.437500000000000e+00	 1.812500000000000e+00	 1.025929580615384e+01
0	 1.437500000000000e+00	 1.875000000000000e+00	 9.548714430769234e+00
0	 1.500000000000000e+00	 1.250000000000000e+00	 1.530535885538461e+01
0	 1.500000000000000e+00	 1.312500000000000e+00	 1.474078677569229e+01
0	 1.500000000000000e+00	 1.375000000000000e+00	 1.418186840000000e+01
0	 1.500000000000000e+00	 1.437500000000000e+00	 1.362860372830769e+01
0	 1.500000000000000e+00	 1.500000000000000e+00	 1.308099276061538e+01
0	 1.500000000000000e+00	 1.562500000000000e+00	 1.253903549692307e+01
0	 1.500000000000000e+00	 1.625000000000001e+00	 1.200273193723076e+01
0	 1.500000000000001e+00	 1.687500000000000e+00	 1.147208208153845e+01
0	 1.500000000000000e+00	 1.750000000000000e+00	 1.094708592984614e+01
0	 1.500000000000000e+00	 1.812500000000001e+00	 1.042774348215384e+01
0	 1.500000000000000e+00	 1.875000000000000e+00	 9.914054738461534e+00
0	 1.562500000000000e+00	 1.250000000000000e+00	 1.394649180769230e+01
0	 1.562500000000000e+00	 1.312500000000000e+00	 1.355424989692307e+01
0	 1.562500000000000e+00	 1.375000000000000e+00	 1.316660715692307e+01
0	 1.562500000000000e+00	 1.437500000000000e+00	 1.278356358769230e+01
0	 1.562500000000001e+00	 1.500000000000000e+00	 1.240511918923077e+01
0	 1.562500000000000e+00	 1.562500000000000e+00	 1.203127396153845e+01
0	 1.562500000000000e+00	 1.625000000000000e+00	 1.166202790461537e+01
0	 1.562500000000000e+00	 1.687500000000001e+00	 1.129738101846153e+01
0	 1.562500000000000e+00	 1.750000000000001e+00	 1.093733330307692e+01
0	 1.562500000000000e+00	 1.812500000000000e+00	 1.058188475846153e+01
0	 1.562500000000000e+00	 1.875000000000000e+00	 1.023103538461538e+01
0	 1.625000000000000e+00	 1.250000000000000e+00	 1.287979771692307e+01
0	 1.625000000000000e+00	 1.312500000000000e+00	 1.262583271323076e+01
0	 1.625000000000000e+00	 1.375000000000000e+00	 1.237541234707692e+01
0	 1.625000000000001e+00	 1.437500000000000e+00	 1.212853661846153e+01
0	 1.625000000000000e+00	 1.500000000000000e+00	 1.188520552738461e+01
0	 1.625000000000000e+00	 1.562500000000000e+00	 1.164541907384615e+01
0	 1.625000000000000e+00	 1.625000000000000e+00	 1.140917725784615e+01
0	 1.625000000000001e+00	 1.687500000000001e+00	 1.117648007938461e+01
0	 1.625000000000001e+00	 1.750000000000000e+00	 1.094732753846153e+01
0	 1.625000000000000e+00	 1.812500000000000e+00	 1.072171963507691e+01
0	 1.625000000000000e+00	 1.875000000000000e+00	 1.049965636923077e+01
0	 1.687500000000000e+00	 1.250000000000000e+00	 1.210527658307692e+01
0	 1.687500000000000e+00	 1.312500000000000e+00	 1.195553522461539e+01
0	 1.687500000000001e+00	 1.375000000000000e+00	 1.180828397046154e+01
0	 1.687500000000000e+00	 1.437500000000000e+00	 1.166352282061538e+01
0	 1.687500000000000e+00	 1.500000000000000e+00	 1.152125177507692e+01
0	 1.687500000000001e+00	 1.562500000000000e+00	 1.138147083384615e+01
0	 1.687500000000000e+00	 1.625000000000000e+00	 1.124417999692308e+01
0	 1.687500000000000e+00	 1.687500000000000e+00	 1.110937926430768e+01
0	 1.687500000000000e+00	 1.750000000000000e+00	 1.097706863600000e+01
0	 1.687500000000000e+00	 1.812500000000000e+00	 1.084724811200000e+01
0	 1.687500000000000e+00	 1.875000000000000e+00	 1.071991769230768e+01
0	 1.750000000000000e+00	 1.250000000000000e+00	 1.162292840615384e+01
0	 1.750000000000000e+00	 1.312500000000000e+00	 1.154335743107692e+01
0	 1.750000000000000e+00	 1.375000000000000e+00	 1.146522202707692e+01
0	 1.750000000000000e+00	 1.437500000000000e+00	 1.138852219415384e+01
0	 1.750000000000000e+00	 1.500000000000000e+00	 1.131325793230769e+01
0	 1.750000000000000e+00	 1.562500000000000e+00	 1.123942924153845e+01
0	 1.750000000000001e+00	 1.625000000000001e+00	 1.116703612184616e+01
0	 1.750000000000001e+00	 1.687500000000001e+00	 1.109607857323076e+01
0	 1.750000000000001e+00	 1.750000000000001e+00	 1.102655659569230e+01
0	 1.750000000000001e+00	 1.812500000000001e+00	 1.095847018923076e+01
0	 1.750000000000000e+00	 1.875000000000000e+00	 1.089181935384615e+01
0	 1.812500000000001e+00	 1.250000000000000e+00	 1.143275318615384e+01
0	 1.812500000000000e+00	 1.312500000000000e+00	 1.138929933261538e+01
0	 1.812500000000001e+00	 1.375000000000000e+00	 1.134622651692308e+01
0	 1.812500000000000e+00	 1.437500000000000e+00	 1.130353473907692e+01
0	 1.812500000000000e+00	 1.500000000000000e+00	 1.126122399907692e+01
0	 1.812500000000000e+00	 1.562500000000000e+00	 1.121929429692308e+01
0	 1.812500000000000e+00	 1.625000000000000e+00	 1.117774563261538e+01
0	 1.812500000000000e+00	 1.687500000000000e+00	 1.113657800615384e+01
0	 1.812500000000000e+00	 1.750000000000001e+00	 1.109579141753846e+01
0	 1.812500000000001e+00	 1.812500000000001e+00	 1.105538586676923e+01
0	 1.812500000000001e+00	 1.875000000000000e+00	 1.101536135384615e+01
0	 1.875000000000000e+00	 1.250000000000000e+00	 1.153475092307692e+01
0	 1.875000000000000e+00	 1.312500000000000e+00	 1.149336092923076e+01
0	 1.875000000000000e+00	 1.375000000000000e+00	 1.145129744000000e+01
0	 1.875000000000000e+00	 1.437500000000000e+00	 1.140856045538461e+01
0	 1.875000000000000e+00	 1.500000000000000e+00	 1.136514997538461e+01
0	 1.875000000000000e+00	 1.562500000000000e+00	 1.132106599999999e+01
0	 1.875000000000000e+00	 1.625000000000000e+00	 1.127630852923076e+01
0	 1.875000000000000e+00	 1.687500000000000e+00	 1.123087756307692e+01
0	 1.875000000000000e+00	 1.750000000000001e+00	 1.118477310153846e+01
0	 1.875000000000000e+00	 1.812500000000000e+00	 1.113799514461538e+01
0	 1.875000000000000e+00	 1.875000000000000e+00	 1.109054369230769e+01
0	 1.250000000000000e+00	 1.875000000000000e+00	 8.162535538461533e+00
0	 1.250000000000000e+00	 1.937500000000000e+00	 8.401405844615379e+00
0	 1.250000000000000e+00	 2.000000000000000e+00	 8.620897747692304e+00
0	 1.250000000000000e+00	 2.062500000000000e+00	 8.821011247692304e+00
0	 1.250000000000000e+00	 2.125000000000000e+00	 9.001746344615386e+00
0	 1.250000000000000e+00	 2.187500000000000e+00	 9.163103038461539e+00
0	 1.250000000000000e+00	 2.250000000000000e+00	 9.305081329230770e+00
0	 1.250000000000000e+00	 2.312500000000000e+00	 9.427681216923073e+00
0	 1.250000000000000e+00	 2.375000000000001e+00	 9.530902701538466e+00
0	 1.250000000000000e+00	 2.437500000000001e+00	 9.614745783076927e+00
0	 1.250000000000000e+00	 2.500000000000000e+00	 9.679210461538464e+00
0	 1.312500000000000e+00	 1.875000000000000e+00	 8.672954830769225e+00
0	 1.312500000000000e+00	 1.937500000000000e+00	 8.857707197846150e+00
0	 1.312500000000000e+00	 2.000000000000000e+00	 9.025651065230761e+00
0	 1.312500000000000e+00	 2.062500000000000e+00	 9.176786432923075e+00
0	 1.312500000000000e+00	 2.125000000000000e+00	 9.311113300923079e+00
0	 1.312500000000000e+00	 2.187500000000001e+00	 9.428631669230766e+00
0	 1.312500000000000e+00	 2.250000000000000e+00	 9.529341537846156e+00
0	 1.312500000000000e+00	 2.312500000000001e+00	 9.613242906769232e+00
0	 1.312500000000000e+00	 2.375000000000001e+00	 9.680335776000010e+00
0	 1.312500000000000e+00	 2.437500000000000e+00	 9.730620145538467e+00
0	 1.312500000000000e+00	 2.500000000000000e+00	 9.764096015384613e+00
0	 1.375000000000000e+00	 1.875000000000000e+00	 9.135014461538461e+00
0	 1.375000000000000e+00	 1.937500000000000e+00	 9.269991840307693e+00
0	 1.375000000000000e+00	 2.000000000000000e+00	 9.390730622769233e+00
0	 1.375000000000000e+00	 2.062500000000000e+00	 9.497230808923071e+00
0	 1.375000000000000e+00	 2.125000000000000e+00	 9.589492398769227e+00
0	 1.375000000000000e+00	 2.187500000000000e+00	 9.667515392307692e+00
0	 1.375000000000000e+00	 2.250000000000000e+00	 9.731299789538456e+00
0	 1.375000000000000e+00	 2.312500000000001e+00	 9.780845590461542e+00
0	 1.375000000000000e+00	 2.375000000000001e+00	 9.816152795076931e+00
0	 1.375000000000000e+00	 2.437500000000000e+00	 9.837221403384614e+00
0	 1.375000000000000e+00	 2.500000000000000e+00	 9.844051415384618e+00
0	 1.437500000000000e+00	 1.875000000000000e+00	 9.548714430769234e+00
0	 1.437500000000000e+00	 1.937500000000000e+00	 9.638259771999994e+00
0	 1.437500000000001e+00	 2.000000000000000e+00	 9.716136420307695e+00
0	 1.437500000000000e+00	 2.062500000000000e+00	 9.782344375692308e+00
0	 1.437500000000000e+00	 2.125000000000000e+00	 9.836883638153850e+00
0	 1.437500000000000e+00	 2.187500000000001e+00	 9.879754207692303e+00
0	 1.437500000000000e+00	 2.250000000000000e+00	 9.910956084307694e+00
0	 1.437500000000000e+00	 2.312500000000000e+00	 9.930489267999999e+00
0	 1.437500000000000e+00	 2.375000000000000e+00	 9.938353758769237e+00
0	 1.437500000000000e+00	 2.437500000000001e+00	 9.934549556615380e+00
0	 1.437500000000000e+00	 2.500000000000000e+00	 9.919076661538458e+00
0	 1.500000000000000e+00	 1.875000000000000e+00	 9.914054738461534e+00
0	 1.500000000000000e+00	 1.937500000000000e+00	 9.962510992923074e+00
0	 1.500000000000000e+00	 2.000000000000000e+00	 1.000186845784615e+01
0	 1.500000000000000e+00	 2.062500000000000e+00	 1.003212713323077e+01
0	 1.500000000000000e+00	 2.125000000000000e+00	 1.005328701907692e+01
0	 1.500000000000000e+00	 2.187500000000000e+00	 1.006534811538462e+01
0	 1.500000000000000e+00	 2.250000000000000e+00	 1.006831042215385e+01
0	 1.500000000000001e+00	 2.312500000000000e+00	 1.006217393938461e+01
0	 1.500000000000000e+00	 2.375000000000000e+00	 1.004693866707692e+01
0	 1.500000000000000e+00	 2.437500000000000e+00	 1.002260460523077e+01
0	 1.500000000000000e+00	 2.500000000000000e+00	 9.989171753846156e+00
0	 1.562500000000000e+00	 1.875000000000000e+00	 1.023103538461538e+01
0	 1.562500000000000e+00	 1.937500000000000e+00	 1.024274550307691e+01
0	 1.562500000000000e+00	 2.000000000000000e+00	 1.024792673538461e+01
0	 1.562500000000000e+00	 2.062500000000000e+00	 1.024657908153845e+01
0	 1.562500000000001e+00	 2.125000000000001e+00	 1.023870254153846e+01
0	 1.562500000000000e+00	 2.187500000000000e+00	 1.022429711538462e+01
0	 1.562500000000000e+00	 2.250000000000000e+00	 1.020336280307692e+01
0	 1.562500000000000e+00	 2.312500000000001e+00	 1.017589960461539e+01
0	 1.562500000000000e+00	 2.375000000000000e+00	 1.014190752000001e+01
0	 1.562500000000000e+00	 2.437500000000001e+00	 1.010138654923077e+01
0	 1.562500000000000e+00	 2.500000000000000e+00	 1.005433669230770e+01
0	 1.625000000000000e+00	 1.875000000000000e+00	 1.049965636923077e+01
0	 1.625000000000000e+00	 1.937500000000000e+00	 1.047896330246154e+01
0	 1.625000000000000e+00	 2.000000000000000e+00	 1.045431125292307e+01
0	 1.625000000000001e+00	 2.062500000000000e+00	 1.042570022061538e+01
0	 1.625000000000000e+00	 2.125000000000000e+00	 1.039313020553846e+01
0	 1.625000000000000e+00	 2.187500000000000e+00	 1.035660120769231e+01
0	 1.625000000000000e+00	 2.250000000000000e+00	 1.031611322707692e+01
0	 1.625000000000001e+00	 2.312500000000001e+00	 1.027166626369231e+01
0	 1.625000000000001e+00	 2.375000000000001e+00	 1.022326031753847e+01
0	 1.625000000000000e+00	 2.437500000000000e+00	 1.017089538861539e+01
0	 1.625000000000000e+00	 2.500000000000000e+00	 1.011457147692308e+01
0	 1.687500000000000e+00	 1.875000000000000e+00	 1.071991769230768e+01
0	 1.687500000000000e+00	 1.937500000000000e+00	 1.067116439107692e+01
0	 1.687500000000001e+00	 2.000000000000000e+00	 1.062102201046153e+01
0	 1.687500000000000e+00	 2.062500000000000e+00	 1.056949055046154e+01
0	 1.687500000000000e+00	 2.125000000000000e+00	 1.051657001107692e+01
0	 1.687500000000001e+00	 2.187500000000000e+00	 1.046226039230769e+01
0	 1.687500000000000e+00	 2.250000000000000e+00	 1.040656169415385e+01
0	 1.687500000000000e+00	 2.312500000000000e+00	 1.034947391661538e+01
0	 1.687500000000000e+00	 2.375000000000000e+00	 1.029099705969231e+01
0	 1.687500000000000e+00	 2.437500000000000e+00	 1.023113112338462e+01
0	 1.687500000000000e+00	 2.500000000000000e+00	 1.016987610769231e+01
0	 1.750000000000000e+00	 1.875000000000000e+00	 1.089181935384615e+01
0	 1.750000000000000e+00	 1.937500000000000e+00	 1.081934876892307e+01
0	 1.750000000000000e+00	 2.000000000000000e+00	 1.074805900799999e+01
0	 1.750000000000000e+00	 2.062500000000000e+00	 1.067795007107692e+01
0	 1.750000000000000e+00	 2.125000000000000e+00	 1.060902195815385e+01
0	 1.750000000000000e+00	 2.187500000000000e+00	 1.054127466923077e+01
0	 1.750000000000001e+00	 2.250000000000001e+00	 1.047470820430769e+01
0	 1.750000000000001e+00	 2.312500000000001e+00	 1.040932256338462e+01
0	 1.750000000000001e+00	 2.375000000000001e+00	 1.034511774646154e+01
0	 1.750000000000001e+00	 2.437500000000001e+00	 1.028209375353847e+01
0	 1.750000000000000e+00	 2.500000000000000e+00	 1.022025058461540e+01
0	 1.812500000000001e+00	 1.875000000000000e+00	 1.101536135384615e+01
0	 1.812500000000000e+00	 1.937500000000000e+00	 1.092351643600000e+01
0	 1.812500000000001e+00	 2.000000000000000e+00	 1.083542224553846e+01
0	 1.812500000000000e+00	 2.062500000000000e+00	 1.075107878246154e+01
0	 1.812500000000000e+00	 2.125000000000000e+00	 1.067048604676923e+01
0	 1.812500000000000e+00	 2.187500000000000e+00	 1.059364403846154e+01
0	 1.812500000000000e+00	 2.250000000000000e+00	 1.052055275753846e+01
0	 1.812500000000000e+00	 2.312500000000000e+00	 1.045121220400000e+01
0	 1.812500000000000e+00	 2.375000000000001e+00	 1.038562237784615e+01
0	 1.812500000000001e+00	 2.437500000000000e+00	 1.032378327907693e+01
0	 1.812500000000001e+00	 2.500000000000000e+00	 1.026569490769231e+01
0	 1.875000000000000e+00	 1.875000000000000e+00	 1.109054369230769e+01
0	 1.875000000000000e+00	 1.937500000000000e+00	 1.098366739230768e+01
0	 1.875000000000000e+00	 2.000000000000000e+00	 1.088311172307692e+01
0	 1.875000000000000e+00	 2.062500000000000e+00	 1.078887668461538e+01
0	 1.875000000000000e+00	 2.125000000000000e+00	 1.070096227692308e+01
0	 1.875000000000000e+00	 2.187500000000000e+00	 1.061936850000000e+01
0	 1.875000000000000e+00	 2.250000000000000e+00	 1.054409535384615e+01
0	 1.875000000000000e+00	 2.312500000000000e+00	 1.047514283846153e+01
0	 1.875000000000000e+00	 2.375000000000001e+00	 1.041251095384616e+01
0	 1.875000000000000e+00	 2.437500000000001e+00	 1.035619970000000e+01
0	 1.875000000000000e+00	 2.500000000000000e+00	 1.030620907692308e+01
0	 1.250000000000000e+00	 2.500000000000000e+00	 9.679210461538464e+00
0	 1.250000000000000e+00	 2.562500000000000e+00	 9.608943216923086e+00
0	 1.250000000000000e+00	 2.625000000000000e+00	 9.544659144615391e+00
0	 1.250000000000000e+00	 2.687499999999999e+00	 9.486358244615388e+00
0	 1.250000000000000e+00	 2.750000000000000e+00	 9.434040516923076e+00
0	 1.250000000000000e+00	 2.812499999999999e+00	 9.387705961538465e+00
0	 1.250000000000000e+00	 2.874999999999999e+00	 9.347354578461536e+00
0	 1.250000000000000e+00	 2.937499999999998e+00	 9.312986367692304e+00
0	 1.250000000000000e+00	 2.999999999999998e+00	 9.284601329230766e+00
0	 1.250000000000000e+00	 3.062499999999998e+00	 9.262199463076934e+00
0	 1.250000000000000e+00	 3.125000000000000e+00	 9.245780769230766e+00
0	 1.312500000000000e+00	 2.500000000000000e+00	 9.764096015384613e+00
0	 1.312500000000000e+00	 2.562500000000000e+00	 9.700082936307695e+00
0	 1.312500000000000e+00	 2.624999999999999e+00	 9.641047274461545e+00
0	 1.312500000000000e+00	 2.687499999999999e+00	 9.586989029846157e+00
0	 1.312500000000000e+00	 2.749999999999999e+00	 9.537908202461541e+00
0	 1.312500000000000e+00	 2.812499999999999e+00	 9.493804792307694e+00
0	 1.312500000000000e+00	 2.874999999999999e+00	 9.454678799384617e+00
0	 1.312500000000000e+00	 2.937499999999998e+00	 9.420530223692307e+00
0	 1.312500000000000e+00	 2.999999999999999e+00	 9.391359065230777e+00
0	 1.312500000000000e+00	 3.062499999999999e+00	 9.367165323999991e+00
0	 1.312500000000000e+00	 3.125000000000000e+00	 9.347948999999998e+00
0	 1.375000000000000e+00	 2.500000000000000e+00	 9.844051415384618e+00
0	 1.375000000000000e+00	 2.562500000000000e+00	 9.786183775692312e+00
0	 1.375000000000000e+00	 2.625000000000000e+00	 9.732287798153852e+00
0	 1.375000000000000e+00	 2.687500000000000e+00	 9.682363482769228e+00
0	 1.375000000000000e+00	 2.750000000000000e+00	 9.636410829538463e+00
0	 1.375000000000000e+00	 2.812499999999999e+00	 9.594429838461533e+00
0	 1.375000000000000e+00	 2.874999999999999e+00	 9.556420509538464e+00
0	 1.375000000000000e+00	 2.937499999999999e+00	 9.522382842769229e+00
0	 1.375000000000000e+00	 2.999999999999998e+00	 9.492316838153842e+00
0	 1.375000000000000e+00	 3.062499999999998e+00	 9.466222495692303e+00
0	 1.375000000000000e+00	 3.125000000000000e+00	 9.444099815384611e+00
0	 1.437500000000000e+00	 2.500000000000000e+00	 9.919076661538458e+00
0	 1.437500000000000e+00	 2.562500000000000e+00	 9.867245735076931e+00
0	 1.437500000000000e+00	 2.625000000000000e+00	 9.818380715692308e+00
0	 1.437500000000000e+00	 2.687499999999999e+00	 9.772481603384612e+00
0	 1.437500000000000e+00	 2.749999999999999e+00	 9.729548398153842e+00
0	 1.437500000000000e+00	 2.812499999999999e+00	 9.689581100000005e+00
0	 1.437500000000000e+00	 2.874999999999999e+00	 9.652579708923074e+00
0	 1.437500000000000e+00	 2.937499999999998e+00	 9.618544224923077e+00
0	 1.437500000000000e+00	 2.999999999999998e+00	 9.587474648000004e+00
0	 1.437500000000000e+00	 3.062499999999997e+00	 9.559370978153840e+00
0	 1.437500000000000e+00	 3.125000000000000e+00	 9.534233215384608e+00
0	 1.500000000000000e+00	 2.500000000000000e+00	 9.989171753846156e+00
0	 1.500000000000001e+00	 2.562500000000000e+00	 9.943268814461540e+00
0	 1.500000000000000e+00	 2.625000000000000e+00	 9.899326027076919e+00
0	 1.500000000000000e+00	 2.687499999999999e+00	 9.857343391692307e+00
0	 1.500000000000000e+00	 2.749999999999999e+00	 9.817320908307687e+00
0	 1.500000000000000e+00	 2.812499999999998e+00	 9.779258576923072e+00
0	 1.500000000000000e+00	 2.874999999999999e+00	 9.743156397538467e+00
0	 1.500000000000000e+00	 2.937499999999999e+00	 9.709014370153845e+00
0	 1.500000000000000e+00	 2.999999999999999e+00	 9.676832494769231e+00
0	 1.500000000000000e+00	 3.062499999999998e+00	 9.646610771384605e+00
0	 1.500000000000000e+00	 3.125000000000000e+00	 9.618349200000001e+00
0	 1.562500000000000e+00	 2.500000000000000e+00	 1.005433669230770e+01
0	 1.562500000000001e+00	 2.562499999999999e+00	 1.001425301384617e+01
0	 1.562500000000000e+00	 2.625000000000000e+00	 9.975123732307690e+00
0	 1.562500000000000e+00	 2.687500000000000e+00	 9.936948847692314e+00
0	 1.562500000000000e+00	 2.749999999999999e+00	 9.899728359999999e+00
0	 1.562500000000000e+00	 2.812500000000000e+00	 9.863462269230766e+00
0	 1.562500000000000e+00	 2.874999999999998e+00	 9.828150575384615e+00
0	 1.562500000000000e+00	 2.937499999999999e+00	 9.793793278461539e+00
0	 1.562500000000000e+00	 2.999999999999999e+00	 9.760390378461540e+00
0	 1.562500000000000e+00	 3.062499999999999e+00	 9.727941875384618e+00
0	 1.562500000000000e+00	 3.125000000000000e+00	 9.696447769230758e+00
0	 1.625000000000000e+00	 2.500000000000000e+00	 1.011457147692308e+01
0	 1.625000000000000e+00	 2.562500000000000e+00	 1.008019833323077e+01
0	 1.625000000000000e+00	 2.625000000000000e+00	 1.004577383138461e+01
0	 1.625000000000000e+00	 2.687499999999999e+00	 1.001129797138461e+01
0	 1.625000000000000e+00	 2.749999999999999e+00	 9.976770753230770e+00
0	 1.625000000000000e+00	 2.812499999999999e+00	 9.942192176923072e+00
0	 1.625000000000000e+00	 2.874999999999999e+00	 9.907562242461534e+00
0	 1.625000000000000e+00	 2.937499999999998e+00	 9.872880949846158e+00
0	 1.625000000000000e+00	 2.999999999999999e+00	 9.838148299076924e+00
0	 1.625000000000000e+00	 3.062499999999998e+00	 9.803364290153841e+00
0	 1.625000000000000e+00	 3.125000000000000e+00	 9.768528923076913e+00
0	 1.687500000000000e+00	 2.500000000000000e+00	 1.016987610769231e+01
0	 1.687500000000001e+00	 2.562500000000000e+00	 1.014110477261539e+01
0	 1.687500000000000e+00	 2.625000000000000e+00	 1.011127632430769e+01
0	 1.687500000000000e+00	 2.687499999999999e+00	 1.008039076276923e+01
0	 1.687500000000000e+00	 2.749999999999999e+00	 1.004844808800000e+01
0	 1.687500000000001e+00	 2.812500000000000e+00	 1.001544830000000e+01
0	 1.687500000000000e+00	 2.874999999999998e+00	 9.981391398769231e+00
0	 1.687500000000000e+00	 2.937499999999999e+00	 9.946277384307690e+00
0	 1.687500000000000e+00	 2.999999999999998e+00	 9.910106256615384e+00
0	 1.687500000000000e+00	 3.062499999999998e+00	 9.872878015692311e+00
0	 1.687500000000000e+00	 3.125000000000000e+00	 9.834592661538462e+00
0	 1.750000000000000e+00	 2.500000000000000e+00	 1.022025058461540e+01
0	 1.750000000000000e+00	 2.562500000000000e+00	 1.019697233200000e+01
0	 1.750000000000001e+00	 2.625000000000000e+00	 1.017163121107692e+01
0	 1.750000000000000e+00	 2.687500000000000e+00	 1.014422722184615e+01
0	 1.750000000000000e+00	 2.750000000000000e+00	 1.011476036430769e+01
0	 1.750000000000000e+00	 2.812499999999999e+00	 1.008323063846153e+01
0	 1.750000000000001e+00	 2.874999999999999e+00	 1.004963804430769e+01
0	 1.750000000000000e+00	 2.937499999999999e+00	 1.001398258184615e+01
0	 1.750000000000000e+00	 2.999999999999998e+00	 9.976264251076923e+00
0	 1.750000000000000e+00	 3.062499999999998e+00	 9.936483051999994e+00
0	 1.750000000000000e+00	 3.125000000000000e+00	 9.894638984615376e+00
0	 1.812500000000001e+00	 2.500000000000000e+00	 1.026569490769231e+01
0	 1.812500000000000e+00	 2.562500000000000e+00	 1.024780101138462e+01
0	 1.812500000000001e+00	 2.625000000000000e+00	 1.022683849169230e+01
0	 1.812500000000000e+00	 2.687499999999999e+00	 1.020280734861538e+01
0	 1.812500000000000e+00	 2.749999999999999e+00	 1.017570758215384e+01
0	 1.812500000000000e+00	 2.812499999999999e+00	 1.014553919230769e+01
0	 1.812500000000001e+00	 2.874999999999998e+00	 1.011230217907692e+01
0	 1.812500000000000e+00	 2.937499999999998e+00	 1.007599654246154e+01
0	 1.812500000000001e+00	 2.999999999999998e+00	 1.003662228246153e+01
0	 1.812500000000000e+00	 3.062499999999998e+00	 9.994179399076918e+00
0	 1.812500000000001e+00	 3.125000000000000e+00	 9.948667892307691e+00
0	 1.875000000000000e+00	 2.500000000000000e+00	 1.030620907692308e+01
0	 1.875000000000000e+00	 2.562500000000000e+00	 1.029359081076924e+01
0	 1.875000000000000e+00	 2.625000000000000e+00	 1.027689816615385e+01
0	 1.875000000000000e+00	 2.687499999999999e+00	 1.025613114307692e+01
0	 1.875000000000000e+00	 2.750000000000000e+00	 1.023128974153846e+01
0	 1.875000000000000e+00	 2.812499999999999e+00	 1.020237396153846e+01
0	 1.875000000000000e+00	 2.874999999999999e+00	 1.016938380307692e+01
0	 1.875000000000000e+00	 2.937499999999998e+00	 1.013231926615384e+01
0	 1.875000000000000e+00	 2.999999999999998e+00	 1.009118035076922e+01
0	 1.875000000000000e+00	 3.062499999999998e+00	 1.004596705692308e+01
0	 1.875000000000000e+00	 3.125000000000000e+00	 9.996679384615376e+00
0	 1.250000000000000e+00	 3.125000000000000e+00	 9.245780769230766e+00
0	 1.250000000000000e+00	 3.187500000000000e+00	 9.276322856923063e+00
0	 1.250000000000000e+00	 3.250000000000000e+00	 9.302926719999999e+00
0	 1.250000000000000e+00	 3.312499999999999e+00	 9.325592358461540e+00
0	 1.250000000000000e+00	 3.374999999999999e+00	 9.344319772307689e+00
0	 1.250000000000000e+00	 3.437499999999999e+00	 9.359108961538459e+00
0	 1.250000000000000e+00	 3.499999999999999e+00	 9.369959926153847e+00
0	 1.250000000000000e+00	 3.562499999999998e+00	 9.376872666153847e+00
0	 1.250000000000000e+00	 3.624999999999999e+00	 9.379847181538462e+00
0	 1.250000000000000e+00	 3.687499999999998e+00	 9.378883472307685e+00
0	 1.250000000000000e+00	 3.750000000000000e+00	 9.373981538461541e+00
0	 1.312500000000000e+00	 3.125000000000000e+00	 9.347948999999998e+00
0	 1.312500000000000e+00	 3.187499999999999e+00	 9.371572507076916e+00
0	 1.312500000000000e+00	 3.250000000000000e+00	 9.391707514461530e+00
0	 1.312500000000000e+00	 3.312499999999998e+00	 9.408354022153839e+00
0	 1.312500000000000e+00	 3.374999999999998e+00	 9.421512030153837e+00
0	 1.312500000000000e+00	 3.437499999999998e+00	 9.431181538461532e+00
0	 1.312500000000000e+00	 3.499999999999999e+00	 9.437362547076919e+00
0	 1.312500000000000e+00	 3.562499999999999e+00	 9.440055056000002e+00
0	 1.312500000000000e+00	 3.624999999999998e+00	 9.439259065230772e+00
0	 1.312500000000000e+00	 3.687499999999998e+00	 9.434974574769239e+00
0	 1.312500000000000e+00	 3.750000000000000e+00	 9.427201584615373e+00
0	 1.375000000000000e+00	 3.125000000000000e+00	 9.444099815384611e+00
0	 1.375000000000000e+00	 3.187500000000000e+00	 9.461240852615379e+00
0	 1.375000000000000e+00	 3.250000000000000e+00	 9.475343115076917e+00
0	 1.375000000000000e+00	 3.312500000000000e+00	 9.486406602769234e+00
0	 1.375000000000000e+00	 3.374999999999999e+00	 9.494431315692305e+00
0	 1.375000000000000e+00	 3.437500000000000e+00	 9.499417253846156e+00
0	 1.375000000000000e+00	 3.499999999999999e+00	 9.501364417230775e+00
0	 1.375000000000000e+00	 3.562499999999999e+00	 9.500272805846153e+00
0	 1.375000000000000e+00	 3.624999999999998e+00	 9.496142419692305e+00
0	 1.375000000000000e+00	 3.687499999999998e+00	 9.488973258769230e+00
0	 1.375000000000000e+00	 3.750000000000000e+00	 9.478765323076924e+00
0	 1.437500000000000e+00	 3.125000000000000e+00	 9.534233215384608e+00
0	 1.437500000000000e+00	 3.187500000000000e+00	 9.545327893538456e+00
0	 1.437500000000000e+00	 3.250000000000000e+00	 9.553833521846149e+00
0	 1.437500000000000e+00	 3.312499999999999e+00	 9.559750100307690e+00
0	 1.437500000000000e+00	 3.374999999999998e+00	 9.563077628923073e+00
0	 1.437500000000000e+00	 3.437499999999999e+00	 9.563816107692304e+00
0	 1.437500000000000e+00	 3.499999999999999e+00	 9.561965536615389e+00
0	 1.437500000000000e+00	 3.562499999999999e+00	 9.557525915692311e+00
0	 1.437500000000000e+00	 3.624999999999998e+00	 9.550497244923077e+00
0	 1.437500000000000e+00	 3.687499999999998e+00	 9.540879524307698e+00
0	 1.437500000000000e+00	 3.750000000000000e+00	 9.528672753846161e+00
0	 1.500000000000000e+00	 3.125000000000000e+00	 9.618349200000001e+00
0	 1.500000000000001e+00	 3.187500000000000e+00	 9.623833629846146e+00
0	 1.500000000000000e+00	 3.250000000000000e+00	 9.627178734769224e+00
0	 1.500000000000000e+00	 3.312500000000000e+00	 9.628384514769234e+00
0	 1.500000000000000e+00	 3.374999999999999e+00	 9.627450969846150e+00
0	 1.500000000000000e+00	 3.437499999999998e+00	 9.624378099999998e+00
0	 1.500000000000000e+00	 3.499999999999999e+00	 9.619165905230769e+00
0	 1.500000000000000e+00	 3.562499999999998e+00	 9.611814385538455e+00
0	 1.500000000000000e+00	 3.624999999999999e+00	 9.602323540923084e+00
0	 1.500000000000000e+00	 3.687499999999998e+00	 9.590693371384628e+00
0	 1.500000000000000e+00	 3.750000000000000e+00	 9.576923876923075e+00
0	 1.562500000000000e+00	 3.125000000000000e+00	 9.696447769230758e+00
0	 1.562500000000001e+00	 3.187500000000000e+00	 9.696758061538461e+00
0	 1.562500000000000e+00	 3.250000000000000e+00	 9.695378753846152e+00
0	 1.562500000000000e+00	 3.312500000000000e+00	 9.692309846153840e+00
0	 1.562500000000000e+00	 3.374999999999999e+00	 9.687551338461544e+00
0	 1.562500000000000e+00	 3.437499999999999e+00	 9.681103230769232e+00
0	 1.562500000000000e+00	 3.499999999999999e+00	 9.672965523076922e+00
0	 1.562500000000000e+00	 3.562499999999999e+00	 9.663138215384624e+00
0	 1.562500000000000e+00	 3.624999999999998e+00	 9.651621307692322e+00
0	 1.562500000000000e+00	 3.687499999999999e+00	 9.638414800000007e+00
0	 1.562500000000000e+00	 3.750000000000000e+00	 9.623518692307695e+00
0	 1.625000000000000e+00	 3.125000000000000e+00	 9.768528923076913e+00
0	 1.625000000000000e+00	 3.187500000000000e+00	 9.764101188615381e+00
0	 1.625000000000000e+00	 3.250000000000000e+00	 9.758433579076913e+00
0	 1.625000000000000e+00	 3.312499999999999e+00	 9.751526094461536e+00
0	 1.625000000000000e+00	 3.374999999999999e+00	 9.743378734769225e+00
0	 1.625000000000000e+00	 3.437499999999999e+00	 9.733991500000005e+00
0	 1.625000000000000e+00	 3.499999999999998e+00	 9.723364390153844e+00
0	 1.625000000000000e+00	 3.562499999999999e+00	 9.711497405230766e+00
0	 1.625000000000000e+00	 3.624999999999998e+00	 9.698390545230762e+00
0	 1.625000000000000e+00	 3.687499999999998e+00	 9.684043810153849e+00
0	 1.625000000000000e+00	 3.750000000000000e+00	 9.668457200000001e+00
0	 1.687500000000000e+00	 3.125000000000000e+00	 9.834592661538462e+00
0	 1.687500000000001e+00	 3.187500000000000e+00	 9.825863011076915e+00
0	 1.687500000000000e+00	 3.250000000000000e+00	 9.816343210461529e+00
0	 1.687500000000000e+00	 3.312499999999999e+00	 9.806033259692303e+00
0	 1.687500000000000e+00	 3.374999999999999e+00	 9.794933158769226e+00
0	 1.687500000000001e+00	 3.437499999999999e+00	 9.783042907692312e+00
0	 1.687500000000000e+00	 3.499999999999999e+00	 9.770362506461542e+00
0	 1.687500000000000e+00	 3.562499999999999e+00	 9.756891955076926e+00
0	 1.687500000000000e+00	 3.624999999999998e+00	 9.742631253538461e+00
0	 1.687500000000000e+00	 3.687499999999999e+00	 9.727580401846158e+00
0	 1.687500000000000e+00	 3.750000000000000e+00	 9.711739399999997e+00
0	 1.750000000000000e+00	 3.125000000000000e+00	 9.894638984615376e+00
0	 1.750000000000000e+00	 3.187500000000000e+00	 9.882043528923075e+00
0	 1.750000000000001e+00	 3.250000000000000e+00	 9.869107647999993e+00
0	 1.750000000000000e+00	 3.312499999999999e+00	 9.855831341846146e+00
0	 1.750000000000000e+00	 3.375000000000000e+00	 9.842214610461539e+00
0	 1.750000000000000e+00	 3.437499999999999e+00	 9.828257453846149e+00
0	 1.750000000000001e+00	 3.499999999999999e+00	 9.813959872000007e+00
0	 1.750000000000000e+00	 3.562499999999998e+00	 9.799321864923067e+00
0	 1.750000000000000e+00	 3.624999999999998e+00	 9.784343432615380e+00
0	 1.750000000000000e+00	 3.687499999999998e+00	 9.769024575076928e+00
0	 1.750000000000000e+00	 3.750000000000000e+00	 9.753365292307704e+00
0	 1.812500000000001e+00	 3.125000000000000e+00	 9.948667892307691e+00
0	 1.812500000000000e+00	 3.187499999999999e+00	 9.932642742153833e+00
0	 1.812500000000001e+00	 3.250000000000000e+00	 9.916726891692294e+00
0	 1.812500000000000e+00	 3.312500000000000e+00	 9.900920340923070e+00
0	 1.812500000000000e+00	 3.375000000000000e+00	 9.885223089846155e+00
0	 1.812500000000000e+00	 3.437499999999998e+00	 9.869635138461538e+00
0	 1.812500000000001e+00	 3.499999999999999e+00	 9.854156486769233e+00
0	 1.812500000000000e+00	 3.562499999999998e+00	 9.838787134769234e+00
0	 1.812500000000001e+00	 3.624999999999999e+00	 9.823527082461542e+00
0	 1.812500000000000e+00	 3.687499999999998e+00	 9.808376329846158e+00
0	 1.812500000000001e+00	 3.750000000000000e+00	 9.793334876923083e+00
0	 1.875000000000000e+00	 3.125000000000000e+00	 9.996679384615376e+00
0	 1.875000000000000e+00	 3.187500000000000e+00	 9.977660650769220e+00
0	 1.875000000000000e+00	 3.250000000000000e+00	 9.959200941538453e+00
0	 1.875000000000000e+00	 3.312499999999999e+00	 9.941300256923077e+00
0	 1.875000000000000e+00	 3.374999999999999e+00	 9.923958596923070e+00
0	 1.875000000000000e+00	 3.437499999999999e+00	 9.907175961538462e+00
0	 1.875000000000000e+00	 3.499999999999999e+00	 9.890952350769236e+00
0	 1.875000000000000e+00	 3.562499999999998e+00	 9.875287764615386e+00
0	 1.875000000000000e+00	 3.624999999999999e+00	 9.860182203076924e+00
0	 1.875000000000000e+00	 3.687499999999998e+00	 9.845635666153839e+00
0	 1.875000000000000e+00	 3.750000000000000e+00	 9.831648153846162e+00
0	 1.250000000000000e+00	 3.750000000000000e+00	 9.373981538461541e+00
0	 1.250000000000000e+00	 3.812500000000000e+00	 9.385650036923087e+00
0	 1.250000000000000e+00	 3.875000000000000e+00	 9.397945932307692e+00
0	 1.250000000000000e+00	 3.937499999999999e+00	 9.410869224615380e+00
0	 1.250000000000000e+00	 4.000000000000000e+00	 9.424419913846153e+00
0	 1.250000000000000e+00	 4.062499999999999e+00	 9.438598000000002e+00
0	 1.250000000000000e+00	 4.124999999999999e+00	 9.453403483076912e+00
0	 1.250000000000000e+00	 4.187499999999998e+00	 9.468836363076916e+00
0	 1.250000000000000e+00	 4.249999999999998e+00	 9.484896640000001e+00
0	 1.250000000000000e+00	 4.312499999999998e+00	 9.501584313846156e+00
0	 1.250000000000000e+00	 4.375000000000000e+00	 9.518899384615381e+00
0	 1.312500000000000e+00	 3.750000000000000e+00	 9.427201584615373e+00
0	 1.312500000000000e+00	 3.812499999999999e+00	 9.436995372000007e+00
0	 1.312500000000000e+00	 3.874999999999999e+00	 9.447252060307695e+00
0	 1.312500000000000e+00	 3.937499999999998e+00	 9.457971649538463e+00
0	 1.312500000000000e+00	 3.999999999999999e+00	 9.469154139692305e+00
0	 1.312500000000000e+00	 4.062499999999998e+00	 9.480799530769222e+00
0	 1.312500000000000e+00	 4.124999999999999e+00	 9.492907822769233e+00
0	 1.312500000000000e+00	 4.187499999999998e+00	 9.505479015692305e+00
0	 1.312500000000000e+00	 4.249999999999998e+00	 9.518513109538461e+00
0	 1.312500000000000e+00	 4.312499999999997e+00	 9.532010104307693e+00
0	 1.312500000000000e+00	 4.375000000000000e+00	 9.545970000000006e+00
0	 1.375000000000000e+00	 3.750000000000000e+00	 9.478765323076924e+00
0	 1.375000000000000e+00	 3.812499999999999e+00	 9.486858494769232e+00
0	 1.375000000000000e+00	 3.875000000000000e+00	 9.495250071384623e+00
0	 1.375000000000000e+00	 3.937500000000000e+00	 9.503940052923078e+00
0	 1.375000000000000e+00	 3.999999999999999e+00	 9.512928439384616e+00
0	 1.375000000000000e+00	 4.062499999999999e+00	 9.522215230769223e+00
0	 1.375000000000000e+00	 4.124999999999999e+00	 9.531800427076924e+00
0	 1.375000000000000e+00	 4.187499999999997e+00	 9.541684028307689e+00
0	 1.375000000000000e+00	 4.249999999999998e+00	 9.551866034461540e+00
0	 1.375000000000000e+00	 4.312499999999998e+00	 9.562346445538457e+00
0	 1.375000000000000e+00	 4.375000000000000e+00	 9.573125261538454e+00
0	 1.437500000000000e+00	 3.750000000000000e+00	 9.528672753846161e+00
0	 1.437500000000000e+00	 3.812500000000000e+00	 9.535239405230779e+00
0	 1.437500000000000e+00	 3.875000000000000e+00	 9.541939965538463e+00
0	 1.437500000000000e+00	 3.937499999999999e+00	 9.548774434769228e+00
0	 1.437500000000000e+00	 3.999999999999998e+00	 9.555742812923075e+00
0	 1.437500000000000e+00	 4.062499999999999e+00	 9.562845100000008e+00
0	 1.437500000000000e+00	 4.124999999999999e+00	 9.570081295999993e+00
0	 1.437500000000000e+00	 4.187499999999998e+00	 9.577451400923076e+00
0	 1.437500000000000e+00	 4.249999999999998e+00	 9.584955414769230e+00
0	 1.437500000000000e+00	 4.312499999999997e+00	 9.592593337538473e+00
0	 1.437500000000000e+00	 4.375000000000000e+00	 9.600365169230761e+00
0	 1.500000000000000e+00	 3.750000000000000e+00	 9.576923876923075e+00
0	 1.500000000000001e+00	 3.812500000000000e+00	 9.582138103384624e+00
0	 1.500000000000000e+00	 3.875000000000000e+00	 9.587321742769236e+00
0	 1.500000000000000e+00	 3.937499999999999e+00	 9.592474795076921e+00
0	 1.500000000000000e+00	 4.000000000000000e+00	 9.597597260307694e+00
0	 1.500000000000000e+00	 4.062499999999998e+00	 9.602689138461539e+00
0	 1.500000000000000e+00	 4.124999999999999e+00	 9.607750429538456e+00
0	 1.500000000000000e+00	 4.187499999999998e+00	 9.612781133538464e+00
0	 1.500000000000000e+00	 4.249999999999998e+00	 9.617781250461528e+00
0	 1.500000000000000e+00	 4.312499999999998e+00	 9.622750780307697e+00
0	 1.500000000000000e+00	 4.375000000000000e+00	 9.627689723076926e+00
0	 1.562500000000000e+00	 3.750000000000000e+00	 9.623518692307695e+00
0	 1.562500000000001e+00	 3.812500000000000e+00	 9.627554589230762e+00
0	 1.562500000000000e+00	 3.875000000000000e+00	 9.631395403076930e+00
0	 1.562500000000000e+00	 3.937499999999999e+00	 9.635041133846155e+00
0	 1.562500000000000e+00	 3.999999999999998e+00	 9.638491781538459e+00
0	 1.562500000000000e+00	 4.062500000000000e+00	 9.641747346153844e+00
0	 1.562500000000000e+00	 4.124999999999998e+00	 9.644807827692311e+00
0	 1.562500000000000e+00	 4.187499999999998e+00	 9.647673226153852e+00
0	 1.562500000000000e+00	 4.249999999999998e+00	 9.650343541538462e+00
0	 1.562500000000000e+00	 4.312499999999999e+00	 9.652818773846153e+00
0	 1.562500000000000e+00	 4.375000000000001e+00	 9.655098923076928e+00
0	 1.625000000000000e+00	 3.750000000000000e+00	 9.668457200000001e+00
0	 1.625000000000000e+00	 3.812500000000000e+00	 9.671488862769230e+00
0	 1.625000000000000e+00	 3.875000000000000e+00	 9.674160946461537e+00
0	 1.625000000000000e+00	 3.937499999999999e+00	 9.676473451076930e+00
0	 1.625000000000000e+00	 4.000000000000000e+00	 9.678426376615391e+00
0	 1.625000000000000e+00	 4.062499999999998e+00	 9.680019723076921e+00
0	 1.625000000000000e+00	 4.124999999999999e+00	 9.681253490461538e+00
0	 1.625000000000000e+00	 4.187499999999998e+00	 9.682127678769227e+00
0	 1.625000000000000e+00	 4.249999999999998e+00	 9.682642288000004e+00
0	 1.625000000000000e+00	 4.312499999999998e+00	 9.682797318153856e+00
0	 1.625000000000000e+00	 4.375000000000000e+00	 9.682592769230768e+00
0	 1.687500000000000e+00	 3.750000000000000e+00	 9.711739399999997e+00
0	 1.687500000000001e+00	 3.812500000000000e+00	 9.713940924000017e+00
0	 1.687500000000000e+00	 3.875000000000000e+00	 9.715618372923071e+00
0	 1.687500000000000e+00	 3.937499999999999e+00	 9.716771746769236e+00
0	 1.687500000000000e+00	 3.999999999999999e+00	 9.717401045538468e+00
0	 1.687500000000001e+00	 4.062500000000000e+00	 9.717506269230775e+00
0	 1.687500000000000e+00	 4.124999999999998e+00	 9.717087417846152e+00
0	 1.687500000000000e+00	 4.187499999999999e+00	 9.716144491384616e+00
0	 1.687500000000000e+00	 4.249999999999998e+00	 9.714677489846157e+00
0	 1.687500000000000e+00	 4.312499999999999e+00	 9.712686413230768e+00
0	 1.687500000000000e+00	 4.375000000000000e+00	 9.710171261538466e+00
0	 1.750000000000000e+00	 3.750000000000000e+00	 9.753365292307704e+00
0	 1.750000000000000e+00	 3.812500000000000e+00	 9.754910772923093e+00
0	 1.750000000000001e+00	 3.875000000000000e+00	 9.755767682461538e+00
0	 1.750000000000000e+00	 3.937499999999999e+00	 9.755936020923075e+00
0	 1.750000000000000e+00	 4.000000000000000e+00	 9.755415788307696e+00
0	 1.750000000000000e+00	 4.062499999999998e+00	 9.754206984615381e+00
0	 1.750000000000001e+00	 4.124999999999999e+00	 9.752309609846154e+00
0	 1.750000000000000e+00	 4.187499999999998e+00	 9.749723663999998e+00
0	 1.750000000000000e+00	 4.249999999999998e+00	 9.746449147076918e+00
0	 1.750000000000000e+00	 4.312499999999997e+00	 9.742486059076919e+00
0	 1.750000000000000e+00	 4.375000000000000e+00	 9.737834399999993e+00
0	 1.812500000000001e+00	 3.750000000000000e+00	 9.793334876923083e+00
0	 1.812500000000000e+00	 3.812499999999999e+00	 9.794398409538466e+00
0	 1.812500000000001e+00	 3.874999999999999e+00	 9.794608875076934e+00
0	 1.812500000000000e+00	 3.937500000000000e+00	 9.793966273538466e+00
0	 1.812500000000000e+00	 3.999999999999999e+00	 9.792470604923082e+00
0	 1.812500000000000e+00	 4.062499999999998e+00	 9.790121869230765e+00
0	 1.812500000000001e+00	 4.124999999999999e+00	 9.786920066461542e+00
0	 1.812500000000000e+00	 4.187499999999997e+00	 9.782865196615383e+00
0	 1.812500000000001e+00	 4.249999999999998e+00	 9.777957259692302e+00
0	 1.812500000000000e+00	 4.312499999999998e+00	 9.772196255692300e+00
0	 1.812500000000001e+00	 4.375000000000000e+00	 9.765582184615386e+00
0	 1.875000000000000e+00	 3.750000000000000e+00	 9.831648153846162e+00
0	 1.875000000000000e+00	 3.812500000000000e+00	 9.832403833846165e+00
0	 1.875000000000000e+00	 3.875000000000000e+00	 9.832141950769238e+00
0	 1.875000000000000e+00	 3.937499999999999e+00	 9.830862504615384e+00
0	 1.875000000000000e+00	 4.000000000000000e+00	 9.828565495384616e+00
0	 1.875000000000000e+00	 4.062499999999999e+00	 9.825250923076929e+00
0	 1.875000000000000e+00	 4.124999999999999e+00	 9.820918787692305e+00
0	 1.875000000000000e+00	 4.187499999999998e+00	 9.815569089230763e+00
0	 1.875000000000000e+00	 4.249999999999998e+00	 9.809201827692302e+00
0	 1.875000000000000e+00	 4.312499999999998e+00	 9.801817003076925e+00
0	 1.875000000000000e+00	 4.375000000000000e+00	 9.793414615384611e+00
0	 1.250000000000000e+00	 4.375000000000000e+00	 9.518899384615381e+00
0	 1.250000000000000e+00	 4.437499999999999e+00	 9.528516647692285e+00
0	 1.250000000000000e+00	 4.500000000000001e+00	 9.537866283076923e+00
0	 1.250000000000000e+00	 4.562499999999999e+00	 9.546948290769235e+00
0	 1.250000000000000e+00	 4.625000000000000e+00	 9.555762670769230e+00
0	 1.250000000000000e+00	 4.687499999999999e+00	 9.564309423076915e+00
0	 1.250000000000000e+00	 4.749999999999999e+00	 9.572588547692309e+00
0	 1.250000000000000e+00	 4.812499999999998e+00	 9.580600044615371e+00
0	 1.250000000000000e+00	 4.874999999999998e+00	 9.588343913846151e+00
0	 1.250000000000000e+00	 4.937499999999998e+00	 9.595820155384605e+00
0	 1.250000000000000e+00	 5.000000000000000e+00	 9.603028769230765e+00
0	 1.312500000000000e+00	 4.375000000000000e+00	 9.545970000000006e+00
0	 1.312500000000000e+00	 4.437499999999999e+00	 9.554906960153847e+00
0	 1.312500000000000e+00	 4.499999999999999e+00	 9.563590062153843e+00
0	 1.312500000000000e+00	 4.562499999999999e+00	 9.572019305999994e+00
0	 1.312500000000000e+00	 4.624999999999999e+00	 9.580194691692300e+00
0	 1.312500000000000e+00	 4.687499999999998e+00	 9.588116219230759e+00
0	 1.312500000000000e+00	 4.749999999999998e+00	 9.595783888615379e+00
0	 1.312500000000000e+00	 4.812499999999997e+00	 9.603197699846135e+00
0	 1.312500000000000e+00	 4.874999999999998e+00	 9.610357652923073e+00
0	 1.312500000000000e+00	 4.937499999999997e+00	 9.617263747846145e+00
0	 1.312500000000000e+00	 5.000000000000000e+00	 9.623915984615381e+00
0	 1.375000000000000e+00	 4.375000000000000e+00	 9.573125261538454e+00
0	 1.375000000000000e+00	 4.437499999999999e+00	 9.581356115692300e+00
0	 1.375000000000000e+00	 4.499999999999999e+00	 9.589346881230771e+00
0	 1.375000000000000e+00	 4.562499999999999e+00	 9.597097558153836e+00
0	 1.375000000000000e+00	 4.624999999999999e+00	 9.604608146461535e+00
0	 1.375000000000000e+00	 4.687499999999999e+00	 9.611878646153837e+00
0	 1.375000000000000e+00	 4.749999999999998e+00	 9.618909057230757e+00
0	 1.375000000000000e+00	 4.812499999999997e+00	 9.625699379692310e+00
0	 1.375000000000000e+00	 4.874999999999997e+00	 9.632249613538455e+00
0	 1.375000000000000e+00	 4.937499999999997e+00	 9.638559758769226e+00
0	 1.375000000000000e+00	 5.000000000000001e+00	 9.644629815384619e+00
0	 1.437500000000000e+00	 4.375000000000000e+00	 9.600365169230761e+00
0	 1.437500000000000e+00	 4.437500000000000e+00	 9.607864114307695e+00
0	 1.437500000000000e+00	 4.500000000000000e+00	 9.615136740307673e+00
0	 1.437500000000000e+00	 4.562500000000000e+00	 9.622183047230772e+00
0	 1.437500000000000e+00	 4.624999999999997e+00	 9.629003035076920e+00
0	 1.437500000000000e+00	 4.687499999999999e+00	 9.635596703846154e+00
0	 1.437500000000000e+00	 4.749999999999998e+00	 9.641964053538475e+00
0	 1.437500000000000e+00	 4.812499999999998e+00	 9.648105084153840e+00
0	 1.437500000000000e+00	 4.874999999999996e+00	 9.654019795692301e+00
0	 1.437500000000000e+00	 4.937499999999996e+00	 9.659708188153832e+00
0	 1.437500000000000e+00	 5.000000000000000e+00	 9.665170261538446e+00
0	 1.500000000000000e+00	 4.375000000000000e+00	 9.627689723076926e+00
0	 1.500000000000001e+00	 4.437500000000001e+00	 9.634430955999994e+00
0	 1.500000000000000e+00	 4.500000000000000e+00	 9.640959639384612e+00
0	 1.500000000000000e+00	 4.562499999999999e+00	 9.647275773230762e+00
0	 1.500000000000000e+00	 4.625000000000000e+00	 9.653379357538460e+00
0	 1.500000000000000e+00	 4.687499999999998e+00	 9.659270392307684e+00
0	 1.500000000000000e+00	 4.749999999999999e+00	 9.664948877538450e+00
0	 1.500000000000000e+00	 4.812500000000000e+00	 9.670414813230764e+00
0	 1.500000000000000e+00	 4.874999999999998e+00	 9.675668199384614e+00
0	 1.500000000000000e+00	 4.937499999999998e+00	 9.680709035999993e+00
0	 1.500000000000000e+00	 5.000000000000000e+00	 9.685537323076915e+00
0	 1.562500000000000e+00	 4.375000000000001e+00	 9.655098923076928e+00
0	 1.562500000000001e+00	 4.437500000000000e+00	 9.661056640769219e+00
0	 1.562500000000000e+00	 4.500000000000000e+00	 9.666815578461533e+00
0	 1.562500000000000e+00	 4.562500000000000e+00	 9.672375736153832e+00
0	 1.562500000000000e+00	 4.624999999999998e+00	 9.677737113846153e+00
0	 1.562500000000000e+00	 4.687500000000001e+00	 9.682899711538461e+00
0	 1.562500000000000e+00	 4.749999999999999e+00	 9.687863529230757e+00
0	 1.562500000000000e+00	 4.812499999999999e+00	 9.692628566923069e+00
0	 1.562500000000000e+00	 4.874999999999998e+00	 9.697194824615378e+00
0	 1.562500000000000e+00	 4.937499999999998e+00	 9.701562302307684e+00
0	 1.562500000000000e+00	 5.000000000000001e+00	 9.705730999999979e+00
0	 1.625000000000000e+00	 4.375000000000000e+00	 9.682592769230768e+00
0	 1.625000000000000e+00	 4.437499999999999e+00	 9.687741168615368e+00
0	 1.625000000000000e+00	 4.499999999999999e+00	 9.692704557538464e+00
0	 1.625000000000000e+00	 4.562499999999999e+00	 9.697482936000000e+00
0	 1.625000000000000e+00	 4.624999999999999e+00	 9.702076304000000e+00
0	 1.625000000000000e+00	 4.687499999999999e+00	 9.706484661538465e+00
0	 1.625000000000000e+00	 4.749999999999998e+00	 9.710708008615377e+00
0	 1.625000000000000e+00	 4.812499999999999e+00	 9.714746345230775e+00
0	 1.625000000000000e+00	 4.874999999999998e+00	 9.718599671384599e+00
0	 1.625000000000000e+00	 4.937499999999999e+00	 9.722267987076915e+00
0	 1.625000000000000e+00	 5.000000000000000e+00	 9.725751292307693e+00
0	 1.687500000000000e+00	 4.375000000000000e+00	 9.710171261538466e+00
0	 1.687500000000001e+00	 4.437500000000000e+00	 9.714484539538462e+00
0	 1.687500000000000e+00	 4.499999999999999e+00	 9.718626576615373e+00
0	 1.687500000000000e+00	 4.562499999999998e+00	 9.722597372769226e+00
0	 1.687500000000000e+00	 4.625000000000000e+00	 9.726396927999991e+00
0	 1.687500000000001e+00	 4.687500000000000e+00	 9.730025242307690e+00
0	 1.687500000000000e+00	 4.749999999999998e+00	 9.733482315692303e+00
0	 1.687500000000000e+00	 4.812499999999999e+00	 9.736768148153844e+00
0	 1.687500000000000e+00	 4.874999999999997e+00	 9.739882739692298e+00
0	 1.687500000000000e+00	 4.937499999999998e+00	 9.742826090307684e+00
0	 1.687500000000000e+00	 5.000000000000000e+00	 9.745598199999993e+00
0	 1.750000000000000e+00	 4.375000000000000e+00	 9.737834399999993e+00
0	 1.750000000000000e+00	 4.437500000000000e+00	 9.741286753538470e+00
0	 1.750000000000001e+00	 4.500000000000000e+00	 9.744581635692303e+00
0	 1.750000000000000e+00	 4.562499999999999e+00	 9.747719046461535e+00
0	 1.750000000000000e+00	 4.624999999999999e+00	 9.750698985846151e+00
0	 1.750000000000000e+00	 4.687499999999998e+00	 9.753521453846140e+00
0	 1.750000000000001e+00	 4.749999999999999e+00	 9.756186450461534e+00
0	 1.750000000000000e+00	 4.812499999999998e+00	 9.758693975692303e+00
0	 1.750000000000000e+00	 4.874999999999998e+00	 9.761044029538454e+00
0	 1.750000000000000e+00	 4.937499999999997e+00	 9.763236611999996e+00
0	 1.750000000000000e+00	 5.000000000000000e+00	 9.765271723076921e+00
0	 1.812500000000001e+00	 4.375000000000000e+00	 9.765582184615386e+00
0	 1.812500000000000e+00	 4.437499999999999e+00	 9.768147810615382e+00
0	 1.812500000000001e+00	 4.499999999999999e+00	 9.770569734769220e+00
0	 1.812500000000000e+00	 4.562499999999999e+00	 9.772847957076916e+00
0	 1.812500000000000e+00	 4.624999999999999e+00	 9.774982477538451e+00
0	 1.812500000000000e+00	 4.687499999999998e+00	 9.776973296153839e+00
0	 1.812500000000001e+00	 4.749999999999998e+00	 9.778820412923075e+00
0	 1.812500000000000e+00	 4.812499999999998e+00	 9.780523827846155e+00
0	 1.812500000000001e+00	 4.874999999999998e+00	 9.782083540923059e+00
0	 1.812500000000000e+00	 4.937499999999997e+00	 9.783499552153833e+00
0	 1.812500000000001e+00	 5.000000000000001e+00	 9.784771861538465e+00
0	 1.875000000000000e+00	 4.375000000000000e+00	 9.793414615384611e+00
0	 1.875000000000000e+00	 4.437499999999999e+00	 9.795067710769217e+00
0	 1.875000000000000e+00	 4.500000000000001e+00	 9.796590873846153e+00
0	 1.875000000000000e+00	 4.562499999999999e+00	 9.797984104615388e+00
0	 1.875000000000000e+00	 4.625000000000000e+00	 9.799247403076919e+00
0	 1.875000000000000e+00	 4.687499999999999e+00	 9.800380769230756e+00
0	 1.875000000000000e+00	 4.749999999999999e+00	 9.801384203076923e+00
0	 1.875000000000000e+00	 4.812499999999998e+00	 9.802257704615375e+00
0	 1.875000000000000e+00	 4.874999999999998e+00	 9.803001273846149e+00
0	 1.875000000000000e+00	 4.937499999999998e+00	 9.803614910769214e+00
0	 1.875000000000000e+00	 5.000000000000000e+00	 9.804098615384609e+00
0	 1.250000000000000e+00	 5.000000000000000e+00	 9.603028769230765e+00
0	 1.250000000000000e+00	 5.062500000000000e+00	 9.613181886153843e+00
0	 1.250000000000000e+00	 5.125000000000001e+00	 9.623335944615391e+00
0	 1.250000000000000e+00	 5.187499999999999e+00	 9.633490944615364e+00
0	 1.250000000000000e+00	 5.249999999999999e+00	 9.643646886153837e+00
0	 1.250000000000000e+00	 5.312499999999999e+00	 9.653803769230768e+00
0	 1.250000000000000e+00	 5.374999999999998e+00	 9.663961593846143e+00
0	 1.250000000000000e+00	 5.437499999999998e+00	 9.674120360000000e+00
0	 1.250000000000000e+00	 5.499999999999998e+00	 9.684280067692303e+00
0	 1.250000000000000e+00	 5.562499999999998e+00	 9.694440716923078e+00
0	 1.250000000000000e+00	 5.625000000000000e+00	 9.704602307692303e+00
0	 1.312500000000000e+00	 5.000000000000000e+00	 9.623915984615381e+00
0	 1.312500000000000e+00	 5.062499999999999e+00	 9.633153974923072e+00
0	 1.312500000000000e+00	 5.125000000000000e+00	 9.642378718153836e+00
0	 1.312500000000000e+00	 5.187499999999999e+00	 9.651590214307685e+00
0	 1.312500000000000e+00	 5.249999999999998e+00	 9.660788463384607e+00
0	 1.312500000000000e+00	 5.312499999999998e+00	 9.669973465384615e+00
0	 1.312500000000000e+00	 5.374999999999998e+00	 9.679145220307685e+00
0	 1.312500000000000e+00	 5.437499999999998e+00	 9.688303728153848e+00
0	 1.312500000000000e+00	 5.499999999999998e+00	 9.697448988923064e+00
0	 1.312500000000000e+00	 5.562499999999997e+00	 9.706581002615378e+00
0	 1.312500000000000e+00	 5.625000000000000e+00	 9.715699769230774e+00
0	 1.375000000000000e+00	 5.000000000000001e+00	 9.644629815384619e+00
0	 1.375000000000000e+00	 5.062499999999999e+00	 9.652999826769230e+00
0	 1.375000000000000e+00	 5.124999999999999e+00	 9.661342402461536e+00
0	 1.375000000000000e+00	 5.187500000000000e+00	 9.669657542461538e+00
0	 1.375000000000000e+00	 5.249999999999999e+00	 9.677945246769227e+00
0	 1.375000000000000e+00	 5.312499999999999e+00	 9.686205515384616e+00
0	 1.375000000000000e+00	 5.374999999999999e+00	 9.694438348307688e+00
0	 1.375000000000000e+00	 5.437499999999997e+00	 9.702643745538463e+00
0	 1.375000000000000e+00	 5.499999999999996e+00	 9.710821707076914e+00
0	 1.375000000000000e+00	 5.562499999999998e+00	 9.718972232923090e+00
0	 1.375000000000000e+00	 5.625000000000000e+00	 9.727095323076906e+00
0	 1.437500000000000e+00	 5.000000000000000e+00	 9.665170261538446e+00
0	 1.437500000000000e+00	 5.062499999999999e+00	 9.672719441692310e+00
0	 1.437500000000000e+00	 5.124999999999998e+00	 9.680226997538458e+00
0	 1.437500000000000e+00	 5.187499999999999e+00	 9.687692929076917e+00
0	 1.437500000000000e+00	 5.249999999999997e+00	 9.695117236307681e+00
0	 1.437500000000000e+00	 5.312499999999999e+00	 9.702499919230760e+00
0	 1.437500000000000e+00	 5.374999999999998e+00	 9.709840977846143e+00
0	 1.437500000000000e+00	 5.437499999999998e+00	 9.717140412153851e+00
0	 1.437500000000000e+00	 5.499999999999998e+00	 9.724398222153836e+00
0	 1.437500000000000e+00	 5.562499999999996e+00	 9.731614407846152e+00
0	 1.437500000000000e+00	 5.625000000000000e+00	 9.738788969230773e+00
0	 1.500000000000000e+00	 5.000000000000000e+00	 9.685537323076915e+00
0	 1.500000000000001e+00	 5.062500000000001e+00	 9.692312819692303e+00
0	 1.500000000000000e+00	 5.124999999999999e+00	 9.699032503384602e+00
0	 1.500000000000000e+00	 5.187500000000000e+00	 9.705696374153842e+00
0	 1.500000000000000e+00	 5.250000000000000e+00	 9.712304431999993e+00
0	 1.500000000000000e+00	 5.312499999999997e+00	 9.718856676923071e+00
0	 1.500000000000000e+00	 5.374999999999999e+00	 9.725353108923080e+00
0	 1.500000000000000e+00	 5.437499999999999e+00	 9.731793728000003e+00
0	 1.500000000000000e+00	 5.499999999999998e+00	 9.738178534153837e+00
0	 1.500000000000000e+00	 5.562499999999999e+00	 9.744507527384611e+00
0	 1.500000000000000e+00	 5.625000000000000e+00	 9.750780707692300e+00
0	 1.562500000000000e+00	 5.000000000000001e+00	 9.705730999999979e+00
0	 1.562500000000001e+00	 5.062500000000001e+00	 9.711779960769213e+00
0	 1.562500000000000e+00	 5.124999999999999e+00	 9.717758919999989e+00
0	 1.562500000000000e+00	 5.187500000000000e+00	 9.723667877692296e+00
0	 1.562500000000000e+00	 5.249999999999998e+00	 9.729506833846138e+00
0	 1.562500000000000e+00	 5.312500000000000e+00	 9.735275788461539e+00
0	 1.562500000000000e+00	 5.375000000000000e+00	 9.740974741538455e+00
0	 1.562500000000000e+00	 5.437500000000000e+00	 9.746603693076917e+00
0	 1.562500000000000e+00	 5.499999999999998e+00	 9.752162643076911e+00
0	 1.562500000000000e+00	 5.562499999999998e+00	 9.757651591538453e+00
0	 1.562500000000000e+00	 5.625000000000000e+00	 9.763070538461541e+00
0	 1.625000000000000e+00	 5.000000000000000e+00	 9.725751292307693e+00
0	 1.625000000000000e+00	 5.062500000000000e+00	 9.731120864923067e+00
0	 1.625000000000000e+00	 5.125000000000000e+00	 9.736406247384616e+00
0	 1.625000000000000e+00	 5.187499999999999e+00	 9.741607439692297e+00
0	 1.625000000000000e+00	 5.250000000000000e+00	 9.746724441846151e+00
0	 1.625000000000000e+00	 5.312499999999999e+00	 9.751757253846140e+00
0	 1.625000000000000e+00	 5.374999999999999e+00	 9.756705875692303e+00
0	 1.625000000000000e+00	 5.437499999999998e+00	 9.761570307384599e+00
0	 1.625000000000000e+00	 5.499999999999998e+00	 9.766350548923072e+00
0	 1.625000000000000e+00	 5.562499999999998e+00	 9.771046600307692e+00
0	 1.625000000000000e+00	 5.625000000000000e+00	 9.775658461538470e+00
0	 1.687500000000000e+00	 5.000000000000000e+00	 9.745598199999993e+00
0	 1.687500000000001e+00	 5.062500000000000e+00	 9.750335532153846e+00
0	 1.687500000000000e+00	 5.124999999999999e+00	 9.754974485538460e+00
0	 1.687500000000000e+00	 5.187499999999999e+00	 9.759515060153841e+00
0	 1.687500000000000e+00	 5.250000000000000e+00	 9.763957255999994e+00
0	 1.687500000000001e+00	 5.312499999999999e+00	 9.768301073076918e+00
0	 1.687500000000000e+00	 5.374999999999998e+00	 9.772546511384613e+00
0	 1.687500000000000e+00	 5.437500000000000e+00	 9.776693570923072e+00
0	 1.687500000000000e+00	 5.499999999999998e+00	 9.780742251692311e+00
0	 1.687500000000000e+00	 5.562499999999998e+00	 9.784692553692301e+00
0	 1.687500000000000e+00	 5.625000000000000e+00	 9.788544476923073e+00
0	 1.750000000000000e+00	 5.000000000000000e+00	 9.765271723076921e+00
0	 1.750000000000000e+00	 5.062499999999999e+00	 9.769423962461531e+00
0	 1.750000000000001e+00	 5.124999999999999e+00	 9.773463634461528e+00
0	 1.750000000000000e+00	 5.187499999999999e+00	 9.777390739076921e+00
0	 1.750000000000000e+00	 5.250000000000000e+00	 9.781205276307691e+00
0	 1.750000000000000e+00	 5.312500000000000e+00	 9.784907246153836e+00
0	 1.750000000000001e+00	 5.374999999999999e+00	 9.788496648615382e+00
0	 1.750000000000000e+00	 5.437499999999999e+00	 9.791973483692312e+00
0	 1.750000000000000e+00	 5.499999999999998e+00	 9.795337751384618e+00
0	 1.750000000000000e+00	 5.562499999999998e+00	 9.798589451692301e+00
0	 1.750000000000000e+00	 5.625000000000000e+00	 9.801728584615390e+00
0	 1.812500000000001e+00	 5.000000000000001e+00	 9.784771861538465e+00
0	 1.812500000000000e+00	 5.062499999999999e+00	 9.788386155846137e+00
0	 1.812500000000001e+00	 5.125000000000000e+00	 9.791873694153843e+00
0	 1.812500000000000e+00	 5.187499999999999e+00	 9.795234476461530e+00
0	 1.812500000000000e+00	 5.250000000000001e+00	 9.798468502769223e+00
0	 1.812500000000000e+00	 5.312499999999998e+00	 9.801575773076914e+00
0	 1.812500000000001e+00	 5.374999999999998e+00	 9.804556287384601e+00
0	 1.812500000000000e+00	 5.437499999999998e+00	 9.807410045692301e+00
0	 1.812500000000001e+00	 5.499999999999998e+00	 9.810137047999982e+00
0	 1.812500000000000e+00	 5.562499999999998e+00	 9.812737294307688e+00
0	 1.812500000000001e+00	 5.625000000000000e+00	 9.815210784615381e+00
0	 1.875000000000000e+00	 5.000000000000000e+00	 9.804098615384609e+00
0	 1.875000000000000e+00	 5.062500000000000e+00	 9.807222112307699e+00
0	 1.875000000000000e+00	 5.125000000000001e+00	 9.810204664615382e+00
0	 1.875000000000000e+00	 5.187499999999999e+00	 9.813046272307671e+00
0	 1.875000000000000e+00	 5.249999999999999e+00	 9.815746935384608e+00
0	 1.875000000000000e+00	 5.312499999999999e+00	 9.818306653846147e+00
0	 1.875000000000000e+00	 5.374999999999998e+00	 9.820725427692294e+00
0	 1.875000000000000e+00	 5.437499999999998e+00	 9.823003256923073e+00
0	 1.875000000000000e+00	 5.499999999999998e+00	 9.825140141538453e+00
0	 1.875000000000000e+00	 5.562499999999998e+00	 9.827136081538464e+00
0	 1.875000000000000e+00	 5.625000000000000e+00	 9.828991076923073e+00
0	 1.250000000000000e+00	 5.625000000000000e+00	 9.704602307692303e+00
0	 1.250000000000000e+00	 5.687500000000000e+00	 9.711702564615376e+00
0	 1.250000000000000e+00	 5.750000000000000e+00	 9.718849981538458e+00
0	 1.250000000000000e+00	 5.812499999999999e+00	 9.726044558461542e+00
0	 1.250000000000000e+00	 5.874999999999999e+00	 9.733286295384620e+00
0	 1.250000000000000e+00	 5.937499999999999e+00	 9.740575192307706e+00
0	 1.250000000000000e+00	 5.999999999999998e+00	 9.747911249230786e+00
0	 1.250000000000000e+00	 6.062499999999998e+00	 9.755294466153854e+00
0	 1.250000000000000e+00	 6.124999999999998e+00	 9.762724843076931e+00
0	 1.250000000000000e+00	 6.187499999999998e+00	 9.770202380000024e+00
0	 1.250000000000000e+00	 6.250000000000000e+00	 9.777727076923089e+00
0	 1.312500000000000e+00	 5.625000000000000e+00	 9.715699769230774e+00
0	 1.312500000000000e+00	 5.687499999999998e+00	 9.722538110615371e+00
0	 1.312500000000000e+00	 5.749999999999999e+00	 9.729412750153841e+00
0	 1.312500000000000e+00	 5.812499999999997e+00	 9.736323687846163e+00
0	 1.312500000000000e+00	 5.874999999999998e+00	 9.743270923692315e+00
0	 1.312500000000000e+00	 5.937499999999998e+00	 9.750254457692307e+00
0	 1.312500000000000e+00	 5.999999999999999e+00	 9.757274289846153e+00
0	 1.312500000000000e+00	 6.062499999999998e+00	 9.764330420153849e+00
0	 1.312500000000000e+00	 6.124999999999999e+00	 9.771422848615396e+00
0	 1.312500000000000e+00	 6.187499999999999e+00	 9.778551575230786e+00
0	 1.312500000000000e+00	 6.250000000000000e+00	 9.785716599999997e+00
0	 1.375000000000000e+00	 5.625000000000000e+00	 9.727095323076906e+00
0	 1.375000000000000e+00	 5.687499999999998e+00	 9.733656348923077e+00
0	 1.375000000000000e+00	 5.750000000000000e+00	 9.740242811076921e+00
0	 1.375000000000000e+00	 5.812499999999999e+00	 9.746854709538475e+00
0	 1.375000000000000e+00	 5.874999999999999e+00	 9.753492044307702e+00
0	 1.375000000000000e+00	 5.937499999999999e+00	 9.760154815384603e+00
0	 1.375000000000000e+00	 5.999999999999999e+00	 9.766843022769240e+00
0	 1.375000000000000e+00	 6.062499999999998e+00	 9.773556666461559e+00
0	 1.375000000000000e+00	 6.124999999999996e+00	 9.780295746461567e+00
0	 1.375000000000000e+00	 6.187499999999998e+00	 9.787060262769241e+00
0	 1.375000000000000e+00	 6.250000000000000e+00	 9.793850215384644e+00
0	 1.437500000000000e+00	 5.625000000000000e+00	 9.738788969230773e+00
0	 1.437500000000000e+00	 5.687499999999999e+00	 9.745057279538464e+00
0	 1.437500000000000e+00	 5.749999999999999e+00	 9.751340164307688e+00
0	 1.437500000000000e+00	 5.812500000000001e+00	 9.757637623538464e+00
0	 1.437500000000000e+00	 5.874999999999997e+00	 9.763949657230768e+00
0	 1.437500000000000e+00	 5.937499999999999e+00	 9.770276265384618e+00
0	 1.437500000000000e+00	 5.999999999999998e+00	 9.776617448000016e+00
0	 1.437500000000000e+00	 6.062499999999998e+00	 9.782973205076946e+00
0	 1.437500000000000e+00	 6.124999999999996e+00	 9.789343536615403e+00
0	 1.437500000000000e+00	 6.187499999999998e+00	 9.795728442615392e+00
0	 1.437500000000000e+00	 6.250000000000000e+00	 9.802127923076915e+00
0	 1.500000000000000e+00	 5.625000000000000e+00	 9.750780707692300e+00
0	 1.500000000000001e+00	 5.687500000000001e+00	 9.756740902461534e+00
0	 1.500000000000000e+00	 5.749999999999999e+00	 9.762704809846163e+00
0	 1.500000000000000e+00	 5.812499999999999e+00	 9.768672429846163e+00
0	 1.500000000000000e+00	 5.874999999999999e+00	 9.774643762461537e+00
0	 1.500000000000000e+00	 5.937499999999998e+00	 9.780618807692315e+00
0	 1.500000000000000e+00	 5.999999999999999e+00	 9.786597565538470e+00
0	 1.500000000000000e+00	 6.062499999999998e+00	 9.792580036000000e+00
0	 1.500000000000000e+00	 6.124999999999999e+00	 9.798566219076918e+00
0	 1.500000000000000e+00	 6.187499999999998e+00	 9.804556114769234e+00
0	 1.500000000000000e+00	 6.250000000000001e+00	 9.810549723076937e+00
0	 1.562500000000000e+00	 5.625000000000000e+00	 9.763070538461541e+00
0	 1.562500000000001e+00	 5.687500000000000e+00	 9.768707217692310e+00
0	 1.562500000000000e+00	 5.749999999999999e+00	 9.774336747692313e+00
0	 1.562500000000000e+00	 5.812500000000000e+00	 9.779959128461538e+00
0	 1.562500000000000e+00	 5.874999999999998e+00	 9.785574360000004e+00
0	 1.562500000000000e+00	 5.937499999999999e+00	 9.791182442307706e+00
0	 1.562500000000000e+00	 5.999999999999999e+00	 9.796783375384621e+00
0	 1.562500000000000e+00	 6.062499999999999e+00	 9.802377159230758e+00
0	 1.562500000000000e+00	 6.124999999999998e+00	 9.807963793846172e+00
0	 1.562500000000000e+00	 6.187499999999998e+00	 9.813543279230792e+00
0	 1.562500000000000e+00	 6.250000000000000e+00	 9.819115615384625e+00
0	 1.625000000000000e+00	 5.625000000000000e+00	 9.775658461538470e+00
0	 1.625000000000000e+00	 5.687500000000000e+00	 9.780956225230774e+00
0	 1.625000000000000e+00	 5.749999999999999e+00	 9.786235977846157e+00
0	 1.625000000000000e+00	 5.812499999999999e+00	 9.791497719384614e+00
0	 1.625000000000000e+00	 5.874999999999999e+00	 9.796741449846159e+00
0	 1.625000000000000e+00	 5.937499999999999e+00	 9.801967169230782e+00
0	 1.625000000000000e+00	 5.999999999999999e+00	 9.807174877538465e+00
0	 1.625000000000000e+00	 6.062499999999998e+00	 9.812364574769235e+00
0	 1.625000000000000e+00	 6.124999999999998e+00	 9.817536260923081e+00
0	 1.625000000000000e+00	 6.187499999999998e+00	 9.822689935999998e+00
0	 1.625000000000000e+00	 6.250000000000000e+00	 9.827825600000001e+00
0	 1.687500000000000e+00	 5.625000000000000e+00	 9.788544476923073e+00
0	 1.687500000000001e+00	 5.687500000000000e+00	 9.793487925076917e+00
0	 1.687500000000000e+00	 5.750000000000000e+00	 9.798402500307702e+00
0	 1.687500000000000e+00	 5.812499999999999e+00	 9.803288202615388e+00
0	 1.687500000000000e+00	 5.875000000000000e+00	 9.808145032000011e+00
0	 1.687500000000001e+00	 5.937499999999999e+00	 9.812972988461546e+00
0	 1.687500000000000e+00	 5.999999999999999e+00	 9.817772071999997e+00
0	 1.687500000000000e+00	 6.062500000000000e+00	 9.822542282615403e+00
0	 1.687500000000000e+00	 6.124999999999998e+00	 9.827283620307707e+00
0	 1.687500000000000e+00	 6.187499999999999e+00	 9.831996085076943e+00
0	 1.687500000000000e+00	 6.249999999999999e+00	 9.836679676923081e+00
0	 1.750000000000000e+00	 5.625000000000000e+00	 9.801728584615390e+00
0	 1.750000000000000e+00	 5.687499999999999e+00	 9.806302317230767e+00
0	 1.750000000000001e+00	 5.749999999999999e+00	 9.810836315076932e+00
0	 1.750000000000000e+00	 5.812499999999999e+00	 9.815330578153850e+00
0	 1.750000000000000e+00	 5.875000000000000e+00	 9.819785106461545e+00
0	 1.750000000000000e+00	 5.937499999999999e+00	 9.824199899999993e+00
0	 1.750000000000001e+00	 5.999999999999999e+00	 9.828574958769245e+00
0	 1.750000000000000e+00	 6.062499999999997e+00	 9.832910282769255e+00
0	 1.750000000000000e+00	 6.124999999999997e+00	 9.837205872000014e+00
0	 1.750000000000000e+00	 6.187499999999998e+00	 9.841461726461565e+00
0	 1.750000000000000e+00	 6.250000000000000e+00	 9.845677846153867e+00
0	 1.812500000000001e+00	 5.625000000000000e+00	 9.815210784615381e+00
0	 1.812500000000000e+00	 5.687499999999999e+00	 9.819399401692323e+00
0	 1.812500000000001e+00	 5.750000000000000e+00	 9.823537422153850e+00
0	 1.812500000000000e+00	 5.812499999999999e+00	 9.827624845999997e+00
0	 1.812500000000000e+00	 5.875000000000000e+00	 9.831661673230773e+00
0	 1.812500000000000e+00	 5.937499999999998e+00	 9.835647903846155e+00
0	 1.812500000000001e+00	 5.999999999999999e+00	 9.839583537846154e+00
0	 1.812500000000000e+00	 6.062499999999999e+00	 9.843468575230778e+00
0	 1.812500000000001e+00	 6.124999999999998e+00	 9.847303016000001e+00
0	 1.812500000000000e+00	 6.187499999999998e+00	 9.851086860153845e+00
0	 1.812500000000001e+00	 6.250000000000000e+00	 9.854820107692337e+00
0	 1.875000000000000e+00	 5.625000000000000e+00	 9.828991076923073e+00
0	 1.875000000000000e+00	 5.687500000000000e+00	 9.832779178461534e+00
0	 1.875000000000000e+00	 5.750000000000000e+00	 9.836505821538452e+00
0	 1.875000000000000e+00	 5.812499999999999e+00	 9.840171006153852e+00
0	 1.875000000000000e+00	 5.874999999999999e+00	 9.843774732307702e+00
0	 1.875000000000000e+00	 5.937499999999999e+00	 9.847317000000009e+00
0	 1.875000000000000e+00	 5.999999999999998e+00	 9.850797809230787e+00
0	 1.875000000000000e+00	 6.062499999999998e+00	 9.854217160000012e+00
0	 1.875000000000000e+00	 6.124999999999998e+00	 9.857575052307702e+00
0	 1.875000000000000e+00	 6.187499999999998e+00	 9.860871486153872e+00
0	 1.875000000000000e+00	 6.250000000000000e+00	 9.864106461538478e+00
0	 1.250000000000000e+00	 6.250000000000000e+00	 9.777727076923089e+00
0	 1.250000000000000e+00	 6.312500000000000e+00	 9.784056984615390e+00
0	 1.250000000000000e+00	 6.375000000000000e+00	 9.790424923076930e+00
0	 1.250000000000000e+00	 6.437499999999999e+00	 9.796830892307682e+00
0	 1.250000000000000e+00	 6.499999999999999e+00	 9.803274892307705e+00
0	 1.250000000000000e+00	 6.562499999999998e+00	 9.809756923076927e+00
0	 1.250000000000000e+00	 6.624999999999998e+00	 9.816276984615371e+00
0	 1.250000000000000e+00	 6.687499999999998e+00	 9.822835076923077e+00
0	 1.250000000000000e+00	 6.749999999999998e+00	 9.829431199999997e+00
0	 1.250000000000000e+00	 6.812499999999998e+00	 9.836065353846159e+00
0	 1.250000000000000e+00	 6.875000000000000e+00	 9.842737538461527e+00
0	 1.312500000000000e+00	 6.250000000000000e+00	 9.785716599999997e+00
0	 1.312500000000000e+00	 6.312499999999998e+00	 9.791740640769245e+00
0	 1.312500000000000e+00	 6.375000000000000e+00	 9.797798996923083e+00
0	 1.312500000000000e+00	 6.437499999999997e+00	 9.803891668461544e+00
0	 1.312500000000000e+00	 6.499999999999998e+00	 9.810018655384630e+00
0	 1.312500000000000e+00	 6.562499999999997e+00	 9.816179957692304e+00
0	 1.312500000000000e+00	 6.624999999999998e+00	 9.822375575384619e+00
0	 1.312500000000000e+00	 6.687499999999997e+00	 9.828605508461518e+00
0	 1.312500000000000e+00	 6.749999999999999e+00	 9.834869756923071e+00
0	 1.312500000000000e+00	 6.812499999999998e+00	 9.841168320769228e+00
0	 1.312500000000000e+00	 6.874999999999999e+00	 9.847501200000002e+00
0	 1.375000000000000e+00	 6.250000000000000e+00	 9.793850215384644e+00
0	 1.375000000000000e+00	 6.312499999999998e+00	 9.799571361538476e+00
0	 1.375000000000000e+00	 6.375000000000000e+00	 9.805323107692320e+00
0	 1.375000000000000e+00	 6.437500000000000e+00	 9.811105453846169e+00
0	 1.375000000000000e+00	 6.500000000000000e+00	 9.816918400000009e+00
0	 1.375000000000000e+00	 6.562499999999999e+00	 9.822761946153847e+00
0	 1.375000000000000e+00	 6.624999999999999e+00	 9.828636092307693e+00
0	 1.375000000000000e+00	 6.687499999999998e+00	 9.834540838461537e+00
0	 1.375000000000000e+00	 6.749999999999996e+00	 9.840476184615367e+00
0	 1.375000000000000e+00	 6.812499999999998e+00	 9.846442130769224e+00
0	 1.375000000000000e+00	 6.875000000000001e+00	 9.852438676923041e+00
0	 1.437500000000000e+00	 6.250000000000000e+00	 9.802127923076915e+00
0	 1.437500000000000e+00	 6.312500000000000e+00	 9.807549146923094e+00
0	 1.437500000000000e+00	 6.374999999999998e+00	 9.812997255384623e+00
0	 1.437500000000000e+00	 6.437499999999999e+00	 9.818472248461561e+00
0	 1.437500000000000e+00	 6.499999999999998e+00	 9.823974126153850e+00
0	 1.437500000000000e+00	 6.562499999999999e+00	 9.829502888461533e+00
0	 1.437500000000000e+00	 6.624999999999999e+00	 9.835058535384613e+00
0	 1.437500000000000e+00	 6.687499999999997e+00	 9.840641066923071e+00
0	 1.437500000000000e+00	 6.749999999999997e+00	 9.846250483076911e+00
0	 1.437500000000000e+00	 6.812499999999997e+00	 9.851886783846153e+00
0	 1.437500000000000e+00	 6.875000000000000e+00	 9.857549969230766e+00
0	 1.500000000000000e+00	 6.250000000000001e+00	 9.810549723076937e+00
0	 1.500000000000001e+00	 6.312500000000001e+00	 9.815673996923096e+00
0	 1.500000000000000e+00	 6.375000000000000e+00	 9.820821440000007e+00
0	 1.500000000000000e+00	 6.437499999999999e+00	 9.825992052307686e+00
0	 1.500000000000000e+00	 6.499999999999998e+00	 9.831185833846156e+00
0	 1.500000000000000e+00	 6.562499999999996e+00	 9.836402784615387e+00
0	 1.500000000000000e+00	 6.624999999999999e+00	 9.841642904615371e+00
0	 1.500000000000000e+00	 6.687499999999998e+00	 9.846906193846140e+00
0	 1.500000000000000e+00	 6.749999999999999e+00	 9.852192652307680e+00
0	 1.500000000000000e+00	 6.812499999999997e+00	 9.857502279999986e+00
0	 1.500000000000000e+00	 6.875000000000000e+00	 9.862835076923073e+00
0	 1.562500000000000e+00	 6.250000000000000e+00	 9.819115615384625e+00
0	 1.562500000000001e+00	 6.312500000000000e+00	 9.823945911538470e+00
0	 1.562500000000000e+00	 6.374999999999999e+00	 9.828795661538452e+00
0	 1.562500000000000e+00	 6.437499999999999e+00	 9.833664865384618e+00
0	 1.562500000000000e+00	 6.499999999999998e+00	 9.838553523076911e+00
0	 1.562500000000000e+00	 6.562499999999999e+00	 9.843461634615391e+00
0	 1.562500000000000e+00	 6.625000000000000e+00	 9.848389200000000e+00
0	 1.562500000000000e+00	 6.687499999999999e+00	 9.853336219230751e+00
0	 1.562500000000000e+00	 6.749999999999999e+00	 9.858302692307682e+00
0	 1.562500000000000e+00	 6.812499999999998e+00	 9.863288619230740e+00
0	 1.562500000000000e+00	 6.875000000000000e+00	 9.868293999999985e+00
0	 1.625000000000000e+00	 6.250000000000000e+00	 9.827825600000001e+00
0	 1.625000000000000e+00	 6.312499999999999e+00	 9.832364890769242e+00
0	 1.625000000000000e+00	 6.375000000000000e+00	 9.836919920000009e+00
0	 1.625000000000000e+00	 6.437499999999999e+00	 9.841490687692318e+00
0	 1.625000000000000e+00	 6.499999999999999e+00	 9.846077193846154e+00
0	 1.625000000000000e+00	 6.562499999999999e+00	 9.850679438461530e+00
0	 1.625000000000000e+00	 6.624999999999999e+00	 9.855297421538459e+00
0	 1.625000000000000e+00	 6.687499999999997e+00	 9.859931143076912e+00
0	 1.625000000000000e+00	 6.749999999999998e+00	 9.864580603076908e+00
0	 1.625000000000000e+00	 6.812499999999998e+00	 9.869245801538465e+00
0	 1.625000000000000e+00	 6.875000000000000e+00	 9.873926738461524e+00
0	 1.687500000000000e+00	 6.249999999999999e+00	 9.836679676923081e+00
0	 1.687500000000001e+00	 6.312499999999999e+00	 9.840930934615388e+00
0	 1.687500000000000e+00	 6.374999999999997e+00	 9.845194215384637e+00
0	 1.687500000000000e+00	 6.437499999999998e+00	 9.849469519230778e+00
0	 1.687500000000000e+00	 6.500000000000000e+00	 9.853756846153848e+00
0	 1.687500000000001e+00	 6.562500000000000e+00	 9.858056196153848e+00
0	 1.687500000000000e+00	 6.624999999999998e+00	 9.862367569230766e+00
0	 1.687500000000000e+00	 6.687499999999999e+00	 9.866690965384599e+00
0	 1.687500000000000e+00	 6.749999999999999e+00	 9.871026384615380e+00
0	 1.687500000000000e+00	 6.812499999999999e+00	 9.875373826923067e+00
0	 1.687500000000000e+00	 6.875000000000000e+00	 9.879733292307655e+00
0	 1.750000000000000e+00	 6.250000000000000e+00	 9.845677846153867e+00
0	 1.750000000000000e+00	 6.312499999999999e+00	 9.849644043076927e+00
0	 1.750000000000001e+00	 6.375000000000000e+00	 9.853618547692324e+00
0	 1.750000000000000e+00	 6.437499999999999e+00	 9.857601360000011e+00
0	 1.750000000000000e+00	 6.500000000000000e+00	 9.861592480000011e+00
0	 1.750000000000000e+00	 6.562500000000000e+00	 9.865591907692311e+00
0	 1.750000000000001e+00	 6.624999999999999e+00	 9.869599643076919e+00
0	 1.750000000000000e+00	 6.687499999999997e+00	 9.873615686153835e+00
0	 1.750000000000000e+00	 6.749999999999997e+00	 9.877640036923065e+00
0	 1.750000000000000e+00	 6.812499999999999e+00	 9.881672695384596e+00
0	 1.750000000000000e+00	 6.874999999999999e+00	 9.885713661538443e+00
0	 1.812500000000001e+00	 6.250000000000000e+00	 9.854820107692337e+00
0	 1.812500000000000e+00	 6.312499999999997e+00	 9.858504216153870e+00
0	 1.812500000000001e+00	 6.375000000000000e+00	 9.862192916923091e+00
0	 1.812500000000000e+00	 6.437500000000000e+00	 9.865886210000006e+00
0	 1.812500000000000e+00	 6.499999999999999e+00	 9.869584095384619e+00
0	 1.812500000000000e+00	 6.562499999999997e+00	 9.873286573076921e+00
0	 1.812500000000001e+00	 6.624999999999999e+00	 9.876993643076917e+00
0	 1.812500000000000e+00	 6.687499999999998e+00	 9.880705305384597e+00
0	 1.812500000000001e+00	 6.749999999999998e+00	 9.884421559999987e+00
0	 1.812500000000000e+00	 6.812499999999998e+00	 9.888142406923052e+00
0	 1.812500000000001e+00	 6.875000000000000e+00	 9.891867846153822e+00
0	 1.875000000000000e+00	 6.250000000000000e+00	 9.864106461538478e+00
0	 1.875000000000000e+00	 6.312500000000000e+00	 9.867511453846173e+00
0	 1.875000000000000e+00	 6.375000000000000e+00	 9.870917323076934e+00
0	 1.875000000000000e+00	 6.437499999999999e+00	 9.874324069230767e+00
0	 1.875000000000000e+00	 6.499999999999999e+00	 9.877731692307702e+00
0	 1.875000000000000e+00	 6.562499999999998e+00	 9.881140192307690e+00
0	 1.875000000000000e+00	 6.624999999999998e+00	 9.884549569230755e+00
0	 1.875000000000000e+00	 6.687499999999998e+00	 9.887959823076908e+00
0	 1.875000000000000e+00	 6.749999999999998e+00	 9.891370953846147e+00
0	 1.875000000000000e+00	 6.812499999999998e+00	 9.894782961538464e+00
0	 1.875000000000000e+00	 6.875000000000000e+00	 9.898195846153833e+00
0	 1.250000000000000e+00	 6.875000000000000e+00	 9.842737538461527e+00
0	 1.250000000000000e+00	 6.937500000000000e+00	 9.847691969230766e+00
0	 1.250000000000000e+00	 7.000000000000000e+00	 9.852713784615359e+00
0	 1.250000000000000e+00	 7.062500000000000e+00	 9.857802984615383e+00
0	 1.250000000000000e+00	 7.125000000000000e+00	 9.862959569230759e+00
0	 1.250000000000000e+00	 7.187499999999998e+00	 9.868183538461537e+00
0	 1.250000000000000e+00	 7.249999999999998e+00	 9.873474892307694e+00
0	 1.250000000000000e+00	 7.312499999999998e+00	 9.878833630769220e+00
0	 1.250000000000000e+00	 7.374999999999998e+00	 9.884259753846132e+00
0	 1.250000000000000e+00	 7.437499999999998e+00	 9.889753261538463e+00
0	 1.250000000000000e+00	 7.500000000000000e+00	 9.895314153846146e+00
0	 1.312500000000000e+00	 6.874999999999999e+00	 9.847501200000002e+00
0	 1.312500000000000e+00	 6.937499999999997e+00	 9.852298604461524e+00
0	 1.312500000000000e+00	 7.000000000000001e+00	 9.857158383999991e+00
0	 1.312500000000000e+00	 7.062499999999997e+00	 9.862080538615366e+00
0	 1.312500000000000e+00	 7.124999999999997e+00	 9.867065068307681e+00
0	 1.312500000000000e+00	 7.187499999999997e+00	 9.872111973076912e+00
0	 1.312500000000000e+00	 7.249999999999998e+00	 9.877221252923066e+00
0	 1.312500000000000e+00	 7.312499999999997e+00	 9.882392907846144e+00
0	 1.312500000000000e+00	 7.374999999999999e+00	 9.887626937846134e+00
0	 1.312500000000000e+00	 7.437499999999997e+00	 9.892923342923055e+00
0	 1.312500000000000e+00	 7.500000000000000e+00	 9.898282123076891e+00
0	 1.375000000000000e+00	 6.875000000000001e+00	 9.852438676923041e+00
0	 1.375000000000000e+00	 6.937499999999998e+00	 9.857073648923073e+00
0	 1.375000000000000e+00	 7.000000000000000e+00	 9.861765986461524e+00
0	 1.375000000000000e+00	 7.062499999999998e+00	 9.866515689538451e+00
0	 1.375000000000000e+00	 7.124999999999999e+00	 9.871322758153832e+00
0	 1.375000000000000e+00	 7.187499999999999e+00	 9.876187192307679e+00
0	 1.375000000000000e+00	 7.249999999999999e+00	 9.881108991999987e+00
0	 1.375000000000000e+00	 7.312499999999999e+00	 9.886088157230756e+00
0	 1.375000000000000e+00	 7.374999999999996e+00	 9.891124687999977e+00
0	 1.375000000000000e+00	 7.437499999999997e+00	 9.896218584307697e+00
0	 1.375000000000000e+00	 7.500000000000000e+00	 9.901369846153838e+00
0	 1.437500000000000e+00	 6.875000000000000e+00	 9.857549969230766e+00
0	 1.437500000000000e+00	 6.937500000000000e+00	 9.862017102615390e+00
0	 1.437500000000000e+00	 6.999999999999999e+00	 9.866536591999981e+00
0	 1.437500000000000e+00	 7.062499999999999e+00	 9.871108437384608e+00
0	 1.437500000000000e+00	 7.124999999999999e+00	 9.875732638769215e+00
0	 1.437500000000000e+00	 7.187499999999999e+00	 9.880409196153838e+00
0	 1.437500000000000e+00	 7.249999999999996e+00	 9.885138109538444e+00
0	 1.437500000000000e+00	 7.312499999999999e+00	 9.889919378923061e+00
0	 1.437500000000000e+00	 7.374999999999998e+00	 9.894753004307693e+00
0	 1.437500000000000e+00	 7.437499999999997e+00	 9.899638985692308e+00
0	 1.437500000000000e+00	 7.500000000000000e+00	 9.904577323076895e+00
0	 1.500000000000000e+00	 6.875000000000000e+00	 9.862835076923073e+00
0	 1.500000000000001e+00	 6.937500000000002e+00	 9.867128965538456e+00
0	 1.500000000000000e+00	 6.999999999999999e+00	 9.871470200615363e+00
0	 1.500000000000000e+00	 7.062500000000000e+00	 9.875858782153820e+00
0	 1.500000000000000e+00	 7.124999999999999e+00	 9.880294710153837e+00
0	 1.500000000000000e+00	 7.187499999999996e+00	 9.884777984615368e+00
0	 1.500000000000000e+00	 7.250000000000000e+00	 9.889308605538472e+00
0	 1.500000000000000e+00	 7.312499999999997e+00	 9.893886572923062e+00
0	 1.500000000000000e+00	 7.375000000000000e+00	 9.898511886769224e+00
0	 1.500000000000000e+00	 7.437499999999998e+00	 9.903184547076931e+00
0	 1.500000000000000e+00	 7.500000000000000e+00	 9.907904553846157e+00
0	 1.562500000000000e+00	 6.875000000000000e+00	 9.868293999999985e+00
0	 1.562500000000001e+00	 6.937500000000000e+00	 9.872409237692294e+00
0	 1.562500000000000e+00	 6.999999999999999e+00	 9.876566812307690e+00
0	 1.562500000000000e+00	 7.062500000000001e+00	 9.880766723846131e+00
0	 1.562500000000000e+00	 7.124999999999998e+00	 9.885008972307681e+00
0	 1.562500000000000e+00	 7.187499999999999e+00	 9.889293557692284e+00
0	 1.562500000000000e+00	 7.250000000000000e+00	 9.893620479999989e+00
0	 1.562500000000000e+00	 7.312499999999999e+00	 9.897989739230750e+00
0	 1.562500000000000e+00	 7.374999999999997e+00	 9.902401335384605e+00
0	 1.562500000000000e+00	 7.437499999999999e+00	 9.906855268461532e+00
0	 1.562500000000000e+00	 7.500000000000000e+00	 9.911351538461526e+00
0	 1.625000000000000e+00	 6.875000000000000e+00	 9.873926738461524e+00
0	 1.625000000000000e+00	 6.937500000000001e+00	 9.877857919076909e+00
0	 1.625000000000000e+00	 6.999999999999999e+00	 9.881826427076909e+00
0	 1.625000000000000e+00	 7.062499999999998e+00	 9.885832262461520e+00
0	 1.625000000000000e+00	 7.125000000000000e+00	 9.889875425230750e+00
0	 1.625000000000000e+00	 7.187499999999999e+00	 9.893955915384598e+00
0	 1.625000000000000e+00	 7.249999999999999e+00	 9.898073732923073e+00
0	 1.625000000000000e+00	 7.312499999999999e+00	 9.902228877846133e+00
0	 1.625000000000000e+00	 7.374999999999998e+00	 9.906421350153833e+00
0	 1.625000000000000e+00	 7.437499999999999e+00	 9.910651149846149e+00
0	 1.625000000000000e+00	 7.499999999999999e+00	 9.914918276923064e+00
0	 1.687500000000000e+00	 6.875000000000000e+00	 9.879733292307655e+00
0	 1.687500000000001e+00	 6.937500000000000e+00	 9.883475009692273e+00
0	 1.687500000000000e+00	 6.999999999999999e+00	 9.887249044923070e+00
0	 1.687500000000000e+00	 7.062499999999999e+00	 9.891055397999978e+00
0	 1.687500000000000e+00	 7.125000000000000e+00	 9.894894068923056e+00
0	 1.687500000000001e+00	 7.187500000000000e+00	 9.898765057692291e+00
0	 1.687500000000000e+00	 7.249999999999998e+00	 9.902668364307672e+00
0	 1.687500000000000e+00	 7.312499999999999e+00	 9.906603988769231e+00
0	 1.687500000000000e+00	 7.374999999999998e+00	 9.910571931076902e+00
0	 1.687500000000000e+00	 7.437499999999998e+00	 9.914572191230747e+00
0	 1.687500000000000e+00	 7.500000000000000e+00	 9.918604769230759e+00
0	 1.750000000000000e+00	 6.874999999999999e+00	 9.885713661538443e+00
0	 1.750000000000000e+00	 6.937500000000000e+00	 9.889260509538442e+00
0	 1.750000000000001e+00	 7.000000000000000e+00	 9.892834665846149e+00
0	 1.750000000000000e+00	 7.062500000000000e+00	 9.896436130461520e+00
0	 1.750000000000000e+00	 7.125000000000001e+00	 9.900064903384596e+00
0	 1.750000000000000e+00	 7.187499999999998e+00	 9.903720984615378e+00
0	 1.750000000000001e+00	 7.249999999999998e+00	 9.907404374153835e+00
0	 1.750000000000000e+00	 7.312499999999998e+00	 9.911115071999992e+00
0	 1.750000000000000e+00	 7.374999999999998e+00	 9.914853078153818e+00
0	 1.750000000000000e+00	 7.437499999999997e+00	 9.918618392615405e+00
0	 1.750000000000000e+00	 7.500000000000000e+00	 9.922411015384611e+00
0	 1.812500000000001e+00	 6.875000000000000e+00	 9.891867846153822e+00
0	 1.812500000000000e+00	 6.937499999999997e+00	 9.895214418615382e+00
0	 1.812500000000001e+00	 7.000000000000000e+00	 9.898583289846133e+00
0	 1.812500000000000e+00	 7.062500000000000e+00	 9.901974459846151e+00
0	 1.812500000000000e+00	 7.125000000000000e+00	 9.905387928615385e+00
0	 1.812500000000000e+00	 7.187499999999998e+00	 9.908823696153821e+00
0	 1.812500000000001e+00	 7.249999999999999e+00	 9.912281762461536e+00
0	 1.812500000000000e+00	 7.312499999999998e+00	 9.915762127538443e+00
0	 1.812500000000001e+00	 7.374999999999998e+00	 9.919264791384622e+00
0	 1.812500000000000e+00	 7.437499999999998e+00	 9.922789753999973e+00
0	 1.812500000000001e+00	 7.500000000000000e+00	 9.926337015384608e+00
0	 1.875000000000000e+00	 6.875000000000000e+00	 9.898195846153833e+00
0	 1.875000000000000e+00	 6.937500000000000e+00	 9.901336736923058e+00
0	 1.875000000000000e+00	 7.000000000000000e+00	 9.904494916923046e+00
0	 1.875000000000000e+00	 7.062500000000000e+00	 9.907670386153839e+00
0	 1.875000000000000e+00	 7.125000000000000e+00	 9.910863144615373e+00
0	 1.875000000000000e+00	 7.187499999999998e+00	 9.914073192307686e+00
0	 1.875000000000000e+00	 7.249999999999998e+00	 9.917300529230772e+00
0	 1.875000000000000e+00	 7.312499999999998e+00	 9.920545155384598e+00
0	 1.875000000000000e+00	 7.374999999999998e+00	 9.923807070769209e+00
0	 1.875000000000000e+00	 7.437499999999998e+00	 9.927086275384616e+00
0	 1.875000000000000e+00	 7.500000000000000e+00	 9.930382769230759e+00
0	 1.250000000000000e+00	 7.500000000000000e+00	 9.895314153846146e+00
0	 1.250000000000000e+00	 7.562500000000000e+00	 9.899266910769231e+00
0	 1.250000000000000e+00	 7.625000000000000e+00	 9.903298166153858e+00
0	 1.250000000000000e+00	 7.687499999999999e+00	 9.907407920000004e+00
0	 1.250000000000000e+00	 7.750000000000000e+00	 9.911596172307696e+00
0	 1.250000000000000e+00	 7.812499999999999e+00	 9.915862923076917e+00
0	 1.250000000000000e+00	 7.874999999999998e+00	 9.920208172307689e+00
0	 1.250000000000000e+00	 7.937499999999997e+00	 9.924631920000010e+00
0	 1.250000000000000e+00	 7.999999999999998e+00	 9.929134166153856e+00
0	 1.250000000000000e+00	 8.062499999999996e+00	 9.933714910769236e+00
0	 1.250000000000000e+00	 8.125000000000000e+00	 9.938374153846160e+00
0	 1.312500000000000e+00	 7.500000000000000e+00	 9.898282123076891e+00
0	 1.312500000000000e+00	 7.562499999999999e+00	 9.902109177692303e+00
0	 1.312500000000000e+00	 7.624999999999998e+00	 9.906011624615385e+00
0	 1.312500000000000e+00	 7.687499999999996e+00	 9.909989463846149e+00
0	 1.312500000000000e+00	 7.749999999999998e+00	 9.914042695384614e+00
0	 1.312500000000000e+00	 7.812499999999996e+00	 9.918171319230769e+00
0	 1.312500000000000e+00	 7.875000000000000e+00	 9.922375335384608e+00
0	 1.312500000000000e+00	 7.937499999999996e+00	 9.926654743846154e+00
0	 1.312500000000000e+00	 7.999999999999999e+00	 9.931009544615391e+00
0	 1.312500000000000e+00	 8.062499999999996e+00	 9.935439737692306e+00
0	 1.312500000000000e+00	 8.125000000000002e+00	 9.939945323076943e+00
0	 1.375000000000000e+00	 7.500000000000000e+00	 9.901369846153838e+00
0	 1.375000000000000e+00	 7.562499999999998e+00	 9.905068635384595e+00
0	 1.375000000000000e+00	 7.624999999999999e+00	 9.908839710769218e+00
0	 1.375000000000000e+00	 7.687500000000000e+00	 9.912683072307695e+00
0	 1.375000000000000e+00	 7.749999999999999e+00	 9.916598719999989e+00
0	 1.375000000000000e+00	 7.812499999999998e+00	 9.920586653846154e+00
0	 1.375000000000000e+00	 7.875000000000000e+00	 9.924646873846166e+00
0	 1.375000000000000e+00	 7.937499999999998e+00	 9.928779380000002e+00
0	 1.375000000000000e+00	 7.999999999999996e+00	 9.932984172307702e+00
0	 1.375000000000000e+00	 8.062499999999998e+00	 9.937261250769215e+00
0	 1.375000000000000e+00	 8.125000000000000e+00	 9.941610615384608e+00
0	 1.437500000000000e+00	 7.500000000000000e+00	 9.904577323076895e+00
0	 1.437500000000000e+00	 7.562500000000000e+00	 9.908145283846173e+00
0	 1.437500000000000e+00	 7.624999999999999e+00	 9.911782424615366e+00
0	 1.437500000000000e+00	 7.687499999999999e+00	 9.915488745384605e+00
0	 1.437500000000000e+00	 7.749999999999997e+00	 9.919264246153833e+00
0	 1.437500000000000e+00	 7.812499999999999e+00	 9.923108926923083e+00
0	 1.437500000000000e+00	 7.874999999999997e+00	 9.927022787692284e+00
0	 1.437500000000000e+00	 7.937499999999998e+00	 9.931005828461517e+00
0	 1.437500000000000e+00	 7.999999999999997e+00	 9.935058049230760e+00
0	 1.437500000000000e+00	 8.062499999999998e+00	 9.939179449999987e+00
0	 1.437500000000000e+00	 8.124999999999998e+00	 9.943370030769236e+00
0	 1.500000000000000e+00	 7.500000000000000e+00	 9.907904553846157e+00
0	 1.500000000000001e+00	 7.562500000000001e+00	 9.911339123076928e+00
0	 1.500000000000000e+00	 7.625000000000001e+00	 9.914839766153840e+00
0	 1.500000000000000e+00	 7.687499999999999e+00	 9.918406483076922e+00
0	 1.500000000000000e+00	 7.749999999999999e+00	 9.922039273846156e+00
0	 1.500000000000000e+00	 7.812499999999996e+00	 9.925738138461536e+00
0	 1.500000000000000e+00	 7.874999999999998e+00	 9.929503076923082e+00
0	 1.500000000000000e+00	 7.937499999999998e+00	 9.933334089230776e+00
0	 1.500000000000000e+00	 7.999999999999998e+00	 9.937231175384612e+00
0	 1.500000000000000e+00	 8.062499999999998e+00	 9.941194335384621e+00
0	 1.500000000000000e+00	 8.125000000000002e+00	 9.945223569230761e+00
0	 1.562500000000000e+00	 7.500000000000000e+00	 9.911351538461526e+00
0	 1.562500000000001e+00	 7.562500000000000e+00	 9.914650153076916e+00
0	 1.562500000000000e+00	 7.625000000000000e+00	 9.918011735384596e+00
0	 1.562500000000000e+00	 7.687500000000000e+00	 9.921436285384615e+00
0	 1.562500000000000e+00	 7.749999999999997e+00	 9.924923803076906e+00
0	 1.562500000000000e+00	 7.812500000000000e+00	 9.928474288461533e+00
0	 1.562500000000000e+00	 7.874999999999999e+00	 9.932087741538465e+00
0	 1.562500000000000e+00	 7.937499999999999e+00	 9.935764162307692e+00
0	 1.562500000000000e+00	 7.999999999999998e+00	 9.939503550769221e+00
0	 1.562500000000000e+00	 8.062500000000000e+00	 9.943305906923076e+00
0	 1.562500000000000e+00	 8.125000000000000e+00	 9.947171230769223e+00
0	 1.625000000000000e+00	 7.499999999999999e+00	 9.914918276923064e+00
0	 1.625000000000000e+00	 7.562500000000000e+00	 9.918078373846138e+00
0	 1.625000000000000e+00	 7.625000000000001e+00	 9.921298332307689e+00
0	 1.625000000000000e+00	 7.687499999999998e+00	 9.924578152307685e+00
0	 1.625000000000000e+00	 7.750000000000000e+00	 9.927917833846138e+00
0	 1.625000000000000e+00	 7.812499999999998e+00	 9.931317376923076e+00
0	 1.625000000000000e+00	 7.874999999999999e+00	 9.934776781538464e+00
0	 1.625000000000000e+00	 7.937499999999998e+00	 9.938296047692289e+00
0	 1.625000000000000e+00	 7.999999999999997e+00	 9.941875175384608e+00
0	 1.625000000000000e+00	 8.062499999999998e+00	 9.945514164615382e+00
0	 1.625000000000000e+00	 8.125000000000000e+00	 9.949213015384627e+00
0	 1.687500000000000e+00	 7.500000000000000e+00	 9.918604769230759e+00
0	 1.687500000000001e+00	 7.562500000000000e+00	 9.921623785384609e+00
0	 1.687500000000000e+00	 7.624999999999999e+00	 9.924699556923075e+00
0	 1.687500000000000e+00	 7.687499999999998e+00	 9.927832083846152e+00
0	 1.687500000000000e+00	 7.750000000000000e+00	 9.931021366153839e+00
0	 1.687500000000001e+00	 7.812500000000000e+00	 9.934267403846151e+00
0	 1.687500000000000e+00	 7.874999999999998e+00	 9.937570196923090e+00
0	 1.687500000000000e+00	 7.937500000000000e+00	 9.940929745384594e+00
0	 1.687500000000000e+00	 7.999999999999998e+00	 9.944346049230790e+00
0	 1.687500000000000e+00	 8.062500000000000e+00	 9.947819108461534e+00
0	 1.687500000000000e+00	 8.125000000000000e+00	 9.951348923076907e+00
0	 1.750000000000000e+00	 7.500000000000000e+00	 9.922411015384611e+00
0	 1.750000000000000e+00	 7.562499999999999e+00	 9.925286387692305e+00
0	 1.750000000000001e+00	 7.624999999999999e+00	 9.928215409230766e+00
0	 1.750000000000000e+00	 7.687500000000000e+00	 9.931198079999982e+00
0	 1.750000000000000e+00	 7.749999999999999e+00	 9.934234399999999e+00
0	 1.750000000000000e+00	 7.812499999999999e+00	 9.937324369230764e+00
0	 1.750000000000001e+00	 7.874999999999998e+00	 9.940467987692310e+00
0	 1.750000000000000e+00	 7.937499999999998e+00	 9.943665255384637e+00
0	 1.750000000000000e+00	 7.999999999999998e+00	 9.946916172307690e+00
0	 1.750000000000000e+00	 8.062499999999996e+00	 9.950220738461530e+00
0	 1.750000000000000e+00	 8.125000000000000e+00	 9.953578953846149e+00
0	 1.812500000000001e+00	 7.500000000000000e+00	 9.926337015384608e+00
0	 1.812500000000000e+00	 7.562499999999998e+00	 9.929066180769224e+00
0	 1.812500000000001e+00	 7.625000000000000e+00	 9.931845889230763e+00
0	 1.812500000000000e+00	 7.687500000000000e+00	 9.934676140769232e+00
0	 1.812500000000000e+00	 7.750000000000000e+00	 9.937556935384613e+00
0	 1.812500000000000e+00	 7.812499999999998e+00	 9.940488273076914e+00
0	 1.812500000000001e+00	 7.874999999999998e+00	 9.943470153846153e+00
0	 1.812500000000000e+00	 7.937499999999998e+00	 9.946502577692312e+00
0	 1.812500000000001e+00	 7.999999999999999e+00	 9.949585544615376e+00
0	 1.812500000000000e+00	 8.062499999999998e+00	 9.952719054615370e+00
0	 1.812500000000001e+00	 8.125000000000000e+00	 9.955903107692322e+00
0	 1.875000000000000e+00	 7.500000000000000e+00	 9.930382769230759e+00
0	 1.875000000000000e+00	 7.562500000000000e+00	 9.932963164615387e+00
0	 1.875000000000000e+00	 7.625000000000000e+00	 9.935590996923080e+00
0	 1.875000000000000e+00	 7.687499999999999e+00	 9.938266266153843e+00
0	 1.875000000000000e+00	 7.750000000000000e+00	 9.940988972307695e+00
0	 1.875000000000000e+00	 7.812499999999999e+00	 9.943759115384600e+00
0	 1.875000000000000e+00	 7.874999999999998e+00	 9.946576695384607e+00
0	 1.875000000000000e+00	 7.937499999999997e+00	 9.949441712307694e+00
0	 1.875000000000000e+00	 7.999999999999998e+00	 9.952354166153849e+00
0	 1.875000000000000e+00	 8.062499999999996e+00	 9.955314056923077e+00
0	 1.875000000000000e+00	 8.125000000000000e+00	 9.958321384615388e+00
0	 1.250000000000000e+00	 8.125000000000000e+00	 9.938374153846160e+00
0	 1.250000000000000e+00	 8.187500000000000e+00	 9.941240572307688e+00
0	 1.250000000000000e+00	 8.250000000000002e+00	 9.944212073846140e+00
0	 1.250000000000000e+00	 8.312500000000000e+00	 9.947288658461545e+00
0	 1.250000000000000e+00	 8.374999999999998e+00	 9.950470326153843e+00
0	 1.250000000000000e+00	 8.437500000000000e+00	 9.953757076923081e+00
0	 1.250000000000000e+00	 8.500000000000000e+00	 9.957148910769241e+00
0	 1.250000000000000e+00	 8.562499999999998e+00	 9.960645827692311e+00
0	 1.250000000000000e+00	 8.625000000000000e+00	 9.964247827692311e+00
0	 1.250000000000000e+00	 8.687499999999998e+00	 9.967954910769214e+00
0	 1.250000000000000e+00	 8.750000000000000e+00	 9.971767076923081e+00
0	 1.312500000000000e+00	 8.125000000000002e+00	 9.939945323076943e+00
0	 1.312500000000000e+00	 8.187499999999998e+00	 9.942729017692317e+00
0	 1.312500000000000e+00	 8.250000000000000e+00	 9.945614218461538e+00
0	 1.312500000000000e+00	 8.312499999999996e+00	 9.948600925384611e+00
0	 1.312500000000000e+00	 8.374999999999998e+00	 9.951689138461541e+00
0	 1.312500000000000e+00	 8.437499999999996e+00	 9.954878857692307e+00
0	 1.312500000000000e+00	 8.500000000000002e+00	 9.958170083076922e+00
0	 1.312500000000000e+00	 8.562499999999998e+00	 9.961562814615373e+00
0	 1.312500000000000e+00	 8.624999999999998e+00	 9.965057052307715e+00
0	 1.312500000000000e+00	 8.687499999999996e+00	 9.968652796153847e+00
0	 1.312500000000000e+00	 8.750000000000002e+00	 9.972350046153860e+00
0	 1.375000000000000e+00	 8.125000000000000e+00	 9.941610615384608e+00
0	 1.375000000000000e+00	 8.187499999999996e+00	 9.944309389230781e+00
0	 1.375000000000000e+00	 8.250000000000000e+00	 9.947106092307717e+00
0	 1.375000000000000e+00	 8.312500000000002e+00	 9.950000724615398e+00
0	 1.375000000000000e+00	 8.375000000000000e+00	 9.952993286153845e+00
0	 1.375000000000000e+00	 8.437500000000000e+00	 9.956083776923084e+00
0	 1.375000000000000e+00	 8.499999999999996e+00	 9.959272196923088e+00
0	 1.375000000000000e+00	 8.562500000000000e+00	 9.962558546153845e+00
0	 1.375000000000000e+00	 8.624999999999998e+00	 9.965942824615386e+00
0	 1.375000000000000e+00	 8.687499999999998e+00	 9.969425032307701e+00
0	 1.375000000000000e+00	 8.749999999999998e+00	 9.973005169230797e+00
0	 1.437500000000000e+00	 8.124999999999998e+00	 9.943370030769236e+00
0	 1.437500000000000e+00	 8.187499999999998e+00	 9.945981686923085e+00
0	 1.437500000000000e+00	 8.250000000000002e+00	 9.948687695384617e+00
0	 1.437500000000000e+00	 8.312500000000000e+00	 9.951488056153849e+00
0	 1.437500000000000e+00	 8.374999999999998e+00	 9.954382769230765e+00
0	 1.437500000000000e+00	 8.437499999999998e+00	 9.957371834615376e+00
0	 1.437500000000000e+00	 8.500000000000000e+00	 9.960455252307689e+00
0	 1.437500000000000e+00	 8.562499999999998e+00	 9.963633022307690e+00
0	 1.437500000000000e+00	 8.624999999999998e+00	 9.966905144615405e+00
0	 1.437500000000000e+00	 8.687499999999996e+00	 9.970271619230777e+00
0	 1.437500000000000e+00	 8.750000000000000e+00	 9.973732446153832e+00
0	 1.500000000000000e+00	 8.125000000000002e+00	 9.945223569230761e+00
0	 1.500000000000001e+00	 8.187500000000002e+00	 9.947745910769209e+00
0	 1.500000000000000e+00	 8.250000000000000e+00	 9.950359027692308e+00
0	 1.500000000000000e+00	 8.312500000000000e+00	 9.953062920000017e+00
0	 1.500000000000000e+00	 8.375000000000000e+00	 9.955857587692313e+00
0	 1.500000000000000e+00	 8.437499999999998e+00	 9.958743030769227e+00
0	 1.500000000000000e+00	 8.500000000000000e+00	 9.961719249230793e+00
0	 1.500000000000000e+00	 8.562499999999998e+00	 9.964786243076931e+00
0	 1.500000000000000e+00	 8.624999999999998e+00	 9.967944012307694e+00
0	 1.500000000000000e+00	 8.687499999999998e+00	 9.971192556923082e+00
0	 1.500000000000000e+00	 8.750000000000000e+00	 9.974531876923111e+00
0	 1.562500000000000e+00	 8.125000000000000e+00	 9.947171230769223e+00
0	 1.562500000000001e+00	 8.187500000000000e+00	 9.949602060769230e+00
0	 1.562500000000000e+00	 8.250000000000000e+00	 9.952120089230771e+00
0	 1.562500000000000e+00	 8.312500000000000e+00	 9.954725316153835e+00
0	 1.562500000000000e+00	 8.374999999999998e+00	 9.957417741538446e+00
0	 1.562500000000000e+00	 8.437500000000002e+00	 9.960197365384602e+00
0	 1.562500000000000e+00	 8.500000000000000e+00	 9.963064187692300e+00
0	 1.562500000000000e+00	 8.562500000000000e+00	 9.966018208461541e+00
0	 1.562500000000000e+00	 8.625000000000000e+00	 9.969059427692306e+00
0	 1.562500000000000e+00	 8.687499999999998e+00	 9.972187845384610e+00
0	 1.562500000000000e+00	 8.750000000000002e+00	 9.975403461538475e+00
0	 1.625000000000000e+00	 8.125000000000000e+00	 9.949213015384627e+00
0	 1.625000000000000e+00	 8.187500000000002e+00	 9.951550136923080e+00
0	 1.625000000000000e+00	 8.250000000000000e+00	 9.953970880000016e+00
0	 1.625000000000000e+00	 8.312499999999998e+00	 9.956475244615387e+00
0	 1.625000000000000e+00	 8.375000000000000e+00	 9.959063230769228e+00
0	 1.625000000000000e+00	 8.437500000000000e+00	 9.961734838461544e+00
0	 1.625000000000000e+00	 8.500000000000000e+00	 9.964490067692314e+00
0	 1.625000000000000e+00	 8.562499999999998e+00	 9.967328918461540e+00
0	 1.625000000000000e+00	 8.624999999999998e+00	 9.970251390769237e+00
0	 1.625000000000000e+00	 8.687499999999998e+00	 9.973257484615372e+00
0	 1.625000000000000e+00	 8.750000000000000e+00	 9.976347199999978e+00
0	 1.687500000000000e+00	 8.125000000000000e+00	 9.951348923076907e+00
0	 1.687500000000001e+00	 8.187500000000000e+00	 9.953590139230752e+00
0	 1.687500000000000e+00	 8.249999999999998e+00	 9.955911399999987e+00
0	 1.687500000000000e+00	 8.312500000000000e+00	 9.958312705384618e+00
0	 1.687500000000000e+00	 8.374999999999998e+00	 9.960794055384611e+00
0	 1.687500000000001e+00	 8.437500000000000e+00	 9.963355450000011e+00
0	 1.687500000000000e+00	 8.499999999999998e+00	 9.965996889230793e+00
0	 1.687500000000000e+00	 8.562500000000000e+00	 9.968718373076928e+00
0	 1.687500000000000e+00	 8.624999999999998e+00	 9.971519901538482e+00
0	 1.687500000000000e+00	 8.687500000000000e+00	 9.974401474615391e+00
0	 1.687500000000000e+00	 8.750000000000000e+00	 9.977363092307698e+00
0	 1.750000000000000e+00	 8.125000000000000e+00	 9.953578953846149e+00
0	 1.750000000000000e+00	 8.187500000000000e+00	 9.955722067692317e+00
0	 1.750000000000001e+00	 8.250000000000000e+00	 9.957941649230762e+00
0	 1.750000000000000e+00	 8.312499999999998e+00	 9.960237698461553e+00
0	 1.750000000000000e+00	 8.375000000000000e+00	 9.962610215384622e+00
0	 1.750000000000000e+00	 8.437500000000000e+00	 9.965059200000006e+00
0	 1.750000000000001e+00	 8.499999999999998e+00	 9.967584652307711e+00
0	 1.750000000000000e+00	 8.562499999999998e+00	 9.970186572307695e+00
0	 1.750000000000000e+00	 8.624999999999998e+00	 9.972864960000010e+00
0	 1.750000000000000e+00	 8.687499999999998e+00	 9.975619815384595e+00
0	 1.750000000000000e+00	 8.750000000000000e+00	 9.978451138461530e+00
0	 1.812500000000001e+00	 8.125000000000000e+00	 9.955903107692322e+00
0	 1.812500000000000e+00	 8.187499999999998e+00	 9.957945922307694e+00
0	 1.812500000000001e+00	 8.250000000000000e+00	 9.960061627692319e+00
0	 1.812500000000000e+00	 8.312499999999998e+00	 9.962250223846160e+00
0	 1.812500000000000e+00	 8.375000000000000e+00	 9.964511710769235e+00
0	 1.812500000000000e+00	 8.437499999999998e+00	 9.966846088461544e+00
0	 1.812500000000001e+00	 8.499999999999998e+00	 9.969253356923074e+00
0	 1.812500000000000e+00	 8.562499999999998e+00	 9.971733516153851e+00
0	 1.812500000000001e+00	 8.624999999999998e+00	 9.974286566153872e+00
0	 1.812500000000000e+00	 8.687500000000000e+00	 9.976912506923091e+00
0	 1.812500000000001e+00	 8.750000000000000e+00	 9.979611338461545e+00
0	 1.875000000000000e+00	 8.125000000000000e+00	 9.958321384615388e+00
0	 1.875000000000000e+00	 8.187500000000000e+00	 9.960261703076920e+00
0	 1.875000000000000e+00	 8.250000000000002e+00	 9.962271335384600e+00
0	 1.875000000000000e+00	 8.312500000000000e+00	 9.964350281538469e+00
0	 1.875000000000000e+00	 8.374999999999998e+00	 9.966498541538469e+00
0	 1.875000000000000e+00	 8.437500000000000e+00	 9.968716115384620e+00
0	 1.875000000000000e+00	 8.500000000000000e+00	 9.971003003076929e+00
0	 1.875000000000000e+00	 8.562499999999998e+00	 9.973359204615384e+00
0	 1.875000000000000e+00	 8.625000000000000e+00	 9.975784720000004e+00
0	 1.875000000000000e+00	 8.687499999999998e+00	 9.978279549230772e+00
0	 1.875000000000000e+00	 8.750000000000000e+00	 9.980843692307701e+00
0	 1.250000000000000e+00	 8.750000000000000e+00	 9.971767076923081e+00
0	 1.250000000000000e+00	 8.812500000000000e+00	 9.973428630769241e+00
0	 1.250000000000000e+00	 8.875000000000002e+00	 9.975232800000027e+00
0	 1.250000000000000e+00	 8.937499999999998e+00	 9.977179584615383e+00
0	 1.250000000000000e+00	 9.000000000000000e+00	 9.979268984615391e+00
0	 1.250000000000000e+00	 9.062500000000000e+00	 9.981500999999987e+00
0	 1.250000000000000e+00	 9.124999999999998e+00	 9.983875630769223e+00
0	 1.250000000000000e+00	 9.187499999999998e+00	 9.986392876923063e+00
0	 1.250000000000000e+00	 9.249999999999998e+00	 9.989052738461536e+00
0	 1.250000000000000e+00	 9.312499999999998e+00	 9.991855215384620e+00
0	 1.250000000000000e+00	 9.375000000000000e+00	 9.994800307692307e+00
0	 1.312500000000000e+00	 8.750000000000002e+00	 9.972350046153860e+00
0	 1.312500000000000e+00	 8.812499999999996e+00	 9.973960290923067e+00
0	 1.312500000000000e+00	 8.874999999999998e+00	 9.975708809846141e+00
0	 1.312500000000000e+00	 8.937499999999998e+00	 9.977595602923081e+00
0	 1.312500000000000e+00	 8.999999999999998e+00	 9.979620670153849e+00
0	 1.312500000000000e+00	 9.062499999999996e+00	 9.981784011538458e+00
0	 1.312500000000000e+00	 9.124999999999998e+00	 9.984085627076922e+00
0	 1.312500000000000e+00	 9.187499999999996e+00	 9.986525516769220e+00
0	 1.312500000000000e+00	 9.249999999999998e+00	 9.989103680615399e+00
0	 1.312500000000000e+00	 9.312499999999998e+00	 9.991820118615399e+00
0	 1.312500000000000e+00	 9.375000000000000e+00	 9.994674830769227e+00
0	 1.375000000000000e+00	 8.749999999999998e+00	 9.973005169230797e+00
0	 1.375000000000000e+00	 8.812499999999998e+00	 9.974563501846145e+00
0	 1.375000000000000e+00	 8.875000000000002e+00	 9.976255767384604e+00
0	 1.375000000000000e+00	 8.937499999999998e+00	 9.978081965846163e+00
0	 1.375000000000000e+00	 8.999999999999998e+00	 9.980042097230763e+00
0	 1.375000000000000e+00	 9.062499999999998e+00	 9.982136161538463e+00
0	 1.375000000000000e+00	 9.125000000000000e+00	 9.984364158769242e+00
0	 1.375000000000000e+00	 9.187499999999998e+00	 9.986726088923069e+00
0	 1.375000000000000e+00	 9.249999999999996e+00	 9.989221951999999e+00
0	 1.375000000000000e+00	 9.312499999999996e+00	 9.991851747999995e+00
0	 1.375000000000000e+00	 9.375000000000000e+00	 9.994615476923064e+00
0	 1.437500000000000e+00	 8.750000000000000e+00	 9.973732446153832e+00
0	 1.437500000000000e+00	 8.812499999999998e+00	 9.975238263538465e+00
0	 1.437500000000000e+00	 8.875000000000000e+00	 9.976873672615380e+00
0	 1.437500000000000e+00	 8.937500000000002e+00	 9.978638673384618e+00
0	 1.437500000000000e+00	 8.999999999999996e+00	 9.980533265846162e+00
0	 1.437500000000000e+00	 9.062499999999998e+00	 9.982557449999996e+00
0	 1.437500000000000e+00	 9.124999999999998e+00	 9.984711225846146e+00
0	 1.437500000000000e+00	 9.187499999999998e+00	 9.986994593384606e+00
0	 1.437500000000000e+00	 9.249999999999998e+00	 9.989407552615393e+00
0	 1.437500000000000e+00	 9.312499999999998e+00	 9.991950103538464e+00
0	 1.437500000000000e+00	 9.375000000000002e+00	 9.994622246153863e+00
0	 1.500000000000000e+00	 8.750000000000000e+00	 9.974531876923111e+00
0	 1.500000000000001e+00	 8.812500000000004e+00	 9.975984576000016e+00
0	 1.500000000000000e+00	 8.875000000000000e+00	 9.977562525538477e+00
0	 1.500000000000000e+00	 8.937500000000000e+00	 9.979265725538466e+00
0	 1.500000000000000e+00	 9.000000000000000e+00	 9.981094176000013e+00
0	 1.500000000000000e+00	 9.062499999999998e+00	 9.983047876923074e+00
0	 1.500000000000000e+00	 9.125000000000000e+00	 9.985126828307692e+00
0	 1.500000000000000e+00	 9.187499999999998e+00	 9.987331030153854e+00
0	 1.500000000000000e+00	 9.250000000000000e+00	 9.989660482461549e+00
0	 1.500000000000000e+00	 9.312499999999998e+00	 9.992115185230777e+00
0	 1.500000000000000e+00	 9.375000000000002e+00	 9.994695138461532e+00
0	 1.562500000000000e+00	 8.750000000000002e+00	 9.975403461538475e+00
0	 1.562500000000001e+00	 8.812500000000000e+00	 9.976802439230774e+00
0	 1.562500000000000e+00	 8.874999999999998e+00	 9.978322326153837e+00
0	 1.562500000000000e+00	 8.937500000000000e+00	 9.979963122307691e+00
0	 1.562500000000000e+00	 8.999999999999998e+00	 9.981724827692307e+00
0	 1.562500000000000e+00	 9.062500000000002e+00	 9.983607442307704e+00
0	 1.562500000000000e+00	 9.124999999999998e+00	 9.985610966153837e+00
0	 1.562500000000000e+00	 9.187499999999998e+00	 9.987735399230772e+00
0	 1.562500000000000e+00	 9.249999999999998e+00	 9.989980741538432e+00
0	 1.562500000000000e+00	 9.312499999999998e+00	 9.992346993076914e+00
0	 1.562500000000000e+00	 9.375000000000002e+00	 9.994834153846135e+00
0	 1.625000000000000e+00	 8.750000000000000e+00	 9.976347199999978e+00
0	 1.625000000000000e+00	 8.812500000000000e+00	 9.977691853230780e+00
0	 1.625000000000000e+00	 8.874999999999998e+00	 9.979153074461545e+00
0	 1.625000000000000e+00	 8.937499999999998e+00	 9.980730863692314e+00
0	 1.625000000000000e+00	 9.000000000000000e+00	 9.982425220923073e+00
0	 1.625000000000000e+00	 9.062500000000000e+00	 9.984236146153837e+00
0	 1.625000000000000e+00	 9.124999999999998e+00	 9.986163639384614e+00
0	 1.625000000000000e+00	 9.187499999999998e+00	 9.988207700615378e+00
0	 1.625000000000000e+00	 9.249999999999998e+00	 9.990368329846152e+00
0	 1.625000000000000e+00	 9.312499999999998e+00	 9.992645527076938e+00
0	 1.625000000000000e+00	 9.374999999999998e+00	 9.995039292307711e+00
0	 1.687500000000000e+00	 8.750000000000000e+00	 9.977363092307698e+00
0	 1.687500000000001e+00	 8.812500000000000e+00	 9.978652818000000e+00
0	 1.687500000000000e+00	 8.875000000000000e+00	 9.980054770461546e+00
0	 1.687500000000000e+00	 8.937499999999998e+00	 9.981568949692297e+00
0	 1.687500000000000e+00	 8.999999999999998e+00	 9.983195355692319e+00
0	 1.687500000000001e+00	 9.062499999999998e+00	 9.984933988461535e+00
0	 1.687500000000000e+00	 9.124999999999998e+00	 9.986784847999976e+00
0	 1.687500000000000e+00	 9.187500000000000e+00	 9.988747934307691e+00
0	 1.687500000000000e+00	 9.249999999999998e+00	 9.990823247384618e+00
0	 1.687500000000000e+00	 9.312500000000000e+00	 9.993010787230768e+00
0	 1.687500000000000e+00	 9.375000000000000e+00	 9.995310553846149e+00
0	 1.750000000000000e+00	 8.750000000000000e+00	 9.978451138461530e+00
0	 1.750000000000000e+00	 8.812500000000000e+00	 9.979685333538487e+00
0	 1.750000000000001e+00	 8.874999999999998e+00	 9.981027414153836e+00
0	 1.750000000000000e+00	 8.937500000000000e+00	 9.982477380307696e+00
0	 1.750000000000000e+00	 9.000000000000002e+00	 9.984035231999993e+00
0	 1.750000000000000e+00	 9.062499999999998e+00	 9.985700969230770e+00
0	 1.750000000000001e+00	 9.124999999999998e+00	 9.987474591999995e+00
0	 1.750000000000000e+00	 9.187499999999996e+00	 9.989356100307678e+00
0	 1.750000000000000e+00	 9.250000000000000e+00	 9.991345494153839e+00
0	 1.750000000000000e+00	 9.312499999999996e+00	 9.993442773538424e+00
0	 1.750000000000000e+00	 9.375000000000000e+00	 9.995647938461527e+00
0	 1.812500000000001e+00	 8.750000000000000e+00	 9.979611338461545e+00
0	 1.812500000000000e+00	 8.812499999999998e+00	 9.980789399846174e+00
0	 1.812500000000001e+00	 8.875000000000000e+00	 9.982071005538479e+00
0	 1.812500000000000e+00	 8.937499999999998e+00	 9.983456155538457e+00
0	 1.812500000000000e+00	 9.000000000000000e+00	 9.984944849846158e+00
0	 1.812500000000000e+00	 9.062499999999998e+00	 9.986537088461539e+00
0	 1.812500000000001e+00	 9.124999999999998e+00	 9.988232871384628e+00
0	 1.812500000000000e+00	 9.187499999999998e+00	 9.990032198615372e+00
0	 1.812500000000001e+00	 9.249999999999998e+00	 9.991935070153829e+00
0	 1.812500000000000e+00	 9.312499999999998e+00	 9.993941486000017e+00
0	 1.812500000000001e+00	 9.375000000000000e+00	 9.996051446153844e+00
0	 1.875000000000000e+00	 8.750000000000000e+00	 9.980843692307701e+00
0	 1.875000000000000e+00	 8.812500000000000e+00	 9.981965016923084e+00
0	 1.875000000000000e+00	 8.875000000000002e+00	 9.983185544615399e+00
0	 1.875000000000000e+00	 8.937499999999998e+00	 9.984505275384604e+00
0	 1.875000000000000e+00	 9.000000000000000e+00	 9.985924209230776e+00
0	 1.875000000000000e+00	 9.062500000000000e+00	 9.987442346153840e+00
0	 1.875000000000000e+00	 9.124999999999998e+00	 9.989059686153844e+00
0	 1.875000000000000e+00	 9.187499999999998e+00	 9.990776229230756e+00
0	 1.875000000000000e+00	 9.249999999999998e+00	 9.992591975384597e+00
0	 1.875000000000000e+00	 9.312499999999998e+00	 9.994506924615354e+00
0	 1.875000000000000e+00	 9.375000000000000e+00	 9.996521076923070e+00
0	 1.250000000000000e+00	 9.375000000000000e+00	 9.994800307692307e+00
0	 1.250000000000000e+00	 9.437499999999998e+00	 9.994813787692296e+00
0	 1.250000000000000e+00	 9.500000000000000e+00	 9.995028812307698e+00
0	 1.250000000000000e+00	 9.562500000000000e+00	 9.995445381538456e+00
0	 1.250000000000000e+00	 9.625000000000000e+00	 9.996063495384623e+00
0	 1.250000000000000e+00	 9.687499999999998e+00	 9.996883153846152e+00
0	 1.250000000000000e+00	 9.749999999999998e+00	 9.997904356923051e+00
0	 1.250000000000000e+00	 9.812500000000000e+00	 9.999127104615379e+00
0	 1.250000000000000e+00	 9.875000000000000e+00	 1.000055139692310e+01
0	 1.250000000000000e+00	 9.937499999999998e+00	 1.000217723384615e+01
0	 1.250000000000000e+00	 1.000000000000000e+01	 1.000400461538461e+01
0	 1.312500000000000e+00	 9.375000000000000e+00	 9.994674830769227e+00
0	 1.312500000000000e+00	 9.437499999999998e+00	 9.994680972461516e+00
0	 1.312500000000000e+00	 9.500000000000000e+00	 9.994882231384601e+00
0	 1.312500000000000e+00	 9.562500000000000e+00	 9.995278607538483e+00
0	 1.312500000000000e+00	 9.625000000000000e+00	 9.995870100923071e+00
0	 1.312500000000000e+00	 9.687499999999996e+00	 9.996656711538478e+00
0	 1.312500000000000e+00	 9.749999999999998e+00	 9.997638439384616e+00
0	 1.312500000000000e+00	 9.812500000000000e+00	 9.998815284461561e+00
0	 1.312500000000000e+00	 9.874999999999998e+00	 1.000018724676922e+01
0	 1.312500000000000e+00	 9.937499999999996e+00	 1.000175432630771e+01
0	 1.312500000000000e+00	 1.000000000000000e+01	 1.000351652307695e+01
0	 1.375000000000000e+00	 9.375000000000000e+00	 9.994615476923064e+00
0	 1.375000000000000e+00	 9.437499999999998e+00	 9.994615637230769e+00
0	 1.375000000000000e+00	 9.499999999999998e+00	 9.994804487384616e+00
0	 1.375000000000000e+00	 9.562500000000000e+00	 9.995182027384608e+00
0	 1.375000000000000e+00	 9.624999999999998e+00	 9.995748257230773e+00
0	 1.375000000000000e+00	 9.687499999999998e+00	 9.996503176923071e+00
0	 1.375000000000000e+00	 9.750000000000000e+00	 9.997446786461541e+00
0	 1.375000000000000e+00	 9.812499999999998e+00	 9.998579085846147e+00
0	 1.375000000000000e+00	 9.874999999999996e+00	 9.999900075076926e+00
0	 1.375000000000000e+00	 9.937499999999998e+00	 1.000140975415380e+01
0	 1.375000000000000e+00	 1.000000000000000e+01	 1.000310812307691e+01
0	 1.437500000000000e+00	 9.375000000000002e+00	 9.994622246153863e+00
0	 1.437500000000000e+00	 9.437500000000000e+00	 9.994617781999986e+00
0	 1.437500000000000e+00	 9.499999999999998e+00	 9.994795580307676e+00
0	 1.437500000000000e+00	 9.562499999999998e+00	 9.995155641076918e+00
0	 1.437500000000000e+00	 9.624999999999998e+00	 9.995697964307679e+00
0	 1.437500000000000e+00	 9.687499999999998e+00	 9.996422550000025e+00
0	 1.437500000000000e+00	 9.749999999999996e+00	 9.997329398153866e+00
0	 1.437500000000000e+00	 9.812499999999996e+00	 9.998418508769214e+00
0	 1.437500000000000e+00	 9.875000000000000e+00	 9.999689881846203e+00
0	 1.437500000000000e+00	 9.937499999999998e+00	 1.000114351738467e+01
0	 1.437500000000000e+00	 1.000000000000000e+01	 1.000277941538467e+01
0	 1.500000000000000e+00	 9.375000000000002e+00	 9.994695138461532e+00
0	 1.500000000000000e+00	 9.437500000000000e+00	 9.994687406769236e+00
0	 1.500000000000000e+00	 9.499999999999998e+00	 9.994855510153847e+00
0	 1.500000000000000e+00	 9.562500000000000e+00	 9.995199448615370e+00
0	 1.500000000000001e+00	 9.625000000000002e+00	 9.995719222153854e+00
0	 1.500000000000000e+00	 9.687500000000000e+00	 9.996414830769233e+00
0	 1.500000000000000e+00	 9.750000000000000e+00	 9.997286274461494e+00
0	 1.500000000000001e+00	 9.812500000000002e+00	 9.998333553230770e+00
0	 1.500000000000000e+00	 9.874999999999998e+00	 9.999556667076934e+00
0	 1.500000000000000e+00	 9.937499999999996e+00	 1.000095561600002e+01
0	 1.500000000000000e+00	 1.000000000000000e+01	 1.000253039999993e+01
0	 1.562500000000000e+00	 9.375000000000002e+00	 9.994834153846135e+00
0	 1.562500000000000e+00	 9.437499999999998e+00	 9.994824511538461e+00
0	 1.562500000000000e+00	 9.499999999999996e+00	 9.994984276923063e+00
0	 1.562500000000000e+00	 9.562500000000000e+00	 9.995313450000005e+00
0	 1.562500000000000e+00	 9.624999999999998e+00	 9.995812030769223e+00
0	 1.562500000000000e+00	 9.687499999999998e+00	 9.996480019230813e+00
0	 1.562500000000000e+00	 9.749999999999998e+00	 9.997317415384646e+00
0	 1.562500000000000e+00	 9.812499999999998e+00	 9.998324219230792e+00
0	 1.562500000000000e+00	 9.874999999999998e+00	 9.999500430769235e+00
0	 1.562500000000000e+00	 9.937499999999998e+00	 1.000084605000001e+01
0	 1.562500000000000e+00	 1.000000000000000e+01	 1.000236107692312e+01
0	 1.625000000000000e+00	 9.374999999999998e+00	 9.995039292307711e+00
0	 1.625000000000000e+00	 9.437500000000002e+00	 9.995029096307682e+00
0	 1.625000000000000e+00	 9.499999999999998e+00	 9.995181880615380e+00
0	 1.625000000000000e+00	 9.562499999999998e+00	 9.995497645230770e+00
0	 1.625000000000000e+00	 9.624999999999998e+00	 9.995976390153841e+00
0	 1.625000000000001e+00	 9.687499999999998e+00	 9.996618115384608e+00
0	 1.625000000000000e+00	 9.750000000000000e+00	 9.997422820923067e+00
0	 1.625000000000000e+00	 9.812499999999998e+00	 9.998390506769262e+00
0	 1.625000000000000e+00	 9.875000000000000e+00	 9.999521172923092e+00
0	 1.625000000000000e+00	 9.937500000000000e+00	 1.000081481938459e+01
0	 1.625000000000000e+00	 1.000000000000000e+01	 1.000227144615392e+01
0	 1.687500000000000e+00	 9.375000000000000e+00	 9.995310553846149e+00
0	 1.687500000000001e+00	 9.437500000000002e+00	 9.995301161076913e+00
0	 1.687500000000000e+00	 9.500000000000000e+00	 9.995448321230757e+00
0	 1.687500000000000e+00	 9.562500000000000e+00	 9.995752034307682e+00
0	 1.687500000000000e+00	 9.624999999999998e+00	 9.996212300307690e+00
0	 1.687500000000000e+00	 9.687500000000000e+00	 9.996829119230757e+00
0	 1.687500000000000e+00	 9.750000000000000e+00	 9.997602491076922e+00
0	 1.687500000000001e+00	 9.812500000000000e+00	 9.998532415846178e+00
0	 1.687500000000000e+00	 9.874999999999996e+00	 9.999618893538466e+00
0	 1.687500000000000e+00	 9.937499999999998e+00	 1.000086192415386e+01
0	 1.687500000000000e+00	 1.000000000000000e+01	 1.000226150769229e+01
0	 1.750000000000000e+00	 9.375000000000000e+00	 9.995647938461527e+00
0	 1.750000000000000e+00	 9.437499999999998e+00	 9.995640705846139e+00
0	 1.750000000000001e+00	 9.500000000000000e+00	 9.995783598769201e+00
0	 1.750000000000001e+00	 9.562500000000000e+00	 9.996076617230772e+00
0	 1.750000000000001e+00	 9.625000000000000e+00	 9.996519761230791e+00
0	 1.750000000000000e+00	 9.687499999999998e+00	 9.997113030769212e+00
0	 1.750000000000001e+00	 9.749999999999998e+00	 9.997856425846148e+00
0	 1.750000000000000e+00	 9.812500000000000e+00	 9.998749946461549e+00
0	 1.750000000000001e+00	 9.874999999999998e+00	 9.999793592615362e+00
0	 1.750000000000000e+00	 9.937499999999998e+00	 1.000098736430768e+01
0	 1.750000000000000e+00	 1.000000000000000e+01	 1.000233126153849e+01
0	 1.812500000000001e+00	 9.375000000000000e+00	 9.996051446153844e+00
0	 1.812500000000000e+00	 9.437499999999998e+00	 9.996047730615377e+00
0	 1.812500000000000e+00	 9.500000000000000e+00	 9.996187713230771e+00
0	 1.812500000000000e+00	 9.562500000000000e+00	 9.996471393999997e+00
0	 1.812500000000000e+00	 9.624999999999996e+00	 9.996898772923082e+00
0	 1.812500000000000e+00	 9.687499999999998e+00	 9.997469850000019e+00
0	 1.812500000000001e+00	 9.750000000000000e+00	 9.998184625230810e+00
0	 1.812500000000000e+00	 9.812500000000000e+00	 9.999043098615450e+00
0	 1.812500000000000e+00	 9.874999999999998e+00	 1.000004527015384e+01
0	 1.812500000000000e+00	 9.937499999999996e+00	 1.000119113984611e+01
0	 1.812500000000000e+00	 1.000000000000000e+01	 1.000248070769229e+01
0	 1.875000000000000e+00	 9.375000000000000e+00	 9.996521076923070e+00
0	 1.875000000000000e+00	 9.437499999999998e+00	 9.996522235384610e+00
0	 1.875000000000000e+00	 9.500000000000000e+00	 9.996660664615369e+00
0	 1.875000000000000e+00	 9.562500000000000e+00	 9.996936364615383e+00
0	 1.875000000000000e+00	 9.625000000000000e+00	 9.997349335384603e+00
0	 1.875000000000000e+00	 9.687499999999998e+00	 9.997899576923082e+00
0	 1.875000000000000e+00	 9.749999999999998e+00	 9.998587089230760e+00
0	 1.875000000000000e+00	 9.812500000000000e+00	 9.999411872307666e+00
0	 1.875000000000000e+00	 9.875000000000000e+00	 1.000037392615385e+01
0	 1.875000000000000e+00	 9.937499999999998e+00	 1.000147325076923e+01
0	 1.875000000000000e+00	 1.000000000000000e+01	 1.000270984615385e+01
0	 1.875000000000000e+00	 0.000000000000000e+00	 8.559683076923076e+00
0	 1.875000000000000e+00	 6.250000000000000e-02	 9.303215718461537e+00
0	 1.875000000000000e+00	 1.250000000000000e-01	 9.992725827692306e+00
0	 1.875000000000000e+00	 1.875000000000000e-01	 1.062821340461539e+01
0	 1.875000000000000e+00	 2.500000000000000e-01	 1.120967844923077e+01
0	 1.875000000000000e+00	 3.125000000000000e-01	 1.173712096153846e+01
0	 1.875000000000000e+00	 3.750000000000000e-01	 1.221054094153846e+01
0	 1.875000000000000e+00	 4.374999999999999e-01	 1.262993838923077e+01
0	 1.875000000000000e+00	 5.000000000000000e-01	 1.299531330461538e+01
0	 1.875000000000000e+00	 5.624999999999999e-01	 1.330666568769231e+01
0	 1.875000000000000e+00	 6.250000000000000e-01	 1.356399553846154e+01
0	 1.937500000000000e+00	 0.000000000000000e+00	 9.159384310769230e+00
0	 1.937500000000000e+00	 6.250000000000000e-02	 9.757168573846153e+00
0	 1.937499999999999e+00	 1.250000000000000e-01	 1.030652082861539e+01
0	 1.937500000000000e+00	 1.875000000000000e-01	 1.080744107507692e+01
0	 1.937500000000000e+00	 2.500000000000001e-01	 1.125992931323077e+01
0	 1.937500000000000e+00	 3.125000000000001e-01	 1.166398554307693e+01
0	 1.937500000000000e+00	 3.749999999999999e-01	 1.201960976461538e+01
0	 1.937500000000000e+00	 4.375000000000000e-01	 1.232680197784615e+01
0	 1.937500000000000e+00	 5.000000000000000e-01	 1.258556218276923e+01
0	 1.937500000000000e+00	 5.624999999999999e-01	 1.279589037938461e+01
0	 1.937500000000000e+00	 6.249999999999999e-01	 1.295778656769231e+01
0	 2.000000000000000e+00	 0.000000000000000e+00	 9.703312689230767e+00
0	 2.000000000000000e+00	 6.250000000000000e-02	 1.016891132369231e+01
0	 2.000000000000000e+00	 1.250000000000000e-01	 1.059166847384615e+01
0	 2.000000000000000e+00	 1.875000000000000e-01	 1.097158413969231e+01
0	 2.000000000000000e+00	 2.500000000000001e-01	 1.130865832123076e+01
0	 2.000000000000000e+00	 3.125000000000000e-01	 1.160289101846154e+01
0	 2.000000000000000e+00	 3.749999999999999e-01	 1.185428223138462e+01
0	 2.000000000000000e+00	 4.375000000000000e-01	 1.206283196000000e+01
0	 2.000000000000000e+00	 4.999999999999999e-01	 1.222854020430769e+01
0	 2.000000000000001e+00	 5.625000000000001e-01	 1.235140696430770e+01
0	 2.000000000000000e+00	 6.250000000000001e-01	 1.243143224000000e+01
0	 2.062500000000000e+00	 0.000000000000000e+00	 1.019146821230769e+01
0	 2.062500000000000e+00	 6.250000000000000e-02	 1.053844396800000e+01
0	 2.062500000000001e+00	 1.250000000000000e-01	 1.084816876338461e+01
0	 2.062500000000000e+00	 1.875000000000001e-01	 1.112064259846154e+01
0	 2.062500000000000e+00	 2.500000000000001e-01	 1.135586547323077e+01
0	 2.062500000000000e+00	 3.125000000000000e-01	 1.155383738769231e+01
0	 2.062500000000000e+00	 3.750000000000000e-01	 1.171455834184615e+01
0	 2.062500000000000e+00	 4.374999999999999e-01	 1.183802833569231e+01
0	 2.062500000000000e+00	 4.999999999999999e-01	 1.192424736923077e+01
0	 2.062500000000001e+00	 5.625000000000000e-01	 1.197321544246154e+01
0	 2.062500000000000e+00	 6.249999999999999e-01	 1.198493255538461e+01
0	 2.125000000000000e+00	 0.000000000000000e+00	 1.062385088000000e+01
0	 2.125000000000000e+00	 6.249999999999999e-02	 1.086576650676923e+01
0	 2.125000000000000e+00	 1.250000000000000e-01	 1.107602169723077e+01
0	 2.125000000000000e+00	 1.875000000000000e-01	 1.125461645138461e+01
0	 2.125000000000000e+00	 2.500000000000000e-01	 1.140155076923077e+01
0	 2.125000000000000e+00	 3.125000000000000e-01	 1.151682465076923e+01
0	 2.125000000000001e+00	 3.750000000000001e-01	 1.160043809600000e+01
0	 2.125000000000000e+00	 4.375000000000000e-01	 1.165239110492307e+01
0	 2.125000000000000e+00	 4.999999999999999e-01	 1.167268367753846e+01
0	 2.125000000000000e+00	 5.624999999999999e-01	 1.166131581384615e+01
0	 2.125000000000000e+00	 6.250000000000001e-01	 1.161828751384615e+01
0	 2.187500000000000e+00	 0.000000000000000e+00	 1.100046069230769e+01
0	 2.187500000000000e+00	 6.249999999999998e-02	 1.115087894000000e+01
0	 2.187500000000000e+00	 1.250000000000000e-01	 1.127522727538462e+01
0	 2.187500000000000e+00	 1.875000000000000e-01	 1.137350569846154e+01
0	 2.187500000000000e+00	 2.499999999999999e-01	 1.144571420923077e+01
0	 2.187500000000000e+00	 3.125000000000001e-01	 1.149185280769231e+01
0	 2.187500000000000e+00	 3.749999999999999e-01	 1.151192149384615e+01
0	 2.187500000000001e+00	 4.375000000000000e-01	 1.150592026769231e+01
0	 2.187500000000000e+00	 4.999999999999999e-01	 1.147384912923077e+01
0	 2.187500000000001e+00	 5.625000000000001e-01	 1.141570807846154e+01
0	 2.187500000000000e+00	 6.250000000000000e-01	 1.133149711538461e+01
0	 2.250000000000000e+00	 0.000000000000000e+00	 1.132129764923077e+01
0	 2.250000000000000e+00	 6.249999999999999e-02	 1.139378126769231e+01
0	 2.250000000000000e+00	 1.250000000000000e-01	 1.144578549784616e+01
0	 2.250000000000001e+00	 1.875000000000000e-01	 1.147731033969231e+01
0	 2.250000000000000e+00	 2.500000000000001e-01	 1.148835579323077e+01
0	 2.250000000000000e+00	 3.124999999999999e-01	 1.147892185846154e+01
0	 2.250000000000000e+00	 3.750000000000000e-01	 1.144900853538462e+01
0	 2.250000000000001e+00	 4.375000000000001e-01	 1.139861582400000e+01
0	 2.250000000000000e+00	 5.000000000000000e-01	 1.132774372430769e+01
0	 2.250000000000000e+00	 5.625000000000001e-01	 1.123639223630769e+01
0	 2.250000000000000e+00	 6.250000000000000e-01	 1.112456136000000e+01
0	 2.312500000000000e+00	 0.000000000000000e+00	 1.158636175076923e+01
0	 2.312500000000000e+00	 6.250000000000000e-02	 1.159447348984616e+01
0	 2.312500000000001e+00	 1.250000000000000e-01	 1.158769636461539e+01
0	 2.312500000000000e+00	 1.875000000000000e-01	 1.156603037507693e+01
0	 2.312500000000001e+00	 2.500000000000001e-01	 1.152947552123076e+01
0	 2.312500000000000e+00	 3.125000000000000e-01	 1.147803180307692e+01
0	 2.312500000000001e+00	 3.750000000000000e-01	 1.141169922061539e+01
0	 2.312500000000000e+00	 4.374999999999999e-01	 1.133047777384615e+01
0	 2.312500000000000e+00	 4.999999999999999e-01	 1.123436746276923e+01
0	 2.312500000000000e+00	 5.625000000000000e-01	 1.112336828738462e+01
0	 2.312500000000000e+00	 6.250000000000000e-01	 1.099748024769231e+01
0	 2.375000000000000e+00	 0.000000000000000e+00	 1.179565299692308e+01
0	 2.375000000000000e+00	 6.249999999999999e-02	 1.175295560646154e+01
0	 2.375000000000000e+00	 1.250000000000000e-01	 1.170095987569231e+01
0	 2.375000000000000e+00	 1.875000000000000e-01	 1.163966580461538e+01
0	 2.375000000000000e+00	 2.500000000000000e-01	 1.156907339323076e+01
0	 2.375000000000000e+00	 3.125000000000000e-01	 1.148918264153846e+01
0	 2.375000000000000e+00	 3.750000000000000e-01	 1.139999354953846e+01
0	 2.375000000000001e+00	 4.375000000000001e-01	 1.130150611723077e+01
0	 2.375000000000000e+00	 5.000000000000000e-01	 1.119372034461538e+01
0	 2.375000000000000e+00	 5.624999999999999e-01	 1.107663623169230e+01
0	 2.375000000000000e+00	 6.250000000000000e-01	 1.095025377846154e+01
0	 2.437500000000000e+00	 0.000000000000000e+00	 1.194917138769231e+01
0	 2.437500000000000e+00	 6.250000000000000e-02	 1.186922761753846e+01
0	 2.437500000000000e+00	 1.250000000000000e-01	 1.178557603107692e+01
0	 2.437500000000001e+00	 1.875000000000000e-01	 1.169821662830769e+01
0	 2.437500000000001e+00	 2.500000000000000e-01	 1.160714940923077e+01
0	 2.437500000000000e+00	 3.125000000000001e-01	 1.151237437384615e+01
0	 2.437500000000000e+00	 3.750000000000000e-01	 1.141389152215385e+01
0	 2.437500000000000e+00	 4.375000000000000e-01	 1.131170085415384e+01
0	 2.437500000000000e+00	 5.000000000000000e-01	 1.120580236984616e+01
0	 2.437500000000000e+00	 5.625000000000000e-01	 1.109619606923077e+01
0	 2.437500000000000e+00	 6.250000000000000e-01	 1.098288195230769e+01
0	 2.500000000000000e+00	 0.000000000000000e+00	 1.204691692307692e+01
0	 2.500000000000000e+00	 6.250000000000000e-02	 1.194328952307692e+01
0	 2.500000000000000e+00	 1.250000000000000e-01	 1.184154483076923e+01
0	 2.500000000000000e+00	 1.875000000000000e-01	 1.174168284615384e+01
0	 2.500000000000000e+00	 2.500000000000000e-01	 1.164370356923077e+01
0	 2.500000000000000e+00	 3.125000000000000e-01	 1.154760700000000e+01
0	 2.500000000000000e+00	 3.750000000000000e-01	 1.145339313846154e+01
0	 2.500000000000000e+00	 4.374999999999999e-01	 1.136106198461538e+01
0	 2.500000000000001e+00	 5.000000000000000e-01	 1.127061353846154e+01
0	 2.500000000000000e+00	 5.624999999999999e-01	 1.118204780000000e+01
0	 2.500000000000000e+00	 6.250000000000000e-01	 1.109536476923077e+01
0	 1.875000000000000e+00	 6.250000000000000e-01	 1.356399553846154e+01
0	 1.875000000000000e+00	 6.875000000000000e-01	 1.332734205384615e+01
0	 1.875000000000000e+00	 7.500000000000002e-01	 1.309818390769231e+01
0	 1.875000000000000e+00	 8.125000000000002e-01	 1.287652110000000e+01
0	 1.875000000000000e+00	 8.750000000000002e-01	 1.266235363076923e+01
0	 1.875000000000000e+00	 9.375000000000002e-01	 1.245568150000000e+01
0	 1.875000000000000e+00	 1.000000000000000e+00	 1.225650470769230e+01
0	 1.875000000000000e+00	 1.062500000000000e+00	 1.206482325384615e+01
0	 1.875000000000000e+00	 1.125000000000001e+00	 1.188063713846154e+01
0	 1.875000000000000e+00	 1.187500000000000e+00	 1.170394636153846e+01
0	 1.875000000000000e+00	 1.250000000000000e+00	 1.153475092307692e+01
0	 1.937500000000000e+00	 6.249999999999999e-01	 1.295778656769231e+01
0	 1.937500000000000e+00	 6.875000000000000e-01	 1.279745900323077e+01
0	 1.937500000000000e+00	 7.500000000000000e-01	 1.264397734646154e+01
0	 1.937500000000000e+00	 8.125000000000003e-01	 1.249734159738462e+01
0	 1.937500000000000e+00	 8.750000000000002e-01	 1.235755175600000e+01
0	 1.937500000000000e+00	 9.375000000000003e-01	 1.222460782230769e+01
0	 1.937500000000000e+00	 1.000000000000000e+00	 1.209850979630769e+01
0	 1.937500000000000e+00	 1.062500000000000e+00	 1.197925767800000e+01
0	 1.937500000000000e+00	 1.125000000000000e+00	 1.186685146738462e+01
0	 1.937500000000000e+00	 1.187500000000001e+00	 1.176129116446154e+01
0	 1.937500000000000e+00	 1.250000000000000e+00	 1.166257676923077e+01
0	 2.000000000000000e+00	 6.250000000000001e-01	 1.243143224000000e+01
0	 2.000000000000000e+00	 6.875000000000001e-01	 1.233680346061538e+01
0	 2.000000000000000e+00	 7.500000000000003e-01	 1.224837115815385e+01
0	 2.000000000000000e+00	 8.125000000000001e-01	 1.216613533261538e+01
0	 2.000000000000000e+00	 8.750000000000003e-01	 1.209009598399999e+01
0	 2.000000000000000e+00	 9.375000000000002e-01	 1.202025311230769e+01
0	 2.000000000000000e+00	 1.000000000000000e+00	 1.195660671753846e+01
0	 2.000000000000000e+00	 1.062500000000000e+00	 1.189915679969231e+01
0	 2.000000000000000e+00	 1.125000000000000e+00	 1.184790335876923e+01
0	 2.000000000000000e+00	 1.187500000000001e+00	 1.180284639476923e+01
0	 2.000000000000000e+00	 1.250000000000000e+00	 1.176398590769231e+01
0	 2.062500000000000e+00	 6.249999999999999e-01	 1.198493255538461e+01
0	 2.062500000000000e+00	 6.875000000000001e-01	 1.194537542600000e+01
0	 2.062500000000000e+00	 7.500000000000003e-01	 1.191136534276923e+01
0	 2.062500000000000e+00	 8.125000000000000e-01	 1.188290230569230e+01
0	 2.062500000000000e+00	 8.750000000000001e-01	 1.185998631476923e+01
0	 2.062500000000001e+00	 9.375000000000003e-01	 1.184261737000000e+01
0	 2.062500000000000e+00	 1.000000000000000e+00	 1.183079547138461e+01
0	 2.062500000000000e+00	 1.062500000000000e+00	 1.182452061892308e+01
0	 2.062500000000000e+00	 1.125000000000000e+00	 1.182379281261538e+01
0	 2.062500000000000e+00	 1.187500000000000e+00	 1.182861205246154e+01
0	 2.062500000000000e+00	 1.250000000000000e+00	 1.183897833846154e+01
0	 2.125000000000000e+00	 6.250000000000001e-01	 1.161828751384615e+01
0	 2.125000000000000e+00	 6.875000000000000e-01	 1.162317489938462e+01
0	 2.125000000000000e+00	 7.500000000000002e-01	 1.163295990030769e+01
0	 2.125000000000000e+00	 8.125000000000001e-01	 1.164764251661538e+01
0	 2.125000000000000e+00	 8.749999999999999e-01	 1.166722274830769e+01
0	 2.125000000000000e+00	 9.375000000000002e-01	 1.169170059538461e+01
0	 2.125000000000000e+00	 1.000000000000000e+00	 1.172107605784615e+01
0	 2.125000000000001e+00	 1.062500000000001e+00	 1.175534913569231e+01
0	 2.125000000000000e+00	 1.125000000000000e+00	 1.179451982892308e+01
0	 2.125000000000000e+00	 1.187500000000001e+00	 1.183858813753846e+01
0	 2.125000000000000e+00	 1.250000000000000e+00	 1.188755406153846e+01
0	 2.187500000000000e+00	 6.250000000000000e-01	 1.133149711538461e+01
0	 2.187500000000000e+00	 6.875000000000000e-01	 1.137020188076923e+01
0	 2.187500000000000e+00	 7.500000000000001e-01	 1.141315483076923e+01
0	 2.187500000000000e+00	 8.125000000000001e-01	 1.146035596538461e+01
0	 2.187500000000001e+00	 8.750000000000003e-01	 1.151180528461538e+01
0	 2.187500000000000e+00	 9.375000000000002e-01	 1.156750278846154e+01
0	 2.187500000000000e+00	 1.000000000000000e+00	 1.162744847692307e+01
0	 2.187500000000000e+00	 1.062500000000000e+00	 1.169164235000000e+01
0	 2.187500000000000e+00	 1.125000000000000e+00	 1.176008440769231e+01
0	 2.187500000000000e+00	 1.187500000000000e+00	 1.183277465000001e+01
0	 2.187500000000000e+00	 1.250000000000000e+00	 1.190971307692307e+01
0	 2.250000000000000e+00	 6.250000000000000e-01	 1.112456136000000e+01
0	 2.250000000000000e+00	 6.875000000000001e-01	 1.118645637015384e+01
0	 2.250000000000000e+00	 7.500000000000001e-01	 1.125195013415385e+01
0	 2.250000000000000e+00	 8.125000000000001e-01	 1.132104265200000e+01
0	 2.250000000000000e+00	 8.750000000000003e-01	 1.139373392369231e+01
0	 2.250000000000000e+00	 9.375000000000003e-01	 1.147002394923076e+01
0	 2.250000000000000e+00	 1.000000000000000e+00	 1.154991272861538e+01
0	 2.250000000000001e+00	 1.062500000000001e+00	 1.163340026184615e+01
0	 2.250000000000000e+00	 1.125000000000001e+00	 1.172048654892307e+01
0	 2.250000000000000e+00	 1.187500000000000e+00	 1.181117158984615e+01
0	 2.250000000000000e+00	 1.250000000000000e+00	 1.190545538461538e+01
0	 2.312500000000000e+00	 6.250000000000000e-01	 1.099748024769231e+01
0	 2.312500000000000e+00	 6.875000000000001e-01	 1.107193836753846e+01
0	 2.312500000000001e+00	 7.500000000000002e-01	 1.114934581046153e+01
0	 2.312500000000000e+00	 8.125000000000001e-01	 1.122970257646154e+01
0	 2.312500000000000e+00	 8.750000000000002e-01	 1.131300866553846e+01
0	 2.312500000000001e+00	 9.375000000000003e-01	 1.139926407769231e+01
0	 2.312500000000000e+00	 1.000000000000000e+00	 1.148846881292307e+01
0	 2.312500000000000e+00	 1.062500000000000e+00	 1.158062287123077e+01
0	 2.312500000000000e+00	 1.125000000000000e+00	 1.167572625261538e+01
0	 2.312500000000000e+00	 1.187500000000000e+00	 1.177377895707692e+01
0	 2.312500000000000e+00	 1.250000000000000e+00	 1.187478098461538e+01
0	 2.375000000000000e+00	 6.250000000000000e-01	 1.095025377846154e+01
0	 2.375000000000001e+00	 6.875000000000001e-01	 1.102664787292307e+01
0	 2.375000000000000e+00	 7.500000000000001e-01	 1.110534185969230e+01
0	 2.375000000000000e+00	 8.125000000000002e-01	 1.118633573876923e+01
0	 2.375000000000000e+00	 8.750000000000001e-01	 1.126962951015385e+01
0	 2.375000000000000e+00	 9.375000000000003e-01	 1.135522317384615e+01
0	 2.375000000000001e+00	 1.000000000000001e+00	 1.144311672984616e+01
0	 2.375000000000001e+00	 1.062500000000000e+00	 1.153331017815385e+01
0	 2.375000000000000e+00	 1.125000000000000e+00	 1.162580351876923e+01
0	 2.375000000000001e+00	 1.187500000000000e+00	 1.172059675169231e+01
0	 2.375000000000000e+00	 1.250000000000000e+00	 1.181768987692307e+01
0	 2.437500000000000e+00	 6.250000000000000e-01	 1.098288195230769e+01
0	 2.437500000000000e+00	 6.875000000000001e-01	 1.105058488630769e+01
0	 2.437500000000000e+00	 7.500000000000002e-01	 1.111993828184615e+01
0	 2.437500000000000e+00	 8.125000000000000e-01	 1.119094213892308e+01
0	 2.437500000000000e+00	 8.750000000000000e-01	 1.126359645753846e+01
0	 2.437500000000000e+00	 9.375000000000000e-01	 1.133790123769231e+01
0	 2.437500000000000e+00	 1.000000000000000e+00	 1.141385647938461e+01
0	 2.437500000000000e+00	 1.062500000000000e+00	 1.149146218261538e+01
0	 2.437500000000001e+00	 1.125000000000000e+00	 1.157071834738461e+01
0	 2.437500000000000e+00	 1.187500000000001e+00	 1.165162497369230e+01
0	 2.437500000000000e+00	 1.250000000000000e+00	 1.173418206153846e+01
0	 2.500000000000000e+00	 6.250000000000000e-01	 1.109536476923077e+01
0	 2.500000000000000e+00	 6.875000000000000e-01	 1.114374940769231e+01
0	 2.500000000000000e+00	 7.500000000000002e-01	 1.119313507692308e+01
0	 2.500000000000000e+00	 8.125000000000002e-01	 1.124352177692308e+01
0	 2.500000000000000e+00	 8.750000000000002e-01	 1.129490950769230e+01
0	 2.500000000000000e+00	 9.375000000000002e-01	 1.134729826923077e+01
0	 2.500000000000000e+00	 1.000000000000000e+00	 1.140068806153846e+01
0	 2.500000000000000e+00	 1.062500000000000e+00	 1.145507888461539e+01
0	 2.500000000000000e+00	 1.125000000000001e+00	 1.151047073846154e+01
0	 2.500000000000000e+00	 1.187500000000000e+00	 1.156686362307692e+01
0	 2.500000000000000e+00	 1.250000000000000e+00	 1.162425753846154e+01
0	 1.875000000000000e+00	 1.250000000000000e+00	 1.153475092307692e+01
0	 1.875000000000000e+00	 1.312500000000000e+00	 1.149336092923076e+01
0	 1.875000000000000e+00	 1.375000000000000e+00	 1.145129744000000e+01
0	 1.875000000000000e+00	 1.437500000000000e+00	 1.140856045538461e+01
0	 1.875000000000000e+00	 1.500000000000000e+00	 1.136514997538461e+01
0	 1.875000000000000e+00	 1.562500000000000e+00	 1.132106599999999e+01
0	 1.875000000000000e+00	 1.625000000000000e+00	 1.127630852923076e+01
0	 1.875000000000000e+00	 1.687500000000000e+00	 1.123087756307692e+01
0	 1.875000000000000e+00	 1.750000000000001e+00	 1.118477310153846e+01
0	 1.875000000000000e+00	 1.812500000000000e+00	 1.113799514461538e+01
0	 1.875000000000000e+00	 1.875000000000000e+00	 1.109054369230769e+01
0	 1.937500000000000e+00	 1.250000000000000e+00	 1.166257676923077e+01
0	 1.937500000000000e+00	 1.312500000000000e+00	 1.161015906907692e+01
0	 1.937500000000000e+00	 1.375000000000000e+00	 1.155783205476923e+01
0	 1.937500000000000e+00	 1.437500000000000e+00	 1.150559572630769e+01
0	 1.937500000000000e+00	 1.500000000000000e+00	 1.145345008369230e+01
0	 1.937500000000000e+00	 1.562500000000000e+00	 1.140139512692307e+01
0	 1.937500000000000e+00	 1.625000000000000e+00	 1.134943085600000e+01
0	 1.937500000000000e+00	 1.687500000000000e+00	 1.129755727092308e+01
0	 1.937500000000000e+00	 1.750000000000001e+00	 1.124577437169230e+01
0	 1.937500000000000e+00	 1.812500000000000e+00	 1.119408215830768e+01
0	 1.937500000000000e+00	 1.875000000000000e+00	 1.114248063076923e+01
0	 2.000000000000000e+00	 1.250000000000000e+00	 1.176398590769231e+01
0	 2.000000000000000e+00	 1.312500000000000e+00	 1.170224247046154e+01
0	 2.000000000000000e+00	 1.375000000000000e+00	 1.164135390030768e+01
0	 2.000000000000000e+00	 1.437500000000000e+00	 1.158132019723077e+01
0	 2.000000000000000e+00	 1.500000000000000e+00	 1.152214136123076e+01
0	 2.000000000000000e+00	 1.562500000000001e+00	 1.146381739230769e+01
0	 2.000000000000000e+00	 1.625000000000000e+00	 1.140634829046154e+01
0	 2.000000000000000e+00	 1.687500000000001e+00	 1.134973405569230e+01
0	 2.000000000000000e+00	 1.750000000000000e+00	 1.129397468799999e+01
0	 2.000000000000000e+00	 1.812500000000001e+00	 1.123907018738461e+01
0	 2.000000000000000e+00	 1.875000000000000e+00	 1.118502055384615e+01
0	 2.062500000000000e+00	 1.250000000000000e+00	 1.183897833846154e+01
0	 2.062500000000000e+00	 1.312500000000000e+00	 1.176961113338461e+01
0	 2.062500000000000e+00	 1.375000000000000e+00	 1.170186297661539e+01
0	 2.062500000000000e+00	 1.437500000000000e+00	 1.163573386815385e+01
0	 2.062500000000000e+00	 1.500000000000000e+00	 1.157122380800000e+01
0	 2.062500000000001e+00	 1.562500000000001e+00	 1.150833279615384e+01
0	 2.062500000000000e+00	 1.625000000000000e+00	 1.144706083261539e+01
0	 2.062500000000000e+00	 1.687500000000001e+00	 1.138740791738462e+01
0	 2.062500000000000e+00	 1.750000000000000e+00	 1.132937405046154e+01
0	 2.062500000000000e+00	 1.812500000000000e+00	 1.127295923184615e+01
0	 2.062500000000000e+00	 1.875000000000000e+00	 1.121816346153846e+01
0	 2.125000000000000e+00	 1.250000000000000e+00	 1.188755406153846e+01
0	 2.125000000000000e+00	 1.312500000000000e+00	 1.181226505784615e+01
0	 2.125000000000000e+00	 1.375000000000000e+00	 1.173935928369230e+01
0	 2.125000000000000e+00	 1.437500000000000e+00	 1.166883673907692e+01
0	 2.125000000000000e+00	 1.500000000000000e+00	 1.160069742400000e+01
0	 2.125000000000000e+00	 1.562500000000000e+00	 1.153494133846153e+01
0	 2.125000000000000e+00	 1.625000000000001e+00	 1.147156848246154e+01
0	 2.125000000000001e+00	 1.687500000000000e+00	 1.141057885600000e+01
0	 2.125000000000000e+00	 1.750000000000000e+00	 1.135197245907692e+01
0	 2.125000000000000e+00	 1.812500000000001e+00	 1.129574929169230e+01
0	 2.125000000000000e+00	 1.875000000000000e+00	 1.124190935384616e+01
0	 2.187500000000000e+00	 1.250000000000000e+00	 1.190971307692307e+01
0	 2.187500000000000e+00	 1.312500000000000e+00	 1.183020424384615e+01
0	 2.187500000000000e+00	 1.375000000000000e+00	 1.175384282153846e+01
0	 2.187500000000000e+00	 1.437500000000000e+00	 1.168062881000000e+01
0	 2.187500000000001e+00	 1.500000000000000e+00	 1.161056220923077e+01
0	 2.187500000000000e+00	 1.562500000000000e+00	 1.154364301923076e+01
0	 2.187500000000000e+00	 1.625000000000000e+00	 1.147987124000000e+01
0	 2.187500000000000e+00	 1.687500000000001e+00	 1.141924687153846e+01
0	 2.187500000000000e+00	 1.750000000000001e+00	 1.136176991384615e+01
0	 2.187500000000000e+00	 1.812500000000000e+00	 1.130744036692307e+01
0	 2.187500000000000e+00	 1.875000000000000e+00	 1.125625823076923e+01
0	 2.250000000000000e+00	 1.250000000000000e+00	 1.190545538461538e+01
0	 2.250000000000000e+00	 1.312500000000000e+00	 1.182342869138461e+01
0	 2.250000000000000e+00	 1.375000000000000e+00	 1.174531359015385e+01
0	 2.250000000000000e+00	 1.437500000000000e+00	 1.167111008092308e+01
0	 2.250000000000000e+00	 1.500000000000000e+00	 1.160081816369230e+01
0	 2.250000000000000e+00	 1.562500000000000e+00	 1.153443783846154e+01
0	 2.250000000000000e+00	 1.625000000000000e+00	 1.147196910523077e+01
0	 2.250000000000001e+00	 1.687500000000001e+00	 1.141341196400000e+01
0	 2.250000000000000e+00	 1.750000000000000e+00	 1.135876641476923e+01
0	 2.250000000000000e+00	 1.812500000000000e+00	 1.130803245753846e+01
0	 2.250000000000000e+00	 1.875000000000000e+00	 1.126121009230769e+01
0	 2.312500000000000e+00	 1.250000000000000e+00	 1.187478098461538e+01
0	 2.312500000000000e+00	 1.312500000000000e+00	 1.179193840046154e+01
0	 2.312500000000001e+00	 1.375000000000000e+00	 1.171377158953846e+01
0	 2.312500000000000e+00	 1.437500000000000e+00	 1.164028055184615e+01
0	 2.312500000000000e+00	 1.500000000000000e+00	 1.157146528738462e+01
0	 2.312500000000001e+00	 1.562500000000000e+00	 1.150732579615385e+01
0	 2.312500000000000e+00	 1.625000000000000e+00	 1.144786207815384e+01
0	 2.312500000000000e+00	 1.687500000000000e+00	 1.139307413338461e+01
0	 2.312500000000000e+00	 1.750000000000000e+00	 1.134296196184615e+01
0	 2.312500000000000e+00	 1.812500000000000e+00	 1.129752556353846e+01
0	 2.312500000000000e+00	 1.875000000000000e+00	 1.125676493846154e+01
0	 2.375000000000000e+00	 1.250000000000000e+00	 1.181768987692307e+01
0	 2.375000000000001e+00	 1.312500000000000e+00	 1.173573337107692e+01
0	 2.375000000000000e+00	 1.375000000000000e+00	 1.165921681969231e+01
0	 2.375000000000000e+00	 1.437500000000000e+00	 1.158814022276923e+01
0	 2.375000000000000e+00	 1.500000000000000e+00	 1.152250358030769e+01
0	 2.375000000000000e+00	 1.562500000000000e+00	 1.146230689230769e+01
0	 2.375000000000001e+00	 1.625000000000001e+00	 1.140755015876923e+01
0	 2.375000000000001e+00	 1.687500000000001e+00	 1.135823337969231e+01
0	 2.375000000000000e+00	 1.750000000000001e+00	 1.131435655507692e+01
0	 2.375000000000001e+00	 1.812500000000001e+00	 1.127591968492308e+01
0	 2.375000000000000e+00	 1.875000000000000e+00	 1.124292276923077e+01
0	 2.437500000000000e+00	 1.250000000000000e+00	 1.173418206153846e+01
0	 2.437500000000000e+00	 1.312500000000000e+00	 1.165481360323076e+01
0	 2.437500000000000e+00	 1.375000000000000e+00	 1.158164928061538e+01
0	 2.437500000000000e+00	 1.437500000000000e+00	 1.151468909369231e+01
0	 2.437500000000000e+00	 1.500000000000000e+00	 1.145393304246154e+01
0	 2.437500000000000e+00	 1.562500000000000e+00	 1.139938112692307e+01
0	 2.437500000000000e+00	 1.625000000000000e+00	 1.135103334707692e+01
0	 2.437500000000000e+00	 1.687500000000000e+00	 1.130888970292308e+01
0	 2.437500000000001e+00	 1.750000000000001e+00	 1.127295019446154e+01
0	 2.437500000000000e+00	 1.812500000000001e+00	 1.124321482169231e+01
0	 2.437500000000000e+00	 1.875000000000000e+00	 1.121968358461539e+01
0	 2.500000000000000e+00	 1.250000000000000e+00	 1.162425753846154e+01
0	 2.500000000000000e+00	 1.312500000000000e+00	 1.154917909692307e+01
0	 2.500000000000000e+00	 1.375000000000000e+00	 1.148106897230769e+01
0	 2.500000000000000e+00	 1.437500000000000e+00	 1.141992716461539e+01
0	 2.500000000000000e+00	 1.500000000000000e+00	 1.136575367384615e+01
0	 2.500000000000000e+00	 1.562500000000000e+00	 1.131854850000000e+01
0	 2.500000000000000e+00	 1.625000000000000e+00	 1.127831164307692e+01
0	 2.500000000000000e+00	 1.687500000000000e+00	 1.124504310307693e+01
0	 2.500000000000000e+00	 1.750000000000001e+00	 1.121874288000000e+01
0	 2.500000000000000e+00	 1.812500000000000e+00	 1.119941097384615e+01
0	 2.500000000000000e+00	 1.875000000000000e+00	 1.118704738461538e+01
0	 1.875000000000000e+00	 1.875000000000000e+00	 1.109054369230769e+01
0	 1.875000000000000e+00	 1.937500000000000e+00	 1.098366739230768e+01
0	 1.875000000000000e+00	 2.000000000000000e+00	 1.088311172307692e+01
0	 1.875000000000000e+00	 2.062500000000000e+00	 1.078887668461538e+01
0	 1.875000000000000e+00	 2.125000000000000e+00	 1.070096227692308e+01
0	 1.875000000000000e+00	 2.187500000000000e+00	 1.061936850000000e+01
0	 1.875000000000000e+00	 2.250000000000000e+00	 1.054409535384615e+01
0	 1.875000000000000e+00	 2.312500000000000e+00	 1.047514283846153e+01
0	 1.875000000000000e+00	 2.375000000000001e+00	 1.041251095384616e+01
0	 1.875000000000000e+00	 2.437500000000001e+00	 1.035619970000000e+01
0	 1.875000000000000e+00	 2.500000000000000e+00	 1.030620907692308e+01
0	 1.937500000000000e+00	 1.875000000000000e+00	 1.114248063076923e+01
0	 1.937500000000000e+00	 1.937500000000000e+00	 1.104154989030769e+01
0	 1.937500000000000e+00	 2.000000000000000e+00	 1.094631688738461e+01
0	 1.937500000000000e+00	 2.062500000000000e+00	 1.085678162200000e+01
0	 1.937500000000000e+00	 2.125000000000000e+00	 1.077294409415384e+01
0	 1.937500000000000e+00	 2.187500000000001e+00	 1.069480430384615e+01
0	 1.937500000000000e+00	 2.250000000000000e+00	 1.062236225107692e+01
0	 1.937500000000000e+00	 2.312500000000001e+00	 1.055561793584615e+01
0	 1.937500000000000e+00	 2.375000000000001e+00	 1.049457135815385e+01
0	 1.937500000000000e+00	 2.437500000000000e+00	 1.043922251800000e+01
0	 1.937500000000000e+00	 2.500000000000000e+00	 1.038957141538461e+01
0	 2.000000000000000e+00	 1.875000000000000e+00	 1.118502055384615e+01
0	 2.000000000000000e+00	 1.937500000000000e+00	 1.109011536676923e+01
0	 2.000000000000000e+00	 2.000000000000000e+00	 1.100028502400001e+01
0	 2.000000000000000e+00	 2.062500000000000e+00	 1.091552952553845e+01
0	 2.000000000000000e+00	 2.125000000000000e+00	 1.083584887138461e+01
0	 2.000000000000000e+00	 2.187500000000000e+00	 1.076124306153846e+01
0	 2.000000000000000e+00	 2.250000000000000e+00	 1.069171209599999e+01
0	 2.000000000000000e+00	 2.312500000000001e+00	 1.062725597476923e+01
0	 2.000000000000000e+00	 2.375000000000001e+00	 1.056787469784615e+01
0	 2.000000000000000e+00	 2.437500000000000e+00	 1.051356826523077e+01
0	 2.000000000000000e+00	 2.500000000000000e+00	 1.046433667692308e+01
0	 2.062500000000000e+00	 1.875000000000000e+00	 1.121816346153846e+01
0	 2.062500000000000e+00	 1.937500000000000e+00	 1.112936382169230e+01
0	 2.062500000000000e+00	 2.000000000000000e+00	 1.104501613292308e+01
0	 2.062500000000000e+00	 2.062500000000000e+00	 1.096512039523077e+01
0	 2.062500000000000e+00	 2.125000000000000e+00	 1.088967660861538e+01
0	 2.062500000000001e+00	 2.187500000000001e+00	 1.081868477307692e+01
0	 2.062500000000000e+00	 2.250000000000000e+00	 1.075214488861539e+01
0	 2.062500000000000e+00	 2.312500000000000e+00	 1.069005695523077e+01
0	 2.062500000000000e+00	 2.375000000000000e+00	 1.063242097292308e+01
0	 2.062500000000000e+00	 2.437500000000001e+00	 1.057923694169232e+01
0	 2.062500000000000e+00	 2.500000000000000e+00	 1.053050486153846e+01
0	 2.125000000000000e+00	 1.875000000000000e+00	 1.124190935384616e+01
0	 2.125000000000000e+00	 1.937500000000000e+00	 1.115929525507692e+01
0	 2.125000000000000e+00	 2.000000000000000e+00	 1.108051021415384e+01
0	 2.125000000000000e+00	 2.062500000000000e+00	 1.100555423107692e+01
0	 2.125000000000000e+00	 2.125000000000000e+00	 1.093442730584615e+01
0	 2.125000000000000e+00	 2.187500000000000e+00	 1.086712943846154e+01
0	 2.125000000000000e+00	 2.250000000000000e+00	 1.080366062892307e+01
0	 2.125000000000001e+00	 2.312500000000000e+00	 1.074402087723077e+01
0	 2.125000000000000e+00	 2.375000000000000e+00	 1.068821018338461e+01
0	 2.125000000000000e+00	 2.437500000000000e+00	 1.063622854738462e+01
0	 2.125000000000000e+00	 2.500000000000000e+00	 1.058807596923076e+01
0	 2.187500000000000e+00	 1.875000000000000e+00	 1.125625823076923e+01
0	 2.187500000000000e+00	 1.937500000000000e+00	 1.117990966692308e+01
0	 2.187500000000000e+00	 2.000000000000000e+00	 1.110676726769230e+01
0	 2.187500000000000e+00	 2.062500000000000e+00	 1.103683103307692e+01
0	 2.187500000000001e+00	 2.125000000000001e+00	 1.097010096307692e+01
0	 2.187500000000000e+00	 2.187500000000000e+00	 1.090657705769230e+01
0	 2.187500000000000e+00	 2.250000000000000e+00	 1.084625931692308e+01
0	 2.187500000000000e+00	 2.312500000000001e+00	 1.078914774076923e+01
0	 2.187500000000000e+00	 2.375000000000000e+00	 1.073524232923077e+01
0	 2.187500000000000e+00	 2.437500000000001e+00	 1.068454308230769e+01
0	 2.187500000000000e+00	 2.500000000000000e+00	 1.063705000000000e+01
0	 2.250000000000000e+00	 1.875000000000000e+00	 1.126121009230769e+01
0	 2.250000000000000e+00	 1.937500000000000e+00	 1.119120705723077e+01
0	 2.250000000000000e+00	 2.000000000000000e+00	 1.112378729353846e+01
0	 2.250000000000000e+00	 2.062500000000000e+00	 1.105895080123077e+01
0	 2.250000000000000e+00	 2.125000000000000e+00	 1.099669758030770e+01
0	 2.250000000000000e+00	 2.187500000000000e+00	 1.093702763076923e+01
0	 2.250000000000000e+00	 2.250000000000000e+00	 1.087994095261539e+01
0	 2.250000000000001e+00	 2.312500000000001e+00	 1.082543754584616e+01
0	 2.250000000000000e+00	 2.375000000000001e+00	 1.077351741046154e+01
0	 2.250000000000000e+00	 2.437500000000000e+00	 1.072418054646154e+01
0	 2.250000000000000e+00	 2.500000000000000e+00	 1.067742695384615e+01
0	 2.312500000000000e+00	 1.875000000000000e+00	 1.125676493846154e+01
0	 2.312500000000000e+00	 1.937500000000000e+00	 1.119318742599999e+01
0	 2.312500000000001e+00	 2.000000000000000e+00	 1.113157029169231e+01
0	 2.312500000000000e+00	 2.062500000000000e+00	 1.107191353553846e+01
0	 2.312500000000000e+00	 2.125000000000000e+00	 1.101421715753846e+01
0	 2.312500000000001e+00	 2.187500000000000e+00	 1.095848115769231e+01
0	 2.312500000000000e+00	 2.250000000000000e+00	 1.090470553600000e+01
0	 2.312500000000000e+00	 2.312500000000000e+00	 1.085289029246154e+01
0	 2.312500000000000e+00	 2.375000000000000e+00	 1.080303542707692e+01
0	 2.312500000000000e+00	 2.437500000000000e+00	 1.075514093984616e+01
0	 2.312500000000000e+00	 2.500000000000000e+00	 1.070920683076923e+01
0	 2.375000000000000e+00	 1.875000000000000e+00	 1.124292276923077e+01
0	 2.375000000000001e+00	 1.937500000000000e+00	 1.118585077323077e+01
0	 2.375000000000000e+00	 2.000000000000000e+00	 1.113011626215385e+01
0	 2.375000000000000e+00	 2.062500000000000e+00	 1.107571923600000e+01
0	 2.375000000000000e+00	 2.125000000000000e+00	 1.102265969476923e+01
0	 2.375000000000000e+00	 2.187500000000000e+00	 1.097093763846154e+01
0	 2.375000000000001e+00	 2.250000000000001e+00	 1.092055306707692e+01
0	 2.375000000000001e+00	 2.312500000000001e+00	 1.087150598061539e+01
0	 2.375000000000000e+00	 2.375000000000001e+00	 1.082379637907692e+01
0	 2.375000000000001e+00	 2.437500000000001e+00	 1.077742426246154e+01
0	 2.375000000000000e+00	 2.500000000000000e+00	 1.073238963076923e+01
0	 2.437500000000000e+00	 1.875000000000000e+00	 1.121968358461539e+01
0	 2.437500000000000e+00	 1.937500000000000e+00	 1.116919709892307e+01
0	 2.437500000000000e+00	 2.000000000000000e+00	 1.111942520492308e+01
0	 2.437500000000000e+00	 2.062500000000000e+00	 1.107036790261538e+01
0	 2.437500000000000e+00	 2.125000000000000e+00	 1.102202519200000e+01
0	 2.437500000000000e+00	 2.187500000000000e+00	 1.097439707307693e+01
0	 2.437500000000000e+00	 2.250000000000000e+00	 1.092748354584615e+01
0	 2.437500000000000e+00	 2.312500000000000e+00	 1.088128461030770e+01
0	 2.437500000000001e+00	 2.375000000000001e+00	 1.083580026646154e+01
0	 2.437500000000000e+00	 2.437500000000000e+00	 1.079103051430769e+01
0	 2.437500000000000e+00	 2.500000000000000e+00	 1.074697535384615e+01
0	 2.500000000000000e+00	 1.875000000000000e+00	 1.118704738461538e+01
0	 2.500000000000000e+00	 1.937500000000000e+00	 1.114322640307692e+01
0	 2.500000000000000e+00	 2.000000000000000e+00	 1.109949712000001e+01
0	 2.500000000000000e+00	 2.062500000000000e+00	 1.105585953538461e+01
0	 2.500000000000000e+00	 2.125000000000000e+00	 1.101231364923077e+01
0	 2.500000000000000e+00	 2.187500000000000e+00	 1.096885946153846e+01
0	 2.500000000000000e+00	 2.250000000000000e+00	 1.092549697230769e+01
0	 2.500000000000000e+00	 2.312500000000000e+00	 1.088222618153846e+01
0	 2.500000000000000e+00	 2.375000000000001e+00	 1.083904708923078e+01
0	 2.500000000000000e+00	 2.437500000000001e+00	 1.079595969538461e+01
0	 2.500000000000000e+00	 2.500000000000000e+00	 1.075296400000000e+01
0	 1.875000000000000e+00	 2.500000000000000e+00	 1.030620907692308e+01
0	 1.875000000000000e+00	 2.562500000000000e+00	 1.029359081076924e+01
0	 1.875000000000000e+00	 2.625000000000000e+00	 1.027689816615385e+01
0	 1.875000000000000e+00	 2.687499999999999e+00	 1.025613114307692e+01
0	 1.875000000000000e+00	 2.750000000000000e+00	 1.023128974153846e+01
0	 1.875000000000000e+00	 2.812499999999999e+00	 1.020237396153846e+01
0	 1.875000000000000e+00	 2.874999999999999e+00	 1.016938380307692e+01
0	 1.875000000000000e+00	 2.937499999999998e+00	 1.013231926615384e+01
0	 1.875000000000000e+00	 2.999999999999998e+00	 1.009118035076922e+01
0	 1.875000000000000e+00	 3.062499999999998e+00	 1.004596705692308e+01
0	 1.875000000000000e+00	 3.125000000000000e+00	 9.996679384615376e+00
0	 1.937500000000000e+00	 2.500000000000000e+00	 1.038957141538461e+01
0	 1.937500000000000e+00	 2.562500000000000e+00	 1.037162274523077e+01
0	 1.937500000000000e+00	 2.624999999999999e+00	 1.035008823323078e+01
0	 1.937499999999999e+00	 2.687499999999999e+00	 1.032496787938462e+01
0	 1.937500000000000e+00	 2.749999999999999e+00	 1.029626168369231e+01
0	 1.937500000000000e+00	 2.812499999999999e+00	 1.026396964615385e+01
0	 1.937500000000000e+00	 2.874999999999999e+00	 1.022809176676923e+01
0	 1.937500000000000e+00	 2.937499999999998e+00	 1.018862804553846e+01
0	 1.937500000000000e+00	 2.999999999999999e+00	 1.014557848246154e+01
0	 1.937500000000000e+00	 3.062499999999999e+00	 1.009894307753845e+01
0	 1.937500000000000e+00	 3.125000000000000e+00	 1.004872183076923e+01
0	 2.000000000000000e+00	 2.500000000000000e+00	 1.046433667692308e+01
0	 2.000000000000000e+00	 2.562500000000000e+00	 1.044159216584615e+01
0	 2.000000000000000e+00	 2.625000000000000e+00	 1.041575034953847e+01
0	 2.000000000000000e+00	 2.687500000000000e+00	 1.038681122800000e+01
0	 2.000000000000000e+00	 2.750000000000000e+00	 1.035477480123077e+01
0	 2.000000000000000e+00	 2.812499999999999e+00	 1.031964106923077e+01
0	 2.000000000000000e+00	 2.874999999999999e+00	 1.028141003199999e+01
0	 2.000000000000000e+00	 2.937499999999999e+00	 1.024008168953846e+01
0	 2.000000000000000e+00	 2.999999999999998e+00	 1.019565604184615e+01
0	 2.000000000000000e+00	 3.062499999999998e+00	 1.014813308892307e+01
0	 2.000000000000000e+00	 3.125000000000000e+00	 1.009751283076922e+01
0	 2.062500000000000e+00	 2.500000000000000e+00	 1.053050486153846e+01
0	 2.062500000000000e+00	 2.562500000000000e+00	 1.050349907261539e+01
0	 2.062500000000000e+00	 2.625000000000000e+00	 1.047388451507692e+01
0	 2.062500000000000e+00	 2.687499999999999e+00	 1.044166118892308e+01
0	 2.062500000000000e+00	 2.749999999999999e+00	 1.040682909415384e+01
0	 2.062500000000000e+00	 2.812499999999999e+00	 1.036938823076923e+01
0	 2.062500000000000e+00	 2.874999999999999e+00	 1.032933859876923e+01
0	 2.062500000000000e+00	 2.937499999999998e+00	 1.028668019815384e+01
0	 2.062500000000000e+00	 2.999999999999998e+00	 1.024141302892307e+01
0	 2.062500000000000e+00	 3.062499999999997e+00	 1.019353709107692e+01
0	 2.062500000000000e+00	 3.125000000000000e+00	 1.014305238461538e+01
0	 2.125000000000000e+00	 2.500000000000000e+00	 1.058807596923076e+01
0	 2.125000000000001e+00	 2.562500000000000e+00	 1.055734346553846e+01
0	 2.125000000000000e+00	 2.625000000000000e+00	 1.052449072984615e+01
0	 2.125000000000000e+00	 2.687499999999999e+00	 1.048951776215385e+01
0	 2.125000000000000e+00	 2.749999999999999e+00	 1.045242456246154e+01
0	 2.125000000000000e+00	 2.812499999999998e+00	 1.041321113076923e+01
0	 2.125000000000000e+00	 2.874999999999999e+00	 1.037187746707692e+01
0	 2.125000000000000e+00	 2.937499999999999e+00	 1.032842357138462e+01
0	 2.125000000000000e+00	 2.999999999999999e+00	 1.028284944369230e+01
0	 2.125000000000000e+00	 3.062499999999998e+00	 1.023515508399999e+01
0	 2.125000000000000e+00	 3.125000000000000e+00	 1.018534049230769e+01
0	 2.187500000000000e+00	 2.500000000000000e+00	 1.063705000000000e+01
0	 2.187500000000000e+00	 2.562499999999999e+00	 1.060312534461539e+01
0	 2.187500000000000e+00	 2.625000000000000e+00	 1.056756899384615e+01
0	 2.187500000000000e+00	 2.687500000000000e+00	 1.053038094769231e+01
0	 2.187500000000000e+00	 2.749999999999999e+00	 1.049156120615384e+01
0	 2.187500000000000e+00	 2.812500000000000e+00	 1.045110976923077e+01
0	 2.187500000000001e+00	 2.874999999999998e+00	 1.040902663692308e+01
0	 2.187500000000001e+00	 2.937499999999999e+00	 1.036531180923077e+01
0	 2.187500000000000e+00	 2.999999999999999e+00	 1.031996528615384e+01
0	 2.187500000000001e+00	 3.062499999999999e+00	 1.027298706769231e+01
0	 2.187500000000000e+00	 3.125000000000000e+00	 1.022437715384615e+01
0	 2.250000000000000e+00	 2.500000000000000e+00	 1.067742695384615e+01
0	 2.250000000000000e+00	 2.562500000000000e+00	 1.064084470984616e+01
0	 2.250000000000000e+00	 2.625000000000000e+00	 1.060311930707693e+01
0	 2.250000000000000e+00	 2.687499999999999e+00	 1.056425074553846e+01
0	 2.250000000000000e+00	 2.749999999999999e+00	 1.052423902523077e+01
0	 2.250000000000000e+00	 2.812499999999999e+00	 1.048308414615384e+01
0	 2.250000000000000e+00	 2.874999999999999e+00	 1.044078610830768e+01
0	 2.250000000000000e+00	 2.937499999999998e+00	 1.039734491169230e+01
0	 2.250000000000000e+00	 2.999999999999999e+00	 1.035276055630769e+01
0	 2.250000000000000e+00	 3.062499999999998e+00	 1.030703304215384e+01
0	 2.250000000000000e+00	 3.125000000000000e+00	 1.026016236923077e+01
0	 2.312500000000000e+00	 2.500000000000000e+00	 1.070920683076923e+01
0	 2.312500000000000e+00	 2.562500000000000e+00	 1.067050156123076e+01
0	 2.312500000000000e+00	 2.625000000000000e+00	 1.063114166953845e+01
0	 2.312500000000000e+00	 2.687499999999999e+00	 1.059112715569231e+01
0	 2.312500000000000e+00	 2.749999999999999e+00	 1.055045801969231e+01
0	 2.312500000000001e+00	 2.812500000000000e+00	 1.050913426153845e+01
0	 2.312500000000000e+00	 2.874999999999998e+00	 1.046715588123077e+01
0	 2.312500000000001e+00	 2.937499999999999e+00	 1.042452287876923e+01
0	 2.312500000000001e+00	 2.999999999999998e+00	 1.038123525415385e+01
0	 2.312500000000001e+00	 3.062499999999998e+00	 1.033729300738462e+01
0	 2.312500000000000e+00	 3.125000000000000e+00	 1.029269613846153e+01
0	 2.375000000000000e+00	 2.500000000000000e+00	 1.073238963076923e+01
0	 2.375000000000001e+00	 2.562500000000000e+00	 1.069209589876924e+01
0	 2.375000000000000e+00	 2.625000000000000e+00	 1.065163608123077e+01
0	 2.375000000000000e+00	 2.687500000000000e+00	 1.061101017815384e+01
0	 2.375000000000000e+00	 2.750000000000000e+00	 1.057021818953846e+01
0	 2.375000000000000e+00	 2.812499999999999e+00	 1.052926011538461e+01
0	 2.375000000000000e+00	 2.874999999999999e+00	 1.048813595569231e+01
0	 2.375000000000000e+00	 2.937499999999999e+00	 1.044684571046154e+01
0	 2.375000000000000e+00	 2.999999999999998e+00	 1.040538937969231e+01
0	 2.375000000000000e+00	 3.062499999999998e+00	 1.036376696338461e+01
0	 2.375000000000000e+00	 3.125000000000000e+00	 1.032197846153846e+01
0	 2.437500000000000e+00	 2.500000000000000e+00	 1.074697535384615e+01
0	 2.437500000000000e+00	 2.562500000000000e+00	 1.070562772246153e+01
0	 2.437500000000000e+00	 2.625000000000000e+00	 1.066460254215385e+01
0	 2.437500000000000e+00	 2.687499999999999e+00	 1.062389981292307e+01
0	 2.437500000000001e+00	 2.749999999999999e+00	 1.058351953476923e+01
0	 2.437500000000000e+00	 2.812499999999999e+00	 1.054346170769231e+01
0	 2.437500000000000e+00	 2.874999999999998e+00	 1.050372633169230e+01
0	 2.437500000000000e+00	 2.937499999999998e+00	 1.046431340676924e+01
0	 2.437500000000000e+00	 2.999999999999998e+00	 1.042522293292307e+01
0	 2.437500000000000e+00	 3.062499999999998e+00	 1.038645491015385e+01
0	 2.437500000000000e+00	 3.125000000000000e+00	 1.034800933846153e+01
0	 2.500000000000000e+00	 2.500000000000000e+00	 1.075296400000000e+01
0	 2.500000000000000e+00	 2.562500000000000e+00	 1.071109703230770e+01
0	 2.500000000000000e+00	 2.625000000000000e+00	 1.067004105230770e+01
0	 2.500000000000000e+00	 2.687499999999999e+00	 1.062979605999999e+01
0	 2.500000000000000e+00	 2.750000000000000e+00	 1.059036205538461e+01
0	 2.500000000000000e+00	 2.812499999999999e+00	 1.055173903846154e+01
0	 2.500000000000000e+00	 2.874999999999999e+00	 1.051392700923076e+01
0	 2.500000000000000e+00	 2.937499999999998e+00	 1.047692596769231e+01
0	 2.500000000000000e+00	 2.999999999999998e+00	 1.044073591384615e+01
0	 2.500000000000000e+00	 3.062499999999998e+00	 1.040535684769232e+01
0	 2.500000000000000e+00	 3.125000000000000e+00	 1.037078876923077e+01
0	 1.875000000000000e+00	 3.125000000000000e+00	 9.996679384615376e+00
0	 1.875000000000000e+00	 3.187500000000000e+00	 9.977660650769220e+00
0	 1.875000000000000e+00	 3.250000000000000e+00	 9.959200941538453e+00
0	 1.875000000000000e+00	 3.312499999999999e+00	 9.941300256923077e+00
0	 1.875000000000000e+00	 3.374999999999999e+00	 9.923958596923070e+00
0	 1.875000000000000e+00	 3.437499999999999e+00	 9.907175961538462e+00
0	 1.875000000000000e+00	 3.499999999999999e+00	 9.890952350769236e+00
0	 1.875000000000000e+00	 3.562499999999998e+00	 9.875287764615386e+00
0	 1.875000000000000e+00	 3.624999999999999e+00	 9.860182203076924e+00
0	 1.875000000000000e+00	 3.687499999999998e+00	 9.845635666153839e+00
0	 1.875000000000000e+00	 3.750000000000000e+00	 9.831648153846162e+00
0	 1.937500000000000e+00	 3.125000000000000e+00	 1.004872183076923e+01
0	 1.937500000000000e+00	 3.187499999999999e+00	 1.003001096569230e+01
0	 1.937500000000000e+00	 3.250000000000000e+00	 1.001173301353846e+01
0	 1.937499999999999e+00	 3.312499999999998e+00	 9.993887974307690e+00
0	 1.937500000000000e+00	 3.374999999999998e+00	 9.976475847999993e+00
0	 1.937500000000000e+00	 3.437499999999998e+00	 9.959496634615384e+00
0	 1.937500000000000e+00	 3.499999999999999e+00	 9.942950334153844e+00
0	 1.937500000000000e+00	 3.562499999999999e+00	 9.926836946615387e+00
0	 1.937500000000000e+00	 3.624999999999998e+00	 9.911156472000005e+00
0	 1.937500000000000e+00	 3.687499999999998e+00	 9.895908910307709e+00
0	 1.937500000000000e+00	 3.750000000000000e+00	 9.881094261538465e+00
0	 2.000000000000000e+00	 3.125000000000000e+00	 1.009751283076922e+01
0	 2.000000000000000e+00	 3.187500000000000e+00	 1.007909882830768e+01
0	 2.000000000000000e+00	 3.250000000000000e+00	 1.006099162707692e+01
0	 2.000000000000000e+00	 3.312500000000000e+00	 1.004319122707692e+01
0	 2.000000000000000e+00	 3.374999999999999e+00	 1.002569762830769e+01
0	 2.000000000000000e+00	 3.437500000000000e+00	 1.000851083076923e+01
0	 2.000000000000000e+00	 3.499999999999999e+00	 9.991630834461535e+00
0	 2.000000000000000e+00	 3.562499999999999e+00	 9.975057639384625e+00
0	 2.000000000000000e+00	 3.624999999999998e+00	 9.958791245538466e+00
0	 2.000000000000000e+00	 3.687499999999998e+00	 9.942831652923083e+00
0	 2.000000000000000e+00	 3.750000000000000e+00	 9.927178861538472e+00
0	 2.062500000000000e+00	 3.125000000000000e+00	 1.014305238461538e+01
0	 2.062500000000000e+00	 3.187500000000000e+00	 1.012492423861538e+01
0	 2.062500000000000e+00	 3.250000000000000e+00	 1.010697678215384e+01
0	 2.062500000000000e+00	 3.312499999999999e+00	 1.008921001523077e+01
0	 2.062500000000000e+00	 3.374999999999998e+00	 1.007162393784615e+01
0	 2.062500000000000e+00	 3.437499999999999e+00	 1.005421855000000e+01
0	 2.062500000000000e+00	 3.499999999999999e+00	 1.003699385169232e+01
0	 2.062500000000000e+00	 3.562499999999999e+00	 1.001994984292308e+01
0	 2.062500000000000e+00	 3.624999999999998e+00	 1.000308652369231e+01
0	 2.062500000000000e+00	 3.687499999999998e+00	 9.986403894000018e+00
0	 2.062500000000000e+00	 3.750000000000000e+00	 9.969901953846163e+00
0	 2.125000000000000e+00	 3.125000000000000e+00	 1.018534049230769e+01
0	 2.125000000000001e+00	 3.187500000000000e+00	 1.016748719661539e+01
0	 2.125000000000000e+00	 3.250000000000000e+00	 1.014968847876922e+01
0	 2.125000000000000e+00	 3.312500000000000e+00	 1.013194433876923e+01
0	 2.125000000000000e+00	 3.374999999999999e+00	 1.011425477661538e+01
0	 2.125000000000000e+00	 3.437499999999998e+00	 1.009661979230769e+01
0	 2.125000000000000e+00	 3.499999999999999e+00	 1.007903938584615e+01
0	 2.125000000000000e+00	 3.562499999999998e+00	 1.006151355723076e+01
0	 2.125000000000000e+00	 3.624999999999999e+00	 1.004404230646153e+01
0	 2.125000000000000e+00	 3.687499999999998e+00	 1.002662563353847e+01
0	 2.125000000000000e+00	 3.750000000000000e+00	 1.000926353846154e+01
0	 2.187500000000000e+00	 3.125000000000000e+00	 1.022437715384615e+01
0	 2.187500000000000e+00	 3.187500000000000e+00	 1.020678770230769e+01
0	 2.187500000000000e+00	 3.250000000000000e+00	 1.018912671692308e+01
0	 2.187500000000000e+00	 3.312500000000000e+00	 1.017139419769230e+01
0	 2.187500000000000e+00	 3.374999999999999e+00	 1.015359014461539e+01
0	 2.187500000000000e+00	 3.437499999999999e+00	 1.013571455769230e+01
0	 2.187500000000001e+00	 3.499999999999999e+00	 1.011776743692307e+01
0	 2.187500000000001e+00	 3.562499999999999e+00	 1.009974878230770e+01
0	 2.187500000000000e+00	 3.624999999999998e+00	 1.008165859384617e+01
0	 2.187500000000001e+00	 3.687499999999999e+00	 1.006349687153847e+01
0	 2.187500000000000e+00	 3.750000000000000e+00	 1.004526361538461e+01
0	 2.250000000000000e+00	 3.125000000000000e+00	 1.026016236923077e+01
0	 2.250000000000000e+00	 3.187500000000000e+00	 1.024282575569230e+01
0	 2.250000000000000e+00	 3.250000000000000e+00	 1.022529149661538e+01
0	 2.250000000000000e+00	 3.312499999999999e+00	 1.020755959200000e+01
0	 2.250000000000000e+00	 3.374999999999999e+00	 1.018963004184615e+01
0	 2.250000000000000e+00	 3.437499999999999e+00	 1.017150284615385e+01
0	 2.250000000000000e+00	 3.499999999999998e+00	 1.015317800492307e+01
0	 2.250000000000000e+00	 3.562499999999999e+00	 1.013465551815385e+01
0	 2.250000000000000e+00	 3.624999999999998e+00	 1.011593538584616e+01
0	 2.250000000000000e+00	 3.687499999999998e+00	 1.009701760800001e+01
0	 2.250000000000000e+00	 3.750000000000000e+00	 1.007790218461540e+01
0	 2.312500000000000e+00	 3.125000000000000e+00	 1.029269613846153e+01
0	 2.312500000000000e+00	 3.187500000000000e+00	 1.027560135676922e+01
0	 2.312500000000000e+00	 3.250000000000000e+00	 1.025818281784615e+01
0	 2.312500000000000e+00	 3.312499999999999e+00	 1.024044052169230e+01
0	 2.312500000000000e+00	 3.374999999999999e+00	 1.022237446830770e+01
0	 2.312500000000001e+00	 3.437499999999999e+00	 1.020398465769231e+01
0	 2.312500000000000e+00	 3.499999999999999e+00	 1.018527108984615e+01
0	 2.312500000000001e+00	 3.562499999999999e+00	 1.016623376476923e+01
0	 2.312500000000001e+00	 3.624999999999998e+00	 1.014687268246154e+01
0	 2.312500000000001e+00	 3.687499999999999e+00	 1.012718784292309e+01
0	 2.312500000000000e+00	 3.750000000000000e+00	 1.010717924615385e+01
0	 2.375000000000000e+00	 3.125000000000000e+00	 1.032197846153846e+01
0	 2.375000000000001e+00	 3.187500000000000e+00	 1.030511450553846e+01
0	 2.375000000000000e+00	 3.250000000000000e+00	 1.028780068061538e+01
0	 2.375000000000000e+00	 3.312499999999999e+00	 1.027003698676923e+01
0	 2.375000000000000e+00	 3.375000000000000e+00	 1.025182342400000e+01
0	 2.375000000000000e+00	 3.437499999999999e+00	 1.023315999230769e+01
0	 2.375000000000000e+00	 3.499999999999999e+00	 1.021404669169231e+01
0	 2.375000000000000e+00	 3.562499999999998e+00	 1.019448352215385e+01
0	 2.375000000000000e+00	 3.624999999999998e+00	 1.017447048369230e+01
0	 2.375000000000000e+00	 3.687499999999998e+00	 1.015400757630769e+01
0	 2.375000000000000e+00	 3.750000000000000e+00	 1.013309480000000e+01
0	 2.437500000000000e+00	 3.125000000000000e+00	 1.034800933846153e+01
0	 2.437500000000000e+00	 3.187499999999999e+00	 1.033136520199999e+01
0	 2.437500000000000e+00	 3.250000000000000e+00	 1.031414508492307e+01
0	 2.437500000000000e+00	 3.312500000000000e+00	 1.029634898723076e+01
0	 2.437500000000001e+00	 3.375000000000000e+00	 1.027797690892308e+01
0	 2.437500000000000e+00	 3.437499999999998e+00	 1.025902885000000e+01
0	 2.437500000000000e+00	 3.499999999999999e+00	 1.023950481046153e+01
0	 2.437500000000000e+00	 3.562499999999998e+00	 1.021940479030769e+01
0	 2.437500000000000e+00	 3.624999999999999e+00	 1.019872878953846e+01
0	 2.437500000000000e+00	 3.687499999999998e+00	 1.017747680815384e+01
0	 2.437500000000000e+00	 3.750000000000000e+00	 1.015564884615386e+01
0	 2.500000000000000e+00	 3.125000000000000e+00	 1.037078876923077e+01
0	 2.500000000000000e+00	 3.187500000000000e+00	 1.035435344615384e+01
0	 2.500000000000000e+00	 3.250000000000000e+00	 1.033721603076922e+01
0	 2.500000000000000e+00	 3.312499999999999e+00	 1.031937652307692e+01
0	 2.500000000000000e+00	 3.374999999999999e+00	 1.030083492307692e+01
0	 2.500000000000000e+00	 3.437499999999999e+00	 1.028159123076922e+01
0	 2.500000000000000e+00	 3.499999999999999e+00	 1.026164544615385e+01
0	 2.500000000000000e+00	 3.562499999999998e+00	 1.024099756923077e+01
0	 2.500000000000000e+00	 3.624999999999999e+00	 1.021964760000000e+01
0	 2.500000000000000e+00	 3.687499999999998e+00	 1.019759553846153e+01
0	 2.500000000000000e+00	 3.750000000000000e+00	 1.017484138461538e+01
0	 1.875000000000000e+00	 3.750000000000000e+00	 9.831648153846162e+00
0	 1.875000000000000e+00	 3.812500000000000e+00	 9.832403833846165e+00
0	 1.875000000000000e+00	 3.875000000000000e+00	 9.832141950769238e+00
0	 1.875000000000000e+00	 3.937499999999999e+00	 9.830862504615384e+00
0	 1.875000000000000e+00	 4.000000000000000e+00	 9.828565495384616e+00
0	 1.875000000000000e+00	 4.062499999999999e+00	 9.825250923076929e+00
0	 1.875000000000000e+00	 4.124999999999999e+00	 9.820918787692305e+00
0	 1.875000000000000e+00	 4.187499999999998e+00	 9.815569089230763e+00
0	 1.875000000000000e+00	 4.249999999999998e+00	 9.809201827692302e+00
0	 1.875000000000000e+00	 4.312499999999998e+00	 9.801817003076925e+00
0	 1.875000000000000e+00	 4.375000000000000e+00	 9.793414615384611e+00
0	 1.937500000000000e+00	 3.750000000000000e+00	 9.881094261538465e+00
0	 1.937500000000000e+00	 3.812499999999999e+00	 9.879485503230768e+00
0	 1.937500000000000e+00	 3.874999999999999e+00	 9.876946169846166e+00
0	 1.937499999999999e+00	 3.937499999999998e+00	 9.873476261384628e+00
0	 1.937500000000000e+00	 3.999999999999999e+00	 9.869075777846156e+00
0	 1.937500000000000e+00	 4.062499999999998e+00	 9.863744719230764e+00
0	 1.937500000000000e+00	 4.124999999999999e+00	 9.857483085538469e+00
0	 1.937500000000000e+00	 4.187499999999998e+00	 9.850290876769233e+00
0	 1.937500000000000e+00	 4.249999999999998e+00	 9.842168092923078e+00
0	 1.937500000000000e+00	 4.312499999999997e+00	 9.833114733999992e+00
0	 1.937500000000000e+00	 4.375000000000000e+00	 9.823130800000003e+00
0	 2.000000000000000e+00	 3.750000000000000e+00	 9.927178861538472e+00
0	 2.000000000000000e+00	 3.812499999999999e+00	 9.923430009538469e+00
0	 2.000000000000000e+00	 3.875000000000000e+00	 9.918837570461552e+00
0	 2.000000000000000e+00	 3.937500000000000e+00	 9.913401544307696e+00
0	 2.000000000000000e+00	 3.999999999999999e+00	 9.907121931076928e+00
0	 2.000000000000000e+00	 4.062499999999999e+00	 9.899998730769228e+00
0	 2.000000000000000e+00	 4.124999999999999e+00	 9.892031943384616e+00
0	 2.000000000000000e+00	 4.187499999999997e+00	 9.883221568923073e+00
0	 2.000000000000000e+00	 4.249999999999998e+00	 9.873567607384619e+00
0	 2.000000000000000e+00	 4.312499999999998e+00	 9.863070058769226e+00
0	 2.000000000000000e+00	 4.375000000000000e+00	 9.851728923076900e+00
0	 2.062500000000000e+00	 3.750000000000000e+00	 9.969901953846163e+00
0	 2.062500000000000e+00	 3.812500000000000e+00	 9.964237352769242e+00
0	 2.062500000000000e+00	 3.875000000000000e+00	 9.957816152615386e+00
0	 2.062500000000000e+00	 3.937499999999999e+00	 9.950638353384621e+00
0	 2.062500000000000e+00	 3.999999999999998e+00	 9.942703955076929e+00
0	 2.062500000000000e+00	 4.062499999999999e+00	 9.934012957692307e+00
0	 2.062500000000000e+00	 4.124999999999999e+00	 9.924565361230771e+00
0	 2.062500000000000e+00	 4.187499999999998e+00	 9.914361165692309e+00
0	 2.062500000000000e+00	 4.249999999999998e+00	 9.903400371076923e+00
0	 2.062500000000000e+00	 4.312499999999997e+00	 9.891682977384615e+00
0	 2.062500000000000e+00	 4.375000000000000e+00	 9.879208984615369e+00
0	 2.125000000000000e+00	 3.750000000000000e+00	 1.000926353846154e+01
0	 2.125000000000001e+00	 3.812500000000000e+00	 1.000190753292309e+01
0	 2.125000000000000e+00	 3.875000000000000e+00	 9.993881916307698e+00
0	 2.125000000000000e+00	 3.937499999999999e+00	 9.985186688615389e+00
0	 2.125000000000000e+00	 4.000000000000000e+00	 9.975821849846152e+00
0	 2.125000000000000e+00	 4.062499999999998e+00	 9.965787400000005e+00
0	 2.125000000000000e+00	 4.124999999999999e+00	 9.955083339076921e+00
0	 2.125000000000000e+00	 4.187499999999998e+00	 9.943709667076922e+00
0	 2.125000000000000e+00	 4.249999999999998e+00	 9.931666383999991e+00
0	 2.125000000000000e+00	 4.312499999999998e+00	 9.918953489846158e+00
0	 2.125000000000000e+00	 4.375000000000000e+00	 9.905570984615387e+00
0	 2.187500000000000e+00	 3.750000000000000e+00	 1.004526361538461e+01
0	 2.187500000000000e+00	 3.812500000000000e+00	 1.003644054999999e+01
0	 2.187500000000000e+00	 3.875000000000000e+00	 1.002703486153846e+01
0	 2.187500000000000e+00	 3.937499999999999e+00	 1.001704655000000e+01
0	 2.187500000000000e+00	 3.999999999999998e+00	 1.000647561538461e+01
0	 2.187500000000000e+00	 4.062500000000000e+00	 9.995322057692309e+00
0	 2.187500000000001e+00	 4.124999999999998e+00	 9.983585876923085e+00
0	 2.187500000000001e+00	 4.187499999999998e+00	 9.971267073076927e+00
0	 2.187500000000000e+00	 4.249999999999998e+00	 9.958365646153837e+00
0	 2.187500000000001e+00	 4.312499999999999e+00	 9.944881596153836e+00
0	 2.187500000000000e+00	 4.375000000000001e+00	 9.930814923076918e+00
0	 2.250000000000000e+00	 3.750000000000000e+00	 1.007790218461540e+01
0	 2.250000000000000e+00	 3.812500000000000e+00	 1.006783640400001e+01
0	 2.250000000000000e+00	 3.875000000000000e+00	 1.005727498830771e+01
0	 2.250000000000000e+00	 3.937499999999999e+00	 1.004621793753846e+01
0	 2.250000000000000e+00	 4.000000000000000e+00	 1.003466525169231e+01
0	 2.250000000000000e+00	 4.062499999999998e+00	 1.002261693076923e+01
0	 2.250000000000000e+00	 4.124999999999999e+00	 1.001007297476922e+01
0	 2.250000000000000e+00	 4.187499999999998e+00	 9.997033383692299e+00
0	 2.250000000000000e+00	 4.249999999999998e+00	 9.983498157538463e+00
0	 2.250000000000000e+00	 4.312499999999998e+00	 9.969467296307691e+00
0	 2.250000000000000e+00	 4.375000000000000e+00	 9.954940799999992e+00
0	 2.312500000000000e+00	 3.750000000000000e+00	 1.010717924615385e+01
0	 2.312500000000000e+00	 3.812500000000000e+00	 1.009609509492308e+01
0	 2.312500000000000e+00	 3.875000000000000e+00	 1.008460229661538e+01
0	 2.312500000000000e+00	 3.937499999999999e+00	 1.007270085123076e+01
0	 2.312500000000000e+00	 3.999999999999999e+00	 1.006039075876923e+01
0	 2.312500000000001e+00	 4.062500000000000e+00	 1.004767201923077e+01
0	 2.312500000000000e+00	 4.124999999999998e+00	 1.003454463261539e+01
0	 2.312500000000001e+00	 4.187499999999999e+00	 1.002100859892308e+01
0	 2.312500000000001e+00	 4.249999999999998e+00	 1.000706391815384e+01
0	 2.312500000000001e+00	 4.312499999999999e+00	 9.992710590307698e+00
0	 2.312500000000000e+00	 4.375000000000000e+00	 9.977948615384623e+00
0	 2.375000000000000e+00	 3.750000000000000e+00	 1.013309480000000e+01
0	 2.375000000000001e+00	 3.812500000000000e+00	 1.012121662276924e+01
0	 2.375000000000000e+00	 3.875000000000000e+00	 1.010901678646153e+01
0	 2.375000000000000e+00	 3.937499999999999e+00	 1.009649529107692e+01
0	 2.375000000000000e+00	 4.000000000000000e+00	 1.008365213661539e+01
0	 2.375000000000000e+00	 4.062499999999998e+00	 1.007048732307693e+01
0	 2.375000000000000e+00	 4.124999999999999e+00	 1.005700085046155e+01
0	 2.375000000000000e+00	 4.187499999999998e+00	 1.004319271876922e+01
0	 2.375000000000000e+00	 4.249999999999998e+00	 1.002906292800000e+01
0	 2.375000000000000e+00	 4.312499999999997e+00	 1.001461147815385e+01
0	 2.375000000000000e+00	 4.375000000000000e+00	 9.999838369230764e+00
0	 2.437500000000000e+00	 3.750000000000000e+00	 1.015564884615386e+01
0	 2.437500000000000e+00	 3.812499999999999e+00	 1.014320098753846e+01
0	 2.437500000000000e+00	 3.874999999999999e+00	 1.013051845784616e+01
0	 2.437500000000000e+00	 3.937500000000000e+00	 1.011760125707692e+01
0	 2.437500000000001e+00	 3.999999999999999e+00	 1.010444938523077e+01
0	 2.437500000000000e+00	 4.062499999999998e+00	 1.009106284230769e+01
0	 2.437500000000000e+00	 4.124999999999999e+00	 1.007744162830770e+01
0	 2.437500000000000e+00	 4.187499999999997e+00	 1.006358574323077e+01
0	 2.437500000000000e+00	 4.249999999999998e+00	 1.004949518707692e+01
0	 2.437500000000000e+00	 4.312499999999998e+00	 1.003516995984615e+01
0	 2.437500000000000e+00	 4.375000000000000e+00	 1.002061006153846e+01
0	 2.500000000000000e+00	 3.750000000000000e+00	 1.017484138461538e+01
0	 2.500000000000000e+00	 3.812500000000000e+00	 1.016204818923077e+01
0	 2.500000000000000e+00	 3.875000000000000e+00	 1.014910731076923e+01
0	 2.500000000000000e+00	 3.937499999999999e+00	 1.013601874923077e+01
0	 2.500000000000000e+00	 4.000000000000000e+00	 1.012278250461538e+01
0	 2.500000000000000e+00	 4.062499999999999e+00	 1.010939857692308e+01
0	 2.500000000000000e+00	 4.124999999999999e+00	 1.009586696615384e+01
0	 2.500000000000000e+00	 4.187499999999998e+00	 1.008218767230770e+01
0	 2.500000000000000e+00	 4.249999999999998e+00	 1.006836069538461e+01
0	 2.500000000000000e+00	 4.312499999999998e+00	 1.005438603538463e+01
0	 2.500000000000000e+00	 4.375000000000000e+00	 1.004026369230769e+01
0	 1.875000000000000e+00	 4.375000000000000e+00	 9.793414615384611e+00
0	 1.875000000000000e+00	 4.437499999999999e+00	 9.795067710769217e+00
0	 1.875000000000000e+00	 4.500000000000001e+00	 9.796590873846153e+00
0	 1.875000000000000e+00	 4.562499999999999e+00	 9.797984104615388e+00
0	 1.875000000000000e+00	 4.625000000000000e+00	 9.799247403076919e+00
0	 1.875000000000000e+00	 4.687499999999999e+00	 9.800380769230756e+00
0	 1.875000000000000e+00	 4.749999999999999e+00	 9.801384203076923e+00
0	 1.875000000000000e+00	 4.812499999999998e+00	 9.802257704615375e+00
0	 1.875000000000000e+00	 4.874999999999998e+00	 9.803001273846149e+00
0	 1.875000000000000e+00	 4.937499999999998e+00	 9.803614910769214e+00
0	 1.875000000000000e+00	 5.000000000000000e+00	 9.804098615384609e+00
0	 1.937500000000000e+00	 4.375000000000000e+00	 9.823130800000003e+00
0	 1.937500000000000e+00	 4.437499999999999e+00	 9.823996786615378e+00
0	 1.937500000000000e+00	 4.499999999999999e+00	 9.824710752615387e+00
0	 1.937499999999999e+00	 4.562499999999999e+00	 9.825272697999988e+00
0	 1.937500000000000e+00	 4.624999999999999e+00	 9.825682622769227e+00
0	 1.937500000000000e+00	 4.687499999999998e+00	 9.825940526923070e+00
0	 1.937500000000000e+00	 4.749999999999998e+00	 9.826046410461528e+00
0	 1.937500000000000e+00	 4.812499999999997e+00	 9.826000273384608e+00
0	 1.937500000000000e+00	 4.874999999999998e+00	 9.825802115692310e+00
0	 1.937500000000000e+00	 4.937499999999997e+00	 9.825451937384614e+00
0	 1.937500000000000e+00	 5.000000000000000e+00	 9.824949738461534e+00
0	 2.000000000000000e+00	 4.375000000000000e+00	 9.851728923076900e+00
0	 2.000000000000000e+00	 4.437499999999999e+00	 9.851853720923073e+00
0	 2.000000000000000e+00	 4.499999999999999e+00	 9.851804409846149e+00
0	 2.000000000000000e+00	 4.562499999999999e+00	 9.851580989846148e+00
0	 2.000000000000000e+00	 4.624999999999999e+00	 9.851183460923066e+00
0	 2.000000000000000e+00	 4.687499999999999e+00	 9.850611823076914e+00
0	 2.000000000000000e+00	 4.749999999999998e+00	 9.849866076307682e+00
0	 2.000000000000000e+00	 4.812499999999997e+00	 9.848946220615383e+00
0	 2.000000000000000e+00	 4.874999999999997e+00	 9.847852255999985e+00
0	 2.000000000000000e+00	 4.937499999999997e+00	 9.846584182461545e+00
0	 2.000000000000000e+00	 5.000000000000001e+00	 9.845142000000003e+00
0	 2.062500000000000e+00	 4.375000000000000e+00	 9.879208984615369e+00
0	 2.062500000000000e+00	 4.437500000000000e+00	 9.878638513692310e+00
0	 2.062500000000000e+00	 4.500000000000000e+00	 9.877871845538447e+00
0	 2.062500000000000e+00	 4.562500000000000e+00	 9.876908980153853e+00
0	 2.062500000000000e+00	 4.624999999999997e+00	 9.875749917538457e+00
0	 2.062500000000000e+00	 4.687499999999999e+00	 9.874394657692301e+00
0	 2.062500000000000e+00	 4.749999999999998e+00	 9.872843200615387e+00
0	 2.062500000000000e+00	 4.812499999999998e+00	 9.871095546307682e+00
0	 2.062500000000000e+00	 4.874999999999996e+00	 9.869151694769229e+00
0	 2.062500000000000e+00	 4.937499999999996e+00	 9.867011645999989e+00
0	 2.062500000000000e+00	 5.000000000000000e+00	 9.864675399999999e+00
0	 2.125000000000000e+00	 4.375000000000000e+00	 9.905570984615387e+00
0	 2.125000000000001e+00	 4.437500000000001e+00	 9.904351164923071e+00
0	 2.125000000000000e+00	 4.500000000000000e+00	 9.902913059692306e+00
0	 2.125000000000000e+00	 4.562499999999999e+00	 9.901256668923068e+00
0	 2.125000000000000e+00	 4.625000000000000e+00	 9.899381992615373e+00
0	 2.125000000000000e+00	 4.687499999999998e+00	 9.897289030769226e+00
0	 2.125000000000000e+00	 4.749999999999999e+00	 9.894977783384604e+00
0	 2.125000000000000e+00	 4.812500000000000e+00	 9.892448250461525e+00
0	 2.125000000000000e+00	 4.874999999999998e+00	 9.889700431999993e+00
0	 2.125000000000000e+00	 4.937499999999998e+00	 9.886734327999999e+00
0	 2.125000000000000e+00	 5.000000000000000e+00	 9.883549938461538e+00
0	 2.187500000000000e+00	 4.375000000000001e+00	 9.930814923076918e+00
0	 2.187500000000000e+00	 4.437500000000000e+00	 9.928991674615375e+00
0	 2.187500000000000e+00	 4.500000000000000e+00	 9.926928052307687e+00
0	 2.187500000000000e+00	 4.562500000000000e+00	 9.924624056153839e+00
0	 2.187500000000000e+00	 4.624999999999998e+00	 9.922079686153840e+00
0	 2.187500000000000e+00	 4.687500000000001e+00	 9.919294942307690e+00
0	 2.187500000000001e+00	 4.749999999999999e+00	 9.916269824615378e+00
0	 2.187500000000001e+00	 4.812499999999999e+00	 9.913004333076916e+00
0	 2.187500000000000e+00	 4.874999999999998e+00	 9.909498467692311e+00
0	 2.187500000000001e+00	 4.937499999999998e+00	 9.905752228461534e+00
0	 2.187500000000000e+00	 5.000000000000001e+00	 9.901765615384607e+00
0	 2.250000000000000e+00	 4.375000000000000e+00	 9.954940799999992e+00
0	 2.250000000000000e+00	 4.437499999999999e+00	 9.952560042769223e+00
0	 2.250000000000000e+00	 4.499999999999999e+00	 9.949916823384612e+00
0	 2.250000000000000e+00	 4.562499999999999e+00	 9.947011141846154e+00
0	 2.250000000000000e+00	 4.624999999999999e+00	 9.943842998153844e+00
0	 2.250000000000000e+00	 4.687499999999999e+00	 9.940412392307689e+00
0	 2.250000000000000e+00	 4.749999999999998e+00	 9.936719324307688e+00
0	 2.250000000000000e+00	 4.812499999999999e+00	 9.932763794153844e+00
0	 2.250000000000000e+00	 4.874999999999998e+00	 9.928545801846143e+00
0	 2.250000000000000e+00	 4.937499999999999e+00	 9.924065347384600e+00
0	 2.250000000000000e+00	 5.000000000000000e+00	 9.919322430769235e+00
0	 2.312500000000000e+00	 4.375000000000000e+00	 9.977948615384623e+00
0	 2.312500000000000e+00	 4.437500000000000e+00	 9.975056269384613e+00
0	 2.312500000000000e+00	 4.499999999999999e+00	 9.971879372923075e+00
0	 2.312500000000000e+00	 4.562499999999998e+00	 9.968417925999990e+00
0	 2.312500000000000e+00	 4.625000000000000e+00	 9.964671928615370e+00
0	 2.312500000000001e+00	 4.687500000000000e+00	 9.960641380769230e+00
0	 2.312500000000000e+00	 4.749999999999998e+00	 9.956326282461530e+00
0	 2.312500000000001e+00	 4.812499999999999e+00	 9.951726633692303e+00
0	 2.312500000000001e+00	 4.874999999999997e+00	 9.946842434461534e+00
0	 2.312500000000001e+00	 4.937499999999998e+00	 9.941673684769230e+00
0	 2.312500000000000e+00	 5.000000000000000e+00	 9.936220384615382e+00
0	 2.375000000000000e+00	 4.375000000000000e+00	 9.999838369230764e+00
0	 2.375000000000001e+00	 4.437500000000000e+00	 9.996480354461545e+00
0	 2.375000000000000e+00	 4.500000000000000e+00	 9.992815700923073e+00
0	 2.375000000000000e+00	 4.562499999999999e+00	 9.988844408615375e+00
0	 2.375000000000000e+00	 4.624999999999999e+00	 9.984566477538463e+00
0	 2.375000000000000e+00	 4.687499999999998e+00	 9.979981907692309e+00
0	 2.375000000000000e+00	 4.749999999999999e+00	 9.975090699076915e+00
0	 2.375000000000000e+00	 4.812499999999998e+00	 9.969892851692308e+00
0	 2.375000000000000e+00	 4.874999999999998e+00	 9.964388365538461e+00
0	 2.375000000000000e+00	 4.937499999999997e+00	 9.958577240615382e+00
0	 2.375000000000000e+00	 5.000000000000000e+00	 9.952459476923073e+00
0	 2.437500000000000e+00	 4.375000000000000e+00	 1.002061006153846e+01
0	 2.437500000000000e+00	 4.437499999999999e+00	 1.001683229799999e+01
0	 2.437500000000000e+00	 4.499999999999999e+00	 1.001272580738461e+01
0	 2.437500000000000e+00	 4.562499999999999e+00	 1.000829058969229e+01
0	 2.437500000000001e+00	 4.624999999999999e+00	 1.000352664492307e+01
0	 2.437500000000000e+00	 4.687499999999998e+00	 9.998433973076917e+00
0	 2.437500000000000e+00	 4.749999999999998e+00	 9.993012574153845e+00
0	 2.437500000000000e+00	 4.812499999999998e+00	 9.987262448153846e+00
0	 2.437500000000000e+00	 4.874999999999998e+00	 9.981183595076924e+00
0	 2.437500000000000e+00	 4.937499999999997e+00	 9.974776014923069e+00
0	 2.437500000000000e+00	 5.000000000000001e+00	 9.968039707692309e+00
0	 2.500000000000000e+00	 4.375000000000000e+00	 1.004026369230769e+01
0	 2.500000000000000e+00	 4.437499999999999e+00	 1.003611210000000e+01
0	 2.500000000000000e+00	 4.500000000000001e+00	 1.003160969230769e+01
0	 2.500000000000000e+00	 4.562499999999999e+00	 1.002675646923077e+01
0	 2.500000000000000e+00	 4.625000000000000e+00	 1.002155243076922e+01
0	 2.500000000000000e+00	 4.687499999999999e+00	 1.001599757692307e+01
0	 2.500000000000000e+00	 4.749999999999999e+00	 1.001009190769231e+01
0	 2.500000000000000e+00	 4.812499999999998e+00	 1.000383542307692e+01
0	 2.500000000000000e+00	 4.874999999999998e+00	 9.997228123076912e+00
0	 2.500000000000000e+00	 4.937499999999998e+00	 9.990270007692304e+00
0	 2.500000000000000e+00	 5.000000000000000e+00	 9.982961076923074e+00
0	 1.875000000000000e+00	 5.000000000000000e+00	 9.804098615384609e+00
0	 1.875000000000000e+00	 5.062500000000000e+00	 9.807222112307699e+00
0	 1.875000000000000e+00	 5.125000000000001e+00	 9.810204664615382e+00
0	 1.875000000000000e+00	 5.187499999999999e+00	 9.813046272307671e+00
0	 1.875000000000000e+00	 5.249999999999999e+00	 9.815746935384608e+00
0	 1.875000000000000e+00	 5.312499999999999e+00	 9.818306653846147e+00
0	 1.875000000000000e+00	 5.374999999999998e+00	 9.820725427692294e+00
0	 1.875000000000000e+00	 5.437499999999998e+00	 9.823003256923073e+00
0	 1.875000000000000e+00	 5.499999999999998e+00	 9.825140141538453e+00
0	 1.875000000000000e+00	 5.562499999999998e+00	 9.827136081538464e+00
0	 1.875000000000000e+00	 5.625000000000000e+00	 9.828991076923073e+00
0	 1.937500000000000e+00	 5.000000000000000e+00	 9.824949738461534e+00
0	 1.937500000000000e+00	 5.062499999999999e+00	 9.827405960769216e+00
0	 1.937500000000000e+00	 5.125000000000000e+00	 9.829721723076926e+00
0	 1.937499999999999e+00	 5.187499999999999e+00	 9.831897025384601e+00
0	 1.937500000000000e+00	 5.249999999999998e+00	 9.833931867692298e+00
0	 1.937500000000000e+00	 5.312499999999998e+00	 9.835826250000002e+00
0	 1.937500000000000e+00	 5.374999999999998e+00	 9.837580172307684e+00
0	 1.937500000000000e+00	 5.437499999999998e+00	 9.839193634615382e+00
0	 1.937500000000000e+00	 5.499999999999998e+00	 9.840666636923071e+00
0	 1.937500000000000e+00	 5.562499999999997e+00	 9.841999179230758e+00
0	 1.937500000000000e+00	 5.625000000000000e+00	 9.843191261538447e+00
0	 2.000000000000000e+00	 5.000000000000001e+00	 9.845142000000003e+00
0	 2.000000000000000e+00	 5.062499999999999e+00	 9.846966744615379e+00
0	 2.000000000000000e+00	 5.124999999999999e+00	 9.848651513846143e+00
0	 2.000000000000000e+00	 5.187500000000000e+00	 9.850196307692311e+00
0	 2.000000000000000e+00	 5.249999999999999e+00	 9.851601126153838e+00
0	 2.000000000000000e+00	 5.312499999999999e+00	 9.852865969230777e+00
0	 2.000000000000000e+00	 5.374999999999999e+00	 9.853990836923074e+00
0	 2.000000000000000e+00	 5.437499999999997e+00	 9.854975729230762e+00
0	 2.000000000000000e+00	 5.499999999999996e+00	 9.855820646153839e+00
0	 2.000000000000000e+00	 5.562499999999998e+00	 9.856525587692325e+00
0	 2.000000000000000e+00	 5.625000000000000e+00	 9.857090553846126e+00
0	 2.062500000000000e+00	 5.000000000000000e+00	 9.864675399999999e+00
0	 2.062500000000000e+00	 5.062499999999999e+00	 9.865904463846157e+00
0	 2.062500000000000e+00	 5.124999999999998e+00	 9.866994036923074e+00
0	 2.062500000000000e+00	 5.187499999999999e+00	 9.867944119230769e+00
0	 2.062500000000000e+00	 5.249999999999997e+00	 9.868754710769224e+00
0	 2.062500000000000e+00	 5.312499999999999e+00	 9.869425811538465e+00
0	 2.062500000000000e+00	 5.374999999999998e+00	 9.869957421538450e+00
0	 2.062500000000000e+00	 5.437499999999998e+00	 9.870349540769229e+00
0	 2.062500000000000e+00	 5.499999999999998e+00	 9.870602169230764e+00
0	 2.062500000000000e+00	 5.562499999999996e+00	 9.870715306923076e+00
0	 2.062500000000000e+00	 5.625000000000000e+00	 9.870688953846154e+00
0	 2.125000000000000e+00	 5.000000000000000e+00	 9.883549938461538e+00
0	 2.125000000000001e+00	 5.062500000000001e+00	 9.884219118461530e+00
0	 2.125000000000000e+00	 5.124999999999999e+00	 9.884749292307689e+00
0	 2.125000000000000e+00	 5.187500000000000e+00	 9.885140459999988e+00
0	 2.125000000000000e+00	 5.250000000000000e+00	 9.885392621538450e+00
0	 2.125000000000000e+00	 5.312499999999997e+00	 9.885505776923072e+00
0	 2.125000000000000e+00	 5.374999999999999e+00	 9.885479926153844e+00
0	 2.125000000000000e+00	 5.437499999999999e+00	 9.885315069230771e+00
0	 2.125000000000000e+00	 5.499999999999998e+00	 9.885011206153838e+00
0	 2.125000000000000e+00	 5.562499999999999e+00	 9.884568336923072e+00
0	 2.125000000000000e+00	 5.625000000000000e+00	 9.883986461538456e+00
0	 2.187500000000000e+00	 5.000000000000001e+00	 9.901765615384607e+00
0	 2.187500000000000e+00	 5.062500000000001e+00	 9.901910708461541e+00
0	 2.187500000000000e+00	 5.124999999999999e+00	 9.901917279999990e+00
0	 2.187500000000000e+00	 5.187500000000000e+00	 9.901785329999985e+00
0	 2.187500000000000e+00	 5.249999999999998e+00	 9.901514858461526e+00
0	 2.187500000000000e+00	 5.312500000000000e+00	 9.901105865384608e+00
0	 2.187500000000001e+00	 5.375000000000000e+00	 9.900558350769224e+00
0	 2.187500000000001e+00	 5.437500000000000e+00	 9.899872314615372e+00
0	 2.187500000000000e+00	 5.499999999999998e+00	 9.899047756923057e+00
0	 2.187500000000001e+00	 5.562499999999998e+00	 9.898084677692289e+00
0	 2.187500000000000e+00	 5.625000000000000e+00	 9.896983076923066e+00
0	 2.250000000000000e+00	 5.000000000000000e+00	 9.919322430769235e+00
0	 2.250000000000000e+00	 5.062500000000000e+00	 9.918979233846144e+00
0	 2.250000000000000e+00	 5.125000000000000e+00	 9.918498000000003e+00
0	 2.250000000000000e+00	 5.187499999999999e+00	 9.917878729230754e+00
0	 2.250000000000000e+00	 5.250000000000000e+00	 9.917121421538456e+00
0	 2.250000000000000e+00	 5.312499999999999e+00	 9.916226076923081e+00
0	 2.250000000000000e+00	 5.374999999999999e+00	 9.915192695384610e+00
0	 2.250000000000000e+00	 5.437499999999998e+00	 9.914021276923068e+00
0	 2.250000000000000e+00	 5.499999999999998e+00	 9.912711821538458e+00
0	 2.250000000000000e+00	 5.562499999999998e+00	 9.911264329230768e+00
0	 2.250000000000000e+00	 5.625000000000000e+00	 9.909678800000012e+00
0	 2.312500000000000e+00	 5.000000000000000e+00	 9.936220384615382e+00
0	 2.312500000000000e+00	 5.062500000000000e+00	 9.935424694615392e+00
0	 2.312500000000000e+00	 5.124999999999999e+00	 9.934491452307700e+00
0	 2.312500000000000e+00	 5.187499999999999e+00	 9.933420657692309e+00
0	 2.312500000000000e+00	 5.250000000000000e+00	 9.932212310769218e+00
0	 2.312500000000001e+00	 5.312499999999999e+00	 9.930866411538458e+00
0	 2.312500000000000e+00	 5.374999999999998e+00	 9.929382959999996e+00
0	 2.312500000000001e+00	 5.437500000000000e+00	 9.927761956153835e+00
0	 2.312500000000001e+00	 5.499999999999998e+00	 9.926003399999992e+00
0	 2.312500000000001e+00	 5.562499999999998e+00	 9.924107291538451e+00
0	 2.312500000000000e+00	 5.625000000000000e+00	 9.922073630769235e+00
0	 2.375000000000000e+00	 5.000000000000000e+00	 9.952459476923073e+00
0	 2.375000000000001e+00	 5.062499999999999e+00	 9.951247090769238e+00
0	 2.375000000000000e+00	 5.124999999999999e+00	 9.949897636923069e+00
0	 2.375000000000000e+00	 5.187499999999999e+00	 9.948411115384614e+00
0	 2.375000000000000e+00	 5.250000000000000e+00	 9.946787526153841e+00
0	 2.375000000000000e+00	 5.312500000000000e+00	 9.945026869230759e+00
0	 2.375000000000000e+00	 5.374999999999999e+00	 9.943129144615389e+00
0	 2.375000000000000e+00	 5.437499999999999e+00	 9.941094352307696e+00
0	 2.375000000000000e+00	 5.499999999999998e+00	 9.938922492307690e+00
0	 2.375000000000000e+00	 5.562499999999998e+00	 9.936613564615373e+00
0	 2.375000000000000e+00	 5.625000000000000e+00	 9.934167569230778e+00
0	 2.437500000000000e+00	 5.000000000000001e+00	 9.968039707692309e+00
0	 2.437500000000000e+00	 5.062499999999999e+00	 9.966446422307689e+00
0	 2.437500000000000e+00	 5.125000000000000e+00	 9.964716553846156e+00
0	 2.437500000000000e+00	 5.187499999999999e+00	 9.962850102307684e+00
0	 2.437500000000001e+00	 5.250000000000001e+00	 9.960847067692297e+00
0	 2.437500000000000e+00	 5.312499999999998e+00	 9.958707449999991e+00
0	 2.437500000000000e+00	 5.374999999999998e+00	 9.956431249230754e+00
0	 2.437500000000000e+00	 5.437499999999998e+00	 9.954018465384609e+00
0	 2.437500000000000e+00	 5.499999999999998e+00	 9.951469098461514e+00
0	 2.437500000000000e+00	 5.562499999999998e+00	 9.948783148461532e+00
0	 2.437500000000000e+00	 5.625000000000000e+00	 9.945960615384619e+00
0	 2.500000000000000e+00	 5.000000000000000e+00	 9.982961076923074e+00
0	 2.500000000000000e+00	 5.062500000000000e+00	 9.981022689230780e+00
0	 2.500000000000000e+00	 5.125000000000001e+00	 9.978948203076916e+00
0	 2.500000000000000e+00	 5.187499999999999e+00	 9.976737618461520e+00
0	 2.500000000000000e+00	 5.249999999999999e+00	 9.974390935384610e+00
0	 2.500000000000000e+00	 5.312499999999999e+00	 9.971908153846151e+00
0	 2.500000000000000e+00	 5.374999999999998e+00	 9.969289273846151e+00
0	 2.500000000000000e+00	 5.437499999999998e+00	 9.966534295384612e+00
0	 2.500000000000000e+00	 5.499999999999998e+00	 9.963643218461534e+00
0	 2.500000000000000e+00	 5.562499999999998e+00	 9.960616043076927e+00
0	 2.500000000000000e+00	 5.625000000000000e+00	 9.957452769230766e+00
0	 1.875000000000000e+00	 5.625000000000000e+00	 9.828991076923073e+00
0	 1.875000000000000e+00	 5.687500000000000e+00	 9.832779178461534e+00
0	 1.875000000000000e+00	 5.750000000000000e+00	 9.836505821538452e+00
0	 1.875000000000000e+00	 5.812499999999999e+00	 9.840171006153852e+00
0	 1.875000000000000e+00	 5.874999999999999e+00	 9.843774732307702e+00
0	 1.875000000000000e+00	 5.937499999999999e+00	 9.847317000000009e+00
0	 1.875000000000000e+00	 5.999999999999998e+00	 9.850797809230787e+00
0	 1.875000000000000e+00	 6.062499999999998e+00	 9.854217160000012e+00
0	 1.875000000000000e+00	 6.124999999999998e+00	 9.857575052307702e+00
0	 1.875000000000000e+00	 6.187499999999998e+00	 9.860871486153872e+00
0	 1.875000000000000e+00	 6.250000000000000e+00	 9.864106461538478e+00
0	 1.937500000000000e+00	 5.625000000000000e+00	 9.843191261538447e+00
0	 1.937500000000000e+00	 5.687499999999998e+00	 9.846506148923073e+00
0	 1.937500000000000e+00	 5.749999999999999e+00	 9.849755494153857e+00
0	 1.937499999999999e+00	 5.812499999999997e+00	 9.852939297230780e+00
0	 1.937500000000000e+00	 5.874999999999998e+00	 9.856057558153841e+00
0	 1.937500000000000e+00	 5.937499999999998e+00	 9.859110276923083e+00
0	 1.937500000000000e+00	 5.999999999999999e+00	 9.862097453538471e+00
0	 1.937500000000000e+00	 6.062499999999998e+00	 9.865019088000011e+00
0	 1.937500000000000e+00	 6.124999999999999e+00	 9.867875180307699e+00
0	 1.937500000000000e+00	 6.187499999999999e+00	 9.870665730461551e+00
0	 1.937500000000000e+00	 6.250000000000000e+00	 9.873390738461559e+00
0	 2.000000000000000e+00	 5.625000000000000e+00	 9.857090553846126e+00
0	 2.000000000000000e+00	 5.687499999999998e+00	 9.859952559384617e+00
0	 2.000000000000000e+00	 5.750000000000000e+00	 9.862744939076933e+00
0	 2.000000000000000e+00	 5.812499999999999e+00	 9.865467692923083e+00
0	 2.000000000000000e+00	 5.874999999999999e+00	 9.868120820923087e+00
0	 2.000000000000000e+00	 5.937499999999999e+00	 9.870704323076914e+00
0	 2.000000000000000e+00	 5.999999999999999e+00	 9.873218199384624e+00
0	 2.000000000000000e+00	 6.062499999999998e+00	 9.875662449846164e+00
0	 2.000000000000000e+00	 6.124999999999996e+00	 9.878037074461560e+00
0	 2.000000000000000e+00	 6.187499999999998e+00	 9.880342073230786e+00
0	 2.000000000000000e+00	 6.250000000000000e+00	 9.882577446153885e+00
0	 2.062500000000000e+00	 5.625000000000000e+00	 9.870688953846154e+00
0	 2.062500000000000e+00	 5.687499999999999e+00	 9.873118409846150e+00
0	 2.062500000000000e+00	 5.749999999999999e+00	 9.875474156307686e+00
0	 2.062500000000000e+00	 5.812500000000001e+00	 9.877756193230773e+00
0	 2.062500000000000e+00	 5.874999999999997e+00	 9.879964520615381e+00
0	 2.062500000000000e+00	 5.937499999999999e+00	 9.882099138461539e+00
0	 2.062500000000000e+00	 5.999999999999998e+00	 9.884160046769241e+00
0	 2.062500000000000e+00	 6.062499999999998e+00	 9.886147245538472e+00
0	 2.062500000000000e+00	 6.124999999999996e+00	 9.888060734769244e+00
0	 2.062500000000000e+00	 6.187499999999998e+00	 9.889900514461555e+00
0	 2.062500000000000e+00	 6.250000000000000e+00	 9.891666584615397e+00
0	 2.125000000000000e+00	 5.625000000000000e+00	 9.883986461538456e+00
0	 2.125000000000001e+00	 5.687500000000001e+00	 9.886003700307688e+00
0	 2.125000000000000e+00	 5.749999999999999e+00	 9.887943145846165e+00
0	 2.125000000000000e+00	 5.812499999999999e+00	 9.889804798153854e+00
0	 2.125000000000000e+00	 5.874999999999999e+00	 9.891588657230777e+00
0	 2.125000000000000e+00	 5.937499999999998e+00	 9.893294723076924e+00
0	 2.125000000000000e+00	 5.999999999999999e+00	 9.894922995692319e+00
0	 2.125000000000000e+00	 6.062499999999998e+00	 9.896473475076935e+00
0	 2.125000000000000e+00	 6.124999999999999e+00	 9.897946161230783e+00
0	 2.125000000000000e+00	 6.187499999999998e+00	 9.899341054153854e+00
0	 2.125000000000000e+00	 6.250000000000001e+00	 9.900658153846166e+00
0	 2.187500000000000e+00	 5.625000000000000e+00	 9.896983076923066e+00
0	 2.187500000000000e+00	 5.687500000000000e+00	 9.898608430769242e+00
0	 2.187500000000000e+00	 5.749999999999999e+00	 9.900151907692296e+00
0	 2.187500000000000e+00	 5.812500000000000e+00	 9.901613507692305e+00
0	 2.187500000000000e+00	 5.874999999999998e+00	 9.902993230769221e+00
0	 2.187500000000000e+00	 5.937499999999999e+00	 9.904291076923084e+00
0	 2.187500000000001e+00	 5.999999999999999e+00	 9.905507046153861e+00
0	 2.187500000000001e+00	 6.062499999999999e+00	 9.906641138461536e+00
0	 2.187500000000000e+00	 6.124999999999998e+00	 9.907693353846158e+00
0	 2.187500000000001e+00	 6.187499999999998e+00	 9.908663692307714e+00
0	 2.187500000000000e+00	 6.250000000000000e+00	 9.909552153846180e+00
0	 2.250000000000000e+00	 5.625000000000000e+00	 9.909678800000012e+00
0	 2.250000000000000e+00	 5.687500000000000e+00	 9.910932601230778e+00
0	 2.250000000000000e+00	 5.749999999999999e+00	 9.912100441846162e+00
0	 2.250000000000000e+00	 5.812499999999999e+00	 9.913182321846156e+00
0	 2.250000000000000e+00	 5.874999999999999e+00	 9.914178241230776e+00
0	 2.250000000000000e+00	 5.937499999999999e+00	 9.915088200000016e+00
0	 2.250000000000000e+00	 5.999999999999999e+00	 9.915912198153856e+00
0	 2.250000000000000e+00	 6.062499999999998e+00	 9.916650235692309e+00
0	 2.250000000000000e+00	 6.124999999999998e+00	 9.917302312615405e+00
0	 2.250000000000000e+00	 6.187499999999998e+00	 9.917868428923082e+00
0	 2.250000000000000e+00	 6.250000000000000e+00	 9.918348584615394e+00
0	 2.312500000000000e+00	 5.625000000000000e+00	 9.922073630769235e+00
0	 2.312500000000000e+00	 5.687500000000000e+00	 9.922976211692296e+00
0	 2.312500000000000e+00	 5.750000000000000e+00	 9.923788748307686e+00
0	 2.312500000000000e+00	 5.812499999999999e+00	 9.924511240615391e+00
0	 2.312500000000000e+00	 5.875000000000000e+00	 9.925143688615377e+00
0	 2.312500000000001e+00	 5.937499999999999e+00	 9.925686092307700e+00
0	 2.312500000000000e+00	 5.999999999999999e+00	 9.926138451692303e+00
0	 2.312500000000001e+00	 6.062500000000000e+00	 9.926500766769243e+00
0	 2.312500000000001e+00	 6.124999999999998e+00	 9.926773037538471e+00
0	 2.312500000000001e+00	 6.187499999999999e+00	 9.926955264000011e+00
0	 2.312500000000000e+00	 6.249999999999999e+00	 9.927047446153871e+00
0	 2.375000000000000e+00	 5.625000000000000e+00	 9.934167569230778e+00
0	 2.375000000000001e+00	 5.687499999999999e+00	 9.934739262153855e+00
0	 2.375000000000000e+00	 5.749999999999999e+00	 9.935216827076914e+00
0	 2.375000000000000e+00	 5.812499999999999e+00	 9.935600264000005e+00
0	 2.375000000000000e+00	 5.875000000000000e+00	 9.935889572923085e+00
0	 2.375000000000000e+00	 5.937499999999999e+00	 9.936084753846146e+00
0	 2.375000000000000e+00	 5.999999999999999e+00	 9.936185806769240e+00
0	 2.375000000000000e+00	 6.062499999999997e+00	 9.936192731692319e+00
0	 2.375000000000000e+00	 6.124999999999997e+00	 9.936105528615380e+00
0	 2.375000000000000e+00	 6.187499999999998e+00	 9.935924197538473e+00
0	 2.375000000000000e+00	 6.250000000000000e+00	 9.935648738461555e+00
0	 2.437500000000000e+00	 5.625000000000000e+00	 9.945960615384619e+00
0	 2.437500000000000e+00	 5.687499999999999e+00	 9.946221752615388e+00
0	 2.437500000000000e+00	 5.750000000000000e+00	 9.946384678153841e+00
0	 2.437500000000000e+00	 5.812499999999999e+00	 9.946449391999998e+00
0	 2.437500000000001e+00	 5.875000000000000e+00	 9.946415894153844e+00
0	 2.437500000000000e+00	 5.937499999999998e+00	 9.946284184615379e+00
0	 2.437500000000000e+00	 5.999999999999999e+00	 9.946054263384612e+00
0	 2.437500000000000e+00	 6.062499999999999e+00	 9.945726130461550e+00
0	 2.437500000000000e+00	 6.124999999999998e+00	 9.945299785846149e+00
0	 2.437500000000000e+00	 6.187499999999998e+00	 9.944775229538472e+00
0	 2.437500000000000e+00	 6.250000000000000e+00	 9.944152461538476e+00
0	 2.500000000000000e+00	 5.625000000000000e+00	 9.957452769230766e+00
0	 2.500000000000000e+00	 5.687500000000000e+00	 9.957423683076925e+00
0	 2.500000000000000e+00	 5.750000000000000e+00	 9.957292301538446e+00
0	 2.500000000000000e+00	 5.812499999999999e+00	 9.957058624615396e+00
0	 2.500000000000000e+00	 5.874999999999999e+00	 9.956722652307691e+00
0	 2.500000000000000e+00	 5.937499999999999e+00	 9.956284384615392e+00
0	 2.500000000000000e+00	 5.999999999999998e+00	 9.955743821538473e+00
0	 2.500000000000000e+00	 6.062499999999998e+00	 9.955100963076918e+00
0	 2.500000000000000e+00	 6.124999999999998e+00	 9.954355809230778e+00
0	 2.500000000000000e+00	 6.187499999999998e+00	 9.953508360000015e+00
0	 2.500000000000000e+00	 6.250000000000000e+00	 9.952558615384623e+00
0	 1.875000000000000e+00	 6.250000000000000e+00	 9.864106461538478e+00
0	 1.875000000000000e+00	 6.312500000000000e+00	 9.867511453846173e+00
0	 1.875000000000000e+00	 6.375000000000000e+00	 9.870917323076934e+00
0	 1.875000000000000e+00	 6.437499999999999e+00	 9.874324069230767e+00
0	 1.875000000000000e+00	 6.499999999999999e+00	 9.877731692307702e+00
0	 1.875000000000000e+00	 6.562499999999998e+00	 9.881140192307690e+00
0	 1.875000000000000e+00	 6.624999999999998e+00	 9.884549569230755e+00
0	 1.875000000000000e+00	 6.687499999999998e+00	 9.887959823076908e+00
0	 1.875000000000000e+00	 6.749999999999998e+00	 9.891370953846147e+00
0	 1.875000000000000e+00	 6.812499999999998e+00	 9.894782961538464e+00
0	 1.875000000000000e+00	 6.875000000000000e+00	 9.898195846153833e+00
0	 1.937500000000000e+00	 6.250000000000000e+00	 9.873390738461559e+00
0	 1.937500000000000e+00	 6.312499999999998e+00	 9.876509649230790e+00
0	 1.937500000000000e+00	 6.375000000000000e+00	 9.879624655384626e+00
0	 1.937499999999999e+00	 6.437499999999997e+00	 9.882735756923067e+00
0	 1.937500000000000e+00	 6.499999999999998e+00	 9.885842953846165e+00
0	 1.937500000000000e+00	 6.562499999999997e+00	 9.888946246153843e+00
0	 1.937500000000000e+00	 6.624999999999998e+00	 9.892045633846145e+00
0	 1.937500000000000e+00	 6.687499999999997e+00	 9.895141116923069e+00
0	 1.937500000000000e+00	 6.749999999999999e+00	 9.898232695384618e+00
0	 1.937500000000000e+00	 6.812499999999998e+00	 9.901320369230763e+00
0	 1.937500000000000e+00	 6.874999999999999e+00	 9.904404138461528e+00
0	 2.000000000000000e+00	 6.250000000000000e+00	 9.882577446153885e+00
0	 2.000000000000000e+00	 6.312499999999998e+00	 9.885415983076943e+00
0	 2.000000000000000e+00	 6.375000000000000e+00	 9.888245833846161e+00
0	 2.000000000000000e+00	 6.437500000000000e+00	 9.891066998461557e+00
0	 2.000000000000000e+00	 6.500000000000000e+00	 9.893879476923086e+00
0	 2.000000000000000e+00	 6.562499999999999e+00	 9.896683269230776e+00
0	 2.000000000000000e+00	 6.624999999999999e+00	 9.899478375384614e+00
0	 2.000000000000000e+00	 6.687499999999998e+00	 9.902264795384614e+00
0	 2.000000000000000e+00	 6.749999999999996e+00	 9.905042529230762e+00
0	 2.000000000000000e+00	 6.812499999999998e+00	 9.907811576923079e+00
0	 2.000000000000000e+00	 6.875000000000001e+00	 9.910571938461509e+00
0	 2.062500000000000e+00	 6.250000000000000e+00	 9.891666584615397e+00
0	 2.062500000000000e+00	 6.312500000000000e+00	 9.894230455384644e+00
0	 2.062500000000000e+00	 6.374999999999998e+00	 9.896780858461534e+00
0	 2.062500000000000e+00	 6.437499999999999e+00	 9.899317793846166e+00
0	 2.062500000000000e+00	 6.499999999999998e+00	 9.901841261538465e+00
0	 2.062500000000000e+00	 6.562499999999999e+00	 9.904351261538453e+00
0	 2.062500000000000e+00	 6.624999999999999e+00	 9.906847793846161e+00
0	 2.062500000000000e+00	 6.687499999999997e+00	 9.909330858461527e+00
0	 2.062500000000000e+00	 6.749999999999997e+00	 9.911800455384594e+00
0	 2.062500000000000e+00	 6.812499999999997e+00	 9.914256584615380e+00
0	 2.062500000000000e+00	 6.875000000000000e+00	 9.916699246153835e+00
0	 2.125000000000000e+00	 6.250000000000001e+00	 9.900658153846166e+00
0	 2.125000000000001e+00	 6.312500000000001e+00	 9.902953066153863e+00
0	 2.125000000000000e+00	 6.375000000000000e+00	 9.905229729230767e+00
0	 2.125000000000000e+00	 6.437499999999999e+00	 9.907488143076922e+00
0	 2.125000000000000e+00	 6.499999999999998e+00	 9.909728307692308e+00
0	 2.125000000000000e+00	 6.562499999999996e+00	 9.911950223076925e+00
0	 2.125000000000000e+00	 6.624999999999999e+00	 9.914153889230768e+00
0	 2.125000000000000e+00	 6.687499999999998e+00	 9.916339306153844e+00
0	 2.125000000000000e+00	 6.749999999999999e+00	 9.918506473846136e+00
0	 2.125000000000000e+00	 6.812499999999997e+00	 9.920655392307680e+00
0	 2.125000000000000e+00	 6.875000000000000e+00	 9.922786061538456e+00
0	 2.187500000000000e+00	 6.250000000000000e+00	 9.909552153846180e+00
0	 2.187500000000000e+00	 6.312500000000000e+00	 9.911583815384628e+00
0	 2.187500000000000e+00	 6.374999999999999e+00	 9.913592446153839e+00
0	 2.187500000000000e+00	 6.437499999999999e+00	 9.915578046153849e+00
0	 2.187500000000000e+00	 6.499999999999998e+00	 9.917540615384615e+00
0	 2.187500000000000e+00	 6.562499999999999e+00	 9.919480153846164e+00
0	 2.187500000000001e+00	 6.625000000000000e+00	 9.921396661538473e+00
0	 2.187500000000001e+00	 6.687499999999999e+00	 9.923290138461525e+00
0	 2.187500000000000e+00	 6.749999999999999e+00	 9.925160584615366e+00
0	 2.187500000000001e+00	 6.812499999999998e+00	 9.927007999999974e+00
0	 2.187500000000000e+00	 6.875000000000000e+00	 9.928832384615362e+00
0	 2.250000000000000e+00	 6.250000000000000e+00	 9.918348584615394e+00
0	 2.250000000000000e+00	 6.312499999999999e+00	 9.920122703076931e+00
0	 2.250000000000000e+00	 6.375000000000000e+00	 9.921869009230772e+00
0	 2.250000000000000e+00	 6.437499999999999e+00	 9.923587503076934e+00
0	 2.250000000000000e+00	 6.499999999999999e+00	 9.925278184615388e+00
0	 2.250000000000000e+00	 6.562499999999999e+00	 9.926941053846148e+00
0	 2.250000000000000e+00	 6.624999999999999e+00	 9.928576110769226e+00
0	 2.250000000000000e+00	 6.687499999999997e+00	 9.930183355384598e+00
0	 2.250000000000000e+00	 6.749999999999998e+00	 9.931762787692296e+00
0	 2.250000000000000e+00	 6.812499999999998e+00	 9.933314407692325e+00
0	 2.250000000000000e+00	 6.875000000000000e+00	 9.934838215384611e+00
0	 2.312500000000000e+00	 6.249999999999999e+00	 9.927047446153871e+00
0	 2.312500000000000e+00	 6.312499999999999e+00	 9.928569729230786e+00
0	 2.312500000000000e+00	 6.374999999999997e+00	 9.930059418461564e+00
0	 2.312500000000000e+00	 6.437499999999998e+00	 9.931516513846153e+00
0	 2.312500000000000e+00	 6.500000000000000e+00	 9.932941015384635e+00
0	 2.312500000000001e+00	 6.562500000000000e+00	 9.934332923076926e+00
0	 2.312500000000000e+00	 6.624999999999998e+00	 9.935692236923076e+00
0	 2.312500000000001e+00	 6.687499999999999e+00	 9.937018956923062e+00
0	 2.312500000000001e+00	 6.749999999999999e+00	 9.938313083076931e+00
0	 2.312500000000001e+00	 6.812499999999999e+00	 9.939574615384625e+00
0	 2.312500000000000e+00	 6.875000000000000e+00	 9.940803553846115e+00
0	 2.375000000000000e+00	 6.250000000000000e+00	 9.935648738461555e+00
0	 2.375000000000001e+00	 6.312499999999999e+00	 9.936924893846172e+00
0	 2.375000000000000e+00	 6.375000000000000e+00	 9.938163673846166e+00
0	 2.375000000000000e+00	 6.437499999999999e+00	 9.939365078461538e+00
0	 2.375000000000000e+00	 6.500000000000000e+00	 9.940529107692321e+00
0	 2.375000000000000e+00	 6.562500000000000e+00	 9.941655761538467e+00
0	 2.375000000000000e+00	 6.624999999999999e+00	 9.942745039999998e+00
0	 2.375000000000000e+00	 6.687499999999997e+00	 9.943796943076924e+00
0	 2.375000000000000e+00	 6.749999999999997e+00	 9.944811470769222e+00
0	 2.375000000000000e+00	 6.812499999999999e+00	 9.945788623076927e+00
0	 2.375000000000000e+00	 6.874999999999999e+00	 9.946728399999978e+00
0	 2.437500000000000e+00	 6.250000000000000e+00	 9.944152461538476e+00
0	 2.437500000000000e+00	 6.312499999999997e+00	 9.945188196923095e+00
0	 2.437500000000000e+00	 6.375000000000000e+00	 9.946181775384623e+00
0	 2.437500000000000e+00	 6.437500000000000e+00	 9.947133196923080e+00
0	 2.437500000000001e+00	 6.499999999999999e+00	 9.948042461538469e+00
0	 2.437500000000000e+00	 6.562499999999997e+00	 9.948909569230770e+00
0	 2.437500000000000e+00	 6.624999999999999e+00	 9.949734519999998e+00
0	 2.437500000000000e+00	 6.687499999999998e+00	 9.950517313846156e+00
0	 2.437500000000000e+00	 6.749999999999998e+00	 9.951257950769229e+00
0	 2.437500000000000e+00	 6.812499999999998e+00	 9.951956430769219e+00
0	 2.437500000000000e+00	 6.875000000000000e+00	 9.952612753846134e+00
0	 2.500000000000000e+00	 6.250000000000000e+00	 9.952558615384623e+00
0	 2.500000000000000e+00	 6.312500000000000e+00	 9.953359638461547e+00
0	 2.500000000000000e+00	 6.375000000000000e+00	 9.954113723076933e+00
0	 2.500000000000000e+00	 6.437499999999999e+00	 9.954820869230760e+00
0	 2.500000000000000e+00	 6.499999999999999e+00	 9.955481076923078e+00
0	 2.500000000000000e+00	 6.562499999999998e+00	 9.956094346153851e+00
0	 2.500000000000000e+00	 6.624999999999998e+00	 9.956660676923065e+00
0	 2.500000000000000e+00	 6.687499999999998e+00	 9.957180069230755e+00
0	 2.500000000000000e+00	 6.749999999999998e+00	 9.957652523076931e+00
0	 2.500000000000000e+00	 6.812499999999998e+00	 9.958078038461551e+00
0	 2.500000000000000e+00	 6.875000000000000e+00	 9.958456615384613e+00
0	 1.875000000000000e+00	 6.875000000000000e+00	 9.898195846153833e+00
0	 1.875000000000000e+00	 6.937500000000000e+00	 9.901336736923058e+00
0	 1.875000000000000e+00	 7.000000000000000e+00	 9.904494916923046e+00
0	 1.875000000000000e+00	 7.062500000000000e+00	 9.907670386153839e+00
0	 1.875000000000000e+00	 7.125000000000000e+00	 9.910863144615373e+00
0	 1.875000000000000e+00	 7.187499999999998e+00	 9.914073192307686e+00
0	 1.875000000000000e+00	 7.249999999999998e+00	 9.917300529230772e+00
0	 1.875000000000000e+00	 7.312499999999998e+00	 9.920545155384598e+00
0	 1.875000000000000e+00	 7.374999999999998e+00	 9.923807070769209e+00
0	 1.875000000000000e+00	 7.437499999999998e+00	 9.927086275384616e+00
0	 1.875000000000000e+00	 7.500000000000000e+00	 9.930382769230759e+00
0	 1.937500000000000e+00	 6.874999999999999e+00	 9.904404138461528e+00
0	 1.937500000000000e+00	 6.937499999999997e+00	 9.907318660153834e+00
0	 1.937500000000000e+00	 7.000000000000001e+00	 9.910247514461524e+00
0	 1.937499999999999e+00	 7.062499999999997e+00	 9.913190701384591e+00
0	 1.937500000000000e+00	 7.124999999999997e+00	 9.916148220923064e+00
0	 1.937500000000000e+00	 7.187499999999997e+00	 9.919120073076908e+00
0	 1.937500000000000e+00	 7.249999999999998e+00	 9.922106257846139e+00
0	 1.937500000000000e+00	 7.312499999999997e+00	 9.925106775230763e+00
0	 1.937500000000000e+00	 7.374999999999999e+00	 9.928121625230773e+00
0	 1.937500000000000e+00	 7.437499999999997e+00	 9.931150807846148e+00
0	 1.937500000000000e+00	 7.500000000000000e+00	 9.934194323076913e+00
0	 2.000000000000000e+00	 6.875000000000001e+00	 9.910571938461509e+00
0	 2.000000000000000e+00	 6.937499999999998e+00	 9.913264937230755e+00
0	 2.000000000000000e+00	 7.000000000000000e+00	 9.915969311999980e+00
0	 2.000000000000000e+00	 7.062499999999998e+00	 9.918685062769217e+00
0	 2.000000000000000e+00	 7.124999999999999e+00	 9.921412189538433e+00
0	 2.000000000000000e+00	 7.187499999999999e+00	 9.924150692307673e+00
0	 2.000000000000000e+00	 7.249999999999999e+00	 9.926900571076915e+00
0	 2.000000000000000e+00	 7.312499999999999e+00	 9.929661825846141e+00
0	 2.000000000000000e+00	 7.374999999999996e+00	 9.932434456615363e+00
0	 2.000000000000000e+00	 7.437499999999997e+00	 9.935218463384619e+00
0	 2.000000000000000e+00	 7.500000000000000e+00	 9.938013846153822e+00
0	 2.062500000000000e+00	 6.875000000000000e+00	 9.916699246153835e+00
0	 2.062500000000000e+00	 6.937500000000000e+00	 9.919175568153836e+00
0	 2.062500000000000e+00	 6.999999999999999e+00	 9.921660309538440e+00
0	 2.062500000000000e+00	 7.062499999999999e+00	 9.924153470307694e+00
0	 2.062500000000000e+00	 7.124999999999999e+00	 9.926655050461523e+00
0	 2.062500000000000e+00	 7.187499999999999e+00	 9.929165049999995e+00
0	 2.062500000000000e+00	 7.249999999999996e+00	 9.931683468923072e+00
0	 2.062500000000000e+00	 7.312499999999999e+00	 9.934210307230753e+00
0	 2.062500000000000e+00	 7.374999999999998e+00	 9.936745564923058e+00
0	 2.062500000000000e+00	 7.437499999999997e+00	 9.939289241999990e+00
0	 2.062500000000000e+00	 7.500000000000000e+00	 9.941841338461511e+00
0	 2.125000000000000e+00	 6.875000000000000e+00	 9.922786061538456e+00
0	 2.125000000000001e+00	 6.937500000000002e+00	 9.925050552923061e+00
0	 2.125000000000000e+00	 6.999999999999999e+00	 9.927320507076905e+00
0	 2.125000000000000e+00	 7.062500000000000e+00	 9.929595923999976e+00
0	 2.125000000000000e+00	 7.124999999999999e+00	 9.931876803692298e+00
0	 2.125000000000000e+00	 7.187499999999996e+00	 9.934163146153832e+00
0	 2.125000000000000e+00	 7.250000000000000e+00	 9.936454951384604e+00
0	 2.125000000000000e+00	 7.312499999999997e+00	 9.938752219384583e+00
0	 2.125000000000000e+00	 7.375000000000000e+00	 9.941054950153823e+00
0	 2.125000000000000e+00	 7.437499999999998e+00	 9.943363143692300e+00
0	 2.125000000000000e+00	 7.500000000000000e+00	 9.945676799999990e+00
0	 2.187500000000000e+00	 6.875000000000000e+00	 9.928832384615362e+00
0	 2.187500000000000e+00	 6.937500000000000e+00	 9.930889891538465e+00
0	 2.187500000000000e+00	 6.999999999999999e+00	 9.932949904615381e+00
0	 2.187500000000000e+00	 7.062500000000001e+00	 9.935012423846125e+00
0	 2.187500000000000e+00	 7.124999999999998e+00	 9.937077449230761e+00
0	 2.187500000000000e+00	 7.187499999999999e+00	 9.939144980769214e+00
0	 2.187500000000001e+00	 7.250000000000000e+00	 9.941215018461524e+00
0	 2.187500000000001e+00	 7.312499999999999e+00	 9.943287562307681e+00
0	 2.187500000000000e+00	 7.374999999999997e+00	 9.945362612307683e+00
0	 2.187500000000001e+00	 7.437499999999999e+00	 9.947440168461515e+00
0	 2.187500000000000e+00	 7.500000000000000e+00	 9.949520230769211e+00
0	 2.250000000000000e+00	 6.875000000000000e+00	 9.934838215384611e+00
0	 2.250000000000000e+00	 6.937500000000001e+00	 9.936693584000015e+00
0	 2.250000000000000e+00	 6.999999999999999e+00	 9.938548502153841e+00
0	 2.250000000000000e+00	 7.062499999999998e+00	 9.940402969846144e+00
0	 2.250000000000000e+00	 7.125000000000000e+00	 9.942256987076910e+00
0	 2.250000000000000e+00	 7.187499999999999e+00	 9.944110553846134e+00
0	 2.250000000000000e+00	 7.249999999999999e+00	 9.945963670153825e+00
0	 2.250000000000000e+00	 7.312499999999999e+00	 9.947816335999986e+00
0	 2.250000000000000e+00	 7.374999999999998e+00	 9.949668551384617e+00
0	 2.250000000000000e+00	 7.437499999999999e+00	 9.951520316307674e+00
0	 2.250000000000000e+00	 7.499999999999999e+00	 9.953371630769206e+00
0	 2.312500000000000e+00	 6.875000000000000e+00	 9.940803553846115e+00
0	 2.312500000000000e+00	 6.937500000000000e+00	 9.942461630307657e+00
0	 2.312500000000000e+00	 6.999999999999999e+00	 9.944116299692286e+00
0	 2.312500000000000e+00	 7.062499999999999e+00	 9.945767561999991e+00
0	 2.312500000000000e+00	 7.125000000000000e+00	 9.947415417230758e+00
0	 2.312500000000001e+00	 7.187500000000000e+00	 9.949059865384598e+00
0	 2.312500000000000e+00	 7.249999999999998e+00	 9.950700906461517e+00
0	 2.312500000000001e+00	 7.312499999999999e+00	 9.952338540461525e+00
0	 2.312500000000001e+00	 7.374999999999998e+00	 9.953972767384592e+00
0	 2.312500000000001e+00	 7.437499999999998e+00	 9.955603587230755e+00
0	 2.312500000000000e+00	 7.500000000000000e+00	 9.957230999999993e+00
0	 2.375000000000000e+00	 6.874999999999999e+00	 9.946728399999978e+00
0	 2.375000000000001e+00	 6.937500000000000e+00	 9.948194030461536e+00
0	 2.375000000000000e+00	 7.000000000000000e+00	 9.949653297230766e+00
0	 2.375000000000000e+00	 7.062500000000000e+00	 9.951106200307684e+00
0	 2.375000000000000e+00	 7.125000000000001e+00	 9.952552739692297e+00
0	 2.375000000000000e+00	 7.187499999999998e+00	 9.953992915384614e+00
0	 2.375000000000000e+00	 7.249999999999998e+00	 9.955426727384616e+00
0	 2.375000000000000e+00	 7.312499999999998e+00	 9.956854175692301e+00
0	 2.375000000000000e+00	 7.374999999999998e+00	 9.958275260307673e+00
0	 2.375000000000000e+00	 7.437499999999997e+00	 9.959689981230774e+00
0	 2.375000000000000e+00	 7.500000000000000e+00	 9.961098338461522e+00
0	 2.437500000000000e+00	 6.875000000000000e+00	 9.952612753846134e+00
0	 2.437500000000000e+00	 6.937499999999997e+00	 9.953890784461549e+00
0	 2.437500000000000e+00	 7.000000000000000e+00	 9.955159494769228e+00
0	 2.437500000000000e+00	 7.062500000000000e+00	 9.956418884769224e+00
0	 2.437500000000001e+00	 7.125000000000000e+00	 9.957668954461539e+00
0	 2.437500000000000e+00	 7.187499999999998e+00	 9.958909703846142e+00
0	 2.437500000000000e+00	 7.249999999999999e+00	 9.960141132923070e+00
0	 2.437500000000000e+00	 7.312499999999998e+00	 9.961363241692299e+00
0	 2.437500000000000e+00	 7.374999999999998e+00	 9.962576030153826e+00
0	 2.437500000000000e+00	 7.437499999999998e+00	 9.963779498307671e+00
0	 2.437500000000000e+00	 7.500000000000000e+00	 9.964973646153844e+00
0	 2.500000000000000e+00	 6.875000000000000e+00	 9.958456615384613e+00
0	 2.500000000000000e+00	 6.937500000000000e+00	 9.959551892307692e+00
0	 2.500000000000000e+00	 7.000000000000000e+00	 9.960634892307677e+00
0	 2.500000000000000e+00	 7.062500000000000e+00	 9.961705615384613e+00
0	 2.500000000000000e+00	 7.125000000000000e+00	 9.962764061538454e+00
0	 2.500000000000000e+00	 7.187499999999998e+00	 9.963810230769219e+00
0	 2.500000000000000e+00	 7.249999999999998e+00	 9.964844123076919e+00
0	 2.500000000000000e+00	 7.312499999999998e+00	 9.965865738461536e+00
0	 2.500000000000000e+00	 7.374999999999998e+00	 9.966875076923063e+00
0	 2.500000000000000e+00	 7.437499999999998e+00	 9.967872138461539e+00
0	 2.500000000000000e+00	 7.500000000000000e+00	 9.968856923076915e+00
0	 1.875000000000000e+00	 7.500000000000000e+00	 9.930382769230759e+00
0	 1.875000000000000e+00	 7.562500000000000e+00	 9.932963164615387e+00
0	 1.875000000000000e+00	 7.625000000000000e+00	 9.935590996923080e+00
0	 1.875000000000000e+00	 7.687499999999999e+00	 9.938266266153843e+00
0	 1.875000000000000e+00	 7.750000000000000e+00	 9.940988972307695e+00
0	 1.875000000000000e+00	 7.812499999999999e+00	 9.943759115384600e+00
0	 1.875000000000000e+00	 7.874999999999998e+00	 9.946576695384607e+00
0	 1.875000000000000e+00	 7.937499999999997e+00	 9.949441712307694e+00
0	 1.875000000000000e+00	 7.999999999999998e+00	 9.952354166153849e+00
0	 1.875000000000000e+00	 8.062499999999996e+00	 9.955314056923077e+00
0	 1.875000000000000e+00	 8.125000000000000e+00	 9.958321384615388e+00
0	 1.937500000000000e+00	 7.500000000000000e+00	 9.934194323076913e+00
0	 1.937500000000000e+00	 7.562499999999999e+00	 9.936624031076907e+00
0	 1.937500000000000e+00	 7.624999999999998e+00	 9.939097551999996e+00
0	 1.937499999999999e+00	 7.687499999999996e+00	 9.941614885846144e+00
0	 1.937500000000000e+00	 7.749999999999998e+00	 9.944176032615367e+00
0	 1.937500000000000e+00	 7.812499999999996e+00	 9.946780992307698e+00
0	 1.937500000000000e+00	 7.875000000000000e+00	 9.949429764923067e+00
0	 1.937500000000000e+00	 7.937499999999996e+00	 9.952122350461533e+00
0	 1.937500000000000e+00	 7.999999999999999e+00	 9.954858748923071e+00
0	 1.937500000000000e+00	 8.062499999999996e+00	 9.957638960307698e+00
0	 1.937500000000000e+00	 8.125000000000002e+00	 9.960462984615400e+00
0	 2.000000000000000e+00	 7.500000000000000e+00	 9.938013846153822e+00
0	 2.000000000000000e+00	 7.562499999999998e+00	 9.940293922153817e+00
0	 2.000000000000000e+00	 7.624999999999999e+00	 9.942614187076908e+00
0	 2.000000000000000e+00	 7.687500000000000e+00	 9.944974640923064e+00
0	 2.000000000000000e+00	 7.749999999999999e+00	 9.947375283692292e+00
0	 2.000000000000000e+00	 7.812499999999998e+00	 9.949816115384623e+00
0	 2.000000000000000e+00	 7.875000000000000e+00	 9.952297136000006e+00
0	 2.000000000000000e+00	 7.937499999999998e+00	 9.954818345538458e+00
0	 2.000000000000000e+00	 7.999999999999996e+00	 9.957379744000013e+00
0	 2.000000000000000e+00	 8.062499999999998e+00	 9.959981331384590e+00
0	 2.000000000000000e+00	 8.125000000000000e+00	 9.962623107692306e+00
0	 2.062500000000000e+00	 7.500000000000000e+00	 9.941841338461511e+00
0	 2.062500000000000e+00	 7.562500000000000e+00	 9.943972837846168e+00
0	 2.062500000000000e+00	 7.624999999999999e+00	 9.946140902153836e+00
0	 2.062500000000000e+00	 7.687499999999999e+00	 9.948345531384605e+00
0	 2.062500000000000e+00	 7.749999999999997e+00	 9.950586725538459e+00
0	 2.062500000000000e+00	 7.812499999999999e+00	 9.952864484615391e+00
0	 2.062500000000000e+00	 7.874999999999997e+00	 9.955178808615376e+00
0	 2.062500000000000e+00	 7.937499999999998e+00	 9.957529697538455e+00
0	 2.062500000000000e+00	 7.999999999999997e+00	 9.959917151384609e+00
0	 2.062500000000000e+00	 8.062499999999998e+00	 9.962341170153840e+00
0	 2.062500000000000e+00	 8.124999999999998e+00	 9.964801753846176e+00
0	 2.125000000000000e+00	 7.500000000000000e+00	 9.945676799999990e+00
0	 2.125000000000001e+00	 7.562500000000001e+00	 9.947660778153818e+00
0	 2.125000000000000e+00	 7.625000000000001e+00	 9.949677697230754e+00
0	 2.125000000000000e+00	 7.687499999999999e+00	 9.951727557230779e+00
0	 2.125000000000000e+00	 7.749999999999999e+00	 9.953810358153842e+00
0	 2.125000000000000e+00	 7.812499999999996e+00	 9.955926100000001e+00
0	 2.125000000000000e+00	 7.874999999999998e+00	 9.958074782769238e+00
0	 2.125000000000000e+00	 7.937499999999998e+00	 9.960256406461532e+00
0	 2.125000000000000e+00	 7.999999999999998e+00	 9.962470971076932e+00
0	 2.125000000000000e+00	 8.062499999999998e+00	 9.964718476615390e+00
0	 2.125000000000000e+00	 8.125000000000002e+00	 9.966998923076931e+00
0	 2.187500000000000e+00	 7.500000000000000e+00	 9.949520230769211e+00
0	 2.187500000000000e+00	 7.562500000000000e+00	 9.951357743076906e+00
0	 2.187500000000000e+00	 7.625000000000000e+00	 9.953224572307651e+00
0	 2.187500000000000e+00	 7.687500000000000e+00	 9.955120718461526e+00
0	 2.187500000000000e+00	 7.749999999999997e+00	 9.957046181538448e+00
0	 2.187500000000000e+00	 7.812500000000000e+00	 9.959000961538450e+00
0	 2.187500000000001e+00	 7.874999999999999e+00	 9.960985058461535e+00
0	 2.187500000000001e+00	 7.937499999999999e+00	 9.962998472307685e+00
0	 2.187500000000000e+00	 7.999999999999998e+00	 9.965041203076929e+00
0	 2.187500000000001e+00	 8.062500000000000e+00	 9.967113250769234e+00
0	 2.187500000000000e+00	 8.125000000000000e+00	 9.969214615384633e+00
0	 2.250000000000000e+00	 7.499999999999999e+00	 9.953371630769206e+00
0	 2.250000000000000e+00	 7.562500000000000e+00	 9.955063732615359e+00
0	 2.250000000000000e+00	 7.625000000000001e+00	 9.956781527384599e+00
0	 2.250000000000000e+00	 7.687499999999998e+00	 9.958525015076916e+00
0	 2.250000000000000e+00	 7.750000000000000e+00	 9.960294195692301e+00
0	 2.250000000000000e+00	 7.812499999999998e+00	 9.962089069230764e+00
0	 2.250000000000000e+00	 7.874999999999999e+00	 9.963909635692302e+00
0	 2.250000000000000e+00	 7.937499999999998e+00	 9.965755895076910e+00
0	 2.250000000000000e+00	 7.999999999999997e+00	 9.967627847384623e+00
0	 2.250000000000000e+00	 8.062499999999998e+00	 9.969525492615386e+00
0	 2.250000000000000e+00	 8.125000000000000e+00	 9.971448830769249e+00
0	 2.312500000000000e+00	 7.500000000000000e+00	 9.957230999999993e+00
0	 2.312500000000000e+00	 7.562500000000000e+00	 9.958778746769212e+00
0	 2.312500000000000e+00	 7.624999999999999e+00	 9.960348562461535e+00
0	 2.312500000000000e+00	 7.687499999999998e+00	 9.961940447076923e+00
0	 2.312500000000000e+00	 7.750000000000000e+00	 9.963554400615386e+00
0	 2.312500000000001e+00	 7.812500000000000e+00	 9.965190423076917e+00
0	 2.312500000000000e+00	 7.874999999999998e+00	 9.966848514461534e+00
0	 2.312500000000001e+00	 7.937500000000000e+00	 9.968528674769230e+00
0	 2.312500000000001e+00	 7.999999999999998e+00	 9.970230904000013e+00
0	 2.312500000000001e+00	 8.062500000000000e+00	 9.971955202153836e+00
0	 2.312500000000000e+00	 8.125000000000000e+00	 9.973701569230764e+00
0	 2.375000000000000e+00	 7.500000000000000e+00	 9.961098338461522e+00
0	 2.375000000000001e+00	 7.562499999999999e+00	 9.962502785538451e+00
0	 2.375000000000000e+00	 7.624999999999999e+00	 9.963925677538466e+00
0	 2.375000000000000e+00	 7.687500000000000e+00	 9.965367014461528e+00
0	 2.375000000000000e+00	 7.749999999999999e+00	 9.966826796307682e+00
0	 2.375000000000000e+00	 7.812499999999999e+00	 9.968305023076930e+00
0	 2.375000000000000e+00	 7.874999999999998e+00	 9.969801694769220e+00
0	 2.375000000000000e+00	 7.937499999999998e+00	 9.971316811384613e+00
0	 2.375000000000000e+00	 7.999999999999998e+00	 9.972850372923059e+00
0	 2.375000000000000e+00	 8.062499999999996e+00	 9.974402379384602e+00
0	 2.375000000000000e+00	 8.125000000000000e+00	 9.975972830769232e+00
0	 2.437500000000000e+00	 7.500000000000000e+00	 9.964973646153844e+00
0	 2.437500000000000e+00	 7.562499999999998e+00	 9.966235848923066e+00
0	 2.437500000000000e+00	 7.625000000000000e+00	 9.967512872615368e+00
0	 2.437500000000000e+00	 7.687500000000000e+00	 9.968804717230768e+00
0	 2.437500000000001e+00	 7.750000000000000e+00	 9.970111382769225e+00
0	 2.437500000000000e+00	 7.812499999999998e+00	 9.971432869230757e+00
0	 2.437500000000000e+00	 7.874999999999998e+00	 9.972769176615385e+00
0	 2.437500000000000e+00	 7.937499999999998e+00	 9.974120304923074e+00
0	 2.437500000000000e+00	 7.999999999999999e+00	 9.975486254153848e+00
0	 2.437500000000000e+00	 8.062499999999998e+00	 9.976867024307698e+00
0	 2.437500000000000e+00	 8.125000000000000e+00	 9.978262615384619e+00
0	 2.500000000000000e+00	 7.500000000000000e+00	 9.968856923076915e+00
0	 2.500000000000000e+00	 7.562500000000000e+00	 9.969977936923069e+00
0	 2.500000000000000e+00	 7.625000000000000e+00	 9.971110147692311e+00
0	 2.500000000000000e+00	 7.687499999999999e+00	 9.972253555384604e+00
0	 2.500000000000000e+00	 7.750000000000000e+00	 9.973408160000002e+00
0	 2.500000000000000e+00	 7.812499999999999e+00	 9.974573961538447e+00
0	 2.500000000000000e+00	 7.874999999999998e+00	 9.975750959999989e+00
0	 2.500000000000000e+00	 7.937499999999997e+00	 9.976939155384608e+00
0	 2.500000000000000e+00	 7.999999999999998e+00	 9.978138547692309e+00
0	 2.500000000000000e+00	 8.062499999999996e+00	 9.979349136923066e+00
0	 2.500000000000000e+00	 8.125000000000000e+00	 9.980570923076920e+00
0	 1.875000000000000e+00	 8.125000000000000e+00	 9.958321384615388e+00
0	 1.875000000000000e+00	 8.187500000000000e+00	 9.960261703076920e+00
0	 1.875000000000000e+00	 8.250000000000002e+00	 9.962271335384600e+00
0	 1.875000000000000e+00	 8.312500000000000e+00	 9.964350281538469e+00
0	 1.875000000000000e+00	 8.374999999999998e+00	 9.966498541538469e+00
0	 1.875000000000000e+00	 8.437500000000000e+00	 9.968716115384620e+00
0	 1.875000000000000e+00	 8.500000000000000e+00	 9.971003003076929e+00
0	 1.875000000000000e+00	 8.562499999999998e+00	 9.973359204615384e+00
0	 1.875000000000000e+00	 8.625000000000000e+00	 9.975784720000004e+00
0	 1.875000000000000e+00	 8.687499999999998e+00	 9.978279549230772e+00
0	 1.875000000000000e+00	 8.750000000000000e+00	 9.980843692307701e+00
0	 1.937500000000000e+00	 8.125000000000002e+00	 9.960462984615400e+00
0	 1.937500000000000e+00	 8.187499999999998e+00	 9.962294128307704e+00
0	 1.937500000000000e+00	 8.250000000000000e+00	 9.964190937846162e+00
0	 1.937499999999999e+00	 8.312499999999996e+00	 9.966153413230769e+00
0	 1.937500000000000e+00	 8.374999999999998e+00	 9.968181554461539e+00
0	 1.937500000000000e+00	 8.437499999999996e+00	 9.970275361538469e+00
0	 1.937500000000000e+00	 8.500000000000002e+00	 9.972434834461545e+00
0	 1.937500000000000e+00	 8.562499999999998e+00	 9.974659973230764e+00
0	 1.937500000000000e+00	 8.624999999999998e+00	 9.976950777846172e+00
0	 1.937500000000000e+00	 8.687499999999996e+00	 9.979307248307705e+00
0	 1.937500000000000e+00	 8.750000000000002e+00	 9.981729384615406e+00
0	 2.000000000000000e+00	 8.125000000000000e+00	 9.962623107692306e+00
0	 2.000000000000000e+00	 8.187499999999996e+00	 9.964346153538459e+00
0	 2.000000000000000e+00	 8.250000000000000e+00	 9.966131217230776e+00
0	 2.000000000000000e+00	 8.312500000000002e+00	 9.967978298769230e+00
0	 2.000000000000000e+00	 8.375000000000000e+00	 9.969887398153846e+00
0	 2.000000000000000e+00	 8.437500000000000e+00	 9.971858515384628e+00
0	 2.000000000000000e+00	 8.499999999999996e+00	 9.973891650461544e+00
0	 2.000000000000000e+00	 8.562500000000000e+00	 9.975986803384608e+00
0	 2.000000000000000e+00	 8.624999999999998e+00	 9.978143974153841e+00
0	 2.000000000000000e+00	 8.687499999999998e+00	 9.980363162769240e+00
0	 2.000000000000000e+00	 8.749999999999998e+00	 9.982644369230796e+00
0	 2.062500000000000e+00	 8.124999999999998e+00	 9.964801753846176e+00
0	 2.062500000000000e+00	 8.187499999999998e+00	 9.966417778769234e+00
0	 2.062500000000000e+00	 8.250000000000002e+00	 9.968092173538455e+00
0	 2.062500000000000e+00	 8.312500000000000e+00	 9.969824938153851e+00
0	 2.062500000000000e+00	 8.374999999999998e+00	 9.971616072615387e+00
0	 2.062500000000000e+00	 8.437499999999998e+00	 9.973465576923065e+00
0	 2.062500000000000e+00	 8.500000000000000e+00	 9.975373451076933e+00
0	 2.062500000000000e+00	 8.562499999999998e+00	 9.977339695076930e+00
0	 2.062500000000000e+00	 8.624999999999998e+00	 9.979364308923088e+00
0	 2.062500000000000e+00	 8.687499999999996e+00	 9.981447292615393e+00
0	 2.062500000000000e+00	 8.750000000000000e+00	 9.983588646153844e+00
0	 2.125000000000000e+00	 8.125000000000002e+00	 9.966998923076931e+00
0	 2.125000000000001e+00	 8.187500000000002e+00	 9.968509004000012e+00
0	 2.125000000000000e+00	 8.250000000000000e+00	 9.970073806769239e+00
0	 2.125000000000000e+00	 8.312500000000000e+00	 9.971693331384628e+00
0	 2.125000000000000e+00	 8.375000000000000e+00	 9.973367577846162e+00
0	 2.125000000000000e+00	 8.437499999999998e+00	 9.975096546153853e+00
0	 2.125000000000000e+00	 8.500000000000000e+00	 9.976880236307700e+00
0	 2.125000000000000e+00	 8.562499999999998e+00	 9.978718648307694e+00
0	 2.125000000000000e+00	 8.624999999999998e+00	 9.980611782153838e+00
0	 2.125000000000000e+00	 8.687499999999998e+00	 9.982559637846148e+00
0	 2.125000000000000e+00	 8.750000000000000e+00	 9.984562215384633e+00
0	 2.187500000000000e+00	 8.125000000000000e+00	 9.969214615384633e+00
0	 2.187500000000000e+00	 8.187500000000000e+00	 9.970619829230774e+00
0	 2.187500000000000e+00	 8.250000000000000e+00	 9.972076116923079e+00
0	 2.187500000000000e+00	 8.312500000000000e+00	 9.973583478461537e+00
0	 2.187500000000000e+00	 8.374999999999998e+00	 9.975141913846162e+00
0	 2.187500000000000e+00	 8.437500000000002e+00	 9.976751423076907e+00
0	 2.187500000000001e+00	 8.500000000000000e+00	 9.978412006153841e+00
0	 2.187500000000001e+00	 8.562500000000000e+00	 9.980123663076935e+00
0	 2.187500000000000e+00	 8.625000000000000e+00	 9.981886393846171e+00
0	 2.187500000000001e+00	 8.687499999999998e+00	 9.983700198461513e+00
0	 2.187500000000000e+00	 8.750000000000002e+00	 9.985565076923066e+00
0	 2.250000000000000e+00	 8.125000000000000e+00	 9.971448830769249e+00
0	 2.250000000000000e+00	 8.187500000000002e+00	 9.972750254461527e+00
0	 2.250000000000000e+00	 8.250000000000000e+00	 9.974099104000011e+00
0	 2.250000000000000e+00	 8.312499999999998e+00	 9.975495379384622e+00
0	 2.250000000000000e+00	 8.375000000000000e+00	 9.976939080615381e+00
0	 2.250000000000000e+00	 8.437500000000000e+00	 9.978430207692307e+00
0	 2.250000000000000e+00	 8.500000000000000e+00	 9.979968760615396e+00
0	 2.250000000000000e+00	 8.562499999999998e+00	 9.981554739384622e+00
0	 2.250000000000000e+00	 8.624999999999998e+00	 9.983188143999996e+00
0	 2.250000000000000e+00	 8.687499999999998e+00	 9.984868974461500e+00
0	 2.250000000000000e+00	 8.750000000000000e+00	 9.986597230769213e+00
0	 2.312500000000000e+00	 8.125000000000000e+00	 9.973701569230764e+00
0	 2.312500000000000e+00	 8.187500000000000e+00	 9.974900279692298e+00
0	 2.312500000000000e+00	 8.249999999999998e+00	 9.976142768000003e+00
0	 2.312500000000000e+00	 8.312500000000000e+00	 9.977429034153866e+00
0	 2.312500000000000e+00	 8.374999999999998e+00	 9.978759078153846e+00
0	 2.312500000000001e+00	 8.437500000000000e+00	 9.980132900000006e+00
0	 2.312500000000000e+00	 8.499999999999998e+00	 9.981550499692329e+00
0	 2.312500000000001e+00	 8.562500000000000e+00	 9.983011877230762e+00
0	 2.312500000000001e+00	 8.624999999999998e+00	 9.984517032615393e+00
0	 2.312500000000001e+00	 8.687500000000000e+00	 9.986065965846169e+00
0	 2.312500000000000e+00	 8.750000000000000e+00	 9.987658676923090e+00
0	 2.375000000000000e+00	 8.125000000000000e+00	 9.975972830769232e+00
0	 2.375000000000001e+00	 8.187500000000000e+00	 9.977069904923081e+00
0	 2.375000000000000e+00	 8.250000000000000e+00	 9.978207108923080e+00
0	 2.375000000000000e+00	 8.312499999999998e+00	 9.979384442769241e+00
0	 2.375000000000000e+00	 8.375000000000000e+00	 9.980601906461541e+00
0	 2.375000000000000e+00	 8.437500000000000e+00	 9.981859499999995e+00
0	 2.375000000000000e+00	 8.499999999999998e+00	 9.983157223384616e+00
0	 2.375000000000000e+00	 8.562499999999998e+00	 9.984495076615376e+00
0	 2.375000000000000e+00	 8.624999999999998e+00	 9.985873059692308e+00
0	 2.375000000000000e+00	 8.687499999999998e+00	 9.987291172615382e+00
0	 2.375000000000000e+00	 8.750000000000000e+00	 9.988749415384595e+00
0	 2.437500000000000e+00	 8.125000000000000e+00	 9.978262615384619e+00
0	 2.437500000000000e+00	 8.187499999999998e+00	 9.979259130153849e+00
0	 2.437500000000000e+00	 8.250000000000000e+00	 9.980292126769230e+00
0	 2.437500000000000e+00	 8.312499999999998e+00	 9.981361605230775e+00
0	 2.437500000000001e+00	 8.375000000000000e+00	 9.982467565538467e+00
0	 2.437500000000000e+00	 8.437499999999998e+00	 9.983610007692304e+00
0	 2.437500000000000e+00	 8.499999999999998e+00	 9.984788931692297e+00
0	 2.437500000000000e+00	 8.562499999999998e+00	 9.986004337538473e+00
0	 2.437500000000000e+00	 8.624999999999998e+00	 9.987256225230782e+00
0	 2.437500000000000e+00	 8.687500000000000e+00	 9.988544594769245e+00
0	 2.437500000000000e+00	 8.750000000000000e+00	 9.989869446153858e+00
0	 2.500000000000000e+00	 8.125000000000000e+00	 9.980570923076920e+00
0	 2.500000000000000e+00	 8.187500000000000e+00	 9.981467955384616e+00
0	 2.500000000000000e+00	 8.250000000000002e+00	 9.982397821538438e+00
0	 2.500000000000000e+00	 8.312500000000000e+00	 9.983360521538462e+00
0	 2.500000000000000e+00	 8.374999999999998e+00	 9.984356055384611e+00
0	 2.500000000000000e+00	 8.437500000000000e+00	 9.985384423076921e+00
0	 2.500000000000000e+00	 8.500000000000000e+00	 9.986445624615385e+00
0	 2.500000000000000e+00	 8.562499999999998e+00	 9.987539659999991e+00
0	 2.500000000000000e+00	 8.625000000000000e+00	 9.988666529230764e+00
0	 2.500000000000000e+00	 8.687499999999998e+00	 9.989826232307689e+00
0	 2.500000000000000e+00	 8.750000000000000e+00	 9.991018769230774e+00
0	 1.875000000000000e+00	 8.750000000000000e+00	 9.980843692307701e+00
0	 1.875000000000000e+00	 8.812500000000000e+00	 9.981965016923084e+00
0	 1.875000000000000e+00	 8.875000000000002e+00	 9.983185544615399e+00
0	 1.875000000000000e+00	 8.937499999999998e+00	 9.984505275384604e+00
0	 1.875000000000000e+00	 9.000000000000000e+00	 9.985924209230776e+00
0	 1.875000000000000e+00	 9.062500000000000e+00	 9.987442346153840e+00
0	 1.875000000000000e+00	 9.124999999999998e+00	 9.989059686153844e+00
0	 1.875000000000000e+00	 9.187499999999998e+00	 9.990776229230756e+00
0	 1.875000000000000e+00	 9.249999999999998e+00	 9.992591975384597e+00
0	 1.875000000000000e+00	 9.312499999999998e+00	 9.994506924615354e+00
0	 1.875000000000000e+00	 9.375000000000000e+00	 9.996521076923070e+00
0	 1.937500000000000e+00	 8.750000000000002e+00	 9.981729384615406e+00
0	 1.937500000000000e+00	 8.812499999999996e+00	 9.982786959384606e+00
0	 1.937500000000000e+00	 8.874999999999998e+00	 9.983938828307689e+00
0	 1.937499999999999e+00	 8.937499999999998e+00	 9.985184991384617e+00
0	 1.937500000000000e+00	 8.999999999999998e+00	 9.986525448615398e+00
0	 1.937500000000000e+00	 9.062499999999996e+00	 9.987960199999989e+00
0	 1.937500000000000e+00	 9.124999999999998e+00	 9.989489245538461e+00
0	 1.937500000000000e+00	 9.187499999999996e+00	 9.991112585230773e+00
0	 1.937500000000000e+00	 9.249999999999998e+00	 9.992830219076922e+00
0	 1.937500000000000e+00	 9.312499999999998e+00	 9.994642147076938e+00
0	 1.937500000000000e+00	 9.375000000000000e+00	 9.996548369230748e+00
0	 2.000000000000000e+00	 8.749999999999998e+00	 9.982644369230796e+00
0	 2.000000000000000e+00	 8.812499999999998e+00	 9.983638926461532e+00
0	 2.000000000000000e+00	 8.875000000000002e+00	 9.984722868923058e+00
0	 2.000000000000000e+00	 8.937499999999998e+00	 9.985896196615382e+00
0	 2.000000000000000e+00	 8.999999999999998e+00	 9.987158909538461e+00
0	 2.000000000000000e+00	 9.062499999999998e+00	 9.988511007692299e+00
0	 2.000000000000000e+00	 9.125000000000000e+00	 9.989952491076927e+00
0	 2.000000000000000e+00	 9.187499999999998e+00	 9.991483359692316e+00
0	 2.000000000000000e+00	 9.249999999999996e+00	 9.993103613538473e+00
0	 2.000000000000000e+00	 9.312499999999996e+00	 9.994813252615382e+00
0	 2.000000000000000e+00	 9.375000000000000e+00	 9.996612276923067e+00
0	 2.062500000000000e+00	 8.750000000000000e+00	 9.983588646153844e+00
0	 2.062500000000000e+00	 8.812499999999998e+00	 9.984520918153827e+00
0	 2.062500000000000e+00	 8.875000000000000e+00	 9.985537666461539e+00
0	 2.062500000000000e+00	 8.937500000000002e+00	 9.986638891076923e+00
0	 2.062500000000000e+00	 8.999999999999996e+00	 9.987824592000013e+00
0	 2.062500000000000e+00	 9.062499999999998e+00	 9.989094769230766e+00
0	 2.062500000000000e+00	 9.124999999999998e+00	 9.990449422769245e+00
0	 2.062500000000000e+00	 9.187499999999998e+00	 9.991888552615393e+00
0	 2.062500000000000e+00	 9.249999999999998e+00	 9.993412158769246e+00
0	 2.062500000000000e+00	 9.312499999999998e+00	 9.995020241230762e+00
0	 2.062500000000000e+00	 9.375000000000002e+00	 9.996712799999999e+00
0	 2.125000000000000e+00	 8.750000000000000e+00	 9.984562215384633e+00
0	 2.125000000000001e+00	 8.812500000000004e+00	 9.985432934461544e+00
0	 2.125000000000000e+00	 8.875000000000000e+00	 9.986383220923070e+00
0	 2.125000000000000e+00	 8.937500000000000e+00	 9.987413074769238e+00
0	 2.125000000000000e+00	 9.000000000000000e+00	 9.988522495999995e+00
0	 2.125000000000000e+00	 9.062499999999998e+00	 9.989711484615379e+00
0	 2.125000000000000e+00	 9.125000000000000e+00	 9.990980040615376e+00
0	 2.125000000000000e+00	 9.187499999999998e+00	 9.992328164000018e+00
0	 2.125000000000000e+00	 9.250000000000000e+00	 9.993755854769216e+00
0	 2.125000000000000e+00	 9.312499999999998e+00	 9.995263112923080e+00
0	 2.125000000000000e+00	 9.375000000000002e+00	 9.996849938461507e+00
0	 2.187500000000000e+00	 8.750000000000002e+00	 9.985565076923066e+00
0	 2.187500000000000e+00	 8.812500000000000e+00	 9.986374975384635e+00
0	 2.187500000000000e+00	 8.874999999999998e+00	 9.987259532307680e+00
0	 2.187500000000000e+00	 8.937500000000000e+00	 9.988218747692299e+00
0	 2.187500000000000e+00	 8.999999999999998e+00	 9.989252621538460e+00
0	 2.187500000000000e+00	 9.062500000000002e+00	 9.990361153846152e+00
0	 2.187500000000001e+00	 9.124999999999998e+00	 9.991544344615361e+00
0	 2.187500000000001e+00	 9.187499999999998e+00	 9.992802193846151e+00
0	 2.187500000000000e+00	 9.249999999999998e+00	 9.994134701538439e+00
0	 2.187500000000001e+00	 9.312499999999998e+00	 9.995541867692303e+00
0	 2.187500000000000e+00	 9.375000000000002e+00	 9.997023692307689e+00
0	 2.250000000000000e+00	 8.750000000000000e+00	 9.986597230769213e+00
0	 2.250000000000000e+00	 8.812500000000000e+00	 9.987347040923062e+00
0	 2.250000000000000e+00	 8.874999999999998e+00	 9.988166600615385e+00
0	 2.250000000000000e+00	 8.937499999999998e+00	 9.989055909846163e+00
0	 2.250000000000000e+00	 9.000000000000000e+00	 9.990014968615370e+00
0	 2.250000000000000e+00	 9.062500000000000e+00	 9.991043776923078e+00
0	 2.250000000000000e+00	 9.124999999999998e+00	 9.992142334769223e+00
0	 2.250000000000000e+00	 9.187499999999998e+00	 9.993310642153851e+00
0	 2.250000000000000e+00	 9.249999999999998e+00	 9.994548699076907e+00
0	 2.250000000000000e+00	 9.312499999999998e+00	 9.995856505538473e+00
0	 2.250000000000000e+00	 9.374999999999998e+00	 9.997234061538496e+00
0	 2.312500000000000e+00	 8.750000000000000e+00	 9.987658676923090e+00
0	 2.312500000000000e+00	 8.812500000000000e+00	 9.988349131076902e+00
0	 2.312500000000000e+00	 8.875000000000000e+00	 9.989104425846140e+00
0	 2.312500000000000e+00	 8.937499999999998e+00	 9.989924561230765e+00
0	 2.312500000000000e+00	 8.999999999999998e+00	 9.990809537230762e+00
0	 2.312500000000001e+00	 9.062499999999998e+00	 9.991759353846149e+00
0	 2.312500000000000e+00	 9.124999999999998e+00	 9.992774011076923e+00
0	 2.312500000000001e+00	 9.187500000000000e+00	 9.993853508923072e+00
0	 2.312500000000001e+00	 9.249999999999998e+00	 9.994997847384600e+00
0	 2.312500000000001e+00	 9.312500000000000e+00	 9.996207026461555e+00
0	 2.312500000000000e+00	 9.375000000000000e+00	 9.997481046153839e+00
0	 2.375000000000000e+00	 8.750000000000000e+00	 9.988749415384595e+00
0	 2.375000000000001e+00	 8.812500000000000e+00	 9.989381245846166e+00
0	 2.375000000000000e+00	 8.874999999999998e+00	 9.990073007999996e+00
0	 2.375000000000000e+00	 8.937500000000000e+00	 9.990824701846162e+00
0	 2.375000000000000e+00	 9.000000000000002e+00	 9.991636327384606e+00
0	 2.375000000000000e+00	 9.062499999999998e+00	 9.992507884615392e+00
0	 2.375000000000000e+00	 9.124999999999998e+00	 9.993439373538457e+00
0	 2.375000000000000e+00	 9.187499999999996e+00	 9.994430794153848e+00
0	 2.375000000000000e+00	 9.250000000000000e+00	 9.995482146461560e+00
0	 2.375000000000000e+00	 9.312499999999996e+00	 9.996593430461516e+00
0	 2.375000000000000e+00	 9.375000000000000e+00	 9.997764646153838e+00
0	 2.437500000000000e+00	 8.750000000000000e+00	 9.989869446153858e+00
0	 2.437500000000000e+00	 8.812499999999998e+00	 9.990443385230767e+00
0	 2.437500000000000e+00	 8.875000000000000e+00	 9.991072347076933e+00
0	 2.437500000000000e+00	 8.937499999999998e+00	 9.991756331692306e+00
0	 2.437500000000001e+00	 9.000000000000000e+00	 9.992495339076921e+00
0	 2.437500000000000e+00	 9.062499999999998e+00	 9.993289369230769e+00
0	 2.437500000000000e+00	 9.124999999999998e+00	 9.994138422153855e+00
0	 2.437500000000000e+00	 9.187499999999998e+00	 9.995042497846161e+00
0	 2.437500000000000e+00	 9.249999999999998e+00	 9.996001596307689e+00
0	 2.437500000000000e+00	 9.312499999999998e+00	 9.997015717538462e+00
0	 2.437500000000000e+00	 9.375000000000000e+00	 9.998084861538459e+00
0	 2.500000000000000e+00	 8.750000000000000e+00	 9.991018769230774e+00
0	 2.500000000000000e+00	 8.812500000000000e+00	 9.991535549230754e+00
0	 2.500000000000000e+00	 8.875000000000002e+00	 9.992102443076934e+00
0	 2.500000000000000e+00	 8.937499999999998e+00	 9.992719450769222e+00
0	 2.500000000000000e+00	 9.000000000000000e+00	 9.993386572307694e+00
0	 2.500000000000000e+00	 9.062500000000000e+00	 9.994103807692316e+00
0	 2.500000000000000e+00	 9.124999999999998e+00	 9.994871156923068e+00
0	 2.500000000000000e+00	 9.187499999999998e+00	 9.995688620000003e+00
0	 2.500000000000000e+00	 9.249999999999998e+00	 9.996556196923066e+00
0	 2.500000000000000e+00	 9.312499999999998e+00	 9.997473887692294e+00
0	 2.500000000000000e+00	 9.375000000000000e+00	 9.998441692307697e+00
0	 1.875000000000000e+00	 9.375000000000000e+00	 9.996521076923070e+00
0	 1.875000000000000e+00	 9.437499999999998e+00	 9.996522235384610e+00
0	 1.875000000000000e+00	 9.500000000000000e+00	 9.996660664615369e+00
0	 1.875000000000000e+00	 9.562500000000000e+00	 9.996936364615383e+00
0	 1.875000000000000e+00	 9.625000000000000e+00	 9.997349335384603e+00
0	 1.875000000000000e+00	 9.687499999999998e+00	 9.997899576923082e+00
0	 1.875000000000000e+00	 9.749999999999998e+00	 9.998587089230760e+00
0	 1.875000000000000e+00	 9.812500000000000e+00	 9.999411872307666e+00
0	 1.875000000000000e+00	 9.875000000000000e+00	 1.000037392615385e+01
0	 1.875000000000000e+00	 9.937499999999998e+00	 1.000147325076923e+01
0	 1.875000000000000e+00	 1.000000000000000e+01	 1.000270984615385e+01
0	 1.937500000000000e+00	 9.375000000000000e+00	 9.996548369230748e+00
0	 1.937500000000000e+00	 9.437499999999998e+00	 9.996542810461509e+00
0	 1.937500000000000e+00	 9.500000000000000e+00	 9.996667291076911e+00
0	 1.937500000000000e+00	 9.562500000000000e+00	 9.996921811076929e+00
0	 1.937500000000000e+00	 9.625000000000000e+00	 9.997306370461542e+00
0	 1.937500000000000e+00	 9.687499999999996e+00	 9.997820969230760e+00
0	 1.937500000000000e+00	 9.749999999999998e+00	 9.998465607384610e+00
0	 1.937500000000000e+00	 9.812500000000000e+00	 9.999240284923101e+00
0	 1.937500000000000e+00	 9.874999999999998e+00	 1.000014500184612e+01
0	 1.937500000000000e+00	 9.937499999999996e+00	 1.000117975815384e+01
0	 1.937500000000000e+00	 1.000000000000000e+01	 1.000234455384619e+01
0	 2.000000000000000e+00	 9.375000000000000e+00	 9.996612276923067e+00
0	 2.000000000000000e+00	 9.437499999999998e+00	 9.996601207076932e+00
0	 2.000000000000000e+00	 9.499999999999998e+00	 9.996712945230765e+00
0	 2.000000000000001e+00	 9.562500000000000e+00	 9.996947491384613e+00
0	 2.000000000000000e+00	 9.624999999999998e+00	 9.997304845538457e+00
0	 2.000000000000000e+00	 9.687499999999998e+00	 9.997785007692295e+00
0	 2.000000000000000e+00	 9.750000000000000e+00	 9.998387977846129e+00
0	 2.000000000000000e+00	 9.812499999999998e+00	 9.999113755999961e+00
0	 2.000000000000000e+00	 9.874999999999996e+00	 9.999962342153840e+00
0	 2.000000000000000e+00	 9.937499999999998e+00	 1.000093373630767e+01
0	 2.000000000000000e+00	 1.000000000000000e+01	 1.000202793846154e+01
0	 2.062500000000000e+00	 9.375000000000002e+00	 9.996712799999999e+00
0	 2.062500000000000e+00	 9.437500000000000e+00	 9.996697425230748e+00
0	 2.062500000000000e+00	 9.499999999999998e+00	 9.996797627076926e+00
0	 2.062500000000000e+00	 9.562499999999998e+00	 9.997013405538469e+00
0	 2.062500000000000e+00	 9.624999999999998e+00	 9.997344760615386e+00
0	 2.062500000000000e+00	 9.687499999999998e+00	 9.997791692307686e+00
0	 2.062500000000000e+00	 9.749999999999996e+00	 9.998354200615394e+00
0	 2.062500000000000e+00	 9.812499999999996e+00	 9.999032285538430e+00
0	 2.062500000000000e+00	 9.875000000000000e+00	 9.999825947076966e+00
0	 2.062500000000000e+00	 9.937499999999998e+00	 1.000073518523079e+01
0	 2.062500000000000e+00	 1.000000000000000e+01	 1.000176000000002e+01
0	 2.125000000000000e+00	 9.375000000000002e+00	 9.996849938461507e+00
0	 2.125000000000000e+00	 9.437500000000000e+00	 9.996831464923078e+00
0	 2.125000000000000e+00	 9.499999999999998e+00	 9.996921336615381e+00
0	 2.125000000000001e+00	 9.562500000000000e+00	 9.997119553538440e+00
0	 2.125000000000000e+00	 9.625000000000002e+00	 9.997426115692317e+00
0	 2.125000000000000e+00	 9.687500000000000e+00	 9.997841023076914e+00
0	 2.125000000000000e+00	 9.750000000000000e+00	 9.998364275692273e+00
0	 2.125000000000000e+00	 9.812500000000002e+00	 9.998995873538458e+00
0	 2.125000000000000e+00	 9.874999999999998e+00	 9.999735816615381e+00
0	 2.125000000000000e+00	 9.937499999999996e+00	 1.000058410492307e+01
0	 2.125000000000000e+00	 1.000000000000000e+01	 1.000154073846147e+01
0	 2.187500000000000e+00	 9.375000000000002e+00	 9.997023692307689e+00
0	 2.187500000000000e+00	 9.437499999999998e+00	 9.997003326153850e+00
0	 2.187500000000000e+00	 9.499999999999996e+00	 9.997084073846123e+00
0	 2.187500000000000e+00	 9.562500000000000e+00	 9.997265935384599e+00
0	 2.187500000000000e+00	 9.624999999999998e+00	 9.997548910769234e+00
0	 2.187500000000000e+00	 9.687499999999998e+00	 9.997932999999998e+00
0	 2.187500000000000e+00	 9.749999999999998e+00	 9.998418203076906e+00
0	 2.187500000000000e+00	 9.812499999999998e+00	 9.999004519999987e+00
0	 2.187500000000000e+00	 9.874999999999998e+00	 9.999691950769215e+00
0	 2.187500000000000e+00	 9.937499999999998e+00	 1.000048049538459e+01
0	 2.187500000000000e+00	 1.000000000000000e+01	 1.000137015384618e+01
0	 2.250000000000000e+00	 9.374999999999998e+00	 9.997234061538496e+00
0	 2.250000000000000e+00	 9.437500000000002e+00	 9.997213008923081e+00
0	 2.250000000000000e+00	 9.499999999999998e+00	 9.997285838769232e+00
0	 2.250000000000000e+00	 9.562499999999998e+00	 9.997452551076901e+00
0	 2.250000000000000e+00	 9.624999999999998e+00	 9.997713145846152e+00
0	 2.250000000000000e+00	 9.687499999999998e+00	 9.998067623076956e+00
0	 2.250000000000000e+00	 9.750000000000000e+00	 9.998515982769216e+00
0	 2.250000000000001e+00	 9.812499999999998e+00	 9.999058224923107e+00
0	 2.250000000000000e+00	 9.875000000000000e+00	 9.999694349538434e+00
0	 2.250000000000000e+00	 9.937500000000000e+00	 1.000042435661537e+01
0	 2.250000000000000e+00	 1.000000000000000e+01	 1.000124824615384e+01
0	 2.312500000000000e+00	 9.375000000000000e+00	 9.997481046153839e+00
0	 2.312500000000001e+00	 9.437500000000002e+00	 9.997460513230759e+00
0	 2.312500000000001e+00	 9.500000000000000e+00	 9.997526631384609e+00
0	 2.312500000000000e+00	 9.562500000000000e+00	 9.997679400615386e+00
0	 2.312500000000000e+00	 9.624999999999998e+00	 9.997918820923079e+00
0	 2.312500000000000e+00	 9.687500000000000e+00	 9.998244892307682e+00
0	 2.312500000000000e+00	 9.750000000000000e+00	 9.998657614769218e+00
0	 2.312500000000001e+00	 9.812500000000000e+00	 9.999156988307686e+00
0	 2.312500000000000e+00	 9.874999999999996e+00	 9.999743012923064e+00
0	 2.312500000000000e+00	 9.937499999999998e+00	 1.000041568861538e+01
0	 2.312500000000000e+00	 1.000000000000000e+01	 1.000117501538463e+01
0	 2.375000000000000e+00	 9.375000000000000e+00	 9.997764646153838e+00
0	 2.375000000000000e+00	 9.437499999999998e+00	 9.997745839076901e+00
0	 2.375000000000000e+00	 9.500000000000000e+00	 9.997806451692288e+00
0	 2.375000000000000e+00	 9.562500000000000e+00	 9.997946484000007e+00
0	 2.375000000000000e+00	 9.625000000000000e+00	 9.998165936000005e+00
0	 2.375000000000000e+00	 9.687499999999998e+00	 9.998464807692290e+00
0	 2.375000000000000e+00	 9.749999999999998e+00	 9.998843099076900e+00
0	 2.375000000000000e+00	 9.812500000000000e+00	 9.999300810153791e+00
0	 2.375000000000000e+00	 9.874999999999998e+00	 9.999837940923015e+00
0	 2.375000000000001e+00	 9.937499999999998e+00	 1.000045449138461e+01
0	 2.375000000000000e+00	 1.000000000000000e+01	 1.000115046153845e+01
0	 2.437500000000000e+00	 9.375000000000000e+00	 9.998084861538459e+00
0	 2.437500000000000e+00	 9.437499999999998e+00	 9.998068986461544e+00
0	 2.437500000000001e+00	 9.500000000000000e+00	 9.998125299692312e+00
0	 2.437500000000000e+00	 9.562500000000000e+00	 9.998253801230774e+00
0	 2.437500000000000e+00	 9.624999999999996e+00	 9.998454491076918e+00
0	 2.437500000000000e+00	 9.687499999999998e+00	 9.998727369230764e+00
0	 2.437500000000001e+00	 9.750000000000000e+00	 9.999072435692318e+00
0	 2.437500000000000e+00	 9.812500000000000e+00	 9.999489690461544e+00
0	 2.437500000000000e+00	 9.874999999999998e+00	 9.999979133538433e+00
0	 2.437500000000000e+00	 9.937499999999996e+00	 1.000054076492306e+01
0	 2.437500000000000e+00	 1.000000000000000e+01	 1.000117458461533e+01
0	 2.500000000000000e+00	 9.375000000000000e+00	 9.998441692307697e+00
0	 2.500000000000000e+00	 9.437499999999998e+00	 9.998429955384623e+00
0	 2.500000000000000e+00	 9.500000000000000e+00	 9.998483175384626e+00
0	 2.500000000000000e+00	 9.562500000000000e+00	 9.998601352307679e+00
0	 2.500000000000000e+00	 9.625000000000000e+00	 9.998784486153838e+00
0	 2.500000000000000e+00	 9.687499999999998e+00	 9.999032576923081e+00
0	 2.500000000000000e+00	 9.749999999999998e+00	 9.999345624615376e+00
0	 2.500000000000000e+00	 9.812500000000000e+00	 9.999723629230761e+00
0	 2.500000000000000e+00	 9.875000000000000e+00	 1.000016659076924e+01
0	 2.500000000000000e+00	 9.937499999999998e+00	 1.000067450923076e+01
0	 2.500000000000000e+00	 1.000000000000000e+01	 1.000124738461536e+01
0	 2.500000000000000e+00	 0.000000000000000e+00	 1.204691692307692e+01
0	 2.500000000000000e+00	 6.250000000000000e-02	 1.194328952307692e+01
0	 2.500000000000000e+00	 1.250000000000000e-01	 1.184154483076923e+01
0	 2.500000000000000e+00	 1.875000000000000e-01	 1.174168284615384e+01
0	 2.500000000000000e+00	 2.500000000000000e-01	 1.164370356923077e+01
0	 2.500000000000000e+00	 3.125000000000000e-01	 1.154760700000000e+01
0	 2.500000000000000e+00	 3.750000000000000e-01	 1.145339313846154e+01
0	 2.500000000000000e+00	 4.374999999999999e-01	 1.136106198461538e+01
0	 2.500000000000001e+00	 5.000000000000000e-01	 1.127061353846154e+01
0	 2.500000000000000e+00	 5.624999999999999e-01	 1.118204780000000e+01
0	 2.500000000000000e+00	 6.250000000000000e-01	 1.109536476923077e+01
0	 2.562500000000000e+00	 0.000000000000000e+00	 1.172359500307692e+01
0	 2.562500000000000e+00	 6.249999999999999e-02	 1.166248077507692e+01
0	 2.562499999999999e+00	 1.250000000000000e-01	 1.160261607015384e+01
0	 2.562500000000000e+00	 1.875000000000000e-01	 1.154400088830769e+01
0	 2.562499999999999e+00	 2.500000000000000e-01	 1.148663522953846e+01
0	 2.562500000000000e+00	 3.125000000000001e-01	 1.143051909384615e+01
0	 2.562500000000000e+00	 3.749999999999999e-01	 1.137565248123077e+01
0	 2.562500000000000e+00	 4.374999999999999e-01	 1.132203539169230e+01
0	 2.562500000000001e+00	 5.000000000000000e-01	 1.126966782523077e+01
0	 2.562500000000000e+00	 5.625000000000000e-01	 1.121854978184616e+01
0	 2.562500000000000e+00	 6.250000000000000e-01	 1.116868126153846e+01
0	 2.625000000000000e+00	 0.000000000000000e+00	 1.143481422769231e+01
0	 2.625000000000000e+00	 6.250000000000000e-02	 1.141076020184615e+01
0	 2.625000000000000e+00	 1.250000000000000e-01	 1.138732251446154e+01
0	 2.625000000000000e+00	 1.875000000000000e-01	 1.136450116553846e+01
0	 2.625000000000000e+00	 2.500000000000001e-01	 1.134229615507692e+01
0	 2.624999999999999e+00	 3.125000000000000e-01	 1.132070748307692e+01
0	 2.625000000000000e+00	 3.749999999999999e-01	 1.129973514953847e+01
0	 2.625000000000000e+00	 4.375000000000000e-01	 1.127937915446154e+01
0	 2.625000000000000e+00	 4.999999999999999e-01	 1.125963949784615e+01
0	 2.625000000000000e+00	 5.625000000000000e-01	 1.124051617969231e+01
0	 2.625000000000000e+00	 6.249999999999999e-01	 1.122200920000000e+01
0	 2.687499999999999e+00	 0.000000000000000e+00	 1.118057459692308e+01
0	 2.687499999999999e+00	 6.250000000000000e-02	 1.118812780338462e+01
0	 2.687500000000000e+00	 1.250000000000000e-01	 1.119566416369231e+01
0	 2.687500000000000e+00	 1.875000000000001e-01	 1.120318367784615e+01
0	 2.687500000000000e+00	 2.500000000000001e-01	 1.121068634584615e+01
0	 2.687499999999999e+00	 3.125000000000000e-01	 1.121817216769231e+01
0	 2.687499999999999e+00	 3.749999999999999e-01	 1.122564114338461e+01
0	 2.687499999999999e+00	 4.374999999999999e-01	 1.123309327292308e+01
0	 2.687499999999999e+00	 4.999999999999999e-01	 1.124052855630769e+01
0	 2.687500000000000e+00	 5.625000000000001e-01	 1.124794699353846e+01
0	 2.687499999999999e+00	 6.249999999999999e-01	 1.125534858461538e+01
0	 2.750000000000000e+00	 0.000000000000000e+00	 1.096087611076923e+01
0	 2.749999999999999e+00	 6.250000000000000e-02	 1.099458357969231e+01
0	 2.749999999999998e+00	 1.250000000000000e-01	 1.102764101784616e+01
0	 2.749999999999999e+00	 1.875000000000000e-01	 1.106004842523077e+01
0	 2.749999999999999e+00	 2.500000000000000e-01	 1.109180580184615e+01
0	 2.750000000000000e+00	 3.125000000000000e-01	 1.112291314769231e+01
0	 2.750000000000000e+00	 3.750000000000000e-01	 1.115337046276923e+01
0	 2.750000000000000e+00	 4.375000000000000e-01	 1.118317774707692e+01
0	 2.749999999999999e+00	 4.999999999999999e-01	 1.121233500061538e+01
0	 2.750000000000000e+00	 5.625000000000000e-01	 1.124084222338461e+01
0	 2.749999999999999e+00	 6.250000000000001e-01	 1.126869941538461e+01
0	 2.812499999999999e+00	 0.000000000000000e+00	 1.077571876923077e+01
0	 2.812499999999999e+00	 6.249999999999998e-02	 1.083012753076923e+01
0	 2.812499999999999e+00	 1.250000000000000e-01	 1.088325307692307e+01
0	 2.812499999999999e+00	 1.875000000000000e-01	 1.093509540769231e+01
0	 2.812499999999999e+00	 2.499999999999999e-01	 1.098565452307692e+01
0	 2.812499999999999e+00	 3.125000000000000e-01	 1.103493042307692e+01
0	 2.812499999999999e+00	 3.750000000000000e-01	 1.108292310769231e+01
0	 2.812500000000000e+00	 4.375000000000000e-01	 1.112963257692308e+01
0	 2.812499999999999e+00	 4.999999999999999e-01	 1.117505883076923e+01
0	 2.812500000000000e+00	 5.625000000000001e-01	 1.121920186923077e+01
0	 2.812499999999999e+00	 6.250000000000000e-01	 1.126206169230769e+01
0	 2.874999999999999e+00	 0.000000000000000e+00	 1.062510257230770e+01
0	 2.874999999999999e+00	 6.249999999999999e-02	 1.069475965661539e+01
0	 2.874999999999999e+00	 1.250000000000000e-01	 1.076250034092307e+01
0	 2.874999999999998e+00	 1.875000000000001e-01	 1.082832462523077e+01
0	 2.874999999999999e+00	 2.500000000000001e-01	 1.089223250953846e+01
0	 2.874999999999999e+00	 3.125000000000001e-01	 1.095422399384615e+01
0	 2.874999999999999e+00	 3.749999999999999e-01	 1.101429907815385e+01
0	 2.874999999999999e+00	 4.375000000000000e-01	 1.107245776246154e+01
0	 2.874999999999999e+00	 4.999999999999998e-01	 1.112870004676923e+01
0	 2.874999999999999e+00	 5.624999999999999e-01	 1.118302593107692e+01
0	 2.874999999999999e+00	 6.250000000000001e-01	 1.123543541538461e+01
0	 2.937499999999999e+00	 0.000000000000000e+00	 1.050902752000000e+01
0	 2.937499999999999e+00	 6.250000000000000e-02	 1.058847995723077e+01
0	 2.937499999999999e+00	 1.250000000000000e-01	 1.066538280984616e+01
0	 2.937499999999999e+00	 1.875000000000000e-01	 1.073973607784616e+01
0	 2.937499999999999e+00	 2.500000000000000e-01	 1.081153976123077e+01
0	 2.937499999999999e+00	 3.125000000000001e-01	 1.088079386000000e+01
0	 2.937499999999999e+00	 3.750000000000000e-01	 1.094749837415385e+01
0	 2.937499999999999e+00	 4.375000000000000e-01	 1.101165330369231e+01
0	 2.937499999999999e+00	 4.999999999999999e-01	 1.107325864861538e+01
0	 2.937499999999998e+00	 5.625000000000000e-01	 1.113231440892307e+01
0	 2.937499999999999e+00	 6.249999999999999e-01	 1.118882058461539e+01
0	 2.999999999999998e+00	 0.000000000000000e+00	 1.042749361230769e+01
0	 2.999999999999999e+00	 6.249999999999999e-02	 1.051128843261539e+01
0	 2.999999999999999e+00	 1.250000000000000e-01	 1.059190048369231e+01
0	 2.999999999999998e+00	 1.875000000000001e-01	 1.066932976553846e+01
0	 2.999999999999998e+00	 2.500000000000000e-01	 1.074357627815385e+01
0	 2.999999999999998e+00	 3.124999999999999e-01	 1.081464002153846e+01
0	 2.999999999999998e+00	 3.749999999999999e-01	 1.088252099569231e+01
0	 2.999999999999998e+00	 4.375000000000000e-01	 1.094721920061538e+01
0	 2.999999999999998e+00	 4.999999999999999e-01	 1.100873463630769e+01
0	 2.999999999999999e+00	 5.625000000000000e-01	 1.106706730276923e+01
0	 2.999999999999998e+00	 6.250000000000000e-01	 1.112221720000000e+01
0	 3.062499999999998e+00	 0.000000000000000e+00	 1.038050084923077e+01
0	 3.062499999999999e+00	 6.250000000000000e-02	 1.046318508276923e+01
0	 3.062499999999998e+00	 1.250000000000000e-01	 1.054205336246154e+01
0	 3.062499999999999e+00	 1.875000000000000e-01	 1.061710568830770e+01
0	 3.062499999999997e+00	 2.499999999999999e-01	 1.068834206030769e+01
0	 3.062499999999998e+00	 3.125000000000000e-01	 1.075576247846154e+01
0	 3.062499999999998e+00	 3.750000000000000e-01	 1.081936694276923e+01
0	 3.062499999999998e+00	 4.375000000000000e-01	 1.087915545323077e+01
0	 3.062499999999997e+00	 4.999999999999999e-01	 1.093512800984615e+01
0	 3.062499999999998e+00	 5.625000000000000e-01	 1.098728461261539e+01
0	 3.062499999999998e+00	 6.250000000000000e-01	 1.103562526153846e+01
0	 3.125000000000000e+00	 0.000000000000000e+00	 1.036804923076923e+01
0	 3.125000000000000e+00	 6.250000000000000e-02	 1.044416990769231e+01
0	 3.125000000000000e+00	 1.250000000000000e-01	 1.051584144615385e+01
0	 3.125000000000000e+00	 1.875000000000000e-01	 1.058306384615384e+01
0	 3.125000000000001e+00	 2.500000000000000e-01	 1.064583710769230e+01
0	 3.125000000000000e+00	 3.125000000000000e-01	 1.070416123076923e+01
0	 3.125000000000000e+00	 3.750000000000000e-01	 1.075803621538461e+01
0	 3.125000000000000e+00	 4.374999999999999e-01	 1.080746206153846e+01
0	 3.125000000000000e+00	 5.000000000000000e-01	 1.085243876923077e+01
0	 3.125000000000000e+00	 5.624999999999999e-01	 1.089296633846153e+01
0	 3.125000000000000e+00	 6.250000000000000e-01	 1.092904476923077e+01
0	 2.500000000000000e+00	 6.250000000000000e-01	 1.109536476923077e+01
0	 2.500000000000000e+00	 6.875000000000000e-01	 1.114374940769231e+01
0	 2.500000000000000e+00	 7.500000000000002e-01	 1.119313507692308e+01
0	 2.500000000000000e+00	 8.125000000000002e-01	 1.124352177692308e+01
0	 2.500000000000000e+00	 8.750000000000002e-01	 1.129490950769230e+01
0	 2.500000000000000e+00	 9.375000000000002e-01	 1.134729826923077e+01
0	 2.500000000000000e+00	 1.000000000000000e+00	 1.140068806153846e+01
0	 2.500000000000000e+00	 1.062500000000000e+00	 1.145507888461539e+01
0	 2.500000000000000e+00	 1.125000000000001e+00	 1.151047073846154e+01
0	 2.500000000000000e+00	 1.187500000000000e+00	 1.156686362307692e+01
0	 2.500000000000000e+00	 1.250000000000000e+00	 1.162425753846154e+01
0	 2.562500000000000e+00	 6.250000000000000e-01	 1.116868126153846e+01
0	 2.562500000000000e+00	 6.875000000000001e-01	 1.119738611984615e+01
0	 2.562500000000000e+00	 7.500000000000001e-01	 1.122708917969230e+01
0	 2.562500000000000e+00	 8.125000000000002e-01	 1.125779044107692e+01
0	 2.562500000000000e+00	 8.750000000000003e-01	 1.128948990400000e+01
0	 2.562500000000000e+00	 9.375000000000003e-01	 1.132218756846154e+01
0	 2.562500000000000e+00	 1.000000000000000e+00	 1.135588343446154e+01
0	 2.562500000000000e+00	 1.062500000000000e+00	 1.139057750200000e+01
0	 2.562500000000000e+00	 1.125000000000000e+00	 1.142626977107693e+01
0	 2.562500000000000e+00	 1.187500000000000e+00	 1.146296024169231e+01
0	 2.562500000000000e+00	 1.250000000000000e+00	 1.150064891384615e+01
0	 2.625000000000000e+00	 6.249999999999999e-01	 1.122200920000000e+01
0	 2.625000000000000e+00	 6.875000000000001e-01	 1.123425848246154e+01
0	 2.625000000000000e+00	 7.500000000000002e-01	 1.124750313723077e+01
0	 2.625000000000000e+00	 8.125000000000001e-01	 1.126174316430769e+01
0	 2.625000000000000e+00	 8.750000000000003e-01	 1.127697856369231e+01
0	 2.625000000000000e+00	 9.375000000000003e-01	 1.129320933538462e+01
0	 2.625000000000000e+00	 1.000000000000000e+00	 1.131043547938462e+01
0	 2.625000000000000e+00	 1.062500000000000e+00	 1.132865699569231e+01
0	 2.625000000000000e+00	 1.125000000000000e+00	 1.134787388430770e+01
0	 2.625000000000000e+00	 1.187500000000001e+00	 1.136808614523077e+01
0	 2.625000000000000e+00	 1.250000000000000e+00	 1.138929377846154e+01
0	 2.687499999999999e+00	 6.249999999999999e-01	 1.125534858461538e+01
0	 2.687499999999999e+00	 6.875000000000000e-01	 1.125436649553846e+01
0	 2.687500000000000e+00	 7.500000000000000e-01	 1.125437694953846e+01
0	 2.687499999999999e+00	 8.125000000000002e-01	 1.125537994661538e+01
0	 2.687500000000000e+00	 8.750000000000002e-01	 1.125737548676923e+01
0	 2.687499999999999e+00	 9.375000000000002e-01	 1.126036357000000e+01
0	 2.687499999999999e+00	 1.000000000000000e+00	 1.126434419630769e+01
0	 2.687500000000000e+00	 1.062500000000000e+00	 1.126931736569231e+01
0	 2.687500000000000e+00	 1.125000000000000e+00	 1.127528307815384e+01
0	 2.687499999999999e+00	 1.187500000000000e+00	 1.128224133369230e+01
0	 2.687499999999999e+00	 1.250000000000000e+00	 1.129019213230769e+01
0	 2.749999999999999e+00	 6.250000000000001e-01	 1.126869941538461e+01
0	 2.750000000000000e+00	 6.875000000000000e-01	 1.125771015907692e+01
0	 2.750000000000000e+00	 7.500000000000000e-01	 1.124771061661538e+01
0	 2.749999999999999e+00	 8.125000000000001e-01	 1.123870078800000e+01
0	 2.749999999999999e+00	 8.750000000000003e-01	 1.123068067323077e+01
0	 2.749999999999999e+00	 9.375000000000000e-01	 1.122365027230769e+01
0	 2.749999999999999e+00	 1.000000000000000e+00	 1.121760958523077e+01
0	 2.749999999999999e+00	 1.062500000000000e+00	 1.121255861200000e+01
0	 2.749999999999999e+00	 1.125000000000000e+00	 1.120849735261538e+01
0	 2.750000000000000e+00	 1.187500000000000e+00	 1.120542580707693e+01
0	 2.749999999999999e+00	 1.250000000000000e+00	 1.120334397538461e+01
0	 2.812499999999999e+00	 6.250000000000000e-01	 1.126206169230769e+01
0	 2.812499999999998e+00	 6.875000000000000e-01	 1.124428947307692e+01
0	 2.812499999999999e+00	 7.500000000000001e-01	 1.122750413846153e+01
0	 2.812499999999999e+00	 8.125000000000002e-01	 1.121170568846154e+01
0	 2.812499999999999e+00	 8.750000000000003e-01	 1.119689412307692e+01
0	 2.812499999999999e+00	 9.375000000000002e-01	 1.118306944230769e+01
0	 2.812499999999999e+00	 1.000000000000000e+00	 1.117023164615384e+01
0	 2.812499999999999e+00	 1.062500000000000e+00	 1.115838073461538e+01
0	 2.812499999999999e+00	 1.125000000000000e+00	 1.114751670769230e+01
0	 2.812499999999998e+00	 1.187500000000001e+00	 1.113763956538461e+01
0	 2.812499999999999e+00	 1.250000000000000e+00	 1.112874930769230e+01
0	 2.874999999999999e+00	 6.250000000000001e-01	 1.123543541538461e+01
0	 2.874999999999999e+00	 6.874999999999999e-01	 1.121410443753846e+01
0	 2.875000000000000e+00	 7.500000000000003e-01	 1.119375751507692e+01
0	 2.874999999999999e+00	 8.125000000000000e-01	 1.117439464800000e+01
0	 2.874999999999998e+00	 8.750000000000001e-01	 1.115601583630770e+01
0	 2.874999999999999e+00	 9.375000000000003e-01	 1.113862108000000e+01
0	 2.874999999999999e+00	 1.000000000000000e+00	 1.112221037907693e+01
0	 2.874999999999998e+00	 1.062500000000000e+00	 1.110678373353847e+01
0	 2.874999999999999e+00	 1.125000000000000e+00	 1.109234114338461e+01
0	 2.874999999999999e+00	 1.187500000000000e+00	 1.107888260861538e+01
0	 2.874999999999999e+00	 1.250000000000000e+00	 1.106640812923077e+01
0	 2.937499999999999e+00	 6.249999999999999e-01	 1.118882058461539e+01
0	 2.937499999999999e+00	 6.875000000000000e-01	 1.116715505246154e+01
0	 2.937499999999999e+00	 7.500000000000002e-01	 1.114647074646154e+01
0	 2.937499999999999e+00	 8.125000000000000e-01	 1.112676766661539e+01
0	 2.937499999999998e+00	 8.750000000000002e-01	 1.110804581292307e+01
0	 2.937499999999999e+00	 9.375000000000004e-01	 1.109030518538462e+01
0	 2.937499999999998e+00	 1.000000000000000e+00	 1.107354578400000e+01
0	 2.937499999999999e+00	 1.062500000000001e+00	 1.105776760876923e+01
0	 2.937499999999999e+00	 1.125000000000000e+00	 1.104297065969231e+01
0	 2.937499999999999e+00	 1.187500000000000e+00	 1.102915493676923e+01
0	 2.937499999999999e+00	 1.250000000000000e+00	 1.101632044000000e+01
0	 2.999999999999998e+00	 6.250000000000000e-01	 1.112221720000000e+01
0	 2.999999999999999e+00	 6.875000000000000e-01	 1.110344131784615e+01
0	 2.999999999999998e+00	 7.500000000000000e-01	 1.108564383261538e+01
0	 2.999999999999998e+00	 8.125000000000001e-01	 1.106882474430769e+01
0	 2.999999999999998e+00	 8.750000000000003e-01	 1.105298405292308e+01
0	 2.999999999999998e+00	 9.375000000000002e-01	 1.103812175846154e+01
0	 2.999999999999999e+00	 1.000000000000001e+00	 1.102423786092307e+01
0	 2.999999999999998e+00	 1.062500000000000e+00	 1.101133236030769e+01
0	 2.999999999999998e+00	 1.125000000000000e+00	 1.099940525661538e+01
0	 2.999999999999998e+00	 1.187500000000000e+00	 1.098845654984616e+01
0	 2.999999999999998e+00	 1.250000000000000e+00	 1.097848624000000e+01
0	 3.062499999999998e+00	 6.250000000000000e-01	 1.103562526153846e+01
0	 3.062499999999999e+00	 6.875000000000002e-01	 1.102296323369231e+01
0	 3.062499999999998e+00	 7.500000000000001e-01	 1.101127677353846e+01
0	 3.062499999999998e+00	 8.125000000000001e-01	 1.100056588107692e+01
0	 3.062499999999998e+00	 8.750000000000002e-01	 1.099083055630769e+01
0	 3.062499999999998e+00	 9.375000000000002e-01	 1.098207079923077e+01
0	 3.062499999999998e+00	 1.000000000000000e+00	 1.097428660984615e+01
0	 3.062499999999998e+00	 1.062500000000000e+00	 1.096747798815384e+01
0	 3.062499999999997e+00	 1.125000000000000e+00	 1.096164493415384e+01
0	 3.062499999999998e+00	 1.187500000000000e+00	 1.095678744784615e+01
0	 3.062499999999998e+00	 1.250000000000000e+00	 1.095290552923077e+01
0	 3.125000000000000e+00	 6.250000000000000e-01	 1.092904476923077e+01
0	 3.125000000000000e+00	 6.875000000000000e-01	 1.092572080000000e+01
0	 3.125000000000000e+00	 7.500000000000002e-01	 1.092336956923076e+01
0	 3.125000000000000e+00	 8.125000000000002e-01	 1.092199107692307e+01
0	 3.125000000000000e+00	 8.750000000000002e-01	 1.092158532307692e+01
0	 3.125000000000000e+00	 9.375000000000002e-01	 1.092215230769231e+01
0	 3.125000000000000e+00	 1.000000000000000e+00	 1.092369203076923e+01
0	 3.125000000000000e+00	 1.062500000000000e+00	 1.092620449230769e+01
0	 3.125000000000000e+00	 1.125000000000001e+00	 1.092968969230769e+01
0	 3.125000000000000e+00	 1.187500000000000e+00	 1.093414763076923e+01
0	 3.125000000000000e+00	 1.250000000000000e+00	 1.093957830769231e+01
0	 2.500000000000000e+00	 1.250000000000000e+00	 1.162425753846154e+01
0	 2.500000000000000e+00	 1.312500000000000e+00	 1.154917909692307e+01
0	 2.500000000000000e+00	 1.375000000000000e+00	 1.148106897230769e+01
0	 2.500000000000000e+00	 1.437500000000000e+00	 1.141992716461539e+01
0	 2.500000000000000e+00	 1.500000000000000e+00	 1.136575367384615e+01
0	 2.500000000000000e+00	 1.562500000000000e+00	 1.131854850000000e+01
0	 2.500000000000000e+00	 1.625000000000000e+00	 1.127831164307692e+01
0	 2.500000000000000e+00	 1.687500000000000e+00	 1.124504310307693e+01
0	 2.500000000000000e+00	 1.750000000000001e+00	 1.121874288000000e+01
0	 2.500000000000000e+00	 1.812500000000000e+00	 1.119941097384615e+01
0	 2.500000000000000e+00	 1.875000000000000e+00	 1.118704738461538e+01
0	 2.562500000000000e+00	 1.250000000000000e+00	 1.150064891384615e+01
0	 2.562500000000000e+00	 1.312500000000000e+00	 1.143885822661538e+01
0	 2.562500000000000e+00	 1.375000000000000e+00	 1.138333616307692e+01
0	 2.562500000000000e+00	 1.437500000000000e+00	 1.133408272323077e+01
0	 2.562500000000000e+00	 1.500000000000000e+00	 1.129109790707692e+01
0	 2.562500000000000e+00	 1.562500000000000e+00	 1.125438171461538e+01
0	 2.562500000000000e+00	 1.625000000000000e+00	 1.122393414584616e+01
0	 2.562500000000000e+00	 1.687500000000000e+00	 1.119975520076923e+01
0	 2.562500000000000e+00	 1.750000000000000e+00	 1.118184487938461e+01
0	 2.562500000000000e+00	 1.812500000000000e+00	 1.117020318169231e+01
0	 2.562500000000000e+00	 1.875000000000000e+00	 1.116483010769231e+01
0	 2.625000000000000e+00	 1.250000000000000e+00	 1.138929377846154e+01
0	 2.625000000000000e+00	 1.312500000000000e+00	 1.133958283507693e+01
0	 2.625000000000000e+00	 1.375000000000000e+00	 1.129544082215385e+01
0	 2.625000000000000e+00	 1.437500000000000e+00	 1.125686773969231e+01
0	 2.625000000000000e+00	 1.500000000000000e+00	 1.122386358769231e+01
0	 2.625000000000000e+00	 1.562500000000000e+00	 1.119642836615385e+01
0	 2.625000000000000e+00	 1.625000000000000e+00	 1.117456207507693e+01
0	 2.625000000000000e+00	 1.687500000000000e+00	 1.115826471446154e+01
0	 2.625000000000000e+00	 1.750000000000001e+00	 1.114753628430769e+01
0	 2.625000000000000e+00	 1.812500000000001e+00	 1.114237678461539e+01
0	 2.625000000000000e+00	 1.875000000000000e+00	 1.114278621538461e+01
0	 2.687499999999999e+00	 1.250000000000000e+00	 1.129019213230769e+01
0	 2.687499999999999e+00	 1.312500000000000e+00	 1.125135292230770e+01
0	 2.687500000000000e+00	 1.375000000000000e+00	 1.121738294953846e+01
0	 2.687499999999999e+00	 1.437500000000000e+00	 1.118828221400000e+01
0	 2.687500000000000e+00	 1.500000000000000e+00	 1.116405071569231e+01
0	 2.687499999999999e+00	 1.562500000000000e+00	 1.114468845461539e+01
0	 2.687499999999999e+00	 1.625000000000000e+00	 1.113019543076923e+01
0	 2.687500000000000e+00	 1.687500000000000e+00	 1.112057164415385e+01
0	 2.687500000000000e+00	 1.750000000000000e+00	 1.111581709476923e+01
0	 2.687499999999999e+00	 1.812500000000000e+00	 1.111593178261538e+01
0	 2.687499999999999e+00	 1.875000000000000e+00	 1.112091570769232e+01
0	 2.749999999999999e+00	 1.250000000000000e+00	 1.120334397538461e+01
0	 2.750000000000000e+00	 1.312500000000000e+00	 1.117416848830770e+01
0	 2.750000000000000e+00	 1.375000000000000e+00	 1.114916254523077e+01
0	 2.749999999999999e+00	 1.437500000000000e+00	 1.112832614615385e+01
0	 2.749999999999999e+00	 1.500000000000000e+00	 1.111165929107693e+01
0	 2.749999999999999e+00	 1.562500000000000e+00	 1.109916198000001e+01
0	 2.749999999999999e+00	 1.625000000000001e+00	 1.109083421292308e+01
0	 2.749999999999999e+00	 1.687500000000000e+00	 1.108667598984615e+01
0	 2.749999999999999e+00	 1.750000000000001e+00	 1.108668731076924e+01
0	 2.750000000000000e+00	 1.812500000000000e+00	 1.109086817569231e+01
0	 2.749999999999999e+00	 1.875000000000000e+00	 1.109921858461538e+01
0	 2.812499999999999e+00	 1.250000000000000e+00	 1.112874930769230e+01
0	 2.812499999999998e+00	 1.312500000000000e+00	 1.110802953307692e+01
0	 2.812499999999999e+00	 1.375000000000000e+00	 1.109077960923077e+01
0	 2.812499999999999e+00	 1.437500000000000e+00	 1.107699953615384e+01
0	 2.812499999999999e+00	 1.500000000000000e+00	 1.106668931384616e+01
0	 2.812499999999999e+00	 1.562500000000000e+00	 1.105984894230769e+01
0	 2.812499999999999e+00	 1.625000000000000e+00	 1.105647842153846e+01
0	 2.812499999999999e+00	 1.687500000000000e+00	 1.105657775153846e+01
0	 2.812499999999999e+00	 1.750000000000000e+00	 1.106014693230770e+01
0	 2.812499999999998e+00	 1.812500000000000e+00	 1.106718596384616e+01
0	 2.812499999999999e+00	 1.875000000000000e+00	 1.107769484615385e+01
0	 2.874999999999999e+00	 1.250000000000000e+00	 1.106640812923077e+01
0	 2.874999999999999e+00	 1.312500000000000e+00	 1.105293605661539e+01
0	 2.875000000000000e+00	 1.375000000000000e+00	 1.104223414153846e+01
0	 2.874999999999999e+00	 1.437500000000000e+00	 1.103430238400000e+01
0	 2.874999999999998e+00	 1.500000000000000e+00	 1.102914078400000e+01
0	 2.874999999999999e+00	 1.562500000000000e+00	 1.102674934153846e+01
0	 2.874999999999999e+00	 1.625000000000000e+00	 1.102712805661539e+01
0	 2.874999999999998e+00	 1.687500000000000e+00	 1.103027692923078e+01
0	 2.874999999999999e+00	 1.750000000000000e+00	 1.103619595938461e+01
0	 2.874999999999999e+00	 1.812500000000000e+00	 1.104488514707693e+01
0	 2.874999999999999e+00	 1.875000000000000e+00	 1.105634449230770e+01
0	 2.937499999999999e+00	 1.250000000000000e+00	 1.101632044000000e+01
0	 2.937499999999999e+00	 1.312500000000000e+00	 1.100888805892307e+01
0	 2.937499999999999e+00	 1.375000000000000e+00	 1.100352614215385e+01
0	 2.937499999999999e+00	 1.437500000000000e+00	 1.100023468969230e+01
0	 2.937499999999998e+00	 1.500000000000001e+00	 1.099901370153846e+01
0	 2.937499999999999e+00	 1.562500000000000e+00	 1.099986317769231e+01
0	 2.937499999999998e+00	 1.625000000000000e+00	 1.100278311815385e+01
0	 2.937499999999999e+00	 1.687500000000000e+00	 1.100777352292308e+01
0	 2.937499999999999e+00	 1.750000000000000e+00	 1.101483439200000e+01
0	 2.937499999999999e+00	 1.812500000000000e+00	 1.102396572538462e+01
0	 2.937499999999999e+00	 1.875000000000000e+00	 1.103516752307693e+01
0	 2.999999999999998e+00	 1.250000000000000e+00	 1.097848624000000e+01
0	 2.999999999999999e+00	 1.312500000000000e+00	 1.097588554000000e+01
0	 2.999999999999998e+00	 1.375000000000000e+00	 1.097465561107692e+01
0	 2.999999999999998e+00	 1.437500000000000e+00	 1.097479645323077e+01
0	 2.999999999999998e+00	 1.500000000000000e+00	 1.097630806646154e+01
0	 2.999999999999998e+00	 1.562500000000000e+00	 1.097919045076923e+01
0	 2.999999999999999e+00	 1.625000000000001e+00	 1.098344360615384e+01
0	 2.999999999999998e+00	 1.687500000000000e+00	 1.098906753261538e+01
0	 2.999999999999998e+00	 1.750000000000000e+00	 1.099606223015384e+01
0	 2.999999999999998e+00	 1.812500000000001e+00	 1.100442769876923e+01
0	 2.999999999999998e+00	 1.875000000000000e+00	 1.101416393846154e+01
0	 3.062499999999998e+00	 1.250000000000000e+00	 1.095290552923077e+01
0	 3.062499999999999e+00	 1.312500000000000e+00	 1.095392849984615e+01
0	 3.062499999999998e+00	 1.375000000000000e+00	 1.095562254830769e+01
0	 3.062499999999998e+00	 1.437500000000000e+00	 1.095798767461538e+01
0	 3.062499999999998e+00	 1.500000000000000e+00	 1.096102387876923e+01
0	 3.062499999999998e+00	 1.562500000000000e+00	 1.096473116076923e+01
0	 3.062499999999998e+00	 1.625000000000000e+00	 1.096910952061538e+01
0	 3.062499999999998e+00	 1.687500000000000e+00	 1.097415895830769e+01
0	 3.062499999999997e+00	 1.750000000000000e+00	 1.097987947384615e+01
0	 3.062499999999998e+00	 1.812500000000000e+00	 1.098627106723077e+01
0	 3.062499999999998e+00	 1.875000000000000e+00	 1.099333373846154e+01
0	 3.125000000000000e+00	 1.250000000000000e+00	 1.093957830769231e+01
0	 3.125000000000000e+00	 1.312500000000000e+00	 1.094301693846153e+01
0	 3.125000000000000e+00	 1.375000000000000e+00	 1.094642695384615e+01
0	 3.125000000000000e+00	 1.437500000000000e+00	 1.094980835384616e+01
0	 3.125000000000000e+00	 1.500000000000000e+00	 1.095316113846154e+01
0	 3.125000000000000e+00	 1.562500000000000e+00	 1.095648530769231e+01
0	 3.125000000000000e+00	 1.625000000000000e+00	 1.095978086153846e+01
0	 3.125000000000000e+00	 1.687500000000000e+00	 1.096304780000000e+01
0	 3.125000000000000e+00	 1.750000000000001e+00	 1.096628612307692e+01
0	 3.125000000000000e+00	 1.812500000000000e+00	 1.096949583076923e+01
0	 3.125000000000000e+00	 1.875000000000000e+00	 1.097267692307692e+01
0	 2.500000000000000e+00	 1.875000000000000e+00	 1.118704738461538e+01
0	 2.500000000000000e+00	 1.937500000000000e+00	 1.114322640307692e+01
0	 2.500000000000000e+00	 2.000000000000000e+00	 1.109949712000001e+01
0	 2.500000000000000e+00	 2.062500000000000e+00	 1.105585953538461e+01
0	 2.500000000000000e+00	 2.125000000000000e+00	 1.101231364923077e+01
0	 2.500000000000000e+00	 2.187500000000000e+00	 1.096885946153846e+01
0	 2.500000000000000e+00	 2.250000000000000e+00	 1.092549697230769e+01
0	 2.500000000000000e+00	 2.312500000000000e+00	 1.088222618153846e+01
0	 2.500000000000000e+00	 2.375000000000001e+00	 1.083904708923078e+01
0	 2.500000000000000e+00	 2.437500000000001e+00	 1.079595969538461e+01
0	 2.500000000000000e+00	 2.500000000000000e+00	 1.075296400000000e+01
0	 2.562500000000000e+00	 1.875000000000000e+00	 1.116483010769231e+01
0	 2.562500000000000e+00	 1.937500000000000e+00	 1.112290591969231e+01
0	 2.562500000000000e+00	 2.000000000000000e+00	 1.108131614953846e+01
0	 2.562500000000000e+00	 2.062500000000000e+00	 1.104006079723077e+01
0	 2.562500000000000e+00	 2.125000000000001e+00	 1.099913986276923e+01
0	 2.562500000000000e+00	 2.187500000000000e+00	 1.095855334615385e+01
0	 2.562500000000000e+00	 2.250000000000000e+00	 1.091830124738462e+01
0	 2.562500000000000e+00	 2.312500000000000e+00	 1.087838356646154e+01
0	 2.562500000000000e+00	 2.375000000000000e+00	 1.083880030338461e+01
0	 2.562500000000000e+00	 2.437500000000000e+00	 1.079955145815384e+01
0	 2.562500000000000e+00	 2.500000000000000e+00	 1.076063703076923e+01
0	 2.625000000000000e+00	 1.875000000000000e+00	 1.114278621538461e+01
0	 2.625000000000000e+00	 1.937500000000000e+00	 1.110258789169231e+01
0	 2.625000000000000e+00	 2.000000000000000e+00	 1.106296670523077e+01
0	 2.625000000000000e+00	 2.062500000000000e+00	 1.102392265600001e+01
0	 2.625000000000000e+00	 2.125000000000000e+00	 1.098545574400000e+01
0	 2.625000000000000e+00	 2.187500000000001e+00	 1.094756596923077e+01
0	 2.625000000000000e+00	 2.250000000000000e+00	 1.091025333169231e+01
0	 2.625000000000000e+00	 2.312500000000000e+00	 1.087351783138461e+01
0	 2.625000000000000e+00	 2.375000000000000e+00	 1.083735946830769e+01
0	 2.625000000000000e+00	 2.437500000000000e+00	 1.080177824246153e+01
0	 2.625000000000000e+00	 2.500000000000000e+00	 1.076677415384615e+01
0	 2.687499999999999e+00	 1.875000000000000e+00	 1.112091570769232e+01
0	 2.687499999999999e+00	 1.937500000000000e+00	 1.108227231907692e+01
0	 2.687500000000000e+00	 2.000000000000000e+00	 1.104444878707692e+01
0	 2.687499999999999e+00	 2.062500000000000e+00	 1.100744511169231e+01
0	 2.687500000000000e+00	 2.125000000000001e+00	 1.097126129292307e+01
0	 2.687499999999999e+00	 2.187500000000000e+00	 1.093589733076923e+01
0	 2.687499999999999e+00	 2.250000000000000e+00	 1.090135322523076e+01
0	 2.687500000000000e+00	 2.312500000000000e+00	 1.086762897630769e+01
0	 2.687500000000000e+00	 2.375000000000000e+00	 1.083472458400000e+01
0	 2.687499999999999e+00	 2.437500000000000e+00	 1.080264004830769e+01
0	 2.687499999999999e+00	 2.500000000000000e+00	 1.077137536923077e+01
0	 2.749999999999999e+00	 1.875000000000000e+00	 1.109921858461538e+01
0	 2.750000000000000e+00	 1.937500000000000e+00	 1.106195920184615e+01
0	 2.750000000000000e+00	 2.000000000000000e+00	 1.102576239507692e+01
0	 2.749999999999999e+00	 2.062500000000000e+00	 1.099062816430770e+01
0	 2.749999999999999e+00	 2.125000000000000e+00	 1.095655650953846e+01
0	 2.749999999999999e+00	 2.187500000000000e+00	 1.092354743076923e+01
0	 2.749999999999999e+00	 2.250000000000000e+00	 1.089160092800000e+01
0	 2.749999999999999e+00	 2.312500000000000e+00	 1.086071700123076e+01
0	 2.749999999999999e+00	 2.375000000000000e+00	 1.083089565046153e+01
0	 2.750000000000000e+00	 2.437500000000000e+00	 1.080213687569230e+01
0	 2.749999999999999e+00	 2.500000000000000e+00	 1.077444067692308e+01
0	 2.812499999999999e+00	 1.875000000000000e+00	 1.107769484615385e+01
0	 2.812499999999998e+00	 1.937500000000000e+00	 1.104164854000000e+01
0	 2.812499999999999e+00	 2.000000000000000e+00	 1.100690752923077e+01
0	 2.812499999999999e+00	 2.062500000000000e+00	 1.097347181384615e+01
0	 2.812499999999999e+00	 2.125000000000000e+00	 1.094134139384615e+01
0	 2.812499999999999e+00	 2.187500000000000e+00	 1.091051626923077e+01
0	 2.812499999999999e+00	 2.250000000000000e+00	 1.088099644000000e+01
0	 2.812499999999999e+00	 2.312500000000001e+00	 1.085278190615385e+01
0	 2.812499999999999e+00	 2.375000000000000e+00	 1.082587266769230e+01
0	 2.812499999999998e+00	 2.437500000000000e+00	 1.080026872461538e+01
0	 2.812499999999999e+00	 2.500000000000000e+00	 1.077597007692308e+01
0	 2.874999999999999e+00	 1.875000000000000e+00	 1.105634449230770e+01
0	 2.874999999999999e+00	 1.937500000000000e+00	 1.102134033353846e+01
0	 2.875000000000000e+00	 2.000000000000000e+00	 1.098788418953846e+01
0	 2.874999999999999e+00	 2.062500000000000e+00	 1.095597606030769e+01
0	 2.874999999999998e+00	 2.125000000000000e+00	 1.092561594584615e+01
0	 2.874999999999999e+00	 2.187500000000000e+00	 1.089680384615384e+01
0	 2.874999999999999e+00	 2.250000000000000e+00	 1.086953976123076e+01
0	 2.874999999999998e+00	 2.312500000000000e+00	 1.084382369107692e+01
0	 2.874999999999999e+00	 2.375000000000001e+00	 1.081965563569230e+01
0	 2.874999999999999e+00	 2.437500000000000e+00	 1.079703559507692e+01
0	 2.874999999999999e+00	 2.500000000000000e+00	 1.077596356923077e+01
0	 2.937499999999999e+00	 1.875000000000000e+00	 1.103516752307693e+01
0	 2.937499999999999e+00	 1.937500000000000e+00	 1.100103458246153e+01
0	 2.937499999999999e+00	 2.000000000000001e+00	 1.096869237600000e+01
0	 2.937499999999999e+00	 2.062500000000000e+00	 1.093814090369231e+01
0	 2.937499999999998e+00	 2.125000000000001e+00	 1.090938016553845e+01
0	 2.937499999999999e+00	 2.187500000000000e+00	 1.088241016153846e+01
0	 2.937499999999998e+00	 2.250000000000000e+00	 1.085723089169231e+01
0	 2.937499999999999e+00	 2.312500000000001e+00	 1.083384235600000e+01
0	 2.937499999999999e+00	 2.375000000000000e+00	 1.081224455446153e+01
0	 2.937499999999999e+00	 2.437500000000000e+00	 1.079243748707692e+01
0	 2.937499999999999e+00	 2.500000000000000e+00	 1.077442115384615e+01
0	 2.999999999999998e+00	 1.875000000000000e+00	 1.101416393846154e+01
0	 2.999999999999999e+00	 1.937500000000000e+00	 1.098073128676923e+01
0	 2.999999999999998e+00	 2.000000000000000e+00	 1.094933208861539e+01
0	 2.999999999999998e+00	 2.062500000000000e+00	 1.091996634400000e+01
0	 2.999999999999998e+00	 2.125000000000000e+00	 1.089263405292307e+01
0	 2.999999999999998e+00	 2.187500000000000e+00	 1.086733521538461e+01
0	 2.999999999999999e+00	 2.250000000000000e+00	 1.084406983138461e+01
0	 2.999999999999998e+00	 2.312500000000000e+00	 1.082283790092307e+01
0	 2.999999999999998e+00	 2.375000000000000e+00	 1.080363942400000e+01
0	 2.999999999999998e+00	 2.437500000000001e+00	 1.078647440061539e+01
0	 2.999999999999998e+00	 2.500000000000000e+00	 1.077134283076923e+01
0	 3.062499999999998e+00	 1.875000000000000e+00	 1.099333373846154e+01
0	 3.062499999999999e+00	 1.937500000000000e+00	 1.096043044646154e+01
0	 3.062499999999998e+00	 2.000000000000000e+00	 1.092980332738461e+01
0	 3.062499999999998e+00	 2.062500000000000e+00	 1.090145238123077e+01
0	 3.062499999999998e+00	 2.125000000000000e+00	 1.087537760800000e+01
0	 3.062499999999998e+00	 2.187500000000000e+00	 1.085157900769230e+01
0	 3.062499999999998e+00	 2.250000000000000e+00	 1.083005658030769e+01
0	 3.062499999999998e+00	 2.312500000000000e+00	 1.081081032584615e+01
0	 3.062499999999997e+00	 2.375000000000000e+00	 1.079384024430769e+01
0	 3.062499999999998e+00	 2.437500000000000e+00	 1.077914633569230e+01
0	 3.062499999999998e+00	 2.500000000000000e+00	 1.076672859999999e+01
0	 3.125000000000000e+00	 1.875000000000000e+00	 1.097267692307692e+01
0	 3.125000000000000e+00	 1.937500000000000e+00	 1.094013206153846e+01
0	 3.125000000000000e+00	 2.000000000000000e+00	 1.091010609230770e+01
0	 3.125000000000000e+00	 2.062500000000000e+00	 1.088259901538461e+01
0	 3.125000000000000e+00	 2.125000000000000e+00	 1.085761083076924e+01
0	 3.125000000000000e+00	 2.187500000000000e+00	 1.083514153846154e+01
0	 3.125000000000000e+00	 2.250000000000000e+00	 1.081519113846153e+01
0	 3.125000000000000e+00	 2.312500000000000e+00	 1.079775963076923e+01
0	 3.125000000000000e+00	 2.375000000000001e+00	 1.078284701538463e+01
0	 3.125000000000000e+00	 2.437500000000001e+00	 1.077045329230769e+01
0	 3.125000000000000e+00	 2.500000000000000e+00	 1.076057846153846e+01
0	 2.500000000000000e+00	 2.500000000000000e+00	 1.075296400000000e+01
0	 2.500000000000000e+00	 2.562500000000000e+00	 1.071109703230770e+01
0	 2.500000000000000e+00	 2.625000000000000e+00	 1.067004105230770e+01
0	 2.500000000000000e+00	 2.687499999999999e+00	 1.062979605999999e+01
0	 2.500000000000000e+00	 2.750000000000000e+00	 1.059036205538461e+01
0	 2.500000000000000e+00	 2.812499999999999e+00	 1.055173903846154e+01
0	 2.500000000000000e+00	 2.874999999999999e+00	 1.051392700923076e+01
0	 2.500000000000000e+00	 2.937499999999998e+00	 1.047692596769231e+01
0	 2.500000000000000e+00	 2.999999999999998e+00	 1.044073591384615e+01
0	 2.500000000000000e+00	 3.062499999999998e+00	 1.040535684769232e+01
0	 2.500000000000000e+00	 3.125000000000000e+00	 1.037078876923077e+01
0	 2.562500000000000e+00	 2.500000000000000e+00	 1.076063703076923e+01
0	 2.562500000000000e+00	 2.562500000000000e+00	 1.072163697523076e+01
0	 2.562500000000000e+00	 2.624999999999999e+00	 1.068339658707692e+01
0	 2.562500000000000e+00	 2.687499999999999e+00	 1.064591586630769e+01
0	 2.562500000000000e+00	 2.750000000000000e+00	 1.060919481292308e+01
0	 2.562500000000000e+00	 2.812499999999999e+00	 1.057323342692308e+01
0	 2.562500000000000e+00	 2.875000000000000e+00	 1.053803170830769e+01
0	 2.562500000000000e+00	 2.937499999999999e+00	 1.050358965707693e+01
0	 2.562500000000000e+00	 2.999999999999999e+00	 1.046990727323077e+01
0	 2.562500000000000e+00	 3.062499999999997e+00	 1.043698455676923e+01
0	 2.562500000000000e+00	 3.125000000000000e+00	 1.040482150769230e+01
0	 2.625000000000000e+00	 2.500000000000000e+00	 1.076677415384615e+01
0	 2.624999999999999e+00	 2.562500000000000e+00	 1.073041864738462e+01
0	 2.625000000000000e+00	 2.625000000000000e+00	 1.069477148800000e+01
0	 2.625000000000000e+00	 2.687500000000000e+00	 1.065983267569230e+01
0	 2.625000000000000e+00	 2.749999999999999e+00	 1.062560221046154e+01
0	 2.625000000000000e+00	 2.812499999999999e+00	 1.059208009230769e+01
0	 2.625000000000000e+00	 2.874999999999999e+00	 1.055926632123077e+01
0	 2.625000000000000e+00	 2.937499999999999e+00	 1.052716089723077e+01
0	 2.625000000000000e+00	 2.999999999999998e+00	 1.049576382030770e+01
0	 2.625000000000000e+00	 3.062499999999999e+00	 1.046507509046154e+01
0	 2.625000000000000e+00	 3.125000000000000e+00	 1.043509470769231e+01
0	 2.687499999999999e+00	 2.500000000000000e+00	 1.077137536923077e+01
0	 2.687499999999999e+00	 2.562500000000000e+00	 1.073744204876922e+01
0	 2.687500000000000e+00	 2.625000000000000e+00	 1.070416575507692e+01
0	 2.687499999999999e+00	 2.687499999999999e+00	 1.067154648815384e+01
0	 2.687500000000000e+00	 2.749999999999999e+00	 1.063958424800000e+01
0	 2.687500000000000e+00	 2.812499999999999e+00	 1.060827903461539e+01
0	 2.687500000000000e+00	 2.874999999999999e+00	 1.057763084800000e+01
0	 2.687500000000000e+00	 2.937499999999999e+00	 1.054763968815385e+01
0	 2.687500000000000e+00	 2.999999999999999e+00	 1.051830555507693e+01
0	 2.687499999999999e+00	 3.062499999999998e+00	 1.048962844876924e+01
0	 2.687499999999999e+00	 3.125000000000000e+00	 1.046160836923077e+01
0	 2.749999999999999e+00	 2.500000000000000e+00	 1.077444067692308e+01
0	 2.750000000000000e+00	 2.562500000000000e+00	 1.074270717938461e+01
0	 2.750000000000000e+00	 2.625000000000000e+00	 1.071157938830769e+01
0	 2.749999999999999e+00	 2.687500000000000e+00	 1.068105730369230e+01
0	 2.750000000000000e+00	 2.750000000000000e+00	 1.065114092553846e+01
0	 2.749999999999999e+00	 2.812499999999999e+00	 1.062183025384616e+01
0	 2.749999999999999e+00	 2.874999999999999e+00	 1.059312528861538e+01
0	 2.749999999999999e+00	 2.937499999999998e+00	 1.056502602984616e+01
0	 2.750000000000000e+00	 2.999999999999999e+00	 1.053753247753847e+01
0	 2.749999999999999e+00	 3.062499999999998e+00	 1.051064463169231e+01
0	 2.749999999999999e+00	 3.125000000000000e+00	 1.048436249230770e+01
0	 2.812499999999999e+00	 2.500000000000000e+00	 1.077597007692308e+01
0	 2.812499999999999e+00	 2.562499999999999e+00	 1.074621403923077e+01
0	 2.812499999999999e+00	 2.625000000000000e+00	 1.071701238769230e+01
0	 2.812500000000000e+00	 2.687500000000000e+00	 1.068836512230770e+01
0	 2.812499999999999e+00	 2.749999999999999e+00	 1.066027224307692e+01
0	 2.812499999999999e+00	 2.812499999999999e+00	 1.063273375000000e+01
0	 2.812500000000000e+00	 2.874999999999999e+00	 1.060574964307693e+01
0	 2.812499999999999e+00	 2.937499999999998e+00	 1.057931992230770e+01
0	 2.812499999999999e+00	 2.999999999999998e+00	 1.055344458769230e+01
0	 2.812499999999999e+00	 3.062499999999998e+00	 1.052812363923078e+01
0	 2.812499999999999e+00	 3.125000000000000e+00	 1.050335707692308e+01
0	 2.874999999999999e+00	 2.500000000000000e+00	 1.077596356923077e+01
0	 2.874999999999999e+00	 2.562500000000000e+00	 1.074796262830768e+01
0	 2.874999999999999e+00	 2.625000000000000e+00	 1.072046475323077e+01
0	 2.874999999999999e+00	 2.687500000000000e+00	 1.069346994400000e+01
0	 2.874999999999999e+00	 2.750000000000000e+00	 1.066697820061539e+01
0	 2.874999999999999e+00	 2.812500000000000e+00	 1.064098952307693e+01
0	 2.874999999999999e+00	 2.874999999999999e+00	 1.061550391138461e+01
0	 2.874999999999999e+00	 2.937499999999999e+00	 1.059052136553847e+01
0	 2.874999999999999e+00	 2.999999999999999e+00	 1.056604188553847e+01
0	 2.874999999999999e+00	 3.062499999999998e+00	 1.054206547138463e+01
0	 2.874999999999999e+00	 3.125000000000000e+00	 1.051859212307692e+01
0	 2.937499999999999e+00	 2.500000000000000e+00	 1.077442115384615e+01
0	 2.937499999999999e+00	 2.562500000000000e+00	 1.074795294661538e+01
0	 2.937499999999999e+00	 2.625000000000000e+00	 1.072193648492308e+01
0	 2.937499999999999e+00	 2.687500000000000e+00	 1.069637176876923e+01
0	 2.937499999999998e+00	 2.749999999999999e+00	 1.067125879815384e+01
0	 2.937499999999999e+00	 2.812499999999999e+00	 1.064659757307692e+01
0	 2.937499999999999e+00	 2.874999999999999e+00	 1.062238809353846e+01
0	 2.937499999999998e+00	 2.937499999999998e+00	 1.059863035953846e+01
0	 2.937499999999999e+00	 2.999999999999998e+00	 1.057532437107692e+01
0	 2.937499999999999e+00	 3.062499999999998e+00	 1.055247012815386e+01
0	 2.937499999999999e+00	 3.125000000000000e+00	 1.053006763076924e+01
0	 2.999999999999998e+00	 2.500000000000000e+00	 1.077134283076923e+01
0	 2.999999999999999e+00	 2.562500000000001e+00	 1.074618499415384e+01
0	 2.999999999999998e+00	 2.625000000000000e+00	 1.072142758276923e+01
0	 2.999999999999999e+00	 2.687500000000000e+00	 1.069707059661538e+01
0	 2.999999999999999e+00	 2.749999999999999e+00	 1.067311403569230e+01
0	 2.999999999999999e+00	 2.812499999999999e+00	 1.064955790000000e+01
0	 2.999999999999998e+00	 2.874999999999999e+00	 1.062640218953846e+01
0	 2.999999999999998e+00	 2.937499999999998e+00	 1.060364690430769e+01
0	 2.999999999999998e+00	 2.999999999999998e+00	 1.058129204430769e+01
0	 2.999999999999998e+00	 3.062499999999998e+00	 1.055933760953847e+01
0	 2.999999999999998e+00	 3.125000000000000e+00	 1.053778360000000e+01
0	 3.062499999999998e+00	 2.500000000000000e+00	 1.076672859999999e+01
0	 3.062499999999998e+00	 2.562500000000000e+00	 1.074265877092307e+01
0	 3.062499999999998e+00	 2.625000000000000e+00	 1.071893804676923e+01
0	 3.062499999999998e+00	 2.687500000000000e+00	 1.069556642753847e+01
0	 3.062499999999998e+00	 2.749999999999999e+00	 1.067254391323077e+01
0	 3.062499999999998e+00	 2.812499999999999e+00	 1.064987050384615e+01
0	 3.062499999999998e+00	 2.874999999999999e+00	 1.062754619938462e+01
0	 3.062499999999998e+00	 2.937499999999998e+00	 1.060557099984615e+01
0	 3.062499999999998e+00	 2.999999999999998e+00	 1.058394490523077e+01
0	 3.062499999999998e+00	 3.062499999999998e+00	 1.056266791553846e+01
0	 3.062499999999998e+00	 3.125000000000000e+00	 1.054174003076923e+01
0	 3.125000000000000e+00	 2.500000000000000e+00	 1.076057846153846e+01
0	 3.125000000000000e+00	 2.562500000000000e+00	 1.073737427692308e+01
0	 3.125000000000000e+00	 2.625000000000000e+00	 1.071446787692308e+01
0	 3.125000000000000e+00	 2.687499999999999e+00	 1.069185926153846e+01
0	 3.125000000000000e+00	 2.750000000000000e+00	 1.066954843076923e+01
0	 3.125000000000000e+00	 2.812499999999999e+00	 1.064753538461539e+01
0	 3.125000000000000e+00	 2.874999999999999e+00	 1.062582012307692e+01
0	 3.125000000000000e+00	 2.937499999999998e+00	 1.060440264615385e+01
0	 3.125000000000000e+00	 2.999999999999998e+00	 1.058328295384616e+01
0	 3.125000000000000e+00	 3.062499999999998e+00	 1.056246104615386e+01
0	 3.125000000000000e+00	 3.125000000000000e+00	 1.054193692307693e+01
0	 2.500000000000000e+00	 3.125000000000000e+00	 1.037078876923077e+01
0	 2.500000000000000e+00	 3.187500000000000e+00	 1.035435344615384e+01
0	 2.500000000000000e+00	 3.250000000000000e+00	 1.033721603076922e+01
0	 2.500000000000000e+00	 3.312499999999999e+00	 1.031937652307692e+01
0	 2.500000000000000e+00	 3.374999999999999e+00	 1.030083492307692e+01
0	 2.500000000000000e+00	 3.437499999999999e+00	 1.028159123076922e+01
0	 2.500000000000000e+00	 3.499999999999999e+00	 1.026164544615385e+01
0	 2.500000000000000e+00	 3.562499999999998e+00	 1.024099756923077e+01
0	 2.500000000000000e+00	 3.624999999999999e+00	 1.021964760000000e+01
0	 2.500000000000000e+00	 3.687499999999998e+00	 1.019759553846153e+01
0	 2.500000000000000e+00	 3.750000000000000e+00	 1.017484138461538e+01
0	 2.562500000000000e+00	 3.125000000000000e+00	 1.040482150769230e+01
0	 2.562500000000000e+00	 3.187500000000000e+00	 1.038691216615385e+01
0	 2.562500000000000e+00	 3.250000000000000e+00	 1.036840173538462e+01
0	 2.562500000000000e+00	 3.312499999999999e+00	 1.034929021538461e+01
0	 2.562500000000000e+00	 3.374999999999999e+00	 1.032957760615385e+01
0	 2.562500000000000e+00	 3.437499999999999e+00	 1.030926390769231e+01
0	 2.562500000000000e+00	 3.500000000000000e+00	 1.028834912000000e+01
0	 2.562500000000000e+00	 3.562499999999999e+00	 1.026683324307693e+01
0	 2.562500000000000e+00	 3.625000000000000e+00	 1.024471627692308e+01
0	 2.562500000000000e+00	 3.687499999999997e+00	 1.022199822153845e+01
0	 2.562500000000000e+00	 3.750000000000000e+00	 1.019867907692308e+01
0	 2.625000000000000e+00	 3.125000000000000e+00	 1.043509470769231e+01
0	 2.624999999999999e+00	 3.187500000000000e+00	 1.041592656000000e+01
0	 2.625000000000000e+00	 3.250000000000000e+00	 1.039625832615385e+01
0	 2.625000000000000e+00	 3.312500000000000e+00	 1.037609000615385e+01
0	 2.625000000000000e+00	 3.374999999999999e+00	 1.035542160000000e+01
0	 2.625000000000000e+00	 3.437499999999999e+00	 1.033425310769230e+01
0	 2.625000000000000e+00	 3.499999999999997e+00	 1.031258452923077e+01
0	 2.625000000000000e+00	 3.562499999999999e+00	 1.029041586461537e+01
0	 2.625000000000000e+00	 3.624999999999998e+00	 1.026774711384615e+01
0	 2.625000000000000e+00	 3.687499999999999e+00	 1.024457827692308e+01
0	 2.625000000000000e+00	 3.750000000000000e+00	 1.022090935384614e+01
0	 2.687499999999999e+00	 3.125000000000000e+00	 1.046160836923077e+01
0	 2.687499999999999e+00	 3.187500000000000e+00	 1.044139662769231e+01
0	 2.687500000000000e+00	 3.250000000000000e+00	 1.042078580307693e+01
0	 2.687499999999999e+00	 3.312500000000000e+00	 1.039977589538461e+01
0	 2.687500000000000e+00	 3.374999999999999e+00	 1.037836690461539e+01
0	 2.687500000000000e+00	 3.437499999999999e+00	 1.035655883076923e+01
0	 2.687500000000000e+00	 3.499999999999998e+00	 1.033435167384615e+01
0	 2.687500000000000e+00	 3.562499999999998e+00	 1.031174543384615e+01
0	 2.687500000000000e+00	 3.624999999999998e+00	 1.028874011076923e+01
0	 2.687499999999999e+00	 3.687499999999998e+00	 1.026533570461539e+01
0	 2.687499999999999e+00	 3.750000000000000e+00	 1.024153221538460e+01
0	 2.749999999999999e+00	 3.125000000000000e+00	 1.048436249230770e+01
0	 2.750000000000000e+00	 3.187500000000000e+00	 1.046332236923076e+01
0	 2.750000000000000e+00	 3.250000000000000e+00	 1.044198416615385e+01
0	 2.749999999999999e+00	 3.312500000000000e+00	 1.042034788307692e+01
0	 2.750000000000000e+00	 3.374999999999999e+00	 1.039841352000000e+01
0	 2.749999999999999e+00	 3.437499999999999e+00	 1.037618107692308e+01
0	 2.749999999999999e+00	 3.499999999999998e+00	 1.035365055384615e+01
0	 2.749999999999999e+00	 3.562499999999998e+00	 1.033082195076922e+01
0	 2.750000000000000e+00	 3.624999999999999e+00	 1.030769526769231e+01
0	 2.749999999999999e+00	 3.687499999999998e+00	 1.028427050461538e+01
0	 2.749999999999999e+00	 3.750000000000000e+00	 1.026054766153845e+01
0	 2.812499999999999e+00	 3.125000000000000e+00	 1.050335707692308e+01
0	 2.812499999999999e+00	 3.187500000000000e+00	 1.048170378461539e+01
0	 2.812499999999999e+00	 3.250000000000000e+00	 1.045985341538462e+01
0	 2.812500000000000e+00	 3.312500000000000e+00	 1.043780596923077e+01
0	 2.812499999999999e+00	 3.374999999999998e+00	 1.041556144615384e+01
0	 2.812499999999999e+00	 3.437499999999999e+00	 1.039311984615385e+01
0	 2.812500000000000e+00	 3.499999999999999e+00	 1.037048116923077e+01
0	 2.812499999999999e+00	 3.562499999999999e+00	 1.034764541538461e+01
0	 2.812499999999999e+00	 3.624999999999998e+00	 1.032461258461538e+01
0	 2.812499999999999e+00	 3.687499999999999e+00	 1.030138267692308e+01
0	 2.812499999999999e+00	 3.750000000000000e+00	 1.027795569230768e+01
0	 2.874999999999999e+00	 3.125000000000000e+00	 1.051859212307692e+01
0	 2.874999999999999e+00	 3.187500000000000e+00	 1.049654087384616e+01
0	 2.874999999999999e+00	 3.249999999999999e+00	 1.047439355076924e+01
0	 2.874999999999999e+00	 3.312499999999999e+00	 1.045215015384616e+01
0	 2.874999999999999e+00	 3.375000000000000e+00	 1.042981068307692e+01
0	 2.874999999999999e+00	 3.437500000000000e+00	 1.040737513846154e+01
0	 2.874999999999999e+00	 3.499999999999999e+00	 1.038484352000000e+01
0	 2.874999999999999e+00	 3.562499999999999e+00	 1.036221582769230e+01
0	 2.874999999999999e+00	 3.624999999999999e+00	 1.033949206153846e+01
0	 2.874999999999999e+00	 3.687499999999998e+00	 1.031667222153845e+01
0	 2.874999999999999e+00	 3.750000000000000e+00	 1.029375630769229e+01
0	 2.937499999999999e+00	 3.125000000000000e+00	 1.053006763076924e+01
0	 2.937499999999999e+00	 3.187500000000000e+00	 1.050783363692309e+01
0	 2.937499999999999e+00	 3.250000000000000e+00	 1.048560457230770e+01
0	 2.937499999999999e+00	 3.312500000000000e+00	 1.046338043692309e+01
0	 2.937499999999998e+00	 3.374999999999999e+00	 1.044116123076923e+01
0	 2.937499999999999e+00	 3.437499999999999e+00	 1.041894695384616e+01
0	 2.937499999999999e+00	 3.499999999999999e+00	 1.039673760615385e+01
0	 2.937499999999998e+00	 3.562499999999999e+00	 1.037453318769229e+01
0	 2.937499999999999e+00	 3.624999999999998e+00	 1.035233369846154e+01
0	 2.937499999999999e+00	 3.687499999999999e+00	 1.033013913846154e+01
0	 2.937499999999999e+00	 3.750000000000000e+00	 1.030794950769230e+01
0	 2.999999999999998e+00	 3.125000000000000e+00	 1.053778360000000e+01
0	 2.999999999999999e+00	 3.187500000000001e+00	 1.051558207384616e+01
0	 2.999999999999998e+00	 3.250000000000000e+00	 1.049348648000000e+01
0	 2.999999999999999e+00	 3.312500000000000e+00	 1.047149681846154e+01
0	 2.999999999999999e+00	 3.374999999999999e+00	 1.044961308923077e+01
0	 2.999999999999999e+00	 3.437499999999999e+00	 1.042783529230769e+01
0	 2.999999999999998e+00	 3.499999999999998e+00	 1.040616342769231e+01
0	 2.999999999999998e+00	 3.562499999999998e+00	 1.038459749538461e+01
0	 2.999999999999998e+00	 3.624999999999998e+00	 1.036313749538461e+01
0	 2.999999999999998e+00	 3.687499999999998e+00	 1.034178342769230e+01
0	 2.999999999999998e+00	 3.750000000000000e+00	 1.032053529230769e+01
0	 3.062499999999998e+00	 3.125000000000000e+00	 1.054174003076923e+01
0	 3.062499999999998e+00	 3.187500000000000e+00	 1.051978618461538e+01
0	 3.062499999999998e+00	 3.250000000000000e+00	 1.049803927384615e+01
0	 3.062499999999998e+00	 3.312500000000000e+00	 1.047649929846154e+01
0	 3.062499999999998e+00	 3.374999999999999e+00	 1.045516625846153e+01
0	 3.062499999999998e+00	 3.437500000000000e+00	 1.043404015384615e+01
0	 3.062499999999998e+00	 3.499999999999998e+00	 1.041312098461538e+01
0	 3.062499999999998e+00	 3.562499999999998e+00	 1.039240875076922e+01
0	 3.062499999999998e+00	 3.624999999999998e+00	 1.037190345230768e+01
0	 3.062499999999998e+00	 3.687499999999997e+00	 1.035160508923076e+01
0	 3.062499999999998e+00	 3.750000000000000e+00	 1.033151366153846e+01
0	 3.125000000000000e+00	 3.125000000000000e+00	 1.054193692307693e+01
0	 3.125000000000000e+00	 3.187500000000000e+00	 1.052044596923076e+01
0	 3.125000000000000e+00	 3.250000000000000e+00	 1.049926295384615e+01
0	 3.125000000000000e+00	 3.312499999999999e+00	 1.047838787692308e+01
0	 3.125000000000000e+00	 3.374999999999999e+00	 1.045782073846154e+01
0	 3.125000000000000e+00	 3.437499999999999e+00	 1.043756153846153e+01
0	 3.125000000000000e+00	 3.499999999999999e+00	 1.041761027692307e+01
0	 3.125000000000000e+00	 3.562499999999998e+00	 1.039796695384615e+01
0	 3.125000000000000e+00	 3.624999999999999e+00	 1.037863156923077e+01
0	 3.125000000000000e+00	 3.687499999999998e+00	 1.035960412307691e+01
0	 3.125000000000000e+00	 3.750000000000000e+00	 1.034088461538461e+01
0	 2.500000000000000e+00	 3.750000000000000e+00	 1.017484138461538e+01
0	 2.500000000000000e+00	 3.812500000000000e+00	 1.016204818923077e+01
0	 2.500000000000000e+00	 3.875000000000000e+00	 1.014910731076923e+01
0	 2.500000000000000e+00	 3.937499999999999e+00	 1.013601874923077e+01
0	 2.500000000000000e+00	 4.000000000000000e+00	 1.012278250461538e+01
0	 2.500000000000000e+00	 4.062499999999999e+00	 1.010939857692308e+01
0	 2.500000000000000e+00	 4.124999999999999e+00	 1.009586696615384e+01
0	 2.500000000000000e+00	 4.187499999999998e+00	 1.008218767230770e+01
0	 2.500000000000000e+00	 4.249999999999998e+00	 1.006836069538461e+01
0	 2.500000000000000e+00	 4.312499999999998e+00	 1.005438603538463e+01
0	 2.500000000000000e+00	 4.375000000000000e+00	 1.004026369230769e+01
0	 2.562500000000000e+00	 3.750000000000000e+00	 1.019867907692308e+01
0	 2.562500000000000e+00	 3.812500000000000e+00	 1.018597475184615e+01
0	 2.562500000000000e+00	 3.875000000000000e+00	 1.017311533969230e+01
0	 2.562500000000000e+00	 3.937500000000000e+00	 1.016010084046154e+01
0	 2.562500000000000e+00	 3.999999999999999e+00	 1.014693125415385e+01
0	 2.562500000000000e+00	 4.062499999999999e+00	 1.013360658076922e+01
0	 2.562500000000000e+00	 4.125000000000000e+00	 1.012012682030770e+01
0	 2.562500000000000e+00	 4.187500000000000e+00	 1.010649197276924e+01
0	 2.562500000000000e+00	 4.250000000000000e+00	 1.009270203815384e+01
0	 2.562500000000000e+00	 4.312499999999997e+00	 1.007875701646154e+01
0	 2.562500000000000e+00	 4.375000000000000e+00	 1.006465690769231e+01
0	 2.625000000000000e+00	 3.750000000000000e+00	 1.022090935384614e+01
0	 2.624999999999999e+00	 3.812500000000000e+00	 1.020828704984616e+01
0	 2.625000000000000e+00	 3.875000000000000e+00	 1.019550225476923e+01
0	 2.625000000000000e+00	 3.937500000000000e+00	 1.018255496861538e+01
0	 2.625000000000000e+00	 3.999999999999999e+00	 1.016944519138461e+01
0	 2.625000000000000e+00	 4.062499999999999e+00	 1.015617292307692e+01
0	 2.625000000000000e+00	 4.124999999999997e+00	 1.014273816369231e+01
0	 2.625000000000000e+00	 4.187499999999998e+00	 1.012914091323076e+01
0	 2.625000000000000e+00	 4.249999999999998e+00	 1.011538117169231e+01
0	 2.625000000000000e+00	 4.312499999999998e+00	 1.010145893907693e+01
0	 2.625000000000000e+00	 4.375000000000000e+00	 1.008737421538461e+01
0	 2.687499999999999e+00	 3.750000000000000e+00	 1.024153221538460e+01
0	 2.687499999999999e+00	 3.812500000000000e+00	 1.022898508323077e+01
0	 2.687500000000000e+00	 3.875000000000000e+00	 1.021626805599999e+01
0	 2.687499999999999e+00	 3.937500000000000e+00	 1.020338113369231e+01
0	 2.687500000000000e+00	 3.999999999999999e+00	 1.019032431630769e+01
0	 2.687500000000000e+00	 4.062500000000000e+00	 1.017709760384615e+01
0	 2.687500000000000e+00	 4.124999999999998e+00	 1.016370099630770e+01
0	 2.687500000000000e+00	 4.187499999999999e+00	 1.015013449369230e+01
0	 2.687500000000000e+00	 4.249999999999998e+00	 1.013639809600000e+01
0	 2.687499999999999e+00	 4.312499999999997e+00	 1.012249180323078e+01
0	 2.687499999999999e+00	 4.375000000000000e+00	 1.010841561538462e+01
0	 2.749999999999999e+00	 3.750000000000000e+00	 1.026054766153845e+01
0	 2.750000000000000e+00	 3.812500000000000e+00	 1.024806885199999e+01
0	 2.750000000000000e+00	 3.875000000000000e+00	 1.023541274338461e+01
0	 2.749999999999999e+00	 3.937500000000000e+00	 1.022257933569230e+01
0	 2.750000000000000e+00	 3.999999999999999e+00	 1.020956862892308e+01
0	 2.749999999999999e+00	 4.062499999999999e+00	 1.019638062307692e+01
0	 2.749999999999999e+00	 4.124999999999998e+00	 1.018301531815385e+01
0	 2.749999999999999e+00	 4.187499999999999e+00	 1.016947271415385e+01
0	 2.750000000000000e+00	 4.249999999999998e+00	 1.015575281107692e+01
0	 2.749999999999999e+00	 4.312499999999998e+00	 1.014185560892308e+01
0	 2.749999999999999e+00	 4.375000000000000e+00	 1.012778110769233e+01
0	 2.812499999999999e+00	 3.750000000000000e+00	 1.027795569230768e+01
0	 2.812499999999999e+00	 3.812500000000000e+00	 1.026553835615384e+01
0	 2.812499999999999e+00	 3.875000000000000e+00	 1.025293631692306e+01
0	 2.812500000000000e+00	 3.937499999999999e+00	 1.024014957461539e+01
0	 2.812499999999999e+00	 3.999999999999998e+00	 1.022717812923077e+01
0	 2.812499999999999e+00	 4.062499999999999e+00	 1.021402198076922e+01
0	 2.812500000000000e+00	 4.125000000000000e+00	 1.020068112923077e+01
0	 2.812499999999999e+00	 4.187499999999998e+00	 1.018715557461539e+01
0	 2.812499999999999e+00	 4.249999999999998e+00	 1.017344531692307e+01
0	 2.812499999999999e+00	 4.312499999999998e+00	 1.015955035615385e+01
0	 2.812499999999999e+00	 4.375000000000000e+00	 1.014547069230770e+01
0	 2.874999999999999e+00	 3.750000000000000e+00	 1.029375630769229e+01
0	 2.874999999999999e+00	 3.812500000000000e+00	 1.028139359569230e+01
0	 2.874999999999999e+00	 3.874999999999999e+00	 1.026883877661537e+01
0	 2.874999999999999e+00	 3.937500000000000e+00	 1.025609185046154e+01
0	 2.874999999999999e+00	 4.000000000000000e+00	 1.024315281723077e+01
0	 2.874999999999999e+00	 4.062500000000000e+00	 1.023002167692308e+01
0	 2.874999999999999e+00	 4.124999999999999e+00	 1.021669842953846e+01
0	 2.874999999999999e+00	 4.187499999999998e+00	 1.020318307507692e+01
0	 2.874999999999999e+00	 4.249999999999999e+00	 1.018947561353847e+01
0	 2.874999999999999e+00	 4.312499999999997e+00	 1.017557604492308e+01
0	 2.874999999999999e+00	 4.375000000000000e+00	 1.016148436923077e+01
0	 2.937499999999999e+00	 3.750000000000000e+00	 1.030794950769230e+01
0	 2.937499999999999e+00	 3.812500000000000e+00	 1.029563457061537e+01
0	 2.937499999999999e+00	 3.875000000000000e+00	 1.028312012246153e+01
0	 2.937499999999999e+00	 3.937499999999999e+00	 1.027040616323077e+01
0	 2.937499999999998e+00	 3.999999999999999e+00	 1.025749269292307e+01
0	 2.937499999999999e+00	 4.062500000000000e+00	 1.024437971153847e+01
0	 2.937499999999999e+00	 4.124999999999999e+00	 1.023106721907693e+01
0	 2.937499999999998e+00	 4.187499999999999e+00	 1.021755521553846e+01
0	 2.937499999999999e+00	 4.249999999999998e+00	 1.020384370092307e+01
0	 2.937499999999999e+00	 4.312499999999998e+00	 1.018993267523078e+01
0	 2.937499999999999e+00	 4.375000000000000e+00	 1.017582213846156e+01
0	 2.999999999999998e+00	 3.750000000000000e+00	 1.032053529230769e+01
0	 2.999999999999999e+00	 3.812500000000000e+00	 1.030826128092307e+01
0	 2.999999999999998e+00	 3.875000000000000e+00	 1.029578035446154e+01
0	 2.999999999999999e+00	 3.937500000000000e+00	 1.028309251292307e+01
0	 2.999999999999999e+00	 3.999999999999999e+00	 1.027019775630769e+01
0	 2.999999999999999e+00	 4.062499999999998e+00	 1.025709608461539e+01
0	 2.999999999999998e+00	 4.124999999999999e+00	 1.024378749784615e+01
0	 2.999999999999998e+00	 4.187499999999998e+00	 1.023027199600000e+01
0	 2.999999999999998e+00	 4.249999999999998e+00	 1.021654957907694e+01
0	 2.999999999999998e+00	 4.312499999999998e+00	 1.020262024707693e+01
0	 2.999999999999998e+00	 4.375000000000000e+00	 1.018848400000000e+01
0	 3.062499999999998e+00	 3.750000000000000e+00	 1.033151366153846e+01
0	 3.062499999999998e+00	 3.812500000000000e+00	 1.031927372661538e+01
0	 3.062499999999998e+00	 3.875000000000000e+00	 1.030681947261538e+01
0	 3.062499999999998e+00	 3.937499999999999e+00	 1.029415089953846e+01
0	 3.062499999999998e+00	 3.999999999999999e+00	 1.028126800738461e+01
0	 3.062499999999998e+00	 4.062499999999998e+00	 1.026817079615384e+01
0	 3.062499999999998e+00	 4.124999999999998e+00	 1.025485926584616e+01
0	 3.062499999999998e+00	 4.187499999999998e+00	 1.024133341646155e+01
0	 3.062499999999998e+00	 4.249999999999998e+00	 1.022759324800000e+01
0	 3.062499999999998e+00	 4.312499999999998e+00	 1.021363876046156e+01
0	 3.062499999999998e+00	 4.375000000000000e+00	 1.019946995384615e+01
0	 3.125000000000000e+00	 3.750000000000000e+00	 1.034088461538461e+01
0	 3.125000000000000e+00	 3.812500000000000e+00	 1.032867190769230e+01
0	 3.125000000000000e+00	 3.875000000000000e+00	 1.031623747692308e+01
0	 3.125000000000000e+00	 3.937499999999999e+00	 1.030358132307692e+01
0	 3.125000000000000e+00	 4.000000000000000e+00	 1.029070344615385e+01
0	 3.125000000000000e+00	 4.062499999999999e+00	 1.027760384615385e+01
0	 3.125000000000000e+00	 4.124999999999999e+00	 1.026428252307692e+01
0	 3.125000000000000e+00	 4.187499999999998e+00	 1.025073947692308e+01
0	 3.125000000000000e+00	 4.249999999999998e+00	 1.023697470769231e+01
0	 3.125000000000000e+00	 4.312499999999998e+00	 1.022298821538463e+01
0	 3.125000000000000e+00	 4.375000000000000e+00	 1.020878000000001e+01
0	 2.500000000000000e+00	 4.375000000000000e+00	 1.004026369230769e+01
0	 2.500000000000000e+00	 4.437499999999999e+00	 1.003611210000000e+01
0	 2.500000000000000e+00	 4.500000000000001e+00	 1.003160969230769e+01
0	 2.500000000000000e+00	 4.562499999999999e+00	 1.002675646923077e+01
0	 2.500000000000000e+00	 4.625000000000000e+00	 1.002155243076922e+01
0	 2.500000000000000e+00	 4.687499999999999e+00	 1.001599757692307e+01
0	 2.500000000000000e+00	 4.749999999999999e+00	 1.001009190769231e+01
0	 2.500000000000000e+00	 4.812499999999998e+00	 1.000383542307692e+01
0	 2.500000000000000e+00	 4.874999999999998e+00	 9.997228123076912e+00
0	 2.500000000000000e+00	 4.937499999999998e+00	 9.990270007692304e+00
0	 2.500000000000000e+00	 5.000000000000000e+00	 9.982961076923074e+00
0	 2.562500000000000e+00	 4.375000000000000e+00	 1.006465690769231e+01
0	 2.562500000000000e+00	 4.437500000000000e+00	 1.005965003307693e+01
0	 2.562500000000000e+00	 4.499999999999999e+00	 1.005431827692308e+01
0	 2.562500000000000e+00	 4.562499999999999e+00	 1.004866163923077e+01
0	 2.562500000000000e+00	 4.625000000000000e+00	 1.004268012000000e+01
0	 2.562500000000000e+00	 4.687500000000001e+00	 1.003637371923077e+01
0	 2.562500000000000e+00	 4.749999999999999e+00	 1.002974243692308e+01
0	 2.562500000000000e+00	 4.812499999999999e+00	 1.002278627307692e+01
0	 2.562500000000000e+00	 4.875000000000000e+00	 1.001550522769231e+01
0	 2.562500000000000e+00	 4.937499999999997e+00	 1.000789930076922e+01
0	 2.562500000000000e+00	 4.999999999999999e+00	 9.999968492307685e+00
0	 2.625000000000000e+00	 4.375000000000000e+00	 1.008737421538461e+01
0	 2.624999999999999e+00	 4.437500000000000e+00	 1.008159773846155e+01
0	 2.625000000000000e+00	 4.500000000000001e+00	 1.007552231384615e+01
0	 2.625000000000000e+00	 4.562499999999999e+00	 1.006914794153846e+01
0	 2.625000000000000e+00	 4.624999999999998e+00	 1.006247462153845e+01
0	 2.625000000000000e+00	 4.687499999999997e+00	 1.005550235384616e+01
0	 2.625000000000000e+00	 4.749999999999998e+00	 1.004823113846154e+01
0	 2.625000000000000e+00	 4.812499999999999e+00	 1.004066097538461e+01
0	 2.625000000000000e+00	 4.874999999999998e+00	 1.003279186461539e+01
0	 2.625000000000000e+00	 4.937499999999998e+00	 1.002462380615385e+01
0	 2.625000000000000e+00	 5.000000000000000e+00	 1.001615680000000e+01
0	 2.687499999999999e+00	 4.375000000000000e+00	 1.010841561538462e+01
0	 2.687499999999999e+00	 4.437500000000000e+00	 1.010195521615385e+01
0	 2.687500000000000e+00	 4.500000000000000e+00	 1.009522180307692e+01
0	 2.687499999999999e+00	 4.562499999999999e+00	 1.008821537615384e+01
0	 2.687500000000000e+00	 4.625000000000000e+00	 1.008093593538463e+01
0	 2.687500000000000e+00	 4.687499999999999e+00	 1.007338348076923e+01
0	 2.687500000000000e+00	 4.749999999999998e+00	 1.006555801230770e+01
0	 2.687500000000000e+00	 4.812499999999998e+00	 1.005745953000000e+01
0	 2.687500000000000e+00	 4.874999999999998e+00	 1.004908803384616e+01
0	 2.687499999999999e+00	 4.937499999999997e+00	 1.004044352384616e+01
0	 2.687499999999999e+00	 4.999999999999999e+00	 1.003152600000000e+01
0	 2.749999999999999e+00	 4.375000000000000e+00	 1.012778110769233e+01
0	 2.750000000000000e+00	 4.437500000000000e+00	 1.012072246615385e+01
0	 2.750000000000000e+00	 4.500000000000000e+00	 1.011341674461538e+01
0	 2.749999999999999e+00	 4.562499999999999e+00	 1.010586394307693e+01
0	 2.750000000000000e+00	 4.624999999999999e+00	 1.009806406153847e+01
0	 2.749999999999999e+00	 4.687500000000000e+00	 1.009001710000001e+01
0	 2.749999999999999e+00	 4.749999999999998e+00	 1.008172305846154e+01
0	 2.749999999999999e+00	 4.812499999999999e+00	 1.007318193692308e+01
0	 2.750000000000000e+00	 4.874999999999998e+00	 1.006439373538461e+01
0	 2.749999999999999e+00	 4.937499999999997e+00	 1.005535845384613e+01
0	 2.749999999999999e+00	 5.000000000000000e+00	 1.004607609230769e+01
0	 2.812499999999999e+00	 4.375000000000000e+00	 1.014547069230770e+01
0	 2.812499999999999e+00	 4.437499999999999e+00	 1.013789948846153e+01
0	 2.812499999999999e+00	 4.499999999999999e+00	 1.013010713846155e+01
0	 2.812500000000000e+00	 4.562499999999999e+00	 1.012209364230769e+01
0	 2.812499999999999e+00	 4.624999999999998e+00	 1.011385900000001e+01
0	 2.812499999999999e+00	 4.687499999999999e+00	 1.010540321153847e+01
0	 2.812500000000000e+00	 4.750000000000000e+00	 1.009672627692308e+01
0	 2.812499999999999e+00	 4.812499999999998e+00	 1.008782819615384e+01
0	 2.812499999999999e+00	 4.874999999999998e+00	 1.007870896923077e+01
0	 2.812499999999999e+00	 4.937499999999999e+00	 1.006936859615385e+01
0	 2.812499999999999e+00	 5.000000000000000e+00	 1.005980707692306e+01
0	 2.874999999999999e+00	 4.375000000000000e+00	 1.016148436923077e+01
0	 2.874999999999999e+00	 4.437499999999999e+00	 1.015348628307693e+01
0	 2.874999999999999e+00	 4.499999999999998e+00	 1.014529298461539e+01
0	 2.874999999999999e+00	 4.562499999999999e+00	 1.013690447384615e+01
0	 2.874999999999999e+00	 4.625000000000001e+00	 1.012832075076924e+01
0	 2.874999999999999e+00	 4.687499999999999e+00	 1.011954181538461e+01
0	 2.874999999999999e+00	 4.749999999999998e+00	 1.011056766769231e+01
0	 2.874999999999999e+00	 4.812499999999999e+00	 1.010139830769231e+01
0	 2.874999999999999e+00	 4.874999999999998e+00	 1.009203373538462e+01
0	 2.874999999999999e+00	 4.937499999999999e+00	 1.008247395076921e+01
0	 2.874999999999999e+00	 5.000000000000001e+00	 1.007271895384615e+01
0	 2.937499999999999e+00	 4.375000000000000e+00	 1.017582213846156e+01
0	 2.937499999999999e+00	 4.437499999999999e+00	 1.016748285000000e+01
0	 2.937499999999999e+00	 4.500000000000000e+00	 1.015897428307692e+01
0	 2.937499999999999e+00	 4.562499999999999e+00	 1.015029643769231e+01
0	 2.937499999999998e+00	 4.625000000000000e+00	 1.014144931384615e+01
0	 2.937499999999999e+00	 4.687500000000000e+00	 1.013243291153846e+01
0	 2.937499999999999e+00	 4.749999999999999e+00	 1.012324723076924e+01
0	 2.937499999999998e+00	 4.812499999999999e+00	 1.011389227153847e+01
0	 2.937499999999999e+00	 4.874999999999998e+00	 1.010436803384613e+01
0	 2.937499999999999e+00	 4.937499999999999e+00	 1.009467451769231e+01
0	 2.937499999999999e+00	 4.999999999999999e+00	 1.008481172307690e+01
0	 2.999999999999998e+00	 4.375000000000000e+00	 1.018848400000000e+01
0	 2.999999999999999e+00	 4.437500000000001e+00	 1.017988918923077e+01
0	 2.999999999999998e+00	 4.499999999999999e+00	 1.017115103384615e+01
0	 2.999999999999999e+00	 4.562500000000000e+00	 1.016226953384616e+01
0	 2.999999999999999e+00	 4.624999999999999e+00	 1.015324468923076e+01
0	 2.999999999999999e+00	 4.687499999999998e+00	 1.014407650000000e+01
0	 2.999999999999998e+00	 4.749999999999999e+00	 1.013476496615384e+01
0	 2.999999999999998e+00	 4.812499999999998e+00	 1.012531008769230e+01
0	 2.999999999999998e+00	 4.874999999999999e+00	 1.011571186461537e+01
0	 2.999999999999998e+00	 4.937499999999998e+00	 1.010597029692307e+01
0	 2.999999999999998e+00	 5.000000000000000e+00	 1.009608538461539e+01
0	 3.062499999999998e+00	 4.375000000000000e+00	 1.019946995384615e+01
0	 3.062499999999998e+00	 4.437500000000000e+00	 1.019070530076923e+01
0	 3.062499999999998e+00	 4.500000000000000e+00	 1.018182323692308e+01
0	 3.062499999999998e+00	 4.562500000000000e+00	 1.017282376230770e+01
0	 3.062499999999998e+00	 4.624999999999999e+00	 1.016370687692307e+01
0	 3.062499999999998e+00	 4.687499999999999e+00	 1.015447258076923e+01
0	 3.062499999999998e+00	 4.749999999999999e+00	 1.014512087384615e+01
0	 3.062499999999998e+00	 4.812499999999998e+00	 1.013565175615385e+01
0	 3.062499999999998e+00	 4.874999999999999e+00	 1.012606522769231e+01
0	 3.062499999999998e+00	 4.937499999999998e+00	 1.011636128846153e+01
0	 3.062499999999998e+00	 5.000000000000000e+00	 1.010653993846154e+01
0	 3.125000000000000e+00	 4.375000000000000e+00	 1.020878000000001e+01
0	 3.125000000000000e+00	 4.437499999999999e+00	 1.019993118461538e+01
0	 3.125000000000000e+00	 4.500000000000001e+00	 1.019099089230770e+01
0	 3.125000000000000e+00	 4.562499999999999e+00	 1.018195912307693e+01
0	 3.125000000000000e+00	 4.625000000000000e+00	 1.017283587692308e+01
0	 3.125000000000000e+00	 4.687499999999999e+00	 1.016362115384615e+01
0	 3.125000000000000e+00	 4.749999999999999e+00	 1.015431495384615e+01
0	 3.125000000000000e+00	 4.812499999999998e+00	 1.014491727692308e+01
0	 3.125000000000000e+00	 4.874999999999998e+00	 1.013542812307692e+01
0	 3.125000000000000e+00	 4.937499999999998e+00	 1.012584749230768e+01
0	 3.125000000000000e+00	 5.000000000000000e+00	 1.011617538461538e+01
0	 2.500000000000000e+00	 5.000000000000000e+00	 9.982961076923074e+00
0	 2.500000000000000e+00	 5.062500000000000e+00	 9.981022689230780e+00
0	 2.500000000000000e+00	 5.125000000000001e+00	 9.978948203076916e+00
0	 2.500000000000000e+00	 5.187499999999999e+00	 9.976737618461520e+00
0	 2.500000000000000e+00	 5.249999999999999e+00	 9.974390935384610e+00
0	 2.500000000000000e+00	 5.312499999999999e+00	 9.971908153846151e+00
0	 2.500000000000000e+00	 5.374999999999998e+00	 9.969289273846151e+00
0	 2.500000000000000e+00	 5.437499999999998e+00	 9.966534295384612e+00
0	 2.500000000000000e+00	 5.499999999999998e+00	 9.963643218461534e+00
0	 2.500000000000000e+00	 5.562499999999998e+00	 9.960616043076927e+00
0	 2.500000000000000e+00	 5.625000000000000e+00	 9.957452769230766e+00
0	 2.562500000000000e+00	 4.999999999999999e+00	 9.999968492307685e+00
0	 2.562500000000000e+00	 5.062500000000000e+00	 9.997624328000002e+00
0	 2.562500000000000e+00	 5.125000000000000e+00	 9.995141770461528e+00
0	 2.562500000000000e+00	 5.187499999999999e+00	 9.992520819692313e+00
0	 2.562500000000000e+00	 5.249999999999998e+00	 9.989761475692305e+00
0	 2.562500000000000e+00	 5.312500000000000e+00	 9.986863738461537e+00
0	 2.562500000000000e+00	 5.374999999999999e+00	 9.983827607999995e+00
0	 2.562500000000000e+00	 5.437499999999999e+00	 9.980653084307701e+00
0	 2.562500000000000e+00	 5.499999999999999e+00	 9.977340167384620e+00
0	 2.562500000000000e+00	 5.562499999999996e+00	 9.973888857230776e+00
0	 2.562500000000000e+00	 5.625000000000000e+00	 9.970299153846142e+00
0	 2.625000000000000e+00	 5.000000000000000e+00	 1.001615680000000e+01
0	 2.624999999999999e+00	 5.062499999999999e+00	 1.001343457907691e+01
0	 2.625000000000000e+00	 5.125000000000001e+00	 1.001057167015383e+01
0	 2.625000000000000e+00	 5.187499999999998e+00	 1.000756807323077e+01
0	 2.625000000000000e+00	 5.249999999999999e+00	 1.000442378830769e+01
0	 2.625000000000000e+00	 5.312499999999999e+00	 1.000113881538461e+01
0	 2.625000000000000e+00	 5.374999999999999e+00	 9.997713154461540e+00
0	 2.625000000000000e+00	 5.437499999999999e+00	 9.994146805538474e+00
0	 2.625000000000000e+00	 5.499999999999998e+00	 9.990439768615380e+00
0	 2.625000000000000e+00	 5.562499999999999e+00	 9.986592043692301e+00
0	 2.625000000000000e+00	 5.625000000000000e+00	 9.982603630769235e+00
0	 2.687499999999999e+00	 4.999999999999999e+00	 1.003152600000000e+01
0	 2.687499999999999e+00	 5.062500000000001e+00	 1.002845344246153e+01
0	 2.687500000000000e+00	 5.125000000000000e+00	 1.002523790215384e+01
0	 2.687499999999999e+00	 5.187499999999999e+00	 1.002187937907692e+01
0	 2.687500000000000e+00	 5.250000000000000e+00	 1.001837787323076e+01
0	 2.687500000000000e+00	 5.312499999999999e+00	 1.001473338461538e+01
0	 2.687500000000000e+00	 5.374999999999998e+00	 1.001094591323077e+01
0	 2.687500000000000e+00	 5.437499999999999e+00	 1.000701545907691e+01
0	 2.687500000000000e+00	 5.499999999999998e+00	 1.000294202215385e+01
0	 2.687499999999999e+00	 5.562499999999997e+00	 9.998725602461541e+00
0	 2.687499999999999e+00	 5.625000000000000e+00	 9.994366199999982e+00
0	 2.749999999999999e+00	 5.000000000000000e+00	 1.004607609230769e+01
0	 2.750000000000000e+00	 5.062500000000000e+00	 1.004268091815383e+01
0	 2.750000000000000e+00	 5.125000000000000e+00	 1.003914046646153e+01
0	 2.749999999999999e+00	 5.187500000000000e+00	 1.003545473723076e+01
0	 2.750000000000000e+00	 5.249999999999999e+00	 1.003162373046153e+01
0	 2.749999999999999e+00	 5.312499999999999e+00	 1.002764744615385e+01
0	 2.749999999999999e+00	 5.374999999999998e+00	 1.002352588430770e+01
0	 2.749999999999999e+00	 5.437499999999999e+00	 1.001925904492308e+01
0	 2.750000000000000e+00	 5.499999999999999e+00	 1.001484692800000e+01
0	 2.749999999999999e+00	 5.562499999999998e+00	 1.001028953353846e+01
0	 2.749999999999999e+00	 5.625000000000000e+00	 1.000558686153844e+01
0	 2.812499999999999e+00	 5.000000000000000e+00	 1.005980707692306e+01
0	 2.812499999999999e+00	 5.062500000000000e+00	 1.005611700615385e+01
0	 2.812499999999999e+00	 5.124999999999999e+00	 1.005227936307693e+01
0	 2.812500000000000e+00	 5.187500000000000e+00	 1.004829414769230e+01
0	 2.812499999999999e+00	 5.249999999999998e+00	 1.004416135999999e+01
0	 2.812499999999999e+00	 5.312499999999999e+00	 1.003988100000000e+01
0	 2.812500000000000e+00	 5.375000000000000e+00	 1.003545306769231e+01
0	 2.812499999999999e+00	 5.437499999999998e+00	 1.003087756307692e+01
0	 2.812499999999999e+00	 5.499999999999998e+00	 1.002615448615385e+01
0	 2.812499999999999e+00	 5.562499999999999e+00	 1.002128383692307e+01
0	 2.812499999999999e+00	 5.625000000000000e+00	 1.001626561538461e+01
0	 2.874999999999999e+00	 5.000000000000001e+00	 1.007271895384615e+01
0	 2.874999999999999e+00	 5.062499999999999e+00	 1.006876170646153e+01
0	 2.874999999999999e+00	 5.125000000000000e+00	 1.006465459199998e+01
0	 2.874999999999999e+00	 5.187500000000000e+00	 1.006039761046153e+01
0	 2.874999999999999e+00	 5.250000000000001e+00	 1.005599076184614e+01
0	 2.874999999999999e+00	 5.312500000000001e+00	 1.005143404615384e+01
0	 2.874999999999999e+00	 5.374999999999999e+00	 1.004672746338461e+01
0	 2.874999999999999e+00	 5.437499999999999e+00	 1.004187101353847e+01
0	 2.874999999999999e+00	 5.499999999999998e+00	 1.003686469661538e+01
0	 2.874999999999999e+00	 5.562499999999998e+00	 1.003170851261540e+01
0	 2.874999999999999e+00	 5.625000000000000e+00	 1.002640246153846e+01
0	 2.937499999999999e+00	 4.999999999999999e+00	 1.008481172307690e+01
0	 2.937499999999999e+00	 5.062500000000000e+00	 1.008061501907691e+01
0	 2.937499999999999e+00	 5.125000000000000e+00	 1.007626615323076e+01
0	 2.937499999999999e+00	 5.187500000000000e+00	 1.007176512553845e+01
0	 2.937499999999998e+00	 5.250000000000000e+00	 1.006711193600000e+01
0	 2.937499999999999e+00	 5.312500000000000e+00	 1.006230658461538e+01
0	 2.937499999999999e+00	 5.374999999999999e+00	 1.005734907138462e+01
0	 2.937499999999998e+00	 5.437499999999998e+00	 1.005223939630768e+01
0	 2.937499999999999e+00	 5.499999999999998e+00	 1.004697755938461e+01
0	 2.937499999999999e+00	 5.562499999999999e+00	 1.004156356061538e+01
0	 2.937499999999999e+00	 5.625000000000000e+00	 1.003599740000000e+01
0	 2.999999999999998e+00	 5.000000000000000e+00	 1.009608538461539e+01
0	 2.999999999999999e+00	 5.062500000000002e+00	 1.009167694400001e+01
0	 2.999999999999998e+00	 5.124999999999999e+00	 1.008711404676923e+01
0	 2.999999999999999e+00	 5.187500000000000e+00	 1.008239669292308e+01
0	 2.999999999999999e+00	 5.249999999999998e+00	 1.007752488246154e+01
0	 2.999999999999999e+00	 5.312499999999999e+00	 1.007249861538462e+01
0	 2.999999999999998e+00	 5.374999999999998e+00	 1.006731789169230e+01
0	 2.999999999999998e+00	 5.437499999999998e+00	 1.006198271138461e+01
0	 2.999999999999998e+00	 5.499999999999999e+00	 1.005649307446155e+01
0	 2.999999999999998e+00	 5.562499999999998e+00	 1.005084898092307e+01
0	 2.999999999999998e+00	 5.625000000000000e+00	 1.004505043076923e+01
0	 3.062499999999998e+00	 5.000000000000000e+00	 1.010653993846154e+01
0	 3.062499999999998e+00	 5.062500000000000e+00	 1.010194748123076e+01
0	 3.062499999999998e+00	 5.125000000000001e+00	 1.009719827261538e+01
0	 3.062499999999998e+00	 5.187499999999999e+00	 1.009229231261538e+01
0	 3.062499999999998e+00	 5.249999999999999e+00	 1.008722960123075e+01
0	 3.062499999999998e+00	 5.312499999999998e+00	 1.008201013846153e+01
0	 3.062499999999998e+00	 5.374999999999997e+00	 1.007663392430768e+01
0	 3.062499999999998e+00	 5.437499999999998e+00	 1.007110095876923e+01
0	 3.062499999999998e+00	 5.499999999999999e+00	 1.006541124184616e+01
0	 3.062499999999998e+00	 5.562499999999998e+00	 1.005956477353845e+01
0	 3.062499999999998e+00	 5.625000000000000e+00	 1.005356155384613e+01
0	 3.125000000000000e+00	 5.000000000000000e+00	 1.011617538461538e+01
0	 3.125000000000000e+00	 5.062500000000000e+00	 1.011142663076923e+01
0	 3.125000000000000e+00	 5.125000000000001e+00	 1.010651883076923e+01
0	 3.125000000000000e+00	 5.187499999999999e+00	 1.010145198461537e+01
0	 3.125000000000000e+00	 5.249999999999999e+00	 1.009622609230769e+01
0	 3.125000000000000e+00	 5.312499999999999e+00	 1.009084115384615e+01
0	 3.125000000000000e+00	 5.374999999999998e+00	 1.008529716923077e+01
0	 3.125000000000000e+00	 5.437499999999998e+00	 1.007959413846154e+01
0	 3.125000000000000e+00	 5.499999999999998e+00	 1.007373206153846e+01
0	 3.125000000000000e+00	 5.562499999999998e+00	 1.006771093846153e+01
0	 3.125000000000000e+00	 5.625000000000000e+00	 1.006153076923077e+01
0	 2.500000000000000e+00	 5.625000000000000e+00	 9.957452769230766e+00
0	 2.500000000000000e+00	 5.687500000000000e+00	 9.957423683076925e+00
0	 2.500000000000000e+00	 5.750000000000000e+00	 9.957292301538446e+00
0	 2.500000000000000e+00	 5.812499999999999e+00	 9.957058624615396e+00
0	 2.500000000000000e+00	 5.874999999999999e+00	 9.956722652307691e+00
0	 2.500000000000000e+00	 5.937499999999999e+00	 9.956284384615392e+00
0	 2.500000000000000e+00	 5.999999999999998e+00	 9.955743821538473e+00
0	 2.500000000000000e+00	 6.062499999999998e+00	 9.955100963076918e+00
0	 2.500000000000000e+00	 6.124999999999998e+00	 9.954355809230778e+00
0	 2.500000000000000e+00	 6.187499999999998e+00	 9.953508360000015e+00
0	 2.500000000000000e+00	 6.250000000000000e+00	 9.952558615384623e+00
0	 2.562500000000000e+00	 5.625000000000000e+00	 9.970299153846142e+00
0	 2.562500000000000e+00	 5.687499999999999e+00	 9.969885750153846e+00
0	 2.562500000000000e+00	 5.749999999999999e+00	 9.969371751384617e+00
0	 2.562500000000000e+00	 5.812499999999998e+00	 9.968757157538464e+00
0	 2.562500000000000e+00	 5.875000000000000e+00	 9.968041968615388e+00
0	 2.562500000000000e+00	 5.937500000000001e+00	 9.967226184615386e+00
0	 2.562500000000000e+00	 5.999999999999999e+00	 9.966309805538456e+00
0	 2.562500000000000e+00	 6.062500000000000e+00	 9.965292831384605e+00
0	 2.562500000000000e+00	 6.125000000000000e+00	 9.964175262153839e+00
0	 2.562500000000000e+00	 6.187499999999996e+00	 9.962957097846145e+00
0	 2.562500000000000e+00	 6.250000000000000e+00	 9.961638338461539e+00
0	 2.625000000000000e+00	 5.625000000000000e+00	 9.982603630769235e+00
0	 2.624999999999999e+00	 5.687499999999999e+00	 9.981829278769229e+00
0	 2.625000000000000e+00	 5.750000000000002e+00	 9.980956032000002e+00
0	 2.625000000000000e+00	 5.812499999999999e+00	 9.979983890461536e+00
0	 2.625000000000000e+00	 5.874999999999998e+00	 9.978912854153851e+00
0	 2.625000000000000e+00	 5.937499999999999e+00	 9.977742923076931e+00
0	 2.625000000000000e+00	 5.999999999999998e+00	 9.976474097230764e+00
0	 2.625000000000000e+00	 6.062499999999999e+00	 9.975106376615383e+00
0	 2.625000000000000e+00	 6.124999999999998e+00	 9.973639761230764e+00
0	 2.625000000000000e+00	 6.187499999999998e+00	 9.972074251076915e+00
0	 2.625000000000000e+00	 6.250000000000000e+00	 9.970409846153853e+00
0	 2.687499999999999e+00	 5.625000000000000e+00	 9.994366199999982e+00
0	 2.687499999999999e+00	 5.687500000000000e+00	 9.993254268923081e+00
0	 2.687500000000000e+00	 5.749999999999999e+00	 9.992045143384610e+00
0	 2.687499999999999e+00	 5.812499999999999e+00	 9.990738823384616e+00
0	 2.687500000000000e+00	 5.875000000000000e+00	 9.989335308923081e+00
0	 2.687500000000000e+00	 5.937500000000000e+00	 9.987834600000003e+00
0	 2.687500000000000e+00	 5.999999999999998e+00	 9.986236696615393e+00
0	 2.687500000000000e+00	 6.062499999999998e+00	 9.984541598769237e+00
0	 2.687500000000000e+00	 6.124999999999997e+00	 9.982749306461546e+00
0	 2.687499999999999e+00	 6.187499999999997e+00	 9.980859819692331e+00
0	 2.687499999999999e+00	 6.250000000000000e+00	 9.978873138461523e+00
0	 2.749999999999999e+00	 5.625000000000000e+00	 1.000558686153844e+01
0	 2.750000000000000e+00	 5.687500000000000e+00	 1.000416072061538e+01
0	 2.750000000000000e+00	 5.750000000000000e+00	 1.000263908553847e+01
0	 2.749999999999999e+00	 5.812500000000000e+00	 1.000102195630769e+01
0	 2.750000000000000e+00	 5.874999999999999e+00	 9.999309332923071e+00
0	 2.749999999999999e+00	 5.937499999999999e+00	 9.997501215384618e+00
0	 2.749999999999999e+00	 5.999999999999997e+00	 9.995597603692309e+00
0	 2.749999999999999e+00	 6.062499999999998e+00	 9.993598497846149e+00
0	 2.750000000000000e+00	 6.124999999999999e+00	 9.991503897846158e+00
0	 2.749999999999999e+00	 6.187499999999998e+00	 9.989313803692315e+00
0	 2.749999999999999e+00	 6.250000000000000e+00	 9.987028215384631e+00
0	 2.812499999999999e+00	 5.625000000000000e+00	 1.001626561538461e+01
0	 2.812499999999999e+00	 5.687500000000000e+00	 1.001454863384616e+01
0	 2.812499999999999e+00	 5.750000000000000e+00	 1.001273785846154e+01
0	 2.812500000000000e+00	 5.812500000000000e+00	 1.001083328923078e+01
0	 2.812499999999999e+00	 5.874999999999998e+00	 1.000883492615385e+01
0	 2.812499999999999e+00	 5.937499999999998e+00	 1.000674276923078e+01
0	 2.812500000000000e+00	 6.000000000000000e+00	 1.000455681846154e+01
0	 2.812499999999999e+00	 6.062499999999998e+00	 1.000227707384616e+01
0	 2.812499999999999e+00	 6.124999999999998e+00	 9.999903535384616e+00
0	 2.812499999999999e+00	 6.187499999999999e+00	 9.997436203076921e+00
0	 2.812499999999999e+00	 6.250000000000000e+00	 9.994875076923094e+00
0	 2.874999999999999e+00	 5.625000000000000e+00	 1.002640246153846e+01
0	 2.874999999999999e+00	 5.687499999999999e+00	 1.002441800861539e+01
0	 2.874999999999999e+00	 5.750000000000000e+00	 1.002234146215384e+01
0	 2.874999999999999e+00	 5.812499999999999e+00	 1.002017282215384e+01
0	 2.874999999999999e+00	 5.875000000000001e+00	 1.001791208861540e+01
0	 2.874999999999999e+00	 5.937499999999999e+00	 1.001555926153846e+01
0	 2.874999999999999e+00	 5.999999999999998e+00	 1.001311434092308e+01
0	 2.874999999999999e+00	 6.062499999999999e+00	 1.001057732676923e+01
0	 2.874999999999999e+00	 6.124999999999998e+00	 1.000794821907693e+01
0	 2.874999999999999e+00	 6.187499999999998e+00	 1.000522701784614e+01
0	 2.874999999999999e+00	 6.250000000000000e+00	 1.000241372307691e+01
0	 2.937499999999999e+00	 5.625000000000000e+00	 1.003599740000000e+01
0	 2.937499999999999e+00	 5.687500000000000e+00	 1.003376884492307e+01
0	 2.937499999999999e+00	 5.750000000000000e+00	 1.003144989661538e+01
0	 2.937499999999999e+00	 5.812499999999999e+00	 1.002904055507692e+01
0	 2.937499999999998e+00	 5.874999999999999e+00	 1.002654082030769e+01
0	 2.937499999999999e+00	 5.937500000000001e+00	 1.002395069230770e+01
0	 2.937499999999999e+00	 5.999999999999999e+00	 1.002127017107694e+01
0	 2.937499999999998e+00	 6.062499999999999e+00	 1.001849925661540e+01
0	 2.937499999999999e+00	 6.124999999999999e+00	 1.001563794892308e+01
0	 2.937499999999999e+00	 6.187499999999999e+00	 1.001268624799999e+01
0	 2.937499999999999e+00	 6.250000000000000e+00	 1.000964415384616e+01
0	 2.999999999999998e+00	 5.625000000000000e+00	 1.004505043076923e+01
0	 2.999999999999999e+00	 5.687500000000000e+00	 1.004260114276923e+01
0	 2.999999999999998e+00	 5.750000000000000e+00	 1.004006316184615e+01
0	 2.999999999999999e+00	 5.812499999999999e+00	 1.003743648799999e+01
0	 2.999999999999999e+00	 5.875000000000000e+00	 1.003472112123077e+01
0	 2.999999999999999e+00	 5.937500000000000e+00	 1.003191706153845e+01
0	 2.999999999999998e+00	 5.999999999999998e+00	 1.002902430892308e+01
0	 2.999999999999998e+00	 6.062499999999998e+00	 1.002604286338461e+01
0	 2.999999999999998e+00	 6.124999999999999e+00	 1.002297272492307e+01
0	 2.999999999999998e+00	 6.187499999999998e+00	 1.001981389353847e+01
0	 2.999999999999998e+00	 6.250000000000000e+00	 1.001656636923077e+01
0	 3.062499999999998e+00	 5.625000000000000e+00	 1.005356155384613e+01
0	 3.062499999999998e+00	 5.687500000000000e+00	 1.005091490215383e+01
0	 3.062499999999998e+00	 5.750000000000000e+00	 1.004818125784615e+01
0	 3.062499999999998e+00	 5.812499999999999e+00	 1.004536062092307e+01
0	 3.062499999999998e+00	 5.875000000000000e+00	 1.004245299138461e+01
0	 3.062499999999998e+00	 5.937499999999999e+00	 1.003945836923076e+01
0	 3.062499999999998e+00	 5.999999999999998e+00	 1.003637675446153e+01
0	 3.062499999999998e+00	 6.062499999999998e+00	 1.003320814707693e+01
0	 3.062499999999998e+00	 6.124999999999998e+00	 1.002995254707692e+01
0	 3.062499999999998e+00	 6.187499999999997e+00	 1.002660995446155e+01
0	 3.062499999999998e+00	 6.250000000000000e+00	 1.002318036923077e+01
0	 3.125000000000000e+00	 5.625000000000000e+00	 1.006153076923077e+01
0	 3.125000000000000e+00	 5.687500000000000e+00	 1.005871012307692e+01
0	 3.125000000000000e+00	 5.750000000000000e+00	 1.005580418461538e+01
0	 3.125000000000000e+00	 5.812499999999999e+00	 1.005281295384617e+01
0	 3.125000000000000e+00	 5.874999999999999e+00	 1.004973643076923e+01
0	 3.125000000000000e+00	 5.937499999999999e+00	 1.004657461538462e+01
0	 3.125000000000000e+00	 5.999999999999998e+00	 1.004332750769232e+01
0	 3.125000000000000e+00	 6.062499999999998e+00	 1.003999510769231e+01
0	 3.125000000000000e+00	 6.124999999999998e+00	 1.003657741538461e+01
0	 3.125000000000000e+00	 6.187499999999998e+00	 1.003307443076924e+01
0	 3.125000000000000e+00	 6.250000000000000e+00	 1.002948615384615e+01
0	 2.500000000000000e+00	 6.250000000000000e+00	 9.952558615384623e+00
0	 2.500000000000000e+00	 6.312500000000000e+00	 9.953359638461547e+00
0	 2.500000000000000e+00	 6.375000000000000e+00	 9.954113723076933e+00
0	 2.500000000000000e+00	 6.437499999999999e+00	 9.954820869230760e+00
0	 2.500000000000000e+00	 6.499999999999999e+00	 9.955481076923078e+00
0	 2.500000000000000e+00	 6.562499999999998e+00	 9.956094346153851e+00
0	 2.500000000000000e+00	 6.624999999999998e+00	 9.956660676923065e+00
0	 2.500000000000000e+00	 6.687499999999998e+00	 9.957180069230755e+00
0	 2.500000000000000e+00	 6.749999999999998e+00	 9.957652523076931e+00
0	 2.500000000000000e+00	 6.812499999999998e+00	 9.958078038461551e+00
0	 2.500000000000000e+00	 6.875000000000000e+00	 9.958456615384613e+00
0	 2.562500000000000e+00	 6.250000000000000e+00	 9.961638338461539e+00
0	 2.562500000000000e+00	 6.312500000000000e+00	 9.962155034615378e+00
0	 2.562500000000000e+00	 6.374999999999999e+00	 9.962623024615379e+00
0	 2.562500000000000e+00	 6.437500000000000e+00	 9.963042308461542e+00
0	 2.562500000000000e+00	 6.499999999999997e+00	 9.963412886153845e+00
0	 2.562500000000000e+00	 6.562500000000000e+00	 9.963734757692311e+00
0	 2.562500000000000e+00	 6.624999999999999e+00	 9.964007923076927e+00
0	 2.562500000000000e+00	 6.687499999999999e+00	 9.964232382307701e+00
0	 2.562500000000000e+00	 6.749999999999999e+00	 9.964408135384630e+00
0	 2.562500000000000e+00	 6.812499999999996e+00	 9.964535182307680e+00
0	 2.562500000000000e+00	 6.875000000000001e+00	 9.964613523076917e+00
0	 2.625000000000000e+00	 6.250000000000000e+00	 9.970409846153853e+00
0	 2.624999999999999e+00	 6.312499999999999e+00	 9.970656258461544e+00
0	 2.625000000000000e+00	 6.375000000000000e+00	 9.970852196923083e+00
0	 2.625000000000000e+00	 6.437499999999998e+00	 9.970997661538455e+00
0	 2.625000000000000e+00	 6.499999999999996e+00	 9.971092652307693e+00
0	 2.625000000000000e+00	 6.562499999999998e+00	 9.971137169230772e+00
0	 2.625000000000000e+00	 6.624999999999996e+00	 9.971131212307697e+00
0	 2.625000000000000e+00	 6.687499999999999e+00	 9.971074781538457e+00
0	 2.625000000000000e+00	 6.749999999999997e+00	 9.970967876923080e+00
0	 2.625000000000000e+00	 6.812500000000000e+00	 9.970810498461528e+00
0	 2.625000000000000e+00	 6.875000000000000e+00	 9.970602646153832e+00
0	 2.687499999999999e+00	 6.250000000000000e+00	 9.978873138461523e+00
0	 2.687499999999999e+00	 6.312499999999999e+00	 9.978863310000007e+00
0	 2.687500000000000e+00	 6.375000000000000e+00	 9.978801239999992e+00
0	 2.687499999999999e+00	 6.437500000000000e+00	 9.978686928461528e+00
0	 2.687500000000000e+00	 6.499999999999998e+00	 9.978520375384626e+00
0	 2.687500000000000e+00	 6.562499999999999e+00	 9.978301580769239e+00
0	 2.687500000000000e+00	 6.624999999999999e+00	 9.978030544615375e+00
0	 2.687500000000000e+00	 6.687499999999998e+00	 9.977707266923076e+00
0	 2.687500000000000e+00	 6.749999999999998e+00	 9.977331747692300e+00
0	 2.687499999999999e+00	 6.812499999999997e+00	 9.976903986923075e+00
0	 2.687499999999999e+00	 6.874999999999999e+00	 9.976423984615399e+00
0	 2.749999999999999e+00	 6.250000000000000e+00	 9.987028215384631e+00
0	 2.750000000000000e+00	 6.312499999999999e+00	 9.986776189230763e+00
0	 2.750000000000000e+00	 6.375000000000000e+00	 9.986470153846160e+00
0	 2.749999999999999e+00	 6.437499999999999e+00	 9.986110109230774e+00
0	 2.750000000000000e+00	 6.499999999999997e+00	 9.985696055384619e+00
0	 2.749999999999999e+00	 6.562499999999999e+00	 9.985227992307701e+00
0	 2.749999999999999e+00	 6.624999999999998e+00	 9.984705920000003e+00
0	 2.749999999999999e+00	 6.687499999999998e+00	 9.984129838461550e+00
0	 2.750000000000000e+00	 6.749999999999998e+00	 9.983499747692317e+00
0	 2.749999999999999e+00	 6.812499999999998e+00	 9.982815647692322e+00
0	 2.749999999999999e+00	 6.875000000000001e+00	 9.982077538461542e+00
0	 2.812499999999999e+00	 6.250000000000000e+00	 9.994875076923094e+00
0	 2.812499999999999e+00	 6.312500000000000e+00	 9.994394896153837e+00
0	 2.812499999999999e+00	 6.375000000000000e+00	 9.993858938461525e+00
0	 2.812500000000000e+00	 6.437499999999999e+00	 9.993267203846157e+00
0	 2.812499999999999e+00	 6.499999999999997e+00	 9.992619692307690e+00
0	 2.812499999999999e+00	 6.562499999999999e+00	 9.991916403846165e+00
0	 2.812500000000000e+00	 6.625000000000000e+00	 9.991157338461543e+00
0	 2.812499999999999e+00	 6.687499999999999e+00	 9.990342496153856e+00
0	 2.812499999999999e+00	 6.749999999999999e+00	 9.989471876923069e+00
0	 2.812499999999999e+00	 6.812499999999998e+00	 9.988545480769234e+00
0	 2.812499999999999e+00	 6.875000000000000e+00	 9.987563307692293e+00
0	 2.874999999999999e+00	 6.250000000000000e+00	 1.000241372307691e+01
0	 2.874999999999999e+00	 6.312499999999999e+00	 1.000171943076923e+01
0	 2.874999999999999e+00	 6.374999999999997e+00	 1.000096759384615e+01
0	 2.874999999999999e+00	 6.437499999999999e+00	 1.000015821230769e+01
0	 2.874999999999999e+00	 6.500000000000000e+00	 9.999291286153845e+00
0	 2.874999999999999e+00	 6.562500000000001e+00	 9.998366815384625e+00
0	 2.874999999999999e+00	 6.624999999999998e+00	 9.997384799999995e+00
0	 2.874999999999999e+00	 6.687499999999999e+00	 9.996345240000013e+00
0	 2.874999999999999e+00	 6.749999999999999e+00	 9.995248135384593e+00
0	 2.874999999999999e+00	 6.812499999999998e+00	 9.994093486153851e+00
0	 2.874999999999999e+00	 6.875000000000000e+00	 9.992881292307690e+00
0	 2.937499999999999e+00	 6.250000000000000e+00	 1.000964415384616e+01
0	 2.937499999999999e+00	 6.312499999999999e+00	 1.000874979307693e+01
0	 2.937499999999999e+00	 6.375000000000001e+00	 1.000779612000000e+01
0	 2.937499999999999e+00	 6.437499999999999e+00	 1.000678313461539e+01
0	 2.937499999999998e+00	 6.500000000000000e+00	 1.000571083692309e+01
0	 2.937499999999999e+00	 6.562499999999999e+00	 1.000457922692308e+01
0	 2.937499999999999e+00	 6.624999999999999e+00	 1.000338830461539e+01
0	 2.937499999999998e+00	 6.687499999999999e+00	 1.000213807000001e+01
0	 2.937499999999999e+00	 6.749999999999998e+00	 1.000082852307693e+01
0	 2.937499999999999e+00	 6.812499999999999e+00	 9.999459663846153e+00
0	 2.937499999999999e+00	 6.875000000000000e+00	 9.998031492307705e+00
0	 2.999999999999998e+00	 6.250000000000000e+00	 1.001656636923077e+01
0	 2.999999999999999e+00	 6.312500000000001e+00	 1.001548598307692e+01
0	 2.999999999999998e+00	 6.374999999999999e+00	 1.001434451692309e+01
0	 2.999999999999999e+00	 6.437500000000000e+00	 1.001314197076923e+01
0	 2.999999999999999e+00	 6.499999999999999e+00	 1.001187834461539e+01
0	 2.999999999999999e+00	 6.562499999999999e+00	 1.001055363846155e+01
0	 2.999999999999998e+00	 6.624999999999998e+00	 1.000916785230770e+01
0	 2.999999999999998e+00	 6.687499999999998e+00	 1.000772098615386e+01
0	 2.999999999999998e+00	 6.749999999999998e+00	 1.000621304000002e+01
0	 2.999999999999998e+00	 6.812499999999998e+00	 1.000464401384615e+01
0	 2.999999999999998e+00	 6.875000000000000e+00	 1.000301390769231e+01
0	 3.062499999999998e+00	 6.250000000000000e+00	 1.002318036923077e+01
0	 3.062499999999998e+00	 6.312500000000000e+00	 1.002192800076923e+01
0	 3.062499999999998e+00	 6.375000000000000e+00	 1.002061278461539e+01
0	 3.062499999999998e+00	 6.437499999999999e+00	 1.001923472076922e+01
0	 3.062499999999998e+00	 6.499999999999998e+00	 1.001779380923077e+01
0	 3.062499999999998e+00	 6.562499999999998e+00	 1.001629005000000e+01
0	 3.062499999999998e+00	 6.624999999999998e+00	 1.001472344307693e+01
0	 3.062499999999998e+00	 6.687499999999998e+00	 1.001309398846155e+01
0	 3.062499999999998e+00	 6.749999999999999e+00	 1.001140168615385e+01
0	 3.062499999999998e+00	 6.812499999999997e+00	 1.000964653615386e+01
0	 3.062499999999998e+00	 6.875000000000000e+00	 1.000782853846155e+01
0	 3.125000000000000e+00	 6.250000000000000e+00	 1.002948615384615e+01
0	 3.125000000000000e+00	 6.312500000000000e+00	 1.002807584615384e+01
0	 3.125000000000000e+00	 6.375000000000000e+00	 1.002660092307693e+01
0	 3.125000000000000e+00	 6.437499999999999e+00	 1.002506138461538e+01
0	 3.125000000000000e+00	 6.499999999999999e+00	 1.002345723076924e+01
0	 3.125000000000000e+00	 6.562499999999998e+00	 1.002178846153847e+01
0	 3.125000000000000e+00	 6.624999999999998e+00	 1.002005507692307e+01
0	 3.125000000000000e+00	 6.687499999999998e+00	 1.001825707692307e+01
0	 3.125000000000000e+00	 6.749999999999998e+00	 1.001639446153847e+01
0	 3.125000000000000e+00	 6.812499999999998e+00	 1.001446723076924e+01
0	 3.125000000000000e+00	 6.875000000000000e+00	 1.001247538461539e+01
0	 2.500000000000000e+00	 6.875000000000000e+00	 9.958456615384613e+00
0	 2.500000000000000e+00	 6.937500000000000e+00	 9.959551892307692e+00
0	 2.500000000000000e+00	 7.000000000000000e+00	 9.960634892307677e+00
0	 2.500000000000000e+00	 7.062500000000000e+00	 9.961705615384613e+00
0	 2.500000000000000e+00	 7.125000000000000e+00	 9.962764061538454e+00
0	 2.500000000000000e+00	 7.187499999999998e+00	 9.963810230769219e+00
0	 2.500000000000000e+00	 7.249999999999998e+00	 9.964844123076919e+00
0	 2.500000000000000e+00	 7.312499999999998e+00	 9.965865738461536e+00
0	 2.500000000000000e+00	 7.374999999999998e+00	 9.966875076923063e+00
0	 2.500000000000000e+00	 7.437499999999998e+00	 9.967872138461539e+00
0	 2.500000000000000e+00	 7.500000000000000e+00	 9.968856923076915e+00
0	 2.562500000000000e+00	 6.875000000000001e+00	 9.964613523076917e+00
0	 2.562500000000000e+00	 6.937499999999999e+00	 9.965501746153819e+00
0	 2.562500000000000e+00	 6.999999999999999e+00	 9.966375532307691e+00
0	 2.562500000000000e+00	 7.062500000000000e+00	 9.967234881538452e+00
0	 2.562500000000000e+00	 7.124999999999998e+00	 9.968079793846155e+00
0	 2.562500000000000e+00	 7.187499999999999e+00	 9.968910269230772e+00
0	 2.562500000000000e+00	 7.250000000000000e+00	 9.969726307692307e+00
0	 2.562500000000000e+00	 7.312499999999999e+00	 9.970527909230768e+00
0	 2.562500000000000e+00	 7.374999999999999e+00	 9.971315073846142e+00
0	 2.562500000000000e+00	 7.437499999999996e+00	 9.972087801538445e+00
0	 2.562500000000000e+00	 7.500000000000000e+00	 9.972846092307694e+00
0	 2.625000000000000e+00	 6.875000000000000e+00	 9.970602646153832e+00
0	 2.624999999999999e+00	 6.937499999999999e+00	 9.971291289230770e+00
0	 2.625000000000000e+00	 7.000000000000001e+00	 9.971963335384618e+00
0	 2.625000000000000e+00	 7.062499999999999e+00	 9.972618784615381e+00
0	 2.625000000000000e+00	 7.124999999999998e+00	 9.973257636923062e+00
0	 2.625000000000000e+00	 7.187499999999999e+00	 9.973879892307686e+00
0	 2.625000000000000e+00	 7.249999999999996e+00	 9.974485550769220e+00
0	 2.625000000000000e+00	 7.312499999999998e+00	 9.975074612307690e+00
0	 2.625000000000000e+00	 7.374999999999997e+00	 9.975647076923053e+00
0	 2.625000000000000e+00	 7.437500000000000e+00	 9.976202944615402e+00
0	 2.625000000000000e+00	 7.499999999999999e+00	 9.976742215384604e+00
0	 2.687499999999999e+00	 6.874999999999999e+00	 9.976423984615399e+00
0	 2.687499999999999e+00	 6.937499999999999e+00	 9.976920521538467e+00
0	 2.687500000000000e+00	 7.000000000000000e+00	 9.977398301538470e+00
0	 2.687499999999999e+00	 7.062500000000000e+00	 9.977857324615364e+00
0	 2.687500000000000e+00	 7.124999999999999e+00	 9.978297590769236e+00
0	 2.687500000000000e+00	 7.187499999999999e+00	 9.978719099999996e+00
0	 2.687500000000000e+00	 7.250000000000000e+00	 9.979121852307689e+00
0	 2.687500000000000e+00	 7.312499999999999e+00	 9.979505847692302e+00
0	 2.687500000000000e+00	 7.374999999999997e+00	 9.979871086153828e+00
0	 2.687499999999999e+00	 7.437499999999998e+00	 9.980217567692286e+00
0	 2.687499999999999e+00	 7.500000000000000e+00	 9.980545292307704e+00
0	 2.749999999999999e+00	 6.875000000000001e+00	 9.982077538461542e+00
0	 2.750000000000000e+00	 6.937499999999999e+00	 9.982389443076908e+00
0	 2.750000000000000e+00	 7.000000000000001e+00	 9.982680430769239e+00
0	 2.749999999999999e+00	 7.062500000000000e+00	 9.982950501538467e+00
0	 2.750000000000000e+00	 7.124999999999999e+00	 9.983199655384615e+00
0	 2.749999999999999e+00	 7.187499999999999e+00	 9.983427892307674e+00
0	 2.749999999999999e+00	 7.249999999999997e+00	 9.983635212307696e+00
0	 2.749999999999999e+00	 7.312499999999998e+00	 9.983821615384601e+00
0	 2.750000000000000e+00	 7.374999999999999e+00	 9.983987101538466e+00
0	 2.749999999999999e+00	 7.437499999999998e+00	 9.984131670769219e+00
0	 2.749999999999999e+00	 7.500000000000000e+00	 9.984255323076910e+00
0	 2.812499999999999e+00	 6.875000000000000e+00	 9.987563307692293e+00
0	 2.812499999999999e+00	 6.937500000000000e+00	 9.987698053846149e+00
0	 2.812499999999999e+00	 7.000000000000000e+00	 9.987809723076939e+00
0	 2.812500000000000e+00	 7.062500000000000e+00	 9.987898315384600e+00
0	 2.812499999999999e+00	 7.124999999999997e+00	 9.987963830769237e+00
0	 2.812499999999999e+00	 7.187499999999999e+00	 9.988006269230770e+00
0	 2.812500000000000e+00	 7.249999999999999e+00	 9.988025630769222e+00
0	 2.812499999999999e+00	 7.312499999999998e+00	 9.988021915384607e+00
0	 2.812499999999999e+00	 7.374999999999997e+00	 9.987995123076914e+00
0	 2.812499999999999e+00	 7.437499999999998e+00	 9.987945253846139e+00
0	 2.812499999999999e+00	 7.500000000000000e+00	 9.987872307692321e+00
0	 2.874999999999999e+00	 6.875000000000000e+00	 9.992881292307690e+00
0	 2.874999999999999e+00	 6.937500000000000e+00	 9.992846353846168e+00
0	 2.874999999999999e+00	 6.999999999999998e+00	 9.992786178461539e+00
0	 2.874999999999999e+00	 7.062500000000000e+00	 9.992700766153847e+00
0	 2.874999999999999e+00	 7.125000000000000e+00	 9.992590116923079e+00
0	 2.874999999999999e+00	 7.187500000000000e+00	 9.992454230769226e+00
0	 2.874999999999999e+00	 7.249999999999998e+00	 9.992293107692308e+00
0	 2.874999999999999e+00	 7.312499999999999e+00	 9.992106747692324e+00
0	 2.874999999999999e+00	 7.374999999999999e+00	 9.991895150769219e+00
0	 2.874999999999999e+00	 7.437499999999998e+00	 9.991658316923060e+00
0	 2.874999999999999e+00	 7.499999999999999e+00	 9.991396246153840e+00
0	 2.937499999999999e+00	 6.875000000000000e+00	 9.998031492307705e+00
0	 2.937499999999999e+00	 6.937499999999999e+00	 9.997834343076928e+00
0	 2.937499999999999e+00	 7.000000000000001e+00	 9.997609796923072e+00
0	 2.937499999999999e+00	 7.062499999999999e+00	 9.997357853846147e+00
0	 2.937499999999998e+00	 7.124999999999999e+00	 9.997078513846144e+00
0	 2.937499999999999e+00	 7.187500000000000e+00	 9.996771776923060e+00
0	 2.937499999999999e+00	 7.249999999999999e+00	 9.996437643076934e+00
0	 2.937499999999998e+00	 7.312500000000000e+00	 9.996076112307701e+00
0	 2.937499999999999e+00	 7.374999999999998e+00	 9.995687184615377e+00
0	 2.937499999999999e+00	 7.437499999999999e+00	 9.995270859999980e+00
0	 2.937499999999999e+00	 7.499999999999998e+00	 9.994827138461542e+00
0	 2.999999999999998e+00	 6.875000000000000e+00	 1.000301390769231e+01
0	 2.999999999999999e+00	 6.937500000000001e+00	 1.000266202153847e+01
0	 2.999999999999998e+00	 6.999999999999998e+00	 1.000228057846154e+01
0	 2.999999999999999e+00	 7.062500000000000e+00	 1.000186957846154e+01
0	 2.999999999999999e+00	 7.125000000000000e+00	 1.000142902153847e+01
0	 2.999999999999999e+00	 7.187500000000000e+00	 1.000095890769231e+01
0	 2.999999999999998e+00	 7.250000000000000e+00	 1.000045923692308e+01
0	 2.999999999999998e+00	 7.312499999999999e+00	 9.999930009230756e+00
0	 2.999999999999998e+00	 7.374999999999998e+00	 9.999371224615368e+00
0	 2.999999999999998e+00	 7.437499999999998e+00	 9.998782883076922e+00
0	 2.999999999999998e+00	 7.500000000000000e+00	 9.998164984615389e+00
0	 3.062499999999998e+00	 6.875000000000000e+00	 1.000782853846155e+01
0	 3.062499999999998e+00	 6.937500000000001e+00	 1.000732938923076e+01
0	 3.062499999999998e+00	 7.000000000000001e+00	 1.000679852307693e+01
0	 3.062499999999998e+00	 7.062500000000000e+00	 1.000623594000000e+01
0	 3.062499999999998e+00	 7.124999999999999e+00	 1.000564164000000e+01
0	 3.062499999999998e+00	 7.187499999999998e+00	 1.000501562307692e+01
0	 3.062499999999998e+00	 7.249999999999999e+00	 1.000435788923077e+01
0	 3.062499999999998e+00	 7.312499999999998e+00	 1.000366843846153e+01
0	 3.062499999999998e+00	 7.374999999999998e+00	 1.000294727076923e+01
0	 3.062499999999998e+00	 7.437499999999998e+00	 1.000219438615384e+01
0	 3.062499999999998e+00	 7.500000000000000e+00	 1.000140978461538e+01
0	 3.125000000000000e+00	 6.875000000000000e+00	 1.001247538461539e+01
0	 3.125000000000000e+00	 6.937500000000000e+00	 1.001183644615385e+01
0	 3.125000000000000e+00	 7.000000000000000e+00	 1.001116363076923e+01
0	 3.125000000000000e+00	 7.062500000000000e+00	 1.001045693846155e+01
0	 3.125000000000000e+00	 7.125000000000000e+00	 1.000971636923077e+01
0	 3.125000000000000e+00	 7.187499999999998e+00	 1.000894192307692e+01
0	 3.125000000000000e+00	 7.249999999999998e+00	 1.000813360000001e+01
0	 3.125000000000000e+00	 7.312499999999998e+00	 1.000729139999999e+01
0	 3.125000000000000e+00	 7.374999999999998e+00	 1.000641532307692e+01
0	 3.125000000000000e+00	 7.437499999999998e+00	 1.000550536923077e+01
0	 3.125000000000000e+00	 7.500000000000000e+00	 1.000456153846153e+01
0	 2.500000000000000e+00	 7.500000000000000e+00	 9.968856923076915e+00
0	 2.500000000000000e+00	 7.562500000000000e+00	 9.969977936923069e+00
0	 2.500000000000000e+00	 7.625000000000000e+00	 9.971110147692311e+00
0	 2.500000000000000e+00	 7.687499999999999e+00	 9.972253555384604e+00
0	 2.500000000000000e+00	 7.750000000000000e+00	 9.973408160000002e+00
0	 2.500000000000000e+00	 7.812499999999999e+00	 9.974573961538447e+00
0	 2.500000000000000e+00	 7.874999999999998e+00	 9.975750959999989e+00
0	 2.500000000000000e+00	 7.937499999999997e+00	 9.976939155384608e+00
0	 2.500000000000000e+00	 7.999999999999998e+00	 9.978138547692309e+00
0	 2.500000000000000e+00	 8.062499999999996e+00	 9.979349136923066e+00
0	 2.500000000000000e+00	 8.125000000000000e+00	 9.980570923076920e+00
0	 2.562500000000000e+00	 7.500000000000000e+00	 9.972846092307694e+00
0	 2.562500000000000e+00	 7.562499999999999e+00	 9.973806733999984e+00
0	 2.562500000000000e+00	 7.624999999999998e+00	 9.974776012923073e+00
0	 2.562500000000000e+00	 7.687499999999998e+00	 9.975753929076916e+00
0	 2.562500000000000e+00	 7.750000000000000e+00	 9.976740482461528e+00
0	 2.562500000000000e+00	 7.812500000000000e+00	 9.977735673076920e+00
0	 2.562500000000000e+00	 7.874999999999999e+00	 9.978739500923069e+00
0	 2.562500000000000e+00	 7.937499999999998e+00	 9.979751965999984e+00
0	 2.562500000000000e+00	 8.000000000000000e+00	 9.980773068307697e+00
0	 2.562500000000000e+00	 8.062499999999995e+00	 9.981802807846158e+00
0	 2.562500000000000e+00	 8.125000000000000e+00	 9.982841184615369e+00
0	 2.625000000000000e+00	 7.499999999999999e+00	 9.976742215384604e+00
0	 2.624999999999999e+00	 7.562500000000001e+00	 9.977547783384608e+00
0	 2.625000000000000e+00	 7.625000000000001e+00	 9.978359428923074e+00
0	 2.625000000000000e+00	 7.687500000000001e+00	 9.979177151999968e+00
0	 2.625000000000000e+00	 7.749999999999998e+00	 9.980000952615381e+00
0	 2.625000000000000e+00	 7.812499999999998e+00	 9.980830830769220e+00
0	 2.625000000000000e+00	 7.874999999999996e+00	 9.981666786461517e+00
0	 2.625000000000000e+00	 7.937499999999998e+00	 9.982508819692304e+00
0	 2.625000000000000e+00	 7.999999999999999e+00	 9.983356930461532e+00
0	 2.625000000000000e+00	 8.062499999999998e+00	 9.984211118769206e+00
0	 2.625000000000000e+00	 8.125000000000000e+00	 9.985071384615368e+00
0	 2.687499999999999e+00	 7.500000000000000e+00	 9.980545292307704e+00
0	 2.687499999999999e+00	 7.562500000000001e+00	 9.981201085076908e+00
0	 2.687500000000000e+00	 7.625000000000001e+00	 9.981860395692305e+00
0	 2.687499999999999e+00	 7.687500000000000e+00	 9.982523224153828e+00
0	 2.687500000000000e+00	 7.749999999999999e+00	 9.983189570461526e+00
0	 2.687500000000000e+00	 7.812499999999999e+00	 9.983859434615384e+00
0	 2.687500000000000e+00	 7.874999999999998e+00	 9.984532816615374e+00
0	 2.687500000000000e+00	 7.937499999999998e+00	 9.985209716461537e+00
0	 2.687500000000000e+00	 7.999999999999998e+00	 9.985890134153868e+00
0	 2.687499999999999e+00	 8.062499999999996e+00	 9.986574069692304e+00
0	 2.687499999999999e+00	 8.125000000000000e+00	 9.987261523076910e+00
0	 2.749999999999999e+00	 7.500000000000000e+00	 9.984255323076910e+00
0	 2.750000000000000e+00	 7.562500000000000e+00	 9.984766639076923e+00
0	 2.750000000000000e+00	 7.625000000000000e+00	 9.985278913230770e+00
0	 2.749999999999999e+00	 7.687500000000000e+00	 9.985792145538456e+00
0	 2.750000000000000e+00	 7.749999999999998e+00	 9.986306335999990e+00
0	 2.749999999999999e+00	 7.812500000000000e+00	 9.986821484615374e+00
0	 2.749999999999999e+00	 7.874999999999998e+00	 9.987337591384618e+00
0	 2.749999999999999e+00	 7.937499999999999e+00	 9.987854656307675e+00
0	 2.750000000000000e+00	 7.999999999999997e+00	 9.988372679384600e+00
0	 2.749999999999999e+00	 8.062500000000000e+00	 9.988891660615392e+00
0	 2.749999999999999e+00	 8.125000000000000e+00	 9.989411599999990e+00
0	 2.812499999999999e+00	 7.500000000000000e+00	 9.987872307692321e+00
0	 2.812499999999999e+00	 7.562499999999999e+00	 9.988244445384593e+00
0	 2.812499999999999e+00	 7.624999999999999e+00	 9.988614981538442e+00
0	 2.812500000000000e+00	 7.687500000000000e+00	 9.988983916153833e+00
0	 2.812499999999999e+00	 7.749999999999996e+00	 9.989351249230763e+00
0	 2.812499999999999e+00	 7.812499999999999e+00	 9.989716980769224e+00
0	 2.812500000000000e+00	 7.875000000000000e+00	 9.990081110769221e+00
0	 2.812499999999999e+00	 7.937499999999999e+00	 9.990443639230747e+00
0	 2.812499999999999e+00	 7.999999999999998e+00	 9.990804566153827e+00
0	 2.812499999999999e+00	 8.062500000000000e+00	 9.991163891538461e+00
0	 2.812499999999999e+00	 8.125000000000000e+00	 9.991521615384599e+00
0	 2.874999999999999e+00	 7.499999999999999e+00	 9.991396246153840e+00
0	 2.874999999999999e+00	 7.562500000000000e+00	 9.991634503999975e+00
0	 2.874999999999999e+00	 7.624999999999998e+00	 9.991868600615371e+00
0	 2.874999999999999e+00	 7.687499999999998e+00	 9.992098536000002e+00
0	 2.874999999999999e+00	 7.750000000000001e+00	 9.992324310153830e+00
0	 2.874999999999999e+00	 7.812500000000000e+00	 9.992545923076902e+00
0	 2.874999999999999e+00	 7.874999999999998e+00	 9.992763374769220e+00
0	 2.874999999999999e+00	 7.937499999999999e+00	 9.992976665230742e+00
0	 2.874999999999999e+00	 8.000000000000000e+00	 9.993185794461535e+00
0	 2.874999999999999e+00	 8.062499999999998e+00	 9.993390762461509e+00
0	 2.874999999999999e+00	 8.125000000000000e+00	 9.993591569230752e+00
0	 2.937499999999999e+00	 7.499999999999998e+00	 9.994827138461542e+00
0	 2.937499999999999e+00	 7.562500000000000e+00	 9.994936814923078e+00
0	 2.937499999999999e+00	 7.624999999999999e+00	 9.995039770461549e+00
0	 2.937499999999999e+00	 7.687500000000000e+00	 9.995136005076905e+00
0	 2.937499999999998e+00	 7.749999999999998e+00	 9.995225518769224e+00
0	 2.937499999999999e+00	 7.812500000000000e+00	 9.995308311538457e+00
0	 2.937499999999999e+00	 7.874999999999999e+00	 9.995384383384614e+00
0	 2.937499999999998e+00	 7.937500000000000e+00	 9.995453734307667e+00
0	 2.937499999999999e+00	 7.999999999999998e+00	 9.995516364307687e+00
0	 2.937499999999999e+00	 8.062500000000000e+00	 9.995572273384610e+00
0	 2.937499999999999e+00	 8.125000000000000e+00	 9.995621461538452e+00
0	 2.999999999999998e+00	 7.500000000000000e+00	 9.998164984615389e+00
0	 2.999999999999999e+00	 7.562500000000001e+00	 9.998151378153826e+00
0	 2.999999999999998e+00	 7.625000000000000e+00	 9.998128491076914e+00
0	 2.999999999999999e+00	 7.687500000000001e+00	 9.998096323384623e+00
0	 2.999999999999999e+00	 7.749999999999999e+00	 9.998054875076923e+00
0	 2.999999999999999e+00	 7.812499999999998e+00	 9.998004146153852e+00
0	 2.999999999999998e+00	 7.875000000000000e+00	 9.997944136615374e+00
0	 2.999999999999998e+00	 7.937499999999998e+00	 9.997874846461528e+00
0	 2.999999999999998e+00	 7.999999999999998e+00	 9.997796275692300e+00
0	 2.999999999999998e+00	 8.062500000000000e+00	 9.997708424307689e+00
0	 2.999999999999998e+00	 8.125000000000000e+00	 9.997611292307681e+00
0	 3.062499999999998e+00	 7.500000000000000e+00	 1.000140978461538e+01
0	 3.062499999999998e+00	 7.562500000000001e+00	 1.000127819369229e+01
0	 3.062499999999998e+00	 7.624999999999999e+00	 1.000113476246152e+01
0	 3.062499999999998e+00	 7.687499999999999e+00	 1.000097949092308e+01
0	 3.062499999999998e+00	 7.750000000000000e+00	 1.000081237907691e+01
0	 3.062499999999998e+00	 7.812499999999999e+00	 1.000063342692307e+01
0	 3.062499999999998e+00	 7.874999999999998e+00	 1.000044263446152e+01
0	 3.062499999999998e+00	 7.937499999999998e+00	 1.000024000169230e+01
0	 3.062499999999998e+00	 7.999999999999998e+00	 1.000002552861537e+01
0	 3.062499999999998e+00	 8.062499999999998e+00	 9.999799215230777e+00
0	 3.062499999999998e+00	 8.125000000000000e+00	 9.999561061538451e+00
0	 3.125000000000000e+00	 7.500000000000000e+00	 1.000456153846153e+01
0	 3.125000000000000e+00	 7.562500000000000e+00	 1.000431726153845e+01
0	 3.125000000000000e+00	 7.625000000000000e+00	 1.000405858461539e+01
0	 3.125000000000000e+00	 7.687499999999999e+00	 1.000378550769230e+01
0	 3.125000000000000e+00	 7.750000000000000e+00	 1.000349803076923e+01
0	 3.125000000000000e+00	 7.812499999999999e+00	 1.000319615384615e+01
0	 3.125000000000000e+00	 7.874999999999998e+00	 1.000287987692307e+01
0	 3.125000000000000e+00	 7.937499999999997e+00	 1.000254920000000e+01
0	 3.125000000000000e+00	 7.999999999999998e+00	 1.000220412307693e+01
0	 3.125000000000000e+00	 8.062499999999996e+00	 1.000184464615384e+01
0	 3.125000000000000e+00	 8.125000000000000e+00	 1.000147076923077e+01
0	 2.500000000000000e+00	 8.125000000000000e+00	 9.980570923076920e+00
0	 2.500000000000000e+00	 8.187500000000000e+00	 9.981467955384616e+00
0	 2.500000000000000e+00	 8.250000000000002e+00	 9.982397821538438e+00
0	 2.500000000000000e+00	 8.312500000000000e+00	 9.983360521538462e+00
0	 2.500000000000000e+00	 8.374999999999998e+00	 9.984356055384611e+00
0	 2.500000000000000e+00	 8.437500000000000e+00	 9.985384423076921e+00
0	 2.500000000000000e+00	 8.500000000000000e+00	 9.986445624615385e+00
0	 2.500000000000000e+00	 8.562499999999998e+00	 9.987539659999991e+00
0	 2.500000000000000e+00	 8.625000000000000e+00	 9.988666529230764e+00
0	 2.500000000000000e+00	 8.687499999999998e+00	 9.989826232307689e+00
0	 2.500000000000000e+00	 8.750000000000000e+00	 9.991018769230774e+00
0	 2.562500000000000e+00	 8.125000000000000e+00	 9.982841184615369e+00
0	 2.562500000000000e+00	 8.187500000000002e+00	 9.983628529076920e+00
0	 2.562500000000000e+00	 8.250000000000000e+00	 9.984445248615396e+00
0	 2.562500000000000e+00	 8.312499999999998e+00	 9.985291343230760e+00
0	 2.562500000000000e+00	 8.374999999999998e+00	 9.986166812923077e+00
0	 2.562500000000000e+00	 8.437500000000000e+00	 9.987071657692296e+00
0	 2.562500000000000e+00	 8.500000000000002e+00	 9.988005877538459e+00
0	 2.562500000000000e+00	 8.562500000000000e+00	 9.988969472461534e+00
0	 2.562500000000000e+00	 8.625000000000002e+00	 9.989962442461538e+00
0	 2.562500000000000e+00	 8.687499999999996e+00	 9.990984787538453e+00
0	 2.562500000000000e+00	 8.750000000000002e+00	 9.992036507692315e+00
0	 2.625000000000000e+00	 8.125000000000000e+00	 9.985071384615368e+00
0	 2.624999999999999e+00	 8.187499999999998e+00	 9.985751862769215e+00
0	 2.625000000000000e+00	 8.250000000000000e+00	 9.986458257230765e+00
0	 2.625000000000000e+00	 8.312500000000000e+00	 9.987190567999985e+00
0	 2.625000000000000e+00	 8.374999999999998e+00	 9.987948795076912e+00
0	 2.625000000000000e+00	 8.437499999999998e+00	 9.988732938461537e+00
0	 2.625000000000000e+00	 8.499999999999996e+00	 9.989542998153848e+00
0	 2.625000000000000e+00	 8.562500000000002e+00	 9.990378974153849e+00
0	 2.625000000000000e+00	 8.624999999999998e+00	 9.991240866461551e+00
0	 2.625000000000000e+00	 8.687499999999998e+00	 9.992128675076938e+00
0	 2.625000000000000e+00	 8.750000000000000e+00	 9.993042399999986e+00
0	 2.687499999999999e+00	 8.125000000000000e+00	 9.987261523076910e+00
0	 2.687499999999999e+00	 8.187500000000000e+00	 9.987837956461519e+00
0	 2.687500000000000e+00	 8.250000000000002e+00	 9.988436847384619e+00
0	 2.687499999999999e+00	 8.312499999999998e+00	 9.989058195846152e+00
0	 2.687500000000000e+00	 8.374999999999998e+00	 9.989702001846142e+00
0	 2.687500000000000e+00	 8.437500000000000e+00	 9.990368265384600e+00
0	 2.687500000000000e+00	 8.499999999999998e+00	 9.991056986461537e+00
0	 2.687500000000000e+00	 8.562500000000000e+00	 9.991768165076913e+00
0	 2.687500000000000e+00	 8.625000000000000e+00	 9.992501801230752e+00
0	 2.687499999999999e+00	 8.687499999999996e+00	 9.993257894923087e+00
0	 2.687499999999999e+00	 8.750000000000000e+00	 9.994036446153839e+00
0	 2.749999999999999e+00	 8.125000000000000e+00	 9.989411599999990e+00
0	 2.750000000000000e+00	 8.187499999999998e+00	 9.989886810153815e+00
0	 2.750000000000000e+00	 8.250000000000002e+00	 9.990381019076912e+00
0	 2.749999999999999e+00	 8.312500000000000e+00	 9.990894226769214e+00
0	 2.750000000000000e+00	 8.374999999999998e+00	 9.991426433230757e+00
0	 2.749999999999999e+00	 8.437500000000000e+00	 9.991977638461522e+00
0	 2.749999999999999e+00	 8.499999999999998e+00	 9.992547842461525e+00
0	 2.749999999999999e+00	 8.562499999999998e+00	 9.993137045230780e+00
0	 2.750000000000000e+00	 8.624999999999998e+00	 9.993745246769230e+00
0	 2.749999999999999e+00	 8.687499999999996e+00	 9.994372447076914e+00
0	 2.749999999999999e+00	 8.749999999999998e+00	 9.995018646153852e+00
0	 2.812499999999999e+00	 8.125000000000000e+00	 9.991521615384599e+00
0	 2.812499999999999e+00	 8.187499999999998e+00	 9.991898423846141e+00
0	 2.812499999999999e+00	 8.249999999999998e+00	 9.992290772307689e+00
0	 2.812500000000000e+00	 8.312500000000000e+00	 9.992698660769236e+00
0	 2.812499999999999e+00	 8.374999999999998e+00	 9.993122089230765e+00
0	 2.812499999999999e+00	 8.437499999999998e+00	 9.993561057692292e+00
0	 2.812500000000000e+00	 8.500000000000002e+00	 9.994015566153839e+00
0	 2.812499999999999e+00	 8.562499999999998e+00	 9.994485614615382e+00
0	 2.812499999999999e+00	 8.624999999999998e+00	 9.994971203076936e+00
0	 2.812499999999999e+00	 8.687500000000000e+00	 9.995472331538442e+00
0	 2.812499999999999e+00	 8.750000000000000e+00	 9.995989000000012e+00
0	 2.874999999999999e+00	 8.125000000000000e+00	 9.993591569230752e+00
0	 2.874999999999999e+00	 8.187500000000000e+00	 9.993872797538451e+00
0	 2.874999999999999e+00	 8.249999999999998e+00	 9.994166107076909e+00
0	 2.874999999999999e+00	 8.312500000000000e+00	 9.994471497846146e+00
0	 2.874999999999999e+00	 8.375000000000002e+00	 9.994788969846148e+00
0	 2.874999999999999e+00	 8.437500000000002e+00	 9.995118523076915e+00
0	 2.874999999999999e+00	 8.499999999999998e+00	 9.995460157538442e+00
0	 2.874999999999999e+00	 8.562500000000000e+00	 9.995813873230777e+00
0	 2.874999999999999e+00	 8.624999999999998e+00	 9.996179670153833e+00
0	 2.874999999999999e+00	 8.687499999999998e+00	 9.996557548307678e+00
0	 2.874999999999999e+00	 8.750000000000000e+00	 9.996947507692306e+00
0	 2.937499999999999e+00	 8.125000000000000e+00	 9.995621461538452e+00
0	 2.937499999999999e+00	 8.187500000000000e+00	 9.995809931230754e+00
0	 2.937499999999999e+00	 8.250000000000000e+00	 9.996007023384600e+00
0	 2.937499999999999e+00	 8.312500000000000e+00	 9.996212737999990e+00
0	 2.937499999999998e+00	 8.374999999999998e+00	 9.996427075076918e+00
0	 2.937499999999999e+00	 8.437500000000000e+00	 9.996650034615371e+00
0	 2.937499999999999e+00	 8.500000000000000e+00	 9.996881616615354e+00
0	 2.937499999999998e+00	 8.562499999999998e+00	 9.997121821076924e+00
0	 2.937499999999999e+00	 8.624999999999998e+00	 9.997370647999990e+00
0	 2.937499999999999e+00	 8.687500000000000e+00	 9.997628097384615e+00
0	 2.937499999999999e+00	 8.750000000000000e+00	 9.997894169230761e+00
0	 2.999999999999998e+00	 8.125000000000000e+00	 9.997611292307681e+00
0	 2.999999999999999e+00	 8.187500000000002e+00	 9.997709824923060e+00
0	 2.999999999999998e+00	 8.250000000000000e+00	 9.997813521230773e+00
0	 2.999999999999999e+00	 8.312500000000000e+00	 9.997922381230776e+00
0	 2.999999999999999e+00	 8.375000000000002e+00	 9.998036404923075e+00
0	 2.999999999999999e+00	 8.437500000000000e+00	 9.998155592307686e+00
0	 2.999999999999998e+00	 8.500000000000000e+00	 9.998279943384619e+00
0	 2.999999999999998e+00	 8.562499999999996e+00	 9.998409458153851e+00
0	 2.999999999999998e+00	 8.624999999999998e+00	 9.998544136615370e+00
0	 2.999999999999998e+00	 8.687499999999998e+00	 9.998683978769222e+00
0	 2.999999999999998e+00	 8.750000000000002e+00	 9.998828984615379e+00
0	 3.062499999999998e+00	 8.125000000000000e+00	 9.999561061538451e+00
0	 3.062499999999998e+00	 8.187500000000000e+00	 9.999572478615391e+00
0	 3.062499999999998e+00	 8.250000000000002e+00	 9.999585600615388e+00
0	 3.062499999999998e+00	 8.312499999999998e+00	 9.999600427538462e+00
0	 3.062499999999998e+00	 8.374999999999998e+00	 9.999616959384618e+00
0	 3.062499999999998e+00	 8.437499999999998e+00	 9.999635196153843e+00
0	 3.062499999999998e+00	 8.499999999999998e+00	 9.999655137846148e+00
0	 3.062499999999998e+00	 8.562499999999998e+00	 9.999676784461526e+00
0	 3.062499999999998e+00	 8.624999999999998e+00	 9.999700135999992e+00
0	 3.062499999999998e+00	 8.687499999999998e+00	 9.999725192461543e+00
0	 3.062499999999998e+00	 8.750000000000000e+00	 9.999751953846157e+00
0	 3.125000000000000e+00	 8.125000000000000e+00	 1.000147076923077e+01
0	 3.125000000000000e+00	 8.187500000000000e+00	 1.000139789230769e+01
0	 3.125000000000000e+00	 8.250000000000002e+00	 1.000132326153844e+01
0	 3.125000000000000e+00	 8.312500000000000e+00	 1.000124687692307e+01
0	 3.125000000000000e+00	 8.374999999999998e+00	 1.000116873846153e+01
0	 3.125000000000000e+00	 8.437500000000000e+00	 1.000108884615384e+01
0	 3.125000000000000e+00	 8.500000000000000e+00	 1.000100719999999e+01
0	 3.125000000000000e+00	 8.562499999999998e+00	 1.000092380000000e+01
0	 3.125000000000000e+00	 8.625000000000000e+00	 1.000083864615383e+01
0	 3.125000000000000e+00	 8.687499999999998e+00	 1.000075173846152e+01
0	 3.125000000000000e+00	 8.750000000000000e+00	 1.000066307692306e+01
0	 2.500000000000000e+00	 8.750000000000000e+00	 9.991018769230774e+00
0	 2.500000000000000e+00	 8.812500000000000e+00	 9.991535549230754e+00
0	 2.500000000000000e+00	 8.875000000000002e+00	 9.992102443076934e+00
0	 2.500000000000000e+00	 8.937499999999998e+00	 9.992719450769222e+00
0	 2.500000000000000e+00	 9.000000000000000e+00	 9.993386572307694e+00
0	 2.500000000000000e+00	 9.062500000000000e+00	 9.994103807692316e+00
0	 2.500000000000000e+00	 9.124999999999998e+00	 9.994871156923068e+00
0	 2.500000000000000e+00	 9.187499999999998e+00	 9.995688620000003e+00
0	 2.500000000000000e+00	 9.249999999999998e+00	 9.996556196923066e+00
0	 2.500000000000000e+00	 9.312499999999998e+00	 9.997473887692294e+00
0	 2.500000000000000e+00	 9.375000000000000e+00	 9.998441692307697e+00
0	 2.562500000000000e+00	 8.750000000000002e+00	 9.992036507692315e+00
0	 2.562500000000000e+00	 8.812499999999998e+00	 9.992487232615391e+00
0	 2.562500000000000e+00	 8.875000000000000e+00	 9.992983413538449e+00
0	 2.562500000000000e+00	 8.937500000000000e+00	 9.993525050461548e+00
0	 2.562500000000000e+00	 9.000000000000000e+00	 9.994112143384605e+00
0	 2.562500000000000e+00	 9.062500000000000e+00	 9.994744692307698e+00
0	 2.562500000000000e+00	 9.125000000000000e+00	 9.995422697230776e+00
0	 2.562500000000000e+00	 9.187499999999998e+00	 9.996146158153868e+00
0	 2.562500000000000e+00	 9.250000000000000e+00	 9.996915075076943e+00
0	 2.562500000000000e+00	 9.312499999999996e+00	 9.997729448000001e+00
0	 2.562500000000000e+00	 9.375000000000000e+00	 9.998589276923079e+00
0	 2.625000000000000e+00	 8.750000000000000e+00	 9.993042399999986e+00
0	 2.624999999999999e+00	 8.812500000000000e+00	 9.993429008307691e+00
0	 2.625000000000000e+00	 8.875000000000004e+00	 9.993856414769240e+00
0	 2.625000000000000e+00	 8.937500000000000e+00	 9.994324619384615e+00
0	 2.625000000000000e+00	 8.999999999999998e+00	 9.994833622153852e+00
0	 2.625000000000000e+00	 9.062500000000000e+00	 9.995383423076934e+00
0	 2.625000000000000e+00	 9.124999999999998e+00	 9.995974022153847e+00
0	 2.625000000000000e+00	 9.187500000000002e+00	 9.996605419384618e+00
0	 2.625000000000000e+00	 9.249999999999996e+00	 9.997277614769235e+00
0	 2.625000000000000e+00	 9.312499999999998e+00	 9.997990608307678e+00
0	 2.625000000000000e+00	 9.375000000000000e+00	 9.998744399999996e+00
0	 2.687499999999999e+00	 8.750000000000000e+00	 9.994036446153839e+00
0	 2.687499999999999e+00	 8.812500000000000e+00	 9.994360876307685e+00
0	 2.687500000000000e+00	 8.875000000000002e+00	 9.994721446769237e+00
0	 2.687499999999999e+00	 8.937500000000000e+00	 9.995118157538464e+00
0	 2.687500000000000e+00	 9.000000000000000e+00	 9.995551008615386e+00
0	 2.687500000000000e+00	 9.062499999999998e+00	 9.996020000000005e+00
0	 2.687500000000000e+00	 9.124999999999998e+00	 9.996525131692321e+00
0	 2.687500000000000e+00	 9.187500000000002e+00	 9.997066403692312e+00
0	 2.687500000000000e+00	 9.249999999999998e+00	 9.997643815999986e+00
0	 2.687499999999999e+00	 9.312499999999998e+00	 9.998257368615395e+00
0	 2.687499999999999e+00	 9.375000000000002e+00	 9.998907061538457e+00
0	 2.749999999999999e+00	 8.749999999999998e+00	 9.995018646153852e+00
0	 2.750000000000000e+00	 8.812500000000000e+00	 9.995282836615385e+00
0	 2.750000000000000e+00	 8.875000000000002e+00	 9.995578509538475e+00
0	 2.749999999999999e+00	 8.937500000000000e+00	 9.995905664923068e+00
0	 2.750000000000000e+00	 8.999999999999998e+00	 9.996264302769234e+00
0	 2.749999999999999e+00	 9.062500000000000e+00	 9.996654423076940e+00
0	 2.749999999999999e+00	 9.124999999999998e+00	 9.997076025846155e+00
0	 2.749999999999999e+00	 9.187500000000000e+00	 9.997529111076918e+00
0	 2.750000000000000e+00	 9.249999999999998e+00	 9.998013678769244e+00
0	 2.749999999999999e+00	 9.312500000000000e+00	 9.998529728923096e+00
0	 2.749999999999999e+00	 9.375000000000002e+00	 9.999077261538478e+00
0	 2.812499999999999e+00	 8.750000000000000e+00	 9.995989000000012e+00
0	 2.812499999999999e+00	 8.812500000000000e+00	 9.996194889230804e+00
0	 2.812499999999999e+00	 8.875000000000000e+00	 9.996427603076917e+00
0	 2.812500000000000e+00	 8.937500000000000e+00	 9.996687141538473e+00
0	 2.812499999999999e+00	 8.999999999999998e+00	 9.996973504615383e+00
0	 2.812499999999999e+00	 9.062500000000000e+00	 9.997286692307700e+00
0	 2.812500000000000e+00	 9.125000000000002e+00	 9.997626704615371e+00
0	 2.812499999999999e+00	 9.187499999999998e+00	 9.997993541538456e+00
0	 2.812499999999999e+00	 9.249999999999998e+00	 9.998387203076936e+00
0	 2.812499999999999e+00	 9.312500000000000e+00	 9.998807689230782e+00
0	 2.812499999999999e+00	 9.375000000000002e+00	 9.999254999999984e+00
0	 2.874999999999999e+00	 8.750000000000000e+00	 9.996947507692306e+00
0	 2.874999999999999e+00	 8.812500000000000e+00	 9.997097034153834e+00
0	 2.874999999999999e+00	 8.874999999999996e+00	 9.997268727384601e+00
0	 2.874999999999999e+00	 8.937499999999998e+00	 9.997462587384605e+00
0	 2.874999999999999e+00	 9.000000000000004e+00	 9.997678614153841e+00
0	 2.874999999999999e+00	 9.062500000000002e+00	 9.997916807692299e+00
0	 2.874999999999999e+00	 9.124999999999998e+00	 9.998177167999987e+00
0	 2.874999999999999e+00	 9.187500000000000e+00	 9.998459695076924e+00
0	 2.874999999999999e+00	 9.249999999999998e+00	 9.998764388923099e+00
0	 2.874999999999999e+00	 9.312499999999998e+00	 9.999091249538477e+00
0	 2.874999999999999e+00	 9.375000000000000e+00	 9.999440276923082e+00
0	 2.937499999999999e+00	 8.750000000000000e+00	 9.997894169230761e+00
0	 2.937499999999999e+00	 8.812499999999998e+00	 9.997989271384625e+00
0	 2.937499999999999e+00	 8.875000000000002e+00	 9.998101882461551e+00
0	 2.937499999999999e+00	 8.937500000000002e+00	 9.998232002461547e+00
0	 2.937499999999998e+00	 8.999999999999998e+00	 9.998379631384619e+00
0	 2.937499999999999e+00	 9.062500000000000e+00	 9.998544769230779e+00
0	 2.937499999999999e+00	 9.125000000000000e+00	 9.998727416000005e+00
0	 2.937499999999998e+00	 9.187500000000000e+00	 9.998927571692315e+00
0	 2.937499999999999e+00	 9.249999999999998e+00	 9.999145236307681e+00
0	 2.937499999999999e+00	 9.312500000000000e+00	 9.999380409846179e+00
0	 2.937499999999999e+00	 9.375000000000000e+00	 9.999633092307713e+00
0	 2.999999999999998e+00	 8.750000000000002e+00	 9.998828984615379e+00
0	 2.999999999999999e+00	 8.812500000000002e+00	 9.998871600923088e+00
0	 2.999999999999998e+00	 8.875000000000000e+00	 9.998927068307699e+00
0	 2.999999999999999e+00	 8.937500000000002e+00	 9.998995386769247e+00
0	 2.999999999999999e+00	 8.999999999999998e+00	 9.999076556307688e+00
0	 2.999999999999999e+00	 9.062499999999998e+00	 9.999170576923090e+00
0	 2.999999999999998e+00	 9.125000000000000e+00	 9.999277448615377e+00
0	 2.999999999999998e+00	 9.187499999999998e+00	 9.999397171384611e+00
0	 2.999999999999998e+00	 9.250000000000000e+00	 9.999529745230797e+00
0	 2.999999999999998e+00	 9.312499999999998e+00	 9.999675170153864e+00
0	 2.999999999999998e+00	 9.375000000000000e+00	 9.999833446153851e+00
0	 3.062499999999998e+00	 8.750000000000000e+00	 9.999751953846157e+00
0	 3.062499999999998e+00	 8.812500000000000e+00	 9.999744022769214e+00
0	 3.062499999999998e+00	 8.875000000000002e+00	 9.999744284923064e+00
0	 3.062499999999998e+00	 8.937500000000000e+00	 9.999752740307693e+00
0	 3.062499999999998e+00	 9.000000000000000e+00	 9.999769388923077e+00
0	 3.062499999999998e+00	 9.062500000000000e+00	 9.999794230769236e+00
0	 3.062499999999998e+00	 9.125000000000000e+00	 9.999827265846157e+00
0	 3.062499999999998e+00	 9.187499999999998e+00	 9.999868494153850e+00
0	 3.062499999999998e+00	 9.249999999999998e+00	 9.999917915692336e+00
0	 3.062499999999998e+00	 9.312499999999996e+00	 9.999975530461555e+00
0	 3.062499999999998e+00	 9.375000000000000e+00	 1.000004133846158e+01
0	 3.125000000000000e+00	 8.750000000000000e+00	 1.000066307692306e+01
0	 3.125000000000000e+00	 8.812500000000000e+00	 1.000060653692306e+01
0	 3.125000000000000e+00	 8.875000000000002e+00	 1.000055353230771e+01
0	 3.125000000000000e+00	 8.937499999999998e+00	 1.000050406307692e+01
0	 3.125000000000000e+00	 9.000000000000000e+00	 1.000045812923077e+01
0	 3.125000000000000e+00	 9.062500000000000e+00	 1.000041573076925e+01
0	 3.125000000000000e+00	 9.124999999999998e+00	 1.000037686769231e+01
0	 3.125000000000000e+00	 9.187499999999998e+00	 1.000034154000000e+01
0	 3.125000000000000e+00	 9.249999999999998e+00	 1.000030974769231e+01
0	 3.125000000000000e+00	 9.312499999999998e+00	 1.000028149076923e+01
0	 3.125000000000000e+00	 9.375000000000000e+00	 1.000025676923079e+01
0	 2.500000000000000e+00	 9.375000000000000e+00	 9.998441692307697e+00
0	 2.500000000000000e+00	 9.437499999999998e+00	 9.998429955384623e+00
0	 2.500000000000000e+00	 9.500000000000000e+00	 9.998483175384626e+00
0	 2.500000000000000e+00	 9.562500000000000e+00	 9.998601352307679e+00
0	 2.500000000000000e+00	 9.625000000000000e+00	 9.998784486153838e+00
0	 2.500000000000000e+00	 9.687499999999998e+00	 9.999032576923081e+00
0	 2.500000000000000e+00	 9.749999999999998e+00	 9.999345624615376e+00
0	 2.500000000000000e+00	 9.812500000000000e+00	 9.999723629230761e+00
0	 2.500000000000000e+00	 9.875000000000000e+00	 1.000016659076924e+01
0	 2.500000000000000e+00	 9.937499999999998e+00	 1.000067450923076e+01
0	 2.500000000000000e+00	 1.000000000000000e+01	 1.000124738461536e+01
0	 2.562500000000000e+00	 9.375000000000000e+00	 9.998589276923079e+00
0	 2.562500000000000e+00	 9.437500000000002e+00	 9.998574818769242e+00
0	 2.562500000000000e+00	 9.500000000000000e+00	 9.998618444307695e+00
0	 2.562499999999999e+00	 9.562500000000000e+00	 9.998720153538454e+00
0	 2.562500000000000e+00	 9.625000000000000e+00	 9.998879946461562e+00
0	 2.562500000000000e+00	 9.687500000000000e+00	 9.999097823076907e+00
0	 2.562500000000000e+00	 9.749999999999998e+00	 9.999373783384593e+00
0	 2.562500000000000e+00	 9.812499999999998e+00	 9.999707827384576e+00
0	 2.562499999999999e+00	 9.874999999999998e+00	 1.000009995507691e+01
0	 2.562500000000000e+00	 9.937499999999996e+00	 1.000055016646152e+01
0	 2.562500000000000e+00	 1.000000000000000e+01	 1.000105846153844e+01
0	 2.625000000000000e+00	 9.375000000000000e+00	 9.998744399999996e+00
0	 2.624999999999999e+00	 9.437499999999998e+00	 9.998727629846138e+00
0	 2.624999999999999e+00	 9.500000000000000e+00	 9.998762070153845e+00
0	 2.625000000000000e+00	 9.562500000000000e+00	 9.998847720923091e+00
0	 2.625000000000000e+00	 9.625000000000002e+00	 9.998984582153835e+00
0	 2.625000000000000e+00	 9.687500000000002e+00	 9.999172653846157e+00
0	 2.625000000000000e+00	 9.750000000000000e+00	 9.999411936000003e+00
0	 2.625000000000000e+00	 9.812500000000002e+00	 9.999702428615388e+00
0	 2.625000000000000e+00	 9.874999999999996e+00	 1.000004413169229e+01
0	 2.625000000000000e+00	 9.937500000000000e+00	 1.000043704523077e+01
0	 2.625000000000000e+00	 1.000000000000000e+01	 1.000088116923075e+01
0	 2.687499999999999e+00	 9.375000000000002e+00	 9.998907061538457e+00
0	 2.687499999999999e+00	 9.437500000000000e+00	 9.998888388615390e+00
0	 2.687499999999999e+00	 9.499999999999996e+00	 9.998914052923082e+00
0	 2.687500000000000e+00	 9.562500000000000e+00	 9.998984054461554e+00
0	 2.687499999999999e+00	 9.624999999999998e+00	 9.999098393230753e+00
0	 2.687500000000000e+00	 9.687500000000000e+00	 9.999257069230783e+00
0	 2.687499999999999e+00	 9.749999999999996e+00	 9.999460082461523e+00
0	 2.687500000000000e+00	 9.812499999999996e+00	 9.999707432923067e+00
0	 2.687500000000000e+00	 9.875000000000000e+00	 9.999999120615318e+00
0	 2.687499999999999e+00	 9.937499999999998e+00	 1.000033514553844e+01
0	 2.687499999999999e+00	 1.000000000000000e+01	 1.000071550769233e+01
0	 2.749999999999999e+00	 9.375000000000002e+00	 9.999077261538478e+00
0	 2.750000000000000e+00	 9.437500000000000e+00	 9.999057095076926e+00
0	 2.750000000000000e+00	 9.500000000000004e+00	 9.999074392615388e+00
0	 2.749999999999999e+00	 9.562500000000000e+00	 9.999129154153856e+00
0	 2.750000000000000e+00	 9.624999999999998e+00	 9.999221379692282e+00
0	 2.750000000000000e+00	 9.687499999999998e+00	 9.999351069230759e+00
0	 2.750000000000000e+00	 9.750000000000000e+00	 9.999518222769245e+00
0	 2.750000000000000e+00	 9.812499999999996e+00	 9.999722840307651e+00
0	 2.750000000000000e+00	 9.874999999999998e+00	 9.999964921846114e+00
0	 2.749999999999999e+00	 9.937499999999996e+00	 1.000024446738466e+01
0	 2.750000000000000e+00	 1.000000000000000e+01	 1.000056147692301e+01
0	 2.812499999999999e+00	 9.375000000000002e+00	 9.999254999999984e+00
0	 2.812500000000000e+00	 9.437499999999998e+00	 9.999233749230774e+00
0	 2.812499999999999e+00	 9.499999999999998e+00	 9.999243089230754e+00
0	 2.812499999999999e+00	 9.562500000000000e+00	 9.999283020000009e+00
0	 2.812499999999999e+00	 9.624999999999998e+00	 9.999353541538440e+00
0	 2.812499999999999e+00	 9.687500000000000e+00	 9.999454653846152e+00
0	 2.812499999999999e+00	 9.750000000000000e+00	 9.999586356923063e+00
0	 2.812499999999999e+00	 9.812499999999998e+00	 9.999748650769231e+00
0	 2.812499999999999e+00	 9.874999999999998e+00	 9.999941535384602e+00
0	 2.812499999999999e+00	 9.937499999999998e+00	 1.000016501076923e+01
0	 2.812499999999999e+00	 1.000000000000000e+01	 1.000041907692307e+01
0	 2.874999999999999e+00	 9.375000000000000e+00	 9.999440276923082e+00
0	 2.874999999999999e+00	 9.437499999999998e+00	 9.999418351076949e+00
0	 2.874999999999999e+00	 9.500000000000000e+00	 9.999420142769239e+00
0	 2.874999999999999e+00	 9.562500000000000e+00	 9.999445651999984e+00
0	 2.874999999999999e+00	 9.625000000000000e+00	 9.999494878769235e+00
0	 2.874999999999999e+00	 9.687499999999998e+00	 9.999567823076942e+00
0	 2.874999999999999e+00	 9.749999999999998e+00	 9.999664484923063e+00
0	 2.874999999999998e+00	 9.812499999999996e+00	 9.999784864307648e+00
0	 2.874999999999999e+00	 9.874999999999998e+00	 9.999928961230724e+00
0	 2.874999999999999e+00	 9.937499999999998e+00	 1.000009677569230e+01
0	 2.874999999999999e+00	 9.999999999999998e+00	 1.000028830769228e+01
0	 2.937499999999999e+00	 9.375000000000000e+00	 9.999633092307713e+00
0	 2.937499999999998e+00	 9.437499999999998e+00	 9.999610900615396e+00
0	 2.937499999999999e+00	 9.499999999999998e+00	 9.999605553230777e+00
0	 2.937499999999999e+00	 9.562500000000002e+00	 9.999617050153857e+00
0	 2.937499999999999e+00	 9.624999999999998e+00	 9.999645391384604e+00
0	 2.937499999999998e+00	 9.687500000000000e+00	 9.999690576923040e+00
0	 2.937499999999999e+00	 9.750000000000000e+00	 9.999752606769221e+00
0	 2.937499999999999e+00	 9.812500000000000e+00	 9.999831480923030e+00
0	 2.937499999999998e+00	 9.874999999999998e+00	 9.999927199384553e+00
0	 2.937499999999998e+00	 9.937499999999998e+00	 1.000003976215383e+01
0	 2.937499999999999e+00	 1.000000000000000e+01	 1.000016916923079e+01
0	 2.999999999999998e+00	 9.375000000000000e+00	 9.999833446153851e+00
0	 2.999999999999998e+00	 9.437500000000002e+00	 9.999811397846166e+00
0	 2.999999999999998e+00	 9.500000000000000e+00	 9.999799320615377e+00
0	 2.999999999999998e+00	 9.562500000000002e+00	 9.999797214461543e+00
0	 2.999999999999998e+00	 9.624999999999998e+00	 9.999805079384604e+00
0	 2.999999999999998e+00	 9.687499999999998e+00	 9.999822915384600e+00
0	 2.999999999999998e+00	 9.750000000000000e+00	 9.999850722461517e+00
0	 2.999999999999998e+00	 9.812499999999998e+00	 9.999888500615370e+00
0	 2.999999999999998e+00	 9.874999999999998e+00	 9.999936249846105e+00
0	 2.999999999999998e+00	 9.937499999999998e+00	 9.999993970153792e+00
0	 2.999999999999998e+00	 1.000000000000000e+01	 1.000006166153843e+01
0	 3.062499999999998e+00	 9.375000000000000e+00	 1.000004133846158e+01
0	 3.062499999999998e+00	 9.437500000000000e+00	 1.000001984276924e+01
0	 3.062499999999997e+00	 9.499999999999998e+00	 1.000000144492311e+01
0	 3.062499999999999e+00	 9.562500000000000e+00	 9.999986144923092e+00
0	 3.062499999999998e+00	 9.624999999999998e+00	 9.999973942769238e+00
0	 3.062499999999998e+00	 9.687499999999996e+00	 9.999964838461539e+00
0	 3.062499999999998e+00	 9.749999999999998e+00	 9.999958831999995e+00
0	 3.062499999999998e+00	 9.812499999999998e+00	 9.999955923384624e+00
0	 3.062499999999998e+00	 9.874999999999996e+00	 9.999956112615376e+00
0	 3.062499999999998e+00	 9.937499999999998e+00	 9.999959399692255e+00
0	 3.062499999999998e+00	 1.000000000000000e+01	 9.999965784615345e+00
0	 3.125000000000000e+00	 9.375000000000000e+00	 1.000025676923079e+01
0	 3.125000000000000e+00	 9.437499999999998e+00	 1.000023623538463e+01
0	 3.125000000000000e+00	 9.500000000000000e+00	 1.000021192615386e+01
0	 3.125000000000000e+00	 9.562500000000000e+00	 1.000018384153847e+01
0	 3.125000000000000e+00	 9.625000000000000e+00	 1.000015198153845e+01
0	 3.125000000000000e+00	 9.687499999999998e+00	 1.000011634615385e+01
0	 3.125000000000000e+00	 9.749999999999998e+00	 1.000007693538461e+01
0	 3.125000000000000e+00	 9.812500000000000e+00	 1.000003374923078e+01
0	 3.125000000000000e+00	 9.875000000000000e+00	 9.999986787692306e+00
0	 3.125000000000000e+00	 9.937499999999998e+00	 9.999936050769252e+00
0	 3.125000000000000e+00	 1.000000000000000e+01	 9.999881538461517e+00
0	 3.125000000000000e+00	 0.000000000000000e+00	 1.036804923076923e+01
0	 3.125000000000000e+00	 6.250000000000000e-02	 1.044416990769231e+01
0	 3.125000000000000e+00	 1.250000000000000e-01	 1.051584144615385e+01
0	 3.125000000000000e+00	 1.875000000000000e-01	 1.058306384615384e+01
0	 3.125000000000001e+00	 2.500000000000000e-01	 1.064583710769230e+01
0	 3.125000000000000e+00	 3.125000000000000e-01	 1.070416123076923e+01
0	 3.125000000000000e+00	 3.750000000000000e-01	 1.075803621538461e+01
0	 3.125000000000000e+00	 4.374999999999999e-01	 1.080746206153846e+01
0	 3.125000000000000e+00	 5.000000000000000e-01	 1.085243876923077e+01
0	 3.125000000000000e+00	 5.624999999999999e-01	 1.089296633846153e+01
0	 3.125000000000000e+00	 6.250000000000000e-01	 1.092904476923077e+01
0	 3.187500000000000e+00	 0.000000000000000e+00	 1.045362170153846e+01
0	 3.187499999999999e+00	 6.249999999999999e-02	 1.051070516215384e+01
0	 3.187500000000000e+00	 1.250000000000000e-01	 1.056361161661538e+01
0	 3.187500000000000e+00	 1.875000000000000e-01	 1.061234106492308e+01
0	 3.187500000000000e+00	 2.500000000000000e-01	 1.065689350707692e+01
0	 3.187500000000000e+00	 3.125000000000001e-01	 1.069726894307692e+01
0	 3.187500000000000e+00	 3.749999999999999e-01	 1.073346737292307e+01
0	 3.187500000000000e+00	 4.374999999999999e-01	 1.076548879661538e+01
0	 3.187500000000000e+00	 5.000000000000000e-01	 1.079333321415385e+01
0	 3.187500000000000e+00	 5.625000000000000e-01	 1.081700062553846e+01
0	 3.187500000000000e+00	 6.250000000000000e-01	 1.083649103076923e+01
0	 3.250000000000000e+00	 0.000000000000000e+00	 1.052523720615385e+01
0	 3.250000000000000e+00	 6.250000000000000e-02	 1.056580821476923e+01
0	 3.250000000000000e+00	 1.250000000000000e-01	 1.060247434953846e+01
0	 3.250000000000000e+00	 1.875000000000000e-01	 1.063523561046153e+01
0	 3.250000000000000e+00	 2.500000000000001e-01	 1.066409199753846e+01
0	 3.250000000000000e+00	 3.125000000000000e-01	 1.068904351076923e+01
0	 3.250000000000000e+00	 3.749999999999999e-01	 1.071009015015385e+01
0	 3.250000000000000e+00	 4.375000000000000e-01	 1.072723191569231e+01
0	 3.250000000000000e+00	 4.999999999999999e-01	 1.074046880738462e+01
0	 3.250000000000000e+00	 5.625000000000000e-01	 1.074980082523077e+01
0	 3.250000000000000e+00	 6.249999999999999e-01	 1.075522796923077e+01
0	 3.312499999999999e+00	 0.000000000000000e+00	 1.058289574461538e+01
0	 3.312500000000000e+00	 6.250000000000000e-02	 1.060947906553846e+01
0	 3.312499999999999e+00	 1.250000000000000e-01	 1.063242964492308e+01
0	 3.312500000000000e+00	 1.875000000000001e-01	 1.065174748276923e+01
0	 3.312500000000000e+00	 2.500000000000001e-01	 1.066743257907693e+01
0	 3.312499999999999e+00	 3.125000000000000e-01	 1.067948493384615e+01
0	 3.312499999999999e+00	 3.749999999999999e-01	 1.068790454707692e+01
0	 3.312499999999999e+00	 4.374999999999999e-01	 1.069269141876923e+01
0	 3.312499999999998e+00	 4.999999999999999e-01	 1.069384554892308e+01
0	 3.312500000000000e+00	 5.625000000000001e-01	 1.069136693753846e+01
0	 3.312500000000000e+00	 6.249999999999999e-01	 1.068525558461538e+01
0	 3.374999999999999e+00	 0.000000000000000e+00	 1.062659731692308e+01
0	 3.374999999999999e+00	 6.250000000000000e-02	 1.064171771446154e+01
0	 3.374999999999999e+00	 1.250000000000000e-01	 1.065347750276923e+01
0	 3.374999999999999e+00	 1.875000000000000e-01	 1.066187668184615e+01
0	 3.374999999999999e+00	 2.500000000000000e-01	 1.066691525169230e+01
0	 3.375000000000000e+00	 3.125000000000000e-01	 1.066859321230769e+01
0	 3.374999999999999e+00	 3.750000000000000e-01	 1.066691056369230e+01
0	 3.375000000000000e+00	 4.375000000000000e-01	 1.066186730584615e+01
0	 3.374999999999999e+00	 4.999999999999999e-01	 1.065346343876923e+01
0	 3.375000000000000e+00	 5.625000000000000e-01	 1.064169896246154e+01
0	 3.374999999999999e+00	 6.250000000000001e-01	 1.062657387692307e+01
0	 3.437499999999999e+00	 0.000000000000000e+00	 1.065634192307692e+01
0	 3.437499999999998e+00	 6.249999999999998e-02	 1.066252416153846e+01
0	 3.437500000000000e+00	 1.250000000000000e-01	 1.066561792307692e+01
0	 3.437499999999998e+00	 1.875000000000000e-01	 1.066562320769231e+01
0	 3.437499999999998e+00	 2.499999999999999e-01	 1.066254001538461e+01
0	 3.437499999999999e+00	 3.125000000000000e-01	 1.065636834615385e+01
0	 3.437499999999999e+00	 3.750000000000000e-01	 1.064710820000000e+01
0	 3.437499999999999e+00	 4.375000000000000e-01	 1.063475957692308e+01
0	 3.437499999999998e+00	 4.999999999999999e-01	 1.061932247692307e+01
0	 3.437500000000000e+00	 5.625000000000001e-01	 1.060079690000000e+01
0	 3.437499999999999e+00	 6.250000000000000e-01	 1.057918284615385e+01
0	 3.499999999999999e+00	 0.000000000000000e+00	 1.067212956307693e+01
0	 3.499999999999999e+00	 6.249999999999999e-02	 1.067189840676923e+01
0	 3.499999999999999e+00	 1.250000000000000e-01	 1.066885090584615e+01
0	 3.499999999999999e+00	 1.875000000000001e-01	 1.066298706030769e+01
0	 3.499999999999999e+00	 2.500000000000001e-01	 1.065430687015385e+01
0	 3.500000000000000e+00	 3.125000000000001e-01	 1.064281033538461e+01
0	 3.499999999999998e+00	 3.749999999999999e-01	 1.062849745600000e+01
0	 3.500000000000000e+00	 4.375000000000000e-01	 1.061136823200000e+01
0	 3.499999999999998e+00	 4.999999999999998e-01	 1.059142266338462e+01
0	 3.499999999999999e+00	 5.624999999999999e-01	 1.056866075015385e+01
0	 3.499999999999999e+00	 6.250000000000001e-01	 1.054308249230769e+01
0	 3.562499999999999e+00	 0.000000000000000e+00	 1.067396023692308e+01
0	 3.562499999999999e+00	 6.250000000000000e-02	 1.066984045015385e+01
0	 3.562499999999998e+00	 1.250000000000000e-01	 1.066317645107693e+01
0	 3.562499999999999e+00	 1.875000000000000e-01	 1.065396823969231e+01
0	 3.562499999999998e+00	 2.500000000000000e-01	 1.064221581600000e+01
0	 3.562499999999999e+00	 3.125000000000001e-01	 1.062791918000000e+01
0	 3.562499999999999e+00	 3.750000000000000e-01	 1.061107833169231e+01
0	 3.562499999999999e+00	 4.375000000000000e-01	 1.059169327107692e+01
0	 3.562499999999998e+00	 4.999999999999999e-01	 1.056976399815384e+01
0	 3.562500000000000e+00	 5.625000000000000e-01	 1.054529051292307e+01
0	 3.562499999999998e+00	 6.249999999999999e-01	 1.051827281538461e+01
0	 3.624999999999998e+00	 0.000000000000000e+00	 1.066183394461539e+01
0	 3.624999999999998e+00	 6.249999999999999e-02	 1.065635029169231e+01
0	 3.624999999999999e+00	 1.250000000000000e-01	 1.064859455876923e+01
0	 3.625000000000000e+00	 1.875000000000001e-01	 1.063856674584615e+01
0	 3.624999999999997e+00	 2.500000000000000e-01	 1.062626685292308e+01
0	 3.624999999999997e+00	 3.124999999999999e-01	 1.061169488000000e+01
0	 3.624999999999998e+00	 3.749999999999999e-01	 1.059485082707693e+01
0	 3.624999999999998e+00	 4.375000000000000e-01	 1.057573469415385e+01
0	 3.624999999999998e+00	 4.999999999999999e-01	 1.055434648123077e+01
0	 3.624999999999998e+00	 5.625000000000000e-01	 1.053068618830769e+01
0	 3.624999999999999e+00	 6.250000000000000e-01	 1.050475381538461e+01
0	 3.687499999999998e+00	 0.000000000000000e+00	 1.063575068615385e+01
0	 3.687499999999998e+00	 6.250000000000000e-02	 1.063142793138461e+01
0	 3.687499999999998e+00	 1.250000000000000e-01	 1.062510522892307e+01
0	 3.687499999999998e+00	 1.875000000000000e-01	 1.061678257876923e+01
0	 3.687499999999997e+00	 2.499999999999999e-01	 1.060645998092308e+01
0	 3.687499999999998e+00	 3.125000000000000e-01	 1.059413743538461e+01
0	 3.687499999999998e+00	 3.750000000000000e-01	 1.057981494215385e+01
0	 3.687499999999998e+00	 4.375000000000000e-01	 1.056349250123076e+01
0	 3.687499999999997e+00	 4.999999999999999e-01	 1.054517011261539e+01
0	 3.687499999999998e+00	 5.625000000000000e-01	 1.052484777630769e+01
0	 3.687499999999998e+00	 6.250000000000000e-01	 1.050252549230769e+01
0	 3.750000000000000e+00	 0.000000000000000e+00	 1.059571046153846e+01
0	 3.750000000000000e+00	 6.250000000000000e-02	 1.059507336923077e+01
0	 3.750000000000000e+00	 1.250000000000000e-01	 1.059270846153846e+01
0	 3.750000000000000e+00	 1.875000000000000e-01	 1.058861573846153e+01
0	 3.750000000000000e+00	 2.500000000000000e-01	 1.058279520000000e+01
0	 3.750000000000000e+00	 3.125000000000000e-01	 1.057524684615384e+01
0	 3.750000000000000e+00	 3.750000000000000e-01	 1.056597067692307e+01
0	 3.750000000000000e+00	 4.374999999999999e-01	 1.055496669230769e+01
0	 3.750000000000000e+00	 5.000000000000000e-01	 1.054223489230769e+01
0	 3.750000000000000e+00	 5.624999999999999e-01	 1.052777527692308e+01
0	 3.750000000000000e+00	 6.250000000000000e-01	 1.051158784615384e+01
0	 3.125000000000000e+00	 6.250000000000000e-01	 1.092904476923077e+01
0	 3.125000000000000e+00	 6.875000000000000e-01	 1.092572080000000e+01
0	 3.125000000000000e+00	 7.500000000000002e-01	 1.092336956923076e+01
0	 3.125000000000000e+00	 8.125000000000002e-01	 1.092199107692307e+01
0	 3.125000000000000e+00	 8.750000000000002e-01	 1.092158532307692e+01
0	 3.125000000000000e+00	 9.375000000000002e-01	 1.092215230769231e+01
0	 3.125000000000000e+00	 1.000000000000000e+00	 1.092369203076923e+01
0	 3.125000000000000e+00	 1.062500000000000e+00	 1.092620449230769e+01
0	 3.125000000000000e+00	 1.125000000000001e+00	 1.092968969230769e+01
0	 3.125000000000000e+00	 1.187500000000000e+00	 1.093414763076923e+01
0	 3.125000000000000e+00	 1.250000000000000e+00	 1.093957830769231e+01
0	 3.187500000000000e+00	 6.250000000000000e-01	 1.083649103076923e+01
0	 3.187500000000000e+00	 6.875000000000001e-01	 1.084102171800000e+01
0	 3.187500000000000e+00	 7.500000000000001e-01	 1.084632670984615e+01
0	 3.187500000000000e+00	 8.125000000000002e-01	 1.085240600630769e+01
0	 3.187500000000001e+00	 8.750000000000003e-01	 1.085925960738462e+01
0	 3.187500000000000e+00	 9.375000000000003e-01	 1.086688751307692e+01
0	 3.187500000000000e+00	 1.000000000000000e+00	 1.087528972338462e+01
0	 3.187500000000000e+00	 1.062500000000000e+00	 1.088446623830770e+01
0	 3.187500000000000e+00	 1.125000000000000e+00	 1.089441705784616e+01
0	 3.187499999999999e+00	 1.187500000000000e+00	 1.090514218200000e+01
0	 3.187500000000000e+00	 1.250000000000000e+00	 1.091664161076923e+01
0	 3.250000000000000e+00	 6.249999999999999e-01	 1.075522796923077e+01
0	 3.250000000000000e+00	 6.875000000000001e-01	 1.076643600123077e+01
0	 3.250000000000000e+00	 7.500000000000002e-01	 1.077821990400000e+01
0	 3.250000000000000e+00	 8.125000000000001e-01	 1.079057967753846e+01
0	 3.250000000000000e+00	 8.750000000000003e-01	 1.080351532184615e+01
0	 3.250000000000000e+00	 9.375000000000003e-01	 1.081702683692308e+01
0	 3.250000000000000e+00	 1.000000000000000e+00	 1.083111422276923e+01
0	 3.250000000000000e+00	 1.062500000000000e+00	 1.084577747938462e+01
0	 3.249999999999999e+00	 1.125000000000000e+00	 1.086101660676923e+01
0	 3.250000000000000e+00	 1.187500000000001e+00	 1.087683160492308e+01
0	 3.250000000000000e+00	 1.250000000000000e+00	 1.089322247384615e+01
0	 3.312500000000000e+00	 6.249999999999999e-01	 1.068525558461538e+01
0	 3.312499999999999e+00	 6.875000000000000e-01	 1.070196364969230e+01
0	 3.312500000000000e+00	 7.500000000000000e-01	 1.071904915169230e+01
0	 3.312499999999999e+00	 8.125000000000002e-01	 1.073651209061538e+01
0	 3.312500000000000e+00	 8.750000000000002e-01	 1.075435246646154e+01
0	 3.312499999999999e+00	 9.375000000000002e-01	 1.077257027923077e+01
0	 3.312499999999999e+00	 1.000000000000000e+00	 1.079116552892308e+01
0	 3.312499999999999e+00	 1.062500000000000e+00	 1.081013821553846e+01
0	 3.312499999999999e+00	 1.125000000000000e+00	 1.082948833907692e+01
0	 3.312500000000000e+00	 1.187500000000000e+00	 1.084921589953846e+01
0	 3.312500000000000e+00	 1.250000000000000e+00	 1.086932089692307e+01
0	 3.374999999999999e+00	 6.250000000000001e-01	 1.062657387692307e+01
0	 3.374999999999999e+00	 6.875000000000000e-01	 1.064760466338461e+01
0	 3.374999999999999e+00	 7.500000000000000e-01	 1.066881445292308e+01
0	 3.374999999999999e+00	 8.125000000000001e-01	 1.069020324553846e+01
0	 3.374999999999999e+00	 8.750000000000003e-01	 1.071177104123077e+01
0	 3.374999999999998e+00	 9.375000000000000e-01	 1.073351783999999e+01
0	 3.374999999999999e+00	 1.000000000000000e+00	 1.075544364184615e+01
0	 3.374999999999999e+00	 1.062500000000000e+00	 1.077754844676923e+01
0	 3.375000000000000e+00	 1.125000000000000e+00	 1.079983225476923e+01
0	 3.374999999999999e+00	 1.187500000000000e+00	 1.082229506584616e+01
0	 3.374999999999999e+00	 1.250000000000000e+00	 1.084493688000000e+01
0	 3.437499999999999e+00	 6.250000000000000e-01	 1.057918284615385e+01
0	 3.437499999999998e+00	 6.875000000000000e-01	 1.060335904230769e+01
0	 3.437499999999999e+00	 7.500000000000001e-01	 1.062751580769230e+01
0	 3.437500000000000e+00	 8.125000000000002e-01	 1.065165314230769e+01
0	 3.437499999999999e+00	 8.750000000000003e-01	 1.067577104615384e+01
0	 3.437499999999999e+00	 9.375000000000002e-01	 1.069986951923077e+01
0	 3.437499999999998e+00	 1.000000000000000e+00	 1.072394856153846e+01
0	 3.437499999999999e+00	 1.062500000000000e+00	 1.074800817307693e+01
0	 3.437499999999999e+00	 1.125000000000000e+00	 1.077204835384615e+01
0	 3.437499999999999e+00	 1.187500000000001e+00	 1.079606910384615e+01
0	 3.437499999999999e+00	 1.250000000000000e+00	 1.082007042307693e+01
0	 3.499999999999999e+00	 6.250000000000001e-01	 1.054308249230769e+01
0	 3.499999999999998e+00	 6.874999999999999e-01	 1.056922678646154e+01
0	 3.499999999999999e+00	 7.500000000000003e-01	 1.059515321599999e+01
0	 3.499999999999998e+00	 8.125000000000000e-01	 1.062086178092307e+01
0	 3.499999999999997e+00	 8.750000000000001e-01	 1.064635248123077e+01
0	 3.499999999999998e+00	 9.375000000000003e-01	 1.067162531692307e+01
0	 3.499999999999998e+00	 1.000000000000000e+00	 1.069668028800000e+01
0	 3.499999999999998e+00	 1.062500000000000e+00	 1.072151739446154e+01
0	 3.499999999999998e+00	 1.125000000000000e+00	 1.074613663630769e+01
0	 3.499999999999998e+00	 1.187500000000000e+00	 1.077053801353846e+01
0	 3.499999999999999e+00	 1.250000000000000e+00	 1.079472152615384e+01
0	 3.562499999999998e+00	 6.249999999999999e-01	 1.051827281538461e+01
0	 3.562499999999999e+00	 6.875000000000000e-01	 1.054520789584615e+01
0	 3.562500000000000e+00	 7.500000000000002e-01	 1.057172667784615e+01
0	 3.562499999999998e+00	 8.125000000000000e-01	 1.059782916138461e+01
0	 3.562499999999999e+00	 8.750000000000002e-01	 1.062351534646153e+01
0	 3.562499999999999e+00	 9.375000000000004e-01	 1.064878523307693e+01
0	 3.562499999999999e+00	 1.000000000000000e+00	 1.067363882123077e+01
0	 3.562499999999999e+00	 1.062500000000001e+00	 1.069807611092308e+01
0	 3.562499999999998e+00	 1.125000000000000e+00	 1.072209710215385e+01
0	 3.562499999999999e+00	 1.187500000000000e+00	 1.074570179492308e+01
0	 3.562499999999998e+00	 1.250000000000000e+00	 1.076889018923077e+01
0	 3.624999999999999e+00	 6.250000000000000e-01	 1.050475381538461e+01
0	 3.624999999999998e+00	 6.875000000000000e-01	 1.053130237046153e+01
0	 3.624999999999997e+00	 7.500000000000000e-01	 1.055723619323077e+01
0	 3.624999999999997e+00	 8.125000000000001e-01	 1.058255528369231e+01
0	 3.624999999999999e+00	 8.750000000000003e-01	 1.060725964184615e+01
0	 3.624999999999998e+00	 9.375000000000002e-01	 1.063134926769231e+01
0	 3.625000000000000e+00	 1.000000000000001e+00	 1.065482416123076e+01
0	 3.624999999999998e+00	 1.062500000000000e+00	 1.067768432246153e+01
0	 3.624999999999998e+00	 1.125000000000000e+00	 1.069992975138462e+01
0	 3.624999999999998e+00	 1.187500000000000e+00	 1.072156044800000e+01
0	 3.624999999999999e+00	 1.250000000000000e+00	 1.074257641230770e+01
0	 3.687499999999998e+00	 6.250000000000000e-01	 1.050252549230769e+01
0	 3.687499999999999e+00	 6.875000000000002e-01	 1.052751021030769e+01
0	 3.687499999999998e+00	 7.500000000000001e-01	 1.055168176215384e+01
0	 3.687499999999998e+00	 8.125000000000001e-01	 1.057504014784615e+01
0	 3.687499999999998e+00	 8.750000000000002e-01	 1.059758536738461e+01
0	 3.687499999999998e+00	 9.375000000000002e-01	 1.061931742076923e+01
0	 3.687499999999998e+00	 1.000000000000000e+00	 1.064023630799999e+01
0	 3.687499999999998e+00	 1.062500000000000e+00	 1.066034202907692e+01
0	 3.687499999999998e+00	 1.125000000000000e+00	 1.067963458399999e+01
0	 3.687499999999998e+00	 1.187500000000000e+00	 1.069811397276923e+01
0	 3.687499999999998e+00	 1.250000000000000e+00	 1.071578019538462e+01
0	 3.750000000000000e+00	 6.250000000000000e-01	 1.051158784615384e+01
0	 3.750000000000000e+00	 6.875000000000000e-01	 1.053383141538461e+01
0	 3.750000000000000e+00	 7.500000000000002e-01	 1.055506338461538e+01
0	 3.750000000000000e+00	 8.125000000000002e-01	 1.057528375384615e+01
0	 3.750000000000000e+00	 8.750000000000002e-01	 1.059449252307692e+01
0	 3.750000000000000e+00	 9.375000000000002e-01	 1.061268969230769e+01
0	 3.750000000000000e+00	 1.000000000000000e+00	 1.062987526153846e+01
0	 3.750000000000000e+00	 1.062500000000000e+00	 1.064604923076923e+01
0	 3.750000000000000e+00	 1.125000000000001e+00	 1.066121160000000e+01
0	 3.750000000000000e+00	 1.187500000000000e+00	 1.067536236923076e+01
0	 3.750000000000000e+00	 1.250000000000000e+00	 1.068850153846154e+01
0	 3.125000000000000e+00	 1.250000000000000e+00	 1.093957830769231e+01
0	 3.125000000000000e+00	 1.312500000000000e+00	 1.094301693846153e+01
0	 3.125000000000000e+00	 1.375000000000000e+00	 1.094642695384615e+01
0	 3.125000000000000e+00	 1.437500000000000e+00	 1.094980835384616e+01
0	 3.125000000000000e+00	 1.500000000000000e+00	 1.095316113846154e+01
0	 3.125000000000000e+00	 1.562500000000000e+00	 1.095648530769231e+01
0	 3.125000000000000e+00	 1.625000000000000e+00	 1.095978086153846e+01
0	 3.125000000000000e+00	 1.687500000000000e+00	 1.096304780000000e+01
0	 3.125000000000000e+00	 1.750000000000001e+00	 1.096628612307692e+01
0	 3.125000000000000e+00	 1.812500000000000e+00	 1.096949583076923e+01
0	 3.125000000000000e+00	 1.875000000000000e+00	 1.097267692307692e+01
0	 3.187500000000000e+00	 1.250000000000000e+00	 1.091664161076923e+01
0	 3.187500000000000e+00	 1.312500000000000e+00	 1.091808042969231e+01
0	 3.187500000000000e+00	 1.375000000000000e+00	 1.091963777169230e+01
0	 3.187500000000000e+00	 1.437500000000000e+00	 1.092131363676923e+01
0	 3.187500000000001e+00	 1.500000000000000e+00	 1.092310802492307e+01
0	 3.187500000000000e+00	 1.562500000000000e+00	 1.092502093615384e+01
0	 3.187500000000000e+00	 1.625000000000000e+00	 1.092705237046154e+01
0	 3.187500000000000e+00	 1.687500000000000e+00	 1.092920232784614e+01
0	 3.187500000000000e+00	 1.750000000000000e+00	 1.093147080830769e+01
0	 3.187499999999999e+00	 1.812500000000000e+00	 1.093385781184616e+01
0	 3.187500000000000e+00	 1.875000000000000e+00	 1.093636333846154e+01
0	 3.250000000000000e+00	 1.250000000000000e+00	 1.089322247384615e+01
0	 3.250000000000000e+00	 1.312500000000000e+00	 1.089292190030770e+01
0	 3.250000000000000e+00	 1.375000000000000e+00	 1.089288698830770e+01
0	 3.250000000000000e+00	 1.437500000000000e+00	 1.089311773784616e+01
0	 3.250000000000000e+00	 1.500000000000000e+00	 1.089361414892307e+01
0	 3.250000000000000e+00	 1.562500000000000e+00	 1.089437622153846e+01
0	 3.250000000000000e+00	 1.625000000000000e+00	 1.089540395569231e+01
0	 3.250000000000000e+00	 1.687500000000000e+00	 1.089669735138462e+01
0	 3.249999999999999e+00	 1.750000000000001e+00	 1.089825640861538e+01
0	 3.250000000000000e+00	 1.812500000000001e+00	 1.090008112738462e+01
0	 3.250000000000000e+00	 1.875000000000000e+00	 1.090217150769231e+01
0	 3.312500000000000e+00	 1.250000000000000e+00	 1.086932089692307e+01
0	 3.312499999999999e+00	 1.312500000000000e+00	 1.086754135030770e+01
0	 3.312500000000000e+00	 1.375000000000000e+00	 1.086617460369230e+01
0	 3.312499999999999e+00	 1.437500000000000e+00	 1.086522065707693e+01
0	 3.312500000000000e+00	 1.500000000000000e+00	 1.086467951046154e+01
0	 3.312499999999999e+00	 1.562500000000000e+00	 1.086455116384616e+01
0	 3.312499999999999e+00	 1.625000000000000e+00	 1.086483561723077e+01
0	 3.312499999999999e+00	 1.687500000000000e+00	 1.086553287061538e+01
0	 3.312499999999999e+00	 1.750000000000000e+00	 1.086664292399999e+01
0	 3.312500000000000e+00	 1.812500000000000e+00	 1.086816577738461e+01
0	 3.312500000000000e+00	 1.875000000000000e+00	 1.087010143076923e+01
0	 3.374999999999999e+00	 1.250000000000000e+00	 1.084493688000000e+01
0	 3.374999999999999e+00	 1.312500000000000e+00	 1.084193877969231e+01
0	 3.374999999999999e+00	 1.375000000000000e+00	 1.083950061784616e+01
0	 3.374999999999999e+00	 1.437500000000000e+00	 1.083762239446154e+01
0	 3.374999999999999e+00	 1.500000000000000e+00	 1.083630410953846e+01
0	 3.374999999999998e+00	 1.562500000000000e+00	 1.083554576307692e+01
0	 3.374999999999999e+00	 1.625000000000001e+00	 1.083534735507692e+01
0	 3.374999999999999e+00	 1.687500000000000e+00	 1.083570888553846e+01
0	 3.375000000000000e+00	 1.750000000000001e+00	 1.083663035446154e+01
0	 3.374999999999999e+00	 1.812500000000000e+00	 1.083811176184615e+01
0	 3.374999999999999e+00	 1.875000000000000e+00	 1.084015310769230e+01
0	 3.437499999999999e+00	 1.250000000000000e+00	 1.082007042307693e+01
0	 3.437499999999998e+00	 1.312500000000000e+00	 1.081611418846154e+01
0	 3.437499999999999e+00	 1.375000000000000e+00	 1.081286503076923e+01
0	 3.437500000000000e+00	 1.437500000000000e+00	 1.081032295000000e+01
0	 3.437499999999999e+00	 1.500000000000000e+00	 1.080848794615385e+01
0	 3.437499999999999e+00	 1.562500000000000e+00	 1.080736001923077e+01
0	 3.437499999999998e+00	 1.625000000000000e+00	 1.080693916923077e+01
0	 3.437499999999999e+00	 1.687500000000000e+00	 1.080722539615385e+01
0	 3.437499999999999e+00	 1.750000000000000e+00	 1.080821870000000e+01
0	 3.437499999999999e+00	 1.812500000000000e+00	 1.080991908076923e+01
0	 3.437499999999999e+00	 1.875000000000000e+00	 1.081232653846154e+01
0	 3.499999999999999e+00	 1.250000000000000e+00	 1.079472152615384e+01
0	 3.499999999999998e+00	 1.312500000000000e+00	 1.079006757661539e+01
0	 3.499999999999999e+00	 1.375000000000000e+00	 1.078626784246154e+01
0	 3.499999999999998e+00	 1.437500000000000e+00	 1.078332232369230e+01
0	 3.499999999999997e+00	 1.500000000000000e+00	 1.078123102030769e+01
0	 3.499999999999998e+00	 1.562500000000000e+00	 1.077999393230769e+01
0	 3.499999999999998e+00	 1.625000000000000e+00	 1.077961105969231e+01
0	 3.499999999999998e+00	 1.687500000000000e+00	 1.078008240246154e+01
0	 3.499999999999998e+00	 1.750000000000000e+00	 1.078140796061538e+01
0	 3.499999999999998e+00	 1.812500000000000e+00	 1.078358773415384e+01
0	 3.499999999999999e+00	 1.875000000000000e+00	 1.078662172307692e+01
0	 3.562499999999998e+00	 1.250000000000000e+00	 1.076889018923077e+01
0	 3.562499999999999e+00	 1.312500000000000e+00	 1.076379894415385e+01
0	 3.562500000000000e+00	 1.375000000000000e+00	 1.075970905292308e+01
0	 3.562499999999998e+00	 1.437500000000000e+00	 1.075662051553846e+01
0	 3.562499999999999e+00	 1.500000000000001e+00	 1.075453333199999e+01
0	 3.562499999999999e+00	 1.562500000000000e+00	 1.075344750230770e+01
0	 3.562499999999999e+00	 1.625000000000000e+00	 1.075336302646154e+01
0	 3.562499999999999e+00	 1.687500000000000e+00	 1.075427990446154e+01
0	 3.562499999999998e+00	 1.750000000000000e+00	 1.075619813630770e+01
0	 3.562499999999999e+00	 1.812500000000000e+00	 1.075911772200000e+01
0	 3.562499999999998e+00	 1.875000000000000e+00	 1.076303866153846e+01
0	 3.624999999999999e+00	 1.250000000000000e+00	 1.074257641230770e+01
0	 3.624999999999998e+00	 1.312500000000000e+00	 1.073730829107692e+01
0	 3.624999999999997e+00	 1.375000000000000e+00	 1.073318866215384e+01
0	 3.624999999999997e+00	 1.437500000000000e+00	 1.073021752553846e+01
0	 3.624999999999999e+00	 1.500000000000000e+00	 1.072839488123077e+01
0	 3.624999999999998e+00	 1.562500000000000e+00	 1.072772072923076e+01
0	 3.625000000000000e+00	 1.625000000000001e+00	 1.072819506953846e+01
0	 3.624999999999998e+00	 1.687500000000000e+00	 1.072981790215384e+01
0	 3.624999999999998e+00	 1.750000000000000e+00	 1.073258922707692e+01
0	 3.624999999999998e+00	 1.812500000000001e+00	 1.073650904430769e+01
0	 3.624999999999999e+00	 1.875000000000000e+00	 1.074157735384615e+01
0	 3.687499999999998e+00	 1.250000000000000e+00	 1.071578019538462e+01
0	 3.687499999999999e+00	 1.312500000000000e+00	 1.071059561738461e+01
0	 3.687499999999998e+00	 1.375000000000000e+00	 1.070670667015385e+01
0	 3.687499999999998e+00	 1.437500000000000e+00	 1.070411335369231e+01
0	 3.687499999999998e+00	 1.500000000000000e+00	 1.070281566800000e+01
0	 3.687499999999998e+00	 1.562500000000000e+00	 1.070281361307692e+01
0	 3.687499999999998e+00	 1.625000000000000e+00	 1.070410718892308e+01
0	 3.687499999999998e+00	 1.687500000000000e+00	 1.070669639553846e+01
0	 3.687499999999998e+00	 1.750000000000000e+00	 1.071058123292308e+01
0	 3.687499999999998e+00	 1.812500000000000e+00	 1.071576170107692e+01
0	 3.687499999999998e+00	 1.875000000000000e+00	 1.072223780000000e+01
0	 3.750000000000000e+00	 1.250000000000000e+00	 1.068850153846154e+01
0	 3.750000000000000e+00	 1.312500000000000e+00	 1.068366092307692e+01
0	 3.750000000000000e+00	 1.375000000000000e+00	 1.068026307692307e+01
0	 3.750000000000000e+00	 1.437500000000000e+00	 1.067830800000000e+01
0	 3.750000000000000e+00	 1.500000000000000e+00	 1.067779569230769e+01
0	 3.750000000000000e+00	 1.562500000000000e+00	 1.067872615384615e+01
0	 3.750000000000000e+00	 1.625000000000000e+00	 1.068109938461538e+01
0	 3.750000000000000e+00	 1.687500000000000e+00	 1.068491538461539e+01
0	 3.750000000000000e+00	 1.750000000000001e+00	 1.069017415384615e+01
0	 3.750000000000000e+00	 1.812500000000000e+00	 1.069687569230769e+01
0	 3.750000000000000e+00	 1.875000000000000e+00	 1.070502000000000e+01
0	 3.125000000000000e+00	 1.875000000000000e+00	 1.097267692307692e+01
0	 3.125000000000000e+00	 1.937500000000000e+00	 1.094013206153846e+01
0	 3.125000000000000e+00	 2.000000000000000e+00	 1.091010609230770e+01
0	 3.125000000000000e+00	 2.062500000000000e+00	 1.088259901538461e+01
0	 3.125000000000000e+00	 2.125000000000000e+00	 1.085761083076924e+01
0	 3.125000000000000e+00	 2.187500000000000e+00	 1.083514153846154e+01
0	 3.125000000000000e+00	 2.250000000000000e+00	 1.081519113846153e+01
0	 3.125000000000000e+00	 2.312500000000000e+00	 1.079775963076923e+01
0	 3.125000000000000e+00	 2.375000000000001e+00	 1.078284701538463e+01
0	 3.125000000000000e+00	 2.437500000000001e+00	 1.077045329230769e+01
0	 3.125000000000000e+00	 2.500000000000000e+00	 1.076057846153846e+01
0	 3.187500000000000e+00	 1.875000000000000e+00	 1.093636333846154e+01
0	 3.187500000000000e+00	 1.937500000000000e+00	 1.090781821230769e+01
0	 3.187500000000000e+00	 2.000000000000000e+00	 1.088159166153846e+01
0	 3.187500000000000e+00	 2.062500000000000e+00	 1.085768368615384e+01
0	 3.187500000000001e+00	 2.125000000000001e+00	 1.083609428615384e+01
0	 3.187500000000000e+00	 2.187500000000000e+00	 1.081682346153846e+01
0	 3.187500000000000e+00	 2.250000000000000e+00	 1.079987121230769e+01
0	 3.187500000000000e+00	 2.312500000000000e+00	 1.078523753846153e+01
0	 3.187500000000000e+00	 2.375000000000000e+00	 1.077292244000000e+01
0	 3.187499999999999e+00	 2.437500000000000e+00	 1.076292591692307e+01
0	 3.187500000000000e+00	 2.500000000000000e+00	 1.075524796923077e+01
0	 3.250000000000000e+00	 1.875000000000000e+00	 1.090217150769231e+01
0	 3.250000000000000e+00	 1.937500000000000e+00	 1.087731624307693e+01
0	 3.250000000000000e+00	 2.000000000000000e+00	 1.085457923692308e+01
0	 3.250000000000000e+00	 2.062500000000000e+00	 1.083396048923077e+01
0	 3.250000000000000e+00	 2.125000000000000e+00	 1.081546000000000e+01
0	 3.250000000000000e+00	 2.187500000000001e+00	 1.079907776923076e+01
0	 3.250000000000000e+00	 2.250000000000000e+00	 1.078481379692307e+01
0	 3.250000000000000e+00	 2.312500000000000e+00	 1.077266808307692e+01
0	 3.249999999999999e+00	 2.375000000000000e+00	 1.076264062769231e+01
0	 3.250000000000000e+00	 2.437500000000000e+00	 1.075473143076923e+01
0	 3.250000000000000e+00	 2.500000000000000e+00	 1.074894049230770e+01
0	 3.312500000000000e+00	 1.875000000000000e+00	 1.087010143076923e+01
0	 3.312499999999999e+00	 1.937500000000000e+00	 1.084862615384615e+01
0	 3.312500000000000e+00	 2.000000000000000e+00	 1.082906881846153e+01
0	 3.312499999999999e+00	 2.062500000000000e+00	 1.081142942461538e+01
0	 3.312500000000000e+00	 2.125000000000001e+00	 1.079570797230769e+01
0	 3.312499999999999e+00	 2.187500000000000e+00	 1.078190446153846e+01
0	 3.312499999999999e+00	 2.250000000000000e+00	 1.077001889230769e+01
0	 3.312499999999999e+00	 2.312500000000000e+00	 1.076005126461538e+01
0	 3.312499999999999e+00	 2.375000000000000e+00	 1.075200157846153e+01
0	 3.312500000000000e+00	 2.437500000000000e+00	 1.074586983384615e+01
0	 3.312500000000000e+00	 2.500000000000000e+00	 1.074165603076924e+01
0	 3.374999999999999e+00	 1.875000000000000e+00	 1.084015310769230e+01
0	 3.374999999999999e+00	 1.937500000000000e+00	 1.082174794461538e+01
0	 3.374999999999999e+00	 2.000000000000000e+00	 1.080506040615385e+01
0	 3.374999999999999e+00	 2.062500000000000e+00	 1.079009049230770e+01
0	 3.374999999999999e+00	 2.125000000000000e+00	 1.077683820307693e+01
0	 3.374999999999998e+00	 2.187500000000000e+00	 1.076530353846154e+01
0	 3.374999999999999e+00	 2.250000000000000e+00	 1.075548649846154e+01
0	 3.374999999999999e+00	 2.312500000000000e+00	 1.074738708307692e+01
0	 3.375000000000000e+00	 2.375000000000000e+00	 1.074100529230769e+01
0	 3.374999999999999e+00	 2.437500000000000e+00	 1.073634112615384e+01
0	 3.374999999999999e+00	 2.500000000000000e+00	 1.073339458461539e+01
0	 3.437499999999999e+00	 1.875000000000000e+00	 1.081232653846154e+01
0	 3.437499999999998e+00	 1.937500000000000e+00	 1.079668161538462e+01
0	 3.437499999999999e+00	 2.000000000000000e+00	 1.078255400000000e+01
0	 3.437500000000000e+00	 2.062500000000000e+00	 1.076994369230769e+01
0	 3.437499999999999e+00	 2.125000000000000e+00	 1.075885069230769e+01
0	 3.437499999999999e+00	 2.187500000000000e+00	 1.074927500000000e+01
0	 3.437499999999998e+00	 2.250000000000000e+00	 1.074121661538462e+01
0	 3.437499999999999e+00	 2.312500000000001e+00	 1.073467553846154e+01
0	 3.437499999999999e+00	 2.375000000000000e+00	 1.072965176923076e+01
0	 3.437499999999999e+00	 2.437500000000000e+00	 1.072614530769231e+01
0	 3.437499999999999e+00	 2.500000000000000e+00	 1.072415615384616e+01
0	 3.499999999999999e+00	 1.875000000000000e+00	 1.078662172307692e+01
0	 3.499999999999998e+00	 1.937500000000000e+00	 1.077342716615385e+01
0	 3.499999999999999e+00	 2.000000000000000e+00	 1.076154960000000e+01
0	 3.499999999999998e+00	 2.062500000000000e+00	 1.075098902461538e+01
0	 3.499999999999997e+00	 2.125000000000000e+00	 1.074174544000000e+01
0	 3.499999999999998e+00	 2.187500000000000e+00	 1.073381884615385e+01
0	 3.499999999999998e+00	 2.250000000000000e+00	 1.072720924307692e+01
0	 3.499999999999998e+00	 2.312500000000000e+00	 1.072191663076923e+01
0	 3.499999999999998e+00	 2.375000000000001e+00	 1.071794100923076e+01
0	 3.499999999999998e+00	 2.437500000000000e+00	 1.071528237846154e+01
0	 3.499999999999999e+00	 2.500000000000000e+00	 1.071394073846154e+01
0	 3.562499999999998e+00	 1.875000000000000e+00	 1.076303866153846e+01
0	 3.562499999999999e+00	 1.937500000000000e+00	 1.075198459692308e+01
0	 3.562500000000000e+00	 2.000000000000001e+00	 1.074204720615385e+01
0	 3.562499999999998e+00	 2.062500000000000e+00	 1.073322648923077e+01
0	 3.562499999999999e+00	 2.125000000000001e+00	 1.072552244615384e+01
0	 3.562499999999999e+00	 2.187500000000000e+00	 1.071893507692308e+01
0	 3.562499999999999e+00	 2.250000000000000e+00	 1.071346438153846e+01
0	 3.562499999999999e+00	 2.312500000000001e+00	 1.070911036000000e+01
0	 3.562499999999998e+00	 2.375000000000000e+00	 1.070587301230769e+01
0	 3.562499999999999e+00	 2.437500000000000e+00	 1.070375233846154e+01
0	 3.562499999999998e+00	 2.500000000000000e+00	 1.070274833846154e+01
0	 3.624999999999999e+00	 1.875000000000000e+00	 1.074157735384615e+01
0	 3.624999999999998e+00	 1.937500000000000e+00	 1.073235390769231e+01
0	 3.624999999999997e+00	 2.000000000000000e+00	 1.072404681846154e+01
0	 3.624999999999997e+00	 2.062500000000000e+00	 1.071665608615385e+01
0	 3.624999999999999e+00	 2.125000000000000e+00	 1.071018171076923e+01
0	 3.624999999999998e+00	 2.187500000000000e+00	 1.070462369230769e+01
0	 3.625000000000000e+00	 2.250000000000000e+00	 1.069998203076923e+01
0	 3.624999999999998e+00	 2.312500000000000e+00	 1.069625672615385e+01
0	 3.624999999999998e+00	 2.375000000000000e+00	 1.069344777846154e+01
0	 3.624999999999998e+00	 2.437500000000001e+00	 1.069155518769230e+01
0	 3.624999999999999e+00	 2.500000000000000e+00	 1.069057895384615e+01
0	 3.687499999999998e+00	 1.875000000000000e+00	 1.072223780000000e+01
0	 3.687499999999999e+00	 1.937500000000000e+00	 1.071453509846154e+01
0	 3.687499999999998e+00	 2.000000000000000e+00	 1.070754843692307e+01
0	 3.687499999999998e+00	 2.062500000000000e+00	 1.070127781538461e+01
0	 3.687499999999998e+00	 2.125000000000000e+00	 1.069572323384615e+01
0	 3.687499999999998e+00	 2.187500000000000e+00	 1.069088469230769e+01
0	 3.687499999999998e+00	 2.250000000000000e+00	 1.068676219076922e+01
0	 3.687499999999998e+00	 2.312500000000000e+00	 1.068335572923077e+01
0	 3.687499999999998e+00	 2.375000000000000e+00	 1.068066530769231e+01
0	 3.687499999999998e+00	 2.437500000000000e+00	 1.067869092615384e+01
0	 3.687499999999998e+00	 2.500000000000000e+00	 1.067743258461539e+01
0	 3.750000000000000e+00	 1.875000000000000e+00	 1.070502000000000e+01
0	 3.750000000000000e+00	 1.937500000000000e+00	 1.069852816923077e+01
0	 3.750000000000000e+00	 2.000000000000000e+00	 1.069255206153846e+01
0	 3.750000000000000e+00	 2.062500000000000e+00	 1.068709167692307e+01
0	 3.750000000000000e+00	 2.125000000000000e+00	 1.068214701538462e+01
0	 3.750000000000000e+00	 2.187500000000000e+00	 1.067771807692308e+01
0	 3.750000000000000e+00	 2.250000000000000e+00	 1.067380486153846e+01
0	 3.750000000000000e+00	 2.312500000000000e+00	 1.067040736923077e+01
0	 3.750000000000000e+00	 2.375000000000001e+00	 1.066752560000001e+01
0	 3.750000000000000e+00	 2.437500000000001e+00	 1.066515955384615e+01
0	 3.750000000000000e+00	 2.500000000000000e+00	 1.066330923076923e+01
0	 3.125000000000000e+00	 2.500000000000000e+00	 1.076057846153846e+01
0	 3.125000000000000e+00	 2.562500000000000e+00	 1.073737427692308e+01
0	 3.125000000000000e+00	 2.625000000000000e+00	 1.071446787692308e+01
0	 3.125000000000000e+00	 2.687499999999999e+00	 1.069185926153846e+01
0	 3.125000000000000e+00	 2.750000000000000e+00	 1.066954843076923e+01
0	 3.125000000000000e+00	 2.812499999999999e+00	 1.064753538461539e+01
0	 3.125000000000000e+00	 2.874999999999999e+00	 1.062582012307692e+01
0	 3.125000000000000e+00	 2.937499999999998e+00	 1.060440264615385e+01
0	 3.125000000000000e+00	 2.999999999999998e+00	 1.058328295384616e+01
0	 3.125000000000000e+00	 3.062499999999998e+00	 1.056246104615386e+01
0	 3.125000000000000e+00	 3.125000000000000e+00	 1.054193692307693e+01
0	 3.187500000000000e+00	 2.500000000000000e+00	 1.075524796923077e+01
0	 3.187500000000000e+00	 2.562500000000000e+00	 1.073253982307692e+01
0	 3.187500000000000e+00	 2.624999999999999e+00	 1.071018369230769e+01
0	 3.187500000000000e+00	 2.687499999999999e+00	 1.068817957692307e+01
0	 3.187500000000000e+00	 2.750000000000000e+00	 1.066652747692308e+01
0	 3.187500000000000e+00	 2.812499999999999e+00	 1.064522739230770e+01
0	 3.187500000000001e+00	 2.875000000000000e+00	 1.062427932307693e+01
0	 3.187500000000000e+00	 2.937499999999999e+00	 1.060368326923077e+01
0	 3.187500000000001e+00	 2.999999999999999e+00	 1.058343923076923e+01
0	 3.187499999999999e+00	 3.062499999999997e+00	 1.056354720769231e+01
0	 3.187500000000000e+00	 3.125000000000000e+00	 1.054400720000000e+01
0	 3.250000000000000e+00	 2.500000000000000e+00	 1.074894049230770e+01
0	 3.250000000000000e+00	 2.562500000000000e+00	 1.072676026153846e+01
0	 3.250000000000000e+00	 2.625000000000000e+00	 1.070498627692308e+01
0	 3.250000000000000e+00	 2.687500000000000e+00	 1.068361853846154e+01
0	 3.249999999999999e+00	 2.749999999999999e+00	 1.066265704615385e+01
0	 3.250000000000000e+00	 2.812499999999999e+00	 1.064210180000000e+01
0	 3.249999999999999e+00	 2.874999999999999e+00	 1.062195280000000e+01
0	 3.250000000000000e+00	 2.937499999999999e+00	 1.060221004615386e+01
0	 3.250000000000000e+00	 2.999999999999998e+00	 1.058287353846154e+01
0	 3.250000000000000e+00	 3.062499999999999e+00	 1.056394327692308e+01
0	 3.250000000000000e+00	 3.125000000000000e+00	 1.054541926153847e+01
0	 3.312500000000000e+00	 2.500000000000000e+00	 1.074165603076924e+01
0	 3.312499999999999e+00	 2.562500000000000e+00	 1.072003559230769e+01
0	 3.312500000000000e+00	 2.625000000000000e+00	 1.069887563076924e+01
0	 3.312500000000000e+00	 2.687499999999999e+00	 1.067817614615384e+01
0	 3.312499999999999e+00	 2.749999999999999e+00	 1.065793713846153e+01
0	 3.312500000000000e+00	 2.812499999999999e+00	 1.063815860769231e+01
0	 3.312499999999999e+00	 2.874999999999999e+00	 1.061884055384616e+01
0	 3.312499999999999e+00	 2.937499999999999e+00	 1.059998297692308e+01
0	 3.312500000000000e+00	 2.999999999999999e+00	 1.058158587692309e+01
0	 3.312499999999999e+00	 3.062499999999998e+00	 1.056364925384616e+01
0	 3.312500000000000e+00	 3.125000000000000e+00	 1.054617310769231e+01
0	 3.374999999999999e+00	 2.500000000000000e+00	 1.073339458461539e+01
0	 3.374999999999999e+00	 2.562500000000000e+00	 1.071236581538462e+01
0	 3.375000000000000e+00	 2.625000000000000e+00	 1.069185175384616e+01
0	 3.374999999999999e+00	 2.687500000000000e+00	 1.067185240000000e+01
0	 3.374999999999999e+00	 2.750000000000000e+00	 1.065236775384616e+01
0	 3.374999999999999e+00	 2.812499999999999e+00	 1.063339781538462e+01
0	 3.374999999999999e+00	 2.874999999999999e+00	 1.061494258461538e+01
0	 3.374999999999999e+00	 2.937499999999998e+00	 1.059700206153846e+01
0	 3.374999999999999e+00	 2.999999999999999e+00	 1.057957624615385e+01
0	 3.375000000000000e+00	 3.062499999999998e+00	 1.056266513846154e+01
0	 3.374999999999999e+00	 3.125000000000000e+00	 1.054626873846154e+01
0	 3.437499999999999e+00	 2.500000000000000e+00	 1.072415615384616e+01
0	 3.437499999999999e+00	 2.562499999999999e+00	 1.070375093076922e+01
0	 3.437499999999999e+00	 2.625000000000000e+00	 1.068391464615384e+01
0	 3.437499999999999e+00	 2.687500000000000e+00	 1.066464730000000e+01
0	 3.437499999999998e+00	 2.749999999999999e+00	 1.064594889230769e+01
0	 3.437499999999999e+00	 2.812499999999999e+00	 1.062781942307693e+01
0	 3.437500000000000e+00	 2.874999999999999e+00	 1.061025889230769e+01
0	 3.437499999999999e+00	 2.937499999999998e+00	 1.059326730000001e+01
0	 3.437499999999999e+00	 2.999999999999998e+00	 1.057684464615384e+01
0	 3.437500000000000e+00	 3.062499999999998e+00	 1.056099093076924e+01
0	 3.437499999999999e+00	 3.125000000000000e+00	 1.054570615384616e+01
0	 3.499999999999999e+00	 2.500000000000000e+00	 1.071394073846154e+01
0	 3.499999999999999e+00	 2.562500000000000e+00	 1.069419093846154e+01
0	 3.499999999999997e+00	 2.625000000000000e+00	 1.067506430769232e+01
0	 3.499999999999999e+00	 2.687500000000000e+00	 1.065656084615384e+01
0	 3.499999999999999e+00	 2.750000000000000e+00	 1.063868055384616e+01
0	 3.500000000000000e+00	 2.812500000000000e+00	 1.062142343076924e+01
0	 3.499999999999999e+00	 2.874999999999999e+00	 1.060478947692308e+01
0	 3.499999999999999e+00	 2.937499999999999e+00	 1.058877869230770e+01
0	 3.499999999999999e+00	 2.999999999999999e+00	 1.057339107692308e+01
0	 3.499999999999998e+00	 3.062499999999998e+00	 1.055862663076923e+01
0	 3.499999999999999e+00	 3.125000000000000e+00	 1.054448535384615e+01
0	 3.562499999999998e+00	 2.500000000000000e+00	 1.070274833846154e+01
0	 3.562499999999999e+00	 2.562500000000000e+00	 1.068368583846154e+01
0	 3.562499999999999e+00	 2.625000000000000e+00	 1.066530073846154e+01
0	 3.562499999999998e+00	 2.687500000000000e+00	 1.064759303846154e+01
0	 3.562499999999999e+00	 2.749999999999999e+00	 1.063056273846154e+01
0	 3.562499999999999e+00	 2.812499999999999e+00	 1.061420983846154e+01
0	 3.562499999999999e+00	 2.874999999999999e+00	 1.059853433846155e+01
0	 3.562499999999999e+00	 2.937499999999998e+00	 1.058353623846154e+01
0	 3.562499999999998e+00	 2.999999999999998e+00	 1.056921553846155e+01
0	 3.562499999999999e+00	 3.062499999999998e+00	 1.055557223846155e+01
0	 3.562499999999998e+00	 3.125000000000000e+00	 1.054260633846154e+01
0	 3.624999999999999e+00	 2.500000000000000e+00	 1.069057895384615e+01
0	 3.624999999999999e+00	 2.562500000000001e+00	 1.067223563076923e+01
0	 3.624999999999998e+00	 2.625000000000000e+00	 1.065462393846154e+01
0	 3.624999999999999e+00	 2.687500000000000e+00	 1.063774387692307e+01
0	 3.624999999999998e+00	 2.749999999999999e+00	 1.062159544615384e+01
0	 3.624999999999998e+00	 2.812499999999999e+00	 1.060617864615385e+01
0	 3.624999999999998e+00	 2.874999999999999e+00	 1.059149347692308e+01
0	 3.624999999999998e+00	 2.937499999999998e+00	 1.057753993846154e+01
0	 3.624999999999998e+00	 2.999999999999998e+00	 1.056431803076923e+01
0	 3.624999999999998e+00	 3.062499999999998e+00	 1.055182775384616e+01
0	 3.624999999999999e+00	 3.125000000000000e+00	 1.054006910769231e+01
0	 3.687499999999998e+00	 2.500000000000000e+00	 1.067743258461539e+01
0	 3.687499999999998e+00	 2.562500000000000e+00	 1.065984031538462e+01
0	 3.687499999999998e+00	 2.625000000000000e+00	 1.064303390769231e+01
0	 3.687499999999998e+00	 2.687500000000000e+00	 1.062701336153847e+01
0	 3.687499999999998e+00	 2.749999999999999e+00	 1.061177867692308e+01
0	 3.687499999999998e+00	 2.812499999999999e+00	 1.059732985384616e+01
0	 3.687499999999998e+00	 2.874999999999999e+00	 1.058366689230770e+01
0	 3.687499999999998e+00	 2.937499999999998e+00	 1.057078979230769e+01
0	 3.687499999999998e+00	 2.999999999999998e+00	 1.055869855384616e+01
0	 3.687499999999997e+00	 3.062499999999998e+00	 1.054739317692307e+01
0	 3.687499999999998e+00	 3.125000000000000e+00	 1.053687366153847e+01
0	 3.750000000000000e+00	 2.500000000000000e+00	 1.066330923076923e+01
0	 3.750000000000000e+00	 2.562500000000000e+00	 1.064649989230770e+01
0	 3.750000000000001e+00	 2.625000000000000e+00	 1.063053064615385e+01
0	 3.750000000000000e+00	 2.687499999999999e+00	 1.061540149230769e+01
0	 3.750000000000000e+00	 2.750000000000000e+00	 1.060111243076923e+01
0	 3.750000000000000e+00	 2.812499999999999e+00	 1.058766346153847e+01
0	 3.750000000000000e+00	 2.874999999999999e+00	 1.057505458461538e+01
0	 3.750000000000000e+00	 2.937499999999998e+00	 1.056328580000000e+01
0	 3.750000000000000e+00	 2.999999999999998e+00	 1.055235710769231e+01
0	 3.750000000000000e+00	 3.062499999999998e+00	 1.054226850769232e+01
0	 3.750000000000000e+00	 3.125000000000000e+00	 1.053302000000000e+01
0	 3.125000000000000e+00	 3.125000000000000e+00	 1.054193692307693e+01
0	 3.125000000000000e+00	 3.187500000000000e+00	 1.052044596923076e+01
0	 3.125000000000000e+00	 3.250000000000000e+00	 1.049926295384615e+01
0	 3.125000000000000e+00	 3.312499999999999e+00	 1.047838787692308e+01
0	 3.125000000000000e+00	 3.374999999999999e+00	 1.045782073846154e+01
0	 3.125000000000000e+00	 3.437499999999999e+00	 1.043756153846153e+01
0	 3.125000000000000e+00	 3.499999999999999e+00	 1.041761027692307e+01
0	 3.125000000000000e+00	 3.562499999999998e+00	 1.039796695384615e+01
0	 3.125000000000000e+00	 3.624999999999999e+00	 1.037863156923077e+01
0	 3.125000000000000e+00	 3.687499999999998e+00	 1.035960412307691e+01
0	 3.125000000000000e+00	 3.750000000000000e+00	 1.034088461538461e+01
0	 3.187500000000000e+00	 3.125000000000000e+00	 1.054400720000000e+01
0	 3.187500000000000e+00	 3.187500000000000e+00	 1.052371340769231e+01
0	 3.187500000000000e+00	 3.250000000000000e+00	 1.050371676307692e+01
0	 3.187500000000000e+00	 3.312499999999999e+00	 1.048401726615385e+01
0	 3.187500000000000e+00	 3.374999999999999e+00	 1.046461491692308e+01
0	 3.187500000000000e+00	 3.437499999999999e+00	 1.044550971538462e+01
0	 3.187500000000001e+00	 3.500000000000000e+00	 1.042670166153846e+01
0	 3.187500000000000e+00	 3.562499999999999e+00	 1.040819075538462e+01
0	 3.187500000000001e+00	 3.625000000000000e+00	 1.038997699692308e+01
0	 3.187499999999999e+00	 3.687499999999997e+00	 1.037206038615384e+01
0	 3.187500000000000e+00	 3.750000000000000e+00	 1.035444092307693e+01
0	 3.250000000000000e+00	 3.125000000000000e+00	 1.054541926153847e+01
0	 3.250000000000000e+00	 3.187500000000000e+00	 1.052623100615385e+01
0	 3.250000000000000e+00	 3.250000000000000e+00	 1.050732910769231e+01
0	 3.250000000000000e+00	 3.312500000000000e+00	 1.048871356615385e+01
0	 3.249999999999999e+00	 3.374999999999999e+00	 1.047038438153847e+01
0	 3.250000000000000e+00	 3.437499999999999e+00	 1.045234155384615e+01
0	 3.249999999999999e+00	 3.499999999999997e+00	 1.043458508307692e+01
0	 3.250000000000000e+00	 3.562499999999999e+00	 1.041711496923076e+01
0	 3.250000000000000e+00	 3.624999999999998e+00	 1.039993121230768e+01
0	 3.250000000000000e+00	 3.687499999999999e+00	 1.038303381230769e+01
0	 3.250000000000000e+00	 3.750000000000000e+00	 1.036642276923076e+01
0	 3.312500000000000e+00	 3.125000000000000e+00	 1.054617310769231e+01
0	 3.312499999999999e+00	 3.187500000000000e+00	 1.052799876461538e+01
0	 3.312500000000000e+00	 3.250000000000000e+00	 1.051009998769232e+01
0	 3.312500000000000e+00	 3.312500000000000e+00	 1.049247677692307e+01
0	 3.312499999999999e+00	 3.374999999999999e+00	 1.047512913230769e+01
0	 3.312500000000000e+00	 3.437499999999999e+00	 1.045805705384615e+01
0	 3.312499999999999e+00	 3.499999999999998e+00	 1.044126054153846e+01
0	 3.312499999999999e+00	 3.562499999999998e+00	 1.042473959538461e+01
0	 3.312500000000000e+00	 3.624999999999998e+00	 1.040849421538461e+01
0	 3.312499999999999e+00	 3.687499999999998e+00	 1.039252440153846e+01
0	 3.312500000000000e+00	 3.750000000000000e+00	 1.037683015384614e+01
0	 3.374999999999999e+00	 3.125000000000000e+00	 1.054626873846154e+01
0	 3.374999999999999e+00	 3.187500000000000e+00	 1.052901668307693e+01
0	 3.375000000000000e+00	 3.250000000000000e+00	 1.051202940307693e+01
0	 3.374999999999999e+00	 3.312500000000000e+00	 1.049530689846154e+01
0	 3.374999999999999e+00	 3.374999999999999e+00	 1.047884916923077e+01
0	 3.374999999999999e+00	 3.437499999999999e+00	 1.046265621538462e+01
0	 3.374999999999999e+00	 3.499999999999998e+00	 1.044672803692308e+01
0	 3.374999999999999e+00	 3.562499999999998e+00	 1.043106463384616e+01
0	 3.374999999999999e+00	 3.624999999999999e+00	 1.041566600615385e+01
0	 3.375000000000000e+00	 3.687499999999998e+00	 1.040053215384614e+01
0	 3.374999999999999e+00	 3.750000000000000e+00	 1.038566307692307e+01
0	 3.437499999999999e+00	 3.125000000000000e+00	 1.054570615384616e+01
0	 3.437499999999999e+00	 3.187500000000000e+00	 1.052928476153847e+01
0	 3.437499999999999e+00	 3.250000000000000e+00	 1.051311735384616e+01
0	 3.437499999999999e+00	 3.312500000000000e+00	 1.049720393076923e+01
0	 3.437499999999998e+00	 3.374999999999998e+00	 1.048154449230770e+01
0	 3.437499999999999e+00	 3.437499999999999e+00	 1.046613903846154e+01
0	 3.437500000000000e+00	 3.499999999999999e+00	 1.045098756923077e+01
0	 3.437499999999999e+00	 3.562499999999999e+00	 1.043609008461538e+01
0	 3.437499999999999e+00	 3.624999999999998e+00	 1.042144658461538e+01
0	 3.437500000000000e+00	 3.687499999999999e+00	 1.040705706923077e+01
0	 3.437499999999999e+00	 3.750000000000000e+00	 1.039292153846153e+01
0	 3.499999999999999e+00	 3.125000000000000e+00	 1.054448535384615e+01
0	 3.499999999999999e+00	 3.187500000000000e+00	 1.052880300000000e+01
0	 3.499999999999997e+00	 3.249999999999999e+00	 1.051336384000001e+01
0	 3.499999999999999e+00	 3.312499999999999e+00	 1.049816787384616e+01
0	 3.499999999999999e+00	 3.375000000000000e+00	 1.048321510153847e+01
0	 3.500000000000000e+00	 3.437500000000000e+00	 1.046850552307693e+01
0	 3.499999999999999e+00	 3.499999999999999e+00	 1.045403913846153e+01
0	 3.499999999999999e+00	 3.562499999999999e+00	 1.043981594769230e+01
0	 3.499999999999999e+00	 3.624999999999999e+00	 1.042583595076923e+01
0	 3.499999999999998e+00	 3.687499999999998e+00	 1.041209914769231e+01
0	 3.499999999999999e+00	 3.750000000000000e+00	 1.039860553846153e+01
0	 3.562499999999998e+00	 3.125000000000000e+00	 1.054260633846154e+01
0	 3.562499999999999e+00	 3.187500000000000e+00	 1.052757139846154e+01
0	 3.562499999999999e+00	 3.250000000000000e+00	 1.051276886153846e+01
0	 3.562499999999998e+00	 3.312500000000000e+00	 1.049819872769231e+01
0	 3.562499999999999e+00	 3.374999999999999e+00	 1.048386099692308e+01
0	 3.562499999999999e+00	 3.437499999999999e+00	 1.046975566923077e+01
0	 3.562499999999999e+00	 3.499999999999999e+00	 1.045588274461538e+01
0	 3.562499999999999e+00	 3.562499999999999e+00	 1.044224222307692e+01
0	 3.562499999999998e+00	 3.624999999999998e+00	 1.042883410461538e+01
0	 3.562499999999999e+00	 3.687499999999999e+00	 1.041565838923077e+01
0	 3.562499999999998e+00	 3.750000000000000e+00	 1.040271507692308e+01
0	 3.624999999999999e+00	 3.125000000000000e+00	 1.054006910769231e+01
0	 3.624999999999999e+00	 3.187500000000001e+00	 1.052558995692307e+01
0	 3.624999999999998e+00	 3.250000000000000e+00	 1.051133241846154e+01
0	 3.624999999999999e+00	 3.312500000000000e+00	 1.049729649230768e+01
0	 3.624999999999998e+00	 3.374999999999999e+00	 1.048348217846154e+01
0	 3.624999999999998e+00	 3.437499999999999e+00	 1.046988947692307e+01
0	 3.624999999999998e+00	 3.499999999999998e+00	 1.045651838769230e+01
0	 3.624999999999998e+00	 3.562499999999998e+00	 1.044336891076923e+01
0	 3.624999999999998e+00	 3.624999999999998e+00	 1.043044104615385e+01
0	 3.624999999999998e+00	 3.687499999999998e+00	 1.041773479384615e+01
0	 3.624999999999999e+00	 3.750000000000000e+00	 1.040525015384616e+01
0	 3.687499999999998e+00	 3.125000000000000e+00	 1.053687366153847e+01
0	 3.687499999999998e+00	 3.187500000000000e+00	 1.052285867538462e+01
0	 3.687499999999998e+00	 3.250000000000000e+00	 1.050905451076923e+01
0	 3.687499999999998e+00	 3.312500000000000e+00	 1.049546116769230e+01
0	 3.687499999999998e+00	 3.374999999999999e+00	 1.048207864615385e+01
0	 3.687499999999998e+00	 3.437500000000000e+00	 1.046890694615385e+01
0	 3.687499999999998e+00	 3.499999999999998e+00	 1.045594606769231e+01
0	 3.687499999999998e+00	 3.562499999999998e+00	 1.044319601076922e+01
0	 3.687499999999998e+00	 3.624999999999998e+00	 1.043065677538462e+01
0	 3.687499999999997e+00	 3.687499999999997e+00	 1.041832836153846e+01
0	 3.687499999999998e+00	 3.750000000000000e+00	 1.040621076923077e+01
0	 3.750000000000000e+00	 3.125000000000000e+00	 1.053302000000000e+01
0	 3.750000000000000e+00	 3.187500000000000e+00	 1.051937755384614e+01
0	 3.750000000000001e+00	 3.250000000000000e+00	 1.050593513846153e+01
0	 3.750000000000000e+00	 3.312499999999999e+00	 1.049269275384615e+01
0	 3.750000000000000e+00	 3.374999999999999e+00	 1.047965040000000e+01
0	 3.750000000000000e+00	 3.437499999999999e+00	 1.046680807692307e+01
0	 3.750000000000000e+00	 3.499999999999999e+00	 1.045416578461538e+01
0	 3.750000000000000e+00	 3.562499999999998e+00	 1.044172352307692e+01
0	 3.750000000000000e+00	 3.624999999999999e+00	 1.042948129230769e+01
0	 3.750000000000000e+00	 3.687499999999998e+00	 1.041743909230768e+01
0	 3.750000000000000e+00	 3.750000000000000e+00	 1.040559692307692e+01
0	 3.125000000000000e+00	 3.750000000000000e+00	 1.034088461538461e+01
0	 3.125000000000000e+00	 3.812500000000000e+00	 1.032867190769230e+01
0	 3.125000000000000e+00	 3.875000000000000e+00	 1.031623747692308e+01
0	 3.125000000000000e+00	 3.937499999999999e+00	 1.030358132307692e+01
0	 3.125000000000000e+00	 4.000000000000000e+00	 1.029070344615385e+01
0	 3.125000000000000e+00	 4.062499999999999e+00	 1.027760384615385e+01
0	 3.125000000000000e+00	 4.124999999999999e+00	 1.026428252307692e+01
0	 3.125000000000000e+00	 4.187499999999998e+00	 1.025073947692308e+01
0	 3.125000000000000e+00	 4.249999999999998e+00	 1.023697470769231e+01
0	 3.125000000000000e+00	 4.312499999999998e+00	 1.022298821538463e+01
0	 3.125000000000000e+00	 4.375000000000000e+00	 1.020878000000001e+01
0	 3.187500000000000e+00	 3.750000000000000e+00	 1.035444092307693e+01
0	 3.187500000000000e+00	 3.812500000000000e+00	 1.034191535692307e+01
0	 3.187500000000000e+00	 3.875000000000000e+00	 1.032920375384615e+01
0	 3.187500000000000e+00	 3.937500000000000e+00	 1.031630611384615e+01
0	 3.187500000000000e+00	 3.999999999999999e+00	 1.030322243692307e+01
0	 3.187500000000000e+00	 4.062499999999999e+00	 1.028995272307692e+01
0	 3.187500000000001e+00	 4.125000000000000e+00	 1.027649697230769e+01
0	 3.187500000000000e+00	 4.187500000000000e+00	 1.026285518461539e+01
0	 3.187500000000001e+00	 4.250000000000000e+00	 1.024902736000000e+01
0	 3.187499999999999e+00	 4.312499999999997e+00	 1.023501349846155e+01
0	 3.187500000000000e+00	 4.375000000000000e+00	 1.022081360000001e+01
0	 3.250000000000000e+00	 3.750000000000000e+00	 1.036642276923076e+01
0	 3.250000000000000e+00	 3.812500000000000e+00	 1.035364706461539e+01
0	 3.250000000000000e+00	 3.875000000000000e+00	 1.034072100923076e+01
0	 3.250000000000000e+00	 3.937500000000000e+00	 1.032764460307692e+01
0	 3.249999999999999e+00	 3.999999999999999e+00	 1.031441784615384e+01
0	 3.250000000000000e+00	 4.062499999999999e+00	 1.030104073846153e+01
0	 3.249999999999999e+00	 4.124999999999997e+00	 1.028751328000000e+01
0	 3.250000000000000e+00	 4.187499999999998e+00	 1.027383547076923e+01
0	 3.250000000000000e+00	 4.249999999999998e+00	 1.026000731076924e+01
0	 3.250000000000000e+00	 4.312499999999998e+00	 1.024602880000002e+01
0	 3.250000000000000e+00	 4.375000000000000e+00	 1.023189993846154e+01
0	 3.312500000000000e+00	 3.750000000000000e+00	 1.037683015384614e+01
0	 3.312499999999999e+00	 3.812500000000000e+00	 1.036386703076922e+01
0	 3.312500000000000e+00	 3.875000000000000e+00	 1.035078924307692e+01
0	 3.312500000000000e+00	 3.937500000000000e+00	 1.033759679076922e+01
0	 3.312499999999999e+00	 3.999999999999999e+00	 1.032428967384615e+01
0	 3.312500000000000e+00	 4.062500000000000e+00	 1.031086789230769e+01
0	 3.312499999999999e+00	 4.124999999999998e+00	 1.029733144615384e+01
0	 3.312499999999999e+00	 4.187499999999999e+00	 1.028368033538462e+01
0	 3.312500000000000e+00	 4.249999999999998e+00	 1.026991455999999e+01
0	 3.312499999999999e+00	 4.312499999999997e+00	 1.025603412000002e+01
0	 3.312500000000000e+00	 4.375000000000000e+00	 1.024203901538462e+01
0	 3.374999999999999e+00	 3.750000000000000e+00	 1.038566307692307e+01
0	 3.374999999999999e+00	 3.812500000000000e+00	 1.037257525538461e+01
0	 3.375000000000000e+00	 3.875000000000000e+00	 1.035940845538461e+01
0	 3.374999999999999e+00	 3.937500000000000e+00	 1.034616267692307e+01
0	 3.374999999999999e+00	 3.999999999999999e+00	 1.033283792000001e+01
0	 3.374999999999999e+00	 4.062499999999999e+00	 1.031943418461538e+01
0	 3.374999999999999e+00	 4.124999999999998e+00	 1.030595147076924e+01
0	 3.374999999999999e+00	 4.187499999999999e+00	 1.029238977846153e+01
0	 3.374999999999999e+00	 4.249999999999998e+00	 1.027874910769231e+01
0	 3.375000000000000e+00	 4.312499999999998e+00	 1.026502945846154e+01
0	 3.374999999999999e+00	 4.375000000000000e+00	 1.025123083076923e+01
0	 3.437499999999999e+00	 3.750000000000000e+00	 1.039292153846153e+01
0	 3.437499999999999e+00	 3.812500000000000e+00	 1.037977173846154e+01
0	 3.437499999999999e+00	 3.875000000000000e+00	 1.036657864615384e+01
0	 3.437499999999999e+00	 3.937499999999999e+00	 1.035334226153846e+01
0	 3.437499999999998e+00	 3.999999999999998e+00	 1.034006258461538e+01
0	 3.437499999999999e+00	 4.062499999999999e+00	 1.032673961538461e+01
0	 3.437500000000000e+00	 4.125000000000000e+00	 1.031337335384615e+01
0	 3.437499999999999e+00	 4.187499999999998e+00	 1.029996380000000e+01
0	 3.437499999999999e+00	 4.249999999999998e+00	 1.028651095384615e+01
0	 3.437500000000000e+00	 4.312499999999998e+00	 1.027301481538462e+01
0	 3.437499999999999e+00	 4.375000000000000e+00	 1.025947538461538e+01
0	 3.499999999999999e+00	 3.750000000000000e+00	 1.039860553846153e+01
0	 3.499999999999999e+00	 3.812500000000000e+00	 1.038545648000000e+01
0	 3.499999999999997e+00	 3.874999999999999e+00	 1.037229981538460e+01
0	 3.499999999999999e+00	 3.937500000000000e+00	 1.035913554461538e+01
0	 3.499999999999999e+00	 4.000000000000000e+00	 1.034596366769230e+01
0	 3.500000000000000e+00	 4.062500000000000e+00	 1.033278418461539e+01
0	 3.499999999999999e+00	 4.124999999999999e+00	 1.031959709538462e+01
0	 3.499999999999999e+00	 4.187499999999998e+00	 1.030640240000000e+01
0	 3.499999999999999e+00	 4.249999999999999e+00	 1.029320009846153e+01
0	 3.499999999999998e+00	 4.312499999999997e+00	 1.027999019076923e+01
0	 3.499999999999999e+00	 4.375000000000000e+00	 1.026677267692307e+01
0	 3.562499999999998e+00	 3.750000000000000e+00	 1.040271507692308e+01
0	 3.562499999999999e+00	 3.812500000000000e+00	 1.038962947999999e+01
0	 3.562499999999999e+00	 3.875000000000000e+00	 1.037657196307692e+01
0	 3.562499999999998e+00	 3.937499999999999e+00	 1.036354252615384e+01
0	 3.562499999999999e+00	 3.999999999999999e+00	 1.035054116923077e+01
0	 3.562499999999999e+00	 4.062500000000000e+00	 1.033756789230770e+01
0	 3.562499999999999e+00	 4.124999999999999e+00	 1.032462269538462e+01
0	 3.562499999999999e+00	 4.187499999999999e+00	 1.031170557846155e+01
0	 3.562499999999998e+00	 4.249999999999998e+00	 1.029881654153846e+01
0	 3.562499999999999e+00	 4.312499999999998e+00	 1.028595558461540e+01
0	 3.562499999999998e+00	 4.375000000000000e+00	 1.027312270769229e+01
0	 3.624999999999999e+00	 3.750000000000000e+00	 1.040525015384616e+01
0	 3.624999999999999e+00	 3.812500000000000e+00	 1.039229073846155e+01
0	 3.624999999999998e+00	 3.875000000000000e+00	 1.037939508923076e+01
0	 3.624999999999999e+00	 3.937500000000000e+00	 1.036656320615384e+01
0	 3.624999999999998e+00	 3.999999999999999e+00	 1.035379508923077e+01
0	 3.624999999999998e+00	 4.062499999999998e+00	 1.034109073846153e+01
0	 3.624999999999998e+00	 4.124999999999999e+00	 1.032845015384615e+01
0	 3.624999999999998e+00	 4.187499999999998e+00	 1.031587333538461e+01
0	 3.624999999999998e+00	 4.249999999999998e+00	 1.030336028307692e+01
0	 3.624999999999998e+00	 4.312499999999998e+00	 1.029091099692308e+01
0	 3.624999999999999e+00	 4.375000000000000e+00	 1.027852547692308e+01
0	 3.687499999999998e+00	 3.750000000000000e+00	 1.040621076923077e+01
0	 3.687499999999998e+00	 3.812500000000000e+00	 1.039344025538461e+01
0	 3.687499999999998e+00	 3.875000000000000e+00	 1.038076919384615e+01
0	 3.687499999999998e+00	 3.937499999999999e+00	 1.036819758461538e+01
0	 3.687499999999998e+00	 3.999999999999999e+00	 1.035572542769230e+01
0	 3.687499999999998e+00	 4.062499999999998e+00	 1.034335272307693e+01
0	 3.687499999999998e+00	 4.124999999999998e+00	 1.033107947076923e+01
0	 3.687499999999998e+00	 4.187499999999998e+00	 1.031890567076924e+01
0	 3.687499999999998e+00	 4.249999999999998e+00	 1.030683132307693e+01
0	 3.687499999999997e+00	 4.312499999999998e+00	 1.029485642769231e+01
0	 3.687499999999998e+00	 4.375000000000000e+00	 1.028298098461538e+01
0	 3.750000000000000e+00	 3.750000000000000e+00	 1.040559692307692e+01
0	 3.750000000000000e+00	 3.812500000000000e+00	 1.039307803076923e+01
0	 3.750000000000001e+00	 3.875000000000000e+00	 1.038069427692308e+01
0	 3.750000000000000e+00	 3.937499999999999e+00	 1.036844566153845e+01
0	 3.750000000000000e+00	 4.000000000000000e+00	 1.035633218461538e+01
0	 3.750000000000000e+00	 4.062499999999999e+00	 1.034435384615385e+01
0	 3.750000000000000e+00	 4.124999999999999e+00	 1.033251064615384e+01
0	 3.750000000000000e+00	 4.187499999999998e+00	 1.032080258461538e+01
0	 3.750000000000000e+00	 4.249999999999998e+00	 1.030922966153846e+01
0	 3.750000000000000e+00	 4.312499999999998e+00	 1.029779187692309e+01
0	 3.750000000000000e+00	 4.375000000000000e+00	 1.028648923076923e+01
0	 3.125000000000000e+00	 4.375000000000000e+00	 1.020878000000001e+01
0	 3.125000000000000e+00	 4.437499999999999e+00	 1.019993118461538e+01
0	 3.125000000000000e+00	 4.500000000000001e+00	 1.019099089230770e+01
0	 3.125000000000000e+00	 4.562499999999999e+00	 1.018195912307693e+01
0	 3.125000000000000e+00	 4.625000000000000e+00	 1.017283587692308e+01
0	 3.125000000000000e+00	 4.687499999999999e+00	 1.016362115384615e+01
0	 3.125000000000000e+00	 4.749999999999999e+00	 1.015431495384615e+01
0	 3.125000000000000e+00	 4.812499999999998e+00	 1.014491727692308e+01
0	 3.125000000000000e+00	 4.874999999999998e+00	 1.013542812307692e+01
0	 3.125000000000000e+00	 4.937499999999998e+00	 1.012584749230768e+01
0	 3.125000000000000e+00	 5.000000000000000e+00	 1.011617538461538e+01
0	 3.187500000000000e+00	 4.375000000000000e+00	 1.022081360000001e+01
0	 3.187500000000000e+00	 4.437500000000000e+00	 1.021195690461539e+01
0	 3.187500000000000e+00	 4.499999999999999e+00	 1.020301110461539e+01
0	 3.187500000000000e+00	 4.562499999999999e+00	 1.019397620000000e+01
0	 3.187500000000000e+00	 4.625000000000000e+00	 1.018485219076923e+01
0	 3.187500000000000e+00	 4.687500000000001e+00	 1.017563907692307e+01
0	 3.187500000000001e+00	 4.749999999999999e+00	 1.016633685846153e+01
0	 3.187500000000000e+00	 4.812499999999999e+00	 1.015694553538461e+01
0	 3.187500000000001e+00	 4.875000000000000e+00	 1.014746510769231e+01
0	 3.187499999999999e+00	 4.937499999999997e+00	 1.013789557538462e+01
0	 3.187500000000000e+00	 4.999999999999999e+00	 1.012823693846152e+01
0	 3.250000000000000e+00	 4.375000000000000e+00	 1.023189993846154e+01
0	 3.250000000000000e+00	 4.437500000000000e+00	 1.022304313846155e+01
0	 3.250000000000000e+00	 4.500000000000001e+00	 1.021409960615385e+01
0	 3.250000000000000e+00	 4.562499999999999e+00	 1.020506934153846e+01
0	 3.249999999999999e+00	 4.624999999999998e+00	 1.019595234461539e+01
0	 3.250000000000000e+00	 4.687499999999997e+00	 1.018674861538462e+01
0	 3.249999999999999e+00	 4.749999999999998e+00	 1.017745815384615e+01
0	 3.250000000000000e+00	 4.812499999999999e+00	 1.016808095999999e+01
0	 3.250000000000000e+00	 4.874999999999998e+00	 1.015861703384616e+01
0	 3.250000000000000e+00	 4.937499999999998e+00	 1.014906637538461e+01
0	 3.250000000000000e+00	 5.000000000000000e+00	 1.013942898461539e+01
0	 3.312500000000000e+00	 4.375000000000000e+00	 1.024203901538462e+01
0	 3.312499999999999e+00	 4.437500000000000e+00	 1.023318988615386e+01
0	 3.312500000000000e+00	 4.500000000000000e+00	 1.022425639692308e+01
0	 3.312500000000000e+00	 4.562499999999999e+00	 1.021523854769230e+01
0	 3.312499999999999e+00	 4.625000000000000e+00	 1.020613633846155e+01
0	 3.312500000000000e+00	 4.687499999999999e+00	 1.019694976923077e+01
0	 3.312499999999999e+00	 4.749999999999998e+00	 1.018767884000000e+01
0	 3.312499999999999e+00	 4.812499999999998e+00	 1.017832355076923e+01
0	 3.312500000000000e+00	 4.874999999999998e+00	 1.016888390153847e+01
0	 3.312499999999999e+00	 4.937499999999997e+00	 1.015935989230769e+01
0	 3.312500000000000e+00	 4.999999999999999e+00	 1.014975152307692e+01
0	 3.374999999999999e+00	 4.375000000000000e+00	 1.025123083076923e+01
0	 3.374999999999999e+00	 4.437500000000000e+00	 1.024239714769230e+01
0	 3.375000000000000e+00	 4.500000000000000e+00	 1.023348147692307e+01
0	 3.374999999999999e+00	 4.562499999999999e+00	 1.022448381846154e+01
0	 3.374999999999999e+00	 4.624999999999999e+00	 1.021540417230770e+01
0	 3.374999999999999e+00	 4.687500000000000e+00	 1.020624253846154e+01
0	 3.374999999999999e+00	 4.749999999999998e+00	 1.019699891692308e+01
0	 3.374999999999999e+00	 4.812499999999999e+00	 1.018767330769230e+01
0	 3.374999999999999e+00	 4.874999999999998e+00	 1.017826571076922e+01
0	 3.375000000000000e+00	 4.937499999999997e+00	 1.016877612615384e+01
0	 3.374999999999999e+00	 5.000000000000000e+00	 1.015920455384617e+01
0	 3.437499999999999e+00	 4.375000000000000e+00	 1.025947538461538e+01
0	 3.437499999999999e+00	 4.437499999999999e+00	 1.025066492307692e+01
0	 3.437499999999999e+00	 4.499999999999999e+00	 1.024177484615386e+01
0	 3.437499999999999e+00	 4.562499999999999e+00	 1.023280515384615e+01
0	 3.437499999999998e+00	 4.624999999999998e+00	 1.022375584615385e+01
0	 3.437499999999999e+00	 4.687499999999999e+00	 1.021462692307692e+01
0	 3.437500000000000e+00	 4.750000000000000e+00	 1.020541838461538e+01
0	 3.437499999999999e+00	 4.812499999999998e+00	 1.019613023076923e+01
0	 3.437499999999999e+00	 4.874999999999998e+00	 1.018676246153846e+01
0	 3.437500000000000e+00	 4.937499999999999e+00	 1.017731507692307e+01
0	 3.437499999999999e+00	 5.000000000000000e+00	 1.016778807692308e+01
0	 3.499999999999999e+00	 4.375000000000000e+00	 1.026677267692307e+01
0	 3.499999999999999e+00	 4.437499999999999e+00	 1.025799321230770e+01
0	 3.499999999999997e+00	 4.499999999999998e+00	 1.024913650461539e+01
0	 3.499999999999999e+00	 4.562499999999999e+00	 1.024020255384615e+01
0	 3.499999999999999e+00	 4.625000000000001e+00	 1.023119136000000e+01
0	 3.500000000000000e+00	 4.687499999999999e+00	 1.022210292307692e+01
0	 3.499999999999999e+00	 4.749999999999998e+00	 1.021293724307691e+01
0	 3.499999999999999e+00	 4.812499999999999e+00	 1.020369432000001e+01
0	 3.499999999999999e+00	 4.874999999999998e+00	 1.019437415384615e+01
0	 3.499999999999998e+00	 4.937499999999999e+00	 1.018497674461537e+01
0	 3.499999999999999e+00	 5.000000000000001e+00	 1.017550209230770e+01
0	 3.562499999999998e+00	 4.375000000000000e+00	 1.027312270769229e+01
0	 3.562499999999999e+00	 4.437499999999999e+00	 1.026438201538462e+01
0	 3.562499999999999e+00	 4.500000000000000e+00	 1.025556645230769e+01
0	 3.562499999999998e+00	 4.562499999999999e+00	 1.024667601846154e+01
0	 3.562499999999999e+00	 4.625000000000000e+00	 1.023771071384615e+01
0	 3.562499999999999e+00	 4.687500000000000e+00	 1.022867053846154e+01
0	 3.562499999999999e+00	 4.749999999999999e+00	 1.021955549230769e+01
0	 3.562499999999999e+00	 4.812499999999999e+00	 1.021036557538461e+01
0	 3.562499999999998e+00	 4.874999999999998e+00	 1.020110078769229e+01
0	 3.562499999999999e+00	 4.937499999999999e+00	 1.019176112923077e+01
0	 3.562499999999998e+00	 4.999999999999999e+00	 1.018234659999999e+01
0	 3.624999999999999e+00	 4.375000000000000e+00	 1.027852547692308e+01
0	 3.624999999999999e+00	 4.437500000000001e+00	 1.026983133230769e+01
0	 3.624999999999998e+00	 4.499999999999999e+00	 1.026106468923077e+01
0	 3.624999999999999e+00	 4.562500000000000e+00	 1.025222554769230e+01
0	 3.624999999999998e+00	 4.624999999999999e+00	 1.024331390769230e+01
0	 3.624999999999998e+00	 4.687499999999998e+00	 1.023432976923076e+01
0	 3.624999999999998e+00	 4.749999999999999e+00	 1.022527313230769e+01
0	 3.624999999999998e+00	 4.812499999999998e+00	 1.021614399692308e+01
0	 3.624999999999998e+00	 4.874999999999999e+00	 1.020694236307691e+01
0	 3.624999999999998e+00	 4.937499999999998e+00	 1.019766823076922e+01
0	 3.624999999999999e+00	 5.000000000000000e+00	 1.018832159999999e+01
0	 3.687499999999998e+00	 4.375000000000000e+00	 1.028298098461538e+01
0	 3.687499999999998e+00	 4.437500000000000e+00	 1.027434116307692e+01
0	 3.687499999999998e+00	 4.500000000000000e+00	 1.026563121538461e+01
0	 3.687499999999998e+00	 4.562500000000000e+00	 1.025685114153847e+01
0	 3.687499999999998e+00	 4.624999999999999e+00	 1.024800094153846e+01
0	 3.687499999999998e+00	 4.687499999999999e+00	 1.023908061538461e+01
0	 3.687499999999998e+00	 4.749999999999999e+00	 1.023009016307692e+01
0	 3.687499999999998e+00	 4.812499999999998e+00	 1.022102958461538e+01
0	 3.687499999999998e+00	 4.874999999999999e+00	 1.021189888000001e+01
0	 3.687499999999997e+00	 4.937499999999998e+00	 1.020269804923077e+01
0	 3.687499999999998e+00	 5.000000000000000e+00	 1.019342709230770e+01
0	 3.750000000000000e+00	 4.375000000000000e+00	 1.028648923076923e+01
0	 3.750000000000000e+00	 4.437499999999999e+00	 1.027791150769228e+01
0	 3.750000000000001e+00	 4.500000000000001e+00	 1.026926603076923e+01
0	 3.750000000000000e+00	 4.562499999999999e+00	 1.026055280000000e+01
0	 3.750000000000000e+00	 4.625000000000000e+00	 1.025177181538461e+01
0	 3.750000000000000e+00	 4.687499999999999e+00	 1.024292307692307e+01
0	 3.750000000000000e+00	 4.749999999999999e+00	 1.023400658461538e+01
0	 3.750000000000000e+00	 4.812499999999998e+00	 1.022502233846154e+01
0	 3.750000000000000e+00	 4.874999999999998e+00	 1.021597033846154e+01
0	 3.750000000000000e+00	 4.937499999999998e+00	 1.020685058461538e+01
0	 3.750000000000000e+00	 5.000000000000000e+00	 1.019766307692307e+01
0	 3.125000000000000e+00	 5.000000000000000e+00	 1.011617538461538e+01
0	 3.125000000000000e+00	 5.062500000000000e+00	 1.011142663076923e+01
0	 3.125000000000000e+00	 5.125000000000001e+00	 1.010651883076923e+01
0	 3.125000000000000e+00	 5.187499999999999e+00	 1.010145198461537e+01
0	 3.125000000000000e+00	 5.249999999999999e+00	 1.009622609230769e+01
0	 3.125000000000000e+00	 5.312499999999999e+00	 1.009084115384615e+01
0	 3.125000000000000e+00	 5.374999999999998e+00	 1.008529716923077e+01
0	 3.125000000000000e+00	 5.437499999999998e+00	 1.007959413846154e+01
0	 3.125000000000000e+00	 5.499999999999998e+00	 1.007373206153846e+01
0	 3.125000000000000e+00	 5.562499999999998e+00	 1.006771093846153e+01
0	 3.125000000000000e+00	 5.625000000000000e+00	 1.006153076923077e+01
0	 3.187500000000000e+00	 4.999999999999999e+00	 1.012823693846152e+01
0	 3.187500000000000e+00	 5.062500000000000e+00	 1.012317432615383e+01
0	 3.187500000000000e+00	 5.125000000000000e+00	 1.011796358769230e+01
0	 3.187500000000000e+00	 5.187499999999999e+00	 1.011260472307692e+01
0	 3.187500000000000e+00	 5.249999999999998e+00	 1.010709773230769e+01
0	 3.187500000000000e+00	 5.312500000000000e+00	 1.010144261538461e+01
0	 3.187500000000001e+00	 5.374999999999999e+00	 1.009563937230769e+01
0	 3.187500000000000e+00	 5.437499999999999e+00	 1.008968800307692e+01
0	 3.187500000000001e+00	 5.499999999999999e+00	 1.008358850769231e+01
0	 3.187499999999999e+00	 5.562499999999996e+00	 1.007734088615386e+01
0	 3.187500000000000e+00	 5.625000000000000e+00	 1.007094513846153e+01
0	 3.250000000000000e+00	 5.000000000000000e+00	 1.013942898461539e+01
0	 3.250000000000000e+00	 5.062499999999999e+00	 1.013408501538461e+01
0	 3.250000000000000e+00	 5.125000000000001e+00	 1.012860383999998e+01
0	 3.250000000000000e+00	 5.187499999999998e+00	 1.012298545846153e+01
0	 3.249999999999999e+00	 5.249999999999999e+00	 1.011722987076922e+01
0	 3.250000000000000e+00	 5.312499999999999e+00	 1.011133707692306e+01
0	 3.249999999999999e+00	 5.374999999999999e+00	 1.010530707692308e+01
0	 3.250000000000000e+00	 5.437499999999999e+00	 1.009913987076924e+01
0	 3.250000000000000e+00	 5.499999999999998e+00	 1.009283545846153e+01
0	 3.250000000000000e+00	 5.562499999999999e+00	 1.008639383999999e+01
0	 3.250000000000000e+00	 5.625000000000000e+00	 1.007981501538461e+01
0	 3.312500000000000e+00	 4.999999999999999e+00	 1.014975152307692e+01
0	 3.312499999999999e+00	 5.062500000000001e+00	 1.014415869846153e+01
0	 3.312500000000000e+00	 5.125000000000000e+00	 1.013843958769230e+01
0	 3.312500000000000e+00	 5.187499999999999e+00	 1.013259419076922e+01
0	 3.312499999999999e+00	 5.250000000000000e+00	 1.012662250769230e+01
0	 3.312500000000000e+00	 5.312499999999999e+00	 1.012052453846152e+01
0	 3.312499999999999e+00	 5.374999999999998e+00	 1.011430028307691e+01
0	 3.312499999999999e+00	 5.437499999999999e+00	 1.010794974153846e+01
0	 3.312500000000000e+00	 5.499999999999998e+00	 1.010147291384614e+01
0	 3.312499999999999e+00	 5.562499999999997e+00	 1.009486979999999e+01
0	 3.312500000000000e+00	 5.625000000000000e+00	 1.008814039999999e+01
0	 3.374999999999999e+00	 5.000000000000000e+00	 1.015920455384617e+01
0	 3.374999999999999e+00	 5.062500000000000e+00	 1.015339537538460e+01
0	 3.375000000000000e+00	 5.125000000000000e+00	 1.014747083076922e+01
0	 3.374999999999999e+00	 5.187500000000000e+00	 1.014143092000000e+01
0	 3.374999999999999e+00	 5.249999999999999e+00	 1.013527564307691e+01
0	 3.374999999999999e+00	 5.312499999999999e+00	 1.012900499999999e+01
0	 3.374999999999999e+00	 5.374999999999998e+00	 1.012261899076923e+01
0	 3.374999999999999e+00	 5.437499999999999e+00	 1.011611761538461e+01
0	 3.374999999999999e+00	 5.499999999999999e+00	 1.010950087384616e+01
0	 3.375000000000000e+00	 5.562499999999998e+00	 1.010276876615386e+01
0	 3.374999999999999e+00	 5.625000000000000e+00	 1.009592129230768e+01
0	 3.437499999999999e+00	 5.000000000000000e+00	 1.016778807692308e+01
0	 3.437499999999999e+00	 5.062500000000000e+00	 1.016179504615384e+01
0	 3.437499999999999e+00	 5.124999999999999e+00	 1.015569756923077e+01
0	 3.437499999999999e+00	 5.187500000000000e+00	 1.014949564615384e+01
0	 3.437499999999998e+00	 5.249999999999998e+00	 1.014318927692307e+01
0	 3.437499999999999e+00	 5.312499999999999e+00	 1.013677846153845e+01
0	 3.437500000000000e+00	 5.375000000000000e+00	 1.013026319999999e+01
0	 3.437499999999999e+00	 5.437499999999998e+00	 1.012364349230769e+01
0	 3.437499999999999e+00	 5.499999999999998e+00	 1.011691933846154e+01
0	 3.437500000000000e+00	 5.562499999999999e+00	 1.011009073846153e+01
0	 3.437499999999999e+00	 5.625000000000000e+00	 1.010315769230769e+01
0	 3.499999999999999e+00	 5.000000000000001e+00	 1.017550209230770e+01
0	 3.499999999999999e+00	 5.062499999999999e+00	 1.016935771076922e+01
0	 3.499999999999997e+00	 5.125000000000000e+00	 1.016311980307691e+01
0	 3.499999999999999e+00	 5.187500000000000e+00	 1.015678836923076e+01
0	 3.499999999999999e+00	 5.250000000000001e+00	 1.015036340923075e+01
0	 3.500000000000000e+00	 5.312500000000001e+00	 1.014384492307693e+01
0	 3.499999999999999e+00	 5.374999999999999e+00	 1.013723291076923e+01
0	 3.499999999999999e+00	 5.437499999999999e+00	 1.013052737230770e+01
0	 3.499999999999999e+00	 5.499999999999998e+00	 1.012372830769230e+01
0	 3.499999999999998e+00	 5.562499999999998e+00	 1.011683571692307e+01
0	 3.499999999999999e+00	 5.625000000000000e+00	 1.010984959999999e+01
0	 3.562499999999998e+00	 4.999999999999999e+00	 1.018234659999999e+01
0	 3.562499999999999e+00	 5.062500000000000e+00	 1.017608336923076e+01
0	 3.562499999999999e+00	 5.125000000000000e+00	 1.016973753230768e+01
0	 3.562499999999998e+00	 5.187500000000000e+00	 1.016330908923075e+01
0	 3.562499999999999e+00	 5.250000000000000e+00	 1.015679804000000e+01
0	 3.562499999999999e+00	 5.312500000000000e+00	 1.015020438461539e+01
0	 3.562499999999999e+00	 5.374999999999999e+00	 1.014352812307692e+01
0	 3.562499999999999e+00	 5.437499999999998e+00	 1.013676925538460e+01
0	 3.562499999999998e+00	 5.499999999999998e+00	 1.012992778153845e+01
0	 3.562499999999999e+00	 5.562499999999999e+00	 1.012300370153845e+01
0	 3.562499999999998e+00	 5.625000000000000e+00	 1.011599701538462e+01
0	 3.624999999999999e+00	 5.000000000000000e+00	 1.018832159999999e+01
0	 3.624999999999999e+00	 5.062500000000002e+00	 1.018197202153847e+01
0	 3.624999999999998e+00	 5.124999999999999e+00	 1.017555075692308e+01
0	 3.624999999999999e+00	 5.187500000000000e+00	 1.016905780615385e+01
0	 3.624999999999998e+00	 5.249999999999998e+00	 1.016249316923076e+01
0	 3.624999999999998e+00	 5.312499999999999e+00	 1.015585684615385e+01
0	 3.624999999999998e+00	 5.374999999999998e+00	 1.014914883692307e+01
0	 3.624999999999998e+00	 5.437499999999998e+00	 1.014236914153845e+01
0	 3.624999999999998e+00	 5.499999999999999e+00	 1.013551776000001e+01
0	 3.624999999999998e+00	 5.562499999999998e+00	 1.012859469230769e+01
0	 3.624999999999999e+00	 5.625000000000000e+00	 1.012159993846156e+01
0	 3.687499999999998e+00	 5.000000000000000e+00	 1.019342709230770e+01
0	 3.687499999999998e+00	 5.062500000000000e+00	 1.018702366769230e+01
0	 3.687499999999998e+00	 5.125000000000001e+00	 1.018055947692307e+01
0	 3.687499999999998e+00	 5.187499999999999e+00	 1.017403452000000e+01
0	 3.687499999999998e+00	 5.249999999999999e+00	 1.016744879692308e+01
0	 3.687499999999998e+00	 5.312499999999998e+00	 1.016080230769231e+01
0	 3.687499999999998e+00	 5.374999999999997e+00	 1.015409505230769e+01
0	 3.687499999999998e+00	 5.437499999999998e+00	 1.014732703076923e+01
0	 3.687499999999998e+00	 5.499999999999999e+00	 1.014049824307693e+01
0	 3.687499999999997e+00	 5.562499999999998e+00	 1.013360868923077e+01
0	 3.687499999999998e+00	 5.625000000000000e+00	 1.012665836923076e+01
0	 3.750000000000000e+00	 5.000000000000000e+00	 1.019766307692307e+01
0	 3.750000000000000e+00	 5.062500000000000e+00	 1.019123830769231e+01
0	 3.750000000000001e+00	 5.125000000000001e+00	 1.018476369230769e+01
0	 3.750000000000000e+00	 5.187499999999999e+00	 1.017823923076921e+01
0	 3.750000000000000e+00	 5.249999999999999e+00	 1.017166492307692e+01
0	 3.750000000000000e+00	 5.312499999999999e+00	 1.016504076923077e+01
0	 3.750000000000000e+00	 5.374999999999998e+00	 1.015836676923077e+01
0	 3.750000000000000e+00	 5.437499999999998e+00	 1.015164292307692e+01
0	 3.750000000000000e+00	 5.499999999999998e+00	 1.014486923076924e+01
0	 3.750000000000000e+00	 5.562499999999998e+00	 1.013804569230769e+01
0	 3.750000000000000e+00	 5.625000000000000e+00	 1.013117230769231e+01
0	 3.125000000000000e+00	 5.625000000000000e+00	 1.006153076923077e+01
0	 3.125000000000000e+00	 5.687500000000000e+00	 1.005871012307692e+01
0	 3.125000000000000e+00	 5.750000000000000e+00	 1.005580418461538e+01
0	 3.125000000000000e+00	 5.812499999999999e+00	 1.005281295384617e+01
0	 3.125000000000000e+00	 5.874999999999999e+00	 1.004973643076923e+01
0	 3.125000000000000e+00	 5.937499999999999e+00	 1.004657461538462e+01
0	 3.125000000000000e+00	 5.999999999999998e+00	 1.004332750769232e+01
0	 3.125000000000000e+00	 6.062499999999998e+00	 1.003999510769231e+01
0	 3.125000000000000e+00	 6.124999999999998e+00	 1.003657741538461e+01
0	 3.125000000000000e+00	 6.187499999999998e+00	 1.003307443076924e+01
0	 3.125000000000000e+00	 6.250000000000000e+00	 1.002948615384615e+01
0	 3.187500000000000e+00	 5.625000000000000e+00	 1.007094513846153e+01
0	 3.187500000000000e+00	 5.687499999999999e+00	 1.006790801538462e+01
0	 3.187500000000000e+00	 5.749999999999999e+00	 1.006478656000001e+01
0	 3.187500000000000e+00	 5.812499999999998e+00	 1.006158077230769e+01
0	 3.187500000000000e+00	 5.875000000000000e+00	 1.005829065230770e+01
0	 3.187500000000000e+00	 5.937500000000001e+00	 1.005491620000000e+01
0	 3.187500000000001e+00	 5.999999999999999e+00	 1.005145741538461e+01
0	 3.187500000000000e+00	 6.062500000000000e+00	 1.004791429846153e+01
0	 3.187500000000001e+00	 6.125000000000000e+00	 1.004428684923075e+01
0	 3.187499999999999e+00	 6.187499999999996e+00	 1.004057506769229e+01
0	 3.187500000000000e+00	 6.250000000000000e+00	 1.003677895384616e+01
0	 3.250000000000000e+00	 5.625000000000000e+00	 1.007981501538461e+01
0	 3.250000000000000e+00	 5.687499999999999e+00	 1.007657808615385e+01
0	 3.250000000000000e+00	 5.750000000000002e+00	 1.007325778461538e+01
0	 3.250000000000000e+00	 5.812499999999999e+00	 1.006985411076923e+01
0	 3.249999999999999e+00	 5.874999999999998e+00	 1.006636706461538e+01
0	 3.250000000000000e+00	 5.937499999999999e+00	 1.006279664615384e+01
0	 3.249999999999999e+00	 5.999999999999998e+00	 1.005914285538461e+01
0	 3.250000000000000e+00	 6.062499999999999e+00	 1.005540569230767e+01
0	 3.250000000000000e+00	 6.124999999999998e+00	 1.005158515692306e+01
0	 3.250000000000000e+00	 6.187499999999998e+00	 1.004768124923076e+01
0	 3.250000000000000e+00	 6.250000000000000e+00	 1.004369396923078e+01
0	 3.312500000000000e+00	 5.625000000000000e+00	 1.008814039999999e+01
0	 3.312499999999999e+00	 5.687500000000000e+00	 1.008472033538461e+01
0	 3.312500000000000e+00	 5.749999999999999e+00	 1.008121785846152e+01
0	 3.312500000000000e+00	 5.812499999999999e+00	 1.007763296923077e+01
0	 3.312499999999999e+00	 5.875000000000000e+00	 1.007396566769230e+01
0	 3.312500000000000e+00	 5.937500000000000e+00	 1.007021595384616e+01
0	 3.312499999999999e+00	 5.999999999999998e+00	 1.006638382769232e+01
0	 3.312499999999999e+00	 6.062499999999998e+00	 1.006246928923078e+01
0	 3.312500000000000e+00	 6.124999999999997e+00	 1.005847233846153e+01
0	 3.312499999999999e+00	 6.187499999999997e+00	 1.005439297538464e+01
0	 3.312500000000000e+00	 6.250000000000000e+00	 1.005023119999998e+01
0	 3.374999999999999e+00	 5.625000000000000e+00	 1.009592129230768e+01
0	 3.374999999999999e+00	 5.687500000000000e+00	 1.009233476307692e+01
0	 3.375000000000000e+00	 5.750000000000000e+00	 1.008866678153847e+01
0	 3.374999999999999e+00	 5.812500000000000e+00	 1.008491734769231e+01
0	 3.374999999999999e+00	 5.874999999999999e+00	 1.008108646153846e+01
0	 3.374999999999999e+00	 5.937499999999999e+00	 1.007717412307693e+01
0	 3.374999999999999e+00	 5.999999999999997e+00	 1.007318033230769e+01
0	 3.374999999999999e+00	 6.062499999999998e+00	 1.006910508923077e+01
0	 3.374999999999999e+00	 6.124999999999999e+00	 1.006494839384616e+01
0	 3.375000000000000e+00	 6.187499999999998e+00	 1.006071024615385e+01
0	 3.374999999999999e+00	 6.250000000000000e+00	 1.005639064615384e+01
0	 3.437499999999999e+00	 5.625000000000000e+00	 1.010315769230769e+01
0	 3.437499999999999e+00	 5.687500000000000e+00	 1.009942136923076e+01
0	 3.437499999999999e+00	 5.750000000000000e+00	 1.009560455384616e+01
0	 3.437499999999999e+00	 5.812500000000000e+00	 1.009170724615385e+01
0	 3.437499999999998e+00	 5.874999999999998e+00	 1.008772944615385e+01
0	 3.437499999999999e+00	 5.937499999999998e+00	 1.008367115384616e+01
0	 3.437500000000000e+00	 6.000000000000000e+00	 1.007953236923076e+01
0	 3.437499999999999e+00	 6.062499999999998e+00	 1.007531309230769e+01
0	 3.437499999999999e+00	 6.124999999999998e+00	 1.007101332307693e+01
0	 3.437500000000000e+00	 6.187499999999999e+00	 1.006663306153845e+01
0	 3.437499999999999e+00	 6.250000000000000e+00	 1.006217230769231e+01
0	 3.499999999999999e+00	 5.625000000000000e+00	 1.010984959999999e+01
0	 3.499999999999999e+00	 5.687499999999999e+00	 1.010598015384617e+01
0	 3.499999999999997e+00	 5.750000000000000e+00	 1.010203117538460e+01
0	 3.499999999999999e+00	 5.812499999999999e+00	 1.009800266461537e+01
0	 3.499999999999999e+00	 5.875000000000001e+00	 1.009389462153847e+01
0	 3.500000000000000e+00	 5.937499999999999e+00	 1.008970704615385e+01
0	 3.499999999999999e+00	 5.999999999999998e+00	 1.008543993846154e+01
0	 3.499999999999999e+00	 6.062499999999999e+00	 1.008109329846154e+01
0	 3.499999999999999e+00	 6.124999999999998e+00	 1.007666712615384e+01
0	 3.499999999999998e+00	 6.187499999999998e+00	 1.007216142153845e+01
0	 3.499999999999999e+00	 6.250000000000000e+00	 1.006757618461537e+01
0	 3.562499999999998e+00	 5.625000000000000e+00	 1.011599701538462e+01
0	 3.562499999999999e+00	 5.687500000000000e+00	 1.011201111692308e+01
0	 3.562499999999999e+00	 5.750000000000000e+00	 1.010794664615384e+01
0	 3.562499999999998e+00	 5.812499999999999e+00	 1.010380360307692e+01
0	 3.562499999999999e+00	 5.874999999999999e+00	 1.009958198769230e+01
0	 3.562499999999999e+00	 5.937500000000001e+00	 1.009528180000001e+01
0	 3.562499999999999e+00	 5.999999999999999e+00	 1.009090304000000e+01
0	 3.562499999999999e+00	 6.062499999999999e+00	 1.008644570769231e+01
0	 3.562499999999998e+00	 6.124999999999999e+00	 1.008190980307692e+01
0	 3.562499999999999e+00	 6.187499999999999e+00	 1.007729532615386e+01
0	 3.562499999999998e+00	 6.250000000000000e+00	 1.007260227692307e+01
0	 3.624999999999999e+00	 5.625000000000000e+00	 1.012159993846156e+01
0	 3.624999999999999e+00	 5.687500000000000e+00	 1.011751425846154e+01
0	 3.624999999999998e+00	 5.750000000000000e+00	 1.011335096615385e+01
0	 3.624999999999999e+00	 5.812499999999999e+00	 1.010911006153846e+01
0	 3.624999999999998e+00	 5.875000000000000e+00	 1.010479154461538e+01
0	 3.624999999999998e+00	 5.937500000000000e+00	 1.010039541538460e+01
0	 3.624999999999998e+00	 5.999999999999998e+00	 1.009592167384616e+01
0	 3.624999999999998e+00	 6.062499999999998e+00	 1.009137032000000e+01
0	 3.624999999999998e+00	 6.124999999999999e+00	 1.008674135384614e+01
0	 3.624999999999998e+00	 6.187499999999998e+00	 1.008203477538460e+01
0	 3.624999999999999e+00	 6.250000000000000e+00	 1.007725058461538e+01
0	 3.687499999999998e+00	 5.625000000000000e+00	 1.012665836923076e+01
0	 3.687499999999998e+00	 5.687500000000000e+00	 1.012248957846153e+01
0	 3.687499999999998e+00	 5.750000000000000e+00	 1.011824413538461e+01
0	 3.687499999999998e+00	 5.812499999999999e+00	 1.011392203999999e+01
0	 3.687499999999998e+00	 5.875000000000000e+00	 1.010952329230768e+01
0	 3.687499999999998e+00	 5.937499999999999e+00	 1.010504789230769e+01
0	 3.687499999999998e+00	 5.999999999999998e+00	 1.010049584000000e+01
0	 3.687499999999998e+00	 6.062499999999998e+00	 1.009586713538462e+01
0	 3.687499999999998e+00	 6.124999999999998e+00	 1.009116177846153e+01
0	 3.687499999999997e+00	 6.187499999999997e+00	 1.008637976923077e+01
0	 3.687499999999998e+00	 6.250000000000000e+00	 1.008152110769231e+01
0	 3.750000000000000e+00	 5.625000000000000e+00	 1.013117230769231e+01
0	 3.750000000000000e+00	 5.687500000000000e+00	 1.012693707692307e+01
0	 3.750000000000001e+00	 5.750000000000000e+00	 1.012262615384615e+01
0	 3.750000000000000e+00	 5.812499999999999e+00	 1.011823953846154e+01
0	 3.750000000000000e+00	 5.874999999999999e+00	 1.011377723076923e+01
0	 3.750000000000000e+00	 5.937499999999999e+00	 1.010923923076923e+01
0	 3.750000000000000e+00	 5.999999999999998e+00	 1.010462553846154e+01
0	 3.750000000000000e+00	 6.062499999999998e+00	 1.009993615384616e+01
0	 3.750000000000000e+00	 6.124999999999998e+00	 1.009517107692308e+01
0	 3.750000000000000e+00	 6.187499999999998e+00	 1.009033030769231e+01
0	 3.750000000000000e+00	 6.250000000000000e+00	 1.008541384615384e+01
0	 3.125000000000000e+00	 6.250000000000000e+00	 1.002948615384615e+01
0	 3.125000000000000e+00	 6.312500000000000e+00	 1.002807584615384e+01
0	 3.125000000000000e+00	 6.375000000000000e+00	 1.002660092307693e+01
0	 3.125000000000000e+00	 6.437499999999999e+00	 1.002506138461538e+01
0	 3.125000000000000e+00	 6.499999999999999e+00	 1.002345723076924e+01
0	 3.125000000000000e+00	 6.562499999999998e+00	 1.002178846153847e+01
0	 3.125000000000000e+00	 6.624999999999998e+00	 1.002005507692307e+01
0	 3.125000000000000e+00	 6.687499999999998e+00	 1.001825707692307e+01
0	 3.125000000000000e+00	 6.749999999999998e+00	 1.001639446153847e+01
0	 3.125000000000000e+00	 6.812499999999998e+00	 1.001446723076924e+01
0	 3.125000000000000e+00	 6.875000000000000e+00	 1.001247538461539e+01
0	 3.187500000000000e+00	 6.250000000000000e+00	 1.003677895384616e+01
0	 3.187500000000000e+00	 6.312500000000000e+00	 1.003515662769229e+01
0	 3.187500000000000e+00	 6.374999999999999e+00	 1.003347089538460e+01
0	 3.187500000000000e+00	 6.437500000000000e+00	 1.003172175692308e+01
0	 3.187500000000000e+00	 6.499999999999997e+00	 1.002990921230768e+01
0	 3.187500000000000e+00	 6.562500000000000e+00	 1.002803326153846e+01
0	 3.187500000000001e+00	 6.624999999999999e+00	 1.002609390461539e+01
0	 3.187500000000000e+00	 6.687499999999999e+00	 1.002409114153847e+01
0	 3.187500000000001e+00	 6.749999999999999e+00	 1.002202497230770e+01
0	 3.187499999999999e+00	 6.812499999999996e+00	 1.001989539692307e+01
0	 3.187500000000000e+00	 6.875000000000001e+00	 1.001770241538462e+01
0	 3.250000000000000e+00	 6.250000000000000e+00	 1.004369396923078e+01
0	 3.250000000000000e+00	 6.312499999999999e+00	 1.004187351692307e+01
0	 3.250000000000000e+00	 6.375000000000000e+00	 1.003999086769231e+01
0	 3.250000000000000e+00	 6.437499999999998e+00	 1.003804602153845e+01
0	 3.249999999999999e+00	 6.499999999999996e+00	 1.003603897846154e+01
0	 3.250000000000000e+00	 6.562499999999998e+00	 1.003396973846154e+01
0	 3.249999999999999e+00	 6.624999999999996e+00	 1.003183830153846e+01
0	 3.250000000000000e+00	 6.687499999999999e+00	 1.002964466769232e+01
0	 3.250000000000000e+00	 6.749999999999997e+00	 1.002738883692309e+01
0	 3.250000000000000e+00	 6.812500000000000e+00	 1.002507080923078e+01
0	 3.250000000000000e+00	 6.875000000000000e+00	 1.002269058461540e+01
0	 3.312500000000000e+00	 6.250000000000000e+00	 1.005023119999998e+01
0	 3.312499999999999e+00	 6.312499999999999e+00	 1.004822651384615e+01
0	 3.312500000000000e+00	 6.375000000000000e+00	 1.004616084000000e+01
0	 3.312500000000000e+00	 6.437500000000000e+00	 1.004403417846152e+01
0	 3.312499999999999e+00	 6.499999999999998e+00	 1.004184652923078e+01
0	 3.312500000000000e+00	 6.562499999999999e+00	 1.003959789230769e+01
0	 3.312499999999999e+00	 6.624999999999999e+00	 1.003728826769231e+01
0	 3.312499999999999e+00	 6.687499999999998e+00	 1.003491765538462e+01
0	 3.312500000000000e+00	 6.749999999999998e+00	 1.003248605538462e+01
0	 3.312499999999999e+00	 6.812499999999997e+00	 1.002999346769232e+01
0	 3.312500000000000e+00	 6.874999999999999e+00	 1.002743989230770e+01
0	 3.374999999999999e+00	 6.250000000000000e+00	 1.005639064615384e+01
0	 3.374999999999999e+00	 6.312499999999999e+00	 1.005421561846153e+01
0	 3.375000000000000e+00	 6.375000000000000e+00	 1.005198081230769e+01
0	 3.374999999999999e+00	 6.437499999999999e+00	 1.004968622769231e+01
0	 3.374999999999999e+00	 6.499999999999997e+00	 1.004733186461539e+01
0	 3.374999999999999e+00	 6.562499999999999e+00	 1.004491772307691e+01
0	 3.374999999999999e+00	 6.624999999999998e+00	 1.004244380307692e+01
0	 3.374999999999999e+00	 6.687499999999998e+00	 1.003991010461539e+01
0	 3.374999999999999e+00	 6.749999999999998e+00	 1.003731662769230e+01
0	 3.375000000000000e+00	 6.812499999999998e+00	 1.003466337230771e+01
0	 3.374999999999999e+00	 6.875000000000001e+00	 1.003195033846153e+01
0	 3.437499999999999e+00	 6.250000000000000e+00	 1.006217230769231e+01
0	 3.437499999999999e+00	 6.312500000000000e+00	 1.005984083076923e+01
0	 3.437499999999999e+00	 6.375000000000000e+00	 1.005745078461537e+01
0	 3.437499999999999e+00	 6.437499999999999e+00	 1.005500216923078e+01
0	 3.437499999999998e+00	 6.499999999999997e+00	 1.005249498461538e+01
0	 3.437499999999999e+00	 6.562499999999999e+00	 1.004992923076924e+01
0	 3.437500000000000e+00	 6.625000000000000e+00	 1.004730490769232e+01
0	 3.437499999999999e+00	 6.687499999999999e+00	 1.004462201538463e+01
0	 3.437499999999999e+00	 6.749999999999999e+00	 1.004188055384616e+01
0	 3.437500000000000e+00	 6.812499999999998e+00	 1.003908052307694e+01
0	 3.437499999999999e+00	 6.875000000000000e+00	 1.003622192307693e+01
0	 3.499999999999999e+00	 6.250000000000000e+00	 1.006757618461537e+01
0	 3.499999999999999e+00	 6.312499999999999e+00	 1.006510215076923e+01
0	 3.499999999999997e+00	 6.374999999999997e+00	 1.006257075692305e+01
0	 3.499999999999999e+00	 6.437499999999999e+00	 1.005998200307693e+01
0	 3.499999999999999e+00	 6.500000000000000e+00	 1.005733588923078e+01
0	 3.500000000000000e+00	 6.562500000000001e+00	 1.005463241538462e+01
0	 3.499999999999999e+00	 6.624999999999998e+00	 1.005187158153847e+01
0	 3.499999999999999e+00	 6.687499999999999e+00	 1.004905338769231e+01
0	 3.499999999999999e+00	 6.749999999999999e+00	 1.004617783384614e+01
0	 3.499999999999998e+00	 6.812499999999998e+00	 1.004324492000000e+01
0	 3.499999999999999e+00	 6.875000000000000e+00	 1.004025464615384e+01
0	 3.562499999999998e+00	 6.250000000000000e+00	 1.007260227692307e+01
0	 3.562499999999999e+00	 6.312499999999999e+00	 1.006999957846153e+01
0	 3.562499999999999e+00	 6.375000000000001e+00	 1.006734072923078e+01
0	 3.562499999999998e+00	 6.437499999999999e+00	 1.006462572923076e+01
0	 3.562499999999999e+00	 6.500000000000000e+00	 1.006185457846155e+01
0	 3.562499999999999e+00	 6.562499999999999e+00	 1.005902727692308e+01
0	 3.562499999999999e+00	 6.624999999999999e+00	 1.005614382461540e+01
0	 3.562499999999999e+00	 6.687499999999999e+00	 1.005320422153847e+01
0	 3.562499999999998e+00	 6.749999999999998e+00	 1.005020846769231e+01
0	 3.562499999999999e+00	 6.812499999999999e+00	 1.004715656307694e+01
0	 3.562499999999998e+00	 6.875000000000000e+00	 1.004404850769231e+01
0	 3.624999999999999e+00	 6.250000000000000e+00	 1.007725058461538e+01
0	 3.624999999999999e+00	 6.312500000000001e+00	 1.007453311384614e+01
0	 3.624999999999998e+00	 6.374999999999999e+00	 1.007176070153847e+01
0	 3.624999999999999e+00	 6.437500000000000e+00	 1.006893334769231e+01
0	 3.624999999999998e+00	 6.499999999999999e+00	 1.006605105230769e+01
0	 3.624999999999998e+00	 6.562499999999999e+00	 1.006311381538461e+01
0	 3.624999999999998e+00	 6.624999999999998e+00	 1.006012163692308e+01
0	 3.624999999999998e+00	 6.687499999999998e+00	 1.005707451692309e+01
0	 3.624999999999998e+00	 6.749999999999998e+00	 1.005397245538462e+01
0	 3.624999999999998e+00	 6.812499999999998e+00	 1.005081545230770e+01
0	 3.624999999999999e+00	 6.875000000000000e+00	 1.004760350769232e+01
0	 3.687499999999998e+00	 6.250000000000000e+00	 1.008152110769231e+01
0	 3.687499999999998e+00	 6.312500000000000e+00	 1.007870275692308e+01
0	 3.687499999999998e+00	 6.375000000000000e+00	 1.007583067384615e+01
0	 3.687499999999998e+00	 6.437499999999999e+00	 1.007290485846152e+01
0	 3.687499999999998e+00	 6.499999999999998e+00	 1.006992531076923e+01
0	 3.687499999999998e+00	 6.562499999999998e+00	 1.006689203076923e+01
0	 3.687499999999998e+00	 6.624999999999998e+00	 1.006380501846153e+01
0	 3.687499999999998e+00	 6.687499999999998e+00	 1.006066427384616e+01
0	 3.687499999999998e+00	 6.749999999999999e+00	 1.005746979692306e+01
0	 3.687499999999997e+00	 6.812499999999997e+00	 1.005422158769232e+01
0	 3.687499999999998e+00	 6.875000000000000e+00	 1.005091964615386e+01
0	 3.750000000000000e+00	 6.250000000000000e+00	 1.008541384615384e+01
0	 3.750000000000000e+00	 6.312500000000000e+00	 1.008250850769231e+01
0	 3.750000000000001e+00	 6.375000000000000e+00	 1.007955064615384e+01
0	 3.750000000000000e+00	 6.437499999999999e+00	 1.007654026153844e+01
0	 3.750000000000000e+00	 6.499999999999999e+00	 1.007347735384615e+01
0	 3.750000000000000e+00	 6.562499999999998e+00	 1.007036192307693e+01
0	 3.750000000000000e+00	 6.624999999999998e+00	 1.006719396923077e+01
0	 3.750000000000000e+00	 6.687499999999998e+00	 1.006397349230769e+01
0	 3.750000000000000e+00	 6.749999999999998e+00	 1.006070049230770e+01
0	 3.750000000000000e+00	 6.812499999999998e+00	 1.005737496923077e+01
0	 3.750000000000000e+00	 6.875000000000000e+00	 1.005399692307692e+01
0	 3.125000000000000e+00	 6.875000000000000e+00	 1.001247538461539e+01
0	 3.125000000000000e+00	 6.937500000000000e+00	 1.001183644615385e+01
0	 3.125000000000000e+00	 7.000000000000000e+00	 1.001116363076923e+01
0	 3.125000000000000e+00	 7.062500000000000e+00	 1.001045693846155e+01
0	 3.125000000000000e+00	 7.125000000000000e+00	 1.000971636923077e+01
0	 3.125000000000000e+00	 7.187499999999998e+00	 1.000894192307692e+01
0	 3.125000000000000e+00	 7.249999999999998e+00	 1.000813360000001e+01
0	 3.125000000000000e+00	 7.312499999999998e+00	 1.000729139999999e+01
0	 3.125000000000000e+00	 7.374999999999998e+00	 1.000641532307692e+01
0	 3.125000000000000e+00	 7.437499999999998e+00	 1.000550536923077e+01
0	 3.125000000000000e+00	 7.500000000000000e+00	 1.000456153846153e+01
0	 3.187500000000000e+00	 6.875000000000001e+00	 1.001770241538462e+01
0	 3.187500000000000e+00	 6.937499999999999e+00	 1.001689297538461e+01
0	 3.187500000000000e+00	 6.999999999999999e+00	 1.001604876307693e+01
0	 3.187500000000000e+00	 7.062500000000000e+00	 1.001516977846154e+01
0	 3.187500000000000e+00	 7.124999999999998e+00	 1.001425602153846e+01
0	 3.187500000000000e+00	 7.187499999999999e+00	 1.001330749230769e+01
0	 3.187500000000001e+00	 7.250000000000000e+00	 1.001232419076923e+01
0	 3.187500000000000e+00	 7.312499999999999e+00	 1.001130611692306e+01
0	 3.187500000000001e+00	 7.374999999999999e+00	 1.001025327076922e+01
0	 3.187499999999999e+00	 7.437499999999996e+00	 1.000916565230769e+01
0	 3.187500000000000e+00	 7.500000000000000e+00	 1.000804326153846e+01
0	 3.250000000000000e+00	 6.875000000000000e+00	 1.002269058461540e+01
0	 3.250000000000000e+00	 6.937499999999999e+00	 1.002172001230770e+01
0	 3.250000000000000e+00	 7.000000000000001e+00	 1.002071377230769e+01
0	 3.250000000000000e+00	 7.062499999999999e+00	 1.001967186461538e+01
0	 3.249999999999999e+00	 7.124999999999998e+00	 1.001859428923075e+01
0	 3.250000000000000e+00	 7.187499999999999e+00	 1.001748104615383e+01
0	 3.249999999999999e+00	 7.249999999999996e+00	 1.001633213538461e+01
0	 3.250000000000000e+00	 7.312499999999998e+00	 1.001514755692308e+01
0	 3.250000000000000e+00	 7.374999999999997e+00	 1.001392731076921e+01
0	 3.250000000000000e+00	 7.437500000000000e+00	 1.001267139692306e+01
0	 3.250000000000000e+00	 7.499999999999999e+00	 1.001137981538458e+01
0	 3.312500000000000e+00	 6.874999999999999e+00	 1.002743989230770e+01
0	 3.312499999999999e+00	 6.937499999999999e+00	 1.002631755692309e+01
0	 3.312500000000000e+00	 7.000000000000000e+00	 1.002515865846155e+01
0	 3.312500000000000e+00	 7.062500000000000e+00	 1.002396319692306e+01
0	 3.312499999999999e+00	 7.124999999999999e+00	 1.002273117230770e+01
0	 3.312500000000000e+00	 7.187499999999999e+00	 1.002146258461539e+01
0	 3.312499999999999e+00	 7.250000000000000e+00	 1.002015743384615e+01
0	 3.312499999999999e+00	 7.312499999999999e+00	 1.001881571999999e+01
0	 3.312500000000000e+00	 7.374999999999997e+00	 1.001743744307692e+01
0	 3.312499999999999e+00	 7.437499999999998e+00	 1.001602260307691e+01
0	 3.312500000000000e+00	 7.500000000000000e+00	 1.001457119999999e+01
0	 3.374999999999999e+00	 6.875000000000001e+00	 1.003195033846153e+01
0	 3.374999999999999e+00	 6.937499999999999e+00	 1.003068560923076e+01
0	 3.375000000000000e+00	 7.000000000000001e+00	 1.002938342153846e+01
0	 3.374999999999999e+00	 7.062500000000000e+00	 1.002804377538462e+01
0	 3.374999999999999e+00	 7.124999999999999e+00	 1.002666667076924e+01
0	 3.374999999999999e+00	 7.187499999999999e+00	 1.002525210769229e+01
0	 3.374999999999999e+00	 7.249999999999997e+00	 1.002380008615383e+01
0	 3.374999999999999e+00	 7.312499999999998e+00	 1.002231060615383e+01
0	 3.374999999999999e+00	 7.374999999999999e+00	 1.002078366769231e+01
0	 3.375000000000000e+00	 7.437499999999998e+00	 1.001921927076921e+01
0	 3.374999999999999e+00	 7.500000000000000e+00	 1.001761741538460e+01
0	 3.437499999999999e+00	 6.875000000000000e+00	 1.003622192307693e+01
0	 3.437499999999999e+00	 6.937500000000000e+00	 1.003482416923076e+01
0	 3.437499999999999e+00	 7.000000000000000e+00	 1.003338806153847e+01
0	 3.437499999999999e+00	 7.062500000000000e+00	 1.003191359999999e+01
0	 3.437499999999998e+00	 7.124999999999997e+00	 1.003040078461540e+01
0	 3.437499999999999e+00	 7.187499999999999e+00	 1.002884961538461e+01
0	 3.437500000000000e+00	 7.249999999999999e+00	 1.002726009230769e+01
0	 3.437499999999999e+00	 7.312499999999998e+00	 1.002563221538460e+01
0	 3.437499999999999e+00	 7.374999999999997e+00	 1.002396598461539e+01
0	 3.437500000000000e+00	 7.437499999999998e+00	 1.002226139999998e+01
0	 3.437499999999999e+00	 7.500000000000000e+00	 1.002051846153845e+01
0	 3.499999999999999e+00	 6.875000000000000e+00	 1.004025464615384e+01
0	 3.499999999999999e+00	 6.937500000000000e+00	 1.003873323692310e+01
0	 3.499999999999997e+00	 6.999999999999998e+00	 1.003717257846153e+01
0	 3.499999999999999e+00	 7.062500000000000e+00	 1.003557267076923e+01
0	 3.499999999999999e+00	 7.125000000000000e+00	 1.003393351384615e+01
0	 3.500000000000000e+00	 7.187500000000000e+00	 1.003225510769231e+01
0	 3.499999999999999e+00	 7.249999999999998e+00	 1.003053745230768e+01
0	 3.499999999999999e+00	 7.312499999999999e+00	 1.002878054769230e+01
0	 3.499999999999999e+00	 7.374999999999999e+00	 1.002698439384613e+01
0	 3.499999999999998e+00	 7.437499999999998e+00	 1.002514899076922e+01
0	 3.499999999999999e+00	 7.499999999999999e+00	 1.002327433846153e+01
0	 3.562499999999998e+00	 6.875000000000000e+00	 1.004404850769231e+01
0	 3.562499999999999e+00	 6.937499999999999e+00	 1.004241281230769e+01
0	 3.562499999999999e+00	 7.000000000000001e+00	 1.004073697230770e+01
0	 3.562499999999998e+00	 7.062499999999999e+00	 1.003902098769230e+01
0	 3.562499999999999e+00	 7.124999999999999e+00	 1.003726485846153e+01
0	 3.562499999999999e+00	 7.187500000000000e+00	 1.003546858461537e+01
0	 3.562499999999999e+00	 7.249999999999999e+00	 1.003363216615385e+01
0	 3.562499999999999e+00	 7.312500000000000e+00	 1.003175560307692e+01
0	 3.562499999999998e+00	 7.374999999999998e+00	 1.002983889538461e+01
0	 3.562499999999999e+00	 7.437499999999999e+00	 1.002788204307690e+01
0	 3.562499999999998e+00	 7.499999999999998e+00	 1.002588504615385e+01
0	 3.624999999999999e+00	 6.875000000000000e+00	 1.004760350769232e+01
0	 3.624999999999999e+00	 6.937500000000001e+00	 1.004586289538462e+01
0	 3.624999999999998e+00	 6.999999999999998e+00	 1.004408124307693e+01
0	 3.624999999999999e+00	 7.062500000000000e+00	 1.004225855076922e+01
0	 3.624999999999998e+00	 7.125000000000000e+00	 1.004039481846154e+01
0	 3.624999999999998e+00	 7.187500000000000e+00	 1.003849004615385e+01
0	 3.624999999999998e+00	 7.250000000000000e+00	 1.003654423384614e+01
0	 3.624999999999998e+00	 7.312499999999999e+00	 1.003455738153845e+01
0	 3.624999999999998e+00	 7.374999999999998e+00	 1.003252948923074e+01
0	 3.624999999999998e+00	 7.437499999999998e+00	 1.003046055692308e+01
0	 3.624999999999999e+00	 7.500000000000000e+00	 1.002835058461538e+01
0	 3.687499999999998e+00	 6.875000000000000e+00	 1.005091964615386e+01
0	 3.687499999999998e+00	 6.937500000000001e+00	 1.004908348615386e+01
0	 3.687499999999998e+00	 7.000000000000001e+00	 1.004720539076923e+01
0	 3.687499999999998e+00	 7.062500000000000e+00	 1.004528536000000e+01
0	 3.687499999999998e+00	 7.124999999999999e+00	 1.004332339384616e+01
0	 3.687499999999998e+00	 7.187499999999998e+00	 1.004131949230768e+01
0	 3.687499999999998e+00	 7.249999999999999e+00	 1.003927365538461e+01
0	 3.687499999999998e+00	 7.312499999999998e+00	 1.003718588307693e+01
0	 3.687499999999998e+00	 7.374999999999998e+00	 1.003505617538461e+01
0	 3.687499999999997e+00	 7.437499999999998e+00	 1.003288453230770e+01
0	 3.687499999999998e+00	 7.500000000000000e+00	 1.003067095384614e+01
0	 3.750000000000000e+00	 6.875000000000000e+00	 1.005399692307692e+01
0	 3.750000000000000e+00	 6.937500000000000e+00	 1.005207458461538e+01
0	 3.750000000000001e+00	 7.000000000000000e+00	 1.005010941538460e+01
0	 3.750000000000000e+00	 7.062500000000000e+00	 1.004810141538462e+01
0	 3.750000000000000e+00	 7.125000000000000e+00	 1.004605058461538e+01
0	 3.750000000000000e+00	 7.187499999999998e+00	 1.004395692307692e+01
0	 3.750000000000000e+00	 7.249999999999998e+00	 1.004182043076925e+01
0	 3.750000000000000e+00	 7.312499999999998e+00	 1.003964110769230e+01
0	 3.750000000000000e+00	 7.374999999999998e+00	 1.003741895384616e+01
0	 3.750000000000000e+00	 7.437499999999998e+00	 1.003515396923077e+01
0	 3.750000000000000e+00	 7.500000000000000e+00	 1.003284615384615e+01
0	 3.125000000000000e+00	 7.500000000000000e+00	 1.000456153846153e+01
0	 3.125000000000000e+00	 7.562500000000000e+00	 1.000431726153845e+01
0	 3.125000000000000e+00	 7.625000000000000e+00	 1.000405858461539e+01
0	 3.125000000000000e+00	 7.687499999999999e+00	 1.000378550769230e+01
0	 3.125000000000000e+00	 7.750000000000000e+00	 1.000349803076923e+01
0	 3.125000000000000e+00	 7.812499999999999e+00	 1.000319615384615e+01
0	 3.125000000000000e+00	 7.874999999999998e+00	 1.000287987692307e+01
0	 3.125000000000000e+00	 7.937499999999997e+00	 1.000254920000000e+01
0	 3.125000000000000e+00	 7.999999999999998e+00	 1.000220412307693e+01
0	 3.125000000000000e+00	 8.062499999999996e+00	 1.000184464615384e+01
0	 3.125000000000000e+00	 8.125000000000000e+00	 1.000147076923077e+01
0	 3.187500000000000e+00	 7.500000000000000e+00	 1.000804326153846e+01
0	 3.187500000000000e+00	 7.562499999999999e+00	 1.000766539230768e+01
0	 3.187500000000000e+00	 7.624999999999998e+00	 1.000727142461540e+01
0	 3.187500000000000e+00	 7.687499999999998e+00	 1.000686135846153e+01
0	 3.187500000000000e+00	 7.750000000000000e+00	 1.000643519384615e+01
0	 3.187500000000000e+00	 7.812500000000000e+00	 1.000599293076923e+01
0	 3.187500000000001e+00	 7.874999999999999e+00	 1.000553456923077e+01
0	 3.187500000000000e+00	 7.937499999999998e+00	 1.000506010923078e+01
0	 3.187500000000001e+00	 8.000000000000000e+00	 1.000456955076922e+01
0	 3.187499999999999e+00	 8.062499999999995e+00	 1.000406289384616e+01
0	 3.187500000000000e+00	 8.125000000000000e+00	 1.000354013846153e+01
0	 3.250000000000000e+00	 7.499999999999999e+00	 1.001137981538458e+01
0	 3.250000000000000e+00	 7.562500000000001e+00	 1.001087462153845e+01
0	 3.250000000000000e+00	 7.625000000000001e+00	 1.001035163076922e+01
0	 3.250000000000000e+00	 7.687500000000001e+00	 1.000981084307690e+01
0	 3.249999999999999e+00	 7.749999999999998e+00	 1.000925225846154e+01
0	 3.250000000000000e+00	 7.812499999999998e+00	 1.000867587692307e+01
0	 3.249999999999999e+00	 7.874999999999996e+00	 1.000808169846154e+01
0	 3.250000000000000e+00	 7.937499999999998e+00	 1.000746972307693e+01
0	 3.250000000000000e+00	 7.999999999999999e+00	 1.000683995076925e+01
0	 3.250000000000000e+00	 8.062499999999998e+00	 1.000619238153845e+01
0	 3.250000000000000e+00	 8.125000000000000e+00	 1.000552701538462e+01
0	 3.312500000000000e+00	 7.500000000000000e+00	 1.001457119999999e+01
0	 3.312499999999999e+00	 7.562500000000001e+00	 1.001394494923075e+01
0	 3.312500000000000e+00	 7.625000000000001e+00	 1.001329920307692e+01
0	 3.312500000000000e+00	 7.687500000000000e+00	 1.001263396153846e+01
0	 3.312499999999999e+00	 7.749999999999999e+00	 1.001194922461536e+01
0	 3.312500000000000e+00	 7.812499999999999e+00	 1.001124499230769e+01
0	 3.312499999999999e+00	 7.874999999999998e+00	 1.001052126461539e+01
0	 3.312499999999999e+00	 7.937499999999998e+00	 1.000977804153847e+01
0	 3.312500000000000e+00	 7.999999999999998e+00	 1.000901532307694e+01
0	 3.312499999999999e+00	 8.062499999999996e+00	 1.000823310923079e+01
0	 3.312500000000000e+00	 8.125000000000000e+00	 1.000743140000000e+01
0	 3.374999999999999e+00	 7.500000000000000e+00	 1.001761741538460e+01
0	 3.374999999999999e+00	 7.562500000000000e+00	 1.001687637538461e+01
0	 3.375000000000000e+00	 7.625000000000000e+00	 1.001611414153846e+01
0	 3.374999999999999e+00	 7.687500000000000e+00	 1.001533071384614e+01
0	 3.374999999999999e+00	 7.749999999999998e+00	 1.001452609230768e+01
0	 3.374999999999999e+00	 7.812500000000000e+00	 1.001370027692307e+01
0	 3.374999999999999e+00	 7.874999999999998e+00	 1.001285326769231e+01
0	 3.374999999999999e+00	 7.937499999999999e+00	 1.001198506461537e+01
0	 3.374999999999999e+00	 7.999999999999997e+00	 1.001109566769232e+01
0	 3.375000000000000e+00	 8.062500000000000e+00	 1.001018507692310e+01
0	 3.374999999999999e+00	 8.125000000000000e+00	 1.000925329230772e+01
0	 3.437499999999999e+00	 7.500000000000000e+00	 1.002051846153845e+01
0	 3.437499999999999e+00	 7.562499999999999e+00	 1.001966889999996e+01
0	 3.437499999999999e+00	 7.624999999999999e+00	 1.001879644615381e+01
0	 3.437499999999999e+00	 7.687500000000000e+00	 1.001790110000000e+01
0	 3.437499999999998e+00	 7.749999999999996e+00	 1.001698286153845e+01
0	 3.437499999999999e+00	 7.812499999999999e+00	 1.001604173076923e+01
0	 3.437500000000000e+00	 7.875000000000000e+00	 1.001507770769232e+01
0	 3.437499999999999e+00	 7.937499999999999e+00	 1.001409079230768e+01
0	 3.437499999999999e+00	 7.999999999999998e+00	 1.001308098461539e+01
0	 3.437500000000000e+00	 8.062500000000000e+00	 1.001204828461541e+01
0	 3.437499999999999e+00	 8.125000000000000e+00	 1.001099269230771e+01
0	 3.499999999999999e+00	 7.499999999999999e+00	 1.002327433846153e+01
0	 3.499999999999999e+00	 7.562500000000000e+00	 1.002232252307688e+01
0	 3.499999999999997e+00	 7.624999999999998e+00	 1.002134611692305e+01
0	 3.499999999999999e+00	 7.687499999999998e+00	 1.002034511999999e+01
0	 3.499999999999999e+00	 7.750000000000001e+00	 1.001931953230767e+01
0	 3.500000000000000e+00	 7.812500000000000e+00	 1.001826935384615e+01
0	 3.499999999999999e+00	 7.874999999999998e+00	 1.001719458461539e+01
0	 3.499999999999999e+00	 7.937499999999999e+00	 1.001609522461537e+01
0	 3.499999999999999e+00	 8.000000000000000e+00	 1.001497127384617e+01
0	 3.499999999999998e+00	 8.062499999999998e+00	 1.001382273230769e+01
0	 3.499999999999999e+00	 8.125000000000000e+00	 1.001264960000000e+01
0	 3.562499999999998e+00	 7.499999999999998e+00	 1.002588504615385e+01
0	 3.562499999999999e+00	 7.562500000000000e+00	 1.002483724461539e+01
0	 3.562499999999999e+00	 7.624999999999999e+00	 1.002376315384616e+01
0	 3.562499999999998e+00	 7.687500000000000e+00	 1.002266277384613e+01
0	 3.562499999999999e+00	 7.749999999999998e+00	 1.002153610461538e+01
0	 3.562499999999999e+00	 7.812500000000000e+00	 1.002038314615386e+01
0	 3.562499999999999e+00	 7.874999999999999e+00	 1.001920389846154e+01
0	 3.562499999999999e+00	 7.937500000000000e+00	 1.001799836153846e+01
0	 3.562499999999998e+00	 7.999999999999998e+00	 1.001676653538463e+01
0	 3.562499999999999e+00	 8.062500000000000e+00	 1.001550842000001e+01
0	 3.562499999999998e+00	 8.125000000000000e+00	 1.001422401538461e+01
0	 3.624999999999999e+00	 7.500000000000000e+00	 1.002835058461538e+01
0	 3.624999999999999e+00	 7.562500000000001e+00	 1.002721306461537e+01
0	 3.624999999999998e+00	 7.625000000000000e+00	 1.002604755692308e+01
0	 3.624999999999999e+00	 7.687500000000001e+00	 1.002485406153846e+01
0	 3.624999999999998e+00	 7.749999999999999e+00	 1.002363257846155e+01
0	 3.624999999999998e+00	 7.812499999999998e+00	 1.002238310769232e+01
0	 3.624999999999998e+00	 7.875000000000000e+00	 1.002110564923076e+01
0	 3.624999999999998e+00	 7.937499999999998e+00	 1.001980020307692e+01
0	 3.624999999999998e+00	 7.999999999999998e+00	 1.001846676923078e+01
0	 3.624999999999998e+00	 8.062500000000000e+00	 1.001710534769231e+01
0	 3.624999999999999e+00	 8.125000000000000e+00	 1.001571593846155e+01
0	 3.687499999999998e+00	 7.500000000000000e+00	 1.003067095384614e+01
0	 3.687499999999998e+00	 7.562500000000001e+00	 1.002944998307691e+01
0	 3.687499999999998e+00	 7.624999999999999e+00	 1.002819932615384e+01
0	 3.687499999999998e+00	 7.687499999999999e+00	 1.002691898307693e+01
0	 3.687499999999998e+00	 7.750000000000000e+00	 1.002560895384615e+01
0	 3.687499999999998e+00	 7.812499999999999e+00	 1.002426923846154e+01
0	 3.687499999999998e+00	 7.874999999999998e+00	 1.002289983692306e+01
0	 3.687499999999998e+00	 7.937499999999998e+00	 1.002150074923076e+01
0	 3.687499999999998e+00	 7.999999999999998e+00	 1.002007197538461e+01
0	 3.687499999999997e+00	 8.062499999999998e+00	 1.001861351538463e+01
0	 3.687499999999998e+00	 8.125000000000000e+00	 1.001712536923078e+01
0	 3.750000000000000e+00	 7.500000000000000e+00	 1.003284615384615e+01
0	 3.750000000000000e+00	 7.562500000000000e+00	 1.003154799999999e+01
0	 3.750000000000001e+00	 7.625000000000000e+00	 1.003021846153848e+01
0	 3.750000000000000e+00	 7.687499999999999e+00	 1.002885753846153e+01
0	 3.750000000000000e+00	 7.750000000000000e+00	 1.002746523076922e+01
0	 3.750000000000000e+00	 7.812499999999999e+00	 1.002604153846155e+01
0	 3.750000000000000e+00	 7.874999999999998e+00	 1.002458646153846e+01
0	 3.750000000000000e+00	 7.937499999999997e+00	 1.002310000000000e+01
0	 3.750000000000000e+00	 7.999999999999998e+00	 1.002158215384615e+01
0	 3.750000000000000e+00	 8.062499999999996e+00	 1.002003292307694e+01
0	 3.750000000000000e+00	 8.125000000000000e+00	 1.001845230769231e+01
0	 3.125000000000000e+00	 8.125000000000000e+00	 1.000147076923077e+01
0	 3.125000000000000e+00	 8.187500000000000e+00	 1.000139789230769e+01
0	 3.125000000000000e+00	 8.250000000000002e+00	 1.000132326153844e+01
0	 3.125000000000000e+00	 8.312500000000000e+00	 1.000124687692307e+01
0	 3.125000000000000e+00	 8.374999999999998e+00	 1.000116873846153e+01
0	 3.125000000000000e+00	 8.437500000000000e+00	 1.000108884615384e+01
0	 3.125000000000000e+00	 8.500000000000000e+00	 1.000100719999999e+01
0	 3.125000000000000e+00	 8.562499999999998e+00	 1.000092380000000e+01
0	 3.125000000000000e+00	 8.625000000000000e+00	 1.000083864615383e+01
0	 3.125000000000000e+00	 8.687499999999998e+00	 1.000075173846152e+01
0	 3.125000000000000e+00	 8.750000000000000e+00	 1.000066307692306e+01
0	 3.187500000000000e+00	 8.125000000000000e+00	 1.000354013846153e+01
0	 3.187500000000000e+00	 8.187500000000002e+00	 1.000336841230769e+01
0	 3.187500000000000e+00	 8.250000000000000e+00	 1.000319229230770e+01
0	 3.187500000000000e+00	 8.312499999999998e+00	 1.000301177846153e+01
0	 3.187500000000000e+00	 8.374999999999998e+00	 1.000282687076923e+01
0	 3.187500000000000e+00	 8.437500000000000e+00	 1.000263756923075e+01
0	 3.187500000000001e+00	 8.500000000000002e+00	 1.000244387384615e+01
0	 3.187500000000000e+00	 8.562500000000000e+00	 1.000224578461538e+01
0	 3.187500000000001e+00	 8.625000000000002e+00	 1.000204330153846e+01
0	 3.187499999999999e+00	 8.687499999999996e+00	 1.000183642461538e+01
0	 3.187500000000000e+00	 8.750000000000002e+00	 1.000162515384613e+01
0	 3.250000000000000e+00	 8.125000000000000e+00	 1.000552701538462e+01
0	 3.250000000000000e+00	 8.187499999999998e+00	 1.000526070461540e+01
0	 3.250000000000000e+00	 8.250000000000000e+00	 1.000498736000002e+01
0	 3.250000000000000e+00	 8.312500000000000e+00	 1.000470698153846e+01
0	 3.249999999999999e+00	 8.374999999999998e+00	 1.000441956923076e+01
0	 3.250000000000000e+00	 8.437499999999998e+00	 1.000412512307691e+01
0	 3.249999999999999e+00	 8.499999999999996e+00	 1.000382364307692e+01
0	 3.250000000000000e+00	 8.562500000000002e+00	 1.000351512923076e+01
0	 3.250000000000000e+00	 8.624999999999998e+00	 1.000319958153845e+01
0	 3.250000000000000e+00	 8.687499999999998e+00	 1.000287699999999e+01
0	 3.250000000000000e+00	 8.750000000000000e+00	 1.000254738461534e+01
0	 3.312500000000000e+00	 8.125000000000000e+00	 1.000743140000000e+01
0	 3.312499999999999e+00	 8.187500000000000e+00	 1.000707476923079e+01
0	 3.312500000000000e+00	 8.250000000000002e+00	 1.000670846461540e+01
0	 3.312500000000000e+00	 8.312499999999998e+00	 1.000633248615386e+01
0	 3.312499999999999e+00	 8.374999999999998e+00	 1.000594683384615e+01
0	 3.312500000000000e+00	 8.437500000000000e+00	 1.000555150769229e+01
0	 3.312499999999999e+00	 8.499999999999998e+00	 1.000514650769229e+01
0	 3.312499999999999e+00	 8.562500000000000e+00	 1.000473183384612e+01
0	 3.312500000000000e+00	 8.625000000000000e+00	 1.000430748615383e+01
0	 3.312499999999999e+00	 8.687499999999996e+00	 1.000387346461537e+01
0	 3.312500000000000e+00	 8.750000000000000e+00	 1.000342976923077e+01
0	 3.374999999999999e+00	 8.125000000000000e+00	 1.000925329230772e+01
0	 3.374999999999999e+00	 8.187499999999998e+00	 1.000881060615384e+01
0	 3.375000000000000e+00	 8.250000000000002e+00	 1.000835560615385e+01
0	 3.374999999999999e+00	 8.312500000000000e+00	 1.000788829230769e+01
0	 3.374999999999999e+00	 8.374999999999998e+00	 1.000740866461538e+01
0	 3.374999999999999e+00	 8.437500000000000e+00	 1.000691672307690e+01
0	 3.374999999999999e+00	 8.499999999999998e+00	 1.000641246769229e+01
0	 3.374999999999999e+00	 8.562499999999998e+00	 1.000589589846154e+01
0	 3.374999999999999e+00	 8.624999999999998e+00	 1.000536701538459e+01
0	 3.375000000000000e+00	 8.687499999999996e+00	 1.000482581846151e+01
0	 3.374999999999999e+00	 8.749999999999998e+00	 1.000427230769227e+01
0	 3.437499999999999e+00	 8.125000000000000e+00	 1.001099269230771e+01
0	 3.437499999999999e+00	 8.187499999999998e+00	 1.001046821538461e+01
0	 3.437499999999999e+00	 8.249999999999998e+00	 1.000992878461540e+01
0	 3.437499999999999e+00	 8.312500000000000e+00	 1.000937440000000e+01
0	 3.437499999999998e+00	 8.374999999999998e+00	 1.000880506153847e+01
0	 3.437499999999999e+00	 8.437499999999998e+00	 1.000822076923077e+01
0	 3.437500000000000e+00	 8.500000000000002e+00	 1.000762152307691e+01
0	 3.437499999999999e+00	 8.562499999999998e+00	 1.000700732307691e+01
0	 3.437499999999999e+00	 8.624999999999998e+00	 1.000637816923078e+01
0	 3.437500000000000e+00	 8.687500000000000e+00	 1.000573406153843e+01
0	 3.437499999999999e+00	 8.750000000000000e+00	 1.000507499999999e+01
0	 3.499999999999999e+00	 8.125000000000000e+00	 1.001264960000000e+01
0	 3.499999999999999e+00	 8.187500000000000e+00	 1.001204759692308e+01
0	 3.499999999999997e+00	 8.249999999999998e+00	 1.001142800000000e+01
0	 3.499999999999999e+00	 8.312500000000000e+00	 1.001079080923077e+01
0	 3.499999999999999e+00	 8.375000000000002e+00	 1.001013602461539e+01
0	 3.500000000000000e+00	 8.437500000000002e+00	 1.000946364615384e+01
0	 3.499999999999999e+00	 8.499999999999998e+00	 1.000877367384613e+01
0	 3.499999999999999e+00	 8.562500000000000e+00	 1.000806610769231e+01
0	 3.499999999999999e+00	 8.624999999999998e+00	 1.000734094769228e+01
0	 3.499999999999998e+00	 8.687499999999998e+00	 1.000659819384612e+01
0	 3.499999999999999e+00	 8.750000000000000e+00	 1.000583784615383e+01
0	 3.562499999999998e+00	 8.125000000000000e+00	 1.001422401538461e+01
0	 3.562499999999999e+00	 8.187500000000000e+00	 1.001354875076923e+01
0	 3.562499999999999e+00	 8.250000000000000e+00	 1.001285325230769e+01
0	 3.562499999999998e+00	 8.312500000000000e+00	 1.001213752000000e+01
0	 3.562499999999999e+00	 8.374999999999998e+00	 1.001140155384617e+01
0	 3.562499999999999e+00	 8.437500000000000e+00	 1.001064535384615e+01
0	 3.562499999999999e+00	 8.500000000000000e+00	 1.000986891999999e+01
0	 3.562499999999999e+00	 8.562499999999998e+00	 1.000907225230767e+01
0	 3.562499999999998e+00	 8.624999999999998e+00	 1.000825535076922e+01
0	 3.562499999999999e+00	 8.687500000000000e+00	 1.000741821538460e+01
0	 3.562499999999998e+00	 8.750000000000000e+00	 1.000656084615382e+01
0	 3.624999999999999e+00	 8.125000000000000e+00	 1.001571593846155e+01
0	 3.624999999999999e+00	 8.187500000000002e+00	 1.001497167692309e+01
0	 3.624999999999998e+00	 8.250000000000000e+00	 1.001420454153848e+01
0	 3.624999999999999e+00	 8.312500000000000e+00	 1.001341453230771e+01
0	 3.624999999999998e+00	 8.375000000000002e+00	 1.001260164923078e+01
0	 3.624999999999998e+00	 8.437500000000000e+00	 1.001176589230769e+01
0	 3.624999999999998e+00	 8.500000000000000e+00	 1.001090726153845e+01
0	 3.624999999999998e+00	 8.562499999999996e+00	 1.001002575692308e+01
0	 3.624999999999998e+00	 8.624999999999998e+00	 1.000912137846152e+01
0	 3.624999999999998e+00	 8.687499999999998e+00	 1.000819412615385e+01
0	 3.624999999999999e+00	 8.750000000000002e+00	 1.000724399999999e+01
0	 3.687499999999998e+00	 8.125000000000000e+00	 1.001712536923078e+01
0	 3.687499999999998e+00	 8.187500000000000e+00	 1.001631637538464e+01
0	 3.687499999999998e+00	 8.250000000000002e+00	 1.001548186769232e+01
0	 3.687499999999998e+00	 8.312499999999998e+00	 1.001462184615384e+01
0	 3.687499999999998e+00	 8.374999999999998e+00	 1.001373631076923e+01
0	 3.687499999999998e+00	 8.437499999999998e+00	 1.001282526153846e+01
0	 3.687499999999998e+00	 8.499999999999998e+00	 1.001188869846154e+01
0	 3.687499999999998e+00	 8.562499999999998e+00	 1.001092662153845e+01
0	 3.687499999999998e+00	 8.624999999999998e+00	 1.000993903076920e+01
0	 3.687499999999997e+00	 8.687499999999998e+00	 1.000892592615383e+01
0	 3.687499999999998e+00	 8.750000000000000e+00	 1.000788730769232e+01
0	 3.750000000000000e+00	 8.125000000000000e+00	 1.001845230769231e+01
0	 3.750000000000000e+00	 8.187500000000000e+00	 1.001758284615385e+01
0	 3.750000000000001e+00	 8.250000000000002e+00	 1.001668523076922e+01
0	 3.750000000000000e+00	 8.312500000000000e+00	 1.001575946153845e+01
0	 3.750000000000000e+00	 8.374999999999998e+00	 1.001480553846152e+01
0	 3.750000000000000e+00	 8.437500000000000e+00	 1.001382346153845e+01
0	 3.750000000000000e+00	 8.500000000000000e+00	 1.001281323076922e+01
0	 3.750000000000000e+00	 8.562499999999998e+00	 1.001177484615383e+01
0	 3.750000000000000e+00	 8.625000000000000e+00	 1.001070830769230e+01
0	 3.750000000000000e+00	 8.687499999999998e+00	 1.000961361538458e+01
0	 3.750000000000000e+00	 8.750000000000000e+00	 1.000849076923076e+01
0	 3.125000000000000e+00	 8.750000000000000e+00	 1.000066307692306e+01
0	 3.125000000000000e+00	 8.812500000000000e+00	 1.000060653692306e+01
0	 3.125000000000000e+00	 8.875000000000002e+00	 1.000055353230771e+01
0	 3.125000000000000e+00	 8.937499999999998e+00	 1.000050406307692e+01
0	 3.125000000000000e+00	 9.000000000000000e+00	 1.000045812923077e+01
0	 3.125000000000000e+00	 9.062500000000000e+00	 1.000041573076925e+01
0	 3.125000000000000e+00	 9.124999999999998e+00	 1.000037686769231e+01
0	 3.125000000000000e+00	 9.187499999999998e+00	 1.000034154000000e+01
0	 3.125000000000000e+00	 9.249999999999998e+00	 1.000030974769231e+01
0	 3.125000000000000e+00	 9.312499999999998e+00	 1.000028149076923e+01
0	 3.125000000000000e+00	 9.375000000000000e+00	 1.000025676923079e+01
0	 3.187500000000000e+00	 8.750000000000002e+00	 1.000162515384613e+01
0	 3.187500000000000e+00	 8.812499999999998e+00	 1.000151216630768e+01
0	 3.187500000000000e+00	 8.875000000000000e+00	 1.000139886215384e+01
0	 3.187500000000000e+00	 8.937500000000000e+00	 1.000128524138462e+01
0	 3.187500000000000e+00	 9.000000000000000e+00	 1.000117130399999e+01
0	 3.187500000000000e+00	 9.062500000000000e+00	 1.000105705000000e+01
0	 3.187500000000001e+00	 9.125000000000000e+00	 1.000094247938462e+01
0	 3.187500000000000e+00	 9.187499999999998e+00	 1.000082759215385e+01
0	 3.187500000000001e+00	 9.250000000000000e+00	 1.000071238830770e+01
0	 3.187499999999999e+00	 9.312499999999996e+00	 1.000059686784616e+01
0	 3.187500000000000e+00	 9.375000000000000e+00	 1.000048103076926e+01
0	 3.250000000000000e+00	 8.750000000000000e+00	 1.000254738461534e+01
0	 3.250000000000000e+00	 8.812500000000000e+00	 1.000238016799998e+01
0	 3.250000000000000e+00	 8.875000000000004e+00	 1.000220878276921e+01
0	 3.250000000000000e+00	 8.937500000000000e+00	 1.000203322892307e+01
0	 3.249999999999999e+00	 8.999999999999998e+00	 1.000185350646153e+01
0	 3.250000000000000e+00	 9.062500000000000e+00	 1.000166961538462e+01
0	 3.249999999999999e+00	 9.124999999999998e+00	 1.000148155569232e+01
0	 3.250000000000000e+00	 9.187500000000002e+00	 1.000128932738463e+01
0	 3.250000000000000e+00	 9.249999999999996e+00	 1.000109293046156e+01
0	 3.250000000000000e+00	 9.312499999999998e+00	 1.000089236492309e+01
0	 3.250000000000000e+00	 9.375000000000000e+00	 1.000068763076925e+01
0	 3.312500000000000e+00	 8.750000000000000e+00	 1.000342976923077e+01
0	 3.312499999999999e+00	 8.812500000000000e+00	 1.000321054199999e+01
0	 3.312500000000000e+00	 8.875000000000002e+00	 1.000298329415383e+01
0	 3.312500000000000e+00	 8.937500000000000e+00	 1.000274802569229e+01
0	 3.312499999999999e+00	 9.000000000000000e+00	 1.000250473661538e+01
0	 3.312500000000000e+00	 9.062499999999998e+00	 1.000225342692308e+01
0	 3.312499999999999e+00	 9.124999999999998e+00	 1.000199409661539e+01
0	 3.312499999999999e+00	 9.187500000000002e+00	 1.000172674569234e+01
0	 3.312500000000000e+00	 9.249999999999998e+00	 1.000145137415386e+01
0	 3.312499999999999e+00	 9.312499999999998e+00	 1.000116798200002e+01
0	 3.312500000000000e+00	 9.375000000000002e+00	 1.000087656923075e+01
0	 3.374999999999999e+00	 8.749999999999998e+00	 1.000427230769227e+01
0	 3.374999999999999e+00	 8.812500000000000e+00	 1.000400328830768e+01
0	 3.375000000000000e+00	 8.875000000000002e+00	 1.000372239630769e+01
0	 3.374999999999999e+00	 8.937500000000000e+00	 1.000342963169228e+01
0	 3.374999999999999e+00	 8.999999999999998e+00	 1.000312499446153e+01
0	 3.374999999999999e+00	 9.062500000000000e+00	 1.000280848461540e+01
0	 3.374999999999999e+00	 9.124999999999998e+00	 1.000248010215384e+01
0	 3.374999999999999e+00	 9.187500000000000e+00	 1.000213984707691e+01
0	 3.374999999999999e+00	 9.249999999999998e+00	 1.000178771938462e+01
0	 3.375000000000000e+00	 9.312500000000000e+00	 1.000142371907695e+01
0	 3.374999999999999e+00	 9.375000000000002e+00	 1.000104784615386e+01
0	 3.437499999999999e+00	 8.750000000000000e+00	 1.000507499999999e+01
0	 3.437499999999999e+00	 8.812500000000000e+00	 1.000475840692308e+01
0	 3.437499999999999e+00	 8.875000000000000e+00	 1.000442608923075e+01
0	 3.437499999999999e+00	 8.937500000000000e+00	 1.000407804692307e+01
0	 3.437499999999998e+00	 8.999999999999998e+00	 1.000371428000000e+01
0	 3.437499999999999e+00	 9.062500000000000e+00	 1.000333478846155e+01
0	 3.437500000000000e+00	 9.125000000000002e+00	 1.000293957230769e+01
0	 3.437499999999999e+00	 9.187499999999998e+00	 1.000252863153844e+01
0	 3.437499999999999e+00	 9.249999999999998e+00	 1.000210196615387e+01
0	 3.437500000000000e+00	 9.312500000000000e+00	 1.000165957615386e+01
0	 3.437499999999999e+00	 9.375000000000002e+00	 1.000120146153848e+01
0	 3.499999999999999e+00	 8.750000000000000e+00	 1.000583784615383e+01
0	 3.499999999999999e+00	 8.812500000000000e+00	 1.000547589784611e+01
0	 3.499999999999997e+00	 8.874999999999996e+00	 1.000509437292305e+01
0	 3.499999999999999e+00	 8.937499999999998e+00	 1.000469327138459e+01
0	 3.499999999999999e+00	 9.000000000000004e+00	 1.000427259323076e+01
0	 3.500000000000000e+00	 9.062500000000002e+00	 1.000383233846153e+01
0	 3.499999999999999e+00	 9.124999999999998e+00	 1.000337250707693e+01
0	 3.499999999999999e+00	 9.187500000000000e+00	 1.000289309907693e+01
0	 3.499999999999999e+00	 9.249999999999998e+00	 1.000239411446156e+01
0	 3.499999999999998e+00	 9.312499999999998e+00	 1.000187555323078e+01
0	 3.499999999999999e+00	 9.375000000000000e+00	 1.000133741538462e+01
0	 3.562499999999998e+00	 8.750000000000000e+00	 1.000656084615382e+01
0	 3.562499999999999e+00	 8.812499999999998e+00	 1.000615576107692e+01
0	 3.562499999999999e+00	 8.875000000000002e+00	 1.000572724738461e+01
0	 3.562499999999998e+00	 8.937500000000002e+00	 1.000527530507692e+01
0	 3.562499999999999e+00	 8.999999999999998e+00	 1.000479993415381e+01
0	 3.562499999999999e+00	 9.062500000000000e+00	 1.000430113461539e+01
0	 3.562499999999999e+00	 9.125000000000000e+00	 1.000377890646152e+01
0	 3.562499999999999e+00	 9.187500000000000e+00	 1.000323324969232e+01
0	 3.562499999999998e+00	 9.249999999999998e+00	 1.000266416430768e+01
0	 3.562499999999999e+00	 9.312500000000000e+00	 1.000207165030772e+01
0	 3.562499999999998e+00	 9.375000000000000e+00	 1.000145570769234e+01
0	 3.624999999999999e+00	 8.750000000000002e+00	 1.000724399999999e+01
0	 3.624999999999999e+00	 8.812500000000002e+00	 1.000679799661536e+01
0	 3.624999999999998e+00	 8.875000000000000e+00	 1.000632471261536e+01
0	 3.624999999999999e+00	 8.937500000000002e+00	 1.000582414799999e+01
0	 3.624999999999998e+00	 8.999999999999998e+00	 1.000529630276922e+01
0	 3.624999999999998e+00	 9.062499999999998e+00	 1.000474117692309e+01
0	 3.624999999999998e+00	 9.125000000000000e+00	 1.000415877046153e+01
0	 3.624999999999998e+00	 9.187499999999998e+00	 1.000354908338462e+01
0	 3.624999999999998e+00	 9.250000000000000e+00	 1.000291211569233e+01
0	 3.624999999999998e+00	 9.312499999999998e+00	 1.000224786738464e+01
0	 3.624999999999999e+00	 9.375000000000000e+00	 1.000155633846156e+01
0	 3.687499999999998e+00	 8.750000000000000e+00	 1.000788730769232e+01
0	 3.687499999999998e+00	 8.812500000000000e+00	 1.000740260446152e+01
0	 3.687499999999998e+00	 8.875000000000002e+00	 1.000688676861536e+01
0	 3.687499999999998e+00	 8.937500000000000e+00	 1.000633980015383e+01
0	 3.687499999999998e+00	 9.000000000000000e+00	 1.000576169907691e+01
0	 3.687499999999998e+00	 9.062500000000000e+00	 1.000515246538463e+01
0	 3.687499999999998e+00	 9.125000000000000e+00	 1.000451209907692e+01
0	 3.687499999999998e+00	 9.187499999999998e+00	 1.000384060015385e+01
0	 3.687499999999998e+00	 9.249999999999998e+00	 1.000313796861540e+01
0	 3.687499999999997e+00	 9.312499999999996e+00	 1.000240420446156e+01
0	 3.687499999999998e+00	 9.375000000000000e+00	 1.000163930769233e+01
0	 3.750000000000000e+00	 8.750000000000000e+00	 1.000849076923076e+01
0	 3.750000000000000e+00	 8.812500000000000e+00	 1.000796958461537e+01
0	 3.750000000000001e+00	 8.875000000000002e+00	 1.000741341538461e+01
0	 3.750000000000000e+00	 8.937499999999998e+00	 1.000682226153846e+01
0	 3.750000000000000e+00	 9.000000000000000e+00	 1.000619612307692e+01
0	 3.750000000000000e+00	 9.062500000000000e+00	 1.000553500000001e+01
0	 3.750000000000000e+00	 9.124999999999998e+00	 1.000483889230770e+01
0	 3.750000000000000e+00	 9.187499999999998e+00	 1.000410779999999e+01
0	 3.750000000000000e+00	 9.249999999999998e+00	 1.000334172307694e+01
0	 3.750000000000000e+00	 9.312499999999998e+00	 1.000254066153847e+01
0	 3.750000000000000e+00	 9.375000000000000e+00	 1.000170461538463e+01
0	 3.125000000000000e+00	 9.375000000000000e+00	 1.000025676923079e+01
0	 3.125000000000000e+00	 9.437499999999998e+00	 1.000023623538463e+01
0	 3.125000000000000e+00	 9.500000000000000e+00	 1.000021192615386e+01
0	 3.125000000000000e+00	 9.562500000000000e+00	 1.000018384153847e+01
0	 3.125000000000000e+00	 9.625000000000000e+00	 1.000015198153845e+01
0	 3.125000000000000e+00	 9.687499999999998e+00	 1.000011634615385e+01
0	 3.125000000000000e+00	 9.749999999999998e+00	 1.000007693538461e+01
0	 3.125000000000000e+00	 9.812500000000000e+00	 1.000003374923078e+01
0	 3.125000000000000e+00	 9.875000000000000e+00	 9.999986787692306e+00
0	 3.125000000000000e+00	 9.937499999999998e+00	 9.999936050769252e+00
0	 3.125000000000000e+00	 1.000000000000000e+01	 9.999881538461517e+00
0	 3.187500000000000e+00	 9.375000000000000e+00	 1.000048103076926e+01
0	 3.187500000000001e+00	 9.437500000000002e+00	 1.000046002876925e+01
0	 3.187499999999999e+00	 9.500000000000000e+00	 1.000042967507694e+01
0	 3.187500000000000e+00	 9.562500000000000e+00	 1.000038996969229e+01
0	 3.187500000000001e+00	 9.625000000000000e+00	 1.000034091261541e+01
0	 3.187500000000000e+00	 9.687500000000000e+00	 1.000028250384616e+01
0	 3.187500000000000e+00	 9.749999999999998e+00	 1.000021474338459e+01
0	 3.187500000000000e+00	 9.812499999999998e+00	 1.000013763123073e+01
0	 3.187500000000000e+00	 9.874999999999998e+00	 1.000005116738459e+01
0	 3.187499999999999e+00	 9.937499999999996e+00	 9.999955351846125e+00
0	 3.187500000000000e+00	 1.000000000000000e+01	 9.999850184615356e+00
0	 3.250000000000000e+00	 9.375000000000000e+00	 1.000068763076925e+01
0	 3.249999999999999e+00	 9.437499999999998e+00	 1.000066611753846e+01
0	 3.250000000000000e+00	 9.500000000000000e+00	 1.000062967630771e+01
0	 3.249999999999999e+00	 9.562500000000000e+00	 1.000057830707695e+01
0	 3.250000000000000e+00	 9.625000000000002e+00	 1.000051200984617e+01
0	 3.250000000000000e+00	 9.687500000000002e+00	 1.000043078461538e+01
0	 3.250000000000000e+00	 9.750000000000000e+00	 1.000033463138459e+01
0	 3.250000000000000e+00	 9.812500000000002e+00	 1.000022355015386e+01
0	 3.250000000000000e+00	 9.874999999999996e+00	 1.000009754092306e+01
0	 3.250000000000000e+00	 9.937500000000000e+00	 9.999956603692286e+00
0	 3.250000000000000e+00	 1.000000000000000e+01	 9.999800738461497e+00
0	 3.312500000000000e+00	 9.375000000000002e+00	 1.000087656923075e+01
0	 3.312499999999999e+00	 9.437500000000000e+00	 1.000085450169231e+01
0	 3.312499999999999e+00	 9.499999999999996e+00	 1.000081192984615e+01
0	 3.312500000000000e+00	 9.562500000000000e+00	 1.000074885369233e+01
0	 3.312499999999998e+00	 9.624999999999998e+00	 1.000066527323078e+01
0	 3.312500000000000e+00	 9.687500000000000e+00	 1.000056118846156e+01
0	 3.312499999999999e+00	 9.749999999999996e+00	 1.000043659938462e+01
0	 3.312499999999999e+00	 9.812499999999996e+00	 1.000029150599997e+01
0	 3.312499999999999e+00	 9.875000000000000e+00	 1.000012590830767e+01
0	 3.312499999999999e+00	 9.937499999999998e+00	 9.999939806307687e+00
0	 3.312499999999999e+00	 1.000000000000000e+01	 9.999733200000049e+00
0	 3.374999999999999e+00	 9.375000000000002e+00	 1.000104784615386e+01
0	 3.375000000000000e+00	 9.437500000000000e+00	 1.000102518123077e+01
0	 3.375000000000000e+00	 9.500000000000004e+00	 1.000097643569232e+01
0	 3.374999999999999e+00	 9.562500000000000e+00	 1.000090160953849e+01
0	 3.374999999999999e+00	 9.624999999999998e+00	 1.000080070276923e+01
0	 3.374999999999999e+00	 9.687499999999998e+00	 1.000067371538463e+01
0	 3.374999999999999e+00	 9.750000000000000e+00	 1.000052064738464e+01
0	 3.375000000000000e+00	 9.812499999999996e+00	 1.000034149876921e+01
0	 3.374999999999999e+00	 9.874999999999998e+00	 1.000013626953842e+01
0	 3.374999999999999e+00	 9.937499999999996e+00	 9.999904959692335e+00
0	 3.374999999999999e+00	 1.000000000000000e+01	 9.999647569230753e+00
0	 3.437499999999999e+00	 9.375000000000002e+00	 1.000120146153848e+01
0	 3.437499999999999e+00	 9.437499999999998e+00	 1.000117815615386e+01
0	 3.437499999999999e+00	 9.499999999999998e+00	 1.000112319384616e+01
0	 3.437499999999999e+00	 9.562500000000000e+00	 1.000103657461540e+01
0	 3.437499999999998e+00	 9.624999999999998e+00	 1.000091829846153e+01
0	 3.437499999999999e+00	 9.687500000000000e+00	 1.000076836538466e+01
0	 3.437500000000000e+00	 9.750000000000000e+00	 1.000058677538464e+01
0	 3.437499999999999e+00	 9.812499999999998e+00	 1.000037352846155e+01
0	 3.437499999999999e+00	 9.874999999999998e+00	 1.000012862461540e+01
0	 3.437499999999999e+00	 9.937499999999998e+00	 9.999852063846157e+00
0	 3.437499999999999e+00	 1.000000000000000e+01	 9.999543846153831e+00
0	 3.499999999999999e+00	 9.375000000000000e+00	 1.000133741538462e+01
0	 3.499999999999998e+00	 9.437499999999998e+00	 1.000131342646155e+01
0	 3.499999999999999e+00	 9.500000000000000e+00	 1.000125220430771e+01
0	 3.499999999999999e+00	 9.562500000000000e+00	 1.000115374892308e+01
0	 3.499999999999999e+00	 9.625000000000000e+00	 1.000101806030770e+01
0	 3.499999999999999e+00	 9.687499999999998e+00	 1.000084513846153e+01
0	 3.499999999999999e+00	 9.749999999999998e+00	 1.000063498338461e+01
0	 3.499999999999998e+00	 9.812499999999996e+00	 1.000038759507692e+01
0	 3.499999999999998e+00	 9.874999999999998e+00	 1.000010297353843e+01
0	 3.499999999999998e+00	 9.937499999999998e+00	 9.999781118769235e+00
0	 3.499999999999999e+00	 9.999999999999998e+00	 9.999422030769235e+00
0	 3.562499999999998e+00	 9.375000000000000e+00	 1.000145570769234e+01
0	 3.562499999999998e+00	 9.437499999999998e+00	 1.000143099215387e+01
0	 3.562499999999999e+00	 9.499999999999998e+00	 1.000136346707693e+01
0	 3.562499999999998e+00	 9.562500000000002e+00	 1.000125313246155e+01
0	 3.562499999999999e+00	 9.624999999999998e+00	 1.000109998830769e+01
0	 3.562499999999999e+00	 9.687500000000000e+00	 1.000090403461537e+01
0	 3.562499999999999e+00	 9.750000000000000e+00	 1.000066527138462e+01
0	 3.562499999999999e+00	 9.812500000000000e+00	 1.000038369861539e+01
0	 3.562499999999998e+00	 9.874999999999998e+00	 1.000005931630767e+01
0	 3.562499999999999e+00	 9.937499999999998e+00	 9.999692124461534e+00
0	 3.562499999999999e+00	 1.000000000000000e+01	 9.999282123076966e+00
0	 3.624999999999999e+00	 9.375000000000000e+00	 1.000155633846156e+01
0	 3.624999999999999e+00	 9.437500000000002e+00	 1.000153085323079e+01
0	 3.624999999999998e+00	 9.500000000000000e+00	 1.000145698215386e+01
0	 3.624999999999998e+00	 9.562500000000002e+00	 1.000133472523079e+01
0	 3.624999999999998e+00	 9.624999999999998e+00	 1.000116408246153e+01
0	 3.624999999999998e+00	 9.687499999999998e+00	 1.000094505384615e+01
0	 3.624999999999998e+00	 9.750000000000000e+00	 1.000067763938462e+01
0	 3.624999999999998e+00	 9.812499999999998e+00	 1.000036183907694e+01
0	 3.624999999999998e+00	 9.874999999999998e+00	 9.999997652923030e+00
0	 3.624999999999998e+00	 9.937499999999998e+00	 9.999585080923072e+00
0	 3.624999999999998e+00	 1.000000000000000e+01	 9.999124123076903e+00
0	 3.687499999999998e+00	 9.375000000000000e+00	 1.000163930769233e+01
0	 3.687499999999998e+00	 9.437500000000000e+00	 1.000161300969232e+01
0	 3.687499999999998e+00	 9.499999999999998e+00	 1.000153274953848e+01
0	 3.687499999999999e+00	 9.562500000000000e+00	 1.000139852723078e+01
0	 3.687499999999998e+00	 9.624999999999998e+00	 1.000121034276926e+01
0	 3.687499999999998e+00	 9.687499999999996e+00	 1.000096819615385e+01
0	 3.687499999999998e+00	 9.749999999999998e+00	 1.000067208738463e+01
0	 3.687499999999998e+00	 9.812499999999998e+00	 1.000032201646154e+01
0	 3.687499999999998e+00	 9.874999999999996e+00	 9.999917983384641e+00
0	 3.687499999999998e+00	 9.937499999999998e+00	 9.999459988153824e+00
0	 3.687499999999998e+00	 1.000000000000000e+01	 9.998948030769206e+00
0	 3.750000000000000e+00	 9.375000000000000e+00	 1.000170461538463e+01
0	 3.750000000000000e+00	 9.437499999999998e+00	 1.000167746153848e+01
0	 3.750000000000000e+00	 9.500000000000000e+00	 1.000159076923077e+01
0	 3.750000000000000e+00	 9.562500000000000e+00	 1.000144453846155e+01
0	 3.750000000000000e+00	 9.625000000000000e+00	 1.000123876923076e+01
0	 3.750000000000000e+00	 9.687499999999998e+00	 1.000097346153848e+01
0	 3.750000000000000e+00	 9.749999999999998e+00	 1.000064861538463e+01
0	 3.750000000000000e+00	 9.812500000000000e+00	 1.000026423076923e+01
0	 3.750000000000000e+00	 9.875000000000000e+00	 9.999820307692287e+00
0	 3.750000000000000e+00	 9.937499999999998e+00	 9.999316846153899e+00
0	 3.750000000000000e+00	 1.000000000000000e+01	 9.998753846153846e+00
0	 3.750000000000000e+00	 0.000000000000000e+00	 1.059571046153846e+01
0	 3.750000000000000e+00	 6.250000000000000e-02	 1.059507336923077e+01
0	 3.750000000000000e+00	 1.250000000000000e-01	 1.059270846153846e+01
0	 3.750000000000000e+00	 1.875000000000000e-01	 1.058861573846153e+01
0	 3.750000000000000e+00	 2.500000000000000e-01	 1.058279520000000e+01
0	 3.750000000000000e+00	 3.125000000000000e-01	 1.057524684615384e+01
0	 3.750000000000000e+00	 3.750000000000000e-01	 1.056597067692307e+01
0	 3.750000000000000e+00	 4.374999999999999e-01	 1.055496669230769e+01
0	 3.750000000000000e+00	 5.000000000000000e-01	 1.054223489230769e+01
0	 3.750000000000000e+00	 5.624999999999999e-01	 1.052777527692308e+01
0	 3.750000000000000e+00	 6.250000000000000e-01	 1.051158784615384e+01
0	 3.812500000000000e+00	 0.000000000000000e+00	 1.054472012615384e+01
0	 3.812499999999999e+00	 6.249999999999999e-02	 1.054908636492307e+01
0	 3.812499999999999e+00	 1.250000000000000e-01	 1.055183434830768e+01
0	 3.812499999999999e+00	 1.875000000000000e-01	 1.055296407630770e+01
0	 3.812500000000000e+00	 2.500000000000000e-01	 1.055247554892308e+01
0	 3.812500000000000e+00	 3.125000000000001e-01	 1.055036876615385e+01
0	 3.812500000000000e+00	 3.749999999999999e-01	 1.054664372800000e+01
0	 3.812500000000000e+00	 4.374999999999999e-01	 1.054130043446153e+01
0	 3.812500000000000e+00	 5.000000000000000e-01	 1.053433888553846e+01
0	 3.812500000000000e+00	 5.625000000000000e-01	 1.052575908123077e+01
0	 3.812500000000000e+00	 6.250000000000000e-01	 1.051556102153846e+01
0	 3.874999999999999e+00	 0.000000000000000e+00	 1.049942038153846e+01
0	 3.875000000000000e+00	 6.250000000000000e-02	 1.050792808123077e+01
0	 3.875000000000000e+00	 1.250000000000000e-01	 1.051492708553846e+01
0	 3.875000000000000e+00	 1.875000000000000e-01	 1.052041739446154e+01
0	 3.875000000000000e+00	 2.500000000000001e-01	 1.052439900800000e+01
0	 3.875000000000000e+00	 3.125000000000000e-01	 1.052687192615385e+01
0	 3.875000000000000e+00	 3.749999999999999e-01	 1.052783614892308e+01
0	 3.875000000000000e+00	 4.375000000000000e-01	 1.052729167630769e+01
0	 3.875000000000000e+00	 4.999999999999999e-01	 1.052523850830769e+01
0	 3.874999999999999e+00	 5.625000000000000e-01	 1.052167664492307e+01
0	 3.874999999999999e+00	 6.249999999999999e-01	 1.051660608615384e+01
0	 3.937500000000000e+00	 0.000000000000000e+00	 1.045981122769231e+01
0	 3.937499999999999e+00	 6.250000000000000e-02	 1.047159851815385e+01
0	 3.937500000000000e+00	 1.250000000000000e-01	 1.048198667323076e+01
0	 3.937500000000000e+00	 1.875000000000001e-01	 1.049097569292307e+01
0	 3.937500000000000e+00	 2.500000000000001e-01	 1.049856557723077e+01
0	 3.937500000000000e+00	 3.125000000000000e-01	 1.050475632615384e+01
0	 3.937499999999999e+00	 3.749999999999999e-01	 1.050954793969230e+01
0	 3.937500000000000e+00	 4.374999999999999e-01	 1.051294041784615e+01
0	 3.937499999999998e+00	 4.999999999999999e-01	 1.051493376061538e+01
0	 3.937500000000000e+00	 5.625000000000001e-01	 1.051552796800000e+01
0	 3.937499999999999e+00	 6.249999999999999e-01	 1.051472303999999e+01
0	 4.000000000000000e+00	 0.000000000000000e+00	 1.042589266461538e+01
0	 3.999999999999999e+00	 6.250000000000000e-02	 1.044009767569231e+01
0	 3.999999999999999e+00	 1.250000000000000e-01	 1.045301311138462e+01
0	 3.999999999999998e+00	 1.875000000000000e-01	 1.046463897169230e+01
0	 3.999999999999999e+00	 2.500000000000000e-01	 1.047497525661538e+01
0	 3.999999999999999e+00	 3.125000000000000e-01	 1.048402196615384e+01
0	 3.999999999999999e+00	 3.750000000000000e-01	 1.049177910030769e+01
0	 4.000000000000000e+00	 4.375000000000000e-01	 1.049824665907692e+01
0	 3.999999999999999e+00	 4.999999999999999e-01	 1.050342464246153e+01
0	 4.000000000000000e+00	 5.625000000000000e-01	 1.050731305046154e+01
0	 3.999999999999999e+00	 6.250000000000001e-01	 1.050991188307692e+01
0	 4.062499999999999e+00	 0.000000000000000e+00	 1.039766469230769e+01
0	 4.062499999999998e+00	 6.249999999999998e-02	 1.041342555384615e+01
0	 4.062500000000000e+00	 1.250000000000000e-01	 1.042800640000000e+01
0	 4.062499999999999e+00	 1.875000000000000e-01	 1.044140723076923e+01
0	 4.062499999999998e+00	 2.499999999999999e-01	 1.045362804615384e+01
0	 4.062499999999999e+00	 3.125000000000000e-01	 1.046466884615385e+01
0	 4.062499999999999e+00	 3.750000000000000e-01	 1.047452963076923e+01
0	 4.062499999999999e+00	 4.375000000000000e-01	 1.048321040000000e+01
0	 4.062499999999998e+00	 4.999999999999999e-01	 1.049071115384615e+01
0	 4.062500000000000e+00	 5.625000000000001e-01	 1.049703189230769e+01
0	 4.062499999999999e+00	 6.250000000000000e-01	 1.050217261538461e+01
0	 4.124999999999999e+00	 0.000000000000000e+00	 1.037512731076923e+01
0	 4.124999999999999e+00	 6.249999999999999e-02	 1.039158215261538e+01
0	 4.124999999999999e+00	 1.250000000000000e-01	 1.040696653907692e+01
0	 4.124999999999999e+00	 1.875000000000001e-01	 1.042128047015385e+01
0	 4.124999999999999e+00	 2.500000000000001e-01	 1.043452394584615e+01
0	 4.124999999999999e+00	 3.125000000000001e-01	 1.044669696615384e+01
0	 4.124999999999998e+00	 3.749999999999999e-01	 1.045779953107692e+01
0	 4.124999999999999e+00	 4.375000000000000e-01	 1.046783164061538e+01
0	 4.124999999999998e+00	 4.999999999999998e-01	 1.047679329476923e+01
0	 4.124999999999998e+00	 5.624999999999999e-01	 1.048468449353846e+01
0	 4.124999999999998e+00	 6.250000000000001e-01	 1.049150523692308e+01
0	 4.187499999999999e+00	 0.000000000000000e+00	 1.035828052000000e+01
0	 4.187499999999998e+00	 6.250000000000000e-02	 1.037456747200000e+01
0	 4.187499999999998e+00	 1.250000000000000e-01	 1.038989352861539e+01
0	 4.187499999999999e+00	 1.875000000000000e-01	 1.040425868984615e+01
0	 4.187499999999998e+00	 2.500000000000000e-01	 1.041766295569230e+01
0	 4.187499999999999e+00	 3.125000000000001e-01	 1.043010632615385e+01
0	 4.187499999999999e+00	 3.750000000000000e-01	 1.044158880123076e+01
0	 4.187499999999998e+00	 4.375000000000000e-01	 1.045211038092308e+01
0	 4.187499999999998e+00	 4.999999999999999e-01	 1.046167106523077e+01
0	 4.187499999999998e+00	 5.625000000000000e-01	 1.047027085415384e+01
0	 4.187499999999998e+00	 6.249999999999999e-01	 1.047790974769231e+01
0	 4.249999999999998e+00	 0.000000000000000e+00	 1.034712432000000e+01
0	 4.249999999999998e+00	 6.249999999999999e-02	 1.036238151200000e+01
0	 4.249999999999998e+00	 1.250000000000000e-01	 1.037678736861539e+01
0	 4.249999999999999e+00	 1.875000000000001e-01	 1.039034188984615e+01
0	 4.249999999999997e+00	 2.500000000000000e-01	 1.040304507569231e+01
0	 4.249999999999997e+00	 3.124999999999999e-01	 1.041489692615384e+01
0	 4.249999999999999e+00	 3.749999999999999e-01	 1.042589744123076e+01
0	 4.249999999999998e+00	 4.375000000000000e-01	 1.043604662092307e+01
0	 4.249999999999998e+00	 4.999999999999999e-01	 1.044534446523077e+01
0	 4.249999999999998e+00	 5.625000000000000e-01	 1.045379097415384e+01
0	 4.249999999999998e+00	 6.250000000000000e-01	 1.046138614769231e+01
0	 4.312499999999998e+00	 0.000000000000000e+00	 1.034165871076923e+01
0	 4.312499999999999e+00	 6.250000000000000e-02	 1.035502427261538e+01
0	 4.312499999999998e+00	 1.250000000000000e-01	 1.036764805907692e+01
0	 4.312499999999999e+00	 1.875000000000000e-01	 1.037953007015385e+01
0	 4.312499999999997e+00	 2.499999999999999e-01	 1.039067030584615e+01
0	 4.312499999999998e+00	 3.125000000000000e-01	 1.040106876615384e+01
0	 4.312499999999997e+00	 3.750000000000000e-01	 1.041072545107692e+01
0	 4.312499999999998e+00	 4.375000000000000e-01	 1.041964036061539e+01
0	 4.312499999999997e+00	 4.999999999999999e-01	 1.042781349476923e+01
0	 4.312499999999998e+00	 5.625000000000000e-01	 1.043524485353846e+01
0	 4.312499999999998e+00	 6.250000000000000e-01	 1.044193443692307e+01
0	 4.375000000000000e+00	 0.000000000000000e+00	 1.034188369230769e+01
0	 4.375000000000001e+00	 6.250000000000000e-02	 1.035249575384615e+01
0	 4.375000000000000e+00	 1.250000000000000e-01	 1.036247560000000e+01
0	 4.375000000000000e+00	 1.875000000000000e-01	 1.037182323076923e+01
0	 4.375000000000000e+00	 2.500000000000000e-01	 1.038053864615385e+01
0	 4.375000000000000e+00	 3.125000000000000e-01	 1.038862184615385e+01
0	 4.375000000000000e+00	 3.750000000000000e-01	 1.039607283076923e+01
0	 4.375000000000000e+00	 4.374999999999999e-01	 1.040289160000000e+01
0	 4.375000000000000e+00	 5.000000000000000e-01	 1.040907815384615e+01
0	 4.375000000000000e+00	 5.624999999999999e-01	 1.041463249230769e+01
0	 4.375000000000000e+00	 6.250000000000000e-01	 1.041955461538461e+01
0	 3.750000000000000e+00	 6.250000000000000e-01	 1.051158784615384e+01
0	 3.750000000000000e+00	 6.875000000000000e-01	 1.053383141538461e+01
0	 3.750000000000000e+00	 7.500000000000002e-01	 1.055506338461538e+01
0	 3.750000000000000e+00	 8.125000000000002e-01	 1.057528375384615e+01
0	 3.750000000000000e+00	 8.750000000000002e-01	 1.059449252307692e+01
0	 3.750000000000000e+00	 9.375000000000002e-01	 1.061268969230769e+01
0	 3.750000000000000e+00	 1.000000000000000e+00	 1.062987526153846e+01
0	 3.750000000000000e+00	 1.062500000000000e+00	 1.064604923076923e+01
0	 3.750000000000000e+00	 1.125000000000001e+00	 1.066121160000000e+01
0	 3.750000000000000e+00	 1.187500000000000e+00	 1.067536236923076e+01
0	 3.750000000000000e+00	 1.250000000000000e+00	 1.068850153846154e+01
0	 3.812500000000000e+00	 6.250000000000000e-01	 1.051556102153846e+01
0	 3.812500000000000e+00	 6.875000000000001e-01	 1.053381832476923e+01
0	 3.812500000000000e+00	 7.500000000000001e-01	 1.055115062184615e+01
0	 3.812500000000000e+00	 8.125000000000002e-01	 1.056755791276923e+01
0	 3.812500000000000e+00	 8.750000000000003e-01	 1.058304019753846e+01
0	 3.812500000000000e+00	 9.375000000000003e-01	 1.059759747615384e+01
0	 3.812500000000000e+00	 1.000000000000000e+00	 1.061122974861538e+01
0	 3.812500000000000e+00	 1.062500000000000e+00	 1.062393701492308e+01
0	 3.812500000000000e+00	 1.125000000000000e+00	 1.063571927507692e+01
0	 3.812499999999999e+00	 1.187500000000000e+00	 1.064657652907693e+01
0	 3.812500000000000e+00	 1.250000000000000e+00	 1.065650877692307e+01
0	 3.874999999999999e+00	 6.249999999999999e-01	 1.051660608615384e+01
0	 3.875000000000000e+00	 6.875000000000001e-01	 1.053139560369230e+01
0	 3.875000000000000e+00	 7.500000000000002e-01	 1.054534670892308e+01
0	 3.875000000000000e+00	 8.125000000000001e-01	 1.055845940184615e+01
0	 3.875000000000000e+00	 8.750000000000003e-01	 1.057073368246153e+01
0	 3.875000000000000e+00	 9.375000000000003e-01	 1.058216955076924e+01
0	 3.875000000000000e+00	 1.000000000000000e+00	 1.059276700676923e+01
0	 3.875000000000000e+00	 1.062500000000000e+00	 1.060252605046153e+01
0	 3.875000000000000e+00	 1.125000000000000e+00	 1.061144668184615e+01
0	 3.875000000000000e+00	 1.187500000000001e+00	 1.061952890092308e+01
0	 3.874999999999999e+00	 1.250000000000000e+00	 1.062677270769230e+01
0	 3.937499999999999e+00	 6.249999999999999e-01	 1.051472303999999e+01
0	 3.937500000000000e+00	 6.875000000000000e-01	 1.052656325215384e+01
0	 3.937500000000000e+00	 7.500000000000000e-01	 1.053765164584615e+01
0	 3.937499999999999e+00	 8.125000000000002e-01	 1.054798822107692e+01
0	 3.937499999999999e+00	 8.750000000000002e-01	 1.055757297784615e+01
0	 3.937499999999999e+00	 9.375000000000002e-01	 1.056640591615385e+01
0	 3.937499999999999e+00	 1.000000000000000e+00	 1.057448703600000e+01
0	 3.937500000000000e+00	 1.062500000000000e+00	 1.058181633738461e+01
0	 3.937500000000000e+00	 1.125000000000000e+00	 1.058839382030769e+01
0	 3.937500000000000e+00	 1.187500000000000e+00	 1.059421948476923e+01
0	 3.937499999999999e+00	 1.250000000000000e+00	 1.059929333076923e+01
0	 3.999999999999999e+00	 6.250000000000001e-01	 1.050991188307692e+01
0	 3.999999999999999e+00	 6.875000000000000e-01	 1.051932127015384e+01
0	 3.999999999999998e+00	 7.500000000000000e-01	 1.052806543261538e+01
0	 3.999999999999999e+00	 8.125000000000001e-01	 1.053614437046154e+01
0	 4.000000000000000e+00	 8.750000000000003e-01	 1.054355808369231e+01
0	 3.999999999999999e+00	 9.375000000000000e-01	 1.055030657230769e+01
0	 4.000000000000000e+00	 1.000000000000000e+00	 1.055638983630769e+01
0	 3.999999999999999e+00	 1.062500000000000e+00	 1.056180787569231e+01
0	 4.000000000000000e+00	 1.125000000000000e+00	 1.056656069046154e+01
0	 4.000000000000000e+00	 1.187500000000000e+00	 1.057064828061539e+01
0	 3.999999999999999e+00	 1.250000000000000e+00	 1.057407064615384e+01
0	 4.062499999999999e+00	 6.250000000000000e-01	 1.050217261538461e+01
0	 4.062499999999998e+00	 6.875000000000000e-01	 1.050966965769230e+01
0	 4.062499999999999e+00	 7.500000000000001e-01	 1.051658806923077e+01
0	 4.062499999999999e+00	 8.125000000000002e-01	 1.052292784999999e+01
0	 4.062499999999999e+00	 8.750000000000003e-01	 1.052868899999999e+01
0	 4.062500000000000e+00	 9.375000000000002e-01	 1.053387151923077e+01
0	 4.062499999999999e+00	 1.000000000000000e+00	 1.053847540769230e+01
0	 4.062499999999999e+00	 1.062500000000000e+00	 1.054250066538461e+01
0	 4.062499999999999e+00	 1.125000000000000e+00	 1.054594729230769e+01
0	 4.062499999999999e+00	 1.187500000000001e+00	 1.054881528846153e+01
0	 4.062499999999999e+00	 1.250000000000000e+00	 1.055110465384615e+01
0	 4.124999999999998e+00	 6.250000000000001e-01	 1.049150523692308e+01
0	 4.124999999999997e+00	 6.874999999999999e-01	 1.049760841476923e+01
0	 4.124999999999999e+00	 7.500000000000003e-01	 1.050321955569231e+01
0	 4.124999999999998e+00	 8.125000000000000e-01	 1.050833865969231e+01
0	 4.124999999999998e+00	 8.750000000000001e-01	 1.051296572676924e+01
0	 4.124999999999999e+00	 9.375000000000003e-01	 1.051710075692308e+01
0	 4.124999999999999e+00	 1.000000000000000e+00	 1.052074375015384e+01
0	 4.124999999999998e+00	 1.062500000000000e+00	 1.052389470646154e+01
0	 4.124999999999999e+00	 1.125000000000000e+00	 1.052655362584615e+01
0	 4.124999999999997e+00	 1.187500000000000e+00	 1.052872050830769e+01
0	 4.124999999999998e+00	 1.250000000000000e+00	 1.053039535384616e+01
0	 4.187499999999998e+00	 6.249999999999999e-01	 1.047790974769231e+01
0	 4.187499999999998e+00	 6.875000000000000e-01	 1.048313754138461e+01
0	 4.187499999999999e+00	 7.500000000000002e-01	 1.048795989200000e+01
0	 4.187499999999998e+00	 8.125000000000000e-01	 1.049237679953846e+01
0	 4.187500000000000e+00	 8.750000000000002e-01	 1.049638826400000e+01
0	 4.187499999999999e+00	 9.375000000000004e-01	 1.049999428538461e+01
0	 4.187499999999997e+00	 1.000000000000000e+00	 1.050319486369230e+01
0	 4.187499999999999e+00	 1.062500000000001e+00	 1.050598999892308e+01
0	 4.187499999999998e+00	 1.125000000000000e+00	 1.050837969107692e+01
0	 4.187499999999998e+00	 1.187500000000000e+00	 1.051036394015384e+01
0	 4.187499999999998e+00	 1.250000000000000e+00	 1.051194274615385e+01
0	 4.249999999999998e+00	 6.250000000000000e-01	 1.046138614769231e+01
0	 4.249999999999998e+00	 6.875000000000000e-01	 1.046625703753846e+01
0	 4.249999999999998e+00	 7.500000000000000e-01	 1.047080907815385e+01
0	 4.249999999999998e+00	 8.125000000000001e-01	 1.047504226953846e+01
0	 4.249999999999998e+00	 8.750000000000003e-01	 1.047895661169230e+01
0	 4.249999999999998e+00	 9.375000000000002e-01	 1.048255210461538e+01
0	 4.249999999999999e+00	 1.000000000000001e+00	 1.048582874830769e+01
0	 4.249999999999998e+00	 1.062500000000000e+00	 1.048878654276923e+01
0	 4.249999999999998e+00	 1.125000000000000e+00	 1.049142548800000e+01
0	 4.249999999999998e+00	 1.187500000000000e+00	 1.049374558400000e+01
0	 4.249999999999998e+00	 1.250000000000000e+00	 1.049574683076923e+01
0	 4.312499999999998e+00	 6.250000000000000e-01	 1.044193443692307e+01
0	 4.312499999999999e+00	 6.875000000000002e-01	 1.044696690323076e+01
0	 4.312499999999998e+00	 7.500000000000001e-01	 1.045176711415385e+01
0	 4.312499999999997e+00	 8.125000000000001e-01	 1.045633506969231e+01
0	 4.312499999999999e+00	 8.750000000000002e-01	 1.046067076984615e+01
0	 4.312499999999998e+00	 9.375000000000002e-01	 1.046477421461539e+01
0	 4.312499999999998e+00	 1.000000000000000e+00	 1.046864540400000e+01
0	 4.312499999999998e+00	 1.062500000000000e+00	 1.047228433800000e+01
0	 4.312499999999998e+00	 1.125000000000000e+00	 1.047569101661538e+01
0	 4.312499999999998e+00	 1.187500000000000e+00	 1.047886543984615e+01
0	 4.312499999999998e+00	 1.250000000000000e+00	 1.048180760769230e+01
0	 4.375000000000000e+00	 6.250000000000000e-01	 1.041955461538461e+01
0	 4.375000000000000e+00	 6.875000000000000e-01	 1.042526713846154e+01
0	 4.375000000000000e+00	 7.500000000000002e-01	 1.043083400000000e+01
0	 4.375000000000001e+00	 8.125000000000002e-01	 1.043625520000000e+01
0	 4.375000000000000e+00	 8.750000000000002e-01	 1.044153073846154e+01
0	 4.375000000000001e+00	 9.375000000000002e-01	 1.044666061538461e+01
0	 4.375000000000000e+00	 1.000000000000000e+00	 1.045164483076923e+01
0	 4.375000000000000e+00	 1.062500000000000e+00	 1.045648338461538e+01
0	 4.375000000000001e+00	 1.125000000000001e+00	 1.046117627692307e+01
0	 4.375000000000000e+00	 1.187500000000000e+00	 1.046572350769231e+01
0	 4.375000000000000e+00	 1.250000000000000e+00	 1.047012507692308e+01
0	 3.750000000000000e+00	 1.250000000000000e+00	 1.068850153846154e+01
0	 3.750000000000000e+00	 1.312500000000000e+00	 1.068366092307692e+01
0	 3.750000000000000e+00	 1.375000000000000e+00	 1.068026307692307e+01
0	 3.750000000000000e+00	 1.437500000000000e+00	 1.067830800000000e+01
0	 3.750000000000000e+00	 1.500000000000000e+00	 1.067779569230769e+01
0	 3.750000000000000e+00	 1.562500000000000e+00	 1.067872615384615e+01
0	 3.750000000000000e+00	 1.625000000000000e+00	 1.068109938461538e+01
0	 3.750000000000000e+00	 1.687500000000000e+00	 1.068491538461539e+01
0	 3.750000000000000e+00	 1.750000000000001e+00	 1.069017415384615e+01
0	 3.750000000000000e+00	 1.812500000000000e+00	 1.069687569230769e+01
0	 3.750000000000000e+00	 1.875000000000000e+00	 1.070502000000000e+01
0	 3.812500000000000e+00	 1.250000000000000e+00	 1.065650877692307e+01
0	 3.812500000000000e+00	 1.312500000000000e+00	 1.065369111461539e+01
0	 3.812500000000000e+00	 1.375000000000000e+00	 1.065216313846154e+01
0	 3.812500000000000e+00	 1.437500000000000e+00	 1.065192484846154e+01
0	 3.812500000000000e+00	 1.500000000000000e+00	 1.065297624461538e+01
0	 3.812500000000000e+00	 1.562500000000000e+00	 1.065531732692307e+01
0	 3.812500000000000e+00	 1.625000000000000e+00	 1.065894809538461e+01
0	 3.812500000000000e+00	 1.687500000000000e+00	 1.066386854999999e+01
0	 3.812500000000000e+00	 1.750000000000000e+00	 1.067007869076923e+01
0	 3.812499999999999e+00	 1.812500000000000e+00	 1.067757851769231e+01
0	 3.812500000000000e+00	 1.875000000000000e+00	 1.068636803076923e+01
0	 3.874999999999999e+00	 1.250000000000000e+00	 1.062677270769230e+01
0	 3.875000000000000e+00	 1.312500000000000e+00	 1.062579165846154e+01
0	 3.875000000000000e+00	 1.375000000000000e+00	 1.062594721230770e+01
0	 3.875000000000000e+00	 1.437500000000000e+00	 1.062723936923077e+01
0	 3.875000000000000e+00	 1.500000000000000e+00	 1.062966812923077e+01
0	 3.875000000000000e+00	 1.562500000000000e+00	 1.063323349230769e+01
0	 3.875000000000000e+00	 1.625000000000000e+00	 1.063793545846154e+01
0	 3.875000000000000e+00	 1.687500000000000e+00	 1.064377402769231e+01
0	 3.875000000000000e+00	 1.750000000000001e+00	 1.065074919999999e+01
0	 3.875000000000000e+00	 1.812500000000001e+00	 1.065886097538461e+01
0	 3.874999999999999e+00	 1.875000000000000e+00	 1.066810935384615e+01
0	 3.937499999999999e+00	 1.250000000000000e+00	 1.059929333076923e+01
0	 3.937500000000000e+00	 1.312500000000000e+00	 1.059996255461539e+01
0	 3.937500000000000e+00	 1.375000000000000e+00	 1.060161529846154e+01
0	 3.937499999999999e+00	 1.437500000000000e+00	 1.060425156230769e+01
0	 3.937499999999999e+00	 1.500000000000000e+00	 1.060787134615384e+01
0	 3.937499999999999e+00	 1.562500000000000e+00	 1.061247465000000e+01
0	 3.937499999999999e+00	 1.625000000000000e+00	 1.061806147384615e+01
0	 3.937500000000000e+00	 1.687500000000000e+00	 1.062463181769230e+01
0	 3.937500000000000e+00	 1.750000000000000e+00	 1.063218568153846e+01
0	 3.937500000000000e+00	 1.812500000000000e+00	 1.064072306538461e+01
0	 3.937499999999999e+00	 1.875000000000000e+00	 1.065024396923077e+01
0	 3.999999999999999e+00	 1.250000000000000e+00	 1.057407064615384e+01
0	 3.999999999999999e+00	 1.312500000000000e+00	 1.057620380307692e+01
0	 3.999999999999998e+00	 1.375000000000000e+00	 1.057916739692308e+01
0	 3.999999999999999e+00	 1.437500000000000e+00	 1.058296142769231e+01
0	 4.000000000000000e+00	 1.500000000000000e+00	 1.058758589538462e+01
0	 3.999999999999999e+00	 1.562500000000000e+00	 1.059304080000000e+01
0	 4.000000000000000e+00	 1.625000000000001e+00	 1.059932614153846e+01
0	 3.999999999999999e+00	 1.687500000000000e+00	 1.060644191999999e+01
0	 4.000000000000000e+00	 1.750000000000001e+00	 1.061438813538461e+01
0	 4.000000000000000e+00	 1.812500000000000e+00	 1.062316478769230e+01
0	 3.999999999999999e+00	 1.875000000000000e+00	 1.063277187692307e+01
0	 4.062499999999999e+00	 1.250000000000000e+00	 1.055110465384615e+01
0	 4.062499999999998e+00	 1.312500000000000e+00	 1.055451540384616e+01
0	 4.062499999999999e+00	 1.375000000000000e+00	 1.055860350769231e+01
0	 4.062499999999999e+00	 1.437500000000000e+00	 1.056336896538462e+01
0	 4.062499999999999e+00	 1.500000000000000e+00	 1.056881177692308e+01
0	 4.062500000000000e+00	 1.562500000000000e+00	 1.057493194230769e+01
0	 4.062499999999999e+00	 1.625000000000000e+00	 1.058172946153845e+01
0	 4.062499999999999e+00	 1.687500000000000e+00	 1.058920433461538e+01
0	 4.062499999999999e+00	 1.750000000000000e+00	 1.059735656153846e+01
0	 4.062499999999999e+00	 1.812500000000000e+00	 1.060618614230769e+01
0	 4.062499999999999e+00	 1.875000000000000e+00	 1.061569307692307e+01
0	 4.124999999999998e+00	 1.250000000000000e+00	 1.053039535384616e+01
0	 4.124999999999997e+00	 1.312500000000000e+00	 1.053489735692308e+01
0	 4.124999999999999e+00	 1.375000000000000e+00	 1.053992363076923e+01
0	 4.124999999999998e+00	 1.437500000000000e+00	 1.054547417538462e+01
0	 4.124999999999998e+00	 1.500000000000000e+00	 1.055154899076923e+01
0	 4.124999999999999e+00	 1.562500000000000e+00	 1.055814807692307e+01
0	 4.124999999999999e+00	 1.625000000000000e+00	 1.056527143384615e+01
0	 4.124999999999998e+00	 1.687500000000000e+00	 1.057291906153846e+01
0	 4.124999999999999e+00	 1.750000000000000e+00	 1.058109096000000e+01
0	 4.124999999999997e+00	 1.812500000000000e+00	 1.058978712923077e+01
0	 4.124999999999998e+00	 1.875000000000000e+00	 1.059900756923076e+01
0	 4.187499999999998e+00	 1.250000000000000e+00	 1.051194274615385e+01
0	 4.187499999999998e+00	 1.312500000000000e+00	 1.051734966230769e+01
0	 4.187499999999999e+00	 1.375000000000000e+00	 1.052312776615385e+01
0	 4.187499999999998e+00	 1.437500000000000e+00	 1.052927705769230e+01
0	 4.187500000000000e+00	 1.500000000000001e+00	 1.053579753692307e+01
0	 4.187499999999999e+00	 1.562500000000000e+00	 1.054268920384615e+01
0	 4.187499999999997e+00	 1.625000000000000e+00	 1.054995205846154e+01
0	 4.187499999999999e+00	 1.687500000000000e+00	 1.055758610076924e+01
0	 4.187499999999998e+00	 1.750000000000000e+00	 1.056559133076923e+01
0	 4.187499999999998e+00	 1.812500000000000e+00	 1.057396774846154e+01
0	 4.187499999999998e+00	 1.875000000000000e+00	 1.058271535384616e+01
0	 4.249999999999998e+00	 1.250000000000000e+00	 1.049574683076923e+01
0	 4.249999999999998e+00	 1.312500000000000e+00	 1.050187232000000e+01
0	 4.249999999999998e+00	 1.375000000000000e+00	 1.050821591384615e+01
0	 4.249999999999998e+00	 1.437500000000000e+00	 1.051477761230769e+01
0	 4.249999999999998e+00	 1.500000000000000e+00	 1.052155741538461e+01
0	 4.249999999999998e+00	 1.562500000000000e+00	 1.052855532307692e+01
0	 4.249999999999999e+00	 1.625000000000001e+00	 1.053577133538461e+01
0	 4.249999999999998e+00	 1.687500000000000e+00	 1.054320545230769e+01
0	 4.249999999999998e+00	 1.750000000000000e+00	 1.055085767384615e+01
0	 4.249999999999998e+00	 1.812500000000001e+00	 1.055872800000000e+01
0	 4.249999999999998e+00	 1.875000000000000e+00	 1.056681643076923e+01
0	 4.312499999999998e+00	 1.250000000000000e+00	 1.048180760769230e+01
0	 4.312499999999999e+00	 1.312500000000000e+00	 1.048846533000000e+01
0	 4.312499999999998e+00	 1.375000000000000e+00	 1.049518807384615e+01
0	 4.312499999999997e+00	 1.437500000000000e+00	 1.050197583923076e+01
0	 4.312499999999999e+00	 1.500000000000000e+00	 1.050882862615384e+01
0	 4.312499999999998e+00	 1.562500000000000e+00	 1.051574643461539e+01
0	 4.312499999999998e+00	 1.625000000000000e+00	 1.052272926461538e+01
0	 4.312499999999998e+00	 1.687500000000000e+00	 1.052977711615385e+01
0	 4.312499999999998e+00	 1.750000000000000e+00	 1.053688998923077e+01
0	 4.312499999999998e+00	 1.812500000000000e+00	 1.054406788384615e+01
0	 4.312499999999998e+00	 1.875000000000000e+00	 1.055131080000000e+01
0	 4.375000000000000e+00	 1.250000000000000e+00	 1.047012507692308e+01
0	 4.375000000000000e+00	 1.312500000000000e+00	 1.047712869230769e+01
0	 4.375000000000000e+00	 1.375000000000000e+00	 1.048404424615384e+01
0	 4.375000000000001e+00	 1.437500000000000e+00	 1.049087173846154e+01
0	 4.375000000000000e+00	 1.500000000000000e+00	 1.049761116923077e+01
0	 4.375000000000001e+00	 1.562500000000000e+00	 1.050426253846154e+01
0	 4.375000000000000e+00	 1.625000000000000e+00	 1.051082584615384e+01
0	 4.375000000000000e+00	 1.687500000000000e+00	 1.051730109230769e+01
0	 4.375000000000001e+00	 1.750000000000001e+00	 1.052368827692307e+01
0	 4.375000000000000e+00	 1.812500000000000e+00	 1.052998739999999e+01
0	 4.375000000000000e+00	 1.875000000000000e+00	 1.053619846153846e+01
0	 3.750000000000000e+00	 1.875000000000000e+00	 1.070502000000000e+01
0	 3.750000000000000e+00	 1.937500000000000e+00	 1.069852816923077e+01
0	 3.750000000000000e+00	 2.000000000000000e+00	 1.069255206153846e+01
0	 3.750000000000000e+00	 2.062500000000000e+00	 1.068709167692307e+01
0	 3.750000000000000e+00	 2.125000000000000e+00	 1.068214701538462e+01
0	 3.750000000000000e+00	 2.187500000000000e+00	 1.067771807692308e+01
0	 3.750000000000000e+00	 2.250000000000000e+00	 1.067380486153846e+01
0	 3.750000000000000e+00	 2.312500000000000e+00	 1.067040736923077e+01
0	 3.750000000000000e+00	 2.375000000000001e+00	 1.066752560000001e+01
0	 3.750000000000000e+00	 2.437500000000001e+00	 1.066515955384615e+01
0	 3.750000000000000e+00	 2.500000000000000e+00	 1.066330923076923e+01
0	 3.812500000000000e+00	 1.875000000000000e+00	 1.068636803076923e+01
0	 3.812500000000000e+00	 1.937500000000000e+00	 1.067985549230769e+01
0	 3.812500000000000e+00	 2.000000000000000e+00	 1.067387655692307e+01
0	 3.812500000000000e+00	 2.062500000000000e+00	 1.066843122461538e+01
0	 3.812500000000000e+00	 2.125000000000001e+00	 1.066351949538462e+01
0	 3.812500000000000e+00	 2.187500000000000e+00	 1.065914136923077e+01
0	 3.812500000000000e+00	 2.250000000000000e+00	 1.065529684615384e+01
0	 3.812500000000000e+00	 2.312500000000000e+00	 1.065198592615384e+01
0	 3.812500000000000e+00	 2.375000000000000e+00	 1.064920860923077e+01
0	 3.812499999999999e+00	 2.437500000000000e+00	 1.064696489538461e+01
0	 3.812500000000000e+00	 2.500000000000000e+00	 1.064525478461539e+01
0	 3.874999999999999e+00	 1.875000000000000e+00	 1.066810935384615e+01
0	 3.875000000000000e+00	 1.937500000000000e+00	 1.066162493538461e+01
0	 3.875000000000000e+00	 2.000000000000000e+00	 1.065569200000000e+01
0	 3.875000000000000e+00	 2.062500000000000e+00	 1.065031054769231e+01
0	 3.875000000000000e+00	 2.125000000000000e+00	 1.064548057846153e+01
0	 3.875000000000000e+00	 2.187500000000001e+00	 1.064120209230769e+01
0	 3.875000000000000e+00	 2.250000000000000e+00	 1.063747508923077e+01
0	 3.875000000000000e+00	 2.312500000000000e+00	 1.063429956923076e+01
0	 3.875000000000000e+00	 2.375000000000000e+00	 1.063167553230770e+01
0	 3.875000000000000e+00	 2.437500000000000e+00	 1.062960297846153e+01
0	 3.874999999999999e+00	 2.500000000000000e+00	 1.062808190769230e+01
0	 3.937499999999999e+00	 1.875000000000000e+00	 1.065024396923077e+01
0	 3.937500000000000e+00	 1.937500000000000e+00	 1.064383649846154e+01
0	 3.937500000000000e+00	 2.000000000000000e+00	 1.063799839076922e+01
0	 3.937499999999999e+00	 2.062500000000000e+00	 1.063272964615384e+01
0	 3.937499999999999e+00	 2.125000000000001e+00	 1.062803026461538e+01
0	 3.937499999999999e+00	 2.187500000000000e+00	 1.062390024615384e+01
0	 3.937499999999999e+00	 2.250000000000000e+00	 1.062033959076923e+01
0	 3.937500000000000e+00	 2.312500000000000e+00	 1.061734829846154e+01
0	 3.937500000000000e+00	 2.375000000000000e+00	 1.061492636923077e+01
0	 3.937500000000000e+00	 2.437500000000000e+00	 1.061307380307692e+01
0	 3.937499999999999e+00	 2.500000000000000e+00	 1.061179060000001e+01
0	 3.999999999999999e+00	 1.875000000000000e+00	 1.063277187692307e+01
0	 3.999999999999999e+00	 1.937500000000000e+00	 1.062649018153845e+01
0	 3.999999999999998e+00	 2.000000000000000e+00	 1.062079572923077e+01
0	 3.999999999999999e+00	 2.062500000000000e+00	 1.061568852000000e+01
0	 4.000000000000000e+00	 2.125000000000000e+00	 1.061116855384616e+01
0	 3.999999999999999e+00	 2.187500000000000e+00	 1.060723583076923e+01
0	 4.000000000000000e+00	 2.250000000000000e+00	 1.060389035076924e+01
0	 3.999999999999999e+00	 2.312500000000000e+00	 1.060113211384615e+01
0	 4.000000000000000e+00	 2.375000000000000e+00	 1.059896112000000e+01
0	 4.000000000000000e+00	 2.437500000000000e+00	 1.059737736923077e+01
0	 3.999999999999999e+00	 2.500000000000000e+00	 1.059638086153846e+01
0	 4.062499999999999e+00	 1.875000000000000e+00	 1.061569307692307e+01
0	 4.062499999999998e+00	 1.937500000000000e+00	 1.060958598461538e+01
0	 4.062499999999999e+00	 2.000000000000000e+00	 1.060408401538461e+01
0	 4.062499999999999e+00	 2.062500000000000e+00	 1.059918716923077e+01
0	 4.062499999999999e+00	 2.125000000000000e+00	 1.059489544615384e+01
0	 4.062500000000000e+00	 2.187500000000000e+00	 1.059120884615384e+01
0	 4.062499999999999e+00	 2.250000000000000e+00	 1.058812736923077e+01
0	 4.062499999999999e+00	 2.312500000000001e+00	 1.058565101538461e+01
0	 4.062499999999999e+00	 2.375000000000000e+00	 1.058377978461538e+01
0	 4.062499999999999e+00	 2.437500000000000e+00	 1.058251367692306e+01
0	 4.062499999999999e+00	 2.500000000000000e+00	 1.058185269230769e+01
0	 4.124999999999998e+00	 1.875000000000000e+00	 1.059900756923076e+01
0	 4.124999999999997e+00	 1.937500000000000e+00	 1.059312390769230e+01
0	 4.124999999999999e+00	 2.000000000000000e+00	 1.058786324923077e+01
0	 4.124999999999998e+00	 2.062500000000000e+00	 1.058322559384616e+01
0	 4.124999999999998e+00	 2.125000000000000e+00	 1.057921094153846e+01
0	 4.124999999999999e+00	 2.187500000000000e+00	 1.057581929230769e+01
0	 4.124999999999999e+00	 2.250000000000000e+00	 1.057305064615385e+01
0	 4.124999999999998e+00	 2.312500000000000e+00	 1.057090500307692e+01
0	 4.124999999999999e+00	 2.375000000000001e+00	 1.056938236307692e+01
0	 4.124999999999997e+00	 2.437500000000000e+00	 1.056848272615385e+01
0	 4.124999999999998e+00	 2.500000000000000e+00	 1.056820609230770e+01
0	 4.187499999999998e+00	 1.875000000000000e+00	 1.058271535384616e+01
0	 4.187499999999998e+00	 1.937500000000000e+00	 1.057710395076923e+01
0	 4.187499999999999e+00	 2.000000000000001e+00	 1.057213343076923e+01
0	 4.187499999999998e+00	 2.062500000000000e+00	 1.056780379384615e+01
0	 4.187500000000000e+00	 2.125000000000001e+00	 1.056411503999999e+01
0	 4.187499999999999e+00	 2.187500000000000e+00	 1.056106716923076e+01
0	 4.187499999999997e+00	 2.250000000000000e+00	 1.055866018153846e+01
0	 4.187499999999999e+00	 2.312500000000001e+00	 1.055689407692308e+01
0	 4.187499999999998e+00	 2.375000000000000e+00	 1.055576885538461e+01
0	 4.187499999999998e+00	 2.437500000000000e+00	 1.055528451692307e+01
0	 4.187499999999998e+00	 2.500000000000000e+00	 1.055544106153847e+01
0	 4.249999999999998e+00	 1.875000000000000e+00	 1.056681643076923e+01
0	 4.249999999999998e+00	 1.937500000000000e+00	 1.056152611384615e+01
0	 4.249999999999998e+00	 2.000000000000000e+00	 1.055689456000000e+01
0	 4.249999999999998e+00	 2.062500000000000e+00	 1.055292176923077e+01
0	 4.249999999999998e+00	 2.125000000000000e+00	 1.054960774153846e+01
0	 4.249999999999998e+00	 2.187500000000000e+00	 1.054695247692307e+01
0	 4.249999999999999e+00	 2.250000000000000e+00	 1.054495597538461e+01
0	 4.249999999999998e+00	 2.312500000000000e+00	 1.054361823692307e+01
0	 4.249999999999998e+00	 2.375000000000000e+00	 1.054293926153846e+01
0	 4.249999999999998e+00	 2.437500000000001e+00	 1.054291904923077e+01
0	 4.249999999999998e+00	 2.500000000000000e+00	 1.054355760000000e+01
0	 4.312499999999998e+00	 1.875000000000000e+00	 1.055131080000000e+01
0	 4.312499999999999e+00	 1.937500000000000e+00	 1.054639039692307e+01
0	 4.312499999999998e+00	 2.000000000000000e+00	 1.054214663692308e+01
0	 4.312499999999997e+00	 2.062500000000000e+00	 1.053857952000000e+01
0	 4.312499999999999e+00	 2.125000000000000e+00	 1.053568904615384e+01
0	 4.312499999999998e+00	 2.187500000000000e+00	 1.053347521538461e+01
0	 4.312499999999998e+00	 2.250000000000000e+00	 1.053193802769230e+01
0	 4.312499999999998e+00	 2.312500000000000e+00	 1.053107748307692e+01
0	 4.312499999999998e+00	 2.375000000000000e+00	 1.053089358153846e+01
0	 4.312499999999998e+00	 2.437500000000000e+00	 1.053138632307692e+01
0	 4.312499999999998e+00	 2.500000000000000e+00	 1.053255570769230e+01
0	 4.375000000000000e+00	 1.875000000000000e+00	 1.053619846153846e+01
0	 4.375000000000000e+00	 1.937500000000000e+00	 1.053169680000000e+01
0	 4.375000000000000e+00	 2.000000000000000e+00	 1.052788966153846e+01
0	 4.375000000000001e+00	 2.062500000000000e+00	 1.052477704615384e+01
0	 4.375000000000000e+00	 2.125000000000000e+00	 1.052235895384615e+01
0	 4.375000000000001e+00	 2.187500000000000e+00	 1.052063538461538e+01
0	 4.375000000000000e+00	 2.250000000000000e+00	 1.051960633846153e+01
0	 4.375000000000000e+00	 2.312500000000000e+00	 1.051927181538461e+01
0	 4.375000000000001e+00	 2.375000000000001e+00	 1.051963181538462e+01
0	 4.375000000000000e+00	 2.437500000000001e+00	 1.052068633846154e+01
0	 4.375000000000000e+00	 2.500000000000000e+00	 1.052243538461538e+01
0	 3.750000000000000e+00	 2.500000000000000e+00	 1.066330923076923e+01
0	 3.750000000000000e+00	 2.562500000000000e+00	 1.064649989230770e+01
0	 3.750000000000001e+00	 2.625000000000000e+00	 1.063053064615385e+01
0	 3.750000000000000e+00	 2.687499999999999e+00	 1.061540149230769e+01
0	 3.750000000000000e+00	 2.750000000000000e+00	 1.060111243076923e+01
0	 3.750000000000000e+00	 2.812499999999999e+00	 1.058766346153847e+01
0	 3.750000000000000e+00	 2.874999999999999e+00	 1.057505458461538e+01
0	 3.750000000000000e+00	 2.937499999999998e+00	 1.056328580000000e+01
0	 3.750000000000000e+00	 2.999999999999998e+00	 1.055235710769231e+01
0	 3.750000000000000e+00	 3.062499999999998e+00	 1.054226850769232e+01
0	 3.750000000000000e+00	 3.125000000000000e+00	 1.053302000000000e+01
0	 3.812500000000000e+00	 2.500000000000000e+00	 1.064525478461539e+01
0	 3.812500000000000e+00	 2.562500000000000e+00	 1.063009604923078e+01
0	 3.812500000000000e+00	 2.624999999999999e+00	 1.061573205538461e+01
0	 3.812500000000000e+00	 2.687499999999999e+00	 1.060216280307692e+01
0	 3.812500000000000e+00	 2.750000000000000e+00	 1.058938829230770e+01
0	 3.812500000000000e+00	 2.812499999999999e+00	 1.057740852307693e+01
0	 3.812500000000000e+00	 2.875000000000000e+00	 1.056622349538462e+01
0	 3.812500000000000e+00	 2.937499999999999e+00	 1.055583320923077e+01
0	 3.812500000000001e+00	 2.999999999999999e+00	 1.054623766461538e+01
0	 3.812499999999999e+00	 3.062499999999997e+00	 1.053743686153847e+01
0	 3.812500000000000e+00	 3.125000000000000e+00	 1.052943079999999e+01
0	 3.874999999999999e+00	 2.500000000000000e+00	 1.062808190769230e+01
0	 3.875000000000000e+00	 2.562500000000000e+00	 1.061443319384616e+01
0	 3.875000000000000e+00	 2.625000000000000e+00	 1.060153387076923e+01
0	 3.875000000000000e+00	 2.687500000000000e+00	 1.058938393846154e+01
0	 3.874999999999998e+00	 2.749999999999999e+00	 1.057798339692308e+01
0	 3.875000000000000e+00	 2.812499999999999e+00	 1.056733224615385e+01
0	 3.874999999999998e+00	 2.874999999999999e+00	 1.055743048615385e+01
0	 3.875000000000000e+00	 2.937499999999999e+00	 1.054827811692308e+01
0	 3.874999999999999e+00	 2.999999999999998e+00	 1.053987513846154e+01
0	 3.875000000000000e+00	 3.062499999999999e+00	 1.053222155076922e+01
0	 3.874999999999999e+00	 3.125000000000000e+00	 1.052531735384616e+01
0	 3.937499999999999e+00	 2.500000000000000e+00	 1.061179060000001e+01
0	 3.937500000000000e+00	 2.562500000000000e+00	 1.059951132615384e+01
0	 3.937500000000000e+00	 2.625000000000000e+00	 1.058793609230770e+01
0	 3.937500000000000e+00	 2.687499999999999e+00	 1.057706489846153e+01
0	 3.937500000000000e+00	 2.749999999999999e+00	 1.056689774461539e+01
0	 3.937499999999999e+00	 2.812499999999999e+00	 1.055743463076924e+01
0	 3.937500000000000e+00	 2.874999999999999e+00	 1.054867555692308e+01
0	 3.937499999999999e+00	 2.937499999999999e+00	 1.054062052307693e+01
0	 3.937500000000000e+00	 2.999999999999999e+00	 1.053326952923077e+01
0	 3.937499999999998e+00	 3.062499999999998e+00	 1.052662257538462e+01
0	 3.937499999999999e+00	 3.125000000000000e+00	 1.052067966153846e+01
0	 3.999999999999999e+00	 2.500000000000000e+00	 1.059638086153846e+01
0	 3.999999999999999e+00	 2.562500000000000e+00	 1.058533044615385e+01
0	 4.000000000000000e+00	 2.625000000000000e+00	 1.057493872000000e+01
0	 3.999999999999999e+00	 2.687500000000000e+00	 1.056520568307692e+01
0	 3.999999999999999e+00	 2.750000000000000e+00	 1.055613133538462e+01
0	 3.999999999999999e+00	 2.812499999999999e+00	 1.054771567692308e+01
0	 3.999999999999999e+00	 2.874999999999999e+00	 1.053995870769231e+01
0	 3.999999999999999e+00	 2.937499999999998e+00	 1.053286042769231e+01
0	 3.999999999999999e+00	 2.999999999999999e+00	 1.052642083692309e+01
0	 3.999999999999999e+00	 3.062499999999998e+00	 1.052063993538462e+01
0	 3.999999999999999e+00	 3.125000000000000e+00	 1.051551772307693e+01
0	 4.062499999999999e+00	 2.500000000000000e+00	 1.058185269230769e+01
0	 4.062499999999999e+00	 2.562499999999999e+00	 1.057189055384615e+01
0	 4.062499999999999e+00	 2.625000000000000e+00	 1.056254175384615e+01
0	 4.062500000000000e+00	 2.687500000000000e+00	 1.055380629230770e+01
0	 4.062499999999997e+00	 2.749999999999999e+00	 1.054568416923077e+01
0	 4.062499999999999e+00	 2.812499999999999e+00	 1.053817538461539e+01
0	 4.062500000000000e+00	 2.874999999999999e+00	 1.053127993846154e+01
0	 4.062499999999999e+00	 2.937499999999998e+00	 1.052499783076923e+01
0	 4.062499999999999e+00	 2.999999999999998e+00	 1.051932906153846e+01
0	 4.062499999999999e+00	 3.062499999999998e+00	 1.051427363076924e+01
0	 4.062499999999999e+00	 3.125000000000000e+00	 1.050983153846154e+01
0	 4.124999999999998e+00	 2.500000000000000e+00	 1.056820609230770e+01
0	 4.124999999999998e+00	 2.562500000000000e+00	 1.055919164923077e+01
0	 4.124999999999998e+00	 2.625000000000000e+00	 1.055074519384615e+01
0	 4.124999999999997e+00	 2.687500000000000e+00	 1.054286672615384e+01
0	 4.125000000000000e+00	 2.750000000000000e+00	 1.053555624615385e+01
0	 4.124999999999999e+00	 2.812500000000000e+00	 1.052881375384615e+01
0	 4.124999999999999e+00	 2.874999999999999e+00	 1.052263924923077e+01
0	 4.124999999999999e+00	 2.937499999999999e+00	 1.051703273230770e+01
0	 4.124999999999998e+00	 2.999999999999999e+00	 1.051199420307692e+01
0	 4.124999999999998e+00	 3.062499999999998e+00	 1.050752366153846e+01
0	 4.124999999999998e+00	 3.125000000000000e+00	 1.050362110769230e+01
0	 4.187499999999998e+00	 2.500000000000000e+00	 1.055544106153847e+01
0	 4.187499999999998e+00	 2.562500000000000e+00	 1.054723373230769e+01
0	 4.187499999999999e+00	 2.625000000000000e+00	 1.053954904000000e+01
0	 4.187499999999999e+00	 2.687500000000000e+00	 1.053238698461538e+01
0	 4.187499999999998e+00	 2.749999999999999e+00	 1.052574756615384e+01
0	 4.187500000000000e+00	 2.812499999999999e+00	 1.051963078461538e+01
0	 4.187499999999999e+00	 2.874999999999999e+00	 1.051403664000000e+01
0	 4.187499999999999e+00	 2.937499999999998e+00	 1.050896513230769e+01
0	 4.187499999999998e+00	 2.999999999999998e+00	 1.050441626153846e+01
0	 4.187499999999999e+00	 3.062499999999998e+00	 1.050039002769232e+01
0	 4.187499999999998e+00	 3.125000000000000e+00	 1.049688643076923e+01
0	 4.249999999999998e+00	 2.500000000000000e+00	 1.054355760000000e+01
0	 4.250000000000000e+00	 2.562500000000001e+00	 1.053601680307692e+01
0	 4.249999999999998e+00	 2.625000000000000e+00	 1.052895329230769e+01
0	 4.249999999999998e+00	 2.687500000000000e+00	 1.052236706769230e+01
0	 4.249999999999998e+00	 2.749999999999999e+00	 1.051625812923076e+01
0	 4.249999999999998e+00	 2.812499999999999e+00	 1.051062647692308e+01
0	 4.249999999999998e+00	 2.874999999999999e+00	 1.050547211076923e+01
0	 4.249999999999998e+00	 2.937499999999998e+00	 1.050079503076923e+01
0	 4.249999999999998e+00	 2.999999999999998e+00	 1.049659523692308e+01
0	 4.249999999999998e+00	 3.062499999999998e+00	 1.049287272923077e+01
0	 4.249999999999998e+00	 3.125000000000000e+00	 1.048962750769230e+01
0	 4.312499999999998e+00	 2.500000000000000e+00	 1.053255570769230e+01
0	 4.312499999999999e+00	 2.562500000000000e+00	 1.052554086153846e+01
0	 4.312499999999998e+00	 2.625000000000000e+00	 1.051895795076923e+01
0	 4.312499999999998e+00	 2.687500000000000e+00	 1.051280697538461e+01
0	 4.312499999999998e+00	 2.749999999999999e+00	 1.050708793538461e+01
0	 4.312499999999998e+00	 2.812499999999999e+00	 1.050180083076923e+01
0	 4.312499999999997e+00	 2.874999999999999e+00	 1.049694566153846e+01
0	 4.312499999999997e+00	 2.937499999999998e+00	 1.049252242769230e+01
0	 4.312499999999998e+00	 2.999999999999998e+00	 1.048853112923077e+01
0	 4.312499999999998e+00	 3.062499999999998e+00	 1.048497176615384e+01
0	 4.312499999999998e+00	 3.125000000000000e+00	 1.048184433846154e+01
0	 4.375000000000000e+00	 2.500000000000000e+00	 1.052243538461538e+01
0	 4.375000000000000e+00	 2.562500000000000e+00	 1.051580590769232e+01
0	 4.375000000000001e+00	 2.625000000000000e+00	 1.050956301538461e+01
0	 4.375000000000000e+00	 2.687499999999999e+00	 1.050370670769230e+01
0	 4.375000000000000e+00	 2.750000000000000e+00	 1.049823698461538e+01
0	 4.375000000000000e+00	 2.812499999999999e+00	 1.049315384615385e+01
0	 4.375000000000000e+00	 2.874999999999999e+00	 1.048845729230768e+01
0	 4.375000000000000e+00	 2.937499999999998e+00	 1.048414732307692e+01
0	 4.375000000000000e+00	 2.999999999999998e+00	 1.048022393846153e+01
0	 4.375000000000000e+00	 3.062499999999998e+00	 1.047668713846154e+01
0	 4.375000000000000e+00	 3.125000000000000e+00	 1.047353692307692e+01
0	 3.750000000000000e+00	 3.125000000000000e+00	 1.053302000000000e+01
0	 3.750000000000000e+00	 3.187500000000000e+00	 1.051937755384614e+01
0	 3.750000000000001e+00	 3.250000000000000e+00	 1.050593513846153e+01
0	 3.750000000000000e+00	 3.312499999999999e+00	 1.049269275384615e+01
0	 3.750000000000000e+00	 3.374999999999999e+00	 1.047965040000000e+01
0	 3.750000000000000e+00	 3.437499999999999e+00	 1.046680807692307e+01
0	 3.750000000000000e+00	 3.499999999999999e+00	 1.045416578461538e+01
0	 3.750000000000000e+00	 3.562499999999998e+00	 1.044172352307692e+01
0	 3.750000000000000e+00	 3.624999999999999e+00	 1.042948129230769e+01
0	 3.750000000000000e+00	 3.687499999999998e+00	 1.041743909230768e+01
0	 3.750000000000000e+00	 3.750000000000000e+00	 1.040559692307692e+01
0	 3.812500000000000e+00	 3.125000000000000e+00	 1.052943079999999e+01
0	 3.812500000000000e+00	 3.187500000000000e+00	 1.051610971076923e+01
0	 3.812500000000000e+00	 3.250000000000000e+00	 1.050300618153846e+01
0	 3.812500000000000e+00	 3.312499999999999e+00	 1.049012021230769e+01
0	 3.812500000000000e+00	 3.374999999999999e+00	 1.047745180307692e+01
0	 3.812500000000000e+00	 3.437499999999999e+00	 1.046500095384615e+01
0	 3.812500000000000e+00	 3.500000000000000e+00	 1.045276766461538e+01
0	 3.812500000000000e+00	 3.562499999999999e+00	 1.044075193538462e+01
0	 3.812500000000001e+00	 3.625000000000000e+00	 1.042895376615384e+01
0	 3.812499999999999e+00	 3.687499999999997e+00	 1.041737315692307e+01
0	 3.812500000000000e+00	 3.750000000000000e+00	 1.040601010769232e+01
0	 3.874999999999999e+00	 3.125000000000000e+00	 1.052531735384616e+01
0	 3.875000000000000e+00	 3.187500000000000e+00	 1.051232656000000e+01
0	 3.875000000000000e+00	 3.250000000000000e+00	 1.049957085538461e+01
0	 3.875000000000000e+00	 3.312500000000000e+00	 1.048705024000000e+01
0	 3.874999999999998e+00	 3.374999999999999e+00	 1.047476471384615e+01
0	 3.875000000000000e+00	 3.437499999999999e+00	 1.046271427692308e+01
0	 3.874999999999998e+00	 3.499999999999997e+00	 1.045089892923077e+01
0	 3.875000000000000e+00	 3.562499999999999e+00	 1.043931867076923e+01
0	 3.874999999999999e+00	 3.624999999999998e+00	 1.042797350153846e+01
0	 3.875000000000000e+00	 3.687499999999999e+00	 1.041686342153846e+01
0	 3.874999999999999e+00	 3.750000000000000e+00	 1.040598843076923e+01
0	 3.937499999999999e+00	 3.125000000000000e+00	 1.052067966153846e+01
0	 3.937500000000000e+00	 3.187500000000000e+00	 1.050802810153847e+01
0	 3.937500000000000e+00	 3.250000000000000e+00	 1.049562916000000e+01
0	 3.937500000000000e+00	 3.312500000000000e+00	 1.048348283692308e+01
0	 3.937500000000000e+00	 3.374999999999999e+00	 1.047158913230770e+01
0	 3.937499999999999e+00	 3.437499999999999e+00	 1.045994804615384e+01
0	 3.937500000000000e+00	 3.499999999999998e+00	 1.044855957846154e+01
0	 3.937499999999999e+00	 3.562499999999998e+00	 1.043742372923077e+01
0	 3.937500000000000e+00	 3.624999999999998e+00	 1.042654049846154e+01
0	 3.937499999999998e+00	 3.687499999999998e+00	 1.041590988615385e+01
0	 3.937499999999999e+00	 3.750000000000000e+00	 1.040553189230770e+01
0	 3.999999999999999e+00	 3.125000000000000e+00	 1.051551772307693e+01
0	 3.999999999999999e+00	 3.187500000000000e+00	 1.050321433538462e+01
0	 4.000000000000000e+00	 3.250000000000000e+00	 1.049118109538462e+01
0	 3.999999999999999e+00	 3.312500000000000e+00	 1.047941800307692e+01
0	 3.999999999999999e+00	 3.374999999999999e+00	 1.046792505846153e+01
0	 3.999999999999999e+00	 3.437499999999999e+00	 1.045670226153847e+01
0	 3.999999999999999e+00	 3.499999999999998e+00	 1.044574961230769e+01
0	 3.999999999999999e+00	 3.562499999999998e+00	 1.043506711076924e+01
0	 3.999999999999999e+00	 3.624999999999999e+00	 1.042465475692308e+01
0	 3.999999999999999e+00	 3.687499999999998e+00	 1.041451255076923e+01
0	 3.999999999999999e+00	 3.750000000000000e+00	 1.040464049230770e+01
0	 4.062499999999999e+00	 3.125000000000000e+00	 1.050983153846154e+01
0	 4.062499999999999e+00	 3.187500000000000e+00	 1.049788526153846e+01
0	 4.062499999999999e+00	 3.250000000000000e+00	 1.048622666153847e+01
0	 4.062500000000000e+00	 3.312500000000000e+00	 1.047485573846154e+01
0	 4.062499999999997e+00	 3.374999999999998e+00	 1.046377249230770e+01
0	 4.062499999999999e+00	 3.437499999999999e+00	 1.045297692307692e+01
0	 4.062500000000000e+00	 3.499999999999999e+00	 1.044246903076923e+01
0	 4.062499999999999e+00	 3.562499999999999e+00	 1.043224881538462e+01
0	 4.062499999999999e+00	 3.624999999999998e+00	 1.042231627692308e+01
0	 4.062499999999999e+00	 3.687499999999999e+00	 1.041267141538463e+01
0	 4.062499999999999e+00	 3.750000000000000e+00	 1.040331423076923e+01
0	 4.124999999999998e+00	 3.125000000000000e+00	 1.050362110769230e+01
0	 4.124999999999998e+00	 3.187500000000000e+00	 1.049204088000000e+01
0	 4.124999999999998e+00	 3.249999999999999e+00	 1.048076585846155e+01
0	 4.124999999999997e+00	 3.312499999999999e+00	 1.046979604307692e+01
0	 4.125000000000000e+00	 3.375000000000000e+00	 1.045913143384616e+01
0	 4.124999999999999e+00	 3.437500000000000e+00	 1.044877203076924e+01
0	 4.124999999999999e+00	 3.499999999999999e+00	 1.043871783384616e+01
0	 4.124999999999999e+00	 3.562499999999999e+00	 1.042896884307692e+01
0	 4.124999999999998e+00	 3.624999999999999e+00	 1.041952505846154e+01
0	 4.124999999999998e+00	 3.687499999999998e+00	 1.041038648000001e+01
0	 4.124999999999998e+00	 3.750000000000000e+00	 1.040155310769231e+01
0	 4.187499999999998e+00	 3.125000000000000e+00	 1.049688643076923e+01
0	 4.187499999999998e+00	 3.187500000000000e+00	 1.048568119076923e+01
0	 4.187499999999999e+00	 3.250000000000000e+00	 1.047479868615385e+01
0	 4.187499999999999e+00	 3.312500000000000e+00	 1.046423891692308e+01
0	 4.187499999999998e+00	 3.374999999999999e+00	 1.045400188307692e+01
0	 4.187500000000000e+00	 3.437499999999999e+00	 1.044408758461538e+01
0	 4.187499999999999e+00	 3.499999999999999e+00	 1.043449602153847e+01
0	 4.187499999999999e+00	 3.562499999999999e+00	 1.042522719384615e+01
0	 4.187499999999998e+00	 3.624999999999998e+00	 1.041628110153848e+01
0	 4.187499999999999e+00	 3.687499999999999e+00	 1.040765774461539e+01
0	 4.187499999999998e+00	 3.750000000000000e+00	 1.039935712307693e+01
0	 4.249999999999998e+00	 3.125000000000000e+00	 1.048962750769230e+01
0	 4.250000000000000e+00	 3.187500000000001e+00	 1.047880619384616e+01
0	 4.249999999999998e+00	 3.250000000000000e+00	 1.046832514461539e+01
0	 4.249999999999998e+00	 3.312500000000000e+00	 1.045818436000000e+01
0	 4.249999999999998e+00	 3.374999999999999e+00	 1.044838384000000e+01
0	 4.249999999999998e+00	 3.437499999999999e+00	 1.043892358461538e+01
0	 4.249999999999998e+00	 3.499999999999998e+00	 1.042980359384615e+01
0	 4.249999999999998e+00	 3.562499999999998e+00	 1.042102386769231e+01
0	 4.249999999999998e+00	 3.624999999999998e+00	 1.041258440615385e+01
0	 4.249999999999998e+00	 3.687499999999998e+00	 1.040448520923077e+01
0	 4.249999999999998e+00	 3.750000000000000e+00	 1.039672627692309e+01
0	 4.312499999999998e+00	 3.125000000000000e+00	 1.048184433846154e+01
0	 4.312499999999999e+00	 3.187500000000000e+00	 1.047141588923077e+01
0	 4.312499999999998e+00	 3.250000000000000e+00	 1.046134523384615e+01
0	 4.312499999999998e+00	 3.312500000000000e+00	 1.045163237230769e+01
0	 4.312499999999998e+00	 3.374999999999999e+00	 1.044227730461538e+01
0	 4.312499999999998e+00	 3.437500000000000e+00	 1.043328003076923e+01
0	 4.312499999999997e+00	 3.499999999999998e+00	 1.042464055076923e+01
0	 4.312499999999997e+00	 3.562499999999998e+00	 1.041635886461539e+01
0	 4.312499999999998e+00	 3.624999999999998e+00	 1.040843497230769e+01
0	 4.312499999999998e+00	 3.687499999999997e+00	 1.040086887384615e+01
0	 4.312499999999998e+00	 3.750000000000000e+00	 1.039366056923077e+01
0	 4.375000000000000e+00	 3.125000000000000e+00	 1.047353692307692e+01
0	 4.375000000000000e+00	 3.187500000000000e+00	 1.046351027692305e+01
0	 4.375000000000001e+00	 3.250000000000000e+00	 1.045385895384614e+01
0	 4.375000000000000e+00	 3.312499999999999e+00	 1.044458295384615e+01
0	 4.375000000000000e+00	 3.374999999999999e+00	 1.043568227692307e+01
0	 4.375000000000000e+00	 3.437499999999999e+00	 1.042715692307692e+01
0	 4.375000000000000e+00	 3.499999999999999e+00	 1.041900689230770e+01
0	 4.375000000000000e+00	 3.562499999999998e+00	 1.041123218461539e+01
0	 4.375000000000000e+00	 3.624999999999999e+00	 1.040383280000000e+01
0	 4.375000000000000e+00	 3.687499999999998e+00	 1.039680873846153e+01
0	 4.375000000000000e+00	 3.750000000000000e+00	 1.039016000000001e+01
0	 3.750000000000000e+00	 3.750000000000000e+00	 1.040559692307692e+01
0	 3.750000000000000e+00	 3.812500000000000e+00	 1.039307803076923e+01
0	 3.750000000000001e+00	 3.875000000000000e+00	 1.038069427692308e+01
0	 3.750000000000000e+00	 3.937499999999999e+00	 1.036844566153845e+01
0	 3.750000000000000e+00	 4.000000000000000e+00	 1.035633218461538e+01
0	 3.750000000000000e+00	 4.062499999999999e+00	 1.034435384615385e+01
0	 3.750000000000000e+00	 4.124999999999999e+00	 1.033251064615384e+01
0	 3.750000000000000e+00	 4.187499999999998e+00	 1.032080258461538e+01
0	 3.750000000000000e+00	 4.249999999999998e+00	 1.030922966153846e+01
0	 3.750000000000000e+00	 4.312499999999998e+00	 1.029779187692309e+01
0	 3.750000000000000e+00	 4.375000000000000e+00	 1.028648923076923e+01
0	 3.812500000000000e+00	 3.750000000000000e+00	 1.040601010769232e+01
0	 3.812500000000000e+00	 3.812500000000000e+00	 1.039399933076923e+01
0	 3.812500000000000e+00	 3.875000000000000e+00	 1.038212239076923e+01
0	 3.812500000000000e+00	 3.937500000000000e+00	 1.037037928769231e+01
0	 3.812500000000000e+00	 3.999999999999999e+00	 1.035877002153845e+01
0	 3.812500000000000e+00	 4.062499999999999e+00	 1.034729459230769e+01
0	 3.812500000000000e+00	 4.125000000000000e+00	 1.033595300000001e+01
0	 3.812500000000000e+00	 4.187500000000000e+00	 1.032474524461539e+01
0	 3.812500000000001e+00	 4.250000000000000e+00	 1.031367132615383e+01
0	 3.812499999999999e+00	 4.312499999999997e+00	 1.030273124461538e+01
0	 3.812500000000000e+00	 4.375000000000000e+00	 1.029192500000000e+01
0	 3.874999999999999e+00	 3.750000000000000e+00	 1.040598843076923e+01
0	 3.875000000000000e+00	 3.812500000000000e+00	 1.039445462461538e+01
0	 3.875000000000000e+00	 3.875000000000000e+00	 1.038305335384615e+01
0	 3.875000000000000e+00	 3.937500000000000e+00	 1.037178461846153e+01
0	 3.874999999999998e+00	 3.999999999999999e+00	 1.036064841846154e+01
0	 3.875000000000000e+00	 4.062499999999999e+00	 1.034964475384615e+01
0	 3.874999999999998e+00	 4.124999999999997e+00	 1.033877362461540e+01
0	 3.875000000000000e+00	 4.187499999999998e+00	 1.032803503076923e+01
0	 3.874999999999999e+00	 4.249999999999998e+00	 1.031742897230769e+01
0	 3.875000000000000e+00	 4.312499999999998e+00	 1.030695544923078e+01
0	 3.874999999999999e+00	 4.375000000000000e+00	 1.029661446153844e+01
0	 3.937499999999999e+00	 3.750000000000000e+00	 1.040553189230770e+01
0	 3.937500000000000e+00	 3.812500000000000e+00	 1.039444391230769e+01
0	 3.937500000000000e+00	 3.875000000000000e+00	 1.038348716615384e+01
0	 3.937500000000000e+00	 3.937500000000000e+00	 1.037266165384616e+01
0	 3.937500000000000e+00	 3.999999999999999e+00	 1.036196737538461e+01
0	 3.937499999999999e+00	 4.062500000000000e+00	 1.035140433076922e+01
0	 3.937500000000000e+00	 4.124999999999998e+00	 1.034097252000000e+01
0	 3.937499999999999e+00	 4.187499999999999e+00	 1.033067194307693e+01
0	 3.937500000000000e+00	 4.249999999999998e+00	 1.032050259999999e+01
0	 3.937499999999998e+00	 4.312499999999997e+00	 1.031046449076923e+01
0	 3.937499999999999e+00	 4.375000000000000e+00	 1.030055761538462e+01
0	 3.999999999999999e+00	 3.750000000000000e+00	 1.040464049230770e+01
0	 3.999999999999999e+00	 3.812500000000000e+00	 1.039396719384615e+01
0	 4.000000000000000e+00	 3.875000000000000e+00	 1.038342382769230e+01
0	 3.999999999999999e+00	 3.937500000000000e+00	 1.037301039384615e+01
0	 3.999999999999999e+00	 3.999999999999999e+00	 1.036272689230770e+01
0	 3.999999999999999e+00	 4.062499999999999e+00	 1.035257332307692e+01
0	 3.999999999999999e+00	 4.124999999999998e+00	 1.034254968615384e+01
0	 3.999999999999999e+00	 4.187499999999999e+00	 1.033265598153846e+01
0	 3.999999999999999e+00	 4.249999999999998e+00	 1.032289220923077e+01
0	 3.999999999999999e+00	 4.312499999999998e+00	 1.031325836923076e+01
0	 3.999999999999999e+00	 4.375000000000000e+00	 1.030375446153846e+01
0	 4.062499999999999e+00	 3.750000000000000e+00	 1.040331423076923e+01
0	 4.062499999999999e+00	 3.812500000000000e+00	 1.039302446923078e+01
0	 4.062499999999999e+00	 3.875000000000000e+00	 1.038286333846154e+01
0	 4.062500000000000e+00	 3.937499999999999e+00	 1.037283083846154e+01
0	 4.062499999999997e+00	 3.999999999999998e+00	 1.036292696923076e+01
0	 4.062499999999999e+00	 4.062499999999999e+00	 1.035315173076923e+01
0	 4.062500000000000e+00	 4.125000000000000e+00	 1.034350512307692e+01
0	 4.062499999999999e+00	 4.187499999999998e+00	 1.033398714615384e+01
0	 4.062499999999999e+00	 4.249999999999998e+00	 1.032459779999999e+01
0	 4.062499999999999e+00	 4.312499999999998e+00	 1.031533708461538e+01
0	 4.062499999999999e+00	 4.375000000000000e+00	 1.030620500000000e+01
0	 4.124999999999998e+00	 3.750000000000000e+00	 1.040155310769231e+01
0	 4.124999999999998e+00	 3.812500000000000e+00	 1.039161573846155e+01
0	 4.124999999999998e+00	 3.874999999999999e+00	 1.038180569846154e+01
0	 4.124999999999997e+00	 3.937500000000000e+00	 1.037212298769230e+01
0	 4.125000000000000e+00	 4.000000000000000e+00	 1.036256760615384e+01
0	 4.124999999999999e+00	 4.062500000000000e+00	 1.035313955384617e+01
0	 4.124999999999999e+00	 4.124999999999999e+00	 1.034383883076923e+01
0	 4.124999999999999e+00	 4.187499999999998e+00	 1.033466543692307e+01
0	 4.124999999999998e+00	 4.249999999999999e+00	 1.032561937230768e+01
0	 4.124999999999998e+00	 4.312499999999997e+00	 1.031670063692308e+01
0	 4.124999999999998e+00	 4.375000000000000e+00	 1.030790923076923e+01
0	 4.187499999999998e+00	 3.750000000000000e+00	 1.039935712307693e+01
0	 4.187499999999998e+00	 3.812500000000000e+00	 1.038974100153845e+01
0	 4.187499999999999e+00	 3.875000000000000e+00	 1.038025090769231e+01
0	 4.187499999999999e+00	 3.937499999999999e+00	 1.037088684153846e+01
0	 4.187499999999998e+00	 3.999999999999999e+00	 1.036164880307692e+01
0	 4.187500000000000e+00	 4.062500000000000e+00	 1.035253679230769e+01
0	 4.187499999999999e+00	 4.124999999999999e+00	 1.034355080923077e+01
0	 4.187499999999999e+00	 4.187499999999999e+00	 1.033469085384615e+01
0	 4.187499999999998e+00	 4.249999999999998e+00	 1.032595692615384e+01
0	 4.187499999999999e+00	 4.312499999999998e+00	 1.031734902615386e+01
0	 4.187499999999998e+00	 4.375000000000000e+00	 1.030886715384616e+01
0	 4.249999999999998e+00	 3.750000000000000e+00	 1.039672627692309e+01
0	 4.250000000000000e+00	 3.812500000000000e+00	 1.038740025846155e+01
0	 4.249999999999998e+00	 3.875000000000000e+00	 1.037819896615385e+01
0	 4.249999999999998e+00	 3.937500000000000e+00	 1.036912240000000e+01
0	 4.249999999999998e+00	 3.999999999999999e+00	 1.036017056000000e+01
0	 4.249999999999998e+00	 4.062499999999998e+00	 1.035134344615384e+01
0	 4.249999999999998e+00	 4.124999999999999e+00	 1.034264105846153e+01
0	 4.249999999999998e+00	 4.187499999999998e+00	 1.033406339692308e+01
0	 4.249999999999998e+00	 4.249999999999998e+00	 1.032561046153847e+01
0	 4.249999999999998e+00	 4.312499999999998e+00	 1.031728225230769e+01
0	 4.249999999999998e+00	 4.375000000000000e+00	 1.030907876923077e+01
0	 4.312499999999998e+00	 3.750000000000000e+00	 1.039366056923077e+01
0	 4.312499999999999e+00	 3.812500000000000e+00	 1.038459350923077e+01
0	 4.312499999999998e+00	 3.875000000000000e+00	 1.037564987384616e+01
0	 4.312499999999998e+00	 3.937499999999999e+00	 1.036682966307692e+01
0	 4.312499999999998e+00	 3.999999999999999e+00	 1.035813287692308e+01
0	 4.312499999999998e+00	 4.062499999999998e+00	 1.034955951538461e+01
0	 4.312499999999997e+00	 4.124999999999998e+00	 1.034110957846154e+01
0	 4.312499999999997e+00	 4.187499999999998e+00	 1.033278306615385e+01
0	 4.312499999999998e+00	 4.249999999999998e+00	 1.032457997846154e+01
0	 4.312499999999998e+00	 4.312499999999998e+00	 1.031650031538461e+01
0	 4.312499999999998e+00	 4.375000000000000e+00	 1.030854407692307e+01
0	 4.375000000000000e+00	 3.750000000000000e+00	 1.039016000000001e+01
0	 4.375000000000000e+00	 3.812500000000000e+00	 1.038132075384616e+01
0	 4.375000000000001e+00	 3.875000000000000e+00	 1.037260363076924e+01
0	 4.375000000000000e+00	 3.937499999999999e+00	 1.036400863076922e+01
0	 4.375000000000000e+00	 4.000000000000000e+00	 1.035553575384616e+01
0	 4.375000000000000e+00	 4.062499999999999e+00	 1.034718500000000e+01
0	 4.375000000000000e+00	 4.124999999999999e+00	 1.033895636923076e+01
0	 4.375000000000000e+00	 4.187499999999998e+00	 1.033084986153846e+01
0	 4.375000000000000e+00	 4.249999999999998e+00	 1.032286547692307e+01
0	 4.375000000000000e+00	 4.312499999999998e+00	 1.031500321538462e+01
0	 4.375000000000000e+00	 4.375000000000000e+00	 1.030726307692307e+01
0	 3.750000000000000e+00	 4.375000000000000e+00	 1.028648923076923e+01
0	 3.750000000000000e+00	 4.437499999999999e+00	 1.027791150769228e+01
0	 3.750000000000001e+00	 4.500000000000001e+00	 1.026926603076923e+01
0	 3.750000000000000e+00	 4.562499999999999e+00	 1.026055280000000e+01
0	 3.750000000000000e+00	 4.625000000000000e+00	 1.025177181538461e+01
0	 3.750000000000000e+00	 4.687499999999999e+00	 1.024292307692307e+01
0	 3.750000000000000e+00	 4.749999999999999e+00	 1.023400658461538e+01
0	 3.750000000000000e+00	 4.812499999999998e+00	 1.022502233846154e+01
0	 3.750000000000000e+00	 4.874999999999998e+00	 1.021597033846154e+01
0	 3.750000000000000e+00	 4.937499999999998e+00	 1.020685058461538e+01
0	 3.750000000000000e+00	 5.000000000000000e+00	 1.019766307692307e+01
0	 3.812500000000000e+00	 4.375000000000000e+00	 1.029192500000000e+01
0	 3.812500000000000e+00	 4.437500000000000e+00	 1.028331780615384e+01
0	 3.812500000000000e+00	 4.499999999999999e+00	 1.027465650153847e+01
0	 3.812500000000000e+00	 4.562499999999999e+00	 1.026594108615384e+01
0	 3.812500000000000e+00	 4.625000000000000e+00	 1.025717156000000e+01
0	 3.812500000000000e+00	 4.687500000000001e+00	 1.024834792307692e+01
0	 3.812500000000000e+00	 4.749999999999999e+00	 1.023947017538461e+01
0	 3.812500000000000e+00	 4.812499999999999e+00	 1.023053831692307e+01
0	 3.812500000000001e+00	 4.875000000000000e+00	 1.022155234769232e+01
0	 3.812499999999999e+00	 4.937499999999997e+00	 1.021251226769230e+01
0	 3.812500000000000e+00	 4.999999999999999e+00	 1.020341807692306e+01
0	 3.874999999999999e+00	 4.375000000000000e+00	 1.029661446153844e+01
0	 3.875000000000000e+00	 4.437500000000000e+00	 1.028799696615384e+01
0	 3.875000000000000e+00	 4.500000000000001e+00	 1.027933900307692e+01
0	 3.875000000000000e+00	 4.562499999999999e+00	 1.027064057230768e+01
0	 3.874999999999998e+00	 4.624999999999998e+00	 1.026190167384615e+01
0	 3.875000000000000e+00	 4.687499999999997e+00	 1.025312230769231e+01
0	 3.874999999999998e+00	 4.749999999999998e+00	 1.024430247384615e+01
0	 3.875000000000000e+00	 4.812499999999999e+00	 1.023544217230768e+01
0	 3.874999999999999e+00	 4.874999999999998e+00	 1.022654140307693e+01
0	 3.875000000000000e+00	 4.937499999999998e+00	 1.021760016615385e+01
0	 3.874999999999999e+00	 5.000000000000000e+00	 1.020861846153846e+01
0	 3.937499999999999e+00	 4.375000000000000e+00	 1.030055761538462e+01
0	 3.937500000000000e+00	 4.437500000000000e+00	 1.029194898769231e+01
0	 3.937500000000000e+00	 4.500000000000000e+00	 1.028331353538461e+01
0	 3.937500000000000e+00	 4.562499999999999e+00	 1.027465125846153e+01
0	 3.937500000000000e+00	 4.625000000000000e+00	 1.026596215692308e+01
0	 3.937499999999999e+00	 4.687499999999999e+00	 1.025724623076922e+01
0	 3.937500000000000e+00	 4.749999999999998e+00	 1.024850348000000e+01
0	 3.937499999999999e+00	 4.812499999999998e+00	 1.023973390461538e+01
0	 3.937500000000000e+00	 4.874999999999998e+00	 1.023093750461539e+01
0	 3.937499999999998e+00	 4.937499999999997e+00	 1.022211427999999e+01
0	 3.937499999999999e+00	 4.999999999999999e+00	 1.021326423076922e+01
0	 3.999999999999999e+00	 4.375000000000000e+00	 1.030375446153846e+01
0	 3.999999999999999e+00	 4.437500000000000e+00	 1.029517387076923e+01
0	 4.000000000000000e+00	 4.500000000000000e+00	 1.028658009846153e+01
0	 3.999999999999999e+00	 4.562499999999999e+00	 1.027797314461538e+01
0	 3.999999999999999e+00	 4.624999999999999e+00	 1.026935300923077e+01
0	 3.999999999999999e+00	 4.687500000000000e+00	 1.026071969230770e+01
0	 3.999999999999999e+00	 4.749999999999998e+00	 1.025207319384615e+01
0	 3.999999999999999e+00	 4.812499999999999e+00	 1.024341351384615e+01
0	 3.999999999999999e+00	 4.874999999999998e+00	 1.023474065230769e+01
0	 3.999999999999999e+00	 4.937499999999997e+00	 1.022605460923076e+01
0	 3.999999999999999e+00	 5.000000000000000e+00	 1.021735538461538e+01
0	 4.062499999999999e+00	 4.375000000000000e+00	 1.030620500000000e+01
0	 4.062499999999999e+00	 4.437499999999999e+00	 1.029767161538461e+01
0	 4.062499999999999e+00	 4.499999999999999e+00	 1.028913869230769e+01
0	 4.062500000000000e+00	 4.562499999999999e+00	 1.028060623076923e+01
0	 4.062499999999997e+00	 4.624999999999998e+00	 1.027207423076923e+01
0	 4.062499999999999e+00	 4.687499999999999e+00	 1.026354269230770e+01
0	 4.062500000000000e+00	 4.750000000000000e+00	 1.025501161538462e+01
0	 4.062499999999999e+00	 4.812499999999998e+00	 1.024648099999999e+01
0	 4.062499999999999e+00	 4.874999999999998e+00	 1.023795084615384e+01
0	 4.062499999999999e+00	 4.937499999999999e+00	 1.022942115384615e+01
0	 4.062499999999999e+00	 5.000000000000000e+00	 1.022089192307691e+01
0	 4.124999999999998e+00	 4.375000000000000e+00	 1.030790923076923e+01
0	 4.124999999999998e+00	 4.437499999999999e+00	 1.029944222153846e+01
0	 4.124999999999998e+00	 4.499999999999998e+00	 1.029098931692307e+01
0	 4.124999999999997e+00	 4.562499999999999e+00	 1.028255051692307e+01
0	 4.125000000000000e+00	 4.625000000000001e+00	 1.027412582153847e+01
0	 4.124999999999999e+00	 4.687499999999999e+00	 1.026571523076923e+01
0	 4.124999999999999e+00	 4.749999999999998e+00	 1.025731874461538e+01
0	 4.124999999999999e+00	 4.812499999999999e+00	 1.024893636307693e+01
0	 4.124999999999998e+00	 4.874999999999998e+00	 1.024056808615384e+01
0	 4.124999999999998e+00	 4.937499999999999e+00	 1.023221391384615e+01
0	 4.124999999999998e+00	 5.000000000000001e+00	 1.022387384615385e+01
0	 4.187499999999998e+00	 4.375000000000000e+00	 1.030886715384616e+01
0	 4.187499999999998e+00	 4.437499999999999e+00	 1.030048568923077e+01
0	 4.187499999999999e+00	 4.500000000000000e+00	 1.029213197230768e+01
0	 4.187499999999999e+00	 4.562499999999999e+00	 1.028380600307692e+01
0	 4.187499999999998e+00	 4.625000000000000e+00	 1.027550778153846e+01
0	 4.187500000000000e+00	 4.687500000000000e+00	 1.026723730769230e+01
0	 4.187499999999999e+00	 4.749999999999999e+00	 1.025899458153846e+01
0	 4.187499999999999e+00	 4.812499999999999e+00	 1.025077960307693e+01
0	 4.187499999999998e+00	 4.874999999999998e+00	 1.024259237230768e+01
0	 4.187499999999999e+00	 4.937499999999999e+00	 1.023443288923077e+01
0	 4.187499999999998e+00	 4.999999999999999e+00	 1.022630115384616e+01
0	 4.249999999999998e+00	 4.375000000000000e+00	 1.030907876923077e+01
0	 4.250000000000000e+00	 4.437500000000001e+00	 1.030080201846154e+01
0	 4.249999999999998e+00	 4.499999999999999e+00	 1.029256665846153e+01
0	 4.249999999999998e+00	 4.562500000000000e+00	 1.028437268923076e+01
0	 4.249999999999998e+00	 4.624999999999999e+00	 1.027622011076923e+01
0	 4.249999999999998e+00	 4.687499999999998e+00	 1.026810892307692e+01
0	 4.249999999999998e+00	 4.749999999999999e+00	 1.026003912615384e+01
0	 4.249999999999998e+00	 4.812499999999998e+00	 1.025201072000000e+01
0	 4.249999999999998e+00	 4.874999999999999e+00	 1.024402370461538e+01
0	 4.249999999999998e+00	 4.937499999999998e+00	 1.023607807999999e+01
0	 4.249999999999998e+00	 5.000000000000000e+00	 1.022817384615383e+01
0	 4.312499999999998e+00	 4.375000000000000e+00	 1.030854407692307e+01
0	 4.312499999999999e+00	 4.437500000000000e+00	 1.030039120923076e+01
0	 4.312499999999998e+00	 4.500000000000000e+00	 1.029229337538461e+01
0	 4.312499999999998e+00	 4.562500000000000e+00	 1.028425057538462e+01
0	 4.312499999999998e+00	 4.624999999999999e+00	 1.027626280923076e+01
0	 4.312499999999998e+00	 4.687499999999999e+00	 1.026833007692308e+01
0	 4.312499999999997e+00	 4.749999999999999e+00	 1.026045237846153e+01
0	 4.312499999999997e+00	 4.812499999999998e+00	 1.025262971384615e+01
0	 4.312499999999998e+00	 4.874999999999999e+00	 1.024486208307692e+01
0	 4.312499999999998e+00	 4.937499999999998e+00	 1.023714948615385e+01
0	 4.312499999999998e+00	 5.000000000000000e+00	 1.022949192307693e+01
0	 4.375000000000000e+00	 4.375000000000000e+00	 1.030726307692307e+01
0	 4.375000000000000e+00	 4.437499999999999e+00	 1.029925326153844e+01
0	 4.375000000000001e+00	 4.500000000000001e+00	 1.029131212307693e+01
0	 4.375000000000000e+00	 4.562499999999999e+00	 1.028343966153846e+01
0	 4.375000000000000e+00	 4.625000000000000e+00	 1.027563587692307e+01
0	 4.375000000000000e+00	 4.687499999999999e+00	 1.026790076923076e+01
0	 4.375000000000000e+00	 4.749999999999999e+00	 1.026023433846154e+01
0	 4.375000000000000e+00	 4.812499999999998e+00	 1.025263658461538e+01
0	 4.375000000000000e+00	 4.874999999999998e+00	 1.024510750769231e+01
0	 4.375000000000000e+00	 4.937499999999998e+00	 1.023764710769230e+01
0	 4.375000000000000e+00	 5.000000000000000e+00	 1.023025538461538e+01
0	 3.750000000000000e+00	 5.000000000000000e+00	 1.019766307692307e+01
0	 3.750000000000000e+00	 5.062500000000000e+00	 1.019123830769231e+01
0	 3.750000000000001e+00	 5.125000000000001e+00	 1.018476369230769e+01
0	 3.750000000000000e+00	 5.187499999999999e+00	 1.017823923076921e+01
0	 3.750000000000000e+00	 5.249999999999999e+00	 1.017166492307692e+01
0	 3.750000000000000e+00	 5.312499999999999e+00	 1.016504076923077e+01
0	 3.750000000000000e+00	 5.374999999999998e+00	 1.015836676923077e+01
0	 3.750000000000000e+00	 5.437499999999998e+00	 1.015164292307692e+01
0	 3.750000000000000e+00	 5.499999999999998e+00	 1.014486923076924e+01
0	 3.750000000000000e+00	 5.562499999999998e+00	 1.013804569230769e+01
0	 3.750000000000000e+00	 5.625000000000000e+00	 1.013117230769231e+01
0	 3.812500000000000e+00	 4.999999999999999e+00	 1.020341807692306e+01
0	 3.812500000000000e+00	 5.062500000000000e+00	 1.019698964461538e+01
0	 3.812500000000000e+00	 5.125000000000000e+00	 1.019051443076923e+01
0	 3.812500000000000e+00	 5.187499999999999e+00	 1.018399243538462e+01
0	 3.812500000000000e+00	 5.249999999999998e+00	 1.017742365846154e+01
0	 3.812500000000000e+00	 5.312500000000000e+00	 1.017080810000000e+01
0	 3.812500000000000e+00	 5.374999999999999e+00	 1.016414576000001e+01
0	 3.812500000000000e+00	 5.437499999999999e+00	 1.015743663846155e+01
0	 3.812500000000001e+00	 5.499999999999999e+00	 1.015068073538462e+01
0	 3.812499999999999e+00	 5.562499999999996e+00	 1.014387805076924e+01
0	 3.812500000000000e+00	 5.625000000000000e+00	 1.013702858461538e+01
0	 3.874999999999999e+00	 5.000000000000000e+00	 1.020861846153846e+01
0	 3.875000000000000e+00	 5.062499999999999e+00	 1.020219302153846e+01
0	 3.875000000000000e+00	 5.125000000000001e+00	 1.019572386461537e+01
0	 3.875000000000000e+00	 5.187499999999998e+00	 1.018921099076923e+01
0	 3.874999999999998e+00	 5.249999999999999e+00	 1.018265440000000e+01
0	 3.875000000000000e+00	 5.312499999999999e+00	 1.017605409230769e+01
0	 3.874999999999998e+00	 5.374999999999999e+00	 1.016941006769231e+01
0	 3.875000000000000e+00	 5.437499999999999e+00	 1.016272232615385e+01
0	 3.874999999999999e+00	 5.499999999999998e+00	 1.015599086769231e+01
0	 3.875000000000000e+00	 5.562499999999999e+00	 1.014921569230768e+01
0	 3.874999999999999e+00	 5.625000000000000e+00	 1.014239680000001e+01
0	 3.937499999999999e+00	 4.999999999999999e+00	 1.021326423076922e+01
0	 3.937500000000000e+00	 5.062500000000001e+00	 1.020684843846153e+01
0	 3.937500000000000e+00	 5.125000000000000e+00	 1.020039199384616e+01
0	 3.937500000000000e+00	 5.187499999999999e+00	 1.019389489692308e+01
0	 3.937500000000000e+00	 5.250000000000000e+00	 1.018735714769231e+01
0	 3.937499999999999e+00	 5.312499999999999e+00	 1.018077874615384e+01
0	 3.937500000000000e+00	 5.374999999999998e+00	 1.017415969230769e+01
0	 3.937499999999999e+00	 5.437499999999999e+00	 1.016749998615385e+01
0	 3.937500000000000e+00	 5.499999999999998e+00	 1.016079962769232e+01
0	 3.937499999999998e+00	 5.562499999999997e+00	 1.015405861692307e+01
0	 3.937499999999999e+00	 5.625000000000000e+00	 1.014727695384614e+01
0	 3.999999999999999e+00	 5.000000000000000e+00	 1.021735538461538e+01
0	 3.999999999999999e+00	 5.062500000000000e+00	 1.021095589538460e+01
0	 4.000000000000000e+00	 5.125000000000000e+00	 1.020451881846152e+01
0	 3.999999999999999e+00	 5.187500000000000e+00	 1.019804415384615e+01
0	 3.999999999999999e+00	 5.249999999999999e+00	 1.019153190153845e+01
0	 3.999999999999999e+00	 5.312499999999999e+00	 1.018498206153847e+01
0	 3.999999999999999e+00	 5.374999999999998e+00	 1.017839463384616e+01
0	 3.999999999999999e+00	 5.437499999999999e+00	 1.017176961846155e+01
0	 3.999999999999999e+00	 5.499999999999999e+00	 1.016510701538461e+01
0	 3.999999999999999e+00	 5.562499999999998e+00	 1.015840682461540e+01
0	 3.999999999999999e+00	 5.625000000000000e+00	 1.015166904615384e+01
0	 4.062499999999999e+00	 5.000000000000000e+00	 1.022089192307691e+01
0	 4.062499999999999e+00	 5.062500000000000e+00	 1.021451539230770e+01
0	 4.062499999999999e+00	 5.124999999999999e+00	 1.020810433846154e+01
0	 4.062500000000000e+00	 5.187500000000000e+00	 1.020165876153845e+01
0	 4.062499999999997e+00	 5.249999999999998e+00	 1.019517866153845e+01
0	 4.062499999999999e+00	 5.312499999999999e+00	 1.018866403846153e+01
0	 4.062500000000000e+00	 5.375000000000000e+00	 1.018211489230769e+01
0	 4.062499999999999e+00	 5.437499999999998e+00	 1.017553122307692e+01
0	 4.062499999999999e+00	 5.499999999999998e+00	 1.016891303076922e+01
0	 4.062499999999999e+00	 5.562499999999999e+00	 1.016226031538462e+01
0	 4.062499999999999e+00	 5.625000000000000e+00	 1.015557307692307e+01
0	 4.124999999999998e+00	 5.000000000000001e+00	 1.022387384615385e+01
0	 4.124999999999998e+00	 5.062499999999999e+00	 1.021752692923076e+01
0	 4.124999999999998e+00	 5.125000000000000e+00	 1.021114855384614e+01
0	 4.124999999999997e+00	 5.187500000000000e+00	 1.020473871999999e+01
0	 4.125000000000000e+00	 5.250000000000001e+00	 1.019829742769230e+01
0	 4.124999999999999e+00	 5.312500000000001e+00	 1.019182467692307e+01
0	 4.124999999999999e+00	 5.374999999999999e+00	 1.018532046769232e+01
0	 4.124999999999999e+00	 5.437499999999999e+00	 1.017878480000001e+01
0	 4.124999999999998e+00	 5.499999999999998e+00	 1.017221767384614e+01
0	 4.124999999999998e+00	 5.562499999999998e+00	 1.016561908923077e+01
0	 4.124999999999998e+00	 5.625000000000000e+00	 1.015898904615385e+01
0	 4.187499999999998e+00	 4.999999999999999e+00	 1.022630115384616e+01
0	 4.187499999999998e+00	 5.062500000000000e+00	 1.021999050615384e+01
0	 4.187499999999999e+00	 5.125000000000000e+00	 1.021365146461538e+01
0	 4.187499999999999e+00	 5.187500000000000e+00	 1.020728402923075e+01
0	 4.187499999999998e+00	 5.250000000000000e+00	 1.020088820000000e+01
0	 4.187500000000000e+00	 5.312500000000000e+00	 1.019446397692308e+01
0	 4.187499999999999e+00	 5.374999999999999e+00	 1.018801136000000e+01
0	 4.187499999999999e+00	 5.437499999999998e+00	 1.018153034923076e+01
0	 4.187499999999998e+00	 5.499999999999998e+00	 1.017502094461540e+01
0	 4.187499999999999e+00	 5.562499999999999e+00	 1.016848314615383e+01
0	 4.187499999999998e+00	 5.625000000000000e+00	 1.016191695384615e+01
0	 4.249999999999998e+00	 5.000000000000000e+00	 1.022817384615383e+01
0	 4.250000000000000e+00	 5.062500000000002e+00	 1.022190612307694e+01
0	 4.249999999999998e+00	 5.124999999999999e+00	 1.021561307076923e+01
0	 4.249999999999998e+00	 5.187500000000000e+00	 1.020929468923078e+01
0	 4.249999999999998e+00	 5.249999999999998e+00	 1.020295097846153e+01
0	 4.249999999999998e+00	 5.312499999999999e+00	 1.019658193846154e+01
0	 4.249999999999998e+00	 5.374999999999998e+00	 1.019018756923077e+01
0	 4.249999999999998e+00	 5.437499999999998e+00	 1.018376787076922e+01
0	 4.249999999999998e+00	 5.499999999999999e+00	 1.017732284307693e+01
0	 4.249999999999998e+00	 5.562499999999998e+00	 1.017085248615385e+01
0	 4.249999999999998e+00	 5.625000000000000e+00	 1.016435680000002e+01
0	 4.312499999999998e+00	 5.000000000000000e+00	 1.022949192307693e+01
0	 4.312499999999999e+00	 5.062500000000000e+00	 1.022327378000001e+01
0	 4.312499999999998e+00	 5.125000000000001e+00	 1.021703337230769e+01
0	 4.312499999999998e+00	 5.187499999999999e+00	 1.021077070000000e+01
0	 4.312499999999998e+00	 5.249999999999999e+00	 1.020448576307692e+01
0	 4.312499999999998e+00	 5.312499999999998e+00	 1.019817856153846e+01
0	 4.312499999999997e+00	 5.374999999999997e+00	 1.019184909538460e+01
0	 4.312499999999997e+00	 5.437499999999998e+00	 1.018549736461539e+01
0	 4.312499999999998e+00	 5.499999999999999e+00	 1.017912336923077e+01
0	 4.312499999999998e+00	 5.562499999999998e+00	 1.017272710923077e+01
0	 4.312499999999998e+00	 5.625000000000000e+00	 1.016630858461538e+01
0	 4.375000000000000e+00	 5.000000000000000e+00	 1.023025538461538e+01
0	 4.375000000000000e+00	 5.062500000000000e+00	 1.022409347692309e+01
0	 4.375000000000001e+00	 5.125000000000001e+00	 1.021791236923077e+01
0	 4.375000000000000e+00	 5.187499999999999e+00	 1.021171206153845e+01
0	 4.375000000000000e+00	 5.249999999999999e+00	 1.020549255384615e+01
0	 4.375000000000000e+00	 5.312499999999999e+00	 1.019925384615384e+01
0	 4.375000000000000e+00	 5.374999999999998e+00	 1.019299593846154e+01
0	 4.375000000000000e+00	 5.437499999999998e+00	 1.018671883076922e+01
0	 4.375000000000000e+00	 5.499999999999998e+00	 1.018042252307693e+01
0	 4.375000000000000e+00	 5.562499999999998e+00	 1.017410701538462e+01
0	 4.375000000000000e+00	 5.625000000000000e+00	 1.016777230769231e+01
0	 3.750000000000000e+00	 5.625000000000000e+00	 1.013117230769231e+01
0	 3.750000000000000e+00	 5.687500000000000e+00	 1.012693707692307e+01
0	 3.750000000000001e+00	 5.750000000000000e+00	 1.012262615384615e+01
0	 3.750000000000000e+00	 5.812499999999999e+00	 1.011823953846154e+01
0	 3.750000000000000e+00	 5.874999999999999e+00	 1.011377723076923e+01
0	 3.750000000000000e+00	 5.937499999999999e+00	 1.010923923076923e+01
0	 3.750000000000000e+00	 5.999999999999998e+00	 1.010462553846154e+01
0	 3.750000000000000e+00	 6.062499999999998e+00	 1.009993615384616e+01
0	 3.750000000000000e+00	 6.124999999999998e+00	 1.009517107692308e+01
0	 3.750000000000000e+00	 6.187499999999998e+00	 1.009033030769231e+01
0	 3.750000000000000e+00	 6.250000000000000e+00	 1.008541384615384e+01
0	 3.812500000000000e+00	 5.625000000000000e+00	 1.013702858461538e+01
0	 3.812500000000000e+00	 5.687499999999999e+00	 1.013266789076923e+01
0	 3.812500000000000e+00	 5.749999999999999e+00	 1.012823634153846e+01
0	 3.812500000000000e+00	 5.812499999999998e+00	 1.012373393692309e+01
0	 3.812500000000000e+00	 5.875000000000000e+00	 1.011916067692308e+01
0	 3.812500000000000e+00	 5.937500000000001e+00	 1.011451656153845e+01
0	 3.812500000000000e+00	 5.999999999999999e+00	 1.010980159076923e+01
0	 3.812500000000000e+00	 6.062500000000000e+00	 1.010501576461538e+01
0	 3.812500000000001e+00	 6.125000000000000e+00	 1.010015908307691e+01
0	 3.812499999999999e+00	 6.187499999999996e+00	 1.009523154615383e+01
0	 3.812500000000000e+00	 6.250000000000000e+00	 1.009023315384614e+01
0	 3.874999999999999e+00	 5.625000000000000e+00	 1.014239680000001e+01
0	 3.875000000000000e+00	 5.687499999999999e+00	 1.013792509538461e+01
0	 3.875000000000000e+00	 5.750000000000002e+00	 1.013338737230769e+01
0	 3.875000000000000e+00	 5.812499999999999e+00	 1.012878363076924e+01
0	 3.874999999999998e+00	 5.874999999999998e+00	 1.012411387076924e+01
0	 3.875000000000000e+00	 5.937499999999999e+00	 1.011937809230769e+01
0	 3.874999999999998e+00	 5.999999999999998e+00	 1.011457629538461e+01
0	 3.875000000000000e+00	 6.062499999999999e+00	 1.010970847999999e+01
0	 3.874999999999999e+00	 6.124999999999998e+00	 1.010477464615384e+01
0	 3.875000000000000e+00	 6.187499999999998e+00	 1.009977479384615e+01
0	 3.874999999999999e+00	 6.250000000000000e+00	 1.009470892307692e+01
0	 3.937499999999999e+00	 5.625000000000000e+00	 1.014727695384614e+01
0	 3.937500000000000e+00	 5.687500000000000e+00	 1.014270869076924e+01
0	 3.937500000000000e+00	 5.749999999999999e+00	 1.013807924615385e+01
0	 3.937500000000000e+00	 5.812499999999999e+00	 1.013338861999999e+01
0	 3.937500000000000e+00	 5.875000000000000e+00	 1.012863681230769e+01
0	 3.937499999999999e+00	 5.937500000000000e+00	 1.012382382307692e+01
0	 3.937500000000000e+00	 5.999999999999998e+00	 1.011894965230769e+01
0	 3.937499999999999e+00	 6.062499999999998e+00	 1.011401430000001e+01
0	 3.937500000000000e+00	 6.124999999999997e+00	 1.010901776615385e+01
0	 3.937499999999998e+00	 6.187499999999997e+00	 1.010396005076924e+01
0	 3.937499999999999e+00	 6.250000000000000e+00	 1.009884115384613e+01
0	 3.999999999999999e+00	 5.625000000000000e+00	 1.015166904615384e+01
0	 3.999999999999999e+00	 5.687500000000000e+00	 1.014701867692309e+01
0	 4.000000000000000e+00	 5.750000000000000e+00	 1.014231196307694e+01
0	 3.999999999999999e+00	 5.812500000000000e+00	 1.013754890461538e+01
0	 3.999999999999999e+00	 5.874999999999999e+00	 1.013272950153846e+01
0	 3.999999999999999e+00	 5.937499999999999e+00	 1.012785375384616e+01
0	 3.999999999999999e+00	 5.999999999999997e+00	 1.012292166153847e+01
0	 3.999999999999999e+00	 6.062499999999998e+00	 1.011793322461539e+01
0	 3.999999999999999e+00	 6.124999999999999e+00	 1.011288844307693e+01
0	 3.999999999999999e+00	 6.187499999999998e+00	 1.010778731692308e+01
0	 3.999999999999999e+00	 6.250000000000000e+00	 1.010262984615385e+01
0	 4.062499999999999e+00	 5.625000000000000e+00	 1.015557307692307e+01
0	 4.062499999999999e+00	 5.687500000000000e+00	 1.015085505384616e+01
0	 4.062499999999999e+00	 5.750000000000000e+00	 1.014608552307693e+01
0	 4.062500000000000e+00	 5.812500000000000e+00	 1.014126448461539e+01
0	 4.062499999999997e+00	 5.874999999999998e+00	 1.013639193846154e+01
0	 4.062499999999999e+00	 5.937499999999998e+00	 1.013146788461540e+01
0	 4.062500000000000e+00	 6.000000000000000e+00	 1.012649232307692e+01
0	 4.062499999999999e+00	 6.062499999999998e+00	 1.012146525384616e+01
0	 4.062499999999999e+00	 6.124999999999998e+00	 1.011638667692307e+01
0	 4.062499999999999e+00	 6.187499999999999e+00	 1.011125659230768e+01
0	 4.062499999999999e+00	 6.250000000000000e+00	 1.010607500000000e+01
0	 4.124999999999998e+00	 5.625000000000000e+00	 1.015898904615385e+01
0	 4.124999999999998e+00	 5.687499999999999e+00	 1.015421782153846e+01
0	 4.124999999999998e+00	 5.750000000000000e+00	 1.014939992615385e+01
0	 4.124999999999997e+00	 5.812499999999999e+00	 1.014453535999999e+01
0	 4.125000000000000e+00	 5.875000000000001e+00	 1.013962412307693e+01
0	 4.124999999999999e+00	 5.937499999999999e+00	 1.013466621538461e+01
0	 4.124999999999999e+00	 5.999999999999998e+00	 1.012966163692308e+01
0	 4.124999999999999e+00	 6.062499999999999e+00	 1.012461038769231e+01
0	 4.124999999999998e+00	 6.124999999999998e+00	 1.011951246769230e+01
0	 4.124999999999998e+00	 6.187499999999998e+00	 1.011436787692307e+01
0	 4.124999999999998e+00	 6.250000000000000e+00	 1.010917661538461e+01
0	 4.187499999999998e+00	 5.625000000000000e+00	 1.016191695384615e+01
0	 4.187499999999998e+00	 5.687500000000000e+00	 1.015710698000001e+01
0	 4.187499999999999e+00	 5.750000000000000e+00	 1.015225517230768e+01
0	 4.187499999999999e+00	 5.812499999999999e+00	 1.014736153076923e+01
0	 4.187499999999998e+00	 5.874999999999999e+00	 1.014242605538462e+01
0	 4.187500000000000e+00	 5.937500000000001e+00	 1.013744874615385e+01
0	 4.187499999999999e+00	 5.999999999999999e+00	 1.013242960307693e+01
0	 4.187499999999999e+00	 6.062499999999999e+00	 1.012736862615385e+01
0	 4.187499999999998e+00	 6.124999999999999e+00	 1.012226581538463e+01
0	 4.187499999999999e+00	 6.187499999999999e+00	 1.011712117076922e+01
0	 4.187499999999998e+00	 6.250000000000000e+00	 1.011193469230768e+01
0	 4.249999999999998e+00	 5.625000000000000e+00	 1.016435680000002e+01
0	 4.250000000000000e+00	 5.687500000000000e+00	 1.015952252923077e+01
0	 4.249999999999998e+00	 5.750000000000000e+00	 1.015465126153846e+01
0	 4.249999999999998e+00	 5.812499999999999e+00	 1.014974299692307e+01
0	 4.249999999999998e+00	 5.875000000000000e+00	 1.014479773538461e+01
0	 4.249999999999998e+00	 5.937500000000000e+00	 1.013981547692306e+01
0	 4.249999999999998e+00	 5.999999999999998e+00	 1.013479622153846e+01
0	 4.249999999999998e+00	 6.062499999999998e+00	 1.012973996923078e+01
0	 4.249999999999998e+00	 6.124999999999999e+00	 1.012464671999999e+01
0	 4.249999999999998e+00	 6.187499999999998e+00	 1.011951647384616e+01
0	 4.249999999999998e+00	 6.250000000000000e+00	 1.011434923076923e+01
0	 4.312499999999998e+00	 5.625000000000000e+00	 1.016630858461538e+01
0	 4.312499999999999e+00	 5.687500000000000e+00	 1.016146446923077e+01
0	 4.312499999999998e+00	 5.750000000000000e+00	 1.015658819384615e+01
0	 4.312499999999998e+00	 5.812499999999999e+00	 1.015167975846154e+01
0	 4.312499999999998e+00	 5.875000000000000e+00	 1.014673916307692e+01
0	 4.312499999999998e+00	 5.937499999999999e+00	 1.014176640769230e+01
0	 4.312499999999997e+00	 5.999999999999998e+00	 1.013676149230769e+01
0	 4.312499999999997e+00	 6.062499999999998e+00	 1.013172441692308e+01
0	 4.312499999999998e+00	 6.124999999999998e+00	 1.012665518153845e+01
0	 4.312499999999998e+00	 6.187499999999997e+00	 1.012155378615384e+01
0	 4.312499999999998e+00	 6.250000000000000e+00	 1.011642023076921e+01
0	 4.375000000000000e+00	 5.625000000000000e+00	 1.016777230769231e+01
0	 4.375000000000000e+00	 5.687500000000000e+00	 1.016293279999999e+01
0	 4.375000000000001e+00	 5.750000000000000e+00	 1.015806596923076e+01
0	 4.375000000000000e+00	 5.812499999999999e+00	 1.015317181538462e+01
0	 4.375000000000000e+00	 5.874999999999999e+00	 1.014825033846154e+01
0	 4.375000000000000e+00	 5.937499999999999e+00	 1.014330153846154e+01
0	 4.375000000000000e+00	 5.999999999999998e+00	 1.013832541538461e+01
0	 4.375000000000000e+00	 6.062499999999998e+00	 1.013332196923078e+01
0	 4.375000000000000e+00	 6.124999999999998e+00	 1.012829120000001e+01
0	 4.375000000000000e+00	 6.187499999999998e+00	 1.012323310769230e+01
0	 4.375000000000000e+00	 6.250000000000000e+00	 1.011814769230769e+01
0	 3.750000000000000e+00	 6.250000000000000e+00	 1.008541384615384e+01
0	 3.750000000000000e+00	 6.312500000000000e+00	 1.008250850769231e+01
0	 3.750000000000001e+00	 6.375000000000000e+00	 1.007955064615384e+01
0	 3.750000000000000e+00	 6.437499999999999e+00	 1.007654026153844e+01
0	 3.750000000000000e+00	 6.499999999999999e+00	 1.007347735384615e+01
0	 3.750000000000000e+00	 6.562499999999998e+00	 1.007036192307693e+01
0	 3.750000000000000e+00	 6.624999999999998e+00	 1.006719396923077e+01
0	 3.750000000000000e+00	 6.687499999999998e+00	 1.006397349230769e+01
0	 3.750000000000000e+00	 6.749999999999998e+00	 1.006070049230770e+01
0	 3.750000000000000e+00	 6.812499999999998e+00	 1.005737496923077e+01
0	 3.750000000000000e+00	 6.875000000000000e+00	 1.005399692307692e+01
0	 3.812500000000000e+00	 6.250000000000000e+00	 1.009023315384614e+01
0	 3.812500000000000e+00	 6.312500000000000e+00	 1.008721487076921e+01
0	 3.812500000000000e+00	 6.374999999999999e+00	 1.008414515384615e+01
0	 3.812500000000000e+00	 6.437500000000000e+00	 1.008102400307692e+01
0	 3.812500000000000e+00	 6.499999999999997e+00	 1.007785141846154e+01
0	 3.812500000000000e+00	 6.562500000000000e+00	 1.007462739999999e+01
0	 3.812500000000000e+00	 6.624999999999999e+00	 1.007135194769231e+01
0	 3.812500000000000e+00	 6.687499999999999e+00	 1.006802506153847e+01
0	 3.812500000000001e+00	 6.749999999999999e+00	 1.006464674153846e+01
0	 3.812499999999999e+00	 6.812499999999996e+00	 1.006121698769231e+01
0	 3.812500000000000e+00	 6.875000000000001e+00	 1.005773580000000e+01
0	 3.874999999999999e+00	 6.250000000000000e+00	 1.009470892307692e+01
0	 3.875000000000000e+00	 6.312499999999999e+00	 1.009158751692308e+01
0	 3.875000000000000e+00	 6.375000000000000e+00	 1.008841576615385e+01
0	 3.875000000000000e+00	 6.437499999999998e+00	 1.008519367076922e+01
0	 3.874999999999998e+00	 6.499999999999996e+00	 1.008192123076923e+01
0	 3.875000000000000e+00	 6.562499999999998e+00	 1.007859844615384e+01
0	 3.874999999999998e+00	 6.624999999999996e+00	 1.007522531692308e+01
0	 3.875000000000000e+00	 6.687499999999999e+00	 1.007180184307692e+01
0	 3.874999999999999e+00	 6.749999999999997e+00	 1.006832802461539e+01
0	 3.875000000000000e+00	 6.812500000000000e+00	 1.006480386153847e+01
0	 3.874999999999999e+00	 6.875000000000000e+00	 1.006122935384617e+01
0	 3.937499999999999e+00	 6.250000000000000e+00	 1.009884115384613e+01
0	 3.937500000000000e+00	 6.312499999999999e+00	 1.009562644615386e+01
0	 3.937500000000000e+00	 6.375000000000000e+00	 1.009236248307691e+01
0	 3.937500000000000e+00	 6.437500000000000e+00	 1.008904926461537e+01
0	 3.937500000000000e+00	 6.499999999999998e+00	 1.008568679076923e+01
0	 3.937499999999999e+00	 6.562499999999999e+00	 1.008227506153846e+01
0	 3.937500000000000e+00	 6.624999999999999e+00	 1.007881407692307e+01
0	 3.937499999999999e+00	 6.687499999999998e+00	 1.007530383692308e+01
0	 3.937500000000000e+00	 6.749999999999998e+00	 1.007174434153846e+01
0	 3.937499999999998e+00	 6.812499999999997e+00	 1.006813559076921e+01
0	 3.937499999999999e+00	 6.874999999999999e+00	 1.006447758461539e+01
0	 3.999999999999999e+00	 6.250000000000000e+00	 1.010262984615385e+01
0	 3.999999999999999e+00	 6.312499999999999e+00	 1.009933165846155e+01
0	 4.000000000000000e+00	 6.375000000000000e+00	 1.009598530461539e+01
0	 3.999999999999999e+00	 6.437499999999999e+00	 1.009259078461538e+01
0	 3.999999999999999e+00	 6.499999999999997e+00	 1.008914809846153e+01
0	 3.999999999999999e+00	 6.562499999999999e+00	 1.008565724615384e+01
0	 3.999999999999999e+00	 6.624999999999998e+00	 1.008211822769229e+01
0	 3.999999999999999e+00	 6.687499999999998e+00	 1.007853104307692e+01
0	 3.999999999999999e+00	 6.749999999999998e+00	 1.007489569230770e+01
0	 3.999999999999999e+00	 6.812499999999998e+00	 1.007121217538462e+01
0	 3.999999999999999e+00	 6.875000000000001e+00	 1.006748049230767e+01
0	 4.062499999999999e+00	 6.250000000000000e+00	 1.010607500000000e+01
0	 4.062499999999999e+00	 6.312500000000000e+00	 1.010270315384615e+01
0	 4.062499999999999e+00	 6.375000000000000e+00	 1.009928423076922e+01
0	 4.062500000000000e+00	 6.437499999999999e+00	 1.009581823076923e+01
0	 4.062499999999997e+00	 6.499999999999997e+00	 1.009230515384614e+01
0	 4.062499999999999e+00	 6.562499999999999e+00	 1.008874500000000e+01
0	 4.062500000000000e+00	 6.625000000000000e+00	 1.008513776923076e+01
0	 4.062499999999999e+00	 6.687499999999999e+00	 1.008148346153846e+01
0	 4.062499999999999e+00	 6.749999999999999e+00	 1.007778207692307e+01
0	 4.062499999999999e+00	 6.812499999999998e+00	 1.007403361538461e+01
0	 4.062499999999999e+00	 6.875000000000000e+00	 1.007023807692308e+01
0	 4.124999999999998e+00	 6.250000000000000e+00	 1.010917661538461e+01
0	 4.124999999999998e+00	 6.312499999999999e+00	 1.010574093230770e+01
0	 4.124999999999998e+00	 6.374999999999997e+00	 1.010225926153845e+01
0	 4.124999999999997e+00	 6.437499999999999e+00	 1.009873160307691e+01
0	 4.125000000000000e+00	 6.500000000000000e+00	 1.009515795692307e+01
0	 4.124999999999999e+00	 6.562500000000001e+00	 1.009153832307691e+01
0	 4.124999999999999e+00	 6.624999999999998e+00	 1.008787270153846e+01
0	 4.124999999999999e+00	 6.687499999999999e+00	 1.008416109230769e+01
0	 4.124999999999998e+00	 6.749999999999999e+00	 1.008040349538459e+01
0	 4.124999999999998e+00	 6.812499999999998e+00	 1.007659991076923e+01
0	 4.124999999999998e+00	 6.875000000000000e+00	 1.007275033846152e+01
0	 4.187499999999998e+00	 6.250000000000000e+00	 1.011193469230768e+01
0	 4.187499999999998e+00	 6.312499999999999e+00	 1.010844499384615e+01
0	 4.187499999999999e+00	 6.375000000000001e+00	 1.010491039692307e+01
0	 4.187499999999999e+00	 6.437499999999999e+00	 1.010133090153846e+01
0	 4.187499999999998e+00	 6.500000000000000e+00	 1.009770650769231e+01
0	 4.187500000000000e+00	 6.562499999999999e+00	 1.009403721538461e+01
0	 4.187499999999999e+00	 6.624999999999999e+00	 1.009032302461539e+01
0	 4.187499999999999e+00	 6.687499999999999e+00	 1.008656393538462e+01
0	 4.187499999999998e+00	 6.749999999999998e+00	 1.008275994769231e+01
0	 4.187499999999999e+00	 6.812499999999999e+00	 1.007891106153847e+01
0	 4.187499999999998e+00	 6.875000000000000e+00	 1.007501727692308e+01
0	 4.249999999999998e+00	 6.250000000000000e+00	 1.011434923076923e+01
0	 4.250000000000000e+00	 6.312500000000001e+00	 1.011081533846152e+01
0	 4.249999999999998e+00	 6.374999999999999e+00	 1.010723763692308e+01
0	 4.249999999999998e+00	 6.437500000000000e+00	 1.010361612615384e+01
0	 4.249999999999998e+00	 6.499999999999999e+00	 1.009995080615385e+01
0	 4.249999999999998e+00	 6.562499999999999e+00	 1.009624167692307e+01
0	 4.249999999999998e+00	 6.624999999999998e+00	 1.009248873846153e+01
0	 4.249999999999998e+00	 6.687499999999998e+00	 1.008869199076923e+01
0	 4.249999999999998e+00	 6.749999999999998e+00	 1.008485143384614e+01
0	 4.249999999999998e+00	 6.812499999999998e+00	 1.008096706769230e+01
0	 4.249999999999998e+00	 6.875000000000000e+00	 1.007703889230770e+01
0	 4.312499999999998e+00	 6.250000000000000e+00	 1.011642023076921e+01
0	 4.312499999999999e+00	 6.312500000000000e+00	 1.011285196615386e+01
0	 4.312499999999998e+00	 6.375000000000000e+00	 1.010924098153846e+01
0	 4.312499999999998e+00	 6.437499999999999e+00	 1.010558727692306e+01
0	 4.312499999999998e+00	 6.499999999999998e+00	 1.010189085230768e+01
0	 4.312499999999998e+00	 6.562499999999998e+00	 1.009815170769231e+01
0	 4.312499999999997e+00	 6.624999999999998e+00	 1.009436984307692e+01
0	 4.312499999999997e+00	 6.687499999999998e+00	 1.009054525846153e+01
0	 4.312499999999998e+00	 6.749999999999999e+00	 1.008667795384614e+01
0	 4.312499999999998e+00	 6.812499999999997e+00	 1.008276792923078e+01
0	 4.312499999999998e+00	 6.875000000000000e+00	 1.007881518461537e+01
0	 4.375000000000000e+00	 6.250000000000000e+00	 1.011814769230769e+01
0	 4.375000000000000e+00	 6.312500000000000e+00	 1.011455487692308e+01
0	 4.375000000000001e+00	 6.375000000000000e+00	 1.011092043076923e+01
0	 4.375000000000000e+00	 6.437499999999999e+00	 1.010724435384614e+01
0	 4.375000000000000e+00	 6.499999999999999e+00	 1.010352664615384e+01
0	 4.375000000000000e+00	 6.562499999999998e+00	 1.009976730769231e+01
0	 4.375000000000000e+00	 6.624999999999998e+00	 1.009596633846152e+01
0	 4.375000000000000e+00	 6.687499999999998e+00	 1.009212373846153e+01
0	 4.375000000000000e+00	 6.749999999999998e+00	 1.008823950769231e+01
0	 4.375000000000000e+00	 6.812499999999998e+00	 1.008431364615384e+01
0	 4.375000000000000e+00	 6.875000000000000e+00	 1.008034615384615e+01
0	 3.750000000000000e+00	 6.875000000000000e+00	 1.005399692307692e+01
0	 3.750000000000000e+00	 6.937500000000000e+00	 1.005207458461538e+01
0	 3.750000000000001e+00	 7.000000000000000e+00	 1.005010941538460e+01
0	 3.750000000000000e+00	 7.062500000000000e+00	 1.004810141538462e+01
0	 3.750000000000000e+00	 7.125000000000000e+00	 1.004605058461538e+01
0	 3.750000000000000e+00	 7.187499999999998e+00	 1.004395692307692e+01
0	 3.750000000000000e+00	 7.249999999999998e+00	 1.004182043076925e+01
0	 3.750000000000000e+00	 7.312499999999998e+00	 1.003964110769230e+01
0	 3.750000000000000e+00	 7.374999999999998e+00	 1.003741895384616e+01
0	 3.750000000000000e+00	 7.437499999999998e+00	 1.003515396923077e+01
0	 3.750000000000000e+00	 7.500000000000000e+00	 1.003284615384615e+01
0	 3.812500000000000e+00	 6.875000000000001e+00	 1.005773580000000e+01
0	 3.812500000000000e+00	 6.937499999999999e+00	 1.005569791999998e+01
0	 3.812500000000000e+00	 6.999999999999999e+00	 1.005361766153848e+01
0	 3.812500000000000e+00	 7.062500000000000e+00	 1.005149502461538e+01
0	 3.812500000000000e+00	 7.124999999999998e+00	 1.004933000923077e+01
0	 3.812500000000000e+00	 7.187499999999999e+00	 1.004712261538461e+01
0	 3.812500000000000e+00	 7.250000000000000e+00	 1.004487284307693e+01
0	 3.812500000000000e+00	 7.312499999999999e+00	 1.004258069230768e+01
0	 3.812500000000001e+00	 7.374999999999999e+00	 1.004024616307692e+01
0	 3.812499999999999e+00	 7.437499999999996e+00	 1.003786925538459e+01
0	 3.812500000000000e+00	 7.500000000000000e+00	 1.003544996923078e+01
0	 3.874999999999999e+00	 6.875000000000000e+00	 1.006122935384617e+01
0	 3.875000000000000e+00	 6.937499999999999e+00	 1.005908439692307e+01
0	 3.875000000000000e+00	 7.000000000000001e+00	 1.005689751384614e+01
0	 3.875000000000000e+00	 7.062499999999999e+00	 1.005466870461539e+01
0	 3.874999999999998e+00	 7.124999999999998e+00	 1.005239796923076e+01
0	 3.875000000000000e+00	 7.187499999999999e+00	 1.005008530769231e+01
0	 3.874999999999998e+00	 7.249999999999996e+00	 1.004773072000001e+01
0	 3.875000000000000e+00	 7.312499999999998e+00	 1.004533420615385e+01
0	 3.874999999999999e+00	 7.374999999999997e+00	 1.004289576615384e+01
0	 3.875000000000000e+00	 7.437500000000000e+00	 1.004041540000001e+01
0	 3.874999999999999e+00	 7.499999999999999e+00	 1.003789310769228e+01
0	 3.937499999999999e+00	 6.874999999999999e+00	 1.006447758461539e+01
0	 3.937500000000000e+00	 6.937499999999999e+00	 1.006223401538463e+01
0	 3.937500000000000e+00	 7.000000000000000e+00	 1.005994897230769e+01
0	 3.937500000000000e+00	 7.062500000000000e+00	 1.005762245538460e+01
0	 3.937500000000000e+00	 7.124999999999999e+00	 1.005525446461539e+01
0	 3.937499999999999e+00	 7.187499999999999e+00	 1.005284500000000e+01
0	 3.937500000000000e+00	 7.250000000000000e+00	 1.005039406153846e+01
0	 3.937499999999999e+00	 7.312499999999999e+00	 1.004790164923077e+01
0	 3.937500000000000e+00	 7.374999999999997e+00	 1.004536776307692e+01
0	 3.937499999999998e+00	 7.437499999999998e+00	 1.004279240307691e+01
0	 3.937499999999999e+00	 7.500000000000000e+00	 1.004017556923077e+01
0	 3.999999999999999e+00	 6.875000000000001e+00	 1.006748049230767e+01
0	 3.999999999999999e+00	 6.937499999999999e+00	 1.006514677538461e+01
0	 4.000000000000000e+00	 7.000000000000001e+00	 1.006277203692308e+01
0	 3.999999999999999e+00	 7.062500000000000e+00	 1.006035627692309e+01
0	 3.999999999999999e+00	 7.124999999999999e+00	 1.005789949538462e+01
0	 3.999999999999999e+00	 7.187499999999999e+00	 1.005540169230767e+01
0	 3.999999999999999e+00	 7.249999999999997e+00	 1.005286286769232e+01
0	 3.999999999999999e+00	 7.312499999999998e+00	 1.005028302153844e+01
0	 3.999999999999999e+00	 7.374999999999999e+00	 1.004766215384616e+01
0	 3.999999999999999e+00	 7.437499999999998e+00	 1.004500026461537e+01
0	 3.999999999999999e+00	 7.500000000000000e+00	 1.004229735384616e+01
0	 4.062499999999999e+00	 6.875000000000000e+00	 1.007023807692308e+01
0	 4.062499999999999e+00	 6.937500000000000e+00	 1.006782267692306e+01
0	 4.062499999999999e+00	 7.000000000000000e+00	 1.006536670769232e+01
0	 4.062500000000000e+00	 7.062500000000000e+00	 1.006287016923076e+01
0	 4.062499999999997e+00	 7.124999999999997e+00	 1.006033306153847e+01
0	 4.062499999999999e+00	 7.187499999999999e+00	 1.005775538461539e+01
0	 4.062500000000000e+00	 7.249999999999999e+00	 1.005513713846153e+01
0	 4.062499999999999e+00	 7.312499999999998e+00	 1.005247832307692e+01
0	 4.062499999999999e+00	 7.374999999999997e+00	 1.004977893846156e+01
0	 4.062499999999999e+00	 7.437499999999998e+00	 1.004703898461538e+01
0	 4.062499999999999e+00	 7.500000000000000e+00	 1.004425846153849e+01
0	 4.124999999999998e+00	 6.875000000000000e+00	 1.007275033846152e+01
0	 4.124999999999998e+00	 6.937500000000000e+00	 1.007026172000000e+01
0	 4.124999999999998e+00	 6.999999999999998e+00	 1.006773298461536e+01
0	 4.124999999999997e+00	 7.062500000000000e+00	 1.006516413230770e+01
0	 4.125000000000000e+00	 7.125000000000000e+00	 1.006255516307692e+01
0	 4.124999999999999e+00	 7.187500000000000e+00	 1.005990607692307e+01
0	 4.124999999999999e+00	 7.249999999999998e+00	 1.005721687384617e+01
0	 4.124999999999999e+00	 7.312499999999999e+00	 1.005448755384617e+01
0	 4.124999999999998e+00	 7.374999999999999e+00	 1.005171811692308e+01
0	 4.124999999999998e+00	 7.437499999999998e+00	 1.004890856307691e+01
0	 4.124999999999998e+00	 7.499999999999999e+00	 1.004605889230768e+01
0	 4.187499999999998e+00	 6.875000000000000e+00	 1.007501727692308e+01
0	 4.187499999999998e+00	 6.937499999999999e+00	 1.007246390461539e+01
0	 4.187499999999999e+00	 7.000000000000001e+00	 1.006987086769228e+01
0	 4.187499999999999e+00	 7.062499999999999e+00	 1.006723816615384e+01
0	 4.187499999999998e+00	 7.124999999999999e+00	 1.006456579999999e+01
0	 4.187500000000000e+00	 7.187500000000000e+00	 1.006185376923075e+01
0	 4.187499999999999e+00	 7.249999999999999e+00	 1.005910207384617e+01
0	 4.187499999999999e+00	 7.312500000000000e+00	 1.005631071384616e+01
0	 4.187499999999998e+00	 7.374999999999998e+00	 1.005347968923077e+01
0	 4.187499999999999e+00	 7.437499999999999e+00	 1.005060900000000e+01
0	 4.187499999999998e+00	 7.499999999999998e+00	 1.004769864615387e+01
0	 4.249999999999998e+00	 6.875000000000000e+00	 1.007703889230770e+01
0	 4.250000000000000e+00	 6.937500000000001e+00	 1.007442923076923e+01
0	 4.249999999999998e+00	 6.999999999999998e+00	 1.007178035692310e+01
0	 4.249999999999998e+00	 7.062500000000000e+00	 1.006909227076923e+01
0	 4.249999999999998e+00	 7.125000000000000e+00	 1.006636497230770e+01
0	 4.249999999999998e+00	 7.187500000000000e+00	 1.006359846153847e+01
0	 4.249999999999998e+00	 7.250000000000000e+00	 1.006079273846154e+01
0	 4.249999999999998e+00	 7.312499999999999e+00	 1.005794780307692e+01
0	 4.249999999999998e+00	 7.374999999999998e+00	 1.005506365538462e+01
0	 4.249999999999998e+00	 7.437499999999998e+00	 1.005214029538462e+01
0	 4.249999999999998e+00	 7.500000000000000e+00	 1.004917772307695e+01
0	 4.312499999999998e+00	 6.875000000000000e+00	 1.007881518461537e+01
0	 4.312499999999999e+00	 6.937500000000001e+00	 1.007615769846152e+01
0	 4.312499999999998e+00	 7.000000000000001e+00	 1.007346145230769e+01
0	 4.312499999999998e+00	 7.062500000000000e+00	 1.007072644615383e+01
0	 4.312499999999998e+00	 7.124999999999999e+00	 1.006795268000000e+01
0	 4.312499999999998e+00	 7.187499999999998e+00	 1.006514015384615e+01
0	 4.312499999999997e+00	 7.249999999999999e+00	 1.006228886769230e+01
0	 4.312499999999997e+00	 7.312499999999998e+00	 1.005939882153846e+01
0	 4.312499999999998e+00	 7.374999999999998e+00	 1.005647001538461e+01
0	 4.312499999999998e+00	 7.437499999999998e+00	 1.005350244923079e+01
0	 4.312499999999998e+00	 7.500000000000000e+00	 1.005049612307695e+01
0	 4.375000000000000e+00	 6.875000000000000e+00	 1.008034615384615e+01
0	 4.375000000000000e+00	 6.937500000000000e+00	 1.007764930769230e+01
0	 4.375000000000001e+00	 7.000000000000000e+00	 1.007491415384613e+01
0	 4.375000000000000e+00	 7.062500000000000e+00	 1.007214069230771e+01
0	 4.375000000000000e+00	 7.125000000000000e+00	 1.006932892307692e+01
0	 4.375000000000000e+00	 7.187499999999998e+00	 1.006647884615384e+01
0	 4.375000000000000e+00	 7.249999999999998e+00	 1.006359046153849e+01
0	 4.375000000000000e+00	 7.312499999999998e+00	 1.006066376923077e+01
0	 4.375000000000000e+00	 7.374999999999998e+00	 1.005769876923078e+01
0	 4.375000000000000e+00	 7.437499999999998e+00	 1.005469546153846e+01
0	 4.375000000000000e+00	 7.500000000000000e+00	 1.005165384615385e+01
0	 3.750000000000000e+00	 7.500000000000000e+00	 1.003284615384615e+01
0	 3.750000000000000e+00	 7.562500000000000e+00	 1.003154799999999e+01
0	 3.750000000000001e+00	 7.625000000000000e+00	 1.003021846153848e+01
0	 3.750000000000000e+00	 7.687499999999999e+00	 1.002885753846153e+01
0	 3.750000000000000e+00	 7.750000000000000e+00	 1.002746523076922e+01
0	 3.750000000000000e+00	 7.812499999999999e+00	 1.002604153846155e+01
0	 3.750000000000000e+00	 7.874999999999998e+00	 1.002458646153846e+01
0	 3.750000000000000e+00	 7.937499999999997e+00	 1.002310000000000e+01
0	 3.750000000000000e+00	 7.999999999999998e+00	 1.002158215384615e+01
0	 3.750000000000000e+00	 8.062499999999996e+00	 1.002003292307694e+01
0	 3.750000000000000e+00	 8.125000000000000e+00	 1.001845230769231e+01
0	 3.812500000000000e+00	 7.500000000000000e+00	 1.003544996923078e+01
0	 3.812500000000000e+00	 7.562499999999999e+00	 1.003405575692307e+01
0	 3.812500000000000e+00	 7.624999999999998e+00	 1.003262930153847e+01
0	 3.812500000000000e+00	 7.687499999999998e+00	 1.003117060307693e+01
0	 3.812500000000000e+00	 7.750000000000000e+00	 1.002967966153846e+01
0	 3.812500000000000e+00	 7.812500000000000e+00	 1.002815647692306e+01
0	 3.812500000000000e+00	 7.874999999999999e+00	 1.002660104923077e+01
0	 3.812500000000000e+00	 7.937499999999998e+00	 1.002501337846152e+01
0	 3.812500000000001e+00	 8.000000000000000e+00	 1.002339346461538e+01
0	 3.812499999999999e+00	 8.062499999999995e+00	 1.002174130769230e+01
0	 3.812500000000000e+00	 8.125000000000000e+00	 1.002005690769231e+01
0	 3.874999999999999e+00	 7.499999999999999e+00	 1.003789310769228e+01
0	 3.875000000000000e+00	 7.562500000000001e+00	 1.003640893230770e+01
0	 3.875000000000000e+00	 7.625000000000001e+00	 1.003489165538460e+01
0	 3.875000000000000e+00	 7.687500000000001e+00	 1.003334127692307e+01
0	 3.874999999999998e+00	 7.749999999999998e+00	 1.003175779692307e+01
0	 3.875000000000000e+00	 7.812499999999998e+00	 1.003014121538462e+01
0	 3.874999999999998e+00	 7.874999999999996e+00	 1.002849153230768e+01
0	 3.875000000000000e+00	 7.937499999999998e+00	 1.002680874769231e+01
0	 3.874999999999999e+00	 7.999999999999999e+00	 1.002509286153844e+01
0	 3.875000000000000e+00	 8.062499999999998e+00	 1.002334387384612e+01
0	 3.874999999999999e+00	 8.125000000000000e+00	 1.002156178461540e+01
0	 3.937499999999999e+00	 7.500000000000000e+00	 1.004017556923077e+01
0	 3.937500000000000e+00	 7.562500000000001e+00	 1.003860752615384e+01
0	 3.937500000000000e+00	 7.625000000000001e+00	 1.003700552307692e+01
0	 3.937500000000000e+00	 7.687500000000000e+00	 1.003536956000000e+01
0	 3.937500000000000e+00	 7.749999999999999e+00	 1.003369963692307e+01
0	 3.937499999999999e+00	 7.812499999999999e+00	 1.003199575384616e+01
0	 3.937500000000000e+00	 7.874999999999998e+00	 1.003025791076923e+01
0	 3.937499999999999e+00	 7.937499999999998e+00	 1.002848610769231e+01
0	 3.937500000000000e+00	 7.999999999999998e+00	 1.002668034461539e+01
0	 3.937499999999998e+00	 8.062499999999996e+00	 1.002484062153845e+01
0	 3.937499999999999e+00	 8.125000000000000e+00	 1.002296693846152e+01
0	 3.999999999999999e+00	 7.500000000000000e+00	 1.004229735384616e+01
0	 3.999999999999999e+00	 7.562500000000000e+00	 1.004065153846154e+01
0	 4.000000000000000e+00	 7.625000000000000e+00	 1.003897090461538e+01
0	 3.999999999999999e+00	 7.687500000000000e+00	 1.003725545230769e+01
0	 3.999999999999999e+00	 7.749999999999998e+00	 1.003550518153845e+01
0	 3.999999999999999e+00	 7.812500000000000e+00	 1.003372009230770e+01
0	 3.999999999999999e+00	 7.874999999999998e+00	 1.003190018461538e+01
0	 3.999999999999999e+00	 7.937499999999999e+00	 1.003004545846152e+01
0	 3.999999999999999e+00	 7.999999999999997e+00	 1.002815591384614e+01
0	 3.999999999999999e+00	 8.062500000000000e+00	 1.002623155076924e+01
0	 3.999999999999999e+00	 8.125000000000000e+00	 1.002427236923078e+01
0	 4.062499999999999e+00	 7.500000000000000e+00	 1.004425846153849e+01
0	 4.062499999999999e+00	 7.562499999999999e+00	 1.004254096923075e+01
0	 4.062499999999999e+00	 7.624999999999999e+00	 1.004078780000000e+01
0	 4.062500000000000e+00	 7.687500000000000e+00	 1.003899895384616e+01
0	 4.062499999999997e+00	 7.749999999999996e+00	 1.003717443076923e+01
0	 4.062499999999999e+00	 7.812499999999999e+00	 1.003531423076923e+01
0	 4.062500000000000e+00	 7.875000000000000e+00	 1.003341835384615e+01
0	 4.062499999999999e+00	 7.937499999999999e+00	 1.003148679999999e+01
0	 4.062499999999999e+00	 7.999999999999998e+00	 1.002951956923076e+01
0	 4.062499999999999e+00	 8.062500000000000e+00	 1.002751666153846e+01
0	 4.062499999999999e+00	 8.125000000000000e+00	 1.002547807692307e+01
0	 4.124999999999998e+00	 7.499999999999999e+00	 1.004605889230768e+01
0	 4.124999999999998e+00	 7.562500000000000e+00	 1.004427581846151e+01
0	 4.124999999999998e+00	 7.624999999999998e+00	 1.004245620923077e+01
0	 4.124999999999997e+00	 7.687499999999998e+00	 1.004060006461539e+01
0	 4.125000000000000e+00	 7.750000000000001e+00	 1.003870738461537e+01
0	 4.124999999999999e+00	 7.812500000000000e+00	 1.003677816923077e+01
0	 4.124999999999999e+00	 7.874999999999998e+00	 1.003481241846155e+01
0	 4.124999999999999e+00	 7.937499999999999e+00	 1.003281013230767e+01
0	 4.124999999999998e+00	 8.000000000000000e+00	 1.003077131076922e+01
0	 4.124999999999998e+00	 8.062499999999998e+00	 1.002869595384615e+01
0	 4.124999999999998e+00	 8.125000000000000e+00	 1.002658406153846e+01
0	 4.187499999999998e+00	 7.499999999999998e+00	 1.004769864615387e+01
0	 4.187499999999998e+00	 7.562500000000000e+00	 1.004585608615387e+01
0	 4.187499999999999e+00	 7.624999999999999e+00	 1.004397613230770e+01
0	 4.187499999999999e+00	 7.687500000000000e+00	 1.004205878461537e+01
0	 4.187499999999998e+00	 7.749999999999998e+00	 1.004010404307693e+01
0	 4.187500000000000e+00	 7.812500000000000e+00	 1.003811190769231e+01
0	 4.187499999999999e+00	 7.874999999999999e+00	 1.003608237846154e+01
0	 4.187499999999999e+00	 7.937500000000000e+00	 1.003401545538460e+01
0	 4.187499999999998e+00	 7.999999999999998e+00	 1.003191113846153e+01
0	 4.187499999999999e+00	 8.062500000000000e+00	 1.002976942769229e+01
0	 4.187499999999998e+00	 8.125000000000000e+00	 1.002759032307688e+01
0	 4.249999999999998e+00	 7.500000000000000e+00	 1.004917772307695e+01
0	 4.250000000000000e+00	 7.562500000000001e+00	 1.004728177230770e+01
0	 4.249999999999998e+00	 7.625000000000000e+00	 1.004534756923077e+01
0	 4.249999999999998e+00	 7.687500000000001e+00	 1.004337511384617e+01
0	 4.249999999999998e+00	 7.749999999999999e+00	 1.004136440615385e+01
0	 4.249999999999998e+00	 7.812499999999998e+00	 1.003931544615386e+01
0	 4.249999999999998e+00	 7.875000000000000e+00	 1.003722823384614e+01
0	 4.249999999999998e+00	 7.937499999999998e+00	 1.003510276923076e+01
0	 4.249999999999998e+00	 7.999999999999998e+00	 1.003293905230769e+01
0	 4.249999999999998e+00	 8.062500000000000e+00	 1.003073708307692e+01
0	 4.249999999999998e+00	 8.125000000000000e+00	 1.002849686153845e+01
0	 4.312499999999998e+00	 7.500000000000000e+00	 1.005049612307695e+01
0	 4.312499999999999e+00	 7.562500000000001e+00	 1.004855287692309e+01
0	 4.312499999999998e+00	 7.624999999999999e+00	 1.004657052000000e+01
0	 4.312499999999998e+00	 7.687499999999999e+00	 1.004454905230769e+01
0	 4.312499999999998e+00	 7.750000000000000e+00	 1.004248847384615e+01
0	 4.312499999999998e+00	 7.812499999999999e+00	 1.004038878461537e+01
0	 4.312499999999997e+00	 7.874999999999998e+00	 1.003824998461537e+01
0	 4.312499999999997e+00	 7.937499999999998e+00	 1.003607207384615e+01
0	 4.312499999999998e+00	 7.999999999999998e+00	 1.003385505230769e+01
0	 4.312499999999998e+00	 8.062499999999998e+00	 1.003159891999998e+01
0	 4.312499999999998e+00	 8.125000000000000e+00	 1.002930367692308e+01
0	 4.375000000000000e+00	 7.500000000000000e+00	 1.005165384615385e+01
0	 4.375000000000000e+00	 7.562500000000000e+00	 1.004966940000001e+01
0	 4.375000000000001e+00	 7.625000000000000e+00	 1.004764498461541e+01
0	 4.375000000000000e+00	 7.687499999999999e+00	 1.004558060000000e+01
0	 4.375000000000000e+00	 7.750000000000000e+00	 1.004347624615385e+01
0	 4.375000000000000e+00	 7.812499999999999e+00	 1.004133192307694e+01
0	 4.375000000000000e+00	 7.874999999999998e+00	 1.003914763076923e+01
0	 4.375000000000000e+00	 7.937499999999997e+00	 1.003692336923076e+01
0	 4.375000000000000e+00	 7.999999999999998e+00	 1.003465913846154e+01
0	 4.375000000000000e+00	 8.062499999999996e+00	 1.003235493846154e+01
0	 4.375000000000000e+00	 8.125000000000000e+00	 1.003001076923076e+01
0	 3.750000000000000e+00	 8.125000000000000e+00	 1.001845230769231e+01
0	 3.750000000000000e+00	 8.187500000000000e+00	 1.001758284615385e+01
0	 3.750000000000001e+00	 8.250000000000002e+00	 1.001668523076922e+01
0	 3.750000000000000e+00	 8.312500000000000e+00	 1.001575946153845e+01
0	 3.750000000000000e+00	 8.374999999999998e+00	 1.001480553846152e+01
0	 3.750000000000000e+00	 8.437500000000000e+00	 1.001382346153845e+01
0	 3.750000000000000e+00	 8.500000000000000e+00	 1.001281323076922e+01
0	 3.750000000000000e+00	 8.562499999999998e+00	 1.001177484615383e+01
0	 3.750000000000000e+00	 8.625000000000000e+00	 1.001070830769230e+01
0	 3.750000000000000e+00	 8.687499999999998e+00	 1.000961361538458e+01
0	 3.750000000000000e+00	 8.750000000000000e+00	 1.000849076923076e+01
0	 3.812500000000000e+00	 8.125000000000000e+00	 1.002005690769231e+01
0	 3.812500000000000e+00	 8.187500000000002e+00	 1.001911461846153e+01
0	 3.812500000000000e+00	 8.250000000000000e+00	 1.001814244000000e+01
0	 3.812500000000000e+00	 8.312499999999998e+00	 1.001714037230768e+01
0	 3.812500000000000e+00	 8.374999999999998e+00	 1.001610841538461e+01
0	 3.812500000000000e+00	 8.437500000000000e+00	 1.001504656923077e+01
0	 3.812500000000000e+00	 8.500000000000002e+00	 1.001395483384615e+01
0	 3.812500000000000e+00	 8.562500000000000e+00	 1.001283320923075e+01
0	 3.812500000000001e+00	 8.625000000000002e+00	 1.001168169538461e+01
0	 3.812499999999999e+00	 8.687499999999996e+00	 1.001050029230767e+01
0	 3.812500000000000e+00	 8.750000000000002e+00	 1.000928899999998e+01
0	 3.874999999999999e+00	 8.125000000000000e+00	 1.002156178461540e+01
0	 3.875000000000000e+00	 8.187499999999998e+00	 1.002055093230769e+01
0	 3.875000000000000e+00	 8.250000000000000e+00	 1.001950845538461e+01
0	 3.875000000000000e+00	 8.312500000000000e+00	 1.001843435384614e+01
0	 3.874999999999998e+00	 8.374999999999998e+00	 1.001732862769230e+01
0	 3.875000000000000e+00	 8.437499999999998e+00	 1.001619127692307e+01
0	 3.874999999999998e+00	 8.499999999999996e+00	 1.001502230153846e+01
0	 3.875000000000000e+00	 8.562500000000002e+00	 1.001382170153846e+01
0	 3.874999999999999e+00	 8.624999999999998e+00	 1.001258947692308e+01
0	 3.875000000000000e+00	 8.687499999999998e+00	 1.001132562769231e+01
0	 3.874999999999999e+00	 8.750000000000000e+00	 1.001003015384611e+01
0	 3.937499999999999e+00	 8.125000000000000e+00	 1.002296693846152e+01
0	 3.937500000000000e+00	 8.187500000000000e+00	 1.002189178769232e+01
0	 3.937500000000000e+00	 8.250000000000002e+00	 1.002078327692308e+01
0	 3.937500000000000e+00	 8.312499999999998e+00	 1.001964140615385e+01
0	 3.937500000000000e+00	 8.374999999999998e+00	 1.001846617538460e+01
0	 3.937499999999999e+00	 8.437500000000000e+00	 1.001725758461538e+01
0	 3.937500000000000e+00	 8.499999999999998e+00	 1.001601563384614e+01
0	 3.937499999999999e+00	 8.562500000000000e+00	 1.001474032307691e+01
0	 3.937500000000000e+00	 8.625000000000000e+00	 1.001343165230768e+01
0	 3.937499999999998e+00	 8.687499999999996e+00	 1.001208962153844e+01
0	 3.937499999999999e+00	 8.750000000000000e+00	 1.001071423076923e+01
0	 3.999999999999999e+00	 8.125000000000000e+00	 1.002427236923078e+01
0	 3.999999999999999e+00	 8.187499999999998e+00	 1.002313718461538e+01
0	 4.000000000000000e+00	 8.250000000000002e+00	 1.002196690461538e+01
0	 3.999999999999999e+00	 8.312500000000000e+00	 1.002076152923075e+01
0	 3.999999999999999e+00	 8.374999999999998e+00	 1.001952105846154e+01
0	 3.999999999999999e+00	 8.437500000000000e+00	 1.001824549230768e+01
0	 3.999999999999999e+00	 8.499999999999998e+00	 1.001693483076921e+01
0	 3.999999999999999e+00	 8.562499999999998e+00	 1.001558907384617e+01
0	 3.999999999999999e+00	 8.624999999999998e+00	 1.001420822153845e+01
0	 3.999999999999999e+00	 8.687499999999996e+00	 1.001279227384613e+01
0	 3.999999999999999e+00	 8.749999999999998e+00	 1.001134123076919e+01
0	 4.062499999999999e+00	 8.125000000000000e+00	 1.002547807692307e+01
0	 4.062499999999999e+00	 8.187499999999998e+00	 1.002428712307690e+01
0	 4.062499999999999e+00	 8.249999999999998e+00	 1.002305933846153e+01
0	 4.062500000000000e+00	 8.312500000000000e+00	 1.002179472307692e+01
0	 4.062499999999997e+00	 8.374999999999998e+00	 1.002049327692306e+01
0	 4.062499999999999e+00	 8.437499999999998e+00	 1.001915499999999e+01
0	 4.062500000000000e+00	 8.500000000000002e+00	 1.001777989230768e+01
0	 4.062499999999999e+00	 8.562499999999998e+00	 1.001636795384614e+01
0	 4.062499999999999e+00	 8.624999999999998e+00	 1.001491918461540e+01
0	 4.062499999999999e+00	 8.687500000000000e+00	 1.001343358461535e+01
0	 4.062499999999999e+00	 8.750000000000000e+00	 1.001191115384615e+01
0	 4.124999999999998e+00	 8.125000000000000e+00	 1.002658406153846e+01
0	 4.124999999999998e+00	 8.187500000000000e+00	 1.002534160307690e+01
0	 4.124999999999998e+00	 8.249999999999998e+00	 1.002406057846153e+01
0	 4.124999999999997e+00	 8.312500000000000e+00	 1.002274098769230e+01
0	 4.125000000000000e+00	 8.375000000000002e+00	 1.002138283076922e+01
0	 4.124999999999999e+00	 8.437500000000002e+00	 1.001998610769230e+01
0	 4.124999999999999e+00	 8.499999999999998e+00	 1.001855081846153e+01
0	 4.124999999999999e+00	 8.562500000000000e+00	 1.001707696307691e+01
0	 4.124999999999998e+00	 8.624999999999998e+00	 1.001556454153846e+01
0	 4.124999999999998e+00	 8.687499999999998e+00	 1.001401355384616e+01
0	 4.124999999999998e+00	 8.750000000000000e+00	 1.001242399999998e+01
0	 4.187499999999998e+00	 8.125000000000000e+00	 1.002759032307688e+01
0	 4.187499999999998e+00	 8.187500000000000e+00	 1.002630062461537e+01
0	 4.187499999999999e+00	 8.250000000000000e+00	 1.002497062461537e+01
0	 4.187499999999999e+00	 8.312500000000000e+00	 1.002360032307690e+01
0	 4.187499999999998e+00	 8.374999999999998e+00	 1.002218971999999e+01
0	 4.187500000000000e+00	 8.437500000000000e+00	 1.002073881538460e+01
0	 4.187499999999999e+00	 8.500000000000000e+00	 1.001924760923076e+01
0	 4.187499999999999e+00	 8.562499999999998e+00	 1.001771610153845e+01
0	 4.187499999999998e+00	 8.624999999999998e+00	 1.001614429230770e+01
0	 4.187499999999999e+00	 8.687500000000000e+00	 1.001453218153845e+01
0	 4.187499999999998e+00	 8.750000000000000e+00	 1.001287976923079e+01
0	 4.249999999999998e+00	 8.125000000000000e+00	 1.002849686153845e+01
0	 4.250000000000000e+00	 8.187500000000002e+00	 1.002716418769228e+01
0	 4.249999999999998e+00	 8.250000000000000e+00	 1.002578947692307e+01
0	 4.249999999999998e+00	 8.312500000000000e+00	 1.002437272923079e+01
0	 4.249999999999998e+00	 8.375000000000002e+00	 1.002291394461538e+01
0	 4.249999999999998e+00	 8.437500000000000e+00	 1.002141312307692e+01
0	 4.249999999999998e+00	 8.500000000000000e+00	 1.001987026461539e+01
0	 4.249999999999998e+00	 8.562499999999996e+00	 1.001828536923078e+01
0	 4.249999999999998e+00	 8.624999999999998e+00	 1.001665843692307e+01
0	 4.249999999999998e+00	 8.687499999999998e+00	 1.001498946769231e+01
0	 4.249999999999998e+00	 8.750000000000002e+00	 1.001327846153847e+01
0	 4.312499999999998e+00	 8.125000000000000e+00	 1.002930367692308e+01
0	 4.312499999999999e+00	 8.187500000000000e+00	 1.002793229230769e+01
0	 4.312499999999998e+00	 8.250000000000002e+00	 1.002651713538459e+01
0	 4.312499999999998e+00	 8.312499999999998e+00	 1.002505820615384e+01
0	 4.312499999999998e+00	 8.374999999999998e+00	 1.002355550461537e+01
0	 4.312499999999998e+00	 8.437499999999998e+00	 1.002200903076922e+01
0	 4.312499999999997e+00	 8.499999999999998e+00	 1.002041878461537e+01
0	 4.312499999999997e+00	 8.562499999999998e+00	 1.001878476615384e+01
0	 4.312499999999998e+00	 8.624999999999998e+00	 1.001710697538461e+01
0	 4.312499999999998e+00	 8.687499999999998e+00	 1.001538541230770e+01
0	 4.312499999999998e+00	 8.750000000000000e+00	 1.001362007692308e+01
0	 4.375000000000000e+00	 8.125000000000000e+00	 1.003001076923076e+01
0	 4.375000000000000e+00	 8.187500000000000e+00	 1.002860493846154e+01
0	 4.375000000000001e+00	 8.250000000000002e+00	 1.002715359999997e+01
0	 4.375000000000000e+00	 8.312500000000000e+00	 1.002565675384614e+01
0	 4.375000000000000e+00	 8.374999999999998e+00	 1.002411439999999e+01
0	 4.375000000000000e+00	 8.437500000000000e+00	 1.002252653846153e+01
0	 4.375000000000000e+00	 8.500000000000000e+00	 1.002089316923076e+01
0	 4.375000000000000e+00	 8.562499999999998e+00	 1.001921429230769e+01
0	 4.375000000000000e+00	 8.625000000000000e+00	 1.001748990769230e+01
0	 4.375000000000000e+00	 8.687499999999998e+00	 1.001572001538459e+01
0	 4.375000000000000e+00	 8.750000000000000e+00	 1.001390461538461e+01
0	 3.750000000000000e+00	 8.750000000000000e+00	 1.000849076923076e+01
0	 3.750000000000000e+00	 8.812500000000000e+00	 1.000796958461537e+01
0	 3.750000000000001e+00	 8.875000000000002e+00	 1.000741341538461e+01
0	 3.750000000000000e+00	 8.937499999999998e+00	 1.000682226153846e+01
0	 3.750000000000000e+00	 9.000000000000000e+00	 1.000619612307692e+01
0	 3.750000000000000e+00	 9.062500000000000e+00	 1.000553500000001e+01
0	 3.750000000000000e+00	 9.124999999999998e+00	 1.000483889230770e+01
0	 3.750000000000000e+00	 9.187499999999998e+00	 1.000410779999999e+01
0	 3.750000000000000e+00	 9.249999999999998e+00	 1.000334172307694e+01
0	 3.750000000000000e+00	 9.312499999999998e+00	 1.000254066153847e+01
0	 3.750000000000000e+00	 9.375000000000000e+00	 1.000170461538463e+01
0	 3.812500000000000e+00	 8.750000000000002e+00	 1.000928899999998e+01
0	 3.812500000000000e+00	 8.812499999999998e+00	 1.000872605692309e+01
0	 3.812500000000000e+00	 8.875000000000000e+00	 1.000812536923074e+01
0	 3.812500000000000e+00	 8.937500000000000e+00	 1.000748693692308e+01
0	 3.812500000000000e+00	 9.000000000000000e+00	 1.000681075999999e+01
0	 3.812500000000000e+00	 9.062500000000000e+00	 1.000609683846153e+01
0	 3.812500000000000e+00	 9.125000000000000e+00	 1.000534517230771e+01
0	 3.812500000000000e+00	 9.187499999999998e+00	 1.000455576153847e+01
0	 3.812500000000001e+00	 9.250000000000000e+00	 1.000372860615385e+01
0	 3.812499999999999e+00	 9.312499999999996e+00	 1.000286370615383e+01
0	 3.812500000000000e+00	 9.375000000000000e+00	 1.000196106153848e+01
0	 3.874999999999999e+00	 8.750000000000000e+00	 1.001003015384611e+01
0	 3.875000000000000e+00	 8.812500000000000e+00	 1.000942764923076e+01
0	 3.875000000000000e+00	 8.875000000000004e+00	 1.000878464000000e+01
0	 3.875000000000000e+00	 8.937500000000000e+00	 1.000810112615384e+01
0	 3.874999999999998e+00	 8.999999999999998e+00	 1.000737710769231e+01
0	 3.875000000000000e+00	 9.062500000000000e+00	 1.000661258461539e+01
0	 3.874999999999998e+00	 9.124999999999998e+00	 1.000580755692307e+01
0	 3.875000000000000e+00	 9.187500000000002e+00	 1.000496202461539e+01
0	 3.874999999999999e+00	 9.249999999999996e+00	 1.000407598769230e+01
0	 3.875000000000000e+00	 9.312499999999998e+00	 1.000314944615386e+01
0	 3.874999999999999e+00	 9.375000000000000e+00	 1.000218240000001e+01
0	 3.937499999999999e+00	 8.750000000000000e+00	 1.001071423076923e+01
0	 3.937500000000000e+00	 8.812500000000000e+00	 1.001007436153846e+01
0	 3.937500000000000e+00	 8.875000000000002e+00	 1.000939122769231e+01
0	 3.937500000000000e+00	 8.937500000000000e+00	 1.000866482923076e+01
0	 3.937500000000000e+00	 9.000000000000000e+00	 1.000789516615385e+01
0	 3.937499999999999e+00	 9.062499999999998e+00	 1.000708223846155e+01
0	 3.937500000000000e+00	 9.124999999999998e+00	 1.000622604615385e+01
0	 3.937499999999999e+00	 9.187500000000002e+00	 1.000532658923076e+01
0	 3.937500000000000e+00	 9.249999999999998e+00	 1.000438386769230e+01
0	 3.937499999999998e+00	 9.312499999999998e+00	 1.000339788153846e+01
0	 3.937499999999999e+00	 9.375000000000002e+00	 1.000236863076924e+01
0	 3.999999999999999e+00	 8.749999999999998e+00	 1.001134123076919e+01
0	 3.999999999999999e+00	 8.812500000000000e+00	 1.001066619384616e+01
0	 4.000000000000000e+00	 8.875000000000002e+00	 1.000994513230768e+01
0	 3.999999999999999e+00	 8.937500000000000e+00	 1.000917804615384e+01
0	 3.999999999999999e+00	 8.999999999999998e+00	 1.000836493538461e+01
0	 3.999999999999999e+00	 9.062500000000000e+00	 1.000750580000001e+01
0	 3.999999999999999e+00	 9.124999999999998e+00	 1.000660064000001e+01
0	 3.999999999999999e+00	 9.187500000000000e+00	 1.000564945538461e+01
0	 3.999999999999999e+00	 9.249999999999998e+00	 1.000465224615384e+01
0	 3.999999999999999e+00	 9.312500000000000e+00	 1.000360901230770e+01
0	 3.999999999999999e+00	 9.375000000000002e+00	 1.000251975384617e+01
0	 4.062499999999999e+00	 8.750000000000000e+00	 1.001191115384615e+01
0	 4.062499999999999e+00	 8.812500000000000e+00	 1.001120314615387e+01
0	 4.062499999999999e+00	 8.875000000000000e+00	 1.001044635384615e+01
0	 4.062500000000000e+00	 8.937500000000000e+00	 1.000964077692309e+01
0	 4.062499999999997e+00	 8.999999999999998e+00	 1.000878641538463e+01
0	 4.062499999999999e+00	 9.062500000000000e+00	 1.000788326923078e+01
0	 4.062500000000000e+00	 9.125000000000002e+00	 1.000693133846153e+01
0	 4.062499999999999e+00	 9.187499999999998e+00	 1.000593062307693e+01
0	 4.062499999999999e+00	 9.249999999999998e+00	 1.000488112307693e+01
0	 4.062499999999999e+00	 9.312500000000000e+00	 1.000378283846153e+01
0	 4.062499999999999e+00	 9.375000000000002e+00	 1.000263576923076e+01
0	 4.124999999999998e+00	 8.750000000000000e+00	 1.001242399999998e+01
0	 4.124999999999998e+00	 8.812500000000000e+00	 1.001168521846153e+01
0	 4.124999999999998e+00	 8.874999999999996e+00	 1.001089489230769e+01
0	 4.124999999999997e+00	 8.937499999999998e+00	 1.001005302153845e+01
0	 4.125000000000000e+00	 9.000000000000004e+00	 1.000915960615384e+01
0	 4.124999999999999e+00	 9.062500000000002e+00	 1.000821464615384e+01
0	 4.124999999999999e+00	 9.124999999999998e+00	 1.000721814153844e+01
0	 4.124999999999999e+00	 9.187500000000000e+00	 1.000617009230769e+01
0	 4.124999999999998e+00	 9.249999999999998e+00	 1.000507049846155e+01
0	 4.124999999999998e+00	 9.312499999999998e+00	 1.000391936000001e+01
0	 4.124999999999998e+00	 9.375000000000000e+00	 1.000271667692308e+01
0	 4.187499999999998e+00	 8.750000000000000e+00	 1.001287976923079e+01
0	 4.187499999999998e+00	 8.812499999999998e+00	 1.001211241076924e+01
0	 4.187499999999999e+00	 8.875000000000002e+00	 1.001129074769232e+01
0	 4.187499999999999e+00	 8.937500000000002e+00	 1.001041478000000e+01
0	 4.187499999999998e+00	 8.999999999999998e+00	 1.000948450769230e+01
0	 4.187500000000000e+00	 9.062500000000000e+00	 1.000849993076923e+01
0	 4.187499999999999e+00	 9.125000000000000e+00	 1.000746104923076e+01
0	 4.187499999999999e+00	 9.187500000000000e+00	 1.000636786307691e+01
0	 4.187499999999998e+00	 9.249999999999998e+00	 1.000522037230768e+01
0	 4.187499999999999e+00	 9.312500000000000e+00	 1.000401857692309e+01
0	 4.187499999999998e+00	 9.375000000000000e+00	 1.000276247692309e+01
0	 4.249999999999998e+00	 8.750000000000002e+00	 1.001327846153847e+01
0	 4.250000000000000e+00	 8.812500000000002e+00	 1.001248472307693e+01
0	 4.249999999999998e+00	 8.875000000000000e+00	 1.001163391999999e+01
0	 4.249999999999998e+00	 8.937500000000002e+00	 1.001072605230770e+01
0	 4.249999999999998e+00	 8.999999999999998e+00	 1.000976112000000e+01
0	 4.249999999999998e+00	 9.062499999999998e+00	 1.000873912307693e+01
0	 4.249999999999998e+00	 9.125000000000000e+00	 1.000766006153845e+01
0	 4.249999999999998e+00	 9.187499999999998e+00	 1.000652393538462e+01
0	 4.249999999999998e+00	 9.250000000000000e+00	 1.000533074461539e+01
0	 4.249999999999998e+00	 9.312499999999998e+00	 1.000408048923078e+01
0	 4.249999999999998e+00	 9.375000000000000e+00	 1.000277316923077e+01
0	 4.312499999999998e+00	 8.750000000000000e+00	 1.001362007692308e+01
0	 4.312499999999999e+00	 8.812500000000000e+00	 1.001280215538462e+01
0	 4.312499999999998e+00	 8.875000000000002e+00	 1.001192440923076e+01
0	 4.312499999999998e+00	 8.937500000000000e+00	 1.001098683846154e+01
0	 4.312499999999998e+00	 9.000000000000000e+00	 1.000998944307692e+01
0	 4.312499999999998e+00	 9.062500000000000e+00	 1.000893222307693e+01
0	 4.312499999999997e+00	 9.125000000000000e+00	 1.000781517846153e+01
0	 4.312499999999997e+00	 9.187499999999998e+00	 1.000663830923078e+01
0	 4.312499999999998e+00	 9.249999999999998e+00	 1.000540161538462e+01
0	 4.312499999999998e+00	 9.312499999999996e+00	 1.000410509692309e+01
0	 4.312499999999998e+00	 9.375000000000000e+00	 1.000274875384616e+01
0	 4.375000000000000e+00	 8.750000000000000e+00	 1.001390461538461e+01
0	 4.375000000000000e+00	 8.812500000000000e+00	 1.001306470769232e+01
0	 4.375000000000001e+00	 8.875000000000002e+00	 1.001216221538463e+01
0	 4.375000000000000e+00	 8.937499999999998e+00	 1.001119713846153e+01
0	 4.375000000000000e+00	 9.000000000000000e+00	 1.001016947692309e+01
0	 4.375000000000000e+00	 9.062500000000000e+00	 1.000907923076924e+01
0	 4.375000000000000e+00	 9.124999999999998e+00	 1.000792640000001e+01
0	 4.375000000000000e+00	 9.187499999999998e+00	 1.000671098461539e+01
0	 4.375000000000000e+00	 9.249999999999998e+00	 1.000543298461540e+01
0	 4.375000000000000e+00	 9.312499999999998e+00	 1.000409240000002e+01
0	 4.375000000000000e+00	 9.375000000000000e+00	 1.000268923076924e+01
0	 3.750000000000000e+00	 9.375000000000000e+00	 1.000170461538463e+01
0	 3.750000000000000e+00	 9.437499999999998e+00	 1.000167746153848e+01
0	 3.750000000000000e+00	 9.500000000000000e+00	 1.000159076923077e+01
0	 3.750000000000000e+00	 9.562500000000000e+00	 1.000144453846155e+01
0	 3.750000000000000e+00	 9.625000000000000e+00	 1.000123876923076e+01
0	 3.750000000000000e+00	 9.687499999999998e+00	 1.000097346153848e+01
0	 3.750000000000000e+00	 9.749999999999998e+00	 1.000064861538463e+01
0	 3.750000000000000e+00	 9.812500000000000e+00	 1.000026423076923e+01
0	 3.750000000000000e+00	 9.875000000000000e+00	 9.999820307692287e+00
0	 3.750000000000000e+00	 9.937499999999998e+00	 9.999316846153899e+00
0	 3.750000000000000e+00	 1.000000000000000e+01	 9.998753846153846e+00
0	 3.812500000000000e+00	 9.375000000000000e+00	 1.000196106153848e+01
0	 3.812500000000000e+00	 9.437500000000002e+00	 1.000193648615387e+01
0	 3.812499999999999e+00	 9.500000000000000e+00	 1.000184846769232e+01
0	 3.812500000000000e+00	 9.562500000000000e+00	 1.000169700615385e+01
0	 3.812500000000000e+00	 9.625000000000000e+00	 1.000148210153851e+01
0	 3.812500000000000e+00	 9.687500000000000e+00	 1.000120375384616e+01
0	 3.812500000000000e+00	 9.749999999999998e+00	 1.000086196307693e+01
0	 3.812500000000000e+00	 9.812499999999998e+00	 1.000045672923075e+01
0	 3.812500000000000e+00	 9.874999999999998e+00	 9.999988052307708e+00
0	 3.812499999999999e+00	 9.937499999999996e+00	 9.999455932307720e+00
0	 3.812500000000000e+00	 1.000000000000000e+01	 9.998860369230766e+00
0	 3.874999999999999e+00	 9.375000000000000e+00	 1.000218240000001e+01
0	 3.874999999999999e+00	 9.437499999999998e+00	 1.000215986461540e+01
0	 3.875000000000000e+00	 9.500000000000000e+00	 1.000206998153849e+01
0	 3.875000000000000e+00	 9.562500000000000e+00	 1.000191275076926e+01
0	 3.875000000000000e+00	 9.625000000000002e+00	 1.000168817230768e+01
0	 3.875000000000000e+00	 9.687500000000002e+00	 1.000139624615385e+01
0	 3.875000000000000e+00	 9.750000000000000e+00	 1.000103697230769e+01
0	 3.875000000000000e+00	 9.812500000000002e+00	 1.000061035076927e+01
0	 3.875000000000000e+00	 9.874999999999996e+00	 1.000011638153846e+01
0	 3.875000000000000e+00	 9.937500000000000e+00	 9.999555064615386e+00
0	 3.874999999999999e+00	 1.000000000000000e+01	 9.998926399999988e+00
0	 3.937499999999999e+00	 9.375000000000002e+00	 1.000236863076924e+01
0	 3.937499999999999e+00	 9.437500000000000e+00	 1.000234759692308e+01
0	 3.937499999999999e+00	 9.499999999999996e+00	 1.000225531076924e+01
0	 3.937499999999999e+00	 9.562500000000000e+00	 1.000209177230774e+01
0	 3.937499999999999e+00	 9.624999999999998e+00	 1.000185698153848e+01
0	 3.937499999999999e+00	 9.687500000000000e+00	 1.000155093846159e+01
0	 3.937499999999999e+00	 9.749999999999996e+00	 1.000117364307692e+01
0	 3.937499999999999e+00	 9.812499999999996e+00	 1.000072509538461e+01
0	 3.937500000000000e+00	 9.875000000000000e+00	 1.000020529538459e+01
0	 3.937499999999999e+00	 9.937499999999998e+00	 9.999614243076902e+00
0	 3.937500000000000e+00	 1.000000000000000e+01	 9.998951938461534e+00
0	 3.999999999999999e+00	 9.375000000000002e+00	 1.000251975384617e+01
0	 4.000000000000000e+00	 9.437500000000000e+00	 1.000249968307693e+01
0	 4.000000000000000e+00	 9.500000000000004e+00	 1.000240445538462e+01
0	 3.999999999999999e+00	 9.562500000000000e+00	 1.000223407076923e+01
0	 3.999999999999998e+00	 9.624999999999998e+00	 1.000198852923076e+01
0	 4.000000000000000e+00	 9.687499999999998e+00	 1.000166783076922e+01
0	 3.999999999999999e+00	 9.750000000000000e+00	 1.000127197538463e+01
0	 3.999999999999999e+00	 9.812499999999996e+00	 1.000080096307695e+01
0	 3.999999999999999e+00	 9.874999999999998e+00	 1.000025479384613e+01
0	 3.999999999999999e+00	 9.937499999999996e+00	 9.999633467692373e+00
0	 4.000000000000000e+00	 1.000000000000000e+01	 9.998936984615398e+00
0	 4.062499999999999e+00	 9.375000000000002e+00	 1.000263576923076e+01
0	 4.062499999999999e+00	 9.437499999999998e+00	 1.000261612307693e+01
0	 4.062499999999999e+00	 9.499999999999998e+00	 1.000251741538461e+01
0	 4.062499999999999e+00	 9.562500000000000e+00	 1.000233964615386e+01
0	 4.062499999999998e+00	 9.624999999999998e+00	 1.000208281538463e+01
0	 4.062499999999999e+00	 9.687500000000000e+00	 1.000174692307693e+01
0	 4.062499999999999e+00	 9.750000000000000e+00	 1.000133196923079e+01
0	 4.062499999999998e+00	 9.812499999999998e+00	 1.000083795384616e+01
0	 4.062500000000000e+00	 9.874999999999998e+00	 1.000026487692313e+01
0	 4.062499999999998e+00	 9.937499999999998e+00	 9.999612738461545e+00
0	 4.062499999999999e+00	 1.000000000000000e+01	 9.998881538461523e+00
0	 4.124999999999998e+00	 9.375000000000000e+00	 1.000271667692308e+01
0	 4.124999999999999e+00	 9.437499999999998e+00	 1.000269691692309e+01
0	 4.124999999999999e+00	 9.500000000000000e+00	 1.000259419076925e+01
0	 4.124999999999999e+00	 9.562500000000000e+00	 1.000240849846153e+01
0	 4.124999999999999e+00	 9.625000000000000e+00	 1.000213984000001e+01
0	 4.124999999999998e+00	 9.687499999999998e+00	 1.000178821538463e+01
0	 4.124999999999999e+00	 9.749999999999998e+00	 1.000135362461535e+01
0	 4.124999999999998e+00	 9.812499999999996e+00	 1.000083606769231e+01
0	 4.124999999999998e+00	 9.874999999999998e+00	 1.000023554461537e+01
0	 4.124999999999999e+00	 9.937499999999998e+00	 9.999552055384653e+00
0	 4.124999999999999e+00	 9.999999999999998e+00	 9.998785600000044e+00
0	 4.187499999999998e+00	 9.375000000000000e+00	 1.000276247692309e+01
0	 4.187499999999998e+00	 9.437499999999998e+00	 1.000274206461539e+01
0	 4.187499999999997e+00	 9.499999999999998e+00	 1.000263478153848e+01
0	 4.187499999999999e+00	 9.562500000000002e+00	 1.000244062769232e+01
0	 4.187499999999999e+00	 9.624999999999998e+00	 1.000215960307694e+01
0	 4.187499999999999e+00	 9.687500000000000e+00	 1.000179170769229e+01
0	 4.187499999999999e+00	 9.750000000000000e+00	 1.000133694153844e+01
0	 4.187499999999999e+00	 9.812500000000000e+00	 1.000079530461540e+01
0	 4.187499999999998e+00	 9.874999999999998e+00	 1.000016679692309e+01
0	 4.187499999999999e+00	 9.937499999999998e+00	 9.999451418461533e+00
0	 4.187499999999999e+00	 1.000000000000000e+01	 9.998649169230735e+00
0	 4.249999999999998e+00	 9.375000000000000e+00	 1.000277316923077e+01
0	 4.249999999999998e+00	 9.437500000000002e+00	 1.000275156615384e+01
0	 4.249999999999997e+00	 9.500000000000000e+00	 1.000263918769230e+01
0	 4.249999999999998e+00	 9.562500000000002e+00	 1.000243603384618e+01
0	 4.249999999999997e+00	 9.624999999999998e+00	 1.000214210461537e+01
0	 4.249999999999998e+00	 9.687499999999998e+00	 1.000175740000001e+01
0	 4.249999999999998e+00	 9.750000000000000e+00	 1.000128192000004e+01
0	 4.249999999999998e+00	 9.812499999999998e+00	 1.000071566461538e+01
0	 4.249999999999998e+00	 9.874999999999998e+00	 1.000005863384611e+01
0	 4.249999999999998e+00	 9.937499999999998e+00	 9.999310827692279e+00
0	 4.249999999999998e+00	 1.000000000000000e+01	 9.998472246153840e+00
0	 4.312499999999998e+00	 9.375000000000000e+00	 1.000274875384616e+01
0	 4.312499999999997e+00	 9.437500000000000e+00	 1.000272542153848e+01
0	 4.312499999999998e+00	 9.499999999999998e+00	 1.000260740923080e+01
0	 4.312499999999998e+00	 9.562500000000000e+00	 1.000239471692310e+01
0	 4.312499999999998e+00	 9.624999999999998e+00	 1.000208734461542e+01
0	 4.312499999999997e+00	 9.687499999999996e+00	 1.000168529230770e+01
0	 4.312499999999997e+00	 9.749999999999998e+00	 1.000118856000000e+01
0	 4.312499999999998e+00	 9.812499999999998e+00	 1.000059714769230e+01
0	 4.312499999999998e+00	 9.874999999999996e+00	 9.999911055384679e+00
0	 4.312499999999998e+00	 9.937499999999998e+00	 9.999130283076903e+00
0	 4.312499999999998e+00	 1.000000000000000e+01	 9.998254830769239e+00
0	 4.375000000000000e+00	 9.375000000000000e+00	 1.000268923076924e+01
0	 4.375000000000000e+00	 9.437499999999998e+00	 1.000266363076924e+01
0	 4.375000000000000e+00	 9.500000000000000e+00	 1.000253944615384e+01
0	 4.374999999999999e+00	 9.562500000000000e+00	 1.000231667692308e+01
0	 4.375000000000000e+00	 9.625000000000000e+00	 1.000199532307693e+01
0	 4.375000000000000e+00	 9.687499999999998e+00	 1.000157538461538e+01
0	 4.375000000000000e+00	 9.749999999999998e+00	 1.000105686153846e+01
0	 4.375000000000000e+00	 9.812500000000000e+00	 1.000043975384616e+01
0	 4.375000000000001e+00	 9.875000000000000e+00	 9.999724061538458e+00
0	 4.375000000000000e+00	 9.937499999999998e+00	 9.998909784615437e+00
0	 4.375000000000000e+00	 1.000000000000000e+01	 9.997996923076935e+00
0	 4.375000000000000e+00	 0.000000000000000e+00	 1.034188369230769e+01
0	 4.375000000000001e+00	 6.250000000000000e-02	 1.035249575384615e+01
0	 4.375000000000000e+00	 1.250000000000000e-01	 1.036247560000000e+01
0	 4.375000000000000e+00	 1.875000000000000e-01	 1.037182323076923e+01
0	 4.375000000000000e+00	 2.500000000000000e-01	 1.038053864615385e+01
0	 4.375000000000000e+00	 3.125000000000000e-01	 1.038862184615385e+01
0	 4.375000000000000e+00	 3.750000000000000e-01	 1.039607283076923e+01
0	 4.375000000000000e+00	 4.374999999999999e-01	 1.040289160000000e+01
0	 4.375000000000000e+00	 5.000000000000000e-01	 1.040907815384615e+01
0	 4.375000000000000e+00	 5.624999999999999e-01	 1.041463249230769e+01
0	 4.375000000000000e+00	 6.250000000000000e-01	 1.041955461538461e+01
0	 4.437500000000000e+00	 0.000000000000000e+00	 1.034391778153846e+01
0	 4.437500000000000e+00	 6.249999999999999e-02	 1.035252862323077e+01
0	 4.437499999999999e+00	 1.250000000000000e-01	 1.036049692953845e+01
0	 4.437499999999999e+00	 1.875000000000000e-01	 1.036782270046154e+01
0	 4.437500000000000e+00	 2.500000000000000e-01	 1.037450593600000e+01
0	 4.437500000000000e+00	 3.125000000000001e-01	 1.038054663615384e+01
0	 4.437499999999999e+00	 3.749999999999999e-01	 1.038594480092308e+01
0	 4.437499999999999e+00	 4.374999999999999e-01	 1.039070043030769e+01
0	 4.437500000000000e+00	 5.000000000000000e-01	 1.039481352430769e+01
0	 4.437500000000000e+00	 5.625000000000000e-01	 1.039828408292307e+01
0	 4.437499999999999e+00	 6.250000000000000e-01	 1.040111210615385e+01
0	 4.500000000000000e+00	 0.000000000000000e+00	 1.034424503384615e+01
0	 4.500000000000001e+00	 6.250000000000000e-02	 1.035116324369231e+01
0	 4.500000000000001e+00	 1.250000000000000e-01	 1.035742859815385e+01
0	 4.500000000000000e+00	 1.875000000000000e-01	 1.036304109723077e+01
0	 4.499999999999999e+00	 2.500000000000001e-01	 1.036800074092307e+01
0	 4.499999999999999e+00	 3.125000000000000e-01	 1.037230752923077e+01
0	 4.499999999999999e+00	 3.749999999999999e-01	 1.037596146215385e+01
0	 4.500000000000001e+00	 4.375000000000000e-01	 1.037896253969230e+01
0	 4.500000000000000e+00	 4.999999999999999e-01	 1.038131076184615e+01
0	 4.499999999999999e+00	 5.625000000000000e-01	 1.038300612861539e+01
0	 4.500000000000000e+00	 6.249999999999999e-01	 1.038404864000000e+01
0	 4.562499999999999e+00	 0.000000000000000e+00	 1.034286544923076e+01
0	 4.562499999999999e+00	 6.250000000000000e-02	 1.034839961523077e+01
0	 4.562499999999998e+00	 1.250000000000000e-01	 1.035327060584615e+01
0	 4.562499999999999e+00	 1.875000000000001e-01	 1.035747842107692e+01
0	 4.562500000000000e+00	 2.500000000000001e-01	 1.036102306092307e+01
0	 4.562499999999999e+00	 3.125000000000000e-01	 1.036390452538462e+01
0	 4.562499999999999e+00	 3.749999999999999e-01	 1.036612281446154e+01
0	 4.562499999999999e+00	 4.374999999999999e-01	 1.036767792815385e+01
0	 4.562499999999998e+00	 4.999999999999999e-01	 1.036856986646154e+01
0	 4.562500000000000e+00	 5.625000000000001e-01	 1.036879862938461e+01
0	 4.562499999999998e+00	 6.249999999999999e-01	 1.036836421692307e+01
0	 4.625000000000000e+00	 0.000000000000000e+00	 1.033977902769231e+01
0	 4.625000000000000e+00	 6.250000000000000e-02	 1.034423773784616e+01
0	 4.624999999999999e+00	 1.250000000000000e-01	 1.034802295261538e+01
0	 4.624999999999999e+00	 1.875000000000000e-01	 1.035113467200000e+01
0	 4.624999999999999e+00	 2.500000000000000e-01	 1.035357289599999e+01
0	 4.624999999999999e+00	 3.125000000000000e-01	 1.035533762461538e+01
0	 4.624999999999999e+00	 3.750000000000000e-01	 1.035642885784615e+01
0	 4.624999999999999e+00	 4.375000000000000e-01	 1.035684659569230e+01
0	 4.624999999999999e+00	 4.999999999999999e-01	 1.035659083815384e+01
0	 4.624999999999999e+00	 5.625000000000000e-01	 1.035566158523077e+01
0	 4.625000000000000e+00	 6.250000000000001e-01	 1.035405883692308e+01
0	 4.687499999999999e+00	 0.000000000000000e+00	 1.033498576923077e+01
0	 4.687499999999997e+00	 6.249999999999998e-02	 1.033867761153845e+01
0	 4.687499999999999e+00	 1.250000000000000e-01	 1.034168563846154e+01
0	 4.687499999999999e+00	 1.875000000000000e-01	 1.034400985000000e+01
0	 4.687499999999998e+00	 2.499999999999999e-01	 1.034565024615384e+01
0	 4.687499999999999e+00	 3.125000000000000e-01	 1.034660682692308e+01
0	 4.687499999999998e+00	 3.750000000000000e-01	 1.034687959230769e+01
0	 4.687499999999999e+00	 4.375000000000000e-01	 1.034646854230769e+01
0	 4.687499999999999e+00	 4.999999999999999e-01	 1.034537367692307e+01
0	 4.687500000000000e+00	 5.625000000000001e-01	 1.034359499615384e+01
0	 4.687499999999998e+00	 6.250000000000000e-01	 1.034113250000000e+01
0	 4.749999999999998e+00	 0.000000000000000e+00	 1.032848567384615e+01
0	 4.749999999999999e+00	 6.249999999999999e-02	 1.033171923630769e+01
0	 4.749999999999999e+00	 1.250000000000000e-01	 1.033425866338461e+01
0	 4.749999999999998e+00	 1.875000000000001e-01	 1.033610395507692e+01
0	 4.749999999999999e+00	 2.500000000000001e-01	 1.033725511138461e+01
0	 4.749999999999999e+00	 3.125000000000001e-01	 1.033771213230769e+01
0	 4.749999999999999e+00	 3.749999999999999e-01	 1.033747501784615e+01
0	 4.749999999999999e+00	 4.375000000000000e-01	 1.033654376800000e+01
0	 4.749999999999997e+00	 4.999999999999998e-01	 1.033491838276923e+01
0	 4.749999999999999e+00	 5.624999999999999e-01	 1.033259886215385e+01
0	 4.749999999999999e+00	 6.250000000000001e-01	 1.032958520615385e+01
0	 4.812499999999999e+00	 0.000000000000000e+00	 1.032027874153846e+01
0	 4.812499999999998e+00	 6.250000000000000e-02	 1.032336261215385e+01
0	 4.812499999999999e+00	 1.250000000000000e-01	 1.032574202738462e+01
0	 4.812499999999999e+00	 1.875000000000000e-01	 1.032741698723077e+01
0	 4.812499999999997e+00	 2.500000000000000e-01	 1.032838749169231e+01
0	 4.812499999999998e+00	 3.125000000000001e-01	 1.032865354076923e+01
0	 4.812500000000000e+00	 3.750000000000000e-01	 1.032821513446154e+01
0	 4.812499999999998e+00	 4.375000000000000e-01	 1.032707227276923e+01
0	 4.812499999999998e+00	 4.999999999999999e-01	 1.032522495569230e+01
0	 4.812499999999999e+00	 5.625000000000000e-01	 1.032267318323077e+01
0	 4.812499999999998e+00	 6.249999999999999e-01	 1.031941695538461e+01
0	 4.874999999999998e+00	 0.000000000000000e+00	 1.031036497230769e+01
0	 4.874999999999998e+00	 6.249999999999999e-02	 1.031360773907692e+01
0	 4.874999999999999e+00	 1.250000000000000e-01	 1.031613573046154e+01
0	 4.874999999999999e+00	 1.875000000000001e-01	 1.031794894646154e+01
0	 4.874999999999997e+00	 2.500000000000000e-01	 1.031904738707692e+01
0	 4.874999999999997e+00	 3.124999999999999e-01	 1.031943105230769e+01
0	 4.874999999999999e+00	 3.749999999999999e-01	 1.031909994215384e+01
0	 4.874999999999998e+00	 4.375000000000000e-01	 1.031805405661538e+01
0	 4.874999999999999e+00	 4.999999999999999e-01	 1.031629339569230e+01
0	 4.874999999999998e+00	 5.625000000000000e-01	 1.031381795938462e+01
0	 4.874999999999999e+00	 6.250000000000000e-01	 1.031062774769231e+01
0	 4.937499999999998e+00	 0.000000000000000e+00	 1.029874436615384e+01
0	 4.937499999999998e+00	 6.250000000000000e-02	 1.030245461707692e+01
0	 4.937499999999998e+00	 1.250000000000000e-01	 1.030543977261538e+01
0	 4.937499999999999e+00	 1.875000000000000e-01	 1.030769983276923e+01
0	 4.937499999999996e+00	 2.499999999999999e-01	 1.030923479753846e+01
0	 4.937499999999997e+00	 3.125000000000000e-01	 1.031004466692308e+01
0	 4.937499999999998e+00	 3.750000000000000e-01	 1.031012944092307e+01
0	 4.937499999999998e+00	 4.375000000000000e-01	 1.030948911953846e+01
0	 4.937499999999997e+00	 4.999999999999999e-01	 1.030812370276923e+01
0	 4.937499999999998e+00	 5.625000000000000e-01	 1.030603319061538e+01
0	 4.937499999999998e+00	 6.250000000000000e-01	 1.030321758307693e+01
0	 5.000000000000000e+00	 0.000000000000000e+00	 1.028541692307692e+01
0	 5.000000000000001e+00	 6.250000000000000e-02	 1.028990324615384e+01
0	 5.000000000000000e+00	 1.250000000000000e-01	 1.029365415384615e+01
0	 4.999999999999999e+00	 1.875000000000000e-01	 1.029666964615384e+01
0	 5.000000000000000e+00	 2.500000000000000e-01	 1.029894972307692e+01
0	 5.000000000000000e+00	 3.125000000000000e-01	 1.030049438461538e+01
0	 5.000000000000000e+00	 3.750000000000000e-01	 1.030130363076923e+01
0	 5.000000000000000e+00	 4.374999999999999e-01	 1.030137746153846e+01
0	 5.000000000000000e+00	 5.000000000000000e-01	 1.030071587692307e+01
0	 5.000000000000000e+00	 5.624999999999999e-01	 1.029931887692308e+01
0	 5.000000000000000e+00	 6.250000000000000e-01	 1.029718646153846e+01
0	 4.375000000000000e+00	 6.250000000000000e-01	 1.041955461538461e+01
0	 4.375000000000000e+00	 6.875000000000000e-01	 1.042526713846154e+01
0	 4.375000000000000e+00	 7.500000000000002e-01	 1.043083400000000e+01
0	 4.375000000000001e+00	 8.125000000000002e-01	 1.043625520000000e+01
0	 4.375000000000000e+00	 8.750000000000002e-01	 1.044153073846154e+01
0	 4.375000000000001e+00	 9.375000000000002e-01	 1.044666061538461e+01
0	 4.375000000000000e+00	 1.000000000000000e+00	 1.045164483076923e+01
0	 4.375000000000000e+00	 1.062500000000000e+00	 1.045648338461538e+01
0	 4.375000000000001e+00	 1.125000000000001e+00	 1.046117627692307e+01
0	 4.375000000000000e+00	 1.187500000000000e+00	 1.046572350769231e+01
0	 4.375000000000000e+00	 1.250000000000000e+00	 1.047012507692308e+01
0	 4.437499999999999e+00	 6.250000000000000e-01	 1.040111210615385e+01
0	 4.437500000000000e+00	 6.875000000000001e-01	 1.040753735276923e+01
0	 4.437500000000000e+00	 7.500000000000001e-01	 1.041379501476923e+01
0	 4.437500000000000e+00	 8.125000000000002e-01	 1.041988509215385e+01
0	 4.437500000000001e+00	 8.750000000000003e-01	 1.042580758492308e+01
0	 4.437499999999998e+00	 9.375000000000003e-01	 1.043156249307692e+01
0	 4.437500000000000e+00	 1.000000000000000e+00	 1.043714981661539e+01
0	 4.437500000000000e+00	 1.062500000000000e+00	 1.044256955553846e+01
0	 4.437499999999999e+00	 1.125000000000000e+00	 1.044782170984615e+01
0	 4.437499999999998e+00	 1.187500000000000e+00	 1.045290627953846e+01
0	 4.437499999999999e+00	 1.250000000000000e+00	 1.045782326461539e+01
0	 4.500000000000000e+00	 6.249999999999999e-01	 1.038404864000000e+01
0	 4.499999999999999e+00	 6.875000000000001e-01	 1.039106185723077e+01
0	 4.500000000000000e+00	 7.500000000000002e-01	 1.039788556676923e+01
0	 4.499999999999999e+00	 8.125000000000001e-01	 1.040451976861539e+01
0	 4.500000000000000e+00	 8.750000000000003e-01	 1.041096446276923e+01
0	 4.500000000000001e+00	 9.375000000000003e-01	 1.041721964923077e+01
0	 4.500000000000001e+00	 1.000000000000000e+00	 1.042328532800000e+01
0	 4.499999999999999e+00	 1.062500000000000e+00	 1.042916149907693e+01
0	 4.500000000000000e+00	 1.125000000000000e+00	 1.043484816246154e+01
0	 4.499999999999999e+00	 1.187500000000001e+00	 1.044034531815384e+01
0	 4.500000000000000e+00	 1.250000000000000e+00	 1.044565296615384e+01
0	 4.562499999999998e+00	 6.249999999999999e-01	 1.036836421692307e+01
0	 4.562499999999999e+00	 6.875000000000000e-01	 1.037584065184615e+01
0	 4.562499999999999e+00	 7.500000000000000e-01	 1.038310565600000e+01
0	 4.562500000000000e+00	 8.125000000000002e-01	 1.039015922938461e+01
0	 4.562500000000000e+00	 8.750000000000002e-01	 1.039700137199999e+01
0	 4.562499999999998e+00	 9.375000000000002e-01	 1.040363208384615e+01
0	 4.562499999999999e+00	 1.000000000000000e+00	 1.041005136492308e+01
0	 4.562500000000000e+00	 1.062500000000000e+00	 1.041625921523077e+01
0	 4.562499999999998e+00	 1.125000000000000e+00	 1.042225563476923e+01
0	 4.562499999999999e+00	 1.187500000000000e+00	 1.042804062353845e+01
0	 4.562499999999998e+00	 1.250000000000000e+00	 1.043361418153846e+01
0	 4.625000000000000e+00	 6.250000000000001e-01	 1.035405883692308e+01
0	 4.625000000000000e+00	 6.875000000000000e-01	 1.036187373661538e+01
0	 4.624999999999998e+00	 7.500000000000000e-01	 1.036945528246154e+01
0	 4.624999999999998e+00	 8.125000000000001e-01	 1.037680347446154e+01
0	 4.625000000000000e+00	 8.750000000000003e-01	 1.038391831261538e+01
0	 4.624999999999998e+00	 9.375000000000000e-01	 1.039079979692307e+01
0	 4.625000000000000e+00	 1.000000000000000e+00	 1.039744792738462e+01
0	 4.625000000000000e+00	 1.062500000000000e+00	 1.040386270400000e+01
0	 4.625000000000000e+00	 1.125000000000000e+00	 1.041004412676923e+01
0	 4.625000000000001e+00	 1.187500000000000e+00	 1.041599219569231e+01
0	 4.625000000000000e+00	 1.250000000000000e+00	 1.042170691076923e+01
0	 4.687499999999998e+00	 6.250000000000000e-01	 1.034113250000000e+01
0	 4.687499999999997e+00	 6.875000000000000e-01	 1.034916111153846e+01
0	 4.687499999999999e+00	 7.500000000000001e-01	 1.035693444615384e+01
0	 4.687499999999998e+00	 8.125000000000002e-01	 1.036445250384615e+01
0	 4.687499999999998e+00	 8.750000000000003e-01	 1.037171528461538e+01
0	 4.687499999999998e+00	 9.375000000000002e-01	 1.037872278846154e+01
0	 4.687499999999999e+00	 1.000000000000000e+00	 1.038547501538462e+01
0	 4.687500000000000e+00	 1.062500000000000e+00	 1.039197196538461e+01
0	 4.687499999999998e+00	 1.125000000000000e+00	 1.039821363846154e+01
0	 4.687499999999999e+00	 1.187500000000001e+00	 1.040420003461538e+01
0	 4.687499999999998e+00	 1.250000000000000e+00	 1.040993115384616e+01
0	 4.749999999999999e+00	 6.250000000000001e-01	 1.032958520615385e+01
0	 4.749999999999998e+00	 6.874999999999999e-01	 1.033770277661539e+01
0	 4.749999999999999e+00	 7.500000000000003e-01	 1.034554314707692e+01
0	 4.749999999999997e+00	 8.125000000000000e-01	 1.035310631753846e+01
0	 4.749999999999997e+00	 8.750000000000001e-01	 1.036039228800000e+01
0	 4.749999999999999e+00	 9.375000000000003e-01	 1.036740105846154e+01
0	 4.749999999999999e+00	 1.000000000000000e+00	 1.037413262892307e+01
0	 4.749999999999998e+00	 1.062500000000000e+00	 1.038058699938462e+01
0	 4.749999999999999e+00	 1.125000000000000e+00	 1.038676416984615e+01
0	 4.749999999999998e+00	 1.187500000000000e+00	 1.039266414030769e+01
0	 4.749999999999999e+00	 1.250000000000000e+00	 1.039828691076923e+01
0	 4.812499999999998e+00	 6.249999999999999e-01	 1.031941695538461e+01
0	 4.812499999999998e+00	 6.875000000000000e-01	 1.032749873184615e+01
0	 4.812499999999999e+00	 7.500000000000002e-01	 1.033528138523077e+01
0	 4.812499999999998e+00	 8.125000000000000e-01	 1.034276491553846e+01
0	 4.812499999999999e+00	 8.750000000000002e-01	 1.034994932276923e+01
0	 4.812500000000000e+00	 9.375000000000004e-01	 1.035683460692308e+01
0	 4.812499999999998e+00	 1.000000000000000e+00	 1.036342076800000e+01
0	 4.812499999999999e+00	 1.062500000000001e+00	 1.036970780600000e+01
0	 4.812499999999998e+00	 1.125000000000000e+00	 1.037569572092308e+01
0	 4.812499999999999e+00	 1.187500000000000e+00	 1.038138451276923e+01
0	 4.812499999999998e+00	 1.250000000000000e+00	 1.038677418153846e+01
0	 4.874999999999999e+00	 6.250000000000000e-01	 1.031062774769231e+01
0	 4.874999999999998e+00	 6.875000000000000e-01	 1.031854897723077e+01
0	 4.874999999999998e+00	 7.500000000000000e-01	 1.032614916061539e+01
0	 4.874999999999998e+00	 8.125000000000001e-01	 1.033342829784615e+01
0	 4.874999999999998e+00	 8.750000000000003e-01	 1.034038638892307e+01
0	 4.874999999999998e+00	 9.375000000000002e-01	 1.034702343384616e+01
0	 4.874999999999999e+00	 1.000000000000001e+00	 1.035333943261538e+01
0	 4.874999999999998e+00	 1.062500000000000e+00	 1.035933438523077e+01
0	 4.874999999999997e+00	 1.125000000000000e+00	 1.036500829169231e+01
0	 4.874999999999998e+00	 1.187500000000000e+00	 1.037036115200000e+01
0	 4.874999999999999e+00	 1.250000000000000e+00	 1.037539296615384e+01
0	 4.937499999999998e+00	 6.250000000000000e-01	 1.030321758307693e+01
0	 4.937499999999998e+00	 6.875000000000002e-01	 1.031085351276923e+01
0	 4.937499999999997e+00	 7.500000000000001e-01	 1.031814647323077e+01
0	 4.937499999999997e+00	 8.125000000000001e-01	 1.032509646446154e+01
0	 4.937499999999998e+00	 8.750000000000002e-01	 1.033170348646154e+01
0	 4.937499999999997e+00	 9.375000000000002e-01	 1.033796753923077e+01
0	 4.937499999999999e+00	 1.000000000000000e+00	 1.034388862276923e+01
0	 4.937499999999997e+00	 1.062500000000000e+00	 1.034946673707693e+01
0	 4.937499999999997e+00	 1.125000000000000e+00	 1.035470188215385e+01
0	 4.937499999999997e+00	 1.187500000000000e+00	 1.035959405800000e+01
0	 4.937499999999998e+00	 1.250000000000000e+00	 1.036414326461538e+01
0	 5.000000000000000e+00	 6.250000000000000e-01	 1.029718646153846e+01
0	 5.000000000000000e+00	 6.875000000000000e-01	 1.030441233846154e+01
0	 5.000000000000001e+00	 7.500000000000002e-01	 1.031127332307693e+01
0	 5.000000000000002e+00	 8.125000000000002e-01	 1.031776941538461e+01
0	 5.000000000000000e+00	 8.750000000000002e-01	 1.032390061538461e+01
0	 5.000000000000001e+00	 9.375000000000002e-01	 1.032966692307692e+01
0	 5.000000000000001e+00	 1.000000000000000e+00	 1.033506833846154e+01
0	 5.000000000000000e+00	 1.062500000000000e+00	 1.034010486153846e+01
0	 5.000000000000001e+00	 1.125000000000001e+00	 1.034477649230769e+01
0	 5.000000000000000e+00	 1.187500000000000e+00	 1.034908323076923e+01
0	 5.000000000000000e+00	 1.250000000000000e+00	 1.035302507692307e+01
0	 4.375000000000000e+00	 1.250000000000000e+00	 1.047012507692308e+01
0	 4.375000000000000e+00	 1.312500000000000e+00	 1.047712869230769e+01
0	 4.375000000000000e+00	 1.375000000000000e+00	 1.048404424615384e+01
0	 4.375000000000001e+00	 1.437500000000000e+00	 1.049087173846154e+01
0	 4.375000000000000e+00	 1.500000000000000e+00	 1.049761116923077e+01
0	 4.375000000000001e+00	 1.562500000000000e+00	 1.050426253846154e+01
0	 4.375000000000000e+00	 1.625000000000000e+00	 1.051082584615384e+01
0	 4.375000000000000e+00	 1.687500000000000e+00	 1.051730109230769e+01
0	 4.375000000000001e+00	 1.750000000000001e+00	 1.052368827692307e+01
0	 4.375000000000000e+00	 1.812500000000000e+00	 1.052998739999999e+01
0	 4.375000000000000e+00	 1.875000000000000e+00	 1.053619846153846e+01
0	 4.437499999999999e+00	 1.250000000000000e+00	 1.045782326461539e+01
0	 4.437500000000000e+00	 1.312500000000000e+00	 1.046401874430769e+01
0	 4.437500000000000e+00	 1.375000000000000e+00	 1.047015076246154e+01
0	 4.437500000000000e+00	 1.437500000000000e+00	 1.047621931907692e+01
0	 4.437500000000001e+00	 1.500000000000000e+00	 1.048222441415384e+01
0	 4.437499999999998e+00	 1.562500000000000e+00	 1.048816604769231e+01
0	 4.437500000000000e+00	 1.625000000000000e+00	 1.049404421969230e+01
0	 4.437500000000000e+00	 1.687500000000000e+00	 1.049985893015383e+01
0	 4.437499999999999e+00	 1.750000000000000e+00	 1.050561017907692e+01
0	 4.437499999999998e+00	 1.812500000000000e+00	 1.051129796646154e+01
0	 4.437499999999999e+00	 1.875000000000000e+00	 1.051692229230769e+01
0	 4.500000000000000e+00	 1.250000000000000e+00	 1.044565296615384e+01
0	 4.499999999999999e+00	 1.312500000000000e+00	 1.045113112492308e+01
0	 4.500000000000000e+00	 1.375000000000000e+00	 1.045657042215385e+01
0	 4.499999999999999e+00	 1.437500000000000e+00	 1.046197085784616e+01
0	 4.500000000000000e+00	 1.500000000000000e+00	 1.046733243200000e+01
0	 4.500000000000001e+00	 1.562500000000000e+00	 1.047265514461538e+01
0	 4.500000000000001e+00	 1.625000000000000e+00	 1.047793899569231e+01
0	 4.499999999999999e+00	 1.687500000000000e+00	 1.048318398523077e+01
0	 4.500000000000000e+00	 1.750000000000001e+00	 1.048839011323077e+01
0	 4.499999999999999e+00	 1.812500000000001e+00	 1.049355737969230e+01
0	 4.500000000000000e+00	 1.875000000000000e+00	 1.049868578461538e+01
0	 4.562499999999998e+00	 1.250000000000000e+00	 1.043361418153846e+01
0	 4.562499999999999e+00	 1.312500000000000e+00	 1.043846583415385e+01
0	 4.562499999999999e+00	 1.375000000000000e+00	 1.044330322523077e+01
0	 4.562500000000000e+00	 1.437500000000000e+00	 1.044812635476923e+01
0	 4.562500000000000e+00	 1.500000000000000e+00	 1.045293522276923e+01
0	 4.562499999999998e+00	 1.562500000000000e+00	 1.045772982923077e+01
0	 4.562499999999999e+00	 1.625000000000000e+00	 1.046251017415384e+01
0	 4.562500000000000e+00	 1.687500000000000e+00	 1.046727625753846e+01
0	 4.562499999999998e+00	 1.750000000000000e+00	 1.047202807938461e+01
0	 4.562499999999999e+00	 1.812500000000000e+00	 1.047676563969230e+01
0	 4.562499999999998e+00	 1.875000000000000e+00	 1.048148893846154e+01
0	 4.625000000000000e+00	 1.250000000000000e+00	 1.042170691076923e+01
0	 4.625000000000000e+00	 1.312500000000000e+00	 1.042602287200000e+01
0	 4.624999999999998e+00	 1.375000000000000e+00	 1.043034917169231e+01
0	 4.624999999999998e+00	 1.437500000000000e+00	 1.043468580984615e+01
0	 4.625000000000000e+00	 1.500000000000000e+00	 1.043903278646154e+01
0	 4.624999999999998e+00	 1.562500000000000e+00	 1.044339010153846e+01
0	 4.625000000000000e+00	 1.625000000000001e+00	 1.044775775507692e+01
0	 4.625000000000000e+00	 1.687500000000000e+00	 1.045213574707692e+01
0	 4.625000000000000e+00	 1.750000000000001e+00	 1.045652407753846e+01
0	 4.625000000000001e+00	 1.812500000000000e+00	 1.046092274646153e+01
0	 4.625000000000000e+00	 1.875000000000000e+00	 1.046533175384615e+01
0	 4.687499999999998e+00	 1.250000000000000e+00	 1.040993115384616e+01
0	 4.687499999999997e+00	 1.312500000000000e+00	 1.041380223846154e+01
0	 4.687499999999999e+00	 1.375000000000000e+00	 1.041770826153846e+01
0	 4.687499999999998e+00	 1.437500000000000e+00	 1.042164922307692e+01
0	 4.687499999999998e+00	 1.500000000000000e+00	 1.042562512307692e+01
0	 4.687499999999998e+00	 1.562500000000000e+00	 1.042963596153846e+01
0	 4.687499999999999e+00	 1.625000000000000e+00	 1.043368173846154e+01
0	 4.687500000000000e+00	 1.687500000000000e+00	 1.043776245384615e+01
0	 4.687499999999998e+00	 1.750000000000000e+00	 1.044187810769230e+01
0	 4.687499999999999e+00	 1.812500000000000e+00	 1.044602870000000e+01
0	 4.687499999999998e+00	 1.875000000000000e+00	 1.045021423076923e+01
0	 4.749999999999999e+00	 1.250000000000000e+00	 1.039828691076923e+01
0	 4.749999999999998e+00	 1.312500000000000e+00	 1.040180393353846e+01
0	 4.749999999999999e+00	 1.375000000000000e+00	 1.040538049476923e+01
0	 4.749999999999997e+00	 1.437500000000000e+00	 1.040901659446154e+01
0	 4.749999999999997e+00	 1.500000000000000e+00	 1.041271223261538e+01
0	 4.749999999999999e+00	 1.562500000000000e+00	 1.041646740923076e+01
0	 4.749999999999999e+00	 1.625000000000000e+00	 1.042028212430769e+01
0	 4.749999999999998e+00	 1.687500000000000e+00	 1.042415637784616e+01
0	 4.749999999999999e+00	 1.750000000000000e+00	 1.042809016984615e+01
0	 4.749999999999998e+00	 1.812500000000000e+00	 1.043208350030769e+01
0	 4.749999999999999e+00	 1.875000000000000e+00	 1.043613636923077e+01
0	 4.812499999999998e+00	 1.250000000000000e+00	 1.038677418153846e+01
0	 4.812499999999998e+00	 1.312500000000000e+00	 1.039002795723077e+01
0	 4.812499999999999e+00	 1.375000000000000e+00	 1.039336587138461e+01
0	 4.812499999999998e+00	 1.437500000000000e+00	 1.039678792400000e+01
0	 4.812499999999999e+00	 1.500000000000001e+00	 1.040029411507692e+01
0	 4.812500000000000e+00	 1.562500000000000e+00	 1.040388444461539e+01
0	 4.812499999999998e+00	 1.625000000000000e+00	 1.040755891261538e+01
0	 4.812499999999999e+00	 1.687500000000000e+00	 1.041131751907693e+01
0	 4.812499999999998e+00	 1.750000000000000e+00	 1.041516026400000e+01
0	 4.812499999999999e+00	 1.812500000000000e+00	 1.041908714738462e+01
0	 4.812499999999998e+00	 1.875000000000000e+00	 1.042309816923077e+01
0	 4.874999999999999e+00	 1.250000000000000e+00	 1.037539296615384e+01
0	 4.874999999999998e+00	 1.312500000000000e+00	 1.037847430953846e+01
0	 4.874999999999998e+00	 1.375000000000000e+00	 1.038166439138461e+01
0	 4.874999999999998e+00	 1.437500000000000e+00	 1.038496321169231e+01
0	 4.874999999999998e+00	 1.500000000000000e+00	 1.038837077046153e+01
0	 4.874999999999998e+00	 1.562500000000000e+00	 1.039188706769231e+01
0	 4.874999999999999e+00	 1.625000000000001e+00	 1.039551210338461e+01
0	 4.874999999999998e+00	 1.687500000000000e+00	 1.039924587753846e+01
0	 4.874999999999997e+00	 1.750000000000000e+00	 1.040308839015384e+01
0	 4.874999999999998e+00	 1.812500000000001e+00	 1.040703964123077e+01
0	 4.874999999999999e+00	 1.875000000000000e+00	 1.041109963076923e+01
0	 4.937499999999998e+00	 1.250000000000000e+00	 1.036414326461538e+01
0	 4.937499999999998e+00	 1.312500000000000e+00	 1.036714299046153e+01
0	 4.937499999999997e+00	 1.375000000000000e+00	 1.037027605476922e+01
0	 4.937499999999997e+00	 1.437500000000000e+00	 1.037354245753846e+01
0	 4.937499999999998e+00	 1.500000000000000e+00	 1.037694219876923e+01
0	 4.937499999999997e+00	 1.562500000000000e+00	 1.038047527846154e+01
0	 4.937499999999999e+00	 1.625000000000000e+00	 1.038414169661539e+01
0	 4.937499999999997e+00	 1.687500000000000e+00	 1.038794145323077e+01
0	 4.937499999999997e+00	 1.750000000000000e+00	 1.039187454830769e+01
0	 4.937499999999997e+00	 1.812500000000000e+00	 1.039594098184616e+01
0	 4.937499999999998e+00	 1.875000000000000e+00	 1.040014075384616e+01
0	 5.000000000000000e+00	 1.250000000000000e+00	 1.035302507692307e+01
0	 5.000000000000000e+00	 1.312500000000000e+00	 1.035603400000000e+01
0	 5.000000000000001e+00	 1.375000000000000e+00	 1.035920086153846e+01
0	 5.000000000000002e+00	 1.437500000000000e+00	 1.036252566153846e+01
0	 5.000000000000000e+00	 1.500000000000000e+00	 1.036600839999999e+01
0	 5.000000000000001e+00	 1.562500000000000e+00	 1.036964907692307e+01
0	 5.000000000000001e+00	 1.625000000000000e+00	 1.037344769230769e+01
0	 5.000000000000000e+00	 1.687500000000000e+00	 1.037740424615385e+01
0	 5.000000000000001e+00	 1.750000000000001e+00	 1.038151873846154e+01
0	 5.000000000000000e+00	 1.812500000000000e+00	 1.038579116923077e+01
0	 5.000000000000000e+00	 1.875000000000000e+00	 1.039022153846154e+01
0	 4.375000000000000e+00	 1.875000000000000e+00	 1.053619846153846e+01
0	 4.375000000000000e+00	 1.937500000000000e+00	 1.053169680000000e+01
0	 4.375000000000000e+00	 2.000000000000000e+00	 1.052788966153846e+01
0	 4.375000000000001e+00	 2.062500000000000e+00	 1.052477704615384e+01
0	 4.375000000000000e+00	 2.125000000000000e+00	 1.052235895384615e+01
0	 4.375000000000001e+00	 2.187500000000000e+00	 1.052063538461538e+01
0	 4.375000000000000e+00	 2.250000000000000e+00	 1.051960633846153e+01
0	 4.375000000000000e+00	 2.312500000000000e+00	 1.051927181538461e+01
0	 4.375000000000001e+00	 2.375000000000001e+00	 1.051963181538462e+01
0	 4.375000000000000e+00	 2.437500000000001e+00	 1.052068633846154e+01
0	 4.375000000000000e+00	 2.500000000000000e+00	 1.052243538461538e+01
0	 4.437499999999999e+00	 1.875000000000000e+00	 1.051692229230769e+01
0	 4.437500000000000e+00	 1.937500000000000e+00	 1.051336809230769e+01
0	 4.437500000000000e+00	 2.000000000000000e+00	 1.051045854153846e+01
0	 4.437500000000000e+00	 2.062500000000000e+00	 1.050819363999999e+01
0	 4.437500000000001e+00	 2.125000000000001e+00	 1.050657338769231e+01
0	 4.437499999999998e+00	 2.187500000000000e+00	 1.050559778461539e+01
0	 4.437500000000000e+00	 2.250000000000000e+00	 1.050526683076923e+01
0	 4.437500000000000e+00	 2.312500000000000e+00	 1.050558052615384e+01
0	 4.437499999999999e+00	 2.375000000000000e+00	 1.050653887076923e+01
0	 4.437499999999998e+00	 2.437500000000000e+00	 1.050814186461538e+01
0	 4.437499999999999e+00	 2.500000000000000e+00	 1.051038950769231e+01
0	 4.500000000000000e+00	 1.875000000000000e+00	 1.049868578461538e+01
0	 4.499999999999999e+00	 1.937500000000000e+00	 1.049599196615385e+01
0	 4.500000000000000e+00	 2.000000000000000e+00	 1.049389292307693e+01
0	 4.499999999999999e+00	 2.062500000000000e+00	 1.049238865538462e+01
0	 4.500000000000000e+00	 2.125000000000000e+00	 1.049147916307693e+01
0	 4.500000000000001e+00	 2.187500000000001e+00	 1.049116444615385e+01
0	 4.500000000000001e+00	 2.250000000000000e+00	 1.049144450461538e+01
0	 4.499999999999999e+00	 2.312500000000000e+00	 1.049231933846154e+01
0	 4.500000000000000e+00	 2.375000000000000e+00	 1.049378894769232e+01
0	 4.499999999999999e+00	 2.437500000000000e+00	 1.049585333230769e+01
0	 4.500000000000000e+00	 2.500000000000000e+00	 1.049851249230769e+01
0	 4.562499999999998e+00	 1.875000000000000e+00	 1.048148893846154e+01
0	 4.562499999999999e+00	 1.937500000000000e+00	 1.047956842153846e+01
0	 4.562499999999999e+00	 2.000000000000000e+00	 1.047819280615385e+01
0	 4.562500000000000e+00	 2.062500000000000e+00	 1.047736209230769e+01
0	 4.562500000000000e+00	 2.125000000000001e+00	 1.047707627999999e+01
0	 4.562499999999998e+00	 2.187500000000000e+00	 1.047733536923077e+01
0	 4.562499999999999e+00	 2.250000000000000e+00	 1.047813935999999e+01
0	 4.562500000000000e+00	 2.312500000000000e+00	 1.047948825230769e+01
0	 4.562499999999998e+00	 2.375000000000000e+00	 1.048138204615384e+01
0	 4.562499999999999e+00	 2.437500000000000e+00	 1.048382074153845e+01
0	 4.562499999999998e+00	 2.500000000000000e+00	 1.048680433846154e+01
0	 4.625000000000000e+00	 1.875000000000000e+00	 1.046533175384615e+01
0	 4.625000000000000e+00	 1.937500000000000e+00	 1.046409745846154e+01
0	 4.624999999999998e+00	 2.000000000000000e+00	 1.046335819076923e+01
0	 4.624999999999998e+00	 2.062500000000000e+00	 1.046311395076923e+01
0	 4.625000000000000e+00	 2.125000000000000e+00	 1.046336473846154e+01
0	 4.624999999999998e+00	 2.187500000000000e+00	 1.046411055384615e+01
0	 4.625000000000000e+00	 2.250000000000000e+00	 1.046535139692308e+01
0	 4.625000000000000e+00	 2.312500000000000e+00	 1.046708726769230e+01
0	 4.625000000000000e+00	 2.375000000000000e+00	 1.046931816615384e+01
0	 4.625000000000001e+00	 2.437500000000000e+00	 1.047204409230770e+01
0	 4.625000000000000e+00	 2.500000000000000e+00	 1.047526504615385e+01
0	 4.687499999999998e+00	 1.875000000000000e+00	 1.045021423076923e+01
0	 4.687499999999997e+00	 1.937500000000000e+00	 1.044957907692307e+01
0	 4.687499999999999e+00	 2.000000000000000e+00	 1.044938907692307e+01
0	 4.687499999999998e+00	 2.062500000000000e+00	 1.044964423076923e+01
0	 4.687499999999998e+00	 2.125000000000000e+00	 1.045034453846154e+01
0	 4.687499999999998e+00	 2.187500000000000e+00	 1.045149000000000e+01
0	 4.687499999999999e+00	 2.250000000000000e+00	 1.045308061538462e+01
0	 4.687500000000000e+00	 2.312500000000001e+00	 1.045511638461539e+01
0	 4.687499999999998e+00	 2.375000000000000e+00	 1.045759730769231e+01
0	 4.687499999999999e+00	 2.437500000000000e+00	 1.046052338461539e+01
0	 4.687499999999998e+00	 2.500000000000000e+00	 1.046389461538462e+01
0	 4.749999999999999e+00	 1.875000000000000e+00	 1.043613636923077e+01
0	 4.749999999999998e+00	 1.937500000000000e+00	 1.043601327692307e+01
0	 4.749999999999999e+00	 2.000000000000000e+00	 1.043628546461538e+01
0	 4.749999999999997e+00	 2.062500000000000e+00	 1.043695293230769e+01
0	 4.749999999999997e+00	 2.125000000000000e+00	 1.043801568000000e+01
0	 4.749999999999999e+00	 2.187500000000000e+00	 1.043947370769231e+01
0	 4.749999999999999e+00	 2.250000000000000e+00	 1.044132701538462e+01
0	 4.749999999999998e+00	 2.312500000000000e+00	 1.044357560307692e+01
0	 4.749999999999999e+00	 2.375000000000001e+00	 1.044621947076923e+01
0	 4.749999999999998e+00	 2.437500000000000e+00	 1.044925861846154e+01
0	 4.749999999999999e+00	 2.500000000000000e+00	 1.045269304615386e+01
0	 4.812499999999998e+00	 1.875000000000000e+00	 1.042309816923077e+01
0	 4.812499999999998e+00	 1.937500000000000e+00	 1.042340005846154e+01
0	 4.812499999999999e+00	 2.000000000000001e+00	 1.042404735384616e+01
0	 4.812499999999998e+00	 2.062500000000000e+00	 1.042504005538462e+01
0	 4.812499999999999e+00	 2.125000000000001e+00	 1.042637816307692e+01
0	 4.812500000000000e+00	 2.187500000000000e+00	 1.042806167692308e+01
0	 4.812499999999998e+00	 2.250000000000000e+00	 1.043009059692308e+01
0	 4.812499999999999e+00	 2.312500000000001e+00	 1.043246492307693e+01
0	 4.812499999999998e+00	 2.375000000000000e+00	 1.043518465538462e+01
0	 4.812499999999999e+00	 2.437500000000000e+00	 1.043824979384616e+01
0	 4.812499999999998e+00	 2.500000000000000e+00	 1.044166033846154e+01
0	 4.874999999999999e+00	 1.875000000000000e+00	 1.041109963076923e+01
0	 4.874999999999998e+00	 1.937500000000000e+00	 1.041173942153846e+01
0	 4.874999999999998e+00	 2.000000000000000e+00	 1.041267474461539e+01
0	 4.874999999999998e+00	 2.062500000000000e+00	 1.041390560000000e+01
0	 4.874999999999998e+00	 2.125000000000000e+00	 1.041543198769231e+01
0	 4.874999999999998e+00	 2.187500000000000e+00	 1.041725390769231e+01
0	 4.874999999999999e+00	 2.250000000000000e+00	 1.041937136000000e+01
0	 4.874999999999998e+00	 2.312500000000000e+00	 1.042178434461539e+01
0	 4.874999999999997e+00	 2.375000000000000e+00	 1.042449286153846e+01
0	 4.874999999999998e+00	 2.437500000000001e+00	 1.042749691076924e+01
0	 4.874999999999999e+00	 2.500000000000000e+00	 1.043079649230769e+01
0	 4.937499999999998e+00	 1.875000000000000e+00	 1.040014075384616e+01
0	 4.937499999999998e+00	 1.937500000000000e+00	 1.040103136615385e+01
0	 4.937499999999997e+00	 2.000000000000000e+00	 1.040216763692308e+01
0	 4.937499999999997e+00	 2.062500000000000e+00	 1.040354956615385e+01
0	 4.937499999999998e+00	 2.125000000000000e+00	 1.040517715384616e+01
0	 4.937499999999997e+00	 2.187500000000000e+00	 1.040705040000000e+01
0	 4.937499999999999e+00	 2.250000000000000e+00	 1.040916930461539e+01
0	 4.937499999999997e+00	 2.312500000000000e+00	 1.041153386769231e+01
0	 4.937499999999997e+00	 2.375000000000000e+00	 1.041414408923077e+01
0	 4.937499999999997e+00	 2.437500000000000e+00	 1.041699996923077e+01
0	 4.937499999999998e+00	 2.500000000000000e+00	 1.042010150769231e+01
0	 5.000000000000000e+00	 1.875000000000000e+00	 1.039022153846154e+01
0	 5.000000000000000e+00	 1.937500000000000e+00	 1.039127589230770e+01
0	 5.000000000000001e+00	 2.000000000000000e+00	 1.039252603076923e+01
0	 5.000000000000002e+00	 2.062500000000000e+00	 1.039397195384615e+01
0	 5.000000000000000e+00	 2.125000000000000e+00	 1.039561366153846e+01
0	 5.000000000000001e+00	 2.187500000000000e+00	 1.039745115384616e+01
0	 5.000000000000001e+00	 2.250000000000000e+00	 1.039948443076923e+01
0	 5.000000000000000e+00	 2.312500000000000e+00	 1.040171349230770e+01
0	 5.000000000000001e+00	 2.375000000000001e+00	 1.040413833846155e+01
0	 5.000000000000000e+00	 2.437500000000001e+00	 1.040675896923078e+01
0	 5.000000000000000e+00	 2.500000000000000e+00	 1.040957538461539e+01
0	 4.375000000000000e+00	 2.500000000000000e+00	 1.052243538461538e+01
0	 4.375000000000000e+00	 2.562500000000000e+00	 1.051580590769232e+01
0	 4.375000000000001e+00	 2.625000000000000e+00	 1.050956301538461e+01
0	 4.375000000000000e+00	 2.687499999999999e+00	 1.050370670769230e+01
0	 4.375000000000000e+00	 2.750000000000000e+00	 1.049823698461538e+01
0	 4.375000000000000e+00	 2.812499999999999e+00	 1.049315384615385e+01
0	 4.375000000000000e+00	 2.874999999999999e+00	 1.048845729230768e+01
0	 4.375000000000000e+00	 2.937499999999998e+00	 1.048414732307692e+01
0	 4.375000000000000e+00	 2.999999999999998e+00	 1.048022393846153e+01
0	 4.375000000000000e+00	 3.062499999999998e+00	 1.047668713846154e+01
0	 4.375000000000000e+00	 3.125000000000000e+00	 1.047353692307692e+01
0	 4.437499999999999e+00	 2.500000000000000e+00	 1.051038950769231e+01
0	 4.437500000000000e+00	 2.562500000000000e+00	 1.050400442769230e+01
0	 4.437499999999999e+00	 2.624999999999999e+00	 1.049800389230769e+01
0	 4.437499999999999e+00	 2.687499999999999e+00	 1.049238790153846e+01
0	 4.437500000000000e+00	 2.750000000000000e+00	 1.048715645538462e+01
0	 4.437500000000000e+00	 2.812499999999999e+00	 1.048230955384616e+01
0	 4.437500000000000e+00	 2.875000000000000e+00	 1.047784719692307e+01
0	 4.437500000000000e+00	 2.937499999999999e+00	 1.047376938461538e+01
0	 4.437500000000002e+00	 2.999999999999999e+00	 1.047007611692308e+01
0	 4.437499999999998e+00	 3.062499999999997e+00	 1.046676739384615e+01
0	 4.437499999999999e+00	 3.125000000000000e+00	 1.046384321538461e+01
0	 4.500000000000000e+00	 2.500000000000000e+00	 1.049851249230769e+01
0	 4.499999999999999e+00	 2.562500000000000e+00	 1.049237876615385e+01
0	 4.500000000000001e+00	 2.625000000000000e+00	 1.048662754461539e+01
0	 4.499999999999999e+00	 2.687500000000000e+00	 1.048125882769230e+01
0	 4.499999999999998e+00	 2.749999999999999e+00	 1.047627261538462e+01
0	 4.500000000000000e+00	 2.812499999999999e+00	 1.047166890769231e+01
0	 4.499999999999999e+00	 2.874999999999999e+00	 1.046744770461538e+01
0	 4.500000000000001e+00	 2.937499999999999e+00	 1.046360900615385e+01
0	 4.500000000000000e+00	 2.999999999999998e+00	 1.046015281230770e+01
0	 4.500000000000000e+00	 3.062499999999999e+00	 1.045707912307691e+01
0	 4.500000000000000e+00	 3.125000000000000e+00	 1.045438793846154e+01
0	 4.562499999999998e+00	 2.500000000000000e+00	 1.048680433846154e+01
0	 4.562499999999999e+00	 2.562500000000000e+00	 1.048092892307692e+01
0	 4.562499999999999e+00	 2.625000000000000e+00	 1.047543397230769e+01
0	 4.562499999999999e+00	 2.687499999999999e+00	 1.047031948615384e+01
0	 4.562499999999999e+00	 2.749999999999999e+00	 1.046558546461538e+01
0	 4.562500000000000e+00	 2.812499999999999e+00	 1.046123190769231e+01
0	 4.562499999999999e+00	 2.874999999999999e+00	 1.045725881538461e+01
0	 4.562500000000000e+00	 2.937499999999999e+00	 1.045366618769231e+01
0	 4.562500000000000e+00	 2.999999999999999e+00	 1.045045402461539e+01
0	 4.562499999999999e+00	 3.062499999999998e+00	 1.044762232615385e+01
0	 4.562499999999998e+00	 3.125000000000000e+00	 1.044517109230769e+01
0	 4.625000000000000e+00	 2.500000000000000e+00	 1.047526504615385e+01
0	 4.625000000000000e+00	 2.562500000000000e+00	 1.046965489846154e+01
0	 4.624999999999999e+00	 2.625000000000000e+00	 1.046442317538462e+01
0	 4.625000000000000e+00	 2.687500000000000e+00	 1.045956987692308e+01
0	 4.625000000000000e+00	 2.750000000000000e+00	 1.045509500307692e+01
0	 4.624999999999999e+00	 2.812499999999999e+00	 1.045099855384615e+01
0	 4.624999999999999e+00	 2.874999999999999e+00	 1.044728052923077e+01
0	 4.624999999999999e+00	 2.937499999999998e+00	 1.044394092923076e+01
0	 4.625000000000000e+00	 2.999999999999999e+00	 1.044097975384615e+01
0	 4.624999999999999e+00	 3.062499999999998e+00	 1.043839700307692e+01
0	 4.625000000000000e+00	 3.125000000000000e+00	 1.043619267692307e+01
0	 4.687499999999998e+00	 2.500000000000000e+00	 1.046389461538462e+01
0	 4.687499999999998e+00	 2.562499999999999e+00	 1.045855669230769e+01
0	 4.687499999999997e+00	 2.625000000000000e+00	 1.045359515384616e+01
0	 4.687500000000000e+00	 2.687500000000000e+00	 1.044901000000001e+01
0	 4.687499999999998e+00	 2.749999999999999e+00	 1.044480123076923e+01
0	 4.687499999999999e+00	 2.812499999999999e+00	 1.044096884615385e+01
0	 4.687500000000000e+00	 2.874999999999999e+00	 1.043751284615385e+01
0	 4.687499999999999e+00	 2.937499999999998e+00	 1.043443323076924e+01
0	 4.687499999999999e+00	 2.999999999999998e+00	 1.043172999999999e+01
0	 4.687500000000000e+00	 3.062499999999998e+00	 1.042940315384615e+01
0	 4.687499999999998e+00	 3.125000000000000e+00	 1.042745269230769e+01
0	 4.749999999999999e+00	 2.500000000000000e+00	 1.045269304615386e+01
0	 4.749999999999998e+00	 2.562500000000000e+00	 1.044763430461538e+01
0	 4.749999999999998e+00	 2.625000000000000e+00	 1.044294990769231e+01
0	 4.749999999999998e+00	 2.687500000000000e+00	 1.043863985538461e+01
0	 4.750000000000000e+00	 2.750000000000000e+00	 1.043470414769231e+01
0	 4.750000000000000e+00	 2.812500000000000e+00	 1.043114278461539e+01
0	 4.749999999999999e+00	 2.874999999999999e+00	 1.042795576615385e+01
0	 4.749999999999999e+00	 2.937499999999999e+00	 1.042514309230770e+01
0	 4.749999999999998e+00	 2.999999999999999e+00	 1.042270476307692e+01
0	 4.749999999999999e+00	 3.062499999999998e+00	 1.042064077846154e+01
0	 4.749999999999999e+00	 3.125000000000000e+00	 1.041895113846153e+01
0	 4.812499999999998e+00	 2.500000000000000e+00	 1.044166033846154e+01
0	 4.812499999999999e+00	 2.562500000000000e+00	 1.043688773538461e+01
0	 4.812499999999999e+00	 2.625000000000000e+00	 1.043248743692308e+01
0	 4.812499999999998e+00	 2.687500000000000e+00	 1.042845944307693e+01
0	 4.812499999999999e+00	 2.749999999999999e+00	 1.042480375384615e+01
0	 4.812499999999999e+00	 2.812499999999999e+00	 1.042152036923077e+01
0	 4.812499999999999e+00	 2.874999999999999e+00	 1.041860928923077e+01
0	 4.812499999999998e+00	 2.937499999999998e+00	 1.041607051384615e+01
0	 4.812499999999998e+00	 2.999999999999998e+00	 1.041390404307692e+01
0	 4.812499999999999e+00	 3.062499999999998e+00	 1.041210987692308e+01
0	 4.812499999999998e+00	 3.125000000000000e+00	 1.041068801538461e+01
0	 4.874999999999999e+00	 2.500000000000000e+00	 1.043079649230769e+01
0	 4.874999999999999e+00	 2.562500000000001e+00	 1.042631698461538e+01
0	 4.874999999999998e+00	 2.625000000000000e+00	 1.042220774153846e+01
0	 4.874999999999999e+00	 2.687500000000000e+00	 1.041846876307692e+01
0	 4.874999999999998e+00	 2.749999999999999e+00	 1.041510004923077e+01
0	 4.874999999999998e+00	 2.812499999999999e+00	 1.041210160000000e+01
0	 4.874999999999998e+00	 2.874999999999999e+00	 1.040947341538461e+01
0	 4.874999999999998e+00	 2.937499999999998e+00	 1.040721549538461e+01
0	 4.874999999999999e+00	 2.999999999999998e+00	 1.040532784000000e+01
0	 4.874999999999999e+00	 3.062499999999998e+00	 1.040381044923076e+01
0	 4.874999999999999e+00	 3.125000000000000e+00	 1.040266332307692e+01
0	 4.937499999999998e+00	 2.500000000000000e+00	 1.042010150769231e+01
0	 4.937499999999998e+00	 2.562500000000000e+00	 1.041592205230770e+01
0	 4.937499999999998e+00	 2.625000000000000e+00	 1.041211082153846e+01
0	 4.937499999999997e+00	 2.687500000000000e+00	 1.040866781538462e+01
0	 4.937499999999998e+00	 2.749999999999999e+00	 1.040559303384616e+01
0	 4.937499999999998e+00	 2.812499999999999e+00	 1.040288647692307e+01
0	 4.937499999999998e+00	 2.874999999999999e+00	 1.040054814461539e+01
0	 4.937499999999998e+00	 2.937499999999998e+00	 1.039857803692307e+01
0	 4.937499999999998e+00	 2.999999999999998e+00	 1.039697615384615e+01
0	 4.937499999999998e+00	 3.062499999999998e+00	 1.039574249538461e+01
0	 4.937499999999998e+00	 3.125000000000000e+00	 1.039487706153847e+01
0	 5.000000000000000e+00	 2.500000000000000e+00	 1.040957538461539e+01
0	 4.999999999999999e+00	 2.562500000000000e+00	 1.040570293846155e+01
0	 5.000000000000001e+00	 2.625000000000000e+00	 1.040219667692308e+01
0	 4.999999999999999e+00	 2.687499999999999e+00	 1.039905660000000e+01
0	 5.000000000000000e+00	 2.750000000000000e+00	 1.039628270769231e+01
0	 4.999999999999999e+00	 2.812499999999999e+00	 1.039387500000000e+01
0	 5.000000000000000e+00	 2.874999999999999e+00	 1.039183347692307e+01
0	 4.999999999999999e+00	 2.937499999999998e+00	 1.039015813846154e+01
0	 5.000000000000000e+00	 2.999999999999998e+00	 1.038884898461538e+01
0	 5.000000000000000e+00	 3.062499999999998e+00	 1.038790601538462e+01
0	 5.000000000000000e+00	 3.125000000000000e+00	 1.038732923076923e+01
0	 4.375000000000000e+00	 3.125000000000000e+00	 1.047353692307692e+01
0	 4.375000000000000e+00	 3.187500000000000e+00	 1.046351027692305e+01
0	 4.375000000000001e+00	 3.250000000000000e+00	 1.045385895384614e+01
0	 4.375000000000000e+00	 3.312499999999999e+00	 1.044458295384615e+01
0	 4.375000000000000e+00	 3.374999999999999e+00	 1.043568227692307e+01
0	 4.375000000000000e+00	 3.437499999999999e+00	 1.042715692307692e+01
0	 4.375000000000000e+00	 3.499999999999999e+00	 1.041900689230770e+01
0	 4.375000000000000e+00	 3.562499999999998e+00	 1.041123218461539e+01
0	 4.375000000000000e+00	 3.624999999999999e+00	 1.040383280000000e+01
0	 4.375000000000000e+00	 3.687499999999998e+00	 1.039680873846153e+01
0	 4.375000000000000e+00	 3.750000000000000e+00	 1.039016000000001e+01
0	 4.437499999999999e+00	 3.125000000000000e+00	 1.046384321538461e+01
0	 4.437500000000000e+00	 3.187500000000000e+00	 1.045451863692307e+01
0	 4.437499999999999e+00	 3.250000000000000e+00	 1.044555509230769e+01
0	 4.437499999999999e+00	 3.312499999999999e+00	 1.043695258153846e+01
0	 4.437500000000000e+00	 3.374999999999999e+00	 1.042871110461538e+01
0	 4.437500000000000e+00	 3.437499999999999e+00	 1.042083066153846e+01
0	 4.437500000000000e+00	 3.500000000000000e+00	 1.041331125230769e+01
0	 4.437500000000000e+00	 3.562499999999999e+00	 1.040615287692309e+01
0	 4.437500000000002e+00	 3.625000000000000e+00	 1.039935553538462e+01
0	 4.437499999999998e+00	 3.687499999999997e+00	 1.039291922769231e+01
0	 4.437499999999999e+00	 3.750000000000000e+00	 1.038684395384616e+01
0	 4.500000000000000e+00	 3.125000000000000e+00	 1.045438793846154e+01
0	 4.499999999999999e+00	 3.187500000000000e+00	 1.044571425230769e+01
0	 4.500000000000001e+00	 3.250000000000000e+00	 1.043738731076923e+01
0	 4.499999999999999e+00	 3.312500000000000e+00	 1.042940711384616e+01
0	 4.499999999999998e+00	 3.374999999999999e+00	 1.042177366153846e+01
0	 4.500000000000000e+00	 3.437499999999999e+00	 1.041448695384616e+01
0	 4.499999999999999e+00	 3.499999999999997e+00	 1.040754699076923e+01
0	 4.500000000000001e+00	 3.562499999999999e+00	 1.040095377230769e+01
0	 4.500000000000000e+00	 3.624999999999998e+00	 1.039470729846154e+01
0	 4.500000000000000e+00	 3.687499999999999e+00	 1.038880756923078e+01
0	 4.500000000000000e+00	 3.750000000000000e+00	 1.038325458461539e+01
0	 4.562499999999998e+00	 3.125000000000000e+00	 1.044517109230769e+01
0	 4.562499999999999e+00	 3.187500000000000e+00	 1.043709712307692e+01
0	 4.562499999999999e+00	 3.250000000000000e+00	 1.042935560923077e+01
0	 4.562499999999999e+00	 3.312500000000000e+00	 1.042194655076923e+01
0	 4.562499999999999e+00	 3.374999999999999e+00	 1.041486994769231e+01
0	 4.562500000000000e+00	 3.437499999999999e+00	 1.040812580000000e+01
0	 4.562499999999999e+00	 3.499999999999998e+00	 1.040171410769232e+01
0	 4.562500000000000e+00	 3.562499999999998e+00	 1.039563487076924e+01
0	 4.562500000000000e+00	 3.624999999999998e+00	 1.038988808923078e+01
0	 4.562499999999999e+00	 3.687499999999998e+00	 1.038447376307693e+01
0	 4.562499999999998e+00	 3.750000000000000e+00	 1.037939189230769e+01
0	 4.625000000000000e+00	 3.125000000000000e+00	 1.043619267692307e+01
0	 4.625000000000000e+00	 3.187500000000000e+00	 1.042866724923077e+01
0	 4.624999999999999e+00	 3.250000000000000e+00	 1.042145998769231e+01
0	 4.625000000000000e+00	 3.312500000000000e+00	 1.041457089230769e+01
0	 4.625000000000000e+00	 3.374999999999999e+00	 1.040799996307692e+01
0	 4.624999999999999e+00	 3.437499999999999e+00	 1.040174720000000e+01
0	 4.624999999999999e+00	 3.499999999999998e+00	 1.039581260307693e+01
0	 4.624999999999999e+00	 3.562499999999998e+00	 1.039019617230769e+01
0	 4.625000000000000e+00	 3.624999999999999e+00	 1.038489790769231e+01
0	 4.624999999999999e+00	 3.687499999999998e+00	 1.037991780923077e+01
0	 4.625000000000000e+00	 3.750000000000000e+00	 1.037525587692308e+01
0	 4.687499999999998e+00	 3.125000000000000e+00	 1.042745269230769e+01
0	 4.687499999999998e+00	 3.187500000000000e+00	 1.042042463076922e+01
0	 4.687499999999997e+00	 3.250000000000000e+00	 1.041370044615385e+01
0	 4.687500000000000e+00	 3.312500000000000e+00	 1.040728013846154e+01
0	 4.687499999999998e+00	 3.374999999999998e+00	 1.040116370769231e+01
0	 4.687499999999999e+00	 3.437499999999999e+00	 1.039535115384616e+01
0	 4.687500000000000e+00	 3.499999999999999e+00	 1.038984247692308e+01
0	 4.687499999999999e+00	 3.562499999999999e+00	 1.038463767692308e+01
0	 4.687499999999999e+00	 3.624999999999998e+00	 1.037973675384616e+01
0	 4.687500000000000e+00	 3.687499999999999e+00	 1.037513970769231e+01
0	 4.687499999999998e+00	 3.750000000000000e+00	 1.037084653846154e+01
0	 4.749999999999999e+00	 3.125000000000000e+00	 1.041895113846153e+01
0	 4.749999999999998e+00	 3.187500000000000e+00	 1.041236926769230e+01
0	 4.749999999999998e+00	 3.249999999999999e+00	 1.040607698461538e+01
0	 4.749999999999998e+00	 3.312499999999999e+00	 1.040007428923077e+01
0	 4.750000000000000e+00	 3.375000000000000e+00	 1.039436118153846e+01
0	 4.750000000000000e+00	 3.437500000000000e+00	 1.038893766153847e+01
0	 4.749999999999999e+00	 3.499999999999999e+00	 1.038380372923077e+01
0	 4.749999999999999e+00	 3.562499999999999e+00	 1.037895938461538e+01
0	 4.749999999999998e+00	 3.624999999999999e+00	 1.037440462769231e+01
0	 4.749999999999999e+00	 3.687499999999998e+00	 1.037013945846154e+01
0	 4.749999999999999e+00	 3.750000000000000e+00	 1.036616387692308e+01
0	 4.812499999999998e+00	 3.125000000000000e+00	 1.041068801538461e+01
0	 4.812499999999999e+00	 3.187500000000000e+00	 1.040450116000000e+01
0	 4.812499999999999e+00	 3.250000000000000e+00	 1.039858960307692e+01
0	 4.812499999999998e+00	 3.312500000000000e+00	 1.039295334461539e+01
0	 4.812499999999999e+00	 3.374999999999999e+00	 1.038759238461538e+01
0	 4.812499999999999e+00	 3.437499999999999e+00	 1.038250672307692e+01
0	 4.812499999999999e+00	 3.499999999999999e+00	 1.037769636000000e+01
0	 4.812499999999998e+00	 3.562499999999999e+00	 1.037316129538461e+01
0	 4.812499999999998e+00	 3.624999999999998e+00	 1.036890152923077e+01
0	 4.812499999999999e+00	 3.687499999999999e+00	 1.036491706153847e+01
0	 4.812499999999998e+00	 3.750000000000000e+00	 1.036120789230769e+01
0	 4.874999999999999e+00	 3.125000000000000e+00	 1.040266332307692e+01
0	 4.874999999999999e+00	 3.187500000000001e+00	 1.039682030769231e+01
0	 4.874999999999998e+00	 3.250000000000000e+00	 1.039123830153846e+01
0	 4.874999999999999e+00	 3.312500000000000e+00	 1.038591730461537e+01
0	 4.874999999999998e+00	 3.374999999999999e+00	 1.038085731692308e+01
0	 4.874999999999998e+00	 3.437499999999999e+00	 1.037605833846154e+01
0	 4.874999999999998e+00	 3.499999999999998e+00	 1.037152036923076e+01
0	 4.874999999999998e+00	 3.562499999999998e+00	 1.036724340923077e+01
0	 4.874999999999999e+00	 3.624999999999998e+00	 1.036322745846154e+01
0	 4.874999999999999e+00	 3.687499999999998e+00	 1.035947251692308e+01
0	 4.874999999999999e+00	 3.750000000000000e+00	 1.035597858461539e+01
0	 4.937499999999998e+00	 3.125000000000000e+00	 1.039487706153847e+01
0	 4.937499999999998e+00	 3.187500000000000e+00	 1.038932671076923e+01
0	 4.937499999999998e+00	 3.250000000000000e+00	 1.038402308000000e+01
0	 4.937499999999997e+00	 3.312500000000000e+00	 1.037896616923077e+01
0	 4.937499999999998e+00	 3.374999999999999e+00	 1.037415597846154e+01
0	 4.937499999999998e+00	 3.437500000000000e+00	 1.036959250769230e+01
0	 4.937499999999998e+00	 3.499999999999998e+00	 1.036527575692308e+01
0	 4.937499999999998e+00	 3.562499999999998e+00	 1.036120572615385e+01
0	 4.937499999999998e+00	 3.624999999999998e+00	 1.035738241538462e+01
0	 4.937499999999998e+00	 3.687499999999997e+00	 1.035380582461539e+01
0	 4.937499999999998e+00	 3.750000000000000e+00	 1.035047595384615e+01
0	 5.000000000000000e+00	 3.125000000000000e+00	 1.038732923076923e+01
0	 4.999999999999999e+00	 3.187500000000000e+00	 1.038202036923076e+01
0	 5.000000000000001e+00	 3.250000000000000e+00	 1.037694393846153e+01
0	 4.999999999999999e+00	 3.312499999999999e+00	 1.037209993846154e+01
0	 5.000000000000000e+00	 3.374999999999999e+00	 1.036748836923076e+01
0	 4.999999999999999e+00	 3.437499999999999e+00	 1.036310923076923e+01
0	 5.000000000000000e+00	 3.499999999999999e+00	 1.035896252307692e+01
0	 4.999999999999999e+00	 3.562499999999998e+00	 1.035504824615384e+01
0	 5.000000000000000e+00	 3.624999999999999e+00	 1.035136640000000e+01
0	 5.000000000000000e+00	 3.687499999999998e+00	 1.034791698461537e+01
0	 5.000000000000000e+00	 3.750000000000000e+00	 1.034470000000000e+01
0	 4.375000000000000e+00	 3.750000000000000e+00	 1.039016000000001e+01
0	 4.375000000000000e+00	 3.812500000000000e+00	 1.038132075384616e+01
0	 4.375000000000001e+00	 3.875000000000000e+00	 1.037260363076924e+01
0	 4.375000000000000e+00	 3.937499999999999e+00	 1.036400863076922e+01
0	 4.375000000000000e+00	 4.000000000000000e+00	 1.035553575384616e+01
0	 4.375000000000000e+00	 4.062499999999999e+00	 1.034718500000000e+01
0	 4.375000000000000e+00	 4.124999999999999e+00	 1.033895636923076e+01
0	 4.375000000000000e+00	 4.187499999999998e+00	 1.033084986153846e+01
0	 4.375000000000000e+00	 4.249999999999998e+00	 1.032286547692307e+01
0	 4.375000000000000e+00	 4.312499999999998e+00	 1.031500321538462e+01
0	 4.375000000000000e+00	 4.375000000000000e+00	 1.030726307692307e+01
0	 4.437499999999999e+00	 3.750000000000000e+00	 1.038684395384616e+01
0	 4.437500000000000e+00	 3.812500000000000e+00	 1.037823916461539e+01
0	 4.437499999999999e+00	 3.875000000000000e+00	 1.036976307076924e+01
0	 4.437499999999999e+00	 3.937500000000000e+00	 1.036141567230770e+01
0	 4.437500000000000e+00	 3.999999999999999e+00	 1.035319696923078e+01
0	 4.437500000000000e+00	 4.062499999999999e+00	 1.034510696153846e+01
0	 4.437500000000000e+00	 4.125000000000000e+00	 1.033714564923078e+01
0	 4.437500000000000e+00	 4.187500000000000e+00	 1.032931303230769e+01
0	 4.437500000000002e+00	 4.250000000000000e+00	 1.032160911076923e+01
0	 4.437499999999998e+00	 4.312499999999997e+00	 1.031403388461539e+01
0	 4.437499999999999e+00	 4.375000000000000e+00	 1.030658735384616e+01
0	 4.500000000000000e+00	 3.750000000000000e+00	 1.038325458461539e+01
0	 4.499999999999999e+00	 3.812500000000000e+00	 1.037488259384617e+01
0	 4.500000000000001e+00	 3.875000000000000e+00	 1.036664587076924e+01
0	 4.499999999999999e+00	 3.937500000000000e+00	 1.035854441538462e+01
0	 4.499999999999998e+00	 3.999999999999999e+00	 1.035057822769231e+01
0	 4.500000000000000e+00	 4.062499999999999e+00	 1.034274730769230e+01
0	 4.499999999999999e+00	 4.124999999999997e+00	 1.033505165538463e+01
0	 4.500000000000001e+00	 4.187499999999998e+00	 1.032749127076923e+01
0	 4.500000000000000e+00	 4.249999999999998e+00	 1.032006615384616e+01
0	 4.500000000000000e+00	 4.312499999999998e+00	 1.031277630461539e+01
0	 4.500000000000000e+00	 4.375000000000000e+00	 1.030562172307690e+01
0	 4.562499999999998e+00	 3.750000000000000e+00	 1.037939189230769e+01
0	 4.562499999999999e+00	 3.812500000000000e+00	 1.037125104153847e+01
0	 4.562499999999999e+00	 3.875000000000000e+00	 1.036325203076923e+01
0	 4.562499999999999e+00	 3.937500000000000e+00	 1.035539486000001e+01
0	 4.562499999999999e+00	 3.999999999999999e+00	 1.034767952923077e+01
0	 4.562500000000000e+00	 4.062500000000000e+00	 1.034010603846154e+01
0	 4.562499999999999e+00	 4.124999999999998e+00	 1.033267438769231e+01
0	 4.562500000000000e+00	 4.187499999999999e+00	 1.032538457692308e+01
0	 4.562500000000000e+00	 4.249999999999998e+00	 1.031823660615383e+01
0	 4.562499999999999e+00	 4.312499999999997e+00	 1.031123047538462e+01
0	 4.562499999999998e+00	 4.375000000000000e+00	 1.030436618461539e+01
0	 4.625000000000000e+00	 3.750000000000000e+00	 1.037525587692308e+01
0	 4.625000000000000e+00	 3.812500000000000e+00	 1.036734450769231e+01
0	 4.624999999999999e+00	 3.875000000000000e+00	 1.035958155076924e+01
0	 4.625000000000000e+00	 3.937500000000000e+00	 1.035196700615385e+01
0	 4.625000000000000e+00	 3.999999999999999e+00	 1.034450087384616e+01
0	 4.624999999999999e+00	 4.062499999999999e+00	 1.033718315384615e+01
0	 4.624999999999999e+00	 4.124999999999998e+00	 1.033001384615385e+01
0	 4.624999999999999e+00	 4.187499999999999e+00	 1.032299295076923e+01
0	 4.625000000000000e+00	 4.249999999999998e+00	 1.031612046769231e+01
0	 4.624999999999999e+00	 4.312499999999998e+00	 1.030939639692308e+01
0	 4.625000000000000e+00	 4.375000000000000e+00	 1.030282073846154e+01
0	 4.687499999999998e+00	 3.750000000000000e+00	 1.037084653846154e+01
0	 4.687499999999998e+00	 3.812500000000000e+00	 1.036316299230769e+01
0	 4.687499999999997e+00	 3.875000000000000e+00	 1.035563443076923e+01
0	 4.687500000000000e+00	 3.937499999999999e+00	 1.034826085384616e+01
0	 4.687499999999998e+00	 3.999999999999998e+00	 1.034104226153846e+01
0	 4.687499999999999e+00	 4.062499999999999e+00	 1.033397865384615e+01
0	 4.687500000000000e+00	 4.125000000000000e+00	 1.032707003076923e+01
0	 4.687499999999999e+00	 4.187499999999998e+00	 1.032031639230769e+01
0	 4.687499999999999e+00	 4.249999999999998e+00	 1.031371773846153e+01
0	 4.687500000000000e+00	 4.312499999999998e+00	 1.030727406923076e+01
0	 4.687499999999998e+00	 4.375000000000000e+00	 1.030098538461538e+01
0	 4.749999999999999e+00	 3.750000000000000e+00	 1.036616387692308e+01
0	 4.749999999999998e+00	 3.812500000000000e+00	 1.035870649538462e+01
0	 4.749999999999998e+00	 3.874999999999999e+00	 1.035141067076923e+01
0	 4.749999999999998e+00	 3.937500000000000e+00	 1.034427640307693e+01
0	 4.750000000000000e+00	 4.000000000000000e+00	 1.033730369230769e+01
0	 4.750000000000000e+00	 4.062500000000000e+00	 1.033049253846155e+01
0	 4.749999999999999e+00	 4.124999999999999e+00	 1.032384294153847e+01
0	 4.749999999999999e+00	 4.187499999999998e+00	 1.031735490153845e+01
0	 4.749999999999998e+00	 4.249999999999999e+00	 1.031102841846153e+01
0	 4.749999999999999e+00	 4.312499999999997e+00	 1.030486349230769e+01
0	 4.749999999999999e+00	 4.375000000000000e+00	 1.029886012307691e+01
0	 4.812499999999998e+00	 3.750000000000000e+00	 1.036120789230769e+01
0	 4.812499999999999e+00	 3.812500000000000e+00	 1.035397501692307e+01
0	 4.812499999999999e+00	 3.875000000000000e+00	 1.034691027076923e+01
0	 4.812499999999998e+00	 3.937499999999999e+00	 1.034001365384616e+01
0	 4.812499999999999e+00	 3.999999999999999e+00	 1.033328516615385e+01
0	 4.812499999999999e+00	 4.062500000000000e+00	 1.032672480769232e+01
0	 4.812499999999999e+00	 4.124999999999999e+00	 1.032033257846154e+01
0	 4.812499999999998e+00	 4.187499999999999e+00	 1.031410847846153e+01
0	 4.812499999999998e+00	 4.249999999999998e+00	 1.030805250769231e+01
0	 4.812499999999999e+00	 4.312499999999998e+00	 1.030216466615386e+01
0	 4.812499999999998e+00	 4.375000000000000e+00	 1.029644495384615e+01
0	 4.874999999999999e+00	 3.750000000000000e+00	 1.035597858461539e+01
0	 4.874999999999999e+00	 3.812500000000000e+00	 1.034896855692309e+01
0	 4.874999999999998e+00	 3.875000000000000e+00	 1.034213323076923e+01
0	 4.874999999999999e+00	 3.937500000000000e+00	 1.033547260615385e+01
0	 4.874999999999998e+00	 3.999999999999999e+00	 1.032898668307692e+01
0	 4.874999999999998e+00	 4.062499999999998e+00	 1.032267546153846e+01
0	 4.874999999999998e+00	 4.124999999999999e+00	 1.031653894153847e+01
0	 4.874999999999998e+00	 4.187499999999998e+00	 1.031057712307692e+01
0	 4.874999999999999e+00	 4.249999999999998e+00	 1.030479000615385e+01
0	 4.874999999999999e+00	 4.312499999999998e+00	 1.029917759076923e+01
0	 4.874999999999999e+00	 4.375000000000000e+00	 1.029373987692308e+01
0	 4.937499999999998e+00	 3.750000000000000e+00	 1.035047595384615e+01
0	 4.937499999999998e+00	 3.812500000000000e+00	 1.034368711538462e+01
0	 4.937499999999998e+00	 3.875000000000000e+00	 1.033707955076923e+01
0	 4.937499999999997e+00	 3.937499999999999e+00	 1.033065326000000e+01
0	 4.937499999999998e+00	 3.999999999999999e+00	 1.032440824307692e+01
0	 4.937499999999998e+00	 4.062499999999998e+00	 1.031834450000000e+01
0	 4.937499999999998e+00	 4.124999999999998e+00	 1.031246203076923e+01
0	 4.937499999999998e+00	 4.187499999999998e+00	 1.030676083538462e+01
0	 4.937499999999998e+00	 4.249999999999998e+00	 1.030124091384615e+01
0	 4.937499999999998e+00	 4.312499999999998e+00	 1.029590226615385e+01
0	 4.937499999999998e+00	 4.375000000000000e+00	 1.029074489230769e+01
0	 5.000000000000000e+00	 3.750000000000000e+00	 1.034470000000000e+01
0	 4.999999999999999e+00	 3.812500000000000e+00	 1.033813069230770e+01
0	 5.000000000000001e+00	 3.875000000000000e+00	 1.033174923076923e+01
0	 4.999999999999999e+00	 3.937499999999999e+00	 1.032555561538461e+01
0	 5.000000000000000e+00	 4.000000000000000e+00	 1.031954984615384e+01
0	 4.999999999999999e+00	 4.062499999999999e+00	 1.031373192307693e+01
0	 5.000000000000000e+00	 4.124999999999999e+00	 1.030810184615384e+01
0	 4.999999999999999e+00	 4.187499999999998e+00	 1.030265961538461e+01
0	 5.000000000000000e+00	 4.249999999999998e+00	 1.029740523076923e+01
0	 5.000000000000000e+00	 4.312499999999998e+00	 1.029233869230769e+01
0	 5.000000000000000e+00	 4.375000000000000e+00	 1.028746000000000e+01
0	 4.375000000000000e+00	 4.375000000000000e+00	 1.030726307692307e+01
0	 4.375000000000000e+00	 4.437499999999999e+00	 1.029925326153844e+01
0	 4.375000000000001e+00	 4.500000000000001e+00	 1.029131212307693e+01
0	 4.375000000000000e+00	 4.562499999999999e+00	 1.028343966153846e+01
0	 4.375000000000000e+00	 4.625000000000000e+00	 1.027563587692307e+01
0	 4.375000000000000e+00	 4.687499999999999e+00	 1.026790076923076e+01
0	 4.375000000000000e+00	 4.749999999999999e+00	 1.026023433846154e+01
0	 4.375000000000000e+00	 4.812499999999998e+00	 1.025263658461538e+01
0	 4.375000000000000e+00	 4.874999999999998e+00	 1.024510750769231e+01
0	 4.375000000000000e+00	 4.937499999999998e+00	 1.023764710769230e+01
0	 4.375000000000000e+00	 5.000000000000000e+00	 1.023025538461538e+01
0	 4.437499999999999e+00	 4.375000000000000e+00	 1.030658735384616e+01
0	 4.437500000000000e+00	 4.437500000000000e+00	 1.029881640769230e+01
0	 4.437499999999999e+00	 4.499999999999999e+00	 1.029111491384615e+01
0	 4.437499999999999e+00	 4.562499999999999e+00	 1.028348287230769e+01
0	 4.437500000000000e+00	 4.625000000000000e+00	 1.027592028307692e+01
0	 4.437500000000000e+00	 4.687500000000001e+00	 1.026842714615385e+01
0	 4.437500000000000e+00	 4.749999999999999e+00	 1.026100346153846e+01
0	 4.437500000000000e+00	 4.812499999999999e+00	 1.025364922923077e+01
0	 4.437500000000002e+00	 4.875000000000000e+00	 1.024636444923077e+01
0	 4.437499999999998e+00	 4.937499999999997e+00	 1.023914912153846e+01
0	 4.437499999999999e+00	 4.999999999999999e+00	 1.023200324615384e+01
0	 4.500000000000000e+00	 4.375000000000000e+00	 1.030562172307690e+01
0	 4.499999999999999e+00	 4.437500000000000e+00	 1.029807928615386e+01
0	 4.500000000000001e+00	 4.500000000000001e+00	 1.029060707692307e+01
0	 4.499999999999999e+00	 4.562499999999999e+00	 1.028320509538461e+01
0	 4.499999999999998e+00	 4.624999999999998e+00	 1.027587334153846e+01
0	 4.500000000000000e+00	 4.687499999999997e+00	 1.026861181538462e+01
0	 4.499999999999999e+00	 4.749999999999998e+00	 1.026142051692307e+01
0	 4.500000000000001e+00	 4.812499999999999e+00	 1.025429944615385e+01
0	 4.500000000000000e+00	 4.874999999999998e+00	 1.024724860307693e+01
0	 4.500000000000000e+00	 4.937499999999998e+00	 1.024026798769232e+01
0	 4.500000000000000e+00	 5.000000000000000e+00	 1.023335760000001e+01
0	 4.562499999999998e+00	 4.375000000000000e+00	 1.030436618461539e+01
0	 4.562499999999999e+00	 4.437500000000000e+00	 1.029704189692307e+01
0	 4.562499999999999e+00	 4.500000000000000e+00	 1.028978861230769e+01
0	 4.562499999999999e+00	 4.562499999999999e+00	 1.028260633076923e+01
0	 4.562499999999999e+00	 4.625000000000000e+00	 1.027549505230770e+01
0	 4.562500000000000e+00	 4.687499999999999e+00	 1.026845477692308e+01
0	 4.562499999999999e+00	 4.749999999999998e+00	 1.026148550461539e+01
0	 4.562500000000000e+00	 4.812499999999998e+00	 1.025458723538461e+01
0	 4.562500000000000e+00	 4.874999999999998e+00	 1.024775996923079e+01
0	 4.562499999999999e+00	 4.937499999999997e+00	 1.024100370615386e+01
0	 4.562499999999998e+00	 4.999999999999999e+00	 1.023431844615383e+01
0	 4.625000000000000e+00	 4.375000000000000e+00	 1.030282073846154e+01
0	 4.625000000000000e+00	 4.437500000000000e+00	 1.029570423999999e+01
0	 4.624999999999999e+00	 4.500000000000000e+00	 1.028865951999999e+01
0	 4.625000000000000e+00	 4.562499999999999e+00	 1.028168657846154e+01
0	 4.625000000000000e+00	 4.624999999999999e+00	 1.027478541538462e+01
0	 4.624999999999999e+00	 4.687500000000000e+00	 1.026795603076923e+01
0	 4.624999999999999e+00	 4.749999999999998e+00	 1.026119842461539e+01
0	 4.624999999999999e+00	 4.812499999999999e+00	 1.025451259692308e+01
0	 4.625000000000000e+00	 4.874999999999998e+00	 1.024789854769231e+01
0	 4.624999999999999e+00	 4.937499999999997e+00	 1.024135627692306e+01
0	 4.625000000000000e+00	 5.000000000000000e+00	 1.023488578461539e+01
0	 4.687499999999998e+00	 4.375000000000000e+00	 1.030098538461538e+01
0	 4.687499999999998e+00	 4.437499999999999e+00	 1.029406631538460e+01
0	 4.687499999999997e+00	 4.499999999999999e+00	 1.028721980000001e+01
0	 4.687500000000000e+00	 4.562499999999999e+00	 1.028044583846154e+01
0	 4.687499999999998e+00	 4.624999999999998e+00	 1.027374443076924e+01
0	 4.687499999999999e+00	 4.687499999999999e+00	 1.026711557692308e+01
0	 4.687500000000000e+00	 4.750000000000000e+00	 1.026055927692308e+01
0	 4.687499999999999e+00	 4.812499999999998e+00	 1.025407553076923e+01
0	 4.687499999999999e+00	 4.874999999999998e+00	 1.024766433846154e+01
0	 4.687500000000000e+00	 4.937499999999999e+00	 1.024132570000001e+01
0	 4.687499999999998e+00	 5.000000000000000e+00	 1.023505961538462e+01
0	 4.749999999999999e+00	 4.375000000000000e+00	 1.029886012307691e+01
0	 4.749999999999998e+00	 4.437499999999999e+00	 1.029212812307692e+01
0	 4.749999999999998e+00	 4.499999999999998e+00	 1.028546945230769e+01
0	 4.749999999999998e+00	 4.562499999999999e+00	 1.027888411076923e+01
0	 4.750000000000000e+00	 4.625000000000001e+00	 1.027237209846154e+01
0	 4.750000000000000e+00	 4.687499999999999e+00	 1.026593341538461e+01
0	 4.749999999999999e+00	 4.749999999999998e+00	 1.025956806153846e+01
0	 4.749999999999999e+00	 4.812499999999999e+00	 1.025327603692308e+01
0	 4.749999999999998e+00	 4.874999999999998e+00	 1.024705734153847e+01
0	 4.749999999999999e+00	 4.937499999999999e+00	 1.024091197538461e+01
0	 4.749999999999999e+00	 5.000000000000001e+00	 1.023483993846156e+01
0	 4.812499999999998e+00	 4.375000000000000e+00	 1.029644495384615e+01
0	 4.812499999999999e+00	 4.437499999999999e+00	 1.028988966307693e+01
0	 4.812499999999999e+00	 4.500000000000000e+00	 1.028340847692306e+01
0	 4.812499999999998e+00	 4.562499999999999e+00	 1.027700139538462e+01
0	 4.812499999999999e+00	 4.625000000000000e+00	 1.027066841846154e+01
0	 4.812499999999999e+00	 4.687500000000000e+00	 1.026440954615384e+01
0	 4.812499999999999e+00	 4.749999999999999e+00	 1.025822477846154e+01
0	 4.812499999999998e+00	 4.812499999999999e+00	 1.025211411538461e+01
0	 4.812499999999998e+00	 4.874999999999998e+00	 1.024607755692307e+01
0	 4.812499999999999e+00	 4.937499999999999e+00	 1.024011510307693e+01
0	 4.812499999999998e+00	 4.999999999999999e+00	 1.023422675384615e+01
0	 4.874999999999999e+00	 4.375000000000000e+00	 1.029373987692308e+01
0	 4.874999999999999e+00	 4.437500000000001e+00	 1.028735093538462e+01
0	 4.874999999999998e+00	 4.499999999999999e+00	 1.028103687384615e+01
0	 4.874999999999999e+00	 4.562500000000000e+00	 1.027479769230769e+01
0	 4.874999999999998e+00	 4.624999999999999e+00	 1.026863339076922e+01
0	 4.874999999999998e+00	 4.687499999999998e+00	 1.026254396923076e+01
0	 4.874999999999998e+00	 4.749999999999999e+00	 1.025652942769231e+01
0	 4.874999999999998e+00	 4.812499999999998e+00	 1.025058976615385e+01
0	 4.874999999999999e+00	 4.874999999999999e+00	 1.024472498461536e+01
0	 4.874999999999999e+00	 4.937499999999998e+00	 1.023893508307692e+01
0	 4.874999999999999e+00	 5.000000000000000e+00	 1.023322006153846e+01
0	 4.937499999999998e+00	 4.375000000000000e+00	 1.029074489230769e+01
0	 4.937499999999998e+00	 4.437500000000000e+00	 1.028451193999999e+01
0	 4.937499999999998e+00	 4.500000000000000e+00	 1.027835464307692e+01
0	 4.937499999999997e+00	 4.562500000000000e+00	 1.027227300153847e+01
0	 4.937499999999998e+00	 4.624999999999999e+00	 1.026626701538461e+01
0	 4.937499999999998e+00	 4.687499999999999e+00	 1.026033668461538e+01
0	 4.937499999999998e+00	 4.749999999999999e+00	 1.025448200923077e+01
0	 4.937499999999998e+00	 4.812499999999998e+00	 1.024870298923077e+01
0	 4.937499999999998e+00	 4.874999999999999e+00	 1.024299962461538e+01
0	 4.937499999999998e+00	 4.937499999999998e+00	 1.023737191538462e+01
0	 4.937499999999998e+00	 5.000000000000000e+00	 1.023181986153847e+01
0	 5.000000000000000e+00	 4.375000000000000e+00	 1.028746000000000e+01
0	 4.999999999999999e+00	 4.437499999999999e+00	 1.028137267692306e+01
0	 5.000000000000001e+00	 4.500000000000001e+00	 1.027536178461538e+01
0	 4.999999999999999e+00	 4.562499999999999e+00	 1.026942732307693e+01
0	 5.000000000000000e+00	 4.625000000000000e+00	 1.026356929230769e+01
0	 4.999999999999999e+00	 4.687499999999999e+00	 1.025778769230768e+01
0	 5.000000000000000e+00	 4.749999999999999e+00	 1.025208252307692e+01
0	 4.999999999999999e+00	 4.812499999999998e+00	 1.024645378461538e+01
0	 5.000000000000000e+00	 4.874999999999998e+00	 1.024090147692307e+01
0	 5.000000000000000e+00	 4.937499999999998e+00	 1.023542559999999e+01
0	 5.000000000000000e+00	 5.000000000000000e+00	 1.023002615384615e+01
0	 4.375000000000000e+00	 5.000000000000000e+00	 1.023025538461538e+01
0	 4.375000000000000e+00	 5.062500000000000e+00	 1.022409347692309e+01
0	 4.375000000000001e+00	 5.125000000000001e+00	 1.021791236923077e+01
0	 4.375000000000000e+00	 5.187499999999999e+00	 1.021171206153845e+01
0	 4.375000000000000e+00	 5.249999999999999e+00	 1.020549255384615e+01
0	 4.375000000000000e+00	 5.312499999999999e+00	 1.019925384615384e+01
0	 4.375000000000000e+00	 5.374999999999998e+00	 1.019299593846154e+01
0	 4.375000000000000e+00	 5.437499999999998e+00	 1.018671883076922e+01
0	 4.375000000000000e+00	 5.499999999999998e+00	 1.018042252307693e+01
0	 4.375000000000000e+00	 5.562499999999998e+00	 1.017410701538462e+01
0	 4.375000000000000e+00	 5.625000000000000e+00	 1.016777230769231e+01
0	 4.437499999999999e+00	 4.999999999999999e+00	 1.023200324615384e+01
0	 4.437500000000000e+00	 5.062500000000000e+00	 1.022587468923077e+01
0	 4.437499999999999e+00	 5.125000000000000e+00	 1.021973253538461e+01
0	 4.437499999999999e+00	 5.187499999999999e+00	 1.021357678461539e+01
0	 4.437500000000000e+00	 5.249999999999998e+00	 1.020740743692308e+01
0	 4.437500000000000e+00	 5.312500000000000e+00	 1.020122449230770e+01
0	 4.437500000000000e+00	 5.374999999999999e+00	 1.019502795076923e+01
0	 4.437500000000000e+00	 5.437499999999999e+00	 1.018881781230770e+01
0	 4.437500000000002e+00	 5.499999999999999e+00	 1.018259407692308e+01
0	 4.437499999999998e+00	 5.562499999999996e+00	 1.017635674461539e+01
0	 4.437499999999999e+00	 5.625000000000000e+00	 1.017010581538461e+01
0	 4.500000000000000e+00	 5.000000000000000e+00	 1.023335760000001e+01
0	 4.499999999999999e+00	 5.062499999999999e+00	 1.022726909230769e+01
0	 4.500000000000001e+00	 5.125000000000001e+00	 1.022117259076923e+01
0	 4.499999999999999e+00	 5.187499999999998e+00	 1.021506809538462e+01
0	 4.499999999999998e+00	 5.249999999999999e+00	 1.020895560615385e+01
0	 4.500000000000000e+00	 5.312499999999999e+00	 1.020283512307692e+01
0	 4.499999999999999e+00	 5.374999999999999e+00	 1.019670664615385e+01
0	 4.500000000000001e+00	 5.437499999999999e+00	 1.019057017538463e+01
0	 4.500000000000000e+00	 5.499999999999998e+00	 1.018442571076923e+01
0	 4.500000000000000e+00	 5.562499999999999e+00	 1.017827325230770e+01
0	 4.500000000000000e+00	 5.625000000000000e+00	 1.017211280000000e+01
0	 4.562499999999998e+00	 4.999999999999999e+00	 1.023431844615383e+01
0	 4.562499999999999e+00	 5.062500000000001e+00	 1.022827668615385e+01
0	 4.562499999999999e+00	 5.125000000000000e+00	 1.022223253538461e+01
0	 4.562499999999999e+00	 5.187499999999999e+00	 1.021618599384615e+01
0	 4.562499999999999e+00	 5.250000000000000e+00	 1.021013706153846e+01
0	 4.562500000000000e+00	 5.312499999999999e+00	 1.020408573846153e+01
0	 4.562499999999999e+00	 5.374999999999998e+00	 1.019803202461538e+01
0	 4.562500000000000e+00	 5.437499999999999e+00	 1.019197591999999e+01
0	 4.562500000000000e+00	 5.499999999999998e+00	 1.018591742461539e+01
0	 4.562499999999999e+00	 5.562499999999997e+00	 1.017985653846154e+01
0	 4.562499999999998e+00	 5.625000000000000e+00	 1.017379326153846e+01
0	 4.625000000000000e+00	 5.000000000000000e+00	 1.023488578461539e+01
0	 4.625000000000000e+00	 5.062500000000000e+00	 1.022889747076922e+01
0	 4.624999999999999e+00	 5.125000000000000e+00	 1.022291236923076e+01
0	 4.625000000000000e+00	 5.187500000000000e+00	 1.021693047999999e+01
0	 4.625000000000000e+00	 5.249999999999999e+00	 1.021095180307692e+01
0	 4.624999999999999e+00	 5.312499999999999e+00	 1.020497633846154e+01
0	 4.624999999999999e+00	 5.374999999999998e+00	 1.019900408615385e+01
0	 4.624999999999999e+00	 5.437499999999999e+00	 1.019303504615385e+01
0	 4.625000000000000e+00	 5.499999999999999e+00	 1.018706921846153e+01
0	 4.624999999999999e+00	 5.562499999999998e+00	 1.018110660307692e+01
0	 4.625000000000000e+00	 5.625000000000000e+00	 1.017514719999998e+01
0	 4.687499999999998e+00	 5.000000000000000e+00	 1.023505961538462e+01
0	 4.687499999999998e+00	 5.062500000000000e+00	 1.022913144615385e+01
0	 4.687499999999997e+00	 5.124999999999999e+00	 1.022321209230770e+01
0	 4.687500000000000e+00	 5.187500000000000e+00	 1.021730155384616e+01
0	 4.687499999999998e+00	 5.249999999999998e+00	 1.021139983076923e+01
0	 4.687499999999999e+00	 5.312499999999999e+00	 1.020550692307692e+01
0	 4.687500000000000e+00	 5.375000000000000e+00	 1.019962283076923e+01
0	 4.687499999999999e+00	 5.437499999999998e+00	 1.019374755384616e+01
0	 4.687499999999999e+00	 5.499999999999998e+00	 1.018788109230769e+01
0	 4.687500000000000e+00	 5.562499999999999e+00	 1.018202344615383e+01
0	 4.687499999999998e+00	 5.625000000000000e+00	 1.017617461538460e+01
0	 4.749999999999999e+00	 5.000000000000001e+00	 1.023483993846156e+01
0	 4.749999999999998e+00	 5.062499999999999e+00	 1.022897861230768e+01
0	 4.749999999999998e+00	 5.125000000000000e+00	 1.022313170461538e+01
0	 4.749999999999998e+00	 5.187500000000000e+00	 1.021729921538461e+01
0	 4.750000000000000e+00	 5.250000000000001e+00	 1.021148114461538e+01
0	 4.750000000000000e+00	 5.312500000000001e+00	 1.020567749230770e+01
0	 4.749999999999999e+00	 5.374999999999999e+00	 1.019988825846154e+01
0	 4.749999999999999e+00	 5.437499999999999e+00	 1.019411344307693e+01
0	 4.749999999999998e+00	 5.499999999999998e+00	 1.018835304615384e+01
0	 4.749999999999999e+00	 5.562499999999998e+00	 1.018260706769230e+01
0	 4.749999999999999e+00	 5.625000000000000e+00	 1.017687550769231e+01
0	 4.812499999999998e+00	 4.999999999999999e+00	 1.023422675384615e+01
0	 4.812499999999999e+00	 5.062500000000000e+00	 1.022843896923077e+01
0	 4.812499999999999e+00	 5.125000000000000e+00	 1.022267120615384e+01
0	 4.812499999999998e+00	 5.187500000000000e+00	 1.021692346461538e+01
0	 4.812499999999999e+00	 5.250000000000000e+00	 1.021119574461538e+01
0	 4.812499999999999e+00	 5.312500000000000e+00	 1.020548804615385e+01
0	 4.812499999999999e+00	 5.374999999999999e+00	 1.019980036923077e+01
0	 4.812499999999998e+00	 5.437499999999998e+00	 1.019413271384614e+01
0	 4.812499999999998e+00	 5.499999999999998e+00	 1.018848507999999e+01
0	 4.812499999999999e+00	 5.562499999999999e+00	 1.018285746769231e+01
0	 4.812499999999998e+00	 5.625000000000000e+00	 1.017724987692307e+01
0	 4.874999999999999e+00	 5.000000000000000e+00	 1.023322006153846e+01
0	 4.874999999999999e+00	 5.062500000000002e+00	 1.022751251692309e+01
0	 4.874999999999998e+00	 5.124999999999999e+00	 1.022183059692308e+01
0	 4.874999999999999e+00	 5.187500000000000e+00	 1.021617430153847e+01
0	 4.874999999999998e+00	 5.249999999999998e+00	 1.021054363076923e+01
0	 4.874999999999998e+00	 5.312499999999999e+00	 1.020493858461539e+01
0	 4.874999999999998e+00	 5.374999999999998e+00	 1.019935916307693e+01
0	 4.874999999999998e+00	 5.437499999999998e+00	 1.019380536615384e+01
0	 4.874999999999999e+00	 5.499999999999999e+00	 1.018827719384616e+01
0	 4.874999999999999e+00	 5.562499999999998e+00	 1.018277464615383e+01
0	 4.874999999999999e+00	 5.625000000000000e+00	 1.017729772307692e+01
0	 4.937499999999998e+00	 5.000000000000000e+00	 1.023181986153847e+01
0	 4.937499999999998e+00	 5.062500000000000e+00	 1.022619925538461e+01
0	 4.937499999999998e+00	 5.125000000000001e+00	 1.022060987692308e+01
0	 4.937499999999997e+00	 5.187499999999999e+00	 1.021505172615385e+01
0	 4.937499999999998e+00	 5.249999999999999e+00	 1.020952480307692e+01
0	 4.937499999999998e+00	 5.312499999999998e+00	 1.020402910769231e+01
0	 4.937499999999998e+00	 5.374999999999997e+00	 1.019856464000000e+01
0	 4.937499999999998e+00	 5.437499999999998e+00	 1.019313140000000e+01
0	 4.937499999999998e+00	 5.499999999999999e+00	 1.018772938769230e+01
0	 4.937499999999998e+00	 5.562499999999998e+00	 1.018235860307692e+01
0	 4.937499999999998e+00	 5.625000000000000e+00	 1.017701904615384e+01
0	 5.000000000000000e+00	 5.000000000000000e+00	 1.023002615384615e+01
0	 4.999999999999999e+00	 5.062500000000000e+00	 1.022449918461539e+01
0	 5.000000000000001e+00	 5.125000000000001e+00	 1.021900904615385e+01
0	 4.999999999999999e+00	 5.187499999999999e+00	 1.021355573846152e+01
0	 5.000000000000000e+00	 5.249999999999999e+00	 1.020813926153845e+01
0	 4.999999999999999e+00	 5.312499999999999e+00	 1.020275961538461e+01
0	 5.000000000000000e+00	 5.374999999999998e+00	 1.019741679999999e+01
0	 4.999999999999999e+00	 5.437499999999998e+00	 1.019211081538461e+01
0	 5.000000000000000e+00	 5.499999999999998e+00	 1.018684166153846e+01
0	 5.000000000000000e+00	 5.562499999999998e+00	 1.018160933846153e+01
0	 5.000000000000000e+00	 5.625000000000000e+00	 1.017641384615384e+01
0	 4.375000000000000e+00	 5.625000000000000e+00	 1.016777230769231e+01
0	 4.375000000000000e+00	 5.687500000000000e+00	 1.016293279999999e+01
0	 4.375000000000001e+00	 5.750000000000000e+00	 1.015806596923076e+01
0	 4.375000000000000e+00	 5.812499999999999e+00	 1.015317181538462e+01
0	 4.375000000000000e+00	 5.874999999999999e+00	 1.014825033846154e+01
0	 4.375000000000000e+00	 5.937499999999999e+00	 1.014330153846154e+01
0	 4.375000000000000e+00	 5.999999999999998e+00	 1.013832541538461e+01
0	 4.375000000000000e+00	 6.062499999999998e+00	 1.013332196923078e+01
0	 4.375000000000000e+00	 6.124999999999998e+00	 1.012829120000001e+01
0	 4.375000000000000e+00	 6.187499999999998e+00	 1.012323310769230e+01
0	 4.375000000000000e+00	 6.250000000000000e+00	 1.011814769230769e+01
0	 4.437499999999999e+00	 5.625000000000000e+00	 1.017010581538461e+01
0	 4.437500000000000e+00	 5.687499999999999e+00	 1.016527359692309e+01
0	 4.437499999999999e+00	 5.749999999999999e+00	 1.016041615076923e+01
0	 4.437499999999999e+00	 5.812499999999998e+00	 1.015553347692308e+01
0	 4.437500000000000e+00	 5.875000000000000e+00	 1.015062557538462e+01
0	 4.437500000000000e+00	 5.937500000000001e+00	 1.014569244615384e+01
0	 4.437500000000000e+00	 5.999999999999999e+00	 1.014073408923077e+01
0	 4.437500000000000e+00	 6.062500000000000e+00	 1.013575050461538e+01
0	 4.437500000000002e+00	 6.125000000000000e+00	 1.013074169230768e+01
0	 4.437499999999998e+00	 6.187499999999996e+00	 1.012570765230768e+01
0	 4.437499999999999e+00	 6.250000000000000e+00	 1.012064838461538e+01
0	 4.500000000000000e+00	 5.625000000000000e+00	 1.017211280000000e+01
0	 4.499999999999999e+00	 5.687499999999999e+00	 1.016729241538462e+01
0	 4.500000000000001e+00	 5.750000000000002e+00	 1.016244889846153e+01
0	 4.499999999999999e+00	 5.812499999999999e+00	 1.015758224923078e+01
0	 4.499999999999998e+00	 5.874999999999998e+00	 1.015269246769231e+01
0	 4.500000000000000e+00	 5.937499999999999e+00	 1.014777955384615e+01
0	 4.499999999999999e+00	 5.999999999999998e+00	 1.014284350769231e+01
0	 4.500000000000001e+00	 6.062499999999999e+00	 1.013788432923076e+01
0	 4.500000000000000e+00	 6.124999999999998e+00	 1.013290201846153e+01
0	 4.500000000000000e+00	 6.187499999999998e+00	 1.012789657538461e+01
0	 4.500000000000000e+00	 6.250000000000000e+00	 1.012286800000001e+01
0	 4.562499999999998e+00	 5.625000000000000e+00	 1.017379326153846e+01
0	 4.562499999999999e+00	 5.687500000000000e+00	 1.016898925538461e+01
0	 4.562499999999999e+00	 5.749999999999999e+00	 1.016416421230768e+01
0	 4.562499999999999e+00	 5.812499999999999e+00	 1.015931813230769e+01
0	 4.562499999999999e+00	 5.875000000000000e+00	 1.015445101538461e+01
0	 4.562500000000000e+00	 5.937500000000000e+00	 1.014956286153846e+01
0	 4.562499999999999e+00	 5.999999999999998e+00	 1.014465367076922e+01
0	 4.562500000000000e+00	 6.062499999999998e+00	 1.013972344307692e+01
0	 4.562500000000000e+00	 6.124999999999997e+00	 1.013477217846154e+01
0	 4.562499999999999e+00	 6.187499999999997e+00	 1.012979987692309e+01
0	 4.562499999999998e+00	 6.250000000000000e+00	 1.012480653846153e+01
0	 4.625000000000000e+00	 5.625000000000000e+00	 1.017514719999998e+01
0	 4.625000000000000e+00	 5.687500000000000e+00	 1.017036411692307e+01
0	 4.624999999999999e+00	 5.750000000000000e+00	 1.016556209230770e+01
0	 4.625000000000000e+00	 5.812500000000000e+00	 1.016074112615385e+01
0	 4.625000000000000e+00	 5.874999999999999e+00	 1.015590121846153e+01
0	 4.624999999999999e+00	 5.937499999999999e+00	 1.015104236923076e+01
0	 4.624999999999999e+00	 5.999999999999997e+00	 1.014616457846155e+01
0	 4.624999999999999e+00	 6.062499999999998e+00	 1.014126784615384e+01
0	 4.625000000000000e+00	 6.124999999999999e+00	 1.013635217230769e+01
0	 4.624999999999999e+00	 6.187499999999998e+00	 1.013141755692308e+01
0	 4.625000000000000e+00	 6.250000000000000e+00	 1.012646400000001e+01
0	 4.687499999999998e+00	 5.625000000000000e+00	 1.017617461538460e+01
0	 4.687499999999998e+00	 5.687500000000000e+00	 1.017141700000002e+01
0	 4.687499999999997e+00	 5.750000000000000e+00	 1.016664253846154e+01
0	 4.687500000000000e+00	 5.812500000000000e+00	 1.016185123076924e+01
0	 4.687499999999998e+00	 5.874999999999998e+00	 1.015704307692308e+01
0	 4.687499999999999e+00	 5.937499999999998e+00	 1.015221807692308e+01
0	 4.687500000000000e+00	 6.000000000000000e+00	 1.014737623076923e+01
0	 4.687499999999999e+00	 6.062499999999998e+00	 1.014251753846154e+01
0	 4.687499999999999e+00	 6.124999999999998e+00	 1.013764199999999e+01
0	 4.687500000000000e+00	 6.187499999999999e+00	 1.013274961538463e+01
0	 4.687499999999998e+00	 6.250000000000000e+00	 1.012784038461540e+01
0	 4.749999999999999e+00	 5.625000000000000e+00	 1.017687550769231e+01
0	 4.749999999999998e+00	 5.687499999999999e+00	 1.017214790461537e+01
0	 4.749999999999998e+00	 5.750000000000000e+00	 1.016740555076922e+01
0	 4.749999999999998e+00	 5.812499999999999e+00	 1.016264844615383e+01
0	 4.750000000000000e+00	 5.875000000000001e+00	 1.015787659076923e+01
0	 4.750000000000000e+00	 5.937499999999999e+00	 1.015308998461538e+01
0	 4.749999999999999e+00	 5.999999999999998e+00	 1.014828862769231e+01
0	 4.749999999999999e+00	 6.062499999999999e+00	 1.014347252000000e+01
0	 4.749999999999998e+00	 6.124999999999998e+00	 1.013864166153846e+01
0	 4.749999999999999e+00	 6.187499999999998e+00	 1.013379605230769e+01
0	 4.749999999999999e+00	 6.250000000000000e+00	 1.012893569230769e+01
0	 4.812499999999998e+00	 5.625000000000000e+00	 1.017724987692307e+01
0	 4.812499999999999e+00	 5.687500000000000e+00	 1.017255683076922e+01
0	 4.812499999999999e+00	 5.750000000000000e+00	 1.016785112923076e+01
0	 4.812499999999998e+00	 5.812499999999999e+00	 1.016313277230769e+01
0	 4.812499999999999e+00	 5.874999999999999e+00	 1.015840176000000e+01
0	 4.812499999999999e+00	 5.937500000000001e+00	 1.015365809230771e+01
0	 4.812499999999999e+00	 5.999999999999999e+00	 1.014890176923077e+01
0	 4.812499999999998e+00	 6.062499999999999e+00	 1.014413279076924e+01
0	 4.812499999999998e+00	 6.124999999999999e+00	 1.013935115692308e+01
0	 4.812499999999999e+00	 6.187499999999999e+00	 1.013455686769231e+01
0	 4.812499999999998e+00	 6.250000000000000e+00	 1.012974992307693e+01
0	 4.874999999999999e+00	 5.625000000000000e+00	 1.017729772307692e+01
0	 4.874999999999999e+00	 5.687500000000000e+00	 1.017264377846154e+01
0	 4.874999999999998e+00	 5.750000000000000e+00	 1.016797927384615e+01
0	 4.874999999999999e+00	 5.812499999999999e+00	 1.016330420923076e+01
0	 4.874999999999998e+00	 5.875000000000000e+00	 1.015861858461539e+01
0	 4.874999999999998e+00	 5.937500000000000e+00	 1.015392239999999e+01
0	 4.874999999999998e+00	 5.999999999999998e+00	 1.014921565538461e+01
0	 4.874999999999998e+00	 6.062499999999998e+00	 1.014449835076923e+01
0	 4.874999999999999e+00	 6.124999999999999e+00	 1.013977048615385e+01
0	 4.874999999999999e+00	 6.187499999999998e+00	 1.013503206153847e+01
0	 4.874999999999999e+00	 6.250000000000000e+00	 1.013028307692309e+01
0	 4.937499999999998e+00	 5.625000000000000e+00	 1.017701904615384e+01
0	 4.937499999999998e+00	 5.687500000000000e+00	 1.017240874769231e+01
0	 4.937499999999998e+00	 5.750000000000000e+00	 1.016778998461538e+01
0	 4.937499999999997e+00	 5.812499999999999e+00	 1.016316275692307e+01
0	 4.937499999999998e+00	 5.875000000000000e+00	 1.015852706461538e+01
0	 4.937499999999998e+00	 5.937499999999999e+00	 1.015388290769230e+01
0	 4.937499999999998e+00	 5.999999999999998e+00	 1.014923028615385e+01
0	 4.937499999999998e+00	 6.062499999999998e+00	 1.014456920000001e+01
0	 4.937499999999998e+00	 6.124999999999998e+00	 1.013989964923077e+01
0	 4.937499999999998e+00	 6.187499999999997e+00	 1.013522163384615e+01
0	 4.937499999999998e+00	 6.250000000000000e+00	 1.013053515384616e+01
0	 5.000000000000000e+00	 5.625000000000000e+00	 1.017641384615384e+01
0	 4.999999999999999e+00	 5.687500000000000e+00	 1.017185173846153e+01
0	 5.000000000000001e+00	 5.750000000000000e+00	 1.016728326153845e+01
0	 4.999999999999999e+00	 5.812499999999999e+00	 1.016270841538462e+01
0	 5.000000000000000e+00	 5.874999999999999e+00	 1.015812719999999e+01
0	 4.999999999999999e+00	 5.937499999999999e+00	 1.015353961538461e+01
0	 5.000000000000000e+00	 5.999999999999998e+00	 1.014894566153847e+01
0	 4.999999999999999e+00	 6.062499999999998e+00	 1.014434533846154e+01
0	 5.000000000000000e+00	 6.124999999999998e+00	 1.013973864615385e+01
0	 5.000000000000000e+00	 6.187499999999998e+00	 1.013512558461538e+01
0	 5.000000000000000e+00	 6.250000000000000e+00	 1.013050615384615e+01
0	 4.375000000000000e+00	 6.250000000000000e+00	 1.011814769230769e+01
0	 4.375000000000000e+00	 6.312500000000000e+00	 1.011455487692308e+01
0	 4.375000000000001e+00	 6.375000000000000e+00	 1.011092043076923e+01
0	 4.375000000000000e+00	 6.437499999999999e+00	 1.010724435384614e+01
0	 4.375000000000000e+00	 6.499999999999999e+00	 1.010352664615384e+01
0	 4.375000000000000e+00	 6.562499999999998e+00	 1.009976730769231e+01
0	 4.375000000000000e+00	 6.624999999999998e+00	 1.009596633846152e+01
0	 4.375000000000000e+00	 6.687499999999998e+00	 1.009212373846153e+01
0	 4.375000000000000e+00	 6.749999999999998e+00	 1.008823950769231e+01
0	 4.375000000000000e+00	 6.812499999999998e+00	 1.008431364615384e+01
0	 4.375000000000000e+00	 6.875000000000000e+00	 1.008034615384615e+01
0	 4.437499999999999e+00	 6.250000000000000e+00	 1.012064838461538e+01
0	 4.437500000000000e+00	 6.312500000000000e+00	 1.011700728461539e+01
0	 4.437499999999999e+00	 6.374999999999999e+00	 1.011332673230768e+01
0	 4.437499999999999e+00	 6.437500000000000e+00	 1.010960672769231e+01
0	 4.437500000000000e+00	 6.499999999999997e+00	 1.010584727076923e+01
0	 4.437500000000000e+00	 6.562500000000000e+00	 1.010204836153846e+01
0	 4.437500000000000e+00	 6.624999999999999e+00	 1.009821000000000e+01
0	 4.437500000000000e+00	 6.687499999999999e+00	 1.009433218615385e+01
0	 4.437500000000002e+00	 6.749999999999999e+00	 1.009041492000000e+01
0	 4.437499999999998e+00	 6.812499999999996e+00	 1.008645820153844e+01
0	 4.437499999999999e+00	 6.875000000000001e+00	 1.008246203076923e+01
0	 4.500000000000000e+00	 6.250000000000000e+00	 1.012286800000001e+01
0	 4.499999999999999e+00	 6.312499999999999e+00	 1.011918596000000e+01
0	 4.500000000000001e+00	 6.375000000000000e+00	 1.011546664615385e+01
0	 4.499999999999999e+00	 6.437499999999998e+00	 1.011171005846153e+01
0	 4.499999999999998e+00	 6.499999999999996e+00	 1.010791619692307e+01
0	 4.500000000000000e+00	 6.562499999999998e+00	 1.010408506153846e+01
0	 4.499999999999999e+00	 6.624999999999996e+00	 1.010021665230769e+01
0	 4.500000000000001e+00	 6.687499999999999e+00	 1.009631096923077e+01
0	 4.500000000000000e+00	 6.749999999999997e+00	 1.009236801230768e+01
0	 4.500000000000000e+00	 6.812500000000000e+00	 1.008838778153844e+01
0	 4.500000000000000e+00	 6.875000000000000e+00	 1.008437027692308e+01
0	 4.562499999999998e+00	 6.250000000000000e+00	 1.012480653846153e+01
0	 4.562499999999999e+00	 6.312499999999999e+00	 1.012109090307694e+01
0	 4.562499999999999e+00	 6.375000000000000e+00	 1.011734017230768e+01
0	 4.562499999999999e+00	 6.437500000000000e+00	 1.011355434615383e+01
0	 4.562499999999999e+00	 6.499999999999998e+00	 1.010973342461538e+01
0	 4.562500000000000e+00	 6.562499999999999e+00	 1.010587740769230e+01
0	 4.562499999999999e+00	 6.624999999999999e+00	 1.010198629538460e+01
0	 4.562500000000000e+00	 6.687499999999998e+00	 1.009806008769230e+01
0	 4.562500000000000e+00	 6.749999999999998e+00	 1.009409878461538e+01
0	 4.562499999999999e+00	 6.812499999999997e+00	 1.009010238615383e+01
0	 4.562499999999998e+00	 6.874999999999999e+00	 1.008607089230768e+01
0	 4.625000000000000e+00	 6.250000000000000e+00	 1.012646400000001e+01
0	 4.625000000000000e+00	 6.312499999999999e+00	 1.012272211384616e+01
0	 4.624999999999999e+00	 6.375000000000000e+00	 1.011894731076923e+01
0	 4.625000000000000e+00	 6.437499999999999e+00	 1.011513959076924e+01
0	 4.625000000000000e+00	 6.499999999999997e+00	 1.011129895384616e+01
0	 4.624999999999999e+00	 6.562499999999999e+00	 1.010742539999999e+01
0	 4.624999999999999e+00	 6.624999999999998e+00	 1.010351892923075e+01
0	 4.624999999999999e+00	 6.687499999999998e+00	 1.009957954153846e+01
0	 4.625000000000000e+00	 6.749999999999998e+00	 1.009560723692306e+01
0	 4.624999999999999e+00	 6.812499999999998e+00	 1.009160201538462e+01
0	 4.625000000000000e+00	 6.875000000000001e+00	 1.008756387692304e+01
0	 4.687499999999998e+00	 6.250000000000000e+00	 1.012784038461540e+01
0	 4.687499999999998e+00	 6.312500000000000e+00	 1.012407959230769e+01
0	 4.687499999999997e+00	 6.375000000000000e+00	 1.012028806153845e+01
0	 4.687500000000000e+00	 6.437499999999999e+00	 1.011646579230770e+01
0	 4.687499999999998e+00	 6.499999999999997e+00	 1.011261278461538e+01
0	 4.687499999999999e+00	 6.562499999999999e+00	 1.010872903846154e+01
0	 4.687500000000000e+00	 6.625000000000000e+00	 1.010481455384615e+01
0	 4.687499999999999e+00	 6.687499999999999e+00	 1.010086933076923e+01
0	 4.687499999999999e+00	 6.749999999999999e+00	 1.009689336923075e+01
0	 4.687500000000000e+00	 6.812499999999998e+00	 1.009288666923076e+01
0	 4.687499999999998e+00	 6.875000000000000e+00	 1.008884923076922e+01
0	 4.749999999999999e+00	 6.250000000000000e+00	 1.012893569230769e+01
0	 4.749999999999998e+00	 6.312499999999999e+00	 1.012516333846154e+01
0	 4.749999999999998e+00	 6.374999999999997e+00	 1.012136242461538e+01
0	 4.749999999999998e+00	 6.437499999999999e+00	 1.011753295076923e+01
0	 4.750000000000000e+00	 6.500000000000000e+00	 1.011367491692308e+01
0	 4.750000000000000e+00	 6.562500000000001e+00	 1.010978832307691e+01
0	 4.749999999999999e+00	 6.624999999999998e+00	 1.010587316923077e+01
0	 4.749999999999999e+00	 6.687499999999999e+00	 1.010192945538460e+01
0	 4.749999999999998e+00	 6.749999999999999e+00	 1.009795718153844e+01
0	 4.749999999999999e+00	 6.812499999999998e+00	 1.009395634769230e+01
0	 4.749999999999999e+00	 6.875000000000000e+00	 1.008992695384613e+01
0	 4.812499999999998e+00	 6.250000000000000e+00	 1.012974992307693e+01
0	 4.812499999999999e+00	 6.312499999999999e+00	 1.012597335230768e+01
0	 4.812499999999999e+00	 6.375000000000001e+00	 1.012217040000000e+01
0	 4.812499999999998e+00	 6.437499999999999e+00	 1.011834106615384e+01
0	 4.812499999999999e+00	 6.500000000000000e+00	 1.011448535076923e+01
0	 4.812499999999999e+00	 6.562499999999999e+00	 1.011060325384615e+01
0	 4.812499999999999e+00	 6.624999999999999e+00	 1.010669477538462e+01
0	 4.812499999999998e+00	 6.687499999999999e+00	 1.010275991538462e+01
0	 4.812499999999998e+00	 6.749999999999998e+00	 1.009879867384614e+01
0	 4.812499999999999e+00	 6.812499999999999e+00	 1.009481105076924e+01
0	 4.812499999999998e+00	 6.875000000000000e+00	 1.009079704615383e+01
0	 4.874999999999999e+00	 6.250000000000000e+00	 1.013028307692309e+01
0	 4.874999999999999e+00	 6.312500000000001e+00	 1.012650963384614e+01
0	 4.874999999999998e+00	 6.374999999999999e+00	 1.012271198769231e+01
0	 4.874999999999999e+00	 6.437500000000000e+00	 1.011889013846153e+01
0	 4.874999999999998e+00	 6.499999999999999e+00	 1.011504408615384e+01
0	 4.874999999999998e+00	 6.562499999999999e+00	 1.011117383076922e+01
0	 4.874999999999998e+00	 6.624999999999998e+00	 1.010727937230769e+01
0	 4.874999999999998e+00	 6.687499999999998e+00	 1.010336071076922e+01
0	 4.874999999999999e+00	 6.749999999999998e+00	 1.009941784615383e+01
0	 4.874999999999999e+00	 6.812499999999998e+00	 1.009545077846154e+01
0	 4.874999999999999e+00	 6.875000000000000e+00	 1.009145950769230e+01
0	 4.937499999999998e+00	 6.250000000000000e+00	 1.013053515384616e+01
0	 4.937499999999998e+00	 6.312500000000000e+00	 1.012677218307692e+01
0	 4.937499999999998e+00	 6.375000000000000e+00	 1.012298718769230e+01
0	 4.937499999999997e+00	 6.437499999999999e+00	 1.011918016769229e+01
0	 4.937499999999998e+00	 6.499999999999998e+00	 1.011535112307691e+01
0	 4.937499999999998e+00	 6.562499999999998e+00	 1.011150005384615e+01
0	 4.937499999999998e+00	 6.624999999999998e+00	 1.010762695999999e+01
0	 4.937499999999998e+00	 6.687499999999998e+00	 1.010373184153845e+01
0	 4.937499999999998e+00	 6.749999999999999e+00	 1.009981469846152e+01
0	 4.937499999999998e+00	 6.812499999999997e+00	 1.009587553076924e+01
0	 4.937499999999998e+00	 6.875000000000000e+00	 1.009191433846153e+01
0	 5.000000000000000e+00	 6.250000000000000e+00	 1.013050615384615e+01
0	 4.999999999999999e+00	 6.312500000000000e+00	 1.012676099999999e+01
0	 5.000000000000001e+00	 6.375000000000000e+00	 1.012299600000000e+01
0	 4.999999999999999e+00	 6.437499999999999e+00	 1.011921115384614e+01
0	 5.000000000000000e+00	 6.499999999999999e+00	 1.011540646153845e+01
0	 4.999999999999999e+00	 6.562499999999998e+00	 1.011158192307693e+01
0	 5.000000000000000e+00	 6.624999999999998e+00	 1.010773753846152e+01
0	 4.999999999999999e+00	 6.687499999999998e+00	 1.010387330769229e+01
0	 5.000000000000000e+00	 6.749999999999998e+00	 1.009998923076922e+01
0	 5.000000000000000e+00	 6.812499999999998e+00	 1.009608530769230e+01
0	 5.000000000000000e+00	 6.875000000000000e+00	 1.009216153846153e+01
0	 4.375000000000000e+00	 6.875000000000000e+00	 1.008034615384615e+01
0	 4.375000000000000e+00	 6.937500000000000e+00	 1.007764930769230e+01
0	 4.375000000000001e+00	 7.000000000000000e+00	 1.007491415384613e+01
0	 4.375000000000000e+00	 7.062500000000000e+00	 1.007214069230771e+01
0	 4.375000000000000e+00	 7.125000000000000e+00	 1.006932892307692e+01
0	 4.375000000000000e+00	 7.187499999999998e+00	 1.006647884615384e+01
0	 4.375000000000000e+00	 7.249999999999998e+00	 1.006359046153849e+01
0	 4.375000000000000e+00	 7.312499999999998e+00	 1.006066376923077e+01
0	 4.375000000000000e+00	 7.374999999999998e+00	 1.005769876923078e+01
0	 4.375000000000000e+00	 7.437499999999998e+00	 1.005469546153846e+01
0	 4.375000000000000e+00	 7.500000000000000e+00	 1.005165384615385e+01
0	 4.437499999999999e+00	 6.875000000000001e+00	 1.008246203076923e+01
0	 4.437500000000000e+00	 6.937499999999999e+00	 1.007971110461537e+01
0	 4.437499999999999e+00	 6.999999999999999e+00	 1.007692243384615e+01
0	 4.437499999999999e+00	 7.062500000000000e+00	 1.007409601846153e+01
0	 4.437500000000000e+00	 7.124999999999998e+00	 1.007123185846154e+01
0	 4.437500000000000e+00	 7.187499999999999e+00	 1.006832995384616e+01
0	 4.437500000000000e+00	 7.250000000000000e+00	 1.006539030461539e+01
0	 4.437500000000000e+00	 7.312499999999999e+00	 1.006241291076923e+01
0	 4.437500000000002e+00	 7.374999999999999e+00	 1.005939777230770e+01
0	 4.437499999999998e+00	 7.437499999999996e+00	 1.005634488923077e+01
0	 4.437499999999999e+00	 7.500000000000000e+00	 1.005325426153847e+01
0	 4.500000000000000e+00	 6.875000000000000e+00	 1.008437027692308e+01
0	 4.499999999999999e+00	 6.937499999999999e+00	 1.008157119384615e+01
0	 4.500000000000001e+00	 7.000000000000001e+00	 1.007873492923075e+01
0	 4.499999999999999e+00	 7.062499999999999e+00	 1.007586148307692e+01
0	 4.499999999999998e+00	 7.124999999999998e+00	 1.007295085538461e+01
0	 4.500000000000000e+00	 7.187499999999999e+00	 1.007000304615385e+01
0	 4.499999999999999e+00	 7.249999999999996e+00	 1.006701805538463e+01
0	 4.500000000000001e+00	 7.312499999999998e+00	 1.006399588307693e+01
0	 4.500000000000000e+00	 7.374999999999997e+00	 1.006093652923076e+01
0	 4.500000000000000e+00	 7.437500000000000e+00	 1.005783999384617e+01
0	 4.500000000000000e+00	 7.499999999999999e+00	 1.005470627692308e+01
0	 4.562499999999998e+00	 6.874999999999999e+00	 1.008607089230768e+01
0	 4.562499999999999e+00	 6.937499999999999e+00	 1.008322957538461e+01
0	 4.562499999999999e+00	 7.000000000000000e+00	 1.008035163999999e+01
0	 4.562499999999999e+00	 7.062500000000000e+00	 1.007743708615383e+01
0	 4.562499999999999e+00	 7.124999999999999e+00	 1.007448591384616e+01
0	 4.562500000000000e+00	 7.187499999999999e+00	 1.007149812307692e+01
0	 4.562499999999999e+00	 7.250000000000000e+00	 1.006847371384614e+01
0	 4.562500000000000e+00	 7.312499999999999e+00	 1.006541268615385e+01
0	 4.562500000000000e+00	 7.374999999999997e+00	 1.006231503999999e+01
0	 4.562499999999999e+00	 7.437499999999998e+00	 1.005918077538462e+01
0	 4.562499999999998e+00	 7.500000000000000e+00	 1.005600989230773e+01
0	 4.625000000000000e+00	 6.875000000000001e+00	 1.008756387692304e+01
0	 4.625000000000000e+00	 6.937499999999999e+00	 1.008468624923076e+01
0	 4.624999999999999e+00	 7.000000000000001e+00	 1.008177256615385e+01
0	 4.625000000000000e+00	 7.062500000000000e+00	 1.007882282769230e+01
0	 4.625000000000000e+00	 7.124999999999999e+00	 1.007583703384616e+01
0	 4.624999999999999e+00	 7.187499999999999e+00	 1.007281518461537e+01
0	 4.624999999999999e+00	 7.249999999999997e+00	 1.006975728000000e+01
0	 4.624999999999999e+00	 7.312499999999998e+00	 1.006666331999999e+01
0	 4.625000000000000e+00	 7.374999999999999e+00	 1.006353330461539e+01
0	 4.624999999999999e+00	 7.437499999999998e+00	 1.006036723384615e+01
0	 4.625000000000000e+00	 7.500000000000000e+00	 1.005716510769232e+01
0	 4.687499999999998e+00	 6.875000000000000e+00	 1.008884923076922e+01
0	 4.687499999999998e+00	 6.937500000000000e+00	 1.008594121538461e+01
0	 4.687499999999997e+00	 7.000000000000000e+00	 1.008299770769232e+01
0	 4.687500000000000e+00	 7.062500000000000e+00	 1.008001870769229e+01
0	 4.687499999999998e+00	 7.124999999999997e+00	 1.007700421538462e+01
0	 4.687499999999999e+00	 7.187499999999999e+00	 1.007395423076923e+01
0	 4.687500000000000e+00	 7.249999999999999e+00	 1.007086875384613e+01
0	 4.687499999999999e+00	 7.312499999999998e+00	 1.006774778461538e+01
0	 4.687499999999999e+00	 7.374999999999997e+00	 1.006459132307694e+01
0	 4.687500000000000e+00	 7.437499999999998e+00	 1.006139936923077e+01
0	 4.687499999999998e+00	 7.500000000000000e+00	 1.005817192307693e+01
0	 4.749999999999999e+00	 6.875000000000000e+00	 1.008992695384613e+01
0	 4.749999999999998e+00	 6.937500000000000e+00	 1.008699447384615e+01
0	 4.749999999999998e+00	 6.999999999999998e+00	 1.008402706461536e+01
0	 4.749999999999998e+00	 7.062500000000000e+00	 1.008102472615384e+01
0	 4.750000000000000e+00	 7.125000000000000e+00	 1.007798745846153e+01
0	 4.750000000000000e+00	 7.187500000000000e+00	 1.007491526153845e+01
0	 4.749999999999999e+00	 7.249999999999998e+00	 1.007180813538462e+01
0	 4.749999999999999e+00	 7.312499999999999e+00	 1.006866608000001e+01
0	 4.749999999999998e+00	 7.374999999999999e+00	 1.006548909538462e+01
0	 4.749999999999999e+00	 7.437499999999998e+00	 1.006227718153846e+01
0	 4.749999999999999e+00	 7.499999999999999e+00	 1.005903033846154e+01
0	 4.812499999999998e+00	 6.875000000000000e+00	 1.009079704615383e+01
0	 4.812499999999999e+00	 6.937499999999999e+00	 1.008784602461538e+01
0	 4.812499999999999e+00	 7.000000000000001e+00	 1.008486063692306e+01
0	 4.812499999999998e+00	 7.062499999999999e+00	 1.008184088307691e+01
0	 4.812499999999999e+00	 7.124999999999999e+00	 1.007878676307692e+01
0	 4.812499999999999e+00	 7.187500000000000e+00	 1.007569827692307e+01
0	 4.812499999999999e+00	 7.249999999999999e+00	 1.007257542461539e+01
0	 4.812499999999998e+00	 7.312500000000000e+00	 1.006941820615385e+01
0	 4.812499999999998e+00	 7.374999999999998e+00	 1.006622662153847e+01
0	 4.812499999999999e+00	 7.437499999999999e+00	 1.006300067076923e+01
0	 4.812499999999998e+00	 7.499999999999998e+00	 1.005974035384618e+01
0	 4.874999999999999e+00	 6.875000000000000e+00	 1.009145950769230e+01
0	 4.874999999999999e+00	 6.937500000000001e+00	 1.008849586769230e+01
0	 4.874999999999998e+00	 6.999999999999998e+00	 1.008549842461538e+01
0	 4.874999999999999e+00	 7.062500000000000e+00	 1.008246717846154e+01
0	 4.874999999999998e+00	 7.125000000000000e+00	 1.007940212923077e+01
0	 4.874999999999998e+00	 7.187500000000000e+00	 1.007630327692309e+01
0	 4.874999999999998e+00	 7.250000000000000e+00	 1.007317062153846e+01
0	 4.874999999999998e+00	 7.312499999999999e+00	 1.007000416307693e+01
0	 4.874999999999999e+00	 7.374999999999998e+00	 1.006680390153847e+01
0	 4.874999999999999e+00	 7.437499999999998e+00	 1.006356983692307e+01
0	 4.874999999999999e+00	 7.500000000000000e+00	 1.006030196923077e+01
0	 4.937499999999998e+00	 6.875000000000000e+00	 1.009191433846153e+01
0	 4.937499999999998e+00	 6.937500000000001e+00	 1.008894400307692e+01
0	 4.937499999999998e+00	 7.000000000000001e+00	 1.008594042769231e+01
0	 4.937499999999997e+00	 7.062500000000000e+00	 1.008290361230769e+01
0	 4.937499999999998e+00	 7.124999999999999e+00	 1.007983355692309e+01
0	 4.937499999999998e+00	 7.187499999999998e+00	 1.007673026153846e+01
0	 4.937499999999998e+00	 7.249999999999999e+00	 1.007359372615385e+01
0	 4.937499999999998e+00	 7.312499999999998e+00	 1.007042395076923e+01
0	 4.937499999999998e+00	 7.374999999999998e+00	 1.006722093538462e+01
0	 4.937499999999998e+00	 7.437499999999998e+00	 1.006398468000002e+01
0	 4.937499999999998e+00	 7.500000000000000e+00	 1.006071518461541e+01
0	 5.000000000000000e+00	 6.875000000000000e+00	 1.009216153846153e+01
0	 4.999999999999999e+00	 6.937500000000000e+00	 1.008919043076923e+01
0	 5.000000000000001e+00	 7.000000000000000e+00	 1.008618664615382e+01
0	 4.999999999999999e+00	 7.062500000000000e+00	 1.008315018461539e+01
0	 5.000000000000000e+00	 7.125000000000000e+00	 1.008008104615384e+01
0	 4.999999999999999e+00	 7.187499999999998e+00	 1.007697923076922e+01
0	 5.000000000000000e+00	 7.249999999999998e+00	 1.007384473846156e+01
0	 4.999999999999999e+00	 7.312499999999998e+00	 1.007067756923077e+01
0	 5.000000000000000e+00	 7.374999999999998e+00	 1.006747772307692e+01
0	 5.000000000000000e+00	 7.437499999999998e+00	 1.006424520000000e+01
0	 5.000000000000000e+00	 7.500000000000000e+00	 1.006098000000001e+01
0	 4.375000000000000e+00	 7.500000000000000e+00	 1.005165384615385e+01
0	 4.375000000000000e+00	 7.562500000000000e+00	 1.004966940000001e+01
0	 4.375000000000001e+00	 7.625000000000000e+00	 1.004764498461541e+01
0	 4.375000000000000e+00	 7.687499999999999e+00	 1.004558060000000e+01
0	 4.375000000000000e+00	 7.750000000000000e+00	 1.004347624615385e+01
0	 4.375000000000000e+00	 7.812499999999999e+00	 1.004133192307694e+01
0	 4.375000000000000e+00	 7.874999999999998e+00	 1.003914763076923e+01
0	 4.375000000000000e+00	 7.937499999999997e+00	 1.003692336923076e+01
0	 4.375000000000000e+00	 7.999999999999998e+00	 1.003465913846154e+01
0	 4.375000000000000e+00	 8.062499999999996e+00	 1.003235493846154e+01
0	 4.375000000000000e+00	 8.125000000000000e+00	 1.003001076923076e+01
0	 4.437499999999999e+00	 7.500000000000000e+00	 1.005325426153847e+01
0	 4.437500000000000e+00	 7.562499999999999e+00	 1.005121374153847e+01
0	 4.437499999999999e+00	 7.624999999999998e+00	 1.004913316923078e+01
0	 4.437499999999999e+00	 7.687499999999998e+00	 1.004701254461538e+01
0	 4.437500000000000e+00	 7.750000000000000e+00	 1.004485186769231e+01
0	 4.437500000000000e+00	 7.812500000000000e+00	 1.004265113846153e+01
0	 4.437500000000000e+00	 7.874999999999999e+00	 1.004041035692307e+01
0	 4.437500000000000e+00	 7.937499999999998e+00	 1.003812952307691e+01
0	 4.437500000000002e+00	 8.000000000000000e+00	 1.003580863692307e+01
0	 4.437499999999998e+00	 8.062499999999995e+00	 1.003344769846153e+01
0	 4.437499999999999e+00	 8.125000000000000e+00	 1.003104670769229e+01
0	 4.500000000000000e+00	 7.499999999999999e+00	 1.005470627692308e+01
0	 4.499999999999999e+00	 7.562500000000001e+00	 1.005261478769233e+01
0	 4.500000000000001e+00	 7.625000000000001e+00	 1.005048316307693e+01
0	 4.499999999999999e+00	 7.687500000000001e+00	 1.004831140307691e+01
0	 4.499999999999998e+00	 7.749999999999998e+00	 1.004609950769231e+01
0	 4.500000000000000e+00	 7.812499999999998e+00	 1.004384747692308e+01
0	 4.499999999999999e+00	 7.874999999999996e+00	 1.004155531076924e+01
0	 4.500000000000001e+00	 7.937499999999998e+00	 1.003922300923076e+01
0	 4.500000000000000e+00	 7.999999999999999e+00	 1.003685057230769e+01
0	 4.500000000000000e+00	 8.062499999999998e+00	 1.003443799999999e+01
0	 4.500000000000000e+00	 8.125000000000000e+00	 1.003198529230769e+01
0	 4.562499999999998e+00	 7.500000000000000e+00	 1.005600989230773e+01
0	 4.562499999999999e+00	 7.562500000000001e+00	 1.005387253846154e+01
0	 4.562499999999999e+00	 7.625000000000001e+00	 1.005169496615386e+01
0	 4.562499999999999e+00	 7.687500000000000e+00	 1.004947717538463e+01
0	 4.562499999999999e+00	 7.749999999999999e+00	 1.004721916615384e+01
0	 4.562500000000000e+00	 7.812499999999999e+00	 1.004492093846155e+01
0	 4.562499999999999e+00	 7.874999999999998e+00	 1.004258249230770e+01
0	 4.562500000000000e+00	 7.937499999999998e+00	 1.004020382769232e+01
0	 4.562500000000000e+00	 7.999999999999998e+00	 1.003778494461540e+01
0	 4.562499999999999e+00	 8.062499999999996e+00	 1.003532584307692e+01
0	 4.562499999999998e+00	 8.125000000000000e+00	 1.003282652307690e+01
0	 4.625000000000000e+00	 7.500000000000000e+00	 1.005716510769232e+01
0	 4.625000000000000e+00	 7.562500000000000e+00	 1.005498699384616e+01
0	 4.624999999999999e+00	 7.625000000000000e+00	 1.005276857846154e+01
0	 4.625000000000000e+00	 7.687500000000000e+00	 1.005050986153845e+01
0	 4.625000000000000e+00	 7.749999999999998e+00	 1.004821084307691e+01
0	 4.624999999999999e+00	 7.812500000000000e+00	 1.004587152307692e+01
0	 4.624999999999999e+00	 7.874999999999998e+00	 1.004349190153847e+01
0	 4.624999999999999e+00	 7.937499999999999e+00	 1.004107197846152e+01
0	 4.625000000000000e+00	 7.999999999999997e+00	 1.003861175384614e+01
0	 4.624999999999999e+00	 8.062500000000000e+00	 1.003611122769232e+01
0	 4.625000000000000e+00	 8.125000000000000e+00	 1.003357039999999e+01
0	 4.687499999999998e+00	 7.500000000000000e+00	 1.005817192307693e+01
0	 4.687499999999998e+00	 7.562499999999999e+00	 1.005595815384614e+01
0	 4.687499999999997e+00	 7.624999999999999e+00	 1.005370400000001e+01
0	 4.687500000000000e+00	 7.687500000000000e+00	 1.005140946153846e+01
0	 4.687499999999998e+00	 7.749999999999996e+00	 1.004907453846153e+01
0	 4.687499999999999e+00	 7.812499999999999e+00	 1.004669923076923e+01
0	 4.687500000000000e+00	 7.875000000000000e+00	 1.004428353846154e+01
0	 4.687499999999999e+00	 7.937499999999999e+00	 1.004182746153845e+01
0	 4.687499999999999e+00	 7.999999999999998e+00	 1.003933100000000e+01
0	 4.687500000000000e+00	 8.062500000000000e+00	 1.003679415384616e+01
0	 4.687499999999998e+00	 8.125000000000000e+00	 1.003421692307692e+01
0	 4.749999999999999e+00	 7.499999999999999e+00	 1.005903033846154e+01
0	 4.749999999999998e+00	 7.562500000000000e+00	 1.005678601846151e+01
0	 4.749999999999998e+00	 7.624999999999998e+00	 1.005450123076923e+01
0	 4.749999999999998e+00	 7.687499999999998e+00	 1.005217597538462e+01
0	 4.750000000000000e+00	 7.750000000000001e+00	 1.004981025230769e+01
0	 4.750000000000000e+00	 7.812500000000000e+00	 1.004740406153846e+01
0	 4.749999999999999e+00	 7.874999999999998e+00	 1.004495740307692e+01
0	 4.749999999999999e+00	 7.937499999999999e+00	 1.004247027692308e+01
0	 4.749999999999998e+00	 8.000000000000000e+00	 1.003994268307694e+01
0	 4.749999999999999e+00	 8.062499999999998e+00	 1.003737462153846e+01
0	 4.749999999999999e+00	 8.125000000000000e+00	 1.003476609230770e+01
0	 4.812499999999998e+00	 7.499999999999998e+00	 1.005974035384618e+01
0	 4.812499999999999e+00	 7.562500000000000e+00	 1.005747058769233e+01
0	 4.812499999999999e+00	 7.624999999999999e+00	 1.005516027076925e+01
0	 4.812499999999998e+00	 7.687500000000000e+00	 1.005280940307692e+01
0	 4.812499999999999e+00	 7.749999999999998e+00	 1.005041798461539e+01
0	 4.812499999999999e+00	 7.812500000000000e+00	 1.004798601538462e+01
0	 4.812499999999999e+00	 7.874999999999999e+00	 1.004551349538462e+01
0	 4.812499999999998e+00	 7.937500000000000e+00	 1.004300042461539e+01
0	 4.812499999999998e+00	 7.999999999999998e+00	 1.004044680307691e+01
0	 4.812499999999999e+00	 8.062500000000000e+00	 1.003785263076923e+01
0	 4.812499999999998e+00	 8.125000000000000e+00	 1.003521790769229e+01
0	 4.874999999999999e+00	 7.500000000000000e+00	 1.006030196923077e+01
0	 4.874999999999999e+00	 7.562500000000001e+00	 1.005801186153846e+01
0	 4.874999999999998e+00	 7.625000000000000e+00	 1.005568112000001e+01
0	 4.874999999999999e+00	 7.687500000000001e+00	 1.005330974461540e+01
0	 4.874999999999998e+00	 7.749999999999999e+00	 1.005089773538462e+01
0	 4.874999999999998e+00	 7.812499999999998e+00	 1.004844509230769e+01
0	 4.874999999999998e+00	 7.875000000000000e+00	 1.004595181538460e+01
0	 4.874999999999998e+00	 7.937499999999998e+00	 1.004341790461539e+01
0	 4.874999999999999e+00	 7.999999999999998e+00	 1.004084335999999e+01
0	 4.874999999999999e+00	 8.062500000000000e+00	 1.003822818153845e+01
0	 4.874999999999999e+00	 8.125000000000000e+00	 1.003557236923075e+01
0	 4.937499999999998e+00	 7.500000000000000e+00	 1.006071518461541e+01
0	 4.937499999999998e+00	 7.562500000000001e+00	 1.005840984000000e+01
0	 4.937499999999998e+00	 7.624999999999999e+00	 1.005606377846153e+01
0	 4.937499999999997e+00	 7.687499999999999e+00	 1.005367700000002e+01
0	 4.937499999999998e+00	 7.750000000000000e+00	 1.005124950461538e+01
0	 4.937499999999998e+00	 7.812499999999999e+00	 1.004878129230768e+01
0	 4.937499999999998e+00	 7.874999999999998e+00	 1.004627236307692e+01
0	 4.937499999999998e+00	 7.937499999999998e+00	 1.004372271692307e+01
0	 4.937499999999998e+00	 7.999999999999998e+00	 1.004113235384614e+01
0	 4.937499999999998e+00	 8.062499999999998e+00	 1.003850127384616e+01
0	 4.937499999999998e+00	 8.125000000000000e+00	 1.003582947692308e+01
0	 5.000000000000000e+00	 7.500000000000000e+00	 1.006098000000001e+01
0	 4.999999999999999e+00	 7.562500000000000e+00	 1.005866452307694e+01
0	 5.000000000000001e+00	 7.625000000000000e+00	 1.005630824615386e+01
0	 4.999999999999999e+00	 7.687499999999999e+00	 1.005391116923077e+01
0	 5.000000000000000e+00	 7.750000000000000e+00	 1.005147329230772e+01
0	 4.999999999999999e+00	 7.812499999999999e+00	 1.004899461538462e+01
0	 5.000000000000000e+00	 7.874999999999998e+00	 1.004647513846154e+01
0	 4.999999999999999e+00	 7.937499999999997e+00	 1.004391486153846e+01
0	 5.000000000000000e+00	 7.999999999999998e+00	 1.004131378461539e+01
0	 5.000000000000000e+00	 8.062499999999996e+00	 1.003867190769229e+01
0	 5.000000000000000e+00	 8.125000000000000e+00	 1.003598923076922e+01
0	 4.375000000000000e+00	 8.125000000000000e+00	 1.003001076923076e+01
0	 4.375000000000000e+00	 8.187500000000000e+00	 1.002860493846154e+01
0	 4.375000000000001e+00	 8.250000000000002e+00	 1.002715359999997e+01
0	 4.375000000000000e+00	 8.312500000000000e+00	 1.002565675384614e+01
0	 4.375000000000000e+00	 8.374999999999998e+00	 1.002411439999999e+01
0	 4.375000000000000e+00	 8.437500000000000e+00	 1.002252653846153e+01
0	 4.375000000000000e+00	 8.500000000000000e+00	 1.002089316923076e+01
0	 4.375000000000000e+00	 8.562499999999998e+00	 1.001921429230769e+01
0	 4.375000000000000e+00	 8.625000000000000e+00	 1.001748990769230e+01
0	 4.375000000000000e+00	 8.687499999999998e+00	 1.001572001538459e+01
0	 4.375000000000000e+00	 8.750000000000000e+00	 1.001390461538461e+01
0	 4.437499999999999e+00	 8.125000000000000e+00	 1.003104670769229e+01
0	 4.437500000000000e+00	 8.187500000000002e+00	 1.002959761538462e+01
0	 4.437499999999999e+00	 8.250000000000000e+00	 1.002810211076923e+01
0	 4.437499999999999e+00	 8.312499999999998e+00	 1.002656019384614e+01
0	 4.437500000000000e+00	 8.374999999999998e+00	 1.002497186461537e+01
0	 4.437500000000000e+00	 8.437500000000000e+00	 1.002333712307691e+01
0	 4.437500000000000e+00	 8.500000000000002e+00	 1.002165596923077e+01
0	 4.437500000000000e+00	 8.562500000000000e+00	 1.001992840307692e+01
0	 4.437500000000002e+00	 8.625000000000002e+00	 1.001815442461538e+01
0	 4.437499999999998e+00	 8.687499999999996e+00	 1.001633403384614e+01
0	 4.437499999999999e+00	 8.750000000000002e+00	 1.001446723076924e+01
0	 4.500000000000000e+00	 8.125000000000000e+00	 1.003198529230769e+01
0	 4.499999999999999e+00	 8.187499999999998e+00	 1.003049642769231e+01
0	 4.500000000000001e+00	 8.250000000000000e+00	 1.002896024615384e+01
0	 4.499999999999999e+00	 8.312500000000000e+00	 1.002737674769229e+01
0	 4.499999999999998e+00	 8.374999999999998e+00	 1.002574593230768e+01
0	 4.500000000000000e+00	 8.437499999999998e+00	 1.002406779999998e+01
0	 4.499999999999999e+00	 8.499999999999996e+00	 1.002234235076923e+01
0	 4.500000000000001e+00	 8.562500000000002e+00	 1.002056958461537e+01
0	 4.500000000000000e+00	 8.624999999999998e+00	 1.001874950153847e+01
0	 4.500000000000000e+00	 8.687499999999998e+00	 1.001688210153848e+01
0	 4.500000000000000e+00	 8.750000000000000e+00	 1.001496738461535e+01
0	 4.562499999999998e+00	 8.125000000000000e+00	 1.003282652307690e+01
0	 4.562499999999999e+00	 8.187500000000000e+00	 1.003130137538461e+01
0	 4.562499999999999e+00	 8.250000000000002e+00	 1.002972800615386e+01
0	 4.562499999999999e+00	 8.312499999999998e+00	 1.002810641538462e+01
0	 4.562499999999999e+00	 8.374999999999998e+00	 1.002643660307692e+01
0	 4.562500000000000e+00	 8.437500000000000e+00	 1.002471856923075e+01
0	 4.562499999999999e+00	 8.499999999999998e+00	 1.002295231384615e+01
0	 4.562500000000000e+00	 8.562500000000000e+00	 1.002113783692307e+01
0	 4.562500000000000e+00	 8.625000000000000e+00	 1.001927513846152e+01
0	 4.562499999999999e+00	 8.687499999999996e+00	 1.001736421846152e+01
0	 4.562499999999998e+00	 8.750000000000000e+00	 1.001540507692309e+01
0	 4.625000000000000e+00	 8.125000000000000e+00	 1.003357039999999e+01
0	 4.625000000000000e+00	 8.187499999999998e+00	 1.003201245846153e+01
0	 4.624999999999999e+00	 8.250000000000002e+00	 1.003040539076923e+01
0	 4.625000000000000e+00	 8.312500000000000e+00	 1.002874919692308e+01
0	 4.625000000000000e+00	 8.374999999999998e+00	 1.002704387692306e+01
0	 4.624999999999999e+00	 8.437500000000000e+00	 1.002528943076922e+01
0	 4.624999999999999e+00	 8.499999999999998e+00	 1.002348585846152e+01
0	 4.624999999999999e+00	 8.562499999999998e+00	 1.002163316000000e+01
0	 4.625000000000000e+00	 8.624999999999998e+00	 1.001973133538461e+01
0	 4.624999999999999e+00	 8.687499999999996e+00	 1.001778038461537e+01
0	 4.625000000000000e+00	 8.749999999999998e+00	 1.001578030769229e+01
0	 4.687499999999998e+00	 8.125000000000000e+00	 1.003421692307692e+01
0	 4.687499999999998e+00	 8.187499999999998e+00	 1.003262967692306e+01
0	 4.687499999999997e+00	 8.249999999999998e+00	 1.003099240000001e+01
0	 4.687500000000000e+00	 8.312500000000000e+00	 1.002930509230768e+01
0	 4.687499999999998e+00	 8.374999999999998e+00	 1.002756775384615e+01
0	 4.687499999999999e+00	 8.437499999999998e+00	 1.002578038461538e+01
0	 4.687500000000000e+00	 8.500000000000002e+00	 1.002394298461538e+01
0	 4.687499999999999e+00	 8.562499999999998e+00	 1.002205555384615e+01
0	 4.687499999999999e+00	 8.624999999999998e+00	 1.002011809230772e+01
0	 4.687500000000000e+00	 8.687500000000000e+00	 1.001813059999997e+01
0	 4.687499999999998e+00	 8.750000000000000e+00	 1.001609307692309e+01
0	 4.749999999999999e+00	 8.125000000000000e+00	 1.003476609230770e+01
0	 4.749999999999998e+00	 8.187500000000000e+00	 1.003315303076923e+01
0	 4.749999999999998e+00	 8.249999999999998e+00	 1.003148903384614e+01
0	 4.749999999999998e+00	 8.312500000000000e+00	 1.002977410153845e+01
0	 4.750000000000000e+00	 8.375000000000002e+00	 1.002800823384614e+01
0	 4.750000000000000e+00	 8.437500000000002e+00	 1.002619143076923e+01
0	 4.749999999999999e+00	 8.499999999999998e+00	 1.002432369230768e+01
0	 4.749999999999999e+00	 8.562500000000000e+00	 1.002240501846154e+01
0	 4.749999999999998e+00	 8.624999999999998e+00	 1.002043540923075e+01
0	 4.749999999999999e+00	 8.687499999999998e+00	 1.001841486461538e+01
0	 4.749999999999999e+00	 8.750000000000000e+00	 1.001634338461537e+01
0	 4.812499999999998e+00	 8.125000000000000e+00	 1.003521790769229e+01
0	 4.812499999999999e+00	 8.187500000000000e+00	 1.003358251999999e+01
0	 4.812499999999999e+00	 8.250000000000000e+00	 1.003189529230767e+01
0	 4.812499999999998e+00	 8.312500000000000e+00	 1.003015622461538e+01
0	 4.812499999999999e+00	 8.374999999999998e+00	 1.002836531692307e+01
0	 4.812499999999999e+00	 8.437500000000000e+00	 1.002652256923075e+01
0	 4.812499999999999e+00	 8.500000000000000e+00	 1.002462798153846e+01
0	 4.812499999999998e+00	 8.562499999999998e+00	 1.002268155384616e+01
0	 4.812499999999998e+00	 8.624999999999998e+00	 1.002068328615382e+01
0	 4.812499999999999e+00	 8.687500000000000e+00	 1.001863317846154e+01
0	 4.812499999999998e+00	 8.750000000000000e+00	 1.001653123076925e+01
0	 4.874999999999999e+00	 8.125000000000000e+00	 1.003557236923075e+01
0	 4.874999999999999e+00	 8.187500000000002e+00	 1.003391814461537e+01
0	 4.874999999999998e+00	 8.250000000000000e+00	 1.003221117538462e+01
0	 4.874999999999999e+00	 8.312500000000000e+00	 1.003045146153845e+01
0	 4.874999999999998e+00	 8.375000000000002e+00	 1.002863900307692e+01
0	 4.874999999999998e+00	 8.437500000000000e+00	 1.002677379999998e+01
0	 4.874999999999998e+00	 8.500000000000000e+00	 1.002485585230768e+01
0	 4.874999999999998e+00	 8.562499999999996e+00	 1.002288516000002e+01
0	 4.874999999999999e+00	 8.624999999999998e+00	 1.002086172307691e+01
0	 4.874999999999999e+00	 8.687499999999998e+00	 1.001878554153848e+01
0	 4.874999999999999e+00	 8.750000000000002e+00	 1.001665661538462e+01
0	 4.937499999999998e+00	 8.125000000000000e+00	 1.003582947692308e+01
0	 4.937499999999998e+00	 8.187500000000000e+00	 1.003415990461541e+01
0	 4.937499999999998e+00	 8.250000000000002e+00	 1.003243668307692e+01
0	 4.937499999999997e+00	 8.312499999999998e+00	 1.003065981230769e+01
0	 4.937499999999998e+00	 8.374999999999998e+00	 1.002882929230769e+01
0	 4.937499999999998e+00	 8.437499999999998e+00	 1.002694512307692e+01
0	 4.937499999999998e+00	 8.499999999999998e+00	 1.002500730461537e+01
0	 4.937499999999998e+00	 8.562499999999998e+00	 1.002301583692308e+01
0	 4.937499999999998e+00	 8.624999999999998e+00	 1.002097072000001e+01
0	 4.937499999999998e+00	 8.687499999999998e+00	 1.001887195384615e+01
0	 4.937499999999998e+00	 8.750000000000000e+00	 1.001671953846155e+01
0	 5.000000000000000e+00	 8.125000000000000e+00	 1.003598923076922e+01
0	 4.999999999999999e+00	 8.187500000000000e+00	 1.003430780000000e+01
0	 5.000000000000001e+00	 8.250000000000002e+00	 1.003257181538459e+01
0	 4.999999999999999e+00	 8.312500000000000e+00	 1.003078127692308e+01
0	 5.000000000000000e+00	 8.374999999999998e+00	 1.002893618461537e+01
0	 4.999999999999999e+00	 8.437500000000000e+00	 1.002703653846151e+01
0	 5.000000000000000e+00	 8.500000000000000e+00	 1.002508233846154e+01
0	 4.999999999999999e+00	 8.562499999999998e+00	 1.002307358461538e+01
0	 5.000000000000000e+00	 8.625000000000000e+00	 1.002101027692307e+01
0	 5.000000000000000e+00	 8.687499999999998e+00	 1.001889241538461e+01
0	 5.000000000000000e+00	 8.750000000000000e+00	 1.001672000000000e+01
0	 4.375000000000000e+00	 8.750000000000000e+00	 1.001390461538461e+01
0	 4.375000000000000e+00	 8.812500000000000e+00	 1.001306470769232e+01
0	 4.375000000000001e+00	 8.875000000000002e+00	 1.001216221538463e+01
0	 4.375000000000000e+00	 8.937499999999998e+00	 1.001119713846153e+01
0	 4.375000000000000e+00	 9.000000000000000e+00	 1.001016947692309e+01
0	 4.375000000000000e+00	 9.062500000000000e+00	 1.000907923076924e+01
0	 4.375000000000000e+00	 9.124999999999998e+00	 1.000792640000001e+01
0	 4.375000000000000e+00	 9.187499999999998e+00	 1.000671098461539e+01
0	 4.375000000000000e+00	 9.249999999999998e+00	 1.000543298461540e+01
0	 4.375000000000000e+00	 9.312499999999998e+00	 1.000409240000002e+01
0	 4.375000000000000e+00	 9.375000000000000e+00	 1.000268923076924e+01
0	 4.437499999999999e+00	 8.750000000000002e+00	 1.001446723076924e+01
0	 4.437500000000000e+00	 8.812499999999998e+00	 1.001360311692309e+01
0	 4.437499999999999e+00	 8.875000000000000e+00	 1.001267487692307e+01
0	 4.437499999999999e+00	 8.937500000000000e+00	 1.001168251076922e+01
0	 4.437500000000000e+00	 9.000000000000000e+00	 1.001062601846154e+01
0	 4.437500000000000e+00	 9.062500000000000e+00	 1.000950539999999e+01
0	 4.437500000000000e+00	 9.125000000000000e+00	 1.000832065538462e+01
0	 4.437500000000000e+00	 9.187499999999998e+00	 1.000707178461541e+01
0	 4.437500000000002e+00	 9.250000000000000e+00	 1.000575878769232e+01
0	 4.437499999999998e+00	 9.312499999999996e+00	 1.000438166461537e+01
0	 4.437499999999999e+00	 9.375000000000000e+00	 1.000294041538463e+01
0	 4.500000000000000e+00	 8.750000000000000e+00	 1.001496738461535e+01
0	 4.499999999999999e+00	 8.812500000000000e+00	 1.001408080923077e+01
0	 4.500000000000001e+00	 8.875000000000004e+00	 1.001312856615383e+01
0	 4.499999999999999e+00	 8.937500000000000e+00	 1.001211065538461e+01
0	 4.499999999999998e+00	 8.999999999999998e+00	 1.001102707692308e+01
0	 4.500000000000000e+00	 9.062500000000000e+00	 1.000987783076923e+01
0	 4.499999999999999e+00	 9.124999999999998e+00	 1.000866291692307e+01
0	 4.500000000000001e+00	 9.187500000000002e+00	 1.000738233538462e+01
0	 4.500000000000000e+00	 9.249999999999996e+00	 1.000603608615386e+01
0	 4.500000000000000e+00	 9.312499999999998e+00	 1.000462416923077e+01
0	 4.500000000000000e+00	 9.375000000000000e+00	 1.000314658461540e+01
0	 4.562499999999998e+00	 8.750000000000000e+00	 1.001540507692309e+01
0	 4.562499999999999e+00	 8.812500000000000e+00	 1.001449778461539e+01
0	 4.562499999999999e+00	 8.875000000000002e+00	 1.001352328307692e+01
0	 4.562499999999999e+00	 8.937500000000000e+00	 1.001248157230770e+01
0	 4.562499999999999e+00	 9.000000000000000e+00	 1.001137265230770e+01
0	 4.562500000000000e+00	 9.062499999999998e+00	 1.001019652307694e+01
0	 4.562499999999999e+00	 9.124999999999998e+00	 1.000895318461539e+01
0	 4.562500000000000e+00	 9.187500000000002e+00	 1.000764263692310e+01
0	 4.562500000000000e+00	 9.249999999999998e+00	 1.000626488000000e+01
0	 4.562499999999999e+00	 9.312499999999998e+00	 1.000481991384617e+01
0	 4.562499999999998e+00	 9.375000000000002e+00	 1.000330773846155e+01
0	 4.625000000000000e+00	 8.749999999999998e+00	 1.001578030769229e+01
0	 4.625000000000000e+00	 8.812500000000000e+00	 1.001485404307692e+01
0	 4.624999999999999e+00	 8.875000000000002e+00	 1.001385902769230e+01
0	 4.625000000000000e+00	 8.937500000000000e+00	 1.001279526153845e+01
0	 4.625000000000000e+00	 8.999999999999998e+00	 1.001166274461539e+01
0	 4.624999999999999e+00	 9.062500000000000e+00	 1.001046147692308e+01
0	 4.624999999999999e+00	 9.124999999999998e+00	 1.000919145846154e+01
0	 4.624999999999999e+00	 9.187500000000000e+00	 1.000785268923076e+01
0	 4.625000000000000e+00	 9.249999999999998e+00	 1.000644516923079e+01
0	 4.624999999999999e+00	 9.312500000000000e+00	 1.000496889846156e+01
0	 4.625000000000000e+00	 9.375000000000002e+00	 1.000342387692311e+01
0	 4.687499999999998e+00	 8.750000000000000e+00	 1.001609307692309e+01
0	 4.687499999999998e+00	 8.812500000000000e+00	 1.001514958461540e+01
0	 4.687499999999997e+00	 8.875000000000000e+00	 1.001413579999998e+01
0	 4.687500000000000e+00	 8.937500000000000e+00	 1.001305172307694e+01
0	 4.687499999999998e+00	 8.999999999999998e+00	 1.001189735384615e+01
0	 4.687499999999999e+00	 9.062500000000000e+00	 1.001067269230770e+01
0	 4.687500000000000e+00	 9.125000000000002e+00	 1.000937773846154e+01
0	 4.687499999999999e+00	 9.187499999999998e+00	 1.000801249230768e+01
0	 4.687499999999999e+00	 9.249999999999998e+00	 1.000657695384617e+01
0	 4.687500000000000e+00	 9.312500000000000e+00	 1.000507112307692e+01
0	 4.687499999999998e+00	 9.375000000000002e+00	 1.000349500000001e+01
0	 4.749999999999999e+00	 8.750000000000000e+00	 1.001634338461537e+01
0	 4.749999999999998e+00	 8.812500000000000e+00	 1.001538440923076e+01
0	 4.749999999999998e+00	 8.874999999999996e+00	 1.001435359999999e+01
0	 4.749999999999998e+00	 8.937499999999998e+00	 1.001325095692306e+01
0	 4.750000000000000e+00	 9.000000000000004e+00	 1.001207648000000e+01
0	 4.750000000000000e+00	 9.062500000000002e+00	 1.001083016923078e+01
0	 4.749999999999999e+00	 9.124999999999998e+00	 1.000951202461538e+01
0	 4.749999999999999e+00	 9.187500000000000e+00	 1.000812204615385e+01
0	 4.749999999999998e+00	 9.249999999999998e+00	 1.000666023384618e+01
0	 4.749999999999999e+00	 9.312499999999998e+00	 1.000512658769232e+01
0	 4.749999999999999e+00	 9.375000000000000e+00	 1.000352110769233e+01
0	 4.812499999999998e+00	 8.750000000000000e+00	 1.001653123076925e+01
0	 4.812499999999999e+00	 8.812499999999998e+00	 1.001555851692307e+01
0	 4.812499999999999e+00	 8.875000000000002e+00	 1.001451242769232e+01
0	 4.812499999999998e+00	 8.937500000000002e+00	 1.001339296307693e+01
0	 4.812499999999999e+00	 8.999999999999998e+00	 1.001220012307692e+01
0	 4.812499999999999e+00	 9.062500000000000e+00	 1.001093390769232e+01
0	 4.812499999999999e+00	 9.125000000000000e+00	 1.000959431692306e+01
0	 4.812499999999998e+00	 9.187500000000000e+00	 1.000818135076924e+01
0	 4.812499999999998e+00	 9.249999999999998e+00	 1.000669500923076e+01
0	 4.812499999999999e+00	 9.312500000000000e+00	 1.000513529230771e+01
0	 4.812499999999998e+00	 9.375000000000000e+00	 1.000350220000000e+01
0	 4.874999999999999e+00	 8.750000000000002e+00	 1.001665661538462e+01
0	 4.874999999999999e+00	 8.812500000000002e+00	 1.001567190769230e+01
0	 4.874999999999998e+00	 8.875000000000000e+00	 1.001461228307694e+01
0	 4.874999999999999e+00	 8.937500000000002e+00	 1.001347774153846e+01
0	 4.874999999999998e+00	 8.999999999999998e+00	 1.001226828307690e+01
0	 4.874999999999998e+00	 9.062499999999998e+00	 1.001098390769232e+01
0	 4.874999999999998e+00	 9.125000000000000e+00	 1.000962461538461e+01
0	 4.874999999999998e+00	 9.187499999999998e+00	 1.000819040615385e+01
0	 4.874999999999999e+00	 9.250000000000000e+00	 1.000668128000003e+01
0	 4.874999999999999e+00	 9.312499999999998e+00	 1.000509723692308e+01
0	 4.874999999999999e+00	 9.375000000000000e+00	 1.000343827692309e+01
0	 4.937499999999998e+00	 8.750000000000000e+00	 1.001671953846155e+01
0	 4.937499999999998e+00	 8.812500000000000e+00	 1.001572458153846e+01
0	 4.937499999999998e+00	 8.875000000000002e+00	 1.001465316615383e+01
0	 4.937499999999997e+00	 8.937500000000000e+00	 1.001350529230769e+01
0	 4.937499999999998e+00	 9.000000000000000e+00	 1.001228096000001e+01
0	 4.937499999999998e+00	 9.062500000000000e+00	 1.001098016923076e+01
0	 4.937499999999998e+00	 9.125000000000000e+00	 1.000960291999999e+01
0	 4.937499999999998e+00	 9.187499999999998e+00	 1.000814921230771e+01
0	 4.937499999999998e+00	 9.249999999999998e+00	 1.000661904615386e+01
0	 4.937499999999998e+00	 9.312499999999996e+00	 1.000501242153847e+01
0	 4.937499999999998e+00	 9.375000000000000e+00	 1.000332933846157e+01
0	 5.000000000000000e+00	 8.750000000000000e+00	 1.001672000000000e+01
0	 4.999999999999999e+00	 8.812500000000000e+00	 1.001571653846156e+01
0	 5.000000000000001e+00	 8.875000000000002e+00	 1.001463507692308e+01
0	 4.999999999999999e+00	 8.937499999999998e+00	 1.001347561538461e+01
0	 5.000000000000000e+00	 9.000000000000000e+00	 1.001223815384616e+01
0	 4.999999999999999e+00	 9.062500000000000e+00	 1.001092269230769e+01
0	 5.000000000000000e+00	 9.124999999999998e+00	 1.000952923076922e+01
0	 4.999999999999999e+00	 9.187499999999998e+00	 1.000805776923075e+01
0	 5.000000000000000e+00	 9.249999999999998e+00	 1.000650830769231e+01
0	 5.000000000000000e+00	 9.312499999999998e+00	 1.000488084615385e+01
0	 5.000000000000000e+00	 9.375000000000000e+00	 1.000317538461539e+01
0	 4.375000000000000e+00	 9.375000000000000e+00	 1.000268923076924e+01
0	 4.375000000000000e+00	 9.437499999999998e+00	 1.000266363076924e+01
0	 4.375000000000000e+00	 9.500000000000000e+00	 1.000253944615384e+01
0	 4.374999999999999e+00	 9.562500000000000e+00	 1.000231667692308e+01
0	 4.375000000000000e+00	 9.625000000000000e+00	 1.000199532307693e+01
0	 4.375000000000000e+00	 9.687499999999998e+00	 1.000157538461538e+01
0	 4.375000000000000e+00	 9.749999999999998e+00	 1.000105686153846e+01
0	 4.375000000000000e+00	 9.812500000000000e+00	 1.000043975384616e+01
0	 4.375000000000001e+00	 9.875000000000000e+00	 9.999724061538458e+00
0	 4.375000000000000e+00	 9.937499999999998e+00	 9.998909784615437e+00
0	 4.375000000000000e+00	 1.000000000000000e+01	 9.997996923076935e+00
0	 4.437499999999999e+00	 9.375000000000000e+00	 1.000294041538463e+01
0	 4.437500000000001e+00	 9.437500000000002e+00	 1.000292006769231e+01
0	 4.437499999999997e+00	 9.500000000000000e+00	 1.000279909538462e+01
0	 4.437500000000000e+00	 9.562500000000000e+00	 1.000257749846156e+01
0	 4.437500000000000e+00	 9.625000000000000e+00	 1.000225527692311e+01
0	 4.437500000000001e+00	 9.687500000000000e+00	 1.000183243076923e+01
0	 4.437500000000001e+00	 9.749999999999998e+00	 1.000130896000003e+01
0	 4.437499999999999e+00	 9.812499999999998e+00	 1.000068486461538e+01
0	 4.437500000000000e+00	 9.874999999999998e+00	 9.999960144615402e+00
0	 4.437499999999999e+00	 9.937499999999996e+00	 9.999134800000030e+00
0	 4.437500000000000e+00	 1.000000000000000e+01	 9.998208830769213e+00
0	 4.500000000000000e+00	 9.375000000000000e+00	 1.000314658461540e+01
0	 4.499999999999997e+00	 9.437499999999998e+00	 1.000313043384616e+01
0	 4.500000000000001e+00	 9.500000000000000e+00	 1.000301161846154e+01
0	 4.499999999999999e+00	 9.562500000000000e+00	 1.000279013846157e+01
0	 4.499999999999999e+00	 9.625000000000002e+00	 1.000246599384616e+01
0	 4.500000000000001e+00	 9.687500000000002e+00	 1.000203918461539e+01
0	 4.500000000000000e+00	 9.750000000000000e+00	 1.000150971076923e+01
0	 4.500000000000000e+00	 9.812500000000002e+00	 1.000087757230771e+01
0	 4.499999999999999e+00	 9.874999999999996e+00	 1.000014276923075e+01
0	 4.500000000000001e+00	 9.937500000000000e+00	 9.999305301538476e+00
0	 4.500000000000000e+00	 1.000000000000000e+01	 9.998365169230748e+00
0	 4.562499999999998e+00	 9.375000000000002e+00	 1.000330773846155e+01
0	 4.562499999999999e+00	 9.437500000000000e+00	 1.000329472923078e+01
0	 4.562499999999997e+00	 9.499999999999996e+00	 1.000317701538462e+01
0	 4.562499999999999e+00	 9.562500000000000e+00	 1.000295459692311e+01
0	 4.562500000000000e+00	 9.624999999999998e+00	 1.000262747384617e+01
0	 4.562499999999999e+00	 9.687500000000000e+00	 1.000219564615389e+01
0	 4.562499999999999e+00	 9.749999999999996e+00	 1.000165911384616e+01
0	 4.562499999999999e+00	 9.812499999999996e+00	 1.000101787692306e+01
0	 4.562499999999999e+00	 9.875000000000000e+00	 1.000027193538459e+01
0	 4.562499999999999e+00	 9.937499999999998e+00	 9.999421289230778e+00
0	 4.562499999999999e+00	 1.000000000000000e+01	 9.998465938461502e+00
0	 4.625000000000000e+00	 9.375000000000002e+00	 1.000342387692311e+01
0	 4.624999999999998e+00	 9.437500000000000e+00	 1.000341295384615e+01
0	 4.624999999999999e+00	 9.500000000000004e+00	 1.000329528615386e+01
0	 4.624999999999999e+00	 9.562500000000000e+00	 1.000307087384617e+01
0	 4.624999999999999e+00	 9.624999999999998e+00	 1.000273971692307e+01
0	 4.624999999999999e+00	 9.687499999999998e+00	 1.000230181538463e+01
0	 4.624999999999998e+00	 9.750000000000000e+00	 1.000175716923080e+01
0	 4.624999999999998e+00	 9.812499999999996e+00	 1.000110577846156e+01
0	 4.624999999999999e+00	 9.874999999999998e+00	 1.000034764307691e+01
0	 4.624999999999999e+00	 9.937499999999996e+00	 9.999482763076951e+00
0	 4.625000000000000e+00	 1.000000000000000e+01	 9.998511138461524e+00
0	 4.687499999999998e+00	 9.375000000000002e+00	 1.000349500000001e+01
0	 4.687499999999999e+00	 9.437499999999998e+00	 1.000348510769233e+01
0	 4.687499999999999e+00	 9.499999999999998e+00	 1.000336643076922e+01
0	 4.687499999999999e+00	 9.562500000000000e+00	 1.000313896923078e+01
0	 4.687499999999998e+00	 9.624999999999998e+00	 1.000280272307692e+01
0	 4.687499999999998e+00	 9.687500000000000e+00	 1.000235769230771e+01
0	 4.687499999999999e+00	 9.750000000000000e+00	 1.000180387692310e+01
0	 4.687499999999999e+00	 9.812499999999998e+00	 1.000114127692308e+01
0	 4.687499999999998e+00	 9.874999999999998e+00	 1.000036989230771e+01
0	 4.687499999999999e+00	 9.937499999999998e+00	 9.999489723076955e+00
0	 4.687499999999999e+00	 1.000000000000000e+01	 9.998500769230752e+00
0	 4.749999999999999e+00	 9.375000000000000e+00	 1.000352110769233e+01
0	 4.749999999999998e+00	 9.437499999999998e+00	 1.000351119076924e+01
0	 4.750000000000000e+00	 9.500000000000000e+00	 1.000339044923077e+01
0	 4.749999999999999e+00	 9.562500000000000e+00	 1.000315888307693e+01
0	 4.749999999999999e+00	 9.625000000000000e+00	 1.000281649230769e+01
0	 4.749999999999999e+00	 9.687499999999998e+00	 1.000236327692309e+01
0	 4.749999999999999e+00	 9.749999999999998e+00	 1.000179923692306e+01
0	 4.749999999999997e+00	 9.812499999999996e+00	 1.000112437230772e+01
0	 4.749999999999998e+00	 9.874999999999998e+00	 1.000033868307690e+01
0	 4.749999999999999e+00	 9.937499999999998e+00	 9.999442169230797e+00
0	 4.749999999999998e+00	 9.999999999999998e+00	 9.998434830769288e+00
0	 4.812499999999998e+00	 9.375000000000000e+00	 1.000350220000000e+01
0	 4.812499999999998e+00	 9.437499999999998e+00	 1.000349120307694e+01
0	 4.812499999999998e+00	 9.499999999999998e+00	 1.000336734153849e+01
0	 4.812499999999999e+00	 9.562500000000002e+00	 1.000313061538462e+01
0	 4.812499999999998e+00	 9.624999999999998e+00	 1.000278102461539e+01
0	 4.812499999999998e+00	 9.687500000000000e+00	 1.000231856923077e+01
0	 4.812499999999999e+00	 9.750000000000000e+00	 1.000174324923074e+01
0	 4.812499999999999e+00	 9.812500000000000e+00	 1.000105506461540e+01
0	 4.812499999999998e+00	 9.874999999999998e+00	 1.000025401538460e+01
0	 4.812499999999998e+00	 9.937499999999998e+00	 9.999340101538444e+00
0	 4.812499999999999e+00	 1.000000000000000e+01	 9.998313323076973e+00
0	 4.874999999999999e+00	 9.375000000000000e+00	 1.000343827692309e+01
0	 4.874999999999998e+00	 9.437500000000002e+00	 1.000342514461541e+01
0	 4.874999999999998e+00	 9.500000000000000e+00	 1.000329710769231e+01
0	 4.874999999999998e+00	 9.562500000000002e+00	 1.000305416615386e+01
0	 4.874999999999997e+00	 9.624999999999998e+00	 1.000269631999999e+01
0	 4.874999999999998e+00	 9.687499999999998e+00	 1.000222356923078e+01
0	 4.874999999999998e+00	 9.750000000000000e+00	 1.000163591384616e+01
0	 4.874999999999998e+00	 9.812499999999998e+00	 1.000093335384614e+01
0	 4.874999999999998e+00	 9.874999999999998e+00	 1.000011588923077e+01
0	 4.874999999999998e+00	 9.937499999999998e+00	 9.999183519999958e+00
0	 4.874999999999998e+00	 1.000000000000000e+01	 9.998136246153823e+00
0	 4.937499999999998e+00	 9.375000000000000e+00	 1.000332933846157e+01
0	 4.937499999999996e+00	 9.437500000000000e+00	 1.000331301538464e+01
0	 4.937499999999998e+00	 9.499999999999998e+00	 1.000317974769231e+01
0	 4.937499999999998e+00	 9.562500000000000e+00	 1.000292953538463e+01
0	 4.937499999999998e+00	 9.624999999999998e+00	 1.000256237846156e+01
0	 4.937499999999997e+00	 9.687499999999996e+00	 1.000207827692306e+01
0	 4.937499999999998e+00	 9.749999999999998e+00	 1.000147723076923e+01
0	 4.937499999999998e+00	 9.812499999999998e+00	 1.000075924000000e+01
0	 4.937499999999997e+00	 9.874999999999996e+00	 9.999924304615414e+00
0	 4.937499999999998e+00	 9.937499999999998e+00	 9.998972424615378e+00
0	 4.937499999999998e+00	 1.000000000000000e+01	 9.997903600000022e+00
0	 5.000000000000000e+00	 9.375000000000000e+00	 1.000317538461539e+01
0	 5.000000000000000e+00	 9.437499999999998e+00	 1.000315481538463e+01
0	 5.000000000000000e+00	 9.500000000000000e+00	 1.000301526153845e+01
0	 5.000000000000000e+00	 9.562500000000000e+00	 1.000275672307692e+01
0	 5.000000000000000e+00	 9.625000000000000e+00	 1.000237920000001e+01
0	 5.000000000000000e+00	 9.687499999999998e+00	 1.000188269230768e+01
0	 5.000000000000000e+00	 9.749999999999998e+00	 1.000126720000002e+01
0	 5.000000000000000e+00	 9.812500000000000e+00	 1.000053272307695e+01
0	 5.000000000000001e+00	 9.875000000000000e+00	 9.999679261538473e+00
0	 5.000000000000000e+00	 9.937499999999998e+00	 9.998706815384642e+00
0	 5.000000000000000e+00	 1.000000000000000e+01	 9.997615384615395e+00
0	 5.000000000000000e+00	 0.000000000000000e+00	 1.028541692307692e+01
0	 5.000000000000001e+00	 6.250000000000000e-02	 1.028990324615384e+01
0	 5.000000000000000e+00	 1.250000000000000e-01	 1.029365415384615e+01
0	 4.999999999999999e+00	 1.875000000000000e-01	 1.029666964615384e+01
0	 5.000000000000000e+00	 2.500000000000000e-01	 1.029894972307692e+01
0	 5.000000000000000e+00	 3.125000000000000e-01	 1.030049438461538e+01
0	 5.000000000000000e+00	 3.750000000000000e-01	 1.030130363076923e+01
0	 5.000000000000000e+00	 4.374999999999999e-01	 1.030137746153846e+01
0	 5.000000000000000e+00	 5.000000000000000e-01	 1.030071587692307e+01
0	 5.000000000000000e+00	 5.624999999999999e-01	 1.029931887692308e+01
0	 5.000000000000000e+00	 6.250000000000000e-01	 1.029718646153846e+01
0	 5.062500000000000e+00	 0.000000000000000e+00	 1.027574434769230e+01
0	 5.062499999999999e+00	 6.249999999999999e-02	 1.028035080599999e+01
0	 5.062499999999999e+00	 1.250000000000000e-01	 1.028426982123076e+01
0	 5.062499999999999e+00	 1.875000000000000e-01	 1.028750139338461e+01
0	 5.062499999999998e+00	 2.500000000000000e-01	 1.029004552246154e+01
0	 5.062500000000001e+00	 3.125000000000001e-01	 1.029190220846153e+01
0	 5.062499999999999e+00	 3.749999999999999e-01	 1.029307145138461e+01
0	 5.062500000000000e+00	 4.374999999999999e-01	 1.029355325123076e+01
0	 5.062500000000002e+00	 5.000000000000000e-01	 1.029334760800000e+01
0	 5.062500000000000e+00	 5.625000000000000e-01	 1.029245452169231e+01
0	 5.062500000000000e+00	 6.250000000000000e-01	 1.029087399230769e+01
0	 5.125000000000000e+00	 0.000000000000000e+00	 1.026654988307692e+01
0	 5.125000000000002e+00	 6.250000000000000e-02	 1.027120756861538e+01
0	 5.124999999999999e+00	 1.250000000000000e-01	 1.027522578338461e+01
0	 5.125000000000000e+00	 1.875000000000000e-01	 1.027860452738462e+01
0	 5.125000000000001e+00	 2.500000000000001e-01	 1.028134380061538e+01
0	 5.124999999999998e+00	 3.125000000000000e-01	 1.028344360307692e+01
0	 5.125000000000001e+00	 3.749999999999999e-01	 1.028490393476923e+01
0	 5.124999999999999e+00	 4.375000000000000e-01	 1.028572479569231e+01
0	 5.124999999999999e+00	 4.999999999999999e-01	 1.028590618584616e+01
0	 5.125000000000000e+00	 5.625000000000000e-01	 1.028544810523077e+01
0	 5.124999999999999e+00	 6.249999999999999e-01	 1.028435055384615e+01
0	 5.187499999999999e+00	 0.000000000000000e+00	 1.025783352923077e+01
0	 5.187500000000000e+00	 6.250000000000000e-02	 1.026247353400000e+01
0	 5.187499999999998e+00	 1.250000000000000e-01	 1.026652204030768e+01
0	 5.187500000000000e+00	 1.875000000000001e-01	 1.026997904815384e+01
0	 5.187500000000000e+00	 2.500000000000001e-01	 1.027284455753846e+01
0	 5.187499999999999e+00	 3.125000000000000e-01	 1.027511856846154e+01
0	 5.187500000000000e+00	 3.749999999999999e-01	 1.027680108092308e+01
0	 5.187499999999999e+00	 4.374999999999999e-01	 1.027789209492308e+01
0	 5.187499999999998e+00	 4.999999999999999e-01	 1.027839161046153e+01
0	 5.187500000000000e+00	 5.625000000000001e-01	 1.027829962753846e+01
0	 5.187500000000000e+00	 6.249999999999999e-01	 1.027761614615385e+01
0	 5.249999999999999e+00	 0.000000000000000e+00	 1.024959528615385e+01
0	 5.249999999999999e+00	 6.250000000000000e-02	 1.025414870215385e+01
0	 5.249999999999998e+00	 1.250000000000000e-01	 1.025815859200000e+01
0	 5.249999999999999e+00	 1.875000000000000e-01	 1.026162495569230e+01
0	 5.249999999999998e+00	 2.500000000000000e-01	 1.026454779323076e+01
0	 5.250000000000000e+00	 3.125000000000000e-01	 1.026692710461538e+01
0	 5.249999999999999e+00	 3.750000000000000e-01	 1.026876288984615e+01
0	 5.249999999999999e+00	 4.375000000000000e-01	 1.027005514892307e+01
0	 5.250000000000000e+00	 4.999999999999999e-01	 1.027080388184615e+01
0	 5.249999999999999e+00	 5.625000000000000e-01	 1.027100908861538e+01
0	 5.249999999999998e+00	 6.250000000000001e-01	 1.027067076923077e+01
0	 5.312499999999999e+00	 0.000000000000000e+00	 1.024183515384615e+01
0	 5.312499999999998e+00	 6.249999999999998e-02	 1.024623307307692e+01
0	 5.312500000000000e+00	 1.250000000000000e-01	 1.025013543846154e+01
0	 5.312499999999999e+00	 1.875000000000000e-01	 1.025354225000000e+01
0	 5.312499999999998e+00	 2.499999999999999e-01	 1.025645350769230e+01
0	 5.312499999999999e+00	 3.125000000000000e-01	 1.025886921153846e+01
0	 5.312499999999999e+00	 3.750000000000000e-01	 1.026078936153846e+01
0	 5.312499999999999e+00	 4.375000000000000e-01	 1.026221395769231e+01
0	 5.312499999999999e+00	 4.999999999999999e-01	 1.026314299999999e+01
0	 5.312500000000000e+00	 5.625000000000001e-01	 1.026357648846153e+01
0	 5.312499999999999e+00	 6.250000000000000e-01	 1.026351442307692e+01
0	 5.374999999999998e+00	 0.000000000000000e+00	 1.023455313230769e+01
0	 5.374999999999998e+00	 6.249999999999999e-02	 1.023872664676923e+01
0	 5.374999999999998e+00	 1.250000000000000e-01	 1.024245257969230e+01
0	 5.374999999999997e+00	 1.875000000000001e-01	 1.024573093107692e+01
0	 5.375000000000000e+00	 2.500000000000001e-01	 1.024856170092308e+01
0	 5.374999999999999e+00	 3.125000000000001e-01	 1.025094488923077e+01
0	 5.374999999999997e+00	 3.749999999999999e-01	 1.025288049600000e+01
0	 5.374999999999998e+00	 4.375000000000000e-01	 1.025436852123077e+01
0	 5.374999999999998e+00	 4.999999999999998e-01	 1.025540896492307e+01
0	 5.374999999999997e+00	 5.624999999999999e-01	 1.025600182707693e+01
0	 5.374999999999998e+00	 6.250000000000001e-01	 1.025614710769231e+01
0	 5.437499999999999e+00	 0.000000000000000e+00	 1.022774922153846e+01
0	 5.437499999999999e+00	 6.250000000000000e-02	 1.023162942323077e+01
0	 5.437499999999998e+00	 1.250000000000000e-01	 1.023511001569231e+01
0	 5.437499999999999e+00	 1.875000000000000e-01	 1.023819099892308e+01
0	 5.437499999999998e+00	 2.500000000000000e-01	 1.024087237292308e+01
0	 5.437500000000000e+00	 3.125000000000001e-01	 1.024315413769231e+01
0	 5.437499999999998e+00	 3.750000000000000e-01	 1.024503629323077e+01
0	 5.437499999999998e+00	 4.375000000000000e-01	 1.024651883953846e+01
0	 5.437500000000000e+00	 4.999999999999999e-01	 1.024760177661538e+01
0	 5.437499999999999e+00	 5.625000000000000e-01	 1.024828510446154e+01
0	 5.437499999999998e+00	 6.249999999999999e-01	 1.024856882307692e+01
0	 5.499999999999998e+00	 0.000000000000000e+00	 1.022142342153846e+01
0	 5.499999999999999e+00	 6.249999999999999e-02	 1.022494140246153e+01
0	 5.499999999999999e+00	 1.250000000000000e-01	 1.022810774646153e+01
0	 5.499999999999999e+00	 1.875000000000001e-01	 1.023092245353846e+01
0	 5.499999999999997e+00	 2.500000000000000e-01	 1.023338552369230e+01
0	 5.499999999999996e+00	 3.124999999999999e-01	 1.023549695692307e+01
0	 5.499999999999999e+00	 3.749999999999999e-01	 1.023725675323077e+01
0	 5.499999999999999e+00	 4.375000000000000e-01	 1.023866491261538e+01
0	 5.499999999999998e+00	 4.999999999999999e-01	 1.023972143507692e+01
0	 5.499999999999999e+00	 5.625000000000000e-01	 1.024042632061538e+01
0	 5.499999999999998e+00	 6.250000000000000e-01	 1.024077956923077e+01
0	 5.562499999999998e+00	 0.000000000000000e+00	 1.021557573230769e+01
0	 5.562499999999999e+00	 6.250000000000000e-02	 1.021866258446153e+01
0	 5.562499999999998e+00	 1.250000000000000e-01	 1.022144577199999e+01
0	 5.562499999999999e+00	 1.875000000000000e-01	 1.022392529492307e+01
0	 5.562499999999997e+00	 2.499999999999999e-01	 1.022610115323076e+01
0	 5.562499999999998e+00	 3.125000000000000e-01	 1.022797334692307e+01
0	 5.562499999999998e+00	 3.750000000000000e-01	 1.022954187600000e+01
0	 5.562499999999998e+00	 4.375000000000000e-01	 1.023080674046154e+01
0	 5.562499999999997e+00	 4.999999999999999e-01	 1.023176794030769e+01
0	 5.562499999999997e+00	 5.625000000000000e-01	 1.023242547553846e+01
0	 5.562499999999998e+00	 6.250000000000000e-01	 1.023277934615385e+01
0	 5.625000000000000e+00	 0.000000000000000e+00	 1.021020615384615e+01
0	 5.624999999999999e+00	 6.250000000000000e-02	 1.021279296923077e+01
0	 5.625000000000000e+00	 1.250000000000000e-01	 1.021512409230769e+01
0	 5.625000000000000e+00	 1.875000000000000e-01	 1.021719952307693e+01
0	 5.624999999999999e+00	 2.500000000000000e-01	 1.021901926153846e+01
0	 5.625000000000000e+00	 3.125000000000000e-01	 1.022058330769230e+01
0	 5.625000000000000e+00	 3.750000000000000e-01	 1.022189166153846e+01
0	 5.625000000000000e+00	 4.374999999999999e-01	 1.022294432307692e+01
0	 5.625000000000001e+00	 5.000000000000000e-01	 1.022374129230769e+01
0	 5.625000000000000e+00	 5.624999999999999e-01	 1.022428256923077e+01
0	 5.625000000000000e+00	 6.250000000000000e-01	 1.022456815384615e+01
0	 5.000000000000000e+00	 6.250000000000000e-01	 1.029718646153846e+01
0	 5.000000000000000e+00	 6.875000000000000e-01	 1.030441233846154e+01
0	 5.000000000000001e+00	 7.500000000000002e-01	 1.031127332307693e+01
0	 5.000000000000002e+00	 8.125000000000002e-01	 1.031776941538461e+01
0	 5.000000000000000e+00	 8.750000000000002e-01	 1.032390061538461e+01
0	 5.000000000000001e+00	 9.375000000000002e-01	 1.032966692307692e+01
0	 5.000000000000001e+00	 1.000000000000000e+00	 1.033506833846154e+01
0	 5.000000000000000e+00	 1.062500000000000e+00	 1.034010486153846e+01
0	 5.000000000000001e+00	 1.125000000000001e+00	 1.034477649230769e+01
0	 5.000000000000000e+00	 1.187500000000000e+00	 1.034908323076923e+01
0	 5.000000000000000e+00	 1.250000000000000e+00	 1.035302507692307e+01
0	 5.062500000000000e+00	 6.250000000000000e-01	 1.029087399230769e+01
0	 5.062500000000000e+00	 6.875000000000001e-01	 1.029745873953846e+01
0	 5.062500000000000e+00	 7.500000000000001e-01	 1.030369580984615e+01
0	 5.062500000000000e+00	 8.125000000000002e-01	 1.030958520323077e+01
0	 5.062500000000001e+00	 8.750000000000003e-01	 1.031512691969231e+01
0	 5.062500000000001e+00	 9.375000000000003e-01	 1.032032095923076e+01
0	 5.062500000000000e+00	 1.000000000000000e+00	 1.032516732184615e+01
0	 5.062500000000001e+00	 1.062500000000000e+00	 1.032966600753846e+01
0	 5.062499999999999e+00	 1.125000000000000e+00	 1.033381701630769e+01
0	 5.062499999999999e+00	 1.187500000000000e+00	 1.033762034815384e+01
0	 5.062500000000000e+00	 1.250000000000000e+00	 1.034107600307692e+01
0	 5.124999999999999e+00	 6.249999999999999e-01	 1.028435055384615e+01
0	 5.125000000000001e+00	 6.875000000000001e-01	 1.029036163200000e+01
0	 5.125000000000000e+00	 7.500000000000002e-01	 1.029604224861539e+01
0	 5.124999999999999e+00	 8.125000000000001e-01	 1.030139240369230e+01
0	 5.125000000000000e+00	 8.750000000000003e-01	 1.030641209723077e+01
0	 5.125000000000000e+00	 9.375000000000003e-01	 1.031110132923077e+01
0	 5.125000000000001e+00	 1.000000000000000e+00	 1.031546009969231e+01
0	 5.124999999999999e+00	 1.062500000000000e+00	 1.031948840861538e+01
0	 5.125000000000000e+00	 1.125000000000000e+00	 1.032318625600000e+01
0	 5.125000000000000e+00	 1.187500000000001e+00	 1.032655364184615e+01
0	 5.124999999999999e+00	 1.250000000000000e+00	 1.032959056615384e+01
0	 5.187500000000000e+00	 6.249999999999999e-01	 1.027761614615385e+01
0	 5.187500000000000e+00	 6.875000000000000e-01	 1.028312101584615e+01
0	 5.187500000000001e+00	 7.500000000000000e-01	 1.028831263938461e+01
0	 5.187499999999999e+00	 8.125000000000002e-01	 1.029319101676923e+01
0	 5.187499999999999e+00	 8.750000000000002e-01	 1.029775614800000e+01
0	 5.187499999999999e+00	 9.375000000000002e-01	 1.030200803307692e+01
0	 5.187499999999999e+00	 1.000000000000000e+00	 1.030594667200000e+01
0	 5.187499999999999e+00	 1.062500000000000e+00	 1.030957206476923e+01
0	 5.187499999999999e+00	 1.125000000000000e+00	 1.031288421138462e+01
0	 5.187500000000000e+00	 1.187500000000000e+00	 1.031588311184615e+01
0	 5.187500000000000e+00	 1.250000000000000e+00	 1.031856876615385e+01
0	 5.249999999999998e+00	 6.250000000000001e-01	 1.027067076923077e+01
0	 5.249999999999999e+00	 6.875000000000000e-01	 1.027573689107692e+01
0	 5.249999999999999e+00	 7.500000000000000e-01	 1.028050698215384e+01
0	 5.249999999999998e+00	 8.125000000000001e-01	 1.028498104246154e+01
0	 5.250000000000000e+00	 8.750000000000003e-01	 1.028915907200000e+01
0	 5.249999999999997e+00	 9.375000000000000e-01	 1.029304107076923e+01
0	 5.250000000000000e+00	 1.000000000000000e+00	 1.029662703876923e+01
0	 5.250000000000000e+00	 1.062500000000000e+00	 1.029991697600000e+01
0	 5.249999999999999e+00	 1.125000000000000e+00	 1.030291088246154e+01
0	 5.250000000000000e+00	 1.187500000000000e+00	 1.030560875815385e+01
0	 5.249999999999998e+00	 1.250000000000000e+00	 1.030801060307692e+01
0	 5.312499999999999e+00	 6.250000000000000e-01	 1.026351442307692e+01
0	 5.312499999999997e+00	 6.875000000000000e-01	 1.026820925769230e+01
0	 5.312499999999999e+00	 7.500000000000001e-01	 1.027262527692308e+01
0	 5.312499999999999e+00	 8.125000000000002e-01	 1.027676248076923e+01
0	 5.312499999999999e+00	 8.750000000000003e-01	 1.028062086923076e+01
0	 5.312499999999999e+00	 9.375000000000002e-01	 1.028420044230769e+01
0	 5.312499999999999e+00	 1.000000000000000e+00	 1.028750120000000e+01
0	 5.312500000000000e+00	 1.062500000000000e+00	 1.029052314230769e+01
0	 5.312499999999999e+00	 1.125000000000000e+00	 1.029326626923077e+01
0	 5.312499999999998e+00	 1.187500000000001e+00	 1.029573058076923e+01
0	 5.312499999999999e+00	 1.250000000000000e+00	 1.029791607692307e+01
0	 5.374999999999998e+00	 6.250000000000001e-01	 1.025614710769231e+01
0	 5.374999999999996e+00	 6.874999999999999e-01	 1.026053811569231e+01
0	 5.375000000000000e+00	 7.500000000000003e-01	 1.026466752369230e+01
0	 5.374999999999998e+00	 8.125000000000000e-01	 1.026853533169231e+01
0	 5.374999999999998e+00	 8.750000000000001e-01	 1.027214153969231e+01
0	 5.374999999999998e+00	 9.375000000000003e-01	 1.027548614769230e+01
0	 5.374999999999998e+00	 1.000000000000000e+00	 1.027856915569231e+01
0	 5.374999999999998e+00	 1.062500000000000e+00	 1.028139056369231e+01
0	 5.375000000000000e+00	 1.125000000000000e+00	 1.028395037169230e+01
0	 5.374999999999997e+00	 1.187500000000000e+00	 1.028624857969230e+01
0	 5.374999999999998e+00	 1.250000000000000e+00	 1.028828518769231e+01
0	 5.437499999999998e+00	 6.249999999999999e-01	 1.024856882307692e+01
0	 5.437499999999999e+00	 6.875000000000000e-01	 1.025272346507692e+01
0	 5.437499999999998e+00	 7.500000000000002e-01	 1.025663372246153e+01
0	 5.437499999999998e+00	 8.125000000000000e-01	 1.026029959523077e+01
0	 5.437499999999999e+00	 8.750000000000002e-01	 1.026372108338461e+01
0	 5.437499999999999e+00	 9.375000000000004e-01	 1.026689818692307e+01
0	 5.437499999999999e+00	 1.000000000000000e+00	 1.026983090584615e+01
0	 5.437499999999999e+00	 1.062500000000001e+00	 1.027251924015385e+01
0	 5.437499999999999e+00	 1.125000000000000e+00	 1.027496318984615e+01
0	 5.437499999999999e+00	 1.187500000000000e+00	 1.027716275492307e+01
0	 5.437499999999998e+00	 1.250000000000000e+00	 1.027911793538461e+01
0	 5.499999999999998e+00	 6.250000000000000e-01	 1.024077956923077e+01
0	 5.499999999999999e+00	 6.875000000000000e-01	 1.024476530584615e+01
0	 5.499999999999997e+00	 7.500000000000000e-01	 1.024852387323077e+01
0	 5.499999999999997e+00	 8.125000000000001e-01	 1.025205527138462e+01
0	 5.499999999999998e+00	 8.750000000000003e-01	 1.025535950030769e+01
0	 5.499999999999998e+00	 9.375000000000002e-01	 1.025843656000000e+01
0	 5.499999999999998e+00	 1.000000000000001e+00	 1.026128645046153e+01
0	 5.499999999999999e+00	 1.062500000000000e+00	 1.026390917169230e+01
0	 5.499999999999998e+00	 1.125000000000000e+00	 1.026630472369230e+01
0	 5.499999999999998e+00	 1.187500000000000e+00	 1.026847310646154e+01
0	 5.499999999999998e+00	 1.250000000000000e+00	 1.027041431999999e+01
0	 5.562499999999998e+00	 6.250000000000000e-01	 1.023277934615385e+01
0	 5.562499999999999e+00	 6.875000000000002e-01	 1.023666363800000e+01
0	 5.562499999999998e+00	 7.500000000000001e-01	 1.024033797600000e+01
0	 5.562499999999996e+00	 8.125000000000001e-01	 1.024380236015385e+01
0	 5.562499999999998e+00	 8.750000000000002e-01	 1.024705679046154e+01
0	 5.562499999999998e+00	 9.375000000000002e-01	 1.025010126692307e+01
0	 5.562499999999998e+00	 1.000000000000000e+00	 1.025293578953846e+01
0	 5.562499999999998e+00	 1.062500000000000e+00	 1.025556035830769e+01
0	 5.562499999999996e+00	 1.125000000000000e+00	 1.025797497323077e+01
0	 5.562499999999998e+00	 1.187500000000000e+00	 1.026017963430769e+01
0	 5.562499999999998e+00	 1.250000000000000e+00	 1.026217434153845e+01
0	 5.625000000000000e+00	 6.250000000000000e-01	 1.022456815384615e+01
0	 5.624999999999999e+00	 6.875000000000000e-01	 1.022841846153846e+01
0	 5.625000000000000e+00	 7.500000000000002e-01	 1.023207603076923e+01
0	 5.625000000000000e+00	 8.125000000000002e-01	 1.023554086153846e+01
0	 5.625000000000000e+00	 8.750000000000002e-01	 1.023881295384615e+01
0	 5.625000000000000e+00	 9.375000000000002e-01	 1.024189230769230e+01
0	 5.625000000000000e+00	 1.000000000000000e+00	 1.024477892307692e+01
0	 5.625000000000000e+00	 1.062500000000000e+00	 1.024747280000000e+01
0	 5.625000000000002e+00	 1.125000000000001e+00	 1.024997393846154e+01
0	 5.625000000000000e+00	 1.187500000000000e+00	 1.025228233846154e+01
0	 5.625000000000000e+00	 1.250000000000000e+00	 1.025439799999999e+01
0	 5.000000000000000e+00	 1.250000000000000e+00	 1.035302507692307e+01
0	 5.000000000000000e+00	 1.312500000000000e+00	 1.035603400000000e+01
0	 5.000000000000001e+00	 1.375000000000000e+00	 1.035920086153846e+01
0	 5.000000000000002e+00	 1.437500000000000e+00	 1.036252566153846e+01
0	 5.000000000000000e+00	 1.500000000000000e+00	 1.036600839999999e+01
0	 5.000000000000001e+00	 1.562500000000000e+00	 1.036964907692307e+01
0	 5.000000000000001e+00	 1.625000000000000e+00	 1.037344769230769e+01
0	 5.000000000000000e+00	 1.687500000000000e+00	 1.037740424615385e+01
0	 5.000000000000001e+00	 1.750000000000001e+00	 1.038151873846154e+01
0	 5.000000000000000e+00	 1.812500000000000e+00	 1.038579116923077e+01
0	 5.000000000000000e+00	 1.875000000000000e+00	 1.039022153846154e+01
0	 5.062500000000000e+00	 1.250000000000000e+00	 1.034107600307692e+01
0	 5.062500000000000e+00	 1.312500000000000e+00	 1.034427415661538e+01
0	 5.062500000000000e+00	 1.375000000000000e+00	 1.034760955323076e+01
0	 5.062500000000000e+00	 1.437500000000000e+00	 1.035108219292307e+01
0	 5.062500000000001e+00	 1.500000000000000e+00	 1.035469207569231e+01
0	 5.062500000000001e+00	 1.562500000000000e+00	 1.035843920153846e+01
0	 5.062500000000000e+00	 1.625000000000000e+00	 1.036232357046154e+01
0	 5.062500000000001e+00	 1.687500000000000e+00	 1.036634518246153e+01
0	 5.062499999999999e+00	 1.750000000000000e+00	 1.037050403753846e+01
0	 5.062499999999999e+00	 1.812500000000000e+00	 1.037480013569231e+01
0	 5.062500000000000e+00	 1.875000000000000e+00	 1.037923347692308e+01
0	 5.124999999999999e+00	 1.250000000000000e+00	 1.032959056615384e+01
0	 5.125000000000001e+00	 1.312500000000000e+00	 1.033295372800000e+01
0	 5.125000000000000e+00	 1.375000000000000e+00	 1.033643343753846e+01
0	 5.124999999999999e+00	 1.437500000000000e+00	 1.034002969476923e+01
0	 5.125000000000000e+00	 1.500000000000000e+00	 1.034374249969231e+01
0	 5.125000000000000e+00	 1.562500000000000e+00	 1.034757185230769e+01
0	 5.125000000000001e+00	 1.625000000000000e+00	 1.035151775261539e+01
0	 5.124999999999999e+00	 1.687500000000000e+00	 1.035558020061539e+01
0	 5.125000000000000e+00	 1.750000000000001e+00	 1.035975919630769e+01
0	 5.125000000000000e+00	 1.812500000000001e+00	 1.036405473969231e+01
0	 5.124999999999999e+00	 1.875000000000000e+00	 1.036846683076922e+01
0	 5.187500000000000e+00	 1.250000000000000e+00	 1.031856876615385e+01
0	 5.187500000000000e+00	 1.312500000000000e+00	 1.032207271415385e+01
0	 5.187500000000001e+00	 1.375000000000000e+00	 1.032567251446154e+01
0	 5.187499999999999e+00	 1.437500000000000e+00	 1.032936816707692e+01
0	 5.187499999999999e+00	 1.500000000000000e+00	 1.033315967200000e+01
0	 5.187499999999999e+00	 1.562500000000000e+00	 1.033704702923077e+01
0	 5.187499999999999e+00	 1.625000000000000e+00	 1.034103023876923e+01
0	 5.187499999999999e+00	 1.687500000000000e+00	 1.034510930061539e+01
0	 5.187499999999999e+00	 1.750000000000000e+00	 1.034928421476923e+01
0	 5.187500000000000e+00	 1.812500000000000e+00	 1.035355498123076e+01
0	 5.187500000000000e+00	 1.875000000000000e+00	 1.035792160000001e+01
0	 5.249999999999998e+00	 1.250000000000000e+00	 1.030801060307692e+01
0	 5.249999999999999e+00	 1.312500000000000e+00	 1.031163111507692e+01
0	 5.249999999999999e+00	 1.375000000000000e+00	 1.031532678399999e+01
0	 5.249999999999998e+00	 1.437500000000000e+00	 1.031909760984615e+01
0	 5.250000000000000e+00	 1.500000000000000e+00	 1.032294359261539e+01
0	 5.249999999999997e+00	 1.562500000000000e+00	 1.032686473230769e+01
0	 5.250000000000000e+00	 1.625000000000001e+00	 1.033086102892308e+01
0	 5.250000000000000e+00	 1.687500000000000e+00	 1.033493248246153e+01
0	 5.249999999999999e+00	 1.750000000000001e+00	 1.033907909292308e+01
0	 5.250000000000000e+00	 1.812500000000000e+00	 1.034330086030769e+01
0	 5.249999999999998e+00	 1.875000000000000e+00	 1.034759778461538e+01
0	 5.312499999999999e+00	 1.250000000000000e+00	 1.029791607692307e+01
0	 5.312499999999997e+00	 1.312500000000000e+00	 1.030162893076922e+01
0	 5.312499999999999e+00	 1.375000000000000e+00	 1.030539624615385e+01
0	 5.312499999999999e+00	 1.437500000000000e+00	 1.030921802307692e+01
0	 5.312499999999999e+00	 1.500000000000000e+00	 1.031309426153846e+01
0	 5.312499999999999e+00	 1.562500000000000e+00	 1.031702496153846e+01
0	 5.312499999999999e+00	 1.625000000000000e+00	 1.032101012307692e+01
0	 5.312500000000000e+00	 1.687500000000000e+00	 1.032504974615384e+01
0	 5.312499999999999e+00	 1.750000000000000e+00	 1.032914383076923e+01
0	 5.312499999999998e+00	 1.812500000000000e+00	 1.033329237692307e+01
0	 5.312499999999999e+00	 1.875000000000000e+00	 1.033749538461539e+01
0	 5.374999999999998e+00	 1.250000000000000e+00	 1.028828518769231e+01
0	 5.374999999999996e+00	 1.312500000000000e+00	 1.029206616123077e+01
0	 5.375000000000000e+00	 1.375000000000000e+00	 1.029588090092307e+01
0	 5.374999999999998e+00	 1.437500000000000e+00	 1.029972940676923e+01
0	 5.374999999999998e+00	 1.500000000000000e+00	 1.030361167876923e+01
0	 5.374999999999998e+00	 1.562500000000000e+00	 1.030752771692307e+01
0	 5.374999999999998e+00	 1.625000000000000e+00	 1.031147752123077e+01
0	 5.374999999999998e+00	 1.687500000000000e+00	 1.031546109169231e+01
0	 5.375000000000000e+00	 1.750000000000000e+00	 1.031947842830769e+01
0	 5.374999999999997e+00	 1.812500000000000e+00	 1.032352953107692e+01
0	 5.374999999999998e+00	 1.875000000000000e+00	 1.032761440000000e+01
0	 5.437499999999998e+00	 1.250000000000000e+00	 1.027911793538461e+01
0	 5.437499999999999e+00	 1.312500000000000e+00	 1.028294280646153e+01
0	 5.437499999999998e+00	 1.375000000000000e+00	 1.028678074830769e+01
0	 5.437499999999998e+00	 1.437500000000000e+00	 1.029063176092307e+01
0	 5.437499999999999e+00	 1.500000000000001e+00	 1.029449584430769e+01
0	 5.437499999999999e+00	 1.562500000000000e+00	 1.029837299846154e+01
0	 5.437499999999999e+00	 1.625000000000000e+00	 1.030226322338462e+01
0	 5.437499999999999e+00	 1.687500000000000e+00	 1.030616651907692e+01
0	 5.437499999999999e+00	 1.750000000000000e+00	 1.031008288553846e+01
0	 5.437499999999999e+00	 1.812500000000000e+00	 1.031401232276923e+01
0	 5.437499999999998e+00	 1.875000000000000e+00	 1.031795483076924e+01
0	 5.499999999999998e+00	 1.250000000000000e+00	 1.027041431999999e+01
0	 5.499999999999999e+00	 1.312500000000000e+00	 1.027425886646154e+01
0	 5.499999999999997e+00	 1.375000000000000e+00	 1.027809578830769e+01
0	 5.499999999999997e+00	 1.437500000000000e+00	 1.028192508553846e+01
0	 5.499999999999998e+00	 1.500000000000000e+00	 1.028574675815385e+01
0	 5.499999999999998e+00	 1.562500000000000e+00	 1.028956080615384e+01
0	 5.499999999999998e+00	 1.625000000000001e+00	 1.029336722953845e+01
0	 5.499999999999999e+00	 1.687500000000000e+00	 1.029716602830769e+01
0	 5.499999999999998e+00	 1.750000000000000e+00	 1.030095720246154e+01
0	 5.499999999999998e+00	 1.812500000000001e+00	 1.030474075200000e+01
0	 5.499999999999998e+00	 1.875000000000000e+00	 1.030851667692308e+01
0	 5.562499999999998e+00	 1.250000000000000e+00	 1.026217434153845e+01
0	 5.562499999999999e+00	 1.312500000000000e+00	 1.026601434123076e+01
0	 5.562499999999998e+00	 1.375000000000000e+00	 1.026982602092308e+01
0	 5.562499999999996e+00	 1.437500000000000e+00	 1.027360938061538e+01
0	 5.562499999999998e+00	 1.500000000000000e+00	 1.027736442030769e+01
0	 5.562499999999998e+00	 1.562500000000000e+00	 1.028109114000000e+01
0	 5.562499999999998e+00	 1.625000000000000e+00	 1.028478953969230e+01
0	 5.562499999999998e+00	 1.687500000000000e+00	 1.028845961938461e+01
0	 5.562499999999996e+00	 1.750000000000000e+00	 1.029210137907692e+01
0	 5.562499999999998e+00	 1.812500000000000e+00	 1.029571481876924e+01
0	 5.562499999999998e+00	 1.875000000000000e+00	 1.029929993846154e+01
0	 5.625000000000000e+00	 1.250000000000000e+00	 1.025439799999999e+01
0	 5.624999999999999e+00	 1.312500000000000e+00	 1.025820923076922e+01
0	 5.625000000000000e+00	 1.375000000000000e+00	 1.026197144615384e+01
0	 5.625000000000000e+00	 1.437500000000000e+00	 1.026568464615385e+01
0	 5.625000000000000e+00	 1.500000000000000e+00	 1.026934883076922e+01
0	 5.625000000000000e+00	 1.562500000000000e+00	 1.027296399999999e+01
0	 5.625000000000000e+00	 1.625000000000000e+00	 1.027653015384615e+01
0	 5.625000000000000e+00	 1.687500000000000e+00	 1.028004729230769e+01
0	 5.625000000000002e+00	 1.750000000000001e+00	 1.028351541538461e+01
0	 5.625000000000000e+00	 1.812500000000000e+00	 1.028693452307692e+01
0	 5.625000000000000e+00	 1.875000000000000e+00	 1.029030461538461e+01
0	 5.000000000000000e+00	 1.875000000000000e+00	 1.039022153846154e+01
0	 5.000000000000000e+00	 1.937500000000000e+00	 1.039127589230770e+01
0	 5.000000000000001e+00	 2.000000000000000e+00	 1.039252603076923e+01
0	 5.000000000000002e+00	 2.062500000000000e+00	 1.039397195384615e+01
0	 5.000000000000000e+00	 2.125000000000000e+00	 1.039561366153846e+01
0	 5.000000000000001e+00	 2.187500000000000e+00	 1.039745115384616e+01
0	 5.000000000000001e+00	 2.250000000000000e+00	 1.039948443076923e+01
0	 5.000000000000000e+00	 2.312500000000000e+00	 1.040171349230770e+01
0	 5.000000000000001e+00	 2.375000000000001e+00	 1.040413833846155e+01
0	 5.000000000000000e+00	 2.437500000000001e+00	 1.040675896923078e+01
0	 5.000000000000000e+00	 2.500000000000000e+00	 1.040957538461539e+01
0	 5.062500000000000e+00	 1.875000000000000e+00	 1.037923347692308e+01
0	 5.062500000000000e+00	 1.937500000000000e+00	 1.038016066000000e+01
0	 5.062500000000000e+00	 2.000000000000000e+00	 1.038128025846153e+01
0	 5.062500000000000e+00	 2.062500000000000e+00	 1.038259227230769e+01
0	 5.062500000000001e+00	 2.125000000000001e+00	 1.038409670153847e+01
0	 5.062500000000001e+00	 2.187500000000000e+00	 1.038579354615385e+01
0	 5.062500000000000e+00	 2.250000000000000e+00	 1.038768280615385e+01
0	 5.062500000000001e+00	 2.312500000000000e+00	 1.038976448153846e+01
0	 5.062499999999999e+00	 2.375000000000000e+00	 1.039203857230770e+01
0	 5.062499999999999e+00	 2.437500000000000e+00	 1.039450507846154e+01
0	 5.062500000000000e+00	 2.500000000000000e+00	 1.039716400000000e+01
0	 5.124999999999999e+00	 1.875000000000000e+00	 1.036846683076922e+01
0	 5.125000000000001e+00	 1.937500000000000e+00	 1.036929273230770e+01
0	 5.125000000000000e+00	 2.000000000000000e+00	 1.037030768000001e+01
0	 5.124999999999999e+00	 2.062500000000000e+00	 1.037151167384615e+01
0	 5.125000000000000e+00	 2.125000000000000e+00	 1.037290471384616e+01
0	 5.125000000000000e+00	 2.187500000000001e+00	 1.037448680000001e+01
0	 5.125000000000001e+00	 2.250000000000000e+00	 1.037625793230769e+01
0	 5.124999999999999e+00	 2.312500000000000e+00	 1.037821811076923e+01
0	 5.125000000000000e+00	 2.375000000000000e+00	 1.038036733538463e+01
0	 5.125000000000000e+00	 2.437500000000000e+00	 1.038270560615385e+01
0	 5.124999999999999e+00	 2.500000000000000e+00	 1.038523292307693e+01
0	 5.187500000000000e+00	 1.875000000000000e+00	 1.035792160000001e+01
0	 5.187500000000000e+00	 1.937500000000000e+00	 1.035867210923076e+01
0	 5.187500000000001e+00	 2.000000000000000e+00	 1.035960829538461e+01
0	 5.187499999999999e+00	 2.062500000000000e+00	 1.036073015846154e+01
0	 5.187499999999999e+00	 2.125000000000001e+00	 1.036203769846154e+01
0	 5.187499999999999e+00	 2.187500000000000e+00	 1.036353091538461e+01
0	 5.187499999999999e+00	 2.250000000000000e+00	 1.036520980923077e+01
0	 5.187499999999999e+00	 2.312500000000000e+00	 1.036707438000000e+01
0	 5.187499999999999e+00	 2.375000000000000e+00	 1.036912462769231e+01
0	 5.187500000000000e+00	 2.437500000000000e+00	 1.037136055230770e+01
0	 5.187500000000000e+00	 2.500000000000000e+00	 1.037378215384616e+01
0	 5.249999999999998e+00	 1.875000000000000e+00	 1.034759778461538e+01
0	 5.249999999999999e+00	 1.937500000000000e+00	 1.034829879076922e+01
0	 5.249999999999999e+00	 2.000000000000000e+00	 1.034918210461539e+01
0	 5.249999999999998e+00	 2.062500000000000e+00	 1.035024772615385e+01
0	 5.250000000000000e+00	 2.125000000000000e+00	 1.035149565538462e+01
0	 5.249999999999997e+00	 2.187500000000000e+00	 1.035292589230770e+01
0	 5.250000000000000e+00	 2.250000000000000e+00	 1.035453843692308e+01
0	 5.250000000000000e+00	 2.312500000000000e+00	 1.035633328923076e+01
0	 5.249999999999999e+00	 2.375000000000000e+00	 1.035831044923076e+01
0	 5.250000000000000e+00	 2.437500000000000e+00	 1.036046991692308e+01
0	 5.249999999999998e+00	 2.500000000000000e+00	 1.036281169230770e+01
0	 5.312499999999999e+00	 1.875000000000000e+00	 1.033749538461539e+01
0	 5.312499999999997e+00	 1.937500000000000e+00	 1.033817277692308e+01
0	 5.312499999999999e+00	 2.000000000000000e+00	 1.033902910769230e+01
0	 5.312499999999999e+00	 2.062500000000000e+00	 1.034006437692308e+01
0	 5.312499999999999e+00	 2.125000000000000e+00	 1.034127858461538e+01
0	 5.312499999999999e+00	 2.187500000000000e+00	 1.034267173076923e+01
0	 5.312499999999999e+00	 2.250000000000000e+00	 1.034424381538462e+01
0	 5.312500000000000e+00	 2.312500000000001e+00	 1.034599483846154e+01
0	 5.312499999999999e+00	 2.375000000000000e+00	 1.034792480000000e+01
0	 5.312499999999998e+00	 2.437500000000000e+00	 1.035003370000000e+01
0	 5.312499999999999e+00	 2.500000000000000e+00	 1.035232153846154e+01
0	 5.374999999999998e+00	 1.875000000000000e+00	 1.032761440000000e+01
0	 5.374999999999996e+00	 1.937500000000000e+00	 1.032829406769231e+01
0	 5.375000000000000e+00	 2.000000000000000e+00	 1.032914930461538e+01
0	 5.374999999999998e+00	 2.062500000000000e+00	 1.033018011076923e+01
0	 5.374999999999998e+00	 2.125000000000000e+00	 1.033138648615384e+01
0	 5.374999999999998e+00	 2.187500000000000e+00	 1.033276843076924e+01
0	 5.374999999999998e+00	 2.250000000000000e+00	 1.033432594461538e+01
0	 5.374999999999998e+00	 2.312500000000000e+00	 1.033605902769231e+01
0	 5.375000000000000e+00	 2.375000000000001e+00	 1.033796768000000e+01
0	 5.374999999999997e+00	 2.437500000000000e+00	 1.034005190153847e+01
0	 5.374999999999998e+00	 2.500000000000000e+00	 1.034231169230770e+01
0	 5.437499999999998e+00	 1.875000000000000e+00	 1.031795483076924e+01
0	 5.437499999999999e+00	 1.937500000000000e+00	 1.031866266307692e+01
0	 5.437499999999998e+00	 2.000000000000001e+00	 1.031954269538462e+01
0	 5.437499999999998e+00	 2.062500000000000e+00	 1.032059492769231e+01
0	 5.437499999999999e+00	 2.125000000000001e+00	 1.032181935999999e+01
0	 5.437499999999999e+00	 2.187500000000000e+00	 1.032321599230769e+01
0	 5.437499999999999e+00	 2.250000000000000e+00	 1.032478482461538e+01
0	 5.437499999999999e+00	 2.312500000000001e+00	 1.032652585692308e+01
0	 5.437499999999999e+00	 2.375000000000000e+00	 1.032843908923077e+01
0	 5.437499999999999e+00	 2.437500000000000e+00	 1.033052452153847e+01
0	 5.437499999999998e+00	 2.500000000000000e+00	 1.033278215384615e+01
0	 5.499999999999998e+00	 1.875000000000000e+00	 1.030851667692308e+01
0	 5.499999999999999e+00	 1.937500000000000e+00	 1.030927856307693e+01
0	 5.499999999999997e+00	 2.000000000000000e+00	 1.031020928000000e+01
0	 5.499999999999997e+00	 2.062500000000000e+00	 1.031130882769231e+01
0	 5.499999999999998e+00	 2.125000000000000e+00	 1.031257720615384e+01
0	 5.499999999999998e+00	 2.187500000000000e+00	 1.031401441538461e+01
0	 5.499999999999998e+00	 2.250000000000000e+00	 1.031562045538461e+01
0	 5.499999999999999e+00	 2.312500000000000e+00	 1.031739532615384e+01
0	 5.499999999999998e+00	 2.375000000000000e+00	 1.031933902769231e+01
0	 5.499999999999998e+00	 2.437500000000001e+00	 1.032145156000000e+01
0	 5.499999999999998e+00	 2.500000000000000e+00	 1.032373292307692e+01
0	 5.562499999999998e+00	 1.875000000000000e+00	 1.029929993846154e+01
0	 5.562499999999999e+00	 1.937500000000000e+00	 1.030014176769231e+01
0	 5.562499999999998e+00	 2.000000000000000e+00	 1.030114905846154e+01
0	 5.562499999999996e+00	 2.062500000000000e+00	 1.030232181076924e+01
0	 5.562499999999998e+00	 2.125000000000000e+00	 1.030366002461539e+01
0	 5.562499999999998e+00	 2.187500000000000e+00	 1.030516370000000e+01
0	 5.562499999999998e+00	 2.250000000000000e+00	 1.030683283692307e+01
0	 5.562499999999998e+00	 2.312500000000000e+00	 1.030866743538461e+01
0	 5.562499999999996e+00	 2.375000000000000e+00	 1.031066749538461e+01
0	 5.562499999999998e+00	 2.437500000000000e+00	 1.031283301692307e+01
0	 5.562499999999998e+00	 2.500000000000000e+00	 1.031516400000000e+01
0	 5.625000000000000e+00	 1.875000000000000e+00	 1.029030461538461e+01
0	 5.624999999999999e+00	 1.937500000000000e+00	 1.029125227692308e+01
0	 5.625000000000000e+00	 2.000000000000000e+00	 1.029236203076923e+01
0	 5.625000000000000e+00	 2.062500000000000e+00	 1.029363387692308e+01
0	 5.625000000000000e+00	 2.125000000000000e+00	 1.029506781538461e+01
0	 5.625000000000000e+00	 2.187500000000000e+00	 1.029666384615384e+01
0	 5.625000000000000e+00	 2.250000000000000e+00	 1.029842196923076e+01
0	 5.625000000000000e+00	 2.312500000000000e+00	 1.030034218461538e+01
0	 5.625000000000002e+00	 2.375000000000001e+00	 1.030242449230770e+01
0	 5.625000000000000e+00	 2.437500000000001e+00	 1.030466889230769e+01
0	 5.625000000000000e+00	 2.500000000000000e+00	 1.030707538461538e+01
0	 5.000000000000000e+00	 2.500000000000000e+00	 1.040957538461539e+01
0	 4.999999999999999e+00	 2.562500000000000e+00	 1.040570293846155e+01
0	 5.000000000000001e+00	 2.625000000000000e+00	 1.040219667692308e+01
0	 4.999999999999999e+00	 2.687499999999999e+00	 1.039905660000000e+01
0	 5.000000000000000e+00	 2.750000000000000e+00	 1.039628270769231e+01
0	 4.999999999999999e+00	 2.812499999999999e+00	 1.039387500000000e+01
0	 5.000000000000000e+00	 2.874999999999999e+00	 1.039183347692307e+01
0	 4.999999999999999e+00	 2.937499999999998e+00	 1.039015813846154e+01
0	 5.000000000000000e+00	 2.999999999999998e+00	 1.038884898461538e+01
0	 5.000000000000000e+00	 3.062499999999998e+00	 1.038790601538462e+01
0	 5.000000000000000e+00	 3.125000000000000e+00	 1.038732923076923e+01
0	 5.062500000000000e+00	 2.500000000000000e+00	 1.039716400000000e+01
0	 5.062499999999999e+00	 2.562500000000000e+00	 1.039375651692308e+01
0	 5.062499999999999e+00	 2.624999999999999e+00	 1.039069673846154e+01
0	 5.062500000000001e+00	 2.687499999999999e+00	 1.038798466461538e+01
0	 5.062500000000000e+00	 2.750000000000000e+00	 1.038562029538462e+01
0	 5.062500000000002e+00	 2.812499999999999e+00	 1.038360363076923e+01
0	 5.062500000000001e+00	 2.875000000000000e+00	 1.038193467076923e+01
0	 5.062500000000002e+00	 2.937499999999999e+00	 1.038061341538462e+01
0	 5.062500000000002e+00	 2.999999999999999e+00	 1.037963986461538e+01
0	 5.062499999999999e+00	 3.062499999999997e+00	 1.037901401846154e+01
0	 5.062500000000000e+00	 3.125000000000000e+00	 1.037873587692307e+01
0	 5.124999999999999e+00	 2.500000000000000e+00	 1.038523292307693e+01
0	 5.125000000000000e+00	 2.562500000000000e+00	 1.038225284000001e+01
0	 5.124999999999999e+00	 2.625000000000000e+00	 1.037960198153847e+01
0	 5.124999999999998e+00	 2.687500000000000e+00	 1.037728034769232e+01
0	 5.125000000000000e+00	 2.749999999999999e+00	 1.037528793846154e+01
0	 5.124999999999999e+00	 2.812499999999999e+00	 1.037362475384616e+01
0	 5.125000000000000e+00	 2.874999999999999e+00	 1.037229079384616e+01
0	 5.125000000000000e+00	 2.937499999999999e+00	 1.037128605846154e+01
0	 5.124999999999998e+00	 2.999999999999998e+00	 1.037061054769231e+01
0	 5.125000000000000e+00	 3.062499999999999e+00	 1.037026426153845e+01
0	 5.124999999999999e+00	 3.125000000000000e+00	 1.037024720000000e+01
0	 5.187500000000000e+00	 2.500000000000000e+00	 1.037378215384616e+01
0	 5.187500000000000e+00	 2.562500000000000e+00	 1.037119190769231e+01
0	 5.187500000000000e+00	 2.625000000000000e+00	 1.036891240615385e+01
0	 5.187500000000001e+00	 2.687499999999999e+00	 1.036694364923077e+01
0	 5.187499999999999e+00	 2.749999999999999e+00	 1.036528563692307e+01
0	 5.187500000000000e+00	 2.812499999999999e+00	 1.036393836923077e+01
0	 5.187500000000000e+00	 2.874999999999999e+00	 1.036290184615384e+01
0	 5.187499999999999e+00	 2.937499999999999e+00	 1.036217606769232e+01
0	 5.187500000000000e+00	 2.999999999999999e+00	 1.036176103384615e+01
0	 5.187499999999999e+00	 3.062499999999998e+00	 1.036165674461539e+01
0	 5.187500000000000e+00	 3.125000000000000e+00	 1.036186320000001e+01
0	 5.249999999999998e+00	 2.500000000000000e+00	 1.036281169230770e+01
0	 5.249999999999999e+00	 2.562500000000000e+00	 1.036057372000000e+01
0	 5.250000000000000e+00	 2.625000000000000e+00	 1.035862801230770e+01
0	 5.249999999999999e+00	 2.687500000000000e+00	 1.035697456923077e+01
0	 5.249999999999998e+00	 2.750000000000000e+00	 1.035561339076923e+01
0	 5.250000000000000e+00	 2.812499999999999e+00	 1.035454447692308e+01
0	 5.249999999999999e+00	 2.874999999999999e+00	 1.035376782769231e+01
0	 5.249999999999999e+00	 2.937499999999998e+00	 1.035328344307692e+01
0	 5.249999999999998e+00	 2.999999999999999e+00	 1.035309132307692e+01
0	 5.249999999999999e+00	 3.062499999999998e+00	 1.035319146769231e+01
0	 5.249999999999998e+00	 3.125000000000000e+00	 1.035358387692308e+01
0	 5.312499999999999e+00	 2.500000000000000e+00	 1.035232153846154e+01
0	 5.312499999999999e+00	 2.562499999999999e+00	 1.035039827692308e+01
0	 5.312499999999999e+00	 2.625000000000000e+00	 1.034874880000000e+01
0	 5.312499999999999e+00	 2.687500000000000e+00	 1.034737310769231e+01
0	 5.312499999999998e+00	 2.749999999999999e+00	 1.034627120000000e+01
0	 5.312499999999999e+00	 2.812499999999999e+00	 1.034544307692308e+01
0	 5.312500000000000e+00	 2.874999999999999e+00	 1.034488873846154e+01
0	 5.312499999999999e+00	 2.937499999999998e+00	 1.034460818461539e+01
0	 5.312499999999998e+00	 2.999999999999998e+00	 1.034460141538461e+01
0	 5.312499999999999e+00	 3.062499999999998e+00	 1.034486843076923e+01
0	 5.312499999999999e+00	 3.125000000000000e+00	 1.034540923076923e+01
0	 5.374999999999998e+00	 2.500000000000000e+00	 1.034231169230770e+01
0	 5.374999999999999e+00	 2.562500000000000e+00	 1.034066557846153e+01
0	 5.374999999999998e+00	 2.625000000000000e+00	 1.033927476923077e+01
0	 5.374999999999999e+00	 2.687500000000000e+00	 1.033813926461539e+01
0	 5.375000000000000e+00	 2.750000000000000e+00	 1.033725906461539e+01
0	 5.375000000000000e+00	 2.812500000000000e+00	 1.033663416923077e+01
0	 5.374999999999999e+00	 2.874999999999999e+00	 1.033626457846153e+01
0	 5.374999999999999e+00	 2.937499999999999e+00	 1.033615029230769e+01
0	 5.374999999999999e+00	 2.999999999999999e+00	 1.033629131076922e+01
0	 5.374999999999998e+00	 3.062499999999998e+00	 1.033668763384616e+01
0	 5.374999999999998e+00	 3.125000000000000e+00	 1.033733926153845e+01
0	 5.437499999999998e+00	 2.500000000000000e+00	 1.033278215384615e+01
0	 5.437499999999998e+00	 2.562500000000000e+00	 1.033137562461538e+01
0	 5.437499999999999e+00	 2.625000000000000e+00	 1.033020592000000e+01
0	 5.437499999999999e+00	 2.687500000000000e+00	 1.032927304000000e+01
0	 5.437499999999999e+00	 2.749999999999999e+00	 1.032857698461538e+01
0	 5.437499999999999e+00	 2.812499999999999e+00	 1.032811775384616e+01
0	 5.437499999999999e+00	 2.874999999999999e+00	 1.032789534769231e+01
0	 5.437499999999999e+00	 2.937499999999998e+00	 1.032790976615385e+01
0	 5.437499999999999e+00	 2.999999999999998e+00	 1.032816100923078e+01
0	 5.437499999999999e+00	 3.062499999999998e+00	 1.032864907692308e+01
0	 5.437499999999998e+00	 3.125000000000000e+00	 1.032937396923078e+01
0	 5.499999999999998e+00	 2.500000000000000e+00	 1.032373292307692e+01
0	 5.499999999999999e+00	 2.562500000000001e+00	 1.032252841538461e+01
0	 5.499999999999997e+00	 2.625000000000000e+00	 1.032154225230769e+01
0	 5.499999999999998e+00	 2.687500000000000e+00	 1.032077443384615e+01
0	 5.499999999999998e+00	 2.749999999999999e+00	 1.032022496000000e+01
0	 5.499999999999997e+00	 2.812499999999999e+00	 1.031989383076923e+01
0	 5.499999999999998e+00	 2.874999999999999e+00	 1.031978104615384e+01
0	 5.499999999999998e+00	 2.937499999999998e+00	 1.031988660615384e+01
0	 5.499999999999999e+00	 2.999999999999998e+00	 1.032021051076923e+01
0	 5.499999999999999e+00	 3.062499999999998e+00	 1.032075275999999e+01
0	 5.499999999999998e+00	 3.125000000000000e+00	 1.032151335384615e+01
0	 5.562499999999998e+00	 2.500000000000000e+00	 1.031516400000000e+01
0	 5.562499999999997e+00	 2.562500000000000e+00	 1.031412395076923e+01
0	 5.562499999999999e+00	 2.625000000000000e+00	 1.031328376615385e+01
0	 5.562499999999998e+00	 2.687500000000000e+00	 1.031264344615385e+01
0	 5.562499999999998e+00	 2.749999999999999e+00	 1.031220299076924e+01
0	 5.562499999999998e+00	 2.812499999999999e+00	 1.031196239999999e+01
0	 5.562499999999997e+00	 2.874999999999999e+00	 1.031192167384616e+01
0	 5.562499999999998e+00	 2.937499999999998e+00	 1.031208081230769e+01
0	 5.562499999999998e+00	 2.999999999999998e+00	 1.031243981538462e+01
0	 5.562499999999998e+00	 3.062499999999998e+00	 1.031299868307692e+01
0	 5.562499999999998e+00	 3.125000000000000e+00	 1.031375741538462e+01
0	 5.625000000000000e+00	 2.500000000000000e+00	 1.030707538461538e+01
0	 5.625000000000000e+00	 2.562500000000000e+00	 1.030616223076924e+01
0	 5.625000000000001e+00	 2.625000000000000e+00	 1.030543046153846e+01
0	 5.625000000000000e+00	 2.687499999999999e+00	 1.030488007692307e+01
0	 5.625000000000000e+00	 2.750000000000000e+00	 1.030451107692308e+01
0	 5.625000000000000e+00	 2.812499999999999e+00	 1.030432346153847e+01
0	 5.625000000000000e+00	 2.874999999999999e+00	 1.030431723076922e+01
0	 5.624999999999999e+00	 2.937499999999998e+00	 1.030449238461539e+01
0	 5.624999999999999e+00	 2.999999999999998e+00	 1.030484892307692e+01
0	 5.625000000000000e+00	 3.062499999999998e+00	 1.030538684615385e+01
0	 5.625000000000000e+00	 3.125000000000000e+00	 1.030610615384615e+01
0	 5.000000000000000e+00	 3.125000000000000e+00	 1.038732923076923e+01
0	 4.999999999999999e+00	 3.187500000000000e+00	 1.038202036923076e+01
0	 5.000000000000001e+00	 3.250000000000000e+00	 1.037694393846153e+01
0	 4.999999999999999e+00	 3.312499999999999e+00	 1.037209993846154e+01
0	 5.000000000000000e+00	 3.374999999999999e+00	 1.036748836923076e+01
0	 4.999999999999999e+00	 3.437499999999999e+00	 1.036310923076923e+01
0	 5.000000000000000e+00	 3.499999999999999e+00	 1.035896252307692e+01
0	 4.999999999999999e+00	 3.562499999999998e+00	 1.035504824615384e+01
0	 5.000000000000000e+00	 3.624999999999999e+00	 1.035136640000000e+01
0	 5.000000000000000e+00	 3.687499999999998e+00	 1.034791698461537e+01
0	 5.000000000000000e+00	 3.750000000000000e+00	 1.034470000000000e+01
0	 5.062500000000000e+00	 3.125000000000000e+00	 1.037873587692307e+01
0	 5.062499999999999e+00	 3.187500000000000e+00	 1.037366298769230e+01
0	 5.062499999999999e+00	 3.250000000000000e+00	 1.036882019384615e+01
0	 5.062500000000001e+00	 3.312499999999999e+00	 1.036420749538462e+01
0	 5.062500000000000e+00	 3.374999999999999e+00	 1.035982489230769e+01
0	 5.062500000000002e+00	 3.437499999999999e+00	 1.035567238461539e+01
0	 5.062500000000001e+00	 3.500000000000000e+00	 1.035174997230769e+01
0	 5.062500000000002e+00	 3.562499999999999e+00	 1.034805765538462e+01
0	 5.062500000000002e+00	 3.625000000000000e+00	 1.034459543384615e+01
0	 5.062499999999999e+00	 3.687499999999997e+00	 1.034136330769230e+01
0	 5.062500000000000e+00	 3.750000000000000e+00	 1.033836127692309e+01
0	 5.124999999999999e+00	 3.125000000000000e+00	 1.037024720000000e+01
0	 5.125000000000000e+00	 3.187500000000000e+00	 1.036540431692308e+01
0	 5.124999999999999e+00	 3.250000000000000e+00	 1.036078919384615e+01
0	 5.124999999999998e+00	 3.312500000000000e+00	 1.035640183076923e+01
0	 5.125000000000000e+00	 3.374999999999999e+00	 1.035224222769231e+01
0	 5.124999999999999e+00	 3.437499999999999e+00	 1.034831038461538e+01
0	 5.125000000000000e+00	 3.499999999999997e+00	 1.034460630153847e+01
0	 5.125000000000000e+00	 3.562499999999999e+00	 1.034112997846154e+01
0	 5.124999999999998e+00	 3.624999999999998e+00	 1.033788141538462e+01
0	 5.125000000000000e+00	 3.687499999999999e+00	 1.033486061230770e+01
0	 5.124999999999999e+00	 3.750000000000000e+00	 1.033206756923076e+01
0	 5.187500000000000e+00	 3.125000000000000e+00	 1.036186320000001e+01
0	 5.187500000000000e+00	 3.187500000000000e+00	 1.035724435692308e+01
0	 5.187500000000000e+00	 3.250000000000000e+00	 1.035285093846154e+01
0	 5.187500000000001e+00	 3.312500000000000e+00	 1.034868294461538e+01
0	 5.187499999999999e+00	 3.374999999999999e+00	 1.034474037538462e+01
0	 5.187500000000000e+00	 3.437499999999999e+00	 1.034102323076923e+01
0	 5.187500000000000e+00	 3.499999999999998e+00	 1.033753151076923e+01
0	 5.187499999999999e+00	 3.562499999999998e+00	 1.033426521538461e+01
0	 5.187500000000000e+00	 3.624999999999998e+00	 1.033122434461538e+01
0	 5.187499999999999e+00	 3.687499999999998e+00	 1.032840889846154e+01
0	 5.187500000000000e+00	 3.750000000000000e+00	 1.032581887692307e+01
0	 5.249999999999998e+00	 3.125000000000000e+00	 1.035358387692308e+01
0	 5.249999999999999e+00	 3.187500000000000e+00	 1.034918310769232e+01
0	 5.250000000000000e+00	 3.250000000000000e+00	 1.034500542769231e+01
0	 5.249999999999999e+00	 3.312500000000000e+00	 1.034105083692308e+01
0	 5.249999999999998e+00	 3.374999999999999e+00	 1.033731933538462e+01
0	 5.250000000000000e+00	 3.437499999999999e+00	 1.033381092307693e+01
0	 5.249999999999999e+00	 3.499999999999998e+00	 1.033052560000000e+01
0	 5.249999999999999e+00	 3.562499999999998e+00	 1.032746336615385e+01
0	 5.249999999999998e+00	 3.624999999999999e+00	 1.032462422153846e+01
0	 5.249999999999999e+00	 3.687499999999998e+00	 1.032200816615384e+01
0	 5.249999999999998e+00	 3.750000000000000e+00	 1.031961520000000e+01
0	 5.312499999999999e+00	 3.125000000000000e+00	 1.034540923076923e+01
0	 5.312499999999999e+00	 3.187500000000000e+00	 1.034122056923077e+01
0	 5.312499999999999e+00	 3.250000000000000e+00	 1.033725266153847e+01
0	 5.312499999999999e+00	 3.312500000000000e+00	 1.033350550769231e+01
0	 5.312499999999998e+00	 3.374999999999998e+00	 1.032997910769231e+01
0	 5.312499999999999e+00	 3.437499999999999e+00	 1.032667346153846e+01
0	 5.312500000000000e+00	 3.499999999999999e+00	 1.032358856923076e+01
0	 5.312499999999999e+00	 3.562499999999999e+00	 1.032072443076923e+01
0	 5.312499999999998e+00	 3.624999999999998e+00	 1.031808104615385e+01
0	 5.312499999999999e+00	 3.687499999999999e+00	 1.031565841538462e+01
0	 5.312499999999999e+00	 3.750000000000000e+00	 1.031345653846153e+01
0	 5.374999999999998e+00	 3.125000000000000e+00	 1.033733926153845e+01
0	 5.374999999999999e+00	 3.187500000000000e+00	 1.033335674153847e+01
0	 5.374999999999998e+00	 3.249999999999999e+00	 1.032959264000000e+01
0	 5.374999999999999e+00	 3.312499999999999e+00	 1.032604695692308e+01
0	 5.375000000000000e+00	 3.375000000000000e+00	 1.032271969230770e+01
0	 5.375000000000000e+00	 3.437500000000000e+00	 1.031961084615385e+01
0	 5.374999999999999e+00	 3.499999999999999e+00	 1.031672041846154e+01
0	 5.374999999999999e+00	 3.562499999999999e+00	 1.031404840923076e+01
0	 5.374999999999999e+00	 3.624999999999999e+00	 1.031159481846154e+01
0	 5.374999999999998e+00	 3.687499999999998e+00	 1.030935964615385e+01
0	 5.374999999999998e+00	 3.750000000000000e+00	 1.030734289230769e+01
0	 5.437499999999998e+00	 3.125000000000000e+00	 1.032937396923078e+01
0	 5.437499999999998e+00	 3.187500000000000e+00	 1.032559162461539e+01
0	 5.437499999999999e+00	 3.250000000000000e+00	 1.032202536307692e+01
0	 5.437499999999999e+00	 3.312500000000000e+00	 1.031867518461539e+01
0	 5.437499999999999e+00	 3.374999999999999e+00	 1.031554108923077e+01
0	 5.437499999999999e+00	 3.437499999999999e+00	 1.031262307692308e+01
0	 5.437499999999999e+00	 3.499999999999999e+00	 1.030992114769231e+01
0	 5.437499999999999e+00	 3.562499999999999e+00	 1.030743530153845e+01
0	 5.437499999999999e+00	 3.624999999999998e+00	 1.030516553846154e+01
0	 5.437499999999999e+00	 3.687499999999999e+00	 1.030311185846154e+01
0	 5.437499999999998e+00	 3.750000000000000e+00	 1.030127426153846e+01
0	 5.499999999999998e+00	 3.125000000000000e+00	 1.032151335384615e+01
0	 5.499999999999999e+00	 3.187500000000001e+00	 1.031792521846154e+01
0	 5.499999999999997e+00	 3.250000000000000e+00	 1.031455083076922e+01
0	 5.499999999999998e+00	 3.312500000000000e+00	 1.031139019076922e+01
0	 5.499999999999998e+00	 3.374999999999999e+00	 1.030844329846155e+01
0	 5.499999999999997e+00	 3.437499999999999e+00	 1.030571015384615e+01
0	 5.499999999999998e+00	 3.499999999999998e+00	 1.030319075692307e+01
0	 5.499999999999998e+00	 3.562499999999998e+00	 1.030088510769231e+01
0	 5.499999999999999e+00	 3.624999999999998e+00	 1.029879320615384e+01
0	 5.499999999999999e+00	 3.687499999999998e+00	 1.029691505230768e+01
0	 5.499999999999998e+00	 3.750000000000000e+00	 1.029525064615385e+01
0	 5.562499999999998e+00	 3.125000000000000e+00	 1.031375741538462e+01
0	 5.562499999999997e+00	 3.187500000000000e+00	 1.031035752307693e+01
0	 5.562499999999999e+00	 3.250000000000000e+00	 1.030716904307693e+01
0	 5.562499999999998e+00	 3.312500000000000e+00	 1.030419197538462e+01
0	 5.562499999999998e+00	 3.374999999999999e+00	 1.030142632000000e+01
0	 5.562499999999998e+00	 3.437500000000000e+00	 1.029887207692308e+01
0	 5.562499999999997e+00	 3.499999999999998e+00	 1.029652924615385e+01
0	 5.562499999999998e+00	 3.562499999999998e+00	 1.029439782769231e+01
0	 5.562499999999998e+00	 3.624999999999998e+00	 1.029247782153845e+01
0	 5.562499999999998e+00	 3.687499999999997e+00	 1.029076922769231e+01
0	 5.562499999999998e+00	 3.750000000000000e+00	 1.028927204615384e+01
0	 5.625000000000000e+00	 3.125000000000000e+00	 1.030610615384615e+01
0	 5.625000000000000e+00	 3.187500000000000e+00	 1.030288853846153e+01
0	 5.625000000000001e+00	 3.250000000000000e+00	 1.029987999999999e+01
0	 5.625000000000000e+00	 3.312499999999999e+00	 1.029708053846154e+01
0	 5.625000000000000e+00	 3.374999999999999e+00	 1.029449015384615e+01
0	 5.625000000000000e+00	 3.437499999999999e+00	 1.029210884615384e+01
0	 5.625000000000000e+00	 3.499999999999999e+00	 1.028993661538462e+01
0	 5.624999999999999e+00	 3.562499999999998e+00	 1.028797346153846e+01
0	 5.624999999999999e+00	 3.624999999999999e+00	 1.028621938461538e+01
0	 5.625000000000000e+00	 3.687499999999998e+00	 1.028467438461537e+01
0	 5.625000000000000e+00	 3.750000000000000e+00	 1.028333846153846e+01
0	 5.000000000000000e+00	 3.750000000000000e+00	 1.034470000000000e+01
0	 4.999999999999999e+00	 3.812500000000000e+00	 1.033813069230770e+01
0	 5.000000000000001e+00	 3.875000000000000e+00	 1.033174923076923e+01
0	 4.999999999999999e+00	 3.937499999999999e+00	 1.032555561538461e+01
0	 5.000000000000000e+00	 4.000000000000000e+00	 1.031954984615384e+01
0	 4.999999999999999e+00	 4.062499999999999e+00	 1.031373192307693e+01
0	 5.000000000000000e+00	 4.124999999999999e+00	 1.030810184615384e+01
0	 4.999999999999999e+00	 4.187499999999998e+00	 1.030265961538461e+01
0	 5.000000000000000e+00	 4.249999999999998e+00	 1.029740523076923e+01
0	 5.000000000000000e+00	 4.312499999999998e+00	 1.029233869230769e+01
0	 5.000000000000000e+00	 4.375000000000000e+00	 1.028746000000000e+01
0	 5.062500000000000e+00	 3.750000000000000e+00	 1.033836127692309e+01
0	 5.062499999999999e+00	 3.812500000000000e+00	 1.033213154923077e+01
0	 5.062499999999999e+00	 3.875000000000000e+00	 1.032608484000001e+01
0	 5.062500000000001e+00	 3.937500000000000e+00	 1.032022114923078e+01
0	 5.062500000000000e+00	 3.999999999999999e+00	 1.031454047692308e+01
0	 5.062500000000002e+00	 4.062499999999999e+00	 1.030904282307692e+01
0	 5.062500000000001e+00	 4.125000000000000e+00	 1.030372818769231e+01
0	 5.062500000000002e+00	 4.187500000000000e+00	 1.029859657076923e+01
0	 5.062500000000002e+00	 4.250000000000000e+00	 1.029364797230768e+01
0	 5.062499999999999e+00	 4.312499999999997e+00	 1.028888239230769e+01
0	 5.062500000000000e+00	 4.375000000000000e+00	 1.028429983076923e+01
0	 5.124999999999999e+00	 3.750000000000000e+00	 1.033206756923076e+01
0	 5.125000000000000e+00	 3.812500000000000e+00	 1.032615734769231e+01
0	 5.124999999999999e+00	 3.875000000000000e+00	 1.032042531692308e+01
0	 5.124999999999998e+00	 3.937500000000000e+00	 1.031487147692308e+01
0	 5.125000000000000e+00	 3.999999999999999e+00	 1.030949582769231e+01
0	 5.124999999999999e+00	 4.062499999999999e+00	 1.030429836923076e+01
0	 5.125000000000000e+00	 4.124999999999997e+00	 1.029927910153847e+01
0	 5.125000000000000e+00	 4.187499999999998e+00	 1.029443802461538e+01
0	 5.124999999999998e+00	 4.249999999999998e+00	 1.028977513846154e+01
0	 5.125000000000000e+00	 4.312499999999998e+00	 1.028529044307692e+01
0	 5.124999999999999e+00	 4.375000000000000e+00	 1.028098393846152e+01
0	 5.187500000000000e+00	 3.750000000000000e+00	 1.032581887692307e+01
0	 5.187500000000000e+00	 3.812500000000000e+00	 1.032020808769231e+01
0	 5.187500000000000e+00	 3.875000000000000e+00	 1.031477066153846e+01
0	 5.187500000000001e+00	 3.937500000000000e+00	 1.030950659846154e+01
0	 5.187499999999999e+00	 3.999999999999999e+00	 1.030441589846154e+01
0	 5.187500000000000e+00	 4.062500000000000e+00	 1.029949856153846e+01
0	 5.187500000000000e+00	 4.124999999999998e+00	 1.029475458769230e+01
0	 5.187499999999999e+00	 4.187499999999999e+00	 1.029018397692307e+01
0	 5.187500000000000e+00	 4.249999999999998e+00	 1.028578672923076e+01
0	 5.187499999999999e+00	 4.312499999999997e+00	 1.028156284461538e+01
0	 5.187500000000000e+00	 4.375000000000000e+00	 1.027751232307693e+01
0	 5.249999999999998e+00	 3.750000000000000e+00	 1.031961520000000e+01
0	 5.249999999999999e+00	 3.812500000000000e+00	 1.031428376923077e+01
0	 5.250000000000000e+00	 3.875000000000000e+00	 1.030912087384615e+01
0	 5.249999999999999e+00	 3.937500000000000e+00	 1.030412651384615e+01
0	 5.249999999999998e+00	 3.999999999999999e+00	 1.029930068923077e+01
0	 5.250000000000000e+00	 4.062499999999999e+00	 1.029464340000000e+01
0	 5.249999999999999e+00	 4.124999999999998e+00	 1.029015464615385e+01
0	 5.249999999999999e+00	 4.187499999999999e+00	 1.028583442769231e+01
0	 5.249999999999998e+00	 4.249999999999998e+00	 1.028168274461538e+01
0	 5.249999999999999e+00	 4.312499999999998e+00	 1.027769959692307e+01
0	 5.249999999999998e+00	 4.375000000000000e+00	 1.027388498461538e+01
0	 5.312499999999999e+00	 3.750000000000000e+00	 1.031345653846153e+01
0	 5.312499999999999e+00	 3.812500000000000e+00	 1.030838439230769e+01
0	 5.312499999999999e+00	 3.875000000000000e+00	 1.030347595384614e+01
0	 5.312499999999999e+00	 3.937499999999999e+00	 1.029873122307693e+01
0	 5.312499999999998e+00	 3.999999999999998e+00	 1.029415019999999e+01
0	 5.312499999999999e+00	 4.062499999999999e+00	 1.028973288461538e+01
0	 5.312500000000000e+00	 4.125000000000000e+00	 1.028547927692307e+01
0	 5.312499999999999e+00	 4.187499999999998e+00	 1.028138937692307e+01
0	 5.312499999999998e+00	 4.249999999999998e+00	 1.027746318461537e+01
0	 5.312499999999999e+00	 4.312499999999998e+00	 1.027370069999998e+01
0	 5.312499999999999e+00	 4.375000000000000e+00	 1.027010192307691e+01
0	 5.374999999999998e+00	 3.750000000000000e+00	 1.030734289230769e+01
0	 5.374999999999999e+00	 3.812500000000000e+00	 1.030250995692308e+01
0	 5.374999999999998e+00	 3.874999999999999e+00	 1.029783590153846e+01
0	 5.374999999999999e+00	 3.937500000000000e+00	 1.029332072615385e+01
0	 5.375000000000000e+00	 4.000000000000000e+00	 1.028896443076923e+01
0	 5.375000000000000e+00	 4.062500000000000e+00	 1.028476701538463e+01
0	 5.374999999999999e+00	 4.124999999999999e+00	 1.028072847999999e+01
0	 5.374999999999999e+00	 4.187499999999998e+00	 1.027684882461537e+01
0	 5.374999999999999e+00	 4.249999999999999e+00	 1.027312804923076e+01
0	 5.374999999999998e+00	 4.312499999999997e+00	 1.026956615384615e+01
0	 5.374999999999998e+00	 4.375000000000000e+00	 1.026616313846152e+01
0	 5.437499999999998e+00	 3.750000000000000e+00	 1.030127426153846e+01
0	 5.437499999999998e+00	 3.812500000000000e+00	 1.029666046307693e+01
0	 5.437499999999999e+00	 3.875000000000000e+00	 1.029220071692308e+01
0	 5.437499999999999e+00	 3.937499999999999e+00	 1.028789502307693e+01
0	 5.437499999999999e+00	 3.999999999999999e+00	 1.028374338153846e+01
0	 5.437499999999999e+00	 4.062500000000000e+00	 1.027974579230770e+01
0	 5.437499999999999e+00	 4.124999999999999e+00	 1.027590225538462e+01
0	 5.437499999999999e+00	 4.187499999999999e+00	 1.027221277076923e+01
0	 5.437499999999999e+00	 4.249999999999998e+00	 1.026867733846153e+01
0	 5.437499999999999e+00	 4.312499999999998e+00	 1.026529595846154e+01
0	 5.437499999999998e+00	 4.375000000000000e+00	 1.026206863076923e+01
0	 5.499999999999998e+00	 3.750000000000000e+00	 1.029525064615385e+01
0	 5.499999999999999e+00	 3.812500000000000e+00	 1.029083591076924e+01
0	 5.499999999999997e+00	 3.875000000000000e+00	 1.028657040000000e+01
0	 5.499999999999998e+00	 3.937500000000000e+00	 1.028245411384615e+01
0	 5.499999999999998e+00	 3.999999999999999e+00	 1.027848705230769e+01
0	 5.499999999999997e+00	 4.062499999999998e+00	 1.027466921538461e+01
0	 5.499999999999998e+00	 4.124999999999999e+00	 1.027100060307693e+01
0	 5.499999999999998e+00	 4.187499999999998e+00	 1.026748121538461e+01
0	 5.499999999999999e+00	 4.249999999999998e+00	 1.026411105230769e+01
0	 5.499999999999999e+00	 4.312499999999998e+00	 1.026089011384615e+01
0	 5.499999999999998e+00	 4.375000000000000e+00	 1.025781840000000e+01
0	 5.562499999999998e+00	 3.750000000000000e+00	 1.028927204615384e+01
0	 5.562499999999997e+00	 3.812500000000000e+00	 1.028503630000000e+01
0	 5.562499999999999e+00	 3.875000000000000e+00	 1.028094495076922e+01
0	 5.562499999999998e+00	 3.937499999999999e+00	 1.027699799846153e+01
0	 5.562499999999998e+00	 3.999999999999999e+00	 1.027319544307692e+01
0	 5.562499999999998e+00	 4.062499999999998e+00	 1.026953728461538e+01
0	 5.562499999999997e+00	 4.124999999999998e+00	 1.026602352307692e+01
0	 5.562499999999998e+00	 4.187499999999998e+00	 1.026265415846154e+01
0	 5.562499999999998e+00	 4.249999999999998e+00	 1.025942919076923e+01
0	 5.562499999999998e+00	 4.312499999999998e+00	 1.025634862000000e+01
0	 5.562499999999998e+00	 4.375000000000000e+00	 1.025341244615382e+01
0	 5.625000000000000e+00	 3.750000000000000e+00	 1.028333846153846e+01
0	 5.625000000000000e+00	 3.812500000000000e+00	 1.027926163076924e+01
0	 5.625000000000001e+00	 3.875000000000000e+00	 1.027532436923077e+01
0	 5.625000000000000e+00	 3.937499999999999e+00	 1.027152667692307e+01
0	 5.625000000000000e+00	 4.000000000000000e+00	 1.026786855384615e+01
0	 5.625000000000000e+00	 4.062499999999999e+00	 1.026435000000001e+01
0	 5.625000000000000e+00	 4.124999999999999e+00	 1.026097101538460e+01
0	 5.624999999999999e+00	 4.187499999999998e+00	 1.025773160000000e+01
0	 5.624999999999999e+00	 4.249999999999998e+00	 1.025463175384615e+01
0	 5.625000000000000e+00	 4.312499999999998e+00	 1.025167147692309e+01
0	 5.625000000000000e+00	 4.375000000000000e+00	 1.024885076923076e+01
0	 5.000000000000000e+00	 4.375000000000000e+00	 1.028746000000000e+01
0	 4.999999999999999e+00	 4.437499999999999e+00	 1.028137267692306e+01
0	 5.000000000000001e+00	 4.500000000000001e+00	 1.027536178461538e+01
0	 4.999999999999999e+00	 4.562499999999999e+00	 1.026942732307693e+01
0	 5.000000000000000e+00	 4.625000000000000e+00	 1.026356929230769e+01
0	 4.999999999999999e+00	 4.687499999999999e+00	 1.025778769230768e+01
0	 5.000000000000000e+00	 4.749999999999999e+00	 1.025208252307692e+01
0	 4.999999999999999e+00	 4.812499999999998e+00	 1.024645378461538e+01
0	 5.000000000000000e+00	 4.874999999999998e+00	 1.024090147692307e+01
0	 5.000000000000000e+00	 4.937499999999998e+00	 1.023542559999999e+01
0	 5.000000000000000e+00	 5.000000000000000e+00	 1.023002615384615e+01
0	 5.062500000000000e+00	 4.375000000000000e+00	 1.028429983076923e+01
0	 5.062499999999999e+00	 4.437500000000000e+00	 1.027837502000000e+01
0	 5.062499999999999e+00	 4.499999999999999e+00	 1.027252906769230e+01
0	 5.062500000000001e+00	 4.562499999999999e+00	 1.026676197384615e+01
0	 5.062500000000000e+00	 4.625000000000000e+00	 1.026107373846154e+01
0	 5.062500000000002e+00	 4.687500000000001e+00	 1.025546436153846e+01
0	 5.062500000000001e+00	 4.749999999999999e+00	 1.024993384307691e+01
0	 5.062500000000002e+00	 4.812499999999999e+00	 1.024448218307692e+01
0	 5.062500000000002e+00	 4.875000000000000e+00	 1.023910938153845e+01
0	 5.062499999999999e+00	 4.937499999999997e+00	 1.023381543846153e+01
0	 5.062500000000000e+00	 4.999999999999999e+00	 1.022860035384614e+01
0	 5.124999999999999e+00	 4.375000000000000e+00	 1.028098393846152e+01
0	 5.125000000000000e+00	 4.437500000000000e+00	 1.027521888307693e+01
0	 5.124999999999999e+00	 4.500000000000001e+00	 1.026953511384615e+01
0	 5.124999999999998e+00	 4.562499999999999e+00	 1.026393263076922e+01
0	 5.125000000000000e+00	 4.624999999999998e+00	 1.025841143384615e+01
0	 5.124999999999999e+00	 4.687499999999997e+00	 1.025297152307693e+01
0	 5.125000000000000e+00	 4.749999999999998e+00	 1.024761289846155e+01
0	 5.125000000000000e+00	 4.812499999999999e+00	 1.024233556000000e+01
0	 5.124999999999998e+00	 4.874999999999998e+00	 1.023713950769231e+01
0	 5.125000000000000e+00	 4.937499999999998e+00	 1.023202474153846e+01
0	 5.124999999999999e+00	 5.000000000000000e+00	 1.022699126153846e+01
0	 5.187500000000000e+00	 4.375000000000000e+00	 1.027751232307693e+01
0	 5.187500000000000e+00	 4.437500000000000e+00	 1.027190426615385e+01
0	 5.187500000000000e+00	 4.500000000000000e+00	 1.026637992307692e+01
0	 5.187500000000001e+00	 4.562499999999999e+00	 1.026093929384614e+01
0	 5.187499999999999e+00	 4.625000000000000e+00	 1.025558237846154e+01
0	 5.187500000000000e+00	 4.687499999999999e+00	 1.025030917692307e+01
0	 5.187500000000000e+00	 4.749999999999998e+00	 1.024511968923077e+01
0	 5.187499999999999e+00	 4.812499999999998e+00	 1.024001391538462e+01
0	 5.187500000000000e+00	 4.874999999999998e+00	 1.023499185538461e+01
0	 5.187499999999999e+00	 4.937499999999997e+00	 1.023005350923078e+01
0	 5.187500000000000e+00	 4.999999999999999e+00	 1.022519887692307e+01
0	 5.249999999999998e+00	 4.375000000000000e+00	 1.027388498461538e+01
0	 5.249999999999999e+00	 4.437500000000000e+00	 1.026843116923076e+01
0	 5.250000000000000e+00	 4.500000000000000e+00	 1.026306349538460e+01
0	 5.249999999999999e+00	 4.562499999999999e+00	 1.025778196307692e+01
0	 5.249999999999998e+00	 4.624999999999999e+00	 1.025258657230770e+01
0	 5.250000000000000e+00	 4.687500000000000e+00	 1.024747732307692e+01
0	 5.249999999999999e+00	 4.749999999999998e+00	 1.024245421538461e+01
0	 5.249999999999999e+00	 4.812499999999999e+00	 1.023751724923076e+01
0	 5.249999999999998e+00	 4.874999999999998e+00	 1.023266642461539e+01
0	 5.249999999999999e+00	 4.937499999999997e+00	 1.022790174153845e+01
0	 5.249999999999998e+00	 5.000000000000000e+00	 1.022322319999999e+01
0	 5.312499999999999e+00	 4.375000000000000e+00	 1.027010192307691e+01
0	 5.312499999999999e+00	 4.437499999999999e+00	 1.026479959230768e+01
0	 5.312499999999999e+00	 4.499999999999999e+00	 1.025958583076924e+01
0	 5.312499999999999e+00	 4.562499999999999e+00	 1.025446063846153e+01
0	 5.312499999999998e+00	 4.624999999999998e+00	 1.024942401538462e+01
0	 5.312499999999999e+00	 4.687499999999999e+00	 1.024447596153846e+01
0	 5.312500000000000e+00	 4.750000000000000e+00	 1.023961647692307e+01
0	 5.312499999999999e+00	 4.812499999999998e+00	 1.023484556153846e+01
0	 5.312499999999998e+00	 4.874999999999998e+00	 1.023016321538462e+01
0	 5.312499999999999e+00	 4.937499999999999e+00	 1.022556943846153e+01
0	 5.312499999999999e+00	 5.000000000000000e+00	 1.022106423076923e+01
0	 5.374999999999998e+00	 4.375000000000000e+00	 1.026616313846152e+01
0	 5.374999999999999e+00	 4.437499999999999e+00	 1.026100953538461e+01
0	 5.374999999999998e+00	 4.499999999999998e+00	 1.025594692923077e+01
0	 5.374999999999999e+00	 4.562499999999999e+00	 1.025097531999999e+01
0	 5.375000000000000e+00	 4.625000000000001e+00	 1.024609470769231e+01
0	 5.375000000000000e+00	 4.687499999999999e+00	 1.024130509230769e+01
0	 5.374999999999999e+00	 4.749999999999998e+00	 1.023660647384614e+01
0	 5.374999999999999e+00	 4.812499999999999e+00	 1.023199885230769e+01
0	 5.374999999999999e+00	 4.874999999999998e+00	 1.022748222769231e+01
0	 5.374999999999998e+00	 4.937499999999999e+00	 1.022305659999998e+01
0	 5.374999999999998e+00	 5.000000000000001e+00	 1.021872196923078e+01
0	 5.437499999999998e+00	 4.375000000000000e+00	 1.026206863076923e+01
0	 5.437499999999998e+00	 4.437499999999999e+00	 1.025706099846153e+01
0	 5.437499999999999e+00	 4.500000000000000e+00	 1.025214679076922e+01
0	 5.437499999999999e+00	 4.562499999999999e+00	 1.024732600769231e+01
0	 5.437499999999999e+00	 4.625000000000000e+00	 1.024259864923076e+01
0	 5.437499999999999e+00	 4.687500000000000e+00	 1.023796471538460e+01
0	 5.437499999999999e+00	 4.749999999999999e+00	 1.023342420615385e+01
0	 5.437499999999999e+00	 4.812499999999999e+00	 1.022897712153846e+01
0	 5.437499999999999e+00	 4.874999999999998e+00	 1.022462346153844e+01
0	 5.437499999999999e+00	 4.937499999999999e+00	 1.022036322615384e+01
0	 5.437499999999998e+00	 4.999999999999999e+00	 1.021619641538461e+01
0	 5.499999999999998e+00	 4.375000000000000e+00	 1.025781840000000e+01
0	 5.499999999999999e+00	 4.437500000000001e+00	 1.025295398153845e+01
0	 5.499999999999997e+00	 4.499999999999999e+00	 1.024818541538461e+01
0	 5.499999999999998e+00	 4.562500000000000e+00	 1.024351270153845e+01
0	 5.499999999999998e+00	 4.624999999999999e+00	 1.023893584000000e+01
0	 5.499999999999997e+00	 4.687499999999998e+00	 1.023445483076923e+01
0	 5.499999999999998e+00	 4.749999999999999e+00	 1.023006967384614e+01
0	 5.499999999999998e+00	 4.812499999999998e+00	 1.022578036923077e+01
0	 5.499999999999999e+00	 4.874999999999999e+00	 1.022158691692306e+01
0	 5.499999999999999e+00	 4.937499999999998e+00	 1.021748931692307e+01
0	 5.499999999999998e+00	 5.000000000000000e+00	 1.021348756923078e+01
0	 5.562499999999998e+00	 4.375000000000000e+00	 1.025341244615382e+01
0	 5.562499999999997e+00	 4.437500000000000e+00	 1.024868848461537e+01
0	 5.562499999999999e+00	 4.500000000000000e+00	 1.024406280307692e+01
0	 5.562499999999998e+00	 4.562500000000000e+00	 1.023953540153845e+01
0	 5.562499999999998e+00	 4.624999999999999e+00	 1.023510627999999e+01
0	 5.562499999999998e+00	 4.687499999999999e+00	 1.023077543846153e+01
0	 5.562499999999997e+00	 4.749999999999999e+00	 1.022654287692307e+01
0	 5.562499999999998e+00	 4.812499999999998e+00	 1.022240859538462e+01
0	 5.562499999999998e+00	 4.874999999999999e+00	 1.021837259384614e+01
0	 5.562499999999998e+00	 4.937499999999998e+00	 1.021443487230769e+01
0	 5.562499999999998e+00	 5.000000000000000e+00	 1.021059543076923e+01
0	 5.625000000000000e+00	 4.375000000000000e+00	 1.024885076923076e+01
0	 5.625000000000000e+00	 4.437499999999999e+00	 1.024426450769228e+01
0	 5.625000000000001e+00	 4.500000000000001e+00	 1.023977895384614e+01
0	 5.625000000000000e+00	 4.562499999999999e+00	 1.023539410769231e+01
0	 5.625000000000000e+00	 4.625000000000000e+00	 1.023110996923076e+01
0	 5.625000000000000e+00	 4.687499999999999e+00	 1.022692653846153e+01
0	 5.625000000000000e+00	 4.749999999999999e+00	 1.022284381538461e+01
0	 5.624999999999999e+00	 4.812499999999998e+00	 1.021886180000000e+01
0	 5.624999999999999e+00	 4.874999999999998e+00	 1.021498049230768e+01
0	 5.625000000000000e+00	 4.937499999999998e+00	 1.021119989230768e+01
0	 5.625000000000000e+00	 5.000000000000000e+00	 1.020752000000000e+01
0	 5.000000000000000e+00	 5.000000000000000e+00	 1.023002615384615e+01
0	 4.999999999999999e+00	 5.062500000000000e+00	 1.022449918461539e+01
0	 5.000000000000001e+00	 5.125000000000001e+00	 1.021900904615385e+01
0	 4.999999999999999e+00	 5.187499999999999e+00	 1.021355573846152e+01
0	 5.000000000000000e+00	 5.249999999999999e+00	 1.020813926153845e+01
0	 4.999999999999999e+00	 5.312499999999999e+00	 1.020275961538461e+01
0	 5.000000000000000e+00	 5.374999999999998e+00	 1.019741679999999e+01
0	 4.999999999999999e+00	 5.437499999999998e+00	 1.019211081538461e+01
0	 5.000000000000000e+00	 5.499999999999998e+00	 1.018684166153846e+01
0	 5.000000000000000e+00	 5.562499999999998e+00	 1.018160933846153e+01
0	 5.000000000000000e+00	 5.625000000000000e+00	 1.017641384615384e+01
0	 5.062500000000000e+00	 4.999999999999999e+00	 1.022860035384614e+01
0	 5.062499999999999e+00	 5.062500000000000e+00	 1.022320542307691e+01
0	 5.062499999999999e+00	 5.125000000000000e+00	 1.021784819999999e+01
0	 5.062500000000001e+00	 5.187499999999999e+00	 1.021252868461539e+01
0	 5.062500000000000e+00	 5.249999999999998e+00	 1.020724687692308e+01
0	 5.062500000000002e+00	 5.312500000000000e+00	 1.020200277692307e+01
0	 5.062500000000001e+00	 5.374999999999999e+00	 1.019679638461538e+01
0	 5.062500000000002e+00	 5.437499999999999e+00	 1.019162770000000e+01
0	 5.062500000000002e+00	 5.499999999999999e+00	 1.018649672307692e+01
0	 5.062499999999999e+00	 5.562499999999996e+00	 1.018140345384616e+01
0	 5.062500000000000e+00	 5.625000000000000e+00	 1.017634789230769e+01
0	 5.124999999999999e+00	 5.000000000000000e+00	 1.022699126153846e+01
0	 5.125000000000000e+00	 5.062499999999999e+00	 1.022172492307692e+01
0	 5.124999999999999e+00	 5.125000000000001e+00	 1.021649716923076e+01
0	 5.124999999999998e+00	 5.187499999999998e+00	 1.021130800000000e+01
0	 5.125000000000000e+00	 5.249999999999999e+00	 1.020615741538462e+01
0	 5.124999999999999e+00	 5.312499999999999e+00	 1.020104541538460e+01
0	 5.125000000000000e+00	 5.374999999999999e+00	 1.019597200000000e+01
0	 5.125000000000000e+00	 5.437499999999999e+00	 1.019093716923078e+01
0	 5.124999999999998e+00	 5.499999999999998e+00	 1.018594092307692e+01
0	 5.125000000000000e+00	 5.562499999999999e+00	 1.018098326153845e+01
0	 5.124999999999999e+00	 5.625000000000000e+00	 1.017606418461539e+01
0	 5.187500000000000e+00	 4.999999999999999e+00	 1.022519887692307e+01
0	 5.187500000000000e+00	 5.062500000000001e+00	 1.022005768461537e+01
0	 5.187500000000000e+00	 5.125000000000000e+00	 1.021495595384615e+01
0	 5.187500000000001e+00	 5.187499999999999e+00	 1.020989368461538e+01
0	 5.187499999999999e+00	 5.250000000000000e+00	 1.020487087692307e+01
0	 5.187500000000000e+00	 5.312499999999999e+00	 1.019988753076922e+01
0	 5.187500000000000e+00	 5.374999999999998e+00	 1.019494364615384e+01
0	 5.187499999999999e+00	 5.437499999999999e+00	 1.019003922307693e+01
0	 5.187500000000000e+00	 5.499999999999998e+00	 1.018517426153846e+01
0	 5.187499999999999e+00	 5.562499999999997e+00	 1.018034876153846e+01
0	 5.187500000000000e+00	 5.625000000000000e+00	 1.017556272307691e+01
0	 5.249999999999998e+00	 5.000000000000000e+00	 1.022322319999999e+01
0	 5.249999999999999e+00	 5.062500000000000e+00	 1.021820370769229e+01
0	 5.250000000000000e+00	 5.125000000000000e+00	 1.021322455384614e+01
0	 5.249999999999999e+00	 5.187500000000000e+00	 1.020828573846152e+01
0	 5.249999999999998e+00	 5.249999999999999e+00	 1.020338726153845e+01
0	 5.250000000000000e+00	 5.312499999999999e+00	 1.019852912307692e+01
0	 5.249999999999999e+00	 5.374999999999998e+00	 1.019371132307691e+01
0	 5.249999999999999e+00	 5.437499999999999e+00	 1.018893386153847e+01
0	 5.249999999999998e+00	 5.499999999999999e+00	 1.018419673846154e+01
0	 5.249999999999999e+00	 5.562499999999998e+00	 1.017949995384615e+01
0	 5.249999999999998e+00	 5.625000000000000e+00	 1.017484350769230e+01
0	 5.312499999999999e+00	 5.000000000000000e+00	 1.022106423076923e+01
0	 5.312499999999999e+00	 5.062500000000000e+00	 1.021616299230769e+01
0	 5.312499999999999e+00	 5.124999999999999e+00	 1.021130296923076e+01
0	 5.312499999999999e+00	 5.187500000000000e+00	 1.020648416153845e+01
0	 5.312499999999998e+00	 5.249999999999998e+00	 1.020170656923075e+01
0	 5.312499999999999e+00	 5.312499999999999e+00	 1.019697019230768e+01
0	 5.312500000000000e+00	 5.375000000000000e+00	 1.019227503076922e+01
0	 5.312499999999999e+00	 5.437499999999998e+00	 1.018762108461539e+01
0	 5.312499999999998e+00	 5.499999999999998e+00	 1.018300835384614e+01
0	 5.312499999999999e+00	 5.562499999999999e+00	 1.017843683846153e+01
0	 5.312499999999999e+00	 5.625000000000000e+00	 1.017390653846152e+01
0	 5.374999999999998e+00	 5.000000000000001e+00	 1.021872196923078e+01
0	 5.374999999999999e+00	 5.062499999999999e+00	 1.021393553846153e+01
0	 5.374999999999998e+00	 5.125000000000000e+00	 1.020919119999999e+01
0	 5.374999999999999e+00	 5.187500000000000e+00	 1.020448895384614e+01
0	 5.375000000000000e+00	 5.250000000000001e+00	 1.019982879999998e+01
0	 5.375000000000000e+00	 5.312500000000001e+00	 1.019521073846154e+01
0	 5.374999999999999e+00	 5.374999999999999e+00	 1.019063476923077e+01
0	 5.374999999999999e+00	 5.437499999999999e+00	 1.018610089230770e+01
0	 5.374999999999999e+00	 5.499999999999998e+00	 1.018160910769230e+01
0	 5.374999999999998e+00	 5.562499999999998e+00	 1.017715941538463e+01
0	 5.374999999999998e+00	 5.625000000000000e+00	 1.017275181538462e+01
0	 5.437499999999998e+00	 4.999999999999999e+00	 1.021619641538461e+01
0	 5.437499999999998e+00	 5.062500000000000e+00	 1.021152134615383e+01
0	 5.437499999999999e+00	 5.125000000000000e+00	 1.020688924615382e+01
0	 5.437499999999999e+00	 5.187500000000000e+00	 1.020230011538461e+01
0	 5.437499999999999e+00	 5.250000000000000e+00	 1.019775395384616e+01
0	 5.437499999999999e+00	 5.312500000000000e+00	 1.019325076153847e+01
0	 5.437499999999999e+00	 5.374999999999999e+00	 1.018879053846153e+01
0	 5.437499999999999e+00	 5.437499999999998e+00	 1.018437328461538e+01
0	 5.437499999999999e+00	 5.499999999999998e+00	 1.017999900000000e+01
0	 5.437499999999999e+00	 5.562499999999999e+00	 1.017566768461539e+01
0	 5.437499999999998e+00	 5.625000000000000e+00	 1.017137933846153e+01
0	 5.499999999999998e+00	 5.000000000000000e+00	 1.021348756923078e+01
0	 5.499999999999999e+00	 5.062500000000002e+00	 1.020892041538462e+01
0	 5.499999999999997e+00	 5.124999999999999e+00	 1.020439710769231e+01
0	 5.499999999999998e+00	 5.187500000000000e+00	 1.019991764615385e+01
0	 5.499999999999998e+00	 5.249999999999998e+00	 1.019548203076923e+01
0	 5.499999999999997e+00	 5.312499999999999e+00	 1.019109026153846e+01
0	 5.499999999999998e+00	 5.374999999999998e+00	 1.018674233846154e+01
0	 5.499999999999998e+00	 5.437499999999998e+00	 1.018243826153845e+01
0	 5.499999999999999e+00	 5.499999999999999e+00	 1.017817803076924e+01
0	 5.499999999999999e+00	 5.562499999999998e+00	 1.017396164615385e+01
0	 5.499999999999998e+00	 5.625000000000000e+00	 1.016978910769232e+01
0	 5.562499999999998e+00	 5.000000000000000e+00	 1.021059543076923e+01
0	 5.562499999999997e+00	 5.062500000000000e+00	 1.020613274615384e+01
0	 5.562499999999999e+00	 5.125000000000001e+00	 1.020171478461539e+01
0	 5.562499999999998e+00	 5.187499999999999e+00	 1.019734154615384e+01
0	 5.562499999999998e+00	 5.249999999999999e+00	 1.019301303076923e+01
0	 5.562499999999998e+00	 5.312499999999998e+00	 1.018872923846154e+01
0	 5.562499999999997e+00	 5.374999999999997e+00	 1.018449016923076e+01
0	 5.562499999999998e+00	 5.437499999999998e+00	 1.018029582307693e+01
0	 5.562499999999998e+00	 5.499999999999999e+00	 1.017614620000002e+01
0	 5.562499999999998e+00	 5.562499999999998e+00	 1.017204129999999e+01
0	 5.562499999999998e+00	 5.625000000000000e+00	 1.016798112307692e+01
0	 5.625000000000000e+00	 5.000000000000000e+00	 1.020752000000000e+01
0	 5.625000000000000e+00	 5.062500000000000e+00	 1.020315833846155e+01
0	 5.625000000000001e+00	 5.125000000000001e+00	 1.019884227692308e+01
0	 5.625000000000000e+00	 5.187499999999999e+00	 1.019457181538461e+01
0	 5.625000000000000e+00	 5.249999999999999e+00	 1.019034695384615e+01
0	 5.625000000000000e+00	 5.312499999999999e+00	 1.018616769230770e+01
0	 5.625000000000000e+00	 5.374999999999998e+00	 1.018203403076923e+01
0	 5.624999999999999e+00	 5.437499999999998e+00	 1.017794596923077e+01
0	 5.624999999999999e+00	 5.499999999999998e+00	 1.017390350769231e+01
0	 5.625000000000000e+00	 5.562499999999998e+00	 1.016990664615384e+01
0	 5.625000000000000e+00	 5.625000000000000e+00	 1.016595538461539e+01
0	 5.000000000000000e+00	 5.625000000000000e+00	 1.017641384615384e+01
0	 4.999999999999999e+00	 5.687500000000000e+00	 1.017185173846153e+01
0	 5.000000000000001e+00	 5.750000000000000e+00	 1.016728326153845e+01
0	 4.999999999999999e+00	 5.812499999999999e+00	 1.016270841538462e+01
0	 5.000000000000000e+00	 5.874999999999999e+00	 1.015812719999999e+01
0	 4.999999999999999e+00	 5.937499999999999e+00	 1.015353961538461e+01
0	 5.000000000000000e+00	 5.999999999999998e+00	 1.014894566153847e+01
0	 4.999999999999999e+00	 6.062499999999998e+00	 1.014434533846154e+01
0	 5.000000000000000e+00	 6.124999999999998e+00	 1.013973864615385e+01
0	 5.000000000000000e+00	 6.187499999999998e+00	 1.013512558461538e+01
0	 5.000000000000000e+00	 6.250000000000000e+00	 1.013050615384615e+01
0	 5.062500000000000e+00	 5.625000000000000e+00	 1.017634789230769e+01
0	 5.062499999999999e+00	 5.687499999999999e+00	 1.017182973692308e+01
0	 5.062499999999999e+00	 5.749999999999999e+00	 1.016730760307692e+01
0	 5.062500000000001e+00	 5.812499999999998e+00	 1.016278149076923e+01
0	 5.062500000000000e+00	 5.875000000000000e+00	 1.015825140000000e+01
0	 5.062500000000002e+00	 5.937500000000001e+00	 1.015371733076922e+01
0	 5.062500000000001e+00	 5.999999999999999e+00	 1.014917928307691e+01
0	 5.062500000000002e+00	 6.062500000000000e+00	 1.014463725692307e+01
0	 5.062500000000002e+00	 6.125000000000000e+00	 1.014009125230768e+01
0	 5.062499999999999e+00	 6.187499999999996e+00	 1.013554126923077e+01
0	 5.062500000000000e+00	 6.250000000000000e+00	 1.013098730769230e+01
0	 5.124999999999999e+00	 5.625000000000000e+00	 1.017606418461539e+01
0	 5.125000000000000e+00	 5.687499999999999e+00	 1.017159291076923e+01
0	 5.124999999999999e+00	 5.750000000000002e+00	 1.016712004923077e+01
0	 5.124999999999998e+00	 5.812499999999999e+00	 1.016264560000000e+01
0	 5.125000000000000e+00	 5.874999999999998e+00	 1.015816956307692e+01
0	 5.124999999999999e+00	 5.937499999999999e+00	 1.015369193846154e+01
0	 5.125000000000000e+00	 5.999999999999998e+00	 1.014921272615384e+01
0	 5.125000000000000e+00	 6.062499999999999e+00	 1.014473192615384e+01
0	 5.124999999999998e+00	 6.124999999999998e+00	 1.014024953846152e+01
0	 5.125000000000000e+00	 6.187499999999998e+00	 1.013576556307691e+01
0	 5.124999999999999e+00	 6.250000000000000e+00	 1.013128000000000e+01
0	 5.187500000000000e+00	 5.625000000000000e+00	 1.017556272307691e+01
0	 5.187500000000000e+00	 5.687500000000000e+00	 1.017114125999999e+01
0	 5.187500000000000e+00	 5.749999999999999e+00	 1.016672059999999e+01
0	 5.187500000000001e+00	 5.812499999999999e+00	 1.016230074307692e+01
0	 5.187499999999999e+00	 5.875000000000000e+00	 1.015788168923077e+01
0	 5.187500000000000e+00	 5.937500000000000e+00	 1.015346343846153e+01
0	 5.187500000000000e+00	 5.999999999999998e+00	 1.014904599076923e+01
0	 5.187499999999999e+00	 6.062499999999998e+00	 1.014462934615385e+01
0	 5.187500000000000e+00	 6.124999999999997e+00	 1.014021350461538e+01
0	 5.187499999999999e+00	 6.187499999999997e+00	 1.013579846615386e+01
0	 5.187500000000000e+00	 6.250000000000000e+00	 1.013138423076924e+01
0	 5.249999999999998e+00	 5.625000000000000e+00	 1.017484350769230e+01
0	 5.249999999999999e+00	 5.687500000000000e+00	 1.017047478461538e+01
0	 5.250000000000000e+00	 5.750000000000000e+00	 1.016610925538463e+01
0	 5.249999999999999e+00	 5.812500000000000e+00	 1.016174692000000e+01
0	 5.249999999999998e+00	 5.874999999999999e+00	 1.015738777846153e+01
0	 5.250000000000000e+00	 5.937499999999999e+00	 1.015303183076924e+01
0	 5.249999999999999e+00	 5.999999999999997e+00	 1.014867907692307e+01
0	 5.249999999999999e+00	 6.062499999999998e+00	 1.014432951692308e+01
0	 5.249999999999998e+00	 6.124999999999999e+00	 1.013998315076923e+01
0	 5.249999999999999e+00	 6.187499999999998e+00	 1.013563997846154e+01
0	 5.249999999999998e+00	 6.250000000000000e+00	 1.013130000000000e+01
0	 5.312499999999999e+00	 5.625000000000000e+00	 1.017390653846152e+01
0	 5.312499999999999e+00	 5.687500000000000e+00	 1.016959348461540e+01
0	 5.312499999999999e+00	 5.750000000000000e+00	 1.016528601538461e+01
0	 5.312499999999999e+00	 5.812500000000000e+00	 1.016098413076923e+01
0	 5.312499999999998e+00	 5.874999999999998e+00	 1.015668783076923e+01
0	 5.312499999999999e+00	 5.937499999999998e+00	 1.015239711538463e+01
0	 5.312500000000000e+00	 6.000000000000000e+00	 1.014811198461538e+01
0	 5.312499999999999e+00	 6.062499999999998e+00	 1.014383243846152e+01
0	 5.312499999999998e+00	 6.124999999999998e+00	 1.013955847692308e+01
0	 5.312499999999999e+00	 6.187499999999999e+00	 1.013529010000000e+01
0	 5.312499999999999e+00	 6.250000000000000e+00	 1.013102730769232e+01
0	 5.374999999999998e+00	 5.625000000000000e+00	 1.017275181538462e+01
0	 5.374999999999999e+00	 5.687499999999999e+00	 1.016849736000000e+01
0	 5.374999999999998e+00	 5.750000000000000e+00	 1.016425087999999e+01
0	 5.374999999999999e+00	 5.812499999999999e+00	 1.016001237538460e+01
0	 5.375000000000000e+00	 5.875000000000001e+00	 1.015578184615385e+01
0	 5.375000000000000e+00	 5.937499999999999e+00	 1.015155929230770e+01
0	 5.374999999999999e+00	 5.999999999999998e+00	 1.014734471384615e+01
0	 5.374999999999999e+00	 6.062499999999999e+00	 1.014313811076923e+01
0	 5.374999999999999e+00	 6.124999999999998e+00	 1.013893948307691e+01
0	 5.374999999999998e+00	 6.187499999999998e+00	 1.013474883076921e+01
0	 5.374999999999998e+00	 6.250000000000000e+00	 1.013056615384615e+01
0	 5.437499999999998e+00	 5.625000000000000e+00	 1.017137933846153e+01
0	 5.437499999999998e+00	 5.687500000000000e+00	 1.016718641076921e+01
0	 5.437499999999999e+00	 5.750000000000000e+00	 1.016300384923076e+01
0	 5.437499999999999e+00	 5.812499999999999e+00	 1.015883165384616e+01
0	 5.437499999999999e+00	 5.874999999999999e+00	 1.015466982461539e+01
0	 5.437499999999999e+00	 5.937500000000001e+00	 1.015051836153847e+01
0	 5.437499999999999e+00	 5.999999999999999e+00	 1.014637726461539e+01
0	 5.437499999999999e+00	 6.062499999999999e+00	 1.014224653384617e+01
0	 5.437499999999999e+00	 6.124999999999999e+00	 1.013812616923077e+01
0	 5.437499999999999e+00	 6.187499999999999e+00	 1.013401617076921e+01
0	 5.437499999999998e+00	 6.250000000000000e+00	 1.012991653846153e+01
0	 5.499999999999998e+00	 5.625000000000000e+00	 1.016978910769232e+01
0	 5.499999999999999e+00	 5.687500000000000e+00	 1.016566063692308e+01
0	 5.499999999999997e+00	 5.750000000000000e+00	 1.016154492307692e+01
0	 5.499999999999998e+00	 5.812499999999999e+00	 1.015744196615384e+01
0	 5.499999999999998e+00	 5.875000000000000e+00	 1.015335176615385e+01
0	 5.499999999999997e+00	 5.937500000000000e+00	 1.014927432307693e+01
0	 5.499999999999998e+00	 5.999999999999998e+00	 1.014520963692308e+01
0	 5.499999999999998e+00	 6.062499999999998e+00	 1.014115770769231e+01
0	 5.499999999999999e+00	 6.124999999999999e+00	 1.013711853538461e+01
0	 5.499999999999999e+00	 6.187499999999998e+00	 1.013309212000000e+01
0	 5.499999999999998e+00	 6.250000000000000e+00	 1.012907846153846e+01
0	 5.562499999999998e+00	 5.625000000000000e+00	 1.016798112307692e+01
0	 5.562499999999997e+00	 5.687500000000000e+00	 1.016392003846154e+01
0	 5.562499999999999e+00	 5.750000000000000e+00	 1.015987410153846e+01
0	 5.562499999999998e+00	 5.812499999999999e+00	 1.015584331230769e+01
0	 5.562499999999998e+00	 5.875000000000000e+00	 1.015182767076923e+01
0	 5.562499999999998e+00	 5.937499999999999e+00	 1.014782717692307e+01
0	 5.562499999999997e+00	 5.999999999999998e+00	 1.014384183076923e+01
0	 5.562499999999998e+00	 6.062499999999998e+00	 1.013987163230771e+01
0	 5.562499999999998e+00	 6.124999999999998e+00	 1.013591658153846e+01
0	 5.562499999999998e+00	 6.187499999999997e+00	 1.013197667846154e+01
0	 5.562499999999998e+00	 6.250000000000000e+00	 1.012805192307692e+01
0	 5.625000000000000e+00	 5.625000000000000e+00	 1.016595538461539e+01
0	 5.625000000000000e+00	 5.687500000000000e+00	 1.016196461538461e+01
0	 5.625000000000001e+00	 5.750000000000000e+00	 1.015799138461538e+01
0	 5.625000000000000e+00	 5.812499999999999e+00	 1.015403569230770e+01
0	 5.625000000000000e+00	 5.874999999999999e+00	 1.015009753846154e+01
0	 5.625000000000000e+00	 5.937499999999999e+00	 1.014617692307693e+01
0	 5.625000000000000e+00	 5.999999999999998e+00	 1.014227384615386e+01
0	 5.624999999999999e+00	 6.062499999999998e+00	 1.013838830769231e+01
0	 5.624999999999999e+00	 6.124999999999998e+00	 1.013452030769230e+01
0	 5.625000000000000e+00	 6.187499999999998e+00	 1.013066984615384e+01
0	 5.625000000000000e+00	 6.250000000000000e+00	 1.012683692307692e+01
0	 5.000000000000000e+00	 6.250000000000000e+00	 1.013050615384615e+01
0	 4.999999999999999e+00	 6.312500000000000e+00	 1.012676099999999e+01
0	 5.000000000000001e+00	 6.375000000000000e+00	 1.012299600000000e+01
0	 4.999999999999999e+00	 6.437499999999999e+00	 1.011921115384614e+01
0	 5.000000000000000e+00	 6.499999999999999e+00	 1.011540646153845e+01
0	 4.999999999999999e+00	 6.562499999999998e+00	 1.011158192307693e+01
0	 5.000000000000000e+00	 6.624999999999998e+00	 1.010773753846152e+01
0	 4.999999999999999e+00	 6.687499999999998e+00	 1.010387330769229e+01
0	 5.000000000000000e+00	 6.749999999999998e+00	 1.009998923076922e+01
0	 5.000000000000000e+00	 6.812499999999998e+00	 1.009608530769230e+01
0	 5.000000000000000e+00	 6.875000000000000e+00	 1.009216153846153e+01
0	 5.062500000000000e+00	 6.250000000000000e+00	 1.013098730769230e+01
0	 5.062499999999999e+00	 6.312500000000000e+00	 1.012725946153844e+01
0	 5.062499999999999e+00	 6.374999999999999e+00	 1.012351295076922e+01
0	 5.062500000000001e+00	 6.437500000000000e+00	 1.011974777538462e+01
0	 5.062500000000000e+00	 6.499999999999997e+00	 1.011596393538462e+01
0	 5.062500000000002e+00	 6.562500000000000e+00	 1.011216143076923e+01
0	 5.062500000000001e+00	 6.624999999999999e+00	 1.010834026153846e+01
0	 5.062500000000002e+00	 6.687499999999999e+00	 1.010450042769232e+01
0	 5.062500000000002e+00	 6.749999999999999e+00	 1.010064192923077e+01
0	 5.062499999999999e+00	 6.812499999999996e+00	 1.009676476615383e+01
0	 5.062500000000000e+00	 6.875000000000001e+00	 1.009286893846154e+01
0	 5.124999999999999e+00	 6.250000000000000e+00	 1.013128000000000e+01
0	 5.125000000000000e+00	 6.312499999999999e+00	 1.012757243384616e+01
0	 5.124999999999999e+00	 6.375000000000000e+00	 1.012384738461539e+01
0	 5.124999999999998e+00	 6.437499999999998e+00	 1.012010485230768e+01
0	 5.125000000000000e+00	 6.499999999999996e+00	 1.011634483692307e+01
0	 5.124999999999999e+00	 6.562499999999998e+00	 1.011256733846153e+01
0	 5.125000000000000e+00	 6.624999999999996e+00	 1.010877235692308e+01
0	 5.125000000000000e+00	 6.687499999999999e+00	 1.010495989230769e+01
0	 5.124999999999998e+00	 6.749999999999997e+00	 1.010112994461537e+01
0	 5.125000000000000e+00	 6.812500000000000e+00	 1.009728251384614e+01
0	 5.124999999999999e+00	 6.875000000000000e+00	 1.009341760000000e+01
0	 5.187500000000000e+00	 6.250000000000000e+00	 1.013138423076924e+01
0	 5.187500000000000e+00	 6.312499999999999e+00	 1.012769991692309e+01
0	 5.187500000000000e+00	 6.375000000000000e+00	 1.012399930153846e+01
0	 5.187500000000001e+00	 6.437500000000000e+00	 1.012028238461536e+01
0	 5.187499999999999e+00	 6.499999999999998e+00	 1.011654916615384e+01
0	 5.187500000000000e+00	 6.562499999999999e+00	 1.011279964615384e+01
0	 5.187500000000000e+00	 6.624999999999999e+00	 1.010903382461537e+01
0	 5.187499999999999e+00	 6.687499999999998e+00	 1.010525170153846e+01
0	 5.187500000000000e+00	 6.749999999999998e+00	 1.010145327692305e+01
0	 5.187499999999999e+00	 6.812499999999997e+00	 1.009763855076924e+01
0	 5.187500000000000e+00	 6.874999999999999e+00	 1.009380752307693e+01
0	 5.249999999999998e+00	 6.250000000000000e+00	 1.013130000000000e+01
0	 5.249999999999999e+00	 6.312499999999999e+00	 1.012764191076922e+01
0	 5.250000000000000e+00	 6.375000000000000e+00	 1.012396870153847e+01
0	 5.249999999999999e+00	 6.437499999999999e+00	 1.012028037230769e+01
0	 5.249999999999998e+00	 6.499999999999997e+00	 1.011657692307691e+01
0	 5.250000000000000e+00	 6.562499999999999e+00	 1.011285835384615e+01
0	 5.249999999999999e+00	 6.624999999999998e+00	 1.010912466461537e+01
0	 5.249999999999999e+00	 6.687499999999998e+00	 1.010537585538461e+01
0	 5.249999999999998e+00	 6.749999999999998e+00	 1.010161192615384e+01
0	 5.249999999999999e+00	 6.812499999999998e+00	 1.009783287692308e+01
0	 5.249999999999998e+00	 6.875000000000001e+00	 1.009403870769229e+01
0	 5.312499999999999e+00	 6.250000000000000e+00	 1.013102730769232e+01
0	 5.312499999999999e+00	 6.312500000000000e+00	 1.012739841538462e+01
0	 5.312499999999999e+00	 6.375000000000000e+00	 1.012375558461536e+01
0	 5.312499999999999e+00	 6.437499999999999e+00	 1.012009881538462e+01
0	 5.312499999999998e+00	 6.499999999999997e+00	 1.011642810769230e+01
0	 5.312499999999999e+00	 6.562499999999999e+00	 1.011274346153846e+01
0	 5.312500000000000e+00	 6.625000000000000e+00	 1.010904487692306e+01
0	 5.312499999999999e+00	 6.687499999999999e+00	 1.010533235384616e+01
0	 5.312499999999998e+00	 6.749999999999999e+00	 1.010160589230768e+01
0	 5.312499999999999e+00	 6.812499999999998e+00	 1.009786549230767e+01
0	 5.312499999999999e+00	 6.875000000000000e+00	 1.009411115384614e+01
0	 5.374999999999998e+00	 6.250000000000000e+00	 1.013056615384615e+01
0	 5.374999999999999e+00	 6.312499999999999e+00	 1.012696943076924e+01
0	 5.374999999999998e+00	 6.374999999999997e+00	 1.012335995076922e+01
0	 5.374999999999999e+00	 6.437499999999999e+00	 1.011973771384615e+01
0	 5.375000000000000e+00	 6.500000000000000e+00	 1.011610271999999e+01
0	 5.375000000000000e+00	 6.562500000000001e+00	 1.011245496923077e+01
0	 5.374999999999999e+00	 6.624999999999998e+00	 1.010879446153846e+01
0	 5.374999999999999e+00	 6.687499999999999e+00	 1.010512119692307e+01
0	 5.374999999999999e+00	 6.749999999999999e+00	 1.010143517538459e+01
0	 5.374999999999998e+00	 6.812499999999998e+00	 1.009773639692306e+01
0	 5.374999999999998e+00	 6.875000000000000e+00	 1.009402486153844e+01
0	 5.437499999999998e+00	 6.250000000000000e+00	 1.012991653846153e+01
0	 5.437499999999998e+00	 6.312499999999999e+00	 1.012635495692307e+01
0	 5.437499999999999e+00	 6.375000000000001e+00	 1.012278180000000e+01
0	 5.437499999999999e+00	 6.437499999999999e+00	 1.011919706769230e+01
0	 5.437499999999999e+00	 6.500000000000000e+00	 1.011560076000000e+01
0	 5.437499999999999e+00	 6.562499999999999e+00	 1.011199287692308e+01
0	 5.437499999999999e+00	 6.624999999999999e+00	 1.010837341846153e+01
0	 5.437499999999999e+00	 6.687499999999999e+00	 1.010474238461539e+01
0	 5.437499999999999e+00	 6.749999999999998e+00	 1.010109977538462e+01
0	 5.437499999999999e+00	 6.812499999999999e+00	 1.009744559076923e+01
0	 5.437499999999998e+00	 6.875000000000000e+00	 1.009377983076925e+01
0	 5.499999999999998e+00	 6.250000000000000e+00	 1.012907846153846e+01
0	 5.499999999999999e+00	 6.312500000000001e+00	 1.012555499384615e+01
0	 5.499999999999997e+00	 6.374999999999999e+00	 1.012202113230770e+01
0	 5.499999999999998e+00	 6.437500000000000e+00	 1.011847687692307e+01
0	 5.499999999999998e+00	 6.499999999999999e+00	 1.011492222769231e+01
0	 5.499999999999997e+00	 6.562499999999999e+00	 1.011135718461538e+01
0	 5.499999999999998e+00	 6.624999999999998e+00	 1.010778174769231e+01
0	 5.499999999999998e+00	 6.687499999999998e+00	 1.010419591692308e+01
0	 5.499999999999999e+00	 6.749999999999998e+00	 1.010059969230767e+01
0	 5.499999999999999e+00	 6.812499999999998e+00	 1.009699307384616e+01
0	 5.499999999999998e+00	 6.875000000000000e+00	 1.009337606153847e+01
0	 5.562499999999998e+00	 6.250000000000000e+00	 1.012805192307692e+01
0	 5.562499999999997e+00	 6.312500000000000e+00	 1.012456954153848e+01
0	 5.562499999999999e+00	 6.375000000000000e+00	 1.012107794769229e+01
0	 5.562499999999998e+00	 6.437499999999999e+00	 1.011757714153845e+01
0	 5.562499999999998e+00	 6.499999999999998e+00	 1.011406712307692e+01
0	 5.562499999999998e+00	 6.562499999999998e+00	 1.011054789230768e+01
0	 5.562499999999997e+00	 6.624999999999998e+00	 1.010701944923076e+01
0	 5.562499999999998e+00	 6.687499999999998e+00	 1.010348179384615e+01
0	 5.562499999999998e+00	 6.749999999999999e+00	 1.009993492615383e+01
0	 5.562499999999998e+00	 6.812499999999997e+00	 1.009637884615385e+01
0	 5.562499999999998e+00	 6.875000000000000e+00	 1.009281355384615e+01
0	 5.625000000000000e+00	 6.250000000000000e+00	 1.012683692307692e+01
0	 5.625000000000000e+00	 6.312500000000000e+00	 1.012339859999999e+01
0	 5.625000000000001e+00	 6.375000000000000e+00	 1.011995224615384e+01
0	 5.625000000000000e+00	 6.437499999999999e+00	 1.011649786153845e+01
0	 5.625000000000000e+00	 6.499999999999999e+00	 1.011303544615384e+01
0	 5.625000000000000e+00	 6.562499999999998e+00	 1.010956500000001e+01
0	 5.625000000000000e+00	 6.624999999999998e+00	 1.010608652307691e+01
0	 5.624999999999999e+00	 6.687499999999998e+00	 1.010260001538462e+01
0	 5.624999999999999e+00	 6.749999999999998e+00	 1.009910547692307e+01
0	 5.625000000000000e+00	 6.812499999999998e+00	 1.009560290769230e+01
0	 5.625000000000000e+00	 6.875000000000000e+00	 1.009209230769231e+01
0	 5.000000000000000e+00	 6.875000000000000e+00	 1.009216153846153e+01
0	 4.999999999999999e+00	 6.937500000000000e+00	 1.008919043076923e+01
0	 5.000000000000001e+00	 7.000000000000000e+00	 1.008618664615382e+01
0	 4.999999999999999e+00	 7.062500000000000e+00	 1.008315018461539e+01
0	 5.000000000000000e+00	 7.125000000000000e+00	 1.008008104615384e+01
0	 4.999999999999999e+00	 7.187499999999998e+00	 1.007697923076922e+01
0	 5.000000000000000e+00	 7.249999999999998e+00	 1.007384473846156e+01
0	 4.999999999999999e+00	 7.312499999999998e+00	 1.007067756923077e+01
0	 5.000000000000000e+00	 7.374999999999998e+00	 1.006747772307692e+01
0	 5.000000000000000e+00	 7.437499999999998e+00	 1.006424520000000e+01
0	 5.000000000000000e+00	 7.500000000000000e+00	 1.006098000000001e+01
0	 5.062500000000000e+00	 6.875000000000001e+00	 1.009286893846154e+01
0	 5.062499999999999e+00	 6.937499999999999e+00	 1.008988711999997e+01
0	 5.062499999999999e+00	 6.999999999999999e+00	 1.008687359384617e+01
0	 5.062500000000001e+00	 7.062500000000000e+00	 1.008382836000001e+01
0	 5.062500000000000e+00	 7.124999999999998e+00	 1.008075141846155e+01
0	 5.062500000000002e+00	 7.187499999999999e+00	 1.007764276923077e+01
0	 5.062500000000001e+00	 7.250000000000000e+00	 1.007450241230770e+01
0	 5.062500000000002e+00	 7.312499999999999e+00	 1.007133034769231e+01
0	 5.062500000000002e+00	 7.374999999999999e+00	 1.006812657538464e+01
0	 5.062499999999999e+00	 7.437499999999996e+00	 1.006489109538463e+01
0	 5.062500000000000e+00	 7.500000000000000e+00	 1.006162390769231e+01
0	 5.124999999999999e+00	 6.875000000000000e+00	 1.009341760000000e+01
0	 5.125000000000000e+00	 6.937499999999999e+00	 1.009042914153845e+01
0	 5.124999999999999e+00	 7.000000000000001e+00	 1.008740994461537e+01
0	 5.124999999999998e+00	 7.062499999999999e+00	 1.008436000923077e+01
0	 5.125000000000000e+00	 7.124999999999998e+00	 1.008127933538460e+01
0	 5.124999999999999e+00	 7.187499999999999e+00	 1.007816792307692e+01
0	 5.125000000000000e+00	 7.249999999999996e+00	 1.007502577230770e+01
0	 5.125000000000000e+00	 7.312499999999998e+00	 1.007185288307693e+01
0	 5.124999999999998e+00	 7.374999999999997e+00	 1.006864925538462e+01
0	 5.125000000000000e+00	 7.437500000000000e+00	 1.006541488923077e+01
0	 5.124999999999999e+00	 7.499999999999999e+00	 1.006214978461537e+01
0	 5.187500000000000e+00	 6.874999999999999e+00	 1.009380752307693e+01
0	 5.187500000000000e+00	 6.937499999999999e+00	 1.009081649538463e+01
0	 5.187500000000000e+00	 7.000000000000000e+00	 1.008779569846152e+01
0	 5.187500000000001e+00	 7.062500000000000e+00	 1.008474513230768e+01
0	 5.187499999999999e+00	 7.124999999999999e+00	 1.008166479692308e+01
0	 5.187500000000000e+00	 7.187499999999999e+00	 1.007855469230770e+01
0	 5.187500000000000e+00	 7.250000000000000e+00	 1.007541481846154e+01
0	 5.187499999999999e+00	 7.312499999999999e+00	 1.007224517538463e+01
0	 5.187500000000000e+00	 7.374999999999997e+00	 1.006904576307691e+01
0	 5.187499999999999e+00	 7.437499999999998e+00	 1.006581658153848e+01
0	 5.187500000000000e+00	 7.500000000000000e+00	 1.006255763076926e+01
0	 5.249999999999998e+00	 6.875000000000001e+00	 1.009403870769229e+01
0	 5.249999999999999e+00	 6.937499999999999e+00	 1.009104918153844e+01
0	 5.250000000000000e+00	 7.000000000000001e+00	 1.008803085538463e+01
0	 5.249999999999999e+00	 7.062500000000000e+00	 1.008498372923077e+01
0	 5.249999999999998e+00	 7.124999999999999e+00	 1.008190780307693e+01
0	 5.250000000000000e+00	 7.187499999999999e+00	 1.007880307692307e+01
0	 5.249999999999999e+00	 7.249999999999997e+00	 1.007566955076923e+01
0	 5.249999999999999e+00	 7.312499999999998e+00	 1.007250722461537e+01
0	 5.249999999999998e+00	 7.374999999999999e+00	 1.006931609846156e+01
0	 5.249999999999999e+00	 7.437499999999998e+00	 1.006609617230770e+01
0	 5.249999999999998e+00	 7.500000000000000e+00	 1.006284744615385e+01
0	 5.312499999999999e+00	 6.875000000000000e+00	 1.009411115384614e+01
0	 5.312499999999999e+00	 6.937500000000000e+00	 1.009112720000001e+01
0	 5.312499999999999e+00	 7.000000000000000e+00	 1.008811541538463e+01
0	 5.312499999999999e+00	 7.062500000000000e+00	 1.008507580000000e+01
0	 5.312499999999998e+00	 7.124999999999997e+00	 1.008200835384616e+01
0	 5.312499999999999e+00	 7.187499999999999e+00	 1.007891307692308e+01
0	 5.312500000000000e+00	 7.249999999999999e+00	 1.007578996923076e+01
0	 5.312499999999999e+00	 7.312499999999998e+00	 1.007263903076923e+01
0	 5.312499999999998e+00	 7.374999999999997e+00	 1.006946026153848e+01
0	 5.312499999999999e+00	 7.437499999999998e+00	 1.006625366153846e+01
0	 5.312499999999999e+00	 7.500000000000000e+00	 1.006301923076925e+01
0	 5.374999999999998e+00	 6.875000000000000e+00	 1.009402486153844e+01
0	 5.374999999999999e+00	 6.937500000000000e+00	 1.009105055076924e+01
0	 5.374999999999998e+00	 6.999999999999998e+00	 1.008804937846153e+01
0	 5.374999999999999e+00	 7.062500000000000e+00	 1.008502134461540e+01
0	 5.375000000000000e+00	 7.125000000000000e+00	 1.008196644923077e+01
0	 5.375000000000000e+00	 7.187500000000000e+00	 1.007888469230770e+01
0	 5.374999999999999e+00	 7.249999999999998e+00	 1.007577607384616e+01
0	 5.374999999999999e+00	 7.312499999999999e+00	 1.007264059384617e+01
0	 5.374999999999999e+00	 7.374999999999999e+00	 1.006947825230770e+01
0	 5.374999999999998e+00	 7.437499999999998e+00	 1.006628904923078e+01
0	 5.374999999999998e+00	 7.499999999999999e+00	 1.006307298461539e+01
0	 5.437499999999998e+00	 6.875000000000000e+00	 1.009377983076925e+01
0	 5.437499999999998e+00	 6.937499999999999e+00	 1.009081923384613e+01
0	 5.437499999999999e+00	 7.000000000000001e+00	 1.008783274461539e+01
0	 5.437499999999999e+00	 7.062499999999999e+00	 1.008482036307692e+01
0	 5.437499999999999e+00	 7.124999999999999e+00	 1.008178208923076e+01
0	 5.437499999999999e+00	 7.187500000000000e+00	 1.007871792307692e+01
0	 5.437499999999999e+00	 7.249999999999999e+00	 1.007562786461538e+01
0	 5.437499999999999e+00	 7.312500000000000e+00	 1.007251191384615e+01
0	 5.437499999999999e+00	 7.374999999999998e+00	 1.006937007076924e+01
0	 5.437499999999999e+00	 7.437499999999999e+00	 1.006620233538460e+01
0	 5.437499999999998e+00	 7.499999999999998e+00	 1.006300870769233e+01
0	 5.499999999999998e+00	 6.875000000000000e+00	 1.009337606153847e+01
0	 5.499999999999999e+00	 6.937500000000001e+00	 1.009043324923078e+01
0	 5.499999999999997e+00	 6.999999999999998e+00	 1.008746551384616e+01
0	 5.499999999999998e+00	 7.062500000000000e+00	 1.008447285538461e+01
0	 5.499999999999998e+00	 7.125000000000000e+00	 1.008145527384616e+01
0	 5.499999999999997e+00	 7.187500000000000e+00	 1.007841276923077e+01
0	 5.499999999999998e+00	 7.250000000000000e+00	 1.007534534153846e+01
0	 5.499999999999998e+00	 7.312499999999999e+00	 1.007225299076924e+01
0	 5.499999999999999e+00	 7.374999999999998e+00	 1.006913571692308e+01
0	 5.499999999999999e+00	 7.437499999999998e+00	 1.006599352000000e+01
0	 5.499999999999998e+00	 7.500000000000000e+00	 1.006282640000000e+01
0	 5.562499999999998e+00	 6.875000000000000e+00	 1.009281355384615e+01
0	 5.562499999999997e+00	 6.937500000000001e+00	 1.008989259692307e+01
0	 5.562499999999999e+00	 7.000000000000001e+00	 1.008694768615385e+01
0	 5.562499999999998e+00	 7.062500000000000e+00	 1.008397882153846e+01
0	 5.562499999999998e+00	 7.124999999999999e+00	 1.008098600307693e+01
0	 5.562499999999998e+00	 7.187499999999998e+00	 1.007796923076923e+01
0	 5.562499999999997e+00	 7.249999999999999e+00	 1.007492850461538e+01
0	 5.562499999999998e+00	 7.312499999999998e+00	 1.007186382461540e+01
0	 5.562499999999998e+00	 7.374999999999998e+00	 1.006877519076923e+01
0	 5.562499999999998e+00	 7.437499999999998e+00	 1.006566260307693e+01
0	 5.562499999999998e+00	 7.500000000000000e+00	 1.006252606153846e+01
0	 5.625000000000000e+00	 6.875000000000000e+00	 1.009209230769231e+01
0	 5.625000000000000e+00	 6.937500000000000e+00	 1.008919727692307e+01
0	 5.625000000000001e+00	 7.000000000000000e+00	 1.008627926153845e+01
0	 5.625000000000000e+00	 7.062500000000000e+00	 1.008333826153847e+01
0	 5.625000000000000e+00	 7.125000000000000e+00	 1.008037427692308e+01
0	 5.625000000000000e+00	 7.187499999999998e+00	 1.007738730769230e+01
0	 5.625000000000000e+00	 7.249999999999998e+00	 1.007437735384616e+01
0	 5.624999999999999e+00	 7.312499999999998e+00	 1.007134441538462e+01
0	 5.624999999999999e+00	 7.374999999999998e+00	 1.006828849230769e+01
0	 5.625000000000000e+00	 7.437499999999998e+00	 1.006520958461539e+01
0	 5.625000000000000e+00	 7.500000000000000e+00	 1.006210769230769e+01
0	 5.000000000000000e+00	 7.500000000000000e+00	 1.006098000000001e+01
0	 4.999999999999999e+00	 7.562500000000000e+00	 1.005866452307694e+01
0	 5.000000000000001e+00	 7.625000000000000e+00	 1.005630824615386e+01
0	 4.999999999999999e+00	 7.687499999999999e+00	 1.005391116923077e+01
0	 5.000000000000000e+00	 7.750000000000000e+00	 1.005147329230772e+01
0	 4.999999999999999e+00	 7.812499999999999e+00	 1.004899461538462e+01
0	 5.000000000000000e+00	 7.874999999999998e+00	 1.004647513846154e+01
0	 4.999999999999999e+00	 7.937499999999997e+00	 1.004391486153846e+01
0	 5.000000000000000e+00	 7.999999999999998e+00	 1.004131378461539e+01
0	 5.000000000000000e+00	 8.062499999999996e+00	 1.003867190769229e+01
0	 5.000000000000000e+00	 8.125000000000000e+00	 1.003598923076922e+01
0	 5.062500000000000e+00	 7.500000000000000e+00	 1.006162390769231e+01
0	 5.062499999999999e+00	 7.562499999999999e+00	 1.005929165230770e+01
0	 5.062499999999999e+00	 7.624999999999998e+00	 1.005691884615386e+01
0	 5.062500000000001e+00	 7.687499999999998e+00	 1.005450548923077e+01
0	 5.062500000000000e+00	 7.750000000000000e+00	 1.005205158153846e+01
0	 5.062500000000002e+00	 7.812500000000000e+00	 1.004955712307693e+01
0	 5.062500000000001e+00	 7.874999999999999e+00	 1.004702211384615e+01
0	 5.062500000000002e+00	 7.937499999999998e+00	 1.004444655384615e+01
0	 5.062500000000002e+00	 8.000000000000000e+00	 1.004183044307691e+01
0	 5.062499999999999e+00	 8.062499999999995e+00	 1.003917378153847e+01
0	 5.062500000000000e+00	 8.125000000000000e+00	 1.003647656923076e+01
0	 5.124999999999999e+00	 7.499999999999999e+00	 1.006214978461537e+01
0	 5.125000000000000e+00	 7.562500000000001e+00	 1.005980417538464e+01
0	 5.124999999999999e+00	 7.625000000000001e+00	 1.005741826461541e+01
0	 5.124999999999998e+00	 7.687500000000001e+00	 1.005499205230768e+01
0	 5.125000000000000e+00	 7.749999999999998e+00	 1.005252553846154e+01
0	 5.124999999999999e+00	 7.812499999999998e+00	 1.005001872307693e+01
0	 5.125000000000000e+00	 7.874999999999996e+00	 1.004747160615385e+01
0	 5.125000000000000e+00	 7.937499999999998e+00	 1.004488418769232e+01
0	 5.124999999999998e+00	 7.999999999999999e+00	 1.004225646769231e+01
0	 5.125000000000000e+00	 8.062499999999998e+00	 1.003958844615383e+01
0	 5.124999999999999e+00	 8.125000000000000e+00	 1.003688012307692e+01
0	 5.187500000000000e+00	 7.500000000000000e+00	 1.006255763076926e+01
0	 5.187500000000000e+00	 7.562500000000001e+00	 1.006020209230769e+01
0	 5.187500000000000e+00	 7.625000000000001e+00	 1.005780650153846e+01
0	 5.187500000000001e+00	 7.687500000000000e+00	 1.005537085846154e+01
0	 5.187499999999999e+00	 7.749999999999999e+00	 1.005289516307692e+01
0	 5.187500000000000e+00	 7.812499999999999e+00	 1.005037941538463e+01
0	 5.187500000000000e+00	 7.874999999999998e+00	 1.004782361538461e+01
0	 5.187499999999999e+00	 7.937499999999998e+00	 1.004522776307694e+01
0	 5.187500000000000e+00	 7.999999999999998e+00	 1.004259185846156e+01
0	 5.187499999999999e+00	 8.062499999999996e+00	 1.003991590153846e+01
0	 5.187500000000000e+00	 8.125000000000000e+00	 1.003719989230766e+01
0	 5.249999999999998e+00	 7.500000000000000e+00	 1.006284744615385e+01
0	 5.249999999999999e+00	 7.562500000000000e+00	 1.006048540307693e+01
0	 5.250000000000000e+00	 7.625000000000000e+00	 1.005808355692309e+01
0	 5.249999999999999e+00	 7.687500000000000e+00	 1.005564190769230e+01
0	 5.249999999999998e+00	 7.749999999999998e+00	 1.005316045538462e+01
0	 5.250000000000000e+00	 7.812500000000000e+00	 1.005063920000001e+01
0	 5.249999999999999e+00	 7.874999999999998e+00	 1.004807814153847e+01
0	 5.249999999999999e+00	 7.937499999999999e+00	 1.004547727999998e+01
0	 5.249999999999998e+00	 7.999999999999997e+00	 1.004283661538461e+01
0	 5.249999999999999e+00	 8.062500000000000e+00	 1.004015614769232e+01
0	 5.249999999999998e+00	 8.125000000000000e+00	 1.003743587692306e+01
0	 5.312499999999999e+00	 7.500000000000000e+00	 1.006301923076925e+01
0	 5.312499999999999e+00	 7.562499999999999e+00	 1.006065410769230e+01
0	 5.312499999999999e+00	 7.624999999999999e+00	 1.005824943076922e+01
0	 5.312499999999999e+00	 7.687500000000000e+00	 1.005580520000001e+01
0	 5.312499999999998e+00	 7.749999999999996e+00	 1.005332141538462e+01
0	 5.312499999999999e+00	 7.812499999999999e+00	 1.005079807692308e+01
0	 5.312500000000000e+00	 7.875000000000000e+00	 1.004823518461538e+01
0	 5.312499999999999e+00	 7.937499999999999e+00	 1.004563273846152e+01
0	 5.312499999999998e+00	 7.999999999999998e+00	 1.004299073846154e+01
0	 5.312499999999999e+00	 8.062500000000000e+00	 1.004030918461539e+01
0	 5.312499999999999e+00	 8.125000000000000e+00	 1.003758807692306e+01
0	 5.374999999999998e+00	 7.499999999999999e+00	 1.006307298461539e+01
0	 5.374999999999999e+00	 7.562500000000000e+00	 1.006070820615383e+01
0	 5.374999999999998e+00	 7.624999999999998e+00	 1.005830412307692e+01
0	 5.374999999999999e+00	 7.687499999999998e+00	 1.005586073538462e+01
0	 5.375000000000000e+00	 7.750000000000001e+00	 1.005337804307692e+01
0	 5.375000000000000e+00	 7.812500000000000e+00	 1.005085604615385e+01
0	 5.374999999999999e+00	 7.874999999999998e+00	 1.004829474461538e+01
0	 5.374999999999999e+00	 7.937499999999999e+00	 1.004569413846152e+01
0	 5.374999999999999e+00	 8.000000000000000e+00	 1.004305422769231e+01
0	 5.374999999999998e+00	 8.062499999999998e+00	 1.004037501230767e+01
0	 5.374999999999998e+00	 8.125000000000000e+00	 1.003765649230769e+01
0	 5.437499999999998e+00	 7.499999999999998e+00	 1.006300870769233e+01
0	 5.437499999999998e+00	 7.562500000000000e+00	 1.006064769846155e+01
0	 5.437499999999999e+00	 7.624999999999999e+00	 1.005824763384618e+01
0	 5.437499999999999e+00	 7.687500000000000e+00	 1.005580851384616e+01
0	 5.437499999999999e+00	 7.749999999999998e+00	 1.005333033846154e+01
0	 5.437499999999999e+00	 7.812500000000000e+00	 1.005081310769232e+01
0	 5.437499999999999e+00	 7.874999999999999e+00	 1.004825682153847e+01
0	 5.437499999999999e+00	 7.937500000000000e+00	 1.004566147999999e+01
0	 5.437499999999999e+00	 7.999999999999998e+00	 1.004302708307693e+01
0	 5.437499999999999e+00	 8.062500000000000e+00	 1.004035363076922e+01
0	 5.437499999999998e+00	 8.125000000000000e+00	 1.003764112307689e+01
0	 5.499999999999998e+00	 7.500000000000000e+00	 1.006282640000000e+01
0	 5.499999999999999e+00	 7.562500000000001e+00	 1.006047258461541e+01
0	 5.499999999999997e+00	 7.625000000000000e+00	 1.005807996307692e+01
0	 5.499999999999998e+00	 7.687500000000001e+00	 1.005564853538462e+01
0	 5.499999999999998e+00	 7.749999999999999e+00	 1.005317830153848e+01
0	 5.499999999999997e+00	 7.812499999999998e+00	 1.005066926153847e+01
0	 5.499999999999998e+00	 7.875000000000000e+00	 1.004812141538462e+01
0	 5.499999999999998e+00	 7.937499999999998e+00	 1.004553476307692e+01
0	 5.499999999999999e+00	 7.999999999999998e+00	 1.004290930461539e+01
0	 5.499999999999999e+00	 8.062500000000000e+00	 1.004024503999999e+01
0	 5.499999999999998e+00	 8.125000000000000e+00	 1.003754196923077e+01
0	 5.562499999999998e+00	 7.500000000000000e+00	 1.006252606153846e+01
0	 5.562499999999997e+00	 7.562500000000001e+00	 1.006018286461539e+01
0	 5.562499999999999e+00	 7.624999999999999e+00	 1.005780111076922e+01
0	 5.562499999999998e+00	 7.687499999999999e+00	 1.005538080000000e+01
0	 5.562499999999998e+00	 7.750000000000000e+00	 1.005292193230770e+01
0	 5.562499999999998e+00	 7.812499999999999e+00	 1.005042450769230e+01
0	 5.562499999999997e+00	 7.874999999999998e+00	 1.004788852615383e+01
0	 5.562499999999998e+00	 7.937499999999998e+00	 1.004531398769231e+01
0	 5.562499999999998e+00	 7.999999999999998e+00	 1.004270089230768e+01
0	 5.562499999999998e+00	 8.062499999999998e+00	 1.004004923999999e+01
0	 5.562499999999998e+00	 8.125000000000000e+00	 1.003735903076922e+01
0	 5.625000000000000e+00	 7.500000000000000e+00	 1.006210769230769e+01
0	 5.625000000000000e+00	 7.562500000000000e+00	 1.005977853846153e+01
0	 5.625000000000001e+00	 7.625000000000000e+00	 1.005741107692309e+01
0	 5.625000000000000e+00	 7.687499999999999e+00	 1.005500530769230e+01
0	 5.625000000000000e+00	 7.750000000000000e+00	 1.005256123076926e+01
0	 5.625000000000000e+00	 7.812499999999999e+00	 1.005007884615384e+01
0	 5.625000000000000e+00	 7.874999999999998e+00	 1.004755815384615e+01
0	 5.624999999999999e+00	 7.937499999999997e+00	 1.004499915384615e+01
0	 5.624999999999999e+00	 7.999999999999998e+00	 1.004240184615385e+01
0	 5.625000000000000e+00	 8.062499999999996e+00	 1.003976623076922e+01
0	 5.625000000000000e+00	 8.125000000000000e+00	 1.003709230769230e+01
0	 5.000000000000000e+00	 8.125000000000000e+00	 1.003598923076922e+01
0	 4.999999999999999e+00	 8.187500000000000e+00	 1.003430780000000e+01
0	 5.000000000000001e+00	 8.250000000000002e+00	 1.003257181538459e+01
0	 4.999999999999999e+00	 8.312500000000000e+00	 1.003078127692308e+01
0	 5.000000000000000e+00	 8.374999999999998e+00	 1.002893618461537e+01
0	 4.999999999999999e+00	 8.437500000000000e+00	 1.002703653846151e+01
0	 5.000000000000000e+00	 8.500000000000000e+00	 1.002508233846154e+01
0	 4.999999999999999e+00	 8.562499999999998e+00	 1.002307358461538e+01
0	 5.000000000000000e+00	 8.625000000000000e+00	 1.002101027692307e+01
0	 5.000000000000000e+00	 8.687499999999998e+00	 1.001889241538461e+01
0	 5.000000000000000e+00	 8.750000000000000e+00	 1.001672000000000e+01
0	 5.062500000000000e+00	 8.125000000000000e+00	 1.003647656923076e+01
0	 5.062499999999999e+00	 8.187500000000002e+00	 1.003477888615385e+01
0	 5.062499999999999e+00	 8.250000000000000e+00	 1.003302645538461e+01
0	 5.062500000000001e+00	 8.312499999999998e+00	 1.003121927692307e+01
0	 5.062500000000000e+00	 8.374999999999998e+00	 1.002935735076922e+01
0	 5.062500000000002e+00	 8.437500000000000e+00	 1.002744067692306e+01
0	 5.062500000000001e+00	 8.500000000000002e+00	 1.002546925538461e+01
0	 5.062500000000002e+00	 8.562500000000000e+00	 1.002344308615384e+01
0	 5.062500000000002e+00	 8.625000000000002e+00	 1.002136216923077e+01
0	 5.062499999999999e+00	 8.687499999999996e+00	 1.001922650461537e+01
0	 5.062500000000000e+00	 8.750000000000002e+00	 1.001703609230769e+01
0	 5.124999999999999e+00	 8.125000000000000e+00	 1.003688012307692e+01
0	 5.125000000000000e+00	 8.187499999999998e+00	 1.003516870769230e+01
0	 5.124999999999999e+00	 8.250000000000000e+00	 1.003340235076923e+01
0	 5.124999999999998e+00	 8.312500000000000e+00	 1.003158105230769e+01
0	 5.125000000000000e+00	 8.374999999999998e+00	 1.002970481230769e+01
0	 5.124999999999999e+00	 8.437499999999998e+00	 1.002777363076923e+01
0	 5.125000000000000e+00	 8.499999999999996e+00	 1.002578750769232e+01
0	 5.125000000000000e+00	 8.562500000000002e+00	 1.002374644307693e+01
0	 5.124999999999998e+00	 8.624999999999998e+00	 1.002165043692308e+01
0	 5.125000000000000e+00	 8.687499999999998e+00	 1.001949948923078e+01
0	 5.124999999999999e+00	 8.750000000000000e+00	 1.001729359999996e+01
0	 5.187500000000000e+00	 8.125000000000000e+00	 1.003719989230766e+01
0	 5.187500000000000e+00	 8.187500000000000e+00	 1.003547726461538e+01
0	 5.187500000000000e+00	 8.250000000000002e+00	 1.003369950153847e+01
0	 5.187500000000001e+00	 8.312499999999998e+00	 1.003186660307693e+01
0	 5.187499999999999e+00	 8.374999999999998e+00	 1.002997856923075e+01
0	 5.187500000000000e+00	 8.437500000000000e+00	 1.002803539999999e+01
0	 5.187500000000000e+00	 8.499999999999998e+00	 1.002603709538460e+01
0	 5.187499999999999e+00	 8.562500000000000e+00	 1.002398365538460e+01
0	 5.187500000000000e+00	 8.625000000000000e+00	 1.002187508000000e+01
0	 5.187499999999999e+00	 8.687499999999996e+00	 1.001971136923076e+01
0	 5.187500000000000e+00	 8.750000000000000e+00	 1.001749252307693e+01
0	 5.249999999999998e+00	 8.125000000000000e+00	 1.003743587692306e+01
0	 5.249999999999999e+00	 8.187499999999998e+00	 1.003570455692304e+01
0	 5.250000000000000e+00	 8.250000000000002e+00	 1.003391790769230e+01
0	 5.249999999999999e+00	 8.312500000000000e+00	 1.003207592923077e+01
0	 5.249999999999998e+00	 8.374999999999998e+00	 1.003017862153845e+01
0	 5.250000000000000e+00	 8.437500000000000e+00	 1.002822598461538e+01
0	 5.249999999999999e+00	 8.499999999999998e+00	 1.002621801846152e+01
0	 5.249999999999999e+00	 8.562499999999998e+00	 1.002415472307692e+01
0	 5.249999999999998e+00	 8.624999999999998e+00	 1.002203609846154e+01
0	 5.249999999999999e+00	 8.687499999999996e+00	 1.001986214461538e+01
0	 5.249999999999998e+00	 8.749999999999998e+00	 1.001763286153846e+01
0	 5.312499999999999e+00	 8.125000000000000e+00	 1.003758807692306e+01
0	 5.312499999999999e+00	 8.187499999999998e+00	 1.003585058461536e+01
0	 5.312499999999999e+00	 8.249999999999998e+00	 1.003405756923077e+01
0	 5.312499999999999e+00	 8.312500000000000e+00	 1.003220903076922e+01
0	 5.312499999999998e+00	 8.374999999999998e+00	 1.003030496923078e+01
0	 5.312499999999999e+00	 8.437499999999998e+00	 1.002834538461538e+01
0	 5.312500000000000e+00	 8.500000000000002e+00	 1.002633027692306e+01
0	 5.312499999999999e+00	 8.562499999999998e+00	 1.002425964615384e+01
0	 5.312499999999998e+00	 8.624999999999998e+00	 1.002213349230768e+01
0	 5.312499999999999e+00	 8.687500000000000e+00	 1.001995181538460e+01
0	 5.312499999999999e+00	 8.750000000000000e+00	 1.001771461538464e+01
0	 5.374999999999998e+00	 8.125000000000000e+00	 1.003765649230769e+01
0	 5.374999999999999e+00	 8.187500000000000e+00	 1.003591534769229e+01
0	 5.374999999999998e+00	 8.249999999999998e+00	 1.003411848615385e+01
0	 5.374999999999999e+00	 8.312500000000000e+00	 1.003226590769230e+01
0	 5.375000000000000e+00	 8.375000000000002e+00	 1.003035761230770e+01
0	 5.375000000000000e+00	 8.437500000000002e+00	 1.002839360000000e+01
0	 5.374999999999999e+00	 8.499999999999998e+00	 1.002637387076923e+01
0	 5.374999999999999e+00	 8.562500000000000e+00	 1.002429842461539e+01
0	 5.374999999999999e+00	 8.624999999999998e+00	 1.002216726153846e+01
0	 5.374999999999998e+00	 8.687499999999998e+00	 1.001998038153845e+01
0	 5.374999999999998e+00	 8.750000000000000e+00	 1.001773778461538e+01
0	 5.437499999999998e+00	 8.125000000000000e+00	 1.003764112307689e+01
0	 5.437499999999998e+00	 8.187500000000000e+00	 1.003589884615383e+01
0	 5.437499999999999e+00	 8.250000000000000e+00	 1.003410065846153e+01
0	 5.437499999999999e+00	 8.312500000000000e+00	 1.003224655999998e+01
0	 5.437499999999999e+00	 8.374999999999998e+00	 1.003033655076923e+01
0	 5.437499999999999e+00	 8.437500000000000e+00	 1.002837063076922e+01
0	 5.437499999999999e+00	 8.500000000000000e+00	 1.002634879999999e+01
0	 5.437499999999999e+00	 8.562499999999998e+00	 1.002427105846153e+01
0	 5.437499999999999e+00	 8.624999999999998e+00	 1.002213740615386e+01
0	 5.437499999999999e+00	 8.687500000000000e+00	 1.001994784307693e+01
0	 5.437499999999998e+00	 8.750000000000000e+00	 1.001770236923079e+01
0	 5.499999999999998e+00	 8.125000000000000e+00	 1.003754196923077e+01
0	 5.499999999999999e+00	 8.187500000000002e+00	 1.003580107999998e+01
0	 5.499999999999997e+00	 8.250000000000000e+00	 1.003400408615385e+01
0	 5.499999999999998e+00	 8.312500000000000e+00	 1.003215098769229e+01
0	 5.499999999999998e+00	 8.375000000000002e+00	 1.003024178461538e+01
0	 5.499999999999997e+00	 8.437500000000000e+00	 1.002827647692307e+01
0	 5.499999999999998e+00	 8.500000000000000e+00	 1.002625506461539e+01
0	 5.499999999999998e+00	 8.562499999999996e+00	 1.002417754769232e+01
0	 5.499999999999999e+00	 8.624999999999998e+00	 1.002204392615385e+01
0	 5.499999999999999e+00	 8.687499999999998e+00	 1.001985420000002e+01
0	 5.499999999999998e+00	 8.750000000000002e+00	 1.001760836923078e+01
0	 5.562499999999998e+00	 8.125000000000000e+00	 1.003735903076922e+01
0	 5.562499999999997e+00	 8.187500000000000e+00	 1.003562204923078e+01
0	 5.562499999999999e+00	 8.250000000000002e+00	 1.003382876923077e+01
0	 5.562499999999998e+00	 8.312499999999998e+00	 1.003197919076922e+01
0	 5.562499999999998e+00	 8.374999999999998e+00	 1.003007331384617e+01
0	 5.562499999999998e+00	 8.437499999999998e+00	 1.002811113846153e+01
0	 5.562499999999997e+00	 8.499999999999998e+00	 1.002609266461537e+01
0	 5.562499999999998e+00	 8.562499999999998e+00	 1.002401789230770e+01
0	 5.562499999999998e+00	 8.624999999999998e+00	 1.002188682153846e+01
0	 5.562499999999998e+00	 8.687499999999998e+00	 1.001969945230770e+01
0	 5.562499999999998e+00	 8.750000000000000e+00	 1.001745578461540e+01
0	 5.625000000000000e+00	 8.125000000000000e+00	 1.003709230769230e+01
0	 5.625000000000000e+00	 8.187500000000000e+00	 1.003536175384616e+01
0	 5.625000000000001e+00	 8.250000000000002e+00	 1.003357470769229e+01
0	 5.625000000000000e+00	 8.312500000000000e+00	 1.003173116923077e+01
0	 5.625000000000000e+00	 8.374999999999998e+00	 1.002983113846154e+01
0	 5.625000000000000e+00	 8.437500000000000e+00	 1.002787461538460e+01
0	 5.625000000000000e+00	 8.500000000000000e+00	 1.002586160000000e+01
0	 5.624999999999999e+00	 8.562499999999998e+00	 1.002379209230769e+01
0	 5.624999999999999e+00	 8.625000000000000e+00	 1.002166609230769e+01
0	 5.625000000000000e+00	 8.687499999999998e+00	 1.001948359999999e+01
0	 5.625000000000000e+00	 8.750000000000000e+00	 1.001724461538462e+01
0	 5.000000000000000e+00	 8.750000000000000e+00	 1.001672000000000e+01
0	 4.999999999999999e+00	 8.812500000000000e+00	 1.001571653846156e+01
0	 5.000000000000001e+00	 8.875000000000002e+00	 1.001463507692308e+01
0	 4.999999999999999e+00	 8.937499999999998e+00	 1.001347561538461e+01
0	 5.000000000000000e+00	 9.000000000000000e+00	 1.001223815384616e+01
0	 4.999999999999999e+00	 9.062500000000000e+00	 1.001092269230769e+01
0	 5.000000000000000e+00	 9.124999999999998e+00	 1.000952923076922e+01
0	 4.999999999999999e+00	 9.187499999999998e+00	 1.000805776923075e+01
0	 5.000000000000000e+00	 9.249999999999998e+00	 1.000650830769231e+01
0	 5.000000000000000e+00	 9.312499999999998e+00	 1.000488084615385e+01
0	 5.000000000000000e+00	 9.375000000000000e+00	 1.000317538461539e+01
0	 5.062500000000000e+00	 8.750000000000002e+00	 1.001703609230769e+01
0	 5.062499999999999e+00	 8.812499999999998e+00	 1.001602542461539e+01
0	 5.062499999999999e+00	 8.875000000000000e+00	 1.001493630461536e+01
0	 5.062500000000001e+00	 8.937500000000000e+00	 1.001376873230772e+01
0	 5.062500000000000e+00	 9.000000000000000e+00	 1.001252270769231e+01
0	 5.062500000000002e+00	 9.062500000000000e+00	 1.001119823076923e+01
0	 5.062500000000001e+00	 9.125000000000000e+00	 1.000979530153847e+01
0	 5.062500000000002e+00	 9.187499999999998e+00	 1.000831392000002e+01
0	 5.062500000000002e+00	 9.250000000000000e+00	 1.000675408615384e+01
0	 5.062499999999999e+00	 9.312499999999996e+00	 1.000511580000002e+01
0	 5.062500000000000e+00	 9.375000000000000e+00	 1.000339906153848e+01
0	 5.124999999999999e+00	 8.750000000000000e+00	 1.001729359999996e+01
0	 5.125000000000000e+00	 8.812500000000000e+00	 1.001627678153847e+01
0	 5.124999999999999e+00	 8.875000000000004e+00	 1.001518105846153e+01
0	 5.124999999999998e+00	 8.937500000000000e+00	 1.001400643076921e+01
0	 5.125000000000000e+00	 8.999999999999998e+00	 1.001275289846155e+01
0	 5.124999999999999e+00	 9.062500000000000e+00	 1.001142046153847e+01
0	 5.125000000000000e+00	 9.124999999999998e+00	 1.001000912000000e+01
0	 5.125000000000000e+00	 9.187500000000002e+00	 1.000851887384616e+01
0	 5.124999999999998e+00	 9.249999999999996e+00	 1.000694972307691e+01
0	 5.125000000000000e+00	 9.312499999999998e+00	 1.000530166769227e+01
0	 5.124999999999999e+00	 9.375000000000000e+00	 1.000357470769231e+01
0	 5.187500000000000e+00	 8.750000000000000e+00	 1.001749252307693e+01
0	 5.187500000000000e+00	 8.812500000000000e+00	 1.001647060923078e+01
0	 5.187500000000000e+00	 8.875000000000002e+00	 1.001536933846155e+01
0	 5.187500000000001e+00	 8.937500000000000e+00	 1.001418871076923e+01
0	 5.187499999999999e+00	 9.000000000000000e+00	 1.001292872615383e+01
0	 5.187500000000000e+00	 9.062499999999998e+00	 1.001158938461538e+01
0	 5.187500000000000e+00	 9.124999999999998e+00	 1.001017068615387e+01
0	 5.187499999999999e+00	 9.187500000000002e+00	 1.000867263076925e+01
0	 5.187500000000000e+00	 9.249999999999998e+00	 1.000709521846153e+01
0	 5.187499999999999e+00	 9.312499999999998e+00	 1.000543844923078e+01
0	 5.187500000000000e+00	 9.375000000000002e+00	 1.000370232307692e+01
0	 5.249999999999998e+00	 8.749999999999998e+00	 1.001763286153846e+01
0	 5.249999999999999e+00	 8.812500000000000e+00	 1.001660690769231e+01
0	 5.250000000000000e+00	 8.875000000000002e+00	 1.001550114461539e+01
0	 5.249999999999999e+00	 8.937500000000000e+00	 1.001431557230770e+01
0	 5.249999999999998e+00	 8.999999999999998e+00	 1.001305019076923e+01
0	 5.250000000000000e+00	 9.062500000000000e+00	 1.001170500000001e+01
0	 5.249999999999999e+00	 9.124999999999998e+00	 1.001028000000002e+01
0	 5.249999999999999e+00	 9.187500000000000e+00	 1.000877519076922e+01
0	 5.249999999999998e+00	 9.249999999999998e+00	 1.000719057230769e+01
0	 5.249999999999999e+00	 9.312500000000000e+00	 1.000552614461541e+01
0	 5.249999999999998e+00	 9.375000000000002e+00	 1.000378190769232e+01
0	 5.312499999999999e+00	 8.750000000000000e+00	 1.001771461538464e+01
0	 5.312499999999999e+00	 8.812500000000000e+00	 1.001668567692310e+01
0	 5.312499999999999e+00	 8.875000000000000e+00	 1.001557647692308e+01
0	 5.312499999999999e+00	 8.937500000000000e+00	 1.001438701538463e+01
0	 5.312499999999998e+00	 8.999999999999998e+00	 1.001311729230769e+01
0	 5.312499999999999e+00	 9.062500000000000e+00	 1.001176730769232e+01
0	 5.312500000000000e+00	 9.125000000000002e+00	 1.001033706153844e+01
0	 5.312499999999999e+00	 9.187499999999998e+00	 1.000882655384614e+01
0	 5.312499999999998e+00	 9.249999999999998e+00	 1.000723578461539e+01
0	 5.312499999999999e+00	 9.312500000000000e+00	 1.000556475384614e+01
0	 5.312499999999999e+00	 9.375000000000002e+00	 1.000381346153844e+01
0	 5.374999999999998e+00	 8.750000000000000e+00	 1.001773778461538e+01
0	 5.374999999999999e+00	 8.812500000000000e+00	 1.001670691692309e+01
0	 5.374999999999998e+00	 8.874999999999996e+00	 1.001559533538459e+01
0	 5.374999999999999e+00	 8.937499999999998e+00	 1.001440304000000e+01
0	 5.375000000000000e+00	 9.000000000000004e+00	 1.001313003076923e+01
0	 5.375000000000000e+00	 9.062500000000002e+00	 1.001177630769231e+01
0	 5.374999999999999e+00	 9.124999999999998e+00	 1.001034187076923e+01
0	 5.374999999999999e+00	 9.187500000000000e+00	 1.000882671999999e+01
0	 5.374999999999999e+00	 9.249999999999998e+00	 1.000723085538461e+01
0	 5.374999999999998e+00	 9.312499999999998e+00	 1.000555427692308e+01
0	 5.374999999999998e+00	 9.375000000000000e+00	 1.000379698461538e+01
0	 5.437499999999998e+00	 8.750000000000000e+00	 1.001770236923079e+01
0	 5.437499999999998e+00	 8.812499999999998e+00	 1.001667062769233e+01
0	 5.437499999999999e+00	 8.875000000000002e+00	 1.001555772000001e+01
0	 5.437499999999999e+00	 8.937500000000002e+00	 1.001436364615385e+01
0	 5.437499999999999e+00	 8.999999999999998e+00	 1.001308840615383e+01
0	 5.437499999999999e+00	 9.062500000000000e+00	 1.001173200000000e+01
0	 5.437499999999999e+00	 9.125000000000000e+00	 1.001029442769229e+01
0	 5.437499999999999e+00	 9.187500000000000e+00	 1.000877568923077e+01
0	 5.437499999999999e+00	 9.249999999999998e+00	 1.000717578461537e+01
0	 5.437499999999999e+00	 9.312500000000000e+00	 1.000549471384617e+01
0	 5.437499999999998e+00	 9.375000000000000e+00	 1.000373247692305e+01
0	 5.499999999999998e+00	 8.750000000000002e+00	 1.001760836923078e+01
0	 5.499999999999999e+00	 8.812500000000002e+00	 1.001657680923077e+01
0	 5.499999999999997e+00	 8.875000000000000e+00	 1.001546363076923e+01
0	 5.499999999999998e+00	 8.937500000000002e+00	 1.001426883384616e+01
0	 5.499999999999998e+00	 8.999999999999998e+00	 1.001299241846153e+01
0	 5.499999999999997e+00	 9.062499999999998e+00	 1.001163438461539e+01
0	 5.499999999999998e+00	 9.125000000000000e+00	 1.001019473230768e+01
0	 5.499999999999998e+00	 9.187499999999998e+00	 1.000867346153846e+01
0	 5.499999999999999e+00	 9.250000000000000e+00	 1.000707057230770e+01
0	 5.499999999999999e+00	 9.312499999999998e+00	 1.000538606461539e+01
0	 5.499999999999998e+00	 9.375000000000000e+00	 1.000361993846153e+01
0	 5.562499999999998e+00	 8.750000000000000e+00	 1.001745578461540e+01
0	 5.562499999999997e+00	 8.812500000000000e+00	 1.001642546153846e+01
0	 5.562499999999999e+00	 8.875000000000002e+00	 1.001531306769230e+01
0	 5.562499999999998e+00	 8.937500000000000e+00	 1.001411860307693e+01
0	 5.562499999999998e+00	 9.000000000000000e+00	 1.001284206769231e+01
0	 5.562499999999998e+00	 9.062500000000000e+00	 1.001148346153846e+01
0	 5.562499999999997e+00	 9.125000000000000e+00	 1.001004278461538e+01
0	 5.562499999999998e+00	 9.187499999999998e+00	 1.000852003692309e+01
0	 5.562499999999998e+00	 9.249999999999998e+00	 1.000691521846155e+01
0	 5.562499999999998e+00	 9.312499999999996e+00	 1.000522832923078e+01
0	 5.562499999999998e+00	 9.375000000000000e+00	 1.000345936923077e+01
0	 5.625000000000000e+00	 8.750000000000000e+00	 1.001724461538462e+01
0	 5.625000000000000e+00	 8.812500000000000e+00	 1.001621658461539e+01
0	 5.625000000000001e+00	 8.875000000000002e+00	 1.001510603076924e+01
0	 5.625000000000000e+00	 8.937499999999998e+00	 1.001391295384615e+01
0	 5.625000000000000e+00	 9.000000000000000e+00	 1.001263735384616e+01
0	 5.625000000000000e+00	 9.062500000000000e+00	 1.001127923076923e+01
0	 5.625000000000000e+00	 9.124999999999998e+00	 1.000983858461538e+01
0	 5.624999999999999e+00	 9.187499999999998e+00	 1.000831541538460e+01
0	 5.624999999999999e+00	 9.249999999999998e+00	 1.000670972307690e+01
0	 5.625000000000000e+00	 9.312499999999998e+00	 1.000502150769229e+01
0	 5.625000000000000e+00	 9.375000000000000e+00	 1.000325076923077e+01
0	 5.000000000000000e+00	 9.375000000000000e+00	 1.000317538461539e+01
0	 5.000000000000000e+00	 9.437499999999998e+00	 1.000315481538463e+01
0	 5.000000000000000e+00	 9.500000000000000e+00	 1.000301526153845e+01
0	 5.000000000000000e+00	 9.562500000000000e+00	 1.000275672307692e+01
0	 5.000000000000000e+00	 9.625000000000000e+00	 1.000237920000001e+01
0	 5.000000000000000e+00	 9.687499999999998e+00	 1.000188269230768e+01
0	 5.000000000000000e+00	 9.749999999999998e+00	 1.000126720000002e+01
0	 5.000000000000000e+00	 9.812500000000000e+00	 1.000053272307695e+01
0	 5.000000000000001e+00	 9.875000000000000e+00	 9.999679261538473e+00
0	 5.000000000000000e+00	 9.937499999999998e+00	 9.998706815384642e+00
0	 5.000000000000000e+00	 1.000000000000000e+01	 9.997615384615395e+00
0	 5.062500000000000e+00	 9.375000000000000e+00	 1.000339906153848e+01
0	 5.062500000000000e+00	 9.437500000000002e+00	 1.000338415846154e+01
0	 5.062499999999999e+00	 9.500000000000000e+00	 1.000324984615386e+01
0	 5.062499999999999e+00	 9.562500000000000e+00	 1.000299612461539e+01
0	 5.062500000000000e+00	 9.625000000000000e+00	 1.000262299384618e+01
0	 5.062500000000001e+00	 9.687500000000000e+00	 1.000213045384615e+01
0	 5.062500000000001e+00	 9.749999999999998e+00	 1.000151850461539e+01
0	 5.062500000000001e+00	 9.812499999999998e+00	 1.000078714615384e+01
0	 5.062500000000001e+00	 9.874999999999998e+00	 9.999936378461566e+00
0	 5.062499999999999e+00	 9.937499999999996e+00	 9.998966201538519e+00
0	 5.062500000000000e+00	 1.000000000000000e+01	 9.997876615384614e+00
0	 5.124999999999999e+00	 9.375000000000000e+00	 1.000357470769231e+01
0	 5.124999999999999e+00	 9.437499999999998e+00	 1.000356424307692e+01
0	 5.125000000000000e+00	 9.500000000000000e+00	 1.000343394461539e+01
0	 5.124999999999999e+00	 9.562500000000000e+00	 1.000318381230771e+01
0	 5.125000000000000e+00	 9.625000000000002e+00	 1.000281384615386e+01
0	 5.125000000000001e+00	 9.687500000000002e+00	 1.000232404615387e+01
0	 5.124999999999999e+00	 9.750000000000000e+00	 1.000171441230769e+01
0	 5.124999999999999e+00	 9.812500000000002e+00	 1.000098494461542e+01
0	 5.124999999999998e+00	 9.874999999999996e+00	 1.000013564307692e+01
0	 5.125000000000000e+00	 9.937500000000000e+00	 9.999166507692326e+00
0	 5.125000000000000e+00	 1.000000000000000e+01	 9.998077538461535e+00
0	 5.187500000000000e+00	 9.375000000000002e+00	 1.000370232307692e+01
0	 5.187499999999999e+00	 9.437500000000000e+00	 1.000369506923077e+01
0	 5.187499999999998e+00	 9.499999999999996e+00	 1.000356755692308e+01
0	 5.187500000000000e+00	 9.562500000000000e+00	 1.000331978615388e+01
0	 5.187499999999998e+00	 9.624999999999998e+00	 1.000295175692307e+01
0	 5.187499999999998e+00	 9.687500000000000e+00	 1.000246346923080e+01
0	 5.187499999999998e+00	 9.749999999999996e+00	 1.000185492307692e+01
0	 5.187500000000000e+00	 9.812499999999996e+00	 1.000112611846154e+01
0	 5.187499999999999e+00	 9.875000000000000e+00	 1.000027705538461e+01
0	 5.187499999999999e+00	 9.937499999999998e+00	 9.999307733846148e+00
0	 5.187499999999999e+00	 1.000000000000000e+01	 9.998218153846164e+00
0	 5.249999999999998e+00	 9.375000000000002e+00	 1.000378190769232e+01
0	 5.249999999999998e+00	 9.437500000000000e+00	 1.000377663692307e+01
0	 5.250000000000001e+00	 9.500000000000004e+00	 1.000365068307692e+01
0	 5.249999999999999e+00	 9.562500000000000e+00	 1.000340404615386e+01
0	 5.249999999999998e+00	 9.624999999999998e+00	 1.000303672615385e+01
0	 5.250000000000000e+00	 9.687499999999998e+00	 1.000254872307691e+01
0	 5.250000000000000e+00	 9.750000000000000e+00	 1.000194003692312e+01
0	 5.249999999999999e+00	 9.812499999999996e+00	 1.000121066769233e+01
0	 5.250000000000000e+00	 9.874999999999998e+00	 1.000036061538461e+01
0	 5.249999999999998e+00	 9.937499999999996e+00	 9.999389880000043e+00
0	 5.249999999999999e+00	 1.000000000000000e+01	 9.998298461538473e+00
0	 5.312499999999999e+00	 9.375000000000002e+00	 1.000381346153844e+01
0	 5.312499999999998e+00	 9.437499999999998e+00	 1.000380894615385e+01
0	 5.312499999999999e+00	 9.499999999999998e+00	 1.000368332307691e+01
0	 5.312499999999998e+00	 9.562500000000000e+00	 1.000343659230768e+01
0	 5.312499999999998e+00	 9.624999999999998e+00	 1.000306875384614e+01
0	 5.312499999999999e+00	 9.687500000000000e+00	 1.000257980769231e+01
0	 5.312499999999999e+00	 9.750000000000000e+00	 1.000196975384620e+01
0	 5.312499999999999e+00	 9.812499999999998e+00	 1.000123859230772e+01
0	 5.312500000000000e+00	 9.874999999999998e+00	 1.000038632307693e+01
0	 5.312499999999999e+00	 9.937499999999998e+00	 9.999412946153836e+00
0	 5.312499999999999e+00	 1.000000000000000e+01	 9.998318461538499e+00
0	 5.374999999999998e+00	 9.375000000000000e+00	 1.000379698461538e+01
0	 5.374999999999998e+00	 9.437499999999998e+00	 1.000379199692308e+01
0	 5.374999999999998e+00	 9.500000000000000e+00	 1.000366547692307e+01
0	 5.374999999999998e+00	 9.562500000000000e+00	 1.000341742461538e+01
0	 5.374999999999999e+00	 9.625000000000000e+00	 1.000304784000000e+01
0	 5.374999999999999e+00	 9.687499999999998e+00	 1.000255672307695e+01
0	 5.374999999999999e+00	 9.749999999999998e+00	 1.000194407384616e+01
0	 5.374999999999998e+00	 9.812499999999996e+00	 1.000120989230769e+01
0	 5.374999999999998e+00	 9.874999999999998e+00	 1.000035417846153e+01
0	 5.374999999999999e+00	 9.937499999999998e+00	 9.999376932307705e+00
0	 5.374999999999998e+00	 9.999999999999998e+00	 9.998278153846211e+00
0	 5.437499999999998e+00	 9.375000000000000e+00	 1.000373247692305e+01
0	 5.437499999999997e+00	 9.437499999999998e+00	 1.000372578923076e+01
0	 5.437499999999998e+00	 9.499999999999998e+00	 1.000359714461539e+01
0	 5.437499999999999e+00	 9.562500000000002e+00	 1.000334654307693e+01
0	 5.437499999999998e+00	 9.624999999999998e+00	 1.000297398461539e+01
0	 5.437499999999999e+00	 9.687500000000000e+00	 1.000247946923076e+01
0	 5.437499999999999e+00	 9.750000000000000e+00	 1.000186299692303e+01
0	 5.437499999999999e+00	 9.812500000000000e+00	 1.000112456769231e+01
0	 5.437499999999999e+00	 9.874999999999998e+00	 1.000026418153846e+01
0	 5.437499999999998e+00	 9.937499999999998e+00	 9.999281838461513e+00
0	 5.437499999999999e+00	 1.000000000000000e+01	 9.998177538461617e+00
0	 5.499999999999998e+00	 9.375000000000000e+00	 1.000361993846153e+01
0	 5.499999999999999e+00	 9.437500000000002e+00	 1.000361032307693e+01
0	 5.499999999999998e+00	 9.500000000000000e+00	 1.000347832615385e+01
0	 5.499999999999998e+00	 9.562500000000002e+00	 1.000322394769232e+01
0	 5.499999999999998e+00	 9.624999999999998e+00	 1.000284718769229e+01
0	 5.499999999999998e+00	 9.687499999999998e+00	 1.000234804615384e+01
0	 5.499999999999998e+00	 9.750000000000000e+00	 1.000172652307692e+01
0	 5.499999999999998e+00	 9.812499999999998e+00	 1.000098261846154e+01
0	 5.499999999999998e+00	 9.874999999999998e+00	 1.000011633230766e+01
0	 5.499999999999998e+00	 9.937499999999998e+00	 9.999127664615351e+00
0	 5.499999999999998e+00	 1.000000000000000e+01	 9.998016615384602e+00
0	 5.562499999999998e+00	 9.375000000000000e+00	 1.000345936923077e+01
0	 5.562499999999998e+00	 9.437500000000000e+00	 1.000344559846155e+01
0	 5.562499999999997e+00	 9.499999999999998e+00	 1.000330902153848e+01
0	 5.562499999999999e+00	 9.562500000000000e+00	 1.000304963846155e+01
0	 5.562499999999998e+00	 9.624999999999998e+00	 1.000266744923078e+01
0	 5.562499999999998e+00	 9.687499999999996e+00	 1.000216245384615e+01
0	 5.562499999999997e+00	 9.749999999999998e+00	 1.000153465230770e+01
0	 5.562499999999998e+00	 9.812499999999998e+00	 1.000078404461538e+01
0	 5.562499999999998e+00	 9.874999999999996e+00	 9.999910630769284e+00
0	 5.562499999999998e+00	 9.937499999999998e+00	 9.998914410769171e+00
0	 5.562499999999998e+00	 1.000000000000000e+01	 9.997795384615394e+00
0	 5.625000000000000e+00	 9.375000000000000e+00	 1.000325076923077e+01
0	 5.625000000000000e+00	 9.437499999999998e+00	 1.000323161538462e+01
0	 5.625000000000000e+00	 9.500000000000000e+00	 1.000308923076921e+01
0	 5.624999999999999e+00	 9.562500000000000e+00	 1.000282361538460e+01
0	 5.625000000000001e+00	 9.625000000000000e+00	 1.000243476923075e+01
0	 5.625000000000000e+00	 9.687499999999998e+00	 1.000192269230770e+01
0	 5.625000000000000e+00	 9.749999999999998e+00	 1.000128738461537e+01
0	 5.625000000000000e+00	 9.812500000000000e+00	 1.000052884615387e+01
0	 5.625000000000001e+00	 9.875000000000000e+00	 9.999647076923047e+00
0	 5.625000000000000e+00	 9.937499999999998e+00	 9.998642076923083e+00
0	 5.625000000000000e+00	 1.000000000000000e+01	 9.997513846153851e+00
0	 5.625000000000000e+00	 0.000000000000000e+00	 1.021020615384615e+01
0	 5.624999999999999e+00	 6.250000000000000e-02	 1.021279296923077e+01
0	 5.625000000000000e+00	 1.250000000000000e-01	 1.021512409230769e+01
0	 5.625000000000000e+00	 1.875000000000000e-01	 1.021719952307693e+01
0	 5.624999999999999e+00	 2.500000000000000e-01	 1.021901926153846e+01
0	 5.625000000000000e+00	 3.125000000000000e-01	 1.022058330769230e+01
0	 5.625000000000000e+00	 3.750000000000000e-01	 1.022189166153846e+01
0	 5.625000000000000e+00	 4.374999999999999e-01	 1.022294432307692e+01
0	 5.625000000000001e+00	 5.000000000000000e-01	 1.022374129230769e+01
0	 5.625000000000000e+00	 5.624999999999999e-01	 1.022428256923077e+01
0	 5.625000000000000e+00	 6.250000000000000e-01	 1.022456815384615e+01
0	 5.687499999999999e+00	 0.000000000000000e+00	 1.020467024000000e+01
0	 5.687499999999999e+00	 6.249999999999999e-02	 1.020710638046154e+01
0	 5.687499999999998e+00	 1.250000000000000e-01	 1.020928666246153e+01
0	 5.687500000000000e+00	 1.875000000000000e-01	 1.021121108600000e+01
0	 5.687499999999999e+00	 2.500000000000000e-01	 1.021287965107692e+01
0	 5.687499999999999e+00	 3.125000000000001e-01	 1.021429235769231e+01
0	 5.687499999999999e+00	 3.749999999999999e-01	 1.021544920584615e+01
0	 5.687500000000001e+00	 4.374999999999999e-01	 1.021635019553846e+01
0	 5.687500000000000e+00	 5.000000000000000e-01	 1.021699532676923e+01
0	 5.687500000000000e+00	 5.625000000000000e-01	 1.021738459953846e+01
0	 5.687500000000001e+00	 6.250000000000000e-01	 1.021751801384616e+01
0	 5.749999999999999e+00	 0.000000000000000e+00	 1.019901216000000e+01
0	 5.750000000000001e+00	 6.250000000000000e-02	 1.020131954953846e+01
0	 5.750000000000000e+00	 1.250000000000000e-01	 1.020337091446154e+01
0	 5.749999999999999e+00	 1.875000000000000e-01	 1.020516625476923e+01
0	 5.749999999999999e+00	 2.500000000000001e-01	 1.020670557046154e+01
0	 5.749999999999999e+00	 3.125000000000000e-01	 1.020798886153846e+01
0	 5.750000000000000e+00	 3.749999999999999e-01	 1.020901612800000e+01
0	 5.750000000000000e+00	 4.375000000000000e-01	 1.020978736984615e+01
0	 5.750000000000002e+00	 4.999999999999999e-01	 1.021030258707692e+01
0	 5.750000000000000e+00	 5.625000000000000e-01	 1.021056177969231e+01
0	 5.750000000000000e+00	 6.249999999999999e-01	 1.021056494769231e+01
0	 5.812499999999999e+00	 0.000000000000000e+00	 1.019323191384615e+01
0	 5.812499999999998e+00	 6.250000000000000e-02	 1.019543247646154e+01
0	 5.812499999999999e+00	 1.250000000000000e-01	 1.019737684830769e+01
0	 5.812500000000000e+00	 1.875000000000001e-01	 1.019906502938461e+01
0	 5.812500000000001e+00	 2.500000000000001e-01	 1.020049701969231e+01
0	 5.812500000000000e+00	 3.125000000000000e-01	 1.020167281923077e+01
0	 5.812500000000000e+00	 3.749999999999999e-01	 1.020259242800000e+01
0	 5.812499999999999e+00	 4.374999999999999e-01	 1.020325584600000e+01
0	 5.812499999999998e+00	 4.999999999999999e-01	 1.020366307323077e+01
0	 5.812500000000000e+00	 5.625000000000001e-01	 1.020381410969230e+01
0	 5.812499999999999e+00	 6.249999999999999e-01	 1.020370895538461e+01
0	 5.874999999999999e+00	 0.000000000000000e+00	 1.018732950153846e+01
0	 5.874999999999998e+00	 6.250000000000000e-02	 1.018944516123077e+01
0	 5.874999999999998e+00	 1.250000000000000e-01	 1.019130446400000e+01
0	 5.874999999999999e+00	 1.875000000000000e-01	 1.019290740984615e+01
0	 5.874999999999998e+00	 2.500000000000000e-01	 1.019425399876923e+01
0	 5.874999999999999e+00	 3.125000000000000e-01	 1.019534423076923e+01
0	 5.874999999999999e+00	 3.750000000000000e-01	 1.019617810584615e+01
0	 5.874999999999999e+00	 4.375000000000000e-01	 1.019675562400000e+01
0	 5.874999999999999e+00	 4.999999999999999e-01	 1.019707678523077e+01
0	 5.874999999999999e+00	 5.625000000000000e-01	 1.019714158953846e+01
0	 5.875000000000000e+00	 6.250000000000001e-01	 1.019695003692307e+01
0	 5.937499999999998e+00	 0.000000000000000e+00	 1.018130492307693e+01
0	 5.937499999999997e+00	 6.249999999999998e-02	 1.018335760384615e+01
0	 5.937500000000000e+00	 1.250000000000000e-01	 1.018515376153846e+01
0	 5.937499999999999e+00	 1.875000000000000e-01	 1.018669339615384e+01
0	 5.937499999999999e+00	 2.499999999999999e-01	 1.018797650769231e+01
0	 5.937499999999998e+00	 3.125000000000000e-01	 1.018900309615385e+01
0	 5.937499999999998e+00	 3.750000000000000e-01	 1.018977316153846e+01
0	 5.937499999999998e+00	 4.375000000000000e-01	 1.019028670384615e+01
0	 5.937499999999998e+00	 4.999999999999999e-01	 1.019054372307691e+01
0	 5.937500000000000e+00	 5.625000000000001e-01	 1.019054421923077e+01
0	 5.937499999999999e+00	 6.250000000000000e-01	 1.019028819230769e+01
0	 5.999999999999998e+00	 0.000000000000000e+00	 1.017515817846154e+01
0	 5.999999999999999e+00	 6.249999999999999e-02	 1.017716980430769e+01
0	 6.000000000000000e+00	 1.250000000000000e-01	 1.017892474092307e+01
0	 5.999999999999999e+00	 1.875000000000001e-01	 1.018042298830769e+01
0	 5.999999999999999e+00	 2.500000000000001e-01	 1.018166454646154e+01
0	 5.999999999999999e+00	 3.125000000000001e-01	 1.018264941538461e+01
0	 5.999999999999998e+00	 3.749999999999999e-01	 1.018337759507692e+01
0	 6.000000000000000e+00	 4.375000000000000e-01	 1.018384908553846e+01
0	 5.999999999999999e+00	 4.999999999999998e-01	 1.018406388676923e+01
0	 5.999999999999998e+00	 5.624999999999999e-01	 1.018402199876923e+01
0	 5.999999999999998e+00	 6.250000000000001e-01	 1.018372342153845e+01
0	 6.062499999999999e+00	 0.000000000000000e+00	 1.016888926769231e+01
0	 6.062499999999999e+00	 6.250000000000000e-02	 1.017088176261538e+01
0	 6.062499999999998e+00	 1.250000000000000e-01	 1.017261740215385e+01
0	 6.062500000000000e+00	 1.875000000000000e-01	 1.017409618630770e+01
0	 6.062499999999998e+00	 2.500000000000000e-01	 1.017531811507692e+01
0	 6.062499999999998e+00	 3.125000000000001e-01	 1.017628318846154e+01
0	 6.062499999999998e+00	 3.750000000000000e-01	 1.017699140646154e+01
0	 6.062499999999998e+00	 4.375000000000000e-01	 1.017744276907692e+01
0	 6.062499999999998e+00	 4.999999999999999e-01	 1.017763727630769e+01
0	 6.062499999999999e+00	 5.625000000000000e-01	 1.017757492815384e+01
0	 6.062499999999998e+00	 6.249999999999999e-01	 1.017725572461538e+01
0	 6.124999999999998e+00	 0.000000000000000e+00	 1.016249819076923e+01
0	 6.124999999999998e+00	 6.249999999999999e-02	 1.016449347876923e+01
0	 6.124999999999999e+00	 1.250000000000000e-01	 1.016623174523077e+01
0	 6.125000000000000e+00	 1.875000000000001e-01	 1.016771299015384e+01
0	 6.124999999999998e+00	 2.500000000000000e-01	 1.016893721353846e+01
0	 6.124999999999997e+00	 3.124999999999999e-01	 1.016990441538461e+01
0	 6.124999999999998e+00	 3.749999999999999e-01	 1.017061459569230e+01
0	 6.124999999999997e+00	 4.375000000000000e-01	 1.017106775446153e+01
0	 6.124999999999999e+00	 4.999999999999999e-01	 1.017126389169231e+01
0	 6.124999999999998e+00	 5.625000000000000e-01	 1.017120300738461e+01
0	 6.124999999999998e+00	 6.250000000000000e-01	 1.017088510153846e+01
0	 6.187499999999998e+00	 0.000000000000000e+00	 1.015598494769231e+01
0	 6.187499999999999e+00	 6.250000000000000e-02	 1.015800495276923e+01
0	 6.187499999999997e+00	 1.250000000000000e-01	 1.015976777015384e+01
0	 6.187499999999998e+00	 1.875000000000000e-01	 1.016127339984615e+01
0	 6.187499999999996e+00	 2.499999999999999e-01	 1.016252184184614e+01
0	 6.187499999999998e+00	 3.125000000000000e-01	 1.016351309615384e+01
0	 6.187499999999997e+00	 3.750000000000000e-01	 1.016424716276923e+01
0	 6.187499999999997e+00	 4.375000000000000e-01	 1.016472404169230e+01
0	 6.187499999999997e+00	 4.999999999999999e-01	 1.016494373292307e+01
0	 6.187499999999998e+00	 5.625000000000000e-01	 1.016490623646153e+01
0	 6.187499999999997e+00	 6.250000000000000e-01	 1.016461155230769e+01
0	 6.250000000000000e+00	 0.000000000000000e+00	 1.014934953846154e+01
0	 6.250000000000001e+00	 6.250000000000000e-02	 1.015141618461539e+01
0	 6.250000000000000e+00	 1.250000000000000e-01	 1.015322547692307e+01
0	 6.249999999999999e+00	 1.875000000000000e-01	 1.015477741538461e+01
0	 6.250000000000001e+00	 2.500000000000000e-01	 1.015607200000000e+01
0	 6.250000000000000e+00	 3.125000000000000e-01	 1.015710923076923e+01
0	 6.250000000000001e+00	 3.750000000000000e-01	 1.015788910769230e+01
0	 6.250000000000000e+00	 4.374999999999999e-01	 1.015841163076923e+01
0	 6.250000000000001e+00	 5.000000000000000e-01	 1.015867680000000e+01
0	 6.250000000000000e+00	 5.624999999999999e-01	 1.015868461538462e+01
0	 6.250000000000000e+00	 6.250000000000000e-01	 1.015843507692307e+01
0	 5.625000000000000e+00	 6.250000000000000e-01	 1.022456815384615e+01
0	 5.624999999999999e+00	 6.875000000000000e-01	 1.022841846153846e+01
0	 5.625000000000000e+00	 7.500000000000002e-01	 1.023207603076923e+01
0	 5.625000000000000e+00	 8.125000000000002e-01	 1.023554086153846e+01
0	 5.625000000000000e+00	 8.750000000000002e-01	 1.023881295384615e+01
0	 5.625000000000000e+00	 9.375000000000002e-01	 1.024189230769230e+01
0	 5.625000000000000e+00	 1.000000000000000e+00	 1.024477892307692e+01
0	 5.625000000000000e+00	 1.062500000000000e+00	 1.024747280000000e+01
0	 5.625000000000002e+00	 1.125000000000001e+00	 1.024997393846154e+01
0	 5.625000000000000e+00	 1.187500000000000e+00	 1.025228233846154e+01
0	 5.625000000000000e+00	 1.250000000000000e+00	 1.025439799999999e+01
0	 5.687500000000001e+00	 6.250000000000000e-01	 1.021751801384616e+01
0	 5.687500000000000e+00	 6.875000000000001e-01	 1.022127680830769e+01
0	 5.687499999999998e+00	 7.500000000000001e-01	 1.022484747046154e+01
0	 5.687499999999999e+00	 8.125000000000002e-01	 1.022823000030769e+01
0	 5.687500000000001e+00	 8.750000000000003e-01	 1.023142439784615e+01
0	 5.687500000000000e+00	 9.375000000000003e-01	 1.023443066307692e+01
0	 5.687500000000000e+00	 1.000000000000000e+00	 1.023724879600000e+01
0	 5.687499999999999e+00	 1.062500000000000e+00	 1.023987879661538e+01
0	 5.687499999999999e+00	 1.125000000000000e+00	 1.024232066492307e+01
0	 5.687499999999999e+00	 1.187500000000000e+00	 1.024457440092307e+01
0	 5.687500000000001e+00	 1.250000000000000e+00	 1.024664000461538e+01
0	 5.750000000000000e+00	 6.249999999999999e-01	 1.021056494769231e+01
0	 5.750000000000000e+00	 6.875000000000001e-01	 1.021423124246153e+01
0	 5.750000000000002e+00	 7.500000000000002e-01	 1.021771401107693e+01
0	 5.749999999999998e+00	 8.125000000000001e-01	 1.022101325353846e+01
0	 5.750000000000000e+00	 8.750000000000003e-01	 1.022412896984615e+01
0	 5.750000000000001e+00	 9.375000000000003e-01	 1.022706116000000e+01
0	 5.750000000000001e+00	 1.000000000000000e+00	 1.022980982400000e+01
0	 5.749999999999999e+00	 1.062500000000000e+00	 1.023237496184615e+01
0	 5.750000000000000e+00	 1.125000000000000e+00	 1.023475657353846e+01
0	 5.750000000000000e+00	 1.187500000000001e+00	 1.023695465907692e+01
0	 5.750000000000000e+00	 1.250000000000000e+00	 1.023896921846154e+01
0	 5.812499999999999e+00	 6.249999999999999e-01	 1.020370895538461e+01
0	 5.812499999999998e+00	 6.875000000000000e-01	 1.020728176400000e+01
0	 5.812499999999999e+00	 7.500000000000000e-01	 1.021067565261538e+01
0	 5.812500000000001e+00	 8.125000000000002e-01	 1.021389062123077e+01
0	 5.812499999999999e+00	 8.750000000000002e-01	 1.021692666984615e+01
0	 5.812499999999998e+00	 9.375000000000002e-01	 1.021978379846153e+01
0	 5.812499999999998e+00	 1.000000000000000e+00	 1.022246200707692e+01
0	 5.812500000000001e+00	 1.062500000000000e+00	 1.022496129569230e+01
0	 5.812499999999998e+00	 1.125000000000000e+00	 1.022728166430768e+01
0	 5.812499999999999e+00	 1.187500000000000e+00	 1.022942311292307e+01
0	 5.812499999999999e+00	 1.250000000000000e+00	 1.023138564153846e+01
0	 5.875000000000000e+00	 6.250000000000001e-01	 1.019695003692307e+01
0	 5.875000000000000e+00	 6.875000000000000e-01	 1.020042837292307e+01
0	 5.874999999999998e+00	 7.500000000000000e-01	 1.020373239507692e+01
0	 5.874999999999998e+00	 8.125000000000001e-01	 1.020686210338462e+01
0	 5.874999999999999e+00	 8.750000000000003e-01	 1.020981749784615e+01
0	 5.874999999999998e+00	 9.375000000000000e-01	 1.021259857846153e+01
0	 5.874999999999999e+00	 1.000000000000000e+00	 1.021520534523077e+01
0	 5.875000000000000e+00	 1.062500000000000e+00	 1.021763779815385e+01
0	 5.874999999999999e+00	 1.125000000000000e+00	 1.021989593723077e+01
0	 5.875000000000000e+00	 1.187500000000000e+00	 1.022197976246153e+01
0	 5.875000000000000e+00	 1.250000000000000e+00	 1.022388927384615e+01
0	 5.937499999999999e+00	 6.250000000000000e-01	 1.019028819230769e+01
0	 5.937499999999998e+00	 6.875000000000000e-01	 1.019367106923077e+01
0	 5.937499999999999e+00	 7.500000000000001e-01	 1.019688423846153e+01
0	 5.937500000000000e+00	 8.125000000000002e-01	 1.019992770000000e+01
0	 5.937500000000000e+00	 8.750000000000003e-01	 1.020280145384615e+01
0	 5.937499999999998e+00	 9.375000000000002e-01	 1.020550550000000e+01
0	 5.937499999999998e+00	 1.000000000000000e+00	 1.020803983846153e+01
0	 5.937500000000001e+00	 1.062500000000000e+00	 1.021040446923076e+01
0	 5.937500000000000e+00	 1.125000000000000e+00	 1.021259939230769e+01
0	 5.937499999999998e+00	 1.187500000000001e+00	 1.021462460769230e+01
0	 5.937499999999999e+00	 1.250000000000000e+00	 1.021648011538462e+01
0	 5.999999999999998e+00	 6.250000000000001e-01	 1.018372342153845e+01
0	 5.999999999999998e+00	 6.874999999999999e-01	 1.018700985292307e+01
0	 6.000000000000001e+00	 7.500000000000003e-01	 1.019013118276922e+01
0	 6.000000000000000e+00	 8.125000000000000e-01	 1.019308741107692e+01
0	 5.999999999999998e+00	 8.750000000000001e-01	 1.019587853784616e+01
0	 5.999999999999999e+00	 9.375000000000003e-01	 1.019850456307692e+01
0	 5.999999999999999e+00	 1.000000000000000e+00	 1.020096548676923e+01
0	 5.999999999999998e+00	 1.062500000000000e+00	 1.020326130892307e+01
0	 6.000000000000000e+00	 1.125000000000000e+00	 1.020539202953846e+01
0	 5.999999999999998e+00	 1.187500000000000e+00	 1.020735764861538e+01
0	 5.999999999999998e+00	 1.250000000000000e+00	 1.020915816615384e+01
0	 6.062499999999998e+00	 6.249999999999999e-01	 1.017725572461538e+01
0	 6.062499999999997e+00	 6.875000000000000e-01	 1.018044472400000e+01
0	 6.062500000000000e+00	 7.500000000000002e-01	 1.018347322800000e+01
0	 6.062499999999998e+00	 8.125000000000000e-01	 1.018634123661538e+01
0	 6.062500000000000e+00	 8.750000000000002e-01	 1.018904874984615e+01
0	 6.062499999999999e+00	 9.375000000000004e-01	 1.019159576769230e+01
0	 6.062499999999997e+00	 1.000000000000000e+00	 1.019398229015384e+01
0	 6.062499999999999e+00	 1.062500000000001e+00	 1.019620831723076e+01
0	 6.062499999999998e+00	 1.125000000000000e+00	 1.019827384892308e+01
0	 6.062500000000000e+00	 1.187500000000000e+00	 1.020017888523076e+01
0	 6.062499999999998e+00	 1.250000000000000e+00	 1.020192342615384e+01
0	 6.124999999999998e+00	 6.250000000000000e-01	 1.017088510153846e+01
0	 6.124999999999999e+00	 6.875000000000000e-01	 1.017397568246153e+01
0	 6.124999999999996e+00	 7.500000000000000e-01	 1.017691037415384e+01
0	 6.124999999999997e+00	 8.125000000000001e-01	 1.017968917661539e+01
0	 6.124999999999998e+00	 8.750000000000003e-01	 1.018231208984615e+01
0	 6.124999999999997e+00	 9.375000000000002e-01	 1.018477911384615e+01
0	 6.125000000000000e+00	 1.000000000000001e+00	 1.018709024861538e+01
0	 6.124999999999998e+00	 1.062500000000000e+00	 1.018924549415384e+01
0	 6.124999999999998e+00	 1.125000000000000e+00	 1.019124485046154e+01
0	 6.124999999999998e+00	 1.187500000000000e+00	 1.019308831753845e+01
0	 6.124999999999998e+00	 1.250000000000000e+00	 1.019477589538462e+01
0	 6.187499999999997e+00	 6.250000000000000e-01	 1.016461155230769e+01
0	 6.187499999999999e+00	 6.875000000000002e-01	 1.016760272830769e+01
0	 6.187499999999998e+00	 7.500000000000001e-01	 1.017044262123076e+01
0	 6.187499999999998e+00	 8.125000000000001e-01	 1.017313123107692e+01
0	 6.187499999999998e+00	 8.750000000000002e-01	 1.017566855784615e+01
0	 6.187499999999998e+00	 9.375000000000002e-01	 1.017805460153846e+01
0	 6.187499999999998e+00	 1.000000000000000e+00	 1.018028936215385e+01
0	 6.187499999999998e+00	 1.062500000000000e+00	 1.018237283969230e+01
0	 6.187499999999998e+00	 1.125000000000000e+00	 1.018430503415384e+01
0	 6.187499999999998e+00	 1.187500000000000e+00	 1.018608594553847e+01
0	 6.187499999999997e+00	 1.250000000000000e+00	 1.018771557384615e+01
0	 6.250000000000000e+00	 6.250000000000000e-01	 1.015843507692307e+01
0	 6.250000000000000e+00	 6.875000000000000e-01	 1.016132586153846e+01
0	 6.249999999999999e+00	 7.500000000000002e-01	 1.016406996923076e+01
0	 6.250000000000001e+00	 8.125000000000002e-01	 1.016666740000000e+01
0	 6.250000000000000e+00	 8.750000000000002e-01	 1.016911815384615e+01
0	 6.250000000000000e+00	 9.375000000000002e-01	 1.017142223076922e+01
0	 6.250000000000000e+00	 1.000000000000000e+00	 1.017357963076923e+01
0	 6.250000000000000e+00	 1.062500000000000e+00	 1.017559035384615e+01
0	 6.250000000000000e+00	 1.125000000000001e+00	 1.017745439999999e+01
0	 6.250000000000000e+00	 1.187500000000000e+00	 1.017917176923077e+01
0	 6.250000000000000e+00	 1.250000000000000e+00	 1.018074246153846e+01
0	 5.625000000000000e+00	 1.250000000000000e+00	 1.025439799999999e+01
0	 5.624999999999999e+00	 1.312500000000000e+00	 1.025820923076922e+01
0	 5.625000000000000e+00	 1.375000000000000e+00	 1.026197144615384e+01
0	 5.625000000000000e+00	 1.437500000000000e+00	 1.026568464615385e+01
0	 5.625000000000000e+00	 1.500000000000000e+00	 1.026934883076922e+01
0	 5.625000000000000e+00	 1.562500000000000e+00	 1.027296399999999e+01
0	 5.625000000000000e+00	 1.625000000000000e+00	 1.027653015384615e+01
0	 5.625000000000000e+00	 1.687500000000000e+00	 1.028004729230769e+01
0	 5.625000000000002e+00	 1.750000000000001e+00	 1.028351541538461e+01
0	 5.625000000000000e+00	 1.812500000000000e+00	 1.028693452307692e+01
0	 5.625000000000000e+00	 1.875000000000000e+00	 1.029030461538461e+01
0	 5.687500000000001e+00	 1.250000000000000e+00	 1.024664000461538e+01
0	 5.687500000000000e+00	 1.312500000000000e+00	 1.025022264569230e+01
0	 5.687499999999998e+00	 1.375000000000000e+00	 1.025375868984615e+01
0	 5.687499999999999e+00	 1.437500000000000e+00	 1.025724813707692e+01
0	 5.687500000000001e+00	 1.500000000000000e+00	 1.026069098738461e+01
0	 5.687500000000000e+00	 1.562500000000000e+00	 1.026408724076922e+01
0	 5.687500000000000e+00	 1.625000000000000e+00	 1.026743689723076e+01
0	 5.687499999999999e+00	 1.687500000000000e+00	 1.027073995676922e+01
0	 5.687499999999999e+00	 1.750000000000000e+00	 1.027399641938461e+01
0	 5.687499999999999e+00	 1.812500000000000e+00	 1.027720628507692e+01
0	 5.687500000000001e+00	 1.875000000000000e+00	 1.028036955384615e+01
0	 5.750000000000000e+00	 1.250000000000000e+00	 1.023896921846154e+01
0	 5.750000000000000e+00	 1.312500000000000e+00	 1.024234584430770e+01
0	 5.750000000000002e+00	 1.375000000000000e+00	 1.024567829169231e+01
0	 5.749999999999998e+00	 1.437500000000000e+00	 1.024896656061539e+01
0	 5.750000000000000e+00	 1.500000000000000e+00	 1.025221065107692e+01
0	 5.750000000000001e+00	 1.562500000000000e+00	 1.025541056307692e+01
0	 5.750000000000001e+00	 1.625000000000000e+00	 1.025856629661538e+01
0	 5.749999999999999e+00	 1.687500000000000e+00	 1.026167785169230e+01
0	 5.750000000000000e+00	 1.750000000000001e+00	 1.026474522830769e+01
0	 5.750000000000000e+00	 1.812500000000001e+00	 1.026776842646154e+01
0	 5.750000000000000e+00	 1.875000000000000e+00	 1.027074744615385e+01
0	 5.812499999999999e+00	 1.250000000000000e+00	 1.023138564153846e+01
0	 5.812499999999998e+00	 1.312500000000000e+00	 1.023457882661538e+01
0	 5.812499999999999e+00	 1.375000000000000e+00	 1.023773025169231e+01
0	 5.812500000000001e+00	 1.437500000000000e+00	 1.024083991676923e+01
0	 5.812499999999999e+00	 1.500000000000000e+00	 1.024390782184615e+01
0	 5.812499999999998e+00	 1.562500000000000e+00	 1.024693396692307e+01
0	 5.812499999999998e+00	 1.625000000000000e+00	 1.024991835200000e+01
0	 5.812500000000001e+00	 1.687500000000000e+00	 1.025286097707692e+01
0	 5.812499999999998e+00	 1.750000000000000e+00	 1.025576184215385e+01
0	 5.812499999999999e+00	 1.812500000000000e+00	 1.025862094723076e+01
0	 5.812499999999999e+00	 1.875000000000000e+00	 1.026143829230769e+01
0	 5.875000000000000e+00	 1.250000000000000e+00	 1.022388927384615e+01
0	 5.875000000000000e+00	 1.312500000000000e+00	 1.022692159261538e+01
0	 5.874999999999998e+00	 1.375000000000000e+00	 1.022991456984615e+01
0	 5.874999999999998e+00	 1.437500000000000e+00	 1.023286820553846e+01
0	 5.874999999999999e+00	 1.500000000000000e+00	 1.023578249969231e+01
0	 5.874999999999998e+00	 1.562500000000000e+00	 1.023865745230768e+01
0	 5.874999999999999e+00	 1.625000000000001e+00	 1.024149306338461e+01
0	 5.875000000000000e+00	 1.687500000000000e+00	 1.024428933292307e+01
0	 5.874999999999999e+00	 1.750000000000001e+00	 1.024704626092307e+01
0	 5.875000000000000e+00	 1.812500000000000e+00	 1.024976384738461e+01
0	 5.875000000000000e+00	 1.875000000000000e+00	 1.025244209230769e+01
0	 5.937499999999999e+00	 1.250000000000000e+00	 1.021648011538462e+01
0	 5.937499999999998e+00	 1.312500000000000e+00	 1.021937414230769e+01
0	 5.937499999999999e+00	 1.375000000000000e+00	 1.022223124615384e+01
0	 5.937500000000000e+00	 1.437500000000000e+00	 1.022505142692308e+01
0	 5.937500000000000e+00	 1.500000000000000e+00	 1.022783468461538e+01
0	 5.937499999999998e+00	 1.562500000000000e+00	 1.023058101923076e+01
0	 5.937499999999998e+00	 1.625000000000000e+00	 1.023329043076923e+01
0	 5.937500000000001e+00	 1.687500000000000e+00	 1.023596291923076e+01
0	 5.937500000000000e+00	 1.750000000000000e+00	 1.023859848461538e+01
0	 5.937499999999998e+00	 1.812500000000000e+00	 1.024119712692307e+01
0	 5.937499999999999e+00	 1.875000000000000e+00	 1.024375884615385e+01
0	 5.999999999999998e+00	 1.250000000000000e+00	 1.020915816615384e+01
0	 5.999999999999998e+00	 1.312500000000000e+00	 1.021193647569230e+01
0	 6.000000000000001e+00	 1.375000000000000e+00	 1.021468028061537e+01
0	 6.000000000000000e+00	 1.437500000000000e+00	 1.021738958092308e+01
0	 5.999999999999998e+00	 1.500000000000000e+00	 1.022006437661538e+01
0	 5.999999999999999e+00	 1.562500000000000e+00	 1.022270466769231e+01
0	 5.999999999999999e+00	 1.625000000000000e+00	 1.022531045415384e+01
0	 5.999999999999998e+00	 1.687500000000000e+00	 1.022788173600000e+01
0	 6.000000000000000e+00	 1.750000000000000e+00	 1.023041851323076e+01
0	 5.999999999999998e+00	 1.812500000000000e+00	 1.023292078584615e+01
0	 5.999999999999998e+00	 1.875000000000000e+00	 1.023538855384615e+01
0	 6.062499999999998e+00	 1.250000000000000e+00	 1.020192342615384e+01
0	 6.062499999999997e+00	 1.312500000000000e+00	 1.020460859276923e+01
0	 6.062500000000000e+00	 1.375000000000000e+00	 1.020726167323076e+01
0	 6.062499999999998e+00	 1.437500000000000e+00	 1.020988266753846e+01
0	 6.062500000000000e+00	 1.500000000000001e+00	 1.021247157569230e+01
0	 6.062499999999999e+00	 1.562500000000000e+00	 1.021502839769231e+01
0	 6.062499999999997e+00	 1.625000000000000e+00	 1.021755313353846e+01
0	 6.062499999999999e+00	 1.687500000000000e+00	 1.022004578323076e+01
0	 6.062499999999998e+00	 1.750000000000000e+00	 1.022250634676923e+01
0	 6.062500000000000e+00	 1.812500000000000e+00	 1.022493482415384e+01
0	 6.062499999999998e+00	 1.875000000000000e+00	 1.022733121538462e+01
0	 6.124999999999998e+00	 1.250000000000000e+00	 1.019477589538462e+01
0	 6.124999999999999e+00	 1.312500000000000e+00	 1.019739049353846e+01
0	 6.124999999999996e+00	 1.375000000000000e+00	 1.019997542399999e+01
0	 6.124999999999997e+00	 1.437500000000000e+00	 1.020253068676923e+01
0	 6.124999999999998e+00	 1.500000000000000e+00	 1.020505628184615e+01
0	 6.124999999999997e+00	 1.562500000000000e+00	 1.020755220923077e+01
0	 6.125000000000000e+00	 1.625000000000001e+00	 1.021001846892307e+01
0	 6.124999999999998e+00	 1.687500000000000e+00	 1.021245506092307e+01
0	 6.124999999999998e+00	 1.750000000000000e+00	 1.021486198523076e+01
0	 6.124999999999998e+00	 1.812500000000001e+00	 1.021723924184614e+01
0	 6.124999999999998e+00	 1.875000000000000e+00	 1.021958683076923e+01
0	 6.187499999999997e+00	 1.250000000000000e+00	 1.018771557384615e+01
0	 6.187499999999999e+00	 1.312500000000000e+00	 1.019028217800000e+01
0	 6.187499999999998e+00	 1.375000000000000e+00	 1.019282153292307e+01
0	 6.187499999999998e+00	 1.437500000000000e+00	 1.019533363861538e+01
0	 6.187499999999998e+00	 1.500000000000000e+00	 1.019781849507692e+01
0	 6.187499999999998e+00	 1.562500000000000e+00	 1.020027610230770e+01
0	 6.187499999999998e+00	 1.625000000000000e+00	 1.020270646030770e+01
0	 6.187499999999998e+00	 1.687500000000000e+00	 1.020510956907693e+01
0	 6.187499999999998e+00	 1.750000000000000e+00	 1.020748542861539e+01
0	 6.187499999999998e+00	 1.812500000000000e+00	 1.020983403892308e+01
0	 6.187499999999997e+00	 1.875000000000000e+00	 1.021215540000000e+01
0	 6.250000000000000e+00	 1.250000000000000e+00	 1.018074246153846e+01
0	 6.250000000000000e+00	 1.312500000000000e+00	 1.018328364615384e+01
0	 6.249999999999999e+00	 1.375000000000000e+00	 1.018580000000000e+01
0	 6.250000000000001e+00	 1.437500000000000e+00	 1.018829152307693e+01
0	 6.250000000000000e+00	 1.500000000000000e+00	 1.019075821538462e+01
0	 6.250000000000000e+00	 1.562500000000000e+00	 1.019320007692307e+01
0	 6.250000000000000e+00	 1.625000000000000e+00	 1.019561710769231e+01
0	 6.250000000000000e+00	 1.687500000000000e+00	 1.019800930769231e+01
0	 6.250000000000000e+00	 1.750000000000001e+00	 1.020037667692308e+01
0	 6.250000000000000e+00	 1.812500000000000e+00	 1.020271921538462e+01
0	 6.250000000000000e+00	 1.875000000000000e+00	 1.020503692307692e+01
0	 5.625000000000000e+00	 1.875000000000000e+00	 1.029030461538461e+01
0	 5.624999999999999e+00	 1.937500000000000e+00	 1.029125227692308e+01
0	 5.625000000000000e+00	 2.000000000000000e+00	 1.029236203076923e+01
0	 5.625000000000000e+00	 2.062500000000000e+00	 1.029363387692308e+01
0	 5.625000000000000e+00	 2.125000000000000e+00	 1.029506781538461e+01
0	 5.625000000000000e+00	 2.187500000000000e+00	 1.029666384615384e+01
0	 5.625000000000000e+00	 2.250000000000000e+00	 1.029842196923076e+01
0	 5.625000000000000e+00	 2.312500000000000e+00	 1.030034218461538e+01
0	 5.625000000000002e+00	 2.375000000000001e+00	 1.030242449230770e+01
0	 5.625000000000000e+00	 2.437500000000001e+00	 1.030466889230769e+01
0	 5.625000000000000e+00	 2.500000000000000e+00	 1.030707538461538e+01
0	 5.687500000000001e+00	 1.875000000000000e+00	 1.028036955384615e+01
0	 5.687500000000000e+00	 1.937500000000000e+00	 1.028144655384615e+01
0	 5.687499999999998e+00	 2.000000000000000e+00	 1.028267519692307e+01
0	 5.687499999999999e+00	 2.062500000000000e+00	 1.028405548307692e+01
0	 5.687500000000001e+00	 2.125000000000001e+00	 1.028558741230769e+01
0	 5.687500000000000e+00	 2.187500000000000e+00	 1.028727098461538e+01
0	 5.687500000000000e+00	 2.250000000000000e+00	 1.028910620000000e+01
0	 5.687499999999999e+00	 2.312500000000000e+00	 1.029109305846154e+01
0	 5.687499999999999e+00	 2.375000000000000e+00	 1.029323156000000e+01
0	 5.687499999999999e+00	 2.437500000000000e+00	 1.029552170461538e+01
0	 5.687500000000001e+00	 2.500000000000000e+00	 1.029796349230770e+01
0	 5.750000000000000e+00	 1.875000000000000e+00	 1.027074744615385e+01
0	 5.750000000000000e+00	 1.937500000000000e+00	 1.027194081846154e+01
0	 5.750000000000002e+00	 2.000000000000000e+00	 1.027327538461538e+01
0	 5.749999999999998e+00	 2.062500000000000e+00	 1.027475114461539e+01
0	 5.750000000000000e+00	 2.125000000000000e+00	 1.027636809846154e+01
0	 5.750000000000001e+00	 2.187500000000001e+00	 1.027812624615384e+01
0	 5.750000000000001e+00	 2.250000000000000e+00	 1.028002558769230e+01
0	 5.749999999999999e+00	 2.312500000000000e+00	 1.028206612307693e+01
0	 5.750000000000000e+00	 2.375000000000000e+00	 1.028424785230770e+01
0	 5.750000000000000e+00	 2.437500000000000e+00	 1.028657077538461e+01
0	 5.750000000000000e+00	 2.500000000000000e+00	 1.028903489230769e+01
0	 5.812499999999999e+00	 1.875000000000000e+00	 1.026143829230769e+01
0	 5.812499999999998e+00	 1.937500000000000e+00	 1.026273507076922e+01
0	 5.812499999999999e+00	 2.000000000000000e+00	 1.026416259384615e+01
0	 5.812500000000001e+00	 2.062500000000000e+00	 1.026572086153847e+01
0	 5.812499999999999e+00	 2.125000000000001e+00	 1.026740987384615e+01
0	 5.812499999999998e+00	 2.187500000000000e+00	 1.026922963076923e+01
0	 5.812499999999998e+00	 2.250000000000000e+00	 1.027118013230769e+01
0	 5.812500000000001e+00	 2.312500000000000e+00	 1.027326137846154e+01
0	 5.812499999999998e+00	 2.375000000000000e+00	 1.027547336923076e+01
0	 5.812499999999999e+00	 2.437500000000000e+00	 1.027781610461538e+01
0	 5.812499999999999e+00	 2.500000000000000e+00	 1.028028958461539e+01
0	 5.875000000000000e+00	 1.875000000000000e+00	 1.025244209230769e+01
0	 5.875000000000000e+00	 1.937500000000000e+00	 1.025382931076922e+01
0	 5.874999999999998e+00	 2.000000000000000e+00	 1.025533682461538e+01
0	 5.874999999999998e+00	 2.062500000000000e+00	 1.025696463384615e+01
0	 5.874999999999999e+00	 2.125000000000000e+00	 1.025871273846153e+01
0	 5.874999999999998e+00	 2.187500000000000e+00	 1.026058113846154e+01
0	 5.874999999999999e+00	 2.250000000000000e+00	 1.026256983384615e+01
0	 5.875000000000000e+00	 2.312500000000000e+00	 1.026467882461538e+01
0	 5.874999999999999e+00	 2.375000000000000e+00	 1.026690811076922e+01
0	 5.875000000000000e+00	 2.437500000000000e+00	 1.026925769230769e+01
0	 5.875000000000000e+00	 2.500000000000000e+00	 1.027172756923077e+01
0	 5.937499999999999e+00	 1.875000000000000e+00	 1.024375884615385e+01
0	 5.937499999999998e+00	 1.937500000000000e+00	 1.024522353846154e+01
0	 5.937499999999999e+00	 2.000000000000000e+00	 1.024679807692307e+01
0	 5.937500000000000e+00	 2.062500000000000e+00	 1.024848246153846e+01
0	 5.937500000000000e+00	 2.125000000000000e+00	 1.025027669230769e+01
0	 5.937499999999998e+00	 2.187500000000000e+00	 1.025218076923077e+01
0	 5.937499999999998e+00	 2.250000000000000e+00	 1.025419469230769e+01
0	 5.937500000000001e+00	 2.312500000000001e+00	 1.025631846153846e+01
0	 5.937500000000000e+00	 2.375000000000000e+00	 1.025855207692307e+01
0	 5.937499999999998e+00	 2.437500000000000e+00	 1.026089553846154e+01
0	 5.937499999999999e+00	 2.500000000000000e+00	 1.026334884615385e+01
0	 5.999999999999998e+00	 1.875000000000000e+00	 1.023538855384615e+01
0	 5.999999999999998e+00	 1.937500000000000e+00	 1.023691775384615e+01
0	 6.000000000000001e+00	 2.000000000000000e+00	 1.023854635076923e+01
0	 6.000000000000000e+00	 2.062500000000000e+00	 1.024027434461538e+01
0	 5.999999999999998e+00	 2.125000000000000e+00	 1.024210173538461e+01
0	 5.999999999999999e+00	 2.187500000000000e+00	 1.024402852307692e+01
0	 5.999999999999999e+00	 2.250000000000000e+00	 1.024605470769231e+01
0	 5.999999999999998e+00	 2.312500000000000e+00	 1.024818028923077e+01
0	 6.000000000000000e+00	 2.375000000000001e+00	 1.025040526769230e+01
0	 5.999999999999998e+00	 2.437500000000000e+00	 1.025272964307692e+01
0	 5.999999999999998e+00	 2.500000000000000e+00	 1.025515341538462e+01
0	 6.062499999999998e+00	 1.875000000000000e+00	 1.022733121538462e+01
0	 6.062499999999997e+00	 1.937500000000000e+00	 1.022891195692308e+01
0	 6.062500000000000e+00	 2.000000000000001e+00	 1.023058164615384e+01
0	 6.062499999999998e+00	 2.062500000000000e+00	 1.023234028307692e+01
0	 6.062500000000000e+00	 2.125000000000001e+00	 1.023418786769230e+01
0	 6.062499999999999e+00	 2.187500000000000e+00	 1.023612440000000e+01
0	 6.062499999999997e+00	 2.250000000000000e+00	 1.023814988000000e+01
0	 6.062499999999999e+00	 2.312500000000001e+00	 1.024026430769231e+01
0	 6.062499999999998e+00	 2.375000000000000e+00	 1.024246768307692e+01
0	 6.062500000000000e+00	 2.437500000000000e+00	 1.024476000615384e+01
0	 6.062499999999998e+00	 2.500000000000000e+00	 1.024714127692308e+01
0	 6.124999999999998e+00	 1.875000000000000e+00	 1.021958683076923e+01
0	 6.124999999999999e+00	 1.937500000000000e+00	 1.022120614769231e+01
0	 6.124999999999996e+00	 2.000000000000000e+00	 1.022290396307692e+01
0	 6.124999999999997e+00	 2.062500000000000e+00	 1.022468027692307e+01
0	 6.124999999999998e+00	 2.125000000000000e+00	 1.022653508923076e+01
0	 6.124999999999997e+00	 2.187500000000000e+00	 1.022846840000000e+01
0	 6.125000000000000e+00	 2.250000000000000e+00	 1.023048020923076e+01
0	 6.124999999999998e+00	 2.312500000000000e+00	 1.023257051692307e+01
0	 6.124999999999998e+00	 2.375000000000000e+00	 1.023473932307692e+01
0	 6.124999999999998e+00	 2.437500000000001e+00	 1.023698662769231e+01
0	 6.124999999999998e+00	 2.500000000000000e+00	 1.023931243076923e+01
0	 6.187499999999997e+00	 1.875000000000000e+00	 1.021215540000000e+01
0	 6.187499999999999e+00	 1.937500000000000e+00	 1.021380032615385e+01
0	 6.187499999999998e+00	 2.000000000000000e+00	 1.021551330153846e+01
0	 6.187499999999998e+00	 2.062500000000000e+00	 1.021729432615385e+01
0	 6.187499999999998e+00	 2.125000000000000e+00	 1.021914340000000e+01
0	 6.187499999999998e+00	 2.187500000000000e+00	 1.022106052307692e+01
0	 6.187499999999998e+00	 2.250000000000000e+00	 1.022304569538462e+01
0	 6.187499999999998e+00	 2.312500000000000e+00	 1.022509891692307e+01
0	 6.187499999999998e+00	 2.375000000000000e+00	 1.022722018769231e+01
0	 6.187499999999998e+00	 2.437500000000000e+00	 1.022940950769231e+01
0	 6.187499999999997e+00	 2.500000000000000e+00	 1.023166687692308e+01
0	 6.250000000000000e+00	 1.875000000000000e+00	 1.020503692307692e+01
0	 6.250000000000000e+00	 1.937500000000000e+00	 1.020669449230769e+01
0	 6.249999999999999e+00	 2.000000000000000e+00	 1.020840966153847e+01
0	 6.250000000000001e+00	 2.062500000000000e+00	 1.021018243076923e+01
0	 6.250000000000000e+00	 2.125000000000000e+00	 1.021201280000000e+01
0	 6.250000000000000e+00	 2.187500000000000e+00	 1.021390076923077e+01
0	 6.250000000000000e+00	 2.250000000000000e+00	 1.021584633846153e+01
0	 6.250000000000000e+00	 2.312500000000000e+00	 1.021784950769231e+01
0	 6.250000000000000e+00	 2.375000000000001e+00	 1.021991027692308e+01
0	 6.250000000000000e+00	 2.437500000000001e+00	 1.022202864615384e+01
0	 6.250000000000000e+00	 2.500000000000000e+00	 1.022420461538461e+01
0	 5.625000000000000e+00	 2.500000000000000e+00	 1.030707538461538e+01
0	 5.625000000000000e+00	 2.562500000000000e+00	 1.030616223076924e+01
0	 5.625000000000001e+00	 2.625000000000000e+00	 1.030543046153846e+01
0	 5.625000000000000e+00	 2.687499999999999e+00	 1.030488007692307e+01
0	 5.625000000000000e+00	 2.750000000000000e+00	 1.030451107692308e+01
0	 5.625000000000000e+00	 2.812499999999999e+00	 1.030432346153847e+01
0	 5.625000000000000e+00	 2.874999999999999e+00	 1.030431723076922e+01
0	 5.624999999999999e+00	 2.937499999999998e+00	 1.030449238461539e+01
0	 5.624999999999999e+00	 2.999999999999998e+00	 1.030484892307692e+01
0	 5.625000000000000e+00	 3.062499999999998e+00	 1.030538684615385e+01
0	 5.625000000000000e+00	 3.125000000000000e+00	 1.030610615384615e+01
0	 5.687500000000001e+00	 2.500000000000000e+00	 1.029796349230770e+01
0	 5.687499999999999e+00	 2.562500000000000e+00	 1.029711645076923e+01
0	 5.687499999999999e+00	 2.624999999999999e+00	 1.029644585538462e+01
0	 5.687499999999999e+00	 2.687499999999999e+00	 1.029595170615385e+01
0	 5.687500000000000e+00	 2.750000000000000e+00	 1.029563400307692e+01
0	 5.687500000000001e+00	 2.812499999999999e+00	 1.029549274615385e+01
0	 5.687500000000001e+00	 2.875000000000000e+00	 1.029552793538462e+01
0	 5.687500000000001e+00	 2.937499999999999e+00	 1.029573957076923e+01
0	 5.687499999999999e+00	 2.999999999999999e+00	 1.029612765230769e+01
0	 5.687499999999998e+00	 3.062499999999997e+00	 1.029669218000000e+01
0	 5.687500000000001e+00	 3.125000000000000e+00	 1.029743315384614e+01
0	 5.750000000000000e+00	 2.500000000000000e+00	 1.028903489230769e+01
0	 5.749999999999998e+00	 2.562500000000000e+00	 1.028825684923077e+01
0	 5.750000000000001e+00	 2.625000000000000e+00	 1.028765031384616e+01
0	 5.749999999999998e+00	 2.687500000000000e+00	 1.028721528615385e+01
0	 5.749999999999999e+00	 2.749999999999999e+00	 1.028695176615385e+01
0	 5.750000000000000e+00	 2.812499999999999e+00	 1.028685975384616e+01
0	 5.750000000000000e+00	 2.874999999999999e+00	 1.028693924923077e+01
0	 5.750000000000000e+00	 2.937499999999999e+00	 1.028719025230770e+01
0	 5.750000000000000e+00	 2.999999999999998e+00	 1.028761276307692e+01
0	 5.750000000000000e+00	 3.062499999999999e+00	 1.028820678153845e+01
0	 5.750000000000000e+00	 3.125000000000000e+00	 1.028897230769232e+01
0	 5.812499999999999e+00	 2.500000000000000e+00	 1.028028958461539e+01
0	 5.812499999999998e+00	 2.562500000000000e+00	 1.027958342615384e+01
0	 5.812500000000000e+00	 2.625000000000000e+00	 1.027904383692308e+01
0	 5.812500000000000e+00	 2.687499999999999e+00	 1.027867081692307e+01
0	 5.812500000000000e+00	 2.749999999999999e+00	 1.027846436615384e+01
0	 5.812500000000000e+00	 2.812499999999999e+00	 1.027842448461539e+01
0	 5.812499999999999e+00	 2.874999999999999e+00	 1.027855117230769e+01
0	 5.812500000000000e+00	 2.937499999999999e+00	 1.027884442923077e+01
0	 5.812499999999999e+00	 2.999999999999999e+00	 1.027930425538462e+01
0	 5.812499999999997e+00	 3.062499999999998e+00	 1.027993065076923e+01
0	 5.812499999999999e+00	 3.125000000000000e+00	 1.028072361538461e+01
0	 5.875000000000000e+00	 2.500000000000000e+00	 1.027172756923077e+01
0	 5.875000000000000e+00	 2.562500000000000e+00	 1.027109618153846e+01
0	 5.875000000000000e+00	 2.625000000000000e+00	 1.027062642461538e+01
0	 5.875000000000000e+00	 2.687500000000000e+00	 1.027031829846154e+01
0	 5.874999999999998e+00	 2.750000000000000e+00	 1.027017180307692e+01
0	 5.874999999999999e+00	 2.812499999999999e+00	 1.027018693846153e+01
0	 5.874999999999998e+00	 2.874999999999999e+00	 1.027036370461538e+01
0	 5.874999999999999e+00	 2.937499999999998e+00	 1.027070210153847e+01
0	 5.875000000000000e+00	 2.999999999999999e+00	 1.027120212923077e+01
0	 5.875000000000000e+00	 3.062499999999998e+00	 1.027186378769231e+01
0	 5.875000000000000e+00	 3.125000000000000e+00	 1.027268707692307e+01
0	 5.937499999999999e+00	 2.500000000000000e+00	 1.026334884615385e+01
0	 5.937499999999999e+00	 2.562499999999999e+00	 1.026279511538461e+01
0	 5.937499999999999e+00	 2.625000000000000e+00	 1.026239807692307e+01
0	 5.937499999999999e+00	 2.687500000000000e+00	 1.026215773076923e+01
0	 5.937499999999999e+00	 2.749999999999999e+00	 1.026207407692308e+01
0	 5.937499999999999e+00	 2.812499999999999e+00	 1.026214711538462e+01
0	 5.937499999999999e+00	 2.874999999999999e+00	 1.026237684615385e+01
0	 5.937500000000000e+00	 2.937499999999998e+00	 1.026276326923077e+01
0	 5.937499999999999e+00	 2.999999999999998e+00	 1.026330638461538e+01
0	 5.937500000000000e+00	 3.062499999999998e+00	 1.026400619230769e+01
0	 5.937499999999999e+00	 3.125000000000000e+00	 1.026486269230769e+01
0	 5.999999999999998e+00	 2.500000000000000e+00	 1.025515341538462e+01
0	 5.999999999999999e+00	 2.562500000000000e+00	 1.025468022769230e+01
0	 5.999999999999999e+00	 2.625000000000000e+00	 1.025435879384616e+01
0	 5.999999999999999e+00	 2.687500000000000e+00	 1.025418911384615e+01
0	 5.999999999999999e+00	 2.750000000000000e+00	 1.025417118769230e+01
0	 5.999999999999999e+00	 2.812500000000000e+00	 1.025430501538462e+01
0	 5.999999999999998e+00	 2.874999999999999e+00	 1.025459059692308e+01
0	 5.999999999999999e+00	 2.937499999999999e+00	 1.025502793230769e+01
0	 5.999999999999999e+00	 2.999999999999999e+00	 1.025561702153846e+01
0	 5.999999999999999e+00	 3.062499999999998e+00	 1.025635786461538e+01
0	 5.999999999999998e+00	 3.125000000000000e+00	 1.025725046153845e+01
0	 6.062499999999998e+00	 2.500000000000000e+00	 1.024714127692308e+01
0	 6.062499999999999e+00	 2.562500000000000e+00	 1.024675151846154e+01
0	 6.062499999999999e+00	 2.625000000000000e+00	 1.024650857538462e+01
0	 6.062499999999998e+00	 2.687500000000000e+00	 1.024641244769231e+01
0	 6.062499999999998e+00	 2.749999999999999e+00	 1.024646313538461e+01
0	 6.062500000000000e+00	 2.812499999999999e+00	 1.024666063846153e+01
0	 6.062499999999999e+00	 2.874999999999999e+00	 1.024700495692307e+01
0	 6.062499999999999e+00	 2.937499999999998e+00	 1.024749609076923e+01
0	 6.062499999999999e+00	 2.999999999999998e+00	 1.024813404000000e+01
0	 6.062499999999999e+00	 3.062499999999998e+00	 1.024891880461539e+01
0	 6.062499999999998e+00	 3.125000000000000e+00	 1.024985038461538e+01
0	 6.124999999999998e+00	 2.500000000000000e+00	 1.023931243076923e+01
0	 6.125000000000000e+00	 2.562500000000001e+00	 1.023900898769230e+01
0	 6.124999999999998e+00	 2.625000000000000e+00	 1.023884742153846e+01
0	 6.124999999999999e+00	 2.687500000000000e+00	 1.023882773230769e+01
0	 6.124999999999999e+00	 2.749999999999999e+00	 1.023894992000000e+01
0	 6.124999999999998e+00	 2.812499999999999e+00	 1.023921398461538e+01
0	 6.124999999999998e+00	 2.874999999999999e+00	 1.023961992615384e+01
0	 6.124999999999998e+00	 2.937499999999998e+00	 1.024016774461538e+01
0	 6.124999999999999e+00	 2.999999999999998e+00	 1.024085744000000e+01
0	 6.124999999999998e+00	 3.062499999999998e+00	 1.024168901230770e+01
0	 6.124999999999998e+00	 3.125000000000000e+00	 1.024266246153846e+01
0	 6.187499999999997e+00	 2.500000000000000e+00	 1.023166687692308e+01
0	 6.187499999999998e+00	 2.562500000000000e+00	 1.023145263538462e+01
0	 6.187499999999998e+00	 2.625000000000000e+00	 1.023137533230769e+01
0	 6.187499999999997e+00	 2.687500000000000e+00	 1.023143496769231e+01
0	 6.187499999999998e+00	 2.749999999999999e+00	 1.023163154153846e+01
0	 6.187499999999997e+00	 2.812499999999999e+00	 1.023196505384615e+01
0	 6.187499999999997e+00	 2.874999999999999e+00	 1.023243550461538e+01
0	 6.187499999999997e+00	 2.937499999999998e+00	 1.023304289384615e+01
0	 6.187499999999998e+00	 2.999999999999998e+00	 1.023378722153847e+01
0	 6.187499999999997e+00	 3.062499999999998e+00	 1.023466848769230e+01
0	 6.187499999999997e+00	 3.125000000000000e+00	 1.023568669230768e+01
0	 6.250000000000000e+00	 2.500000000000000e+00	 1.022420461538461e+01
0	 6.250000000000001e+00	 2.562500000000000e+00	 1.022408246153847e+01
0	 6.250000000000001e+00	 2.625000000000000e+00	 1.022409230769231e+01
0	 6.250000000000000e+00	 2.687499999999999e+00	 1.022423415384616e+01
0	 6.250000000000001e+00	 2.750000000000000e+00	 1.022450799999999e+01
0	 6.250000000000000e+00	 2.812499999999999e+00	 1.022491384615385e+01
0	 6.250000000000000e+00	 2.874999999999999e+00	 1.022545169230769e+01
0	 6.250000000000000e+00	 2.937499999999998e+00	 1.022612153846154e+01
0	 6.250000000000001e+00	 2.999999999999998e+00	 1.022692338461538e+01
0	 6.250000000000000e+00	 3.062499999999998e+00	 1.022785723076924e+01
0	 6.250000000000000e+00	 3.125000000000000e+00	 1.022892307692307e+01
0	 5.625000000000000e+00	 3.125000000000000e+00	 1.030610615384615e+01
0	 5.625000000000000e+00	 3.187500000000000e+00	 1.030288853846153e+01
0	 5.625000000000001e+00	 3.250000000000000e+00	 1.029987999999999e+01
0	 5.625000000000000e+00	 3.312499999999999e+00	 1.029708053846154e+01
0	 5.625000000000000e+00	 3.374999999999999e+00	 1.029449015384615e+01
0	 5.625000000000000e+00	 3.437499999999999e+00	 1.029210884615384e+01
0	 5.625000000000000e+00	 3.499999999999999e+00	 1.028993661538462e+01
0	 5.624999999999999e+00	 3.562499999999998e+00	 1.028797346153846e+01
0	 5.624999999999999e+00	 3.624999999999999e+00	 1.028621938461538e+01
0	 5.625000000000000e+00	 3.687499999999998e+00	 1.028467438461537e+01
0	 5.625000000000000e+00	 3.750000000000000e+00	 1.028333846153846e+01
0	 5.687500000000001e+00	 3.125000000000000e+00	 1.029743315384614e+01
0	 5.687499999999999e+00	 3.187500000000000e+00	 1.029446918307692e+01
0	 5.687499999999999e+00	 3.250000000000000e+00	 1.029170632307693e+01
0	 5.687499999999999e+00	 3.312499999999999e+00	 1.028914457384616e+01
0	 5.687500000000000e+00	 3.374999999999999e+00	 1.028678393538461e+01
0	 5.687500000000001e+00	 3.437499999999999e+00	 1.028462440769231e+01
0	 5.687500000000001e+00	 3.500000000000000e+00	 1.028266599076923e+01
0	 5.687500000000001e+00	 3.562499999999999e+00	 1.028090868461539e+01
0	 5.687499999999999e+00	 3.625000000000000e+00	 1.027935248923077e+01
0	 5.687499999999998e+00	 3.687499999999997e+00	 1.027799740461538e+01
0	 5.687500000000001e+00	 3.750000000000000e+00	 1.027684343076923e+01
0	 5.750000000000000e+00	 3.125000000000000e+00	 1.028897230769232e+01
0	 5.749999999999998e+00	 3.187500000000000e+00	 1.028624591384615e+01
0	 5.750000000000001e+00	 3.250000000000000e+00	 1.028371266461539e+01
0	 5.749999999999998e+00	 3.312500000000000e+00	 1.028137256000000e+01
0	 5.749999999999999e+00	 3.374999999999999e+00	 1.027922560000000e+01
0	 5.750000000000000e+00	 3.437499999999999e+00	 1.027727178461539e+01
0	 5.750000000000000e+00	 3.499999999999997e+00	 1.027551111384615e+01
0	 5.750000000000000e+00	 3.562499999999999e+00	 1.027394358769230e+01
0	 5.750000000000000e+00	 3.624999999999998e+00	 1.027256920615384e+01
0	 5.750000000000000e+00	 3.687499999999999e+00	 1.027138796923078e+01
0	 5.750000000000000e+00	 3.750000000000000e+00	 1.027039987692308e+01
0	 5.812499999999999e+00	 3.125000000000000e+00	 1.028072361538461e+01
0	 5.812499999999998e+00	 3.187500000000000e+00	 1.027821873076923e+01
0	 5.812500000000000e+00	 3.250000000000000e+00	 1.027589902461539e+01
0	 5.812500000000000e+00	 3.312500000000000e+00	 1.027376449692307e+01
0	 5.812500000000000e+00	 3.374999999999999e+00	 1.027181514769231e+01
0	 5.812500000000000e+00	 3.437499999999999e+00	 1.027005097692308e+01
0	 5.812499999999999e+00	 3.499999999999998e+00	 1.026847198461538e+01
0	 5.812500000000000e+00	 3.562499999999998e+00	 1.026707817076922e+01
0	 5.812499999999999e+00	 3.624999999999998e+00	 1.026586953538462e+01
0	 5.812499999999997e+00	 3.687499999999998e+00	 1.026484607846155e+01
0	 5.812499999999999e+00	 3.750000000000000e+00	 1.026400780000000e+01
0	 5.875000000000000e+00	 3.125000000000000e+00	 1.027268707692307e+01
0	 5.875000000000000e+00	 3.187500000000000e+00	 1.027038763384616e+01
0	 5.875000000000000e+00	 3.250000000000000e+00	 1.026826540307692e+01
0	 5.875000000000000e+00	 3.312500000000000e+00	 1.026632038461539e+01
0	 5.874999999999998e+00	 3.374999999999999e+00	 1.026455257846153e+01
0	 5.874999999999999e+00	 3.437499999999999e+00	 1.026296198461538e+01
0	 5.874999999999998e+00	 3.499999999999998e+00	 1.026154860307692e+01
0	 5.874999999999999e+00	 3.562499999999998e+00	 1.026031243384615e+01
0	 5.875000000000000e+00	 3.624999999999999e+00	 1.025925347692308e+01
0	 5.875000000000000e+00	 3.687499999999998e+00	 1.025837173230769e+01
0	 5.875000000000000e+00	 3.750000000000000e+00	 1.025766720000000e+01
0	 5.937499999999999e+00	 3.125000000000000e+00	 1.026486269230769e+01
0	 5.937499999999999e+00	 3.187500000000000e+00	 1.026275262307693e+01
0	 5.937499999999999e+00	 3.250000000000000e+00	 1.026081180000000e+01
0	 5.937499999999999e+00	 3.312500000000000e+00	 1.025904022307693e+01
0	 5.937499999999999e+00	 3.374999999999998e+00	 1.025743789230769e+01
0	 5.937499999999999e+00	 3.437499999999999e+00	 1.025600480769231e+01
0	 5.937499999999999e+00	 3.499999999999999e+00	 1.025474096923077e+01
0	 5.937500000000000e+00	 3.562499999999999e+00	 1.025364637692307e+01
0	 5.937499999999999e+00	 3.624999999999998e+00	 1.025272103076923e+01
0	 5.937500000000000e+00	 3.687499999999999e+00	 1.025196493076924e+01
0	 5.937499999999999e+00	 3.750000000000000e+00	 1.025137807692309e+01
0	 5.999999999999998e+00	 3.125000000000000e+00	 1.025725046153845e+01
0	 5.999999999999999e+00	 3.187500000000000e+00	 1.025531369846154e+01
0	 5.999999999999999e+00	 3.249999999999999e+00	 1.025353821538461e+01
0	 5.999999999999999e+00	 3.312499999999999e+00	 1.025192401230769e+01
0	 5.999999999999999e+00	 3.375000000000000e+00	 1.025047108923077e+01
0	 5.999999999999999e+00	 3.437500000000000e+00	 1.024917944615385e+01
0	 5.999999999999998e+00	 3.499999999999999e+00	 1.024804908307692e+01
0	 5.999999999999999e+00	 3.562499999999999e+00	 1.024708000000000e+01
0	 5.999999999999999e+00	 3.624999999999999e+00	 1.024627219692307e+01
0	 5.999999999999999e+00	 3.687499999999998e+00	 1.024562567384615e+01
0	 5.999999999999998e+00	 3.750000000000000e+00	 1.024514043076923e+01
0	 6.062499999999998e+00	 3.125000000000000e+00	 1.024985038461538e+01
0	 6.062499999999999e+00	 3.187500000000000e+00	 1.024807086000001e+01
0	 6.062499999999999e+00	 3.250000000000000e+00	 1.024644464923077e+01
0	 6.062499999999998e+00	 3.312500000000000e+00	 1.024497175230769e+01
0	 6.062499999999998e+00	 3.374999999999999e+00	 1.024365216923077e+01
0	 6.062500000000000e+00	 3.437499999999999e+00	 1.024248589999999e+01
0	 6.062499999999999e+00	 3.499999999999999e+00	 1.024147294461538e+01
0	 6.062499999999999e+00	 3.562499999999999e+00	 1.024061330307691e+01
0	 6.062499999999999e+00	 3.624999999999998e+00	 1.023990697538462e+01
0	 6.062499999999999e+00	 3.687499999999999e+00	 1.023935396153847e+01
0	 6.062499999999998e+00	 3.750000000000000e+00	 1.023895426153846e+01
0	 6.124999999999998e+00	 3.125000000000000e+00	 1.024266246153846e+01
0	 6.125000000000000e+00	 3.187500000000001e+00	 1.024102410769231e+01
0	 6.124999999999998e+00	 3.250000000000000e+00	 1.023953110153846e+01
0	 6.124999999999999e+00	 3.312500000000000e+00	 1.023818344307692e+01
0	 6.124999999999999e+00	 3.374999999999999e+00	 1.023698113230769e+01
0	 6.124999999999998e+00	 3.437499999999999e+00	 1.023592416923076e+01
0	 6.124999999999998e+00	 3.499999999999998e+00	 1.023501255384615e+01
0	 6.124999999999998e+00	 3.562499999999998e+00	 1.023424628615384e+01
0	 6.124999999999999e+00	 3.624999999999998e+00	 1.023362536615384e+01
0	 6.124999999999998e+00	 3.687499999999998e+00	 1.023314979384615e+01
0	 6.124999999999998e+00	 3.750000000000000e+00	 1.023281956923077e+01
0	 6.187499999999997e+00	 3.125000000000000e+00	 1.023568669230768e+01
0	 6.187499999999998e+00	 3.187500000000000e+00	 1.023417344153846e+01
0	 6.187499999999998e+00	 3.250000000000000e+00	 1.023279757230769e+01
0	 6.187499999999997e+00	 3.312500000000000e+00	 1.023155908461537e+01
0	 6.187499999999998e+00	 3.374999999999999e+00	 1.023045797846154e+01
0	 6.187499999999997e+00	 3.437500000000000e+00	 1.022949425384616e+01
0	 6.187499999999997e+00	 3.499999999999998e+00	 1.022866791076923e+01
0	 6.187499999999997e+00	 3.562499999999998e+00	 1.022797894923077e+01
0	 6.187499999999998e+00	 3.624999999999998e+00	 1.022742736923077e+01
0	 6.187499999999997e+00	 3.687499999999997e+00	 1.022701317076923e+01
0	 6.187499999999997e+00	 3.750000000000000e+00	 1.022673635384615e+01
0	 6.250000000000000e+00	 3.125000000000000e+00	 1.022892307692307e+01
0	 6.250000000000001e+00	 3.187500000000000e+00	 1.022751886153845e+01
0	 6.250000000000001e+00	 3.250000000000000e+00	 1.022624406153846e+01
0	 6.250000000000000e+00	 3.312499999999999e+00	 1.022509867692308e+01
0	 6.250000000000001e+00	 3.374999999999999e+00	 1.022408270769230e+01
0	 6.250000000000000e+00	 3.437499999999999e+00	 1.022319615384614e+01
0	 6.250000000000000e+00	 3.499999999999999e+00	 1.022243901538461e+01
0	 6.250000000000000e+00	 3.562499999999998e+00	 1.022181129230769e+01
0	 6.250000000000001e+00	 3.624999999999999e+00	 1.022131298461539e+01
0	 6.250000000000000e+00	 3.687499999999998e+00	 1.022094409230768e+01
0	 6.250000000000000e+00	 3.750000000000000e+00	 1.022070461538462e+01
0	 5.625000000000000e+00	 3.750000000000000e+00	 1.028333846153846e+01
0	 5.625000000000000e+00	 3.812500000000000e+00	 1.027926163076924e+01
0	 5.625000000000001e+00	 3.875000000000000e+00	 1.027532436923077e+01
0	 5.625000000000000e+00	 3.937499999999999e+00	 1.027152667692307e+01
0	 5.625000000000000e+00	 4.000000000000000e+00	 1.026786855384615e+01
0	 5.625000000000000e+00	 4.062499999999999e+00	 1.026435000000001e+01
0	 5.625000000000000e+00	 4.124999999999999e+00	 1.026097101538460e+01
0	 5.624999999999999e+00	 4.187499999999998e+00	 1.025773160000000e+01
0	 5.624999999999999e+00	 4.249999999999998e+00	 1.025463175384615e+01
0	 5.625000000000000e+00	 4.312499999999998e+00	 1.025167147692309e+01
0	 5.625000000000000e+00	 4.375000000000000e+00	 1.024885076923076e+01
0	 5.687500000000001e+00	 3.750000000000000e+00	 1.027684343076923e+01
0	 5.687499999999999e+00	 3.812500000000000e+00	 1.027294306615385e+01
0	 5.687499999999999e+00	 3.875000000000000e+00	 1.026918049846153e+01
0	 5.687499999999999e+00	 3.937500000000000e+00	 1.026555572769230e+01
0	 5.687500000000000e+00	 3.999999999999999e+00	 1.026206875384615e+01
0	 5.687500000000001e+00	 4.062499999999999e+00	 1.025871957692307e+01
0	 5.687500000000001e+00	 4.125000000000000e+00	 1.025550819692308e+01
0	 5.687500000000001e+00	 4.187500000000000e+00	 1.025243461384615e+01
0	 5.687499999999999e+00	 4.250000000000000e+00	 1.024949882769229e+01
0	 5.687499999999998e+00	 4.312499999999997e+00	 1.024670083846153e+01
0	 5.687500000000001e+00	 4.375000000000000e+00	 1.024404064615385e+01
0	 5.750000000000000e+00	 3.750000000000000e+00	 1.027039987692308e+01
0	 5.749999999999998e+00	 3.812500000000000e+00	 1.026667031384616e+01
0	 5.750000000000001e+00	 3.875000000000000e+00	 1.026307677538462e+01
0	 5.749999999999998e+00	 3.937500000000000e+00	 1.025961926153846e+01
0	 5.749999999999999e+00	 3.999999999999999e+00	 1.025629777230769e+01
0	 5.750000000000000e+00	 4.062499999999999e+00	 1.025311230769231e+01
0	 5.750000000000000e+00	 4.124999999999997e+00	 1.025006286769230e+01
0	 5.750000000000000e+00	 4.187499999999998e+00	 1.024714945230768e+01
0	 5.750000000000000e+00	 4.249999999999998e+00	 1.024437206153846e+01
0	 5.750000000000000e+00	 4.312499999999998e+00	 1.024173069538461e+01
0	 5.750000000000000e+00	 4.375000000000000e+00	 1.023922535384613e+01
0	 5.812499999999999e+00	 3.750000000000000e+00	 1.026400780000000e+01
0	 5.812499999999998e+00	 3.812500000000000e+00	 1.026044337384615e+01
0	 5.812500000000000e+00	 3.875000000000000e+00	 1.025701320000000e+01
0	 5.812500000000000e+00	 3.937500000000000e+00	 1.025371727846155e+01
0	 5.812500000000000e+00	 3.999999999999999e+00	 1.025055560923076e+01
0	 5.812500000000000e+00	 4.062500000000000e+00	 1.024752819230768e+01
0	 5.812499999999999e+00	 4.124999999999998e+00	 1.024463502769231e+01
0	 5.812500000000000e+00	 4.187499999999999e+00	 1.024187611538461e+01
0	 5.812499999999999e+00	 4.249999999999998e+00	 1.023925145538460e+01
0	 5.812499999999997e+00	 4.312499999999997e+00	 1.023676104769231e+01
0	 5.812499999999999e+00	 4.375000000000000e+00	 1.023440489230768e+01
0	 5.875000000000000e+00	 3.750000000000000e+00	 1.025766720000000e+01
0	 5.875000000000000e+00	 3.812500000000000e+00	 1.025426224615384e+01
0	 5.875000000000000e+00	 3.875000000000000e+00	 1.025098977230769e+01
0	 5.875000000000000e+00	 3.937500000000000e+00	 1.024784977846153e+01
0	 5.874999999999998e+00	 3.999999999999999e+00	 1.024484226461539e+01
0	 5.874999999999999e+00	 4.062499999999999e+00	 1.024196723076922e+01
0	 5.874999999999998e+00	 4.124999999999998e+00	 1.023922467692308e+01
0	 5.874999999999999e+00	 4.187499999999999e+00	 1.023661460307692e+01
0	 5.875000000000000e+00	 4.249999999999998e+00	 1.023413700923077e+01
0	 5.875000000000000e+00	 4.312499999999998e+00	 1.023179189538461e+01
0	 5.875000000000000e+00	 4.375000000000000e+00	 1.022957926153846e+01
0	 5.937499999999999e+00	 3.750000000000000e+00	 1.025137807692309e+01
0	 5.937499999999999e+00	 3.812500000000000e+00	 1.024812693076923e+01
0	 5.937499999999999e+00	 3.875000000000000e+00	 1.024500649230768e+01
0	 5.937499999999999e+00	 3.937499999999999e+00	 1.024201676153846e+01
0	 5.937499999999999e+00	 3.999999999999998e+00	 1.023915773846153e+01
0	 5.937499999999999e+00	 4.062499999999999e+00	 1.023642942307692e+01
0	 5.937499999999999e+00	 4.125000000000000e+00	 1.023383181538461e+01
0	 5.937500000000000e+00	 4.187499999999998e+00	 1.023136491538461e+01
0	 5.937499999999999e+00	 4.249999999999998e+00	 1.022902872307691e+01
0	 5.937500000000000e+00	 4.312499999999998e+00	 1.022682323846152e+01
0	 5.937499999999999e+00	 4.375000000000000e+00	 1.022474846153844e+01
0	 5.999999999999998e+00	 3.750000000000000e+00	 1.024514043076923e+01
0	 5.999999999999999e+00	 3.812500000000000e+00	 1.024203742769230e+01
0	 5.999999999999999e+00	 3.874999999999999e+00	 1.023906335999999e+01
0	 5.999999999999999e+00	 3.937500000000000e+00	 1.023621822769231e+01
0	 5.999999999999999e+00	 4.000000000000000e+00	 1.023350203076923e+01
0	 5.999999999999999e+00	 4.062500000000000e+00	 1.023091476923077e+01
0	 5.999999999999998e+00	 4.124999999999999e+00	 1.022845644307693e+01
0	 5.999999999999999e+00	 4.187499999999998e+00	 1.022612705230768e+01
0	 5.999999999999999e+00	 4.249999999999999e+00	 1.022392659692307e+01
0	 5.999999999999999e+00	 4.312499999999997e+00	 1.022185507692307e+01
0	 5.999999999999998e+00	 4.375000000000000e+00	 1.021991249230767e+01
0	 6.062499999999998e+00	 3.750000000000000e+00	 1.023895426153846e+01
0	 6.062499999999999e+00	 3.812500000000000e+00	 1.023599373692308e+01
0	 6.062499999999999e+00	 3.875000000000000e+00	 1.023316037538462e+01
0	 6.062499999999998e+00	 3.937499999999999e+00	 1.023045417692307e+01
0	 6.062499999999998e+00	 3.999999999999999e+00	 1.022787514153846e+01
0	 6.062500000000000e+00	 4.062500000000000e+00	 1.022542326923077e+01
0	 6.062499999999999e+00	 4.124999999999999e+00	 1.022309855999999e+01
0	 6.062499999999999e+00	 4.187499999999999e+00	 1.022090101384615e+01
0	 6.062499999999999e+00	 4.249999999999998e+00	 1.021883063076923e+01
0	 6.062499999999999e+00	 4.312499999999998e+00	 1.021688741076924e+01
0	 6.062499999999998e+00	 4.375000000000000e+00	 1.021507135384615e+01
0	 6.124999999999998e+00	 3.750000000000000e+00	 1.023281956923077e+01
0	 6.125000000000000e+00	 3.812500000000000e+00	 1.022999585846155e+01
0	 6.124999999999998e+00	 3.875000000000000e+00	 1.022729753846154e+01
0	 6.124999999999999e+00	 3.937500000000000e+00	 1.022472460923077e+01
0	 6.124999999999999e+00	 3.999999999999999e+00	 1.022227707076923e+01
0	 6.124999999999998e+00	 4.062499999999998e+00	 1.021995492307692e+01
0	 6.124999999999998e+00	 4.124999999999999e+00	 1.021775816615385e+01
0	 6.124999999999998e+00	 4.187499999999998e+00	 1.021568679999999e+01
0	 6.124999999999999e+00	 4.249999999999998e+00	 1.021374082461538e+01
0	 6.124999999999998e+00	 4.312499999999998e+00	 1.021192024000001e+01
0	 6.124999999999998e+00	 4.375000000000000e+00	 1.021022504615385e+01
0	 6.187499999999997e+00	 3.750000000000000e+00	 1.022673635384615e+01
0	 6.187499999999998e+00	 3.812500000000000e+00	 1.022404379230770e+01
0	 6.187499999999998e+00	 3.875000000000000e+00	 1.022147484923077e+01
0	 6.187499999999997e+00	 3.937499999999999e+00	 1.021902952461538e+01
0	 6.187499999999998e+00	 3.999999999999999e+00	 1.021670781846153e+01
0	 6.187499999999997e+00	 4.062499999999998e+00	 1.021450973076923e+01
0	 6.187499999999997e+00	 4.124999999999998e+00	 1.021243526153846e+01
0	 6.187499999999997e+00	 4.187499999999998e+00	 1.021048441076923e+01
0	 6.187499999999998e+00	 4.249999999999998e+00	 1.020865717846154e+01
0	 6.187499999999997e+00	 4.312499999999998e+00	 1.020695356461539e+01
0	 6.187499999999997e+00	 4.375000000000000e+00	 1.020537356923076e+01
0	 6.250000000000000e+00	 3.750000000000000e+00	 1.022070461538462e+01
0	 6.250000000000001e+00	 3.812500000000000e+00	 1.021813753846155e+01
0	 6.250000000000001e+00	 3.875000000000000e+00	 1.021569230769231e+01
0	 6.250000000000000e+00	 3.937499999999999e+00	 1.021336892307692e+01
0	 6.250000000000001e+00	 4.000000000000000e+00	 1.021116738461538e+01
0	 6.250000000000000e+00	 4.062499999999999e+00	 1.020908769230770e+01
0	 6.250000000000000e+00	 4.124999999999999e+00	 1.020712984615384e+01
0	 6.250000000000000e+00	 4.187499999999998e+00	 1.020529384615384e+01
0	 6.250000000000001e+00	 4.249999999999998e+00	 1.020357969230769e+01
0	 6.250000000000000e+00	 4.312499999999998e+00	 1.020198738461539e+01
0	 6.250000000000000e+00	 4.375000000000000e+00	 1.020051692307692e+01
0	 5.625000000000000e+00	 4.375000000000000e+00	 1.024885076923076e+01
0	 5.625000000000000e+00	 4.437499999999999e+00	 1.024426450769228e+01
0	 5.625000000000001e+00	 4.500000000000001e+00	 1.023977895384614e+01
0	 5.625000000000000e+00	 4.562499999999999e+00	 1.023539410769231e+01
0	 5.625000000000000e+00	 4.625000000000000e+00	 1.023110996923076e+01
0	 5.625000000000000e+00	 4.687499999999999e+00	 1.022692653846153e+01
0	 5.625000000000000e+00	 4.749999999999999e+00	 1.022284381538461e+01
0	 5.624999999999999e+00	 4.812499999999998e+00	 1.021886180000000e+01
0	 5.624999999999999e+00	 4.874999999999998e+00	 1.021498049230768e+01
0	 5.625000000000000e+00	 4.937499999999998e+00	 1.021119989230768e+01
0	 5.625000000000000e+00	 5.000000000000000e+00	 1.020752000000000e+01
0	 5.687500000000001e+00	 4.375000000000000e+00	 1.024404064615385e+01
0	 5.687499999999999e+00	 4.437500000000000e+00	 1.023964384461537e+01
0	 5.687499999999999e+00	 4.499999999999999e+00	 1.023534594153846e+01
0	 5.687499999999999e+00	 4.562499999999999e+00	 1.023114693692306e+01
0	 5.687500000000000e+00	 4.625000000000000e+00	 1.022704683076922e+01
0	 5.687500000000001e+00	 4.687500000000001e+00	 1.022304562307692e+01
0	 5.687500000000001e+00	 4.749999999999999e+00	 1.021914331384615e+01
0	 5.687500000000001e+00	 4.812499999999999e+00	 1.021533990307692e+01
0	 5.687499999999999e+00	 4.875000000000000e+00	 1.021163539076922e+01
0	 5.687499999999998e+00	 4.937499999999997e+00	 1.020802977692308e+01
0	 5.687500000000001e+00	 4.999999999999999e+00	 1.020452306153845e+01
0	 5.750000000000000e+00	 4.375000000000000e+00	 1.023922535384613e+01
0	 5.749999999999998e+00	 4.437500000000000e+00	 1.023500963384615e+01
0	 5.750000000000001e+00	 4.500000000000001e+00	 1.023089100307691e+01
0	 5.749999999999998e+00	 4.562499999999999e+00	 1.022686946153845e+01
0	 5.749999999999999e+00	 4.624999999999998e+00	 1.022294500923076e+01
0	 5.750000000000000e+00	 4.687499999999997e+00	 1.021911764615385e+01
0	 5.750000000000000e+00	 4.749999999999998e+00	 1.021538737230768e+01
0	 5.750000000000000e+00	 4.812499999999999e+00	 1.021175418769230e+01
0	 5.750000000000000e+00	 4.874999999999998e+00	 1.020821809230769e+01
0	 5.750000000000000e+00	 4.937499999999998e+00	 1.020477908615385e+01
0	 5.750000000000000e+00	 5.000000000000000e+00	 1.020143716923077e+01
0	 5.812499999999999e+00	 4.375000000000000e+00	 1.023440489230768e+01
0	 5.812499999999998e+00	 4.437500000000000e+00	 1.023036187538460e+01
0	 5.812500000000000e+00	 4.500000000000000e+00	 1.022641413846153e+01
0	 5.812500000000000e+00	 4.562499999999999e+00	 1.022256168153845e+01
0	 5.812500000000000e+00	 4.625000000000000e+00	 1.021880450461538e+01
0	 5.812500000000000e+00	 4.687499999999999e+00	 1.021514260769230e+01
0	 5.812499999999999e+00	 4.749999999999998e+00	 1.021157599076923e+01
0	 5.812500000000000e+00	 4.812499999999998e+00	 1.020810465384614e+01
0	 5.812499999999999e+00	 4.874999999999998e+00	 1.020472859692308e+01
0	 5.812499999999997e+00	 4.937499999999997e+00	 1.020144782000001e+01
0	 5.812499999999999e+00	 4.999999999999999e+00	 1.019826232307693e+01
0	 5.875000000000000e+00	 4.375000000000000e+00	 1.022957926153846e+01
0	 5.875000000000000e+00	 4.437500000000000e+00	 1.022570056923076e+01
0	 5.875000000000000e+00	 4.500000000000000e+00	 1.022191534769229e+01
0	 5.875000000000000e+00	 4.562499999999999e+00	 1.021822359692307e+01
0	 5.874999999999998e+00	 4.624999999999999e+00	 1.021462531692308e+01
0	 5.874999999999999e+00	 4.687500000000000e+00	 1.021112050769231e+01
0	 5.874999999999998e+00	 4.749999999999998e+00	 1.020770916923077e+01
0	 5.874999999999999e+00	 4.812499999999999e+00	 1.020439130153846e+01
0	 5.875000000000000e+00	 4.874999999999998e+00	 1.020116690461538e+01
0	 5.875000000000000e+00	 4.937499999999997e+00	 1.019803597846153e+01
0	 5.875000000000000e+00	 5.000000000000000e+00	 1.019499852307693e+01
0	 5.937499999999999e+00	 4.375000000000000e+00	 1.022474846153844e+01
0	 5.937499999999999e+00	 4.437499999999999e+00	 1.022102571538461e+01
0	 5.937499999999999e+00	 4.499999999999999e+00	 1.021739463076923e+01
0	 5.937499999999999e+00	 4.562499999999999e+00	 1.021385520769230e+01
0	 5.937499999999999e+00	 4.624999999999998e+00	 1.021040744615385e+01
0	 5.937499999999999e+00	 4.687499999999999e+00	 1.020705134615385e+01
0	 5.937499999999999e+00	 4.750000000000000e+00	 1.020378690769231e+01
0	 5.937500000000000e+00	 4.812499999999998e+00	 1.020061413076923e+01
0	 5.937499999999999e+00	 4.874999999999998e+00	 1.019753301538462e+01
0	 5.937500000000000e+00	 4.937499999999999e+00	 1.019454356153847e+01
0	 5.937499999999999e+00	 5.000000000000000e+00	 1.019164576923079e+01
0	 5.999999999999998e+00	 4.375000000000000e+00	 1.021991249230767e+01
0	 5.999999999999999e+00	 4.437499999999999e+00	 1.021633731384615e+01
0	 5.999999999999999e+00	 4.499999999999998e+00	 1.021285198769229e+01
0	 5.999999999999999e+00	 4.562499999999999e+00	 1.020945651384614e+01
0	 5.999999999999999e+00	 4.625000000000001e+00	 1.020615089230769e+01
0	 5.999999999999999e+00	 4.687499999999999e+00	 1.020293512307692e+01
0	 5.999999999999998e+00	 4.749999999999998e+00	 1.019980920615385e+01
0	 5.999999999999999e+00	 4.812499999999999e+00	 1.019677314153846e+01
0	 5.999999999999999e+00	 4.874999999999998e+00	 1.019382692923078e+01
0	 5.999999999999999e+00	 4.937499999999999e+00	 1.019097056923077e+01
0	 5.999999999999998e+00	 5.000000000000001e+00	 1.018820406153848e+01
0	 6.062499999999998e+00	 4.375000000000000e+00	 1.021507135384615e+01
0	 6.062499999999999e+00	 4.437499999999999e+00	 1.021163536461538e+01
0	 6.062499999999999e+00	 4.500000000000000e+00	 1.020828741846153e+01
0	 6.062499999999998e+00	 4.562499999999999e+00	 1.020502751538461e+01
0	 6.062499999999998e+00	 4.625000000000000e+00	 1.020185565538462e+01
0	 6.062500000000000e+00	 4.687500000000000e+00	 1.019877183846153e+01
0	 6.062499999999999e+00	 4.749999999999999e+00	 1.019577606461538e+01
0	 6.062499999999999e+00	 4.812499999999999e+00	 1.019286833384616e+01
0	 6.062499999999999e+00	 4.874999999999998e+00	 1.019004864615384e+01
0	 6.062499999999999e+00	 4.937499999999999e+00	 1.018731700153847e+01
0	 6.062499999999998e+00	 4.999999999999999e+00	 1.018467340000001e+01
0	 6.124999999999998e+00	 4.375000000000000e+00	 1.021022504615385e+01
0	 6.125000000000000e+00	 4.437500000000001e+00	 1.020691986769231e+01
0	 6.124999999999998e+00	 4.499999999999999e+00	 1.020370092307691e+01
0	 6.124999999999999e+00	 4.562500000000000e+00	 1.020056821230768e+01
0	 6.124999999999999e+00	 4.624999999999999e+00	 1.019752173538460e+01
0	 6.124999999999998e+00	 4.687499999999998e+00	 1.019456149230770e+01
0	 6.124999999999998e+00	 4.749999999999999e+00	 1.019168748307692e+01
0	 6.124999999999998e+00	 4.812499999999998e+00	 1.018889970769231e+01
0	 6.124999999999999e+00	 4.874999999999999e+00	 1.018619816615384e+01
0	 6.124999999999998e+00	 4.937499999999998e+00	 1.018358285846154e+01
0	 6.124999999999998e+00	 5.000000000000000e+00	 1.018105378461538e+01
0	 6.187499999999997e+00	 4.375000000000000e+00	 1.020537356923076e+01
0	 6.187499999999998e+00	 4.437500000000000e+00	 1.020219082307692e+01
0	 6.187499999999998e+00	 4.500000000000000e+00	 1.019909250153845e+01
0	 6.187499999999997e+00	 4.562500000000000e+00	 1.019607860461539e+01
0	 6.187499999999998e+00	 4.624999999999999e+00	 1.019314913230768e+01
0	 6.187499999999997e+00	 4.687499999999999e+00	 1.019030408461538e+01
0	 6.187499999999997e+00	 4.749999999999999e+00	 1.018754346153846e+01
0	 6.187499999999997e+00	 4.812499999999998e+00	 1.018486726307693e+01
0	 6.187499999999998e+00	 4.874999999999999e+00	 1.018227548923077e+01
0	 6.187499999999997e+00	 4.937499999999998e+00	 1.017976814000000e+01
0	 6.187499999999997e+00	 5.000000000000000e+00	 1.017734521538463e+01
0	 6.250000000000000e+00	 4.375000000000000e+00	 1.020051692307692e+01
0	 6.250000000000001e+00	 4.437499999999999e+00	 1.019744823076921e+01
0	 6.250000000000001e+00	 4.500000000000001e+00	 1.019446215384614e+01
0	 6.250000000000000e+00	 4.562499999999999e+00	 1.019155869230770e+01
0	 6.250000000000001e+00	 4.625000000000000e+00	 1.018873784615385e+01
0	 6.250000000000000e+00	 4.687499999999999e+00	 1.018599961538462e+01
0	 6.250000000000000e+00	 4.749999999999999e+00	 1.018334400000000e+01
0	 6.250000000000000e+00	 4.812499999999998e+00	 1.018077100000000e+01
0	 6.250000000000001e+00	 4.874999999999998e+00	 1.017828061538461e+01
0	 6.250000000000000e+00	 4.937499999999998e+00	 1.017587284615384e+01
0	 6.250000000000000e+00	 5.000000000000000e+00	 1.017354769230770e+01
0	 5.625000000000000e+00	 5.000000000000000e+00	 1.020752000000000e+01
0	 5.625000000000000e+00	 5.062500000000000e+00	 1.020315833846155e+01
0	 5.625000000000001e+00	 5.125000000000001e+00	 1.019884227692308e+01
0	 5.625000000000000e+00	 5.187499999999999e+00	 1.019457181538461e+01
0	 5.625000000000000e+00	 5.249999999999999e+00	 1.019034695384615e+01
0	 5.625000000000000e+00	 5.312499999999999e+00	 1.018616769230770e+01
0	 5.625000000000000e+00	 5.374999999999998e+00	 1.018203403076923e+01
0	 5.624999999999999e+00	 5.437499999999998e+00	 1.017794596923077e+01
0	 5.624999999999999e+00	 5.499999999999998e+00	 1.017390350769231e+01
0	 5.625000000000000e+00	 5.562499999999998e+00	 1.016990664615384e+01
0	 5.625000000000000e+00	 5.625000000000000e+00	 1.016595538461539e+01
0	 5.687500000000001e+00	 4.999999999999999e+00	 1.020452306153845e+01
0	 5.687499999999999e+00	 5.062500000000000e+00	 1.020027683692307e+01
0	 5.687499999999999e+00	 5.125000000000000e+00	 1.019607706153846e+01
0	 5.687499999999999e+00	 5.187499999999999e+00	 1.019192373538461e+01
0	 5.687500000000000e+00	 5.249999999999998e+00	 1.018781685846154e+01
0	 5.687500000000001e+00	 5.312500000000000e+00	 1.018375643076923e+01
0	 5.687500000000001e+00	 5.374999999999999e+00	 1.017974245230769e+01
0	 5.687500000000001e+00	 5.437499999999999e+00	 1.017577492307693e+01
0	 5.687499999999999e+00	 5.499999999999999e+00	 1.017185384307692e+01
0	 5.687499999999998e+00	 5.562499999999996e+00	 1.016797921230772e+01
0	 5.687500000000001e+00	 5.625000000000000e+00	 1.016415103076923e+01
0	 5.750000000000000e+00	 5.000000000000000e+00	 1.020143716923077e+01
0	 5.749999999999998e+00	 5.062499999999999e+00	 1.019730452923077e+01
0	 5.750000000000001e+00	 5.125000000000001e+00	 1.019321918769230e+01
0	 5.749999999999998e+00	 5.187499999999998e+00	 1.018918114461538e+01
0	 5.749999999999999e+00	 5.249999999999999e+00	 1.018519040000000e+01
0	 5.750000000000000e+00	 5.312499999999999e+00	 1.018124695384615e+01
0	 5.750000000000000e+00	 5.374999999999999e+00	 1.017735080615385e+01
0	 5.750000000000000e+00	 5.437499999999999e+00	 1.017350195692309e+01
0	 5.750000000000000e+00	 5.499999999999998e+00	 1.016970040615384e+01
0	 5.750000000000000e+00	 5.562499999999999e+00	 1.016594615384614e+01
0	 5.750000000000000e+00	 5.625000000000000e+00	 1.016223920000002e+01
0	 5.812499999999999e+00	 4.999999999999999e+00	 1.019826232307693e+01
0	 5.812499999999998e+00	 5.062500000000001e+00	 1.019424141538461e+01
0	 5.812500000000000e+00	 5.125000000000000e+00	 1.019026865538462e+01
0	 5.812500000000000e+00	 5.187499999999999e+00	 1.018634404307692e+01
0	 5.812500000000000e+00	 5.250000000000000e+00	 1.018246757846154e+01
0	 5.812500000000000e+00	 5.312499999999999e+00	 1.017863926153846e+01
0	 5.812499999999999e+00	 5.374999999999998e+00	 1.017485909230769e+01
0	 5.812500000000000e+00	 5.437499999999999e+00	 1.017112707076923e+01
0	 5.812499999999999e+00	 5.499999999999998e+00	 1.016744319692308e+01
0	 5.812499999999997e+00	 5.562499999999997e+00	 1.016380747076922e+01
0	 5.812499999999999e+00	 5.625000000000000e+00	 1.016021989230766e+01
0	 5.875000000000000e+00	 5.000000000000000e+00	 1.019499852307693e+01
0	 5.875000000000000e+00	 5.062500000000000e+00	 1.019108749538461e+01
0	 5.875000000000000e+00	 5.125000000000000e+00	 1.018722546461538e+01
0	 5.875000000000000e+00	 5.187500000000000e+00	 1.018341243076923e+01
0	 5.874999999999998e+00	 5.249999999999999e+00	 1.017964839384615e+01
0	 5.874999999999999e+00	 5.312499999999999e+00	 1.017593335384615e+01
0	 5.874999999999998e+00	 5.374999999999998e+00	 1.017226731076923e+01
0	 5.874999999999999e+00	 5.437499999999999e+00	 1.016865026461539e+01
0	 5.875000000000000e+00	 5.499999999999999e+00	 1.016508221538462e+01
0	 5.875000000000000e+00	 5.562499999999998e+00	 1.016156316307694e+01
0	 5.875000000000000e+00	 5.625000000000000e+00	 1.015809310769231e+01
0	 5.937499999999999e+00	 5.000000000000000e+00	 1.019164576923079e+01
0	 5.937499999999999e+00	 5.062500000000000e+00	 1.018784276923078e+01
0	 5.937499999999999e+00	 5.124999999999999e+00	 1.018408961538462e+01
0	 5.937499999999999e+00	 5.187500000000000e+00	 1.018038630769231e+01
0	 5.937499999999999e+00	 5.249999999999998e+00	 1.017673284615385e+01
0	 5.937499999999999e+00	 5.312499999999999e+00	 1.017312923076923e+01
0	 5.937499999999999e+00	 5.375000000000000e+00	 1.016957546153846e+01
0	 5.937500000000000e+00	 5.437499999999998e+00	 1.016607153846154e+01
0	 5.937499999999999e+00	 5.499999999999998e+00	 1.016261746153847e+01
0	 5.937500000000000e+00	 5.562499999999999e+00	 1.015921323076923e+01
0	 5.937499999999999e+00	 5.625000000000000e+00	 1.015585884615385e+01
0	 5.999999999999998e+00	 5.000000000000001e+00	 1.018820406153848e+01
0	 5.999999999999999e+00	 5.062499999999999e+00	 1.018450723692307e+01
0	 5.999999999999999e+00	 5.125000000000000e+00	 1.018086110769229e+01
0	 5.999999999999999e+00	 5.187500000000000e+00	 1.017726567384616e+01
0	 5.999999999999999e+00	 5.250000000000001e+00	 1.017372093538461e+01
0	 5.999999999999999e+00	 5.312500000000001e+00	 1.017022689230770e+01
0	 5.999999999999998e+00	 5.374999999999999e+00	 1.016678354461539e+01
0	 5.999999999999999e+00	 5.437499999999999e+00	 1.016339089230770e+01
0	 5.999999999999999e+00	 5.499999999999998e+00	 1.016004893538461e+01
0	 5.999999999999999e+00	 5.562499999999998e+00	 1.015675767384615e+01
0	 5.999999999999998e+00	 5.625000000000000e+00	 1.015351710769229e+01
0	 6.062499999999998e+00	 4.999999999999999e+00	 1.018467340000001e+01
0	 6.062499999999999e+00	 5.062500000000000e+00	 1.018108089846154e+01
0	 6.062499999999999e+00	 5.125000000000000e+00	 1.017753994153846e+01
0	 6.062499999999998e+00	 5.187500000000000e+00	 1.017405052923077e+01
0	 6.062499999999998e+00	 5.250000000000000e+00	 1.017061266153847e+01
0	 6.062500000000000e+00	 5.312500000000000e+00	 1.016722633846155e+01
0	 6.062499999999999e+00	 5.374999999999999e+00	 1.016389156000000e+01
0	 6.062499999999999e+00	 5.437499999999998e+00	 1.016060832615383e+01
0	 6.062499999999999e+00	 5.499999999999998e+00	 1.015737663692308e+01
0	 6.062499999999999e+00	 5.562499999999999e+00	 1.015419649230769e+01
0	 6.062499999999998e+00	 5.625000000000000e+00	 1.015106789230769e+01
0	 6.124999999999998e+00	 5.000000000000000e+00	 1.018105378461538e+01
0	 6.125000000000000e+00	 5.062500000000002e+00	 1.017756375384616e+01
0	 6.124999999999998e+00	 5.124999999999999e+00	 1.017412611692309e+01
0	 6.124999999999999e+00	 5.187500000000000e+00	 1.017074087384617e+01
0	 6.124999999999999e+00	 5.249999999999998e+00	 1.016740802461538e+01
0	 6.124999999999998e+00	 5.312499999999999e+00	 1.016412756923077e+01
0	 6.124999999999998e+00	 5.374999999999998e+00	 1.016089950769230e+01
0	 6.124999999999998e+00	 5.437499999999998e+00	 1.015772383999998e+01
0	 6.124999999999999e+00	 5.499999999999999e+00	 1.015460056615386e+01
0	 6.124999999999998e+00	 5.562499999999998e+00	 1.015152968615385e+01
0	 6.124999999999998e+00	 5.625000000000000e+00	 1.014851120000001e+01
0	 6.187499999999997e+00	 5.000000000000000e+00	 1.017734521538463e+01
0	 6.187499999999998e+00	 5.062500000000000e+00	 1.017395580307693e+01
0	 6.187499999999998e+00	 5.125000000000001e+00	 1.017061963384616e+01
0	 6.187499999999997e+00	 5.187499999999999e+00	 1.016733670769230e+01
0	 6.187499999999998e+00	 5.249999999999999e+00	 1.016410702461539e+01
0	 6.187499999999997e+00	 5.312499999999998e+00	 1.016093058461539e+01
0	 6.187499999999997e+00	 5.374999999999997e+00	 1.015780738769231e+01
0	 6.187499999999997e+00	 5.437499999999998e+00	 1.015473743384616e+01
0	 6.187499999999998e+00	 5.499999999999999e+00	 1.015172072307693e+01
0	 6.187499999999997e+00	 5.562499999999998e+00	 1.014875725538461e+01
0	 6.187499999999997e+00	 5.625000000000000e+00	 1.014584703076923e+01
0	 6.250000000000000e+00	 5.000000000000000e+00	 1.017354769230770e+01
0	 6.250000000000001e+00	 5.062500000000000e+00	 1.017025704615387e+01
0	 6.250000000000001e+00	 5.125000000000001e+00	 1.016702049230770e+01
0	 6.250000000000000e+00	 5.187499999999999e+00	 1.016383803076923e+01
0	 6.250000000000001e+00	 5.249999999999999e+00	 1.016070966153846e+01
0	 6.250000000000000e+00	 5.312499999999999e+00	 1.015763538461539e+01
0	 6.250000000000000e+00	 5.374999999999998e+00	 1.015461519999999e+01
0	 6.250000000000000e+00	 5.437499999999998e+00	 1.015164910769231e+01
0	 6.250000000000001e+00	 5.499999999999998e+00	 1.014873710769231e+01
0	 6.250000000000000e+00	 5.562499999999998e+00	 1.014587920000000e+01
0	 6.250000000000000e+00	 5.625000000000000e+00	 1.014307538461538e+01
0	 5.625000000000000e+00	 5.625000000000000e+00	 1.016595538461539e+01
0	 5.625000000000000e+00	 5.687500000000000e+00	 1.016196461538461e+01
0	 5.625000000000001e+00	 5.750000000000000e+00	 1.015799138461538e+01
0	 5.625000000000000e+00	 5.812499999999999e+00	 1.015403569230770e+01
0	 5.625000000000000e+00	 5.874999999999999e+00	 1.015009753846154e+01
0	 5.625000000000000e+00	 5.937499999999999e+00	 1.014617692307693e+01
0	 5.625000000000000e+00	 5.999999999999998e+00	 1.014227384615386e+01
0	 5.624999999999999e+00	 6.062499999999998e+00	 1.013838830769231e+01
0	 5.624999999999999e+00	 6.124999999999998e+00	 1.013452030769230e+01
0	 5.625000000000000e+00	 6.187499999999998e+00	 1.013066984615384e+01
0	 5.625000000000000e+00	 6.250000000000000e+00	 1.012683692307692e+01
0	 5.687500000000001e+00	 5.625000000000000e+00	 1.016415103076923e+01
0	 5.687499999999999e+00	 5.687499999999999e+00	 1.016024739384616e+01
0	 5.687499999999999e+00	 5.749999999999999e+00	 1.015636186769231e+01
0	 5.687499999999999e+00	 5.812499999999998e+00	 1.015249445230769e+01
0	 5.687500000000000e+00	 5.875000000000000e+00	 1.014864514769231e+01
0	 5.687500000000001e+00	 5.937500000000001e+00	 1.014481395384615e+01
0	 5.687500000000001e+00	 5.999999999999999e+00	 1.014100087076923e+01
0	 5.687500000000001e+00	 6.062500000000000e+00	 1.013720589846153e+01
0	 5.687499999999999e+00	 6.125000000000000e+00	 1.013342903692306e+01
0	 5.687499999999998e+00	 6.187499999999996e+00	 1.012967028615384e+01
0	 5.687500000000001e+00	 6.250000000000000e+00	 1.012592964615384e+01
0	 5.750000000000000e+00	 5.625000000000000e+00	 1.016223920000002e+01
0	 5.749999999999998e+00	 5.687499999999999e+00	 1.015842161846154e+01
0	 5.750000000000001e+00	 5.750000000000002e+00	 1.015462272000000e+01
0	 5.749999999999998e+00	 5.812499999999999e+00	 1.015084250461538e+01
0	 5.749999999999999e+00	 5.874999999999998e+00	 1.014708097230770e+01
0	 5.750000000000000e+00	 5.937499999999999e+00	 1.014333812307692e+01
0	 5.750000000000000e+00	 5.999999999999998e+00	 1.013961395692307e+01
0	 5.750000000000000e+00	 6.062499999999999e+00	 1.013590847384614e+01
0	 5.750000000000000e+00	 6.124999999999998e+00	 1.013222167384614e+01
0	 5.750000000000000e+00	 6.187499999999998e+00	 1.012855355692307e+01
0	 5.750000000000000e+00	 6.250000000000000e+00	 1.012490412307693e+01
0	 5.812499999999999e+00	 5.625000000000000e+00	 1.016021989230766e+01
0	 5.812499999999998e+00	 5.687500000000000e+00	 1.015648728923076e+01
0	 5.812500000000000e+00	 5.749999999999999e+00	 1.015277394153846e+01
0	 5.812500000000000e+00	 5.812499999999999e+00	 1.014907984923077e+01
0	 5.812500000000000e+00	 5.875000000000000e+00	 1.014540501230770e+01
0	 5.812500000000000e+00	 5.937500000000000e+00	 1.014174943076923e+01
0	 5.812499999999999e+00	 5.999999999999998e+00	 1.013811310461539e+01
0	 5.812500000000000e+00	 6.062499999999998e+00	 1.013449603384617e+01
0	 5.812499999999999e+00	 6.124999999999997e+00	 1.013089821846154e+01
0	 5.812499999999997e+00	 6.187499999999997e+00	 1.012731965846154e+01
0	 5.812499999999999e+00	 6.250000000000000e+00	 1.012376035384615e+01
0	 5.875000000000000e+00	 5.625000000000000e+00	 1.015809310769231e+01
0	 5.875000000000000e+00	 5.687500000000000e+00	 1.015444440615386e+01
0	 5.875000000000000e+00	 5.750000000000000e+00	 1.015081553230770e+01
0	 5.875000000000000e+00	 5.812500000000000e+00	 1.014720648615385e+01
0	 5.874999999999998e+00	 5.874999999999999e+00	 1.014361726769231e+01
0	 5.874999999999999e+00	 5.937499999999999e+00	 1.014004787692308e+01
0	 5.874999999999998e+00	 5.999999999999997e+00	 1.013649831384616e+01
0	 5.874999999999999e+00	 6.062499999999998e+00	 1.013296857846154e+01
0	 5.875000000000000e+00	 6.124999999999999e+00	 1.012945867076924e+01
0	 5.875000000000000e+00	 6.187499999999998e+00	 1.012596859076924e+01
0	 5.875000000000000e+00	 6.250000000000000e+00	 1.012249833846153e+01
0	 5.937499999999999e+00	 5.625000000000000e+00	 1.015585884615385e+01
0	 5.937499999999999e+00	 5.687500000000000e+00	 1.015229296923077e+01
0	 5.937499999999999e+00	 5.750000000000000e+00	 1.014874749230770e+01
0	 5.937499999999999e+00	 5.812500000000000e+00	 1.014522241538462e+01
0	 5.937499999999999e+00	 5.874999999999998e+00	 1.014171773846155e+01
0	 5.937499999999999e+00	 5.937499999999998e+00	 1.013823346153846e+01
0	 5.937499999999999e+00	 6.000000000000000e+00	 1.013476958461539e+01
0	 5.937500000000000e+00	 6.062499999999998e+00	 1.013132610769232e+01
0	 5.937499999999999e+00	 6.124999999999998e+00	 1.012790303076923e+01
0	 5.937500000000000e+00	 6.187499999999999e+00	 1.012450035384616e+01
0	 5.937499999999999e+00	 6.250000000000000e+00	 1.012111807692308e+01
0	 5.999999999999998e+00	 5.625000000000000e+00	 1.015351710769229e+01
0	 5.999999999999999e+00	 5.687499999999999e+00	 1.015003297846154e+01
0	 5.999999999999999e+00	 5.750000000000000e+00	 1.014656982153844e+01
0	 5.999999999999999e+00	 5.812499999999999e+00	 1.014312763692307e+01
0	 5.999999999999999e+00	 5.875000000000001e+00	 1.013970642461538e+01
0	 5.999999999999999e+00	 5.937499999999999e+00	 1.013630618461539e+01
0	 5.999999999999998e+00	 5.999999999999998e+00	 1.013292691692308e+01
0	 5.999999999999999e+00	 6.062499999999999e+00	 1.012956862153847e+01
0	 5.999999999999999e+00	 6.124999999999998e+00	 1.012623129846154e+01
0	 5.999999999999999e+00	 6.187499999999998e+00	 1.012291494769232e+01
0	 5.999999999999998e+00	 6.250000000000000e+00	 1.011961956923077e+01
0	 6.062499999999998e+00	 5.625000000000000e+00	 1.015106789230769e+01
0	 6.062499999999999e+00	 5.687500000000000e+00	 1.014766443384615e+01
0	 6.062499999999999e+00	 5.750000000000000e+00	 1.014428251999999e+01
0	 6.062499999999998e+00	 5.812499999999999e+00	 1.014092215076923e+01
0	 6.062499999999998e+00	 5.874999999999999e+00	 1.013758332615386e+01
0	 6.062500000000000e+00	 5.937500000000001e+00	 1.013426604615385e+01
0	 6.062499999999999e+00	 5.999999999999999e+00	 1.013097031076923e+01
0	 6.062499999999999e+00	 6.062499999999999e+00	 1.012769612000000e+01
0	 6.062499999999999e+00	 6.124999999999999e+00	 1.012444347384615e+01
0	 6.062499999999999e+00	 6.187499999999999e+00	 1.012121237230770e+01
0	 6.062499999999998e+00	 6.250000000000000e+00	 1.011800281538463e+01
0	 6.124999999999998e+00	 5.625000000000000e+00	 1.014851120000001e+01
0	 6.125000000000000e+00	 5.687500000000000e+00	 1.014518733538462e+01
0	 6.124999999999998e+00	 5.750000000000000e+00	 1.014188558769231e+01
0	 6.124999999999999e+00	 5.812499999999999e+00	 1.013860595692307e+01
0	 6.124999999999999e+00	 5.875000000000000e+00	 1.013534844307691e+01
0	 6.124999999999998e+00	 5.937500000000000e+00	 1.013211304615383e+01
0	 6.124999999999998e+00	 5.999999999999998e+00	 1.012889976615384e+01
0	 6.124999999999998e+00	 6.062499999999998e+00	 1.012570860307692e+01
0	 6.124999999999999e+00	 6.124999999999999e+00	 1.012253955692308e+01
0	 6.124999999999998e+00	 6.187499999999998e+00	 1.011939262769233e+01
0	 6.124999999999998e+00	 6.250000000000000e+00	 1.011626781538462e+01
0	 6.187499999999997e+00	 5.625000000000000e+00	 1.014584703076923e+01
0	 6.187499999999998e+00	 5.687500000000000e+00	 1.014260168307692e+01
0	 6.187499999999998e+00	 5.750000000000000e+00	 1.013937902461537e+01
0	 6.187499999999997e+00	 5.812499999999999e+00	 1.013617905538460e+01
0	 6.187499999999998e+00	 5.875000000000000e+00	 1.013300177538462e+01
0	 6.187499999999997e+00	 5.937499999999999e+00	 1.012984718461539e+01
0	 6.187499999999997e+00	 5.999999999999998e+00	 1.012671528307694e+01
0	 6.187499999999997e+00	 6.062499999999998e+00	 1.012360607076924e+01
0	 6.187499999999998e+00	 6.124999999999998e+00	 1.012051954769231e+01
0	 6.187499999999997e+00	 6.187499999999997e+00	 1.011745571384616e+01
0	 6.187499999999997e+00	 6.250000000000000e+00	 1.011441456923077e+01
0	 6.250000000000000e+00	 5.625000000000000e+00	 1.014307538461538e+01
0	 6.250000000000001e+00	 5.687500000000000e+00	 1.013990747692307e+01
0	 6.250000000000001e+00	 5.750000000000000e+00	 1.013676283076922e+01
0	 6.250000000000000e+00	 5.812499999999999e+00	 1.013364144615386e+01
0	 6.250000000000001e+00	 5.874999999999999e+00	 1.013054332307692e+01
0	 6.250000000000000e+00	 5.937499999999999e+00	 1.012746846153846e+01
0	 6.250000000000000e+00	 5.999999999999998e+00	 1.012441686153847e+01
0	 6.250000000000000e+00	 6.062499999999998e+00	 1.012138852307693e+01
0	 6.250000000000001e+00	 6.124999999999998e+00	 1.011838344615386e+01
0	 6.250000000000000e+00	 6.187499999999998e+00	 1.011540163076924e+01
0	 6.250000000000000e+00	 6.250000000000000e+00	 1.011244307692308e+01
0	 5.625000000000000e+00	 6.250000000000000e+00	 1.012683692307692e+01
0	 5.625000000000000e+00	 6.312500000000000e+00	 1.012339859999999e+01
0	 5.625000000000001e+00	 6.375000000000000e+00	 1.011995224615384e+01
0	 5.625000000000000e+00	 6.437499999999999e+00	 1.011649786153845e+01
0	 5.625000000000000e+00	 6.499999999999999e+00	 1.011303544615384e+01
0	 5.625000000000000e+00	 6.562499999999998e+00	 1.010956500000001e+01
0	 5.625000000000000e+00	 6.624999999999998e+00	 1.010608652307691e+01
0	 5.624999999999999e+00	 6.687499999999998e+00	 1.010260001538462e+01
0	 5.624999999999999e+00	 6.749999999999998e+00	 1.009910547692307e+01
0	 5.625000000000000e+00	 6.812499999999998e+00	 1.009560290769230e+01
0	 5.625000000000000e+00	 6.875000000000000e+00	 1.009209230769231e+01
0	 5.687500000000001e+00	 6.250000000000000e+00	 1.012592964615384e+01
0	 5.687499999999999e+00	 6.312500000000000e+00	 1.012253621999998e+01
0	 5.687499999999999e+00	 6.374999999999999e+00	 1.011913582461538e+01
0	 5.687499999999999e+00	 6.437500000000000e+00	 1.011572846000001e+01
0	 5.687500000000000e+00	 6.499999999999997e+00	 1.011231412615384e+01
0	 5.687500000000001e+00	 6.562500000000000e+00	 1.010889282307693e+01
0	 5.687500000000001e+00	 6.624999999999999e+00	 1.010546455076922e+01
0	 5.687500000000001e+00	 6.687499999999999e+00	 1.010202930923077e+01
0	 5.687499999999999e+00	 6.749999999999999e+00	 1.009858709846154e+01
0	 5.687499999999998e+00	 6.812499999999996e+00	 1.009513791846154e+01
0	 5.687500000000001e+00	 6.875000000000001e+00	 1.009168176923077e+01
0	 5.750000000000000e+00	 6.250000000000000e+00	 1.012490412307693e+01
0	 5.749999999999998e+00	 6.312499999999999e+00	 1.012155718769231e+01
0	 5.750000000000001e+00	 6.375000000000000e+00	 1.011820434461540e+01
0	 5.749999999999998e+00	 6.437499999999998e+00	 1.011484559384615e+01
0	 5.749999999999999e+00	 6.499999999999996e+00	 1.011148093538461e+01
0	 5.750000000000000e+00	 6.562499999999998e+00	 1.010811036923077e+01
0	 5.750000000000000e+00	 6.624999999999996e+00	 1.010473389538462e+01
0	 5.750000000000000e+00	 6.687499999999999e+00	 1.010135151384616e+01
0	 5.750000000000000e+00	 6.749999999999997e+00	 1.009796322461537e+01
0	 5.750000000000000e+00	 6.812500000000000e+00	 1.009456902769230e+01
0	 5.750000000000000e+00	 6.875000000000000e+00	 1.009116892307692e+01
0	 5.812499999999999e+00	 6.250000000000000e+00	 1.012376035384615e+01
0	 5.812499999999998e+00	 6.312499999999999e+00	 1.012046150307693e+01
0	 5.812500000000000e+00	 6.375000000000000e+00	 1.011715780615385e+01
0	 5.812500000000000e+00	 6.437500000000000e+00	 1.011384926307691e+01
0	 5.812500000000000e+00	 6.499999999999998e+00	 1.011053587384616e+01
0	 5.812500000000000e+00	 6.562499999999999e+00	 1.010721763846153e+01
0	 5.812499999999999e+00	 6.624999999999999e+00	 1.010389455692307e+01
0	 5.812500000000000e+00	 6.687499999999998e+00	 1.010056662923076e+01
0	 5.812499999999999e+00	 6.749999999999998e+00	 1.009723385538461e+01
0	 5.812499999999997e+00	 6.812499999999997e+00	 1.009389623538463e+01
0	 5.812499999999999e+00	 6.874999999999999e+00	 1.009055376923077e+01
0	 5.875000000000000e+00	 6.250000000000000e+00	 1.012249833846153e+01
0	 5.875000000000000e+00	 6.312499999999999e+00	 1.011924916615385e+01
0	 5.875000000000000e+00	 6.375000000000000e+00	 1.011599620923076e+01
0	 5.875000000000000e+00	 6.437499999999999e+00	 1.011273946769231e+01
0	 5.874999999999998e+00	 6.499999999999997e+00	 1.010947894153846e+01
0	 5.874999999999999e+00	 6.562499999999999e+00	 1.010621463076923e+01
0	 5.874999999999998e+00	 6.624999999999998e+00	 1.010294653538461e+01
0	 5.874999999999999e+00	 6.687499999999998e+00	 1.009967465538461e+01
0	 5.875000000000000e+00	 6.749999999999998e+00	 1.009639899076923e+01
0	 5.875000000000000e+00	 6.812499999999998e+00	 1.009311954153848e+01
0	 5.875000000000000e+00	 6.875000000000001e+00	 1.008983630769229e+01
0	 5.937499999999999e+00	 6.250000000000000e+00	 1.012111807692308e+01
0	 5.937499999999999e+00	 6.312500000000000e+00	 1.011792017692308e+01
0	 5.937499999999999e+00	 6.375000000000000e+00	 1.011471955384615e+01
0	 5.937499999999999e+00	 6.437499999999999e+00	 1.011151620769232e+01
0	 5.937499999999999e+00	 6.499999999999997e+00	 1.010831013846154e+01
0	 5.937499999999999e+00	 6.562499999999999e+00	 1.010510134615385e+01
0	 5.937499999999999e+00	 6.625000000000000e+00	 1.010188983076923e+01
0	 5.937500000000000e+00	 6.687499999999999e+00	 1.009867559230769e+01
0	 5.937499999999999e+00	 6.749999999999999e+00	 1.009545863076923e+01
0	 5.937500000000000e+00	 6.812499999999998e+00	 1.009223894615386e+01
0	 5.937499999999999e+00	 6.875000000000000e+00	 1.008901653846154e+01
0	 5.999999999999998e+00	 6.250000000000000e+00	 1.011961956923077e+01
0	 5.999999999999999e+00	 6.312499999999999e+00	 1.011647453538462e+01
0	 5.999999999999999e+00	 6.374999999999997e+00	 1.011332783999999e+01
0	 5.999999999999999e+00	 6.437499999999999e+00	 1.011017948307692e+01
0	 5.999999999999999e+00	 6.500000000000000e+00	 1.010702946461539e+01
0	 5.999999999999999e+00	 6.562500000000001e+00	 1.010387778461539e+01
0	 5.999999999999998e+00	 6.624999999999998e+00	 1.010072444307693e+01
0	 5.999999999999999e+00	 6.687499999999999e+00	 1.009756944000000e+01
0	 5.999999999999999e+00	 6.749999999999999e+00	 1.009441277538461e+01
0	 5.999999999999999e+00	 6.812499999999998e+00	 1.009125444923076e+01
0	 5.999999999999998e+00	 6.875000000000000e+00	 1.008809446153846e+01
0	 6.062499999999998e+00	 6.250000000000000e+00	 1.011800281538463e+01
0	 6.062499999999999e+00	 6.312499999999999e+00	 1.011491224153847e+01
0	 6.062499999999999e+00	 6.375000000000001e+00	 1.011182106769232e+01
0	 6.062499999999998e+00	 6.437499999999999e+00	 1.010872929384615e+01
0	 6.062499999999998e+00	 6.500000000000000e+00	 1.010563692000000e+01
0	 6.062500000000000e+00	 6.562499999999999e+00	 1.010254394615385e+01
0	 6.062499999999999e+00	 6.624999999999999e+00	 1.009945037230770e+01
0	 6.062499999999999e+00	 6.687499999999999e+00	 1.009635619846155e+01
0	 6.062499999999999e+00	 6.749999999999998e+00	 1.009326142461540e+01
0	 6.062499999999999e+00	 6.812499999999999e+00	 1.009016605076926e+01
0	 6.062499999999998e+00	 6.875000000000000e+00	 1.008707007692308e+01
0	 6.124999999999998e+00	 6.250000000000000e+00	 1.011626781538462e+01
0	 6.125000000000000e+00	 6.312500000000001e+00	 1.011323329538462e+01
0	 6.124999999999998e+00	 6.374999999999999e+00	 1.011019923692309e+01
0	 6.124999999999999e+00	 6.437500000000000e+00	 1.010716564000001e+01
0	 6.124999999999999e+00	 6.499999999999999e+00	 1.010413250461538e+01
0	 6.124999999999998e+00	 6.562499999999999e+00	 1.010109983076924e+01
0	 6.124999999999998e+00	 6.624999999999998e+00	 1.009806761846155e+01
0	 6.124999999999998e+00	 6.687499999999998e+00	 1.009503586769231e+01
0	 6.124999999999999e+00	 6.749999999999998e+00	 1.009200457846153e+01
0	 6.124999999999998e+00	 6.812499999999998e+00	 1.008897375076924e+01
0	 6.124999999999998e+00	 6.875000000000000e+00	 1.008594338461540e+01
0	 6.187499999999997e+00	 6.250000000000000e+00	 1.011441456923077e+01
0	 6.187499999999998e+00	 6.312500000000000e+00	 1.011143769692310e+01
0	 6.187499999999998e+00	 6.375000000000000e+00	 1.010846234769231e+01
0	 6.187499999999997e+00	 6.437499999999999e+00	 1.010548852153846e+01
0	 6.187499999999998e+00	 6.499999999999998e+00	 1.010251621846154e+01
0	 6.187499999999997e+00	 6.562499999999998e+00	 1.009954543846154e+01
0	 6.187499999999997e+00	 6.624999999999998e+00	 1.009657618153847e+01
0	 6.187499999999997e+00	 6.687499999999998e+00	 1.009360844769232e+01
0	 6.187499999999998e+00	 6.749999999999999e+00	 1.009064223692307e+01
0	 6.187499999999997e+00	 6.812499999999997e+00	 1.008767754923078e+01
0	 6.187499999999997e+00	 6.875000000000000e+00	 1.008471438461539e+01
0	 6.250000000000000e+00	 6.250000000000000e+00	 1.011244307692308e+01
0	 6.250000000000001e+00	 6.312500000000000e+00	 1.010952544615385e+01
0	 6.250000000000001e+00	 6.375000000000000e+00	 1.010661040000001e+01
0	 6.250000000000000e+00	 6.437499999999999e+00	 1.010369793846153e+01
0	 6.250000000000001e+00	 6.499999999999999e+00	 1.010078806153846e+01
0	 6.250000000000000e+00	 6.562499999999998e+00	 1.009788076923078e+01
0	 6.250000000000000e+00	 6.624999999999998e+00	 1.009497606153846e+01
0	 6.250000000000000e+00	 6.687499999999998e+00	 1.009207393846155e+01
0	 6.250000000000001e+00	 6.749999999999998e+00	 1.008917440000000e+01
0	 6.250000000000000e+00	 6.812499999999998e+00	 1.008627744615385e+01
0	 6.250000000000000e+00	 6.875000000000000e+00	 1.008338307692308e+01
0	 5.625000000000000e+00	 6.875000000000000e+00	 1.009209230769231e+01
0	 5.625000000000000e+00	 6.937500000000000e+00	 1.008919727692307e+01
0	 5.625000000000001e+00	 7.000000000000000e+00	 1.008627926153845e+01
0	 5.625000000000000e+00	 7.062500000000000e+00	 1.008333826153847e+01
0	 5.625000000000000e+00	 7.125000000000000e+00	 1.008037427692308e+01
0	 5.625000000000000e+00	 7.187499999999998e+00	 1.007738730769230e+01
0	 5.625000000000000e+00	 7.249999999999998e+00	 1.007437735384616e+01
0	 5.624999999999999e+00	 7.312499999999998e+00	 1.007134441538462e+01
0	 5.624999999999999e+00	 7.374999999999998e+00	 1.006828849230769e+01
0	 5.625000000000000e+00	 7.437499999999998e+00	 1.006520958461539e+01
0	 5.625000000000000e+00	 7.500000000000000e+00	 1.006210769230769e+01
0	 5.687500000000001e+00	 6.875000000000001e+00	 1.009168176923077e+01
0	 5.687499999999999e+00	 6.937499999999999e+00	 1.008881288769230e+01
0	 5.687499999999999e+00	 6.999999999999999e+00	 1.008592170461540e+01
0	 5.687499999999999e+00	 7.062500000000000e+00	 1.008300822000000e+01
0	 5.687500000000000e+00	 7.124999999999998e+00	 1.008007243384615e+01
0	 5.687500000000001e+00	 7.187499999999999e+00	 1.007711434615385e+01
0	 5.687500000000001e+00	 7.250000000000000e+00	 1.007413395692308e+01
0	 5.687500000000001e+00	 7.312499999999999e+00	 1.007113126615383e+01
0	 5.687499999999999e+00	 7.374999999999999e+00	 1.006810627384614e+01
0	 5.687499999999998e+00	 7.437499999999996e+00	 1.006505898000001e+01
0	 5.687500000000001e+00	 7.500000000000000e+00	 1.006198938461539e+01
0	 5.750000000000000e+00	 6.875000000000000e+00	 1.009116892307692e+01
0	 5.749999999999998e+00	 6.937499999999999e+00	 1.008832802153847e+01
0	 5.750000000000001e+00	 7.000000000000001e+00	 1.008546550153846e+01
0	 5.749999999999998e+00	 7.062499999999999e+00	 1.008258136307692e+01
0	 5.749999999999999e+00	 7.124999999999998e+00	 1.007967560615383e+01
0	 5.750000000000000e+00	 7.187499999999999e+00	 1.007674823076922e+01
0	 5.750000000000000e+00	 7.249999999999996e+00	 1.007379923692308e+01
0	 5.750000000000000e+00	 7.312499999999998e+00	 1.007082862461538e+01
0	 5.750000000000000e+00	 7.374999999999997e+00	 1.006783639384614e+01
0	 5.750000000000000e+00	 7.437500000000000e+00	 1.006482254461539e+01
0	 5.750000000000000e+00	 7.499999999999999e+00	 1.006178707692304e+01
0	 5.812499999999999e+00	 6.874999999999999e+00	 1.009055376923077e+01
0	 5.812499999999998e+00	 6.937499999999999e+00	 1.008774267846155e+01
0	 5.812500000000000e+00	 7.000000000000000e+00	 1.008491065230771e+01
0	 5.812500000000000e+00	 7.062500000000000e+00	 1.008205769076922e+01
0	 5.812500000000000e+00	 7.124999999999999e+00	 1.007918379384615e+01
0	 5.812500000000000e+00	 7.187499999999999e+00	 1.007628896153846e+01
0	 5.812499999999999e+00	 7.250000000000000e+00	 1.007337319384616e+01
0	 5.812500000000000e+00	 7.312499999999999e+00	 1.007043649076922e+01
0	 5.812499999999999e+00	 7.374999999999997e+00	 1.006747885230768e+01
0	 5.812499999999997e+00	 7.437499999999998e+00	 1.006450027846154e+01
0	 5.812499999999999e+00	 7.500000000000000e+00	 1.006150076923078e+01
0	 5.875000000000000e+00	 6.875000000000001e+00	 1.008983630769229e+01
0	 5.875000000000000e+00	 6.937499999999999e+00	 1.008705685846152e+01
0	 5.875000000000000e+00	 7.000000000000001e+00	 1.008425715692308e+01
0	 5.875000000000000e+00	 7.062500000000000e+00	 1.008143720307693e+01
0	 5.874999999999998e+00	 7.124999999999999e+00	 1.007859699692308e+01
0	 5.874999999999999e+00	 7.187499999999999e+00	 1.007573653846152e+01
0	 5.874999999999998e+00	 7.249999999999997e+00	 1.007285582769231e+01
0	 5.874999999999999e+00	 7.312499999999998e+00	 1.006995486461535e+01
0	 5.875000000000000e+00	 7.374999999999999e+00	 1.006703364923077e+01
0	 5.875000000000000e+00	 7.437499999999998e+00	 1.006409218153845e+01
0	 5.875000000000000e+00	 7.500000000000000e+00	 1.006113046153846e+01
0	 5.937499999999999e+00	 6.875000000000000e+00	 1.008901653846154e+01
0	 5.937499999999999e+00	 6.937500000000000e+00	 1.008627056153845e+01
0	 5.937499999999999e+00	 7.000000000000000e+00	 1.008350501538463e+01
0	 5.937499999999999e+00	 7.062500000000000e+00	 1.008071990000001e+01
0	 5.937499999999999e+00	 7.124999999999997e+00	 1.007791521538462e+01
0	 5.937499999999999e+00	 7.187499999999999e+00	 1.007509096153846e+01
0	 5.937499999999999e+00	 7.249999999999999e+00	 1.007224713846153e+01
0	 5.937500000000000e+00	 7.312499999999998e+00	 1.006938374615383e+01
0	 5.937499999999999e+00	 7.374999999999997e+00	 1.006650078461539e+01
0	 5.937500000000000e+00	 7.437499999999998e+00	 1.006359825384613e+01
0	 5.937499999999999e+00	 7.500000000000000e+00	 1.006067615384615e+01
0	 5.999999999999998e+00	 6.875000000000000e+00	 1.008809446153846e+01
0	 5.999999999999999e+00	 6.937500000000000e+00	 1.008538378769232e+01
0	 5.999999999999999e+00	 6.999999999999998e+00	 1.008265422769230e+01
0	 5.999999999999999e+00	 7.062500000000000e+00	 1.007990578153846e+01
0	 5.999999999999999e+00	 7.125000000000000e+00	 1.007713844923077e+01
0	 5.999999999999999e+00	 7.187500000000000e+00	 1.007435223076923e+01
0	 5.999999999999998e+00	 7.249999999999998e+00	 1.007154712615385e+01
0	 5.999999999999999e+00	 7.312499999999999e+00	 1.006872313538462e+01
0	 5.999999999999999e+00	 7.374999999999999e+00	 1.006588025846153e+01
0	 5.999999999999999e+00	 7.437499999999998e+00	 1.006301849538459e+01
0	 5.999999999999998e+00	 7.499999999999999e+00	 1.006013784615382e+01
0	 6.062499999999998e+00	 6.875000000000000e+00	 1.008707007692308e+01
0	 6.062499999999999e+00	 6.937499999999999e+00	 1.008439653692310e+01
0	 6.062499999999999e+00	 7.000000000000001e+00	 1.008170479384614e+01
0	 6.062499999999998e+00	 7.062499999999999e+00	 1.007899484769230e+01
0	 6.062499999999998e+00	 7.124999999999999e+00	 1.007626669846154e+01
0	 6.062500000000000e+00	 7.187500000000000e+00	 1.007352034615383e+01
0	 6.062499999999999e+00	 7.249999999999999e+00	 1.007075579076923e+01
0	 6.062499999999999e+00	 7.312500000000000e+00	 1.006797303230769e+01
0	 6.062499999999999e+00	 7.374999999999998e+00	 1.006517207076923e+01
0	 6.062499999999999e+00	 7.437499999999999e+00	 1.006235290615382e+01
0	 6.062499999999998e+00	 7.499999999999998e+00	 1.005951553846156e+01
0	 6.124999999999998e+00	 6.875000000000000e+00	 1.008594338461540e+01
0	 6.125000000000000e+00	 6.937500000000001e+00	 1.008330880923078e+01
0	 6.124999999999998e+00	 6.999999999999998e+00	 1.008065671384616e+01
0	 6.124999999999999e+00	 7.062500000000000e+00	 1.007798709846154e+01
0	 6.124999999999999e+00	 7.125000000000000e+00	 1.007529996307693e+01
0	 6.124999999999998e+00	 7.187500000000000e+00	 1.007259530769231e+01
0	 6.124999999999998e+00	 7.250000000000000e+00	 1.006987313230768e+01
0	 6.124999999999998e+00	 7.312499999999999e+00	 1.006713343692305e+01
0	 6.124999999999999e+00	 7.374999999999998e+00	 1.006437622153845e+01
0	 6.124999999999998e+00	 7.437499999999998e+00	 1.006160148615383e+01
0	 6.124999999999998e+00	 7.500000000000000e+00	 1.005880923076920e+01
0	 6.187499999999997e+00	 6.875000000000000e+00	 1.008471438461539e+01
0	 6.187499999999998e+00	 6.937500000000001e+00	 1.008212060461539e+01
0	 6.187499999999998e+00	 7.000000000000001e+00	 1.007950998769231e+01
0	 6.187499999999997e+00	 7.062500000000000e+00	 1.007688253384615e+01
0	 6.187499999999998e+00	 7.124999999999999e+00	 1.007423824307693e+01
0	 6.187499999999997e+00	 7.187499999999998e+00	 1.007157711538461e+01
0	 6.187499999999997e+00	 7.249999999999999e+00	 1.006889915076923e+01
0	 6.187499999999997e+00	 7.312499999999998e+00	 1.006620434923078e+01
0	 6.187499999999998e+00	 7.374999999999998e+00	 1.006349271076921e+01
0	 6.187499999999997e+00	 7.437499999999998e+00	 1.006076423538461e+01
0	 6.187499999999997e+00	 7.500000000000000e+00	 1.005801892307691e+01
0	 6.250000000000000e+00	 6.875000000000000e+00	 1.008338307692308e+01
0	 6.250000000000001e+00	 6.937500000000000e+00	 1.008083192307692e+01
0	 6.250000000000001e+00	 7.000000000000000e+00	 1.007826461538460e+01
0	 6.250000000000000e+00	 7.062500000000000e+00	 1.007568115384617e+01
0	 6.250000000000001e+00	 7.125000000000000e+00	 1.007308153846154e+01
0	 6.250000000000000e+00	 7.187499999999998e+00	 1.007046576923076e+01
0	 6.250000000000000e+00	 7.249999999999998e+00	 1.006783384615385e+01
0	 6.250000000000000e+00	 7.312499999999998e+00	 1.006518576923076e+01
0	 6.250000000000001e+00	 7.374999999999998e+00	 1.006252153846153e+01
0	 6.250000000000000e+00	 7.437499999999998e+00	 1.005984115384615e+01
0	 6.250000000000000e+00	 7.500000000000000e+00	 1.005714461538460e+01
0	 5.625000000000000e+00	 7.500000000000000e+00	 1.006210769230769e+01
0	 5.625000000000000e+00	 7.562500000000000e+00	 1.005977853846153e+01
0	 5.625000000000001e+00	 7.625000000000000e+00	 1.005741107692309e+01
0	 5.625000000000000e+00	 7.687499999999999e+00	 1.005500530769230e+01
0	 5.625000000000000e+00	 7.750000000000000e+00	 1.005256123076926e+01
0	 5.625000000000000e+00	 7.812499999999999e+00	 1.005007884615384e+01
0	 5.625000000000000e+00	 7.874999999999998e+00	 1.004755815384615e+01
0	 5.624999999999999e+00	 7.937499999999997e+00	 1.004499915384615e+01
0	 5.624999999999999e+00	 7.999999999999998e+00	 1.004240184615385e+01
0	 5.625000000000000e+00	 8.062499999999996e+00	 1.003976623076922e+01
0	 5.625000000000000e+00	 8.125000000000000e+00	 1.003709230769230e+01
0	 5.687500000000001e+00	 7.500000000000000e+00	 1.006198938461539e+01
0	 5.687499999999999e+00	 7.562499999999999e+00	 1.005967168461539e+01
0	 5.687499999999999e+00	 7.624999999999998e+00	 1.005731621230771e+01
0	 5.687499999999999e+00	 7.687499999999998e+00	 1.005492296769230e+01
0	 5.687500000000000e+00	 7.750000000000000e+00	 1.005249195076922e+01
0	 5.687500000000001e+00	 7.812500000000000e+00	 1.005002316153845e+01
0	 5.687500000000001e+00	 7.874999999999999e+00	 1.004751660000000e+01
0	 5.687500000000001e+00	 7.937499999999998e+00	 1.004497226615384e+01
0	 5.687499999999999e+00	 8.000000000000000e+00	 1.004239015999999e+01
0	 5.687499999999998e+00	 8.062499999999995e+00	 1.003977028153846e+01
0	 5.687500000000001e+00	 8.125000000000000e+00	 1.003711263076922e+01
0	 5.750000000000000e+00	 7.499999999999999e+00	 1.006178707692304e+01
0	 5.749999999999998e+00	 7.562500000000001e+00	 1.005948283384615e+01
0	 5.750000000000001e+00	 7.625000000000001e+00	 1.005714135384614e+01
0	 5.749999999999998e+00	 7.687500000000001e+00	 1.005476263692306e+01
0	 5.749999999999999e+00	 7.749999999999998e+00	 1.005234668307692e+01
0	 5.750000000000000e+00	 7.812499999999998e+00	 1.004989349230769e+01
0	 5.750000000000000e+00	 7.874999999999996e+00	 1.004740306461538e+01
0	 5.750000000000000e+00	 7.937499999999998e+00	 1.004487540000000e+01
0	 5.750000000000000e+00	 7.999999999999999e+00	 1.004231049846153e+01
0	 5.750000000000000e+00	 8.062499999999998e+00	 1.003970835999997e+01
0	 5.750000000000000e+00	 8.125000000000000e+00	 1.003706898461540e+01
0	 5.812499999999999e+00	 7.500000000000000e+00	 1.006150076923078e+01
0	 5.812499999999998e+00	 7.562500000000001e+00	 1.005921198615384e+01
0	 5.812500000000000e+00	 7.625000000000001e+00	 1.005688650153845e+01
0	 5.812500000000000e+00	 7.687500000000000e+00	 1.005452431538461e+01
0	 5.812500000000000e+00	 7.749999999999999e+00	 1.005212542769230e+01
0	 5.812500000000000e+00	 7.812499999999999e+00	 1.004968983846154e+01
0	 5.812499999999999e+00	 7.874999999999998e+00	 1.004721754769231e+01
0	 5.812500000000000e+00	 7.937499999999998e+00	 1.004470855538461e+01
0	 5.812499999999999e+00	 7.999999999999998e+00	 1.004216286153845e+01
0	 5.812499999999997e+00	 8.062499999999996e+00	 1.003958046615383e+01
0	 5.812499999999999e+00	 8.125000000000000e+00	 1.003696136923074e+01
0	 5.875000000000000e+00	 7.500000000000000e+00	 1.006113046153846e+01
0	 5.875000000000000e+00	 7.562500000000000e+00	 1.005885914153844e+01
0	 5.875000000000000e+00	 7.625000000000000e+00	 1.005655165538461e+01
0	 5.875000000000000e+00	 7.687500000000000e+00	 1.005420800307690e+01
0	 5.874999999999998e+00	 7.749999999999998e+00	 1.005182818461537e+01
0	 5.874999999999999e+00	 7.812500000000000e+00	 1.004941219999999e+01
0	 5.874999999999998e+00	 7.874999999999998e+00	 1.004696004923077e+01
0	 5.874999999999999e+00	 7.937499999999999e+00	 1.004447173230767e+01
0	 5.875000000000000e+00	 7.999999999999997e+00	 1.004194724923075e+01
0	 5.875000000000000e+00	 8.062500000000000e+00	 1.003938660000001e+01
0	 5.875000000000000e+00	 8.125000000000000e+00	 1.003678978461539e+01
0	 5.937499999999999e+00	 7.500000000000000e+00	 1.006067615384615e+01
0	 5.937499999999999e+00	 7.562499999999999e+00	 1.005842429999997e+01
0	 5.937499999999999e+00	 7.624999999999999e+00	 1.005613681538459e+01
0	 5.937499999999999e+00	 7.687500000000000e+00	 1.005381369999998e+01
0	 5.937499999999999e+00	 7.749999999999996e+00	 1.005145495384615e+01
0	 5.937499999999999e+00	 7.812499999999999e+00	 1.004906057692307e+01
0	 5.937499999999999e+00	 7.875000000000000e+00	 1.004663056923075e+01
0	 5.937500000000000e+00	 7.937499999999999e+00	 1.004416493076921e+01
0	 5.937499999999999e+00	 7.999999999999998e+00	 1.004166366153844e+01
0	 5.937500000000000e+00	 8.062500000000000e+00	 1.003912676153848e+01
0	 5.937499999999999e+00	 8.125000000000000e+00	 1.003655423076922e+01
0	 5.999999999999998e+00	 7.499999999999999e+00	 1.006013784615382e+01
0	 5.999999999999999e+00	 7.562500000000000e+00	 1.005790746153843e+01
0	 5.999999999999999e+00	 7.624999999999998e+00	 1.005564198153845e+01
0	 5.999999999999999e+00	 7.687499999999998e+00	 1.005334140615384e+01
0	 5.999999999999999e+00	 7.750000000000001e+00	 1.005100573538459e+01
0	 5.999999999999999e+00	 7.812500000000000e+00	 1.004863496923077e+01
0	 5.999999999999998e+00	 7.874999999999998e+00	 1.004622910769231e+01
0	 5.999999999999999e+00	 7.937499999999999e+00	 1.004378815076920e+01
0	 5.999999999999999e+00	 8.000000000000000e+00	 1.004131209846153e+01
0	 5.999999999999999e+00	 8.062499999999998e+00	 1.003880095076924e+01
0	 5.999999999999998e+00	 8.125000000000000e+00	 1.003625470769230e+01
0	 6.062499999999998e+00	 7.499999999999998e+00	 1.005951553846156e+01
0	 6.062499999999999e+00	 7.562500000000000e+00	 1.005730862615384e+01
0	 6.062499999999999e+00	 7.624999999999999e+00	 1.005506715384615e+01
0	 6.062499999999998e+00	 7.687500000000000e+00	 1.005279112153844e+01
0	 6.062499999999998e+00	 7.749999999999998e+00	 1.005048052923077e+01
0	 6.062500000000000e+00	 7.812500000000000e+00	 1.004813537692307e+01
0	 6.062499999999999e+00	 7.874999999999999e+00	 1.004575566461538e+01
0	 6.062499999999999e+00	 7.937500000000000e+00	 1.004334139230770e+01
0	 6.062499999999999e+00	 7.999999999999998e+00	 1.004089256000000e+01
0	 6.062499999999999e+00	 8.062500000000000e+00	 1.003840916769230e+01
0	 6.062499999999998e+00	 8.125000000000000e+00	 1.003589121538460e+01
0	 6.124999999999998e+00	 7.500000000000000e+00	 1.005880923076920e+01
0	 6.125000000000000e+00	 7.562500000000001e+00	 1.005662779384613e+01
0	 6.124999999999998e+00	 7.625000000000000e+00	 1.005441233230768e+01
0	 6.124999999999999e+00	 7.687500000000001e+00	 1.005216284615384e+01
0	 6.124999999999999e+00	 7.749999999999999e+00	 1.004987933538461e+01
0	 6.124999999999998e+00	 7.812499999999998e+00	 1.004756180000001e+01
0	 6.124999999999998e+00	 7.875000000000000e+00	 1.004521024000000e+01
0	 6.124999999999998e+00	 7.937499999999998e+00	 1.004282465538461e+01
0	 6.124999999999999e+00	 7.999999999999998e+00	 1.004040504615384e+01
0	 6.124999999999998e+00	 8.062500000000000e+00	 1.003795141230769e+01
0	 6.124999999999998e+00	 8.125000000000000e+00	 1.003546375384616e+01
0	 6.187499999999997e+00	 7.500000000000000e+00	 1.005801892307691e+01
0	 6.187499999999998e+00	 7.562500000000001e+00	 1.005586496461537e+01
0	 6.187499999999998e+00	 7.624999999999999e+00	 1.005367751692305e+01
0	 6.187499999999997e+00	 7.687499999999999e+00	 1.005145657999999e+01
0	 6.187499999999998e+00	 7.750000000000000e+00	 1.004920215384614e+01
0	 6.187499999999997e+00	 7.812499999999999e+00	 1.004691423846152e+01
0	 6.187499999999997e+00	 7.874999999999998e+00	 1.004459283384613e+01
0	 6.187499999999997e+00	 7.937499999999998e+00	 1.004223793999999e+01
0	 6.187499999999998e+00	 7.999999999999998e+00	 1.003984955692306e+01
0	 6.187499999999997e+00	 8.062499999999998e+00	 1.003742768461538e+01
0	 6.187499999999997e+00	 8.125000000000000e+00	 1.003497232307690e+01
0	 6.250000000000000e+00	 7.500000000000000e+00	 1.005714461538460e+01
0	 6.250000000000001e+00	 7.562500000000000e+00	 1.005502013846152e+01
0	 6.250000000000001e+00	 7.625000000000000e+00	 1.005286270769232e+01
0	 6.250000000000000e+00	 7.687499999999999e+00	 1.005067232307691e+01
0	 6.250000000000001e+00	 7.750000000000000e+00	 1.004844898461539e+01
0	 6.250000000000000e+00	 7.812499999999999e+00	 1.004619269230768e+01
0	 6.250000000000000e+00	 7.874999999999998e+00	 1.004390344615383e+01
0	 6.250000000000000e+00	 7.937499999999997e+00	 1.004158124615383e+01
0	 6.250000000000001e+00	 7.999999999999998e+00	 1.003922609230769e+01
0	 6.250000000000000e+00	 8.062499999999996e+00	 1.003683798461537e+01
0	 6.250000000000000e+00	 8.125000000000000e+00	 1.003441692307692e+01
0	 5.625000000000000e+00	 8.125000000000000e+00	 1.003709230769230e+01
0	 5.625000000000000e+00	 8.187500000000000e+00	 1.003536175384616e+01
0	 5.625000000000001e+00	 8.250000000000002e+00	 1.003357470769229e+01
0	 5.625000000000000e+00	 8.312500000000000e+00	 1.003173116923077e+01
0	 5.625000000000000e+00	 8.374999999999998e+00	 1.002983113846154e+01
0	 5.625000000000000e+00	 8.437500000000000e+00	 1.002787461538460e+01
0	 5.625000000000000e+00	 8.500000000000000e+00	 1.002586160000000e+01
0	 5.624999999999999e+00	 8.562499999999998e+00	 1.002379209230769e+01
0	 5.624999999999999e+00	 8.625000000000000e+00	 1.002166609230769e+01
0	 5.625000000000000e+00	 8.687499999999998e+00	 1.001948359999999e+01
0	 5.625000000000000e+00	 8.750000000000000e+00	 1.001724461538462e+01
0	 5.687500000000001e+00	 8.125000000000000e+00	 1.003711263076922e+01
0	 5.687499999999999e+00	 8.187500000000002e+00	 1.003538819384615e+01
0	 5.687499999999999e+00	 8.250000000000000e+00	 1.003360763384615e+01
0	 5.687499999999999e+00	 8.312499999999998e+00	 1.003177095076921e+01
0	 5.687500000000000e+00	 8.374999999999998e+00	 1.002987814461538e+01
0	 5.687500000000001e+00	 8.437500000000000e+00	 1.002792921538460e+01
0	 5.687500000000001e+00	 8.500000000000002e+00	 1.002592416307692e+01
0	 5.687500000000001e+00	 8.562500000000000e+00	 1.002386298769231e+01
0	 5.687499999999999e+00	 8.625000000000002e+00	 1.002174568923077e+01
0	 5.687499999999998e+00	 8.687499999999996e+00	 1.001957226769230e+01
0	 5.687500000000001e+00	 8.750000000000002e+00	 1.001734272307694e+01
0	 5.750000000000000e+00	 8.125000000000000e+00	 1.003706898461540e+01
0	 5.749999999999998e+00	 8.187499999999998e+00	 1.003535212923078e+01
0	 5.750000000000001e+00	 8.250000000000000e+00	 1.003357952000001e+01
0	 5.749999999999998e+00	 8.312500000000000e+00	 1.003175115692307e+01
0	 5.749999999999999e+00	 8.374999999999998e+00	 1.002986703999999e+01
0	 5.750000000000000e+00	 8.437499999999998e+00	 1.002792716923076e+01
0	 5.750000000000000e+00	 8.499999999999996e+00	 1.002593154461539e+01
0	 5.750000000000000e+00	 8.562500000000002e+00	 1.002388016615385e+01
0	 5.750000000000000e+00	 8.624999999999998e+00	 1.002177303384616e+01
0	 5.750000000000000e+00	 8.687499999999998e+00	 1.001961014769232e+01
0	 5.750000000000000e+00	 8.750000000000000e+00	 1.001739150769228e+01
0	 5.812499999999999e+00	 8.125000000000000e+00	 1.003696136923074e+01
0	 5.812499999999998e+00	 8.187500000000000e+00	 1.003525355999999e+01
0	 5.812500000000000e+00	 8.250000000000002e+00	 1.003349036615385e+01
0	 5.812500000000000e+00	 8.312499999999998e+00	 1.003167178769232e+01
0	 5.812500000000000e+00	 8.374999999999998e+00	 1.002979782461538e+01
0	 5.812500000000000e+00	 8.437500000000000e+00	 1.002786847692307e+01
0	 5.812499999999999e+00	 8.499999999999998e+00	 1.002588374461539e+01
0	 5.812500000000000e+00	 8.562500000000000e+00	 1.002384362769230e+01
0	 5.812499999999999e+00	 8.625000000000000e+00	 1.002174812615384e+01
0	 5.812499999999997e+00	 8.687499999999996e+00	 1.001959723999997e+01
0	 5.812499999999999e+00	 8.750000000000000e+00	 1.001739096923077e+01
0	 5.875000000000000e+00	 8.125000000000000e+00	 1.003678978461539e+01
0	 5.875000000000000e+00	 8.187499999999998e+00	 1.003509248615383e+01
0	 5.875000000000000e+00	 8.250000000000002e+00	 1.003334017230771e+01
0	 5.875000000000000e+00	 8.312500000000000e+00	 1.003153284307692e+01
0	 5.874999999999998e+00	 8.374999999999998e+00	 1.002967049846153e+01
0	 5.874999999999999e+00	 8.437500000000000e+00	 1.002775313846153e+01
0	 5.874999999999998e+00	 8.499999999999998e+00	 1.002578076307691e+01
0	 5.874999999999999e+00	 8.562499999999998e+00	 1.002375337230771e+01
0	 5.875000000000000e+00	 8.624999999999998e+00	 1.002167096615383e+01
0	 5.875000000000000e+00	 8.687499999999996e+00	 1.001953354461538e+01
0	 5.875000000000000e+00	 8.749999999999998e+00	 1.001734110769230e+01
0	 5.937499999999999e+00	 8.125000000000000e+00	 1.003655423076922e+01
0	 5.937499999999999e+00	 8.187499999999998e+00	 1.003486890769230e+01
0	 5.937499999999999e+00	 8.249999999999998e+00	 1.003312893846153e+01
0	 5.937499999999999e+00	 8.312500000000000e+00	 1.003133432307691e+01
0	 5.937499999999999e+00	 8.374999999999998e+00	 1.002948506153848e+01
0	 5.937499999999999e+00	 8.437499999999998e+00	 1.002758115384614e+01
0	 5.937499999999999e+00	 8.500000000000002e+00	 1.002562259999999e+01
0	 5.937500000000000e+00	 8.562499999999998e+00	 1.002360939999999e+01
0	 5.937499999999999e+00	 8.624999999999998e+00	 1.002154155384618e+01
0	 5.937500000000000e+00	 8.687500000000000e+00	 1.001941906153844e+01
0	 5.937499999999999e+00	 8.750000000000000e+00	 1.001724192307692e+01
0	 5.999999999999998e+00	 8.125000000000000e+00	 1.003625470769230e+01
0	 5.999999999999999e+00	 8.187500000000000e+00	 1.003458282461538e+01
0	 5.999999999999999e+00	 8.249999999999998e+00	 1.003285666461538e+01
0	 5.999999999999999e+00	 8.312500000000000e+00	 1.003107622769230e+01
0	 5.999999999999999e+00	 8.375000000000002e+00	 1.002924151384616e+01
0	 5.999999999999999e+00	 8.437500000000002e+00	 1.002735252307693e+01
0	 5.999999999999998e+00	 8.499999999999998e+00	 1.002540925538460e+01
0	 5.999999999999999e+00	 8.562500000000000e+00	 1.002341171076923e+01
0	 5.999999999999999e+00	 8.624999999999998e+00	 1.002135988923078e+01
0	 5.999999999999999e+00	 8.687499999999998e+00	 1.001925379076921e+01
0	 5.999999999999998e+00	 8.750000000000000e+00	 1.001709341538461e+01
0	 6.062499999999998e+00	 8.125000000000000e+00	 1.003589121538460e+01
0	 6.062499999999999e+00	 8.187500000000000e+00	 1.003423423692308e+01
0	 6.062499999999999e+00	 8.250000000000000e+00	 1.003252335076923e+01
0	 6.062499999999998e+00	 8.312500000000000e+00	 1.003075855692306e+01
0	 6.062499999999998e+00	 8.374999999999998e+00	 1.002893985538461e+01
0	 6.062500000000000e+00	 8.437500000000000e+00	 1.002706724615384e+01
0	 6.062499999999999e+00	 8.500000000000000e+00	 1.002514072923077e+01
0	 6.062499999999999e+00	 8.562499999999998e+00	 1.002316030461538e+01
0	 6.062499999999999e+00	 8.624999999999998e+00	 1.002112597230769e+01
0	 6.062499999999999e+00	 8.687500000000000e+00	 1.001903773230769e+01
0	 6.062499999999998e+00	 8.750000000000000e+00	 1.001689558461540e+01
0	 6.124999999999998e+00	 8.125000000000000e+00	 1.003546375384616e+01
0	 6.125000000000000e+00	 8.187500000000002e+00	 1.003382314461538e+01
0	 6.124999999999998e+00	 8.250000000000000e+00	 1.003212899692308e+01
0	 6.124999999999999e+00	 8.312500000000000e+00	 1.003038131076925e+01
0	 6.124999999999999e+00	 8.375000000000002e+00	 1.002858008615385e+01
0	 6.124999999999998e+00	 8.437500000000000e+00	 1.002672532307692e+01
0	 6.124999999999998e+00	 8.500000000000000e+00	 1.002481702153846e+01
0	 6.124999999999998e+00	 8.562499999999996e+00	 1.002285518153847e+01
0	 6.124999999999999e+00	 8.624999999999998e+00	 1.002083980307690e+01
0	 6.124999999999998e+00	 8.687499999999998e+00	 1.001877088615387e+01
0	 6.124999999999998e+00	 8.750000000000002e+00	 1.001664843076923e+01
0	 6.187499999999997e+00	 8.125000000000000e+00	 1.003497232307690e+01
0	 6.187499999999998e+00	 8.187500000000000e+00	 1.003334954769234e+01
0	 6.187499999999998e+00	 8.250000000000002e+00	 1.003167360307691e+01
0	 6.187499999999997e+00	 8.312499999999998e+00	 1.002994448923077e+01
0	 6.187499999999998e+00	 8.374999999999998e+00	 1.002816220615385e+01
0	 6.187499999999997e+00	 8.437499999999998e+00	 1.002632675384614e+01
0	 6.187499999999997e+00	 8.499999999999998e+00	 1.002443813230769e+01
0	 6.187499999999997e+00	 8.562499999999998e+00	 1.002249634153847e+01
0	 6.187499999999998e+00	 8.624999999999998e+00	 1.002050138153845e+01
0	 6.187499999999997e+00	 8.687499999999998e+00	 1.001845325230769e+01
0	 6.187499999999997e+00	 8.750000000000000e+00	 1.001635195384617e+01
0	 6.250000000000000e+00	 8.125000000000000e+00	 1.003441692307692e+01
0	 6.250000000000001e+00	 8.187500000000000e+00	 1.003281344615385e+01
0	 6.250000000000001e+00	 8.250000000000002e+00	 1.003115716923075e+01
0	 6.250000000000000e+00	 8.312500000000000e+00	 1.002944809230770e+01
0	 6.250000000000001e+00	 8.374999999999998e+00	 1.002768621538460e+01
0	 6.250000000000000e+00	 8.437500000000000e+00	 1.002587153846154e+01
0	 6.250000000000000e+00	 8.500000000000000e+00	 1.002400406153846e+01
0	 6.250000000000000e+00	 8.562499999999998e+00	 1.002208378461537e+01
0	 6.250000000000001e+00	 8.625000000000000e+00	 1.002011070769231e+01
0	 6.250000000000000e+00	 8.687499999999998e+00	 1.001808483076919e+01
0	 6.250000000000000e+00	 8.750000000000000e+00	 1.001600615384615e+01
0	 5.625000000000000e+00	 8.750000000000000e+00	 1.001724461538462e+01
0	 5.625000000000000e+00	 8.812500000000000e+00	 1.001621658461539e+01
0	 5.625000000000001e+00	 8.875000000000002e+00	 1.001510603076924e+01
0	 5.625000000000000e+00	 8.937499999999998e+00	 1.001391295384615e+01
0	 5.625000000000000e+00	 9.000000000000000e+00	 1.001263735384616e+01
0	 5.625000000000000e+00	 9.062500000000000e+00	 1.001127923076923e+01
0	 5.625000000000000e+00	 9.124999999999998e+00	 1.000983858461538e+01
0	 5.624999999999999e+00	 9.187499999999998e+00	 1.000831541538460e+01
0	 5.624999999999999e+00	 9.249999999999998e+00	 1.000670972307690e+01
0	 5.625000000000000e+00	 9.312499999999998e+00	 1.000502150769229e+01
0	 5.625000000000000e+00	 9.375000000000000e+00	 1.000325076923077e+01
0	 5.687500000000001e+00	 8.750000000000002e+00	 1.001734272307694e+01
0	 5.687499999999999e+00	 8.812499999999998e+00	 1.001632114461539e+01
0	 5.687499999999999e+00	 8.875000000000000e+00	 1.001521744000000e+01
0	 5.687499999999999e+00	 8.937500000000000e+00	 1.001403160923078e+01
0	 5.687500000000000e+00	 9.000000000000000e+00	 1.001276365230769e+01
0	 5.687500000000001e+00	 9.062500000000000e+00	 1.001141356923077e+01
0	 5.687500000000001e+00	 9.125000000000000e+00	 1.000998136000001e+01
0	 5.687500000000001e+00	 9.187499999999998e+00	 1.000846702461538e+01
0	 5.687499999999999e+00	 9.250000000000000e+00	 1.000687056307692e+01
0	 5.687499999999998e+00	 9.312499999999996e+00	 1.000519197538462e+01
0	 5.687500000000001e+00	 9.375000000000000e+00	 1.000343126153847e+01
0	 5.750000000000000e+00	 8.750000000000000e+00	 1.001739150769228e+01
0	 5.749999999999998e+00	 8.812500000000000e+00	 1.001637670461537e+01
0	 5.750000000000001e+00	 8.875000000000004e+00	 1.001528017230770e+01
0	 5.749999999999998e+00	 8.937500000000000e+00	 1.001410191076923e+01
0	 5.749999999999999e+00	 8.999999999999998e+00	 1.001284191999999e+01
0	 5.750000000000000e+00	 9.062500000000000e+00	 1.001150020000001e+01
0	 5.750000000000000e+00	 9.124999999999998e+00	 1.001007675076922e+01
0	 5.750000000000000e+00	 9.187500000000002e+00	 1.000857157230768e+01
0	 5.750000000000000e+00	 9.249999999999996e+00	 1.000698466461536e+01
0	 5.750000000000000e+00	 9.312499999999998e+00	 1.000531602769231e+01
0	 5.750000000000000e+00	 9.375000000000000e+00	 1.000356566153847e+01
0	 5.812499999999999e+00	 8.750000000000000e+00	 1.001739096923077e+01
0	 5.812499999999998e+00	 8.812500000000000e+00	 1.001638326461537e+01
0	 5.812500000000000e+00	 8.875000000000002e+00	 1.001529422769231e+01
0	 5.812500000000000e+00	 8.937500000000000e+00	 1.001412385846154e+01
0	 5.812500000000000e+00	 9.000000000000000e+00	 1.001287215692307e+01
0	 5.812500000000000e+00	 9.062499999999998e+00	 1.001153912307692e+01
0	 5.812499999999999e+00	 9.124999999999998e+00	 1.001012475692309e+01
0	 5.812500000000000e+00	 9.187500000000002e+00	 1.000862905846153e+01
0	 5.812499999999999e+00	 9.249999999999998e+00	 1.000705202769230e+01
0	 5.812499999999997e+00	 9.312499999999998e+00	 1.000539366461537e+01
0	 5.812499999999999e+00	 9.375000000000002e+00	 1.000365396923077e+01
0	 5.875000000000000e+00	 8.749999999999998e+00	 1.001734110769230e+01
0	 5.875000000000000e+00	 8.812500000000000e+00	 1.001634082461538e+01
0	 5.875000000000000e+00	 8.875000000000002e+00	 1.001525960615385e+01
0	 5.875000000000000e+00	 8.937500000000000e+00	 1.001409745230769e+01
0	 5.874999999999998e+00	 8.999999999999998e+00	 1.001285436307692e+01
0	 5.874999999999999e+00	 9.062500000000000e+00	 1.001153033846156e+01
0	 5.874999999999998e+00	 9.124999999999998e+00	 1.001012537846154e+01
0	 5.874999999999999e+00	 9.187500000000000e+00	 1.000863948307691e+01
0	 5.875000000000000e+00	 9.249999999999998e+00	 1.000707265230769e+01
0	 5.875000000000000e+00	 9.312500000000000e+00	 1.000542488615386e+01
0	 5.875000000000000e+00	 9.375000000000002e+00	 1.000369618461539e+01
0	 5.937499999999999e+00	 8.750000000000000e+00	 1.001724192307692e+01
0	 5.937499999999999e+00	 8.812500000000000e+00	 1.001624938461540e+01
0	 5.937499999999999e+00	 8.875000000000000e+00	 1.001517630769230e+01
0	 5.937499999999999e+00	 8.937500000000000e+00	 1.001402269230770e+01
0	 5.937499999999999e+00	 8.999999999999998e+00	 1.001278853846155e+01
0	 5.937499999999999e+00	 9.062500000000000e+00	 1.001147384615384e+01
0	 5.937499999999999e+00	 9.125000000000002e+00	 1.001007861538461e+01
0	 5.937500000000000e+00	 9.187499999999998e+00	 1.000860284615383e+01
0	 5.937499999999999e+00	 9.249999999999998e+00	 1.000704653846154e+01
0	 5.937500000000000e+00	 9.312500000000000e+00	 1.000540969230768e+01
0	 5.937499999999999e+00	 9.375000000000002e+00	 1.000369230769229e+01
0	 5.999999999999998e+00	 8.750000000000000e+00	 1.001709341538461e+01
0	 5.999999999999999e+00	 8.812500000000000e+00	 1.001610894461537e+01
0	 5.999999999999999e+00	 8.874999999999996e+00	 1.001504433230769e+01
0	 5.999999999999999e+00	 8.937499999999998e+00	 1.001389957846153e+01
0	 5.999999999999999e+00	 9.000000000000004e+00	 1.001267468307691e+01
0	 5.999999999999999e+00	 9.062500000000002e+00	 1.001136964615384e+01
0	 5.999999999999998e+00	 9.124999999999998e+00	 1.000998446769230e+01
0	 5.999999999999999e+00	 9.187500000000000e+00	 1.000851914769231e+01
0	 5.999999999999999e+00	 9.249999999999998e+00	 1.000697368615385e+01
0	 5.999999999999999e+00	 9.312499999999998e+00	 1.000534808307692e+01
0	 5.999999999999998e+00	 9.375000000000000e+00	 1.000364233846153e+01
0	 6.062499999999998e+00	 8.750000000000000e+00	 1.001689558461540e+01
0	 6.062499999999999e+00	 8.812499999999998e+00	 1.001591950461540e+01
0	 6.062499999999999e+00	 8.875000000000002e+00	 1.001486368000002e+01
0	 6.062499999999998e+00	 8.937500000000002e+00	 1.001372811076924e+01
0	 6.062499999999998e+00	 8.999999999999998e+00	 1.001251279692307e+01
0	 6.062500000000000e+00	 9.062500000000000e+00	 1.001121773846153e+01
0	 6.062499999999999e+00	 9.125000000000000e+00	 1.000984293538461e+01
0	 6.062499999999999e+00	 9.187500000000000e+00	 1.000838838769231e+01
0	 6.062499999999999e+00	 9.249999999999998e+00	 1.000685409538460e+01
0	 6.062499999999999e+00	 9.312500000000000e+00	 1.000524005846155e+01
0	 6.062499999999998e+00	 9.375000000000000e+00	 1.000354627692308e+01
0	 6.124999999999998e+00	 8.750000000000002e+00	 1.001664843076923e+01
0	 6.125000000000000e+00	 8.812500000000002e+00	 1.001568106461539e+01
0	 6.124999999999998e+00	 8.875000000000000e+00	 1.001463435076923e+01
0	 6.124999999999999e+00	 8.937500000000002e+00	 1.001350828923077e+01
0	 6.124999999999999e+00	 8.999999999999998e+00	 1.001230288000000e+01
0	 6.124999999999998e+00	 9.062499999999998e+00	 1.001101812307693e+01
0	 6.124999999999998e+00	 9.125000000000000e+00	 1.000965401846154e+01
0	 6.124999999999998e+00	 9.187499999999998e+00	 1.000821056615384e+01
0	 6.124999999999999e+00	 9.250000000000000e+00	 1.000668776615386e+01
0	 6.124999999999998e+00	 9.312499999999998e+00	 1.000508561846155e+01
0	 6.124999999999998e+00	 9.375000000000000e+00	 1.000340412307694e+01
0	 6.187499999999997e+00	 8.750000000000000e+00	 1.001635195384617e+01
0	 6.187499999999998e+00	 8.812500000000000e+00	 1.001539362461535e+01
0	 6.187499999999998e+00	 8.875000000000002e+00	 1.001435634461537e+01
0	 6.187499999999997e+00	 8.937500000000000e+00	 1.001324011384615e+01
0	 6.187499999999998e+00	 9.000000000000000e+00	 1.001204493230769e+01
0	 6.187499999999997e+00	 9.062500000000000e+00	 1.001077080000000e+01
0	 6.187499999999997e+00	 9.125000000000000e+00	 1.000941771692309e+01
0	 6.187499999999997e+00	 9.187499999999998e+00	 1.000798568307692e+01
0	 6.187499999999998e+00	 9.249999999999998e+00	 1.000647469846154e+01
0	 6.187499999999997e+00	 9.312499999999996e+00	 1.000488476307693e+01
0	 6.187499999999997e+00	 9.375000000000000e+00	 1.000321587692309e+01
0	 6.250000000000000e+00	 8.750000000000000e+00	 1.001600615384615e+01
0	 6.250000000000001e+00	 8.812500000000000e+00	 1.001505718461539e+01
0	 6.250000000000001e+00	 8.875000000000002e+00	 1.001402966153846e+01
0	 6.250000000000000e+00	 8.937499999999998e+00	 1.001292358461538e+01
0	 6.250000000000001e+00	 9.000000000000000e+00	 1.001173895384615e+01
0	 6.250000000000000e+00	 9.062500000000000e+00	 1.001047576923077e+01
0	 6.250000000000000e+00	 9.124999999999998e+00	 1.000913403076923e+01
0	 6.250000000000000e+00	 9.187499999999998e+00	 1.000771373846152e+01
0	 6.250000000000001e+00	 9.249999999999998e+00	 1.000621489230769e+01
0	 6.250000000000000e+00	 9.312499999999998e+00	 1.000463749230769e+01
0	 6.250000000000000e+00	 9.375000000000000e+00	 1.000298153846154e+01
0	 5.625000000000000e+00	 9.375000000000000e+00	 1.000325076923077e+01
0	 5.625000000000000e+00	 9.437499999999998e+00	 1.000323161538462e+01
0	 5.625000000000000e+00	 9.500000000000000e+00	 1.000308923076921e+01
0	 5.624999999999999e+00	 9.562500000000000e+00	 1.000282361538460e+01
0	 5.625000000000001e+00	 9.625000000000000e+00	 1.000243476923075e+01
0	 5.625000000000000e+00	 9.687499999999998e+00	 1.000192269230770e+01
0	 5.625000000000000e+00	 9.749999999999998e+00	 1.000128738461537e+01
0	 5.625000000000000e+00	 9.812500000000000e+00	 1.000052884615387e+01
0	 5.625000000000001e+00	 9.875000000000000e+00	 9.999647076923047e+00
0	 5.625000000000000e+00	 9.937499999999998e+00	 9.998642076923083e+00
0	 5.625000000000000e+00	 1.000000000000000e+01	 9.997513846153851e+00
0	 5.687500000000001e+00	 9.375000000000000e+00	 1.000343126153847e+01
0	 5.687500000000001e+00	 9.437500000000002e+00	 1.000341773076924e+01
0	 5.687499999999998e+00	 9.500000000000000e+00	 1.000328182769232e+01
0	 5.687499999999999e+00	 9.562500000000000e+00	 1.000302355230767e+01
0	 5.687500000000000e+00	 9.625000000000000e+00	 1.000264290461540e+01
0	 5.687500000000000e+00	 9.687500000000000e+00	 1.000213988461539e+01
0	 5.687500000000000e+00	 9.749999999999998e+00	 1.000151449230768e+01
0	 5.687499999999999e+00	 9.812499999999998e+00	 1.000076672769230e+01
0	 5.687499999999999e+00	 9.874999999999998e+00	 9.999896590769218e+00
0	 5.687499999999999e+00	 9.937499999999996e+00	 9.998904081538509e+00
0	 5.687499999999999e+00	 1.000000000000000e+01	 9.997789199999978e+00
0	 5.750000000000000e+00	 9.375000000000000e+00	 1.000356566153847e+01
0	 5.749999999999999e+00	 9.437499999999998e+00	 1.000355663384613e+01
0	 5.750000000000001e+00	 9.500000000000000e+00	 1.000342609230770e+01
0	 5.749999999999999e+00	 9.562500000000000e+00	 1.000317403692309e+01
0	 5.750000000000001e+00	 9.625000000000002e+00	 1.000280046769232e+01
0	 5.750000000000000e+00	 9.687500000000002e+00	 1.000230538461539e+01
0	 5.750000000000000e+00	 9.750000000000000e+00	 1.000168878769230e+01
0	 5.750000000000000e+00	 9.812500000000002e+00	 1.000095067692311e+01
0	 5.749999999999999e+00	 9.874999999999996e+00	 1.000009105230770e+01
0	 5.750000000000001e+00	 9.937500000000000e+00	 9.999109913846155e+00
0	 5.749999999999999e+00	 1.000000000000000e+01	 9.998007261538445e+00
0	 5.812499999999999e+00	 9.375000000000002e+00	 1.000365396923077e+01
0	 5.812499999999998e+00	 9.437500000000000e+00	 1.000364832461537e+01
0	 5.812499999999998e+00	 9.499999999999996e+00	 1.000352202461539e+01
0	 5.812499999999999e+00	 9.562500000000000e+00	 1.000327506923078e+01
0	 5.812499999999999e+00	 9.624999999999998e+00	 1.000290745846154e+01
0	 5.812499999999998e+00	 9.687500000000000e+00	 1.000241919230771e+01
0	 5.812499999999999e+00	 9.749999999999996e+00	 1.000181027076923e+01
0	 5.812499999999998e+00	 9.812499999999996e+00	 1.000108069384612e+01
0	 5.812500000000000e+00	 9.875000000000000e+00	 1.000023046153843e+01
0	 5.812499999999999e+00	 9.937499999999998e+00	 9.999259573846158e+00
0	 5.812499999999999e+00	 1.000000000000000e+01	 9.998168030769245e+00
0	 5.875000000000000e+00	 9.375000000000002e+00	 1.000369618461539e+01
0	 5.874999999999998e+00	 9.437500000000000e+00	 1.000369280307691e+01
0	 5.875000000000001e+00	 9.500000000000004e+00	 1.000356962461538e+01
0	 5.874999999999998e+00	 9.562500000000000e+00	 1.000332664923077e+01
0	 5.875000000000000e+00	 9.624999999999998e+00	 1.000296387692305e+01
0	 5.874999999999999e+00	 9.687499999999998e+00	 1.000248130769232e+01
0	 5.874999999999999e+00	 9.750000000000000e+00	 1.000187894153848e+01
0	 5.874999999999999e+00	 9.812499999999996e+00	 1.000115677846154e+01
0	 5.874999999999999e+00	 9.874999999999998e+00	 1.000031481846152e+01
0	 5.874999999999998e+00	 9.937499999999996e+00	 9.999353061538487e+00
0	 5.874999999999999e+00	 1.000000000000000e+01	 9.998271507692280e+00
0	 5.937499999999999e+00	 9.375000000000002e+00	 1.000369230769229e+01
0	 5.937499999999998e+00	 9.437499999999998e+00	 1.000369006923076e+01
0	 5.937499999999998e+00	 9.499999999999998e+00	 1.000356889230768e+01
0	 5.937499999999999e+00	 9.562500000000000e+00	 1.000332877692307e+01
0	 5.937499999999998e+00	 9.624999999999998e+00	 1.000296972307691e+01
0	 5.937499999999999e+00	 9.687500000000000e+00	 1.000249173076924e+01
0	 5.937499999999998e+00	 9.750000000000000e+00	 1.000189480000002e+01
0	 5.937499999999998e+00	 9.812499999999998e+00	 1.000117893076924e+01
0	 5.937499999999999e+00	 9.874999999999998e+00	 1.000034412307691e+01
0	 5.937499999999999e+00	 9.937499999999998e+00	 9.999390376923067e+00
0	 5.937499999999998e+00	 1.000000000000000e+01	 9.998317692307745e+00
0	 5.999999999999998e+00	 9.375000000000000e+00	 1.000364233846153e+01
0	 5.999999999999997e+00	 9.437499999999998e+00	 1.000364012307693e+01
0	 5.999999999999999e+00	 9.500000000000000e+00	 1.000351982769231e+01
0	 5.999999999999998e+00	 9.562500000000000e+00	 1.000328145230768e+01
0	 5.999999999999998e+00	 9.625000000000000e+00	 1.000292499692306e+01
0	 5.999999999999998e+00	 9.687499999999998e+00	 1.000245046153849e+01
0	 5.999999999999999e+00	 9.749999999999998e+00	 1.000185784615386e+01
0	 5.999999999999998e+00	 9.812499999999996e+00	 1.000114715076921e+01
0	 5.999999999999999e+00	 9.874999999999998e+00	 1.000031837538459e+01
0	 6.000000000000000e+00	 9.937499999999998e+00	 9.999371519999997e+00
0	 5.999999999999998e+00	 9.999999999999998e+00	 9.998306584615451e+00
0	 6.062499999999998e+00	 9.375000000000000e+00	 1.000354627692308e+01
0	 6.062499999999998e+00	 9.437499999999998e+00	 1.000354296461538e+01
0	 6.062499999999997e+00	 9.499999999999998e+00	 1.000342243076923e+01
0	 6.062499999999999e+00	 9.562500000000002e+00	 1.000318467538462e+01
0	 6.062499999999998e+00	 9.624999999999998e+00	 1.000282969846155e+01
0	 6.062499999999999e+00	 9.687500000000000e+00	 1.000235750000000e+01
0	 6.062499999999998e+00	 9.750000000000000e+00	 1.000176807999998e+01
0	 6.062499999999999e+00	 9.812500000000000e+00	 1.000106143846151e+01
0	 6.062499999999999e+00	 9.874999999999998e+00	 1.000023757538458e+01
0	 6.062500000000000e+00	 9.937499999999998e+00	 9.999296490769243e+00
0	 6.062499999999999e+00	 1.000000000000000e+01	 9.998238184615444e+00
0	 6.124999999999998e+00	 9.375000000000000e+00	 1.000340412307694e+01
0	 6.124999999999999e+00	 9.437500000000002e+00	 1.000339859384616e+01
0	 6.124999999999998e+00	 9.500000000000000e+00	 1.000327670153845e+01
0	 6.124999999999999e+00	 9.562500000000002e+00	 1.000303844615386e+01
0	 6.124999999999996e+00	 9.624999999999998e+00	 1.000268382769228e+01
0	 6.124999999999998e+00	 9.687499999999998e+00	 1.000221284615382e+01
0	 6.124999999999998e+00	 9.750000000000000e+00	 1.000162550153842e+01
0	 6.124999999999998e+00	 9.812499999999998e+00	 1.000092179384611e+01
0	 6.124999999999997e+00	 9.874999999999998e+00	 1.000010172307686e+01
0	 6.124999999999997e+00	 9.937499999999998e+00	 9.999165289230742e+00
0	 6.124999999999998e+00	 1.000000000000000e+01	 9.998112492307651e+00
0	 6.187499999999997e+00	 9.375000000000000e+00	 1.000321587692309e+01
0	 6.187499999999997e+00	 9.437500000000000e+00	 1.000320701076927e+01
0	 6.187499999999998e+00	 9.499999999999998e+00	 1.000308264000002e+01
0	 6.187500000000000e+00	 9.562500000000000e+00	 1.000284276461541e+01
0	 6.187499999999998e+00	 9.624999999999998e+00	 1.000248738461539e+01
0	 6.187499999999997e+00	 9.687499999999996e+00	 1.000201649999999e+01
0	 6.187499999999998e+00	 9.749999999999998e+00	 1.000143011076924e+01
0	 6.187499999999998e+00	 9.812499999999998e+00	 1.000072821692303e+01
0	 6.187499999999997e+00	 9.874999999999996e+00	 9.999910818461533e+00
0	 6.187499999999998e+00	 9.937499999999998e+00	 9.998977915384609e+00
0	 6.187499999999998e+00	 1.000000000000000e+01	 9.997929507692277e+00
0	 6.250000000000000e+00	 9.375000000000000e+00	 1.000298153846154e+01
0	 6.250000000000000e+00	 9.437499999999998e+00	 1.000296821538461e+01
0	 6.249999999999999e+00	 9.500000000000000e+00	 1.000284024615384e+01
0	 6.249999999999999e+00	 9.562500000000000e+00	 1.000259763076923e+01
0	 6.250000000000000e+00	 9.625000000000000e+00	 1.000224036923075e+01
0	 6.250000000000000e+00	 9.687499999999998e+00	 1.000176846153845e+01
0	 6.250000000000000e+00	 9.749999999999998e+00	 1.000118190769231e+01
0	 6.250000000000000e+00	 9.812500000000000e+00	 1.000048070769230e+01
0	 6.250000000000001e+00	 9.875000000000000e+00	 9.999664861538429e+00
0	 6.250000000000000e+00	 9.937499999999998e+00	 9.998734369230762e+00
0	 6.250000000000000e+00	 1.000000000000000e+01	 9.997689230769220e+00
0	 6.250000000000000e+00	 0.000000000000000e+00	 1.014934953846154e+01
0	 6.250000000000001e+00	 6.250000000000000e-02	 1.015141618461539e+01
0	 6.250000000000000e+00	 1.250000000000000e-01	 1.015322547692307e+01
0	 6.249999999999999e+00	 1.875000000000000e-01	 1.015477741538461e+01
0	 6.250000000000001e+00	 2.500000000000000e-01	 1.015607200000000e+01
0	 6.250000000000000e+00	 3.125000000000000e-01	 1.015710923076923e+01
0	 6.250000000000001e+00	 3.750000000000000e-01	 1.015788910769230e+01
0	 6.250000000000000e+00	 4.374999999999999e-01	 1.015841163076923e+01
0	 6.250000000000001e+00	 5.000000000000000e-01	 1.015867680000000e+01
0	 6.250000000000000e+00	 5.624999999999999e-01	 1.015868461538462e+01
0	 6.250000000000000e+00	 6.250000000000000e-01	 1.015843507692307e+01
0	 6.312500000000001e+00	 0.000000000000000e+00	 1.014394334153846e+01
0	 6.312499999999998e+00	 6.249999999999999e-02	 1.014590921553846e+01
0	 6.312499999999999e+00	 1.250000000000000e-01	 1.014763065876923e+01
0	 6.312500000000000e+00	 1.875000000000000e-01	 1.014910767123077e+01
0	 6.312499999999999e+00	 2.500000000000000e-01	 1.015034025292307e+01
0	 6.312500000000000e+00	 3.125000000000001e-01	 1.015132840384615e+01
0	 6.312499999999999e+00	 3.749999999999999e-01	 1.015207212399999e+01
0	 6.312499999999999e+00	 4.374999999999999e-01	 1.015257141338461e+01
0	 6.312500000000000e+00	 5.000000000000000e-01	 1.015282627200000e+01
0	 6.312500000000001e+00	 5.625000000000000e-01	 1.015283669984615e+01
0	 6.312500000000000e+00	 6.250000000000000e-01	 1.015260269692308e+01
0	 6.374999999999999e+00	 0.000000000000000e+00	 1.013850173538461e+01
0	 6.375000000000002e+00	 6.250000000000000e-02	 1.014036856676923e+01
0	 6.374999999999999e+00	 1.250000000000000e-01	 1.014200389046154e+01
0	 6.374999999999999e+00	 1.875000000000000e-01	 1.014340770646154e+01
0	 6.375000000000000e+00	 2.500000000000001e-01	 1.014458001476923e+01
0	 6.374999999999999e+00	 3.125000000000000e-01	 1.014552081538461e+01
0	 6.374999999999999e+00	 3.749999999999999e-01	 1.014623010830769e+01
0	 6.374999999999998e+00	 4.375000000000000e-01	 1.014670789353845e+01
0	 6.375000000000000e+00	 4.999999999999999e-01	 1.014695417107692e+01
0	 6.375000000000000e+00	 5.625000000000000e-01	 1.014696894092308e+01
0	 6.374999999999999e+00	 6.249999999999999e-01	 1.014675220307693e+01
0	 6.437499999999999e+00	 0.000000000000000e+00	 1.013302472000000e+01
0	 6.437499999999999e+00	 6.250000000000000e-02	 1.013479423830769e+01
0	 6.437499999999998e+00	 1.250000000000000e-01	 1.013634517199999e+01
0	 6.437500000000000e+00	 1.875000000000001e-01	 1.013767752107693e+01
0	 6.437500000000001e+00	 2.500000000000001e-01	 1.013879128553846e+01
0	 6.437499999999998e+00	 3.125000000000000e-01	 1.013968646538462e+01
0	 6.437500000000000e+00	 3.749999999999999e-01	 1.014036306061538e+01
0	 6.437499999999999e+00	 4.374999999999999e-01	 1.014082107123077e+01
0	 6.437499999999998e+00	 4.999999999999999e-01	 1.014106049723076e+01
0	 6.437500000000000e+00	 5.625000000000001e-01	 1.014108133861538e+01
0	 6.437499999999998e+00	 6.249999999999999e-01	 1.014088359538461e+01
0	 6.499999999999999e+00	 0.000000000000000e+00	 1.012751229538461e+01
0	 6.499999999999997e+00	 6.250000000000000e-02	 1.012918623015385e+01
0	 6.499999999999997e+00	 1.250000000000000e-01	 1.013065450338462e+01
0	 6.499999999999997e+00	 1.875000000000000e-01	 1.013191711507692e+01
0	 6.499999999999996e+00	 2.500000000000000e-01	 1.013297406523077e+01
0	 6.499999999999999e+00	 3.125000000000000e-01	 1.013382535384615e+01
0	 6.499999999999999e+00	 3.750000000000000e-01	 1.013447098092308e+01
0	 6.500000000000000e+00	 4.375000000000000e-01	 1.013491094646154e+01
0	 6.499999999999998e+00	 4.999999999999999e-01	 1.013514525046153e+01
0	 6.499999999999999e+00	 5.625000000000000e-01	 1.013517389292308e+01
0	 6.499999999999999e+00	 6.250000000000001e-01	 1.013499687384615e+01
0	 6.562499999999999e+00	 0.000000000000000e+00	 1.012196446153846e+01
0	 6.562499999999997e+00	 6.249999999999998e-02	 1.012354454230769e+01
0	 6.562499999999999e+00	 1.250000000000000e-01	 1.012493188461538e+01
0	 6.562499999999997e+00	 1.875000000000000e-01	 1.012612648846153e+01
0	 6.562499999999997e+00	 2.499999999999999e-01	 1.012712835384615e+01
0	 6.562499999999999e+00	 3.125000000000000e-01	 1.012793748076923e+01
0	 6.562499999999997e+00	 3.750000000000000e-01	 1.012855386923076e+01
0	 6.562499999999999e+00	 4.375000000000000e-01	 1.012897751923077e+01
0	 6.562499999999997e+00	 4.999999999999999e-01	 1.012920843076923e+01
0	 6.562500000000000e+00	 5.625000000000001e-01	 1.012924660384615e+01
0	 6.562499999999998e+00	 6.250000000000000e-01	 1.012909203846153e+01
0	 6.624999999999998e+00	 0.000000000000000e+00	 1.011638121846154e+01
0	 6.624999999999998e+00	 6.249999999999999e-02	 1.011786917476923e+01
0	 6.624999999999998e+00	 1.250000000000000e-01	 1.011917731569231e+01
0	 6.624999999999999e+00	 1.875000000000001e-01	 1.012030564123076e+01
0	 6.624999999999998e+00	 2.500000000000001e-01	 1.012125415138461e+01
0	 6.624999999999999e+00	 3.125000000000001e-01	 1.012202284615385e+01
0	 6.624999999999998e+00	 3.749999999999999e-01	 1.012261172553846e+01
0	 6.624999999999999e+00	 4.375000000000000e-01	 1.012302078953846e+01
0	 6.624999999999996e+00	 4.999999999999998e-01	 1.012325003815385e+01
0	 6.624999999999998e+00	 5.624999999999999e-01	 1.012329947138462e+01
0	 6.624999999999998e+00	 6.250000000000001e-01	 1.012316908923077e+01
0	 6.687499999999999e+00	 0.000000000000000e+00	 1.011076256615385e+01
0	 6.687499999999998e+00	 6.250000000000000e-02	 1.011216012753846e+01
0	 6.687499999999997e+00	 1.250000000000000e-01	 1.011339079661538e+01
0	 6.687499999999999e+00	 1.875000000000000e-01	 1.011445457338462e+01
0	 6.687499999999999e+00	 2.500000000000000e-01	 1.011535145784615e+01
0	 6.687499999999999e+00	 3.125000000000001e-01	 1.011608145000001e+01
0	 6.687499999999997e+00	 3.750000000000000e-01	 1.011664454984615e+01
0	 6.687499999999998e+00	 4.375000000000000e-01	 1.011704075738461e+01
0	 6.687499999999998e+00	 4.999999999999999e-01	 1.011727007261538e+01
0	 6.687500000000000e+00	 5.625000000000000e-01	 1.011733249553846e+01
0	 6.687499999999996e+00	 6.249999999999999e-01	 1.011722802615384e+01
0	 6.749999999999998e+00	 0.000000000000000e+00	 1.010510850461538e+01
0	 6.749999999999999e+00	 6.249999999999999e-02	 1.010641740061538e+01
0	 6.750000000000000e+00	 1.250000000000000e-01	 1.010757232738461e+01
0	 6.750000000000001e+00	 1.875000000000001e-01	 1.010857328492307e+01
0	 6.749999999999996e+00	 2.500000000000000e-01	 1.010942027323077e+01
0	 6.749999999999996e+00	 3.124999999999999e-01	 1.011011329230769e+01
0	 6.749999999999998e+00	 3.749999999999999e-01	 1.011065234215385e+01
0	 6.749999999999999e+00	 4.375000000000000e-01	 1.011103742276923e+01
0	 6.749999999999999e+00	 4.999999999999999e-01	 1.011126853415384e+01
0	 6.749999999999998e+00	 5.625000000000000e-01	 1.011134567630769e+01
0	 6.749999999999998e+00	 6.250000000000000e-01	 1.011126884923077e+01
0	 6.812499999999998e+00	 0.000000000000000e+00	 1.009941903384615e+01
0	 6.812499999999998e+00	 6.250000000000000e-02	 1.010064099400000e+01
0	 6.812499999999998e+00	 1.250000000000000e-01	 1.010172190800000e+01
0	 6.812499999999998e+00	 1.875000000000000e-01	 1.010266177584615e+01
0	 6.812499999999996e+00	 2.499999999999999e-01	 1.010346059753846e+01
0	 6.812499999999997e+00	 3.125000000000000e-01	 1.010411837307692e+01
0	 6.812499999999997e+00	 3.750000000000000e-01	 1.010463510246154e+01
0	 6.812499999999998e+00	 4.375000000000000e-01	 1.010501078569231e+01
0	 6.812499999999997e+00	 4.999999999999999e-01	 1.010524542276923e+01
0	 6.812499999999998e+00	 5.625000000000000e-01	 1.010533901369231e+01
0	 6.812499999999998e+00	 6.250000000000000e-01	 1.010529155846154e+01
0	 6.875000000000000e+00	 0.000000000000000e+00	 1.009369415384615e+01
0	 6.875000000000001e+00	 6.250000000000000e-02	 1.009483090769231e+01
0	 6.875000000000000e+00	 1.250000000000000e-01	 1.009583953846154e+01
0	 6.875000000000000e+00	 1.875000000000000e-01	 1.009672004615384e+01
0	 6.875000000000000e+00	 2.500000000000000e-01	 1.009747243076923e+01
0	 6.875000000000000e+00	 3.125000000000000e-01	 1.009809669230769e+01
0	 6.875000000000000e+00	 3.750000000000000e-01	 1.009859283076923e+01
0	 6.875000000000000e+00	 4.374999999999999e-01	 1.009896084615385e+01
0	 6.875000000000002e+00	 5.000000000000000e-01	 1.009920073846154e+01
0	 6.875000000000000e+00	 5.624999999999999e-01	 1.009931250769230e+01
0	 6.875000000000000e+00	 6.250000000000000e-01	 1.009929615384616e+01
0	 6.250000000000000e+00	 6.250000000000000e-01	 1.015843507692307e+01
0	 6.250000000000000e+00	 6.875000000000000e-01	 1.016132586153846e+01
0	 6.249999999999999e+00	 7.500000000000002e-01	 1.016406996923076e+01
0	 6.250000000000001e+00	 8.125000000000002e-01	 1.016666740000000e+01
0	 6.250000000000000e+00	 8.750000000000002e-01	 1.016911815384615e+01
0	 6.250000000000000e+00	 9.375000000000002e-01	 1.017142223076922e+01
0	 6.250000000000000e+00	 1.000000000000000e+00	 1.017357963076923e+01
0	 6.250000000000000e+00	 1.062500000000000e+00	 1.017559035384615e+01
0	 6.250000000000000e+00	 1.125000000000001e+00	 1.017745439999999e+01
0	 6.250000000000000e+00	 1.187500000000000e+00	 1.017917176923077e+01
0	 6.250000000000000e+00	 1.250000000000000e+00	 1.018074246153846e+01
0	 6.312500000000000e+00	 6.250000000000000e-01	 1.015260269692308e+01
0	 6.312499999999999e+00	 6.875000000000001e-01	 1.015536245969231e+01
0	 6.312500000000000e+00	 7.500000000000001e-01	 1.015798000400000e+01
0	 6.312499999999999e+00	 8.125000000000002e-01	 1.016045532984615e+01
0	 6.312500000000001e+00	 8.750000000000003e-01	 1.016278843723077e+01
0	 6.312500000000000e+00	 9.375000000000003e-01	 1.016497932615384e+01
0	 6.312500000000000e+00	 1.000000000000000e+00	 1.016702799661538e+01
0	 6.312499999999999e+00	 1.062500000000000e+00	 1.016893444861538e+01
0	 6.312499999999999e+00	 1.125000000000000e+00	 1.017069868215385e+01
0	 6.312499999999998e+00	 1.187500000000000e+00	 1.017232069723076e+01
0	 6.312500000000000e+00	 1.250000000000000e+00	 1.017380049384615e+01
0	 6.374999999999999e+00	 6.249999999999999e-01	 1.014675220307693e+01
0	 6.375000000000001e+00	 6.875000000000001e-01	 1.014939060184615e+01
0	 6.374999999999999e+00	 7.500000000000002e-01	 1.015189124061538e+01
0	 6.374999999999998e+00	 8.125000000000001e-01	 1.015425411938462e+01
0	 6.375000000000000e+00	 8.750000000000003e-01	 1.015647923815384e+01
0	 6.375000000000000e+00	 9.375000000000003e-01	 1.015856659692307e+01
0	 6.375000000000001e+00	 1.000000000000000e+00	 1.016051619569231e+01
0	 6.374999999999999e+00	 1.062500000000000e+00	 1.016232803446154e+01
0	 6.374999999999999e+00	 1.125000000000000e+00	 1.016400211323077e+01
0	 6.375000000000000e+00	 1.187500000000001e+00	 1.016553843200000e+01
0	 6.374999999999999e+00	 1.250000000000000e+00	 1.016693699076923e+01
0	 6.437499999999998e+00	 6.249999999999999e-01	 1.014088359538461e+01
0	 6.437499999999998e+00	 6.875000000000000e-01	 1.014341028800000e+01
0	 6.437500000000000e+00	 7.500000000000000e-01	 1.014580367907692e+01
0	 6.437500000000000e+00	 8.125000000000002e-01	 1.014806376861538e+01
0	 6.437499999999998e+00	 8.750000000000002e-01	 1.015019055661538e+01
0	 6.437499999999998e+00	 9.375000000000002e-01	 1.015218404307692e+01
0	 6.437499999999999e+00	 1.000000000000000e+00	 1.015404422800000e+01
0	 6.437499999999999e+00	 1.062500000000000e+00	 1.015577111138461e+01
0	 6.437499999999999e+00	 1.125000000000000e+00	 1.015736469323076e+01
0	 6.437499999999999e+00	 1.187500000000000e+00	 1.015882497353845e+01
0	 6.437499999999998e+00	 1.250000000000000e+00	 1.016015195230769e+01
0	 6.499999999999999e+00	 6.250000000000001e-01	 1.013499687384615e+01
0	 6.500000000000001e+00	 6.875000000000000e-01	 1.013742151815384e+01
0	 6.499999999999998e+00	 7.500000000000000e-01	 1.013971731938461e+01
0	 6.499999999999999e+00	 8.125000000000001e-01	 1.014188427753846e+01
0	 6.499999999999999e+00	 8.750000000000003e-01	 1.014392239261538e+01
0	 6.499999999999998e+00	 9.375000000000000e-01	 1.014583166461539e+01
0	 6.500000000000000e+00	 1.000000000000000e+00	 1.014761209353846e+01
0	 6.500000000000000e+00	 1.062500000000000e+00	 1.014926367938462e+01
0	 6.500000000000000e+00	 1.125000000000000e+00	 1.015078642215384e+01
0	 6.499999999999999e+00	 1.187500000000000e+00	 1.015218032184615e+01
0	 6.499999999999999e+00	 1.250000000000000e+00	 1.015344537846153e+01
0	 6.562499999999998e+00	 6.250000000000000e-01	 1.012909203846153e+01
0	 6.562499999999998e+00	 6.875000000000000e-01	 1.013142429230769e+01
0	 6.562499999999999e+00	 7.500000000000001e-01	 1.013363216153846e+01
0	 6.562499999999997e+00	 8.125000000000002e-01	 1.013571564615384e+01
0	 6.562499999999999e+00	 8.750000000000003e-01	 1.013767474615384e+01
0	 6.562499999999998e+00	 9.375000000000002e-01	 1.013950946153846e+01
0	 6.562499999999999e+00	 1.000000000000000e+00	 1.014121979230769e+01
0	 6.562499999999999e+00	 1.062500000000000e+00	 1.014280573846153e+01
0	 6.562499999999999e+00	 1.125000000000000e+00	 1.014426729999999e+01
0	 6.562499999999998e+00	 1.187500000000001e+00	 1.014560447692307e+01
0	 6.562499999999998e+00	 1.250000000000000e+00	 1.014681726923077e+01
0	 6.624999999999998e+00	 6.250000000000001e-01	 1.012316908923077e+01
0	 6.624999999999997e+00	 6.874999999999999e-01	 1.012541861046154e+01
0	 6.625000000000000e+00	 7.500000000000003e-01	 1.012754820553846e+01
0	 6.624999999999998e+00	 8.125000000000000e-01	 1.012955787446154e+01
0	 6.624999999999997e+00	 8.750000000000001e-01	 1.013144761723077e+01
0	 6.624999999999999e+00	 9.375000000000003e-01	 1.013321743384615e+01
0	 6.624999999999998e+00	 1.000000000000000e+00	 1.013486732430769e+01
0	 6.624999999999998e+00	 1.062500000000000e+00	 1.013639728861538e+01
0	 6.624999999999998e+00	 1.125000000000000e+00	 1.013780732676923e+01
0	 6.624999999999997e+00	 1.187500000000000e+00	 1.013909743876922e+01
0	 6.624999999999998e+00	 1.250000000000000e+00	 1.014026762461539e+01
0	 6.687499999999996e+00	 6.249999999999999e-01	 1.011722802615384e+01
0	 6.687499999999997e+00	 6.875000000000000e-01	 1.011940447261539e+01
0	 6.687499999999999e+00	 7.500000000000002e-01	 1.012146545138462e+01
0	 6.687499999999998e+00	 8.125000000000000e-01	 1.012341096246153e+01
0	 6.687500000000000e+00	 8.750000000000002e-01	 1.012524100584614e+01
0	 6.687499999999999e+00	 9.375000000000004e-01	 1.012695558153846e+01
0	 6.687499999999998e+00	 1.000000000000000e+00	 1.012855468953845e+01
0	 6.687500000000001e+00	 1.062500000000001e+00	 1.013003832984615e+01
0	 6.687499999999998e+00	 1.125000000000000e+00	 1.013140650246154e+01
0	 6.687499999999998e+00	 1.187500000000000e+00	 1.013265920738462e+01
0	 6.687499999999996e+00	 1.250000000000000e+00	 1.013379644461538e+01
0	 6.749999999999998e+00	 6.250000000000000e-01	 1.011126884923077e+01
0	 6.749999999999998e+00	 6.875000000000000e-01	 1.011338187876922e+01
0	 6.749999999999996e+00	 7.500000000000000e-01	 1.011538389907692e+01
0	 6.749999999999998e+00	 8.125000000000001e-01	 1.011727491015385e+01
0	 6.749999999999999e+00	 8.750000000000003e-01	 1.011905491200000e+01
0	 6.749999999999999e+00	 9.375000000000002e-01	 1.012072390461539e+01
0	 6.750000000000000e+00	 1.000000000000001e+00	 1.012228188799999e+01
0	 6.749999999999999e+00	 1.062500000000000e+00	 1.012372886215384e+01
0	 6.749999999999998e+00	 1.125000000000000e+00	 1.012506482707692e+01
0	 6.749999999999999e+00	 1.187500000000000e+00	 1.012628978276923e+01
0	 6.749999999999998e+00	 1.250000000000000e+00	 1.012740372923077e+01
0	 6.812499999999998e+00	 6.250000000000000e-01	 1.010529155846154e+01
0	 6.812499999999998e+00	 6.875000000000002e-01	 1.010735082892308e+01
0	 6.812499999999998e+00	 7.500000000000001e-01	 1.010930354861538e+01
0	 6.812499999999997e+00	 8.125000000000001e-01	 1.011114971753846e+01
0	 6.812499999999997e+00	 8.750000000000002e-01	 1.011288933569231e+01
0	 6.812499999999997e+00	 9.375000000000002e-01	 1.011452240307693e+01
0	 6.812499999999998e+00	 1.000000000000000e+00	 1.011604891969230e+01
0	 6.812499999999998e+00	 1.062500000000000e+00	 1.011746888553846e+01
0	 6.812499999999998e+00	 1.125000000000000e+00	 1.011878230061538e+01
0	 6.812499999999998e+00	 1.187500000000000e+00	 1.011998916492307e+01
0	 6.812499999999998e+00	 1.250000000000000e+00	 1.012108947846153e+01
0	 6.875000000000000e+00	 6.250000000000000e-01	 1.009929615384616e+01
0	 6.875000000000000e+00	 6.875000000000000e-01	 1.010131132307692e+01
0	 6.875000000000000e+00	 7.500000000000002e-01	 1.010322440000000e+01
0	 6.875000000000001e+00	 8.125000000000002e-01	 1.010503538461539e+01
0	 6.875000000000001e+00	 8.750000000000002e-01	 1.010674427692307e+01
0	 6.875000000000000e+00	 9.375000000000002e-01	 1.010835107692307e+01
0	 6.875000000000000e+00	 1.000000000000000e+00	 1.010985578461538e+01
0	 6.875000000000000e+00	 1.062500000000000e+00	 1.011125840000000e+01
0	 6.875000000000001e+00	 1.125000000000001e+00	 1.011255892307692e+01
0	 6.875000000000000e+00	 1.187500000000000e+00	 1.011375735384615e+01
0	 6.875000000000000e+00	 1.250000000000000e+00	 1.011485369230769e+01
0	 6.250000000000000e+00	 1.250000000000000e+00	 1.018074246153846e+01
0	 6.250000000000000e+00	 1.312500000000000e+00	 1.018328364615384e+01
0	 6.249999999999999e+00	 1.375000000000000e+00	 1.018580000000000e+01
0	 6.250000000000001e+00	 1.437500000000000e+00	 1.018829152307693e+01
0	 6.250000000000000e+00	 1.500000000000000e+00	 1.019075821538462e+01
0	 6.250000000000000e+00	 1.562500000000000e+00	 1.019320007692307e+01
0	 6.250000000000000e+00	 1.625000000000000e+00	 1.019561710769231e+01
0	 6.250000000000000e+00	 1.687500000000000e+00	 1.019800930769231e+01
0	 6.250000000000000e+00	 1.750000000000001e+00	 1.020037667692308e+01
0	 6.250000000000000e+00	 1.812500000000000e+00	 1.020271921538462e+01
0	 6.250000000000000e+00	 1.875000000000000e+00	 1.020503692307692e+01
0	 6.312500000000000e+00	 1.250000000000000e+00	 1.017380049384615e+01
0	 6.312499999999999e+00	 1.312500000000000e+00	 1.017629050907692e+01
0	 6.312500000000000e+00	 1.375000000000000e+00	 1.017875471507692e+01
0	 6.312499999999999e+00	 1.437500000000000e+00	 1.018119311184615e+01
0	 6.312500000000001e+00	 1.500000000000000e+00	 1.018360569938461e+01
0	 6.312500000000000e+00	 1.562500000000000e+00	 1.018599247769231e+01
0	 6.312500000000000e+00	 1.625000000000000e+00	 1.018835344676923e+01
0	 6.312499999999999e+00	 1.687500000000000e+00	 1.019068860661538e+01
0	 6.312499999999999e+00	 1.750000000000000e+00	 1.019299795723077e+01
0	 6.312499999999998e+00	 1.812500000000000e+00	 1.019528149861538e+01
0	 6.312500000000000e+00	 1.875000000000000e+00	 1.019753923076923e+01
0	 6.374999999999999e+00	 1.250000000000000e+00	 1.016693699076923e+01
0	 6.375000000000001e+00	 1.312500000000000e+00	 1.016937789784615e+01
0	 6.374999999999999e+00	 1.375000000000000e+00	 1.017179201723077e+01
0	 6.374999999999998e+00	 1.437500000000000e+00	 1.017417934892308e+01
0	 6.375000000000000e+00	 1.500000000000000e+00	 1.017653989292308e+01
0	 6.375000000000000e+00	 1.562500000000000e+00	 1.017887364923076e+01
0	 6.375000000000001e+00	 1.625000000000000e+00	 1.018118061784615e+01
0	 6.374999999999999e+00	 1.687500000000000e+00	 1.018346079876923e+01
0	 6.374999999999999e+00	 1.750000000000001e+00	 1.018571419200000e+01
0	 6.375000000000000e+00	 1.812500000000001e+00	 1.018794079753846e+01
0	 6.374999999999999e+00	 1.875000000000000e+00	 1.019014061538461e+01
0	 6.437499999999998e+00	 1.250000000000000e+00	 1.016015195230769e+01
0	 6.437499999999998e+00	 1.312500000000000e+00	 1.016254581246154e+01
0	 6.437500000000000e+00	 1.375000000000000e+00	 1.016491190646154e+01
0	 6.437500000000000e+00	 1.437500000000000e+00	 1.016725023430769e+01
0	 6.437499999999998e+00	 1.500000000000000e+00	 1.016956079600000e+01
0	 6.437499999999998e+00	 1.562500000000000e+00	 1.017184359153846e+01
0	 6.437499999999999e+00	 1.625000000000000e+00	 1.017409862092307e+01
0	 6.437499999999999e+00	 1.687500000000000e+00	 1.017632588415384e+01
0	 6.437499999999999e+00	 1.750000000000000e+00	 1.017852538123077e+01
0	 6.437499999999999e+00	 1.812500000000000e+00	 1.018069711215384e+01
0	 6.437499999999998e+00	 1.875000000000000e+00	 1.018284107692308e+01
0	 6.499999999999999e+00	 1.250000000000000e+00	 1.015344537846153e+01
0	 6.500000000000001e+00	 1.312500000000000e+00	 1.015579425292308e+01
0	 6.499999999999998e+00	 1.375000000000000e+00	 1.015811438276923e+01
0	 6.499999999999999e+00	 1.437500000000000e+00	 1.016040576799999e+01
0	 6.499999999999999e+00	 1.500000000000000e+00	 1.016266840861538e+01
0	 6.499999999999998e+00	 1.562500000000000e+00	 1.016490230461538e+01
0	 6.500000000000000e+00	 1.625000000000001e+00	 1.016710745600000e+01
0	 6.500000000000000e+00	 1.687500000000000e+00	 1.016928386276923e+01
0	 6.500000000000000e+00	 1.750000000000001e+00	 1.017143152492307e+01
0	 6.499999999999999e+00	 1.812500000000000e+00	 1.017355044246153e+01
0	 6.499999999999999e+00	 1.875000000000000e+00	 1.017564061538461e+01
0	 6.562499999999998e+00	 1.250000000000000e+00	 1.014681726923077e+01
0	 6.562499999999998e+00	 1.312500000000000e+00	 1.014912321923076e+01
0	 6.562499999999999e+00	 1.375000000000000e+00	 1.015139944615385e+01
0	 6.562499999999997e+00	 1.437500000000000e+00	 1.015364595000000e+01
0	 6.562499999999999e+00	 1.500000000000000e+00	 1.015586273076923e+01
0	 6.562499999999998e+00	 1.562500000000000e+00	 1.015804978846153e+01
0	 6.562499999999999e+00	 1.625000000000000e+00	 1.016020712307692e+01
0	 6.562499999999999e+00	 1.687500000000000e+00	 1.016233473461538e+01
0	 6.562499999999999e+00	 1.750000000000000e+00	 1.016443262307692e+01
0	 6.562499999999998e+00	 1.812500000000000e+00	 1.016650078846153e+01
0	 6.562499999999998e+00	 1.875000000000000e+00	 1.016853923076923e+01
0	 6.624999999999998e+00	 1.250000000000000e+00	 1.014026762461539e+01
0	 6.624999999999997e+00	 1.312500000000000e+00	 1.014253271138461e+01
0	 6.625000000000000e+00	 1.375000000000000e+00	 1.014476709661538e+01
0	 6.624999999999998e+00	 1.437500000000000e+00	 1.014697078030769e+01
0	 6.624999999999997e+00	 1.500000000000000e+00	 1.014914376246154e+01
0	 6.624999999999999e+00	 1.562500000000000e+00	 1.015128604307692e+01
0	 6.624999999999998e+00	 1.625000000000000e+00	 1.015339762215385e+01
0	 6.624999999999998e+00	 1.687500000000000e+00	 1.015547849969231e+01
0	 6.624999999999998e+00	 1.750000000000000e+00	 1.015752867569230e+01
0	 6.624999999999997e+00	 1.812500000000000e+00	 1.015954815015384e+01
0	 6.624999999999998e+00	 1.875000000000000e+00	 1.016153692307692e+01
0	 6.687499999999996e+00	 1.250000000000000e+00	 1.013379644461538e+01
0	 6.687499999999997e+00	 1.312500000000000e+00	 1.013602272938462e+01
0	 6.687499999999999e+00	 1.375000000000000e+00	 1.013821733415384e+01
0	 6.687499999999998e+00	 1.437500000000000e+00	 1.014038025892307e+01
0	 6.687500000000000e+00	 1.500000000000001e+00	 1.014251150369230e+01
0	 6.687499999999999e+00	 1.562500000000000e+00	 1.014461106846154e+01
0	 6.687499999999998e+00	 1.625000000000000e+00	 1.014667895323077e+01
0	 6.687500000000001e+00	 1.687500000000000e+00	 1.014871515800000e+01
0	 6.687499999999998e+00	 1.750000000000000e+00	 1.015071968276923e+01
0	 6.687499999999998e+00	 1.812500000000000e+00	 1.015269252753846e+01
0	 6.687499999999996e+00	 1.875000000000000e+00	 1.015463369230769e+01
0	 6.749999999999998e+00	 1.250000000000000e+00	 1.012740372923077e+01
0	 6.749999999999998e+00	 1.312500000000000e+00	 1.012959327323076e+01
0	 6.749999999999996e+00	 1.375000000000000e+00	 1.013175015876923e+01
0	 6.749999999999998e+00	 1.437500000000000e+00	 1.013387438584615e+01
0	 6.749999999999999e+00	 1.500000000000000e+00	 1.013596595446153e+01
0	 6.749999999999999e+00	 1.562500000000000e+00	 1.013802486461539e+01
0	 6.750000000000000e+00	 1.625000000000001e+00	 1.014005111630769e+01
0	 6.749999999999999e+00	 1.687500000000000e+00	 1.014204470953845e+01
0	 6.749999999999998e+00	 1.750000000000000e+00	 1.014400564430769e+01
0	 6.749999999999999e+00	 1.812500000000001e+00	 1.014593392061538e+01
0	 6.749999999999998e+00	 1.875000000000000e+00	 1.014782953846154e+01
0	 6.812499999999998e+00	 1.250000000000000e+00	 1.012108947846153e+01
0	 6.812499999999998e+00	 1.312500000000000e+00	 1.012324434292307e+01
0	 6.812499999999998e+00	 1.375000000000000e+00	 1.012536557046153e+01
0	 6.812499999999997e+00	 1.437500000000000e+00	 1.012745316107692e+01
0	 6.812499999999997e+00	 1.500000000000000e+00	 1.012950711476923e+01
0	 6.812499999999997e+00	 1.562500000000000e+00	 1.013152743153846e+01
0	 6.812499999999998e+00	 1.625000000000000e+00	 1.013351411138461e+01
0	 6.812499999999998e+00	 1.687500000000000e+00	 1.013546715430769e+01
0	 6.812499999999998e+00	 1.750000000000000e+00	 1.013738656030770e+01
0	 6.812499999999998e+00	 1.812500000000000e+00	 1.013927232938461e+01
0	 6.812499999999998e+00	 1.875000000000000e+00	 1.014112446153846e+01
0	 6.875000000000000e+00	 1.250000000000000e+00	 1.011485369230769e+01
0	 6.875000000000000e+00	 1.312500000000000e+00	 1.011697593846154e+01
0	 6.875000000000000e+00	 1.375000000000000e+00	 1.011906356923077e+01
0	 6.875000000000001e+00	 1.437500000000000e+00	 1.012111658461538e+01
0	 6.875000000000001e+00	 1.500000000000000e+00	 1.012313498461538e+01
0	 6.875000000000000e+00	 1.562500000000000e+00	 1.012511876923076e+01
0	 6.875000000000000e+00	 1.625000000000000e+00	 1.012706793846154e+01
0	 6.875000000000000e+00	 1.687500000000000e+00	 1.012898249230770e+01
0	 6.875000000000001e+00	 1.750000000000001e+00	 1.013086243076923e+01
0	 6.875000000000000e+00	 1.812500000000000e+00	 1.013270775384616e+01
0	 6.875000000000000e+00	 1.875000000000000e+00	 1.013451846153845e+01
0	 6.250000000000000e+00	 1.875000000000000e+00	 1.020503692307692e+01
0	 6.250000000000000e+00	 1.937500000000000e+00	 1.020669449230769e+01
0	 6.249999999999999e+00	 2.000000000000000e+00	 1.020840966153847e+01
0	 6.250000000000001e+00	 2.062500000000000e+00	 1.021018243076923e+01
0	 6.250000000000000e+00	 2.125000000000000e+00	 1.021201280000000e+01
0	 6.250000000000000e+00	 2.187500000000000e+00	 1.021390076923077e+01
0	 6.250000000000000e+00	 2.250000000000000e+00	 1.021584633846153e+01
0	 6.250000000000000e+00	 2.312500000000000e+00	 1.021784950769231e+01
0	 6.250000000000000e+00	 2.375000000000001e+00	 1.021991027692308e+01
0	 6.250000000000000e+00	 2.437500000000001e+00	 1.022202864615384e+01
0	 6.250000000000000e+00	 2.500000000000000e+00	 1.022420461538461e+01
0	 6.312500000000000e+00	 1.875000000000000e+00	 1.019753923076923e+01
0	 6.312499999999999e+00	 1.937500000000000e+00	 1.019914082153846e+01
0	 6.312500000000000e+00	 2.000000000000000e+00	 1.020079758461537e+01
0	 6.312499999999999e+00	 2.062500000000000e+00	 1.020250951999999e+01
0	 6.312500000000001e+00	 2.125000000000001e+00	 1.020427662769230e+01
0	 6.312500000000000e+00	 2.187500000000000e+00	 1.020609890769231e+01
0	 6.312500000000000e+00	 2.250000000000000e+00	 1.020797636000000e+01
0	 6.312499999999999e+00	 2.312500000000000e+00	 1.020990898461538e+01
0	 6.312499999999999e+00	 2.375000000000000e+00	 1.021189678153847e+01
0	 6.312499999999998e+00	 2.437500000000000e+00	 1.021393975076923e+01
0	 6.312500000000000e+00	 2.500000000000000e+00	 1.021603789230769e+01
0	 6.374999999999999e+00	 1.875000000000000e+00	 1.019014061538461e+01
0	 6.375000000000001e+00	 1.937500000000000e+00	 1.019169460615385e+01
0	 6.374999999999999e+00	 2.000000000000000e+00	 1.019330134153846e+01
0	 6.374999999999998e+00	 2.062500000000000e+00	 1.019496082153846e+01
0	 6.375000000000000e+00	 2.125000000000000e+00	 1.019667304615384e+01
0	 6.375000000000000e+00	 2.187500000000001e+00	 1.019843801538461e+01
0	 6.375000000000001e+00	 2.250000000000000e+00	 1.020025572923077e+01
0	 6.374999999999999e+00	 2.312500000000000e+00	 1.020212618769230e+01
0	 6.374999999999999e+00	 2.375000000000000e+00	 1.020404939076923e+01
0	 6.375000000000000e+00	 2.437500000000000e+00	 1.020602533846154e+01
0	 6.374999999999999e+00	 2.500000000000000e+00	 1.020805403076923e+01
0	 6.437499999999998e+00	 1.875000000000000e+00	 1.018284107692308e+01
0	 6.437499999999998e+00	 1.937500000000000e+00	 1.018435584615384e+01
0	 6.437500000000000e+00	 2.000000000000000e+00	 1.018592093230769e+01
0	 6.437500000000000e+00	 2.062500000000000e+00	 1.018753633538461e+01
0	 6.437499999999998e+00	 2.125000000000001e+00	 1.018920205538461e+01
0	 6.437499999999998e+00	 2.187500000000000e+00	 1.019091809230770e+01
0	 6.437499999999999e+00	 2.250000000000000e+00	 1.019268444615384e+01
0	 6.437499999999999e+00	 2.312500000000000e+00	 1.019450111692307e+01
0	 6.437499999999999e+00	 2.375000000000000e+00	 1.019636810461538e+01
0	 6.437499999999999e+00	 2.437500000000000e+00	 1.019828540923076e+01
0	 6.437499999999998e+00	 2.500000000000000e+00	 1.020025303076923e+01
0	 6.499999999999999e+00	 1.875000000000000e+00	 1.017564061538461e+01
0	 6.500000000000001e+00	 1.937500000000000e+00	 1.017712454153846e+01
0	 6.499999999999998e+00	 2.000000000000000e+00	 1.017865635692307e+01
0	 6.499999999999999e+00	 2.062500000000000e+00	 1.018023606153846e+01
0	 6.499999999999999e+00	 2.125000000000000e+00	 1.018186365538461e+01
0	 6.499999999999998e+00	 2.187500000000000e+00	 1.018353913846154e+01
0	 6.500000000000000e+00	 2.250000000000000e+00	 1.018526251076923e+01
0	 6.500000000000000e+00	 2.312500000000000e+00	 1.018703377230769e+01
0	 6.500000000000000e+00	 2.375000000000000e+00	 1.018885292307692e+01
0	 6.499999999999999e+00	 2.437500000000000e+00	 1.019071996307692e+01
0	 6.499999999999999e+00	 2.500000000000000e+00	 1.019263489230769e+01
0	 6.562499999999998e+00	 1.875000000000000e+00	 1.016853923076923e+01
0	 6.562499999999998e+00	 1.937500000000000e+00	 1.017000069230769e+01
0	 6.562499999999999e+00	 2.000000000000000e+00	 1.017150761538461e+01
0	 6.562499999999997e+00	 2.062500000000000e+00	 1.017306000000000e+01
0	 6.562499999999999e+00	 2.125000000000000e+00	 1.017465784615385e+01
0	 6.562499999999998e+00	 2.187500000000000e+00	 1.017630115384616e+01
0	 6.562499999999999e+00	 2.250000000000000e+00	 1.017798992307692e+01
0	 6.562499999999999e+00	 2.312500000000001e+00	 1.017972415384615e+01
0	 6.562499999999999e+00	 2.375000000000000e+00	 1.018150384615384e+01
0	 6.562499999999998e+00	 2.437500000000000e+00	 1.018332900000000e+01
0	 6.562499999999998e+00	 2.500000000000000e+00	 1.018519961538462e+01
0	 6.624999999999998e+00	 1.875000000000000e+00	 1.016153692307692e+01
0	 6.624999999999997e+00	 1.937500000000000e+00	 1.016298429846153e+01
0	 6.625000000000000e+00	 2.000000000000000e+00	 1.016447470769231e+01
0	 6.624999999999998e+00	 2.062500000000000e+00	 1.016600815076923e+01
0	 6.624999999999997e+00	 2.125000000000000e+00	 1.016758462769230e+01
0	 6.624999999999999e+00	 2.187500000000000e+00	 1.016920413846154e+01
0	 6.624999999999998e+00	 2.250000000000000e+00	 1.017086668307692e+01
0	 6.624999999999998e+00	 2.312500000000000e+00	 1.017257226153846e+01
0	 6.624999999999998e+00	 2.375000000000001e+00	 1.017432087384615e+01
0	 6.624999999999997e+00	 2.437500000000000e+00	 1.017611252000000e+01
0	 6.624999999999998e+00	 2.500000000000000e+00	 1.017794720000001e+01
0	 6.687499999999996e+00	 1.875000000000000e+00	 1.015463369230769e+01
0	 6.687499999999997e+00	 1.937500000000000e+00	 1.015607535999999e+01
0	 6.687499999999999e+00	 2.000000000000001e+00	 1.015755763384615e+01
0	 6.687499999999998e+00	 2.062500000000000e+00	 1.015908051384615e+01
0	 6.687500000000000e+00	 2.125000000000001e+00	 1.016064399999999e+01
0	 6.687499999999999e+00	 2.187500000000000e+00	 1.016224809230769e+01
0	 6.687499999999998e+00	 2.250000000000000e+00	 1.016389279076923e+01
0	 6.687500000000001e+00	 2.312500000000001e+00	 1.016557809538461e+01
0	 6.687499999999998e+00	 2.375000000000000e+00	 1.016730400615385e+01
0	 6.687499999999998e+00	 2.437500000000000e+00	 1.016907052307692e+01
0	 6.687499999999996e+00	 2.500000000000000e+00	 1.017087764615385e+01
0	 6.749999999999998e+00	 1.875000000000000e+00	 1.014782953846154e+01
0	 6.749999999999998e+00	 1.937500000000000e+00	 1.014927387692307e+01
0	 6.749999999999996e+00	 2.000000000000000e+00	 1.015075639384616e+01
0	 6.749999999999998e+00	 2.062500000000000e+00	 1.015227708923077e+01
0	 6.749999999999999e+00	 2.125000000000000e+00	 1.015383596307692e+01
0	 6.749999999999999e+00	 2.187500000000000e+00	 1.015543301538461e+01
0	 6.750000000000000e+00	 2.250000000000000e+00	 1.015706824615384e+01
0	 6.749999999999999e+00	 2.312500000000000e+00	 1.015874165538461e+01
0	 6.749999999999998e+00	 2.375000000000000e+00	 1.016045324307693e+01
0	 6.749999999999999e+00	 2.437500000000001e+00	 1.016220300923077e+01
0	 6.749999999999998e+00	 2.500000000000000e+00	 1.016399095384615e+01
0	 6.812499999999998e+00	 1.875000000000000e+00	 1.014112446153846e+01
0	 6.812499999999998e+00	 1.937500000000000e+00	 1.014257984923076e+01
0	 6.812499999999998e+00	 2.000000000000000e+00	 1.014407098769230e+01
0	 6.812499999999997e+00	 2.062500000000000e+00	 1.014559787692307e+01
0	 6.812499999999997e+00	 2.125000000000000e+00	 1.014716051692308e+01
0	 6.812499999999997e+00	 2.187500000000000e+00	 1.014875890769231e+01
0	 6.812499999999998e+00	 2.250000000000000e+00	 1.015039304923076e+01
0	 6.812499999999998e+00	 2.312500000000000e+00	 1.015206294153846e+01
0	 6.812499999999998e+00	 2.375000000000000e+00	 1.015376858461539e+01
0	 6.812499999999998e+00	 2.437500000000000e+00	 1.015550997846154e+01
0	 6.812499999999998e+00	 2.500000000000000e+00	 1.015728712307692e+01
0	 6.875000000000000e+00	 1.875000000000000e+00	 1.013451846153845e+01
0	 6.875000000000000e+00	 1.937500000000000e+00	 1.013599327692308e+01
0	 6.875000000000000e+00	 2.000000000000000e+00	 1.013750141538462e+01
0	 6.875000000000001e+00	 2.062500000000000e+00	 1.013904287692308e+01
0	 6.875000000000001e+00	 2.125000000000000e+00	 1.014061766153845e+01
0	 6.875000000000000e+00	 2.187500000000000e+00	 1.014222576923077e+01
0	 6.875000000000000e+00	 2.250000000000000e+00	 1.014386719999999e+01
0	 6.875000000000000e+00	 2.312500000000000e+00	 1.014554195384615e+01
0	 6.875000000000001e+00	 2.375000000000001e+00	 1.014725003076924e+01
0	 6.875000000000000e+00	 2.437500000000001e+00	 1.014899143076923e+01
0	 6.875000000000000e+00	 2.500000000000000e+00	 1.015076615384616e+01
0	 6.250000000000000e+00	 2.500000000000000e+00	 1.022420461538461e+01
0	 6.250000000000001e+00	 2.562500000000000e+00	 1.022408246153847e+01
0	 6.250000000000001e+00	 2.625000000000000e+00	 1.022409230769231e+01
0	 6.250000000000000e+00	 2.687499999999999e+00	 1.022423415384616e+01
0	 6.250000000000001e+00	 2.750000000000000e+00	 1.022450799999999e+01
0	 6.250000000000000e+00	 2.812499999999999e+00	 1.022491384615385e+01
0	 6.250000000000000e+00	 2.874999999999999e+00	 1.022545169230769e+01
0	 6.250000000000000e+00	 2.937499999999998e+00	 1.022612153846154e+01
0	 6.250000000000001e+00	 2.999999999999998e+00	 1.022692338461538e+01
0	 6.250000000000000e+00	 3.062499999999998e+00	 1.022785723076924e+01
0	 6.250000000000000e+00	 3.125000000000000e+00	 1.022892307692307e+01
0	 6.312500000000000e+00	 2.500000000000000e+00	 1.021603789230769e+01
0	 6.312499999999999e+00	 2.562500000000000e+00	 1.021601558153846e+01
0	 6.312499999999999e+00	 2.624999999999999e+00	 1.021611916923077e+01
0	 6.312499999999999e+00	 2.687499999999999e+00	 1.021634865538462e+01
0	 6.312499999999999e+00	 2.750000000000000e+00	 1.021670404000000e+01
0	 6.312500000000002e+00	 2.812499999999999e+00	 1.021718532307692e+01
0	 6.312500000000001e+00	 2.875000000000000e+00	 1.021779250461538e+01
0	 6.312500000000000e+00	 2.937499999999999e+00	 1.021852558461539e+01
0	 6.312500000000001e+00	 2.999999999999999e+00	 1.021938456307693e+01
0	 6.312499999999998e+00	 3.062499999999997e+00	 1.022036943999999e+01
0	 6.312500000000000e+00	 3.125000000000000e+00	 1.022148021538461e+01
0	 6.374999999999999e+00	 2.500000000000000e+00	 1.020805403076923e+01
0	 6.374999999999999e+00	 2.562500000000000e+00	 1.020812559692309e+01
0	 6.375000000000000e+00	 2.625000000000000e+00	 1.020831696000000e+01
0	 6.374999999999998e+00	 2.687500000000000e+00	 1.020862812000000e+01
0	 6.374999999999998e+00	 2.749999999999999e+00	 1.020905907692308e+01
0	 6.375000000000000e+00	 2.812499999999999e+00	 1.020960983076924e+01
0	 6.374999999999997e+00	 2.874999999999999e+00	 1.021028038153846e+01
0	 6.375000000000000e+00	 2.937499999999999e+00	 1.021107072923077e+01
0	 6.374999999999999e+00	 2.999999999999998e+00	 1.021198087384615e+01
0	 6.375000000000001e+00	 3.062499999999999e+00	 1.021301081538461e+01
0	 6.374999999999999e+00	 3.125000000000000e+00	 1.021416055384615e+01
0	 6.437499999999998e+00	 2.500000000000000e+00	 1.020025303076923e+01
0	 6.437499999999999e+00	 2.562500000000000e+00	 1.020041250769231e+01
0	 6.437500000000000e+00	 2.625000000000000e+00	 1.020068568000001e+01
0	 6.437500000000000e+00	 2.687499999999999e+00	 1.020107254769230e+01
0	 6.437499999999999e+00	 2.749999999999999e+00	 1.020157311076923e+01
0	 6.437499999999998e+00	 2.812499999999999e+00	 1.020218736923077e+01
0	 6.437499999999999e+00	 2.874999999999999e+00	 1.020291532307692e+01
0	 6.437499999999999e+00	 2.937499999999999e+00	 1.020375697230770e+01
0	 6.437499999999999e+00	 2.999999999999999e+00	 1.020471231692308e+01
0	 6.437499999999998e+00	 3.062499999999998e+00	 1.020578135692308e+01
0	 6.437499999999998e+00	 3.125000000000000e+00	 1.020696409230769e+01
0	 6.499999999999999e+00	 2.500000000000000e+00	 1.019263489230769e+01
0	 6.499999999999997e+00	 2.562500000000000e+00	 1.019287631384616e+01
0	 6.500000000000000e+00	 2.625000000000000e+00	 1.019322532923078e+01
0	 6.499999999999998e+00	 2.687500000000000e+00	 1.019368193846154e+01
0	 6.499999999999998e+00	 2.750000000000000e+00	 1.019424614153846e+01
0	 6.500000000000000e+00	 2.812499999999999e+00	 1.019491793846154e+01
0	 6.499999999999997e+00	 2.874999999999999e+00	 1.019569732923076e+01
0	 6.499999999999999e+00	 2.937499999999998e+00	 1.019658431384616e+01
0	 6.499999999999999e+00	 2.999999999999999e+00	 1.019757889230769e+01
0	 6.499999999999999e+00	 3.062499999999998e+00	 1.019868106461538e+01
0	 6.499999999999999e+00	 3.125000000000000e+00	 1.019989083076923e+01
0	 6.562499999999998e+00	 2.500000000000000e+00	 1.018519961538462e+01
0	 6.562499999999999e+00	 2.562499999999999e+00	 1.018551701538462e+01
0	 6.562499999999999e+00	 2.625000000000000e+00	 1.018593590769230e+01
0	 6.562499999999999e+00	 2.687500000000000e+00	 1.018645629230769e+01
0	 6.562499999999996e+00	 2.749999999999999e+00	 1.018707816923076e+01
0	 6.562499999999999e+00	 2.812499999999999e+00	 1.018780153846154e+01
0	 6.562500000000000e+00	 2.874999999999999e+00	 1.018862640000000e+01
0	 6.562499999999999e+00	 2.937499999999998e+00	 1.018955275384615e+01
0	 6.562499999999999e+00	 2.999999999999998e+00	 1.019058059999999e+01
0	 6.562500000000000e+00	 3.062499999999998e+00	 1.019170993846154e+01
0	 6.562499999999998e+00	 3.125000000000000e+00	 1.019294076923076e+01
0	 6.624999999999998e+00	 2.500000000000000e+00	 1.017794720000001e+01
0	 6.624999999999998e+00	 2.562500000000000e+00	 1.017833461230769e+01
0	 6.624999999999997e+00	 2.625000000000000e+00	 1.017881741538461e+01
0	 6.624999999999999e+00	 2.687500000000000e+00	 1.017939560923077e+01
0	 6.625000000000000e+00	 2.750000000000000e+00	 1.018006919384616e+01
0	 6.625000000000001e+00	 2.812500000000000e+00	 1.018083816923076e+01
0	 6.624999999999998e+00	 2.874999999999999e+00	 1.018170253538461e+01
0	 6.624999999999999e+00	 2.937499999999999e+00	 1.018266229230769e+01
0	 6.624999999999999e+00	 2.999999999999999e+00	 1.018371744000000e+01
0	 6.624999999999999e+00	 3.062499999999998e+00	 1.018486797846155e+01
0	 6.624999999999998e+00	 3.125000000000000e+00	 1.018611390769231e+01
0	 6.687499999999996e+00	 2.500000000000000e+00	 1.017087764615385e+01
0	 6.687499999999997e+00	 2.562500000000000e+00	 1.017132910461538e+01
0	 6.687499999999998e+00	 2.625000000000000e+00	 1.017186985230770e+01
0	 6.687499999999998e+00	 2.687500000000000e+00	 1.017249988923077e+01
0	 6.687499999999999e+00	 2.749999999999999e+00	 1.017321921538461e+01
0	 6.687499999999999e+00	 2.812499999999999e+00	 1.017402783076923e+01
0	 6.687499999999999e+00	 2.874999999999999e+00	 1.017492573538461e+01
0	 6.687499999999999e+00	 2.937499999999998e+00	 1.017591292923077e+01
0	 6.687499999999999e+00	 2.999999999999998e+00	 1.017698941230770e+01
0	 6.687499999999999e+00	 3.062499999999998e+00	 1.017815518461538e+01
0	 6.687499999999996e+00	 3.125000000000000e+00	 1.017941024615384e+01
0	 6.749999999999998e+00	 2.500000000000000e+00	 1.016399095384615e+01
0	 6.749999999999999e+00	 2.562500000000001e+00	 1.016450049230768e+01
0	 6.749999999999998e+00	 2.625000000000000e+00	 1.016509321846154e+01
0	 6.750000000000000e+00	 2.687500000000000e+00	 1.016576913230769e+01
0	 6.749999999999999e+00	 2.749999999999999e+00	 1.016652823384616e+01
0	 6.749999999999998e+00	 2.812499999999999e+00	 1.016737052307693e+01
0	 6.749999999999998e+00	 2.874999999999999e+00	 1.016829600000001e+01
0	 6.749999999999998e+00	 2.937499999999998e+00	 1.016930466461538e+01
0	 6.750000000000000e+00	 2.999999999999998e+00	 1.017039651692308e+01
0	 6.749999999999999e+00	 3.062499999999998e+00	 1.017157155692308e+01
0	 6.749999999999998e+00	 3.125000000000000e+00	 1.017282978461537e+01
0	 6.812499999999998e+00	 2.500000000000000e+00	 1.015728712307692e+01
0	 6.812499999999998e+00	 2.562500000000000e+00	 1.015784877538462e+01
0	 6.812499999999999e+00	 2.625000000000000e+00	 1.015848751384615e+01
0	 6.812499999999998e+00	 2.687500000000000e+00	 1.015920333846154e+01
0	 6.812499999999998e+00	 2.749999999999999e+00	 1.015999624923077e+01
0	 6.812499999999998e+00	 2.812499999999999e+00	 1.016086624615385e+01
0	 6.812499999999997e+00	 2.874999999999999e+00	 1.016181332923077e+01
0	 6.812499999999998e+00	 2.937499999999998e+00	 1.016283749846153e+01
0	 6.812499999999997e+00	 2.999999999999998e+00	 1.016393875384616e+01
0	 6.812499999999997e+00	 3.062499999999998e+00	 1.016511709538460e+01
0	 6.812499999999998e+00	 3.125000000000000e+00	 1.016637252307692e+01
0	 6.875000000000000e+00	 2.500000000000000e+00	 1.015076615384616e+01
0	 6.875000000000000e+00	 2.562500000000000e+00	 1.015137395384617e+01
0	 6.875000000000000e+00	 2.625000000000000e+00	 1.015205273846153e+01
0	 6.875000000000000e+00	 2.687499999999999e+00	 1.015280250769230e+01
0	 6.875000000000000e+00	 2.750000000000000e+00	 1.015362326153846e+01
0	 6.875000000000000e+00	 2.812499999999999e+00	 1.015451500000000e+01
0	 6.875000000000000e+00	 2.874999999999999e+00	 1.015547772307692e+01
0	 6.875000000000000e+00	 2.937499999999998e+00	 1.015651143076922e+01
0	 6.875000000000000e+00	 2.999999999999998e+00	 1.015761612307692e+01
0	 6.875000000000000e+00	 3.062499999999998e+00	 1.015879180000000e+01
0	 6.875000000000000e+00	 3.125000000000000e+00	 1.016003846153846e+01
0	 6.250000000000000e+00	 3.125000000000000e+00	 1.022892307692307e+01
0	 6.250000000000001e+00	 3.187500000000000e+00	 1.022751886153845e+01
0	 6.250000000000001e+00	 3.250000000000000e+00	 1.022624406153846e+01
0	 6.250000000000000e+00	 3.312499999999999e+00	 1.022509867692308e+01
0	 6.250000000000001e+00	 3.374999999999999e+00	 1.022408270769230e+01
0	 6.250000000000000e+00	 3.437499999999999e+00	 1.022319615384614e+01
0	 6.250000000000000e+00	 3.499999999999999e+00	 1.022243901538461e+01
0	 6.250000000000000e+00	 3.562499999999998e+00	 1.022181129230769e+01
0	 6.250000000000001e+00	 3.624999999999999e+00	 1.022131298461539e+01
0	 6.250000000000000e+00	 3.687499999999998e+00	 1.022094409230768e+01
0	 6.250000000000000e+00	 3.750000000000000e+00	 1.022070461538462e+01
0	 6.312500000000000e+00	 3.125000000000000e+00	 1.022148021538461e+01
0	 6.312499999999999e+00	 3.187500000000000e+00	 1.022017645384615e+01
0	 6.312499999999999e+00	 3.250000000000000e+00	 1.021899853538461e+01
0	 6.312499999999999e+00	 3.312499999999999e+00	 1.021794646000000e+01
0	 6.312499999999999e+00	 3.374999999999999e+00	 1.021702022769230e+01
0	 6.312500000000002e+00	 3.437499999999999e+00	 1.021621983846154e+01
0	 6.312500000000001e+00	 3.500000000000000e+00	 1.021554529230769e+01
0	 6.312500000000000e+00	 3.562499999999999e+00	 1.021499658923078e+01
0	 6.312500000000001e+00	 3.625000000000000e+00	 1.021457372923078e+01
0	 6.312499999999998e+00	 3.687499999999997e+00	 1.021427671230769e+01
0	 6.312500000000000e+00	 3.750000000000000e+00	 1.021410553846155e+01
0	 6.374999999999999e+00	 3.125000000000000e+00	 1.021416055384615e+01
0	 6.374999999999999e+00	 3.187500000000000e+00	 1.021295526461538e+01
0	 6.375000000000000e+00	 3.250000000000000e+00	 1.021187224615384e+01
0	 6.374999999999998e+00	 3.312500000000000e+00	 1.021091149846155e+01
0	 6.374999999999998e+00	 3.374999999999999e+00	 1.021007302153846e+01
0	 6.375000000000000e+00	 3.437499999999999e+00	 1.020935681538461e+01
0	 6.374999999999997e+00	 3.499999999999997e+00	 1.020876288000000e+01
0	 6.375000000000000e+00	 3.562499999999999e+00	 1.020829121538461e+01
0	 6.374999999999999e+00	 3.624999999999998e+00	 1.020794182153845e+01
0	 6.375000000000001e+00	 3.687499999999999e+00	 1.020771469846154e+01
0	 6.374999999999999e+00	 3.750000000000000e+00	 1.020760984615384e+01
0	 6.437499999999998e+00	 3.125000000000000e+00	 1.020696409230769e+01
0	 6.437499999999999e+00	 3.187500000000000e+00	 1.020585529384615e+01
0	 6.437500000000000e+00	 3.250000000000000e+00	 1.020486519384616e+01
0	 6.437500000000000e+00	 3.312500000000000e+00	 1.020399379230769e+01
0	 6.437499999999999e+00	 3.374999999999999e+00	 1.020324108923077e+01
0	 6.437499999999998e+00	 3.437499999999999e+00	 1.020260708461538e+01
0	 6.437499999999999e+00	 3.499999999999998e+00	 1.020209177846154e+01
0	 6.437499999999999e+00	 3.562499999999998e+00	 1.020169517076923e+01
0	 6.437499999999999e+00	 3.624999999999998e+00	 1.020141726153847e+01
0	 6.437499999999998e+00	 3.687499999999998e+00	 1.020125805076924e+01
0	 6.437499999999998e+00	 3.750000000000000e+00	 1.020121753846154e+01
0	 6.499999999999999e+00	 3.125000000000000e+00	 1.019989083076923e+01
0	 6.499999999999997e+00	 3.187500000000000e+00	 1.019887654153846e+01
0	 6.500000000000000e+00	 3.250000000000000e+00	 1.019797737846153e+01
0	 6.499999999999998e+00	 3.312500000000000e+00	 1.019719334153845e+01
0	 6.499999999999998e+00	 3.374999999999999e+00	 1.019652443076923e+01
0	 6.500000000000000e+00	 3.437499999999999e+00	 1.019597064615385e+01
0	 6.499999999999997e+00	 3.499999999999998e+00	 1.019553198769231e+01
0	 6.499999999999999e+00	 3.562499999999998e+00	 1.019520845538462e+01
0	 6.499999999999999e+00	 3.624999999999999e+00	 1.019500004923077e+01
0	 6.499999999999999e+00	 3.687499999999998e+00	 1.019490676923077e+01
0	 6.499999999999999e+00	 3.750000000000000e+00	 1.019492861538462e+01
0	 6.562499999999998e+00	 3.125000000000000e+00	 1.019294076923076e+01
0	 6.562499999999999e+00	 3.187500000000000e+00	 1.019201900769230e+01
0	 6.562499999999999e+00	 3.250000000000000e+00	 1.019120880000000e+01
0	 6.562499999999999e+00	 3.312500000000000e+00	 1.019051014615384e+01
0	 6.562499999999996e+00	 3.374999999999998e+00	 1.018992304615384e+01
0	 6.562499999999999e+00	 3.437499999999999e+00	 1.018944750000000e+01
0	 6.562500000000000e+00	 3.499999999999999e+00	 1.018908350769231e+01
0	 6.562499999999999e+00	 3.562499999999999e+00	 1.018883106923076e+01
0	 6.562499999999999e+00	 3.624999999999998e+00	 1.018869018461539e+01
0	 6.562500000000000e+00	 3.687499999999999e+00	 1.018866085384616e+01
0	 6.562499999999998e+00	 3.750000000000000e+00	 1.018874307692309e+01
0	 6.624999999999998e+00	 3.125000000000000e+00	 1.018611390769231e+01
0	 6.624999999999998e+00	 3.187500000000000e+00	 1.018528269230769e+01
0	 6.624999999999997e+00	 3.249999999999999e+00	 1.018455945846154e+01
0	 6.624999999999999e+00	 3.312499999999999e+00	 1.018394420615385e+01
0	 6.625000000000000e+00	 3.375000000000000e+00	 1.018343693538462e+01
0	 6.625000000000001e+00	 3.437500000000000e+00	 1.018303764615385e+01
0	 6.624999999999998e+00	 3.499999999999999e+00	 1.018274633846154e+01
0	 6.624999999999999e+00	 3.562499999999999e+00	 1.018256301230769e+01
0	 6.624999999999999e+00	 3.624999999999999e+00	 1.018248766769232e+01
0	 6.624999999999999e+00	 3.687499999999998e+00	 1.018252030461539e+01
0	 6.624999999999998e+00	 3.750000000000000e+00	 1.018266092307692e+01
0	 6.687499999999996e+00	 3.125000000000000e+00	 1.017941024615384e+01
0	 6.687499999999997e+00	 3.187500000000000e+00	 1.017866759538462e+01
0	 6.687499999999998e+00	 3.250000000000000e+00	 1.017802935384615e+01
0	 6.687499999999998e+00	 3.312500000000000e+00	 1.017749552153846e+01
0	 6.687499999999999e+00	 3.374999999999999e+00	 1.017706609846154e+01
0	 6.687499999999999e+00	 3.437499999999999e+00	 1.017674108461538e+01
0	 6.687499999999999e+00	 3.499999999999999e+00	 1.017652047999999e+01
0	 6.687499999999999e+00	 3.562499999999999e+00	 1.017640428461539e+01
0	 6.687499999999999e+00	 3.624999999999998e+00	 1.017639249846154e+01
0	 6.687499999999999e+00	 3.687499999999999e+00	 1.017648512153845e+01
0	 6.687499999999996e+00	 3.750000000000000e+00	 1.017668215384616e+01
0	 6.749999999999998e+00	 3.125000000000000e+00	 1.017282978461537e+01
0	 6.749999999999999e+00	 3.187500000000001e+00	 1.017217371692306e+01
0	 6.749999999999998e+00	 3.250000000000000e+00	 1.017161848615384e+01
0	 6.750000000000000e+00	 3.312500000000000e+00	 1.017116409230769e+01
0	 6.749999999999999e+00	 3.374999999999999e+00	 1.017081053538461e+01
0	 6.749999999999998e+00	 3.437499999999999e+00	 1.017055781538461e+01
0	 6.749999999999998e+00	 3.499999999999998e+00	 1.017040593230770e+01
0	 6.749999999999998e+00	 3.562499999999998e+00	 1.017035488615385e+01
0	 6.750000000000000e+00	 3.624999999999998e+00	 1.017040467692308e+01
0	 6.749999999999999e+00	 3.687499999999998e+00	 1.017055530461539e+01
0	 6.749999999999998e+00	 3.750000000000000e+00	 1.017080676923078e+01
0	 6.812499999999998e+00	 3.125000000000000e+00	 1.016637252307692e+01
0	 6.812499999999998e+00	 3.187500000000000e+00	 1.016580105692307e+01
0	 6.812499999999999e+00	 3.250000000000000e+00	 1.016532685538461e+01
0	 6.812499999999998e+00	 3.312500000000000e+00	 1.016494991846153e+01
0	 6.812499999999998e+00	 3.374999999999999e+00	 1.016467024615384e+01
0	 6.812499999999998e+00	 3.437500000000000e+00	 1.016448783846154e+01
0	 6.812499999999997e+00	 3.499999999999998e+00	 1.016440269538462e+01
0	 6.812499999999998e+00	 3.562499999999998e+00	 1.016441481692307e+01
0	 6.812499999999997e+00	 3.624999999999998e+00	 1.016452420307692e+01
0	 6.812499999999997e+00	 3.687499999999997e+00	 1.016473085384615e+01
0	 6.812499999999998e+00	 3.750000000000000e+00	 1.016503476923078e+01
0	 6.875000000000000e+00	 3.125000000000000e+00	 1.016003846153846e+01
0	 6.875000000000000e+00	 3.187500000000000e+00	 1.015954961538460e+01
0	 6.875000000000000e+00	 3.250000000000000e+00	 1.015915446153846e+01
0	 6.875000000000000e+00	 3.312499999999999e+00	 1.015885300000000e+01
0	 6.875000000000000e+00	 3.374999999999999e+00	 1.015864523076924e+01
0	 6.875000000000000e+00	 3.437499999999999e+00	 1.015853115384615e+01
0	 6.875000000000000e+00	 3.499999999999999e+00	 1.015851076923077e+01
0	 6.875000000000000e+00	 3.562499999999998e+00	 1.015858407692308e+01
0	 6.875000000000000e+00	 3.624999999999999e+00	 1.015875107692308e+01
0	 6.875000000000000e+00	 3.687499999999998e+00	 1.015901176923077e+01
0	 6.875000000000000e+00	 3.750000000000000e+00	 1.015936615384616e+01
0	 6.250000000000000e+00	 3.750000000000000e+00	 1.022070461538462e+01
0	 6.250000000000001e+00	 3.812500000000000e+00	 1.021813753846155e+01
0	 6.250000000000001e+00	 3.875000000000000e+00	 1.021569230769231e+01
0	 6.250000000000000e+00	 3.937499999999999e+00	 1.021336892307692e+01
0	 6.250000000000001e+00	 4.000000000000000e+00	 1.021116738461538e+01
0	 6.250000000000000e+00	 4.062499999999999e+00	 1.020908769230770e+01
0	 6.250000000000000e+00	 4.124999999999999e+00	 1.020712984615384e+01
0	 6.250000000000000e+00	 4.187499999999998e+00	 1.020529384615384e+01
0	 6.250000000000001e+00	 4.249999999999998e+00	 1.020357969230769e+01
0	 6.250000000000000e+00	 4.312499999999998e+00	 1.020198738461539e+01
0	 6.250000000000000e+00	 4.375000000000000e+00	 1.020051692307692e+01
0	 6.312500000000000e+00	 3.750000000000000e+00	 1.021410553846155e+01
0	 6.312499999999999e+00	 3.812500000000000e+00	 1.021169860307692e+01
0	 6.312499999999999e+00	 3.875000000000000e+00	 1.020940973846153e+01
0	 6.312499999999999e+00	 3.937500000000000e+00	 1.020723894461539e+01
0	 6.312499999999999e+00	 3.999999999999999e+00	 1.020518622153846e+01
0	 6.312500000000002e+00	 4.062499999999999e+00	 1.020325156923076e+01
0	 6.312500000000001e+00	 4.125000000000000e+00	 1.020143498769230e+01
0	 6.312500000000000e+00	 4.187500000000000e+00	 1.019973647692307e+01
0	 6.312500000000001e+00	 4.250000000000000e+00	 1.019815603692307e+01
0	 6.312499999999998e+00	 4.312499999999997e+00	 1.019669366769230e+01
0	 6.312500000000000e+00	 4.375000000000000e+00	 1.019534936923077e+01
0	 6.374999999999999e+00	 3.750000000000000e+00	 1.020760984615384e+01
0	 6.374999999999999e+00	 3.812500000000000e+00	 1.020535566461539e+01
0	 6.375000000000000e+00	 3.875000000000000e+00	 1.020321577846154e+01
0	 6.374999999999998e+00	 3.937500000000000e+00	 1.020119018769231e+01
0	 6.374999999999998e+00	 3.999999999999999e+00	 1.019927889230770e+01
0	 6.375000000000000e+00	 4.062499999999999e+00	 1.019748189230769e+01
0	 6.374999999999997e+00	 4.124999999999997e+00	 1.019579918769231e+01
0	 6.375000000000000e+00	 4.187499999999998e+00	 1.019423077846153e+01
0	 6.374999999999999e+00	 4.249999999999998e+00	 1.019277666461538e+01
0	 6.375000000000001e+00	 4.312499999999998e+00	 1.019143684615385e+01
0	 6.374999999999999e+00	 4.375000000000000e+00	 1.019021132307692e+01
0	 6.437499999999998e+00	 3.750000000000000e+00	 1.020121753846154e+01
0	 6.437499999999999e+00	 3.812500000000000e+00	 1.019910872307692e+01
0	 6.437500000000000e+00	 3.875000000000000e+00	 1.019711042769230e+01
0	 6.437500000000000e+00	 3.937500000000000e+00	 1.019522265230771e+01
0	 6.437499999999999e+00	 3.999999999999999e+00	 1.019344539692307e+01
0	 6.437499999999998e+00	 4.062500000000000e+00	 1.019177866153846e+01
0	 6.437499999999999e+00	 4.124999999999998e+00	 1.019022244615385e+01
0	 6.437499999999999e+00	 4.187499999999999e+00	 1.018877675076923e+01
0	 6.437499999999999e+00	 4.249999999999998e+00	 1.018744157538459e+01
0	 6.437499999999998e+00	 4.312499999999997e+00	 1.018621692000001e+01
0	 6.437499999999998e+00	 4.375000000000000e+00	 1.018510278461538e+01
0	 6.499999999999999e+00	 3.750000000000000e+00	 1.019492861538462e+01
0	 6.499999999999997e+00	 3.812500000000000e+00	 1.019295777846154e+01
0	 6.500000000000000e+00	 3.875000000000000e+00	 1.019109368615385e+01
0	 6.499999999999998e+00	 3.937500000000000e+00	 1.018933633846154e+01
0	 6.499999999999998e+00	 3.999999999999999e+00	 1.018768573538462e+01
0	 6.500000000000000e+00	 4.062499999999999e+00	 1.018614187692308e+01
0	 6.499999999999997e+00	 4.124999999999998e+00	 1.018470476307693e+01
0	 6.499999999999999e+00	 4.187499999999999e+00	 1.018337439384616e+01
0	 6.499999999999999e+00	 4.249999999999998e+00	 1.018215076923076e+01
0	 6.499999999999999e+00	 4.312499999999998e+00	 1.018103388923077e+01
0	 6.499999999999999e+00	 4.375000000000000e+00	 1.018002375384616e+01
0	 6.562499999999998e+00	 3.750000000000000e+00	 1.018874307692309e+01
0	 6.562499999999999e+00	 3.812500000000000e+00	 1.018690283076924e+01
0	 6.562499999999999e+00	 3.875000000000000e+00	 1.018516555384616e+01
0	 6.562499999999999e+00	 3.937499999999999e+00	 1.018353124615385e+01
0	 6.562499999999996e+00	 3.999999999999998e+00	 1.018199990769230e+01
0	 6.562499999999999e+00	 4.062499999999999e+00	 1.018057153846154e+01
0	 6.562500000000000e+00	 4.125000000000000e+00	 1.017924613846153e+01
0	 6.562499999999999e+00	 4.187499999999998e+00	 1.017802370769231e+01
0	 6.562499999999999e+00	 4.249999999999998e+00	 1.017690424615384e+01
0	 6.562500000000000e+00	 4.312499999999998e+00	 1.017588775384615e+01
0	 6.562499999999998e+00	 4.375000000000000e+00	 1.017497423076923e+01
0	 6.624999999999998e+00	 3.750000000000000e+00	 1.018266092307692e+01
0	 6.624999999999998e+00	 3.812500000000000e+00	 1.018094388000001e+01
0	 6.624999999999997e+00	 3.874999999999999e+00	 1.017932603076923e+01
0	 6.624999999999999e+00	 3.937500000000000e+00	 1.017780737538462e+01
0	 6.625000000000000e+00	 4.000000000000000e+00	 1.017638791384616e+01
0	 6.625000000000001e+00	 4.062500000000000e+00	 1.017506764615385e+01
0	 6.624999999999998e+00	 4.124999999999999e+00	 1.017384657230769e+01
0	 6.624999999999999e+00	 4.187499999999998e+00	 1.017272469230769e+01
0	 6.624999999999999e+00	 4.249999999999999e+00	 1.017170200615385e+01
0	 6.624999999999999e+00	 4.312499999999997e+00	 1.017077851384616e+01
0	 6.624999999999998e+00	 4.375000000000000e+00	 1.016995421538462e+01
0	 6.687499999999996e+00	 3.750000000000000e+00	 1.017668215384616e+01
0	 6.687499999999997e+00	 3.812500000000000e+00	 1.017508092615384e+01
0	 6.687499999999998e+00	 3.875000000000000e+00	 1.017357511692308e+01
0	 6.687499999999998e+00	 3.937499999999999e+00	 1.017216472615385e+01
0	 6.687499999999999e+00	 3.999999999999999e+00	 1.017084975384616e+01
0	 6.687499999999999e+00	 4.062500000000000e+00	 1.016963020000001e+01
0	 6.687499999999999e+00	 4.124999999999999e+00	 1.016850606461539e+01
0	 6.687499999999999e+00	 4.187499999999999e+00	 1.016747734769231e+01
0	 6.687499999999999e+00	 4.249999999999998e+00	 1.016654404923076e+01
0	 6.687499999999999e+00	 4.312499999999998e+00	 1.016570616923077e+01
0	 6.687499999999996e+00	 4.375000000000000e+00	 1.016496370769231e+01
0	 6.749999999999998e+00	 3.750000000000000e+00	 1.017080676923078e+01
0	 6.749999999999999e+00	 3.812500000000000e+00	 1.016931396923077e+01
0	 6.749999999999998e+00	 3.875000000000000e+00	 1.016791281230770e+01
0	 6.750000000000000e+00	 3.937500000000000e+00	 1.016660329846154e+01
0	 6.749999999999999e+00	 3.999999999999999e+00	 1.016538542769231e+01
0	 6.749999999999998e+00	 4.062499999999998e+00	 1.016425920000000e+01
0	 6.749999999999998e+00	 4.124999999999999e+00	 1.016322461538462e+01
0	 6.749999999999998e+00	 4.187499999999998e+00	 1.016228167384614e+01
0	 6.750000000000000e+00	 4.249999999999998e+00	 1.016143037538463e+01
0	 6.749999999999999e+00	 4.312499999999998e+00	 1.016067072000001e+01
0	 6.749999999999998e+00	 4.375000000000000e+00	 1.016000270769231e+01
0	 6.812499999999998e+00	 3.750000000000000e+00	 1.016503476923078e+01
0	 6.812499999999998e+00	 3.812500000000000e+00	 1.016364300923077e+01
0	 6.812499999999999e+00	 3.875000000000000e+00	 1.016233911692308e+01
0	 6.812499999999998e+00	 3.937499999999999e+00	 1.016112309230770e+01
0	 6.812499999999998e+00	 3.999999999999999e+00	 1.015999493538461e+01
0	 6.812499999999998e+00	 4.062499999999998e+00	 1.015895464615385e+01
0	 6.812499999999997e+00	 4.124999999999998e+00	 1.015800222461538e+01
0	 6.812499999999998e+00	 4.187499999999998e+00	 1.015713767076923e+01
0	 6.812499999999997e+00	 4.249999999999998e+00	 1.015636098461539e+01
0	 6.812499999999997e+00	 4.312499999999998e+00	 1.015567216615385e+01
0	 6.812499999999998e+00	 4.375000000000000e+00	 1.015507121538461e+01
0	 6.875000000000000e+00	 3.750000000000000e+00	 1.015936615384616e+01
0	 6.875000000000000e+00	 3.812500000000000e+00	 1.015806804615386e+01
0	 6.875000000000000e+00	 3.875000000000000e+00	 1.015685403076924e+01
0	 6.875000000000000e+00	 3.937499999999999e+00	 1.015572410769231e+01
0	 6.875000000000000e+00	 4.000000000000000e+00	 1.015467827692308e+01
0	 6.875000000000000e+00	 4.062499999999999e+00	 1.015371653846155e+01
0	 6.875000000000000e+00	 4.124999999999999e+00	 1.015283889230769e+01
0	 6.875000000000000e+00	 4.187499999999998e+00	 1.015204533846154e+01
0	 6.875000000000000e+00	 4.249999999999998e+00	 1.015133587692309e+01
0	 6.875000000000000e+00	 4.312499999999998e+00	 1.015071050769232e+01
0	 6.875000000000000e+00	 4.375000000000000e+00	 1.015016923076923e+01
0	 6.250000000000000e+00	 4.375000000000000e+00	 1.020051692307692e+01
0	 6.250000000000001e+00	 4.437499999999999e+00	 1.019744823076921e+01
0	 6.250000000000001e+00	 4.500000000000001e+00	 1.019446215384614e+01
0	 6.250000000000000e+00	 4.562499999999999e+00	 1.019155869230770e+01
0	 6.250000000000001e+00	 4.625000000000000e+00	 1.018873784615385e+01
0	 6.250000000000000e+00	 4.687499999999999e+00	 1.018599961538462e+01
0	 6.250000000000000e+00	 4.749999999999999e+00	 1.018334400000000e+01
0	 6.250000000000000e+00	 4.812499999999998e+00	 1.018077100000000e+01
0	 6.250000000000001e+00	 4.874999999999998e+00	 1.017828061538461e+01
0	 6.250000000000000e+00	 4.937499999999998e+00	 1.017587284615384e+01
0	 6.250000000000000e+00	 5.000000000000000e+00	 1.017354769230770e+01
0	 6.312500000000000e+00	 4.375000000000000e+00	 1.019534936923077e+01
0	 6.312499999999999e+00	 4.437500000000000e+00	 1.019241116307692e+01
0	 6.312499999999999e+00	 4.499999999999999e+00	 1.018955431692308e+01
0	 6.312499999999999e+00	 4.562499999999999e+00	 1.018677883076922e+01
0	 6.312499999999999e+00	 4.625000000000000e+00	 1.018408470461539e+01
0	 6.312500000000002e+00	 4.687500000000001e+00	 1.018147193846153e+01
0	 6.312500000000001e+00	 4.749999999999999e+00	 1.017894053230769e+01
0	 6.312500000000000e+00	 4.812499999999999e+00	 1.017649048615385e+01
0	 6.312500000000001e+00	 4.875000000000000e+00	 1.017412180000001e+01
0	 6.312499999999998e+00	 4.937499999999997e+00	 1.017183447384615e+01
0	 6.312500000000000e+00	 4.999999999999999e+00	 1.016962850769231e+01
0	 6.374999999999999e+00	 4.375000000000000e+00	 1.019021132307692e+01
0	 6.374999999999999e+00	 4.437500000000000e+00	 1.018739998461539e+01
0	 6.375000000000000e+00	 4.500000000000001e+00	 1.018466875076923e+01
0	 6.374999999999998e+00	 4.562499999999999e+00	 1.018201762153846e+01
0	 6.374999999999998e+00	 4.624999999999998e+00	 1.017944659692308e+01
0	 6.375000000000000e+00	 4.687499999999997e+00	 1.017695567692308e+01
0	 6.374999999999997e+00	 4.749999999999998e+00	 1.017454486153846e+01
0	 6.375000000000000e+00	 4.812499999999999e+00	 1.017221415076922e+01
0	 6.374999999999999e+00	 4.874999999999998e+00	 1.016996354461539e+01
0	 6.375000000000001e+00	 4.937499999999998e+00	 1.016779304307693e+01
0	 6.374999999999999e+00	 5.000000000000000e+00	 1.016570264615386e+01
0	 6.437499999999998e+00	 4.375000000000000e+00	 1.018510278461538e+01
0	 6.437499999999999e+00	 4.437500000000000e+00	 1.018241469538463e+01
0	 6.437500000000000e+00	 4.500000000000000e+00	 1.017980545538462e+01
0	 6.437500000000000e+00	 4.562499999999999e+00	 1.017727506461538e+01
0	 6.437499999999999e+00	 4.625000000000000e+00	 1.017482352307693e+01
0	 6.437499999999998e+00	 4.687499999999999e+00	 1.017245083076922e+01
0	 6.437499999999999e+00	 4.749999999999998e+00	 1.017015698769231e+01
0	 6.437499999999999e+00	 4.812499999999998e+00	 1.016794199384615e+01
0	 6.437499999999999e+00	 4.874999999999998e+00	 1.016580584923079e+01
0	 6.437499999999998e+00	 4.937499999999997e+00	 1.016374855384616e+01
0	 6.437499999999998e+00	 4.999999999999999e+00	 1.016177010769231e+01
0	 6.499999999999999e+00	 4.375000000000000e+00	 1.018002375384616e+01
0	 6.499999999999997e+00	 4.437500000000000e+00	 1.017745529538461e+01
0	 6.500000000000000e+00	 4.500000000000000e+00	 1.017496443076922e+01
0	 6.499999999999998e+00	 4.562499999999999e+00	 1.017255116000000e+01
0	 6.499999999999998e+00	 4.624999999999999e+00	 1.017021548307693e+01
0	 6.500000000000000e+00	 4.687500000000000e+00	 1.016795740000001e+01
0	 6.499999999999997e+00	 4.749999999999998e+00	 1.016577691076923e+01
0	 6.499999999999999e+00	 4.812499999999999e+00	 1.016367401538462e+01
0	 6.499999999999999e+00	 4.874999999999998e+00	 1.016164871384616e+01
0	 6.499999999999999e+00	 4.937499999999997e+00	 1.015970100615383e+01
0	 6.499999999999999e+00	 5.000000000000000e+00	 1.015783089230770e+01
0	 6.562499999999998e+00	 4.375000000000000e+00	 1.017497423076923e+01
0	 6.562499999999999e+00	 4.437499999999999e+00	 1.017252178461538e+01
0	 6.562499999999999e+00	 4.499999999999999e+00	 1.017014567692308e+01
0	 6.562499999999999e+00	 4.562499999999999e+00	 1.016784590769230e+01
0	 6.562499999999996e+00	 4.624999999999998e+00	 1.016562247692308e+01
0	 6.562499999999999e+00	 4.687499999999999e+00	 1.016347538461539e+01
0	 6.562500000000000e+00	 4.750000000000000e+00	 1.016140463076924e+01
0	 6.562499999999999e+00	 4.812499999999998e+00	 1.015941021538461e+01
0	 6.562499999999999e+00	 4.874999999999998e+00	 1.015749213846155e+01
0	 6.562500000000000e+00	 4.937499999999999e+00	 1.015565040000000e+01
0	 6.562499999999998e+00	 5.000000000000000e+00	 1.015388500000001e+01
0	 6.624999999999998e+00	 4.375000000000000e+00	 1.016995421538462e+01
0	 6.624999999999998e+00	 4.437499999999999e+00	 1.016761416307693e+01
0	 6.624999999999997e+00	 4.499999999999998e+00	 1.016534919384615e+01
0	 6.624999999999999e+00	 4.562499999999999e+00	 1.016315930769231e+01
0	 6.625000000000000e+00	 4.625000000000001e+00	 1.016104450461539e+01
0	 6.625000000000001e+00	 4.687499999999999e+00	 1.015900478461538e+01
0	 6.624999999999998e+00	 4.749999999999998e+00	 1.015704014769231e+01
0	 6.624999999999999e+00	 4.812499999999999e+00	 1.015515059384616e+01
0	 6.624999999999999e+00	 4.874999999999998e+00	 1.015333612307693e+01
0	 6.624999999999999e+00	 4.937499999999999e+00	 1.015159673538461e+01
0	 6.624999999999998e+00	 5.000000000000001e+00	 1.014993243076925e+01
0	 6.687499999999996e+00	 4.375000000000000e+00	 1.016496370769231e+01
0	 6.687499999999997e+00	 4.437499999999999e+00	 1.016273243076922e+01
0	 6.687499999999998e+00	 4.500000000000000e+00	 1.016057498153845e+01
0	 6.687499999999998e+00	 4.562499999999999e+00	 1.015849136000000e+01
0	 6.687499999999999e+00	 4.625000000000000e+00	 1.015648156615385e+01
0	 6.687499999999999e+00	 4.687500000000000e+00	 1.015454560000000e+01
0	 6.687499999999999e+00	 4.749999999999999e+00	 1.015268346153847e+01
0	 6.687499999999999e+00	 4.812499999999999e+00	 1.015089515076924e+01
0	 6.687499999999999e+00	 4.874999999999998e+00	 1.014918066769231e+01
0	 6.687499999999999e+00	 4.937499999999999e+00	 1.014754001230770e+01
0	 6.687499999999996e+00	 4.999999999999999e+00	 1.014597318461538e+01
0	 6.749999999999998e+00	 4.375000000000000e+00	 1.016000270769231e+01
0	 6.749999999999999e+00	 4.437500000000001e+00	 1.015787658769230e+01
0	 6.749999999999998e+00	 4.499999999999999e+00	 1.015582304000000e+01
0	 6.750000000000000e+00	 4.562500000000000e+00	 1.015384206461538e+01
0	 6.749999999999999e+00	 4.624999999999999e+00	 1.015193366153846e+01
0	 6.749999999999998e+00	 4.687499999999998e+00	 1.015009783076924e+01
0	 6.749999999999998e+00	 4.749999999999999e+00	 1.014833457230769e+01
0	 6.749999999999998e+00	 4.812499999999998e+00	 1.014664388615385e+01
0	 6.750000000000000e+00	 4.874999999999999e+00	 1.014502577230769e+01
0	 6.749999999999999e+00	 4.937499999999998e+00	 1.014348023076922e+01
0	 6.749999999999998e+00	 5.000000000000000e+00	 1.014200726153848e+01
0	 6.812499999999998e+00	 4.375000000000000e+00	 1.015507121538461e+01
0	 6.812499999999998e+00	 4.437500000000000e+00	 1.015304663384615e+01
0	 6.812499999999999e+00	 4.500000000000000e+00	 1.015109336923076e+01
0	 6.812499999999998e+00	 4.562500000000000e+00	 1.014921142153847e+01
0	 6.812499999999998e+00	 4.624999999999999e+00	 1.014740079076923e+01
0	 6.812499999999998e+00	 4.687499999999999e+00	 1.014566147692307e+01
0	 6.812499999999997e+00	 4.749999999999999e+00	 1.014399348000000e+01
0	 6.812499999999998e+00	 4.812499999999998e+00	 1.014239679999999e+01
0	 6.812499999999997e+00	 4.874999999999999e+00	 1.014087143692308e+01
0	 6.812499999999997e+00	 4.937499999999998e+00	 1.013941739076924e+01
0	 6.812499999999998e+00	 5.000000000000000e+00	 1.013803466153847e+01
0	 6.875000000000000e+00	 4.375000000000000e+00	 1.015016923076923e+01
0	 6.875000000000000e+00	 4.437499999999999e+00	 1.014824256923077e+01
0	 6.875000000000000e+00	 4.500000000000001e+00	 1.014638596923077e+01
0	 6.875000000000000e+00	 4.562499999999999e+00	 1.014459943076923e+01
0	 6.875000000000000e+00	 4.625000000000000e+00	 1.014288295384616e+01
0	 6.875000000000000e+00	 4.687499999999999e+00	 1.014123653846153e+01
0	 6.875000000000000e+00	 4.749999999999999e+00	 1.013966018461539e+01
0	 6.875000000000000e+00	 4.812499999999998e+00	 1.013815389230769e+01
0	 6.875000000000000e+00	 4.874999999999998e+00	 1.013671766153846e+01
0	 6.875000000000000e+00	 4.937499999999998e+00	 1.013535149230768e+01
0	 6.875000000000000e+00	 5.000000000000000e+00	 1.013405538461538e+01
0	 6.250000000000000e+00	 5.000000000000000e+00	 1.017354769230770e+01
0	 6.250000000000001e+00	 5.062500000000000e+00	 1.017025704615387e+01
0	 6.250000000000001e+00	 5.125000000000001e+00	 1.016702049230770e+01
0	 6.250000000000000e+00	 5.187499999999999e+00	 1.016383803076923e+01
0	 6.250000000000001e+00	 5.249999999999999e+00	 1.016070966153846e+01
0	 6.250000000000000e+00	 5.312499999999999e+00	 1.015763538461539e+01
0	 6.250000000000000e+00	 5.374999999999998e+00	 1.015461519999999e+01
0	 6.250000000000000e+00	 5.437499999999998e+00	 1.015164910769231e+01
0	 6.250000000000001e+00	 5.499999999999998e+00	 1.014873710769231e+01
0	 6.250000000000000e+00	 5.562499999999998e+00	 1.014587920000000e+01
0	 6.250000000000000e+00	 5.625000000000000e+00	 1.014307538461538e+01
0	 6.312500000000000e+00	 4.999999999999999e+00	 1.016962850769231e+01
0	 6.312499999999999e+00	 5.062500000000000e+00	 1.016646071692309e+01
0	 6.312499999999999e+00	 5.125000000000000e+00	 1.016334619692307e+01
0	 6.312499999999999e+00	 5.187499999999999e+00	 1.016028494769231e+01
0	 6.312499999999999e+00	 5.249999999999998e+00	 1.015727696923077e+01
0	 6.312500000000002e+00	 5.312500000000000e+00	 1.015432226153846e+01
0	 6.312500000000001e+00	 5.374999999999999e+00	 1.015142082461538e+01
0	 6.312500000000000e+00	 5.437499999999999e+00	 1.014857265846154e+01
0	 6.312500000000001e+00	 5.499999999999999e+00	 1.014577776307692e+01
0	 6.312499999999998e+00	 5.562499999999996e+00	 1.014303613846154e+01
0	 6.312500000000000e+00	 5.625000000000000e+00	 1.014034778461538e+01
0	 6.374999999999999e+00	 5.000000000000000e+00	 1.016570264615386e+01
0	 6.374999999999999e+00	 5.062499999999999e+00	 1.016265402769232e+01
0	 6.375000000000000e+00	 5.125000000000001e+00	 1.015965785846153e+01
0	 6.374999999999998e+00	 5.187499999999998e+00	 1.015671413846155e+01
0	 6.374999999999998e+00	 5.249999999999999e+00	 1.015382286769231e+01
0	 6.375000000000000e+00	 5.312499999999999e+00	 1.015098404615384e+01
0	 6.374999999999997e+00	 5.374999999999999e+00	 1.014819767384616e+01
0	 6.375000000000000e+00	 5.437499999999999e+00	 1.014546375076923e+01
0	 6.374999999999999e+00	 5.499999999999998e+00	 1.014278227692307e+01
0	 6.375000000000001e+00	 5.562499999999999e+00	 1.014015325230769e+01
0	 6.374999999999999e+00	 5.625000000000000e+00	 1.013757667692308e+01
0	 6.437499999999998e+00	 4.999999999999999e+00	 1.016177010769231e+01
0	 6.437499999999999e+00	 5.062500000000001e+00	 1.015883697846154e+01
0	 6.437500000000000e+00	 5.125000000000000e+00	 1.015595547692308e+01
0	 6.437500000000000e+00	 5.187499999999999e+00	 1.015312560307692e+01
0	 6.437499999999999e+00	 5.250000000000000e+00	 1.015034735692307e+01
0	 6.437499999999998e+00	 5.312499999999999e+00	 1.014762073846153e+01
0	 6.437499999999999e+00	 5.374999999999998e+00	 1.014494574769230e+01
0	 6.437499999999999e+00	 5.437499999999999e+00	 1.014232238461538e+01
0	 6.437499999999999e+00	 5.499999999999998e+00	 1.013975064923076e+01
0	 6.437499999999998e+00	 5.562499999999997e+00	 1.013723054153844e+01
0	 6.437499999999998e+00	 5.625000000000000e+00	 1.013476206153845e+01
0	 6.499999999999999e+00	 5.000000000000000e+00	 1.015783089230770e+01
0	 6.499999999999997e+00	 5.062500000000000e+00	 1.015500956923077e+01
0	 6.500000000000000e+00	 5.125000000000000e+00	 1.015223905230768e+01
0	 6.499999999999998e+00	 5.187500000000000e+00	 1.014951934153846e+01
0	 6.499999999999998e+00	 5.249999999999999e+00	 1.014685043692307e+01
0	 6.500000000000000e+00	 5.312499999999999e+00	 1.014423233846155e+01
0	 6.499999999999997e+00	 5.374999999999998e+00	 1.014166504615385e+01
0	 6.499999999999999e+00	 5.437499999999999e+00	 1.013914856000001e+01
0	 6.499999999999999e+00	 5.499999999999999e+00	 1.013668287999999e+01
0	 6.499999999999999e+00	 5.562499999999998e+00	 1.013426800615384e+01
0	 6.499999999999999e+00	 5.625000000000000e+00	 1.013190393846152e+01
0	 6.562499999999998e+00	 5.000000000000000e+00	 1.015388500000001e+01
0	 6.562499999999999e+00	 5.062500000000000e+00	 1.015117180000001e+01
0	 6.562499999999999e+00	 5.124999999999999e+00	 1.014850858461539e+01
0	 6.562499999999999e+00	 5.187500000000000e+00	 1.014589535384615e+01
0	 6.562499999999996e+00	 5.249999999999998e+00	 1.014333210769229e+01
0	 6.562499999999999e+00	 5.312499999999999e+00	 1.014081884615384e+01
0	 6.562500000000000e+00	 5.375000000000000e+00	 1.013835556923077e+01
0	 6.562499999999999e+00	 5.437499999999998e+00	 1.013594227692307e+01
0	 6.562499999999999e+00	 5.499999999999998e+00	 1.013357896923075e+01
0	 6.562500000000000e+00	 5.562499999999999e+00	 1.013126564615384e+01
0	 6.562499999999998e+00	 5.625000000000000e+00	 1.012900230769230e+01
0	 6.624999999999998e+00	 5.000000000000001e+00	 1.014993243076925e+01
0	 6.624999999999998e+00	 5.062499999999999e+00	 1.014732367076924e+01
0	 6.624999999999997e+00	 5.125000000000000e+00	 1.014476407384615e+01
0	 6.624999999999999e+00	 5.187500000000000e+00	 1.014225364000000e+01
0	 6.625000000000000e+00	 5.250000000000001e+00	 1.013979236923076e+01
0	 6.625000000000001e+00	 5.312500000000001e+00	 1.013738026153845e+01
0	 6.624999999999998e+00	 5.374999999999999e+00	 1.013501731692307e+01
0	 6.624999999999999e+00	 5.437499999999999e+00	 1.013270353538461e+01
0	 6.624999999999999e+00	 5.499999999999998e+00	 1.013043891692307e+01
0	 6.624999999999999e+00	 5.562499999999998e+00	 1.012822346153844e+01
0	 6.624999999999998e+00	 5.625000000000000e+00	 1.012605716923076e+01
0	 6.687499999999996e+00	 4.999999999999999e+00	 1.014597318461538e+01
0	 6.687499999999997e+00	 5.062500000000000e+00	 1.014346518153846e+01
0	 6.687499999999998e+00	 5.125000000000000e+00	 1.014100551999999e+01
0	 6.687499999999998e+00	 5.187500000000000e+00	 1.013859419999999e+01
0	 6.687499999999999e+00	 5.250000000000000e+00	 1.013623122153847e+01
0	 6.687499999999999e+00	 5.312500000000000e+00	 1.013391658461537e+01
0	 6.687499999999999e+00	 5.374999999999999e+00	 1.013165028923076e+01
0	 6.687499999999999e+00	 5.437499999999998e+00	 1.012943233538460e+01
0	 6.687499999999999e+00	 5.499999999999998e+00	 1.012726272307691e+01
0	 6.687499999999999e+00	 5.562499999999999e+00	 1.012514145230767e+01
0	 6.687499999999996e+00	 5.625000000000000e+00	 1.012306852307690e+01
0	 6.749999999999998e+00	 5.000000000000000e+00	 1.014200726153848e+01
0	 6.749999999999999e+00	 5.062500000000002e+00	 1.013959633230770e+01
0	 6.749999999999998e+00	 5.124999999999999e+00	 1.013723292307693e+01
0	 6.750000000000000e+00	 5.187500000000000e+00	 1.013491703384616e+01
0	 6.749999999999999e+00	 5.249999999999998e+00	 1.013264866461539e+01
0	 6.749999999999998e+00	 5.312499999999999e+00	 1.013042781538461e+01
0	 6.749999999999998e+00	 5.374999999999998e+00	 1.012825448615385e+01
0	 6.749999999999998e+00	 5.437499999999998e+00	 1.012612867692305e+01
0	 6.750000000000000e+00	 5.499999999999999e+00	 1.012405038769231e+01
0	 6.749999999999999e+00	 5.562499999999998e+00	 1.012201961846152e+01
0	 6.749999999999998e+00	 5.625000000000000e+00	 1.012003636923077e+01
0	 6.812499999999998e+00	 5.000000000000000e+00	 1.013803466153847e+01
0	 6.812499999999998e+00	 5.062500000000000e+00	 1.013571712307693e+01
0	 6.812499999999999e+00	 5.125000000000001e+00	 1.013344628307692e+01
0	 6.812499999999998e+00	 5.187499999999999e+00	 1.013122214153845e+01
0	 6.812499999999998e+00	 5.249999999999999e+00	 1.012904469846153e+01
0	 6.812499999999998e+00	 5.312499999999998e+00	 1.012691395384615e+01
0	 6.812499999999997e+00	 5.374999999999997e+00	 1.012482990769229e+01
0	 6.812499999999998e+00	 5.437499999999998e+00	 1.012279255999999e+01
0	 6.812499999999997e+00	 5.499999999999999e+00	 1.012080191076923e+01
0	 6.812499999999997e+00	 5.562499999999998e+00	 1.011885795999998e+01
0	 6.812499999999998e+00	 5.625000000000000e+00	 1.011696070769229e+01
0	 6.875000000000000e+00	 5.000000000000000e+00	 1.013405538461538e+01
0	 6.875000000000000e+00	 5.062500000000000e+00	 1.013182755384616e+01
0	 6.875000000000000e+00	 5.125000000000001e+00	 1.012964560000000e+01
0	 6.875000000000000e+00	 5.187499999999999e+00	 1.012750952307690e+01
0	 6.875000000000000e+00	 5.249999999999999e+00	 1.012541932307693e+01
0	 6.875000000000000e+00	 5.312499999999999e+00	 1.012337500000000e+01
0	 6.875000000000000e+00	 5.374999999999998e+00	 1.012137655384614e+01
0	 6.875000000000000e+00	 5.437499999999998e+00	 1.011942398461538e+01
0	 6.875000000000000e+00	 5.499999999999998e+00	 1.011751729230767e+01
0	 6.875000000000000e+00	 5.562499999999998e+00	 1.011565647692307e+01
0	 6.875000000000000e+00	 5.625000000000000e+00	 1.011384153846153e+01
0	 6.250000000000000e+00	 5.625000000000000e+00	 1.014307538461538e+01
0	 6.250000000000001e+00	 5.687500000000000e+00	 1.013990747692307e+01
0	 6.250000000000001e+00	 5.750000000000000e+00	 1.013676283076922e+01
0	 6.250000000000000e+00	 5.812499999999999e+00	 1.013364144615386e+01
0	 6.250000000000001e+00	 5.874999999999999e+00	 1.013054332307692e+01
0	 6.250000000000000e+00	 5.937499999999999e+00	 1.012746846153846e+01
0	 6.250000000000000e+00	 5.999999999999998e+00	 1.012441686153847e+01
0	 6.250000000000000e+00	 6.062499999999998e+00	 1.012138852307693e+01
0	 6.250000000000001e+00	 6.124999999999998e+00	 1.011838344615386e+01
0	 6.250000000000000e+00	 6.187499999999998e+00	 1.011540163076924e+01
0	 6.250000000000000e+00	 6.250000000000000e+00	 1.011244307692308e+01
0	 6.312500000000000e+00	 5.625000000000000e+00	 1.014034778461538e+01
0	 6.312499999999999e+00	 5.687499999999999e+00	 1.013726713076924e+01
0	 6.312499999999999e+00	 5.749999999999999e+00	 1.013421001538461e+01
0	 6.312499999999999e+00	 5.812499999999998e+00	 1.013117643846154e+01
0	 6.312499999999999e+00	 5.875000000000000e+00	 1.012816640000000e+01
0	 6.312500000000002e+00	 5.937500000000001e+00	 1.012517990000000e+01
0	 6.312500000000001e+00	 5.999999999999999e+00	 1.012221693846154e+01
0	 6.312500000000000e+00	 6.062500000000000e+00	 1.011927751538462e+01
0	 6.312500000000001e+00	 6.125000000000000e+00	 1.011636163076923e+01
0	 6.312499999999998e+00	 6.187499999999996e+00	 1.011346928461540e+01
0	 6.312500000000000e+00	 6.250000000000000e+00	 1.011060047692307e+01
0	 6.374999999999999e+00	 5.625000000000000e+00	 1.013757667692308e+01
0	 6.374999999999999e+00	 5.687499999999999e+00	 1.013458230769231e+01
0	 6.375000000000000e+00	 5.750000000000002e+00	 1.013161175384614e+01
0	 6.374999999999998e+00	 5.812499999999999e+00	 1.012866501538462e+01
0	 6.374999999999998e+00	 5.874999999999998e+00	 1.012574209230770e+01
0	 6.375000000000000e+00	 5.937499999999999e+00	 1.012284298461538e+01
0	 6.374999999999997e+00	 5.999999999999998e+00	 1.011996769230769e+01
0	 6.375000000000000e+00	 6.062499999999999e+00	 1.011711621538460e+01
0	 6.374999999999999e+00	 6.124999999999998e+00	 1.011428855384615e+01
0	 6.375000000000001e+00	 6.187499999999998e+00	 1.011148470769230e+01
0	 6.374999999999999e+00	 6.250000000000000e+00	 1.010870467692308e+01
0	 6.437499999999998e+00	 5.625000000000000e+00	 1.013476206153845e+01
0	 6.437499999999999e+00	 5.687500000000000e+00	 1.013185300769230e+01
0	 6.437500000000000e+00	 5.749999999999999e+00	 1.012896804615384e+01
0	 6.437500000000000e+00	 5.812499999999999e+00	 1.012610717692307e+01
0	 6.437499999999999e+00	 5.875000000000000e+00	 1.012327040000000e+01
0	 6.437499999999998e+00	 5.937500000000000e+00	 1.012045771538462e+01
0	 6.437499999999999e+00	 5.999999999999998e+00	 1.011766912307692e+01
0	 6.437499999999999e+00	 6.062499999999998e+00	 1.011490462307694e+01
0	 6.437499999999999e+00	 6.124999999999997e+00	 1.011216421538462e+01
0	 6.437499999999998e+00	 6.187499999999997e+00	 1.010944790000002e+01
0	 6.437499999999998e+00	 6.250000000000000e+00	 1.010675567692307e+01
0	 6.499999999999999e+00	 5.625000000000000e+00	 1.013190393846152e+01
0	 6.499999999999997e+00	 5.687500000000000e+00	 1.012907923076924e+01
0	 6.500000000000000e+00	 5.750000000000000e+00	 1.012627889230768e+01
0	 6.499999999999998e+00	 5.812500000000000e+00	 1.012350292307693e+01
0	 6.499999999999998e+00	 5.874999999999999e+00	 1.012075132307691e+01
0	 6.500000000000000e+00	 5.937499999999999e+00	 1.011802409230770e+01
0	 6.499999999999997e+00	 5.999999999999997e+00	 1.011532123076923e+01
0	 6.499999999999999e+00	 6.062499999999998e+00	 1.011264273846155e+01
0	 6.499999999999999e+00	 6.124999999999999e+00	 1.010998861538462e+01
0	 6.499999999999999e+00	 6.187499999999998e+00	 1.010735886153848e+01
0	 6.499999999999999e+00	 6.250000000000000e+00	 1.010475347692307e+01
0	 6.562499999999998e+00	 5.625000000000000e+00	 1.012900230769230e+01
0	 6.562499999999999e+00	 5.687500000000000e+00	 1.012626097692307e+01
0	 6.562499999999999e+00	 5.750000000000000e+00	 1.012354429230769e+01
0	 6.562499999999999e+00	 5.812500000000000e+00	 1.012085225384615e+01
0	 6.562499999999996e+00	 5.874999999999998e+00	 1.011818486153847e+01
0	 6.562499999999999e+00	 5.937499999999998e+00	 1.011554211538462e+01
0	 6.562500000000000e+00	 6.000000000000000e+00	 1.011292401538462e+01
0	 6.562499999999999e+00	 6.062499999999998e+00	 1.011033056153847e+01
0	 6.562499999999999e+00	 6.124999999999998e+00	 1.010776175384618e+01
0	 6.562500000000000e+00	 6.187499999999999e+00	 1.010521759230771e+01
0	 6.562499999999998e+00	 6.250000000000000e+00	 1.010269807692309e+01
0	 6.624999999999998e+00	 5.625000000000000e+00	 1.012605716923076e+01
0	 6.624999999999998e+00	 5.687499999999999e+00	 1.012339824615382e+01
0	 6.624999999999997e+00	 5.750000000000000e+00	 1.012076424615383e+01
0	 6.624999999999999e+00	 5.812499999999999e+00	 1.011815516923077e+01
0	 6.625000000000000e+00	 5.875000000000001e+00	 1.011557101538461e+01
0	 6.625000000000001e+00	 5.937499999999999e+00	 1.011301178461538e+01
0	 6.624999999999998e+00	 5.999999999999998e+00	 1.011047747692308e+01
0	 6.624999999999999e+00	 6.062499999999999e+00	 1.010796809230770e+01
0	 6.624999999999999e+00	 6.124999999999998e+00	 1.010548363076923e+01
0	 6.624999999999999e+00	 6.187499999999998e+00	 1.010302409230768e+01
0	 6.624999999999998e+00	 6.250000000000000e+00	 1.010058947692308e+01
0	 6.687499999999996e+00	 5.625000000000000e+00	 1.012306852307690e+01
0	 6.687499999999997e+00	 5.687500000000000e+00	 1.012049103846153e+01
0	 6.687499999999998e+00	 5.750000000000000e+00	 1.011793875384614e+01
0	 6.687499999999998e+00	 5.812499999999999e+00	 1.011541166923077e+01
0	 6.687499999999999e+00	 5.874999999999999e+00	 1.011290978461539e+01
0	 6.687499999999999e+00	 5.937500000000001e+00	 1.011043310000002e+01
0	 6.687499999999999e+00	 5.999999999999999e+00	 1.010798161538462e+01
0	 6.687499999999999e+00	 6.062499999999999e+00	 1.010555533076923e+01
0	 6.687499999999999e+00	 6.124999999999999e+00	 1.010315424615386e+01
0	 6.687499999999999e+00	 6.187499999999999e+00	 1.010077836153845e+01
0	 6.687499999999996e+00	 6.250000000000000e+00	 1.009842767692311e+01
0	 6.749999999999998e+00	 5.625000000000000e+00	 1.012003636923077e+01
0	 6.749999999999999e+00	 5.687500000000000e+00	 1.011753935384615e+01
0	 6.749999999999998e+00	 5.750000000000000e+00	 1.011506781538461e+01
0	 6.750000000000000e+00	 5.812499999999999e+00	 1.011262175384615e+01
0	 6.749999999999999e+00	 5.875000000000000e+00	 1.011020116923077e+01
0	 6.749999999999998e+00	 5.937500000000000e+00	 1.010780606153846e+01
0	 6.749999999999998e+00	 5.999999999999998e+00	 1.010543643076924e+01
0	 6.749999999999998e+00	 6.062499999999998e+00	 1.010309227692308e+01
0	 6.750000000000000e+00	 6.124999999999999e+00	 1.010077359999999e+01
0	 6.749999999999999e+00	 6.187499999999998e+00	 1.009848040000001e+01
0	 6.749999999999998e+00	 6.250000000000000e+00	 1.009621267692309e+01
0	 6.812499999999998e+00	 5.625000000000000e+00	 1.011696070769229e+01
0	 6.812499999999998e+00	 5.687500000000000e+00	 1.011454319230768e+01
0	 6.812499999999999e+00	 5.750000000000000e+00	 1.011215143076923e+01
0	 6.812499999999998e+00	 5.812499999999999e+00	 1.010978542307691e+01
0	 6.812499999999998e+00	 5.875000000000000e+00	 1.010744516923076e+01
0	 6.812499999999998e+00	 5.937499999999999e+00	 1.010513066923077e+01
0	 6.812499999999997e+00	 5.999999999999998e+00	 1.010284192307692e+01
0	 6.812499999999998e+00	 6.062499999999998e+00	 1.010057893076924e+01
0	 6.812499999999997e+00	 6.124999999999998e+00	 1.009834169230769e+01
0	 6.812499999999997e+00	 6.187499999999997e+00	 1.009613020769232e+01
0	 6.812499999999998e+00	 6.250000000000000e+00	 1.009394447692309e+01
0	 6.875000000000000e+00	 5.625000000000000e+00	 1.011384153846153e+01
0	 6.875000000000000e+00	 5.687500000000000e+00	 1.011150255384614e+01
0	 6.875000000000000e+00	 5.750000000000000e+00	 1.010918959999998e+01
0	 6.875000000000000e+00	 5.812499999999999e+00	 1.010690267692307e+01
0	 6.875000000000000e+00	 5.874999999999999e+00	 1.010464178461538e+01
0	 6.875000000000000e+00	 5.937499999999999e+00	 1.010240692307692e+01
0	 6.875000000000000e+00	 5.999999999999998e+00	 1.010019809230771e+01
0	 6.875000000000000e+00	 6.062499999999998e+00	 1.009801529230770e+01
0	 6.875000000000000e+00	 6.124999999999998e+00	 1.009585852307693e+01
0	 6.875000000000000e+00	 6.187499999999998e+00	 1.009372778461539e+01
0	 6.875000000000000e+00	 6.250000000000000e+00	 1.009162307692309e+01
0	 6.250000000000000e+00	 6.250000000000000e+00	 1.011244307692308e+01
0	 6.250000000000001e+00	 6.312500000000000e+00	 1.010952544615385e+01
0	 6.250000000000001e+00	 6.375000000000000e+00	 1.010661040000001e+01
0	 6.250000000000000e+00	 6.437499999999999e+00	 1.010369793846153e+01
0	 6.250000000000001e+00	 6.499999999999999e+00	 1.010078806153846e+01
0	 6.250000000000000e+00	 6.562499999999998e+00	 1.009788076923078e+01
0	 6.250000000000000e+00	 6.624999999999998e+00	 1.009497606153846e+01
0	 6.250000000000000e+00	 6.687499999999998e+00	 1.009207393846155e+01
0	 6.250000000000001e+00	 6.749999999999998e+00	 1.008917440000000e+01
0	 6.250000000000000e+00	 6.812499999999998e+00	 1.008627744615385e+01
0	 6.250000000000000e+00	 6.875000000000000e+00	 1.008338307692308e+01
0	 6.312500000000000e+00	 6.250000000000000e+00	 1.011060047692307e+01
0	 6.312499999999999e+00	 6.312500000000000e+00	 1.010775039538461e+01
0	 6.312499999999999e+00	 6.374999999999999e+00	 1.010490328615385e+01
0	 6.312499999999999e+00	 6.437500000000000e+00	 1.010205914923078e+01
0	 6.312499999999999e+00	 6.499999999999997e+00	 1.009921798461539e+01
0	 6.312500000000002e+00	 6.562500000000000e+00	 1.009637979230769e+01
0	 6.312500000000001e+00	 6.624999999999999e+00	 1.009354457230770e+01
0	 6.312500000000000e+00	 6.687499999999999e+00	 1.009071232461541e+01
0	 6.312500000000001e+00	 6.749999999999999e+00	 1.008788304923078e+01
0	 6.312499999999998e+00	 6.812499999999996e+00	 1.008505674615383e+01
0	 6.312500000000000e+00	 6.875000000000001e+00	 1.008223341538464e+01
0	 6.374999999999999e+00	 6.250000000000000e+00	 1.010870467692308e+01
0	 6.374999999999999e+00	 6.312499999999999e+00	 1.010592177846155e+01
0	 6.375000000000000e+00	 6.375000000000000e+00	 1.010314224000000e+01
0	 6.374999999999998e+00	 6.437499999999998e+00	 1.010036606153847e+01
0	 6.374999999999998e+00	 6.499999999999996e+00	 1.009759324307693e+01
0	 6.375000000000000e+00	 6.562499999999998e+00	 1.009482378461540e+01
0	 6.374999999999997e+00	 6.624999999999996e+00	 1.009205768615386e+01
0	 6.375000000000000e+00	 6.687499999999999e+00	 1.008929494769233e+01
0	 6.374999999999999e+00	 6.749999999999997e+00	 1.008653556923078e+01
0	 6.375000000000001e+00	 6.812500000000000e+00	 1.008377955076923e+01
0	 6.374999999999999e+00	 6.875000000000000e+00	 1.008102689230770e+01
0	 6.437499999999998e+00	 6.250000000000000e+00	 1.010675567692307e+01
0	 6.437499999999999e+00	 6.312499999999999e+00	 1.010403959538463e+01
0	 6.437500000000000e+00	 6.375000000000000e+00	 1.010132726153847e+01
0	 6.437500000000000e+00	 6.437500000000000e+00	 1.009861867538462e+01
0	 6.437499999999999e+00	 6.499999999999998e+00	 1.009591383692308e+01
0	 6.437499999999998e+00	 6.562499999999999e+00	 1.009321274615385e+01
0	 6.437499999999999e+00	 6.624999999999999e+00	 1.009051540307693e+01
0	 6.437499999999999e+00	 6.687499999999998e+00	 1.008782180769231e+01
0	 6.437499999999999e+00	 6.749999999999998e+00	 1.008513195999999e+01
0	 6.437499999999998e+00	 6.812499999999997e+00	 1.008244586000000e+01
0	 6.437499999999998e+00	 6.874999999999999e+00	 1.007976350769234e+01
0	 6.499999999999999e+00	 6.250000000000000e+00	 1.010475347692307e+01
0	 6.499999999999997e+00	 6.312499999999999e+00	 1.010210384615387e+01
0	 6.500000000000000e+00	 6.375000000000000e+00	 1.009945835076923e+01
0	 6.499999999999998e+00	 6.437499999999999e+00	 1.009681699076923e+01
0	 6.499999999999998e+00	 6.499999999999997e+00	 1.009417976615385e+01
0	 6.500000000000000e+00	 6.562499999999999e+00	 1.009154667692309e+01
0	 6.499999999999997e+00	 6.624999999999998e+00	 1.008891772307693e+01
0	 6.499999999999999e+00	 6.687499999999998e+00	 1.008629290461539e+01
0	 6.499999999999999e+00	 6.749999999999998e+00	 1.008367222153847e+01
0	 6.499999999999999e+00	 6.812499999999998e+00	 1.008105567384616e+01
0	 6.499999999999999e+00	 6.875000000000001e+00	 1.007844326153844e+01
0	 6.562499999999998e+00	 6.250000000000000e+00	 1.010269807692309e+01
0	 6.562499999999999e+00	 6.312500000000000e+00	 1.010011453076925e+01
0	 6.562499999999999e+00	 6.375000000000000e+00	 1.009753550769233e+01
0	 6.562499999999999e+00	 6.437499999999999e+00	 1.009496100769233e+01
0	 6.562499999999996e+00	 6.499999999999997e+00	 1.009239103076924e+01
0	 6.562499999999999e+00	 6.562499999999999e+00	 1.008982557692310e+01
0	 6.562500000000000e+00	 6.625000000000000e+00	 1.008726464615386e+01
0	 6.562499999999999e+00	 6.687499999999999e+00	 1.008470823846154e+01
0	 6.562499999999999e+00	 6.749999999999999e+00	 1.008215635384616e+01
0	 6.562500000000000e+00	 6.812499999999998e+00	 1.007960899230767e+01
0	 6.562499999999998e+00	 6.875000000000000e+00	 1.007706615384616e+01
0	 6.624999999999998e+00	 6.250000000000000e+00	 1.010058947692308e+01
0	 6.624999999999998e+00	 6.312499999999999e+00	 1.009807164923079e+01
0	 6.624999999999997e+00	 6.374999999999997e+00	 1.009555873230769e+01
0	 6.624999999999999e+00	 6.437499999999999e+00	 1.009305072615385e+01
0	 6.625000000000000e+00	 6.500000000000000e+00	 1.009054763076924e+01
0	 6.625000000000001e+00	 6.562500000000001e+00	 1.008804944615385e+01
0	 6.624999999999998e+00	 6.624999999999998e+00	 1.008555617230770e+01
0	 6.624999999999999e+00	 6.687499999999999e+00	 1.008306780923078e+01
0	 6.624999999999999e+00	 6.749999999999999e+00	 1.008058435692306e+01
0	 6.624999999999999e+00	 6.812499999999998e+00	 1.007810581538461e+01
0	 6.624999999999998e+00	 6.875000000000000e+00	 1.007563218461540e+01
0	 6.687499999999996e+00	 6.250000000000000e+00	 1.009842767692311e+01
0	 6.687499999999997e+00	 6.312499999999999e+00	 1.009597520153847e+01
0	 6.687499999999998e+00	 6.375000000000001e+00	 1.009352802461540e+01
0	 6.687499999999998e+00	 6.437499999999999e+00	 1.009108614615385e+01
0	 6.687499999999999e+00	 6.500000000000000e+00	 1.008864956615386e+01
0	 6.687499999999999e+00	 6.562499999999999e+00	 1.008621828461539e+01
0	 6.687499999999999e+00	 6.624999999999999e+00	 1.008379230153847e+01
0	 6.687499999999999e+00	 6.687499999999999e+00	 1.008137161692309e+01
0	 6.687499999999999e+00	 6.749999999999998e+00	 1.007895623076924e+01
0	 6.687499999999999e+00	 6.812499999999999e+00	 1.007654614307693e+01
0	 6.687499999999996e+00	 6.875000000000000e+00	 1.007414135384617e+01
0	 6.749999999999998e+00	 6.250000000000000e+00	 1.009621267692309e+01
0	 6.749999999999999e+00	 6.312500000000001e+00	 1.009382518769231e+01
0	 6.749999999999998e+00	 6.374999999999999e+00	 1.009144338461540e+01
0	 6.750000000000000e+00	 6.437500000000000e+00	 1.008906726769231e+01
0	 6.749999999999999e+00	 6.499999999999999e+00	 1.008669683692309e+01
0	 6.749999999999998e+00	 6.562499999999999e+00	 1.008433209230770e+01
0	 6.749999999999998e+00	 6.624999999999998e+00	 1.008197303384616e+01
0	 6.749999999999998e+00	 6.687499999999998e+00	 1.007961966153847e+01
0	 6.750000000000000e+00	 6.749999999999998e+00	 1.007727197538462e+01
0	 6.749999999999999e+00	 6.812499999999998e+00	 1.007492997538461e+01
0	 6.749999999999998e+00	 6.875000000000000e+00	 1.007259366153847e+01
0	 6.812499999999998e+00	 6.250000000000000e+00	 1.009394447692309e+01
0	 6.812499999999998e+00	 6.312500000000000e+00	 1.009162160769233e+01
0	 6.812499999999999e+00	 6.375000000000000e+00	 1.008930481230770e+01
0	 6.812499999999998e+00	 6.437499999999999e+00	 1.008699409076922e+01
0	 6.812499999999998e+00	 6.499999999999998e+00	 1.008468944307693e+01
0	 6.812499999999998e+00	 6.562499999999998e+00	 1.008239086923077e+01
0	 6.812499999999997e+00	 6.624999999999998e+00	 1.008009836923077e+01
0	 6.812499999999998e+00	 6.687499999999998e+00	 1.007781194307693e+01
0	 6.812499999999997e+00	 6.749999999999999e+00	 1.007553159076923e+01
0	 6.812499999999997e+00	 6.812499999999997e+00	 1.007325731230770e+01
0	 6.812499999999998e+00	 6.875000000000000e+00	 1.007098910769230e+01
0	 6.875000000000000e+00	 6.250000000000000e+00	 1.009162307692309e+01
0	 6.875000000000000e+00	 6.312500000000000e+00	 1.008936446153847e+01
0	 6.875000000000000e+00	 6.375000000000000e+00	 1.008711230769232e+01
0	 6.875000000000000e+00	 6.437499999999999e+00	 1.008486661538462e+01
0	 6.875000000000000e+00	 6.499999999999999e+00	 1.008262738461540e+01
0	 6.875000000000000e+00	 6.562499999999998e+00	 1.008039461538462e+01
0	 6.875000000000000e+00	 6.624999999999998e+00	 1.007816830769231e+01
0	 6.875000000000000e+00	 6.687499999999998e+00	 1.007594846153847e+01
0	 6.875000000000000e+00	 6.749999999999998e+00	 1.007373507692307e+01
0	 6.875000000000000e+00	 6.812499999999998e+00	 1.007152815384615e+01
0	 6.875000000000000e+00	 6.875000000000000e+00	 1.006932769230769e+01
0	 6.250000000000000e+00	 6.875000000000000e+00	 1.008338307692308e+01
0	 6.250000000000001e+00	 6.937500000000000e+00	 1.008083192307692e+01
0	 6.250000000000001e+00	 7.000000000000000e+00	 1.007826461538460e+01
0	 6.250000000000000e+00	 7.062500000000000e+00	 1.007568115384617e+01
0	 6.250000000000001e+00	 7.125000000000000e+00	 1.007308153846154e+01
0	 6.250000000000000e+00	 7.187499999999998e+00	 1.007046576923076e+01
0	 6.250000000000000e+00	 7.249999999999998e+00	 1.006783384615385e+01
0	 6.250000000000000e+00	 7.312499999999998e+00	 1.006518576923076e+01
0	 6.250000000000001e+00	 7.374999999999998e+00	 1.006252153846153e+01
0	 6.250000000000000e+00	 7.437499999999998e+00	 1.005984115384615e+01
0	 6.250000000000000e+00	 7.500000000000000e+00	 1.005714461538460e+01
0	 6.312500000000000e+00	 6.875000000000001e+00	 1.008223341538464e+01
0	 6.312499999999999e+00	 6.937499999999999e+00	 1.007972739538460e+01
0	 6.312499999999999e+00	 6.999999999999999e+00	 1.007720585846156e+01
0	 6.312499999999999e+00	 7.062500000000000e+00	 1.007466880461538e+01
0	 6.312499999999999e+00	 7.124999999999998e+00	 1.007211623384615e+01
0	 6.312500000000002e+00	 7.187499999999999e+00	 1.006954814615383e+01
0	 6.312500000000001e+00	 7.250000000000000e+00	 1.006696454153845e+01
0	 6.312500000000000e+00	 7.312499999999999e+00	 1.006436541999999e+01
0	 6.312500000000001e+00	 7.374999999999999e+00	 1.006175078153846e+01
0	 6.312499999999998e+00	 7.437499999999996e+00	 1.005912062615383e+01
0	 6.312500000000000e+00	 7.500000000000000e+00	 1.005647495384613e+01
0	 6.374999999999999e+00	 6.875000000000000e+00	 1.008102689230770e+01
0	 6.374999999999999e+00	 6.937499999999999e+00	 1.007856665230769e+01
0	 6.375000000000000e+00	 7.000000000000001e+00	 1.007609153230769e+01
0	 6.374999999999998e+00	 7.062499999999999e+00	 1.007360153230769e+01
0	 6.374999999999998e+00	 7.124999999999998e+00	 1.007109665230769e+01
0	 6.375000000000000e+00	 7.187499999999999e+00	 1.006857689230769e+01
0	 6.374999999999997e+00	 7.249999999999996e+00	 1.006604225230769e+01
0	 6.375000000000000e+00	 7.312499999999998e+00	 1.006349273230769e+01
0	 6.374999999999999e+00	 7.374999999999997e+00	 1.006092833230766e+01
0	 6.375000000000001e+00	 7.437500000000000e+00	 1.005834905230769e+01
0	 6.374999999999999e+00	 7.499999999999999e+00	 1.005575489230767e+01
0	 6.437499999999998e+00	 6.874999999999999e+00	 1.007976350769234e+01
0	 6.437499999999999e+00	 6.937499999999999e+00	 1.007734969384616e+01
0	 6.437500000000000e+00	 7.000000000000000e+00	 1.007492163692309e+01
0	 6.437500000000000e+00	 7.062500000000000e+00	 1.007247933692306e+01
0	 6.437499999999999e+00	 7.124999999999999e+00	 1.007002279384616e+01
0	 6.437499999999998e+00	 7.187499999999999e+00	 1.006755200769230e+01
0	 6.437499999999999e+00	 7.250000000000000e+00	 1.006506697846152e+01
0	 6.437499999999999e+00	 7.312499999999999e+00	 1.006256770615384e+01
0	 6.437499999999999e+00	 7.374999999999997e+00	 1.006005419076922e+01
0	 6.437499999999998e+00	 7.437499999999998e+00	 1.005752643230766e+01
0	 6.437499999999998e+00	 7.500000000000000e+00	 1.005498443076921e+01
0	 6.499999999999999e+00	 6.875000000000001e+00	 1.007844326153844e+01
0	 6.499999999999997e+00	 6.937499999999999e+00	 1.007607651999999e+01
0	 6.500000000000000e+00	 7.000000000000001e+00	 1.007369617230769e+01
0	 6.499999999999998e+00	 7.062500000000000e+00	 1.007130221846154e+01
0	 6.499999999999998e+00	 7.124999999999999e+00	 1.006889465846153e+01
0	 6.500000000000000e+00	 7.187499999999999e+00	 1.006647349230768e+01
0	 6.499999999999997e+00	 7.249999999999997e+00	 1.006403872000000e+01
0	 6.499999999999999e+00	 7.312499999999998e+00	 1.006159034153845e+01
0	 6.499999999999999e+00	 7.374999999999999e+00	 1.005912835692307e+01
0	 6.499999999999999e+00	 7.437499999999998e+00	 1.005665276615382e+01
0	 6.499999999999999e+00	 7.500000000000000e+00	 1.005416356923077e+01
0	 6.562499999999998e+00	 6.875000000000000e+00	 1.007706615384616e+01
0	 6.562499999999999e+00	 6.937500000000000e+00	 1.007474713076924e+01
0	 6.562499999999999e+00	 7.000000000000000e+00	 1.007241513846155e+01
0	 6.562499999999999e+00	 7.062500000000000e+00	 1.007007017692307e+01
0	 6.562499999999996e+00	 7.124999999999997e+00	 1.006771224615384e+01
0	 6.562499999999999e+00	 7.187499999999999e+00	 1.006534134615383e+01
0	 6.562500000000000e+00	 7.249999999999999e+00	 1.006295747692306e+01
0	 6.562499999999999e+00	 7.312499999999998e+00	 1.006056063846152e+01
0	 6.562499999999999e+00	 7.374999999999997e+00	 1.005815083076924e+01
0	 6.562500000000000e+00	 7.437499999999998e+00	 1.005572805384615e+01
0	 6.562499999999998e+00	 7.500000000000000e+00	 1.005329230769229e+01
0	 6.624999999999998e+00	 6.875000000000000e+00	 1.007563218461540e+01
0	 6.624999999999998e+00	 6.937500000000000e+00	 1.007336152615387e+01
0	 6.624999999999997e+00	 6.999999999999998e+00	 1.007107853538462e+01
0	 6.624999999999999e+00	 7.062500000000000e+00	 1.006878321230769e+01
0	 6.625000000000000e+00	 7.125000000000000e+00	 1.006647555692309e+01
0	 6.625000000000001e+00	 7.187500000000000e+00	 1.006415556923076e+01
0	 6.624999999999998e+00	 7.249999999999998e+00	 1.006182324923076e+01
0	 6.624999999999999e+00	 7.312499999999999e+00	 1.005947859692309e+01
0	 6.624999999999999e+00	 7.374999999999999e+00	 1.005712161230770e+01
0	 6.624999999999999e+00	 7.437499999999998e+00	 1.005475229538459e+01
0	 6.624999999999998e+00	 7.499999999999999e+00	 1.005237064615383e+01
0	 6.687499999999996e+00	 6.875000000000000e+00	 1.007414135384617e+01
0	 6.687499999999997e+00	 6.937499999999999e+00	 1.007191970615386e+01
0	 6.687499999999998e+00	 7.000000000000001e+00	 1.006968636307691e+01
0	 6.687499999999998e+00	 7.062499999999999e+00	 1.006744132461537e+01
0	 6.687499999999999e+00	 7.124999999999999e+00	 1.006518459076923e+01
0	 6.687499999999999e+00	 7.187500000000000e+00	 1.006291616153845e+01
0	 6.687499999999999e+00	 7.249999999999999e+00	 1.006063603692307e+01
0	 6.687499999999999e+00	 7.312500000000000e+00	 1.005834421692308e+01
0	 6.687499999999999e+00	 7.374999999999998e+00	 1.005604070153846e+01
0	 6.687499999999999e+00	 7.437499999999999e+00	 1.005372549076922e+01
0	 6.687499999999996e+00	 7.499999999999998e+00	 1.005139858461537e+01
0	 6.749999999999998e+00	 6.875000000000000e+00	 1.007259366153847e+01
0	 6.749999999999999e+00	 6.937500000000001e+00	 1.007042167076924e+01
0	 6.749999999999998e+00	 6.999999999999998e+00	 1.006823862153847e+01
0	 6.750000000000000e+00	 7.062500000000000e+00	 1.006604451384616e+01
0	 6.749999999999999e+00	 7.125000000000000e+00	 1.006383934769232e+01
0	 6.749999999999998e+00	 7.187500000000000e+00	 1.006162312307693e+01
0	 6.749999999999998e+00	 7.250000000000000e+00	 1.005939584000001e+01
0	 6.749999999999998e+00	 7.312499999999999e+00	 1.005715749846153e+01
0	 6.750000000000000e+00	 7.374999999999998e+00	 1.005490809846154e+01
0	 6.749999999999999e+00	 7.437499999999998e+00	 1.005264764000000e+01
0	 6.749999999999998e+00	 7.500000000000000e+00	 1.005037612307691e+01
0	 6.812499999999998e+00	 6.875000000000000e+00	 1.007098910769230e+01
0	 6.812499999999998e+00	 6.937500000000001e+00	 1.006886741999999e+01
0	 6.812499999999999e+00	 7.000000000000001e+00	 1.006673531076924e+01
0	 6.812499999999998e+00	 7.062500000000000e+00	 1.006459278000000e+01
0	 6.812499999999998e+00	 7.124999999999999e+00	 1.006243982769232e+01
0	 6.812499999999998e+00	 7.187499999999998e+00	 1.006027645384614e+01
0	 6.812499999999997e+00	 7.249999999999999e+00	 1.005810265846153e+01
0	 6.812499999999998e+00	 7.312499999999998e+00	 1.005591844153846e+01
0	 6.812499999999997e+00	 7.374999999999998e+00	 1.005372380307692e+01
0	 6.812499999999997e+00	 7.437499999999998e+00	 1.005151874307692e+01
0	 6.812499999999998e+00	 7.500000000000000e+00	 1.004930326153847e+01
0	 6.875000000000000e+00	 6.875000000000000e+00	 1.006932769230769e+01
0	 6.875000000000000e+00	 6.937500000000000e+00	 1.006725695384615e+01
0	 6.875000000000000e+00	 7.000000000000000e+00	 1.006517643076921e+01
0	 6.875000000000000e+00	 7.062500000000000e+00	 1.006308612307692e+01
0	 6.875000000000000e+00	 7.125000000000000e+00	 1.006098603076922e+01
0	 6.875000000000000e+00	 7.187499999999998e+00	 1.005887615384615e+01
0	 6.875000000000000e+00	 7.249999999999998e+00	 1.005675649230771e+01
0	 6.875000000000000e+00	 7.312499999999998e+00	 1.005462704615385e+01
0	 6.875000000000000e+00	 7.374999999999998e+00	 1.005248781538461e+01
0	 6.875000000000000e+00	 7.437499999999998e+00	 1.005033879999999e+01
0	 6.875000000000000e+00	 7.500000000000000e+00	 1.004818000000000e+01
0	 6.250000000000000e+00	 7.500000000000000e+00	 1.005714461538460e+01
0	 6.250000000000001e+00	 7.562500000000000e+00	 1.005502013846152e+01
0	 6.250000000000001e+00	 7.625000000000000e+00	 1.005286270769232e+01
0	 6.250000000000000e+00	 7.687499999999999e+00	 1.005067232307691e+01
0	 6.250000000000001e+00	 7.750000000000000e+00	 1.004844898461539e+01
0	 6.250000000000000e+00	 7.812499999999999e+00	 1.004619269230768e+01
0	 6.250000000000000e+00	 7.874999999999998e+00	 1.004390344615383e+01
0	 6.250000000000000e+00	 7.937499999999997e+00	 1.004158124615383e+01
0	 6.250000000000001e+00	 7.999999999999998e+00	 1.003922609230769e+01
0	 6.250000000000000e+00	 8.062499999999996e+00	 1.003683798461537e+01
0	 6.250000000000000e+00	 8.125000000000000e+00	 1.003441692307692e+01
0	 6.312500000000000e+00	 7.500000000000000e+00	 1.005647495384613e+01
0	 6.312499999999999e+00	 7.562499999999999e+00	 1.005438221999997e+01
0	 6.312499999999999e+00	 7.624999999999998e+00	 1.005225715076922e+01
0	 6.312499999999999e+00	 7.687499999999998e+00	 1.005009974615384e+01
0	 6.312499999999999e+00	 7.750000000000000e+00	 1.004791000615383e+01
0	 6.312500000000002e+00	 7.812500000000000e+00	 1.004568793076922e+01
0	 6.312500000000001e+00	 7.874999999999999e+00	 1.004343351999999e+01
0	 6.312500000000000e+00	 7.937499999999998e+00	 1.004114677384615e+01
0	 6.312500000000001e+00	 8.000000000000000e+00	 1.003882769230768e+01
0	 6.312499999999998e+00	 8.062499999999995e+00	 1.003647627538462e+01
0	 6.312500000000000e+00	 8.125000000000000e+00	 1.003409252307692e+01
0	 6.374999999999999e+00	 7.499999999999999e+00	 1.005575489230767e+01
0	 6.374999999999999e+00	 7.562500000000001e+00	 1.005369467692307e+01
0	 6.375000000000000e+00	 7.625000000000001e+00	 1.005160274461537e+01
0	 6.374999999999998e+00	 7.687500000000001e+00	 1.004947909538460e+01
0	 6.374999999999998e+00	 7.749999999999998e+00	 1.004732372923077e+01
0	 6.375000000000000e+00	 7.812499999999998e+00	 1.004513664615384e+01
0	 6.374999999999997e+00	 7.874999999999996e+00	 1.004291784615383e+01
0	 6.375000000000000e+00	 7.937499999999998e+00	 1.004066732923076e+01
0	 6.374999999999999e+00	 7.999999999999999e+00	 1.003838509538460e+01
0	 6.375000000000001e+00	 8.062499999999998e+00	 1.003607114461537e+01
0	 6.374999999999999e+00	 8.125000000000000e+00	 1.003372547692307e+01
0	 6.437499999999998e+00	 7.500000000000000e+00	 1.005498443076921e+01
0	 6.437499999999999e+00	 7.562500000000001e+00	 1.005295750923076e+01
0	 6.437500000000000e+00	 7.625000000000001e+00	 1.005089948923076e+01
0	 6.437500000000000e+00	 7.687500000000000e+00	 1.004881037076921e+01
0	 6.437499999999999e+00	 7.749999999999999e+00	 1.004669015384614e+01
0	 6.437499999999998e+00	 7.812499999999999e+00	 1.004453883846153e+01
0	 6.437499999999999e+00	 7.874999999999998e+00	 1.004235642461538e+01
0	 6.437499999999999e+00	 7.937499999999998e+00	 1.004014291230771e+01
0	 6.437499999999999e+00	 7.999999999999998e+00	 1.003789830153847e+01
0	 6.437499999999998e+00	 8.062499999999996e+00	 1.003562259230768e+01
0	 6.437499999999998e+00	 8.125000000000000e+00	 1.003331578461538e+01
0	 6.499999999999999e+00	 7.500000000000000e+00	 1.005416356923077e+01
0	 6.499999999999997e+00	 7.562500000000000e+00	 1.005217071692305e+01
0	 6.500000000000000e+00	 7.625000000000000e+00	 1.005014738461538e+01
0	 6.499999999999998e+00	 7.687500000000000e+00	 1.004809357230768e+01
0	 6.499999999999998e+00	 7.749999999999998e+00	 1.004600927999998e+01
0	 6.500000000000000e+00	 7.812500000000000e+00	 1.004389450769231e+01
0	 6.499999999999997e+00	 7.874999999999998e+00	 1.004174925538460e+01
0	 6.499999999999999e+00	 7.937499999999999e+00	 1.003957352307690e+01
0	 6.499999999999999e+00	 7.999999999999997e+00	 1.003736731076921e+01
0	 6.499999999999999e+00	 8.062500000000000e+00	 1.003513061846154e+01
0	 6.499999999999999e+00	 8.125000000000000e+00	 1.003286344615384e+01
0	 6.562499999999998e+00	 7.500000000000000e+00	 1.005329230769229e+01
0	 6.562499999999999e+00	 7.562499999999999e+00	 1.005133429999998e+01
0	 6.562499999999999e+00	 7.624999999999999e+00	 1.004934643076921e+01
0	 6.562499999999999e+00	 7.687500000000000e+00	 1.004732869999997e+01
0	 6.562499999999996e+00	 7.749999999999996e+00	 1.004528110769230e+01
0	 6.562499999999999e+00	 7.812499999999999e+00	 1.004320365384615e+01
0	 6.562500000000000e+00	 7.875000000000000e+00	 1.004109633846153e+01
0	 6.562499999999999e+00	 7.937499999999999e+00	 1.003895916153846e+01
0	 6.562499999999999e+00	 7.999999999999998e+00	 1.003679212307692e+01
0	 6.562500000000000e+00	 8.062500000000000e+00	 1.003459522307693e+01
0	 6.562499999999998e+00	 8.125000000000000e+00	 1.003236846153846e+01
0	 6.624999999999998e+00	 7.499999999999999e+00	 1.005237064615383e+01
0	 6.624999999999998e+00	 7.562500000000000e+00	 1.005044825846153e+01
0	 6.624999999999997e+00	 7.624999999999998e+00	 1.004849662769229e+01
0	 6.624999999999999e+00	 7.687499999999998e+00	 1.004651575384616e+01
0	 6.625000000000000e+00	 7.750000000000001e+00	 1.004450563692307e+01
0	 6.625000000000001e+00	 7.812500000000000e+00	 1.004246627692308e+01
0	 6.624999999999998e+00	 7.874999999999998e+00	 1.004039767384616e+01
0	 6.624999999999999e+00	 7.937499999999999e+00	 1.003829982769231e+01
0	 6.624999999999999e+00	 8.000000000000000e+00	 1.003617273846153e+01
0	 6.624999999999999e+00	 8.062499999999998e+00	 1.003401640615384e+01
0	 6.624999999999998e+00	 8.125000000000000e+00	 1.003183083076924e+01
0	 6.687499999999996e+00	 7.499999999999998e+00	 1.005139858461537e+01
0	 6.687499999999997e+00	 7.562500000000000e+00	 1.004951259230768e+01
0	 6.687499999999998e+00	 7.624999999999999e+00	 1.004759797538462e+01
0	 6.687499999999998e+00	 7.687500000000000e+00	 1.004565473384614e+01
0	 6.687499999999999e+00	 7.749999999999998e+00	 1.004368286769230e+01
0	 6.687499999999999e+00	 7.812500000000000e+00	 1.004168237692307e+01
0	 6.687499999999999e+00	 7.874999999999999e+00	 1.003965326153847e+01
0	 6.687499999999999e+00	 7.937500000000000e+00	 1.003759552153845e+01
0	 6.687499999999999e+00	 7.999999999999998e+00	 1.003550915692308e+01
0	 6.687499999999999e+00	 8.062500000000000e+00	 1.003339416769230e+01
0	 6.687499999999996e+00	 8.125000000000000e+00	 1.003125055384615e+01
0	 6.749999999999998e+00	 7.500000000000000e+00	 1.005037612307691e+01
0	 6.749999999999999e+00	 7.562500000000001e+00	 1.004852730153844e+01
0	 6.749999999999998e+00	 7.625000000000000e+00	 1.004665047384614e+01
0	 6.750000000000000e+00	 7.687500000000001e+00	 1.004474564000001e+01
0	 6.749999999999999e+00	 7.749999999999999e+00	 1.004281280000000e+01
0	 6.749999999999998e+00	 7.812499999999998e+00	 1.004085195384617e+01
0	 6.749999999999998e+00	 7.875000000000000e+00	 1.003886310153847e+01
0	 6.749999999999998e+00	 7.937499999999998e+00	 1.003684624307692e+01
0	 6.750000000000000e+00	 7.999999999999998e+00	 1.003480137846154e+01
0	 6.749999999999999e+00	 8.062500000000000e+00	 1.003272850769231e+01
0	 6.749999999999998e+00	 8.125000000000000e+00	 1.003062763076924e+01
0	 6.812499999999998e+00	 7.500000000000000e+00	 1.004930326153847e+01
0	 6.812499999999998e+00	 7.562500000000001e+00	 1.004749238615383e+01
0	 6.812499999999999e+00	 7.624999999999999e+00	 1.004565412307693e+01
0	 6.812499999999998e+00	 7.687499999999999e+00	 1.004378847230770e+01
0	 6.812499999999998e+00	 7.750000000000000e+00	 1.004189543384616e+01
0	 6.812499999999998e+00	 7.812499999999999e+00	 1.003997500769230e+01
0	 6.812499999999997e+00	 7.874999999999998e+00	 1.003802719384614e+01
0	 6.812499999999998e+00	 7.937499999999998e+00	 1.003605199230768e+01
0	 6.812499999999997e+00	 7.999999999999998e+00	 1.003404940307691e+01
0	 6.812499999999997e+00	 8.062499999999998e+00	 1.003201942615383e+01
0	 6.812499999999998e+00	 8.125000000000000e+00	 1.002996206153846e+01
0	 6.875000000000000e+00	 7.500000000000000e+00	 1.004818000000000e+01
0	 6.875000000000000e+00	 7.562500000000000e+00	 1.004640784615385e+01
0	 6.875000000000000e+00	 7.625000000000000e+00	 1.004460892307695e+01
0	 6.875000000000000e+00	 7.687499999999999e+00	 1.004278323076923e+01
0	 6.875000000000000e+00	 7.750000000000000e+00	 1.004093076923078e+01
0	 6.875000000000000e+00	 7.812499999999999e+00	 1.003905153846154e+01
0	 6.875000000000000e+00	 7.874999999999998e+00	 1.003714553846154e+01
0	 6.875000000000000e+00	 7.937499999999997e+00	 1.003521276923076e+01
0	 6.875000000000000e+00	 7.999999999999998e+00	 1.003325323076924e+01
0	 6.875000000000000e+00	 8.062499999999996e+00	 1.003126692307693e+01
0	 6.875000000000000e+00	 8.125000000000000e+00	 1.002925384615384e+01
0	 6.250000000000000e+00	 8.125000000000000e+00	 1.003441692307692e+01
0	 6.250000000000001e+00	 8.187500000000000e+00	 1.003281344615385e+01
0	 6.250000000000001e+00	 8.250000000000002e+00	 1.003115716923075e+01
0	 6.250000000000000e+00	 8.312500000000000e+00	 1.002944809230770e+01
0	 6.250000000000001e+00	 8.374999999999998e+00	 1.002768621538460e+01
0	 6.250000000000000e+00	 8.437500000000000e+00	 1.002587153846154e+01
0	 6.250000000000000e+00	 8.500000000000000e+00	 1.002400406153846e+01
0	 6.250000000000000e+00	 8.562499999999998e+00	 1.002208378461537e+01
0	 6.250000000000001e+00	 8.625000000000000e+00	 1.002011070769231e+01
0	 6.250000000000000e+00	 8.687499999999998e+00	 1.001808483076919e+01
0	 6.250000000000000e+00	 8.750000000000000e+00	 1.001600615384615e+01
0	 6.312500000000000e+00	 8.125000000000000e+00	 1.003409252307692e+01
0	 6.312499999999999e+00	 8.187500000000002e+00	 1.003251118461538e+01
0	 6.312499999999999e+00	 8.250000000000000e+00	 1.003087781230769e+01
0	 6.312499999999999e+00	 8.312499999999998e+00	 1.002919240615384e+01
0	 6.312499999999999e+00	 8.374999999999998e+00	 1.002745496615385e+01
0	 6.312500000000002e+00	 8.437500000000000e+00	 1.002566549230767e+01
0	 6.312500000000001e+00	 8.500000000000002e+00	 1.002382398461538e+01
0	 6.312500000000000e+00	 8.562500000000000e+00	 1.002193044307691e+01
0	 6.312500000000001e+00	 8.625000000000002e+00	 1.001998486769230e+01
0	 6.312499999999998e+00	 8.687499999999996e+00	 1.001798725846153e+01
0	 6.312500000000000e+00	 8.750000000000002e+00	 1.001593761538460e+01
0	 6.374999999999999e+00	 8.125000000000000e+00	 1.003372547692307e+01
0	 6.374999999999999e+00	 8.187499999999998e+00	 1.003216677230770e+01
0	 6.375000000000000e+00	 8.250000000000000e+00	 1.003055679999998e+01
0	 6.374999999999998e+00	 8.312500000000000e+00	 1.002889555999998e+01
0	 6.374999999999998e+00	 8.374999999999998e+00	 1.002718305230769e+01
0	 6.375000000000000e+00	 8.437499999999998e+00	 1.002541927692308e+01
0	 6.374999999999997e+00	 8.499999999999996e+00	 1.002360423384616e+01
0	 6.375000000000000e+00	 8.562500000000002e+00	 1.002173792307693e+01
0	 6.374999999999999e+00	 8.624999999999998e+00	 1.001982034461539e+01
0	 6.375000000000001e+00	 8.687499999999998e+00	 1.001785149846155e+01
0	 6.374999999999999e+00	 8.750000000000000e+00	 1.001583138461534e+01
0	 6.437499999999998e+00	 8.125000000000000e+00	 1.003331578461538e+01
0	 6.437499999999999e+00	 8.187500000000000e+00	 1.003178020923079e+01
0	 6.437500000000000e+00	 8.250000000000002e+00	 1.003019413230769e+01
0	 6.437500000000000e+00	 8.312499999999998e+00	 1.002855755384617e+01
0	 6.437499999999999e+00	 8.374999999999998e+00	 1.002687047384615e+01
0	 6.437499999999998e+00	 8.437500000000000e+00	 1.002513289230768e+01
0	 6.437499999999999e+00	 8.499999999999998e+00	 1.002334480923076e+01
0	 6.437499999999999e+00	 8.562500000000000e+00	 1.002150622461537e+01
0	 6.437499999999999e+00	 8.625000000000000e+00	 1.001961713846152e+01
0	 6.437499999999998e+00	 8.687499999999996e+00	 1.001767755076922e+01
0	 6.437499999999998e+00	 8.750000000000000e+00	 1.001568746153844e+01
0	 6.499999999999999e+00	 8.125000000000000e+00	 1.003286344615384e+01
0	 6.499999999999997e+00	 8.187499999999998e+00	 1.003135149538460e+01
0	 6.500000000000000e+00	 8.250000000000002e+00	 1.002978980923077e+01
0	 6.499999999999998e+00	 8.312500000000000e+00	 1.002817838769230e+01
0	 6.499999999999998e+00	 8.374999999999998e+00	 1.002651723076923e+01
0	 6.500000000000000e+00	 8.437500000000000e+00	 1.002480633846153e+01
0	 6.499999999999997e+00	 8.499999999999998e+00	 1.002304571076920e+01
0	 6.499999999999999e+00	 8.562499999999998e+00	 1.002123534769231e+01
0	 6.499999999999999e+00	 8.624999999999998e+00	 1.001937524923074e+01
0	 6.499999999999999e+00	 8.687499999999996e+00	 1.001746541538459e+01
0	 6.499999999999999e+00	 8.749999999999998e+00	 1.001550584615383e+01
0	 6.562499999999998e+00	 8.125000000000000e+00	 1.003236846153846e+01
0	 6.562499999999999e+00	 8.187499999999998e+00	 1.003088063076920e+01
0	 6.562499999999999e+00	 8.249999999999998e+00	 1.002934383076924e+01
0	 6.562499999999999e+00	 8.312500000000000e+00	 1.002775806153846e+01
0	 6.562499999999996e+00	 8.374999999999998e+00	 1.002612332307692e+01
0	 6.562499999999999e+00	 8.437499999999998e+00	 1.002443961538460e+01
0	 6.562500000000000e+00	 8.500000000000002e+00	 1.002270693846152e+01
0	 6.562499999999999e+00	 8.562499999999998e+00	 1.002092529230767e+01
0	 6.562499999999999e+00	 8.624999999999998e+00	 1.001909467692308e+01
0	 6.562500000000000e+00	 8.687500000000000e+00	 1.001721509230765e+01
0	 6.562499999999998e+00	 8.750000000000000e+00	 1.001528653846153e+01
0	 6.624999999999998e+00	 8.125000000000000e+00	 1.003183083076924e+01
0	 6.624999999999998e+00	 8.187500000000000e+00	 1.003036761538461e+01
0	 6.624999999999997e+00	 8.249999999999998e+00	 1.002885619692308e+01
0	 6.624999999999999e+00	 8.312500000000000e+00	 1.002729657538461e+01
0	 6.625000000000000e+00	 8.375000000000002e+00	 1.002568875076923e+01
0	 6.625000000000001e+00	 8.437500000000002e+00	 1.002403272307692e+01
0	 6.624999999999998e+00	 8.499999999999998e+00	 1.002232849230768e+01
0	 6.624999999999999e+00	 8.562500000000000e+00	 1.002057605846155e+01
0	 6.624999999999999e+00	 8.624999999999998e+00	 1.001877542153846e+01
0	 6.624999999999999e+00	 8.687499999999998e+00	 1.001692658153844e+01
0	 6.624999999999998e+00	 8.750000000000000e+00	 1.001502953846153e+01
0	 6.687499999999996e+00	 8.125000000000000e+00	 1.003125055384615e+01
0	 6.687499999999997e+00	 8.187500000000000e+00	 1.002981244923077e+01
0	 6.687499999999998e+00	 8.250000000000000e+00	 1.002832690769229e+01
0	 6.687499999999998e+00	 8.312500000000000e+00	 1.002679392923075e+01
0	 6.687499999999999e+00	 8.374999999999998e+00	 1.002521351384615e+01
0	 6.687499999999999e+00	 8.437500000000000e+00	 1.002358566153845e+01
0	 6.687499999999999e+00	 8.500000000000000e+00	 1.002191037230767e+01
0	 6.687499999999999e+00	 8.562499999999998e+00	 1.002018764615384e+01
0	 6.687499999999999e+00	 8.624999999999998e+00	 1.001841748307690e+01
0	 6.687499999999999e+00	 8.687500000000000e+00	 1.001659988307692e+01
0	 6.687499999999996e+00	 8.750000000000000e+00	 1.001473484615384e+01
0	 6.749999999999998e+00	 8.125000000000000e+00	 1.003062763076924e+01
0	 6.749999999999999e+00	 8.187500000000002e+00	 1.002921513230768e+01
0	 6.749999999999998e+00	 8.250000000000000e+00	 1.002775596307693e+01
0	 6.750000000000000e+00	 8.312500000000000e+00	 1.002625012307694e+01
0	 6.749999999999999e+00	 8.375000000000002e+00	 1.002469761230770e+01
0	 6.749999999999998e+00	 8.437500000000000e+00	 1.002309843076923e+01
0	 6.749999999999998e+00	 8.500000000000000e+00	 1.002145257846154e+01
0	 6.749999999999998e+00	 8.562499999999996e+00	 1.001976005538462e+01
0	 6.750000000000000e+00	 8.624999999999998e+00	 1.001802086153845e+01
0	 6.749999999999999e+00	 8.687499999999998e+00	 1.001623499692306e+01
0	 6.749999999999998e+00	 8.750000000000002e+00	 1.001440246153846e+01
0	 6.812499999999998e+00	 8.125000000000000e+00	 1.002996206153846e+01
0	 6.812499999999998e+00	 8.187500000000000e+00	 1.002857566461539e+01
0	 6.812499999999999e+00	 8.250000000000002e+00	 1.002714336307694e+01
0	 6.812499999999998e+00	 8.312499999999998e+00	 1.002566515692309e+01
0	 6.812499999999998e+00	 8.374999999999998e+00	 1.002414104615384e+01
0	 6.812499999999998e+00	 8.437499999999998e+00	 1.002257103076922e+01
0	 6.812499999999997e+00	 8.499999999999998e+00	 1.002095511076921e+01
0	 6.812499999999998e+00	 8.562499999999998e+00	 1.001929328615384e+01
0	 6.812499999999997e+00	 8.624999999999998e+00	 1.001758555692308e+01
0	 6.812499999999997e+00	 8.687499999999998e+00	 1.001583192307691e+01
0	 6.812499999999998e+00	 8.750000000000000e+00	 1.001403238461539e+01
0	 6.875000000000000e+00	 8.125000000000000e+00	 1.002925384615384e+01
0	 6.875000000000000e+00	 8.187500000000000e+00	 1.002789404615385e+01
0	 6.875000000000000e+00	 8.250000000000002e+00	 1.002648910769229e+01
0	 6.875000000000000e+00	 8.312500000000000e+00	 1.002503903076921e+01
0	 6.875000000000000e+00	 8.374999999999998e+00	 1.002354381538460e+01
0	 6.875000000000000e+00	 8.437500000000000e+00	 1.002200346153847e+01
0	 6.875000000000000e+00	 8.500000000000000e+00	 1.002041796923077e+01
0	 6.875000000000000e+00	 8.562499999999998e+00	 1.001878733846152e+01
0	 6.875000000000000e+00	 8.625000000000000e+00	 1.001711156923077e+01
0	 6.875000000000000e+00	 8.687499999999998e+00	 1.001539066153844e+01
0	 6.875000000000000e+00	 8.750000000000000e+00	 1.001362461538460e+01
0	 6.250000000000000e+00	 8.750000000000000e+00	 1.001600615384615e+01
0	 6.250000000000001e+00	 8.812500000000000e+00	 1.001505718461539e+01
0	 6.250000000000001e+00	 8.875000000000002e+00	 1.001402966153846e+01
0	 6.250000000000000e+00	 8.937499999999998e+00	 1.001292358461538e+01
0	 6.250000000000001e+00	 9.000000000000000e+00	 1.001173895384615e+01
0	 6.250000000000000e+00	 9.062500000000000e+00	 1.001047576923077e+01
0	 6.250000000000000e+00	 9.124999999999998e+00	 1.000913403076923e+01
0	 6.250000000000000e+00	 9.187499999999998e+00	 1.000771373846152e+01
0	 6.250000000000001e+00	 9.249999999999998e+00	 1.000621489230769e+01
0	 6.250000000000000e+00	 9.312499999999998e+00	 1.000463749230769e+01
0	 6.250000000000000e+00	 9.375000000000000e+00	 1.000298153846154e+01
0	 6.312500000000000e+00	 8.750000000000002e+00	 1.001593761538460e+01
0	 6.312499999999999e+00	 8.812499999999998e+00	 1.001500401230770e+01
0	 6.312499999999999e+00	 8.875000000000000e+00	 1.001399285230767e+01
0	 6.312499999999999e+00	 8.937500000000000e+00	 1.001290413538463e+01
0	 6.312499999999999e+00	 9.000000000000000e+00	 1.001173786153846e+01
0	 6.312500000000002e+00	 9.062500000000000e+00	 1.001049403076922e+01
0	 6.312500000000001e+00	 9.125000000000000e+00	 1.000917264307692e+01
0	 6.312500000000000e+00	 9.187499999999998e+00	 1.000777369846154e+01
0	 6.312500000000001e+00	 9.250000000000000e+00	 1.000629719692308e+01
0	 6.312499999999998e+00	 9.312499999999996e+00	 1.000474313846154e+01
0	 6.312500000000000e+00	 9.375000000000000e+00	 1.000311152307694e+01
0	 6.374999999999999e+00	 8.750000000000000e+00	 1.001583138461534e+01
0	 6.374999999999999e+00	 8.812500000000000e+00	 1.001491297538463e+01
0	 6.375000000000000e+00	 8.875000000000004e+00	 1.001391800615384e+01
0	 6.374999999999998e+00	 8.937500000000000e+00	 1.001284647692308e+01
0	 6.374999999999998e+00	 8.999999999999998e+00	 1.001169838769232e+01
0	 6.375000000000000e+00	 9.062500000000000e+00	 1.001047373846154e+01
0	 6.374999999999997e+00	 9.124999999999998e+00	 1.000917252923077e+01
0	 6.375000000000000e+00	 9.187500000000002e+00	 1.000779476000000e+01
0	 6.374999999999999e+00	 9.249999999999996e+00	 1.000634043076921e+01
0	 6.375000000000001e+00	 9.312499999999998e+00	 1.000480954153845e+01
0	 6.374999999999999e+00	 9.375000000000000e+00	 1.000320209230770e+01
0	 6.437499999999998e+00	 8.750000000000000e+00	 1.001568746153844e+01
0	 6.437499999999999e+00	 8.812500000000000e+00	 1.001478407384615e+01
0	 6.437500000000000e+00	 8.875000000000002e+00	 1.001380512307692e+01
0	 6.437500000000000e+00	 8.937500000000000e+00	 1.001275060923077e+01
0	 6.437499999999999e+00	 9.000000000000000e+00	 1.001162053230770e+01
0	 6.437499999999998e+00	 9.062499999999998e+00	 1.001041489230770e+01
0	 6.437499999999999e+00	 9.124999999999998e+00	 1.000913368923078e+01
0	 6.437499999999999e+00	 9.187500000000002e+00	 1.000777692307694e+01
0	 6.437499999999999e+00	 9.249999999999998e+00	 1.000634459384615e+01
0	 6.437499999999998e+00	 9.312499999999998e+00	 1.000483670153847e+01
0	 6.437499999999998e+00	 9.375000000000002e+00	 1.000325324615386e+01
0	 6.499999999999999e+00	 8.749999999999998e+00	 1.001550584615383e+01
0	 6.499999999999997e+00	 8.812500000000000e+00	 1.001461730769230e+01
0	 6.500000000000000e+00	 8.875000000000002e+00	 1.001365420307691e+01
0	 6.499999999999998e+00	 8.937500000000000e+00	 1.001261653230768e+01
0	 6.499999999999998e+00	 8.999999999999998e+00	 1.001150429538460e+01
0	 6.500000000000000e+00	 9.062500000000000e+00	 1.001031749230770e+01
0	 6.499999999999997e+00	 9.124999999999998e+00	 1.000905612307692e+01
0	 6.499999999999999e+00	 9.187500000000000e+00	 1.000772018769231e+01
0	 6.499999999999999e+00	 9.249999999999998e+00	 1.000630968615384e+01
0	 6.499999999999999e+00	 9.312500000000000e+00	 1.000482461846157e+01
0	 6.499999999999999e+00	 9.375000000000002e+00	 1.000326498461539e+01
0	 6.562499999999998e+00	 8.750000000000000e+00	 1.001528653846153e+01
0	 6.562499999999999e+00	 8.812500000000000e+00	 1.001441267692310e+01
0	 6.562499999999999e+00	 8.875000000000000e+00	 1.001346524615383e+01
0	 6.562499999999999e+00	 8.937500000000000e+00	 1.001244424615386e+01
0	 6.562499999999996e+00	 8.999999999999998e+00	 1.001134967692307e+01
0	 6.562499999999999e+00	 9.062500000000000e+00	 1.001018153846154e+01
0	 6.562500000000000e+00	 9.125000000000002e+00	 1.000893983076923e+01
0	 6.562499999999999e+00	 9.187499999999998e+00	 1.000762455384617e+01
0	 6.562499999999999e+00	 9.249999999999998e+00	 1.000623570769230e+01
0	 6.562500000000000e+00	 9.312500000000000e+00	 1.000477329230771e+01
0	 6.562499999999998e+00	 9.375000000000002e+00	 1.000323730769229e+01
0	 6.624999999999998e+00	 8.750000000000000e+00	 1.001502953846153e+01
0	 6.624999999999998e+00	 8.812500000000000e+00	 1.001417018153845e+01
0	 6.624999999999997e+00	 8.874999999999996e+00	 1.001323825230767e+01
0	 6.624999999999999e+00	 8.937499999999998e+00	 1.001223375076921e+01
0	 6.625000000000000e+00	 9.000000000000004e+00	 1.001115667692306e+01
0	 6.625000000000001e+00	 9.062500000000002e+00	 1.001000703076921e+01
0	 6.624999999999998e+00	 9.124999999999998e+00	 1.000878481230769e+01
0	 6.624999999999999e+00	 9.187500000000000e+00	 1.000749002153845e+01
0	 6.624999999999999e+00	 9.249999999999998e+00	 1.000612265846152e+01
0	 6.624999999999999e+00	 9.312499999999998e+00	 1.000468272307693e+01
0	 6.624999999999998e+00	 9.375000000000000e+00	 1.000317021538461e+01
0	 6.687499999999996e+00	 8.750000000000000e+00	 1.001473484615384e+01
0	 6.687499999999997e+00	 8.812499999999998e+00	 1.001388982153846e+01
0	 6.687499999999998e+00	 8.875000000000002e+00	 1.001297322153846e+01
0	 6.687499999999998e+00	 8.937500000000002e+00	 1.001198504615385e+01
0	 6.687499999999999e+00	 8.999999999999998e+00	 1.001092529538461e+01
0	 6.687499999999999e+00	 9.062500000000000e+00	 1.000979396923077e+01
0	 6.687499999999999e+00	 9.125000000000000e+00	 1.000859106769228e+01
0	 6.687499999999999e+00	 9.187500000000000e+00	 1.000731659076925e+01
0	 6.687499999999999e+00	 9.249999999999998e+00	 1.000597053846154e+01
0	 6.687499999999999e+00	 9.312500000000000e+00	 1.000455291076924e+01
0	 6.687499999999996e+00	 9.375000000000000e+00	 1.000306370769230e+01
0	 6.749999999999998e+00	 8.750000000000002e+00	 1.001440246153846e+01
0	 6.749999999999999e+00	 8.812500000000002e+00	 1.001357159692308e+01
0	 6.749999999999998e+00	 8.875000000000000e+00	 1.001267015384614e+01
0	 6.750000000000000e+00	 8.937500000000002e+00	 1.001169813230770e+01
0	 6.749999999999999e+00	 8.999999999999998e+00	 1.001065553230769e+01
0	 6.749999999999998e+00	 9.062499999999998e+00	 1.000954235384615e+01
0	 6.749999999999998e+00	 9.125000000000000e+00	 1.000835859692306e+01
0	 6.749999999999998e+00	 9.187499999999998e+00	 1.000710426153845e+01
0	 6.750000000000000e+00	 9.250000000000000e+00	 1.000577934769231e+01
0	 6.749999999999999e+00	 9.312499999999998e+00	 1.000438385538463e+01
0	 6.749999999999998e+00	 9.375000000000000e+00	 1.000291778461539e+01
0	 6.812499999999998e+00	 8.750000000000000e+00	 1.001403238461539e+01
0	 6.812499999999998e+00	 8.812500000000000e+00	 1.001321550769230e+01
0	 6.812499999999999e+00	 8.875000000000002e+00	 1.001232904923076e+01
0	 6.812499999999998e+00	 8.937500000000000e+00	 1.001137300923076e+01
0	 6.812499999999998e+00	 9.000000000000000e+00	 1.001034738769229e+01
0	 6.812499999999998e+00	 9.062500000000000e+00	 1.000925218461538e+01
0	 6.812499999999997e+00	 9.125000000000000e+00	 1.000808739999998e+01
0	 6.812499999999998e+00	 9.187499999999998e+00	 1.000685303384614e+01
0	 6.812499999999997e+00	 9.249999999999998e+00	 1.000554908615385e+01
0	 6.812499999999997e+00	 9.312499999999996e+00	 1.000417555692309e+01
0	 6.812499999999998e+00	 9.375000000000000e+00	 1.000273244615387e+01
0	 6.875000000000000e+00	 8.750000000000000e+00	 1.001362461538460e+01
0	 6.875000000000000e+00	 8.812500000000000e+00	 1.001282155384614e+01
0	 6.875000000000000e+00	 8.875000000000002e+00	 1.001194990769231e+01
0	 6.875000000000000e+00	 8.937499999999998e+00	 1.001100967692306e+01
0	 6.875000000000000e+00	 9.000000000000000e+00	 1.001000086153847e+01
0	 6.875000000000000e+00	 9.062500000000000e+00	 1.000892346153845e+01
0	 6.875000000000000e+00	 9.124999999999998e+00	 1.000777747692306e+01
0	 6.875000000000000e+00	 9.187499999999998e+00	 1.000656290769230e+01
0	 6.875000000000000e+00	 9.249999999999998e+00	 1.000527975384614e+01
0	 6.875000000000000e+00	 9.312499999999998e+00	 1.000392801538462e+01
0	 6.875000000000000e+00	 9.375000000000000e+00	 1.000250769230770e+01
0	 6.250000000000000e+00	 9.375000000000000e+00	 1.000298153846154e+01
0	 6.250000000000000e+00	 9.437499999999998e+00	 1.000296821538461e+01
0	 6.249999999999999e+00	 9.500000000000000e+00	 1.000284024615384e+01
0	 6.249999999999999e+00	 9.562500000000000e+00	 1.000259763076923e+01
0	 6.250000000000000e+00	 9.625000000000000e+00	 1.000224036923075e+01
0	 6.250000000000000e+00	 9.687499999999998e+00	 1.000176846153845e+01
0	 6.250000000000000e+00	 9.749999999999998e+00	 1.000118190769231e+01
0	 6.250000000000000e+00	 9.812500000000000e+00	 1.000048070769230e+01
0	 6.250000000000001e+00	 9.875000000000000e+00	 9.999664861538429e+00
0	 6.250000000000000e+00	 9.937499999999998e+00	 9.998734369230762e+00
0	 6.250000000000000e+00	 1.000000000000000e+01	 9.997689230769220e+00
0	 6.312500000000000e+00	 9.375000000000000e+00	 1.000311152307694e+01
0	 6.312500000000001e+00	 9.437500000000002e+00	 1.000310461538464e+01
0	 6.312499999999996e+00	 9.500000000000000e+00	 1.000298475076925e+01
0	 6.312499999999999e+00	 9.562500000000000e+00	 1.000275192923076e+01
0	 6.312500000000000e+00	 9.625000000000000e+00	 1.000240615076925e+01
0	 6.312500000000001e+00	 9.687500000000000e+00	 1.000194741538462e+01
0	 6.312500000000002e+00	 9.749999999999998e+00	 1.000137572307693e+01
0	 6.312500000000000e+00	 9.812499999999998e+00	 1.000069107384611e+01
0	 6.312500000000000e+00	 9.874999999999998e+00	 9.999893467692331e+00
0	 6.312499999999999e+00	 9.937499999999996e+00	 9.998982904615406e+00
0	 6.312500000000001e+00	 1.000000000000000e+01	 9.997959384615353e+00
0	 6.374999999999999e+00	 9.375000000000000e+00	 1.000320209230770e+01
0	 6.374999999999997e+00	 9.437499999999998e+00	 1.000320037230768e+01
0	 6.375000000000000e+00	 9.500000000000000e+00	 1.000308738461538e+01
0	 6.374999999999998e+00	 9.562500000000000e+00	 1.000286312923077e+01
0	 6.375000000000000e+00	 9.625000000000002e+00	 1.000252760615384e+01
0	 6.375000000000000e+00	 9.687500000000002e+00	 1.000208081538460e+01
0	 6.375000000000000e+00	 9.750000000000000e+00	 1.000152275692305e+01
0	 6.375000000000001e+00	 9.812500000000002e+00	 1.000085343076925e+01
0	 6.375000000000000e+00	 9.874999999999996e+00	 1.000007283692304e+01
0	 6.375000000000001e+00	 9.937500000000000e+00	 9.999180975384618e+00
0	 6.374999999999999e+00	 1.000000000000000e+01	 9.998177846153812e+00
0	 6.437499999999998e+00	 9.375000000000002e+00	 1.000325324615386e+01
0	 6.437499999999999e+00	 9.437500000000000e+00	 1.000325548615385e+01
0	 6.437499999999998e+00	 9.499999999999996e+00	 1.000314814769230e+01
0	 6.437500000000001e+00	 9.562500000000000e+00	 1.000293123076924e+01
0	 6.437499999999999e+00	 9.624999999999998e+00	 1.000260473538462e+01
0	 6.437500000000000e+00	 9.687500000000000e+00	 1.000216866153849e+01
0	 6.437499999999998e+00	 9.749999999999996e+00	 1.000162300923075e+01
0	 6.437499999999999e+00	 9.812499999999996e+00	 1.000096777846151e+01
0	 6.437499999999999e+00	 9.875000000000000e+00	 1.000020296923073e+01
0	 6.437499999999999e+00	 9.937499999999998e+00	 9.999328581538416e+00
0	 6.437499999999999e+00	 1.000000000000000e+01	 9.998344615384642e+00
0	 6.499999999999999e+00	 9.375000000000002e+00	 1.000326498461539e+01
0	 6.499999999999999e+00	 9.437500000000000e+00	 1.000326995692308e+01
0	 6.499999999999999e+00	 9.500000000000004e+00	 1.000316703999998e+01
0	 6.499999999999999e+00	 9.562500000000000e+00	 1.000295623384615e+01
0	 6.499999999999998e+00	 9.624999999999998e+00	 1.000263753846151e+01
0	 6.500000000000000e+00	 9.687499999999998e+00	 1.000221095384615e+01
0	 6.499999999999999e+00	 9.750000000000000e+00	 1.000167647999999e+01
0	 6.499999999999998e+00	 9.812499999999996e+00	 1.000103411692305e+01
0	 6.500000000000000e+00	 9.874999999999998e+00	 1.000028386461536e+01
0	 6.499999999999999e+00	 9.937499999999996e+00	 9.999425723076925e+00
0	 6.499999999999999e+00	 1.000000000000000e+01	 9.998459692307666e+00
0	 6.562499999999998e+00	 9.375000000000002e+00	 1.000323730769229e+01
0	 6.562499999999999e+00	 9.437499999999998e+00	 1.000324378461537e+01
0	 6.562499999999999e+00	 9.499999999999998e+00	 1.000314406153844e+01
0	 6.562499999999999e+00	 9.562500000000000e+00	 1.000293813846154e+01
0	 6.562499999999997e+00	 9.624999999999998e+00	 1.000262601538461e+01
0	 6.562499999999998e+00	 9.687500000000000e+00	 1.000220769230771e+01
0	 6.562499999999999e+00	 9.750000000000000e+00	 1.000168316923078e+01
0	 6.562499999999999e+00	 9.812499999999998e+00	 1.000105244615382e+01
0	 6.562499999999999e+00	 9.874999999999998e+00	 1.000031552307692e+01
0	 6.562499999999999e+00	 9.937499999999998e+00	 9.999472399999989e+00
0	 6.562499999999999e+00	 1.000000000000000e+01	 9.998523076923053e+00
0	 6.624999999999998e+00	 9.375000000000000e+00	 1.000317021538461e+01
0	 6.624999999999999e+00	 9.437499999999998e+00	 1.000317696923078e+01
0	 6.625000000000000e+00	 9.500000000000000e+00	 1.000307921230768e+01
0	 6.624999999999998e+00	 9.562500000000000e+00	 1.000287694461537e+01
0	 6.624999999999999e+00	 9.625000000000000e+00	 1.000257016615384e+01
0	 6.624999999999999e+00	 9.687499999999998e+00	 1.000215887692307e+01
0	 6.625000000000000e+00	 9.749999999999998e+00	 1.000164307692306e+01
0	 6.624999999999997e+00	 9.812499999999996e+00	 1.000102276615380e+01
0	 6.624999999999998e+00	 9.874999999999998e+00	 1.000029794461534e+01
0	 6.625000000000000e+00	 9.937499999999998e+00	 9.999468612307680e+00
0	 6.624999999999998e+00	 9.999999999999998e+00	 9.998534769230766e+00
0	 6.687499999999996e+00	 9.375000000000000e+00	 1.000306370769230e+01
0	 6.687499999999998e+00	 9.437499999999998e+00	 1.000306951076923e+01
0	 6.687499999999998e+00	 9.499999999999998e+00	 1.000297249230769e+01
0	 6.687499999999998e+00	 9.562500000000002e+00	 1.000277265230769e+01
0	 6.687499999999998e+00	 9.624999999999998e+00	 1.000246999076922e+01
0	 6.687499999999998e+00	 9.687500000000000e+00	 1.000206450769229e+01
0	 6.687500000000000e+00	 9.750000000000000e+00	 1.000155620307687e+01
0	 6.687499999999998e+00	 9.812500000000000e+00	 1.000094507692305e+01
0	 6.687499999999998e+00	 9.874999999999998e+00	 1.000023112923071e+01
0	 6.687500000000000e+00	 9.937499999999998e+00	 9.999414359999978e+00
0	 6.687499999999999e+00	 1.000000000000000e+01	 9.998494769230778e+00
0	 6.749999999999998e+00	 9.375000000000000e+00	 1.000291778461539e+01
0	 6.749999999999999e+00	 9.437500000000002e+00	 1.000292140923078e+01
0	 6.749999999999999e+00	 9.500000000000000e+00	 1.000282390153846e+01
0	 6.749999999999998e+00	 9.562500000000002e+00	 1.000262526153846e+01
0	 6.749999999999997e+00	 9.624999999999998e+00	 1.000232548923075e+01
0	 6.749999999999998e+00	 9.687499999999998e+00	 1.000192458461535e+01
0	 6.749999999999999e+00	 9.750000000000000e+00	 1.000142254769229e+01
0	 6.749999999999999e+00	 9.812499999999998e+00	 1.000081937846153e+01
0	 6.749999999999999e+00	 9.874999999999998e+00	 1.000011507692302e+01
0	 6.749999999999999e+00	 9.937499999999998e+00	 9.999309643076892e+00
0	 6.749999999999998e+00	 1.000000000000000e+01	 9.998403076923040e+00
0	 6.812499999999998e+00	 9.375000000000000e+00	 1.000273244615387e+01
0	 6.812499999999997e+00	 9.437500000000000e+00	 1.000273266461539e+01
0	 6.812499999999998e+00	 9.499999999999998e+00	 1.000263344000001e+01
0	 6.812499999999999e+00	 9.562500000000000e+00	 1.000243477230770e+01
0	 6.812499999999999e+00	 9.624999999999998e+00	 1.000213666153847e+01
0	 6.812499999999998e+00	 9.687499999999996e+00	 1.000173910769227e+01
0	 6.812499999999998e+00	 9.749999999999998e+00	 1.000124211076920e+01
0	 6.812499999999998e+00	 9.812499999999998e+00	 1.000064567076919e+01
0	 6.812499999999998e+00	 9.874999999999996e+00	 9.999949787692298e+00
0	 6.812499999999998e+00	 9.937499999999998e+00	 9.999154461538437e+00
0	 6.812499999999998e+00	 1.000000000000000e+01	 9.998259692307599e+00
0	 6.875000000000000e+00	 9.375000000000000e+00	 1.000250769230770e+01
0	 6.875000000000001e+00	 9.437499999999998e+00	 1.000250327692308e+01
0	 6.874999999999999e+00	 9.500000000000000e+00	 1.000240110769231e+01
0	 6.874999999999999e+00	 9.562500000000000e+00	 1.000220118461538e+01
0	 6.875000000000001e+00	 9.625000000000000e+00	 1.000190350769229e+01
0	 6.875000000000001e+00	 9.687499999999998e+00	 1.000150807692307e+01
0	 6.875000000000000e+00	 9.749999999999998e+00	 1.000101489230769e+01
0	 6.875000000000000e+00	 9.812500000000000e+00	 1.000042395384613e+01
0	 6.875000000000001e+00	 9.875000000000000e+00	 9.999735261538419e+00
0	 6.875000000000000e+00	 9.937499999999998e+00	 9.998948815384592e+00
0	 6.875000000000000e+00	 1.000000000000000e+01	 9.998064615384589e+00
0	 6.875000000000000e+00	 0.000000000000000e+00	 1.009369415384615e+01
0	 6.875000000000001e+00	 6.250000000000000e-02	 1.009483090769231e+01
0	 6.875000000000000e+00	 1.250000000000000e-01	 1.009583953846154e+01
0	 6.875000000000000e+00	 1.875000000000000e-01	 1.009672004615384e+01
0	 6.875000000000000e+00	 2.500000000000000e-01	 1.009747243076923e+01
0	 6.875000000000000e+00	 3.125000000000000e-01	 1.009809669230769e+01
0	 6.875000000000000e+00	 3.750000000000000e-01	 1.009859283076923e+01
0	 6.875000000000000e+00	 4.374999999999999e-01	 1.009896084615385e+01
0	 6.875000000000002e+00	 5.000000000000000e-01	 1.009920073846154e+01
0	 6.875000000000000e+00	 5.624999999999999e-01	 1.009931250769230e+01
0	 6.875000000000000e+00	 6.250000000000000e-01	 1.009929615384616e+01
0	 6.937500000000000e+00	 0.000000000000000e+00	 1.008830372000000e+01
0	 6.937499999999999e+00	 6.249999999999999e-02	 1.008941251046154e+01
0	 6.937499999999998e+00	 1.250000000000000e-01	 1.009039638092308e+01
0	 6.937499999999998e+00	 1.875000000000000e-01	 1.009125533138462e+01
0	 6.937499999999997e+00	 2.500000000000000e-01	 1.009198936184615e+01
0	 6.937500000000000e+00	 3.125000000000001e-01	 1.009259847230770e+01
0	 6.937499999999999e+00	 3.749999999999999e-01	 1.009308266276923e+01
0	 6.937500000000000e+00	 4.374999999999999e-01	 1.009344193323077e+01
0	 6.937500000000001e+00	 5.000000000000000e-01	 1.009367628369231e+01
0	 6.937499999999999e+00	 5.625000000000000e-01	 1.009378571415385e+01
0	 6.937500000000000e+00	 6.250000000000000e-01	 1.009377022461539e+01
0	 6.999999999999999e+00	 0.000000000000000e+00	 1.008285328000000e+01
0	 7.000000000000001e+00	 6.250000000000000e-02	 1.008393510646154e+01
0	 6.999999999999999e+00	 1.250000000000000e-01	 1.008489521600000e+01
0	 6.999999999999999e+00	 1.875000000000000e-01	 1.008573360861538e+01
0	 7.000000000000000e+00	 2.500000000000001e-01	 1.008645028430769e+01
0	 7.000000000000000e+00	 3.125000000000000e-01	 1.008704524307692e+01
0	 6.999999999999999e+00	 3.749999999999999e-01	 1.008751848492308e+01
0	 7.000000000000000e+00	 4.375000000000000e-01	 1.008787000984616e+01
0	 7.000000000000001e+00	 4.999999999999999e-01	 1.008809981784615e+01
0	 6.999999999999999e+00	 5.625000000000000e-01	 1.008820790892307e+01
0	 6.999999999999999e+00	 6.249999999999999e-01	 1.008819428307693e+01
0	 7.062499999999999e+00	 0.000000000000000e+00	 1.007734283384615e+01
0	 7.062499999999998e+00	 6.250000000000000e-02	 1.007839869569231e+01
0	 7.062499999999998e+00	 1.250000000000000e-01	 1.007933604369230e+01
0	 7.062500000000001e+00	 1.875000000000001e-01	 1.008015487784615e+01
0	 7.062500000000001e+00	 2.500000000000001e-01	 1.008085519815385e+01
0	 7.062499999999998e+00	 3.125000000000000e-01	 1.008143700461538e+01
0	 7.062499999999998e+00	 3.749999999999999e-01	 1.008190029723076e+01
0	 7.062500000000000e+00	 4.374999999999999e-01	 1.008224507600000e+01
0	 7.062499999999997e+00	 4.999999999999999e-01	 1.008247134092308e+01
0	 7.062500000000001e+00	 5.625000000000001e-01	 1.008257909200000e+01
0	 7.062500000000000e+00	 6.249999999999999e-01	 1.008256832923076e+01
0	 7.125000000000000e+00	 0.000000000000000e+00	 1.007177238153846e+01
0	 7.124999999999997e+00	 6.250000000000000e-02	 1.007280327815384e+01
0	 7.124999999999997e+00	 1.250000000000000e-01	 1.007371886400000e+01
0	 7.124999999999997e+00	 1.875000000000000e-01	 1.007451913907692e+01
0	 7.124999999999998e+00	 2.500000000000000e-01	 1.007520410338462e+01
0	 7.125000000000000e+00	 3.125000000000000e-01	 1.007577375692308e+01
0	 7.125000000000000e+00	 3.750000000000000e-01	 1.007622809969230e+01
0	 7.125000000000000e+00	 4.375000000000000e-01	 1.007656713169230e+01
0	 7.124999999999997e+00	 4.999999999999999e-01	 1.007679085292307e+01
0	 7.124999999999999e+00	 5.625000000000000e-01	 1.007689926338462e+01
0	 7.125000000000000e+00	 6.250000000000001e-01	 1.007689236307692e+01
0	 7.187499999999998e+00	 0.000000000000000e+00	 1.006614192307693e+01
0	 7.187499999999999e+00	 6.249999999999998e-02	 1.006714885384615e+01
0	 7.187499999999999e+00	 1.250000000000000e-01	 1.006804367692308e+01
0	 7.187499999999998e+00	 1.875000000000000e-01	 1.006882639230769e+01
0	 7.187499999999998e+00	 2.499999999999999e-01	 1.006949700000000e+01
0	 7.187499999999998e+00	 3.125000000000000e-01	 1.007005550000000e+01
0	 7.187499999999999e+00	 3.750000000000000e-01	 1.007050189230769e+01
0	 7.187499999999998e+00	 4.375000000000000e-01	 1.007083617692308e+01
0	 7.187499999999997e+00	 4.999999999999999e-01	 1.007105835384615e+01
0	 7.187500000000002e+00	 5.625000000000001e-01	 1.007116842307692e+01
0	 7.187499999999998e+00	 6.250000000000000e-01	 1.007116638461539e+01
0	 7.249999999999999e+00	 0.000000000000000e+00	 1.006045145846153e+01
0	 7.249999999999998e+00	 6.249999999999999e-02	 1.006143542276923e+01
0	 7.249999999999999e+00	 1.250000000000000e-01	 1.006231048246154e+01
0	 7.250000000000000e+00	 1.875000000000001e-01	 1.006307663753845e+01
0	 7.249999999999999e+00	 2.500000000000001e-01	 1.006373388799999e+01
0	 7.249999999999999e+00	 3.125000000000001e-01	 1.006428223384615e+01
0	 7.249999999999999e+00	 3.749999999999999e-01	 1.006472167507692e+01
0	 7.250000000000000e+00	 4.375000000000000e-01	 1.006505221169231e+01
0	 7.249999999999998e+00	 4.999999999999998e-01	 1.006527384369230e+01
0	 7.249999999999998e+00	 5.624999999999999e-01	 1.006538657107692e+01
0	 7.249999999999998e+00	 6.250000000000001e-01	 1.006539039384615e+01
0	 7.312499999999999e+00	 0.000000000000000e+00	 1.005470098769231e+01
0	 7.312499999999999e+00	 6.250000000000000e-02	 1.005566298492307e+01
0	 7.312499999999997e+00	 1.250000000000000e-01	 1.005651928061539e+01
0	 7.312499999999998e+00	 1.875000000000000e-01	 1.005726987476923e+01
0	 7.312499999999999e+00	 2.500000000000000e-01	 1.005791476738461e+01
0	 7.312499999999998e+00	 3.125000000000001e-01	 1.005845395846154e+01
0	 7.312499999999998e+00	 3.750000000000000e-01	 1.005888744800000e+01
0	 7.312499999999998e+00	 4.375000000000000e-01	 1.005921523600000e+01
0	 7.312499999999999e+00	 4.999999999999999e-01	 1.005943732246153e+01
0	 7.312499999999999e+00	 5.625000000000000e-01	 1.005955370738461e+01
0	 7.312499999999997e+00	 6.249999999999999e-01	 1.005956439076923e+01
0	 7.374999999999998e+00	 0.000000000000000e+00	 1.004889051076923e+01
0	 7.374999999999999e+00	 6.249999999999999e-02	 1.004983154030769e+01
0	 7.375000000000000e+00	 1.250000000000000e-01	 1.005067007138462e+01
0	 7.374999999999999e+00	 1.875000000000001e-01	 1.005140610399999e+01
0	 7.374999999999996e+00	 2.500000000000000e-01	 1.005203963815385e+01
0	 7.374999999999996e+00	 3.124999999999999e-01	 1.005257067384615e+01
0	 7.374999999999998e+00	 3.749999999999999e-01	 1.005299921107693e+01
0	 7.374999999999998e+00	 4.375000000000000e-01	 1.005332524984615e+01
0	 7.374999999999999e+00	 4.999999999999999e-01	 1.005354879015384e+01
0	 7.374999999999998e+00	 5.625000000000000e-01	 1.005366983200000e+01
0	 7.374999999999998e+00	 6.250000000000000e-01	 1.005368837538462e+01
0	 7.437499999999998e+00	 0.000000000000000e+00	 1.004302002769231e+01
0	 7.437499999999999e+00	 6.250000000000000e-02	 1.004394108892308e+01
0	 7.437499999999998e+00	 1.250000000000000e-01	 1.004476285476922e+01
0	 7.437499999999999e+00	 1.875000000000000e-01	 1.004548532523077e+01
0	 7.437499999999996e+00	 2.499999999999999e-01	 1.004610850030769e+01
0	 7.437499999999998e+00	 3.125000000000000e-01	 1.004663237999999e+01
0	 7.437499999999999e+00	 3.750000000000000e-01	 1.004705696430769e+01
0	 7.437499999999998e+00	 4.375000000000000e-01	 1.004738225323077e+01
0	 7.437499999999998e+00	 4.999999999999999e-01	 1.004760824676923e+01
0	 7.437499999999998e+00	 5.625000000000000e-01	 1.004773494492308e+01
0	 7.437499999999998e+00	 6.250000000000000e-01	 1.004776234769231e+01
0	 7.500000000000000e+00	 0.000000000000000e+00	 1.003708953846154e+01
0	 7.500000000000000e+00	 6.250000000000000e-02	 1.003799163076923e+01
0	 7.499999999999999e+00	 1.250000000000000e-01	 1.003879763076923e+01
0	 7.499999999999999e+00	 1.875000000000000e-01	 1.003950753846154e+01
0	 7.500000000000000e+00	 2.500000000000000e-01	 1.004012135384615e+01
0	 7.500000000000000e+00	 3.125000000000000e-01	 1.004063907692307e+01
0	 7.500000000000000e+00	 3.750000000000000e-01	 1.004106070769230e+01
0	 7.500000000000000e+00	 4.374999999999999e-01	 1.004138624615384e+01
0	 7.500000000000001e+00	 5.000000000000000e-01	 1.004161569230769e+01
0	 7.500000000000000e+00	 5.624999999999999e-01	 1.004174904615385e+01
0	 7.500000000000000e+00	 6.250000000000000e-01	 1.004178630769231e+01
0	 6.875000000000000e+00	 6.250000000000000e-01	 1.009929615384616e+01
0	 6.875000000000000e+00	 6.875000000000000e-01	 1.010131132307692e+01
0	 6.875000000000000e+00	 7.500000000000002e-01	 1.010322440000000e+01
0	 6.875000000000001e+00	 8.125000000000002e-01	 1.010503538461539e+01
0	 6.875000000000001e+00	 8.750000000000002e-01	 1.010674427692307e+01
0	 6.875000000000000e+00	 9.375000000000002e-01	 1.010835107692307e+01
0	 6.875000000000000e+00	 1.000000000000000e+00	 1.010985578461538e+01
0	 6.875000000000000e+00	 1.062500000000000e+00	 1.011125840000000e+01
0	 6.875000000000001e+00	 1.125000000000001e+00	 1.011255892307692e+01
0	 6.875000000000000e+00	 1.187500000000000e+00	 1.011375735384615e+01
0	 6.875000000000000e+00	 1.250000000000000e+00	 1.011485369230769e+01
0	 6.937500000000000e+00	 6.250000000000000e-01	 1.009377022461539e+01
0	 6.937500000000000e+00	 6.875000000000001e-01	 1.009571167984616e+01
0	 6.937500000000001e+00	 7.500000000000001e-01	 1.009755467969230e+01
0	 6.937500000000000e+00	 8.125000000000002e-01	 1.009929922415385e+01
0	 6.937500000000001e+00	 8.750000000000003e-01	 1.010094531323077e+01
0	 6.937500000000000e+00	 9.375000000000003e-01	 1.010249294692307e+01
0	 6.937500000000000e+00	 1.000000000000000e+00	 1.010394212523077e+01
0	 6.937500000000001e+00	 1.062500000000000e+00	 1.010529284815385e+01
0	 6.937500000000001e+00	 1.125000000000000e+00	 1.010654511569231e+01
0	 6.937499999999997e+00	 1.187500000000000e+00	 1.010769892784615e+01
0	 6.937500000000000e+00	 1.250000000000000e+00	 1.010875428461538e+01
0	 6.999999999999999e+00	 6.249999999999999e-01	 1.008819428307693e+01
0	 7.000000000000001e+00	 6.875000000000001e-01	 1.009006688553846e+01
0	 7.000000000000001e+00	 7.500000000000002e-01	 1.009184466953846e+01
0	 6.999999999999999e+00	 8.125000000000001e-01	 1.009352763507693e+01
0	 7.000000000000001e+00	 8.750000000000003e-01	 1.009511578215385e+01
0	 7.000000000000000e+00	 9.375000000000003e-01	 1.009660911076923e+01
0	 7.000000000000001e+00	 1.000000000000000e+00	 1.009800762092307e+01
0	 6.999999999999999e+00	 1.062500000000000e+00	 1.009931131261538e+01
0	 7.000000000000000e+00	 1.125000000000000e+00	 1.010052018584615e+01
0	 7.000000000000000e+00	 1.187500000000001e+00	 1.010163424061538e+01
0	 6.999999999999999e+00	 1.250000000000000e+00	 1.010265347692307e+01
0	 7.062500000000000e+00	 6.249999999999999e-01	 1.008256832923076e+01
0	 7.062499999999999e+00	 6.875000000000000e-01	 1.008437694015384e+01
0	 7.062499999999998e+00	 7.500000000000000e-01	 1.008609436953846e+01
0	 7.062499999999999e+00	 8.125000000000002e-01	 1.008772061738461e+01
0	 7.062499999999999e+00	 8.750000000000002e-01	 1.008925568369230e+01
0	 7.062500000000000e+00	 9.375000000000002e-01	 1.009069956846153e+01
0	 7.062499999999997e+00	 1.000000000000000e+00	 1.009205227169231e+01
0	 7.062500000000001e+00	 1.062500000000000e+00	 1.009331379338461e+01
0	 7.062500000000000e+00	 1.125000000000000e+00	 1.009448413353846e+01
0	 7.062500000000000e+00	 1.187500000000000e+00	 1.009556329215384e+01
0	 7.062500000000000e+00	 1.250000000000000e+00	 1.009655126923077e+01
0	 7.125000000000000e+00	 6.250000000000001e-01	 1.007689236307692e+01
0	 7.124999999999999e+00	 6.875000000000000e-01	 1.007864184369231e+01
0	 7.124999999999997e+00	 7.500000000000000e-01	 1.008030377969231e+01
0	 7.125000000000000e+00	 8.125000000000001e-01	 1.008187817107692e+01
0	 7.124999999999999e+00	 8.750000000000003e-01	 1.008336501784616e+01
0	 7.124999999999998e+00	 9.375000000000000e-01	 1.008476431999999e+01
0	 7.125000000000001e+00	 1.000000000000000e+00	 1.008607607753847e+01
0	 7.124999999999999e+00	 1.062500000000000e+00	 1.008730029046155e+01
0	 7.125000000000001e+00	 1.125000000000000e+00	 1.008843695876923e+01
0	 7.124999999999999e+00	 1.187500000000000e+00	 1.008948608246154e+01
0	 7.125000000000000e+00	 1.250000000000000e+00	 1.009044766153846e+01
0	 7.187499999999998e+00	 6.250000000000000e-01	 1.007116638461539e+01
0	 7.187499999999998e+00	 6.875000000000000e-01	 1.007286159615385e+01
0	 7.187499999999999e+00	 7.500000000000001e-01	 1.007447290000000e+01
0	 7.187500000000000e+00	 8.125000000000002e-01	 1.007600029615385e+01
0	 7.187499999999998e+00	 8.750000000000003e-01	 1.007744378461538e+01
0	 7.187499999999998e+00	 9.375000000000002e-01	 1.007880336538461e+01
0	 7.187500000000000e+00	 1.000000000000000e+00	 1.008007903846154e+01
0	 7.187499999999999e+00	 1.062500000000000e+00	 1.008127080384615e+01
0	 7.187499999999998e+00	 1.125000000000000e+00	 1.008237866153846e+01
0	 7.187500000000000e+00	 1.187500000000001e+00	 1.008340261153846e+01
0	 7.187499999999998e+00	 1.250000000000000e+00	 1.008434265384616e+01
0	 7.249999999999998e+00	 6.250000000000001e-01	 1.006539039384615e+01
0	 7.249999999999996e+00	 6.874999999999999e-01	 1.006703619753846e+01
0	 7.250000000000000e+00	 7.500000000000003e-01	 1.006860173046154e+01
0	 7.249999999999998e+00	 8.125000000000000e-01	 1.007008699261538e+01
0	 7.249999999999997e+00	 8.750000000000001e-01	 1.007149198400001e+01
0	 7.249999999999999e+00	 9.375000000000003e-01	 1.007281670461539e+01
0	 7.249999999999999e+00	 1.000000000000000e+00	 1.007406115446154e+01
0	 7.249999999999999e+00	 1.062500000000000e+00	 1.007522533353846e+01
0	 7.249999999999998e+00	 1.125000000000000e+00	 1.007630924184615e+01
0	 7.249999999999997e+00	 1.187500000000000e+00	 1.007731287938461e+01
0	 7.249999999999998e+00	 1.250000000000000e+00	 1.007823624615384e+01
0	 7.312499999999997e+00	 6.249999999999999e-01	 1.005956439076923e+01
0	 7.312499999999997e+00	 6.875000000000000e-01	 1.006116564784615e+01
0	 7.312500000000000e+00	 7.500000000000002e-01	 1.006269027107693e+01
0	 7.312499999999999e+00	 8.125000000000000e-01	 1.006413826046154e+01
0	 7.312500000000000e+00	 8.750000000000002e-01	 1.006550961600000e+01
0	 7.312500000000000e+00	 9.375000000000004e-01	 1.006680433769231e+01
0	 7.312499999999999e+00	 1.000000000000000e+00	 1.006802242553847e+01
0	 7.312499999999999e+00	 1.062500000000001e+00	 1.006916387953846e+01
0	 7.312499999999998e+00	 1.125000000000000e+00	 1.007022869969231e+01
0	 7.312500000000000e+00	 1.187500000000000e+00	 1.007121688600000e+01
0	 7.312499999999997e+00	 1.250000000000000e+00	 1.007212843846154e+01
0	 7.374999999999998e+00	 6.250000000000000e-01	 1.005368837538462e+01
0	 7.375000000000000e+00	 6.875000000000000e-01	 1.005524994707692e+01
0	 7.374999999999996e+00	 7.500000000000000e-01	 1.005673852184615e+01
0	 7.374999999999997e+00	 8.125000000000001e-01	 1.005815409969231e+01
0	 7.375000000000000e+00	 8.750000000000003e-01	 1.005949668061539e+01
0	 7.374999999999998e+00	 9.375000000000002e-01	 1.006076626461538e+01
0	 7.375000000000000e+00	 1.000000000000001e+00	 1.006196285169231e+01
0	 7.374999999999998e+00	 1.062500000000000e+00	 1.006308644184615e+01
0	 7.374999999999997e+00	 1.125000000000000e+00	 1.006413703507693e+01
0	 7.374999999999998e+00	 1.187500000000000e+00	 1.006511463138461e+01
0	 7.374999999999998e+00	 1.250000000000000e+00	 1.006601923076923e+01
0	 7.437499999999998e+00	 6.250000000000000e-01	 1.004776234769231e+01
0	 7.437499999999999e+00	 6.875000000000002e-01	 1.004928909523077e+01
0	 7.437499999999997e+00	 7.500000000000001e-01	 1.005074648276922e+01
0	 7.437499999999998e+00	 8.125000000000001e-01	 1.005213451030770e+01
0	 7.437499999999998e+00	 8.750000000000002e-01	 1.005345317784615e+01
0	 7.437499999999998e+00	 9.375000000000002e-01	 1.005470248538461e+01
0	 7.437499999999998e+00	 1.000000000000000e+00	 1.005588243292308e+01
0	 7.437499999999998e+00	 1.062500000000000e+00	 1.005699302046154e+01
0	 7.437499999999998e+00	 1.125000000000000e+00	 1.005803424800000e+01
0	 7.437499999999998e+00	 1.187500000000000e+00	 1.005900611553846e+01
0	 7.437499999999998e+00	 1.250000000000000e+00	 1.005990862307692e+01
0	 7.500000000000000e+00	 6.250000000000000e-01	 1.004178630769231e+01
0	 7.500000000000000e+00	 6.875000000000000e-01	 1.004328309230769e+01
0	 7.500000000000000e+00	 7.500000000000002e-01	 1.004471415384615e+01
0	 7.500000000000001e+00	 8.125000000000002e-01	 1.004607949230769e+01
0	 7.500000000000001e+00	 8.750000000000002e-01	 1.004737910769231e+01
0	 7.500000000000000e+00	 9.375000000000002e-01	 1.004861300000000e+01
0	 7.499999999999999e+00	 1.000000000000000e+00	 1.004978116923077e+01
0	 7.500000000000000e+00	 1.062500000000000e+00	 1.005088361538461e+01
0	 7.500000000000001e+00	 1.125000000000001e+00	 1.005192033846154e+01
0	 7.500000000000000e+00	 1.187500000000000e+00	 1.005289133846154e+01
0	 7.500000000000000e+00	 1.250000000000000e+00	 1.005379661538462e+01
0	 6.875000000000000e+00	 1.250000000000000e+00	 1.011485369230769e+01
0	 6.875000000000000e+00	 1.312500000000000e+00	 1.011697593846154e+01
0	 6.875000000000000e+00	 1.375000000000000e+00	 1.011906356923077e+01
0	 6.875000000000001e+00	 1.437500000000000e+00	 1.012111658461538e+01
0	 6.875000000000001e+00	 1.500000000000000e+00	 1.012313498461538e+01
0	 6.875000000000000e+00	 1.562500000000000e+00	 1.012511876923076e+01
0	 6.875000000000000e+00	 1.625000000000000e+00	 1.012706793846154e+01
0	 6.875000000000000e+00	 1.687500000000000e+00	 1.012898249230770e+01
0	 6.875000000000001e+00	 1.750000000000001e+00	 1.013086243076923e+01
0	 6.875000000000000e+00	 1.812500000000000e+00	 1.013270775384616e+01
0	 6.875000000000000e+00	 1.875000000000000e+00	 1.013451846153845e+01
0	 6.937500000000000e+00	 1.250000000000000e+00	 1.010875428461538e+01
0	 6.937500000000000e+00	 1.312500000000000e+00	 1.011080457153846e+01
0	 6.937500000000001e+00	 1.375000000000000e+00	 1.011282090769230e+01
0	 6.937500000000000e+00	 1.437500000000000e+00	 1.011480329307692e+01
0	 6.937500000000001e+00	 1.500000000000000e+00	 1.011675172769230e+01
0	 6.937500000000000e+00	 1.562500000000000e+00	 1.011866621153846e+01
0	 6.937500000000000e+00	 1.625000000000000e+00	 1.012054674461538e+01
0	 6.937500000000001e+00	 1.687500000000000e+00	 1.012239332692308e+01
0	 6.937500000000001e+00	 1.750000000000000e+00	 1.012420595846153e+01
0	 6.937499999999997e+00	 1.812500000000000e+00	 1.012598463923077e+01
0	 6.937500000000000e+00	 1.875000000000000e+00	 1.012772936923076e+01
0	 6.999999999999999e+00	 1.250000000000000e+00	 1.010265347692307e+01
0	 7.000000000000001e+00	 1.312500000000000e+00	 1.010463877230770e+01
0	 7.000000000000001e+00	 1.375000000000000e+00	 1.010659078153846e+01
0	 6.999999999999999e+00	 1.437500000000000e+00	 1.010850950461539e+01
0	 7.000000000000001e+00	 1.500000000000000e+00	 1.011039494153846e+01
0	 7.000000000000000e+00	 1.562500000000000e+00	 1.011224709230769e+01
0	 7.000000000000001e+00	 1.625000000000000e+00	 1.011406595692307e+01
0	 6.999999999999999e+00	 1.687500000000000e+00	 1.011585153538461e+01
0	 7.000000000000000e+00	 1.750000000000001e+00	 1.011760382769230e+01
0	 7.000000000000000e+00	 1.812500000000001e+00	 1.011932283384616e+01
0	 6.999999999999999e+00	 1.875000000000000e+00	 1.012100855384615e+01
0	 7.062500000000000e+00	 1.250000000000000e+00	 1.009655126923077e+01
0	 7.062499999999999e+00	 1.312500000000000e+00	 1.009847854076923e+01
0	 7.062499999999998e+00	 1.375000000000000e+00	 1.010037319076923e+01
0	 7.062499999999999e+00	 1.437500000000000e+00	 1.010223521923077e+01
0	 7.062499999999999e+00	 1.500000000000000e+00	 1.010406462615384e+01
0	 7.062500000000000e+00	 1.562500000000000e+00	 1.010586141153846e+01
0	 7.062499999999997e+00	 1.625000000000000e+00	 1.010762557538461e+01
0	 7.062500000000001e+00	 1.687500000000000e+00	 1.010935711769230e+01
0	 7.062500000000000e+00	 1.750000000000000e+00	 1.011105603846153e+01
0	 7.062500000000000e+00	 1.812500000000000e+00	 1.011272233769230e+01
0	 7.062500000000000e+00	 1.875000000000000e+00	 1.011435601538461e+01
0	 7.125000000000000e+00	 1.250000000000000e+00	 1.009044766153846e+01
0	 7.124999999999999e+00	 1.312500000000000e+00	 1.009232387692308e+01
0	 7.124999999999997e+00	 1.375000000000000e+00	 1.009416813538461e+01
0	 7.125000000000000e+00	 1.437500000000000e+00	 1.009598043692308e+01
0	 7.124999999999999e+00	 1.500000000000000e+00	 1.009776078153846e+01
0	 7.124999999999998e+00	 1.562500000000000e+00	 1.009950916923076e+01
0	 7.125000000000001e+00	 1.625000000000001e+00	 1.010122560000000e+01
0	 7.124999999999999e+00	 1.687500000000000e+00	 1.010291007384615e+01
0	 7.125000000000001e+00	 1.750000000000001e+00	 1.010456259076923e+01
0	 7.124999999999999e+00	 1.812500000000000e+00	 1.010618315076923e+01
0	 7.125000000000000e+00	 1.875000000000000e+00	 1.010777175384615e+01
0	 7.187499999999998e+00	 1.250000000000000e+00	 1.008434265384616e+01
0	 7.187499999999998e+00	 1.312500000000000e+00	 1.008617478076923e+01
0	 7.187499999999999e+00	 1.375000000000000e+00	 1.008797561538462e+01
0	 7.187500000000000e+00	 1.437500000000000e+00	 1.008974515769231e+01
0	 7.187499999999998e+00	 1.500000000000000e+00	 1.009148340769231e+01
0	 7.187499999999998e+00	 1.562500000000000e+00	 1.009319036538461e+01
0	 7.187500000000000e+00	 1.625000000000000e+00	 1.009486603076923e+01
0	 7.187499999999999e+00	 1.687500000000000e+00	 1.009651040384615e+01
0	 7.187499999999998e+00	 1.750000000000000e+00	 1.009812348461538e+01
0	 7.187500000000000e+00	 1.812500000000000e+00	 1.009970527307693e+01
0	 7.187499999999998e+00	 1.875000000000000e+00	 1.010125576923077e+01
0	 7.249999999999998e+00	 1.250000000000000e+00	 1.007823624615384e+01
0	 7.249999999999996e+00	 1.312500000000000e+00	 1.008003125230769e+01
0	 7.250000000000000e+00	 1.375000000000000e+00	 1.008179563076923e+01
0	 7.249999999999998e+00	 1.437500000000000e+00	 1.008352938153846e+01
0	 7.249999999999997e+00	 1.500000000000000e+00	 1.008523250461538e+01
0	 7.249999999999999e+00	 1.562500000000000e+00	 1.008690500000000e+01
0	 7.249999999999999e+00	 1.625000000000000e+00	 1.008854686769231e+01
0	 7.249999999999999e+00	 1.687500000000000e+00	 1.009015810769231e+01
0	 7.249999999999998e+00	 1.750000000000000e+00	 1.009173872000000e+01
0	 7.249999999999997e+00	 1.812500000000000e+00	 1.009328870461538e+01
0	 7.249999999999998e+00	 1.875000000000000e+00	 1.009480806153845e+01
0	 7.312499999999997e+00	 1.250000000000000e+00	 1.007212843846154e+01
0	 7.312499999999997e+00	 1.312500000000000e+00	 1.007389329153846e+01
0	 7.312500000000000e+00	 1.375000000000000e+00	 1.007562818153846e+01
0	 7.312499999999999e+00	 1.437500000000000e+00	 1.007733310846154e+01
0	 7.312500000000000e+00	 1.500000000000001e+00	 1.007900807230769e+01
0	 7.312500000000000e+00	 1.562500000000000e+00	 1.008065307307693e+01
0	 7.312499999999999e+00	 1.625000000000000e+00	 1.008226811076923e+01
0	 7.312499999999999e+00	 1.687500000000000e+00	 1.008385318538462e+01
0	 7.312499999999998e+00	 1.750000000000000e+00	 1.008540829692308e+01
0	 7.312500000000000e+00	 1.812500000000000e+00	 1.008693344538461e+01
0	 7.312499999999997e+00	 1.875000000000000e+00	 1.008842863076923e+01
0	 7.374999999999998e+00	 1.250000000000000e+00	 1.006601923076923e+01
0	 7.375000000000000e+00	 1.312500000000000e+00	 1.006776089846154e+01
0	 7.374999999999996e+00	 1.375000000000000e+00	 1.006947326769231e+01
0	 7.374999999999997e+00	 1.437500000000000e+00	 1.007115633846154e+01
0	 7.375000000000000e+00	 1.500000000000000e+00	 1.007281011076923e+01
0	 7.374999999999998e+00	 1.562500000000000e+00	 1.007443458461538e+01
0	 7.375000000000000e+00	 1.625000000000001e+00	 1.007602975999999e+01
0	 7.374999999999998e+00	 1.687500000000000e+00	 1.007759563692307e+01
0	 7.374999999999997e+00	 1.750000000000000e+00	 1.007913221538461e+01
0	 7.374999999999998e+00	 1.812500000000001e+00	 1.008063949538461e+01
0	 7.374999999999998e+00	 1.875000000000000e+00	 1.008211747692307e+01
0	 7.437499999999998e+00	 1.250000000000000e+00	 1.005990862307692e+01
0	 7.437499999999999e+00	 1.312500000000000e+00	 1.006163407307693e+01
0	 7.437499999999997e+00	 1.375000000000000e+00	 1.006333088923076e+01
0	 7.437499999999998e+00	 1.437500000000000e+00	 1.006499907153846e+01
0	 7.437499999999998e+00	 1.500000000000000e+00	 1.006663862000000e+01
0	 7.437499999999998e+00	 1.562500000000000e+00	 1.006824953461539e+01
0	 7.437499999999998e+00	 1.625000000000000e+00	 1.006983181538462e+01
0	 7.437499999999998e+00	 1.687500000000000e+00	 1.007138546230769e+01
0	 7.437499999999998e+00	 1.750000000000000e+00	 1.007291047538462e+01
0	 7.437499999999998e+00	 1.812500000000000e+00	 1.007440685461538e+01
0	 7.437499999999998e+00	 1.875000000000000e+00	 1.007587460000001e+01
0	 7.500000000000000e+00	 1.250000000000000e+00	 1.005379661538462e+01
0	 7.500000000000000e+00	 1.312500000000000e+00	 1.005551281538462e+01
0	 7.500000000000000e+00	 1.375000000000000e+00	 1.005720104615385e+01
0	 7.500000000000001e+00	 1.437500000000000e+00	 1.005886130769231e+01
0	 7.500000000000001e+00	 1.500000000000000e+00	 1.006049360000000e+01
0	 7.500000000000000e+00	 1.562500000000000e+00	 1.006209792307692e+01
0	 7.499999999999999e+00	 1.625000000000000e+00	 1.006367427692308e+01
0	 7.500000000000000e+00	 1.687500000000000e+00	 1.006522266153846e+01
0	 7.500000000000001e+00	 1.750000000000001e+00	 1.006674307692307e+01
0	 7.500000000000000e+00	 1.812500000000000e+00	 1.006823552307692e+01
0	 7.500000000000000e+00	 1.875000000000000e+00	 1.006970000000000e+01
0	 6.875000000000000e+00	 1.875000000000000e+00	 1.013451846153845e+01
0	 6.875000000000000e+00	 1.937500000000000e+00	 1.013599327692308e+01
0	 6.875000000000000e+00	 2.000000000000000e+00	 1.013750141538462e+01
0	 6.875000000000001e+00	 2.062500000000000e+00	 1.013904287692308e+01
0	 6.875000000000001e+00	 2.125000000000000e+00	 1.014061766153845e+01
0	 6.875000000000000e+00	 2.187500000000000e+00	 1.014222576923077e+01
0	 6.875000000000000e+00	 2.250000000000000e+00	 1.014386719999999e+01
0	 6.875000000000000e+00	 2.312500000000000e+00	 1.014554195384615e+01
0	 6.875000000000001e+00	 2.375000000000001e+00	 1.014725003076924e+01
0	 6.875000000000000e+00	 2.437500000000001e+00	 1.014899143076923e+01
0	 6.875000000000000e+00	 2.500000000000000e+00	 1.015076615384616e+01
0	 6.937500000000000e+00	 1.875000000000000e+00	 1.012772936923076e+01
0	 6.937500000000000e+00	 1.937500000000000e+00	 1.012920050461538e+01
0	 6.937500000000001e+00	 2.000000000000000e+00	 1.013070284000000e+01
0	 6.937500000000000e+00	 2.062500000000000e+00	 1.013223637538461e+01
0	 6.937500000000001e+00	 2.125000000000001e+00	 1.013380111076922e+01
0	 6.937500000000000e+00	 2.187500000000000e+00	 1.013539704615384e+01
0	 6.937500000000000e+00	 2.250000000000000e+00	 1.013702418153846e+01
0	 6.937500000000001e+00	 2.312500000000000e+00	 1.013868251692308e+01
0	 6.937500000000001e+00	 2.375000000000000e+00	 1.014037205230769e+01
0	 6.937499999999997e+00	 2.437500000000000e+00	 1.014209278769231e+01
0	 6.937500000000000e+00	 2.500000000000000e+00	 1.014384472307692e+01
0	 6.999999999999999e+00	 1.875000000000000e+00	 1.012100855384615e+01
0	 7.000000000000001e+00	 1.937500000000000e+00	 1.012247760307693e+01
0	 7.000000000000001e+00	 2.000000000000000e+00	 1.012397572923077e+01
0	 6.999999999999999e+00	 2.062500000000000e+00	 1.012550293230769e+01
0	 7.000000000000001e+00	 2.125000000000000e+00	 1.012705921230769e+01
0	 7.000000000000000e+00	 2.187500000000001e+00	 1.012864456923077e+01
0	 7.000000000000001e+00	 2.250000000000000e+00	 1.013025900307691e+01
0	 6.999999999999999e+00	 2.312500000000000e+00	 1.013190251384615e+01
0	 7.000000000000000e+00	 2.375000000000000e+00	 1.013357510153847e+01
0	 7.000000000000000e+00	 2.437500000000000e+00	 1.013527676615384e+01
0	 6.999999999999999e+00	 2.500000000000000e+00	 1.013700750769231e+01
0	 7.062500000000000e+00	 1.875000000000000e+00	 1.011435601538461e+01
0	 7.062499999999999e+00	 1.937500000000000e+00	 1.011582457230769e+01
0	 7.062499999999998e+00	 2.000000000000000e+00	 1.011732008307692e+01
0	 7.062499999999999e+00	 2.062500000000000e+00	 1.011884254769231e+01
0	 7.062499999999999e+00	 2.125000000000001e+00	 1.012039196615384e+01
0	 7.062500000000000e+00	 2.187500000000000e+00	 1.012196833846154e+01
0	 7.062499999999997e+00	 2.250000000000000e+00	 1.012357166461538e+01
0	 7.062500000000001e+00	 2.312500000000000e+00	 1.012520194461538e+01
0	 7.062500000000000e+00	 2.375000000000000e+00	 1.012685917846154e+01
0	 7.062500000000000e+00	 2.437500000000000e+00	 1.012854336615385e+01
0	 7.062500000000000e+00	 2.500000000000000e+00	 1.013025450769231e+01
0	 7.125000000000000e+00	 1.875000000000000e+00	 1.010777175384615e+01
0	 7.124999999999999e+00	 1.937500000000000e+00	 1.010924141230769e+01
0	 7.124999999999997e+00	 2.000000000000000e+00	 1.011073590153846e+01
0	 7.125000000000000e+00	 2.062500000000000e+00	 1.011225522153846e+01
0	 7.124999999999999e+00	 2.125000000000000e+00	 1.011379937230770e+01
0	 7.124999999999998e+00	 2.187500000000000e+00	 1.011536835384615e+01
0	 7.125000000000001e+00	 2.250000000000000e+00	 1.011696216615385e+01
0	 7.124999999999999e+00	 2.312500000000000e+00	 1.011858080923077e+01
0	 7.125000000000001e+00	 2.375000000000000e+00	 1.012022428307692e+01
0	 7.124999999999999e+00	 2.437500000000000e+00	 1.012189258769230e+01
0	 7.125000000000000e+00	 2.500000000000000e+00	 1.012358572307692e+01
0	 7.187499999999998e+00	 1.875000000000000e+00	 1.010125576923077e+01
0	 7.187499999999998e+00	 1.937500000000000e+00	 1.010272812307692e+01
0	 7.187499999999999e+00	 2.000000000000000e+00	 1.010422318461538e+01
0	 7.187500000000000e+00	 2.062500000000000e+00	 1.010574095384615e+01
0	 7.187499999999998e+00	 2.125000000000000e+00	 1.010728143076923e+01
0	 7.187499999999998e+00	 2.187500000000000e+00	 1.010884461538461e+01
0	 7.187500000000000e+00	 2.250000000000000e+00	 1.011043050769231e+01
0	 7.187499999999999e+00	 2.312500000000001e+00	 1.011203910769230e+01
0	 7.187499999999998e+00	 2.375000000000000e+00	 1.011367041538461e+01
0	 7.187500000000000e+00	 2.437500000000000e+00	 1.011532443076923e+01
0	 7.187499999999998e+00	 2.500000000000000e+00	 1.011700115384616e+01
0	 7.249999999999998e+00	 1.875000000000000e+00	 1.009480806153845e+01
0	 7.249999999999996e+00	 1.937500000000000e+00	 1.009628470461538e+01
0	 7.250000000000000e+00	 2.000000000000000e+00	 1.009778193230769e+01
0	 7.249999999999998e+00	 2.062500000000000e+00	 1.009929974461538e+01
0	 7.249999999999997e+00	 2.125000000000000e+00	 1.010083814153846e+01
0	 7.249999999999999e+00	 2.187500000000000e+00	 1.010239712307693e+01
0	 7.249999999999999e+00	 2.250000000000000e+00	 1.010397668923076e+01
0	 7.249999999999999e+00	 2.312500000000000e+00	 1.010557684000001e+01
0	 7.249999999999998e+00	 2.375000000000001e+00	 1.010719757538461e+01
0	 7.249999999999997e+00	 2.437500000000000e+00	 1.010883889538461e+01
0	 7.249999999999998e+00	 2.500000000000000e+00	 1.011050080000001e+01
0	 7.312499999999997e+00	 1.875000000000000e+00	 1.008842863076923e+01
0	 7.312499999999997e+00	 1.937500000000000e+00	 1.008991115692307e+01
0	 7.312500000000000e+00	 2.000000000000001e+00	 1.009141214461538e+01
0	 7.312499999999999e+00	 2.062500000000000e+00	 1.009293159384615e+01
0	 7.312500000000000e+00	 2.125000000000001e+00	 1.009446950461539e+01
0	 7.312500000000000e+00	 2.187500000000000e+00	 1.009602587692308e+01
0	 7.312499999999999e+00	 2.250000000000000e+00	 1.009760071076923e+01
0	 7.312499999999999e+00	 2.312500000000001e+00	 1.009919400615384e+01
0	 7.312499999999998e+00	 2.375000000000000e+00	 1.010080576307693e+01
0	 7.312500000000000e+00	 2.437500000000000e+00	 1.010243598153846e+01
0	 7.312499999999997e+00	 2.500000000000000e+00	 1.010408466153847e+01
0	 7.374999999999998e+00	 1.875000000000000e+00	 1.008211747692307e+01
0	 7.375000000000000e+00	 1.937500000000000e+00	 1.008360748000000e+01
0	 7.374999999999996e+00	 2.000000000000000e+00	 1.008511382153846e+01
0	 7.374999999999997e+00	 2.062500000000000e+00	 1.008663650153846e+01
0	 7.375000000000000e+00	 2.125000000000000e+00	 1.008817552000000e+01
0	 7.374999999999998e+00	 2.187500000000000e+00	 1.008973087692307e+01
0	 7.375000000000000e+00	 2.250000000000000e+00	 1.009130257230769e+01
0	 7.374999999999998e+00	 2.312500000000000e+00	 1.009289060615385e+01
0	 7.374999999999997e+00	 2.375000000000000e+00	 1.009449497846155e+01
0	 7.374999999999998e+00	 2.437500000000001e+00	 1.009611568923077e+01
0	 7.374999999999998e+00	 2.500000000000000e+00	 1.009775273846154e+01
0	 7.437499999999998e+00	 1.875000000000000e+00	 1.007587460000001e+01
0	 7.437499999999999e+00	 1.937500000000000e+00	 1.007737367384616e+01
0	 7.437499999999997e+00	 2.000000000000000e+00	 1.007888696307692e+01
0	 7.437499999999998e+00	 2.062500000000000e+00	 1.008041446769231e+01
0	 7.437499999999998e+00	 2.125000000000000e+00	 1.008195618769231e+01
0	 7.437499999999998e+00	 2.187500000000000e+00	 1.008351212307692e+01
0	 7.437499999999998e+00	 2.250000000000000e+00	 1.008508227384615e+01
0	 7.437499999999998e+00	 2.312500000000000e+00	 1.008666664000000e+01
0	 7.437499999999998e+00	 2.375000000000000e+00	 1.008826522153847e+01
0	 7.437499999999998e+00	 2.437500000000000e+00	 1.008987801846153e+01
0	 7.437499999999998e+00	 2.500000000000000e+00	 1.009150503076923e+01
0	 7.500000000000000e+00	 1.875000000000000e+00	 1.006970000000000e+01
0	 7.500000000000000e+00	 1.937500000000000e+00	 1.007120973846154e+01
0	 7.500000000000000e+00	 2.000000000000000e+00	 1.007273156923077e+01
0	 7.500000000000001e+00	 2.062500000000000e+00	 1.007426549230769e+01
0	 7.500000000000001e+00	 2.125000000000000e+00	 1.007581150769231e+01
0	 7.500000000000000e+00	 2.187500000000000e+00	 1.007736961538462e+01
0	 7.499999999999999e+00	 2.250000000000000e+00	 1.007893981538462e+01
0	 7.500000000000000e+00	 2.312500000000000e+00	 1.008052210769230e+01
0	 7.500000000000001e+00	 2.375000000000001e+00	 1.008211649230770e+01
0	 7.500000000000000e+00	 2.437500000000001e+00	 1.008372296923077e+01
0	 7.500000000000000e+00	 2.500000000000000e+00	 1.008534153846154e+01
0	 6.875000000000000e+00	 2.500000000000000e+00	 1.015076615384616e+01
0	 6.875000000000000e+00	 2.562500000000000e+00	 1.015137395384617e+01
0	 6.875000000000000e+00	 2.625000000000000e+00	 1.015205273846153e+01
0	 6.875000000000000e+00	 2.687499999999999e+00	 1.015280250769230e+01
0	 6.875000000000000e+00	 2.750000000000000e+00	 1.015362326153846e+01
0	 6.875000000000000e+00	 2.812499999999999e+00	 1.015451500000000e+01
0	 6.875000000000000e+00	 2.874999999999999e+00	 1.015547772307692e+01
0	 6.875000000000000e+00	 2.937499999999998e+00	 1.015651143076922e+01
0	 6.875000000000000e+00	 2.999999999999998e+00	 1.015761612307692e+01
0	 6.875000000000000e+00	 3.062499999999998e+00	 1.015879180000000e+01
0	 6.875000000000000e+00	 3.125000000000000e+00	 1.016003846153846e+01
0	 6.937500000000000e+00	 2.500000000000000e+00	 1.014384472307692e+01
0	 6.937499999999999e+00	 2.562500000000000e+00	 1.014447349846154e+01
0	 6.937500000000000e+00	 2.624999999999999e+00	 1.014517057230769e+01
0	 6.937500000000000e+00	 2.687499999999999e+00	 1.014593594461538e+01
0	 6.937499999999999e+00	 2.750000000000000e+00	 1.014676961538462e+01
0	 6.937500000000001e+00	 2.812499999999999e+00	 1.014767158461538e+01
0	 6.937500000000000e+00	 2.875000000000000e+00	 1.014864185230768e+01
0	 6.937500000000001e+00	 2.937499999999999e+00	 1.014968041846154e+01
0	 6.937500000000002e+00	 2.999999999999999e+00	 1.015078728307693e+01
0	 6.937499999999999e+00	 3.062499999999997e+00	 1.015196244615384e+01
0	 6.937500000000000e+00	 3.125000000000000e+00	 1.015320590769230e+01
0	 6.999999999999999e+00	 2.500000000000000e+00	 1.013700750769231e+01
0	 6.999999999999999e+00	 2.562500000000000e+00	 1.013765986461539e+01
0	 7.000000000000001e+00	 2.625000000000000e+00	 1.013837783384615e+01
0	 7.000000000000001e+00	 2.687500000000000e+00	 1.013916141538461e+01
0	 6.999999999999999e+00	 2.749999999999999e+00	 1.014001060923077e+01
0	 6.999999999999999e+00	 2.812499999999999e+00	 1.014092541538462e+01
0	 6.999999999999998e+00	 2.874999999999999e+00	 1.014190583384615e+01
0	 7.000000000000001e+00	 2.937499999999999e+00	 1.014295186461538e+01
0	 6.999999999999998e+00	 2.999999999999998e+00	 1.014406350769231e+01
0	 7.000000000000001e+00	 3.062499999999999e+00	 1.014524076307691e+01
0	 6.999999999999999e+00	 3.125000000000000e+00	 1.014648363076924e+01
0	 7.062500000000000e+00	 2.500000000000000e+00	 1.013025450769231e+01
0	 7.062500000000000e+00	 2.562500000000000e+00	 1.013093305230769e+01
0	 7.062500000000001e+00	 2.625000000000000e+00	 1.013167452307693e+01
0	 7.062500000000000e+00	 2.687499999999999e+00	 1.013247892000000e+01
0	 7.062500000000000e+00	 2.749999999999999e+00	 1.013334624307692e+01
0	 7.062500000000000e+00	 2.812499999999999e+00	 1.013427649230769e+01
0	 7.062500000000000e+00	 2.874999999999999e+00	 1.013526966769231e+01
0	 7.062499999999999e+00	 2.937499999999999e+00	 1.013632576923077e+01
0	 7.062499999999998e+00	 2.999999999999999e+00	 1.013744479692307e+01
0	 7.062500000000000e+00	 3.062499999999998e+00	 1.013862675076923e+01
0	 7.062500000000000e+00	 3.125000000000000e+00	 1.013987163076922e+01
0	 7.125000000000000e+00	 2.500000000000000e+00	 1.012358572307692e+01
0	 7.124999999999999e+00	 2.562500000000000e+00	 1.012429306153846e+01
0	 7.125000000000001e+00	 2.625000000000000e+00	 1.012506064000000e+01
0	 7.124999999999998e+00	 2.687500000000000e+00	 1.012588845846154e+01
0	 7.124999999999998e+00	 2.750000000000000e+00	 1.012677651692307e+01
0	 7.125000000000000e+00	 2.812499999999999e+00	 1.012772481538461e+01
0	 7.124999999999997e+00	 2.874999999999999e+00	 1.012873335384615e+01
0	 7.125000000000000e+00	 2.937499999999998e+00	 1.012980213230769e+01
0	 7.124999999999999e+00	 2.999999999999999e+00	 1.013093115076923e+01
0	 7.124999999999999e+00	 3.062499999999998e+00	 1.013212040923077e+01
0	 7.125000000000000e+00	 3.125000000000000e+00	 1.013336990769230e+01
0	 7.187499999999998e+00	 2.500000000000000e+00	 1.011700115384616e+01
0	 7.187499999999998e+00	 2.562499999999999e+00	 1.011773989230769e+01
0	 7.187499999999999e+00	 2.625000000000000e+00	 1.011853618461538e+01
0	 7.187499999999999e+00	 2.687500000000000e+00	 1.011939003076923e+01
0	 7.187499999999998e+00	 2.749999999999999e+00	 1.012030143076923e+01
0	 7.187499999999999e+00	 2.812499999999999e+00	 1.012127038461538e+01
0	 7.187500000000000e+00	 2.874999999999999e+00	 1.012229689230769e+01
0	 7.187499999999999e+00	 2.937499999999998e+00	 1.012338095384615e+01
0	 7.187499999999999e+00	 2.999999999999998e+00	 1.012452256923076e+01
0	 7.187499999999999e+00	 3.062499999999998e+00	 1.012572173846154e+01
0	 7.187499999999998e+00	 3.125000000000000e+00	 1.012697846153847e+01
0	 7.249999999999998e+00	 2.500000000000000e+00	 1.011050080000001e+01
0	 7.249999999999999e+00	 2.562500000000000e+00	 1.011127354461538e+01
0	 7.249999999999996e+00	 2.625000000000000e+00	 1.011210115692308e+01
0	 7.249999999999999e+00	 2.687500000000000e+00	 1.011298363692307e+01
0	 7.249999999999999e+00	 2.750000000000000e+00	 1.011392098461538e+01
0	 7.250000000000000e+00	 2.812500000000000e+00	 1.011491320000000e+01
0	 7.249999999999999e+00	 2.874999999999999e+00	 1.011596028307692e+01
0	 7.249999999999998e+00	 2.937499999999999e+00	 1.011706223384615e+01
0	 7.249999999999999e+00	 2.999999999999999e+00	 1.011821905230769e+01
0	 7.249999999999999e+00	 3.062499999999998e+00	 1.011943073846153e+01
0	 7.249999999999998e+00	 3.125000000000000e+00	 1.012069729230767e+01
0	 7.312499999999997e+00	 2.500000000000000e+00	 1.010408466153847e+01
0	 7.312499999999998e+00	 2.562500000000000e+00	 1.010489401846154e+01
0	 7.312500000000000e+00	 2.625000000000000e+00	 1.010575555692308e+01
0	 7.312499999999997e+00	 2.687500000000000e+00	 1.010666927692307e+01
0	 7.312499999999998e+00	 2.749999999999999e+00	 1.010763517846154e+01
0	 7.312499999999999e+00	 2.812499999999999e+00	 1.010865326153846e+01
0	 7.312499999999998e+00	 2.874999999999999e+00	 1.010972352615384e+01
0	 7.312500000000000e+00	 2.937499999999998e+00	 1.011084597230769e+01
0	 7.312499999999998e+00	 2.999999999999998e+00	 1.011202060000000e+01
0	 7.312499999999999e+00	 3.062499999999998e+00	 1.011324740923078e+01
0	 7.312499999999997e+00	 3.125000000000000e+00	 1.011452639999999e+01
0	 7.374999999999998e+00	 2.500000000000000e+00	 1.009775273846154e+01
0	 7.374999999999999e+00	 2.562500000000001e+00	 1.009860131384615e+01
0	 7.374999999999996e+00	 2.625000000000000e+00	 1.009949938461539e+01
0	 7.374999999999998e+00	 2.687500000000000e+00	 1.010044695076923e+01
0	 7.374999999999999e+00	 2.749999999999999e+00	 1.010144401230769e+01
0	 7.374999999999998e+00	 2.812499999999999e+00	 1.010249056923077e+01
0	 7.374999999999999e+00	 2.874999999999999e+00	 1.010358662153846e+01
0	 7.374999999999997e+00	 2.937499999999998e+00	 1.010473216923076e+01
0	 7.374999999999997e+00	 2.999999999999998e+00	 1.010592721230770e+01
0	 7.374999999999998e+00	 3.062499999999998e+00	 1.010717175076923e+01
0	 7.374999999999998e+00	 3.125000000000000e+00	 1.010846578461538e+01
0	 7.437499999999998e+00	 2.500000000000000e+00	 1.009150503076923e+01
0	 7.437499999999997e+00	 2.562500000000000e+00	 1.009239543076922e+01
0	 7.437499999999999e+00	 2.625000000000000e+00	 1.009333264000000e+01
0	 7.437499999999998e+00	 2.687500000000000e+00	 1.009431665846154e+01
0	 7.437499999999999e+00	 2.749999999999999e+00	 1.009534748615385e+01
0	 7.437499999999998e+00	 2.812499999999999e+00	 1.009642512307692e+01
0	 7.437499999999998e+00	 2.874999999999999e+00	 1.009754956923077e+01
0	 7.437499999999997e+00	 2.937499999999998e+00	 1.009872082461537e+01
0	 7.437499999999998e+00	 2.999999999999998e+00	 1.009993888923076e+01
0	 7.437499999999997e+00	 3.062499999999998e+00	 1.010120376307690e+01
0	 7.437499999999998e+00	 3.125000000000000e+00	 1.010251544615385e+01
0	 7.500000000000000e+00	 2.500000000000000e+00	 1.008534153846154e+01
0	 7.500000000000001e+00	 2.562500000000000e+00	 1.008627636923078e+01
0	 7.500000000000000e+00	 2.625000000000000e+00	 1.008725532307693e+01
0	 7.500000000000000e+00	 2.687499999999999e+00	 1.008827839999999e+01
0	 7.500000000000000e+00	 2.750000000000000e+00	 1.008934559999999e+01
0	 7.500000000000000e+00	 2.812499999999999e+00	 1.009045692307693e+01
0	 7.500000000000000e+00	 2.874999999999999e+00	 1.009161236923076e+01
0	 7.499999999999999e+00	 2.937499999999998e+00	 1.009281193846154e+01
0	 7.500000000000000e+00	 2.999999999999998e+00	 1.009405563076923e+01
0	 7.500000000000000e+00	 3.062499999999998e+00	 1.009534344615385e+01
0	 7.500000000000000e+00	 3.125000000000000e+00	 1.009667538461538e+01
0	 6.875000000000000e+00	 3.125000000000000e+00	 1.016003846153846e+01
0	 6.875000000000000e+00	 3.187500000000000e+00	 1.015954961538460e+01
0	 6.875000000000000e+00	 3.250000000000000e+00	 1.015915446153846e+01
0	 6.875000000000000e+00	 3.312499999999999e+00	 1.015885300000000e+01
0	 6.875000000000000e+00	 3.374999999999999e+00	 1.015864523076924e+01
0	 6.875000000000000e+00	 3.437499999999999e+00	 1.015853115384615e+01
0	 6.875000000000000e+00	 3.499999999999999e+00	 1.015851076923077e+01
0	 6.875000000000000e+00	 3.562499999999998e+00	 1.015858407692308e+01
0	 6.875000000000000e+00	 3.624999999999999e+00	 1.015875107692308e+01
0	 6.875000000000000e+00	 3.687499999999998e+00	 1.015901176923077e+01
0	 6.875000000000000e+00	 3.750000000000000e+00	 1.015936615384616e+01
0	 6.937500000000000e+00	 3.125000000000000e+00	 1.015320590769230e+01
0	 6.937499999999999e+00	 3.187500000000000e+00	 1.015280624153846e+01
0	 6.937500000000000e+00	 3.250000000000000e+00	 1.015249660307693e+01
0	 6.937500000000000e+00	 3.312499999999999e+00	 1.015227699230770e+01
0	 6.937499999999999e+00	 3.374999999999999e+00	 1.015214740923077e+01
0	 6.937500000000001e+00	 3.437499999999999e+00	 1.015210785384616e+01
0	 6.937500000000000e+00	 3.500000000000000e+00	 1.015215832615384e+01
0	 6.937500000000001e+00	 3.562499999999999e+00	 1.015229882615385e+01
0	 6.937500000000002e+00	 3.625000000000000e+00	 1.015252935384616e+01
0	 6.937499999999999e+00	 3.687499999999997e+00	 1.015284990923078e+01
0	 6.937500000000000e+00	 3.750000000000000e+00	 1.015326049230771e+01
0	 6.999999999999999e+00	 3.125000000000000e+00	 1.014648363076924e+01
0	 6.999999999999999e+00	 3.187500000000000e+00	 1.014617043076923e+01
0	 7.000000000000001e+00	 3.250000000000000e+00	 1.014594359384615e+01
0	 7.000000000000001e+00	 3.312500000000000e+00	 1.014580312000000e+01
0	 6.999999999999999e+00	 3.374999999999999e+00	 1.014574900923077e+01
0	 6.999999999999999e+00	 3.437499999999999e+00	 1.014578126153847e+01
0	 6.999999999999998e+00	 3.499999999999997e+00	 1.014589987692308e+01
0	 7.000000000000001e+00	 3.562499999999999e+00	 1.014610485538462e+01
0	 6.999999999999998e+00	 3.624999999999998e+00	 1.014639619692307e+01
0	 7.000000000000001e+00	 3.687499999999999e+00	 1.014677390153848e+01
0	 6.999999999999999e+00	 3.750000000000000e+00	 1.014723796923077e+01
0	 7.062500000000000e+00	 3.125000000000000e+00	 1.013987163076922e+01
0	 7.062500000000000e+00	 3.187500000000000e+00	 1.013964218307692e+01
0	 7.062500000000001e+00	 3.250000000000000e+00	 1.013949543384616e+01
0	 7.062500000000000e+00	 3.312500000000000e+00	 1.013943138307693e+01
0	 7.062500000000000e+00	 3.374999999999999e+00	 1.013945003076924e+01
0	 7.062500000000000e+00	 3.437499999999999e+00	 1.013955137692308e+01
0	 7.062500000000000e+00	 3.499999999999998e+00	 1.013973542153847e+01
0	 7.062499999999999e+00	 3.562499999999998e+00	 1.014000216461539e+01
0	 7.062499999999998e+00	 3.624999999999998e+00	 1.014035160615386e+01
0	 7.062500000000000e+00	 3.687499999999998e+00	 1.014078374615385e+01
0	 7.062500000000000e+00	 3.750000000000000e+00	 1.014129858461539e+01
0	 7.125000000000000e+00	 3.125000000000000e+00	 1.013336990769230e+01
0	 7.124999999999999e+00	 3.187500000000000e+00	 1.013322149846154e+01
0	 7.125000000000001e+00	 3.250000000000000e+00	 1.013315212307693e+01
0	 7.124999999999998e+00	 3.312500000000000e+00	 1.013316178153846e+01
0	 7.124999999999998e+00	 3.374999999999999e+00	 1.013325047384614e+01
0	 7.125000000000000e+00	 3.437499999999999e+00	 1.013341820000000e+01
0	 7.124999999999997e+00	 3.499999999999998e+00	 1.013366496000001e+01
0	 7.125000000000000e+00	 3.562499999999998e+00	 1.013399075384616e+01
0	 7.124999999999999e+00	 3.624999999999999e+00	 1.013439558153847e+01
0	 7.124999999999999e+00	 3.687499999999998e+00	 1.013487944307693e+01
0	 7.125000000000000e+00	 3.750000000000000e+00	 1.013544233846155e+01
0	 7.187499999999998e+00	 3.125000000000000e+00	 1.012697846153847e+01
0	 7.187499999999998e+00	 3.187500000000000e+00	 1.012690837692308e+01
0	 7.187499999999999e+00	 3.250000000000000e+00	 1.012691366153847e+01
0	 7.187499999999999e+00	 3.312500000000000e+00	 1.012699431538461e+01
0	 7.187499999999998e+00	 3.374999999999998e+00	 1.012715033846154e+01
0	 7.187499999999999e+00	 3.437499999999999e+00	 1.012738173076923e+01
0	 7.187500000000000e+00	 3.499999999999999e+00	 1.012768849230769e+01
0	 7.187499999999999e+00	 3.562499999999999e+00	 1.012807062307692e+01
0	 7.187499999999999e+00	 3.624999999999998e+00	 1.012852812307692e+01
0	 7.187499999999999e+00	 3.687499999999999e+00	 1.012906099230771e+01
0	 7.187499999999998e+00	 3.750000000000000e+00	 1.012966923076924e+01
0	 7.249999999999998e+00	 3.125000000000000e+00	 1.012069729230767e+01
0	 7.249999999999999e+00	 3.187500000000000e+00	 1.012070281846154e+01
0	 7.249999999999996e+00	 3.249999999999999e+00	 1.012078004923077e+01
0	 7.249999999999999e+00	 3.312499999999999e+00	 1.012092898461539e+01
0	 7.249999999999999e+00	 3.375000000000000e+00	 1.012114962461539e+01
0	 7.250000000000000e+00	 3.437500000000000e+00	 1.012144196923077e+01
0	 7.249999999999999e+00	 3.499999999999999e+00	 1.012180601846153e+01
0	 7.249999999999998e+00	 3.562499999999999e+00	 1.012224177230769e+01
0	 7.249999999999999e+00	 3.624999999999999e+00	 1.012274923076924e+01
0	 7.249999999999999e+00	 3.687499999999998e+00	 1.012332839384617e+01
0	 7.249999999999998e+00	 3.750000000000000e+00	 1.012397926153847e+01
0	 7.312499999999997e+00	 3.125000000000000e+00	 1.011452639999999e+01
0	 7.312499999999998e+00	 3.187500000000000e+00	 1.011460482307692e+01
0	 7.312500000000000e+00	 3.250000000000000e+00	 1.011475128615384e+01
0	 7.312499999999997e+00	 3.312500000000000e+00	 1.011496578923077e+01
0	 7.312499999999998e+00	 3.374999999999999e+00	 1.011524833230769e+01
0	 7.312499999999999e+00	 3.437499999999999e+00	 1.011559891538462e+01
0	 7.312499999999998e+00	 3.499999999999999e+00	 1.011601753846154e+01
0	 7.312500000000000e+00	 3.562499999999999e+00	 1.011650420153846e+01
0	 7.312499999999998e+00	 3.624999999999998e+00	 1.011705890461539e+01
0	 7.312499999999999e+00	 3.687499999999999e+00	 1.011768164769231e+01
0	 7.312499999999997e+00	 3.750000000000000e+00	 1.011837243076923e+01
0	 7.374999999999998e+00	 3.125000000000000e+00	 1.010846578461538e+01
0	 7.374999999999999e+00	 3.187500000000001e+00	 1.010861439076923e+01
0	 7.374999999999996e+00	 3.250000000000000e+00	 1.010882737230769e+01
0	 7.374999999999998e+00	 3.312500000000000e+00	 1.010910472923077e+01
0	 7.374999999999999e+00	 3.374999999999999e+00	 1.010944646153846e+01
0	 7.374999999999998e+00	 3.437499999999999e+00	 1.010985256923077e+01
0	 7.374999999999999e+00	 3.499999999999998e+00	 1.011032305230770e+01
0	 7.374999999999997e+00	 3.562499999999998e+00	 1.011085791076923e+01
0	 7.374999999999997e+00	 3.624999999999998e+00	 1.011145714461540e+01
0	 7.374999999999998e+00	 3.687499999999998e+00	 1.011212075384616e+01
0	 7.374999999999998e+00	 3.750000000000000e+00	 1.011284873846155e+01
0	 7.437499999999998e+00	 3.125000000000000e+00	 1.010251544615385e+01
0	 7.437499999999997e+00	 3.187500000000000e+00	 1.010273152153846e+01
0	 7.437499999999999e+00	 3.250000000000000e+00	 1.010300830769230e+01
0	 7.437499999999998e+00	 3.312500000000000e+00	 1.010334580461538e+01
0	 7.437499999999999e+00	 3.374999999999999e+00	 1.010374401230769e+01
0	 7.437499999999998e+00	 3.437500000000000e+00	 1.010420293076923e+01
0	 7.437499999999998e+00	 3.499999999999998e+00	 1.010472256000000e+01
0	 7.437499999999997e+00	 3.562499999999998e+00	 1.010530290000000e+01
0	 7.437499999999998e+00	 3.624999999999998e+00	 1.010594395076923e+01
0	 7.437499999999997e+00	 3.687499999999997e+00	 1.010664571230769e+01
0	 7.437499999999998e+00	 3.750000000000000e+00	 1.010740818461539e+01
0	 7.500000000000000e+00	 3.125000000000000e+00	 1.009667538461538e+01
0	 7.500000000000001e+00	 3.187500000000000e+00	 1.009695621538460e+01
0	 7.500000000000000e+00	 3.250000000000000e+00	 1.009729409230768e+01
0	 7.500000000000000e+00	 3.312499999999999e+00	 1.009768901538461e+01
0	 7.500000000000000e+00	 3.374999999999999e+00	 1.009814098461538e+01
0	 7.500000000000000e+00	 3.437499999999999e+00	 1.009865000000000e+01
0	 7.500000000000000e+00	 3.499999999999999e+00	 1.009921606153847e+01
0	 7.499999999999999e+00	 3.562499999999998e+00	 1.009983916923078e+01
0	 7.500000000000000e+00	 3.624999999999999e+00	 1.010051932307692e+01
0	 7.500000000000000e+00	 3.687499999999998e+00	 1.010125652307691e+01
0	 7.500000000000000e+00	 3.750000000000000e+00	 1.010205076923077e+01
0	 6.875000000000000e+00	 3.750000000000000e+00	 1.015936615384616e+01
0	 6.875000000000000e+00	 3.812500000000000e+00	 1.015806804615386e+01
0	 6.875000000000000e+00	 3.875000000000000e+00	 1.015685403076924e+01
0	 6.875000000000000e+00	 3.937499999999999e+00	 1.015572410769231e+01
0	 6.875000000000000e+00	 4.000000000000000e+00	 1.015467827692308e+01
0	 6.875000000000000e+00	 4.062499999999999e+00	 1.015371653846155e+01
0	 6.875000000000000e+00	 4.124999999999999e+00	 1.015283889230769e+01
0	 6.875000000000000e+00	 4.187499999999998e+00	 1.015204533846154e+01
0	 6.875000000000000e+00	 4.249999999999998e+00	 1.015133587692309e+01
0	 6.875000000000000e+00	 4.312499999999998e+00	 1.015071050769232e+01
0	 6.875000000000000e+00	 4.375000000000000e+00	 1.015016923076923e+01
0	 6.937500000000000e+00	 3.750000000000000e+00	 1.015326049230771e+01
0	 6.937499999999999e+00	 3.812500000000000e+00	 1.015206011538463e+01
0	 6.937500000000000e+00	 3.875000000000000e+00	 1.015094141230770e+01
0	 6.937500000000000e+00	 3.937500000000000e+00	 1.014990438307692e+01
0	 6.937499999999999e+00	 3.999999999999999e+00	 1.014894902769231e+01
0	 6.937500000000001e+00	 4.062499999999999e+00	 1.014807534615384e+01
0	 6.937500000000000e+00	 4.125000000000000e+00	 1.014728333846154e+01
0	 6.937500000000001e+00	 4.187500000000000e+00	 1.014657300461538e+01
0	 6.937500000000002e+00	 4.250000000000000e+00	 1.014594434461539e+01
0	 6.937499999999999e+00	 4.312499999999997e+00	 1.014539735846154e+01
0	 6.937500000000000e+00	 4.375000000000000e+00	 1.014493204615384e+01
0	 6.999999999999999e+00	 3.750000000000000e+00	 1.014723796923077e+01
0	 6.999999999999999e+00	 3.812500000000000e+00	 1.014613344923078e+01
0	 7.000000000000001e+00	 3.875000000000000e+00	 1.014510818461539e+01
0	 7.000000000000001e+00	 3.937500000000000e+00	 1.014416217538461e+01
0	 6.999999999999999e+00	 3.999999999999999e+00	 1.014329542153846e+01
0	 6.999999999999999e+00	 4.062499999999999e+00	 1.014250792307691e+01
0	 6.999999999999998e+00	 4.124999999999997e+00	 1.014179968000000e+01
0	 7.000000000000001e+00	 4.187499999999998e+00	 1.014117069230769e+01
0	 6.999999999999998e+00	 4.249999999999998e+00	 1.014062096000000e+01
0	 7.000000000000001e+00	 4.312499999999998e+00	 1.014015048307694e+01
0	 6.999999999999999e+00	 4.375000000000000e+00	 1.013975926153845e+01
0	 7.062500000000000e+00	 3.750000000000000e+00	 1.014129858461539e+01
0	 7.062500000000000e+00	 3.812500000000000e+00	 1.014028804769231e+01
0	 7.062500000000001e+00	 3.875000000000000e+00	 1.013935434769231e+01
0	 7.062500000000000e+00	 3.937500000000000e+00	 1.013849748461541e+01
0	 7.062500000000000e+00	 3.999999999999999e+00	 1.013771745846154e+01
0	 7.062500000000000e+00	 4.062500000000000e+00	 1.013701426923076e+01
0	 7.062500000000000e+00	 4.124999999999998e+00	 1.013638791692309e+01
0	 7.062499999999999e+00	 4.187499999999999e+00	 1.013583840153846e+01
0	 7.062499999999998e+00	 4.249999999999998e+00	 1.013536572307691e+01
0	 7.062500000000000e+00	 4.312499999999997e+00	 1.013496988153847e+01
0	 7.062500000000000e+00	 4.375000000000000e+00	 1.013465087692306e+01
0	 7.125000000000000e+00	 3.750000000000000e+00	 1.013544233846155e+01
0	 7.124999999999999e+00	 3.812500000000000e+00	 1.013452391076924e+01
0	 7.125000000000001e+00	 3.875000000000000e+00	 1.013367990153846e+01
0	 7.124999999999998e+00	 3.937500000000000e+00	 1.013291031076923e+01
0	 7.124999999999998e+00	 3.999999999999999e+00	 1.013221513846154e+01
0	 7.125000000000000e+00	 4.062499999999999e+00	 1.013159438461539e+01
0	 7.124999999999997e+00	 4.124999999999998e+00	 1.013104804923077e+01
0	 7.125000000000000e+00	 4.187499999999999e+00	 1.013057613230769e+01
0	 7.124999999999999e+00	 4.249999999999998e+00	 1.013017863384616e+01
0	 7.124999999999999e+00	 4.312499999999998e+00	 1.012985555384614e+01
0	 7.125000000000000e+00	 4.375000000000000e+00	 1.012960689230770e+01
0	 7.187499999999998e+00	 3.750000000000000e+00	 1.012966923076924e+01
0	 7.187499999999998e+00	 3.812500000000000e+00	 1.012884103846154e+01
0	 7.187499999999999e+00	 3.875000000000000e+00	 1.012808484615385e+01
0	 7.187499999999999e+00	 3.937499999999999e+00	 1.012740065384616e+01
0	 7.187499999999998e+00	 3.999999999999998e+00	 1.012678846153846e+01
0	 7.187499999999999e+00	 4.062499999999999e+00	 1.012624826923077e+01
0	 7.187500000000000e+00	 4.125000000000000e+00	 1.012578007692307e+01
0	 7.187499999999999e+00	 4.187499999999998e+00	 1.012538388461538e+01
0	 7.187499999999999e+00	 4.249999999999998e+00	 1.012505969230768e+01
0	 7.187499999999999e+00	 4.312499999999998e+00	 1.012480750000000e+01
0	 7.187499999999998e+00	 4.375000000000000e+00	 1.012462730769231e+01
0	 7.249999999999998e+00	 3.750000000000000e+00	 1.012397926153847e+01
0	 7.249999999999999e+00	 3.812500000000000e+00	 1.012323943076925e+01
0	 7.249999999999996e+00	 3.874999999999999e+00	 1.012256918153846e+01
0	 7.249999999999999e+00	 3.937500000000000e+00	 1.012196851384616e+01
0	 7.249999999999999e+00	 4.000000000000000e+00	 1.012143742769231e+01
0	 7.250000000000000e+00	 4.062500000000000e+00	 1.012097592307693e+01
0	 7.249999999999999e+00	 4.124999999999999e+00	 1.012058400000000e+01
0	 7.249999999999998e+00	 4.187499999999998e+00	 1.012026165846153e+01
0	 7.249999999999999e+00	 4.249999999999999e+00	 1.012000889846154e+01
0	 7.249999999999999e+00	 4.312499999999997e+00	 1.011982571999999e+01
0	 7.249999999999998e+00	 4.375000000000000e+00	 1.011971212307691e+01
0	 7.312499999999997e+00	 3.750000000000000e+00	 1.011837243076923e+01
0	 7.312499999999998e+00	 3.812500000000000e+00	 1.011771908769231e+01
0	 7.312500000000000e+00	 3.875000000000000e+00	 1.011713290769231e+01
0	 7.312499999999997e+00	 3.937499999999999e+00	 1.011661389076924e+01
0	 7.312499999999998e+00	 3.999999999999999e+00	 1.011616203692309e+01
0	 7.312499999999999e+00	 4.062500000000000e+00	 1.011577734615386e+01
0	 7.312499999999998e+00	 4.124999999999999e+00	 1.011545981846154e+01
0	 7.312500000000000e+00	 4.187499999999999e+00	 1.011520945384616e+01
0	 7.312499999999998e+00	 4.249999999999998e+00	 1.011502625230770e+01
0	 7.312499999999999e+00	 4.312499999999998e+00	 1.011491021384616e+01
0	 7.312499999999997e+00	 4.375000000000000e+00	 1.011486133846154e+01
0	 7.374999999999998e+00	 3.750000000000000e+00	 1.011284873846155e+01
0	 7.374999999999999e+00	 3.812500000000000e+00	 1.011228000923078e+01
0	 7.374999999999996e+00	 3.875000000000000e+00	 1.011177602461539e+01
0	 7.374999999999998e+00	 3.937500000000000e+00	 1.011133678461539e+01
0	 7.374999999999999e+00	 3.999999999999999e+00	 1.011096228923077e+01
0	 7.374999999999998e+00	 4.062499999999998e+00	 1.011065253846154e+01
0	 7.374999999999999e+00	 4.124999999999999e+00	 1.011040753230770e+01
0	 7.374999999999997e+00	 4.187499999999998e+00	 1.011022727076923e+01
0	 7.374999999999997e+00	 4.249999999999998e+00	 1.011011175384617e+01
0	 7.374999999999998e+00	 4.312499999999998e+00	 1.011006098153847e+01
0	 7.374999999999998e+00	 4.375000000000000e+00	 1.011007495384616e+01
0	 7.437499999999998e+00	 3.750000000000000e+00	 1.010740818461539e+01
0	 7.437499999999997e+00	 3.812500000000000e+00	 1.010692219538461e+01
0	 7.437499999999999e+00	 3.875000000000000e+00	 1.010649853230769e+01
0	 7.437499999999998e+00	 3.937499999999999e+00	 1.010613719538461e+01
0	 7.437499999999999e+00	 3.999999999999999e+00	 1.010583818461539e+01
0	 7.437499999999998e+00	 4.062499999999998e+00	 1.010560150000000e+01
0	 7.437499999999998e+00	 4.124999999999998e+00	 1.010542714153846e+01
0	 7.437499999999997e+00	 4.187499999999998e+00	 1.010531510923077e+01
0	 7.437499999999998e+00	 4.249999999999998e+00	 1.010526540307692e+01
0	 7.437499999999997e+00	 4.312499999999998e+00	 1.010527802307693e+01
0	 7.437499999999998e+00	 4.375000000000000e+00	 1.010535296923077e+01
0	 7.500000000000000e+00	 3.750000000000000e+00	 1.010205076923077e+01
0	 7.500000000000001e+00	 3.812500000000000e+00	 1.010164564615385e+01
0	 7.500000000000000e+00	 3.875000000000000e+00	 1.010130043076924e+01
0	 7.500000000000000e+00	 3.937499999999999e+00	 1.010101512307692e+01
0	 7.500000000000000e+00	 4.000000000000000e+00	 1.010078972307693e+01
0	 7.500000000000000e+00	 4.062499999999999e+00	 1.010062423076924e+01
0	 7.500000000000000e+00	 4.124999999999999e+00	 1.010051864615385e+01
0	 7.499999999999999e+00	 4.187499999999998e+00	 1.010047296923078e+01
0	 7.500000000000000e+00	 4.249999999999998e+00	 1.010048720000001e+01
0	 7.500000000000000e+00	 4.312499999999998e+00	 1.010056133846155e+01
0	 7.500000000000000e+00	 4.375000000000000e+00	 1.010069538461538e+01
0	 6.875000000000000e+00	 4.375000000000000e+00	 1.015016923076923e+01
0	 6.875000000000000e+00	 4.437499999999999e+00	 1.014824256923077e+01
0	 6.875000000000000e+00	 4.500000000000001e+00	 1.014638596923077e+01
0	 6.875000000000000e+00	 4.562499999999999e+00	 1.014459943076923e+01
0	 6.875000000000000e+00	 4.625000000000000e+00	 1.014288295384616e+01
0	 6.875000000000000e+00	 4.687499999999999e+00	 1.014123653846153e+01
0	 6.875000000000000e+00	 4.749999999999999e+00	 1.013966018461539e+01
0	 6.875000000000000e+00	 4.812499999999998e+00	 1.013815389230769e+01
0	 6.875000000000000e+00	 4.874999999999998e+00	 1.013671766153846e+01
0	 6.875000000000000e+00	 4.937499999999998e+00	 1.013535149230768e+01
0	 6.875000000000000e+00	 5.000000000000000e+00	 1.013405538461538e+01
0	 6.937500000000000e+00	 4.375000000000000e+00	 1.014493204615384e+01
0	 6.937499999999999e+00	 4.437500000000000e+00	 1.014312099230769e+01
0	 6.937500000000000e+00	 4.499999999999999e+00	 1.014137800615385e+01
0	 6.937500000000000e+00	 4.562499999999999e+00	 1.013970308769230e+01
0	 6.937499999999999e+00	 4.625000000000000e+00	 1.013809623692308e+01
0	 6.937500000000001e+00	 4.687500000000001e+00	 1.013655745384616e+01
0	 6.937500000000000e+00	 4.749999999999999e+00	 1.013508673846153e+01
0	 6.937500000000001e+00	 4.812499999999999e+00	 1.013368409076924e+01
0	 6.937500000000002e+00	 4.875000000000000e+00	 1.013234951076923e+01
0	 6.937499999999999e+00	 4.937499999999997e+00	 1.013108299846153e+01
0	 6.937500000000000e+00	 4.999999999999999e+00	 1.012988455384614e+01
0	 6.999999999999999e+00	 4.375000000000000e+00	 1.013975926153845e+01
0	 6.999999999999999e+00	 4.437500000000000e+00	 1.013806034769232e+01
0	 7.000000000000001e+00	 4.500000000000001e+00	 1.013642750769231e+01
0	 7.000000000000001e+00	 4.562499999999999e+00	 1.013486074153846e+01
0	 6.999999999999999e+00	 4.624999999999998e+00	 1.013336004923077e+01
0	 6.999999999999999e+00	 4.687499999999997e+00	 1.013192543076923e+01
0	 6.999999999999998e+00	 4.749999999999998e+00	 1.013055688615385e+01
0	 7.000000000000001e+00	 4.812499999999999e+00	 1.012925441538461e+01
0	 6.999999999999998e+00	 4.874999999999998e+00	 1.012801801846154e+01
0	 7.000000000000001e+00	 4.937499999999998e+00	 1.012684769538462e+01
0	 6.999999999999999e+00	 5.000000000000000e+00	 1.012574344615386e+01
0	 7.062500000000000e+00	 4.375000000000000e+00	 1.013465087692306e+01
0	 7.062500000000000e+00	 4.437500000000000e+00	 1.013306063538462e+01
0	 7.062500000000001e+00	 4.500000000000000e+00	 1.013153447384615e+01
0	 7.062500000000000e+00	 4.562499999999999e+00	 1.013007239230769e+01
0	 7.062500000000000e+00	 4.625000000000000e+00	 1.012867439076924e+01
0	 7.062500000000000e+00	 4.687499999999999e+00	 1.012734046923077e+01
0	 7.062500000000000e+00	 4.749999999999998e+00	 1.012607062769231e+01
0	 7.062499999999999e+00	 4.812499999999998e+00	 1.012486486615384e+01
0	 7.062499999999998e+00	 4.874999999999998e+00	 1.012372318461539e+01
0	 7.062500000000000e+00	 4.937499999999997e+00	 1.012264558307693e+01
0	 7.062500000000000e+00	 4.999999999999999e+00	 1.012163206153847e+01
0	 7.125000000000000e+00	 4.375000000000000e+00	 1.012960689230770e+01
0	 7.124999999999999e+00	 4.437500000000000e+00	 1.012812185538462e+01
0	 7.125000000000001e+00	 4.500000000000000e+00	 1.012669890461538e+01
0	 7.124999999999998e+00	 4.562499999999999e+00	 1.012533804000000e+01
0	 7.124999999999998e+00	 4.624999999999999e+00	 1.012403926153847e+01
0	 7.125000000000000e+00	 4.687500000000000e+00	 1.012280256923077e+01
0	 7.124999999999997e+00	 4.749999999999998e+00	 1.012162796307693e+01
0	 7.125000000000000e+00	 4.812499999999999e+00	 1.012051544307692e+01
0	 7.124999999999999e+00	 4.874999999999998e+00	 1.011946500923078e+01
0	 7.124999999999999e+00	 4.937499999999997e+00	 1.011847666153846e+01
0	 7.125000000000000e+00	 5.000000000000000e+00	 1.011755040000001e+01
0	 7.187499999999998e+00	 4.375000000000000e+00	 1.012462730769231e+01
0	 7.187499999999998e+00	 4.437499999999999e+00	 1.012324400769230e+01
0	 7.187499999999999e+00	 4.499999999999999e+00	 1.012192080000001e+01
0	 7.187499999999999e+00	 4.562499999999999e+00	 1.012065768461537e+01
0	 7.187499999999998e+00	 4.624999999999998e+00	 1.011945466153847e+01
0	 7.187499999999999e+00	 4.687499999999999e+00	 1.011831173076923e+01
0	 7.187500000000000e+00	 4.750000000000000e+00	 1.011722889230769e+01
0	 7.187499999999999e+00	 4.812499999999998e+00	 1.011620614615385e+01
0	 7.187499999999999e+00	 4.874999999999998e+00	 1.011524349230769e+01
0	 7.187499999999999e+00	 4.937499999999999e+00	 1.011434093076923e+01
0	 7.187499999999998e+00	 5.000000000000000e+00	 1.011349846153845e+01
0	 7.249999999999998e+00	 4.375000000000000e+00	 1.011971212307691e+01
0	 7.249999999999999e+00	 4.437499999999999e+00	 1.011842709230769e+01
0	 7.249999999999996e+00	 4.499999999999998e+00	 1.011720015999999e+01
0	 7.249999999999999e+00	 4.562499999999999e+00	 1.011603132615384e+01
0	 7.249999999999999e+00	 4.625000000000001e+00	 1.011492059076923e+01
0	 7.250000000000000e+00	 4.687499999999999e+00	 1.011386795384615e+01
0	 7.249999999999999e+00	 4.749999999999998e+00	 1.011287341538461e+01
0	 7.249999999999998e+00	 4.812499999999999e+00	 1.011193697538461e+01
0	 7.249999999999999e+00	 4.874999999999998e+00	 1.011105863384616e+01
0	 7.249999999999999e+00	 4.937499999999999e+00	 1.011023839076921e+01
0	 7.249999999999998e+00	 5.000000000000001e+00	 1.010947624615386e+01
0	 7.312499999999997e+00	 4.375000000000000e+00	 1.011486133846154e+01
0	 7.312499999999998e+00	 4.437499999999999e+00	 1.011367110923076e+01
0	 7.312500000000000e+00	 4.500000000000000e+00	 1.011253698461538e+01
0	 7.312499999999997e+00	 4.562499999999999e+00	 1.011145896461538e+01
0	 7.312499999999998e+00	 4.625000000000000e+00	 1.011043704923076e+01
0	 7.312499999999999e+00	 4.687500000000000e+00	 1.010947123846154e+01
0	 7.312499999999998e+00	 4.749999999999999e+00	 1.010856153230769e+01
0	 7.312500000000000e+00	 4.812499999999999e+00	 1.010770793076923e+01
0	 7.312499999999998e+00	 4.874999999999998e+00	 1.010691043384614e+01
0	 7.312499999999999e+00	 4.937499999999999e+00	 1.010616904153846e+01
0	 7.312499999999997e+00	 4.999999999999999e+00	 1.010548375384615e+01
0	 7.374999999999998e+00	 4.375000000000000e+00	 1.011007495384616e+01
0	 7.374999999999999e+00	 4.437500000000001e+00	 1.010897605846155e+01
0	 7.374999999999996e+00	 4.499999999999999e+00	 1.010793127384616e+01
0	 7.374999999999998e+00	 4.562500000000000e+00	 1.010694060000000e+01
0	 7.374999999999999e+00	 4.624999999999999e+00	 1.010600403692307e+01
0	 7.374999999999998e+00	 4.687499999999998e+00	 1.010512158461539e+01
0	 7.374999999999999e+00	 4.749999999999999e+00	 1.010429324307693e+01
0	 7.374999999999997e+00	 4.812499999999998e+00	 1.010351901230769e+01
0	 7.374999999999997e+00	 4.874999999999999e+00	 1.010279889230768e+01
0	 7.374999999999998e+00	 4.937499999999998e+00	 1.010213288307692e+01
0	 7.374999999999998e+00	 5.000000000000000e+00	 1.010152098461539e+01
0	 7.437499999999998e+00	 4.375000000000000e+00	 1.010535296923077e+01
0	 7.437499999999997e+00	 4.437500000000000e+00	 1.010434194000000e+01
0	 7.437499999999999e+00	 4.500000000000000e+00	 1.010338302769231e+01
0	 7.437499999999998e+00	 4.562500000000000e+00	 1.010247623230769e+01
0	 7.437499999999999e+00	 4.624999999999999e+00	 1.010162155384615e+01
0	 7.437499999999998e+00	 4.687499999999999e+00	 1.010081899230769e+01
0	 7.437499999999998e+00	 4.749999999999999e+00	 1.010006854769230e+01
0	 7.437499999999997e+00	 4.812499999999998e+00	 1.009937022000000e+01
0	 7.437499999999998e+00	 4.874999999999999e+00	 1.009872400923077e+01
0	 7.437499999999997e+00	 4.937499999999998e+00	 1.009812991538461e+01
0	 7.437499999999998e+00	 5.000000000000000e+00	 1.009758793846154e+01
0	 7.500000000000000e+00	 4.375000000000000e+00	 1.010069538461538e+01
0	 7.500000000000001e+00	 4.437499999999999e+00	 1.009976875384616e+01
0	 7.500000000000000e+00	 4.500000000000001e+00	 1.009889224615384e+01
0	 7.500000000000000e+00	 4.562499999999999e+00	 1.009806586153847e+01
0	 7.500000000000000e+00	 4.625000000000000e+00	 1.009728959999999e+01
0	 7.500000000000000e+00	 4.687499999999999e+00	 1.009656346153846e+01
0	 7.500000000000000e+00	 4.749999999999999e+00	 1.009588744615385e+01
0	 7.499999999999999e+00	 4.812499999999998e+00	 1.009526155384616e+01
0	 7.500000000000000e+00	 4.874999999999998e+00	 1.009468578461538e+01
0	 7.500000000000000e+00	 4.937499999999998e+00	 1.009416013846152e+01
0	 7.500000000000000e+00	 5.000000000000000e+00	 1.009368461538461e+01
0	 6.875000000000000e+00	 5.000000000000000e+00	 1.013405538461538e+01
0	 6.875000000000000e+00	 5.062500000000000e+00	 1.013182755384616e+01
0	 6.875000000000000e+00	 5.125000000000001e+00	 1.012964560000000e+01
0	 6.875000000000000e+00	 5.187499999999999e+00	 1.012750952307690e+01
0	 6.875000000000000e+00	 5.249999999999999e+00	 1.012541932307693e+01
0	 6.875000000000000e+00	 5.312499999999999e+00	 1.012337500000000e+01
0	 6.875000000000000e+00	 5.374999999999998e+00	 1.012137655384614e+01
0	 6.875000000000000e+00	 5.437499999999998e+00	 1.011942398461538e+01
0	 6.875000000000000e+00	 5.499999999999998e+00	 1.011751729230767e+01
0	 6.875000000000000e+00	 5.562499999999998e+00	 1.011565647692307e+01
0	 6.875000000000000e+00	 5.625000000000000e+00	 1.011384153846153e+01
0	 6.937500000000000e+00	 4.999999999999999e+00	 1.012988455384614e+01
0	 6.937499999999999e+00	 5.062500000000000e+00	 1.012775777692308e+01
0	 6.937500000000000e+00	 5.125000000000000e+00	 1.012567604615385e+01
0	 6.937500000000000e+00	 5.187499999999999e+00	 1.012363936153847e+01
0	 6.937499999999999e+00	 5.249999999999998e+00	 1.012164772307692e+01
0	 6.937500000000001e+00	 5.312500000000000e+00	 1.011970113076923e+01
0	 6.937500000000000e+00	 5.374999999999999e+00	 1.011779958461538e+01
0	 6.937500000000001e+00	 5.437499999999999e+00	 1.011594308461539e+01
0	 6.937500000000002e+00	 5.499999999999999e+00	 1.011413163076924e+01
0	 6.937499999999999e+00	 5.562499999999996e+00	 1.011236522307692e+01
0	 6.937500000000000e+00	 5.625000000000000e+00	 1.011064386153846e+01
0	 6.999999999999999e+00	 5.000000000000000e+00	 1.012574344615386e+01
0	 6.999999999999999e+00	 5.062499999999999e+00	 1.012371567692308e+01
0	 7.000000000000001e+00	 5.125000000000001e+00	 1.012173212307691e+01
0	 7.000000000000001e+00	 5.187499999999998e+00	 1.011979278461538e+01
0	 6.999999999999999e+00	 5.249999999999999e+00	 1.011789766153845e+01
0	 6.999999999999999e+00	 5.312499999999999e+00	 1.011604675384615e+01
0	 6.999999999999998e+00	 5.374999999999999e+00	 1.011424006153846e+01
0	 7.000000000000001e+00	 5.437499999999999e+00	 1.011247758461538e+01
0	 6.999999999999998e+00	 5.499999999999998e+00	 1.011075932307690e+01
0	 7.000000000000001e+00	 5.562499999999999e+00	 1.010908527692306e+01
0	 6.999999999999999e+00	 5.625000000000000e+00	 1.010745544615384e+01
0	 7.062500000000000e+00	 4.999999999999999e+00	 1.012163206153847e+01
0	 7.062500000000000e+00	 5.062500000000001e+00	 1.011970125384615e+01
0	 7.062500000000001e+00	 5.125000000000000e+00	 1.011781383076923e+01
0	 7.062500000000000e+00	 5.187499999999999e+00	 1.011596979230769e+01
0	 7.062500000000000e+00	 5.250000000000000e+00	 1.011416913846153e+01
0	 7.062500000000000e+00	 5.312499999999999e+00	 1.011241186923076e+01
0	 7.062500000000000e+00	 5.374999999999998e+00	 1.011069798461537e+01
0	 7.062499999999999e+00	 5.437499999999999e+00	 1.010902748461537e+01
0	 7.062499999999998e+00	 5.499999999999998e+00	 1.010740036923076e+01
0	 7.062500000000000e+00	 5.562499999999997e+00	 1.010581663846153e+01
0	 7.062500000000000e+00	 5.625000000000000e+00	 1.010427629230766e+01
0	 7.125000000000000e+00	 5.000000000000000e+00	 1.011755040000001e+01
0	 7.124999999999999e+00	 5.062500000000000e+00	 1.011571450769230e+01
0	 7.125000000000001e+00	 5.125000000000000e+00	 1.011392116923075e+01
0	 7.124999999999998e+00	 5.187500000000000e+00	 1.011217038461539e+01
0	 7.124999999999998e+00	 5.249999999999999e+00	 1.011046215384614e+01
0	 7.125000000000000e+00	 5.312499999999999e+00	 1.010879647692308e+01
0	 7.124999999999997e+00	 5.374999999999998e+00	 1.010717335384615e+01
0	 7.125000000000000e+00	 5.437499999999999e+00	 1.010559278461538e+01
0	 7.124999999999999e+00	 5.499999999999999e+00	 1.010405476923075e+01
0	 7.124999999999999e+00	 5.562499999999998e+00	 1.010255930769230e+01
0	 7.125000000000000e+00	 5.625000000000000e+00	 1.010110639999997e+01
0	 7.187499999999998e+00	 5.000000000000000e+00	 1.011349846153845e+01
0	 7.187499999999998e+00	 5.062500000000000e+00	 1.011175543846155e+01
0	 7.187499999999999e+00	 5.124999999999999e+00	 1.011005413846154e+01
0	 7.187499999999999e+00	 5.187500000000000e+00	 1.010839456153845e+01
0	 7.187499999999998e+00	 5.249999999999998e+00	 1.010677670769230e+01
0	 7.187499999999999e+00	 5.312499999999999e+00	 1.010520057692307e+01
0	 7.187500000000000e+00	 5.375000000000000e+00	 1.010366616923076e+01
0	 7.187499999999999e+00	 5.437499999999998e+00	 1.010217348461537e+01
0	 7.187499999999999e+00	 5.499999999999998e+00	 1.010072252307690e+01
0	 7.187499999999999e+00	 5.562499999999999e+00	 1.009931328461537e+01
0	 7.187499999999998e+00	 5.625000000000000e+00	 1.009794576923075e+01
0	 7.249999999999998e+00	 5.000000000000001e+00	 1.010947624615386e+01
0	 7.249999999999999e+00	 5.062499999999999e+00	 1.010782404615383e+01
0	 7.249999999999996e+00	 5.125000000000000e+00	 1.010621273846153e+01
0	 7.249999999999999e+00	 5.187500000000000e+00	 1.010464232307691e+01
0	 7.249999999999999e+00	 5.250000000000001e+00	 1.010311279999999e+01
0	 7.250000000000000e+00	 5.312500000000001e+00	 1.010162416923076e+01
0	 7.249999999999999e+00	 5.374999999999999e+00	 1.010017643076923e+01
0	 7.249999999999998e+00	 5.437499999999999e+00	 1.009876958461538e+01
0	 7.249999999999999e+00	 5.499999999999998e+00	 1.009740363076922e+01
0	 7.249999999999999e+00	 5.562499999999998e+00	 1.009607856923076e+01
0	 7.249999999999998e+00	 5.625000000000000e+00	 1.009479439999999e+01
0	 7.312499999999997e+00	 4.999999999999999e+00	 1.010548375384615e+01
0	 7.312499999999998e+00	 5.062500000000000e+00	 1.010392033076922e+01
0	 7.312500000000000e+00	 5.125000000000000e+00	 1.010239696923076e+01
0	 7.312499999999997e+00	 5.187500000000000e+00	 1.010091366923075e+01
0	 7.312499999999998e+00	 5.250000000000000e+00	 1.009947043076923e+01
0	 7.312499999999999e+00	 5.312500000000000e+00	 1.009806725384615e+01
0	 7.312499999999998e+00	 5.374999999999999e+00	 1.009670413846153e+01
0	 7.312500000000000e+00	 5.437499999999998e+00	 1.009538108461536e+01
0	 7.312499999999998e+00	 5.499999999999998e+00	 1.009409809230768e+01
0	 7.312499999999999e+00	 5.562499999999999e+00	 1.009285516153843e+01
0	 7.312499999999997e+00	 5.625000000000000e+00	 1.009165229230767e+01
0	 7.374999999999998e+00	 5.000000000000000e+00	 1.010152098461539e+01
0	 7.374999999999999e+00	 5.062500000000002e+00	 1.010004429230770e+01
0	 7.374999999999996e+00	 5.124999999999999e+00	 1.009860683076923e+01
0	 7.374999999999998e+00	 5.187500000000000e+00	 1.009720860000001e+01
0	 7.374999999999999e+00	 5.249999999999998e+00	 1.009584959999999e+01
0	 7.374999999999998e+00	 5.312499999999999e+00	 1.009452983076923e+01
0	 7.374999999999999e+00	 5.374999999999998e+00	 1.009324929230769e+01
0	 7.374999999999997e+00	 5.437499999999998e+00	 1.009200798461537e+01
0	 7.374999999999997e+00	 5.499999999999999e+00	 1.009080590769232e+01
0	 7.374999999999998e+00	 5.562499999999998e+00	 1.008964306153846e+01
0	 7.374999999999998e+00	 5.625000000000000e+00	 1.008851944615384e+01
0	 7.437499999999998e+00	 5.000000000000000e+00	 1.009758793846154e+01
0	 7.437499999999997e+00	 5.062500000000000e+00	 1.009619593076923e+01
0	 7.437499999999999e+00	 5.125000000000001e+00	 1.009484232307691e+01
0	 7.437499999999998e+00	 5.187499999999999e+00	 1.009352711538460e+01
0	 7.437499999999999e+00	 5.249999999999999e+00	 1.009225030769230e+01
0	 7.437499999999998e+00	 5.312499999999998e+00	 1.009101189999999e+01
0	 7.437499999999998e+00	 5.374999999999997e+00	 1.008981189230768e+01
0	 7.437499999999997e+00	 5.437499999999998e+00	 1.008865028461537e+01
0	 7.437499999999998e+00	 5.499999999999999e+00	 1.008752707692308e+01
0	 7.437499999999997e+00	 5.562499999999998e+00	 1.008644226923076e+01
0	 7.437499999999998e+00	 5.625000000000000e+00	 1.008539586153844e+01
0	 7.500000000000000e+00	 5.000000000000000e+00	 1.009368461538461e+01
0	 7.500000000000001e+00	 5.062500000000000e+00	 1.009237524615385e+01
0	 7.500000000000000e+00	 5.125000000000001e+00	 1.009110344615384e+01
0	 7.500000000000000e+00	 5.187499999999999e+00	 1.008986921538459e+01
0	 7.500000000000000e+00	 5.249999999999999e+00	 1.008867255384614e+01
0	 7.500000000000000e+00	 5.312499999999999e+00	 1.008751346153846e+01
0	 7.500000000000000e+00	 5.374999999999998e+00	 1.008639193846153e+01
0	 7.499999999999999e+00	 5.437499999999998e+00	 1.008530798461538e+01
0	 7.500000000000000e+00	 5.499999999999998e+00	 1.008426159999998e+01
0	 7.500000000000000e+00	 5.562499999999998e+00	 1.008325278461537e+01
0	 7.500000000000000e+00	 5.625000000000000e+00	 1.008228153846153e+01
0	 6.875000000000000e+00	 5.625000000000000e+00	 1.011384153846153e+01
0	 6.875000000000000e+00	 5.687500000000000e+00	 1.011150255384614e+01
0	 6.875000000000000e+00	 5.750000000000000e+00	 1.010918959999998e+01
0	 6.875000000000000e+00	 5.812499999999999e+00	 1.010690267692307e+01
0	 6.875000000000000e+00	 5.874999999999999e+00	 1.010464178461538e+01
0	 6.875000000000000e+00	 5.937499999999999e+00	 1.010240692307692e+01
0	 6.875000000000000e+00	 5.999999999999998e+00	 1.010019809230771e+01
0	 6.875000000000000e+00	 6.062499999999998e+00	 1.009801529230770e+01
0	 6.875000000000000e+00	 6.124999999999998e+00	 1.009585852307693e+01
0	 6.875000000000000e+00	 6.187499999999998e+00	 1.009372778461539e+01
0	 6.875000000000000e+00	 6.250000000000000e+00	 1.009162307692309e+01
0	 6.937500000000000e+00	 5.625000000000000e+00	 1.011064386153846e+01
0	 6.937499999999999e+00	 5.687499999999999e+00	 1.010839579692307e+01
0	 6.937500000000000e+00	 5.749999999999999e+00	 1.010617339384616e+01
0	 6.937500000000000e+00	 5.812499999999998e+00	 1.010397665230768e+01
0	 6.937499999999999e+00	 5.875000000000000e+00	 1.010180557230769e+01
0	 6.937500000000001e+00	 5.937500000000001e+00	 1.009966015384615e+01
0	 6.937500000000000e+00	 5.999999999999999e+00	 1.009754039692307e+01
0	 6.937500000000001e+00	 6.062500000000000e+00	 1.009544630153847e+01
0	 6.937500000000002e+00	 6.125000000000000e+00	 1.009337786769231e+01
0	 6.937499999999999e+00	 6.187499999999996e+00	 1.009133509538463e+01
0	 6.937500000000000e+00	 6.250000000000000e+00	 1.008931798461538e+01
0	 6.999999999999999e+00	 5.625000000000000e+00	 1.010745544615384e+01
0	 6.999999999999999e+00	 5.687499999999999e+00	 1.010529644923076e+01
0	 7.000000000000001e+00	 5.750000000000002e+00	 1.010316274461537e+01
0	 7.000000000000001e+00	 5.812499999999999e+00	 1.010105433230768e+01
0	 6.999999999999999e+00	 5.874999999999998e+00	 1.009897121230769e+01
0	 6.999999999999999e+00	 5.937499999999999e+00	 1.009691338461538e+01
0	 6.999999999999998e+00	 5.999999999999998e+00	 1.009488084923077e+01
0	 7.000000000000001e+00	 6.062499999999999e+00	 1.009287360615385e+01
0	 6.999999999999998e+00	 6.124999999999998e+00	 1.009089165538461e+01
0	 7.000000000000001e+00	 6.187499999999998e+00	 1.008893499692308e+01
0	 6.999999999999999e+00	 6.250000000000000e+00	 1.008700363076925e+01
0	 7.062500000000000e+00	 5.625000000000000e+00	 1.010427629230766e+01
0	 7.062500000000000e+00	 5.687500000000000e+00	 1.010220451076922e+01
0	 7.062500000000001e+00	 5.749999999999999e+00	 1.010015765230768e+01
0	 7.062500000000000e+00	 5.812499999999999e+00	 1.009813571692307e+01
0	 7.062500000000000e+00	 5.875000000000000e+00	 1.009613870461538e+01
0	 7.062500000000000e+00	 5.937500000000000e+00	 1.009416661538462e+01
0	 7.062500000000000e+00	 5.999999999999998e+00	 1.009221944923078e+01
0	 7.062499999999999e+00	 6.062499999999998e+00	 1.009029720615386e+01
0	 7.062499999999998e+00	 6.124999999999997e+00	 1.008839988615385e+01
0	 7.062500000000000e+00	 6.187499999999997e+00	 1.008652748923078e+01
0	 7.062500000000000e+00	 6.250000000000000e+00	 1.008468001538461e+01
0	 7.125000000000000e+00	 5.625000000000000e+00	 1.010110639999997e+01
0	 7.124999999999999e+00	 5.687500000000000e+00	 1.009911998153843e+01
0	 7.125000000000001e+00	 5.750000000000000e+00	 1.009715811692307e+01
0	 7.124999999999998e+00	 5.812500000000000e+00	 1.009522080615383e+01
0	 7.124999999999998e+00	 5.874999999999999e+00	 1.009330804923075e+01
0	 7.125000000000000e+00	 5.937499999999999e+00	 1.009141984615384e+01
0	 7.124999999999997e+00	 5.999999999999997e+00	 1.008955619692308e+01
0	 7.125000000000000e+00	 6.062499999999998e+00	 1.008771710153847e+01
0	 7.124999999999999e+00	 6.124999999999999e+00	 1.008590256000000e+01
0	 7.124999999999999e+00	 6.187499999999998e+00	 1.008411257230772e+01
0	 7.125000000000000e+00	 6.250000000000000e+00	 1.008234713846155e+01
0	 7.187499999999998e+00	 5.625000000000000e+00	 1.009794576923075e+01
0	 7.187499999999998e+00	 5.687500000000000e+00	 1.009604286153844e+01
0	 7.187499999999999e+00	 5.750000000000000e+00	 1.009416413846153e+01
0	 7.187499999999999e+00	 5.812500000000000e+00	 1.009230960000000e+01
0	 7.187499999999998e+00	 5.874999999999998e+00	 1.009047924615385e+01
0	 7.187499999999999e+00	 5.937499999999998e+00	 1.008867307692308e+01
0	 7.187500000000000e+00	 6.000000000000000e+00	 1.008689109230769e+01
0	 7.187499999999999e+00	 6.062499999999998e+00	 1.008513329230770e+01
0	 7.187499999999999e+00	 6.124999999999998e+00	 1.008339967692309e+01
0	 7.187499999999999e+00	 6.187499999999999e+00	 1.008169024615386e+01
0	 7.187499999999998e+00	 6.250000000000000e+00	 1.008000500000003e+01
0	 7.249999999999998e+00	 5.625000000000000e+00	 1.009479439999999e+01
0	 7.249999999999999e+00	 5.687499999999999e+00	 1.009297315076923e+01
0	 7.249999999999996e+00	 5.750000000000000e+00	 1.009117571692306e+01
0	 7.249999999999999e+00	 5.812499999999999e+00	 1.008940209846153e+01
0	 7.249999999999999e+00	 5.875000000000001e+00	 1.008765229538462e+01
0	 7.250000000000000e+00	 5.937499999999999e+00	 1.008592630769230e+01
0	 7.249999999999999e+00	 5.999999999999998e+00	 1.008422413538462e+01
0	 7.249999999999998e+00	 6.062499999999999e+00	 1.008254577846155e+01
0	 7.249999999999999e+00	 6.124999999999998e+00	 1.008089123692307e+01
0	 7.249999999999999e+00	 6.187499999999998e+00	 1.007926051076923e+01
0	 7.249999999999998e+00	 6.250000000000000e+00	 1.007765359999999e+01
0	 7.312499999999997e+00	 5.625000000000000e+00	 1.009165229230767e+01
0	 7.312499999999998e+00	 5.687500000000000e+00	 1.008991084923074e+01
0	 7.312500000000000e+00	 5.750000000000000e+00	 1.008819285230768e+01
0	 7.312499999999997e+00	 5.812499999999999e+00	 1.008649830153846e+01
0	 7.312499999999998e+00	 5.874999999999999e+00	 1.008482719692308e+01
0	 7.312499999999999e+00	 5.937500000000001e+00	 1.008317953846155e+01
0	 7.312499999999998e+00	 5.999999999999999e+00	 1.008155532615385e+01
0	 7.312500000000000e+00	 6.062499999999999e+00	 1.007995456000001e+01
0	 7.312499999999998e+00	 6.124999999999999e+00	 1.007837724000001e+01
0	 7.312499999999999e+00	 6.187499999999999e+00	 1.007682336615384e+01
0	 7.312499999999997e+00	 6.250000000000000e+00	 1.007529293846156e+01
0	 7.374999999999998e+00	 5.625000000000000e+00	 1.008851944615384e+01
0	 7.374999999999999e+00	 5.687500000000000e+00	 1.008685595692307e+01
0	 7.374999999999996e+00	 5.750000000000000e+00	 1.008521554461537e+01
0	 7.374999999999998e+00	 5.812499999999999e+00	 1.008359820923076e+01
0	 7.374999999999999e+00	 5.875000000000000e+00	 1.008200395076923e+01
0	 7.374999999999998e+00	 5.937500000000000e+00	 1.008043276923076e+01
0	 7.374999999999999e+00	 5.999999999999998e+00	 1.007888466461538e+01
0	 7.374999999999997e+00	 6.062499999999998e+00	 1.007735963692308e+01
0	 7.374999999999997e+00	 6.124999999999999e+00	 1.007585768615385e+01
0	 7.374999999999998e+00	 6.187499999999998e+00	 1.007437881230769e+01
0	 7.374999999999998e+00	 6.250000000000000e+00	 1.007292301538462e+01
0	 7.437499999999998e+00	 5.625000000000000e+00	 1.008539586153844e+01
0	 7.437499999999997e+00	 5.687500000000000e+00	 1.008380847384614e+01
0	 7.437499999999999e+00	 5.750000000000000e+00	 1.008224379384614e+01
0	 7.437499999999998e+00	 5.812499999999999e+00	 1.008070182153845e+01
0	 7.437499999999999e+00	 5.875000000000000e+00	 1.007918255692308e+01
0	 7.437499999999998e+00	 5.937499999999999e+00	 1.007768599999999e+01
0	 7.437499999999998e+00	 5.999999999999998e+00	 1.007621215076923e+01
0	 7.437499999999997e+00	 6.062499999999998e+00	 1.007476100923078e+01
0	 7.437499999999998e+00	 6.124999999999998e+00	 1.007333257538462e+01
0	 7.437499999999997e+00	 6.187499999999997e+00	 1.007192684923077e+01
0	 7.437499999999998e+00	 6.250000000000000e+00	 1.007054383076925e+01
0	 7.500000000000000e+00	 5.625000000000000e+00	 1.008228153846153e+01
0	 7.500000000000001e+00	 5.687500000000000e+00	 1.008076839999999e+01
0	 7.500000000000000e+00	 5.750000000000000e+00	 1.007927759999998e+01
0	 7.500000000000000e+00	 5.812499999999999e+00	 1.007780913846154e+01
0	 7.500000000000000e+00	 5.874999999999999e+00	 1.007636301538461e+01
0	 7.500000000000000e+00	 5.937499999999999e+00	 1.007493923076923e+01
0	 7.500000000000000e+00	 5.999999999999998e+00	 1.007353778461540e+01
0	 7.499999999999999e+00	 6.062499999999998e+00	 1.007215867692308e+01
0	 7.500000000000000e+00	 6.124999999999998e+00	 1.007080190769232e+01
0	 7.500000000000000e+00	 6.187499999999998e+00	 1.006946747692309e+01
0	 7.500000000000000e+00	 6.250000000000000e+00	 1.006815538461539e+01
0	 6.875000000000000e+00	 6.250000000000000e+00	 1.009162307692309e+01
0	 6.875000000000000e+00	 6.312500000000000e+00	 1.008936446153847e+01
0	 6.875000000000000e+00	 6.375000000000000e+00	 1.008711230769232e+01
0	 6.875000000000000e+00	 6.437499999999999e+00	 1.008486661538462e+01
0	 6.875000000000000e+00	 6.499999999999999e+00	 1.008262738461540e+01
0	 6.875000000000000e+00	 6.562499999999998e+00	 1.008039461538462e+01
0	 6.875000000000000e+00	 6.624999999999998e+00	 1.007816830769231e+01
0	 6.875000000000000e+00	 6.687499999999998e+00	 1.007594846153847e+01
0	 6.875000000000000e+00	 6.749999999999998e+00	 1.007373507692307e+01
0	 6.875000000000000e+00	 6.812499999999998e+00	 1.007152815384615e+01
0	 6.875000000000000e+00	 6.875000000000000e+00	 1.006932769230769e+01
0	 6.937500000000000e+00	 6.250000000000000e+00	 1.008931798461538e+01
0	 6.937499999999999e+00	 6.312500000000000e+00	 1.008713061076923e+01
0	 6.937500000000000e+00	 6.374999999999999e+00	 1.008494990153847e+01
0	 6.937500000000000e+00	 6.437500000000000e+00	 1.008277585692308e+01
0	 6.937499999999999e+00	 6.499999999999997e+00	 1.008060847692309e+01
0	 6.937500000000001e+00	 6.562500000000000e+00	 1.007844776153846e+01
0	 6.937500000000000e+00	 6.624999999999999e+00	 1.007629371076922e+01
0	 6.937500000000001e+00	 6.687499999999999e+00	 1.007414632461540e+01
0	 6.937500000000002e+00	 6.749999999999999e+00	 1.007200560307694e+01
0	 6.937499999999999e+00	 6.812499999999996e+00	 1.006987154615383e+01
0	 6.937500000000000e+00	 6.875000000000001e+00	 1.006774415384616e+01
0	 6.999999999999999e+00	 6.250000000000000e+00	 1.008700363076925e+01
0	 6.999999999999999e+00	 6.312499999999999e+00	 1.008488670153847e+01
0	 7.000000000000001e+00	 6.375000000000000e+00	 1.008277664000001e+01
0	 7.000000000000001e+00	 6.437499999999998e+00	 1.008067344615385e+01
0	 6.999999999999999e+00	 6.499999999999996e+00	 1.007857712000001e+01
0	 6.999999999999999e+00	 6.562499999999998e+00	 1.007648766153847e+01
0	 6.999999999999998e+00	 6.624999999999996e+00	 1.007440507076924e+01
0	 7.000000000000001e+00	 6.687499999999999e+00	 1.007232934769232e+01
0	 6.999999999999998e+00	 6.749999999999997e+00	 1.007026049230769e+01
0	 7.000000000000001e+00	 6.812500000000000e+00	 1.006819850461537e+01
0	 6.999999999999999e+00	 6.875000000000000e+00	 1.006614338461538e+01
0	 7.062500000000000e+00	 6.250000000000000e+00	 1.008468001538461e+01
0	 7.062500000000000e+00	 6.312499999999999e+00	 1.008263273384618e+01
0	 7.062500000000001e+00	 6.375000000000000e+00	 1.008059252307693e+01
0	 7.062500000000000e+00	 6.437500000000000e+00	 1.007855938307692e+01
0	 7.062500000000000e+00	 6.499999999999998e+00	 1.007653331384616e+01
0	 7.062500000000000e+00	 6.562499999999999e+00	 1.007451431538462e+01
0	 7.062500000000000e+00	 6.624999999999999e+00	 1.007250238769230e+01
0	 7.062499999999999e+00	 6.687499999999998e+00	 1.007049753076923e+01
0	 7.062499999999998e+00	 6.749999999999998e+00	 1.006849974461537e+01
0	 7.062500000000000e+00	 6.812499999999997e+00	 1.006650902923076e+01
0	 7.062500000000000e+00	 6.874999999999999e+00	 1.006452538461538e+01
0	 7.125000000000000e+00	 6.250000000000000e+00	 1.008234713846155e+01
0	 7.124999999999999e+00	 6.312499999999999e+00	 1.008036870769232e+01
0	 7.125000000000001e+00	 6.375000000000000e+00	 1.007839755076925e+01
0	 7.124999999999998e+00	 6.437499999999999e+00	 1.007643366769232e+01
0	 7.124999999999998e+00	 6.499999999999997e+00	 1.007447705846155e+01
0	 7.125000000000000e+00	 6.562499999999999e+00	 1.007252772307692e+01
0	 7.124999999999997e+00	 6.624999999999998e+00	 1.007058566153845e+01
0	 7.125000000000000e+00	 6.687499999999998e+00	 1.006865087384616e+01
0	 7.124999999999999e+00	 6.749999999999998e+00	 1.006672336000000e+01
0	 7.124999999999999e+00	 6.812499999999998e+00	 1.006480312000003e+01
0	 7.125000000000000e+00	 6.875000000000001e+00	 1.006289015384614e+01
0	 7.187499999999998e+00	 6.250000000000000e+00	 1.008000500000003e+01
0	 7.187499999999998e+00	 6.312500000000000e+00	 1.007809462307694e+01
0	 7.187499999999999e+00	 6.375000000000000e+00	 1.007619172307693e+01
0	 7.187499999999999e+00	 6.437499999999999e+00	 1.007429630000001e+01
0	 7.187499999999998e+00	 6.499999999999997e+00	 1.007240835384615e+01
0	 7.187499999999999e+00	 6.562499999999999e+00	 1.007052788461540e+01
0	 7.187500000000000e+00	 6.625000000000000e+00	 1.006865489230770e+01
0	 7.187499999999999e+00	 6.687499999999999e+00	 1.006678937692308e+01
0	 7.187499999999999e+00	 6.749999999999999e+00	 1.006493133846153e+01
0	 7.187499999999999e+00	 6.812499999999998e+00	 1.006308077692308e+01
0	 7.187499999999998e+00	 6.875000000000000e+00	 1.006123769230767e+01
0	 7.249999999999998e+00	 6.250000000000000e+00	 1.007765359999999e+01
0	 7.249999999999999e+00	 6.312499999999999e+00	 1.007581048000001e+01
0	 7.249999999999996e+00	 6.374999999999997e+00	 1.007397504000000e+01
0	 7.249999999999999e+00	 6.437499999999999e+00	 1.007214728000000e+01
0	 7.249999999999999e+00	 6.500000000000000e+00	 1.007032720000000e+01
0	 7.250000000000000e+00	 6.562500000000001e+00	 1.006851480000001e+01
0	 7.249999999999999e+00	 6.624999999999998e+00	 1.006671008000001e+01
0	 7.249999999999998e+00	 6.687499999999999e+00	 1.006491304000000e+01
0	 7.249999999999999e+00	 6.749999999999999e+00	 1.006312367999997e+01
0	 7.249999999999999e+00	 6.812499999999998e+00	 1.006134200000000e+01
0	 7.249999999999998e+00	 6.875000000000000e+00	 1.005956799999999e+01
0	 7.312499999999997e+00	 6.250000000000000e+00	 1.007529293846156e+01
0	 7.312499999999998e+00	 6.312499999999999e+00	 1.007351627846154e+01
0	 7.312500000000000e+00	 6.375000000000001e+00	 1.007174750153847e+01
0	 7.312499999999997e+00	 6.437499999999999e+00	 1.006998660769232e+01
0	 7.312499999999998e+00	 6.500000000000000e+00	 1.006823359692308e+01
0	 7.312499999999999e+00	 6.562499999999999e+00	 1.006648846923077e+01
0	 7.312499999999998e+00	 6.624999999999999e+00	 1.006475122461538e+01
0	 7.312500000000000e+00	 6.687499999999999e+00	 1.006302186307692e+01
0	 7.312499999999998e+00	 6.749999999999998e+00	 1.006130038461539e+01
0	 7.312499999999999e+00	 6.812499999999999e+00	 1.005958678923079e+01
0	 7.312499999999997e+00	 6.875000000000000e+00	 1.005788107692307e+01
0	 7.374999999999998e+00	 6.250000000000000e+00	 1.007292301538462e+01
0	 7.374999999999999e+00	 6.312500000000001e+00	 1.007121201846156e+01
0	 7.374999999999996e+00	 6.374999999999999e+00	 1.006950910769232e+01
0	 7.374999999999998e+00	 6.437500000000000e+00	 1.006781428307692e+01
0	 7.374999999999999e+00	 6.499999999999999e+00	 1.006612754461540e+01
0	 7.374999999999998e+00	 6.562499999999999e+00	 1.006444889230769e+01
0	 7.374999999999999e+00	 6.624999999999998e+00	 1.006277832615385e+01
0	 7.374999999999997e+00	 6.687499999999998e+00	 1.006111584615385e+01
0	 7.374999999999997e+00	 6.749999999999998e+00	 1.005946145230769e+01
0	 7.374999999999998e+00	 6.812499999999998e+00	 1.005781514461538e+01
0	 7.374999999999998e+00	 6.875000000000000e+00	 1.005617692307693e+01
0	 7.437499999999998e+00	 6.250000000000000e+00	 1.007054383076925e+01
0	 7.437499999999997e+00	 6.312500000000000e+00	 1.006889770000001e+01
0	 7.437499999999999e+00	 6.375000000000000e+00	 1.006725985846154e+01
0	 7.437499999999998e+00	 6.437499999999999e+00	 1.006563030615385e+01
0	 7.437499999999999e+00	 6.499999999999998e+00	 1.006400904307693e+01
0	 7.437499999999998e+00	 6.562499999999998e+00	 1.006239606923077e+01
0	 7.437499999999998e+00	 6.624999999999998e+00	 1.006079138461539e+01
0	 7.437499999999997e+00	 6.687499999999998e+00	 1.005919498923077e+01
0	 7.437499999999998e+00	 6.749999999999999e+00	 1.005760688307692e+01
0	 7.437499999999997e+00	 6.812499999999997e+00	 1.005602706615387e+01
0	 7.437499999999998e+00	 6.875000000000000e+00	 1.005445553846154e+01
0	 7.500000000000000e+00	 6.250000000000000e+00	 1.006815538461539e+01
0	 7.500000000000001e+00	 6.312500000000000e+00	 1.006657332307693e+01
0	 7.500000000000000e+00	 6.375000000000000e+00	 1.006499975384617e+01
0	 7.500000000000000e+00	 6.437499999999999e+00	 1.006343467692307e+01
0	 7.500000000000000e+00	 6.499999999999999e+00	 1.006187809230769e+01
0	 7.500000000000000e+00	 6.562499999999998e+00	 1.006033000000000e+01
0	 7.500000000000000e+00	 6.624999999999998e+00	 1.005879039999999e+01
0	 7.499999999999999e+00	 6.687499999999998e+00	 1.005725929230769e+01
0	 7.500000000000000e+00	 6.749999999999998e+00	 1.005573667692308e+01
0	 7.500000000000000e+00	 6.812499999999998e+00	 1.005422255384616e+01
0	 7.500000000000000e+00	 6.875000000000000e+00	 1.005271692307693e+01
0	 6.875000000000000e+00	 6.875000000000000e+00	 1.006932769230769e+01
0	 6.875000000000000e+00	 6.937500000000000e+00	 1.006725695384615e+01
0	 6.875000000000000e+00	 7.000000000000000e+00	 1.006517643076921e+01
0	 6.875000000000000e+00	 7.062500000000000e+00	 1.006308612307692e+01
0	 6.875000000000000e+00	 7.125000000000000e+00	 1.006098603076922e+01
0	 6.875000000000000e+00	 7.187499999999998e+00	 1.005887615384615e+01
0	 6.875000000000000e+00	 7.249999999999998e+00	 1.005675649230771e+01
0	 6.875000000000000e+00	 7.312499999999998e+00	 1.005462704615385e+01
0	 6.875000000000000e+00	 7.374999999999998e+00	 1.005248781538461e+01
0	 6.875000000000000e+00	 7.437499999999998e+00	 1.005033879999999e+01
0	 6.875000000000000e+00	 7.500000000000000e+00	 1.004818000000000e+01
0	 6.937500000000000e+00	 6.875000000000001e+00	 1.006774415384616e+01
0	 6.937499999999999e+00	 6.937499999999999e+00	 1.006573018307692e+01
0	 6.937500000000000e+00	 6.999999999999999e+00	 1.006370683384616e+01
0	 6.937500000000000e+00	 7.062500000000000e+00	 1.006167410615385e+01
0	 6.937499999999999e+00	 7.124999999999998e+00	 1.005963200000001e+01
0	 6.937500000000001e+00	 7.187499999999999e+00	 1.005758051538461e+01
0	 6.937500000000000e+00	 7.250000000000000e+00	 1.005551965230769e+01
0	 6.937500000000001e+00	 7.312499999999999e+00	 1.005344941076924e+01
0	 6.937500000000002e+00	 7.374999999999999e+00	 1.005136979076923e+01
0	 6.937499999999999e+00	 7.437499999999996e+00	 1.004928079230769e+01
0	 6.937500000000000e+00	 7.500000000000000e+00	 1.004718241538462e+01
0	 6.999999999999999e+00	 6.875000000000000e+00	 1.006614338461538e+01
0	 6.999999999999999e+00	 6.937499999999999e+00	 1.006418577230770e+01
0	 7.000000000000001e+00	 7.000000000000001e+00	 1.006221918769229e+01
0	 7.000000000000001e+00	 7.062499999999999e+00	 1.006024363076923e+01
0	 6.999999999999999e+00	 7.124999999999998e+00	 1.005825910153846e+01
0	 6.999999999999999e+00	 7.187499999999999e+00	 1.005626560000000e+01
0	 6.999999999999998e+00	 7.249999999999996e+00	 1.005426312615385e+01
0	 7.000000000000001e+00	 7.312499999999998e+00	 1.005225168000000e+01
0	 6.999999999999998e+00	 7.374999999999997e+00	 1.005023126153845e+01
0	 7.000000000000001e+00	 7.437500000000000e+00	 1.004820187076923e+01
0	 6.999999999999999e+00	 7.499999999999999e+00	 1.004616350769232e+01
0	 7.062500000000000e+00	 6.874999999999999e+00	 1.006452538461538e+01
0	 7.062500000000000e+00	 6.937499999999999e+00	 1.006262372153848e+01
0	 7.062500000000001e+00	 7.000000000000000e+00	 1.006071349230769e+01
0	 7.062500000000000e+00	 7.062500000000000e+00	 1.005879469692307e+01
0	 7.062500000000000e+00	 7.124999999999999e+00	 1.005686733538462e+01
0	 7.062500000000000e+00	 7.187499999999999e+00	 1.005493140769231e+01
0	 7.062500000000000e+00	 7.250000000000000e+00	 1.005298691384615e+01
0	 7.062499999999999e+00	 7.312499999999999e+00	 1.005103385384616e+01
0	 7.062499999999998e+00	 7.374999999999997e+00	 1.004907222769231e+01
0	 7.062500000000000e+00	 7.437499999999998e+00	 1.004710203538461e+01
0	 7.062500000000000e+00	 7.500000000000000e+00	 1.004512327692309e+01
0	 7.125000000000000e+00	 6.875000000000001e+00	 1.006289015384614e+01
0	 7.124999999999999e+00	 6.937499999999999e+00	 1.006104403076923e+01
0	 7.125000000000001e+00	 7.000000000000001e+00	 1.005918974769231e+01
0	 7.124999999999998e+00	 7.062500000000000e+00	 1.005732730461538e+01
0	 7.124999999999998e+00	 7.124999999999999e+00	 1.005545670153846e+01
0	 7.125000000000000e+00	 7.187499999999999e+00	 1.005357793846152e+01
0	 7.124999999999997e+00	 7.249999999999997e+00	 1.005169101538462e+01
0	 7.125000000000000e+00	 7.312499999999998e+00	 1.004979593230768e+01
0	 7.124999999999999e+00	 7.374999999999999e+00	 1.004789268923078e+01
0	 7.124999999999999e+00	 7.437499999999998e+00	 1.004598128615384e+01
0	 7.125000000000000e+00	 7.500000000000000e+00	 1.004406172307693e+01
0	 7.187499999999998e+00	 6.875000000000000e+00	 1.006123769230767e+01
0	 7.187499999999998e+00	 6.937500000000000e+00	 1.005944670000000e+01
0	 7.187499999999999e+00	 7.000000000000000e+00	 1.005764795384616e+01
0	 7.187499999999999e+00	 7.062500000000000e+00	 1.005584145384615e+01
0	 7.187499999999998e+00	 7.124999999999997e+00	 1.005402720000001e+01
0	 7.187499999999999e+00	 7.187499999999999e+00	 1.005220519230769e+01
0	 7.187500000000000e+00	 7.249999999999999e+00	 1.005037543076922e+01
0	 7.187499999999999e+00	 7.312499999999998e+00	 1.004853791538461e+01
0	 7.187499999999999e+00	 7.374999999999997e+00	 1.004669264615388e+01
0	 7.187499999999999e+00	 7.437499999999998e+00	 1.004483962307693e+01
0	 7.187499999999998e+00	 7.500000000000000e+00	 1.004297884615386e+01
0	 7.249999999999998e+00	 6.875000000000000e+00	 1.005956799999999e+01
0	 7.249999999999999e+00	 6.937500000000000e+00	 1.005783172923078e+01
0	 7.249999999999996e+00	 6.999999999999998e+00	 1.005608811076923e+01
0	 7.249999999999999e+00	 7.062500000000000e+00	 1.005433714461539e+01
0	 7.249999999999999e+00	 7.125000000000000e+00	 1.005257883076924e+01
0	 7.250000000000000e+00	 7.187500000000000e+00	 1.005081316923077e+01
0	 7.249999999999999e+00	 7.249999999999998e+00	 1.004904016000001e+01
0	 7.249999999999998e+00	 7.312499999999999e+00	 1.004725980307694e+01
0	 7.249999999999999e+00	 7.374999999999999e+00	 1.004547209846155e+01
0	 7.249999999999999e+00	 7.437499999999998e+00	 1.004367704615383e+01
0	 7.249999999999998e+00	 7.499999999999999e+00	 1.004187464615386e+01
0	 7.312499999999997e+00	 6.875000000000000e+00	 1.005788107692307e+01
0	 7.312499999999998e+00	 6.937499999999999e+00	 1.005619911846154e+01
0	 7.312500000000000e+00	 7.000000000000001e+00	 1.005451021846153e+01
0	 7.312499999999997e+00	 7.062499999999999e+00	 1.005281437692307e+01
0	 7.312499999999998e+00	 7.124999999999999e+00	 1.005111159384615e+01
0	 7.312499999999999e+00	 7.187500000000000e+00	 1.004940186923077e+01
0	 7.312499999999998e+00	 7.249999999999999e+00	 1.004768520307692e+01
0	 7.312500000000000e+00	 7.312500000000000e+00	 1.004596159538461e+01
0	 7.312499999999998e+00	 7.374999999999998e+00	 1.004423104615384e+01
0	 7.312499999999999e+00	 7.437499999999999e+00	 1.004249355538461e+01
0	 7.312499999999997e+00	 7.499999999999998e+00	 1.004074912307692e+01
0	 7.374999999999998e+00	 6.875000000000000e+00	 1.005617692307693e+01
0	 7.374999999999999e+00	 6.937500000000001e+00	 1.005454886769232e+01
0	 7.374999999999996e+00	 6.999999999999998e+00	 1.005291427692308e+01
0	 7.374999999999998e+00	 7.062500000000000e+00	 1.005127315076923e+01
0	 7.374999999999999e+00	 7.125000000000000e+00	 1.004962548923078e+01
0	 7.374999999999998e+00	 7.187500000000000e+00	 1.004797129230771e+01
0	 7.374999999999999e+00	 7.250000000000000e+00	 1.004631056000001e+01
0	 7.374999999999997e+00	 7.312499999999999e+00	 1.004464329230769e+01
0	 7.374999999999997e+00	 7.374999999999998e+00	 1.004296948923076e+01
0	 7.374999999999998e+00	 7.437499999999998e+00	 1.004128915076922e+01
0	 7.374999999999998e+00	 7.500000000000000e+00	 1.003960227692308e+01
0	 7.437499999999998e+00	 6.875000000000000e+00	 1.005445553846154e+01
0	 7.437499999999997e+00	 6.937500000000001e+00	 1.005288097692308e+01
0	 7.437499999999999e+00	 7.000000000000001e+00	 1.005130028615385e+01
0	 7.437499999999998e+00	 7.062500000000000e+00	 1.004971346615384e+01
0	 7.437499999999999e+00	 7.124999999999999e+00	 1.004812051692309e+01
0	 7.437499999999998e+00	 7.187499999999998e+00	 1.004652143846153e+01
0	 7.437499999999998e+00	 7.249999999999999e+00	 1.004491623076924e+01
0	 7.437499999999997e+00	 7.312499999999998e+00	 1.004330489384616e+01
0	 7.437499999999998e+00	 7.374999999999998e+00	 1.004168742769231e+01
0	 7.437499999999997e+00	 7.437499999999998e+00	 1.004006383230771e+01
0	 7.437499999999998e+00	 7.500000000000000e+00	 1.003843410769231e+01
0	 7.500000000000000e+00	 6.875000000000000e+00	 1.005271692307693e+01
0	 7.500000000000001e+00	 6.937500000000000e+00	 1.005119544615386e+01
0	 7.500000000000000e+00	 7.000000000000000e+00	 1.004966824615383e+01
0	 7.500000000000000e+00	 7.062500000000000e+00	 1.004813532307693e+01
0	 7.500000000000000e+00	 7.125000000000000e+00	 1.004659667692306e+01
0	 7.500000000000000e+00	 7.187499999999998e+00	 1.004505230769231e+01
0	 7.500000000000000e+00	 7.249999999999998e+00	 1.004350221538463e+01
0	 7.499999999999999e+00	 7.312499999999998e+00	 1.004194640000001e+01
0	 7.500000000000000e+00	 7.374999999999998e+00	 1.004038486153846e+01
0	 7.500000000000000e+00	 7.437499999999998e+00	 1.003881760000000e+01
0	 7.500000000000000e+00	 7.500000000000000e+00	 1.003724461538462e+01
0	 6.875000000000000e+00	 7.500000000000000e+00	 1.004818000000000e+01
0	 6.875000000000000e+00	 7.562500000000000e+00	 1.004640784615385e+01
0	 6.875000000000000e+00	 7.625000000000000e+00	 1.004460892307695e+01
0	 6.875000000000000e+00	 7.687499999999999e+00	 1.004278323076923e+01
0	 6.875000000000000e+00	 7.750000000000000e+00	 1.004093076923078e+01
0	 6.875000000000000e+00	 7.812499999999999e+00	 1.003905153846154e+01
0	 6.875000000000000e+00	 7.874999999999998e+00	 1.003714553846154e+01
0	 6.875000000000000e+00	 7.937499999999997e+00	 1.003521276923076e+01
0	 6.875000000000000e+00	 7.999999999999998e+00	 1.003325323076924e+01
0	 6.875000000000000e+00	 8.062499999999996e+00	 1.003126692307693e+01
0	 6.875000000000000e+00	 8.125000000000000e+00	 1.002925384615384e+01
0	 6.937500000000000e+00	 7.500000000000000e+00	 1.004718241538462e+01
0	 6.937499999999999e+00	 7.562499999999999e+00	 1.004545286307693e+01
0	 6.937500000000000e+00	 7.624999999999998e+00	 1.004369728000000e+01
0	 6.937500000000000e+00	 7.687499999999998e+00	 1.004191566615384e+01
0	 6.937499999999999e+00	 7.750000000000000e+00	 1.004010802153846e+01
0	 6.937500000000001e+00	 7.812500000000000e+00	 1.003827434615385e+01
0	 6.937500000000000e+00	 7.874999999999999e+00	 1.003641463999999e+01
0	 6.937500000000001e+00	 7.937499999999998e+00	 1.003452890307694e+01
0	 6.937500000000002e+00	 8.000000000000000e+00	 1.003261713538461e+01
0	 6.937499999999999e+00	 8.062499999999995e+00	 1.003067933692307e+01
0	 6.937500000000000e+00	 8.125000000000000e+00	 1.002871550769230e+01
0	 6.999999999999999e+00	 7.499999999999999e+00	 1.004616350769232e+01
0	 6.999999999999999e+00	 7.562500000000001e+00	 1.004447640615385e+01
0	 7.000000000000001e+00	 7.625000000000001e+00	 1.004276401230770e+01
0	 7.000000000000001e+00	 7.687500000000001e+00	 1.004102632615383e+01
0	 6.999999999999999e+00	 7.749999999999998e+00	 1.003926334769232e+01
0	 6.999999999999999e+00	 7.812499999999998e+00	 1.003747507692308e+01
0	 6.999999999999998e+00	 7.874999999999996e+00	 1.003566151384615e+01
0	 7.000000000000001e+00	 7.937499999999998e+00	 1.003382265846155e+01
0	 6.999999999999998e+00	 7.999999999999999e+00	 1.003195851076923e+01
0	 7.000000000000001e+00	 8.062499999999998e+00	 1.003006907076922e+01
0	 6.999999999999999e+00	 8.125000000000000e+00	 1.002815433846155e+01
0	 7.062500000000000e+00	 7.500000000000000e+00	 1.004512327692309e+01
0	 7.062500000000000e+00	 7.562500000000001e+00	 1.004347847538462e+01
0	 7.062500000000001e+00	 7.625000000000001e+00	 1.004180912000000e+01
0	 7.062500000000000e+00	 7.687500000000000e+00	 1.004011521076922e+01
0	 7.062500000000000e+00	 7.749999999999999e+00	 1.003839674769231e+01
0	 7.062500000000000e+00	 7.812499999999999e+00	 1.003665373076923e+01
0	 7.062500000000000e+00	 7.874999999999998e+00	 1.003488616000001e+01
0	 7.062499999999999e+00	 7.937499999999998e+00	 1.003309403538463e+01
0	 7.062499999999998e+00	 7.999999999999998e+00	 1.003127735692308e+01
0	 7.062500000000000e+00	 8.062499999999996e+00	 1.002943612461538e+01
0	 7.062500000000000e+00	 8.125000000000000e+00	 1.002757033846152e+01
0	 7.125000000000000e+00	 7.500000000000000e+00	 1.004406172307693e+01
0	 7.124999999999999e+00	 7.562500000000000e+00	 1.004245907076922e+01
0	 7.125000000000001e+00	 7.625000000000000e+00	 1.004083260307693e+01
0	 7.124999999999998e+00	 7.687500000000000e+00	 1.003918231999999e+01
0	 7.124999999999998e+00	 7.749999999999998e+00	 1.003750822153846e+01
0	 7.125000000000000e+00	 7.812500000000000e+00	 1.003581030769232e+01
0	 7.124999999999997e+00	 7.874999999999998e+00	 1.003408857846154e+01
0	 7.125000000000000e+00	 7.937499999999999e+00	 1.003234303384615e+01
0	 7.124999999999999e+00	 7.999999999999997e+00	 1.003057367384615e+01
0	 7.124999999999999e+00	 8.062500000000000e+00	 1.002878049846154e+01
0	 7.125000000000000e+00	 8.125000000000000e+00	 1.002696350769231e+01
0	 7.187499999999998e+00	 7.500000000000000e+00	 1.004297884615386e+01
0	 7.187499999999998e+00	 7.562499999999999e+00	 1.004141819230768e+01
0	 7.187499999999999e+00	 7.624999999999999e+00	 1.003983446153846e+01
0	 7.187499999999999e+00	 7.687500000000000e+00	 1.003822765384615e+01
0	 7.187499999999998e+00	 7.749999999999996e+00	 1.003659776923077e+01
0	 7.187499999999999e+00	 7.812499999999999e+00	 1.003494480769231e+01
0	 7.187500000000000e+00	 7.875000000000000e+00	 1.003326876923078e+01
0	 7.187499999999999e+00	 7.937499999999999e+00	 1.003156965384614e+01
0	 7.187499999999999e+00	 7.999999999999998e+00	 1.002984746153846e+01
0	 7.187499999999999e+00	 8.062500000000000e+00	 1.002810219230770e+01
0	 7.187499999999998e+00	 8.125000000000000e+00	 1.002633384615383e+01
0	 7.249999999999998e+00	 7.499999999999999e+00	 1.004187464615386e+01
0	 7.249999999999999e+00	 7.562500000000000e+00	 1.004035583999999e+01
0	 7.249999999999996e+00	 7.624999999999998e+00	 1.003881469538461e+01
0	 7.249999999999999e+00	 7.687499999999998e+00	 1.003725121230769e+01
0	 7.249999999999999e+00	 7.750000000000001e+00	 1.003566539076922e+01
0	 7.250000000000000e+00	 7.812500000000000e+00	 1.003405723076922e+01
0	 7.249999999999999e+00	 7.874999999999998e+00	 1.003242673230768e+01
0	 7.249999999999998e+00	 7.937499999999999e+00	 1.003077389538461e+01
0	 7.249999999999999e+00	 8.000000000000000e+00	 1.002909872000000e+01
0	 7.249999999999999e+00	 8.062499999999998e+00	 1.002740120615382e+01
0	 7.249999999999998e+00	 8.125000000000000e+00	 1.002568135384614e+01
0	 7.312499999999997e+00	 7.499999999999998e+00	 1.004074912307692e+01
0	 7.312499999999998e+00	 7.562500000000000e+00	 1.003927201384617e+01
0	 7.312500000000000e+00	 7.624999999999999e+00	 1.003777330461538e+01
0	 7.312499999999997e+00	 7.687500000000000e+00	 1.003625299538461e+01
0	 7.312499999999998e+00	 7.749999999999998e+00	 1.003471108615386e+01
0	 7.312499999999999e+00	 7.812500000000000e+00	 1.003314757692307e+01
0	 7.312499999999998e+00	 7.874999999999999e+00	 1.003156246769230e+01
0	 7.312500000000000e+00	 7.937500000000000e+00	 1.002995575846154e+01
0	 7.312499999999998e+00	 7.999999999999998e+00	 1.002832744923077e+01
0	 7.312499999999999e+00	 8.062500000000000e+00	 1.002667753999999e+01
0	 7.312499999999997e+00	 8.125000000000000e+00	 1.002500603076923e+01
0	 7.374999999999998e+00	 7.500000000000000e+00	 1.003960227692308e+01
0	 7.374999999999999e+00	 7.562500000000001e+00	 1.003816671384615e+01
0	 7.374999999999996e+00	 7.625000000000000e+00	 1.003671028923077e+01
0	 7.374999999999998e+00	 7.687500000000001e+00	 1.003523300307694e+01
0	 7.374999999999999e+00	 7.749999999999999e+00	 1.003373485538462e+01
0	 7.374999999999998e+00	 7.812499999999998e+00	 1.003221584615386e+01
0	 7.374999999999999e+00	 7.875000000000000e+00	 1.003067597538461e+01
0	 7.374999999999997e+00	 7.937499999999998e+00	 1.002911524307691e+01
0	 7.374999999999997e+00	 7.999999999999998e+00	 1.002753364923077e+01
0	 7.374999999999998e+00	 8.062500000000000e+00	 1.002593119384615e+01
0	 7.374999999999998e+00	 8.125000000000000e+00	 1.002430787692307e+01
0	 7.437499999999998e+00	 7.500000000000000e+00	 1.003843410769231e+01
0	 7.437499999999997e+00	 7.562500000000001e+00	 1.003703993999999e+01
0	 7.437499999999999e+00	 7.624999999999999e+00	 1.003562564923076e+01
0	 7.437499999999998e+00	 7.687499999999999e+00	 1.003419123538462e+01
0	 7.437499999999999e+00	 7.750000000000000e+00	 1.003273669846153e+01
0	 7.437499999999998e+00	 7.812499999999999e+00	 1.003126203846153e+01
0	 7.437499999999998e+00	 7.874999999999998e+00	 1.002976725538462e+01
0	 7.437499999999997e+00	 7.937499999999998e+00	 1.002825234923077e+01
0	 7.437499999999998e+00	 7.999999999999998e+00	 1.002671731999999e+01
0	 7.437499999999997e+00	 8.062499999999998e+00	 1.002516216769231e+01
0	 7.437499999999998e+00	 8.125000000000000e+00	 1.002358689230769e+01
0	 7.500000000000000e+00	 7.500000000000000e+00	 1.003724461538462e+01
0	 7.500000000000001e+00	 7.562500000000000e+00	 1.003589169230770e+01
0	 7.500000000000000e+00	 7.625000000000000e+00	 1.003451938461540e+01
0	 7.500000000000000e+00	 7.687499999999999e+00	 1.003312769230769e+01
0	 7.500000000000000e+00	 7.750000000000000e+00	 1.003171661538462e+01
0	 7.500000000000000e+00	 7.812499999999999e+00	 1.003028615384615e+01
0	 7.500000000000000e+00	 7.874999999999998e+00	 1.002883630769231e+01
0	 7.499999999999999e+00	 7.937499999999997e+00	 1.002736707692306e+01
0	 7.500000000000000e+00	 7.999999999999998e+00	 1.002587846153845e+01
0	 7.500000000000000e+00	 8.062499999999996e+00	 1.002437046153845e+01
0	 7.500000000000000e+00	 8.125000000000000e+00	 1.002284307692307e+01
0	 6.875000000000000e+00	 8.125000000000000e+00	 1.002925384615384e+01
0	 6.875000000000000e+00	 8.187500000000000e+00	 1.002789404615385e+01
0	 6.875000000000000e+00	 8.250000000000002e+00	 1.002648910769229e+01
0	 6.875000000000000e+00	 8.312500000000000e+00	 1.002503903076921e+01
0	 6.875000000000000e+00	 8.374999999999998e+00	 1.002354381538460e+01
0	 6.875000000000000e+00	 8.437500000000000e+00	 1.002200346153847e+01
0	 6.875000000000000e+00	 8.500000000000000e+00	 1.002041796923077e+01
0	 6.875000000000000e+00	 8.562499999999998e+00	 1.001878733846152e+01
0	 6.875000000000000e+00	 8.625000000000000e+00	 1.001711156923077e+01
0	 6.875000000000000e+00	 8.687499999999998e+00	 1.001539066153844e+01
0	 6.875000000000000e+00	 8.750000000000000e+00	 1.001362461538460e+01
0	 6.937500000000000e+00	 8.125000000000000e+00	 1.002871550769230e+01
0	 6.937499999999999e+00	 8.187500000000002e+00	 1.002738720769231e+01
0	 6.937500000000000e+00	 8.250000000000000e+00	 1.002601471076923e+01
0	 6.937500000000000e+00	 8.312499999999998e+00	 1.002459801692307e+01
0	 6.937499999999999e+00	 8.374999999999998e+00	 1.002313712615385e+01
0	 6.937500000000001e+00	 8.437500000000000e+00	 1.002163203846154e+01
0	 6.937500000000000e+00	 8.500000000000002e+00	 1.002008275384614e+01
0	 6.937500000000001e+00	 8.562500000000000e+00	 1.001848927230768e+01
0	 6.937500000000002e+00	 8.625000000000002e+00	 1.001685159384614e+01
0	 6.937499999999999e+00	 8.687499999999996e+00	 1.001516971846153e+01
0	 6.937500000000000e+00	 8.750000000000002e+00	 1.001344364615383e+01
0	 6.999999999999999e+00	 8.125000000000000e+00	 1.002815433846155e+01
0	 6.999999999999999e+00	 8.187499999999998e+00	 1.002685725846154e+01
0	 7.000000000000001e+00	 8.250000000000000e+00	 1.002551692307693e+01
0	 7.000000000000001e+00	 8.312500000000000e+00	 1.002413333230767e+01
0	 6.999999999999999e+00	 8.374999999999998e+00	 1.002270648615383e+01
0	 6.999999999999999e+00	 8.437499999999998e+00	 1.002123638461537e+01
0	 6.999999999999998e+00	 8.499999999999996e+00	 1.001972302769230e+01
0	 7.000000000000001e+00	 8.562500000000002e+00	 1.001816641538461e+01
0	 6.999999999999998e+00	 8.624999999999998e+00	 1.001656654769229e+01
0	 7.000000000000001e+00	 8.687499999999998e+00	 1.001492342461538e+01
0	 6.999999999999999e+00	 8.750000000000000e+00	 1.001323704615381e+01
0	 7.062500000000000e+00	 8.125000000000000e+00	 1.002757033846152e+01
0	 7.062500000000000e+00	 8.187500000000000e+00	 1.002630419846154e+01
0	 7.062500000000001e+00	 8.250000000000002e+00	 1.002499574461540e+01
0	 7.062500000000000e+00	 8.312499999999998e+00	 1.002364497692310e+01
0	 7.062500000000000e+00	 8.374999999999998e+00	 1.002225189538461e+01
0	 7.062500000000000e+00	 8.437500000000000e+00	 1.002081649999998e+01
0	 7.062500000000000e+00	 8.499999999999998e+00	 1.001933879076923e+01
0	 7.062499999999999e+00	 8.562500000000000e+00	 1.001781876769230e+01
0	 7.062499999999998e+00	 8.625000000000000e+00	 1.001625643076920e+01
0	 7.062500000000000e+00	 8.687499999999996e+00	 1.001465178000000e+01
0	 7.062500000000000e+00	 8.750000000000000e+00	 1.001300481538460e+01
0	 7.125000000000000e+00	 8.125000000000000e+00	 1.002696350769231e+01
0	 7.124999999999999e+00	 8.187499999999998e+00	 1.002572802769228e+01
0	 7.125000000000001e+00	 8.250000000000002e+00	 1.002445117538461e+01
0	 7.124999999999998e+00	 8.312500000000000e+00	 1.002313295076922e+01
0	 7.124999999999998e+00	 8.374999999999998e+00	 1.002177335384613e+01
0	 7.125000000000000e+00	 8.437500000000000e+00	 1.002037238461537e+01
0	 7.124999999999997e+00	 8.499999999999998e+00	 1.001893004307691e+01
0	 7.125000000000000e+00	 8.562499999999998e+00	 1.001744632923079e+01
0	 7.124999999999999e+00	 8.624999999999998e+00	 1.001592124307690e+01
0	 7.124999999999999e+00	 8.687499999999996e+00	 1.001435478461537e+01
0	 7.125000000000000e+00	 8.749999999999998e+00	 1.001274695384612e+01
0	 7.187499999999998e+00	 8.125000000000000e+00	 1.002633384615383e+01
0	 7.187499999999998e+00	 8.187499999999998e+00	 1.002512874615382e+01
0	 7.187499999999999e+00	 8.249999999999998e+00	 1.002388321538462e+01
0	 7.187499999999999e+00	 8.312500000000000e+00	 1.002259725384614e+01
0	 7.187499999999998e+00	 8.374999999999998e+00	 1.002127086153846e+01
0	 7.187499999999999e+00	 8.437499999999998e+00	 1.001990403846153e+01
0	 7.187500000000000e+00	 8.500000000000002e+00	 1.001849678461538e+01
0	 7.187499999999999e+00	 8.562499999999998e+00	 1.001704909999999e+01
0	 7.187499999999999e+00	 8.624999999999998e+00	 1.001556098461539e+01
0	 7.187499999999999e+00	 8.687500000000000e+00	 1.001403243846151e+01
0	 7.187499999999998e+00	 8.750000000000000e+00	 1.001246346153848e+01
0	 7.249999999999998e+00	 8.125000000000000e+00	 1.002568135384614e+01
0	 7.249999999999999e+00	 8.187500000000000e+00	 1.002450635384615e+01
0	 7.249999999999996e+00	 8.249999999999998e+00	 1.002329186461538e+01
0	 7.249999999999999e+00	 8.312500000000000e+00	 1.002203788615383e+01
0	 7.249999999999999e+00	 8.375000000000002e+00	 1.002074441846154e+01
0	 7.250000000000000e+00	 8.437500000000002e+00	 1.001941146153846e+01
0	 7.249999999999999e+00	 8.499999999999998e+00	 1.001803901538460e+01
0	 7.249999999999998e+00	 8.562500000000000e+00	 1.001662708000000e+01
0	 7.249999999999999e+00	 8.624999999999998e+00	 1.001517565538462e+01
0	 7.249999999999999e+00	 8.687499999999998e+00	 1.001368474153847e+01
0	 7.249999999999998e+00	 8.750000000000000e+00	 1.001215433846152e+01
0	 7.312499999999997e+00	 8.125000000000000e+00	 1.002500603076923e+01
0	 7.312499999999998e+00	 8.187500000000000e+00	 1.002386085076921e+01
0	 7.312500000000000e+00	 8.250000000000000e+00	 1.002267712307691e+01
0	 7.312499999999997e+00	 8.312500000000000e+00	 1.002145484769229e+01
0	 7.312499999999998e+00	 8.374999999999998e+00	 1.002019402461537e+01
0	 7.312499999999999e+00	 8.437500000000000e+00	 1.001889465384614e+01
0	 7.312499999999998e+00	 8.500000000000000e+00	 1.001755673538461e+01
0	 7.312500000000000e+00	 8.562499999999998e+00	 1.001618026923078e+01
0	 7.312499999999998e+00	 8.624999999999998e+00	 1.001476525538459e+01
0	 7.312499999999999e+00	 8.687500000000000e+00	 1.001331169384616e+01
0	 7.312499999999997e+00	 8.750000000000000e+00	 1.001181958461539e+01
0	 7.374999999999998e+00	 8.125000000000000e+00	 1.002430787692307e+01
0	 7.374999999999999e+00	 8.187500000000002e+00	 1.002319223692307e+01
0	 7.374999999999996e+00	 8.250000000000000e+00	 1.002203899076925e+01
0	 7.374999999999998e+00	 8.312500000000000e+00	 1.002084813846154e+01
0	 7.374999999999999e+00	 8.375000000000002e+00	 1.001961968000000e+01
0	 7.374999999999998e+00	 8.437500000000000e+00	 1.001835361538460e+01
0	 7.374999999999999e+00	 8.500000000000000e+00	 1.001704994461538e+01
0	 7.374999999999997e+00	 8.562499999999996e+00	 1.001570866769232e+01
0	 7.374999999999997e+00	 8.624999999999998e+00	 1.001432978461538e+01
0	 7.374999999999998e+00	 8.687499999999998e+00	 1.001291329538463e+01
0	 7.374999999999998e+00	 8.750000000000002e+00	 1.001145920000000e+01
0	 7.437499999999998e+00	 8.125000000000000e+00	 1.002358689230769e+01
0	 7.437499999999997e+00	 8.187500000000000e+00	 1.002250051230769e+01
0	 7.437499999999999e+00	 8.250000000000002e+00	 1.002137746769231e+01
0	 7.437499999999998e+00	 8.312499999999998e+00	 1.002021775846153e+01
0	 7.437499999999999e+00	 8.374999999999998e+00	 1.001902138461539e+01
0	 7.437499999999998e+00	 8.437499999999998e+00	 1.001778834615385e+01
0	 7.437499999999998e+00	 8.499999999999998e+00	 1.001651864307691e+01
0	 7.437499999999997e+00	 8.562499999999998e+00	 1.001521227538461e+01
0	 7.437499999999998e+00	 8.624999999999998e+00	 1.001386924307693e+01
0	 7.437499999999997e+00	 8.687499999999998e+00	 1.001248954615384e+01
0	 7.437499999999998e+00	 8.750000000000000e+00	 1.001107318461540e+01
0	 7.500000000000000e+00	 8.125000000000000e+00	 1.002284307692307e+01
0	 7.500000000000001e+00	 8.187500000000000e+00	 1.002178567692307e+01
0	 7.500000000000000e+00	 8.250000000000002e+00	 1.002069255384613e+01
0	 7.500000000000000e+00	 8.312500000000000e+00	 1.001956370769230e+01
0	 7.500000000000000e+00	 8.374999999999998e+00	 1.001839913846153e+01
0	 7.500000000000000e+00	 8.437500000000000e+00	 1.001719884615385e+01
0	 7.500000000000000e+00	 8.500000000000000e+00	 1.001596283076922e+01
0	 7.499999999999999e+00	 8.562499999999998e+00	 1.001469109230768e+01
0	 7.500000000000000e+00	 8.625000000000000e+00	 1.001338363076924e+01
0	 7.500000000000000e+00	 8.687499999999998e+00	 1.001204044615384e+01
0	 7.500000000000000e+00	 8.750000000000000e+00	 1.001066153846154e+01
0	 6.875000000000000e+00	 8.750000000000000e+00	 1.001362461538460e+01
0	 6.875000000000000e+00	 8.812500000000000e+00	 1.001282155384614e+01
0	 6.875000000000000e+00	 8.875000000000002e+00	 1.001194990769231e+01
0	 6.875000000000000e+00	 8.937499999999998e+00	 1.001100967692306e+01
0	 6.875000000000000e+00	 9.000000000000000e+00	 1.001000086153847e+01
0	 6.875000000000000e+00	 9.062500000000000e+00	 1.000892346153845e+01
0	 6.875000000000000e+00	 9.124999999999998e+00	 1.000777747692306e+01
0	 6.875000000000000e+00	 9.187499999999998e+00	 1.000656290769230e+01
0	 6.875000000000000e+00	 9.249999999999998e+00	 1.000527975384614e+01
0	 6.875000000000000e+00	 9.312499999999998e+00	 1.000392801538462e+01
0	 6.875000000000000e+00	 9.375000000000000e+00	 1.000250769230770e+01
0	 6.937500000000000e+00	 8.750000000000002e+00	 1.001344364615383e+01
0	 6.937499999999999e+00	 8.812499999999998e+00	 1.001266070307693e+01
0	 6.937500000000000e+00	 8.875000000000000e+00	 1.001181058769230e+01
0	 6.937500000000000e+00	 8.937500000000000e+00	 1.001089329999999e+01
0	 6.937499999999999e+00	 9.000000000000000e+00	 1.000990884000000e+01
0	 6.937500000000001e+00	 9.062500000000000e+00	 1.000885720769230e+01
0	 6.937500000000000e+00	 9.125000000000000e+00	 1.000773840307691e+01
0	 6.937500000000001e+00	 9.187499999999998e+00	 1.000655242615385e+01
0	 6.937500000000002e+00	 9.250000000000000e+00	 1.000529927692309e+01
0	 6.937499999999999e+00	 9.312499999999996e+00	 1.000397895538462e+01
0	 6.937500000000000e+00	 9.375000000000000e+00	 1.000259146153848e+01
0	 6.999999999999999e+00	 8.750000000000000e+00	 1.001323704615381e+01
0	 6.999999999999999e+00	 8.812500000000000e+00	 1.001247366153845e+01
0	 7.000000000000001e+00	 8.875000000000004e+00	 1.001164451692306e+01
0	 7.000000000000001e+00	 8.937500000000000e+00	 1.001074961230768e+01
0	 6.999999999999999e+00	 8.999999999999998e+00	 1.000978894769230e+01
0	 6.999999999999999e+00	 9.062500000000000e+00	 1.000876252307692e+01
0	 6.999999999999998e+00	 9.124999999999998e+00	 1.000767033846153e+01
0	 7.000000000000001e+00	 9.187500000000002e+00	 1.000651239384615e+01
0	 6.999999999999998e+00	 9.249999999999996e+00	 1.000528868923074e+01
0	 7.000000000000001e+00	 9.312499999999998e+00	 1.000399922461536e+01
0	 6.999999999999999e+00	 9.375000000000000e+00	 1.000264400000002e+01
0	 7.062500000000000e+00	 8.750000000000000e+00	 1.001300481538460e+01
0	 7.062500000000000e+00	 8.812500000000000e+00	 1.001226042923077e+01
0	 7.062500000000001e+00	 8.875000000000002e+00	 1.001145169538462e+01
0	 7.062500000000000e+00	 8.937500000000000e+00	 1.001057861384616e+01
0	 7.062500000000000e+00	 9.000000000000000e+00	 1.000964118461537e+01
0	 7.062500000000000e+00	 9.062499999999998e+00	 1.000863940769230e+01
0	 7.062500000000000e+00	 9.124999999999998e+00	 1.000757328307694e+01
0	 7.062499999999999e+00	 9.187500000000002e+00	 1.000644281076923e+01
0	 7.062499999999998e+00	 9.249999999999998e+00	 1.000524799076921e+01
0	 7.062500000000000e+00	 9.312499999999998e+00	 1.000398882307691e+01
0	 7.062500000000000e+00	 9.375000000000002e+00	 1.000266530769228e+01
0	 7.125000000000000e+00	 8.749999999999998e+00	 1.001274695384612e+01
0	 7.124999999999999e+00	 8.812500000000000e+00	 1.001202100615384e+01
0	 7.125000000000001e+00	 8.875000000000002e+00	 1.001123212307694e+01
0	 7.124999999999998e+00	 8.937500000000000e+00	 1.001038030461537e+01
0	 7.124999999999998e+00	 8.999999999999998e+00	 1.000946555076922e+01
0	 7.125000000000000e+00	 9.062500000000000e+00	 1.000848786153846e+01
0	 7.124999999999997e+00	 9.124999999999998e+00	 1.000744723692308e+01
0	 7.125000000000000e+00	 9.187500000000000e+00	 1.000634367692306e+01
0	 7.124999999999999e+00	 9.249999999999998e+00	 1.000517718153847e+01
0	 7.124999999999999e+00	 9.312500000000000e+00	 1.000394775076923e+01
0	 7.125000000000000e+00	 9.375000000000002e+00	 1.000265538461541e+01
0	 7.187499999999998e+00	 8.750000000000000e+00	 1.001246346153848e+01
0	 7.187499999999998e+00	 8.812500000000000e+00	 1.001175539230771e+01
0	 7.187499999999999e+00	 8.875000000000000e+00	 1.001098579999998e+01
0	 7.187499999999999e+00	 8.937500000000000e+00	 1.001015468461539e+01
0	 7.187499999999998e+00	 8.999999999999998e+00	 1.000926204615384e+01
0	 7.187499999999999e+00	 9.062500000000000e+00	 1.000830788461539e+01
0	 7.187500000000000e+00	 9.125000000000002e+00	 1.000729219999998e+01
0	 7.187499999999999e+00	 9.187499999999998e+00	 1.000621499230768e+01
0	 7.187499999999999e+00	 9.249999999999998e+00	 1.000507626153844e+01
0	 7.187499999999999e+00	 9.312500000000000e+00	 1.000387600769230e+01
0	 7.187499999999998e+00	 9.375000000000002e+00	 1.000261423076923e+01
0	 7.249999999999998e+00	 8.750000000000000e+00	 1.001215433846152e+01
0	 7.249999999999999e+00	 8.812500000000000e+00	 1.001146358769229e+01
0	 7.249999999999996e+00	 8.874999999999996e+00	 1.001071272615383e+01
0	 7.249999999999999e+00	 8.937499999999998e+00	 1.000990175384614e+01
0	 7.249999999999999e+00	 9.000000000000004e+00	 1.000903067076922e+01
0	 7.250000000000000e+00	 9.062500000000002e+00	 1.000809947692307e+01
0	 7.249999999999999e+00	 9.124999999999998e+00	 1.000710817230769e+01
0	 7.249999999999998e+00	 9.187500000000000e+00	 1.000605675692306e+01
0	 7.249999999999999e+00	 9.249999999999998e+00	 1.000494523076922e+01
0	 7.249999999999999e+00	 9.312499999999998e+00	 1.000377359384616e+01
0	 7.249999999999998e+00	 9.375000000000000e+00	 1.000254184615385e+01
0	 7.312499999999997e+00	 8.750000000000000e+00	 1.001181958461539e+01
0	 7.312499999999998e+00	 8.812499999999998e+00	 1.001114559230770e+01
0	 7.312500000000000e+00	 8.875000000000002e+00	 1.001041290153845e+01
0	 7.312499999999997e+00	 8.937500000000002e+00	 1.000962151230771e+01
0	 7.312499999999998e+00	 8.999999999999998e+00	 1.000877142461538e+01
0	 7.312499999999999e+00	 9.062500000000000e+00	 1.000786263846153e+01
0	 7.312499999999998e+00	 9.125000000000000e+00	 1.000689515384613e+01
0	 7.312500000000000e+00	 9.187500000000000e+00	 1.000586897076923e+01
0	 7.312499999999998e+00	 9.249999999999998e+00	 1.000478408923075e+01
0	 7.312499999999999e+00	 9.312500000000000e+00	 1.000364050923079e+01
0	 7.312499999999997e+00	 9.375000000000000e+00	 1.000243823076922e+01
0	 7.374999999999998e+00	 8.750000000000002e+00	 1.001145920000000e+01
0	 7.374999999999999e+00	 8.812500000000002e+00	 1.001080140615383e+01
0	 7.374999999999996e+00	 8.875000000000000e+00	 1.001008632615384e+01
0	 7.374999999999998e+00	 8.937500000000002e+00	 1.000931396000000e+01
0	 7.374999999999999e+00	 8.999999999999998e+00	 1.000848430769230e+01
0	 7.374999999999998e+00	 9.062499999999998e+00	 1.000759736923077e+01
0	 7.374999999999999e+00	 9.125000000000000e+00	 1.000665314461537e+01
0	 7.374999999999997e+00	 9.187499999999998e+00	 1.000565163384616e+01
0	 7.374999999999997e+00	 9.250000000000000e+00	 1.000459283692309e+01
0	 7.374999999999998e+00	 9.312499999999998e+00	 1.000347675384616e+01
0	 7.374999999999998e+00	 9.375000000000000e+00	 1.000230338461539e+01
0	 7.437499999999998e+00	 8.750000000000000e+00	 1.001107318461540e+01
0	 7.437499999999997e+00	 8.812500000000000e+00	 1.001043102923075e+01
0	 7.437499999999999e+00	 8.875000000000002e+00	 1.000973299999999e+01
0	 7.437499999999998e+00	 8.937500000000000e+00	 1.000897909692308e+01
0	 7.437499999999999e+00	 9.000000000000000e+00	 1.000816932000000e+01
0	 7.437499999999998e+00	 9.062500000000000e+00	 1.000730366923077e+01
0	 7.437499999999998e+00	 9.125000000000000e+00	 1.000638214461539e+01
0	 7.437499999999997e+00	 9.187499999999998e+00	 1.000540474615385e+01
0	 7.437499999999998e+00	 9.249999999999998e+00	 1.000437147384616e+01
0	 7.437499999999997e+00	 9.312499999999996e+00	 1.000328232769231e+01
0	 7.437499999999998e+00	 9.375000000000000e+00	 1.000213730769233e+01
0	 7.500000000000000e+00	 8.750000000000000e+00	 1.001066153846154e+01
0	 7.500000000000001e+00	 8.812500000000000e+00	 1.001003446153846e+01
0	 7.500000000000000e+00	 8.875000000000002e+00	 1.000935292307693e+01
0	 7.500000000000000e+00	 8.937499999999998e+00	 1.000861692307691e+01
0	 7.500000000000000e+00	 9.000000000000000e+00	 1.000782646153846e+01
0	 7.500000000000000e+00	 9.062500000000000e+00	 1.000698153846153e+01
0	 7.500000000000000e+00	 9.124999999999998e+00	 1.000608215384614e+01
0	 7.499999999999999e+00	 9.187499999999998e+00	 1.000512830769229e+01
0	 7.500000000000000e+00	 9.249999999999998e+00	 1.000411999999998e+01
0	 7.500000000000000e+00	 9.312499999999998e+00	 1.000305723076923e+01
0	 7.500000000000000e+00	 9.375000000000000e+00	 1.000193999999999e+01
0	 6.875000000000000e+00	 9.375000000000000e+00	 1.000250769230770e+01
0	 6.875000000000001e+00	 9.437499999999998e+00	 1.000250327692308e+01
0	 6.874999999999999e+00	 9.500000000000000e+00	 1.000240110769231e+01
0	 6.874999999999999e+00	 9.562500000000000e+00	 1.000220118461538e+01
0	 6.875000000000001e+00	 9.625000000000000e+00	 1.000190350769229e+01
0	 6.875000000000001e+00	 9.687499999999998e+00	 1.000150807692307e+01
0	 6.875000000000000e+00	 9.749999999999998e+00	 1.000101489230769e+01
0	 6.875000000000000e+00	 9.812500000000000e+00	 1.000042395384613e+01
0	 6.875000000000001e+00	 9.875000000000000e+00	 9.999735261538419e+00
0	 6.875000000000000e+00	 9.937499999999998e+00	 9.998948815384592e+00
0	 6.875000000000000e+00	 1.000000000000000e+01	 9.998064615384589e+00
0	 6.937500000000000e+00	 9.375000000000000e+00	 1.000259146153848e+01
0	 6.937500000000001e+00	 9.437500000000002e+00	 1.000259211538462e+01
0	 6.937499999999998e+00	 9.500000000000000e+00	 1.000249712000000e+01
0	 6.937500000000000e+00	 9.562500000000000e+00	 1.000230647538460e+01
0	 6.937500000000000e+00	 9.625000000000000e+00	 1.000202018153848e+01
0	 6.937500000000001e+00	 9.687500000000000e+00	 1.000163823846153e+01
0	 6.937500000000000e+00	 9.749999999999998e+00	 1.000116064615382e+01
0	 6.937500000000000e+00	 9.812499999999998e+00	 1.000058740461534e+01
0	 6.937500000000000e+00	 9.874999999999998e+00	 9.999918513846119e+00
0	 6.937499999999999e+00	 9.937499999999996e+00	 9.999153973846157e+00
0	 6.937500000000000e+00	 1.000000000000000e+01	 9.998293784615328e+00
0	 6.999999999999999e+00	 9.375000000000000e+00	 1.000264400000002e+01
0	 6.999999999999998e+00	 9.437499999999998e+00	 1.000264871076922e+01
0	 7.000000000000000e+00	 9.500000000000000e+00	 1.000255987692308e+01
0	 7.000000000000000e+00	 9.562500000000000e+00	 1.000237749846155e+01
0	 7.000000000000000e+00	 9.625000000000002e+00	 1.000210157538460e+01
0	 6.999999999999999e+00	 9.687500000000002e+00	 1.000173210769230e+01
0	 7.000000000000000e+00	 9.750000000000000e+00	 1.000126909538458e+01
0	 7.000000000000001e+00	 9.812500000000002e+00	 1.000071253846155e+01
0	 7.000000000000000e+00	 9.874999999999996e+00	 1.000006243692306e+01
0	 7.000000000000000e+00	 9.937500000000000e+00	 9.999318790769223e+00
0	 6.999999999999999e+00	 1.000000000000000e+01	 9.998481599999927e+00
0	 7.062500000000000e+00	 9.375000000000002e+00	 1.000266530769228e+01
0	 7.062500000000000e+00	 9.437500000000000e+00	 1.000267306307689e+01
0	 7.062499999999998e+00	 9.499999999999996e+00	 1.000258937846152e+01
0	 7.062500000000001e+00	 9.562500000000000e+00	 1.000241425384617e+01
0	 7.062499999999998e+00	 9.624999999999998e+00	 1.000214768923076e+01
0	 7.062499999999999e+00	 9.687500000000000e+00	 1.000178968461537e+01
0	 7.062500000000000e+00	 9.749999999999996e+00	 1.000134023999997e+01
0	 7.062499999999999e+00	 9.812499999999996e+00	 1.000079935538460e+01
0	 7.062500000000000e+00	 9.875000000000000e+00	 1.000016703076918e+01
0	 7.062499999999999e+00	 9.937499999999998e+00	 9.999443266153776e+00
0	 7.062499999999999e+00	 1.000000000000000e+01	 9.998628061538469e+00
0	 7.125000000000000e+00	 9.375000000000002e+00	 1.000265538461541e+01
0	 7.124999999999998e+00	 9.437500000000000e+00	 1.000266517230768e+01
0	 7.125000000000000e+00	 9.500000000000004e+00	 1.000258562461537e+01
0	 7.124999999999999e+00	 9.562500000000000e+00	 1.000241674153844e+01
0	 7.124999999999998e+00	 9.624999999999998e+00	 1.000215852307689e+01
0	 7.125000000000000e+00	 9.687499999999998e+00	 1.000181096923077e+01
0	 7.124999999999999e+00	 9.750000000000000e+00	 1.000137407999999e+01
0	 7.124999999999999e+00	 9.812499999999996e+00	 1.000084785538460e+01
0	 7.124999999999999e+00	 9.874999999999998e+00	 1.000023229538456e+01
0	 7.124999999999998e+00	 9.937499999999996e+00	 9.999527400000044e+00
0	 7.125000000000000e+00	 1.000000000000000e+01	 9.998733169230707e+00
0	 7.187499999999998e+00	 9.375000000000002e+00	 1.000261423076923e+01
0	 7.187499999999999e+00	 9.437499999999998e+00	 1.000262503846152e+01
0	 7.187499999999999e+00	 9.499999999999998e+00	 1.000254861538460e+01
0	 7.187500000000000e+00	 9.562500000000000e+00	 1.000238496153844e+01
0	 7.187499999999998e+00	 9.624999999999998e+00	 1.000213407692307e+01
0	 7.187499999999999e+00	 9.687500000000000e+00	 1.000179596153843e+01
0	 7.187499999999998e+00	 9.750000000000000e+00	 1.000137061538462e+01
0	 7.187499999999997e+00	 9.812499999999998e+00	 1.000085803846157e+01
0	 7.187499999999999e+00	 9.874999999999998e+00	 1.000025823076925e+01
0	 7.187499999999998e+00	 9.937499999999998e+00	 9.999571192307648e+00
0	 7.187499999999998e+00	 1.000000000000000e+01	 9.998796923076894e+00
0	 7.249999999999998e+00	 9.375000000000000e+00	 1.000254184615385e+01
0	 7.249999999999998e+00	 9.437499999999998e+00	 1.000255266153844e+01
0	 7.250000000000000e+00	 9.500000000000000e+00	 1.000247835076922e+01
0	 7.249999999999999e+00	 9.562500000000000e+00	 1.000231891384613e+01
0	 7.250000000000001e+00	 9.625000000000000e+00	 1.000207435076922e+01
0	 7.249999999999998e+00	 9.687499999999998e+00	 1.000174466153848e+01
0	 7.249999999999999e+00	 9.749999999999998e+00	 1.000132984615377e+01
0	 7.249999999999996e+00	 9.812499999999996e+00	 1.000082990461539e+01
0	 7.249999999999998e+00	 9.874999999999998e+00	 1.000024483692306e+01
0	 7.249999999999999e+00	 9.937499999999998e+00	 9.999574643076905e+00
0	 7.249999999999999e+00	 9.999999999999998e+00	 9.998819323076965e+00
0	 7.312499999999997e+00	 9.375000000000000e+00	 1.000243823076922e+01
0	 7.312499999999997e+00	 9.437499999999998e+00	 1.000244804153844e+01
0	 7.312499999999997e+00	 9.499999999999998e+00	 1.000237483076923e+01
0	 7.312499999999999e+00	 9.562500000000002e+00	 1.000221859846153e+01
0	 7.312499999999998e+00	 9.624999999999998e+00	 1.000197934461537e+01
0	 7.312499999999997e+00	 9.687500000000000e+00	 1.000165706923076e+01
0	 7.312499999999999e+00	 9.750000000000000e+00	 1.000125177230765e+01
0	 7.312499999999999e+00	 9.812500000000000e+00	 1.000076345384612e+01
0	 7.312499999999999e+00	 9.874999999999998e+00	 1.000019211384610e+01
0	 7.312499999999999e+00	 9.937499999999998e+00	 9.999537752307685e+00
0	 7.312499999999999e+00	 1.000000000000000e+01	 9.998800369230789e+00
0	 7.374999999999998e+00	 9.375000000000000e+00	 1.000230338461539e+01
0	 7.374999999999999e+00	 9.437500000000002e+00	 1.000231117846152e+01
0	 7.374999999999998e+00	 9.500000000000000e+00	 1.000223805538460e+01
0	 7.374999999999999e+00	 9.562500000000002e+00	 1.000208401538462e+01
0	 7.374999999999997e+00	 9.624999999999998e+00	 1.000184905846151e+01
0	 7.374999999999998e+00	 9.687499999999998e+00	 1.000153318461535e+01
0	 7.374999999999998e+00	 9.750000000000000e+00	 1.000113639384612e+01
0	 7.374999999999998e+00	 9.812499999999998e+00	 1.000065868615382e+01
0	 7.374999999999998e+00	 9.874999999999998e+00	 1.000010006153840e+01
0	 7.374999999999998e+00	 9.937499999999998e+00	 9.999460519999985e+00
0	 7.374999999999998e+00	 1.000000000000000e+01	 9.998740061538426e+00
0	 7.437499999999998e+00	 9.375000000000000e+00	 1.000213730769233e+01
0	 7.437499999999998e+00	 9.437500000000000e+00	 1.000214207230770e+01
0	 7.437499999999998e+00	 9.499999999999998e+00	 1.000206802461539e+01
0	 7.437499999999999e+00	 9.562500000000000e+00	 1.000191516461540e+01
0	 7.437499999999998e+00	 9.624999999999998e+00	 1.000168349230770e+01
0	 7.437499999999997e+00	 9.687499999999996e+00	 1.000137300769228e+01
0	 7.437499999999997e+00	 9.749999999999998e+00	 1.000098371076923e+01
0	 7.437499999999997e+00	 9.812499999999998e+00	 1.000051560153847e+01
0	 7.437499999999997e+00	 9.874999999999996e+00	 9.999968679999998e+00
0	 7.437499999999998e+00	 9.937499999999998e+00	 9.999342946153799e+00
0	 7.437499999999998e+00	 1.000000000000000e+01	 9.998638399999919e+00
0	 7.500000000000000e+00	 9.375000000000000e+00	 1.000193999999999e+01
0	 7.500000000000001e+00	 9.437499999999998e+00	 1.000194072307692e+01
0	 7.499999999999999e+00	 9.500000000000000e+00	 1.000186473846153e+01
0	 7.499999999999999e+00	 9.562500000000000e+00	 1.000171204615384e+01
0	 7.500000000000001e+00	 9.625000000000000e+00	 1.000148264615383e+01
0	 7.500000000000000e+00	 9.687499999999998e+00	 1.000117653846154e+01
0	 7.500000000000001e+00	 9.749999999999998e+00	 1.000079372307691e+01
0	 7.500000000000000e+00	 9.812500000000000e+00	 1.000033419999998e+01
0	 7.500000000000001e+00	 9.875000000000000e+00	 9.999797969230720e+00
0	 7.500000000000000e+00	 9.937499999999998e+00	 9.999185030769233e+00
0	 7.500000000000000e+00	 1.000000000000000e+01	 9.998495384615371e+00
0	 7.500000000000000e+00	 0.000000000000000e+00	 1.003708953846154e+01
0	 7.500000000000000e+00	 6.250000000000000e-02	 1.003799163076923e+01
0	 7.499999999999999e+00	 1.250000000000000e-01	 1.003879763076923e+01
0	 7.499999999999999e+00	 1.875000000000000e-01	 1.003950753846154e+01
0	 7.500000000000000e+00	 2.500000000000000e-01	 1.004012135384615e+01
0	 7.500000000000000e+00	 3.125000000000000e-01	 1.004063907692307e+01
0	 7.500000000000000e+00	 3.750000000000000e-01	 1.004106070769230e+01
0	 7.500000000000000e+00	 4.374999999999999e-01	 1.004138624615384e+01
0	 7.500000000000001e+00	 5.000000000000000e-01	 1.004161569230769e+01
0	 7.500000000000000e+00	 5.624999999999999e-01	 1.004174904615385e+01
0	 7.500000000000000e+00	 6.250000000000000e-01	 1.004178630769231e+01
0	 7.562500000000001e+00	 0.000000000000000e+00	 1.003165152615384e+01
0	 7.562500000000000e+00	 6.249999999999999e-02	 1.003251603476923e+01
0	 7.562499999999997e+00	 1.250000000000000e-01	 1.003328845723076e+01
0	 7.562499999999999e+00	 1.875000000000000e-01	 1.003396879353846e+01
0	 7.562499999999999e+00	 2.500000000000000e-01	 1.003455704369230e+01
0	 7.562500000000001e+00	 3.125000000000001e-01	 1.003505320769230e+01
0	 7.562500000000000e+00	 3.749999999999999e-01	 1.003545728553846e+01
0	 7.562500000000001e+00	 4.374999999999999e-01	 1.003576927723076e+01
0	 7.562500000000001e+00	 5.000000000000000e-01	 1.003598918276922e+01
0	 7.562500000000000e+00	 5.625000000000000e-01	 1.003611700215384e+01
0	 7.562499999999999e+00	 6.250000000000000e-01	 1.003615273538462e+01
0	 7.624999999999999e+00	 0.000000000000000e+00	 1.002610832000000e+01
0	 7.625000000000001e+00	 6.250000000000000e-02	 1.002693756676923e+01
0	 7.625000000000000e+00	 1.250000000000000e-01	 1.002767873353846e+01
0	 7.625000000000000e+00	 1.875000000000000e-01	 1.002833182030769e+01
0	 7.625000000000000e+00	 2.500000000000001e-01	 1.002889682707692e+01
0	 7.624999999999999e+00	 3.125000000000000e-01	 1.002937375384615e+01
0	 7.625000000000000e+00	 3.749999999999999e-01	 1.002976260061538e+01
0	 7.624999999999999e+00	 4.375000000000000e-01	 1.003006336738461e+01
0	 7.625000000000000e+00	 4.999999999999999e-01	 1.003027605415384e+01
0	 7.625000000000000e+00	 5.625000000000000e-01	 1.003040066092308e+01
0	 7.625000000000000e+00	 6.249999999999999e-01	 1.003043718769231e+01
0	 7.687499999999999e+00	 0.000000000000000e+00	 1.002045991999999e+01
0	 7.687499999999999e+00	 6.250000000000000e-02	 1.002125622676922e+01
0	 7.687499999999999e+00	 1.250000000000000e-01	 1.002196845969230e+01
0	 7.687500000000000e+00	 1.875000000000001e-01	 1.002259661876923e+01
0	 7.687500000000000e+00	 2.500000000000001e-01	 1.002314070400000e+01
0	 7.687499999999999e+00	 3.125000000000000e-01	 1.002360071538462e+01
0	 7.687499999999999e+00	 3.749999999999999e-01	 1.002397665292307e+01
0	 7.687499999999998e+00	 4.374999999999999e-01	 1.002426851661539e+01
0	 7.687499999999998e+00	 4.999999999999999e-01	 1.002447630646154e+01
0	 7.687500000000000e+00	 5.625000000000001e-01	 1.002460002246153e+01
0	 7.687499999999999e+00	 6.249999999999999e-01	 1.002463966461538e+01
0	 7.750000000000000e+00	 0.000000000000000e+00	 1.001470632615384e+01
0	 7.749999999999999e+00	 6.250000000000000e-02	 1.001547201476923e+01
0	 7.749999999999996e+00	 1.250000000000000e-01	 1.001615763569230e+01
0	 7.749999999999996e+00	 1.875000000000000e-01	 1.001676318892307e+01
0	 7.749999999999998e+00	 2.500000000000000e-01	 1.001728867446153e+01
0	 7.750000000000000e+00	 3.125000000000000e-01	 1.001773409230768e+01
0	 7.749999999999999e+00	 3.750000000000000e-01	 1.001809944246154e+01
0	 7.750000000000000e+00	 4.375000000000000e-01	 1.001838472492307e+01
0	 7.749999999999998e+00	 4.999999999999999e-01	 1.001858993969230e+01
0	 7.750000000000000e+00	 5.625000000000000e-01	 1.001871508676923e+01
0	 7.750000000000000e+00	 6.250000000000001e-01	 1.001876016615384e+01
0	 7.812499999999998e+00	 0.000000000000000e+00	 1.000884753846153e+01
0	 7.812499999999996e+00	 6.249999999999998e-02	 1.000958493076923e+01
0	 7.812499999999999e+00	 1.250000000000000e-01	 1.001024626153846e+01
0	 7.812499999999998e+00	 1.875000000000000e-01	 1.001083153076923e+01
0	 7.812499999999998e+00	 2.499999999999999e-01	 1.001134073846153e+01
0	 7.812499999999999e+00	 3.125000000000000e-01	 1.001177388461538e+01
0	 7.812499999999998e+00	 3.750000000000000e-01	 1.001213096923076e+01
0	 7.812500000000000e+00	 4.375000000000000e-01	 1.001241199230769e+01
0	 7.812499999999998e+00	 4.999999999999999e-01	 1.001261695384614e+01
0	 7.812500000000001e+00	 5.625000000000001e-01	 1.001274585384615e+01
0	 7.812499999999999e+00	 6.250000000000000e-01	 1.001279869230769e+01
0	 7.874999999999999e+00	 0.000000000000000e+00	 1.000288355692308e+01
0	 7.875000000000000e+00	 6.249999999999999e-02	 1.000359497476923e+01
0	 7.874999999999999e+00	 1.250000000000000e-01	 1.000423433723076e+01
0	 7.874999999999999e+00	 1.875000000000001e-01	 1.000480164430769e+01
0	 7.874999999999999e+00	 2.500000000000001e-01	 1.000529689599999e+01
0	 7.875000000000000e+00	 3.125000000000001e-01	 1.000572009230769e+01
0	 7.874999999999997e+00	 3.749999999999999e-01	 1.000607123323077e+01
0	 7.874999999999999e+00	 4.375000000000000e-01	 1.000635031876922e+01
0	 7.874999999999997e+00	 4.999999999999998e-01	 1.000655734892307e+01
0	 7.874999999999999e+00	 5.624999999999999e-01	 1.000669232369231e+01
0	 7.875000000000000e+00	 6.250000000000001e-01	 1.000675524307692e+01
0	 7.937499999999998e+00	 0.000000000000000e+00	 9.996814381538456e+00
0	 7.937499999999998e+00	 6.250000000000000e-02	 9.997502146769225e+00
0	 7.937499999999998e+00	 1.250000000000000e-01	 9.998121862769231e+00
0	 7.937499999999999e+00	 1.875000000000000e-01	 9.998673529538458e+00
0	 7.937499999999998e+00	 2.500000000000000e-01	 9.999157147076918e+00
0	 7.937499999999999e+00	 3.125000000000001e-01	 9.999572715384616e+00
0	 7.937499999999999e+00	 3.750000000000000e-01	 9.999920234461534e+00
0	 7.937499999999998e+00	 4.375000000000000e-01	 1.000019970430768e+01
0	 7.937499999999998e+00	 4.999999999999999e-01	 1.000041112492307e+01
0	 7.937499999999999e+00	 5.625000000000000e-01	 1.000055449630769e+01
0	 7.937499999999997e+00	 6.249999999999999e-01	 1.000062981846153e+01
0	 7.999999999999998e+00	 0.000000000000000e+00	 9.990640012307686e+00
0	 7.999999999999997e+00	 6.249999999999999e-02	 9.991306446769226e+00
0	 8.000000000000000e+00	 1.250000000000000e-01	 9.991908838153840e+00
0	 8.000000000000000e+00	 1.875000000000001e-01	 9.992447186461536e+00
0	 7.999999999999997e+00	 2.500000000000000e-01	 9.992921491692300e+00
0	 7.999999999999997e+00	 3.124999999999999e-01	 9.993331753846144e+00
0	 7.999999999999998e+00	 3.749999999999999e-01	 9.993677972923074e+00
0	 7.999999999999998e+00	 4.375000000000000e-01	 9.993960148923069e+00
0	 7.999999999999999e+00	 4.999999999999999e-01	 9.994178281846153e+00
0	 7.999999999999998e+00	 5.625000000000000e-01	 9.994332371692298e+00
0	 7.999999999999998e+00	 6.250000000000000e-01	 9.994422418461536e+00
0	 8.062499999999996e+00	 0.000000000000000e+00	 9.984360449230765e+00
0	 8.062499999999998e+00	 6.250000000000000e-02	 9.985007874769224e+00
0	 8.062499999999998e+00	 1.250000000000000e-01	 9.985595263384610e+00
0	 8.062499999999998e+00	 1.875000000000000e-01	 9.986122615076916e+00
0	 8.062499999999996e+00	 2.499999999999999e-01	 9.986589929846147e+00
0	 8.062499999999998e+00	 3.125000000000000e-01	 9.986997207692299e+00
0	 8.062499999999998e+00	 3.750000000000000e-01	 9.987344448615382e+00
0	 8.062499999999998e+00	 4.375000000000000e-01	 9.987631652615379e+00
0	 8.062499999999996e+00	 4.999999999999999e-01	 9.987858819692303e+00
0	 8.062499999999998e+00	 5.625000000000000e-01	 9.988025949846151e+00
0	 8.062499999999998e+00	 6.250000000000000e-01	 9.988133043076921e+00
0	 8.125000000000000e+00	 0.000000000000000e+00	 9.977975692307689e+00
0	 8.125000000000002e+00	 6.250000000000000e-02	 9.978606430769226e+00
0	 8.125000000000000e+00	 1.250000000000000e-01	 9.979181138461531e+00
0	 8.125000000000000e+00	 1.875000000000000e-01	 9.979699815384610e+00
0	 8.125000000000000e+00	 2.500000000000000e-01	 9.980162461538455e+00
0	 8.125000000000000e+00	 3.125000000000000e-01	 9.980569076923079e+00
0	 8.125000000000000e+00	 3.750000000000000e-01	 9.980919661538465e+00
0	 8.125000000000000e+00	 4.374999999999999e-01	 9.981214215384608e+00
0	 8.125000000000000e+00	 5.000000000000000e-01	 9.981452738461536e+00
0	 8.125000000000000e+00	 5.624999999999999e-01	 9.981635230769232e+00
0	 8.125000000000000e+00	 6.250000000000000e-01	 9.981761692307689e+00
0	 7.500000000000000e+00	 6.250000000000000e-01	 1.004178630769231e+01
0	 7.500000000000000e+00	 6.875000000000000e-01	 1.004328309230769e+01
0	 7.500000000000000e+00	 7.500000000000002e-01	 1.004471415384615e+01
0	 7.500000000000001e+00	 8.125000000000002e-01	 1.004607949230769e+01
0	 7.500000000000001e+00	 8.750000000000002e-01	 1.004737910769231e+01
0	 7.500000000000000e+00	 9.375000000000002e-01	 1.004861300000000e+01
0	 7.499999999999999e+00	 1.000000000000000e+00	 1.004978116923077e+01
0	 7.500000000000000e+00	 1.062500000000000e+00	 1.005088361538461e+01
0	 7.500000000000001e+00	 1.125000000000001e+00	 1.005192033846154e+01
0	 7.500000000000000e+00	 1.187500000000000e+00	 1.005289133846154e+01
0	 7.500000000000000e+00	 1.250000000000000e+00	 1.005379661538462e+01
0	 7.562499999999999e+00	 6.250000000000000e-01	 1.003615273538462e+01
0	 7.562500000000001e+00	 6.875000000000001e-01	 1.003761041661538e+01
0	 7.562499999999999e+00	 7.500000000000001e-01	 1.003900447015385e+01
0	 7.562500000000000e+00	 8.125000000000002e-01	 1.004033489600000e+01
0	 7.562500000000000e+00	 8.750000000000003e-01	 1.004160169415385e+01
0	 7.562499999999999e+00	 9.375000000000003e-01	 1.004280486461538e+01
0	 7.562500000000000e+00	 1.000000000000000e+00	 1.004394440738462e+01
0	 7.562499999999999e+00	 1.062500000000000e+00	 1.004502032246154e+01
0	 7.562499999999998e+00	 1.125000000000000e+00	 1.004603260984616e+01
0	 7.562499999999997e+00	 1.187500000000000e+00	 1.004698126953847e+01
0	 7.562499999999999e+00	 1.250000000000000e+00	 1.004786630153846e+01
0	 7.625000000000000e+00	 6.249999999999999e-01	 1.003043718769231e+01
0	 7.625000000000000e+00	 6.875000000000001e-01	 1.003185945723076e+01
0	 7.625000000000000e+00	 7.500000000000002e-01	 1.003322019446154e+01
0	 7.624999999999999e+00	 8.125000000000001e-01	 1.003451939938461e+01
0	 7.625000000000000e+00	 8.750000000000003e-01	 1.003575707200000e+01
0	 7.625000000000000e+00	 9.375000000000003e-01	 1.003693321230770e+01
0	 7.625000000000002e+00	 1.000000000000000e+00	 1.003804782030770e+01
0	 7.624999999999998e+00	 1.062500000000000e+00	 1.003910089600000e+01
0	 7.624999999999999e+00	 1.125000000000000e+00	 1.004009243938462e+01
0	 7.624999999999999e+00	 1.187500000000001e+00	 1.004102245046154e+01
0	 7.625000000000000e+00	 1.250000000000000e+00	 1.004189092923077e+01
0	 7.687499999999999e+00	 6.249999999999999e-01	 1.002463966461538e+01
0	 7.687499999999998e+00	 6.875000000000000e-01	 1.002603021415385e+01
0	 7.687500000000000e+00	 7.500000000000000e-01	 1.002736132676922e+01
0	 7.687499999999999e+00	 8.125000000000002e-01	 1.002863300246154e+01
0	 7.687500000000000e+00	 8.750000000000002e-01	 1.002984524123077e+01
0	 7.687499999999998e+00	 9.375000000000002e-01	 1.003099804307693e+01
0	 7.687499999999998e+00	 1.000000000000000e+00	 1.003209140800000e+01
0	 7.687500000000000e+00	 1.062500000000000e+00	 1.003312533600000e+01
0	 7.687500000000000e+00	 1.125000000000000e+00	 1.003409982707692e+01
0	 7.687499999999999e+00	 1.187500000000000e+00	 1.003501488123077e+01
0	 7.687499999999999e+00	 1.250000000000000e+00	 1.003587049846154e+01
0	 7.750000000000000e+00	 6.250000000000001e-01	 1.001876016615384e+01
0	 7.750000000000000e+00	 6.875000000000000e-01	 1.002012268738461e+01
0	 7.749999999999997e+00	 7.500000000000000e-01	 1.002142786707692e+01
0	 7.749999999999999e+00	 8.125000000000001e-01	 1.002267570523077e+01
0	 7.750000000000000e+00	 8.750000000000003e-01	 1.002386620184616e+01
0	 7.749999999999997e+00	 9.375000000000000e-01	 1.002499935692308e+01
0	 7.750000000000000e+00	 1.000000000000000e+00	 1.002607517046154e+01
0	 7.749999999999999e+00	 1.062500000000000e+00	 1.002709364246154e+01
0	 7.749999999999999e+00	 1.125000000000000e+00	 1.002805477292308e+01
0	 7.749999999999999e+00	 1.187500000000000e+00	 1.002895856184616e+01
0	 7.750000000000000e+00	 1.250000000000000e+00	 1.002980500923077e+01
0	 7.812499999999999e+00	 6.250000000000000e-01	 1.001279869230769e+01
0	 7.812499999999996e+00	 6.875000000000000e-01	 1.001413687692307e+01
0	 7.812499999999998e+00	 7.500000000000001e-01	 1.001541981538462e+01
0	 7.812499999999999e+00	 8.125000000000002e-01	 1.001664750769231e+01
0	 7.812499999999999e+00	 8.750000000000003e-01	 1.001781995384615e+01
0	 7.812500000000000e+00	 9.375000000000002e-01	 1.001893715384616e+01
0	 7.812499999999998e+00	 1.000000000000000e+00	 1.001999910769231e+01
0	 7.812499999999999e+00	 1.062500000000000e+00	 1.002100581538461e+01
0	 7.812499999999999e+00	 1.125000000000000e+00	 1.002195727692308e+01
0	 7.812500000000000e+00	 1.187500000000001e+00	 1.002285349230769e+01
0	 7.812499999999999e+00	 1.250000000000000e+00	 1.002369446153846e+01
0	 7.875000000000000e+00	 6.250000000000001e-01	 1.000675524307692e+01
0	 7.874999999999997e+00	 6.874999999999999e-01	 1.000807278276923e+01
0	 7.875000000000000e+00	 7.500000000000003e-01	 1.000933717169231e+01
0	 7.874999999999997e+00	 8.125000000000000e-01	 1.001054840984615e+01
0	 7.874999999999996e+00	 8.750000000000001e-01	 1.001170649723077e+01
0	 7.874999999999998e+00	 9.375000000000003e-01	 1.001281143384615e+01
0	 7.875000000000000e+00	 1.000000000000000e+00	 1.001386321969231e+01
0	 7.874999999999998e+00	 1.062500000000000e+00	 1.001486185476923e+01
0	 7.874999999999998e+00	 1.125000000000000e+00	 1.001580733907692e+01
0	 7.874999999999998e+00	 1.187500000000000e+00	 1.001669967261538e+01
0	 7.875000000000000e+00	 1.250000000000000e+00	 1.001753885538462e+01
0	 7.937499999999997e+00	 6.249999999999999e-01	 1.000062981846153e+01
0	 7.937499999999996e+00	 6.875000000000000e-01	 1.000193040492308e+01
0	 7.937499999999999e+00	 7.500000000000002e-01	 1.000317993600000e+01
0	 7.937499999999998e+00	 8.125000000000000e-01	 1.000437841169231e+01
0	 7.937500000000000e+00	 8.750000000000002e-01	 1.000552583200000e+01
0	 7.937499999999999e+00	 9.375000000000004e-01	 1.000662219692308e+01
0	 7.937499999999998e+00	 1.000000000000000e+00	 1.000766750646154e+01
0	 7.937499999999999e+00	 1.062500000000001e+00	 1.000866176061538e+01
0	 7.937499999999998e+00	 1.125000000000000e+00	 1.000960495938462e+01
0	 7.937500000000000e+00	 1.187500000000000e+00	 1.001049710276923e+01
0	 7.937499999999997e+00	 1.250000000000000e+00	 1.001133819076923e+01
0	 7.999999999999998e+00	 6.250000000000000e-01	 9.994422418461536e+00
0	 7.999999999999997e+00	 6.875000000000000e-01	 9.995709743384612e+00
0	 7.999999999999996e+00	 7.500000000000000e-01	 9.996948108307690e+00
0	 7.999999999999998e+00	 8.125000000000001e-01	 9.998137513230763e+00
0	 7.999999999999998e+00	 8.750000000000003e-01	 9.999277958153845e+00
0	 7.999999999999998e+00	 9.375000000000002e-01	 1.000036944307693e+01
0	 8.000000000000000e+00	 1.000000000000001e+00	 1.000141196800000e+01
0	 7.999999999999997e+00	 1.062500000000000e+00	 1.000240553292307e+01
0	 7.999999999999998e+00	 1.125000000000000e+00	 1.000335013784616e+01
0	 7.999999999999999e+00	 1.187500000000000e+00	 1.000424578276923e+01
0	 7.999999999999998e+00	 1.250000000000000e+00	 1.000509246769231e+01
0	 8.062499999999998e+00	 6.250000000000000e-01	 9.988133043076921e+00
0	 8.062499999999998e+00	 6.875000000000002e-01	 9.989410798153841e+00
0	 8.062499999999998e+00	 7.500000000000001e-01	 9.990641688615387e+00
0	 8.062499999999998e+00	 8.125000000000001e-01	 9.991825714461536e+00
0	 8.062499999999998e+00	 8.750000000000002e-01	 9.992962875692298e+00
0	 8.062499999999998e+00	 9.375000000000002e-01	 9.994053172307687e+00
0	 8.062499999999998e+00	 1.000000000000000e+00	 9.995096604307687e+00
0	 8.062499999999998e+00	 1.062500000000000e+00	 9.996093171692305e+00
0	 8.062499999999996e+00	 1.125000000000000e+00	 9.997042874461538e+00
0	 8.062499999999996e+00	 1.187500000000000e+00	 9.997945712615380e+00
0	 8.062499999999998e+00	 1.250000000000000e+00	 9.998801686153840e+00
0	 8.125000000000000e+00	 6.250000000000000e-01	 9.981761692307689e+00
0	 8.125000000000000e+00	 6.875000000000000e-01	 9.983033569230768e+00
0	 8.125000000000000e+00	 7.500000000000002e-01	 9.984260676923078e+00
0	 8.125000000000002e+00	 8.125000000000002e-01	 9.985443015384611e+00
0	 8.125000000000000e+00	 8.750000000000002e-01	 9.986580584615382e+00
0	 8.125000000000000e+00	 9.375000000000002e-01	 9.987673384615384e+00
0	 8.125000000000000e+00	 1.000000000000000e+00	 9.988721415384607e+00
0	 8.125000000000000e+00	 1.062500000000000e+00	 9.989724676923078e+00
0	 8.125000000000002e+00	 1.125000000000001e+00	 9.990683169230763e+00
0	 8.125000000000000e+00	 1.187500000000000e+00	 9.991596892307694e+00
0	 8.125000000000000e+00	 1.250000000000000e+00	 9.992465846153841e+00
0	 7.500000000000000e+00	 1.250000000000000e+00	 1.005379661538462e+01
0	 7.500000000000000e+00	 1.312500000000000e+00	 1.005551281538462e+01
0	 7.500000000000000e+00	 1.375000000000000e+00	 1.005720104615385e+01
0	 7.500000000000001e+00	 1.437500000000000e+00	 1.005886130769231e+01
0	 7.500000000000001e+00	 1.500000000000000e+00	 1.006049360000000e+01
0	 7.500000000000000e+00	 1.562500000000000e+00	 1.006209792307692e+01
0	 7.499999999999999e+00	 1.625000000000000e+00	 1.006367427692308e+01
0	 7.500000000000000e+00	 1.687500000000000e+00	 1.006522266153846e+01
0	 7.500000000000001e+00	 1.750000000000001e+00	 1.006674307692307e+01
0	 7.500000000000000e+00	 1.812500000000000e+00	 1.006823552307692e+01
0	 7.500000000000000e+00	 1.875000000000000e+00	 1.006970000000000e+01
0	 7.562499999999999e+00	 1.250000000000000e+00	 1.004786630153846e+01
0	 7.562500000000001e+00	 1.312500000000000e+00	 1.004955090676923e+01
0	 7.562499999999999e+00	 1.375000000000000e+00	 1.005120825353846e+01
0	 7.562500000000000e+00	 1.437500000000000e+00	 1.005283834184615e+01
0	 7.562500000000000e+00	 1.500000000000000e+00	 1.005444117169231e+01
0	 7.562499999999999e+00	 1.562500000000000e+00	 1.005601674307692e+01
0	 7.562500000000000e+00	 1.625000000000000e+00	 1.005756505600000e+01
0	 7.562499999999999e+00	 1.687500000000000e+00	 1.005908611046154e+01
0	 7.562499999999998e+00	 1.750000000000000e+00	 1.006057990646154e+01
0	 7.562499999999997e+00	 1.812500000000000e+00	 1.006204644400000e+01
0	 7.562499999999999e+00	 1.875000000000000e+00	 1.006348572307692e+01
0	 7.625000000000000e+00	 1.250000000000000e+00	 1.004189092923077e+01
0	 7.625000000000000e+00	 1.312500000000000e+00	 1.004354835938462e+01
0	 7.625000000000000e+00	 1.375000000000000e+00	 1.004517924184615e+01
0	 7.624999999999999e+00	 1.437500000000000e+00	 1.004678357661538e+01
0	 7.625000000000000e+00	 1.500000000000000e+00	 1.004836136369231e+01
0	 7.625000000000000e+00	 1.562500000000000e+00	 1.004991260307692e+01
0	 7.625000000000002e+00	 1.625000000000000e+00	 1.005143729476923e+01
0	 7.624999999999998e+00	 1.687500000000000e+00	 1.005293543876923e+01
0	 7.624999999999999e+00	 1.750000000000001e+00	 1.005440703507692e+01
0	 7.624999999999999e+00	 1.812500000000001e+00	 1.005585208369231e+01
0	 7.625000000000000e+00	 1.875000000000000e+00	 1.005727058461538e+01
0	 7.687499999999999e+00	 1.250000000000000e+00	 1.003587049846154e+01
0	 7.687499999999998e+00	 1.312500000000000e+00	 1.003750517323077e+01
0	 7.687500000000000e+00	 1.375000000000000e+00	 1.003911401107692e+01
0	 7.687499999999999e+00	 1.437500000000000e+00	 1.004069701200000e+01
0	 7.687500000000000e+00	 1.500000000000000e+00	 1.004225417600000e+01
0	 7.687499999999998e+00	 1.562500000000000e+00	 1.004378550307692e+01
0	 7.687499999999998e+00	 1.625000000000000e+00	 1.004529099323077e+01
0	 7.687500000000000e+00	 1.687500000000000e+00	 1.004677064646154e+01
0	 7.687500000000000e+00	 1.750000000000000e+00	 1.004822446276923e+01
0	 7.687499999999999e+00	 1.812500000000000e+00	 1.004965244215384e+01
0	 7.687499999999999e+00	 1.875000000000000e+00	 1.005105458461539e+01
0	 7.750000000000000e+00	 1.250000000000000e+00	 1.002980500923077e+01
0	 7.750000000000000e+00	 1.312500000000000e+00	 1.003142134830770e+01
0	 7.749999999999997e+00	 1.375000000000000e+00	 1.003301256123077e+01
0	 7.749999999999999e+00	 1.437500000000000e+00	 1.003457864800000e+01
0	 7.750000000000000e+00	 1.500000000000000e+00	 1.003611960861538e+01
0	 7.749999999999997e+00	 1.562500000000000e+00	 1.003763544307692e+01
0	 7.750000000000000e+00	 1.625000000000001e+00	 1.003912615138461e+01
0	 7.749999999999999e+00	 1.687500000000000e+00	 1.004059173353846e+01
0	 7.749999999999999e+00	 1.750000000000001e+00	 1.004203218953846e+01
0	 7.749999999999999e+00	 1.812500000000000e+00	 1.004344751938461e+01
0	 7.750000000000000e+00	 1.875000000000000e+00	 1.004483772307692e+01
0	 7.812499999999999e+00	 1.250000000000000e+00	 1.002369446153846e+01
0	 7.812499999999996e+00	 1.312500000000000e+00	 1.002529688461538e+01
0	 7.812499999999998e+00	 1.375000000000000e+00	 1.002687489230770e+01
0	 7.812499999999999e+00	 1.437500000000000e+00	 1.002842848461538e+01
0	 7.812499999999999e+00	 1.500000000000000e+00	 1.002995766153847e+01
0	 7.812500000000000e+00	 1.562500000000000e+00	 1.003146242307692e+01
0	 7.812499999999998e+00	 1.625000000000000e+00	 1.003294276923076e+01
0	 7.812499999999999e+00	 1.687500000000000e+00	 1.003439870000000e+01
0	 7.812499999999999e+00	 1.750000000000000e+00	 1.003583021538462e+01
0	 7.812500000000000e+00	 1.812500000000000e+00	 1.003723731538461e+01
0	 7.812499999999999e+00	 1.875000000000000e+00	 1.003862000000000e+01
0	 7.875000000000000e+00	 1.250000000000000e+00	 1.001753885538462e+01
0	 7.874999999999997e+00	 1.312500000000000e+00	 1.001913178215385e+01
0	 7.875000000000000e+00	 1.375000000000000e+00	 1.002070100430769e+01
0	 7.874999999999997e+00	 1.437500000000000e+00	 1.002224652184616e+01
0	 7.874999999999996e+00	 1.500000000000000e+00	 1.002376833476923e+01
0	 7.874999999999998e+00	 1.562500000000000e+00	 1.002526644307692e+01
0	 7.875000000000000e+00	 1.625000000000000e+00	 1.002674084676923e+01
0	 7.874999999999998e+00	 1.687500000000000e+00	 1.002819154584615e+01
0	 7.874999999999998e+00	 1.750000000000000e+00	 1.002961854030768e+01
0	 7.874999999999998e+00	 1.812500000000000e+00	 1.003102183015384e+01
0	 7.875000000000000e+00	 1.875000000000000e+00	 1.003240141538461e+01
0	 7.937499999999997e+00	 1.250000000000000e+00	 1.001133819076923e+01
0	 7.937499999999996e+00	 1.312500000000000e+00	 1.001292604092307e+01
0	 7.937499999999999e+00	 1.375000000000000e+00	 1.001449089723077e+01
0	 7.937499999999998e+00	 1.437500000000000e+00	 1.001603275969231e+01
0	 7.937500000000000e+00	 1.500000000000001e+00	 1.001755162830769e+01
0	 7.937499999999999e+00	 1.562500000000000e+00	 1.001904750307692e+01
0	 7.937499999999998e+00	 1.625000000000000e+00	 1.002052038400001e+01
0	 7.937499999999999e+00	 1.687500000000000e+00	 1.002197027107692e+01
0	 7.937499999999998e+00	 1.750000000000000e+00	 1.002339716430769e+01
0	 7.937500000000000e+00	 1.812500000000000e+00	 1.002480106369230e+01
0	 7.937499999999997e+00	 1.875000000000000e+00	 1.002618196923077e+01
0	 7.999999999999998e+00	 1.250000000000000e+00	 1.000509246769231e+01
0	 7.999999999999997e+00	 1.312500000000000e+00	 1.000667966092308e+01
0	 7.999999999999996e+00	 1.375000000000000e+00	 1.000824457107692e+01
0	 7.999999999999998e+00	 1.437500000000000e+00	 1.000978719815384e+01
0	 7.999999999999998e+00	 1.500000000000000e+00	 1.001130754215385e+01
0	 7.999999999999998e+00	 1.562500000000000e+00	 1.001280560307692e+01
0	 8.000000000000000e+00	 1.625000000000001e+00	 1.001428138092307e+01
0	 7.999999999999997e+00	 1.687500000000000e+00	 1.001573487569231e+01
0	 7.999999999999998e+00	 1.750000000000000e+00	 1.001716608738461e+01
0	 7.999999999999999e+00	 1.812500000000001e+00	 1.001857501600000e+01
0	 7.999999999999998e+00	 1.875000000000000e+00	 1.001996166153845e+01
0	 8.062499999999998e+00	 1.250000000000000e+00	 9.998801686153840e+00
0	 8.062499999999998e+00	 1.312500000000000e+00	 1.000039264215384e+01
0	 8.062499999999998e+00	 1.375000000000000e+00	 1.000196202584615e+01
0	 8.062499999999998e+00	 1.437500000000000e+00	 1.000350983723077e+01
0	 8.062499999999998e+00	 1.500000000000000e+00	 1.000503607630768e+01
0	 8.062499999999998e+00	 1.562500000000000e+00	 1.000654074307692e+01
0	 8.062499999999998e+00	 1.625000000000000e+00	 1.000802383753845e+01
0	 8.062499999999998e+00	 1.687500000000000e+00	 1.000948535969230e+01
0	 8.062499999999996e+00	 1.750000000000000e+00	 1.001092530953847e+01
0	 8.062499999999996e+00	 1.812500000000000e+00	 1.001234368707692e+01
0	 8.062499999999998e+00	 1.875000000000000e+00	 1.001374049230769e+01
0	 8.125000000000000e+00	 1.250000000000000e+00	 9.992465846153841e+00
0	 8.125000000000000e+00	 1.312500000000000e+00	 9.994064984615370e+00
0	 8.125000000000000e+00	 1.375000000000000e+00	 9.995643261538463e+00
0	 8.125000000000002e+00	 1.437500000000000e+00	 9.997200676923072e+00
0	 8.125000000000000e+00	 1.500000000000000e+00	 9.998737230769231e+00
0	 8.125000000000000e+00	 1.562500000000000e+00	 1.000025292307692e+01
0	 8.125000000000000e+00	 1.625000000000000e+00	 1.000174775384615e+01
0	 8.125000000000000e+00	 1.687500000000000e+00	 1.000322172307692e+01
0	 8.125000000000002e+00	 1.750000000000001e+00	 1.000467483076922e+01
0	 8.125000000000000e+00	 1.812500000000000e+00	 1.000610707692307e+01
0	 8.125000000000000e+00	 1.875000000000000e+00	 1.000751846153846e+01
0	 7.500000000000000e+00	 1.875000000000000e+00	 1.006970000000000e+01
0	 7.500000000000000e+00	 1.937500000000000e+00	 1.007120973846154e+01
0	 7.500000000000000e+00	 2.000000000000000e+00	 1.007273156923077e+01
0	 7.500000000000001e+00	 2.062500000000000e+00	 1.007426549230769e+01
0	 7.500000000000001e+00	 2.125000000000000e+00	 1.007581150769231e+01
0	 7.500000000000000e+00	 2.187500000000000e+00	 1.007736961538462e+01
0	 7.499999999999999e+00	 2.250000000000000e+00	 1.007893981538462e+01
0	 7.500000000000000e+00	 2.312500000000000e+00	 1.008052210769230e+01
0	 7.500000000000001e+00	 2.375000000000001e+00	 1.008211649230770e+01
0	 7.500000000000000e+00	 2.437500000000001e+00	 1.008372296923077e+01
0	 7.500000000000000e+00	 2.500000000000000e+00	 1.008534153846154e+01
0	 7.562499999999999e+00	 1.875000000000000e+00	 1.006348572307692e+01
0	 7.562500000000001e+00	 1.937500000000000e+00	 1.006498243846154e+01
0	 7.562499999999999e+00	 2.000000000000000e+00	 1.006649037846154e+01
0	 7.562500000000000e+00	 2.062500000000000e+00	 1.006800954307692e+01
0	 7.562500000000000e+00	 2.125000000000001e+00	 1.006953993230769e+01
0	 7.562499999999999e+00	 2.187500000000000e+00	 1.007108154615385e+01
0	 7.562500000000000e+00	 2.250000000000000e+00	 1.007263438461539e+01
0	 7.562499999999999e+00	 2.312500000000000e+00	 1.007419844769231e+01
0	 7.562499999999998e+00	 2.375000000000000e+00	 1.007577373538462e+01
0	 7.562499999999997e+00	 2.437500000000000e+00	 1.007736024769231e+01
0	 7.562499999999999e+00	 2.500000000000000e+00	 1.007895798461539e+01
0	 7.625000000000000e+00	 1.875000000000000e+00	 1.005727058461538e+01
0	 7.625000000000000e+00	 1.937500000000000e+00	 1.005875925230769e+01
0	 7.625000000000000e+00	 2.000000000000000e+00	 1.006025827692308e+01
0	 7.624999999999999e+00	 2.062500000000000e+00	 1.006176765846154e+01
0	 7.625000000000000e+00	 2.125000000000000e+00	 1.006328739692308e+01
0	 7.625000000000000e+00	 2.187500000000001e+00	 1.006481749230770e+01
0	 7.625000000000002e+00	 2.250000000000000e+00	 1.006635794461539e+01
0	 7.624999999999998e+00	 2.312500000000000e+00	 1.006790875384615e+01
0	 7.624999999999999e+00	 2.375000000000000e+00	 1.006946992000000e+01
0	 7.624999999999999e+00	 2.437500000000000e+00	 1.007104144307692e+01
0	 7.625000000000000e+00	 2.500000000000000e+00	 1.007262332307692e+01
0	 7.687499999999999e+00	 1.875000000000000e+00	 1.005105458461539e+01
0	 7.687499999999998e+00	 1.937500000000000e+00	 1.005254018000000e+01
0	 7.687500000000000e+00	 2.000000000000000e+00	 1.005403526461538e+01
0	 7.687499999999999e+00	 2.062500000000000e+00	 1.005553983846153e+01
0	 7.687500000000000e+00	 2.125000000000001e+00	 1.005705390153846e+01
0	 7.687499999999998e+00	 2.187500000000000e+00	 1.005857745384616e+01
0	 7.687499999999998e+00	 2.250000000000000e+00	 1.006011049538461e+01
0	 7.687500000000000e+00	 2.312500000000000e+00	 1.006165302615384e+01
0	 7.687500000000000e+00	 2.375000000000000e+00	 1.006320504615385e+01
0	 7.687499999999999e+00	 2.437500000000000e+00	 1.006476655538462e+01
0	 7.687499999999999e+00	 2.500000000000000e+00	 1.006633755384616e+01
0	 7.750000000000000e+00	 1.875000000000000e+00	 1.004483772307692e+01
0	 7.750000000000000e+00	 1.937500000000000e+00	 1.004632522153846e+01
0	 7.749999999999997e+00	 2.000000000000000e+00	 1.004782134153846e+01
0	 7.749999999999999e+00	 2.062500000000000e+00	 1.004932608307692e+01
0	 7.750000000000000e+00	 2.125000000000000e+00	 1.005083944615384e+01
0	 7.749999999999997e+00	 2.187500000000000e+00	 1.005236143076923e+01
0	 7.750000000000000e+00	 2.250000000000000e+00	 1.005389203692308e+01
0	 7.749999999999999e+00	 2.312500000000000e+00	 1.005543126461537e+01
0	 7.749999999999999e+00	 2.375000000000000e+00	 1.005697911384615e+01
0	 7.749999999999999e+00	 2.437500000000000e+00	 1.005853558461538e+01
0	 7.750000000000000e+00	 2.500000000000000e+00	 1.006010067692308e+01
0	 7.812499999999999e+00	 1.875000000000000e+00	 1.003862000000000e+01
0	 7.812499999999996e+00	 1.937500000000000e+00	 1.004011437692307e+01
0	 7.812499999999998e+00	 2.000000000000000e+00	 1.004161650769231e+01
0	 7.812499999999999e+00	 2.062500000000000e+00	 1.004312639230769e+01
0	 7.812499999999999e+00	 2.125000000000000e+00	 1.004464403076923e+01
0	 7.812500000000000e+00	 2.187500000000000e+00	 1.004616942307692e+01
0	 7.812499999999998e+00	 2.250000000000000e+00	 1.004770256923077e+01
0	 7.812499999999999e+00	 2.312500000000001e+00	 1.004924346923077e+01
0	 7.812499999999999e+00	 2.375000000000000e+00	 1.005079212307692e+01
0	 7.812500000000000e+00	 2.437500000000000e+00	 1.005234853076924e+01
0	 7.812499999999999e+00	 2.500000000000000e+00	 1.005391269230770e+01
0	 7.875000000000000e+00	 1.875000000000000e+00	 1.003240141538461e+01
0	 7.874999999999997e+00	 1.937500000000000e+00	 1.003390764615385e+01
0	 7.875000000000000e+00	 2.000000000000000e+00	 1.003542076307692e+01
0	 7.874999999999997e+00	 2.062500000000000e+00	 1.003694076615385e+01
0	 7.874999999999996e+00	 2.125000000000000e+00	 1.003846765538461e+01
0	 7.874999999999998e+00	 2.187500000000000e+00	 1.004000143076923e+01
0	 7.875000000000000e+00	 2.250000000000000e+00	 1.004154209230769e+01
0	 7.874999999999998e+00	 2.312500000000000e+00	 1.004308964000000e+01
0	 7.874999999999998e+00	 2.375000000000001e+00	 1.004464407384615e+01
0	 7.874999999999998e+00	 2.437500000000000e+00	 1.004620539384615e+01
0	 7.875000000000000e+00	 2.500000000000000e+00	 1.004777360000001e+01
0	 7.937499999999997e+00	 1.875000000000000e+00	 1.002618196923077e+01
0	 7.937499999999996e+00	 1.937500000000000e+00	 1.002770502923077e+01
0	 7.937499999999999e+00	 2.000000000000001e+00	 1.002923410769230e+01
0	 7.937499999999998e+00	 2.062500000000000e+00	 1.003076920461538e+01
0	 7.937500000000000e+00	 2.125000000000001e+00	 1.003231031999999e+01
0	 7.937499999999999e+00	 2.187500000000000e+00	 1.003385745384614e+01
0	 7.937499999999998e+00	 2.250000000000000e+00	 1.003541060615384e+01
0	 7.937499999999999e+00	 2.312500000000001e+00	 1.003696977692307e+01
0	 7.937499999999998e+00	 2.375000000000000e+00	 1.003853496615384e+01
0	 7.937500000000000e+00	 2.437500000000000e+00	 1.004010617384615e+01
0	 7.937499999999997e+00	 2.500000000000000e+00	 1.004168340000000e+01
0	 7.999999999999998e+00	 1.875000000000000e+00	 1.001996166153845e+01
0	 7.999999999999997e+00	 1.937500000000000e+00	 1.002150652615384e+01
0	 7.999999999999996e+00	 2.000000000000000e+00	 1.002305654153846e+01
0	 7.999999999999998e+00	 2.062500000000000e+00	 1.002461170769230e+01
0	 7.999999999999998e+00	 2.125000000000000e+00	 1.002617202461538e+01
0	 7.999999999999998e+00	 2.187500000000000e+00	 1.002773749230769e+01
0	 8.000000000000000e+00	 2.250000000000000e+00	 1.002930811076923e+01
0	 7.999999999999997e+00	 2.312500000000000e+00	 1.003088388000000e+01
0	 7.999999999999998e+00	 2.375000000000000e+00	 1.003246480000001e+01
0	 7.999999999999999e+00	 2.437500000000001e+00	 1.003405087076923e+01
0	 7.999999999999998e+00	 2.500000000000000e+00	 1.003564209230769e+01
0	 8.062499999999998e+00	 1.875000000000000e+00	 1.001374049230769e+01
0	 8.062499999999998e+00	 1.937500000000000e+00	 1.001531213692307e+01
0	 8.062499999999998e+00	 2.000000000000000e+00	 1.001688806461538e+01
0	 8.062499999999998e+00	 2.062500000000000e+00	 1.001846827538461e+01
0	 8.062499999999998e+00	 2.125000000000000e+00	 1.002005276923076e+01
0	 8.062499999999998e+00	 2.187500000000000e+00	 1.002164154615383e+01
0	 8.062499999999998e+00	 2.250000000000000e+00	 1.002323460615384e+01
0	 8.062499999999998e+00	 2.312500000000000e+00	 1.002483194923076e+01
0	 8.062499999999996e+00	 2.375000000000000e+00	 1.002643357538462e+01
0	 8.062499999999996e+00	 2.437500000000000e+00	 1.002803948461538e+01
0	 8.062499999999998e+00	 2.500000000000000e+00	 1.002964967692307e+01
0	 8.125000000000000e+00	 1.875000000000000e+00	 1.000751846153846e+01
0	 8.125000000000000e+00	 1.937500000000000e+00	 1.000912186153845e+01
0	 8.125000000000000e+00	 2.000000000000000e+00	 1.001072867692308e+01
0	 8.125000000000002e+00	 2.062500000000000e+00	 1.001233890769230e+01
0	 8.125000000000000e+00	 2.125000000000000e+00	 1.001395255384615e+01
0	 8.125000000000000e+00	 2.187500000000000e+00	 1.001556961538461e+01
0	 8.125000000000000e+00	 2.250000000000000e+00	 1.001719009230768e+01
0	 8.125000000000000e+00	 2.312500000000000e+00	 1.001881398461538e+01
0	 8.125000000000002e+00	 2.375000000000001e+00	 1.002044129230769e+01
0	 8.125000000000000e+00	 2.437500000000001e+00	 1.002207201538461e+01
0	 8.125000000000000e+00	 2.500000000000000e+00	 1.002370615384615e+01
0	 7.500000000000000e+00	 2.500000000000000e+00	 1.008534153846154e+01
0	 7.500000000000001e+00	 2.562500000000000e+00	 1.008627636923078e+01
0	 7.500000000000000e+00	 2.625000000000000e+00	 1.008725532307693e+01
0	 7.500000000000000e+00	 2.687499999999999e+00	 1.008827839999999e+01
0	 7.500000000000000e+00	 2.750000000000000e+00	 1.008934559999999e+01
0	 7.500000000000000e+00	 2.812499999999999e+00	 1.009045692307693e+01
0	 7.500000000000000e+00	 2.874999999999999e+00	 1.009161236923076e+01
0	 7.499999999999999e+00	 2.937499999999998e+00	 1.009281193846154e+01
0	 7.500000000000000e+00	 2.999999999999998e+00	 1.009405563076923e+01
0	 7.500000000000000e+00	 3.062499999999998e+00	 1.009534344615385e+01
0	 7.500000000000000e+00	 3.125000000000000e+00	 1.009667538461538e+01
0	 7.562499999999999e+00	 2.500000000000000e+00	 1.007895798461539e+01
0	 7.562500000000000e+00	 2.562500000000000e+00	 1.007992479692308e+01
0	 7.562500000000000e+00	 2.624999999999999e+00	 1.008093360923076e+01
0	 7.562500000000000e+00	 2.687499999999999e+00	 1.008198442153846e+01
0	 7.562500000000001e+00	 2.750000000000000e+00	 1.008307723384616e+01
0	 7.562500000000000e+00	 2.812499999999999e+00	 1.008421204615385e+01
0	 7.562500000000000e+00	 2.875000000000000e+00	 1.008538885846153e+01
0	 7.562500000000001e+00	 2.937499999999999e+00	 1.008660767076922e+01
0	 7.562500000000001e+00	 2.999999999999999e+00	 1.008786848307692e+01
0	 7.562499999999998e+00	 3.062499999999997e+00	 1.008917129538461e+01
0	 7.562499999999999e+00	 3.125000000000000e+00	 1.009051610769230e+01
0	 7.625000000000000e+00	 2.500000000000000e+00	 1.007262332307692e+01
0	 7.624999999999999e+00	 2.562500000000000e+00	 1.007362414153847e+01
0	 7.625000000000001e+00	 2.625000000000000e+00	 1.007466483692308e+01
0	 7.625000000000000e+00	 2.687500000000000e+00	 1.007574540923077e+01
0	 7.624999999999999e+00	 2.749999999999999e+00	 1.007686585846154e+01
0	 7.624999999999999e+00	 2.812499999999999e+00	 1.007802618461538e+01
0	 7.624999999999997e+00	 2.874999999999999e+00	 1.007922638769231e+01
0	 7.625000000000000e+00	 2.937499999999999e+00	 1.008046646769230e+01
0	 7.625000000000000e+00	 2.999999999999998e+00	 1.008174642461539e+01
0	 7.625000000000000e+00	 3.062499999999999e+00	 1.008306625846152e+01
0	 7.625000000000000e+00	 3.125000000000000e+00	 1.008442596923077e+01
0	 7.687499999999999e+00	 2.500000000000000e+00	 1.006633755384616e+01
0	 7.687499999999999e+00	 2.562500000000000e+00	 1.006737440307692e+01
0	 7.687500000000000e+00	 2.625000000000000e+00	 1.006844900615386e+01
0	 7.687500000000000e+00	 2.687499999999999e+00	 1.006956136307692e+01
0	 7.687499999999999e+00	 2.749999999999999e+00	 1.007071147384615e+01
0	 7.687500000000000e+00	 2.812499999999999e+00	 1.007189933846154e+01
0	 7.687500000000000e+00	 2.874999999999999e+00	 1.007312495692307e+01
0	 7.687499999999998e+00	 2.937499999999999e+00	 1.007438832923077e+01
0	 7.687500000000000e+00	 2.999999999999999e+00	 1.007568945538461e+01
0	 7.687499999999998e+00	 3.062499999999998e+00	 1.007702833538461e+01
0	 7.687499999999999e+00	 3.125000000000000e+00	 1.007840496923076e+01
0	 7.750000000000000e+00	 2.500000000000000e+00	 1.006010067692308e+01
0	 7.750000000000000e+00	 2.562500000000000e+00	 1.006117558153846e+01
0	 7.749999999999998e+00	 2.625000000000000e+00	 1.006228611692307e+01
0	 7.749999999999998e+00	 2.687500000000000e+00	 1.006343228307692e+01
0	 7.749999999999997e+00	 2.750000000000000e+00	 1.006461408000000e+01
0	 7.749999999999998e+00	 2.812499999999999e+00	 1.006583150769231e+01
0	 7.749999999999999e+00	 2.874999999999999e+00	 1.006708456615384e+01
0	 7.750000000000000e+00	 2.937499999999998e+00	 1.006837325538461e+01
0	 7.749999999999999e+00	 2.999999999999999e+00	 1.006969757538461e+01
0	 7.750000000000000e+00	 3.062499999999998e+00	 1.007105752615385e+01
0	 7.750000000000000e+00	 3.125000000000000e+00	 1.007245310769230e+01
0	 7.812499999999999e+00	 2.500000000000000e+00	 1.005391269230770e+01
0	 7.812499999999998e+00	 2.562499999999999e+00	 1.005502767692308e+01
0	 7.812499999999999e+00	 2.625000000000000e+00	 1.005617616923076e+01
0	 7.812499999999999e+00	 2.687500000000000e+00	 1.005735816923077e+01
0	 7.812499999999997e+00	 2.749999999999999e+00	 1.005857367692307e+01
0	 7.812499999999999e+00	 2.812499999999999e+00	 1.005982269230769e+01
0	 7.812500000000000e+00	 2.874999999999999e+00	 1.006110521538462e+01
0	 7.812499999999999e+00	 2.937499999999998e+00	 1.006242124615384e+01
0	 7.812499999999998e+00	 2.999999999999998e+00	 1.006377078461537e+01
0	 7.812500000000000e+00	 3.062499999999998e+00	 1.006515383076923e+01
0	 7.812499999999999e+00	 3.125000000000000e+00	 1.006657038461538e+01
0	 7.875000000000000e+00	 2.500000000000000e+00	 1.004777360000001e+01
0	 7.874999999999998e+00	 2.562500000000000e+00	 1.004893068923076e+01
0	 7.874999999999996e+00	 2.625000000000000e+00	 1.005011916307692e+01
0	 7.874999999999998e+00	 2.687500000000000e+00	 1.005133902153846e+01
0	 7.875000000000001e+00	 2.750000000000000e+00	 1.005259026461539e+01
0	 7.874999999999999e+00	 2.812500000000000e+00	 1.005387289230769e+01
0	 7.874999999999998e+00	 2.874999999999999e+00	 1.005518690461538e+01
0	 7.874999999999999e+00	 2.937499999999999e+00	 1.005653230153846e+01
0	 7.874999999999998e+00	 2.999999999999999e+00	 1.005790908307692e+01
0	 7.874999999999997e+00	 3.062499999999998e+00	 1.005931724923077e+01
0	 7.875000000000000e+00	 3.125000000000000e+00	 1.006075679999999e+01
0	 7.937499999999997e+00	 2.500000000000000e+00	 1.004168340000000e+01
0	 7.937499999999998e+00	 2.562500000000000e+00	 1.004288461846154e+01
0	 7.937499999999999e+00	 2.625000000000000e+00	 1.004411509846154e+01
0	 7.937499999999998e+00	 2.687500000000000e+00	 1.004537484000000e+01
0	 7.937499999999998e+00	 2.749999999999999e+00	 1.004666384307692e+01
0	 7.937500000000000e+00	 2.812499999999999e+00	 1.004798210769230e+01
0	 7.937500000000000e+00	 2.874999999999999e+00	 1.004932963384615e+01
0	 7.937500000000000e+00	 2.937499999999998e+00	 1.005070642153847e+01
0	 7.937499999999998e+00	 2.999999999999998e+00	 1.005211247076923e+01
0	 7.937499999999999e+00	 3.062499999999998e+00	 1.005354778153846e+01
0	 7.937499999999997e+00	 3.125000000000000e+00	 1.005501235384615e+01
0	 7.999999999999998e+00	 2.500000000000000e+00	 1.003564209230769e+01
0	 7.999999999999998e+00	 2.562500000000001e+00	 1.003688946461538e+01
0	 7.999999999999999e+00	 2.625000000000000e+00	 1.003816397538461e+01
0	 7.999999999999999e+00	 2.687500000000000e+00	 1.003946562461538e+01
0	 7.999999999999998e+00	 2.749999999999999e+00	 1.004079441230769e+01
0	 7.999999999999998e+00	 2.812499999999999e+00	 1.004215033846154e+01
0	 7.999999999999998e+00	 2.874999999999999e+00	 1.004353340307692e+01
0	 7.999999999999997e+00	 2.937499999999998e+00	 1.004494360615385e+01
0	 7.999999999999998e+00	 2.999999999999998e+00	 1.004638094769231e+01
0	 7.999999999999998e+00	 3.062499999999998e+00	 1.004784542769230e+01
0	 7.999999999999998e+00	 3.125000000000000e+00	 1.004933704615384e+01
0	 8.062499999999998e+00	 2.500000000000000e+00	 1.002964967692307e+01
0	 8.062499999999998e+00	 2.562500000000000e+00	 1.003094522769231e+01
0	 8.062499999999998e+00	 2.625000000000000e+00	 1.003226579384615e+01
0	 8.062500000000000e+00	 2.687500000000000e+00	 1.003361137538461e+01
0	 8.062499999999998e+00	 2.749999999999999e+00	 1.003498197230769e+01
0	 8.062499999999996e+00	 2.812499999999999e+00	 1.003637758461538e+01
0	 8.062499999999996e+00	 2.874999999999999e+00	 1.003779821230769e+01
0	 8.062499999999996e+00	 2.937499999999998e+00	 1.003924385538461e+01
0	 8.062499999999998e+00	 2.999999999999998e+00	 1.004071451384616e+01
0	 8.062499999999998e+00	 3.062499999999998e+00	 1.004221018769231e+01
0	 8.062499999999998e+00	 3.125000000000000e+00	 1.004373087692307e+01
0	 8.125000000000000e+00	 2.500000000000000e+00	 1.002370615384615e+01
0	 8.125000000000000e+00	 2.562500000000000e+00	 1.002505190769231e+01
0	 8.125000000000002e+00	 2.625000000000000e+00	 1.002642055384616e+01
0	 8.125000000000000e+00	 2.687499999999999e+00	 1.002781209230769e+01
0	 8.125000000000000e+00	 2.750000000000000e+00	 1.002922652307692e+01
0	 8.125000000000000e+00	 2.812499999999999e+00	 1.003066384615384e+01
0	 8.125000000000000e+00	 2.874999999999999e+00	 1.003212406153845e+01
0	 8.125000000000000e+00	 2.937499999999998e+00	 1.003360716923077e+01
0	 8.125000000000000e+00	 2.999999999999998e+00	 1.003511316923077e+01
0	 8.125000000000000e+00	 3.062499999999998e+00	 1.003664206153847e+01
0	 8.125000000000000e+00	 3.125000000000000e+00	 1.003819384615385e+01
0	 7.500000000000000e+00	 3.125000000000000e+00	 1.009667538461538e+01
0	 7.500000000000001e+00	 3.187500000000000e+00	 1.009695621538460e+01
0	 7.500000000000000e+00	 3.250000000000000e+00	 1.009729409230768e+01
0	 7.500000000000000e+00	 3.312499999999999e+00	 1.009768901538461e+01
0	 7.500000000000000e+00	 3.374999999999999e+00	 1.009814098461538e+01
0	 7.500000000000000e+00	 3.437499999999999e+00	 1.009865000000000e+01
0	 7.500000000000000e+00	 3.499999999999999e+00	 1.009921606153847e+01
0	 7.499999999999999e+00	 3.562499999999998e+00	 1.009983916923078e+01
0	 7.500000000000000e+00	 3.624999999999999e+00	 1.010051932307692e+01
0	 7.500000000000000e+00	 3.687499999999998e+00	 1.010125652307691e+01
0	 7.500000000000000e+00	 3.750000000000000e+00	 1.010205076923077e+01
0	 7.562499999999999e+00	 3.125000000000000e+00	 1.009051610769230e+01
0	 7.562500000000000e+00	 3.187500000000000e+00	 1.009085235538461e+01
0	 7.562500000000000e+00	 3.250000000000000e+00	 1.009124345230769e+01
0	 7.562500000000000e+00	 3.312499999999999e+00	 1.009168939846154e+01
0	 7.562500000000001e+00	 3.374999999999999e+00	 1.009219019384615e+01
0	 7.562500000000000e+00	 3.437499999999999e+00	 1.009274583846154e+01
0	 7.562500000000000e+00	 3.500000000000000e+00	 1.009335633230770e+01
0	 7.562500000000001e+00	 3.562499999999999e+00	 1.009402167538462e+01
0	 7.562500000000001e+00	 3.625000000000000e+00	 1.009474186769230e+01
0	 7.562499999999998e+00	 3.687499999999997e+00	 1.009551690923076e+01
0	 7.562499999999999e+00	 3.750000000000000e+00	 1.009634680000000e+01
0	 7.625000000000000e+00	 3.125000000000000e+00	 1.008442596923077e+01
0	 7.624999999999999e+00	 3.187500000000000e+00	 1.008481903384616e+01
0	 7.625000000000001e+00	 3.250000000000000e+00	 1.008526475076922e+01
0	 7.625000000000000e+00	 3.312500000000000e+00	 1.008576312000000e+01
0	 7.624999999999999e+00	 3.374999999999999e+00	 1.008631414153846e+01
0	 7.624999999999999e+00	 3.437499999999999e+00	 1.008691781538462e+01
0	 7.624999999999997e+00	 3.499999999999997e+00	 1.008757414153846e+01
0	 7.625000000000000e+00	 3.562499999999999e+00	 1.008828312000000e+01
0	 7.625000000000000e+00	 3.624999999999998e+00	 1.008904475076922e+01
0	 7.625000000000000e+00	 3.687499999999999e+00	 1.008985903384616e+01
0	 7.625000000000000e+00	 3.750000000000000e+00	 1.009072596923077e+01
0	 7.687499999999999e+00	 3.125000000000000e+00	 1.007840496923076e+01
0	 7.687499999999999e+00	 3.187500000000000e+00	 1.007885625076923e+01
0	 7.687500000000000e+00	 3.250000000000000e+00	 1.007935798769231e+01
0	 7.687500000000000e+00	 3.312500000000000e+00	 1.007991018000000e+01
0	 7.687499999999999e+00	 3.374999999999999e+00	 1.008051282769231e+01
0	 7.687500000000000e+00	 3.437499999999999e+00	 1.008116593076922e+01
0	 7.687500000000000e+00	 3.499999999999998e+00	 1.008186948923077e+01
0	 7.687499999999998e+00	 3.562499999999998e+00	 1.008262350307692e+01
0	 7.687500000000000e+00	 3.624999999999998e+00	 1.008342797230769e+01
0	 7.687499999999998e+00	 3.687499999999998e+00	 1.008428289692308e+01
0	 7.687499999999999e+00	 3.750000000000000e+00	 1.008518827692308e+01
0	 7.750000000000000e+00	 3.125000000000000e+00	 1.007245310769230e+01
0	 7.750000000000000e+00	 3.187500000000000e+00	 1.007296400615384e+01
0	 7.749999999999998e+00	 3.250000000000000e+00	 1.007352316307692e+01
0	 7.749999999999998e+00	 3.312500000000000e+00	 1.007413057846153e+01
0	 7.749999999999997e+00	 3.374999999999999e+00	 1.007478625230768e+01
0	 7.749999999999998e+00	 3.437499999999999e+00	 1.007549018461538e+01
0	 7.749999999999999e+00	 3.499999999999998e+00	 1.007624237538460e+01
0	 7.750000000000000e+00	 3.562499999999998e+00	 1.007704282461537e+01
0	 7.749999999999999e+00	 3.624999999999999e+00	 1.007789153230769e+01
0	 7.750000000000000e+00	 3.687499999999998e+00	 1.007878849846154e+01
0	 7.750000000000000e+00	 3.750000000000000e+00	 1.007973372307692e+01
0	 7.812499999999999e+00	 3.125000000000000e+00	 1.006657038461538e+01
0	 7.812499999999998e+00	 3.187500000000000e+00	 1.006714229999999e+01
0	 7.812499999999999e+00	 3.250000000000000e+00	 1.006776027692307e+01
0	 7.812499999999999e+00	 3.312500000000000e+00	 1.006842431538461e+01
0	 7.812499999999997e+00	 3.374999999999998e+00	 1.006913441538461e+01
0	 7.812499999999999e+00	 3.437499999999999e+00	 1.006989057692307e+01
0	 7.812500000000000e+00	 3.499999999999999e+00	 1.007069279999999e+01
0	 7.812499999999999e+00	 3.562499999999999e+00	 1.007154108461538e+01
0	 7.812499999999998e+00	 3.624999999999998e+00	 1.007243543076923e+01
0	 7.812500000000000e+00	 3.687499999999999e+00	 1.007337583846155e+01
0	 7.812499999999999e+00	 3.750000000000000e+00	 1.007436230769230e+01
0	 7.875000000000000e+00	 3.125000000000000e+00	 1.006075679999999e+01
0	 7.874999999999998e+00	 3.187500000000000e+00	 1.006139113230769e+01
0	 7.874999999999996e+00	 3.249999999999999e+00	 1.006206932923076e+01
0	 7.874999999999998e+00	 3.312499999999999e+00	 1.006279139076922e+01
0	 7.875000000000001e+00	 3.375000000000000e+00	 1.006355731692307e+01
0	 7.874999999999999e+00	 3.437500000000000e+00	 1.006436710769231e+01
0	 7.874999999999998e+00	 3.499999999999999e+00	 1.006522076307692e+01
0	 7.874999999999999e+00	 3.562499999999999e+00	 1.006611828307691e+01
0	 7.874999999999998e+00	 3.624999999999999e+00	 1.006705966769231e+01
0	 7.874999999999997e+00	 3.687499999999998e+00	 1.006804491692307e+01
0	 7.875000000000000e+00	 3.750000000000000e+00	 1.006907403076923e+01
0	 7.937499999999997e+00	 3.125000000000000e+00	 1.005501235384615e+01
0	 7.937499999999998e+00	 3.187500000000000e+00	 1.005571050307693e+01
0	 7.937499999999999e+00	 3.250000000000000e+00	 1.005645031999999e+01
0	 7.937499999999998e+00	 3.312500000000000e+00	 1.005723180461538e+01
0	 7.937499999999998e+00	 3.374999999999999e+00	 1.005805495692307e+01
0	 7.937500000000000e+00	 3.437499999999999e+00	 1.005891977692308e+01
0	 7.937500000000000e+00	 3.499999999999999e+00	 1.005982626461538e+01
0	 7.937500000000000e+00	 3.562499999999999e+00	 1.006077442000000e+01
0	 7.937499999999998e+00	 3.624999999999998e+00	 1.006176424307693e+01
0	 7.937499999999999e+00	 3.687499999999999e+00	 1.006279573384614e+01
0	 7.937499999999997e+00	 3.750000000000000e+00	 1.006386889230769e+01
0	 7.999999999999998e+00	 3.125000000000000e+00	 1.004933704615384e+01
0	 7.999999999999998e+00	 3.187500000000001e+00	 1.005010041230769e+01
0	 7.999999999999999e+00	 3.250000000000000e+00	 1.005090324923077e+01
0	 7.999999999999999e+00	 3.312500000000000e+00	 1.005174555692307e+01
0	 7.999999999999998e+00	 3.374999999999999e+00	 1.005262733538462e+01
0	 7.999999999999998e+00	 3.437499999999999e+00	 1.005354858461538e+01
0	 7.999999999999998e+00	 3.499999999999998e+00	 1.005450930461538e+01
0	 7.999999999999997e+00	 3.562499999999998e+00	 1.005550949538461e+01
0	 7.999999999999998e+00	 3.624999999999998e+00	 1.005654915692307e+01
0	 7.999999999999998e+00	 3.687499999999998e+00	 1.005762828923076e+01
0	 7.999999999999998e+00	 3.750000000000000e+00	 1.005874689230770e+01
0	 8.062499999999998e+00	 3.125000000000000e+00	 1.004373087692307e+01
0	 8.062499999999998e+00	 3.187500000000000e+00	 1.004456086000000e+01
0	 8.062499999999998e+00	 3.250000000000000e+00	 1.004542811692307e+01
0	 8.062500000000000e+00	 3.312500000000000e+00	 1.004633264769230e+01
0	 8.062499999999998e+00	 3.374999999999999e+00	 1.004727445230769e+01
0	 8.062499999999996e+00	 3.437500000000000e+00	 1.004825353076922e+01
0	 8.062499999999996e+00	 3.499999999999998e+00	 1.004926988307692e+01
0	 8.062499999999996e+00	 3.562499999999998e+00	 1.005032350923076e+01
0	 8.062499999999998e+00	 3.624999999999998e+00	 1.005141440923076e+01
0	 8.062499999999998e+00	 3.687499999999997e+00	 1.005254258307691e+01
0	 8.062499999999998e+00	 3.750000000000000e+00	 1.005370803076923e+01
0	 8.125000000000000e+00	 3.125000000000000e+00	 1.003819384615385e+01
0	 8.125000000000000e+00	 3.187500000000000e+00	 1.003909184615383e+01
0	 8.125000000000002e+00	 3.250000000000000e+00	 1.004002492307692e+01
0	 8.125000000000000e+00	 3.312499999999999e+00	 1.004099307692308e+01
0	 8.125000000000000e+00	 3.374999999999999e+00	 1.004199630769230e+01
0	 8.125000000000000e+00	 3.437499999999999e+00	 1.004303461538460e+01
0	 8.125000000000000e+00	 3.499999999999999e+00	 1.004410800000000e+01
0	 8.125000000000000e+00	 3.562499999999998e+00	 1.004521646153845e+01
0	 8.125000000000000e+00	 3.624999999999999e+00	 1.004636000000000e+01
0	 8.125000000000000e+00	 3.687499999999998e+00	 1.004753861538460e+01
0	 8.125000000000000e+00	 3.750000000000000e+00	 1.004875230769230e+01
0	 7.500000000000000e+00	 3.750000000000000e+00	 1.010205076923077e+01
0	 7.500000000000001e+00	 3.812500000000000e+00	 1.010164564615385e+01
0	 7.500000000000000e+00	 3.875000000000000e+00	 1.010130043076924e+01
0	 7.500000000000000e+00	 3.937499999999999e+00	 1.010101512307692e+01
0	 7.500000000000000e+00	 4.000000000000000e+00	 1.010078972307693e+01
0	 7.500000000000000e+00	 4.062499999999999e+00	 1.010062423076924e+01
0	 7.500000000000000e+00	 4.124999999999999e+00	 1.010051864615385e+01
0	 7.499999999999999e+00	 4.187499999999998e+00	 1.010047296923078e+01
0	 7.500000000000000e+00	 4.249999999999998e+00	 1.010048720000001e+01
0	 7.500000000000000e+00	 4.312499999999998e+00	 1.010056133846155e+01
0	 7.500000000000000e+00	 4.375000000000000e+00	 1.010069538461538e+01
0	 7.562499999999999e+00	 3.750000000000000e+00	 1.009634680000000e+01
0	 7.562500000000000e+00	 3.812500000000000e+00	 1.009602651692308e+01
0	 7.562500000000000e+00	 3.875000000000000e+00	 1.009576392615385e+01
0	 7.562500000000000e+00	 3.937500000000000e+00	 1.009555902769231e+01
0	 7.562500000000001e+00	 3.999999999999999e+00	 1.009541182153846e+01
0	 7.562500000000000e+00	 4.062499999999999e+00	 1.009532230769231e+01
0	 7.562500000000000e+00	 4.125000000000000e+00	 1.009529048615386e+01
0	 7.562500000000001e+00	 4.187500000000000e+00	 1.009531635692308e+01
0	 7.562500000000001e+00	 4.250000000000000e+00	 1.009539992000001e+01
0	 7.562499999999998e+00	 4.312499999999997e+00	 1.009554117538462e+01
0	 7.562499999999999e+00	 4.375000000000000e+00	 1.009574012307693e+01
0	 7.625000000000000e+00	 3.750000000000000e+00	 1.009072596923077e+01
0	 7.624999999999999e+00	 3.812500000000000e+00	 1.009048962153846e+01
0	 7.625000000000001e+00	 3.875000000000000e+00	 1.009030875076923e+01
0	 7.625000000000000e+00	 3.937500000000000e+00	 1.009018335692307e+01
0	 7.624999999999999e+00	 3.999999999999999e+00	 1.009011344000000e+01
0	 7.624999999999999e+00	 4.062499999999999e+00	 1.009009900000000e+01
0	 7.624999999999997e+00	 4.124999999999997e+00	 1.009014003692308e+01
0	 7.625000000000000e+00	 4.187499999999998e+00	 1.009023655076923e+01
0	 7.625000000000000e+00	 4.249999999999998e+00	 1.009038854153847e+01
0	 7.625000000000000e+00	 4.312499999999998e+00	 1.009059600923079e+01
0	 7.625000000000000e+00	 4.375000000000000e+00	 1.009085895384615e+01
0	 7.687499999999999e+00	 3.750000000000000e+00	 1.008518827692308e+01
0	 7.687499999999999e+00	 3.812500000000000e+00	 1.008503496000000e+01
0	 7.687500000000000e+00	 3.875000000000000e+00	 1.008493490461538e+01
0	 7.687500000000000e+00	 3.937500000000000e+00	 1.008488811076924e+01
0	 7.687499999999999e+00	 3.999999999999999e+00	 1.008489457846154e+01
0	 7.687500000000000e+00	 4.062500000000000e+00	 1.008495430769231e+01
0	 7.687500000000000e+00	 4.124999999999998e+00	 1.008506729846155e+01
0	 7.687499999999998e+00	 4.187499999999999e+00	 1.008523355076924e+01
0	 7.687500000000000e+00	 4.249999999999998e+00	 1.008545306461537e+01
0	 7.687499999999998e+00	 4.312499999999997e+00	 1.008572584000002e+01
0	 7.687499999999999e+00	 4.375000000000000e+00	 1.008605187692309e+01
0	 7.750000000000000e+00	 3.750000000000000e+00	 1.007973372307692e+01
0	 7.750000000000000e+00	 3.812500000000000e+00	 1.007966253230770e+01
0	 7.749999999999998e+00	 3.875000000000000e+00	 1.007964238769230e+01
0	 7.749999999999998e+00	 3.937500000000000e+00	 1.007967328923077e+01
0	 7.749999999999997e+00	 3.999999999999999e+00	 1.007975523692309e+01
0	 7.749999999999998e+00	 4.062499999999999e+00	 1.007988823076924e+01
0	 7.749999999999999e+00	 4.124999999999998e+00	 1.008007227076923e+01
0	 7.750000000000000e+00	 4.187499999999999e+00	 1.008030735692308e+01
0	 7.749999999999999e+00	 4.249999999999998e+00	 1.008059348923078e+01
0	 7.750000000000000e+00	 4.312499999999998e+00	 1.008093066769231e+01
0	 7.750000000000000e+00	 4.375000000000000e+00	 1.008131889230771e+01
0	 7.812499999999999e+00	 3.750000000000000e+00	 1.007436230769230e+01
0	 7.812499999999998e+00	 3.812500000000000e+00	 1.007437233846154e+01
0	 7.812499999999999e+00	 3.875000000000000e+00	 1.007443119999999e+01
0	 7.812499999999999e+00	 3.937499999999999e+00	 1.007453889230769e+01
0	 7.812499999999997e+00	 3.999999999999998e+00	 1.007469541538461e+01
0	 7.812499999999999e+00	 4.062499999999999e+00	 1.007490076923077e+01
0	 7.812500000000000e+00	 4.125000000000000e+00	 1.007515495384616e+01
0	 7.812499999999999e+00	 4.187499999999998e+00	 1.007545796923077e+01
0	 7.812499999999998e+00	 4.249999999999998e+00	 1.007580981538461e+01
0	 7.812500000000000e+00	 4.312499999999998e+00	 1.007621049230769e+01
0	 7.812499999999999e+00	 4.375000000000000e+00	 1.007666000000000e+01
0	 7.875000000000000e+00	 3.750000000000000e+00	 1.006907403076923e+01
0	 7.874999999999998e+00	 3.812500000000000e+00	 1.006916437846153e+01
0	 7.874999999999996e+00	 3.874999999999999e+00	 1.006930134153846e+01
0	 7.874999999999998e+00	 3.937500000000000e+00	 1.006948492000000e+01
0	 7.875000000000001e+00	 4.000000000000000e+00	 1.006971511384615e+01
0	 7.874999999999999e+00	 4.062500000000000e+00	 1.006999192307693e+01
0	 7.874999999999998e+00	 4.124999999999999e+00	 1.007031534769231e+01
0	 7.874999999999999e+00	 4.187499999999998e+00	 1.007068538769231e+01
0	 7.874999999999998e+00	 4.249999999999999e+00	 1.007110204307693e+01
0	 7.874999999999997e+00	 4.312499999999997e+00	 1.007156531384616e+01
0	 7.875000000000000e+00	 4.375000000000000e+00	 1.007207520000001e+01
0	 7.937499999999997e+00	 3.750000000000000e+00	 1.006386889230769e+01
0	 7.937499999999998e+00	 3.812500000000000e+00	 1.006403865230769e+01
0	 7.937499999999999e+00	 3.875000000000000e+00	 1.006425281230769e+01
0	 7.937499999999998e+00	 3.937499999999999e+00	 1.006451137230769e+01
0	 7.937499999999998e+00	 3.999999999999999e+00	 1.006481433230770e+01
0	 7.937500000000000e+00	 4.062500000000000e+00	 1.006516169230770e+01
0	 7.937500000000000e+00	 4.124999999999999e+00	 1.006555345230770e+01
0	 7.937500000000000e+00	 4.187499999999999e+00	 1.006598961230771e+01
0	 7.937499999999998e+00	 4.249999999999998e+00	 1.006647017230770e+01
0	 7.937499999999999e+00	 4.312499999999998e+00	 1.006699513230771e+01
0	 7.937499999999997e+00	 4.375000000000000e+00	 1.006756449230771e+01
0	 7.999999999999998e+00	 3.750000000000000e+00	 1.005874689230770e+01
0	 7.999999999999998e+00	 3.812500000000000e+00	 1.005899516000000e+01
0	 7.999999999999999e+00	 3.875000000000000e+00	 1.005928561230768e+01
0	 7.999999999999999e+00	 3.937500000000000e+00	 1.005961824923077e+01
0	 7.999999999999998e+00	 3.999999999999999e+00	 1.005999307076925e+01
0	 7.999999999999998e+00	 4.062499999999998e+00	 1.006041007692308e+01
0	 7.999999999999998e+00	 4.124999999999999e+00	 1.006086926769232e+01
0	 7.999999999999997e+00	 4.187499999999998e+00	 1.006137064307693e+01
0	 7.999999999999998e+00	 4.249999999999998e+00	 1.006191420307694e+01
0	 7.999999999999998e+00	 4.312499999999998e+00	 1.006249994769232e+01
0	 7.999999999999998e+00	 4.375000000000000e+00	 1.006312787692308e+01
0	 8.062499999999998e+00	 3.750000000000000e+00	 1.005370803076923e+01
0	 8.062499999999998e+00	 3.812500000000000e+00	 1.005403390153846e+01
0	 8.062499999999998e+00	 3.875000000000000e+00	 1.005439974153845e+01
0	 8.062500000000000e+00	 3.937499999999999e+00	 1.005480555076923e+01
0	 8.062499999999998e+00	 3.999999999999999e+00	 1.005525132923077e+01
0	 8.062499999999996e+00	 4.062499999999998e+00	 1.005573707692308e+01
0	 8.062499999999996e+00	 4.124999999999998e+00	 1.005626279384615e+01
0	 8.062499999999996e+00	 4.187499999999998e+00	 1.005682848000001e+01
0	 8.062499999999998e+00	 4.249999999999998e+00	 1.005743413538463e+01
0	 8.062499999999998e+00	 4.312499999999998e+00	 1.005807976000001e+01
0	 8.062499999999998e+00	 4.375000000000000e+00	 1.005876535384616e+01
0	 8.125000000000000e+00	 3.750000000000000e+00	 1.004875230769230e+01
0	 8.125000000000000e+00	 3.812500000000000e+00	 1.004915487692308e+01
0	 8.125000000000002e+00	 3.875000000000000e+00	 1.004959520000000e+01
0	 8.125000000000000e+00	 3.937499999999999e+00	 1.005007327692308e+01
0	 8.125000000000000e+00	 4.000000000000000e+00	 1.005058910769231e+01
0	 8.125000000000000e+00	 4.062499999999999e+00	 1.005114269230770e+01
0	 8.125000000000000e+00	 4.124999999999999e+00	 1.005173403076923e+01
0	 8.125000000000000e+00	 4.187499999999998e+00	 1.005236312307693e+01
0	 8.125000000000000e+00	 4.249999999999998e+00	 1.005302996923078e+01
0	 8.125000000000000e+00	 4.312499999999998e+00	 1.005373456923078e+01
0	 8.125000000000000e+00	 4.375000000000000e+00	 1.005447692307693e+01
0	 7.500000000000000e+00	 4.375000000000000e+00	 1.010069538461538e+01
0	 7.500000000000001e+00	 4.437499999999999e+00	 1.009976875384616e+01
0	 7.500000000000000e+00	 4.500000000000001e+00	 1.009889224615384e+01
0	 7.500000000000000e+00	 4.562499999999999e+00	 1.009806586153847e+01
0	 7.500000000000000e+00	 4.625000000000000e+00	 1.009728959999999e+01
0	 7.500000000000000e+00	 4.687499999999999e+00	 1.009656346153846e+01
0	 7.500000000000000e+00	 4.749999999999999e+00	 1.009588744615385e+01
0	 7.499999999999999e+00	 4.812499999999998e+00	 1.009526155384616e+01
0	 7.500000000000000e+00	 4.874999999999998e+00	 1.009468578461538e+01
0	 7.500000000000000e+00	 4.937499999999998e+00	 1.009416013846152e+01
0	 7.500000000000000e+00	 5.000000000000000e+00	 1.009368461538461e+01
0	 7.562499999999999e+00	 4.375000000000000e+00	 1.009574012307693e+01
0	 7.562500000000000e+00	 4.437500000000000e+00	 1.009490311692307e+01
0	 7.562500000000000e+00	 4.499999999999999e+00	 1.009411467384615e+01
0	 7.562500000000000e+00	 4.562499999999999e+00	 1.009337479384615e+01
0	 7.562500000000001e+00	 4.625000000000000e+00	 1.009268347692308e+01
0	 7.562500000000000e+00	 4.687500000000001e+00	 1.009204072307693e+01
0	 7.562500000000000e+00	 4.749999999999999e+00	 1.009144653230769e+01
0	 7.562500000000001e+00	 4.812499999999999e+00	 1.009090090461538e+01
0	 7.562500000000001e+00	 4.875000000000000e+00	 1.009040384000001e+01
0	 7.562499999999998e+00	 4.937499999999997e+00	 1.008995533846153e+01
0	 7.562499999999999e+00	 4.999999999999999e+00	 1.008955539999999e+01
0	 7.625000000000000e+00	 4.375000000000000e+00	 1.009085895384615e+01
0	 7.624999999999999e+00	 4.437500000000000e+00	 1.009011047384617e+01
0	 7.625000000000001e+00	 4.500000000000001e+00	 1.008940899692308e+01
0	 7.625000000000000e+00	 4.562499999999999e+00	 1.008875452307693e+01
0	 7.624999999999999e+00	 4.624999999999998e+00	 1.008814705230769e+01
0	 7.624999999999999e+00	 4.687499999999997e+00	 1.008758658461539e+01
0	 7.624999999999997e+00	 4.749999999999998e+00	 1.008707312000001e+01
0	 7.625000000000000e+00	 4.812499999999999e+00	 1.008660665846153e+01
0	 7.625000000000000e+00	 4.874999999999998e+00	 1.008618720000001e+01
0	 7.625000000000000e+00	 4.937499999999998e+00	 1.008581474461539e+01
0	 7.625000000000000e+00	 5.000000000000000e+00	 1.008548929230770e+01
0	 7.687499999999999e+00	 4.375000000000000e+00	 1.008605187692309e+01
0	 7.687499999999999e+00	 4.437500000000000e+00	 1.008539082461539e+01
0	 7.687500000000000e+00	 4.500000000000000e+00	 1.008477521538461e+01
0	 7.687500000000000e+00	 4.562499999999999e+00	 1.008420504923076e+01
0	 7.687499999999999e+00	 4.625000000000000e+00	 1.008368032615385e+01
0	 7.687500000000000e+00	 4.687499999999999e+00	 1.008320104615384e+01
0	 7.687500000000000e+00	 4.749999999999998e+00	 1.008276720923076e+01
0	 7.687499999999998e+00	 4.812499999999998e+00	 1.008237881538462e+01
0	 7.687500000000000e+00	 4.874999999999998e+00	 1.008203586461539e+01
0	 7.687499999999998e+00	 4.937499999999997e+00	 1.008173835692308e+01
0	 7.687499999999999e+00	 4.999999999999999e+00	 1.008148629230770e+01
0	 7.750000000000000e+00	 4.375000000000000e+00	 1.008131889230771e+01
0	 7.750000000000000e+00	 4.437500000000000e+00	 1.008074416923078e+01
0	 7.749999999999998e+00	 4.500000000000000e+00	 1.008021332923077e+01
0	 7.749999999999998e+00	 4.562499999999999e+00	 1.007972637230770e+01
0	 7.749999999999997e+00	 4.624999999999999e+00	 1.007928329846155e+01
0	 7.749999999999998e+00	 4.687500000000000e+00	 1.007888410769232e+01
0	 7.749999999999999e+00	 4.749999999999998e+00	 1.007852880000001e+01
0	 7.750000000000000e+00	 4.812499999999999e+00	 1.007821737538461e+01
0	 7.749999999999999e+00	 4.874999999999998e+00	 1.007794983384616e+01
0	 7.750000000000000e+00	 4.937499999999997e+00	 1.007772617538461e+01
0	 7.750000000000000e+00	 5.000000000000000e+00	 1.007754640000000e+01
0	 7.812499999999999e+00	 4.375000000000000e+00	 1.007666000000000e+01
0	 7.812499999999998e+00	 4.437499999999999e+00	 1.007617050769231e+01
0	 7.812499999999999e+00	 4.499999999999999e+00	 1.007572333846155e+01
0	 7.812499999999999e+00	 4.562499999999999e+00	 1.007531849230770e+01
0	 7.812499999999997e+00	 4.624999999999998e+00	 1.007495596923077e+01
0	 7.812499999999999e+00	 4.687499999999999e+00	 1.007463576923077e+01
0	 7.812500000000000e+00	 4.750000000000000e+00	 1.007435789230770e+01
0	 7.812499999999999e+00	 4.812499999999998e+00	 1.007412233846153e+01
0	 7.812499999999998e+00	 4.874999999999998e+00	 1.007392910769232e+01
0	 7.812500000000000e+00	 4.937499999999999e+00	 1.007377819999999e+01
0	 7.812499999999999e+00	 5.000000000000000e+00	 1.007366961538462e+01
0	 7.875000000000000e+00	 4.375000000000000e+00	 1.007207520000001e+01
0	 7.874999999999998e+00	 4.437499999999999e+00	 1.007166984000001e+01
0	 7.874999999999996e+00	 4.499999999999998e+00	 1.007130524307692e+01
0	 7.874999999999998e+00	 4.562499999999999e+00	 1.007098140923076e+01
0	 7.875000000000001e+00	 4.625000000000001e+00	 1.007069833846155e+01
0	 7.874999999999999e+00	 4.687499999999999e+00	 1.007045603076923e+01
0	 7.874999999999998e+00	 4.749999999999998e+00	 1.007025448615385e+01
0	 7.874999999999999e+00	 4.812499999999999e+00	 1.007009370461539e+01
0	 7.874999999999998e+00	 4.874999999999998e+00	 1.006997368615385e+01
0	 7.874999999999997e+00	 4.937499999999999e+00	 1.006989443076922e+01
0	 7.875000000000000e+00	 5.000000000000001e+00	 1.006985593846155e+01
0	 7.937499999999997e+00	 4.375000000000000e+00	 1.006756449230771e+01
0	 7.937499999999998e+00	 4.437499999999999e+00	 1.006724216615386e+01
0	 7.937499999999999e+00	 4.500000000000000e+00	 1.006695904307692e+01
0	 7.937499999999998e+00	 4.562499999999999e+00	 1.006671512307693e+01
0	 7.937499999999998e+00	 4.625000000000000e+00	 1.006651040615385e+01
0	 7.937500000000000e+00	 4.687500000000000e+00	 1.006634489230770e+01
0	 7.937500000000000e+00	 4.749999999999999e+00	 1.006621858153847e+01
0	 7.937500000000000e+00	 4.812499999999999e+00	 1.006613147384616e+01
0	 7.937499999999998e+00	 4.874999999999998e+00	 1.006608356923077e+01
0	 7.937499999999999e+00	 4.937499999999999e+00	 1.006607486769231e+01
0	 7.937499999999997e+00	 4.999999999999999e+00	 1.006610536923077e+01
0	 7.999999999999998e+00	 4.375000000000000e+00	 1.006312787692308e+01
0	 7.999999999999998e+00	 4.437500000000001e+00	 1.006288748615386e+01
0	 7.999999999999999e+00	 4.499999999999999e+00	 1.006268473846155e+01
0	 7.999999999999999e+00	 4.562500000000000e+00	 1.006251963384615e+01
0	 7.999999999999998e+00	 4.624999999999999e+00	 1.006239217230770e+01
0	 7.999999999999998e+00	 4.687499999999998e+00	 1.006230235384615e+01
0	 7.999999999999998e+00	 4.749999999999999e+00	 1.006225017846154e+01
0	 7.999999999999997e+00	 4.812499999999998e+00	 1.006223564615385e+01
0	 7.999999999999998e+00	 4.874999999999999e+00	 1.006225875692308e+01
0	 7.999999999999998e+00	 4.937499999999998e+00	 1.006231951076923e+01
0	 7.999999999999998e+00	 5.000000000000000e+00	 1.006241790769231e+01
0	 8.062499999999998e+00	 4.375000000000000e+00	 1.005876535384616e+01
0	 8.062499999999998e+00	 4.437500000000000e+00	 1.005860580000001e+01
0	 8.062499999999998e+00	 4.500000000000000e+00	 1.005848232923078e+01
0	 8.062500000000000e+00	 4.562500000000000e+00	 1.005839494153848e+01
0	 8.062499999999998e+00	 4.624999999999999e+00	 1.005834363692308e+01
0	 8.062499999999996e+00	 4.687499999999999e+00	 1.005832841538462e+01
0	 8.062499999999996e+00	 4.749999999999999e+00	 1.005834927692309e+01
0	 8.062499999999996e+00	 4.812499999999998e+00	 1.005840622153846e+01
0	 8.062499999999998e+00	 4.874999999999999e+00	 1.005849924923078e+01
0	 8.062499999999998e+00	 4.937499999999998e+00	 1.005862836000001e+01
0	 8.062499999999998e+00	 5.000000000000000e+00	 1.005879355384615e+01
0	 8.125000000000000e+00	 4.375000000000000e+00	 1.005447692307693e+01
0	 8.125000000000000e+00	 4.437499999999999e+00	 1.005439710769232e+01
0	 8.125000000000002e+00	 4.500000000000001e+00	 1.005435181538462e+01
0	 8.125000000000000e+00	 4.562499999999999e+00	 1.005434104615386e+01
0	 8.125000000000000e+00	 4.625000000000000e+00	 1.005436480000000e+01
0	 8.125000000000000e+00	 4.687499999999999e+00	 1.005442307692307e+01
0	 8.125000000000000e+00	 4.749999999999999e+00	 1.005451587692308e+01
0	 8.125000000000000e+00	 4.812499999999998e+00	 1.005464320000000e+01
0	 8.125000000000000e+00	 4.874999999999998e+00	 1.005480504615385e+01
0	 8.125000000000000e+00	 4.937499999999998e+00	 1.005500141538461e+01
0	 8.125000000000000e+00	 5.000000000000000e+00	 1.005523230769231e+01
0	 7.500000000000000e+00	 5.000000000000000e+00	 1.009368461538461e+01
0	 7.500000000000001e+00	 5.062500000000000e+00	 1.009237524615385e+01
0	 7.500000000000000e+00	 5.125000000000001e+00	 1.009110344615384e+01
0	 7.500000000000000e+00	 5.187499999999999e+00	 1.008986921538459e+01
0	 7.500000000000000e+00	 5.249999999999999e+00	 1.008867255384614e+01
0	 7.500000000000000e+00	 5.312499999999999e+00	 1.008751346153846e+01
0	 7.500000000000000e+00	 5.374999999999998e+00	 1.008639193846153e+01
0	 7.499999999999999e+00	 5.437499999999998e+00	 1.008530798461538e+01
0	 7.500000000000000e+00	 5.499999999999998e+00	 1.008426159999998e+01
0	 7.500000000000000e+00	 5.562499999999998e+00	 1.008325278461537e+01
0	 7.500000000000000e+00	 5.625000000000000e+00	 1.008228153846153e+01
0	 7.562499999999999e+00	 4.999999999999999e+00	 1.008955539999999e+01
0	 7.562500000000000e+00	 5.062500000000000e+00	 1.008833820769232e+01
0	 7.562500000000000e+00	 5.125000000000000e+00	 1.008715753230769e+01
0	 7.562500000000000e+00	 5.187499999999999e+00	 1.008601337384615e+01
0	 7.562500000000001e+00	 5.249999999999998e+00	 1.008490573230769e+01
0	 7.562500000000000e+00	 5.312500000000000e+00	 1.008383460769231e+01
0	 7.562500000000000e+00	 5.374999999999999e+00	 1.008279999999999e+01
0	 7.562500000000001e+00	 5.437499999999999e+00	 1.008180190923076e+01
0	 7.562500000000001e+00	 5.499999999999999e+00	 1.008084033538461e+01
0	 7.562499999999998e+00	 5.562499999999996e+00	 1.007991527846154e+01
0	 7.562499999999999e+00	 5.625000000000000e+00	 1.007902673846152e+01
0	 7.625000000000000e+00	 5.000000000000000e+00	 1.008548929230770e+01
0	 7.624999999999999e+00	 5.062499999999999e+00	 1.008436236000001e+01
0	 7.625000000000001e+00	 5.125000000000001e+00	 1.008327089230768e+01
0	 7.625000000000000e+00	 5.187499999999998e+00	 1.008221488923078e+01
0	 7.624999999999999e+00	 5.249999999999999e+00	 1.008119435076923e+01
0	 7.624999999999999e+00	 5.312499999999999e+00	 1.008020927692307e+01
0	 7.624999999999997e+00	 5.374999999999999e+00	 1.007925966769231e+01
0	 7.625000000000000e+00	 5.437499999999999e+00	 1.007834552307691e+01
0	 7.625000000000000e+00	 5.499999999999998e+00	 1.007746684307692e+01
0	 7.625000000000000e+00	 5.562499999999999e+00	 1.007662362769229e+01
0	 7.625000000000000e+00	 5.625000000000000e+00	 1.007581587692307e+01
0	 7.687499999999999e+00	 4.999999999999999e+00	 1.008148629230770e+01
0	 7.687499999999999e+00	 5.062500000000001e+00	 1.008044770307691e+01
0	 7.687500000000000e+00	 5.125000000000000e+00	 1.007944352615385e+01
0	 7.687500000000000e+00	 5.187499999999999e+00	 1.007847376153846e+01
0	 7.687499999999999e+00	 5.250000000000000e+00	 1.007753840923076e+01
0	 7.687500000000000e+00	 5.312499999999999e+00	 1.007663746923076e+01
0	 7.687500000000000e+00	 5.374999999999998e+00	 1.007577094153845e+01
0	 7.687499999999998e+00	 5.437499999999999e+00	 1.007493882615384e+01
0	 7.687500000000000e+00	 5.499999999999998e+00	 1.007414112307691e+01
0	 7.687499999999998e+00	 5.562499999999997e+00	 1.007337783230768e+01
0	 7.687499999999999e+00	 5.625000000000000e+00	 1.007264895384614e+01
0	 7.750000000000000e+00	 5.000000000000000e+00	 1.007754640000000e+01
0	 7.750000000000000e+00	 5.062500000000000e+00	 1.007659423692307e+01
0	 7.749999999999998e+00	 5.125000000000000e+00	 1.007567543384613e+01
0	 7.749999999999998e+00	 5.187500000000000e+00	 1.007478999076923e+01
0	 7.749999999999997e+00	 5.249999999999999e+00	 1.007393790769229e+01
0	 7.749999999999998e+00	 5.312499999999999e+00	 1.007311918461539e+01
0	 7.749999999999999e+00	 5.374999999999998e+00	 1.007233382153845e+01
0	 7.750000000000000e+00	 5.437499999999999e+00	 1.007158181846154e+01
0	 7.749999999999999e+00	 5.499999999999999e+00	 1.007086317538461e+01
0	 7.750000000000000e+00	 5.562499999999998e+00	 1.007017789230770e+01
0	 7.750000000000000e+00	 5.625000000000000e+00	 1.006952596923074e+01
0	 7.812499999999999e+00	 5.000000000000000e+00	 1.007366961538462e+01
0	 7.812499999999998e+00	 5.062500000000000e+00	 1.007280196153847e+01
0	 7.812499999999999e+00	 5.124999999999999e+00	 1.007196661538461e+01
0	 7.812499999999999e+00	 5.187500000000000e+00	 1.007116357692307e+01
0	 7.812499999999997e+00	 5.249999999999998e+00	 1.007039284615384e+01
0	 7.812499999999999e+00	 5.312499999999999e+00	 1.006965442307692e+01
0	 7.812500000000000e+00	 5.375000000000000e+00	 1.006894830769231e+01
0	 7.812499999999999e+00	 5.437499999999998e+00	 1.006827450000000e+01
0	 7.812499999999998e+00	 5.499999999999998e+00	 1.006763299999999e+01
0	 7.812500000000000e+00	 5.562499999999999e+00	 1.006702380769230e+01
0	 7.812499999999999e+00	 5.625000000000000e+00	 1.006644692307692e+01
0	 7.875000000000000e+00	 5.000000000000001e+00	 1.006985593846155e+01
0	 7.874999999999998e+00	 5.062499999999999e+00	 1.006907087692307e+01
0	 7.874999999999996e+00	 5.125000000000000e+00	 1.006831707076922e+01
0	 7.874999999999998e+00	 5.187500000000000e+00	 1.006759451999999e+01
0	 7.875000000000001e+00	 5.250000000000001e+00	 1.006690322461538e+01
0	 7.874999999999999e+00	 5.312500000000001e+00	 1.006624318461539e+01
0	 7.874999999999998e+00	 5.374999999999999e+00	 1.006561440000000e+01
0	 7.874999999999999e+00	 5.437499999999999e+00	 1.006501687076923e+01
0	 7.874999999999998e+00	 5.499999999999998e+00	 1.006445059692307e+01
0	 7.874999999999997e+00	 5.562499999999998e+00	 1.006391557846154e+01
0	 7.875000000000000e+00	 5.625000000000000e+00	 1.006341181538462e+01
0	 7.937499999999997e+00	 4.999999999999999e+00	 1.006610536923077e+01
0	 7.937499999999998e+00	 5.062500000000000e+00	 1.006540098307692e+01
0	 7.937499999999999e+00	 5.125000000000000e+00	 1.006472679999999e+01
0	 7.937499999999998e+00	 5.187500000000000e+00	 1.006408281999999e+01
0	 7.937499999999998e+00	 5.250000000000000e+00	 1.006346904307692e+01
0	 7.937500000000000e+00	 5.312500000000000e+00	 1.006288546923078e+01
0	 7.937500000000000e+00	 5.374999999999999e+00	 1.006233209846155e+01
0	 7.937500000000000e+00	 5.437499999999998e+00	 1.006180893076922e+01
0	 7.937499999999998e+00	 5.499999999999998e+00	 1.006131596615383e+01
0	 7.937499999999999e+00	 5.562499999999999e+00	 1.006085320461536e+01
0	 7.937499999999997e+00	 5.625000000000000e+00	 1.006042064615385e+01
0	 7.999999999999998e+00	 5.000000000000000e+00	 1.006241790769231e+01
0	 7.999999999999998e+00	 5.062500000000002e+00	 1.006179228000001e+01
0	 7.999999999999999e+00	 5.124999999999999e+00	 1.006119580307692e+01
0	 7.999999999999999e+00	 5.187500000000000e+00	 1.006062847692309e+01
0	 7.999999999999998e+00	 5.249999999999998e+00	 1.006009030153846e+01
0	 7.999999999999998e+00	 5.312499999999999e+00	 1.005958127692307e+01
0	 7.999999999999998e+00	 5.374999999999998e+00	 1.005910140307692e+01
0	 7.999999999999997e+00	 5.437499999999998e+00	 1.005865067999999e+01
0	 7.999999999999998e+00	 5.499999999999999e+00	 1.005822910769231e+01
0	 7.999999999999998e+00	 5.562499999999998e+00	 1.005783668615384e+01
0	 7.999999999999998e+00	 5.625000000000000e+00	 1.005747341538461e+01
0	 8.062499999999998e+00	 5.000000000000000e+00	 1.005879355384615e+01
0	 8.062499999999998e+00	 5.062500000000000e+00	 1.005824476769231e+01
0	 8.062499999999998e+00	 5.125000000000001e+00	 1.005772408000001e+01
0	 8.062500000000000e+00	 5.187499999999999e+00	 1.005723149076923e+01
0	 8.062499999999998e+00	 5.249999999999999e+00	 1.005676699999999e+01
0	 8.062499999999996e+00	 5.312499999999998e+00	 1.005633060769230e+01
0	 8.062499999999996e+00	 5.374999999999997e+00	 1.005592231384615e+01
0	 8.062499999999996e+00	 5.437499999999998e+00	 1.005554211846153e+01
0	 8.062499999999998e+00	 5.499999999999999e+00	 1.005519002153846e+01
0	 8.062499999999998e+00	 5.562499999999998e+00	 1.005486602307691e+01
0	 8.062499999999998e+00	 5.625000000000000e+00	 1.005457012307690e+01
0	 8.125000000000000e+00	 5.000000000000000e+00	 1.005523230769231e+01
0	 8.125000000000000e+00	 5.062500000000000e+00	 1.005475844615386e+01
0	 8.125000000000002e+00	 5.125000000000001e+00	 1.005431163076923e+01
0	 8.125000000000000e+00	 5.187499999999999e+00	 1.005389186153845e+01
0	 8.125000000000000e+00	 5.249999999999999e+00	 1.005349913846154e+01
0	 8.125000000000000e+00	 5.312499999999999e+00	 1.005313346153846e+01
0	 8.125000000000000e+00	 5.374999999999998e+00	 1.005279483076922e+01
0	 8.125000000000000e+00	 5.437499999999998e+00	 1.005248324615384e+01
0	 8.125000000000000e+00	 5.499999999999998e+00	 1.005219870769231e+01
0	 8.125000000000000e+00	 5.562499999999998e+00	 1.005194121538460e+01
0	 8.125000000000000e+00	 5.625000000000000e+00	 1.005171076923076e+01
0	 7.500000000000000e+00	 5.625000000000000e+00	 1.008228153846153e+01
0	 7.500000000000001e+00	 5.687500000000000e+00	 1.008076839999999e+01
0	 7.500000000000000e+00	 5.750000000000000e+00	 1.007927759999998e+01
0	 7.500000000000000e+00	 5.812499999999999e+00	 1.007780913846154e+01
0	 7.500000000000000e+00	 5.874999999999999e+00	 1.007636301538461e+01
0	 7.500000000000000e+00	 5.937499999999999e+00	 1.007493923076923e+01
0	 7.500000000000000e+00	 5.999999999999998e+00	 1.007353778461540e+01
0	 7.499999999999999e+00	 6.062499999999998e+00	 1.007215867692308e+01
0	 7.500000000000000e+00	 6.124999999999998e+00	 1.007080190769232e+01
0	 7.500000000000000e+00	 6.187499999999998e+00	 1.006946747692309e+01
0	 7.500000000000000e+00	 6.250000000000000e+00	 1.006815538461539e+01
0	 7.562499999999999e+00	 5.625000000000000e+00	 1.007902673846152e+01
0	 7.562500000000000e+00	 5.687499999999999e+00	 1.007759552000000e+01
0	 7.562500000000000e+00	 5.749999999999999e+00	 1.007618620615385e+01
0	 7.562500000000000e+00	 5.812499999999998e+00	 1.007479879692308e+01
0	 7.562500000000001e+00	 5.875000000000000e+00	 1.007343329230770e+01
0	 7.562500000000000e+00	 5.937500000000001e+00	 1.007208969230770e+01
0	 7.562500000000000e+00	 5.999999999999999e+00	 1.007076799692308e+01
0	 7.562500000000001e+00	 6.062500000000000e+00	 1.006946820615384e+01
0	 7.562500000000001e+00	 6.125000000000000e+00	 1.006819032000000e+01
0	 7.562499999999998e+00	 6.187499999999996e+00	 1.006693433846155e+01
0	 7.562499999999999e+00	 6.250000000000000e+00	 1.006570026153847e+01
0	 7.625000000000000e+00	 5.625000000000000e+00	 1.007581587692307e+01
0	 7.624999999999999e+00	 5.687499999999999e+00	 1.007446500615384e+01
0	 7.625000000000001e+00	 5.750000000000002e+00	 1.007313560615384e+01
0	 7.625000000000000e+00	 5.812499999999999e+00	 1.007182767692308e+01
0	 7.624999999999999e+00	 5.874999999999998e+00	 1.007054121846154e+01
0	 7.624999999999999e+00	 5.937499999999999e+00	 1.006927623076923e+01
0	 7.624999999999997e+00	 5.999999999999998e+00	 1.006803271384615e+01
0	 7.625000000000000e+00	 6.062499999999999e+00	 1.006681066769230e+01
0	 7.625000000000000e+00	 6.124999999999998e+00	 1.006561009230769e+01
0	 7.625000000000000e+00	 6.187499999999998e+00	 1.006443098769231e+01
0	 7.625000000000000e+00	 6.250000000000000e+00	 1.006327335384615e+01
0	 7.687499999999999e+00	 5.625000000000000e+00	 1.007264895384614e+01
0	 7.687499999999999e+00	 5.687500000000000e+00	 1.007137685846153e+01
0	 7.687500000000000e+00	 5.749999999999999e+00	 1.007012580000000e+01
0	 7.687500000000000e+00	 5.812499999999999e+00	 1.006889577846154e+01
0	 7.687499999999999e+00	 5.875000000000000e+00	 1.006768679384615e+01
0	 7.687500000000000e+00	 5.937500000000000e+00	 1.006649884615384e+01
0	 7.687500000000000e+00	 5.999999999999998e+00	 1.006533193538462e+01
0	 7.687499999999998e+00	 6.062499999999998e+00	 1.006418606153848e+01
0	 7.687500000000000e+00	 6.124999999999997e+00	 1.006306122461538e+01
0	 7.687499999999998e+00	 6.187499999999997e+00	 1.006195742461540e+01
0	 7.687499999999999e+00	 6.250000000000000e+00	 1.006087466153845e+01
0	 7.750000000000000e+00	 5.625000000000000e+00	 1.006952596923074e+01
0	 7.750000000000000e+00	 5.687500000000000e+00	 1.006833107692307e+01
0	 7.749999999999998e+00	 5.750000000000000e+00	 1.006715678769230e+01
0	 7.749999999999998e+00	 5.812500000000000e+00	 1.006600310153846e+01
0	 7.749999999999997e+00	 5.874999999999999e+00	 1.006487001846154e+01
0	 7.749999999999998e+00	 5.937499999999999e+00	 1.006375753846155e+01
0	 7.749999999999999e+00	 5.999999999999997e+00	 1.006266566153846e+01
0	 7.750000000000000e+00	 6.062499999999998e+00	 1.006159438769230e+01
0	 7.749999999999999e+00	 6.124999999999999e+00	 1.006054371692309e+01
0	 7.750000000000000e+00	 6.187499999999998e+00	 1.005951364923080e+01
0	 7.750000000000000e+00	 6.250000000000000e+00	 1.005850418461541e+01
0	 7.812499999999999e+00	 5.625000000000000e+00	 1.006644692307692e+01
0	 7.812499999999998e+00	 5.687500000000000e+00	 1.006532766153846e+01
0	 7.812499999999999e+00	 5.750000000000000e+00	 1.006422856923076e+01
0	 7.812499999999999e+00	 5.812500000000000e+00	 1.006314964615385e+01
0	 7.812499999999997e+00	 5.874999999999998e+00	 1.006209089230770e+01
0	 7.812499999999999e+00	 5.937499999999998e+00	 1.006105230769231e+01
0	 7.812500000000000e+00	 6.000000000000000e+00	 1.006003389230770e+01
0	 7.812499999999999e+00	 6.062499999999998e+00	 1.005903564615386e+01
0	 7.812499999999998e+00	 6.124999999999998e+00	 1.005805756923078e+01
0	 7.812500000000000e+00	 6.187499999999999e+00	 1.005709966153849e+01
0	 7.812499999999999e+00	 6.250000000000000e+00	 1.005616192307693e+01
0	 7.875000000000000e+00	 5.625000000000000e+00	 1.006341181538462e+01
0	 7.874999999999998e+00	 5.687499999999999e+00	 1.006236661230768e+01
0	 7.874999999999996e+00	 5.750000000000000e+00	 1.006134114461537e+01
0	 7.874999999999998e+00	 5.812499999999999e+00	 1.006033541230768e+01
0	 7.875000000000001e+00	 5.875000000000001e+00	 1.005934941538461e+01
0	 7.874999999999999e+00	 5.937499999999999e+00	 1.005838315384614e+01
0	 7.874999999999998e+00	 5.999999999999998e+00	 1.005743662769230e+01
0	 7.874999999999999e+00	 6.062499999999999e+00	 1.005650983692308e+01
0	 7.874999999999998e+00	 6.124999999999998e+00	 1.005560278153845e+01
0	 7.874999999999997e+00	 6.187499999999998e+00	 1.005471546153845e+01
0	 7.875000000000000e+00	 6.250000000000000e+00	 1.005384787692307e+01
0	 7.937499999999997e+00	 5.625000000000000e+00	 1.006042064615385e+01
0	 7.937499999999998e+00	 5.687500000000000e+00	 1.005944792923075e+01
0	 7.937499999999999e+00	 5.750000000000000e+00	 1.005849451384614e+01
0	 7.937499999999998e+00	 5.812499999999999e+00	 1.005756039999999e+01
0	 7.937499999999998e+00	 5.874999999999999e+00	 1.005664558769231e+01
0	 7.937500000000000e+00	 5.937500000000001e+00	 1.005575007692309e+01
0	 7.937500000000000e+00	 5.999999999999999e+00	 1.005487386769232e+01
0	 7.937500000000000e+00	 6.062499999999999e+00	 1.005401696000001e+01
0	 7.937499999999998e+00	 6.124999999999999e+00	 1.005317935384617e+01
0	 7.937499999999999e+00	 6.187499999999999e+00	 1.005236104923076e+01
0	 7.937499999999997e+00	 6.250000000000000e+00	 1.005156204615385e+01
0	 7.999999999999998e+00	 5.625000000000000e+00	 1.005747341538461e+01
0	 7.999999999999998e+00	 5.687500000000000e+00	 1.005657161230770e+01
0	 7.999999999999999e+00	 5.750000000000000e+00	 1.005568867692307e+01
0	 7.999999999999999e+00	 5.812499999999999e+00	 1.005482460923077e+01
0	 7.999999999999998e+00	 5.875000000000000e+00	 1.005397940923079e+01
0	 7.999999999999998e+00	 5.937500000000000e+00	 1.005315307692306e+01
0	 7.999999999999998e+00	 5.999999999999998e+00	 1.005234561230770e+01
0	 7.999999999999997e+00	 6.062499999999998e+00	 1.005155701538462e+01
0	 7.999999999999998e+00	 6.124999999999999e+00	 1.005078728615385e+01
0	 7.999999999999998e+00	 6.187499999999998e+00	 1.005003642461538e+01
0	 7.999999999999998e+00	 6.250000000000000e+00	 1.004930443076925e+01
0	 8.062499999999998e+00	 5.625000000000000e+00	 1.005457012307690e+01
0	 8.062499999999998e+00	 5.687500000000000e+00	 1.005373766153846e+01
0	 8.062499999999998e+00	 5.750000000000000e+00	 1.005292363384615e+01
0	 8.062500000000000e+00	 5.812499999999999e+00	 1.005212804000000e+01
0	 8.062499999999998e+00	 5.875000000000000e+00	 1.005135088000000e+01
0	 8.062499999999996e+00	 5.937499999999999e+00	 1.005059215384615e+01
0	 8.062499999999996e+00	 5.999999999999998e+00	 1.004985186153846e+01
0	 8.062499999999996e+00	 6.062499999999998e+00	 1.004913000307693e+01
0	 8.062499999999998e+00	 6.124999999999998e+00	 1.004842657846154e+01
0	 8.062499999999998e+00	 6.187499999999997e+00	 1.004774158769233e+01
0	 8.062499999999998e+00	 6.250000000000000e+00	 1.004707503076923e+01
0	 8.125000000000000e+00	 5.625000000000000e+00	 1.005171076923076e+01
0	 8.125000000000000e+00	 5.687500000000000e+00	 1.005094607692307e+01
0	 8.125000000000002e+00	 5.750000000000000e+00	 1.005019938461537e+01
0	 8.125000000000000e+00	 5.812499999999999e+00	 1.004947069230770e+01
0	 8.125000000000000e+00	 5.874999999999999e+00	 1.004876000000000e+01
0	 8.125000000000000e+00	 5.937499999999999e+00	 1.004806730769230e+01
0	 8.125000000000000e+00	 5.999999999999998e+00	 1.004739261538463e+01
0	 8.125000000000000e+00	 6.062499999999998e+00	 1.004673592307692e+01
0	 8.125000000000000e+00	 6.124999999999998e+00	 1.004609723076924e+01
0	 8.125000000000000e+00	 6.187499999999998e+00	 1.004547653846154e+01
0	 8.125000000000000e+00	 6.250000000000000e+00	 1.004487384615385e+01
0	 7.500000000000000e+00	 6.250000000000000e+00	 1.006815538461539e+01
0	 7.500000000000001e+00	 6.312500000000000e+00	 1.006657332307693e+01
0	 7.500000000000000e+00	 6.375000000000000e+00	 1.006499975384617e+01
0	 7.500000000000000e+00	 6.437499999999999e+00	 1.006343467692307e+01
0	 7.500000000000000e+00	 6.499999999999999e+00	 1.006187809230769e+01
0	 7.500000000000000e+00	 6.562499999999998e+00	 1.006033000000000e+01
0	 7.500000000000000e+00	 6.624999999999998e+00	 1.005879039999999e+01
0	 7.499999999999999e+00	 6.687499999999998e+00	 1.005725929230769e+01
0	 7.500000000000000e+00	 6.749999999999998e+00	 1.005573667692308e+01
0	 7.500000000000000e+00	 6.812499999999998e+00	 1.005422255384616e+01
0	 7.500000000000000e+00	 6.875000000000000e+00	 1.005271692307693e+01
0	 7.562499999999999e+00	 6.250000000000000e+00	 1.006570026153847e+01
0	 7.562500000000000e+00	 6.312500000000000e+00	 1.006418979384616e+01
0	 7.562500000000000e+00	 6.374999999999999e+00	 1.006268777230769e+01
0	 7.562500000000000e+00	 6.437500000000000e+00	 1.006119419692309e+01
0	 7.562500000000001e+00	 6.499999999999997e+00	 1.005970906769231e+01
0	 7.562500000000000e+00	 6.562500000000000e+00	 1.005823238461539e+01
0	 7.562500000000000e+00	 6.624999999999999e+00	 1.005676414769231e+01
0	 7.562500000000001e+00	 6.687499999999999e+00	 1.005530435692308e+01
0	 7.562500000000001e+00	 6.749999999999999e+00	 1.005385301230769e+01
0	 7.562499999999998e+00	 6.812499999999996e+00	 1.005241011384615e+01
0	 7.562499999999999e+00	 6.875000000000001e+00	 1.005097566153848e+01
0	 7.625000000000000e+00	 6.250000000000000e+00	 1.006327335384615e+01
0	 7.624999999999999e+00	 6.312499999999999e+00	 1.006183303692309e+01
0	 7.625000000000001e+00	 6.375000000000000e+00	 1.006040112000001e+01
0	 7.625000000000000e+00	 6.437499999999998e+00	 1.005897760307693e+01
0	 7.624999999999999e+00	 6.499999999999996e+00	 1.005756248615386e+01
0	 7.624999999999999e+00	 6.562499999999998e+00	 1.005615576923078e+01
0	 7.624999999999997e+00	 6.624999999999996e+00	 1.005475745230770e+01
0	 7.625000000000000e+00	 6.687499999999999e+00	 1.005336753538462e+01
0	 7.625000000000000e+00	 6.749999999999997e+00	 1.005198601846155e+01
0	 7.625000000000000e+00	 6.812500000000000e+00	 1.005061290153847e+01
0	 7.625000000000000e+00	 6.875000000000000e+00	 1.004924818461539e+01
0	 7.687499999999999e+00	 6.250000000000000e+00	 1.006087466153845e+01
0	 7.687499999999999e+00	 6.312499999999999e+00	 1.005950305230769e+01
0	 7.687500000000000e+00	 6.375000000000000e+00	 1.005813979692308e+01
0	 7.687500000000000e+00	 6.437500000000000e+00	 1.005678489538461e+01
0	 7.687499999999999e+00	 6.499999999999998e+00	 1.005543834769232e+01
0	 7.687500000000000e+00	 6.562499999999999e+00	 1.005410015384616e+01
0	 7.687500000000000e+00	 6.624999999999999e+00	 1.005277031384615e+01
0	 7.687499999999998e+00	 6.687499999999998e+00	 1.005144882769230e+01
0	 7.687500000000000e+00	 6.749999999999998e+00	 1.005013569538463e+01
0	 7.687499999999998e+00	 6.812499999999997e+00	 1.004883091692308e+01
0	 7.687499999999999e+00	 6.874999999999999e+00	 1.004753449230771e+01
0	 7.750000000000000e+00	 6.250000000000000e+00	 1.005850418461541e+01
0	 7.750000000000000e+00	 6.312499999999999e+00	 1.005719984000001e+01
0	 7.749999999999998e+00	 6.375000000000000e+00	 1.005590380307693e+01
0	 7.749999999999998e+00	 6.437499999999999e+00	 1.005461607384617e+01
0	 7.749999999999997e+00	 6.499999999999997e+00	 1.005333665230771e+01
0	 7.749999999999998e+00	 6.562499999999999e+00	 1.005206553846154e+01
0	 7.749999999999999e+00	 6.624999999999998e+00	 1.005080273230769e+01
0	 7.750000000000000e+00	 6.687499999999998e+00	 1.004954823384616e+01
0	 7.749999999999999e+00	 6.749999999999998e+00	 1.004830204307694e+01
0	 7.750000000000000e+00	 6.812499999999998e+00	 1.004706416000001e+01
0	 7.750000000000000e+00	 6.875000000000001e+00	 1.004583458461535e+01
0	 7.812499999999999e+00	 6.250000000000000e+00	 1.005616192307693e+01
0	 7.812499999999998e+00	 6.312500000000000e+00	 1.005492340000001e+01
0	 7.812499999999999e+00	 6.375000000000000e+00	 1.005369313846154e+01
0	 7.812499999999999e+00	 6.437499999999999e+00	 1.005247113846155e+01
0	 7.812499999999997e+00	 6.499999999999997e+00	 1.005125739999999e+01
0	 7.812499999999999e+00	 6.562499999999999e+00	 1.005005192307694e+01
0	 7.812500000000000e+00	 6.625000000000000e+00	 1.004885470769231e+01
0	 7.812499999999999e+00	 6.687499999999999e+00	 1.004766575384615e+01
0	 7.812499999999998e+00	 6.749999999999999e+00	 1.004648506153846e+01
0	 7.812500000000000e+00	 6.812499999999998e+00	 1.004531263076923e+01
0	 7.812499999999999e+00	 6.875000000000000e+00	 1.004414846153846e+01
0	 7.875000000000000e+00	 6.250000000000000e+00	 1.005384787692307e+01
0	 7.874999999999998e+00	 6.312499999999999e+00	 1.005267373230770e+01
0	 7.874999999999996e+00	 6.374999999999997e+00	 1.005150780307691e+01
0	 7.874999999999998e+00	 6.437499999999999e+00	 1.005035008923077e+01
0	 7.875000000000001e+00	 6.500000000000000e+00	 1.004920059076924e+01
0	 7.874999999999999e+00	 6.562500000000001e+00	 1.004805930769231e+01
0	 7.874999999999998e+00	 6.624999999999998e+00	 1.004692624000000e+01
0	 7.874999999999999e+00	 6.687499999999999e+00	 1.004580138769232e+01
0	 7.874999999999998e+00	 6.749999999999999e+00	 1.004468475076922e+01
0	 7.874999999999997e+00	 6.812499999999998e+00	 1.004357632923077e+01
0	 7.875000000000000e+00	 6.875000000000000e+00	 1.004247612307693e+01
0	 7.937499999999997e+00	 6.250000000000000e+00	 1.005156204615385e+01
0	 7.937499999999998e+00	 6.312499999999999e+00	 1.005045083692308e+01
0	 7.937499999999999e+00	 6.375000000000001e+00	 1.004934779692308e+01
0	 7.937499999999998e+00	 6.437499999999999e+00	 1.004825292615385e+01
0	 7.937499999999998e+00	 6.500000000000000e+00	 1.004716622461539e+01
0	 7.937500000000000e+00	 6.562499999999999e+00	 1.004608769230770e+01
0	 7.937500000000000e+00	 6.624999999999999e+00	 1.004501732923078e+01
0	 7.937500000000000e+00	 6.687499999999999e+00	 1.004395513538463e+01
0	 7.937499999999998e+00	 6.749999999999998e+00	 1.004290111076924e+01
0	 7.937499999999999e+00	 6.812499999999999e+00	 1.004185525538462e+01
0	 7.937499999999997e+00	 6.875000000000000e+00	 1.004081756923078e+01
0	 7.999999999999998e+00	 6.250000000000000e+00	 1.004930443076925e+01
0	 7.999999999999998e+00	 6.312500000000001e+00	 1.004825471384616e+01
0	 7.999999999999999e+00	 6.374999999999999e+00	 1.004721312000000e+01
0	 7.999999999999999e+00	 6.437500000000000e+00	 1.004617964923077e+01
0	 7.999999999999998e+00	 6.499999999999999e+00	 1.004515430153847e+01
0	 7.999999999999998e+00	 6.562499999999999e+00	 1.004413707692308e+01
0	 7.999999999999998e+00	 6.624999999999998e+00	 1.004312797538461e+01
0	 7.999999999999997e+00	 6.687499999999998e+00	 1.004212699692308e+01
0	 7.999999999999998e+00	 6.749999999999998e+00	 1.004113414153844e+01
0	 7.999999999999998e+00	 6.812499999999998e+00	 1.004014940923077e+01
0	 7.999999999999998e+00	 6.875000000000000e+00	 1.003917280000001e+01
0	 8.062499999999998e+00	 6.250000000000000e+00	 1.004707503076923e+01
0	 8.062499999999998e+00	 6.312500000000000e+00	 1.004608536307694e+01
0	 8.062499999999998e+00	 6.375000000000000e+00	 1.004510377230769e+01
0	 8.062500000000000e+00	 6.437499999999999e+00	 1.004413025846153e+01
0	 8.062499999999998e+00	 6.499999999999998e+00	 1.004316482153846e+01
0	 8.062499999999996e+00	 6.562499999999998e+00	 1.004220746153844e+01
0	 8.062499999999996e+00	 6.624999999999998e+00	 1.004125817846153e+01
0	 8.062499999999996e+00	 6.687499999999998e+00	 1.004031697230769e+01
0	 8.062499999999998e+00	 6.749999999999999e+00	 1.003938384307690e+01
0	 8.062499999999998e+00	 6.812499999999997e+00	 1.003845879076923e+01
0	 8.062499999999998e+00	 6.875000000000000e+00	 1.003754181538461e+01
0	 8.125000000000000e+00	 6.250000000000000e+00	 1.004487384615385e+01
0	 8.125000000000000e+00	 6.312500000000000e+00	 1.004394278461539e+01
0	 8.125000000000002e+00	 6.375000000000000e+00	 1.004301975384615e+01
0	 8.125000000000000e+00	 6.437499999999999e+00	 1.004210475384615e+01
0	 8.125000000000000e+00	 6.499999999999999e+00	 1.004119778461539e+01
0	 8.125000000000000e+00	 6.562499999999998e+00	 1.004029884615384e+01
0	 8.125000000000000e+00	 6.624999999999998e+00	 1.003940793846153e+01
0	 8.125000000000000e+00	 6.687499999999998e+00	 1.003852506153846e+01
0	 8.125000000000000e+00	 6.749999999999998e+00	 1.003765021538461e+01
0	 8.125000000000000e+00	 6.812499999999998e+00	 1.003678339999999e+01
0	 8.125000000000000e+00	 6.875000000000000e+00	 1.003592461538461e+01
0	 7.500000000000000e+00	 6.875000000000000e+00	 1.005271692307693e+01
0	 7.500000000000001e+00	 6.937500000000000e+00	 1.005119544615386e+01
0	 7.500000000000000e+00	 7.000000000000000e+00	 1.004966824615383e+01
0	 7.500000000000000e+00	 7.062500000000000e+00	 1.004813532307693e+01
0	 7.500000000000000e+00	 7.125000000000000e+00	 1.004659667692306e+01
0	 7.500000000000000e+00	 7.187499999999998e+00	 1.004505230769231e+01
0	 7.500000000000000e+00	 7.249999999999998e+00	 1.004350221538463e+01
0	 7.499999999999999e+00	 7.312499999999998e+00	 1.004194640000001e+01
0	 7.500000000000000e+00	 7.374999999999998e+00	 1.004038486153846e+01
0	 7.500000000000000e+00	 7.437499999999998e+00	 1.003881760000000e+01
0	 7.500000000000000e+00	 7.500000000000000e+00	 1.003724461538462e+01
0	 7.562499999999999e+00	 6.875000000000001e+00	 1.005097566153848e+01
0	 7.562500000000000e+00	 6.937499999999999e+00	 1.004951276461538e+01
0	 7.562500000000000e+00	 6.999999999999999e+00	 1.004804456000001e+01
0	 7.562500000000000e+00	 7.062500000000000e+00	 1.004657104769231e+01
0	 7.562500000000001e+00	 7.124999999999998e+00	 1.004509222769232e+01
0	 7.562500000000000e+00	 7.187499999999999e+00	 1.004360810000000e+01
0	 7.562500000000000e+00	 7.250000000000000e+00	 1.004211866461540e+01
0	 7.562500000000001e+00	 7.312499999999999e+00	 1.004062392153846e+01
0	 7.562500000000001e+00	 7.374999999999999e+00	 1.003912387076923e+01
0	 7.562499999999998e+00	 7.437499999999996e+00	 1.003761851230769e+01
0	 7.562499999999999e+00	 7.500000000000000e+00	 1.003610784615384e+01
0	 7.625000000000000e+00	 6.875000000000000e+00	 1.004924818461539e+01
0	 7.624999999999999e+00	 6.937499999999999e+00	 1.004784270461538e+01
0	 7.625000000000001e+00	 7.000000000000001e+00	 1.004643233230770e+01
0	 7.625000000000000e+00	 7.062499999999999e+00	 1.004501706769230e+01
0	 7.624999999999999e+00	 7.124999999999998e+00	 1.004359691076924e+01
0	 7.624999999999999e+00	 7.187499999999999e+00	 1.004217186153846e+01
0	 7.624999999999997e+00	 7.249999999999996e+00	 1.004074192000000e+01
0	 7.625000000000000e+00	 7.312499999999998e+00	 1.003930708615385e+01
0	 7.625000000000000e+00	 7.374999999999997e+00	 1.003786736000000e+01
0	 7.625000000000000e+00	 7.437500000000000e+00	 1.003642274153846e+01
0	 7.625000000000000e+00	 7.499999999999999e+00	 1.003497323076921e+01
0	 7.687499999999999e+00	 6.874999999999999e+00	 1.004753449230771e+01
0	 7.687499999999999e+00	 6.937499999999999e+00	 1.004618526615386e+01
0	 7.687500000000000e+00	 7.000000000000000e+00	 1.004483156307695e+01
0	 7.687500000000000e+00	 7.062500000000000e+00	 1.004347338307691e+01
0	 7.687499999999999e+00	 7.124999999999999e+00	 1.004211072615385e+01
0	 7.687500000000000e+00	 7.187499999999999e+00	 1.004074359230770e+01
0	 7.687500000000000e+00	 7.250000000000000e+00	 1.003937198153846e+01
0	 7.687499999999998e+00	 7.312499999999999e+00	 1.003799589384617e+01
0	 7.687500000000000e+00	 7.374999999999997e+00	 1.003661532923076e+01
0	 7.687499999999998e+00	 7.437499999999998e+00	 1.003523028769231e+01
0	 7.687499999999999e+00	 7.500000000000000e+00	 1.003384076923079e+01
0	 7.750000000000000e+00	 6.875000000000001e+00	 1.004583458461535e+01
0	 7.750000000000000e+00	 6.937499999999999e+00	 1.004454044923076e+01
0	 7.749999999999998e+00	 7.000000000000001e+00	 1.004324225230769e+01
0	 7.749999999999998e+00	 7.062500000000000e+00	 1.004193999384616e+01
0	 7.749999999999997e+00	 7.124999999999999e+00	 1.004063367384616e+01
0	 7.749999999999998e+00	 7.187499999999999e+00	 1.003932329230768e+01
0	 7.749999999999999e+00	 7.249999999999997e+00	 1.003800884923076e+01
0	 7.750000000000000e+00	 7.312499999999998e+00	 1.003669034461536e+01
0	 7.749999999999999e+00	 7.374999999999999e+00	 1.003536777846156e+01
0	 7.750000000000000e+00	 7.437499999999998e+00	 1.003404115076924e+01
0	 7.750000000000000e+00	 7.500000000000000e+00	 1.003271046153847e+01
0	 7.812499999999999e+00	 6.875000000000000e+00	 1.004414846153846e+01
0	 7.812499999999998e+00	 6.937500000000000e+00	 1.004290825384614e+01
0	 7.812499999999999e+00	 7.000000000000000e+00	 1.004166440000001e+01
0	 7.812499999999999e+00	 7.062500000000000e+00	 1.004041689999999e+01
0	 7.812499999999997e+00	 7.124999999999997e+00	 1.003916575384616e+01
0	 7.812499999999999e+00	 7.187499999999999e+00	 1.003791096153846e+01
0	 7.812500000000000e+00	 7.249999999999999e+00	 1.003665252307690e+01
0	 7.812499999999999e+00	 7.312499999999998e+00	 1.003539043846152e+01
0	 7.812499999999998e+00	 7.374999999999997e+00	 1.003412470769231e+01
0	 7.812500000000000e+00	 7.437499999999998e+00	 1.003285533076922e+01
0	 7.812499999999999e+00	 7.500000000000000e+00	 1.003158230769230e+01
0	 7.875000000000000e+00	 6.875000000000000e+00	 1.004247612307693e+01
0	 7.874999999999998e+00	 6.937500000000000e+00	 1.004128868000001e+01
0	 7.874999999999996e+00	 6.999999999999998e+00	 1.004009800615383e+01
0	 7.874999999999998e+00	 7.062500000000000e+00	 1.003890410153846e+01
0	 7.875000000000001e+00	 7.125000000000000e+00	 1.003770696615384e+01
0	 7.874999999999999e+00	 7.187500000000000e+00	 1.003650660000000e+01
0	 7.874999999999998e+00	 7.249999999999998e+00	 1.003530300307692e+01
0	 7.874999999999999e+00	 7.312499999999999e+00	 1.003409617538463e+01
0	 7.874999999999998e+00	 7.374999999999999e+00	 1.003288611692308e+01
0	 7.874999999999997e+00	 7.437499999999998e+00	 1.003167282769230e+01
0	 7.875000000000000e+00	 7.499999999999999e+00	 1.003045630769230e+01
0	 7.937499999999997e+00	 6.875000000000000e+00	 1.004081756923078e+01
0	 7.937499999999998e+00	 6.937499999999999e+00	 1.003968172769231e+01
0	 7.937499999999999e+00	 7.000000000000001e+00	 1.003854307076922e+01
0	 7.937499999999998e+00	 7.062499999999999e+00	 1.003740159846154e+01
0	 7.937499999999998e+00	 7.124999999999999e+00	 1.003625731076923e+01
0	 7.937500000000000e+00	 7.187500000000000e+00	 1.003511020769229e+01
0	 7.937500000000000e+00	 7.249999999999999e+00	 1.003396028923078e+01
0	 7.937500000000000e+00	 7.312500000000000e+00	 1.003280755538462e+01
0	 7.937499999999998e+00	 7.374999999999998e+00	 1.003165200615385e+01
0	 7.937499999999999e+00	 7.437499999999999e+00	 1.003049364153846e+01
0	 7.937499999999997e+00	 7.499999999999998e+00	 1.002933246153846e+01
0	 7.999999999999998e+00	 6.875000000000000e+00	 1.003917280000001e+01
0	 7.999999999999998e+00	 6.937500000000001e+00	 1.003808739692306e+01
0	 7.999999999999999e+00	 6.999999999999998e+00	 1.003699959384615e+01
0	 7.999999999999999e+00	 7.062500000000000e+00	 1.003590939076923e+01
0	 7.999999999999998e+00	 7.125000000000000e+00	 1.003481678769232e+01
0	 7.999999999999998e+00	 7.187500000000000e+00	 1.003372178461537e+01
0	 7.999999999999998e+00	 7.250000000000000e+00	 1.003262438153846e+01
0	 7.999999999999997e+00	 7.312499999999999e+00	 1.003152457846153e+01
0	 7.999999999999998e+00	 7.374999999999998e+00	 1.003042237538462e+01
0	 7.999999999999998e+00	 7.437499999999998e+00	 1.002931777230770e+01
0	 7.999999999999998e+00	 7.500000000000000e+00	 1.002821076923077e+01
0	 8.062499999999998e+00	 6.875000000000000e+00	 1.003754181538461e+01
0	 8.062499999999998e+00	 6.937500000000001e+00	 1.003650568769230e+01
0	 8.062499999999998e+00	 7.000000000000001e+00	 1.003546757538461e+01
0	 8.062500000000000e+00	 7.062500000000000e+00	 1.003442747846153e+01
0	 8.062499999999998e+00	 7.124999999999999e+00	 1.003338539692308e+01
0	 8.062499999999996e+00	 7.187499999999998e+00	 1.003234133076922e+01
0	 8.062499999999996e+00	 7.249999999999999e+00	 1.003129528000000e+01
0	 8.062499999999996e+00	 7.312499999999998e+00	 1.003024724461538e+01
0	 8.062499999999998e+00	 7.374999999999998e+00	 1.002919722461539e+01
0	 8.062499999999998e+00	 7.437499999999998e+00	 1.002814522000001e+01
0	 8.062499999999998e+00	 7.500000000000000e+00	 1.002709123076924e+01
0	 8.125000000000000e+00	 6.875000000000000e+00	 1.003592461538461e+01
0	 8.125000000000000e+00	 6.937500000000000e+00	 1.003493659999999e+01
0	 8.125000000000002e+00	 7.000000000000000e+00	 1.003394701538459e+01
0	 8.125000000000000e+00	 7.062500000000000e+00	 1.003295586153846e+01
0	 8.125000000000000e+00	 7.125000000000000e+00	 1.003196313846153e+01
0	 8.125000000000000e+00	 7.187499999999998e+00	 1.003096884615384e+01
0	 8.125000000000000e+00	 7.249999999999998e+00	 1.002997298461538e+01
0	 8.125000000000000e+00	 7.312499999999998e+00	 1.002897555384614e+01
0	 8.125000000000000e+00	 7.374999999999998e+00	 1.002797655384615e+01
0	 8.125000000000000e+00	 7.437499999999998e+00	 1.002697598461538e+01
0	 8.125000000000000e+00	 7.500000000000000e+00	 1.002597384615385e+01
0	 7.500000000000000e+00	 7.500000000000000e+00	 1.003724461538462e+01
0	 7.500000000000001e+00	 7.562500000000000e+00	 1.003589169230770e+01
0	 7.500000000000000e+00	 7.625000000000000e+00	 1.003451938461540e+01
0	 7.500000000000000e+00	 7.687499999999999e+00	 1.003312769230769e+01
0	 7.500000000000000e+00	 7.750000000000000e+00	 1.003171661538462e+01
0	 7.500000000000000e+00	 7.812499999999999e+00	 1.003028615384615e+01
0	 7.500000000000000e+00	 7.874999999999998e+00	 1.002883630769231e+01
0	 7.499999999999999e+00	 7.937499999999997e+00	 1.002736707692306e+01
0	 7.500000000000000e+00	 7.999999999999998e+00	 1.002587846153845e+01
0	 7.500000000000000e+00	 8.062499999999996e+00	 1.002437046153845e+01
0	 7.500000000000000e+00	 8.125000000000000e+00	 1.002284307692307e+01
0	 7.562499999999999e+00	 7.500000000000000e+00	 1.003610784615384e+01
0	 7.562500000000000e+00	 7.562499999999999e+00	 1.003480196153847e+01
0	 7.562500000000000e+00	 7.624999999999998e+00	 1.003347735692308e+01
0	 7.562500000000000e+00	 7.687499999999998e+00	 1.003213403230770e+01
0	 7.562500000000001e+00	 7.750000000000000e+00	 1.003077198769230e+01
0	 7.562500000000000e+00	 7.812500000000000e+00	 1.002939122307691e+01
0	 7.562500000000000e+00	 7.874999999999999e+00	 1.002799173846154e+01
0	 7.562500000000001e+00	 7.937499999999998e+00	 1.002657353384615e+01
0	 7.562500000000001e+00	 8.000000000000000e+00	 1.002513660923076e+01
0	 7.562499999999998e+00	 8.062499999999995e+00	 1.002368096461538e+01
0	 7.562499999999999e+00	 8.125000000000000e+00	 1.002220659999999e+01
0	 7.625000000000000e+00	 7.499999999999999e+00	 1.003497323076921e+01
0	 7.624999999999999e+00	 7.562500000000001e+00	 1.003371345846156e+01
0	 7.625000000000001e+00	 7.625000000000001e+00	 1.003243563076922e+01
0	 7.625000000000000e+00	 7.687500000000001e+00	 1.003113974769230e+01
0	 7.624999999999999e+00	 7.749999999999998e+00	 1.002982580923076e+01
0	 7.624999999999999e+00	 7.812499999999998e+00	 1.002849381538461e+01
0	 7.624999999999997e+00	 7.874999999999996e+00	 1.002714376615384e+01
0	 7.625000000000000e+00	 7.937499999999998e+00	 1.002577566153845e+01
0	 7.625000000000000e+00	 7.999999999999999e+00	 1.002438950153844e+01
0	 7.625000000000000e+00	 8.062499999999998e+00	 1.002298528615382e+01
0	 7.625000000000000e+00	 8.125000000000000e+00	 1.002156301538461e+01
0	 7.687499999999999e+00	 7.500000000000000e+00	 1.003384076923079e+01
0	 7.687499999999999e+00	 7.562500000000001e+00	 1.003262618307692e+01
0	 7.687500000000000e+00	 7.625000000000001e+00	 1.003139420615383e+01
0	 7.687500000000000e+00	 7.687500000000000e+00	 1.003014483846153e+01
0	 7.687499999999999e+00	 7.749999999999999e+00	 1.002887807999997e+01
0	 7.687500000000000e+00	 7.812499999999999e+00	 1.002759393076923e+01
0	 7.687500000000000e+00	 7.874999999999998e+00	 1.002629239076922e+01
0	 7.687499999999998e+00	 7.937499999999998e+00	 1.002497345999998e+01
0	 7.687500000000000e+00	 7.999999999999998e+00	 1.002363713846153e+01
0	 7.687499999999998e+00	 8.062499999999996e+00	 1.002228342615382e+01
0	 7.687499999999999e+00	 8.125000000000000e+00	 1.002091232307690e+01
0	 7.750000000000000e+00	 7.500000000000000e+00	 1.003271046153847e+01
0	 7.750000000000000e+00	 7.562500000000000e+00	 1.003154013538459e+01
0	 7.749999999999998e+00	 7.625000000000000e+00	 1.003035308307692e+01
0	 7.749999999999998e+00	 7.687500000000000e+00	 1.002914930461538e+01
0	 7.749999999999997e+00	 7.749999999999998e+00	 1.002792879999999e+01
0	 7.749999999999998e+00	 7.812500000000000e+00	 1.002669156923076e+01
0	 7.749999999999999e+00	 7.874999999999998e+00	 1.002543761230768e+01
0	 7.750000000000000e+00	 7.937499999999999e+00	 1.002416692923074e+01
0	 7.749999999999999e+00	 7.999999999999997e+00	 1.002287951999998e+01
0	 7.750000000000000e+00	 8.062500000000000e+00	 1.002157538461538e+01
0	 7.750000000000000e+00	 8.125000000000000e+00	 1.002025452307691e+01
0	 7.812499999999999e+00	 7.500000000000000e+00	 1.003158230769230e+01
0	 7.812499999999998e+00	 7.562499999999999e+00	 1.003045531538461e+01
0	 7.812499999999999e+00	 7.624999999999999e+00	 1.002931226153844e+01
0	 7.812499999999999e+00	 7.687500000000000e+00	 1.002815314615385e+01
0	 7.812499999999997e+00	 7.749999999999996e+00	 1.002697796923076e+01
0	 7.812499999999999e+00	 7.812499999999999e+00	 1.002578673076922e+01
0	 7.812500000000000e+00	 7.875000000000000e+00	 1.002457943076923e+01
0	 7.812499999999999e+00	 7.937499999999999e+00	 1.002335606923076e+01
0	 7.812499999999998e+00	 7.999999999999998e+00	 1.002211664615383e+01
0	 7.812500000000000e+00	 8.062500000000000e+00	 1.002086116153845e+01
0	 7.812499999999999e+00	 8.125000000000000e+00	 1.001958961538459e+01
0	 7.875000000000000e+00	 7.499999999999999e+00	 1.003045630769230e+01
0	 7.874999999999998e+00	 7.562500000000000e+00	 1.002937172307690e+01
0	 7.874999999999996e+00	 7.624999999999998e+00	 1.002827174153844e+01
0	 7.874999999999998e+00	 7.687499999999998e+00	 1.002715636307691e+01
0	 7.875000000000001e+00	 7.750000000000001e+00	 1.002602558769228e+01
0	 7.874999999999999e+00	 7.812500000000000e+00	 1.002487941538461e+01
0	 7.874999999999998e+00	 7.874999999999998e+00	 1.002371784615384e+01
0	 7.874999999999999e+00	 7.937499999999999e+00	 1.002254087999997e+01
0	 7.874999999999998e+00	 8.000000000000000e+00	 1.002134851692307e+01
0	 7.874999999999997e+00	 8.062499999999998e+00	 1.002014075692307e+01
0	 7.875000000000000e+00	 8.125000000000000e+00	 1.001891759999998e+01
0	 7.937499999999997e+00	 7.499999999999998e+00	 1.002933246153846e+01
0	 7.937499999999998e+00	 7.562500000000000e+00	 1.002828935846154e+01
0	 7.937499999999999e+00	 7.624999999999999e+00	 1.002723152307694e+01
0	 7.937499999999998e+00	 7.687500000000000e+00	 1.002615895538461e+01
0	 7.937499999999998e+00	 7.749999999999998e+00	 1.002507165538462e+01
0	 7.937500000000000e+00	 7.812500000000000e+00	 1.002396962307692e+01
0	 7.937500000000000e+00	 7.874999999999999e+00	 1.002285285846153e+01
0	 7.937500000000000e+00	 7.937500000000000e+00	 1.002172136153845e+01
0	 7.937499999999998e+00	 7.999999999999998e+00	 1.002057513230769e+01
0	 7.937499999999999e+00	 8.062500000000000e+00	 1.001941417076919e+01
0	 7.937499999999997e+00	 8.125000000000000e+00	 1.001823847692306e+01
0	 7.999999999999998e+00	 7.500000000000000e+00	 1.002821076923077e+01
0	 7.999999999999998e+00	 7.562500000000001e+00	 1.002720822153844e+01
0	 7.999999999999999e+00	 7.625000000000000e+00	 1.002619160615384e+01
0	 7.999999999999999e+00	 7.687500000000001e+00	 1.002516092307693e+01
0	 7.999999999999998e+00	 7.749999999999999e+00	 1.002411617230769e+01
0	 7.999999999999998e+00	 7.812499999999998e+00	 1.002305735384615e+01
0	 7.999999999999998e+00	 7.875000000000000e+00	 1.002198446769230e+01
0	 7.999999999999997e+00	 7.937499999999998e+00	 1.002089751384614e+01
0	 7.999999999999998e+00	 7.999999999999998e+00	 1.001979649230767e+01
0	 7.999999999999998e+00	 8.062500000000000e+00	 1.001868140307691e+01
0	 7.999999999999998e+00	 8.125000000000000e+00	 1.001755224615382e+01
0	 8.062499999999998e+00	 7.500000000000000e+00	 1.002709123076924e+01
0	 8.062499999999998e+00	 7.562500000000001e+00	 1.002612831230771e+01
0	 8.062499999999998e+00	 7.624999999999999e+00	 1.002515199076922e+01
0	 8.062500000000000e+00	 7.687499999999999e+00	 1.002416226615385e+01
0	 8.062499999999998e+00	 7.750000000000000e+00	 1.002315913846152e+01
0	 8.062499999999996e+00	 7.812499999999999e+00	 1.002214260769229e+01
0	 8.062499999999996e+00	 7.874999999999998e+00	 1.002111267384615e+01
0	 8.062499999999996e+00	 7.937499999999998e+00	 1.002006933692306e+01
0	 8.062499999999998e+00	 7.999999999999998e+00	 1.001901259692306e+01
0	 8.062499999999998e+00	 8.062499999999998e+00	 1.001794245384613e+01
0	 8.062499999999998e+00	 8.125000000000000e+00	 1.001685890769229e+01
0	 8.125000000000000e+00	 7.500000000000000e+00	 1.002597384615385e+01
0	 8.125000000000000e+00	 7.562500000000000e+00	 1.002504963076924e+01
0	 8.125000000000002e+00	 7.625000000000000e+00	 1.002411267692309e+01
0	 8.125000000000000e+00	 7.687499999999999e+00	 1.002316298461538e+01
0	 8.125000000000000e+00	 7.750000000000000e+00	 1.002220055384615e+01
0	 8.125000000000000e+00	 7.812499999999999e+00	 1.002122538461537e+01
0	 8.125000000000000e+00	 7.874999999999998e+00	 1.002023747692307e+01
0	 8.125000000000000e+00	 7.937499999999997e+00	 1.001923683076922e+01
0	 8.125000000000000e+00	 7.999999999999998e+00	 1.001822344615383e+01
0	 8.125000000000000e+00	 8.062499999999996e+00	 1.001719732307691e+01
0	 8.125000000000000e+00	 8.125000000000000e+00	 1.001615846153845e+01
0	 7.500000000000000e+00	 8.125000000000000e+00	 1.002284307692307e+01
0	 7.500000000000001e+00	 8.187500000000000e+00	 1.002178567692307e+01
0	 7.500000000000000e+00	 8.250000000000002e+00	 1.002069255384613e+01
0	 7.500000000000000e+00	 8.312500000000000e+00	 1.001956370769230e+01
0	 7.500000000000000e+00	 8.374999999999998e+00	 1.001839913846153e+01
0	 7.500000000000000e+00	 8.437500000000000e+00	 1.001719884615385e+01
0	 7.500000000000000e+00	 8.500000000000000e+00	 1.001596283076922e+01
0	 7.499999999999999e+00	 8.562499999999998e+00	 1.001469109230768e+01
0	 7.500000000000000e+00	 8.625000000000000e+00	 1.001338363076924e+01
0	 7.500000000000000e+00	 8.687499999999998e+00	 1.001204044615384e+01
0	 7.500000000000000e+00	 8.750000000000000e+00	 1.001066153846154e+01
0	 7.562499999999999e+00	 8.125000000000000e+00	 1.002220659999999e+01
0	 7.562500000000000e+00	 8.187500000000002e+00	 1.002118341230769e+01
0	 7.562500000000000e+00	 8.250000000000000e+00	 1.002012563692307e+01
0	 7.562500000000000e+00	 8.312499999999998e+00	 1.001903327384614e+01
0	 7.562500000000001e+00	 8.374999999999998e+00	 1.001790632307692e+01
0	 7.562500000000000e+00	 8.437500000000000e+00	 1.001674478461538e+01
0	 7.562500000000000e+00	 8.500000000000002e+00	 1.001554865846154e+01
0	 7.562500000000001e+00	 8.562500000000000e+00	 1.001431794461538e+01
0	 7.562500000000001e+00	 8.625000000000002e+00	 1.001305264307693e+01
0	 7.562499999999998e+00	 8.687499999999996e+00	 1.001175275384615e+01
0	 7.562499999999999e+00	 8.750000000000002e+00	 1.001041827692308e+01
0	 7.625000000000000e+00	 8.125000000000000e+00	 1.002156301538461e+01
0	 7.624999999999999e+00	 8.187499999999998e+00	 1.002057332923076e+01
0	 7.625000000000001e+00	 8.250000000000000e+00	 1.001955019076920e+01
0	 7.625000000000000e+00	 8.312500000000000e+00	 1.001849359999998e+01
0	 7.624999999999999e+00	 8.374999999999998e+00	 1.001740355692308e+01
0	 7.624999999999999e+00	 8.437499999999998e+00	 1.001628006153846e+01
0	 7.624999999999997e+00	 8.499999999999996e+00	 1.001512311384616e+01
0	 7.625000000000000e+00	 8.562500000000002e+00	 1.001393271384615e+01
0	 7.625000000000000e+00	 8.624999999999998e+00	 1.001270886153847e+01
0	 7.625000000000000e+00	 8.687499999999998e+00	 1.001145155692310e+01
0	 7.625000000000000e+00	 8.750000000000000e+00	 1.001016079999997e+01
0	 7.687499999999999e+00	 8.125000000000000e+00	 1.002091232307690e+01
0	 7.687499999999999e+00	 8.187500000000000e+00	 1.001995542769230e+01
0	 7.687500000000000e+00	 8.250000000000002e+00	 1.001896621538461e+01
0	 7.687500000000000e+00	 8.312499999999998e+00	 1.001794468615385e+01
0	 7.687499999999999e+00	 8.374999999999998e+00	 1.001689083999999e+01
0	 7.687500000000000e+00	 8.437500000000000e+00	 1.001580467692307e+01
0	 7.687500000000000e+00	 8.499999999999998e+00	 1.001468619692308e+01
0	 7.687499999999998e+00	 8.562500000000000e+00	 1.001353539999999e+01
0	 7.687500000000000e+00	 8.625000000000000e+00	 1.001235228615383e+01
0	 7.687499999999998e+00	 8.687499999999996e+00	 1.001113685538462e+01
0	 7.687499999999999e+00	 8.750000000000000e+00	 1.000988910769232e+01
0	 7.750000000000000e+00	 8.125000000000000e+00	 1.002025452307691e+01
0	 7.750000000000000e+00	 8.187499999999998e+00	 1.001932970769229e+01
0	 7.749999999999998e+00	 8.250000000000002e+00	 1.001837371076921e+01
0	 7.749999999999998e+00	 8.312500000000000e+00	 1.001738653230768e+01
0	 7.749999999999997e+00	 8.374999999999998e+00	 1.001636817230769e+01
0	 7.749999999999998e+00	 8.437500000000000e+00	 1.001531863076922e+01
0	 7.749999999999999e+00	 8.499999999999998e+00	 1.001423790769230e+01
0	 7.750000000000000e+00	 8.562499999999998e+00	 1.001312600307692e+01
0	 7.749999999999999e+00	 8.624999999999998e+00	 1.001198291692307e+01
0	 7.750000000000000e+00	 8.687499999999996e+00	 1.001080864923076e+01
0	 7.750000000000000e+00	 8.749999999999998e+00	 1.000960319999999e+01
0	 7.812499999999999e+00	 8.125000000000000e+00	 1.001958961538459e+01
0	 7.812499999999998e+00	 8.187499999999998e+00	 1.001869616923072e+01
0	 7.812499999999999e+00	 8.249999999999998e+00	 1.001777267692306e+01
0	 7.812499999999999e+00	 8.312500000000000e+00	 1.001681913846151e+01
0	 7.812499999999997e+00	 8.374999999999998e+00	 1.001583555384616e+01
0	 7.812499999999999e+00	 8.437499999999998e+00	 1.001482192307691e+01
0	 7.812500000000000e+00	 8.500000000000002e+00	 1.001377824615383e+01
0	 7.812499999999999e+00	 8.562499999999998e+00	 1.001270452307693e+01
0	 7.812499999999998e+00	 8.624999999999998e+00	 1.001160075384617e+01
0	 7.812500000000000e+00	 8.687500000000000e+00	 1.001046693846152e+01
0	 7.812499999999999e+00	 8.750000000000000e+00	 1.000930307692312e+01
0	 7.875000000000000e+00	 8.125000000000000e+00	 1.001891759999998e+01
0	 7.874999999999998e+00	 8.187500000000000e+00	 1.001805481230768e+01
0	 7.874999999999996e+00	 8.249999999999998e+00	 1.001716311384613e+01
0	 7.874999999999998e+00	 8.312500000000000e+00	 1.001624250461537e+01
0	 7.875000000000001e+00	 8.375000000000002e+00	 1.001529298461537e+01
0	 7.874999999999999e+00	 8.437500000000002e+00	 1.001431455384615e+01
0	 7.874999999999998e+00	 8.499999999999998e+00	 1.001330721230768e+01
0	 7.874999999999999e+00	 8.562500000000000e+00	 1.001227096000002e+01
0	 7.874999999999998e+00	 8.624999999999998e+00	 1.001120579692308e+01
0	 7.874999999999997e+00	 8.687499999999998e+00	 1.001011172307693e+01
0	 7.875000000000000e+00	 8.750000000000000e+00	 1.000898873846154e+01
0	 7.937499999999997e+00	 8.125000000000000e+00	 1.001823847692306e+01
0	 7.937499999999998e+00	 8.187500000000000e+00	 1.001740563692304e+01
0	 7.937499999999999e+00	 8.250000000000000e+00	 1.001654502153845e+01
0	 7.937499999999998e+00	 8.312500000000000e+00	 1.001565663076923e+01
0	 7.937499999999998e+00	 8.374999999999998e+00	 1.001474046461538e+01
0	 7.937500000000000e+00	 8.437500000000000e+00	 1.001379652307691e+01
0	 7.937500000000000e+00	 8.500000000000000e+00	 1.001282480615386e+01
0	 7.937500000000000e+00	 8.562499999999998e+00	 1.001182531384616e+01
0	 7.937499999999998e+00	 8.624999999999998e+00	 1.001079804615383e+01
0	 7.937499999999999e+00	 8.687500000000000e+00	 1.000974300307693e+01
0	 7.937499999999997e+00	 8.750000000000000e+00	 1.000866018461540e+01
0	 7.999999999999998e+00	 8.125000000000000e+00	 1.001755224615382e+01
0	 7.999999999999998e+00	 8.187500000000002e+00	 1.001674864307690e+01
0	 7.999999999999999e+00	 8.250000000000000e+00	 1.001591840000000e+01
0	 7.999999999999999e+00	 8.312500000000000e+00	 1.001506151692308e+01
0	 7.999999999999998e+00	 8.375000000000002e+00	 1.001417799384615e+01
0	 7.999999999999998e+00	 8.437500000000000e+00	 1.001326783076923e+01
0	 7.999999999999998e+00	 8.500000000000000e+00	 1.001233102769231e+01
0	 7.999999999999997e+00	 8.562499999999996e+00	 1.001136758461539e+01
0	 7.999999999999998e+00	 8.624999999999998e+00	 1.001037750153846e+01
0	 7.999999999999998e+00	 8.687499999999998e+00	 1.000936077846155e+01
0	 7.999999999999998e+00	 8.750000000000002e+00	 1.000831741538464e+01
0	 8.062499999999998e+00	 8.125000000000000e+00	 1.001685890769229e+01
0	 8.062499999999998e+00	 8.187500000000000e+00	 1.001608383076923e+01
0	 8.062499999999998e+00	 8.250000000000002e+00	 1.001528324923077e+01
0	 8.062500000000000e+00	 8.312499999999998e+00	 1.001445716307691e+01
0	 8.062499999999998e+00	 8.374999999999998e+00	 1.001360557230769e+01
0	 8.062499999999996e+00	 8.437499999999998e+00	 1.001272847692308e+01
0	 8.062499999999996e+00	 8.499999999999998e+00	 1.001182587692308e+01
0	 8.062499999999996e+00	 8.562499999999998e+00	 1.001089777230769e+01
0	 8.062499999999998e+00	 8.624999999999998e+00	 1.000994416307692e+01
0	 8.062499999999998e+00	 8.687499999999998e+00	 1.000896504923078e+01
0	 8.062499999999998e+00	 8.750000000000000e+00	 1.000796043076925e+01
0	 8.125000000000000e+00	 8.125000000000000e+00	 1.001615846153845e+01
0	 8.125000000000000e+00	 8.187500000000000e+00	 1.001541119999998e+01
0	 8.125000000000002e+00	 8.250000000000002e+00	 1.001463956923073e+01
0	 8.125000000000000e+00	 8.312500000000000e+00	 1.001384356923077e+01
0	 8.125000000000000e+00	 8.374999999999998e+00	 1.001302319999999e+01
0	 8.125000000000000e+00	 8.437500000000000e+00	 1.001217846153847e+01
0	 8.125000000000000e+00	 8.500000000000000e+00	 1.001130935384614e+01
0	 8.125000000000000e+00	 8.562499999999998e+00	 1.001041587692307e+01
0	 8.125000000000000e+00	 8.625000000000000e+00	 1.000949803076922e+01
0	 8.125000000000000e+00	 8.687499999999998e+00	 1.000855581538458e+01
0	 8.125000000000000e+00	 8.750000000000000e+00	 1.000758923076924e+01
0	 7.500000000000000e+00	 8.750000000000000e+00	 1.001066153846154e+01
0	 7.500000000000001e+00	 8.812500000000000e+00	 1.001003446153846e+01
0	 7.500000000000000e+00	 8.875000000000002e+00	 1.000935292307693e+01
0	 7.500000000000000e+00	 8.937499999999998e+00	 1.000861692307691e+01
0	 7.500000000000000e+00	 9.000000000000000e+00	 1.000782646153846e+01
0	 7.500000000000000e+00	 9.062500000000000e+00	 1.000698153846153e+01
0	 7.500000000000000e+00	 9.124999999999998e+00	 1.000608215384614e+01
0	 7.499999999999999e+00	 9.187499999999998e+00	 1.000512830769229e+01
0	 7.500000000000000e+00	 9.249999999999998e+00	 1.000411999999998e+01
0	 7.500000000000000e+00	 9.312499999999998e+00	 1.000305723076923e+01
0	 7.500000000000000e+00	 9.375000000000000e+00	 1.000193999999999e+01
0	 7.562499999999999e+00	 8.750000000000002e+00	 1.001041827692308e+01
0	 7.562500000000000e+00	 8.812499999999998e+00	 1.000981320615385e+01
0	 7.562500000000000e+00	 8.875000000000000e+00	 1.000915522461538e+01
0	 7.562500000000000e+00	 8.937500000000000e+00	 1.000844433230770e+01
0	 7.562500000000001e+00	 9.000000000000000e+00	 1.000768052923077e+01
0	 7.562500000000000e+00	 9.062500000000000e+00	 1.000686381538461e+01
0	 7.562500000000000e+00	 9.125000000000000e+00	 1.000599419076924e+01
0	 7.562500000000001e+00	 9.187499999999998e+00	 1.000507165538460e+01
0	 7.562500000000001e+00	 9.250000000000000e+00	 1.000409620923077e+01
0	 7.562499999999998e+00	 9.312499999999996e+00	 1.000306785230770e+01
0	 7.562499999999999e+00	 9.375000000000000e+00	 1.000198658461538e+01
0	 7.625000000000000e+00	 8.750000000000000e+00	 1.001016079999997e+01
0	 7.624999999999999e+00	 8.812500000000000e+00	 1.000957687384616e+01
0	 7.625000000000001e+00	 8.875000000000004e+00	 1.000894158769231e+01
0	 7.625000000000000e+00	 8.937500000000000e+00	 1.000825494153846e+01
0	 7.624999999999999e+00	 8.999999999999998e+00	 1.000751693538462e+01
0	 7.624999999999999e+00	 9.062500000000000e+00	 1.000672756923077e+01
0	 7.624999999999997e+00	 9.124999999999998e+00	 1.000588684307692e+01
0	 7.625000000000000e+00	 9.187500000000002e+00	 1.000499475692309e+01
0	 7.625000000000000e+00	 9.249999999999996e+00	 1.000405131076922e+01
0	 7.625000000000000e+00	 9.312499999999998e+00	 1.000305650461537e+01
0	 7.625000000000000e+00	 9.375000000000000e+00	 1.000201033846153e+01
0	 7.687499999999999e+00	 8.750000000000000e+00	 1.000988910769232e+01
0	 7.687499999999999e+00	 8.812500000000000e+00	 1.000932546461540e+01
0	 7.687500000000000e+00	 8.875000000000002e+00	 1.000871201230769e+01
0	 7.687500000000000e+00	 8.937500000000000e+00	 1.000804875076924e+01
0	 7.687499999999999e+00	 9.000000000000000e+00	 1.000733567999999e+01
0	 7.687500000000000e+00	 9.062499999999998e+00	 1.000657280000000e+01
0	 7.687500000000000e+00	 9.124999999999998e+00	 1.000576011076924e+01
0	 7.687499999999998e+00	 9.187500000000002e+00	 1.000489761230769e+01
0	 7.687500000000000e+00	 9.249999999999998e+00	 1.000398530461537e+01
0	 7.687499999999998e+00	 9.312499999999998e+00	 1.000302318769230e+01
0	 7.687499999999999e+00	 9.375000000000002e+00	 1.000201126153845e+01
0	 7.750000000000000e+00	 8.749999999999998e+00	 1.000960319999999e+01
0	 7.750000000000000e+00	 8.812500000000000e+00	 1.000905897846155e+01
0	 7.749999999999998e+00	 8.875000000000002e+00	 1.000846649846155e+01
0	 7.749999999999998e+00	 8.937500000000000e+00	 1.000782576000000e+01
0	 7.749999999999997e+00	 8.999999999999998e+00	 1.000713676307692e+01
0	 7.749999999999998e+00	 9.062500000000000e+00	 1.000639950769232e+01
0	 7.749999999999999e+00	 9.124999999999998e+00	 1.000561399384616e+01
0	 7.750000000000000e+00	 9.187500000000000e+00	 1.000478022153844e+01
0	 7.749999999999999e+00	 9.249999999999998e+00	 1.000389819076922e+01
0	 7.750000000000000e+00	 9.312500000000000e+00	 1.000296790153847e+01
0	 7.750000000000000e+00	 9.375000000000002e+00	 1.000198935384615e+01
0	 7.812499999999999e+00	 8.750000000000000e+00	 1.000930307692312e+01
0	 7.812499999999998e+00	 8.812500000000000e+00	 1.000877741538466e+01
0	 7.812499999999999e+00	 8.875000000000000e+00	 1.000820504615385e+01
0	 7.812499999999999e+00	 8.937500000000000e+00	 1.000758596923079e+01
0	 7.812499999999997e+00	 8.999999999999998e+00	 1.000692018461539e+01
0	 7.812499999999999e+00	 9.062500000000000e+00	 1.000620769230771e+01
0	 7.812500000000000e+00	 9.125000000000002e+00	 1.000544849230768e+01
0	 7.812499999999999e+00	 9.187499999999998e+00	 1.000464258461538e+01
0	 7.812499999999998e+00	 9.249999999999998e+00	 1.000378996923077e+01
0	 7.812500000000000e+00	 9.312500000000000e+00	 1.000289064615384e+01
0	 7.812499999999999e+00	 9.375000000000002e+00	 1.000194461538457e+01
0	 7.875000000000000e+00	 8.750000000000000e+00	 1.000898873846154e+01
0	 7.874999999999998e+00	 8.812500000000000e+00	 1.000848077538461e+01
0	 7.874999999999996e+00	 8.874999999999996e+00	 1.000792765538462e+01
0	 7.874999999999998e+00	 8.937499999999998e+00	 1.000732937846153e+01
0	 7.875000000000001e+00	 9.000000000000004e+00	 1.000668594461538e+01
0	 7.874999999999999e+00	 9.062500000000002e+00	 1.000599735384614e+01
0	 7.874999999999998e+00	 9.124999999999998e+00	 1.000526360615385e+01
0	 7.874999999999999e+00	 9.187500000000000e+00	 1.000448470153845e+01
0	 7.874999999999998e+00	 9.249999999999998e+00	 1.000366064000000e+01
0	 7.874999999999997e+00	 9.312499999999998e+00	 1.000279142153847e+01
0	 7.875000000000000e+00	 9.375000000000000e+00	 1.000187704615383e+01
0	 7.937499999999997e+00	 8.750000000000000e+00	 1.000866018461540e+01
0	 7.937499999999998e+00	 8.812499999999998e+00	 1.000816905846155e+01
0	 7.937499999999999e+00	 8.875000000000002e+00	 1.000763432615386e+01
0	 7.937499999999998e+00	 8.937500000000002e+00	 1.000705598769232e+01
0	 7.937499999999998e+00	 8.999999999999998e+00	 1.000643404307692e+01
0	 7.937500000000000e+00	 9.062500000000000e+00	 1.000576849230769e+01
0	 7.937500000000000e+00	 9.125000000000000e+00	 1.000505933538460e+01
0	 7.937500000000000e+00	 9.187500000000000e+00	 1.000430657230769e+01
0	 7.937499999999998e+00	 9.249999999999998e+00	 1.000351020307689e+01
0	 7.937499999999999e+00	 9.312500000000000e+00	 1.000267022769232e+01
0	 7.937499999999997e+00	 9.375000000000000e+00	 1.000178664615384e+01
0	 7.999999999999998e+00	 8.750000000000002e+00	 1.000831741538464e+01
0	 7.999999999999998e+00	 8.812500000000002e+00	 1.000784226461539e+01
0	 7.999999999999999e+00	 8.875000000000000e+00	 1.000732505846155e+01
0	 7.999999999999999e+00	 8.937500000000002e+00	 1.000676579692309e+01
0	 7.999999999999998e+00	 8.999999999999998e+00	 1.000616448000000e+01
0	 7.999999999999998e+00	 9.062499999999998e+00	 1.000552110769232e+01
0	 7.999999999999998e+00	 9.125000000000000e+00	 1.000483567999998e+01
0	 7.999999999999997e+00	 9.187499999999998e+00	 1.000410819692306e+01
0	 7.999999999999998e+00	 9.250000000000000e+00	 1.000333865846155e+01
0	 7.999999999999998e+00	 9.312499999999998e+00	 1.000252706461540e+01
0	 7.999999999999998e+00	 9.375000000000000e+00	 1.000167341538461e+01
0	 8.062499999999998e+00	 8.750000000000000e+00	 1.000796043076925e+01
0	 8.062499999999998e+00	 8.812500000000000e+00	 1.000750039384616e+01
0	 8.062499999999998e+00	 8.875000000000002e+00	 1.000699985230770e+01
0	 8.062500000000000e+00	 8.937500000000000e+00	 1.000645880615385e+01
0	 8.062499999999998e+00	 9.000000000000000e+00	 1.000587725538462e+01
0	 8.062499999999996e+00	 9.062500000000000e+00	 1.000525520000000e+01
0	 8.062499999999996e+00	 9.125000000000000e+00	 1.000459263999999e+01
0	 8.062499999999996e+00	 9.187499999999998e+00	 1.000388957538462e+01
0	 8.062499999999998e+00	 9.249999999999998e+00	 1.000314600615386e+01
0	 8.062499999999998e+00	 9.312499999999996e+00	 1.000236193230768e+01
0	 8.062499999999998e+00	 9.375000000000000e+00	 1.000153735384615e+01
0	 8.125000000000000e+00	 8.750000000000000e+00	 1.000758923076924e+01
0	 8.125000000000000e+00	 8.812500000000000e+00	 1.000714344615385e+01
0	 8.125000000000002e+00	 8.875000000000002e+00	 1.000665870769232e+01
0	 8.125000000000000e+00	 8.937499999999998e+00	 1.000613501538461e+01
0	 8.125000000000000e+00	 9.000000000000000e+00	 1.000557236923078e+01
0	 8.125000000000000e+00	 9.062500000000000e+00	 1.000497076923075e+01
0	 8.125000000000000e+00	 9.124999999999998e+00	 1.000433021538459e+01
0	 8.125000000000000e+00	 9.187499999999998e+00	 1.000365070769230e+01
0	 8.125000000000000e+00	 9.249999999999998e+00	 1.000293224615383e+01
0	 8.125000000000000e+00	 9.312499999999998e+00	 1.000217483076922e+01
0	 8.125000000000000e+00	 9.375000000000000e+00	 1.000137846153846e+01
0	 7.500000000000000e+00	 9.375000000000000e+00	 1.000193999999999e+01
0	 7.500000000000001e+00	 9.437499999999998e+00	 1.000194072307692e+01
0	 7.499999999999999e+00	 9.500000000000000e+00	 1.000186473846153e+01
0	 7.499999999999999e+00	 9.562500000000000e+00	 1.000171204615384e+01
0	 7.500000000000001e+00	 9.625000000000000e+00	 1.000148264615383e+01
0	 7.500000000000000e+00	 9.687499999999998e+00	 1.000117653846154e+01
0	 7.500000000000001e+00	 9.749999999999998e+00	 1.000079372307691e+01
0	 7.500000000000000e+00	 9.812500000000000e+00	 1.000033419999998e+01
0	 7.500000000000001e+00	 9.875000000000000e+00	 9.999797969230720e+00
0	 7.500000000000000e+00	 9.937499999999998e+00	 9.999185030769233e+00
0	 7.500000000000000e+00	 1.000000000000000e+01	 9.998495384615371e+00
0	 7.562499999999999e+00	 9.375000000000000e+00	 1.000198658461538e+01
0	 7.562500000000001e+00	 9.437500000000002e+00	 1.000199133384613e+01
0	 7.562499999999997e+00	 9.500000000000000e+00	 1.000192158153845e+01
0	 7.562499999999999e+00	 9.562500000000000e+00	 1.000177732769228e+01
0	 7.562500000000001e+00	 9.625000000000000e+00	 1.000155857230770e+01
0	 7.562500000000001e+00	 9.687500000000000e+00	 1.000126531538458e+01
0	 7.562500000000001e+00	 9.749999999999998e+00	 1.000089755692306e+01
0	 7.562499999999999e+00	 9.812499999999998e+00	 1.000045529692305e+01
0	 7.562499999999999e+00	 9.874999999999998e+00	 9.999938535384606e+00
0	 7.562499999999999e+00	 9.937499999999996e+00	 9.999347272307720e+00
0	 7.562500000000001e+00	 1.000000000000000e+01	 9.998681507692289e+00
0	 7.625000000000000e+00	 9.375000000000000e+00	 1.000201033846153e+01
0	 7.624999999999997e+00	 9.437499999999998e+00	 1.000201825230768e+01
0	 7.625000000000000e+00	 9.500000000000000e+00	 1.000195387076923e+01
0	 7.624999999999999e+00	 9.562500000000000e+00	 1.000181719384616e+01
0	 7.625000000000001e+00	 9.625000000000002e+00	 1.000160822153843e+01
0	 7.625000000000000e+00	 9.687500000000002e+00	 1.000132695384612e+01
0	 7.624999999999999e+00	 9.750000000000000e+00	 1.000097339076921e+01
0	 7.625000000000001e+00	 9.812500000000002e+00	 1.000054753230772e+01
0	 7.625000000000000e+00	 9.874999999999996e+00	 1.000004937846151e+01
0	 7.625000000000000e+00	 9.937500000000000e+00	 9.999478929230769e+00
0	 7.624999999999999e+00	 1.000000000000000e+01	 9.998836184615385e+00
0	 7.687499999999999e+00	 9.375000000000002e+00	 1.000201126153845e+01
0	 7.687499999999999e+00	 9.437500000000000e+00	 1.000202147846151e+01
0	 7.687499999999999e+00	 9.499999999999996e+00	 1.000196160615381e+01
0	 7.687500000000000e+00	 9.562500000000000e+00	 1.000183164461539e+01
0	 7.687499999999997e+00	 9.624999999999998e+00	 1.000163159384615e+01
0	 7.687499999999998e+00	 9.687500000000000e+00	 1.000136145384618e+01
0	 7.687499999999999e+00	 9.749999999999996e+00	 1.000102122461537e+01
0	 7.687499999999998e+00	 9.812499999999996e+00	 1.000061090615381e+01
0	 7.687499999999999e+00	 9.875000000000000e+00	 1.000013049846148e+01
0	 7.687499999999999e+00	 9.937499999999998e+00	 9.999580001538448e+00
0	 7.687499999999999e+00	 1.000000000000000e+01	 9.998959415384631e+00
0	 7.750000000000000e+00	 9.375000000000002e+00	 1.000198935384615e+01
0	 7.750000000000001e+00	 9.437500000000000e+00	 1.000200101230768e+01
0	 7.749999999999999e+00	 9.500000000000004e+00	 1.000194478769229e+01
0	 7.749999999999997e+00	 9.562500000000000e+00	 1.000182068000001e+01
0	 7.749999999999998e+00	 9.624999999999998e+00	 1.000162868923075e+01
0	 7.749999999999999e+00	 9.687499999999998e+00	 1.000136881538458e+01
0	 7.750000000000000e+00	 9.750000000000000e+00	 1.000104105846153e+01
0	 7.749999999999999e+00	 9.812499999999996e+00	 1.000064541846153e+01
0	 7.750000000000000e+00	 9.874999999999998e+00	 1.000018189538459e+01
0	 7.749999999999999e+00	 9.937499999999996e+00	 9.999650489230790e+00
0	 7.750000000000000e+00	 1.000000000000000e+01	 9.999051199999945e+00
0	 7.812499999999999e+00	 9.375000000000002e+00	 1.000194461538457e+01
0	 7.812500000000000e+00	 9.437499999999998e+00	 1.000195685384613e+01
0	 7.812499999999999e+00	 9.499999999999998e+00	 1.000190341538458e+01
0	 7.812499999999999e+00	 9.562500000000000e+00	 1.000178429999999e+01
0	 7.812499999999998e+00	 9.624999999999998e+00	 1.000159950769228e+01
0	 7.812499999999999e+00	 9.687500000000000e+00	 1.000134903846153e+01
0	 7.812499999999999e+00	 9.750000000000000e+00	 1.000103289230772e+01
0	 7.812499999999999e+00	 9.812499999999998e+00	 1.000065106923078e+01
0	 7.812499999999999e+00	 9.874999999999998e+00	 1.000020356923078e+01
0	 7.812500000000000e+00	 9.937499999999998e+00	 9.999690392307677e+00
0	 7.812499999999998e+00	 1.000000000000000e+01	 9.999111538461614e+00
0	 7.875000000000000e+00	 9.375000000000000e+00	 1.000187704615383e+01
0	 7.874999999999998e+00	 9.437499999999998e+00	 1.000188900307692e+01
0	 7.874999999999998e+00	 9.500000000000000e+00	 1.000183748923077e+01
0	 7.874999999999999e+00	 9.562500000000000e+00	 1.000172250461537e+01
0	 7.875000000000000e+00	 9.625000000000000e+00	 1.000154404923076e+01
0	 7.874999999999999e+00	 9.687499999999998e+00	 1.000130212307692e+01
0	 7.875000000000000e+00	 9.749999999999998e+00	 1.000099672615383e+01
0	 7.874999999999996e+00	 9.812499999999996e+00	 1.000062785846151e+01
0	 7.874999999999999e+00	 9.874999999999998e+00	 1.000019551999997e+01
0	 7.874999999999999e+00	 9.937499999999998e+00	 9.999699710769232e+00
0	 7.874999999999999e+00	 9.999999999999998e+00	 9.999140430769234e+00
0	 7.937499999999997e+00	 9.375000000000000e+00	 1.000178664615384e+01
0	 7.937499999999997e+00	 9.437499999999998e+00	 1.000179746000001e+01
0	 7.937499999999998e+00	 9.499999999999998e+00	 1.000174700923077e+01
0	 7.937499999999998e+00	 9.562500000000002e+00	 1.000163529384614e+01
0	 7.937500000000000e+00	 9.624999999999998e+00	 1.000146231384615e+01
0	 7.937499999999999e+00	 9.687500000000000e+00	 1.000122806923074e+01
0	 7.937499999999999e+00	 9.750000000000000e+00	 1.000093255999998e+01
0	 7.937500000000000e+00	 9.812500000000000e+00	 1.000057578615380e+01
0	 7.937499999999998e+00	 9.874999999999998e+00	 1.000015774769230e+01
0	 7.937499999999998e+00	 9.937499999999998e+00	 9.999678444615377e+00
0	 7.937499999999998e+00	 1.000000000000000e+01	 9.999137876923102e+00
0	 7.999999999999998e+00	 9.375000000000000e+00	 1.000167341538461e+01
0	 7.999999999999999e+00	 9.437500000000002e+00	 1.000168222461538e+01
0	 7.999999999999998e+00	 9.500000000000000e+00	 1.000163197538460e+01
0	 7.999999999999999e+00	 9.562500000000002e+00	 1.000152266769230e+01
0	 7.999999999999998e+00	 9.624999999999998e+00	 1.000135430153843e+01
0	 7.999999999999997e+00	 9.687499999999998e+00	 1.000112687692305e+01
0	 7.999999999999997e+00	 9.750000000000000e+00	 1.000084039384613e+01
0	 7.999999999999998e+00	 9.812499999999998e+00	 1.000049485230768e+01
0	 7.999999999999999e+00	 9.874999999999998e+00	 1.000009025230768e+01
0	 7.999999999999998e+00	 9.937499999999998e+00	 9.999626593846131e+00
0	 7.999999999999998e+00	 1.000000000000000e+01	 9.999103876923035e+00
0	 8.062499999999998e+00	 9.375000000000000e+00	 1.000153735384615e+01
0	 8.062499999999998e+00	 9.437500000000000e+00	 1.000154329692309e+01
0	 8.062499999999996e+00	 9.499999999999998e+00	 1.000149238769233e+01
0	 8.062500000000000e+00	 9.562500000000000e+00	 1.000138462615385e+01
0	 8.062500000000000e+00	 9.624999999999998e+00	 1.000122001230771e+01
0	 8.062499999999996e+00	 9.687499999999996e+00	 1.000099854615383e+01
0	 8.062499999999998e+00	 9.749999999999998e+00	 1.000072022769230e+01
0	 8.062499999999998e+00	 9.812499999999998e+00	 1.000038505692306e+01
0	 8.062499999999998e+00	 9.874999999999996e+00	 9.999993033846190e+00
0	 8.062499999999998e+00	 9.937499999999998e+00	 9.999544158461493e+00
0	 8.062499999999996e+00	 1.000000000000000e+01	 9.999038430769229e+00
0	 8.125000000000000e+00	 9.375000000000000e+00	 1.000137846153846e+01
0	 8.124999999999998e+00	 9.437499999999998e+00	 1.000138067692310e+01
0	 8.125000000000000e+00	 9.500000000000000e+00	 1.000132824615385e+01
0	 8.124999999999998e+00	 9.562500000000000e+00	 1.000122116923077e+01
0	 8.125000000000000e+00	 9.625000000000000e+00	 1.000105944615384e+01
0	 8.125000000000000e+00	 9.687499999999998e+00	 1.000084307692309e+01
0	 8.125000000000000e+00	 9.749999999999998e+00	 1.000057206153845e+01
0	 8.125000000000000e+00	 9.812500000000000e+00	 1.000024639999999e+01
0	 8.125000000000002e+00	 9.875000000000000e+00	 9.999866092307656e+00
0	 8.125000000000000e+00	 9.937499999999998e+00	 9.999431138461560e+00
0	 8.125000000000000e+00	 1.000000000000000e+01	 9.998941538461537e+00
0	 8.125000000000000e+00	 0.000000000000000e+00	 9.977975692307689e+00
0	 8.125000000000002e+00	 6.250000000000000e-02	 9.978606430769226e+00
0	 8.125000000000000e+00	 1.250000000000000e-01	 9.979181138461531e+00
0	 8.125000000000000e+00	 1.875000000000000e-01	 9.979699815384610e+00
0	 8.125000000000000e+00	 2.500000000000000e-01	 9.980162461538455e+00
0	 8.125000000000000e+00	 3.125000000000000e-01	 9.980569076923079e+00
0	 8.125000000000000e+00	 3.750000000000000e-01	 9.980919661538465e+00
0	 8.125000000000000e+00	 4.374999999999999e-01	 9.981214215384608e+00
0	 8.125000000000000e+00	 5.000000000000000e-01	 9.981452738461536e+00
0	 8.125000000000000e+00	 5.624999999999999e-01	 9.981635230769232e+00
0	 8.125000000000000e+00	 6.250000000000000e-01	 9.981761692307689e+00
0	 8.187500000000000e+00	 0.000000000000000e+00	 9.971995073846150e+00
0	 8.187499999999998e+00	 6.249999999999999e-02	 9.972616020307679e+00
0	 8.187499999999998e+00	 1.250000000000000e-01	 9.973182809846147e+00
0	 8.187499999999998e+00	 1.875000000000000e-01	 9.973695442461532e+00
0	 8.187499999999998e+00	 2.500000000000000e-01	 9.974153918153842e+00
0	 8.187500000000000e+00	 3.125000000000001e-01	 9.974558236923073e+00
0	 8.187500000000000e+00	 3.749999999999999e-01	 9.974908398769220e+00
0	 8.187500000000002e+00	 4.374999999999999e-01	 9.975204403692310e+00
0	 8.187500000000002e+00	 5.000000000000000e-01	 9.975446251692304e+00
0	 8.187500000000000e+00	 5.625000000000000e-01	 9.975633942769219e+00
0	 8.187500000000002e+00	 6.250000000000000e-01	 9.975767476923082e+00
0	 8.250000000000000e+00	 0.000000000000000e+00	 9.965862695384610e+00
0	 8.250000000000004e+00	 6.250000000000000e-02	 9.966474896615379e+00
0	 8.250000000000000e+00	 1.250000000000000e-01	 9.967034814769228e+00
0	 8.250000000000000e+00	 1.875000000000000e-01	 9.967542449846146e+00
0	 8.250000000000000e+00	 2.500000000000001e-01	 9.967997801846145e+00
0	 8.250000000000000e+00	 3.125000000000000e-01	 9.968400870769223e+00
0	 8.250000000000000e+00	 3.749999999999999e-01	 9.968751656615387e+00
0	 8.250000000000000e+00	 4.375000000000000e-01	 9.969050159384613e+00
0	 8.250000000000000e+00	 4.999999999999999e-01	 9.969296379076926e+00
0	 8.250000000000000e+00	 5.625000000000000e-01	 9.969490315692310e+00
0	 8.250000000000000e+00	 6.249999999999999e-01	 9.969631969230768e+00
0	 8.312499999999998e+00	 0.000000000000000e+00	 9.959578556923073e+00
0	 8.312499999999998e+00	 6.250000000000000e-02	 9.960183059692309e+00
0	 8.312499999999998e+00	 1.250000000000000e-01	 9.960737153230761e+00
0	 8.312500000000000e+00	 1.875000000000001e-01	 9.961240837538464e+00
0	 8.312500000000000e+00	 2.500000000000001e-01	 9.961694112615376e+00
0	 8.312499999999998e+00	 3.125000000000000e-01	 9.962096978461537e+00
0	 8.312499999999998e+00	 3.749999999999999e-01	 9.962449435076920e+00
0	 8.312500000000000e+00	 4.374999999999999e-01	 9.962751482461533e+00
0	 8.312499999999998e+00	 4.999999999999999e-01	 9.963003120615380e+00
0	 8.312500000000002e+00	 5.625000000000001e-01	 9.963204349538465e+00
0	 8.312500000000000e+00	 6.249999999999999e-01	 9.963355169230761e+00
0	 8.374999999999998e+00	 0.000000000000000e+00	 9.953142658461536e+00
0	 8.374999999999998e+00	 6.250000000000000e-02	 9.953740509538459e+00
0	 8.374999999999996e+00	 1.250000000000000e-01	 9.954289825230770e+00
0	 8.374999999999996e+00	 1.875000000000000e-01	 9.954790605538452e+00
0	 8.375000000000000e+00	 2.500000000000000e-01	 9.955242850461536e+00
0	 8.375000000000000e+00	 3.125000000000000e-01	 9.955646559999996e+00
0	 8.374999999999998e+00	 3.750000000000000e-01	 9.956001734153844e+00
0	 8.375000000000000e+00	 4.375000000000000e-01	 9.956308372923072e+00
0	 8.374999999999998e+00	 4.999999999999999e-01	 9.956566476307689e+00
0	 8.375000000000000e+00	 5.625000000000000e-01	 9.956776044307698e+00
0	 8.374999999999998e+00	 6.250000000000001e-01	 9.956937076923076e+00
0	 8.437500000000000e+00	 0.000000000000000e+00	 9.946554999999998e+00
0	 8.437499999999996e+00	 6.249999999999998e-02	 9.947147246153836e+00
0	 8.437500000000002e+00	 1.250000000000000e-01	 9.947692830769229e+00
0	 8.437499999999998e+00	 1.875000000000000e-01	 9.948191753846146e+00
0	 8.437499999999996e+00	 2.499999999999999e-01	 9.948644015384605e+00
0	 8.437499999999998e+00	 3.125000000000000e-01	 9.949049615384611e+00
0	 8.437499999999998e+00	 3.750000000000000e-01	 9.949408553846155e+00
0	 8.437499999999998e+00	 4.375000000000000e-01	 9.949720830769232e+00
0	 8.437499999999998e+00	 4.999999999999999e-01	 9.949986446153838e+00
0	 8.437500000000002e+00	 5.625000000000001e-01	 9.950205400000000e+00
0	 8.437500000000000e+00	 6.250000000000000e-01	 9.950377692307690e+00
0	 8.500000000000000e+00	 0.000000000000000e+00	 9.939815581538461e+00
0	 8.499999999999998e+00	 6.249999999999999e-02	 9.940403269538459e+00
0	 8.499999999999998e+00	 1.250000000000000e-01	 9.940946169846145e+00
0	 8.499999999999998e+00	 1.875000000000001e-01	 9.941444282461537e+00
0	 8.499999999999998e+00	 2.500000000000001e-01	 9.941897607384609e+00
0	 8.500000000000002e+00	 3.125000000000001e-01	 9.942306144615381e+00
0	 8.500000000000000e+00	 3.749999999999999e-01	 9.942669894153841e+00
0	 8.500000000000002e+00	 4.375000000000000e-01	 9.942988855999996e+00
0	 8.499999999999998e+00	 4.999999999999998e-01	 9.943263030153842e+00
0	 8.499999999999998e+00	 5.624999999999999e-01	 9.943492416615387e+00
0	 8.500000000000000e+00	 6.250000000000001e-01	 9.943677015384610e+00
0	 8.562500000000000e+00	 0.000000000000000e+00	 9.932924403076917e+00
0	 8.562499999999998e+00	 6.250000000000000e-02	 9.933508579692299e+00
0	 8.562499999999998e+00	 1.250000000000000e-01	 9.934049842461533e+00
0	 8.562500000000000e+00	 1.875000000000000e-01	 9.934548191384616e+00
0	 8.562499999999998e+00	 2.500000000000000e-01	 9.935003626461535e+00
0	 8.562499999999998e+00	 3.125000000000001e-01	 9.935416147692308e+00
0	 8.562500000000000e+00	 3.750000000000000e-01	 9.935785755076919e+00
0	 8.562499999999998e+00	 4.375000000000000e-01	 9.936112448615383e+00
0	 8.562499999999998e+00	 4.999999999999999e-01	 9.936396228307686e+00
0	 8.562500000000000e+00	 5.625000000000000e-01	 9.936637094153847e+00
0	 8.562499999999998e+00	 6.249999999999999e-01	 9.936835046153849e+00
0	 8.624999999999998e+00	 0.000000000000000e+00	 9.925881464615381e+00
0	 8.624999999999998e+00	 6.249999999999999e-02	 9.926463176615384e+00
0	 8.625000000000000e+00	 1.250000000000000e-01	 9.927003848615382e+00
0	 8.625000000000000e+00	 1.875000000000001e-01	 9.927503480615380e+00
0	 8.624999999999996e+00	 2.500000000000000e-01	 9.927962072615385e+00
0	 8.624999999999996e+00	 3.124999999999999e-01	 9.928379624615381e+00
0	 8.625000000000000e+00	 3.749999999999999e-01	 9.928756136615386e+00
0	 8.624999999999998e+00	 4.375000000000000e-01	 9.929091608615389e+00
0	 8.625000000000000e+00	 4.999999999999999e-01	 9.929386040615391e+00
0	 8.624999999999998e+00	 5.625000000000000e-01	 9.929639432615382e+00
0	 8.624999999999998e+00	 6.250000000000000e-01	 9.929851784615384e+00
0	 8.687499999999998e+00	 0.000000000000000e+00	 9.918686766153852e+00
0	 8.687499999999998e+00	 6.250000000000000e-02	 9.919267060307693e+00
0	 8.687499999999998e+00	 1.250000000000000e-01	 9.919808188307687e+00
0	 8.687500000000000e+00	 1.875000000000000e-01	 9.920310150153844e+00
0	 8.687499999999998e+00	 2.499999999999999e-01	 9.920772945846151e+00
0	 8.687499999999998e+00	 3.125000000000000e-01	 9.921196575384618e+00
0	 8.687499999999998e+00	 3.750000000000000e-01	 9.921581038769229e+00
0	 8.687499999999998e+00	 4.375000000000000e-01	 9.921926335999997e+00
0	 8.687499999999996e+00	 4.999999999999999e-01	 9.922232467076929e+00
0	 8.687499999999998e+00	 5.625000000000000e-01	 9.922499431999999e+00
0	 8.687499999999998e+00	 6.250000000000000e-01	 9.922727230769233e+00
0	 8.750000000000000e+00	 0.000000000000000e+00	 9.911340307692306e+00
0	 8.750000000000002e+00	 6.250000000000000e-02	 9.911920230769224e+00
0	 8.749999999999998e+00	 1.250000000000000e-01	 9.912462861538458e+00
0	 8.750000000000000e+00	 1.875000000000000e-01	 9.912968199999993e+00
0	 8.750000000000002e+00	 2.500000000000000e-01	 9.913436246153834e+00
0	 8.750000000000000e+00	 3.125000000000000e-01	 9.913867000000000e+00
0	 8.750000000000000e+00	 3.750000000000000e-01	 9.914260461538454e+00
0	 8.750000000000000e+00	 4.374999999999999e-01	 9.914616630769235e+00
0	 8.750000000000002e+00	 5.000000000000000e-01	 9.914935507692304e+00
0	 8.750000000000000e+00	 5.624999999999999e-01	 9.915217092307696e+00
0	 8.750000000000000e+00	 6.250000000000000e-01	 9.915461384615380e+00
0	 8.125000000000000e+00	 6.250000000000000e-01	 9.981761692307689e+00
0	 8.125000000000000e+00	 6.875000000000000e-01	 9.983033569230768e+00
0	 8.125000000000000e+00	 7.500000000000002e-01	 9.984260676923078e+00
0	 8.125000000000002e+00	 8.125000000000002e-01	 9.985443015384611e+00
0	 8.125000000000000e+00	 8.750000000000002e-01	 9.986580584615382e+00
0	 8.125000000000000e+00	 9.375000000000002e-01	 9.987673384615384e+00
0	 8.125000000000000e+00	 1.000000000000000e+00	 9.988721415384607e+00
0	 8.125000000000000e+00	 1.062500000000000e+00	 9.989724676923078e+00
0	 8.125000000000002e+00	 1.125000000000001e+00	 9.990683169230763e+00
0	 8.125000000000000e+00	 1.187500000000000e+00	 9.991596892307694e+00
0	 8.125000000000000e+00	 1.250000000000000e+00	 9.992465846153841e+00
0	 8.187500000000002e+00	 6.250000000000000e-01	 9.975767476923082e+00
0	 8.187500000000000e+00	 6.875000000000001e-01	 9.977022077076921e+00
0	 8.187500000000000e+00	 7.500000000000001e-01	 9.978233486461537e+00
0	 8.187499999999998e+00	 8.125000000000002e-01	 9.979401705076917e+00
0	 8.187500000000002e+00	 8.750000000000003e-01	 9.980526732923082e+00
0	 8.187499999999998e+00	 9.375000000000003e-01	 9.981608569999992e+00
0	 8.187500000000000e+00	 1.000000000000000e+00	 9.982647216307697e+00
0	 8.187500000000000e+00	 1.062500000000000e+00	 9.983642671846155e+00
0	 8.187500000000000e+00	 1.125000000000000e+00	 9.984594936615373e+00
0	 8.187499999999998e+00	 1.187500000000000e+00	 9.985504010615385e+00
0	 8.187500000000002e+00	 1.250000000000000e+00	 9.986369893846152e+00
0	 8.250000000000000e+00	 6.249999999999999e-01	 9.969631969230768e+00
0	 8.250000000000002e+00	 6.875000000000001e-01	 9.970873412923073e+00
0	 8.250000000000002e+00	 7.500000000000002e-01	 9.972073244307692e+00
0	 8.250000000000002e+00	 8.125000000000001e-01	 9.973231463384611e+00
0	 8.250000000000000e+00	 8.750000000000003e-01	 9.974348070153834e+00
0	 8.250000000000002e+00	 9.375000000000003e-01	 9.975423064615381e+00
0	 8.250000000000000e+00	 1.000000000000000e+00	 9.976456446769232e+00
0	 8.250000000000002e+00	 1.062500000000000e+00	 9.977448216615382e+00
0	 8.250000000000000e+00	 1.125000000000000e+00	 9.978398374153846e+00
0	 8.250000000000000e+00	 1.187500000000001e+00	 9.979306919384612e+00
0	 8.250000000000000e+00	 1.250000000000000e+00	 9.980173852307693e+00
0	 8.312500000000000e+00	 6.249999999999999e-01	 9.963355169230761e+00
0	 8.312500000000000e+00	 6.875000000000000e-01	 9.964587576769228e+00
0	 8.312500000000000e+00	 7.500000000000000e-01	 9.965779950461535e+00
0	 8.312500000000000e+00	 8.125000000000002e-01	 9.966932290307689e+00
0	 8.312500000000000e+00	 8.750000000000002e-01	 9.968044596307690e+00
0	 8.312499999999998e+00	 9.375000000000002e-01	 9.969116868461533e+00
0	 8.312499999999998e+00	 1.000000000000000e+00	 9.970149106769227e+00
0	 8.312500000000000e+00	 1.062500000000000e+00	 9.971141311230767e+00
0	 8.312499999999998e+00	 1.125000000000000e+00	 9.972093481846148e+00
0	 8.312499999999998e+00	 1.187500000000000e+00	 9.973005618615380e+00
0	 8.312500000000000e+00	 1.250000000000000e+00	 9.973877721538457e+00
0	 8.374999999999998e+00	 6.250000000000001e-01	 9.956937076923076e+00
0	 8.375000000000000e+00	 6.875000000000000e-01	 9.958164568615381e+00
0	 8.374999999999998e+00	 7.500000000000000e-01	 9.959353604923075e+00
0	 8.375000000000000e+00	 8.125000000000001e-01	 9.960504185846151e+00
0	 8.375000000000000e+00	 8.750000000000003e-01	 9.961616311384610e+00
0	 8.374999999999998e+00	 9.375000000000000e-01	 9.962689981538455e+00
0	 8.375000000000002e+00	 1.000000000000000e+00	 9.963725196307692e+00
0	 8.374999999999998e+00	 1.062500000000000e+00	 9.964721955692312e+00
0	 8.375000000000000e+00	 1.125000000000000e+00	 9.965680259692309e+00
0	 8.374999999999998e+00	 1.187500000000000e+00	 9.966600108307691e+00
0	 8.374999999999998e+00	 1.250000000000000e+00	 9.967481501538462e+00
0	 8.437500000000000e+00	 6.250000000000000e-01	 9.950377692307690e+00
0	 8.437499999999996e+00	 6.875000000000000e-01	 9.951604388461528e+00
0	 8.437500000000000e+00	 7.500000000000001e-01	 9.952794207692301e+00
0	 8.437499999999998e+00	 8.125000000000002e-01	 9.953947149999996e+00
0	 8.437499999999998e+00	 8.750000000000003e-01	 9.955063215384616e+00
0	 8.437500000000000e+00	 9.375000000000002e-01	 9.956142403846151e+00
0	 8.437500000000000e+00	 1.000000000000000e+00	 9.957184715384606e+00
0	 8.437500000000000e+00	 1.062500000000000e+00	 9.958190149999993e+00
0	 8.437500000000000e+00	 1.125000000000000e+00	 9.959158707692307e+00
0	 8.437500000000000e+00	 1.187500000000001e+00	 9.960090388461534e+00
0	 8.437500000000000e+00	 1.250000000000000e+00	 9.960985192307692e+00
0	 8.500000000000000e+00	 6.250000000000001e-01	 9.943677015384610e+00
0	 8.499999999999998e+00	 6.874999999999999e-01	 9.944907036307690e+00
0	 8.500000000000000e+00	 7.500000000000003e-01	 9.946101758769228e+00
0	 8.499999999999998e+00	 8.125000000000000e-01	 9.947261182769228e+00
0	 8.499999999999998e+00	 8.750000000000001e-01	 9.948385308307692e+00
0	 8.500000000000000e+00	 9.375000000000003e-01	 9.949474135384619e+00
0	 8.499999999999998e+00	 1.000000000000000e+00	 9.950527663999996e+00
0	 8.499999999999998e+00	 1.062500000000000e+00	 9.951545894153845e+00
0	 8.499999999999998e+00	 1.125000000000000e+00	 9.952528825846148e+00
0	 8.499999999999996e+00	 1.187500000000000e+00	 9.953476459076914e+00
0	 8.500000000000000e+00	 1.250000000000000e+00	 9.954388793846153e+00
0	 8.562499999999998e+00	 6.249999999999999e-01	 9.936835046153849e+00
0	 8.562499999999998e+00	 6.875000000000000e-01	 9.938072512153848e+00
0	 8.562500000000000e+00	 7.500000000000002e-01	 9.939276258153846e+00
0	 8.562499999999998e+00	 8.125000000000000e-01	 9.940446284153850e+00
0	 8.562500000000000e+00	 8.750000000000002e-01	 9.941582590153846e+00
0	 8.562500000000000e+00	 9.375000000000004e-01	 9.942685176153843e+00
0	 8.562499999999998e+00	 1.000000000000000e+00	 9.943754042153845e+00
0	 8.562500000000000e+00	 1.062500000000001e+00	 9.944789188153846e+00
0	 8.562499999999998e+00	 1.125000000000000e+00	 9.945790614153843e+00
0	 8.562500000000000e+00	 1.187500000000000e+00	 9.946758320153842e+00
0	 8.562499999999998e+00	 1.250000000000000e+00	 9.947692306153845e+00
0	 8.624999999999998e+00	 6.250000000000000e-01	 9.929851784615384e+00
0	 8.624999999999998e+00	 6.875000000000000e-01	 9.931100815999992e+00
0	 8.624999999999996e+00	 7.500000000000000e-01	 9.932317705846152e+00
0	 8.624999999999998e+00	 8.125000000000001e-01	 9.933502454153846e+00
0	 8.625000000000000e+00	 8.750000000000003e-01	 9.934655060923070e+00
0	 8.624999999999996e+00	 9.375000000000002e-01	 9.935775526153847e+00
0	 8.624999999999998e+00	 1.000000000000001e+00	 9.936863849846162e+00
0	 8.624999999999998e+00	 1.062500000000000e+00	 9.937920031999994e+00
0	 8.624999999999998e+00	 1.125000000000000e+00	 9.938944072615383e+00
0	 8.624999999999998e+00	 1.187500000000000e+00	 9.939935971692300e+00
0	 8.624999999999998e+00	 1.250000000000000e+00	 9.940895729230764e+00
0	 8.687499999999998e+00	 6.250000000000000e-01	 9.922727230769233e+00
0	 8.687500000000000e+00	 6.875000000000002e-01	 9.923991947846154e+00
0	 8.687499999999998e+00	 7.500000000000001e-01	 9.925226101846151e+00
0	 8.687499999999996e+00	 8.125000000000001e-01	 9.926429692769233e+00
0	 8.687499999999998e+00	 8.750000000000002e-01	 9.927602720615388e+00
0	 8.687499999999998e+00	 9.375000000000002e-01	 9.928745185384621e+00
0	 8.687499999999998e+00	 1.000000000000000e+00	 9.929857087076916e+00
0	 8.687499999999998e+00	 1.062500000000000e+00	 9.930938425692309e+00
0	 8.687499999999996e+00	 1.125000000000000e+00	 9.931989201230770e+00
0	 8.687499999999996e+00	 1.187500000000000e+00	 9.933009413692306e+00
0	 8.687499999999998e+00	 1.250000000000000e+00	 9.933999063076921e+00
0	 8.750000000000000e+00	 6.250000000000000e-01	 9.915461384615380e+00
0	 8.750000000000000e+00	 6.875000000000000e-01	 9.916745907692309e+00
0	 8.750000000000000e+00	 7.500000000000002e-01	 9.918001446153838e+00
0	 8.750000000000004e+00	 8.125000000000002e-01	 9.919228000000004e+00
0	 8.750000000000000e+00	 8.750000000000002e-01	 9.920425569230765e+00
0	 8.750000000000002e+00	 9.375000000000002e-01	 9.921594153846154e+00
0	 8.750000000000000e+00	 1.000000000000000e+00	 9.922733753846156e+00
0	 8.750000000000000e+00	 1.062500000000000e+00	 9.923844369230771e+00
0	 8.750000000000002e+00	 1.125000000000001e+00	 9.924926000000003e+00
0	 8.750000000000000e+00	 1.187500000000000e+00	 9.925978646153844e+00
0	 8.750000000000000e+00	 1.250000000000000e+00	 9.927002307692305e+00
0	 8.125000000000000e+00	 1.250000000000000e+00	 9.992465846153841e+00
0	 8.125000000000000e+00	 1.312500000000000e+00	 9.994064984615370e+00
0	 8.125000000000000e+00	 1.375000000000000e+00	 9.995643261538463e+00
0	 8.125000000000002e+00	 1.437500000000000e+00	 9.997200676923072e+00
0	 8.125000000000000e+00	 1.500000000000000e+00	 9.998737230769231e+00
0	 8.125000000000000e+00	 1.562500000000000e+00	 1.000025292307692e+01
0	 8.125000000000000e+00	 1.625000000000000e+00	 1.000174775384615e+01
0	 8.125000000000000e+00	 1.687500000000000e+00	 1.000322172307692e+01
0	 8.125000000000002e+00	 1.750000000000001e+00	 1.000467483076922e+01
0	 8.125000000000000e+00	 1.812500000000000e+00	 1.000610707692307e+01
0	 8.125000000000000e+00	 1.875000000000000e+00	 1.000751846153846e+01
0	 8.187500000000002e+00	 1.250000000000000e+00	 9.986369893846152e+00
0	 8.187500000000000e+00	 1.312500000000000e+00	 9.987961809076920e+00
0	 8.187500000000000e+00	 1.375000000000000e+00	 9.989533287384610e+00
0	 8.187499999999998e+00	 1.437500000000000e+00	 9.991084328769221e+00
0	 8.187500000000002e+00	 1.500000000000000e+00	 9.992614933230765e+00
0	 8.187499999999998e+00	 1.562500000000000e+00	 9.994125100769228e+00
0	 8.187500000000000e+00	 1.625000000000000e+00	 9.995614831384618e+00
0	 8.187500000000000e+00	 1.687500000000000e+00	 9.997084125076919e+00
0	 8.187500000000000e+00	 1.750000000000000e+00	 9.998532981846150e+00
0	 8.187499999999998e+00	 1.812500000000000e+00	 9.999961401692307e+00
0	 8.187500000000002e+00	 1.875000000000000e+00	 1.000136938461538e+01
0	 8.250000000000000e+00	 1.250000000000000e+00	 9.980173852307693e+00
0	 8.250000000000002e+00	 1.312500000000000e+00	 9.981764030153844e+00
0	 8.250000000000002e+00	 1.375000000000000e+00	 9.983334195692308e+00
0	 8.250000000000002e+00	 1.437500000000000e+00	 9.984884348923075e+00
0	 8.250000000000000e+00	 1.500000000000000e+00	 9.986414489846144e+00
0	 8.250000000000002e+00	 1.562500000000000e+00	 9.987924618461536e+00
0	 8.250000000000000e+00	 1.625000000000000e+00	 9.989414734769234e+00
0	 8.250000000000002e+00	 1.687500000000000e+00	 9.990884838769231e+00
0	 8.250000000000000e+00	 1.750000000000001e+00	 9.992334930461531e+00
0	 8.250000000000000e+00	 1.812500000000001e+00	 9.993765009846150e+00
0	 8.250000000000000e+00	 1.875000000000000e+00	 9.995175076923072e+00
0	 8.312500000000000e+00	 1.250000000000000e+00	 9.973877721538457e+00
0	 8.312500000000000e+00	 1.312500000000000e+00	 9.975471647846152e+00
0	 8.312500000000000e+00	 1.375000000000000e+00	 9.977045986461535e+00
0	 8.312500000000000e+00	 1.437500000000000e+00	 9.978600737384618e+00
0	 8.312500000000000e+00	 1.500000000000000e+00	 9.980135900615384e+00
0	 8.312499999999998e+00	 1.562500000000000e+00	 9.981651476153843e+00
0	 8.312499999999998e+00	 1.625000000000000e+00	 9.983147463999993e+00
0	 8.312500000000000e+00	 1.687500000000000e+00	 9.984623864153843e+00
0	 8.312499999999998e+00	 1.750000000000000e+00	 9.986080676615373e+00
0	 8.312499999999998e+00	 1.812500000000000e+00	 9.987517901384612e+00
0	 8.312500000000000e+00	 1.875000000000000e+00	 9.988935538461536e+00
0	 8.374999999999998e+00	 1.250000000000000e+00	 9.967481501538462e+00
0	 8.375000000000000e+00	 1.312500000000000e+00	 9.969084662153847e+00
0	 8.374999999999998e+00	 1.375000000000000e+00	 9.970668659692308e+00
0	 8.375000000000000e+00	 1.437500000000000e+00	 9.972233494153841e+00
0	 8.375000000000000e+00	 1.500000000000000e+00	 9.973779165538453e+00
0	 8.374999999999998e+00	 1.562500000000000e+00	 9.975305673846149e+00
0	 8.375000000000002e+00	 1.625000000000001e+00	 9.976813019076918e+00
0	 8.374999999999998e+00	 1.687500000000000e+00	 9.978301201230765e+00
0	 8.375000000000000e+00	 1.750000000000001e+00	 9.979770220307692e+00
0	 8.374999999999998e+00	 1.812500000000000e+00	 9.981220076307693e+00
0	 8.374999999999998e+00	 1.875000000000000e+00	 9.982650769230769e+00
0	 8.437500000000000e+00	 1.250000000000000e+00	 9.960985192307692e+00
0	 8.437499999999996e+00	 1.312500000000000e+00	 9.962603073076917e+00
0	 8.437500000000000e+00	 1.375000000000000e+00	 9.964202215384615e+00
0	 8.437499999999998e+00	 1.437500000000000e+00	 9.965782619230765e+00
0	 8.437499999999998e+00	 1.500000000000000e+00	 9.967344284615390e+00
0	 8.437500000000000e+00	 1.562500000000000e+00	 9.968887211538458e+00
0	 8.437500000000000e+00	 1.625000000000000e+00	 9.970411400000000e+00
0	 8.437500000000000e+00	 1.687500000000000e+00	 9.971916849999994e+00
0	 8.437500000000000e+00	 1.750000000000000e+00	 9.973403561538461e+00
0	 8.437500000000000e+00	 1.812500000000000e+00	 9.974871534615380e+00
0	 8.437500000000000e+00	 1.875000000000000e+00	 9.976320769230774e+00
0	 8.500000000000000e+00	 1.250000000000000e+00	 9.954388793846153e+00
0	 8.499999999999998e+00	 1.312500000000000e+00	 9.956026880615383e+00
0	 8.500000000000000e+00	 1.375000000000000e+00	 9.957646653538458e+00
0	 8.499999999999998e+00	 1.437500000000000e+00	 9.959248112615382e+00
0	 8.499999999999998e+00	 1.500000000000000e+00	 9.960831257846147e+00
0	 8.500000000000000e+00	 1.562500000000000e+00	 9.962396089230769e+00
0	 8.499999999999998e+00	 1.625000000000000e+00	 9.963942606769226e+00
0	 8.499999999999998e+00	 1.687500000000000e+00	 9.965470810461536e+00
0	 8.499999999999998e+00	 1.750000000000000e+00	 9.966980700307685e+00
0	 8.499999999999996e+00	 1.812500000000000e+00	 9.968472276307683e+00
0	 8.500000000000000e+00	 1.875000000000000e+00	 9.969945538461532e+00
0	 8.562499999999998e+00	 1.250000000000000e+00	 9.947692306153845e+00
0	 8.562499999999998e+00	 1.312500000000000e+00	 9.949356084769228e+00
0	 8.562500000000000e+00	 1.375000000000000e+00	 9.951001974153844e+00
0	 8.562499999999998e+00	 1.437500000000000e+00	 9.952629974307694e+00
0	 8.562500000000000e+00	 1.500000000000001e+00	 9.954240085230765e+00
0	 8.562500000000000e+00	 1.562500000000000e+00	 9.955832306923075e+00
0	 8.562499999999998e+00	 1.625000000000000e+00	 9.957406639384615e+00
0	 8.562500000000000e+00	 1.687500000000000e+00	 9.958963082615380e+00
0	 8.562499999999998e+00	 1.750000000000000e+00	 9.960501636615385e+00
0	 8.562500000000000e+00	 1.812500000000000e+00	 9.962022301384621e+00
0	 8.562499999999998e+00	 1.875000000000000e+00	 9.963525076923080e+00
0	 8.624999999999998e+00	 1.250000000000000e+00	 9.940895729230764e+00
0	 8.624999999999998e+00	 1.312500000000000e+00	 9.942590685538454e+00
0	 8.624999999999996e+00	 1.375000000000000e+00	 9.944268177230759e+00
0	 8.624999999999998e+00	 1.437500000000000e+00	 9.945928204307689e+00
0	 8.625000000000000e+00	 1.500000000000000e+00	 9.947570766769228e+00
0	 8.624999999999996e+00	 1.562500000000000e+00	 9.949195864615383e+00
0	 8.624999999999998e+00	 1.625000000000001e+00	 9.950803497846152e+00
0	 8.624999999999998e+00	 1.687500000000000e+00	 9.952393666461534e+00
0	 8.624999999999998e+00	 1.750000000000000e+00	 9.953966370461533e+00
0	 8.624999999999998e+00	 1.812500000000001e+00	 9.955521609846143e+00
0	 8.624999999999998e+00	 1.875000000000000e+00	 9.957059384615384e+00
0	 8.687499999999998e+00	 1.250000000000000e+00	 9.933999063076921e+00
0	 8.687500000000000e+00	 1.312500000000000e+00	 9.935730682923069e+00
0	 8.687499999999998e+00	 1.375000000000000e+00	 9.937445262769224e+00
0	 8.687499999999996e+00	 1.437500000000000e+00	 9.939142802615383e+00
0	 8.687499999999998e+00	 1.500000000000000e+00	 9.940823302461538e+00
0	 8.687499999999998e+00	 1.562500000000000e+00	 9.942486762307697e+00
0	 8.687499999999998e+00	 1.625000000000000e+00	 9.944133182153848e+00
0	 8.687499999999998e+00	 1.687500000000000e+00	 9.945762561999997e+00
0	 8.687499999999996e+00	 1.750000000000000e+00	 9.947374901846153e+00
0	 8.687499999999996e+00	 1.812500000000000e+00	 9.948970201692308e+00
0	 8.687499999999998e+00	 1.875000000000000e+00	 9.950548461538462e+00
0	 8.750000000000000e+00	 1.250000000000000e+00	 9.927002307692305e+00
0	 8.750000000000000e+00	 1.312500000000000e+00	 9.928776076923079e+00
0	 8.750000000000000e+00	 1.375000000000000e+00	 9.930533230769221e+00
0	 8.750000000000004e+00	 1.437500000000000e+00	 9.932273769230774e+00
0	 8.750000000000000e+00	 1.500000000000000e+00	 9.933997692307685e+00
0	 8.750000000000002e+00	 1.562500000000000e+00	 9.935704999999999e+00
0	 8.750000000000000e+00	 1.625000000000000e+00	 9.937395692307689e+00
0	 8.750000000000000e+00	 1.687500000000000e+00	 9.939069769230764e+00
0	 8.750000000000002e+00	 1.750000000000001e+00	 9.940727230769227e+00
0	 8.750000000000000e+00	 1.812500000000000e+00	 9.942368076923076e+00
0	 8.750000000000000e+00	 1.875000000000000e+00	 9.943992307692307e+00
0	 8.125000000000000e+00	 1.875000000000000e+00	 1.000751846153846e+01
0	 8.125000000000000e+00	 1.937500000000000e+00	 1.000912186153845e+01
0	 8.125000000000000e+00	 2.000000000000000e+00	 1.001072867692308e+01
0	 8.125000000000002e+00	 2.062500000000000e+00	 1.001233890769230e+01
0	 8.125000000000000e+00	 2.125000000000000e+00	 1.001395255384615e+01
0	 8.125000000000000e+00	 2.187500000000000e+00	 1.001556961538461e+01
0	 8.125000000000000e+00	 2.250000000000000e+00	 1.001719009230768e+01
0	 8.125000000000000e+00	 2.312500000000000e+00	 1.001881398461538e+01
0	 8.125000000000002e+00	 2.375000000000001e+00	 1.002044129230769e+01
0	 8.125000000000000e+00	 2.437500000000001e+00	 1.002207201538461e+01
0	 8.125000000000000e+00	 2.500000000000000e+00	 1.002370615384615e+01
0	 8.187500000000002e+00	 1.875000000000000e+00	 1.000136938461538e+01
0	 8.187500000000000e+00	 1.937500000000000e+00	 1.000298670153846e+01
0	 8.187500000000000e+00	 2.000000000000000e+00	 1.000460689846153e+01
0	 8.187499999999998e+00	 2.062500000000000e+00	 1.000622997538460e+01
0	 8.187500000000002e+00	 2.125000000000001e+00	 1.000785593230769e+01
0	 8.187499999999998e+00	 2.187500000000000e+00	 1.000948476923076e+01
0	 8.187500000000000e+00	 2.250000000000000e+00	 1.001111648615384e+01
0	 8.187500000000000e+00	 2.312500000000000e+00	 1.001275108307691e+01
0	 8.187500000000000e+00	 2.375000000000000e+00	 1.001438856000000e+01
0	 8.187499999999998e+00	 2.437500000000000e+00	 1.001602891692307e+01
0	 8.187500000000002e+00	 2.500000000000000e+00	 1.001767215384615e+01
0	 8.250000000000000e+00	 1.875000000000000e+00	 9.995175076923072e+00
0	 8.250000000000002e+00	 1.937500000000000e+00	 9.996811480000005e+00
0	 8.250000000000002e+00	 2.000000000000000e+00	 9.998450227692310e+00
0	 8.250000000000002e+00	 2.062500000000000e+00	 1.000009132000000e+01
0	 8.250000000000000e+00	 2.125000000000000e+00	 1.000173475692307e+01
0	 8.250000000000002e+00	 2.187500000000001e+00	 1.000338053846154e+01
0	 8.250000000000000e+00	 2.250000000000000e+00	 1.000502866461538e+01
0	 8.250000000000002e+00	 2.312500000000000e+00	 1.000667913538461e+01
0	 8.250000000000000e+00	 2.375000000000000e+00	 1.000833195076923e+01
0	 8.250000000000000e+00	 2.437500000000000e+00	 1.000998711076922e+01
0	 8.250000000000000e+00	 2.500000000000000e+00	 1.001164461538462e+01
0	 8.312500000000000e+00	 1.875000000000000e+00	 9.988935538461536e+00
0	 8.312500000000000e+00	 1.937500000000000e+00	 9.990596196923070e+00
0	 8.312500000000000e+00	 2.000000000000000e+00	 9.992258664615385e+00
0	 8.312500000000000e+00	 2.062500000000000e+00	 9.993922941538457e+00
0	 8.312500000000000e+00	 2.125000000000001e+00	 9.995589027692303e+00
0	 8.312499999999998e+00	 2.187500000000000e+00	 9.997256923076918e+00
0	 8.312499999999998e+00	 2.250000000000000e+00	 9.998926627692301e+00
0	 8.312500000000000e+00	 2.312500000000000e+00	 1.000059814153846e+01
0	 8.312499999999998e+00	 2.375000000000000e+00	 1.000227146461538e+01
0	 8.312499999999998e+00	 2.437500000000000e+00	 1.000394659692306e+01
0	 8.312500000000000e+00	 2.500000000000000e+00	 1.000562353846154e+01
0	 8.374999999999998e+00	 1.875000000000000e+00	 9.982650769230769e+00
0	 8.375000000000000e+00	 1.937500000000000e+00	 9.984340852307689e+00
0	 8.374999999999998e+00	 2.000000000000000e+00	 9.986032209230771e+00
0	 8.375000000000000e+00	 2.062500000000000e+00	 9.987724839999998e+00
0	 8.375000000000000e+00	 2.125000000000000e+00	 9.989418744615381e+00
0	 8.374999999999998e+00	 2.187500000000000e+00	 9.991113923076913e+00
0	 8.375000000000002e+00	 2.250000000000000e+00	 9.992810375384607e+00
0	 8.374999999999998e+00	 2.312500000000000e+00	 9.994508101538454e+00
0	 8.375000000000000e+00	 2.375000000000000e+00	 9.996207101538463e+00
0	 8.374999999999998e+00	 2.437500000000000e+00	 9.997907375384614e+00
0	 8.374999999999998e+00	 2.500000000000000e+00	 9.999608923076925e+00
0	 8.437500000000000e+00	 1.875000000000000e+00	 9.976320769230774e+00
0	 8.437499999999996e+00	 1.937500000000000e+00	 9.978045446153835e+00
0	 8.437500000000000e+00	 2.000000000000000e+00	 9.979770861538455e+00
0	 8.437499999999998e+00	 2.062500000000000e+00	 9.981497015384608e+00
0	 8.437499999999998e+00	 2.125000000000000e+00	 9.983223907692306e+00
0	 8.437500000000000e+00	 2.187500000000000e+00	 9.984951538461534e+00
0	 8.437500000000000e+00	 2.250000000000000e+00	 9.986679907692304e+00
0	 8.437500000000000e+00	 2.312500000000001e+00	 9.988409015384608e+00
0	 8.437500000000000e+00	 2.375000000000000e+00	 9.990138861538458e+00
0	 8.437500000000000e+00	 2.437500000000000e+00	 9.991869446153842e+00
0	 8.437500000000000e+00	 2.500000000000000e+00	 9.993600769230763e+00
0	 8.500000000000000e+00	 1.875000000000000e+00	 9.969945538461532e+00
0	 8.499999999999998e+00	 1.937500000000000e+00	 9.971709978461540e+00
0	 8.500000000000000e+00	 2.000000000000000e+00	 9.973474621538454e+00
0	 8.499999999999998e+00	 2.062500000000000e+00	 9.975239467692303e+00
0	 8.499999999999998e+00	 2.125000000000000e+00	 9.977004516923074e+00
0	 8.500000000000000e+00	 2.187500000000000e+00	 9.978769769230777e+00
0	 8.499999999999998e+00	 2.250000000000000e+00	 9.980535224615377e+00
0	 8.499999999999998e+00	 2.312500000000000e+00	 9.982300883076920e+00
0	 8.499999999999998e+00	 2.375000000000001e+00	 9.984066744615372e+00
0	 8.499999999999996e+00	 2.437500000000000e+00	 9.985832809230766e+00
0	 8.500000000000000e+00	 2.500000000000000e+00	 9.987599076923068e+00
0	 8.562499999999998e+00	 1.875000000000000e+00	 9.963525076923080e+00
0	 8.562499999999998e+00	 1.937500000000000e+00	 9.965334449230770e+00
0	 8.562500000000000e+00	 2.000000000000001e+00	 9.967143489230773e+00
0	 8.562499999999998e+00	 2.062500000000000e+00	 9.968952196923077e+00
0	 8.562500000000000e+00	 2.125000000000001e+00	 9.970760572307684e+00
0	 8.562500000000000e+00	 2.187500000000000e+00	 9.972568615384608e+00
0	 8.562499999999998e+00	 2.250000000000000e+00	 9.974376326153843e+00
0	 8.562500000000000e+00	 2.312500000000001e+00	 9.976183704615387e+00
0	 8.562499999999998e+00	 2.375000000000000e+00	 9.977990750769230e+00
0	 8.562500000000000e+00	 2.437500000000000e+00	 9.979797464615382e+00
0	 8.562499999999998e+00	 2.500000000000000e+00	 9.981603846153849e+00
0	 8.624999999999998e+00	 1.875000000000000e+00	 9.957059384615384e+00
0	 8.624999999999998e+00	 1.937500000000000e+00	 9.958918858461534e+00
0	 8.624999999999996e+00	 2.000000000000000e+00	 9.960777464615379e+00
0	 8.624999999999998e+00	 2.062500000000000e+00	 9.962635203076918e+00
0	 8.625000000000000e+00	 2.125000000000000e+00	 9.964492073846147e+00
0	 8.624999999999996e+00	 2.187500000000000e+00	 9.966348076923069e+00
0	 8.624999999999998e+00	 2.250000000000000e+00	 9.968203212307690e+00
0	 8.624999999999998e+00	 2.312500000000000e+00	 9.970057479999992e+00
0	 8.624999999999998e+00	 2.375000000000000e+00	 9.971910879999994e+00
0	 8.624999999999998e+00	 2.437500000000001e+00	 9.973763412307683e+00
0	 8.624999999999998e+00	 2.500000000000000e+00	 9.975615076923070e+00
0	 8.687499999999998e+00	 1.875000000000000e+00	 9.950548461538462e+00
0	 8.687500000000000e+00	 1.937500000000000e+00	 9.952463206153855e+00
0	 8.687499999999998e+00	 2.000000000000000e+00	 9.954376547692309e+00
0	 8.687499999999996e+00	 2.062500000000000e+00	 9.956288486153841e+00
0	 8.687499999999998e+00	 2.125000000000000e+00	 9.958199021538464e+00
0	 8.687499999999998e+00	 2.187500000000000e+00	 9.960108153846157e+00
0	 8.687499999999998e+00	 2.250000000000000e+00	 9.962015883076917e+00
0	 8.687499999999998e+00	 2.312500000000000e+00	 9.963922209230766e+00
0	 8.687499999999996e+00	 2.375000000000000e+00	 9.965827132307691e+00
0	 8.687499999999996e+00	 2.437500000000000e+00	 9.967730652307676e+00
0	 8.687499999999998e+00	 2.500000000000000e+00	 9.969632769230763e+00
0	 8.750000000000000e+00	 1.875000000000000e+00	 9.943992307692307e+00
0	 8.750000000000000e+00	 1.937500000000000e+00	 9.945967492307689e+00
0	 8.750000000000000e+00	 2.000000000000000e+00	 9.947940738461538e+00
0	 8.750000000000004e+00	 2.062500000000000e+00	 9.949912046153838e+00
0	 8.750000000000000e+00	 2.125000000000000e+00	 9.951881415384619e+00
0	 8.750000000000002e+00	 2.187500000000000e+00	 9.953848846153846e+00
0	 8.750000000000000e+00	 2.250000000000000e+00	 9.955814338461529e+00
0	 8.750000000000000e+00	 2.312500000000000e+00	 9.957777892307689e+00
0	 8.750000000000002e+00	 2.375000000000001e+00	 9.959739507692303e+00
0	 8.750000000000000e+00	 2.437500000000001e+00	 9.961699184615391e+00
0	 8.750000000000000e+00	 2.500000000000000e+00	 9.963656923076920e+00
0	 8.125000000000000e+00	 2.500000000000000e+00	 1.002370615384615e+01
0	 8.125000000000000e+00	 2.562500000000000e+00	 1.002505190769231e+01
0	 8.125000000000002e+00	 2.625000000000000e+00	 1.002642055384616e+01
0	 8.125000000000000e+00	 2.687499999999999e+00	 1.002781209230769e+01
0	 8.125000000000000e+00	 2.750000000000000e+00	 1.002922652307692e+01
0	 8.125000000000000e+00	 2.812499999999999e+00	 1.003066384615384e+01
0	 8.125000000000000e+00	 2.874999999999999e+00	 1.003212406153845e+01
0	 8.125000000000000e+00	 2.937499999999998e+00	 1.003360716923077e+01
0	 8.125000000000000e+00	 2.999999999999998e+00	 1.003511316923077e+01
0	 8.125000000000000e+00	 3.062499999999998e+00	 1.003664206153847e+01
0	 8.125000000000000e+00	 3.125000000000000e+00	 1.003819384615385e+01
0	 8.187500000000002e+00	 2.500000000000000e+00	 1.001767215384615e+01
0	 8.187500000000000e+00	 2.562500000000000e+00	 1.001905219076922e+01
0	 8.187500000000000e+00	 2.624999999999999e+00	 1.002045390153846e+01
0	 8.187500000000000e+00	 2.687499999999999e+00	 1.002187728615385e+01
0	 8.187500000000000e+00	 2.750000000000000e+00	 1.002332234461539e+01
0	 8.187500000000000e+00	 2.812499999999999e+00	 1.002478907692308e+01
0	 8.187500000000002e+00	 2.875000000000000e+00	 1.002627748307692e+01
0	 8.187500000000002e+00	 2.937499999999999e+00	 1.002778756307692e+01
0	 8.187500000000002e+00	 2.999999999999999e+00	 1.002931931692308e+01
0	 8.187499999999998e+00	 3.062499999999997e+00	 1.003087274461537e+01
0	 8.187500000000002e+00	 3.125000000000000e+00	 1.003244784615384e+01
0	 8.250000000000000e+00	 2.500000000000000e+00	 1.001164461538462e+01
0	 8.250000000000000e+00	 2.562500000000000e+00	 1.001306367384615e+01
0	 8.250000000000002e+00	 2.625000000000000e+00	 1.001450318769230e+01
0	 8.250000000000000e+00	 2.687500000000000e+00	 1.001596315692307e+01
0	 8.249999999999998e+00	 2.749999999999999e+00	 1.001744358153845e+01
0	 8.250000000000000e+00	 2.812499999999999e+00	 1.001894446153847e+01
0	 8.249999999999998e+00	 2.874999999999999e+00	 1.002046579692307e+01
0	 8.250000000000004e+00	 2.937499999999999e+00	 1.002200758769231e+01
0	 8.249999999999998e+00	 2.999999999999998e+00	 1.002356983384615e+01
0	 8.250000000000000e+00	 3.062499999999999e+00	 1.002515253538461e+01
0	 8.250000000000000e+00	 3.125000000000000e+00	 1.002675569230770e+01
0	 8.312500000000000e+00	 2.500000000000000e+00	 1.000562353846154e+01
0	 8.312500000000000e+00	 2.562500000000000e+00	 1.000708635692307e+01
0	 8.312500000000002e+00	 2.625000000000000e+00	 1.000856841230770e+01
0	 8.312500000000000e+00	 2.687499999999999e+00	 1.001006970461538e+01
0	 8.312500000000000e+00	 2.749999999999999e+00	 1.001159023384615e+01
0	 8.312500000000000e+00	 2.812499999999999e+00	 1.001312999999999e+01
0	 8.312500000000002e+00	 2.874999999999999e+00	 1.001468900307692e+01
0	 8.312500000000000e+00	 2.937499999999999e+00	 1.001626724307691e+01
0	 8.312500000000000e+00	 2.999999999999999e+00	 1.001786472000000e+01
0	 8.312499999999998e+00	 3.062499999999998e+00	 1.001948143384615e+01
0	 8.312500000000000e+00	 3.125000000000000e+00	 1.002111738461538e+01
0	 8.374999999999998e+00	 2.500000000000000e+00	 9.999608923076925e+00
0	 8.374999999999998e+00	 2.562500000000000e+00	 1.000112023999999e+01
0	 8.375000000000000e+00	 2.625000000000000e+00	 1.000264957538462e+01
0	 8.374999999999998e+00	 2.687500000000000e+00	 1.000419692923076e+01
0	 8.374999999999998e+00	 2.750000000000000e+00	 1.000576230153846e+01
0	 8.375000000000000e+00	 2.812499999999999e+00	 1.000734569230769e+01
0	 8.374999999999998e+00	 2.874999999999999e+00	 1.000894710153845e+01
0	 8.374999999999998e+00	 2.937499999999998e+00	 1.001056652923077e+01
0	 8.375000000000000e+00	 2.999999999999999e+00	 1.001220397538462e+01
0	 8.374999999999998e+00	 3.062499999999998e+00	 1.001385944000000e+01
0	 8.374999999999998e+00	 3.125000000000000e+00	 1.001553292307693e+01
0	 8.437500000000000e+00	 2.500000000000000e+00	 9.993600769230763e+00
0	 8.437499999999998e+00	 2.562499999999999e+00	 9.995165323076922e+00
0	 8.437499999999998e+00	 2.625000000000000e+00	 9.996746676923074e+00
0	 8.437500000000000e+00	 2.687500000000000e+00	 9.998344830769229e+00
0	 8.437499999999998e+00	 2.749999999999999e+00	 9.999959784615378e+00
0	 8.437500000000000e+00	 2.812499999999999e+00	 1.000159153846154e+01
0	 8.437500000000002e+00	 2.874999999999999e+00	 1.000324009230769e+01
0	 8.437499999999998e+00	 2.937499999999998e+00	 1.000490544615385e+01
0	 8.437500000000000e+00	 2.999999999999998e+00	 1.000658760000000e+01
0	 8.437500000000000e+00	 3.062499999999998e+00	 1.000828655384614e+01
0	 8.437500000000000e+00	 3.125000000000000e+00	 1.001000230769231e+01
0	 8.500000000000000e+00	 2.500000000000000e+00	 9.987599076923068e+00
0	 8.500000000000000e+00	 2.562500000000000e+00	 9.989221606153841e+00
0	 8.499999999999998e+00	 2.625000000000000e+00	 9.990859716923072e+00
0	 8.500000000000000e+00	 2.687500000000000e+00	 9.992513409230764e+00
0	 8.500000000000002e+00	 2.750000000000000e+00	 9.994182683076918e+00
0	 8.500000000000002e+00	 2.812500000000000e+00	 9.995867538461543e+00
0	 8.499999999999998e+00	 2.874999999999999e+00	 9.997567975384611e+00
0	 8.500000000000000e+00	 2.937499999999999e+00	 9.999283993846152e+00
0	 8.499999999999998e+00	 2.999999999999999e+00	 1.000101559384615e+01
0	 8.500000000000000e+00	 3.062499999999998e+00	 1.000276277538462e+01
0	 8.500000000000000e+00	 3.125000000000000e+00	 1.000452553846154e+01
0	 8.562499999999998e+00	 2.500000000000000e+00	 9.981603846153849e+00
0	 8.562499999999998e+00	 2.562500000000000e+00	 9.983289089230761e+00
0	 8.562500000000000e+00	 2.625000000000000e+00	 9.984988695384605e+00
0	 8.562499999999998e+00	 2.687500000000000e+00	 9.986702664615379e+00
0	 8.562499999999998e+00	 2.749999999999999e+00	 9.988430996923071e+00
0	 8.562499999999998e+00	 2.812499999999999e+00	 9.990173692307685e+00
0	 8.562500000000000e+00	 2.874999999999999e+00	 9.991930750769228e+00
0	 8.562500000000000e+00	 2.937499999999998e+00	 9.993702172307687e+00
0	 8.562500000000000e+00	 2.999999999999998e+00	 9.995487956923075e+00
0	 8.562500000000000e+00	 3.062499999999998e+00	 9.997288104615382e+00
0	 8.562499999999998e+00	 3.125000000000000e+00	 9.999102615384608e+00
0	 8.624999999999998e+00	 2.500000000000000e+00	 9.975615076923070e+00
0	 8.625000000000000e+00	 2.562500000000001e+00	 9.977367772307689e+00
0	 8.625000000000000e+00	 2.625000000000000e+00	 9.979133612307688e+00
0	 8.625000000000000e+00	 2.687500000000000e+00	 9.980912596923069e+00
0	 8.625000000000000e+00	 2.749999999999999e+00	 9.982704726153841e+00
0	 8.624999999999998e+00	 2.812499999999999e+00	 9.984510000000006e+00
0	 8.625000000000000e+00	 2.874999999999999e+00	 9.986328418461527e+00
0	 8.624999999999996e+00	 2.937499999999998e+00	 9.988159981538457e+00
0	 8.625000000000000e+00	 2.999999999999998e+00	 9.990004689230769e+00
0	 8.624999999999998e+00	 3.062499999999998e+00	 9.991862541538456e+00
0	 8.624999999999998e+00	 3.125000000000000e+00	 9.993733538461536e+00
0	 8.687499999999998e+00	 2.500000000000000e+00	 9.969632769230763e+00
0	 8.687499999999998e+00	 2.562500000000000e+00	 9.971457655384608e+00
0	 8.687500000000000e+00	 2.625000000000000e+00	 9.973294467692300e+00
0	 8.687499999999998e+00	 2.687500000000000e+00	 9.975143206153842e+00
0	 8.687499999999996e+00	 2.749999999999999e+00	 9.977003870769231e+00
0	 8.687499999999998e+00	 2.812499999999999e+00	 9.978876461538457e+00
0	 8.687499999999998e+00	 2.874999999999999e+00	 9.980760978461539e+00
0	 8.687499999999998e+00	 2.937499999999998e+00	 9.982657421538450e+00
0	 8.687499999999998e+00	 2.999999999999998e+00	 9.984565790769231e+00
0	 8.687499999999998e+00	 3.062499999999998e+00	 9.986486086153841e+00
0	 8.687499999999998e+00	 3.125000000000000e+00	 9.988418307692303e+00
0	 8.750000000000000e+00	 2.500000000000000e+00	 9.963656923076920e+00
0	 8.750000000000000e+00	 2.562500000000000e+00	 9.965558738461553e+00
0	 8.750000000000002e+00	 2.625000000000000e+00	 9.967471261538464e+00
0	 8.750000000000000e+00	 2.687499999999999e+00	 9.969394492307684e+00
0	 8.750000000000000e+00	 2.750000000000000e+00	 9.971328430769226e+00
0	 8.750000000000000e+00	 2.812499999999999e+00	 9.973273076923078e+00
0	 8.750000000000000e+00	 2.874999999999999e+00	 9.975228430769228e+00
0	 8.750000000000000e+00	 2.937499999999998e+00	 9.977194492307692e+00
0	 8.750000000000000e+00	 2.999999999999998e+00	 9.979171261538458e+00
0	 8.750000000000000e+00	 3.062499999999998e+00	 9.981158738461541e+00
0	 8.750000000000000e+00	 3.125000000000000e+00	 9.983156923076923e+00
0	 8.125000000000000e+00	 3.125000000000000e+00	 1.003819384615385e+01
0	 8.125000000000000e+00	 3.187500000000000e+00	 1.003909184615383e+01
0	 8.125000000000002e+00	 3.250000000000000e+00	 1.004002492307692e+01
0	 8.125000000000000e+00	 3.312499999999999e+00	 1.004099307692308e+01
0	 8.125000000000000e+00	 3.374999999999999e+00	 1.004199630769230e+01
0	 8.125000000000000e+00	 3.437499999999999e+00	 1.004303461538460e+01
0	 8.125000000000000e+00	 3.499999999999999e+00	 1.004410800000000e+01
0	 8.125000000000000e+00	 3.562499999999998e+00	 1.004521646153845e+01
0	 8.125000000000000e+00	 3.624999999999999e+00	 1.004636000000000e+01
0	 8.125000000000000e+00	 3.687499999999998e+00	 1.004753861538460e+01
0	 8.125000000000000e+00	 3.750000000000000e+00	 1.004875230769230e+01
0	 8.187500000000002e+00	 3.125000000000000e+00	 1.003244784615384e+01
0	 8.187500000000000e+00	 3.187500000000000e+00	 1.003340549846154e+01
0	 8.187500000000000e+00	 3.250000000000000e+00	 1.003439660307692e+01
0	 8.187500000000000e+00	 3.312499999999999e+00	 1.003542116000000e+01
0	 8.187500000000000e+00	 3.374999999999999e+00	 1.003647916923077e+01
0	 8.187500000000000e+00	 3.437499999999999e+00	 1.003757063076922e+01
0	 8.187500000000002e+00	 3.500000000000000e+00	 1.003869554461538e+01
0	 8.187500000000002e+00	 3.562499999999999e+00	 1.003985391076923e+01
0	 8.187500000000002e+00	 3.625000000000000e+00	 1.004104572923078e+01
0	 8.187499999999998e+00	 3.687499999999997e+00	 1.004227099999998e+01
0	 8.187500000000002e+00	 3.750000000000000e+00	 1.004352972307693e+01
0	 8.250000000000000e+00	 3.125000000000000e+00	 1.002675569230770e+01
0	 8.250000000000000e+00	 3.187500000000000e+00	 1.002777571076923e+01
0	 8.250000000000002e+00	 3.250000000000000e+00	 1.002882755692307e+01
0	 8.250000000000000e+00	 3.312500000000000e+00	 1.002991123076923e+01
0	 8.249999999999998e+00	 3.374999999999999e+00	 1.003102673230769e+01
0	 8.250000000000000e+00	 3.437499999999999e+00	 1.003217406153846e+01
0	 8.249999999999998e+00	 3.499999999999997e+00	 1.003335321846154e+01
0	 8.250000000000004e+00	 3.562499999999999e+00	 1.003456420307692e+01
0	 8.249999999999998e+00	 3.624999999999998e+00	 1.003580701538461e+01
0	 8.250000000000000e+00	 3.687499999999999e+00	 1.003708165538463e+01
0	 8.250000000000000e+00	 3.750000000000000e+00	 1.003838812307692e+01
0	 8.312500000000000e+00	 3.125000000000000e+00	 1.002111738461538e+01
0	 8.312500000000000e+00	 3.187500000000000e+00	 1.002220248307692e+01
0	 8.312500000000002e+00	 3.250000000000000e+00	 1.002331778461539e+01
0	 8.312500000000000e+00	 3.312500000000000e+00	 1.002446328923077e+01
0	 8.312500000000000e+00	 3.374999999999999e+00	 1.002563899692308e+01
0	 8.312500000000000e+00	 3.437499999999999e+00	 1.002684490769230e+01
0	 8.312500000000002e+00	 3.499999999999998e+00	 1.002808102153847e+01
0	 8.312500000000000e+00	 3.562499999999998e+00	 1.002934733846152e+01
0	 8.312500000000000e+00	 3.624999999999998e+00	 1.003064385846154e+01
0	 8.312499999999998e+00	 3.687499999999998e+00	 1.003197058153846e+01
0	 8.312500000000000e+00	 3.750000000000000e+00	 1.003332750769230e+01
0	 8.374999999999998e+00	 3.125000000000000e+00	 1.001553292307693e+01
0	 8.374999999999998e+00	 3.187500000000000e+00	 1.001668581538462e+01
0	 8.375000000000000e+00	 3.250000000000000e+00	 1.001786728615385e+01
0	 8.374999999999998e+00	 3.312500000000000e+00	 1.001907733538461e+01
0	 8.374999999999998e+00	 3.374999999999999e+00	 1.002031596307692e+01
0	 8.375000000000000e+00	 3.437499999999999e+00	 1.002158316923077e+01
0	 8.374999999999998e+00	 3.499999999999998e+00	 1.002287895384615e+01
0	 8.374999999999998e+00	 3.562499999999998e+00	 1.002420331692307e+01
0	 8.375000000000000e+00	 3.624999999999999e+00	 1.002555625846153e+01
0	 8.374999999999998e+00	 3.687499999999998e+00	 1.002693777846153e+01
0	 8.374999999999998e+00	 3.750000000000000e+00	 1.002834787692307e+01
0	 8.437500000000000e+00	 3.125000000000000e+00	 1.001000230769231e+01
0	 8.437499999999998e+00	 3.187500000000000e+00	 1.001122570769230e+01
0	 8.437499999999998e+00	 3.250000000000000e+00	 1.001247606153847e+01
0	 8.437500000000000e+00	 3.312500000000000e+00	 1.001375336923076e+01
0	 8.437499999999998e+00	 3.374999999999998e+00	 1.001505763076923e+01
0	 8.437500000000000e+00	 3.437499999999999e+00	 1.001638884615384e+01
0	 8.437500000000002e+00	 3.499999999999999e+00	 1.001774701538460e+01
0	 8.437499999999998e+00	 3.562499999999999e+00	 1.001913213846153e+01
0	 8.437500000000000e+00	 3.624999999999998e+00	 1.002054421538462e+01
0	 8.437500000000000e+00	 3.687499999999999e+00	 1.002198324615384e+01
0	 8.437500000000000e+00	 3.750000000000000e+00	 1.002344923076923e+01
0	 8.500000000000000e+00	 3.125000000000000e+00	 1.000452553846154e+01
0	 8.500000000000000e+00	 3.187500000000000e+00	 1.000582216000001e+01
0	 8.499999999999998e+00	 3.249999999999999e+00	 1.000714411076922e+01
0	 8.500000000000000e+00	 3.312499999999999e+00	 1.000849139076923e+01
0	 8.500000000000002e+00	 3.375000000000000e+00	 1.000986400000000e+01
0	 8.500000000000002e+00	 3.437500000000000e+00	 1.001126193846154e+01
0	 8.499999999999998e+00	 3.499999999999999e+00	 1.001268520615385e+01
0	 8.500000000000000e+00	 3.562499999999999e+00	 1.001413380307691e+01
0	 8.499999999999998e+00	 3.624999999999999e+00	 1.001560772923076e+01
0	 8.500000000000000e+00	 3.687499999999998e+00	 1.001710698461539e+01
0	 8.500000000000000e+00	 3.750000000000000e+00	 1.001863156923076e+01
0	 8.562499999999998e+00	 3.125000000000000e+00	 9.999102615384608e+00
0	 8.562499999999998e+00	 3.187500000000000e+00	 1.000047517230770e+01
0	 8.562500000000000e+00	 3.250000000000000e+00	 1.000187143384615e+01
0	 8.562499999999998e+00	 3.312500000000000e+00	 1.000329140000000e+01
0	 8.562499999999998e+00	 3.374999999999999e+00	 1.000473507076923e+01
0	 8.562499999999998e+00	 3.437499999999999e+00	 1.000620244615384e+01
0	 8.562500000000000e+00	 3.499999999999999e+00	 1.000769352615384e+01
0	 8.562500000000000e+00	 3.562499999999999e+00	 1.000920831076922e+01
0	 8.562500000000000e+00	 3.624999999999998e+00	 1.001074680000000e+01
0	 8.562500000000000e+00	 3.687499999999999e+00	 1.001230899384615e+01
0	 8.562499999999998e+00	 3.750000000000000e+00	 1.001389489230769e+01
0	 8.624999999999998e+00	 3.125000000000000e+00	 9.993733538461536e+00
0	 8.625000000000000e+00	 3.187500000000001e+00	 9.995184744615383e+00
0	 8.625000000000000e+00	 3.250000000000000e+00	 9.996658030769224e+00
0	 8.625000000000000e+00	 3.312500000000000e+00	 9.998153396923064e+00
0	 8.625000000000000e+00	 3.374999999999999e+00	 9.999670843076920e+00
0	 8.624999999999998e+00	 3.437499999999999e+00	 1.000121036923077e+01
0	 8.625000000000000e+00	 3.499999999999998e+00	 1.000277197538461e+01
0	 8.624999999999996e+00	 3.562499999999998e+00	 1.000435566153845e+01
0	 8.625000000000000e+00	 3.624999999999998e+00	 1.000596142769231e+01
0	 8.624999999999998e+00	 3.687499999999998e+00	 1.000758927384615e+01
0	 8.624999999999998e+00	 3.750000000000000e+00	 1.000923920000000e+01
0	 8.687499999999998e+00	 3.125000000000000e+00	 9.988418307692303e+00
0	 8.687499999999998e+00	 3.187500000000000e+00	 9.989950876923073e+00
0	 8.687500000000000e+00	 3.250000000000000e+00	 9.991503901538458e+00
0	 8.687499999999998e+00	 3.312500000000000e+00	 9.993077381538452e+00
0	 8.687499999999996e+00	 3.374999999999999e+00	 9.994671316923064e+00
0	 8.687499999999998e+00	 3.437500000000000e+00	 9.996285707692298e+00
0	 8.687499999999998e+00	 3.499999999999998e+00	 9.997920553846143e+00
0	 8.687499999999998e+00	 3.562499999999998e+00	 9.999575855384606e+00
0	 8.687499999999998e+00	 3.624999999999998e+00	 1.000125161230769e+01
0	 8.687499999999998e+00	 3.687499999999997e+00	 1.000294782461538e+01
0	 8.687499999999998e+00	 3.750000000000000e+00	 1.000466449230768e+01
0	 8.750000000000000e+00	 3.125000000000000e+00	 9.983156923076923e+00
0	 8.750000000000000e+00	 3.187500000000000e+00	 9.984773569230759e+00
0	 8.750000000000002e+00	 3.250000000000000e+00	 9.986409046153835e+00
0	 8.750000000000000e+00	 3.312499999999999e+00	 9.988063353846153e+00
0	 8.750000000000000e+00	 3.374999999999999e+00	 9.989736492307689e+00
0	 8.750000000000000e+00	 3.437499999999999e+00	 9.991428461538451e+00
0	 8.750000000000000e+00	 3.499999999999999e+00	 9.993139261538461e+00
0	 8.750000000000000e+00	 3.562499999999998e+00	 9.994868892307693e+00
0	 8.750000000000000e+00	 3.624999999999999e+00	 9.996617353846148e+00
0	 8.750000000000000e+00	 3.687499999999998e+00	 9.998384646153829e+00
0	 8.750000000000000e+00	 3.750000000000000e+00	 1.000017076923076e+01
0	 8.125000000000000e+00	 3.750000000000000e+00	 1.004875230769230e+01
0	 8.125000000000000e+00	 3.812500000000000e+00	 1.004915487692308e+01
0	 8.125000000000002e+00	 3.875000000000000e+00	 1.004959520000000e+01
0	 8.125000000000000e+00	 3.937499999999999e+00	 1.005007327692308e+01
0	 8.125000000000000e+00	 4.000000000000000e+00	 1.005058910769231e+01
0	 8.125000000000000e+00	 4.062499999999999e+00	 1.005114269230770e+01
0	 8.125000000000000e+00	 4.124999999999999e+00	 1.005173403076923e+01
0	 8.125000000000000e+00	 4.187499999999998e+00	 1.005236312307693e+01
0	 8.125000000000000e+00	 4.249999999999998e+00	 1.005302996923078e+01
0	 8.125000000000000e+00	 4.312499999999998e+00	 1.005373456923078e+01
0	 8.125000000000000e+00	 4.375000000000000e+00	 1.005447692307693e+01
0	 8.187500000000002e+00	 3.750000000000000e+00	 1.004352972307693e+01
0	 8.187500000000000e+00	 3.812500000000000e+00	 1.004400462923077e+01
0	 8.187500000000000e+00	 3.875000000000000e+00	 1.004451580307692e+01
0	 8.187500000000000e+00	 3.937500000000000e+00	 1.004506324461539e+01
0	 8.187500000000000e+00	 3.999999999999999e+00	 1.004564695384616e+01
0	 8.187500000000000e+00	 4.062499999999999e+00	 1.004626693076924e+01
0	 8.187500000000002e+00	 4.125000000000000e+00	 1.004692317538461e+01
0	 8.187500000000002e+00	 4.187500000000000e+00	 1.004761568769231e+01
0	 8.187500000000002e+00	 4.250000000000000e+00	 1.004834446769231e+01
0	 8.187499999999998e+00	 4.312499999999997e+00	 1.004910951538462e+01
0	 8.187500000000002e+00	 4.375000000000000e+00	 1.004991083076924e+01
0	 8.250000000000000e+00	 3.750000000000000e+00	 1.003838812307692e+01
0	 8.250000000000000e+00	 3.812500000000000e+00	 1.003893678769231e+01
0	 8.250000000000002e+00	 3.875000000000000e+00	 1.003952023384615e+01
0	 8.250000000000000e+00	 3.937500000000000e+00	 1.004013846153846e+01
0	 8.249999999999998e+00	 3.999999999999999e+00	 1.004079147076923e+01
0	 8.250000000000000e+00	 4.062499999999999e+00	 1.004147926153846e+01
0	 8.249999999999998e+00	 4.124999999999997e+00	 1.004220183384617e+01
0	 8.250000000000004e+00	 4.187499999999998e+00	 1.004295918769231e+01
0	 8.249999999999998e+00	 4.249999999999998e+00	 1.004375132307692e+01
0	 8.250000000000000e+00	 4.312499999999998e+00	 1.004457824000002e+01
0	 8.250000000000000e+00	 4.375000000000000e+00	 1.004543993846153e+01
0	 8.312500000000000e+00	 3.750000000000000e+00	 1.003332750769230e+01
0	 8.312500000000000e+00	 3.812500000000000e+00	 1.003395135230769e+01
0	 8.312500000000002e+00	 3.875000000000000e+00	 1.003460849230768e+01
0	 8.312500000000000e+00	 3.937500000000000e+00	 1.003529892769231e+01
0	 8.312500000000000e+00	 3.999999999999999e+00	 1.003602265846154e+01
0	 8.312500000000000e+00	 4.062500000000000e+00	 1.003677968461538e+01
0	 8.312500000000002e+00	 4.124999999999998e+00	 1.003757000615385e+01
0	 8.312500000000000e+00	 4.187499999999999e+00	 1.003839362307692e+01
0	 8.312500000000000e+00	 4.249999999999998e+00	 1.003925053538460e+01
0	 8.312499999999998e+00	 4.312499999999997e+00	 1.004014074307694e+01
0	 8.312500000000000e+00	 4.375000000000000e+00	 1.004106424615385e+01
0	 8.374999999999998e+00	 3.750000000000000e+00	 1.002834787692307e+01
0	 8.374999999999998e+00	 3.812500000000000e+00	 1.002904832307691e+01
0	 8.375000000000000e+00	 3.875000000000000e+00	 1.002978057846153e+01
0	 8.374999999999998e+00	 3.937500000000000e+00	 1.003054464307691e+01
0	 8.374999999999998e+00	 3.999999999999999e+00	 1.003134051692308e+01
0	 8.375000000000000e+00	 4.062499999999999e+00	 1.003216820000000e+01
0	 8.374999999999998e+00	 4.124999999999998e+00	 1.003302769230769e+01
0	 8.374999999999998e+00	 4.187499999999999e+00	 1.003391899384615e+01
0	 8.375000000000000e+00	 4.249999999999998e+00	 1.003484210461538e+01
0	 8.374999999999998e+00	 4.312499999999998e+00	 1.003579702461538e+01
0	 8.374999999999998e+00	 4.375000000000000e+00	 1.003678375384617e+01
0	 8.437500000000000e+00	 3.750000000000000e+00	 1.002344923076923e+01
0	 8.437499999999998e+00	 3.812500000000000e+00	 1.002422770000000e+01
0	 8.437499999999998e+00	 3.875000000000000e+00	 1.002503649230769e+01
0	 8.437500000000000e+00	 3.937499999999999e+00	 1.002587560769231e+01
0	 8.437499999999998e+00	 3.999999999999998e+00	 1.002674504615384e+01
0	 8.437500000000000e+00	 4.062499999999999e+00	 1.002764480769231e+01
0	 8.437500000000002e+00	 4.125000000000000e+00	 1.002857489230768e+01
0	 8.437499999999998e+00	 4.187499999999998e+00	 1.002953530000000e+01
0	 8.437500000000000e+00	 4.249999999999998e+00	 1.003052603076922e+01
0	 8.437500000000000e+00	 4.312499999999998e+00	 1.003154708461537e+01
0	 8.437500000000000e+00	 4.375000000000000e+00	 1.003259846153847e+01
0	 8.500000000000000e+00	 3.750000000000000e+00	 1.001863156923076e+01
0	 8.500000000000000e+00	 3.812500000000000e+00	 1.001948948307693e+01
0	 8.499999999999998e+00	 3.874999999999999e+00	 1.002037623384614e+01
0	 8.500000000000000e+00	 3.937500000000000e+00	 1.002129182153846e+01
0	 8.500000000000002e+00	 4.000000000000000e+00	 1.002223624615384e+01
0	 8.500000000000002e+00	 4.062500000000000e+00	 1.002320950769232e+01
0	 8.499999999999998e+00	 4.124999999999999e+00	 1.002421160615384e+01
0	 8.500000000000000e+00	 4.187499999999998e+00	 1.002524254153846e+01
0	 8.499999999999998e+00	 4.249999999999999e+00	 1.002630231384615e+01
0	 8.500000000000000e+00	 4.312499999999997e+00	 1.002739092307692e+01
0	 8.500000000000000e+00	 4.375000000000000e+00	 1.002850836923077e+01
0	 8.562499999999998e+00	 3.750000000000000e+00	 1.001389489230769e+01
0	 8.562499999999998e+00	 3.812500000000000e+00	 1.001483367230770e+01
0	 8.562500000000000e+00	 3.875000000000000e+00	 1.001579980307692e+01
0	 8.562499999999998e+00	 3.937499999999999e+00	 1.001679328461538e+01
0	 8.562499999999998e+00	 3.999999999999999e+00	 1.001781411692308e+01
0	 8.562499999999998e+00	 4.062500000000000e+00	 1.001886230000000e+01
0	 8.562500000000000e+00	 4.124999999999999e+00	 1.001993783384615e+01
0	 8.562500000000000e+00	 4.187499999999999e+00	 1.002104071846155e+01
0	 8.562500000000000e+00	 4.249999999999998e+00	 1.002217095384615e+01
0	 8.562500000000000e+00	 4.312499999999998e+00	 1.002332854000001e+01
0	 8.562499999999998e+00	 4.375000000000000e+00	 1.002451347692308e+01
0	 8.624999999999998e+00	 3.750000000000000e+00	 1.000923920000000e+01
0	 8.625000000000000e+00	 3.812500000000000e+00	 1.001026026769231e+01
0	 8.625000000000000e+00	 3.875000000000000e+00	 1.001130719999999e+01
0	 8.625000000000000e+00	 3.937500000000000e+00	 1.001237999692307e+01
0	 8.625000000000000e+00	 3.999999999999999e+00	 1.001347865846154e+01
0	 8.624999999999998e+00	 4.062499999999998e+00	 1.001460318461539e+01
0	 8.625000000000000e+00	 4.124999999999999e+00	 1.001575357538462e+01
0	 8.624999999999996e+00	 4.187499999999998e+00	 1.001692983076923e+01
0	 8.625000000000000e+00	 4.249999999999998e+00	 1.001813195076924e+01
0	 8.624999999999998e+00	 4.312499999999998e+00	 1.001935993538461e+01
0	 8.624999999999998e+00	 4.375000000000000e+00	 1.002061378461539e+01
0	 8.687499999999998e+00	 3.750000000000000e+00	 1.000466449230768e+01
0	 8.687499999999998e+00	 3.812500000000000e+00	 1.000576926923076e+01
0	 8.687500000000000e+00	 3.875000000000000e+00	 1.000689842461538e+01
0	 8.687499999999998e+00	 3.937499999999999e+00	 1.000805195846154e+01
0	 8.687499999999996e+00	 3.999999999999999e+00	 1.000922987076922e+01
0	 8.687499999999998e+00	 4.062499999999998e+00	 1.001043216153846e+01
0	 8.687499999999998e+00	 4.124999999999998e+00	 1.001165883076922e+01
0	 8.687499999999998e+00	 4.187499999999998e+00	 1.001290987846154e+01
0	 8.687499999999998e+00	 4.249999999999998e+00	 1.001418530461538e+01
0	 8.687499999999998e+00	 4.312499999999998e+00	 1.001548510923077e+01
0	 8.687499999999998e+00	 4.375000000000000e+00	 1.001680929230769e+01
0	 8.750000000000000e+00	 3.750000000000000e+00	 1.000017076923076e+01
0	 8.750000000000000e+00	 3.812500000000000e+00	 1.000136067692310e+01
0	 8.750000000000002e+00	 3.875000000000000e+00	 1.000257347692308e+01
0	 8.750000000000000e+00	 3.937499999999999e+00	 1.000380916923076e+01
0	 8.750000000000000e+00	 4.000000000000000e+00	 1.000506775384616e+01
0	 8.750000000000000e+00	 4.062499999999999e+00	 1.000634923076923e+01
0	 8.750000000000000e+00	 4.124999999999999e+00	 1.000765360000000e+01
0	 8.750000000000000e+00	 4.187499999999998e+00	 1.000898086153845e+01
0	 8.750000000000000e+00	 4.249999999999998e+00	 1.001033101538461e+01
0	 8.750000000000000e+00	 4.312499999999998e+00	 1.001170406153847e+01
0	 8.750000000000000e+00	 4.375000000000000e+00	 1.001310000000000e+01
0	 8.125000000000000e+00	 4.375000000000000e+00	 1.005447692307693e+01
0	 8.125000000000000e+00	 4.437499999999999e+00	 1.005439710769232e+01
0	 8.125000000000002e+00	 4.500000000000001e+00	 1.005435181538462e+01
0	 8.125000000000000e+00	 4.562499999999999e+00	 1.005434104615386e+01
0	 8.125000000000000e+00	 4.625000000000000e+00	 1.005436480000000e+01
0	 8.125000000000000e+00	 4.687499999999999e+00	 1.005442307692307e+01
0	 8.125000000000000e+00	 4.749999999999999e+00	 1.005451587692308e+01
0	 8.125000000000000e+00	 4.812499999999998e+00	 1.005464320000000e+01
0	 8.125000000000000e+00	 4.874999999999998e+00	 1.005480504615385e+01
0	 8.125000000000000e+00	 4.937499999999998e+00	 1.005500141538461e+01
0	 8.125000000000000e+00	 5.000000000000000e+00	 1.005523230769231e+01
0	 8.187500000000002e+00	 4.375000000000000e+00	 1.004991083076924e+01
0	 8.187500000000000e+00	 4.437500000000000e+00	 1.004991249538460e+01
0	 8.187500000000000e+00	 4.499999999999999e+00	 1.004994745538461e+01
0	 8.187500000000000e+00	 4.562499999999999e+00	 1.005001571076923e+01
0	 8.187500000000000e+00	 4.625000000000000e+00	 1.005011726153847e+01
0	 8.187500000000000e+00	 4.687500000000001e+00	 1.005025210769231e+01
0	 8.187500000000002e+00	 4.749999999999999e+00	 1.005042024923078e+01
0	 8.187500000000002e+00	 4.812499999999999e+00	 1.005062168615385e+01
0	 8.187500000000002e+00	 4.875000000000000e+00	 1.005085641846155e+01
0	 8.187499999999998e+00	 4.937499999999997e+00	 1.005112444615384e+01
0	 8.187500000000002e+00	 4.999999999999999e+00	 1.005142576923078e+01
0	 8.250000000000000e+00	 4.375000000000000e+00	 1.004543993846153e+01
0	 8.250000000000000e+00	 4.437500000000000e+00	 1.004552271692308e+01
0	 8.250000000000002e+00	 4.500000000000001e+00	 1.004563756307692e+01
0	 8.250000000000000e+00	 4.562499999999999e+00	 1.004578447692308e+01
0	 8.249999999999998e+00	 4.624999999999998e+00	 1.004596345846154e+01
0	 8.250000000000000e+00	 4.687499999999997e+00	 1.004617450769232e+01
0	 8.249999999999998e+00	 4.749999999999998e+00	 1.004641762461539e+01
0	 8.250000000000004e+00	 4.812499999999999e+00	 1.004669280923078e+01
0	 8.249999999999998e+00	 4.874999999999998e+00	 1.004700006153847e+01
0	 8.250000000000000e+00	 4.937499999999998e+00	 1.004733938153846e+01
0	 8.250000000000000e+00	 5.000000000000000e+00	 1.004771076923079e+01
0	 8.312500000000000e+00	 4.375000000000000e+00	 1.004106424615385e+01
0	 8.312500000000000e+00	 4.437500000000000e+00	 1.004122777230769e+01
0	 8.312500000000002e+00	 4.500000000000000e+00	 1.004142213846154e+01
0	 8.312500000000000e+00	 4.562499999999999e+00	 1.004164734461538e+01
0	 8.312500000000000e+00	 4.625000000000000e+00	 1.004190339076924e+01
0	 8.312500000000000e+00	 4.687499999999999e+00	 1.004219027692307e+01
0	 8.312500000000002e+00	 4.749999999999998e+00	 1.004250800307692e+01
0	 8.312500000000000e+00	 4.812499999999998e+00	 1.004285656923078e+01
0	 8.312500000000000e+00	 4.874999999999998e+00	 1.004323597538463e+01
0	 8.312499999999998e+00	 4.937499999999997e+00	 1.004364622153846e+01
0	 8.312500000000000e+00	 4.999999999999999e+00	 1.004408730769231e+01
0	 8.374999999999998e+00	 4.375000000000000e+00	 1.003678375384617e+01
0	 8.374999999999998e+00	 4.437500000000000e+00	 1.003702766153847e+01
0	 8.375000000000000e+00	 4.500000000000000e+00	 1.003730118153846e+01
0	 8.374999999999998e+00	 4.562499999999999e+00	 1.003760431384616e+01
0	 8.374999999999998e+00	 4.624999999999999e+00	 1.003793705846154e+01
0	 8.375000000000000e+00	 4.687500000000000e+00	 1.003829941538462e+01
0	 8.374999999999998e+00	 4.749999999999998e+00	 1.003869138461539e+01
0	 8.374999999999998e+00	 4.812499999999999e+00	 1.003911296615385e+01
0	 8.375000000000000e+00	 4.874999999999998e+00	 1.003956416000000e+01
0	 8.374999999999998e+00	 4.937499999999997e+00	 1.004004496615383e+01
0	 8.374999999999998e+00	 5.000000000000000e+00	 1.004055538461539e+01
0	 8.437500000000000e+00	 4.375000000000000e+00	 1.003259846153847e+01
0	 8.437499999999998e+00	 4.437499999999999e+00	 1.003292238461538e+01
0	 8.437499999999998e+00	 4.499999999999999e+00	 1.003327469230770e+01
0	 8.437500000000000e+00	 4.562499999999999e+00	 1.003365538461538e+01
0	 8.437499999999998e+00	 4.624999999999998e+00	 1.003406446153846e+01
0	 8.437500000000000e+00	 4.687499999999999e+00	 1.003450192307692e+01
0	 8.437500000000002e+00	 4.750000000000000e+00	 1.003496776923078e+01
0	 8.437499999999998e+00	 4.812499999999998e+00	 1.003546200000000e+01
0	 8.437500000000000e+00	 4.874999999999998e+00	 1.003598461538462e+01
0	 8.437500000000000e+00	 4.937499999999999e+00	 1.003653561538462e+01
0	 8.437500000000000e+00	 5.000000000000000e+00	 1.003711500000000e+01
0	 8.500000000000000e+00	 4.375000000000000e+00	 1.002850836923077e+01
0	 8.500000000000000e+00	 4.437499999999999e+00	 1.002891194153846e+01
0	 8.499999999999998e+00	 4.499999999999998e+00	 1.002934267076922e+01
0	 8.500000000000000e+00	 4.562499999999999e+00	 1.002980055692307e+01
0	 8.500000000000002e+00	 4.625000000000001e+00	 1.003028560000000e+01
0	 8.500000000000002e+00	 4.687499999999999e+00	 1.003079780000000e+01
0	 8.499999999999998e+00	 4.749999999999998e+00	 1.003133715692308e+01
0	 8.500000000000000e+00	 4.812499999999999e+00	 1.003190367076924e+01
0	 8.499999999999998e+00	 4.874999999999998e+00	 1.003249734153848e+01
0	 8.500000000000000e+00	 4.937499999999999e+00	 1.003311816923077e+01
0	 8.500000000000000e+00	 5.000000000000001e+00	 1.003376615384616e+01
0	 8.562499999999998e+00	 4.375000000000000e+00	 1.002451347692308e+01
0	 8.562499999999998e+00	 4.437499999999999e+00	 1.002499633230770e+01
0	 8.562500000000000e+00	 4.500000000000000e+00	 1.002550511692306e+01
0	 8.562499999999998e+00	 4.562499999999999e+00	 1.002603983076923e+01
0	 8.562499999999998e+00	 4.625000000000000e+00	 1.002660047384615e+01
0	 8.562499999999998e+00	 4.687500000000000e+00	 1.002718704615384e+01
0	 8.562500000000000e+00	 4.749999999999999e+00	 1.002779954769230e+01
0	 8.562500000000000e+00	 4.812499999999999e+00	 1.002843797846155e+01
0	 8.562500000000000e+00	 4.874999999999998e+00	 1.002910233846153e+01
0	 8.562500000000000e+00	 4.937499999999999e+00	 1.002979262769232e+01
0	 8.562499999999998e+00	 4.999999999999999e+00	 1.003050884615386e+01
0	 8.624999999999998e+00	 4.375000000000000e+00	 1.002061378461539e+01
0	 8.625000000000000e+00	 4.437500000000001e+00	 1.002117555692307e+01
0	 8.625000000000000e+00	 4.499999999999999e+00	 1.002176203076922e+01
0	 8.625000000000000e+00	 4.562500000000000e+00	 1.002237320615384e+01
0	 8.625000000000000e+00	 4.624999999999999e+00	 1.002300908307692e+01
0	 8.624999999999998e+00	 4.687499999999998e+00	 1.002366966153847e+01
0	 8.625000000000000e+00	 4.749999999999999e+00	 1.002435494153846e+01
0	 8.624999999999996e+00	 4.812499999999998e+00	 1.002506492307693e+01
0	 8.625000000000000e+00	 4.874999999999999e+00	 1.002579960615384e+01
0	 8.624999999999998e+00	 4.937499999999998e+00	 1.002655899076922e+01
0	 8.624999999999998e+00	 5.000000000000000e+00	 1.002734307692308e+01
0	 8.687499999999998e+00	 4.375000000000000e+00	 1.001680929230769e+01
0	 8.687499999999998e+00	 4.437500000000000e+00	 1.001744961538460e+01
0	 8.687500000000000e+00	 4.500000000000000e+00	 1.001811341230769e+01
0	 8.687499999999998e+00	 4.562500000000000e+00	 1.001880068307691e+01
0	 8.687499999999996e+00	 4.624999999999999e+00	 1.001951142769230e+01
0	 8.687499999999998e+00	 4.687499999999999e+00	 1.002024564615385e+01
0	 8.687499999999998e+00	 4.749999999999999e+00	 1.002100333846154e+01
0	 8.687499999999998e+00	 4.812499999999998e+00	 1.002178450461538e+01
0	 8.687499999999998e+00	 4.874999999999999e+00	 1.002258914461539e+01
0	 8.687499999999998e+00	 4.937499999999998e+00	 1.002341725846155e+01
0	 8.687499999999998e+00	 5.000000000000000e+00	 1.002426884615385e+01
0	 8.750000000000000e+00	 4.375000000000000e+00	 1.001310000000000e+01
0	 8.750000000000000e+00	 4.437499999999999e+00	 1.001381850769231e+01
0	 8.750000000000002e+00	 4.500000000000001e+00	 1.001455926153845e+01
0	 8.750000000000000e+00	 4.562499999999999e+00	 1.001532226153846e+01
0	 8.750000000000000e+00	 4.625000000000000e+00	 1.001610750769230e+01
0	 8.750000000000000e+00	 4.687499999999999e+00	 1.001691500000000e+01
0	 8.750000000000000e+00	 4.749999999999999e+00	 1.001774473846154e+01
0	 8.750000000000000e+00	 4.812499999999998e+00	 1.001859672307693e+01
0	 8.750000000000000e+00	 4.874999999999998e+00	 1.001947095384616e+01
0	 8.750000000000000e+00	 4.937499999999998e+00	 1.002036743076922e+01
0	 8.750000000000000e+00	 5.000000000000000e+00	 1.002128615384616e+01
0	 8.125000000000000e+00	 5.000000000000000e+00	 1.005523230769231e+01
0	 8.125000000000000e+00	 5.062500000000000e+00	 1.005475844615386e+01
0	 8.125000000000002e+00	 5.125000000000001e+00	 1.005431163076923e+01
0	 8.125000000000000e+00	 5.187499999999999e+00	 1.005389186153845e+01
0	 8.125000000000000e+00	 5.249999999999999e+00	 1.005349913846154e+01
0	 8.125000000000000e+00	 5.312499999999999e+00	 1.005313346153846e+01
0	 8.125000000000000e+00	 5.374999999999998e+00	 1.005279483076922e+01
0	 8.125000000000000e+00	 5.437499999999998e+00	 1.005248324615384e+01
0	 8.125000000000000e+00	 5.499999999999998e+00	 1.005219870769231e+01
0	 8.125000000000000e+00	 5.562499999999998e+00	 1.005194121538460e+01
0	 8.125000000000000e+00	 5.625000000000000e+00	 1.005171076923076e+01
0	 8.187500000000002e+00	 4.999999999999999e+00	 1.005142576923078e+01
0	 8.187500000000000e+00	 5.062500000000000e+00	 1.005103104307693e+01
0	 8.187500000000000e+00	 5.125000000000000e+00	 1.005066255076923e+01
0	 8.187500000000000e+00	 5.187499999999999e+00	 1.005032029230770e+01
0	 8.187500000000000e+00	 5.249999999999998e+00	 1.005000426769231e+01
0	 8.187500000000000e+00	 5.312500000000000e+00	 1.004971447692308e+01
0	 8.187500000000002e+00	 5.374999999999999e+00	 1.004945091999999e+01
0	 8.187500000000002e+00	 5.437499999999999e+00	 1.004921359692307e+01
0	 8.187500000000002e+00	 5.499999999999999e+00	 1.004900250769230e+01
0	 8.187499999999998e+00	 5.562499999999996e+00	 1.004881765230768e+01
0	 8.187500000000002e+00	 5.625000000000000e+00	 1.004865903076923e+01
0	 8.250000000000000e+00	 5.000000000000000e+00	 1.004771076923079e+01
0	 8.250000000000000e+00	 5.062499999999999e+00	 1.004739401538462e+01
0	 8.250000000000002e+00	 5.125000000000001e+00	 1.004710268307692e+01
0	 8.250000000000000e+00	 5.187499999999998e+00	 1.004683677230769e+01
0	 8.249999999999998e+00	 5.249999999999999e+00	 1.004659628307693e+01
0	 8.250000000000000e+00	 5.312499999999999e+00	 1.004638121538461e+01
0	 8.249999999999998e+00	 5.374999999999999e+00	 1.004619156923078e+01
0	 8.250000000000004e+00	 5.437499999999999e+00	 1.004602734461539e+01
0	 8.249999999999998e+00	 5.499999999999998e+00	 1.004588854153846e+01
0	 8.250000000000000e+00	 5.562499999999999e+00	 1.004577515999998e+01
0	 8.250000000000000e+00	 5.625000000000000e+00	 1.004568720000000e+01
0	 8.312500000000000e+00	 4.999999999999999e+00	 1.004408730769231e+01
0	 8.312500000000000e+00	 5.062500000000001e+00	 1.004384736307692e+01
0	 8.312500000000002e+00	 5.125000000000000e+00	 1.004363202769231e+01
0	 8.312500000000000e+00	 5.187499999999999e+00	 1.004344130153847e+01
0	 8.312500000000000e+00	 5.250000000000000e+00	 1.004327518461538e+01
0	 8.312500000000000e+00	 5.312499999999999e+00	 1.004313367692307e+01
0	 8.312500000000002e+00	 5.374999999999998e+00	 1.004301677846153e+01
0	 8.312500000000000e+00	 5.437499999999999e+00	 1.004292448923076e+01
0	 8.312500000000000e+00	 5.499999999999998e+00	 1.004285680923076e+01
0	 8.312499999999998e+00	 5.562499999999997e+00	 1.004281373846152e+01
0	 8.312500000000000e+00	 5.625000000000000e+00	 1.004279527692305e+01
0	 8.374999999999998e+00	 5.000000000000000e+00	 1.004055538461539e+01
0	 8.374999999999998e+00	 5.062500000000000e+00	 1.004039108615384e+01
0	 8.375000000000000e+00	 5.125000000000000e+00	 1.004025058461538e+01
0	 8.374999999999998e+00	 5.187500000000000e+00	 1.004013388000000e+01
0	 8.374999999999998e+00	 5.249999999999999e+00	 1.004004097230769e+01
0	 8.375000000000000e+00	 5.312499999999999e+00	 1.003997186153847e+01
0	 8.374999999999998e+00	 5.374999999999998e+00	 1.003992654769231e+01
0	 8.374999999999998e+00	 5.437499999999999e+00	 1.003990503076924e+01
0	 8.375000000000000e+00	 5.499999999999999e+00	 1.003990731076923e+01
0	 8.374999999999998e+00	 5.562499999999998e+00	 1.003993338769231e+01
0	 8.374999999999998e+00	 5.625000000000000e+00	 1.003998326153844e+01
0	 8.437500000000000e+00	 5.000000000000000e+00	 1.003711500000000e+01
0	 8.437499999999998e+00	 5.062500000000000e+00	 1.003702518461539e+01
0	 8.437499999999998e+00	 5.124999999999999e+00	 1.003695835384616e+01
0	 8.437500000000000e+00	 5.187500000000000e+00	 1.003691450769231e+01
0	 8.437499999999998e+00	 5.249999999999998e+00	 1.003689364615385e+01
0	 8.437500000000000e+00	 5.312499999999999e+00	 1.003689576923077e+01
0	 8.437500000000002e+00	 5.375000000000000e+00	 1.003692087692307e+01
0	 8.437499999999998e+00	 5.437499999999998e+00	 1.003696896923077e+01
0	 8.437500000000000e+00	 5.499999999999998e+00	 1.003704004615384e+01
0	 8.437500000000000e+00	 5.562499999999999e+00	 1.003713410769231e+01
0	 8.437500000000000e+00	 5.625000000000000e+00	 1.003725115384613e+01
0	 8.500000000000000e+00	 5.000000000000001e+00	 1.003376615384616e+01
0	 8.500000000000000e+00	 5.062499999999999e+00	 1.003374965846154e+01
0	 8.499999999999998e+00	 5.125000000000000e+00	 1.003375533538462e+01
0	 8.500000000000000e+00	 5.187500000000000e+00	 1.003378318461539e+01
0	 8.500000000000002e+00	 5.250000000000001e+00	 1.003383320615384e+01
0	 8.500000000000002e+00	 5.312500000000001e+00	 1.003390540000001e+01
0	 8.499999999999998e+00	 5.374999999999999e+00	 1.003399976615385e+01
0	 8.500000000000000e+00	 5.437499999999999e+00	 1.003411630461538e+01
0	 8.499999999999998e+00	 5.499999999999998e+00	 1.003425501538461e+01
0	 8.500000000000000e+00	 5.562499999999998e+00	 1.003441589846154e+01
0	 8.500000000000000e+00	 5.625000000000000e+00	 1.003459895384615e+01
0	 8.562499999999998e+00	 4.999999999999999e+00	 1.003050884615386e+01
0	 8.562499999999998e+00	 5.062500000000000e+00	 1.003056450769230e+01
0	 8.562500000000000e+00	 5.125000000000000e+00	 1.003064152923076e+01
0	 8.562499999999998e+00	 5.187500000000000e+00	 1.003073991076922e+01
0	 8.562499999999998e+00	 5.250000000000000e+00	 1.003085965230769e+01
0	 8.562499999999998e+00	 5.312500000000000e+00	 1.003100075384616e+01
0	 8.562500000000000e+00	 5.374999999999999e+00	 1.003116321538461e+01
0	 8.562500000000000e+00	 5.437499999999998e+00	 1.003134703692306e+01
0	 8.562500000000000e+00	 5.499999999999998e+00	 1.003155221846152e+01
0	 8.562500000000000e+00	 5.562499999999999e+00	 1.003177875999998e+01
0	 8.562499999999998e+00	 5.625000000000000e+00	 1.003202666153846e+01
0	 8.624999999999998e+00	 5.000000000000000e+00	 1.002734307692308e+01
0	 8.625000000000000e+00	 5.062500000000002e+00	 1.002746973230770e+01
0	 8.625000000000000e+00	 5.124999999999999e+00	 1.002761693538462e+01
0	 8.625000000000000e+00	 5.187500000000000e+00	 1.002778468615386e+01
0	 8.625000000000000e+00	 5.249999999999998e+00	 1.002797298461539e+01
0	 8.624999999999998e+00	 5.312499999999999e+00	 1.002818183076924e+01
0	 8.625000000000000e+00	 5.374999999999998e+00	 1.002841122461538e+01
0	 8.624999999999996e+00	 5.437499999999998e+00	 1.002866116615384e+01
0	 8.625000000000000e+00	 5.499999999999999e+00	 1.002893165538463e+01
0	 8.624999999999998e+00	 5.562499999999998e+00	 1.002922269230768e+01
0	 8.624999999999998e+00	 5.625000000000000e+00	 1.002953427692308e+01
0	 8.687499999999998e+00	 5.000000000000000e+00	 1.002426884615385e+01
0	 8.687499999999998e+00	 5.062500000000000e+00	 1.002446533230769e+01
0	 8.687500000000000e+00	 5.125000000000001e+00	 1.002468155384615e+01
0	 8.687499999999998e+00	 5.187499999999999e+00	 1.002491751076922e+01
0	 8.687499999999996e+00	 5.249999999999999e+00	 1.002517320307692e+01
0	 8.687499999999998e+00	 5.312499999999998e+00	 1.002544863076923e+01
0	 8.687499999999998e+00	 5.374999999999997e+00	 1.002574379384615e+01
0	 8.687499999999998e+00	 5.437499999999998e+00	 1.002605869230770e+01
0	 8.687499999999998e+00	 5.499999999999999e+00	 1.002639332615385e+01
0	 8.687499999999998e+00	 5.562499999999998e+00	 1.002674769538460e+01
0	 8.687499999999998e+00	 5.625000000000000e+00	 1.002712179999998e+01
0	 8.750000000000000e+00	 5.000000000000000e+00	 1.002128615384616e+01
0	 8.750000000000000e+00	 5.062500000000000e+00	 1.002155130769233e+01
0	 8.750000000000002e+00	 5.125000000000001e+00	 1.002183538461539e+01
0	 8.750000000000000e+00	 5.187499999999999e+00	 1.002213838461537e+01
0	 8.750000000000000e+00	 5.249999999999999e+00	 1.002246030769230e+01
0	 8.750000000000000e+00	 5.312499999999999e+00	 1.002280115384615e+01
0	 8.750000000000000e+00	 5.374999999999998e+00	 1.002316092307692e+01
0	 8.750000000000000e+00	 5.437499999999998e+00	 1.002353961538461e+01
0	 8.750000000000000e+00	 5.499999999999998e+00	 1.002393723076924e+01
0	 8.750000000000000e+00	 5.562499999999998e+00	 1.002435376923076e+01
0	 8.750000000000000e+00	 5.625000000000000e+00	 1.002478923076923e+01
0	 8.125000000000000e+00	 5.625000000000000e+00	 1.005171076923076e+01
0	 8.125000000000000e+00	 5.687500000000000e+00	 1.005094607692307e+01
0	 8.125000000000002e+00	 5.750000000000000e+00	 1.005019938461537e+01
0	 8.125000000000000e+00	 5.812499999999999e+00	 1.004947069230770e+01
0	 8.125000000000000e+00	 5.874999999999999e+00	 1.004876000000000e+01
0	 8.125000000000000e+00	 5.937499999999999e+00	 1.004806730769230e+01
0	 8.125000000000000e+00	 5.999999999999998e+00	 1.004739261538463e+01
0	 8.125000000000000e+00	 6.062499999999998e+00	 1.004673592307692e+01
0	 8.125000000000000e+00	 6.124999999999998e+00	 1.004609723076924e+01
0	 8.125000000000000e+00	 6.187499999999998e+00	 1.004547653846154e+01
0	 8.125000000000000e+00	 6.250000000000000e+00	 1.004487384615385e+01
0	 8.187500000000002e+00	 5.625000000000000e+00	 1.004865903076923e+01
0	 8.187500000000000e+00	 5.687499999999999e+00	 1.004796839384615e+01
0	 8.187500000000000e+00	 5.749999999999999e+00	 1.004729532307692e+01
0	 8.187500000000000e+00	 5.812499999999998e+00	 1.004663981846154e+01
0	 8.187500000000000e+00	 5.875000000000000e+00	 1.004600188000000e+01
0	 8.187500000000000e+00	 5.937500000000001e+00	 1.004538150769230e+01
0	 8.187500000000002e+00	 5.999999999999999e+00	 1.004477870153847e+01
0	 8.187500000000002e+00	 6.062500000000000e+00	 1.004419346153845e+01
0	 8.187500000000002e+00	 6.125000000000000e+00	 1.004362578769231e+01
0	 8.187499999999998e+00	 6.187499999999996e+00	 1.004307568000000e+01
0	 8.187500000000002e+00	 6.250000000000000e+00	 1.004254313846153e+01
0	 8.250000000000000e+00	 5.625000000000000e+00	 1.004568720000000e+01
0	 8.250000000000000e+00	 5.687499999999999e+00	 1.004506870153846e+01
0	 8.250000000000002e+00	 5.750000000000002e+00	 1.004446733538460e+01
0	 8.250000000000000e+00	 5.812499999999999e+00	 1.004388310153845e+01
0	 8.249999999999998e+00	 5.874999999999998e+00	 1.004331600000000e+01
0	 8.250000000000000e+00	 5.937499999999999e+00	 1.004276603076922e+01
0	 8.249999999999998e+00	 5.999999999999998e+00	 1.004223319384615e+01
0	 8.250000000000004e+00	 6.062499999999999e+00	 1.004171748923077e+01
0	 8.249999999999998e+00	 6.124999999999998e+00	 1.004121891692307e+01
0	 8.250000000000000e+00	 6.187499999999998e+00	 1.004073747692308e+01
0	 8.250000000000000e+00	 6.250000000000000e+00	 1.004027316923078e+01
0	 8.312500000000000e+00	 5.625000000000000e+00	 1.004279527692305e+01
0	 8.312500000000000e+00	 5.687500000000000e+00	 1.004224699999999e+01
0	 8.312500000000002e+00	 5.749999999999999e+00	 1.004171542153844e+01
0	 8.312500000000000e+00	 5.812499999999999e+00	 1.004120054153846e+01
0	 8.312500000000000e+00	 5.875000000000000e+00	 1.004070236000000e+01
0	 8.312500000000000e+00	 5.937500000000000e+00	 1.004022087692307e+01
0	 8.312500000000002e+00	 5.999999999999998e+00	 1.003975609230769e+01
0	 8.312500000000000e+00	 6.062499999999998e+00	 1.003930800615385e+01
0	 8.312500000000000e+00	 6.124999999999997e+00	 1.003887661846153e+01
0	 8.312499999999998e+00	 6.187499999999997e+00	 1.003846192923080e+01
0	 8.312500000000000e+00	 6.250000000000000e+00	 1.003806393846154e+01
0	 8.374999999999998e+00	 5.625000000000000e+00	 1.003998326153844e+01
0	 8.374999999999998e+00	 5.687500000000000e+00	 1.003950328923076e+01
0	 8.375000000000000e+00	 5.750000000000000e+00	 1.003903958153846e+01
0	 8.374999999999998e+00	 5.812500000000000e+00	 1.003859213846154e+01
0	 8.374999999999998e+00	 5.874999999999999e+00	 1.003816095999999e+01
0	 8.375000000000000e+00	 5.937499999999999e+00	 1.003774604615385e+01
0	 8.374999999999998e+00	 5.999999999999997e+00	 1.003734739692308e+01
0	 8.374999999999998e+00	 6.062499999999998e+00	 1.003696501230770e+01
0	 8.375000000000000e+00	 6.124999999999999e+00	 1.003659889230770e+01
0	 8.374999999999998e+00	 6.187499999999998e+00	 1.003624903692309e+01
0	 8.374999999999998e+00	 6.250000000000000e+00	 1.003591544615385e+01
0	 8.437500000000000e+00	 5.625000000000000e+00	 1.003725115384613e+01
0	 8.437499999999998e+00	 5.687500000000000e+00	 1.003683756923077e+01
0	 8.437499999999998e+00	 5.750000000000000e+00	 1.003643981538461e+01
0	 8.437500000000000e+00	 5.812500000000000e+00	 1.003605789230769e+01
0	 8.437499999999998e+00	 5.874999999999998e+00	 1.003569180000001e+01
0	 8.437500000000000e+00	 5.937499999999998e+00	 1.003534153846154e+01
0	 8.437500000000002e+00	 6.000000000000000e+00	 1.003500710769230e+01
0	 8.437499999999998e+00	 6.062499999999998e+00	 1.003468850769232e+01
0	 8.437500000000000e+00	 6.124999999999998e+00	 1.003438573846155e+01
0	 8.437500000000000e+00	 6.187499999999999e+00	 1.003409880000000e+01
0	 8.437500000000000e+00	 6.250000000000000e+00	 1.003382769230771e+01
0	 8.500000000000000e+00	 5.625000000000000e+00	 1.003459895384615e+01
0	 8.500000000000000e+00	 5.687499999999999e+00	 1.003424983999999e+01
0	 8.499999999999998e+00	 5.750000000000000e+00	 1.003391612307691e+01
0	 8.500000000000000e+00	 5.812499999999999e+00	 1.003359780307690e+01
0	 8.500000000000002e+00	 5.875000000000001e+00	 1.003329488000000e+01
0	 8.500000000000002e+00	 5.937499999999999e+00	 1.003300735384615e+01
0	 8.499999999999998e+00	 5.999999999999998e+00	 1.003273522461539e+01
0	 8.500000000000000e+00	 6.062499999999999e+00	 1.003247849230770e+01
0	 8.499999999999998e+00	 6.124999999999998e+00	 1.003223715692308e+01
0	 8.500000000000000e+00	 6.187499999999998e+00	 1.003201121846153e+01
0	 8.500000000000000e+00	 6.250000000000000e+00	 1.003180067692308e+01
0	 8.562499999999998e+00	 5.625000000000000e+00	 1.003202666153846e+01
0	 8.562499999999998e+00	 5.687500000000000e+00	 1.003174010153845e+01
0	 8.562500000000000e+00	 5.750000000000000e+00	 1.003146850461537e+01
0	 8.562499999999998e+00	 5.812499999999999e+00	 1.003121187076923e+01
0	 8.562499999999998e+00	 5.874999999999999e+00	 1.003097020000000e+01
0	 8.562499999999998e+00	 5.937500000000001e+00	 1.003074349230770e+01
0	 8.562500000000000e+00	 5.999999999999999e+00	 1.003053174769231e+01
0	 8.562500000000000e+00	 6.062499999999999e+00	 1.003033496615385e+01
0	 8.562500000000000e+00	 6.124999999999999e+00	 1.003015314769230e+01
0	 8.562500000000000e+00	 6.187499999999999e+00	 1.002998629230770e+01
0	 8.562499999999998e+00	 6.250000000000000e+00	 1.002983440000002e+01
0	 8.624999999999998e+00	 5.625000000000000e+00	 1.002953427692308e+01
0	 8.625000000000000e+00	 5.687500000000000e+00	 1.002930835384615e+01
0	 8.625000000000000e+00	 5.750000000000000e+00	 1.002909696000000e+01
0	 8.625000000000000e+00	 5.812499999999999e+00	 1.002890009538461e+01
0	 8.625000000000000e+00	 5.875000000000000e+00	 1.002871776000000e+01
0	 8.624999999999998e+00	 5.937500000000000e+00	 1.002854995384615e+01
0	 8.625000000000000e+00	 5.999999999999998e+00	 1.002839667692308e+01
0	 8.624999999999996e+00	 6.062499999999998e+00	 1.002825792923077e+01
0	 8.625000000000000e+00	 6.124999999999999e+00	 1.002813371076923e+01
0	 8.624999999999998e+00	 6.187499999999998e+00	 1.002802402153848e+01
0	 8.624999999999998e+00	 6.250000000000000e+00	 1.002792886153846e+01
0	 8.687499999999998e+00	 5.625000000000000e+00	 1.002712179999998e+01
0	 8.687499999999998e+00	 5.687500000000000e+00	 1.002695459692307e+01
0	 8.687500000000000e+00	 5.750000000000000e+00	 1.002680148923076e+01
0	 8.687499999999998e+00	 5.812499999999999e+00	 1.002666247692307e+01
0	 8.687499999999996e+00	 5.875000000000000e+00	 1.002653756000000e+01
0	 8.687499999999998e+00	 5.937499999999999e+00	 1.002642673846153e+01
0	 8.687499999999998e+00	 5.999999999999998e+00	 1.002633001230769e+01
0	 8.687499999999998e+00	 6.062499999999998e+00	 1.002624738153847e+01
0	 8.687499999999998e+00	 6.124999999999998e+00	 1.002617884615385e+01
0	 8.687499999999998e+00	 6.187499999999997e+00	 1.002612440615386e+01
0	 8.687499999999998e+00	 6.250000000000000e+00	 1.002608406153847e+01
0	 8.750000000000000e+00	 5.625000000000000e+00	 1.002478923076923e+01
0	 8.750000000000000e+00	 5.687500000000000e+00	 1.002467883076924e+01
0	 8.750000000000002e+00	 5.750000000000000e+00	 1.002458209230769e+01
0	 8.750000000000000e+00	 5.812499999999999e+00	 1.002449901538463e+01
0	 8.750000000000000e+00	 5.874999999999999e+00	 1.002442960000000e+01
0	 8.750000000000000e+00	 5.937499999999999e+00	 1.002437384615384e+01
0	 8.750000000000000e+00	 5.999999999999998e+00	 1.002433175384617e+01
0	 8.750000000000000e+00	 6.062499999999998e+00	 1.002430332307693e+01
0	 8.750000000000000e+00	 6.124999999999998e+00	 1.002428855384616e+01
0	 8.750000000000000e+00	 6.187499999999998e+00	 1.002428744615386e+01
0	 8.750000000000000e+00	 6.250000000000000e+00	 1.002430000000000e+01
0	 8.125000000000000e+00	 6.250000000000000e+00	 1.004487384615385e+01
0	 8.125000000000000e+00	 6.312500000000000e+00	 1.004394278461539e+01
0	 8.125000000000002e+00	 6.375000000000000e+00	 1.004301975384615e+01
0	 8.125000000000000e+00	 6.437499999999999e+00	 1.004210475384615e+01
0	 8.125000000000000e+00	 6.499999999999999e+00	 1.004119778461539e+01
0	 8.125000000000000e+00	 6.562499999999998e+00	 1.004029884615384e+01
0	 8.125000000000000e+00	 6.624999999999998e+00	 1.003940793846153e+01
0	 8.125000000000000e+00	 6.687499999999998e+00	 1.003852506153846e+01
0	 8.125000000000000e+00	 6.749999999999998e+00	 1.003765021538461e+01
0	 8.125000000000000e+00	 6.812499999999998e+00	 1.003678339999999e+01
0	 8.125000000000000e+00	 6.875000000000000e+00	 1.003592461538461e+01
0	 8.187500000000002e+00	 6.250000000000000e+00	 1.004254313846153e+01
0	 8.187500000000000e+00	 6.312500000000000e+00	 1.004167694461538e+01
0	 8.187500000000000e+00	 6.374999999999999e+00	 1.004081877230768e+01
0	 8.187500000000000e+00	 6.437500000000000e+00	 1.003996862153847e+01
0	 8.187500000000000e+00	 6.499999999999997e+00	 1.003912649230769e+01
0	 8.187500000000000e+00	 6.562500000000000e+00	 1.003829238461538e+01
0	 8.187500000000002e+00	 6.624999999999999e+00	 1.003746629846154e+01
0	 8.187500000000002e+00	 6.687499999999999e+00	 1.003664823384616e+01
0	 8.187500000000002e+00	 6.749999999999999e+00	 1.003583819076922e+01
0	 8.187499999999998e+00	 6.812499999999996e+00	 1.003503616923076e+01
0	 8.187500000000002e+00	 6.875000000000001e+00	 1.003424216923077e+01
0	 8.250000000000000e+00	 6.250000000000000e+00	 1.004027316923078e+01
0	 8.250000000000000e+00	 6.312499999999999e+00	 1.003946971076925e+01
0	 8.250000000000002e+00	 6.375000000000000e+00	 1.003867426461539e+01
0	 8.250000000000000e+00	 6.437499999999998e+00	 1.003788683076923e+01
0	 8.249999999999998e+00	 6.499999999999996e+00	 1.003710740923077e+01
0	 8.250000000000000e+00	 6.562499999999998e+00	 1.003633599999999e+01
0	 8.249999999999998e+00	 6.624999999999996e+00	 1.003557260307692e+01
0	 8.250000000000004e+00	 6.687499999999999e+00	 1.003481721846154e+01
0	 8.249999999999998e+00	 6.749999999999997e+00	 1.003406984615384e+01
0	 8.250000000000000e+00	 6.812500000000000e+00	 1.003333048615382e+01
0	 8.250000000000000e+00	 6.875000000000000e+00	 1.003259913846152e+01
0	 8.312500000000000e+00	 6.250000000000000e+00	 1.003806393846154e+01
0	 8.312500000000000e+00	 6.312499999999999e+00	 1.003732108307694e+01
0	 8.312500000000002e+00	 6.375000000000000e+00	 1.003658623076923e+01
0	 8.312500000000000e+00	 6.437500000000000e+00	 1.003585938153845e+01
0	 8.312500000000000e+00	 6.499999999999998e+00	 1.003514053538462e+01
0	 8.312500000000000e+00	 6.562499999999999e+00	 1.003442969230768e+01
0	 8.312500000000002e+00	 6.624999999999999e+00	 1.003372685230768e+01
0	 8.312500000000000e+00	 6.687499999999998e+00	 1.003303201538459e+01
0	 8.312500000000000e+00	 6.749999999999998e+00	 1.003234518153846e+01
0	 8.312499999999998e+00	 6.812499999999997e+00	 1.003166635076922e+01
0	 8.312500000000000e+00	 6.874999999999999e+00	 1.003099552307691e+01
0	 8.374999999999998e+00	 6.250000000000000e+00	 1.003591544615385e+01
0	 8.374999999999998e+00	 6.312499999999999e+00	 1.003523106153847e+01
0	 8.375000000000000e+00	 6.375000000000000e+00	 1.003455467076924e+01
0	 8.374999999999998e+00	 6.437499999999999e+00	 1.003388627384615e+01
0	 8.374999999999998e+00	 6.499999999999997e+00	 1.003322587076924e+01
0	 8.375000000000000e+00	 6.562499999999999e+00	 1.003257346153845e+01
0	 8.374999999999998e+00	 6.624999999999998e+00	 1.003192904615383e+01
0	 8.374999999999998e+00	 6.687499999999998e+00	 1.003129262461537e+01
0	 8.375000000000000e+00	 6.749999999999998e+00	 1.003066419692306e+01
0	 8.374999999999998e+00	 6.812499999999998e+00	 1.003004376307692e+01
0	 8.374999999999998e+00	 6.875000000000001e+00	 1.002943132307690e+01
0	 8.437500000000000e+00	 6.250000000000000e+00	 1.003382769230771e+01
0	 8.437499999999998e+00	 6.312500000000000e+00	 1.003319964615387e+01
0	 8.437499999999998e+00	 6.375000000000000e+00	 1.003257958461537e+01
0	 8.437500000000000e+00	 6.437499999999999e+00	 1.003196750769231e+01
0	 8.437499999999998e+00	 6.499999999999997e+00	 1.003136341538461e+01
0	 8.437500000000000e+00	 6.562499999999999e+00	 1.003076730769232e+01
0	 8.437500000000002e+00	 6.625000000000000e+00	 1.003017918461538e+01
0	 8.437499999999998e+00	 6.687499999999999e+00	 1.002959904615385e+01
0	 8.437500000000000e+00	 6.749999999999999e+00	 1.002902689230768e+01
0	 8.437500000000000e+00	 6.812499999999998e+00	 1.002846272307690e+01
0	 8.437500000000000e+00	 6.875000000000000e+00	 1.002790653846153e+01
0	 8.500000000000000e+00	 6.250000000000000e+00	 1.003180067692308e+01
0	 8.500000000000000e+00	 6.312499999999999e+00	 1.003122683692308e+01
0	 8.499999999999998e+00	 6.374999999999997e+00	 1.003066097230768e+01
0	 8.500000000000000e+00	 6.437499999999999e+00	 1.003010308307691e+01
0	 8.500000000000002e+00	 6.500000000000000e+00	 1.002955316923077e+01
0	 8.500000000000002e+00	 6.562500000000001e+00	 1.002901123076922e+01
0	 8.499999999999998e+00	 6.624999999999998e+00	 1.002847726769231e+01
0	 8.500000000000000e+00	 6.687499999999999e+00	 1.002795127999999e+01
0	 8.499999999999998e+00	 6.749999999999999e+00	 1.002743326769228e+01
0	 8.500000000000000e+00	 6.812499999999998e+00	 1.002692323076922e+01
0	 8.500000000000000e+00	 6.875000000000000e+00	 1.002642116923074e+01
0	 8.562499999999998e+00	 6.250000000000000e+00	 1.002983440000002e+01
0	 8.562499999999998e+00	 6.312499999999999e+00	 1.002931263384614e+01
0	 8.562500000000000e+00	 6.375000000000001e+00	 1.002879883384615e+01
0	 8.562499999999998e+00	 6.437499999999999e+00	 1.002829299999999e+01
0	 8.562499999999998e+00	 6.500000000000000e+00	 1.002779513230769e+01
0	 8.562499999999998e+00	 6.562499999999999e+00	 1.002730523076924e+01
0	 8.562500000000000e+00	 6.624999999999999e+00	 1.002682329538461e+01
0	 8.562500000000000e+00	 6.687499999999999e+00	 1.002634932615386e+01
0	 8.562500000000000e+00	 6.749999999999998e+00	 1.002588332307691e+01
0	 8.562500000000000e+00	 6.812499999999999e+00	 1.002542528615385e+01
0	 8.562499999999998e+00	 6.875000000000000e+00	 1.002497521538462e+01
0	 8.624999999999998e+00	 6.250000000000000e+00	 1.002792886153846e+01
0	 8.625000000000000e+00	 6.312500000000001e+00	 1.002745703692308e+01
0	 8.625000000000000e+00	 6.374999999999999e+00	 1.002699316923077e+01
0	 8.625000000000000e+00	 6.437500000000000e+00	 1.002653725846154e+01
0	 8.625000000000000e+00	 6.499999999999999e+00	 1.002608930461539e+01
0	 8.624999999999998e+00	 6.562499999999999e+00	 1.002564930769230e+01
0	 8.625000000000000e+00	 6.624999999999998e+00	 1.002521726769231e+01
0	 8.624999999999996e+00	 6.687499999999998e+00	 1.002479318461538e+01
0	 8.625000000000000e+00	 6.749999999999998e+00	 1.002437705846152e+01
0	 8.624999999999998e+00	 6.812499999999998e+00	 1.002396888923075e+01
0	 8.624999999999998e+00	 6.875000000000000e+00	 1.002356867692308e+01
0	 8.687499999999998e+00	 6.250000000000000e+00	 1.002608406153847e+01
0	 8.687499999999998e+00	 6.312500000000000e+00	 1.002566004615386e+01
0	 8.687500000000000e+00	 6.375000000000000e+00	 1.002524397846155e+01
0	 8.687499999999998e+00	 6.437499999999999e+00	 1.002483585846153e+01
0	 8.687499999999996e+00	 6.499999999999998e+00	 1.002443568615385e+01
0	 8.687499999999998e+00	 6.562499999999998e+00	 1.002404346153846e+01
0	 8.687499999999998e+00	 6.624999999999998e+00	 1.002365918461538e+01
0	 8.687499999999998e+00	 6.687499999999998e+00	 1.002328285538462e+01
0	 8.687499999999998e+00	 6.749999999999999e+00	 1.002291447384614e+01
0	 8.687499999999998e+00	 6.812499999999997e+00	 1.002255404000002e+01
0	 8.687499999999998e+00	 6.875000000000000e+00	 1.002220155384616e+01
0	 8.750000000000000e+00	 6.250000000000000e+00	 1.002430000000000e+01
0	 8.750000000000000e+00	 6.312500000000000e+00	 1.002392166153848e+01
0	 8.750000000000002e+00	 6.375000000000000e+00	 1.002355126153848e+01
0	 8.750000000000000e+00	 6.437499999999999e+00	 1.002318879999999e+01
0	 8.750000000000000e+00	 6.499999999999999e+00	 1.002283427692308e+01
0	 8.750000000000000e+00	 6.562499999999998e+00	 1.002248769230769e+01
0	 8.750000000000000e+00	 6.624999999999998e+00	 1.002214904615385e+01
0	 8.750000000000000e+00	 6.687499999999998e+00	 1.002181833846154e+01
0	 8.750000000000000e+00	 6.749999999999998e+00	 1.002149556923078e+01
0	 8.750000000000000e+00	 6.812499999999998e+00	 1.002118073846153e+01
0	 8.750000000000000e+00	 6.875000000000000e+00	 1.002087384615384e+01
0	 8.125000000000000e+00	 6.875000000000000e+00	 1.003592461538461e+01
0	 8.125000000000000e+00	 6.937500000000000e+00	 1.003493659999999e+01
0	 8.125000000000002e+00	 7.000000000000000e+00	 1.003394701538459e+01
0	 8.125000000000000e+00	 7.062500000000000e+00	 1.003295586153846e+01
0	 8.125000000000000e+00	 7.125000000000000e+00	 1.003196313846153e+01
0	 8.125000000000000e+00	 7.187499999999998e+00	 1.003096884615384e+01
0	 8.125000000000000e+00	 7.249999999999998e+00	 1.002997298461538e+01
0	 8.125000000000000e+00	 7.312499999999998e+00	 1.002897555384614e+01
0	 8.125000000000000e+00	 7.374999999999998e+00	 1.002797655384615e+01
0	 8.125000000000000e+00	 7.437499999999998e+00	 1.002697598461538e+01
0	 8.125000000000000e+00	 7.500000000000000e+00	 1.002597384615385e+01
0	 8.187500000000002e+00	 6.875000000000001e+00	 1.003424216923077e+01
0	 8.187500000000000e+00	 6.937499999999999e+00	 1.003330901999998e+01
0	 8.187500000000000e+00	 6.999999999999999e+00	 1.003237456923078e+01
0	 8.187500000000000e+00	 7.062500000000000e+00	 1.003143881692307e+01
0	 8.187500000000000e+00	 7.124999999999998e+00	 1.003050176307693e+01
0	 8.187500000000000e+00	 7.187499999999999e+00	 1.002956340769230e+01
0	 8.187500000000002e+00	 7.250000000000000e+00	 1.002862375076923e+01
0	 8.187500000000002e+00	 7.312499999999999e+00	 1.002768279230769e+01
0	 8.187500000000002e+00	 7.374999999999999e+00	 1.002674053230768e+01
0	 8.187499999999998e+00	 7.437499999999996e+00	 1.002579697076923e+01
0	 8.187500000000002e+00	 7.500000000000000e+00	 1.002485210769230e+01
0	 8.250000000000000e+00	 6.875000000000000e+00	 1.003259913846152e+01
0	 8.250000000000000e+00	 6.937499999999999e+00	 1.003171887384615e+01
0	 8.250000000000002e+00	 7.000000000000001e+00	 1.003083757538460e+01
0	 8.250000000000000e+00	 7.062499999999999e+00	 1.002995524307691e+01
0	 8.249999999999998e+00	 7.124999999999998e+00	 1.002907187692306e+01
0	 8.250000000000000e+00	 7.187499999999999e+00	 1.002818747692306e+01
0	 8.249999999999998e+00	 7.249999999999996e+00	 1.002730204307693e+01
0	 8.250000000000004e+00	 7.312499999999998e+00	 1.002641557538461e+01
0	 8.249999999999998e+00	 7.374999999999997e+00	 1.002552807384614e+01
0	 8.250000000000000e+00	 7.437500000000000e+00	 1.002463953846154e+01
0	 8.250000000000000e+00	 7.499999999999999e+00	 1.002374996923075e+01
0	 8.312500000000000e+00	 6.874999999999999e+00	 1.003099552307691e+01
0	 8.312500000000000e+00	 6.937499999999999e+00	 1.003016616153846e+01
0	 8.312500000000002e+00	 7.000000000000000e+00	 1.002933603384615e+01
0	 8.312500000000000e+00	 7.062500000000000e+00	 1.002850513999999e+01
0	 8.312500000000000e+00	 7.124999999999999e+00	 1.002767348000000e+01
0	 8.312500000000000e+00	 7.187499999999999e+00	 1.002684105384615e+01
0	 8.312500000000002e+00	 7.250000000000000e+00	 1.002600786153845e+01
0	 8.312500000000000e+00	 7.312499999999999e+00	 1.002517390307691e+01
0	 8.312500000000000e+00	 7.374999999999997e+00	 1.002433917846153e+01
0	 8.312499999999998e+00	 7.437499999999998e+00	 1.002350368769229e+01
0	 8.312500000000000e+00	 7.500000000000000e+00	 1.002266743076925e+01
0	 8.374999999999998e+00	 6.875000000000001e+00	 1.002943132307690e+01
0	 8.374999999999998e+00	 6.937499999999999e+00	 1.002865088307691e+01
0	 8.375000000000000e+00	 7.000000000000001e+00	 1.002786994461539e+01
0	 8.374999999999998e+00	 7.062500000000000e+00	 1.002708850769229e+01
0	 8.374999999999998e+00	 7.124999999999999e+00	 1.002630657230768e+01
0	 8.375000000000000e+00	 7.187499999999999e+00	 1.002552413846152e+01
0	 8.374999999999998e+00	 7.249999999999997e+00	 1.002474120615384e+01
0	 8.374999999999998e+00	 7.312499999999998e+00	 1.002395777538460e+01
0	 8.375000000000000e+00	 7.374999999999999e+00	 1.002317384615387e+01
0	 8.374999999999998e+00	 7.437499999999998e+00	 1.002238941846154e+01
0	 8.374999999999998e+00	 7.500000000000000e+00	 1.002160449230770e+01
0	 8.437500000000000e+00	 6.875000000000000e+00	 1.002790653846153e+01
0	 8.437499999999998e+00	 6.937500000000000e+00	 1.002717303846154e+01
0	 8.437499999999998e+00	 7.000000000000000e+00	 1.002643930769229e+01
0	 8.437500000000000e+00	 7.062500000000000e+00	 1.002570534615384e+01
0	 8.437499999999998e+00	 7.124999999999997e+00	 1.002497115384615e+01
0	 8.437500000000000e+00	 7.187499999999999e+00	 1.002423673076923e+01
0	 8.437500000000002e+00	 7.249999999999999e+00	 1.002350207692308e+01
0	 8.437499999999998e+00	 7.312499999999998e+00	 1.002276719230769e+01
0	 8.437500000000000e+00	 7.374999999999997e+00	 1.002203207692309e+01
0	 8.437500000000000e+00	 7.437499999999998e+00	 1.002129673076923e+01
0	 8.437500000000000e+00	 7.500000000000000e+00	 1.002056115384617e+01
0	 8.500000000000000e+00	 6.875000000000000e+00	 1.002642116923074e+01
0	 8.500000000000000e+00	 6.937500000000000e+00	 1.002573262769230e+01
0	 8.499999999999998e+00	 6.999999999999998e+00	 1.002504412307692e+01
0	 8.500000000000000e+00	 7.062500000000000e+00	 1.002435565538460e+01
0	 8.500000000000002e+00	 7.125000000000000e+00	 1.002366722461539e+01
0	 8.500000000000002e+00	 7.187500000000000e+00	 1.002297883076923e+01
0	 8.499999999999998e+00	 7.249999999999998e+00	 1.002229047384615e+01
0	 8.500000000000000e+00	 7.312499999999999e+00	 1.002160215384617e+01
0	 8.499999999999998e+00	 7.374999999999999e+00	 1.002091387076925e+01
0	 8.500000000000000e+00	 7.437499999999998e+00	 1.002022562461538e+01
0	 8.500000000000000e+00	 7.499999999999999e+00	 1.001953741538462e+01
0	 8.562499999999998e+00	 6.875000000000000e+00	 1.002497521538462e+01
0	 8.562499999999998e+00	 6.937499999999999e+00	 1.002432965076922e+01
0	 8.562500000000000e+00	 7.000000000000001e+00	 1.002368439076922e+01
0	 8.562499999999998e+00	 7.062499999999999e+00	 1.002303943538460e+01
0	 8.562499999999998e+00	 7.124999999999999e+00	 1.002239478461538e+01
0	 8.562499999999998e+00	 7.187500000000000e+00	 1.002175043846152e+01
0	 8.562500000000000e+00	 7.249999999999999e+00	 1.002110639692307e+01
0	 8.562500000000000e+00	 7.312500000000000e+00	 1.002046266000000e+01
0	 8.562500000000000e+00	 7.374999999999998e+00	 1.001981922769230e+01
0	 8.562500000000000e+00	 7.437499999999999e+00	 1.001917609999999e+01
0	 8.562499999999998e+00	 7.499999999999998e+00	 1.001853327692308e+01
0	 8.624999999999998e+00	 6.875000000000000e+00	 1.002356867692308e+01
0	 8.625000000000000e+00	 6.937500000000001e+00	 1.002296410769230e+01
0	 8.625000000000000e+00	 6.999999999999998e+00	 1.002236011076922e+01
0	 8.625000000000000e+00	 7.062500000000000e+00	 1.002175668615384e+01
0	 8.625000000000000e+00	 7.125000000000000e+00	 1.002115383384616e+01
0	 8.624999999999998e+00	 7.187500000000000e+00	 1.002055155384616e+01
0	 8.625000000000000e+00	 7.250000000000000e+00	 1.001994984615384e+01
0	 8.624999999999996e+00	 7.312499999999999e+00	 1.001934871076922e+01
0	 8.625000000000000e+00	 7.374999999999998e+00	 1.001874814769230e+01
0	 8.624999999999998e+00	 7.437499999999998e+00	 1.001814815692307e+01
0	 8.624999999999998e+00	 7.500000000000000e+00	 1.001754873846154e+01
0	 8.687499999999998e+00	 6.875000000000000e+00	 1.002220155384616e+01
0	 8.687499999999998e+00	 6.937500000000001e+00	 1.002163599846152e+01
0	 8.687500000000000e+00	 7.000000000000001e+00	 1.002107128307692e+01
0	 8.687499999999998e+00	 7.062500000000000e+00	 1.002050740769230e+01
0	 8.687499999999996e+00	 7.124999999999999e+00	 1.001994437230768e+01
0	 8.687499999999998e+00	 7.187499999999998e+00	 1.001938217692307e+01
0	 8.687499999999998e+00	 7.249999999999999e+00	 1.001882082153845e+01
0	 8.687499999999998e+00	 7.312499999999998e+00	 1.001826030615385e+01
0	 8.687499999999998e+00	 7.374999999999998e+00	 1.001770063076922e+01
0	 8.687499999999998e+00	 7.437499999999998e+00	 1.001714179538464e+01
0	 8.687499999999998e+00	 7.500000000000000e+00	 1.001658380000000e+01
0	 8.750000000000000e+00	 6.875000000000000e+00	 1.002087384615384e+01
0	 8.750000000000000e+00	 6.937500000000000e+00	 1.002034532307693e+01
0	 8.750000000000002e+00	 7.000000000000000e+00	 1.001981790769229e+01
0	 8.750000000000000e+00	 7.062500000000000e+00	 1.001929160000000e+01
0	 8.750000000000000e+00	 7.125000000000000e+00	 1.001876640000000e+01
0	 8.750000000000000e+00	 7.187499999999998e+00	 1.001824230769231e+01
0	 8.750000000000000e+00	 7.249999999999998e+00	 1.001771932307693e+01
0	 8.750000000000000e+00	 7.312499999999998e+00	 1.001719744615384e+01
0	 8.750000000000000e+00	 7.374999999999998e+00	 1.001667667692306e+01
0	 8.750000000000000e+00	 7.437499999999998e+00	 1.001615701538461e+01
0	 8.750000000000000e+00	 7.500000000000000e+00	 1.001563846153845e+01
0	 8.125000000000000e+00	 7.500000000000000e+00	 1.002597384615385e+01
0	 8.125000000000000e+00	 7.562500000000000e+00	 1.002504963076924e+01
0	 8.125000000000002e+00	 7.625000000000000e+00	 1.002411267692309e+01
0	 8.125000000000000e+00	 7.687499999999999e+00	 1.002316298461538e+01
0	 8.125000000000000e+00	 7.750000000000000e+00	 1.002220055384615e+01
0	 8.125000000000000e+00	 7.812499999999999e+00	 1.002122538461537e+01
0	 8.125000000000000e+00	 7.874999999999998e+00	 1.002023747692307e+01
0	 8.125000000000000e+00	 7.937499999999997e+00	 1.001923683076922e+01
0	 8.125000000000000e+00	 7.999999999999998e+00	 1.001822344615383e+01
0	 8.125000000000000e+00	 8.062499999999996e+00	 1.001719732307691e+01
0	 8.125000000000000e+00	 8.125000000000000e+00	 1.001615846153845e+01
0	 8.187500000000002e+00	 7.500000000000000e+00	 1.002485210769230e+01
0	 8.187500000000000e+00	 7.562499999999999e+00	 1.002397228153845e+01
0	 8.187500000000000e+00	 7.624999999999998e+00	 1.002308042769231e+01
0	 8.187500000000000e+00	 7.687499999999998e+00	 1.002217654615384e+01
0	 8.187500000000000e+00	 7.750000000000000e+00	 1.002126063692307e+01
0	 8.187500000000000e+00	 7.812500000000000e+00	 1.002033269999998e+01
0	 8.187500000000002e+00	 7.874999999999999e+00	 1.001939273538461e+01
0	 8.187500000000002e+00	 7.937499999999998e+00	 1.001844074307690e+01
0	 8.187500000000002e+00	 8.000000000000000e+00	 1.001747672307692e+01
0	 8.187499999999998e+00	 8.062499999999995e+00	 1.001650067538461e+01
0	 8.187500000000002e+00	 8.125000000000000e+00	 1.001551260000001e+01
0	 8.250000000000000e+00	 7.499999999999999e+00	 1.002374996923075e+01
0	 8.250000000000000e+00	 7.562500000000001e+00	 1.002291293846154e+01
0	 8.250000000000002e+00	 7.625000000000001e+00	 1.002206459076923e+01
0	 8.250000000000000e+00	 7.687500000000001e+00	 1.002120492615384e+01
0	 8.249999999999998e+00	 7.749999999999998e+00	 1.002033394461539e+01
0	 8.250000000000000e+00	 7.812499999999998e+00	 1.001945164615385e+01
0	 8.249999999999998e+00	 7.874999999999996e+00	 1.001855803076924e+01
0	 8.250000000000004e+00	 7.937499999999998e+00	 1.001765309846153e+01
0	 8.249999999999998e+00	 7.999999999999999e+00	 1.001673684923075e+01
0	 8.250000000000000e+00	 8.062499999999998e+00	 1.001580928307690e+01
0	 8.250000000000000e+00	 8.125000000000000e+00	 1.001487040000002e+01
0	 8.312500000000000e+00	 7.500000000000000e+00	 1.002266743076925e+01
0	 8.312500000000000e+00	 7.562500000000001e+00	 1.002187160153845e+01
0	 8.312500000000002e+00	 7.625000000000001e+00	 1.002106516615384e+01
0	 8.312500000000000e+00	 7.687500000000000e+00	 1.002024812461537e+01
0	 8.312500000000000e+00	 7.749999999999999e+00	 1.001942047692307e+01
0	 8.312500000000000e+00	 7.812499999999999e+00	 1.001858222307694e+01
0	 8.312500000000002e+00	 7.874999999999998e+00	 1.001773336307692e+01
0	 8.312500000000000e+00	 7.937499999999998e+00	 1.001687389692307e+01
0	 8.312500000000000e+00	 7.999999999999998e+00	 1.001600382461540e+01
0	 8.312499999999998e+00	 8.062499999999996e+00	 1.001512314615385e+01
0	 8.312500000000000e+00	 8.125000000000000e+00	 1.001423186153844e+01
0	 8.374999999999998e+00	 7.500000000000000e+00	 1.002160449230770e+01
0	 8.374999999999998e+00	 7.562500000000000e+00	 1.002084827076922e+01
0	 8.375000000000000e+00	 7.625000000000000e+00	 1.002008215384616e+01
0	 8.374999999999998e+00	 7.687500000000000e+00	 1.001930614153845e+01
0	 8.374999999999998e+00	 7.749999999999998e+00	 1.001852023384615e+01
0	 8.375000000000000e+00	 7.812500000000000e+00	 1.001772443076923e+01
0	 8.374999999999998e+00	 7.874999999999998e+00	 1.001691873230769e+01
0	 8.374999999999998e+00	 7.937499999999999e+00	 1.001610313846152e+01
0	 8.375000000000000e+00	 7.999999999999997e+00	 1.001527764923077e+01
0	 8.374999999999998e+00	 8.062500000000000e+00	 1.001444226461538e+01
0	 8.374999999999998e+00	 8.125000000000000e+00	 1.001359698461540e+01
0	 8.437500000000000e+00	 7.500000000000000e+00	 1.002056115384617e+01
0	 8.437499999999998e+00	 7.562499999999999e+00	 1.001984294615384e+01
0	 8.437499999999998e+00	 7.624999999999999e+00	 1.001911555384614e+01
0	 8.437500000000000e+00	 7.687500000000000e+00	 1.001837897692308e+01
0	 8.437499999999998e+00	 7.749999999999996e+00	 1.001763321538461e+01
0	 8.437500000000000e+00	 7.812499999999999e+00	 1.001687826923078e+01
0	 8.437500000000002e+00	 7.875000000000000e+00	 1.001611413846154e+01
0	 8.437499999999998e+00	 7.937499999999999e+00	 1.001534082307692e+01
0	 8.437500000000000e+00	 7.999999999999998e+00	 1.001455832307693e+01
0	 8.437500000000000e+00	 8.062500000000000e+00	 1.001376663846155e+01
0	 8.437500000000000e+00	 8.125000000000000e+00	 1.001296576923077e+01
0	 8.500000000000000e+00	 7.499999999999999e+00	 1.001953741538462e+01
0	 8.500000000000000e+00	 7.562500000000000e+00	 1.001885562769230e+01
0	 8.499999999999998e+00	 7.624999999999998e+00	 1.001816536615384e+01
0	 8.500000000000000e+00	 7.687499999999998e+00	 1.001746663076923e+01
0	 8.500000000000002e+00	 7.750000000000001e+00	 1.001675942153846e+01
0	 8.500000000000002e+00	 7.812500000000000e+00	 1.001604373846154e+01
0	 8.499999999999998e+00	 7.874999999999998e+00	 1.001531958153847e+01
0	 8.500000000000000e+00	 7.937499999999999e+00	 1.001458695076922e+01
0	 8.499999999999998e+00	 8.000000000000000e+00	 1.001384584615386e+01
0	 8.500000000000000e+00	 8.062499999999998e+00	 1.001309626769231e+01
0	 8.500000000000000e+00	 8.125000000000000e+00	 1.001233821538460e+01
0	 8.562499999999998e+00	 7.499999999999998e+00	 1.001853327692308e+01
0	 8.562499999999998e+00	 7.562500000000000e+00	 1.001788631538465e+01
0	 8.562500000000000e+00	 7.624999999999999e+00	 1.001723159076924e+01
0	 8.562499999999998e+00	 7.687500000000000e+00	 1.001656910307692e+01
0	 8.562499999999998e+00	 7.749999999999998e+00	 1.001589885230770e+01
0	 8.562499999999998e+00	 7.812500000000000e+00	 1.001522083846154e+01
0	 8.562500000000000e+00	 7.874999999999999e+00	 1.001453506153847e+01
0	 8.562500000000000e+00	 7.937500000000000e+00	 1.001384152153845e+01
0	 8.562500000000000e+00	 7.999999999999998e+00	 1.001314021846153e+01
0	 8.562500000000000e+00	 8.062500000000000e+00	 1.001243115230769e+01
0	 8.562499999999998e+00	 8.125000000000000e+00	 1.001171432307693e+01
0	 8.624999999999998e+00	 7.500000000000000e+00	 1.001754873846154e+01
0	 8.625000000000000e+00	 7.562500000000001e+00	 1.001693500923077e+01
0	 8.625000000000000e+00	 7.625000000000000e+00	 1.001631422769231e+01
0	 8.625000000000000e+00	 7.687500000000001e+00	 1.001568639384616e+01
0	 8.625000000000000e+00	 7.749999999999999e+00	 1.001505150769231e+01
0	 8.624999999999998e+00	 7.812499999999998e+00	 1.001440956923079e+01
0	 8.625000000000000e+00	 7.875000000000000e+00	 1.001376057846155e+01
0	 8.624999999999996e+00	 7.937499999999998e+00	 1.001310453538462e+01
0	 8.625000000000000e+00	 7.999999999999998e+00	 1.001244143999999e+01
0	 8.624999999999998e+00	 8.062500000000000e+00	 1.001177129230770e+01
0	 8.624999999999998e+00	 8.125000000000000e+00	 1.001109409230769e+01
0	 8.687499999999998e+00	 7.500000000000000e+00	 1.001658380000000e+01
0	 8.687499999999998e+00	 7.562500000000001e+00	 1.001600170923076e+01
0	 8.687500000000000e+00	 7.624999999999999e+00	 1.001541327692306e+01
0	 8.687499999999998e+00	 7.687499999999999e+00	 1.001481850307692e+01
0	 8.687499999999996e+00	 7.750000000000000e+00	 1.001421738769231e+01
0	 8.687499999999998e+00	 7.812499999999999e+00	 1.001360993076923e+01
0	 8.687499999999998e+00	 7.874999999999998e+00	 1.001299613230769e+01
0	 8.687499999999998e+00	 7.937499999999998e+00	 1.001237599230769e+01
0	 8.687499999999998e+00	 7.999999999999998e+00	 1.001174951076922e+01
0	 8.687499999999998e+00	 8.062499999999998e+00	 1.001111668769232e+01
0	 8.687499999999998e+00	 8.125000000000000e+00	 1.001047752307693e+01
0	 8.750000000000000e+00	 7.500000000000000e+00	 1.001563846153845e+01
0	 8.750000000000000e+00	 7.562500000000000e+00	 1.001508641538462e+01
0	 8.750000000000002e+00	 7.625000000000000e+00	 1.001452873846156e+01
0	 8.750000000000000e+00	 7.687499999999999e+00	 1.001396543076923e+01
0	 8.750000000000000e+00	 7.750000000000000e+00	 1.001339649230770e+01
0	 8.750000000000000e+00	 7.812499999999999e+00	 1.001282192307691e+01
0	 8.750000000000000e+00	 7.874999999999998e+00	 1.001224172307693e+01
0	 8.750000000000000e+00	 7.937499999999997e+00	 1.001165589230770e+01
0	 8.750000000000000e+00	 7.999999999999998e+00	 1.001106443076924e+01
0	 8.750000000000000e+00	 8.062499999999996e+00	 1.001046733846154e+01
0	 8.750000000000000e+00	 8.125000000000000e+00	 1.000986461538463e+01
0	 8.125000000000000e+00	 8.125000000000000e+00	 1.001615846153845e+01
0	 8.125000000000000e+00	 8.187500000000000e+00	 1.001541119999998e+01
0	 8.125000000000002e+00	 8.250000000000002e+00	 1.001463956923073e+01
0	 8.125000000000000e+00	 8.312500000000000e+00	 1.001384356923077e+01
0	 8.125000000000000e+00	 8.374999999999998e+00	 1.001302319999999e+01
0	 8.125000000000000e+00	 8.437500000000000e+00	 1.001217846153847e+01
0	 8.125000000000000e+00	 8.500000000000000e+00	 1.001130935384614e+01
0	 8.125000000000000e+00	 8.562499999999998e+00	 1.001041587692307e+01
0	 8.125000000000000e+00	 8.625000000000000e+00	 1.000949803076922e+01
0	 8.125000000000000e+00	 8.687499999999998e+00	 1.000855581538458e+01
0	 8.125000000000000e+00	 8.750000000000000e+00	 1.000758923076924e+01
0	 8.187500000000002e+00	 8.125000000000000e+00	 1.001551260000001e+01
0	 8.187500000000000e+00	 8.187500000000002e+00	 1.001479948769231e+01
0	 8.187500000000000e+00	 8.250000000000000e+00	 1.001406302153846e+01
0	 8.187500000000000e+00	 8.312499999999998e+00	 1.001330320153845e+01
0	 8.187500000000000e+00	 8.374999999999998e+00	 1.001252002769230e+01
0	 8.187500000000000e+00	 8.437500000000000e+00	 1.001171349999999e+01
0	 8.187500000000002e+00	 8.500000000000002e+00	 1.001088361846154e+01
0	 8.187500000000002e+00	 8.562500000000000e+00	 1.001003038307693e+01
0	 8.187500000000002e+00	 8.625000000000002e+00	 1.000915379384617e+01
0	 8.187499999999998e+00	 8.687499999999996e+00	 1.000825385076923e+01
0	 8.187500000000002e+00	 8.750000000000002e+00	 1.000733055384614e+01
0	 8.250000000000000e+00	 8.125000000000000e+00	 1.001487040000002e+01
0	 8.250000000000000e+00	 8.187499999999998e+00	 1.001419016615386e+01
0	 8.250000000000002e+00	 8.250000000000000e+00	 1.001348759384615e+01
0	 8.250000000000000e+00	 8.312500000000000e+00	 1.001276268307692e+01
0	 8.249999999999998e+00	 8.374999999999998e+00	 1.001201543384615e+01
0	 8.250000000000000e+00	 8.437499999999998e+00	 1.001124584615384e+01
0	 8.249999999999998e+00	 8.499999999999996e+00	 1.001045391999999e+01
0	 8.250000000000004e+00	 8.562500000000002e+00	 1.000963965538462e+01
0	 8.249999999999998e+00	 8.624999999999998e+00	 1.000880305230770e+01
0	 8.250000000000000e+00	 8.687499999999998e+00	 1.000794411076924e+01
0	 8.250000000000000e+00	 8.750000000000000e+00	 1.000706283076919e+01
0	 8.312500000000000e+00	 8.125000000000000e+00	 1.001423186153844e+01
0	 8.312500000000000e+00	 8.187500000000000e+00	 1.001358323538462e+01
0	 8.312500000000002e+00	 8.250000000000002e+00	 1.001291328615386e+01
0	 8.312500000000000e+00	 8.312499999999998e+00	 1.001222201384616e+01
0	 8.312500000000000e+00	 8.374999999999998e+00	 1.001150941846154e+01
0	 8.312500000000000e+00	 8.437500000000000e+00	 1.001077549999999e+01
0	 8.312500000000002e+00	 8.499999999999998e+00	 1.001002025846153e+01
0	 8.312500000000000e+00	 8.562500000000000e+00	 1.000924369384614e+01
0	 8.312500000000000e+00	 8.625000000000000e+00	 1.000844580615384e+01
0	 8.312499999999998e+00	 8.687499999999996e+00	 1.000762659538462e+01
0	 8.312500000000000e+00	 8.750000000000000e+00	 1.000678606153847e+01
0	 8.374999999999998e+00	 8.125000000000000e+00	 1.001359698461540e+01
0	 8.374999999999998e+00	 8.187499999999998e+00	 1.001297869538460e+01
0	 8.375000000000000e+00	 8.250000000000002e+00	 1.001234009846154e+01
0	 8.374999999999998e+00	 8.312500000000000e+00	 1.001168119384615e+01
0	 8.374999999999998e+00	 8.374999999999998e+00	 1.001100198153846e+01
0	 8.375000000000000e+00	 8.437500000000000e+00	 1.001030246153845e+01
0	 8.374999999999998e+00	 8.499999999999998e+00	 1.000958263384614e+01
0	 8.374999999999998e+00	 8.562499999999998e+00	 1.000884249846154e+01
0	 8.375000000000000e+00	 8.624999999999998e+00	 1.000808205538463e+01
0	 8.374999999999998e+00	 8.687499999999996e+00	 1.000730130461537e+01
0	 8.374999999999998e+00	 8.749999999999998e+00	 1.000650024615382e+01
0	 8.437500000000000e+00	 8.125000000000000e+00	 1.001296576923077e+01
0	 8.437499999999998e+00	 8.187499999999998e+00	 1.001237654615383e+01
0	 8.437499999999998e+00	 8.249999999999998e+00	 1.001176803076923e+01
0	 8.437500000000000e+00	 8.312500000000000e+00	 1.001114022307691e+01
0	 8.437499999999998e+00	 8.374999999999998e+00	 1.001049312307692e+01
0	 8.437500000000000e+00	 8.437499999999998e+00	 1.000982673076922e+01
0	 8.437500000000002e+00	 8.500000000000002e+00	 1.000914104615383e+01
0	 8.437499999999998e+00	 8.562499999999998e+00	 1.000843606923077e+01
0	 8.437500000000000e+00	 8.624999999999998e+00	 1.000771180000001e+01
0	 8.437500000000000e+00	 8.687500000000000e+00	 1.000696823846152e+01
0	 8.437500000000000e+00	 8.750000000000000e+00	 1.000620538461538e+01
0	 8.500000000000000e+00	 8.125000000000000e+00	 1.001233821538460e+01
0	 8.500000000000000e+00	 8.187500000000000e+00	 1.001177678769230e+01
0	 8.499999999999998e+00	 8.249999999999998e+00	 1.001119708307693e+01
0	 8.500000000000000e+00	 8.312500000000000e+00	 1.001059910153846e+01
0	 8.500000000000002e+00	 8.375000000000002e+00	 1.000998284307693e+01
0	 8.500000000000002e+00	 8.437500000000002e+00	 1.000934830769231e+01
0	 8.499999999999998e+00	 8.499999999999998e+00	 1.000869549538461e+01
0	 8.500000000000000e+00	 8.562500000000000e+00	 1.000802440615385e+01
0	 8.499999999999998e+00	 8.624999999999998e+00	 1.000733503999999e+01
0	 8.500000000000000e+00	 8.687499999999998e+00	 1.000662739692306e+01
0	 8.500000000000000e+00	 8.750000000000000e+00	 1.000590147692306e+01
0	 8.562499999999998e+00	 8.125000000000000e+00	 1.001171432307693e+01
0	 8.562499999999998e+00	 8.187500000000000e+00	 1.001117942000000e+01
0	 8.562500000000000e+00	 8.250000000000000e+00	 1.001062725538459e+01
0	 8.562499999999998e+00	 8.312500000000000e+00	 1.001005782923077e+01
0	 8.562499999999998e+00	 8.374999999999998e+00	 1.000947114153845e+01
0	 8.562499999999998e+00	 8.437500000000000e+00	 1.000886719230769e+01
0	 8.562500000000000e+00	 8.500000000000000e+00	 1.000824598153845e+01
0	 8.562500000000000e+00	 8.562499999999998e+00	 1.000760750923078e+01
0	 8.562500000000000e+00	 8.624999999999998e+00	 1.000695177538459e+01
0	 8.562500000000000e+00	 8.687500000000000e+00	 1.000627877999999e+01
0	 8.562499999999998e+00	 8.750000000000000e+00	 1.000558852307692e+01
0	 8.624999999999998e+00	 8.125000000000000e+00	 1.001109409230769e+01
0	 8.625000000000000e+00	 8.187500000000002e+00	 1.001058444307692e+01
0	 8.625000000000000e+00	 8.250000000000000e+00	 1.001005854769231e+01
0	 8.625000000000000e+00	 8.312500000000000e+00	 1.000951640615386e+01
0	 8.625000000000000e+00	 8.375000000000002e+00	 1.000895801846155e+01
0	 8.624999999999998e+00	 8.437500000000000e+00	 1.000838338461540e+01
0	 8.625000000000000e+00	 8.500000000000000e+00	 1.000779250461539e+01
0	 8.624999999999996e+00	 8.562499999999996e+00	 1.000718537846154e+01
0	 8.625000000000000e+00	 8.624999999999998e+00	 1.000656200615383e+01
0	 8.624999999999998e+00	 8.687499999999998e+00	 1.000592238769231e+01
0	 8.624999999999998e+00	 8.750000000000002e+00	 1.000526652307692e+01
0	 8.687499999999998e+00	 8.125000000000000e+00	 1.001047752307693e+01
0	 8.687499999999998e+00	 8.187500000000000e+00	 1.000999185692308e+01
0	 8.687500000000000e+00	 8.250000000000002e+00	 1.000949096000000e+01
0	 8.687499999999998e+00	 8.312499999999998e+00	 1.000897483230769e+01
0	 8.687499999999996e+00	 8.374999999999998e+00	 1.000844347384617e+01
0	 8.687499999999998e+00	 8.437499999999998e+00	 1.000789688461539e+01
0	 8.687499999999998e+00	 8.499999999999998e+00	 1.000733506461538e+01
0	 8.687499999999998e+00	 8.562499999999998e+00	 1.000675801384614e+01
0	 8.687499999999998e+00	 8.624999999999998e+00	 1.000616573230767e+01
0	 8.687499999999998e+00	 8.687499999999998e+00	 1.000555822000000e+01
0	 8.687499999999998e+00	 8.750000000000000e+00	 1.000493547692309e+01
0	 8.750000000000000e+00	 8.125000000000000e+00	 1.000986461538463e+01
0	 8.750000000000000e+00	 8.187500000000000e+00	 1.000940166153846e+01
0	 8.750000000000002e+00	 8.250000000000002e+00	 1.000892449230770e+01
0	 8.750000000000000e+00	 8.312500000000000e+00	 1.000843310769231e+01
0	 8.750000000000000e+00	 8.374999999999998e+00	 1.000792750769231e+01
0	 8.750000000000000e+00	 8.437500000000000e+00	 1.000740769230769e+01
0	 8.750000000000000e+00	 8.500000000000000e+00	 1.000687366153846e+01
0	 8.750000000000000e+00	 8.562499999999998e+00	 1.000632541538461e+01
0	 8.750000000000000e+00	 8.625000000000000e+00	 1.000576295384615e+01
0	 8.750000000000000e+00	 8.687499999999998e+00	 1.000518627692305e+01
0	 8.750000000000000e+00	 8.750000000000000e+00	 1.000459538461538e+01
0	 8.125000000000000e+00	 8.750000000000000e+00	 1.000758923076924e+01
0	 8.125000000000000e+00	 8.812500000000000e+00	 1.000714344615385e+01
0	 8.125000000000002e+00	 8.875000000000002e+00	 1.000665870769232e+01
0	 8.125000000000000e+00	 8.937499999999998e+00	 1.000613501538461e+01
0	 8.125000000000000e+00	 9.000000000000000e+00	 1.000557236923078e+01
0	 8.125000000000000e+00	 9.062500000000000e+00	 1.000497076923075e+01
0	 8.125000000000000e+00	 9.124999999999998e+00	 1.000433021538459e+01
0	 8.125000000000000e+00	 9.187499999999998e+00	 1.000365070769230e+01
0	 8.125000000000000e+00	 9.249999999999998e+00	 1.000293224615383e+01
0	 8.125000000000000e+00	 9.312499999999998e+00	 1.000217483076922e+01
0	 8.125000000000000e+00	 9.375000000000000e+00	 1.000137846153846e+01
0	 8.187500000000002e+00	 8.750000000000002e+00	 1.000733055384614e+01
0	 8.187500000000000e+00	 8.812499999999998e+00	 1.000690453846154e+01
0	 8.187500000000000e+00	 8.875000000000000e+00	 1.000644118461538e+01
0	 8.187500000000000e+00	 8.937500000000000e+00	 1.000594049230769e+01
0	 8.187500000000000e+00	 9.000000000000000e+00	 1.000540246153846e+01
0	 8.187500000000000e+00	 9.062500000000000e+00	 1.000482709230769e+01
0	 8.187500000000002e+00	 9.125000000000000e+00	 1.000421438461540e+01
0	 8.187500000000002e+00	 9.187499999999998e+00	 1.000356433846155e+01
0	 8.187500000000002e+00	 9.250000000000000e+00	 1.000287695384616e+01
0	 8.187499999999998e+00	 9.312499999999996e+00	 1.000215223076922e+01
0	 8.187500000000002e+00	 9.375000000000000e+00	 1.000139016923078e+01
0	 8.250000000000000e+00	 8.750000000000000e+00	 1.000706283076919e+01
0	 8.250000000000000e+00	 8.812500000000000e+00	 1.000665604615385e+01
0	 8.250000000000002e+00	 8.875000000000004e+00	 1.000621353846153e+01
0	 8.250000000000000e+00	 8.937500000000000e+00	 1.000573530769231e+01
0	 8.249999999999998e+00	 8.999999999999998e+00	 1.000522135384616e+01
0	 8.250000000000000e+00	 9.062500000000000e+00	 1.000467167692308e+01
0	 8.249999999999998e+00	 9.124999999999998e+00	 1.000408627692308e+01
0	 8.250000000000004e+00	 9.187500000000002e+00	 1.000346515384616e+01
0	 8.249999999999998e+00	 9.249999999999996e+00	 1.000280830769230e+01
0	 8.250000000000000e+00	 9.312499999999998e+00	 1.000211573846152e+01
0	 8.250000000000000e+00	 9.375000000000000e+00	 1.000138744615387e+01
0	 8.312500000000000e+00	 8.750000000000000e+00	 1.000678606153847e+01
0	 8.312500000000000e+00	 8.812500000000000e+00	 1.000639796923077e+01
0	 8.312500000000002e+00	 8.875000000000002e+00	 1.000597576923079e+01
0	 8.312500000000000e+00	 8.937500000000000e+00	 1.000551946153847e+01
0	 8.312500000000000e+00	 9.000000000000000e+00	 1.000502904615384e+01
0	 8.312500000000000e+00	 9.062499999999998e+00	 1.000450452307693e+01
0	 8.312500000000002e+00	 9.124999999999998e+00	 1.000394589230769e+01
0	 8.312500000000000e+00	 9.187500000000002e+00	 1.000335315384617e+01
0	 8.312500000000000e+00	 9.249999999999998e+00	 1.000272630769231e+01
0	 8.312499999999998e+00	 9.312499999999998e+00	 1.000206535384616e+01
0	 8.312500000000000e+00	 9.375000000000002e+00	 1.000137029230769e+01
0	 8.374999999999998e+00	 8.749999999999998e+00	 1.000650024615382e+01
0	 8.374999999999998e+00	 8.812500000000000e+00	 1.000613030769230e+01
0	 8.375000000000000e+00	 8.875000000000002e+00	 1.000572787692309e+01
0	 8.374999999999998e+00	 8.937500000000000e+00	 1.000529295384615e+01
0	 8.374999999999998e+00	 8.999999999999998e+00	 1.000482553846154e+01
0	 8.375000000000000e+00	 9.062500000000000e+00	 1.000432563076924e+01
0	 8.374999999999998e+00	 9.124999999999998e+00	 1.000379323076924e+01
0	 8.374999999999998e+00	 9.187500000000000e+00	 1.000322833846153e+01
0	 8.375000000000000e+00	 9.249999999999998e+00	 1.000263095384616e+01
0	 8.374999999999998e+00	 9.312500000000000e+00	 1.000200107692310e+01
0	 8.374999999999998e+00	 9.375000000000002e+00	 1.000133870769232e+01
0	 8.437500000000000e+00	 8.750000000000000e+00	 1.000620538461538e+01
0	 8.437499999999998e+00	 8.812500000000000e+00	 1.000585306153848e+01
0	 8.437499999999998e+00	 8.875000000000000e+00	 1.000546986153845e+01
0	 8.437500000000000e+00	 8.937500000000000e+00	 1.000505578461539e+01
0	 8.437499999999998e+00	 8.999999999999998e+00	 1.000461083076922e+01
0	 8.437500000000000e+00	 9.062500000000000e+00	 1.000413499999999e+01
0	 8.437500000000002e+00	 9.125000000000002e+00	 1.000362829230768e+01
0	 8.437499999999998e+00	 9.187499999999998e+00	 1.000309070769230e+01
0	 8.437500000000000e+00	 9.249999999999998e+00	 1.000252224615386e+01
0	 8.437500000000000e+00	 9.312500000000000e+00	 1.000192290769230e+01
0	 8.437500000000000e+00	 9.375000000000002e+00	 1.000129269230770e+01
0	 8.500000000000000e+00	 8.750000000000000e+00	 1.000590147692306e+01
0	 8.500000000000000e+00	 8.812500000000000e+00	 1.000556623076923e+01
0	 8.499999999999998e+00	 8.874999999999996e+00	 1.000520172307692e+01
0	 8.500000000000000e+00	 8.937499999999998e+00	 1.000480795384614e+01
0	 8.500000000000002e+00	 9.000000000000004e+00	 1.000438492307692e+01
0	 8.500000000000002e+00	 9.062500000000002e+00	 1.000393263076923e+01
0	 8.499999999999998e+00	 9.124999999999998e+00	 1.000345107692307e+01
0	 8.500000000000000e+00	 9.187500000000000e+00	 1.000294026153846e+01
0	 8.499999999999998e+00	 9.249999999999998e+00	 1.000240018461539e+01
0	 8.500000000000000e+00	 9.312499999999998e+00	 1.000183084615386e+01
0	 8.500000000000000e+00	 9.375000000000000e+00	 1.000123224615385e+01
0	 8.562499999999998e+00	 8.750000000000000e+00	 1.000558852307692e+01
0	 8.562499999999998e+00	 8.812499999999998e+00	 1.000526981538463e+01
0	 8.562500000000000e+00	 8.875000000000002e+00	 1.000492346153845e+01
0	 8.562499999999998e+00	 8.937500000000002e+00	 1.000454946153848e+01
0	 8.562499999999998e+00	 8.999999999999998e+00	 1.000414781538462e+01
0	 8.562499999999998e+00	 9.062500000000000e+00	 1.000371852307693e+01
0	 8.562500000000000e+00	 9.125000000000000e+00	 1.000326158461536e+01
0	 8.562500000000000e+00	 9.187500000000000e+00	 1.000277700000001e+01
0	 8.562500000000000e+00	 9.249999999999998e+00	 1.000226476923076e+01
0	 8.562500000000000e+00	 9.312500000000000e+00	 1.000172489230771e+01
0	 8.562499999999998e+00	 9.375000000000000e+00	 1.000115736923076e+01
0	 8.624999999999998e+00	 8.750000000000002e+00	 1.000526652307692e+01
0	 8.625000000000000e+00	 8.812500000000002e+00	 1.000496381538460e+01
0	 8.625000000000000e+00	 8.875000000000000e+00	 1.000463507692307e+01
0	 8.625000000000000e+00	 8.937500000000002e+00	 1.000428030769230e+01
0	 8.625000000000000e+00	 8.999999999999998e+00	 1.000389950769231e+01
0	 8.624999999999998e+00	 9.062499999999998e+00	 1.000349267692309e+01
0	 8.625000000000000e+00	 9.125000000000000e+00	 1.000305981538461e+01
0	 8.624999999999996e+00	 9.187499999999998e+00	 1.000260092307694e+01
0	 8.625000000000000e+00	 9.250000000000000e+00	 1.000211600000003e+01
0	 8.624999999999998e+00	 9.312499999999998e+00	 1.000160504615385e+01
0	 8.624999999999998e+00	 9.375000000000000e+00	 1.000106806153847e+01
0	 8.687499999999998e+00	 8.750000000000000e+00	 1.000493547692309e+01
0	 8.687499999999998e+00	 8.812500000000000e+00	 1.000464823076923e+01
0	 8.687500000000000e+00	 8.875000000000002e+00	 1.000433656923076e+01
0	 8.687499999999998e+00	 8.937500000000000e+00	 1.000400049230770e+01
0	 8.687499999999996e+00	 9.000000000000000e+00	 1.000364000000001e+01
0	 8.687499999999998e+00	 9.062500000000000e+00	 1.000325509230769e+01
0	 8.687499999999998e+00	 9.125000000000000e+00	 1.000284576923075e+01
0	 8.687499999999998e+00	 9.187499999999998e+00	 1.000241203076925e+01
0	 8.687499999999998e+00	 9.249999999999998e+00	 1.000195387692310e+01
0	 8.687499999999998e+00	 9.312499999999996e+00	 1.000147130769231e+01
0	 8.687499999999998e+00	 9.375000000000000e+00	 1.000096432307693e+01
0	 8.750000000000000e+00	 8.750000000000000e+00	 1.000459538461538e+01
0	 8.750000000000000e+00	 8.812500000000000e+00	 1.000432306153846e+01
0	 8.750000000000002e+00	 8.875000000000002e+00	 1.000402793846156e+01
0	 8.750000000000000e+00	 8.937499999999998e+00	 1.000371001538461e+01
0	 8.750000000000000e+00	 9.000000000000000e+00	 1.000336929230770e+01
0	 8.750000000000000e+00	 9.062500000000000e+00	 1.000300576923075e+01
0	 8.750000000000000e+00	 9.124999999999998e+00	 1.000261944615383e+01
0	 8.750000000000000e+00	 9.187499999999998e+00	 1.000221032307691e+01
0	 8.750000000000000e+00	 9.249999999999998e+00	 1.000177840000001e+01
0	 8.750000000000000e+00	 9.312499999999998e+00	 1.000132367692306e+01
0	 8.750000000000000e+00	 9.375000000000000e+00	 1.000084615384615e+01
0	 8.125000000000000e+00	 9.375000000000000e+00	 1.000137846153846e+01
0	 8.124999999999998e+00	 9.437499999999998e+00	 1.000138067692310e+01
0	 8.125000000000000e+00	 9.500000000000000e+00	 1.000132824615385e+01
0	 8.124999999999998e+00	 9.562500000000000e+00	 1.000122116923077e+01
0	 8.125000000000000e+00	 9.625000000000000e+00	 1.000105944615384e+01
0	 8.125000000000000e+00	 9.687499999999998e+00	 1.000084307692309e+01
0	 8.125000000000000e+00	 9.749999999999998e+00	 1.000057206153845e+01
0	 8.125000000000000e+00	 9.812500000000000e+00	 1.000024639999999e+01
0	 8.125000000000002e+00	 9.875000000000000e+00	 9.999866092307656e+00
0	 8.125000000000000e+00	 9.937499999999998e+00	 9.999431138461560e+00
0	 8.125000000000000e+00	 1.000000000000000e+01	 9.998941538461537e+00
0	 8.187500000000002e+00	 9.375000000000000e+00	 1.000139016923078e+01
0	 8.187500000000000e+00	 9.437500000000002e+00	 1.000139474153847e+01
0	 8.187499999999998e+00	 9.500000000000000e+00	 1.000134691076925e+01
0	 8.187499999999998e+00	 9.562500000000000e+00	 1.000124667692309e+01
0	 8.187500000000000e+00	 9.625000000000000e+00	 1.000109404000002e+01
0	 8.187500000000002e+00	 9.687500000000000e+00	 1.000088900000002e+01
0	 8.187500000000002e+00	 9.749999999999998e+00	 1.000063155692307e+01
0	 8.187499999999998e+00	 9.812499999999998e+00	 1.000032171076922e+01
0	 8.187500000000000e+00	 9.874999999999998e+00	 9.999959461538499e+00
0	 8.187500000000000e+00	 9.937499999999996e+00	 9.999544809230812e+00
0	 8.187500000000000e+00	 1.000000000000000e+01	 9.999077753846150e+00
0	 8.250000000000000e+00	 9.375000000000000e+00	 1.000138744615387e+01
0	 8.249999999999998e+00	 9.437499999999998e+00	 1.000139370769231e+01
0	 8.250000000000000e+00	 9.500000000000000e+00	 1.000134980923077e+01
0	 8.250000000000000e+00	 9.562500000000000e+00	 1.000125575076925e+01
0	 8.250000000000000e+00	 9.625000000000002e+00	 1.000111153230769e+01
0	 8.250000000000004e+00	 9.687500000000002e+00	 1.000091715384613e+01
0	 8.250000000000000e+00	 9.750000000000000e+00	 1.000067261538463e+01
0	 8.250000000000004e+00	 9.812500000000002e+00	 1.000037791692307e+01
0	 8.250000000000000e+00	 9.874999999999996e+00	 1.000003305846155e+01
0	 8.250000000000002e+00	 9.937500000000000e+00	 9.999638040000006e+00
0	 8.250000000000000e+00	 1.000000000000000e+01	 9.999192861538450e+00
0	 8.312500000000000e+00	 9.375000000000002e+00	 1.000137029230769e+01
0	 8.312499999999998e+00	 9.437500000000000e+00	 1.000137757538461e+01
0	 8.312499999999998e+00	 9.499999999999996e+00	 1.000133694153845e+01
0	 8.312500000000000e+00	 9.562500000000000e+00	 1.000124839076925e+01
0	 8.312499999999998e+00	 9.624999999999998e+00	 1.000111192307691e+01
0	 8.312499999999998e+00	 9.687500000000000e+00	 1.000092753846157e+01
0	 8.312500000000000e+00	 9.749999999999996e+00	 1.000069523692306e+01
0	 8.312500000000000e+00	 9.812499999999996e+00	 1.000041501846155e+01
0	 8.312500000000000e+00	 9.875000000000000e+00	 1.000008688307686e+01
0	 8.312499999999998e+00	 9.937499999999998e+00	 9.999710830769201e+00
0	 8.312499999999998e+00	 1.000000000000000e+01	 9.999286861538462e+00
0	 8.374999999999998e+00	 9.375000000000002e+00	 1.000133870769232e+01
0	 8.374999999999998e+00	 9.437500000000000e+00	 1.000134634461538e+01
0	 8.375000000000002e+00	 9.500000000000004e+00	 1.000130830769232e+01
0	 8.374999999999998e+00	 9.562500000000000e+00	 1.000122459692310e+01
0	 8.374999999999998e+00	 9.624999999999998e+00	 1.000109521230768e+01
0	 8.375000000000000e+00	 9.687499999999998e+00	 1.000092015384615e+01
0	 8.375000000000000e+00	 9.750000000000000e+00	 1.000069942153850e+01
0	 8.375000000000000e+00	 9.812499999999996e+00	 1.000043301538465e+01
0	 8.375000000000000e+00	 9.874999999999998e+00	 1.000012093538461e+01
0	 8.374999999999998e+00	 9.937499999999996e+00	 9.999763181538484e+00
0	 8.374999999999998e+00	 1.000000000000000e+01	 9.999359753846175e+00
0	 8.437500000000000e+00	 9.375000000000002e+00	 1.000129269230770e+01
0	 8.437499999999998e+00	 9.437499999999998e+00	 1.000130001538461e+01
0	 8.437499999999998e+00	 9.499999999999998e+00	 1.000126390769231e+01
0	 8.437500000000000e+00	 9.562500000000000e+00	 1.000118436923078e+01
0	 8.437499999999998e+00	 9.624999999999998e+00	 1.000106139999999e+01
0	 8.437500000000000e+00	 9.687500000000000e+00	 1.000089500000001e+01
0	 8.437500000000000e+00	 9.750000000000000e+00	 1.000068516923077e+01
0	 8.437500000000000e+00	 9.812499999999998e+00	 1.000043190769233e+01
0	 8.437499999999998e+00	 9.874999999999998e+00	 1.000013521538460e+01
0	 8.437500000000000e+00	 9.937499999999998e+00	 9.999795092307693e+00
0	 8.437500000000000e+00	 1.000000000000000e+01	 9.999411538461572e+00
0	 8.500000000000000e+00	 9.375000000000000e+00	 1.000123224615385e+01
0	 8.499999999999998e+00	 9.437499999999998e+00	 1.000123858769231e+01
0	 8.500000000000000e+00	 9.500000000000000e+00	 1.000120374153846e+01
0	 8.500000000000000e+00	 9.562500000000000e+00	 1.000112770769232e+01
0	 8.499999999999998e+00	 9.625000000000000e+00	 1.000101048615383e+01
0	 8.500000000000000e+00	 9.687499999999998e+00	 1.000085207692309e+01
0	 8.500000000000002e+00	 9.749999999999998e+00	 1.000065247999999e+01
0	 8.499999999999998e+00	 9.812499999999996e+00	 1.000041169538458e+01
0	 8.499999999999998e+00	 9.874999999999998e+00	 1.000012972307689e+01
0	 8.500000000000000e+00	 9.937499999999998e+00	 9.999806563076945e+00
0	 8.500000000000000e+00	 9.999999999999998e+00	 9.999442215384645e+00
0	 8.562499999999998e+00	 9.375000000000000e+00	 1.000115736923076e+01
0	 8.562499999999998e+00	 9.437499999999998e+00	 1.000116206153846e+01
0	 8.562499999999998e+00	 9.499999999999998e+00	 1.000112780923079e+01
0	 8.562499999999998e+00	 9.562500000000002e+00	 1.000105461230770e+01
0	 8.562499999999998e+00	 9.624999999999998e+00	 1.000094247076925e+01
0	 8.562499999999998e+00	 9.687500000000000e+00	 1.000079138461539e+01
0	 8.562500000000002e+00	 9.750000000000000e+00	 1.000060135384613e+01
0	 8.562500000000000e+00	 9.812500000000000e+00	 1.000037237846152e+01
0	 8.562499999999998e+00	 9.874999999999998e+00	 1.000010445846153e+01
0	 8.562499999999998e+00	 9.937499999999998e+00	 9.999797593846154e+00
0	 8.562500000000000e+00	 1.000000000000000e+01	 9.999451784615450e+00
0	 8.624999999999998e+00	 9.375000000000000e+00	 1.000106806153847e+01
0	 8.625000000000000e+00	 9.437500000000002e+00	 1.000107043692309e+01
0	 8.624999999999996e+00	 9.500000000000000e+00	 1.000103611076924e+01
0	 8.624999999999998e+00	 9.562500000000002e+00	 1.000096508307695e+01
0	 8.624999999999996e+00	 9.624999999999998e+00	 1.000085735384616e+01
0	 8.624999999999998e+00	 9.687499999999998e+00	 1.000071292307691e+01
0	 8.624999999999998e+00	 9.750000000000000e+00	 1.000053179076929e+01
0	 8.625000000000000e+00	 9.812499999999998e+00	 1.000031395692308e+01
0	 8.624999999999998e+00	 9.874999999999998e+00	 1.000005942153846e+01
0	 8.624999999999998e+00	 9.937499999999998e+00	 9.999768184615407e+00
0	 8.624999999999998e+00	 1.000000000000000e+01	 9.999440246153833e+00
0	 8.687499999999998e+00	 9.375000000000000e+00	 1.000096432307693e+01
0	 8.687499999999996e+00	 9.437500000000000e+00	 1.000096371384617e+01
0	 8.687499999999998e+00	 9.499999999999998e+00	 1.000092864615386e+01
0	 8.687500000000000e+00	 9.562500000000000e+00	 1.000085912000001e+01
0	 8.687499999999998e+00	 9.624999999999998e+00	 1.000075513538466e+01
0	 8.687499999999996e+00	 9.687499999999996e+00	 1.000061669230769e+01
0	 8.687499999999998e+00	 9.749999999999998e+00	 1.000044379076921e+01
0	 8.687499999999998e+00	 9.812499999999998e+00	 1.000023643076923e+01
0	 8.687499999999996e+00	 9.874999999999996e+00	 9.999994612307750e+00
0	 8.687499999999998e+00	 9.937499999999998e+00	 9.999718335384610e+00
0	 8.687499999999998e+00	 1.000000000000000e+01	 9.999407599999982e+00
0	 8.750000000000000e+00	 9.375000000000000e+00	 1.000084615384615e+01
0	 8.750000000000000e+00	 9.437499999999998e+00	 1.000084189230770e+01
0	 8.750000000000000e+00	 9.500000000000000e+00	 1.000080541538463e+01
0	 8.749999999999998e+00	 9.562500000000000e+00	 1.000073672307694e+01
0	 8.750000000000000e+00	 9.625000000000000e+00	 1.000063581538463e+01
0	 8.750000000000000e+00	 9.687499999999998e+00	 1.000050269230771e+01
0	 8.750000000000000e+00	 9.749999999999998e+00	 1.000033735384616e+01
0	 8.750000000000000e+00	 9.812500000000000e+00	 1.000013980000004e+01
0	 8.750000000000002e+00	 9.875000000000000e+00	 9.999910030769229e+00
0	 8.750000000000000e+00	 9.937499999999998e+00	 9.999648046153840e+00
0	 8.750000000000000e+00	 1.000000000000000e+01	 9.999353846153864e+00
0	 8.750000000000000e+00	 0.000000000000000e+00	 9.911340307692306e+00
0	 8.750000000000002e+00	 6.250000000000000e-02	 9.911920230769224e+00
0	 8.749999999999998e+00	 1.250000000000000e-01	 9.912462861538458e+00
0	 8.750000000000000e+00	 1.875000000000000e-01	 9.912968199999993e+00
0	 8.750000000000002e+00	 2.500000000000000e-01	 9.913436246153834e+00
0	 8.750000000000000e+00	 3.125000000000000e-01	 9.913867000000000e+00
0	 8.750000000000000e+00	 3.750000000000000e-01	 9.914260461538454e+00
0	 8.750000000000000e+00	 4.374999999999999e-01	 9.914616630769235e+00
0	 8.750000000000002e+00	 5.000000000000000e-01	 9.914935507692304e+00
0	 8.750000000000000e+00	 5.624999999999999e-01	 9.915217092307696e+00
0	 8.750000000000000e+00	 6.250000000000000e-01	 9.915461384615380e+00
0	 8.812500000000002e+00	 0.000000000000000e+00	 9.904487449230768e+00
0	 8.812499999999998e+00	 6.249999999999999e-02	 9.905066625846150e+00
0	 8.812500000000000e+00	 1.250000000000000e-01	 9.905609442461536e+00
0	 8.812500000000000e+00	 1.875000000000000e-01	 9.906115899076923e+00
0	 8.812500000000000e+00	 2.500000000000000e-01	 9.906585995692303e+00
0	 8.812500000000000e+00	 3.125000000000001e-01	 9.907019732307692e+00
0	 8.812500000000000e+00	 3.749999999999999e-01	 9.907417108923077e+00
0	 8.812500000000002e+00	 4.374999999999999e-01	 9.907778125538458e+00
0	 8.812500000000002e+00	 5.000000000000000e-01	 9.908102782153847e+00
0	 8.812500000000000e+00	 5.625000000000000e-01	 9.908391078769228e+00
0	 8.812499999999998e+00	 6.250000000000000e-01	 9.908643015384616e+00
0	 8.875000000000000e+00	 0.000000000000000e+00	 9.897392627692307e+00
0	 8.875000000000004e+00	 6.250000000000000e-02	 9.897973155692304e+00
0	 8.875000000000000e+00	 1.250000000000000e-01	 9.898518255999999e+00
0	 8.874999999999998e+00	 1.875000000000000e-01	 9.899027928615389e+00
0	 8.875000000000000e+00	 2.500000000000001e-01	 9.899502173538458e+00
0	 8.875000000000002e+00	 3.125000000000000e-01	 9.899940990769231e+00
0	 8.875000000000002e+00	 3.749999999999999e-01	 9.900344380307693e+00
0	 8.875000000000000e+00	 4.375000000000000e-01	 9.900712342153845e+00
0	 8.875000000000000e+00	 4.999999999999999e-01	 9.901044876307694e+00
0	 8.874999999999998e+00	 5.625000000000000e-01	 9.901341982769230e+00
0	 8.874999999999998e+00	 6.249999999999999e-01	 9.901603661538463e+00
0	 8.937499999999998e+00	 0.000000000000000e+00	 9.890055843076924e+00
0	 8.937499999999998e+00	 6.250000000000000e-02	 9.890639820307694e+00
0	 8.937500000000000e+00	 1.250000000000000e-01	 9.891189302153842e+00
0	 8.937500000000000e+00	 1.875000000000001e-01	 9.891704288615383e+00
0	 8.937500000000004e+00	 2.500000000000001e-01	 9.892184779692302e+00
0	 8.937499999999998e+00	 3.125000000000000e-01	 9.892630775384614e+00
0	 8.937499999999996e+00	 3.749999999999999e-01	 9.893042275692306e+00
0	 8.937499999999998e+00	 4.374999999999999e-01	 9.893419280615380e+00
0	 8.937499999999996e+00	 4.999999999999999e-01	 9.893761790153841e+00
0	 8.937500000000002e+00	 5.625000000000001e-01	 9.894069804307691e+00
0	 8.937500000000000e+00	 6.249999999999999e-01	 9.894343323076917e+00
0	 9.000000000000000e+00	 0.000000000000000e+00	 9.882477095384617e+00
0	 8.999999999999998e+00	 6.250000000000000e-02	 9.883066619692315e+00
0	 8.999999999999998e+00	 1.250000000000000e-01	 9.883622580923078e+00
0	 8.999999999999998e+00	 1.875000000000000e-01	 9.884144979076918e+00
0	 9.000000000000000e+00	 2.500000000000000e-01	 9.884633814153847e+00
0	 8.999999999999998e+00	 3.125000000000000e-01	 9.885089086153840e+00
0	 8.999999999999998e+00	 3.750000000000000e-01	 9.885510795076918e+00
0	 9.000000000000002e+00	 4.375000000000000e-01	 9.885898940923070e+00
0	 9.000000000000000e+00	 4.999999999999999e-01	 9.886253523692300e+00
0	 9.000000000000000e+00	 5.625000000000000e-01	 9.886574543384608e+00
0	 9.000000000000000e+00	 6.250000000000001e-01	 9.886862000000001e+00
0	 9.062499999999998e+00	 0.000000000000000e+00	 9.874656384615387e+00
0	 9.062499999999998e+00	 6.249999999999998e-02	 9.875253553846148e+00
0	 9.062500000000000e+00	 1.250000000000000e-01	 9.875818092307687e+00
0	 9.062499999999998e+00	 1.875000000000000e-01	 9.876350000000000e+00
0	 9.062499999999996e+00	 2.499999999999999e-01	 9.876849276923071e+00
0	 9.062499999999998e+00	 3.125000000000000e-01	 9.877315923076923e+00
0	 9.062499999999998e+00	 3.750000000000000e-01	 9.877749938461539e+00
0	 9.062500000000000e+00	 4.375000000000000e-01	 9.878151323076921e+00
0	 9.062499999999998e+00	 4.999999999999999e-01	 9.878520076923067e+00
0	 9.062500000000002e+00	 5.625000000000001e-01	 9.878856199999996e+00
0	 9.062500000000000e+00	 6.250000000000000e-01	 9.879159692307688e+00
0	 9.124999999999998e+00	 0.000000000000000e+00	 9.866593710769237e+00
0	 9.124999999999998e+00	 6.249999999999999e-02	 9.867200622769225e+00
0	 9.124999999999998e+00	 1.250000000000000e-01	 9.867775836307702e+00
0	 9.124999999999998e+00	 1.875000000000001e-01	 9.868319351384612e+00
0	 9.124999999999998e+00	 2.500000000000001e-01	 9.868831167999996e+00
0	 9.125000000000000e+00	 3.125000000000001e-01	 9.869311286153843e+00
0	 9.124999999999998e+00	 3.749999999999999e-01	 9.869759705846150e+00
0	 9.125000000000000e+00	 4.375000000000000e-01	 9.870176427076920e+00
0	 9.124999999999998e+00	 4.999999999999998e-01	 9.870561449846150e+00
0	 9.124999999999998e+00	 5.624999999999999e-01	 9.870914774153844e+00
0	 9.124999999999998e+00	 6.250000000000001e-01	 9.871236400000001e+00
0	 9.187500000000000e+00	 0.000000000000000e+00	 9.858289073846155e+00
0	 9.187499999999998e+00	 6.250000000000000e-02	 9.858907826461543e+00
0	 9.187499999999998e+00	 1.250000000000000e-01	 9.859495812923079e+00
0	 9.187499999999998e+00	 1.875000000000000e-01	 9.860053033230768e+00
0	 9.187500000000000e+00	 2.500000000000000e-01	 9.860579487384616e+00
0	 9.187500000000000e+00	 3.125000000000001e-01	 9.861075175384613e+00
0	 9.187499999999998e+00	 3.750000000000000e-01	 9.861540097230767e+00
0	 9.187499999999998e+00	 4.375000000000000e-01	 9.861974252923076e+00
0	 9.187499999999998e+00	 4.999999999999999e-01	 9.862377642461535e+00
0	 9.187500000000000e+00	 5.625000000000000e-01	 9.862750265846151e+00
0	 9.187499999999998e+00	 6.249999999999999e-01	 9.863092123076930e+00
0	 9.249999999999998e+00	 0.000000000000000e+00	 9.849742473846156e+00
0	 9.249999999999996e+00	 6.249999999999999e-02	 9.850375164923078e+00
0	 9.250000000000000e+00	 1.250000000000000e-01	 9.850978022153848e+00
0	 9.250000000000000e+00	 1.875000000000001e-01	 9.851551045538459e+00
0	 9.249999999999996e+00	 2.500000000000000e-01	 9.852094235076924e+00
0	 9.249999999999996e+00	 3.124999999999999e-01	 9.852607590769228e+00
0	 9.249999999999998e+00	 3.749999999999999e-01	 9.853091112615379e+00
0	 9.249999999999998e+00	 4.375000000000000e-01	 9.853544800615376e+00
0	 9.249999999999996e+00	 4.999999999999999e-01	 9.853968654769226e+00
0	 9.249999999999998e+00	 5.625000000000000e-01	 9.854362675076915e+00
0	 9.249999999999998e+00	 6.250000000000000e-01	 9.854726861538456e+00
0	 9.312499999999998e+00	 0.000000000000000e+00	 9.840953910769231e+00
0	 9.312499999999998e+00	 6.250000000000000e-02	 9.841602638153846e+00
0	 9.312499999999998e+00	 1.250000000000000e-01	 9.842222463999992e+00
0	 9.312500000000000e+00	 1.875000000000000e-01	 9.842813388307698e+00
0	 9.312499999999996e+00	 2.499999999999999e-01	 9.843375411076922e+00
0	 9.312500000000000e+00	 3.125000000000000e-01	 9.843908532307694e+00
0	 9.312499999999996e+00	 3.750000000000000e-01	 9.844412751999997e+00
0	 9.312499999999998e+00	 4.375000000000000e-01	 9.844888070153837e+00
0	 9.312499999999996e+00	 4.999999999999999e-01	 9.845334486769227e+00
0	 9.312499999999996e+00	 5.625000000000000e-01	 9.845752001846162e+00
0	 9.312499999999998e+00	 6.250000000000000e-01	 9.846140615384613e+00
0	 9.375000000000000e+00	 0.000000000000000e+00	 9.831923384615386e+00
0	 9.375000000000000e+00	 6.250000000000000e-02	 9.832590246153844e+00
0	 9.375000000000000e+00	 1.250000000000000e-01	 9.833229138461530e+00
0	 9.375000000000000e+00	 1.875000000000000e-01	 9.833840061538467e+00
0	 9.375000000000000e+00	 2.500000000000000e-01	 9.834423015384617e+00
0	 9.375000000000000e+00	 3.125000000000000e-01	 9.834977999999998e+00
0	 9.375000000000000e+00	 3.750000000000000e-01	 9.835505015384609e+00
0	 9.375000000000000e+00	 4.374999999999999e-01	 9.836004061538455e+00
0	 9.375000000000000e+00	 5.000000000000000e-01	 9.836475138461541e+00
0	 9.375000000000000e+00	 5.624999999999999e-01	 9.836918246153846e+00
0	 9.375000000000000e+00	 6.250000000000000e-01	 9.837333384615382e+00
0	 8.750000000000000e+00	 6.250000000000000e-01	 9.915461384615380e+00
0	 8.750000000000000e+00	 6.875000000000000e-01	 9.916745907692309e+00
0	 8.750000000000000e+00	 7.500000000000002e-01	 9.918001446153838e+00
0	 8.750000000000004e+00	 8.125000000000002e-01	 9.919228000000004e+00
0	 8.750000000000000e+00	 8.750000000000002e-01	 9.920425569230765e+00
0	 8.750000000000002e+00	 9.375000000000002e-01	 9.921594153846154e+00
0	 8.750000000000000e+00	 1.000000000000000e+00	 9.922733753846156e+00
0	 8.750000000000000e+00	 1.062500000000000e+00	 9.923844369230771e+00
0	 8.750000000000002e+00	 1.125000000000001e+00	 9.924926000000003e+00
0	 8.750000000000000e+00	 1.187500000000000e+00	 9.925978646153844e+00
0	 8.750000000000000e+00	 1.250000000000000e+00	 9.927002307692305e+00
0	 8.812499999999998e+00	 6.250000000000000e-01	 9.908643015384616e+00
0	 8.812500000000000e+00	 6.875000000000001e-01	 9.909940484461533e+00
0	 8.812500000000000e+00	 7.500000000000001e-01	 9.911209522769230e+00
0	 8.812500000000000e+00	 8.125000000000002e-01	 9.912450130307697e+00
0	 8.812500000000004e+00	 8.750000000000003e-01	 9.913662307076923e+00
0	 8.812500000000002e+00	 9.375000000000003e-01	 9.914846053076914e+00
0	 8.812500000000002e+00	 1.000000000000000e+00	 9.916001368307695e+00
0	 8.812500000000002e+00	 1.062500000000000e+00	 9.917128252769226e+00
0	 8.812499999999998e+00	 1.125000000000000e+00	 9.918226706461532e+00
0	 8.812499999999998e+00	 1.187500000000000e+00	 9.919296729384612e+00
0	 8.812499999999998e+00	 1.250000000000000e+00	 9.920338321538463e+00
0	 8.874999999999998e+00	 6.249999999999999e-01	 9.901603661538463e+00
0	 8.875000000000000e+00	 6.875000000000001e-01	 9.902919045538461e+00
0	 8.875000000000004e+00	 7.500000000000002e-01	 9.904206552615381e+00
0	 8.875000000000000e+00	 8.125000000000001e-01	 9.905466182769230e+00
0	 8.875000000000000e+00	 8.750000000000003e-01	 9.906697935999997e+00
0	 8.875000000000000e+00	 9.375000000000003e-01	 9.907901812307699e+00
0	 8.875000000000000e+00	 1.000000000000000e+00	 9.909077811692301e+00
0	 8.875000000000000e+00	 1.062500000000000e+00	 9.910225934153846e+00
0	 8.875000000000000e+00	 1.125000000000000e+00	 9.911346179692313e+00
0	 8.875000000000000e+00	 1.187500000000001e+00	 9.912438548307691e+00
0	 8.874999999999998e+00	 1.250000000000000e+00	 9.913503039999989e+00
0	 8.937500000000000e+00	 6.249999999999999e-01	 9.894343323076917e+00
0	 8.937500000000000e+00	 6.875000000000000e-01	 9.895681590923083e+00
0	 8.937499999999998e+00	 7.500000000000000e-01	 9.896992535692306e+00
0	 8.937500000000000e+00	 8.125000000000002e-01	 9.898276157384611e+00
0	 8.937499999999998e+00	 8.750000000000002e-01	 9.899532455999999e+00
0	 8.937499999999998e+00	 9.375000000000002e-01	 9.900761431538456e+00
0	 8.937499999999998e+00	 1.000000000000000e+00	 9.901963083999998e+00
0	 8.937500000000000e+00	 1.062500000000000e+00	 9.903137413384618e+00
0	 8.937500000000000e+00	 1.125000000000000e+00	 9.904284419692308e+00
0	 8.937500000000000e+00	 1.187500000000000e+00	 9.905404102923072e+00
0	 8.937500000000000e+00	 1.250000000000000e+00	 9.906496463076927e+00
0	 9.000000000000000e+00	 6.250000000000001e-01	 9.886862000000001e+00
0	 9.000000000000000e+00	 6.875000000000000e-01	 9.888228120615377e+00
0	 8.999999999999996e+00	 7.500000000000000e-01	 9.889567471999998e+00
0	 9.000000000000000e+00	 8.125000000000001e-01	 9.890880054153847e+00
0	 8.999999999999998e+00	 8.750000000000003e-01	 9.892165867076924e+00
0	 8.999999999999996e+00	 9.375000000000000e-01	 9.893424910769230e+00
0	 9.000000000000000e+00	 1.000000000000000e+00	 9.894657185230770e+00
0	 9.000000000000000e+00	 1.062500000000000e+00	 9.895862690461538e+00
0	 9.000000000000000e+00	 1.125000000000000e+00	 9.897041426461538e+00
0	 9.000000000000000e+00	 1.187500000000000e+00	 9.898193393230768e+00
0	 9.000000000000000e+00	 1.250000000000000e+00	 9.899318590769226e+00
0	 9.062500000000000e+00	 6.250000000000000e-01	 9.879159692307688e+00
0	 9.062499999999998e+00	 6.875000000000000e-01	 9.880558634615381e+00
0	 9.062499999999998e+00	 7.500000000000001e-01	 9.881931361538458e+00
0	 9.062499999999998e+00	 8.125000000000002e-01	 9.883277873076924e+00
0	 9.062499999999998e+00	 8.750000000000003e-01	 9.884598169230772e+00
0	 9.062500000000000e+00	 9.375000000000002e-01	 9.885892249999999e+00
0	 9.062500000000000e+00	 1.000000000000000e+00	 9.887160115384617e+00
0	 9.062500000000002e+00	 1.062500000000000e+00	 9.888401765384618e+00
0	 9.062499999999998e+00	 1.125000000000000e+00	 9.889617199999998e+00
0	 9.062500000000000e+00	 1.187500000000001e+00	 9.890806419230772e+00
0	 9.062500000000000e+00	 1.250000000000000e+00	 9.891969423076922e+00
0	 9.124999999999998e+00	 6.250000000000001e-01	 9.871236400000001e+00
0	 9.124999999999998e+00	 6.874999999999999e-01	 9.872673132923076e+00
0	 9.124999999999998e+00	 7.500000000000003e-01	 9.874084204307692e+00
0	 9.124999999999996e+00	 8.125000000000000e-01	 9.875469614153847e+00
0	 9.124999999999998e+00	 8.750000000000001e-01	 9.876829362461544e+00
0	 9.124999999999998e+00	 9.375000000000003e-01	 9.878163449230772e+00
0	 9.124999999999998e+00	 1.000000000000000e+00	 9.879471874461542e+00
0	 9.124999999999998e+00	 1.062500000000000e+00	 9.880754638153849e+00
0	 9.124999999999998e+00	 1.125000000000000e+00	 9.882011740307695e+00
0	 9.124999999999996e+00	 1.187500000000000e+00	 9.883243180923071e+00
0	 9.124999999999998e+00	 1.250000000000000e+00	 9.884448960000000e+00
0	 9.187499999999998e+00	 6.249999999999999e-01	 9.863092123076930e+00
0	 9.187499999999998e+00	 6.875000000000000e-01	 9.864571615538463e+00
0	 9.187500000000000e+00	 7.500000000000002e-01	 9.866026000307688e+00
0	 9.187499999999996e+00	 8.125000000000000e-01	 9.867455277384613e+00
0	 9.187500000000000e+00	 8.750000000000002e-01	 9.868859446769228e+00
0	 9.187499999999998e+00	 9.375000000000004e-01	 9.870238508461540e+00
0	 9.187499999999998e+00	 1.000000000000000e+00	 9.871592462461534e+00
0	 9.187500000000000e+00	 1.062500000000001e+00	 9.872921308769227e+00
0	 9.187499999999996e+00	 1.125000000000000e+00	 9.874225047384613e+00
0	 9.187500000000000e+00	 1.187500000000000e+00	 9.875503678307693e+00
0	 9.187499999999998e+00	 1.250000000000000e+00	 9.876757201538462e+00
0	 9.249999999999998e+00	 6.250000000000000e-01	 9.854726861538456e+00
0	 9.249999999999996e+00	 6.875000000000000e-01	 9.856254082461529e+00
0	 9.249999999999996e+00	 7.500000000000000e-01	 9.857756749538465e+00
0	 9.249999999999998e+00	 8.125000000000001e-01	 9.859234862769229e+00
0	 9.250000000000000e+00	 8.750000000000003e-01	 9.860688422153846e+00
0	 9.249999999999998e+00	 9.375000000000002e-01	 9.862117427692313e+00
0	 9.249999999999998e+00	 1.000000000000001e+00	 9.863521879384612e+00
0	 9.249999999999996e+00	 1.062500000000000e+00	 9.864901777230768e+00
0	 9.249999999999996e+00	 1.125000000000000e+00	 9.866257121230765e+00
0	 9.249999999999998e+00	 1.187500000000000e+00	 9.867587911384618e+00
0	 9.249999999999998e+00	 1.250000000000000e+00	 9.868894147692302e+00
0	 9.312499999999998e+00	 6.250000000000000e-01	 9.846140615384613e+00
0	 9.312499999999998e+00	 6.875000000000002e-01	 9.847720533692307e+00
0	 9.312499999999996e+00	 7.500000000000001e-01	 9.849276451999993e+00
0	 9.312499999999998e+00	 8.125000000000001e-01	 9.850808370307696e+00
0	 9.312499999999998e+00	 8.750000000000002e-01	 9.852316288615388e+00
0	 9.312499999999998e+00	 9.375000000000002e-01	 9.853800206923076e+00
0	 9.312499999999998e+00	 1.000000000000000e+00	 9.855260125230767e+00
0	 9.312499999999996e+00	 1.062500000000000e+00	 9.856696043538456e+00
0	 9.312499999999996e+00	 1.125000000000000e+00	 9.858107961846150e+00
0	 9.312499999999998e+00	 1.187500000000000e+00	 9.859495880153844e+00
0	 9.312499999999998e+00	 1.250000000000000e+00	 9.860859798461535e+00
0	 9.375000000000000e+00	 6.250000000000000e-01	 9.837333384615382e+00
0	 9.375000000000000e+00	 6.875000000000000e-01	 9.838970969230767e+00
0	 9.375000000000000e+00	 7.500000000000002e-01	 9.840585107692306e+00
0	 9.375000000000002e+00	 8.125000000000002e-01	 9.842175799999994e+00
0	 9.375000000000002e+00	 8.750000000000002e-01	 9.843743046153852e+00
0	 9.375000000000002e+00	 9.375000000000002e-01	 9.845286846153844e+00
0	 9.375000000000000e+00	 1.000000000000000e+00	 9.846807199999997e+00
0	 9.375000000000000e+00	 1.062500000000000e+00	 9.848304107692309e+00
0	 9.375000000000002e+00	 1.125000000000001e+00	 9.849777569230760e+00
0	 9.375000000000000e+00	 1.187500000000000e+00	 9.851227584615380e+00
0	 9.375000000000000e+00	 1.250000000000000e+00	 9.852654153846155e+00
0	 8.750000000000000e+00	 1.250000000000000e+00	 9.927002307692305e+00
0	 8.750000000000000e+00	 1.312500000000000e+00	 9.928776076923079e+00
0	 8.750000000000000e+00	 1.375000000000000e+00	 9.930533230769221e+00
0	 8.750000000000004e+00	 1.437500000000000e+00	 9.932273769230774e+00
0	 8.750000000000000e+00	 1.500000000000000e+00	 9.933997692307685e+00
0	 8.750000000000002e+00	 1.562500000000000e+00	 9.935704999999999e+00
0	 8.750000000000000e+00	 1.625000000000000e+00	 9.937395692307689e+00
0	 8.750000000000000e+00	 1.687500000000000e+00	 9.939069769230764e+00
0	 8.750000000000002e+00	 1.750000000000001e+00	 9.940727230769227e+00
0	 8.750000000000000e+00	 1.812500000000000e+00	 9.942368076923076e+00
0	 8.750000000000000e+00	 1.875000000000000e+00	 9.943992307692307e+00
0	 8.812499999999998e+00	 1.250000000000000e+00	 9.920338321538463e+00
0	 8.812500000000000e+00	 1.312500000000000e+00	 9.922139306307692e+00
0	 8.812500000000000e+00	 1.375000000000000e+00	 9.923923823384614e+00
0	 8.812500000000000e+00	 1.437500000000000e+00	 9.925691872769233e+00
0	 8.812500000000004e+00	 1.500000000000000e+00	 9.927443454461532e+00
0	 8.812500000000002e+00	 1.562500000000000e+00	 9.929178568461534e+00
0	 8.812500000000002e+00	 1.625000000000000e+00	 9.930897214769221e+00
0	 8.812500000000002e+00	 1.687500000000000e+00	 9.932599393384606e+00
0	 8.812499999999998e+00	 1.750000000000000e+00	 9.934285104307683e+00
0	 8.812499999999998e+00	 1.812500000000000e+00	 9.935954347538459e+00
0	 8.812499999999998e+00	 1.875000000000000e+00	 9.937607123076928e+00
0	 8.874999999999998e+00	 1.250000000000000e+00	 9.913503039999989e+00
0	 8.875000000000000e+00	 1.312500000000000e+00	 9.915338440615386e+00
0	 8.875000000000004e+00	 1.375000000000000e+00	 9.917157521230767e+00
0	 8.875000000000000e+00	 1.437500000000000e+00	 9.918960281846154e+00
0	 8.875000000000000e+00	 1.500000000000000e+00	 9.920746722461535e+00
0	 8.875000000000000e+00	 1.562500000000000e+00	 9.922516843076917e+00
0	 8.875000000000000e+00	 1.625000000000000e+00	 9.924270643692301e+00
0	 8.875000000000000e+00	 1.687500000000000e+00	 9.926008124307698e+00
0	 8.875000000000000e+00	 1.750000000000001e+00	 9.927729284923076e+00
0	 8.875000000000000e+00	 1.812500000000001e+00	 9.929434125538458e+00
0	 8.874999999999998e+00	 1.875000000000000e+00	 9.931122646153844e+00
0	 8.937500000000000e+00	 1.250000000000000e+00	 9.906496463076927e+00
0	 8.937500000000000e+00	 1.312500000000000e+00	 9.908373479846158e+00
0	 8.937499999999998e+00	 1.375000000000000e+00	 9.910234324307694e+00
0	 8.937500000000000e+00	 1.437500000000000e+00	 9.912078996461538e+00
0	 8.937499999999998e+00	 1.500000000000000e+00	 9.913907496307694e+00
0	 8.937499999999998e+00	 1.562500000000000e+00	 9.915719823846155e+00
0	 8.937499999999998e+00	 1.625000000000000e+00	 9.917515979076915e+00
0	 8.937500000000000e+00	 1.687500000000000e+00	 9.919295962000005e+00
0	 8.937500000000000e+00	 1.750000000000000e+00	 9.921059772615385e+00
0	 8.937500000000000e+00	 1.812500000000000e+00	 9.922807410923077e+00
0	 8.937500000000000e+00	 1.875000000000000e+00	 9.924538876923080e+00
0	 9.000000000000000e+00	 1.250000000000000e+00	 9.899318590769226e+00
0	 9.000000000000000e+00	 1.312500000000000e+00	 9.901244423999996e+00
0	 8.999999999999996e+00	 1.375000000000000e+00	 9.903154232615380e+00
0	 9.000000000000000e+00	 1.437500000000000e+00	 9.905048016615378e+00
0	 8.999999999999998e+00	 1.500000000000000e+00	 9.906925775999996e+00
0	 8.999999999999996e+00	 1.562500000000000e+00	 9.908787510769226e+00
0	 9.000000000000000e+00	 1.625000000000001e+00	 9.910633220923074e+00
0	 9.000000000000000e+00	 1.687500000000000e+00	 9.912462906461537e+00
0	 9.000000000000000e+00	 1.750000000000001e+00	 9.914276567384615e+00
0	 9.000000000000000e+00	 1.812500000000000e+00	 9.916074203692304e+00
0	 9.000000000000000e+00	 1.875000000000000e+00	 9.917855815384611e+00
0	 9.062500000000000e+00	 1.250000000000000e+00	 9.891969423076922e+00
0	 9.062499999999998e+00	 1.312500000000000e+00	 9.893951273076921e+00
0	 9.062499999999998e+00	 1.375000000000000e+00	 9.895917246153848e+00
0	 9.062499999999998e+00	 1.437500000000000e+00	 9.897867342307693e+00
0	 9.062499999999998e+00	 1.500000000000000e+00	 9.899801561538469e+00
0	 9.062500000000000e+00	 1.562500000000000e+00	 9.901719903846150e+00
0	 9.062500000000000e+00	 1.625000000000000e+00	 9.903622369230762e+00
0	 9.062500000000002e+00	 1.687500000000000e+00	 9.905508957692311e+00
0	 9.062499999999998e+00	 1.750000000000000e+00	 9.907379669230773e+00
0	 9.062500000000000e+00	 1.812500000000000e+00	 9.909234503846150e+00
0	 9.062500000000000e+00	 1.875000000000000e+00	 9.911073461538464e+00
0	 9.124999999999998e+00	 1.250000000000000e+00	 9.884448960000000e+00
0	 9.124999999999998e+00	 1.312500000000000e+00	 9.886494027076925e+00
0	 9.124999999999998e+00	 1.375000000000000e+00	 9.888523364923079e+00
0	 9.124999999999996e+00	 1.437500000000000e+00	 9.890536973538461e+00
0	 9.124999999999998e+00	 1.500000000000000e+00	 9.892534852923076e+00
0	 9.124999999999998e+00	 1.562500000000000e+00	 9.894517003076922e+00
0	 9.124999999999998e+00	 1.625000000000000e+00	 9.896483423999996e+00
0	 9.124999999999998e+00	 1.687500000000000e+00	 9.898434115692313e+00
0	 9.124999999999998e+00	 1.750000000000000e+00	 9.900369078153846e+00
0	 9.124999999999996e+00	 1.812500000000000e+00	 9.902288311384613e+00
0	 9.124999999999998e+00	 1.875000000000000e+00	 9.904191815384621e+00
0	 9.187499999999998e+00	 1.250000000000000e+00	 9.876757201538462e+00
0	 9.187499999999998e+00	 1.312500000000000e+00	 9.878872686000006e+00
0	 9.187500000000000e+00	 1.375000000000000e+00	 9.880972588923074e+00
0	 9.187499999999996e+00	 1.437500000000000e+00	 9.883056910307683e+00
0	 9.187500000000000e+00	 1.500000000000001e+00	 9.885125650153844e+00
0	 9.187499999999998e+00	 1.562500000000000e+00	 9.887178808461542e+00
0	 9.187499999999998e+00	 1.625000000000000e+00	 9.889216385230766e+00
0	 9.187500000000000e+00	 1.687500000000000e+00	 9.891238380461534e+00
0	 9.187499999999996e+00	 1.750000000000000e+00	 9.893244794153848e+00
0	 9.187500000000000e+00	 1.812500000000000e+00	 9.895235626307702e+00
0	 9.187499999999998e+00	 1.875000000000000e+00	 9.897210876923086e+00
0	 9.249999999999998e+00	 1.250000000000000e+00	 9.868894147692302e+00
0	 9.249999999999996e+00	 1.312500000000000e+00	 9.871087249846141e+00
0	 9.249999999999996e+00	 1.375000000000000e+00	 9.873264918153847e+00
0	 9.249999999999998e+00	 1.437500000000000e+00	 9.875427152615385e+00
0	 9.250000000000000e+00	 1.500000000000000e+00	 9.877573953230765e+00
0	 9.249999999999998e+00	 1.562500000000000e+00	 9.879705319999998e+00
0	 9.249999999999998e+00	 1.625000000000001e+00	 9.881821252923068e+00
0	 9.249999999999996e+00	 1.687500000000000e+00	 9.883921752000001e+00
0	 9.249999999999996e+00	 1.750000000000000e+00	 9.886006817230763e+00
0	 9.249999999999998e+00	 1.812500000000001e+00	 9.888076448615385e+00
0	 9.249999999999998e+00	 1.875000000000000e+00	 9.890130646153844e+00
0	 9.312499999999998e+00	 1.250000000000000e+00	 9.860859798461535e+00
0	 9.312499999999998e+00	 1.312500000000000e+00	 9.863137718615381e+00
0	 9.312499999999996e+00	 1.375000000000000e+00	 9.865400352615383e+00
0	 9.312499999999998e+00	 1.437500000000000e+00	 9.867647700461534e+00
0	 9.312499999999998e+00	 1.500000000000000e+00	 9.869879762153850e+00
0	 9.312499999999998e+00	 1.562500000000000e+00	 9.872096537692304e+00
0	 9.312499999999998e+00	 1.625000000000000e+00	 9.874298027076920e+00
0	 9.312499999999996e+00	 1.687500000000000e+00	 9.876484230307687e+00
0	 9.312499999999996e+00	 1.750000000000000e+00	 9.878655147384610e+00
0	 9.312499999999998e+00	 1.812500000000000e+00	 9.880810778307691e+00
0	 9.312499999999998e+00	 1.875000000000000e+00	 9.882951123076930e+00
0	 9.375000000000000e+00	 1.250000000000000e+00	 9.852654153846155e+00
0	 9.375000000000000e+00	 1.312500000000000e+00	 9.855024092307687e+00
0	 9.375000000000000e+00	 1.375000000000000e+00	 9.857378892307697e+00
0	 9.375000000000002e+00	 1.437500000000000e+00	 9.859718553846154e+00
0	 9.375000000000002e+00	 1.500000000000000e+00	 9.862043076923074e+00
0	 9.375000000000002e+00	 1.562500000000000e+00	 9.864352461538459e+00
0	 9.375000000000000e+00	 1.625000000000000e+00	 9.866646707692309e+00
0	 9.375000000000000e+00	 1.687500000000000e+00	 9.868925815384616e+00
0	 9.375000000000002e+00	 1.750000000000001e+00	 9.871189784615375e+00
0	 9.375000000000000e+00	 1.812500000000000e+00	 9.873438615384609e+00
0	 9.375000000000000e+00	 1.875000000000000e+00	 9.875672307692309e+00
0	 8.750000000000000e+00	 1.875000000000000e+00	 9.943992307692307e+00
0	 8.750000000000000e+00	 1.937500000000000e+00	 9.945967492307689e+00
0	 8.750000000000000e+00	 2.000000000000000e+00	 9.947940738461538e+00
0	 8.750000000000004e+00	 2.062500000000000e+00	 9.949912046153838e+00
0	 8.750000000000000e+00	 2.125000000000000e+00	 9.951881415384619e+00
0	 8.750000000000002e+00	 2.187500000000000e+00	 9.953848846153846e+00
0	 8.750000000000000e+00	 2.250000000000000e+00	 9.955814338461529e+00
0	 8.750000000000000e+00	 2.312500000000000e+00	 9.957777892307689e+00
0	 8.750000000000002e+00	 2.375000000000001e+00	 9.959739507692303e+00
0	 8.750000000000000e+00	 2.437500000000001e+00	 9.961699184615391e+00
0	 8.750000000000000e+00	 2.500000000000000e+00	 9.963656923076920e+00
0	 8.812499999999998e+00	 1.875000000000000e+00	 9.937607123076928e+00
0	 8.812500000000000e+00	 1.937500000000000e+00	 9.939625461538453e+00
0	 8.812500000000000e+00	 2.000000000000000e+00	 9.941641473846156e+00
0	 8.812500000000000e+00	 2.062500000000000e+00	 9.943655159999992e+00
0	 8.812500000000004e+00	 2.125000000000001e+00	 9.945666519999993e+00
0	 8.812500000000002e+00	 2.187500000000000e+00	 9.947675553846146e+00
0	 8.812500000000002e+00	 2.250000000000000e+00	 9.949682261538458e+00
0	 8.812500000000002e+00	 2.312500000000000e+00	 9.951686643076922e+00
0	 8.812499999999998e+00	 2.375000000000000e+00	 9.953688698461535e+00
0	 8.812499999999998e+00	 2.437500000000000e+00	 9.955688427692307e+00
0	 8.812499999999998e+00	 2.500000000000000e+00	 9.957685830769229e+00
0	 8.874999999999998e+00	 1.875000000000000e+00	 9.931122646153844e+00
0	 8.875000000000000e+00	 1.937500000000000e+00	 9.933192064615387e+00
0	 8.875000000000004e+00	 2.000000000000000e+00	 9.935258769230767e+00
0	 8.875000000000000e+00	 2.062500000000000e+00	 9.937322760000008e+00
0	 8.875000000000000e+00	 2.125000000000000e+00	 9.939384036923075e+00
0	 8.875000000000000e+00	 2.187500000000001e+00	 9.941442600000004e+00
0	 8.875000000000000e+00	 2.250000000000000e+00	 9.943498449230761e+00
0	 8.875000000000000e+00	 2.312500000000000e+00	 9.945551584615380e+00
0	 8.875000000000000e+00	 2.375000000000000e+00	 9.947602006153849e+00
0	 8.875000000000000e+00	 2.437500000000000e+00	 9.949649713846146e+00
0	 8.874999999999998e+00	 2.500000000000000e+00	 9.951694707692297e+00
0	 8.937500000000000e+00	 1.875000000000000e+00	 9.924538876923080e+00
0	 8.937500000000000e+00	 1.937500000000000e+00	 9.926667301538460e+00
0	 8.937499999999998e+00	 2.000000000000000e+00	 9.928792624615385e+00
0	 8.937500000000000e+00	 2.062500000000000e+00	 9.930914846153847e+00
0	 8.937499999999998e+00	 2.125000000000001e+00	 9.933033966153841e+00
0	 8.937499999999998e+00	 2.187500000000000e+00	 9.935149984615382e+00
0	 8.937499999999998e+00	 2.250000000000000e+00	 9.937262901538466e+00
0	 8.937500000000000e+00	 2.312500000000000e+00	 9.939372716923074e+00
0	 8.937500000000000e+00	 2.375000000000000e+00	 9.941479430769235e+00
0	 8.937500000000000e+00	 2.437500000000000e+00	 9.943583043076915e+00
0	 8.937500000000000e+00	 2.500000000000000e+00	 9.945683553846155e+00
0	 9.000000000000000e+00	 1.875000000000000e+00	 9.917855815384611e+00
0	 9.000000000000000e+00	 1.937500000000000e+00	 9.920051172307682e+00
0	 8.999999999999996e+00	 2.000000000000000e+00	 9.922243040000001e+00
0	 9.000000000000000e+00	 2.062500000000000e+00	 9.924431418461541e+00
0	 8.999999999999998e+00	 2.125000000000000e+00	 9.926616307692308e+00
0	 8.999999999999996e+00	 2.187500000000000e+00	 9.928797707692306e+00
0	 9.000000000000000e+00	 2.250000000000000e+00	 9.930975618461540e+00
0	 9.000000000000000e+00	 2.312500000000000e+00	 9.933150039999992e+00
0	 9.000000000000000e+00	 2.375000000000000e+00	 9.935320972307686e+00
0	 9.000000000000000e+00	 2.437500000000000e+00	 9.937488415384614e+00
0	 9.000000000000000e+00	 2.500000000000000e+00	 9.939652369230764e+00
0	 9.062500000000000e+00	 1.875000000000000e+00	 9.911073461538464e+00
0	 9.062499999999998e+00	 1.937500000000000e+00	 9.913343676923080e+00
0	 9.062499999999998e+00	 2.000000000000000e+00	 9.915610015384612e+00
0	 9.062499999999998e+00	 2.062500000000000e+00	 9.917872476923080e+00
0	 9.062499999999998e+00	 2.125000000000000e+00	 9.920131061538459e+00
0	 9.062500000000000e+00	 2.187500000000000e+00	 9.922385769230766e+00
0	 9.062500000000000e+00	 2.250000000000000e+00	 9.924636600000007e+00
0	 9.062500000000002e+00	 2.312500000000001e+00	 9.926883553846153e+00
0	 9.062499999999998e+00	 2.375000000000000e+00	 9.929126630769225e+00
0	 9.062500000000000e+00	 2.437500000000000e+00	 9.931365830769224e+00
0	 9.062500000000000e+00	 2.500000000000000e+00	 9.933601153846155e+00
0	 9.124999999999998e+00	 1.875000000000000e+00	 9.904191815384621e+00
0	 9.124999999999998e+00	 1.937500000000000e+00	 9.906544815384615e+00
0	 9.124999999999998e+00	 2.000000000000000e+00	 9.908893550769228e+00
0	 9.124999999999996e+00	 2.062500000000000e+00	 9.911238021538463e+00
0	 9.124999999999998e+00	 2.125000000000000e+00	 9.913578227692311e+00
0	 9.124999999999998e+00	 2.187500000000000e+00	 9.915914169230774e+00
0	 9.124999999999998e+00	 2.250000000000000e+00	 9.918245846153845e+00
0	 9.124999999999998e+00	 2.312500000000000e+00	 9.920573258461541e+00
0	 9.124999999999998e+00	 2.375000000000001e+00	 9.922896406153846e+00
0	 9.124999999999996e+00	 2.437500000000000e+00	 9.925215289230767e+00
0	 9.124999999999998e+00	 2.500000000000000e+00	 9.927529907692319e+00
0	 9.187499999999998e+00	 1.875000000000000e+00	 9.897210876923086e+00
0	 9.187499999999998e+00	 1.937500000000000e+00	 9.899654587692311e+00
0	 9.187500000000000e+00	 2.000000000000001e+00	 9.902093646153851e+00
0	 9.187499999999996e+00	 2.062500000000000e+00	 9.904528052307693e+00
0	 9.187500000000000e+00	 2.125000000000001e+00	 9.906957806153837e+00
0	 9.187499999999998e+00	 2.187500000000000e+00	 9.909382907692304e+00
0	 9.187499999999998e+00	 2.250000000000000e+00	 9.911803356923079e+00
0	 9.187500000000000e+00	 2.312500000000001e+00	 9.914219153846149e+00
0	 9.187499999999996e+00	 2.375000000000000e+00	 9.916630298461534e+00
0	 9.187500000000000e+00	 2.437500000000000e+00	 9.919036790769226e+00
0	 9.187499999999998e+00	 2.500000000000000e+00	 9.921438630769234e+00
0	 9.249999999999998e+00	 1.875000000000000e+00	 9.890130646153844e+00
0	 9.249999999999996e+00	 1.937500000000000e+00	 9.892672993846148e+00
0	 9.249999999999996e+00	 2.000000000000000e+00	 9.895210301538464e+00
0	 9.249999999999998e+00	 2.062500000000000e+00	 9.897742569230772e+00
0	 9.250000000000000e+00	 2.125000000000000e+00	 9.900269796923070e+00
0	 9.249999999999998e+00	 2.187500000000000e+00	 9.902791984615392e+00
0	 9.249999999999998e+00	 2.250000000000000e+00	 9.905309132307689e+00
0	 9.249999999999996e+00	 2.312500000000000e+00	 9.907821239999995e+00
0	 9.249999999999996e+00	 2.375000000000000e+00	 9.910328307692305e+00
0	 9.249999999999998e+00	 2.437500000000001e+00	 9.912830335384614e+00
0	 9.249999999999998e+00	 2.500000000000000e+00	 9.915327323076925e+00
0	 9.312499999999998e+00	 1.875000000000000e+00	 9.882951123076930e+00
0	 9.312499999999998e+00	 1.937500000000000e+00	 9.885600033846158e+00
0	 9.312499999999996e+00	 2.000000000000000e+00	 9.888243516923071e+00
0	 9.312499999999998e+00	 2.062500000000000e+00	 9.890881572307691e+00
0	 9.312499999999998e+00	 2.125000000000000e+00	 9.893514200000002e+00
0	 9.312499999999998e+00	 2.187500000000000e+00	 9.896141399999998e+00
0	 9.312499999999998e+00	 2.250000000000000e+00	 9.898763172307689e+00
0	 9.312499999999996e+00	 2.312500000000000e+00	 9.901379516923067e+00
0	 9.312499999999996e+00	 2.375000000000000e+00	 9.903990433846152e+00
0	 9.312499999999998e+00	 2.437500000000000e+00	 9.906595923076912e+00
0	 9.312499999999998e+00	 2.500000000000000e+00	 9.909195984615383e+00
0	 9.375000000000000e+00	 1.875000000000000e+00	 9.875672307692309e+00
0	 9.375000000000000e+00	 1.937500000000000e+00	 9.878435707692303e+00
0	 9.375000000000000e+00	 2.000000000000000e+00	 9.881193292307696e+00
0	 9.375000000000002e+00	 2.062500000000000e+00	 9.883945061538457e+00
0	 9.375000000000002e+00	 2.125000000000000e+00	 9.886691015384622e+00
0	 9.375000000000002e+00	 2.187500000000000e+00	 9.889431153846155e+00
0	 9.375000000000000e+00	 2.250000000000000e+00	 9.892165476923076e+00
0	 9.375000000000000e+00	 2.312500000000000e+00	 9.894893984615383e+00
0	 9.375000000000002e+00	 2.375000000000001e+00	 9.897616676923084e+00
0	 9.375000000000000e+00	 2.437500000000001e+00	 9.900333553846147e+00
0	 9.375000000000000e+00	 2.500000000000000e+00	 9.903044615384617e+00
0	 8.750000000000000e+00	 2.500000000000000e+00	 9.963656923076920e+00
0	 8.750000000000000e+00	 2.562500000000000e+00	 9.965558738461553e+00
0	 8.750000000000002e+00	 2.625000000000000e+00	 9.967471261538464e+00
0	 8.750000000000000e+00	 2.687499999999999e+00	 9.969394492307684e+00
0	 8.750000000000000e+00	 2.750000000000000e+00	 9.971328430769226e+00
0	 8.750000000000000e+00	 2.812499999999999e+00	 9.973273076923078e+00
0	 8.750000000000000e+00	 2.874999999999999e+00	 9.975228430769228e+00
0	 8.750000000000000e+00	 2.937499999999998e+00	 9.977194492307692e+00
0	 8.750000000000000e+00	 2.999999999999998e+00	 9.979171261538458e+00
0	 8.750000000000000e+00	 3.062499999999998e+00	 9.981158738461541e+00
0	 8.750000000000000e+00	 3.125000000000000e+00	 9.983156923076923e+00
0	 8.812499999999998e+00	 2.500000000000000e+00	 9.957685830769229e+00
0	 8.812500000000000e+00	 2.562500000000000e+00	 9.959648201538453e+00
0	 8.812499999999998e+00	 2.624999999999999e+00	 9.961620523076915e+00
0	 8.812500000000000e+00	 2.687499999999999e+00	 9.963602795384615e+00
0	 8.812500000000000e+00	 2.750000000000000e+00	 9.965595018461539e+00
0	 8.812500000000002e+00	 2.812499999999999e+00	 9.967597192307684e+00
0	 8.812500000000004e+00	 2.875000000000000e+00	 9.969609316923080e+00
0	 8.812500000000002e+00	 2.937499999999999e+00	 9.971631392307687e+00
0	 8.812500000000002e+00	 2.999999999999999e+00	 9.973663418461538e+00
0	 8.812499999999996e+00	 3.062499999999997e+00	 9.975705395384606e+00
0	 8.812499999999998e+00	 3.125000000000000e+00	 9.977757323076922e+00
0	 8.874999999999998e+00	 2.500000000000000e+00	 9.951694707692297e+00
0	 8.875000000000000e+00	 2.562500000000000e+00	 9.953724547692310e+00
0	 8.875000000000004e+00	 2.625000000000000e+00	 9.955763581538458e+00
0	 8.875000000000002e+00	 2.687500000000000e+00	 9.957811809230765e+00
0	 8.874999999999998e+00	 2.749999999999999e+00	 9.959869230769224e+00
0	 8.874999999999998e+00	 2.812499999999999e+00	 9.961935846153841e+00
0	 8.874999999999996e+00	 2.874999999999999e+00	 9.964011655384617e+00
0	 8.875000000000002e+00	 2.937499999999999e+00	 9.966096658461538e+00
0	 8.875000000000000e+00	 2.999999999999998e+00	 9.968190855384615e+00
0	 8.875000000000004e+00	 3.062499999999999e+00	 9.970294246153847e+00
0	 8.874999999999998e+00	 3.125000000000000e+00	 9.972406830769231e+00
0	 8.937500000000000e+00	 2.500000000000000e+00	 9.945683553846155e+00
0	 8.937500000000000e+00	 2.562500000000000e+00	 9.947787776923070e+00
0	 8.937500000000002e+00	 2.625000000000000e+00	 9.949900436923080e+00
0	 8.937500000000000e+00	 2.687499999999999e+00	 9.952021533846150e+00
0	 8.937499999999998e+00	 2.749999999999999e+00	 9.954151067692301e+00
0	 8.937500000000000e+00	 2.812499999999999e+00	 9.956289038461541e+00
0	 8.937499999999998e+00	 2.874999999999999e+00	 9.958435446153846e+00
0	 8.937500000000000e+00	 2.937499999999999e+00	 9.960590290769225e+00
0	 8.937500000000000e+00	 2.999999999999999e+00	 9.962753572307690e+00
0	 8.937499999999998e+00	 3.062499999999998e+00	 9.964925290769234e+00
0	 8.937500000000000e+00	 3.125000000000000e+00	 9.967105446153841e+00
0	 9.000000000000000e+00	 2.500000000000000e+00	 9.939652369230764e+00
0	 9.000000000000000e+00	 2.562500000000000e+00	 9.941837889230777e+00
0	 9.000000000000000e+00	 2.625000000000000e+00	 9.944031089230773e+00
0	 9.000000000000000e+00	 2.687500000000000e+00	 9.946231969230768e+00
0	 8.999999999999998e+00	 2.750000000000000e+00	 9.948440529230769e+00
0	 9.000000000000000e+00	 2.812499999999999e+00	 9.950656769230768e+00
0	 8.999999999999996e+00	 2.874999999999999e+00	 9.952880689230762e+00
0	 8.999999999999998e+00	 2.937499999999998e+00	 9.955112289230767e+00
0	 9.000000000000000e+00	 2.999999999999999e+00	 9.957351569230774e+00
0	 9.000000000000000e+00	 3.062499999999998e+00	 9.959598529230771e+00
0	 9.000000000000000e+00	 3.125000000000000e+00	 9.961853169230761e+00
0	 9.062500000000000e+00	 2.500000000000000e+00	 9.933601153846155e+00
0	 9.062500000000000e+00	 2.562499999999999e+00	 9.935874884615384e+00
0	 9.062499999999998e+00	 2.625000000000000e+00	 9.938155538461537e+00
0	 9.062500000000000e+00	 2.687500000000000e+00	 9.940443115384618e+00
0	 9.062499999999998e+00	 2.749999999999999e+00	 9.942737615384612e+00
0	 9.062499999999998e+00	 2.812499999999999e+00	 9.945039038461539e+00
0	 9.062500000000002e+00	 2.874999999999999e+00	 9.947347384615382e+00
0	 9.062499999999998e+00	 2.937499999999998e+00	 9.949662653846156e+00
0	 9.062499999999998e+00	 2.999999999999998e+00	 9.951984846153840e+00
0	 9.062500000000002e+00	 3.062499999999998e+00	 9.954313961538453e+00
0	 9.062500000000000e+00	 3.125000000000000e+00	 9.956650000000002e+00
0	 9.124999999999998e+00	 2.500000000000000e+00	 9.927529907692319e+00
0	 9.124999999999998e+00	 2.562500000000000e+00	 9.929898763076917e+00
0	 9.124999999999996e+00	 2.625000000000000e+00	 9.932273784615386e+00
0	 9.124999999999998e+00	 2.687500000000000e+00	 9.934654972307692e+00
0	 9.125000000000002e+00	 2.750000000000000e+00	 9.937042326153851e+00
0	 9.125000000000000e+00	 2.812500000000000e+00	 9.939435846153851e+00
0	 9.124999999999998e+00	 2.874999999999999e+00	 9.941835532307689e+00
0	 9.125000000000000e+00	 2.937499999999999e+00	 9.944241384615383e+00
0	 9.125000000000000e+00	 2.999999999999999e+00	 9.946653403076926e+00
0	 9.124999999999998e+00	 3.062499999999998e+00	 9.949071587692318e+00
0	 9.124999999999998e+00	 3.125000000000000e+00	 9.951495938461534e+00
0	 9.187499999999998e+00	 2.500000000000000e+00	 9.921438630769234e+00
0	 9.187499999999998e+00	 2.562500000000000e+00	 9.923909524615384e+00
0	 9.187500000000000e+00	 2.625000000000000e+00	 9.926385827692306e+00
0	 9.187500000000000e+00	 2.687500000000000e+00	 9.928867539999997e+00
0	 9.187499999999998e+00	 2.749999999999999e+00	 9.931354661538455e+00
0	 9.187500000000000e+00	 2.812499999999999e+00	 9.933847192307692e+00
0	 9.187500000000000e+00	 2.874999999999999e+00	 9.936345132307695e+00
0	 9.187500000000000e+00	 2.937499999999998e+00	 9.938848481538468e+00
0	 9.187499999999998e+00	 2.999999999999998e+00	 9.941357240000000e+00
0	 9.187500000000000e+00	 3.062499999999998e+00	 9.943871407692306e+00
0	 9.187499999999998e+00	 3.125000000000000e+00	 9.946390984615380e+00
0	 9.249999999999998e+00	 2.500000000000000e+00	 9.915327323076925e+00
0	 9.250000000000000e+00	 2.562500000000001e+00	 9.917907169230762e+00
0	 9.249999999999998e+00	 2.625000000000000e+00	 9.920491667692302e+00
0	 9.250000000000000e+00	 2.687500000000000e+00	 9.923080818461543e+00
0	 9.249999999999998e+00	 2.749999999999999e+00	 9.925674621538462e+00
0	 9.249999999999998e+00	 2.812499999999999e+00	 9.928273076923078e+00
0	 9.249999999999998e+00	 2.874999999999999e+00	 9.930876184615379e+00
0	 9.249999999999998e+00	 2.937499999999998e+00	 9.933483944615379e+00
0	 9.250000000000000e+00	 2.999999999999998e+00	 9.936096356923073e+00
0	 9.249999999999998e+00	 3.062499999999998e+00	 9.938713421538461e+00
0	 9.249999999999998e+00	 3.125000000000000e+00	 9.941335138461536e+00
0	 9.312499999999998e+00	 2.500000000000000e+00	 9.909195984615383e+00
0	 9.312499999999998e+00	 2.562500000000000e+00	 9.911891696923076e+00
0	 9.312500000000000e+00	 2.625000000000000e+00	 9.914591304615385e+00
0	 9.312500000000000e+00	 2.687500000000000e+00	 9.917294807692317e+00
0	 9.312499999999998e+00	 2.749999999999999e+00	 9.920002206153850e+00
0	 9.312499999999998e+00	 2.812499999999999e+00	 9.922713500000000e+00
0	 9.312499999999998e+00	 2.874999999999999e+00	 9.925428689230777e+00
0	 9.312499999999998e+00	 2.937499999999998e+00	 9.928147773846149e+00
0	 9.312499999999998e+00	 2.999999999999998e+00	 9.930870753846161e+00
0	 9.312499999999998e+00	 3.062499999999998e+00	 9.933597629230768e+00
0	 9.312499999999998e+00	 3.125000000000000e+00	 9.936328400000004e+00
0	 9.375000000000000e+00	 2.500000000000000e+00	 9.903044615384617e+00
0	 9.375000000000000e+00	 2.562500000000000e+00	 9.905863107692314e+00
0	 9.375000000000002e+00	 2.625000000000000e+00	 9.908684738461542e+00
0	 9.374999999999998e+00	 2.687499999999999e+00	 9.911509507692308e+00
0	 9.375000000000002e+00	 2.750000000000000e+00	 9.914337415384614e+00
0	 9.375000000000000e+00	 2.812499999999999e+00	 9.917168461538457e+00
0	 9.375000000000000e+00	 2.874999999999999e+00	 9.920002646153847e+00
0	 9.375000000000000e+00	 2.937499999999998e+00	 9.922839969230772e+00
0	 9.375000000000000e+00	 2.999999999999998e+00	 9.925680430769225e+00
0	 9.375000000000000e+00	 3.062499999999998e+00	 9.928524030769243e+00
0	 9.375000000000000e+00	 3.125000000000000e+00	 9.931370769230764e+00
0	 8.750000000000000e+00	 3.125000000000000e+00	 9.983156923076923e+00
0	 8.750000000000000e+00	 3.187500000000000e+00	 9.984773569230759e+00
0	 8.750000000000002e+00	 3.250000000000000e+00	 9.986409046153835e+00
0	 8.750000000000000e+00	 3.312499999999999e+00	 9.988063353846153e+00
0	 8.750000000000000e+00	 3.374999999999999e+00	 9.989736492307689e+00
0	 8.750000000000000e+00	 3.437499999999999e+00	 9.991428461538451e+00
0	 8.750000000000000e+00	 3.499999999999999e+00	 9.993139261538461e+00
0	 8.750000000000000e+00	 3.562499999999998e+00	 9.994868892307693e+00
0	 8.750000000000000e+00	 3.624999999999999e+00	 9.996617353846148e+00
0	 8.750000000000000e+00	 3.687499999999998e+00	 9.998384646153829e+00
0	 8.750000000000000e+00	 3.750000000000000e+00	 1.000017076923076e+01
0	 8.812499999999998e+00	 3.125000000000000e+00	 9.977757323076922e+00
0	 8.812500000000000e+00	 3.187500000000000e+00	 9.979444633846157e+00
0	 8.812499999999998e+00	 3.250000000000000e+00	 9.981149944615384e+00
0	 8.812500000000000e+00	 3.312499999999999e+00	 9.982873255384614e+00
0	 8.812500000000000e+00	 3.374999999999999e+00	 9.984614566153844e+00
0	 8.812500000000002e+00	 3.437499999999999e+00	 9.986373876923068e+00
0	 8.812500000000004e+00	 3.500000000000000e+00	 9.988151187692299e+00
0	 8.812500000000002e+00	 3.562499999999999e+00	 9.989946498461540e+00
0	 8.812500000000002e+00	 3.625000000000000e+00	 9.991759809230770e+00
0	 8.812499999999996e+00	 3.687499999999997e+00	 9.993591119999985e+00
0	 8.812499999999998e+00	 3.750000000000000e+00	 9.995440430769232e+00
0	 8.874999999999998e+00	 3.125000000000000e+00	 9.972406830769231e+00
0	 8.875000000000000e+00	 3.187500000000000e+00	 9.974170104615387e+00
0	 8.875000000000004e+00	 3.250000000000000e+00	 9.975950547692308e+00
0	 8.875000000000002e+00	 3.312500000000000e+00	 9.977748159999997e+00
0	 8.874999999999998e+00	 3.374999999999999e+00	 9.979562941538456e+00
0	 8.874999999999998e+00	 3.437499999999999e+00	 9.981394892307694e+00
0	 8.874999999999996e+00	 3.499999999999997e+00	 9.983244012307694e+00
0	 8.875000000000002e+00	 3.562499999999999e+00	 9.985110301538453e+00
0	 8.875000000000000e+00	 3.624999999999998e+00	 9.986993759999990e+00
0	 8.875000000000004e+00	 3.687499999999999e+00	 9.988894387692303e+00
0	 8.874999999999998e+00	 3.750000000000000e+00	 9.990812184615374e+00
0	 8.937500000000000e+00	 3.125000000000000e+00	 9.967105446153841e+00
0	 8.937500000000000e+00	 3.187500000000000e+00	 9.968949981538461e+00
0	 8.937500000000002e+00	 3.250000000000000e+00	 9.970810855384622e+00
0	 8.937500000000000e+00	 3.312500000000000e+00	 9.972688067692300e+00
0	 8.937499999999998e+00	 3.374999999999999e+00	 9.974581618461542e+00
0	 8.937500000000000e+00	 3.437499999999999e+00	 9.976491507692307e+00
0	 8.937499999999998e+00	 3.499999999999998e+00	 9.978417735384610e+00
0	 8.937500000000000e+00	 3.562499999999998e+00	 9.980360301538450e+00
0	 8.937500000000000e+00	 3.624999999999998e+00	 9.982319206153839e+00
0	 8.937499999999998e+00	 3.687499999999998e+00	 9.984294449230765e+00
0	 8.937500000000000e+00	 3.750000000000000e+00	 9.986286030769234e+00
0	 9.000000000000000e+00	 3.125000000000000e+00	 9.961853169230761e+00
0	 9.000000000000000e+00	 3.187500000000000e+00	 9.963784264615377e+00
0	 9.000000000000000e+00	 3.250000000000000e+00	 9.965730867692310e+00
0	 9.000000000000000e+00	 3.312500000000000e+00	 9.967692978461534e+00
0	 8.999999999999998e+00	 3.374999999999999e+00	 9.969670596923066e+00
0	 9.000000000000000e+00	 3.437499999999999e+00	 9.971663723076922e+00
0	 8.999999999999996e+00	 3.499999999999998e+00	 9.973672356923064e+00
0	 8.999999999999998e+00	 3.562499999999998e+00	 9.975696498461524e+00
0	 9.000000000000000e+00	 3.624999999999999e+00	 9.977736147692312e+00
0	 9.000000000000000e+00	 3.687499999999998e+00	 9.979791304615372e+00
0	 9.000000000000000e+00	 3.750000000000000e+00	 9.981861969230769e+00
0	 9.062500000000000e+00	 3.125000000000000e+00	 9.956650000000002e+00
0	 9.062500000000000e+00	 3.187500000000000e+00	 9.958672953846147e+00
0	 9.062499999999998e+00	 3.250000000000000e+00	 9.960710584615388e+00
0	 9.062500000000000e+00	 3.312500000000000e+00	 9.962762892307691e+00
0	 9.062499999999998e+00	 3.374999999999998e+00	 9.964829876923075e+00
0	 9.062499999999998e+00	 3.437499999999999e+00	 9.966911538461538e+00
0	 9.062500000000002e+00	 3.499999999999999e+00	 9.969007876923076e+00
0	 9.062499999999998e+00	 3.562499999999999e+00	 9.971118892307683e+00
0	 9.062499999999998e+00	 3.624999999999998e+00	 9.973244584615376e+00
0	 9.062500000000002e+00	 3.687499999999999e+00	 9.975384953846159e+00
0	 9.062500000000000e+00	 3.750000000000000e+00	 9.977539999999996e+00
0	 9.124999999999998e+00	 3.125000000000000e+00	 9.951495938461534e+00
0	 9.124999999999998e+00	 3.187500000000000e+00	 9.953616049230771e+00
0	 9.124999999999996e+00	 3.249999999999999e+00	 9.955750006153844e+00
0	 9.124999999999998e+00	 3.312499999999999e+00	 9.957897809230767e+00
0	 9.125000000000002e+00	 3.375000000000000e+00	 9.960059458461538e+00
0	 9.125000000000000e+00	 3.437500000000000e+00	 9.962234953846158e+00
0	 9.124999999999998e+00	 3.499999999999999e+00	 9.964424295384607e+00
0	 9.125000000000000e+00	 3.562499999999999e+00	 9.966627483076918e+00
0	 9.125000000000000e+00	 3.624999999999999e+00	 9.968844516923070e+00
0	 9.124999999999998e+00	 3.687499999999998e+00	 9.971075396923082e+00
0	 9.124999999999998e+00	 3.750000000000000e+00	 9.973320123076924e+00
0	 9.187499999999998e+00	 3.125000000000000e+00	 9.946390984615380e+00
0	 9.187499999999998e+00	 3.187500000000000e+00	 9.948613550769240e+00
0	 9.187500000000000e+00	 3.250000000000000e+00	 9.950849132307690e+00
0	 9.187500000000000e+00	 3.312500000000000e+00	 9.953097729230770e+00
0	 9.187499999999998e+00	 3.374999999999999e+00	 9.955359341538456e+00
0	 9.187500000000000e+00	 3.437499999999999e+00	 9.957633969230759e+00
0	 9.187500000000000e+00	 3.499999999999999e+00	 9.959921612307689e+00
0	 9.187500000000000e+00	 3.562499999999999e+00	 9.962222270769228e+00
0	 9.187499999999998e+00	 3.624999999999998e+00	 9.964535944615386e+00
0	 9.187500000000000e+00	 3.687499999999999e+00	 9.966862633846148e+00
0	 9.187499999999998e+00	 3.750000000000000e+00	 9.969202338461539e+00
0	 9.249999999999998e+00	 3.125000000000000e+00	 9.941335138461536e+00
0	 9.250000000000000e+00	 3.187500000000001e+00	 9.943665458461533e+00
0	 9.249999999999998e+00	 3.250000000000000e+00	 9.946007963076923e+00
0	 9.250000000000000e+00	 3.312500000000000e+00	 9.948362652307690e+00
0	 9.249999999999998e+00	 3.374999999999999e+00	 9.950729526153847e+00
0	 9.249999999999998e+00	 3.437499999999999e+00	 9.953108584615386e+00
0	 9.249999999999998e+00	 3.499999999999998e+00	 9.955499827692300e+00
0	 9.249999999999998e+00	 3.562499999999998e+00	 9.957903255384606e+00
0	 9.250000000000000e+00	 3.624999999999998e+00	 9.960318867692308e+00
0	 9.249999999999998e+00	 3.687499999999998e+00	 9.962746664615375e+00
0	 9.249999999999998e+00	 3.750000000000000e+00	 9.965186646153851e+00
0	 9.312499999999998e+00	 3.125000000000000e+00	 9.936328400000004e+00
0	 9.312499999999998e+00	 3.187500000000000e+00	 9.938771772307689e+00
0	 9.312500000000000e+00	 3.250000000000000e+00	 9.941226498461535e+00
0	 9.312500000000000e+00	 3.312500000000000e+00	 9.943692578461539e+00
0	 9.312499999999998e+00	 3.374999999999999e+00	 9.946170012307693e+00
0	 9.312499999999998e+00	 3.437500000000000e+00	 9.948658800000002e+00
0	 9.312499999999998e+00	 3.499999999999998e+00	 9.951158941538466e+00
0	 9.312499999999998e+00	 3.562499999999998e+00	 9.953670436923073e+00
0	 9.312499999999998e+00	 3.624999999999998e+00	 9.956193286153848e+00
0	 9.312499999999998e+00	 3.687499999999997e+00	 9.958727489230759e+00
0	 9.312499999999998e+00	 3.750000000000000e+00	 9.961273046153833e+00
0	 9.375000000000000e+00	 3.125000000000000e+00	 9.931370769230764e+00
0	 9.375000000000000e+00	 3.187500000000000e+00	 9.933932492307681e+00
0	 9.375000000000002e+00	 3.250000000000000e+00	 9.936504738461529e+00
0	 9.374999999999998e+00	 3.312499999999999e+00	 9.939087507692321e+00
0	 9.375000000000002e+00	 3.374999999999999e+00	 9.941680799999997e+00
0	 9.375000000000000e+00	 3.437499999999999e+00	 9.944284615384603e+00
0	 9.375000000000000e+00	 3.499999999999999e+00	 9.946898953846146e+00
0	 9.375000000000000e+00	 3.562499999999998e+00	 9.949523815384612e+00
0	 9.375000000000000e+00	 3.624999999999999e+00	 9.952159200000004e+00
0	 9.375000000000000e+00	 3.687499999999998e+00	 9.954805107692300e+00
0	 9.375000000000000e+00	 3.750000000000000e+00	 9.957461538461533e+00
0	 8.750000000000000e+00	 3.750000000000000e+00	 1.000017076923076e+01
0	 8.750000000000000e+00	 3.812500000000000e+00	 1.000136067692310e+01
0	 8.750000000000002e+00	 3.875000000000000e+00	 1.000257347692308e+01
0	 8.750000000000000e+00	 3.937499999999999e+00	 1.000380916923076e+01
0	 8.750000000000000e+00	 4.000000000000000e+00	 1.000506775384616e+01
0	 8.750000000000000e+00	 4.062499999999999e+00	 1.000634923076923e+01
0	 8.750000000000000e+00	 4.124999999999999e+00	 1.000765360000000e+01
0	 8.750000000000000e+00	 4.187499999999998e+00	 1.000898086153845e+01
0	 8.750000000000000e+00	 4.249999999999998e+00	 1.001033101538461e+01
0	 8.750000000000000e+00	 4.312499999999998e+00	 1.001170406153847e+01
0	 8.750000000000000e+00	 4.375000000000000e+00	 1.001310000000000e+01
0	 8.812499999999998e+00	 3.750000000000000e+00	 9.995440430769232e+00
0	 8.812500000000000e+00	 3.812500000000000e+00	 9.996708026153835e+00
0	 8.812499999999998e+00	 3.875000000000000e+00	 9.997997673846147e+00
0	 8.812500000000000e+00	 3.937500000000000e+00	 9.999309373846149e+00
0	 8.812500000000000e+00	 3.999999999999999e+00	 1.000064312615384e+01
0	 8.812500000000002e+00	 4.062499999999999e+00	 1.000199893076921e+01
0	 8.812500000000004e+00	 4.125000000000000e+00	 1.000337678769230e+01
0	 8.812500000000002e+00	 4.187500000000000e+00	 1.000477669692307e+01
0	 8.812500000000002e+00	 4.250000000000000e+00	 1.000619865846154e+01
0	 8.812499999999996e+00	 4.312499999999997e+00	 1.000764267230768e+01
0	 8.812499999999998e+00	 4.375000000000000e+00	 1.000910873846153e+01
0	 8.874999999999998e+00	 3.750000000000000e+00	 9.990812184615374e+00
0	 8.875000000000000e+00	 3.812500000000000e+00	 9.992160267692315e+00
0	 8.875000000000004e+00	 3.875000000000000e+00	 9.993529563076921e+00
0	 8.875000000000002e+00	 3.937500000000000e+00	 9.994920070769222e+00
0	 8.874999999999998e+00	 3.999999999999999e+00	 9.996331790769220e+00
0	 8.874999999999998e+00	 4.062499999999999e+00	 9.997764723076916e+00
0	 8.874999999999996e+00	 4.124999999999997e+00	 9.999218867692313e+00
0	 8.875000000000002e+00	 4.187499999999998e+00	 1.000069422461538e+01
0	 8.875000000000000e+00	 4.249999999999998e+00	 1.000219079384615e+01
0	 8.875000000000004e+00	 4.312499999999998e+00	 1.000370857538462e+01
0	 8.874999999999998e+00	 4.375000000000000e+00	 1.000524756923075e+01
0	 8.937500000000000e+00	 3.750000000000000e+00	 9.986286030769234e+00
0	 8.937500000000000e+00	 3.812500000000000e+00	 9.987717401538454e+00
0	 8.937500000000002e+00	 3.875000000000000e+00	 9.989169144615374e+00
0	 8.937500000000000e+00	 3.937500000000000e+00	 9.990641259999991e+00
0	 8.937499999999998e+00	 3.999999999999999e+00	 9.992133747692300e+00
0	 8.937500000000000e+00	 4.062500000000000e+00	 9.993646607692295e+00
0	 8.937499999999998e+00	 4.124999999999998e+00	 9.995179840000002e+00
0	 8.937500000000000e+00	 4.187499999999999e+00	 9.996733444615376e+00
0	 8.937500000000000e+00	 4.249999999999998e+00	 9.998307421538453e+00
0	 8.937499999999998e+00	 4.312499999999997e+00	 9.999901770769233e+00
0	 8.937500000000000e+00	 4.375000000000000e+00	 1.000151649230768e+01
0	 9.000000000000000e+00	 3.750000000000000e+00	 9.981861969230769e+00
0	 9.000000000000000e+00	 3.812500000000000e+00	 9.983379427692311e+00
0	 9.000000000000000e+00	 3.875000000000000e+00	 9.984916418461538e+00
0	 9.000000000000000e+00	 3.937500000000000e+00	 9.986472941538448e+00
0	 8.999999999999998e+00	 3.999999999999999e+00	 9.988048996923069e+00
0	 9.000000000000000e+00	 4.062499999999999e+00	 9.989644584615386e+00
0	 8.999999999999996e+00	 4.124999999999998e+00	 9.991259704615379e+00
0	 8.999999999999998e+00	 4.187499999999999e+00	 9.992894356923069e+00
0	 9.000000000000000e+00	 4.249999999999998e+00	 9.994548541538451e+00
0	 9.000000000000000e+00	 4.312499999999998e+00	 9.996222258461533e+00
0	 9.000000000000000e+00	 4.375000000000000e+00	 9.997915507692303e+00
0	 9.062500000000000e+00	 3.750000000000000e+00	 9.977539999999996e+00
0	 9.062500000000000e+00	 3.812500000000000e+00	 9.979146346153840e+00
0	 9.062499999999998e+00	 3.875000000000000e+00	 9.980771384615371e+00
0	 9.062500000000000e+00	 3.937499999999999e+00	 9.982415115384615e+00
0	 9.062499999999998e+00	 3.999999999999998e+00	 9.984077538461534e+00
0	 9.062499999999998e+00	 4.062499999999999e+00	 9.985758653846140e+00
0	 9.062500000000002e+00	 4.125000000000000e+00	 9.987458461538459e+00
0	 9.062499999999998e+00	 4.187499999999998e+00	 9.989176961538458e+00
0	 9.062499999999998e+00	 4.249999999999998e+00	 9.990914153846141e+00
0	 9.062500000000002e+00	 4.312499999999998e+00	 9.992670038461526e+00
0	 9.062500000000000e+00	 4.375000000000000e+00	 9.994444615384600e+00
0	 9.124999999999998e+00	 3.750000000000000e+00	 9.973320123076924e+00
0	 9.124999999999998e+00	 3.812500000000000e+00	 9.975018156923070e+00
0	 9.124999999999996e+00	 3.874999999999999e+00	 9.976734043076929e+00
0	 9.124999999999998e+00	 3.937500000000000e+00	 9.978467781538463e+00
0	 9.125000000000002e+00	 4.000000000000000e+00	 9.980219372307685e+00
0	 9.125000000000000e+00	 4.062500000000000e+00	 9.981988815384620e+00
0	 9.124999999999998e+00	 4.124999999999999e+00	 9.983776110769229e+00
0	 9.125000000000000e+00	 4.187499999999998e+00	 9.985581258461533e+00
0	 9.125000000000000e+00	 4.249999999999999e+00	 9.987404258461538e+00
0	 9.124999999999998e+00	 4.312499999999997e+00	 9.989245110769239e+00
0	 9.124999999999998e+00	 4.375000000000000e+00	 9.991103815384601e+00
0	 9.187499999999998e+00	 3.750000000000000e+00	 9.969202338461539e+00
0	 9.187499999999998e+00	 3.812500000000000e+00	 9.970994859999994e+00
0	 9.187500000000000e+00	 3.875000000000000e+00	 9.972804393846147e+00
0	 9.187500000000000e+00	 3.937499999999999e+00	 9.974630939999994e+00
0	 9.187499999999998e+00	 3.999999999999999e+00	 9.976474498461540e+00
0	 9.187500000000000e+00	 4.062500000000000e+00	 9.978335069230766e+00
0	 9.187500000000000e+00	 4.124999999999999e+00	 9.980212652307689e+00
0	 9.187500000000000e+00	 4.187499999999999e+00	 9.982107247692309e+00
0	 9.187499999999998e+00	 4.249999999999998e+00	 9.984018855384615e+00
0	 9.187500000000000e+00	 4.312499999999998e+00	 9.985947475384616e+00
0	 9.187499999999998e+00	 4.375000000000000e+00	 9.987893107692299e+00
0	 9.249999999999998e+00	 3.750000000000000e+00	 9.965186646153851e+00
0	 9.250000000000000e+00	 3.812500000000000e+00	 9.967076455384623e+00
0	 9.249999999999998e+00	 3.875000000000000e+00	 9.968982436923074e+00
0	 9.250000000000000e+00	 3.937500000000000e+00	 9.970904590769235e+00
0	 9.249999999999998e+00	 3.999999999999999e+00	 9.972842916923071e+00
0	 9.249999999999998e+00	 4.062499999999998e+00	 9.974797415384618e+00
0	 9.249999999999998e+00	 4.124999999999999e+00	 9.976768086153843e+00
0	 9.249999999999998e+00	 4.187499999999998e+00	 9.978754929230753e+00
0	 9.250000000000000e+00	 4.249999999999998e+00	 9.980757944615384e+00
0	 9.249999999999998e+00	 4.312499999999998e+00	 9.982777132307691e+00
0	 9.249999999999998e+00	 4.375000000000000e+00	 9.984812492307697e+00
0	 9.312499999999998e+00	 3.750000000000000e+00	 9.961273046153833e+00
0	 9.312499999999998e+00	 3.812500000000000e+00	 9.963262943076909e+00
0	 9.312500000000000e+00	 3.875000000000000e+00	 9.965268172307690e+00
0	 9.312500000000000e+00	 3.937499999999999e+00	 9.967288733846150e+00
0	 9.312499999999998e+00	 3.999999999999999e+00	 9.969324627692298e+00
0	 9.312499999999998e+00	 4.062499999999998e+00	 9.971375853846155e+00
0	 9.312499999999998e+00	 4.124999999999998e+00	 9.973442412307698e+00
0	 9.312499999999998e+00	 4.187499999999998e+00	 9.975524303076931e+00
0	 9.312499999999998e+00	 4.249999999999998e+00	 9.977621526153843e+00
0	 9.312499999999998e+00	 4.312499999999998e+00	 9.979734081538469e+00
0	 9.312499999999998e+00	 4.375000000000000e+00	 9.981861969230767e+00
0	 9.375000000000000e+00	 3.750000000000000e+00	 9.957461538461533e+00
0	 9.375000000000000e+00	 3.812500000000000e+00	 9.959554323076921e+00
0	 9.375000000000002e+00	 3.875000000000000e+00	 9.961661600000001e+00
0	 9.374999999999998e+00	 3.937499999999999e+00	 9.963783369230763e+00
0	 9.375000000000002e+00	 4.000000000000000e+00	 9.965919630769223e+00
0	 9.375000000000000e+00	 4.062499999999999e+00	 9.968070384615388e+00
0	 9.375000000000000e+00	 4.124999999999999e+00	 9.970235630769221e+00
0	 9.375000000000000e+00	 4.187499999999998e+00	 9.972415369230770e+00
0	 9.375000000000000e+00	 4.249999999999998e+00	 9.974609599999996e+00
0	 9.375000000000000e+00	 4.312499999999998e+00	 9.976818323076925e+00
0	 9.375000000000000e+00	 4.375000000000000e+00	 9.979041538461532e+00
0	 8.750000000000000e+00	 4.375000000000000e+00	 1.001310000000000e+01
0	 8.750000000000000e+00	 4.437499999999999e+00	 1.001381850769231e+01
0	 8.750000000000002e+00	 4.500000000000001e+00	 1.001455926153845e+01
0	 8.750000000000000e+00	 4.562499999999999e+00	 1.001532226153846e+01
0	 8.750000000000000e+00	 4.625000000000000e+00	 1.001610750769230e+01
0	 8.750000000000000e+00	 4.687499999999999e+00	 1.001691500000000e+01
0	 8.750000000000000e+00	 4.749999999999999e+00	 1.001774473846154e+01
0	 8.750000000000000e+00	 4.812499999999998e+00	 1.001859672307693e+01
0	 8.750000000000000e+00	 4.874999999999998e+00	 1.001947095384616e+01
0	 8.750000000000000e+00	 4.937499999999998e+00	 1.002036743076922e+01
0	 8.750000000000000e+00	 5.000000000000000e+00	 1.002128615384616e+01
0	 8.812499999999998e+00	 4.375000000000000e+00	 1.000910873846153e+01
0	 8.812500000000000e+00	 4.437500000000000e+00	 1.000990250307691e+01
0	 8.812499999999998e+00	 4.499999999999999e+00	 1.001071789538461e+01
0	 8.812500000000000e+00	 4.562499999999999e+00	 1.001155491538461e+01
0	 8.812500000000000e+00	 4.625000000000000e+00	 1.001241356307692e+01
0	 8.812500000000002e+00	 4.687500000000001e+00	 1.001329383846153e+01
0	 8.812500000000004e+00	 4.749999999999999e+00	 1.001419574153847e+01
0	 8.812500000000002e+00	 4.812499999999999e+00	 1.001511927230769e+01
0	 8.812500000000002e+00	 4.875000000000000e+00	 1.001606443076923e+01
0	 8.812499999999996e+00	 4.937499999999997e+00	 1.001703121692307e+01
0	 8.812499999999998e+00	 4.999999999999999e+00	 1.001801963076922e+01
0	 8.874999999999998e+00	 4.375000000000000e+00	 1.000524756923075e+01
0	 8.875000000000000e+00	 4.437500000000000e+00	 1.000611732307693e+01
0	 8.875000000000004e+00	 4.500000000000001e+00	 1.000700808615384e+01
0	 8.875000000000002e+00	 4.562499999999999e+00	 1.000791985846154e+01
0	 8.874999999999998e+00	 4.624999999999998e+00	 1.000885263999999e+01
0	 8.874999999999998e+00	 4.687499999999997e+00	 1.000980643076923e+01
0	 8.874999999999996e+00	 4.749999999999998e+00	 1.001078123076923e+01
0	 8.875000000000002e+00	 4.812499999999999e+00	 1.001177703999999e+01
0	 8.875000000000000e+00	 4.874999999999998e+00	 1.001279385846155e+01
0	 8.875000000000004e+00	 4.937499999999998e+00	 1.001383168615385e+01
0	 8.874999999999998e+00	 5.000000000000000e+00	 1.001489052307691e+01
0	 8.937500000000000e+00	 4.375000000000000e+00	 1.000151649230768e+01
0	 8.937500000000000e+00	 4.437500000000000e+00	 1.000246296769231e+01
0	 8.937500000000002e+00	 4.500000000000000e+00	 1.000342983384615e+01
0	 8.937500000000000e+00	 4.562499999999999e+00	 1.000441709076922e+01
0	 8.937499999999998e+00	 4.625000000000000e+00	 1.000542473846154e+01
0	 8.937500000000000e+00	 4.687499999999999e+00	 1.000645277692307e+01
0	 8.937499999999998e+00	 4.749999999999998e+00	 1.000750120615385e+01
0	 8.937500000000000e+00	 4.812499999999998e+00	 1.000857002615384e+01
0	 8.937500000000000e+00	 4.874999999999998e+00	 1.000965923692309e+01
0	 8.937499999999998e+00	 4.937499999999997e+00	 1.001076883846154e+01
0	 8.937500000000000e+00	 4.999999999999999e+00	 1.001189883076924e+01
0	 9.000000000000000e+00	 4.375000000000000e+00	 9.997915507692303e+00
0	 9.000000000000000e+00	 4.437500000000000e+00	 9.998939436923074e+00
0	 9.000000000000000e+00	 4.500000000000000e+00	 9.999983138461527e+00
0	 9.000000000000000e+00	 4.562499999999999e+00	 1.000104661230768e+01
0	 8.999999999999998e+00	 4.624999999999999e+00	 1.000212985846154e+01
0	 9.000000000000000e+00	 4.687500000000000e+00	 1.000323287692308e+01
0	 8.999999999999996e+00	 4.749999999999998e+00	 1.000435566769230e+01
0	 8.999999999999998e+00	 4.812499999999999e+00	 1.000549823076923e+01
0	 9.000000000000000e+00	 4.874999999999998e+00	 1.000666056615385e+01
0	 9.000000000000000e+00	 4.937499999999997e+00	 1.000784267384614e+01
0	 9.000000000000000e+00	 5.000000000000000e+00	 1.000904455384615e+01
0	 9.062500000000000e+00	 4.375000000000000e+00	 9.994444615384600e+00
0	 9.062500000000000e+00	 4.437499999999999e+00	 9.995546730769217e+00
0	 9.062499999999998e+00	 4.499999999999999e+00	 9.996667999999998e+00
0	 9.062500000000000e+00	 4.562499999999999e+00	 9.997808423076913e+00
0	 9.062499999999998e+00	 4.624999999999998e+00	 9.998968000000005e+00
0	 9.062499999999998e+00	 4.687499999999999e+00	 1.000014673076923e+01
0	 9.062500000000002e+00	 4.750000000000000e+00	 1.000134461538462e+01
0	 9.062499999999998e+00	 4.812499999999998e+00	 1.000256165384615e+01
0	 9.062499999999998e+00	 4.874999999999998e+00	 1.000379784615383e+01
0	 9.062500000000002e+00	 4.937499999999999e+00	 1.000505319230769e+01
0	 9.062500000000000e+00	 5.000000000000000e+00	 1.000632769230770e+01
0	 9.124999999999998e+00	 4.375000000000000e+00	 9.991103815384601e+00
0	 9.124999999999998e+00	 4.437499999999999e+00	 9.992284849230762e+00
0	 9.124999999999996e+00	 4.499999999999998e+00	 9.993484418461529e+00
0	 9.124999999999998e+00	 4.562499999999999e+00	 9.994702523076915e+00
0	 9.125000000000002e+00	 4.625000000000001e+00	 9.995939163076926e+00
0	 9.125000000000000e+00	 4.687499999999999e+00	 9.997194338461531e+00
0	 9.124999999999998e+00	 4.749999999999998e+00	 9.998468049230762e+00
0	 9.125000000000000e+00	 4.812499999999999e+00	 9.999760295384617e+00
0	 9.125000000000000e+00	 4.874999999999998e+00	 1.000107107692308e+01
0	 9.124999999999998e+00	 4.937499999999999e+00	 1.000240039384615e+01
0	 9.124999999999998e+00	 5.000000000000001e+00	 1.000374824615386e+01
0	 9.187499999999998e+00	 4.375000000000000e+00	 9.987893107692299e+00
0	 9.187499999999998e+00	 4.437499999999999e+00	 9.989153792307693e+00
0	 9.187500000000000e+00	 4.500000000000000e+00	 9.990432393846138e+00
0	 9.187500000000000e+00	 4.562499999999999e+00	 9.991728912307687e+00
0	 9.187499999999998e+00	 4.625000000000000e+00	 9.993043347692302e+00
0	 9.187500000000000e+00	 4.687500000000000e+00	 9.994375699999996e+00
0	 9.187500000000000e+00	 4.749999999999999e+00	 9.995725969230769e+00
0	 9.187500000000000e+00	 4.812499999999999e+00	 9.997094155384627e+00
0	 9.187499999999998e+00	 4.874999999999998e+00	 9.998480258461525e+00
0	 9.187500000000000e+00	 4.937499999999999e+00	 9.999884278461531e+00
0	 9.187499999999998e+00	 4.999999999999999e+00	 1.000130621538462e+01
0	 9.249999999999998e+00	 4.375000000000000e+00	 9.984812492307697e+00
0	 9.250000000000000e+00	 4.437500000000001e+00	 9.986153559999995e+00
0	 9.249999999999998e+00	 4.499999999999999e+00	 9.987511926153854e+00
0	 9.250000000000000e+00	 4.562500000000000e+00	 9.988887590769234e+00
0	 9.249999999999998e+00	 4.624999999999999e+00	 9.990280553846155e+00
0	 9.249999999999998e+00	 4.687499999999998e+00	 9.991690815384615e+00
0	 9.249999999999998e+00	 4.749999999999999e+00	 9.993118375384610e+00
0	 9.249999999999998e+00	 4.812499999999998e+00	 9.994563233846151e+00
0	 9.250000000000000e+00	 4.874999999999999e+00	 9.996025390769226e+00
0	 9.249999999999998e+00	 4.937499999999998e+00	 9.997504846153843e+00
0	 9.249999999999998e+00	 5.000000000000000e+00	 9.999001600000000e+00
0	 9.312499999999998e+00	 4.375000000000000e+00	 9.981861969230767e+00
0	 9.312499999999998e+00	 4.437500000000000e+00	 9.983284152307686e+00
0	 9.312500000000000e+00	 4.500000000000000e+00	 9.984723015384613e+00
0	 9.312500000000000e+00	 4.562500000000000e+00	 9.986178558461537e+00
0	 9.312499999999998e+00	 4.624999999999999e+00	 9.987650781538450e+00
0	 9.312499999999998e+00	 4.687499999999999e+00	 9.989139684615377e+00
0	 9.312499999999998e+00	 4.749999999999999e+00	 9.990645267692306e+00
0	 9.312499999999998e+00	 4.812499999999998e+00	 9.992167530769235e+00
0	 9.312499999999998e+00	 4.874999999999999e+00	 9.993706473846160e+00
0	 9.312499999999998e+00	 4.937499999999998e+00	 9.995262096923074e+00
0	 9.312499999999998e+00	 5.000000000000000e+00	 9.996834400000008e+00
0	 9.375000000000000e+00	 4.375000000000000e+00	 9.979041538461532e+00
0	 9.375000000000000e+00	 4.437499999999999e+00	 9.980545569230761e+00
0	 9.375000000000002e+00	 4.500000000000001e+00	 9.982065661538448e+00
0	 9.374999999999998e+00	 4.562499999999999e+00	 9.983601815384620e+00
0	 9.375000000000002e+00	 4.625000000000000e+00	 9.985154030769230e+00
0	 9.375000000000000e+00	 4.687499999999999e+00	 9.986722307692290e+00
0	 9.375000000000000e+00	 4.749999999999999e+00	 9.988306646153839e+00
0	 9.375000000000000e+00	 4.812499999999998e+00	 9.989907046153837e+00
0	 9.375000000000000e+00	 4.874999999999998e+00	 9.991523507692291e+00
0	 9.375000000000000e+00	 4.937499999999998e+00	 9.993156030769228e+00
0	 9.375000000000000e+00	 5.000000000000000e+00	 9.994804615384613e+00
0	 8.750000000000000e+00	 5.000000000000000e+00	 1.002128615384616e+01
0	 8.750000000000000e+00	 5.062500000000000e+00	 1.002155130769233e+01
0	 8.750000000000002e+00	 5.125000000000001e+00	 1.002183538461539e+01
0	 8.750000000000000e+00	 5.187499999999999e+00	 1.002213838461537e+01
0	 8.750000000000000e+00	 5.249999999999999e+00	 1.002246030769230e+01
0	 8.750000000000000e+00	 5.312499999999999e+00	 1.002280115384615e+01
0	 8.750000000000000e+00	 5.374999999999998e+00	 1.002316092307692e+01
0	 8.750000000000000e+00	 5.437499999999998e+00	 1.002353961538461e+01
0	 8.750000000000000e+00	 5.499999999999998e+00	 1.002393723076924e+01
0	 8.750000000000000e+00	 5.562499999999998e+00	 1.002435376923076e+01
0	 8.750000000000000e+00	 5.625000000000000e+00	 1.002478923076923e+01
0	 8.812499999999998e+00	 4.999999999999999e+00	 1.001801963076922e+01
0	 8.812500000000000e+00	 5.062500000000000e+00	 1.001835507076923e+01
0	 8.812499999999998e+00	 5.125000000000000e+00	 1.001870904615384e+01
0	 8.812500000000000e+00	 5.187499999999999e+00	 1.001908155692308e+01
0	 8.812500000000000e+00	 5.249999999999998e+00	 1.001947260307693e+01
0	 8.812500000000002e+00	 5.312500000000000e+00	 1.001988218461538e+01
0	 8.812500000000004e+00	 5.374999999999999e+00	 1.002031030153846e+01
0	 8.812500000000002e+00	 5.437499999999999e+00	 1.002075695384616e+01
0	 8.812500000000002e+00	 5.499999999999999e+00	 1.002122214153847e+01
0	 8.812499999999996e+00	 5.562499999999996e+00	 1.002170586461538e+01
0	 8.812499999999998e+00	 5.625000000000000e+00	 1.002220812307692e+01
0	 8.874999999999998e+00	 5.000000000000000e+00	 1.001489052307691e+01
0	 8.875000000000000e+00	 5.062499999999999e+00	 1.001529487076923e+01
0	 8.875000000000004e+00	 5.125000000000001e+00	 1.001571736615384e+01
0	 8.875000000000002e+00	 5.187499999999998e+00	 1.001615800923077e+01
0	 8.874999999999998e+00	 5.249999999999999e+00	 1.001661680000000e+01
0	 8.874999999999998e+00	 5.312499999999999e+00	 1.001709373846154e+01
0	 8.874999999999996e+00	 5.374999999999999e+00	 1.001758882461539e+01
0	 8.875000000000002e+00	 5.437499999999999e+00	 1.001810205846154e+01
0	 8.875000000000000e+00	 5.499999999999998e+00	 1.001863344000000e+01
0	 8.875000000000004e+00	 5.562499999999999e+00	 1.001918296923077e+01
0	 8.874999999999998e+00	 5.625000000000000e+00	 1.001975064615385e+01
0	 8.937500000000000e+00	 4.999999999999999e+00	 1.001189883076924e+01
0	 8.937500000000000e+00	 5.062500000000001e+00	 1.001237070769231e+01
0	 8.937500000000002e+00	 5.125000000000000e+00	 1.001286034461538e+01
0	 8.937500000000000e+00	 5.187499999999999e+00	 1.001336774153846e+01
0	 8.937499999999998e+00	 5.250000000000000e+00	 1.001389289846154e+01
0	 8.937500000000000e+00	 5.312499999999999e+00	 1.001443581538462e+01
0	 8.937499999999998e+00	 5.374999999999998e+00	 1.001499649230769e+01
0	 8.937500000000000e+00	 5.437499999999999e+00	 1.001557492923077e+01
0	 8.937500000000000e+00	 5.499999999999998e+00	 1.001617112615384e+01
0	 8.937499999999998e+00	 5.562499999999997e+00	 1.001678508307692e+01
0	 8.937500000000000e+00	 5.625000000000000e+00	 1.001741680000000e+01
0	 9.000000000000000e+00	 5.000000000000000e+00	 1.000904455384615e+01
0	 9.000000000000000e+00	 5.062500000000000e+00	 1.000958258153845e+01
0	 9.000000000000000e+00	 5.125000000000000e+00	 1.001013798153845e+01
0	 9.000000000000000e+00	 5.187500000000000e+00	 1.001071075384616e+01
0	 8.999999999999998e+00	 5.249999999999999e+00	 1.001130089846153e+01
0	 9.000000000000000e+00	 5.312499999999999e+00	 1.001190841538462e+01
0	 8.999999999999996e+00	 5.374999999999998e+00	 1.001253330461539e+01
0	 8.999999999999998e+00	 5.437499999999999e+00	 1.001317556615385e+01
0	 9.000000000000000e+00	 5.499999999999999e+00	 1.001383520000001e+01
0	 9.000000000000000e+00	 5.562499999999998e+00	 1.001451220615384e+01
0	 9.000000000000000e+00	 5.625000000000000e+00	 1.001520658461537e+01
0	 9.062500000000000e+00	 5.000000000000000e+00	 1.000632769230770e+01
0	 9.062500000000000e+00	 5.062500000000000e+00	 1.000693049230769e+01
0	 9.062499999999998e+00	 5.124999999999999e+00	 1.000755027692307e+01
0	 9.062500000000000e+00	 5.187500000000000e+00	 1.000818704615384e+01
0	 9.062499999999998e+00	 5.249999999999998e+00	 1.000884080000000e+01
0	 9.062499999999998e+00	 5.312499999999999e+00	 1.000951153846153e+01
0	 9.062500000000002e+00	 5.375000000000000e+00	 1.001019926153847e+01
0	 9.062499999999998e+00	 5.437499999999998e+00	 1.001090396923077e+01
0	 9.062499999999998e+00	 5.499999999999998e+00	 1.001162566153846e+01
0	 9.062500000000002e+00	 5.562499999999999e+00	 1.001236433846154e+01
0	 9.062500000000000e+00	 5.625000000000000e+00	 1.001312000000000e+01
0	 9.124999999999998e+00	 5.000000000000001e+00	 1.000374824615386e+01
0	 9.124999999999998e+00	 5.062499999999999e+00	 1.000441444000000e+01
0	 9.124999999999996e+00	 5.125000000000000e+00	 1.000509723076923e+01
0	 9.124999999999998e+00	 5.187500000000000e+00	 1.000579661846154e+01
0	 9.125000000000002e+00	 5.250000000000001e+00	 1.000651260307692e+01
0	 9.125000000000000e+00	 5.312500000000001e+00	 1.000724518461539e+01
0	 9.124999999999998e+00	 5.374999999999999e+00	 1.000799436307693e+01
0	 9.125000000000000e+00	 5.437499999999999e+00	 1.000876013846154e+01
0	 9.125000000000000e+00	 5.499999999999998e+00	 1.000954251076923e+01
0	 9.124999999999998e+00	 5.562499999999998e+00	 1.001034148000000e+01
0	 9.124999999999998e+00	 5.625000000000000e+00	 1.001115704615385e+01
0	 9.187499999999998e+00	 4.999999999999999e+00	 1.000130621538462e+01
0	 9.187499999999998e+00	 5.062500000000000e+00	 1.000203442461537e+01
0	 9.187500000000000e+00	 5.125000000000000e+00	 1.000277884307691e+01
0	 9.187500000000000e+00	 5.187500000000000e+00	 1.000353947076922e+01
0	 9.187499999999998e+00	 5.250000000000000e+00	 1.000431630769230e+01
0	 9.187500000000000e+00	 5.312500000000000e+00	 1.000510935384615e+01
0	 9.187500000000000e+00	 5.374999999999999e+00	 1.000591860923077e+01
0	 9.187500000000000e+00	 5.437499999999998e+00	 1.000674407384614e+01
0	 9.187499999999998e+00	 5.499999999999998e+00	 1.000758574769231e+01
0	 9.187500000000000e+00	 5.562499999999999e+00	 1.000844363076923e+01
0	 9.187499999999998e+00	 5.625000000000000e+00	 1.000931772307693e+01
0	 9.249999999999998e+00	 5.000000000000000e+00	 9.999001600000000e+00
0	 9.250000000000000e+00	 5.062500000000002e+00	 9.999790446153852e+00
0	 9.249999999999998e+00	 5.124999999999999e+00	 1.000059511384617e+01
0	 9.250000000000000e+00	 5.187500000000000e+00	 1.000141560307694e+01
0	 9.249999999999998e+00	 5.249999999999998e+00	 1.000225191384615e+01
0	 9.249999999999998e+00	 5.312499999999999e+00	 1.000310404615385e+01
0	 9.249999999999998e+00	 5.374999999999998e+00	 1.000397200000001e+01
0	 9.249999999999998e+00	 5.437499999999998e+00	 1.000485577538461e+01
0	 9.250000000000000e+00	 5.499999999999999e+00	 1.000575537230770e+01
0	 9.249999999999998e+00	 5.562499999999998e+00	 1.000667079076923e+01
0	 9.249999999999998e+00	 5.625000000000000e+00	 1.000760203076924e+01
0	 9.312499999999998e+00	 5.000000000000000e+00	 9.996834400000008e+00
0	 9.312499999999998e+00	 5.062500000000000e+00	 9.997682504615398e+00
0	 9.312500000000000e+00	 5.125000000000001e+00	 9.998546043076928e+00
0	 9.312500000000000e+00	 5.187499999999999e+00	 9.999425015384610e+00
0	 9.312499999999998e+00	 5.249999999999999e+00	 1.000031942153845e+01
0	 9.312499999999998e+00	 5.312499999999998e+00	 1.000122926153846e+01
0	 9.312499999999998e+00	 5.374999999999997e+00	 1.000215453538461e+01
0	 9.312499999999998e+00	 5.437499999999998e+00	 1.000309524307693e+01
0	 9.312499999999998e+00	 5.499999999999999e+00	 1.000405138461540e+01
0	 9.312499999999998e+00	 5.562499999999998e+00	 1.000502296000000e+01
0	 9.312499999999998e+00	 5.625000000000000e+00	 1.000600996923077e+01
0	 9.375000000000000e+00	 5.000000000000000e+00	 9.994804615384613e+00
0	 9.375000000000000e+00	 5.062500000000000e+00	 9.995710600000010e+00
0	 9.375000000000002e+00	 5.125000000000001e+00	 9.996631630769235e+00
0	 9.374999999999998e+00	 5.187499999999999e+00	 9.997567707692298e+00
0	 9.375000000000002e+00	 5.249999999999999e+00	 9.998518830769230e+00
0	 9.375000000000000e+00	 5.312499999999999e+00	 9.999485000000000e+00
0	 9.375000000000000e+00	 5.374999999999998e+00	 1.000046621538461e+01
0	 9.375000000000000e+00	 5.437499999999998e+00	 1.000146247692308e+01
0	 9.375000000000000e+00	 5.499999999999998e+00	 1.000247378461539e+01
0	 9.375000000000000e+00	 5.562499999999998e+00	 1.000350013846153e+01
0	 9.375000000000000e+00	 5.625000000000000e+00	 1.000454153846154e+01
0	 8.750000000000000e+00	 5.625000000000000e+00	 1.002478923076923e+01
0	 8.750000000000000e+00	 5.687500000000000e+00	 1.002467883076924e+01
0	 8.750000000000002e+00	 5.750000000000000e+00	 1.002458209230769e+01
0	 8.750000000000000e+00	 5.812499999999999e+00	 1.002449901538463e+01
0	 8.750000000000000e+00	 5.874999999999999e+00	 1.002442960000000e+01
0	 8.750000000000000e+00	 5.937499999999999e+00	 1.002437384615384e+01
0	 8.750000000000000e+00	 5.999999999999998e+00	 1.002433175384617e+01
0	 8.750000000000000e+00	 6.062499999999998e+00	 1.002430332307693e+01
0	 8.750000000000000e+00	 6.124999999999998e+00	 1.002428855384616e+01
0	 8.750000000000000e+00	 6.187499999999998e+00	 1.002428744615386e+01
0	 8.750000000000000e+00	 6.250000000000000e+00	 1.002430000000000e+01
0	 8.812499999999998e+00	 5.625000000000000e+00	 1.002220812307692e+01
0	 8.812500000000000e+00	 5.687499999999999e+00	 1.002215928769231e+01
0	 8.812499999999998e+00	 5.749999999999999e+00	 1.002212396615385e+01
0	 8.812500000000000e+00	 5.812499999999998e+00	 1.002210215846153e+01
0	 8.812500000000000e+00	 5.875000000000000e+00	 1.002209386461539e+01
0	 8.812500000000002e+00	 5.937500000000001e+00	 1.002209908461538e+01
0	 8.812500000000004e+00	 5.999999999999999e+00	 1.002211781846155e+01
0	 8.812500000000002e+00	 6.062500000000000e+00	 1.002215006615384e+01
0	 8.812500000000002e+00	 6.125000000000000e+00	 1.002219582769230e+01
0	 8.812499999999996e+00	 6.187499999999996e+00	 1.002225510307692e+01
0	 8.812499999999998e+00	 6.250000000000000e+00	 1.002232789230769e+01
0	 8.874999999999998e+00	 5.625000000000000e+00	 1.001975064615385e+01
0	 8.875000000000000e+00	 5.687499999999999e+00	 1.001976068307693e+01
0	 8.875000000000004e+00	 5.750000000000002e+00	 1.001978408615384e+01
0	 8.875000000000002e+00	 5.812499999999999e+00	 1.001982085538462e+01
0	 8.874999999999998e+00	 5.874999999999998e+00	 1.001987099076923e+01
0	 8.874999999999998e+00	 5.937499999999999e+00	 1.001993449230770e+01
0	 8.874999999999996e+00	 5.999999999999998e+00	 1.002001136000000e+01
0	 8.875000000000002e+00	 6.062499999999999e+00	 1.002010159384615e+01
0	 8.875000000000000e+00	 6.124999999999998e+00	 1.002020519384614e+01
0	 8.875000000000004e+00	 6.187499999999998e+00	 1.002032216000000e+01
0	 8.874999999999998e+00	 6.250000000000000e+00	 1.002045249230770e+01
0	 8.937500000000000e+00	 5.625000000000000e+00	 1.001741680000000e+01
0	 8.937500000000000e+00	 5.687500000000000e+00	 1.001748301692308e+01
0	 8.937500000000002e+00	 5.749999999999999e+00	 1.001756245230769e+01
0	 8.937500000000000e+00	 5.812499999999999e+00	 1.001765510615385e+01
0	 8.937499999999998e+00	 5.875000000000000e+00	 1.001776097846155e+01
0	 8.937500000000000e+00	 5.937500000000000e+00	 1.001788006923077e+01
0	 8.937499999999998e+00	 5.999999999999998e+00	 1.001801237846154e+01
0	 8.937500000000000e+00	 6.062499999999998e+00	 1.001815790615385e+01
0	 8.937500000000000e+00	 6.124999999999997e+00	 1.001831665230769e+01
0	 8.937499999999998e+00	 6.187499999999997e+00	 1.001848861692309e+01
0	 8.937500000000000e+00	 6.250000000000000e+00	 1.001867379999998e+01
0	 9.000000000000000e+00	 5.625000000000000e+00	 1.001520658461537e+01
0	 9.000000000000000e+00	 5.687500000000000e+00	 1.001532628923076e+01
0	 9.000000000000000e+00	 5.750000000000000e+00	 1.001545906461540e+01
0	 9.000000000000000e+00	 5.812500000000000e+00	 1.001560491076923e+01
0	 8.999999999999998e+00	 5.874999999999999e+00	 1.001576382769230e+01
0	 9.000000000000000e+00	 5.937499999999999e+00	 1.001593581538462e+01
0	 8.999999999999996e+00	 5.999999999999997e+00	 1.001612087384616e+01
0	 8.999999999999998e+00	 6.062499999999998e+00	 1.001631900307692e+01
0	 9.000000000000000e+00	 6.124999999999999e+00	 1.001653020307693e+01
0	 9.000000000000000e+00	 6.187499999999998e+00	 1.001675447384615e+01
0	 9.000000000000000e+00	 6.250000000000000e+00	 1.001699181538463e+01
0	 9.062500000000000e+00	 5.625000000000000e+00	 1.001312000000000e+01
0	 9.062500000000000e+00	 5.687500000000000e+00	 1.001329050000001e+01
0	 9.062499999999998e+00	 5.750000000000000e+00	 1.001347392307692e+01
0	 9.062500000000000e+00	 5.812500000000000e+00	 1.001367026923077e+01
0	 9.062499999999998e+00	 5.874999999999998e+00	 1.001387953846155e+01
0	 9.062499999999998e+00	 5.937499999999998e+00	 1.001410173076924e+01
0	 9.062500000000002e+00	 6.000000000000000e+00	 1.001433684615385e+01
0	 9.062499999999998e+00	 6.062499999999998e+00	 1.001458488461538e+01
0	 9.062499999999998e+00	 6.124999999999998e+00	 1.001484584615386e+01
0	 9.062500000000002e+00	 6.187499999999999e+00	 1.001511973076925e+01
0	 9.062500000000000e+00	 6.250000000000000e+00	 1.001540653846156e+01
0	 9.124999999999998e+00	 5.625000000000000e+00	 1.001115704615385e+01
0	 9.124999999999998e+00	 5.687499999999999e+00	 1.001137564923077e+01
0	 9.124999999999996e+00	 5.750000000000000e+00	 1.001160702769231e+01
0	 9.124999999999998e+00	 5.812499999999999e+00	 1.001185118153845e+01
0	 9.125000000000002e+00	 5.875000000000001e+00	 1.001210811076924e+01
0	 9.125000000000000e+00	 5.937499999999999e+00	 1.001237781538462e+01
0	 9.124999999999998e+00	 5.999999999999998e+00	 1.001266029538461e+01
0	 9.125000000000000e+00	 6.062499999999999e+00	 1.001295555076925e+01
0	 9.125000000000000e+00	 6.124999999999998e+00	 1.001326358153845e+01
0	 9.124999999999998e+00	 6.187499999999998e+00	 1.001358438769231e+01
0	 9.124999999999998e+00	 6.250000000000000e+00	 1.001391796923078e+01
0	 9.187499999999998e+00	 5.625000000000000e+00	 1.000931772307693e+01
0	 9.187499999999998e+00	 5.687500000000000e+00	 1.000958173692307e+01
0	 9.187500000000000e+00	 5.750000000000000e+00	 1.000985837846154e+01
0	 9.187500000000000e+00	 5.812499999999999e+00	 1.001014764769232e+01
0	 9.187499999999998e+00	 5.874999999999999e+00	 1.001044954461539e+01
0	 9.187500000000000e+00	 5.937500000000001e+00	 1.001076406923078e+01
0	 9.187500000000000e+00	 5.999999999999999e+00	 1.001109122153847e+01
0	 9.187500000000000e+00	 6.062499999999999e+00	 1.001143100153847e+01
0	 9.187499999999998e+00	 6.124999999999999e+00	 1.001178340923079e+01
0	 9.187500000000000e+00	 6.187499999999999e+00	 1.001214844461539e+01
0	 9.187499999999998e+00	 6.250000000000000e+00	 1.001252610769231e+01
0	 9.249999999999998e+00	 5.625000000000000e+00	 1.000760203076924e+01
0	 9.250000000000000e+00	 5.687500000000000e+00	 1.000790876307693e+01
0	 9.249999999999998e+00	 5.750000000000000e+00	 1.000822797538462e+01
0	 9.250000000000000e+00	 5.812499999999999e+00	 1.000855966769231e+01
0	 9.249999999999998e+00	 5.875000000000000e+00	 1.000890384000001e+01
0	 9.249999999999998e+00	 5.937500000000000e+00	 1.000926049230769e+01
0	 9.249999999999998e+00	 5.999999999999998e+00	 1.000962962461539e+01
0	 9.249999999999998e+00	 6.062499999999998e+00	 1.001001123692308e+01
0	 9.250000000000000e+00	 6.124999999999999e+00	 1.001040532923077e+01
0	 9.249999999999998e+00	 6.187499999999998e+00	 1.001081190153846e+01
0	 9.249999999999998e+00	 6.250000000000000e+00	 1.001123095384617e+01
0	 9.312499999999998e+00	 5.625000000000000e+00	 1.000600996923077e+01
0	 9.312499999999998e+00	 5.687500000000000e+00	 1.000635672769232e+01
0	 9.312500000000000e+00	 5.750000000000000e+00	 1.000671581846154e+01
0	 9.312500000000000e+00	 5.812499999999999e+00	 1.000708724153846e+01
0	 9.312499999999998e+00	 5.875000000000000e+00	 1.000747099692308e+01
0	 9.312499999999998e+00	 5.937499999999999e+00	 1.000786708461539e+01
0	 9.312499999999998e+00	 5.999999999999998e+00	 1.000827550461539e+01
0	 9.312499999999998e+00	 6.062499999999998e+00	 1.000869625692310e+01
0	 9.312499999999998e+00	 6.124999999999998e+00	 1.000912934153846e+01
0	 9.312499999999998e+00	 6.187499999999997e+00	 1.000957475846154e+01
0	 9.312499999999998e+00	 6.250000000000000e+00	 1.001003250769230e+01
0	 9.375000000000000e+00	 5.625000000000000e+00	 1.000454153846154e+01
0	 9.375000000000000e+00	 5.687500000000000e+00	 1.000492563076924e+01
0	 9.375000000000002e+00	 5.750000000000000e+00	 1.000532190769230e+01
0	 9.374999999999998e+00	 5.812499999999999e+00	 1.000573036923079e+01
0	 9.375000000000002e+00	 5.874999999999999e+00	 1.000615101538462e+01
0	 9.375000000000000e+00	 5.937499999999999e+00	 1.000658384615385e+01
0	 9.375000000000000e+00	 5.999999999999998e+00	 1.000702886153848e+01
0	 9.375000000000000e+00	 6.062499999999998e+00	 1.000748606153846e+01
0	 9.375000000000000e+00	 6.124999999999998e+00	 1.000795544615385e+01
0	 9.375000000000000e+00	 6.187499999999998e+00	 1.000843701538463e+01
0	 9.375000000000000e+00	 6.250000000000000e+00	 1.000893076923078e+01
0	 8.750000000000000e+00	 6.250000000000000e+00	 1.002430000000000e+01
0	 8.750000000000000e+00	 6.312500000000000e+00	 1.002392166153848e+01
0	 8.750000000000002e+00	 6.375000000000000e+00	 1.002355126153848e+01
0	 8.750000000000000e+00	 6.437499999999999e+00	 1.002318879999999e+01
0	 8.750000000000000e+00	 6.499999999999999e+00	 1.002283427692308e+01
0	 8.750000000000000e+00	 6.562499999999998e+00	 1.002248769230769e+01
0	 8.750000000000000e+00	 6.624999999999998e+00	 1.002214904615385e+01
0	 8.750000000000000e+00	 6.687499999999998e+00	 1.002181833846154e+01
0	 8.750000000000000e+00	 6.749999999999998e+00	 1.002149556923078e+01
0	 8.750000000000000e+00	 6.812499999999998e+00	 1.002118073846153e+01
0	 8.750000000000000e+00	 6.875000000000000e+00	 1.002087384615384e+01
0	 8.812499999999998e+00	 6.250000000000000e+00	 1.002232789230769e+01
0	 8.812500000000000e+00	 6.312500000000000e+00	 1.002200222615384e+01
0	 8.812499999999998e+00	 6.374999999999999e+00	 1.002168448923076e+01
0	 8.812500000000000e+00	 6.437500000000000e+00	 1.002137468153846e+01
0	 8.812500000000000e+00	 6.499999999999997e+00	 1.002107280307693e+01
0	 8.812500000000002e+00	 6.562500000000000e+00	 1.002077885384615e+01
0	 8.812500000000004e+00	 6.624999999999999e+00	 1.002049283384615e+01
0	 8.812500000000002e+00	 6.687499999999999e+00	 1.002021474307693e+01
0	 8.812500000000002e+00	 6.749999999999999e+00	 1.001994458153848e+01
0	 8.812499999999996e+00	 6.812499999999996e+00	 1.001968234923076e+01
0	 8.812499999999998e+00	 6.875000000000001e+00	 1.001942804615384e+01
0	 8.874999999999998e+00	 6.250000000000000e+00	 1.002045249230770e+01
0	 8.875000000000000e+00	 6.312499999999999e+00	 1.002017605230769e+01
0	 8.875000000000004e+00	 6.375000000000000e+00	 1.001990753230770e+01
0	 8.875000000000002e+00	 6.437499999999998e+00	 1.001964693230769e+01
0	 8.874999999999998e+00	 6.499999999999996e+00	 1.001939425230769e+01
0	 8.874999999999998e+00	 6.562499999999998e+00	 1.001914949230769e+01
0	 8.874999999999996e+00	 6.624999999999996e+00	 1.001891265230770e+01
0	 8.875000000000002e+00	 6.687499999999999e+00	 1.001868373230770e+01
0	 8.875000000000000e+00	 6.749999999999997e+00	 1.001846273230769e+01
0	 8.875000000000004e+00	 6.812500000000000e+00	 1.001824965230769e+01
0	 8.874999999999998e+00	 6.875000000000000e+00	 1.001804449230770e+01
0	 8.937500000000000e+00	 6.250000000000000e+00	 1.001867379999998e+01
0	 8.937500000000000e+00	 6.312499999999999e+00	 1.001844314000001e+01
0	 8.937500000000002e+00	 6.375000000000000e+00	 1.001822039076923e+01
0	 8.937500000000000e+00	 6.437500000000000e+00	 1.001800555230769e+01
0	 8.937499999999998e+00	 6.499999999999998e+00	 1.001779862461539e+01
0	 8.937500000000000e+00	 6.562499999999999e+00	 1.001759960769231e+01
0	 8.937499999999998e+00	 6.624999999999999e+00	 1.001740850153845e+01
0	 8.937500000000000e+00	 6.687499999999998e+00	 1.001722530615384e+01
0	 8.937500000000000e+00	 6.749999999999998e+00	 1.001705002153847e+01
0	 8.937499999999998e+00	 6.812499999999997e+00	 1.001688264769230e+01
0	 8.937500000000000e+00	 6.874999999999999e+00	 1.001672318461539e+01
0	 9.000000000000000e+00	 6.250000000000000e+00	 1.001699181538463e+01
0	 9.000000000000000e+00	 6.312499999999999e+00	 1.001680348923077e+01
0	 9.000000000000000e+00	 6.375000000000000e+00	 1.001662306461539e+01
0	 9.000000000000000e+00	 6.437499999999999e+00	 1.001645054153846e+01
0	 8.999999999999998e+00	 6.499999999999997e+00	 1.001628592000000e+01
0	 9.000000000000000e+00	 6.562499999999999e+00	 1.001612920000000e+01
0	 8.999999999999996e+00	 6.624999999999998e+00	 1.001598038153847e+01
0	 8.999999999999998e+00	 6.687499999999998e+00	 1.001583946461539e+01
0	 9.000000000000000e+00	 6.749999999999998e+00	 1.001570644923077e+01
0	 9.000000000000000e+00	 6.812499999999998e+00	 1.001558133538461e+01
0	 9.000000000000000e+00	 6.875000000000001e+00	 1.001546412307690e+01
0	 9.062500000000000e+00	 6.250000000000000e+00	 1.001540653846156e+01
0	 9.062500000000000e+00	 6.312500000000000e+00	 1.001525710000000e+01
0	 9.062499999999998e+00	 6.375000000000000e+00	 1.001511555384614e+01
0	 9.062500000000000e+00	 6.437499999999999e+00	 1.001498190000001e+01
0	 9.062499999999998e+00	 6.499999999999997e+00	 1.001485613846155e+01
0	 9.062499999999998e+00	 6.562499999999999e+00	 1.001473826923079e+01
0	 9.062500000000002e+00	 6.625000000000000e+00	 1.001462829230770e+01
0	 9.062499999999998e+00	 6.687499999999999e+00	 1.001452620769231e+01
0	 9.062499999999998e+00	 6.749999999999999e+00	 1.001443201538461e+01
0	 9.062500000000002e+00	 6.812499999999998e+00	 1.001434571538462e+01
0	 9.062500000000000e+00	 6.875000000000000e+00	 1.001426730769231e+01
0	 9.124999999999998e+00	 6.250000000000000e+00	 1.001391796923078e+01
0	 9.124999999999998e+00	 6.312499999999999e+00	 1.001380397230769e+01
0	 9.124999999999996e+00	 6.374999999999997e+00	 1.001369785846153e+01
0	 9.124999999999998e+00	 6.437499999999999e+00	 1.001359962769231e+01
0	 9.125000000000002e+00	 6.500000000000000e+00	 1.001350928000001e+01
0	 9.125000000000000e+00	 6.562500000000001e+00	 1.001342681538462e+01
0	 9.124999999999998e+00	 6.624999999999998e+00	 1.001335223384616e+01
0	 9.125000000000000e+00	 6.687499999999999e+00	 1.001328553538463e+01
0	 9.125000000000000e+00	 6.749999999999999e+00	 1.001322671999999e+01
0	 9.124999999999998e+00	 6.812499999999998e+00	 1.001317578769231e+01
0	 9.124999999999998e+00	 6.875000000000000e+00	 1.001313273846152e+01
0	 9.187499999999998e+00	 6.250000000000000e+00	 1.001252610769231e+01
0	 9.187499999999998e+00	 6.312499999999999e+00	 1.001244410615384e+01
0	 9.187500000000000e+00	 6.375000000000001e+00	 1.001236997846155e+01
0	 9.187500000000000e+00	 6.437499999999999e+00	 1.001230372461538e+01
0	 9.187499999999998e+00	 6.500000000000000e+00	 1.001224534461538e+01
0	 9.187500000000000e+00	 6.562499999999999e+00	 1.001219483846153e+01
0	 9.187500000000000e+00	 6.624999999999999e+00	 1.001215220615386e+01
0	 9.187500000000000e+00	 6.687499999999999e+00	 1.001211744769232e+01
0	 9.187499999999998e+00	 6.749999999999998e+00	 1.001209056307693e+01
0	 9.187500000000000e+00	 6.812499999999999e+00	 1.001207155230769e+01
0	 9.187499999999998e+00	 6.875000000000000e+00	 1.001206041538463e+01
0	 9.249999999999998e+00	 6.250000000000000e+00	 1.001123095384617e+01
0	 9.250000000000000e+00	 6.312500000000001e+00	 1.001117750153847e+01
0	 9.249999999999998e+00	 6.374999999999999e+00	 1.001113191384617e+01
0	 9.250000000000000e+00	 6.437500000000000e+00	 1.001109419076924e+01
0	 9.249999999999998e+00	 6.499999999999999e+00	 1.001106433230770e+01
0	 9.249999999999998e+00	 6.562499999999999e+00	 1.001104233846155e+01
0	 9.249999999999998e+00	 6.624999999999998e+00	 1.001102820923077e+01
0	 9.249999999999998e+00	 6.687499999999998e+00	 1.001102194461539e+01
0	 9.250000000000000e+00	 6.749999999999998e+00	 1.001102354461537e+01
0	 9.249999999999998e+00	 6.812499999999998e+00	 1.001103300923078e+01
0	 9.249999999999998e+00	 6.875000000000000e+00	 1.001105033846155e+01
0	 9.312499999999998e+00	 6.250000000000000e+00	 1.001003250769230e+01
0	 9.312499999999998e+00	 6.312500000000000e+00	 1.001000415846155e+01
0	 9.312500000000000e+00	 6.375000000000000e+00	 1.000998366461538e+01
0	 9.312500000000000e+00	 6.437499999999999e+00	 1.000997102615384e+01
0	 9.312499999999998e+00	 6.499999999999998e+00	 1.000996624307692e+01
0	 9.312499999999998e+00	 6.562499999999998e+00	 1.000996931538461e+01
0	 9.312499999999998e+00	 6.624999999999998e+00	 1.000998024307692e+01
0	 9.312499999999998e+00	 6.687499999999998e+00	 1.000999902615386e+01
0	 9.312499999999998e+00	 6.749999999999999e+00	 1.001002566461537e+01
0	 9.312499999999998e+00	 6.812499999999997e+00	 1.001006015846155e+01
0	 9.312499999999998e+00	 6.875000000000000e+00	 1.001010250769230e+01
0	 9.375000000000000e+00	 6.250000000000000e+00	 1.000893076923078e+01
0	 9.375000000000000e+00	 6.312500000000000e+00	 1.000892407692308e+01
0	 9.375000000000002e+00	 6.375000000000000e+00	 1.000892523076924e+01
0	 9.374999999999998e+00	 6.437499999999999e+00	 1.000893423076923e+01
0	 9.375000000000002e+00	 6.499999999999999e+00	 1.000895107692308e+01
0	 9.375000000000000e+00	 6.562499999999998e+00	 1.000897576923077e+01
0	 9.375000000000000e+00	 6.624999999999998e+00	 1.000900830769230e+01
0	 9.375000000000000e+00	 6.687499999999998e+00	 1.000904869230768e+01
0	 9.375000000000000e+00	 6.749999999999998e+00	 1.000909692307692e+01
0	 9.375000000000000e+00	 6.812499999999998e+00	 1.000915299999999e+01
0	 9.375000000000000e+00	 6.875000000000000e+00	 1.000921692307692e+01
0	 8.750000000000000e+00	 6.875000000000000e+00	 1.002087384615384e+01
0	 8.750000000000000e+00	 6.937500000000000e+00	 1.002034532307693e+01
0	 8.750000000000002e+00	 7.000000000000000e+00	 1.001981790769229e+01
0	 8.750000000000000e+00	 7.062500000000000e+00	 1.001929160000000e+01
0	 8.750000000000000e+00	 7.125000000000000e+00	 1.001876640000000e+01
0	 8.750000000000000e+00	 7.187499999999998e+00	 1.001824230769231e+01
0	 8.750000000000000e+00	 7.249999999999998e+00	 1.001771932307693e+01
0	 8.750000000000000e+00	 7.312499999999998e+00	 1.001719744615384e+01
0	 8.750000000000000e+00	 7.374999999999998e+00	 1.001667667692306e+01
0	 8.750000000000000e+00	 7.437499999999998e+00	 1.001615701538461e+01
0	 8.750000000000000e+00	 7.500000000000000e+00	 1.001563846153845e+01
0	 8.812499999999998e+00	 6.875000000000001e+00	 1.001942804615384e+01
0	 8.812500000000000e+00	 6.937499999999999e+00	 1.001894365538461e+01
0	 8.812499999999998e+00	 6.999999999999999e+00	 1.001846061230770e+01
0	 8.812500000000000e+00	 7.062500000000000e+00	 1.001797891692308e+01
0	 8.812500000000000e+00	 7.124999999999998e+00	 1.001749856923077e+01
0	 8.812500000000002e+00	 7.187499999999999e+00	 1.001701956923076e+01
0	 8.812500000000004e+00	 7.250000000000000e+00	 1.001654191692308e+01
0	 8.812500000000002e+00	 7.312499999999999e+00	 1.001606561230769e+01
0	 8.812500000000002e+00	 7.374999999999999e+00	 1.001559065538461e+01
0	 8.812499999999996e+00	 7.437499999999996e+00	 1.001511704615383e+01
0	 8.812499999999998e+00	 7.500000000000000e+00	 1.001464478461538e+01
0	 8.874999999999998e+00	 6.875000000000000e+00	 1.001804449230770e+01
0	 8.875000000000000e+00	 6.937499999999999e+00	 1.001760087384615e+01
0	 8.875000000000004e+00	 7.000000000000001e+00	 1.001715884307691e+01
0	 8.875000000000002e+00	 7.062499999999999e+00	 1.001671839999999e+01
0	 8.874999999999998e+00	 7.124999999999998e+00	 1.001627954461537e+01
0	 8.874999999999998e+00	 7.187499999999999e+00	 1.001584227692306e+01
0	 8.874999999999996e+00	 7.249999999999996e+00	 1.001540659692308e+01
0	 8.875000000000002e+00	 7.312499999999998e+00	 1.001497250461538e+01
0	 8.875000000000000e+00	 7.374999999999997e+00	 1.001453999999998e+01
0	 8.875000000000004e+00	 7.437500000000000e+00	 1.001410908307692e+01
0	 8.874999999999998e+00	 7.499999999999999e+00	 1.001367975384613e+01
0	 8.937500000000000e+00	 6.874999999999999e+00	 1.001672318461539e+01
0	 8.937500000000000e+00	 6.937499999999999e+00	 1.001631697846156e+01
0	 8.937500000000002e+00	 7.000000000000000e+00	 1.001591260000001e+01
0	 8.937500000000000e+00	 7.062500000000000e+00	 1.001551004923076e+01
0	 8.937499999999998e+00	 7.124999999999999e+00	 1.001510932615385e+01
0	 8.937500000000000e+00	 7.187499999999999e+00	 1.001471043076922e+01
0	 8.937499999999998e+00	 7.250000000000000e+00	 1.001431336307690e+01
0	 8.937500000000000e+00	 7.312499999999999e+00	 1.001391812307690e+01
0	 8.937500000000000e+00	 7.374999999999997e+00	 1.001352471076922e+01
0	 8.937499999999998e+00	 7.437499999999998e+00	 1.001313312615382e+01
0	 8.937500000000000e+00	 7.500000000000000e+00	 1.001274336923077e+01
0	 9.000000000000000e+00	 6.875000000000001e+00	 1.001546412307690e+01
0	 9.000000000000000e+00	 6.937499999999999e+00	 1.001509196923077e+01
0	 9.000000000000000e+00	 7.000000000000001e+00	 1.001472188307693e+01
0	 9.000000000000000e+00	 7.062500000000000e+00	 1.001435386461537e+01
0	 8.999999999999998e+00	 7.124999999999999e+00	 1.001398791384616e+01
0	 9.000000000000000e+00	 7.187499999999999e+00	 1.001362403076921e+01
0	 8.999999999999996e+00	 7.249999999999997e+00	 1.001326221538461e+01
0	 8.999999999999998e+00	 7.312499999999998e+00	 1.001290246769228e+01
0	 9.000000000000000e+00	 7.374999999999999e+00	 1.001254478769230e+01
0	 9.000000000000000e+00	 7.437499999999998e+00	 1.001218917538459e+01
0	 9.000000000000000e+00	 7.500000000000000e+00	 1.001183563076921e+01
0	 9.062500000000000e+00	 6.875000000000000e+00	 1.001426730769231e+01
0	 9.062500000000000e+00	 6.937500000000000e+00	 1.001392584615384e+01
0	 9.062499999999998e+00	 7.000000000000000e+00	 1.001358669230769e+01
0	 9.062500000000000e+00	 7.062500000000000e+00	 1.001324984615383e+01
0	 9.062499999999998e+00	 7.124999999999997e+00	 1.001291530769232e+01
0	 9.062499999999998e+00	 7.187499999999999e+00	 1.001258307692308e+01
0	 9.062500000000002e+00	 7.249999999999999e+00	 1.001225315384614e+01
0	 9.062499999999998e+00	 7.312499999999998e+00	 1.001192553846152e+01
0	 9.062499999999998e+00	 7.374999999999997e+00	 1.001160023076925e+01
0	 9.062500000000002e+00	 7.437499999999998e+00	 1.001127723076920e+01
0	 9.062500000000000e+00	 7.500000000000000e+00	 1.001095653846152e+01
0	 9.124999999999998e+00	 6.875000000000000e+00	 1.001313273846152e+01
0	 9.124999999999998e+00	 6.937500000000000e+00	 1.001281860923077e+01
0	 9.124999999999996e+00	 6.999999999999998e+00	 1.001250702769232e+01
0	 9.124999999999998e+00	 7.062500000000000e+00	 1.001219799384615e+01
0	 9.125000000000002e+00	 7.125000000000000e+00	 1.001189150769231e+01
0	 9.125000000000000e+00	 7.187500000000000e+00	 1.001158756923076e+01
0	 9.124999999999998e+00	 7.249999999999998e+00	 1.001128617846153e+01
0	 9.125000000000000e+00	 7.312499999999999e+00	 1.001098733538461e+01
0	 9.125000000000000e+00	 7.374999999999999e+00	 1.001069104000000e+01
0	 9.124999999999998e+00	 7.437499999999998e+00	 1.001039729230766e+01
0	 9.124999999999998e+00	 7.499999999999999e+00	 1.001010609230768e+01
0	 9.187499999999998e+00	 6.875000000000000e+00	 1.001206041538463e+01
0	 9.187499999999998e+00	 6.937499999999999e+00	 1.001177025846154e+01
0	 9.187500000000000e+00	 7.000000000000001e+00	 1.001148288923075e+01
0	 9.187500000000000e+00	 7.062499999999999e+00	 1.001119830769230e+01
0	 9.187499999999998e+00	 7.124999999999999e+00	 1.001091651384614e+01
0	 9.187500000000000e+00	 7.187500000000000e+00	 1.001063750769229e+01
0	 9.187500000000000e+00	 7.249999999999999e+00	 1.001036128923077e+01
0	 9.187500000000000e+00	 7.312500000000000e+00	 1.001008785846154e+01
0	 9.187499999999998e+00	 7.374999999999998e+00	 1.000981721538460e+01
0	 9.187500000000000e+00	 7.437499999999999e+00	 1.000954935999998e+01
0	 9.187499999999998e+00	 7.499999999999998e+00	 1.000928429230769e+01
0	 9.249999999999998e+00	 6.875000000000000e+00	 1.001105033846155e+01
0	 9.250000000000000e+00	 6.937500000000001e+00	 1.001078079384617e+01
0	 9.249999999999998e+00	 6.999999999999998e+00	 1.001051427692308e+01
0	 9.250000000000000e+00	 7.062500000000000e+00	 1.001025078769231e+01
0	 9.249999999999998e+00	 7.125000000000000e+00	 1.000999032615385e+01
0	 9.249999999999998e+00	 7.187500000000000e+00	 1.000973289230770e+01
0	 9.249999999999998e+00	 7.250000000000000e+00	 1.000947848615383e+01
0	 9.249999999999998e+00	 7.312499999999999e+00	 1.000922710769228e+01
0	 9.250000000000000e+00	 7.374999999999998e+00	 1.000897875692306e+01
0	 9.249999999999998e+00	 7.437499999999998e+00	 1.000873343384615e+01
0	 9.249999999999998e+00	 7.500000000000000e+00	 1.000849113846152e+01
0	 9.312499999999998e+00	 6.875000000000000e+00	 1.001010250769230e+01
0	 9.312499999999998e+00	 6.937500000000001e+00	 1.000985021538462e+01
0	 9.312500000000000e+00	 7.000000000000001e+00	 1.000960119076922e+01
0	 9.312500000000000e+00	 7.062500000000000e+00	 1.000935543384615e+01
0	 9.312499999999998e+00	 7.124999999999999e+00	 1.000911294461538e+01
0	 9.312499999999998e+00	 7.187499999999998e+00	 1.000887372307691e+01
0	 9.312499999999998e+00	 7.249999999999999e+00	 1.000863776923076e+01
0	 9.312499999999998e+00	 7.312499999999998e+00	 1.000840508307692e+01
0	 9.312499999999998e+00	 7.374999999999998e+00	 1.000817566461536e+01
0	 9.312499999999998e+00	 7.437499999999998e+00	 1.000794951384614e+01
0	 9.312499999999998e+00	 7.500000000000000e+00	 1.000772663076924e+01
0	 9.375000000000000e+00	 6.875000000000000e+00	 1.000921692307692e+01
0	 9.375000000000000e+00	 6.937500000000000e+00	 1.000897852307693e+01
0	 9.375000000000002e+00	 7.000000000000000e+00	 1.000874363076920e+01
0	 9.374999999999998e+00	 7.062500000000000e+00	 1.000851224615386e+01
0	 9.375000000000002e+00	 7.125000000000000e+00	 1.000828436923075e+01
0	 9.375000000000000e+00	 7.187499999999998e+00	 1.000805999999999e+01
0	 9.375000000000000e+00	 7.249999999999998e+00	 1.000783913846153e+01
0	 9.375000000000000e+00	 7.312499999999998e+00	 1.000762178461537e+01
0	 9.375000000000000e+00	 7.374999999999998e+00	 1.000740793846152e+01
0	 9.375000000000000e+00	 7.437499999999998e+00	 1.000719759999998e+01
0	 9.375000000000000e+00	 7.500000000000000e+00	 1.000699076923076e+01
0	 8.750000000000000e+00	 7.500000000000000e+00	 1.001563846153845e+01
0	 8.750000000000000e+00	 7.562500000000000e+00	 1.001508641538462e+01
0	 8.750000000000002e+00	 7.625000000000000e+00	 1.001452873846156e+01
0	 8.750000000000000e+00	 7.687499999999999e+00	 1.001396543076923e+01
0	 8.750000000000000e+00	 7.750000000000000e+00	 1.001339649230770e+01
0	 8.750000000000000e+00	 7.812499999999999e+00	 1.001282192307691e+01
0	 8.750000000000000e+00	 7.874999999999998e+00	 1.001224172307693e+01
0	 8.750000000000000e+00	 7.937499999999997e+00	 1.001165589230770e+01
0	 8.750000000000000e+00	 7.999999999999998e+00	 1.001106443076924e+01
0	 8.750000000000000e+00	 8.062499999999996e+00	 1.001046733846154e+01
0	 8.750000000000000e+00	 8.125000000000000e+00	 1.000986461538463e+01
0	 8.812499999999998e+00	 7.500000000000000e+00	 1.001464478461538e+01
0	 8.812500000000000e+00	 7.562499999999999e+00	 1.001413002307693e+01
0	 8.812499999999998e+00	 7.624999999999998e+00	 1.001361009230770e+01
0	 8.812500000000000e+00	 7.687499999999998e+00	 1.001308499230768e+01
0	 8.812500000000000e+00	 7.750000000000000e+00	 1.001255472307691e+01
0	 8.812500000000002e+00	 7.812500000000000e+00	 1.001201928461538e+01
0	 8.812500000000004e+00	 7.874999999999999e+00	 1.001147867692309e+01
0	 8.812500000000002e+00	 7.937499999999998e+00	 1.001093290000000e+01
0	 8.812500000000002e+00	 8.000000000000000e+00	 1.001038195384617e+01
0	 8.812499999999996e+00	 8.062499999999995e+00	 1.000982583846156e+01
0	 8.812499999999998e+00	 8.125000000000000e+00	 1.000926455384616e+01
0	 8.874999999999998e+00	 7.499999999999999e+00	 1.001367975384613e+01
0	 8.875000000000000e+00	 7.562500000000001e+00	 1.001319958461538e+01
0	 8.875000000000004e+00	 7.625000000000001e+00	 1.001271470769230e+01
0	 8.875000000000002e+00	 7.687500000000001e+00	 1.001222512307690e+01
0	 8.874999999999998e+00	 7.749999999999998e+00	 1.001173083076922e+01
0	 8.874999999999998e+00	 7.812499999999998e+00	 1.001123183076923e+01
0	 8.874999999999996e+00	 7.874999999999996e+00	 1.001072812307693e+01
0	 8.875000000000002e+00	 7.937499999999998e+00	 1.001021970769232e+01
0	 8.875000000000000e+00	 7.999999999999999e+00	 1.000970658461539e+01
0	 8.875000000000004e+00	 8.062499999999998e+00	 1.000918875384614e+01
0	 8.874999999999998e+00	 8.125000000000000e+00	 1.000866621538462e+01
0	 8.937500000000000e+00	 7.500000000000000e+00	 1.001274336923077e+01
0	 8.937500000000000e+00	 7.562500000000001e+00	 1.001229509999998e+01
0	 8.937500000000002e+00	 7.625000000000001e+00	 1.001184258461537e+01
0	 8.937500000000000e+00	 7.687500000000000e+00	 1.001138582307692e+01
0	 8.937499999999998e+00	 7.749999999999999e+00	 1.001092481538461e+01
0	 8.937500000000000e+00	 7.812499999999999e+00	 1.001045956153846e+01
0	 8.937499999999998e+00	 7.874999999999998e+00	 1.000999006153847e+01
0	 8.937500000000000e+00	 7.937499999999998e+00	 1.000951631538462e+01
0	 8.937500000000000e+00	 7.999999999999998e+00	 1.000903832307694e+01
0	 8.937499999999998e+00	 8.062499999999996e+00	 1.000855608461539e+01
0	 8.937500000000000e+00	 8.125000000000000e+00	 1.000806960000001e+01
0	 9.000000000000000e+00	 7.500000000000000e+00	 1.001183563076921e+01
0	 9.000000000000000e+00	 7.562500000000000e+00	 1.001141656923074e+01
0	 9.000000000000000e+00	 7.625000000000000e+00	 1.001099372307691e+01
0	 9.000000000000000e+00	 7.687500000000000e+00	 1.001056709230769e+01
0	 8.999999999999998e+00	 7.749999999999998e+00	 1.001013667692306e+01
0	 9.000000000000000e+00	 7.812500000000000e+00	 1.000970247692308e+01
0	 8.999999999999996e+00	 7.874999999999998e+00	 1.000926449230769e+01
0	 8.999999999999998e+00	 7.937499999999999e+00	 1.000882272307691e+01
0	 9.000000000000000e+00	 7.999999999999997e+00	 1.000837716923079e+01
0	 9.000000000000000e+00	 8.062500000000000e+00	 1.000792783076924e+01
0	 9.000000000000000e+00	 8.125000000000000e+00	 1.000747470769233e+01
0	 9.062500000000000e+00	 7.500000000000000e+00	 1.001095653846152e+01
0	 9.062500000000000e+00	 7.562499999999999e+00	 1.001056399230766e+01
0	 9.062499999999998e+00	 7.624999999999999e+00	 1.001016812307691e+01
0	 9.062500000000000e+00	 7.687500000000000e+00	 1.000976893076921e+01
0	 9.062499999999998e+00	 7.749999999999996e+00	 1.000936641538461e+01
0	 9.062499999999998e+00	 7.812499999999999e+00	 1.000896057692308e+01
0	 9.062500000000002e+00	 7.875000000000000e+00	 1.000855141538462e+01
0	 9.062499999999998e+00	 7.937499999999999e+00	 1.000813893076923e+01
0	 9.062499999999998e+00	 7.999999999999998e+00	 1.000772312307693e+01
0	 9.062500000000002e+00	 8.062500000000000e+00	 1.000730399230771e+01
0	 9.062500000000000e+00	 8.125000000000000e+00	 1.000688153846155e+01
0	 9.124999999999998e+00	 7.499999999999999e+00	 1.001010609230768e+01
0	 9.124999999999998e+00	 7.562500000000000e+00	 1.000973736923073e+01
0	 9.124999999999996e+00	 7.624999999999998e+00	 1.000936578461536e+01
0	 9.124999999999998e+00	 7.687499999999998e+00	 1.000899133846152e+01
0	 9.125000000000002e+00	 7.750000000000001e+00	 1.000861403076921e+01
0	 9.125000000000000e+00	 7.812500000000000e+00	 1.000823386153847e+01
0	 9.124999999999998e+00	 7.874999999999998e+00	 1.000785083076923e+01
0	 9.125000000000000e+00	 7.937499999999999e+00	 1.000746493846154e+01
0	 9.125000000000000e+00	 8.000000000000000e+00	 1.000707618461541e+01
0	 9.124999999999998e+00	 8.062499999999998e+00	 1.000668456923077e+01
0	 9.124999999999998e+00	 8.125000000000000e+00	 1.000629009230769e+01
0	 9.187499999999998e+00	 7.499999999999998e+00	 1.000928429230769e+01
0	 9.187499999999998e+00	 7.562500000000000e+00	 1.000893669999999e+01
0	 9.187500000000000e+00	 7.624999999999999e+00	 1.000858670769230e+01
0	 9.187500000000000e+00	 7.687500000000000e+00	 1.000823431538459e+01
0	 9.187499999999998e+00	 7.749999999999998e+00	 1.000787952307691e+01
0	 9.187500000000000e+00	 7.812500000000000e+00	 1.000752233076922e+01
0	 9.187500000000000e+00	 7.874999999999999e+00	 1.000716273846155e+01
0	 9.187500000000000e+00	 7.937500000000000e+00	 1.000680074615385e+01
0	 9.187499999999998e+00	 7.999999999999998e+00	 1.000643635384617e+01
0	 9.187500000000000e+00	 8.062500000000000e+00	 1.000606956153847e+01
0	 9.187499999999998e+00	 8.125000000000000e+00	 1.000570036923077e+01
0	 9.249999999999998e+00	 7.500000000000000e+00	 1.000849113846152e+01
0	 9.250000000000000e+00	 7.562500000000001e+00	 1.000816198461537e+01
0	 9.249999999999998e+00	 7.625000000000000e+00	 1.000783089230768e+01
0	 9.250000000000000e+00	 7.687500000000001e+00	 1.000749786153846e+01
0	 9.249999999999998e+00	 7.749999999999999e+00	 1.000716289230770e+01
0	 9.249999999999998e+00	 7.812499999999998e+00	 1.000682598461539e+01
0	 9.249999999999998e+00	 7.875000000000000e+00	 1.000648713846153e+01
0	 9.249999999999998e+00	 7.937499999999998e+00	 1.000614635384616e+01
0	 9.250000000000000e+00	 7.999999999999998e+00	 1.000580363076923e+01
0	 9.249999999999998e+00	 8.062500000000000e+00	 1.000545896923078e+01
0	 9.249999999999998e+00	 8.125000000000000e+00	 1.000511236923078e+01
0	 9.312499999999998e+00	 7.500000000000000e+00	 1.000772663076924e+01
0	 9.312499999999998e+00	 7.562500000000001e+00	 1.000741322307691e+01
0	 9.312500000000000e+00	 7.624999999999999e+00	 1.000709833846151e+01
0	 9.312500000000000e+00	 7.687499999999999e+00	 1.000678197692307e+01
0	 9.312499999999998e+00	 7.750000000000000e+00	 1.000646413846152e+01
0	 9.312499999999998e+00	 7.812499999999999e+00	 1.000614482307692e+01
0	 9.312499999999998e+00	 7.874999999999998e+00	 1.000582403076922e+01
0	 9.312499999999998e+00	 7.937499999999998e+00	 1.000550176153847e+01
0	 9.312499999999998e+00	 7.999999999999998e+00	 1.000517801538460e+01
0	 9.312499999999998e+00	 8.062499999999998e+00	 1.000485279230769e+01
0	 9.312499999999998e+00	 8.125000000000000e+00	 1.000452609230769e+01
0	 9.375000000000000e+00	 7.500000000000000e+00	 1.000699076923076e+01
0	 9.375000000000000e+00	 7.562500000000000e+00	 1.000669041538459e+01
0	 9.375000000000002e+00	 7.625000000000000e+00	 1.000638904615385e+01
0	 9.374999999999998e+00	 7.687499999999999e+00	 1.000608666153845e+01
0	 9.375000000000002e+00	 7.750000000000000e+00	 1.000578326153847e+01
0	 9.375000000000000e+00	 7.812499999999999e+00	 1.000547884615383e+01
0	 9.375000000000000e+00	 7.874999999999998e+00	 1.000517341538461e+01
0	 9.375000000000000e+00	 7.937499999999997e+00	 1.000486696923076e+01
0	 9.375000000000000e+00	 7.999999999999998e+00	 1.000455950769231e+01
0	 9.375000000000000e+00	 8.062499999999996e+00	 1.000425103076923e+01
0	 9.375000000000000e+00	 8.125000000000000e+00	 1.000394153846154e+01
0	 8.750000000000000e+00	 8.125000000000000e+00	 1.000986461538463e+01
0	 8.750000000000000e+00	 8.187500000000000e+00	 1.000940166153846e+01
0	 8.750000000000002e+00	 8.250000000000002e+00	 1.000892449230770e+01
0	 8.750000000000000e+00	 8.312500000000000e+00	 1.000843310769231e+01
0	 8.750000000000000e+00	 8.374999999999998e+00	 1.000792750769231e+01
0	 8.750000000000000e+00	 8.437500000000000e+00	 1.000740769230769e+01
0	 8.750000000000000e+00	 8.500000000000000e+00	 1.000687366153846e+01
0	 8.750000000000000e+00	 8.562499999999998e+00	 1.000632541538461e+01
0	 8.750000000000000e+00	 8.625000000000000e+00	 1.000576295384615e+01
0	 8.750000000000000e+00	 8.687499999999998e+00	 1.000518627692305e+01
0	 8.750000000000000e+00	 8.750000000000000e+00	 1.000459538461538e+01
0	 8.812499999999998e+00	 8.125000000000000e+00	 1.000926455384616e+01
0	 8.812500000000000e+00	 8.187500000000002e+00	 1.000882998307694e+01
0	 8.812499999999998e+00	 8.250000000000000e+00	 1.000838212923078e+01
0	 8.812500000000000e+00	 8.312499999999998e+00	 1.000792099230770e+01
0	 8.812500000000000e+00	 8.374999999999998e+00	 1.000744657230770e+01
0	 8.812500000000002e+00	 8.437500000000000e+00	 1.000695886923076e+01
0	 8.812500000000004e+00	 8.500000000000002e+00	 1.000645788307693e+01
0	 8.812500000000002e+00	 8.562500000000000e+00	 1.000594361384616e+01
0	 8.812500000000002e+00	 8.625000000000002e+00	 1.000541606153847e+01
0	 8.812499999999996e+00	 8.687499999999996e+00	 1.000487522615384e+01
0	 8.812499999999998e+00	 8.750000000000002e+00	 1.000432110769229e+01
0	 8.874999999999998e+00	 8.125000000000000e+00	 1.000866621538462e+01
0	 8.875000000000000e+00	 8.187499999999998e+00	 1.000825869230770e+01
0	 8.875000000000004e+00	 8.250000000000000e+00	 1.000783881846154e+01
0	 8.875000000000002e+00	 8.312500000000000e+00	 1.000740659384615e+01
0	 8.874999999999998e+00	 8.374999999999998e+00	 1.000696201846153e+01
0	 8.874999999999998e+00	 8.437499999999998e+00	 1.000650509230770e+01
0	 8.874999999999996e+00	 8.499999999999996e+00	 1.000603581538463e+01
0	 8.875000000000002e+00	 8.562500000000002e+00	 1.000555418769230e+01
0	 8.875000000000000e+00	 8.624999999999998e+00	 1.000506020923076e+01
0	 8.875000000000004e+00	 8.687499999999998e+00	 1.000455388000000e+01
0	 8.874999999999998e+00	 8.750000000000000e+00	 1.000403519999995e+01
0	 8.937500000000000e+00	 8.125000000000000e+00	 1.000806960000001e+01
0	 8.937500000000000e+00	 8.187500000000000e+00	 1.000768778923078e+01
0	 8.937500000000002e+00	 8.250000000000002e+00	 1.000729456000002e+01
0	 8.937500000000000e+00	 8.312499999999998e+00	 1.000688991230772e+01
0	 8.937499999999998e+00	 8.374999999999998e+00	 1.000647384615384e+01
0	 8.937500000000000e+00	 8.437500000000000e+00	 1.000604636153847e+01
0	 8.937499999999998e+00	 8.499999999999998e+00	 1.000560745846152e+01
0	 8.937500000000000e+00	 8.562500000000000e+00	 1.000515713692308e+01
0	 8.937500000000000e+00	 8.625000000000000e+00	 1.000469539692306e+01
0	 8.937499999999998e+00	 8.687499999999996e+00	 1.000422223846154e+01
0	 8.937500000000000e+00	 8.750000000000000e+00	 1.000373766153846e+01
0	 9.000000000000000e+00	 8.125000000000000e+00	 1.000747470769233e+01
0	 9.000000000000000e+00	 8.187499999999998e+00	 1.000711727384614e+01
0	 9.000000000000000e+00	 8.250000000000002e+00	 1.000674935384617e+01
0	 9.000000000000000e+00	 8.312500000000000e+00	 1.000637094769230e+01
0	 8.999999999999998e+00	 8.374999999999998e+00	 1.000598205538462e+01
0	 9.000000000000000e+00	 8.437500000000000e+00	 1.000558267692308e+01
0	 8.999999999999996e+00	 8.499999999999998e+00	 1.000517281230769e+01
0	 8.999999999999998e+00	 8.562499999999998e+00	 1.000475246153846e+01
0	 9.000000000000000e+00	 8.624999999999998e+00	 1.000432162461539e+01
0	 9.000000000000000e+00	 8.687499999999996e+00	 1.000388030153845e+01
0	 9.000000000000000e+00	 8.749999999999998e+00	 1.000342849230766e+01
0	 9.062500000000000e+00	 8.125000000000000e+00	 1.000688153846155e+01
0	 9.062500000000000e+00	 8.187499999999998e+00	 1.000654714615384e+01
0	 9.062499999999998e+00	 8.249999999999998e+00	 1.000620320000000e+01
0	 9.062500000000000e+00	 8.312500000000000e+00	 1.000584970000000e+01
0	 9.062499999999998e+00	 8.374999999999998e+00	 1.000548664615385e+01
0	 9.062499999999998e+00	 8.437499999999998e+00	 1.000511403846154e+01
0	 9.062500000000002e+00	 8.500000000000002e+00	 1.000473187692308e+01
0	 9.062499999999998e+00	 8.562499999999998e+00	 1.000434016153846e+01
0	 9.062499999999998e+00	 8.624999999999998e+00	 1.000393889230771e+01
0	 9.062500000000002e+00	 8.687500000000000e+00	 1.000352806923075e+01
0	 9.062500000000000e+00	 8.750000000000000e+00	 1.000310769230769e+01
0	 9.124999999999998e+00	 8.125000000000000e+00	 1.000629009230769e+01
0	 9.124999999999998e+00	 8.187500000000000e+00	 1.000597740615385e+01
0	 9.124999999999996e+00	 8.249999999999998e+00	 1.000565609846154e+01
0	 9.124999999999998e+00	 8.312500000000000e+00	 1.000532616923078e+01
0	 9.125000000000002e+00	 8.375000000000002e+00	 1.000498761846155e+01
0	 9.125000000000000e+00	 8.437500000000002e+00	 1.000464044615386e+01
0	 9.124999999999998e+00	 8.499999999999998e+00	 1.000428465230769e+01
0	 9.125000000000000e+00	 8.562500000000000e+00	 1.000392023692310e+01
0	 9.125000000000000e+00	 8.624999999999998e+00	 1.000354720000001e+01
0	 9.124999999999998e+00	 8.687499999999998e+00	 1.000316554153845e+01
0	 9.124999999999998e+00	 8.750000000000000e+00	 1.000277526153847e+01
0	 9.187499999999998e+00	 8.125000000000000e+00	 1.000570036923077e+01
0	 9.187499999999998e+00	 8.187500000000000e+00	 1.000540805384615e+01
0	 9.187500000000000e+00	 8.250000000000000e+00	 1.000510804923076e+01
0	 9.187500000000000e+00	 8.312500000000000e+00	 1.000480035538461e+01
0	 9.187499999999998e+00	 8.374999999999998e+00	 1.000448497230770e+01
0	 9.187500000000000e+00	 8.437500000000000e+00	 1.000416190000000e+01
0	 9.187500000000000e+00	 8.500000000000000e+00	 1.000383113846153e+01
0	 9.187500000000000e+00	 8.562499999999998e+00	 1.000349268769231e+01
0	 9.187499999999998e+00	 8.624999999999998e+00	 1.000314654769231e+01
0	 9.187500000000000e+00	 8.687500000000000e+00	 1.000279271846152e+01
0	 9.187499999999998e+00	 8.750000000000000e+00	 1.000243120000000e+01
0	 9.249999999999998e+00	 8.125000000000000e+00	 1.000511236923078e+01
0	 9.250000000000000e+00	 8.187500000000002e+00	 1.000483908923079e+01
0	 9.249999999999998e+00	 8.250000000000000e+00	 1.000455905230771e+01
0	 9.250000000000000e+00	 8.312500000000000e+00	 1.000427225846155e+01
0	 9.249999999999998e+00	 8.375000000000002e+00	 1.000397870769232e+01
0	 9.249999999999998e+00	 8.437500000000000e+00	 1.000367840000001e+01
0	 9.249999999999998e+00	 8.500000000000000e+00	 1.000337133538463e+01
0	 9.249999999999998e+00	 8.562499999999996e+00	 1.000305751384617e+01
0	 9.250000000000000e+00	 8.624999999999998e+00	 1.000273693538462e+01
0	 9.249999999999998e+00	 8.687499999999998e+00	 1.000240960000000e+01
0	 9.249999999999998e+00	 8.750000000000002e+00	 1.000207550769231e+01
0	 9.312499999999998e+00	 8.125000000000000e+00	 1.000452609230769e+01
0	 9.312499999999998e+00	 8.187500000000000e+00	 1.000427051230770e+01
0	 9.312500000000000e+00	 8.250000000000002e+00	 1.000400910769232e+01
0	 9.312500000000000e+00	 8.312499999999998e+00	 1.000374187846155e+01
0	 9.312499999999998e+00	 8.374999999999998e+00	 1.000346882461539e+01
0	 9.312499999999998e+00	 8.437499999999998e+00	 1.000318994615386e+01
0	 9.312499999999998e+00	 8.499999999999998e+00	 1.000290524307693e+01
0	 9.312499999999998e+00	 8.562499999999998e+00	 1.000261471538463e+01
0	 9.312499999999998e+00	 8.624999999999998e+00	 1.000231836307692e+01
0	 9.312499999999998e+00	 8.687499999999998e+00	 1.000201618615387e+01
0	 9.312499999999998e+00	 8.750000000000000e+00	 1.000170818461540e+01
0	 9.375000000000000e+00	 8.125000000000000e+00	 1.000394153846154e+01
0	 9.375000000000000e+00	 8.187500000000000e+00	 1.000370232307692e+01
0	 9.375000000000002e+00	 8.250000000000002e+00	 1.000345821538460e+01
0	 9.374999999999998e+00	 8.312500000000000e+00	 1.000320921538462e+01
0	 9.375000000000002e+00	 8.374999999999998e+00	 1.000295532307693e+01
0	 9.375000000000000e+00	 8.437500000000000e+00	 1.000269653846154e+01
0	 9.375000000000000e+00	 8.500000000000000e+00	 1.000243286153846e+01
0	 9.375000000000000e+00	 8.562499999999998e+00	 1.000216429230770e+01
0	 9.375000000000000e+00	 8.625000000000000e+00	 1.000189083076923e+01
0	 9.375000000000000e+00	 8.687499999999998e+00	 1.000161247692307e+01
0	 9.375000000000000e+00	 8.750000000000000e+00	 1.000132923076924e+01
0	 8.750000000000000e+00	 8.750000000000000e+00	 1.000459538461538e+01
0	 8.750000000000000e+00	 8.812500000000000e+00	 1.000432306153846e+01
0	 8.750000000000002e+00	 8.875000000000002e+00	 1.000402793846156e+01
0	 8.750000000000000e+00	 8.937499999999998e+00	 1.000371001538461e+01
0	 8.750000000000000e+00	 9.000000000000000e+00	 1.000336929230770e+01
0	 8.750000000000000e+00	 9.062500000000000e+00	 1.000300576923075e+01
0	 8.750000000000000e+00	 9.124999999999998e+00	 1.000261944615383e+01
0	 8.750000000000000e+00	 9.187499999999998e+00	 1.000221032307691e+01
0	 8.750000000000000e+00	 9.249999999999998e+00	 1.000177840000001e+01
0	 8.750000000000000e+00	 9.312499999999998e+00	 1.000132367692306e+01
0	 8.750000000000000e+00	 9.375000000000000e+00	 1.000084615384615e+01
0	 8.812499999999998e+00	 8.750000000000002e+00	 1.000432110769229e+01
0	 8.812500000000000e+00	 8.812499999999998e+00	 1.000406923076923e+01
0	 8.812499999999998e+00	 8.875000000000000e+00	 1.000379583692306e+01
0	 8.812500000000000e+00	 8.937500000000000e+00	 1.000350092615386e+01
0	 8.812500000000000e+00	 9.000000000000000e+00	 1.000318449846153e+01
0	 8.812500000000002e+00	 9.062500000000000e+00	 1.000284655384614e+01
0	 8.812500000000004e+00	 9.125000000000000e+00	 1.000248709230770e+01
0	 8.812500000000002e+00	 9.187499999999998e+00	 1.000210611384616e+01
0	 8.812500000000002e+00	 9.250000000000000e+00	 1.000170361846154e+01
0	 8.812499999999996e+00	 9.312499999999996e+00	 1.000127960615384e+01
0	 8.812499999999998e+00	 9.375000000000000e+00	 1.000083407692310e+01
0	 8.874999999999998e+00	 8.750000000000000e+00	 1.000403519999995e+01
0	 8.875000000000000e+00	 8.812500000000000e+00	 1.000380331692308e+01
0	 8.875000000000004e+00	 8.875000000000004e+00	 1.000355119999999e+01
0	 8.875000000000002e+00	 8.937500000000000e+00	 1.000327884923076e+01
0	 8.874999999999998e+00	 8.999999999999998e+00	 1.000298626461538e+01
0	 8.874999999999998e+00	 9.062500000000000e+00	 1.000267344615385e+01
0	 8.874999999999996e+00	 9.124999999999998e+00	 1.000234039384615e+01
0	 8.875000000000002e+00	 9.187500000000002e+00	 1.000198710769230e+01
0	 8.875000000000000e+00	 9.249999999999996e+00	 1.000161358769229e+01
0	 8.875000000000004e+00	 9.312499999999998e+00	 1.000121983384613e+01
0	 8.874999999999998e+00	 9.375000000000000e+00	 1.000080584615385e+01
0	 8.937500000000000e+00	 8.750000000000000e+00	 1.000373766153846e+01
0	 8.937500000000000e+00	 8.812500000000000e+00	 1.000352532000000e+01
0	 8.937500000000002e+00	 8.875000000000002e+00	 1.000329402769230e+01
0	 8.937500000000000e+00	 8.937500000000000e+00	 1.000304378461538e+01
0	 8.937499999999998e+00	 9.000000000000000e+00	 1.000277459076924e+01
0	 8.937500000000000e+00	 9.062499999999998e+00	 1.000248644615385e+01
0	 8.937499999999998e+00	 9.124999999999998e+00	 1.000217935076923e+01
0	 8.937500000000000e+00	 9.187500000000002e+00	 1.000185330461538e+01
0	 8.937500000000000e+00	 9.249999999999998e+00	 1.000150830769232e+01
0	 8.937499999999998e+00	 9.312499999999998e+00	 1.000114436000000e+01
0	 8.937500000000000e+00	 9.375000000000002e+00	 1.000076146153845e+01
0	 9.000000000000000e+00	 8.749999999999998e+00	 1.000342849230766e+01
0	 9.000000000000000e+00	 8.812500000000000e+00	 1.000323524000002e+01
0	 9.000000000000000e+00	 8.875000000000002e+00	 1.000302432000000e+01
0	 9.000000000000000e+00	 8.937500000000000e+00	 1.000279573230768e+01
0	 8.999999999999998e+00	 8.999999999999998e+00	 1.000254947692305e+01
0	 9.000000000000000e+00	 9.062500000000000e+00	 1.000228555384615e+01
0	 8.999999999999996e+00	 9.124999999999998e+00	 1.000200396307693e+01
0	 8.999999999999998e+00	 9.187500000000000e+00	 1.000170470461537e+01
0	 9.000000000000000e+00	 9.249999999999998e+00	 1.000138777846153e+01
0	 9.000000000000000e+00	 9.312500000000000e+00	 1.000105318461538e+01
0	 9.000000000000000e+00	 9.375000000000002e+00	 1.000070092307693e+01
0	 9.062500000000000e+00	 8.750000000000000e+00	 1.000310769230769e+01
0	 9.062500000000000e+00	 8.812500000000000e+00	 1.000293307692308e+01
0	 9.062499999999998e+00	 8.875000000000000e+00	 1.000274207692306e+01
0	 9.062500000000000e+00	 8.937500000000000e+00	 1.000253469230769e+01
0	 9.062499999999998e+00	 8.999999999999998e+00	 1.000231092307691e+01
0	 9.062499999999998e+00	 9.062500000000000e+00	 1.000207076923077e+01
0	 9.062500000000002e+00	 9.125000000000002e+00	 1.000181423076923e+01
0	 9.062499999999998e+00	 9.187499999999998e+00	 1.000154130769230e+01
0	 9.062499999999998e+00	 9.249999999999998e+00	 1.000125199999999e+01
0	 9.062500000000002e+00	 9.312500000000000e+00	 1.000094630769229e+01
0	 9.062500000000000e+00	 9.375000000000002e+00	 1.000062423076923e+01
0	 9.124999999999998e+00	 8.750000000000000e+00	 1.000277526153847e+01
0	 9.124999999999998e+00	 8.812500000000000e+00	 1.000261883076921e+01
0	 9.124999999999996e+00	 8.874999999999996e+00	 1.000244729846154e+01
0	 9.124999999999998e+00	 8.937499999999998e+00	 1.000226066461537e+01
0	 9.125000000000002e+00	 9.000000000000004e+00	 1.000205892923078e+01
0	 9.125000000000000e+00	 9.062500000000002e+00	 1.000184209230767e+01
0	 9.124999999999998e+00	 9.124999999999998e+00	 1.000161015384614e+01
0	 9.125000000000000e+00	 9.187500000000000e+00	 1.000136311384615e+01
0	 9.125000000000000e+00	 9.249999999999998e+00	 1.000110097230768e+01
0	 9.124999999999998e+00	 9.312499999999998e+00	 1.000082372923077e+01
0	 9.124999999999998e+00	 9.375000000000000e+00	 1.000053138461538e+01
0	 9.187499999999998e+00	 8.750000000000000e+00	 1.000243120000000e+01
0	 9.187499999999998e+00	 8.812499999999998e+00	 1.000229250153846e+01
0	 9.187500000000000e+00	 8.875000000000002e+00	 1.000213998461541e+01
0	 9.187500000000000e+00	 8.937500000000002e+00	 1.000197364923077e+01
0	 9.187499999999998e+00	 8.999999999999998e+00	 1.000179349538461e+01
0	 9.187500000000000e+00	 9.062500000000000e+00	 1.000159952307692e+01
0	 9.187500000000000e+00	 9.125000000000000e+00	 1.000139173230765e+01
0	 9.187500000000000e+00	 9.187500000000000e+00	 1.000117012307692e+01
0	 9.187499999999998e+00	 9.249999999999998e+00	 1.000093469538461e+01
0	 9.187500000000000e+00	 9.312500000000000e+00	 1.000068544923077e+01
0	 9.187499999999998e+00	 9.375000000000000e+00	 1.000042238461538e+01
0	 9.249999999999998e+00	 8.750000000000002e+00	 1.000207550769231e+01
0	 9.250000000000000e+00	 8.812500000000002e+00	 1.000195408923077e+01
0	 9.249999999999998e+00	 8.875000000000000e+00	 1.000182013538459e+01
0	 9.250000000000000e+00	 8.937500000000002e+00	 1.000167364615385e+01
0	 9.249999999999998e+00	 8.999999999999998e+00	 1.000151462153845e+01
0	 9.249999999999998e+00	 9.062499999999998e+00	 1.000134306153846e+01
0	 9.249999999999998e+00	 9.125000000000000e+00	 1.000115896615382e+01
0	 9.249999999999998e+00	 9.187499999999998e+00	 1.000096233538461e+01
0	 9.250000000000000e+00	 9.250000000000000e+00	 1.000075316923075e+01
0	 9.249999999999998e+00	 9.312499999999998e+00	 1.000053146769232e+01
0	 9.249999999999998e+00	 9.375000000000000e+00	 1.000029723076924e+01
0	 9.312499999999998e+00	 8.750000000000000e+00	 1.000170818461540e+01
0	 9.312499999999998e+00	 8.812500000000000e+00	 1.000160359384614e+01
0	 9.312500000000000e+00	 8.875000000000002e+00	 1.000148775076923e+01
0	 9.312500000000000e+00	 8.937500000000000e+00	 1.000136065538460e+01
0	 9.312499999999998e+00	 9.000000000000000e+00	 1.000122230769231e+01
0	 9.312499999999998e+00	 9.062500000000000e+00	 1.000107270769230e+01
0	 9.312499999999998e+00	 9.125000000000000e+00	 1.000091185538461e+01
0	 9.312499999999998e+00	 9.187499999999998e+00	 1.000073975076924e+01
0	 9.312499999999998e+00	 9.249999999999998e+00	 1.000055639384614e+01
0	 9.312499999999998e+00	 9.312499999999996e+00	 1.000036178461539e+01
0	 9.312499999999998e+00	 9.375000000000000e+00	 1.000015592307692e+01
0	 9.375000000000000e+00	 8.750000000000000e+00	 1.000132923076924e+01
0	 9.375000000000000e+00	 8.812500000000000e+00	 1.000124101538463e+01
0	 9.375000000000002e+00	 8.875000000000002e+00	 1.000114283076925e+01
0	 9.374999999999998e+00	 8.937499999999998e+00	 1.000103467692307e+01
0	 9.375000000000002e+00	 9.000000000000000e+00	 1.000091655384616e+01
0	 9.375000000000000e+00	 9.062500000000000e+00	 1.000078846153845e+01
0	 9.375000000000000e+00	 9.124999999999998e+00	 1.000065039999998e+01
0	 9.375000000000000e+00	 9.187499999999998e+00	 1.000050236923075e+01
0	 9.375000000000000e+00	 9.249999999999998e+00	 1.000034436923077e+01
0	 9.375000000000000e+00	 9.312499999999998e+00	 1.000017639999997e+01
0	 9.375000000000000e+00	 9.375000000000000e+00	 9.999998461538450e+00
0	 8.750000000000000e+00	 9.375000000000000e+00	 1.000084615384615e+01
0	 8.750000000000000e+00	 9.437499999999998e+00	 1.000084189230770e+01
0	 8.750000000000000e+00	 9.500000000000000e+00	 1.000080541538463e+01
0	 8.749999999999998e+00	 9.562500000000000e+00	 1.000073672307694e+01
0	 8.750000000000000e+00	 9.625000000000000e+00	 1.000063581538463e+01
0	 8.750000000000000e+00	 9.687499999999998e+00	 1.000050269230771e+01
0	 8.750000000000000e+00	 9.749999999999998e+00	 1.000033735384616e+01
0	 8.750000000000000e+00	 9.812500000000000e+00	 1.000013980000004e+01
0	 8.750000000000002e+00	 9.875000000000000e+00	 9.999910030769229e+00
0	 8.750000000000000e+00	 9.937499999999998e+00	 9.999648046153840e+00
0	 8.750000000000000e+00	 1.000000000000000e+01	 9.999353846153864e+00
0	 8.812499999999998e+00	 9.375000000000000e+00	 1.000083407692310e+01
0	 8.812500000000000e+00	 9.437500000000002e+00	 1.000082917076925e+01
0	 8.812499999999998e+00	 9.500000000000000e+00	 1.000079454153847e+01
0	 8.812500000000000e+00	 9.562500000000000e+00	 1.000073018923077e+01
0	 8.812500000000000e+00	 9.625000000000000e+00	 1.000063611384620e+01
0	 8.812500000000002e+00	 9.687500000000000e+00	 1.000051231538462e+01
0	 8.812500000000002e+00	 9.749999999999998e+00	 1.000035879384616e+01
0	 8.812500000000000e+00	 9.812499999999998e+00	 1.000017554923078e+01
0	 8.812500000000000e+00	 9.874999999999998e+00	 9.999962581538503e+00
0	 8.812499999999998e+00	 9.937499999999996e+00	 9.999719890769292e+00
0	 8.812500000000002e+00	 1.000000000000000e+01	 9.999447476923068e+00
0	 8.874999999999998e+00	 9.375000000000000e+00	 1.000080584615385e+01
0	 8.874999999999996e+00	 9.437499999999998e+00	 1.000080100615384e+01
0	 8.875000000000000e+00	 9.500000000000000e+00	 1.000076893538461e+01
0	 8.875000000000002e+00	 9.562500000000000e+00	 1.000070963384619e+01
0	 8.875000000000000e+00	 9.625000000000002e+00	 1.000062310153848e+01
0	 8.875000000000000e+00	 9.687500000000002e+00	 1.000050933846156e+01
0	 8.875000000000000e+00	 9.750000000000000e+00	 1.000036834461540e+01
0	 8.875000000000000e+00	 9.812500000000002e+00	 1.000020012000005e+01
0	 8.875000000000000e+00	 9.874999999999996e+00	 1.000000466461539e+01
0	 8.875000000000002e+00	 9.937500000000000e+00	 9.999781978461566e+00
0	 8.875000000000000e+00	 1.000000000000000e+01	 9.999532061538495e+00
0	 8.937500000000000e+00	 9.375000000000002e+00	 1.000076146153845e+01
0	 8.937500000000000e+00	 9.437500000000000e+00	 1.000075739846153e+01
0	 8.937499999999998e+00	 9.499999999999996e+00	 1.000072859692308e+01
0	 8.937500000000000e+00	 9.562500000000000e+00	 1.000067505692311e+01
0	 8.937499999999996e+00	 9.624999999999998e+00	 1.000059677846155e+01
0	 8.937499999999998e+00	 9.687500000000000e+00	 1.000049376153848e+01
0	 8.937499999999998e+00	 9.749999999999996e+00	 1.000036600615387e+01
0	 8.937499999999998e+00	 9.812499999999996e+00	 1.000021351230766e+01
0	 8.937500000000000e+00	 9.875000000000000e+00	 1.000003628000001e+01
0	 8.937500000000000e+00	 9.937499999999998e+00	 9.999834309230755e+00
0	 8.937499999999998e+00	 1.000000000000000e+01	 9.999607600000074e+00
0	 9.000000000000000e+00	 9.375000000000002e+00	 1.000070092307693e+01
0	 8.999999999999998e+00	 9.437500000000000e+00	 1.000069834769231e+01
0	 9.000000000000002e+00	 9.500000000000004e+00	 1.000067352615385e+01
0	 9.000000000000000e+00	 9.562500000000000e+00	 1.000062645846155e+01
0	 8.999999999999998e+00	 9.624999999999998e+00	 1.000055714461539e+01
0	 9.000000000000000e+00	 9.687499999999998e+00	 1.000046558461539e+01
0	 8.999999999999998e+00	 9.750000000000000e+00	 1.000035177846157e+01
0	 8.999999999999998e+00	 9.812499999999996e+00	 1.000021572615384e+01
0	 9.000000000000000e+00	 9.874999999999998e+00	 1.000005742769230e+01
0	 8.999999999999998e+00	 9.937499999999996e+00	 9.999876883076999e+00
0	 9.000000000000000e+00	 1.000000000000000e+01	 9.999674092307703e+00
0	 9.062500000000000e+00	 9.375000000000002e+00	 1.000062423076923e+01
0	 9.062499999999998e+00	 9.437499999999998e+00	 1.000062385384614e+01
0	 9.062499999999996e+00	 9.499999999999998e+00	 1.000060372307691e+01
0	 9.062500000000000e+00	 9.562500000000000e+00	 1.000056383846152e+01
0	 9.062499999999998e+00	 9.624999999999998e+00	 1.000050420000000e+01
0	 9.062500000000000e+00	 9.687500000000000e+00	 1.000042480769234e+01
0	 9.062500000000000e+00	 9.750000000000000e+00	 1.000032566153848e+01
0	 9.062499999999998e+00	 9.812499999999998e+00	 1.000020676153848e+01
0	 9.062500000000000e+00	 9.874999999999998e+00	 1.000006810769235e+01
0	 9.062500000000000e+00	 9.937499999999998e+00	 9.999909700000069e+00
0	 9.062499999999998e+00	 1.000000000000000e+01	 9.999731538461631e+00
0	 9.124999999999998e+00	 9.375000000000000e+00	 1.000053138461538e+01
0	 9.124999999999998e+00	 9.437499999999998e+00	 1.000053391692306e+01
0	 9.125000000000000e+00	 9.500000000000000e+00	 1.000051918769231e+01
0	 9.125000000000000e+00	 9.562500000000000e+00	 1.000048719692307e+01
0	 9.125000000000000e+00	 9.625000000000000e+00	 1.000043794461539e+01
0	 9.124999999999998e+00	 9.687499999999998e+00	 1.000037143076925e+01
0	 9.125000000000000e+00	 9.749999999999998e+00	 1.000028765538462e+01
0	 9.124999999999996e+00	 9.812499999999996e+00	 1.000018661846155e+01
0	 9.124999999999998e+00	 9.874999999999998e+00	 1.000006831999999e+01
0	 9.125000000000000e+00	 9.937499999999998e+00	 9.999932760000075e+00
0	 9.124999999999998e+00	 9.999999999999998e+00	 9.999779938461600e+00
0	 9.187499999999998e+00	 9.375000000000000e+00	 1.000042238461538e+01
0	 9.187499999999998e+00	 9.437499999999998e+00	 1.000042853692305e+01
0	 9.187499999999998e+00	 9.499999999999998e+00	 1.000041992000000e+01
0	 9.187500000000000e+00	 9.562500000000002e+00	 1.000039653384617e+01
0	 9.187499999999998e+00	 9.624999999999998e+00	 1.000035837846154e+01
0	 9.187499999999998e+00	 9.687500000000000e+00	 1.000030545384617e+01
0	 9.187499999999998e+00	 9.750000000000000e+00	 1.000023775999999e+01
0	 9.187499999999998e+00	 9.812500000000000e+00	 1.000015529692311e+01
0	 9.187499999999998e+00	 9.874999999999998e+00	 1.000005806461534e+01
0	 9.187500000000000e+00	 9.937499999999998e+00	 9.999946063076948e+00
0	 9.187500000000000e+00	 1.000000000000000e+01	 9.999819292307739e+00
0	 9.249999999999998e+00	 9.375000000000000e+00	 1.000029723076924e+01
0	 9.250000000000000e+00	 9.437500000000002e+00	 1.000030771384615e+01
0	 9.250000000000000e+00	 9.500000000000000e+00	 1.000030592000000e+01
0	 9.249999999999998e+00	 9.562500000000002e+00	 1.000029184923077e+01
0	 9.249999999999996e+00	 9.624999999999998e+00	 1.000026550153845e+01
0	 9.250000000000000e+00	 9.687499999999998e+00	 1.000022687692308e+01
0	 9.249999999999998e+00	 9.750000000000000e+00	 1.000017597538464e+01
0	 9.249999999999998e+00	 9.812499999999998e+00	 1.000011279692310e+01
0	 9.249999999999998e+00	 9.874999999999998e+00	 1.000003734153842e+01
0	 9.250000000000000e+00	 9.937499999999998e+00	 9.999949609230768e+00
0	 9.249999999999998e+00	 1.000000000000000e+01	 9.999849600000017e+00
0	 9.312499999999998e+00	 9.375000000000000e+00	 1.000015592307692e+01
0	 9.312499999999998e+00	 9.437500000000000e+00	 1.000017144769231e+01
0	 9.312499999999998e+00	 9.499999999999998e+00	 1.000017718769233e+01
0	 9.312500000000000e+00	 9.562500000000000e+00	 1.000017314307694e+01
0	 9.312500000000000e+00	 9.624999999999998e+00	 1.000015931384619e+01
0	 9.312499999999995e+00	 9.687499999999996e+00	 1.000013569999999e+01
0	 9.312499999999998e+00	 9.749999999999998e+00	 1.000010230153847e+01
0	 9.312499999999998e+00	 9.812499999999998e+00	 1.000005911846155e+01
0	 9.312499999999996e+00	 9.874999999999996e+00	 1.000000615076929e+01
0	 9.312499999999998e+00	 9.937499999999998e+00	 9.999943398461518e+00
0	 9.312499999999998e+00	 1.000000000000000e+01	 9.999870861538483e+00
0	 9.375000000000000e+00	 9.375000000000000e+00	 9.999998461538450e+00
0	 9.375000000000000e+00	 9.437499999999998e+00	 1.000001973846151e+01
0	 9.374999999999998e+00	 9.500000000000000e+00	 1.000003372307691e+01
0	 9.374999999999998e+00	 9.562500000000000e+00	 1.000004041538462e+01
0	 9.375000000000002e+00	 9.625000000000000e+00	 1.000003981538463e+01
0	 9.375000000000000e+00	 9.687499999999998e+00	 1.000003192307693e+01
0	 9.375000000000000e+00	 9.749999999999998e+00	 1.000001673846154e+01
0	 9.375000000000000e+00	 9.812500000000000e+00	 9.999994261538514e+00
0	 9.375000000000002e+00	 9.875000000000000e+00	 9.999964492307708e+00
0	 9.375000000000000e+00	 9.937499999999998e+00	 9.999927430769247e+00
0	 9.375000000000000e+00	 1.000000000000000e+01	 9.999883076923107e+00
0	 9.375000000000000e+00	 0.000000000000000e+00	 9.831923384615386e+00
0	 9.375000000000000e+00	 6.250000000000000e-02	 9.832590246153844e+00
0	 9.375000000000000e+00	 1.250000000000000e-01	 9.833229138461530e+00
0	 9.375000000000000e+00	 1.875000000000000e-01	 9.833840061538467e+00
0	 9.375000000000000e+00	 2.500000000000000e-01	 9.834423015384617e+00
0	 9.375000000000000e+00	 3.125000000000000e-01	 9.834977999999998e+00
0	 9.375000000000000e+00	 3.750000000000000e-01	 9.835505015384609e+00
0	 9.375000000000000e+00	 4.374999999999999e-01	 9.836004061538455e+00
0	 9.375000000000000e+00	 5.000000000000000e-01	 9.836475138461541e+00
0	 9.375000000000000e+00	 5.624999999999999e-01	 9.836918246153846e+00
0	 9.375000000000000e+00	 6.250000000000000e-01	 9.837333384615382e+00
0	 9.437500000000002e+00	 0.000000000000000e+00	 9.823629098461538e+00
0	 9.437500000000000e+00	 6.250000000000000e-02	 9.824312465692303e+00
0	 9.437500000000000e+00	 1.250000000000000e-01	 9.824967632923071e+00
0	 9.437500000000000e+00	 1.875000000000000e-01	 9.825594600153849e+00
0	 9.437500000000000e+00	 2.500000000000001e-01	 9.826193367384619e+00
0	 9.437500000000000e+00	 3.125000000000001e-01	 9.826763934615377e+00
0	 9.437500000000000e+00	 3.750000000000000e-01	 9.827306301846146e+00
0	 9.437500000000002e+00	 4.375000000000000e-01	 9.827820469076919e+00
0	 9.437500000000002e+00	 5.000000000000000e-01	 9.828306436307688e+00
0	 9.437500000000002e+00	 5.625000000000000e-01	 9.828764203538459e+00
0	 9.437499999999998e+00	 6.250000000000001e-01	 9.829193770769230e+00
0	 9.500000000000000e+00	 0.000000000000000e+00	 9.814950178461540e+00
0	 9.500000000000004e+00	 6.249999999999999e-02	 9.815652875076932e+00
0	 9.500000000000000e+00	 1.250000000000000e-01	 9.816327140923073e+00
0	 9.500000000000000e+00	 1.875000000000001e-01	 9.816972975999999e+00
0	 9.500000000000000e+00	 2.500000000000001e-01	 9.817590380307692e+00
0	 9.500000000000000e+00	 3.124999999999999e-01	 9.818179353846151e+00
0	 9.500000000000000e+00	 3.750000000000000e-01	 9.818739896615384e+00
0	 9.499999999999998e+00	 4.375000000000000e-01	 9.819272008615382e+00
0	 9.500000000000000e+00	 4.999999999999999e-01	 9.819775689846148e+00
0	 9.500000000000000e+00	 5.625000000000000e-01	 9.820250940307686e+00
0	 9.500000000000000e+00	 6.249999999999999e-01	 9.820697759999998e+00
0	 9.562499999999998e+00	 0.000000000000000e+00	 9.805886624615388e+00
0	 9.562500000000002e+00	 6.250000000000000e-02	 9.806611474307690e+00
0	 9.562500000000000e+00	 1.250000000000000e-01	 9.807307662461540e+00
0	 9.562499999999998e+00	 1.875000000000000e-01	 9.807975189076920e+00
0	 9.562500000000000e+00	 2.500000000000001e-01	 9.808614054153846e+00
0	 9.562500000000000e+00	 3.125000000000000e-01	 9.809224257692309e+00
0	 9.562500000000000e+00	 3.750000000000001e-01	 9.809805799692304e+00
0	 9.562499999999998e+00	 4.374999999999999e-01	 9.810358680153847e+00
0	 9.562500000000002e+00	 5.000000000000000e-01	 9.810882899076921e+00
0	 9.562500000000000e+00	 5.624999999999999e-01	 9.811378456461537e+00
0	 9.562500000000000e+00	 6.249999999999999e-01	 9.811845352307685e+00
0	 9.625000000000000e+00	 0.000000000000000e+00	 9.796438436923076e+00
0	 9.624999999999998e+00	 6.250000000000000e-02	 9.797188263384621e+00
0	 9.625000000000002e+00	 1.250000000000000e-01	 9.797909197538459e+00
0	 9.624999999999998e+00	 1.875000000000000e-01	 9.798601239384618e+00
0	 9.624999999999998e+00	 2.500000000000001e-01	 9.799264388923083e+00
0	 9.625000000000000e+00	 3.125000000000001e-01	 9.799898646153848e+00
0	 9.625000000000000e+00	 3.749999999999999e-01	 9.800504011076917e+00
0	 9.624999999999998e+00	 4.374999999999999e-01	 9.801080483692317e+00
0	 9.625000000000002e+00	 4.999999999999999e-01	 9.801628063999992e+00
0	 9.625000000000000e+00	 5.624999999999999e-01	 9.802146752000008e+00
0	 9.624999999999998e+00	 6.250000000000001e-01	 9.802636547692305e+00
0	 9.687500000000000e+00	 0.000000000000000e+00	 9.786605615384621e+00
0	 9.687499999999996e+00	 6.249999999999999e-02	 9.787383242307701e+00
0	 9.687499999999998e+00	 1.250000000000000e-01	 9.788131746153844e+00
0	 9.687499999999998e+00	 1.875000000000000e-01	 9.788851126923079e+00
0	 9.687500000000000e+00	 2.500000000000001e-01	 9.789541384615381e+00
0	 9.687500000000000e+00	 3.125000000000000e-01	 9.790202519230768e+00
0	 9.687500000000002e+00	 3.750000000000001e-01	 9.790834530769237e+00
0	 9.687499999999998e+00	 4.374999999999999e-01	 9.791437419230773e+00
0	 9.687499999999998e+00	 4.999999999999999e-01	 9.792011184615385e+00
0	 9.687500000000000e+00	 5.625000000000000e-01	 9.792555826923081e+00
0	 9.687499999999998e+00	 6.250000000000000e-01	 9.793071346153841e+00
0	 9.749999999999998e+00	 0.000000000000000e+00	 9.776388160000002e+00
0	 9.749999999999996e+00	 6.249999999999999e-02	 9.777196411076917e+00
0	 9.749999999999998e+00	 1.250000000000000e-01	 9.777975308307681e+00
0	 9.749999999999996e+00	 1.875000000000000e-01	 9.778724851692306e+00
0	 9.749999999999998e+00	 2.500000000000000e-01	 9.779445041230758e+00
0	 9.749999999999998e+00	 3.125000000000000e-01	 9.780135876923076e+00
0	 9.750000000000000e+00	 3.750000000000000e-01	 9.780797358769226e+00
0	 9.750000000000000e+00	 4.375000000000001e-01	 9.781429486769238e+00
0	 9.750000000000000e+00	 5.000000000000000e-01	 9.782032260923078e+00
0	 9.749999999999998e+00	 5.625000000000000e-01	 9.782605681230770e+00
0	 9.749999999999998e+00	 6.250000000000000e-01	 9.783149747692308e+00
0	 9.812499999999998e+00	 0.000000000000000e+00	 9.765786070769233e+00
0	 9.812500000000000e+00	 6.250000000000001e-02	 9.766627769692303e+00
0	 9.812499999999998e+00	 1.250000000000000e-01	 9.767439883999998e+00
0	 9.812499999999996e+00	 1.875000000000000e-01	 9.768222413692296e+00
0	 9.812500000000000e+00	 2.500000000000000e-01	 9.768975358769232e+00
0	 9.812499999999998e+00	 3.124999999999999e-01	 9.769698719230782e+00
0	 9.812499999999998e+00	 3.750000000000000e-01	 9.770392495076923e+00
0	 9.812499999999998e+00	 4.375000000000000e-01	 9.771056686307688e+00
0	 9.812499999999998e+00	 4.999999999999999e-01	 9.771691292923068e+00
0	 9.812499999999998e+00	 5.624999999999999e-01	 9.772296314923079e+00
0	 9.812499999999998e+00	 6.250000000000000e-01	 9.772871752307694e+00
0	 9.874999999999998e+00	 0.000000000000000e+00	 9.754799347692300e+00
0	 9.874999999999998e+00	 6.250000000000000e-02	 9.755677318153843e+00
0	 9.874999999999996e+00	 1.250000000000000e-01	 9.756525473230756e+00
0	 9.875000000000000e+00	 1.875000000000000e-01	 9.757343812923084e+00
0	 9.875000000000000e+00	 2.500000000000000e-01	 9.758132337230769e+00
0	 9.874999999999998e+00	 3.125000000000001e-01	 9.758891046153835e+00
0	 9.875000000000000e+00	 3.750000000000001e-01	 9.759619939692300e+00
0	 9.875000000000000e+00	 4.375000000000001e-01	 9.760319017846156e+00
0	 9.875000000000000e+00	 5.000000000000000e-01	 9.760988280615386e+00
0	 9.874999999999998e+00	 5.624999999999999e-01	 9.761627727999997e+00
0	 9.874999999999996e+00	 6.250000000000000e-01	 9.762237359999986e+00
0	 9.937499999999998e+00	 0.000000000000000e+00	 9.743427990769234e+00
0	 9.937500000000000e+00	 6.250000000000000e-02	 9.744345056461537e+00
0	 9.937499999999996e+00	 1.250000000000000e-01	 9.745232075999983e+00
0	 9.937499999999998e+00	 1.875000000000000e-01	 9.746089049384620e+00
0	 9.937500000000000e+00	 2.500000000000001e-01	 9.746915976615391e+00
0	 9.937499999999998e+00	 3.125000000000000e-01	 9.747712857692305e+00
0	 9.937499999999998e+00	 3.750000000000000e-01	 9.748479692615387e+00
0	 9.937499999999998e+00	 4.375000000000000e-01	 9.749216481384607e+00
0	 9.937499999999996e+00	 4.999999999999999e-01	 9.749923224000009e+00
0	 9.937499999999998e+00	 5.625000000000000e-01	 9.750599920461539e+00
0	 9.937499999999998e+00	 6.250000000000000e-01	 9.751246570769226e+00
0	 1.000000000000000e+01	 0.000000000000000e+00	 9.731672000000001e+00
0	 1.000000000000000e+01	 6.250000000000000e-02	 9.732630984615382e+00
0	 1.000000000000000e+01	 1.250000000000000e-01	 9.733559692307706e+00
0	 1.000000000000000e+01	 1.875000000000000e-01	 9.734458123076951e+00
0	 1.000000000000000e+01	 2.500000000000000e-01	 9.735326276923061e+00
0	 1.000000000000000e+01	 3.125000000000000e-01	 9.736164153846151e+00
0	 1.000000000000000e+01	 3.750000000000000e-01	 9.736971753846145e+00
0	 1.000000000000000e+01	 4.375000000000000e-01	 9.737749076923077e+00
0	 1.000000000000000e+01	 5.000000000000000e-01	 9.738496123076915e+00
0	 1.000000000000000e+01	 5.624999999999999e-01	 9.739212892307682e+00
0	 1.000000000000000e+01	 6.250000000000000e-01	 9.739899384615383e+00
0	 9.375000000000000e+00	 6.250000000000000e-01	 9.837333384615382e+00
0	 9.375000000000000e+00	 6.875000000000000e-01	 9.838970969230767e+00
0	 9.375000000000000e+00	 7.500000000000002e-01	 9.840585107692306e+00
0	 9.375000000000002e+00	 8.125000000000002e-01	 9.842175799999994e+00
0	 9.375000000000002e+00	 8.750000000000002e-01	 9.843743046153852e+00
0	 9.375000000000002e+00	 9.375000000000002e-01	 9.845286846153844e+00
0	 9.375000000000000e+00	 1.000000000000000e+00	 9.846807199999997e+00
0	 9.375000000000000e+00	 1.062500000000000e+00	 9.848304107692309e+00
0	 9.375000000000002e+00	 1.125000000000001e+00	 9.849777569230760e+00
0	 9.375000000000000e+00	 1.187500000000000e+00	 9.851227584615380e+00
0	 9.375000000000000e+00	 1.250000000000000e+00	 9.852654153846155e+00
0	 9.437499999999998e+00	 6.250000000000001e-01	 9.829193770769230e+00
0	 9.437500000000000e+00	 6.875000000000000e-01	 9.830879803230774e+00
0	 9.437500000000002e+00	 7.500000000000003e-01	 9.832541687999994e+00
0	 9.437500000000000e+00	 8.125000000000001e-01	 9.834179425076929e+00
0	 9.437500000000002e+00	 8.750000000000002e-01	 9.835793014461537e+00
0	 9.437500000000000e+00	 9.375000000000002e-01	 9.837382456153847e+00
0	 9.437500000000000e+00	 1.000000000000000e+00	 9.838947750153842e+00
0	 9.437500000000002e+00	 1.062500000000001e+00	 9.840488896461533e+00
0	 9.437500000000000e+00	 1.125000000000000e+00	 9.842005895076928e+00
0	 9.437500000000004e+00	 1.187500000000001e+00	 9.843498746000005e+00
0	 9.437499999999998e+00	 1.250000000000000e+00	 9.844967449230770e+00
0	 9.500000000000000e+00	 6.249999999999999e-01	 9.820697759999998e+00
0	 9.500000000000002e+00	 6.875000000000001e-01	 9.822440366769230e+00
0	 9.499999999999998e+00	 7.500000000000001e-01	 9.824158124307688e+00
0	 9.500000000000000e+00	 8.125000000000001e-01	 9.825851032615377e+00
0	 9.499999999999998e+00	 8.750000000000000e-01	 9.827519091692306e+00
0	 9.499999999999996e+00	 9.375000000000004e-01	 9.829162301538462e+00
0	 9.500000000000000e+00	 1.000000000000000e+00	 9.830780662153842e+00
0	 9.500000000000000e+00	 1.062500000000000e+00	 9.832374173538460e+00
0	 9.500000000000000e+00	 1.125000000000000e+00	 9.833942835692314e+00
0	 9.500000000000002e+00	 1.187500000000001e+00	 9.835486648615381e+00
0	 9.500000000000000e+00	 1.250000000000000e+00	 9.837005612307692e+00
0	 9.562500000000000e+00	 6.249999999999999e-01	 9.811845352307685e+00
0	 9.562500000000002e+00	 6.875000000000001e-01	 9.813652659846152e+00
0	 9.562500000000002e+00	 7.500000000000002e-01	 9.815434416615386e+00
0	 9.562500000000000e+00	 8.125000000000003e-01	 9.817190622615383e+00
0	 9.562500000000000e+00	 8.750000000000002e-01	 9.818921277846155e+00
0	 9.562499999999998e+00	 9.375000000000002e-01	 9.820626382307692e+00
0	 9.562500000000000e+00	 1.000000000000001e+00	 9.822305936000003e+00
0	 9.562500000000002e+00	 1.062500000000000e+00	 9.823959938923077e+00
0	 9.562499999999998e+00	 1.125000000000000e+00	 9.825588391076918e+00
0	 9.562500000000000e+00	 1.187500000000001e+00	 9.827191292461542e+00
0	 9.562500000000000e+00	 1.250000000000000e+00	 9.828768643076922e+00
0	 9.624999999999998e+00	 6.250000000000001e-01	 9.802636547692305e+00
0	 9.624999999999998e+00	 6.875000000000000e-01	 9.804516682461539e+00
0	 9.624999999999998e+00	 7.500000000000002e-01	 9.806370564923066e+00
0	 9.625000000000000e+00	 8.125000000000002e-01	 9.808198195076923e+00
0	 9.625000000000002e+00	 8.750000000000001e-01	 9.809999572923079e+00
0	 9.625000000000000e+00	 9.375000000000004e-01	 9.811774698461539e+00
0	 9.624999999999998e+00	 1.000000000000000e+00	 9.813523571692304e+00
0	 9.625000000000000e+00	 1.062500000000000e+00	 9.815246192615385e+00
0	 9.625000000000000e+00	 1.125000000000001e+00	 9.816942561230768e+00
0	 9.624999999999996e+00	 1.187500000000000e+00	 9.818612677538457e+00
0	 9.624999999999998e+00	 1.250000000000000e+00	 9.820256541538464e+00
0	 9.687499999999998e+00	 6.250000000000000e-01	 9.793071346153841e+00
0	 9.687499999999998e+00	 6.875000000000001e-01	 9.795032434615385e+00
0	 9.687499999999998e+00	 7.500000000000002e-01	 9.796966569230769e+00
0	 9.687500000000000e+00	 8.125000000000002e-01	 9.798873749999988e+00
0	 9.687500000000000e+00	 8.750000000000002e-01	 9.800753976923078e+00
0	 9.687499999999998e+00	 9.375000000000002e-01	 9.802607250000007e+00
0	 9.687499999999998e+00	 1.000000000000000e+00	 9.804433569230758e+00
0	 9.687499999999998e+00	 1.062500000000000e+00	 9.806232934615378e+00
0	 9.687499999999998e+00	 1.125000000000000e+00	 9.808005346153848e+00
0	 9.687499999999998e+00	 1.187500000000000e+00	 9.809750803846153e+00
0	 9.687499999999998e+00	 1.250000000000000e+00	 9.811469307692310e+00
0	 9.749999999999998e+00	 6.250000000000000e-01	 9.783149747692308e+00
0	 9.749999999999998e+00	 6.875000000000001e-01	 9.785199916307688e+00
0	 9.749999999999998e+00	 7.500000000000001e-01	 9.787222429538453e+00
0	 9.750000000000000e+00	 8.125000000000002e-01	 9.789217287384620e+00
0	 9.749999999999996e+00	 8.750000000000002e-01	 9.791184489846160e+00
0	 9.749999999999998e+00	 9.375000000000003e-01	 9.793124036923073e+00
0	 9.750000000000000e+00	 1.000000000000000e+00	 9.795035928615388e+00
0	 9.750000000000002e+00	 1.062500000000001e+00	 9.796920164923081e+00
0	 9.750000000000000e+00	 1.125000000000000e+00	 9.798776745846151e+00
0	 9.750000000000000e+00	 1.187500000000000e+00	 9.800605671384609e+00
0	 9.749999999999998e+00	 1.250000000000000e+00	 9.802406941538461e+00
0	 9.812499999999998e+00	 6.250000000000000e-01	 9.772871752307694e+00
0	 9.812500000000000e+00	 6.875000000000002e-01	 9.775019127538469e+00
0	 9.812499999999996e+00	 7.500000000000000e-01	 9.777138145846152e+00
0	 9.812500000000000e+00	 8.125000000000002e-01	 9.779228807230766e+00
0	 9.812499999999998e+00	 8.750000000000002e-01	 9.781291111692308e+00
0	 9.812500000000000e+00	 9.375000000000003e-01	 9.783325059230771e+00
0	 9.812499999999998e+00	 1.000000000000001e+00	 9.785330649846140e+00
0	 9.812499999999998e+00	 1.062500000000000e+00	 9.787307883538455e+00
0	 9.812500000000002e+00	 1.125000000000001e+00	 9.789256760307692e+00
0	 9.812500000000000e+00	 1.187500000000000e+00	 9.791177280153834e+00
0	 9.812499999999998e+00	 1.250000000000000e+00	 9.793069443076918e+00
0	 9.874999999999996e+00	 6.250000000000000e-01	 9.762237359999986e+00
0	 9.875000000000000e+00	 6.875000000000001e-01	 9.764490068307696e+00
0	 9.875000000000000e+00	 7.500000000000001e-01	 9.766713718153849e+00
0	 9.875000000000000e+00	 8.125000000000001e-01	 9.768908309538460e+00
0	 9.874999999999998e+00	 8.750000000000002e-01	 9.771073842461533e+00
0	 9.874999999999998e+00	 9.375000000000002e-01	 9.773210316923070e+00
0	 9.874999999999998e+00	 1.000000000000000e+00	 9.775317732923078e+00
0	 9.875000000000000e+00	 1.062500000000000e+00	 9.777396090461536e+00
0	 9.875000000000000e+00	 1.125000000000001e+00	 9.779445389538466e+00
0	 9.874999999999998e+00	 1.187500000000000e+00	 9.781465630153853e+00
0	 9.874999999999996e+00	 1.250000000000000e+00	 9.783456812307683e+00
0	 9.937499999999998e+00	 6.250000000000000e-01	 9.751246570769226e+00
0	 9.937499999999998e+00	 6.875000000000002e-01	 9.753612738615399e+00
0	 9.937499999999998e+00	 7.500000000000002e-01	 9.755949146461550e+00
0	 9.937500000000000e+00	 8.125000000000003e-01	 9.758255794307688e+00
0	 9.937499999999998e+00	 8.750000000000002e-01	 9.760532682153841e+00
0	 9.937499999999998e+00	 9.375000000000002e-01	 9.762779809999998e+00
0	 9.937499999999998e+00	 1.000000000000000e+00	 9.764997177846160e+00
0	 9.937499999999998e+00	 1.062500000000000e+00	 9.767184785692310e+00
0	 9.937499999999998e+00	 1.125000000000000e+00	 9.769342633538471e+00
0	 9.937499999999998e+00	 1.187500000000000e+00	 9.771470721384624e+00
0	 9.937499999999998e+00	 1.250000000000000e+00	 9.773569049230780e+00
0	 1.000000000000000e+01	 6.250000000000000e-01	 9.739899384615383e+00
0	 1.000000000000000e+01	 6.875000000000000e-01	 9.742387138461535e+00
0	 1.000000000000000e+01	 7.500000000000002e-01	 9.744844430769231e+00
0	 1.000000000000000e+01	 8.125000000000002e-01	 9.747271261538447e+00
0	 1.000000000000000e+01	 8.750000000000002e-01	 9.749667630769229e+00
0	 1.000000000000000e+01	 9.375000000000002e-01	 9.752033538461543e+00
0	 1.000000000000000e+01	 1.000000000000000e+00	 9.754368984615379e+00
0	 1.000000000000000e+01	 1.062500000000000e+00	 9.756673969230775e+00
0	 1.000000000000000e+01	 1.125000000000000e+00	 9.758948492307706e+00
0	 1.000000000000000e+01	 1.187500000000000e+00	 9.761192553846161e+00
0	 1.000000000000000e+01	 1.250000000000000e+00	 9.763406153846159e+00
0	 9.375000000000000e+00	 1.250000000000000e+00	 9.852654153846155e+00
0	 9.375000000000000e+00	 1.312500000000000e+00	 9.855024092307687e+00
0	 9.375000000000000e+00	 1.375000000000000e+00	 9.857378892307697e+00
0	 9.375000000000002e+00	 1.437500000000000e+00	 9.859718553846154e+00
0	 9.375000000000002e+00	 1.500000000000000e+00	 9.862043076923074e+00
0	 9.375000000000002e+00	 1.562500000000000e+00	 9.864352461538459e+00
0	 9.375000000000000e+00	 1.625000000000000e+00	 9.866646707692309e+00
0	 9.375000000000000e+00	 1.687500000000000e+00	 9.868925815384616e+00
0	 9.375000000000002e+00	 1.750000000000001e+00	 9.871189784615375e+00
0	 9.375000000000000e+00	 1.812500000000000e+00	 9.873438615384609e+00
0	 9.375000000000000e+00	 1.875000000000000e+00	 9.875672307692309e+00
0	 9.437499999999998e+00	 1.250000000000000e+00	 9.844967449230770e+00
0	 9.437500000000000e+00	 1.312500000000000e+00	 9.847410648923077e+00
0	 9.437500000000002e+00	 1.375000000000000e+00	 9.849838211692301e+00
0	 9.437500000000000e+00	 1.437500000000000e+00	 9.852250137538466e+00
0	 9.437500000000002e+00	 1.500000000000000e+00	 9.854646426461546e+00
0	 9.437500000000000e+00	 1.562500000000000e+00	 9.857027078461536e+00
0	 9.437500000000000e+00	 1.625000000000000e+00	 9.859392093538453e+00
0	 9.437500000000002e+00	 1.687500000000001e+00	 9.861741471692302e+00
0	 9.437500000000000e+00	 1.750000000000000e+00	 9.864075212923071e+00
0	 9.437500000000004e+00	 1.812500000000001e+00	 9.866393317230775e+00
0	 9.437499999999998e+00	 1.875000000000000e+00	 9.868695784615376e+00
0	 9.500000000000000e+00	 1.250000000000000e+00	 9.837005612307692e+00
0	 9.500000000000002e+00	 1.312500000000000e+00	 9.839533389538461e+00
0	 9.499999999999998e+00	 1.375000000000000e+00	 9.842045031384611e+00
0	 9.500000000000000e+00	 1.437500000000000e+00	 9.844540537846154e+00
0	 9.499999999999998e+00	 1.500000000000000e+00	 9.847019908923075e+00
0	 9.499999999999996e+00	 1.562500000000000e+00	 9.849483144615380e+00
0	 9.500000000000000e+00	 1.625000000000000e+00	 9.851930244923073e+00
0	 9.500000000000000e+00	 1.687500000000000e+00	 9.854361209846154e+00
0	 9.500000000000000e+00	 1.750000000000001e+00	 9.856776039384618e+00
0	 9.500000000000002e+00	 1.812500000000001e+00	 9.859174733538456e+00
0	 9.500000000000000e+00	 1.875000000000000e+00	 9.861557292307690e+00
0	 9.562500000000000e+00	 1.250000000000000e+00	 9.828768643076922e+00
0	 9.562500000000002e+00	 1.312500000000000e+00	 9.831392314153849e+00
0	 9.562500000000002e+00	 1.375000000000000e+00	 9.833999351384612e+00
0	 9.562500000000000e+00	 1.437500000000000e+00	 9.836589754769227e+00
0	 9.562500000000000e+00	 1.500000000000000e+00	 9.839163524307688e+00
0	 9.562499999999998e+00	 1.562500000000000e+00	 9.841720660000004e+00
0	 9.562500000000000e+00	 1.625000000000001e+00	 9.844261161846150e+00
0	 9.562500000000002e+00	 1.687500000000000e+00	 9.846785029846151e+00
0	 9.562499999999998e+00	 1.750000000000001e+00	 9.849292263999994e+00
0	 9.562500000000000e+00	 1.812500000000001e+00	 9.851782864307689e+00
0	 9.562500000000000e+00	 1.875000000000000e+00	 9.854256830769225e+00
0	 9.624999999999998e+00	 1.250000000000000e+00	 9.820256541538464e+00
0	 9.624999999999998e+00	 1.312500000000000e+00	 9.822987422769227e+00
0	 9.624999999999998e+00	 1.375000000000000e+00	 9.825701171692300e+00
0	 9.625000000000000e+00	 1.437500000000000e+00	 9.828397788307690e+00
0	 9.625000000000002e+00	 1.500000000000000e+00	 9.831077272615380e+00
0	 9.625000000000000e+00	 1.562500000000000e+00	 9.833739624615387e+00
0	 9.624999999999998e+00	 1.625000000000000e+00	 9.836384844307695e+00
0	 9.625000000000000e+00	 1.687500000000000e+00	 9.839012931692313e+00
0	 9.625000000000000e+00	 1.750000000000001e+00	 9.841623886769227e+00
0	 9.624999999999996e+00	 1.812500000000000e+00	 9.844217709538455e+00
0	 9.624999999999998e+00	 1.875000000000000e+00	 9.846794400000000e+00
0	 9.687499999999998e+00	 1.250000000000000e+00	 9.811469307692310e+00
0	 9.687499999999998e+00	 1.312500000000000e+00	 9.814318715384614e+00
0	 9.687499999999998e+00	 1.375000000000000e+00	 9.817150492307698e+00
0	 9.687500000000000e+00	 1.437500000000000e+00	 9.819964638461535e+00
0	 9.687500000000000e+00	 1.500000000000000e+00	 9.822761153846155e+00
0	 9.687499999999998e+00	 1.562500000000000e+00	 9.825540038461526e+00
0	 9.687499999999998e+00	 1.625000000000000e+00	 9.828301292307692e+00
0	 9.687499999999998e+00	 1.687500000000001e+00	 9.831044915384606e+00
0	 9.687499999999998e+00	 1.750000000000000e+00	 9.833770907692308e+00
0	 9.687499999999998e+00	 1.812500000000000e+00	 9.836479269230770e+00
0	 9.687499999999998e+00	 1.875000000000000e+00	 9.839170000000001e+00
0	 9.749999999999998e+00	 1.250000000000000e+00	 9.802406941538461e+00
0	 9.749999999999998e+00	 1.312500000000000e+00	 9.805386192000002e+00
0	 9.749999999999998e+00	 1.375000000000000e+00	 9.808347313230762e+00
0	 9.750000000000000e+00	 1.437500000000000e+00	 9.811290305230784e+00
0	 9.749999999999996e+00	 1.500000000000000e+00	 9.814215168000008e+00
0	 9.749999999999998e+00	 1.562500000000000e+00	 9.817121901538453e+00
0	 9.750000000000000e+00	 1.625000000000000e+00	 9.820010505846151e+00
0	 9.750000000000002e+00	 1.687500000000001e+00	 9.822880980923070e+00
0	 9.750000000000000e+00	 1.750000000000000e+00	 9.825733326769223e+00
0	 9.750000000000000e+00	 1.812500000000001e+00	 9.828567543384597e+00
0	 9.749999999999998e+00	 1.875000000000000e+00	 9.831383630769233e+00
0	 9.812499999999998e+00	 1.250000000000000e+00	 9.793069443076918e+00
0	 9.812500000000000e+00	 1.312500000000000e+00	 9.796189852615386e+00
0	 9.812499999999996e+00	 1.375000000000000e+00	 9.799291634461540e+00
0	 9.812500000000000e+00	 1.437500000000001e+00	 9.802374788615383e+00
0	 9.812499999999998e+00	 1.500000000000000e+00	 9.805439315076919e+00
0	 9.812500000000000e+00	 1.562500000000000e+00	 9.808485213846161e+00
0	 9.812499999999998e+00	 1.625000000000000e+00	 9.811512484923073e+00
0	 9.812499999999998e+00	 1.687500000000000e+00	 9.814521128307705e+00
0	 9.812500000000002e+00	 1.750000000000001e+00	 9.817511143999999e+00
0	 9.812500000000000e+00	 1.812500000000000e+00	 9.820482532000003e+00
0	 9.812499999999998e+00	 1.875000000000000e+00	 9.823435292307689e+00
0	 9.874999999999996e+00	 1.250000000000000e+00	 9.783456812307683e+00
0	 9.875000000000000e+00	 1.312500000000000e+00	 9.786729697230761e+00
0	 9.875000000000000e+00	 1.375000000000000e+00	 9.789983456000002e+00
0	 9.875000000000000e+00	 1.437500000000000e+00	 9.793218088615387e+00
0	 9.874999999999998e+00	 1.500000000000000e+00	 9.796433595076921e+00
0	 9.874999999999998e+00	 1.562500000000000e+00	 9.799629975384622e+00
0	 9.874999999999998e+00	 1.625000000000000e+00	 9.802807229538470e+00
0	 9.875000000000000e+00	 1.687500000000000e+00	 9.805965357538460e+00
0	 9.875000000000000e+00	 1.750000000000000e+00	 9.809104359384611e+00
0	 9.874999999999998e+00	 1.812500000000000e+00	 9.812224235076910e+00
0	 9.874999999999996e+00	 1.875000000000000e+00	 9.815324984615383e+00
0	 9.937499999999998e+00	 1.250000000000000e+00	 9.773569049230780e+00
0	 9.937499999999998e+00	 1.312500000000000e+00	 9.777005725846163e+00
0	 9.937499999999998e+00	 1.375000000000000e+00	 9.780422777846162e+00
0	 9.937500000000000e+00	 1.437500000000000e+00	 9.783820205230766e+00
0	 9.937499999999998e+00	 1.500000000000000e+00	 9.787198007999992e+00
0	 9.937499999999998e+00	 1.562500000000000e+00	 9.790556186153838e+00
0	 9.937499999999998e+00	 1.625000000000000e+00	 9.793894739692316e+00
0	 9.937499999999998e+00	 1.687500000000000e+00	 9.797213668615388e+00
0	 9.937499999999998e+00	 1.750000000000000e+00	 9.800512972923089e+00
0	 9.937499999999998e+00	 1.812500000000001e+00	 9.803792652615403e+00
0	 9.937499999999998e+00	 1.875000000000000e+00	 9.807052707692325e+00
0	 1.000000000000000e+01	 1.250000000000000e+00	 9.763406153846159e+00
0	 1.000000000000000e+01	 1.312500000000000e+00	 9.767017938461535e+00
0	 1.000000000000000e+01	 1.375000000000000e+00	 9.770609599999995e+00
0	 1.000000000000000e+01	 1.437500000000000e+00	 9.774181138461538e+00
0	 1.000000000000000e+01	 1.500000000000000e+00	 9.777732553846157e+00
0	 1.000000000000000e+01	 1.562500000000000e+00	 9.781263846153861e+00
0	 1.000000000000000e+01	 1.625000000000000e+00	 9.784775015384616e+00
0	 1.000000000000000e+01	 1.687500000000000e+00	 9.788266061538467e+00
0	 1.000000000000000e+01	 1.750000000000000e+00	 9.791736984615399e+00
0	 1.000000000000000e+01	 1.812500000000000e+00	 9.795187784615390e+00
0	 1.000000000000000e+01	 1.875000000000000e+00	 9.798618461538467e+00
0	 9.375000000000000e+00	 1.875000000000000e+00	 9.875672307692309e+00
0	 9.375000000000000e+00	 1.937500000000000e+00	 9.878435707692303e+00
0	 9.375000000000000e+00	 2.000000000000000e+00	 9.881193292307696e+00
0	 9.375000000000002e+00	 2.062500000000000e+00	 9.883945061538457e+00
0	 9.375000000000002e+00	 2.125000000000000e+00	 9.886691015384622e+00
0	 9.375000000000002e+00	 2.187500000000000e+00	 9.889431153846155e+00
0	 9.375000000000000e+00	 2.250000000000000e+00	 9.892165476923076e+00
0	 9.375000000000000e+00	 2.312500000000000e+00	 9.894893984615383e+00
0	 9.375000000000002e+00	 2.375000000000001e+00	 9.897616676923084e+00
0	 9.375000000000000e+00	 2.437500000000001e+00	 9.900333553846147e+00
0	 9.375000000000000e+00	 2.500000000000000e+00	 9.903044615384617e+00
0	 9.437499999999998e+00	 1.875000000000000e+00	 9.868695784615376e+00
0	 9.437500000000000e+00	 1.937500000000000e+00	 9.871549738461548e+00
0	 9.437500000000002e+00	 2.000000000000000e+00	 9.874397572307680e+00
0	 9.437500000000000e+00	 2.062500000000000e+00	 9.877239286153856e+00
0	 9.437500000000002e+00	 2.125000000000000e+00	 9.880074879999999e+00
0	 9.437500000000000e+00	 2.187500000000000e+00	 9.882904353846151e+00
0	 9.437500000000000e+00	 2.250000000000001e+00	 9.885727707692304e+00
0	 9.437500000000002e+00	 2.312500000000001e+00	 9.888544941538461e+00
0	 9.437500000000000e+00	 2.375000000000001e+00	 9.891356055384623e+00
0	 9.437500000000004e+00	 2.437500000000000e+00	 9.894161049230780e+00
0	 9.437499999999998e+00	 2.500000000000000e+00	 9.896959923076929e+00
0	 9.500000000000000e+00	 1.875000000000000e+00	 9.861557292307690e+00
0	 9.500000000000002e+00	 1.937500000000000e+00	 9.864514227692304e+00
0	 9.499999999999998e+00	 2.000000000000000e+00	 9.867464738461534e+00
0	 9.500000000000000e+00	 2.062500000000000e+00	 9.870408824615385e+00
0	 9.499999999999998e+00	 2.125000000000000e+00	 9.873346486153846e+00
0	 9.499999999999996e+00	 2.187500000000000e+00	 9.876277723076925e+00
0	 9.500000000000000e+00	 2.250000000000000e+00	 9.879202535384614e+00
0	 9.500000000000000e+00	 2.312500000000001e+00	 9.882120923076929e+00
0	 9.500000000000000e+00	 2.375000000000001e+00	 9.885032886153851e+00
0	 9.500000000000002e+00	 2.437500000000001e+00	 9.887938424615387e+00
0	 9.500000000000000e+00	 2.500000000000000e+00	 9.890837538461534e+00
0	 9.562500000000000e+00	 1.875000000000000e+00	 9.854256830769225e+00
0	 9.562500000000002e+00	 1.937500000000000e+00	 9.857329175384615e+00
0	 9.562500000000002e+00	 2.000000000000000e+00	 9.860394790769231e+00
0	 9.562500000000000e+00	 2.062500000000000e+00	 9.863453676923067e+00
0	 9.562500000000000e+00	 2.125000000000000e+00	 9.866505833846157e+00
0	 9.562499999999998e+00	 2.187500000000000e+00	 9.869551261538462e+00
0	 9.562500000000000e+00	 2.250000000000000e+00	 9.872589959999999e+00
0	 9.562500000000002e+00	 2.312500000000000e+00	 9.875621929230771e+00
0	 9.562499999999998e+00	 2.375000000000000e+00	 9.878647169230758e+00
0	 9.562500000000000e+00	 2.437500000000000e+00	 9.881665680000005e+00
0	 9.562500000000000e+00	 2.500000000000000e+00	 9.884677461538461e+00
0	 9.624999999999998e+00	 1.875000000000000e+00	 9.846794400000000e+00
0	 9.624999999999998e+00	 1.937500000000000e+00	 9.849994581538470e+00
0	 9.624999999999998e+00	 2.000000000000000e+00	 9.853187729230761e+00
0	 9.625000000000000e+00	 2.062500000000000e+00	 9.856373843076923e+00
0	 9.625000000000002e+00	 2.125000000000000e+00	 9.859552923076924e+00
0	 9.625000000000000e+00	 2.187500000000001e+00	 9.862724969230772e+00
0	 9.624999999999998e+00	 2.250000000000000e+00	 9.865889981538457e+00
0	 9.625000000000000e+00	 2.312500000000000e+00	 9.869047960000000e+00
0	 9.625000000000000e+00	 2.375000000000001e+00	 9.872198904615393e+00
0	 9.624999999999996e+00	 2.437500000000000e+00	 9.875342815384609e+00
0	 9.624999999999998e+00	 2.500000000000000e+00	 9.878479692307700e+00
0	 9.687499999999998e+00	 1.875000000000000e+00	 9.839170000000001e+00
0	 9.687499999999998e+00	 1.937500000000000e+00	 9.842510446153838e+00
0	 9.687499999999998e+00	 2.000000000000000e+00	 9.845843553846153e+00
0	 9.687500000000000e+00	 2.062500000000000e+00	 9.849169323076922e+00
0	 9.687500000000000e+00	 2.125000000000000e+00	 9.852487753846155e+00
0	 9.687499999999998e+00	 2.187500000000000e+00	 9.855798846153855e+00
0	 9.687499999999998e+00	 2.250000000000001e+00	 9.859102600000007e+00
0	 9.687499999999998e+00	 2.312500000000000e+00	 9.862399015384618e+00
0	 9.687499999999998e+00	 2.375000000000000e+00	 9.865688092307687e+00
0	 9.687499999999998e+00	 2.437500000000000e+00	 9.868969830769226e+00
0	 9.687499999999998e+00	 2.500000000000000e+00	 9.872244230769237e+00
0	 9.749999999999998e+00	 1.875000000000000e+00	 9.831383630769233e+00
0	 9.749999999999998e+00	 1.937500000000000e+00	 9.834876769230766e+00
0	 9.749999999999998e+00	 2.000000000000000e+00	 9.838362264615379e+00
0	 9.750000000000000e+00	 2.062500000000000e+00	 9.841840116923084e+00
0	 9.749999999999996e+00	 2.125000000000000e+00	 9.845310326153843e+00
0	 9.749999999999998e+00	 2.187500000000000e+00	 9.848772892307679e+00
0	 9.750000000000000e+00	 2.250000000000000e+00	 9.852227815384619e+00
0	 9.750000000000002e+00	 2.312500000000001e+00	 9.855675095384610e+00
0	 9.750000000000000e+00	 2.375000000000000e+00	 9.859114732307692e+00
0	 9.750000000000000e+00	 2.437500000000000e+00	 9.862546726153845e+00
0	 9.749999999999998e+00	 2.500000000000000e+00	 9.865971076923083e+00
0	 9.812499999999998e+00	 1.875000000000000e+00	 9.823435292307689e+00
0	 9.812500000000000e+00	 1.937500000000000e+00	 9.827093550769240e+00
0	 9.812499999999996e+00	 2.000000000000000e+00	 9.830743861538464e+00
0	 9.812500000000000e+00	 2.062500000000000e+00	 9.834386224615393e+00
0	 9.812499999999998e+00	 2.125000000000000e+00	 9.838020640000005e+00
0	 9.812500000000000e+00	 2.187500000000000e+00	 9.841647107692316e+00
0	 9.812499999999998e+00	 2.250000000000001e+00	 9.845265627692299e+00
0	 9.812499999999998e+00	 2.312500000000000e+00	 9.848876200000010e+00
0	 9.812500000000002e+00	 2.375000000000001e+00	 9.852478824615385e+00
0	 9.812500000000000e+00	 2.437500000000000e+00	 9.856073501538459e+00
0	 9.812499999999998e+00	 2.500000000000000e+00	 9.859660230769229e+00
0	 9.874999999999996e+00	 1.875000000000000e+00	 9.815324984615383e+00
0	 9.875000000000000e+00	 1.937500000000000e+00	 9.819160790769235e+00
0	 9.875000000000000e+00	 2.000000000000000e+00	 9.822988344615389e+00
0	 9.875000000000000e+00	 2.062500000000000e+00	 9.826807646153851e+00
0	 9.874999999999998e+00	 2.125000000000000e+00	 9.830618695384603e+00
0	 9.874999999999998e+00	 2.187500000000000e+00	 9.834421492307705e+00
0	 9.874999999999998e+00	 2.250000000000000e+00	 9.838216036923066e+00
0	 9.875000000000000e+00	 2.312500000000000e+00	 9.842002329230773e+00
0	 9.875000000000000e+00	 2.375000000000001e+00	 9.845780369230770e+00
0	 9.874999999999998e+00	 2.437500000000000e+00	 9.849550156923073e+00
0	 9.874999999999996e+00	 2.500000000000000e+00	 9.853311692307685e+00
0	 9.937499999999998e+00	 1.875000000000000e+00	 9.807052707692325e+00
0	 9.937499999999998e+00	 1.937500000000000e+00	 9.811078489230777e+00
0	 9.937499999999998e+00	 2.000000000000000e+00	 9.815095713846169e+00
0	 9.937500000000000e+00	 2.062500000000000e+00	 9.819104381538459e+00
0	 9.937499999999998e+00	 2.125000000000000e+00	 9.823104492307689e+00
0	 9.937499999999998e+00	 2.187500000000000e+00	 9.827096046153841e+00
0	 9.937499999999998e+00	 2.250000000000000e+00	 9.831079043076929e+00
0	 9.937499999999998e+00	 2.312500000000000e+00	 9.835053483076917e+00
0	 9.937499999999998e+00	 2.375000000000000e+00	 9.839019366153847e+00
0	 9.937499999999998e+00	 2.437500000000001e+00	 9.842976692307706e+00
0	 9.937499999999998e+00	 2.500000000000000e+00	 9.846925461538449e+00
0	 1.000000000000000e+01	 1.875000000000000e+00	 9.798618461538467e+00
0	 1.000000000000000e+01	 1.937500000000000e+00	 9.802846646153851e+00
0	 1.000000000000000e+01	 2.000000000000000e+00	 9.807065969230779e+00
0	 1.000000000000000e+01	 2.062500000000000e+00	 9.811276430769224e+00
0	 1.000000000000000e+01	 2.125000000000000e+00	 9.815478030769222e+00
0	 1.000000000000000e+01	 2.187500000000000e+00	 9.819670769230775e+00
0	 1.000000000000000e+01	 2.250000000000000e+00	 9.823854646153828e+00
0	 1.000000000000000e+01	 2.312500000000000e+00	 9.828029661538466e+00
0	 1.000000000000000e+01	 2.375000000000000e+00	 9.832195815384630e+00
0	 1.000000000000000e+01	 2.437500000000000e+00	 9.836353107692316e+00
0	 1.000000000000000e+01	 2.500000000000000e+00	 9.840501538461540e+00
0	 9.375000000000000e+00	 2.500000000000000e+00	 9.903044615384617e+00
0	 9.375000000000000e+00	 2.562500000000000e+00	 9.905863107692314e+00
0	 9.375000000000002e+00	 2.625000000000000e+00	 9.908684738461542e+00
0	 9.374999999999998e+00	 2.687499999999999e+00	 9.911509507692308e+00
0	 9.375000000000002e+00	 2.750000000000000e+00	 9.914337415384614e+00
0	 9.375000000000000e+00	 2.812499999999999e+00	 9.917168461538457e+00
0	 9.375000000000000e+00	 2.874999999999999e+00	 9.920002646153847e+00
0	 9.375000000000000e+00	 2.937499999999998e+00	 9.922839969230772e+00
0	 9.375000000000000e+00	 2.999999999999998e+00	 9.925680430769225e+00
0	 9.375000000000000e+00	 3.062499999999998e+00	 9.928524030769243e+00
0	 9.375000000000000e+00	 3.125000000000000e+00	 9.931370769230764e+00
0	 9.437499999999998e+00	 2.500000000000000e+00	 9.896959923076929e+00
0	 9.437500000000000e+00	 2.562500000000000e+00	 9.899877295384616e+00
0	 9.437500000000000e+00	 2.625000000000000e+00	 9.902797695384606e+00
0	 9.437500000000002e+00	 2.687500000000000e+00	 9.905721123076917e+00
0	 9.437500000000000e+00	 2.750000000000000e+00	 9.908647578461538e+00
0	 9.437499999999998e+00	 2.812500000000000e+00	 9.911577061538463e+00
0	 9.437500000000000e+00	 2.874999999999998e+00	 9.914509572307693e+00
0	 9.437500000000000e+00	 2.937499999999999e+00	 9.917445110769236e+00
0	 9.437500000000002e+00	 2.999999999999998e+00	 9.920383676923080e+00
0	 9.437500000000000e+00	 3.062499999999998e+00	 9.923325270769224e+00
0	 9.437499999999998e+00	 3.125000000000000e+00	 9.926269892307689e+00
0	 9.500000000000000e+00	 2.500000000000000e+00	 9.890837538461534e+00
0	 9.500000000000002e+00	 2.562500000000000e+00	 9.893865076923085e+00
0	 9.500000000000000e+00	 2.625000000000000e+00	 9.896895532307690e+00
0	 9.499999999999998e+00	 2.687500000000000e+00	 9.899928904615386e+00
0	 9.500000000000000e+00	 2.750000000000000e+00	 9.902965193846153e+00
0	 9.499999999999998e+00	 2.812499999999998e+00	 9.906004399999997e+00
0	 9.500000000000000e+00	 2.874999999999999e+00	 9.909046523076924e+00
0	 9.500000000000000e+00	 2.937499999999999e+00	 9.912091563076926e+00
0	 9.500000000000002e+00	 2.999999999999998e+00	 9.915139520000000e+00
0	 9.500000000000000e+00	 3.062499999999998e+00	 9.918190393846162e+00
0	 9.500000000000000e+00	 3.125000000000000e+00	 9.921244184615386e+00
0	 9.562500000000000e+00	 2.500000000000000e+00	 9.884677461538461e+00
0	 9.562500000000000e+00	 2.562500000000000e+00	 9.887826452307694e+00
0	 9.562500000000000e+00	 2.625000000000000e+00	 9.890978249230770e+00
0	 9.562499999999998e+00	 2.687500000000000e+00	 9.894132852307692e+00
0	 9.562500000000002e+00	 2.750000000000000e+00	 9.897290261538469e+00
0	 9.562500000000002e+00	 2.812499999999999e+00	 9.900450476923066e+00
0	 9.562500000000000e+00	 2.874999999999999e+00	 9.903613498461537e+00
0	 9.562500000000000e+00	 2.937499999999998e+00	 9.906779326153849e+00
0	 9.562500000000002e+00	 2.999999999999998e+00	 9.909947960000004e+00
0	 9.562499999999998e+00	 3.062499999999998e+00	 9.913119399999992e+00
0	 9.562500000000000e+00	 3.125000000000000e+00	 9.916293646153848e+00
0	 9.624999999999998e+00	 2.500000000000000e+00	 9.878479692307700e+00
0	 9.624999999999998e+00	 2.562500000000000e+00	 9.881761421538458e+00
0	 9.625000000000000e+00	 2.625000000000000e+00	 9.885045846153847e+00
0	 9.625000000000000e+00	 2.687500000000000e+00	 9.888332966153852e+00
0	 9.624999999999996e+00	 2.749999999999999e+00	 9.891622781538461e+00
0	 9.624999999999998e+00	 2.812500000000000e+00	 9.894915292307690e+00
0	 9.625000000000000e+00	 2.874999999999999e+00	 9.898210498461538e+00
0	 9.625000000000000e+00	 2.937499999999999e+00	 9.901508400000004e+00
0	 9.625000000000000e+00	 2.999999999999999e+00	 9.904808996923077e+00
0	 9.625000000000000e+00	 3.062499999999998e+00	 9.908112289230766e+00
0	 9.624999999999998e+00	 3.125000000000000e+00	 9.911418276923079e+00
0	 9.687499999999998e+00	 2.500000000000000e+00	 9.872244230769237e+00
0	 9.687500000000000e+00	 2.562500000000000e+00	 9.875669984615381e+00
0	 9.687499999999998e+00	 2.625000000000000e+00	 9.879098323076933e+00
0	 9.687500000000000e+00	 2.687500000000000e+00	 9.882529246153855e+00
0	 9.687499999999998e+00	 2.749999999999999e+00	 9.885962753846155e+00
0	 9.687500000000000e+00	 2.812499999999999e+00	 9.889398846153846e+00
0	 9.687500000000000e+00	 2.874999999999999e+00	 9.892837523076910e+00
0	 9.687499999999998e+00	 2.937499999999998e+00	 9.896278784615383e+00
0	 9.687499999999998e+00	 2.999999999999998e+00	 9.899722630769237e+00
0	 9.687499999999998e+00	 3.062499999999998e+00	 9.903169061538462e+00
0	 9.687499999999998e+00	 3.125000000000000e+00	 9.906618076923078e+00
0	 9.749999999999998e+00	 2.500000000000000e+00	 9.865971076923083e+00
0	 9.749999999999996e+00	 2.562500000000000e+00	 9.869552141538465e+00
0	 9.749999999999998e+00	 2.624999999999999e+00	 9.873135679999992e+00
0	 9.749999999999996e+00	 2.687499999999999e+00	 9.876721692307681e+00
0	 9.750000000000000e+00	 2.749999999999999e+00	 9.880310178461535e+00
0	 9.749999999999998e+00	 2.812499999999999e+00	 9.883901138461543e+00
0	 9.749999999999998e+00	 2.874999999999999e+00	 9.887494572307700e+00
0	 9.749999999999998e+00	 2.937499999999998e+00	 9.891090480000006e+00
0	 9.749999999999998e+00	 2.999999999999998e+00	 9.894688861538453e+00
0	 9.749999999999996e+00	 3.062499999999998e+00	 9.898289716923081e+00
0	 9.749999999999998e+00	 3.125000000000000e+00	 9.901893046153852e+00
0	 9.812499999999998e+00	 2.500000000000000e+00	 9.859660230769229e+00
0	 9.812499999999998e+00	 2.562500000000000e+00	 9.863407892307698e+00
0	 9.812500000000002e+00	 2.625000000000000e+00	 9.867157916923087e+00
0	 9.812499999999998e+00	 2.687500000000000e+00	 9.870910304615387e+00
0	 9.812499999999996e+00	 2.749999999999999e+00	 9.874665055384623e+00
0	 9.812499999999998e+00	 2.812499999999999e+00	 9.878422169230777e+00
0	 9.812499999999998e+00	 2.874999999999998e+00	 9.882181646153848e+00
0	 9.812499999999998e+00	 2.937499999999998e+00	 9.885943486153852e+00
0	 9.812499999999998e+00	 2.999999999999998e+00	 9.889707689230773e+00
0	 9.812499999999998e+00	 3.062499999999998e+00	 9.893474255384616e+00
0	 9.812499999999998e+00	 3.125000000000000e+00	 9.897243184615386e+00
0	 9.874999999999996e+00	 2.500000000000000e+00	 9.853311692307685e+00
0	 9.874999999999998e+00	 2.562500000000000e+00	 9.857237236923071e+00
0	 9.875000000000000e+00	 2.625000000000000e+00	 9.861165033846152e+00
0	 9.874999999999998e+00	 2.687499999999999e+00	 9.865095083076927e+00
0	 9.875000000000000e+00	 2.749999999999999e+00	 9.869027384615402e+00
0	 9.874999999999996e+00	 2.812499999999998e+00	 9.872961938461547e+00
0	 9.874999999999998e+00	 2.874999999999999e+00	 9.876898744615382e+00
0	 9.874999999999998e+00	 2.937499999999998e+00	 9.880837803076933e+00
0	 9.874999999999996e+00	 2.999999999999998e+00	 9.884779113846157e+00
0	 9.874999999999998e+00	 3.062499999999998e+00	 9.888722676923067e+00
0	 9.874999999999996e+00	 3.125000000000000e+00	 9.892668492307685e+00
0	 9.937499999999998e+00	 2.500000000000000e+00	 9.846925461538449e+00
0	 9.937499999999998e+00	 2.562500000000000e+00	 9.851040175384620e+00
0	 9.937499999999998e+00	 2.625000000000000e+00	 9.855157030769220e+00
0	 9.937499999999998e+00	 2.687499999999999e+00	 9.859276027692312e+00
0	 9.937499999999998e+00	 2.750000000000000e+00	 9.863397166153844e+00
0	 9.937499999999996e+00	 2.812499999999999e+00	 9.867520446153838e+00
0	 9.937499999999998e+00	 2.874999999999999e+00	 9.871645867692298e+00
0	 9.937499999999998e+00	 2.937499999999998e+00	 9.875773430769234e+00
0	 9.937499999999998e+00	 2.999999999999998e+00	 9.879903135384625e+00
0	 9.937499999999998e+00	 3.062499999999998e+00	 9.884034981538456e+00
0	 9.937499999999998e+00	 3.125000000000000e+00	 9.888168969230769e+00
0	 1.000000000000000e+01	 2.500000000000000e+00	 9.840501538461540e+00
0	 1.000000000000000e+01	 2.562500000000000e+00	 9.844816707692315e+00
0	 1.000000000000000e+01	 2.625000000000000e+00	 9.849133907692323e+00
0	 1.000000000000000e+01	 2.687499999999999e+00	 9.853453138461552e+00
0	 1.000000000000000e+01	 2.750000000000000e+00	 9.857774399999993e+00
0	 1.000000000000000e+01	 2.812499999999999e+00	 9.862097692307694e+00
0	 9.999999999999998e+00	 2.874999999999999e+00	 9.866423015384623e+00
0	 1.000000000000000e+01	 2.937499999999999e+00	 9.870750369230771e+00
0	 1.000000000000000e+01	 2.999999999999998e+00	 9.875079753846162e+00
0	 1.000000000000000e+01	 3.062499999999998e+00	 9.879411169230780e+00
0	 1.000000000000000e+01	 3.125000000000000e+00	 9.883744615384618e+00
0	 9.375000000000000e+00	 3.125000000000000e+00	 9.931370769230764e+00
0	 9.375000000000000e+00	 3.187500000000000e+00	 9.933932492307681e+00
0	 9.375000000000002e+00	 3.250000000000000e+00	 9.936504738461529e+00
0	 9.374999999999998e+00	 3.312499999999999e+00	 9.939087507692321e+00
0	 9.375000000000002e+00	 3.374999999999999e+00	 9.941680799999997e+00
0	 9.375000000000000e+00	 3.437499999999999e+00	 9.944284615384603e+00
0	 9.375000000000000e+00	 3.499999999999999e+00	 9.946898953846146e+00
0	 9.375000000000000e+00	 3.562499999999998e+00	 9.949523815384612e+00
0	 9.375000000000000e+00	 3.624999999999999e+00	 9.952159200000004e+00
0	 9.375000000000000e+00	 3.687499999999998e+00	 9.954805107692300e+00
0	 9.375000000000000e+00	 3.750000000000000e+00	 9.957461538461533e+00
0	 9.437499999999998e+00	 3.125000000000000e+00	 9.926269892307689e+00
0	 9.437500000000000e+00	 3.187500000000000e+00	 9.928930321538465e+00
0	 9.437500000000000e+00	 3.249999999999999e+00	 9.931601329230773e+00
0	 9.437500000000002e+00	 3.312500000000000e+00	 9.934282915384614e+00
0	 9.437500000000000e+00	 3.375000000000000e+00	 9.936975080000000e+00
0	 9.437499999999998e+00	 3.437499999999998e+00	 9.939677823076924e+00
0	 9.437500000000000e+00	 3.499999999999998e+00	 9.942391144615391e+00
0	 9.437500000000000e+00	 3.562499999999998e+00	 9.945115044615386e+00
0	 9.437500000000002e+00	 3.624999999999999e+00	 9.947849523076927e+00
0	 9.437500000000000e+00	 3.687499999999998e+00	 9.950594579999994e+00
0	 9.437499999999998e+00	 3.750000000000000e+00	 9.953350215384608e+00
0	 9.500000000000000e+00	 3.125000000000000e+00	 9.921244184615386e+00
0	 9.500000000000002e+00	 3.187499999999999e+00	 9.924011569230766e+00
0	 9.500000000000000e+00	 3.250000000000000e+00	 9.926789587692307e+00
0	 9.499999999999998e+00	 3.312500000000000e+00	 9.929578240000001e+00
0	 9.500000000000000e+00	 3.374999999999999e+00	 9.932377526153839e+00
0	 9.499999999999998e+00	 3.437499999999999e+00	 9.935187446153847e+00
0	 9.500000000000000e+00	 3.499999999999999e+00	 9.938008000000002e+00
0	 9.500000000000000e+00	 3.562499999999998e+00	 9.940839187692310e+00
0	 9.500000000000002e+00	 3.624999999999998e+00	 9.943681009230765e+00
0	 9.500000000000000e+00	 3.687499999999998e+00	 9.946533464615365e+00
0	 9.500000000000000e+00	 3.750000000000000e+00	 9.949396553846144e+00
0	 9.562500000000000e+00	 3.125000000000000e+00	 9.916293646153848e+00
0	 9.562500000000000e+00	 3.187500000000000e+00	 9.919176235384620e+00
0	 9.562500000000000e+00	 3.249999999999999e+00	 9.922069513846157e+00
0	 9.562499999999998e+00	 3.312499999999999e+00	 9.924973481538458e+00
0	 9.562500000000002e+00	 3.375000000000000e+00	 9.927888138461539e+00
0	 9.562500000000002e+00	 3.437499999999999e+00	 9.930813484615385e+00
0	 9.562500000000000e+00	 3.499999999999999e+00	 9.933749519999992e+00
0	 9.562500000000000e+00	 3.562499999999999e+00	 9.936696244615383e+00
0	 9.562500000000002e+00	 3.624999999999998e+00	 9.939653658461532e+00
0	 9.562499999999998e+00	 3.687499999999998e+00	 9.942621761538465e+00
0	 9.562500000000000e+00	 3.750000000000000e+00	 9.945600553846141e+00
0	 9.624999999999998e+00	 3.125000000000000e+00	 9.911418276923079e+00
0	 9.624999999999998e+00	 3.187500000000000e+00	 9.914424319999997e+00
0	 9.625000000000000e+00	 3.250000000000000e+00	 9.917441107692303e+00
0	 9.625000000000000e+00	 3.312500000000000e+00	 9.920468640000005e+00
0	 9.624999999999996e+00	 3.374999999999999e+00	 9.923506916923074e+00
0	 9.624999999999998e+00	 3.437499999999999e+00	 9.926555938461538e+00
0	 9.625000000000000e+00	 3.499999999999999e+00	 9.929615704615383e+00
0	 9.625000000000000e+00	 3.562499999999999e+00	 9.932686215384608e+00
0	 9.625000000000000e+00	 3.624999999999999e+00	 9.935767470769234e+00
0	 9.625000000000000e+00	 3.687499999999998e+00	 9.938859470769220e+00
0	 9.624999999999998e+00	 3.750000000000000e+00	 9.941962215384605e+00
0	 9.687499999999998e+00	 3.125000000000000e+00	 9.906618076923078e+00
0	 9.687500000000000e+00	 3.187500000000000e+00	 9.909755823076932e+00
0	 9.687499999999998e+00	 3.250000000000000e+00	 9.912904369230770e+00
0	 9.687500000000000e+00	 3.312500000000000e+00	 9.916063715384615e+00
0	 9.687499999999998e+00	 3.374999999999998e+00	 9.919233861538457e+00
0	 9.687500000000000e+00	 3.437499999999999e+00	 9.922414807692297e+00
0	 9.687500000000000e+00	 3.499999999999999e+00	 9.925606553846157e+00
0	 9.687499999999998e+00	 3.562499999999998e+00	 9.928809099999992e+00
0	 9.687499999999998e+00	 3.624999999999998e+00	 9.932022446153848e+00
0	 9.687499999999998e+00	 3.687499999999997e+00	 9.935246592307685e+00
0	 9.687499999999998e+00	 3.750000000000000e+00	 9.938481538461545e+00
0	 9.749999999999998e+00	 3.125000000000000e+00	 9.901893046153852e+00
0	 9.749999999999996e+00	 3.187500000000000e+00	 9.905170744615393e+00
0	 9.749999999999998e+00	 3.249999999999999e+00	 9.908459298461535e+00
0	 9.749999999999996e+00	 3.312499999999999e+00	 9.911758707692311e+00
0	 9.750000000000000e+00	 3.374999999999999e+00	 9.915068972307690e+00
0	 9.749999999999998e+00	 3.437499999999999e+00	 9.918390092307687e+00
0	 9.749999999999998e+00	 3.499999999999999e+00	 9.921722067692308e+00
0	 9.749999999999998e+00	 3.562499999999999e+00	 9.925064898461542e+00
0	 9.749999999999998e+00	 3.624999999999998e+00	 9.928418584615379e+00
0	 9.749999999999996e+00	 3.687499999999997e+00	 9.931783126153844e+00
0	 9.749999999999998e+00	 3.750000000000000e+00	 9.935158523076918e+00
0	 9.812499999999998e+00	 3.125000000000000e+00	 9.897243184615386e+00
0	 9.812499999999998e+00	 3.187500000000000e+00	 9.900669084615398e+00
0	 9.812500000000002e+00	 3.250000000000000e+00	 9.904105895384617e+00
0	 9.812499999999998e+00	 3.312500000000000e+00	 9.907553616923085e+00
0	 9.812499999999996e+00	 3.374999999999999e+00	 9.911012249230765e+00
0	 9.812499999999998e+00	 3.437499999999999e+00	 9.914481792307701e+00
0	 9.812499999999998e+00	 3.499999999999999e+00	 9.917962246153849e+00
0	 9.812499999999998e+00	 3.562499999999998e+00	 9.921453610769234e+00
0	 9.812499999999998e+00	 3.624999999999997e+00	 9.924955886153851e+00
0	 9.812499999999998e+00	 3.687499999999998e+00	 9.928469072307690e+00
0	 9.812499999999998e+00	 3.750000000000000e+00	 9.931993169230777e+00
0	 9.874999999999996e+00	 3.125000000000000e+00	 9.892668492307685e+00
0	 9.874999999999998e+00	 3.187500000000000e+00	 9.896250843076922e+00
0	 9.875000000000000e+00	 3.250000000000000e+00	 9.899844160000002e+00
0	 9.874999999999998e+00	 3.312499999999999e+00	 9.903448443076922e+00
0	 9.875000000000000e+00	 3.375000000000000e+00	 9.907063692307709e+00
0	 9.874999999999996e+00	 3.437499999999998e+00	 9.910689907692314e+00
0	 9.874999999999998e+00	 3.499999999999999e+00	 9.914327089230769e+00
0	 9.874999999999998e+00	 3.562499999999998e+00	 9.917975236923082e+00
0	 9.874999999999996e+00	 3.624999999999998e+00	 9.921634350769217e+00
0	 9.874999999999998e+00	 3.687499999999997e+00	 9.925304430769222e+00
0	 9.874999999999996e+00	 3.750000000000000e+00	 9.928985476923069e+00
0	 9.937499999999998e+00	 3.125000000000000e+00	 9.888168969230769e+00
0	 9.937499999999998e+00	 3.187500000000000e+00	 9.891916019999993e+00
0	 9.937499999999998e+00	 3.250000000000000e+00	 9.895674092307683e+00
0	 9.937499999999998e+00	 3.312499999999999e+00	 9.899443186153839e+00
0	 9.937499999999998e+00	 3.375000000000000e+00	 9.903223301538462e+00
0	 9.937499999999996e+00	 3.437499999999999e+00	 9.907014438461541e+00
0	 9.937499999999998e+00	 3.499999999999999e+00	 9.910816596923064e+00
0	 9.937499999999998e+00	 3.562499999999999e+00	 9.914629776923082e+00
0	 9.937499999999998e+00	 3.624999999999998e+00	 9.918453978461537e+00
0	 9.937499999999998e+00	 3.687499999999998e+00	 9.922289201538467e+00
0	 9.937499999999998e+00	 3.750000000000000e+00	 9.926135446153850e+00
0	 1.000000000000000e+01	 3.125000000000000e+00	 9.883744615384618e+00
0	 1.000000000000000e+01	 3.187500000000000e+00	 9.887664615384596e+00
0	 1.000000000000000e+01	 3.250000000000000e+00	 9.891595692307702e+00
0	 1.000000000000000e+01	 3.312499999999999e+00	 9.895537846153866e+00
0	 1.000000000000000e+01	 3.374999999999999e+00	 9.899491076923084e+00
0	 1.000000000000000e+01	 3.437499999999999e+00	 9.903455384615384e+00
0	 9.999999999999998e+00	 3.499999999999999e+00	 9.907430769230757e+00
0	 1.000000000000000e+01	 3.562499999999999e+00	 9.911417230769239e+00
0	 1.000000000000000e+01	 3.624999999999998e+00	 9.915414769230773e+00
0	 1.000000000000000e+01	 3.687499999999998e+00	 9.919423384615365e+00
0	 1.000000000000000e+01	 3.750000000000000e+00	 9.923443076923075e+00
0	 9.375000000000000e+00	 3.750000000000000e+00	 9.957461538461533e+00
0	 9.375000000000000e+00	 3.812500000000000e+00	 9.959554323076921e+00
0	 9.375000000000002e+00	 3.875000000000000e+00	 9.961661600000001e+00
0	 9.374999999999998e+00	 3.937499999999999e+00	 9.963783369230763e+00
0	 9.375000000000002e+00	 4.000000000000000e+00	 9.965919630769223e+00
0	 9.375000000000000e+00	 4.062499999999999e+00	 9.968070384615388e+00
0	 9.375000000000000e+00	 4.124999999999999e+00	 9.970235630769221e+00
0	 9.375000000000000e+00	 4.187499999999998e+00	 9.972415369230770e+00
0	 9.375000000000000e+00	 4.249999999999998e+00	 9.974609599999996e+00
0	 9.375000000000000e+00	 4.312499999999998e+00	 9.976818323076925e+00
0	 9.375000000000000e+00	 4.375000000000000e+00	 9.979041538461532e+00
0	 9.437499999999998e+00	 3.750000000000000e+00	 9.953350215384608e+00
0	 9.437500000000000e+00	 3.812500000000000e+00	 9.955532170769228e+00
0	 9.437500000000000e+00	 3.874999999999999e+00	 9.957728849230758e+00
0	 9.437500000000002e+00	 3.937499999999999e+00	 9.959940250769215e+00
0	 9.437500000000000e+00	 4.000000000000000e+00	 9.962166375384610e+00
0	 9.437499999999998e+00	 4.062499999999998e+00	 9.964407223076915e+00
0	 9.437500000000000e+00	 4.124999999999999e+00	 9.966662793846151e+00
0	 9.437500000000000e+00	 4.187499999999999e+00	 9.968933087692305e+00
0	 9.437500000000002e+00	 4.249999999999999e+00	 9.971218104615380e+00
0	 9.437500000000000e+00	 4.312499999999998e+00	 9.973517844615383e+00
0	 9.437499999999998e+00	 4.375000000000000e+00	 9.975832307692308e+00
0	 9.500000000000000e+00	 3.750000000000000e+00	 9.949396553846144e+00
0	 9.500000000000002e+00	 3.812500000000000e+00	 9.951672375384620e+00
0	 9.500000000000000e+00	 3.875000000000000e+00	 9.953963150769233e+00
0	 9.499999999999998e+00	 3.937499999999999e+00	 9.956268879999996e+00
0	 9.500000000000000e+00	 3.999999999999999e+00	 9.958589563076924e+00
0	 9.499999999999998e+00	 4.062499999999999e+00	 9.960925199999998e+00
0	 9.500000000000000e+00	 4.125000000000000e+00	 9.963275790769234e+00
0	 9.500000000000000e+00	 4.187499999999997e+00	 9.965641335384607e+00
0	 9.500000000000002e+00	 4.249999999999997e+00	 9.968021833846153e+00
0	 9.500000000000000e+00	 4.312499999999998e+00	 9.970417286153827e+00
0	 9.500000000000000e+00	 4.375000000000000e+00	 9.972827692307696e+00
0	 9.562500000000000e+00	 3.750000000000000e+00	 9.945600553846141e+00
0	 9.562500000000000e+00	 3.812500000000000e+00	 9.947974936923075e+00
0	 9.562500000000000e+00	 3.875000000000000e+00	 9.950364504615374e+00
0	 9.562499999999998e+00	 3.937499999999998e+00	 9.952769256923064e+00
0	 9.562500000000002e+00	 4.000000000000000e+00	 9.955189193846145e+00
0	 9.562500000000002e+00	 4.062499999999999e+00	 9.957624315384612e+00
0	 9.562500000000000e+00	 4.124999999999999e+00	 9.960074621538457e+00
0	 9.562500000000000e+00	 4.187499999999999e+00	 9.962540112307689e+00
0	 9.562500000000002e+00	 4.249999999999998e+00	 9.965020787692307e+00
0	 9.562499999999998e+00	 4.312499999999998e+00	 9.967516647692305e+00
0	 9.562500000000000e+00	 4.374999999999999e+00	 9.970027692307681e+00
0	 9.624999999999998e+00	 3.750000000000000e+00	 9.941962215384605e+00
0	 9.624999999999998e+00	 3.812499999999999e+00	 9.944439855384614e+00
0	 9.625000000000000e+00	 3.875000000000000e+00	 9.946932910769226e+00
0	 9.625000000000000e+00	 3.937500000000000e+00	 9.949441381538458e+00
0	 9.624999999999996e+00	 3.999999999999999e+00	 9.951965267692296e+00
0	 9.624999999999998e+00	 4.062499999999999e+00	 9.954504569230762e+00
0	 9.625000000000000e+00	 4.124999999999999e+00	 9.957059286153845e+00
0	 9.625000000000000e+00	 4.187499999999998e+00	 9.959629418461537e+00
0	 9.625000000000000e+00	 4.249999999999998e+00	 9.962214966153841e+00
0	 9.625000000000000e+00	 4.312499999999998e+00	 9.964815929230774e+00
0	 9.624999999999998e+00	 4.375000000000001e+00	 9.967432307692318e+00
0	 9.687499999999998e+00	 3.750000000000000e+00	 9.938481538461545e+00
0	 9.687500000000000e+00	 3.812500000000000e+00	 9.941067130769239e+00
0	 9.687499999999998e+00	 3.875000000000000e+00	 9.943668369230771e+00
0	 9.687500000000000e+00	 3.937499999999999e+00	 9.946285253846156e+00
0	 9.687499999999998e+00	 3.999999999999999e+00	 9.948917784615386e+00
0	 9.687500000000000e+00	 4.062499999999999e+00	 9.951565961538464e+00
0	 9.687500000000000e+00	 4.124999999999998e+00	 9.954229784615375e+00
0	 9.687499999999998e+00	 4.187499999999998e+00	 9.956909253846151e+00
0	 9.687499999999998e+00	 4.249999999999998e+00	 9.959604369230764e+00
0	 9.687499999999998e+00	 4.312499999999996e+00	 9.962315130769220e+00
0	 9.687499999999998e+00	 4.375000000000000e+00	 9.965041538461536e+00
0	 9.749999999999998e+00	 3.750000000000000e+00	 9.935158523076918e+00
0	 9.749999999999996e+00	 3.812500000000000e+00	 9.937856763076933e+00
0	 9.749999999999998e+00	 3.874999999999999e+00	 9.940570879999999e+00
0	 9.749999999999996e+00	 3.937499999999999e+00	 9.943300873846145e+00
0	 9.750000000000000e+00	 3.999999999999999e+00	 9.946046744615376e+00
0	 9.749999999999998e+00	 4.062499999999999e+00	 9.948808492307684e+00
0	 9.749999999999998e+00	 4.124999999999998e+00	 9.951586116923067e+00
0	 9.749999999999998e+00	 4.187499999999998e+00	 9.954379618461530e+00
0	 9.749999999999998e+00	 4.249999999999998e+00	 9.957188996923074e+00
0	 9.749999999999996e+00	 4.312499999999997e+00	 9.960014252307703e+00
0	 9.749999999999998e+00	 4.375000000000000e+00	 9.962855384615377e+00
0	 9.812499999999998e+00	 3.750000000000000e+00	 9.931993169230777e+00
0	 9.812499999999998e+00	 3.812500000000000e+00	 9.934808752307696e+00
0	 9.812500000000002e+00	 3.875000000000000e+00	 9.937640443076925e+00
0	 9.812499999999998e+00	 3.937499999999999e+00	 9.940488241538459e+00
0	 9.812499999999996e+00	 3.999999999999998e+00	 9.943352147692304e+00
0	 9.812499999999998e+00	 4.062499999999998e+00	 9.946232161538466e+00
0	 9.812499999999998e+00	 4.124999999999999e+00	 9.949128283076908e+00
0	 9.812499999999998e+00	 4.187499999999998e+00	 9.952040512307681e+00
0	 9.812499999999998e+00	 4.249999999999997e+00	 9.954968849230760e+00
0	 9.812499999999998e+00	 4.312499999999998e+00	 9.957913293846140e+00
0	 9.812499999999998e+00	 4.375000000000000e+00	 9.960873846153850e+00
0	 9.874999999999996e+00	 3.750000000000000e+00	 9.928985476923069e+00
0	 9.874999999999998e+00	 3.812500000000000e+00	 9.931923098461539e+00
0	 9.875000000000000e+00	 3.875000000000000e+00	 9.934877058461538e+00
0	 9.874999999999998e+00	 3.937499999999999e+00	 9.937847356923072e+00
0	 9.875000000000000e+00	 3.999999999999999e+00	 9.940833993846159e+00
0	 9.874999999999996e+00	 4.062499999999998e+00	 9.943836969230778e+00
0	 9.874999999999998e+00	 4.124999999999998e+00	 9.946856283076919e+00
0	 9.874999999999998e+00	 4.187499999999998e+00	 9.949891935384610e+00
0	 9.874999999999996e+00	 4.249999999999998e+00	 9.952943926153839e+00
0	 9.874999999999998e+00	 4.312499999999998e+00	 9.956012255384620e+00
0	 9.874999999999996e+00	 4.375000000000000e+00	 9.959096923076913e+00
0	 9.937499999999998e+00	 3.750000000000000e+00	 9.926135446153850e+00
0	 9.937499999999998e+00	 3.812500000000000e+00	 9.929199801538457e+00
0	 9.937499999999998e+00	 3.875000000000000e+00	 9.932280726153857e+00
0	 9.937499999999998e+00	 3.937499999999999e+00	 9.935378219999992e+00
0	 9.937499999999998e+00	 3.999999999999999e+00	 9.938492283076904e+00
0	 9.937499999999996e+00	 4.062499999999999e+00	 9.941622915384606e+00
0	 9.937499999999998e+00	 4.124999999999999e+00	 9.944770116923056e+00
0	 9.937499999999998e+00	 4.187499999999999e+00	 9.947933887692319e+00
0	 9.937499999999998e+00	 4.249999999999998e+00	 9.951114227692308e+00
0	 9.937499999999998e+00	 4.312499999999998e+00	 9.954311136923069e+00
0	 9.937499999999998e+00	 4.375000000000000e+00	 9.957524615384596e+00
0	 1.000000000000000e+01	 3.750000000000000e+00	 9.923443076923075e+00
0	 1.000000000000000e+01	 3.812500000000000e+00	 9.926638861538470e+00
0	 1.000000000000000e+01	 3.874999999999999e+00	 9.929851446153846e+00
0	 1.000000000000000e+01	 3.937500000000000e+00	 9.933080830769232e+00
0	 1.000000000000000e+01	 4.000000000000000e+00	 9.936327015384615e+00
0	 1.000000000000000e+01	 4.062499999999999e+00	 9.939589999999994e+00
0	 9.999999999999998e+00	 4.124999999999999e+00	 9.942869784615377e+00
0	 1.000000000000000e+01	 4.187499999999999e+00	 9.946166369230765e+00
0	 1.000000000000000e+01	 4.249999999999998e+00	 9.949479753846159e+00
0	 1.000000000000000e+01	 4.312499999999998e+00	 9.952809938461533e+00
0	 1.000000000000000e+01	 4.375000000000000e+00	 9.956156923076904e+00
0	 9.375000000000000e+00	 4.375000000000000e+00	 9.979041538461532e+00
0	 9.375000000000000e+00	 4.437499999999999e+00	 9.980545569230761e+00
0	 9.375000000000002e+00	 4.500000000000001e+00	 9.982065661538448e+00
0	 9.374999999999998e+00	 4.562499999999999e+00	 9.983601815384620e+00
0	 9.375000000000002e+00	 4.625000000000000e+00	 9.985154030769230e+00
0	 9.375000000000000e+00	 4.687499999999999e+00	 9.986722307692290e+00
0	 9.375000000000000e+00	 4.749999999999999e+00	 9.988306646153839e+00
0	 9.375000000000000e+00	 4.812499999999998e+00	 9.989907046153837e+00
0	 9.375000000000000e+00	 4.874999999999998e+00	 9.991523507692291e+00
0	 9.375000000000000e+00	 4.937499999999998e+00	 9.993156030769228e+00
0	 9.375000000000000e+00	 5.000000000000000e+00	 9.994804615384613e+00
0	 9.437499999999998e+00	 4.375000000000000e+00	 9.975832307692308e+00
0	 9.437500000000000e+00	 4.437500000000000e+00	 9.977412153846137e+00
0	 9.437500000000000e+00	 4.499999999999998e+00	 9.979008412307683e+00
0	 9.437500000000002e+00	 4.562500000000000e+00	 9.980621083076912e+00
0	 9.437500000000000e+00	 4.624999999999999e+00	 9.982250166153847e+00
0	 9.437499999999998e+00	 4.687500000000000e+00	 9.983895661538458e+00
0	 9.437500000000000e+00	 4.749999999999998e+00	 9.985557569230771e+00
0	 9.437500000000000e+00	 4.812499999999999e+00	 9.987235889230762e+00
0	 9.437500000000002e+00	 4.874999999999999e+00	 9.988930621538465e+00
0	 9.437500000000000e+00	 4.937499999999996e+00	 9.990641766153837e+00
0	 9.437499999999998e+00	 4.999999999999999e+00	 9.992369323076908e+00
0	 9.500000000000000e+00	 4.375000000000000e+00	 9.972827692307696e+00
0	 9.500000000000002e+00	 4.437499999999999e+00	 9.974484172307690e+00
0	 9.500000000000000e+00	 4.500000000000001e+00	 9.976157415384609e+00
0	 9.499999999999998e+00	 4.562500000000000e+00	 9.977847421538467e+00
0	 9.500000000000000e+00	 4.624999999999999e+00	 9.979554190769228e+00
0	 9.499999999999998e+00	 4.687499999999999e+00	 9.981277723076916e+00
0	 9.500000000000000e+00	 4.750000000000000e+00	 9.983018018461539e+00
0	 9.500000000000000e+00	 4.812499999999998e+00	 9.984775076923089e+00
0	 9.500000000000002e+00	 4.874999999999998e+00	 9.986548898461532e+00
0	 9.500000000000000e+00	 4.937499999999998e+00	 9.988339483076921e+00
0	 9.500000000000000e+00	 5.000000000000000e+00	 9.990146830769225e+00
0	 9.562500000000000e+00	 4.374999999999999e+00	 9.970027692307681e+00
0	 9.562500000000000e+00	 4.437500000000001e+00	 9.971761624615395e+00
0	 9.562500000000000e+00	 4.499999999999999e+00	 9.973512670769223e+00
0	 9.562499999999998e+00	 4.562499999999998e+00	 9.975280830769226e+00
0	 9.562500000000002e+00	 4.625000000000000e+00	 9.977066104615385e+00
0	 9.562500000000002e+00	 4.687499999999999e+00	 9.978868492307686e+00
0	 9.562500000000000e+00	 4.749999999999999e+00	 9.980687993846150e+00
0	 9.562500000000000e+00	 4.812499999999999e+00	 9.982524609230769e+00
0	 9.562500000000002e+00	 4.874999999999999e+00	 9.984378338461545e+00
0	 9.562499999999998e+00	 4.937499999999997e+00	 9.986249181538460e+00
0	 9.562500000000000e+00	 4.999999999999999e+00	 9.988137138461543e+00
0	 9.624999999999998e+00	 4.375000000000001e+00	 9.967432307692318e+00
0	 9.624999999999998e+00	 4.437499999999999e+00	 9.969244510769222e+00
0	 9.625000000000000e+00	 4.500000000000000e+00	 9.971074178461530e+00
0	 9.625000000000000e+00	 4.562499999999999e+00	 9.972921310769230e+00
0	 9.624999999999996e+00	 4.624999999999999e+00	 9.974785907692302e+00
0	 9.624999999999998e+00	 4.687499999999998e+00	 9.976667969230775e+00
0	 9.625000000000000e+00	 4.749999999999999e+00	 9.978567495384619e+00
0	 9.625000000000000e+00	 4.812499999999998e+00	 9.980484486153852e+00
0	 9.625000000000000e+00	 4.874999999999997e+00	 9.982418941538466e+00
0	 9.625000000000000e+00	 4.937499999999999e+00	 9.984370861538457e+00
0	 9.624999999999998e+00	 5.000000000000001e+00	 9.986340246153855e+00
0	 9.687499999999998e+00	 4.375000000000000e+00	 9.965041538461536e+00
0	 9.687500000000000e+00	 4.437500000000001e+00	 9.966932830769217e+00
0	 9.687499999999998e+00	 4.500000000000000e+00	 9.968841938461539e+00
0	 9.687500000000000e+00	 4.562499999999999e+00	 9.970768861538465e+00
0	 9.687499999999998e+00	 4.624999999999999e+00	 9.972713599999992e+00
0	 9.687500000000000e+00	 4.687499999999999e+00	 9.974676153846151e+00
0	 9.687500000000000e+00	 4.749999999999999e+00	 9.976656523076940e+00
0	 9.687499999999998e+00	 4.812499999999998e+00	 9.978654707692311e+00
0	 9.687499999999998e+00	 4.874999999999998e+00	 9.980670707692315e+00
0	 9.687499999999998e+00	 4.937499999999997e+00	 9.982704523076929e+00
0	 9.687499999999998e+00	 5.000000000000000e+00	 9.984756153846138e+00
0	 9.749999999999998e+00	 4.375000000000000e+00	 9.962855384615377e+00
0	 9.749999999999996e+00	 4.437500000000000e+00	 9.964826584615386e+00
0	 9.749999999999998e+00	 4.499999999999999e+00	 9.966815950769224e+00
0	 9.749999999999996e+00	 4.562499999999999e+00	 9.968823483076907e+00
0	 9.750000000000000e+00	 4.624999999999999e+00	 9.970849181538455e+00
0	 9.749999999999998e+00	 4.687499999999998e+00	 9.972893046153853e+00
0	 9.749999999999998e+00	 4.749999999999998e+00	 9.974955076923077e+00
0	 9.749999999999998e+00	 4.812499999999998e+00	 9.977035273846168e+00
0	 9.749999999999998e+00	 4.874999999999998e+00	 9.979133636923079e+00
0	 9.749999999999996e+00	 4.937499999999998e+00	 9.981250166153842e+00
0	 9.749999999999998e+00	 5.000000000000000e+00	 9.983384861538468e+00
0	 9.812499999999998e+00	 4.375000000000000e+00	 9.960873846153850e+00
0	 9.812499999999998e+00	 4.437500000000000e+00	 9.962925772307695e+00
0	 9.812500000000002e+00	 4.500000000000000e+00	 9.964996215384625e+00
0	 9.812499999999998e+00	 4.562499999999999e+00	 9.967085175384614e+00
0	 9.812499999999996e+00	 4.624999999999998e+00	 9.969192652307699e+00
0	 9.812499999999998e+00	 4.687499999999999e+00	 9.971318646153854e+00
0	 9.812499999999998e+00	 4.749999999999998e+00	 9.973463156923074e+00
0	 9.812499999999998e+00	 4.812499999999998e+00	 9.975626184615395e+00
0	 9.812499999999998e+00	 4.874999999999997e+00	 9.977807729230772e+00
0	 9.812499999999998e+00	 4.937499999999998e+00	 9.980007790769232e+00
0	 9.812499999999998e+00	 5.000000000000000e+00	 9.982226369230773e+00
0	 9.874999999999996e+00	 4.375000000000000e+00	 9.959096923076913e+00
0	 9.874999999999998e+00	 4.437500000000000e+00	 9.961230393846133e+00
0	 9.875000000000000e+00	 4.500000000000000e+00	 9.963382732307680e+00
0	 9.874999999999998e+00	 4.562499999999999e+00	 9.965553938461539e+00
0	 9.875000000000000e+00	 4.624999999999999e+00	 9.967744012307701e+00
0	 9.874999999999996e+00	 4.687499999999997e+00	 9.969952953846168e+00
0	 9.874999999999998e+00	 4.749999999999998e+00	 9.972180763076928e+00
0	 9.874999999999998e+00	 4.812499999999998e+00	 9.974427440000015e+00
0	 9.874999999999996e+00	 4.874999999999998e+00	 9.976692984615386e+00
0	 9.874999999999998e+00	 4.937499999999997e+00	 9.978977396923076e+00
0	 9.874999999999996e+00	 5.000000000000000e+00	 9.981280676923078e+00
0	 9.937499999999998e+00	 4.375000000000000e+00	 9.957524615384596e+00
0	 9.937499999999998e+00	 4.437500000000000e+00	 9.959740449230729e+00
0	 9.937499999999998e+00	 4.500000000000000e+00	 9.961975501538463e+00
0	 9.937499999999998e+00	 4.562499999999999e+00	 9.964229772307675e+00
0	 9.937499999999998e+00	 4.625000000000000e+00	 9.966503261538445e+00
0	 9.937499999999996e+00	 4.687499999999999e+00	 9.968795969230772e+00
0	 9.937499999999998e+00	 4.749999999999999e+00	 9.971107895384616e+00
0	 9.937499999999998e+00	 4.812499999999998e+00	 9.973439039999999e+00
0	 9.937499999999998e+00	 4.874999999999998e+00	 9.975789403076931e+00
0	 9.937499999999998e+00	 4.937499999999998e+00	 9.978158984615408e+00
0	 9.937499999999998e+00	 5.000000000000000e+00	 9.980547784615407e+00
0	 1.000000000000000e+01	 4.375000000000000e+00	 9.956156923076904e+00
0	 1.000000000000000e+01	 4.437500000000000e+00	 9.958455938461505e+00
0	 1.000000000000000e+01	 4.500000000000000e+00	 9.960774523076910e+00
0	 1.000000000000000e+01	 4.562499999999999e+00	 9.963112676923094e+00
0	 1.000000000000000e+01	 4.625000000000000e+00	 9.965470400000001e+00
0	 1.000000000000000e+01	 4.687499999999999e+00	 9.967847692307672e+00
0	 9.999999999999998e+00	 4.749999999999998e+00	 9.970244553846152e+00
0	 1.000000000000000e+01	 4.812499999999999e+00	 9.972660984615382e+00
0	 1.000000000000000e+01	 4.874999999999998e+00	 9.975096984615391e+00
0	 1.000000000000000e+01	 4.937499999999998e+00	 9.977552553846138e+00
0	 1.000000000000000e+01	 5.000000000000000e+00	 9.980027692307704e+00
0	 9.375000000000000e+00	 5.000000000000000e+00	 9.994804615384613e+00
0	 9.375000000000000e+00	 5.062500000000000e+00	 9.995710600000010e+00
0	 9.375000000000002e+00	 5.125000000000001e+00	 9.996631630769235e+00
0	 9.374999999999998e+00	 5.187499999999999e+00	 9.997567707692298e+00
0	 9.375000000000002e+00	 5.249999999999999e+00	 9.998518830769230e+00
0	 9.375000000000000e+00	 5.312499999999999e+00	 9.999485000000000e+00
0	 9.375000000000000e+00	 5.374999999999998e+00	 1.000046621538461e+01
0	 9.375000000000000e+00	 5.437499999999998e+00	 1.000146247692308e+01
0	 9.375000000000000e+00	 5.499999999999998e+00	 1.000247378461539e+01
0	 9.375000000000000e+00	 5.562499999999998e+00	 1.000350013846153e+01
0	 9.375000000000000e+00	 5.625000000000000e+00	 1.000454153846154e+01
0	 9.437499999999998e+00	 4.999999999999999e+00	 9.992369323076908e+00
0	 9.437500000000000e+00	 5.062499999999999e+00	 9.993334152307693e+00
0	 9.437500000000000e+00	 5.124999999999999e+00	 9.994314387692304e+00
0	 9.437500000000002e+00	 5.187500000000000e+00	 9.995310029230769e+00
0	 9.437500000000000e+00	 5.249999999999999e+00	 9.996321076923071e+00
0	 9.437499999999998e+00	 5.312499999999997e+00	 9.997347530769233e+00
0	 9.437500000000000e+00	 5.374999999999998e+00	 9.998389390769226e+00
0	 9.437500000000000e+00	 5.437499999999998e+00	 9.999446656923071e+00
0	 9.437500000000002e+00	 5.499999999999999e+00	 1.000051932923076e+01
0	 9.437500000000000e+00	 5.562499999999997e+00	 1.000160740769230e+01
0	 9.437499999999998e+00	 5.625000000000000e+00	 1.000271089230769e+01
0	 9.500000000000000e+00	 5.000000000000000e+00	 9.990146830769225e+00
0	 9.500000000000002e+00	 5.062500000000000e+00	 9.991168264615386e+00
0	 9.500000000000000e+00	 5.125000000000000e+00	 9.992205464615372e+00
0	 9.499999999999998e+00	 5.187499999999999e+00	 9.993258430769217e+00
0	 9.500000000000000e+00	 5.249999999999999e+00	 9.994327163076923e+00
0	 9.499999999999998e+00	 5.312499999999998e+00	 9.995411661538462e+00
0	 9.500000000000000e+00	 5.374999999999998e+00	 9.996511926153852e+00
0	 9.500000000000000e+00	 5.437499999999998e+00	 9.997627956923070e+00
0	 9.500000000000002e+00	 5.499999999999997e+00	 9.998759753846144e+00
0	 9.500000000000000e+00	 5.562499999999999e+00	 9.999907316923073e+00
0	 9.500000000000000e+00	 5.625000000000000e+00	 1.000107064615385e+01
0	 9.562500000000000e+00	 4.999999999999999e+00	 9.988137138461543e+00
0	 9.562500000000000e+00	 5.062500000000000e+00	 9.989212936923085e+00
0	 9.562500000000000e+00	 5.124999999999999e+00	 9.990304861538460e+00
0	 9.562499999999998e+00	 5.187499999999999e+00	 9.991412912307691e+00
0	 9.562500000000002e+00	 5.250000000000000e+00	 9.992537089230780e+00
0	 9.562500000000002e+00	 5.312499999999998e+00	 9.993677392307685e+00
0	 9.562500000000000e+00	 5.374999999999998e+00	 9.994833821538464e+00
0	 9.562500000000000e+00	 5.437500000000000e+00	 9.996006376923077e+00
0	 9.562500000000002e+00	 5.499999999999999e+00	 9.997195058461539e+00
0	 9.562499999999998e+00	 5.562499999999998e+00	 9.998399866153841e+00
0	 9.562500000000000e+00	 5.624999999999999e+00	 9.999620799999990e+00
0	 9.624999999999998e+00	 5.000000000000001e+00	 9.986340246153855e+00
0	 9.624999999999998e+00	 5.062500000000000e+00	 9.987468169230764e+00
0	 9.625000000000000e+00	 5.125000000000000e+00	 9.988612578461536e+00
0	 9.625000000000000e+00	 5.187499999999999e+00	 9.989773473846157e+00
0	 9.624999999999996e+00	 5.249999999999998e+00	 9.990950855384607e+00
0	 9.624999999999998e+00	 5.312499999999999e+00	 9.992144723076919e+00
0	 9.625000000000000e+00	 5.374999999999999e+00	 9.993355076923077e+00
0	 9.625000000000000e+00	 5.437499999999998e+00	 9.994581916923064e+00
0	 9.625000000000000e+00	 5.499999999999999e+00	 9.995825243076924e+00
0	 9.625000000000000e+00	 5.562499999999997e+00	 9.997085055384620e+00
0	 9.624999999999998e+00	 5.625000000000001e+00	 9.998361353846143e+00
0	 9.687499999999998e+00	 5.000000000000000e+00	 9.984756153846138e+00
0	 9.687500000000000e+00	 5.062500000000001e+00	 9.985933961538468e+00
0	 9.687499999999998e+00	 5.125000000000000e+00	 9.987128615384622e+00
0	 9.687500000000000e+00	 5.187500000000000e+00	 9.988340115384620e+00
0	 9.687499999999998e+00	 5.249999999999998e+00	 9.989568461538459e+00
0	 9.687500000000000e+00	 5.312499999999999e+00	 9.990813653846146e+00
0	 9.687500000000000e+00	 5.374999999999998e+00	 9.992075692307694e+00
0	 9.687499999999998e+00	 5.437499999999999e+00	 9.993354576923075e+00
0	 9.687499999999998e+00	 5.499999999999999e+00	 9.994650307692302e+00
0	 9.687499999999998e+00	 5.562499999999997e+00	 9.995962884615377e+00
0	 9.687499999999998e+00	 5.625000000000001e+00	 9.997292307692305e+00
0	 9.749999999999998e+00	 5.000000000000000e+00	 9.983384861538468e+00
0	 9.749999999999996e+00	 5.062500000000000e+00	 9.984610313846147e+00
0	 9.749999999999998e+00	 5.124999999999998e+00	 9.985852972307701e+00
0	 9.749999999999996e+00	 5.187499999999999e+00	 9.987112836923078e+00
0	 9.750000000000000e+00	 5.249999999999999e+00	 9.988389907692309e+00
0	 9.749999999999998e+00	 5.312499999999998e+00	 9.989684184615388e+00
0	 9.749999999999998e+00	 5.374999999999998e+00	 9.990995667692319e+00
0	 9.749999999999998e+00	 5.437499999999998e+00	 9.992324356923071e+00
0	 9.749999999999998e+00	 5.499999999999998e+00	 9.993670252307679e+00
0	 9.749999999999996e+00	 5.562499999999997e+00	 9.995033353846150e+00
0	 9.749999999999998e+00	 5.625000000000000e+00	 9.996413661538440e+00
0	 9.812499999999998e+00	 5.000000000000000e+00	 9.982226369230773e+00
0	 9.812499999999998e+00	 5.062500000000000e+00	 9.983497226153853e+00
0	 9.812500000000002e+00	 5.124999999999999e+00	 9.984785649230792e+00
0	 9.812499999999998e+00	 5.187499999999999e+00	 9.986091638461541e+00
0	 9.812499999999996e+00	 5.249999999999999e+00	 9.987415193846154e+00
0	 9.812499999999998e+00	 5.312499999999999e+00	 9.988756315384611e+00
0	 9.812499999999998e+00	 5.374999999999998e+00	 9.990115003076916e+00
0	 9.812499999999998e+00	 5.437499999999998e+00	 9.991491256923069e+00
0	 9.812499999999998e+00	 5.499999999999997e+00	 9.992885076923072e+00
0	 9.812499999999998e+00	 5.562499999999998e+00	 9.994296463076905e+00
0	 9.812499999999998e+00	 5.625000000000000e+00	 9.995725415384609e+00
0	 9.874999999999996e+00	 5.000000000000000e+00	 9.981280676923078e+00
0	 9.874999999999998e+00	 5.062500000000000e+00	 9.982594698461540e+00
0	 9.875000000000000e+00	 5.125000000000001e+00	 9.983926646153833e+00
0	 9.874999999999998e+00	 5.187499999999998e+00	 9.985276520000006e+00
0	 9.875000000000000e+00	 5.249999999999999e+00	 9.986644320000016e+00
0	 9.874999999999996e+00	 5.312499999999998e+00	 9.988030046153851e+00
0	 9.874999999999998e+00	 5.374999999999998e+00	 9.989433698461534e+00
0	 9.874999999999998e+00	 5.437499999999998e+00	 9.990855276923075e+00
0	 9.874999999999996e+00	 5.499999999999998e+00	 9.992294781538460e+00
0	 9.874999999999998e+00	 5.562499999999998e+00	 9.993752212307694e+00
0	 9.874999999999996e+00	 5.625000000000000e+00	 9.995227569230765e+00
0	 9.937499999999998e+00	 5.000000000000000e+00	 9.980547784615407e+00
0	 9.937499999999998e+00	 5.062500000000000e+00	 9.981902730769233e+00
0	 9.937499999999998e+00	 5.124999999999999e+00	 9.983275963076931e+00
0	 9.937499999999998e+00	 5.187499999999999e+00	 9.984667481538466e+00
0	 9.937499999999998e+00	 5.249999999999999e+00	 9.986077286153847e+00
0	 9.937499999999996e+00	 5.312499999999999e+00	 9.987505376923083e+00
0	 9.937499999999998e+00	 5.374999999999998e+00	 9.988951753846150e+00
0	 9.937499999999998e+00	 5.437499999999998e+00	 9.990416416923084e+00
0	 9.937499999999998e+00	 5.499999999999998e+00	 9.991899366153831e+00
0	 9.937499999999998e+00	 5.562499999999998e+00	 9.993400601538450e+00
0	 9.937499999999998e+00	 5.625000000000000e+00	 9.994920123076909e+00
0	 1.000000000000000e+01	 5.000000000000000e+00	 9.980027692307704e+00
0	 1.000000000000000e+01	 5.062500000000000e+00	 9.981421323076933e+00
0	 1.000000000000000e+01	 5.125000000000000e+00	 9.982833600000017e+00
0	 1.000000000000000e+01	 5.187499999999999e+00	 9.984264523076924e+00
0	 1.000000000000000e+01	 5.249999999999999e+00	 9.985714092307690e+00
0	 1.000000000000000e+01	 5.312499999999999e+00	 9.987182307692319e+00
0	 9.999999999999998e+00	 5.374999999999998e+00	 9.988669169230770e+00
0	 1.000000000000000e+01	 5.437499999999999e+00	 9.990174676923083e+00
0	 1.000000000000000e+01	 5.499999999999998e+00	 9.991698830769227e+00
0	 1.000000000000000e+01	 5.562499999999998e+00	 9.993241630769219e+00
0	 1.000000000000000e+01	 5.625000000000000e+00	 9.994803076923070e+00
0	 9.375000000000000e+00	 5.625000000000000e+00	 1.000454153846154e+01
0	 9.375000000000000e+00	 5.687500000000000e+00	 1.000492563076924e+01
0	 9.375000000000002e+00	 5.750000000000000e+00	 1.000532190769230e+01
0	 9.374999999999998e+00	 5.812499999999999e+00	 1.000573036923079e+01
0	 9.375000000000002e+00	 5.874999999999999e+00	 1.000615101538462e+01
0	 9.375000000000000e+00	 5.937499999999999e+00	 1.000658384615385e+01
0	 9.375000000000000e+00	 5.999999999999998e+00	 1.000702886153848e+01
0	 9.375000000000000e+00	 6.062499999999998e+00	 1.000748606153846e+01
0	 9.375000000000000e+00	 6.124999999999998e+00	 1.000795544615385e+01
0	 9.375000000000000e+00	 6.187499999999998e+00	 1.000843701538463e+01
0	 9.375000000000000e+00	 6.250000000000000e+00	 1.000893076923078e+01
0	 9.437499999999998e+00	 5.625000000000000e+00	 1.000271089230769e+01
0	 9.437500000000000e+00	 5.687500000000000e+00	 1.000313874615385e+01
0	 9.437500000000000e+00	 5.750000000000001e+00	 1.000357906153847e+01
0	 9.437500000000002e+00	 5.812500000000000e+00	 1.000403183846153e+01
0	 9.437500000000000e+00	 5.875000000000000e+00	 1.000449707692309e+01
0	 9.437499999999998e+00	 5.937499999999998e+00	 1.000497477692309e+01
0	 9.437500000000000e+00	 5.999999999999996e+00	 1.000546493846154e+01
0	 9.437500000000000e+00	 6.062499999999999e+00	 1.000596756153847e+01
0	 9.437500000000002e+00	 6.124999999999998e+00	 1.000648264615385e+01
0	 9.437500000000000e+00	 6.187499999999999e+00	 1.000701019230770e+01
0	 9.437499999999998e+00	 6.250000000000000e+00	 1.000755020000001e+01
0	 9.500000000000000e+00	 5.625000000000000e+00	 1.000107064615385e+01
0	 9.500000000000002e+00	 5.687500000000001e+00	 1.000153763076922e+01
0	 9.500000000000000e+00	 5.750000000000001e+00	 1.000201735384616e+01
0	 9.499999999999998e+00	 5.812499999999999e+00	 1.000250981538462e+01
0	 9.500000000000000e+00	 5.875000000000000e+00	 1.000301501538462e+01
0	 9.499999999999998e+00	 5.937499999999998e+00	 1.000353295384616e+01
0	 9.500000000000000e+00	 6.000000000000000e+00	 1.000406363076924e+01
0	 9.500000000000000e+00	 6.062499999999997e+00	 1.000460704615385e+01
0	 9.500000000000002e+00	 6.124999999999998e+00	 1.000516319999999e+01
0	 9.500000000000000e+00	 6.187499999999998e+00	 1.000573209230769e+01
0	 9.500000000000000e+00	 6.250000000000000e+00	 1.000631372307695e+01
0	 9.562500000000000e+00	 5.624999999999999e+00	 9.999620799999990e+00
0	 9.562500000000000e+00	 5.687500000000000e+00	 1.000012228461538e+01
0	 9.562500000000000e+00	 5.750000000000000e+00	 1.000063678461538e+01
0	 9.562499999999998e+00	 5.812499999999998e+00	 1.000116430000000e+01
0	 9.562500000000002e+00	 5.874999999999999e+00	 1.000170483076923e+01
0	 9.562500000000002e+00	 5.937499999999998e+00	 1.000225837692308e+01
0	 9.562500000000000e+00	 5.999999999999999e+00	 1.000282493846154e+01
0	 9.562500000000000e+00	 6.062499999999999e+00	 1.000340451538462e+01
0	 9.562500000000002e+00	 6.124999999999998e+00	 1.000399710769232e+01
0	 9.562499999999998e+00	 6.187499999999998e+00	 1.000460271538461e+01
0	 9.562500000000000e+00	 6.249999999999999e+00	 1.000522133846155e+01
0	 9.624999999999998e+00	 5.625000000000001e+00	 9.998361353846143e+00
0	 9.624999999999998e+00	 5.687500000000000e+00	 9.998892707692301e+00
0	 9.625000000000000e+00	 5.750000000000001e+00	 9.999437353846147e+00
0	 9.625000000000000e+00	 5.812499999999999e+00	 9.999995292307695e+00
0	 9.624999999999996e+00	 5.874999999999999e+00	 1.000056652307692e+01
0	 9.624999999999998e+00	 5.937499999999998e+00	 1.000115104615384e+01
0	 9.625000000000000e+00	 5.999999999999999e+00	 1.000174886153846e+01
0	 9.625000000000000e+00	 6.062499999999999e+00	 1.000235996923078e+01
0	 9.625000000000000e+00	 6.124999999999999e+00	 1.000298436923078e+01
0	 9.625000000000000e+00	 6.187499999999998e+00	 1.000362206153846e+01
0	 9.624999999999998e+00	 6.250000000000000e+00	 1.000427304615384e+01
0	 9.687499999999998e+00	 5.625000000000001e+00	 9.997292307692305e+00
0	 9.687500000000000e+00	 5.687500000000001e+00	 9.997848899999996e+00
0	 9.687499999999998e+00	 5.750000000000000e+00	 9.998419061538460e+00
0	 9.687500000000000e+00	 5.812500000000000e+00	 9.999002792307687e+00
0	 9.687499999999998e+00	 5.874999999999999e+00	 9.999600092307690e+00
0	 9.687500000000000e+00	 5.937499999999999e+00	 1.000021096153846e+01
0	 9.687500000000000e+00	 5.999999999999998e+00	 1.000083540000001e+01
0	 9.687499999999998e+00	 6.062499999999997e+00	 1.000147340769232e+01
0	 9.687499999999998e+00	 6.124999999999998e+00	 1.000212498461540e+01
0	 9.687499999999998e+00	 6.187499999999997e+00	 1.000279013076922e+01
0	 9.687499999999998e+00	 6.250000000000000e+00	 1.000346884615384e+01
0	 9.749999999999998e+00	 5.625000000000000e+00	 9.996413661538440e+00
0	 9.749999999999996e+00	 5.687500000000000e+00	 9.996990861538444e+00
0	 9.749999999999998e+00	 5.749999999999998e+00	 9.997581907692300e+00
0	 9.749999999999996e+00	 5.812499999999999e+00	 9.998186799999985e+00
0	 9.750000000000000e+00	 5.874999999999999e+00	 9.998805538461541e+00
0	 9.749999999999998e+00	 5.937499999999999e+00	 9.999438123076919e+00
0	 9.749999999999998e+00	 5.999999999999999e+00	 1.000008455384615e+01
0	 9.749999999999998e+00	 6.062499999999999e+00	 1.000074483076924e+01
0	 9.749999999999998e+00	 6.124999999999998e+00	 1.000141895384616e+01
0	 9.749999999999996e+00	 6.187499999999997e+00	 1.000210692307694e+01
0	 9.749999999999998e+00	 6.250000000000000e+00	 1.000280873846154e+01
0	 9.812499999999998e+00	 5.625000000000000e+00	 9.995725415384609e+00
0	 9.812499999999998e+00	 5.687499999999999e+00	 9.996318592307681e+00
0	 9.812500000000002e+00	 5.750000000000000e+00	 9.996925892307690e+00
0	 9.812499999999998e+00	 5.812499999999999e+00	 9.997547315384613e+00
0	 9.812499999999996e+00	 5.874999999999999e+00	 9.998182861538464e+00
0	 9.812499999999998e+00	 5.937499999999998e+00	 9.998832530769240e+00
0	 9.812499999999998e+00	 5.999999999999999e+00	 9.999496323076926e+00
0	 9.812499999999998e+00	 6.062499999999998e+00	 1.000017423846154e+01
0	 9.812499999999998e+00	 6.124999999999997e+00	 1.000086627692308e+01
0	 9.812499999999998e+00	 6.187499999999998e+00	 1.000157243846155e+01
0	 9.812499999999998e+00	 6.250000000000000e+00	 1.000229272307693e+01
0	 9.874999999999996e+00	 5.625000000000000e+00	 9.995227569230765e+00
0	 9.874999999999998e+00	 5.687500000000000e+00	 9.995832092307689e+00
0	 9.875000000000000e+00	 5.750000000000000e+00	 9.996451015384594e+00
0	 9.874999999999998e+00	 5.812499999999999e+00	 9.997084338461541e+00
0	 9.875000000000000e+00	 5.874999999999999e+00	 9.997732061538468e+00
0	 9.874999999999996e+00	 5.937499999999998e+00	 9.998394184615380e+00
0	 9.874999999999998e+00	 5.999999999999999e+00	 9.999070707692297e+00
0	 9.874999999999998e+00	 6.062499999999998e+00	 9.999761630769223e+00
0	 9.874999999999996e+00	 6.124999999999998e+00	 1.000046695384617e+01
0	 9.874999999999998e+00	 6.187499999999997e+00	 1.000118667692308e+01
0	 9.874999999999996e+00	 6.250000000000000e+00	 1.000192080000001e+01
0	 9.937499999999998e+00	 5.625000000000000e+00	 9.994920123076909e+00
0	 9.937499999999998e+00	 5.687500000000001e+00	 9.995531361538447e+00
0	 9.937499999999998e+00	 5.749999999999999e+00	 9.996157276923082e+00
0	 9.937499999999998e+00	 5.812499999999999e+00	 9.996797869230765e+00
0	 9.937499999999998e+00	 5.875000000000000e+00	 9.997453138461516e+00
0	 9.937499999999996e+00	 5.937500000000000e+00	 9.998123084615367e+00
0	 9.937499999999998e+00	 5.999999999999999e+00	 9.998807707692311e+00
0	 9.937499999999998e+00	 6.062499999999998e+00	 9.999507007692319e+00
0	 9.937499999999998e+00	 6.124999999999998e+00	 1.000022098461539e+01
0	 9.937499999999998e+00	 6.187499999999998e+00	 1.000094963846153e+01
0	 9.937499999999998e+00	 6.250000000000000e+00	 1.000169296923077e+01
0	 1.000000000000000e+01	 5.625000000000000e+00	 9.994803076923070e+00
0	 1.000000000000000e+01	 5.687499999999999e+00	 9.995416399999979e+00
0	 1.000000000000000e+01	 5.749999999999999e+00	 9.996044676923065e+00
0	 1.000000000000000e+01	 5.812499999999999e+00	 9.996687907692314e+00
0	 1.000000000000000e+01	 5.874999999999999e+00	 9.997346092307705e+00
0	 1.000000000000000e+01	 5.937499999999998e+00	 9.998019230769232e+00
0	 9.999999999999998e+00	 5.999999999999998e+00	 9.998707323076918e+00
0	 1.000000000000000e+01	 6.062499999999999e+00	 9.999410369230777e+00
0	 1.000000000000000e+01	 6.124999999999998e+00	 1.000012836923078e+01
0	 1.000000000000000e+01	 6.187499999999998e+00	 1.000086132307693e+01
0	 1.000000000000000e+01	 6.250000000000000e+00	 1.000160923076924e+01
0	 9.375000000000000e+00	 6.250000000000000e+00	 1.000893076923078e+01
0	 9.375000000000000e+00	 6.312500000000000e+00	 1.000892407692308e+01
0	 9.375000000000002e+00	 6.375000000000000e+00	 1.000892523076924e+01
0	 9.374999999999998e+00	 6.437499999999999e+00	 1.000893423076923e+01
0	 9.375000000000002e+00	 6.499999999999999e+00	 1.000895107692308e+01
0	 9.375000000000000e+00	 6.562499999999998e+00	 1.000897576923077e+01
0	 9.375000000000000e+00	 6.624999999999998e+00	 1.000900830769230e+01
0	 9.375000000000000e+00	 6.687499999999998e+00	 1.000904869230768e+01
0	 9.375000000000000e+00	 6.749999999999998e+00	 1.000909692307692e+01
0	 9.375000000000000e+00	 6.812499999999998e+00	 1.000915299999999e+01
0	 9.375000000000000e+00	 6.875000000000000e+00	 1.000921692307692e+01
0	 9.437499999999998e+00	 6.250000000000000e+00	 1.000755020000001e+01
0	 9.437500000000000e+00	 6.312500000000001e+00	 1.000757473230770e+01
0	 9.437500000000000e+00	 6.374999999999999e+00	 1.000760736000001e+01
0	 9.437500000000002e+00	 6.437500000000000e+00	 1.000764808307692e+01
0	 9.437500000000000e+00	 6.500000000000000e+00	 1.000769690153846e+01
0	 9.437499999999998e+00	 6.562500000000000e+00	 1.000775381538462e+01
0	 9.437500000000000e+00	 6.624999999999999e+00	 1.000781882461539e+01
0	 9.437500000000000e+00	 6.687499999999999e+00	 1.000789192923077e+01
0	 9.437500000000002e+00	 6.749999999999999e+00	 1.000797312923076e+01
0	 9.437500000000000e+00	 6.812499999999998e+00	 1.000806242461539e+01
0	 9.437499999999998e+00	 6.875000000000001e+00	 1.000815981538461e+01
0	 9.500000000000000e+00	 6.250000000000000e+00	 1.000631372307695e+01
0	 9.500000000000002e+00	 6.312499999999998e+00	 1.000636355692308e+01
0	 9.500000000000000e+00	 6.375000000000001e+00	 1.000642173538462e+01
0	 9.499999999999998e+00	 6.437499999999999e+00	 1.000648825846154e+01
0	 9.500000000000000e+00	 6.499999999999998e+00	 1.000656312615384e+01
0	 9.499999999999998e+00	 6.562499999999998e+00	 1.000664633846154e+01
0	 9.500000000000000e+00	 6.625000000000000e+00	 1.000673789538462e+01
0	 9.500000000000000e+00	 6.687499999999998e+00	 1.000683779692308e+01
0	 9.500000000000002e+00	 6.749999999999999e+00	 1.000694604307692e+01
0	 9.500000000000000e+00	 6.812499999999999e+00	 1.000706263384614e+01
0	 9.500000000000000e+00	 6.874999999999999e+00	 1.000718756923074e+01
0	 9.562500000000000e+00	 6.249999999999999e+00	 1.000522133846155e+01
0	 9.562500000000000e+00	 6.312500000000000e+00	 1.000529055076925e+01
0	 9.562500000000000e+00	 6.374999999999999e+00	 1.000536835692307e+01
0	 9.562499999999998e+00	 6.437499999999999e+00	 1.000545475692309e+01
0	 9.562500000000002e+00	 6.500000000000001e+00	 1.000554975076923e+01
0	 9.562500000000002e+00	 6.562499999999999e+00	 1.000565333846152e+01
0	 9.562500000000000e+00	 6.625000000000000e+00	 1.000576551999999e+01
0	 9.562500000000000e+00	 6.687499999999999e+00	 1.000588629538462e+01
0	 9.562500000000002e+00	 6.749999999999999e+00	 1.000601566461537e+01
0	 9.562499999999998e+00	 6.812499999999997e+00	 1.000615362769231e+01
0	 9.562500000000000e+00	 6.874999999999999e+00	 1.000630018461537e+01
0	 9.624999999999998e+00	 6.250000000000000e+00	 1.000427304615384e+01
0	 9.624999999999998e+00	 6.312499999999998e+00	 1.000435571384616e+01
0	 9.625000000000000e+00	 6.375000000000000e+00	 1.000444722461539e+01
0	 9.625000000000000e+00	 6.437500000000001e+00	 1.000454757846154e+01
0	 9.624999999999996e+00	 6.499999999999997e+00	 1.000465677538461e+01
0	 9.624999999999998e+00	 6.562499999999998e+00	 1.000477481538463e+01
0	 9.625000000000000e+00	 6.624999999999999e+00	 1.000490169846152e+01
0	 9.625000000000000e+00	 6.687499999999999e+00	 1.000503742461538e+01
0	 9.625000000000000e+00	 6.749999999999999e+00	 1.000518199384616e+01
0	 9.625000000000000e+00	 6.812499999999998e+00	 1.000533540615385e+01
0	 9.624999999999998e+00	 6.875000000000001e+00	 1.000549766153845e+01
0	 9.687499999999998e+00	 6.250000000000000e+00	 1.000346884615384e+01
0	 9.687500000000000e+00	 6.312500000000000e+00	 1.000355904615385e+01
0	 9.687499999999998e+00	 6.375000000000000e+00	 1.000365833846156e+01
0	 9.687500000000000e+00	 6.437500000000001e+00	 1.000376672307693e+01
0	 9.687499999999998e+00	 6.499999999999998e+00	 1.000388419999999e+01
0	 9.687500000000000e+00	 6.562499999999998e+00	 1.000401076923077e+01
0	 9.687500000000000e+00	 6.624999999999998e+00	 1.000414643076923e+01
0	 9.687499999999998e+00	 6.687499999999998e+00	 1.000429118461538e+01
0	 9.687499999999998e+00	 6.749999999999998e+00	 1.000444503076923e+01
0	 9.687499999999998e+00	 6.812499999999998e+00	 1.000460796923078e+01
0	 9.687499999999998e+00	 6.875000000000001e+00	 1.000478000000001e+01
0	 9.749999999999998e+00	 6.250000000000000e+00	 1.000280873846154e+01
0	 9.749999999999996e+00	 6.312500000000000e+00	 1.000290054769230e+01
0	 9.749999999999998e+00	 6.374999999999998e+00	 1.000300169846153e+01
0	 9.749999999999996e+00	 6.437499999999998e+00	 1.000311219076924e+01
0	 9.750000000000000e+00	 6.500000000000000e+00	 1.000323202461538e+01
0	 9.749999999999998e+00	 6.562499999999998e+00	 1.000336120000000e+01
0	 9.749999999999998e+00	 6.624999999999999e+00	 1.000349971692306e+01
0	 9.749999999999998e+00	 6.687499999999999e+00	 1.000364757538463e+01
0	 9.749999999999998e+00	 6.749999999999997e+00	 1.000380477538460e+01
0	 9.749999999999996e+00	 6.812499999999998e+00	 1.000397131692307e+01
0	 9.749999999999998e+00	 6.875000000000000e+00	 1.000414719999998e+01
0	 9.812499999999998e+00	 6.250000000000000e+00	 1.000229272307693e+01
0	 9.812499999999998e+00	 6.312500000000000e+00	 1.000238021846155e+01
0	 9.812500000000002e+00	 6.374999999999999e+00	 1.000247730461539e+01
0	 9.812499999999998e+00	 6.437499999999999e+00	 1.000258398153846e+01
0	 9.812499999999996e+00	 6.499999999999997e+00	 1.000270024923078e+01
0	 9.812499999999998e+00	 6.562499999999999e+00	 1.000282610769231e+01
0	 9.812499999999998e+00	 6.624999999999998e+00	 1.000296155692307e+01
0	 9.812499999999998e+00	 6.687499999999997e+00	 1.000310659692308e+01
0	 9.812499999999998e+00	 6.749999999999996e+00	 1.000326122769231e+01
0	 9.812499999999998e+00	 6.812499999999998e+00	 1.000342544923075e+01
0	 9.812499999999998e+00	 6.874999999999999e+00	 1.000359926153845e+01
0	 9.874999999999996e+00	 6.250000000000000e+00	 1.000192080000001e+01
0	 9.874999999999998e+00	 6.312500000000000e+00	 1.000199805846154e+01
0	 9.875000000000000e+00	 6.375000000000001e+00	 1.000208515692307e+01
0	 9.874999999999998e+00	 6.437499999999998e+00	 1.000218209538462e+01
0	 9.875000000000000e+00	 6.500000000000000e+00	 1.000228887384616e+01
0	 9.874999999999996e+00	 6.562499999999998e+00	 1.000240549230769e+01
0	 9.874999999999998e+00	 6.624999999999998e+00	 1.000253195076923e+01
0	 9.874999999999998e+00	 6.687499999999997e+00	 1.000266824923077e+01
0	 9.874999999999996e+00	 6.749999999999998e+00	 1.000281438769229e+01
0	 9.874999999999998e+00	 6.812499999999998e+00	 1.000297036615382e+01
0	 9.874999999999996e+00	 6.875000000000000e+00	 1.000313618461536e+01
0	 9.937499999999998e+00	 6.250000000000000e+00	 1.000169296923077e+01
0	 9.937499999999998e+00	 6.312500000000001e+00	 1.000175406769231e+01
0	 9.937499999999998e+00	 6.374999999999999e+00	 1.000182525538462e+01
0	 9.937499999999998e+00	 6.437499999999999e+00	 1.000190653230769e+01
0	 9.937499999999998e+00	 6.500000000000000e+00	 1.000199789846152e+01
0	 9.937499999999996e+00	 6.562499999999999e+00	 1.000209935384614e+01
0	 9.937499999999998e+00	 6.625000000000000e+00	 1.000221089846152e+01
0	 9.937499999999998e+00	 6.687499999999998e+00	 1.000233253230769e+01
0	 9.937499999999998e+00	 6.749999999999999e+00	 1.000246425538462e+01
0	 9.937499999999998e+00	 6.812499999999998e+00	 1.000260606769232e+01
0	 9.937499999999998e+00	 6.875000000000000e+00	 1.000275796923077e+01
0	 1.000000000000000e+01	 6.250000000000000e+00	 1.000160923076924e+01
0	 1.000000000000000e+01	 6.312500000000001e+00	 1.000164824615385e+01
0	 1.000000000000000e+01	 6.374999999999999e+00	 1.000169760000000e+01
0	 1.000000000000000e+01	 6.437499999999999e+00	 1.000175729230769e+01
0	 1.000000000000000e+01	 6.499999999999999e+00	 1.000182732307694e+01
0	 1.000000000000000e+01	 6.562499999999999e+00	 1.000190769230769e+01
0	 9.999999999999998e+00	 6.624999999999998e+00	 1.000199839999998e+01
0	 1.000000000000000e+01	 6.687499999999999e+00	 1.000209944615384e+01
0	 1.000000000000000e+01	 6.749999999999998e+00	 1.000221083076923e+01
0	 1.000000000000000e+01	 6.812499999999998e+00	 1.000233255384614e+01
0	 1.000000000000000e+01	 6.875000000000000e+00	 1.000246461538460e+01
0	 9.375000000000000e+00	 6.875000000000000e+00	 1.000921692307692e+01
0	 9.375000000000000e+00	 6.937500000000000e+00	 1.000897852307693e+01
0	 9.375000000000002e+00	 7.000000000000000e+00	 1.000874363076920e+01
0	 9.374999999999998e+00	 7.062500000000000e+00	 1.000851224615386e+01
0	 9.375000000000002e+00	 7.125000000000000e+00	 1.000828436923075e+01
0	 9.375000000000000e+00	 7.187499999999998e+00	 1.000805999999999e+01
0	 9.375000000000000e+00	 7.249999999999998e+00	 1.000783913846153e+01
0	 9.375000000000000e+00	 7.312499999999998e+00	 1.000762178461537e+01
0	 9.375000000000000e+00	 7.374999999999998e+00	 1.000740793846152e+01
0	 9.375000000000000e+00	 7.437499999999998e+00	 1.000719759999998e+01
0	 9.375000000000000e+00	 7.500000000000000e+00	 1.000699076923076e+01
0	 9.437499999999998e+00	 6.875000000000001e+00	 1.000815981538461e+01
0	 9.437500000000000e+00	 6.937499999999998e+00	 1.000794720461536e+01
0	 9.437500000000000e+00	 7.000000000000001e+00	 1.000773817538462e+01
0	 9.437500000000002e+00	 7.062500000000001e+00	 1.000753272769230e+01
0	 9.437500000000000e+00	 7.124999999999999e+00	 1.000733086153846e+01
0	 9.437499999999998e+00	 7.187499999999998e+00	 1.000713257692307e+01
0	 9.437500000000000e+00	 7.249999999999998e+00	 1.000693787384615e+01
0	 9.437500000000000e+00	 7.312499999999998e+00	 1.000674675230768e+01
0	 9.437500000000002e+00	 7.374999999999999e+00	 1.000655921230768e+01
0	 9.437500000000000e+00	 7.437499999999999e+00	 1.000637525384613e+01
0	 9.437499999999998e+00	 7.500000000000001e+00	 1.000619487692306e+01
0	 9.500000000000000e+00	 6.874999999999999e+00	 1.000718756923074e+01
0	 9.500000000000002e+00	 6.937500000000000e+00	 1.000699465230769e+01
0	 9.500000000000000e+00	 7.000000000000000e+00	 1.000680539076923e+01
0	 9.499999999999998e+00	 7.062500000000000e+00	 1.000661978461538e+01
0	 9.500000000000000e+00	 7.124999999999998e+00	 1.000643783384616e+01
0	 9.499999999999998e+00	 7.187499999999999e+00	 1.000625953846153e+01
0	 9.500000000000000e+00	 7.250000000000000e+00	 1.000608489846153e+01
0	 9.500000000000000e+00	 7.312499999999998e+00	 1.000591391384615e+01
0	 9.500000000000002e+00	 7.374999999999999e+00	 1.000574658461538e+01
0	 9.500000000000000e+00	 7.437499999999998e+00	 1.000558291076923e+01
0	 9.500000000000000e+00	 7.499999999999999e+00	 1.000542289230769e+01
0	 9.562500000000000e+00	 6.874999999999999e+00	 1.000630018461537e+01
0	 9.562500000000000e+00	 6.937500000000001e+00	 1.000612086615384e+01
0	 9.562500000000000e+00	 7.000000000000000e+00	 1.000594527692305e+01
0	 9.562499999999998e+00	 7.062499999999998e+00	 1.000577341692306e+01
0	 9.562500000000002e+00	 7.125000000000000e+00	 1.000560528615383e+01
0	 9.562500000000002e+00	 7.187499999999999e+00	 1.000544088461538e+01
0	 9.562500000000000e+00	 7.250000000000000e+00	 1.000528021230767e+01
0	 9.562500000000000e+00	 7.312500000000001e+00	 1.000512326923075e+01
0	 9.562500000000002e+00	 7.374999999999999e+00	 1.000497005538460e+01
0	 9.562499999999998e+00	 7.437499999999998e+00	 1.000482057076922e+01
0	 9.562500000000000e+00	 7.499999999999999e+00	 1.000467481538463e+01
0	 9.624999999999998e+00	 6.875000000000001e+00	 1.000549766153845e+01
0	 9.624999999999998e+00	 6.937499999999999e+00	 1.000532584615382e+01
0	 9.625000000000000e+00	 7.000000000000001e+00	 1.000515783384615e+01
0	 9.625000000000000e+00	 7.062500000000000e+00	 1.000499362461538e+01
0	 9.624999999999996e+00	 7.124999999999997e+00	 1.000483321846153e+01
0	 9.624999999999998e+00	 7.187499999999996e+00	 1.000467661538461e+01
0	 9.625000000000000e+00	 7.249999999999999e+00	 1.000452381538461e+01
0	 9.625000000000000e+00	 7.312499999999998e+00	 1.000437481846153e+01
0	 9.625000000000000e+00	 7.374999999999999e+00	 1.000422962461538e+01
0	 9.625000000000000e+00	 7.437499999999997e+00	 1.000408823384616e+01
0	 9.624999999999998e+00	 7.500000000000001e+00	 1.000395064615385e+01
0	 9.687499999999998e+00	 6.875000000000001e+00	 1.000478000000001e+01
0	 9.687500000000000e+00	 6.937500000000001e+00	 1.000460959230769e+01
0	 9.687499999999998e+00	 6.999999999999998e+00	 1.000444306153845e+01
0	 9.687500000000000e+00	 7.062500000000000e+00	 1.000428040769231e+01
0	 9.687499999999998e+00	 7.124999999999998e+00	 1.000412163076922e+01
0	 9.687500000000000e+00	 7.187499999999999e+00	 1.000396673076922e+01
0	 9.687500000000000e+00	 7.249999999999998e+00	 1.000381570769230e+01
0	 9.687499999999998e+00	 7.312499999999997e+00	 1.000366856153845e+01
0	 9.687499999999998e+00	 7.374999999999998e+00	 1.000352529230768e+01
0	 9.687499999999998e+00	 7.437499999999997e+00	 1.000338590000000e+01
0	 9.687499999999998e+00	 7.500000000000000e+00	 1.000325038461536e+01
0	 9.749999999999998e+00	 6.875000000000000e+00	 1.000414719999998e+01
0	 9.749999999999996e+00	 6.937499999999999e+00	 1.000397210461539e+01
0	 9.749999999999998e+00	 6.999999999999997e+00	 1.000380096000000e+01
0	 9.749999999999996e+00	 7.062500000000000e+00	 1.000363376615384e+01
0	 9.750000000000000e+00	 7.125000000000000e+00	 1.000347052307692e+01
0	 9.749999999999998e+00	 7.187499999999998e+00	 1.000331123076923e+01
0	 9.749999999999998e+00	 7.249999999999998e+00	 1.000315588923077e+01
0	 9.749999999999998e+00	 7.312499999999998e+00	 1.000300449846153e+01
0	 9.749999999999998e+00	 7.374999999999997e+00	 1.000285705846154e+01
0	 9.749999999999996e+00	 7.437499999999997e+00	 1.000271356923075e+01
0	 9.749999999999998e+00	 7.500000000000001e+00	 1.000257403076924e+01
0	 9.812499999999998e+00	 6.874999999999999e+00	 1.000359926153845e+01
0	 9.812499999999998e+00	 6.937499999999999e+00	 1.000341338307693e+01
0	 9.812500000000002e+00	 7.000000000000000e+00	 1.000323152923076e+01
0	 9.812499999999998e+00	 7.062499999999999e+00	 1.000305370000000e+01
0	 9.812499999999996e+00	 7.124999999999997e+00	 1.000287989538461e+01
0	 9.812499999999998e+00	 7.187499999999998e+00	 1.000271011538462e+01
0	 9.812499999999998e+00	 7.249999999999998e+00	 1.000254435999999e+01
0	 9.812499999999998e+00	 7.312499999999997e+00	 1.000238262923076e+01
0	 9.812499999999998e+00	 7.374999999999997e+00	 1.000222492307693e+01
0	 9.812499999999998e+00	 7.437499999999998e+00	 1.000207124153845e+01
0	 9.812499999999998e+00	 7.500000000000000e+00	 1.000192158461537e+01
0	 9.874999999999996e+00	 6.875000000000000e+00	 1.000313618461536e+01
0	 9.874999999999998e+00	 6.937499999999999e+00	 1.000293342769230e+01
0	 9.875000000000000e+00	 7.000000000000000e+00	 1.000273476923077e+01
0	 9.874999999999998e+00	 7.062499999999999e+00	 1.000254020923077e+01
0	 9.875000000000000e+00	 7.124999999999999e+00	 1.000234974769232e+01
0	 9.874999999999996e+00	 7.187499999999996e+00	 1.000216338461538e+01
0	 9.874999999999998e+00	 7.249999999999998e+00	 1.000198111999999e+01
0	 9.874999999999998e+00	 7.312499999999998e+00	 1.000180295384614e+01
0	 9.874999999999996e+00	 7.374999999999999e+00	 1.000162888615386e+01
0	 9.874999999999998e+00	 7.437499999999997e+00	 1.000145891692307e+01
0	 9.874999999999996e+00	 7.500000000000000e+00	 1.000129304615383e+01
0	 9.937499999999998e+00	 6.875000000000000e+00	 1.000275796923077e+01
0	 9.937499999999998e+00	 6.937500000000000e+00	 1.000253223846153e+01
0	 9.937499999999998e+00	 7.000000000000000e+00	 1.000231067999999e+01
0	 9.937499999999998e+00	 7.062499999999999e+00	 1.000209329384615e+01
0	 9.937499999999998e+00	 7.125000000000000e+00	 1.000188007999998e+01
0	 9.937499999999996e+00	 7.187499999999999e+00	 1.000167103846153e+01
0	 9.937499999999998e+00	 7.249999999999998e+00	 1.000146616923076e+01
0	 9.937499999999998e+00	 7.312499999999999e+00	 1.000126547230768e+01
0	 9.937499999999998e+00	 7.374999999999999e+00	 1.000106894769229e+01
0	 9.937499999999998e+00	 7.437499999999998e+00	 1.000087659538462e+01
0	 9.937499999999998e+00	 7.500000000000000e+00	 1.000068841538460e+01
0	 1.000000000000000e+01	 6.875000000000000e+00	 1.000246461538460e+01
0	 1.000000000000000e+01	 6.937500000000000e+00	 1.000220981538460e+01
0	 1.000000000000000e+01	 6.999999999999999e+00	 1.000195926153844e+01
0	 1.000000000000000e+01	 7.062499999999999e+00	 1.000171295384616e+01
0	 1.000000000000000e+01	 7.125000000000000e+00	 1.000147089230768e+01
0	 1.000000000000000e+01	 7.187499999999998e+00	 1.000123307692307e+01
0	 9.999999999999998e+00	 7.249999999999999e+00	 1.000099950769232e+01
0	 1.000000000000000e+01	 7.312499999999999e+00	 1.000077018461537e+01
0	 1.000000000000000e+01	 7.374999999999998e+00	 1.000054510769233e+01
0	 1.000000000000000e+01	 7.437499999999998e+00	 1.000032427692305e+01
0	 1.000000000000000e+01	 7.500000000000000e+00	 1.000010769230769e+01
0	 9.375000000000000e+00	 7.500000000000000e+00	 1.000699076923076e+01
0	 9.375000000000000e+00	 7.562500000000000e+00	 1.000669041538459e+01
0	 9.375000000000002e+00	 7.625000000000000e+00	 1.000638904615385e+01
0	 9.374999999999998e+00	 7.687499999999999e+00	 1.000608666153845e+01
0	 9.375000000000002e+00	 7.750000000000000e+00	 1.000578326153847e+01
0	 9.375000000000000e+00	 7.812499999999999e+00	 1.000547884615383e+01
0	 9.375000000000000e+00	 7.874999999999998e+00	 1.000517341538461e+01
0	 9.375000000000000e+00	 7.937499999999997e+00	 1.000486696923076e+01
0	 9.375000000000000e+00	 7.999999999999998e+00	 1.000455950769231e+01
0	 9.375000000000000e+00	 8.062499999999996e+00	 1.000425103076923e+01
0	 9.375000000000000e+00	 8.125000000000000e+00	 1.000394153846154e+01
0	 9.437499999999998e+00	 7.500000000000001e+00	 1.000619487692306e+01
0	 9.437500000000000e+00	 7.562500000000000e+00	 1.000591859692306e+01
0	 9.437500000000000e+00	 7.624999999999998e+00	 1.000564129230770e+01
0	 9.437500000000002e+00	 7.687500000000000e+00	 1.000536296307691e+01
0	 9.437500000000000e+00	 7.750000000000001e+00	 1.000508360923075e+01
0	 9.437499999999998e+00	 7.812500000000000e+00	 1.000480323076923e+01
0	 9.437500000000000e+00	 7.874999999999999e+00	 1.000452182769230e+01
0	 9.437500000000000e+00	 7.937499999999997e+00	 1.000423940000001e+01
0	 9.437500000000002e+00	 7.999999999999999e+00	 1.000395594769231e+01
0	 9.437500000000000e+00	 8.062499999999998e+00	 1.000367147076923e+01
0	 9.437499999999998e+00	 8.124999999999998e+00	 1.000338596923076e+01
0	 9.500000000000000e+00	 7.499999999999999e+00	 1.000542289230769e+01
0	 9.500000000000002e+00	 7.562500000000000e+00	 1.000516579692305e+01
0	 9.500000000000000e+00	 7.625000000000000e+00	 1.000490766769230e+01
0	 9.499999999999998e+00	 7.687499999999999e+00	 1.000464850461536e+01
0	 9.500000000000000e+00	 7.749999999999999e+00	 1.000438830769230e+01
0	 9.499999999999998e+00	 7.812499999999999e+00	 1.000412707692308e+01
0	 9.500000000000000e+00	 7.874999999999998e+00	 1.000386481230768e+01
0	 9.500000000000000e+00	 7.937499999999998e+00	 1.000360151384614e+01
0	 9.500000000000002e+00	 7.999999999999999e+00	 1.000333718153845e+01
0	 9.500000000000000e+00	 8.062499999999998e+00	 1.000307181538461e+01
0	 9.500000000000000e+00	 8.125000000000000e+00	 1.000280541538460e+01
0	 9.562500000000000e+00	 7.499999999999999e+00	 1.000467481538463e+01
0	 9.562500000000000e+00	 7.562500000000000e+00	 1.000443201538460e+01
0	 9.562500000000000e+00	 7.624999999999999e+00	 1.000418817230768e+01
0	 9.562499999999998e+00	 7.687499999999999e+00	 1.000394328615384e+01
0	 9.562500000000002e+00	 7.749999999999999e+00	 1.000369735692306e+01
0	 9.562500000000002e+00	 7.812500000000000e+00	 1.000345038461537e+01
0	 9.562500000000000e+00	 7.875000000000000e+00	 1.000320236923076e+01
0	 9.562500000000000e+00	 7.937499999999999e+00	 1.000295331076922e+01
0	 9.562500000000002e+00	 7.999999999999999e+00	 1.000270320923077e+01
0	 9.562499999999998e+00	 8.062499999999998e+00	 1.000245206461537e+01
0	 9.562500000000000e+00	 8.124999999999998e+00	 1.000219987692304e+01
0	 9.624999999999998e+00	 7.500000000000001e+00	 1.000395064615385e+01
0	 9.624999999999998e+00	 7.562499999999999e+00	 1.000371725230768e+01
0	 9.625000000000000e+00	 7.624999999999999e+00	 1.000348280615385e+01
0	 9.625000000000000e+00	 7.687499999999999e+00	 1.000324730769229e+01
0	 9.624999999999996e+00	 7.749999999999998e+00	 1.000301075692305e+01
0	 9.624999999999998e+00	 7.812499999999998e+00	 1.000277315384615e+01
0	 9.625000000000000e+00	 7.874999999999999e+00	 1.000253449846153e+01
0	 9.625000000000000e+00	 7.937499999999999e+00	 1.000229479076923e+01
0	 9.625000000000000e+00	 8.000000000000000e+00	 1.000205403076922e+01
0	 9.625000000000000e+00	 8.062499999999998e+00	 1.000181221846153e+01
0	 9.624999999999998e+00	 8.125000000000000e+00	 1.000156935384613e+01
0	 9.687499999999998e+00	 7.500000000000000e+00	 1.000325038461536e+01
0	 9.687500000000000e+00	 7.562500000000001e+00	 1.000302150769230e+01
0	 9.687499999999998e+00	 7.624999999999999e+00	 1.000279156923077e+01
0	 9.687500000000000e+00	 7.687500000000000e+00	 1.000256056923078e+01
0	 9.687499999999998e+00	 7.749999999999997e+00	 1.000232850769229e+01
0	 9.687500000000000e+00	 7.812499999999999e+00	 1.000209538461538e+01
0	 9.687500000000000e+00	 7.874999999999999e+00	 1.000186119999999e+01
0	 9.687499999999998e+00	 7.937499999999999e+00	 1.000162595384616e+01
0	 9.687499999999998e+00	 7.999999999999998e+00	 1.000138964615383e+01
0	 9.687499999999998e+00	 8.062499999999998e+00	 1.000115227692306e+01
0	 9.687499999999998e+00	 8.125000000000000e+00	 1.000091384615384e+01
0	 9.749999999999998e+00	 7.500000000000001e+00	 1.000257403076924e+01
0	 9.749999999999996e+00	 7.562500000000000e+00	 1.000234478153846e+01
0	 9.749999999999998e+00	 7.624999999999998e+00	 1.000211446153844e+01
0	 9.749999999999996e+00	 7.687499999999999e+00	 1.000188307076922e+01
0	 9.750000000000000e+00	 7.750000000000000e+00	 1.000165060923077e+01
0	 9.749999999999998e+00	 7.812499999999999e+00	 1.000141707692306e+01
0	 9.749999999999998e+00	 7.874999999999999e+00	 1.000118247384617e+01
0	 9.749999999999998e+00	 7.937499999999998e+00	 1.000094679999999e+01
0	 9.749999999999998e+00	 7.999999999999997e+00	 1.000071005538462e+01
0	 9.749999999999996e+00	 8.062499999999998e+00	 1.000047224000000e+01
0	 9.749999999999998e+00	 8.125000000000000e+00	 1.000023335384613e+01
0	 9.812499999999998e+00	 7.500000000000000e+00	 1.000192158461537e+01
0	 9.812499999999998e+00	 7.562500000000000e+00	 1.000168707384615e+01
0	 9.812500000000002e+00	 7.625000000000000e+00	 1.000145148307692e+01
0	 9.812499999999998e+00	 7.687499999999998e+00	 1.000121481230769e+01
0	 9.812499999999996e+00	 7.749999999999997e+00	 1.000097706153846e+01
0	 9.812499999999998e+00	 7.812499999999999e+00	 1.000073823076924e+01
0	 9.812499999999998e+00	 7.874999999999998e+00	 1.000049831999999e+01
0	 9.812499999999998e+00	 7.937499999999998e+00	 1.000025732923078e+01
0	 9.812499999999998e+00	 7.999999999999996e+00	 1.000001525846154e+01
0	 9.812499999999998e+00	 8.062499999999996e+00	 9.999772107692305e+00
0	 9.812499999999998e+00	 8.125000000000000e+00	 9.999527876923089e+00
0	 9.874999999999996e+00	 7.500000000000000e+00	 1.000129304615383e+01
0	 9.874999999999998e+00	 7.562499999999999e+00	 1.000104838461536e+01
0	 9.875000000000000e+00	 7.625000000000001e+00	 1.000080263384615e+01
0	 9.874999999999998e+00	 7.687499999999998e+00	 1.000055579384614e+01
0	 9.875000000000000e+00	 7.749999999999999e+00	 1.000030786461540e+01
0	 9.874999999999996e+00	 7.812499999999997e+00	 1.000005884615385e+01
0	 9.874999999999998e+00	 7.874999999999998e+00	 9.999808738461526e+00
0	 9.874999999999998e+00	 7.937499999999998e+00	 9.999557541538467e+00
0	 9.874999999999996e+00	 7.999999999999999e+00	 9.999305255384606e+00
0	 9.874999999999998e+00	 8.062499999999998e+00	 9.999051880000007e+00
0	 9.874999999999996e+00	 8.125000000000000e+00	 9.998797415384608e+00
0	 9.937499999999998e+00	 7.500000000000000e+00	 1.000068841538460e+01
0	 9.937499999999998e+00	 7.562500000000001e+00	 1.000042871384613e+01
0	 9.937499999999998e+00	 7.624999999999999e+00	 1.000016791384613e+01
0	 9.937499999999998e+00	 7.687499999999999e+00	 9.999906015384612e+00
0	 9.937499999999998e+00	 7.750000000000000e+00	 9.999643018461519e+00
0	 9.937499999999996e+00	 7.812499999999999e+00	 9.999378923076918e+00
0	 9.937499999999998e+00	 7.874999999999999e+00	 9.999113729230736e+00
0	 9.937499999999998e+00	 7.937499999999999e+00	 9.998847436923093e+00
0	 9.937499999999998e+00	 7.999999999999999e+00	 9.998580046153835e+00
0	 9.937499999999998e+00	 8.062499999999998e+00	 9.998311556923078e+00
0	 9.937499999999998e+00	 8.125000000000000e+00	 9.998041969230773e+00
0	 1.000000000000000e+01	 7.500000000000000e+00	 1.000010769230769e+01
0	 1.000000000000000e+01	 7.562500000000001e+00	 9.999828061538468e+00
0	 1.000000000000000e+01	 7.624999999999999e+00	 9.999547323076918e+00
0	 1.000000000000000e+01	 7.687499999999999e+00	 9.999265476923082e+00
0	 1.000000000000000e+01	 7.750000000000000e+00	 9.998982523076924e+00
0	 1.000000000000000e+01	 7.812499999999998e+00	 9.998698461538455e+00
0	 9.999999999999998e+00	 7.874999999999999e+00	 9.998413292307680e+00
0	 1.000000000000000e+01	 7.937499999999998e+00	 9.998127015384599e+00
0	 1.000000000000000e+01	 7.999999999999998e+00	 9.997839630769231e+00
0	 1.000000000000000e+01	 8.062499999999996e+00	 9.997551138461505e+00
0	 1.000000000000000e+01	 8.125000000000000e+00	 9.997261538461533e+00
0	 9.375000000000000e+00	 8.125000000000000e+00	 1.000394153846154e+01
0	 9.375000000000000e+00	 8.187500000000000e+00	 1.000370232307692e+01
0	 9.375000000000002e+00	 8.250000000000002e+00	 1.000345821538460e+01
0	 9.374999999999998e+00	 8.312500000000000e+00	 1.000320921538462e+01
0	 9.375000000000002e+00	 8.374999999999998e+00	 1.000295532307693e+01
0	 9.375000000000000e+00	 8.437500000000000e+00	 1.000269653846154e+01
0	 9.375000000000000e+00	 8.500000000000000e+00	 1.000243286153846e+01
0	 9.375000000000000e+00	 8.562499999999998e+00	 1.000216429230770e+01
0	 9.375000000000000e+00	 8.625000000000000e+00	 1.000189083076923e+01
0	 9.375000000000000e+00	 8.687499999999998e+00	 1.000161247692307e+01
0	 9.375000000000000e+00	 8.750000000000000e+00	 1.000132923076924e+01
0	 9.437499999999998e+00	 8.124999999999998e+00	 1.000338596923076e+01
0	 9.437500000000000e+00	 8.187500000000000e+00	 1.000317138769231e+01
0	 9.437500000000000e+00	 8.250000000000000e+00	 1.000295195999998e+01
0	 9.437500000000002e+00	 8.312500000000000e+00	 1.000272768615384e+01
0	 9.437500000000000e+00	 8.374999999999998e+00	 1.000249856615385e+01
0	 9.437499999999998e+00	 8.437499999999998e+00	 1.000226460000000e+01
0	 9.437500000000000e+00	 8.499999999999998e+00	 1.000202578769231e+01
0	 9.437500000000000e+00	 8.562499999999998e+00	 1.000178212923077e+01
0	 9.437500000000002e+00	 8.625000000000000e+00	 1.000153362461539e+01
0	 9.437500000000000e+00	 8.687499999999996e+00	 1.000128027384616e+01
0	 9.437499999999998e+00	 8.750000000000000e+00	 1.000102207692308e+01
0	 9.500000000000000e+00	 8.125000000000000e+00	 1.000280541538460e+01
0	 9.500000000000002e+00	 8.187500000000000e+00	 1.000261355076923e+01
0	 9.500000000000000e+00	 8.249999999999998e+00	 1.000241688615385e+01
0	 9.499999999999998e+00	 8.312500000000002e+00	 1.000221542153847e+01
0	 9.500000000000000e+00	 8.375000000000002e+00	 1.000200915692308e+01
0	 9.499999999999998e+00	 8.437500000000000e+00	 1.000179809230770e+01
0	 9.500000000000000e+00	 8.500000000000000e+00	 1.000158222769231e+01
0	 9.500000000000000e+00	 8.562499999999998e+00	 1.000136156307691e+01
0	 9.500000000000002e+00	 8.624999999999998e+00	 1.000113609846155e+01
0	 9.500000000000000e+00	 8.687499999999998e+00	 1.000090583384615e+01
0	 9.500000000000000e+00	 8.750000000000000e+00	 1.000067076923079e+01
0	 9.562500000000000e+00	 8.124999999999998e+00	 1.000219987692304e+01
0	 9.562500000000000e+00	 8.187500000000000e+00	 1.000202881230769e+01
0	 9.562500000000000e+00	 8.250000000000000e+00	 1.000185299384614e+01
0	 9.562499999999998e+00	 8.312499999999998e+00	 1.000167242153847e+01
0	 9.562500000000002e+00	 8.375000000000000e+00	 1.000148709538461e+01
0	 9.562500000000002e+00	 8.437499999999998e+00	 1.000129701538461e+01
0	 9.562500000000000e+00	 8.500000000000000e+00	 1.000110218153845e+01
0	 9.562500000000000e+00	 8.562499999999998e+00	 1.000090259384615e+01
0	 9.562500000000002e+00	 8.624999999999998e+00	 1.000069825230770e+01
0	 9.562499999999998e+00	 8.687499999999996e+00	 1.000048915692308e+01
0	 9.562500000000000e+00	 8.749999999999998e+00	 1.000027530769233e+01
0	 9.624999999999998e+00	 8.125000000000000e+00	 1.000156935384613e+01
0	 9.624999999999998e+00	 8.187499999999998e+00	 1.000141717230769e+01
0	 9.625000000000000e+00	 8.250000000000000e+00	 1.000126028307691e+01
0	 9.625000000000000e+00	 8.312500000000000e+00	 1.000109868615385e+01
0	 9.624999999999996e+00	 8.374999999999996e+00	 1.000093238153845e+01
0	 9.624999999999998e+00	 8.437499999999996e+00	 1.000076136923077e+01
0	 9.625000000000000e+00	 8.499999999999998e+00	 1.000058564923077e+01
0	 9.625000000000000e+00	 8.562499999999998e+00	 1.000040522153848e+01
0	 9.625000000000000e+00	 8.624999999999998e+00	 1.000022008615384e+01
0	 9.625000000000000e+00	 8.687499999999998e+00	 1.000003024307692e+01
0	 9.624999999999998e+00	 8.750000000000000e+00	 9.999835692307695e+00
0	 9.687499999999998e+00	 8.125000000000000e+00	 1.000091384615384e+01
0	 9.687500000000000e+00	 8.187500000000002e+00	 1.000077863076920e+01
0	 9.687499999999998e+00	 8.250000000000000e+00	 1.000063875384618e+01
0	 9.687500000000000e+00	 8.312500000000000e+00	 1.000049421538462e+01
0	 9.687499999999998e+00	 8.374999999999998e+00	 1.000034501538462e+01
0	 9.687500000000000e+00	 8.437500000000000e+00	 1.000019115384617e+01
0	 9.687500000000000e+00	 8.500000000000000e+00	 1.000003263076923e+01
0	 9.687499999999998e+00	 8.562499999999998e+00	 9.999869446153832e+00
0	 9.687499999999998e+00	 8.624999999999998e+00	 9.999701600000027e+00
0	 9.687499999999998e+00	 8.687499999999996e+00	 9.999529092307672e+00
0	 9.687499999999998e+00	 8.750000000000000e+00	 9.999351923076929e+00
0	 9.749999999999998e+00	 8.125000000000000e+00	 1.000023335384613e+01
0	 9.749999999999996e+00	 8.187500000000000e+00	 1.000011318769231e+01
0	 9.749999999999998e+00	 8.249999999999998e+00	 9.999988406153838e+00
0	 9.749999999999996e+00	 8.312499999999998e+00	 9.999859009230772e+00
0	 9.750000000000000e+00	 8.375000000000000e+00	 9.999724996923076e+00
0	 9.749999999999998e+00	 8.437500000000000e+00	 9.999586369230773e+00
0	 9.749999999999998e+00	 8.499999999999998e+00	 9.999443126153853e+00
0	 9.749999999999998e+00	 8.562499999999998e+00	 9.999295267692307e+00
0	 9.749999999999998e+00	 8.624999999999998e+00	 9.999142793846158e+00
0	 9.749999999999996e+00	 8.687499999999998e+00	 9.998985704615382e+00
0	 9.749999999999998e+00	 8.750000000000000e+00	 9.998824000000020e+00
0	 9.812499999999998e+00	 8.125000000000000e+00	 9.999527876923089e+00
0	 9.812499999999998e+00	 8.187499999999998e+00	 9.999420843076917e+00
0	 9.812500000000002e+00	 8.250000000000002e+00	 9.999309239999992e+00
0	 9.812499999999998e+00	 8.312500000000000e+00	 9.999193067692300e+00
0	 9.812499999999996e+00	 8.374999999999998e+00	 9.999072326153845e+00
0	 9.812499999999998e+00	 8.437500000000000e+00	 9.998947015384623e+00
0	 9.812499999999998e+00	 8.500000000000000e+00	 9.998817135384620e+00
0	 9.812499999999998e+00	 8.562499999999998e+00	 9.998682686153867e+00
0	 9.812499999999998e+00	 8.624999999999996e+00	 9.998543667692328e+00
0	 9.812499999999998e+00	 8.687499999999998e+00	 9.998400080000016e+00
0	 9.812499999999998e+00	 8.750000000000000e+00	 9.998251923076937e+00
0	 9.874999999999996e+00	 8.125000000000000e+00	 9.998797415384608e+00
0	 9.874999999999998e+00	 8.187500000000000e+00	 9.998701596923059e+00
0	 9.875000000000000e+00	 8.250000000000000e+00	 9.998601255384607e+00
0	 9.874999999999998e+00	 8.312499999999998e+00	 9.998496390769242e+00
0	 9.875000000000000e+00	 8.375000000000000e+00	 9.998387003076948e+00
0	 9.874999999999996e+00	 8.437499999999996e+00	 9.998273092307720e+00
0	 9.874999999999998e+00	 8.499999999999998e+00	 9.998154658461539e+00
0	 9.874999999999998e+00	 8.562499999999998e+00	 9.998031701538462e+00
0	 9.874999999999996e+00	 8.624999999999998e+00	 9.997904221538469e+00
0	 9.874999999999998e+00	 8.687499999999996e+00	 9.997772218461538e+00
0	 9.874999999999996e+00	 8.750000000000000e+00	 9.997635692307700e+00
0	 9.937499999999998e+00	 8.125000000000000e+00	 9.998041969230773e+00
0	 9.937499999999998e+00	 8.187500000000000e+00	 9.997955449230755e+00
0	 9.937499999999998e+00	 8.249999999999998e+00	 9.997864452307720e+00
0	 9.937499999999998e+00	 8.312500000000000e+00	 9.997768978461519e+00
0	 9.937499999999998e+00	 8.375000000000000e+00	 9.997669027692302e+00
0	 9.937499999999996e+00	 8.437500000000000e+00	 9.997564599999997e+00
0	 9.937499999999998e+00	 8.500000000000000e+00	 9.997455695384609e+00
0	 9.937499999999998e+00	 8.562499999999998e+00	 9.997342313846161e+00
0	 9.937499999999998e+00	 8.624999999999998e+00	 9.997224455384625e+00
0	 9.937499999999998e+00	 8.687499999999998e+00	 9.997102119999985e+00
0	 9.937499999999998e+00	 8.750000000000000e+00	 9.996975307692296e+00
0	 1.000000000000000e+01	 8.125000000000000e+00	 9.997261538461533e+00
0	 1.000000000000000e+01	 8.187500000000000e+00	 9.997182399999971e+00
0	 1.000000000000000e+01	 8.250000000000000e+00	 9.997098830769229e+00
0	 1.000000000000000e+01	 8.312499999999998e+00	 9.997010830769236e+00
0	 1.000000000000000e+01	 8.374999999999998e+00	 9.996918399999990e+00
0	 1.000000000000000e+01	 8.437500000000000e+00	 9.996821538461548e+00
0	 9.999999999999998e+00	 8.500000000000000e+00	 9.996720246153849e+00
0	 1.000000000000000e+01	 8.562500000000000e+00	 9.996614523076921e+00
0	 1.000000000000000e+01	 8.624999999999998e+00	 9.996504369230779e+00
0	 1.000000000000000e+01	 8.687499999999998e+00	 9.996389784615365e+00
0	 1.000000000000000e+01	 8.750000000000000e+00	 9.996270769230765e+00
0	 9.375000000000000e+00	 8.750000000000000e+00	 1.000132923076924e+01
0	 9.375000000000000e+00	 8.812500000000000e+00	 1.000124101538463e+01
0	 9.375000000000002e+00	 8.875000000000002e+00	 1.000114283076925e+01
0	 9.374999999999998e+00	 8.937499999999998e+00	 1.000103467692307e+01
0	 9.375000000000002e+00	 9.000000000000000e+00	 1.000091655384616e+01
0	 9.375000000000000e+00	 9.062500000000000e+00	 1.000078846153845e+01
0	 9.375000000000000e+00	 9.124999999999998e+00	 1.000065039999998e+01
0	 9.375000000000000e+00	 9.187499999999998e+00	 1.000050236923075e+01
0	 9.375000000000000e+00	 9.249999999999998e+00	 1.000034436923077e+01
0	 9.375000000000000e+00	 9.312499999999998e+00	 1.000017639999997e+01
0	 9.375000000000000e+00	 9.375000000000000e+00	 9.999998461538450e+00
0	 9.437499999999998e+00	 8.750000000000000e+00	 1.000102207692308e+01
0	 9.437500000000000e+00	 8.812500000000000e+00	 1.000095257384615e+01
0	 9.437500000000000e+00	 8.874999999999998e+00	 1.000087369230769e+01
0	 9.437500000000002e+00	 8.937500000000002e+00	 1.000078543230769e+01
0	 9.437500000000000e+00	 8.999999999999996e+00	 1.000068779384615e+01
0	 9.437499999999998e+00	 9.062499999999998e+00	 1.000058077692308e+01
0	 9.437500000000000e+00	 9.124999999999998e+00	 1.000046438153846e+01
0	 9.437500000000000e+00	 9.187500000000000e+00	 1.000033860769230e+01
0	 9.437500000000002e+00	 9.249999999999998e+00	 1.000020345538460e+01
0	 9.437500000000000e+00	 9.312499999999998e+00	 1.000005892461535e+01
0	 9.437499999999998e+00	 9.375000000000000e+00	 9.999905015384602e+00
0	 9.500000000000000e+00	 8.750000000000000e+00	 1.000067076923079e+01
0	 9.500000000000002e+00	 8.812500000000000e+00	 1.000062284307691e+01
0	 9.500000000000000e+00	 8.875000000000000e+00	 1.000056612923078e+01
0	 9.499999999999998e+00	 8.937500000000000e+00	 1.000050062769230e+01
0	 9.500000000000000e+00	 9.000000000000000e+00	 1.000042633846153e+01
0	 9.499999999999998e+00	 9.062499999999998e+00	 1.000034326153847e+01
0	 9.500000000000000e+00	 9.124999999999998e+00	 1.000025139692308e+01
0	 9.500000000000000e+00	 9.187499999999996e+00	 1.000015074461539e+01
0	 9.500000000000002e+00	 9.249999999999998e+00	 1.000004130461538e+01
0	 9.500000000000000e+00	 9.312500000000002e+00	 9.999923076923050e+00
0	 9.500000000000000e+00	 9.374999999999998e+00	 9.999796061538449e+00
0	 9.562500000000000e+00	 8.749999999999998e+00	 1.000027530769233e+01
0	 9.562500000000000e+00	 8.812500000000000e+00	 1.000025182307694e+01
0	 9.562500000000000e+00	 8.875000000000000e+00	 1.000022014153847e+01
0	 9.562499999999998e+00	 8.937499999999996e+00	 1.000018026307693e+01
0	 9.562500000000002e+00	 9.000000000000000e+00	 1.000013218769230e+01
0	 9.562500000000002e+00	 9.062500000000000e+00	 1.000007591538461e+01
0	 9.562500000000000e+00	 9.125000000000000e+00	 1.000001144615382e+01
0	 9.562500000000000e+00	 9.187500000000000e+00	 9.999938779999999e+00
0	 9.562500000000002e+00	 9.250000000000000e+00	 9.999857916923066e+00
0	 9.562499999999998e+00	 9.312500000000000e+00	 9.999768856923058e+00
0	 9.562500000000000e+00	 9.374999999999998e+00	 9.999671599999978e+00
0	 9.624999999999998e+00	 8.750000000000000e+00	 9.999835692307695e+00
0	 9.624999999999998e+00	 8.812499999999998e+00	 9.999839513846140e+00
0	 9.625000000000000e+00	 8.875000000000000e+00	 9.999835729230766e+00
0	 9.625000000000000e+00	 8.937500000000000e+00	 9.999824338461559e+00
0	 9.624999999999996e+00	 8.999999999999998e+00	 9.999805341538453e+00
0	 9.624999999999998e+00	 9.062499999999998e+00	 9.999778738461538e+00
0	 9.625000000000000e+00	 9.125000000000000e+00	 9.999744529230753e+00
0	 9.625000000000000e+00	 9.187499999999998e+00	 9.999702713846156e+00
0	 9.625000000000000e+00	 9.250000000000000e+00	 9.999653292307691e+00
0	 9.625000000000000e+00	 9.312500000000000e+00	 9.999596264615370e+00
0	 9.624999999999998e+00	 9.375000000000002e+00	 9.999531630769230e+00
0	 9.687499999999998e+00	 8.750000000000000e+00	 9.999351923076929e+00
0	 9.687500000000000e+00	 8.812500000000002e+00	 9.999385915384643e+00
0	 9.687499999999998e+00	 8.874999999999998e+00	 9.999412892307706e+00
0	 9.687500000000000e+00	 8.937500000000000e+00	 9.999432853846161e+00
0	 9.687499999999998e+00	 8.999999999999998e+00	 9.999445800000004e+00
0	 9.687500000000000e+00	 9.062500000000000e+00	 9.999451730769236e+00
0	 9.687500000000000e+00	 9.124999999999998e+00	 9.999450646153845e+00
0	 9.687499999999998e+00	 9.187500000000000e+00	 9.999442546153842e+00
0	 9.687499999999998e+00	 9.250000000000000e+00	 9.999427430769225e+00
0	 9.687499999999998e+00	 9.312499999999996e+00	 9.999405299999998e+00
0	 9.687499999999998e+00	 9.375000000000000e+00	 9.999376153846123e+00
0	 9.749999999999998e+00	 8.750000000000000e+00	 9.998824000000020e+00
0	 9.749999999999996e+00	 8.812500000000000e+00	 9.998891027692302e+00
0	 9.749999999999998e+00	 8.874999999999998e+00	 9.998951630769225e+00
0	 9.749999999999996e+00	 8.937499999999998e+00	 9.999005809230761e+00
0	 9.750000000000000e+00	 9.000000000000000e+00	 9.999053563076913e+00
0	 9.749999999999998e+00	 9.062500000000000e+00	 9.999094892307697e+00
0	 9.749999999999998e+00	 9.125000000000000e+00	 9.999129796923077e+00
0	 9.749999999999998e+00	 9.187499999999998e+00	 9.999158276923058e+00
0	 9.749999999999998e+00	 9.249999999999998e+00	 9.999180332307677e+00
0	 9.749999999999996e+00	 9.312499999999998e+00	 9.999195963076902e+00
0	 9.749999999999998e+00	 9.375000000000000e+00	 9.999205169230748e+00
0	 9.812499999999998e+00	 8.750000000000000e+00	 9.998251923076937e+00
0	 9.812499999999998e+00	 8.812500000000000e+00	 9.998354850769255e+00
0	 9.812500000000002e+00	 8.875000000000002e+00	 9.998451944615399e+00
0	 9.812499999999998e+00	 8.937499999999998e+00	 9.998543204615398e+00
0	 9.812499999999996e+00	 8.999999999999996e+00	 9.998628630769254e+00
0	 9.812499999999998e+00	 9.062499999999998e+00	 9.998708223076921e+00
0	 9.812499999999998e+00	 9.124999999999998e+00	 9.998781981538455e+00
0	 9.812499999999998e+00	 9.187499999999996e+00	 9.998849906153838e+00
0	 9.812499999999998e+00	 9.249999999999996e+00	 9.998911996923084e+00
0	 9.812499999999998e+00	 9.312499999999998e+00	 9.998968253846163e+00
0	 9.812499999999998e+00	 9.375000000000000e+00	 9.999018676923038e+00
0	 9.874999999999996e+00	 8.750000000000000e+00	 9.997635692307700e+00
0	 9.874999999999998e+00	 8.812500000000000e+00	 9.997777384615384e+00
0	 9.875000000000000e+00	 8.875000000000002e+00	 9.997913833846169e+00
0	 9.874999999999998e+00	 8.937500000000000e+00	 9.998045039999990e+00
0	 9.875000000000000e+00	 9.000000000000000e+00	 9.998171003076942e+00
0	 9.874999999999996e+00	 9.062499999999998e+00	 9.998291723076962e+00
0	 9.874999999999998e+00	 9.124999999999998e+00	 9.998407199999999e+00
0	 9.874999999999998e+00	 9.187499999999998e+00	 9.998517433846168e+00
0	 9.874999999999996e+00	 9.249999999999998e+00	 9.998622424615387e+00
0	 9.874999999999998e+00	 9.312499999999996e+00	 9.998722172307691e+00
0	 9.874999999999996e+00	 9.375000000000000e+00	 9.998816676923081e+00
0	 9.937499999999998e+00	 8.750000000000000e+00	 9.996975307692296e+00
0	 9.937499999999998e+00	 8.812500000000000e+00	 9.997158629230780e+00
0	 9.937499999999998e+00	 8.875000000000000e+00	 9.997337298461529e+00
0	 9.937499999999998e+00	 8.937500000000000e+00	 9.997511315384621e+00
0	 9.937499999999998e+00	 9.000000000000000e+00	 9.997680679999988e+00
0	 9.937499999999996e+00	 9.062499999999998e+00	 9.997845392307692e+00
0	 9.937499999999998e+00	 9.125000000000000e+00	 9.998005452307691e+00
0	 9.937499999999998e+00	 9.187499999999998e+00	 9.998160860000011e+00
0	 9.937499999999998e+00	 9.250000000000000e+00	 9.998311615384623e+00
0	 9.937499999999998e+00	 9.312499999999998e+00	 9.998457718461541e+00
0	 9.937499999999998e+00	 9.375000000000000e+00	 9.998599169230754e+00
0	 1.000000000000000e+01	 8.750000000000000e+00	 9.996270769230765e+00
0	 1.000000000000000e+01	 8.812500000000002e+00	 9.996498584615372e+00
0	 1.000000000000000e+01	 8.875000000000000e+00	 9.996722338461568e+00
0	 1.000000000000000e+01	 8.937499999999998e+00	 9.996942030769251e+00
0	 1.000000000000000e+01	 9.000000000000000e+00	 9.997157661538491e+00
0	 1.000000000000000e+01	 9.062499999999998e+00	 9.997369230769243e+00
0	 9.999999999999998e+00	 9.124999999999998e+00	 9.997576738461518e+00
0	 1.000000000000000e+01	 9.187500000000000e+00	 9.997780184615364e+00
0	 1.000000000000000e+01	 9.249999999999998e+00	 9.997979569230784e+00
0	 1.000000000000000e+01	 9.312499999999998e+00	 9.998174892307700e+00
0	 1.000000000000000e+01	 9.375000000000000e+00	 9.998366153846156e+00
0	 9.375000000000000e+00	 9.375000000000000e+00	 9.999998461538450e+00
0	 9.375000000000000e+00	 9.437499999999998e+00	 1.000001973846151e+01
0	 9.374999999999998e+00	 9.500000000000000e+00	 1.000003372307691e+01
0	 9.374999999999998e+00	 9.562500000000000e+00	 1.000004041538462e+01
0	 9.375000000000002e+00	 9.625000000000000e+00	 1.000003981538463e+01
0	 9.375000000000000e+00	 9.687499999999998e+00	 1.000003192307693e+01
0	 9.375000000000000e+00	 9.749999999999998e+00	 1.000001673846154e+01
0	 9.375000000000000e+00	 9.812500000000000e+00	 9.999994261538514e+00
0	 9.375000000000002e+00	 9.875000000000000e+00	 9.999964492307708e+00
0	 9.375000000000000e+00	 9.937499999999998e+00	 9.999927430769247e+00
0	 9.375000000000000e+00	 1.000000000000000e+01	 9.999883076923107e+00
0	 9.437499999999998e+00	 9.375000000000000e+00	 9.999905015384602e+00
0	 9.437500000000002e+00	 9.437500000000000e+00	 9.999928026153839e+00
0	 9.437500000000002e+00	 9.500000000000000e+00	 9.999945193846139e+00
0	 9.437500000000002e+00	 9.562500000000000e+00	 9.999956518461529e+00
0	 9.437500000000000e+00	 9.624999999999998e+00	 9.999962000000021e+00
0	 9.437500000000002e+00	 9.687500000000004e+00	 9.999961638461551e+00
0	 9.437500000000000e+00	 9.750000000000000e+00	 9.999955433846139e+00
0	 9.437500000000000e+00	 9.812499999999998e+00	 9.999943386153877e+00
0	 9.437500000000000e+00	 9.874999999999998e+00	 9.999925495384636e+00
0	 9.437500000000004e+00	 9.937500000000000e+00	 9.999901761538460e+00
0	 9.437500000000002e+00	 1.000000000000000e+01	 9.999872184615358e+00
0	 9.500000000000000e+00	 9.374999999999998e+00	 9.999796061538449e+00
0	 9.500000000000000e+00	 9.437500000000002e+00	 9.999823993846142e+00
0	 9.500000000000002e+00	 9.500000000000000e+00	 9.999847532307694e+00
0	 9.500000000000000e+00	 9.562500000000000e+00	 9.999866676923059e+00
0	 9.499999999999998e+00	 9.624999999999998e+00	 9.999881427692321e+00
0	 9.499999999999998e+00	 9.687499999999996e+00	 9.999891784615393e+00
0	 9.500000000000002e+00	 9.750000000000002e+00	 9.999897747692302e+00
0	 9.500000000000002e+00	 9.812500000000002e+00	 9.999899316923100e+00
0	 9.500000000000004e+00	 9.875000000000000e+00	 9.999896492307691e+00
0	 9.500000000000000e+00	 9.937499999999996e+00	 9.999889273846197e+00
0	 9.500000000000000e+00	 1.000000000000000e+01	 9.999877661538441e+00
0	 9.562500000000000e+00	 9.374999999999998e+00	 9.999671599999978e+00
0	 9.562500000000000e+00	 9.437500000000000e+00	 9.999707641538429e+00
0	 9.562499999999998e+00	 9.500000000000002e+00	 9.999740738461522e+00
0	 9.562500000000002e+00	 9.562500000000002e+00	 9.999770890769213e+00
0	 9.562500000000000e+00	 9.625000000000002e+00	 9.999798098461541e+00
0	 9.562500000000000e+00	 9.687499999999998e+00	 9.999822361538474e+00
0	 9.562500000000002e+00	 9.750000000000002e+00	 9.999843679999998e+00
0	 9.562500000000000e+00	 9.812500000000000e+00	 9.999862053846183e+00
0	 9.562499999999998e+00	 9.874999999999996e+00	 9.999877483076931e+00
0	 9.562500000000000e+00	 9.937499999999996e+00	 9.999889967692326e+00
0	 9.562499999999998e+00	 9.999999999999998e+00	 9.999899507692293e+00
0	 9.624999999999998e+00	 9.375000000000002e+00	 9.999531630769230e+00
0	 9.624999999999998e+00	 9.437500000000000e+00	 9.999578969230747e+00
0	 9.624999999999998e+00	 9.499999999999998e+00	 9.999624812307687e+00
0	 9.625000000000002e+00	 9.562500000000000e+00	 9.999669159999973e+00
0	 9.625000000000000e+00	 9.625000000000000e+00	 9.999712012307683e+00
0	 9.625000000000000e+00	 9.687500000000002e+00	 9.999753369230769e+00
0	 9.624999999999998e+00	 9.750000000000000e+00	 9.999793230769198e+00
0	 9.625000000000000e+00	 9.812499999999998e+00	 9.999831596923061e+00
0	 9.624999999999998e+00	 9.874999999999996e+00	 9.999868467692306e+00
0	 9.625000000000000e+00	 9.937500000000000e+00	 9.999903843076948e+00
0	 9.625000000000000e+00	 1.000000000000000e+01	 9.999937723076965e+00
0	 9.687499999999998e+00	 9.375000000000000e+00	 9.999376153846123e+00
0	 9.687500000000000e+00	 9.437500000000002e+00	 9.999437976923078e+00
0	 9.687499999999996e+00	 9.499999999999998e+00	 9.999499753846116e+00
0	 9.687499999999996e+00	 9.562499999999998e+00	 9.999561484615400e+00
0	 9.687500000000002e+00	 9.625000000000000e+00	 9.999623169230761e+00
0	 9.687499999999998e+00	 9.687499999999998e+00	 9.999684807692306e+00
0	 9.687500000000000e+00	 9.749999999999998e+00	 9.999746399999999e+00
0	 9.687499999999998e+00	 9.812499999999998e+00	 9.999807946153883e+00
0	 9.687499999999996e+00	 9.874999999999996e+00	 9.999869446153866e+00
0	 9.687499999999998e+00	 9.937499999999996e+00	 9.999930899999995e+00
0	 9.687500000000000e+00	 1.000000000000000e+01	 9.999992307692366e+00
0	 9.749999999999998e+00	 9.375000000000000e+00	 9.999205169230748e+00
0	 9.750000000000000e+00	 9.437500000000000e+00	 9.999284664615352e+00
0	 9.750000000000002e+00	 9.500000000000002e+00	 9.999365563076923e+00
0	 9.749999999999996e+00	 9.562500000000000e+00	 9.999447864615371e+00
0	 9.749999999999998e+00	 9.624999999999996e+00	 9.999531569230744e+00
0	 9.750000000000000e+00	 9.687500000000000e+00	 9.999616676923088e+00
0	 9.750000000000000e+00	 9.749999999999998e+00	 9.999703187692292e+00
0	 9.750000000000000e+00	 9.812500000000000e+00	 9.999791101538463e+00
0	 9.749999999999998e+00	 9.875000000000000e+00	 9.999880418461537e+00
0	 9.750000000000000e+00	 9.937499999999998e+00	 9.999971138461531e+00
0	 9.749999999999998e+00	 1.000000000000000e+01	 1.000006326153842e+01
0	 9.812499999999998e+00	 9.375000000000000e+00	 9.999018676923038e+00
0	 9.812499999999996e+00	 9.437499999999998e+00	 9.999119032307684e+00
0	 9.812500000000000e+00	 9.500000000000002e+00	 9.999222239999991e+00
0	 9.812499999999998e+00	 9.562499999999998e+00	 9.999328299999966e+00
0	 9.812499999999996e+00	 9.624999999999998e+00	 9.999437212307670e+00
0	 9.812499999999998e+00	 9.687499999999998e+00	 9.999548976923052e+00
0	 9.812500000000000e+00	 9.750000000000002e+00	 9.999663593846137e+00
0	 9.812499999999996e+00	 9.812499999999996e+00	 9.999781063076902e+00
0	 9.812500000000000e+00	 9.874999999999996e+00	 9.999901384615338e+00
0	 9.812499999999998e+00	 9.937500000000000e+00	 1.000002455846151e+01
0	 9.812499999999998e+00	 1.000000000000000e+01	 1.000015058461542e+01
0	 9.874999999999996e+00	 9.375000000000000e+00	 9.998816676923081e+00
0	 9.874999999999996e+00	 9.437499999999998e+00	 9.998941080000005e+00
0	 9.874999999999998e+00	 9.500000000000000e+00	 9.999069784615395e+00
0	 9.875000000000000e+00	 9.562500000000000e+00	 9.999202790769207e+00
0	 9.874999999999998e+00	 9.624999999999998e+00	 9.999340098461538e+00
0	 9.874999999999998e+00	 9.687499999999998e+00	 9.999481707692278e+00
0	 9.874999999999998e+00	 9.750000000000000e+00	 9.999627618461467e+00
0	 9.874999999999998e+00	 9.812499999999998e+00	 9.999777830769235e+00
0	 9.874999999999996e+00	 9.874999999999996e+00	 9.999932344615345e+00
0	 9.874999999999998e+00	 9.937499999999998e+00	 1.000009116000003e+01
0	 9.874999999999998e+00	 1.000000000000000e+01	 1.000025427692305e+01
0	 9.937499999999998e+00	 9.375000000000000e+00	 9.998599169230754e+00
0	 9.937500000000000e+00	 9.437500000000000e+00	 9.998750807692309e+00
0	 9.937499999999996e+00	 9.500000000000000e+00	 9.998908196923086e+00
0	 9.937499999999998e+00	 9.562500000000000e+00	 9.999071336923071e+00
0	 9.937500000000000e+00	 9.625000000000000e+00	 9.999240227692313e+00
0	 9.937499999999996e+00	 9.687499999999998e+00	 9.999414869230741e+00
0	 9.937499999999998e+00	 9.750000000000000e+00	 9.999595261538424e+00
0	 9.937499999999996e+00	 9.812500000000000e+00	 9.999781404615351e+00
0	 9.937499999999998e+00	 9.874999999999998e+00	 9.999973298461542e+00
0	 9.937499999999998e+00	 9.937499999999998e+00	 1.000017094307686e+01
0	 9.937499999999998e+00	 1.000000000000000e+01	 1.000037433846154e+01
0	 1.000000000000000e+01	 9.375000000000000e+00	 9.998366153846156e+00
0	 1.000000000000000e+01	 9.437500000000002e+00	 9.998548215384632e+00
0	 1.000000000000000e+01	 9.500000000000000e+00	 9.998737476923045e+00
0	 9.999999999999998e+00	 9.562499999999998e+00	 9.998933938461519e+00
0	 1.000000000000000e+01	 9.625000000000000e+00	 9.999137599999997e+00
0	 1.000000000000000e+01	 9.687500000000000e+00	 9.999348461538464e+00
0	 1.000000000000000e+01	 9.749999999999998e+00	 9.999566523076911e+00
0	 1.000000000000000e+01	 9.812499999999998e+00	 9.999791784615336e+00
0	 1.000000000000000e+01	 9.874999999999998e+00	 1.000002424615383e+01
0	 1.000000000000000e+01	 9.937499999999998e+00	 1.000026390769234e+01
0	 1.000000000000000e+01	 1.000000000000000e+01	 1.000051076923073e+01
1	 1.000000000000000e+00	 0.000000000000000e+00	 3.074025270902312e+01
1	 9.998426119581704e-01	 1.774123198744521e-02	 3.065767801098048e+01
1	 9.993659466402713e-01	 3.560484089073321e-02	 3.051664283811854e+01
1	 9.985633751090949e-01	 5.358344789747921e-02	 3.031679845810777e+01
1	 9.974284469032259e-01	 7.166933308134273e-02	 3.005791122962455e+01
1	 9.959549086084808e-01	 8.985443791194039e-02	 2.973986751778798e+01
1	 9.941367226520526e-01	 1.081303688402291e-01	 2.936267831946347e+01
1	 9.919680862544972e-01	 1.264884019976692e-01	 2.892648355696349e+01
1	 9.894434504702301e-01	 1.449194890435835e-01	 2.843155599858020e+01
1	 9.865575392429453e-01	 1.634142641907508e-01	 2.787830476465139e+01
1	 9.833053683983746e-01	 1.819630524344169e-01	 2.726727837852745e+01
1	 1.006250000000000e+00	 0.000000000000000e+00	 3.033081966948463e+01
1	 1.006091628282923e+00	 1.785211468644953e-02	 3.025501733105248e+01
1	 1.005611983806831e+00	 3.582737114460879e-02	 3.012114985159474e+01
1	 1.004804396203657e+00	 5.391834444451910e-02	 2.992881817330111e+01
1	 1.003662374696605e+00	 7.211726641030378e-02	 2.967773604761798e+01
1	 1.002179626787651e+00	 9.041602814576799e-02	 2.936773505939438e+01
1	 1.000350077169160e+00	 1.088061836421904e-01	 2.899876937661022e+01
1	 9.981678867943173e-01	 1.272789545068561e-01	 2.857092018434146e+01
1	 9.956274720366283e-01	 1.458252358469619e-01	 2.808439976140549e+01
1	 9.927235238644350e-01	 1.644356033391194e-01	 2.753955515827827e+01
1	 9.894510269523811e-01	 1.831003215097977e-01	 2.693687143541026e+01
1	 1.012500000000000e+00	 0.000000000000000e+00	 2.993762256221770e+01
1	 1.012340644607676e+00	 1.796299738563339e-02	 2.986821376763105e+01
1	 1.011858020973390e+00	 3.604990139881666e-02	 2.974113219987157e+01
1	 1.011045417298220e+00	 5.425324099201662e-02	 2.955592899537121e+01
1	 1.009896302489984e+00	 7.256519973981979e-02	 2.931226584074204e+01
1	 1.008404344966822e+00	 9.097761838021910e-02	 2.900992010486933e+01
1	 1.006563431686269e+00	 1.094819984448144e-01	 2.864878971217157e+01
1	 1.004367687334138e+00	 1.280695070167151e-01	 2.822889771580354e+01
1	 1.001811493603026e+00	 1.467309826509912e-01	 2.775039652925325e+01
1	 9.988895084859244e-01	 1.654569424880867e-01	 2.721357177481392e+01
1	 9.955966855063876e-01	 1.842375905856931e-01	 2.661884570781811e+01
1	 1.018750000000000e+00	 0.000000000000000e+00	 2.956036256640549e+01
1	 1.018589660932429e+00	 1.807388008499677e-02	 2.949697547196521e+01
1	 1.018104058139949e+00	 3.627243165335684e-02	 2.937630506085171e+01
1	 1.017286438392782e+00	 5.458813753997182e-02	 2.919785317389683e+01
1	 1.016130230283362e+00	 7.301313306989071e-02	 2.896122996529140e+01
1	 1.014629063145992e+00	 9.153920861529373e-02	 2.866615914187727e+01
1	 1.012776786203376e+00	 1.101578132481012e-01	 2.831248295906264e+01
1	 1.010567487873958e+00	 1.288600595272462e-01	 2.790016693225551e+01
1	 1.007995515169424e+00	 1.476367294556714e-01	 2.742930422227273e+01
1	 1.005055493107414e+00	 1.664782816376525e-01	 2.690011965309409e+01
1	 1.001742344060394e+00	 1.853748596621032e-01	 2.631297332060955e+01
1	 1.025000000000000e+00	 0.000000000000000e+00	 2.919874814954272e+01
1	 1.024838677257182e+00	 1.818476278453967e-02	 2.914101771356526e+01
1	 1.024350095306509e+00	 3.649496190822931e-02	 2.902639055931757e+01
1	 1.023527459487344e+00	 5.492303408838464e-02	 2.885431973285687e+01
1	 1.022364158076741e+00	 7.346106640051656e-02	 2.862436437862652e+01
1	 1.020853781325163e+00	 9.210079885099187e-02	 2.833619508521250e+01
1	 1.018990140720484e+00	 1.108336280520508e-01	 2.798959900305400e+01
1	 1.016767288413778e+00	 1.296506120384494e-01	 2.758448469311761e+01
1	 1.014179536735822e+00	 1.485424762610025e-01	 2.712088666500004e+01
1	 1.011221477728904e+00	 1.674996207878169e-01	 2.659896956271484e+01
1	 1.007888002614401e+00	 1.865121287390279e-01	 2.601903195657371e+01
1	 1.031250000000000e+00	 0.000000000000000e+00	 2.885249484657776e+01
1	 1.031087693581935e+00	 1.829564548426209e-02	 2.880006266449800e+01
1	 1.030596132473068e+00	 3.671749216343408e-02	 2.869111755641973e+01
1	 1.029768480581907e+00	 5.525793063725515e-02	 2.852506426534531e+01
1	 1.028598085870120e+00	 7.390899973169740e-02	 2.830141143914100e+01
1	 1.027078499504333e+00	 9.266238908731353e-02	 2.801977708203777e+01
1	 1.025203495237593e+00	 1.115094428566631e-01	 2.767989379329145e+01
1	 1.022967088953599e+00	 1.304411645503246e-01	 2.728161375212726e+01
1	 1.020363558302220e+00	 1.494482230669844e-01	 2.682491340743729e+01
1	 1.017387462350393e+00	 1.685209599385800e-01	 2.630989783037326e+01
1	 1.014033661168407e+00	 1.876493978164674e-01	 2.573680468800835e+01
1	 1.037500000000000e+00	 0.000000000000000e+00	 2.852132504703752e+01
1	 1.037336709906687e+00	 1.840652818416404e-02	 2.847383919147834e+01
1	 1.036842169639627e+00	 3.694002241897115e-02	 2.837022144677449e+01
1	 1.036009501676469e+00	 5.559282718658328e-02	 2.820982873570632e+01
1	 1.034832013663499e+00	 7.435693306343316e-02	 2.799211971345963e+01
1	 1.033303217683504e+00	 9.322397932425873e-02	 2.771666032416221e+01
1	 1.031416849754700e+00	 1.121852576619383e-01	 2.738312915966417e+01
1	 1.029166889493419e+00	 1.312317170628720e-01	 2.699132257979928e+01
1	 1.026547579868618e+00	 1.503539698736173e-01	 2.654115955259853e+01
1	 1.023553446971883e+00	 1.695422990899415e-01	 2.603268617248485e+01
1	 1.020179319722414e+00	 1.887866668944215e-01	 2.546607981438502e+01
1	 1.043750000000000e+00	 0.000000000000000e+00	 2.820496778980065e+01
1	 1.043585726231441e+00	 1.851741088424553e-02	 2.816208265543091e+01
1	 1.043088206806186e+00	 3.716255267484050e-02	 2.806344396285085e+01
1	 1.042250522771031e+00	 5.592772373636909e-02	 2.790836128877833e+01
1	 1.041065941456877e+00	 7.480486639572383e-02	 2.769624379056310e+01
1	 1.039527935862674e+00	 9.378556956182743e-02	 2.742660586706395e+01
1	 1.037630204271808e+00	 1.128610724678761e-01	 2.709907263673452e+01
1	 1.035366690033239e+00	 1.320222695760914e-01	 2.671338519226495e+01
1	 1.032731601435016e+00	 1.512597166809010e-01	 2.626940559025233e+01
1	 1.029719431593373e+00	 1.705636382419017e-01	 2.576712153381460e+01
1	 1.026324978276420e+00	 1.899239359728902e-01	 2.520665070584700e+01
1	 1.050000000000000e+00	 0.000000000000000e+00	 2.790315856520010e+01
1	 1.049834742556193e+00	 1.862829358450653e-02	 2.786453471820987e+01
1	 1.049334243972746e+00	 3.738508293104217e-02	 2.777053298634415e+01
1	 1.048491543865594e+00	 5.626262028661252e-02	 2.762041606595075e+01
1	 1.047299869250256e+00	 7.525279972856946e-02	 2.741354410255129e+01
1	 1.045752654041845e+00	 9.434715980001965e-02	 2.714938045537624e+01
1	 1.043843558788917e+00	 1.135368872744768e-01	 2.682749729395613e+01
1	 1.041566490573060e+00	 1.328128220899829e-01	 2.644758098622380e+01
1	 1.038915623001414e+00	 1.521654634888356e-01	 2.600943723660134e+01
1	 1.035885416214862e+00	 1.715849773944605e-01	 2.551299593187152e+01
1	 1.032470636830427e+00	 1.910612050518737e-01	 2.495831565229646e+01
1	 1.056250000000000e+00	 0.000000000000000e+00	 2.761563912415184e+01
1	 1.056083758880946e+00	 1.873917628494705e-02	 2.758094315618103e+01
1	 1.055580281139305e+00	 3.760761318757611e-02	 2.749124236624636e+01
1	 1.054732564960156e+00	 5.659751683731362e-02	 2.734575302775132e+01
1	 1.053533797043635e+00	 7.570073306197002e-02	 2.714378675176987e+01
1	 1.051977372221015e+00	 9.490875003883539e-02	 2.688475635456918e+01
1	 1.050056913306024e+00	 1.142127020817402e-01	 2.656818157191978e+01
1	 1.047766291112880e+00	 1.336033746045466e-01	 2.619369457975536e+01
1	 1.045099644567812e+00	 1.530712102974211e-01	 2.576104527965420e+01
1	 1.042051400836352e+00	 1.726063165476179e-01	 2.527010630682731e+01
1	 1.038616295384433e+00	 1.921984741313718e-01	 2.472087771783926e+01
1	 1.062500000000000e+00	 0.000000000000000e+00	 2.734215729401994e+01
1	 1.062332775205699e+00	 1.885005898556710e-02	 2.731106168038312e+01
1	 1.061826318305864e+00	 3.783014344444238e-02	 2.722533174333728e+01
1	 1.060973586054718e+00	 5.693241338847238e-02	 2.708413778269480e+01
1	 1.059767724837014e+00	 7.614866639592552e-02	 2.688674334403848e+01
1	 1.058202090400186e+00	 9.547034027827464e-02	 2.663251118857221e+01
1	 1.056270267823132e+00	 1.148885168896664e-01	 2.632090912437868e+01
1	 1.053966091652700e+00	 1.343939271197823e-01	 2.595151565874903e+01
1	 1.051283666134210e+00	 1.539769571066575e-01	 2.552402543005486e+01
1	 1.048217385457842e+00	 1.736276557013739e-01	 2.503825437673219e+01
1	 1.044761953938440e+00	 1.933357432113846e-01	 2.449414460036747e+01
1	 9.833053683983746e-01	 1.819630524344169e-01	 2.726727837852745e+01
1	 9.796822644935034e-01	 2.005558790047255e-01	 2.675185154125370e+01
1	 9.756838834365029e-01	 2.191824800562895e-01	 2.617646780935251e+01
1	 9.713062287906588e-01	 2.378323146029681e-01	 2.554193229283583e+01
1	 9.665456696731551e-01	 2.564945776994924e-01	 2.484920458937551e+01
1	 9.613989581557346e-01	 2.751582148638952e-01	 2.409939980308751e+01
1	 9.558632460744549e-01	 2.938119377279353e-01	 2.329378888563267e+01
1	 9.499361011546518e-01	 3.124442408950446e-01	 2.243379827030993e+01
1	 9.436155223571460e-01	 3.310434199775670e-01	 2.152100877390590e+01
1	 9.368999543523497e-01	 3.495975907771368e-01	 2.055715374560074e+01
1	 9.297883010302649e-01	 3.680947095640363e-01	 1.954411644718165e+01
1	 9.894510269523811e-01	 1.831003215097977e-01	 2.693687143541026e+01
1	 9.858052786483755e-01	 2.018093532467337e-01	 2.642993414536342e+01
1	 9.817819077099568e-01	 2.205523705554095e-01	 2.586337112546825e+01
1	 9.773768927226789e-01	 2.393187665685201e-01	 2.523801140185379e+01
1	 9.725865801107072e-01	 2.580976688098880e-01	 2.455483899801862e+01
1	 9.674077016462317e-01	 2.768779537070331e-01	 2.381499388108883e+01
1	 9.618373913642839e-01	 2.956482623394122e-01	 2.301977222435066e+01
1	 9.558732017884812e-01	 3.143970174017273e-01	 2.217062595692357e+01
1	 9.495131193731493e-01	 3.331124413538996e-01	 2.126916157558696e+01
1	 9.427555790678886e-01	 3.517825757213222e-01	 2.031713819836618e+01
1	 9.355994779120133e-01	 3.703953015009669e-01	 1.931646484449758e+01
1	 9.955966855063876e-01	 1.842375905856931e-01	 2.661884570781811e+01
1	 9.919282928032525e-01	 2.030628274891613e-01	 2.612047841748794e+01
1	 9.878799319834289e-01	 2.219222610548627e-01	 2.556281621094453e+01
1	 9.834475566547416e-01	 2.408052185343287e-01	 2.494671188873563e+01
1	 9.786274905483354e-01	 2.597007599204731e-01	 2.427317375596245e+01
1	 9.734164451368482e-01	 2.785976925503035e-01	 2.354336649641152e+01
1	 9.678115366542858e-01	 2.974845869509739e-01	 2.275861135694348e+01
1	 9.618103024225481e-01	 3.163497939084582e-01	 2.192038561319500e+01
1	 9.554107163894633e-01	 3.351814627302534e-01	 2.103032129185155e+01
1	 9.486112037838231e-01	 3.539675606655133e-01	 2.009020312940312e+01
1	 9.414106547942513e-01	 3.726958934378975e-01	 1.910196575236711e+01
1	 1.001742344060394e+00	 1.853748596621032e-01	 2.631297332060955e+01
1	 9.980513069581337e-01	 2.043163017320081e-01	 2.582325500176573e+01
1	 9.939779562569206e-01	 2.232921515546490e-01	 2.527457223566247e+01
1	 9.895182205868467e-01	 2.422916705003936e-01	 2.466780145817568e+01
1	 9.846684009860402e-01	 2.613038510312478e-01	 2.400397511443964e+01
1	 9.794251886275848e-01	 2.803174313937059e-01	 2.328428246124487e+01
1	 9.737856819444611e-01	 2.993209115626206e-01	 2.251006967370083e+01
1	 9.677474030568511e-01	 3.183025704152370e-01	 2.168283922740563e+01
1	 9.613083134060882e-01	 3.372504841066287e-01	 2.080424853162637e+01
1	 9.544668285001519e-01	 3.561525456097096e-01	 1.987610779370498e+01
1	 9.472218316769787e-01	 3.749964853748279e-01	 1.890037710003556e+01
1	 1.007888002614401e+00	 1.865121287390279e-01	 2.601903195657371e+01
1	 1.004174321113020e+00	 2.055697759752741e-01	 2.553804013638105e+01
1	 1.000075980530431e+00	 2.246620420547685e-01	 2.499841399950628e+01
1	 9.955888845189947e-01	 2.437781224667150e-01	 2.440105348060773e+01
1	 9.907093114238209e-01	 2.629069421422117e-01	 2.374701502587256e+01
1	 9.854339321184411e-01	 2.820371702372406e-01	 2.303751232406675e+01
1	 9.797598272348097e-01	 3.011572361743525e-01	 2.227391633588114e+01
1	 9.736845036913911e-01	 3.202553469220638e-01	 2.145775459300071e+01
1	 9.672059104230238e-01	 3.393195054830256e-01	 2.059070974264493e+01
1	 9.603224532168761e-01	 3.583375305539113e-01	 1.967461731809474e+01
1	 9.530330085601965e-01	 3.772970773117587e-01	 1.871146272091294e+01
1	 1.014033661168407e+00	 1.876493978164674e-01	 2.573680468800835e+01
1	 1.010297335267911e+00	 2.068232502189596e-01	 2.526461548404729e+01
1	 1.006174004803960e+00	 2.260319325552212e-01	 2.473412176175743e+01
1	 1.001659548451185e+00	 2.452645744332930e-01	 2.414624682051596e+01
1	 9.967502218616779e-01	 2.645100332533653e-01	 2.350207097110980e+01
1	 9.914426756094166e-01	 2.837569090809074e-01	 2.280283219581625e+01
1	 9.857339725253311e-01	 3.029935607861695e-01	 2.204992610083391e+01
1	 9.796216043261683e-01	 3.222081234289389e-01	 2.124490513267582e+01
1	 9.731035074402697e-01	 3.413885268594439e-01	 2.038947703451397e+01
1	 9.661780779339952e-01	 3.605225154981184e-01	 1.948550252329066e+01
1	 9.588441854439034e-01	 3.795976692486892e-01	 1.853499217366042e+01
1	 1.020179319722414e+00	 1.887866668944215e-01	 2.546607981438502e+01
1	 1.016420349422807e+00	 2.080767244630642e-01	 2.500276796861768e+01
1	 1.012272029077508e+00	 2.274018230560070e-01	 2.448148107665467e+01
1	 1.007730212383418e+00	 2.467510264001274e-01	 2.390316567095147e+01
1	 1.002791132299611e+00	 2.661131243647080e-01	 2.326892579290764e+01
1	 9.974514191005122e-01	 2.854766479247067e-01	 2.258002358234992e+01
1	 9.917081178160261e-01	 3.048298853980715e-01	 2.183787915344251e+01
1	 9.855587049611820e-01	 3.241608999358619e-01	 2.104406972882066e+01
1	 9.790011044578272e-01	 3.434575482358837e-01	 2.020032800817532e+01
1	 9.720337026515093e-01	 3.627075004423307e-01	 1.930853975240349e+01
1	 9.646553623281005e-01	 3.818982611856199e-01	 1.837074056974243e+01
1	 1.026324978276420e+00	 1.899239359728902e-01	 2.520665070584700e+01
1	 1.022543363577707e+00	 2.093301987075882e-01	 2.475228961756604e+01
1	 1.018370053351074e+00	 2.287717135571260e-01	 2.424028263486250e+01
1	 1.013800876315694e+00	 2.482374783672184e-01	 2.367159939399436e+01
1	 1.008832042737620e+00	 2.677162154762403e-01	 2.304736753539370e+01
1	 1.003460162591727e+00	 2.871963867686380e-01	 2.236887322291713e+01
1	 9.976822631068937e-01	 3.066662100100584e-01	 2.163756094362326e+01
1	 9.914958055964327e-01	 3.261136764428331e-01	 2.085503256005525e+01
1	 9.848987014756948e-01	 3.455265696123449e-01	 2.002304559149450e+01
1	 9.778893273694182e-01	 3.648924853865486e-01	 1.914351070559557e+01
1	 9.704665392127867e-01	 3.841988531225504e-01	 1.821848840717546e+01
1	 1.032470636830427e+00	 1.910612050518737e-01	 2.495831565229646e+01
1	 1.028666377732612e+00	 2.105836729525316e-01	 2.451297741009330e+01
1	 1.024468077624660e+00	 2.301416040585781e-01	 2.401032211060126e+01
1	 1.019871540248012e+00	 2.497239303345657e-01	 2.345134236691354e+01
1	 1.014872953175706e+00	 2.693193065879620e-01	 2.283718928926418e+01
1	 1.009468906083062e+00	 2.889161256127015e-01	 2.216917293440443e+01
1	 1.003656408397935e+00	 3.085025346221304e-01	 2.144876202962799e+01
1	 9.974329062319199e-01	 3.280664529498522e-01	 2.067758294360421e+01
1	 9.907962984938736e-01	 3.475955909888275e-01	 1.985741788072129e+01
1	 9.837449520877224e-01	 3.670774703307719e-01	 1.899020228064440e+01
1	 9.762777160979634e-01	 3.864994450594811e-01	 1.807802141021373e+01
1	 1.038616295384433e+00	 1.921984741313718e-01	 2.472087771783926e+01
1	 1.034789391887522e+00	 2.118371471978942e-01	 2.428463313062673e+01
1	 1.030566101898264e+00	 2.315114945603634e-01	 2.379140001420477e+01
1	 1.025942204180373e+00	 2.512103823021695e-01	 2.324219383378842e+01
1	 1.020913863613867e+00	 2.709223976998731e-01	 2.263818904247722e+01
1	 1.015477649574516e+00	 2.906358644568973e-01	 2.198071946110955e+01
1	 1.009630553689149e+00	 3.103388592342876e-01	 2.127127792690997e+01
1	 1.003370006867644e+00	 3.300192294569194e-01	 2.051151518326690e+01
1	 9.966938955123628e-01	 3.496646123653316e-01	 1.970323798757907e+01
1	 9.896005768064216e-01	 3.692624552750004e-01	 1.884840641916728e+01
1	 9.820888929836292e-01	 3.888000369964116e-01	 1.794913037472690e+01
1	 1.044761953938440e+00	 1.933357432113846e-01	 2.449414460036747e+01
1	 1.040912406042436e+00	 2.130906214436760e-01	 2.406706322748963e+01
1	 1.036664126171887e+00	 2.328813850624820e-01	 2.358332154988157e+01
1	 1.032012868112777e+00	 2.526968342700299e-01	 2.304395776236732e+01
1	 1.026954774052105e+00	 2.725254888119737e-01	 2.245016953621555e+01
1	 1.021486393066090e+00	 2.923556033012253e-01	 2.180331432981752e+01
1	 1.015604698980536e+00	 3.121751838465296e-01	 2.110490896232365e+01
1	 1.009307107503605e+00	 3.319720059640348e-01	 2.035662842275335e+01
1	 1.002591492531163e+00	 3.517336337418573e-01	 1.956030389175076e+01
1	 9.954562015255156e-01	 3.714474402192345e-01	 1.871791995827300e+01
1	 9.879000698697850e-01	 3.911006289333422e-01	 1.783161101903490e+01
1	 9.297883010302649e-01	 3.680947095640363e-01	 1.954411644718165e+01
1	 9.222799379563009e-01	 3.865225944039564e-01	 1.869997198988594e+01
1	 9.143747236862125e-01	 4.048689474701951e-01	 1.783578304369777e+01
1	 9.060730098564396e-01	 4.231213782743761e-01	 1.695781823446570e+01
1	 8.973756499704220e-01	 4.412674277413337e-01	 1.607245861020687e+01
1	 8.882840068073012e-01	 4.592945930433334e-01	 1.518617378767993e+01
1	 8.787999583847406e-01	 4.771903531042267e-01	 1.430549707574529e+01
1	 8.689259024143142e-01	 4.949421946770166e-01	 1.343699971184813e+01
1	 8.586647591951593e-01	 5.125376388923134e-01	 1.258726435937600e+01
1	 8.480199728994641e-01	 5.299642681697645e-01	 1.176285802390342e+01
1	 8.369955112118155e-01	 5.472097533798151e-01	 1.097030455532592e+01
1	 9.355994779120133e-01	 3.703953015009669e-01	 1.931646484449758e+01
1	 9.280441875683143e-01	 3.889383606213795e-01	 1.850379197362257e+01
1	 9.200895657086207e-01	 4.073993783943855e-01	 1.766972821026906e+01
1	 9.117359661671008e-01	 4.257658868910541e-01	 1.682025400082050e+01
1	 9.029842477815930e-01	 4.440253491669986e-01	 1.596146249983975e+01
1	 8.938357818486097e-01	 4.621651842518100e-01	 1.509953690174285e+01
1	 8.842924581234251e-01	 4.801727928126123e-01	 1.424072677244016e+01
1	 8.743566893033125e-01	 4.980355833946136e-01	 1.339132350998870e+01
1	 8.640314139392792e-01	 5.157409991354902e-01	 1.255763507434085e+01
1	 8.533200977295901e-01	 5.332765448450113e-01	 1.174596013625294e+01
1	 8.422267331568615e-01	 5.506298143365619e-01	 1.096256180418372e+01
1	 9.414106547942513e-01	 3.726958934378975e-01	 1.910196575236711e+01
1	 9.338084371809028e-01	 3.913541268388074e-01	 1.831926069260466e+01
1	 9.258044077316606e-01	 4.099298093185950e-01	 1.751383398513137e+01
1	 9.173989224784216e-01	 4.284103955077757e-01	 1.669138079745917e+01
1	 9.085928455934221e-01	 4.467832705927415e-01	 1.585770929587522e+01
1	 8.993875568905439e-01	 4.650357754604085e-01	 1.501871915218200e+01
1	 8.897849578626738e-01	 4.831552325211740e-01	 1.418037907336764e+01
1	 8.797874761927823e-01	 5.011289721124513e-01	 1.334870347600560e+01
1	 8.693980686837476e-01	 5.189443593789822e-01	 1.252972843787288e+01
1	 8.586202225599109e-01	 5.365888215206579e-01	 1.172948706896042e+01
1	 8.474579551019182e-01	 5.540498752938035e-01	 1.095398445259452e+01
1	 9.472218316769787e-01	 3.749964853748279e-01	 1.890037710003556e+01
1	 9.395726867940670e-01	 3.937698930562402e-01	 1.814616375292623e+01
1	 9.315192497553330e-01	 4.124602402428239e-01	 1.736791336322074e+01
1	 9.230618787904028e-01	 4.310549041245410e-01	 1.657103866676814e+01
1	 9.142014434059086e-01	 4.495411920185621e-01	 1.576106569328818e+01
1	 9.049393319331042e-01	 4.679063666691290e-01	 1.494361343833103e+01
1	 8.952774576024867e-01	 4.861376722299120e-01	 1.412437258090876e+01
1	 8.852182630827238e-01	 5.042223608305295e-01	 1.330908336141698e+01
1	 8.747647234285647e-01	 5.221477196227892e-01	 1.250351274479255e+01
1	 8.639203473904270e-01	 5.399010981967042e-01	 1.171343100325663e+01
1	 8.526891770469852e-01	 5.574699362515393e-01	 1.094458786131384e+01
1	 9.530330085601965e-01	 3.772970773117587e-01	 1.871146272091294e+01
1	 9.453369364078064e-01	 3.961856592736778e-01	 1.798429198980068e+01
1	 9.372340917796379e-01	 4.149906711670723e-01	 1.723178390057213e+01
1	 9.287248351030430e-01	 4.336994127413499e-01	 1.645907155253842e+01
1	 9.198100412190532e-01	 4.522991134444608e-01	 1.567140163839584e+01
1	 9.104911069762908e-01	 4.707769578779718e-01	 1.487411527173482e+01
1	 9.007699573428634e-01	 4.891201119388264e-01	 1.407262788275259e+01
1	 8.906490499731375e-01	 5.073157495488487e-01	 1.327240828965553e+01
1	 8.801313781737309e-01	 5.253510798669113e-01	 1.247895706321703e+01
1	 8.692204722211382e-01	 5.432133748731504e-01	 1.169778431107336e+01
1	 8.579203989920631e-01	 5.608899972097702e-01	 1.093438701644513e+01
1	 9.588441854439034e-01	 3.795976692486892e-01	 1.853499217366042e+01
1	 9.511011860221213e-01	 3.986014254911200e-01	 1.783344130910322e+01
1	 9.429489338045741e-01	 4.175211020913396e-01	 1.710526757610450e+01
1	 9.343877914163432e-01	 4.363439213582025e-01	 1.635532718174230e+01
1	 9.254186390328555e-01	 4.550570348704370e-01	 1.558859023033189e+01
1	 9.160428820201031e-01	 4.736475490869366e-01	 1.481012269699145e+01
1	 9.062624570838042e-01	 4.921025516479170e-01	 1.402506749173451e+01
1	 8.960798368640226e-01	 5.104091382674083e-01	 1.323862471449442e+01
1	 8.854980329192457e-01	 5.285544401113488e-01	 1.245603121112724e+01
1	 8.745205970520447e-01	 5.465256515499963e-01	 1.168253954926571e+01
1	 8.631516209371515e-01	 5.643100581684956e-01	 1.092339654079222e+01
1	 9.646553623281005e-01	 3.818982611856199e-01	 1.837074056974243e+01
1	 9.568654356370115e-01	 4.010171917085674e-01	 1.769341253463978e+01
1	 9.486637758301428e-01	 4.200515330156266e-01	 1.698819065840144e+01
1	 9.400507477303035e-01	 4.389884299750987e-01	 1.625965695058144e+01
1	 9.310272368473159e-01	 4.578149562964914e-01	 1.551250762608185e+01
1	 9.215946570645412e-01	 4.765181402960232e-01	 1.475153621545581e+01
1	 9.117549568253088e-01	 4.950849913571840e-01	 1.398161578785076e+01
1	 9.015106237553792e-01	 5.135025269862085e-01	 1.320768037997757e+01
1	 8.908646876651094e-01	 5.317578003561013e-01	 1.243470573378154e+01
1	 8.798207218831460e-01	 5.498379282272423e-01	 1.166768945404156e+01
1	 8.683828428822506e-01	 5.677301191277159e-01	 1.091163070480252e+01
1	 9.704665392127867e-01	 3.841988531225504e-01	 1.821848840717546e+01
1	 9.626296852524775e-01	 4.034329579260195e-01	 1.756401126090366e+01
1	 9.543786178563443e-01	 4.225819639399329e-01	 1.688038357727812e+01
1	 9.457137040449235e-01	 4.416329385920386e-01	 1.617191581462975e+01
1	 9.366358346624336e-01	 4.605728777226235e-01	 1.544303294893135e+01
1	 9.271464321096058e-01	 4.793887315052321e-01	 1.469825871168359e+01
1	 9.172474565673776e-01	 4.980674310666272e-01	 1.394219896235485e+01
1	 9.069414106472073e-01	 5.165959157052494e-01	 1.317952428178820e+01
1	 8.962313424113213e-01	 5.349611606011688e-01	 1.241495188194122e+01
1	 8.851208467144427e-01	 5.531502049048878e-01	 1.165322693559176e+01
1	 8.736140648273601e-01	 5.711501800874307e-01	 1.089910343711603e+01
1	 9.762777160979634e-01	 3.864994450594811e-01	 1.807802141021373e+01
1	 9.683939348685184e-01	 4.058487241434762e-01	 1.744504771109071e+01
1	 9.600934598831773e-01	 4.251123948642585e-01	 1.678168079993497e+01
1	 9.513766603602029e-01	 4.442774472090221e-01	 1.609196218289995e+01
1	 9.422444324782094e-01	 4.633307991488334e-01	 1.538004820018256e+01
1	 9.326982071552958e-01	 4.822593227145630e-01	 1.465019538250288e+01
1	 9.227399563100104e-01	 5.010498707762467e-01	 1.390674496385133e+01
1	 9.123721975395075e-01	 5.196893044245311e-01	 1.315410662999825e+01
1	 9.015979971578829e-01	 5.381645208465515e-01	 1.239674159087279e+01
1	 8.904209715459344e-01	 5.564624815829333e-01	 1.163914507291206e+01
1	 8.788452867724807e-01	 5.745702410476402e-01	 1.088582833473872e+01
1	 9.820888929836292e-01	 3.888000369964116e-01	 1.794913037472690e+01
1	 9.741581844851348e-01	 4.082644903609378e-01	 1.733633660015552e+01
1	 9.658083019106427e-01	 4.276428257886032e-01	 1.669192071150860e+01
1	 9.570396166761425e-01	 4.469219558260492e-01	 1.601965781567061e+01
1	 9.478530302946430e-01	 4.660887205751214e-01	 1.532343817400634e+01
1	 9.382499822016122e-01	 4.851299139240159e-01	 1.460725366860387e+01
1	 9.282324560532075e-01	 5.040323104860426e-01	 1.387518344630328e+01
1	 9.178029844322793e-01	 5.227826931440532e-01	 1.313137881313911e+01
1	 9.069646519047925e-01	 5.413678810922494e-01	 1.238004746009731e+01
1	 8.957210963776212e-01	 5.597747582613785e-01	 1.162543710880909e+01
1	 8.840765087176115e-01	 5.779903020083444e-01	 1.087181867285385e+01
1	 9.879000698697850e-01	 3.911006289333422e-01	 1.783161101903490e+01
1	 9.799224341023264e-01	 4.106802565784042e-01	 1.723769700270094e+01
1	 9.715231439387405e-01	 4.301732567129675e-01	 1.661094549983829e+01
1	 9.627025729927416e-01	 4.495664644431200e-01	 1.595486772591962e+01
1	 9.534616281117343e-01	 4.688466420014871e-01	 1.527309037529893e+01
1	 9.438017572485543e-01	 4.880005051335908e-01	 1.456934318854264e+01
1	 9.337249557969681e-01	 5.070147501960147e-01	 1.384744571887428e+01
1	 9.232337713255229e-01	 5.258760818638161e-01	 1.311129336354144e+01
1	 9.123313066520513e-01	 5.445712413382624e-01	 1.236484273385255e+01
1	 9.010212212095033e-01	 5.630870349402235e-01	 1.161209644508221e+01
1	 8.893077306627528e-01	 5.814103629695434e-01	 1.085708741428751e+01
1	 8.369955112118155e-01	 5.472097533798151e-01	 1.097030455532592e+01
1	 8.255958632931958e-01	 5.642618811384013e-01	 1.001964981999526e+01
1	 8.138260360506314e-01	 5.811085811170719e-01	 9.013642526581254e+00
1	 8.016915487021741e-01	 5.977379532449607e-01	 7.952712199134440e+00
1	 7.891984256370140e-01	 6.141382946773878e-01	 6.837480607340712e+00
1	 7.763531875817183e-01	 6.302981264093361e-01	 5.668762492745089e+00
1	 7.631628410930560e-01	 6.462062194093811e-01	 4.447565302075151e+00
1	 7.496348664083717e-01	 6.618516201518141e-01	 3.175087914867668e+00
1	 7.357772036946522e-01	 6.772236754270479e-01	 1.852718360778803e+00
1	 7.215982377473873e-01	 6.923120563137026e-01	 4.820305302837662e-01
1	 7.071067811999999e-01	 7.071067811999999e-01	-9.352201091328918e-01
1	 8.422267331568615e-01	 5.506298143365619e-01	 1.096256180418372e+01
1	 8.307558374391992e-01	 5.677885178926072e-01	 9.991729331524370e+00
1	 8.189124487766651e-01	 5.847405097453250e-01	 8.966317854237854e+00
1	 8.067021208824219e-01	 6.014738154484074e-01	 7.886829032077506e+00
1	 7.941309157980921e-01	 6.179766590143967e-01	 6.753954217667732e+00
1	 7.812053950047828e-01	 6.342374896944958e-01	 5.568574882834278e+00
1	 7.679326088502425e-01	 6.502450082758343e-01	 4.331762064055440e+00
1	 7.543200843232992e-01	 6.659881927731690e-01	 3.044774816271146e+00
1	 7.403758112169828e-01	 6.814563233943530e-01	 1.709057672363417e+00
1	 7.261082267317559e-01	 6.966390066622472e-01	 3.262371138376112e-01
1	 7.115261985800000e-01	 7.115261985800000e-01	-1.101882933508964e+00
1	 8.474579551019182e-01	 5.540498752938035e-01	 1.095398445259452e+01
1	 8.359158115850330e-01	 5.713151546473932e-01	 9.963253525536631e+00
1	 8.239988615023875e-01	 5.883724383742136e-01	 8.918704205726296e+00
1	 8.117126930622570e-01	 6.052096776525153e-01	 7.820909709507502e+00
1	 7.990634059586957e-01	 6.218150233520632e-01	 6.670630423350680e+00
1	 7.860576024273511e-01	 6.381768529802788e-01	 5.468814032525060e+00
1	 7.727023766069515e-01	 6.542837971428469e-01	 4.216594680787160e+00
1	 7.590053022378079e-01	 6.701247653949884e-01	 2.915291152327759e+00
1	 7.449744187389942e-01	 6.856889713619976e-01	 1.566404075224895e+00
1	 7.306182157159447e-01	 7.009659570109767e-01	 1.716121537307016e-01
1	 7.159456159599997e-01	 7.159456159599997e-01	-1.267232555143136e+00
1	 8.526891770469852e-01	 5.574699362515393e-01	 1.094458786131384e+01
1	 8.410757857306971e-01	 5.748417914027592e-01	 9.934232622610043e+00
1	 8.290852742277991e-01	 5.920043670037379e-01	 8.870806899634488e+00
1	 8.167232652416798e-01	 6.089455398572853e-01	 7.754954896869792e+00
1	 8.039958961188250e-01	 6.256533876903869e-01	 6.587505495644820e+00
1	 7.909098098494234e-01	 6.421162162666851e-01	 5.369472087349339e+00
1	 7.774721443631831e-01	 6.583225860104184e-01	 4.102051449422691e+00
1	 7.636905201518980e-01	 6.742613380172727e-01	 2.786621657368212e+00
1	 7.495730262606862e-01	 6.899216193299823e-01	 1.424739033938770e+00
1	 7.351282046999533e-01	 7.052929073598913e-01	 1.813414462662033e-02
1	 7.203650333400000e-01	 7.203650333400000e-01	-1.431293143418274e+00
1	 8.579203989920631e-01	 5.608899972097702e-01	 1.093438701644513e+01
1	 8.462357598761909e-01	 5.783684281587049e-01	 9.904676594039870e+00
1	 8.341716869528994e-01	 5.956362956338981e-01	 8.822631124828828e+00
1	 8.217338374206899e-01	 6.126814020627164e-01	 7.688965243379498e+00
1	 8.089283862784800e-01	 6.294917520293684e-01	 6.504575796751576e+00
1	 7.957620172709999e-01	 6.460555795537147e-01	 5.270541384410842e+00
1	 7.822419121189371e-01	 6.623613748785490e-01	 3.988120952549954e+00
1	 7.683757380655698e-01	 6.783979106400215e-01	 2.658751438055744e+00
1	 7.541716337820585e-01	 6.941542672983068e-01	 1.284044465162228e+00
1	 7.396381936837823e-01	 7.096198577089906e-01	-1.342178942911816e-01
1	 7.247844507200000e-01	 7.247844507200000e-01	-1.594088278219729e+00
1	 8.631516209371515e-01	 5.643100581684956e-01	 1.092339654079222e+01
1	 8.513957340215149e-01	 5.818950649152308e-01	 9.874595169392943e+00
1	 8.392580996776892e-01	 5.992682242646935e-01	 8.774181944385070e+00
1	 8.267444095992872e-01	 6.164172642688088e-01	 7.622941382513055e+00
1	 8.138608764376605e-01	 6.333301163690070e-01	 6.421837777060246e+00
1	 8.006142246920805e-01	 6.499949428413678e-01	 5.172014446580396e+00
1	 7.870116798742137e-01	 6.664001637472385e-01	 3.874792049542701e+00
1	 7.730609559788225e-01	 6.825344832632347e-01	 2.531665962104974e+00
1	 7.587702413031117e-01	 6.983869152669711e-01	 1.144302723937900e+00
1	 7.441481826674313e-01	 7.139468080582752e-01	-2.854644352125519e-01
1	 7.292038681000002e-01	 7.292038681000002e-01	-1.755640967799562e+00
1	 8.683828428822506e-01	 5.677301191277159e-01	 1.091163070480252e+01
1	 8.565557081666693e-01	 5.854217016723366e-01	 9.843997843789097e+00
1	 8.443445124021676e-01	 6.029001528961246e-01	 8.725464299377041e+00
1	 8.317549817774722e-01	 6.201531264755632e-01	 7.556883932482185e+00
1	 8.187933665963669e-01	 6.371684807093032e-01	 6.339287972493590e+00
1	 8.054664321126650e-01	 6.539343061296441e-01	 5.073883976901076e+00
1	 7.917814476290129e-01	 6.704389526164871e-01	 3.762053868223292e+00
1	 7.777461738916568e-01	 6.866710558869126e-01	 2.405351047405924e+00
1	 7.633688488238451e-01	 7.026195632359751e-01	 1.005496590487397e+00
1	 7.486581716509005e-01	 7.182737584077447e-01	-4.356254570220233e-01
1	 7.336232854799999e-01	 7.336232854799998e-01	-1.915973665993726e+00
1	 8.736140648273601e-01	 5.711501800874307e-01	 1.089910343711603e+01
1	 8.617156823116540e-01	 5.889483384300224e-01	 9.812893884919729e+00
1	 8.494309251263351e-01	 6.065320815281915e-01	 8.676483012529484e+00
1	 8.367655539552444e-01	 6.238889886829790e-01	 7.490793496691623e+00
1	 8.237258567545990e-01	 6.410068450502567e-01	 6.256923001946095e+00
1	 8.103186395327536e-01	 6.578736694185437e-01	 4.976142853193550e+00
1	 7.965512153833346e-01	 6.744777414862947e-01	 3.649895796825773e+00
1	 7.824313918040724e-01	 6.908076285110547e-01	 2.279792851539528e+00
1	 7.679674563442594e-01	 7.068522112053192e-01	 8.676092574827947e-01
1	 7.531681606341897e-01	 7.226007087573990e-01	-5.847204600676950e-01
1	 7.380427028600000e-01	 7.380427028600000e-01	-2.075108288821693e+00
1	 8.788452867724807e-01	 5.745702410476402e-01	 1.088582833473872e+01
1	 8.668756564564685e-01	 5.924749751882881e-01	 9.781292339817131e+00
1	 8.545173378501915e-01	 6.101640101608941e-01	 8.627242791740649e+00
1	 8.417761261326044e-01	 6.276248508910564e-01	 7.424670664179017e+00
1	 8.286583469123571e-01	 6.448452093918678e-01	 6.174739564814807e+00
1	 8.151708469523458e-01	 6.618130327080666e-01	 4.878784122853458e+00
1	 8.013209831371788e-01	 6.785165303566613e-01	 3.538307476245127e+00
1	 7.871166097160693e-01	 6.949442011356617e-01	 2.154977861668763e+00
1	 7.725660638643541e-01	 7.110848591750031e-01	 7.306243177700651e-01
1	 7.576781496172991e-01	 7.269276591072382e-01	-7.327684804036845e-01
1	 7.424621202400000e-01	 7.424621202400000e-01	-2.233066230492951e+00
1	 8.840765087176115e-01	 5.779903020083444e-01	 1.087181867285385e+01
1	 8.720356306011133e-01	 5.960016119471337e-01	 9.749202041382906e+00
1	 8.596037505737371e-01	 6.137959387942320e-01	 8.577748233478633e+00
1	 8.467866983095513e-01	 6.313607130997950e-01	 7.358516010040463e+00
1	 8.335908370696403e-01	 6.486835737341364e-01	 6.092734438617454e+00
1	 8.200230543714424e-01	 6.657523959982129e-01	 4.781800997835482e+00
1	 8.060907508905455e-01	 6.825553192275871e-01	 3.427278792562472e+00
1	 7.918018276276478e-01	 6.990807737607330e-01	 2.030892884786314e+00
1	 7.771646713841293e-01	 7.153175071450268e-01	 5.945257525306844e-01
1	 7.621881386002289e-01	 7.312546094572627e-01	-8.797881035264257e-01
1	 7.468815376200000e-01	 7.468815376200000e-01	-2.389868378845063e+00
1	 8.893077306627528e-01	 5.814103629695434e-01	 1.085708741428751e+01
1	 8.771956047455883e-01	 5.995282487065593e-01	 9.716631614685344e+00
1	 8.646901632969713e-01	 6.174278674282060e-01	 8.528003826060161e+00
1	 8.517972704860859e-01	 6.350965753091955e-01	 7.292330095840077e+00
1	 8.385233272264496e-01	 6.525219380770625e-01	 6.010904476695016e+00
1	 8.248752617900429e-01	 6.696917592889825e-01	 4.685186849813292e+00
1	 8.108605186434350e-01	 6.865941080990718e-01	 3.316799869833357e+00
1	 7.964870455388072e-01	 7.032173463862690e-01	 1.907525038309390e+00
1	 7.817632789035854e-01	 7.195501551153906e-01	 4.592979198594453e-01
1	 7.666981275829784e-01	 7.355815598074721e-01	-1.025797477626731e+00
1	 7.513009550000000e-01	 7.513009549999999e-01	-2.545535130236917e+00
1	 7.071067811999999e-01	 7.071067811999999e-01	-9.352201091328918e-01
1	 6.923120563137025e-01	 7.215982377473872e-01	-2.621196667787284e+00
1	 6.772236754270478e-01	 7.357772036946522e-01	-4.255662095076743e+00
1	 6.618516201518141e-01	 7.496348664083716e-01	-5.832852356885772e+00
1	 6.462062194093813e-01	 7.631628410930559e-01	-7.347201561809397e+00
1	 6.302981264093362e-01	 7.763531875817182e-01	-8.793362955464262e+00
1	 6.141382946773881e-01	 7.891984256370137e-01	-1.016622869731134e+01
1	 5.977379532449610e-01	 8.016915487021739e-01	-1.146094829897110e+01
1	 5.811085811170723e-01	 8.138260360506312e-01	-1.267294561490795e+01
1	 5.642618811384018e-01	 8.255958632931955e-01	-1.379793428921562e+01
1	 5.472097533798151e-01	 8.369955112118155e-01	-1.483193157592225e+01
1	 7.115261985800000e-01	 7.115261985800000e-01	-1.101882933508964e+00
1	 6.966390066622471e-01	 7.261082267317559e-01	-2.780938976251679e+00
1	 6.814563233943529e-01	 7.403758112169828e-01	-4.410429700425432e+00
1	 6.659881927731691e-01	 7.543200843232991e-01	-5.984751071279891e+00
1	 6.502450082758344e-01	 7.679326088502423e-01	-7.498489702703535e+00
1	 6.342374896944960e-01	 7.812053950047827e-01	-8.946443228260300e+00
1	 6.179766590143968e-01	 7.941309157980918e-01	-1.032363949981825e+01
1	 6.014738154484077e-01	 8.067021208824215e-01	-1.162535449636764e+01
1	 5.847405097453254e-01	 8.189124487766647e-01	-1.284712883707194e+01
1	 5.677885178926079e-01	 8.307558374391990e-01	-1.398478280501806e+01
1	 5.506298143365619e-01	 8.422267331568615e-01	-1.503442980131642e+01
1	 7.159456159599997e-01	 7.159456159599997e-01	-1.267232555143136e+00
1	 7.009659570109767e-01	 7.306182157159445e-01	-2.940293493052386e+00
1	 6.856889713619977e-01	 7.449744187389944e-01	-4.565711943253353e+00
1	 6.701247653949886e-01	 7.590053022378079e-01	-6.138042152829997e+00
1	 6.542837971428470e-01	 7.727023766069515e-01	-7.652021590294608e+00
1	 6.381768529802789e-01	 7.860576024273510e-01	-9.102590699027353e+00
1	 6.218150233520633e-01	 7.990634059586953e-01	-1.048491152301227e+01
1	 6.052096776525157e-01	 8.117126930622568e-01	-1.179438509104812e+01
1	 5.883724383742140e-01	 8.239988615023872e-01	-1.302666745663408e+01
1	 5.713151546473938e-01	 8.359158115850326e-01	-1.417768430268776e+01
1	 5.540498752938033e-01	 8.474579551019181e-01	-1.524364403297300e+01
1	 7.203650333400000e-01	 7.203650333400000e-01	-1.431293143418274e+00
1	 7.052929073598913e-01	 7.351282046999533e-01	-3.099267355464833e+00
1	 6.899216193299822e-01	 7.495730262606861e-01	-4.721499351710673e+00
1	 6.742613380172728e-01	 7.636905201518981e-01	-6.292699975151081e+00
1	 6.583225860104187e-01	 7.774721443631831e-01	-7.807755928634961e+00
1	 6.421162162666852e-01	 7.909098098494235e-01	-9.261748916273181e+00
1	 6.256533876903871e-01	 8.039958961188245e-01	-1.064997370148614e+01
1	 6.089455398572854e-01	 8.167232652416794e-01	-1.196795497141113e+01
1	 5.920043670037384e-01	 8.290852742277985e-01	-1.321146290800309e+01
1	 5.748417914027597e-01	 8.410757857306965e-01	-1.437652737765536e+01
1	 5.574699362515394e-01	 8.526891770469853e-01	-1.545945066342028e+01
1	 7.247844507200000e-01	 7.247844507200000e-01	-1.594088278219729e+00
1	 7.096198577089906e-01	 7.396381936837823e-01	-3.257867526685095e+00
1	 6.941542672983066e-01	 7.541716337820585e-01	-4.877782684967823e+00
1	 6.783979106400215e-01	 7.683757380655698e-01	-6.448699536892454e+00
1	 6.623613748785490e-01	 7.822419121189368e-01	-7.965652428995537e+00
1	 6.460555795537150e-01	 7.957620172709999e-01	-9.423862805371591e+00
1	 6.294917520293684e-01	 8.089283862784796e-01	-1.081875670313543e+01
1	 6.126814020627168e-01	 8.217338374206893e-01	-1.214598110174714e+01
1	 5.956362956338984e-01	 8.341716869528992e-01	-1.340141902962609e+01
1	 5.783684281587055e-01	 8.462357598761905e-01	-1.458120334253636e+01
1	 5.608899972097702e-01	 8.579203989920631e-01	-1.568172910000168e+01
1	 7.292038681000002e-01	 7.292038681000002e-01	-1.755640967799562e+00
1	 7.139468080582750e-01	 7.441481826674315e-01	-3.416100801104102e+00
1	 6.983869152669708e-01	 7.587702413031114e-01	-5.034552926215111e+00
1	 6.825344832632350e-01	 7.730609559788224e-01	-6.606016442796191e+00
1	 6.664001637472386e-01	 7.870116798742136e-01	-8.125671779344202e+00
1	 6.499949428413679e-01	 8.006142246920803e-01	-9.588878626838300e+00
1	 6.333301163690073e-01	 8.138608764376605e-01	-1.099119287663408e+01
1	 6.164172642688094e-01	 8.267444095992870e-01	-1.232838245933396e+01
1	 5.992682242646939e-01	 8.392580996776887e-01	-1.359644199113954e+01
1	 5.818950649152315e-01	 8.513957340215146e-01	-1.479160614479108e+01
1	 5.643100581684956e-01	 8.631516209371515e-01	-1.591036167351953e+01
1	 7.336232854799999e-01	 7.336232854799998e-01	-1.915973665993726e+00
1	 7.182737584077443e-01	 7.486581716509005e-01	-3.573973809392784e+00
1	 7.026195632359752e-01	 7.633688488238450e-01	-5.191801275915566e+00
1	 6.866710558869124e-01	 7.777461738916568e-01	-6.764626885442268e+00
1	 6.704389526164871e-01	 7.917814476290129e-01	-8.287775614926236e+00
1	 6.539343061296442e-01	 8.054664321126649e-01	-9.756743936116930e+00
1	 6.371684807093034e-01	 8.187933665963669e-01	-1.116721620080806e+01
1	 6.201531264755638e-01	 8.317549817774720e-01	-1.251507997380370e+01
1	 6.029001528961251e-01	 8.443445124021672e-01	-1.379644022315189e+01
1	 5.854217016723370e-01	 8.565557081666688e-01	-1.500763228736286e+01
1	 5.677301191277159e-01	 8.683828428822506e-01	-1.614523355017720e+01
1	 7.380427028600000e-01	 7.380427028600000e-01	-2.075108288821693e+00
1	 7.226007087573990e-01	 7.531681606341899e-01	-3.731493023403443e+00
1	 7.068522112053193e-01	 7.679674563442594e-01	-5.349519145299444e+00
1	 6.908076285110548e-01	 7.824313918040724e-01	-6.924507627648124e+00
1	 6.744777414862950e-01	 7.965512153833347e-01	-8.451926489903308e+00
1	 6.578736694185440e-01	 8.103186395327532e-01	-9.927407544807636e+00
1	 6.410068450502572e-01	 8.237258567545989e-01	-1.134676223582951e+01
1	 6.238889886829795e-01	 8.367655539552442e-01	-1.270599646868966e+01
1	 6.065320815281922e-01	 8.494309251263347e-01	-1.400132434955055e+01
1	 5.889483384300228e-01	 8.617156823116533e-01	-1.522918075216617e+01
1	 5.711501800874307e-01	 8.736140648273601e-01	-1.638623264668822e+01
1	 7.424621202400000e-01	 7.424621202400000e-01	-2.233066230492951e+00
1	 7.269276591072382e-01	 7.576781496172993e-01	-3.888664760896522e+00
1	 7.110848591750030e-01	 7.725660638643540e-01	-5.507698150091828e+00
1	 6.949442011356618e-01	 7.871166097160693e-01	-7.085635985497908e+00
1	 6.785165303566618e-01	 8.013209831371789e-01	-8.618087850005210e+00
1	 6.618130327080668e-01	 8.151708469523457e-01	-1.010081948328244e+01
1	 6.448452093918681e-01	 8.286583469123566e-01	-1.152976807615114e+01
1	 6.276248508910567e-01	 8.417761261326038e-01	-1.290105660505989e+01
1	 6.101640101608945e-01	 8.545173378501912e-01	-1.421100712222547e+01
1	 5.924749751882885e-01	 8.668756564564680e-01	-1.545615292630729e+01
1	 5.745702410476402e-01	 8.788452867724807e-01	-1.663324954841563e+01
1	 7.468815376200000e-01	 7.468815376200000e-01	-2.389868378845063e+00
1	 7.312546094572628e-01	 7.621881386002289e-01	-4.045495190099995e+00
1	 7.153175071450267e-01	 7.771646713841294e-01	-5.666330104462031e+00
1	 6.990807737607332e-01	 7.918018276276478e-01	-7.247989811972719e+00
1	 6.825553192275873e-01	 8.060907508905454e-01	-8.786224006150881e+00
1	 6.657523959982131e-01	 8.200230543714422e-01	-1.027693096462615e+01
1	 6.486835737341368e-01	 8.335908370696401e-01	-1.171617230511546e+01
1	 6.313607130997955e-01	 8.467866983095510e-01	-1.310018682715264e+01
1	 6.137959387942328e-01	 8.596037505737367e-01	-1.442540335811033e+01
1	 5.960016119471342e-01	 8.720356306011128e-01	-1.568845253092609e+01
1	 5.779903020083443e-01	 8.840765087176113e-01	-1.688617743041734e+01
1	 7.513009550000000e-01	 7.513009549999999e-01	-2.545535130236917e+00
1	 7.355815598074721e-01	 7.666981275829785e-01	-4.201990334106688e+00
1	 7.195501551153904e-01	 7.817632789035854e-01	-5.825407015187145e+00
1	 7.032173463862691e-01	 7.964870455388074e-01	-7.411547481160262e+00
1	 6.865941080990721e-01	 8.108605186434350e-01	-8.956300109003010e+00
1	 6.696917592889826e-01	 8.248752617900426e-01	-1.045569434985137e+01
1	 6.525219380770629e-01	 8.385233272264494e-01	-1.190591495116217e+01
1	 6.350965753091958e-01	 8.517972704860857e-01	-1.330331530992926e+01
1	 6.174278674282064e-01	 8.646901632969710e-01	-1.464442987844648e+01
1	 5.995282487065600e-01	 8.771956047455878e-01	-1.592598555254635e+01
1	 5.814103629695434e-01	 8.893077306627528e-01	-1.714491198127951e+01
1	 5.472097533798151e-01	 8.369955112118155e-01	-1.483193157592225e+01
1	 5.299642681697644e-01	 8.480199728994640e-01	-1.568282731599676e+01
1	 5.125376388923134e-01	 8.586647591951594e-01	-1.651786534410230e+01
1	 4.949421946770166e-01	 8.689259024143141e-01	-1.733515578301918e+01
1	 4.771903531042269e-01	 8.787999583847403e-01	-1.813282928585264e+01
1	 4.592945930433337e-01	 8.882840068073012e-01	-1.890904407399960e+01
1	 4.412674277413340e-01	 8.973756499704219e-01	-1.966199277356885e+01
1	 4.231213782743766e-01	 9.060730098564395e-01	-2.038990900966802e+01
1	 4.048689474701956e-01	 9.143747236862123e-01	-2.109107372071252e+01
1	 3.865225944039570e-01	 9.222799379563006e-01	-2.176382115801163e+01
1	 3.680947095640363e-01	 9.297883010302649e-01	-2.240654453920579e+01
1	 5.506298143365619e-01	 8.422267331568615e-01	-1.503442980131642e+01
1	 5.332765448450111e-01	 8.533200977295902e-01	-1.591168927161381e+01
1	 5.157409991354902e-01	 8.640314139392792e-01	-1.677204573464403e+01
1	 4.980355833946137e-01	 8.743566893033123e-01	-1.761357992200993e+01
1	 4.801727928126124e-01	 8.842924581234249e-01	-1.843439788635286e+01
1	 4.621651842518101e-01	 8.938357818486095e-01	-1.923263802429803e+01
1	 4.440253491669989e-01	 9.029842477815928e-01	-2.000647787345286e+01
1	 4.257658868910544e-01	 9.117359661671006e-01	-2.075414064376755e+01
1	 4.073993783943859e-01	 9.200895657086202e-01	-2.147390144647729e+01
1	 3.889383606213802e-01	 9.280441875683141e-01	-2.216409318709933e+01
1	 3.703953015009669e-01	 9.355994779120133e-01	-2.282311209240153e+01
1	 5.540498752938033e-01	 8.474579551019181e-01	-1.524364403297300e+01
1	 5.365888215206579e-01	 8.586202225599111e-01	-1.614719310183763e+01
1	 5.189443593789823e-01	 8.693980686837477e-01	-1.703280996970469e+01
1	 5.011289721124513e-01	 8.797874761927823e-01	-1.789854596898514e+01
1	 4.831552325211743e-01	 8.897849578626740e-01	-1.874248250351485e+01
1	 4.650357754604088e-01	 8.993875568905439e-01	-1.956273805726019e+01
1	 4.467832705927418e-01	 9.085928455934219e-01	-2.035747495285179e+01
1	 4.284103955077760e-01	 9.173989224784213e-01	-2.112490582112784e+01
1	 4.099298093185955e-01	 9.258044077316606e-01	-2.186329974598135e+01
1	 3.913541268388080e-01	 9.338084371809026e-01	-2.257098805216956e+01
1	 3.726958934378975e-01	 9.414106547942513e-01	-2.324636970734258e+01
1	 5.574699362515394e-01	 8.526891770469853e-01	-1.545945066342028e+01
1	 5.399010981967040e-01	 8.639203473904269e-01	-1.638921656358079e+01
1	 5.221477196227893e-01	 8.747647234285648e-01	-1.730003687423352e+01
1	 5.042223608305298e-01	 8.852182630827238e-01	-1.818993352073097e+01
1	 4.861376722299123e-01	 8.952774576024866e-01	-1.905696321065026e+01
1	 4.679063666691294e-01	 9.049393319331043e-01	-1.989922442903214e+01
1	 4.495411920185625e-01	 9.142014434059086e-01	-2.071486415937908e+01
1	 4.310549041245414e-01	 9.230618787904022e-01	-2.150208429248395e+01
1	 4.124602402428245e-01	 9.315192497553326e-01	-2.225914768841748e+01
1	 3.937698930562408e-01	 9.395726867940669e-01	-2.298438386053246e+01
1	 3.749964853748279e-01	 9.472218316769787e-01	-2.367619425405464e+01
1	 5.608899972097702e-01	 8.579203989920631e-01	-1.568172910000168e+01
1	 5.432133748731502e-01	 8.692204722211383e-01	-1.663764039529398e+01
1	 5.253510798669114e-01	 8.801313781737310e-01	-1.757360822866909e+01
1	 5.073157495488487e-01	 8.906490499731374e-01	-1.848762511069707e+01
1	 4.891201119388265e-01	 9.007699573428634e-01	-1.937772300611345e+01
1	 4.707769578779721e-01	 9.104911069762904e-01	-2.024198031634126e+01
1	 4.522991134444609e-01	 9.198100412190532e-01	-2.107852856387819e+01
1	 4.336994127413503e-01	 9.287248351030428e-01	-2.188555874147947e+01
1	 4.149906711670727e-01	 9.372340917796372e-01	-2.266132729250953e+01
1	 3.961856592736783e-01	 9.453369364078062e-01	-2.340416169249082e+01
1	 3.772970773117587e-01	 9.530330085601965e-01	-2.411246560573494e+01
1	 5.643100581684956e-01	 8.631516209371515e-01	-1.591036167351953e+01
1	 5.465256515499962e-01	 8.745205970520447e-01	-1.689234822661714e+01
1	 5.285544401113488e-01	 8.854980329192457e-01	-1.785340867937759e+01
1	 5.104091382674085e-01	 8.960798368640223e-01	-1.879150612000748e+01
1	 4.921025516479172e-01	 9.062624570838039e-01	-1.970464772466127e+01
1	 4.736475490869367e-01	 9.160428820201030e-01	-2.059089172799523e+01
1	 4.550570348704374e-01	 9.254186390328553e-01	-2.144835407183879e+01
1	 4.363439213582029e-01	 9.343877914163433e-01	-2.227521469579176e+01
1	 4.175211020913402e-01	 9.429489338045740e-01	-2.306972343713387e+01
1	 3.986014254911208e-01	 9.511011860221212e-01	-2.383020551124896e+01
1	 3.795976692486892e-01	 9.588441854439034e-01	-2.455506654774435e+01
1	 5.677301191277159e-01	 8.683828428822506e-01	-1.614523355017720e+01
1	 5.498379282272422e-01	 8.798207218831462e-01	-1.715322649129438e+01
1	 5.317578003561012e-01	 8.908646876651093e-01	-1.813932565233139e+01
1	 5.135025269862087e-01	 9.015106237553792e-01	-1.910146469168537e+01
1	 4.950849913571840e-01	 9.117549568253086e-01	-2.003762595202041e+01
1	 4.765181402960235e-01	 9.215946570645411e-01	-2.094584741957621e+01
1	 4.578149562964917e-01	 9.310272368473156e-01	-2.182422933801521e+01
1	 4.389884299750991e-01	 9.400507477303033e-01	-2.267094044146653e+01
1	 4.200515330156271e-01	 9.486637758301429e-01	-2.348422377516954e+01
1	 4.010171917085680e-01	 9.568654356370115e-01	-2.426240207607928e+01
1	 3.818982611856199e-01	 9.646553623281005e-01	-2.500388268989397e+01
1	 5.711501800874307e-01	 8.736140648273601e-01	-1.638623264668822e+01
1	 5.531502049048879e-01	 8.851208467144429e-01	-1.742016434321948e+01
1	 5.349611606011688e-01	 8.962313424113215e-01	-1.843124926988629e+01
1	 5.165959157052494e-01	 9.069414106472075e-01	-1.941739164796369e+01
1	 4.980674310666273e-01	 9.172474565673775e-01	-2.037654894252201e+01
1	 4.793887315052324e-01	 9.271464321096057e-01	-2.130673881120326e+01
1	 4.605728777226239e-01	 9.366358346624336e-01	-2.220604568411391e+01
1	 4.416329385920389e-01	 9.457137040449229e-01	-2.307262694033283e+01
1	 4.225819639399335e-01	 9.543786178563439e-01	-2.390471865044527e+01
1	 4.034329579260200e-01	 9.626296852524771e-01	-2.470064085860638e+01
1	 3.841988531225504e-01	 9.704665392127868e-01	-2.545880238187894e+01
1	 5.745702410476402e-01	 8.788452867724807e-01	-1.663324954841563e+01
1	 5.564624815829332e-01	 8.904209715459345e-01	-1.769305357547925e+01
1	 5.381645208465516e-01	 9.015979971578829e-01	-1.872907227053199e+01
1	 5.196893044245311e-01	 9.123721975395076e-01	-1.973918041054615e+01
1	 5.010498707762467e-01	 9.227399563100103e-01	-2.072131053968061e+01
1	 4.822593227145632e-01	 9.326982071552959e-01	-2.167345990823114e+01
1	 4.633307991488338e-01	 9.422444324782093e-01	-2.259369701941973e+01
1	 4.442774472090224e-01	 9.513766603602027e-01	-2.348016775036723e+01
1	 4.251123948642589e-01	 9.600934598831772e-01	-2.433110101764988e+01
1	 4.058487241434767e-01	 9.683939348685179e-01	-2.514481396208289e+01
1	 3.864994450594811e-01	 9.762777160979634e-01	-2.591971663173576e+01
1	 5.779903020083443e-01	 8.840765087176113e-01	-1.688617743041734e+01
1	 5.597747582613782e-01	 8.957210963776211e-01	-1.797178854227041e+01
1	 5.413678810922493e-01	 9.069646519047926e-01	-1.903268993149220e+01
1	 5.227826931440533e-01	 9.178029844322793e-01	-2.006672692369804e+01
1	 5.040323104860427e-01	 9.282324560532074e-01	-2.107180709958953e+01
1	 4.851299139240161e-01	 9.382499822016119e-01	-2.204590722476328e+01
1	 4.660887205751217e-01	 9.478530302946427e-01	-2.298707976424047e+01
1	 4.469219558260496e-01	 9.570396166761423e-01	-2.389345894888361e+01
1	 4.276428257886037e-01	 9.658083019106425e-01	-2.476326636509018e+01
1	 4.082644903609384e-01	 9.741581844851345e-01	-2.559481604353073e+01
1	 3.888000369964116e-01	 9.820888929836291e-01	-2.638651902719208e+01
1	 5.814103629695434e-01	 8.893077306627528e-01	-1.714491198127951e+01
1	 5.630870349402235e-01	 9.010212212095035e-01	-1.825626608357282e+01
1	 5.445712413382625e-01	 9.123313066520512e-01	-1.934199999405530e+01
1	 5.258760818638161e-01	 9.232337713255228e-01	-2.039992958005631e+01
1	 5.070147501960148e-01	 9.337249557969681e-01	-2.142793741702262e+01
1	 4.880005051335911e-01	 9.438017572485543e-01	-2.242397970986547e+01
1	 4.688466420014874e-01	 9.534616281117341e-01	-2.338609277605274e+01
1	 4.495664644431204e-01	 9.627025729927415e-01	-2.431239905843550e+01
1	 4.301732567129680e-01	 9.715231439387403e-01	-2.520111264017084e+01
1	 4.106802565784049e-01	 9.799224341023263e-01	-2.605054423863052e+01
1	 3.911006289333422e-01	 9.879000698697851e-01	-2.685910565979368e+01
1	 3.680947095640363e-01	 9.297883010302649e-01	-2.240654453920579e+01
1	 3.495975907771368e-01	 9.368999543523497e-01	-2.291840231188199e+01
1	 3.310434199775671e-01	 9.436155223571460e-01	-2.338050003974833e+01
1	 3.124442408950447e-01	 9.499361011546517e-01	-2.379216587382042e+01
1	 2.938119377279355e-01	 9.558632460744549e-01	-2.415286189204685e+01
1	 2.751582148638955e-01	 9.613989581557346e-01	-2.446218273486176e+01
1	 2.564945776994927e-01	 9.665456696731550e-01	-2.471985368228736e+01
1	 2.378323146029685e-01	 9.713062287906586e-01	-2.492572820376274e+01
1	 2.191824800562900e-01	 9.756838834365028e-01	-2.507978501449850e+01
1	 2.005558790047262e-01	 9.796822644935033e-01	-2.518212467433014e+01
1	 1.819630524344169e-01	 9.833053683983746e-01	-2.523296576680118e+01
1	 3.703953015009669e-01	 9.355994779120133e-01	-2.282311209240153e+01
1	 3.517825757213222e-01	 9.427555790678886e-01	-2.335196400125314e+01
1	 3.331124413538995e-01	 9.495131193731492e-01	-2.382997499918573e+01
1	 3.143970174017274e-01	 9.558732017884815e-01	-2.425644242844474e+01
1	 2.956482623394123e-01	 9.618373913642837e-01	-2.463080268813558e+01
1	 2.768779537070334e-01	 9.674077016462316e-01	-2.495262979633505e+01
1	 2.580976688098884e-01	 9.725865801107073e-01	-2.522163337128300e+01
1	 2.393187665685206e-01	 9.773768927226786e-01	-2.543765606434565e+01
1	 2.205523705554100e-01	 9.817819077099564e-01	-2.560067048015263e+01
1	 2.018093532467343e-01	 9.858052786483757e-01	-2.571077562157923e+01
1	 1.831003215097977e-01	 9.894510269523811e-01	-2.576819289901899e+01
1	 3.726958934378975e-01	 9.414106547942513e-01	-2.324636970734258e+01
1	 3.539675606655132e-01	 9.486112037838230e-01	-2.379204871443273e+01
1	 3.351814627302535e-01	 9.554107163894632e-01	-2.428582046435404e+01
1	 3.163497939084583e-01	 9.618103024225479e-01	-2.472695157033297e+01
1	 2.974845869509741e-01	 9.678115366542858e-01	-2.511485279570300e+01
1	 2.785976925503037e-01	 9.734164451368483e-01	-2.544907754340030e+01
1	 2.597007599204735e-01	 9.786274905483355e-01	-2.572931974219645e+01
1	 2.408052185343291e-01	 9.834475566547415e-01	-2.595541116387693e+01
1	 2.219222610548632e-01	 9.878799319834292e-01	-2.612731820835883e+01
1	 2.030628274891619e-01	 9.919282928032523e-01	-2.624513819608534e+01
1	 1.842375905856931e-01	 9.955966855063876e-01	-2.630909520888338e+01
1	 3.749964853748279e-01	 9.472218316769787e-01	-2.367619425405464e+01
1	 3.561525456097095e-01	 9.544668285001520e-01	-2.423853639576521e+01
1	 3.372504841066288e-01	 9.613083134060882e-01	-2.474791918667968e+01
1	 3.183025704152371e-01	 9.677474030568510e-01	-2.520357858928778e+01
1	 2.993209115626208e-01	 9.737856819444610e-01	-2.560489977343168e+01
1	 2.803174313937061e-01	 9.794251886275849e-01	-2.595141553398875e+01
1	 2.613038510312481e-01	 9.846684009860400e-01	-2.624280408308823e+01
1	 2.422916705003941e-01	 9.895182205868467e-01	-2.647888625255927e+01
1	 2.232921515546495e-01	 9.939779562569203e-01	-2.665962214520303e+01
1	 2.043163017320087e-01	 9.980513069581338e-01	-2.678510727587262e+01
1	 1.853748596621032e-01	 1.001742344060394e+00	-2.685556824527008e+01
1	 3.772970773117587e-01	 9.530330085601965e-01	-2.411246560573494e+01
1	 3.583375305539111e-01	 9.603224532168760e-01	-2.469130991778151e+01
1	 3.393195054830256e-01	 9.672059104230238e-01	-2.521615677730972e+01
1	 3.202553469220640e-01	 9.736845036913914e-01	-2.568621157292224e+01
1	 3.011572361743527e-01	 9.797598272348095e-01	-2.610083392247578e+01
1	 2.820371702372408e-01	 9.854339321184409e-01	-2.645953601974253e+01
1	 2.629069421422121e-01	 9.907093114238208e-01	-2.676198033352982e+01
1	 2.437781224667155e-01	 9.955888845189943e-01	-2.700797669644249e+01
1	 2.246620420547690e-01	 1.000075980530430e+00	-2.719747882345240e+01
1	 2.055697759752747e-01	 1.004174321113020e+00	-2.733058030291598e+01
1	 1.865121287390279e-01	 1.007888002614401e+00	-2.740751010464323e+01
1	 3.795976692486892e-01	 9.588441854439034e-01	-2.455506654774435e+01
1	 3.605225154981182e-01	 9.661780779339951e-01	-2.515025499246718e+01
1	 3.413885268594440e-01	 9.731035074402699e-01	-2.569042162045495e+01
1	 3.222081234289389e-01	 9.796216043261682e-01	-2.617474132187638e+01
1	 3.029935607861696e-01	 9.857339725253310e-01	-2.660254820335488e+01
1	 2.837569090809076e-01	 9.914426756094166e-01	-2.697333386438406e+01
1	 2.645100332533655e-01	 9.967502218616775e-01	-2.728674500425605e+01
1	 2.452645744332935e-01	 1.001659548451185e+00	-2.754258039815782e+01
1	 2.260319325552216e-01	 1.006174004803959e+00	-2.774078728416999e+01
1	 2.068232502189601e-01	 1.010297335267911e+00	-2.788145720544426e+01
1	 1.876493978164674e-01	 1.014033661168407e+00	-2.796482135385456e+01
1	 3.818982611856199e-01	 9.646553623281005e-01	-2.500388268989397e+01
1	 3.627075004423307e-01	 9.720337026515093e-01	-2.561526008573561e+01
1	 3.434575482358837e-01	 9.790011044578270e-01	-2.617060478986341e+01
1	 3.241608999358621e-01	 9.855587049611820e-01	-2.666906126810100e+01
1	 3.048298853980715e-01	 9.917081178160257e-01	-2.710993815585333e+01
1	 2.854766479247068e-01	 9.974514191005122e-01	-2.749270646504025e+01
1	 2.661131243647083e-01	 1.002791132299611e+00	-2.781699709971750e+01
1	 2.467510264001279e-01	 1.007730212383418e+00	-2.808259772051412e+01
1	 2.274018230560075e-01	 1.012272029077507e+00	-2.828944900116599e+01
1	 2.080767244630648e-01	 1.016420349422806e+00	-2.843764032305628e+01
1	 1.887866668944215e-01	 1.020179319722414e+00	-2.852740495573725e+01
1	 3.841988531225504e-01	 9.704665392127868e-01	-2.545880238187894e+01
1	 3.648924853865486e-01	 9.778893273694184e-01	-2.608621633497528e+01
1	 3.455265696123448e-01	 9.848987014756949e-01	-2.665659996829443e+01
1	 3.261136764428331e-01	 9.914958055964326e-01	-2.716906739607417e+01
1	 3.066662100100585e-01	 9.976822631068936e-01	-2.762290182179751e+01
1	 2.871963867686382e-01	 1.003460162591727e+00	-2.801755367639203e+01
1	 2.677162154762406e-01	 1.008832042737620e+00	-2.835263804342108e+01
1	 2.482374783672188e-01	 1.013800876315694e+00	-2.862793141284007e+01
1	 2.287717135571265e-01	 1.018370053351074e+00	-2.884336780815818e+01
1	 2.093301987075888e-01	 1.022543363577707e+00	-2.899903433452130e+01
1	 1.899239359728903e-01	 1.026324978276420e+00	-2.909516619736732e+01
1	 3.864994450594811e-01	 9.762777160979634e-01	-2.591971663173576e+01
1	 3.670774703307718e-01	 9.837449520877224e-01	-2.656301746954152e+01
1	 3.475955909888275e-01	 9.907962984938734e-01	-2.714830336987151e+01
1	 3.280664529498523e-01	 9.974329062319202e-01	-2.767465816683518e+01
1	 3.085025346221306e-01	 1.003656408397935e+00	-2.814133967058842e+01
1	 2.889161256127017e-01	 1.009468906083062e+00	-2.854777773753350e+01
1	 2.693193065879623e-01	 1.014872953175705e+00	-2.889357160593265e+01
1	 2.497239303345661e-01	 1.019871540248013e+00	-2.917848653995672e+01
1	 2.301416040585787e-01	 1.024468077624660e+00	-2.940244982853828e+01
1	 2.105836729525321e-01	 1.028666377732611e+00	-2.956554618816204e+01
1	 1.910612050518737e-01	 1.032470636830427e+00	-2.966801262089031e+01
1	 3.888000369964116e-01	 9.820888929836291e-01	-2.638651902719208e+01
1	 3.692624552750004e-01	 9.896005768064214e-01	-2.704555973407212e+01
1	 3.496646123653316e-01	 9.966938955123624e-01	-2.764561366518762e+01
1	 3.300192294569195e-01	 1.003370006867644e+00	-2.818573444471140e+01
1	 3.103388592342877e-01	 1.009630553689149e+00	-2.866515452738167e+01
1	 2.906358644568975e-01	 1.015477649574516e+00	-2.908328320142536e+01
1	 2.709223976998735e-01	 1.020913863613867e+00	-2.943970383543792e+01
1	 2.512103823021700e-01	 1.025942204180373e+00	-2.973417041367060e+01
1	 2.315114945603640e-01	 1.030566101898264e+00	-2.996660340762993e+01
1	 2.118371471978947e-01	 1.034789391887521e+00	-3.013708503470770e+01
1	 1.921984741313718e-01	 1.038616295384433e+00	-3.024585395680378e+01
1	 3.911006289333422e-01	 9.879000698697851e-01	-2.685910565979368e+01
1	 3.714474402192345e-01	 9.954562015255159e-01	-2.753374181450644e+01
1	 3.517336337418573e-01	 1.002591492531163e+00	-2.814843190905733e+01
1	 3.319720059640349e-01	 1.009307107503605e+00	-2.870219942663507e+01
1	 3.121751838465298e-01	 1.015604698980536e+00	-2.919425150379939e+01
1	 2.923556033012256e-01	 1.021486393066090e+00	-2.962397686684209e+01
1	 2.725254888119741e-01	 1.026954774052105e+00	-2.999094299075393e+01
1	 2.526968342700303e-01	 1.032012868112777e+00	-3.029489252668905e+01
1	 2.328813850624824e-01	 1.036664126171887e+00	-3.053573904733713e+01
1	 2.130906214436766e-01	 1.040912406042435e+00	-3.071356216251832e+01
1	 1.933357432113846e-01	 1.044761953938440e+00	-3.082860205959424e+01
1	 1.819630524344169e-01	 9.833053683983746e-01	-2.523296576680118e+01
1	 1.634142641907509e-01	 9.865575392429453e-01	-2.523193293392945e+01
1	 1.449194890435836e-01	 9.894434504702300e-01	-2.519190934705996e+01
1	 1.264884019976694e-01	 9.919680862544974e-01	-2.511355697974142e+01
1	 1.081303688402294e-01	 9.941367226520524e-01	-2.499759855245191e+01
1	 8.985443791194073e-02	 9.959549086084808e-01	-2.484481334670794e+01
1	 7.166933308134309e-02	 9.974284469032259e-01	-2.465603296103768e+01
1	 5.358344789747966e-02	 9.985633751090948e-01	-2.443213703428630e+01
1	 3.560484089073371e-02	 9.993659466402712e-01	-2.417404896052541e+01
1	 1.774123198744578e-02	 9.998426119581703e-01	-2.388273161853328e+01
1	 0.000000000000000e+00	 1.000000000000000e+00	-2.355918313739271e+01
1	 1.831003215097977e-01	 9.894510269523811e-01	-2.576819289901899e+01
1	 1.644356033391195e-01	 9.927235238644349e-01	-2.577410176960263e+01
1	 1.458252358469621e-01	 9.956274720366282e-01	-2.573870536625855e+01
1	 1.272789545068563e-01	 9.981678867943174e-01	-2.566268214835794e+01
1	 1.088061836421906e-01	 1.000350077169160e+00	-2.554677861340882e+01
1	 9.041602814576831e-02	 1.002179626787651e+00	-2.539180471977735e+01
1	 7.211726641030418e-02	 1.003662374696605e+00	-2.519862923711807e+01
1	 5.391834444451954e-02	 1.004804396203657e+00	-2.496817505309998e+01
1	 3.582737114460929e-02	 1.005611983806831e+00	-2.470141446372389e+01
1	 1.785211468645011e-02	 1.006091628282923e+00	-2.439936447309727e+01
1	 0.000000000000000e+00	 1.006250000000000e+00	-2.406308212696594e+01
1	 1.842375905856931e-01	 9.955966855063876e-01	-2.630909520888338e+01
1	 1.654569424880868e-01	 9.988895084859243e-01	-2.632178481221910e+01
1	 1.467309826509914e-01	 1.001811493603026e+00	-2.629088316875975e+01
1	 1.280695070167153e-01	 1.004367687334138e+00	-2.621708491990365e+01
1	 1.094819984448147e-01	 1.006563431686269e+00	-2.610115998159320e+01
1	 9.097761838021945e-02	 1.008404344966822e+00	-2.594394857873170e+01
1	 7.256519973982017e-02	 1.009896302489984e+00	-2.574635619323349e+01
1	 5.425324099201707e-02	 1.011045417298220e+00	-2.550934845740276e+01
1	 3.604990139881718e-02	 1.011858020973390e+00	-2.523394602293512e+01
1	 1.796299738563396e-02	 1.012340644607676e+00	-2.492121943428359e+01
1	 0.000000000000000e+00	 1.012500000000000e+00	-2.457228403343218e+01
1	 1.853748596621032e-01	 1.001742344060394e+00	-2.685556824527008e+01
1	 1.664782816376526e-01	 1.005055493107414e+00	-2.687488057330627e+01
1	 1.476367294556716e-01	 1.007995515169424e+00	-2.684834370333587e+01
1	 1.288600595272464e-01	 1.010567487873958e+00	-2.677666816058069e+01
1	 1.101578132481015e-01	 1.012776786203377e+00	-2.666064692742446e+01
1	 9.153920861529408e-02	 1.014629063145992e+00	-2.650115009254355e+01
1	 7.301313306989110e-02	 1.016130230283363e+00	-2.629911939969145e+01
1	 5.458813753997226e-02	 1.017286438392782e+00	-2.605556273089950e+01
1	 3.627243165335736e-02	 1.018104058139949e+00	-2.577154855737618e+01
1	 1.807388008499735e-02	 1.018589660932429e+00	-2.544820038970439e+01
1	 0.000000000000000e+00	 1.018750000000000e+00	-2.508669125709919e+01
1	 1.865121287390279e-01	 1.007888002614401e+00	-2.740751010464323e+01
1	 1.674996207878170e-01	 1.011221477728904e+00	-2.743329003971939e+01
1	 1.485424762610026e-01	 1.014179536735822e+00	-2.741099033464259e+01
1	 1.296506120384496e-01	 1.016767288413778e+00	-2.734133710571016e+01
1	 1.108336280520510e-01	 1.018990140720485e+00	-2.722514605618959e+01
1	 9.210079885099220e-02	 1.020853781325163e+00	-2.706331674313711e+01
1	 7.346106640051696e-02	 1.022364158076741e+00	-2.685682672996313e+01
1	 5.492303408838512e-02	 1.023527459487344e+00	-2.660672566257051e+01
1	 3.649496190822983e-02	 1.024350095306509e+00	-2.631412930530796e+01
1	 1.818476278454025e-02	 1.024838677257182e+00	-2.598021357117723e+01
1	 0.000000000000000e+00	 1.025000000000000e+00	-2.560620857875485e+01
1	 1.876493978164674e-01	 1.014033661168407e+00	-2.796482135385456e+01
1	 1.685209599385800e-01	 1.017387462350393e+00	-2.799691659863300e+01
1	 1.494482230669846e-01	 1.020363558302220e+00	-2.797872877001155e+01
1	 1.304411645503248e-01	 1.022967088953598e+00	-2.791099928793775e+01
1	 1.115094428566634e-01	 1.025203495237592e+00	-2.779456623728971e+01
1	 9.266238908731386e-02	 1.027078499504333e+00	-2.763035825529871e+01
1	 7.390899973169777e-02	 1.028598085870120e+00	-2.741938829088928e+01
1	 5.525793063725560e-02	 1.029768480581907e+00	-2.716274727681469e+01
1	 3.671749216343461e-02	 1.030596132473068e+00	-2.686159775376124e+01
1	 1.829564548426268e-02	 1.031087693581935e+00	-2.651716748368566e+01
1	 0.000000000000000e+00	 1.031250000000000e+00	-2.613074308753144e+01
1	 1.887866668944215e-01	 1.020179319722414e+00	-2.852740495573725e+01
1	 1.695422990899416e-01	 1.023553446971883e+00	-2.856566596524161e+01
1	 1.503539698736174e-01	 1.026547579868618e+00	-2.855146698888661e+01
1	 1.312317170628722e-01	 1.029166889493419e+00	-2.848556446803835e+01
1	 1.121852576619385e-01	 1.031416849754700e+00	-2.836881853604466e+01
1	 9.322397932425906e-02	 1.033303217683504e+00	-2.820218652912117e+01
1	 7.435693306343355e-02	 1.034832013663499e+00	-2.798671635541108e+01
1	 5.559282718658375e-02	 1.036009501676469e+00	-2.772353976611732e+01
1	 3.694002241897168e-02	 1.036842169639627e+00	-2.741386557080077e+01
1	 1.840652818416463e-02	 1.037336709906688e+00	-2.705897283691386e+01
1	 0.000000000000000e+00	 1.037500000000000e+00	-2.666020411137671e+01
1	 1.899239359728903e-01	 1.026324978276420e+00	-2.909516619736732e+01
1	 1.705636382419018e-01	 1.029719431593373e+00	-2.913944611305860e+01
1	 1.512597166809012e-01	 1.032731601435016e+00	-2.912911517479688e+01
1	 1.320222695760916e-01	 1.035366690033239e+00	-2.906494456820560e+01
1	 1.128610724678764e-01	 1.037630204271808e+00	-2.894781614794547e+01
1	 9.378556956182779e-02	 1.039527935862675e+00	-2.877871557487429e+01
1	 7.480486639572421e-02	 1.041065941456877e+00	-2.855872529771634e+01
1	 5.592772373636954e-02	 1.042250522771031e+00	-2.828901742613751e+01
1	 3.716255267484104e-02	 1.043088206806186e+00	-2.797084654022683e+01
1	 1.851741088424612e-02	 1.043585726231440e+00	-2.760554247923466e+01
1	 0.000000000000000e+00	 1.043750000000000e+00	-2.719450315002397e+01
1	 1.910612050518737e-01	 1.032470636830427e+00	-2.966801262089031e+01
1	 1.715849773944606e-01	 1.035885416214862e+00	-2.971816720670369e+01
1	 1.521654634888358e-01	 1.038915623001414e+00	-2.971158564975882e+01
1	 1.328128220899832e-01	 1.041566490573059e+00	-2.964905360772352e+01
1	 1.135368872744771e-01	 1.043843558788917e+00	-2.953147433525719e+01
1	 9.434715980002001e-02	 1.045752654041845e+00	-2.935986145020281e+01
1	 7.525279972856985e-02	 1.047299869250256e+00	-2.913533153070292e+01
1	 5.626262028661300e-02	 1.048491543865594e+00	-2.885909659311397e+01
1	 3.738508293104270e-02	 1.049334243972746e+00	-2.853245649860627e+01
1	 1.862829358450712e-02	 1.049834742556193e+00	-2.815679133405990e+01
1	 0.000000000000000e+00	 1.050000000000000e+00	-2.773355381035531e+01
1	 1.921984741313718e-01	 1.038616295384433e+00	-3.024585395680378e+01
1	 1.726063165476180e-01	 1.042051400836352e+00	-3.030174153707886e+01
1	 1.530712102974213e-01	 1.045099644567812e+00	-3.029879281100741e+01
1	 1.336033746045468e-01	 1.047766291112880e+00	-3.023780764092291e+01
1	 1.142127020817405e-01	 1.050056913306025e+00	-3.011971036587228e+01
1	 9.490875003883573e-02	 1.051977372221015e+00	-2.994554219955242e+01
1	 7.570073306197043e-02	 1.053533797043635e+00	-2.971645344566113e+01
1	 5.659751683731409e-02	 1.054732564960156e+00	-2.943369558349258e+01
1	 3.760761318757667e-02	 1.055580281139305e+00	-2.909861327453896e+01
1	 1.873917628494765e-02	 1.056083758880946e+00	-2.871263633844845e+01
1	 0.000000000000000e+00	 1.056250000000000e+00	-2.827727174406012e+01
1	 1.933357432113846e-01	 1.044761953938440e+00	-3.082860205959424e+01
1	 1.736276557013740e-01	 1.048217385457841e+00	-3.089008345882869e+01
1	 1.539769571066577e-01	 1.051283666134210e+00	-3.089065306996042e+01
1	 1.343939271197825e-01	 1.053966091652700e+00	-3.083112469732692e+01
1	 1.148885168896667e-01	 1.056270267823133e+00	-3.071244345432039e+01
1	 9.547034027827500e-02	 1.058202090400186e+00	-3.053567779573487e+01
1	 7.614866639592593e-02	 1.059767724837014e+00	-3.030201135408601e+01
1	 5.693241338847285e-02	 1.060973586054718e+00	-3.001273463568473e+01
1	 3.783014344444292e-02	 1.061826318305864e+00	-2.966923663006970e+01
1	 1.885005898556771e-02	 1.062332775205699e+00	-2.927299638388074e+01
1	 0.000000000000000e+00	 1.062500000000000e+00	-2.882557458749372e+01
1	 1.062500000000000e+00	 0.000000000000000e+00	 2.734215729401994e+01
1	 1.062332775205699e+00	 1.885005898556710e-02	 2.731106168038312e+01
1	 1.061826318305864e+00	 3.783014344444238e-02	 2.722533174333728e+01
1	 1.060973586054718e+00	 5.693241338847238e-02	 2.708413778269480e+01
1	 1.059767724837014e+00	 7.614866639592552e-02	 2.688674334403848e+01
1	 1.058202090400186e+00	 9.547034027827464e-02	 2.663251118857221e+01
1	 1.056270267823132e+00	 1.148885168896664e-01	 2.632090912437868e+01
1	 1.053966091652700e+00	 1.343939271197823e-01	 2.595151565874903e+01
1	 1.051283666134210e+00	 1.539769571066575e-01	 2.552402543005486e+01
1	 1.048217385457842e+00	 1.736276557013739e-01	 2.503825437673219e+01
1	 1.044761953938440e+00	 1.933357432113846e-01	 2.449414460036747e+01
1	 1.068750000000000e+00	 0.000000000000000e+00	 2.703124779268959e+01
1	 1.068581791530452e+00	 1.896094168618715e-02	 2.700545688249121e+01
1	 1.068072355472424e+00	 3.805267370130863e-02	 2.692487904199773e+01
1	 1.067214607149281e+00	 5.726730993963111e-02	 2.678865787444206e+01
1	 1.066001652630393e+00	 7.659659972988102e-02	 2.659603040431457e+01
1	 1.064426808579356e+00	 9.603193051771391e-02	 2.634633316810139e+01
1	 1.062483622340241e+00	 1.155643316975926e-01	 2.603900817112411e+01
1	 1.060165892192520e+00	 1.351844796350180e-01	 2.567360866962547e+01
1	 1.057467687700608e+00	 1.548827039158939e-01	 2.524980473598612e+01
1	 1.054383370079331e+00	 1.746489948551299e-01	 2.476738856398973e+01
1	 1.050907612492446e+00	 1.944730122913974e-01	 2.422627947041216e+01
1	 1.075000000000000e+00	 0.000000000000000e+00	 2.673044542508723e+01
1	 1.074830807855205e+00	 1.907182438662768e-02	 2.670982261059514e+01
1	 1.074318392638983e+00	 3.827520395784258e-02	 2.663426338976300e+01
1	 1.073455628243843e+00	 5.760220649033222e-02	 2.650288494095728e+01
1	 1.072235580423771e+00	 7.704453306328159e-02	 2.631489804080208e+01
1	 1.070651526758527e+00	 9.659352075652965e-02	 2.606961327501048e+01
1	 1.068696976857349e+00	 1.162401465048560e-01	 2.576644711996974e+01
1	 1.066365692732341e+00	 1.359750321495816e-01	 2.540492785370789e+01
1	 1.063651709267006e+00	 1.557884507244794e-01	 2.498470125354250e+01
1	 1.060549354700821e+00	 1.756703340082873e-01	 2.450553603668178e+01
1	 1.057053271046452e+00	 1.956102813708955e-01	 2.396732899934144e+01
1	 1.081250000000000e+00	 0.000000000000000e+00	 2.643957492298212e+01
1	 1.081079824179958e+00	 1.918270708688868e-02	 2.642398596538684e+01
1	 1.080564429805542e+00	 3.849773421404425e-02	 2.635331420195546e+01
1	 1.079696649338405e+00	 5.793710304057566e-02	 2.622665065318957e+01
1	 1.078469508217150e+00	 7.749246639612721e-02	 2.604318011633501e+01
1	 1.076876244937698e+00	 9.715511099472188e-02	 2.580218749552587e+01
1	 1.074910331374456e+00	 1.169159613114567e-01	 2.550306400729361e+01
1	 1.072565493272161e+00	 1.367655846634732e-01	 2.514531321955379e+01
1	 1.069835730833404e+00	 1.566941975324140e-01	 2.472855688079089e+01
1	 1.066715339322311e+00	 1.766916731608461e-01	 2.425254049506560e+01
1	 1.063198929600459e+00	 1.967475504498789e-01	 2.371713859770162e+01
1	 1.087500000000000e+00	 0.000000000000000e+00	 2.615846504729883e+01
1	 1.087328840504710e+00	 1.929358978697016e-02	 2.614777802225537e+01
1	 1.086810466972102e+00	 3.872026446991361e-02	 2.608186481538485e+01
1	 1.085937670432968e+00	 5.827199959036147e-02	 2.595979055172179e+01
1	 1.084703436010529e+00	 7.794039972841793e-02	 2.578071431299272e+01
1	 1.083100963116868e+00	 9.771670123229059e-02	 2.554389558630567e+01
1	 1.081123685891564e+00	 1.175917761173946e-01	 2.524870059277542e+01
1	 1.078765293811981e+00	 1.375561371766926e-01	 2.489460845368498e+01
1	 1.076019752399802e+00	 1.575999443396977e-01	 2.448121715032529e+01
1	 1.072881323943800e+00	 1.777130123128063e-01	 2.400824923249582e+01
1	 1.069344588154466e+00	 1.978848195283477e-01	 2.347555722981932e+01
1	 1.093750000000000e+00	 0.000000000000000e+00	 2.588694847299857e+01
1	 1.093577856829463e+00	 1.940447248687211e-02	 2.588103371772436e+01
1	 1.093056504138661e+00	 3.894279472545068e-02	 2.581975237630562e+01
1	 1.092178691527530e+00	 5.860689613968959e-02	 2.570214393620940e+01
1	 1.090937363803908e+00	 7.838833306015368e-02	 2.552734202297874e+01
1	 1.089325681296038e+00	 9.827829146923577e-02	 2.529458096671306e+01
1	 1.087337040408672e+00	 1.182675909226697e-01	 2.500320225301652e+01
1	 1.084965094351801e+00	 1.383466896892400e-01	 2.465266081550267e+01
1	 1.082203773966200e+00	 1.585056911463306e-01	 2.424253112542316e+01
1	 1.079047308565290e+00	 1.787343514641679e-01	 2.377251303276451e+01
1	 1.075490246708472e+00	 1.990220886063018e-01	 2.324243731226483e+01
1	 1.100000000000000e+00	 0.000000000000000e+00	 2.562486167788490e+01
1	 1.099826873154216e+00	 1.951535518659454e-02	 2.562359173976054e+01
1	 1.099302541305220e+00	 3.916532498065545e-02	 2.556681773219406e+01
1	 1.098419712622092e+00	 5.894179268856010e-02	 2.545355375858886e+01
1	 1.097171291597286e+00	 7.883626639133445e-02	 2.528290824321947e+01
1	 1.095550399475209e+00	 9.883988170555745e-02	 2.505409061476230e+01
1	 1.093550394925781e+00	 1.189434057272821e-01	 2.476641787878656e+01
1	 1.091164894891622e+00	 1.391372422011153e-01	 2.441932103578525e+01
1	 1.088387795532598e+00	 1.594114379523125e-01	 2.401235129974194e+01
1	 1.085213293186780e+00	 1.797556906149309e-01	 2.354518607094104e+01
1	 1.081635905262479e+00	 2.001593576837413e-01	 2.301763461577708e+01
1	 1.106250000000000e+00	 0.000000000000000e+00	 2.537204483517881e+01
1	 1.106075889478969e+00	 1.962623788613744e-02	 2.537529442180075e+01
1	 1.105548578471779e+00	 3.938785523552792e-02	 2.532290532719417e+01
1	 1.104660733716655e+00	 5.927668923697292e-02	 2.521386651990563e+01
1	 1.103405219390665e+00	 7.928419972196032e-02	 2.504726147353581e+01
1	 1.101775117654379e+00	 9.940147194125559e-02	 2.482227496659171e+01
1	 1.099763749442888e+00	 1.196192205312317e-01	 2.453819977575307e+01
1	 1.097364695431442e+00	 1.399277947123184e-01	 2.419444321862695e+01
1	 1.094571817098996e+00	 1.603171847576436e-01	 2.379053350041561e+01
1	 1.091379277808269e+00	 1.807770297650953e-01	 2.332612581757324e+01
1	 1.087781563816485e+00	 2.012966267606660e-01	 2.280100817051315e+01
1	 1.112500000000000e+00	 0.000000000000000e+00	 2.512834170971482e+01
1	 1.112324905803722e+00	 1.973712058550081e-02	 2.513598764035118e+01
1	 1.111794615638339e+00	 3.961038549006810e-02	 2.508786310108744e+01
1	 1.110901754811217e+00	 5.961158578492812e-02	 2.498293217062020e+01
1	 1.109639147184044e+00	 7.973213305203126e-02	 2.482025361824734e+01
1	 1.107999835833550e+00	 9.996306217633021e-02	 2.459898781932533e+01
1	 1.105977103959996e+00	 1.202950353345184e-01	 2.431840356855737e+01
1	 1.103564495971262e+00	 1.407183472228495e-01	 2.397788474668165e+01
1	 1.100755838665394e+00	 1.612229315623238e-01	 2.357693679441783e+01
1	 1.097545262429759e+00	 1.817983689146612e-01	 2.311519294611782e+01
1	 1.093927222370492e+00	 2.024338958370761e-01	 2.259242017449144e+01
1	 1.118750000000000e+00	 0.000000000000000e+00	 2.489359955761659e+01
1	 1.118573922128475e+00	 1.984800328468466e-02	 2.490552071601878e+01
1	 1.118040652804898e+00	 3.983291574427597e-02	 2.486154239164944e+01
1	 1.117142775905779e+00	 5.994648233242565e-02	 2.476060401425567e+01
1	 1.115873074977423e+00	 8.018006638154726e-02	 2.460173989107451e+01
1	 1.114224554012720e+00	 1.005246524107813e-01	 2.438408623719083e+01
1	 1.112190458477105e+00	 1.209708501371425e-01	 2.410688810810591e+01
1	 1.109764296511083e+00	 1.415088997327085e-01	 2.376950618958292e+01
1	 1.106939860231791e+00	 1.621286783663531e-01	 2.337142339806346e+01
1	 1.103711247051248e+00	 1.828197080636284e-01	 2.291225124347371e+01
1	 1.100072880924498e+00	 2.035711649129715e-01	 2.239173590510410e+01
1	 1.125000000000000e+00	 0.000000000000000e+00	 2.466766902931665e+01
1	 1.124822938453228e+00	 1.995888598368899e-02	 2.468374631784202e+01
1	 1.124286689971457e+00	 4.005544599815156e-02	 2.464379784026109e+01
1	 1.123383797000342e+00	 6.028137887946552e-02	 2.454673861425712e+01
1	 1.122107002770802e+00	 8.062799971050830e-02	 2.439157872321077e+01
1	 1.120449272191891e+00	 1.010862426446089e-01	 2.417743046076642e+01
1	 1.118403812994212e+00	 1.216466649391038e-01	 2.390351538195166e+01
1	 1.115964097050903e+00	 1.422994522418954e-01	 2.356917121541699e+01
1	 1.113123881798190e+00	 1.630344251697315e-01	 2.317385858952698e+01
1	 1.109877231672738e+00	 1.838410472119971e-01	 2.271716752349744e+01
1	 1.106218539478505e+00	 2.047084339883523e-01	 2.219882363357877e+01
1	 1.044761953938440e+00	 1.933357432113846e-01	 2.449414460036747e+01
1	 1.040912406042436e+00	 2.130906214436760e-01	 2.406706322748963e+01
1	 1.036664126171887e+00	 2.328813850624820e-01	 2.358332154988157e+01
1	 1.032012868112777e+00	 2.526968342700299e-01	 2.304395776236732e+01
1	 1.026954774052105e+00	 2.725254888119737e-01	 2.245016953621555e+01
1	 1.021486393066090e+00	 2.923556033012253e-01	 2.180331432981752e+01
1	 1.015604698980536e+00	 3.121751838465296e-01	 2.110490896232365e+01
1	 1.009307107503605e+00	 3.319720059640348e-01	 2.035662842275335e+01
1	 1.002591492531163e+00	 3.517336337418573e-01	 1.956030389175076e+01
1	 9.954562015255156e-01	 3.714474402192345e-01	 1.871791995827300e+01
1	 9.879000698697850e-01	 3.911006289333422e-01	 1.783161101903490e+01
1	 1.050907612492446e+00	 1.944730122913974e-01	 2.422627947041216e+01
1	 1.047035420197350e+00	 2.143440956894556e-01	 2.380637831706066e+01
1	 1.042762150445510e+00	 2.342512755645911e-01	 2.333017052515238e+01
1	 1.038083532045181e+00	 2.541832862378689e-01	 2.279871050732734e+01
1	 1.032995684490343e+00	 2.741285799240362e-01	 2.221321214768915e+01
1	 1.027495136557664e+00	 2.940753421454934e-01	 2.157504905185310e+01
1	 1.021578844271924e+00	 3.140115084586851e-01	 2.088575405710323e+01
1	 1.015244208139567e+00	 3.339247824710317e-01	 2.014701797542109e+01
1	 1.008489089549963e+00	 3.538026551182274e-01	 1.936068754684151e+01
1	 1.001311826244610e+00	 3.736324251632710e-01	 1.852876258573771e+01
1	 9.937112467559408e-01	 3.934012208700279e-01	 1.765339230820847e+01
1	 1.057053271046452e+00	 1.956102813708955e-01	 2.396732899934144e+01
1	 1.053158434352260e+00	 2.155975699348112e-01	 2.355463427872209e+01
1	 1.048860174719115e+00	 2.356211660663481e-01	 2.308598478254544e+01
1	 1.044154195977542e+00	 2.556697382054088e-01	 2.256245106924411e+01
1	 1.039036594928505e+00	 2.757316710358331e-01	 2.198526316630175e+01
1	 1.033503880049119e+00	 2.957950809895098e-01	 2.135581075998542e+01
1	 1.027552989563138e+00	 3.158478330705825e-01	 2.067564264233682e+01
1	 1.021181308775291e+00	 3.358775589777437e-01	 1.994646538843072e+01
1	 1.014386686568452e+00	 3.558716764942655e-01	 1.917014124163540e+01
1	 1.007167450963309e+00	 3.758174101069072e-01	 1.834868518979275e+01
1	 9.995224236416068e-01	 3.957018128062240e-01	 1.748426122083701e+01
1	 1.063198929600459e+00	 1.967475504498789e-01	 2.371713859770162e+01
1	 1.059281448507165e+00	 2.168510441797428e-01	 2.331167606845483e+01
1	 1.054958198992700e+00	 2.369910565677531e-01	 2.285060885474521e+01
1	 1.050224859909860e+00	 2.571561901726496e-01	 2.233502359002375e+01
1	 1.045077505366590e+00	 2.773347621473644e-01	 2.176616637690339e+01
1	 1.039512623540453e+00	 2.975148198332742e-01	 2.114544291688524e+01
1	 1.033527134854179e+00	 3.176841576822217e-01	 2.047441789449203e+01
1	 1.027118409410778e+00	 3.378303354841708e-01	 1.975481358906060e+01
1	 1.020284283586630e+00	 3.579406978699713e-01	 1.898850769220770e+01
1	 1.013023075681613e+00	 3.780023950501429e-01	 1.817753031419752e+01
1	 1.005333600526783e+00	 3.980024047419303e-01	 1.732406016807530e+01
1	 1.069344588154466e+00	 1.978848195283477e-01	 2.347555722981932e+01
1	 1.065404462662065e+00	 2.181045184242504e-01	 2.307735220646985e+01
1	 1.061056223266267e+00	 2.383609470688061e-01	 2.262389084839727e+01
1	 1.056295523842136e+00	 2.586426421395913e-01	 2.211627579451688e+01
1	 1.051118415804600e+00	 2.789378532586300e-01	 2.155576915549695e+01
1	 1.045521367031668e+00	 2.992345586767867e-01	 2.094379258378286e+01
1	 1.039501280145047e+00	 3.195204822936026e-01	 2.028192659517513e+01
1	 1.033055510046029e+00	 3.397831119903131e-01	 1.957190911545634e+01
1	 1.026181880604498e+00	 3.600097192453450e-01	 1.881563323035632e+01
1	 1.018878700399522e+00	 3.801873799929781e-01	 1.801514412239499e+01
1	 1.011144777411469e+00	 4.003029966771468e-01	 1.717263518381026e+01
1	 1.075490246708472e+00	 1.990220886063018e-01	 2.324243731226483e+01
1	 1.071527476816960e+00	 2.193579926683340e-01	 2.285151467537316e+01
1	 1.067154247539815e+00	 2.397308375695072e-01	 2.240568234199518e+01
1	 1.062366187774369e+00	 2.601290941062338e-01	 2.190605888814879e+01
1	 1.057159326242533e+00	 2.805409443696300e-01	 2.135392236663366e+01
1	 1.051530110522764e+00	 3.009542975200473e-01	 2.075071031765158e+01
1	 1.045475425435741e+00	 3.213568069047253e-01	 2.009801902812714e+01
1	 1.038992610681042e+00	 3.417358884961704e-01	 1.939760201346314e+01
1	 1.032079477622055e+00	 3.620787406203865e-01	 1.865136770029511e+01
1	 1.024734325117036e+00	 3.823723649354131e-01	 1.786137629409261e+01
1	 1.016955954295667e+00	 4.026035886118737e-01	 1.702983582115460e+01
1	 1.081635905262479e+00	 2.001593576837413e-01	 2.301763461577708e+01
1	 1.077650490971851e+00	 2.206114669119936e-01	 2.263401882180221e+01
1	 1.073252271813344e+00	 2.411007280698562e-01	 2.219583828724835e+01
1	 1.068436851706560e+00	 2.616155460725773e-01	 2.170422745803963e+01
1	 1.063200236680390e+00	 2.821440354803643e-01	 2.116048026430675e+01
1	 1.057538854013740e+00	 3.026740363630561e-01	 2.056605007189723e+01
1	 1.051449570726263e+00	 3.231931315155898e-01	 1.992254887973124e+01
1	 1.044929711315819e+00	 3.436886650017428e-01	 1.923174573697508e+01
1	 1.037977074639301e+00	 3.641477619950956e-01	 1.849556435886970e+01
1	 1.030589949834155e+00	 3.845573498774476e-01	 1.771607992536818e+01
1	 1.022767131179374e+00	 4.049041805461109e-01	 1.689551505246844e+01
1	 1.087781563816485e+00	 2.012966267606660e-01	 2.280100817051315e+01
1	 1.083773505126737e+00	 2.218649411552293e-01	 2.242472326139681e+01
1	 1.079350296086854e+00	 2.424706185698532e-01	 2.199421691379350e+01
1	 1.074507515638708e+00	 2.631019980386217e-01	 2.151063937747615e+01
1	 1.069241147118170e+00	 2.837471265908331e-01	 2.097530039620440e+01
1	 1.063547597504596e+00	 3.043937752058130e-01	 2.038966910041358e+01
1	 1.057423716016611e+00	 3.250294561261961e-01	 1.975537314289317e+01
1	 1.050866811950359e+00	 3.456414415070305e-01	 1.907419705166282e+01
1	 1.043874671656237e+00	 3.662167833694728e-01	 1.834807977915501e+01
1	 1.036445574550879e+00	 3.867423348190817e-01	 1.757911143216207e+01
1	 1.028578308062591e+00	 4.072047724798582e-01	 1.676952917277056e+01
1	 1.093927222370492e+00	 2.024338958370761e-01	 2.259242017449144e+01
1	 1.089896519281619e+00	 2.231184153980409e-01	 2.222348978697322e+01
1	 1.085448320360346e+00	 2.438405090694982e-01	 2.180067963711809e+01
1	 1.080578179570813e+00	 2.645884500043669e-01	 2.132515571360371e+01
1	 1.075282057555875e+00	 2.853502177010361e-01	 2.079824351119020e+01
1	 1.069556340995332e+00	 3.061135140483180e-01	 2.022142786487201e+01
1	 1.063397861306787e+00	 3.268657807365442e-01	 1.959635202416107e+01
1	 1.056803912584663e+00	 3.475942180120331e-01	 1.892481594194594e+01
1	 1.049772268672862e+00	 3.682858047435176e-01	 1.820877375730324e+01
1	 1.042301199267208e+00	 3.889273197603155e-01	 1.745033045702299e+01
1	 1.034389484945319e+00	 4.095053644131160e-01	 1.665173770640530e+01
1	 1.100072880924498e+00	 2.035711649129715e-01	 2.239173590510410e+01
1	 1.096019533436496e+00	 2.243718896404286e-01	 2.203018327977617e+01
1	 1.091546344633818e+00	 2.452103995687912e-01	 2.161509096957005e+01
1	 1.086648843502876e+00	 2.660749019698130e-01	 2.114764063821239e+01
1	 1.081322967993503e+00	 2.869533088109736e-01	 2.062917346988508e+01
1	 1.075565084485949e+00	 3.078332528905711e-01	 2.006118994511877e+01
1	 1.069372006596789e+00	 3.287021053466341e-01	 1.944534885395916e+01
1	 1.062741013218729e+00	 3.495469945167510e-01	 1.878346552108382e+01
1	 1.055669865689176e+00	 3.703548261172301e-01	 1.807750922251335e+01
1	 1.048156823983142e+00	 3.911123047011489e-01	 1.732959977897906e+01
1	 1.040200661827557e+00	 4.118059563458840e-01	 1.654200331683798e+01
1	 1.106218539478505e+00	 2.047084339883523e-01	 2.219882363357877e+01
1	 1.102142547591368e+00	 2.256253638823922e-01	 2.184467162368927e+01
1	 1.097644368907272e+00	 2.465802900677321e-01	 2.143731843433387e+01
1	 1.092719507434896e+00	 2.675613539349601e-01	 2.097796134149678e+01
1	 1.087363878431055e+00	 2.885563999206455e-01	 2.046795715822927e+01
1	 1.081573827976446e+00	 3.095529917325723e-01	 1.990882195255911e+01
1	 1.075346151886618e+00	 3.305384299564658e-01	 1.930222999981340e+01
1	 1.068678113852559e+00	 3.514997710211838e-01	 1.865001194426351e+01
1	 1.061567462705180e+00	 3.724238474906107e-01	 1.795415215000220e+01
1	 1.054012448698681e+00	 3.932972896415817e-01	 1.721678522641336e+01
1	 1.046011838709305e+00	 4.141065482781622e-01	 1.644019171945692e+01
1	 9.879000698697850e-01	 3.911006289333422e-01	 1.783161101903490e+01
1	 9.799224341023264e-01	 4.106802565784042e-01	 1.723769700270094e+01
1	 9.715231439387405e-01	 4.301732567129675e-01	 1.661094549983829e+01
1	 9.627025729927416e-01	 4.495664644431200e-01	 1.595486772591962e+01
1	 9.534616281117343e-01	 4.688466420014871e-01	 1.527309037529893e+01
1	 9.438017572485543e-01	 4.880005051335908e-01	 1.456934318854264e+01
1	 9.337249557969681e-01	 5.070147501960147e-01	 1.384744571887428e+01
1	 9.232337713255229e-01	 5.258760818638161e-01	 1.311129336354144e+01
1	 9.123313066520513e-01	 5.445712413382624e-01	 1.236484273385255e+01
1	 9.010212212095033e-01	 5.630870349402235e-01	 1.161209644508221e+01
1	 8.893077306627528e-01	 5.814103629695434e-01	 1.085708741428751e+01
1	 9.937112467559408e-01	 3.934012208700279e-01	 1.765339230820847e+01
1	 9.856866837195182e-01	 4.130960227955830e-01	 1.707520627651671e+01
1	 9.772379859668383e-01	 4.327036876370156e-01	 1.646314010043868e+01
1	 9.683655293093409e-01	 4.522109730598609e-01	 1.582050870123983e+01
1	 9.590702259288256e-01	 4.716045634275238e-01	 1.515074326607027e+01
1	 9.493535322954965e-01	 4.908710963428529e-01	 1.445737964384198e+01
1	 9.392174555407290e-01	 5.099971899057048e-01	 1.374404595337039e+01
1	 9.286645582187663e-01	 5.289694705833431e-01	 1.301444946439411e+01
1	 9.176979613993100e-01	 5.477746015841011e-01	 1.227236281979936e+01
1	 9.063213460413853e-01	 5.663993116189709e-01	 1.152160967464091e+01
1	 8.945389526078945e-01	 5.848304239307373e-01	 1.076604983427212e+01
1	 9.995224236416068e-01	 3.957018128062240e-01	 1.748426122083701e+01
1	 9.914509333361347e-01	 4.155117890121816e-01	 1.692084944253510e+01
1	 9.829528279943034e-01	 4.352341185604122e-01	 1.632252623253187e+01
1	 9.740284856252802e-01	 4.548554816758983e-01	 1.569241207155998e+01
1	 9.646788237452593e-01	 4.743624848528250e-01	 1.503374449275412e+01
1	 9.549053073418127e-01	 4.937416875513668e-01	 1.434986729960102e+01
1	 9.447099552839260e-01	 5.129796296146545e-01	 1.364421900917875e+01
1	 9.340953451115379e-01	 5.320628593021577e-01	 1.292032057614057e+01
1	 9.230646161462197e-01	 5.509779618292758e-01	 1.218176246038656e+01
1	 9.116214708730722e-01	 5.697115882971237e-01	 1.143219110845357e+01
1	 8.997701745530251e-01	 5.882504848914254e-01	 1.067529492524166e+01
1	 1.005333600526783e+00	 3.980024047419303e-01	 1.732406016807530e+01
1	 9.972151829521758e-01	 4.179275552281999e-01	 1.677448545060315e+01
1	 9.886676700211366e-01	 4.377645494831572e-01	 1.618897918747965e+01
1	 9.796914419405602e-01	 4.574999902912326e-01	 1.557046924043489e+01
1	 9.702874215610352e-01	 4.771204062773904e-01	 1.492200130964001e+01
1	 9.604570823875030e-01	 4.966122787591327e-01	 1.424672896737053e+01
1	 9.502024550265588e-01	 5.159620693228640e-01	 1.354790292985757e+01
1	 9.395261320038379e-01	 5.351562480202601e-01	 1.282885961766280e+01
1	 9.284312708927811e-01	 5.541813220737867e-01	 1.209300906217590e+01
1	 9.169215957045638e-01	 5.730238649746812e-01	 1.134382222274053e+01
1	 9.050013964981454e-01	 5.916705458516085e-01	 1.058481778537982e+01
1	 1.011144777411469e+00	 4.003029966771468e-01	 1.717263518381026e+01
1	 1.002979432567642e+00	 4.203433214436381e-01	 1.663597649310003e+01
1	 9.943825120473380e-01	 4.402949804052509e-01	 1.606237712350925e+01
1	 9.853543982551802e-01	 4.601444989058631e-01	 1.545457410788931e+01
1	 9.758960193761530e-01	 4.798783277012201e-01	 1.481542310310279e+01
1	 9.660088574325675e-01	 4.994828699661508e-01	 1.414788923314848e+01
1	 9.556949547686274e-01	 5.189445090303332e-01	 1.345503718325096e+01
1	 9.449569188956666e-01	 5.382496367376501e-01	 1.274002059016769e+01
1	 9.337979256389933e-01	 5.573846823176335e-01	 1.200607078100346e+01
1	 9.222217205358604e-01	 5.763361416516439e-01	 1.125648491955658e+01
1	 9.102326184432551e-01	 5.950906068112862e-01	 1.049461362555571e+01
1	 1.016955954295667e+00	 4.026035886118737e-01	 1.702983582115460e+01
1	 1.008743682182532e+00	 4.227590876584961e-01	 1.650518791229372e+01
1	 1.000097354072907e+00	 4.428254113266928e-01	 1.594260098380260e+01
1	 9.910173545691401e-01	 4.627890075197903e-01	 1.534462299909040e+01
1	 9.815046171906131e-01	 4.826362491243143e-01	 1.471392133068608e+01
1	 9.715606324770055e-01	 5.023534611724205e-01	 1.405327440668140e+01
1	 9.611874545101324e-01	 5.219269487370622e-01	 1.336556262079510e+01
1	 9.503877057870229e-01	 5.413430254543278e-01	 1.265375854626279e+01
1	 9.391645803848566e-01	 5.605880425608164e-01	 1.192091650057213e+01
1	 9.275218453669620e-01	 5.796484183280118e-01	 1.117016151462343e+01
1	 9.154638403883543e-01	 5.985106677704586e-01	 1.040467776610453e+01
1	 1.022767131179374e+00	 4.049041805461109e-01	 1.689551505246844e+01
1	 1.014507931796846e+00	 4.251748538727739e-01	 1.638198811085518e+01
1	 1.005812196097844e+00	 4.453558422474835e-01	 1.582953441737853e+01
1	 9.966803108824406e-01	 4.654335161330140e-01	 1.524051459545149e+01
1	 9.871132150044155e-01	 4.853941705466728e-01	 1.461740946226187e+01
1	 9.771124075208182e-01	 5.052240523779424e-01	 1.396281247249438e+01
1	 9.666799542510731e-01	 5.249093884430506e-01	 1.327942143821196e+01
1	 9.558184926779082e-01	 5.444364141702932e-01	 1.257002956008770e+01
1	 9.445312351303716e-01	 5.637914028033356e-01	 1.183751581177330e+01
1	 9.328219701978685e-01	 5.829606950037846e-01	 1.108483472557839e+01
1	 9.206950623334427e-01	 6.019307287291257e-01	 1.031500563371719e+01
1	 1.028578308062591e+00	 4.072047724798582e-01	 1.676952917277056e+01
1	 1.020272181410586e+00	 4.275906200864714e-01	 1.626624846540648e+01
1	 1.011527038122148e+00	 4.478862731676225e-01	 1.572306370265676e+01
1	 1.002343267195081e+00	 4.680780247455344e-01	 1.514214986807161e+01
1	 9.927218128175602e-01	 4.881520919682955e-01	 1.452580292318543e+01
1	 9.826641825640046e-01	 5.080946435827163e-01	 1.387643304258093e+01
1	 9.721724539914497e-01	 5.278918281482988e-01	 1.319655713753474e+01
1	 9.612492795683215e-01	 5.475298028855463e-01	 1.248879069845642e+01
1	 9.498978898755376e-01	 5.669947630451908e-01	 1.175583899270990e+01
1	 9.381220950285795e-01	 5.862729716789624e-01	 1.100048766062078e+01
1	 9.259262842785204e-01	 6.053507896872874e-01	 1.022559275843641e+01
1	 1.034389484945319e+00	 4.095053644131160e-01	 1.665173770640530e+01
1	 1.026036431023750e+00	 4.300063862995889e-01	 1.615784324298265e+01
1	 1.017241880145820e+00	 4.504167040871099e-01	 1.562307767359802e+01
1	 1.008006223507062e+00	 4.707225333573513e-01	 1.504943201341835e+01
1	 9.983304106300468e-01	 4.909100133891827e-01	 1.443901903936590e+01
1	 9.882159576065646e-01	 5.109652347867418e-01	 1.379406731068745e+01
1	 9.776649537312624e-01	 5.308742678528068e-01	 1.311691449041395e+01
1	 9.666800664582632e-01	 5.506231916000871e-01	 1.240999999297404e+01
1	 9.552645446203550e-01	 5.701981232863822e-01	 1.167585698939252e+01
1	 9.434222198590958e-01	 5.895852483535454e-01	 1.091710380754075e+01
1	 9.311575062235878e-01	 6.087708506449440e-01	 1.013643477075327e+01
1	 1.040200661827557e+00	 4.118059563458840e-01	 1.654200331683798e+01
1	 1.031800680636339e+00	 4.324221525121261e-01	 1.605664952029417e+01
1	 1.022956722168861e+00	 4.529471350059460e-01	 1.552946764832058e+01
1	 1.013669179818383e+00	 4.733670419684648e-01	 1.496226639116685e+01
1	 1.003939008441876e+00	 4.936679348093340e-01	 1.435697698417809e+01
1	 9.937677326484990e-01	 5.138358259900195e-01	 1.371564800813050e+01
1	 9.831574534705112e-01	 5.338567075565744e-01	 1.304043950265303e+01
1	 9.721108533477332e-01	 5.537165803139155e-01	 1.233361641308669e+01
1	 9.606311993648238e-01	 5.734014835269095e-01	 1.159754139708315e+01
1	 9.487223446894167e-01	 5.928975250275335e-01	 1.083466702311645e+01
1	 9.363887281686443e-01	 6.121909116020950e-01	 1.004752739880165e+01
1	 1.046011838709305e+00	 4.141065482781622e-01	 1.644019171945692e+01
1	 1.037564930248352e+00	 4.348379187240829e-01	 1.596254710568014e+01
1	 1.028671564191268e+00	 4.554775659241302e-01	 1.544212736009558e+01
1	 1.019332136129044e+00	 4.760115505788748e-01	 1.488056046411060e+01
1	 1.009547606253047e+00	 4.964258562287498e-01	 1.427959772714414e+01
1	 9.993195076898076e-01	 5.167064171925492e-01	 1.364110936108596e+01
1	 9.886499532091959e-01	 5.368391472596017e-01	 1.296707937992673e+01
1	 9.775416402367314e-01	 5.568099690270316e-01	 1.225959984003060e+01
1	 9.659978541089431e-01	 5.766048437667730e-01	 1.152086444226012e+01
1	 9.540224695195425e-01	 5.962098017009265e-01	 1.075316152286423e+01
1	 9.416199501136904e-01	 6.156109725587411e-01	 9.958866465645601e+00
1	 8.893077306627528e-01	 5.814103629695434e-01	 1.085708741428751e+01
1	 8.771956047455883e-01	 5.995282487065593e-01	 9.716631614685344e+00
1	 8.646901632969713e-01	 6.174278674282060e-01	 8.528003826060161e+00
1	 8.517972704860859e-01	 6.350965753091955e-01	 7.292330095840077e+00
1	 8.385233272264496e-01	 6.525219380770625e-01	 6.010904476695016e+00
1	 8.248752617900429e-01	 6.696917592889825e-01	 4.685186849813292e+00
1	 8.108605186434350e-01	 6.865941080990718e-01	 3.316799869833357e+00
1	 7.964870455388072e-01	 7.032173463862690e-01	 1.907525038309390e+00
1	 7.817632789035854e-01	 7.195501551153906e-01	 4.592979198594453e-01
1	 7.666981275829784e-01	 7.355815598074721e-01	-1.025797477626731e+00
1	 7.513009550000000e-01	 7.513009549999999e-01	-2.545535130236917e+00
1	 8.945389526078945e-01	 5.848304239307373e-01	 1.076604983427212e+01
1	 8.823555788900659e-01	 6.030548854660724e-01	 9.610320357216114e+00
1	 8.697765760202160e-01	 6.210597960623453e-01	 8.407521942500843e+00
1	 8.568078426626430e-01	 6.388324375188241e-01	 7.158830298305350e+00
1	 8.434558173832986e-01	 6.563603024202654e-01	 5.865585270090440e+00
1	 8.297274692087055e-01	 6.736311225800625e-01	 4.529288444651931e+00
1	 8.156302863964140e-01	 6.906328969708853e-01	 3.151599895246326e+00
1	 8.011722634500895e-01	 7.073539190121366e-01	 1.734334076207811e+00
1	 7.863618864232010e-01	 7.237828030860738e-01	 2.794548825839303e-01
1	 7.712081165659308e-01	 7.399085101579741e-01	-1.210930102622702e+00
1	 7.557203723802501e-01	 7.557203723802501e-01	-2.734576144107646e+00
1	 8.997701745530251e-01	 5.882504848914254e-01	 1.067529492524166e+01
1	 8.875155530347181e-01	 6.065815222251801e-01	 9.504447816073387e+00
1	 8.748629887437914e-01	 6.246917246961796e-01	 8.287619831413789e+00
1	 8.618184148396573e-01	 6.425682997282492e-01	 7.026035989242375e+00
1	 8.483883075407015e-01	 6.601986667633651e-01	 5.721081613360311e+00
1	 8.345796766279892e-01	 6.775704858711397e-01	 4.374299719681926e+00
1	 8.204000541500502e-01	 6.946716858427967e-01	 2.987387562850079e+00
1	 8.058574813620352e-01	 7.114904916382033e-01	 1.562192353121180e+00
1	 7.909604939434562e-01	 7.280154510570566e-01	 1.007061604194994e-01
1	 7.757181055494675e-01	 7.442354605088755e-01	-1.394939970651412e+00
1	 7.601397897609999e-01	 7.601397897609999e-01	-2.922482664327180e+00
1	 9.050013964981454e-01	 5.916705458516085e-01	 1.058481778537982e+01
1	 8.926755271795451e-01	 6.101081589838829e-01	 9.399006383453500e+00
1	 8.799494014676975e-01	 6.283236533297093e-01	 8.168287438935870e+00
1	 8.668289870171290e-01	 6.463041619374698e-01	 6.893934934743003e+00
1	 8.533207976986584e-01	 6.640370311063614e-01	 5.577379364018238e+00
1	 8.394318840478930e-01	 6.815098491622142e-01	 4.220204900100381e+00
1	 8.251698219043438e-01	 6.987104747148062e-01	 2.824145745900743e+00
1	 8.105426992746441e-01	 7.156270642644686e-01	 1.391081674153639e+00
1	 7.955591014643508e-01	 7.322480990283387e-01	-7.696722319529159e-02
1	 7.802280945335894e-01	 7.485624108601769e-01	-1.577846551484510e+00
1	 7.645592071422498e-01	 7.645592071422498e-01	-3.109274364192457e+00
1	 9.102326184432551e-01	 5.950906068112862e-01	 1.049461362555571e+01
1	 8.978355013245468e-01	 6.136347957421805e-01	 9.293988626444591e+00
1	 8.850358141919341e-01	 6.319555819629341e-01	 8.049514942327397e+00
1	 8.718395591950577e-01	 6.500400241464864e-01	 6.762515182138281e+00
1	 8.582532878571697e-01	 6.678753954492540e-01	 5.434464704692568e+00
1	 8.442840914684180e-01	 6.854492124532863e-01	 4.066988573743542e+00
1	 8.299395896592946e-01	 7.027492635869140e-01	 2.661857711372477e+00
1	 8.152279171879165e-01	 7.197636368909328e-01	 1.220984262682757e+00
1	 8.001577089858843e-01	 7.364807469999202e-01	-2.535838085790481e-01
1	 7.847380835182960e-01	 7.528893612118782e-01	-1.759668867312715e+00
1	 7.689786245240000e-01	 7.689786245240000e-01	-3.294970464740993e+00
1	 9.154638403883543e-01	 5.985106677704586e-01	 1.040467776610453e+01
1	 9.029954754697234e-01	 6.171614325000729e-01	 9.189387282030191e+00
1	 8.901222269165024e-01	 6.355875105958542e-01	 7.931292743368381e+00
1	 8.768501313734441e-01	 6.537758863552985e-01	 6.631765051963237e+00
1	 8.631857780162346e-01	 6.717137597920432e-01	 5.292324133837166e+00
1	 8.491362988895632e-01	 6.893885757443554e-01	 3.914635680725870e+00
1	 8.347093574149024e-01	 7.067880524591198e-01	 2.500507108708745e+00
1	 8.199131351018522e-01	 7.239002095175959e-01	 1.051882748408857e+00
1	 8.047563165080572e-01	 7.407133949718012e-01	-4.291617122712663e-01
1	 7.892480725035875e-01	 7.572163115639795e-01	-1.940425505533955e+00
1	 7.733980419062499e-01	 7.733980419062499e-01	-3.479589747672015e+00
1	 9.206950623334427e-01	 6.019307287291257e-01	 1.031500563371719e+01
1	 9.081554496150746e-01	 6.206880692575600e-01	 9.085195252262176e+00
1	 8.952086396414011e-01	 6.392194392284697e-01	 7.813611461980260e+00
1	 8.818607035522877e-01	 6.575117485639065e-01	 6.501673130195044e+00
1	 8.681182681758537e-01	 6.755521241347289e-01	 5.150944456759326e+00
1	 8.539885063113296e-01	 6.933279390354222e-01	 3.763131503431740e+00
1	 8.394791251711674e-01	 7.108268413314237e-01	 2.340077958956614e+00
1	 8.245983530164511e-01	 7.280367821444579e-01	 8.837601558115991e-01
1	 8.093549240308695e-01	 7.449460429439818e-01	-6.037186390724796e-01
1	 7.937580614894639e-01	 7.615432619164807e-01	-2.120134631105033e+00
1	 7.778174592890001e-01	 7.778174592890001e-01	-3.663150567828179e+00
1	 9.259262842785204e-01	 6.053507896872874e-01	 1.022559275843641e+01
1	 9.133154237606012e-01	 6.242147060146422e-01	 8.981405599598084e+00
1	 9.002950523666308e-01	 6.428513678607802e-01	 7.696461930063615e+00
1	 8.868712757315890e-01	 6.612476107723105e-01	 6.372228260755312e+00
1	 8.730507583360266e-01	 6.793904884773112e-01	 5.010312776951578e+00
1	 8.588407137337162e-01	 6.972673023264860e-01	 3.612461656846860e+00
1	 8.442488929280895e-01	 7.148656302038259e-01	 2.180554644269034e+00
1	 8.292835709317136e-01	 7.321733547715186e-01	 7.165998929985633e-01
1	 8.139535315543212e-01	 7.491786909164617e-01	-7.772718936746545e-01
1	 7.982680504759251e-01	 7.658702122693813e-01	-2.298813998475680e+00
1	 7.822368766722498e-01	 7.822368766722498e-01	-3.845670865253492e+00
1	 9.311575062235878e-01	 6.087708506449440e-01	 1.013643477075327e+01
1	 9.184753979063021e-01	 6.277413427713190e-01	 8.878011542395450e+00
1	 9.053814650921912e-01	 6.464832964927860e-01	 7.579835185543667e+00
1	 8.918818479113473e-01	 6.649834729805102e-01	 6.243419538263590e+00
1	 8.779832484967536e-01	 6.832288528197900e-01	 4.870416487715300e+00
1	 8.636929211567237e-01	 7.012066656175473e-01	 3.462612079216043e+00
1	 8.490186606856686e-01	 7.189044190763259e-01	 2.021921897762435e+00
1	 8.339687888476395e-01	 7.363099273987780e-01	 5.503857409285808e-01
1	 8.185521390784121e-01	 7.534113388892411e-01	-9.498383919000080e-01
1	 8.027780394629711e-01	 7.701971626226821e-01	-2.476480963119053e+00
1	 7.866562940559999e-01	 7.866562940559998e-01	-4.027168176844853e+00
1	 9.363887281686443e-01	 6.121909116020950e-01	 1.004752739880165e+01
1	 9.236353720521780e-01	 6.312679795275907e-01	 8.775006450556646e+00
1	 9.104678778180825e-01	 6.501152251244868e-01	 7.463722466615518e+00
1	 8.968924200915631e-01	 6.687193351885058e-01	 6.115236301035246e+00
1	 8.829157386580347e-01	 6.870672171621656e-01	 4.731243264066071e+00
1	 8.685451285803517e-01	 7.051460289086058e-01	 3.313569023013059e+00
1	 8.537884284439049e-01	 7.229432079489243e-01	 1.864164793711962e+00
1	 8.386540067642287e-01	 7.404465000262365e-01	 3.851018429971393e-01
1	 8.231507466031421e-01	 7.576439868623197e-01	-1.121434671563795e+00
1	 8.072880284506020e-01	 7.745241129763826e-01	-2.653152492676417e+00
1	 7.910757114402500e-01	 7.910757114402501e-01	-4.207659647613318e+00
1	 9.416199501136904e-01	 6.156109725587411e-01	 9.958866465645601e+00
1	 9.287953461982286e-01	 6.347946162834570e-01	 8.672383841319599e+00
1	 9.155542905443047e-01	 6.537471537558830e-01	 7.348115206181137e+00
1	 9.019029922722360e-01	 6.724551973962970e-01	 5.987668124312263e+00
1	 8.878482288198697e-01	 6.909055815044373e-01	 4.592781054907833e+00
1	 8.733973360046003e-01	 7.090853921996617e-01	 3.165319046212228e+00
1	 8.585581962027985e-01	 7.269819968216206e-01	 1.707268738076151e+00
1	 8.433392246814813e-01	 7.445830726538936e-01	 2.207326949688395e-01
1	 8.277493541285117e-01	 7.618766348356980e-01	-1.292076902974439e+00
1	 8.117980174388175e-01	 7.788510633304829e-01	-2.828845177730680e+00
1	 7.954951288250000e-01	 7.954951288250000e-01	-4.387162041569671e+00
1	 7.513009550000000e-01	 7.513009549999999e-01	-2.545535130236917e+00
1	 7.355815598074721e-01	 7.666981275829785e-01	-4.201990334106688e+00
1	 7.195501551153904e-01	 7.817632789035854e-01	-5.825407015187145e+00
1	 7.032173463862691e-01	 7.964870455388074e-01	-7.411547481160262e+00
1	 6.865941080990721e-01	 8.108605186434350e-01	-8.956300109003010e+00
1	 6.696917592889826e-01	 8.248752617900426e-01	-1.045569434985137e+01
1	 6.525219380770629e-01	 8.385233272264494e-01	-1.190591495116217e+01
1	 6.350965753091958e-01	 8.517972704860857e-01	-1.330331530992926e+01
1	 6.174278674282064e-01	 8.646901632969710e-01	-1.464442987844648e+01
1	 5.995282487065600e-01	 8.771956047455878e-01	-1.592598555254635e+01
1	 5.814103629695434e-01	 8.893077306627528e-01	-1.714491198127951e+01
1	 7.557203723802501e-01	 7.557203723802501e-01	-2.734576144107646e+00
1	 7.399085101579740e-01	 7.712081165659308e-01	-4.386870906975797e+00
1	 7.237828030860739e-01	 7.863618864232009e-01	-6.008045620179184e+00
1	 7.073539190121367e-01	 8.011722634500895e-01	-7.593979653999842e+00
1	 6.906328969708851e-01	 8.156302863964138e-01	-9.140670956320868e+00
1	 6.736311225800627e-01	 8.297274692087052e-01	-1.064425061480882e+01
1	 6.563603024202660e-01	 8.434558173832984e-01	-1.210099668008172e+01
1	 6.388324375188248e-01	 8.568078426626426e-01	-1.350734716604470e+01
1	 6.210597960623457e-01	 8.697765760202157e-01	-1.485991215089862e+01
1	 6.030548854660730e-01	 8.823555788900653e-01	-1.615548491035375e+01
1	 5.848304239307369e-01	 8.945389526078942e-01	-1.739105202318419e+01
1	 7.601397897609999e-01	 7.601397897609999e-01	-2.922482664327180e+00
1	 7.442354605088753e-01	 7.757181055494676e-01	-4.571254103918586e+00
1	 7.280154510570568e-01	 7.909604939434562e-01	-6.190802388818312e+00
1	 7.114904916382033e-01	 8.058574813620351e-01	-7.777122786081741e+00
1	 6.946716858427970e-01	 8.204000541500504e-01	-9.326321709412834e+00
1	 6.775704858711399e-01	 8.345796766279889e-01	-1.083463084241045e+01
1	 6.601986667633652e-01	 8.483883075407014e-01	-1.229842056616870e+01
1	 6.425682997282496e-01	 8.618184148396570e-01	-1.371421260980385e+01
1	 6.246917246961800e-01	 8.748629887437908e-01	-1.507869184942433e+01
1	 6.065815222251809e-01	 8.875155530347177e-01	-1.638871718865671e+01
1	 5.882504848914254e-01	 8.997701745530254e-01	-1.764133146202441e+01
1	 7.645592071422498e-01	 7.645592071422498e-01	-3.109274364192457e+00
1	 7.485624108601771e-01	 7.802280945335894e-01	-4.755148549947950e+00
1	 7.322480990283387e-01	 7.955591014643507e-01	-6.373675272020705e+00
1	 7.156270642644686e-01	 8.105426992746441e-01	-7.960964548630026e+00
1	 6.987104747148063e-01	 8.251698219043436e-01	-9.513230173377444e+00
1	 6.815098491622146e-01	 8.394318840478930e-01	-1.102680340324344e+01
1	 6.640370311063616e-01	 8.533207976986582e-01	-1.249814599397767e+01
1	 6.463041619374702e-01	 8.668289870171284e-01	-1.392386250384534e+01
1	 6.283236533297095e-01	 8.799494014676970e-01	-1.530071179322126e+01
1	 6.101081589838835e-01	 8.926755271795445e-01	-1.662561765472626e+01
1	 5.916705458516085e-01	 9.050013964981454e-01	-1.789567851634748e+01
1	 7.689786245240000e-01	 7.689786245240000e-01	-3.294970464740993e+00
1	 7.528893612118782e-01	 7.847380835182961e-01	-4.938562671800760e+00
1	 7.364807469999202e-01	 8.001577089858843e-01	-6.556662267808349e+00
1	 7.197636368909330e-01	 8.152279171879164e-01	-8.145492896288690e+00
1	 7.027492635869141e-01	 8.299395896592944e-01	-9.701374663541818e+00
1	 6.854492124532865e-01	 8.442840914684178e-01	-1.122073739500704e+01
1	 6.678753954492541e-01	 8.582532878571694e-01	-1.270013328175131e+01
1	 6.500400241464864e-01	 8.718395591950574e-01	-1.413624884040219e+01
1	 6.319555819629344e-01	 8.850358141919340e-01	-1.552591611598842e+01
1	 6.136347957421812e-01	 8.978355013245466e-01	-1.686612306394251e+01
1	 5.950906068112861e-01	 9.102326184432551e-01	-1.815402305484894e+01
1	 7.733980419062499e-01	 7.733980419062499e-01	-3.479589747672015e+00
1	 7.572163115639794e-01	 7.892480725035876e-01	-5.121504703602736e+00
1	 7.407133949718012e-01	 8.047563165080570e-01	-6.739761419962392e+00
1	 7.239002095175960e-01	 8.199131351018518e-01	-8.330696059024287e+00
1	 7.067880524591199e-01	 8.347093574149022e-01	-9.890733990881952e+00
1	 6.893885757443559e-01	 8.491362988895631e-01	-1.141640262173916e+01
1	 6.717137597920434e-01	 8.631857780162342e-01	-1.290434365474406e+01
1	 6.537758863552989e-01	 8.768501313734439e-01	-1.435132470902774e+01
1	 6.355875105958546e-01	 8.901222269165020e-01	-1.575425022836826e+01
1	 6.171614325000735e-01	 9.029954754697230e-01	-1.711017161727714e+01
1	 5.985106677704586e-01	 9.154638403883543e-01	-1.841629654922562e+01
1	 7.778174592890001e-01	 7.778174592890001e-01	-3.663150567828179e+00
1	 7.615432619164805e-01	 7.937580614894640e-01	-5.303982692340226e+00
1	 7.449460429439817e-01	 8.093549240308695e-01	-6.922970816723428e+00
1	 7.280367821444578e-01	 8.245983530164510e-01	-8.516562534303906e+00
1	 7.108268413314239e-01	 8.394791251711672e-01	-1.008128744794285e+01
1	 6.933279390354223e-01	 8.539885063113293e-01	-1.161376957374986e+01
1	 6.755521241347291e-01	 8.681182681758534e-01	-1.311073921945450e+01
1	 6.575117485639072e-01	 8.818607035522879e-01	-1.456904426542222e+01
1	 6.392194392284701e-01	 8.952086396414006e-01	-1.598566078167108e+01
1	 6.206880692575607e-01	 9.081554496150744e-01	-1.735770292022464e+01
1	 6.019307287291257e-01	 9.206950623334427e-01	-1.868243202863587e+01
1	 7.822368766722498e-01	 7.822368766722498e-01	-3.845670865253492e+00
1	 7.658702122693813e-01	 7.982680504759252e-01	-5.486004503146963e+00
1	 7.491786909164617e-01	 8.139535315543212e-01	-7.106288589535992e+00
1	 7.321733547715186e-01	 8.292835709317133e-01	-8.703081079539135e+00
1	 7.148656302038259e-01	 8.442488929280891e-01	-1.027301479523448e+01
1	 6.972673023264863e-01	 8.588407137337162e-01	-1.181280940823422e+01
1	 6.793904884773115e-01	 8.730507583360264e-01	-1.331928293873149e+01
1	 6.612476107723109e-01	 8.868712757315885e-01	-1.478936270131489e+01
1	 6.428513678607806e-01	 9.002950523666304e-01	-1.622009563282703e+01
1	 6.242147060146426e-01	 9.133154237606005e-01	-1.760865794312764e+01
1	 6.053507896872875e-01	 9.259262842785204e-01	-1.895236403570346e+01
1	 7.866562940559999e-01	 7.866562940559998e-01	-4.027168176844853e+00
1	 7.701971626226820e-01	 8.027780394629711e-01	-5.667577824412286e+00
1	 7.534113388892411e-01	 8.185521390784118e-01	-7.289712911834381e+00
1	 7.363099273987781e-01	 8.339687888476395e-01	-8.890240704783622e+00
1	 7.189044190763261e-01	 8.490186606856686e-01	-1.046589624808712e+01
1	 7.012066656175475e-01	 8.636929211567236e-01	-1.201349393054066e+01
1	 6.832288528197903e-01	 8.779832484967532e-01	-1.352993860771946e+01
1	 6.649834729805106e-01	 8.918818479113471e-01	-1.501223621536236e+01
1	 6.464832964927864e-01	 9.053814650921909e-01	-1.645750381052063e+01
1	 6.277413427713194e-01	 9.184753979063016e-01	-1.786297898283736e+01
1	 6.087708506449439e-01	 9.311575062235877e-01	-1.922602858400441e+01
1	 7.910757114402500e-01	 7.910757114402501e-01	-4.207659647613318e+00
1	 7.745241129763826e-01	 8.072880284506018e-01	-5.848710172717549e+00
1	 7.576439868623196e-01	 8.231507466031421e-01	-7.473241997870017e+00
1	 7.404465000262366e-01	 8.386540067642286e-01	-9.078030665677019e+00
1	 7.229432079489243e-01	 8.537884284439047e-01	-1.065991246394590e+01
1	 7.051460289086060e-01	 8.685451285803516e-01	-1.221579557606544e+01
1	 6.870672171621656e-01	 8.829157386580343e-01	-1.374267083060982e+01
1	 6.687193351885065e-01	 8.968924200915627e-01	-1.523762198502235e+01
1	 6.501152251244874e-01	 9.104678778180821e-01	-1.669783548246023e+01
1	 6.312679795275914e-01	 9.236353720521774e-01	-1.812060962566162e+01
1	 6.121909116020950e-01	 9.363887281686443e-01	-1.950336311697884e+01
1	 7.954951288250000e-01	 7.954951288250000e-01	-4.387162041569671e+00
1	 7.788510633304829e-01	 8.117980174388176e-01	-6.029408897609343e+00
1	 7.618766348356981e-01	 8.277493541285117e-01	-7.656874101577915e+00
1	 7.445830726538939e-01	 8.433392246814815e-01	-9.266440456621831e+00
1	 7.269819968216208e-01	 8.585581962027984e-01	-1.085504453009130e+01
1	 7.090853921996618e-01	 8.733973360046001e-01	-1.241968739275196e+01
1	 6.909055815044375e-01	 8.878482288198696e-01	-1.395744499816737e+01
1	 6.724551973962977e-01	 9.019029922722359e-01	-1.546547813936490e+01
1	 6.537471537558837e-01	 9.155542905443044e-01	-1.694104192373854e+01
1	 6.347946162834578e-01	 9.287953461982281e-01	-1.838149471154501e+01
1	 6.156109725587411e-01	 9.416199501136904e-01	-1.978430646821311e+01
1	 5.814103629695434e-01	 8.893077306627528e-01	-1.714491198127951e+01
1	 5.630870349402235e-01	 9.010212212095035e-01	-1.825626608357282e+01
1	 5.445712413382625e-01	 9.123313066520512e-01	-1.934199999405530e+01
1	 5.258760818638161e-01	 9.232337713255228e-01	-2.039992958005631e+01
1	 5.070147501960148e-01	 9.337249557969681e-01	-2.142793741702262e+01
1	 4.880005051335911e-01	 9.438017572485543e-01	-2.242397970986547e+01
1	 4.688466420014874e-01	 9.534616281117341e-01	-2.338609277605274e+01
1	 4.495664644431204e-01	 9.627025729927415e-01	-2.431239905843550e+01
1	 4.301732567129680e-01	 9.715231439387403e-01	-2.520111264017084e+01
1	 4.106802565784049e-01	 9.799224341023263e-01	-2.605054423863052e+01
1	 3.911006289333422e-01	 9.879000698697851e-01	-2.685910565979368e+01
1	 5.848304239307369e-01	 8.945389526078942e-01	-1.739105202318419e+01
1	 5.663993116189709e-01	 9.063213460413853e-01	-1.852324243458500e+01
1	 5.477746015841012e-01	 9.176979613993099e-01	-1.962929562366712e+01
1	 5.289694705833432e-01	 9.286645582187661e-01	-2.070701932838123e+01
1	 5.099971899057049e-01	 9.392174555407289e-01	-2.175429041903116e+01
1	 4.908710963428531e-01	 9.493535322954965e-01	-2.276906177241990e+01
1	 4.716045634275242e-01	 9.590702259288257e-01	-2.374936869636585e+01
1	 4.522109730598614e-01	 9.683655293093409e-01	-2.469333487329378e+01
1	 4.327036876370162e-01	 9.772379859668380e-01	-2.559917779603820e+01
1	 4.130960227955836e-01	 9.856866837195180e-01	-2.646521367357816e+01
1	 3.934012208700279e-01	 9.937112467559407e-01	-2.728986178908540e+01
1	 5.882504848914254e-01	 8.997701745530254e-01	-1.764133146202441e+01
1	 5.697115882971235e-01	 9.116214708730721e-01	-1.879440084614232e+01
1	 5.509779618292757e-01	 9.230646161462196e-01	-1.992082385308190e+01
1	 5.320628593021578e-01	 9.340953451115379e-01	-2.101839993928015e+01
1	 5.129796296146547e-01	 9.447099552839259e-01	-2.208500010015289e+01
1	 4.937416875513670e-01	 9.549053073418127e-01	-2.311857369789511e+01
1	 4.743624848528252e-01	 9.646788237452590e-01	-2.411715482834626e+01
1	 4.548554816758987e-01	 9.740284856252801e-01	-2.507886819632179e+01
1	 4.352341185604127e-01	 9.829528279943034e-01	-2.600193447332136e+01
1	 4.155117890121822e-01	 9.914509333361347e-01	-2.688467511615967e+01
1	 3.957018128062240e-01	 9.995224236416069e-01	-2.772551662976610e+01
1	 5.916705458516085e-01	 9.050013964981454e-01	-1.789567851634748e+01
1	 5.730238649746811e-01	 9.169215957045638e-01	-1.906966879696181e+01
1	 5.541813220737866e-01	 9.284312708927810e-01	-2.021651128461344e+01
1	 5.351562480202601e-01	 9.395261320038381e-01	-2.133399700473091e+01
1	 5.159620693228643e-01	 9.502024550265585e-01	-2.241999091103856e+01
1	 4.966122787591330e-01	 9.604570823875029e-01	-2.347243866785933e+01
1	 4.771204062773908e-01	 9.702874215610349e-01	-2.448937296023168e+01
1	 4.574999902912328e-01	 9.796914419405599e-01	-2.546891930194458e+01
1	 4.377645494831579e-01	 9.886676700211364e-01	-2.640930131615840e+01
1	 4.179275552282006e-01	 9.972151829521756e-01	-2.730884546797733e+01
1	 3.980024047419303e-01	 1.005333600526783e+00	-2.816598523308327e+01
1	 5.950906068112861e-01	 9.102326184432551e-01	-1.815402305484894e+01
1	 5.763361416516438e-01	 9.222217205358602e-01	-1.934897543291626e+01
1	 5.573846823176336e-01	 9.337979256389933e-01	-2.051628620787957e+01
1	 5.382496367376501e-01	 9.449569188956662e-01	-2.165373782724064e+01
1	 5.189445090303334e-01	 9.556949547686272e-01	-2.275918903910643e+01
1	 4.994828699661510e-01	 9.660088574325674e-01	-2.383058162982164e+01
1	 4.798783277012205e-01	 9.758960193761527e-01	-2.486594667823102e+01
1	 4.601444989058635e-01	 9.853543982551796e-01	-2.586341029735963e+01
1	 4.402949804052514e-01	 9.943825120473377e-01	-2.682119883893677e+01
1	 4.203433214436386e-01	 1.002979432567641e+00	-2.773764354094100e+01
1	 4.003029966771468e-01	 1.011144777411470e+00	-2.861118460312929e+01
1	 5.985106677704586e-01	 9.154638403883543e-01	-1.841629654922562e+01
1	 5.796484183280115e-01	 9.275218453669616e-01	-1.963225151940092e+01
1	 5.605880425608165e-01	 9.391645803848568e-01	-2.082007855159188e+01
1	 5.413430254543278e-01	 9.503877057870228e-01	-2.197755137097377e+01
1	 5.219269487370624e-01	 9.611874545101319e-01	-2.310252235891887e+01
1	 5.023534611724207e-01	 9.715606324770055e-01	-2.419292924677654e+01
1	 4.826362491243146e-01	 9.815046171906129e-01	-2.524680131515443e+01
1	 4.627890075197908e-01	 9.910173545691400e-01	-2.626226507017081e+01
1	 4.428254113266935e-01	 1.000097354072907e+00	-2.723754937285790e+01
1	 4.227590876584968e-01	 1.008743682182532e+00	-2.817099000268861e+01
1	 4.026035886118738e-01	 1.016955954295667e+00	-2.906103364104597e+01
1	 6.019307287291257e-01	 9.206950623334427e-01	-1.868243202863587e+01
1	 5.829606950037844e-01	 9.328219701978683e-01	-1.991942939532576e+01
1	 5.637914028033356e-01	 9.445312351303716e-01	-2.112781983699160e+01
1	 5.444364141702933e-01	 9.558184926779082e-01	-2.230536821454483e+01
1	 5.249093884430507e-01	 9.666799542510727e-01	-2.344992038425254e+01
1	 5.052240523779427e-01	 9.771124075208180e-01	-2.455940984846894e+01
1	 4.853941705466731e-01	 9.871132150044153e-01	-2.563186390079324e+01
1	 4.654335161330144e-01	 9.966803108824400e-01	-2.666540923781000e+01
1	 4.453558422474840e-01	 1.005812196097843e+00	-2.765827701432343e+01
1	 4.251748538727744e-01	 1.014507931796846e+00	-2.860880732386613e+01
1	 4.049041805461109e-01	 1.022767131179374e+00	-2.951545309113117e+01
1	 6.053507896872875e-01	 9.259262842785204e-01	-1.895236403570346e+01
1	 5.862729716789624e-01	 9.381220950285796e-01	-2.021044292866401e+01
1	 5.669947630451909e-01	 9.498978898755376e-01	-2.143944313286277e+01
1	 5.475298028855463e-01	 9.612492795683215e-01	-2.263712050541383e+01
1	 5.278918281482990e-01	 9.721724539914495e-01	-2.380131422179396e+01
1	 5.080946435827165e-01	 9.826641825640043e-01	-2.492995338431025e+01
1	 4.881520919682958e-01	 9.927218128175598e-01	-2.602106311398373e+01
1	 4.680780247455348e-01	 1.002343267195081e+00	-2.707277009867016e+01
1	 4.478862731676229e-01	 1.011527038122148e+00	-2.808330757507091e+01
1	 4.275906200864721e-01	 1.020272181410586e+00	-2.905101972719598e+01
1	 4.072047724798582e-01	 1.028578308062591e+00	-2.997436548877187e+01
1	 6.087708506449439e-01	 9.311575062235877e-01	-1.922602858400441e+01
1	 5.895852483535453e-01	 9.434222198590957e-01	-2.050522747350269e+01
1	 5.701981232863821e-01	 9.552645446203548e-01	-2.175488301206130e+01
1	 5.506231916000872e-01	 9.666800664582632e-01	-2.297274191581678e+01
1	 5.308742678528070e-01	 9.776649537312624e-01	-2.415663652639335e+01
1	 5.109652347867422e-01	 9.882159576065646e-01	-2.530449137788284e+01
1	 4.909100133891830e-01	 9.983304106300467e-01	-2.641432923628459e+01
1	 4.707225333573518e-01	 1.008006223507062e+00	-2.748427658488905e+01
1	 4.504167040871105e-01	 1.017241880145820e+00	-2.851256853398922e+01
1	 4.300063862995895e-01	 1.026036431023750e+00	-2.949755313826022e+01
1	 4.095053644131160e-01	 1.034389484945319e+00	-3.043769511013332e+01
1	 6.121909116020950e-01	 9.363887281686443e-01	-1.950336311697884e+01
1	 5.928975250275331e-01	 9.487223446894166e-01	-2.080371982852938e+01
1	 5.734014835269095e-01	 9.606311993648234e-01	-2.207407550950225e+01
1	 5.537165803139156e-01	 9.721108533477332e-01	-2.331216760017433e+01
1	 5.338567075565744e-01	 9.831574534705111e-01	-2.451582145782069e+01
1	 5.138358259900199e-01	 9.937677326484989e-01	-2.568295688296797e+01
1	 4.936679348093344e-01	 1.003939008441876e+00	-2.681159410720820e+01
1	 4.733670419684652e-01	 1.013669179818383e+00	-2.789985921671266e+01
1	 4.529471350059464e-01	 1.022956722168860e+00	-2.894598899055101e+01
1	 4.324221525121268e-01	 1.031800680636338e+00	-2.994833513793526e+01
1	 4.118059563458840e-01	 1.040200661827557e+00	-3.090536792353313e+01
1	 6.156109725587411e-01	 9.416199501136904e-01	-1.978430646821311e+01
1	 5.962098017009265e-01	 9.540224695195425e-01	-2.110585819690647e+01
1	 5.766048437667731e-01	 9.659978541089431e-01	-2.239695808154735e+01
1	 5.568099690270316e-01	 9.775416402367315e-01	-2.365533415392040e+01
1	 5.368391472596018e-01	 9.886499532091958e-01	-2.487880463896218e+01
1	 5.167064171925495e-01	 9.993195076898073e-01	-2.606528444104082e+01
1	 4.964258562287501e-01	 1.009547606253046e+00	-2.721279108094527e+01
1	 4.760115505788752e-01	 1.019332136129044e+00	-2.831945005838184e+01
1	 4.554775659241309e-01	 1.028671564191268e+00	-2.938349961979652e+01
1	 4.348379187240837e-01	 1.037564930248352e+00	-3.040329491641163e+01
1	 4.141065482781622e-01	 1.046011838709305e+00	-3.137731154243791e+01
1	 3.911006289333422e-01	 9.879000698697851e-01	-2.685910565979368e+01
1	 3.714474402192345e-01	 9.954562015255159e-01	-2.753374181450644e+01
1	 3.517336337418573e-01	 1.002591492531163e+00	-2.814843190905733e+01
1	 3.319720059640349e-01	 1.009307107503605e+00	-2.870219942663507e+01
1	 3.121751838465298e-01	 1.015604698980536e+00	-2.919425150379939e+01
1	 2.923556033012256e-01	 1.021486393066090e+00	-2.962397686684209e+01
1	 2.725254888119741e-01	 1.026954774052105e+00	-2.999094299075393e+01
1	 2.526968342700303e-01	 1.032012868112777e+00	-3.029489252668905e+01
1	 2.328813850624824e-01	 1.036664126171887e+00	-3.053573904733713e+01
1	 2.130906214436766e-01	 1.040912406042435e+00	-3.071356216251832e+01
1	 1.933357432113846e-01	 1.044761953938440e+00	-3.082860205959424e+01
1	 3.934012208700279e-01	 9.937112467559407e-01	-2.728986178908540e+01
1	 3.736324251632709e-01	 1.001311826244610e+00	-2.797937545429739e+01
1	 3.538026551182274e-01	 1.008489089549963e+00	-2.860804580797164e+01
1	 3.339247824710317e-01	 1.015244208139567e+00	-2.917486722139031e+01
1	 3.140115084586853e-01	 1.021578844271924e+00	-2.967902224904326e+01
1	 2.940753421454938e-01	 1.027495136557664e+00	-3.011987950555503e+01
1	 2.741285799240366e-01	 1.032995684490343e+00	-3.049699074506519e+01
1	 2.541832862378694e-01	 1.038083532045181e+00	-3.081008719027397e+01
1	 2.342512755645915e-01	 1.042762150445510e+00	-3.105907516198194e+01
1	 2.143440956894562e-01	 1.047035420197350e+00	-3.124403106291286e+01
1	 1.944730122913974e-01	 1.050907612492446e+00	-3.136519577194635e+01
1	 3.957018128062240e-01	 9.995224236416069e-01	-2.772551662976610e+01
1	 3.758174101069071e-01	 1.007167450963309e+00	-2.842977574051643e+01
1	 3.558716764942655e-01	 1.014386686568452e+00	-2.907230551084043e+01
1	 3.358775589777437e-01	 1.021181308775290e+00	-2.965207126699006e+01
1	 3.158478330705827e-01	 1.027552989563138e+00	-3.016823101979240e+01
1	 2.957950809895101e-01	 1.033503880049119e+00	-3.062013328276436e+01
1	 2.757316710358335e-01	 1.039036594928505e+00	-3.100731407262914e+01
1	 2.556697382054092e-01	 1.044154195977542e+00	-3.132949314077024e+01
1	 2.356211660663486e-01	 1.048860174719115e+00	-3.158656948784633e+01
1	 2.155975699348118e-01	 1.053158434352260e+00	-3.177861621683525e+01
1	 1.956102813708955e-01	 1.057053271046452e+00	-3.190587478214928e+01
1	 3.980024047419303e-01	 1.005333600526783e+00	-2.816598523308327e+01
1	 3.780023950501428e-01	 1.013023075681613e+00	-2.888486001455458e+01
1	 3.579406978699713e-01	 1.020284283586630e+00	-2.954113045458916e+01
1	 3.378303354841709e-01	 1.027118409410778e+00	-3.013373290012459e+01
1	 3.176841576822218e-01	 1.033527134854179e+00	-3.066180085606726e+01
1	 2.975148198332744e-01	 1.039512623540453e+00	-3.112466274520107e+01
1	 2.773347621473646e-01	 1.045077505366590e+00	-3.152183883055741e+01
1	 2.571561901726500e-01	 1.050224859909860e+00	-3.185303735008167e+01
1	 2.369910565677537e-01	 1.054958198992700e+00	-3.211814991722218e+01
1	 2.168510441797434e-01	 1.059281448507164e+00	-3.231724624416767e+01
1	 1.967475504498789e-01	 1.063198929600459e+00	-3.245056824688844e+01
1	 4.003029966771468e-01	 1.011144777411470e+00	-2.861118460312929e+01
1	 3.801873799929781e-01	 1.018878700399522e+00	-2.934454751800168e+01
1	 3.600097192453450e-01	 1.026181880604498e+00	-3.001444192816759e+01
1	 3.397831119903131e-01	 1.033055510046029e+00	-3.061977526583660e+01
1	 3.195204822936028e-01	 1.039501280145047e+00	-3.115965656708262e+01
1	 2.992345586767869e-01	 1.045521367031669e+00	-3.163339417415471e+01
1	 2.789378532586302e-01	 1.051118415804599e+00	-3.204049258039568e+01
1	 2.586426421395918e-01	 1.056295523842136e+00	-3.238064846891880e+01
1	 2.383609470688068e-01	 1.061056223266267e+00	-3.265374600004965e+01
1	 2.181045184242510e-01	 1.065404462662065e+00	-3.285985140571434e+01
1	 1.978848195283477e-01	 1.069344588154465e+00	-3.299920695143219e+01
1	 4.026035886118738e-01	 1.016955954295667e+00	-2.906103364104597e+01
1	 3.823723649354130e-01	 1.024734325117036e+00	-2.980875933835259e+01
1	 3.620787406203865e-01	 1.032079477622055e+00	-3.049216301963659e+01
1	 3.417358884961705e-01	 1.038992610681042e+00	-3.111012326585310e+01
1	 3.213568069047254e-01	 1.045475425435741e+00	-3.166172468070032e+01
1	 3.009542975200477e-01	 1.051530110522764e+00	-3.214625553591349e+01
1	 2.805409443696303e-01	 1.057159326242533e+00	-3.256320453942561e+01
1	 2.601290941062343e-01	 1.062366187774369e+00	-3.291225677883305e+01
1	 2.397308375695078e-01	 1.067154247539815e+00	-3.319328889655591e+01
1	 2.193579926683346e-01	 1.071527476816960e+00	-3.340636355631811e+01
1	 1.990220886063018e-01	 1.075490246708472e+00	-3.355172326309916e+01
1	 4.049041805461109e-01	 1.022767131179374e+00	-2.951545309113117e+01
1	 3.845573498774476e-01	 1.030589949834155e+00	-3.027741835656997e+01
1	 3.641477619950957e-01	 1.037977074639302e+00	-3.097421856505429e+01
1	 3.436886650017429e-01	 1.044929711315819e+00	-3.160470350868005e+01
1	 3.231931315155899e-01	 1.051449570726263e+00	-3.216793339460294e+01
1	 3.026740363630564e-01	 1.057538854013740e+00	-3.266317643389564e+01
1	 2.821440354803646e-01	 1.063200236680389e+00	-3.308990553362722e+01
1	 2.616155460725778e-01	 1.068436851706560e+00	-3.344779414588584e+01
1	 2.411007280698567e-01	 1.073252271813344e+00	-3.373671133150840e+01
1	 2.206114669119943e-01	 1.077650490971851e+00	-3.395671609957534e+01
1	 2.001593576837413e-01	 1.081635905262479e+00	-3.410805108631436e+01
1	 4.072047724798582e-01	 1.028578308062591e+00	-2.997436548877187e+01
1	 3.867423348190817e-01	 1.036445574550879e+00	-3.075044919641862e+01
1	 3.662167833694727e-01	 1.043874671656237e+00	-3.146053509909939e+01
1	 3.456414415070306e-01	 1.050866811950359e+00	-3.210344426138885e+01
1	 3.250294561261963e-01	 1.057423716016612e+00	-3.267821252912491e+01
1	 3.043937752058133e-01	 1.063547597504596e+00	-3.318408806240227e+01
1	 2.837471265908335e-01	 1.069241147118170e+00	-3.362052795223452e+01
1	 2.631019980386221e-01	 1.074507515638708e+00	-3.398719397588870e+01
1	 2.424706185698538e-01	 1.079350296086854e+00	-3.428394755001833e+01
1	 2.218649411552299e-01	 1.083773505126737e+00	-3.451084394408569e+01
1	 2.012966267606660e-01	 1.087781563816485e+00	-3.466812581918828e+01
1	 4.095053644131160e-01	 1.034389484945319e+00	-3.043769511013332e+01
1	 3.889273197603154e-01	 1.042301199267208e+00	-3.122777817551144e+01
1	 3.682858047435176e-01	 1.049772268672862e+00	-3.195104080735731e+01
1	 3.475942180120332e-01	 1.056803912584663e+00	-3.260627540302586e+01
1	 3.268657807365444e-01	 1.063397861306787e+00	-3.319249348167098e+01
1	 3.061135140483183e-01	 1.069556340995332e+00	-3.370892316193038e+01
1	 2.853502177010366e-01	 1.075282057555875e+00	-3.415500570382547e+01
1	 2.645884500043674e-01	 1.080578179570813e+00	-3.453039117115125e+01
1	 2.438405090694987e-01	 1.085448320360345e+00	-3.483493327483522e+01
1	 2.231184153980416e-01	 1.089896519281619e+00	-3.506868346117701e+01
1	 2.024338958370761e-01	 1.093927222370492e+00	-3.523188431155859e+01
1	 4.118059563458840e-01	 1.040200661827557e+00	-3.090536792353313e+01
1	 3.911123047011488e-01	 1.048156823983142e+00	-3.170933325799561e+01
1	 3.703548261172301e-01	 1.055669865689176e+00	-3.244566548020398e+01
1	 3.495469945167511e-01	 1.062741013218729e+00	-3.311312837958702e+01
1	 3.287021053466342e-01	 1.069372006596789e+00	-3.371070918266582e+01
1	 3.078332528905713e-01	 1.075565084485949e+00	-3.423761597598220e+01
1	 2.869533088109739e-01	 1.081322967993503e+00	-3.469327417388071e+01
1	 2.660749019698135e-01	 1.086648843502876e+00	-3.507732208868093e+01
1	 2.452103995687917e-01	 1.091546344633818e+00	-3.538960566507173e+01
1	 2.243718896404292e-01	 1.096019533436496e+00	-3.563017244404660e+01
1	 2.035711649129715e-01	 1.100072880924498e+00	-3.579926482444036e+01
1	 4.141065482781622e-01	 1.046011838709305e+00	-3.137731154243791e+01
1	 3.932972896415818e-01	 1.054012448698682e+00	-3.219504400881453e+01
1	 3.724238474906106e-01	 1.061567462705180e+00	-3.294434046822960e+01
1	 3.514997710211839e-01	 1.068678113852559e+00	-3.362393616049014e+01
1	 3.305384299564659e-01	 1.075346151886618e+00	-3.423279405296833e+01
1	 3.095529917325726e-01	 1.081573827976446e+00	-3.477010220931567e+01
1	 2.885563999206459e-01	 1.087363878431055e+00	-3.523527018375895e+01
1	 2.675613539349605e-01	 1.092719507434895e+00	-3.562792449977314e+01
1	 2.465802900677326e-01	 1.097644368907272e+00	-3.594790327630394e+01
1	 2.256253638823929e-01	 1.102142547591368e+00	-3.619525006826576e+01
1	 2.047084339883523e-01	 1.106218539478505e+00	-3.637020699082561e+01
1	 1.933357432113846e-01	 1.044761953938440e+00	-3.082860205959424e+01
1	 1.736276557013740e-01	 1.048217385457841e+00	-3.089008345882869e+01
1	 1.539769571066577e-01	 1.051283666134210e+00	-3.089065306996042e+01
1	 1.343939271197825e-01	 1.053966091652700e+00	-3.083112469732692e+01
1	 1.148885168896667e-01	 1.056270267823133e+00	-3.071244345432039e+01
1	 9.547034027827500e-02	 1.058202090400186e+00	-3.053567779573487e+01
1	 7.614866639592593e-02	 1.059767724837014e+00	-3.030201135408601e+01
1	 5.693241338847285e-02	 1.060973586054718e+00	-3.001273463568473e+01
1	 3.783014344444292e-02	 1.061826318305864e+00	-2.966923663006970e+01
1	 1.885005898556771e-02	 1.062332775205699e+00	-2.927299638388074e+01
1	 0.000000000000000e+00	 1.062500000000000e+00	-2.882557458749372e+01
1	 1.944730122913974e-01	 1.050907612492446e+00	-3.136519577194635e+01
1	 1.746489948551299e-01	 1.054383370079331e+00	-3.143186651063960e+01
1	 1.548827039158940e-01	 1.057467687700608e+00	-3.143523838321697e+01
1	 1.351844796350182e-01	 1.060165892192520e+00	-3.137614318160401e+01
1	 1.155643316975929e-01	 1.062483622340241e+00	-3.125555173745045e+01
1	 9.603193051771425e-02	 1.064426808579356e+00	-3.107456553466816e+01
1	 7.659659972988145e-02	 1.066001652630392e+00	-3.083440811102705e+01
1	 5.726730993963160e-02	 1.067214607149281e+00	-3.053641630794558e+01
1	 3.805267370130919e-02	 1.068072355472424e+00	-3.018203142529572e+01
1	 1.896094168618776e-02	 1.068581791530452e+00	-2.977279033542641e+01
1	 0.000000000000000e+00	 1.068750000000000e+00	-2.931031660765715e+01
1	 1.956102813708955e-01	 1.057053271046452e+00	-3.190587478214928e+01
1	 1.756703340082874e-01	 1.060549354700821e+00	-3.197758486005697e+01
1	 1.557884507244795e-01	 1.063651709267005e+00	-3.198363657445087e+01
1	 1.359750321495818e-01	 1.066365692732341e+00	-3.192487940240651e+01
1	 1.162401465048564e-01	 1.068696976857349e+00	-3.180230953871864e+01
1	 9.659352075653001e-02	 1.070651526758527e+00	-3.161706109162580e+01
1	 7.704453306328200e-02	 1.072235580423771e+00	-3.137039705276149e+01
1	 5.760220649033269e-02	 1.073455628243843e+00	-3.106370010378740e+01
1	 3.827520395784313e-02	 1.074318392638983e+00	-3.069846331975554e+01
1	 1.907182438662829e-02	 1.074830807855205e+00	-3.027628082647213e+01
1	 0.000000000000000e+00	 1.075000000000000e+00	-2.979883846605376e+01
1	 1.967475504498789e-01	 1.063198929600459e+00	-3.245056824688844e+01
1	 1.766916731608462e-01	 1.066715339322310e+00	-3.252717026492617e+01
1	 1.566941975324142e-01	 1.069835730833404e+00	-3.253578152439195e+01
1	 1.367655846634734e-01	 1.072565493272161e+00	-3.247726889031554e+01
1	 1.169159613114570e-01	 1.074910331374456e+00	-3.235265357168294e+01
1	 9.715511099472224e-02	 1.076876244937697e+00	-3.216310190328989e+01
1	 7.749246639612764e-02	 1.078469508217150e+00	-3.190991588706674e+01
1	 5.793710304057614e-02	 1.079696649338406e+00	-3.159452355863834e+01
1	 3.849773421404479e-02	 1.080564429805542e+00	-3.121846924236197e+01
1	 1.918270708688930e-02	 1.081079824179958e+00	-3.078340375517456e+01
1	 0.000000000000000e+00	 1.081250000000000e+00	-3.029107461635229e+01
1	 1.978848195283477e-01	 1.069344588154465e+00	-3.299920695143219e+01
1	 1.777130123128064e-01	 1.072881323943800e+00	-3.308055605187874e+01
1	 1.575999443396979e-01	 1.076019752399802e+00	-3.309160863375299e+01
1	 1.375561371766928e-01	 1.078765293811981e+00	-3.303324865796733e+01
1	 1.175917761173949e-01	 1.081123685891564e+00	-3.290652200476281e+01
1	 9.771670123229093e-02	 1.083100963116868e+00	-3.271262684457922e+01
1	 7.794039972841832e-02	 1.084703436010529e+00	-3.245290375372524e+01
1	 5.827199959036193e-02	 1.085937670432968e+00	-3.212882564389370e+01
1	 3.872026446991417e-02	 1.086810466972101e+00	-3.174198757193913e+01
1	 1.929358978697078e-02	 1.087328840504711e+00	-3.129409649329571e+01
1	 0.000000000000000e+00	 1.087500000000000e+00	-3.078696101903435e+01
1	 1.990220886063018e-01	 1.075490246708472e+00	-3.355172326309916e+01
1	 1.787343514641680e-01	 1.079047308565290e+00	-3.363767707150843e+01
1	 1.585056911463307e-01	 1.082203773966200e+00	-3.365105477980131e+01
1	 1.383466896892402e-01	 1.084965094351801e+00	-3.359275715770976e+01
1	 1.182675909226700e-01	 1.087337040408672e+00	-3.346385441967050e+01
1	 9.827829146923614e-02	 1.089325681296038e+00	-3.326557618755689e+01
1	 7.838833306015408e-02	 1.090937363803908e+00	-3.299930118361077e+01
1	 5.860689613969008e-02	 1.092178691527530e+00	-3.266654672588876e+01
1	 3.894279472545124e-02	 1.093056504138661e+00	-3.226895809579404e+01
1	 1.940447248687273e-02	 1.093577856829463e+00	-3.180829784410082e+01
1	 0.000000000000000e+00	 1.093750000000000e+00	-3.128643509834173e+01
1	 2.001593576837413e-01	 1.081635905262479e+00	-3.410805108631436e+01
1	 1.797556906149310e-01	 1.085213293186779e+00	-3.419846965507702e+01
1	 1.594114379523127e-01	 1.088387795532598e+00	-3.421405827441257e+01
1	 1.391372422011155e-01	 1.091164894891622e+00	-3.415573424070059e+01
1	 1.189434057272824e-01	 1.093550394925780e+00	-3.402459177126155e+01
1	 9.883988170555776e-02	 1.095550399475208e+00	-3.382189156173966e+01
1	 7.883626639133488e-02	 1.097171291597286e+00	-3.354905005916816e+01
1	 5.894179268856058e-02	 1.098419712622092e+00	-3.320762852626897e+01
1	 3.916532498065600e-02	 1.099302541305220e+00	-3.279932196970530e+01
1	 1.951535518659516e-02	 1.099826873154216e+00	-3.232594800168999e+01
1	 0.000000000000000e+00	 1.100000000000000e+00	-3.178943570069314e+01
1	 2.012966267606660e-01	 1.087781563816485e+00	-3.466812581918828e+01
1	 1.807770297650954e-01	 1.091379277808269e+00	-3.476287157268798e+01
1	 1.603171847576438e-01	 1.094571817098996e+00	-3.478055882354359e+01
1	 1.399277947123187e-01	 1.097364695431442e+00	-3.472212111739387e+01
1	 1.196192205312319e-01	 1.099763749442888e+00	-3.458867634874481e+01
1	 9.940147194125595e-02	 1.101775117654379e+00	-3.438151591575125e+01
1	 7.928419972196075e-02	 1.103405219390665e+00	-3.410209357623281e+01
1	 5.927668923697343e-02	 1.104660733716655e+00	-3.375201408370560e+01
1	 3.938785523552848e-02	 1.105548578471779e+00	-3.333302167926384e+01
1	 1.962623788613807e-02	 1.106075889478969e+00	-3.284698851170928e+01
1	 0.000000000000000e+00	 1.106250000000000e+00	-3.229590305450914e+01
1	 2.024338958370761e-01	 1.093927222370492e+00	-3.523188431155859e+01
1	 1.817983689146613e-01	 1.097545262429758e+00	-3.533082199286934e+01
1	 1.612229315623240e-01	 1.100755838665394e+00	-3.535049748807391e+01
1	 1.407183472228497e-01	 1.103564495971262e+00	-3.529186031935661e+01
1	 1.202950353345188e-01	 1.105977103959996e+00	-3.515605173820126e+01
1	 9.996306217633058e-02	 1.107999835833550e+00	-3.494439348026889e+01
1	 7.973213305203170e-02	 1.109639147184044e+00	-3.465837620713883e+01
1	 5.961158578492860e-02	 1.110901754811217e+00	-3.429964771689895e+01
1	 3.961038549006866e-02	 1.111794615638339e+00	-3.387000100251979e+01
1	 1.973712058550145e-02	 1.112324905803722e+00	-3.337136223338585e+01
1	 0.000000000000000e+00	 1.112500000000000e+00	-3.280577873139231e+01
1	 2.035711649129715e-01	 1.100072880924498e+00	-3.579926482444036e+01
1	 1.828197080636285e-01	 1.103711247051248e+00	-3.590226144351171e+01
1	 1.621286783663532e-01	 1.106939860231791e+00	-3.592381664595818e+01
1	 1.415088997327088e-01	 1.109764296511083e+00	-3.586489566236698e+01
1	 1.209708501371428e-01	 1.112190458477105e+00	-3.572666278635728e+01
1	 1.005246524107817e-01	 1.114224554012720e+00	-3.551046973221109e+01
1	 8.018006638154769e-02	 1.115873074977423e+00	-3.521784366506206e+01
1	 5.994648233242615e-02	 1.117142775905780e+00	-3.485047498882514e+01
1	 3.983291574427654e-02	 1.118040652804898e+00	-3.441020497387942e+01
1	 1.984800328468531e-02	 1.118573922128475e+00	-3.389901330283627e+01
1	 0.000000000000000e+00	 1.118750000000000e+00	-3.331900560860734e+01
1	 2.047084339883523e-01	 1.106218539478505e+00	-3.637020699082561e+01
1	 1.838410472119971e-01	 1.109877231672737e+00	-3.647713177410773e+01
1	 1.630344251697317e-01	 1.113123881798189e+00	-3.650045995564062e+01
1	 1.422994522418957e-01	 1.115964097050903e+00	-3.644117221074094e+01
1	 1.216466649391041e-01	 1.118403812994212e+00	-3.630045556556870e+01
1	 1.010862426446093e-01	 1.120449272191891e+00	-3.607969136012134e+01
1	 8.062799971050875e-02	 1.122107002770802e+00	-3.578044286955205e+01
1	 6.028137887946602e-02	 1.123383797000342e+00	-3.540444267217116e+01
1	 4.005544599815213e-02	 1.124286689971457e+00	-3.495357984920732e+01
1	 1.995888598368964e-02	 1.124822938453228e+00	-3.442988709759595e+01
1	 0.000000000000000e+00	 1.125000000000000e+00	-3.383552783281390e+01
1	 1.125000000000000e+00	 0.000000000000000e+00	 2.466766902931665e+01
1	 1.124822938453228e+00	 1.995888598368899e-02	 2.468374631784202e+01
1	 1.124286689971457e+00	 4.005544599815156e-02	 2.464379784026109e+01
1	 1.123383797000342e+00	 6.028137887946552e-02	 2.454673861425712e+01
1	 1.122107002770802e+00	 8.062799971050830e-02	 2.439157872321077e+01
1	 1.120449272191891e+00	 1.010862426446089e-01	 2.417743046076642e+01
1	 1.118403812994212e+00	 1.216466649391038e-01	 2.390351538195166e+01
1	 1.115964097050903e+00	 1.422994522418954e-01	 2.356917121541699e+01
1	 1.113123881798190e+00	 1.630344251697315e-01	 2.317385858952698e+01
1	 1.109877231672738e+00	 1.838410472119971e-01	 2.271716752349744e+01
1	 1.106218539478505e+00	 2.047084339883523e-01	 2.219882363357877e+01
1	 1.131250000000000e+00	 0.000000000000000e+00	 2.441940731837258e+01
1	 1.131071954777978e+00	 2.006976868269332e-02	 2.443847007962685e+01
1	 1.130532727138007e+00	 4.027797625202714e-02	 2.440145759621642e+01
1	 1.129624818094883e+00	 6.061627542650540e-02	 2.430725164112577e+01
1	 1.128340930564143e+00	 8.107593303946935e-02	 2.415482847865571e+01
1	 1.126673990371002e+00	 1.016478328784365e-01	 2.394326612095379e+01
1	 1.124617167511235e+00	 1.223224797410650e-01	 2.367175149905592e+01
1	 1.122163897590606e+00	 1.430900047510823e-01	 2.333958750271948e+01
1	 1.119307903364434e+00	 1.639401719731100e-01	 2.294619984141558e+01
1	 1.116043216294032e+00	 1.848623863603657e-01	 2.249114367723170e+01
1	 1.112364198032268e+00	 2.058457030637330e-01	 2.197410997916017e+01
1	 1.137500000000000e+00	 0.000000000000000e+00	 2.417850924554925e+01
1	 1.137320971102724e+00	 2.018065138187717e-02	 2.420038082229189e+01
1	 1.136778764304539e+00	 4.050050650623501e-02	 2.416612830285897e+01
1	 1.135865839189383e+00	 6.095117197400295e-02	 2.407460049824303e+01
1	 1.134574858357410e+00	 8.152386636898536e-02	 2.392474014375642e+01
1	 1.132898708549996e+00	 1.022094231128876e-01	 2.371559126692168e+01
1	 1.130830522028087e+00	 1.229982945436891e-01	 2.344630647777243e+01
1	 1.128363698130076e+00	 1.438805572609413e-01	 2.311615413555960e+01
1	 1.125491924930371e+00	 1.648459187771392e-01	 2.272452534386732e+01
1	 1.122209200914935e+00	 1.858837255093329e-01	 2.227094072444729e+01
1	 1.118509856585547e+00	 2.069829721396284e-01	 2.175505691872544e+01
1	 1.143750000000000e+00	 0.000000000000000e+00	 2.394485409548003e+01
1	 1.143569987427465e+00	 2.029153408124055e-02	 2.396936072648905e+01
1	 1.143024801471052e+00	 4.072303676077520e-02	 2.393769502657964e+01
1	 1.142106860283841e+00	 6.128606852195812e-02	 2.384867312282496e+01
1	 1.140808786150602e+00	 8.197179969905631e-02	 2.370120450688460e+01
1	 1.139123426728873e+00	 1.027710133479622e-01	 2.349429951366103e+01
1	 1.137043876544769e+00	 1.236741093469759e-01	 2.322707673020803e+01
1	 1.134563498669313e+00	 1.446711097714725e-01	 2.289877028860136e+01
1	 1.131675946496002e+00	 1.657516655818194e-01	 2.250873699441318e+01
1	 1.128375185535448e+00	 1.869050646588988e-01	 2.205646324065870e+01
1	 1.124655515138340e+00	 2.081202412160386e-01	 2.154157165564840e+01
1	 1.150000000000000e+00	 0.000000000000000e+00	 2.371832377704489e+01
1	 1.149819003752202e+00	 2.040241678078345e-02	 2.374529453415994e+01
1	 1.149270838637547e+00	 4.094556701564766e-02	 2.371604533232576e+01
1	 1.148347881378257e+00	 6.162096507037097e-02	 2.362935988823484e+01
1	 1.147042713943719e+00	 8.241973302968218e-02	 2.348411473057755e+01
1	 1.145348144907632e+00	 1.033326035836604e-01	 2.327928678888022e+01
1	 1.143257231061281e+00	 1.243499241509254e-01	 2.301396092038027e+01
1	 1.140763299208316e+00	 1.454616622826756e-01	 2.268733732836382e+01
1	 1.137859968061326e+00	 1.666574123871505e-01	 2.229873882324647e+01
1	 1.134541170155570e+00	 1.879264038090633e-01	 2.184761787582593e+01
1	 1.130801173690648e+00	 2.092575102929633e-01	 2.133356341062104e+01
1	 1.156250000000000e+00	 0.000000000000000e+00	 2.349880275244503e+01
1	 1.156068020076935e+00	 2.051329948050587e-02	 2.352806947931202e+01
1	 1.155516875804023e+00	 4.116809727085244e-02	 2.350106921607257e+01
1	 1.154588902472632e+00	 6.195586161924145e-02	 2.341655353814133e+01
1	 1.153276641736761e+00	 8.286766636086300e-02	 2.327336628737149e+01
1	 1.151572863086273e+00	 1.038941938199820e-01	 2.307045127049919e+01
1	 1.149470585577622e+00	 1.250257389555378e-01	 2.280685990335482e+01
1	 1.146963099747086e+00	 1.462522147945509e-01	 2.248175875398187e+01
1	 1.144043989626343e+00	 1.675631591931325e-01	 2.209443693558354e+01
1	 1.140707154775301e+00	 1.889477429598262e-01	 2.164431329828827e+01
1	 1.136946832242471e+00	 2.103947793704027e-01	 2.113094336713122e+01
1	 1.162500000000000e+00	 0.000000000000000e+00	 2.328617796856496e+01
1	 1.162317036401662e+00	 2.062418218040783e-02	 2.331757522102749e+01
1	 1.161762912970481e+00	 4.139062752638950e-02	 2.329265903947294e+01
1	 1.160829923566964e+00	 6.229075816856960e-02	 2.321014912280077e+01
1	 1.159510569529729e+00	 8.331559969259870e-02	 2.306885689770509e+01
1	 1.157797581264797e+00	 1.044557840569273e-01	 2.286769332615999e+01
1	 1.155683940093792e+00	 1.257015537608129e-01	 2.260567666634653e+01
1	 1.153162900285622e+00	 1.470427673070983e-01	 2.228194013987781e+01
1	 1.150228011191053e+00	 1.684689059997653e-01	 2.189573945588331e+01
1	 1.146873139394641e+00	 1.899690821111878e-01	 2.144646014050687e+01
1	 1.143092490793808e+00	 2.115320484483569e-01	 2.093362461869956e+01
1	 1.168750000000000e+00	 0.000000000000000e+00	 2.308033879053733e+01
1	 1.168566052726385e+00	 2.073506488048930e-02	 2.311370377862176e+01
1	 1.168008950136921e+00	 4.161315778225886e-02	 2.309070946660407e+01
1	 1.167070944661255e+00	 6.262565471835538e-02	 2.301004393738351e+01
1	 1.165744497322621e+00	 8.376353302488941e-02	 2.287048646981486e+01
1	 1.164022299443203e+00	 1.050173742944959e-01	 2.267091545467802e+01
1	 1.161897294609792e+00	 1.263773685667508e-01	 2.241031627170994e+01
1	 1.159362700823924e+00	 1.478333198203177e-01	 2.208778908027238e+01
1	 1.156412032755457e+00	 1.693746528070491e-01	 2.170255647385703e+01
1	 1.153039124013590e+00	 1.909904212631480e-01	 2.125397094654800e+01
1	 1.149238149344660e+00	 2.126693175268256e-01	 2.074152211780884e+01
1	 1.175000000000000e+00	 0.000000000000000e+00	 2.288117693742779e+01
1	 1.174815069051104e+00	 2.084594758075031e-02	 2.291634946887136e+01
1	 1.174254987303342e+00	 4.183568803846051e-02	 2.289511740273277e+01
1	 1.173311965755504e+00	 6.296055126859884e-02	 2.281613746226888e+01
1	 1.171978425115439e+00	 8.421146635773503e-02	 2.267815704154921e+01
1	 1.170247017621492e+00	 1.055789645326882e-01	 2.248002222936173e+01
1	 1.168110649125622e+00	 1.270531833733514e-01	 2.222068580174947e+01
1	 1.165562501361993e+00	 1.486238723342092e-01	 2.189921513546677e+01
1	 1.162596054319553e+00	 1.702803996149837e-01	 2.151479999220084e+01
1	 1.159205108632150e+00	 1.920117604157068e-01	 2.106676012124259e+01
1	 1.155383807895026e+00	 2.138065866058091e-01	 2.055455262646363e+01
1	 1.181250000000000e+00	 0.000000000000000e+00	 2.268858641996152e+01
1	 1.181064085375818e+00	 2.095683028119083e-02	 2.272540884523440e+01
1	 1.180501024469744e+00	 4.205821829499447e-02	 2.270578193502461e+01
1	 1.179552986849712e+00	 6.329544781929992e-02	 2.262833130523539e+01
1	 1.178212352908183e+00	 8.465939969113560e-02	 2.249177272402944e+01
1	 1.176471735799663e+00	 1.061405547715039e-01	 2.229492024313219e+01
1	 1.174324003641281e+00	 1.277289981806149e-01	 2.203669430528148e+01
1	 1.171762301899829e+00	 1.494144248487729e-01	 2.171612977982979e+01
1	 1.168780075883342e+00	 1.711861464235691e-01	 2.133238387598767e+01
1	 1.165371093250317e+00	 1.930330995688642e-01	 2.088474388095966e+01
1	 1.161529466444907e+00	 2.149438556853072e-01	 2.037263466831934e+01
1	 1.187500000000000e+00	 0.000000000000000e+00	 2.250246348021660e+01
1	 1.187313101700527e+00	 2.106771298181088e-02	 2.254078063899069e+01
1	 1.186747061636129e+00	 4.228074855186074e-02	 2.252260427512572e+01
1	 1.185794007943877e+00	 6.363034437045868e-02	 2.244652914547654e+01
1	 1.184446280700851e+00	 8.510733302509109e-02	 2.231123964708993e+01
1	 1.182696453977716e+00	 1.067021450109431e-01	 2.211551805537508e+01
1	 1.180537358156770e+00	 1.284048129885411e-01	 2.185825274588419e+01
1	 1.177962102437431e+00	 1.502049773640085e-01	 2.153844635142786e+01
1	 1.174964097446825e+00	 1.720918932328055e-01	 2.115522380365746e+01
1	 1.171537077868094e+00	 1.940544387226202e-01	 2.070784020593416e+01
1	 1.167675124994303e+00	 2.160811247653200e-01	 2.019568848232281e+01
1	 1.106218539478505e+00	 2.047084339883523e-01	 2.219882363357877e+01
1	 1.102142547591368e+00	 2.256253638823922e-01	 2.184467162368927e+01
1	 1.097644368907272e+00	 2.465802900677321e-01	 2.143731843433387e+01
1	 1.092719507434896e+00	 2.675613539349601e-01	 2.097796134149678e+01
1	 1.087363878431055e+00	 2.885563999206455e-01	 2.046795715822927e+01
1	 1.081573827976446e+00	 3.095529917325723e-01	 1.990882195255911e+01
1	 1.075346151886618e+00	 3.305384299564658e-01	 1.930222999981340e+01
1	 1.068678113852559e+00	 3.514997710211838e-01	 1.865001194426351e+01
1	 1.061567462705180e+00	 3.724238474906107e-01	 1.795415215000220e+01
1	 1.054012448698681e+00	 3.932972896415817e-01	 1.721678522641336e+01
1	 1.046011838709305e+00	 4.141065482781622e-01	 1.644019171945692e+01
1	 1.112364198032268e+00	 2.058457030637330e-01	 2.197410997916017e+01
1	 1.108265561745950e+00	 2.268788381243560e-01	 2.162655338872408e+01
1	 1.103742393180392e+00	 2.479501805666731e-01	 2.122591850193211e+01
1	 1.098790171366544e+00	 2.690478059001071e-01	 2.077342948635507e+01
1	 1.093404788868202e+00	 2.901594910303174e-01	 2.027047093909173e+01
1	 1.087582571466509e+00	 3.112727305745735e-01	 1.971858752708822e+01
1	 1.081320297175989e+00	 3.323747545662974e-01	 1.911948285403986e+01
1	 1.074615214485912e+00	 3.534525475256167e-01	 1.847501752895877e+01
1	 1.067465059720694e+00	 3.744928688639911e-01	 1.778720641656265e+01
1	 1.059868073413723e+00	 3.954822745820148e-01	 1.705821505516334e+01
1	 1.051823015590553e+00	 4.164071402104405e-01	 1.629035523367021e+01
1	 1.118509856585547e+00	 2.069829721396284e-01	 2.175505691872544e+01
1	 1.114388575899955e+00	 2.281323123667437e-01	 2.141418797022668e+01
1	 1.109840417452864e+00	 2.493200710659661e-01	 2.102036364610132e+01
1	 1.104860835297491e+00	 2.705342578655532e-01	 2.057483484981680e+01
1	 1.099445699304615e+00	 2.917625821402549e-01	 2.007901380305022e+01
1	 1.093591314955824e+00	 3.129924694168266e-01	 1.953447360882836e+01
1	 1.087294442464618e+00	 3.342110791763873e-01	 1.894294703344991e+01
1	 1.080552315118551e+00	 3.554053240303347e-01	 1.830632448244657e+01
1	 1.073362656735540e+00	 3.765618902377038e-01	 1.762665115098192e+01
1	 1.065723698128166e+00	 3.976672595228482e-01	 1.690612333468375e+01
1	 1.057634192471292e+00	 4.187077321432085e-01	 1.614708389291392e+01
1	 1.124655515138340e+00	 2.081202412160386e-01	 2.154157165564840e+01
1	 1.120511590053385e+00	 2.293857866095552e-01	 2.120748105972793e+01
1	 1.115938441724688e+00	 2.506899615656110e-01	 2.082055804591260e+01
1	 1.110931499227738e+00	 2.720207098312985e-01	 2.038208010042874e+01
1	 1.105486609740293e+00	 2.933656732504580e-01	 1.989348691267696e+01
1	 1.099600058444391e+00	 3.147122082593315e-01	 1.935637986159642e+01
1	 1.093268587752507e+00	 3.360474037867355e-01	 1.877252071304176e+01
1	 1.086489415750475e+00	 3.573581005353373e-01	 1.814382950360065e+01
1	 1.079260253749718e+00	 3.786309116117486e-01	 1.747238159149344e+01
1	 1.071579322842008e+00	 3.998522444640818e-01	 1.676040386086515e+01
1	 1.063445369351519e+00	 4.210083240764662e-01	 1.601027007186117e+01
1	 1.130801173690648e+00	 2.092575102929633e-01	 2.133356341062104e+01
1	 1.126634604206239e+00	 2.306392608527909e-01	 2.100634039894295e+01
1	 1.122036465995865e+00	 2.520598520656080e-01	 2.062640796350084e+01
1	 1.117002163157283e+00	 2.735071617973428e-01	 2.019507002263901e+01
1	 1.111527520175237e+00	 2.949687643609268e-01	 1.971379357918401e+01
1	 1.105608801932210e+00	 3.164319471020885e-01	 1.918420813043067e+01
1	 1.099242733039653e+00	 3.378837283973417e-01	 1.860810428140048e+01
1	 1.092426516381683e+00	 3.593108770406249e-01	 1.798743153697130e+01
1	 1.085157850763229e+00	 3.806999329861257e-01	 1.732429525376035e+01
1	 1.077434947555251e+00	 4.020372294057160e-01	 1.662095273838309e+01
1	 1.069256546231237e+00	 4.233089160102137e-01	 1.587980848486595e+01
1	 1.136946832242471e+00	 2.103947793704027e-01	 2.113094336713122e+01
1	 1.132757618358517e+00	 2.318927350964506e-01	 2.081067572436071e+01
1	 1.128134490266393e+00	 2.534297425659570e-01	 2.043782168776567e+01
1	 1.123072827086128e+00	 2.749936137636863e-01	 2.001371145961032e+01
1	 1.117568430609446e+00	 2.965718554716611e-01	 1.953983920435184e+01
1	 1.111617545419281e+00	 3.181516859450972e-01	 1.901786238263879e+01
1	 1.105216878326057e+00	 3.397200530082062e-01	 1.844960028087145e+01
1	 1.098363617012176e+00	 3.612636535461974e-01	 1.783703171209150e+01
1	 1.091055447776072e+00	 3.827689543608349e-01	 1.718229186932311e+01
1	 1.083290572267894e+00	 4.042222143477506e-01	 1.648766831829844e+01
1	 1.075067723110444e+00	 4.256095079444508e-01	 1.575559612272855e+01
1	 1.143092490793808e+00	 2.115320484483569e-01	 2.093362461869956e+01
1	 1.138880632510218e+00	 2.331462093405342e-01	 2.062039871362101e+01
1	 1.134232514536273e+00	 2.547996330666580e-01	 2.025470947988853e+01
1	 1.129143491014272e+00	 2.764800657303289e-01	 1.983791325787836e+01
1	 1.123609341042921e+00	 2.981749465826611e-01	 1.937153122433125e+01
1	 1.117626288905604e+00	 3.198714247883579e-01	 1.885724865074775e+01
1	 1.111191023611719e+00	 3.415563776193289e-01	 1.829691334966360e+01
1	 1.104300717641954e+00	 3.632164300520547e-01	 1.769253328474079e+01
1	 1.096953044788247e+00	 3.848379757358763e-01	 1.704627332603332e+01
1	 1.089146196979938e+00	 4.064071992901855e-01	 1.636045113767062e+01
1	 1.080878899989141e+00	 4.279100998791776e-01	 1.563753219150077e+01
1	 1.149238149344660e+00	 2.126693175268256e-01	 2.074152211780884e+01
1	 1.145003646661344e+00	 2.343996835850418e-01	 2.043542293361213e+01
1	 1.140330538805506e+00	 2.561695235677111e-01	 2.007698352059780e+01
1	 1.135214154941715e+00	 2.779665176972706e-01	 1.966758621378549e+01
1	 1.129650251475662e+00	 2.997780376939267e-01	 1.920877905524843e+01
1	 1.123635032391178e+00	 3.215911636318705e-01	 1.870227497728379e+01
1	 1.117165168896640e+00	 3.433927022307099e-01	 1.814995016581028e+01
1	 1.110237818271017e+00	 3.651692065581970e-01	 1.755384158009377e+01
1	 1.102850641799755e+00	 3.869069971112501e-01	 1.691614361039788e+01
1	 1.095001821691382e+00	 4.085921842330208e-01	 1.623920386110850e+01
1	 1.086690076867327e+00	 4.302106918143942e-01	 1.552551805325462e+01
1	 1.155383807895026e+00	 2.138065866058091e-01	 2.055455262646363e+01
1	 1.151126660811894e+00	 2.356531578299734e-01	 2.025566379022477e+01
1	 1.146428563074090e+00	 2.575394140691162e-01	 1.990455785911708e+01
1	 1.141284818868457e+00	 2.794529696645113e-01	 1.950264302162440e+01
1	 1.135691161907668e+00	 3.013811288054580e-01	 1.905149404054608e+01
1	 1.129643775876004e+00	 3.233109024756349e-01	 1.855285136131533e+01
1	 1.123139314180819e+00	 3.452290268423490e-01	 1.800861939291851e+01
1	 1.116174918899365e+00	 3.671219830646241e-01	 1.742086393768295e+01
1	 1.108748238810594e+00	 3.889760184869558e-01	 1.679180875176404e+01
1	 1.100857446402227e+00	 4.107771691762566e-01	 1.612383122418681e+01
1	 1.092501253745003e+00	 4.325112837501006e-01	 1.541945716874134e+01
1	 1.161529466444907e+00	 2.149438556853072e-01	 2.037263466831934e+01
1	 1.157249674961867e+00	 2.369066320753289e-01	 2.008103847970130e+01
1	 1.152526587342026e+00	 2.589093045708732e-01	 1.973734836373415e+01
1	 1.147355482794497e+00	 2.809394216320512e-01	 1.934299822342753e+01
1	 1.141732072338939e+00	 3.029842199172548e-01	 1.889958939999617e+01
1	 1.135652519360083e+00	 3.250306413196512e-01	 1.840888970669227e+01
1	 1.129113459464256e+00	 3.470653514542463e-01	 1.787283162764068e+01
1	 1.122112019526998e+00	 3.690747595713361e-01	 1.729350965810897e+01
1	 1.114645835820765e+00	 3.910450398629938e-01	 1.667317676827591e+01
1	 1.106713071112472e+00	 4.129621541198926e-01	 1.601423997865828e+01
1	 1.098312430622169e+00	 4.348118756862965e-01	 1.531925504187074e+01
1	 1.167675124994303e+00	 2.160811247653200e-01	 2.019568848232281e+01
1	 1.163372689111265e+00	 2.381601063211085e-01	 1.991146594152110e+01
1	 1.158624611609315e+00	 2.602791950729823e-01	 1.957527267393074e+01
1	 1.153426146719838e+00	 2.824258735998902e-01	 1.918856816034257e+01
1	 1.147772982769477e+00	 3.045873110293172e-01	 1.875298018032288e+01
1	 1.141661262843413e+00	 3.267503801639193e-01	 1.827030377192038e+01
1	 1.135087604746951e+00	 3.489016760664018e-01	 1.774249934880498e+01
1	 1.128049120153915e+00	 3.710275360783329e-01	 1.717168995143344e+01
1	 1.120543432830269e+00	 3.931140612393641e-01	 1.656015761453750e+01
1	 1.112568695822117e+00	 4.151471390639291e-01	 1.591033883939673e+01
1	 1.104123607498825e+00	 4.371124676229823e-01	 1.522481916594399e+01
1	 1.046011838709305e+00	 4.141065482781622e-01	 1.644019171945692e+01
1	 1.037564930248352e+00	 4.348379187240829e-01	 1.596254710568014e+01
1	 1.028671564191268e+00	 4.554775659241302e-01	 1.544212736009558e+01
1	 1.019332136129044e+00	 4.760115505788748e-01	 1.488056046411060e+01
1	 1.009547606253047e+00	 4.964258562287498e-01	 1.427959772714414e+01
1	 9.993195076898076e-01	 5.167064171925492e-01	 1.364110936108596e+01
1	 9.886499532091959e-01	 5.368391472596017e-01	 1.296707937992673e+01
1	 9.775416402367314e-01	 5.568099690270316e-01	 1.225959984003060e+01
1	 9.659978541089431e-01	 5.766048437667730e-01	 1.152086444226012e+01
1	 9.540224695195425e-01	 5.962098017009265e-01	 1.075316152286423e+01
1	 9.416199501136904e-01	 6.156109725587411e-01	 9.958866465645601e+00
1	 1.051823015590553e+00	 4.164071402104405e-01	 1.629035523367021e+01
1	 1.043329179859871e+00	 4.372536849360401e-01	 1.581743843714227e+01
1	 1.034386406213196e+00	 4.580079968423149e-01	 1.530105749135828e+01
1	 1.024995092439249e+00	 4.786560591892849e-01	 1.474270218887739e+01
1	 1.015156204063796e+00	 4.991837776481654e-01	 1.414398616436532e+01
1	 1.004871282730738e+00	 5.195770083950788e-01	 1.350664306134254e+01
1	 9.941424529475568e-01	 5.398215869626289e-01	 1.283252203377638e+01
1	 9.829724271254705e-01	 5.599033577401479e-01	 1.212358259426110e+01
1	 9.713645088528782e-01	 5.798082040066367e-01	 1.138188882609800e+01
1	 9.593225943495680e-01	 5.995220783743195e-01	 1.060960298216175e+01
1	 9.468511720587311e-01	 6.190310335153869e-01	 9.808978498943750e+00
1	 1.057634192471292e+00	 4.187077321432085e-01	 1.614708389291392e+01
1	 1.049093429470974e+00	 4.396694511485773e-01	 1.567826116343114e+01
1	 1.040101248234794e+00	 4.605384277611506e-01	 1.516529221214269e+01
1	 1.030658048749201e+00	 4.813005678003983e-01	 1.460952986858489e+01
1	 1.020764801874358e+00	 5.019416990683169e-01	 1.401245131960600e+01
1	 1.010423057771539e+00	 5.224475995983565e-01	 1.337565486414851e+01
1	 9.996349526858346e-01	 5.428040266663965e-01	 1.270085601245921e+01
1	 9.884032140141622e-01	 5.629967464539760e-01	 1.198988293776453e+01
1	 9.767311635967921e-01	 5.830115642471638e-01	 1.124467129385653e+01
1	 9.646227191795888e-01	 6.028343550483076e-01	 1.046725841747352e+01
1	 9.520823940037718e-01	 6.224510944725381e-01	 9.659776939770879e+00
1	 1.063445369351519e+00	 4.210083240764662e-01	 1.601027007186117e+01
1	 1.054857679081662e+00	 4.420852173616946e-01	 1.554491804856672e+01
1	 1.045816090256063e+00	 4.630688586806381e-01	 1.503474456196502e+01
1	 1.036321005058900e+00	 4.839450764122154e-01	 1.448096668429942e+01
1	 1.026373399684734e+00	 5.046996204892040e-01	 1.388492636142266e+01
1	 1.015974832812209e+00	 5.253181908023822e-01	 1.324808775142890e+01
1	 1.005127452424029e+00	 5.457864663709044e-01	 1.257203391720681e+01
1	 9.938340009028072e-01	 5.660901351685169e-01	 1.185846287727329e+01
1	 9.820978183406851e-01	 5.862149244883551e-01	 1.110918302448715e+01
1	 9.699228440096039e-01	 6.061466317228905e-01	 1.032610792755295e+01
1	 9.573136159488123e-01	 6.258711554301947e-01	 9.511250535543812e+00
1	 1.069256546231237e+00	 4.233089160102137e-01	 1.587980848486595e+01
1	 1.060621928691935e+00	 4.445009835753922e-01	 1.541731397039457e+01
1	 1.051530932277003e+00	 4.655992896007773e-01	 1.490932947078690e+01
1	 1.041983961368346e+00	 4.865895850247356e-01	 1.435693748706415e+01
1	 1.031981997494924e+00	 5.074575419108267e-01	 1.376134591122954e+01
1	 1.021526607852750e+00	 5.281887820071562e-01	 1.312388594463190e+01
1	 1.010619952162139e+00	 5.487689060761527e-01	 1.244600937965880e+01
1	 9.992647877914053e-01	 5.691835238837701e-01	 1.172928524546071e+01
1	 9.874644730845572e-01	 5.894182847302104e-01	 1.097539582348582e+01
1	 9.752229688396137e-01	 6.094589083980684e-01	 1.018613204378921e+01
1	 9.625448378938531e-01	 6.292912163883564e-01	 9.363388278300960e+00
1	 1.075067723110444e+00	 4.256095079444508e-01	 1.575559612272855e+01
1	 1.066386178301793e+00	 4.469167497896701e-01	 1.529535586345549e+01
1	 1.057245774297613e+00	 4.681297205215678e-01	 1.478896370792192e+01
1	 1.047646917677539e+00	 4.892340936379593e-01	 1.423736875276474e+01
1	 1.037590595304927e+00	 5.102154633331852e-01	 1.364164600403183e+01
1	 1.027078382893161e+00	 5.310593732126778e-01	 1.300299487122850e+01
1	 1.016112451900167e+00	 5.517513457821414e-01	 1.232273703401407e+01
1	 1.004695574679956e+00	 5.722769125997353e-01	 1.160231367861783e+01
1	 9.928311278284079e-01	 5.926216449727295e-01	 1.084328210595960e+01
1	 9.805230936696185e-01	 6.127711850738412e-01	 1.004731171851422e+01
1	 9.677760598388938e-01	 6.327112773470236e-01	 9.216179398090746e+00
1	 1.080878899989141e+00	 4.279100998791776e-01	 1.563753219150077e+01
1	 1.072150427911236e+00	 4.493325160045279e-01	 1.517895266369785e+01
1	 1.062960616317895e+00	 4.706601514430098e-01	 1.467356583259106e+01
1	 1.053309873986479e+00	 4.918786022518866e-01	 1.412218853845030e+01
1	 1.043199193114743e+00	 5.129733847562792e-01	 1.352576405042601e+01
1	 1.032630157933442e+00	 5.339299644189478e-01	 1.288536113229257e+01
1	 1.021604951638111e+00	 5.547337854888702e-01	 1.220217249008008e+01
1	 1.010126361568459e+00	 5.753703013164130e-01	 1.147751259505115e+01
1	 9.981977825722382e-01	 5.958250052159125e-01	 1.071281488023898e+01
1	 9.858232184996180e-01	 6.160834617502090e-01	 9.909628313687252e+00
1	 9.730072817839345e-01	 6.361313383061961e-01	 9.069613356573242e+00
1	 1.086690076867327e+00	 4.302106918143942e-01	 1.552551805325462e+01
1	 1.077914677520265e+00	 4.517482822199661e-01	 1.506801525496421e+01
1	 1.068675458337847e+00	 4.731905823651034e-01	 1.456305614606394e+01
1	 1.058972830295167e+00	 4.945231108665172e-01	 1.401132644005686e+01
1	 1.048807790924374e+00	 5.157313061801091e-01	 1.341363879981928e+01
1	 1.038181932973593e+00	 5.368005556259656e-01	 1.277093247112093e+01
1	 1.027097451375972e+00	 5.577162251963393e-01	 1.208427230718710e+01
1	 1.015557148456916e+00	 5.784636900338032e-01	 1.135484717417272e+01
1	 1.003564437316047e+00	 5.990283654597593e-01	 1.058396773201649e+01
1	 9.911233433296119e-01	 6.193957384271715e-01	 9.773063589942499e+00
1	 9.782385037289751e-01	 6.395513992658737e-01	 8.923679840827781e+00
1	 1.092501253745003e+00	 4.325112837501006e-01	 1.541945716874134e+01
1	 1.083678927128878e+00	 4.541640484359845e-01	 1.496245641718540e+01
1	 1.074390300357470e+00	 4.757210132878483e-01	 1.445735664532775e+01
1	 1.064635786603601e+00	 4.971676194818512e-01	 1.390471355147898e+01
1	 1.054416388733817e+00	 5.184892276046746e-01	 1.330521030482303e+01
1	 1.043733708013614e+00	 5.396711468337316e-01	 1.265965774285520e+01
1	 1.032589951113749e+00	 5.606986649045488e-01	 1.196899396893510e+01
1	 1.020987935345326e+00	 5.815570787519055e-01	 1.123428333625839e+01
1	 1.008931092059835e+00	 6.022317257042702e-01	 1.045671480899099e+01
1	 9.964234681596010e-01	 6.227080151047293e-01	 9.637599695985433e+00
1	 9.834697256740159e-01	 6.429714602260568e-01	 8.778368757357404e+00
1	 1.098312430622169e+00	 4.348118756862965e-01	 1.531925504187074e+01
1	 1.089443176737076e+00	 4.565798146525831e-01	 1.486219077621979e+01
1	 1.080105142376764e+00	 4.782514442112452e-01	 1.435639097822719e+01
1	 1.070298742911783e+00	 4.998121280978887e-01	 1.380228242494172e+01
1	 1.060024986543074e+00	 5.212471490299757e-01	 1.320041988677646e+01
1	 1.049285483053505e+00	 5.425417380422455e-01	 1.255148688506791e+01
1	 1.038082450851443e+00	 5.636811046134985e-01	 1.185629585874206e+01
1	 1.026418722233688e+00	 5.846504674707201e-01	 1.111578772284790e+01
1	 1.014297746803603e+00	 6.054350859494450e-01	 1.033103080600032e+01
1	 1.001723592989585e+00	 6.260202917828819e-01	 9.503219158327006e+00
1	 9.887009476190566e-01	 6.463915211867450e-01	 8.633670226284316e+00
1	 1.104123607498825e+00	 4.371124676229823e-01	 1.522481916594399e+01
1	 1.095207426344859e+00	 4.589955808697618e-01	 1.476713475527582e+01
1	 1.085819984395729e+00	 4.807818751352930e-01	 1.426008440002059e+01
1	 1.075961699219711e+00	 5.024566367146296e-01	 1.370396703262317e+01
1	 1.065633584352145e+00	 5.240050704560124e-01	 1.309921010235898e+01
1	 1.054837258093266e+00	 5.454123292515075e-01	 1.244637088927731e+01
1	 1.043574950589053e+00	 5.666635443231888e-01	 1.174613723616444e+01
1	 1.031849509122004e+00	 5.877438561902472e-01	 1.099932767776453e+01
1	 1.019664401547349e+00	 6.086384461952836e-01	 1.020689095062234e+01
1	 1.007023717819563e+00	 6.293325684616293e-01	 9.369904871340951e+00
1	 9.939321695640974e-01	 6.498115821479387e-01	 8.489574575728064e+00
1	 9.416199501136904e-01	 6.156109725587411e-01	 9.958866465645601e+00
1	 9.287953461982286e-01	 6.347946162834570e-01	 8.672383841319599e+00
1	 9.155542905443047e-01	 6.537471537558830e-01	 7.348115206181137e+00
1	 9.019029922722360e-01	 6.724551973962970e-01	 5.987668124312263e+00
1	 8.878482288198697e-01	 6.909055815044373e-01	 4.592781054907833e+00
1	 8.733973360046003e-01	 7.090853921996617e-01	 3.165319046212228e+00
1	 8.585581962027985e-01	 7.269819968216206e-01	 1.707268738076151e+00
1	 8.433392246814813e-01	 7.445830726538936e-01	 2.207326949688395e-01
1	 8.277493541285117e-01	 7.618766348356980e-01	-1.292076902974439e+00
1	 8.117980174388175e-01	 7.788510633304829e-01	-2.828845177730680e+00
1	 7.954951288250000e-01	 7.954951288250000e-01	-4.387162041569671e+00
1	 9.468511720587311e-01	 6.190310335153869e-01	 9.808978498943750e+00
1	 9.339553203443668e-01	 6.383212530393263e-01	 8.510660444358781e+00
1	 9.206407032706924e-01	 6.573790823872896e-01	 7.176009916172227e+00
1	 9.069135644531378e-01	 6.761910596041109e-01	 5.806693797920584e+00
1	 8.927807189819817e-01	 6.947439458467489e-01	 4.404504722647661e+00
1	 8.782495434291595e-01	 7.130247554907800e-01	 2.971356492424788e+00
1	 8.633279639620208e-01	 7.310207856944068e-01	 1.509278832376964e+00
1	 8.480244425990657e-01	 7.487196452816732e-01	 2.041150300297945e-02
1	 8.323479616542008e-01	 7.661092828092362e-01	-1.493002199877684e+00
1	 8.163080064273257e-01	 7.831780136847859e-01	-3.028622522904848e+00
1	 7.999145462100000e-01	 7.999145462100000e-01	-4.584020870985672e+00
1	 9.520823940037718e-01	 6.224510944725381e-01	 9.659776939770879e+00
1	 9.391152944905047e-01	 6.418478897956055e-01	 8.349810635578647e+00
1	 9.257271159970799e-01	 6.610110110190202e-01	 7.004948230165626e+00
1	 9.119241366340395e-01	 6.799269218121736e-01	 5.626915508425687e+00
1	 8.977132091440939e-01	 6.985823101892439e-01	 4.217558900863761e+00
1	 8.831017508537183e-01	 7.169641187820254e-01	 2.778840630431955e+00
1	 8.680977317212428e-01	 7.350595745672746e-01	 1.312833219564731e+00
1	 8.527096605166501e-01	 7.528562179094989e-01	-1.782866168520696e-01
1	 8.369465691798901e-01	 7.703419307827950e-01	-1.692244661515540e+00
1	 8.208179954158336e-01	 7.875049640390939e-01	-3.226676431581581e+00
1	 8.043339635950000e-01	 8.043339635950000e-01	-4.779134921429869e+00
1	 9.573136159488123e-01	 6.258711554301947e-01	 9.511250535543812e+00
1	 9.442752686366426e-01	 6.453745265522945e-01	 8.189820093860831e+00
1	 9.308135287234676e-01	 6.646429396510756e-01	 6.834913039898317e+00
1	 9.169347088149411e-01	 6.836627840204852e-01	 5.448313648664678e+00
1	 9.026456993062059e-01	 7.024206745319219e-01	 4.031921777908478e+00
1	 8.879539582782775e-01	 7.209034820733984e-01	 2.587747743974037e+00
1	 8.728674994804648e-01	 7.390983634402241e-01	 1.117906583362685e+00
1	 8.573948784342346e-01	 7.569927905373705e-01	-3.753882723362223e-01
1	 8.415451767055792e-01	 7.745745787563738e-01	-1.889831875351601e+00
1	 8.253279844043415e-01	 7.918319143934071e-01	-3.423035156818283e+00
1	 8.087533809799999e-01	 8.087533809799999e-01	-4.972532795836082e+00
1	 9.625448378938531e-01	 6.292912163883564e-01	 9.363388278300960e+00
1	 9.494352427827805e-01	 6.489011633093938e-01	 8.030674809415540e+00
1	 9.358999414498556e-01	 6.682748682834557e-01	 6.665887609026059e+00
1	 9.219452809958428e-01	 6.873986462290458e-01	 5.270869037717581e+00
1	 9.075781894683177e-01	 7.062590388747831e-01	 3.847572016300294e+00
1	 8.928061657028364e-01	 7.248428453648986e-01	 2.398054632362573e+00
1	 8.776372672396872e-01	 7.431371523132548e-01	 9.244741578472042e-01
1	 8.620800963518189e-01	 7.611293631652880e-01	-5.709194927600760e-01
1	 8.461437842312681e-01	 7.788072267299735e-01	-2.085790829122122e+00
1	 8.298379733928497e-01	 7.961588647477253e-01	-3.617726337475591e+00
1	 8.131727983650000e-01	 8.131727983650002e-01	-5.164242475335601e+00
1	 9.677760598388938e-01	 6.327112773470236e-01	 9.216179398090746e+00
1	 9.545952169289185e-01	 6.524278000669034e-01	 7.872361075367547e+00
1	 9.409863541762431e-01	 6.719067969161605e-01	 6.497855563071608e+00
1	 9.269558531767447e-01	 6.911345084378552e-01	 5.094562909386595e+00
1	 9.125106796304298e-01	 7.100974032178278e-01	 3.664488739908799e+00
1	 8.976583731273953e-01	 7.287822086565260e-01	 2.209738596545742e+00
1	 8.824070349989093e-01	 7.471759411863674e-01	 7.325117125744838e-01
1	 8.667653142694032e-01	 7.652659357932511e-01	-7.649057446383194e-01
1	 8.507423917569572e-01	 7.830398747035932e-01	-2.280147927044259e+00
1	 8.343479623813578e-01	 8.004858151020487e-01	-3.810777014817078e+00
1	 8.175922157500000e-01	 8.175922157500000e-01	-5.354291336061944e+00
1	 9.730072817839345e-01	 6.361313383061961e-01	 9.069613356573242e+00
1	 9.597551910750564e-01	 6.559544368248231e-01	 7.714865479613128e+00
1	 9.460727669026306e-01	 6.755387255491899e-01	 6.330800879697097e+00
1	 9.319664253576463e-01	 6.948703706469137e-01	 4.919376901048357e+00
1	 9.174431697925417e-01	 7.139357675610549e-01	 3.482651521552623e+00
1	 9.025105805519547e-01	 7.327215719482812e-01	 2.022777425623011e+00
1	 8.871768027581314e-01	 7.512147300595617e-01	 5.419955381853951e-01
1	 8.714505321869878e-01	 7.694025084212606e-01	-9.573719468189181e-01
1	 8.553409992826465e-01	 7.872725226772334e-01	-2.472929005503000e+00
1	 8.388579513698659e-01	 8.048127654563769e-01	-4.002213648573634e+00
1	 8.220116331350001e-01	 8.220116331350001e-01	-5.542706165414824e+00
1	 9.782385037289751e-01	 6.395513992658737e-01	 8.923679840827781e+00
1	 9.649151652211946e-01	 6.594810735831528e-01	 7.558174896938427e+00
1	 9.511591796290183e-01	 6.791706541825440e-01	 6.164707879288282e+00
1	 9.369769975385481e-01	 6.986062328562213e-01	 4.745293042863219e+00
1	 9.223756599546538e-01	 7.177741319044656e-01	 3.302040370995457e+00
1	 9.073627879765136e-01	 7.366609352401633e-01	 1.837149383793607e+00
1	 8.919465705173536e-01	 7.552535189328373e-01	 3.529024324728158e-01
1	 8.761357501045718e-01	 7.735390810493157e-01	-1.148342485126065e+00
1	 8.599396068083356e-01	 7.915051706508940e-01	-2.664159348233210e+00
1	 8.433679403583738e-01	 8.091397158107105e-01	-4.192062132492858e+00
1	 8.264310505200000e-01	 8.264310505200000e-01	-5.729513177801242e+00
1	 9.834697256740159e-01	 6.429714602260568e-01	 8.778368757357404e+00
1	 9.700751393673327e-01	 6.630077103418927e-01	 7.402276481389547e+00
1	 9.562455923554058e-01	 6.828025828162225e-01	 5.999561215839880e+00
1	 9.419875697194495e-01	 7.023420950657775e-01	 4.572293747327721e+00
1	 9.273081501167657e-01	 7.216124962480595e-01	 3.122635723325030e+00
1	 9.122149954010728e-01	 7.406002985321730e-01	 1.652833197720560e+00
1	 8.967163382765756e-01	 7.592923078061944e-01	 1.652096868940054e-01
1	 8.808209680221564e-01	 7.776756536774166e-01	-1.337841226536622e+00
1	 8.645382143340248e-01	 7.957378186245753e-01	-2.853863701017886e+00
1	 8.478779293468820e-01	 8.134666661650491e-01	-4.380347809391228e+00
1	 8.308504679049999e-01	 8.308504679049999e-01	-5.914738029874982e+00
1	 9.887009476190566e-01	 6.463915211867450e-01	 8.633670226284316e+00
1	 9.752351135134707e-01	 6.665343471010428e-01	 7.247157658884502e+00
1	 9.613320050817936e-01	 6.864345114502256e-01	 5.835345868129808e+00
1	 9.469981419003517e-01	 7.060779572755831e-01	 4.400361799161656e+00
1	 9.322406402788780e-01	 7.254508605918366e-01	 2.944418427701622e+00
1	 9.170672028256317e-01	 7.445396618243101e-01	 1.469808044296346e+00
1	 9.014861060357979e-01	 7.633310966796333e-01	-2.110492649035001e-02
1	 8.855061859397407e-01	 7.818122263055637e-01	-1.525891532906417e+00
1	 8.691368218597136e-01	 7.999704665982765e-01	-3.042066285919904e+00
1	 8.523879183353901e-01	 8.177936165193931e-01	-4.567095485729622e+00
1	 8.352698852900000e-01	 8.352698852900000e-01	-6.098405835291969e+00
1	 9.939321695640974e-01	 6.498115821479387e-01	 8.489574575728064e+00
1	 9.803950876596085e-01	 6.700609838606030e-01	 7.092806120058904e+00
1	 9.664184178081813e-01	 6.900664400845536e-01	 5.672047131172173e+00
1	 9.520087140812531e-01	 7.098138194856372e-01	 4.229480345511145e+00
1	 9.371731304409899e-01	 7.292892249357966e-01	 2.767369736460673e+00
1	 9.219194102501905e-01	 7.484790251165740e-01	 1.288053538794453e+00
1	 9.062558737950199e-01	 7.673698855531537e-01	-2.060631676621627e-01
1	 8.901914038573248e-01	 7.859487989337565e-01	-1.712516274262465e+00
1	 8.737354293854029e-01	 8.042031145719988e-01	-3.228790815063830e+00
1	 8.568979073238980e-01	 8.221205668737418e-01	-4.752329445727431e+00
1	 8.396893026750000e-01	 8.396893026750000e-01	-6.280541178999174e+00
1	 7.954951288250000e-01	 7.954951288250000e-01	-4.387162041569671e+00
1	 7.788510633304829e-01	 8.117980174388176e-01	-6.029408897609343e+00
1	 7.618766348356981e-01	 8.277493541285117e-01	-7.656874101577915e+00
1	 7.445830726538939e-01	 8.433392246814815e-01	-9.266440456621831e+00
1	 7.269819968216208e-01	 8.585581962027984e-01	-1.085504453009130e+01
1	 7.090853921996618e-01	 8.733973360046001e-01	-1.241968739275196e+01
1	 6.909055815044375e-01	 8.878482288198696e-01	-1.395744499816737e+01
1	 6.724551973962977e-01	 9.019029922722359e-01	-1.546547813936490e+01
1	 6.537471537558837e-01	 9.155542905443044e-01	-1.694104192373854e+01
1	 6.347946162834578e-01	 9.287953461982281e-01	-1.838149471154501e+01
1	 6.156109725587411e-01	 9.416199501136904e-01	-1.978430646821311e+01
1	 7.999145462100000e-01	 7.999145462100000e-01	-4.584020870985672e+00
1	 7.831780136847859e-01	 8.163080064273256e-01	-6.221306814615705e+00
1	 7.661092828092363e-01	 8.323479616542008e-01	-7.846052612447663e+00
1	 7.487196452816735e-01	 8.480244425990657e-01	-9.455260291817771e+00
1	 7.310207856944070e-01	 8.633279639620203e-01	-1.104597647604428e+01
1	 7.130247554907800e-01	 8.782495434291592e-01	-1.261530268581086e+01
1	 6.947439458467491e-01	 8.927807189819814e-01	-1.416040533375373e+01
1	 6.761910596041113e-01	 9.069135644531373e-01	-1.567852535162521e+01
1	 6.573790823872900e-01	 9.206407032706921e-01	-1.716698739277504e+01
1	 6.383212530393267e-01	 9.339553203443661e-01	-1.862320855659213e+01
1	 6.190310335153868e-01	 9.468511720587310e-01	-2.004470658592598e+01
1	 8.043339635950000e-01	 8.043339635950000e-01	-4.779134921429869e+00
1	 7.875049640390938e-01	 8.208179954158338e-01	-6.412044117625096e+00
1	 7.703419307827949e-01	 8.369465691798900e-01	-8.034630041320707e+00
1	 7.528562179094990e-01	 8.527096605166500e-01	-9.644012889131396e+00
1	 7.350595745672750e-01	 8.680977317212426e-01	-1.123734835351205e+01
1	 7.169641187820257e-01	 8.831017508537182e-01	-1.281183748961633e+01
1	 6.985823101892442e-01	 8.977132091440936e-01	-1.436473632803514e+01
1	 6.799269218121738e-01	 9.119241366340392e-01	-1.589336517503078e+01
1	 6.610110110190206e-01	 9.257271159970796e-01	-1.739511754478067e+01
1	 6.418478897956060e-01	 9.391152944905041e-01	-1.886746867155520e+01
1	 6.224510944725382e-01	 9.520823940037717e-01	-2.030798355363354e+01
1	 8.087533809799999e-01	 8.087533809799999e-01	-4.972532795836082e+00
1	 7.918319143934069e-01	 8.253279844043416e-01	-6.601639833096786e+00
1	 7.745745787563737e-01	 8.415451767055789e-01	-8.222616242000583e+00
1	 7.569927905373705e-01	 8.573948784342346e-01	-9.832699350823486e+00
1	 7.390983634402241e-01	 8.728674994804647e-01	-1.142915295050307e+01
1	 7.209034820733986e-01	 8.879539582782773e-01	-1.300927673022271e+01
1	 7.024206745319221e-01	 9.026456993062053e-01	-1.457041551119832e+01
1	 6.836627840204855e-01	 9.169347088149408e-01	-1.610996822251492e+01
1	 6.646429396510761e-01	 9.308135287234671e-01	-1.762539656528206e+01
1	 6.453745265522951e-01	 9.442752686366421e-01	-1.911423331430632e+01
1	 6.258711554301947e-01	 9.573136159488123e-01	-2.057409020986262e+01
1	 8.131727983650000e-01	 8.131727983650002e-01	-5.164242475335601e+00
1	 7.961588647477253e-01	 8.298379733928497e-01	-6.790112573871298e+00
1	 7.788072267299734e-01	 8.461437842312683e-01	-8.410020854078056e+00
1	 7.611293631652880e-01	 8.620800963518190e-01	-1.002132075519313e+01
1	 7.431371523132551e-01	 8.776372672396869e-01	-1.162138321180879e+01
1	 7.248428453648990e-01	 8.928061657028363e-01	-1.320760566137870e+01
1	 7.062590388747834e-01	 9.075781894683174e-01	-1.477742090190372e+01
1	 6.873986462290460e-01	 9.219452809958424e-01	-1.632830574586023e+01
1	 6.682748682834563e-01	 9.358999414498549e-01	-1.785778941838172e+01
1	 6.489011633093946e-01	 9.494352427827804e-01	-1.936346165015495e+01
1	 6.292912163883564e-01	 9.625448378938530e-01	-2.084298041838933e+01
1	 8.175922157500000e-01	 8.175922157500000e-01	-5.354291336061944e+00
1	 8.004858151020484e-01	 8.343479623813579e-01	-6.977480550349477e+00
1	 7.830398747035930e-01	 8.507423917569573e-01	-8.596853308719798e+00
1	 7.652659357932513e-01	 8.667653142694031e-01	-1.020987815722412e+01
1	 7.471759411863675e-01	 8.824070349989092e-01	-1.181403223476535e+01
1	 7.287822086565264e-01	 8.976583731273955e-01	-1.340680985567081e+01
1	 7.100974032178277e-01	 9.125106796304293e-01	-1.498573099408430e+01
1	 6.911345084378557e-01	 9.269558531767442e-01	-1.654834961843255e+01
1	 6.719067969161608e-01	 9.409863541762425e-01	-1.809226182571437e+01
1	 6.524278000669040e-01	 9.545952169289181e-01	-1.961511372732325e+01
1	 6.327112773470236e-01	 9.677760598388938e-01	-2.111460904052988e+01
1	 8.220116331350001e-01	 8.220116331350001e-01	-5.542706165414824e+00
1	 8.048127654563769e-01	 8.388579513698659e-01	-7.163761581310292e+00
1	 7.872725226772334e-01	 8.553409992826465e-01	-8.783122834272071e+00
1	 7.694025084212605e-01	 8.714505321869874e-01	-1.039837258921311e+01
1	 7.512147300595617e-01	 8.871768027581312e-01	-1.200709326515319e+01
1	 7.327215719482814e-01	 9.025105805519545e-01	-1.360687519595279e+01
1	 7.139357675610553e-01	 9.174431697925413e-01	-1.519532474416906e+01
1	 6.948703706469143e-01	 9.319664253576463e-01	-1.677007231847156e+01
1	 6.755387255491904e-01	 9.460727669026302e-01	-1.832878024608455e+01
1	 6.559544368248238e-01	 9.597551910750561e-01	-1.986915045321095e+01
1	 6.361313383061961e-01	 9.730072817839345e-01	-2.138893190832508e+01
1	 8.264310505200000e-01	 8.264310505200000e-01	-5.729513177801242e+00
1	 8.091397158107105e-01	 8.433679403583740e-01	-7.348973104382654e+00
1	 7.915051706508940e-01	 8.599396068083356e-01	-8.968838461683113e+00
1	 7.735390810493158e-01	 8.761357501045718e-01	-1.058680506137515e+01
1	 7.552535189328373e-01	 8.919465705173535e-01	-1.220055969322816e+01
1	 7.366609352401636e-01	 9.073627879765136e-01	-1.380778786704924e+01
1	 7.177741319044660e-01	 9.223756599546535e-01	-1.540618155871682e+01
1	 6.986062328562216e-01	 9.369769975385476e-01	-1.699344691291774e+01
1	 6.791706541825444e-01	 9.511591796290180e-01	-1.856731185575520e+01
1	 6.594810735831534e-01	 9.649151652211940e-01	-2.012553357142372e+01
1	 6.395513992658737e-01	 9.782385037289751e-01	-2.166590579858498e+01
1	 8.308504679049999e-01	 8.308504679049999e-01	-5.914738029874982e+00
1	 8.134666661650493e-01	 8.478779293468821e-01	-7.533132186182099e+00
1	 7.957378186245750e-01	 8.645382143340247e-01	-9.154009029753535e+00
1	 7.776756536774168e-01	 8.808209680221560e-01	-1.077517656243133e+01
1	 7.592923078061947e-01	 8.967163382765756e-01	-1.239442504987941e+01
1	 7.406002985321734e-01	 9.122149954010725e-01	-1.400953434772470e+01
1	 7.216124962480599e-01	 9.273081501167655e-01	-1.561828128244485e+01
1	 7.023420950657779e-01	 9.419875697194494e-01	-1.721844704175513e+01
1	 6.828025828162230e-01	 9.562455923554054e-01	-1.880782452936688e+01
1	 6.630077103418933e-01	 9.700751393673320e-01	-2.038422563953233e+01
1	 6.429714602260568e-01	 9.834697256740159e-01	-2.194548840776169e+01
1	 8.352698852900000e-01	 8.352698852900000e-01	-6.098405835291969e+00
1	 8.177936165193930e-01	 8.523879183353901e-01	-7.716255532125808e+00
1	 7.999704665982764e-01	 8.691368218597135e-01	-9.338643190219143e+00
1	 7.818122263055638e-01	 8.855061859397407e-01	-1.096348806017792e+01
1	 7.633310966796335e-01	 9.014861060357977e-01	-1.258868300290758e+01
1	 7.445396618243102e-01	 9.170672028256315e-01	-1.421210140290734e+01
1	 7.254508605918367e-01	 9.322406402788775e-01	-1.583160418663707e+01
1	 7.060779572755834e-01	 9.469981419003513e-01	-1.744504690285210e+01
1	 6.864345114502264e-01	 9.613320050817933e-01	-1.905028682146195e+01
1	 6.665343471010433e-01	 9.752351135134701e-01	-2.064519000754087e+01
1	 6.463915211867450e-01	 9.887009476190566e-01	-2.222763832762082e+01
1	 8.396893026750000e-01	 8.396893026750000e-01	-6.280541178999174e+00
1	 8.221205668737418e-01	 8.568979073238983e-01	-7.898359495938026e+00
1	 8.042031145719988e-01	 8.737354293854029e-01	-9.522749412674424e+00
1	 7.859487989337567e-01	 8.901914038573251e-01	-1.115174050203579e+01
1	 7.673698855531540e-01	 9.062558737950197e-01	-1.278332735342335e+01
1	 7.484790251165745e-01	 9.219194102501905e-01	-1.441547607615883e+01
1	 7.292892249357970e-01	 9.371731304409896e-01	-1.604613095791896e+01
1	 7.098138194856376e-01	 9.520087140812531e-01	-1.767322123727979e+01
1	 6.900664400845541e-01	 9.664184178081808e-01	-1.929466794859238e+01
1	 6.700609838606034e-01	 9.803950876596081e-01	-2.090839079703158e+01
1	 6.498115821479389e-01	 9.939321695640974e-01	-2.251231502168043e+01
1	 6.156109725587411e-01	 9.416199501136904e-01	-1.978430646821311e+01
1	 5.962098017009265e-01	 9.540224695195425e-01	-2.110585819690647e+01
1	 5.766048437667731e-01	 9.659978541089431e-01	-2.239695808154735e+01
1	 5.568099690270316e-01	 9.775416402367315e-01	-2.365533415392040e+01
1	 5.368391472596018e-01	 9.886499532091958e-01	-2.487880463896218e+01
1	 5.167064171925495e-01	 9.993195076898073e-01	-2.606528444104082e+01
1	 4.964258562287501e-01	 1.009547606253046e+00	-2.721279108094527e+01
1	 4.760115505788752e-01	 1.019332136129044e+00	-2.831945005838184e+01
1	 4.554775659241309e-01	 1.028671564191268e+00	-2.938349961979652e+01
1	 4.348379187240837e-01	 1.037564930248352e+00	-3.040329491641163e+01
1	 4.141065482781622e-01	 1.046011838709305e+00	-3.137731154243791e+01
1	 6.190310335153868e-01	 9.468511720587310e-01	-2.004470658592598e+01
1	 5.995220783743195e-01	 9.593225943495681e-01	-2.138608203031423e+01
1	 5.798082040066365e-01	 9.713645088528782e-01	-2.269657193739763e+01
1	 5.599033577401479e-01	 9.829724271254705e-01	-2.397390593243436e+01
1	 5.398215869626292e-01	 9.941424529475568e-01	-2.521590578767987e+01
1	 5.195770083950791e-01	 1.004871282730738e+00	-2.642049183182518e+01
1	 4.991837776481658e-01	 1.015156204063795e+00	-2.758568880193284e+01
1	 4.786560591892854e-01	 1.024995092439249e+00	-2.870963111347665e+01
1	 4.580079968423154e-01	 1.034386406213196e+00	-2.979056752914835e+01
1	 4.372536849360407e-01	 1.043329179859870e+00	-3.082686521219704e+01
1	 4.164071402104405e-01	 1.051823015590553e+00	-3.181701315514837e+01
1	 6.224510944725382e-01	 9.520823940037717e-01	-2.030798355363354e+01
1	 6.028343550483074e-01	 9.646227191795886e-01	-2.166926463718605e+01
1	 5.830115642471638e-01	 9.767311635967921e-01	-2.299923258535744e+01
1	 5.629967464539762e-01	 9.884032140141623e-01	-2.429561840729882e+01
1	 5.428040266663967e-01	 9.996349526858344e-01	-2.555624720068323e+01
1	 5.224475995983568e-01	 1.010423057771539e+00	-2.677904448526190e+01
1	 5.019416990683172e-01	 1.020764801874358e+00	-2.796204197074308e+01
1	 4.813005678003988e-01	 1.030658048749201e+00	-2.910338273539803e+01
1	 4.605384277611511e-01	 1.040101248234793e+00	-3.020132579690017e+01
1	 4.396694511485779e-01	 1.049093429470974e+00	-3.125425006202478e+01
1	 4.187077321432086e-01	 1.057634192471292e+00	-3.226065764694629e+01
1	 6.258711554301947e-01	 9.573136159488123e-01	-2.057409020986262e+01
1	 6.061466317228903e-01	 9.699228440096038e-01	-2.195535751304099e+01
1	 5.862149244883551e-01	 9.820978183406850e-01	-2.330489007801671e+01
1	 5.660901351685169e-01	 9.938340009028072e-01	-2.462042009169009e+01
1	 5.457864663709047e-01	 1.005127452424029e+00	-2.589977575888748e+01
1	 5.253181908023825e-01	 1.015974832812209e+00	-2.714088756098207e+01
1	 5.046996204892044e-01	 1.026373399684734e+00	-2.834179394069261e+01
1	 4.839450764122157e-01	 1.036321005058900e+00	-2.950064639026626e+01
1	 4.630688586806387e-01	 1.045816090256062e+00	-3.061571392537566e+01
1	 4.420852173616953e-01	 1.054857679081662e+00	-3.168538693222536e+01
1	 4.210083240764662e-01	 1.063445369351519e+00	-3.270818038047308e+01
1	 6.292912163883564e-01	 9.625448378938530e-01	-2.084298041838933e+01
1	 6.094589083980682e-01	 9.752229688396137e-01	-2.224431320784347e+01
1	 5.894182847302104e-01	 9.874644730845572e-01	-2.361349555377945e+01
1	 5.691835238837700e-01	 9.992647877914050e-01	-2.494826061806380e+01
1	 5.487689060761529e-01	 1.010619952162139e+00	-2.624643949797131e+01
1	 5.281887820071565e-01	 1.021526607852750e+00	-2.750596741079827e+01
1	 5.074575419108270e-01	 1.031981997494923e+00	-2.872488929654774e+01
1	 4.865895850247360e-01	 1.041983961368346e+00	-2.990136481667712e+01
1	 4.655992896007778e-01	 1.051530932277002e+00	-3.103367273206632e+01
1	 4.445009835753929e-01	 1.060621928691935e+00	-3.212021464855625e+01
1	 4.233089160102137e-01	 1.069256546231237e+00	-3.315951812352998e+01
1	 6.327112773470236e-01	 9.677760598388938e-01	-2.111460904052988e+01
1	 6.127711850738411e-01	 9.805230936696182e-01	-2.253608529750404e+01
1	 5.926216449727295e-01	 9.928311278284081e-01	-2.392500120751605e+01
1	 5.722769125997355e-01	 1.004695574679956e+00	-2.527909070790335e+01
1	 5.517513457821415e-01	 1.016112451900167e+00	-2.659618757716539e+01
1	 5.310593732126782e-01	 1.027078382893161e+00	-2.787423154648400e+01
1	 5.102154633331856e-01	 1.037590595304926e+00	-2.911127382124220e+01
1	 4.892340936379598e-01	 1.047646917677539e+00	-3.030548199131040e+01
1	 4.681297205215683e-01	 1.057245774297613e+00	-3.145514431408449e+01
1	 4.469167497896708e-01	 1.066386178301793e+00	-3.255867335946197e+01
1	 4.256095079444508e-01	 1.075067723110444e+00	-3.361460901110097e+01
1	 6.361313383061961e-01	 9.730072817839345e-01	-2.138893190832508e+01
1	 6.160834617502088e-01	 9.858232184996180e-01	-2.283062835630183e+01
1	 5.958250052159125e-01	 9.981977825722380e-01	-2.423936026216448e+01
1	 5.753703013164133e-01	 1.010126361568460e+00	-2.561286214244505e+01
1	 5.547337854888702e-01	 1.021604951638110e+00	-2.694897024905062e+01
1	 5.339299644189480e-01	 1.032630157933441e+00	-2.824562860859222e+01
1	 5.129733847562796e-01	 1.043199193114743e+00	-2.950089446366761e+01
1	 4.918786022518870e-01	 1.053309873986479e+00	-3.071294309564934e+01
1	 4.706601514430104e-01	 1.062960616317895e+00	-3.188007201376625e+01
1	 4.493325160045286e-01	 1.072150427911236e+00	-3.300070450051640e+01
1	 4.279100998791777e-01	 1.080878899989141e+00	-3.407339250860041e+01
1	 6.395513992658737e-01	 9.782385037289751e-01	-2.166590579858498e+01
1	 6.193957384271717e-01	 9.911233433296119e-01	-2.312789793018827e+01
1	 5.990283654597595e-01	 1.003564437316047e+00	-2.455652694124186e+01
1	 5.784636900338033e-01	 1.015557148456916e+00	-2.594952773434300e+01
1	 5.577162251963395e-01	 1.027097451375971e+00	-2.730473883032397e+01
1	 5.368005556259661e-01	 1.038181932973593e+00	-2.862010833627293e+01
1	 5.157313061801094e-01	 1.048807790924373e+00	-2.989369930749929e+01
1	 4.945231108665177e-01	 1.058972830295166e+00	-3.112369448376472e+01
1	 4.731905823651038e-01	 1.068675458337847e+00	-3.230840038537686e+01
1	 4.517482822199669e-01	 1.077914677520264e+00	-3.344625076000930e+01
1	 4.302106918143942e-01	 1.086690076867327e+00	-3.453580937630011e+01
1	 6.429714602260568e-01	 9.834697256740159e-01	-2.194548840776169e+01
1	 6.227080151047291e-01	 9.964234681596010e-01	-2.342785051094648e+01
1	 6.022317257042701e-01	 1.008931092059835e+00	-2.487645644223270e+01
1	 5.815570787519058e-01	 1.020987935345326e+00	-2.628904130023711e+01
1	 5.606986649045491e-01	 1.032589951113749e+00	-2.766344567349751e+01
1	 5.396711468337320e-01	 1.043733708013614e+00	-2.899762153805679e+01
1	 5.184892276046750e-01	 1.054416388733817e+00	-3.028963754101502e+01
1	 4.971676194818518e-01	 1.064635786603601e+00	-3.153768365113110e+01
1	 4.757210132878490e-01	 1.074390300357470e+00	-3.274007516287685e+01
1	 4.541640484359853e-01	 1.083678927128878e+00	-3.389525604562773e+01
1	 4.325112837501006e-01	 1.092501253745003e+00	-3.500180163489136e+01
1	 6.463915211867450e-01	 9.887009476190566e-01	-2.222763832762082e+01
1	 6.260202917828818e-01	 1.001723592989585e+00	-2.373044351116753e+01
1	 6.054350859494450e-01	 1.014297746803602e+00	-2.519910491082297e+01
1	 5.846504674707204e-01	 1.026418722233689e+00	-2.663135763419296e+01
1	 5.636811046134986e-01	 1.038082450851443e+00	-2.802504413949535e+01
1	 5.425417380422458e-01	 1.049285483053505e+00	-2.937812006356326e+01
1	 5.212471490299762e-01	 1.060024986543074e+00	-3.068865942787225e+01
1	 4.998121280978892e-01	 1.070298742911782e+00	-3.195485920442897e+01
1	 4.782514442112457e-01	 1.080105142376764e+00	-3.317504322871525e+01
1	 4.565798146525838e-01	 1.089443176737076e+00	-3.434766545219802e+01
1	 4.348118756862965e-01	 1.098312430622169e+00	-3.547131253214099e+01
1	 6.498115821479389e-01	 9.939321695640974e-01	-2.251231502168043e+01
1	 6.293325684616292e-01	 1.007023717819563e+00	-2.403563524002038e+01
1	 6.086384461952835e-01	 1.019664401547349e+00	-2.552442941594763e+01
1	 5.877438561902473e-01	 1.031849509122004e+00	-2.697643248198036e+01
1	 5.666635443231889e-01	 1.043574950589053e+00	-2.838948857111705e+01
1	 5.454123292515077e-01	 1.054837258093266e+00	-2.976155677610424e+01
1	 5.240050704560129e-01	 1.065633584352145e+00	-3.109071627881068e+01
1	 5.024566367146301e-01	 1.075961699219711e+00	-3.237517083230435e+01
1	 4.807818751352936e-01	 1.085819984395729e+00	-3.361325258360508e+01
1	 4.589955808697626e-01	 1.095207426344859e+00	-3.480342523044435e+01
1	 4.371124676229823e-01	 1.104123607498825e+00	-3.594428651059950e+01
1	 4.141065482781622e-01	 1.046011838709305e+00	-3.137731154243791e+01
1	 3.932972896415818e-01	 1.054012448698682e+00	-3.219504400881453e+01
1	 3.724238474906106e-01	 1.061567462705180e+00	-3.294434046822960e+01
1	 3.514997710211839e-01	 1.068678113852559e+00	-3.362393616049014e+01
1	 3.305384299564659e-01	 1.075346151886618e+00	-3.423279405296833e+01
1	 3.095529917325726e-01	 1.081573827976446e+00	-3.477010220931567e+01
1	 2.885563999206459e-01	 1.087363878431055e+00	-3.523527018375895e+01
1	 2.675613539349605e-01	 1.092719507434895e+00	-3.562792449977314e+01
1	 2.465802900677326e-01	 1.097644368907272e+00	-3.594790327630394e+01
1	 2.256253638823929e-01	 1.102142547591368e+00	-3.619525006826576e+01
1	 2.047084339883523e-01	 1.106218539478505e+00	-3.637020699082561e+01
1	 4.164071402104405e-01	 1.051823015590553e+00	-3.181701315514837e+01
1	 3.954822745820146e-01	 1.059868073413723e+00	-3.264733481016598e+01
1	 3.744928688639911e-01	 1.067465059720694e+00	-3.340823242175090e+01
1	 3.534525475256168e-01	 1.074615214485912e+00	-3.409839240627133e+01
1	 3.323747545662977e-01	 1.081320297175989e+00	-3.471673448152566e+01
1	 3.112727305745738e-01	 1.087582571466509e+00	-3.526240902070936e+01
1	 2.901594910303177e-01	 1.093404788868202e+00	-3.573479340470816e+01
1	 2.690478059001075e-01	 1.098790171366544e+00	-3.613348743288974e+01
1	 2.479501805666736e-01	 1.103742393180392e+00	-3.645830785706654e+01
1	 2.268788381243566e-01	 1.108265561745949e+00	-3.670928210698698e+01
1	 2.058457030637330e-01	 1.112364198032268e+00	-3.688664127858367e+01
1	 4.187077321432086e-01	 1.057634192471292e+00	-3.226065764694629e+01
1	 3.976672595228481e-01	 1.065723698128166e+00	-3.310334283149921e+01
1	 3.765618902377038e-01	 1.073362656735540e+00	-3.387562800364200e+01
1	 3.554053240303347e-01	 1.080552315118551e+00	-3.457615097618262e+01
1	 3.342110791763875e-01	 1.087294442464619e+00	-3.520378840319989e+01
1	 3.129924694168268e-01	 1.093591314955825e+00	-3.575765311953827e+01
1	 2.917625821402552e-01	 1.099445699304615e+00	-3.623709045151830e+01
1	 2.705342578655537e-01	 1.104860835297491e+00	-3.664167356039809e+01
1	 2.493200710659666e-01	 1.109840417452864e+00	-3.697119788475723e+01
1	 2.281323123667443e-01	 1.114388575899955e+00	-3.722567475177646e+01
1	 2.069829721396284e-01	 1.118509856585547e+00	-3.740532423035566e+01
1	 4.210083240764662e-01	 1.063445369351519e+00	-3.270818038047308e+01
1	 3.998522444640818e-01	 1.071579322842008e+00	-3.356300713478439e+01
1	 3.786309116117485e-01	 1.079260253749718e+00	-3.434646977737545e+01
1	 3.573581005353375e-01	 1.086489415750474e+00	-3.505715773376593e+01
1	 3.360474037867355e-01	 1.093268587752506e+00	-3.569390477712310e+01
1	 3.147122082593319e-01	 1.099600058444391e+00	-3.625578635355190e+01
1	 2.933656732504584e-01	 1.105486609740293e+00	-3.674211585163619e+01
1	 2.720207098312989e-01	 1.110931499227738e+00	-3.715243987911357e+01
1	 2.506899615656116e-01	 1.115938441724688e+00	-3.748653261434583e+01
1	 2.293857866095559e-01	 1.120511590053385e+00	-3.774438930417472e+01
1	 2.081202412160386e-01	 1.124655515138340e+00	-3.792621898279701e+01
1	 4.233089160102137e-01	 1.069256546231237e+00	-3.315951812352998e+01
1	 4.020372294057158e-01	 1.077434947555251e+00	-3.402626810673293e+01
1	 3.806999329861257e-01	 1.085157850763229e+00	-3.482070155504366e+01
1	 3.593108770406250e-01	 1.092426516381683e+00	-3.554135971944299e+01
1	 3.378837283973419e-01	 1.099242733039652e+00	-3.618703367201110e+01
1	 3.164319471020888e-01	 1.105608801932210e+00	-3.675676161728749e+01
1	 2.949687643609271e-01	 1.111527520175236e+00	-3.724982512104302e+01
1	 2.735071617973433e-01	 1.117002163157283e+00	-3.766574432070241e+01
1	 2.520598520656086e-01	 1.122036465995865e+00	-3.800427218656324e+01
1	 2.306392608527916e-01	 1.126634604206239e+00	-3.826538790699311e+01
1	 2.092575102929633e-01	 1.130801173690648e+00	-3.844928947394034e+01
1	 4.256095079444508e-01	 1.075067723110444e+00	-3.361460901110097e+01
1	 4.042222143477505e-01	 1.083290572267895e+00	-3.449306742299072e+01
1	 3.827689543608349e-01	 1.091055447776072e+00	-3.529826836361382e+01
1	 3.612636535461975e-01	 1.098363617012176e+00	-3.602870511870722e+01
1	 3.397200530082063e-01	 1.105216878326057e+00	-3.668312623617581e+01
1	 3.181516859450976e-01	 1.111617545419281e+00	-3.726053282377946e+01
1	 2.965718554716615e-01	 1.117568430609446e+00	-3.776017473753596e+01
1	 2.749936137636868e-01	 1.123072827086128e+00	-3.818154572641747e+01
1	 2.534297425659577e-01	 1.128134490266393e+00	-3.852437760396307e+01
1	 2.318927350964513e-01	 1.132757618358517e+00	-3.878863352157714e+01
1	 2.103947793704027e-01	 1.136946832242471e+00	-3.897450042153653e+01
1	 4.279100998791777e-01	 1.080878899989141e+00	-3.407339250860041e+01
1	 4.064071992901853e-01	 1.089146196979938e+00	-3.496334801349202e+01
1	 3.848379757358764e-01	 1.096953044788247e+00	-3.577911641226778e+01
1	 3.632164300520547e-01	 1.104300717641954e+00	-3.651914323134216e+01
1	 3.415563776193291e-01	 1.111191023611719e+00	-3.718213466850248e+01
1	 3.198714247883581e-01	 1.117626288905603e+00	-3.776705487717949e+01
1	 2.981749465826615e-01	 1.123609341042921e+00	-3.827312211487418e+01
1	 2.764800657303294e-01	 1.129143491014272e+00	-3.869980382264568e+01
1	 2.547996330666586e-01	 1.134232514536273e+00	-3.904681070775321e+01
1	 2.331462093405349e-01	 1.138880632510219e+00	-3.931408990580229e+01
1	 2.115320484483569e-01	 1.143092490793808e+00	-3.950181730209465e+01
1	 4.302106918143942e-01	 1.086690076867327e+00	-3.453580937630011e+01
1	 4.085921842330207e-01	 1.095001821691382e+00	-3.543705402892070e+01
1	 3.869069971112501e-01	 1.102850641799755e+00	-3.626319306079334e+01
1	 3.651692065581971e-01	 1.110237818271017e+00	-3.701262444162894e+01
1	 3.433927022307101e-01	 1.117165168896640e+00	-3.768401219036039e+01
1	 3.215911636318707e-01	 1.123635032391178e+00	-3.827628364625593e+01
1	 2.997780376939272e-01	 1.129650251475662e+00	-3.878862557775147e+01
1	 2.779665176972710e-01	 1.135214154941714e+00	-3.922047919724128e+01
1	 2.561695235677117e-01	 1.140330538805506e+00	-3.957153415537248e+01
1	 2.343996835850424e-01	 1.145003646661344e+00	-3.984172159277628e+01
1	 2.126693175268256e-01	 1.149238149344660e+00	-4.003120633059442e+01
1	 4.325112837501006e-01	 1.092501253745003e+00	-3.500180163489136e+01
1	 4.107771691762565e-01	 1.100857446402227e+00	-3.591413080824338e+01
1	 3.889760184869559e-01	 1.108748238810594e+00	-3.675044678898304e+01
1	 3.671219830646241e-01	 1.116174918899365e+00	-3.750910018950064e+01
1	 3.452290268423492e-01	 1.123139314180819e+00	-3.818871301840850e+01
1	 3.233109024756352e-01	 1.129643775876005e+00	-3.878817593873997e+01
1	 3.013811288054584e-01	 1.135691161907668e+00	-3.930664433757170e+01
1	 2.794529696645118e-01	 1.141284818868457e+00	-3.974353327661490e+01
1	 2.575394140691167e-01	 1.146428563074090e+00	-4.009851139878230e+01
1	 2.356531578299741e-01	 1.151126660811894e+00	-4.037149387022227e+01
1	 2.138065866058091e-01	 1.155383807895026e+00	-4.056263444084490e+01
1	 4.348118756862965e-01	 1.098312430622169e+00	-3.547131253214099e+01
1	 4.129621541198925e-01	 1.106713071112472e+00	-3.639452484727487e+01
1	 3.910450398629938e-01	 1.114645835820765e+00	-3.724082716700371e+01
1	 3.690747595713362e-01	 1.122112019526998e+00	-3.800852294261839e+01
1	 3.470653514542465e-01	 1.129113459464256e+00	-3.869619233826561e+01
1	 3.250306413196514e-01	 1.135652519360083e+00	-3.930268947648483e+01
1	 3.029842199172552e-01	 1.141732072338939e+00	-3.982713846898838e+01
1	 2.809394216320517e-01	 1.147355482794497e+00	-4.026892830355003e+01
1	 2.589093045708738e-01	 1.152526587342026e+00	-4.062770666344780e+01
1	 2.369066320753296e-01	 1.157249674961867e+00	-4.090337276051491e+01
1	 2.149438556853072e-01	 1.161529466444908e+00	-4.109606926647019e+01
1	 4.371124676229823e-01	 1.104123607498825e+00	-3.594428651059950e+01
1	 4.151471390639290e-01	 1.112568695822117e+00	-3.687818376823301e+01
1	 3.931140612393640e-01	 1.120543432830269e+00	-3.773428482670362e+01
1	 3.710275360783331e-01	 1.128049120153915e+00	-3.851084616932285e+01
1	 3.489016760664020e-01	 1.135087604746951e+00	-3.920640627901122e+01
1	 3.267503801639197e-01	 1.141661262843413e+00	-3.981978287140987e+01
1	 3.045873110293177e-01	 1.147772982769477e+00	-4.035006888718906e+01
1	 2.824258735998907e-01	 1.153426146719838e+00	-4.079662731571830e+01
1	 2.602791950729829e-01	 1.158624611609314e+00	-4.115908492798208e+01
1	 2.381601063211092e-01	 1.163372689111265e+00	-4.143732500134693e+01
1	 2.160811247653200e-01	 1.167675124994303e+00	-4.163147912249033e+01
1	 2.047084339883523e-01	 1.106218539478505e+00	-3.637020699082561e+01
1	 1.838410472119971e-01	 1.109877231672737e+00	-3.647713177410773e+01
1	 1.630344251697317e-01	 1.113123881798189e+00	-3.650045995564062e+01
1	 1.422994522418957e-01	 1.115964097050903e+00	-3.644117221074094e+01
1	 1.216466649391041e-01	 1.118403812994212e+00	-3.630045556556870e+01
1	 1.010862426446093e-01	 1.120449272191891e+00	-3.607969136012134e+01
1	 8.062799971050875e-02	 1.122107002770802e+00	-3.578044286955205e+01
1	 6.028137887946602e-02	 1.123383797000342e+00	-3.540444267217116e+01
1	 4.005544599815213e-02	 1.124286689971457e+00	-3.495357984920732e+01
1	 1.995888598368964e-02	 1.124822938453228e+00	-3.442988709759595e+01
1	 0.000000000000000e+00	 1.125000000000000e+00	-3.383552783281390e+01
1	 2.058457030637330e-01	 1.112364198032268e+00	-3.688664127858367e+01
1	 1.848623863603658e-01	 1.116043216294032e+00	-3.699447687105264e+01
1	 1.639401719731101e-01	 1.119307903364434e+00	-3.701772410668486e+01
1	 1.430900047510826e-01	 1.122163897590606e+00	-3.695739416916870e+01
1	 1.223224797410653e-01	 1.124617167511235e+00	-3.681470728971455e+01
1	 1.016478328784369e-01	 1.126673990371002e+00	-3.659108046465284e+01
1	 8.107593303946981e-02	 1.128340930564143e+00	-3.628811483101373e+01
1	 6.061627542650592e-02	 1.129624818094884e+00	-3.590758278993987e+01
1	 4.027797625202772e-02	 1.130532727138008e+00	-3.545141496439123e+01
1	 2.006976868269397e-02	 1.131071954777978e+00	-3.492168707370809e+01
1	 0.000000000000000e+00	 1.131250000000000e+00	-3.432060680322104e+01
1	 2.069829721396284e-01	 1.118509856585547e+00	-3.740532423035566e+01
1	 1.858837255093331e-01	 1.122209200914935e+00	-3.751414227447951e+01
1	 1.648459187771394e-01	 1.125491924930371e+00	-3.753738946525522e+01
1	 1.438805572609416e-01	 1.128363698130077e+00	-3.747610719590121e+01
1	 1.229982945436894e-01	 1.130830522028088e+00	-3.733154859218028e+01
1	 1.022094231128880e-01	 1.132898708549996e+00	-3.710516598598668e+01
1	 8.152386636898580e-02	 1.134574858357410e+00	-3.679859804656591e+01
1	 6.095117197400344e-02	 1.135865839189383e+00	-3.641365666068033e+01
1	 4.050050650623559e-02	 1.136778764304539e+00	-3.595231364958330e+01
1	 2.018065138187782e-02	 1.137320971102724e+00	-3.541668740663687e+01
1	 0.000000000000000e+00	 1.137500000000000e+00	-3.480902953494971e+01
1	 2.081202412160386e-01	 1.124655515138340e+00	-3.792621898279701e+01
1	 1.869050646588989e-01	 1.128375185535448e+00	-3.803608994657700e+01
1	 1.657516655818196e-01	 1.131675946496002e+00	-3.805941666729416e+01
1	 1.446711097714727e-01	 1.134563498669313e+00	-3.799727045375402e+01
1	 1.236741093469762e-01	 1.137043876544769e+00	-3.785093702086178e+01
1	 1.027710133479626e-01	 1.139123426728873e+00	-3.762190372056968e+01
1	 8.197179969905675e-02	 1.140808786150602e+00	-3.731184643007691e+01
1	 6.128606852195863e-02	 1.142106860283841e+00	-3.692261619008300e+01
1	 4.072303676077577e-02	 1.143024801471052e+00	-3.645622568232493e+01
1	 2.029153408124120e-02	 1.143569987427466e+00	-3.591483563151812e+01
1	 0.000000000000000e+00	 1.143750000000000e+00	-3.530074121224289e+01
1	 2.092575102929633e-01	 1.130801173690648e+00	-3.844928947394034e+01
1	 1.879264038090633e-01	 1.134541170155570e+00	-3.856028267644278e+01
1	 1.666574123871507e-01	 1.137859968061326e+00	-3.858376720448454e+01
1	 1.454616622826758e-01	 1.140763299208316e+00	-3.852084399330620e+01
1	 1.243499241509257e-01	 1.143257231061281e+00	-3.837283104652845e+01
1	 1.033326035836607e-01	 1.145348144907632e+00	-3.814125042579509e+01
1	 8.241973302968258e-02	 1.147042713943719e+00	-3.782781489728703e+01
1	 6.162096507037146e-02	 1.148347881378257e+00	-3.743441432936590e+01
1	 4.094556701564825e-02	 1.149270838637547e+00	-3.696310193195146e+01
1	 2.040241678078410e-02	 1.149819003752202e+00	-3.641608042402829e+01
1	 0.000000000000000e+00	 1.150000000000000e+00	-3.579568821098999e+01
1	 2.103947793704027e-01	 1.136946832242471e+00	-3.897450042153653e+01
1	 1.889477429598263e-01	 1.140707154775301e+00	-3.908668405773507e+01
1	 1.675631591931326e-01	 1.144043989626343e+00	-3.911040340112108e+01
1	 1.462522147945511e-01	 1.146963099747086e+00	-3.904678872890952e+01
1	 1.250257389555381e-01	 1.149470585577622e+00	-3.889719003787756e+01
1	 1.038941938199824e-01	 1.151572863086273e+00	-3.866316379403064e+01
1	 8.286766636086342e-02	 1.153276641736761e+00	-3.834645933873145e+01
1	 6.195586161924196e-02	 1.154588902472632e+00	-3.794900504701833e+01
1	 4.116809727085302e-02	 1.155516875804024e+00	-3.747289433008136e+01
1	 2.051329948050653e-02	 1.156068020076935e+00	-3.692037156955826e+01
1	 0.000000000000000e+00	 1.156250000000000e+00	-3.629381806652074e+01
1	 2.115320484483569e-01	 1.143092490793808e+00	-3.950181730209465e+01
1	 1.899690821111879e-01	 1.146873139394641e+00	-3.961525846704422e+01
1	 1.684689059997655e-01	 1.150228011191053e+00	-3.963928839172920e+01
1	 1.470427673070985e-01	 1.153162900285622e+00	-3.957506641546583e+01
1	 1.257015537608132e-01	 1.155683940093792e+00	-3.942397423739864e+01
1	 1.044557840569276e-01	 1.157797581264796e+00	-3.918760242748652e+01
1	 8.331559969259918e-02	 1.159510569529729e+00	-3.886773659353606e+01
1	 6.229075816857012e-02	 1.160829923566965e+00	-3.846634330145432e+01
1	 4.139062752639009e-02	 1.161762912970481e+00	-3.798555584206267e+01
1	 2.062418218040849e-02	 1.162317036401662e+00	-3.742765993338330e+01
1	 0.000000000000000e+00	 1.162500000000000e+00	-3.679507944243684e+01
1	 2.126693175268256e-01	 1.149238149344660e+00	-4.003120633059442e+01
1	 1.909904212631481e-01	 1.153039124013591e+00	-4.014597104295778e+01
1	 1.693746528070492e-01	 1.156412032755456e+00	-4.017038609940048e+01
1	 1.478333198203180e-01	 1.159362700823924e+00	-4.010563962595513e+01
1	 1.263773685667511e-01	 1.161897294609792e+00	-3.995314473800871e+01
1	 1.050173742944963e-01	 1.164022299443203e+00	-3.971452581388699e+01
1	 8.376353302488986e-02	 1.165744497322621e+00	-3.939160442405348e+01
1	 6.262565471835592e-02	 1.167070944661255e+00	-3.898638501454451e+01
1	 4.161315778225946e-02	 1.168008950136921e+00	-3.850104043933148e+01
1	 2.073506488048997e-02	 1.168566052726385e+00	-3.793789743178868e+01
1	 0.000000000000000e+00	 1.168750000000000e+00	-3.729942210044490e+01
1	 2.138065866058091e-01	 1.155383807895026e+00	-4.056263444084490e+01
1	 1.920117604157069e-01	 1.159205108632150e+00	-4.067878766579641e+01
1	 1.702803996149838e-01	 1.162596054319553e+00	-4.070366121482010e+01
1	 1.486238723342095e-01	 1.165562501361993e+00	-4.063847172967629e+01
1	 1.270531833733518e-01	 1.168110649125622e+00	-4.048466346043516e+01
1	 1.055789645326885e-01	 1.170247017621491e+00	-4.024389430291894e+01
1	 8.421146635773549e-02	 1.171978425115439e+00	-3.991802149130994e+01
1	 6.296055126859935e-02	 1.173311965755504e+00	-3.950908704599125e+01
1	 4.183568803846112e-02	 1.174254987303342e+00	-3.901930307265550e+01
1	 2.084594758075098e-02	 1.174815069051104e+00	-3.845103700411666e+01
1	 0.000000000000000e+00	 1.175000000000000e+00	-3.780679687115097e+01
1	 2.149438556853072e-01	 1.161529466444908e+00	-4.109606926647019e+01
1	 1.930330995688643e-01	 1.165371093250318e+00	-4.121367493799028e+01
1	 1.711861464235693e-01	 1.168780075883342e+00	-4.123907917596067e+01
1	 1.494144248487731e-01	 1.171762301899829e+00	-4.117352687118178e+01
1	 1.277289981806152e-01	 1.174324003641281e+00	-4.101849313131635e+01
1	 1.061405547715043e-01	 1.176471735799662e+00	-4.077566908342997e+01
1	 8.465939969113606e-02	 1.178212352908183e+00	-4.044694733123069e+01
1	 6.329544781930047e-02	 1.179552986849712e+00	-4.003440716851954e+01
1	 4.205821829499507e-02	 1.180501024469744e+00	-3.954029964622455e+01
1	 2.095683028119151e-02	 1.181064085375818e+00	-3.896703258570336e+01
1	 0.000000000000000e+00	 1.181250000000000e+00	-3.831715562578334e+01
1	 2.160811247653200e-01	 1.167675124994303e+00	-4.163147912249033e+01
1	 1.940544387226203e-01	 1.171537077868094e+00	-4.175060016507571e+01
1	 1.720918932328057e-01	 1.174964097446825e+00	-4.177660614841591e+01
1	 1.502049773640088e-01	 1.177962102437431e+00	-4.171076994987453e+01
1	 1.284048129885414e-01	 1.180537358156770e+00	-4.155459726199251e+01
1	 1.067021450109435e-01	 1.182696453977716e+00	-4.130981216134400e+01
1	 8.510733302509156e-02	 1.184446280700851e+00	-4.097834233161606e+01
1	 6.363034437045921e-02	 1.185794007943877e+00	-4.056230404384962e+01
1	 4.228074855186133e-02	 1.186747061636128e+00	-4.006398699256152e+01
1	 2.106771298181156e-02	 1.187313101700527e+00	-3.948583908166574e+01
1	 0.000000000000000e+00	 1.187500000000000e+00	-3.883045124880701e+01
1	 1.187500000000000e+00	 0.000000000000000e+00	 2.250246348021660e+01
1	 1.187313101700527e+00	 2.106771298181088e-02	 2.254078063899069e+01
1	 1.186747061636129e+00	 4.228074855186074e-02	 2.252260427512572e+01
1	 1.185794007943877e+00	 6.363034437045868e-02	 2.244652914547654e+01
1	 1.184446280700851e+00	 8.510733302509109e-02	 2.231123964708993e+01
1	 1.182696453977716e+00	 1.067021450109431e-01	 2.211551805537508e+01
1	 1.180537358156770e+00	 1.284048129885411e-01	 2.185825274588419e+01
1	 1.177962102437431e+00	 1.502049773640085e-01	 2.153844635142786e+01
1	 1.174964097446825e+00	 1.720918932328055e-01	 2.115522380365746e+01
1	 1.171537077868094e+00	 1.940544387226202e-01	 2.070784020593416e+01
1	 1.167675124994303e+00	 2.160811247653200e-01	 2.019568848232281e+01
1	 1.193750000000000e+00	 0.000000000000000e+00	 2.229333694289320e+01
1	 1.193562118025237e+00	 2.117859568242864e-02	 2.233842780556096e+01
1	 1.192993098802513e+00	 4.250327880871776e-02	 2.232603947660840e+01
1	 1.192035029038043e+00	 6.396524092159654e-02	 2.225477880247873e+01
1	 1.190680208493520e+00	 8.555526635900922e-02	 2.212334648290128e+01
1	 1.188921172155769e+00	 1.072637352503236e-01	 2.193054545126027e+01
1	 1.186750712672258e+00	 1.290806277963820e-01	 2.167528922503398e+01
1	 1.184161902975033e+00	 1.509955298791275e-01	 2.135661017642937e+01
1	 1.181148119010307e+00	 1.729976400418885e-01	 2.097366767075395e+01
1	 1.177703062485872e+00	 1.950757778761808e-01	 2.052575601778208e+01
1	 1.173820783543699e+00	 2.172183938450901e-01	 2.001231217943300e+01
1	 1.200000000000000e+00	 0.000000000000000e+00	 2.208732173088246e+01
1	 1.199811134349951e+00	 2.128947838286231e-02	 2.213937682456585e+01
1	 1.199239135968915e+00	 4.272580906522406e-02	 2.213297854768669e+01
1	 1.198276050132250e+00	 6.430013747223499e-02	 2.206674577551886e+01
1	 1.196914136286263e+00	 8.600319969229764e-02	 2.193939542245270e+01
1	 1.195145890333940e+00	 1.078253254889630e-01	 2.174975096370835e+01
1	 1.192964067187918e+00	 1.297564426033898e-01	 2.149675091365894e+01
1	 1.190361703512868e+00	 1.517860823933409e-01	 2.117945720929698e+01
1	 1.187332140574097e+00	 1.739033868500136e-01	 2.079706344480550e+01
1	 1.183869047104040e+00	 1.960971170287520e-01	 2.034890290093502e+01
1	 1.179966442093580e+00	 2.183556629238602e-01	 1.983445631099364e+01
1	 1.206250000000000e+00	 0.000000000000000e+00	 2.188436948160524e+01
1	 1.206060150674669e+00	 2.140036108311187e-02	 2.194357637186587e+01
1	 1.205485173135337e+00	 4.294833932137965e-02	 2.194336702405895e+01
1	 1.204517071226500e+00	 6.463503402237403e-02	 2.188237228247588e+01
1	 1.203148064079082e+00	 8.645113302495638e-02	 2.175932518951470e+01
1	 1.201370608512229e+00	 1.083869157268612e-01	 2.157306964789763e+01
1	 1.199177421703747e+00	 1.304322574095644e-01	 2.132256902611556e+01
1	 1.196561504050937e+00	 1.525766349066487e-01	 2.100691465405027e+01
1	 1.193516162138193e+00	 1.748091336571810e-01	 2.062533415316251e+01
1	 1.190035031722598e+00	 1.971184561803339e-01	 2.017719954340192e+01
1	 1.186112100643947e+00	 2.194929320016303e-01	 1.966203506714157e+01
1	 1.212500000000000e+00	 0.000000000000000e+00	 2.168443282964924e+01
1	 1.212309166999392e+00	 2.151124378317734e-02	 2.175097618155130e+01
1	 1.211731210301776e+00	 4.317086957718450e-02	 2.175715156439896e+01
1	 1.210758092320790e+00	 6.496993057201365e-02	 2.170160173261286e+01
1	 1.209381991871975e+00	 8.689906635698544e-02	 2.158307577128533e+01
1	 1.207595326690635e+00	 1.089485059640183e-01	 2.140043789807489e+01
1	 1.205390776219747e+00	 1.311080722149057e-01	 2.115267619502126e+01
1	 1.202761304589240e+00	 1.533671874190509e-01	 2.083891121565702e+01
1	 1.199700183702596e+00	 1.757148804633906e-01	 2.045840441024054e+01
1	 1.196201016341548e+00	 1.981397953309263e-01	 2.001056630972764e+01
1	 1.192257759194798e+00	 2.206302010784004e-01	 1.949496440728909e+01
1	 1.218750000000000e+00	 0.000000000000000e+00	 2.148746538120039e+01
1	 1.218558183324120e+00	 2.162212648305870e-02	 2.156152701880821e+01
1	 1.217977247468234e+00	 4.339339983263862e-02	 2.157427992156175e+01
1	 1.216999113415123e+00	 6.530482712115383e-02	 2.152437869602856e+01
1	 1.215615919664943e+00	 8.734699968838479e-02	 2.141058838599454e+01
1	 1.213820044869159e+00	 1.095100962004343e-01	 2.123179341322045e+01
1	 1.211604130735918e+00	 1.317838870194137e-01	 2.098700643488844e+01
1	 1.208961105127776e+00	 1.541577399305475e-01	 2.067537706154722e+01
1	 1.205884205267306e+00	 1.766206272686425e-01	 2.029620037682613e+01
1	 1.202367000960888e+00	 1.991611344805294e-01	 1.984892519800489e+01
1	 1.198403417746136e+00	 2.217674701541706e-01	 1.933316201475801e+01
1	 1.225000000000000e+00	 0.000000000000000e+00	 2.129342168925742e+01
1	 1.224807199648853e+00	 2.173300918275596e-02	 2.137518065361494e+01
1	 1.224223284634710e+00	 4.361593008774201e-02	 2.139470091467069e+01
1	 1.223240134509497e+00	 6.563972366979463e-02	 2.135064887404446e+01
1	 1.221849847457984e+00	 8.779493301915442e-02	 2.124180545150045e+01
1	 1.220044763047800e+00	 1.100716864361092e-01	 2.106707516376425e+01
1	 1.217817485252259e+00	 1.324597018230886e-01	 2.082549510687225e+01
1	 1.215160905666546e+00	 1.549482924411386e-01	 2.051624378430541e+01
1	 1.212068226832323e+00	 1.775263740729365e-01	 2.013864972062862e+01
1	 1.208532985580619e+00	 2.001824736291430e-01	 1.969219979820208e+01
1	 1.204549076297958e+00	 2.229047392289407e-01	 1.917654725280247e+01
1	 1.231250000000000e+00	 0.000000000000000e+00	 2.110225722960092e+01
1	 1.231056215973589e+00	 2.184389188226912e-02	 2.119188983523973e+01
1	 1.230469321801205e+00	 4.383846034249466e-02	 2.121836440205498e+01
1	 1.229481155603913e+00	 6.597462021793600e-02	 2.118035907049332e+01
1	 1.228083775251102e+00	 8.824286634929433e-02	 2.107667055484181e+01
1	 1.226269481226559e+00	 1.106332766710430e-01	 2.090622335931524e+01
1	 1.224030839768770e+00	 1.331355166259303e-01	 2.066807888459188e+01
1	 1.221360706205549e+00	 1.557388449508240e-01	 2.036144436549940e+01
1	 1.218252248397647e+00	 1.784321208762728e-01	 1.998568157803336e+01
1	 1.214698970200740e+00	 2.012038127767673e-01	 1.954031525176042e+01
1	 1.210694734850266e+00	 2.240420083027108e-01	 1.902504112197088e+01
1	 1.237500000000000e+00	 0.000000000000000e+00	 2.091392837749081e+01
1	 1.237305232298331e+00	 2.195477458159818e-02	 2.101160826751129e+01
1	 1.236715358967718e+00	 4.406099059689659e-02	 2.104522125500701e+01
1	 1.235722176698372e+00	 6.630951676557795e-02	 2.101345716387810e+01
1	 1.234317703044293e+00	 8.869079967880458e-02	 2.091512842271324e+01
1	 1.232494199405435e+00	 1.111948669052357e-01	 2.074917941736931e+01
1	 1.230244194285452e+00	 1.338113314279386e-01	 2.051469572098733e+01
1	 1.227560506744785e+00	 1.565293974596039e-01	 2.021091314060464e+01
1	 1.224436269963278e+00	 1.793378676786513e-01	 1.983722651701395e+01
1	 1.220864954821253e+00	 2.022251519234022e-01	 1.939319821241514e+01
1	 1.216840393403059e+00	 2.251792773754809e-01	 1.887856621876019e+01
1	 1.243750000000000e+00	 0.000000000000000e+00	 2.072839238506633e+01
1	 1.243554248623077e+00	 2.206565728074314e-02	 2.083429058483463e+01
1	 1.242961396134250e+00	 4.428352085094780e-02	 2.087522333233095e+01
1	 1.241963197792871e+00	 6.664441331272049e-02	 2.084989208037017e+01
1	 1.240551630837560e+00	 8.913873300768514e-02	 2.075712489283070e+01
1	 1.238718917584429e+00	 1.117564571386872e-01	 2.059588593296009e+01
1	 1.236457548802304e+00	 1.344871462291139e-01	 2.036528481617582e+01
1	 1.233760307284256e+00	 1.573199499674782e-01	 2.006458576498668e+01
1	 1.230620291529215e+00	 1.802436144800721e-01	 1.969321650116258e+01
1	 1.227030939442157e+00	 2.032464910690478e-01	 1.925077680819847e+01
1	 1.222986051956337e+00	 2.263165464472510e-01	 1.873704669551672e+01
1	 1.250000000000000e+00	 0.000000000000000e+00	 2.054560735942413e+01
1	 1.249803264947827e+00	 2.217653997970400e-02	 2.065989232892691e+01
1	 1.249207433300800e+00	 4.450605110464827e-02	 2.070832345565499e+01
1	 1.248204218887413e+00	 6.697930985936362e-02	 2.068961376761766e+01
1	 1.246785558630901e+00	 8.958666633593600e-02	 2.060260688615602e+01
1	 1.244943635763541e+00	 1.123180473713977e-01	 2.044628664922080e+01
1	 1.242670903319327e+00	 1.351629610294558e-01	 2.021978658627224e+01
1	 1.239960107823959e+00	 1.581105024744469e-01	 1.992239918090386e+01
1	 1.236804313095460e+00	 1.811493612805350e-01	 1.955358485479975e+01
1	 1.233196924063451e+00	 2.042678302137040e-01	 1.911298060458193e+01
1	 1.229131710510101e+00	 2.274538155180212e-01	 1.860040822153979e+01
1	 1.167675124994303e+00	 2.160811247653200e-01	 2.019568848232281e+01
1	 1.163372689111265e+00	 2.381601063211085e-01	 1.991146594152110e+01
1	 1.158624611609315e+00	 2.602791950729823e-01	 1.957527267393074e+01
1	 1.153426146719838e+00	 2.824258735998902e-01	 1.918856816034257e+01
1	 1.147772982769477e+00	 3.045873110293172e-01	 1.875298018032288e+01
1	 1.141661262843413e+00	 3.267503801639193e-01	 1.827030377192038e+01
1	 1.135087604746951e+00	 3.489016760664018e-01	 1.774249934880498e+01
1	 1.128049120153915e+00	 3.710275360783329e-01	 1.717168995143344e+01
1	 1.120543432830269e+00	 3.931140612393641e-01	 1.656015761453750e+01
1	 1.112568695822117e+00	 4.151471390639291e-01	 1.591033883939673e+01
1	 1.104123607498825e+00	 4.371124676229823e-01	 1.522481916594399e+01
1	 1.173820783543699e+00	 2.172183938450901e-01	 2.001231217943300e+01
1	 1.169495703260665e+00	 2.394135805666024e-01	 1.973380100326025e+01
1	 1.164722635876613e+00	 2.616490855747768e-01	 1.940327790613938e+01
1	 1.159496810645199e+00	 2.839123255674001e-01	 1.902216573946992e+01
1	 1.153813893200052e+00	 3.061904021410506e-01	 1.859205522934102e+01
1	 1.147670006326803e+00	 3.284701190078732e-01	 1.811470407289453e+01
1	 1.141061750029733e+00	 3.507380006782731e-01	 1.759203519874004e+01
1	 1.133986220780951e+00	 3.729803125850908e-01	 1.702613416738153e+01
1	 1.126441029839928e+00	 3.951830826155557e-01	 1.641924569323463e+01
1	 1.118424320531960e+00	 4.173321240078634e-01	 1.577376927590721e+01
1	 1.109934784375726e+00	 4.394130595596578e-01	 1.509225393492742e+01
1	 1.179966442093580e+00	 2.183556629238602e-01	 1.983445631099364e+01
1	 1.175618717410646e+00	 2.406670548111010e-01	 1.956144875839067e+01
1	 1.170820660144577e+00	 2.630189760755901e-01	 1.923638844743825e+01
1	 1.165567474571305e+00	 2.853987775339527e-01	 1.886066195761271e+01
1	 1.159854803631439e+00	 3.077934932518603e-01	 1.843582332662068e+01
1	 1.153678749811061e+00	 3.301898578509470e-01	 1.796359328244468e+01
1	 1.147035895313430e+00	 3.525743252893175e-01	 1.744585764599512e+01
1	 1.139923321408939e+00	 3.749330890910854e-01	 1.688466487969359e+01
1	 1.132338626850566e+00	 3.972521039910581e-01	 1.628222276285702e+01
1	 1.124279945242797e+00	 4.195171089511926e-01	 1.564089418076731e+01
1	 1.115745961253626e+00	 4.417136514958230e-01	 1.496319202075479e+01
1	 1.186112100643947e+00	 2.194929320016303e-01	 1.966203506714157e+01
1	 1.181741731561207e+00	 2.419205290546043e-01	 1.939432662618498e+01
1	 1.176918684413208e+00	 2.643888665754223e-01	 1.907452494069029e+01
1	 1.171638138498153e+00	 2.868852294995479e-01	 1.870398067012233e+01
1	 1.165895714063635e+00	 3.093965843617461e-01	 1.828421152322461e+01
1	 1.159687493296186e+00	 3.319095966931401e-01	 1.781690162478967e+01
1	 1.153010040598041e+00	 3.544106498995350e-01	 1.730390005952383e+01
1	 1.145860422037879e+00	 3.768858655963167e-01	 1.674721856770114e+01
1	 1.138236223862183e+00	 3.993211253658713e-01	 1.614902837276908e+01
1	 1.130135569954629e+00	 4.217020938939169e-01	 1.551165612700870e+01
1	 1.121557138132527e+00	 4.440142434314778e-01	 1.483757896772489e+01
1	 1.192257759194798e+00	 2.206302010784004e-01	 1.949496440728909e+01
1	 1.187864745712349e+00	 2.431740032971122e-01	 1.923235372861116e+01
1	 1.183016708682507e+00	 2.657587570742733e-01	 1.891760966498810e+01
1	 1.177708802425745e+00	 2.883716814641856e-01	 1.855204730234299e+01
1	 1.171936624496643e+00	 3.109996754707081e-01	 1.813714837431750e+01
1	 1.165696236782179e+00	 3.336293355344531e-01	 1.767456076282424e+01
1	 1.158984185883568e+00	 3.562469745089258e-01	 1.716609718211577e+01
1	 1.151797522667771e+00	 3.788386421007850e-01	 1.661373302044001e+01
1	 1.144133820874777e+00	 4.013901467399952e-01	 1.601960331874007e+01
1	 1.135991194667456e+00	 4.238870788360361e-01	 1.538599887172415e+01
1	 1.127368315012427e+00	 4.463148353666224e-01	 1.471536144293455e+01
1	 1.198403417746136e+00	 2.217674701541706e-01	 1.933316201475801e+01
1	 1.193987759864072e+00	 2.444274775386249e-01	 1.907545084667385e+01
1	 1.189114732952471e+00	 2.671286475721432e-01	 1.876556649369938e+01
1	 1.183779466354081e+00	 2.898581334278660e-01	 1.840478880935530e+01
1	 1.177977534930460e+00	 3.126027665787462e-01	 1.799456390059904e+01
1	 1.171704980269040e+00	 3.353490743748857e-01	 1.753650376122977e+01
1	 1.164958331170010e+00	 3.580832991174897e-01	 1.703238509516990e+01
1	 1.157734623298615e+00	 3.807914186044899e-01	 1.648414730306843e+01
1	 1.150031417888351e+00	 4.034591681134298e-01	 1.589388961098489e+01
1	 1.141846819381277e+00	 4.260720637775503e-01	 1.526386732570710e+01
1	 1.133179491893328e+00	 4.486154273012568e-01	 1.459648720748863e+01
1	 1.204549076297958e+00	 2.229047392289407e-01	 1.917654725280247e+01
1	 1.200110774016376e+00	 2.456809517791422e-01	 1.892354037809184e+01
1	 1.195212757223104e+00	 2.684985380690320e-01	 1.861832085379647e+01
1	 1.189850130283160e+00	 2.913445853905891e-01	 1.826213363695261e+01
1	 1.184018445365089e+00	 3.142058576858606e-01	 1.785638955091790e+01
1	 1.177713723756769e+00	 3.370688132144380e-01	 1.740266505071463e+01
1	 1.170932476457367e+00	 3.599196237252267e-01	 1.690270118454647e+01
1	 1.163671723930411e+00	 3.827441951074317e-01	 1.635840172431271e+01
1	 1.155929014902902e+00	 4.055281894861752e-01	 1.577183044318343e+01
1	 1.147702444096093e+00	 4.282570487184595e-01	 1.514520752402039e+01
1	 1.138990668775229e+00	 4.509160192353808e-01	 1.448090508859197e+01
1	 1.210694734850266e+00	 2.240420083027108e-01	 1.902504112197088e+01
1	 1.206233788169260e+00	 2.469344260186642e-01	 1.877654629626473e+01
1	 1.201310781494402e+00	 2.698684285649395e-01	 1.847579968642485e+01
1	 1.195920794212983e+00	 2.928310373523547e-01	 1.812401168380550e+01
1	 1.190059355800528e+00	 3.158089487920512e-01	 1.772255816602420e+01
1	 1.183722467245366e+00	 3.387885520531099e-01	 1.727298039334324e+01
1	 1.176906621745638e+00	 3.617559483321369e-01	 1.677698410745871e+01
1	 1.169608824563159e+00	 3.846969716096105e-01	 1.623643780490467e+01
1	 1.161826611918434e+00	 4.075972108582314e-01	 1.565337016244332e+01
1	 1.153558068811903e+00	 4.304420336587637e-01	 1.502996659746154e+01
1	 1.144801845658129e+00	 4.532166111689946e-01	 1.436856495249075e+01
1	 1.216840393403059e+00	 2.251792773754809e-01	 1.887856621876019e+01
1	 1.212356802322724e+00	 2.481879002571909e-01	 1.863439411048311e+01
1	 1.207408805766368e+00	 2.712383190598660e-01	 1.833793140866653e+01
1	 1.201991458143549e+00	 2.943174893131630e-01	 1.799035426477300e+01
1	 1.196100266236777e+00	 3.174120398973179e-01	 1.759300394342066e+01
1	 1.189731210734830e+00	 3.405082908909015e-01	 1.714738684891613e+01
1	 1.182880767034825e+00	 3.635922729382204e-01	 1.665517376036806e+01
1	 1.175545925196858e+00	 3.866497481110260e-01	 1.611819824697549e+01
1	 1.167724208934942e+00	 4.096662322295982e-01	 1.553845424017295e+01
1	 1.159413693528708e+00	 4.326270185984630e-01	 1.491809274489281e+01
1	 1.150613022542030e+00	 4.555172031020980e-01	 1.425941767823423e+01
1	 1.222986051956337e+00	 2.263165464472510e-01	 1.873704669551672e+01
1	 1.218479816476771e+00	 2.494413744947223e-01	 1.849701082733824e+01
1	 1.213506830039000e+00	 2.726082095538112e-01	 1.820464587645615e+01
1	 1.208062122074858e+00	 2.958039412730140e-01	 1.786109407531999e+01
1	 1.202141176673837e+00	 3.190151310016608e-01	 1.746766240327317e+01
1	 1.195739954225163e+00	 3.422280297278128e-01	 1.702582274236336e+01
1	 1.188854912324927e+00	 3.654285975434768e-01	 1.653721124784721e+01
1	 1.181483025831510e+00	 3.886025246116783e-01	 1.600362690437225e+01
1	 1.173621805952430e+00	 4.117352536002757e-01	 1.542702924383283e+01
1	 1.165269318246508e+00	 4.348120035375572e-01	 1.480953520640515e+01
1	 1.156424199426930e+00	 4.578177950346912e-01	 1.415341513222747e+01
1	 1.229131710510101e+00	 2.274538155180212e-01	 1.860040822153979e+01
1	 1.224602830631397e+00	 2.506948487312582e-01	 1.836432491328955e+01
1	 1.219604854312299e+00	 2.739781000467753e-01	 1.807587434860952e+01
1	 1.214132786006912e+00	 2.972903932319075e-01	 1.773616515700203e+01
1	 1.208182087111708e+00	 3.206182221050798e-01	 1.734647035534433e+01
1	 1.201748697716363e+00	 3.439477685638436e-01	 1.690822763211644e+01
1	 1.194829057615943e+00	 3.672649221479065e-01	 1.642303885237739e+01
1	 1.187420126467113e+00	 3.905553011115673e-01	 1.589266875386497e+01
1	 1.179519402970896e+00	 4.138042749702640e-01	 1.531904280953415e+01
1	 1.171124942965302e+00	 4.369969884760465e-01	 1.470424423728777e+01
1	 1.162235376312831e+00	 4.601183869667742e-01	 1.405051014354722e+01
1	 1.104123607498825e+00	 4.371124676229823e-01	 1.522481916594399e+01
1	 1.095207426344859e+00	 4.589955808697618e-01	 1.476713475527582e+01
1	 1.085819984395729e+00	 4.807818751352930e-01	 1.426008440002059e+01
1	 1.075961699219711e+00	 5.024566367146296e-01	 1.370396703262317e+01
1	 1.065633584352145e+00	 5.240050704560124e-01	 1.309921010235898e+01
1	 1.054837258093266e+00	 5.454123292515075e-01	 1.244637088927731e+01
1	 1.043574950589053e+00	 5.666635443231888e-01	 1.174613723616444e+01
1	 1.031849509122004e+00	 5.877438561902472e-01	 1.099932767776453e+01
1	 1.019664401547349e+00	 6.086384461952836e-01	 1.020689095062234e+01
1	 1.007023717819563e+00	 6.293325684616293e-01	 9.369904871340951e+00
1	 9.939321695640974e-01	 6.498115821479387e-01	 8.489574575728064e+00
1	 1.109934784375726e+00	 4.394130595596578e-01	 1.509225393492742e+01
1	 1.100971675952930e+00	 4.614113470870209e-01	 1.462828151285741e+01
1	 1.091534826415010e+00	 4.833123060594928e-01	 1.411522957374072e+01
1	 1.081624655527969e+00	 5.051011453315740e-01	 1.355338617780798e+01
1	 1.071242182161545e+00	 5.267629918822849e-01	 1.294316694771369e+01
1	 1.060389033133340e+00	 5.482829204610176e-01	 1.228511642028548e+01
1	 1.049067450326945e+00	 5.696459840331191e-01	 1.157990882196430e+01
1	 1.037280296010556e+00	 5.908372449099866e-01	 1.082834824702258e+01
1	 1.025031056291269e+00	 6.118418064412863e-01	 1.003136822172453e+01
1	 1.012323842649639e+00	 6.326448451404717e-01	 9.190030641967985e+00
1	 9.991633915091432e-01	 6.532316431091377e-01	 8.305524076583703e+00
1	 1.115745961253626e+00	 4.417136514958230e-01	 1.496319202075479e+01
1	 1.106735925561992e+00	 4.638271133038600e-01	 1.449284480875398e+01
1	 1.097249668435252e+00	 4.858427369833438e-01	 1.397370139142661e+01
1	 1.087287611837141e+00	 5.077456539482217e-01	 1.340603908513071e+01
1	 1.076850779971789e+00	 5.295209133082932e-01	 1.279026182393909e+01
1	 1.065940808174170e+00	 5.511535116702756e-01	 1.212690154892024e+01
1	 1.054559950065485e+00	 5.726284237427899e-01	 1.141661902673076e+01
1	 1.042711082899626e+00	 5.939306336294381e-01	 1.066020407645466e+01
1	 1.030397711035560e+00	 6.150451666869525e-01	 9.858575187655113e+00
1	 1.017623967479915e+00	 6.359571218189092e-01	 9.012778516927540e+00
1	 1.004394613454200e+00	 6.566517040698419e-01	 8.123986254830852e+00
1	 1.121557138132527e+00	 4.440142434314778e-01	 1.483757896772489e+01
1	 1.112500175172043e+00	 4.662428795202793e-01	 1.436077153615330e+01
1	 1.102964510456456e+00	 4.883731679068466e-01	 1.383544814358750e+01
1	 1.092950568147225e+00	 5.103901625645730e-01	 1.326187548885951e+01
1	 1.082459377782877e+00	 5.322788347340370e-01	 1.264044595335400e+01
1	 1.071492583215756e+00	 5.540241028792817e-01	 1.197167902755100e+01
1	 1.060052449804673e+00	 5.756108634522009e-01	 1.125622217244974e+01
1	 1.048141869789214e+00	 5.970240223486021e-01	 1.049485109465997e+01
1	 1.035764365780220e+00	 6.182485269322830e-01	 9.688469417925722e+00
1	 1.022924092310392e+00	 6.392693984969415e-01	 8.838107738122503e+00
1	 1.009625835399267e+00	 6.600717650300515e-01	 7.944922053309330e+00
1	 1.127368315012427e+00	 4.463148353666224e-01	 1.471536144293455e+01
1	 1.118264424783085e+00	 4.686586457362788e-01	 1.423200968322895e+01
1	 1.108679352478621e+00	 4.909035988300008e-01	 1.370041918690754e+01
1	 1.098613524458221e+00	 5.130346711806275e-01	 1.312084615966932e+01
1	 1.088067975594809e+00	 5.350367561595164e-01	 1.249367156400273e+01
1	 1.077044358258099e+00	 5.568946940880360e-01	 1.181940258272494e+01
1	 1.065544949544507e+00	 5.785933031613522e-01	 1.109867352292178e+01
1	 1.053572656679322e+00	 6.001174110674783e-01	 1.033224613892663e+01
1	 1.041131020525250e+00	 6.214518871772771e-01	 9.521009356903296e+00
1	 1.028224217141069e+00	 6.425816751745689e-01	 8.665978387828890e+00
1	 1.014857057344345e+00	 6.634918259897664e-01	 7.768293220161309e+00
1	 1.133179491893328e+00	 4.486154273012568e-01	 1.459648720748863e+01
1	 1.124028674395118e+00	 4.710744119518586e-01	 1.410650830506366e+01
1	 1.114394194501747e+00	 4.934340297528066e-01	 1.356856491690812e+01
1	 1.104276480770130e+00	 5.156791797963856e-01	 1.298290287806731e+01
1	 1.093676573407586e+00	 5.377946775847315e-01	 1.234989186386711e+01
1	 1.082596133301196e+00	 5.597652852965380e-01	 1.167002689018837e+01
1	 1.071037449284990e+00	 5.815757428702439e-01	 1.094392925961311e+01
1	 1.059003443569948e+00	 6.032107997860668e-01	 1.017234693193141e+01
1	 1.046497675270649e+00	 6.246552474219352e-01	 9.356154301378021e+00
1	 1.033524341971947e+00	 6.458939518517909e-01	 8.496351367147774e+00
1	 1.020088279289433e+00	 6.669118869489865e-01	 7.594062288182517e+00
1	 1.138990668775229e+00	 4.509160192353808e-01	 1.448090508859197e+01
1	 1.129792924008141e+00	 4.734901781670184e-01	 1.398421749643232e+01
1	 1.120109036525835e+00	 4.959644606752637e-01	 1.343983674144693e+01
1	 1.109939437082952e+00	 5.183236884118471e-01	 1.284799840863192e+01
1	 1.099285171221208e+00	 5.405525990096824e-01	 1.220906101586789e+01
1	 1.088147908345050e+00	 5.626358765047884e-01	 1.152350755067230e+01
1	 1.076529949026119e+00	 5.845581825788758e-01	 1.079194645824569e+01
1	 1.064434230461093e+00	 6.063041885043677e-01	 1.001511205915392e+01
1	 1.051864330016418e+00	 6.278586076662573e-01	 9.193864378817885e+00
1	 1.038824466803024e+00	 6.492062285286080e-01	 8.329188375116821e+00
1	 1.025319501234533e+00	 6.703319479077121e-01	 7.422192554805363e+00
1	 1.144801845658129e+00	 4.532166111689946e-01	 1.436856495249075e+01
1	 1.135557173622154e+00	 4.759059443817585e-01	 1.386508836541373e+01
1	 1.125823878550885e+00	 4.984948915973726e-01	 1.331418705502404e+01
1	 1.115602393396687e+00	 5.209681970270120e-01	 1.271608647503637e+01
1	 1.104893769035673e+00	 5.433105204343691e-01	 1.207113411362808e+01
1	 1.093699683389660e+00	 5.655064677127867e-01	 1.137980106641569e+01
1	 1.082022448767896e+00	 5.875406222872480e-01	 1.064268306610035e+01
1	 1.069865017352757e+00	 6.093975772223811e-01	 9.860500946977345e+00
1	 1.057230984762557e+00	 6.310619679102430e-01	 9.034100526285339e+00
1	 1.044124591634302e+00	 6.525185052050200e-01	 8.164451888458332e+00
1	 1.030550723179642e+00	 6.737520088659428e-01	 7.252648062692149e+00
1	 1.150613022542030e+00	 4.555172031020980e-01	 1.425941767823423e+01
1	 1.141321423237157e+00	 4.783217105960788e-01	 1.374907300780234e+01
1	 1.131538720576894e+00	 5.010253225191327e-01	 1.319156921386671e+01
1	 1.121265349711334e+00	 5.236127056418803e-01	 1.258712173582910e+01
1	 1.110502366850982e+00	 5.460684418587913e-01	 1.193606715797011e+01
1	 1.099251458435025e+00	 5.683770589205329e-01	 1.123886481840016e+01
1	 1.087514948510320e+00	 5.905230619953608e-01	 1.049609788000792e+01
1	 1.075295804244939e+00	 6.124909659401065e-01	 9.708473841454222e+00
1	 1.062597639509066e+00	 6.342653281538930e-01	 8.876824469993094e+00
1	 1.049424716465781e+00	 6.558307818810271e-01	 8.002105141940568e+00
1	 1.035781945124762e+00	 6.771720698236789e-01	 7.085393580915921e+00
1	 1.156424199426930e+00	 4.578177950346912e-01	 1.415341513222747e+01
1	 1.147085672853151e+00	 4.807374768099794e-01	 1.363612448229105e+01
1	 1.137253562603866e+00	 5.035557534405447e-01	 1.307193751176549e+01
1	 1.126928306026894e+00	 5.262572142564520e-01	 1.246105976094455e+01
1	 1.116110964667136e+00	 5.488263632829492e-01	 1.180381703412201e+01
1	 1.104803233481147e+00	 5.712476501280273e-01	 1.110065704427090e+01
1	 1.093007448253392e+00	 5.935055017032136e-01	 1.035215052500338e+01
1	 1.080726591137641e+00	 6.155843546575444e-01	 9.558991787711122e+00
1	 1.067964294255944e+00	 6.374686883972069e-01	 8.721998705476139e+00
1	 1.054724841297460e+00	 6.591430585566289e-01	 7.842112109331342e+00
1	 1.041013167069893e+00	 6.805921307809202e-01	 6.920394586709153e+00
1	 1.162235376312831e+00	 4.601183869667742e-01	 1.405051014354722e+01
1	 1.152849922470135e+00	 4.831532430234600e-01	 1.352619678639893e+01
1	 1.142968404631799e+00	 5.060861843616077e-01	 1.295524715663501e+01
1	 1.132591262343367e+00	 5.289017228707272e-01	 1.233785700891841e+01
1	 1.121719562484135e+00	 5.515842847068427e-01	 1.167434148960710e+01
1	 1.110355008528024e+00	 5.741182413352696e-01	 1.096513681692030e+01
1	 1.098499947997111e+00	 5.964879414108067e-01	 1.021080143362113e+01
1	 1.086157378030861e+00	 6.186777433746946e-01	 9.412016609972174e+00
1	 1.073330949003193e+00	 6.406720486401843e-01	 8.569586478358897e+00
1	 1.060024966129339e+00	 6.624553352318258e-01	 7.684437484923162e+00
1	 1.046244389015035e+00	 6.840121917376669e-01	 6.757617247759512e+00
1	 9.939321695640974e-01	 6.498115821479387e-01	 8.489574575728064e+00
1	 9.803950876596085e-01	 6.700609838606030e-01	 7.092806120058904e+00
1	 9.664184178081813e-01	 6.900664400845536e-01	 5.672047131172173e+00
1	 9.520087140812531e-01	 7.098138194856372e-01	 4.229480345511145e+00
1	 9.371731304409899e-01	 7.292892249357966e-01	 2.767369736460673e+00
1	 9.219194102501905e-01	 7.484790251165740e-01	 1.288053538794453e+00
1	 9.062558737950199e-01	 7.673698855531537e-01	-2.060631676621627e-01
1	 8.901914038573248e-01	 7.859487989337565e-01	-1.712516274262465e+00
1	 8.737354293854029e-01	 8.042031145719988e-01	-3.228790815063830e+00
1	 8.568979073238980e-01	 8.221205668737418e-01	-4.752329445727431e+00
1	 8.396893026750000e-01	 8.396893026750000e-01	-6.280541178999174e+00
1	 9.991633915091432e-01	 6.532316431091377e-01	 8.305524076583703e+00
1	 9.855550618056569e-01	 6.735876206200734e-01	 6.906048775526056e+00
1	 9.715048305343937e-01	 6.936983687187062e-01	 5.483270963975479e+00
1	 9.570192862619038e-01	 7.135496816954405e-01	 4.039354601750703e+00
1	 9.421056206027849e-01	 7.331275892794399e-01	 2.576542348369906e+00
1	 9.267716176743770e-01	 7.524183884084656e-01	 1.097148654663620e+00
1	 9.110256415538237e-01	 7.714086744262558e-01	-3.964475726241212e-01
1	 8.948766217744553e-01	 7.900853715614955e-01	-1.901810692751476e+00
1	 8.783340369106124e-01	 8.084357625452413e-01	-3.416456395314609e+00
1	 8.614078963119114e-01	 8.264475172275958e-01	-4.937860059709594e+00
1	 8.441087200595001e-01	 8.441087200595001e-01	-6.463465359650571e+00
1	 1.004394613454200e+00	 6.566517040698419e-01	 8.123986254830852e+00
1	 9.907150359515253e-01	 6.771142573789536e-01	 6.721683630326046e+00
1	 9.765912432602549e-01	 6.973302973521833e-01	 5.296759381640083e+00
1	 9.620298584420524e-01	 7.172855439044925e-01	 3.851358896898516e+00
1	 9.470381107639466e-01	 7.369659536222664e-01	 2.387703746075845e+00
1	 9.316238250978180e-01	 7.563577516994849e-01	 9.080848391568113e-01
1	 9.157954093117904e-01	 7.754474632984393e-01	-5.851448290414658e-01
1	 8.995618396906774e-01	 7.942219441882802e-01	-2.089577807275749e+00
1	 8.829326444348630e-01	 8.126684105175038e-01	-3.602760145923611e+00
1	 8.659178852989348e-01	 8.307744675804550e-01	-5.122199637987698e+00
1	 8.485281374429998e-01	 8.485281374429998e-01	-6.645374293711596e+00
1	 1.009625835399267e+00	 6.600717650300515e-01	 7.944922053309330e+00
1	 9.958750100972136e-01	 6.806408941372439e-01	 6.539673500014732e+00
1	 9.816776559857661e-01	 7.009622259849853e-01	 5.112477183366439e+00
1	 9.670404306216990e-01	 7.210214061127938e-01	 3.665460121542682e+00
1	 9.519706009244742e-01	 7.408043179642758e-01	 2.200823015810757e+00
1	 9.364760325205139e-01	 7.602971149896309e-01	 7.208334746274654e-01
1	 9.205651770689204e-01	 7.794862521697045e-01	-7.721811620204353e-01
1	 9.042470576059916e-01	 7.983585168141111e-01	-2.275841358311069e+00
1	 8.875312519581541e-01	 8.169010584887872e-01	-3.787723235227102e+00
1	 8.704278742849682e-01	 8.351014179323191e-01	-5.305366694069946e+00
1	 8.529475548255000e-01	 8.529475548255000e-01	-6.826283762217717e+00
1	 1.014857057344345e+00	 6.634918259897664e-01	 7.768293220161309e+00
1	 1.001034984242723e+00	 6.841675308949445e-01	 6.359981966837529e+00
1	 9.867640687109261e-01	 7.045941546171117e-01	 4.930389894144654e+00
1	 9.720510028008432e-01	 7.247572683203436e-01	 3.481625848939782e+00
1	 9.569030910843684e-01	 7.446426823054686e-01	 2.015869881204186e+00
1	 9.413282399424644e-01	 7.642364782789047e-01	 5.353665334842147e-01
1	 9.253349448252137e-01	 7.835250410400512e-01	-9.575822559435785e-01
1	 9.089322755203972e-01	 8.024950894389877e-01	-2.460624596838857e+00
1	 8.921298594804861e-01	 8.211337064590906e-01	-3.971366395100843e+00
1	 8.749378632700119e-01	 8.394283682831883e-01	-5.487379359743037e+00
1	 8.573669722070002e-01	 8.573669722070002e-01	-7.006209220822345e+00
1	 1.020088279289433e+00	 6.669118869489865e-01	 7.594062288182517e+00
1	 1.006194958388052e+00	 6.876941676520552e-01	 6.182573360070666e+00
1	 9.918504814357353e-01	 7.082260832485628e-01	 4.750463746144357e+00
1	 9.770615749794853e-01	 7.284931305271426e-01	 3.299824317509945e+00
1	 9.618355812436289e-01	 7.484810466458445e-01	 1.832814686939199e+00
1	 9.461804473636692e-01	 7.681758415673056e-01	 3.516565630604547e-01
1	 9.301047125806703e-01	 7.875638299094797e-01	-1.141373268334032e+00
1	 9.136174934338949e-01	 8.066316620629101e-01	-2.643950296897222e+00
1	 8.967284670018588e-01	 8.253663544284147e-01	-4.153709932151165e+00
1	 8.794478522540661e-01	 8.437553186330627e-01	-5.668255394859621e+00
1	 8.617863895875000e-01	 8.617863895875000e-01	-7.185165808139549e+00
1	 1.025319501234533e+00	 6.703319479077121e-01	 7.422192554805363e+00
1	 1.011354932533201e+00	 6.912208044085763e-01	 6.007412736964321e+00
1	 9.969368941601940e-01	 7.118580118793385e-01	 4.572665660674725e+00
1	 9.820721471576257e-01	 7.322289927331905e-01	 3.120024413869174e+00
1	 9.667680714022555e-01	 7.523194109854036e-01	 1.651628382909688e+00
1	 9.510326547841293e-01	 7.721152048548340e-01	 1.696766709480213e-01
1	 9.348744803352895e-01	 7.916026187779894e-01	-1.323578843296288e+00
1	 9.183027113464844e-01	 8.107682346858788e-01	-2.825840767748144e+00
1	 9.013270745222728e-01	 8.295990023967594e-01	-4.334773738563952e+00
1	 8.839578412371303e-01	 8.480822689819423e-01	-5.848012196826136e+00
1	 8.662058069670001e-01	 8.662058069670000e-01	-7.363168353832399e+00
1	 1.030550723179642e+00	 6.737520088659428e-01	 7.252648062692149e+00
1	 1.016514906678171e+00	 6.947474411645072e-01	 5.834465864266096e+00
1	 1.002023306884302e+00	 7.154899405094388e-01	 4.396963230693430e+00
1	 9.870827193352637e-01	 7.359648549384874e-01	 2.942195656377263e+00
1	 9.717005615602485e-01	 7.561577753241460e-01	 1.472282508859261e+00
1	 9.558848622038438e-01	 7.760545681414897e-01	-1.059948922253140e-02
1	 9.396442480890722e-01	 7.956414076455809e-01	-1.504223124547097e+00
1	 9.229879292581658e-01	 8.149048073078929e-01	-3.006317865673485e+00
1	 9.059256820417273e-01	 8.338316503641242e-01	-4.514577302623066e+00
1	 8.884678302192046e-01	 8.524092193298268e-01	-6.026666809802487e+00
1	 8.706252243454998e-01	 8.706252243454998e-01	-7.540231386453669e+00
1	 1.035781945124762e+00	 6.771720698236789e-01	 7.085393580915921e+00
1	 1.021674880822961e+00	 6.982740779198485e-01	 5.663699200304504e+00
1	 1.007109719608059e+00	 7.191218691388637e-01	 4.223324703845813e+00
1	 9.920932915123994e-01	 7.397007171430333e-01	 2.766308179184374e+00
1	 9.766330517176076e-01	 7.599961396620710e-01	 1.294749179486078e+00
1	 9.607370696228129e-01	 7.799939314272727e-01	-1.891977315707261e-01
1	 9.444140158420178e-01	 7.996801965122539e-01	-1.683329768050864e+00
1	 9.276731471689389e-01	 8.190413799289532e-01	-3.185403005414186e+00
1	 9.105242895602228e-01	 8.380642983305095e-01	-4.693139718909269e+00
1	 8.929778192002894e-01	 8.567361696767165e-01	-6.204235933621747e+00
1	 8.750446417229999e-01	 8.750446417229999e-01	-7.716369141050466e+00
1	 1.041013167069893e+00	 6.805921307809202e-01	 6.920394586709153e+00
1	 1.026834854967571e+00	 7.018007146745996e-01	 5.495079877612421e+00
1	 1.012196132331465e+00	 7.227537977676133e-01	 4.051718966015489e+00
1	 9.971038636890334e-01	 7.434365793468282e-01	 2.592332716759611e+00
1	 9.815655418743334e-01	 7.638345039991798e-01	 1.119001069996999e+00
1	 9.655892770410368e-01	 7.839332947121831e-01	-3.661433513391532e-01
1	 9.491837835941268e-01	 8.037189853780083e-01	-1.860921954275801e+00
1	 9.323583650788039e-01	 8.231779525490596e-01	-3.363117171264209e+00
1	 9.151228970777588e-01	 8.422969462959150e-01	-4.870479698192890e+00
1	 8.974878081803843e-01	 8.610631200226114e-01	-6.380735932442336e+00
1	 8.794640590995000e-01	 8.794640590995000e-01	-7.891595566538014e+00
1	 1.046244389015035e+00	 6.840121917376669e-01	 6.757617247759512e+00
1	 1.031994829112001e+00	 7.053273514287609e-01	 5.328575686072005e+00
1	 1.017282545054521e+00	 7.263857263956877e-01	 3.882115525368404e+00
1	 1.002114435865165e+00	 7.471724415498717e-01	 2.420240588882469e+00
1	 9.864980320304254e-01	 7.676728683354713e-01	 9.450114020948507e-01
1	 9.704414844585151e-01	 7.878726579962206e-01	-5.414611378659393e-01
1	 9.539535513453988e-01	 8.077577742428446e-01	-2.037022400080267e+00
1	 9.370435829877606e-01	 8.273145251682116e-01	-3.539480927831288e+00
1	 9.197215045943361e-01	 8.465295942603415e-01	-5.046615577028943e+00
1	 9.019977971594892e-01	 8.653900703675113e-01	-6.556182843139213e+00
1	 8.838834764750000e-01	 8.838834764750000e-01	-8.065924332853156e+00
1	 8.396893026750000e-01	 8.396893026750000e-01	-6.280541178999174e+00
1	 8.221205668737418e-01	 8.568979073238983e-01	-7.898359495938026e+00
1	 8.042031145719988e-01	 8.737354293854029e-01	-9.522749412674424e+00
1	 7.859487989337567e-01	 8.901914038573251e-01	-1.115174050203579e+01
1	 7.673698855531540e-01	 9.062558737950197e-01	-1.278332735342335e+01
1	 7.484790251165745e-01	 9.219194102501905e-01	-1.441547607615883e+01
1	 7.292892249357970e-01	 9.371731304409896e-01	-1.604613095791896e+01
1	 7.098138194856376e-01	 9.520087140812531e-01	-1.767322123727979e+01
1	 6.900664400845541e-01	 9.664184178081808e-01	-1.929466794859238e+01
1	 6.700609838606034e-01	 9.803950876596081e-01	-2.090839079703158e+01
1	 6.498115821479389e-01	 9.939321695640974e-01	-2.251231502168043e+01
1	 8.441087200595001e-01	 8.441087200595001e-01	-6.463465359650571e+00
1	 8.264475172275958e-01	 8.614078963119115e-01	-8.082308536754997e+00
1	 8.084357625452414e-01	 8.783340369106125e-01	-9.709008246834195e+00
1	 7.900853715614956e-01	 8.948766217744553e-01	-1.134166241071387e+01
1	 7.714086744262557e-01	 9.110256415538234e-01	-1.297832852564395e+01
1	 7.524183884084661e-01	 9.267716176743768e-01	-1.461702991411334e+01
1	 7.331275892794401e-01	 9.421056206027846e-01	-1.625576215939108e+01
1	 7.135496816954408e-01	 9.570192862619037e-01	-1.789249968812878e+01
1	 6.936983687187067e-01	 9.715048305343934e-01	-1.952520245927779e+01
1	 6.735876206200737e-01	 9.855550618056563e-01	-2.115182271789283e+01
1	 6.532316431091376e-01	 9.991633915091431e-01	-2.277031177212893e+01
1	 8.485281374429998e-01	 8.485281374429998e-01	-6.645374293711596e+00
1	 8.307744675804549e-01	 8.659178852989347e-01	-8.265562319195265e+00
1	 8.126684105175038e-01	 8.829326444348630e-01	-9.894878702746562e+00
1	 7.942219441882802e-01	 8.995618396906773e-01	-1.153148913422692e+01
1	 7.754474632984396e-01	 9.157954093117905e-01	-1.317351347608035e+01
1	 7.563577516994852e-01	 9.316238250978179e-01	-1.481903175943654e+01
1	 7.369659536222667e-01	 9.470381107639463e-01	-1.646609039838793e+01
1	 7.172855439044931e-01	 9.620298584420520e-01	-1.811270858407916e+01
1	 6.973302973521838e-01	 9.765912432602546e-01	-1.975688481888612e+01
1	 6.771142573789543e-01	 9.907150359515251e-01	-2.139660354998373e+01
1	 6.566517040698420e-01	 1.004394613454200e+00	-2.302984186104396e+01
1	 8.529475548255000e-01	 8.529475548255000e-01	-6.826283762217717e+00
1	 8.351014179323191e-01	 8.704278742849684e-01	-8.448131650384212e+00
1	 8.169010584887871e-01	 8.875312519581540e-01	-1.008036681737935e+01
1	 7.983585168141113e-01	 9.042470576059914e-01	-1.172122215213741e+01
1	 7.794862521697046e-01	 9.205651770689203e-01	-1.336887934807662e+01
1	 7.602971149896314e-01	 9.364760325205137e-01	-1.502147464828385e+01
1	 7.408043179642763e-01	 9.519706009244739e-01	-1.667710484012955e+01
1	 7.210214061127939e-01	 9.670404306216985e-01	-1.833383346225375e+01
1	 7.009622259849856e-01	 9.816776559857655e-01	-1.998969718520601e+01
1	 6.806408941372446e-01	 9.958750100972134e-01	-2.164271232577181e+01
1	 6.600717650300515e-01	 1.009625835399267e+00	-2.329088145414829e+01
1	 8.573669722070002e-01	 8.573669722070002e-01	-7.006209220822345e+00
1	 8.394283682831882e-01	 8.749378632700121e-01	-8.630027114620024e+00
1	 8.211337064590907e-01	 8.921298594804862e-01	-1.026547850322729e+01
1	 8.024950894389877e-01	 9.089322755203972e-01	-1.191086291350152e+01
1	 7.835250410400514e-01	 9.253349448252136e-01	-1.356442334387730e+01
1	 7.642364782789050e-01	 9.413282399424643e-01	-1.522435176039470e+01
1	 7.446426823054690e-01	 9.569030910843680e-01	-1.688879487323370e+01
1	 7.247572683203440e-01	 9.720510028008429e-01	-1.855586015797896e+01
1	 7.045941546171119e-01	 9.867640687109256e-01	-2.022362208390701e+01
1	 6.841675308949453e-01	 1.001034984242722e+00	-2.189012851004464e+01
1	 6.634918259897663e-01	 1.014857057344345e+00	-2.355340720859277e+01
1	 8.617863895875000e-01	 8.617863895875000e-01	-7.185165808139549e+00
1	 8.437553186330626e-01	 8.794478522540661e-01	-8.811259079086852e+00
1	 8.253663544284148e-01	 8.967284670018589e-01	-1.045021955150248e+01
1	 8.066316620629101e-01	 9.136174934338948e-01	-1.210041283765101e+01
1	 7.875638299094797e-01	 9.301047125806697e-01	-1.376014272311638e+01
1	 7.681758415673059e-01	 9.461804473636691e-01	-1.542765641541142e+01
1	 7.484810466458448e-01	 9.618355812436283e-01	-1.710115010398719e+01
1	 7.284931305271432e-01	 9.770615749794852e-01	-1.877877479713861e+01
1	 7.082260832485632e-01	 9.918504814357350e-01	-2.045864239910566e+01
1	 6.876941676520559e-01	 1.006194958388051e+00	-2.213883198882530e+01
1	 6.669118869489865e-01	 1.020088279289433e+00	-2.381739626035550e+01
1	 8.662058069670001e-01	 8.662058069670000e-01	-7.363168353832399e+00
1	 8.480822689819422e-01	 8.839578412371304e-01	-8.991837699393736e+00
1	 8.295990023967594e-01	 9.013270745222729e-01	-1.063459563522950e+01
1	 8.107682346858788e-01	 9.183027113464843e-01	-1.228987331495200e+01
1	 7.916026187779897e-01	 9.348744803352894e-01	-1.395603480135379e+01
1	 7.721152048548343e-01	 9.510326547841291e-01	-1.563138206931056e+01
1	 7.523194109854038e-01	 9.667680714022550e-01	-1.731416035079352e+01
1	 7.322289927331912e-01	 9.820721471576254e-01	-1.900256378876198e+01
1	 7.118580118793392e-01	 9.969368941601936e-01	-2.069474136422295e+01
1	 6.912208044085769e-01	 1.011354932533201e+00	-2.238880305862581e+01
1	 6.703319479077121e-01	 1.025319501234533e+00	-2.408282621202808e+01
1	 8.706252243454998e-01	 8.706252243454998e-01	-7.540231386453669e+00
1	 8.524092193298268e-01	 8.884678302192049e-01	-9.171772924944630e+00
1	 8.338316503641243e-01	 9.059256820417273e-01	-1.081861231224451e+01
1	 8.149048073078931e-01	 9.229879292581655e-01	-1.247924570753951e+01
1	 7.956414076455811e-01	 9.396442480890721e-01	-1.415209694865593e+01
1	 7.760545681414899e-01	 9.558848622038436e-01	-1.583552231094169e+01
1	 7.561577753241461e-01	 9.717005615602481e-01	-1.752781563878915e+01
1	 7.359648549384878e-01	 9.870827193352631e-01	-1.922721381783702e+01
1	 7.154899405094394e-01	 1.002023306884302e+00	-2.093190255311790e+01
1	 6.947474411645078e-01	 1.016514906678170e+00	-2.264002241602916e+01
1	 6.737520088659427e-01	 1.030550723179642e+00	-2.434967512097140e+01
1	 8.750446417229999e-01	 8.750446417229999e-01	-7.716369141050466e+00
1	 8.567361696767164e-01	 8.929778192002895e-01	-9.351074504145188e+00
1	 8.380642983305094e-01	 9.105242895602227e-01	-1.100227502810414e+01
1	 8.190413799289534e-01	 9.276731471689387e-01	-1.266853135003055e+01
1	 7.996801965122540e-01	 9.444140158420177e-01	-1.434832658821931e+01
1	 7.799939314272731e-01	 9.607370696228128e-01	-1.604007085867282e+01
1	 7.599961396620715e-01	 9.766330517176075e-01	-1.774210619462315e+01
1	 7.397007171430338e-01	 9.920932915123990e-01	-1.945271183834144e+01
1	 7.191218691388643e-01	 1.007109719608059e+00	-2.117010987149041e+01
1	 6.982740779198489e-01	 1.021674880822960e+00	-2.289247114758616e+01
1	 6.771720698236789e-01	 1.035781945124762e+00	-2.461792148783189e+01
1	 8.794640590995000e-01	 8.794640590995000e-01	-7.891595566538014e+00
1	 8.610631200226112e-01	 8.974878081803844e-01	-9.529751989453345e+00
1	 8.422969462959152e-01	 9.151228970777590e-01	-1.118558911890655e+01
1	 8.231779525490597e-01	 9.323583650788039e-01	-1.285773155021645e+01
1	 8.037189853780086e-01	 9.491837835941267e-01	-1.454472119503514e+01
1	 7.839332947121833e-01	 9.655892770410365e-01	-1.624502155713590e+01
1	 7.638345039991801e-01	 9.815655418743330e-01	-1.795702244139330e+01
1	 7.434365793468286e-01	 9.971038636890330e-01	-1.967904506648503e+01
1	 7.227537977676141e-01	 1.012196132331465e+00	-2.140934754854440e+01
1	 7.018007146746001e-01	 1.026834854967570e+00	-2.314613072001788e+01
1	 6.805921307809202e-01	 1.041013167069893e+00	-2.488754424540382e+01
1	 8.838834764750000e-01	 8.838834764750000e-01	-8.065924332853156e+00
1	 8.653900703675113e-01	 9.019977971594896e-01	-9.707814742277865e+00
1	 8.465295942603415e-01	 9.197215045943362e-01	-1.136855981402815e+01
1	 8.273145251682117e-01	 9.370435829877607e-01	-1.304684758973180e+01
1	 8.077577742428449e-01	 9.539535513453986e-01	-1.474127829459500e+01
1	 7.878726579962209e-01	 9.704414844585149e-01	-1.645036837407055e+01
1	 7.676728683354718e-01	 9.864980320304252e-01	-1.817255499373579e+01
1	 7.471724415498724e-01	 1.002114435865165e+00	-1.990620097415340e+01
1	 7.263857263956882e-01	 1.017282545054521e+00	-2.164960012889919e+01
1	 7.053273514287616e-01	 1.031994829112000e+00	-2.340098297071044e+01
1	 6.840121917376669e-01	 1.046244389015035e+00	-2.515852274782582e+01
1	 6.498115821479389e-01	 9.939321695640974e-01	-2.251231502168043e+01
1	 6.293325684616292e-01	 1.007023717819563e+00	-2.403563524002038e+01
1	 6.086384461952835e-01	 1.019664401547349e+00	-2.552442941594763e+01
1	 5.877438561902473e-01	 1.031849509122004e+00	-2.697643248198036e+01
1	 5.666635443231889e-01	 1.043574950589053e+00	-2.838948857111705e+01
1	 5.454123292515077e-01	 1.054837258093266e+00	-2.976155677610424e+01
1	 5.240050704560129e-01	 1.065633584352145e+00	-3.109071627881068e+01
1	 5.024566367146301e-01	 1.075961699219711e+00	-3.237517083230435e+01
1	 4.807818751352936e-01	 1.085819984395729e+00	-3.361325258360508e+01
1	 4.589955808697626e-01	 1.095207426344859e+00	-3.480342523044435e+01
1	 4.371124676229823e-01	 1.104123607498825e+00	-3.594428651059950e+01
1	 6.532316431091376e-01	 9.991633915091431e-01	-2.277031177212893e+01
1	 6.326448451404717e-01	 1.012323842649639e+00	-2.430739455552348e+01
1	 6.118418064412861e-01	 1.025031056291269e+00	-2.581106123072871e+01
1	 5.908372449099867e-01	 1.037280296010556e+00	-2.727907061686612e+01
1	 5.696459840331194e-01	 1.049067450326945e+00	-2.870928645810783e+01
1	 5.482829204610178e-01	 1.060389033133340e+00	-3.009968315118455e+01
1	 5.267629918822854e-01	 1.071242182161545e+00	-3.144835086601782e+01
1	 5.051011453315745e-01	 1.081624655527969e+00	-3.275350004163287e+01
1	 4.833123060594934e-01	 1.091534826415010e+00	-3.401346524473956e+01
1	 4.614113470870215e-01	 1.100971675952930e+00	-3.522670838353898e+01
1	 4.394130595596578e-01	 1.109934784375726e+00	-3.639182127441946e+01
1	 6.566517040698420e-01	 1.004394613454200e+00	-2.302984186104396e+01
1	 6.359571218189091e-01	 1.017623967479915e+00	-2.458090512895117e+01
1	 6.150451666869523e-01	 1.030397711035560e+00	-2.609965125128812e+01
1	 5.939306336294382e-01	 1.042711082899626e+00	-2.758386262486220e+01
1	 5.726284237427900e-01	 1.054559950065485e+00	-2.903142232806187e+01
1	 5.511535116702759e-01	 1.065940808174170e+00	-3.044031981708441e+01
1	 5.295209133082934e-01	 1.076850779971789e+00	-3.180865603813729e+01
1	 5.077456539482222e-01	 1.087287611837140e+00	-3.313464793734913e+01
1	 4.858427369833444e-01	 1.097249668435252e+00	-3.441663235517527e+01
1	 4.638271133038607e-01	 1.106735925561991e+00	-3.565306929710172e+01
1	 4.417136514958230e-01	 1.115745961253627e+00	-3.684254457740195e+01
1	 6.600717650300515e-01	 1.009625835399267e+00	-2.329088145414829e+01
1	 6.392693984969413e-01	 1.022924092310392e+00	-2.485613973867643e+01
1	 6.182485269322829e-01	 1.035764365780220e+00	-2.639016903919201e+01
1	 5.970240223486021e-01	 1.048141869789214e+00	-2.789077502607296e+01
1	 5.756108634522011e-01	 1.060052449804673e+00	-2.935585983927250e+01
1	 5.540241028792821e-01	 1.071492583215757e+00	-3.078342775373602e+01
1	 5.322788347340374e-01	 1.082459377782877e+00	-3.217159028348318e+01
1	 5.103901625645734e-01	 1.092950568147224e+00	-3.351857070567129e+01
1	 4.883731679068472e-01	 1.102964510456456e+00	-3.482270799082554e+01
1	 4.662428795202800e-01	 1.112500175172043e+00	-3.608246013029190e+01
1	 4.440142434314778e-01	 1.121557138132527e+00	-3.729640685675721e+01
1	 6.634918259897663e-01	 1.014857057344345e+00	-2.355340720859277e+01
1	 6.425816751745685e-01	 1.028224217141069e+00	-2.513307172434308e+01
1	 6.214518871772772e-01	 1.041131020525250e+00	-2.668258478360364e+01
1	 6.001174110674784e-01	 1.053572656679322e+00	-2.819977503091057e+01
1	 5.785933031613523e-01	 1.065544949544507e+00	-2.968256339934678e+01
1	 5.568946940880363e-01	 1.077044358258099e+00	-3.112896874560934e+01
1	 5.350367561595167e-01	 1.088067975594809e+00	-3.253711294628029e+01
1	 5.130346711806280e-01	 1.098613524458221e+00	-3.390522543619410e+01
1	 4.909035988300013e-01	 1.108679352478621e+00	-3.523164717449248e+01
1	 4.686586457362795e-01	 1.118264424783085e+00	-3.651483402867744e+01
1	 4.463148353666224e-01	 1.127368315012427e+00	-3.775335957160846e+01
1	 6.669118869489865e-01	 1.020088279289433e+00	-2.381739626035550e+01
1	 6.458939518517908e-01	 1.033524341971946e+00	-2.541167497247325e+01
1	 6.246552474219352e-01	 1.046497675270649e+00	-2.697686928519025e+01
1	 6.032107997860670e-01	 1.059003443569948e+00	-2.851083052239395e+01
1	 5.815757428702442e-01	 1.071037449284989e+00	-3.001149814599159e+01
1	 5.597652852965385e-01	 1.082596133301196e+00	-3.147690536108208e+01
1	 5.377946775847320e-01	 1.093676573407586e+00	-3.290518420471846e+01
1	 5.156791797963862e-01	 1.104276480770130e+00	-3.429457009872602e+01
1	 4.934340297528071e-01	 1.114394194501747e+00	-3.564340585158658e+01
1	 4.710744119518592e-01	 1.124028674395118e+00	-3.695014509894333e+01
1	 4.486154273012568e-01	 1.133179491893328e+00	-3.821335517678944e+01
1	 6.703319479077121e-01	 1.025319501234533e+00	-2.408282621202808e+01
1	 6.492062285286079e-01	 1.038824466803024e+00	-2.569192390251822e+01
1	 6.278586076662573e-01	 1.051864330016418e+00	-2.727299394052364e+01
1	 6.063041885043678e-01	 1.064434230461093e+00	-2.882391003899046e+01
1	 5.845581825788760e-01	 1.076529949026119e+00	-3.034262992838919e+01
1	 5.626358765047886e-01	 1.088147908345050e+00	-3.182720093244334e+01
1	 5.405525990096829e-01	 1.099285171221207e+00	-3.327576504967678e+01
1	 5.183236884118476e-01	 1.109939437082952e+00	-3.468656352083463e+01
1	 4.959644606752645e-01	 1.120109036525835e+00	-3.605794086659174e+01
1	 4.734901781670192e-01	 1.129792924008140e+00	-3.738834838437219e+01
1	 4.509160192353808e-01	 1.138990668775229e+00	-3.867634709744306e+01
1	 6.737520088659427e-01	 1.030550723179642e+00	-2.434967512097140e+01
1	 6.525185052050199e-01	 1.044124591634303e+00	-2.597379345333024e+01
1	 6.310619679102433e-01	 1.057230984762557e+00	-2.757093072695638e+01
1	 6.093975772223811e-01	 1.069865017352757e+00	-2.913898275798035e+01
1	 5.875406222872481e-01	 1.082022448767896e+00	-3.067592528913998e+01
1	 5.655064677127868e-01	 1.093699683389660e+00	-3.217981953650353e+01
1	 5.433105204343693e-01	 1.104893769035673e+00	-3.364881726409835e+01
1	 5.209681970270125e-01	 1.115602393396687e+00	-3.508116536607533e+01
1	 4.984948915973730e-01	 1.125823878550884e+00	-3.647520994024678e+01
1	 4.759059443817594e-01	 1.135557173622153e+00	-3.782939984107384e+01
1	 4.532166111689946e-01	 1.144801845658129e+00	-3.914228970439483e+01
1	 6.771720698236789e-01	 1.035781945124762e+00	-2.461792148783189e+01
1	 6.558307818810269e-01	 1.049424716465781e+00	-2.625725907004833e+01
1	 6.342653281538930e-01	 1.062597639509066e+00	-2.787065218795471e+01
1	 6.124909659401068e-01	 1.075295804244940e+00	-2.945601847932521e+01
1	 5.905230619953610e-01	 1.087514948510320e+00	-3.101135144675077e+01
1	 5.683770589205333e-01	 1.099251458435025e+00	-3.253472597579462e+01
1	 5.460684418587918e-01	 1.110502366850982e+00	-3.402430340298773e+01
1	 5.236127056418808e-01	 1.121265349711334e+00	-3.547833611288181e+01
1	 5.010253225191333e-01	 1.131538720576894e+00	-3.689517164741548e+01
1	 4.783217105960796e-01	 1.141321423237157e+00	-3.827325631493353e+01
1	 4.555172031020980e-01	 1.150613022542030e+00	-3.961113829027148e+01
1	 6.805921307809202e-01	 1.041013167069893e+00	-2.488754424540382e+01
1	 6.591430585566289e-01	 1.054724841297460e+00	-2.654229669137566e+01
1	 6.374686883972068e-01	 1.067964294255944e+00	-2.817213141887526e+01
1	 6.155843546575445e-01	 1.080726591137641e+00	-2.977498761002200e+01
1	 5.935055017032137e-01	 1.093007448253392e+00	-3.134887627865297e+01
1	 5.712476501280276e-01	 1.104803233481147e+00	-3.289188576033490e+01
1	 5.488263632829495e-01	 1.116110964667136e+00	-3.440218677401228e+01
1	 5.262572142564526e-01	 1.126928306026894e+00	-3.587803703409054e+01
1	 5.035557534405452e-01	 1.137253562603866e+00	-3.731778539562904e+01
1	 4.807374768099801e-01	 1.147085672853151e+00	-3.871987551925525e+01
1	 4.578177950346912e-01	 1.156424199426930e+00	-4.008284904634030e+01
1	 6.840121917376669e-01	 1.046244389015035e+00	-2.515852274782582e+01
1	 6.624553352318256e-01	 1.060024966129339e+00	-2.682888273724190e+01
1	 6.406720486401845e-01	 1.073330949003192e+00	-2.847534205316709e+01
1	 6.186777433746947e-01	 1.086157378030861e+00	-3.009586114892874e+01
1	 5.964879414108071e-01	 1.098499947997111e+00	-3.168846830472978e+01
1	 5.741182413352699e-01	 1.110355008528024e+00	-3.325126508994241e+01
1	 5.515842847068431e-01	 1.121719562484134e+00	-3.478243141868700e+01
1	 5.289017228707278e-01	 1.132591262343367e+00	-3.628023017708180e+01
1	 5.060861843616085e-01	 1.142968404631799e+00	-3.774301140426707e+01
1	 4.831532430234608e-01	 1.152849922470135e+00	-3.916921601307743e+01
1	 4.601183869667742e-01	 1.162235376312831e+00	-4.055737904004363e+01
1	 4.371124676229823e-01	 1.104123607498825e+00	-3.594428651059950e+01
1	 4.151471390639290e-01	 1.112568695822117e+00	-3.687818376823301e+01
1	 3.931140612393640e-01	 1.120543432830269e+00	-3.773428482670362e+01
1	 3.710275360783331e-01	 1.128049120153915e+00	-3.851084616932285e+01
1	 3.489016760664020e-01	 1.135087604746951e+00	-3.920640627901122e+01
1	 3.267503801639197e-01	 1.141661262843413e+00	-3.981978287140987e+01
1	 3.045873110293177e-01	 1.147772982769477e+00	-4.035006888718906e+01
1	 2.824258735998907e-01	 1.153426146719838e+00	-4.079662731571830e+01
1	 2.602791950729829e-01	 1.158624611609314e+00	-4.115908492798208e+01
1	 2.381601063211092e-01	 1.163372689111265e+00	-4.143732500134693e+01
1	 2.160811247653200e-01	 1.167675124994303e+00	-4.163147912249033e+01
1	 4.394130595596578e-01	 1.109934784375726e+00	-3.639182127441946e+01
1	 4.173321240078633e-01	 1.118424320531960e+00	-3.734413107997142e+01
1	 3.951830826155557e-01	 1.126441029839928e+00	-3.821812461977264e+01
1	 3.729803125850909e-01	 1.133986220780951e+00	-3.901203247531222e+01
1	 3.507380006782733e-01	 1.141061750029733e+00	-3.972437046315997e+01
1	 3.284701190078735e-01	 1.147670006326803e+00	-4.035393683212173e+01
1	 3.061904021410511e-01	 1.153813893200052e+00	-4.089980820496626e+01
1	 2.839123255674006e-01	 1.159496810645199e+00	-4.136133433782958e+01
1	 2.616490855747774e-01	 1.164722635876612e+00	-4.173813177619716e+01
1	 2.394135805666031e-01	 1.169495703260665e+00	-4.203007649111319e+01
1	 2.172183938450901e-01	 1.173820783543699e+00	-4.223729558303374e+01
1	 4.417136514958230e-01	 1.115745961253627e+00	-3.684254457740195e+01
1	 4.195171089511924e-01	 1.124279945242797e+00	-3.781321639266185e+01
1	 3.972521039910581e-01	 1.132338626850566e+00	-3.870505754317561e+01
1	 3.749330890910854e-01	 1.139923321408939e+00	-3.951627271380386e+01
1	 3.525743252893177e-01	 1.147035895313430e+00	-4.024535504624013e+01
1	 3.301898578509472e-01	 1.153678749811061e+00	-4.089108330060106e+01
1	 3.077934932518606e-01	 1.159854803631439e+00	-4.145251774700430e+01
1	 2.853987775339532e-01	 1.165567474571304e+00	-4.192899486119344e+01
1	 2.630189760755907e-01	 1.170820660144577e+00	-4.232012090409742e+01
1	 2.406670548111017e-01	 1.175618717410646e+00	-4.262576447004097e+01
1	 2.183556629238602e-01	 1.179966442093580e+00	-4.284604809209895e+01
1	 4.440142434314778e-01	 1.121557138132527e+00	-3.729640685675721e+01
1	 4.217020938939168e-01	 1.130135569954629e+00	-3.828539092908213e+01
1	 3.993211253658713e-01	 1.138236223862182e+00	-3.919503551716173e+01
1	 3.768858655963168e-01	 1.145860422037879e+00	-4.002351941433950e+01
1	 3.544106498995352e-01	 1.153010040598041e+00	-4.076931307904147e+01
1	 3.319095966931405e-01	 1.159687493296186e+00	-4.143117576117821e+01
1	 3.093965843617464e-01	 1.165895714063635e+00	-4.200815134401057e+01
1	 2.868852294995484e-01	 1.171638138498153e+00	-4.249956297646052e+01
1	 2.643888665754230e-01	 1.176918684413208e+00	-4.290500657676306e+01
1	 2.419205290546050e-01	 1.181741731561207e+00	-4.322434329321864e+01
1	 2.194929320016303e-01	 1.186112100643947e+00	-4.345769101162408e+01
1	 4.463148353666224e-01	 1.127368315012427e+00	-3.775335957160846e+01
1	 4.238870788360359e-01	 1.135991194667456e+00	-3.876060691772713e+01
1	 4.013901467399953e-01	 1.144133820874777e+00	-3.968801145331470e+01
1	 3.788386421007849e-01	 1.151797522667771e+00	-4.053372608523399e+01
1	 3.562469745089259e-01	 1.158984185883568e+00	-4.129619858037805e+01
1	 3.336293355344535e-01	 1.165696236782179e+00	-4.197416865727052e+01
1	 3.109996754707084e-01	 1.171936624496642e+00	-4.256666377863612e+01
1	 2.883716814641861e-01	 1.177708802425745e+00	-4.307299372086563e+01
1	 2.657587570742740e-01	 1.183016708682507e+00	-4.349274400226102e+01
1	 2.431740032971129e-01	 1.187864745712349e+00	-4.382576825686636e+01
1	 2.206302010784005e-01	 1.192257759194798e+00	-4.407217964453775e+01
1	 4.486154273012568e-01	 1.133179491893328e+00	-3.821335517678944e+01
1	 4.260720637775501e-01	 1.141846819381277e+00	-3.923881756701852e+01
1	 4.034591681134298e-01	 1.150031417888351e+00	-4.018393922913577e+01
1	 3.807914186044901e-01	 1.157734623298615e+00	-4.104684718847719e+01
1	 3.580832991174899e-01	 1.164958331170010e+00	-4.182596651226824e+01
1	 3.353490743748860e-01	 1.171704980269041e+00	-4.252001736678906e+01
1	 3.126027665787466e-01	 1.177977534930460e+00	-4.312801076106801e+01
1	 2.898581334278665e-01	 1.183779466354080e+00	-4.364924305395703e+01
1	 2.671286475721439e-01	 1.189114732952472e+00	-4.408328930746805e+01
1	 2.444274775386255e-01	 1.193987759864072e+00	-4.442999557420460e+01
1	 2.217674701541706e-01	 1.198403417746136e+00	-4.468947021063139e+01
1	 4.509160192353808e-01	 1.138990668775229e+00	-3.867634709744306e+01
1	 4.282570487184594e-01	 1.147702444096093e+00	-3.971997704030927e+01
1	 4.055281894861753e-01	 1.155929014902903e+00	-4.068277366340036e+01
1	 3.827441951074318e-01	 1.163671723930411e+00	-4.156283811540565e+01
1	 3.599196237252269e-01	 1.170932476457367e+00	-4.235857275587259e+01
1	 3.370688132144383e-01	 1.177713723756769e+00	-4.306867817829973e+01
1	 3.142058576858610e-01	 1.184018445365089e+00	-4.369214890536633e+01
1	 2.913445853905896e-01	 1.189850130283160e+00	-4.422826783406799e+01
1	 2.684985380690326e-01	 1.195212757223103e+00	-4.467659951462996e+01
1	 2.456809517791429e-01	 1.200110774016376e+00	-4.503698235206227e+01
1	 2.229047392289407e-01	 1.204549076297958e+00	-4.530951982317058e+01
1	 4.532166111689946e-01	 1.144801845658129e+00	-3.914228970439483e+01
1	 4.304420336587637e-01	 1.153558068811903e+00	-4.020404043164528e+01
1	 4.075972108582314e-01	 1.161826611918434e+00	-4.118447049226937e+01
1	 3.846969716096106e-01	 1.169608824563158e+00	-4.208165516311687e+01
1	 3.617559483321371e-01	 1.176906621745638e+00	-4.289397408816580e+01
1	 3.387885520531103e-01	 1.183722467245366e+00	-4.362010826791018e+01
1	 3.158089487920516e-01	 1.190059355800528e+00	-4.425903570652383e+01
1	 2.928310373523552e-01	 1.195920794212983e+00	-4.481002579550413e+01
1	 2.698684285649402e-01	 1.201310781494402e+00	-4.527263251863804e+01
1	 2.469344260186649e-01	 1.206233788169260e+00	-4.564668656819457e+01
1	 2.240420083027108e-01	 1.210694734850266e+00	-4.593228646621741e+01
1	 4.555172031020980e-01	 1.150613022542030e+00	-3.961113829027148e+01
1	 4.326270185984629e-01	 1.159413693528708e+00	-4.069096374226326e+01
1	 4.096662322295982e-01	 1.167724208934942e+00	-4.168898634612332e+01
1	 3.866497481110260e-01	 1.175545925196858e+00	-4.260325551159336e+01
1	 3.635922729382206e-01	 1.182880767034825e+00	-4.343212815931462e+01
1	 3.405082908909018e-01	 1.189731210734830e+00	-4.417426567685702e+01
1	 3.174120398973183e-01	 1.196100266236777e+00	-4.482862951822107e+01
1	 2.943174893131635e-01	 1.201991458143549e+00	-4.539447552642352e+01
1	 2.712383190598666e-01	 1.207408805766367e+00	-4.587134706499111e+01
1	 2.481879002571916e-01	 1.212356802322725e+00	-4.625906704929208e+01
1	 2.251792773754809e-01	 1.216840393403059e+00	-4.655772897264012e+01
1	 4.578177950346912e-01	 1.156424199426930e+00	-4.008284904634030e+01
1	 4.348120035375572e-01	 1.165269318246508e+00	-4.118070385779708e+01
1	 4.117352536002757e-01	 1.173621805952430e+00	-4.219627872709265e+01
1	 3.886025246116783e-01	 1.181483025831510e+00	-4.312759720152326e+01
1	 3.654285975434771e-01	 1.188854912324926e+00	-4.397299347073919e+01
1	 3.422280297278130e-01	 1.195739954225163e+00	-4.473110928976961e+01
1	 3.190151310016611e-01	 1.202141176673837e+00	-4.540088953125016e+01
1	 2.958039412730145e-01	 1.208062122074858e+00	-4.598157644738352e+01
1	 2.726082095538118e-01	 1.213506830039000e+00	-4.647270272842493e+01
1	 2.494413744947230e-01	 1.218479816476770e+00	-4.687408344964891e+01
1	 2.263165464472511e-01	 1.222986051956338e+00	-4.718580700278841e+01
1	 4.601183869667742e-01	 1.162235376312831e+00	-4.055737904004363e+01
1	 4.369969884760465e-01	 1.171124942965302e+00	-4.167321852616837e+01
1	 4.138042749702640e-01	 1.179519402970896e+00	-4.270630598726605e+01
1	 3.905553011115675e-01	 1.187420126467113e+00	-4.365463911277963e+01
1	 3.672649221479067e-01	 1.194829057615943e+00	-4.451652935383088e+01
1	 3.439477685638439e-01	 1.201748697716363e+00	-4.529059881358375e+01
1	 3.206182221050803e-01	 1.208182087111708e+00	-4.597577575258721e+01
1	 2.972903932319080e-01	 1.214132786006911e+00	-4.657128879052971e+01
1	 2.739781000467759e-01	 1.219604854312299e+00	-4.707665989218008e+01
1	 2.506948487312590e-01	 1.224602830631397e+00	-4.749169623047414e+01
1	 2.274538155180212e-01	 1.229131710510101e+00	-4.781648102380337e+01
1	 2.160811247653200e-01	 1.167675124994303e+00	-4.163147912249033e+01
1	 1.940544387226203e-01	 1.171537077868094e+00	-4.175060016507571e+01
1	 1.720918932328057e-01	 1.174964097446825e+00	-4.177660614841591e+01
1	 1.502049773640088e-01	 1.177962102437431e+00	-4.171076994987453e+01
1	 1.284048129885414e-01	 1.180537358156770e+00	-4.155459726199251e+01
1	 1.067021450109435e-01	 1.182696453977716e+00	-4.130981216134400e+01
1	 8.510733302509156e-02	 1.184446280700851e+00	-4.097834233161606e+01
1	 6.363034437045921e-02	 1.185794007943877e+00	-4.056230404384962e+01
1	 4.228074855186133e-02	 1.186747061636128e+00	-4.006398699256152e+01
1	 2.106771298181156e-02	 1.187313101700527e+00	-3.948583908166574e+01
1	 0.000000000000000e+00	 1.187500000000000e+00	-3.883045124880701e+01
1	 2.172183938450901e-01	 1.173820783543699e+00	-4.223729558303374e+01
1	 1.950757778761809e-01	 1.177703062485871e+00	-4.236694457028893e+01
1	 1.729976400418887e-01	 1.181148119010307e+00	-4.239717304283651e+01
1	 1.509955298791278e-01	 1.184161902975033e+00	-4.232929989149277e+01
1	 1.290806277963824e-01	 1.186750712672259e+00	-4.216489709302810e+01
1	 1.072637352503240e-01	 1.188921172155769e+00	-4.190577419019139e+01
1	 8.555526635900967e-02	 1.190680208493520e+00	-4.155396238621142e+01
1	 6.396524092159707e-02	 1.192035029038043e+00	-4.111169836544725e+01
1	 4.250327880871838e-02	 1.192993098802513e+00	-4.058140794734222e+01
1	 2.117859568242933e-02	 1.193562118025237e+00	-3.996568967570379e+01
1	 0.000000000000000e+00	 1.193750000000000e+00	-3.926729843962815e+01
1	 2.183556629238602e-01	 1.179966442093580e+00	-4.284604809209895e+01
1	 1.960971170287521e-01	 1.183869047104040e+00	-4.298584022527167e+01
1	 1.739033868500138e-01	 1.187332140574097e+00	-4.301997276469082e+01
1	 1.517860823933411e-01	 1.190361703512869e+00	-4.294980992526430e+01
1	 1.297564426033901e-01	 1.192964067187918e+00	-4.277698915069273e+01
1	 1.078253254889633e-01	 1.195145890333940e+00	-4.250340451179014e+01
1	 8.600319969229811e-02	 1.196914136286264e+00	-4.213118967974764e+01
1	 6.430013747223554e-02	 1.198276050132250e+00	-4.166270059467389e+01
1	 4.272580906522468e-02	 1.199239135968915e+00	-4.110049794497640e+01
1	 2.128947838286300e-02	 1.199811134349951e+00	-4.044732956765054e+01
1	 0.000000000000000e+00	 1.200000000000000e+00	-3.970611287346501e+01
1	 2.194929320016303e-01	 1.186112100643947e+00	-4.345769101162408e+01
1	 1.971184561803340e-01	 1.190035031722598e+00	-4.360724747329020e+01
1	 1.748091336571812e-01	 1.193516162138193e+00	-4.364497060681627e+01
1	 1.525766349066489e-01	 1.196561504050938e+00	-4.357226927255558e+01
1	 1.304322574095647e-01	 1.199177421703747e+00	-4.339084557654145e+01
1	 1.083869157268616e-01	 1.201370608512229e+00	-4.310267719413021e+01
1	 8.645113302495687e-02	 1.203148064079081e+00	-4.270999922923768e+01
1	 6.463503402237457e-02	 1.204517071226499e+00	-4.221528573814769e+01
1	 4.294833932138025e-02	 1.205485173135336e+00	-4.162123104179254e+01
1	 2.140036108311256e-02	 1.206060150674669e+00	-4.093073094458495e+01
1	 0.000000000000000e+00	 1.206250000000000e+00	-4.014686397140940e+01
1	 2.206302010784005e-01	 1.192257759194798e+00	-4.407217964453775e+01
1	 1.981397953309263e-01	 1.196201016341548e+00	-4.423112747527560e+01
1	 1.757148804633908e-01	 1.199700183702596e+00	-4.427213257766234e+01
1	 1.533671874190511e-01	 1.202761304589240e+00	-4.419664778934253e+01
1	 1.311080722149060e-01	 1.205390776219747e+00	-4.400643908653132e+01
1	 1.089485059640187e-01	 1.207595326690635e+00	-4.370356683988135e+01
1	 8.689906635698587e-02	 1.209381991871974e+00	-4.329036656680719e+01
1	 6.496993057201417e-02	 1.210758092320790e+00	-4.276942931781478e+01
1	 4.317086957718512e-02	 1.211731210301776e+00	-4.214358182904213e+01
1	 2.151124378317803e-02	 1.212309166999392e+00	-4.141586656704852e+01
1	 0.000000000000000e+00	 1.212500000000000e+00	-4.058952178504649e+01
1	 2.217674701541706e-01	 1.198403417746136e+00	-4.468947021063139e+01
1	 1.991611344805295e-01	 1.202367000960888e+00	-4.485744218885778e+01
1	 1.766206272686426e-01	 1.205884205267306e+00	-4.490142538293954e+01
1	 1.541577399305477e-01	 1.208961105127776e+00	-4.482291594994139e+01
1	 1.317838870194141e-01	 1.211604130735917e+00	-4.462374295629165e+01
1	 1.095100962004347e-01	 1.213820044869159e+00	-4.430604857268468e+01
1	 8.734699968838523e-02	 1.215615919664942e+00	-4.387226772648720e+01
1	 6.530482712115437e-02	 1.216999113415123e+00	-4.332510735773511e+01
1	 4.339339983263925e-02	 1.217977247468234e+00	-4.266752541918036e+01
1	 2.162212648305939e-02	 1.218558183324120e+00	-4.190270975434112e+01
1	 0.000000000000000e+00	 1.218750000000000e+00	-4.103405698028760e+01
1	 2.229047392289407e-01	 1.204549076297958e+00	-4.530951982317058e+01
1	 2.001824736291431e-01	 1.208532985580619e+00	-4.548615434804145e+01
1	 1.775263740729367e-01	 1.212068226832323e+00	-4.553281640783561e+01
1	 1.549482924411388e-01	 1.215160905666546e+00	-4.545104483123245e+01
1	 1.324597018230889e-01	 1.217817485252259e+00	-4.524273100684735e+01
1	 1.100716864361096e-01	 1.220044763047800e+00	-4.491009802386218e+01
1	 8.779493301915486e-02	 1.221849847457984e+00	-4.445567923141004e+01
1	 6.563972366979517e-02	 1.223240134509497e+00	-4.388229637127346e+01
1	 4.361593008774263e-02	 1.224223284634710e+00	-4.319303743257250e+01
1	 2.173300918275665e-02	 1.224807199648852e+00	-4.239123437026670e+01
1	 0.000000000000000e+00	 1.225000000000000e+00	-4.148044082169941e+01
1	 2.240420083027108e-01	 1.210694734850266e+00	-4.593228646621741e+01
1	 2.012038127767674e-01	 1.214698970200741e+00	-4.611722744350173e+01
1	 1.784321208762730e-01	 1.218252248397647e+00	-4.616627369976646e+01
1	 1.557388449508243e-01	 1.221360706205549e+00	-4.608100609736844e+01
1	 1.331355166259306e-01	 1.224030839768770e+00	-4.586337759077580e+01
1	 1.106332766710434e-01	 1.226269481226559e+00	-4.551569131953151e+01
1	 8.824286634929480e-02	 1.228083775251101e+00	-4.504057808139600e+01
1	 6.597462021793657e-02	 1.229481155603914e+00	-4.444097334868092e+01
1	 4.383846034249530e-02	 1.230469321801205e+00	-4.372009398460147e+01
1	 2.184389188226982e-02	 1.231056215973589e+00	-4.288141480931343e+01
1	 0.000000000000000e+00	 1.231250000000000e+00	-4.192864515730914e+01
1	 2.251792773754809e-01	 1.216840393403059e+00	-4.655772897264012e+01
1	 2.022251519234024e-01	 1.220864954821254e+00	-4.675062570347502e+01
1	 1.793378676786515e-01	 1.224436269963278e+00	-4.680176595165546e+01
1	 1.565293974596041e-01	 1.227560506744785e+00	-4.671277198494221e+01
1	 1.338113314279390e-01	 1.230244194285452e+00	-4.648565757878459e+01
1	 1.111948669052361e-01	 1.232494199405435e+00	-4.612280506811058e+01
1	 8.869079967880507e-02	 1.234317703044294e+00	-4.562694174091514e+01
1	 6.630951676557850e-02	 1.235722176698371e+00	-4.500111574505134e+01
1	 4.406099059689723e-02	 1.236715358967718e+00	-4.424867167316793e+01
1	 2.195477458159889e-02	 1.237305232298331e+00	-4.337322598325265e+01
1	 0.000000000000000e+00	 1.237500000000000e+00	-4.237864240387069e+01
1	 2.263165464472511e-01	 1.222986051956338e+00	-4.718580700278841e+01
1	 2.032464910690479e-01	 1.227030939442157e+00	-4.738631407522882e+01
1	 1.802436144800723e-01	 1.230620291529215e+00	-4.743926248571392e+01
1	 1.573199499674784e-01	 1.233760307284256e+00	-4.734631528860645e+01
1	 1.344871462291142e-01	 1.236457548802304e+00	-4.710954634669250e+01
1	 1.117564571386876e-01	 1.238718917584429e+00	-4.673141634819991e+01
1	 8.913873300768561e-02	 1.240551630837560e+00	-4.621474812741371e+01
1	 6.664441331272104e-02	 1.241963197792871e+00	-4.556270146864390e+01
1	 4.428352085094844e-02	 1.242961396134250e+00	-4.477874756656641e+01
1	 2.206565728074385e-02	 1.243554248623077e+00	-4.386664330814213e+01
1	 0.000000000000000e+00	 1.243750000000000e+00	-4.283040553257517e+01
1	 2.274538155180212e-01	 1.229131710510101e+00	-4.781648102380337e+01
1	 2.042678302137041e-01	 1.233196924063451e+00	-4.802425820708552e+01
1	 1.811493612805352e-01	 1.236804313095460e+00	-4.807873323770875e+01
1	 1.581105024744471e-01	 1.239960107823959e+00	-4.798160934711968e+01
1	 1.351629610294562e-01	 1.242670903319327e+00	-4.773501976280200e+01
1	 1.123180473713981e-01	 1.244943635763541e+00	-4.734150269682863e+01
1	 8.958666633593650e-02	 1.246785558630901e+00	-4.680397559998815e+01
1	 6.697930985936418e-02	 1.248204218887413e+00	-4.612570886955091e+01
1	 4.450605110464891e-02	 1.249207433300800e+00	-4.531029919172564e+01
1	 2.217653997970472e-02	 1.249803264947827e+00	-4.436164269171768e+01
1	 0.000000000000000e+00	 1.250000000000000e+00	-4.328390805519023e+01
1	 1.250000000000000e+00	 0.000000000000000e+00	 2.054560735942413e+01
1	 1.249803264947827e+00	 2.217653997970400e-02	 2.065989232892691e+01
1	 1.249207433300800e+00	 4.450605110464827e-02	 2.070832345565499e+01
1	 1.248204218887413e+00	 6.697930985936362e-02	 2.068961376761766e+01
1	 1.246785558630901e+00	 8.958666633593600e-02	 2.060260688615602e+01
1	 1.244943635763541e+00	 1.123180473713977e-01	 2.044628664922080e+01
1	 1.242670903319327e+00	 1.351629610294558e-01	 2.021978658627224e+01
1	 1.239960107823959e+00	 1.581105024744469e-01	 1.992239918090386e+01
1	 1.236804313095460e+00	 1.811493612805350e-01	 1.955358485479975e+01
1	 1.233196924063451e+00	 2.042678302137040e-01	 1.911298060458193e+01
1	 1.229131710510101e+00	 2.274538155180212e-01	 1.860040822153979e+01
1	 1.256250000000000e+00	 0.000000000000000e+00	 2.024955155717168e+01
1	 1.256052281272580e+00	 2.228742267866487e-02	 2.035462451470916e+01
1	 1.255453470467359e+00	 4.472858135834873e-02	 2.039720087202815e+01
1	 1.254445239981975e+00	 6.731420640600676e-02	 2.037592781029599e+01
1	 1.253019486424280e+00	 9.003459966418687e-02	 2.028956983667253e+01
1	 1.251168353942711e+00	 1.128796376041081e-01	 2.013701809855662e+01
1	 1.248884257836435e+00	 1.358387758297978e-01	 1.991729959795072e+01
1	 1.246159908363780e+00	 1.589010549814156e-01	 1.962958624645454e+01
1	 1.242988334661858e+00	 1.820551080809980e-01	 1.927320369879046e+01
1	 1.239362908684941e+00	 2.052891693583602e-01	 1.884763990054617e+01
1	 1.235277369064108e+00	 2.285910845887912e-01	 1.835255328404076e+01
1	 1.262500000000000e+00	 0.000000000000000e+00	 1.996170983456835e+01
1	 1.262301297597333e+00	 2.239830537780982e-02	 2.005688028401606e+01
1	 1.261699507633918e+00	 4.495111161239994e-02	 2.009287528979144e+01
1	 1.260686261076537e+00	 6.764910295314928e-02	 2.006827651789722e+01
1	 1.259253414217659e+00	 9.048253299306740e-02	 1.998176978298518e+01
1	 1.257393072121882e+00	 1.134412278375596e-01	 1.983215405597696e+01
1	 1.255097612353543e+00	 1.365145906309730e-01	 1.961835042002135e+01
1	 1.252359708903599e+00	 1.596916074892898e-01	 1.933941091967902e+01
1	 1.249172356228256e+00	 1.829608548824187e-01	 1.899452724550483e+01
1	 1.245528893306431e+00	 2.063105085040057e-01	 1.858303919381440e+01
1	 1.241423027618114e+00	 2.297283536605613e-01	 1.810444283943106e+01
1	 1.268750000000000e+00	 0.000000000000000e+00	 1.968196080128322e+01
1	 1.268550313922086e+00	 2.250918807713888e-02	 1.976654845089230e+01
1	 1.267945544800477e+00	 4.517364186680187e-02	 1.979524626065559e+01
1	 1.266927282171100e+00	 6.798399950079123e-02	 1.976657070818744e+01
1	 1.265487342011038e+00	 9.093046632257763e-02	 1.967912933107270e+01
1	 1.263617790301053e+00	 1.140028180717523e-01	 1.953162943023343e+01
1	 1.261310966870651e+00	 1.371904054329814e-01	 1.932288676957472e+01
1	 1.258559509443420e+00	 1.604821599980697e-01	 1.905183422115514e+01
1	 1.255356377794653e+00	 1.838666016847972e-01	 1.871753030229227e+01
1	 1.251694877927920e+00	 2.073318476506407e-01	 1.831916754846522e+01
1	 1.247568686172121e+00	 2.308656227333315e-01	 1.785608066367612e+01
1	 1.275000000000000e+00	 0.000000000000000e+00	 1.941018544718744e+01
1	 1.274799330246839e+00	 2.262007077665204e-02	 1.948352000949881e+01
1	 1.274191581967037e+00	 4.539617212155452e-02	 1.950421530590544e+01
1	 1.273168303265662e+00	 6.831889604893260e-02	 1.947072294760353e+01
1	 1.271721269804416e+00	 9.137839965271760e-02	 1.938157260444325e+01
1	 1.269842508480223e+00	 1.145644083066860e-01	 1.923538040637644e+01
1	 1.267524321387759e+00	 1.378662202358230e-01	 1.903085738885652e+01
1	 1.264759309983240e+00	 1.612727125077552e-01	 1.876681793576326e+01
1	 1.261540399361052e+00	 1.847723484881335e-01	 1.844218817047570e+01
1	 1.257860862549410e+00	 2.083531867982649e-01	 1.805601424300714e+01
1	 1.253714344726127e+00	 2.320028918071015e-01	 1.760747045870284e+01
1	 1.281250000000000e+00	 0.000000000000000e+00	 1.914626708430063e+01
1	 1.281048346571591e+00	 2.273095347634931e-02	 1.920768808093949e+01
1	 1.280437619133596e+00	 4.561870237665793e-02	 1.921968586836138e+01
1	 1.279409324360224e+00	 6.865379259757337e-02	 1.918064750860314e+01
1	 1.277955197597795e+00	 9.182633298348723e-02	 1.908902520712193e+01
1	 1.276067226659394e+00	 1.151259985423610e-01	 1.894334441462605e+01
1	 1.273737675904867e+00	 1.385420350394979e-01	 1.874221202026367e+01
1	 1.270959110523060e+00	 1.620632650183463e-01	 1.848432459404444e+01
1	 1.267724420927449e+00	 1.856780952924276e-01	 1.816847663330347e+01
1	 1.264026847170899e+00	 2.093745259468787e-01	 1.779356876514841e+01
1	 1.259860003280134e+00	 2.331401608818716e-01	 1.735861585420540e+01
1	 1.287500000000000e+00	 0.000000000000000e+00	 1.889009129042798e+01
1	 1.287297362896344e+00	 2.284183617623067e-02	 1.893894786163622e+01
1	 1.286683656300156e+00	 4.584123263211204e-02	 1.894156326574025e+01
1	 1.285650345454787e+00	 6.898868914671358e-02	 1.889626032825602e+01
1	 1.284189125391174e+00	 9.227426631488660e-02	 1.880141418771564e+01
1	 1.282291944838563e+00	 1.156875887787769e-01	 1.865546010014934e+01
1	 1.279951030421975e+00	 1.392178498440060e-01	 1.845690138206878e+01
1	 1.277158911062880e+00	 1.628538175298428e-01	 1.820431745410205e+01
1	 1.273908442493848e+00	 1.865838420976794e-01	 1.789637194425208e+01
1	 1.270192831792389e+00	 2.103958650964817e-01	 1.753182080671948e+01
1	 1.266005661834140e+00	 2.342774299576418e-01	 1.710952040939855e+01
1	 1.293750000000000e+00	 0.000000000000000e+00	 1.864154585443125e+01
1	 1.293546379221097e+00	 2.295271887629613e-02	 1.867719657320052e+01
1	 1.292929693466715e+00	 4.606376288791689e-02	 1.866975464536797e+01
1	 1.291891366549349e+00	 6.932358569635320e-02	 1.861747896803620e+01
1	 1.290423053184553e+00	 9.272219964691561e-02	 1.851866800451989e+01
1	 1.288516663017734e+00	 1.162491790159341e-01	 1.837166729371399e+01
1	 1.286164384939083e+00	 1.398936646493473e-01	 1.817487714484829e+01
1	 1.283358711602701e+00	 1.636443700422450e-01	 1.792676048402782e+01
1	 1.280092464060246e+00	 1.874895889038891e-01	 1.762585081566803e+01
1	 1.276358816413878e+00	 2.114172042470742e-01	 1.727076025874247e+01
1	 1.272151320388147e+00	 2.354146990344119e-01	 1.686018761471983e+01
1	 1.300000000000000e+00	 0.000000000000000e+00	 1.840052072307831e+01
1	 1.299795395545850e+00	 2.306360157654569e-02	 1.842233341375099e+01
1	 1.299175730633274e+00	 4.628629314407247e-02	 1.840416894019851e+01
1	 1.298132387643911e+00	 6.965848224649224e-02	 1.834422257477381e+01
1	 1.296656980977931e+00	 9.317013297957434e-02	 1.824071649163203e+01
1	 1.294741381196904e+00	 1.168107692538323e-01	 1.809190698318819e+01
1	 1.292377739456191e+00	 1.405694794555218e-01	 1.789609190859059e+01
1	 1.289558512142521e+00	 1.644349225555528e-01	 1.765161834483464e+01
1	 1.286276485626644e+00	 1.883953357110564e-01	 1.735689040773730e+01
1	 1.282524801035368e+00	 2.124385433986560e-01	 1.701037720664298e+01
1	 1.278296978942153e+00	 2.365519681121820e-01	 1.661062089348309e+01
1	 1.306250000000000e+00	 0.000000000000000e+00	 1.816690794941861e+01
1	 1.306044411870603e+00	 2.317448427697935e-02	 1.817425951062861e+01
1	 1.305421767799833e+00	 4.650882340057878e-02	 1.814471682609565e+01
1	 1.304373408738474e+00	 6.999337879713068e-02	 1.807641184272786e+01
1	 1.302890908771310e+00	 9.361806631286276e-02	 1.796749082603744e+01
1	 1.300966099376075e+00	 1.173723594924717e-01	 1.781612128585876e+01
1	 1.298591093973299e+00	 1.412452942625296e-01	 1.762049918046124e+01
1	 1.295758312682341e+00	 1.652254750697662e-01	 1.737885637387968e+01
1	 1.292460507193042e+00	 1.893010825191816e-01	 1.708946831777148e+01
1	 1.288690785656857e+00	 2.134598825512272e-01	 1.675066192559911e+01
1	 1.284442637496160e+00	 2.376892371909521e-01	 1.636082360348412e+01
1	 1.312500000000000e+00	 0.000000000000000e+00	 1.794060164263358e+01
1	 1.312293428195356e+00	 2.328536697759712e-02	 1.793287787446275e+01
1	 1.311667804966393e+00	 4.673135365743582e-02	 1.789131068033499e+01
1	 1.310614429833036e+00	 7.032827534826856e-02	 1.781396897674273e+01
1	 1.309124836564689e+00	 9.406599964678088e-02	 1.769892349563577e+01
1	 1.307190817555246e+00	 1.179339497318521e-01	 1.754425342154037e+01
1	 1.304804448490407e+00	 1.419211090703706e-01	 1.734805335320350e+01
1	 1.301958113222162e+00	 1.660160275848852e-01	 1.710844056876093e+01
1	 1.298644528759440e+00	 1.902068293282645e-01	 1.682356256979995e+01
1	 1.294856770278348e+00	 2.144812217047878e-01	 1.649160487602374e+01
1	 1.290588296050166e+00	 2.388265062707223e-01	 1.611079903856073e+01
1	 1.229131710510101e+00	 2.274538155180212e-01	 1.860040822153979e+01
1	 1.224602830631397e+00	 2.506948487312582e-01	 1.836432491328955e+01
1	 1.219604854312299e+00	 2.739781000467753e-01	 1.807587434860952e+01
1	 1.214132786006912e+00	 2.972903932319075e-01	 1.773616515700203e+01
1	 1.208182087111708e+00	 3.206182221050798e-01	 1.734647035534433e+01
1	 1.201748697716363e+00	 3.439477685638436e-01	 1.690822763211644e+01
1	 1.194829057615943e+00	 3.672649221479065e-01	 1.642303885237739e+01
1	 1.187420126467113e+00	 3.905553011115673e-01	 1.589266875386497e+01
1	 1.179519402970896e+00	 4.138042749702640e-01	 1.531904280953415e+01
1	 1.171124942965302e+00	 4.369969884760465e-01	 1.470424423728777e+01
1	 1.162235376312831e+00	 4.601183869667742e-01	 1.405051014354722e+01
1	 1.235277369064108e+00	 2.285910845887912e-01	 1.835255328404076e+01
1	 1.230725844786311e+00	 2.519483229677920e-01	 1.813757652207103e+01
1	 1.225702878585923e+00	 2.753479905397300e-01	 1.786808349750440e+01
1	 1.220203449939315e+00	 2.987768451907797e-01	 1.754520339398501e+01
1	 1.214222997549946e+00	 3.222213132084609e-01	 1.717023836023080e+01
1	 1.207757441207937e+00	 3.456675073998146e-01	 1.674466397712661e+01
1	 1.200803202907330e+00	 3.691012467522495e-01	 1.627012890810928e+01
1	 1.193357227103075e+00	 3.925080776113381e-01	 1.574845370060444e+01
1	 1.185416999989696e+00	 4.158732963400970e-01	 1.518162871140811e+01
1	 1.176980567684397e+00	 4.391819734143383e-01	 1.457181113457321e+01
1	 1.168046553198987e+00	 4.624189788986123e-01	 1.392132111651586e+01
1	 1.241423027618114e+00	 2.297283536605613e-01	 1.810444283943106e+01
1	 1.236848858941221e+00	 2.532017972053164e-01	 1.791081760747893e+01
1	 1.231800902859527e+00	 2.767178810336470e-01	 1.766054874241822e+01
1	 1.226274113871676e+00	 3.002632971505668e-01	 1.735478589816024e+01
1	 1.220263907988107e+00	 3.238244043126896e-01	 1.699486021810548e+01
1	 1.213766184699391e+00	 3.473872462365465e-01	 1.658228498384158e+01
1	 1.206777348198544e+00	 3.709375713572464e-01	 1.611875540987736e+01
1	 1.199294327738798e+00	 3.944608541116351e-01	 1.560614754957142e+01
1	 1.191314597008185e+00	 4.179423177103084e-01	 1.504651628274168e+01
1	 1.182836192403096e+00	 4.413669583528400e-01	 1.444209236133328e+01
1	 1.173857730084653e+00	 4.647195708304708e-01	 1.379527849594087e+01
1	 1.247568686172121e+00	 2.308656227333315e-01	 1.785608066367612e+01
1	 1.242971873096125e+00	 2.544552714438313e-01	 1.768404832502909e+01
1	 1.237898927133112e+00	 2.780877715285263e-01	 1.745326629867863e+01
1	 1.232344777803994e+00	 3.017497491112686e-01	 1.716490462616789e+01
1	 1.226304818426193e+00	 3.254274954177657e-01	 1.682032331044877e+01
1	 1.219774928190726e+00	 3.491069850740389e-01	 1.642107314494281e+01
1	 1.212751493489585e+00	 3.727738959628968e-01	 1.596889565157962e+01
1	 1.205231428374285e+00	 3.964136306124584e-01	 1.546572209038511e+01
1	 1.197212194026364e+00	 4.200113390808984e-01	 1.491367150871187e+01
1	 1.188691817121400e+00	 4.435519432915518e-01	 1.431504780432094e+01
1	 1.179668906969829e+00	 4.670201627623501e-01	 1.367233578320092e+01
1	 1.253714344726127e+00	 2.320028918071015e-01	 1.760747045870284e+01
1	 1.249094887251026e+00	 2.557087456833370e-01	 1.745726882718812e+01
1	 1.243996951406679e+00	 2.794576620243678e-01	 1.724623245582248e+01
1	 1.238415441736271e+00	 3.032362010728850e-01	 1.697555169236099e+01
1	 1.232345728864202e+00	 3.270305865236896e-01	 1.664661526616300e+01
1	 1.225783671681941e+00	 3.508267239122920e-01	 1.626101129639248e+01
1	 1.218725638780453e+00	 3.746102205692011e-01	 1.582052737233179e+01
1	 1.211168529009536e+00	 3.983664071138083e-01	 1.532714966580933e+01
1	 1.203109791044231e+00	 4.220803604518669e-01	 1.478306104145314e+01
1	 1.194547441839309e+00	 4.457369282304736e-01	 1.419063813682350e+01
1	 1.185480083854516e+00	 4.693207546942498e-01	 1.355244739141251e+01
1	 1.259860003280134e+00	 2.331401608818716e-01	 1.735861585420540e+01
1	 1.255217901405921e+00	 2.569622199238332e-01	 1.723047926344766e+01
1	 1.250094975680227e+00	 2.808275525211718e-01	 1.703944357578597e+01
1	 1.244486105668504e+00	 3.047226530354161e-01	 1.678671936495894e+01
1	 1.238386639302136e+00	 3.286336776304611e-01	 1.647372395553779e+01
1	 1.231792415173036e+00	 3.525464627513059e-01	 1.610208260906085e+01
1	 1.224699784071148e+00	 3.764465451761588e-01	 1.567362874560830e+01
1	 1.217105629644550e+00	 4.003191836156846e-01	 1.519040315826138e+01
1	 1.209007388061788e+00	 4.241493818232139e-01	 1.465465218379003e+01
1	 1.200403066556823e+00	 4.479219131696051e-01	 1.406882479947885e+01
1	 1.191291260738712e+00	 4.716213466261701e-01	 1.343556862319229e+01
1	 1.266005661834140e+00	 2.342774299576418e-01	 1.710952040939855e+01
1	 1.261340915560812e+00	 2.582156941653200e-01	 1.700367978039651e+01
1	 1.256192999953756e+00	 2.821974430189380e-01	 1.683289609114725e+01
1	 1.250556769600694e+00	 3.062091049988621e-01	 1.659840006231273e+01
1	 1.244427549739992e+00	 3.302367687380802e-01	 1.630163748439123e+01
1	 1.237801158664012e+00	 3.542662015910801e-01	 1.594427058059745e+01
1	 1.230673929361669e+00	 3.782828697837702e-01	 1.552817836869971e+01
1	 1.223042730279327e+00	 4.022719601180870e-01	 1.505545597671368e+01
1	 1.214904985079035e+00	 4.262184031949395e-01	 1.452841287344378e+01
1	 1.206258691273942e+00	 4.501068981089469e-01	 1.394956998165050e+01
1	 1.197102437622420e+00	 4.739219385581109e-01	 1.332165564906753e+01
1	 1.272151320388147e+00	 2.354146990344119e-01	 1.686018761471983e+01
1	 1.267463929715698e+00	 2.594691684077975e-01	 1.677687052179091e+01
1	 1.262291024227266e+00	 2.835673335176665e-01	 1.662658650342020e+01
1	 1.256627433532842e+00	 3.076955569632227e-01	 1.641058634927873e+01
1	 1.250468460177773e+00	 3.318398598465470e-01	 1.613034418838049e+01
1	 1.243809902154868e+00	 3.559859404316154e-01	 1.578755902753782e+01
1	 1.236648074652018e+00	 3.801191943920355e-01	 1.538415525247555e+01
1	 1.228979830913867e+00	 4.042247366210158e-01	 1.492228204397489e+01
1	 1.220802582095970e+00	 4.282874245670436e-01	 1.440431166769662e+01
1	 1.212114315990666e+00	 4.522918830484985e-01	 1.383283660334227e+01
1	 1.202913614505637e+00	 4.762225304900724e-01	 1.321066548651184e+01
1	 1.278296978942153e+00	 2.365519681121820e-01	 1.661062089348309e+01
1	 1.273586943870580e+00	 2.607226426512657e-01	 1.655005162862258e+01
1	 1.268389048500758e+00	 2.849372240173575e-01	 1.642051138139727e+01
1	 1.262698097464947e+00	 3.091820089284981e-01	 1.622327093369677e+01
1	 1.256509370615478e+00	 3.334429509558612e-01	 1.595983262747721e+01
1	 1.249818645645604e+00	 3.577056792729111e-01	 1.563193207763801e+01
1	 1.242622219942193e+00	 3.819555190009543e-01	 1.524153881144244e+01
1	 1.234916931548170e+00	 4.061775131244710e-01	 1.479085578433820e+01
1	 1.226700179112595e+00	 4.303564459395262e-01	 1.428231772849851e+01
1	 1.217969940706995e+00	 4.544768679882602e-01	 1.371858829763500e+01
1	 1.208724791388365e+00	 4.785231224220544e-01	 1.310255597958599e+01
1	 1.284442637496160e+00	 2.376892371909521e-01	 1.636082360348412e+01
1	 1.279709958025457e+00	 2.619761168957245e-01	 1.632322323918475e+01
1	 1.274487072774230e+00	 2.863071145180106e-01	 1.621466735954003e+01
1	 1.268768761397010e+00	 3.106684608946882e-01	 1.603644666296959e+01
1	 1.262550281053106e+00	 3.350460420660233e-01	 1.579009158060088e+01
1	 1.255827389136221e+00	 3.594254181149676e-01	 1.547737416242902e+01
1	 1.248596365232195e+00	 3.837918436105267e-01	 1.510030885408779e+01
1	 1.240854032182237e+00	 4.081302896284527e-01	 1.466115211158410e+01
1	 1.232597776128909e+00	 4.324254673123873e-01	 1.416240080800135e+01
1	 1.223825565422929e+00	 4.566618529282319e-01	 1.360678939362710e+01
1	 1.214535968270603e+00	 4.808237143540569e-01	 1.299728577916313e+01
1	 1.290588296050166e+00	 2.388265062707223e-01	 1.611079903856073e+01
1	 1.285832972180329e+00	 2.632295911411738e-01	 1.609638548913657e+01
1	 1.280585097047684e+00	 2.876770050196261e-01	 1.600905113641535e+01
1	 1.274839425329030e+00	 3.121549128617932e-01	 1.585010652073992e+01
1	 1.268591191490658e+00	 3.366491331770328e-01	 1.562111004040585e+01
1	 1.261836132626718e+00	 3.611451569577848e-01	 1.532387000998421e+01
1	 1.254570510522024e+00	 3.856281682207529e-01	 1.496044557349930e+01
1	 1.246791132816067e+00	 4.100830661329606e-01	 1.453314641732576e+01
1	 1.238495373144913e+00	 4.344944886856272e-01	 1.404453123450663e+01
1	 1.229681190138468e+00	 4.588468378684135e-01	 1.349740489986290e+01
1	 1.220347145152351e+00	 4.831243062860801e-01	 1.289481432371887e+01
1	 1.162235376312831e+00	 4.601183869667742e-01	 1.405051014354722e+01
1	 1.152849922470135e+00	 4.831532430234600e-01	 1.352619678639893e+01
1	 1.142968404631799e+00	 5.060861843616077e-01	 1.295524715663501e+01
1	 1.132591262343367e+00	 5.289017228707272e-01	 1.233785700891841e+01
1	 1.121719562484135e+00	 5.515842847068427e-01	 1.167434148960710e+01
1	 1.110355008528024e+00	 5.741182413352696e-01	 1.096513681692030e+01
1	 1.098499947997111e+00	 5.964879414108067e-01	 1.021080143362113e+01
1	 1.086157378030861e+00	 6.186777433746946e-01	 9.412016609972174e+00
1	 1.073330949003193e+00	 6.406720486401843e-01	 8.569586478358897e+00
1	 1.060024966129339e+00	 6.624553352318258e-01	 7.684437484923162e+00
1	 1.046244389015035e+00	 6.840121917376669e-01	 6.757617247759512e+00
1	 1.168046553198987e+00	 4.624189788986123e-01	 1.392132111651586e+01
1	 1.158614172087327e+00	 4.855690092366507e-01	 1.339011122858411e+01
1	 1.148683246659897e+00	 5.086166152823455e-01	 1.281276931351488e+01
1	 1.138254218659966e+00	 5.315462314846507e-01	 1.218950288967523e+01
1	 1.127328160301226e+00	 5.543422061303684e-01	 1.152063756979154e+01
1	 1.115906783574966e+00	 5.769888325421380e-01	 1.080661867782868e+01
1	 1.103992447740872e+00	 5.994703811180300e-01	 1.004801234361924e+01
1	 1.091588164924104e+00	 6.217711320914886e-01	 9.245506053507633e+00
1	 1.078697603750451e+00	 6.438754088828303e-01	 8.399908638880751e+00
1	 1.065325090961221e+00	 6.657676119067247e-01	 7.512149688367787e+00
1	 1.051475610960176e+00	 6.874322526941609e-01	 6.583278373659009e+00
1	 1.173857730084653e+00	 4.647195708304708e-01	 1.379527849594087e+01
1	 1.164378421703943e+00	 4.879847754496809e-01	 1.325717685485284e+01
1	 1.154398088687362e+00	 5.111470462027798e-01	 1.267344292424436e+01
1	 1.143917174975906e+00	 5.341907400981674e-01	 1.204429593366099e+01
1	 1.132936758117659e+00	 5.571001275534228e-01	 1.137007192012090e+01
1	 1.121458558621282e+00	 5.798594237485101e-01	 1.065122528207774e+01
1	 1.109484947484068e+00	 6.024528208247721e-01	 9.888329816324692e+00
1	 1.097018951816876e+00	 6.248645208078578e-01	 9.082079216609724e+00
1	 1.084064258497361e+00	 6.470787691251477e-01	 8.233287016308616e+00
1	 1.070625215792908e+00	 6.690798885814347e-01	 7.342885961375005e+00
1	 1.056706832905307e+00	 6.908523136506443e-01	 6.411926803913055e+00
1	 1.179668906969829e+00	 4.670201627623501e-01	 1.367233578320092e+01
1	 1.170142671319985e+00	 4.904005416625506e-01	 1.312734709597915e+01
1	 1.160112930714196e+00	 5.136774771229113e-01	 1.253722141561158e+01
1	 1.149580131291185e+00	 5.368352487112770e-01	 1.190218963107254e+01
1	 1.138545355933435e+00	 5.598580489760057e-01	 1.122259816221742e+01
1	 1.127010333666973e+00	 5.827300149543865e-01	 1.049891045119380e+01
1	 1.114977447226701e+00	 6.054352605310340e-01	 9.731707941943469e+00
1	 1.102449738709176e+00	 6.279579095238026e-01	 8.921690527068042e+00
1	 1.089430913243922e+00	 6.502821293671381e-01	 8.069676444875530e+00
1	 1.075925340624400e+00	 6.723921652559541e-01	 7.176601613261981e+00
1	 1.061938054850427e+00	 6.942723746071171e-01	 6.243518391166989e+00
1	 1.185480083854516e+00	 4.693207546942498e-01	 1.355244739141251e+01
1	 1.175906920935450e+00	 4.928163078752600e-01	 1.300057629585936e+01
1	 1.165827772740397e+00	 5.162079080427396e-01	 1.240405912760487e+01
1	 1.155243087605805e+00	 5.394797573239798e-01	 1.176313838406373e+01
1	 1.144153953748553e+00	 5.626159703981174e-01	 1.107817082708347e+01
1	 1.132562108712037e+00	 5.856006061597665e-01	 1.034962891216343e+01
1	 1.120469946968770e+00	 6.084177002368153e-01	 9.578101710873629e+00
1	 1.107880525601004e+00	 6.310512982393227e-01	 8.764295306245032e+00
1	 1.094797567990135e+00	 6.534854896088003e-01	 7.909032644417985e+00
1	 1.081225465455697e+00	 6.757044419302840e-01	 7.013252829633714e+00
1	 1.067169276795537e+00	 6.976924355635792e-01	 6.078009853700413e+00
1	 1.191291260738712e+00	 4.716213466261701e-01	 1.343556862319229e+01
1	 1.181671170550340e+00	 4.952320740878091e-01	 1.287681968924056e+01
1	 1.171542614765965e+00	 5.187383389622651e-01	 1.227391129113979e+01
1	 1.160906043919765e+00	 5.421242659362761e-01	 1.162709748450255e+01
1	 1.149762551563013e+00	 5.653738918197578e-01	 1.093674533292137e+01
1	 1.138113883756475e+00	 5.884711973646505e-01	 1.020333627534920e+01
1	 1.125962446710275e+00	 6.114001399421159e-01	 9.427466991749387e+00
1	 1.113311312492361e+00	 6.341446869544182e-01	 8.609849747281435e+00
1	 1.100164222735998e+00	 6.566888498501349e-01	 7.751312198775330e+00
1	 1.086525590286798e+00	 6.790167186044237e-01	 6.852796651010083e+00
1	 1.072400498740636e+00	 7.011124965200309e-01	 5.915358754314338e+00
1	 1.197102437622420e+00	 4.739219385581109e-01	 1.332165564906753e+01
1	 1.187435420164655e+00	 4.976478403001977e-01	 1.275603338009824e+01
1	 1.177257456790902e+00	 5.212687698814874e-01	 1.214673400643455e+01
1	 1.166569000233066e+00	 5.447687745481652e-01	 1.149402309237616e+01
1	 1.155371149376815e+00	 5.681318132409268e-01	 1.079827796359937e+01
1	 1.143665658800288e+00	 5.913417885690386e-01	 1.005998901304823e+01
1	 1.131454946451216e+00	 6.143825796469359e-01	 9.279760510124641e+00
1	 1.118742099383246e+00	 6.372380756690891e-01	 8.458310893936478e+00
1	 1.105530877481513e+00	 6.598922100911414e-01	 7.596472534819452e+00
1	 1.091825715117704e+00	 6.823289952783738e-01	 6.695190952075691e+00
1	 1.077631720685724e+00	 7.045325574764719e-01	 5.755523479833036e+00
1	 1.202913614505637e+00	 4.762225304900724e-01	 1.321066548651184e+01
1	 1.193199669778394e+00	 5.000636065124259e-01	 1.263817432064025e+01
1	 1.182972298815206e+00	 5.237992008004068e-01	 1.202248422201231e+01
1	 1.172231956545706e+00	 5.474132831596474e-01	 1.136387221482166e+01
1	 1.160979747189960e+00	 5.708897346616243e-01	 1.066272584774203e+01
1	 1.149217433843474e+00	 5.942123797729305e-01	 9.919544438672810e+00
1	 1.136947446191592e+00	 6.173650193512751e-01	 9.134939827774454e+00
1	 1.124172886273659e+00	 6.403314643833351e-01	 8.309636620041701e+00
1	 1.110897532226679e+00	 6.630955703318204e-01	 7.444471902091246e+00
1	 1.097125839948415e+00	 6.856412719521339e-01	 6.540394421530967e+00
1	 1.082862942630802e+00	 7.079526184329022e-01	 5.598463221200005e+00
1	 1.208724791388365e+00	 4.785231224220544e-01	 1.310255597958599e+01
1	 1.198963919391559e+00	 5.024793727244938e-01	 1.252320029091675e+01
1	 1.188687140838879e+00	 5.263296317190230e-01	 1.190111971430942e+01
1	 1.177894912857687e+00	 5.500577917707230e-01	 1.123660268576219e+01
1	 1.166588345002447e+00	 5.736476560818506e-01	 1.053004693842343e+01
1	 1.154769208886034e+00	 5.970829709763263e-01	 9.781960686531152e+00
1	 1.142439945931405e+00	 6.203474590551337e-01	 8.992963322593710e+00
1	 1.129603673163601e+00	 6.434248530971567e-01	 8.163785609547411e+00
1	 1.116264186971496e+00	 6.662989305721714e-01	 7.295269353024992e+00
1	 1.102425964778931e+00	 6.889535486257042e-01	 6.388366542524217e+00
1	 1.088094164575869e+00	 7.113726793893220e-01	 5.444137954148351e+00
1	 1.214535968270603e+00	 4.808237143540569e-01	 1.299728577916313e+01
1	 1.204728169004148e+00	 5.048951389364015e-01	 1.241106987901527e+01
1	 1.194401982861919e+00	 5.288600626373363e-01	 1.178259906786872e+01
1	 1.183557869169008e+00	 5.527023003813917e-01	 1.111217314612704e+01
1	 1.172196942814276e+00	 5.764055775016056e-01	 1.040019999344354e+01
1	 1.160320983927969e+00	 5.999535621792261e-01	 9.647196692188761e+00
1	 1.147932445670653e+00	 6.233298987585119e-01	 8.853790169072521e+00
1	 1.135034460053071e+00	 6.465182418105536e-01	 8.020717337141530e+00
1	 1.121630841715964e+00	 6.695022908121946e-01	 7.148824723740443e+00
1	 1.107726089609252e+00	 6.922658252990848e-01	 6.239067573645857e+00
1	 1.093325386520926e+00	 7.147927403457311e-01	 5.292508420425739e+00
1	 1.220347145152351e+00	 4.831243062860801e-01	 1.289481432371887e+01
1	 1.210492418616161e+00	 5.073109051481485e-01	 1.230174246182180e+01
1	 1.200116824884327e+00	 5.313904935553466e-01	 1.166688165609900e+01
1	 1.189220825479669e+00	 5.553468089916533e-01	 1.099054302463735e+01
1	 1.177805540625447e+00	 5.791634989208891e-01	 1.027314455616804e+01
1	 1.165872758969277e+00	 6.028241533816298e-01	 9.515212173390765e+00
1	 1.153424945409339e+00	 6.263123384614093e-01	 8.717380319329704e+00
1	 1.140465246942069e+00	 6.496116305235261e-01	 7.880392049422701e+00
1	 1.126997496460084e+00	 6.727056510518903e-01	 7.005098615383559e+00
1	 1.113026214439379e+00	 6.955781019722753e-01	 6.092458530465731e+00
1	 1.098556608465972e+00	 7.182128013021298e-01	 5.143536109556100e+00
1	 1.046244389015035e+00	 6.840121917376669e-01	 6.757617247759512e+00
1	 1.031994829112001e+00	 7.053273514287609e-01	 5.328575686072005e+00
1	 1.017282545054521e+00	 7.263857263956877e-01	 3.882115525368404e+00
1	 1.002114435865165e+00	 7.471724415498717e-01	 2.420240588882469e+00
1	 9.864980320304254e-01	 7.676728683354713e-01	 9.450114020948507e-01
1	 9.704414844585151e-01	 7.878726579962206e-01	-5.414611378659393e-01
1	 9.539535513453988e-01	 8.077577742428446e-01	-2.037022400080267e+00
1	 9.370435829877606e-01	 8.273145251682116e-01	-3.539480927831288e+00
1	 9.197215045943361e-01	 8.465295942603415e-01	-5.046615577028943e+00
1	 9.019977971594892e-01	 8.653900703675113e-01	-6.556182843139213e+00
1	 8.838834764750000e-01	 8.838834764750000e-01	-8.065924332853156e+00
1	 1.051475610960176e+00	 6.874322526941609e-01	 6.583278373659009e+00
1	 1.037154803256432e+00	 7.088539881827172e-01	 5.153655737708155e+00
1	 1.022368957777577e+00	 7.300176550235996e-01	 3.707180032606836e+00
1	 1.007125008041297e+00	 7.509083037527912e-01	 2.245807738703804e+00
1	 9.914305221865173e-01	 7.715112326716713e-01	 7.715498655373655e-01
1	 9.752936918759935e-01	 7.918120212801945e-01	-7.135341891197742e-01
1	 9.587233190966710e-01	 8.117965631076398e-01	-2.207343074999267e+00
1	 9.417288008967177e-01	 8.314510977873407e-01	-3.707740183958978e+00
1	 9.243201121109133e-01	 8.507622422247574e-01	-5.212560565110095e+00
1	 9.065077861385945e-01	 8.697170207124085e-01	-6.719618019948634e+00
1	 8.883028938504999e-01	 8.883028938504999e-01	-8.226712335236179e+00
1	 1.056706832905307e+00	 6.908523136506443e-01	 6.411926803913055e+00
1	 1.042314777401042e+00	 7.123806249368533e-01	 4.981509274326006e+00
1	 1.027455370500983e+00	 7.336495836518623e-01	 3.534799142051833e+00
1	 1.012135580217930e+00	 7.546441659562123e-01	 2.073705935086341e+00
1	 9.963630123432429e-01	 7.753495970085053e-01	 6.001915526433254e-01
1	 9.801458992942172e-01	 7.957513845649138e-01	-8.837356874603890e-01
1	 9.634930868487798e-01	 8.158353519732722e-01	-2.376027283812118e+00
1	 9.464140188065826e-01	 8.355876704073780e-01	-3.874601034108303e+00
1	 9.289187196284495e-01	 8.549948901901324e-01	-5.377347728505760e+00
1	 9.110177751186892e-01	 8.740439710582958e-01	-6.882138014531059e+00
1	 8.927223112270000e-01	 8.927223112270000e-01	-8.386829392791663e+00
1	 1.061938054850427e+00	 6.942723746071171e-01	 6.243518391166989e+00
1	 1.047474751545831e+00	 7.159072616911690e-01	 4.812095308462700e+00
1	 1.032541783224740e+00	 7.372815122804754e-01	 3.364935100961266e+00
1	 1.017146152395066e+00	 7.583800281601359e-01	 1.903900729065659e+00
1	 1.001295502500602e+00	 7.791879613459726e-01	 4.309053812894996e-01
1	 9.849981067131865e-01	 7.996907478503786e-01	-1.052093291305747e+00
1	 9.682628546017255e-01	 8.198741408397413e-01	-2.543099210747407e+00
1	 9.510992367173559e-01	 8.397242430283235e-01	-4.040084144377611e+00
1	 9.335173271469447e-01	 8.592275381564664e-01	-5.540994177925811e+00
1	 9.155277640997740e-01	 8.783709214051727e-01	-7.043756351747184e+00
1	 8.971417286044999e-01	 8.971417286044999e-01	-8.546285420959993e+00
1	 1.067169276795537e+00	 6.976924355635792e-01	 6.078009853700413e+00
1	 1.052634725690801e+00	 7.194338984456645e-01	 4.645373656331389e+00
1	 1.037628195948848e+00	 7.409134409094399e-01	 3.197550896842866e+00
1	 1.022156724572704e+00	 7.621158903645615e-01	 1.736358347147536e+00
1	 1.006227992658595e+00	 7.830263256840737e-01	 2.636608788054677e-01
1	 9.898503141329006e-01	 8.036301111365883e-01	-1.218634116751640e+00
1	 9.730326223555081e-01	 8.239129297070470e-01	-2.708582565832895e+00
1	 9.557844546290369e-01	 8.438608156501772e-01	-4.204209775647726e+00
1	 9.381159346663995e-01	 8.634601861237600e-01	-5.703516688575746e+00
1	 9.200377530818485e-01	 8.826978717530395e-01	-7.204486291263822e+00
1	 9.015611459830002e-01	 9.015611459830002e-01	-8.705090140761417e+00
1	 1.072400498740636e+00	 7.011124965200309e-01	 5.915358754314338e+00
1	 1.057794699835950e+00	 7.229605352003399e-01	 4.481304918218659e+00
1	 1.042714608673307e+00	 7.445453695387545e-01	 3.032610239399201e+00
1	 1.027167296750845e+00	 7.658517525694892e-01	 1.571045674832479e+00
1	 1.011160482817222e+00	 7.868646900228088e-01	 9.842816711003199e-02
1	 9.947025215533607e-01	 8.075694744235438e-01	-1.383384750799467e+00
1	 9.778023901101277e-01	 8.279517185751901e-01	-2.872500596461814e+00
1	 9.604696725416267e-01	 8.479973882729391e-01	-4.366997793465110e+00
1	 9.427145421868133e-01	 8.676928340920127e-01	-5.864931708340291e+00
1	 9.245477420649126e-01	 8.870248221018960e-01	-7.364340834023109e+00
1	 9.059805633624998e-01	 9.059805633624998e-01	-8.863253083537758e+00
1	 1.077631720685724e+00	 7.045325574764719e-01	 5.755523479833036e+00
1	 1.062954673981279e+00	 7.264871719551946e-01	 4.319850459454304e+00
1	 1.047801021398116e+00	 7.481772981684202e-01	 2.870077542998771e+00
1	 1.032177868929487e+00	 7.695876147749188e-01	 1.407930240621098e+00
1	 1.016092972976482e+00	 7.907030543621769e-01	-6.482205172150834e-02
1	 9.995547289745658e-01	 8.115088377112445e-01	-1.546371264198212e+00
1	 9.825721578655839e-01	 8.319905074441695e-01	-3.034876098621977e+00
1	 9.651548904551243e-01	 8.521339608966091e-01	-4.528467677637704e+00
1	 9.473131497081860e-01	 8.719254820612244e-01	-6.025255365727425e+00
1	 9.290577310489665e-01	 8.913517724517419e-01	-7.523332728521425e+00
1	 9.103999807429998e-01	 9.103999807429998e-01	-9.020783595556056e+00
1	 1.082862942630802e+00	 7.079526184329022e-01	 5.598463221200005e+00
1	 1.068114648126788e+00	 7.300138087102296e-01	 4.160972391931868e+00
1	 1.052887434123277e+00	 7.518092267984363e-01	 2.709917909655375e+00
1	 1.037188441108631e+00	 7.733234769808507e-01	 1.246980200482588e+00
1	 1.021025463136376e+00	 7.945414187021792e-01	-2.261185094698177e-01
1	 1.004406936396516e+00	 8.154482009996902e-01	-1.707619223913902e+00
1	 9.873419256218769e-01	 8.360292963139859e-01	-3.195731427798486e+00
1	 9.698401083695299e-01	 8.562705335211870e-01	-4.688638531551716e+00
1	 9.519117572305179e-01	 8.761581300313951e-01	-6.184503477583251e+00
1	 9.335677200340101e-01	 8.956787228025782e-01	-7.681474476907329e+00
1	 9.148193981245000e-01	 9.148193981245000e-01	-9.177690842479262e+00
1	 1.088094164575869e+00	 7.113726793893220e-01	 5.444137954148351e+00
1	 1.073274622272477e+00	 7.335404454654443e-01	 4.004633556161981e+00
1	 1.057973846848787e+00	 7.554411554288034e-01	 2.552097112497550e+00
1	 1.042199013288277e+00	 7.770593391872846e-01	 1.088164322771260e+00
1	 1.025957953296904e+00	 7.983797830428151e-01	-3.854893853820645e-01
1	 1.009259143819212e+00	 8.193875642888815e-01	-1.867153705240760e+00
1	 9.921116933790072e-01	 8.400680851846395e-01	-3.355088509563652e+00
1	 9.745253262848439e-01	 8.604071061466734e-01	-4.847529091220910e+00
1	 9.565103647538094e-01	 8.803907780025253e-01	-6.342691556583949e+00
1	 9.380777090200438e-01	 9.000056731544042e-01	-7.838778340903538e+00
1	 9.192388155069999e-01	 9.192388155069999e-01	-9.333983813707560e+00
1	 1.093325386520926e+00	 7.147927403457311e-01	 5.292508420425739e+00
1	 1.078434596418345e+00	 7.370670822208386e-01	 3.850797503841990e+00
1	 1.063060259574649e+00	 7.590730840595213e-01	 2.396581579713719e+00
1	 1.047209585468426e+00	 7.807952013942209e-01	 9.314519735762223e-01
1	 1.030890443458066e+00	 8.022181473840848e-01	-5.429623193891000e-01
1	 1.014111351242653e+00	 8.233269275788180e-01	-2.024999303562460e+00
1	 9.968814611369740e-01	 8.441068740561294e-01	-3.512968849861625e+00
1	 9.792105442010659e-01	 8.645436787730676e-01	-5.005157734074670e+00
1	 9.611089722780598e-01	 8.846234259746146e-01	-6.499834818512158e+00
1	 9.425876980070672e-01	 9.043326235072198e-01	-7.995256347558650e+00
1	 9.236582328905000e-01	 9.236582328904998e-01	-9.489671326595243e+00
1	 1.098556608465972e+00	 7.182128013021298e-01	 5.143536109556100e+00
1	 1.083594570564393e+00	 7.405937189764126e-01	 3.699428480922246e+00
1	 1.068146672300861e+00	 7.627050126905897e-01	 2.243338378955479e+00
1	 1.052220157649077e+00	 7.845310636016593e-01	 7.768131024898600e-01
1	 1.035822933619861e+00	 8.060565117259884e-01	-6.985644249472520e-01
1	 1.018963558666840e+00	 8.272662908695000e-01	-2.181180145779696e+00
1	 1.001651228895778e+00	 8.481456629284566e-01	-3.669393544999152e+00
1	 9.838957621181963e-01	 8.686802514003705e-01	-5.161542487496330e+00
1	 9.657075798032695e-01	 8.888560739476630e-01	-6.655948189326010e+00
1	 9.470976869950806e-01	 9.086595738610254e-01	-8.150920294834814e+00
1	 9.280776502750000e-01	 9.280776502750000e-01	-9.644762030546923e+00
1	 8.838834764750000e-01	 8.838834764750000e-01	-8.065924332853156e+00
1	 8.653900703675113e-01	 9.019977971594896e-01	-9.707814742277865e+00
1	 8.465295942603415e-01	 9.197215045943362e-01	-1.136855981402815e+01
1	 8.273145251682117e-01	 9.370435829877607e-01	-1.304684758973180e+01
1	 8.077577742428449e-01	 9.539535513453986e-01	-1.474127829459500e+01
1	 7.878726579962209e-01	 9.704414844585149e-01	-1.645036837407055e+01
1	 7.676728683354718e-01	 9.864980320304252e-01	-1.817255499373579e+01
1	 7.471724415498724e-01	 1.002114435865165e+00	-1.990620097415340e+01
1	 7.263857263956882e-01	 1.017282545054521e+00	-2.164960012889919e+01
1	 7.053273514287616e-01	 1.031994829112000e+00	-2.340098297071044e+01
1	 6.840121917376669e-01	 1.046244389015035e+00	-2.515852274782582e+01
1	 8.883028938504999e-01	 8.883028938504999e-01	-8.226712335236179e+00
1	 8.697170207124085e-01	 9.065077861385945e-01	-9.871181261550291e+00
1	 8.507622422247573e-01	 9.243201121109134e-01	-1.153599169373735e+01
1	 8.314510977873408e-01	 9.417288008967176e-01	-1.321988137773848e+01
1	 8.117965631076401e-01	 9.587233190966709e-01	-1.492149401624941e+01
1	 7.918120212801949e-01	 9.752936918759934e-01	-1.663938313430768e+01
1	 7.715112326716718e-01	 9.914305221865169e-01	-1.837201644324663e+01
1	 7.509083037527915e-01	 1.007125008041296e+00	-2.011778067549756e+01
1	 7.300176550236002e-01	 1.022368957777577e+00	-2.187498685883945e+01
1	 7.088539881827178e-01	 1.037154803256431e+00	-2.364187599514080e+01
1	 6.874322526941609e-01	 1.051475610960176e+00	-2.541662510546754e+01
1	 8.927223112270000e-01	 8.927223112270000e-01	-8.386829392791663e+00
1	 8.740439710582957e-01	 9.110177751186894e-01	-1.003410199647567e+01
1	 8.549948901901324e-01	 9.289187196284494e-01	-1.170318869469311e+01
1	 8.355876704073782e-01	 9.464140188065825e-01	-1.339287654485920e+01
1	 8.158353519732724e-01	 9.634930868487797e-01	-1.510185237272373e+01
1	 7.957513845649140e-01	 9.801458992942171e-01	-1.682870646802008e+01
1	 7.753495970085054e-01	 9.963630123432425e-01	-1.857193681344277e+01
1	 7.546441659562128e-01	 1.012135580217930e+00	-2.032995382014142e+01
1	 7.336495836518627e-01	 1.027455370500983e+00	-2.210108553873466e+01
1	 7.123806249368541e-01	 1.042314777401041e+00	-2.388358331098891e+01
1	 6.908523136506445e-01	 1.056706832905307e+00	-2.567562782383036e+01
1	 8.971417286044999e-01	 8.971417286044999e-01	-8.546285420959993e+00
1	 8.783709214051726e-01	 9.155277640997740e-01	-1.019658353499951e+01
1	 8.592275381564666e-01	 9.335173271469448e-01	-1.187015428800935e+01
1	 8.397242430283236e-01	 9.510992367173554e-01	-1.356583366184553e+01
1	 8.198741408397413e-01	 9.682628546017253e-01	-1.528235125611358e+01
1	 7.996907478503786e-01	 9.849981067131861e-01	-1.701833381500782e+01
1	 7.791879613459731e-01	 1.001295502500602e+00	-1.877230932224454e+01
1	 7.583800281601363e-01	 1.017146152395066e+00	-2.054271163798589e+01
1	 7.372815122804759e-01	 1.032541783224740e+00	-2.232788564715622e+01
1	 7.159072616911698e-01	 1.047474751545831e+00	-2.412609288439124e+01
1	 6.942723746071172e-01	 1.061938054850427e+00	-2.593551759708943e+01
1	 9.015611459830002e-01	 9.015611459830002e-01	-8.705090140761417e+00
1	 8.826978717530394e-01	 9.200377530818484e-01	-1.035863233589186e+01
1	 8.634601861237601e-01	 9.381159346663995e-01	-1.203689187673904e+01
1	 8.438608156501772e-01	 9.557844546290369e-01	-1.373875328825718e+01
1	 8.239129297070475e-01	 9.730326223555081e-01	-1.546298859984605e+01
1	 8.036301111365888e-01	 9.898503141329006e-01	-1.720826070448643e+01
1	 7.830263256840739e-01	 1.006227992658595e+00	-1.897312732055369e+01
1	 7.621158903645616e-01	 1.022156724572704e+00	-2.075604553089496e+01
1	 7.409134409094401e-01	 1.037628195948848e+00	-2.255537686897750e+01
1	 7.194338984456653e-01	 1.052634725690800e+00	-2.436939291744106e+01
1	 6.976924355635794e-01	 1.067169276795537e+00	-2.619628138031939e+01
1	 9.059805633624998e-01	 9.059805633624998e-01	-8.863253083537758e+00
1	 8.870248221018959e-01	 9.245477420649123e-01	-1.052025473189857e+01
1	 8.676928340920127e-01	 9.427145421868132e-01	-1.220340479753420e+01
1	 8.479973882729391e-01	 9.604696725416264e-01	-1.391163597273649e+01
1	 8.279517185751899e-01	 9.778023901101274e-01	-1.564376237767096e+01
1	 8.075694744235439e-01	 9.947025215533604e-01	-1.739848275290647e+01
1	 7.868646900228091e-01	 1.011160482817222e+00	-1.917438428901069e+01
1	 7.658517525694896e-01	 1.027167296750844e+00	-2.096994706850068e+01
1	 7.445453695387551e-01	 1.042714608673307e+00	-2.278354909034300e+01
1	 7.229605352003404e-01	 1.057794699835950e+00	-2.461347184243551e+01
1	 7.011124965200309e-01	 1.072400498740636e+00	-2.645790638312934e+01
1	 9.103999807429998e-01	 9.103999807429998e-01	-9.020783595556056e+00
1	 8.913517724517422e-01	 9.290577310489665e-01	-1.068145693279884e+01
1	 8.719254820612242e-01	 9.473131497081859e-01	-1.236969632225752e+01
1	 8.521339608966090e-01	 9.651548904551241e-01	-1.408448225327180e+01
1	 8.319905074441698e-01	 9.825721578655838e-01	-1.582467060268375e+01
1	 8.115088377112447e-01	 9.995547289745654e-01	-1.758899566183583e+01
1	 7.907030543621775e-01	 1.016092972976482e+00	-1.937607383484549e+01
1	 7.695876147749194e-01	 1.032177868929486e+00	-2.118440798413180e+01
1	 7.481772981684206e-01	 1.047801021398116e+00	-2.301239239378284e+01
1	 7.264871719551955e-01	 1.062954673981279e+00	-2.485831831628701e+01
1	 7.045325574764718e-01	 1.077631720685724e+00	-2.672038006348585e+01
1	 9.148193981245000e-01	 9.148193981245000e-01	-9.177690842479262e+00
1	 8.956787228025780e-01	 9.335677200340105e-01	-1.084224502837646e+01
1	 8.761581300313951e-01	 9.519117572305179e-01	-1.253576965954692e+01
1	 8.562705335211872e-01	 9.698401083695301e-01	-1.425729265745595e+01
1	 8.360292963139861e-01	 9.873419256218768e-01	-1.600571132637340e+01
1	 8.154482009996905e-01	 1.004406936396516e+00	-1.777979521590392e+01
1	 7.945414187021796e-01	 1.021025463136376e+00	-1.957818968881958e+01
1	 7.733234769808512e-01	 1.037188441108631e+00	-2.139942017085933e+01
1	 7.518092267984370e-01	 1.052887434123276e+00	-2.324189705346843e+01
1	 7.300138087102302e-01	 1.068114648126788e+00	-2.510392121509856e+01
1	 7.079526184329022e-01	 1.082862942630802e+00	-2.698369012171342e+01
1	 9.192388155069999e-01	 9.192388155069999e-01	-9.333983813707560e+00
1	 9.000056731544041e-01	 9.380777090200438e-01	-1.100262499130419e+01
1	 8.803907780025252e-01	 9.565103647538092e-01	-1.270162795633615e+01
1	 8.604071061466734e-01	 9.745253262848437e-01	-1.443006770273563e+01
1	 8.400680851846395e-01	 9.921116933790067e-01	-1.618688263770073e+01
1	 8.193875642888817e-01	 1.009259143819211e+00	-1.797087728080498e+01
1	 7.983797830428155e-01	 1.025957953296904e+00	-1.978072570225721e+01
1	 7.770593391872852e-01	 1.042199013288277e+00	-2.161497567765702e+01
1	 7.554411554288040e-01	 1.057973846848787e+00	-2.347205353060742e+01
1	 7.335404454654451e-01	 1.073274622272476e+00	-2.535026962889313e+01
1	 7.113726793893219e-01	 1.088094164575869e+00	-2.724782449466877e+01
1	 9.236582328905000e-01	 9.236582328904998e-01	-9.489671326595243e+00
1	 9.043326235072198e-01	 9.425876980070673e-01	-1.116260267994467e+01
1	 8.846234259746145e-01	 9.611089722780597e-01	-1.286727429933054e+01
1	 8.645436787730679e-01	 9.792105442010659e-01	-1.460280789665410e+01
1	 8.441068740561295e-01	 9.968814611369736e-01	-1.636818266220100e+01
1	 8.233269275788182e-01	 1.014111351242653e+00	-1.816223780135877e+01
1	 8.022181473840851e-01	 1.030890443458065e+00	-1.998367584416040e+01
1	 7.807952013942214e-01	 1.047209585468426e+00	-2.183106670567107e+01
1	 7.590730840595219e-01	 1.063060259574648e+00	-2.370285246896711e+01
1	 7.370670822208393e-01	 1.078434596418344e+00	-2.559735285649827e+01
1	 7.147927403457311e-01	 1.093325386520926e+00	-2.751277135008210e+01
1	 9.280776502750000e-01	 9.280776502750000e-01	-9.644762030546923e+00
1	 9.086595738610254e-01	 9.470976869950807e-01	-1.132218384107347e+01
1	 8.888560739476632e-01	 9.657075798032694e-01	-1.303271171644088e+01
1	 8.686802514003706e-01	 9.838957621181965e-01	-1.477551373708744e+01
1	 8.481456629284567e-01	 1.001651228895778e+00	-1.654960956111397e+01
1	 8.272662908695003e-01	 1.018963558666839e+00	-1.835387279962669e+01
1	 8.060565117259888e-01	 1.035822933619860e+00	-2.018703419840702e+01
1	 7.845310636016597e-01	 1.052220157649077e+00	-2.204768560459770e+01
1	 7.627050126905903e-01	 1.068146672300861e+00	-2.393428469052909e+01
1	 7.405937189764134e-01	 1.083594570564393e+00	-2.584516040057289e+01
1	 7.182128013021298e-01	 1.098556608465972e+00	-2.777851908106060e+01
1	 6.840121917376669e-01	 1.046244389015035e+00	-2.515852274782582e+01
1	 6.624553352318256e-01	 1.060024966129339e+00	-2.682888273724190e+01
1	 6.406720486401845e-01	 1.073330949003192e+00	-2.847534205316709e+01
1	 6.186777433746947e-01	 1.086157378030861e+00	-3.009586114892874e+01
1	 5.964879414108071e-01	 1.098499947997111e+00	-3.168846830472978e+01
1	 5.741182413352699e-01	 1.110355008528024e+00	-3.325126508994241e+01
1	 5.515842847068431e-01	 1.121719562484134e+00	-3.478243141868700e+01
1	 5.289017228707278e-01	 1.132591262343367e+00	-3.628023017708180e+01
1	 5.060861843616085e-01	 1.142968404631799e+00	-3.774301140426707e+01
1	 4.831532430234608e-01	 1.152849922470135e+00	-3.916921601307743e+01
1	 4.601183869667742e-01	 1.162235376312831e+00	-4.055737904004363e+01
1	 6.874322526941609e-01	 1.051475610960176e+00	-2.541662510546754e+01
1	 6.657676119067247e-01	 1.065325090961221e+00	-2.710363493515924e+01
1	 6.438754088828305e-01	 1.078697603750451e+00	-2.876727209583274e+01
1	 6.217711320914885e-01	 1.091588164924104e+00	-3.040555011437543e+01
1	 5.994703811180299e-01	 1.103992447740871e+00	-3.201654754550441e+01
1	 5.769888325421382e-01	 1.115906783574966e+00	-3.359841324751768e+01
1	 5.543422061303688e-01	 1.127328160301226e+00	-3.514937127076251e+01
1	 5.315462314846513e-01	 1.138254218659966e+00	-3.666772533789590e+01
1	 5.086166152823460e-01	 1.148683246659897e+00	-3.815186289854928e+01
1	 4.855690092366515e-01	 1.158614172087327e+00	-3.960025874459995e+01
1	 4.624189788986122e-01	 1.168046553198987e+00	-4.101147817586575e+01
1	 6.908523136506445e-01	 1.056706832905307e+00	-2.567562782383036e+01
1	 6.690798885814346e-01	 1.070625215792908e+00	-2.737958444356886e+01
1	 6.470787691251478e-01	 1.084064258497361e+00	-2.906069125532758e+01
1	 6.248645208078580e-01	 1.097018951816876e+00	-3.071701434892966e+01
1	 6.024528208247724e-01	 1.109484947484068e+00	-3.234668206318044e+01
1	 5.798594237485105e-01	 1.121458558621282e+00	-3.394789007647518e+01
1	 5.571001275534232e-01	 1.132936758117659e+00	-3.551890612942715e+01
1	 5.341907400981678e-01	 1.143917174975905e+00	-3.705807435928101e+01
1	 5.111470462027804e-01	 1.154398088687362e+00	-3.856381922922215e+01
1	 4.879847754496816e-01	 1.164378421703943e+00	-4.003464903911018e+01
1	 4.647195708304709e-01	 1.173857730084653e+00	-4.146915900759433e+01
1	 6.942723746071172e-01	 1.061938054850427e+00	-2.593551759708943e+01
1	 6.723921652559540e-01	 1.075925340624400e+00	-2.765671356822652e+01
1	 6.502821293671381e-01	 1.089430913243922e+00	-2.935557752499879e+01
1	 6.279579095238026e-01	 1.102449738709176e+00	-3.103022761708779e+01
1	 6.054352605310341e-01	 1.114977447226701e+00	-3.267884148420882e+01
1	 5.827300149543866e-01	 1.127010333666972e+00	-3.429966116295300e+01
1	 5.598580489760063e-01	 1.138545355933435e+00	-3.589099764483080e+01
1	 5.368352487112776e-01	 1.149580131291185e+00	-3.745123506595880e+01
1	 5.136774771229119e-01	 1.160112930714195e+00	-3.897883451200512e+01
1	 4.904005416625514e-01	 1.170142671319984e+00	-4.047233742523510e+01
1	 4.670201627623500e-01	 1.179668906969829e+00	-4.193036860376333e+01
1	 6.976924355635794e-01	 1.067169276795537e+00	-2.619628138031939e+01
1	 6.757044419302837e-01	 1.081225465455696e+00	-2.793500496183441e+01
1	 6.534854896088002e-01	 1.094797567990135e+00	-2.965190932969654e+01
1	 6.310512982393228e-01	 1.107880525601004e+00	-3.134516419776778e+01
1	 6.084177002368153e-01	 1.120469946968770e+00	-3.301299603059931e+01
1	 5.856006061597669e-01	 1.132562108712037e+00	-3.465369276787069e+01
1	 5.626159703981178e-01	 1.144153953748553e+00	-3.626560821908127e+01
1	 5.394797573239803e-01	 1.155243087605805e+00	-3.784716610961777e+01
1	 5.162079080427404e-01	 1.165827772740396e+00	-3.939686376230951e+01
1	 4.928163078752609e-01	 1.175906920935450e+00	-4.091327540162867e+01
1	 4.693207546942497e-01	 1.185480083854516e+00	-4.239505507077894e+01
1	 7.011124965200309e-01	 1.072400498740636e+00	-2.645790638312934e+01
1	 6.790167186044237e-01	 1.086525590286798e+00	-2.821444161557781e+01
1	 6.566888498501349e-01	 1.100164222735998e+00	-2.994966551525003e+01
1	 6.341446869544183e-01	 1.113311312492361e+00	-3.166179887176187e+01
1	 6.114001399421161e-01	 1.125962446710274e+00	-3.334911650539602e+01
1	 5.884711973646509e-01	 1.138113883756475e+00	-3.500995181047175e+01
1	 5.653738918197583e-01	 1.149762551563013e+00	-3.664270098790356e+01
1	 5.421242659362764e-01	 1.160906043919765e+00	-3.824582694874175e+01
1	 5.187383389622658e-01	 1.171542614765965e+00	-3.981786287329485e+01
1	 4.952320740878099e-01	 1.181671170550340e+00	-4.135741541331231e+01
1	 4.716213466261701e-01	 1.191291260738712e+00	-4.286316752760602e+01
1	 7.045325574764718e-01	 1.077631720685724e+00	-2.672038006348585e+01
1	 6.823289952783737e-01	 1.091825715117704e+00	-2.849500685091104e+01
1	 6.598922100911414e-01	 1.105530877481513e+00	-3.024882533824818e+01
1	 6.372380756690891e-01	 1.118742099383246e+00	-3.198010690955650e+01
1	 6.143825796469359e-01	 1.131454946451215e+00	-3.368717427857434e+01
1	 5.913417885690389e-01	 1.143665658800287e+00	-3.536840585234386e+01
1	 5.681318132409272e-01	 1.155371149376815e+00	-3.702223980283468e+01
1	 5.447687745481656e-01	 1.166569000233065e+00	-3.864717782902962e+01
1	 5.212687698814882e-01	 1.177257456790902e+00	-4.024178859456411e+01
1	 4.976478403001985e-01	 1.187435420164655e+00	-4.180471082870562e+01
1	 4.739219385581109e-01	 1.197102437622420e+00	-4.333465608119005e+01
1	 7.079526184329022e-01	 1.082862942630802e+00	-2.698369012171342e+01
1	 6.856412719521338e-01	 1.097125839948416e+00	-2.877668431157814e+01
1	 6.630955703318204e-01	 1.110897532226679e+00	-3.054936845611990e+01
1	 6.403314643833352e-01	 1.124172886273659e+00	-3.230006405950260e+01
1	 6.173650193512753e-01	 1.136947446191592e+00	-3.402714127334701e+01
1	 5.942123797729307e-01	 1.149217433843473e+00	-3.572902308190486e+01
1	 5.708897346616248e-01	 1.160979747189960e+00	-3.740418921393172e+01
1	 5.474132831596480e-01	 1.172231956545706e+00	-3.905117976437824e+01
1	 5.237992008004075e-01	 1.182972298815206e+00	-4.066859851147707e+01
1	 5.000636065124267e-01	 1.193199669778394e+00	-4.225511591732193e+01
1	 4.762225304900723e-01	 1.202913614505637e+00	-4.380947180259394e+01
1	 7.113726793893219e-01	 1.088094164575869e+00	-2.724782449466877e+01
1	 6.889535486257039e-01	 1.102425964778931e+00	-2.905945795586750e+01
1	 6.662989305721714e-01	 1.116264186971496e+00	-3.085127491749618e+01
1	 6.434248530971567e-01	 1.129603673163601e+00	-3.262164653632899e+01
1	 6.203474590551340e-01	 1.142439945931405e+00	-3.436898995286417e+01
1	 5.970829709763266e-01	 1.154769208886034e+00	-3.609177229933257e+01
1	 5.736476560818511e-01	 1.166588345002446e+00	-3.778851445298224e+01
1	 5.500577917707236e-01	 1.177894912857687e+00	-3.945779451841867e+01
1	 5.263296317190237e-01	 1.188687140838879e+00	-4.109825102505934e+01
1	 5.024793727244947e-01	 1.198963919391558e+00	-4.270858582810595e+01
1	 4.785231224220544e-01	 1.208724791388365e+00	-4.428756670382162e+01
1	 7.147927403457311e-01	 1.093325386520926e+00	-2.751277135008210e+01
1	 6.922658252990845e-01	 1.107726089609253e+00	-2.934331204908561e+01
1	 6.695022908121944e-01	 1.121630841715964e+00	-3.115452515285303e+01
1	 6.465182418105536e-01	 1.135034460053070e+00	-3.294483100998508e+01
1	 6.233298987585121e-01	 1.147932445670653e+00	-3.471269330729815e+01
1	 5.999535621792262e-01	 1.160320983927968e+00	-3.645662290193168e+01
1	 5.764055775016060e-01	 1.172196942814275e+00	-3.817518141719389e+01
1	 5.527023003813921e-01	 1.183557869169008e+00	-3.986698458657745e+01
1	 5.288600626373371e-01	 1.194401982861919e+00	-4.153070533248954e+01
1	 5.048951389364020e-01	 1.204728169004147e+00	-4.316507656839677e+01
1	 4.808237143540569e-01	 1.214535968270603e+00	-4.476889371530819e+01
1	 7.182128013021298e-01	 1.098556608465972e+00	-2.777851908106060e+01
1	 6.955781019722753e-01	 1.113026214439379e+00	-2.962823115624687e+01
1	 6.727056510518901e-01	 1.126997496460084e+00	-3.145909996541976e+01
1	 6.496116305235261e-01	 1.140465246942069e+00	-3.326959459480252e+01
1	 6.263123384614094e-01	 1.153424945409338e+00	-3.505822484129362e+01
1	 6.028241533816301e-01	 1.165872758969277e+00	-3.682354486991537e+01
1	 5.791634989208896e-01	 1.177805540625446e+00	-3.856415665335077e+01
1	 5.553468089916540e-01	 1.189220825479669e+00	-4.027871317865412e+01
1	 5.313904935553472e-01	 1.200116824884327e+00	-4.196592140814302e+01
1	 5.073109051481494e-01	 1.210492418616161e+00	-4.362454498348885e+01
1	 4.831243062860801e-01	 1.220347145152352e+00	-4.525340666405138e+01
1	 4.601183869667742e-01	 1.162235376312831e+00	-4.055737904004363e+01
1	 4.369969884760465e-01	 1.171124942965302e+00	-4.167321852616837e+01
1	 4.138042749702640e-01	 1.179519402970896e+00	-4.270630598726605e+01
1	 3.905553011115675e-01	 1.187420126467113e+00	-4.365463911277963e+01
1	 3.672649221479067e-01	 1.194829057615943e+00	-4.451652935383088e+01
1	 3.439477685638439e-01	 1.201748697716363e+00	-4.529059881358375e+01
1	 3.206182221050803e-01	 1.208182087111708e+00	-4.597577575258721e+01
1	 2.972903932319080e-01	 1.214132786006911e+00	-4.657128879052971e+01
1	 2.739781000467759e-01	 1.219604854312299e+00	-4.707665989218008e+01
1	 2.506948487312590e-01	 1.224602830631397e+00	-4.749169623047414e+01
1	 2.274538155180212e-01	 1.229131710510101e+00	-4.781648102380337e+01
1	 4.624189788986122e-01	 1.168046553198987e+00	-4.101147817586575e+01
1	 4.391819734143381e-01	 1.176980567684396e+00	-4.213643120035783e+01
1	 4.158732963400971e-01	 1.185416999989696e+00	-4.316657095345099e+01
1	 3.925080776113382e-01	 1.193357227103074e+00	-4.409975358069583e+01
1	 3.691012467522498e-01	 1.200803202907330e+00	-4.493419777294675e+01
1	 3.456675073998150e-01	 1.207757441207937e+00	-4.566848056843679e+01
1	 3.222213132084613e-01	 1.214222997549946e+00	-4.630153156854458e+01
1	 2.987768451907803e-01	 1.220203449939315e+00	-4.683262566461617e+01
1	 2.753479905397306e-01	 1.225702878585923e+00	-4.726137438025552e+01
1	 2.519483229677927e-01	 1.230725844786310e+00	-4.758771593926374e+01
1	 2.285910845887912e-01	 1.235277369064108e+00	-4.781190417381612e+01
1	 4.647195708304709e-01	 1.173857730084653e+00	-4.146915900759433e+01
1	 4.413669583528400e-01	 1.182836192403096e+00	-4.260187039182720e+01
1	 4.179423177103084e-01	 1.191314597008185e+00	-4.362783268828030e+01
1	 3.944608541116353e-01	 1.199294327738798e+00	-4.454476103226424e+01
1	 3.709375713572466e-01	 1.206777348198544e+00	-4.535078157475772e+01
1	 3.473872462365468e-01	 1.213766184699391e+00	-4.604442620369546e+01
1	 3.238244043126900e-01	 1.220263907988107e+00	-4.662462547879886e+01
1	 3.002632971505673e-01	 1.226274113871676e+00	-4.709069989313261e+01
1	 2.767178810336476e-01	 1.231800902859527e+00	-4.744234958237494e+01
1	 2.532017972053171e-01	 1.236848858941221e+00	-4.767964260906741e+01
1	 2.297283536605614e-01	 1.241423027618114e+00	-4.780300195389430e+01
1	 4.670201627623500e-01	 1.179668906969829e+00	-4.193036860376333e+01
1	 4.435519432915516e-01	 1.188691817121399e+00	-4.306950319638023e+01
1	 4.200113390808985e-01	 1.197212194026364e+00	-4.409007646118192e+01
1	 3.964136306124587e-01	 1.205231428374286e+00	-4.498966304900610e+01
1	 3.727738959628970e-01	 1.212751493489585e+00	-4.576629678808813e+01
1	 3.491069850740392e-01	 1.219774928190726e+00	-4.641846433196130e+01
1	 3.254274954177661e-01	 1.226304818426193e+00	-4.694509682185199e+01
1	 3.017497491112690e-01	 1.232344777803995e+00	-4.734555969250899e+01
1	 2.780877715285269e-01	 1.237898927133113e+00	-4.761964075891251e+01
1	 2.544552714438321e-01	 1.242971873096125e+00	-4.776753672813424e+01
1	 2.308656227333314e-01	 1.247568686172121e+00	-4.778983828574862e+01
1	 4.693207546942497e-01	 1.185480083854516e+00	-4.239505507077894e+01
1	 4.457369282304732e-01	 1.194547441839309e+00	-4.353929735500137e+01
1	 4.220803604518669e-01	 1.203109791044231e+00	-4.455328783042019e+01
1	 3.983664071138084e-01	 1.211168529009536e+00	-4.543446118143162e+01
1	 3.746102205692012e-01	 1.218725638780453e+00	-4.618075912747202e+01
1	 3.508267239122922e-01	 1.225783671681941e+00	-4.679062300480335e+01
1	 3.270305865236900e-01	 1.232345728864203e+00	-4.726298416486289e+01
1	 3.032362010728854e-01	 1.238415441736270e+00	-4.759725233375422e+01
1	 2.794576620243686e-01	 1.243996951406679e+00	-4.779330208670615e+01
1	 2.557087456833377e-01	 1.249094887251025e+00	-4.785145759867066e+01
1	 2.320028918071016e-01	 1.253714344726127e+00	-4.777247583772229e+01
1	 4.716213466261701e-01	 1.191291260738712e+00	-4.286316752760602e+01
1	 4.479219131696051e-01	 1.200403066556823e+00	-4.401122123812015e+01
1	 4.241493818232140e-01	 1.209007388061788e+00	-4.501745263604798e+01
1	 4.003191836156846e-01	 1.217105629644550e+00	-4.587915694979854e+01
1	 3.764465451761590e-01	 1.224699784071148e+00	-4.659418400081825e+01
1	 3.525464627513061e-01	 1.231792415173036e+00	-4.716092972644341e+01
1	 3.286336776304615e-01	 1.238386639302135e+00	-4.757832532246033e+01
1	 3.047226530354167e-01	 1.244486105668503e+00	-4.784582416551682e+01
1	 2.808275525211725e-01	 1.250094975680227e+00	-4.796338668548392e+01
1	 2.569622199238338e-01	 1.255217901405921e+00	-4.793146336576568e+01
1	 2.331401608818716e-01	 1.259860003280134e+00	-4.775097605536217e+01
1	 4.739219385581109e-01	 1.197102437622420e+00	-4.333465608119005e+01
1	 4.501068981089468e-01	 1.206258691273942e+00	-4.448524383033131e+01
1	 4.262184031949395e-01	 1.214904985079035e+00	-4.548255699306932e+01
1	 4.022719601180871e-01	 1.223042730279327e+00	-4.632375184484395e+01
1	 3.782828697837705e-01	 1.230673929361669e+00	-4.700658651685309e+01
1	 3.542662015910805e-01	 1.237801158664011e+00	-4.752941146704033e+01
1	 3.302367687380806e-01	 1.244427549739992e+00	-4.789115737500953e+01
1	 3.062091049988626e-01	 1.250556769600694e+00	-4.809132063647077e+01
1	 2.821974430189387e-01	 1.256192999953756e+00	-4.812994664352375e+01
1	 2.582156941653208e-01	 1.261340915560812e+00	-4.800761104547789e+01
1	 2.342774299576418e-01	 1.266005661834140e+00	-4.772539919109770e+01
1	 4.762225304900723e-01	 1.202913614505637e+00	-4.380947180259394e+01
1	 4.522918830484984e-01	 1.212114315990666e+00	-4.496133471556220e+01
1	 4.282874245670436e-01	 1.220802582095970e+00	-4.594858728479712e+01
1	 4.042247366210159e-01	 1.228979830913867e+00	-4.676824732849894e+01
1	 3.801191943920355e-01	 1.236648074652018e+00	-4.741798149234573e+01
1	 3.559859404316157e-01	 1.243809902154868e+00	-4.789609467559090e+01
1	 3.318398598465474e-01	 1.250468460177773e+00	-4.820151668634545e+01
1	 3.076955569632233e-01	 1.256627433532842e+00	-4.833378631705594e+01
1	 2.835673335176672e-01	 1.262291024227266e+00	-4.829303304256590e+01
1	 2.594691684077982e-01	 1.267463929715698e+00	-4.807995655210686e+01
1	 2.354146990344119e-01	 1.272151320388147e+00	-4.769580433305971e+01
1	 4.785231224220544e-01	 1.208724791388365e+00	-4.428756670382162e+01
1	 4.544768679882601e-01	 1.217969940706995e+00	-4.543946406266414e+01
1	 4.303564459395263e-01	 1.226700179112595e+00	-4.641553015640391e+01
1	 4.061775131244711e-01	 1.234916931548171e+00	-4.721264483458022e+01
1	 3.819555190009544e-01	 1.242622219942193e+00	-4.782838345912955e+01
1	 3.577056792729115e-01	 1.249818645645604e+00	-4.826100529245666e+01
1	 3.334429509558617e-01	 1.256509370615477e+00	-4.850943892099899e+01
1	 3.091820089284987e-01	 1.262698097464947e+00	-4.857326492058616e+01
1	 2.849372240173580e-01	 1.268389048500758e+00	-4.845269598200998e+01
1	 2.607226426512664e-01	 1.273586943870580e+00	-4.814855472467603e+01
1	 2.365519681121820e-01	 1.278296978942153e+00	-4.766224943306919e+01
1	 4.808237143540569e-01	 1.214535968270603e+00	-4.476889371530819e+01
1	 4.566618529282317e-01	 1.223825565422929e+00	-4.591960261141978e+01
1	 4.324254673123873e-01	 1.232597776128909e+00	-4.688337250865644e+01
1	 4.081302896284528e-01	 1.240854032182237e+00	-4.765694576946314e+01
1	 3.837918436105269e-01	 1.248596365232195e+00	-4.823780667091448e+01
1	 3.594254181149679e-01	 1.255827389136221e+00	-4.862416876153352e+01
1	 3.350460420660236e-01	 1.262550281053106e+00	-4.881495906092698e+01
1	 3.106684608946887e-01	 1.268768761397010e+00	-4.880979932375948e+01
1	 2.863071145180112e-01	 1.274487072774230e+00	-4.860898460241555e+01
1	 2.619761168957251e-01	 1.279709958025457e+00	-4.821345935265902e+01
1	 2.376892371909521e-01	 1.284442637496160e+00	-4.762479133382106e+01
1	 4.831243062860801e-01	 1.220347145152352e+00	-4.525340666405138e+01
1	 4.588468378684135e-01	 1.229681190138468e+00	-4.640172165894943e+01
1	 4.344944886856272e-01	 1.238495373144912e+00	-4.735210149183172e+01
1	 4.100830661329607e-01	 1.246791132816066e+00	-4.810115151273498e+01
1	 3.856281682207531e-01	 1.254570510522024e+00	-4.864626510991262e+01
1	 3.611451569577851e-01	 1.261836132626718e+00	-4.898561004207141e+01
1	 3.366491331770333e-01	 1.268591191490658e+00	-4.911811142176172e+01
1	 3.121549128617937e-01	 1.274839425329030e+00	-4.904343158657250e+01
1	 2.876770050196267e-01	 1.280585097047684e+00	-4.876194710833017e+01
1	 2.632295911411746e-01	 1.285832972180329e+00	-4.827472320096782e+01
1	 2.388265062707223e-01	 1.290588296050167e+00	-4.758348579529279e+01
1	 2.274538155180212e-01	 1.229131710510101e+00	-4.781648102380337e+01
1	 2.042678302137041e-01	 1.233196924063451e+00	-4.802425820708552e+01
1	 1.811493612805352e-01	 1.236804313095460e+00	-4.807873323770875e+01
1	 1.581105024744471e-01	 1.239960107823959e+00	-4.798160934711968e+01
1	 1.351629610294562e-01	 1.242670903319327e+00	-4.773501976280200e+01
1	 1.123180473713981e-01	 1.244943635763541e+00	-4.734150269682863e+01
1	 8.958666633593650e-02	 1.246785558630901e+00	-4.680397559998815e+01
1	 6.697930985936418e-02	 1.248204218887413e+00	-4.612570886955091e+01
1	 4.450605110464891e-02	 1.249207433300800e+00	-4.531029919172564e+01
1	 2.217653997970472e-02	 1.249803264947827e+00	-4.436164269171768e+01
1	 0.000000000000000e+00	 1.250000000000000e+00	-4.328390805519023e+01
1	 2.285910845887912e-01	 1.235277369064108e+00	-4.781190417381612e+01
1	 2.052891693583603e-01	 1.239362908684941e+00	-4.792040629075220e+01
1	 1.820551080809982e-01	 1.242988334661858e+00	-4.789391203704506e+01
1	 1.589010549814159e-01	 1.246159908363780e+00	-4.773409602408388e+01
1	 1.358387758297981e-01	 1.248884257836435e+00	-4.744300410081375e+01
1	 1.128796376041085e-01	 1.251168353942711e+00	-4.702303108891078e+01
1	 9.003459966418732e-02	 1.253019486424280e+00	-4.647689791602138e+01
1	 6.731420640600730e-02	 1.254445239981975e+00	-4.580762831138206e+01
1	 4.472858135834938e-02	 1.255453470467359e+00	-4.501852522173249e+01
1	 2.228742267866558e-02	 1.256052281272580e+00	-4.411314709807704e+01
1	 0.000000000000000e+00	 1.256250000000000e+00	-4.309528419563455e+01
1	 2.297283536605614e-01	 1.241423027618114e+00	-4.780300195389430e+01
1	 2.063105085040058e-01	 1.245528893306430e+00	-4.781365767094675e+01
1	 1.829608548824189e-01	 1.249172356228256e+00	-4.770743692819833e+01
1	 1.596916074892901e-01	 1.252359708903599e+00	-4.748598707945725e+01
1	 1.365145906309733e-01	 1.255097612353542e+00	-4.715126833320382e+01
1	 1.134412278375601e-01	 1.257393072121882e+00	-4.670553421553085e+01
1	 9.048253299306791e-02	 1.259253414217659e+00	-4.615131156293458e+01
1	 6.764910295314984e-02	 1.260686261076538e+00	-4.549138018567312e+01
1	 4.495111161240058e-02	 1.261699507633918e+00	-4.472875233661023e+01
1	 2.239830537781054e-02	 1.262301297597333e+00	-4.386665211385960e+01
1	 0.000000000000000e+00	 1.262500000000000e+00	-4.290849491825213e+01
1	 2.308656227333314e-01	 1.247568686172121e+00	-4.778983828574862e+01
1	 2.073318476506408e-01	 1.251694877927920e+00	-4.770405515608422e+01
1	 1.838666016847974e-01	 1.255356377794653e+00	-4.751933235315389e+01
1	 1.604821599980700e-01	 1.258559509443420e+00	-4.723729131552341e+01
1	 1.371904054329817e-01	 1.261310966870651e+00	-4.685980832359893e+01
1	 1.140028180717527e-01	 1.263617790301052e+00	-4.638899767174433e+01
1	 9.093046632257813e-02	 1.265487342011038e+00	-4.582719450135576e+01
1	 6.798399950079179e-02	 1.266927282171100e+00	-4.517693741214337e+01
1	 4.517364186680252e-02	 1.267945544800478e+00	-4.444095096367835e+01
1	 2.250918807713961e-02	 1.268550313922086e+00	-4.362212817341050e+01
1	 0.000000000000000e+00	 1.268750000000000e+00	-4.272351311099210e+01
1	 2.320028918071016e-01	 1.253714344726127e+00	-4.777247583772229e+01
1	 2.083531867982651e-01	 1.257860862549410e+00	-4.759164071519960e+01
1	 1.847723484881337e-01	 1.261540399361052e+00	-4.732962227464172e+01
1	 1.612727125077554e-01	 1.264759309983240e+00	-4.698801736197315e+01
1	 1.378662202358234e-01	 1.267524321387759e+00	-4.656862001673151e+01
1	 1.145644083066865e-01	 1.269842508480223e+00	-4.607340733505603e+01
1	 9.137839965271810e-02	 1.271721269804417e+00	-4.550452512405710e+01
1	 6.831889604893317e-02	 1.273168303265662e+00	-4.486427344149801e+01
1	 4.539617212155518e-02	 1.274191581967037e+00	-4.415509211011244e+01
1	 2.262007077665277e-02	 1.274799330246838e+00	-4.337954629079408e+01
1	 0.000000000000000e+00	 1.275000000000000e+00	-4.254031219341197e+01
1	 2.331401608818716e-01	 1.259860003280134e+00	-4.775097605536217e+01
1	 2.093745259468788e-01	 1.264026847170900e+00	-4.747645549841943e+01
1	 1.856780952924278e-01	 1.267724420927450e+00	-4.713833018782706e+01
1	 1.620632650183464e-01	 1.270959110523060e+00	-4.673817368011166e+01
1	 1.385420350394982e-01	 1.273737675904867e+00	-4.627769943646017e+01
1	 1.151259985423613e-01	 1.276067226659393e+00	-4.575874935853162e+01
1	 9.182633298348773e-02	 1.277955197597795e+00	-4.518328224541576e+01
1	 6.865379259757394e-02	 1.279409324360224e+00	-4.455336224247669e+01
1	 4.561870237665859e-02	 1.280437619133596e+00	-4.387114734880198e+01
1	 2.273095347635003e-02	 1.281048346571592e+00	-4.313887804565333e+01
1	 0.000000000000000e+00	 1.281250000000000e+00	-4.235886610371190e+01
1	 2.342774299576418e-01	 1.266005661834140e+00	-4.772539919109770e+01
1	 2.103958650964818e-01	 1.270192831792389e+00	-4.735853985683868e+01
1	 1.865838420976796e-01	 1.273908442493847e+00	-4.694547913165770e+01
1	 1.628538175298431e-01	 1.277158911062880e+00	-4.648776856694858e+01
1	 1.392178498440063e-01	 1.279951030421975e+00	-4.598704268385143e+01
1	 1.156875887787774e-01	 1.282291944838564e+00	-4.544501016410924e+01
1	 9.227426631488705e-02	 1.284189125391174e+00	-4.486344509117985e+01
1	 6.898868914671415e-02	 1.285650345454787e+00	-4.424417828928038e+01
1	 4.584123263211269e-02	 1.286683656300156e+00	-4.358908880461856e+01
1	 2.284183617623139e-02	 1.287297362896344e+00	-4.290009556948265e+01
1	 0.000000000000000e+00	 1.287500000000000e+00	-4.217914928614625e+01
1	 2.354146990344119e-01	 1.272151320388147e+00	-4.769580433305971e+01
1	 2.114172042470743e-01	 1.276358816413878e+00	-4.723793336182101e+01
1	 1.874895889038893e-01	 1.280092464060245e+00	-4.675109169988462e+01
1	 1.636443700422453e-01	 1.283358711602701e+00	-4.623681015916403e+01
1	 1.398936646493476e-01	 1.286164384939082e+00	-4.569664593531268e+01
1	 1.162491790159345e-01	 1.288516663017734e+00	-4.513217643610526e+01
1	 9.272219964691610e-02	 1.290423053184553e+00	-4.454499328853252e+01
1	 6.932358569635377e-02	 1.291891366549349e+00	-4.393669654936264e+01
1	 4.606376288791754e-02	 1.292929693466715e+00	-4.330888914108426e+01
1	 2.295271887629687e-02	 1.293546379221097e+00	-4.266317153229869e+01
1	 0.000000000000000e+00	 1.293750000000000e+00	-4.200113667880037e+01
1	 2.365519681121820e-01	 1.278296978942153e+00	-4.766224943306919e+01
1	 2.124385433986561e-01	 1.282524801035368e+00	-4.711467482374285e+01
1	 1.883953357110566e-01	 1.286276485626644e+00	-4.655519005176417e+01
1	 1.644349225555531e-01	 1.289558512142521e+00	-4.598530643696371e+01
1	 1.405694794555221e-01	 1.292377739456191e+00	-4.540650544078220e+01
1	 1.168107692538327e-01	 1.294741381196905e+00	-4.482023511490699e+01
1	 9.317013297957484e-02	 1.296656980977931e+00	-4.422790685644146e+01
1	 6.965848224649281e-02	 1.298132387643911e+00	-4.363089247157164e+01
1	 4.628629314407312e-02	 1.299175730633274e+00	-4.303052154742242e+01
1	 2.306360157654643e-02	 1.299795395545850e+00	-4.242807912969410e+01
1	 0.000000000000000e+00	 1.300000000000000e+00	-4.182480370171948e+01
1	 2.376892371909521e-01	 1.284442637496160e+00	-4.762479133382106e+01
1	 2.134598825512273e-01	 1.288690785656858e+00	-4.698880231019750e+01
1	 1.893010825191818e-01	 1.292460507193041e+00	-4.635779592245151e+01
1	 1.652254750697665e-01	 1.295758312682341e+00	-4.573326522782116e+01
1	 1.412452942625299e-01	 1.298591093973299e+00	-4.511661752196925e+01
1	 1.173723594924721e-01	 1.300966099376075e+00	-4.450917339084553e+01
1	 9.361806631286326e-02	 1.302890908771310e+00	-4.391216619628639e+01
1	 6.999337879713126e-02	 1.304373408738474e+00	-4.332674197463432e+01
1	 4.650882340057943e-02	 1.305421767799833e+00	-4.275395972598051e+01
1	 2.317448427698010e-02	 1.306044411870603e+00	-4.219479207026491e+01
1	 0.000000000000000e+00	 1.306250000000000e+00	-4.165012624537822e+01
1	 2.388265062707223e-01	 1.290588296050167e+00	-4.758348579529279e+01
1	 2.144812217047879e-01	 1.294856770278347e+00	-4.686035316368224e+01
1	 1.902068293282647e-01	 1.298644528759439e+00	-4.615893063309802e+01
1	 1.660160275848855e-01	 1.301958113222162e+00	-4.548069421011744e+01
1	 1.419211090703709e-01	 1.304804448490407e+00	-4.482697857064704e+01
1	 1.179339497318526e-01	 1.307190817555246e+00	-4.419897869824666e+01
1	 9.406599964678142e-02	 1.309124836564689e+00	-4.359775208275445e+01
1	 7.032827534826916e-02	 1.310614429833036e+00	-4.302422143596787e+01
1	 4.673135365743648e-02	 1.311667804966393e+00	-4.247917788001448e+01
1	 2.328536697759787e-02	 1.312293428195356e+00	-4.196328456339542e+01
1	 0.000000000000000e+00	 1.312500000000000e+00	-4.147708065947998e+01
1	 1.312500000000000e+00	 0.000000000000000e+00	 1.794060164263358e+01
1	 1.312293428195356e+00	 2.328536697759712e-02	 1.793287787446275e+01
1	 1.311667804966393e+00	 4.673135365743582e-02	 1.789131068033499e+01
1	 1.310614429833036e+00	 7.032827534826856e-02	 1.781396897674273e+01
1	 1.309124836564689e+00	 9.406599964678088e-02	 1.769892349563577e+01
1	 1.307190817555246e+00	 1.179339497318521e-01	 1.754425342154037e+01
1	 1.304804448490407e+00	 1.419211090703706e-01	 1.734805335320350e+01
1	 1.301958113222162e+00	 1.660160275848852e-01	 1.710844056876093e+01
1	 1.298644528759440e+00	 1.902068293282645e-01	 1.682356256979995e+01
1	 1.294856770278348e+00	 2.144812217047878e-01	 1.649160487602374e+01
1	 1.290588296050166e+00	 2.388265062707223e-01	 1.611079903856073e+01
1	 1.318750000000000e+00	 0.000000000000000e+00	 1.768975240027933e+01
1	 1.318542444520106e+00	 2.339624967821717e-02	 1.767752146603589e+01
1	 1.317913842132943e+00	 4.695388391430206e-02	 1.763065854275064e+01
1	 1.316855450927578e+00	 7.066317189942732e-02	 1.754730579273724e+01
1	 1.315358764358031e+00	 9.451393298073640e-02	 1.742561298915628e+01
1	 1.313415535734358e+00	 1.184955399712914e-01	 1.726374413945022e+01
1	 1.311017803007430e+00	 1.425969238782968e-01	 1.705988440501346e+01
1	 1.308157913761866e+00	 1.668065801001209e-01	 1.681224729465762e+01
1	 1.304828550325684e+00	 1.911125761375009e-01	 1.651908210593480e+01
1	 1.301022754899642e+00	 2.155025608585438e-01	 1.617868158486809e+01
1	 1.296733954603930e+00	 2.399637753507351e-01	 1.578938977115260e+01
1	 1.325000000000000e+00	 0.000000000000000e+00	 1.744138629484159e+01
1	 1.324791460844852e+00	 2.350713237865770e-02	 1.742509012731325e+01
1	 1.324159879299474e+00	 4.717641417083602e-02	 1.737338416538296e+01
1	 1.323096472022077e+00	 7.099806845012840e-02	 1.728448335731081e+01
1	 1.321592692151297e+00	 9.496186631413696e-02	 1.715661601956738e+01
1	 1.319640253913352e+00	 1.190571302101072e-01	 1.698803044656970e+01
1	 1.317231157524282e+00	 1.432727386855602e-01	 1.677700178852608e+01
1	 1.314357714301335e+00	 1.675971326146845e-01	 1.652183917351779e+01
1	 1.311012571891621e+00	 1.920183229460863e-01	 1.622089304657943e+01
1	 1.307188739520545e+00	 2.165239000117011e-01	 1.587256269517835e+01
1	 1.302879613157208e+00	 2.411010444302331e-01	 1.547530392717849e+01
1	 1.331250000000000e+00	 0.000000000000000e+00	 1.719546835255500e+01
1	 1.331040477169594e+00	 2.361801507891870e-02	 1.717554266012491e+01
1	 1.330405916465988e+00	 4.739894442703767e-02	 1.711943997413982e+01
1	 1.329337493116535e+00	 7.133296500037184e-02	 1.702544757540943e+01
1	 1.327826619944489e+00	 9.540979964698258e-02	 1.689187183282564e+01
1	 1.325864972092228e+00	 1.196187204482994e-01	 1.671704479938704e+01
1	 1.323444512040963e+00	 1.439485534921608e-01	 1.649933104836456e+01
1	 1.320557514840572e+00	 1.683876851285760e-01	 1.623713472431412e+01
1	 1.317196593457252e+00	 1.929240697540210e-01	 1.592890678040454e+01
1	 1.313354724141057e+00	 2.175452391642600e-01	 1.557315237031734e+01
1	 1.309025271710002e+00	 2.422383135092166e-01	 1.516843835983414e+01
1	 1.337500000000000e+00	 0.000000000000000e+00	 1.695196425336955e+01
1	 1.337289493494331e+00	 2.372889777900018e-02	 1.692883863636007e+01
1	 1.336651953632483e+00	 4.762147468290704e-02	 1.686877928416481e+01
1	 1.335578514210952e+00	 7.166786155015764e-02	 1.677014536310162e+01
1	 1.334060547737606e+00	 9.585773297927327e-02	 1.663132081047723e+01
1	 1.332089690270987e+00	 1.201803106858681e-01	 1.645072091688607e+01
1	 1.329657866557475e+00	 1.446243682980987e-01	 1.622679912084145e+01
1	 1.326757315379575e+00	 1.691782376417955e-01	 1.595805398902937e+01
1	 1.323380615022576e+00	 1.938298165613047e-01	 1.564303635236718e+01
1	 1.319520708761180e+00	 2.185665783162201e-01	 1.528035656498670e+01
1	 1.315170930262309e+00	 2.433755825876853e-01	 1.486869185029269e+01
1	 1.343750000000000e+00	 0.000000000000000e+00	 1.671084031574794e+01
1	 1.343538509819063e+00	 2.383978047890213e-02	 1.668493838005909e+01
1	 1.342897990798959e+00	 4.784400493844411e-02	 1.662135627915692e+01
1	 1.341819535305325e+00	 7.200275809948578e-02	 1.651852462406416e+01
1	 1.340294475530649e+00	 9.630566631100902e-02	 1.637490444324908e+01
1	 1.338314408449628e+00	 1.207419009228132e-01	 1.618899375118591e+01
1	 1.335871221073816e+00	 1.453001831033738e-01	 1.595933430159367e+01
1	 1.332957115918344e+00	 1.699687901543429e-01	 1.568451849723720e+01
1	 1.329564636587593e+00	 1.947355633679376e-01	 1.536319642519263e+01
1	 1.325686693380910e+00	 2.195879174675818e-01	 1.499408298356796e+01
1	 1.321316588814132e+00	 2.445128516656394e-01	 1.457596506286808e+01
1	 1.350000000000000e+00	 0.000000000000000e+00	 1.647206348188519e+01
1	 1.349787526143790e+00	 2.395066317862456e-02	 1.644380295000239e+01
1	 1.349144027965417e+00	 4.806653519364887e-02	 1.637712599126536e+01
1	 1.348060556399658e+00	 7.233765464835626e-02	 1.627053422672051e+01
1	 1.346528403323616e+00	 9.675359964218985e-02	 1.612256530537315e+01
1	 1.344539126628152e+00	 1.213034911591349e-01	 1.593179945899612e+01
1	 1.342084575589987e+00	 1.459759979079862e-01	 1.569686621411684e+01
1	 1.339156916456880e+00	 1.707593426662181e-01	 1.541645123166724e+01
1	 1.335748658152303e+00	 1.956413101739195e-01	 1.508930324192597e+01
1	 1.331852678000251e+00	 2.206092566183448e-01	 1.471424103962058e+01
1	 1.327462247365469e+00	 2.456501207430789e-01	 1.429016050142383e+01
1	 1.356250000000000e+00	 0.000000000000000e+00	 1.623560130333682e+01
1	 1.356036542468514e+00	 2.406154587816746e-02	 1.620539412278103e+01
1	 1.355390065131856e+00	 4.828906544852134e-02	 1.613604428153990e+01
1	 1.354301577493950e+00	 7.267255119676910e-02	 1.602612398201189e+01
1	 1.352762331116509e+00	 9.720153297281571e-02	 1.587424702962104e+01
1	 1.350763844806558e+00	 1.218650813948331e-01	 1.567907537386110e+01
1	 1.348297930105987e+00	 1.466518127119358e-01	 1.543932577916934e+01
1	 1.345356716995183e+00	 1.715498951774213e-01	 1.515377659472242e+01
1	 1.341932679716706e+00	 1.965470569792506e-01	 1.482127458951931e+01
1	 1.338018662619200e+00	 2.216305957685092e-01	 1.444074181650013e+01
1	 1.333607905916321e+00	 2.467873898200036e-01	 1.401118246698701e+01
1	 1.362500000000000e+00	 0.000000000000000e+00	 1.600142192704282e+01
1	 1.362285558793233e+00	 2.417242857753083e-02	 1.596967437633311e+01
1	 1.361636102298277e+00	 4.851159570306152e-02	 1.589806782091940e+01
1	 1.360542598588199e+00	 7.300744774472430e-02	 1.578524462177969e+01
1	 1.358996258909327e+00	 9.764946630288662e-02	 1.562989428302547e+01
1	 1.356988562984846e+00	 1.224266716299077e-01	 1.543075997916860e+01
1	 1.354511284621816e+00	 1.473276275152226e-01	 1.518664518501847e+01
1	 1.351556517533252e+00	 1.723404476879523e-01	 1.489642037591739e+01
1	 1.348116701280803e+00	 1.974528037839308e-01	 1.455902976342084e+01
1	 1.344184647237759e+00	 2.226519349180751e-01	 1.417349802906006e+01
1	 1.339753564466688e+00	 2.479246588964137e-01	 1.373893701652904e+01
1	 1.368750000000000e+00	 0.000000000000000e+00	 1.576949408173428e+01
1	 1.368534575117946e+00	 2.428331127671468e-02	 1.573660687393131e+01
1	 1.367882139464680e+00	 4.873412595726941e-02	 1.566315407174124e+01
1	 1.366783619682406e+00	 7.334234429222182e-02	 1.554784777774053e+01
1	 1.365230186702071e+00	 9.809739963240263e-02	 1.538945274326709e+01
1	 1.363213281163017e+00	 1.229882618643588e-01	 1.518679288189744e+01
1	 1.360724639137475e+00	 1.480034423178466e-01	 1.493875785850213e+01
1	 1.357756318071087e+00	 1.731310001978114e-01	 1.464430972020955e+01
1	 1.354300722844592e+00	 1.983585505879601e-01	 1.430248953313459e+01
1	 1.350350631855927e+00	 2.236732740670422e-01	 1.391242398640298e+01
1	 1.345899223016569e+00	 2.490619279723092e-01	 1.347333192287550e+01
1	 1.375000000000000e+00	 0.000000000000000e+00	 1.553978706471100e+01
1	 1.374783591442656e+00	 2.439419397571901e-02	 1.550615544860715e+01
1	 1.374128176631065e+00	 4.895665621114498e-02	 1.543126126975494e+01
1	 1.373024640776572e+00	 7.367724083926172e-02	 1.531388596103434e+01
1	 1.371464114494739e+00	 9.854533296136368e-02	 1.515286907570503e+01
1	 1.369437999341071e+00	 1.235498520981864e-01	 1.494711478708152e+01
1	 1.366937993652964e+00	 1.486792571198079e-01	 1.469559843687933e+01
1	 1.363956118608690e+00	 1.739215527069983e-01	 1.439737309719337e+01
1	 1.360484744408075e+00	 1.992642973913386e-01	 1.405157610871880e+01
1	 1.356516616473704e+00	 2.246946132154110e-01	 1.365743555564766e+01
1	 1.352044881565965e+00	 2.501991970476900e-01	 1.321427663570955e+01
1	 1.290588296050166e+00	 2.388265062707223e-01	 1.611079903856073e+01
1	 1.285832972180329e+00	 2.632295911411738e-01	 1.609638548913657e+01
1	 1.280585097047684e+00	 2.876770050196261e-01	 1.600905113641535e+01
1	 1.274839425329030e+00	 3.121549128617932e-01	 1.585010652073992e+01
1	 1.268591191490658e+00	 3.366491331770328e-01	 1.562111004040585e+01
1	 1.261836132626718e+00	 3.611451569577848e-01	 1.532387000998421e+01
1	 1.254570510522024e+00	 3.856281682207529e-01	 1.496044557349930e+01
1	 1.246791132816067e+00	 4.100830661329606e-01	 1.453314641732576e+01
1	 1.238495373144913e+00	 4.344944886856272e-01	 1.404453123450663e+01
1	 1.229681190138468e+00	 4.588468378684135e-01	 1.349740489986290e+01
1	 1.220347145152351e+00	 4.831243062860801e-01	 1.289481432371887e+01
1	 1.296733954603930e+00	 2.399637753507351e-01	 1.578938977115260e+01
1	 1.291955986334910e+00	 2.644830653869112e-01	 1.578171957363750e+01
1	 1.286683121320804e+00	 2.890468955215656e-01	 1.570371892883393e+01
1	 1.280910089260678e+00	 3.136413648292485e-01	 1.555649020674912e+01
1	 1.274632101927805e+00	 3.382522242884095e-01	 1.534136914326763e+01
1	 1.267844876116782e+00	 3.628648958009760e-01	 1.505992726687172e+01
1	 1.260544655811395e+00	 3.874644928313499e-01	 1.471397326599060e+01
1	 1.252728233449420e+00	 4.120358426378261e-01	 1.430555324278936e+01
1	 1.244392970160427e+00	 4.365635100592008e-01	 1.383694980540225e+01
1	 1.235536814853510e+00	 4.610318228088950e-01	 1.331067995759875e+01
1	 1.226158322033599e+00	 4.854248982183585e-01	 1.272949175261085e+01
1	 1.302879613157208e+00	 2.411010444302331e-01	 1.547530392717849e+01
1	 1.298079000488916e+00	 2.657365396322340e-01	 1.547329629054329e+01
1	 1.292781145593277e+00	 2.904167860231908e-01	 1.540352102489492e+01
1	 1.286980753191626e+00	 3.151278167964899e-01	 1.526687373965100e+01
1	 1.280673012364218e+00	 3.398553153996730e-01	 1.506446901673085e+01
1	 1.273853619606097e+00	 3.645846346441547e-01	 1.479764320382053e+01
1	 1.266518801100025e+00	 3.893008174420352e-01	 1.446795623352951e+01
1	 1.258665334082059e+00	 4.139886191428804e-01	 1.407719241519081e+01
1	 1.250290567175273e+00	 4.386325314330636e-01	 1.362736015160699e+01
1	 1.241392439567952e+00	 4.632168077497661e-01	 1.312069053934829e+01
1	 1.231969498914337e+00	 4.877254901511262e-01	 1.255963481823927e+01
1	 1.309025271710002e+00	 2.422383135092166e-01	 1.516843835983414e+01
1	 1.304202014642346e+00	 2.669900138771422e-01	 1.517102771545830e+01
1	 1.298879169865101e+00	 2.917866765245016e-01	 1.510838511046659e+01
1	 1.293051417121872e+00	 3.166142687635176e-01	 1.498120078357732e+01
1	 1.286713922799896e+00	 3.414584065108233e-01	 1.479036964994492e+01
1	 1.279862363094664e+00	 3.663043734873209e-01	 1.453699445914186e+01
1	 1.272492946387913e+00	 3.911371420528085e-01	 1.422238806379288e+01
1	 1.264602434713982e+00	 4.159413956481234e-01	 1.384807474654586e+01
1	 1.256188164189451e+00	 4.407015528072157e-01	 1.341579055797584e+01
1	 1.247248064281795e+00	 4.654017926910268e-01	 1.292748262364629e+01
1	 1.237780675794566e+00	 4.900260820843841e-01	 1.238530738487496e+01
1	 1.315170930262309e+00	 2.433755825876853e-01	 1.486869185029269e+01
1	 1.310325028795200e+00	 2.682434881216357e-01	 1.487482756743341e+01
1	 1.304977194136277e+00	 2.931565670254980e-01	 1.481824022308307e+01
1	 1.299122081051418e+00	 3.181007207303314e-01	 1.469941605566667e+01
1	 1.292754833234839e+00	 3.430614976218603e-01	 1.451903177992544e+01
1	 1.285871106582482e+00	 3.680241123304743e-01	 1.427795810781395e+01
1	 1.278467091675059e+00	 3.929734666636698e-01	 1.397726246431411e+01
1	 1.270539535345190e+00	 4.178941721535551e-01	 1.361821084677660e+01
1	 1.262085761202962e+00	 4.427705741816572e-01	 1.320226878067501e+01
1	 1.253103688995038e+00	 4.675867776326771e-01	 1.273110132961569e+01
1	 1.243591852674283e+00	 4.923266740181315e-01	 1.220657212306405e+01
1	 1.321316588814132e+00	 2.445128516656394e-01	 1.457596506286808e+01
1	 1.316448042947478e+00	 2.694969623657147e-01	 1.458461117074632e+01
1	 1.311075218406805e+00	 2.945264575261802e-01	 1.453301672051035e+01
1	 1.305192744980262e+00	 3.195871726969313e-01	 1.442146530157591e+01
1	 1.298795743669048e+00	 3.446645887327842e-01	 1.425041687416218e+01
1	 1.291879850069553e+00	 3.697438511736153e-01	 1.402051165132703e+01
1	 1.284441236961463e+00	 3.948097912746193e-01	 1.373257325969570e+01
1	 1.276476635975684e+00	 4.198469486591758e-01	 1.338761112841109e+01
1	 1.267983358215805e+00	 4.448395955563878e-01	 1.298682205947692e+01
1	 1.258959313707681e+00	 4.697717625747170e-01	 1.253159093695399e+01
1	 1.249403029553489e+00	 4.946272659523686e-01	 1.202349053738907e+01
1	 1.327462247365469e+00	 2.456501207430789e-01	 1.429016050142383e+01
1	 1.322571057099179e+00	 2.707504366093789e-01	 1.430029541774341e+01
1	 1.317173242676686e+00	 2.958963480265481e-01	 1.425264625018515e+01
1	 1.311263408908406e+00	 3.210736246633174e-01	 1.414729527167182e+01
1	 1.304836654102523e+00	 3.462676798435946e-01	 1.398448711370978e+01
1	 1.297888593555875e+00	 3.714635900167438e-01	 1.376463300781035e+01
1	 1.290415382247125e+00	 3.966461158856571e-01	 1.348831438889939e+01
1	 1.282413736605462e+00	 4.217997251649850e-01	 1.315628581115301e+01
1	 1.273880955227980e+00	 4.469086169314079e-01	 1.276947712971378e+01
1	 1.264814938419724e+00	 4.719567475171465e-01	 1.232899490536428e+01
1	 1.255214206432187e+00	 4.969278578870955e-01	 1.183612299345888e+01
1	 1.333607905916321e+00	 2.467873898200036e-01	 1.401118246698701e+01
1	 1.328694071250305e+00	 2.720039108526287e-01	 1.402179873270930e+01
1	 1.323271266945917e+00	 2.972662385266016e-01	 1.397706171949929e+01
1	 1.317334072835849e+00	 3.225600766294896e-01	 1.387685369788121e+01
1	 1.310877564535264e+00	 3.478707709542920e-01	 1.372120537674623e+01
1	 1.303897337041450e+00	 3.731833288598597e-01	 1.351030050243227e+01
1	 1.296389527532046e+00	 3.984824404967829e-01	 1.324447990261107e+01
1	 1.288350837234525e+00	 4.237525016709830e-01	 1.292424492632427e+01
1	 1.279778552239487e+00	 4.489776383067170e-01	 1.255026023390071e+01
1	 1.270670563131168e+00	 4.741417324599657e-01	 1.212335589344916e+01
1	 1.261025383310373e+00	 4.992284498223120e-01	 1.164452874415229e+01
1	 1.339753564466688e+00	 2.479246588964137e-01	 1.373893701652904e+01
1	 1.334817085400855e+00	 2.732573850954637e-01	 1.374904103673052e+01
1	 1.329369291214502e+00	 2.986361290263408e-01	 1.370619726690143e+01
1	 1.323404736762591e+00	 3.240465285954480e-01	 1.361008927117797e+01
1	 1.316918474967270e+00	 3.494738620648761e-01	 1.346053522258385e+01
1	 1.309906080526277e+00	 3.749030677029628e-01	 1.325749285806443e+01
1	 1.302363672816225e+00	 4.003187651079968e-01	 1.300106396067841e+01
1	 1.294287937862873e+00	 4.257052781771698e-01	 1.269149832118585e+01
1	 1.285676149250327e+00	 4.510466596823156e-01	 1.232919713303870e+01
1	 1.276526187842013e+00	 4.763267174031744e-01	 1.191471577708473e+01
1	 1.266836560188049e+00	 5.015290417580184e-01	 1.144876595513933e+01
1	 1.345899223016569e+00	 2.490619279723092e-01	 1.347333192287550e+01
1	 1.340940099550829e+00	 2.745108593378843e-01	 1.348194371352209e+01
1	 1.335467315482438e+00	 3.000060195257656e-01	 1.343998823379086e+01
1	 1.329475400688631e+00	 3.255329805611925e-01	 1.334695161968705e+01
1	 1.322959385398542e+00	 3.510769531753470e-01	 1.320244087611824e+01
1	 1.315914824010355e+00	 3.766228065460536e-01	 1.300618918620174e+01
1	 1.308337818099662e+00	 4.021550897192988e-01	 1.275806082961843e+01
1	 1.300225038490506e+00	 4.276580546835455e-01	 1.245805566314019e+01
1	 1.291573746260498e+00	 4.531156810582033e-01	 1.210631311760832e+01
1	 1.282381812552258e+00	 4.785117023467728e-01	 1.170311566729080e+01
1	 1.272647737065215e+00	 5.038296336942143e-01	 1.124889172970350e+01
1	 1.352044881565965e+00	 2.501991970476900e-01	 1.321427663570955e+01
1	 1.347063113700226e+00	 2.757643335798901e-01	 1.322042957618580e+01
1	 1.341565339749727e+00	 3.013759100248763e-01	 1.317837113717761e+01
1	 1.335546064613972e+00	 3.270194325267234e-01	 1.308739128738559e+01
1	 1.329000295829080e+00	 3.526800442857046e-01	 1.294688721270129e+01
1	 1.321923567493685e+00	 3.783425453891318e-01	 1.275636897813013e+01
1	 1.314311963382357e+00	 4.039914143306890e-01	 1.251546488019339e+01
1	 1.306162139117423e+00	 4.296108311901097e-01	 1.222392644381866e+01
1	 1.297471343270002e+00	 4.551847024343806e-01	 1.188163301826321e+01
1	 1.288237437261903e+00	 4.806966872907608e-01	 1.148859592761425e+01
1	 1.278458913941872e+00	 5.061302256309002e-01	 1.104496213288672e+01
1	 1.220347145152351e+00	 4.831243062860801e-01	 1.289481432371887e+01
1	 1.210492418616161e+00	 5.073109051481485e-01	 1.230174246182180e+01
1	 1.200116824884327e+00	 5.313904935553466e-01	 1.166688165609900e+01
1	 1.189220825479669e+00	 5.553468089916533e-01	 1.099054302463735e+01
1	 1.177805540625447e+00	 5.791634989208891e-01	 1.027314455616804e+01
1	 1.165872758969277e+00	 6.028241533816298e-01	 9.515212173390765e+00
1	 1.153424945409339e+00	 6.263123384614093e-01	 8.717380319329704e+00
1	 1.140465246942069e+00	 6.496116305235261e-01	 7.880392049422701e+00
1	 1.126997496460084e+00	 6.727056510518903e-01	 7.005098615383559e+00
1	 1.113026214439379e+00	 6.955781019722753e-01	 6.092458530465731e+00
1	 1.098556608465972e+00	 7.182128013021298e-01	 5.143536109556100e+00
1	 1.226158322033599e+00	 4.854248982183585e-01	 1.272949175261085e+01
1	 1.216256668227679e+00	 5.097266713601056e-01	 1.214437127854722e+01
1	 1.205831666906254e+00	 5.339209244735311e-01	 1.151521261797306e+01
1	 1.194883781789874e+00	 5.579913176020634e-01	 1.084247844029549e+01
1	 1.183414138436196e+00	 5.819214203403049e-01	 1.012674893213581e+01
1	 1.171424534010207e+00	 6.056947445841594e-01	 9.368722427819893e+00
1	 1.158917445147699e+00	 6.292947781644367e-01	 8.569215497957526e+00
1	 1.145896033830808e+00	 6.527050192366423e-01	 7.729162480246637e+00
1	 1.132364151204019e+00	 6.759090112917536e-01	 6.849614440550517e+00
1	 1.118326339269404e+00	 6.988903786456683e-01	 5.931737556452656e+00
1	 1.103787830411013e+00	 7.216328622587757e-01	 4.976810919856643e+00
1	 1.231969498914337e+00	 4.877254901511262e-01	 1.255963481823927e+01
1	 1.222020917838783e+00	 5.121424375726427e-01	 1.198314638761887e+01
1	 1.211546508927853e+00	 5.364513553923669e-01	 1.136039033322334e+01
1	 1.200546738099826e+00	 5.606358262131770e-01	 1.069197982410141e+01
1	 1.189022736246758e+00	 5.846793417604563e-01	 9.978656127899090e+00
1	 1.176976309051008e+00	 6.085653357874372e-01	 9.221288811017263e+00
1	 1.164409944885977e+00	 6.322772178682041e-01	 8.420875332272111e+00
1	 1.151326820719500e+00	 6.557984079504705e-01	 7.578540015623640e+00
1	 1.137730805947933e+00	 6.791123715322809e-01	 6.695532392015671e+00
1	 1.123626464099425e+00	 7.022026553196564e-01	 5.773224905095421e+00
1	 1.109019052356053e+00	 7.250529232159268e-01	 4.813109980502002e+00
1	 1.237780675794566e+00	 4.900260820843841e-01	 1.238530738487496e+01
1	 1.227785167449470e+00	 5.145582037857600e-01	 1.181812206660903e+01
1	 1.217261350949121e+00	 5.389817863118544e-01	 1.120245921377403e+01
1	 1.206209694409525e+00	 5.632803348249937e-01	 1.053908145819381e+01
1	 1.194631334057134e+00	 5.874372631813432e-01	 9.828890047404505e+00
1	 1.182528084091679e+00	 6.114359269914629e-01	 9.072924616943862e+00
1	 1.169902444624171e+00	 6.352596575727122e-01	 8.272362291911465e+00
1	 1.156757607608145e+00	 6.588917966650112e-01	 7.428516104784986e+00
1	 1.143097460691826e+00	 6.823157317734723e-01	 6.542832721520755e+00
1	 1.128926588929440e+00	 7.055149319942393e-01	 5.616889473257212e+00
1	 1.114250274301094e+00	 7.284729841735833e-01	 4.652390696415670e+00
1	 1.243591852674283e+00	 4.923266740181315e-01	 1.220657212306405e+01
1	 1.233549417059744e+00	 5.169739699994577e-01	 1.164935157855605e+01
1	 1.222976192970061e+00	 5.415122172319934e-01	 1.104146284141996e+01
1	 1.211872650718971e+00	 5.659248434375140e-01	 1.038381698392394e+01
1	 1.200239931867323e+00	 5.901951846029659e-01	 9.677474147795891e+00
1	 1.188079859132219e+00	 6.143065181962365e-01	 8.923642891075382e+00
1	 1.175394944362282e+00	 6.382420972779603e-01	 8.123678800352247e+00
1	 1.162188394496743e+00	 6.619851853802644e-01	 7.279082356789324e+00
1	 1.148464115435698e+00	 6.855190920153277e-01	 6.391496049933664e+00
1	 1.134226713759450e+00	 7.088272086694172e-01	 5.462700739168312e+00
1	 1.119481496246134e+00	 7.318930451317450e-01	 4.494611268691042e+00
1	 1.249403029553489e+00	 4.946272659523686e-01	 1.202349053738907e+01
1	 1.239313666669602e+00	 5.193897362137354e-01	 1.147688719555798e+01
1	 1.228691034990672e+00	 5.440426481527839e-01	 1.087744398713180e+01
1	 1.217535607028164e+00	 5.685693520507380e-01	 1.022621941675732e+01
1	 1.205848529677326e+00	 5.929531060253246e-01	 9.524431449805128e+00
1	 1.193631634172630e+00	 6.171771094017584e-01	 8.773456436181053e+00
1	 1.180887444100310e+00	 6.412245369839490e-01	 7.974827235982966e+00
1	 1.167619181385294e+00	 6.650785740962296e-01	 7.130230536806057e+00
1	 1.153830770179549e+00	 6.887224522578466e-01	 6.241503358664476e+00
1	 1.139526838589454e+00	 7.121394853451900e-01	 5.310628748905704e+00
1	 1.124712718191175e+00	 7.353131060904122e-01	 4.339730676075591e+00
1	 1.255214206432187e+00	 4.969278578870955e-01	 1.183612299345888e+01
1	 1.245077916279045e+00	 5.218055024285934e-01	 1.130078022171119e+01
1	 1.234405877010954e+00	 5.465730790742260e-01	 1.071044462982543e+01
1	 1.223198563337104e+00	 5.712138606646651e-01	 1.006632116076205e+01
1	 1.211457127487143e+00	 5.957110274484186e-01	 9.369784547854247e+00
1	 1.199183409212911e+00	 6.200477006080283e-01	 8.622377817941720e+00
1	 1.186379943838253e+00	 6.442069766906778e-01	 7.825809933148101e+00
1	 1.173049968273797e+00	 6.681719628129074e-01	 6.981952562501261e+00
1	 1.159197424923379e+00	 6.919258125010295e-01	 6.092835981319344e+00
1	 1.144826963419454e+00	 7.154517620215577e-01	 5.160644103248822e+00
1	 1.129943940136216e+00	 7.387331670495848e-01	 4.187708656969566e+00
1	 1.261025383310373e+00	 4.992284498223120e-01	 1.164452874415229e+01
1	 1.250842165888073e+00	 5.242212686440315e-01	 1.112108101541434e+01
1	 1.240120719030906e+00	 5.491035099963195e-01	 1.054050597461155e+01
1	 1.228861519645791e+00	 5.738583692792957e-01	 9.904154022696144e+00
1	 1.217065725296773e+00	 5.984689488722483e-01	 9.213555619878154e+00
1	 1.204735184253062e+00	 6.229182918150461e-01	 8.470419370412770e+00
1	 1.191872443576114e+00	 6.471894163981470e-01	 7.676629183162662e+00
1	 1.178480755162254e+00	 6.712653515302975e-01	 6.834240500524118e+00
1	 1.164564079667188e+00	 6.951291727448764e-01	 5.945475595585293e+00
1	 1.150127088249448e+00	 7.187640386985205e-01	 5.012717944898333e+00
1	 1.135175162081257e+00	 7.421532280092624e-01	 4.038505691922684e+00
1	 1.266836560188049e+00	 5.015290417580184e-01	 1.144876595513933e+01
1	 1.256606415496686e+00	 5.266370348600500e-01	 1.093783901105889e+01
1	 1.245835561050529e+00	 5.516339409190646e-01	 1.036766847054405e+01
1	 1.234524475954226e+00	 5.765028778946298e-01	 9.739749225707458e+00
1	 1.222674323106217e+00	 6.012268702968138e-01	 9.055766436877237e+00
1	 1.210286959293083e+00	 6.257888830228119e-01	 8.317593201336717e+00
1	 1.197364943313891e+00	 6.501718561063564e-01	 7.527287235299145e+00
1	 1.183911542050663e+00	 6.743587402483997e-01	 6.687086563090038e+00
1	 1.169930734410976e+00	 6.983325329893871e-01	 5.799404215338875e+00
1	 1.155427213079437e+00	 7.220763153760781e-01	 4.866821946046518e+00
1	 1.140406384026297e+00	 7.455732889694454e-01	 3.892082986612145e+00
1	 1.272647737065215e+00	 5.038296336942143e-01	 1.124889172970350e+01
1	 1.262370665104885e+00	 5.290528010766486e-01	 1.075110274012503e+01
1	 1.251550403069823e+00	 5.541643718424611e-01	 1.019197182788119e+01
1	 1.240187432262408e+00	 5.791473865106674e-01	 9.573137422657981e+00
1	 1.228282920915474e+00	 6.039847917221149e-01	 8.896438372208053e+00
1	 1.215838734332974e+00	 6.286594742313260e-01	 8.163911197310000e+00
1	 1.202857443051585e+00	 6.531542958153062e-01	 7.377786297747479e+00
1	 1.189342328939026e+00	 6.774521289672144e-01	 6.540483104656956e+00
1	 1.175297389154743e+00	 7.015358932345620e-01	 5.654604182970010e+00
1	 1.160727337909421e+00	 7.253885920542307e-01	 4.722928296288563e+00
1	 1.145637605971338e+00	 7.489933499301337e-01	 3.748402455287458e+00
1	 1.278458913941872e+00	 5.061302256309002e-01	 1.104496213288672e+01
1	 1.268134914712668e+00	 5.314685672938273e-01	 1.056091985170246e+01
1	 1.257265245088787e+00	 5.566948027665093e-01	 1.001345503487668e+01
1	 1.245850388570336e+00	 5.817918951274083e-01	 9.404348709084978e+00
1	 1.233891518724545e+00	 6.067427131481519e-01	 8.735592410620626e+00
1	 1.221390509372735e+00	 6.315300654405880e-01	 8.009385028809202e+00
1	 1.208349942789196e+00	 6.561367355249965e-01	 7.228128538548717e+00
1	 1.194773115827342e+00	 6.805455176867415e-01	 6.394422618692744e+00
1	 1.180664043898490e+00	 7.047392534804007e-01	 5.511058161916374e+00
1	 1.166027462739399e+00	 7.287008687329783e-01	 4.581009690863650e+00
1	 1.150868827916379e+00	 7.524134108913275e-01	 3.607426704666176e+00
1	 1.098556608465972e+00	 7.182128013021298e-01	 5.143536109556100e+00
1	 1.083594570564393e+00	 7.405937189764126e-01	 3.699428480922246e+00
1	 1.068146672300861e+00	 7.627050126905897e-01	 2.243338378955479e+00
1	 1.052220157649077e+00	 7.845310636016593e-01	 7.768131024898600e-01
1	 1.035822933619861e+00	 8.060565117259884e-01	-6.985644249472520e-01
1	 1.018963558666840e+00	 8.272662908695000e-01	-2.181180145779696e+00
1	 1.001651228895778e+00	 8.481456629284566e-01	-3.669393544999152e+00
1	 9.838957621181963e-01	 8.686802514003705e-01	-5.161542487496330e+00
1	 9.657075798032695e-01	 8.888560739476630e-01	-6.655948189326010e+00
1	 9.470976869950806e-01	 9.086595738610254e-01	-8.150920294834814e+00
1	 9.280776502750000e-01	 9.280776502750000e-01	-9.644762030546923e+00
1	 1.103787830411013e+00	 7.216328622587757e-01	 4.976810919856643e+00
1	 1.088754544710532e+00	 7.441203557322817e-01	 3.526591814434688e+00
1	 1.073233085027249e+00	 7.663369413219960e-01	 2.066705332014123e+00
1	 1.057230729829979e+00	 7.882669258094729e-01	 5.987805229644187e-01
1	 1.040755423781972e+00	 8.098948760682998e-01	-8.755257727512586e-01
1	 1.023815766091398e+00	 8.312056541606180e-01	-2.354533811596151e+00
1	 1.006420996655000e+00	 8.521844518012427e-01	-3.836545979458269e+00
1	 9.885809800357809e-01	 8.728168240281502e-01	-5.319851943515000e+00
1	 9.703061873289587e-01	 8.930887219212011e-01	-6.802733893642060e+00
1	 9.516076759835886e-01	 9.129865242153282e-01	-8.283471843103445e+00
1	 9.324970676600002e-01	 9.324970676599998e-01	-9.760348957592189e+00
1	 1.109019052356053e+00	 7.250529232159268e-01	 4.813109980502002e+00
1	 1.093914518856669e+00	 7.476469924885608e-01	 3.357034363468669e+00
1	 1.078319497753636e+00	 7.699688699537266e-01	 1.893586757472502e+00
1	 1.062241302010880e+00	 7.920027880175354e-01	 4.244774078744724e-01
1	 1.045687913944085e+00	 8.137332404107951e-01	-1.048563437994818e+00
1	 1.028667973515957e+00	 8.351450174518638e-01	-2.523790809971529e+00
1	 1.011190764414222e+00	 8.562232406741106e-01	-3.999450402396061e+00
1	 9.932661979533650e-01	 8.769533966559755e-01	-5.473784038698610e+00
1	 9.749047948546473e-01	 8.973213698947596e-01	-6.945035181387151e+00
1	 9.561176649720968e-01	 9.173134745696363e-01	-8.411454454988895e+00
1	 9.369164850449999e-01	 9.369164850449998e-01	-9.871305149203772e+00
1	 1.114250274301094e+00	 7.284729841735833e-01	 4.652390696415670e+00
1	 1.099074493002808e+00	 7.511736292452502e-01	 3.190709941889145e+00
1	 1.083405910480024e+00	 7.736007985857821e-01	 1.723933155718456e+00
1	 1.067251874191782e+00	 7.957386502258470e-01	 2.538512295509796e-01
1	 1.050620404106197e+00	 8.175716047534728e-01	-1.217732683813267e+00
1	 1.033520180940517e+00	 8.390843807432369e-01	-2.689008840447974e+00
1	 1.015960532173444e+00	 8.602620295470599e-01	-4.158166644960970e+00
1	 9.979514158709494e-01	 8.810899692838472e-01	-5.623400426016993e+00
1	 9.795034023803366e-01	 9.015540178683387e-01	-7.082915213358419e+00
1	 9.606276539606046e-01	 9.216404249239492e-01	-8.534932481708312e+00
1	 9.413359024299999e-01	 9.413359024299999e-01	-9.977695827007507e+00
1	 1.119481496246134e+00	 7.318930451317450e-01	 4.494611268691042e+00
1	 1.104234467148945e+00	 7.547002660023494e-01	 3.027573226853255e+00
1	 1.088492323206412e+00	 7.772327272181625e-01	 1.557695952366241e+00
1	 1.072262446372684e+00	 7.994745124344078e-01	 8.685044215079518e-02
1	 1.055552894268309e+00	 8.214099690963341e-01	-1.383087740386252e+00
1	 1.038372388365076e+00	 8.430237440347367e-01	-2.850244524070987e+00
1	 1.020730299932666e+00	 8.643008184200909e-01	-4.312753419962389e+00
1	 1.002636633788534e+00	 8.852265419117646e-01	-5.768761606047899e+00
1	 9.841020099060258e-01	 9.057866658419381e-01	-7.216435969776965e+00
1	 9.651376429491126e-01	 9.259673752782678e-01	-8.653969071651563e+00
1	 9.457553198150001e-01	 9.457553198150001e-01	-1.007958499353362e+01
1	 1.124712718191175e+00	 7.353131060904122e-01	 4.339730676075591e+00
1	 1.109394441295084e+00	 7.582269027598593e-01	 2.867579738733854e+00
1	 1.093578735932799e+00	 7.808646558508671e-01	 1.394827476739530e+00
1	 1.077273018553585e+00	 8.032103746432173e-01	-7.657554117701038e-02
1	 1.060485384430421e+00	 8.252483334393783e-01	-1.544681828959493e+00
1	 1.043224595789634e+00	 8.469631073263645e-01	-3.007553428471885e+00
1	 1.025500067691889e+00	 8.683396072932037e-01	-4.463268347878152e+00
1	 1.007321851706118e+00	 8.893631145397281e-01	-5.909926953776993e+00
1	 9.887006174317148e-01	 9.100193138155579e-01	-7.345658277743912e+00
1	 9.696476319376208e-01	 9.302943256325911e-01	-8.768626198355481e+00
1	 9.501747371999997e-01	 9.501747371999997e-01	-1.017703546056736e+01
1	 1.129943940136216e+00	 7.387331670495848e-01	 4.187708656969566e+00
1	 1.114554415441221e+00	 7.617535395177784e-01	 2.710685821600663e+00
1	 1.098665148659187e+00	 7.844965844838963e-01	 1.235280940952561e+00
1	 1.082283590734487e+00	 8.069462368522756e-01	-2.364763704895820e-01
1	 1.065417874592533e+00	 8.290866977826059e-01	-1.702567185200338e+00
1	 1.048076803214194e+00	 8.509024706181193e-01	-3.160990092251201e+00
1	 1.030269835451111e+00	 8.723783961663978e-01	-4.609767982140569e+00
1	 1.012007069623703e+00	 8.934996871677371e-01	-6.046954744653148e+00
1	 9.932992249574037e-01	 9.142519617891984e-01	-7.470641837932192e+00
1	 9.741576209261288e-01	 9.346212759869191e-01	-8.878964687698367e+00
1	 9.545941545849999e-01	 9.545941545850000e-01	-1.027010887671298e+01
1	 1.135175162081257e+00	 7.421532280092624e-01	 4.038505691922684e+00
1	 1.119714389587359e+00	 7.652801762761083e-01	 2.556848624241101e+00
1	 1.103751561385575e+00	 7.881285131172503e-01	 1.079010419569105e+00
1	 1.087294162915389e+00	 8.106820990615832e-01	-3.929007806357558e-01
1	 1.070350364754645e+00	 8.329250621260166e-01	-1.856795081906236e+00
1	 1.052929010638752e+00	 8.548418339100015e-01	-3.310608048689802e+00
1	 1.035039603210333e+00	 8.764171850396733e-01	-4.752307833721873e+00
1	 1.016692287541287e+00	 8.976362597957921e-01	-6.179902179923349e+00
1	 9.978978324830928e-01	 9.184846097628588e-01	-7.591445250541584e+00
1	 9.786676099146367e-01	 9.389482263412526e-01	-8.985044244344202e+00
1	 9.590135719700000e-01	 9.590135719700000e-01	-1.035886575419471e+01
1	 1.140406384026297e+00	 7.455732889694454e-01	 3.892082986612145e+00
1	 1.124874363733497e+00	 7.688068130348483e-01	 2.406026081703417e+00
1	 1.108837974111962e+00	 7.917604417509290e-01	 9.259708298212521e-01
1	 1.092304735096290e+00	 8.144179612711395e-01	-5.458966122468503e-01
1	 1.075282854916757e+00	 8.367634264696103e-01	-2.007415851089905e+00
1	 1.057781218063311e+00	 8.587811972020112e-01	-3.456459848806609e+00
1	 1.039809370969555e+00	 8.804559739130304e-01	-4.890942395044671e+00
1	 1.021377505458871e+00	 9.017728324238934e-01	-6.308825411270387e+00
1	 1.002496440008782e+00	 9.227172577365401e-01	-7.708126040539005e+00
1	 9.831775989031449e-01	 9.432751766955915e-01	-9.086923477458694e+00
1	 9.634329893550000e-01	 9.634329893550000e-01	-1.044336549492087e+01
1	 1.145637605971338e+00	 7.489933499301337e-01	 3.748402455287458e+00
1	 1.130034337879635e+00	 7.723334497939982e-01	 2.258176897345443e+00
1	 1.113924386838350e+00	 7.953923703849323e-01	 7.761179123709914e-01
1	 1.097315307277192e+00	 8.181538234809448e-01	-6.955108321525649e-01
1	 1.080215345078869e+00	 8.406017908133875e-01	-2.154478905457420e+00
1	 1.062633425487870e+00	 8.627205604941481e-01	-3.598597083784407e+00
1	 1.044579138728777e+00	 8.844947627864692e-01	-5.025725163235896e+00
1	 1.026062723376455e+00	 9.059094050520402e-01	-6.433779564775597e+00
1	 1.007095047534471e+00	 9.269499057102417e-01	-7.820740682206742e+00
1	 9.876875878916530e-01	 9.476021270499351e-01	-9.184659925720345e+00
1	 9.678524067400001e-01	 9.678524067399999e-01	-1.052366641583339e+01
1	 1.150868827916379e+00	 7.524134108913275e-01	 3.607426704666176e+00
1	 1.135194312025773e+00	 7.758600865535584e-01	 2.113260525373092e+00
1	 1.119010799564737e+00	 7.990242990192603e-01	 6.294082125955682e-01
1	 1.102325879458094e+00	 8.218896856909991e-01	-8.417895532403767e-01
1	 1.085147835240981e+00	 8.444401551573475e-01	-2.298032759302276e+00
1	 1.067485632912430e+00	 8.666599237864125e-01	-3.737070406784375e+00
1	 1.049348906487999e+00	 8.885335516599899e-01	-5.156708662747690e+00
1	 1.030747941294040e+00	 9.100459776802332e-01	-6.554818764227800e+00
1	 1.011693655060161e+00	 9.311825536839636e-01	-7.929344623022291e+00
1	 9.921975768801612e-01	 9.519290774042841e-01	-9.278310081650002e+00
1	 9.722718241249999e-01	 9.722718241250000e-01	-1.059982577356613e+01
1	 9.280776502750000e-01	 9.280776502750000e-01	-9.644762030546923e+00
1	 9.086595738610254e-01	 9.470976869950807e-01	-1.132218384107347e+01
1	 8.888560739476632e-01	 9.657075798032694e-01	-1.303271171644088e+01
1	 8.686802514003706e-01	 9.838957621181965e-01	-1.477551373708744e+01
1	 8.481456629284567e-01	 1.001651228895778e+00	-1.654960956111397e+01
1	 8.272662908695003e-01	 1.018963558666839e+00	-1.835387279962669e+01
1	 8.060565117259888e-01	 1.035822933619860e+00	-2.018703419840702e+01
1	 7.845310636016597e-01	 1.052220157649077e+00	-2.204768560459770e+01
1	 7.627050126905903e-01	 1.068146672300861e+00	-2.393428469052909e+01
1	 7.405937189764134e-01	 1.083594570564393e+00	-2.584516040057289e+01
1	 7.182128013021298e-01	 1.098556608465972e+00	-2.777851908106060e+01
1	 9.324970676600002e-01	 9.324970676599998e-01	-9.760348957592189e+00
1	 9.129865242153280e-01	 9.516076759835886e-01	-1.142733762887254e+01
1	 8.930887219212011e-01	 9.703061873289585e-01	-1.313299543640673e+01
1	 8.728168240281500e-01	 9.885809800357807e-01	-1.487690091834168e+01
1	 8.521844518012431e-01	 1.006420996655000e+00	-1.665845950721769e+01
1	 8.312056541606185e-01	 1.023815766091398e+00	-1.847690434336038e+01
1	 8.098948760683004e-01	 1.040755423781972e+00	-2.033129804250808e+01
1	 7.882669258094734e-01	 1.057230729829978e+00	-2.222053540495649e+01
1	 7.663369413219966e-01	 1.073233085027248e+00	-2.414334704556067e+01
1	 7.441203557322823e-01	 1.088754544710531e+00	-2.609830391625755e+01
1	 7.216328622587757e-01	 1.103787830411013e+00	-2.808382268545529e+01
1	 9.369164850449999e-01	 9.369164850449998e-01	-9.871305149203772e+00
1	 9.173134745696362e-01	 9.561176649720968e-01	-1.152942115750580e+01
1	 8.973213698947596e-01	 9.749047948546473e-01	-1.323171496899141e+01
1	 8.769533966559757e-01	 9.932661979533652e-01	-1.497817272858042e+01
1	 8.562232406741107e-01	 1.011190764414222e+00	-1.676858294505735e+01
1	 8.351450174518641e-01	 1.028667973515957e+00	-1.860253575164849e+01
1	 8.137332404107952e-01	 1.045687913944084e+00	-2.047942326792885e+01
1	 7.920027880175360e-01	 1.062241302010880e+00	-2.239844105887955e+01
1	 7.699688699537273e-01	 1.078319497753636e+00	-2.435859067761238e+01
1	 7.476469924885617e-01	 1.093914518856669e+00	-2.635868326917524e+01
1	 7.250529232159270e-01	 1.109019052356054e+00	-2.839734420405943e+01
1	 9.413359024299999e-01	 9.413359024299999e-01	-9.977695827007507e+00
1	 9.216404249239490e-01	 9.606276539606046e-01	-1.162847767006044e+01
1	 9.015540178683386e-01	 9.795034023803367e-01	-1.332889234500362e+01
1	 8.810899692838472e-01	 9.979514158709493e-01	-1.507933079274846e+01
1	 8.602620295470602e-01	 1.015960532173444e+00	-1.687996193813027e+01
1	 8.390843807432369e-01	 1.033520180940516e+00	-1.873073040668170e+01
1	 8.175716047534735e-01	 1.050620404106197e+00	-2.063135548901892e+01
1	 7.957386502258476e-01	 1.067251874191781e+00	-2.258133135716341e+01
1	 7.736007985857828e-01	 1.083405910480024e+00	-2.457992852644694e+01
1	 7.511736292452510e-01	 1.099074493002807e+00	-2.662619654612863e+01
1	 7.284729841735834e-01	 1.114250274301094e+00	-2.871896789160551e+01
1	 9.457553198150001e-01	 9.457553198150001e-01	-1.007958499353362e+01
1	 9.259673752782676e-01	 9.651376429491128e-01	-1.172454960134130e+01
1	 9.057866658419381e-01	 9.841020099060257e-01	-1.342454918346088e+01
1	 8.852265419117648e-01	 1.002636633788534e+00	-1.518037670541694e+01
1	 8.643008184200911e-01	 1.020730299932666e+00	-1.699257888519590e+01
1	 8.430237440347370e-01	 1.038372388365075e+00	-1.886145237509506e+01
1	 8.214099690963346e-01	 1.055552894268308e+00	-2.078704133668096e+01
1	 7.994745124344083e-01	 1.072262446372683e+00	-2.276913642161798e+01
1	 7.772327272181627e-01	 1.088492323206411e+00	-2.480727515912056e+01
1	 7.547002660023502e-01	 1.104234467148945e+00	-2.690074373883916e+01
1	 7.318930451317451e-01	 1.119481496246135e+00	-2.904858016628944e+01
1	 9.501747371999997e-01	 9.501747371999997e-01	-1.017703546056736e+01
1	 9.302943256325906e-01	 9.696476319376206e-01	-1.181767859666908e+01
1	 9.100193138155579e-01	 9.887006174317148e-01	-1.351870670116678e+01
1	 8.893631145397282e-01	 1.007321851706118e+00	-1.528131203149171e+01
1	 8.683396072932036e-01	 1.025500067691888e+00	-1.710641651247802e+01
1	 8.469631073263647e-01	 1.043224595789634e+00	-1.899466639205205e+01
1	 8.252483334393791e-01	 1.060485384430421e+00	-2.094642843473184e+01
1	 8.032103746432178e-01	 1.077273018553585e+00	-2.296178767411201e+01
1	 7.808646558508675e-01	 1.093578735932799e+00	-2.504054673214010e+01
1	 7.582269027598596e-01	 1.109394441295083e+00	-2.718222669964759e+01
1	 7.353131060904122e-01	 1.124712718191175e+00	-2.938606955945651e+01
1	 9.545941545849999e-01	 9.545941545850000e-01	-1.027010887671298e+01
1	 9.346212759869191e-01	 9.741576209261290e-01	-1.190790553015411e+01
1	 9.142519617891982e-01	 9.932992249574039e-01	-1.361138572202121e+01
1	 8.934996871677374e-01	 1.012007069623702e+00	-1.538213830689784e+01
1	 8.723783961663977e-01	 1.030269835451110e+00	-1.722145786608588e+01
1	 8.509024706181197e-01	 1.048076803214193e+00	-1.913033784576837e+01
1	 8.290866977826064e-01	 1.065417874592532e+00	-2.110946537691739e+01
1	 8.069462368522762e-01	 1.082283590734487e+00	-2.315921780648035e+01
1	 7.844965844838970e-01	 1.098665148659187e+00	-2.527966095466975e+01
1	 7.617535395177794e-01	 1.114554415441221e+00	-2.747054909844452e+01
1	 7.387331670495846e-01	 1.129943940136216e+00	-2.973132666668713e+01
1	 9.590135719700000e-01	 9.590135719700000e-01	-1.035886575419471e+01
1	 9.389482263412525e-01	 9.786676099146371e-01	-1.199527052246731e+01
1	 9.184846097628588e-01	 9.978978324830928e-01	-1.370260668607281e+01
1	 8.976362597957924e-01	 1.016692287541287e+00	-1.548285703924889e+01
1	 8.764171850396734e-01	 1.035039603210333e+00	-1.733768630464231e+01
1	 8.548418339100019e-01	 1.052929010638752e+00	-1.926843276246483e+01
1	 8.329250621260171e-01	 1.070350364754645e+00	-2.127610170456443e+01
1	 8.106820990615835e-01	 1.087294162915388e+00	-2.336136075126103e+01
1	 7.881285131172509e-01	 1.103751561385574e+00	-2.552453705275519e+01
1	 7.652801762761091e-01	 1.119714389587359e+00	-2.776561638079090e+01
1	 7.421532280092624e-01	 1.135175162081257e+00	-3.008424410023271e+01
1	 9.634329893550000e-01	 9.634329893550000e-01	-1.044336549492087e+01
1	 9.432751766955914e-01	 9.831775989031449e-01	-1.207981295812039e+01
1	 9.227172577365401e-01	 1.002496440008782e+00	-1.379238965832407e+01
1	 9.017728324238935e-01	 1.021377505458871e+00	-1.558346970849578e+01
1	 8.804559739130307e-01	 1.039809370969554e+00	-1.745508549211702e+01
1	 8.587811972020114e-01	 1.057781218063311e+00	-1.940891779173478e+01
1	 8.367634264696108e-01	 1.075282854916756e+00	-2.144628788484695e+01
1	 8.144179612711401e-01	 1.092304735096290e+00	-2.356815165323924e+01
1	 7.917604417509295e-01	 1.108837974111962e+00	-2.577509573453380e+01
1	 7.688068130348489e-01	 1.124874363733497e+00	-2.806733572719083e+01
1	 7.455732889694453e-01	 1.140406384026297e+00	-3.044471644276256e+01
1	 9.678524067400001e-01	 9.678524067399999e-01	-1.052366641583339e+01
1	 9.476021270499351e-01	 9.876875878916528e-01	-1.216157150227335e+01
1	 9.269499057102418e-01	 1.007095047534471e+00	-1.388075433729296e+01
1	 9.059094050520404e-01	 1.026062723376456e+00	-1.568397776755829e+01
1	 8.844947627864692e-01	 1.044579138728777e+00	-1.757363939085392e+01
1	 8.627205604941484e-01	 1.062633425487870e+00	-1.955176019231128e+01
1	 8.406017908133878e-01	 1.080215345078868e+00	-2.161997528964835e+01
1	 8.181538234809453e-01	 1.097315307277192e+00	-2.377952684177031e+01
1	 7.953923703849328e-01	 1.113924386838349e+00	-2.603125915639547e+01
1	 7.723334497939990e-01	 1.130034337879634e+00	-2.837561601348247e+01
1	 7.489933499301337e-01	 1.145637605971338e+00	-3.081264020237642e+01
1	 9.722718241249999e-01	 9.722718241250000e-01	-1.059982577356613e+01
1	 9.519290774042841e-01	 9.921975768801613e-01	-1.224058411708321e+01
1	 9.311825536839639e-01	 1.011693655060161e+00	-1.396772006334309e+01
1	 9.100459776802337e-01	 1.030747941294040e+00	-1.578438264293948e+01
1	 8.885335516599900e-01	 1.049348906487999e+00	-1.769333225479148e+01
1	 8.666599237864128e-01	 1.067485632912429e+00	-1.969692781822292e+01
1	 8.444401551573480e-01	 1.085147835240981e+00	-2.179711617499921e+01
1	 8.218896856909996e-01	 1.102325879458094e+00	-2.399542380385800e+01
1	 7.990242990192606e-01	 1.119010799564737e+00	-2.629295089006905e+01
1	 7.758600865535590e-01	 1.135194312025773e+00	-2.869036777230705e+01
1	 7.524134108913275e-01	 1.150868827916379e+00	-3.118791376884567e+01
1	 7.182128013021298e-01	 1.098556608465972e+00	-2.777851908106060e+01
1	 6.955781019722753e-01	 1.113026214439379e+00	-2.962823115624687e+01
1	 6.727056510518901e-01	 1.126997496460084e+00	-3.145909996541976e+01
1	 6.496116305235261e-01	 1.140465246942069e+00	-3.326959459480252e+01
1	 6.263123384614094e-01	 1.153424945409338e+00	-3.505822484129362e+01
1	 6.028241533816301e-01	 1.165872758969277e+00	-3.682354486991537e+01
1	 5.791634989208896e-01	 1.177805540625446e+00	-3.856415665335077e+01
1	 5.553468089916540e-01	 1.189220825479669e+00	-4.027871317865412e+01
1	 5.313904935553472e-01	 1.200116824884327e+00	-4.196592140814302e+01
1	 5.073109051481494e-01	 1.210492418616161e+00	-4.362454498348885e+01
1	 4.831243062860801e-01	 1.220347145152352e+00	-4.525340666405138e+01
1	 7.216328622587757e-01	 1.103787830411013e+00	-2.808382268545529e+01
1	 6.988903786456683e-01	 1.118326339269405e+00	-2.998073845185129e+01
1	 6.759090112917537e-01	 1.132364151204019e+00	-3.184344942357218e+01
1	 6.527050192366420e-01	 1.145896033830808e+00	-3.366981917770509e+01
1	 6.292947781644367e-01	 1.158917445147699e+00	-3.545782177353414e+01
1	 6.056947445841596e-01	 1.171424534010207e+00	-3.720554641072147e+01
1	 5.819214203403053e-01	 1.183414138436195e+00	-3.891120148088886e+01
1	 5.579913176020641e-01	 1.194883781789874e+00	-4.057311800281752e+01
1	 5.339209244735317e-01	 1.205831666906254e+00	-4.218975243639760e+01
1	 5.097266713601063e-01	 1.216256668227679e+00	-4.375968887524517e+01
1	 4.854248982183585e-01	 1.226158322033600e+00	-4.528164062254986e+01
1	 7.250529232159270e-01	 1.109019052356054e+00	-2.839734420405943e+01
1	 7.022026553196562e-01	 1.123626464099425e+00	-3.033868565413129e+01
1	 6.791123715322810e-01	 1.137730805947933e+00	-3.223061569086525e+01
1	 6.557984079504707e-01	 1.151326820719500e+00	-3.407039618267466e+01
1	 6.322772178682045e-01	 1.164409944885977e+00	-3.585546880843607e+01
1	 6.085653357874374e-01	 1.176976309051007e+00	-3.758346071147139e+01
1	 5.846793417604569e-01	 1.189022736246757e+00	-3.925218916043075e+01
1	 5.606358262131775e-01	 1.200546738099826e+00	-4.085966521240876e+01
1	 5.364513553923675e-01	 1.211546508927852e+00	-4.240409638148196e+01
1	 5.121424375726434e-01	 1.222020917838782e+00	-4.388388832343830e+01
1	 4.877254901511263e-01	 1.231969498914337e+00	-4.529764555469727e+01
1	 7.284729841735834e-01	 1.114250274301094e+00	-2.871896789160551e+01
1	 7.055149319942392e-01	 1.128926588929440e+00	-3.070199614468522e+01
1	 6.823157317734723e-01	 1.143097460691826e+00	-3.262055909393215e+01
1	 6.588917966650112e-01	 1.156757607608145e+00	-3.447132064602092e+01
1	 6.352596575727123e-01	 1.169902444624171e+00	-3.625119340934265e+01
1	 6.114359269914631e-01	 1.182528084091678e+00	-3.795734533892463e+01
1	 5.874372631813438e-01	 1.194631334057134e+00	-3.958720500391663e+01
1	 5.632803348249946e-01	 1.206209694409525e+00	-4.113846547805029e+01
1	 5.389817863118551e-01	 1.217261350949121e+00	-4.260908686427886e+01
1	 5.145582037857609e-01	 1.227785167449471e+00	-4.399729747515282e+01
1	 4.900260820843840e-01	 1.237780675794565e+00	-4.530159370029020e+01
1	 7.318930451317451e-01	 1.119481496246135e+00	-2.904858016628944e+01
1	 7.088272086694171e-01	 1.134226713759450e+00	-3.107059473723179e+01
1	 6.855190920153277e-01	 1.148464115435698e+00	-3.301324070096484e+01
1	 6.619851853802645e-01	 1.162188394496743e+00	-3.487258769683316e+01
1	 6.382420972779607e-01	 1.175394944362282e+00	-3.664502252626247e+01
1	 6.143065181962369e-01	 1.188079859132219e+00	-3.832725678382657e+01
1	 5.901951846029665e-01	 1.200239931867324e+00	-3.991633272867145e+01
1	 5.659248434375147e-01	 1.211872650718971e+00	-4.140962740175576e+01
1	 5.415122172319942e-01	 1.222976192970061e+00	-4.280485500808504e+01
1	 5.169739699994584e-01	 1.233549417059743e+00	-4.410006759621810e+01
1	 4.923266740181315e-01	 1.243591852674283e+00	-4.529365407969083e+01
1	 7.353131060904122e-01	 1.124712718191175e+00	-2.938606955945651e+01
1	 7.121394853451900e-01	 1.139526838589454e+00	-3.144440764430392e+01
1	 6.887224522578466e-01	 1.153830770179549e+00	-3.340862230446839e+01
1	 6.650785740962298e-01	 1.167619181385294e+00	-3.527419255482150e+01
1	 6.412245369839491e-01	 1.180887444100309e+00	-3.703698260780889e+01
1	 6.171771094017587e-01	 1.193631634172630e+00	-3.869325048593237e+01
1	 5.929531060253250e-01	 1.205848529677326e+00	-4.023965449448801e+01
1	 5.685693520507384e-01	 1.217535607028164e+00	-4.167325756503511e+01
1	 5.440426481527847e-01	 1.228691034990672e+00	-4.299152949669323e+01
1	 5.193897362137363e-01	 1.239313666669601e+00	-4.419234713821640e+01
1	 4.946272659523686e-01	 1.249403029553489e+00	-4.527399256869647e+01
1	 7.387331670495846e-01	 1.129943940136216e+00	-2.973132666668713e+01
1	 7.154517620215577e-01	 1.144826963419454e+00	-3.182336244486945e+01
1	 6.919258125010296e-01	 1.159197424923379e+00	-3.380666640449341e+01
1	 6.681719628129075e-01	 1.173049968273797e+00	-3.567613052822100e+01
1	 6.442069766906779e-01	 1.186379943838253e+00	-3.742709961280660e+01
1	 6.200477006080287e-01	 1.199183409212911e+00	-3.905538085833444e+01
1	 5.957110274484191e-01	 1.211457127487143e+00	-4.055725093968197e+01
1	 5.712138606646656e-01	 1.223198563337104e+00	-4.192946057566761e+01
1	 5.465730790742267e-01	 1.234405877010953e+00	-4.316923663086384e+01
1	 5.218055024285942e-01	 1.245077916279045e+00	-4.427428180362616e+01
1	 4.969278578870955e-01	 1.255214206432187e+00	-4.524277197133014e+01
1	 7.421532280092624e-01	 1.135175162081257e+00	-3.008424410023271e+01
1	 7.187640386985203e-01	 1.150127088249448e+00	-3.220738805284574e+01
1	 6.951291727448764e-01	 1.164564079667188e+00	-3.420733619233449e+01
1	 6.712653515302975e-01	 1.178480755162254e+00	-3.607839701175026e+01
1	 6.471894163981472e-01	 1.191872443576114e+00	-3.781539902157623e+01
1	 6.229182918150463e-01	 1.204735184253062e+00	-3.941370131111974e+01
1	 5.984689488722489e-01	 1.217065725296773e+00	-4.086920121614792e+01
1	 5.738583692792963e-01	 1.228861519645791e+00	-4.217833911317771e+01
1	 5.491035099963203e-01	 1.240120719030906e+00	-4.333810038323261e+01
1	 5.242212686440323e-01	 1.250842165888073e+00	-4.434601460916696e+01
1	 4.992284498223121e-01	 1.261025383310373e+00	-4.520015209061967e+01
1	 7.455732889694453e-01	 1.140406384026297e+00	-3.044471644276256e+01
1	 7.220763153760779e-01	 1.155427213079437e+00	-3.259641468648280e+01
1	 6.983325329893872e-01	 1.169930734410976e+00	-3.461059553467476e+01
1	 6.743587402483999e-01	 1.183911542050663e+00	-3.648098748462858e+01
1	 6.501718561063566e-01	 1.197364943313891e+00	-3.820190584690923e+01
1	 6.257888830228123e-01	 1.210286959293083e+00	-3.976826427437247e+01
1	 6.012268702968143e-01	 1.222674323106217e+00	-4.117558302345283e+01
1	 5.765028778946305e-01	 1.234524475954226e+00	-4.241999397306313e+01
1	 5.516339409190654e-01	 1.245835561050529e+00	-4.349824245170750e+01
1	 5.266370348600508e-01	 1.256606415496686e+00	-4.440768594739691e+01
1	 5.015290417580184e-01	 1.266836560188050e+00	-4.514628979742669e+01
1	 7.489933499301337e-01	 1.145637605971338e+00	-3.081264020237642e+01
1	 7.253885920542303e-01	 1.160727337909420e+00	-3.299037383858254e+01
1	 7.015358932345619e-01	 1.175297389154743e+00	-3.501640895816688e+01
1	 6.774521289672144e-01	 1.189342328939026e+00	-3.688389750864656e+01
1	 6.531542958153065e-01	 1.202857443051585e+00	-3.858664464474307e+01
1	 6.286594742313263e-01	 1.215838734332974e+00	-4.011912122055055e+01
1	 6.039847917221155e-01	 1.228282920915474e+00	-4.147647264199279e+01
1	 5.791473865106680e-01	 1.240187432262407e+00	-4.265452410980671e+01
1	 5.541643718424620e-01	 1.251550403069823e+00	-4.364978231140417e+01
1	 5.290528010766492e-01	 1.262370665104884e+00	-4.445943364662802e+01
1	 5.038296336942143e-01	 1.272647737065215e+00	-4.508133909739308e+01
1	 7.524134108913275e-01	 1.150868827916379e+00	-3.118791376884567e+01
1	 7.287008687329781e-01	 1.166027462739399e+00	-3.338919824753247e+01
1	 7.047392534804008e-01	 1.180664043898489e+00	-3.542474163443384e+01
1	 6.805455176867417e-01	 1.194773115827342e+00	-3.728712272628967e+01
1	 6.561367355249966e-01	 1.208349942789195e+00	-3.896963952454354e+01
1	 6.315300654405884e-01	 1.221390509372735e+00	-4.046632268624907e+01
1	 6.067427131481523e-01	 1.233891518724545e+00	-4.177194496524764e+01
1	 5.817918951274088e-01	 1.245850388570336e+00	-4.288202667871913e+01
1	 5.566948027665101e-01	 1.257265245088788e+00	-4.379283726516326e+01
1	 5.314685672938282e-01	 1.268134914712668e+00	-4.450139302920241e+01
1	 5.061302256309002e-01	 1.278458913941872e+00	-4.500545119605683e+01
1	 4.831243062860801e-01	 1.220347145152352e+00	-4.525340666405138e+01
1	 4.588468378684135e-01	 1.229681190138468e+00	-4.640172165894943e+01
1	 4.344944886856272e-01	 1.238495373144912e+00	-4.735210149183172e+01
1	 4.100830661329607e-01	 1.246791132816066e+00	-4.810115151273498e+01
1	 3.856281682207531e-01	 1.254570510522024e+00	-4.864626510991262e+01
1	 3.611451569577851e-01	 1.261836132626718e+00	-4.898561004207141e+01
1	 3.366491331770333e-01	 1.268591191490658e+00	-4.911811142176172e+01
1	 3.121549128617937e-01	 1.274839425329030e+00	-4.904343158657250e+01
1	 2.876770050196267e-01	 1.280585097047684e+00	-4.876194710833017e+01
1	 2.632295911411746e-01	 1.285832972180329e+00	-4.827472320096782e+01
1	 2.388265062707223e-01	 1.290588296050167e+00	-4.758348579529279e+01
1	 4.854248982183585e-01	 1.226158322033600e+00	-4.528164062254986e+01
1	 4.610318228088948e-01	 1.235536814853510e+00	-4.630067196196275e+01
1	 4.365635100592007e-01	 1.244392970160427e+00	-4.713800973832532e+01
1	 4.120358426378263e-01	 1.252728233449420e+00	-4.779067034239838e+01
1	 3.874644928313501e-01	 1.260544655811395e+00	-4.825638958421008e+01
1	 3.628648958009764e-01	 1.267844876116781e+00	-4.853360979197231e+01
1	 3.382522242884100e-01	 1.274632101927805e+00	-4.862146386959191e+01
1	 3.136413648292490e-01	 1.280910089260678e+00	-4.851975653071517e+01
1	 2.890468955215663e-01	 1.286683121320804e+00	-4.822894293934376e+01
1	 2.644830653869120e-01	 1.291955986334910e+00	-4.775010499645541e+01
1	 2.399637753507351e-01	 1.296733954603930e+00	-4.708492551869072e+01
1	 4.877254901511263e-01	 1.231969498914337e+00	-4.529764555469727e+01
1	 4.632168077497660e-01	 1.241392439567952e+00	-4.618991332168163e+01
1	 4.386325314330637e-01	 1.250290567175273e+00	-4.691656385863510e+01
1	 4.139886191428805e-01	 1.258665334082059e+00	-4.747502259466018e+01
1	 3.893008174420354e-01	 1.266518801100025e+00	-4.786336620188227e+01
1	 3.645846346441551e-01	 1.273853619606097e+00	-4.808031045459294e+01
1	 3.398553153996735e-01	 1.280673012364218e+00	-4.812519535269693e+01
1	 3.151278167964904e-01	 1.286980753191625e+00	-4.799796770875910e+01
1	 2.904167860231914e-01	 1.292781145593276e+00	-4.769916140869986e+01
1	 2.657365396322348e-01	 1.298079000488916e+00	-4.722987556440876e+01
1	 2.411010444302332e-01	 1.302879613157209e+00	-4.659175078234933e+01
1	 4.900260820843840e-01	 1.237780675794565e+00	-4.530159370029020e+01
1	 4.654017926910266e-01	 1.247248064281795e+00	-4.606958248377711e+01
1	 4.407015528072157e-01	 1.256188164189451e+00	-4.668786743199494e+01
1	 4.159413956481236e-01	 1.264602434713982e+00	-4.715428103821068e+01
1	 3.911371420528086e-01	 1.272492946387913e+00	-4.746723929893319e+01
1	 3.663043734873212e-01	 1.279862363094664e+00	-4.762573032693517e+01
1	 3.414584065108237e-01	 1.286713922799895e+00	-4.762930053254931e+01
1	 3.166142687635181e-01	 1.293051417121872e+00	-4.747803855402961e+01
1	 2.917866765245021e-01	 1.298879169865100e+00	-4.717255712712532e+01
1	 2.669900138771429e-01	 1.304202014642346e+00	-4.671397309113006e+01
1	 2.422383135092166e-01	 1.309025271710002e+00	-4.610388573358796e+01
1	 4.923266740181315e-01	 1.243591852674283e+00	-4.529365407969083e+01
1	 4.675867776326769e-01	 1.253103688995038e+00	-4.593981363792643e+01
1	 4.427705741816572e-01	 1.262085761202962e+00	-4.645202210157935e+01
1	 4.178941721535553e-01	 1.270539535345190e+00	-4.682851708157722e+01
1	 3.929734666636701e-01	 1.278467091675059e+00	-4.706805238265747e+01
1	 3.680241123304747e-01	 1.285871106582482e+00	-4.716988736399981e+01
1	 3.430614976218608e-01	 1.292754833234839e+00	-4.713377417040827e+01
1	 3.181007207303319e-01	 1.299122081051417e+00	-4.695994299642400e+01
1	 2.931565670254987e-01	 1.304977194136277e+00	-4.664908555374521e+01
1	 2.682434881216365e-01	 1.310325028795200e+00	-4.620233691831843e+01
1	 2.433755825876854e-01	 1.315170930262310e+00	-4.562125593753206e+01
1	 4.946272659523686e-01	 1.249403029553489e+00	-4.527399256869647e+01
1	 4.697717625747169e-01	 1.258959313707681e+00	-4.580073847725491e+01
1	 4.448395955563879e-01	 1.267983358215805e+00	-4.620912761952687e+01
1	 4.198469486591757e-01	 1.276476635975683e+00	-4.649780080475711e+01
1	 3.948097912746196e-01	 1.284441236961463e+00	-4.666584815091139e+01
1	 3.697438511736156e-01	 1.291879850069553e+00	-4.671279918674183e+01
1	 3.446645887327847e-01	 1.298795743669049e+00	-4.663861112499733e+01
1	 3.195871726969319e-01	 1.305192744980262e+00	-4.644365545086563e+01
1	 2.945264575261808e-01	 1.311075218406805e+00	-4.612870297635119e+01
1	 2.694969623657154e-01	 1.316448042947477e+00	-4.569490751619860e+01
1	 2.445128516656394e-01	 1.321316588814132e+00	-4.514378834414230e+01
1	 4.969278578870955e-01	 1.255214206432187e+00	-4.524277197133014e+01
1	 4.719567475171464e-01	 1.264814938419724e+00	-4.565248625612647e+01
1	 4.469086169314078e-01	 1.273880955227980e+00	-4.595928189071432e+01
1	 4.217997251649851e-01	 1.282413736605462e+00	-4.616220098996969e+01
1	 3.966461158856573e-01	 1.290415382247125e+00	-4.626066851085053e+01
1	 3.714635900167441e-01	 1.297888593555875e+00	-4.625448308980136e+01
1	 3.462676798435952e-01	 1.304836654102523e+00	-4.614380635025002e+01
1	 3.210736246633179e-01	 1.311263408908405e+00	-4.592915080607472e+01
1	 2.958963480265487e-01	 1.317173242676685e+00	-4.561136649222080e+01
1	 2.707504366093798e-01	 1.322571057099180e+00	-4.519162645739900e+01
1	 2.456501207430789e-01	 1.327462247365469e+00	-4.467141125615758e+01
1	 4.992284498223121e-01	 1.261025383310373e+00	-4.520015209061967e+01
1	 4.741417324599655e-01	 1.270670563131169e+00	-4.549518384633637e+01
1	 4.489776383067170e-01	 1.279778552239487e+00	-4.570258101532036e+01
1	 4.237525016709831e-01	 1.288350837234525e+00	-4.582178515155947e+01
1	 3.984824404967830e-01	 1.296389527532046e+00	-4.585255459714729e+01
1	 3.731833288598599e-01	 1.303897337041450e+00	-4.579495604902494e+01
1	 3.478707709542924e-01	 1.310877564535264e+00	-4.564935489311347e+01
1	 3.225600766294902e-01	 1.317334072835848e+00	-4.541640441365331e+01
1	 2.972662385266022e-01	 1.323271266945917e+00	-4.509703398946447e+01
1	 2.720039108526294e-01	 1.328694071250305e+00	-4.469243639155031e+01
1	 2.467873898200036e-01	 1.333607905916321e+00	-4.420405429792531e+01
1	 5.015290417580184e-01	 1.266836560188050e+00	-4.514628979742669e+01
1	 4.763267174031743e-01	 1.276526187842013e+00	-4.532895579175710e+01
1	 4.510466596823156e-01	 1.285676149250326e+00	-4.543911933021779e+01
1	 4.257052781771699e-01	 1.294287937862873e+00	-4.547661956507527e+01
1	 4.003187651079970e-01	 1.302363672816225e+00	-4.544154678971174e+01
1	 3.749030677029633e-01	 1.309906080526277e+00	-4.533423472877380e+01
1	 3.494738620648765e-01	 1.316918474967270e+00	-4.515525189141716e+01
1	 3.240465285954486e-01	 1.323404736762591e+00	-4.490539207746565e+01
1	 2.986361290263415e-01	 1.329369291214502e+00	-4.458566412888840e+01
1	 2.732573850954645e-01	 1.334817085400855e+00	-4.419728102058251e+01
1	 2.479246588964137e-01	 1.339753564466688e+00	-4.374164838508849e+01
1	 5.038296336942143e-01	 1.272647737065215e+00	-4.508133909739308e+01
1	 4.785117023467727e-01	 1.282381812552258e+00	-4.515392436148711e+01
1	 4.531156810582034e-01	 1.291573746260498e+00	-4.516898944923181e+01
1	 4.276580546835455e-01	 1.300225038490505e+00	-4.512676929555457e+01
1	 4.021550897192990e-01	 1.308337818099662e+00	-4.502768473091918e+01
1	 3.766228065460540e-01	 1.315914824010355e+00	-4.487233548903857e+01
1	 3.510769531753474e-01	 1.322959385398542e+00	-4.466149257179759e+01
1	 3.255329805611931e-01	 1.329475400688632e+00	-4.439609004331668e+01
1	 3.000060195257663e-01	 1.335467315482438e+00	-4.407721632635202e+01
1	 2.745108593378850e-01	 1.340940099550828e+00	-4.370610507470188e+01
1	 2.490619279723092e-01	 1.345899223016569e+00	-4.328412569510533e+01
1	 5.061302256309002e-01	 1.278458913941872e+00	-4.500545119605683e+01
1	 4.806966872907608e-01	 1.288237437261904e+00	-4.497020960155084e+01
1	 4.551847024343805e-01	 1.297471343270002e+00	-4.489228230229959e+01
1	 4.296108311901099e-01	 1.306162139117423e+00	-4.477229822503365e+01
1	 4.039914143306892e-01	 1.314311963382357e+00	-4.461100734237542e+01
1	 3.783425453891321e-01	 1.321923567493685e+00	-4.440927439235528e+01
1	 3.526800442857051e-01	 1.329000295829079e+00	-4.416807224767892e+01
1	 3.270194325267239e-01	 1.335546064613972e+00	-4.388847498890424e+01
1	 3.013759100248770e-01	 1.341565339749727e+00	-4.357165073560802e+01
1	 2.757643335798909e-01	 1.347063113700226e+00	-4.321885428901947e+01
1	 2.501991970476900e-01	 1.352044881565965e+00	-4.283141963857160e+01
1	 2.388265062707223e-01	 1.290588296050167e+00	-4.758348579529279e+01
1	 2.144812217047879e-01	 1.294856770278347e+00	-4.686035316368224e+01
1	 1.902068293282647e-01	 1.298644528759439e+00	-4.615893063309802e+01
1	 1.660160275848855e-01	 1.301958113222162e+00	-4.548069421011744e+01
1	 1.419211090703709e-01	 1.304804448490407e+00	-4.482697857064704e+01
1	 1.179339497318526e-01	 1.307190817555246e+00	-4.419897869824666e+01
1	 9.406599964678142e-02	 1.309124836564689e+00	-4.359775208275445e+01
1	 7.032827534826916e-02	 1.310614429833036e+00	-4.302422143596787e+01
1	 4.673135365743648e-02	 1.311667804966393e+00	-4.247917788001448e+01
1	 2.328536697759787e-02	 1.312293428195356e+00	-4.196328456339542e+01
1	 0.000000000000000e+00	 1.312500000000000e+00	-4.147708065947998e+01
1	 2.399637753507351e-01	 1.296733954603930e+00	-4.708492551869072e+01
1	 2.155025608585439e-01	 1.301022754899641e+00	-4.640663280471013e+01
1	 1.911125761375011e-01	 1.304828550325684e+00	-4.574543336170503e+01
1	 1.668065801001212e-01	 1.308157913761865e+00	-4.510266993753282e+01
1	 1.425969238782971e-01	 1.311017803007429e+00	-4.447956474018424e+01
1	 1.184955399712918e-01	 1.313415535734357e+00	-4.387722061861884e+01
1	 9.451393298073690e-02	 1.315358764358030e+00	-4.329662273102083e+01
1	 7.066317189942789e-02	 1.316855450927578e+00	-4.273864066415678e+01
1	 4.695388391430273e-02	 1.317913842132943e+00	-4.220403096648116e+01
1	 2.339624967821792e-02	 1.318542444520106e+00	-4.169344005698005e+01
1	 0.000000000000000e+00	 1.318750000000000e+00	-4.120740747147928e+01
1	 2.411010444302332e-01	 1.302879613157209e+00	-4.659175078234933e+01
1	 2.165239000117013e-01	 1.307188739520545e+00	-4.595733953109575e+01
1	 1.920183229460866e-01	 1.311012571891622e+00	-4.533545563557867e+01
1	 1.675971326146847e-01	 1.314357714301335e+00	-4.472730912895934e+01
1	 1.432727386855606e-01	 1.317231157524282e+00	-4.413401016443680e+01
1	 1.190571302101076e-01	 1.319640253913352e+00	-4.355656974199012e+01
1	 9.496186631413750e-02	 1.321592692151297e+00	-4.299590085003914e+01
1	 7.099806845012901e-02	 1.323096472022077e+00	-4.245281999261133e+01
1	 4.717641417083670e-02	 1.324159879299474e+00	-4.192804907162354e+01
1	 2.350713237865846e-02	 1.324791460844853e+00	-4.142221759324190e+01
1	 0.000000000000000e+00	 1.325000000000000e+00	-4.093586516694829e+01
1	 2.422383135092166e-01	 1.309025271710002e+00	-4.610388573358796e+01
1	 2.175452391642600e-01	 1.313354724141057e+00	-4.551241098952181e+01
1	 1.929240697540212e-01	 1.317196593457252e+00	-4.492894788365739e+01
1	 1.683876851285763e-01	 1.320557514840572e+00	-4.435457427081686e+01
1	 1.439485534921612e-01	 1.323444512040963e+00	-4.379028865671634e+01
1	 1.196187204482998e-01	 1.325864972092228e+00	-4.323701047395036e+01
1	 9.540979964698310e-02	 1.327826619944489e+00	-4.269558070078362e+01
1	 7.133296500037242e-02	 1.329337493116535e+00	-4.216676280019961e+01
1	 4.739894442703836e-02	 1.330405916465988e+00	-4.165124395574118e+01
1	 2.361801507891946e-02	 1.331040477169594e+00	-4.114963658002981e+01
1	 0.000000000000000e+00	 1.331250000000000e+00	-4.066248007147180e+01
1	 2.433755825876854e-01	 1.315170930262310e+00	-4.562125593753206e+01
1	 2.185665783162203e-01	 1.319520708761180e+00	-4.507178599215474e+01
1	 1.938298165613050e-01	 1.323380615022576e+00	-4.452586146144015e+01
1	 1.691782376417957e-01	 1.326757315379574e+00	-4.398442855071369e+01
1	 1.446243682980991e-01	 1.329657866557475e+00	-4.344837451980595e+01
1	 1.201803106858685e-01	 1.332089690270987e+00	-4.291852751157406e+01
1	 9.585773297927377e-02	 1.334060547737606e+00	-4.239565665149995e+01
1	 7.166786155015821e-02	 1.335578514210952e+00	-4.188047240263491e+01
1	 4.762147468290773e-02	 1.336651953632483e+00	-4.137362715931550e+01
1	 2.372889777900094e-02	 1.337289493494331e+00	-4.087571606243019e+01
1	 0.000000000000000e+00	 1.337500000000000e+00	-4.038727801856757e+01
1	 2.445128516656394e-01	 1.321316588814132e+00	-4.514378834414230e+01
1	 2.195879174675819e-01	 1.325686693380911e+00	-4.463540448953756e+01
1	 1.947355633679378e-01	 1.329564636587593e+00	-4.412614862944051e+01
1	 1.699687901543431e-01	 1.332957115918344e+00	-4.361683584113980e+01
1	 1.453001831033742e-01	 1.335871221073816e+00	-4.310824253457518e+01
1	 1.207419009228137e-01	 1.338314408449628e+00	-4.260110583664068e+01
1	 9.630566631100955e-02	 1.340294475530648e+00	-4.209612317521038e+01
1	 7.200275809948638e-02	 1.341819535305326e+00	-4.159395205394092e+01
1	 4.784400493844480e-02	 1.342897990798959e+00	-4.109521000812135e+01
1	 2.383978047890289e-02	 1.343538509819063e+00	-4.060047473120182e+01
1	 0.000000000000000e+00	 1.343750000000000e+00	-4.011028436112979e+01
1	 2.456501207430789e-01	 1.327462247365469e+00	-4.467141125615758e+01
1	 2.206092566183449e-01	 1.331852678000251e+00	-4.420320754424110e+01
1	 1.956413101739197e-01	 1.335748658152303e+00	-4.372976253223648e+01
1	 1.707593426662184e-01	 1.339156916456880e+00	-4.325176068361390e+01
1	 1.459759979079865e-01	 1.342084575589986e+00	-4.276986794891622e+01
1	 1.213034911591353e-01	 1.344539126628152e+00	-4.228473070904543e+01
1	 9.675359964219032e-02	 1.346528403323616e+00	-4.179697484728894e+01
1	 7.233765464835687e-02	 1.348060556399659e+00	-4.130720494788321e+01
1	 4.806653519364956e-02	 1.349144027965417e+00	-4.081600361819626e+01
1	 2.395066317862532e-02	 1.349787526143790e+00	-4.032393093097799e+01
1	 0.000000000000000e+00	 1.350000000000000e+00	-3.983152398255474e+01
1	 2.467873898200036e-01	 1.333607905916321e+00	-4.420405429792531e+01
1	 2.216305957685093e-01	 1.338018662619201e+00	-4.377513730524002e+01
1	 1.965470569792508e-01	 1.341932679716706e+00	-4.333665717809995e+01
1	 1.715498951774215e-01	 1.345356716995183e+00	-4.288916827326628e+01
1	 1.466518127119361e-01	 1.348297930105986e+00	-4.243322646697996e+01
1	 1.218650813948335e-01	 1.350763844806558e+00	-4.196938766039027e+01
1	 9.720153297281622e-02	 1.352762331116509e+00	-4.149820634310283e+01
1	 7.267255119676969e-02	 1.354301577493949e+00	-4.102023421935503e+01
1	 4.828906544852202e-02	 1.355390065131856e+00	-4.053601890067487e+01
1	 2.406154587816823e-02	 1.356036542468514e+00	-4.004610266824256e+01
1	 0.000000000000000e+00	 1.356250000000000e+00	-3.955102130755803e+01
1	 2.479246588964137e-01	 1.339753564466688e+00	-4.374164838508849e+01
1	 2.226519349180751e-01	 1.344184647237759e+00	-4.335113698299588e+01
1	 1.974528037839310e-01	 1.348116701280802e+00	-4.294678741918860e+01
1	 1.723404476879526e-01	 1.351556517533252e+00	-4.252902444384922e+01
1	 1.473276275152229e-01	 1.354511284621816e+00	-4.209829423871356e+01
1	 1.224266716299081e-01	 1.356988562984847e+00	-4.165506248775276e+01
1	 9.764946630288715e-02	 1.358996258909327e+00	-4.119981243571846e+01
1	 7.300744774472488e-02	 1.360542598588198e+00	-4.073304294572928e+01
1	 4.851159570306221e-02	 1.361636102298277e+00	-4.025526656648672e+01
1	 2.417242857753161e-02	 1.362285558793232e+00	-3.976700761908449e+01
1	 0.000000000000000e+00	 1.362500000000000e+00	-3.926880031269564e+01
1	 2.490619279723092e-01	 1.345899223016569e+00	-4.328412569510533e+01
1	 2.236732740670424e-01	 1.350350631855927e+00	-4.293115082522164e+01
1	 1.983585505879603e-01	 1.354300722844592e+00	-4.256010893227736e+01
1	 1.731310001978117e-01	 1.357756318071088e+00	-4.217129565315578e+01
1	 1.480034423178470e-01	 1.360724639137475e+00	-4.176504784968071e+01
1	 1.229882618643592e-01	 1.363213281163017e+00	-4.134174124762320e+01
1	 9.809739963240316e-02	 1.365230186702070e+00	-4.090178799367133e+01
1	 7.334234429222242e-02	 1.366783619682406e+00	-4.044563414817110e+01
1	 4.873412595727009e-02	 1.367882139464680e+00	-3.997375713092804e+01
1	 2.428331127671546e-02	 1.368534575117946e+00	-3.948666313674200e+01
1	 0.000000000000000e+00	 1.368750000000000e+00	-3.898488453659518e+01
1	 2.501991970476900e-01	 1.352044881565965e+00	-4.283141963857160e+01
1	 2.246946132154111e-01	 1.356516616473704e+00	-4.251512409330888e+01
1	 1.992642973913387e-01	 1.360484744408075e+00	-4.217657820001808e+01
1	 1.739215527069986e-01	 1.363956118608690e+00	-4.181594896883749e+01
1	 1.486792571198083e-01	 1.366937993652964e+00	-4.143346431116327e+01
1	 1.235498520981868e-01	 1.369437999341071e+00	-4.102941025001248e+01
1	 9.854533296136422e-02	 1.371464114494739e+00	-4.060412797879751e+01
1	 7.367724083926232e-02	 1.373024640776572e+00	-4.015801079291449e+01
1	 4.895665621114569e-02	 1.374128176631064e+00	-3.969150091810786e+01
1	 2.439419397571979e-02	 1.374783591442656e+00	-3.920508625894011e+01
1	 0.000000000000000e+00	 1.375000000000000e+00	-3.869929708990974e+01
1	 1.375000000000000e+00	 0.000000000000000e+00	 1.553978706471100e+01
1	 1.374783591442656e+00	 2.439419397571901e-02	 1.550615544860715e+01
1	 1.374128176631065e+00	 4.895665621114498e-02	 1.543126126975494e+01
1	 1.373024640776572e+00	 7.367724083926172e-02	 1.531388596103434e+01
1	 1.371464114494739e+00	 9.854533296136368e-02	 1.515286907570503e+01
1	 1.369437999341071e+00	 1.235498520981864e-01	 1.494711478708152e+01
1	 1.366937993652964e+00	 1.486792571198079e-01	 1.469559843687933e+01
1	 1.363956118608690e+00	 1.739215527069983e-01	 1.439737309719337e+01
1	 1.360484744408075e+00	 1.992642973913386e-01	 1.405157610871880e+01
1	 1.356516616473704e+00	 2.246946132154110e-01	 1.365743555564766e+01
1	 1.352044881565965e+00	 2.501991970476900e-01	 1.321427663570955e+01
1	 1.381250000000000e+00	 0.000000000000000e+00	 1.530741324587127e+01
1	 1.381032607767365e+00	 2.450507667472334e-02	 1.527221639603072e+01
1	 1.380374213797448e+00	 4.917918646502058e-02	 1.519555292874450e+01
1	 1.379265661870738e+00	 7.401213738630162e-02	 1.507622876268899e+01
1	 1.377698042287408e+00	 9.899326629032473e-02	 1.491311003909777e+01
1	 1.375662717519124e+00	 1.241114423320140e-01	 1.470512963274009e+01
1	 1.373151348168453e+00	 1.493550719217692e-01	 1.445129370200575e+01
1	 1.370155919146292e+00	 1.747121052161853e-01	 1.415068824245495e+01
1	 1.366668765971558e+00	 2.001700441947170e-01	 1.380248560587456e+01
1	 1.362682601091481e+00	 2.257159523637796e-01	 1.340595094475272e+01
1	 1.358190540115361e+00	 2.513364661230708e-01	 1.296044854017014e+01
1	 1.387500000000000e+00	 0.000000000000000e+00	 1.507835992123429e+01
1	 1.387281624092079e+00	 2.461595937390718e-02	 1.504173143469218e+01
1	 1.386620250963851e+00	 4.940171671922845e-02	 1.496343599177879e+01
1	 1.385506682964945e+00	 7.434703393379914e-02	 1.484230386725080e+01
1	 1.383931970080151e+00	 9.944119961984073e-02	 1.467722764836857e+01
1	 1.381887435697295e+00	 1.246730325664651e-01	 1.446716875711612e+01
1	 1.379364702684112e+00	 1.500308867243932e-01	 1.421116400201340e+01
1	 1.376355719684127e+00	 1.755026577260442e-01	 1.390833212327748e+01
1	 1.372852787535346e+00	 2.010757909987462e-01	 1.355788029281067e+01
1	 1.368848585709649e+00	 2.267372915127469e-01	 1.315911052840619e+01
1	 1.364336198665242e+00	 2.524737351989661e-01	 1.271142597970312e+01
1	 1.393750000000000e+00	 0.000000000000000e+00	 1.485258242047972e+01
1	 1.393530640416798e+00	 2.472684207327057e-02	 1.481465409700096e+01
1	 1.392866288130272e+00	 4.962424697376861e-02	 1.473486214400896e+01
1	 1.391747704059194e+00	 7.468193048175430e-02	 1.461206106436972e+01
1	 1.390165897872969e+00	 9.988913294991165e-02	 1.444516975133284e+01
1	 1.388112153875584e+00	 1.252346228015397e-01	 1.423317802193224e+01
1	 1.385578057199942e+00	 1.507067015276800e-01	 1.397515317051407e+01
1	 1.382555520222197e+00	 1.762932102365753e-01	 1.367024650554964e+01
1	 1.379036809099443e+00	 2.019815378034264e-01	 1.331769983064959e+01
1	 1.375014570328208e+00	 2.277586306623127e-01	 1.291685182865188e+01
1	 1.370481857215608e+00	 2.536110042753762e-01	 1.246714430585092e+01
1	 1.400000000000000e+00	 0.000000000000000e+00	 1.463003687097135e+01
1	 1.399779656741521e+00	 2.483772477281347e-02	 1.459093874514469e+01
1	 1.399112325296712e+00	 4.984677722864109e-02	 1.450978393335116e+01
1	 1.397988725153484e+00	 7.501682703016717e-02	 1.438545104030901e+01
1	 1.396399825665862e+00	 1.003370662805375e-01	 1.421688512709493e+01
1	 1.394336872053990e+00	 1.257962130372379e-01	 1.400310425566589e+01
1	 1.391791411715942e+00	 1.513825163316296e-01	 1.374320604409083e+01
1	 1.388755320760499e+00	 1.770837627477785e-01	 1.343637419505504e+01
1	 1.385220830663846e+00	 2.028872846087575e-01	 1.308188495799370e+01
1	 1.381180554947157e+00	 2.287799698124770e-01	 1.267911348321154e+01
1	 1.376627515766460e+00	 2.547482733523009e-01	 1.222754002459281e+01
1	 1.406250000000000e+00	 0.000000000000000e+00	 1.441068018003078e+01
1	 1.406028673066248e+00	 2.494860747253589e-02	 1.437054055264976e+01
1	 1.405358362463170e+00	 5.006930748384587e-02	 1.428815475131409e+01
1	 1.404229746247817e+00	 7.535172357903763e-02	 1.416242535802048e+01
1	 1.402633753458830e+00	 1.007849996117184e-01	 1.399232346535290e+01
1	 1.400561590232514e+00	 1.263578032735595e-01	 1.377689523206603e+01
1	 1.398004766232112e+00	 1.520583311362419e-01	 1.351526844000961e+01
1	 1.394955121299035e+00	 1.778743152596537e-01	 1.320665901436335e+01
1	 1.391404852228556e+00	 2.037930314147395e-01	 1.285037746698151e+01
1	 1.387346539566497e+00	 2.298013089632401e-01	 1.244583522069182e+01
1	 1.382773174317797e+00	 2.558855424297404e-01	 1.199255077069076e+01
1	 1.412500000000000e+00	 0.000000000000000e+00	 1.419447001768171e+01
1	 1.412277689390981e+00	 2.505949017243785e-02	 1.415341548643138e+01
1	 1.411604399629646e+00	 5.029183773938292e-02	 1.406992881433533e+01
1	 1.410470767342191e+00	 7.568662012836579e-02	 1.394293643774875e+01
1	 1.408867681251872e+00	 1.012329329434541e-01	 1.377143534625249e+01
1	 1.406786308411154e+00	 1.269193935105047e-01	 1.355449964923996e+01
1	 1.404218120748453e+00	 1.527341459415170e-01	 1.329128713452284e+01
1	 1.401154921837804e+00	 1.786648677722011e-01	 1.298104578033502e+01
1	 1.397588873793573e+00	 2.046987782213723e-01	 1.262312017997914e+01
1	 1.393512524186229e+00	 2.308226481146017e-01	 1.221695783644983e+01
1	 1.388918832869620e+00	 2.570228115076946e-01	 1.176211528271644e+01
1	 1.418750000000000e+00	 0.000000000000000e+00	 1.398136479985040e+01
1	 1.418526705715717e+00	 2.517037287251933e-02	 1.393952028931795e+01
1	 1.417850436796141e+00	 5.051436799525229e-02	 1.385506114561113e+01
1	 1.416711788436608e+00	 7.602151667815157e-02	 1.372693753814811e+01
1	 1.415101609044989e+00	 1.016808662757448e-01	 1.355417222077385e+01
1	 1.413011026589914e+00	 1.274809837480734e-01	 1.333586710929306e+01
1	 1.410431475264964e+00	 1.534099607474549e-01	 1.307120984174632e+01
1	 1.407354722376808e+00	 1.794554202854205e-01	 1.275948028222070e+01
1	 1.403772895358897e+00	 2.056045250286560e-01	 1.240005692688819e+01
1	 1.399678508806351e+00	 2.318439872665619e-01	 1.199242316909642e+01
1	 1.395064491421928e+00	 2.581600805861633e-01	 1.153617337873811e+01
1	 1.425000000000000e+00	 0.000000000000000e+00	 1.377132367200812e+01
1	 1.424775722040459e+00	 2.528125557278033e-02	 1.372881246303558e+01
1	 1.424096473962654e+00	 5.073689825145396e-02	 1.364350755740450e+01
1	 1.422952809531066e+00	 7.635641322839502e-02	 1.351438273789642e+01
1	 1.421335536838181e+00	 1.021287996085904e-01	 1.334048639163421e+01
1	 1.419235744768790e+00	 1.280425739862656e-01	 1.312094809850427e+01
1	 1.416644829781647e+00	 1.540857755540556e-01	 1.285498519309198e+01
1	 1.413554522916044e+00	 1.802459727993121e-01	 1.254190926033678e+01
1	 1.409956916924528e+00	 2.065102718365906e-01	 1.218113252305059e+01
1	 1.405844493426863e+00	 2.328653264191207e-01	 1.177217407761777e+01
1	 1.401210149974721e+00	 2.592973496651468e-01	 1.131466593264757e+01
1	 1.431250000000000e+00	 0.000000000000000e+00	 1.356430649324220e+01
1	 1.431024738365205e+00	 2.539213827322085e-02	 1.352125025163812e+01
1	 1.430342511129185e+00	 5.095942850798790e-02	 1.343522463381639e+01
1	 1.429193830625566e+00	 7.669130977909612e-02	 1.330522691779051e+01
1	 1.427569464631448e+00	 1.025767329419910e-01	 1.313033099469106e+01
1	 1.425460462947784e+00	 1.286041642250814e-01	 1.290969396802098e+01
1	 1.422858184298499e+00	 1.547615903613190e-01	 1.264256271723975e+01
1	 1.419754323455514e+00	 1.810365253138757e-01	 1.232828038529983e+01
1	 1.416140938490465e+00	 2.074160186451761e-01	 1.196629274773250e+01
1	 1.412010478047766e+00	 2.338866655722781e-01	 1.155615441909636e+01
1	 1.407355808527999e+00	 2.604346187446449e-01	 1.109753485110713e+01
1	 1.437500000000000e+00	 0.000000000000000e+00	 1.336027382074263e+01
1	 1.437273754689956e+00	 2.550302097384090e-02	 1.331679262536966e+01
1	 1.436588548295736e+00	 5.118195876485416e-02	 1.323016971400691e+01
1	 1.435434851720107e+00	 7.702620633025486e-02	 1.309942574330905e+01
1	 1.433803392424789e+00	 1.030246662759464e-01	 1.292365998083039e+01
1	 1.431685181126896e+00	 1.291657544645206e-01	 1.270205691505753e+01
1	 1.429071538815521e+00	 1.554374051692452e-01	 1.243389282063151e+01
1	 1.425954123995218e+00	 1.818270778291114e-01	 1.211854223780267e+01
1	 1.422324960056710e+00	 2.083217654544126e-01	 1.175548432316936e+01
1	 1.418176462669061e+00	 2.349080047260341e-01	 1.134430902701343e+01
1	 1.413501467081764e+00	 2.615718878246577e-01	 1.088472305109818e+01
1	 1.352044881565965e+00	 2.501991970476900e-01	 1.321427663570955e+01
1	 1.347063113700226e+00	 2.757643335798901e-01	 1.322042957618580e+01
1	 1.341565339749727e+00	 3.013759100248763e-01	 1.317837113717761e+01
1	 1.335546064613972e+00	 3.270194325267234e-01	 1.308739128738559e+01
1	 1.329000295829080e+00	 3.526800442857046e-01	 1.294688721270129e+01
1	 1.321923567493685e+00	 3.783425453891318e-01	 1.275636897813013e+01
1	 1.314311963382357e+00	 4.039914143306890e-01	 1.251546488019339e+01
1	 1.306162139117423e+00	 4.296108311901097e-01	 1.222392644381866e+01
1	 1.297471343270002e+00	 4.551847024343806e-01	 1.188163301826321e+01
1	 1.288237437261903e+00	 4.806966872907608e-01	 1.148859592761425e+01
1	 1.278458913941872e+00	 5.061302256309002e-01	 1.104496213288672e+01
1	 1.358190540115361e+00	 2.513364661230708e-01	 1.296044854017014e+01
1	 1.353186127849626e+00	 2.770178078218983e-01	 1.296417323010753e+01
1	 1.347663364017024e+00	 3.027458005239962e-01	 1.292077823479286e+01
1	 1.341616728539333e+00	 3.285058844922754e-01	 1.282945131985706e+01
1	 1.335041206259655e+00	 3.542831353961002e-01	 1.268948105941815e+01
1	 1.327932310977075e+00	 3.800622842322698e-01	 1.250026271055560e+01
1	 1.320286108665139e+00	 4.058277389421656e-01	 1.226130381808031e+01
1	 1.312099239744460e+00	 4.315636076967925e-01	 1.197222950376833e+01
1	 1.303368940279661e+00	 4.572537238107131e-01	 1.163278739444876e+01
1	 1.294093061971747e+00	 4.828816722349465e-01	 1.124285214400857e+01
1	 1.284270090818772e+00	 5.084308175678308e-01	 1.080242950551284e+01
1	 1.364336198665242e+00	 2.524737351989661e-01	 1.271142597970312e+01
1	 1.359309141999607e+00	 2.782712820643258e-01	 1.271223410782253e+01
1	 1.353761388284989e+00	 3.041156910234494e-01	 1.266700327671727e+01
1	 1.347687392465439e+00	 3.299923364580840e-01	 1.257481970844540e+01
1	 1.341082116691042e+00	 3.558862265066854e-01	 1.243486406648280e+01
1	 1.333941054461333e+00	 3.817820230755401e-01	 1.224641754175071e+01
1	 1.326260253948836e+00	 4.076640635537275e-01	 1.200886770853316e+01
1	 1.318036340372447e+00	 4.335163842035232e-01	 1.172171410460860e+01
1	 1.309266537290299e+00	 4.593227451870668e-01	 1.138457348983283e+01
1	 1.299948686682584e+00	 4.850666571791373e-01	 1.099718473775357e+01
1	 1.290081267696672e+00	 5.107314095047611e-01	 1.055941331563894e+01
1	 1.370481857215608e+00	 2.536110042753762e-01	 1.246714430585092e+01
1	 1.365432156150168e+00	 2.795247563071725e-01	 1.246455413008339e+01
1	 1.359859412553620e+00	 3.054855815232357e-01	 1.241699490046815e+01
1	 1.353758056392287e+00	 3.314787884241489e-01	 1.232345194611479e+01
1	 1.347123027123238e+00	 3.574893176174600e-01	 1.218299871155626e+01
1	 1.339949797946458e+00	 3.835017619189425e-01	 1.199480305334438e+01
1	 1.332234399233448e+00	 4.095003881653743e-01	 1.175813334591039e+01
1	 1.323973441001387e+00	 4.354691607103021e-01	 1.147236435116944e+01
1	 1.315164134301916e+00	 4.613917665634422e-01	 1.113698280595008e+01
1	 1.305804311394416e+00	 4.872516421233336e-01	 1.075159268135101e+01
1	 1.295892444575573e+00	 5.130320014416919e-01	 1.031592006859023e+01
1	 1.376627515766460e+00	 2.547482733523009e-01	 1.222754002459281e+01
1	 1.371555170301310e+00	 2.807782305504387e-01	 1.222107625477237e+01
1	 1.365957436822919e+00	 3.068554720233552e-01	 1.217070266075006e+01
1	 1.359828720319880e+00	 3.329652403904703e-01	 1.207530432059796e+01
1	 1.353163937556245e+00	 3.590924087284239e-01	 1.193384814234136e+01
1	 1.345958541432452e+00	 3.852215007624771e-01	 1.174538937015067e+01
1	 1.338208544518974e+00	 4.113367127771062e-01	 1.150907793895703e+01
1	 1.329910541631279e+00	 4.374219372171289e-01	 1.122416463212303e+01
1	 1.321061731314511e+00	 4.634607879398391e-01	 1.089000699609355e+01
1	 1.311659936107243e+00	 4.894366270675354e-01	 1.050607496565069e+01
1	 1.301703621455474e+00	 5.153325933786226e-01	 1.007195615352537e+01
1	 1.382773174317797e+00	 2.558855424297404e-01	 1.199255077069076e+01
1	 1.377678184453033e+00	 2.820317047941241e-01	 1.198174445385380e+01
1	 1.372055461092884e+00	 3.082253625238078e-01	 1.192807700907296e+01
1	 1.365899384248215e+00	 3.344516923570482e-01	 1.183033389673471e+01
1	 1.359204847990063e+00	 3.606954998395774e-01	 1.168737616169294e+01
1	 1.351967284919313e+00	 3.869412396061441e-01	 1.149814714809811e+01
1	 1.344182689805416e+00	 4.131730373889231e-01	 1.126167910159587e+01
1	 1.335847642262123e+00	 4.393747137240041e-01	 1.097709961367634e+01
1	 1.326959328328084e+00	 4.655298093162573e-01	 1.064363786194219e+01
1	 1.317515560821064e+00	 4.916216120117423e-01	 1.026063059944299e+01
1	 1.307514798336374e+00	 5.176331853155530e-01	 9.827527846018000e+00
1	 1.388918832869620e+00	 2.570228115076946e-01	 1.176211528271644e+01
1	 1.383801198605336e+00	 2.832851790382287e-01	 1.174650369093885e+01
1	 1.378153485363516e+00	 3.095952530245936e-01	 1.168906927391124e+01
1	 1.371970048177294e+00	 3.359381443238827e-01	 1.158849849927924e+01
1	 1.365245758424692e+00	 3.622985909509202e-01	 1.144354721312336e+01
1	 1.357976028407042e+00	 3.886609784499432e-01	 1.125304756247935e+01
1	 1.350156835092773e+00	 4.150093620008250e-01	 1.101591484396359e+01
1	 1.341784742893919e+00	 4.413274902309270e-01	 1.073115423343092e+01
1	 1.332856925342636e+00	 4.675988306926970e-01	 1.039786735027792e+01
1	 1.323371185535879e+00	 4.938065969559547e-01	 1.001525860906175e+01
1	 1.313325975218275e+00	 5.199337772524837e-01	 9.582641310569629e+00
1	 1.395064491421928e+00	 2.581600805861633e-01	 1.153617337873811e+01
1	 1.389924212758221e+00	 2.845386532827527e-01	 1.151529989944293e+01
1	 1.384251509634814e+00	 3.109651435257125e-01	 1.145363164138742e+01
1	 1.378040712107117e+00	 3.374245962909735e-01	 1.134975669616197e+01
1	 1.371286668860131e+00	 3.639016820624525e-01	 1.120232636669094e+01
1	 1.363984771895638e+00	 3.903807172938745e-01	 1.101006229651149e+01
1	 1.356130980381045e+00	 4.168456866128121e-01	 1.077176356368341e+01
1	 1.347721843526666e+00	 4.432802667378981e-01	 1.048631369440501e+01
1	 1.338754522358166e+00	 4.696678520691583e-01	 1.015268754978965e+01
1	 1.329226810251690e+00	 4.959915819001726e-01	 9.769958037997942e+00
1	 1.319137152101175e+00	 5.222343691894142e-01	 9.337302603056227e+00
1	 1.401210149974721e+00	 2.592973496651468e-01	 1.131466593264757e+01
1	 1.396047226911685e+00	 2.857921275276960e-01	 1.128807996131816e+01
1	 1.390349533906780e+00	 3.123350340271647e-01	 1.122171713646413e+01
1	 1.384111376037683e+00	 3.389110482583209e-01	 1.111406778219172e+01
1	 1.377327579296380e+00	 3.655047731741742e-01	 1.096367930526018e+01
1	 1.369993515385103e+00	 3.921004561379380e-01	 1.076916353019727e+01
1	 1.362105125670231e+00	 4.186820112248841e-01	 1.052920403736761e+01
1	 1.353658944160366e+00	 4.452330432449173e-01	 1.024256345921306e+01
1	 1.344652119374675e+00	 4.717368734456409e-01	 9.908090687961217e+00
1	 1.335082434968495e+00	 4.981765668443958e-01	 9.524727946523392e+00
1	 1.324948328985076e+00	 5.245349611263449e-01	 9.091517673110285e+00
1	 1.407355808527999e+00	 2.604346187446449e-01	 1.109753485110713e+01
1	 1.402170241065731e+00	 2.870456017730587e-01	 1.106479168634287e+01
1	 1.396447558179412e+00	 3.137049245289500e-01	 1.099327960462866e+01
1	 1.390182039968992e+00	 3.403975002259247e-01	 1.088139176318511e+01
1	 1.383368489733441e+00	 3.671078642860854e-01	 1.072757231112152e+01
1	 1.376002258875435e+00	 3.938201949821338e-01	 1.053032392947829e+01
1	 1.368079270960332e+00	 4.205183358370412e-01	 1.028821541234276e+01
1	 1.359596044795017e+00	 4.471858197519847e-01	 9.999889244397682e+00
1	 1.350549716392163e+00	 4.738058948221451e-01	 9.664069128040918e+00
1	 1.340938059686295e+00	 5.003615517886245e-01	 9.279567411324390e+00
1	 1.330759505869976e+00	 5.268355530632755e-01	 8.845292366440621e+00
1	 1.413501467081764e+00	 2.615718878246577e-01	 1.088472305109818e+01
1	 1.408293255220358e+00	 2.882990760188405e-01	 1.084538379195161e+01
1	 1.402545582452712e+00	 3.150748150310687e-01	 1.076827369405557e+01
1	 1.396252703901046e+00	 3.418839521937852e-01	 1.065168934050988e+01
1	 1.389409400171311e+00	 3.687109553981860e-01	 1.049397225296032e+01
1	 1.382011002366635e+00	 3.955399338264619e-01	 1.029351663567110e+01
1	 1.374053416251349e+00	 4.223546604492833e-01	 1.004877719859057e+01
1	 1.365533145430621e+00	 4.491385962590999e-01	 9.758277014909337e+00
1	 1.356447313410629e+00	 4.758749161986708e-01	 9.420615366090100e+00
1	 1.346793684405089e+00	 5.025465367328585e-01	 9.034475525144856e+00
1	 1.336570682755877e+00	 5.291361450002061e-01	 8.598632427091507e+00
1	 1.278458913941872e+00	 5.061302256309002e-01	 1.104496213288672e+01
1	 1.268134914712668e+00	 5.314685672938273e-01	 1.056091985170246e+01
1	 1.257265245088787e+00	 5.566948027665093e-01	 1.001345503487668e+01
1	 1.245850388570336e+00	 5.817918951274083e-01	 9.404348709084978e+00
1	 1.233891518724545e+00	 6.067427131481519e-01	 8.735592410620626e+00
1	 1.221390509372735e+00	 6.315300654405880e-01	 8.009385028809202e+00
1	 1.208349942789196e+00	 6.561367355249965e-01	 7.228128538548717e+00
1	 1.194773115827342e+00	 6.805455176867415e-01	 6.394422618692744e+00
1	 1.180664043898490e+00	 7.047392534804007e-01	 5.511058161916374e+00
1	 1.166027462739399e+00	 7.287008687329783e-01	 4.581009690863650e+00
1	 1.150868827916379e+00	 7.524134108913275e-01	 3.607426704666176e+00
1	 1.284270090818772e+00	 5.084308175678308e-01	 1.080242950551284e+01
1	 1.273899164320742e+00	 5.338843335112962e-01	 1.032719033917083e+01
1	 1.262980087108079e+00	 5.592252336908833e-01	 9.789040070518830e+00
1	 1.251513344878617e+00	 5.844364037445010e-01	 9.189808419640695e+00
1	 1.239500116533984e+00	 6.095006345745566e-01	 8.531534750546133e+00
1	 1.226942284412871e+00	 6.344006566502240e-01	 7.816464681516084e+00
1	 1.213842442527176e+00	 6.591191752350567e-01	 7.047045583736823e+00
1	 1.200203902716014e+00	 6.836389064066248e-01	 6.225920966490028e+00
1	 1.186030698642567e+00	 7.079426137265713e-01	 5.355923756132378e+00
1	 1.171327587569675e+00	 7.320131454120232e-01	 4.440068485287449e+00
1	 1.156100049861672e+00	 7.558334718527737e-01	 3.481542417977896e+00
1	 1.290081267696672e+00	 5.107314095047611e-01	 1.055941331563894e+01
1	 1.279663413929810e+00	 5.363000997287651e-01	 1.009312721129543e+01
1	 1.268694929128350e+00	 5.617556646152571e-01	 9.564436108927275e+00
1	 1.257176301187853e+00	 5.870809123615933e-01	 8.975218096184747e+00
1	 1.245108714344344e+00	 6.122585560009611e-01	 8.327560047340796e+00
1	 1.232494059453884e+00	 6.372712478598600e-01	 7.623754001853538e+00
1	 1.219334942265980e+00	 6.621016149451170e-01	 6.866292430366700e+00
1	 1.205634689605445e+00	 6.867322951265079e-01	 6.057862387956998e+00
1	 1.191397353387330e+00	 7.111459739727419e-01	 5.201338563446779e+00
1	 1.176627712400551e+00	 7.353254220910681e-01	 4.299775242821163e+00
1	 1.161331271807471e+00	 7.592535328142199e-01	 3.356397214106592e+00
1	 1.295892444575573e+00	 5.130320014416919e-01	 1.031592006859023e+01
1	 1.285427663539874e+00	 5.387158659462338e-01	 9.858734956175333e+00
1	 1.274409771149602e+00	 5.642860955396309e-01	 9.339645692666139e+00
1	 1.262839257498046e+00	 5.897254209786860e-01	 8.760578411821012e+00
1	 1.250717312155628e+00	 6.150164774273658e-01	 8.123667184993701e+00
1	 1.238045834495775e+00	 6.401418390694961e-01	 7.431250169181604e+00
1	 1.224827442005608e+00	 6.650840546551771e-01	 6.685864641648571e+00
1	 1.211065476495635e+00	 6.898256838463910e-01	 5.890240922462335e+00
1	 1.196764008132779e+00	 7.143493342189123e-01	 5.047295195343775e+00
1	 1.181927837232027e+00	 7.386376987701130e-01	 4.160121246473454e+00
1	 1.166562493753775e+00	 7.626735937756662e-01	 3.231981150235392e+00
1	 1.301703621455474e+00	 5.153325933786226e-01	 1.007195615352537e+01
1	 1.291191913150932e+00	 5.411316321637026e-01	 9.624017981764943e+00
1	 1.280124613171834e+00	 5.668165264640049e-01	 9.114671318896539e+00
1	 1.268502213809195e+00	 5.923699295957787e-01	 8.545890027633650e+00
1	 1.256325909967832e+00	 6.177743988537704e-01	 7.919855067422501e+00
1	 1.243597609538544e+00	 6.430124302791322e-01	 7.238950413228860e+00
1	 1.230319941746060e+00	 6.680664943652374e-01	 6.505757860020970e+00
1	 1.216496263386585e+00	 6.929190725662742e-01	 5.723050715814532e+00
1	 1.202130662878911e+00	 7.175526944650831e-01	 4.893786395245195e+00
1	 1.187227962064104e+00	 7.419499754491581e-01	 4.021097934913685e+00
1	 1.171793715700584e+00	 7.660936547371126e-01	 3.108284461097635e+00
1	 1.307514798336374e+00	 5.176331853155530e-01	 9.827527846018000e+00
1	 1.296956162762986e+00	 5.435473983811714e-01	 9.388980617655072e+00
1	 1.285839455195048e+00	 5.693469573883787e-01	 8.889515440385711e+00
1	 1.274165170121301e+00	 5.950144382128715e-01	 8.331153592954184e+00
1	 1.261934507780960e+00	 6.205323202801751e-01	 7.716122618030985e+00
1	 1.249149384582191e+00	 6.458830214887679e-01	 7.046852012973284e+00
1	 1.235812441487336e+00	 6.710489340752979e-01	 6.325967805390444e+00
1	 1.221927050278294e+00	 6.960124612861573e-01	 5.556286017896811e+00
1	 1.207497317625729e+00	 7.207560547112536e-01	 4.740805035578766e+00
1	 1.192528086896780e+00	 7.452622521282031e-01	 3.882696899012291e+00
1	 1.177024937647899e+00	 7.695137156985589e-01	 2.985297555031452e+00
1	 1.313325975218275e+00	 5.199337772524837e-01	 9.582641310569629e+00
1	 1.302720412376035e+00	 5.459631645986402e-01	 9.153627116806565e+00
1	 1.291554297219242e+00	 5.718773883127527e-01	 8.664180466489055e+00
1	 1.279828126434363e+00	 5.976589468299638e-01	 8.116369745621581e+00
1	 1.267543105595009e+00	 6.232902417065795e-01	 7.512468779277591e+00
1	 1.254701159626717e+00	 6.487536126984043e-01	 6.854952295552388e+00
1	 1.241304941229435e+00	 6.740313737853578e-01	 6.146490273417131e+00
1	 1.227357837170762e+00	 6.991058500060402e-01	 5.389941180364127e+00
1	 1.212863972373232e+00	 7.239594149574241e-01	 4.588344114923912e+00
1	 1.197828211730057e+00	 7.485745288072478e-01	 3.744909878474231e+00
1	 1.182256159595719e+00	 7.729337766600055e-01	 2.863011010138860e+00
1	 1.319137152101175e+00	 5.222343691894142e-01	 9.337302603056227e+00
1	 1.308484661990080e+00	 5.483789308161091e-01	 8.917961657238255e+00
1	 1.297269139244416e+00	 5.744078192371266e-01	 8.438668764106271e+00
1	 1.285491082748381e+00	 6.003034554470567e-01	 7.901539112235343e+00
1	 1.273151703409980e+00	 6.260481631329843e-01	 7.308892512255882e+00
1	 1.260252934672119e+00	 6.516242039080401e-01	 6.663248635202669e+00
1	 1.246797440972357e+00	 6.770138134954182e-01	 5.967321133846626e+00
1	 1.232788624063990e+00	 7.021992387259236e-01	 5.224010654401786e+00
1	 1.218230627121419e+00	 7.271627752035947e-01	 4.436396755233060e+00
1	 1.203128336563934e+00	 7.518868054862928e-01	 3.607728758560202e+00
1	 1.187487381544044e+00	 7.763538376214514e-01	 2.741415570546538e+00
1	 1.324948328985076e+00	 5.245349611263449e-01	 9.091517673110285e+00
1	 1.314248911605120e+00	 5.507946970335781e-01	 8.681988343670396e+00
1	 1.302983981270572e+00	 5.769382501615004e-01	 8.212982658612670e+00
1	 1.291154039063356e+00	 6.029479640641492e-01	 7.686662308401942e+00
1	 1.278760301225874e+00	 6.288060845593889e-01	 7.105392796285903e+00
1	 1.265804709718400e+00	 6.544947951176762e-01	 6.471738452226612e+00
1	 1.252289940716104e+00	 6.799962532054784e-01	 5.788456328885021e+00
1	 1.238219410957978e+00	 7.052926274458067e-01	 5.058488988542837e+00
1	 1.223597281870291e+00	 7.303661354497651e-01	 4.284956199126316e+00
1	 1.208428461398411e+00	 7.551990821653378e-01	 3.471145566894640e+00
1	 1.192718603492874e+00	 7.797738985828978e-01	 2.620502142764904e+00
1	 1.330759505869976e+00	 5.268355530632755e-01	 8.845292366440621e+00
1	 1.320013161221155e+00	 5.532104632510469e-01	 8.445711209125047e+00
1	 1.308698823297708e+00	 5.794686810858742e-01	 7.987124434765493e+00
1	 1.296816995379287e+00	 6.055924726812419e-01	 7.471739938975006e+00
1	 1.284368899042690e+00	 6.315640059857937e-01	 6.901968628516066e+00
1	 1.271356484765559e+00	 6.573653863273122e-01	 6.280419211986957e+00
1	 1.257782440460674e+00	 6.829786929155387e-01	 5.609891871616973e+00
1	 1.243650197852724e+00	 7.083860161656897e-01	 4.893370826542332e+00
1	 1.228963936619848e+00	 7.335694956959358e-01	 4.134015807256353e+00
1	 1.213728586233489e+00	 7.585113588443829e-01	 3.335152470357504e+00
1	 1.197949825442210e+00	 7.831939595443440e-01	 2.500261792142568e+00
1	 1.336570682755877e+00	 5.291361450002061e-01	 8.598632427091507e+00
1	 1.325777410838185e+00	 5.556262294685158e-01	 8.209134216484774e+00
1	 1.314413665325824e+00	 5.819991120102481e-01	 7.761096337587224e+00
1	 1.302479951696174e+00	 6.082369812983345e-01	 7.256772598288866e+00
1	 1.289977496860428e+00	 6.343219274121985e-01	 6.698619023535826e+00
1	 1.276908259813596e+00	 6.602359775369483e-01	 6.089288423927058e+00
1	 1.263274940206069e+00	 6.859611326255990e-01	 5.431623844464724e+00
1	 1.249080984748231e+00	 7.114794048855729e-01	 4.728650905307462e+00
1	 1.234330591370090e+00	 7.367728559421065e-01	 3.983569055742997e+00
1	 1.219028711069166e+00	 7.618236355234280e-01	 3.199741772057063e+00
1	 1.203181047392051e+00	 7.866140205057904e-01	 2.380685739413341e+00
1	 1.150868827916379e+00	 7.524134108913275e-01	 3.607426704666176e+00
1	 1.135194312025773e+00	 7.758600865535584e-01	 2.113260525373092e+00
1	 1.119010799564737e+00	 7.990242990192603e-01	 6.294082125955682e-01
1	 1.102325879458094e+00	 8.218896856909991e-01	-8.417895532403767e-01
1	 1.085147835240981e+00	 8.444401551573475e-01	-2.298032759302276e+00
1	 1.067485632912430e+00	 8.666599237864125e-01	-3.737070406784375e+00
1	 1.049348906487999e+00	 8.885335516599899e-01	-5.156708662747690e+00
1	 1.030747941294040e+00	 9.100459776802332e-01	-6.554818764227800e+00
1	 1.011693655060161e+00	 9.311825536839636e-01	-7.929344623022291e+00
1	 9.921975768801612e-01	 9.519290774042841e-01	-9.278310081650002e+00
1	 9.722718241249999e-01	 9.722718241250000e-01	-1.059982577356613e+01
1	 1.156100049861672e+00	 7.558334718527737e-01	 3.481542417977896e+00
1	 1.140354286172117e+00	 7.793867233133236e-01	 1.996070236397193e+00
1	 1.124097212291288e+00	 8.026562276537506e-01	 5.193229097355725e-01
1	 1.107336451639120e+00	 8.256255479011780e-01	-9.464065659221921e-01
1	 1.090080325403184e+00	 8.482785195013993e-01	-2.398860327852770e+00
1	 1.072337840337052e+00	 8.705992870787405e-01	-3.835823762459058e+00
1	 1.054118674247262e+00	 8.925723405335509e-01	-5.255133454434784e+00
1	 1.035433159211647e+00	 9.141825503084495e-01	-6.654684917867915e+00
1	 1.016292262585860e+00	 9.354152016576956e-01	-8.032440059143202e+00
1	 9.967075658686718e-01	 9.562560277586354e-01	-9.386434323343799e+00
1	 9.766912415099999e-01	 9.766912415099999e-01	-1.071478347817773e+01
1	 1.161331271807471e+00	 7.592535328142199e-01	 3.356397214106592e+00
1	 1.145514260318869e+00	 7.829133600730888e-01	 1.879461666268338e+00
1	 1.129183625018162e+00	 8.062881562882408e-01	 4.096757793227581e-01
1	 1.112347023820395e+00	 8.293614101113566e-01	-1.050714785653754e+00
1	 1.095012815565571e+00	 8.521168838454509e-01	-2.499494000219674e+00
1	 1.077190047761802e+00	 8.745386503710683e-01	-3.934483355105466e+00
1	 1.058888442006607e+00	 8.966111294071121e-01	-5.353549607989358e+00
1	 1.040118377129301e+00	 9.183191229366652e-01	-6.754612342717548e+00
1	 1.020890870111580e+00	 9.396478496314279e-01	-8.135651291274382e+00
1	 1.001217554857188e+00	 9.605829781129869e-01	-9.494713371397147e+00
1	 9.811106588949999e-01	 9.811106588949999e-01	-1.082991939480116e+01
1	 1.166562493753775e+00	 7.626735937756662e-01	 3.231981150235392e+00
1	 1.150674234466033e+00	 7.864399968328540e-01	 1.763426989173601e+00
1	 1.134270037745361e+00	 8.099200849227309e-01	 3.004609266613152e-01
1	 1.117357596001919e+00	 8.330972723215352e-01	-1.154718366599573e+00
1	 1.099945305728141e+00	 8.559552481895029e-01	-2.599936384871016e+00
1	 1.082042255186680e+00	 8.784780136633965e-01	-4.033050446109335e+00
1	 1.063658209766032e+00	 9.006499182806732e-01	-5.451957239619100e+00
1	 1.044803595047000e+00	 9.224556955648811e-01	-6.854600214500086e+00
1	 1.025489477637320e+00	 9.438804976051598e-01	-8.238976761621887e+00
1	 1.005727543845708e+00	 9.649099284673383e-01	-9.603145143213474e+00
1	 9.855300762799999e-01	 9.855300762799999e-01	-1.094523112596546e+01
1	 1.171793715700584e+00	 7.660936547371126e-01	 3.108284461097635e+00
1	 1.155834208613606e+00	 7.899666335926191e-01	 1.647958519046505e+00
1	 1.139356450472885e+00	 8.135520135572212e-01	 1.916725623178679e-01
1	 1.122368168183692e+00	 8.368331345317139e-01	-1.258421388742645e+00
1	 1.104877795890894e+00	 8.597936125335544e-01	-2.700190043695517e+00
1	 1.086894462611684e+00	 8.824173769557242e-01	-4.131526274331293e+00
1	 1.068427977525540e+00	 9.046887071542343e-01	-5.550356463456604e+00
1	 1.049488812964745e+00	 9.265922681930969e-01	-6.954647723658228e+00
1	 1.030088085163080e+00	 9.481131455788923e-01	-8.342414940209419e+00
1	 1.010237532834234e+00	 9.692368788216899e-01	-9.711727593384854e+00
1	 9.899494936650000e-01	 9.899494936650000e-01	-1.106071631701155e+01
1	 1.177024937647899e+00	 7.695137156985589e-01	 2.985297555031452e+00
1	 1.160994182761590e+00	 7.934932703523844e-01	 1.533048706461962e+00
1	 1.144442863200734e+00	 8.171839421917112e-01	 8.330499978244266e-02
1	 1.127378740365715e+00	 8.405689967418930e-01	-1.361827859533048e+00
1	 1.109810286053830e+00	 8.636319768776062e-01	-2.800257493036849e+00
1	 1.091746670036817e+00	 8.863567402480522e-01	-4.229912056608258e+00
1	 1.073197745285130e+00	 9.087274960277958e-01	-5.648747391605289e+00
1	 1.054174030882536e+00	 9.307288408213130e-01	-7.054754075026676e+00
1	 1.034686692688861e+00	 9.523457935526245e-01	-8.445964324260338e+00
1	 1.014747521822765e+00	 9.735638291760412e-01	-9.820458712866872e+00
1	 9.943689110499998e-01	 9.943689110499998e-01	-1.117637265514108e+01
1	 1.182256159595719e+00	 7.729337766600055e-01	 2.863011010138860e+00
1	 1.166154156909983e+00	 7.970199071121491e-01	 1.418690135612840e+00
1	 1.149529275928907e+00	 8.208158708262014e-01	-2.464734680880287e-02
1	 1.132389312547985e+00	 8.443048589520714e-01	-1.464941715492366e+00
1	 1.114742776216950e+00	 8.674703412216576e-01	-2.900141204701901e+00
1	 1.096598877462076e+00	 8.902961035403801e-01	-4.328208988239811e+00
1	 1.077967513044800e+00	 9.127662849013570e-01	-5.747130134184935e+00
1	 1.058859248800373e+00	 9.348654134495288e-01	-7.154918487513967e+00
1	 1.039285300214663e+00	 9.565784415263566e-01	-8.549623437595791e+00
1	 1.019257510811301e+00	 9.778907795303925e-01	-9.929336528172851e+00
1	 9.987883284349999e-01	 9.987883284349999e-01	-1.129219786849011e+01
1	 1.187487381544044e+00	 7.763538376214514e-01	 2.741415570546538e+00
1	 1.171314131058787e+00	 8.005465438719146e-01	 1.304875521367105e+00
1	 1.154615688657405e+00	 8.244477994606917e-01	-1.321899648904328e-01
1	 1.137399884730505e+00	 8.480407211622503e-01	-1.567766823776296e+00
1	 1.119675266380252e+00	 8.713087055657096e-01	-2.999843606941071e+00
1	 1.101451084887463e+00	 8.942354668327080e-01	-4.426418243463138e+00
1	 1.082737280804553e+00	 9.168050737749180e-01	-5.845504799374264e+00
1	 1.063544466718256e+00	 9.390019860777447e-01	-7.255140193792230e+00
1	 1.043883907740484e+00	 9.608110895000885e-01	-8.653390830048732e+00
1	 1.023767499799842e+00	 9.822177298847439e-01	-1.003835910059130e+01
1	 1.003207745820000e+00	 1.003207745820000e+00	-1.140818972522747e+01
1	 1.192718603492874e+00	 7.797738985828978e-01	 2.620502142764904e+00
1	 1.176474105208001e+00	 8.040731806316798e-01	 1.191597706402042e+00
1	 1.159702101386227e+00	 8.280797280951818e-01	-2.393282456261545e-01
1	 1.142410456913274e+00	 8.517765833724290e-01	-1.670306983695795e+00
1	 1.124607756543738e+00	 8.751470699097612e-01	-3.099367085404367e+00
1	 1.106303292312977e+00	 8.981748301250361e-01	-4.524540975914773e+00
1	 1.087507048564387e+00	 9.208438626484794e-01	-5.943871493454514e+00
1	 1.068229684636184e+00	 9.431385587059604e-01	-7.355418439995576e+00
1	 1.048482515266327e+00	 9.650437374738212e-01	-8.757265076893944e+00
1	 1.028277488788389e+00	 9.865446802390954e-01	-1.014752452542339e+01
1	 1.007627163205000e+00	 1.007627163205000e+00	-1.152434603267699e+01
1	 1.197949825442210e+00	 7.831939595443440e-01	 2.500261792142568e+00
1	 1.181634079357625e+00	 8.075998173914450e-01	 1.078849658413682e+00
1	 1.164788514115374e+00	 8.317116567296722e-01	-3.460674860111208e-01
1	 1.147421029096291e+00	 8.555124455826076e-01	-1.772565928198099e+00
1	 1.129540246707407e+00	 8.789854342538130e-01	-3.198713984070777e+00
1	 1.111155499738618e+00	 9.021141934173639e-01	-4.622578319080294e+00
1	 1.092276816324302e+00	 9.248826515220406e-01	-6.042230320850351e+00
1	 1.072914902554159e+00	 9.472751313341764e-01	-7.455752485426171e+00
1	 1.053081122792189e+00	 9.692763854475532e-01	-8.861244778292093e+00
1	 1.032787477776940e+00	 9.908716305934469e-01	-1.025683093123996e+01
1	 1.012046580590000e+00	 1.012046580590000e+00	-1.164066463646260e+01
1	 1.203181047392051e+00	 7.866140205057904e-01	 2.380685739413341e+00
1	 1.186794053507660e+00	 8.111264541512102e-01	 9.666244673988991e-01
1	 1.169874926844846e+00	 8.353435853641624e-01	-4.524128909185134e-01
1	 1.152431601279559e+00	 8.592483077927865e-01	-1.874547325309630e+00
1	 1.134472736871259e+00	 8.828237985978646e-01	-3.297886606154563e+00
1	 1.116007707164387e+00	 9.060535567096920e-01	-4.720531386732739e+00
1	 1.097046584084299e+00	 9.289214403956018e-01	-6.140581384170343e+00
1	 1.077600120472180e+00	 9.514117039623922e-01	-7.556141602267619e+00
1	 1.057679730318073e+00	 9.735090334212855e-01	-8.965328558748663e+00
1	 1.037297466765497e+00	 9.951985809477983e-01	-1.036627647915871e+01
1	 1.016465997975000e+00	 1.016465997975000e+00	-1.175714341967552e+01
1	 9.722718241249999e-01	 9.722718241250000e-01	-1.059982577356613e+01
1	 9.519290774042841e-01	 9.921975768801613e-01	-1.224058411708321e+01
1	 9.311825536839639e-01	 1.011693655060161e+00	-1.396772006334309e+01
1	 9.100459776802337e-01	 1.030747941294040e+00	-1.578438264293948e+01
1	 8.885335516599900e-01	 1.049348906487999e+00	-1.769333225479148e+01
1	 8.666599237864128e-01	 1.067485632912429e+00	-1.969692781822292e+01
1	 8.444401551573480e-01	 1.085147835240981e+00	-2.179711617499921e+01
1	 8.218896856909996e-01	 1.102325879458094e+00	-2.399542380385800e+01
1	 7.990242990192606e-01	 1.119010799564737e+00	-2.629295089006905e+01
1	 7.758600865535590e-01	 1.135194312025773e+00	-2.869036777230705e+01
1	 7.524134108913275e-01	 1.150868827916379e+00	-3.118791376884567e+01
1	 9.766912415099999e-01	 9.766912415099999e-01	-1.071478347817773e+01
1	 9.562560277586355e-01	 9.967075658686718e-01	-1.238103724229399e+01
1	 9.354152016576956e-01	 1.016292262585860e+00	-1.412986646749648e+01
1	 9.141825503084493e-01	 1.035433159211647e+00	-1.596426748740702e+01
1	 8.925723405335512e-01	 1.054118674247262e+00	-1.788686234995917e+01
1	 8.705992870787408e-01	 1.072337840337052e+00	-1.989988648785515e+01
1	 8.482785195013998e-01	 1.090080325403184e+00	-2.200517855872317e+01
1	 8.256255479011786e-01	 1.107336451639120e+00	-2.420417251509645e+01
1	 8.026562276537511e-01	 1.124097212291287e+00	-2.649789194504541e+01
1	 7.793867233133243e-01	 1.140354286172116e+00	-2.888694670474636e+01
1	 7.558334718527737e-01	 1.156100049861672e+00	-3.137153184471366e+01
1	 9.811106588949999e-01	 9.811106588949999e-01	-1.082991939480116e+01
1	 9.605829781129870e-01	 1.001217554857188e+00	-1.252106694227335e+01
1	 9.396478496314277e-01	 1.020890870111580e+00	-1.429102230817500e+01
1	 9.183191229366653e-01	 1.040118377129301e+00	-1.614263018921953e+01
1	 8.966111294071121e-01	 1.058888442006606e+00	-1.807837524897742e+01
1	 8.745386503710685e-01	 1.077190047761802e+00	-2.010037030355788e+01
1	 8.521168838454513e-01	 1.095012815565571e+00	-2.221034659721077e+01
1	 8.293614101113571e-01	 1.112347023820395e+00	-2.440964622557273e+01
1	 8.062881562882414e-01	 1.129183625018162e+00	-2.669921674568893e+01
1	 7.829133600730896e-01	 1.145514260318869e+00	-2.907960799310404e+01
1	 7.592535328142201e-01	 1.161331271807471e+00	-3.155097110747226e+01
1	 9.855300762799999e-01	 9.855300762799999e-01	-1.094523112596546e+01
1	 9.649099284673383e-01	 1.005727543845708e+00	-1.266067891332471e+01
1	 9.438804976051600e-01	 1.025489477637320e+00	-1.445120091134462e+01
1	 9.224556955648811e-01	 1.044803595047000e+00	-1.631949122563237e+01
1	 9.006499182806736e-01	 1.063658209766032e+00	-1.826789808901408e+01
1	 8.784780136633965e-01	 1.082042255186679e+00	-2.029841255933007e+01
1	 8.559552481895034e-01	 1.099945305728141e+00	-2.241265922784201e+01
1	 8.330972723215360e-01	 1.117357596001919e+00	-2.461188899359290e+01
1	 8.099200849227313e-01	 1.134270037745361e+00	-2.689697394116068e+01
1	 7.864399968328548e-01	 1.150674234466033e+00	-2.926840434111285e+01
1	 7.626735937756665e-01	 1.166562493753775e+00	-3.172628777433780e+01
1	 9.899494936650000e-01	 9.899494936650000e-01	-1.106071631701155e+01
1	 9.692368788216895e-01	 1.010237532834234e+00	-1.279987875003199e+01
1	 9.481131455788923e-01	 1.030088085163080e+00	-1.461041536500736e+01
1	 9.265922681930970e-01	 1.049488812964745e+00	-1.649487070823528e+01
1	 9.046887071542349e-01	 1.068427977525540e+00	-1.845545752264457e+01
1	 8.824173769557243e-01	 1.086894462611684e+00	-2.049404595463426e+01
1	 8.597936125335547e-01	 1.104877795890894e+00	-2.261215469268544e+01
1	 8.368331345317145e-01	 1.122368168183692e+00	-2.481094409070731e+01
1	 8.135520135572217e-01	 1.139356450472884e+00	-2.709121131188666e+01
1	 7.899666335926200e-01	 1.155834208613606e+00	-2.945338751136603e+01
1	 7.660936547371126e-01	 1.171793715700584e+00	-3.189753705864862e+01
1	 9.943689110499998e-01	 9.943689110499998e-01	-1.117637265514108e+01
1	 9.735638291760411e-01	 1.014747521822765e+00	-1.293867194751973e+01
1	 9.523457935526246e-01	 1.034686692688861e+00	-1.476867852448998e+01
1	 9.307288408213129e-01	 1.054174030882536e+00	-1.666878839107908e+01
1	 9.087274960277958e-01	 1.073197745285129e+00	-1.864107972862019e+01
1	 8.863567402480523e-01	 1.091746670036816e+00	-2.068730260761006e+01
1	 8.636319768776065e-01	 1.109810286053830e+00	-2.280887055395149e+01
1	 8.405689967418934e-01	 1.127378740365714e+00	-2.500685401919410e+01
1	 8.171839421917121e-01	 1.144442863200733e+00	-2.728197578886320e+01
1	 7.934932703523850e-01	 1.160994182761589e+00	-2.963460834623359e+01
1	 7.695137156985589e-01	 1.177024937647899e+00	-3.206477319217194e+01
1	 9.987883284349999e-01	 9.987883284349999e-01	-1.129219786849011e+01
1	 9.778907795303925e-01	 1.019257510811301e+00	-1.307706390365361e+01
1	 9.565784415263565e-01	 1.039285300214663e+00	-1.492600301759123e+01
1	 9.348654134495289e-01	 1.058859248800373e+00	-1.684126367858505e+01
1	 9.127662849013571e-01	 1.077967513044800e+00	-1.882479042235266e+01
1	 8.902961035403805e-01	 1.096598877462076e+00	-2.087821406793385e+01
1	 8.674703412216582e-01	 1.114742776216949e+00	-2.300284370903240e+01
1	 8.443048589520721e-01	 1.132389312547985e+00	-2.519966052907931e+01
1	 8.208158708262021e-01	 1.149529275928906e+00	-2.746931347244972e+01
1	 7.970199071121501e-01	 1.166154156909983e+00	-2.981211678822053e+01
1	 7.729337766600054e-01	 1.182256159595719e+00	-3.222804944682120e+01
1	 1.003207745820000e+00	 1.003207745820000e+00	-1.140818972522747e+01
1	 9.822177298847440e-01	 1.023767499799843e+00	-1.321505992118270e+01
1	 9.608110895000884e-01	 1.043883907740484e+00	-1.508240124959347e+01
1	 9.390019860777449e-01	 1.063544466718255e+00	-1.701231563324641e+01
1	 9.168050737749183e-01	 1.082737280804552e+00	-1.900661486611752e+01
1	 8.942354668327084e-01	 1.101451084887463e+00	-2.106681132934089e+01
1	 8.713087055657097e-01	 1.119675266380252e+00	-2.319411040514597e+01
1	 8.480407211622506e-01	 1.137399884730505e+00	-2.538940463470503e+01
1	 8.244477994606924e-01	 1.154615688657404e+00	-2.765326965066403e+01
1	 8.005465438719155e-01	 1.171314131058787e+00	-2.998596189978818e+01
1	 7.763538376214514e-01	 1.187487381544044e+00	-3.238741815579752e+01
1	 1.007627163205000e+00	 1.007627163205000e+00	-1.152434603267699e+01
1	 9.865446802390953e-01	 1.028277488788389e+00	-1.335266520982544e+01
1	 9.650437374738209e-01	 1.048482515266327e+00	-1.523788540814264e+01
1	 9.431385587059605e-01	 1.068229684636184e+00	-1.718196298312672e+01
1	 9.208438626484795e-01	 1.087507048564386e+00	-1.918657787899365e+01
1	 8.981748301250362e-01	 1.106303292312976e+00	-2.125312484181648e+01
1	 8.751470699097615e-01	 1.124607756543738e+00	-2.338270625359418e+01
1	 8.517765833724296e-01	 1.142410456913274e+00	-2.557612663086423e+01
1	 8.280797280951826e-01	 1.159702101386227e+00	-2.783388881699823e+01
1	 8.040731806316804e-01	 1.176474105208001e+00	-3.015619188265189e+01
1	 7.797738985828977e-01	 1.192718603492874e+00	-3.254293073417581e+01
1	 1.012046580590000e+00	 1.012046580590000e+00	-1.164066463646260e+01
1	 9.908716305934467e-01	 1.032787477776941e+00	-1.348988488830084e+01
1	 9.692763854475531e-01	 1.053081122792190e+00	-1.539246746800010e+01
1	 9.472751313341764e-01	 1.072914902554159e+00	-1.735022412916180e+01
1	 9.248826515220406e-01	 1.092276816324302e+00	-1.936470384653756e+01
1	 9.021141934173643e-01	 1.111155499738618e+00	-2.143718452346882e+01
1	 8.789854342538133e-01	 1.129540246707406e+00	-2.356866624364769e+01
1	 8.555124455826082e-01	 1.147421029096291e+00	-2.575986610851006e+01
1	 8.317116567296727e-01	 1.164788514115374e+00	-2.801121468776460e+01
1	 8.075998173914459e-01	 1.181634079357625e+00	-3.032285409657696e+01
1	 7.831939595443440e-01	 1.197949825442210e+00	-3.269463769895084e+01
1	 1.016465997975000e+00	 1.016465997975000e+00	-1.175714341967552e+01
1	 9.951985809477983e-01	 1.037297466765497e+00	-1.362672398630666e+01
1	 9.735090334212854e-01	 1.057679730318073e+00	-1.554615919567043e+01
1	 9.514117039623926e-01	 1.077600120472180e+00	-1.751711715227131e+01
1	 9.289214403956021e-01	 1.097046584084299e+00	-1.954101673021034e+01
1	 9.060535567096923e-01	 1.116007707164387e+00	-2.161901977209097e+01
1	 8.828237985978652e-01	 1.134472736871258e+00	-2.375202475606775e+01
1	 8.592483077927872e-01	 1.152431601279558e+00	-2.594066197005793e+01
1	 8.353435853641630e-01	 1.169874926844845e+00	-2.818529021899231e+01
1	 8.111264541512111e-01	 1.186794053507659e+00	-3.048599507767979e+01
1	 7.866140205057904e-01	 1.203181047392051e+00	-3.284258868856178e+01
1	 7.524134108913275e-01	 1.150868827916379e+00	-3.118791376884567e+01
1	 7.287008687329781e-01	 1.166027462739399e+00	-3.338919824753247e+01
1	 7.047392534804008e-01	 1.180664043898489e+00	-3.542474163443384e+01
1	 6.805455176867417e-01	 1.194773115827342e+00	-3.728712272628967e+01
1	 6.561367355249966e-01	 1.208349942789195e+00	-3.896963952454354e+01
1	 6.315300654405884e-01	 1.221390509372735e+00	-4.046632268624907e+01
1	 6.067427131481523e-01	 1.233891518724545e+00	-4.177194496524764e+01
1	 5.817918951274088e-01	 1.245850388570336e+00	-4.288202667871913e+01
1	 5.566948027665101e-01	 1.257265245088788e+00	-4.379283726516326e+01
1	 5.314685672938282e-01	 1.268134914712668e+00	-4.450139302920241e+01
1	 5.061302256309002e-01	 1.278458913941872e+00	-4.500545119605683e+01
1	 7.558334718527737e-01	 1.156100049861672e+00	-3.137153184471366e+01
1	 7.320131454120230e-01	 1.171327587569675e+00	-3.352152482831911e+01
1	 7.079426137265714e-01	 1.186030698642568e+00	-3.550464763122424e+01
1	 6.836389064066248e-01	 1.200203902716013e+00	-3.731352729800663e+01
1	 6.591191752350567e-01	 1.213842442527175e+00	-3.894151515437413e+01
1	 6.344006566502244e-01	 1.226942284412870e+00	-4.038270000198109e+01
1	 6.095006345745568e-01	 1.239500116533983e+00	-4.163191728103179e+01
1	 5.844364037445016e-01	 1.251513344878616e+00	-4.268475423804581e+01
1	 5.592252336908839e-01	 1.262980087108078e+00	-4.353755116723032e+01
1	 5.338843335112970e-01	 1.273899164320741e+00	-4.418739882332773e+01
1	 5.084308175678307e-01	 1.284270090818772e+00	-4.463213213131621e+01
1	 7.592535328142201e-01	 1.161331271807471e+00	-3.155097110747226e+01
1	 7.353254220910680e-01	 1.176627712400551e+00	-3.364980896657222e+01
1	 7.111459739727419e-01	 1.191397353387331e+00	-3.558065647170368e+01
1	 6.867322951265080e-01	 1.205634689605445e+00	-3.733618857766240e+01
1	 6.621016149451171e-01	 1.219334942265980e+00	-3.890980957922115e+01
1	 6.372712478598603e-01	 1.232494059453884e+00	-4.029566605136019e+01
1	 6.122585560009616e-01	 1.245108714344344e+00	-4.148865573484683e+01
1	 5.870809123615939e-01	 1.257176301187853e+00	-4.248443240680606e+01
1	 5.617556646152578e-01	 1.268694929128350e+00	-4.327940680709796e+01
1	 5.363000997287658e-01	 1.279663413929810e+00	-4.387074372084037e+01
1	 5.107314095047613e-01	 1.290081267696673e+00	-4.425635534497132e+01
1	 7.626735937756665e-01	 1.166562493753775e+00	-3.172628777433780e+01
1	 7.386376987701131e-01	 1.181927837232027e+00	-3.377410504492694e+01
1	 7.143493342189123e-01	 1.196764008132779e+00	-3.565282058398457e+01
1	 6.898256838463911e-01	 1.211065476495635e+00	-3.735515692344773e+01
1	 6.650840546551774e-01	 1.224827442005608e+00	-3.887457097673258e+01
1	 6.401418390694964e-01	 1.238045834495775e+00	-4.020526672586448e+01
1	 6.150164774273663e-01	 1.250717312155627e+00	-4.134220383156526e+01
1	 5.897254209786869e-01	 1.262839257498046e+00	-4.228110220819427e+01
1	 5.642860955396317e-01	 1.274409771149602e+00	-4.301844263672728e+01
1	 5.387158659462348e-01	 1.285427663539873e+00	-4.355146351855895e+01
1	 5.130320014416919e-01	 1.295892444575573e+00	-4.387815390054412e+01
1	 7.660936547371126e-01	 1.171793715700584e+00	-3.189753705864862e+01
1	 7.419499754491579e-01	 1.187227962064104e+00	-3.389446647490067e+01
1	 7.175526944650831e-01	 1.202130662878911e+00	-3.572119145996381e+01
1	 6.929190725662743e-01	 1.216496263386585e+00	-3.737048179429995e+01
1	 6.680664943652378e-01	 1.230319941746060e+00	-3.883584666424079e+01
1	 6.430124302791326e-01	 1.243597609538544e+00	-4.011154709748126e+01
1	 6.177743988537708e-01	 1.256325909967832e+00	-4.119260429918630e+01
1	 5.923699295957793e-01	 1.268502213809195e+00	-4.207480393284806e+01
1	 5.668165264640056e-01	 1.280124613171834e+00	-4.275469642143663e+01
1	 5.411316321637035e-01	 1.291191913150932e+00	-4.322959337407281e+01
1	 5.153325933786226e-01	 1.301703621455474e+00	-4.349756027113732e+01
1	 7.695137156985589e-01	 1.177024937647899e+00	-3.206477319217194e+01
1	 7.452622521282030e-01	 1.192528086896780e+00	-3.401094571847261e+01
1	 7.207560547112538e-01	 1.207497317625729e+00	-3.578581967612651e+01
1	 6.960124612861573e-01	 1.221927050278294e+00	-3.738221176988610e+01
1	 6.710489340752978e-01	 1.235812441487335e+00	-3.879368311788046e+01
1	 6.458830214887683e-01	 1.249149384582191e+00	-4.001455143691771e+01
1	 6.205323202801756e-01	 1.261934507780959e+00	-4.103989910610030e+01
1	 5.950144382128718e-01	 1.274165170121300e+00	-4.186557715512613e+01
1	 5.693469573883796e-01	 1.285839455195047e+00	-4.248820525516143e+01
1	 5.435473983811723e-01	 1.296956162762986e+00	-4.290516781994789e+01
1	 5.176331853155531e-01	 1.307514798336374e+00	-4.311460635255375e+01
1	 7.729337766600054e-01	 1.182256159595719e+00	-3.222804944682120e+01
1	 7.485745288072477e-01	 1.197828211730057e+00	-3.412359430909106e+01
1	 7.239594149574241e-01	 1.212863972373231e+00	-3.584675491379865e+01
1	 6.991058500060402e-01	 1.227357837170763e+00	-3.739039457005676e+01
1	 6.740313737853580e-01	 1.241304941229434e+00	-3.874812599120106e+01
1	 6.487536126984045e-01	 1.254701159626717e+00	-3.991432323132911e+01
1	 6.232902417065803e-01	 1.267543105595009e+00	-4.088412947789463e+01
1	 5.976589468299645e-01	 1.279828126434363e+00	-4.165346074895709e+01
1	 5.718773883127533e-01	 1.291554297219241e+00	-4.221900557530684e+01
1	 5.459631645986411e-01	 1.302720412376035e+00	-4.257822077755391e+01
1	 5.199337772524836e-01	 1.313325975218275e+00	-4.272932347606893e+01
1	 7.763538376214514e-01	 1.187487381544044e+00	-3.238741815579752e+01
1	 7.518868054862928e-01	 1.203128336563934e+00	-3.423246287212614e+01
1	 7.271627752035946e-01	 1.218230627121419e+00	-3.590404597886506e+01
1	 7.021992387259236e-01	 1.232788624063990e+00	-3.739507707378360e+01
1	 6.770138134954183e-01	 1.246797440972357e+00	-3.869922013328355e+01
1	 6.516242039080404e-01	 1.260252934672119e+00	-3.981090520157726e+01
1	 6.260481631329848e-01	 1.273151703409980e+00	-4.072533591371426e+01
1	 6.003034554470570e-01	 1.285491082748381e+00	-4.143849290326524e+01
1	 5.744078192371274e-01	 1.297269139244416e+00	-4.194713317720971e+01
1	 5.483789308161100e-01	 1.308484661990080e+00	-4.224878557052799e+01
1	 5.222343691894142e-01	 1.319137152101175e+00	-4.234174242086528e+01
1	 7.797738985828977e-01	 1.192718603492874e+00	-3.254293073417581e+01
1	 7.551990821653375e-01	 1.208428461398411e+00	-3.433760114478385e+01
1	 7.303661354497654e-01	 1.223597281870291e+00	-3.595774082096612e+01
1	 7.052926274458069e-01	 1.238219410957977e+00	-3.739630533760059e+01
1	 6.799962532054785e-01	 1.252289940716104e+00	-3.864700960638300e+01
1	 6.544947951176765e-01	 1.265804709718400e+00	-3.970433931903459e+01
1	 6.288060845593895e-01	 1.278760301225874e+00	-4.056355820219324e+01
1	 6.029479640641499e-01	 1.291154039063356e+00	-4.122071113699540e+01
1	 5.769382501615010e-01	 1.302983981270571e+00	-4.167262322821797e+01
1	 5.507946970335790e-01	 1.314248911605119e+00	-4.191689493788104e+01
1	 5.245349611263448e-01	 1.324948328985076e+00	-4.195189342613927e+01
1	 7.831939595443440e-01	 1.197949825442210e+00	-3.269463769895084e+01
1	 7.585113588443827e-01	 1.213728586233489e+00	-3.443905799549778e+01
1	 7.335694956959355e-01	 1.228963936619848e+00	-3.600788655219427e+01
1	 7.083860161656899e-01	 1.243650197852724e+00	-3.739412461356049e+01
1	 6.829786929155388e-01	 1.257782440460674e+00	-3.859153770310805e+01
1	 6.573653863273125e-01	 1.271356484765559e+00	-3.959466682195006e+01
1	 6.315640059857941e-01	 1.284368899042689e+00	-4.039883543696737e+01
1	 6.055924726812424e-01	 1.296816995379287e+00	-4.100015231373811e+01
1	 5.794686810858749e-01	 1.308698823297708e+00	-4.139551028140337e+01
1	 5.532104632510477e-01	 1.320013161221154e+00	-4.158258104676388e+01
1	 5.268355530632755e-01	 1.330759505869976e+00	-4.155980620289233e+01
1	 7.866140205057904e-01	 1.203181047392051e+00	-3.284258868856178e+01
1	 7.618236355234277e-01	 1.219028711069166e+00	-3.453688144281579e+01
1	 7.367728559421065e-01	 1.234330591370090e+00	-3.605452946530168e+01
1	 7.114794048855733e-01	 1.249080984748231e+00	-3.738857936672412e+01
1	 6.859611326255991e-01	 1.263274940206068e+00	-3.853284696315285e+01
1	 6.602359775369485e-01	 1.276908259813596e+00	-3.948192823138518e+01
1	 6.343219274121989e-01	 1.289977496860427e+00	-4.023120603178305e+01
1	 6.082369812983350e-01	 1.302479951696174e+00	-4.077685265597845e+01
1	 5.819991120102488e-01	 1.314413665325824e+00	-4.111582828891405e+01
1	 5.556262294685167e-01	 1.325777410838185e+00	-4.124587550489893e+01
1	 5.291361450002061e-01	 1.336570682755877e+00	-4.116550994541267e+01
1	 5.061302256309002e-01	 1.278458913941872e+00	-4.500545119605683e+01
1	 4.806966872907608e-01	 1.288237437261904e+00	-4.497020960155084e+01
1	 4.551847024343805e-01	 1.297471343270002e+00	-4.489228230229959e+01
1	 4.296108311901099e-01	 1.306162139117423e+00	-4.477229822503365e+01
1	 4.039914143306892e-01	 1.314311963382357e+00	-4.461100734237542e+01
1	 3.783425453891321e-01	 1.321923567493685e+00	-4.440927439235528e+01
1	 3.526800442857051e-01	 1.329000295829079e+00	-4.416807224767892e+01
1	 3.270194325267239e-01	 1.335546064613972e+00	-4.388847498890424e+01
1	 3.013759100248770e-01	 1.341565339749727e+00	-4.357165073560802e+01
1	 2.757643335798909e-01	 1.347063113700226e+00	-4.321885428901947e+01
1	 2.501991970476900e-01	 1.352044881565965e+00	-4.283141963857160e+01
1	 5.084308175678307e-01	 1.284270090818772e+00	-4.463213213131621e+01
1	 4.828816722349463e-01	 1.294093061971747e+00	-4.455466509230910e+01
1	 4.572537238107129e-01	 1.303368940279662e+00	-4.444314259451776e+01
1	 4.315636076967926e-01	 1.312099239744460e+00	-4.429826073812673e+01
1	 4.058277389421659e-01	 1.320286108665139e+00	-4.412080431788465e+01
1	 3.800622842322702e-01	 1.327932310977075e+00	-4.391164139139627e+01
1	 3.542831353961007e-01	 1.335041206259655e+00	-4.367171762375992e+01
1	 3.285058844922760e-01	 1.341616728539334e+00	-4.340205045168430e+01
1	 3.027458005239970e-01	 1.347663364017024e+00	-4.310372310971876e+01
1	 2.770178078218990e-01	 1.353186127849626e+00	-4.277787856038240e+01
1	 2.513364661230708e-01	 1.358190540115361e+00	-4.242571336876702e+01
1	 5.107314095047613e-01	 1.290081267696673e+00	-4.425635534497132e+01
1	 4.850666571791372e-01	 1.299948686682584e+00	-4.413736022584295e+01
1	 4.593227451870668e-01	 1.309266537290299e+00	-4.399286066014021e+01
1	 4.335163842035233e-01	 1.318036340372447e+00	-4.382361986511305e+01
1	 4.076640635537278e-01	 1.326260253948836e+00	-4.363045759266136e+01
1	 3.817820230755405e-01	 1.333941054461333e+00	-4.341424554091904e+01
1	 3.558862265066858e-01	 1.341082116691041e+00	-4.317590266812495e+01
1	 3.299923364580845e-01	 1.347687392465439e+00	-4.291639044092855e+01
1	 3.041156910234501e-01	 1.353761388284989e+00	-4.263670804841368e+01
1	 2.782712820643266e-01	 1.359309141999607e+00	-4.233788761196472e+01
1	 2.524737351989662e-01	 1.364336198665242e+00	-4.202098941975801e+01
1	 5.130320014416919e-01	 1.295892444575573e+00	-4.387815390054412e+01
1	 4.872516421233334e-01	 1.305804311394416e+00	-4.371831868409048e+01
1	 4.613917665634422e-01	 1.315164134301916e+00	-4.354145186544593e+01
1	 4.354691607103022e-01	 1.323973441001387e+00	-4.334838372329661e+01
1	 4.095003881653745e-01	 1.332234399233448e+00	-4.313996909990012e+01
1	 3.835017619189429e-01	 1.339949797946458e+00	-4.291708365056025e+01
1	 3.574893176174603e-01	 1.347123027123238e+00	-4.268062012066304e+01
1	 3.314787884241495e-01	 1.353758056392288e+00	-4.243148467152859e+01
1	 3.054855815232364e-01	 1.359859412553620e+00	-4.217059327504031e+01
1	 2.795247563071733e-01	 1.365432156150168e+00	-4.189886819560289e+01
1	 2.536110042753762e-01	 1.370481857215608e+00	-4.161723457646848e+01
1	 5.153325933786226e-01	 1.301703621455474e+00	-4.349756027113732e+01
1	 4.894366270675352e-01	 1.311659936107242e+00	-4.329756372609816e+01
1	 4.634607879398391e-01	 1.321061731314510e+00	-4.308893130231689e+01
1	 4.374219372171291e-01	 1.329910541631279e+00	-4.287256028502874e+01
1	 4.113367127771064e-01	 1.338208544518974e+00	-4.264934073827524e+01
1	 3.852215007624775e-01	 1.345958541432452e+00	-4.242015258692638e+01
1	 3.590924087284244e-01	 1.353163937556245e+00	-4.218586285090895e+01
1	 3.329652403904709e-01	 1.359828720319879e+00	-4.194732304203824e+01
1	 3.068554720233559e-01	 1.365957436822919e+00	-4.170536673217184e+01
1	 2.807782305504394e-01	 1.371555170301310e+00	-4.146080729970852e+01
1	 2.547482733523010e-01	 1.376627515766460e+00	-4.121443585980596e+01
1	 5.176331853155531e-01	 1.307514798336374e+00	-4.311460635255375e+01
1	 4.916216120117422e-01	 1.317515560821064e+00	-4.287511819741949e+01
1	 4.655298093162574e-01	 1.326959328328084e+00	-4.263531379433463e+01
1	 4.393747137240041e-01	 1.335847642262122e+00	-4.239615738093123e+01
1	 4.131730373889233e-01	 1.344182689805416e+00	-4.215857437270622e+01
1	 3.869412396061445e-01	 1.351967284919313e+00	-4.192344927232888e+01
1	 3.606954998395778e-01	 1.359204847990063e+00	-4.169162385516023e+01
1	 3.344516923570488e-01	 1.365899384248215e+00	-4.146389563059318e+01
1	 3.082253625238085e-01	 1.372055461092884e+00	-4.124101657673569e+01
1	 2.820317047941249e-01	 1.377678184453033e+00	-4.102369214400965e+01
1	 2.558855424297404e-01	 1.382773174317797e+00	-4.081258052141703e+01
1	 5.199337772524836e-01	 1.313325975218275e+00	-4.272932347606893e+01
1	 4.938065969559546e-01	 1.323371185535879e+00	-4.245100453926015e+01
1	 4.675988306926970e-01	 1.332856925342635e+00	-4.218061390271621e+01
1	 4.413274902309272e-01	 1.341784742893918e+00	-4.191918270302991e+01
1	 4.150093620008253e-01	 1.350156835092773e+00	-4.166767183510508e+01
1	 3.886609784499435e-01	 1.357976028407041e+00	-4.142697068355135e+01
1	 3.622985909509207e-01	 1.365245758424692e+00	-4.119789625367512e+01
1	 3.359381443238832e-01	 1.371970048177294e+00	-4.098119269093689e+01
1	 3.095952530245943e-01	 1.378153485363516e+00	-4.077753117527174e+01
1	 2.832851790382296e-01	 1.383801198605337e+00	-4.058751017443455e+01
1	 2.570228115076946e-01	 1.388918832869620e+00	-4.041165603858363e+01
1	 5.222343691894142e-01	 1.319137152101175e+00	-4.234174242086528e+01
1	 4.959915819001725e-01	 1.329226810251690e+00	-4.202524479738744e+01
1	 4.696678520691583e-01	 1.338754522358166e+00	-4.172484593209331e+01
1	 4.432802667378983e-01	 1.347721843526666e+00	-4.144164380780876e+01
1	 4.168456866128122e-01	 1.356130980381044e+00	-4.117663492510366e+01
1	 3.903807172938748e-01	 1.363984771895638e+00	-4.093071385065053e+01
1	 3.639016820624529e-01	 1.371286668860131e+00	-4.070467328793949e+01
1	 3.374245962909742e-01	 1.378040712107117e+00	-4.049920464855366e+01
1	 3.109651435257134e-01	 1.384251509634814e+00	-4.031489909931394e+01
1	 2.845386532827535e-01	 1.389924212758220e+00	-4.015224905812820e+01
1	 2.581600805861633e-01	 1.395064491421928e+00	-4.001165010925166e+01
1	 5.245349611263448e-01	 1.324948328985076e+00	-4.195189342613927e+01
1	 4.981765668443958e-01	 1.335082434968495e+00	-4.159786063079981e+01
1	 4.717368734456409e-01	 1.344652119374675e+00	-4.126802393613924e+01
1	 4.452330432449174e-01	 1.353658944160366e+00	-4.096354811918135e+01
1	 4.186820112248843e-01	 1.362105125670231e+00	-4.068546541076178e+01
1	 3.921004561379385e-01	 1.369993515385103e+00	-4.043467585578642e+01
1	 3.655047731741747e-01	 1.377327579296380e+00	-4.021194831801026e+01
1	 3.389110482583216e-01	 1.384111376037683e+00	-4.001792209690050e+01
1	 3.123350340271656e-01	 1.390349533906780e+00	-3.985310912089660e+01
1	 2.857921275276968e-01	 1.396047226911685e+00	-3.971789667860145e+01
1	 2.592973496651467e-01	 1.401210149974721e+00	-3.961255064719268e+01
1	 5.268355530632755e-01	 1.330759505869976e+00	-4.155980620289233e+01
1	 5.003615517886243e-01	 1.340938059686295e+00	-4.116887332017355e+01
1	 4.738058948221451e-01	 1.350549716392163e+00	-4.081016172304849e+01
1	 4.471858197519847e-01	 1.359596044795017e+00	-4.048490293138656e+01
1	 4.205183358370413e-01	 1.368079270960332e+00	-4.019416502925491e+01
1	 3.938201949821342e-01	 1.376002258875435e+00	-3.993885383208701e+01
1	 3.671078642860858e-01	 1.383368489733440e+00	-3.971971481992601e+01
1	 3.403975002259254e-01	 1.390182039968992e+00	-3.953733579374234e+01
1	 3.137049245289508e-01	 1.396447558179412e+00	-3.939215020817495e+01
1	 2.870456017730594e-01	 1.402170241065731e+00	-3.928444113100726e+01
1	 2.604346187446449e-01	 1.407355808527999e+00	-3.921434577729161e+01
1	 5.291361450002061e-01	 1.336570682755877e+00	-4.116550994541267e+01
1	 5.025465367328584e-01	 1.346793684405089e+00	-4.073830377608566e+01
1	 4.758749161986708e-01	 1.356447313410629e+00	-4.035127286087316e+01
1	 4.491385962591000e-01	 1.365533145430621e+00	-4.000571541180672e+01
1	 4.223546604492835e-01	 1.374053416251349e+00	-3.970273548754803e+01
1	 3.955399338264623e-01	 1.382011002366635e+00	-3.944324496253805e+01
1	 3.687109553981865e-01	 1.389409400171311e+00	-3.922796638318512e+01
1	 3.418839521937857e-01	 1.396252703901046e+00	-3.905743665757736e+01
1	 3.150748150310693e-01	 1.402545582452712e+00	-3.893201152116244e+01
1	 2.882990760188414e-01	 1.408293255220358e+00	-3.885187071753901e+01
1	 2.615718878246577e-01	 1.413501467081764e+00	-3.881702383095727e+01
1	 2.501991970476900e-01	 1.352044881565965e+00	-4.283141963857160e+01
1	 2.246946132154111e-01	 1.356516616473704e+00	-4.251512409330888e+01
1	 1.992642973913387e-01	 1.360484744408075e+00	-4.217657820001808e+01
1	 1.739215527069986e-01	 1.363956118608690e+00	-4.181594896883749e+01
1	 1.486792571198083e-01	 1.366937993652964e+00	-4.143346431116327e+01
1	 1.235498520981868e-01	 1.369437999341071e+00	-4.102941025001248e+01
1	 9.854533296136422e-02	 1.371464114494739e+00	-4.060412797879751e+01
1	 7.367724083926232e-02	 1.373024640776572e+00	-4.015801079291449e+01
1	 4.895665621114569e-02	 1.374128176631064e+00	-3.969150091810786e+01
1	 2.439419397571979e-02	 1.374783591442656e+00	-3.920508625894011e+01
1	 0.000000000000000e+00	 1.375000000000000e+00	-3.869929708990974e+01
1	 2.513364661230708e-01	 1.358190540115361e+00	-4.242571336876702e+01
1	 2.257159523637797e-01	 1.362682601091481e+00	-4.214147437554407e+01
1	 2.001700441947172e-01	 1.366668765971557e+00	-4.182999055716396e+01
1	 1.747121052161855e-01	 1.370155919146292e+00	-4.149148248574695e+01
1	 1.493550719217695e-01	 1.373151348168453e+00	-4.112624659131353e+01
1	 1.241114423320144e-01	 1.375662717519124e+00	-4.073465147711997e+01
1	 9.899326629032527e-02	 1.377698042287408e+00	-4.031713405961928e+01
1	 7.401213738630220e-02	 1.379265661870737e+00	-3.987419556410678e+01
1	 4.917918646502127e-02	 1.380374213797448e+00	-3.940639740640387e+01
1	 2.450507667472413e-02	 1.381032607767365e+00	-3.891435698999022e+01
1	 0.000000000000000e+00	 1.381250000000000e+00	-3.839874344686892e+01
1	 2.524737351989662e-01	 1.364336198665242e+00	-4.202098941975801e+01
1	 2.267372915127470e-01	 1.368848585709650e+00	-4.176867710290012e+01
1	 2.010757909987465e-01	 1.372852787535346e+00	-4.148417123426292e+01
1	 1.755026577260445e-01	 1.376355719684127e+00	-4.116774525388578e+01
1	 1.500308867243935e-01	 1.379364702684112e+00	-4.081976333485220e+01
1	 1.246730325664655e-01	 1.381887435697295e+00	-4.044067580893960e+01
1	 9.944119961984128e-02	 1.383931970080151e+00	-4.003101439319554e+01
1	 7.434703393379977e-02	 1.385506682964945e+00	-3.959138725513272e+01
1	 4.940171671922915e-02	 1.386620250963851e+00	-3.912247395324491e+01
1	 2.461595937390798e-02	 1.387281624092079e+00	-3.862502028831364e+01
1	 0.000000000000000e+00	 1.387500000000000e+00	-3.809983309949262e+01
1	 2.536110042753762e-01	 1.370481857215608e+00	-4.161723457646848e+01
1	 2.277586306623127e-01	 1.375014570328208e+00	-4.139672080750682e+01
1	 2.019815378034266e-01	 1.379036809099443e+00	-4.113910989517374e+01
1	 1.762932102365756e-01	 1.382555520222196e+00	-4.084472746270032e+01
1	 1.507067015276803e-01	 1.385578057199941e+00	-4.051400466110712e+01
1	 1.252346228015402e-01	 1.388112153875584e+00	-4.014747271043120e+01
1	 9.988913294991221e-02	 1.390165897872969e+00	-3.974575721827934e+01
1	 7.468193048175492e-02	 1.391747704059193e+00	-3.930957231998544e+01
1	 4.962424697376933e-02	 1.392866288130272e+00	-3.883971468340417e+01
1	 2.472684207327137e-02	 1.393530640416798e+00	-3.833705741982102e+01
1	 0.000000000000000e+00	 1.393750000000000e+00	-3.780254394066497e+01
1	 2.547482733523010e-01	 1.376627515766460e+00	-4.121443585980596e+01
1	 2.287799698124772e-01	 1.381180554947157e+00	-4.102559422627854e+01
1	 2.028872846087578e-01	 1.385220830663846e+00	-4.079479638832917e+01
1	 1.770837627477788e-01	 1.388755320760499e+00	-4.052241947682633e+01
1	 1.513825163316299e-01	 1.391791411715942e+00	-4.020896086584665e+01
1	 1.257962130372383e-01	 1.394336872053990e+00	-3.985503183468033e+01
1	 1.003370662805381e-01	 1.396399825665862e+00	-3.946135098364541e+01
1	 7.501682703016777e-02	 1.397988725153484e+00	-3.902873745455245e+01
1	 4.984677722864180e-02	 1.399112325296711e+00	-3.855810400514092e+01
1	 2.483772477281427e-02	 1.399779656741521e+00	-3.805044998496132e+01
1	 0.000000000000000e+00	 1.400000000000000e+00	-3.750685425803989e+01
1	 2.558855424297404e-01	 1.382773174317797e+00	-4.081258052141703e+01
1	 2.298013089632402e-01	 1.387346539566498e+00	-4.065528629636157e+01
1	 2.037930314147397e-01	 1.391404852228556e+00	-4.045122074263460e+01
1	 1.778743152596541e-01	 1.394955121299035e+00	-4.020081183219383e+01
1	 1.520583311362423e-01	 1.398004766232112e+00	-3.990462241735852e+01
1	 1.263578032735599e-01	 1.400561590232513e+00	-3.956334301871789e+01
1	 1.007849996117189e-01	 1.402633753458829e+00	-3.917778434342406e+01
1	 7.535172357903826e-02	 1.404229746247817e+00	-3.874886959123712e+01
1	 5.006930748384658e-02	 1.405358362463170e+00	-3.827762660390064e+01
1	 2.494860747253669e-02	 1.406028673066248e+00	-3.776517991128640e+01
1	 0.000000000000000e+00	 1.406250000000000e+00	-3.721274272526845e+01
1	 2.570228115076946e-01	 1.388918832869620e+00	-4.041165603858363e+01
1	 2.308226481146018e-01	 1.393512524186229e+00	-4.028578615070474e+01
1	 2.046987782213725e-01	 1.397588873793573e+00	-4.010837316347488e+01
1	 1.786648677722014e-01	 1.401154921837804e+00	-3.987989523224005e+01
1	 1.527341459415174e-01	 1.404218120748453e+00	-3.960097995263433e+01
1	 1.269193935105052e-01	 1.406786308411155e+00	-3.927239627945004e+01
1	 1.012329329434546e-01	 1.408867681251872e+00	-3.889504615255707e+01
1	 7.568662012836641e-02	 1.410470767342191e+00	-3.846995589372861e+01
1	 5.029183773938364e-02	 1.411604399629646e+00	-3.799826743618357e+01
1	 2.505949017243865e-02	 1.412277689390980e+00	-3.748122944621394e+01
1	 0.000000000000000e+00	 1.412500000000000e+00	-3.692018839345882e+01
1	 2.581600805861633e-01	 1.395064491421928e+00	-4.001165010925166e+01
1	 2.318439872665620e-01	 1.399678508806351e+00	-3.991708311374730e+01
1	 2.056045250286563e-01	 1.403772895358897e+00	-3.976624402882716e+01
1	 1.794554202854209e-01	 1.407354722376807e+00	-3.955966054421729e+01
1	 1.534099607474552e-01	 1.410431475264964e+00	-3.929802427365185e+01
1	 1.274809837480738e-01	 1.413011026589914e+00	-3.898218180969671e+01
1	 1.016808662757453e-01	 1.415101609044989e+00	-3.861312546237538e+01
1	 7.602151667815218e-02	 1.416711788436608e+00	-3.819198375190652e+01
1	 5.051436799525300e-02	 1.417850436796140e+00	-3.772001172357290e+01
1	 2.517037287252014e-02	 1.418526705715717e+00	-3.719858114998310e+01
1	 0.000000000000000e+00	 1.418750000000000e+00	-3.662917068286315e+01
1	 2.592973496651467e-01	 1.401210149974721e+00	-3.961255064719268e+01
1	 2.328653264191207e-01	 1.405844493426863e+00	-3.954916669721905e+01
1	 2.065102718365908e-01	 1.409956916924527e+00	-3.942482388547599e+01
1	 1.802459727993124e-01	 1.413554522916044e+00	-3.924009879560167e+01
1	 1.540857755540559e-01	 1.416644829781646e+00	-3.899574634375757e+01
1	 1.280425739862661e-01	 1.419235744768790e+00	-3.869268997433386e+01
1	 1.021287996085909e-01	 1.421335536838181e+00	-3.833201151629113e+01
1	 7.635641322839565e-02	 1.422952809531066e+00	-3.791494077688043e+01
1	 5.073689825145467e-02	 1.424096473962654e+00	-3.744284494692309e+01
1	 2.528125557278113e-02	 1.424775722040459e+00	-3.691721788879349e+01
1	 0.000000000000000e+00	 1.425000000000000e+00	-3.633966937478125e+01
1	 2.604346187446449e-01	 1.407355808527999e+00	-3.921434577729161e+01
1	 2.338866655722782e-01	 1.412010478047767e+00	-3.918202659605056e+01
1	 2.074160186451763e-01	 1.416140938490465e+00	-3.908410344532773e+01
1	 1.810365253138760e-01	 1.419754323455514e+00	-3.892120117059454e+01
1	 1.547615903613194e-01	 1.422858184298499e+00	-3.869413728414363e+01
1	 1.286041642250818e-01	 1.425460462947784e+00	-3.840391130653569e+01
1	 1.025767329419915e-01	 1.427569464631447e+00	-3.805169374560490e+01
1	 7.669130977909673e-02	 1.429193830625565e+00	-3.763881479615933e+01
1	 5.095942850798862e-02	 1.430342511129185e+00	-3.716675284069675e+01
1	 2.539213827322167e-02	 1.431024738365205e+00	-3.663712282812399e+01
1	 0.000000000000000e+00	 1.431250000000000e+00	-3.605166460367837e+01
1	 2.615718878246577e-01	 1.413501467081764e+00	-3.881702383095727e+01
1	 2.349080047260342e-01	 1.418176462669061e+00	-3.881565268439181e+01
1	 2.083217654544127e-01	 1.422324960056710e+00	-3.874407358182035e+01
1	 1.818270778291117e-01	 1.425954123995218e+00	-3.860295900671587e+01
1	 1.554374051692456e-01	 1.429071538815522e+00	-3.839318837041682e+01
1	 1.291657544645211e-01	 1.431685181126896e+00	-3.811583650411784e+01
1	 1.030246662759470e-01	 1.433803392424789e+00	-3.777216176542085e+01
1	 7.702620633025550e-02	 1.435434851720107e+00	-3.736359384894852e+01
1	 5.118195876485489e-02	 1.436588548295735e+00	-3.689172138745393e+01
1	 2.550302097384172e-02	 1.437273754689955e+00	-3.635827942622944e+01
1	 0.000000000000000e+00	 1.437500000000000e+00	-3.576513684950645e+01
1	 1.437500000000000e+00	 0.000000000000000e+00	 1.336027382074263e+01
1	 1.437273754689956e+00	 2.550302097384090e-02	 1.331679262536966e+01
1	 1.436588548295736e+00	 5.118195876485416e-02	 1.323016971400691e+01
1	 1.435434851720107e+00	 7.702620633025486e-02	 1.309942574330905e+01
1	 1.433803392424789e+00	 1.030246662759464e-01	 1.292365998083039e+01
1	 1.431685181126896e+00	 1.291657544645206e-01	 1.270205691505753e+01
1	 1.429071538815521e+00	 1.554374051692452e-01	 1.243389282063151e+01
1	 1.425954123995218e+00	 1.818270778291114e-01	 1.211854223780267e+01
1	 1.422324960056710e+00	 2.083217654544126e-01	 1.175548432316936e+01
1	 1.418176462669061e+00	 2.349080047260341e-01	 1.134430902701343e+01
1	 1.413501467081764e+00	 2.615718878246577e-01	 1.088472305109818e+01
1	 1.443750000000000e+00	 0.000000000000000e+00	 1.316309415463916e+01
1	 1.443522771014708e+00	 2.561390367446096e-02	 1.311272177951637e+01
1	 1.442834585462295e+00	 5.140448902172040e-02	 1.302020774254795e+01
1	 1.441675872814669e+00	 7.736110288141362e-02	 1.288461975786896e+01
1	 1.440037320218168e+00	 1.034725996099020e-01	 1.270510297617656e+01
1	 1.437909899306067e+00	 1.297273447039599e-01	 1.248088637815183e+01
1	 1.435284893332629e+00	 1.561132199771715e-01	 1.221128911826213e+01
1	 1.432153924535038e+00	 1.826176303443471e-01	 1.189572677902251e+01
1	 1.428508981623108e+00	 2.092275122636489e-01	 1.153371749389534e+01
1	 1.424342447290551e+00	 2.359293438797900e-01	 1.112488789536075e+01
1	 1.419647125635770e+00	 2.627091569046704e-01	 1.066897884332906e+01
1	 1.450000000000000e+00	 0.000000000000000e+00	 1.296876515884681e+01
1	 1.449771787339461e+00	 2.572478637490148e-02	 1.291160924107807e+01
1	 1.449080622628854e+00	 5.162701927825435e-02	 1.281330437786063e+01
1	 1.447916893909232e+00	 7.769599943211471e-02	 1.267296502897444e+01
1	 1.446271248011546e+00	 1.039205329433025e-01	 1.248978192295922e+01
1	 1.444134617485237e+00	 1.302889349427757e-01	 1.226302823515309e+01
1	 1.441498247849737e+00	 1.567890347844348e-01	 1.199206571133098e+01
1	 1.438353725074858e+00	 1.834081828589108e-01	 1.167635069804819e+01
1	 1.434693003189506e+00	 2.101332590722344e-01	 1.131544003899239e+01
1	 1.430508431912040e+00	 2.369506830329474e-01	 1.090899679508805e+01
1	 1.425792784189776e+00	 2.638464259841685e-01	 1.045679574482455e+01
1	 1.456250000000000e+00	 0.000000000000000e+00	 1.277725012945179e+01
1	 1.456020803664214e+00	 2.583566907516248e-02	 1.271341692025599e+01
1	 1.455326659795413e+00	 5.184954953445603e-02	 1.260942023873863e+01
1	 1.454157915003794e+00	 7.803089598235814e-02	 1.246442098250427e+01
1	 1.452505175804925e+00	 1.043684662761481e-01	 1.227765515656556e+01
1	 1.450359335664408e+00	 1.308505251809679e-01	 1.204843983721143e+01
1	 1.447711602366845e+00	 1.574648495910355e-01	 1.177617907672013e+01
1	 1.444553525614679e+00	 1.841987353728023e-01	 1.146036971104530e+01
1	 1.440877024755904e+00	 2.110390058801690e-01	 1.110060703089408e+01
1	 1.436674416533530e+00	 2.379720221855062e-01	 1.069659027514876e+01
1	 1.431938442743783e+00	 2.649836950631520e-01	 1.024812790439426e+01
1	 1.462500000000000e+00	 0.000000000000000e+00	 1.258851298995769e+01
1	 1.462269819988967e+00	 2.594655177524396e-02	 1.251810737835912e+01
1	 1.461572696961973e+00	 5.207207979032537e-02	 1.240851661715875e+01
1	 1.460398936098356e+00	 7.836579253214396e-02	 1.225894773791200e+01
1	 1.458739103598304e+00	 1.048163996084388e-01	 1.206868172459842e+01
1	 1.456584053843578e+00	 1.314121154185366e-01	 1.183707926451699e+01
1	 1.453924956883954e+00	 1.581406643969734e-01	 1.156358643529661e+01
1	 1.450753326154499e+00	 1.849892878860217e-01	 1.124774029116801e+01
1	 1.447061046322302e+00	 2.119447526874527e-01	 1.088917431002664e+01
1	 1.442840401155020e+00	 2.389933613374664e-01	 1.048762366143733e+01
1	 1.438084101297789e+00	 2.661209641416207e-01	 1.004293025462869e+01
1	 1.468750000000000e+00	 0.000000000000000e+00	 1.240251827793635e+01
1	 1.468518836313720e+00	 2.605743447514591e-02	 1.232564381395081e+01
1	 1.467818734128532e+00	 5.229461004586246e-02	 1.221055546395792e+01
1	 1.466639957192918e+00	 7.870068908147208e-02	 1.205650609346901e+01
1	 1.464973031391683e+00	 1.052643329401746e-01	 1.186282137172287e+01
1	 1.462808772022749e+00	 1.319737056554817e-01	 1.162890531078886e+01
1	 1.460138311401061e+00	 1.588164792022485e-01	 1.135424573608286e+01
1	 1.456953126694319e+00	 1.857798403985691e-01	 1.103841965245299e+01
1	 1.453245067888700e+00	 2.128504994940856e-01	 1.068109846846851e+01
1	 1.449006385776509e+00	 2.400147004888280e-01	 1.028205304025826e+01
1	 1.444229759851796e+00	 2.672582332195749e-01	 9.841158495223187e+00
1	 1.475000000000000e+00	 0.000000000000000e+00	 1.221923113201778e+01
1	 1.474767852638473e+00	 2.616831717486834e-02	 1.213599004934781e+01
1	 1.474064771295091e+00	 5.251714030106722e-02	 1.201549937487409e+01
1	 1.472880978287481e+00	 7.903558563034258e-02	 1.185705751188295e+01
1	 1.471206959185062e+00	 1.057122662713554e-01	 1.166003452489775e+01
1	 1.469033490201918e+00	 1.325352958918034e-01	 1.142387746815748e+01
1	 1.466351665918169e+00	 1.594922940068609e-01	 1.114811564082986e+01
1	 1.463152927234139e+00	 1.865703929104444e-01	 1.083236573412266e+01
1	 1.459429089455097e+00	 2.137562463000675e-01	 1.047633683402560e+01
1	 1.455172370397999e+00	 2.410360396395911e-01	 1.007983524221610e+01
1	 1.450375418405802e+00	 2.683955022970143e-01	 9.642769076725610e+00
1	 1.481250000000000e+00	 0.000000000000000e+00	 1.203861727920967e+01
1	 1.481016868963226e+00	 2.627919987441124e-02	 1.194911051746069e+01
1	 1.480310808461651e+00	 5.273967055593970e-02	 1.182331157694101e+01
1	 1.479121999382043e+00	 7.937048217875543e-02	 1.166056410627986e+01
1	 1.477440886978440e+00	 1.061601996019813e-01	 1.146028227898143e+01
1	 1.475258208381089e+00	 1.330968861275015e-01	 1.122195591243061e+01
1	 1.472565020435277e+00	 1.601681088108104e-01	 1.094515550898053e+01
1	 1.469352727773960e+00	 1.873609454216476e-01	 1.062953718528610e+01
1	 1.465613111021496e+00	 2.146619931053986e-01	 1.027484745470969e+01
1	 1.461338355019488e+00	 2.420573787897555e-01	 9.880927826512702e+00
1	 1.456521076959809e+00	 2.695327713739390e-01	 9.447719184695629e+00
1	 1.487500000000000e+00	 0.000000000000000e+00	 1.186064302253651e+01
1	 1.487265885287978e+00	 2.639008257377461e-02	 1.176497024896636e+01
1	 1.486556845628210e+00	 5.296220081047987e-02	 1.163395591522545e+01
1	 1.485363020476606e+00	 7.970537872671062e-02	 1.146698862654012e+01
1	 1.483674814771819e+00	 1.066081329320522e-01	 1.126352638270026e+01
1	 1.481482926560260e+00	 1.336584763625762e-01	 1.102310148873016e+01
1	 1.478778374952386e+00	 1.608439236140972e-01	 1.074532538301233e+01
1	 1.475552528313780e+00	 1.881514979321786e-01	 1.042989335002524e+01
1	 1.471797132587894e+00	 2.155677399100788e-01	 1.007658908360784e+01
1	 1.467504339640978e+00	 2.430787179393213e-01	 9.685289065640621e+00
1	 1.462666735513815e+00	 2.706700404503491e-01	 9.255966724263242e+00
1	 1.493750000000000e+00	 0.000000000000000e+00	 1.168527522898900e+01
1	 1.493514901612731e+00	 2.650096527295846e-02	 1.158353485980244e+01
1	 1.492802882794769e+00	 5.318473106468775e-02	 1.144739683989788e+01
1	 1.491604041571168e+00	 8.004027527420814e-02	 1.127629444597710e+01
1	 1.489908742565198e+00	 1.070560662615682e-01	 1.106972922496931e+01
1	 1.487707644739430e+00	 1.342200665970273e-01	 1.082727569748978e+01
1	 1.484991729469493e+00	 1.615197384167212e-01	 1.054858597414794e+01
1	 1.481752328853600e+00	 1.889420504420376e-01	 1.023339425285583e+01
1	 1.477981154154291e+00	 2.164734867141081e-01	 9.881521164132113e+00
1	 1.473670324262467e+00	 2.441000570882885e-01	 9.492877930460567e+00
1	 1.468812394067822e+00	 2.718073095262445e-01	 9.067470305075028e+00
1	 1.500000000000000e+00	 0.000000000000000e+00	 1.151248131777484e+01
1	 1.499763917937484e+00	 2.661184797196279e-02	 1.140477053897438e+01
1	 1.499048919961329e+00	 5.340726131856333e-02	 1.126359939362591e+01
1	 1.497845062665731e+00	 8.037517182124802e-02	 1.108844554834907e+01
1	 1.496142670358577e+00	 1.075039995905293e-01	 1.087885382155513e+01
1	 1.493932362918601e+00	 1.347816568308549e-01	 1.063444068080270e+01
1	 1.491205083986602e+00	 1.621955532186825e-01	 1.035489864842301e+01
1	 1.487952129393421e+00	 1.897326029512245e-01	 1.004000058455164e+01
1	 1.484165175720690e+00	 2.173792335174866e-01	 9.689603815637547e+00
1	 1.479836308883957e+00	 2.451213962366572e-01	 9.303654075652327e+00
1	 1.474958052621829e+00	 2.729445786016254e-01	 8.882189226616740e+00
1	 1.413501467081764e+00	 2.615718878246577e-01	 1.088472305109818e+01
1	 1.408293255220358e+00	 2.882990760188405e-01	 1.084538379195161e+01
1	 1.402545582452712e+00	 3.150748150310687e-01	 1.076827369405557e+01
1	 1.396252703901046e+00	 3.418839521937852e-01	 1.065168934050988e+01
1	 1.389409400171311e+00	 3.687109553981860e-01	 1.049397225296032e+01
1	 1.382011002366635e+00	 3.955399338264619e-01	 1.029351663567110e+01
1	 1.374053416251349e+00	 4.223546604492833e-01	 1.004877719859057e+01
1	 1.365533145430621e+00	 4.491385962590999e-01	 9.758277014909337e+00
1	 1.356447313410629e+00	 4.758749161986708e-01	 9.420615366090100e+00
1	 1.346793684405089e+00	 5.025465367328585e-01	 9.034475525144856e+00
1	 1.336570682755877e+00	 5.291361450002061e-01	 8.598632427091507e+00
1	 1.419647125635770e+00	 2.627091569046704e-01	 1.066897884332906e+01
1	 1.414416269375272e+00	 2.895525502646201e-01	 1.062735556759743e+01
1	 1.408643606726335e+00	 3.164447055331777e-01	 1.054783119628669e+01
1	 1.402323367833450e+00	 3.433704041616241e-01	 1.042865739837023e+01
1	 1.395450310609549e+00	 3.703140465102484e-01	 1.026813039935408e+01
1	 1.388019745858209e+00	 3.972596726707300e-01	 1.006459890613761e+01
1	 1.380027561542736e+00	 4.241909850614387e-01	 9.816472119119755e+00
1	 1.371470246066582e+00	 4.510913727660968e-01	 9.522227786180991e+00
1	 1.362344910429429e+00	 4.779439375750409e-01	 9.180420250549105e+00
1	 1.352649309124184e+00	 5.047315216768951e-01	 8.789688442254565e+00
1	 1.342381859642033e+00	 5.314367369368920e-01	 8.348763760943969e+00
1	 1.425792784189776e+00	 2.638464259841685e-01	 1.045679574482455e+01
1	 1.420539283530182e+00	 2.908060245099756e-01	 1.041273279601939e+01
1	 1.414741630999939e+00	 3.178145960349348e-01	 1.033064005891604e+01
1	 1.408394031765811e+00	 3.448568561291640e-01	 1.020872457605909e+01
1	 1.401491221047711e+00	 3.719171376220453e-01	 1.004523756762272e+01
1	 1.394028489349664e+00	 3.989794115147464e-01	 9.838482536188927e+00
1	 1.386001706833951e+00	 4.260273096733362e-01	 9.586823466980462e+00
1	 1.377407346702306e+00	 4.530441492728087e-01	 9.288693077313647e+00
1	 1.368242507447918e+00	 4.800129589510790e-01	 8.942601066312083e+00
1	 1.358504933842883e+00	 5.069165066205312e-01	 8.547142313520569e+00
1	 1.348193036527699e+00	 5.337373288730878e-01	 8.101004973031117e+00
1	 1.431938442743783e+00	 2.649836950631520e-01	 1.024812790439426e+01
1	 1.426662297685086e+00	 2.920594987549073e-01	 1.020147163018761e+01
1	 1.420839655273525e+00	 3.191844865363399e-01	 1.011665841893557e+01
1	 1.414464695698129e+00	 3.463433080964048e-01	 9.991850970747258e+00
1	 1.407532131485796e+00	 3.735202287335765e-01	 9.825255787528588e+00
1	 1.400037232840998e+00	 4.006991503585108e-01	 9.615131456818432e+00
1	 1.391975852124992e+00	 4.278636342849753e-01	 9.359797039246413e+00
1	 1.383344447337793e+00	 4.549969257792358e-01	 9.057640512515814e+00
1	 1.374140104466097e+00	 4.820819803267847e-01	 8.707127221989367e+00
1	 1.364360558561187e+00	 5.091014915637669e-01	 8.306808285456288e+00
1	 1.354004213412875e+00	 5.360379208087941e-01	 7.855328897539103e+00
1	 1.438084101297789e+00	 2.661209641416207e-01	 1.004293025462869e+01
1	 1.432785311839987e+00	 2.933129729994148e-01	 9.993528972594083e+00
1	 1.426937679547091e+00	 3.205543770373928e-01	 9.905845128944176e+00
1	 1.420535359630405e+00	 3.478297600633465e-01	 9.777997361705133e+00
1	 1.413573041923805e+00	 3.751233198448422e-01	 9.608147737897834e+00
1	 1.406045976332213e+00	 4.024188892020233e-01	 9.394510215583686e+00
1	 1.397949997415859e+00	 4.296999588963562e-01	 9.135359217656756e+00
1	 1.389281547973044e+00	 4.569497022853781e-01	 8.829038269428255e+00
1	 1.380037701483964e+00	 4.841510017021584e-01	 8.473968649121103e+00
1	 1.370216183279096e+00	 5.112864765066022e-01	 8.068657997797203e+00
1	 1.359815390297562e+00	 5.383385127440107e-01	 7.611708833027002e+00
1	 1.444229759851796e+00	 2.672582332195749e-01	 9.841158495223187e+00
1	 1.438908325994883e+00	 2.945664472434986e-01	 9.788862459305369e+00
1	 1.433035703820639e+00	 3.219242675380938e-01	 9.698159741922080e+00
1	 1.426606023562638e+00	 3.493162120299891e-01	 9.567125195789993e+00
1	 1.419613952361738e+00	 3.767264109558421e-01	 9.393876732810639e+00
1	 1.412054719823309e+00	 4.041386280452839e-01	 9.176583963488062e+00
1	 1.403924142706554e+00	 4.315362835074790e-01	 8.913476956176371e+00
1	 1.395218648608058e+00	 4.589024787912356e-01	 8.602855067348912e+00
1	 1.385935298501521e+00	 4.862200230771998e-01	 8.243095791050965e+00
1	 1.376071807996610e+00	 5.134714614490371e-01	 7.832663573006693e+00
1	 1.365626567181759e+00	 5.406391046787375e-01	 7.370118532546481e+00
1	 1.450375418405802e+00	 2.683955022970143e-01	 9.642769076725610e+00
1	 1.445031340149773e+00	 2.958199214871581e-01	 9.587430444420649e+00
1	 1.439133728094169e+00	 3.232941580384429e-01	 9.493562496392022e+00
1	 1.432676687494829e+00	 3.508026639963326e-01	 9.359196573302146e+00
1	 1.425654862799595e+00	 3.783295020665765e-01	 9.182406708142459e+00
1	 1.418063463314284e+00	 4.058583668882927e-01	 8.961318442195916e+00
1	 1.409898287997076e+00	 4.333726081183434e-01	 8.694117768872427e+00
1	 1.401155749242835e+00	 4.608552552968079e-01	 8.379060155757170e+00
1	 1.391832895518768e+00	 4.882890444519092e-01	 8.014479592082948e+00
1	 1.381927432713729e+00	 5.156564463910716e-01	 7.598797606048766e+00
1	 1.371437744065466e+00	 5.429396966129747e-01	 7.130532194012797e+00
1	 1.456521076959809e+00	 2.695327713739390e-01	 9.447719184695629e+00
1	 1.451154354304659e+00	 2.970733957303938e-01	 9.389191984923501e+00
1	 1.445231752367678e+00	 3.246640485384398e-01	 9.292014301956605e+00
1	 1.438747351426976e+00	 3.522891159623769e-01	 9.154174234199306e+00
1	 1.431695773237376e+00	 3.799325931770453e-01	 8.973702208445854e+00
1	 1.424072206805141e+00	 4.075781057310496e-01	 8.748679971571326e+00
1	 1.415872433287425e+00	 4.352089327289497e-01	 8.477249718097850e+00
1	 1.407092849877375e+00	 4.628080318020955e-01	 8.157623303128560e+00
1	 1.397730492535703e+00	 4.903580658262861e-01	 7.788091486912514e+00
1	 1.387783057430453e+00	 5.178414313327057e-01	 7.367033154419710e+00
1	 1.377248920948683e+00	 5.452402885467222e-01	 6.892924450819440e+00
1	 1.462666735513815e+00	 2.706700404503491e-01	 9.255966724263242e+00
1	 1.457277368459541e+00	 2.983268699732054e-01	 9.194106825915391e+00
1	 1.451329776641170e+00	 3.260339390380849e-01	 9.093476725199830e+00
1	 1.444818015359082e+00	 3.537755679281221e-01	 8.952021544658317e+00
1	 1.437736683675080e+00	 3.815356842872483e-01	 8.767728374163296e+00
1	 1.430080950295877e+00	 4.092978445735545e-01	 8.538635437531088e+00
1	 1.421846578577599e+00	 4.370452573392979e-01	 8.262841402972779e+00
1	 1.413029950511678e+00	 4.647608083070982e-01	 7.938514786031385e+00
1	 1.403628089552328e+00	 4.924270872003310e-01	 7.563903390324350e+00
1	 1.393638682146782e+00	 5.200264162739394e-01	 7.137343728431022e+00
1	 1.383060097831411e+00	 5.475408804799798e-01	 6.657270362689443e+00
1	 1.468812394067822e+00	 2.718073095262445e-01	 9.067470305075028e+00
1	 1.463400382614418e+00	 2.995803442155932e-01	 9.002135386219862e+00
1	 1.457427800914642e+00	 3.274038295373778e-01	 8.897911975942760e+00
1	 1.450888679291144e+00	 3.552620198935682e-01	 8.752702483974350e+00
1	 1.443777594112709e+00	 3.831387753971859e-01	 8.564450929160776e+00
1	 1.436089693786494e+00	 4.110175834158076e-01	 8.331152280202557e+00
1	 1.427820723867601e+00	 4.388815819493878e-01	 8.050861948155060e+00
1	 1.418967051145745e+00	 4.667135848118161e-01	 7.721705378497347e+00
1	 1.409525686568642e+00	 4.944961085740436e-01	 7.341887687148549e+00
1	 1.399494306862716e+00	 5.222114012147729e-01	 6.909703281736284e+00
1	 1.388871274713649e+00	 5.498414724127478e-01	 6.423545406756383e+00
1	 1.474958052621829e+00	 2.729445786016254e-01	 8.882189226616740e+00
1	 1.469523396769290e+00	 3.008338184575568e-01	 8.813238744346704e+00
1	 1.463525825188096e+00	 3.287737200363188e-01	 8.705282893842647e+00
1	 1.456959343223164e+00	 3.567484718587153e-01	 8.556181631787679e+00
1	 1.449818504550261e+00	 3.847418665068577e-01	 8.363836168573174e+00
1	 1.442098437276991e+00	 4.127373222578090e-01	 8.126198482377660e+00
1	 1.433794869157430e+00	 4.407179065592195e-01	 7.841280992891591e+00
1	 1.424904151779574e+00	 4.686663613162489e-01	 7.507166341657533e+00
1	 1.415423283584646e+00	 4.965651299474242e-01	 7.122017222468057e+00
1	 1.405349931578255e+00	 5.243963861552059e-01	 6.684086202094871e+00
1	 1.394682451595397e+00	 5.521420643450262e-01	 6.191725468868218e+00
1	 1.336570682755877e+00	 5.291361450002061e-01	 8.598632427091507e+00
1	 1.325777410838185e+00	 5.556262294685158e-01	 8.209134216484774e+00
1	 1.314413665325824e+00	 5.819991120102481e-01	 7.761096337587224e+00
1	 1.302479951696174e+00	 6.082369812983345e-01	 7.256772598288866e+00
1	 1.289977496860428e+00	 6.343219274121985e-01	 6.698619023535826e+00
1	 1.276908259813596e+00	 6.602359775369483e-01	 6.089288423927058e+00
1	 1.263274940206069e+00	 6.859611326255990e-01	 5.431623844464724e+00
1	 1.249080984748231e+00	 7.114794048855729e-01	 4.728650905307462e+00
1	 1.234330591370090e+00	 7.367728559421065e-01	 3.983569055742997e+00
1	 1.219028711069166e+00	 7.618236355234280e-01	 3.199741772057063e+00
1	 1.203181047392051e+00	 7.866140205057904e-01	 2.380685739413341e+00
1	 1.342381859642033e+00	 5.314367369368920e-01	 8.348763760943969e+00
1	 1.331541660455420e+00	 5.580419956856946e-01	 7.966697511989954e+00
1	 1.320128507354096e+00	 5.845295429342963e-01	 7.528069669777178e+00
1	 1.308142908013167e+00	 6.108814899150754e-01	 7.035131750527782e+00
1	 1.295586094678219e+00	 6.370798488382351e-01	 6.490330541149984e+00
1	 1.282460034861637e+00	 6.631065687462101e-01	 5.896302528241833e+00
1	 1.268767439951416e+00	 6.889435723352889e-01	 5.255867240073009e+00
1	 1.254511771643640e+00	 7.145727936051001e-01	 4.572019515075241e+00
1	 1.239697246120185e+00	 7.399762161879451e-01	 3.847920719508797e+00
1	 1.224328835904646e+00	 7.651359122021751e-01	 3.086888946179631e+00
1	 1.208412269341645e+00	 7.900340814669840e-01	 2.292388235247858e+00
1	 1.348193036527699e+00	 5.337373288730878e-01	 8.101004973031117e+00
1	 1.337305910072070e+00	 5.604577619022931e-01	 7.726277594976323e+00
1	 1.325843349381697e+00	 5.870599738576927e-01	 7.296949848613740e+00
1	 1.313805864329412e+00	 6.135259985311128e-01	 6.815270964948913e+00
1	 1.301194692495198e+00	 6.398377702635364e-01	 6.283678541410681e+00
1	 1.288011809908807e+00	 6.659771599547242e-01	 5.704792831993500e+00
1	 1.274259939695847e+00	 6.919260120442388e-01	 5.081409983017089e+00
1	 1.259942558538096e+00	 7.176661823239147e-01	 4.416494229708285e+00
1	 1.245063900869301e+00	 7.431795764331197e-01	 3.713169077714723e+00
1	 1.229628960739132e+00	 7.684481888803278e-01	 2.974707502618278e+00
1	 1.213643491290238e+00	 7.934541424276723e-01	 2.204521209409033e+00
1	 1.354004213412875e+00	 5.360379208087941e-01	 7.855328897539103e+00
1	 1.343070159688135e+00	 5.628735281183114e-01	 7.487848498223668e+00
1	 1.331558191408627e+00	 5.895904047804380e-01	 7.067712322424053e+00
1	 1.319468820644909e+00	 6.161705071464469e-01	 6.597167322297471e+00
1	 1.306803290311363e+00	 6.425956916881018e-01	 6.078641953726884e+00
1	 1.293563584955108e+00	 6.688477511624903e-01	 5.514740328323269e+00
1	 1.279752439439361e+00	 6.949084517524483e-01	 4.908235343503851e+00
1	 1.265373345431599e+00	 7.207595710420167e-01	 4.262060807513849e+00
1	 1.250430555617438e+00	 7.463829366776308e-01	 3.579302584939556e+00
1	 1.234929085572623e+00	 7.717604655578855e-01	 2.863188796966025e+00
1	 1.218874713237832e+00	 7.968742033878552e-01	 2.117079119257660e+00
1	 1.359815390297562e+00	 5.383385127440107e-01	 7.611708833027002e+00
1	 1.348834409303615e+00	 5.652892943337495e-01	 7.251384698395887e+00
1	 1.337273033434886e+00	 5.921208357025314e-01	 6.840332959222007e+00
1	 1.325131776959660e+00	 6.188150157610773e-01	 6.380798295100941e+00
1	 1.312411888126715e+00	 6.453536131119314e-01	 5.875200067688503e+00
1	 1.299115360000539e+00	 6.717183423695080e-01	 5.326126335276019e+00
1	 1.285244939181958e+00	 6.978908914599173e-01	 4.736326877719579e+00
1	 1.270804132324149e+00	 7.238529597594070e-01	 4.108705250246965e+00
1	 1.255797210364595e+00	 7.495862969214776e-01	 3.446309893119549e+00
1	 1.240229210405119e+00	 7.750727422348485e-01	 2.752324332583429e+00
1	 1.224105935184426e+00	 8.002942643475329e-01	 2.030056516900282e+00
1	 1.365626567181759e+00	 5.406391046787375e-01	 7.370118532546481e+00
1	 1.354598658918510e+00	 5.677050605486075e-01	 7.016861106596592e+00
1	 1.342987875460474e+00	 5.946512666239735e-01	 6.614788037778731e+00
1	 1.330794733273664e+00	 6.214595243750047e-01	 6.166141739333113e+00
1	 1.318020485941253e+00	 6.481115345350257e-01	 5.673332525403181e+00
1	 1.304667135045098e+00	 6.745889335757778e-01	 5.138932488887324e+00
1	 1.290737438923640e+00	 7.008733311666466e-01	 4.565668421745308e+00
1	 1.276234919215746e+00	 7.269463484760849e-01	 3.956413797930708e+00
1	 1.261163865110774e+00	 7.527896571646605e-01	 3.314179847349563e+00
1	 1.245529335236620e+00	 7.783850189112159e-01	 2.642105757454647e+00
1	 1.229337157130020e+00	 8.037143253067056e-01	 1.943448047173781e+00
1	 1.371437744065466e+00	 5.429396966129747e-01	 7.130532194012797e+00
1	 1.360362908532820e+00	 5.701208267628853e-01	 6.784253059165033e+00
1	 1.348702717485391e+00	 5.971816975447641e-01	 6.391054238920114e+00
1	 1.336457689586921e+00	 6.241040329882285e-01	 5.953175886290259e+00
1	 1.323629083754977e+00	 6.508694559573840e-01	 5.473019314027511e+00
1	 1.310218910088789e+00	 6.774595247812997e-01	 4.953140736446365e+00
1	 1.296229938664404e+00	 7.038557708726348e-01	 4.396244085626653e+00
1	 1.281665706106391e+00	 7.300397371920500e-01	 3.805172923807969e+00
1	 1.266530519855974e+00	 7.559930174071795e-01	 3.182901481790603e+00
1	 1.250829460067127e+00	 7.816972955869887e-01	 2.532524861123393e+00
1	 1.234568379074614e+00	 8.071343862653727e-01	 1.857248445680421e+00
1	 1.377248920948683e+00	 5.452402885467222e-01	 6.892924450819440e+00
1	 1.366127158146545e+00	 5.725365929765829e-01	 6.553536308704740e+00
1	 1.354417559509638e+00	 5.997121284649031e-01	 6.169108637044488e+00
1	 1.342120645899430e+00	 6.267485416007487e-01	 5.741879334672911e+00
1	 1.329237681567888e+00	 6.536273773790069e-01	 5.274240758487657e+00
1	 1.315770685131609e+00	 6.803301159860735e-01	 4.768733329929415e+00
1	 1.301722438404252e+00	 7.068382105778832e-01	 4.228038247594303e+00
1	 1.287096492996082e+00	 7.331331259073032e-01	 3.654969329421394e+00
1	 1.271897174600194e+00	 7.591963776490347e-01	 3.052464015681100e+00
1	 1.256129584896638e+00	 7.850095722621667e-01	 2.423573571706743e+00
1	 1.239799601018208e+00	 8.105544472235345e-01	 1.771452536872982e+00
1	 1.383060097831411e+00	 5.475408804799798e-01	 6.657270362689443e+00
1	 1.371891407759686e+00	 5.749523591897004e-01	 6.324687015338536e+00
1	 1.360132401533214e+00	 6.022425593843905e-01	 5.948928691854579e+00
1	 1.347783602211193e+00	 6.293930502125656e-01	 5.532231042867335e+00
1	 1.334846279379986e+00	 6.563852987998939e-01	 5.076977514383232e+00
1	 1.321322460173559e+00	 6.832007071900991e-01	 4.585692819598906e+00
1	 1.307214938143183e+00	 7.098206502823909e-01	 4.061035548429435e+00
1	 1.292527279884821e+00	 7.362265146218439e-01	 3.505789939817167e+00
1	 1.277263829343436e+00	 7.623997378902261e-01	 2.922856849448814e+00
1	 1.261429709725155e+00	 7.883218489367496e-01	 2.315243952983340e+00
1	 1.245030822960801e+00	 8.139745081811909e-01	 1.686055232188324e+00
1	 1.388871274713649e+00	 5.498414724127478e-01	 6.423545406756383e+00
1	 1.377655657372240e+00	 5.773681254022376e-01	 6.097681738183029e+00
1	 1.365847243556119e+00	 6.047729903032266e-01	 5.730492240296471e+00
1	 1.353446558522208e+00	 6.320375588236792e-01	 5.324210321420692e+00
1	 1.340454877191269e+00	 6.591432202200452e-01	 4.881210561069508e+00
1	 1.326874235214639e+00	 6.860712983933770e-01	 4.404002047763035e+00
1	 1.312707437881198e+00	 7.128030899861587e-01	 3.895220885971507e+00
1	 1.297958066772607e+00	 7.393199033356723e-01	 3.357621898869005e+00
1	 1.282630484085699e+00	 7.656030981307534e-01	 2.794069560920150e+00
1	 1.266729834552678e+00	 7.916341256107376e-01	 2.207528201555706e+00
1	 1.250262044902395e+00	 8.173945691383421e-01	 1.601051528227530e+00
1	 1.394682451595397e+00	 5.521420643450262e-01	 6.191725468868218e+00
1	 1.383419906984210e+00	 5.797838916141946e-01	 5.872497427036219e+00
1	 1.371562085578352e+00	 6.073034212214110e-01	 5.513777488700590e+00
1	 1.359109514832477e+00	 6.346820674340894e-01	 5.117796825704382e+00
1	 1.346063475001740e+00	 6.619011416394612e-01	 4.686921194912528e+00
1	 1.332426010254849e+00	 6.889418895959066e-01	 4.223644142691509e+00
1	 1.318199937618296e+00	 7.157855296891861e-01	 3.730579409762499e+00
1	 1.303388853659439e+00	 7.424132920487886e-01	 3.210452564719518e+00
1	 1.287997138826982e+00	 7.688064583706170e-01	 2.666091901624373e+00
1	 1.272029959379205e+00	 7.949464022841308e-01	 2.100418644083043e+00
1	 1.255493266842989e+00	 8.208146300949881e-01	 1.516436504981570e+00
1	 1.203181047392051e+00	 7.866140205057904e-01	 2.380685739413341e+00
1	 1.186794053507660e+00	 8.111264541512102e-01	 9.666244673988991e-01
1	 1.169874926844846e+00	 8.353435853641624e-01	-4.524128909185134e-01
1	 1.152431601279559e+00	 8.592483077927865e-01	-1.874547325309630e+00
1	 1.134472736871259e+00	 8.828237985978646e-01	-3.297886606154563e+00
1	 1.116007707164387e+00	 9.060535567096920e-01	-4.720531386732739e+00
1	 1.097046584084299e+00	 9.289214403956018e-01	-6.140581384170343e+00
1	 1.077600120472180e+00	 9.514117039623922e-01	-7.556141602267619e+00
1	 1.057679730318073e+00	 9.735090334212855e-01	-8.965328558748663e+00
1	 1.037297466765497e+00	 9.951985809477983e-01	-1.036627647915871e+01
1	 1.016465997975000e+00	 1.016465997975000e+00	-1.175714341967552e+01
1	 1.208412269341645e+00	 7.900340814669840e-01	 2.292388235247858e+00
1	 1.191954027657402e+00	 8.146530909107680e-01	 8.935518326002252e-01
1	 1.174961339573990e+00	 8.389755139984805e-01	-5.138642353133736e-01
1	 1.157442173462472e+00	 8.629841700028186e-01	-1.928160875837206e+00
1	 1.139405227034742e+00	 8.866621629417849e-01	-3.347613436755917e+00
1	 1.120859914589782e+00	 9.099929200018938e-01	-4.770476971987195e+00
1	 1.101816351843927e+00	 9.329602292690323e-01	-6.194991646596636e+00
1	 1.082285338389846e+00	 9.555482765904630e-01	-7.619388250286105e+00
1	 1.062278337843626e+00	 9.777416813948473e-01	-9.041893787337864e+00
1	 1.041807455753759e+00	 9.995255313019448e-01	-1.046073711013397e+01
1	 1.020885415359750e+00	 1.020885415359750e+00	-1.187415456280605e+01
1	 1.213643491290238e+00	 7.934541424276723e-01	 2.204521209409033e+00
1	 1.197114001806148e+00	 8.181797276699108e-01	 8.203479999358763e-01
1	 1.180047752302154e+00	 8.426074426324538e-01	-5.759792273342508e-01
1	 1.162452745644430e+00	 8.667200322125564e-01	-1.982940121357303e+00
1	 1.144337717197305e+00	 8.905005272854425e-01	-3.398976499866356e+00
1	 1.125712122014301e+00	 9.139322832938437e-01	-4.822496783054732e+00
1	 1.106586119602734e+00	 9.369990181422018e-01	-6.251880626945201e+00
1	 1.086970556306756e+00	 9.596848492182428e-01	-7.685483731487276e+00
1	 1.066876945368499e+00	 9.819743293680688e-01	-9.121642796783567e+00
1	 1.046317444741425e+00	 1.003852481655681e+00	-1.055868059942871e+01
1	 1.025304832744000e+00	 1.025304832744000e+00	-1.199491115978463e+01
1	 1.218874713237832e+00	 7.968742033878552e-01	 2.117079119257660e+00
1	 1.202273975953900e+00	 8.217063644286381e-01	 7.470146586486890e-01
1	 1.185134165029337e+00	 8.462393712660828e-01	-6.387493221619360e-01
1	 1.167463317825433e+00	 8.704558944220010e-01	-2.038870052921957e+00
1	 1.149270207358948e+00	 8.943388916288371e-01	-3.451954728114581e+00
1	 1.130564329437945e+00	 9.178716465855418e-01	-4.876564113165645e+00
1	 1.111355887360721e+00	 9.410378070151098e-01	-6.311216410393326e+00
1	 1.091655774222912e+00	 9.638214218457319e-01	-7.754391365616025e+00
1	 1.071475552892692e+00	 9.862069773409504e-01	-9.204534594199865e+00
1	 1.050827433728497e+00	 1.008179432009007e+00	-1.066006210337445e+01
1	 1.029724250127750e+00	 1.029724250127750e+00	-1.211936498588486e+01
1	 1.224105935184426e+00	 8.002942643475329e-01	 2.030056516900282e+00
1	 1.207433950100656e+00	 8.252330011869504e-01	 6.735534691056324e-01
1	 1.190220577755541e+00	 8.498712998993674e-01	-7.021661210427155e-01
1	 1.172473890005481e+00	 8.741917566311519e-01	-2.095935918145935e+00
1	 1.154202697519670e+00	 8.981772559719686e-01	-3.506527414255643e+00
1	 1.135416536860714e+00	 9.218110098769875e-01	-4.932652712075765e+00
1	 1.116125655117888e+00	 9.450765958877564e-01	-6.372967627670586e+00
1	 1.096340992138312e+00	 9.679579944729305e-01	-7.826075099429913e+00
1	 1.076074160416205e+00	 9.904396253134916e-01	-9.290528887433716e+00
1	 1.055337422714973e+00	 1.012506382361924e+00	-1.076483754486100e+01
1	 1.034143667511000e+00	 1.034143667511000e+00	-1.224746864073476e+01
1	 1.229337157130020e+00	 8.037143253067056e-01	 1.943448047173781e+00
1	 1.212593924246418e+00	 8.287596379448477e-01	 5.999660634119488e-01
1	 1.195306990480764e+00	 8.535032285323073e-01	-7.662213681804451e-01
1	 1.177484462184574e+00	 8.779276188400088e-01	-2.154123215748917e+00
1	 1.159135187679473e+00	 9.020156203148375e-01	-3.562674203508063e+00
1	 1.140268744282607e+00	 9.257503731681815e-01	-4.990736776354035e+00
1	 1.120895422874235e+00	 9.491153847601420e-01	-6.437103443451846e+00
1	 1.101026210052957e+00	 9.720945670998383e-01	-7.900499493358981e+00
1	 1.080672767939038e+00	 9.946722732856925e-01	-9.379586070156217e+00
1	 1.059847411700855e+00	 1.016833332714430e+00	-1.087296359702730e+01
1	 1.038563084893750e+00	 1.038563084893750e+00	-1.237917553077739e+01
1	 1.234568379074614e+00	 8.071343862653727e-01	 1.857248445680421e+00
1	 1.217753898391184e+00	 8.322862747023296e-01	 5.262540460101435e-01
1	 1.200393403205007e+00	 8.571351571649026e-01	-8.309069477075819e-01
1	 1.182495034362711e+00	 8.816634810485721e-01	-2.213417690234609e+00
1	 1.164067677838354e+00	 9.058539846574435e-01	-3.620375086086797e+00
1	 1.145120951703626e+00	 9.296897364591236e-01	-5.050790939915474e+00
1	 1.125665190629761e+00	 9.531541736322663e-01	-6.503593545044806e+00
1	 1.105711427966847e+00	 9.762311397264556e-01	-7.977629708503909e+00
1	 1.085271375461190e+00	 9.989049212575531e-01	-9.471667207332183e+00
1	 1.064357400686141e+00	 1.021160283066526e+00	-1.098439766736582e+01
1	 1.042982502276000e+00	 1.042982502276000e+00	-1.251443985217715e+01
1	 1.239799601018208e+00	 8.105544472235345e-01	 1.771452536872982e+00
1	 1.222913872534956e+00	 8.358129114593970e-01	 4.524189942636494e-01
1	 1.205479815928270e+00	 8.607670857971537e-01	-8.962148807331958e-01
1	 1.187505606539894e+00	 8.853993432568418e-01	-2.273805326706020e+00
1	 1.169000167996316e+00	 9.096923489997869e-01	-3.679610389924595e+00
1	 1.149973159123768e+00	 9.336290997498135e-01	-5.112790264794637e+00
1	 1.130434958384467e+00	 9.571929625041291e-01	-6.572408131363278e+00
1	 1.110396645879981e+00	 9.803677123527816e-01	-8.057431493963625e+00
1	 1.089869982982663e+00	 1.003137569229073e+00	-9.566734021057783e+00
1	 1.068867389670832e+00	 1.025487233418211e+00	-1.109909788222967e+01
1	 1.047401919657750e+00	 1.047401919657750e+00	-1.265321657415895e+01
1	 1.245030822960801e+00	 8.139745081811909e-01	 1.686055232188324e+00
1	 1.228073846677732e+00	 8.393395482160491e-01	 3.784624590253469e-01
1	 1.210566228650553e+00	 8.643990144290601e-01	-9.621373224655798e-01
1	 1.192516178716120e+00	 8.891352054648176e-01	-2.335272345810676e+00
1	 1.173932658153357e+00	 9.135307133418670e-01	-3.740360773577281e+00
1	 1.154825366543036e+00	 9.375684630402511e-01	-5.176710232151970e+00
1	 1.135204726138353e+00	 9.612317513757309e-01	-6.643517902180148e+00
1	 1.115081863792361e+00	 9.845042849788175e-01	-8.139871174482733e+00
1	 1.094468590503455e+00	 1.007370217200253e+00	-9.664748876755606e+00
1	 1.073377378654929e+00	 1.029814183769487e+00	-1.121702307173125e+01
1	 1.051821337039000e+00	 1.051821337039000e+00	-1.279546142276767e+01
1	 1.250262044902395e+00	 8.173945691383421e-01	 1.601051528227530e+00
1	 1.233233820819513e+00	 8.428661849722860e-01	 3.043859651926675e-01
1	 1.215652641371857e+00	 8.680309430606221e-01	-1.028666559406315e+00
1	 1.197526750891392e+00	 8.928710676724997e-01	-2.397805198812683e+00
1	 1.178865148309478e+00	 9.173690776836846e-01	-3.802607219306885e+00
1	 1.159677573961428e+00	 9.415078263304372e-01	-5.242526733504459e+00
1	 1.139974493891418e+00	 9.652705402470714e-01	-6.716894047648610e+00
1	 1.119767081703985e+00	 9.886408576045624e-01	-8.224915638408154e+00
1	 1.099067198023567e+00	 1.011602865171093e+00	-9.765674769715400e+00
1	 1.077887367638430e+00	 1.034141134120353e+00	-1.133813275501849e+01
1	 1.056240754419750e+00	 1.056240754419750e+00	-1.294113086503500e+01
1	 1.255493266842989e+00	 8.208146300949881e-01	 1.516436504981570e+00
1	 1.238393794960300e+00	 8.463928217281081e-01	 2.301910122478747e-01
1	 1.220739054092179e+00	 8.716628716918398e-01	-1.095795006615659e+00
1	 1.202537323065708e+00	 8.966069298798882e-01	-2.461390562788598e+00
1	 1.183797638464679e+00	 9.212074420252394e-01	-3.866331026337666e+00
1	 1.164529781378945e+00	 9.454471896203712e-01	-5.310216062177544e+00
1	 1.144744261643663e+00	 9.693093291181504e-01	-6.792508238085724e+00
1	 1.124452299614854e+00	 9.927774302300170e-01	-8.312532325948050e+00
1	 1.103665805542999e+00	 1.015835513141593e+00	-9.869475311972273e+00
1	 1.082397356621336e+00	 1.038468084470809e+00	-1.146238712592052e+01
1	 1.060660171800000e+00	 1.060660171800000e+00	-1.309018209354198e+01
1	 1.016465997975000e+00	 1.016465997975000e+00	-1.175714341967552e+01
1	 9.951985809477983e-01	 1.037297466765497e+00	-1.362672398630666e+01
1	 9.735090334212854e-01	 1.057679730318073e+00	-1.554615919567043e+01
1	 9.514117039623926e-01	 1.077600120472180e+00	-1.751711715227131e+01
1	 9.289214403956021e-01	 1.097046584084299e+00	-1.954101673021034e+01
1	 9.060535567096923e-01	 1.116007707164387e+00	-2.161901977209097e+01
1	 8.828237985978652e-01	 1.134472736871258e+00	-2.375202475606775e+01
1	 8.592483077927872e-01	 1.152431601279558e+00	-2.594066197005793e+01
1	 8.353435853641630e-01	 1.169874926844845e+00	-2.818529021899231e+01
1	 8.111264541512111e-01	 1.186794053507659e+00	-3.048599507767979e+01
1	 7.866140205057904e-01	 1.203181047392051e+00	-3.284258868856178e+01
1	 1.020885415359750e+00	 1.020885415359750e+00	-1.187415456280605e+01
1	 9.995255313019447e-01	 1.041807455753759e+00	-1.377708607728151e+01
1	 9.777416813948473e-01	 1.062278337843626e+00	-1.572074289798425e+01
1	 9.555482765904629e-01	 1.082285338389845e+00	-1.770626835550950e+01
1	 9.329602292690325e-01	 1.101816351843927e+00	-1.973459449180670e+01
1	 9.099929200018941e-01	 1.120859914589782e+00	-2.180643618654898e+01
1	 8.866621629417855e-01	 1.139405227034742e+00	-2.392228653071705e+01
1	 8.629841700028190e-01	 1.157442173462472e+00	-2.608241347633973e+01
1	 8.389755139984812e-01	 1.174961339573989e+00	-2.828685778020314e+01
1	 8.146530909107688e-01	 1.191954027657401e+00	-3.053543224809180e+01
1	 7.900340814669840e-01	 1.208412269341645e+00	-3.282772227493412e+01
1	 1.025304832744000e+00	 1.025304832744000e+00	-1.199491115978463e+01
1	 1.003852481655681e+00	 1.046317444741425e+00	-1.392933580349859e+01
1	 9.819743293680691e-01	 1.066876945368499e+00	-1.589543751674704e+01
1	 9.596848492182430e-01	 1.086970556306756e+00	-1.789383820316678e+01
1	 9.369990181422019e-01	 1.106586119602734e+00	-1.992498619594201e+01
1	 9.139322832938440e-01	 1.125712122014301e+00	-2.198915230120645e+01
1	 8.905005272854427e-01	 1.144337717197305e+00	-2.408642686889746e+01
1	 8.667200322125570e-01	 1.162452745644430e+00	-2.621671790998916e+01
1	 8.426074426324545e-01	 1.180047752302153e+00	-2.837975026987858e+01
1	 8.181797276699113e-01	 1.197114001806148e+00	-3.057506585851951e+01
1	 7.934541424276725e-01	 1.213643491290239e+00	-3.280202492878848e+01
1	 1.029724250127750e+00	 1.029724250127750e+00	-1.211936498588486e+01
1	 1.008179432009007e+00	 1.050827433728497e+00	-1.408344886064299e+01
1	 9.862069773409505e-01	 1.071475552892692e+00	-1.607024162385163e+01
1	 9.638214218457319e-01	 1.091655774222912e+00	-1.807984705604583e+01
1	 9.410378070151100e-01	 1.111355887360721e+00	-2.011223286481632e+01
1	 9.178716465855419e-01	 1.130564329437945e+00	-2.216722863494482e+01
1	 8.943388916288376e-01	 1.149270207358948e+00	-2.424452458738715e+01
1	 8.704558944220014e-01	 1.167463317825433e+00	-2.634367115606013e+01
1	 8.462393712660834e-01	 1.185134165029337e+00	-2.846407938421637e+01
1	 8.217063644286390e-01	 1.202273975953900e+00	-3.060502213505445e+01
1	 7.968742033878553e-01	 1.218874713237833e+00	-3.276563610418778e+01
1	 1.034143667511000e+00	 1.034143667511000e+00	-1.224746864073476e+01
1	 1.012506382361923e+00	 1.055337422714973e+00	-1.423940135985827e+01
1	 9.904396253134916e-01	 1.076074160416205e+00	-1.624515381560247e+01
1	 9.679579944729305e-01	 1.096340992138312e+00	-1.826431492690106e+01
1	 9.450765958877567e-01	 1.116125655117888e+00	-2.029637481939515e+01
1	 9.218110098769879e-01	 1.135416536860714e+00	-2.234072467213464e+01
1	 8.981772559719691e-01	 1.154202697519670e+00	-2.439665715566816e+01
1	 8.741917566311522e-01	 1.172473890005481e+00	-2.646336746054576e+01
1	 8.498712998993679e-01	 1.190220577755540e+00	-2.853995491007750e+01
1	 8.252330011869511e-01	 1.207433950100656e+00	-3.062542514607685e+01
1	 8.002942643475330e-01	 1.224105935184426e+00	-3.271869287136578e+01
1	 1.038563084893750e+00	 1.038563084893750e+00	-1.237917553077739e+01
1	 1.016833332714429e+00	 1.059847411700855e+00	-1.439716981890685e+01
1	 9.946722732856925e-01	 1.080672767939038e+00	-1.642017271219719e+01
1	 9.720945670998383e-01	 1.101026210052957e+00	-1.844726148784506e+01
1	 9.491153847601421e-01	 1.120895422874235e+00	-2.047745169432918e+01
1	 9.257503731681819e-01	 1.140268744282607e+00	-2.250969888464682e+01
1	 9.020156203148380e-01	 1.159135187679472e+00	-2.454290072459361e+01
1	 8.779276188400094e-01	 1.177484462184573e+00	-2.657589946525174e+01
1	 8.535032285323079e-01	 1.195306990480764e+00	-2.860748476561034e+01
1	 8.287596379448484e-01	 1.212593924246417e+00	-3.063639684816487e+01
1	 8.037143253067056e-01	 1.229337157130020e+00	-3.266132996744534e+01
1	 1.042982502276000e+00	 1.042982502276000e+00	-1.251443985217715e+01
1	 1.021160283066525e+00	 1.064357400686141e+00	-1.455673115355511e+01
1	 9.989049212575530e-01	 1.085271375461190e+00	-1.659529695721991e+01
1	 9.762311397264556e-01	 1.105711427966847e+00	-1.862870607756362e+01
1	 9.531541736322664e-01	 1.125665190629761e+00	-2.065550245249634e+01
1	 9.296897364591239e-01	 1.145120951703625e+00	-2.267420875330341e+01
1	 9.058539846574439e-01	 1.164067677838354e+00	-2.468333015432389e+01
1	 8.816634810485726e-01	 1.182495034362711e+00	-2.668135824178395e+01
1	 8.571351571649034e-01	 1.200393403205007e+00	-2.866677503984249e+01
1	 8.322862747023305e-01	 1.217753898391184e+00	-3.063805713083617e+01
1	 8.071343862653726e-01	 1.234568379074614e+00	-3.259367984586985e+01
1	 1.047401919657750e+00	 1.047401919657750e+00	-1.265321657415895e+01
1	 1.025487233418211e+00	 1.068867389670833e+00	-1.471806266917682e+01
1	 1.003137569229073e+00	 1.089869982982662e+00	-1.677052521714721e+01
1	 9.803677123527821e-01	 1.110396645879981e+00	-1.880866770835219e+01
1	 9.571929625041291e-01	 1.130434958384467e+00	-2.083056539917217e+01
1	 9.336290997498136e-01	 1.149973159123768e+00	-2.283431078878573e+01
1	 9.096923489997870e-01	 1.169000167996316e+00	-2.481801904155665e+01
1	 8.853993432568421e-01	 1.187505606539893e+00	-2.677983332467475e+01
1	 8.607670857971543e-01	 1.205479815928270e+00	-2.871793003126900e+01
1	 8.358129114593977e-01	 1.222913872534955e+00	-3.063052386015714e+01
1	 8.105544472235345e-01	 1.239799601018207e+00	-3.251587272458140e+01
1	 1.051821337039000e+00	 1.051821337039000e+00	-1.279546142276767e+01
1	 1.029814183769487e+00	 1.073377378654929e+00	-1.488114205256821e+01
1	 1.007370217200253e+00	 1.094468590503455e+00	-1.694585618086871e+01
1	 9.845042849788176e-01	 1.115081863792361e+00	-1.898716507297110e+01
1	 9.612317513757310e-01	 1.135204726138352e+00	-2.100267819584714e+01
1	 9.375684630402514e-01	 1.154825366543035e+00	-2.299006055201631e+01
1	 9.135307133418675e-01	 1.173932658153357e+00	-2.494703974607064e+01
1	 8.891352054648182e-01	 1.192516178716120e+00	-2.687141274367441e+01
1	 8.643990144290609e-01	 1.210566228650553e+00	-2.876105228546991e+01
1	 8.393395482160498e-01	 1.228073846677731e+00	-3.061391292125089e+01
1	 8.139745081811909e-01	 1.245030822960801e+00	-3.242803663298574e+01
1	 1.056240754419750e+00	 1.056240754419750e+00	-1.294113086503500e+01
1	 1.034141134120353e+00	 1.077887367638430e+00	-1.504594736396815e+01
1	 1.011602865171093e+00	 1.099067198023567e+00	-1.712128855921653e+01
1	 9.886408576045628e-01	 1.119767081703985e+00	-1.916421655133146e+01
1	 9.652705402470714e-01	 1.139974493891418e+00	-2.117187787369252e+01
1	 9.415078263304374e-01	 1.159677573961427e+00	-2.314151267402720e+01
1	 9.173690776836849e-01	 1.178865148309478e+00	-2.507046341660222e+01
1	 8.928710676725004e-01	 1.197526750891392e+00	-2.695618305523185e+01
1	 8.680309430606228e-01	 1.215652641371856e+00	-2.879624263178038e+01
1	 8.428661849722869e-01	 1.233233820819513e+00	-3.058833825974182e+01
1	 8.173945691383421e-01	 1.250262044902395e+00	-3.233029745773671e+01
1	 1.060660171800000e+00	 1.060660171800000e+00	-1.309018209354198e+01
1	 1.038468084470809e+00	 1.082397356621336e+00	-1.521245702927834e+01
1	 1.015835513141593e+00	 1.103665805542999e+00	-1.729682108450960e+01
1	 9.927774302300173e-01	 1.124452299614854e+00	-1.933984021701265e+01
1	 9.693093291181506e-01	 1.144744261643662e+00	-2.133820084669435e+01
1	 9.454471896203714e-01	 1.164529781378944e+00	-2.328872087533344e+01
1	 9.212074420252399e-01	 1.183797638464678e+00	-2.518836001607476e+01
1	 8.966069298798891e-01	 1.202537323065708e+00	-2.703422937318889e+01
1	 8.716628716918403e-01	 1.220739054092179e+00	-2.882360021904714e+01
1	 8.463928217281088e-01	 1.238393794960299e+00	-3.055391192216039e+01
1	 8.208146300949881e-01	 1.255493266842989e+00	-3.222277898737801e+01
1	 7.866140205057904e-01	 1.203181047392051e+00	-3.284258868856178e+01
1	 7.618236355234277e-01	 1.219028711069166e+00	-3.453688144281579e+01
1	 7.367728559421065e-01	 1.234330591370090e+00	-3.605452946530168e+01
1	 7.114794048855733e-01	 1.249080984748231e+00	-3.738857936672412e+01
1	 6.859611326255991e-01	 1.263274940206068e+00	-3.853284696315285e+01
1	 6.602359775369485e-01	 1.276908259813596e+00	-3.948192823138518e+01
1	 6.343219274121989e-01	 1.289977496860427e+00	-4.023120603178305e+01
1	 6.082369812983350e-01	 1.302479951696174e+00	-4.077685265597845e+01
1	 5.819991120102488e-01	 1.314413665325824e+00	-4.111582828891405e+01
1	 5.556262294685167e-01	 1.325777410838185e+00	-4.124587550489893e+01
1	 5.291361450002061e-01	 1.336570682755877e+00	-4.116550994541267e+01
1	 7.900340814669840e-01	 1.208412269341645e+00	-3.282772227493412e+01
1	 7.651359122021751e-01	 1.224328835904646e+00	-3.442537024047019e+01
1	 7.399762161879453e-01	 1.239697246120185e+00	-3.585563445521339e+01
1	 7.145727936051000e-01	 1.254511771643640e+00	-3.711202201167850e+01
1	 6.889435723352891e-01	 1.268767439951415e+00	-3.818876698090952e+01
1	 6.631065687462104e-01	 1.282460034861637e+00	-3.908084044426685e+01
1	 6.370798488382357e-01	 1.295586094678219e+00	-3.978395653326835e+01
1	 6.108814899150761e-01	 1.308142908013167e+00	-4.029457453356840e+01
1	 5.845295429342969e-01	 1.320128507354096e+00	-4.060989713934766e+01
1	 5.580419956856956e-01	 1.331541660455420e+00	-4.072786497279522e+01
1	 5.314367369368919e-01	 1.342381859642033e+00	-4.064714750971519e+01
1	 7.934541424276725e-01	 1.213643491290239e+00	-3.280202492878848e+01
1	 7.684481888803277e-01	 1.229628960739132e+00	-3.430485639001544e+01
1	 7.431795764331197e-01	 1.245063900869301e+00	-3.564947714213953e+01
1	 7.176661823239149e-01	 1.259942558538095e+00	-3.682985213017943e+01
1	 6.919260120442391e-01	 1.274259939695846e+00	-3.784063130920181e+01
1	 6.659771599547245e-01	 1.288011809908807e+00	-3.867715875684836e+01
1	 6.398377702635368e-01	 1.301194692495198e+00	-3.933547803318340e+01
1	 6.135259985311134e-01	 1.313805864329411e+00	-3.981233384265379e+01
1	 5.870599738576936e-01	 1.325843349381697e+00	-4.010517008125127e+01
1	 5.604577619022939e-01	 1.337305910072069e+00	-4.021212437859289e+01
1	 5.337373288730878e-01	 1.348193036527699e+00	-4.013201926929260e+01
1	 7.968742033878553e-01	 1.218874713237833e+00	-3.276563610418778e+01
1	 7.717604655578856e-01	 1.234929085572623e+00	-3.417545580537302e+01
1	 7.463829366776306e-01	 1.250430555617438e+00	-3.543615103212479e+01
1	 7.207595710420169e-01	 1.265373345431599e+00	-3.654214198651474e+01
1	 6.949084517524486e-01	 1.279752439439361e+00	-3.748849216720739e+01
1	 6.688477511624905e-01	 1.293563584955108e+00	-3.827091656698735e+01
1	 6.425956916881024e-01	 1.306803290311363e+00	-3.888578635558277e+01
1	 6.161705071464476e-01	 1.319468820644910e+00	-3.933013010128445e+01
1	 5.895904047804387e-01	 1.331558191408627e+00	-3.960163161130235e+01
1	 5.628735281183124e-01	 1.343070159688135e+00	-3.969862449562494e+01
1	 5.360379208087941e-01	 1.354004213412875e+00	-3.962008358214572e+01
1	 8.002942643475330e-01	 1.224105935184426e+00	-3.271869287136578e+01
1	 7.750727422348481e-01	 1.240229210405119e+00	-3.403728241903031e+01
1	 7.495862969214776e-01	 1.255797210364595e+00	-3.521574803282061e+01
1	 7.238529597594070e-01	 1.270804132324149e+00	-3.624896260968592e+01
1	 6.978908914599178e-01	 1.285244939181959e+00	-3.713240088146760e+01
1	 6.717183423695084e-01	 1.299115360000538e+00	-3.786214670163822e+01
1	 6.453536131119321e-01	 1.312411888126714e+00	-3.843489705402455e+01
1	 6.188150157610780e-01	 1.325131776959660e+00	-3.884796283574925e+01
1	 5.921208357025323e-01	 1.337273033434886e+00	-3.909926649119181e+01
1	 5.652892943337505e-01	 1.348834409303615e+00	-3.918733659682480e+01
1	 5.383385127440107e-01	 1.359815390297562e+00	-3.911129951810521e+01
1	 8.037143253067056e-01	 1.229337157130020e+00	-3.266132996744534e+01
1	 7.783850189112159e-01	 1.245529335236620e+00	-3.389044822419791e+01
1	 7.527896571646605e-01	 1.261163865110774e+00	-3.498835848749302e+01
1	 7.269463484760850e-01	 1.276234919215747e+00	-3.595038381968887e+01
1	 7.008733311666465e-01	 1.290737438923639e+00	-3.677240790488082e+01
1	 6.745889335757782e-01	 1.304667135045099e+00	-3.745088142899883e+01
1	 6.481115345350261e-01	 1.318020485941253e+00	-3.798282541732546e+01
1	 6.214595243750053e-01	 1.330794733273663e+00	-3.836583158039920e+01
1	 5.946512666239744e-01	 1.342987875460474e+00	-3.859805974198613e+01
1	 5.677050605486085e-01	 1.354598658918510e+00	-3.867823244409726e+01
1	 5.406391046787375e-01	 1.365626567181759e+00	-3.860562684368584e+01
1	 8.071343862653726e-01	 1.234568379074614e+00	-3.259367984586985e+01
1	 7.816972955869885e-01	 1.250829460067127e+00	-3.373506331589727e+01
1	 7.559930174071795e-01	 1.266530519855974e+00	-3.475407120816600e+01
1	 7.300397371920501e-01	 1.281665706106391e+00	-3.564647425313164e+01
1	 7.038557708726352e-01	 1.296229938664404e+00	-3.640856283521175e+01
1	 6.774595247813002e-01	 1.310218910088789e+00	-3.703715247034795e+01
1	 6.508694559573845e-01	 1.323629083754977e+00	-3.752958647517013e+01
1	 6.241040329882289e-01	 1.336457689586920e+00	-3.788373587747866e+01
1	 5.971816975447647e-01	 1.348702717485391e+00	-3.809799663863208e+01
1	 5.701208267628863e-01	 1.360362908532820e+00	-3.817128427795929e+01
1	 5.429396966129747e-01	 1.371437744065466e+00	-3.810302600732506e+01
1	 8.105544472235345e-01	 1.239799601018207e+00	-3.251587272458140e+01
1	 7.850095722621667e-01	 1.256129584896639e+00	-3.357123593100489e+01
1	 7.591963776490347e-01	 1.271897174600194e+00	-3.451297350792703e+01
1	 7.331331259073032e-01	 1.287096492996083e+00	-3.533730138819717e+01
1	 7.068382105778832e-01	 1.301722438404252e+00	-3.604091443313191e+01
1	 6.803301159860737e-01	 1.315770685131609e+00	-3.662099101158481e+01
1	 6.536273773790073e-01	 1.329237681567888e+00	-3.707519500357685e+01
1	 6.267485416007493e-01	 1.342120645899430e+00	-3.740167527695673e+01
1	 5.997121284649038e-01	 1.354417559509638e+00	-3.759906270460084e+01
1	 5.725365929765839e-01	 1.366127158146545e+00	-3.766646480744235e+01
1	 5.452402885467222e-01	 1.377248920948683e+00	-3.760345812499791e+01
1	 8.139745081811909e-01	 1.245030822960801e+00	-3.242803663298574e+01
1	 7.883218489367493e-01	 1.261429709725155e+00	-3.339907248729145e+01
1	 7.623997378902262e-01	 1.277263829343436e+00	-3.426515123241613e+01
1	 7.362265146218441e-01	 1.292527279884821e+00	-3.502293156898205e+01
1	 7.098206502823914e-01	 1.307214938143183e+00	-3.566951063980559e+01
1	 6.832007071900995e-01	 1.321322460173559e+00	-3.620242771447507e+01
1	 6.563852987998944e-01	 1.334846279379985e+00	-3.661966553022803e+01
1	 6.293930502125664e-01	 1.347783602211193e+00	-3.691964933636771e+01
1	 6.022425593843912e-01	 1.360132401533213e+00	-3.710124370666566e+01
1	 5.749523591897012e-01	 1.371891407759685e+00	-3.716374720024909e+01
1	 5.475408804799798e-01	 1.383060097831411e+00	-3.710688496619177e+01
1	 8.173945691383421e-01	 1.250262044902395e+00	-3.233029745773671e+01
1	 7.916341256107372e-01	 1.266729834552678e+00	-3.321867762147679e+01
1	 7.656030981307533e-01	 1.282630484085698e+00	-3.401068879052696e+01
1	 7.393199033356723e-01	 1.297958066772606e+00	-3.470343002922101e+01
1	 7.128030899861588e-01	 1.312707437881198e+00	-3.529439859403490e+01
1	 6.860712983933771e-01	 1.326874235214639e+00	-3.578149272761763e+01
1	 6.591432202200460e-01	 1.340454877191269e+00	-3.616301233966537e+01
1	 6.320375588236798e-01	 1.353446558522208e+00	-3.643765762064940e+01
1	 6.047729903032273e-01	 1.365847243556118e+00	-3.660452564981400e+01
1	 5.773681254022385e-01	 1.377655657372240e+00	-3.666310507315885e+01
1	 5.498414724127477e-01	 1.388871274713649e+00	-3.661326894023633e+01
1	 8.208146300949881e-01	 1.255493266842989e+00	-3.222277898737801e+01
1	 7.949464022841306e-01	 1.272029959379206e+00	-3.303015422633514e+01
1	 7.688064583706171e-01	 1.287997138826982e+00	-3.374966918433787e+01
1	 7.424132920487887e-01	 1.303388853659439e+00	-3.437886091542035e+01
1	 7.157855296891864e-01	 1.318199937618296e+00	-3.491562464897508e+01
1	 6.889418895959070e-01	 1.332426010254849e+00	-3.535821569713445e+01
1	 6.619011416394617e-01	 1.346063475001740e+00	-3.570524947835351e+01
1	 6.346820674340899e-01	 1.359109514832477e+00	-3.595569970199163e+01
1	 6.073034212214117e-01	 1.371562085578352e+00	-3.610889477228280e+01
1	 5.797838916141955e-01	 1.383419906984210e+00	-3.616451248267094e+01
1	 5.521420643450261e-01	 1.394682451595398e+00	-3.612257308297161e+01
1	 5.291361450002061e-01	 1.336570682755877e+00	-4.116550994541267e+01
1	 5.025465367328584e-01	 1.346793684405089e+00	-4.073830377608566e+01
1	 4.758749161986708e-01	 1.356447313410629e+00	-4.035127286087316e+01
1	 4.491385962591000e-01	 1.365533145430621e+00	-4.000571541180672e+01
1	 4.223546604492835e-01	 1.374053416251349e+00	-3.970273548754803e+01
1	 3.955399338264623e-01	 1.382011002366635e+00	-3.944324496253805e+01
1	 3.687109553981865e-01	 1.389409400171311e+00	-3.922796638318512e+01
1	 3.418839521937857e-01	 1.396252703901046e+00	-3.905743665757736e+01
1	 3.150748150310693e-01	 1.402545582452712e+00	-3.893201152116244e+01
1	 2.882990760188414e-01	 1.408293255220358e+00	-3.885187071753901e+01
1	 2.615718878246577e-01	 1.413501467081764e+00	-3.881702383095727e+01
1	 5.314367369368919e-01	 1.342381859642033e+00	-4.064714750971519e+01
1	 5.047315216768948e-01	 1.352649309124183e+00	-4.024186035481630e+01
1	 4.779439375750410e-01	 1.362344910429429e+00	-3.987509261509387e+01
1	 4.510913727660969e-01	 1.371470246066582e+00	-3.954803350325371e+01
1	 4.241909850614390e-01	 1.380027561542737e+00	-3.926168742131238e+01
1	 3.972596726707304e-01	 1.388019745858209e+00	-3.901687602532708e+01
1	 3.703140465102490e-01	 1.395450310609549e+00	-3.881424112733081e+01
1	 3.433704041616247e-01	 1.402323367833450e+00	-3.865424838265756e+01
1	 3.164447055331784e-01	 1.408643606726335e+00	-3.853719170708078e+01
1	 2.895525502646208e-01	 1.414416269375272e+00	-3.846319836516669e+01
1	 2.627091569046704e-01	 1.419647125635770e+00	-3.843223466890442e+01
1	 5.337373288730878e-01	 1.348193036527699e+00	-4.013201926929260e+01
1	 5.069165066205310e-01	 1.358504933842883e+00	-3.974816778585638e+01
1	 4.800129589510790e-01	 1.368242507447918e+00	-3.940119889542604e+01
1	 4.530441492728088e-01	 1.377407346702306e+00	-3.909219338382576e+01
1	 4.260273096733365e-01	 1.386001706833951e+00	-3.882205651004752e+01
1	 3.989794115147466e-01	 1.394028489349663e+00	-3.859152016639278e+01
1	 3.719171376220459e-01	 1.401491221047711e+00	-3.840114582626511e+01
1	 3.448568561291647e-01	 1.408394031765811e+00	-3.825132822946724e+01
1	 3.178145960349354e-01	 1.414741630999939e+00	-3.814229975141470e+01
1	 2.908060245099766e-01	 1.420539283530181e+00	-3.807413539989045e+01
1	 2.638464259841685e-01	 1.425792784189777e+00	-3.804675838087189e+01
1	 5.360379208087941e-01	 1.354004213412875e+00	-3.962008358214572e+01
1	 5.091014915637667e-01	 1.364360558561187e+00	-3.925719065050701e+01
1	 4.820819803267848e-01	 1.374140104466097e+00	-3.892956226161913e+01
1	 4.549969257792361e-01	 1.383344447337793e+00	-3.863817133950023e+01
1	 4.278636342849755e-01	 1.391975852124992e+00	-3.838382450712265e+01
1	 4.006991503585112e-01	 1.400037232840998e+00	-3.816716434180935e+01
1	 3.735202287335769e-01	 1.407532131485796e+00	-3.798867236898212e+01
1	 3.463433080964055e-01	 1.414464695698129e+00	-3.784867274579577e+01
1	 3.191844865363405e-01	 1.420839655273525e+00	-3.774733658302537e+01
1	 2.920594987549080e-01	 1.426662297685086e+00	-3.768468685105963e+01
1	 2.649836950631520e-01	 1.431938442743783e+00	-3.766060381397498e+01
1	 5.383385127440107e-01	 1.359815390297562e+00	-3.911129951810521e+01
1	 5.112864765066020e-01	 1.370216183279095e+00	-3.876889413551758e+01
1	 4.841510017021583e-01	 1.380037701483964e+00	-3.846015377667574e+01
1	 4.569497022853783e-01	 1.389281547973044e+00	-3.818594406162180e+01
1	 4.296999588963565e-01	 1.397949997415859e+00	-3.794697347781577e+01
1	 4.024188892020237e-01	 1.406045976332213e+00	-3.774379573062333e+01
1	 3.751233198448426e-01	 1.413573041923805e+00	-3.757681278312555e+01
1	 3.478297600633471e-01	 1.420535359630405e+00	-3.744627853844336e+01
1	 3.205543770373935e-01	 1.426937679547092e+00	-3.735230311489627e+01
1	 2.933129729994157e-01	 1.432785311839987e+00	-3.729485766205365e+01
1	 2.661209641416207e-01	 1.438084101297789e+00	-3.727377966409554e+01
1	 5.406391046787375e-01	 1.365626567181759e+00	-3.860562684368584e+01
1	 5.134714614490369e-01	 1.376071807996609e+00	-3.828324402020309e+01
1	 4.862200230771999e-01	 1.385935298501522e+00	-3.799294499614254e+01
1	 4.589024787912355e-01	 1.395218648608058e+00	-3.773548863827914e+01
1	 4.315362835074791e-01	 1.403924142706554e+00	-3.751148579267670e+01
1	 4.041386280452844e-01	 1.412054719823309e+00	-3.732140173011046e+01
1	 3.767264109558426e-01	 1.419613952361738e+00	-3.716555923203865e+01
1	 3.493162120299898e-01	 1.426606023562638e+00	-3.704414227196815e+01
1	 3.219242675380946e-01	 1.433035703820639e+00	-3.695720024447004e+01
1	 2.945664472434993e-01	 1.438908325994882e+00	-3.690465269210795e+01
1	 2.672582332195749e-01	 1.444229759851796e+00	-3.688629447910148e+01
1	 5.429396966129747e-01	 1.371437744065466e+00	-3.810302600732506e+01
1	 5.156564463910714e-01	 1.381927432713729e+00	-3.780020666389049e+01
1	 4.882890444519091e-01	 1.391832895518768e+00	-3.752790795767607e+01
1	 4.608552552968080e-01	 1.401155749242835e+00	-3.728678254589769e+01
1	 4.333726081183437e-01	 1.409898287997076e+00	-3.707734412105945e+01
1	 4.058583668882930e-01	 1.418063463314284e+00	-3.689996995115216e+01
1	 3.783295020665770e-01	 1.425654862799595e+00	-3.675490401188993e+01
1	 3.508026639963331e-01	 1.432676687494828e+00	-3.664226066745989e+01
1	 3.232941580384436e-01	 1.439133728094168e+00	-3.656202885397951e+01
1	 2.958199214871590e-01	 1.445031340149773e+00	-3.651407671809844e+01
1	 2.683955022970143e-01	 1.450375418405802e+00	-3.649815666198101e+01
1	 5.452402885467222e-01	 1.377248920948683e+00	-3.760345812499791e+01
1	 5.178414313327057e-01	 1.387783057430453e+00	-3.731974899368168e+01
1	 4.903580658262861e-01	 1.397730492535703e+00	-3.706501517087047e+01
1	 4.628080318020956e-01	 1.407092849877375e+00	-3.683980364104824e+01
1	 4.352089327289499e-01	 1.415872433287424e+00	-3.664453142481801e+01
1	 4.075781057310500e-01	 1.424072206805140e+00	-3.647948821372903e+01
1	 3.799325931770458e-01	 1.431695773237376e+00	-3.634483954886954e+01
1	 3.522891159623776e-01	 1.438747351426976e+00	-3.624063050134965e+01
1	 3.246640485384406e-01	 1.445231752367678e+00	-3.616678981076699e+01
1	 2.970733957303947e-01	 1.451154354304659e+00	-3.612313443627914e+01
1	 2.695327713739390e-01	 1.456521076959809e+00	-3.610937447389986e+01
1	 5.475408804799798e-01	 1.383060097831411e+00	-3.710688496619177e+01
1	 5.200264162739394e-01	 1.393638682146782e+00	-3.684183849252529e+01
1	 4.924270872003310e-01	 1.403628089552328e+00	-3.660423960734443e+01
1	 4.647608083070983e-01	 1.413029950511678e+00	-3.639453015245918e+01
1	 4.370452573392981e-01	 1.421846578577599e+00	-3.621303095216276e+01
1	 4.092978445735550e-01	 1.430080950295877e+00	-3.605994454252693e+01
1	 3.815356842872488e-01	 1.437736683675080e+00	-3.593535839645916e+01
1	 3.537755679281229e-01	 1.444818015359082e+00	-3.583924860424501e+01
1	 3.260339390380856e-01	 1.451329776641170e+00	-3.577148396759738e+01
1	 2.983268699732062e-01	 1.457277368459541e+00	-3.573183046397446e+01
1	 2.706700404503491e-01	 1.462666735513815e+00	-3.571995603718062e+01
1	 5.498414724127477e-01	 1.388871274713649e+00	-3.661326894023633e+01
1	 5.222114012147727e-01	 1.399494306862716e+00	-3.636644318758896e+01
1	 4.944961085740436e-01	 1.409525686568642e+00	-3.614555469107354e+01
1	 4.667135848118161e-01	 1.418967051145745e+00	-3.595094067323245e+01
1	 4.388815819493879e-01	 1.427820723867601e+00	-3.578282623166716e+01
1	 4.110175834158080e-01	 1.436089693786493e+00	-3.564132716265681e+01
1	 3.831387753971863e-01	 1.443777594112708e+00	-3.552645323276820e+01
1	 3.552620198935689e-01	 1.450888679291144e+00	-3.543811185979911e+01
1	 3.274038295373786e-01	 1.457427800914642e+00	-3.537611216296352e+01
1	 2.995803442155939e-01	 1.463400382614418e+00	-3.534016934123251e+01
1	 2.718073095262445e-01	 1.468812394067822e+00	-3.532990933820759e+01
1	 5.521420643450261e-01	 1.394682451595398e+00	-3.612257308297161e+01
1	 5.243963861552059e-01	 1.405349931578256e+00	-3.589353163892113e+01
1	 4.965651299474242e-01	 1.415423283584646e+00	-3.568893428896796e+01
1	 4.686663613162491e-01	 1.424904151779574e+00	-3.550901415325132e+01
1	 4.407179065592197e-01	 1.433794869157430e+00	-3.535390106643028e+01
1	 4.127373222578093e-01	 1.442098437276990e+00	-3.522362449547682e+01
1	 3.847418665068583e-01	 1.449818504550261e+00	-3.511811685793715e+01
1	 3.567484718587159e-01	 1.456959343223164e+00	-3.503721720360297e+01
1	 3.287737200363195e-01	 1.463525825188096e+00	-3.498067522138330e+01
1	 3.008338184575576e-01	 1.469523396769290e+00	-3.494815553243303e+01
1	 2.729445786016254e-01	 1.474958052621829e+00	-3.493924223025845e+01
1	 2.615718878246577e-01	 1.413501467081764e+00	-3.881702383095727e+01
1	 2.349080047260342e-01	 1.418176462669061e+00	-3.881565268439181e+01
1	 2.083217654544127e-01	 1.422324960056710e+00	-3.874407358182035e+01
1	 1.818270778291117e-01	 1.425954123995218e+00	-3.860295900671587e+01
1	 1.554374051692456e-01	 1.429071538815522e+00	-3.839318837041682e+01
1	 1.291657544645211e-01	 1.431685181126896e+00	-3.811583650411784e+01
1	 1.030246662759470e-01	 1.433803392424789e+00	-3.777216176542085e+01
1	 7.702620633025550e-02	 1.435434851720107e+00	-3.736359384894852e+01
1	 5.118195876485489e-02	 1.436588548295735e+00	-3.689172138745393e+01
1	 2.550302097384172e-02	 1.437273754689955e+00	-3.635827942622944e+01
1	 0.000000000000000e+00	 1.437500000000000e+00	-3.576513684950645e+01
1	 2.627091569046704e-01	 1.419647125635770e+00	-3.843223466890442e+01
1	 2.359293438797902e-01	 1.424342447290550e+00	-3.842978149545637e+01
1	 2.092275122636491e-01	 1.428508981623108e+00	-3.836051743077737e+01
1	 1.826176303443475e-01	 1.432153924535038e+00	-3.822511962091641e+01
1	 1.561132199771718e-01	 1.435284893332629e+00	-3.802446111127409e+01
1	 1.297273447039604e-01	 1.437909899306067e+00	-3.775959979185968e+01
1	 1.034725996099025e-01	 1.440037320218168e+00	-3.743176698560493e+01
1	 7.736110288141423e-02	 1.441675872814669e+00	-3.704235576496402e+01
1	 5.140448902172114e-02	 1.442834585462295e+00	-3.659290907903114e+01
1	 2.561390367446178e-02	 1.443522771014708e+00	-3.608510776988958e+01
1	 0.000000000000000e+00	 1.443750000000000e+00	-3.552075855291942e+01
1	 2.638464259841685e-01	 1.425792784189777e+00	-3.804675838087189e+01
1	 2.369506830329476e-01	 1.430508431912040e+00	-3.804354429891221e+01
1	 2.101332590722346e-01	 1.434693003189506e+00	-3.797688613598171e+01
1	 1.834081828589110e-01	 1.438353725074858e+00	-3.784746577922179e+01
1	 1.567890347844352e-01	 1.441498247849737e+00	-3.765615005211939e+01
1	 1.302889349427761e-01	 1.444134617485237e+00	-3.740398011024363e+01
1	 1.039205329433031e-01	 1.446271248011546e+00	-3.709216050838432e+01
1	 7.769599943211536e-02	 1.447916893909232e+00	-3.672204802007738e+01
1	 5.162701927825510e-02	 1.449080622628854e+00	-3.629514028757508e+01
1	 2.572478637490230e-02	 1.449771787339461e+00	-3.581306437690129e+01
1	 0.000000000000000e+00	 1.450000000000000e+00	-3.527756530877704e+01
1	 2.649836950631520e-01	 1.431938442743783e+00	-3.766060381397498e+01
1	 2.379720221855063e-01	 1.436674416533530e+00	-3.765694580730216e+01
1	 2.110390058801692e-01	 1.440877024755904e+00	-3.759318066494903e+01
1	 1.841987353728026e-01	 1.444553525614678e+00	-3.746999509265054e+01
1	 1.574648495910358e-01	 1.447711602366845e+00	-3.728824983415283e+01
1	 1.308505251809683e-01	 1.450359335664407e+00	-3.704896951466809e+01
1	 1.043684662761487e-01	 1.452505175804925e+00	-3.675333218393910e+01
1	 7.803089598235878e-02	 1.454157915003794e+00	-3.640265863567210e+01
1	 5.184954953445677e-02	 1.455326659795414e+00	-3.599840157724389e+01
1	 2.583566907516331e-02	 1.456020803664214e+00	-3.554213472026723e+01
1	 0.000000000000000e+00	 1.456250000000000e+00	-3.503554185889303e+01
1	 2.661209641416207e-01	 1.438084101297789e+00	-3.727377966409554e+01
1	 2.389933613374665e-01	 1.442840401155020e+00	-3.726999065261452e+01
1	 2.119447526874530e-01	 1.447061046322302e+00	-3.720940196865582e+01
1	 1.849892878860220e-01	 1.450753326154498e+00	-3.709270521305946e+01
1	 1.581406643969737e-01	 1.453924956883953e+00	-3.692075519017909e+01
1	 1.314121154185371e-01	 1.456584053843578e+00	-3.669456019633665e+01
1	 1.048163996084394e-01	 1.458739103598304e+00	-3.641527203595014e+01
1	 7.836579253214460e-02	 1.460398936098356e+00	-3.608417583789517e+01
1	 5.207207979032613e-02	 1.461572696961973e+00	-3.570267974186822e+01
1	 2.594655177524479e-02	 1.462269819988967e+00	-3.527230452131617e+01
1	 0.000000000000000e+00	 1.462500000000000e+00	-3.479467320590491e+01
1	 2.672582332195749e-01	 1.444229759851796e+00	-3.688629447910148e+01
1	 2.400147004888282e-01	 1.449006385776509e+00	-3.688268338799418e+01
1	 2.128504994940858e-01	 1.453245067888700e+00	-3.682555098189206e+01
1	 1.857798403985694e-01	 1.456953126694319e+00	-3.671559383227323e+01
1	 1.588164792022489e-01	 1.460138311401061e+00	-3.655366094265649e+01
1	 1.319737056554822e-01	 1.462808772022748e+00	-3.634074447936803e+01
1	 1.052643329401752e-01	 1.464973031391683e+00	-3.607797025790870e+01
1	 7.870068908147274e-02	 1.466639957192919e+00	-3.576658805329887e+01
1	 5.229461004586320e-02	 1.467818734128532e+00	-3.540796180006489e+01
1	 2.605743447514675e-02	 1.468518836313720e+00	-3.500355974441739e+01
1	 0.000000000000000e+00	 1.468750000000000e+00	-3.455494460772470e+01
1	 2.683955022970143e-01	 1.450375418405802e+00	-3.649815666198101e+01
1	 2.410360396395911e-01	 1.455172370397999e+00	-3.649502848941418e+01
1	 2.137562463000678e-01	 1.459429089455098e+00	-3.644162862360345e+01
1	 1.865703929104446e-01	 1.463152927234139e+00	-3.633865868123846e+01
1	 1.594922940068612e-01	 1.466351665918169e+00	-3.618696200179876e+01
1	 1.325352958918039e-01	 1.469033490201919e+00	-3.598751481798138e+01
1	 1.057122662713560e-01	 1.471206959185061e+00	-3.574141720951719e+01
1	 7.903558563034321e-02	 1.472880978287481e+00	-3.544988390459580e+01
1	 5.251714030106797e-02	 1.474064771295091e+00	-3.511423499047351e+01
1	 2.616831717486917e-02	 1.474767852638473e+00	-3.473588659183193e+01
1	 0.000000000000000e+00	 1.475000000000000e+00	-3.431634157213043e+01
1	 2.695327713739390e-01	 1.456521076959809e+00	-3.610937447389986e+01
1	 2.420573787897556e-01	 1.461338355019488e+00	-3.610703035730383e+01
1	 2.146619931053989e-01	 1.465613111021496e+00	-3.605763579722684e+01
1	 1.873609454216478e-01	 1.469352727773960e+00	-3.596189752919826e+01
1	 1.601681088108108e-01	 1.472565020435277e+00	-3.582065336372311e+01
1	 1.330968861275020e-01	 1.475258208381089e+00	-3.563486379375035e+01
1	 1.061601996019819e-01	 1.477440886978441e+00	-3.540560341318428e+01
1	 7.937048217875606e-02	 1.479121999382043e+00	-3.513405220652062e+01
1	 5.273967055594043e-02	 1.480310808461651e+00	-3.482148676711649e+01
1	 2.627919987441209e-02	 1.481016868963226e+00	-3.446927149869542e+01
1	 0.000000000000000e+00	 1.481250000000000e+00	-3.407884985149437e+01
1	 2.706700404503491e-01	 1.462666735513815e+00	-3.571995603718062e+01
1	 2.430787179393214e-01	 1.467504339640978e+00	-3.571869331813593e+01
1	 2.155677399100790e-01	 1.471797132587893e+00	-3.567357339101422e+01
1	 1.881514979321789e-01	 1.475552528313780e+00	-3.558530818288678e+01
1	 1.608439236140976e-01	 1.478778374952385e+00	-3.545473010864520e+01
1	 1.336584763625767e-01	 1.481482926560260e+00	-3.528278411292814e+01
1	 1.066081329320528e-01	 1.483674814771819e+00	-3.507051955060536e+01
1	 7.970537872671124e-02	 1.485363020476606e+00	-3.481908196179523e+01
1	 5.296220081048062e-02	 1.486556845628210e+00	-3.452970479487206e+01
1	 2.639008257377546e-02	 1.487265885287978e+00	-3.420370112812280e+01
1	 0.000000000000000e+00	 1.487500000000000e+00	-3.384245543764492e+01
1	 2.718073095262445e-01	 1.468812394067822e+00	-3.532990933820759e+01
1	 2.441000570882887e-01	 1.473670324262468e+00	-3.533002162597317e+01
1	 2.164734867141083e-01	 1.477981154154292e+00	-3.528944227835245e+01
1	 1.889420504420379e-01	 1.481752328853600e+00	-3.520888848574560e+01
1	 1.615197384167217e-01	 1.484991729469493e+00	-3.508918739912078e+01
1	 1.342200665970278e-01	 1.487707644739430e+00	-3.493126860383889e+01
1	 1.070560662615688e-01	 1.489908742565198e+00	-3.473615645943076e+01
1	 8.004027527420879e-02	 1.491604041571168e+00	-3.450496235719697e+01
1	 5.318473106468850e-02	 1.492802882794769e+00	-3.423887694506422e+01
1	 2.650096527295932e-02	 1.493514901612731e+00	-3.393916236644178e+01
1	 0.000000000000000e+00	 1.493750000000000e+00	-3.360714455685678e+01
1	 2.729445786016254e-01	 1.474958052621829e+00	-3.493924223025845e+01
1	 2.451213962366573e-01	 1.479836308883957e+00	-3.494101946397780e+01
1	 2.173792335174868e-01	 1.484165175720689e+00	-3.490524331807067e+01
1	 1.897326029512248e-01	 1.487952129393421e+00	-3.483263631715982e+01
1	 1.621955532186829e-01	 1.491205083986602e+00	-3.472402047832956e+01
1	 1.347816568308554e-01	 1.493932362918601e+00	-3.458031021433488e+01
1	 1.075039995905299e-01	 1.496142670358577e+00	-3.440250513001725e+01
1	 8.037517182124869e-02	 1.497845062665730e+00	-3.419168275972233e+01
1	 5.340726131856410e-02	 1.499048919961328e+00	-3.394899129116198e+01
1	 2.661184797196365e-02	 1.499763917937484e+00	-3.367564231854054e+01
1	 0.000000000000000e+00	 1.500000000000000e+00	-3.337290366496725e+01
1	 1.500000000000000e+00	 0.000000000000000e+00	 1.151248131777484e+01
1	 1.499763917937484e+00	 2.661184797196279e-02	 1.140477053897438e+01
1	 1.499048919961329e+00	 5.340726131856333e-02	 1.126359939362591e+01
1	 1.497845062665731e+00	 8.037517182124802e-02	 1.108844554834907e+01
1	 1.496142670358577e+00	 1.075039995905293e-01	 1.087885382155513e+01
1	 1.493932362918601e+00	 1.347816568308549e-01	 1.063444068080270e+01
1	 1.491205083986602e+00	 1.621955532186825e-01	 1.035489864842301e+01
1	 1.487952129393421e+00	 1.897326029512245e-01	 1.004000058455164e+01
1	 1.484165175720690e+00	 2.173792335174866e-01	 9.689603815637547e+00
1	 1.479836308883957e+00	 2.451213962366572e-01	 9.303654075652327e+00
1	 1.474958052621829e+00	 2.729445786016254e-01	 8.882189226616740e+00
1	 1.506250000000000e+00	 0.000000000000000e+00	 1.133608879734530e+01
1	 1.506012934262237e+00	 2.672273067096712e-02	 1.122290992164678e+01
1	 1.505294957127888e+00	 5.362979157243891e-02	 1.107711209177476e+01
1	 1.504086083760293e+00	 8.071006836828791e-02	 1.089821333763737e+01
1	 1.502376598151955e+00	 1.079519329194903e-01	 1.068579786789537e+01
1	 1.500157081097772e+00	 1.353432470646825e-01	 1.043952038206636e+01
1	 1.497418438503709e+00	 1.628713680206438e-01	 1.015911028662821e+01
1	 1.494151929933242e+00	 1.905231554604115e-01	 9.844375785136192e+00
1	 1.490349197287088e+00	 2.182849803208650e-01	 9.495207811383327e+00
1	 1.486002293505447e+00	 2.461427353850259e-01	 9.111583773865538e+00
1	 1.481103711175835e+00	 2.740818476770061e-01	 8.693571079281247e+00
1	 1.512500000000000e+00	 0.000000000000000e+00	 1.116205435910613e+01
1	 1.512261950586990e+00	 2.683361337015097e-02	 1.104349455922168e+01
1	 1.511540994294447e+00	 5.385232182664679e-02	 1.089315137613130e+01
1	 1.510327104854855e+00	 8.104496491578544e-02	 1.071058295251493e+01
1	 1.508610525945334e+00	 1.083998662490063e-01	 1.049541264189820e+01
1	 1.506381799276942e+00	 1.359048372991336e-01	 1.024733313648704e+01
1	 1.503631793020817e+00	 1.635471828232679e-01	 9.966110494753636e+00
1	 1.500351730473061e+00	 1.913137079702705e-01	 9.651588039659826e+00
1	 1.496533218853485e+00	 2.191907271248942e-01	 9.303690097503043e+00
1	 1.492168278126936e+00	 2.471640745339931e-01	 8.922425546677868e+00
1	 1.487249369729841e+00	 2.752191167529016e-01	 8.507891145191387e+00
1	 1.518750000000000e+00	 0.000000000000000e+00	 1.099034889093503e+01
1	 1.518510966911743e+00	 2.694449606951435e-02	 1.086649426337013e+01
1	 1.517787031461007e+00	 5.407485208118697e-02	 1.071168605427581e+01
1	 1.516568125949417e+00	 8.137986146374061e-02	 1.052552227168036e+01
1	 1.514844453738713e+00	 1.088477995790772e-01	 1.030766517161886e+01
1	 1.512606517456113e+00	 1.364664275342083e-01	 1.005784520266893e+01
1	 1.509845147537925e+00	 1.642229976265546e-01	 9.775864846010698e+00
1	 1.506551531012881e+00	 1.921042604808016e-01	 9.461602322765300e+00
1	 1.502717240419883e+00	 2.200964739295745e-01	 9.115015139547118e+00
1	 1.498334262748426e+00	 2.481854136835590e-01	 8.736143442550098e+00
1	 1.493395028283848e+00	 2.763563858293117e-01	 8.325113150108145e+00
1	 1.525000000000000e+00	 0.000000000000000e+00	 1.082094375795752e+01
1	 1.524759983236496e+00	 2.705537876905726e-02	 1.069187934065367e+01
1	 1.524033068627566e+00	 5.429738233605944e-02	 1.053268544513972e+01
1	 1.522809147043980e+00	 8.171475801215346e-02	 1.034299970041084e+01
1	 1.521078381532092e+00	 1.092957329097031e-01	 1.012252302563611e+01
1	 1.518831235635283e+00	 1.370280177699064e-01	 9.871023392353781e+00
1	 1.516058502055033e+00	 1.648988124305042e-01	 9.588339477984448e+00
1	 1.512751331552701e+00	 1.928948129920047e-01	 9.274384183281565e+00
1	 1.508901261986281e+00	 2.210022207349055e-01	 8.929147985598007e+00
1	 1.504500247369916e+00	 2.492067528337234e-01	 8.552702099312521e+00
1	 1.499540686837854e+00	 2.774936549062363e-01	 8.145201414452131e+00
1	 1.531250000000000e+00	 0.000000000000000e+00	 1.065381079280712e+01
1	 1.531008999561248e+00	 2.716626146877968e-02	 1.051962058242448e+01
1	 1.530279105794125e+00	 5.451991259126421e-02	 1.035611936856979e+01
1	 1.529050168138543e+00	 8.204965456102394e-02	 1.016298415981583e+01
1	 1.527312309325470e+00	 1.097436662408839e-01	 9.939954302021413e+00
1	 1.525055953814453e+00	 1.375896080062280e-01	 9.686835059132333e+00
1	 1.522271856572141e+00	 1.655746272351165e-01	 9.403501081115600e+00
1	 1.518951132092522e+00	 1.936853655038800e-01	 9.089899732505689e+00
1	 1.515085283552679e+00	 2.219079675408875e-01	 8.746054254381683e+00
1	 1.510666231991405e+00	 2.502280919844864e-01	 8.372066732137014e+00
1	 1.505686345391861e+00	 2.786309239836758e-01	 7.968120841167861e+00
1	 1.537500000000000e+00	 0.000000000000000e+00	 1.048892228612324e+01
1	 1.537258015886002e+00	 2.727714416868163e-02	 1.034968925497216e+01
1	 1.536525142960684e+00	 5.474244284680128e-02	 1.018195813514684e+01
1	 1.535291189233104e+00	 8.238455111035210e-02	 9.985445076352436e+00
1	 1.533546237118850e+00	 1.101915995726197e-01	 9.759927617576622e+00
1	 1.531280671993623e+00	 1.381511982431732e-01	 9.505248087431362e+00
1	 1.528485211089249e+00	 1.662504420403917e-01	 9.221316887463788e+00
1	 1.525150932632342e+00	 1.944759180164274e-01	 8.908115632770507e+00
1	 1.521269305119077e+00	 2.228137143475203e-01	 8.565700123669284e+00
1	 1.516832216612895e+00	 2.512494311358480e-01	 8.194203121802429e+00
1	 1.511832003945867e+00	 2.797681930616300e-01	 7.793836903883708e+00
1	 1.543750000000000e+00	 0.000000000000000e+00	 1.032625097727979e+01
1	 1.543507032210754e+00	 2.738802686876311e-02	 1.018205708990941e+01
1	 1.542771180127244e+00	 5.496497310267064e-02	 1.001017253625195e+01
1	 1.541532210327667e+00	 8.271944766013789e-02	 9.810352371595897e+00
1	 1.539780164912228e+00	 1.106395329049104e-01	 9.582412097333556e+00
1	 1.537505390172794e+00	 1.387127884807419e-01	 9.326230881767714e+00
1	 1.534698565606357e+00	 1.669262568463296e-01	 9.041754659743440e+00
1	 1.531350733172162e+00	 1.952664705296468e-01	 8.728999086290194e+00
1	 1.527453326685475e+00	 2.237194611548041e-01	 8.388052318960396e+00
1	 1.522998201234384e+00	 2.522707702878081e-01	 8.019077603245126e+00
1	 1.517977662499874e+00	 2.809054621400987e-01	 7.622315635359592e+00
1	 1.550000000000000e+00	 0.000000000000000e+00	 1.016577004533808e+01
1	 1.549756048535507e+00	 2.749890956902411e-02	 1.001669627479053e+01
1	 1.549017217293803e+00	 5.518750335887230e-02	 9.840733834372942e+00
1	 1.547773231422229e+00	 8.305434421038133e-02	 9.637676452257173e+00
1	 1.546014092705607e+00	 1.110874662377560e-01	 9.407377364307223e+00
1	 1.543730108351965e+00	 1.392743787189341e-01	 9.149752356262979e+00
1	 1.540911920123465e+00	 1.676020716529302e-01	 8.864782680625265e+00
1	 1.537550533711983e+00	 1.960570230435383e-01	 8.552517824275393e+00
1	 1.533637348251873e+00	 2.246252079627387e-01	 8.213078102440058e+00
1	 1.529164185855874e+00	 2.532921094403670e-01	 7.846657054386388e+00
1	 1.524123321053880e+00	 2.820427312190821e-01	 7.453523616214246e+00
1	 1.556250000000000e+00	 0.000000000000000e+00	 1.000745310021783e+01
1	 1.556005064860260e+00	 2.760979226946463e-02	 9.853579443956104e+00
1	 1.555263254460362e+00	 5.541003361540625e-02	 9.673613753644295e+00
1	 1.554014252516792e+00	 8.338924076108242e-02	 9.467388200441459e+00
1	 1.552248020498986e+00	 1.115353995711566e-01	 9.234793529496457e+00
1	 1.549954826531135e+00	 1.398359689577499e-01	 8.975781924410001e+00
1	 1.547125274640573e+00	 1.682778864601936e-01	 8.690369742295264e+00
1	 1.543750334251803e+00	 1.968475755581020e-01	 8.378640096310953e+00
1	 1.539821369818271e+00	 2.255309547713241e-01	 8.040745262202053e+00
1	 1.535330170477364e+00	 2.543134485935243e-01	 7.676908885229119e+00
1	 1.530268979607887e+00	 2.831800002985802e-01	 7.287427963923943e+00
1	 1.562500000000000e+00	 0.000000000000000e+00	 9.851274174079840e+00
1	 1.562254081185013e+00	 2.772067497008468e-02	 9.692679669597162e+00
1	 1.561509291626922e+00	 5.563256387227252e-02	 9.508784470614309e+00
1	 1.560255273611354e+00	 8.372413731224117e-02	 9.299458964140200e+00
1	 1.558481948292364e+00	 1.119833329051120e-01	 9.064631182123822e+00
1	 1.556179544710306e+00	 1.403975591971891e-01	 8.804289489085924e+00
1	 1.553338629157681e+00	 1.689537012681199e-01	 8.518485136264403e+00
1	 1.549950134791623e+00	 1.976381280733377e-01	 8.207334659988291e+00
1	 1.546005391384669e+00	 2.264367015805606e-01	 7.871022101730649e+00
1	 1.541496155098854e+00	 2.553347877472804e-01	 7.509801027216163e+00
1	 1.536414638161893e+00	 2.843172693785931e-01	 7.123996322085424e+00
1	 1.474958052621829e+00	 2.729445786016254e-01	 8.882189226616740e+00
1	 1.469523396769290e+00	 3.008338184575568e-01	 8.813238744346704e+00
1	 1.463525825188096e+00	 3.287737200363188e-01	 8.705282893842647e+00
1	 1.456959343223164e+00	 3.567484718587153e-01	 8.556181631787679e+00
1	 1.449818504550261e+00	 3.847418665068577e-01	 8.363836168573174e+00
1	 1.442098437276991e+00	 4.127373222578090e-01	 8.126198482377660e+00
1	 1.433794869157430e+00	 4.407179065592195e-01	 7.841280992891591e+00
1	 1.424904151779574e+00	 4.686663613162489e-01	 7.507166341657533e+00
1	 1.415423283584646e+00	 4.965651299474242e-01	 7.122017222468057e+00
1	 1.405349931578255e+00	 5.243963861552059e-01	 6.684086202094871e+00
1	 1.394682451595397e+00	 5.521420643450262e-01	 6.191725468868218e+00
1	 1.481103711175835e+00	 2.740818476770061e-01	 8.693571079281247e+00
1	 1.475646410924160e+00	 3.020872926995206e-01	 8.620503153543499e+00
1	 1.469623849461540e+00	 3.301436105352598e-01	 8.508611058360446e+00
1	 1.463030007155163e+00	 3.582349238238624e-01	 8.355759143236329e+00
1	 1.455859414987775e+00	 3.863449576165295e-01	 8.159853019224506e+00
1	 1.448107180767428e+00	 4.144570610998101e-01	 7.918849069889351e+00
1	 1.439769014447172e+00	 4.425542311690510e-01	 7.630764121557817e+00
1	 1.430841252413286e+00	 4.706191378206820e-01	 7.293685219799793e+00
1	 1.421320880600494e+00	 4.986341513208047e-01	 6.905779455550176e+00
1	 1.411205556293597e+00	 5.265813710956390e-01	 6.465303781118965e+00
1	 1.400493628476901e+00	 5.544426562773045e-01	 5.970614753582542e+00
1	 1.487249369729841e+00	 2.752191167529016e-01	 8.507891145191387e+00
1	 1.481769425079030e+00	 3.033407669419081e-01	 8.430726199260821e+00
1	 1.475721873734985e+00	 3.315135010345528e-01	 8.314918083254069e+00
1	 1.469100671087162e+00	 3.597213757893086e-01	 8.158335501837442e+00
1	 1.461900325425290e+00	 3.879480487264671e-01	 7.958888428647526e+00
1	 1.454115924257865e+00	 4.161767999420633e-01	 7.714537614249618e+00
1	 1.445743159736915e+00	 4.443905557791411e-01	 7.423304253035541e+00
1	 1.436778353046997e+00	 4.725719143253997e-01	 7.083279755968281e+00
1	 1.427218477616342e+00	 5.007031726945174e-01	 6.692635572557879e+00
1	 1.417061181008938e+00	 5.287663560364723e-01	 6.249633002285253e+00
1	 1.406304805358404e+00	 5.567432482100724e-01	 5.752632932942287e+00
1	 1.493395028283848e+00	 2.763563858293117e-01	 8.325113150108145e+00
1	 1.487892439233899e+00	 3.045942411847198e-01	 8.243871355120643e+00
1	 1.481819898008429e+00	 3.328833915341977e-01	 8.124167192468569e+00
1	 1.475171335019160e+00	 3.612078277550537e-01	 7.963873684786021e+00
1	 1.467941235862803e+00	 3.895511398366703e-01	 7.760905130684195e+00
1	 1.460124667748303e+00	 4.178965387845683e-01	 7.513226609818353e+00
1	 1.451717305026657e+00	 4.462268803894891e-01	 7.218863646549567e+00
1	 1.442715453680708e+00	 4.745246908304025e-01	 6.875911979076863e+00
1	 1.433116074632190e+00	 5.027721940685621e-01	 6.482547377394156e+00
1	 1.422916805724280e+00	 5.309513409777060e-01	 6.037035450259742e+00
1	 1.412115982239908e+00	 5.590438401433302e-01	 5.537741378619895e+00
1	 1.499540686837854e+00	 2.774936549062363e-01	 8.145201414452131e+00
1	 1.494015453388770e+00	 3.058477154279554e-01	 8.059902693538184e+00
1	 1.487917922281873e+00	 3.342532820341947e-01	 7.936322212835167e+00
1	 1.481241998951159e+00	 3.626942797210982e-01	 7.772337276208360e+00
1	 1.473982146300317e+00	 3.911542309471390e-01	 7.565866470097166e+00
1	 1.466133411238740e+00	 4.196162776273251e-01	 7.314879165801990e+00
1	 1.457691450316400e+00	 4.480632050000954e-01	 7.017405180025911e+00
1	 1.448652554314419e+00	 4.764774673356900e-01	 6.671544540516098e+00
1	 1.439013671648038e+00	 5.048412154429391e-01	 6.275477300127477e+00
1	 1.428772430439622e+00	 5.331363259193402e-01	 5.827473339468003e+00
1	 1.417927159121411e+00	 5.613444320770776e-01	 5.325902095539000e+00
1	 1.505686345391861e+00	 2.786309239836758e-01	 7.968120841167861e+00
1	 1.500138467543639e+00	 3.071011896716151e-01	 7.878784873501472e+00
1	 1.494015946555317e+00	 3.356231725345437e-01	 7.751347561767587e+00
1	 1.487312662883158e+00	 3.641807316874416e-01	 7.583690454775651e+00
1	 1.480023056737831e+00	 3.927573220578734e-01	 7.373736390101941e+00
1	 1.472142154729177e+00	 4.213360164703340e-01	 7.119458993705580e+00
1	 1.463665595606142e+00	 4.498995296109599e-01	 6.818892337465279e+00
1	 1.454589654948131e+00	 4.784302438412626e-01	 6.470140701449800e+00
1	 1.444911268663885e+00	 5.069102368176484e-01	 6.071388384212941e+00
1	 1.434628055154963e+00	 5.353213108613747e-01	 5.620909501242856e+00
1	 1.423738336002914e+00	 5.636450240113147e-01	 5.117077708950952e+00
1	 1.511832003945867e+00	 2.797681930616300e-01	 7.793836903883708e+00
1	 1.506261481698509e+00	 3.083546639156987e-01	 7.700483128649113e+00
1	 1.500113970828761e+00	 3.369930630352448e-01	 7.569208235258083e+00
1	 1.493383326815156e+00	 3.656671836540841e-01	 7.397897981619716e+00
1	 1.486063967175345e+00	 3.943604131688734e-01	 7.184479420203226e+00
1	 1.478150898219614e+00	 4.230557553135945e-01	 6.926930395091050e+00
1	 1.469639740895884e+00	 4.517358542220827e-01	 6.623289196624465e+00
1	 1.460526755581842e+00	 4.803830203471198e-01	 6.271664320421201e+00
1	 1.450808865679734e+00	 5.089792581926899e-01	 5.870244274025032e+00
1	 1.440483679870304e+00	 5.375062958038094e-01	 5.417307371285693e+00
1	 1.429549512884418e+00	 5.659456159460415e-01	 4.911231451826522e+00
1	 1.517977662499874e+00	 2.809054621400987e-01	 7.622315635359592e+00
1	 1.512384495853379e+00	 3.096081381602064e-01	 7.524963255637847e+00
1	 1.506211995102205e+00	 3.383629535362978e-01	 7.389869796165538e+00
1	 1.499453990747155e+00	 3.671536356210258e-01	 7.214925188542384e+00
1	 1.492104877612859e+00	 3.959635042801389e-01	 6.998060664326674e+00
1	 1.484159641710052e+00	 4.247754941571071e-01	 6.737258249632715e+00
1	 1.475613886185627e+00	 4.535721788334636e-01	 6.430560416996948e+00
1	 1.466463856215553e+00	 4.823357968532621e-01	 6.076079841260259e+00
1	 1.456706462695581e+00	 5.110482795680634e-01	 5.672009202693256e+00
1	 1.446339304585646e+00	 5.396912807466449e-01	 5.216630977432242e+00
1	 1.435360689765921e+00	 5.682462078812581e-01	 4.708327152553959e+00
1	 1.524123321053880e+00	 2.820427312190821e-01	 7.453523616214246e+00
1	 1.518507510008248e+00	 3.108616124051379e-01	 7.352191602791232e+00
1	 1.512310019375649e+00	 3.397328440377028e-01	 7.213298362786652e+00
1	 1.505524654679154e+00	 3.686400875882667e-01	 7.034737966509940e+00
1	 1.498145788050373e+00	 3.975665953916701e-01	 6.814445789237936e+00
1	 1.490168385200489e+00	 4.264952330008714e-01	 6.550408003461717e+00
1	 1.481588031475369e+00	 4.554085034451027e-01	 6.240671228084389e+00
1	 1.472400956849264e+00	 4.842885733596892e-01	 5.883352281283527e+00
1	 1.462604059711430e+00	 5.131173009437693e-01	 5.476647980232110e+00
1	 1.452194929300987e+00	 5.418762656898806e-01	 5.018844927714363e+00
1	 1.441171866647424e+00	 5.705467998169644e-01	 4.508329222934503e+00
1	 1.530268979607887e+00	 2.831800002985802e-01	 7.287427963923943e+00
1	 1.524630524163118e+00	 3.121150866504935e-01	 7.182135059022111e+00
1	 1.518408043649094e+00	 3.411027345394598e-01	 7.039460597702508e+00
1	 1.511595318611152e+00	 3.701265395558064e-01	 6.857302754425020e+00
1	 1.504186698487888e+00	 3.991696865034671e-01	 6.633601013240522e+00
1	 1.496177128690926e+00	 4.282149718448877e-01	 6.366345657791417e+00
1	 1.487562176765111e+00	 4.572448280570000e-01	 6.053587417950660e+00
1	 1.478338057482976e+00	 4.862413498664013e-01	 5.693447219778356e+00
1	 1.468501656727278e+00	 5.151863223198072e-01	 5.284125981957029e+00
1	 1.458050554016329e+00	 5.440612506335166e-01	 4.823914398709544e+00
1	 1.446983043528928e+00	 5.728473917531604e-01	 4.311202646467345e+00
1	 1.536414638161893e+00	 2.843172693785931e-01	 7.123996322085424e+00
1	 1.530753538317988e+00	 3.133685608962730e-01	 7.014761043020741e+00
1	 1.524506067922538e+00	 3.424726250415691e-01	 6.868323696892913e+00
1	 1.517665982543151e+00	 3.716129915236455e-01	 6.682586528167777e+00
1	 1.510227608925401e+00	 4.007727776155295e-01	 6.455493095145064e+00
1	 1.502185872181363e+00	 4.299347106891560e-01	 6.185037757815795e+00
1	 1.493536322054853e+00	 4.590811526691556e-01	 5.869275322050614e+00
1	 1.484275158116687e+00	 4.881941263733981e-01	 5.506330786763478e+00
1	 1.474399253743126e+00	 5.172553436961776e-01	 5.094409137178374e+00
1	 1.463906178731671e+00	 5.462462355775533e-01	 4.631805124170059e+00
1	 1.452794220410432e+00	 5.751479836898463e-01	 4.116912966915590e+00
1	 1.394682451595397e+00	 5.521420643450262e-01	 6.191725468868218e+00
1	 1.383419906984210e+00	 5.797838916141946e-01	 5.872497427036219e+00
1	 1.371562085578352e+00	 6.073034212214110e-01	 5.513777488700590e+00
1	 1.359109514832477e+00	 6.346820674340894e-01	 5.117796825704382e+00
1	 1.346063475001740e+00	 6.619011416394612e-01	 4.686921194912528e+00
1	 1.332426010254849e+00	 6.889418895959066e-01	 4.223644142691509e+00
1	 1.318199937618296e+00	 7.157855296891861e-01	 3.730579409762499e+00
1	 1.303388853659439e+00	 7.424132920487886e-01	 3.210452564719518e+00
1	 1.287997138826982e+00	 7.688064583706170e-01	 2.666091901624373e+00
1	 1.272029959379205e+00	 7.949464022841308e-01	 2.100418644083043e+00
1	 1.255493266842989e+00	 8.208146300949881e-01	 1.516436504981570e+00
1	 1.400493628476901e+00	 5.544426562773045e-01	 5.970614753582542e+00
1	 1.389184156595890e+00	 5.821996578261492e-01	 5.661795879777527e+00
1	 1.377276927600261e+00	 6.098338521395856e-01	 5.314651796430538e+00
1	 1.364772471142394e+00	 6.373265760444775e-01	 4.931336108257610e+00
1	 1.351672072811843e+00	 6.646590630588380e-01	 4.514131715992072e+00
1	 1.337977785294685e+00	 6.918124807983751e-01	 4.065444229226767e+00
1	 1.323692437355024e+00	 7.187679693921251e-01	 3.587794611265933e+00
1	 1.308819640545916e+00	 7.455066807617844e-01	 3.083811083622243e+00
1	 1.293363793567934e+00	 7.720098186103230e-01	 2.556220324640731e+00
1	 1.277330084205435e+00	 7.982586789573238e-01	 2.007838003449121e+00
1	 1.260724488783330e+00	 8.242346910513867e-01	 1.441558696935158e+00
1	 1.406304805358404e+00	 5.567432482100724e-01	 5.752632932942287e+00
1	 1.394948406207575e+00	 5.846154240386793e-01	 5.453910402340381e+00
1	 1.382991769622188e+00	 6.123642830583929e-01	 5.118019911296606e+00
1	 1.370435427452354e+00	 6.399710846555257e-01	 4.747037977485730e+00
1	 1.357280670622023e+00	 6.674169844788725e-01	 4.343165156341887e+00
1	 1.343529560334643e+00	 6.946830720014699e-01	 3.908719661139746e+00
1	 1.329184937091928e+00	 7.217504090956284e-01	 3.446130246553218e+00
1	 1.314250427432633e+00	 7.486000694752518e-01	 2.957928382675850e+00
1	 1.298730448309200e+00	 7.752131788503775e-01	 2.446739753058242e+00
1	 1.282630209032066e+00	 8.015709556307123e-01	 1.915275116763206e+00
1	 1.265955710724165e+00	 8.276547520077956e-01	 1.366320580670125e+00
1	 1.412115982239908e+00	 5.590438401433302e-01	 5.537741378619895e+00
1	 1.400712655819265e+00	 5.870311902517846e-01	 5.248806228431325e+00
1	 1.388706611644135e+00	 6.148947139778319e-01	 4.923851045556308e+00
1	 1.376098383762357e+00	 6.426155932672334e-01	 4.564875734787223e+00
1	 1.362889268432281e+00	 6.701749058995650e-01	 4.173999010784843e+00
1	 1.349081335374723e+00	 6.975536632051906e-01	 3.753452224288542e+00
1	 1.334677436829008e+00	 7.247328487996956e-01	 3.305572483106732e+00
1	 1.319681214319590e+00	 7.516934581891910e-01	 2.832795094222183e+00
1	 1.304097103050783e+00	 7.784165390907811e-01	 2.337645359647766e+00
1	 1.287930333859095e+00	 8.048832323042956e-01	 1.822729764838923e+00
1	 1.271186932665496e+00	 8.310748129642156e-01	 1.290726604434341e+00
1	 1.417927159121411e+00	 5.613444320770776e-01	 5.325902095539000e+00
1	 1.406476905430959e+00	 5.894469564654653e-01	 5.046449161696136e+00
1	 1.394421453666101e+00	 6.174251448979032e-01	 4.732114916184294e+00
1	 1.381761340072405e+00	 6.452601018796008e-01	 4.384823119242561e+00
1	 1.368497866242617e+00	 6.729328273209150e-01	 4.006611143080912e+00
1	 1.354633110414925e+00	 7.004242544095372e-01	 3.599624003123694e+00
1	 1.340169936566265e+00	 7.277152885043265e-01	 3.166107715171453e+00
1	 1.325112001206788e+00	 7.547868469036019e-01	 2.708402004171348e+00
1	 1.309463757792679e+00	 7.816198993315334e-01	 2.228932396315015e+00
1	 1.293230458686525e+00	 8.081955089780742e-01	 1.730201732083080e+00
1	 1.276418154607321e+00	 8.344948739206457e-01	 1.214781143553384e+00
1	 1.423738336002914e+00	 5.636450240113147e-01	 5.117077708950952e+00
1	 1.412241155042658e+00	 5.918627226797215e-01	 4.846805564088340e+00
1	 1.400136295688087e+00	 6.199555758186068e-01	 4.542781734571965e+00
1	 1.387424296382497e+00	 6.479046104926282e-01	 4.206854298681892e+00
1	 1.374106464053031e+00	 6.756907487429232e-01	 3.840979778398250e+00
1	 1.360184885455249e+00	 7.032948456145095e-01	 3.447217374594600e+00
1	 1.345662436303699e+00	 7.306977282095222e-01	 3.027722559127190e+00
1	 1.330542788094227e+00	 7.578802356184845e-01	 2.584740048867583e+00
1	 1.314830412534892e+00	 7.848232595726343e-01	 2.120596192485676e+00
1	 1.298530583514354e+00	 8.115077856520477e-01	 1.637690806422166e+00
1	 1.281649376549641e+00	 8.379149348770869e-01	 1.138488501919178e+00
1	 1.429549512884418e+00	 5.659456159460415e-01	 4.911231451826522e+00
1	 1.418005404654362e+00	 5.942784888945529e-01	 4.649842344521566e+00
1	 1.405851137710092e+00	 6.224860067399426e-01	 4.355822196478265e+00
1	 1.393087252692631e+00	 6.505491191063152e-01	 4.030943860970708e+00
1	 1.379715061863522e+00	 6.784486701655890e-01	 3.677083495967218e+00
1	 1.365736660495695e+00	 7.061654368201082e-01	 3.296215002204257e+00
1	 1.351154936041308e+00	 7.336801679152812e-01	 2.890403848973603e+00
1	 1.335973574981907e+00	 7.609736243338384e-01	 2.461800312031619e+00
1	 1.320197067277419e+00	 7.880266198140840e-01	 2.012632153529807e+00
1	 1.303830708342583e+00	 8.148200623262166e-01	 1.545196779231192e+00
1	 1.286880598492456e+00	 8.413349958335385e-01	 1.061852913441514e+00
1	 1.435360689765921e+00	 5.682462078812581e-01	 4.708327152553959e+00
1	 1.423769654266071e+00	 5.966942551099597e-01	 4.455526947797428e+00
1	 1.411565979732116e+00	 6.250164376619105e-01	 4.171207472224747e+00
1	 1.398750209002810e+00	 6.531936277206623e-01	 3.857066805507021e+00
1	 1.385323659674092e+00	 6.812065915889126e-01	 3.514901221913358e+00
1	 1.371288435536264e+00	 7.090360280263326e-01	 3.146599830208738e+00
1	 1.356647435779093e+00	 7.366626076216045e-01	 2.754138631925028e+00
1	 1.341404361869827e+00	 7.640670130496644e-01	 2.339574021777408e+00
1	 1.325563722020261e+00	 7.912299800558826e-01	 1.905035759224160e+00
1	 1.309130833171212e+00	 8.181323390005806e-01	 1.452719445263742e+00
1	 1.292111820435765e+00	 8.447550567900007e-01	 9.848785434648513e-01
1	 1.441171866647424e+00	 5.705467998169644e-01	 4.508329222934503e+00
1	 1.429533903877785e+00	 5.991100213259422e-01	 4.263827343801379e+00
1	 1.417280821754159e+00	 6.275468685845105e-01	 3.988909197127793e+00
1	 1.404413165313032e+00	 6.558381363356690e-01	 3.685198534924331e+00
1	 1.390932257484740e+00	 6.839645130128943e-01	 3.354412222263315e+00
1	 1.376840210576954e+00	 7.119066192331832e-01	 2.998355077956758e+00
1	 1.362139935517056e+00	 7.396450473284916e-01	 2.618914164111529e+00
1	 1.346835148757988e+00	 7.671604017659619e-01	 2.218052547700927e+00
1	 1.330930376763418e+00	 7.944333402980298e-01	 1.797802562252830e+00
1	 1.314430958000241e+00	 8.214446156751395e-01	 1.360258602583695e+00
1	 1.297343042379568e+00	 8.481751177464735e-01	 9.075694901505951e-01
1	 1.446983043528928e+00	 5.728473917531604e-01	 4.311202646467345e+00
1	 1.435298153489503e+00	 6.015257875424997e-01	 4.074712016958827e+00
1	 1.422995663776222e+00	 6.300772995077428e-01	 3.808899462161329e+00
1	 1.410076121623298e+00	 6.584826449513355e-01	 3.515314846994616e+00
1	 1.396540855295465e+00	 6.867224344375334e-01	 3.195596096119663e+00
1	 1.382391985617766e+00	 7.147772104406597e-01	 2.851464234365754e+00
1	 1.367632435255193e+00	 7.426274870359431e-01	 2.484717906384151e+00
1	 1.352265935646390e+00	 7.702537904827310e-01	 2.097227398039310e+00
1	 1.336297031506891e+00	 7.976367005405259e-01	 1.690928186742201e+00
1	 1.319731082829669e+00	 8.247568923498938e-01	 1.267814052498942e+00
1	 1.302574264323867e+00	 8.515951787029566e-01	 8.299297858264032e-01
1	 1.452794220410432e+00	 5.751479836898463e-01	 4.116912966915590e+00
1	 1.441062403101226e+00	 6.039415537596328e-01	 3.888149955944300e+00
1	 1.428710505798304e+00	 6.326077304316075e-01	 3.631150804843634e+00
1	 1.415739077933607e+00	 6.611271535676618e-01	 3.347391926725397e+00
1	 1.402149453106269e+00	 6.894803558628309e-01	 3.038432768999374e+00
1	 1.387943760658700e+00	 7.176478016487622e-01	 2.705911052530437e+00
1	 1.373124934993508e+00	 7.456099267439584e-01	 2.351537520220291e+00
1	 1.357696722535032e+00	 7.733471791999723e-01	 1.977090216897731e+00
1	 1.341663686250679e+00	 8.008400607833711e-01	 1.584408326833026e+00
1	 1.325031207659498e+00	 8.280691690248432e-01	 1.175385599496554e+00
1	 1.307805486268661e+00	 8.550152396594510e-01	 7.519633983024536e-01
1	 1.255493266842989e+00	 8.208146300949881e-01	 1.516436504981570e+00
1	 1.238393794960300e+00	 8.463928217281081e-01	 2.301910122478747e-01
1	 1.220739054092179e+00	 8.716628716918398e-01	-1.095795006615659e+00
1	 1.202537323065708e+00	 8.966069298798882e-01	-2.461390562788598e+00
1	 1.183797638464679e+00	 9.212074420252394e-01	-3.866331026337666e+00
1	 1.164529781378945e+00	 9.454471896203712e-01	-5.310216062177544e+00
1	 1.144744261643663e+00	 9.693093291181504e-01	-6.792508238085724e+00
1	 1.124452299614854e+00	 9.927774302300170e-01	-8.312532325948050e+00
1	 1.103665805542999e+00	 1.015835513141593e+00	-9.869475311972273e+00
1	 1.082397356621336e+00	 1.038468084470809e+00	-1.146238712592052e+01
1	 1.060660171800000e+00	 1.060660171800000e+00	-1.309018209354198e+01
1	 1.260724488783330e+00	 8.242346910513867e-01	 1.441558696935158e+00
1	 1.243553769100878e+00	 8.499194584836376e-01	 1.612584564002537e-01
1	 1.225825466812330e+00	 8.752948003227293e-01	-1.160164520266575e+00
1	 1.207547895239878e+00	 9.003427920869238e-01	-2.522611933264174e+00
1	 1.188730128619748e+00	 9.250458063664253e-01	-3.925846766411802e+00
1	 1.169381988796335e+00	 9.493865529099308e-01	-5.369491055103158e+00
1	 1.149514029395777e+00	 9.733481179888603e-01	-6.853024352463351e+00
1	 1.129137517525577e+00	 9.969140028551169e-01	-8.375782916143994e+00
1	 1.108264413062261e+00	 1.020068161111763e+00	-9.936959632535652e+00
1	 1.086907345604037e+00	 1.042795034820970e+00	-1.153560468926226e+01
1	 1.065079589180000e+00	 1.065079589180000e+00	-1.317062700071533e+01
1	 1.265955710724165e+00	 8.276547520077956e-01	 1.366320580670125e+00
1	 1.248713743242038e+00	 8.534460952389972e-01	 9.189001853726664e-02
1	 1.230911879533116e+00	 8.789267289533080e-01	-1.225035382024429e+00
1	 1.212558467414709e+00	 9.040786542935462e-01	-2.584389830213326e+00
1	 1.193662618775475e+00	 9.288841707071374e-01	-3.985963768501096e+00
1	 1.174234196214349e+00	 9.533259161989946e-01	-5.429401473365211e+00
1	 1.154283797148450e+00	 9.773869068590926e-01	-6.914199380259822e+00
1	 1.133822735436765e+00	 1.001050575479798e+00	-8.439705156508760e+00
1	 1.112863020581863e+00	 1.024300809081613e+00	-1.000511753994044e+01
1	 1.091417334586924e+00	 1.047121985170951e+00	-1.160948695493850e+01
1	 1.069499006560000e+00	 1.069499006560000e+00	-1.325171691123950e+01
1	 1.271186932665496e+00	 8.310748129642156e-01	 1.290726604434341e+00
1	 1.253873717383776e+00	 8.569727319941872e-01	 2.209107991717385e-02
1	 1.235998292254537e+00	 8.825586575835757e-01	-1.290401402407078e+00
1	 1.217569039590202e+00	 9.078145164997565e-01	-2.646717382939213e+00
1	 1.198595108931859e+00	 9.327225350473748e-01	-4.046674609617355e+00
1	 1.179086403632987e+00	 9.572652794875629e-01	-5.489939472205977e+00
1	 1.159053564901683e+00	 9.814256957288473e-01	-6.976025186740690e+00
1	 1.138507953348418e+00	 1.005187148104060e+00	-8.504290755063597e+00
1	 1.117461628101804e+00	 1.028533457051143e+00	-1.007394071829795e+01
1	 1.095927323569995e+00	 1.051448935520752e+00	-1.168402571674555e+01
1	 1.073918423940000e+00	 1.073918423940000e+00	-1.333344386210702e+01
1	 1.276418154607321e+00	 8.344948739206457e-01	 1.214781143553384e+00
1	 1.259033691526095e+00	 8.604993687492068e-01	-4.813306641903470e-02
1	 1.241084704976595e+00	 8.861905862135325e-01	-1.356256493399239e+00
1	 1.222579611766356e+00	 9.115503787055541e-01	-2.709587833379071e+00
1	 1.203527599088901e+00	 9.365608993871378e-01	-4.107971988461111e+00
1	 1.183938611052248e+00	 9.612046427756348e-01	-5.551097335470031e+00
1	 1.163823332655474e+00	 9.854644845981245e-01	-7.038493770527664e+00
1	 1.143193171260535e+00	 1.009323720727904e+00	-8.569531555763756e+00
1	 1.122060235622086e+00	 1.032766105020355e+00	-1.014342098804531e+01
1	 1.100437312553251e+00	 1.055775885870373e+00	-1.175921290300677e+01
1	 1.078337841320000e+00	 1.078337841320000e+00	-1.341580002085162e+01
1	 1.281649376549641e+00	 8.379149348770869e-01	 1.138488501919178e+00
1	 1.264193665668994e+00	 8.640260055040572e-01	-1.187772138475411e-01
1	 1.246171117699287e+00	 8.898225148431782e-01	-1.422594666381949e+00
1	 1.227590183943172e+00	 9.152862409109391e-01	-2.772994533806201e+00
1	 1.208460089246600e+00	 9.403992637264267e-01	-4.169848722937426e+00
1	 1.188790818472132e+00	 9.651440060632105e-01	-5.612867472980412e+00
1	 1.168593100409825e+00	 9.895032734669248e-01	-7.101597260877111e+00
1	 1.147878389173117e+00	 1.013460293351330e+00	-8.635419535724427e+00
1	 1.126658843142707e+00	 1.036998752989247e+00	-1.021355030316369e+01
1	 1.104947301536692e+00	 1.060102836219815e+00	-1.183504057382893e+01
1	 1.082757258700000e+00	 1.082757258700000e+00	-1.349877768288403e+01
1	 1.286880598492456e+00	 8.413349958335385e-01	 1.061852913441514e+00
1	 1.269353639812472e+00	 8.675526422587369e-01	-1.898362404049867e-01
1	 1.251257530422616e+00	 8.934544434725129e-01	-1.489410030112253e+00
1	 1.232600756120649e+00	 9.190221031159114e-01	-2.836930944586735e+00
1	 1.213392579404956e+00	 9.442376280652408e-01	-4.232297747733631e+00
1	 1.193643025892639e+00	 9.690833693502907e-01	-5.675242417977388e+00
1	 1.173362868164735e+00	 9.935420623352470e-01	-7.165327915025384e+00
1	 1.152563607086163e+00	 1.017596865974336e+00	-8.701946802514174e+00
1	 1.131257450663668e+00	 1.041231400957819e+00	-1.028432074846376e+01
1	 1.109457290520318e+00	 1.064429786569076e+00	-1.191150091842201e+01
1	 1.087176676080000e+00	 1.087176676080000e+00	-1.358236926889286e+01
1	 1.292111820435765e+00	 8.447550567900007e-01	 9.848785434648513e-01
1	 1.274513613956531e+00	 8.710792790132477e-01	-2.613051070748615e-01
1	 1.256343943146581e+00	 8.970863721015367e-01	-1.556696788751608e+00
1	 1.237611328298788e+00	 9.227579653204714e-01	-2.901390631991913e+00
1	 1.218325069563970e+00	 9.480759924035813e-01	-4.295312111954839e+00
1	 1.198495233313770e+00	 9.730227326368746e-01	-5.738214824620313e+00
1	 1.178132635920203e+00	 9.975808512030923e-01	-7.229678115597234e+00
1	 1.157248824999674e+00	 1.021733438596924e+00	-8.769105591514206e+00
1	 1.135856058184969e+00	 1.045464048926072e+00	-1.035572453693727e+01
1	 1.113967279504129e+00	 1.068756736918158e+00	-1.198858625248668e+01
1	 1.091596093460000e+00	 1.091596093460000e+00	-1.366656732230822e+01
1	 1.297343042379568e+00	 8.481751177464735e-01	 9.075694901505951e-01
1	 1.279673588101169e+00	 8.746059157675882e-01	-3.331788561150923e-01
1	 1.261430355871181e+00	 9.007183007302495e-01	-1.624449239943064e+00
1	 1.242621900477588e+00	 9.264938275246187e-01	-2.966367266062943e+00
1	 1.223257559723641e+00	 9.519143567414473e-01	-4.358884976817572e+00
1	 1.203347440735524e+00	 9.769620959229626e-01	-5.801777465550227e+00
1	 1.182902403676230e+00	 1.001619640070460e+00	-7.294640368078475e+00
1	 1.161934042913649e+00	 1.025870011219093e+00	-8.836888263341578e+00
1	 1.140454665706610e+00	 1.049696696894006e+00	-1.042775400717304e+01
1	 1.118477268488125e+00	 1.073083687267059e+00	-1.206628901566399e+01
1	 1.096015510840000e+00	 1.096015510840000e+00	-1.375136450682781e+01
1	 1.302574264323867e+00	 8.515951787029566e-01	 8.299297858264032e-01
1	 1.284833562246388e+00	 8.781325525217590e-01	-4.054526094260869e-01
1	 1.266516768596416e+00	 9.043502293586512e-01	-1.692661772933729e+00
1	 1.247632472657050e+00	 9.302296897283534e-01	-3.031854618526956e+00
1	 1.228190049883970e+00	 9.557527210788390e-01	-4.423009613398289e+00
1	 1.208199648157901e+00	 9.809014592085544e-01	-5.865923229509878e+00
1	 1.187672171432817e+00	 1.005658428937350e+00	-7.360207298348755e+00
1	 1.166619260828089e+00	 1.030006583840844e+00	-8.905287301334187e+00
1	 1.145053273228591e+00	 1.053929344861620e+00	-1.050040162083457e+01
1	 1.122987257472306e+00	 1.077410637615781e+00	-1.214460176904647e+01
1	 1.100434928220000e+00	 1.100434928220000e+00	-1.383675360400151e+01
1	 1.307805486268661e+00	 8.550152396594510e-01	 7.519633983024536e-01
1	 1.289993536392186e+00	 8.816591892757598e-01	-4.781215669578636e-01
1	 1.271603181322287e+00	 9.079821579867418e-01	-1.761328866742766e+00
1	 1.252643044837173e+00	 9.339655519316756e-01	-3.097846560763490e+00
1	 1.233122540044957e+00	 9.595910854157564e-01	-4.487679400436352e+00
1	 1.213051855580902e+00	 9.848408224936506e-01	-5.930645119022468e+00
1	 1.192441939189963e+00	 1.009697217803762e+00	-7.426371650273598e+00
1	 1.171304478742993e+00	 1.034143156462176e+00	-8.974295309096624e+00
1	 1.149651880750912e+00	 1.058161992828915e+00	-1.057365996019877e+01
1	 1.127497246456672e+00	 1.081737587964323e+00	-1.222351719274921e+01
1	 1.104854345600000e+00	 1.104854345600000e+00	-1.392272751087419e+01
1	 1.060660171800000e+00	 1.060660171800000e+00	-1.309018209354198e+01
1	 1.038468084470809e+00	 1.082397356621336e+00	-1.521245702927834e+01
1	 1.015835513141593e+00	 1.103665805542999e+00	-1.729682108450960e+01
1	 9.927774302300173e-01	 1.124452299614854e+00	-1.933984021701265e+01
1	 9.693093291181506e-01	 1.144744261643662e+00	-2.133820084669435e+01
1	 9.454471896203714e-01	 1.164529781378944e+00	-2.328872087533344e+01
1	 9.212074420252399e-01	 1.183797638464678e+00	-2.518836001607476e+01
1	 8.966069298798891e-01	 1.202537323065708e+00	-2.703422937318889e+01
1	 8.716628716918403e-01	 1.220739054092179e+00	-2.882360021904714e+01
1	 8.463928217281088e-01	 1.238393794960299e+00	-3.055391192216039e+01
1	 8.208146300949881e-01	 1.255493266842989e+00	-3.222277898737801e+01
1	 1.065079589180000e+00	 1.065079589180000e+00	-1.317062700071533e+01
1	 1.042795034820970e+00	 1.086907345604037e+00	-1.529105390131787e+01
1	 1.020068161111763e+00	 1.108264413062261e+00	-1.736764677228811e+01
1	 9.969140028551168e-01	 1.129137517525577e+00	-1.939666728435698e+01
1	 9.733481179888606e-01	 1.149514029395777e+00	-2.137452252031421e+01
1	 9.493865529099312e-01	 1.169381988796335e+00	-2.329777711912876e+01
1	 9.250458063664260e-01	 1.188730128619748e+00	-2.516316458522340e+01
1	 9.003427920869244e-01	 1.207547895239878e+00	-2.696759769767733e+01
1	 8.752948003227302e-01	 1.225825466812329e+00	-2.870817796187531e+01
1	 8.499194584836383e-01	 1.243553769100878e+00	-3.038220405434082e+01
1	 8.242346910513866e-01	 1.260724488783330e+00	-3.198717922009992e+01
1	 1.069499006560000e+00	 1.069499006560000e+00	-1.325171691123950e+01
1	 1.047121985170951e+00	 1.091417334586924e+00	-1.536926374850112e+01
1	 1.024300809081613e+00	 1.112863020581863e+00	-1.743710310681289e+01
1	 1.001050575479798e+00	 1.133822735436765e+00	-1.945119421566659e+01
1	 9.773869068590928e-01	 1.154283797148450e+00	-2.140766653047436e+01
1	 9.533259161989951e-01	 1.174234196214349e+00	-2.330283299539946e+01
1	 9.288841707071376e-01	 1.193662618775474e+00	-2.513320232744767e+01
1	 9.040786542935469e-01	 1.212558467414709e+00	-2.689549025088693e+01
1	 8.789267289533088e-01	 1.230911879533116e+00	-2.858662962009177e+01
1	 8.534460952389981e-01	 1.248713743242037e+00	-3.020377937846654e+01
1	 8.276547520077958e-01	 1.265955710724166e+00	-3.174433231104406e+01
1	 1.073918423940000e+00	 1.073918423940000e+00	-1.333344386210702e+01
1	 1.051448935520752e+00	 1.095927323569995e+00	-1.544709134891038e+01
1	 1.028533457051143e+00	 1.117461628101804e+00	-1.750520699367802e+01
1	 1.005187148104060e+00	 1.138507953348417e+00	-1.950344940768228e+01
1	 9.814256957288476e-01	 1.159053564901683e+00	-2.143767210758892e+01
1	 9.572652794875629e-01	 1.179086403632986e+00	-2.330393789140086e+01
1	 9.327225350473752e-01	 1.198595108931859e+00	-2.509853209246616e+01
1	 9.078145164997570e-01	 1.217569039590201e+00	-2.681797463493604e+01
1	 8.825586575835764e-01	 1.235998292254537e+00	-2.845903082437513e+01
1	 8.569727319941879e-01	 1.253873717383776e+00	-3.001872081809867e+01
1	 8.310748129642157e-01	 1.271186932665496e+00	-3.149432773110020e+01
1	 1.078337841320000e+00	 1.078337841320000e+00	-1.341580002085162e+01
1	 1.055775885870373e+00	 1.100437312553251e+00	-1.552454140229853e+01
1	 1.032766105020355e+00	 1.122060235622086e+00	-1.757197506133696e+01
1	 1.009323720727904e+00	 1.143193171260535e+00	-1.955346079162425e+01
1	 9.854644845981252e-01	 1.163823332655474e+00	-2.146457783895010e+01
1	 9.612046427756350e-01	 1.183938611052248e+00	-2.330114038476087e+01
1	 9.365608993871383e-01	 1.203527599088900e+00	-2.505921176524689e+01
1	 9.115503787055544e-01	 1.222579611766355e+00	-2.673511734371155e+01
1	 8.861905862135331e-01	 1.241084704976594e+00	-2.832545596555643e+01
1	 8.604993687492078e-01	 1.259033691526094e+00	-2.982710993739422e+01
1	 8.344948739206458e-01	 1.276418154607321e+00	-3.123725348442221e+01
1	 1.082757258700000e+00	 1.082757258700000e+00	-1.349877768288403e+01
1	 1.060102836219814e+00	 1.104947301536692e+00	-1.560161853168839e+01
1	 1.036998752989247e+00	 1.126658843142707e+00	-1.763742366675801e+01
1	 1.013460293351329e+00	 1.147878389173117e+00	-1.960125584269344e+01
1	 9.895032734669248e-01	 1.168593100409825e+00	-2.148842168185322e+01
1	 9.651440060632110e-01	 1.188790818472131e+00	-2.329448826000356e+01
1	 9.403992637264270e-01	 1.208460089246599e+00	-2.501529828569783e+01
1	 9.152862409109398e-01	 1.227590183943171e+00	-2.664698378548537e+01
1	 8.898225148431790e-01	 1.246171117699287e+00	-2.818597821992223e+01
1	 8.640260055040576e-01	 1.264193665668993e+00	-2.962902696885111e+01
1	 8.379149348770869e-01	 1.281649376549641e+00	-3.097319613836078e+01
1	 1.087176676080000e+00	 1.087176676080000e+00	-1.358236926889286e+01
1	 1.064429786569076e+00	 1.109457290520318e+00	-1.567832728493083e+01
1	 1.041231400957819e+00	 1.131257450663668e+00	-1.770156890094302e+01
1	 1.017596865974336e+00	 1.152563607086163e+00	-1.964686158933886e+01
1	 9.935420623352474e-01	 1.173362868164734e+00	-2.150924097640273e+01
1	 9.690833693502909e-01	 1.193643025892639e+00	-2.328402852466890e+01
1	 9.442376280652416e-01	 1.213392579404956e+00	-2.496684766787444e+01
1	 9.190221031159123e-01	 1.232600756120648e+00	-2.655363830498064e+01
1	 8.934544434725138e-01	 1.251257530422616e+00	-2.804066957390120e+01
1	 8.675526422587380e-01	 1.269353639812472e+00	-2.942455084037334e+01
1	 8.413349958335384e-01	 1.286880598492456e+00	-3.070224085266742e+01
1	 1.091596093460000e+00	 1.091596093460000e+00	-1.366656732230822e+01
1	 1.068756736918158e+00	 1.113967279504129e+00	-1.575467213622807e+01
1	 1.045464048926072e+00	 1.135856058184969e+00	-1.776442659431032e+01
1	 1.021733438596924e+00	 1.157248824999674e+00	-1.969030462230242e+01
1	 9.975808512030923e-01	 1.178132635920203e+00	-2.152707245800417e+01
1	 9.730227326368749e-01	 1.198495233313770e+00	-2.326980742504083e+01
1	 9.480759924035820e-01	 1.218325069563969e+00	-2.491391501872202e+01
1	 9.227579653204717e-01	 1.237611328298787e+00	-2.645514420490036e+01
1	 8.970863721015374e-01	 1.256343943146580e+00	-2.788960084814902e+01
1	 8.710792790132486e-01	 1.274513613956530e+00	-2.921375920168035e+01
1	 8.447550567900006e-01	 1.292111820435765e+00	-3.042447140798786e+01
1	 1.096015510840000e+00	 1.096015510840000e+00	-1.375136450682781e+01
1	 1.073083687267059e+00	 1.118477268488125e+00	-1.583065748761729e+01
1	 1.049696696894006e+00	 1.140454665706610e+00	-1.782601232194919e+01
1	 1.025870011219093e+00	 1.161934042913649e+00	-1.973161110344299e+01
1	 1.001619640070460e+00	 1.182902403676230e+00	-2.154195226955753e+01
1	 9.769620959229626e-01	 1.203347440735523e+00	-2.325187046149591e+01
1	 9.519143567414479e-01	 1.223257559723641e+00	-2.485655455636418e+01
1	 9.264938275246192e-01	 1.242621900477588e+00	-2.635156376693612e+01
1	 9.007183007302502e-01	 1.261430355871180e+00	-2.773284172105342e+01
1	 8.746059157675891e-01	 1.279673588101168e+00	-2.899672845007579e+01
1	 8.481751177464736e-01	 1.297343042379568e+00	-3.013997023366695e+01
1	 1.100434928220000e+00	 1.100434928220000e+00	-1.383675360400151e+01
1	 1.077410637615781e+00	 1.122987257472306e+00	-1.590628767042062e+01
1	 1.053929344861620e+00	 1.145053273228591e+00	-1.788634140874667e+01
1	 1.030006583840844e+00	 1.166619260828089e+00	-1.977080677434852e+01
1	 1.005658428937350e+00	 1.187672171432817e+00	-2.155391597335279e+01
1	 9.809014592085546e-01	 1.208199648157901e+00	-2.323026240348088e+01
1	 9.557527210788394e-01	 1.228190049883970e+00	-2.479481962795103e+01
1	 9.302296897283541e-01	 1.247632472657049e+00	-2.624295827227038e+01
1	 9.043502293586517e-01	 1.266516768596416e+00	-2.757046075166953e+01
1	 8.781325525217598e-01	 1.284833562246387e+00	-2.877353375559778e+01
1	 8.515951787029569e-01	 1.302574264323867e+00	-2.984881843488280e+01
1	 1.104854345600000e+00	 1.104854345600000e+00	-1.392272751087419e+01
1	 1.081737587964323e+00	 1.127497246456672e+00	-1.598156694665879e+01
1	 1.058161992828914e+00	 1.149651880750912e+00	-1.794542893439195e+01
1	 1.034143156462176e+00	 1.171304478742993e+00	-1.980791696474184e+01
1	 1.009697217803762e+00	 1.192441939189963e+00	-2.156299856268431e+01
1	 9.848408224936508e-01	 1.213051855580902e+00	-2.320502730413124e+01
1	 9.595910854157568e-01	 1.233122540044956e+00	-2.472876272707742e+01
1	 9.339655519316764e-01	 1.252643044837173e+00	-2.612938802158719e+01
1	 9.079821579867426e-01	 1.271603181322287e+00	-2.740252540210837e+01
1	 8.816591892757607e-01	 1.289993536392186e+00	-2.854424908556377e+01
1	 8.550152396594510e-01	 1.307805486268661e+00	-2.955109581913084e+01
1	 8.208146300949881e-01	 1.255493266842989e+00	-3.222277898737801e+01
1	 7.949464022841306e-01	 1.272029959379206e+00	-3.303015422633514e+01
1	 7.688064583706171e-01	 1.287997138826982e+00	-3.374966918433787e+01
1	 7.424132920487887e-01	 1.303388853659439e+00	-3.437886091542035e+01
1	 7.157855296891864e-01	 1.318199937618296e+00	-3.491562464897508e+01
1	 6.889418895959070e-01	 1.332426010254849e+00	-3.535821569713445e+01
1	 6.619011416394617e-01	 1.346063475001740e+00	-3.570524947835351e+01
1	 6.346820674340899e-01	 1.359109514832477e+00	-3.595569970199163e+01
1	 6.073034212214117e-01	 1.371562085578352e+00	-3.610889477228280e+01
1	 5.797838916141955e-01	 1.383419906984210e+00	-3.616451248267094e+01
1	 5.521420643450261e-01	 1.394682451595398e+00	-3.612257308297161e+01
1	 8.242346910513866e-01	 1.260724488783330e+00	-3.198717922009992e+01
1	 7.982586789573239e-01	 1.277330084205436e+00	-3.272676649061692e+01
1	 7.720098186103231e-01	 1.293363793567934e+00	-3.338680921810161e+01
1	 7.455066807617844e-01	 1.308819640545915e+00	-3.396517870967185e+01
1	 7.187679693921253e-01	 1.323692437355023e+00	-3.446006741379060e+01
1	 6.918124807983754e-01	 1.337977785294685e+00	-3.486999029104697e+01
1	 6.646590630588385e-01	 1.351672072811842e+00	-3.519378450605036e+01
1	 6.373265760444783e-01	 1.364772471142394e+00	-3.543060748250673e+01
1	 6.098338521395865e-01	 1.377276927600260e+00	-3.557993337558310e+01
1	 5.821996578261501e-01	 1.389184156595890e+00	-3.564154802677919e+01
1	 5.544426562773045e-01	 1.400493628476901e+00	-3.561554247664773e+01
1	 8.276547520077958e-01	 1.265955710724166e+00	-3.174433231104406e+01
1	 8.015709556307121e-01	 1.282630209032065e+00	-3.241742381330380e+01
1	 7.752131788503775e-01	 1.298730448309200e+00	-3.301921256017797e+01
1	 7.486000694752522e-01	 1.314250427432633e+00	-3.354790236138022e+01
1	 7.217504090956285e-01	 1.329184937091928e+00	-3.400198134464924e+01
1	 6.946830720014702e-01	 1.343529560334642e+00	-3.438022279207630e+01
1	 6.674169844788731e-01	 1.357280670622022e+00	-3.468168450142045e+01
1	 6.399710846555262e-01	 1.370435427452353e+00	-3.490570671177345e+01
1	 6.123642830583935e-01	 1.382991769622188e+00	-3.505190864340897e+01
1	 5.846154240386801e-01	 1.394948406207575e+00	-3.512018371131533e+01
1	 5.567432482100724e-01	 1.406304805358404e+00	-3.511069348067325e+01
1	 8.310748129642157e-01	 1.271186932665496e+00	-3.149432773110020e+01
1	 8.048832323042955e-01	 1.287930333859095e+00	-3.210219971219527e+01
1	 7.784165390907811e-01	 1.304097103050783e+00	-3.264693768824223e+01
1	 7.516934581891912e-01	 1.319681214319590e+00	-3.312707624267549e+01
1	 7.247328487996958e-01	 1.334677436829008e+00	-3.354139766172347e+01
1	 6.975536632051906e-01	 1.349081335374722e+00	-3.388893223840552e+01
1	 6.701749058995655e-01	 1.362889268432281e+00	-3.416895730436865e+01
1	 6.426155932672342e-01	 1.376098383762358e+00	-3.438099502622708e+01
1	 6.148947139778327e-01	 1.388706611644135e+00	-3.452480901200136e+01
1	 5.870311902517856e-01	 1.400712655819265e+00	-3.460039978146055e+01
1	 5.590438401433302e-01	 1.412115982239907e+00	-3.460799916158758e+01
1	 8.344948739206458e-01	 1.276418154607321e+00	-3.123725348442221e+01
1	 8.081955089780740e-01	 1.293230458686525e+00	-3.178116649988102e+01
1	 7.816198993315334e-01	 1.309463757792679e+00	-3.227004212132012e+01
1	 7.547868469036020e-01	 1.325112001206789e+00	-3.270274399827608e+01
1	 7.277152885043270e-01	 1.340169936566265e+00	-3.307834707337868e+01
1	 7.004242544095375e-01	 1.354633110414925e+00	-3.339613735611631e+01
1	 6.729328273209159e-01	 1.368497866242617e+00	-3.365561062627687e+01
1	 6.452601018796016e-01	 1.381761340072405e+00	-3.385647010104984e+01
1	 6.174251448979040e-01	 1.394421453666101e+00	-3.399862310717066e+01
1	 5.894469564654664e-01	 1.406476905430959e+00	-3.408217680624464e+01
1	 5.613444320770775e-01	 1.417927159121411e+00	-3.410743302746258e+01
1	 8.379149348770869e-01	 1.281649376549641e+00	-3.097319613836078e+01
1	 8.115077856520477e-01	 1.298530583514354e+00	-3.145439530833657e+01
1	 7.848232595726343e-01	 1.314830412534892e+00	-3.188858243935083e+01
1	 7.578802356184845e-01	 1.330542788094227e+00	-3.227494856033253e+01
1	 7.306977282095222e-01	 1.345662436303698e+00	-3.261285978661934e+01
1	 7.032948456145099e-01	 1.360184885455249e+00	-3.290185656555868e+01
1	 6.756907487429237e-01	 1.374106464053030e+00	-3.314165205262662e+01
1	 6.479046104926288e-01	 1.387424296382496e+00	-3.333212964937976e+01
1	 6.199555758186077e-01	 1.400136295688087e+00	-3.347333974042837e+01
1	 5.918627226797222e-01	 1.412241155042658e+00	-3.356549567193790e+01
1	 5.636450240113147e-01	 1.423738336002914e+00	-3.360896901889189e+01
1	 8.413349958335384e-01	 1.286880598492456e+00	-3.070224085266742e+01
1	 8.148200623262166e-01	 1.303830708342583e+00	-3.112195611291973e+01
1	 7.880266198140840e-01	 1.320197067277418e+00	-3.150261430227387e+01
1	 7.609736243338386e-01	 1.335973574981907e+00	-3.184373216291272e+01
1	 7.336801679152816e-01	 1.351154936041308e+00	-3.214496551727938e+01
1	 7.061654368201085e-01	 1.365736660495695e+00	-3.240610798756466e+01
1	 6.784486701655896e-01	 1.379715061863522e+00	-3.262708904555871e+01
1	 6.505491191063160e-01	 1.393087252692631e+00	-3.280797142153979e+01
1	 6.224860067399434e-01	 1.405851137710091e+00	-3.294894790521275e+01
1	 5.942784888945538e-01	 1.418005404654362e+00	-3.305033757560271e+01
1	 5.659456159460416e-01	 1.429549512884418e+00	-3.311258150019852e+01
1	 8.447550567900006e-01	 1.292111820435765e+00	-3.042447140798786e+01
1	 8.181323390005806e-01	 1.309130833171212e+00	-3.078391775578378e+01
1	 7.912299800558825e-01	 1.325563722020261e+00	-3.111219246865430e+01
1	 7.640670130496645e-01	 1.341404361869827e+00	-3.140913635613130e+01
1	 7.366626076216045e-01	 1.356647435779093e+00	-3.167469349996445e+01
1	 7.090360280263329e-01	 1.371288435536263e+00	-3.190890944951123e+01
1	 6.812065915889132e-01	 1.385323659674092e+00	-3.211192894636913e+01
1	 6.531936277206629e-01	 1.398750209002810e+00	-3.228399320428485e+01
1	 6.250164376619113e-01	 1.411565979732115e+00	-3.242543677320616e+01
1	 5.966942551099607e-01	 1.423769654266070e+00	-3.253668401880358e+01
1	 5.682462078812581e-01	 1.435360689765921e+00	-3.261824525085870e+01
1	 8.481751177464736e-01	 1.297343042379568e+00	-3.013997023366695e+01
1	 8.214446156751392e-01	 1.314430958000241e+00	-3.044034796872489e+01
1	 7.944333402980298e-01	 1.330930376763419e+00	-3.071737081385301e+01
1	 7.671604017659621e-01	 1.346835148757988e+00	-3.097120201993962e+01
1	 7.396450473284920e-01	 1.362139935517055e+00	-3.120207249775410e+01
1	 7.119066192331835e-01	 1.376840210576953e+00	-3.141027849123718e+01
1	 6.839645130128947e-01	 1.390932257484739e+00	-3.159617897794621e+01
1	 6.558381363356698e-01	 1.404413165313033e+00	-3.176019282006761e+01
1	 6.275468685845115e-01	 1.417280821754159e+00	-3.190279569074058e+01
1	 5.991100213259430e-01	 1.429533903877784e+00	-3.202451680146540e+01
1	 5.705467998169644e-01	 1.441171866647424e+00	-3.212593545713068e+01
1	 8.515951787029569e-01	 1.302574264323867e+00	-2.984881843488280e+01
1	 8.247568923498935e-01	 1.319731082829669e+00	-3.009131339547778e+01
1	 7.976367005405257e-01	 1.336297031506891e+00	-3.031820234776385e+01
1	 7.702537904827312e-01	 1.352265935646389e+00	-3.052996937758331e+01
1	 7.426274870359432e-01	 1.367632435255193e+00	-3.072713081167065e+01
1	 7.147772104406598e-01	 1.382391985617766e+00	-3.091023237081702e+01
1	 6.867224344375342e-01	 1.396540855295465e+00	-3.107984624714765e+01
1	 6.584826449513360e-01	 1.410076121623298e+00	-3.123656812632136e+01
1	 6.300772995077437e-01	 1.422995663776222e+00	-3.138101417529217e+01
1	 6.015257875425005e-01	 1.435298153489502e+00	-3.151381801588440e+01
1	 5.728473917531604e-01	 1.446983043528928e+00	-3.163562770388791e+01
1	 8.550152396594510e-01	 1.307805486268661e+00	-2.955109581913084e+01
1	 8.280691690248430e-01	 1.325031207659498e+00	-2.973687961347711e+01
1	 8.008400607833711e-01	 1.341663686250679e+00	-2.991473923212219e+01
1	 7.733471791999724e-01	 1.357696722535032e+00	-3.008547800873575e+01
1	 7.456099267439587e-01	 1.373124934993508e+00	-3.024989628991989e+01
1	 7.176478016487625e-01	 1.387943760658700e+00	-3.040878807019592e+01
1	 6.894803558628312e-01	 1.402149453106268e+00	-3.056293774712150e+01
1	 6.611271535676625e-01	 1.415739077933607e+00	-3.071311701476021e+01
1	 6.326077304316082e-01	 1.428710505798304e+00	-3.086008191205640e+01
1	 6.039415537596338e-01	 1.441062403101226e+00	-3.100457004088030e+01
1	 5.751479836898462e-01	 1.452794220410432e+00	-3.114729796664458e+01
1	 5.521420643450261e-01	 1.394682451595398e+00	-3.612257308297161e+01
1	 5.243963861552059e-01	 1.405349931578256e+00	-3.589353163892113e+01
1	 4.965651299474242e-01	 1.415423283584646e+00	-3.568893428896796e+01
1	 4.686663613162491e-01	 1.424904151779574e+00	-3.550901415325132e+01
1	 4.407179065592197e-01	 1.433794869157430e+00	-3.535390106643028e+01
1	 4.127373222578093e-01	 1.442098437276990e+00	-3.522362449547682e+01
1	 3.847418665068583e-01	 1.449818504550261e+00	-3.511811685793715e+01
1	 3.567484718587159e-01	 1.456959343223164e+00	-3.503721720360297e+01
1	 3.287737200363195e-01	 1.463525825188096e+00	-3.498067522138330e+01
1	 3.008338184575576e-01	 1.469523396769290e+00	-3.494815553243303e+01
1	 2.729445786016254e-01	 1.474958052621829e+00	-3.493924223025845e+01
1	 5.544426562773045e-01	 1.400493628476901e+00	-3.561554247664773e+01
1	 5.265813710956386e-01	 1.411205556293596e+00	-3.541019920932244e+01
1	 4.986341513208047e-01	 1.421320880600494e+00	-3.522669081791612e+01
1	 4.706191378206821e-01	 1.430841252413286e+00	-3.506519281387970e+01
1	 4.425542311690513e-01	 1.439769014447172e+00	-3.492578876902179e+01
1	 4.144570610998106e-01	 1.448107180767428e+00	-3.480847305313520e+01
1	 3.863449576165301e-01	 1.455859414987775e+00	-3.471315392302132e+01
1	 3.582349238238630e-01	 1.463030007155163e+00	-3.463965692924603e+01
1	 3.301436105352605e-01	 1.469623849461540e+00	-3.458772860599750e+01
1	 3.020872926995213e-01	 1.475646410924159e+00	-3.455704040885364e+01
1	 2.740818476770061e-01	 1.481103711175835e+00	-3.454719286503340e+01
1	 5.567432482100724e-01	 1.406304805358404e+00	-3.511069348067325e+01
1	 5.287663560364722e-01	 1.417061181008938e+00	-3.492873653059299e+01
1	 5.007031726945173e-01	 1.427218477616342e+00	-3.476603024342906e+01
1	 4.725719143253998e-01	 1.436778353046997e+00	-3.462269270208711e+01
1	 4.443905557791414e-01	 1.445743159736915e+00	-3.449876133151751e+01
1	 4.161767999420637e-01	 1.454115924257865e+00	-3.439419545747482e+01
1	 3.879480487264677e-01	 1.461900325425289e+00	-3.430887916785031e+01
1	 3.597213757893091e-01	 1.469100671087162e+00	-3.424262444626970e+01
1	 3.315135010345536e-01	 1.475721873734985e+00	-3.419517454690961e+01
1	 3.033407669419090e-01	 1.481769425079029e+00	-3.416620757905230e+01
1	 2.752191167529016e-01	 1.487249369729841e+00	-3.415534026980001e+01
1	 5.590438401433302e-01	 1.412115982239907e+00	-3.460799916158758e+01
1	 5.309513409777057e-01	 1.422916805724280e+00	-3.444912051938915e+01
1	 5.027721940685621e-01	 1.433116074632189e+00	-3.430693302357435e+01
1	 4.745246908304026e-01	 1.442715453680708e+00	-3.418149750642250e+01
1	 4.462268803894894e-01	 1.451717305026657e+00	-3.407280536058533e+01
1	 4.178965387845687e-01	 1.460124667748302e+00	-3.398078092026612e+01
1	 3.895511398366707e-01	 1.467941235862803e+00	-3.390528409637823e+01
1	 3.612078277550544e-01	 1.475171335019160e+00	-3.384611323873153e+01
1	 3.328833915341984e-01	 1.481819898008429e+00	-3.380300819774601e+01
1	 3.045942411847207e-01	 1.487892439233899e+00	-3.377565355792068e+01
1	 2.763563858293117e-01	 1.493395028283848e+00	-3.376368201529961e+01
1	 5.613444320770775e-01	 1.417927159121411e+00	-3.410743302746258e+01
1	 5.331363259193399e-01	 1.428772430439621e+00	-3.397132847078304e+01
1	 5.048412154429391e-01	 1.439013671648038e+00	-3.384937993677956e+01
1	 4.764774673356902e-01	 1.448652554314419e+00	-3.374159118283547e+01
1	 4.480632050000957e-01	 1.457691450316399e+00	-3.364790768245641e+01
1	 4.196162776273255e-01	 1.466133411238740e+00	-3.356821883013472e+01
1	 3.911542309471395e-01	 1.473982146300317e+00	-3.350236035183853e+01
1	 3.626942797210987e-01	 1.481241998951159e+00	-3.345011689750772e+01
1	 3.342532820341955e-01	 1.487917922281873e+00	-3.341122479158206e+01
1	 3.058477154279563e-01	 1.494015453388769e+00	-3.338537491748419e+01
1	 2.774936549062364e-01	 1.499540686837854e+00	-3.337221571209689e+01
1	 5.636450240113147e-01	 1.423738336002914e+00	-3.360896901889189e+01
1	 5.353213108613746e-01	 1.434628055154963e+00	-3.349533805053985e+01
1	 5.069102368176485e-01	 1.444911268663886e+00	-3.339335207529316e+01
1	 4.784302438412626e-01	 1.454589654948131e+00	-3.330295794921970e+01
1	 4.498995296109602e-01	 1.463665595606142e+00	-3.322405533844397e+01
1	 4.213360164703343e-01	 1.472142154729176e+00	-3.315649874895360e+01
1	 3.927573220578739e-01	 1.480023056737831e+00	-3.310009971390227e+01
1	 3.641807316874422e-01	 1.487312662883157e+00	-3.305462911811333e+01
1	 3.356231725345445e-01	 1.494015946555317e+00	-3.301981963931975e+01
1	 3.071011896716159e-01	 1.500138467543639e+00	-3.299536828573417e+01
1	 2.786309239836758e-01	 1.505686345391861e+00	-3.298093900976814e+01
1	 5.659456159460416e-01	 1.429549512884418e+00	-3.311258150019852e+01
1	 5.375062958038094e-01	 1.440483679870304e+00	-3.302112728758212e+01
1	 5.089792581926899e-01	 1.450808865679733e+00	-3.293883083880736e+01
1	 4.803830203471199e-01	 1.460526755581842e+00	-3.286558228008789e+01
1	 4.517358542220828e-01	 1.469639740895884e+00	-3.280123558057146e+01
1	 4.230557553135949e-01	 1.478150898219614e+00	-3.274561040832120e+01
1	 3.943604131688737e-01	 1.486063967175345e+00	-3.269849409590396e+01
1	 3.656671836540847e-01	 1.493383326815156e+00	-3.265964369857523e+01
1	 3.369930630352455e-01	 1.500113970828761e+00	-3.262878812810741e+01
1	 3.083546639156997e-01	 1.506261481698509e+00	-3.260563034549215e+01
1	 2.797681930616300e-01	 1.511832003945867e+00	-3.258984959610795e+01
1	 5.682462078812581e-01	 1.435360689765921e+00	-3.261824525085870e+01
1	 5.396912807466447e-01	 1.446339304585646e+00	-3.254867456664013e+01
1	 5.110482795680634e-01	 1.456706462695582e+00	-3.248579792823348e+01
1	 4.823357968532622e-01	 1.466463856215553e+00	-3.242944890137828e+01
1	 4.535721788334638e-01	 1.475613886185626e+00	-3.237943586730674e+01
1	 4.247754941571074e-01	 1.484159641710051e+00	-3.233554370612663e+01
1	 3.959635042801394e-01	 1.492104877612859e+00	-3.229753554213614e+01
1	 3.671536356210264e-01	 1.499453990747155e+00	-3.226515453735738e+01
1	 3.383629535362985e-01	 1.506211995102205e+00	-3.223812571979493e+01
1	 3.096081381602072e-01	 1.512384495853378e+00	-3.221615783329888e+01
1	 2.809054621400987e-01	 1.517977662499874e+00	-3.219894519635528e+01
1	 5.705467998169644e-01	 1.441171866647424e+00	-3.212593545713068e+01
1	 5.418762656898803e-01	 1.452194929300987e+00	-3.207795862107719e+01
1	 5.131173009437692e-01	 1.462604059711430e+00	-3.203423533962972e+01
1	 4.842885733596893e-01	 1.472400956849264e+00	-3.199454278538444e+01
1	 4.554085034451030e-01	 1.481588031475369e+00	-3.195864385940187e+01
1	 4.264952330008718e-01	 1.490168385200489e+00	-3.192628870319508e+01
1	 3.975665953916707e-01	 1.498145788050373e+00	-3.189721622520945e+01
1	 3.686400875882673e-01	 1.505524654679154e+00	-3.187115563133491e+01
1	 3.397328440377036e-01	 1.512310019375649e+00	-3.184782794942856e+01
1	 3.108616124051388e-01	 1.518507510008248e+00	-3.182694753833148e+01
1	 2.820427312190821e-01	 1.524123321053880e+00	-3.180822357243890e+01
1	 5.728473917531604e-01	 1.446983043528928e+00	-3.163562770388791e+01
1	 5.440612506335166e-01	 1.458050554016329e+00	-3.160895852588932e+01
1	 5.151863223198073e-01	 1.468501656727278e+00	-3.158412535827366e+01
1	 4.862413498664013e-01	 1.478338057482975e+00	-3.156084914580921e+01
1	 4.572448280570001e-01	 1.487562176765111e+00	-3.153884741582812e+01
1	 4.282149718448880e-01	 1.496177128690926e+00	-3.151783562001804e+01
1	 3.991696865034675e-01	 1.504186698487888e+00	-3.149752844347590e+01
1	 3.701265395558071e-01	 1.511595318611152e+00	-3.147764107381960e+01
1	 3.411027345394607e-01	 1.518408043649094e+00	-3.145789042377992e+01
1	 3.121150866504944e-01	 1.524630524163118e+00	-3.143799630134667e+01
1	 2.831800002985802e-01	 1.530268979607887e+00	-3.141768252224081e+01
1	 5.751479836898462e-01	 1.452794220410432e+00	-3.114729796664458e+01
1	 5.462462355775531e-01	 1.463906178731671e+00	-3.114165369087260e+01
1	 5.172553436961776e-01	 1.474399253743126e+00	-3.113545055287922e+01
1	 4.881941263733983e-01	 1.484275158116687e+00	-3.112835343293569e+01
1	 4.590811526691558e-01	 1.493536322054853e+00	-3.112003458981442e+01
1	 4.299347106891563e-01	 1.502185872181363e+00	-3.111017483355901e+01
1	 4.007727776155301e-01	 1.510227608925401e+00	-3.109846461851305e+01
1	 3.716129915236462e-01	 1.517665982543151e+00	-3.108460505262954e+01
1	 3.424726250415698e-01	 1.524506067922538e+00	-3.106830881991307e+01
1	 3.133685608962740e-01	 1.530753538317988e+00	-3.104930101364911e+01
1	 2.843172693785931e-01	 1.536414638161893e+00	-3.102731987887631e+01
1	 2.729445786016254e-01	 1.474958052621829e+00	-3.493924223025845e+01
1	 2.451213962366573e-01	 1.479836308883957e+00	-3.494101946397780e+01
1	 2.173792335174868e-01	 1.484165175720689e+00	-3.490524331807067e+01
1	 1.897326029512248e-01	 1.487952129393421e+00	-3.483263631715982e+01
1	 1.621955532186829e-01	 1.491205083986602e+00	-3.472402047832956e+01
1	 1.347816568308554e-01	 1.493932362918601e+00	-3.458031021433488e+01
1	 1.075039995905299e-01	 1.496142670358577e+00	-3.440250513001725e+01
1	 8.037517182124869e-02	 1.497845062665730e+00	-3.419168275972233e+01
1	 5.340726131856410e-02	 1.499048919961328e+00	-3.394899129116198e+01
1	 2.661184797196365e-02	 1.499763917937484e+00	-3.367564231854054e+01
1	 0.000000000000000e+00	 1.500000000000000e+00	-3.337290366496725e+01
1	 2.740818476770061e-01	 1.481103711175835e+00	-3.454719286503340e+01
1	 2.461427353850260e-01	 1.486002293505446e+00	-3.454859758352818e+01
1	 2.182849803208652e-01	 1.490349197287087e+00	-3.451592861080692e+01
1	 1.905231554604118e-01	 1.494151929933241e+00	-3.444986628195611e+01
1	 1.628713680206442e-01	 1.497418438503709e+00	-3.435118077232369e+01
1	 1.353432470646830e-01	 1.500157081097771e+00	-3.422072557294749e+01
1	 1.079519329194909e-01	 1.502376598151955e+00	-3.405943087527532e+01
1	 8.071006836828858e-02	 1.504086083760293e+00	-3.386829690871031e+01
1	 5.362979157243968e-02	 1.505294957127888e+00	-3.364838727232325e+01
1	 2.672273067096798e-02	 1.506012934262237e+00	-3.340082229965078e+01
1	 0.000000000000000e+00	 1.506250000000000e+00	-3.312677249289590e+01
1	 2.752191167529016e-01	 1.487249369729841e+00	-3.415534026980001e+01
1	 2.471640745339932e-01	 1.492168278126937e+00	-3.415649026344589e+01
1	 2.191907271248945e-01	 1.496533218853485e+00	-3.412701813335308e+01
1	 1.913137079702708e-01	 1.500351730473061e+00	-3.406756239028730e+01
1	 1.635471828232682e-01	 1.503631793020817e+00	-3.397884178504063e+01
1	 1.359048372991341e-01	 1.506381799276942e+00	-3.386164935292137e+01
1	 1.083998662490069e-01	 1.508610525945334e+00	-3.371684638354389e+01
1	 8.104496491578612e-02	 1.510327104854855e+00	-3.354535635521772e+01
1	 5.385232182664757e-02	 1.511540994294447e+00	-3.334815887120168e+01
1	 2.683361337015184e-02	 1.512261950586990e+00	-3.312628363285317e+01
1	 0.000000000000000e+00	 1.512500000000000e+00	-3.288080448230343e+01
1	 2.763563858293117e-01	 1.493395028283848e+00	-3.376368201529961e+01
1	 2.481854136835590e-01	 1.498334262748426e+00	-3.376469362026918e+01
1	 2.200964739295747e-01	 1.502717240419883e+00	-3.373850689521825e+01
1	 1.921042604808019e-01	 1.506551531012881e+00	-3.368571888729551e+01
1	 1.642229976265550e-01	 1.509845147537926e+00	-3.360699733476877e+01
1	 1.364664275342087e-01	 1.512606517456112e+00	-3.350307527745124e+01
1	 1.088477995790778e-01	 1.514844453738713e+00	-3.337474560836738e+01
1	 8.137986146374129e-02	 1.516568125949417e+00	-3.322285560174485e+01
1	 5.407485208118774e-02	 1.517787031461007e+00	-3.304830145054220e+01
1	 2.694449606951522e-02	 1.518510966911742e+00	-3.285202284466505e+01
1	 0.000000000000000e+00	 1.518750000000000e+00	-3.263499761885055e+01
1	 2.774936549062364e-01	 1.499540686837854e+00	-3.337221571209689e+01
1	 2.492067528337235e-01	 1.504500247369916e+00	-3.337320383420118e+01
1	 2.210022207349058e-01	 1.508901261986281e+00	-3.335038998772277e+01
1	 1.928948129920050e-01	 1.512751331552702e+00	-3.330433011246485e+01
1	 1.648988124305046e-01	 1.516058502055033e+00	-3.323564134113609e+01
1	 1.370280177699069e-01	 1.518831235635283e+00	-3.314499717262960e+01
1	 1.092957329097037e-01	 1.521078381532092e+00	-3.303312260241193e+01
1	 8.171475801215411e-02	 1.522809147043980e+00	-3.290078924091606e+01
1	 5.429738233606022e-02	 1.524033068627566e+00	-3.274881044911026e+01
1	 2.705537876905812e-02	 1.524759983236495e+00	-3.257803651854709e+01
1	 0.000000000000000e+00	 1.525000000000000e+00	-3.238934992121997e+01
1	 2.786309239836758e-01	 1.505686345391861e+00	-3.298093900976814e+01
1	 2.502280919844865e-01	 1.510666231991405e+00	-3.298201714780777e+01
1	 2.219079675408878e-01	 1.515085283552680e+00	-3.296266258232904e+01
1	 1.936853655038803e-01	 1.518951132092522e+00	-3.292339049769602e+01
1	 1.655746272351170e-01	 1.522271856572142e+00	-3.286476782304141e+01
1	 1.375896080062285e-01	 1.525055953814453e+00	-3.278740896534743e+01
1	 1.097436662408845e-01	 1.527312309325471e+00	-3.269197151544328e+01
1	 8.204965456102463e-02	 1.529050168138542e+00	-3.257915195363842e+01
1	 5.451991259126499e-02	 1.530279105794125e+00	-3.244968138014107e+01
1	 2.716626146878055e-02	 1.531008999561248e+00	-3.230432129373921e+01
1	 0.000000000000000e+00	 1.531250000000000e+00	-3.214385944044221e+01
1	 2.797681930616300e-01	 1.511832003945867e+00	-3.258984959610795e+01
1	 2.512494311358481e-01	 1.516832216612895e+00	-3.259112986475202e+01
1	 2.228137143475205e-01	 1.521269305119077e+00	-3.257531992901141e+01
1	 1.944759180164277e-01	 1.525150932632342e+00	-3.254289456542820e+01
1	 1.662504420403921e-01	 1.528485211089249e+00	-3.249437089663804e+01
1	 1.381511982431737e-01	 1.531280671993624e+00	-3.243030468124540e+01
1	 1.101915995726203e-01	 1.533546237118849e+00	-3.235128659235279e+01
1	 8.238455111035277e-02	 1.535291189233104e+00	-3.225793850730843e+01
1	 5.474244284680205e-02	 1.536525142960684e+00	-3.215090982982421e+01
1	 2.727714416868250e-02	 1.537258015886001e+00	-3.203087386412854e+01
1	 0.000000000000000e+00	 1.537500000000000e+00	-3.189852425923823e+01
1	 2.809054621400987e-01	 1.517977662499874e+00	-3.219894519635528e+01
1	 2.522707702878083e-01	 1.522998201234384e+00	-3.220053834855636e+01
1	 2.237194611548043e-01	 1.527453326685475e+00	-3.218835735466890e+01
1	 1.952664705296471e-01	 1.531350733172163e+00	-3.216283692680592e+01
1	 1.669262568463299e-01	 1.534698565606357e+00	-3.212444477336367e+01
1	 1.387127884807424e-01	 1.537505390172794e+00	-3.207367844271500e+01
1	 1.106395329049110e-01	 1.539780164912228e+00	-3.201106217123252e+01
1	 8.271944766013857e-02	 1.541532210327667e+00	-3.193714375406174e+01
1	 5.496497310267141e-02	 1.542771180127243e+00	-3.185249145582908e+01
1	 2.738802686876399e-02	 1.543507032210754e+00	-3.175769097714216e+01
1	 0.000000000000000e+00	 1.543750000000000e+00	-3.165334249137842e+01
1	 2.820427312190821e-01	 1.524123321053880e+00	-3.180822357243890e+01
1	 2.532921094403671e-01	 1.529164185855874e+00	-3.181023902139642e+01
1	 2.246252079627389e-01	 1.533637348251873e+00	-3.180177026157207e+01
1	 1.960570230435387e-01	 1.537550533711983e+00	-3.178321227989061e+01
1	 1.676020716529306e-01	 1.540911920123465e+00	-3.175498375801993e+01
1	 1.392743787189347e-01	 1.543730108351965e+00	-3.171752446694838e+01
1	 1.110874662377566e-01	 1.546014092705607e+00	-3.167129268149456e+01
1	 8.305434421038199e-02	 1.547773231422229e+00	-3.161676262906306e+01
1	 5.518750335887309e-02	 1.549017217293803e+00	-3.155442198586224e+01
1	 2.749890956902499e-02	 1.549756048535507e+00	-3.148476943266808e+01
1	 0.000000000000000e+00	 1.550000000000000e+00	-3.140831228105595e+01
1	 2.831800002985802e-01	 1.530268979607887e+00	-3.141768252224081e+01
1	 2.543134485935246e-01	 1.535330170477364e+00	-3.142022836292259e+01
1	 2.255309547713244e-01	 1.539821369818271e+00	-3.141555412585137e+01
1	 1.968475755581023e-01	 1.543750334251803e+00	-3.140401540791526e+01
1	 1.682778864601940e-01	 1.547125274640573e+00	-3.138598224689779e+01
1	 1.398359689577504e-01	 1.549954826531135e+00	-3.136183706403291e+01
1	 1.115353995711571e-01	 1.552248020498986e+00	-3.133197264203913e+01
1	 8.338924076108310e-02	 1.554014252516792e+00	-3.129679014884087e+01
1	 5.541003361540703e-02	 1.555263254460362e+00	-3.125669721626101e+01
1	 2.760979226946552e-02	 1.556005064860260e+00	-3.121210608200122e+01
1	 0.000000000000000e+00	 1.556250000000000e+00	-3.116343180227634e+01
1	 2.843172693785931e-01	 1.536414638161893e+00	-3.102731987887631e+01
1	 2.553347877472805e-01	 1.541496155098853e+00	-3.103050290911127e+01
1	 2.264367015805608e-01	 1.546005391384669e+00	-3.102970449601838e+01
1	 1.976381280733380e-01	 1.549950134791623e+00	-3.102524117758161e+01
1	 1.689537012681203e-01	 1.553338629157681e+00	-3.101743472594766e+01
1	 1.403975591971896e-01	 1.556179544710306e+00	-3.100661063509614e+01
1	 1.119833329051127e-01	 1.558481948292365e+00	-3.099309665946380e+01
1	 8.372413731224189e-02	 1.560255273611354e+00	-3.097722140965872e+01
1	 5.563256387227331e-02	 1.561509291626922e+00	-3.095931301062219e+01
1	 2.772067497008558e-02	 1.562254081185013e+00	-3.093969782681687e+01
1	 0.000000000000000e+00	 1.562500000000000e+00	-3.091869925826052e+01
1	 1.562500000000000e+00	 0.000000000000000e+00	 9.851274174079840e+00
1	 1.562254081185013e+00	 2.772067497008468e-02	 9.692679669597162e+00
1	 1.561509291626922e+00	 5.563256387227252e-02	 9.508784470614309e+00
1	 1.560255273611354e+00	 8.372413731224117e-02	 9.299458964140200e+00
1	 1.558481948292364e+00	 1.119833329051120e-01	 9.064631182123822e+00
1	 1.556179544710306e+00	 1.403975591971891e-01	 8.804289489085924e+00
1	 1.553338629157681e+00	 1.689537012681199e-01	 8.518485136264403e+00
1	 1.549950134791623e+00	 1.976381280733377e-01	 8.207334659988291e+00
1	 1.546005391384669e+00	 2.264367015805606e-01	 7.871022101730649e+00
1	 1.541496155098854e+00	 2.553347877472804e-01	 7.509801027216163e+00
1	 1.536414638161893e+00	 2.843172693785931e-01	 7.123996322085424e+00
1	 1.568750000000000e+00	 0.000000000000000e+00	 9.693302504712747e+00
1	 1.568503097509764e+00	 2.783155767079450e-02	 9.530429116599246e+00
1	 1.567755328793471e+00	 5.585509412930491e-02	 9.342876676195971e+00
1	 1.566496294705896e+00	 8.405903386362877e-02	 9.130563353014825e+00
1	 1.564715876085706e+00	 1.124312662393450e-01	 8.893464962923151e+00
1	 1.562404262889417e+00	 1.409591494369401e-01	 8.631617482513962e+00
1	 1.559551983674704e+00	 1.696295160763774e-01	 8.345119421622202e+00
1	 1.556149935331327e+00	 1.984286805889095e-01	 8.034134032292421e+00
1	 1.552189412950914e+00	 2.273424483901224e-01	 7.698891332336387e+00
1	 1.547662139720148e+00	 2.563561269013357e-01	 7.339689921642001e+00
1	 1.542560296715657e+00	 2.854545384588632e-01	 6.956898569616945e+00
1	 1.575000000000000e+00	 0.000000000000000e+00	 9.537118440902926e+00
1	 1.574752113834510e+00	 2.794244037150431e-02	 9.370096809631509e+00
1	 1.574001365960003e+00	 5.607762438633730e-02	 9.179014161139825e+00
1	 1.572737315800395e+00	 8.439393041501633e-02	 8.963836175296244e+00
1	 1.570949803878972e+00	 1.128791995735780e-01	 8.724586179265867e+00
1	 1.568628981068412e+00	 1.415207396766912e-01	 8.461347489454640e+00
1	 1.565765338191556e+00	 1.703053308846351e-01	 8.174265603271120e+00
1	 1.562349735870797e+00	 1.992192331044811e-01	 7.863550219598986e+00
1	 1.558373434516851e+00	 2.282481951996842e-01	 7.529477066804095e+00
1	 1.553828124341051e+00	 2.573774660553909e-01	 7.172389517218432e+00
1	 1.548705955268936e+00	 2.865918075391333e-01	 6.792699967363015e+00
1	 1.581250000000000e+00	 0.000000000000000e+00	 9.382700785746371e+00
1	 1.581001130159251e+00	 2.805332307221413e-02	 9.211660002693465e+00
1	 1.580247403126516e+00	 5.630015464336971e-02	 9.017172673121213e+00
1	 1.578978336894853e+00	 8.472882696640388e-02	 8.799251718335288e+00
1	 1.577183731672165e+00	 1.133271329078109e-01	 8.557967707410416e+00
1	 1.574853699247288e+00	 1.420823299164422e-01	 8.293451027534466e+00
1	 1.571978692708238e+00	 1.709811456928926e-01	 8.005893895879808e+00
1	 1.568549536410034e+00	 2.000097856200529e-01	 7.695552192481388e+00
1	 1.564557456082482e+00	 2.291539420092460e-01	 7.362747093626030e+00
1	 1.559994108961564e+00	 2.583988052094462e-01	 7.007866485474062e+00
1	 1.554851613821729e+00	 2.877290766194034e-01	 6.631366138049314e+00
1	 1.587500000000000e+00	 0.000000000000000e+00	 9.230028676148553e+00
1	 1.587250146483988e+00	 2.816420577292394e-02	 9.055096307989313e+00
1	 1.586493440293011e+00	 5.652268490040210e-02	 8.857328341741983e+00
1	 1.585219357989269e+00	 8.506372351779147e-02	 8.636784674406382e+00
1	 1.583417659465281e+00	 1.137750662420439e-01	 8.393582850760678e+00
1	 1.581078417426047e+00	 1.426439201561932e-01	 8.127900062921068e+00
1	 1.578192047224749e+00	 1.716569605011502e-01	 7.839974983177335e+00
1	 1.574749336949037e+00	 2.008003381356247e-01	 7.530109410165507e+00
1	 1.570741477647806e+00	 2.300596888188078e-01	 7.198669708562307e+00
1	 1.566160093581686e+00	 2.594201443635014e-01	 6.846088022795264e+00
1	 1.560997272374037e+00	 2.888663456996735e-01	 6.472863245775892e+00
1	 1.593750000000000e+00	 0.000000000000000e+00	 9.079081576279222e+00
1	 1.593499162808720e+00	 2.827508847363375e-02	 8.900383688904391e+00
1	 1.592739477459488e+00	 5.674521515743452e-02	 8.699457671041557e+00
1	 1.591460379083644e+00	 8.539862006917905e-02	 8.476410132767938e+00
1	 1.589651587258324e+00	 1.142229995762769e-01	 8.231405331490709e+00
1	 1.587303135604688e+00	 1.432055103959443e-01	 7.964667001528694e+00
1	 1.584405401741090e+00	 1.723327753094078e-01	 7.676480008755791e+00
1	 1.580949137487806e+00	 2.015908906511965e-01	 7.367191810948137e+00
1	 1.576925499212823e+00	 2.309654356283696e-01	 7.037213704694461e+00
1	 1.572326078201416e+00	 2.604414835175567e-01	 6.687021840134905e+00
1	 1.567142930925859e+00	 2.900036147799436e-01	 6.317157985401997e+00
1	 1.600000000000000e+00	 0.000000000000000e+00	 8.929839271180487e+00
1	 1.599748179133448e+00	 2.838597117434357e-02	 8.747500453146134e+00
1	 1.598985514625946e+00	 5.696774541446693e-02	 8.543537532183750e+00
1	 1.597701400177976e+00	 8.573351662056661e-02	 8.318103571908670e+00
1	 1.595885515051292e+00	 1.146709329105099e-01	 8.071409282365643e+00
1	 1.593527853783212e+00	 1.437671006356952e-01	 7.803724680429055e+00
1	 1.590618756257261e+00	 1.730085901176654e-01	 7.515380567088670e+00
1	 1.587148938026342e+00	 2.023814431667682e-01	 7.206769802840181e+00
1	 1.583109520777533e+00	 2.318711824379315e-01	 6.878348362712063e+00
1	 1.578492062820757e+00	 2.614628226716120e-01	 6.530636152962228e+00
1	 1.573288589477196e+00	 2.911408838602137e-01	 6.164217572179722e+00
1	 1.606250000000000e+00	 0.000000000000000e+00	 8.782281860524101e+00
1	 1.605997195458171e+00	 2.849685387505339e-02	 8.596425246045243e+00
1	 1.605231551792385e+00	 5.719027567149931e-02	 8.389545156314258e+00
1	 1.603942421272267e+00	 8.606841317195418e-02	 8.161840851975082e+00
1	 1.602119442844185e+00	 1.151188662447429e-01	 7.913569238753432e+00
1	 1.599752571961618e+00	 1.443286908754463e-01	 7.645046359463153e+00
1	 1.596832110773261e+00	 1.736844049259230e-01	 7.356648694758814e+00
1	 1.593348738564645e+00	 2.031719956823400e-01	 7.048814254428281e+00
1	 1.589293542341937e+00	 2.327769292474933e-01	 6.722043441426357e+00
1	 1.584658047439706e+00	 2.624841618256673e-01	 6.376899671447278e+00
1	 1.579434248028048e+00	 2.922781529404838e-01	 6.014009731629561e+00
1	 1.612500000000000e+00	 0.000000000000000e+00	 8.636389752514088e+00
1	 1.612246211782889e+00	 2.860773657576319e-02	 8.447137044012534e+00
1	 1.611477588958806e+00	 5.741280592853173e-02	 8.237458127584240e+00
1	 1.610183442366516e+00	 8.640330972334177e-02	 8.007598207374958e+00
1	 1.608353370637002e+00	 1.155667995789758e-01	 7.757860130822500e+00
1	 1.605977290139907e+00	 1.448902811151973e-01	 7.488605713048162e+00
1	 1.603045465289090e+00	 1.743602197341805e-01	 7.200256861890434e+00
1	 1.599548539102714e+00	 2.039625481979117e-01	 6.893296485948843e+00
1	 1.595477563906032e+00	 2.336826760570551e-01	 6.568269168504112e+00
1	 1.590824032058265e+00	 2.635055009797226e-01	 6.225781590873824e+00
1	 1.585579906578415e+00	 2.934154220207539e-01	 5.866502689651591e+00
1	 1.618750000000000e+00	 0.000000000000000e+00	 8.492143657930434e+00
1	 1.618495228107603e+00	 2.871861927647300e-02	 8.299615148147470e+00
1	 1.617723626125209e+00	 5.763533618556411e-02	 8.087254376335679e+00
1	 1.616424463460724e+00	 8.673820627472935e-02	 7.855352239552224e+00
1	 1.614587298429746e+00	 1.160147329132088e-01	 7.604257275920268e+00
1	 1.612202008318077e+00	 1.454518713549483e-01	 7.334376822173933e+00
1	 1.609258819804750e+00	 1.750360345424381e-01	 7.046177963779545e+00
1	 1.605748339640549e+00	 2.047531007134834e-01	 6.740188260568980e+00
1	 1.601661585469822e+00	 2.345884228666169e-01	 6.416996231416524e+00
1	 1.596990016676433e+00	 2.645268401337778e-01	 6.077251582274037e+00
1	 1.591725565128296e+00	 2.945526911010241e-01	 5.721665162865449e+00
1	 1.625000000000000e+00	 0.000000000000000e+00	 8.349524584310426e+00
1	 1.624744244432312e+00	 2.882950197718282e-02	 8.153839177994165e+00
1	 1.623969663291593e+00	 5.785786644259654e-02	 7.938912172443649e+00
1	 1.622665484554890e+00	 8.707310282611692e-02	 7.705079909928685e+00
1	 1.620821226222414e+00	 1.164626662474418e-01	 7.452736371127128e+00
1	 1.618426726496131e+00	 1.460134615946994e-01	 7.182334166584313e+00
1	 1.615472174320239e+00	 1.757118493506958e-01	 6.894385312717563e+00
1	 1.611948140178151e+00	 2.055436532290552e-01	 6.589461775868711e+00
1	 1.607845607033305e+00	 2.354941696761788e-01	 6.268195768596688e+00
1	 1.603156001294210e+00	 2.655481792878331e-01	 5.931279783279653e+00
1	 1.597871223677692e+00	 2.956899601812942e-01	 5.579466349173654e+00
1	 1.536414638161893e+00	 2.843172693785931e-01	 7.123996322085424e+00
1	 1.530753538317988e+00	 3.133685608962730e-01	 7.014761043020741e+00
1	 1.524506067922538e+00	 3.424726250415691e-01	 6.868323696892913e+00
1	 1.517665982543151e+00	 3.716129915236455e-01	 6.682586528167777e+00
1	 1.510227608925401e+00	 4.007727776155295e-01	 6.455493095145064e+00
1	 1.502185872181363e+00	 4.299347106891560e-01	 6.185037757815795e+00
1	 1.493536322054853e+00	 4.590811526691556e-01	 5.869275322050614e+00
1	 1.484275158116687e+00	 4.881941263733981e-01	 5.506330786763478e+00
1	 1.474399253743126e+00	 5.172553436961776e-01	 5.094409137178374e+00
1	 1.463906178731671e+00	 5.462462355775533e-01	 4.631805124170059e+00
1	 1.452794220410432e+00	 5.751479836898463e-01	 4.116912966915590e+00
1	 1.542560296715657e+00	 2.854545384588632e-01	 6.956898569616945e+00
1	 1.536876552472572e+00	 3.146220351422623e-01	 6.843220789464050e+00
1	 1.530604092195668e+00	 3.438425155438446e-01	 6.692982941553872e+00
1	 1.523736646474821e+00	 3.730994434916128e-01	 6.504095563580643e+00
1	 1.516268519362587e+00	 4.023758687276868e-01	 6.274509028583777e+00
1	 1.508194615671486e+00	 4.316544495334902e-01	 6.002222965415295e+00
1	 1.499510467344311e+00	 4.609174772813535e-01	 5.685295840339394e+00
1	 1.490212258750159e+00	 4.901469028804191e-01	 5.321854646989265e+00
1	 1.480296850758795e+00	 5.193243650725585e-01	 4.910104648374481e+00
1	 1.469761803446910e+00	 5.484312205215924e-01	 4.448339111455865e+00
1	 1.458605397291925e+00	 5.774485756265320e-01	 3.934948972042365e+00
1	 1.548705955268936e+00	 2.865918075391333e-01	 6.792699967363015e+00
1	 1.542999566626585e+00	 3.158755093882468e-01	 6.674588143454372e+00
1	 1.536702116468169e+00	 3.452124060461014e-01	 6.520554553328251e+00
1	 1.529807310405832e+00	 3.745858954595374e-01	 6.328517956964850e+00
1	 1.522309429799113e+00	 4.039789598397677e-01	 6.096435478286146e+00
1	 1.514203359160981e+00	 4.333741883777049e-01	 5.822311958675431e+00
1	 1.505484612633201e+00	 4.627538018933785e-01	 5.504209476412142e+00
1	 1.496149359383153e+00	 4.920996793872031e-01	 5.140256979825024e+00
1	 1.486194447774108e+00	 5.213933864486286e-01	 4.728659978419775e+00
1	 1.475617428161945e+00	 5.506162054652366e-01	 4.267710233039523e+00
1	 1.464416574173397e+00	 5.797491675627279e-01	 3.755795383328501e+00
1	 1.554851613821729e+00	 2.877290766194034e-01	 6.631366138049314e+00
1	 1.549122580780026e+00	 3.171289836342266e-01	 6.508828627432402e+00
1	 1.542800140740040e+00	 3.465822965483394e-01	 6.351003998218943e+00
1	 1.535877974336185e+00	 3.760723474274193e-01	 6.155819162573532e+00
1	 1.528350340234982e+00	 4.055820509517725e-01	 5.921237932200979e+00
1	 1.520212102649847e+00	 4.350939272217999e-01	 5.645270305353963e+00
1	 1.511458757921522e+00	 4.645901265052303e-01	 5.325981924522486e+00
1	 1.502086460015668e+00	 4.940524558937504e-01	 4.961503653181940e+00
1	 1.492092044789063e+00	 5.234624078243881e-01	 4.550041216415517e+00
1	 1.481473052876775e+00	 5.528011904084860e-01	 4.089884847008267e+00
1	 1.470227751054849e+00	 5.820497594984342e-01	 3.579418875794889e+00
1	 1.560997272374037e+00	 2.888663456996735e-01	 6.472863245775892e+00
1	 1.555245594932896e+00	 3.183824578802018e-01	 6.345908306792735e+00
1	 1.548898165011282e+00	 3.479521870505585e-01	 6.184297286071318e+00
1	 1.541948638265880e+00	 3.775587993952588e-01	 5.985965178687376e+00
1	 1.534391250670192e+00	 4.071851420637012e-01	 5.748882421773948e+00
1	 1.526220846138085e+00	 4.368136660657752e-01	 5.471064115448696e+00
1	 1.517432903209274e+00	 4.664264511169088e-01	 5.150579419172122e+00
1	 1.508023560647705e+00	 4.960052324000608e-01	 4.785561072484427e+00
1	 1.497989641803662e+00	 5.255314291998369e-01	 4.374214985492931e+00
1	 1.487328677591401e+00	 5.549861753513400e-01	 3.914829841243301e+00
1	 1.476038927936281e+00	 5.843503514336510e-01	 3.405786649265310e+00
1	 1.567142930925859e+00	 2.900036147799436e-01	 6.317157985401997e+00
1	 1.561368609085195e+00	 3.196359321261722e-01	 6.185793779237356e+00
1	 1.554996189281895e+00	 3.493220775527588e-01	 6.020400959909653e+00
1	 1.548019302194916e+00	 3.790452513630554e-01	 5.818922536947374e+00
1	 1.540432161104744e+00	 4.087882331755536e-01	 5.579335511290787e+00
1	 1.532229589625694e+00	 4.385334049096308e-01	 5.299660030565315e+00
1	 1.523407048496457e+00	 4.682627757284142e-01	 4.977968724517631e+00
1	 1.513960661279265e+00	 4.979580089061347e-01	 4.612396170130681e+00
1	 1.503887238817903e+00	 5.276004505749748e-01	 4.201148432342026e+00
1	 1.493184302305821e+00	 5.571711602937992e-01	 3.742512623031744e+00
1	 1.481850104817692e+00	 5.866509433683776e-01	 3.234866418076193e+00
1	 1.573288589477196e+00	 2.911408838602137e-01	 6.164217572179722e+00
1	 1.567491623236923e+00	 3.208894063721380e-01	 6.028452164379171e+00
1	 1.561094213551879e+00	 3.506919680549402e-01	 5.859282085523458e+00
1	 1.554089966123295e+00	 3.805317033308095e-01	 5.654658291937614e+00
1	 1.546473071538638e+00	 4.103913242873297e-01	 5.412564287470373e+00
1	 1.538238333112674e+00	 4.402531437533668e-01	 5.131025213534473e+00
1	 1.529381193783072e+00	 4.700991003397464e-01	 4.808117124025714e+00
1	 1.519897761910345e+00	 4.999107854119714e-01	 4.441976395200255e+00
1	 1.509784835831787e+00	 5.296694719498022e-01	 4.030809216985855e+00
1	 1.499039927020037e+00	 5.593561452358632e-01	 3.572901108921871e+00
1	 1.487661281699082e+00	 5.889515353026149e-01	 3.066626401027531e+00
1	 1.579434248028048e+00	 2.922781529404838e-01	 6.014009731629561e+00
1	 1.573614637388079e+00	 3.221428806180992e-01	 5.873851093588107e+00
1	 1.567192237821233e+00	 3.520618585571028e-01	 5.700908241296959e+00
1	 1.560160630051014e+00	 3.820181552985210e-01	 5.493140011011390e+00
1	 1.552513981971875e+00	 4.119944153990298e-01	 5.248536349300459e+00
1	 1.544247076599027e+00	 4.419728825969831e-01	 4.965127338271232e+00
1	 1.535355339069118e+00	 4.719354249509055e-01	 4.640992410369845e+00
1	 1.525834862540947e+00	 5.018635619175712e-01	 4.274269703401856e+00
1	 1.515682432845313e+00	 5.317384933243188e-01	 3.863165502793460e+00
1	 1.504895551734049e+00	 5.615411301775324e-01	 3.405963714815404e+00
1	 1.493472458580452e+00	 5.912521272363621e-01	 2.901035311568454e+00
1	 1.585579906578415e+00	 2.934154220207539e-01	 5.866502689651591e+00
1	 1.579737651538663e+00	 3.233963548640555e-01	 5.721958700073313e+00
1	 1.573290262089959e+00	 3.534317490592466e-01	 5.545247508275144e+00
1	 1.566231293978076e+00	 3.835046072661898e-01	 5.334335764353627e+00
1	 1.558554892404452e+00	 4.135975065106537e-01	 5.087219798110172e+00
1	 1.550255820084751e+00	 4.436926214404798e-01	 4.801934579870229e+00
1	 1.541329484354596e+00	 4.737717495618914e-01	 4.476562875561935e+00
1	 1.531771963171071e+00	 5.038163384229345e-01	 4.109244547254946e+00
1	 1.521580029858483e+00	 5.338075146985245e-01	 3.698185946725146e+00
1	 1.510751176447856e+00	 5.637261151188064e-01	 3.241669346290032e+00
1	 1.499283635461801e+00	 5.935527191696199e-01	 2.738062348210961e+00
1	 1.591725565128296e+00	 2.945526911010241e-01	 5.721665162865449e+00
1	 1.585860665688677e+00	 3.246498291100073e-01	 5.572743609195125e+00
1	 1.579388286358056e+00	 3.548016395613714e-01	 5.392268460459780e+00
1	 1.572301957904480e+00	 3.849910592338159e-01	 5.178214115273909e+00
1	 1.564595802836372e+00	 4.152005976222014e-01	 4.928583227872210e+00
1	 1.556264563569846e+00	 4.454123602838567e-01	 4.641415604930510e+00
1	 1.547303629639504e+00	 4.756080741727041e-01	 4.314797301312561e+00
1	 1.537709063800717e+00	 5.057691149280610e-01	 3.946869866498837e+00
1	 1.527477626871296e+00	 5.358765360724195e-01	 3.535839689803619e+00
1	 1.516606801161458e+00	 5.659111000596857e-01	 3.079987389146281e+00
1	 1.505094812343129e+00	 5.958533111023879e-01	 2.577677185165791e+00
1	 1.597871223677692e+00	 2.956899601812942e-01	 5.579466349173654e+00
1	 1.591983679838119e+00	 3.259033033559543e-01	 5.426174929000662e+00
1	 1.585486310625523e+00	 3.561715300634775e-01	 5.241940155329566e+00
1	 1.578372621830225e+00	 3.864775112013996e-01	 5.024744110723182e+00
1	 1.570636713267633e+00	 4.168036887336727e-01	 4.772595715728920e+00
1	 1.562273307054313e+00	 4.471320991271142e-01	 4.483539562103440e+00
1	 1.553277774923845e+00	 4.774443987833438e-01	 4.155664949613758e+00
1	 1.543646164429885e+00	 5.077218914329503e-01	 3.787115078722989e+00
1	 1.533375223883752e+00	 5.379455574460040e-01	 3.376096347805176e+00
1	 1.522462425874856e+00	 5.680960850001699e-01	 2.920887700172439e+00
1	 1.510905989224438e+00	 5.981539030346663e-01	 2.419849963194360e+00
1	 1.452794220410432e+00	 5.751479836898463e-01	 4.116912966915590e+00
1	 1.441062403101226e+00	 6.039415537596328e-01	 3.888149955944300e+00
1	 1.428710505798304e+00	 6.326077304316075e-01	 3.631150804843634e+00
1	 1.415739077933607e+00	 6.611271535676618e-01	 3.347391926725397e+00
1	 1.402149453106269e+00	 6.894803558628309e-01	 3.038432768999374e+00
1	 1.387943760658700e+00	 7.176478016487622e-01	 2.705911052530437e+00
1	 1.373124934993508e+00	 7.456099267439584e-01	 2.351537520220291e+00
1	 1.357696722535032e+00	 7.733471791999723e-01	 1.977090216897731e+00
1	 1.341663686250679e+00	 8.008400607833711e-01	 1.584408326833026e+00
1	 1.325031207659498e+00	 8.280691690248432e-01	 1.175385599496554e+00
1	 1.307805486268661e+00	 8.550152396594510e-01	 7.519633983024536e-01
1	 1.458605397291925e+00	 5.774485756265320e-01	 3.934948972042365e+00
1	 1.446826652713034e+00	 6.063573199767659e-01	 3.717233243161101e+00
1	 1.434425347820558e+00	 6.351381613554720e-01	 3.471722224639425e+00
1	 1.421402034244165e+00	 6.637716621839881e-01	 3.199814863954083e+00
1	 1.407758050917385e+00	 6.922382772881277e-01	 2.902990501566692e+00
1	 1.393495535700005e+00	 7.205183928568646e-01	 2.582804371723604e+00
1	 1.378617434732239e+00	 7.485923664519735e-01	 2.240882631632279e+00
1	 1.363127509424127e+00	 7.764405679172131e-01	 1.878916939601664e+00
1	 1.347030340994946e+00	 8.040434210262158e-01	 1.498658606980552e+00
1	 1.330331332489821e+00	 8.313814456997923e-01	 1.101912352855784e+00
1	 1.313036708213954e+00	 8.584353006159450e-01	 6.905296944272461e-01
1	 1.464416574173397e+00	 5.797491675627279e-01	 3.755795383328501e+00
1	 1.452590902325008e+00	 6.087730861933235e-01	 3.548860456793842e+00
1	 1.440140189843133e+00	 6.376685922787043e-01	 3.314567941714639e+00
1	 1.427064990555171e+00	 6.664161707996548e-01	 3.054239776402882e+00
1	 1.413366648729051e+00	 6.949961987127670e-01	 2.769275665555537e+00
1	 1.399047310741927e+00	 7.233889840643412e-01	 2.461148841368781e+00
1	 1.384109934471627e+00	 7.515748061594247e-01	 2.131401371884529e+00
1	 1.368558296313887e+00	 7.795339566339821e-01	 1.781639035866671e+00
1	 1.352396995739855e+00	 8.072467812687117e-01	 1.413525787566131e+00
1	 1.335631457320734e+00	 8.346937223745465e-01	 1.028777838686598e+00
1	 1.318267930159753e+00	 8.618553615724284e-01	 6.291573886535970e-01
1	 1.470227751054849e+00	 5.820497594984342e-01	 3.579418875794889e+00
1	 1.458355151937147e+00	 6.111888524093055e-01	 3.383001431703141e+00
1	 1.445855031866031e+00	 6.401990232013043e-01	 3.159660988114216e+00
1	 1.432727946866629e+00	 6.690606794146613e-01	 2.910642925232912e+00
1	 1.418975246541266e+00	 6.977541201367485e-01	 2.637267777587918e+00
1	 1.404599085784468e+00	 7.262595752711917e-01	 2.340927254147602e+00
1	 1.389602434211672e+00	 7.545572458663122e-01	 2.023079824429458e+00
1	 1.373989083204313e+00	 7.826273453502797e-01	 1.685245888615410e+00
1	 1.357763650485408e+00	 8.104501415108589e-01	 1.329002553565779e+00
1	 1.340931582152236e+00	 8.380059990491053e-01	 9.559780404001037e-01
1	 1.323499152106056e+00	 8.652754225289011e-01	 5.678457529426513e-01
1	 1.476038927936281e+00	 5.843503514336510e-01	 3.405786649265310e+00
1	 1.464119401549451e+00	 6.136046186247126e-01	 3.219626477791274e+00
1	 1.451569873889250e+00	 6.427294541232723e-01	 3.006974820575327e+00
1	 1.438390903178537e+00	 6.717051880290080e-01	 2.769000945445272e+00
1	 1.424583844354031e+00	 7.005120415600723e-01	 2.506946676858598e+00
1	 1.410150860827627e+00	 7.291301664774160e-01	 2.222122673723068e+00
1	 1.395094933952374e+00	 7.575396855726352e-01	 1.915904291877658e+00
1	 1.379419870095404e+00	 7.857207340661058e-01	 1.589727047968694e+00
1	 1.363130305231604e+00	 8.136535017526577e-01	 1.245081705152809e+00
1	 1.346231706984329e+00	 8.413182757234694e-01	 8.835090046605254e-01
1	 1.328730374052866e+00	 8.686954834853633e-01	 5.065940707206318e-01
1	 1.481850104817692e+00	 5.866509433683776e-01	 3.234866418076193e+00
1	 1.469883651161920e+00	 6.160203848395440e-01	 3.058706370687533e+00
1	 1.457284715912793e+00	 6.452598850446081e-01	 2.856483312200140e+00
1	 1.444053859490896e+00	 6.743496966426952e-01	 2.629290838550897e+00
1	 1.430192442167345e+00	 7.032699629827381e-01	 2.378292518810475e+00
1	 1.415702635871404e+00	 7.320007576830144e-01	 2.104718429426315e+00
1	 1.400587433693733e+00	 7.605221252783948e-01	 1.809861291700827e+00
1	 1.384850656987160e+00	 7.888141227814599e-01	 1.495072227967020e+00
1	 1.368496959978442e+00	 8.168568619941075e-01	 1.161756155439010e+00
1	 1.351531831817010e+00	 8.446305523976381e-01	 8.113668401451399e-01
1	 1.333961596000180e+00	 8.721155444418152e-01	 4.454016366542406e-01
1	 1.487661281699082e+00	 5.889515353026149e-01	 3.066626401027531e+00
1	 1.475647900774554e+00	 6.184361510538003e-01	 2.900212342652147e+00
1	 1.462999557936658e+00	 6.477903159653114e-01	 2.708160744323621e+00
1	 1.449716815803705e+00	 6.769942052557227e-01	 2.491489965412136e+00
1	 1.435801039981207e+00	 7.060278844047462e-01	 2.251285768957487e+00
1	 1.421254410915799e+00	 7.348713488879874e-01	 1.988698111067512e+00
1	 1.406079933435749e+00	 7.635045649835898e-01	 1.704937552035048e+00
1	 1.390281443879582e+00	 7.919075114963423e-01	 1.401271303368860e+00
1	 1.373863614725924e+00	 8.200602222352084e-01	 1.079018928268648e+00
1	 1.356831956650282e+00	 8.479428290716119e-01	 7.395477163332449e-01
1	 1.339192817948000e+00	 8.755356053982561e-01	 3.842677564308750e-01
1	 1.493472458580452e+00	 5.912521272363621e-01	 2.901035311568454e+00
1	 1.481412150387353e+00	 6.208519172674809e-01	 2.744116073692283e+00
1	 1.468714399960845e+00	 6.503207468853829e-01	 2.561981798571211e+00
1	 1.455379772116964e+00	 6.796387138680900e-01	 2.355576039251494e+00
1	 1.441409637795619e+00	 7.087858058260963e-01	 2.125907196852385e+00
1	 1.426806185960812e+00	 7.377419400923338e-01	 1.874045563868455e+00
1	 1.411572433178421e+00	 7.664870046882211e-01	 1.601120007582455e+00
1	 1.395712230772668e+00	 7.950009002107532e-01	 1.308314306524012e+00
1	 1.379230269474048e+00	 8.232635824759605e-01	 9.968631560644063e-01
1	 1.362132081484143e+00	 8.512551057453904e-01	 6.680478623232127e-01
1	 1.344424039896325e+00	 8.789556663546864e-01	 3.231917465445535e-01
1	 1.499283635461801e+00	 5.935527191696199e-01	 2.738062348210961e+00
1	 1.487176400000318e+00	 6.232676834805864e-01	 2.590389682884803e+00
1	 1.474429241985355e+00	 6.528511778048220e-01	 2.417921549101432e+00
1	 1.461042728430674e+00	 6.822832224797979e-01	 2.221527118822849e+00
1	 1.447018235610581e+00	 7.115437272467887e-01	 2.002137870194366e+00
1	 1.432357961006444e+00	 7.406125312960544e-01	 1.760744883512606e+00
1	 1.417064932921751e+00	 7.694694443922883e-01	 1.498395795607810e+00
1	 1.401143017666420e+00	 7.980942889246924e-01	 1.216191424319556e+00
1	 1.384596924222816e+00	 8.264669427163642e-01	 9.152820777229933e-01
1	 1.367432206318594e+00	 8.545673824189737e-01	 5.968635656767649e-01
1	 1.349655261845156e+00	 8.823757273111060e-01	 2.621729340860519e-01
1	 1.505094812343129e+00	 5.958533111023879e-01	 2.577677185165791e+00
1	 1.492940649613448e+00	 6.256834496931164e-01	 2.439005719900076e+00
1	 1.480144084010187e+00	 6.553816087236289e-01	 2.275955455027835e+00
1	 1.466705684744835e+00	 6.849277310908459e-01	 2.089321601741162e+00
1	 1.452626833426091e+00	 7.143016486668234e-01	 1.879959149073304e+00
1	 1.437909736052693e+00	 7.434831224991492e-01	 1.648780411309879e+00
1	 1.422557432665738e+00	 7.724518840957914e-01	 1.396752252028254e+00
1	 1.406573804560838e+00	 8.011876776381598e-01	 1.124892995196357e+00
1	 1.389963578972226e+00	 8.296703029564186e-01	 8.342690365595771e-01
1	 1.372732331153635e+00	 8.578796590923621e-01	 5.259911712905958e-01
1	 1.354886483794492e+00	 8.857957882675153e-01	 2.012106565387544e-01
1	 1.510905989224438e+00	 5.981539030346663e-01	 2.419849963194360e+00
1	 1.498704899226743e+00	 6.280992159050709e-01	 2.289937156721242e+00
1	 1.485858926035341e+00	 6.579120396418038e-01	 2.136059353016181e+00
1	 1.472368641059446e+00	 6.875722397012342e-01	 1.958938217965677e+00
1	 1.458235431242151e+00	 7.170595700862002e-01	 1.759352680347024e+00
1	 1.443461511099561e+00	 7.463537137016176e-01	 1.538136729473135e+00
1	 1.428049932410381e+00	 7.754343237987306e-01	 1.296176907592894e+00
1	 1.412004591455921e+00	 8.042810663511559e-01	 1.034409506234683e+00
1	 1.395330233722280e+00	 8.328736631961249e-01	 7.538174783000953e-01
1	 1.378032455989265e+00	 8.611919357655554e-01	 4.554270802940639e-01
1	 1.360117705744333e+00	 8.892158492239139e-01	 1.403042615784611e-01
1	 1.307805486268661e+00	 8.550152396594510e-01	 7.519633983024536e-01
1	 1.289993536392186e+00	 8.816591892757598e-01	-4.781215669578636e-01
1	 1.271603181322287e+00	 9.079821579867418e-01	-1.761328866742766e+00
1	 1.252643044837173e+00	 9.339655519316756e-01	-3.097846560763490e+00
1	 1.233122540044957e+00	 9.595910854157564e-01	-4.487679400436352e+00
1	 1.213051855580902e+00	 9.848408224936506e-01	-5.930645119022468e+00
1	 1.192441939189963e+00	 1.009697217803762e+00	-7.426371650273598e+00
1	 1.171304478742993e+00	 1.034143156462176e+00	-8.974295309096624e+00
1	 1.149651880750912e+00	 1.058161992828915e+00	-1.057365996019877e+01
1	 1.127497246456672e+00	 1.081737587964323e+00	-1.222351719274921e+01
1	 1.104854345600000e+00	 1.104854345600000e+00	-1.392272751087419e+01
1	 1.313036708213954e+00	 8.584353006159450e-01	 6.905296944272461e-01
1	 1.295153510538482e+00	 8.851858260297635e-01	-5.360269874830723e-01
1	 1.276689594048649e+00	 9.116140866148424e-01	-1.815683188402357e+00
1	 1.257653617017774e+00	 9.377014141350201e-01	-3.148609571919195e+00
1	 1.238055030206403e+00	 9.634294497527136e-01	-4.534793230360183e+00
1	 1.217904063004340e+00	 9.887801857788088e-01	-5.974034051352962e+00
1	 1.197211706947519e+00	 1.013736006670265e+00	-7.465942015046217e+00
1	 1.175989696658275e+00	 1.038279729083631e+00	-9.009935454988474e+00
1	 1.154250488273572e+00	 1.062394640796369e+00	-1.060524030809509e+01
1	 1.132007235441336e+00	 1.086064538313068e+00	-1.225089037118935e+01
1	 1.109273762980250e+00	 1.109273762980250e+00	-1.394572857337701e+01
1	 1.318267930159753e+00	 8.618553615724284e-01	 6.291573886535970e-01
1	 1.300313484685193e+00	 8.887124627839414e-01	-5.938002567779059e-01
1	 1.281776006775354e+00	 9.152460152432740e-01	-1.869835424324445e+00
1	 1.262664189198669e+00	 9.414372763388218e-01	-3.199101519481696e+00
1	 1.242987520368112e+00	 9.672678140902248e-01	-4.581568112167148e+00
1	 1.222756270428031e+00	 9.927195490645876e-01	-6.017017379205010e+00
1	 1.201981474705336e+00	 1.017774795537424e+00	-7.505041479625616e+00
1	 1.180674914573848e+00	 1.042416301705748e+00	-9.045040895268620e+00
1	 1.158849095796573e+00	 1.066627288764463e+00	-1.063622376159271e+01
1	 1.136517224426409e+00	 1.090391488662397e+00	-1.227760620562994e+01
1	 1.113693180361000e+00	 1.113693180361000e+00	-1.396801369979023e+01
1	 1.323499152106056e+00	 8.652754225289011e-01	 5.678457529426513e-01
1	 1.305473458832319e+00	 8.922390995382944e-01	-6.514429418515242e-01
1	 1.286862419502405e+00	 9.188779438720364e-01	-1.923787970781495e+00
1	 1.267674761379857e+00	 9.451731385430812e-01	-3.249325617643398e+00
1	 1.247920010530085e+00	 9.711061784282898e-01	-4.628008065004641e+00
1	 1.227608477851973e+00	 9.966589123509875e-01	-6.059599912118227e+00
1	 1.206751242463414e+00	 1.021813584405241e+00	-7.543675627809217e+00
1	 1.185360132489711e+00	 1.046552874328530e+00	-9.079617970320916e+00
1	 1.163447703319914e+00	 1.070859936733196e+00	-1.066661739849220e+01
1	 1.141027213411893e+00	 1.094718439012311e+00	-1.230367249066567e+01
1	 1.118112597742250e+00	 1.118112597742250e+00	-1.398959137947657e+01
1	 1.328730374052866e+00	 8.686954834853633e-01	 5.065940707206318e-01
1	 1.310633432979860e+00	 8.957657362928220e-01	-7.089565850358741e-01
1	 1.291948832229799e+00	 9.225098725011295e-01	-1.977543186309574e+00
1	 1.272685333561339e+00	 9.489090007477977e-01	-3.299285029979282e+00
1	 1.252852500692320e+00	 9.749445427669090e-01	-4.674117044726582e+00
1	 1.232460685276167e+00	 1.000598275638008e+00	-6.101786383891065e+00
1	 1.211521010221754e+00	 1.025852373273715e+00	-7.581849955460542e+00
1	 1.190045350405866e+00	 1.050689446951974e+00	-9.113672920680390e+00
1	 1.168046310843596e+00	 1.075092584702569e+00	-1.069642818513252e+01
1	 1.145537202397786e+00	 1.099045389362810e+00	-1.232909689814113e+01
1	 1.122532015124000e+00	 1.122532015124000e+00	-1.401046996810771e+01
1	 1.333961596000180e+00	 8.721155444418152e-01	 4.454016366542406e-01
1	 1.315793407127817e+00	 8.992923730475251e-01	-7.663427044694680e-01
1	 1.297035244957538e+00	 9.261418011305536e-01	-2.031103392448081e+00
1	 1.277695905743115e+00	 9.526448629529717e-01	-3.348982870439754e+00
1	 1.257784990854818e+00	 9.787829071060822e-01	-4.719898945134196e+00
1	 1.237312892700614e+00	 1.004537638925649e+00	-6.143581454066874e+00
1	 1.216290777980355e+00	 1.029891162142846e+00	-7.619569872233378e+00
1	 1.194730568322311e+00	 1.054826019576082e+00	-9.147211888991382e+00
1	 1.172644918367617e+00	 1.079325232672581e+00	-1.072566297857686e+01
1	 1.150047191384090e+00	 1.103372339713894e+00	-1.235388697955901e+01
1	 1.126951432506250e+00	 1.126951432506250e+00	-1.403065769028628e+01
1	 1.339192817948000e+00	 8.755356053982561e-01	 3.842677564308750e-01
1	 1.320953381276188e+00	 9.028190098024018e-01	-8.236027945699069e-01
1	 1.302121657685622e+00	 9.297737297603085e-01	-2.084470874462401e+00
1	 1.282706477925184e+00	 9.563807251586027e-01	-3.398422204319582e+00
1	 1.262717481017578e+00	 9.826212714458091e-01	-4.765357599188027e+00
1	 1.242165100125312e+00	 1.008477002213910e+00	-6.184989709383145e+00
1	 1.221060545739217e+00	 1.033929951012634e+00	-7.656840703256071e+00
1	 1.199415786239046e+00	 1.058962592200853e+00	-9.180240921919633e+00
1	 1.177243525891979e+00	 1.083557880643232e+00	-1.075432852874684e+01
1	 1.154557180370804e+00	 1.107699290065562e+00	-1.237805016842918e+01
1	 1.131370849889000e+00	 1.131370849889000e+00	-1.405016264210529e+01
1	 1.344424039896325e+00	 8.789556663546864e-01	 3.231917465445535e-01
1	 1.326113355424975e+00	 9.063456465574543e-01	-8.807383264953095e-01
1	 1.307208070414051e+00	 9.334056583903945e-01	-2.137647882049479e+00
1	 1.287717050107547e+00	 9.601165873646914e-01	-3.447606049204913e+00
1	 1.267649971180602e+00	 9.864596357860904e-01	-4.810496780191606e+00
1	 1.247017307550263e+00	 1.012416365502792e+00	-6.226015665188750e+00
1	 1.225830313498341e+00	 1.037968739883080e+00	-7.693667690775078e+00
1	 1.204101004156072e+00	 1.063099164826288e+00	-9.212765972018971e+00
1	 1.181842133416682e+00	 1.087790528614522e+00	-1.078243148050657e+01
1	 1.159067169357928e+00	 1.112026240417816e+00	-1.240159378256490e+01
1	 1.135790267272250e+00	 1.135790267272250e+00	-1.406899279364847e+01
1	 1.349655261845156e+00	 8.823757273111060e-01	 2.621729340860519e-01
1	 1.331273329574176e+00	 9.098722833126813e-01	-9.377507485953065e-01
1	 1.312294483142824e+00	 9.370375870208112e-01	-2.190636630027405e+00
1	 1.292727622290204e+00	 9.638524495712373e-01	-3.496537375897440e+00
1	 1.272582461343888e+00	 9.902980001269256e-01	-4.855320202947846e+00
1	 1.251869514975465e+00	 1.016355728792296e+00	-6.266663766827191e+00
1	 1.230600081257725e+00	 1.042007528754182e+00	-7.730055995762117e+00
1	 1.208786222073389e+00	 1.067235737452386e+00	-9.244792899555909e+00
1	 1.186440740941724e+00	 1.092023176586452e+00	-1.080997837569949e+01
1	 1.163577158345462e+00	 1.116353190770654e+00	-1.242452502632513e+01
1	 1.140209684656000e+00	 1.140209684656000e+00	-1.408715599143242e+01
1	 1.354886483794492e+00	 8.857957882675153e-01	 2.012106565387544e-01
1	 1.336433303723793e+00	 9.133989200680831e-01	-9.946414868509679e-01
1	 1.317380895871940e+00	 9.406695156515589e-01	-2.243439299008416e+00
1	 1.297738194473155e+00	 9.675883117782405e-01	-3.545219109317776e+00
1	 1.277514951507438e+00	 9.941363644683148e-01	-4.899831524887941e+00
1	 1.256721722400919e+00	 1.020295092082419e+00	-6.306938390987717e+00
1	 1.235369849017371e+00	 1.046046317625942e+00	-7.766010699482590e+00
1	 1.213471439990996e+00	 1.071372310079148e+00	-9.276327474290699e+00
1	 1.191039348467107e+00	 1.096255824559021e+00	-1.083697565513638e+01
1	 1.168087147333406e+00	 1.120680141124077e+00	-1.244685099280450e+01
1	 1.144629102040250e+00	 1.144629102040250e+00	-1.410465996079210e+01
1	 1.360117705744333e+00	 8.892158492239139e-01	 1.403042615784611e-01
1	 1.341593277873824e+00	 9.169255568236596e-01	-1.051411945305487e+00
1	 1.322467308601402e+00	 9.443014442826372e-01	-2.296058036056976e+00
1	 1.302748766656399e+00	 9.713241739857011e-01	-3.593654129387881e+00
1	 1.282447441671250e+00	 9.979747288102582e-01	-4.944034347175206e+00
1	 1.261573929826626e+00	 1.024234455373163e+00	-6.346843847026204e+00
1	 1.240139616777278e+00	 1.050085106498359e+00	-7.801536805028496e+00
1	 1.218156657908895e+00	 1.075508882706573e+00	-9.307375377218170e+00
1	 1.195637955992831e+00	 1.100488472532229e+00	-1.086342966053864e+01
1	 1.172597136321760e+00	 1.125007091478085e+00	-1.246857866597309e+01
1	 1.149048519425000e+00	 1.149048519425000e+00	-1.412151230821080e+01
1	 1.104854345600000e+00	 1.104854345600000e+00	-1.392272751087419e+01
1	 1.081737587964323e+00	 1.127497246456672e+00	-1.598156694665879e+01
1	 1.058161992828914e+00	 1.149651880750912e+00	-1.794542893439195e+01
1	 1.034143156462176e+00	 1.171304478742993e+00	-1.980791696474184e+01
1	 1.009697217803762e+00	 1.192441939189963e+00	-2.156299856268431e+01
1	 9.848408224936508e-01	 1.213051855580902e+00	-2.320502730413124e+01
1	 9.595910854157568e-01	 1.233122540044956e+00	-2.472876272707742e+01
1	 9.339655519316764e-01	 1.252643044837173e+00	-2.612938802158719e+01
1	 9.079821579867426e-01	 1.271603181322287e+00	-2.740252540210837e+01
1	 8.816591892757607e-01	 1.289993536392186e+00	-2.854424908556377e+01
1	 8.550152396594510e-01	 1.307805486268661e+00	-2.955109581913084e+01
1	 1.109273762980250e+00	 1.109273762980250e+00	-1.394572857337701e+01
1	 1.086064538313068e+00	 1.132007235441336e+00	-1.598238633083758e+01
1	 1.062394640796369e+00	 1.154250488273572e+00	-1.792142706735217e+01
1	 1.038279729083631e+00	 1.175989696658275e+00	-1.975632838487762e+01
1	 1.013736006670265e+00	 1.197211706947519e+00	-2.148094371906561e+01
1	 9.887801857788093e-01	 1.217904063004340e+00	-2.308952483806598e+01
1	 9.634294497527139e-01	 1.238055030206403e+00	-2.457674216705659e+01
1	 9.377014141350207e-01	 1.257653617017774e+00	-2.593770282038511e+01
1	 9.116140866148432e-01	 1.276689594048648e+00	-2.716796624300759e+01
1	 8.851858260297641e-01	 1.295153510538482e+00	-2.826355738347964e+01
1	 8.584353006159450e-01	 1.313036708213954e+00	-2.922097734187220e+01
1	 1.113693180361000e+00	 1.113693180361000e+00	-1.396801369979023e+01
1	 1.090391488662397e+00	 1.136517224426409e+00	-1.598208804912957e+01
1	 1.066627288764463e+00	 1.158849095796573e+00	-1.789592696141780e+01
1	 1.042416301705748e+00	 1.180674914573848e+00	-1.970288286316858e+01
1	 1.017774795537425e+00	 1.201981474705336e+00	-2.139669575638586e+01
1	 9.927195490645879e-01	 1.222756270428030e+00	-2.297151619738552e+01
1	 9.672678140902250e-01	 1.242987520368112e+00	-2.442192603284605e+01
1	 9.414372763388225e-01	 1.262664189198668e+00	-2.574295677255613e+01
1	 9.152460152432748e-01	 1.281776006775354e+00	-2.693010549873321e+01
1	 8.887124627839423e-01	 1.300313484685192e+00	-2.797934823299661e+01
1	 8.618553615724286e-01	 1.318267930159753e+00	-2.888715070381837e+01
1	 1.118112597742250e+00	 1.118112597742250e+00	-1.398959137947657e+01
1	 1.094718439012311e+00	 1.141027213411893e+00	-1.598068535449120e+01
1	 1.070859936733196e+00	 1.163447703319914e+00	-1.786894638226810e+01
1	 1.046552874328529e+00	 1.185360132489711e+00	-1.964760241868834e+01
1	 1.021813584405241e+00	 1.206751242463414e+00	-2.131028068000929e+01
1	 9.966589123509875e-01	 1.227608477851972e+00	-2.285103109957460e+01
1	 9.711061784282905e-01	 1.247920010530085e+00	-2.426434747354654e+01
1	 9.451731385430816e-01	 1.267674761379856e+00	-2.554518617272368e+01
1	 9.188779438720368e-01	 1.286862419502404e+00	-2.668898231851626e+01
1	 8.922390995382953e-01	 1.305473458832319e+00	-2.769166334298939e+01
1	 8.652754225289012e-01	 1.323499152106057e+00	-2.854965987525631e+01
1	 1.122532015124000e+00	 1.122532015124000e+00	-1.401046996810771e+01
1	 1.099045389362810e+00	 1.145537202397787e+00	-1.597819129117069e+01
1	 1.075092584702569e+00	 1.168046310843595e+00	-1.784050281580768e+01
1	 1.050689446951974e+00	 1.190045350405865e+00	-1.959050872375254e+01
1	 1.025852373273715e+00	 1.211521010221754e+00	-2.122172408576654e+01
1	 1.000598275638008e+00	 1.232460685276167e+00	-2.272809879412596e+01
1	 9.749445427669094e-01	 1.252852500692319e+00	-2.410403911622477e+01
1	 9.489090007477980e-01	 1.272685333561338e+00	-2.534442674394223e+01
1	 9.225098725011300e-01	 1.291948832229799e+00	-2.644463523506443e+01
1	 8.957657362928233e-01	 1.310633432979860e+00	-2.740054376549990e+01
1	 8.686954834853634e-01	 1.328730374052866e+00	-2.820854813402805e+01
1	 1.126951432506250e+00	 1.126951432506250e+00	-1.403065769028628e+01
1	 1.103372339713894e+00	 1.150047191384090e+00	-1.597461869880114e+01
1	 1.079325232672581e+00	 1.172644918367618e+00	-1.781061347365240e+01
1	 1.054826019576082e+00	 1.194730568322310e+00	-1.953162311072011e+01
1	 1.029891162142846e+00	 1.216290777980355e+00	-2.113105116798473e+01
1	 1.004537638925649e+00	 1.237312892700614e+00	-2.260274807171727e+01
1	 9.787829071060827e-01	 1.257784990854817e+00	-2.394103307615119e+01
1	 9.526448629529723e-01	 1.277695905743114e+00	-2.514071364890435e+01
1	 9.261418011305544e-01	 1.297035244957538e+00	-2.619710217665058e+01
1	 8.992923730475255e-01	 1.315793407127816e+00	-2.710602990861645e+01
1	 8.721155444418150e-01	 1.333961596000181e+00	-2.786385807910743e+01
1	 1.131370849889000e+00	 1.131370849889000e+00	-1.405016264210529e+01
1	 1.107699290065562e+00	 1.154557180370804e+00	-1.596998021639571e+01
1	 1.083557880643232e+00	 1.177243525891979e+00	-1.777929529848693e+01
1	 1.058962592200854e+00	 1.199415786239046e+00	-1.947096657863090e+01
1	 1.033929951012635e+00	 1.221060545739217e+00	-2.103828672733031e+01
1	 1.008477002213911e+00	 1.242165100125312e+00	-2.247500727317149e+01
1	 9.826212714458099e-01	 1.262717481017578e+00	-2.377536096679444e+01
1	 9.563807251586035e-01	 1.282706477925184e+00	-2.493408150088619e+01
1	 9.297737297603094e-01	 1.302121657685622e+00	-2.594642047891877e+01
1	 9.028190098024031e-01	 1.320953381276187e+00	-2.680816154905106e+01
1	 8.755356053982560e-01	 1.339192817948000e+00	-2.751563164385984e+01
1	 1.135790267272250e+00	 1.135790267272250e+00	-1.406899279364847e+01
1	 1.112026240417816e+00	 1.159067169357928e+00	-1.596428828625146e+01
1	 1.087790528614522e+00	 1.181842133416682e+00	-1.774656496929600e+01
1	 1.063099164826289e+00	 1.204101004156072e+00	-1.940855979969167e+01
1	 1.037968739883080e+00	 1.225830313498340e+00	-2.094345517846648e+01
1	 1.012416365502793e+00	 1.247017307550262e+00	-2.234490429820933e+01
1	 9.864596357860909e-01	 1.267649971180602e+00	-2.360705390958526e+01
1	 9.601165873646920e-01	 1.287717050107547e+00	-2.472456437443546e+01
1	 9.334056583903951e-01	 1.307208070414050e+00	-2.569262689641334e+01
1	 9.063456465574551e-01	 1.326113355424974e+00	-2.650697784442378e+01
1	 8.789556663546864e-01	 1.344424039896325e+00	-2.716391010899079e+01
1	 1.140209684656000e+00	 1.140209684656000e+00	-1.408715599143242e+01
1	 1.116353190770654e+00	 1.163577158345462e+00	-1.595755515776200e+01
1	 1.092023176586452e+00	 1.186440740941724e+00	-1.771243890647591e+01
1	 1.067235737452387e+00	 1.208786222073389e+00	-1.934442312561028e+01
1	 1.042007528754183e+00	 1.230600081257725e+00	-2.084658055753501e+01
1	 1.016355728792296e+00	 1.251869514975465e+00	-2.221246661399784e+01
1	 9.902980001269259e-01	 1.272582461343888e+00	-2.343614254345156e+01
1	 9.638524495712381e-01	 1.292727622290204e+00	-2.451219581581263e+01
1	 9.370375870208120e-01	 1.312294483142823e+00	-2.543575761384114e+01
1	 9.098722833126820e-01	 1.331273329574175e+00	-2.620251734525851e+01
1	 8.823757273111060e-01	 1.349655261845156e+00	-2.680873411519568e+01
1	 1.144629102040250e+00	 1.144629102040250e+00	-1.410465996079210e+01
1	 1.120680141124077e+00	 1.168087147333406e+00	-1.594979289114078e+01
1	 1.096255824559021e+00	 1.191039348467107e+00	-1.767693327682583e+01
1	 1.071372310079148e+00	 1.213471439990996e+00	-1.927857659378177e+01
1	 1.046046317625942e+00	 1.235369849017371e+00	-2.074768652946273e+01
1	 1.020295092082419e+00	 1.256721722400919e+00	-2.207772126350080e+01
1	 9.941363644683151e-01	 1.277514951507437e+00	-2.326265703413335e+01
1	 9.675883117782412e-01	 1.297738194473155e+00	-2.429700885318901e+01
1	 9.406695156515595e-01	 1.317380895871940e+00	-2.517584825707159e+01
1	 9.133989200680839e-01	 1.336433303723792e+00	-2.589481800670578e+01
1	 8.857957882675153e-01	 1.354886483794492e+00	-2.645014367551395e+01
1	 1.149048519425000e+00	 1.149048519425000e+00	-1.412151230821080e+01
1	 1.125007091478085e+00	 1.172597136321760e+00	-1.594101336105964e+01
1	 1.100488472532229e+00	 1.195637955992831e+00	-1.764006399842510e+01
1	 1.075508882706574e+00	 1.218156657908895e+00	-1.921103993333417e+01
1	 1.050085106498359e+00	 1.240139616777278e+00	-2.064679639510076e+01
1	 1.024234455373164e+00	 1.261573929826626e+00	-2.194069487363626e+01
1	 9.979747288102585e-01	 1.282447441671249e+00	-2.308662708328193e+01
1	 9.713241739857018e-01	 1.302748766656399e+00	-2.407903600661071e+01
1	 9.443014442826381e-01	 1.322467308601402e+00	-2.491293390388391e+01
1	 9.169255568236604e-01	 1.341593277873824e+00	-2.558391719999000e+01
1	 8.892158492239141e-01	 1.360117705744333e+00	-2.608817818740050e+01
1	 8.550152396594510e-01	 1.307805486268661e+00	-2.955109581913084e+01
1	 8.280691690248430e-01	 1.325031207659498e+00	-2.973687961347711e+01
1	 8.008400607833711e-01	 1.341663686250679e+00	-2.991473923212219e+01
1	 7.733471791999724e-01	 1.357696722535032e+00	-3.008547800873575e+01
1	 7.456099267439587e-01	 1.373124934993508e+00	-3.024989628991989e+01
1	 7.176478016487625e-01	 1.387943760658700e+00	-3.040878807019592e+01
1	 6.894803558628312e-01	 1.402149453106268e+00	-3.056293774712150e+01
1	 6.611271535676625e-01	 1.415739077933607e+00	-3.071311701476021e+01
1	 6.326077304316082e-01	 1.428710505798304e+00	-3.086008191205640e+01
1	 6.039415537596338e-01	 1.441062403101226e+00	-3.100457004088030e+01
1	 5.751479836898462e-01	 1.452794220410432e+00	-3.114729796664458e+01
1	 8.584353006159450e-01	 1.313036708213954e+00	-2.922097734187220e+01
1	 8.313814456997922e-01	 1.330331332489821e+00	-2.937071855971396e+01
1	 8.040434210262158e-01	 1.347030340994946e+00	-2.951717113837971e+01
1	 7.764405679172129e-01	 1.363127509424127e+00	-2.966129294437462e+01
1	 7.485923664519737e-01	 1.378617434732239e+00	-2.980401840605292e+01
1	 7.205183928568650e-01	 1.393495535700005e+00	-2.994625497955435e+01
1	 6.922382772881284e-01	 1.407758050917385e+00	-3.008887984520550e+01
1	 6.637716621839886e-01	 1.421402034244164e+00	-3.023273685033887e+01
1	 6.351381613554726e-01	 1.434425347820557e+00	-3.037863371200595e+01
1	 6.063573199767668e-01	 1.446826652713035e+00	-3.052733949051753e+01
1	 5.774485756265320e-01	 1.458605397291925e+00	-3.067958234217747e+01
1	 8.618553615724286e-01	 1.318267930159753e+00	-2.888715070381837e+01
1	 8.346937223745464e-01	 1.335631457320734e+00	-2.900141256242315e+01
1	 8.072467812687117e-01	 1.352396995739855e+00	-2.911698231113312e+01
1	 7.795339566339824e-01	 1.368558296313887e+00	-2.923497164827583e+01
1	 7.515748061594252e-01	 1.384109934471627e+00	-2.935644849090945e+01
1	 7.233889840643415e-01	 1.399047310741927e+00	-2.948243327212979e+01
1	 6.949961987127676e-01	 1.413366648729051e+00	-2.961389557865643e+01
1	 6.664161707996552e-01	 1.427064990555171e+00	-2.975175114240284e+01
1	 6.376685922787050e-01	 1.440140189843133e+00	-2.989685919643889e+01
1	 6.087730861933243e-01	 1.452590902325008e+00	-3.005002020246721e+01
1	 5.797491675627279e-01	 1.464416574173397e+00	-3.021197395367150e+01
1	 8.652754225289012e-01	 1.323499152106057e+00	-2.854965987525631e+01
1	 8.380059990491054e-01	 1.340931582152236e+00	-2.862899891342612e+01
1	 8.104501415108589e-01	 1.357763650485408e+00	-2.871420382627523e+01
1	 7.826273453502798e-01	 1.373989083204313e+00	-2.880653945125164e+01
1	 7.545572458663122e-01	 1.389602434211672e+00	-2.890720660810237e+01
1	 7.262595752711919e-01	 1.404599085784468e+00	-2.901733822796296e+01
1	 6.977541201367492e-01	 1.418975246541267e+00	-2.913799593203417e+01
1	 6.690606794146621e-01	 1.432727946866629e+00	-2.927016707130808e+01
1	 6.401990232013050e-01	 1.445855031866030e+00	-2.941476223470676e+01
1	 6.111888524093066e-01	 1.458355151937147e+00	-2.957261322895243e+01
1	 5.820497594984342e-01	 1.470227751054849e+00	-2.974447152955016e+01
1	 8.686954834853634e-01	 1.328730374052866e+00	-2.820854813402805e+01
1	 8.413182757234693e-01	 1.346231706984328e+00	-2.825351431727254e+01
1	 8.136535017526578e-01	 1.363130305231604e+00	-2.830886627031450e+01
1	 7.857207340661055e-01	 1.379419870095404e+00	-2.837602128520377e+01
1	 7.575396855726354e-01	 1.395094933952374e+00	-2.845631250528164e+01
1	 7.291301664774165e-01	 1.410150860827627e+00	-2.855098488646398e+01
1	 7.005120415600727e-01	 1.424583844354030e+00	-2.866119171691337e+01
1	 6.717051880290086e-01	 1.438390903178536e+00	-2.878799170433498e+01
1	 6.427294541232730e-01	 1.451569873889250e+00	-2.893234663522651e+01
1	 6.136046186247135e-01	 1.464119401549450e+00	-2.909511960562471e+01
1	 5.843503514336509e-01	 1.476038927936281e+00	-2.927707381826212e+01
1	 8.721155444418150e-01	 1.333961596000181e+00	-2.786385807910743e+01
1	 8.446305523976381e-01	 1.351531831817011e+00	-2.787499490275394e+01
1	 8.168568619941073e-01	 1.368496959978442e+00	-2.790099974997143e+01
1	 7.888141227814599e-01	 1.384850656987160e+00	-2.794344169094525e+01
1	 7.605221252783949e-01	 1.400587433693733e+00	-2.800378562033028e+01
1	 7.320007576830150e-01	 1.415702635871404e+00	-2.808338805113084e+01
1	 7.032699629827385e-01	 1.430192442167344e+00	-2.818349357527548e+01
1	 6.743496966426958e-01	 1.444053859490895e+00	-2.830523199790329e+01
1	 6.452598850446088e-01	 1.457284715912793e+00	-2.844961614667498e+01
1	 6.160203848395449e-01	 1.469883651161920e+00	-2.861754035189077e+01
1	 5.866509433683776e-01	 1.481850104817692e+00	-2.880977958788833e+01
1	 8.755356053982560e-01	 1.339192817948000e+00	-2.751563164385984e+01
1	 8.479428290716118e-01	 1.356831956650282e+00	-2.749347623414980e+01
1	 8.200602222352082e-01	 1.373863614725924e+00	-2.749063390154868e+01
1	 7.919075114963425e-01	 1.390281443879582e+00	-2.750882482583913e+01
1	 7.635045649835900e-01	 1.406079933435748e+00	-2.754964508741450e+01
1	 7.348713488879877e-01	 1.421254410915799e+00	-2.761456229415675e+01
1	 7.060278844047467e-01	 1.435801039981207e+00	-2.770491198282114e+01
1	 6.769942052557231e-01	 1.449716815803704e+00	-2.782189479973982e+01
1	 6.477903159653122e-01	 1.462999557936657e+00	-2.796657445915601e+01
1	 6.184361510538011e-01	 1.475647900774554e+00	-2.813987647122864e+01
1	 5.889515353026147e-01	 1.487661281699082e+00	-2.834258762575796e+01
1	 8.789556663546864e-01	 1.344424039896325e+00	-2.716391010899079e+01
1	 8.512551057453903e-01	 1.362132081484143e+00	-2.710899332220965e+01
1	 8.232635824759605e-01	 1.379230269474048e+00	-2.707779790008424e+01
1	 7.950009002107533e-01	 1.395712230772668e+00	-2.707219447125834e+01
1	 7.664870046882212e-01	 1.411572433178421e+00	-2.709390974289265e+01
1	 7.377419400923343e-01	 1.426806185960812e+00	-2.714452196093058e+01
1	 7.087858058260970e-01	 1.441409637795619e+00	-2.722545725220478e+01
1	 6.796387138680906e-01	 1.455379772116964e+00	-2.733798685099115e+01
1	 6.503207468853838e-01	 1.468714399960845e+00	-2.748322520534030e+01
1	 6.208519172674818e-01	 1.481412150387353e+00	-2.766212895149896e+01
1	 5.912521272363623e-01	 1.493472458580452e+00	-2.787549673807512e+01
1	 8.823757273111060e-01	 1.349655261845156e+00	-2.680873411519568e+01
1	 8.545673824189736e-01	 1.367432206318594e+00	-2.672158063488149e+01
1	 8.264669427163641e-01	 1.384596924222816e+00	-2.666252046828902e+01
1	 7.980942889246926e-01	 1.401143017666420e+00	-2.663357403987259e+01
1	 7.694694443922886e-01	 1.417064932921751e+00	-2.663659813108597e+01
1	 7.406125312960549e-01	 1.432357961006443e+00	-2.667328117443167e+01
1	 7.115437272467893e-01	 1.447018235610580e+00	-2.674513953619496e+01
1	 6.822832224797986e-01	 1.461042728430674e+00	-2.685351478829075e+01
1	 6.528511778048227e-01	 1.474429241985354e+00	-2.699957196157739e+01
1	 6.232676834805871e-01	 1.487176400000318e+00	-2.718429876524527e+01
1	 5.935527191696199e-01	 1.499283635461801e+00	-2.740850574955186e+01
1	 8.857957882675153e-01	 1.354886483794492e+00	-2.645014367551395e+01
1	 8.578796590923619e-01	 1.372732331153635e+00	-2.633127210778945e+01
1	 8.296703029564185e-01	 1.389963578972226e+00	-2.624482988528088e+01
1	 8.011876776381598e-01	 1.406573804560837e+00	-2.619298658276579e+01
1	 7.724518840957916e-01	 1.422557432665737e+00	-2.617772850991759e+01
1	 7.434831224991493e-01	 1.437909736052693e+00	-2.620085383952424e+01
1	 7.143016486668240e-01	 1.452626833426091e+00	-2.626396883076064e+01
1	 6.849277310908466e-01	 1.466705684744835e+00	-2.636848514577536e+01
1	 6.553816087236299e-01	 1.480144084010187e+00	-2.651561824898412e+01
1	 6.256834496931172e-01	 1.492940649613448e+00	-2.670638686999209e+01
1	 5.958533111023879e-01	 1.505094812343129e+00	-2.694161350305175e+01
1	 8.892158492239141e-01	 1.360117705744333e+00	-2.608817818740050e+01
1	 8.611919357655553e-01	 1.378032455989265e+00	-2.593810115447108e+01
1	 8.328736631961249e-01	 1.395330233722280e+00	-2.582475399511406e+01
1	 8.042810663511559e-01	 1.412004591455920e+00	-2.575045479638951e+01
1	 7.754343237987309e-01	 1.428049932410381e+00	-2.571731885641928e+01
1	 7.463537137016183e-01	 1.443461511099561e+00	-2.572725364715155e+01
1	 7.170595700862009e-01	 1.458235431242151e+00	-2.578195497808663e+01
1	 6.875722397012348e-01	 1.472368641059446e+00	-2.588290435705606e+01
1	 6.579120396418046e-01	 1.485858926035341e+00	-2.603136753450609e+01
1	 6.280992159050719e-01	 1.498704899226743e+00	-2.622839420853259e+01
1	 5.981539030346663e-01	 1.510905989224438e+00	-2.647481885924013e+01
1	 5.751479836898462e-01	 1.452794220410432e+00	-3.114729796664458e+01
1	 5.462462355775531e-01	 1.463906178731671e+00	-3.114165369087260e+01
1	 5.172553436961776e-01	 1.474399253743126e+00	-3.113545055287922e+01
1	 4.881941263733983e-01	 1.484275158116687e+00	-3.112835343293569e+01
1	 4.590811526691558e-01	 1.493536322054853e+00	-3.112003458981442e+01
1	 4.299347106891563e-01	 1.502185872181363e+00	-3.111017483355901e+01
1	 4.007727776155301e-01	 1.510227608925401e+00	-3.109846461851305e+01
1	 3.716129915236462e-01	 1.517665982543151e+00	-3.108460505262954e+01
1	 3.424726250415698e-01	 1.524506067922538e+00	-3.106830881991307e+01
1	 3.133685608962740e-01	 1.530753538317988e+00	-3.104930101364911e+01
1	 2.843172693785931e-01	 1.536414638161893e+00	-3.102731987887631e+01
1	 5.774485756265320e-01	 1.458605397291925e+00	-3.067958234217747e+01
1	 5.484312205215922e-01	 1.469761803446910e+00	-3.068198180744112e+01
1	 5.193243650725585e-01	 1.480296850758795e+00	-3.068319185578093e+01
1	 4.901469028804192e-01	 1.490212258750159e+00	-3.068289912841776e+01
1	 4.609174772813538e-01	 1.499510467344311e+00	-3.068079962726712e+01
1	 4.316544495334906e-01	 1.508194615671486e+00	-3.067659971933112e+01
1	 4.023758687276873e-01	 1.516268519362587e+00	-3.067001705801641e+01
1	 3.730994434916134e-01	 1.523736646474820e+00	-3.066078141864106e+01
1	 3.438425155438454e-01	 1.530604092195668e+00	-3.064863544616538e+01
1	 3.146220351422631e-01	 1.536876552472572e+00	-3.063333531395721e+01
1	 2.854545384588631e-01	 1.542560296715657e+00	-3.061465129312905e+01
1	 5.797491675627279e-01	 1.464416574173397e+00	-3.021197395367150e+01
1	 5.506162054652365e-01	 1.475617428161945e+00	-3.022247731209127e+01
1	 5.213933864486286e-01	 1.486194447774108e+00	-3.023116680982428e+01
1	 4.920996793872032e-01	 1.496149359383153e+00	-3.023775065185019e+01
1	 4.627538018933788e-01	 1.505484612633201e+00	-3.024194837592054e+01
1	 4.333741883777052e-01	 1.514203359160981e+00	-3.024349168952739e+01
1	 4.039789598397683e-01	 1.522309429799113e+00	-3.024212522048172e+01
1	 3.745858954595381e-01	 1.529807310405832e+00	-3.023760717958407e+01
1	 3.452124060461023e-01	 1.536702116468168e+00	-3.022970993462058e+01
1	 3.158755093882477e-01	 1.542999566626585e+00	-3.021822049562489e+01
1	 2.865918075391333e-01	 1.548705955268936e+00	-3.020294091203413e+01
1	 5.820497594984342e-01	 1.470227751054849e+00	-2.974447152955016e+01
1	 5.528011904084855e-01	 1.481473052876775e+00	-2.976313821998027e+01
1	 5.234624078243881e-01	 1.492092044789063e+00	-2.977937264443923e+01
1	 4.940524558937505e-01	 1.502086460015668e+00	-2.979290437681248e+01
1	 4.645901265052305e-01	 1.511458757921521e+00	-2.980347628583761e+01
1	 4.350939272218002e-01	 1.520212102649847e+00	-2.981084520559686e+01
1	 4.055820509517730e-01	 1.528350340234982e+00	-2.981478251630796e+01
1	 3.760723474274201e-01	 1.535877974336185e+00	-2.981507463512328e+01
1	 3.465822965483402e-01	 1.542800140740040e+00	-2.981152341734707e+01
1	 3.171289836342275e-01	 1.549122580780026e+00	-2.980394646914958e+01
1	 2.877290766194034e-01	 1.554851613821729e+00	-2.979217737348170e+01
1	 5.843503514336509e-01	 1.476038927936281e+00	-2.927707381826212e+01
1	 5.549861753513398e-01	 1.487328677591400e+00	-2.930396257752417e+01
1	 5.255314291998369e-01	 1.497989641803661e+00	-2.932780663268759e+01
1	 4.960052324000611e-01	 1.508023560647705e+00	-2.934835673399280e+01
1	 4.664264511169090e-01	 1.517432903209274e+00	-2.936537887873399e+01
1	 4.368136660657755e-01	 1.526220846138085e+00	-2.937865481620852e+01
1	 4.071851420637017e-01	 1.534391250670192e+00	-2.938798245966676e+01
1	 3.775587993952594e-01	 1.541948638265880e+00	-2.939317620618769e+01
1	 3.479521870505594e-01	 1.548898165011282e+00	-2.939406716606592e+01
1	 3.183824578802027e-01	 1.555245594932896e+00	-2.939050330391899e+01
1	 2.888663456996736e-01	 1.560997272374037e+00	-2.938234949429205e+01
1	 5.866509433683776e-01	 1.481850104817692e+00	-2.880977958788833e+01
1	 5.571711602937991e-01	 1.493184302305821e+00	-2.884494846178255e+01
1	 5.276004505749751e-01	 1.503887238817903e+00	-2.887646609040640e+01
1	 4.979580089061347e-01	 1.513960661279264e+00	-2.890410421006899e+01
1	 4.682627757284144e-01	 1.523407048496457e+00	-2.892765174657299e+01
1	 4.385334049096312e-01	 1.532229589625694e+00	-2.894691515554291e+01
1	 4.087882331755541e-01	 1.540432161104744e+00	-2.896171866646846e+01
1	 3.790452513630562e-01	 1.548019302194916e+00	-2.897190443259397e+01
1	 3.493220775527597e-01	 1.554996189281895e+00	-2.897733258941165e+01
1	 3.196359321261731e-01	 1.561368609085195e+00	-2.897788122509458e+01
1	 2.900036147799436e-01	 1.567142930925859e+00	-2.897344626670808e+01
1	 5.889515353026147e-01	 1.487661281699082e+00	-2.834258762575796e+01
1	 5.593561452358632e-01	 1.499039927020037e+00	-2.838609397986118e+01
1	 5.296694719498021e-01	 1.509784835831786e+00	-2.842534837537268e+01
1	 4.999107854119714e-01	 1.519897761910345e+00	-2.846014334661442e+01
1	 4.700991003397467e-01	 1.529381193783072e+00	-2.849029055019324e+01
1	 4.402531437533670e-01	 1.538238333112675e+00	-2.851562094162141e+01
1	 4.103913242873304e-01	 1.546473071538638e+00	-2.853598485237513e+01
1	 3.805317033308102e-01	 1.554089966123294e+00	-2.855125197072410e+01
1	 3.506919680549410e-01	 1.561094213551879e+00	-2.856131123025991e+01
1	 3.208894063721390e-01	 1.567491623236923e+00	-2.856607061057030e+01
1	 2.911408838602137e-01	 1.573288589477196e+00	-2.856545685496913e+01
1	 5.912521272363623e-01	 1.493472458580452e+00	-2.787549673807512e+01
1	 5.615411301775322e-01	 1.504895551734049e+00	-2.792739726832728e+01
1	 5.317384933243187e-01	 1.515682432845313e+00	-2.797445088648762e+01
1	 5.018635619175714e-01	 1.525834862540947e+00	-2.801647073902982e+01
1	 4.719354249509057e-01	 1.535355339069118e+00	-2.805329101796882e+01
1	 4.419728825969835e-01	 1.544247076599027e+00	-2.808476697467546e+01
1	 4.119944153990303e-01	 1.552513981971874e+00	-2.811077483085913e+01
1	 3.820181552985216e-01	 1.560160630051014e+00	-2.813121159125810e+01
1	 3.520618585571035e-01	 1.567192237821233e+00	-2.814599476311398e+01
1	 3.221428806181000e-01	 1.573614637388079e+00	-2.815506198799995e+01
1	 2.922781529404839e-01	 1.579434248028048e+00	-2.815837059196436e+01
1	 5.935527191696199e-01	 1.499283635461801e+00	-2.740850574955186e+01
1	 5.637261151188064e-01	 1.510751176447856e+00	-2.746885649263850e+01
1	 5.338075146985244e-01	 1.521580029858483e+00	-2.752377106297954e+01
1	 5.038163384229346e-01	 1.531771963171071e+00	-2.757308303550084e+01
1	 4.737717495618916e-01	 1.541329484354596e+00	-2.761664894450180e+01
1	 4.436926214404802e-01	 1.550255820084750e+00	-2.765434813555248e+01
1	 4.135975065106542e-01	 1.558554892404452e+00	-2.768608251130789e+01
1	 3.835046072661905e-01	 1.566231293978076e+00	-2.771177617695749e+01
1	 3.534317490592473e-01	 1.573290262089959e+00	-2.773137499155474e+01
1	 3.233963548640565e-01	 1.579737651538663e+00	-2.774484603189546e+01
1	 2.934154220207539e-01	 1.585579906578415e+00	-2.775217697596428e+01
1	 5.958533111023879e-01	 1.505094812343129e+00	-2.694161350305175e+01
1	 5.659111000596855e-01	 1.516606801161459e+00	-2.701046984658506e+01
1	 5.358765360724195e-01	 1.527477626871297e+00	-2.707330638362507e+01
1	 5.057691149280611e-01	 1.537709063800717e+00	-2.712997693597823e+01
1	 4.756080741727043e-01	 1.547303629639504e+00	-2.718036018934047e+01
1	 4.454123602838571e-01	 1.556264563569846e+00	-2.722435938416087e+01
1	 4.152005976222019e-01	 1.564595802836371e+00	-2.726190189717299e+01
1	 3.849910592338166e-01	 1.572301957904479e+00	-2.729293872050343e+01
1	 3.548016395613723e-01	 1.579388286358056e+00	-2.731744384574904e+01
1	 3.246498291100082e-01	 1.585860665688677e+00	-2.733541356079215e+01
1	 2.945526911010241e-01	 1.591725565128296e+00	-2.734686566742853e+01
1	 5.981539030346663e-01	 1.510905989224438e+00	-2.647481885924013e+01
1	 5.680960850001697e-01	 1.522462425874857e+00	-2.655223555174525e+01
1	 5.379455574460040e-01	 1.533375223883753e+00	-2.662305436598955e+01
1	 5.077218914329505e-01	 1.543646164429884e+00	-2.668714919118288e+01
1	 4.774443987833440e-01	 1.553277774923845e+00	-2.674442067573410e+01
1	 4.471320991271145e-01	 1.562273307054313e+00	-2.679479575794842e+01
1	 4.168036887336734e-01	 1.570636713267633e+00	-2.683822708415988e+01
1	 3.864775112014002e-01	 1.578372621830225e+00	-2.687469232238151e+01
1	 3.561715300634783e-01	 1.585486310625523e+00	-2.690419338001414e+01
1	 3.259033033559553e-01	 1.591983679838119e+00	-2.692675553447826e+01
1	 2.956899601812942e-01	 1.597871223677692e+00	-2.694242648588673e+01
1	 2.843172693785931e-01	 1.536414638161893e+00	-3.102731987887631e+01
1	 2.553347877472805e-01	 1.541496155098853e+00	-3.103050290911127e+01
1	 2.264367015805608e-01	 1.546005391384669e+00	-3.102970449601838e+01
1	 1.976381280733380e-01	 1.549950134791623e+00	-3.102524117758161e+01
1	 1.689537012681203e-01	 1.553338629157681e+00	-3.101743472594766e+01
1	 1.403975591971896e-01	 1.556179544710306e+00	-3.100661063509614e+01
1	 1.119833329051127e-01	 1.558481948292365e+00	-3.099309665946380e+01
1	 8.372413731224189e-02	 1.560255273611354e+00	-3.097722140965872e+01
1	 5.563256387227331e-02	 1.561509291626922e+00	-3.095931301062219e+01
1	 2.772067497008558e-02	 1.562254081185013e+00	-3.093969782681687e+01
1	 0.000000000000000e+00	 1.562500000000000e+00	-3.091869925826052e+01
1	 2.854545384588631e-01	 1.542560296715657e+00	-3.061465129312905e+01
1	 2.563561269013357e-01	 1.547662139720148e+00	-3.062410853175992e+01
1	 2.273424483901226e-01	 1.552189412950914e+00	-3.063197520896679e+01
1	 1.984286805889098e-01	 1.556149935331327e+00	-3.063849964947660e+01
1	 1.696295160763778e-01	 1.559551983674704e+00	-3.064393024454433e+01
1	 1.409591494369407e-01	 1.562404262889418e+00	-3.064851441063405e+01
1	 1.124312662393456e-01	 1.564715876085706e+00	-3.065249759951498e+01
1	 8.405903386362944e-02	 1.566496294705896e+00	-3.065612236314013e+01
1	 5.585509412930571e-02	 1.567755328793471e+00	-3.065962747607460e+01
1	 2.783155767079539e-02	 1.568503097509764e+00	-3.066324711765130e+01
1	 0.000000000000000e+00	 1.568750000000000e+00	-3.066721011546894e+01
1	 2.865918075391333e-01	 1.548705955268936e+00	-3.020294091203413e+01
1	 2.573774660553910e-01	 1.553828124341051e+00	-3.021861031364381e+01
1	 2.282481951996844e-01	 1.558373434516852e+00	-3.023506289250455e+01
1	 1.992192331044815e-01	 1.562349735870797e+00	-3.025247919922460e+01
1	 1.703053308846354e-01	 1.565765338191557e+00	-3.027103470837389e+01
1	 1.415207396766917e-01	 1.568628981068412e+00	-3.029089924583020e+01
1	 1.128791995735786e-01	 1.570949803878972e+00	-3.031223646800361e+01
1	 8.439393041501703e-02	 1.572737315800395e+00	-3.033520339355229e+01
1	 5.607762438633811e-02	 1.574001365960003e+00	-3.035994998778019e+01
1	 2.794244037150521e-02	 1.574752113834509e+00	-3.038661879950429e+01
1	 0.000000000000000e+00	 1.575000000000000e+00	-3.041534464980764e+01
1	 2.877290766194034e-01	 1.554851613821729e+00	-2.979217737348170e+01
1	 2.583988052094463e-01	 1.559994108961564e+00	-2.981399762836874e+01
1	 2.291539420092462e-01	 1.564557456082482e+00	-2.983895785923369e+01
1	 2.000097856200533e-01	 1.568549536410034e+00	-2.986717127649548e+01
1	 1.709811456928930e-01	 1.571978692708238e+00	-2.989874089674179e+01
1	 1.420823299164427e-01	 1.574853699247288e+00	-2.993375943642009e+01
1	 1.133271329078116e-01	 1.577183731672164e+00	-2.997230925787330e+01
1	 8.472882696640460e-02	 1.578978336894853e+00	-3.001446236559551e+01
1	 5.630015464337051e-02	 1.580247403126516e+00	-3.006028045032901e+01
1	 2.805332307221503e-02	 1.581001130159251e+00	-3.010981497841114e+01
1	 0.000000000000000e+00	 1.581250000000000e+00	-3.016310732360317e+01
1	 2.888663456996736e-01	 1.560997272374037e+00	-2.938234949429205e+01
1	 2.594201443635016e-01	 1.566160093581686e+00	-2.941026001688575e+01
1	 2.300596888188081e-01	 1.570741477647806e+00	-2.944365057431335e+01
1	 2.008003381356250e-01	 1.574749336949036e+00	-2.948256746560980e+01
1	 1.716569605011506e-01	 1.578192047224750e+00	-2.952704170266549e+01
1	 1.426439201561938e-01	 1.581078417426047e+00	-2.957708936796972e+01
1	 1.137750662420445e-01	 1.583417659465282e+00	-2.963271202517040e+01
1	 8.506372351779215e-02	 1.585219357989269e+00	-2.969389717759689e+01
1	 5.652268490040292e-02	 1.586493440293011e+00	-2.976061876981329e+01
1	 2.816420577292484e-02	 1.587250146483988e+00	-2.983283772724143e+01
1	 0.000000000000000e+00	 1.587500000000000e+00	-2.991050252890906e+01
1	 2.900036147799436e-01	 1.567142930925859e+00	-2.897344626670808e+01
1	 2.604414835175569e-01	 1.572326078201417e+00	-2.900738718420908e+01
1	 2.309654356283699e-01	 1.576925499212823e+00	-2.904913165246905e+01
1	 2.015908906511968e-01	 1.580949137487806e+00	-2.909865948289843e+01
1	 1.723327753094082e-01	 1.584405401741090e+00	-2.915593013064390e+01
1	 1.432055103959447e-01	 1.587303135604688e+00	-2.922088351411499e+01
1	 1.142229995762775e-01	 1.589651587258324e+00	-2.929344088780765e+01
1	 8.539862006917975e-02	 1.591460379083644e+00	-2.937350576085096e+01
1	 5.674521515743533e-02	 1.592739477459488e+00	-2.946096485379863e+01
1	 2.827508847363466e-02	 1.593499162808720e+00	-2.955568908634910e+01
1	 0.000000000000000e+00	 1.593750000000000e+00	-2.965753458888410e+01
1	 2.911408838602137e-01	 1.573288589477196e+00	-2.856545685496913e+01
1	 2.614628226716121e-01	 1.578492062820757e+00	-2.860536899621230e+01
1	 2.318711824379317e-01	 1.583109520777533e+00	-2.865539185507058e+01
1	 2.023814431667685e-01	 1.587148938026342e+00	-2.871543917412549e+01
1	 1.730085901176658e-01	 1.590618756257261e+00	-2.878539929448155e+01
1	 1.437671006356958e-01	 1.593527853783212e+00	-2.886513643484105e+01
1	 1.146709329105105e-01	 1.595885515051292e+00	-2.895449202435544e+01
1	 8.573351662056733e-02	 1.597701400177977e+00	-2.905328607897604e+01
1	 5.696774541446772e-02	 1.598985514625945e+00	-2.916131861129445e+01
1	 2.838597117434448e-02	 1.599748179133447e+00	-2.927837106420722e+01
1	 0.000000000000000e+00	 1.600000000000000e+00	-2.940420775913780e+01
1	 2.922781529404839e-01	 1.579434248028048e+00	-2.815837059196436e+01
1	 2.624841618256674e-01	 1.584658047439706e+00	-2.820419547649832e+01
1	 2.327769292474935e-01	 1.589293542341936e+00	-2.826242208728057e+01
1	 2.031719956823402e-01	 1.593348738564645e+00	-2.833289851196877e+01
1	 1.736844049259234e-01	 1.596832110773261e+00	-2.841544241516046e+01
1	 1.443286908754468e-01	 1.599752571961618e+00	-2.850984277480251e+01
1	 1.151188662447435e-01	 1.602119442844184e+00	-2.861586167286147e+01
1	 8.606841317195489e-02	 1.603942421272267e+00	-2.873323612728492e+01
1	 5.719027567150013e-02	 1.605231551792385e+00	-2.886167995272716e+01
1	 2.849685387505430e-02	 1.605997195458171e+00	-2.900088563802923e+01
1	 0.000000000000000e+00	 1.606250000000000e+00	-2.915052622904421e+01
1	 2.934154220207539e-01	 1.585579906578415e+00	-2.775217697596428e+01
1	 2.635055009797226e-01	 1.590824032058265e+00	-2.780385680334304e+01
1	 2.336826760570553e-01	 1.595477563906032e+00	-2.787021339526649e+01
1	 2.039625481979120e-01	 1.599548539102714e+00	-2.795102959356054e+01
1	 1.743602197341809e-01	 1.603045465289091e+00	-2.804605281876379e+01
1	 1.448902811151979e-01	 1.605977290139907e+00	-2.815499726168294e+01
1	 1.155667995789764e-01	 1.608353370637003e+00	-2.827754612969783e+01
1	 8.640330972334247e-02	 1.610183442366516e+00	-2.841335393217072e+01
1	 5.741280592853253e-02	 1.611477588958806e+00	-2.856204878991128e+01
1	 2.860773657576412e-02	 1.612246211782890e+00	-2.872323475437330e+01
1	 0.000000000000000e+00	 1.612500000000000e+00	-2.889649412302610e+01
1	 2.945526911010241e-01	 1.591725565128296e+00	-2.734686566742853e+01
1	 2.645268401337780e-01	 1.596990016676433e+00	-2.740434330670923e+01
1	 2.345884228666171e-01	 1.601661585469822e+00	-2.747875696347876e+01
1	 2.047531007134838e-01	 1.605748339640549e+00	-2.756982463808494e+01
1	 1.750360345424385e-01	 1.609258819804750e+00	-2.767722393444695e+01
1	 1.454518713549488e-01	 1.612202008318077e+00	-2.780059470459099e+01
1	 1.160147329132094e-01	 1.614587298429746e+00	-2.793954174843667e+01
1	 8.673820627473004e-02	 1.616424463460724e+00	-2.809363755050699e+01
1	 5.763533618556493e-02	 1.617723626125208e+00	-2.826242503602320e+01
1	 2.871861927647393e-02	 1.618495228107603e+00	-2.844542032973528e+01
1	 0.000000000000000e+00	 1.618750000000000e+00	-2.864211550180838e+01
1	 2.956899601812942e-01	 1.597871223677692e+00	-2.694242648588673e+01
1	 2.655481792878333e-01	 1.603156001294210e+00	-2.700564546532976e+01
1	 2.354941696761790e-01	 1.607845607033304e+00	-2.708804411199132e+01
1	 2.055436532290555e-01	 1.611948140178152e+00	-2.718927598443183e+01
1	 1.757118493506961e-01	 1.615472174320238e+00	-2.730894929245530e+01
1	 1.460134615946999e-01	 1.618426726496131e+00	-2.744662999249583e+01
1	 1.164626662474424e-01	 1.620821226222415e+00	-2.760184493874796e+01
1	 8.707310282611766e-02	 1.622665484554890e+00	-2.777408506906157e+01
1	 5.785786644259735e-02	 1.623969663291593e+00	-2.796280860557550e+01
1	 2.882950197718375e-02	 1.624744244432313e+00	-2.816744425112715e+01
1	 0.000000000000000e+00	 1.625000000000000e+00	-2.838739436364363e+01
1	 1.625000000000000e+00	 0.000000000000000e+00	 8.349524584310426e+00
1	 1.624744244432312e+00	 2.882950197718282e-02	 8.153839177994165e+00
1	 1.623969663291593e+00	 5.785786644259654e-02	 7.938912172443649e+00
1	 1.622665484554890e+00	 8.707310282611692e-02	 7.705079909928685e+00
1	 1.620821226222414e+00	 1.164626662474418e-01	 7.452736371127128e+00
1	 1.618426726496131e+00	 1.460134615946994e-01	 7.182334166584313e+00
1	 1.615472174320239e+00	 1.757118493506958e-01	 6.894385312717563e+00
1	 1.611948140178151e+00	 2.055436532290552e-01	 6.589461775868711e+00
1	 1.607845607033305e+00	 2.354941696761788e-01	 6.268195768596688e+00
1	 1.603156001294210e+00	 2.655481792878331e-01	 5.931279783279653e+00
1	 1.597871223677692e+00	 2.956899601812942e-01	 5.579466349173654e+00
1	 1.631250000000000e+00	 0.000000000000000e+00	 8.206412632612420e+00
1	 1.630993260757022e+00	 2.894038467780288e-02	 8.007784265466345e+00
1	 1.630215700457977e+00	 5.808039669946277e-02	 7.790453084522325e+00
1	 1.628906505649055e+00	 8.740799937727568e-02	 7.554784098982852e+00
1	 1.627055154015083e+00	 1.169105995813973e-01	 7.301199489834224e+00
1	 1.624651444674184e+00	 1.465750518341386e-01	 7.030179479249732e+00
1	 1.621685528835727e+00	 1.763876641586219e-01	 6.742262980857755e+00
1	 1.618147940715754e+00	 2.063342057442909e-01	 6.438048014909270e+00
1	 1.614029628596787e+00	 2.363999164854151e-01	 6.118191873123083e+00
1	 1.609321985911987e+00	 2.665695184415890e-01	 5.783411018924500e+00
1	 1.604016882227088e+00	 2.968272292613070e-01	 5.434480709923071e+00
1	 1.637500000000000e+00	 0.000000000000000e+00	 8.065174009122131e+00
1	 1.637242277081736e+00	 2.905126737824340e-02	 7.863657965636758e+00
1	 1.636461737624380e+00	 5.830292695599672e-02	 7.643974769811603e+00
1	 1.635147526743263e+00	 8.774289592797678e-02	 7.406517950557136e+00
1	 1.633289081807826e+00	 1.173585329147979e-01	 7.151737744277026e+00
1	 1.630876162852355e+00	 1.471366420729544e-01	 6.880141842765921e+00
1	 1.627898883351387e+00	 1.770634789658854e-01	 6.592295918307405e+00
1	 1.624347741253588e+00	 2.071247582588545e-01	 6.288823910533480e+00
1	 1.620213650160576e+00	 2.373056632940006e-01	 5.970408060410556e+00
1	 1.615487970530155e+00	 2.675908575947465e-01	 5.637788677708376e+00
1	 1.610162540776969e+00	 2.979644983408051e-01	 5.291763629494450e+00
1	 1.643750000000000e+00	 0.000000000000000e+00	 7.925787345074355e+00
1	 1.643491293406455e+00	 2.916215007850441e-02	 7.721438279118973e+00
1	 1.642707774790801e+00	 5.852545721219839e-02	 7.499454633938391e+00
1	 1.641388547837511e+00	 8.807779247822020e-02	 7.260258312606005e+00
1	 1.639523009600644e+00	 1.178064662476435e-01	 7.004327463704348e+00
1	 1.637100881030644e+00	 1.476982323111466e-01	 6.732197108262877e+00
1	 1.634112237867216e+00	 1.777392937724860e-01	 6.444459540244655e+00
1	 1.630547541791658e+00	 2.079153107727461e-01	 6.141764485669457e+00
1	 1.626397671724672e+00	 2.382114101019352e-01	 5.824819006320801e+00
1	 1.621653955148714e+00	 2.686121967473053e-01	 5.494387135032545e+00
1	 1.616308199327335e+00	 2.991017674197885e-01	 5.151289230790886e+00
1	 1.650000000000000e+00	 0.000000000000000e+00	 7.788231595473154e+00
1	 1.649740309731178e+00	 2.927303277858588e-02	 7.581103539850568e+00
1	 1.648953811957240e+00	 5.874798746806775e-02	 7.356870424868743e+00
1	 1.647629568931803e+00	 8.841268902800600e-02	 7.115982383872590e+00
1	 1.645756937393537e+00	 1.182543995799342e-01	 6.858945336012916e+00
1	 1.643325599209050e+00	 1.482598225487153e-01	 6.586321492762607e+00
1	 1.640325592383216e+00	 1.784151085784239e-01	 6.298729634345136e+00
1	 1.636747342329961e+00	 2.087058632859655e-01	 5.996845141685931e+00
1	 1.632581693289076e+00	 2.391171569092189e-01	 5.681399770414579e+00
1	 1.627819939767663e+00	 2.696335358992655e-01	 5.353181154549761e+00
1	 1.622453857878187e+00	 3.002390364982573e-01	 5.013032028792566e+00
1	 1.656250000000000e+00	 0.000000000000000e+00	 7.652486032982933e+00
1	 1.655989326055906e+00	 2.938391547848783e-02	 7.442632408804106e+00
1	 1.655199849123698e+00	 5.897051772360483e-02	 7.216200226448448e+00
1	 1.653870590026135e+00	 8.874758557733416e-02	 6.973667707269995e+00
1	 1.651990865186505e+00	 1.187023329116699e-01	 6.715568400980256e+00
1	 1.649550317387574e+00	 1.488214127856604e-01	 6.442491572275458e+00
1	 1.646538946899387e+00	 1.790909233836990e-01	 6.155082353753413e+00
1	 1.642947142868497e+00	 2.094964157985129e-01	 5.854041651251620e+00
1	 1.638765714853786e+00	 2.400229037158518e-01	 5.540125788712106e+00
1	 1.633985924387004e+00	 2.706548750506270e-01	 5.214145880838704e+00
1	 1.628599516429524e+00	 3.013763055762114e-01	 4.876966923159303e+00
1	 1.662500000000000e+00	 0.000000000000000e+00	 7.518530241957421e+00
1	 1.662238342380638e+00	 2.949479817821026e-02	 7.306003867839845e+00
1	 1.661445886290174e+00	 5.919304797880959e-02	 7.077422452089582e+00
1	 1.660111611120509e+00	 8.908248212620462e-02	 6.833292163411882e+00
1	 1.658224792979547e+00	 1.191502662428507e-01	 6.574174043650432e+00
1	 1.655775035566215e+00	 1.493830030219821e-01	 6.300684275052275e+00
1	 1.652752301415727e+00	 1.797667381883114e-01	 6.013494210213466e+00
1	 1.649146943407266e+00	 2.102869683103881e-01	 5.713330151356074e+00
1	 1.644949736418803e+00	 2.409286505218337e-01	 5.400972866616729e+00
1	 1.640151909006735e+00	 2.716762142013901e-01	 5.077256832243831e+00
1	 1.634745174981347e+00	 3.025135746536508e-01	 4.743069190999523e+00
1	 1.668750000000000e+00	 0.000000000000000e+00	 7.386344112602862e+00
1	 1.668487358705375e+00	 2.960568087775316e-02	 7.171197213696651e+00
1	 1.667691923456669e+00	 5.941557823368207e-02	 6.940515838598874e+00
1	 1.666352632214926e+00	 8.941737867461748e-02	 6.694833964288550e+00
1	 1.664458720772665e+00	 1.195981995734766e-01	 6.434739987868417e+00
1	 1.661999753744974e+00	 1.499445932576803e-01	 6.160876874988089e+00
1	 1.658965655932239e+00	 1.804425529922609e-01	 5.873942067353282e+00
1	 1.655346743946269e+00	 2.110775208215913e-01	 5.574687136487134e+00
1	 1.651133757984127e+00	 2.418343973271648e-01	 5.263917171997707e+00
1	 1.646317893626857e+00	 2.726975533515545e-01	 4.942489893875882e+00
1	 1.640890833533655e+00	 3.036508437305756e-01	 4.611314479802051e+00
1	 1.675000000000000e+00	 0.000000000000000e+00	 7.255907835271669e+00
1	 1.674736375030116e+00	 2.971656357711654e-02	 7.038192052117283e+00
1	 1.673937960623183e+00	 5.963810848822224e-02	 6.805459440144213e+00
1	 1.672593653309383e+00	 8.975227522257265e-02	 6.558271647084561e+00
1	 1.670692648565856e+00	 1.200461329035475e-01	 6.297244289959058e+00
1	 1.668224471923850e+00	 1.505061834927549e-01	 6.023046985173538e+00
1	 1.665179010448921e+00	 1.811183677955477e-01	 5.736403134119764e+00
1	 1.661546544485506e+00	 2.118680733321223e-01	 5.438089451961144e+00
1	 1.657317779549757e+00	 2.427401441318451e-01	 5.128935228427611e+00
1	 1.652483878247370e+00	 2.737188925011204e-01	 4.809821310769353e+00
1	 1.647036492086448e+00	 3.047881128069856e-01	 4.481678800525983e+00
1	 1.681250000000000e+00	 0.000000000000000e+00	 7.127201894883626e+00
1	 1.680985391354862e+00	 2.982744627630038e-02	 6.906968292104952e+00
1	 1.680183997789714e+00	 5.986063874243013e-02	 6.672232622355677e+00
1	 1.678834674403883e+00	 9.008717177007020e-02	 6.423584068134087e+00
1	 1.676926576359123e+00	 1.204940662330635e-01	 6.161665332547322e+00
1	 1.674449190102844e+00	 1.510677737272060e-01	 5.887172551590178e+00
1	 1.671392364965773e+00	 1.817941825981718e-01	 5.600854958360334e+00
1	 1.667746345024976e+00	 2.126586258419814e-01	 5.303514287402045e+00
1	 1.663501801115695e+00	 2.436458909358743e-01	 4.996003908571016e+00
1	 1.658649862868273e+00	 2.747402316500875e-01	 4.679227681192372e+00
1	 1.653182150639726e+00	 3.059253818828811e-01	 4.354138520844771e+00
1	 1.687500000000000e+00	 0.000000000000000e+00	 7.000207065470812e+00
1	 1.687234407679612e+00	 2.993832897530472e-02	 6.777506140307217e+00
1	 1.686430034956264e+00	 6.008316899630570e-02	 6.540815056557824e+00
1	 1.685075695498425e+00	 9.042206831711008e-02	 6.290750397010942e+00
1	 1.683160504152464e+00	 1.209419995620246e-01	 6.027981818515548e+00
1	 1.680673908281956e+00	 1.516293639610336e-01	 5.753231846945751e+00
1	 1.677605719482796e+00	 1.824699974001331e-01	 5.467275420546848e+00
1	 1.673946145564679e+00	 2.134491783511683e-01	 5.170939170365279e+00
1	 1.669685822681940e+00	 2.445516377392528e-01	 4.865100427719526e+00
1	 1.664815847489567e+00	 2.757615707984563e-01	 4.550685950105381e+00
1	 1.659327809193490e+00	 3.070626509582619e-01	 4.228670358540338e+00
1	 1.597871223677692e+00	 2.956899601812942e-01	 5.579466349173654e+00
1	 1.591983679838119e+00	 3.259033033559543e-01	 5.426174929000662e+00
1	 1.585486310625523e+00	 3.561715300634775e-01	 5.241940155329566e+00
1	 1.578372621830225e+00	 3.864775112013996e-01	 5.024744110723182e+00
1	 1.570636713267633e+00	 4.168036887336727e-01	 4.772595715728920e+00
1	 1.562273307054313e+00	 4.471320991271142e-01	 4.483539562103440e+00
1	 1.553277774923845e+00	 4.774443987833438e-01	 4.155664949613758e+00
1	 1.543646164429885e+00	 5.077218914329503e-01	 3.787115078722989e+00
1	 1.533375223883752e+00	 5.379455574460040e-01	 3.376096347805176e+00
1	 1.522462425874856e+00	 5.680960850001699e-01	 2.920887700172439e+00
1	 1.510905989224438e+00	 5.981539030346663e-01	 2.419849963194360e+00
1	 1.604016882227088e+00	 2.968272292613070e-01	 5.434480709923071e+00
1	 1.598106693987561e+00	 3.271567776016917e-01	 5.276094520343255e+00
1	 1.591584334892991e+00	 3.575414205654170e-01	 5.087872880066897e+00
1	 1.584443285755970e+00	 3.879639631688548e-01	 4.867857012166724e+00
1	 1.576677623698894e+00	 4.184067798450495e-01	 4.614113308904761e+00
1	 1.568282050538780e+00	 4.488518379703053e-01	 4.324741885273971e+00
1	 1.559251920208185e+00	 4.792807233939407e-01	 3.997885334221378e+00
1	 1.549583265059052e+00	 5.096746679378159e-01	 3.631737637542654e+00
1	 1.539272820896208e+00	 5.400145788195776e-01	 3.224553182860261e+00
1	 1.528318050588254e+00	 5.702810699406513e-01	 2.774655833807996e+00
1	 1.516717166105746e+00	 6.004544949669445e-01	 2.280447997600152e+00
1	 1.610162540776969e+00	 2.979644983408051e-01	 5.291763629494450e+00
1	 1.604229708137575e+00	 3.284102518470145e-01	 5.128442035307053e+00
1	 1.597682359161087e+00	 3.589113110670421e-01	 4.936386518454747e+00
1	 1.590513949682374e+00	 3.894504151360964e-01	 4.713697074888790e+00
1	 1.582718534130813e+00	 4.200098709563130e-01	 4.458497207355092e+00
1	 1.574290794023876e+00	 4.505715768134840e-01	 4.168942200665745e+00
1	 1.565226065493094e+00	 4.811170480046260e-01	 3.843227596774282e+00
1	 1.555520365688698e+00	 5.116274444428701e-01	 3.479597825319366e+00
1	 1.545170417909021e+00	 5.420836001934404e-01	 3.076354941808376e+00
1	 1.534173675301857e+00	 5.724660548815224e-01	 2.631867422394166e+00
1	 1.522528342987074e+00	 6.027550868997125e-01	 2.144578961313266e+00
1	 1.616308199327335e+00	 2.991017674197885e-01	 5.151289230790886e+00
1	 1.610352722288160e+00	 3.296637260919227e-01	 4.983189778945825e+00
1	 1.603780383429813e+00	 3.602812015683529e-01	 4.787451630413889e+00
1	 1.596584613609435e+00	 3.909368671031240e-01	 4.562233190586584e+00
1	 1.588759444563391e+00	 4.216129620674633e-01	 4.305714715583662e+00
1	 1.580299537509599e+00	 4.522913156566502e-01	 4.016106310650478e+00
1	 1.571200210778572e+00	 4.829533726153993e-01	 3.691656126499491e+00
1	 1.561457466318821e+00	 5.135802209481133e-01	 3.330658710926984e+00
1	 1.551068014922191e+00	 5.441526215675925e-01	 2.931463469627349e+00
1	 1.540029300015664e+00	 5.746510398227832e-01	 2.492483186980993e+00
1	 1.528339519868424e+00	 6.050556788329703e-01	 2.012202554764417e+00
1	 1.622453857878187e+00	 3.002390364982573e-01	 5.013032028792566e+00
1	 1.616475736439317e+00	 3.309172003364162e-01	 4.840310475933946e+00
1	 1.609878407699167e+00	 3.616510920693493e-01	 4.641039221926835e+00
1	 1.602655277537155e+00	 3.924233190699378e-01	 4.413434722295192e+00
1	 1.594800354996627e+00	 4.232160531785004e-01	 4.155733633480449e+00
1	 1.586308280995952e+00	 4.540110544998036e-01	 3.866200535745686e+00
1	 1.577174356064618e+00	 4.847896972262606e-01	 3.543135852181156e+00
1	 1.567394566949424e+00	 5.155329974535450e-01	 3.184883922801803e+00
1	 1.556965611935718e+00	 5.462216429420339e-01	 2.789841189401322e+00
1	 1.545884924729675e+00	 5.768360247644334e-01	 2.356464443754041e+00
1	 1.534150696749794e+00	 6.073562707667176e-01	 1.883279088983772e+00
1	 1.628599516429524e+00	 3.013763055762114e-01	 4.876966923159303e+00
1	 1.622598750591044e+00	 3.321706745804952e-01	 4.699777262648602e+00
1	 1.615976431969151e+00	 3.630209825700317e-01	 4.497120736621651e+00
1	 1.608725941465533e+00	 3.939097710365377e-01	 4.267271495494419e+00
1	 1.600841265430521e+00	 4.248191442894241e-01	 4.008522246974785e+00
1	 1.592317024482932e+00	 4.557307933429447e-01	 3.719191704838352e+00
1	 1.583148501351233e+00	 4.866260218372102e-01	 3.397632231980209e+00
1	 1.573331667580505e+00	 5.174857739591656e-01	 3.042237638384729e+00
1	 1.562863208949602e+00	 5.482906643167647e-01	 2.651451091413085e+00
1	 1.551740549443892e+00	 5.790210097064734e-01	 2.223773092805428e+00
1	 1.539961873631183e+00	 6.096568627009548e-01	 1.757769474080144e+00
1	 1.634745174981347e+00	 3.025135746536508e-01	 4.743069190999523e+00
1	 1.628721764743343e+00	 3.334241488241595e-01	 4.561563679431239e+00
1	 1.622074456239764e+00	 3.643908730703995e-01	 4.355668047545431e+00
1	 1.614796605394570e+00	 3.953962230029239e-01	 4.123713789416172e+00
1	 1.606882175865073e+00	 4.264222354002347e-01	 3.864049318899258e+00
1	 1.598325767970541e+00	 4.574505321860730e-01	 3.575047145629152e+00
1	 1.589122646638416e+00	 4.884623464482479e-01	 3.255111243483636e+00
1	 1.579268768212064e+00	 5.194385504649748e-01	 2.902684573801738e+00
1	 1.568760805963843e+00	 5.503596856917847e-01	 2.516256722482430e+00
1	 1.557596174158312e+00	 5.812059946489029e-01	 2.094371607158128e+00
1	 1.545773050512594e+00	 6.119574546356817e-01	 1.635635207980167e+00
1	 1.640890833533655e+00	 3.036508437305756e-01	 4.611314479802051e+00
1	 1.634844778896213e+00	 3.346776230674092e-01	 4.425643663022661e+00
1	 1.628172480511006e+00	 3.657607635704529e-01	 4.216653449122828e+00
1	 1.620867269324265e+00	 3.968826749690960e-01	 3.982732328547313e+00
1	 1.612923086300283e+00	 4.280253265109321e-01	 3.722284080058930e+00
1	 1.604334511458780e+00	 4.591702710291890e-01	 3.433734675291376e+00
1	 1.595096791926168e+00	 4.902986710593737e-01	 3.115539373977449e+00
1	 1.585205868844101e+00	 5.213913269709728e-01	 2.766189973776090e+00
1	 1.574658402978441e+00	 5.524287070670939e-01	 2.384222175544124e+00
1	 1.563451798872938e+00	 5.833909795917220e-01	 1.968223022036889e+00
1	 1.551584227394026e+00	 6.142580465708982e-01	 1.516838365420480e+00
1	 1.647036492086448e+00	 3.047881128069856e-01	 4.481678800525983e+00
1	 1.640967793049654e+00	 3.359310973102442e-01	 4.291991539167515e+00
1	 1.634270504782878e+00	 3.671306540701922e-01	 4.080049649294530e+00
1	 1.626937933254618e+00	 3.983691269350544e-01	 3.844298274322566e+00
1	 1.618963996736152e+00	 4.296284176215161e-01	 3.583196220500577e+00
1	 1.610343254947646e+00	 4.608900098722922e-01	 3.295222591338907e+00
1	 1.601070937214489e+00	 4.921349956705876e-01	 2.978883610937354e+00
1	 1.591142969476616e+00	 5.233441034771597e-01	 2.632719601766431e+00
1	 1.580555999993397e+00	 5.544977284426924e-01	 2.255312079459227e+00
1	 1.569307423587768e+00	 5.855759645349308e-01	 1.845290924379454e+00
1	 1.557395404275478e+00	 6.165586385066044e-01	 1.401341587186303e+00
1	 1.653182150639726e+00	 3.059253818828811e-01	 4.354138520844771e+00
1	 1.647090807203667e+00	 3.371845715526647e-01	 4.160582015383691e+00
1	 1.640368529055378e+00	 3.685005445696171e-01	 3.945829761831031e+00
1	 1.633008597185629e+00	 3.998555789007989e-01	 3.708383217002886e+00
1	 1.625004907172679e+00	 4.312315087319870e-01	 3.446755880976541e+00
1	 1.616351998437140e+00	 4.626097487153829e-01	 3.159479662698033e+00
1	 1.607045082503378e+00	 4.939713202818896e-01	 2.845111432731530e+00
1	 1.597080070109610e+00	 5.252968799835352e-01	 2.502239730324913e+00
1	 1.586453597008709e+00	 5.565667498185802e-01	 2.129491589053579e+00
1	 1.575163048302802e+00	 5.877609494785292e-01	 1.725539442581659e+00
1	 1.563206581156950e+00	 6.188592304428004e-01	 1.289108069590107e+00
1	 1.659327809193490e+00	 3.070626509582619e-01	 4.228670358540338e+00
1	 1.653213821358251e+00	 3.384380457946705e-01	 4.031390173892541e+00
1	 1.646466553328508e+00	 3.698704350687277e-01	 3.813967298817293e+00
1	 1.639079261117299e+00	 4.013420308663297e-01	 3.574959167734218e+00
1	 1.631045817609864e+00	 4.328345998423445e-01	 3.312933644598261e+00
1	 1.622360741927263e+00	 4.643294875584612e-01	 3.026475120977544e+00
1	 1.613019227792837e+00	 4.958076448932799e-01	 2.714190799530092e+00
1	 1.603017170743082e+00	 5.272496564900995e-01	 2.374717131669478e+00
1	 1.592351194024379e+00	 5.586357711947575e-01	 2.006726375377755e+00
1	 1.581018673018042e+00	 5.899459344225172e-01	 1.608933236470415e+00
1	 1.569017758038443e+00	 6.211598223794863e-01	 1.180101554184112e+00
1	 1.510905989224438e+00	 5.981539030346663e-01	 2.419849963194360e+00
1	 1.498704899226743e+00	 6.280992159050709e-01	 2.289937156721242e+00
1	 1.485858926035341e+00	 6.579120396418038e-01	 2.136059353016181e+00
1	 1.472368641059446e+00	 6.875722397012342e-01	 1.958938217965677e+00
1	 1.458235431242151e+00	 7.170595700862002e-01	 1.759352680347024e+00
1	 1.443461511099561e+00	 7.463537137016176e-01	 1.538136729473135e+00
1	 1.428049932410381e+00	 7.754343237987306e-01	 1.296176907592894e+00
1	 1.412004591455921e+00	 8.042810663511559e-01	 1.034409506234683e+00
1	 1.395330233722280e+00	 8.328736631961249e-01	 7.538174783000953e-01
1	 1.378032455989265e+00	 8.611919357655554e-01	 4.554270802940639e-01
1	 1.360117705744333e+00	 8.892158492239139e-01	 1.403042615784611e-01
1	 1.516717166105746e+00	 6.004544949669445e-01	 2.280447997600152e+00
1	 1.504469148840036e+00	 6.305149821170279e-01	 2.164385108162635e+00
1	 1.491573768060486e+00	 6.604424705599883e-01	 2.023645623021955e+00
1	 1.478031597374035e+00	 6.902167483116444e-01	 1.858787662179201e+00
1	 1.463844029058172e+00	 7.198174915056160e-01	 1.670426807146404e+00
1	 1.449013286146367e+00	 7.492243049041473e-01	 1.459234579888264e+00
1	 1.433542432154936e+00	 7.784167635017578e-01	 1.225936629547037e+00
1	 1.417435378350883e+00	 8.073744550642719e-01	 9.713106319152762e-01
1	 1.400696888472175e+00	 8.360770234359882e-01	 6.961839090350586e-01
1	 1.383332580824695e+00	 8.645042124389481e-01	 4.014307787146230e-01
1	 1.365348927693926e+00	 8.926359101805599e-01	 8.796964613142344e-02
1	 1.522528342987074e+00	 6.027550868997125e-01	 2.144578961313266e+00
1	 1.510233398453159e+00	 6.329307483295651e-01	 2.041883830066537e+00
1	 1.497288610085289e+00	 6.629729014788242e-01	 1.913806036788695e+00
1	 1.483694553688130e+00	 6.928612569227576e-01	 1.760741090619566e+00
1	 1.469452626873565e+00	 7.225754129257673e-01	 1.583142161091980e+00
1	 1.454565061192434e+00	 7.520948961074250e-01	 1.381519235114331e+00
1	 1.439034931898658e+00	 7.813992032055255e-01	 1.156437994697891e+00
1	 1.422866165244939e+00	 8.104678437781002e-01	 9.085184161891411e-01
1	 1.406063543221113e+00	 8.392803836765154e-01	 6.384330939774718e-01
1	 1.388632705659136e+00	 8.678164891129364e-01	 3.469052938942077e-01
1	 1.370580149642520e+00	 8.960559711377108e-01	 3.470674377405092e-02
1	 1.528339519868424e+00	 6.050556788329703e-01	 2.012202554764417e+00
1	 1.515997648066111e+00	 6.353465145426825e-01	 1.922398522773929e+00
1	 1.503003452109750e+00	 6.655033323983115e-01	 1.806511231463307e+00
1	 1.489357510001732e+00	 6.955057655345744e-01	 1.664774503469700e+00
1	 1.475061224688332e+00	 7.253333343466544e-01	 1.497480020964219e+00
1	 1.460116836237761e+00	 7.549654873114507e-01	 1.304977157456144e+00
1	 1.444527431641547e+00	 7.843816429100335e-01	 1.087672543238920e+00
1	 1.428296952138089e+00	 8.135612324926409e-01	 8.460293610509813e-01
1	 1.411430197969092e+00	 8.424837439177071e-01	 5.805663705331359e-01
1	 1.393932830492587e+00	 8.711287657875193e-01	 2.918566621445731e-01
1	 1.375811371590114e+00	 8.994760320953675e-01	-1.947385666882484e-02
1	 1.534150696749794e+00	 6.073562707667176e-01	 1.883279088983772e+00
1	 1.521761897678894e+00	 6.377622807563802e-01	 1.805894913893253e+00
1	 1.508718294133869e+00	 6.680337633184505e-01	 1.701732289084377e+00
1	 1.495020466314838e+00	 6.981502741470951e-01	 1.570864264546153e+00
1	 1.480669822502471e+00	 7.280912557682772e-01	 1.413421949198266e+00
1	 1.465668611282346e+00	 7.578360785162249e-01	 1.229595014334959e+00
1	 1.450019931383603e+00	 7.873640826152816e-01	 1.019631943542588e+00
1	 1.433727739030334e+00	 8.166546212078941e-01	 7.838400214956931e-01
1	 1.416796852716114e+00	 8.456871041595622e-01	 5.225850558440617e-01
1	 1.399232955325050e+00	 8.744410424626973e-01	 2.362908283182656e-01
1	 1.381042593536707e+00	 9.028960930535290e-01	-7.456172680904349e-02
1	 1.539961873631183e+00	 6.096568627009548e-01	 1.757769474080144e+00
1	 1.527526147291506e+00	 6.401780469706577e-01	 1.692339248351955e+00
1	 1.514433136157647e+00	 6.705641942392412e-01	 1.599440728187947e+00
1	 1.500683422627451e+00	 7.007947827603189e-01	 1.478987094437971e+00
1	 1.486278420315984e+00	 7.308491771906359e-01	 1.330949786532235e+00
1	 1.471220386326192e+00	 7.607066697217463e-01	 1.155359674418622e+00
1	 1.455512431124825e+00	 7.903465223212703e-01	 9.523079897417024e-01
1	 1.439158525921672e+00	 8.197480099238595e-01	 7.219470045182359e-01
1	 1.422163507462178e+00	 8.488904644020812e-01	 4.644904471709173e-01
1	 1.404533080156522e+00	 8.777533191384700e-01	 1.802136475340959e-01
1	 1.386273815482302e+00	 9.063161540121963e-01	-1.305465956680778e-01
1	 1.545773050512594e+00	 6.119574546356817e-01	 1.635635207980167e+00
1	 1.533290396903949e+00	 6.425938131855157e-01	 1.581698278672536e+00
1	 1.520147978181083e+00	 6.730946251606833e-01	 1.499608495602760e+00
1	 1.506346378939569e+00	 7.034392913742459e-01	 1.389120063800528e+00
1	 1.491887018128869e+00	 7.336070986137296e-01	 1.250045646775732e+00
1	 1.476772161369298e+00	 7.635772609280164e-01	 1.082258203838522e+00
1	 1.461004930865214e+00	 7.933289620279990e-01	 8.856925993655813e-01
1	 1.444589312812105e+00	 8.228413986405373e-01	 6.603469681361980e-01
1	 1.427530162207283e+00	 8.520938246452641e-01	 4.062838222666847e-01
1	 1.409833204987005e+00	 8.810655958148379e-01	 1.236308868640750e-01
1	 1.391505037426895e+00	 9.097362149713689e-01	-1.874183467182999e-01
1	 1.551584227394026e+00	 6.142580465708982e-01	 1.516838365420480e+00
1	 1.539054646516221e+00	 6.450095794009539e-01	 1.473939255466937e+00
1	 1.525862820204178e+00	 6.756250560827767e-01	 1.402207958429637e+00
1	 1.512009335251194e+00	 7.060837999888765e-01	 1.301240586799893e+00
1	 1.497495615941127e+00	 7.363650200375594e-01	 1.170691911696336e+00
1	 1.482323936411663e+00	 7.664478521350343e-01	 1.010277862491882e+00
1	 1.466497430604770e+00	 7.963114017354682e-01	 8.197778110292968e-01
1	 1.450020099701632e+00	 8.259347873579272e-01	 5.990366204342243e-01
1	 1.432896816951430e+00	 8.552971848891112e-01	 3.479664397418545e-01
1	 1.415133329816498e+00	 8.843778724918006e-01	 6.654822698212204e-02
1	 1.396736259370489e+00	 9.131562759310466e-01	-2.451670149904768e-01
1	 1.557395404275478e+00	 6.165586385066044e-01	 1.401341587186303e+00
1	 1.544818896128324e+00	 6.474253456169724e-01	 1.369029918143847e+00
1	 1.531577662226931e+00	 6.781554870055218e-01	 1.307211896200746e+00
1	 1.517672291562324e+00	 7.087283086042107e-01	 1.215326414704108e+00
1	 1.503104213752759e+00	 7.391229414621251e-01	 1.092871226020234e+00
1	 1.487875711453289e+00	 7.693184433428000e-01	 9.394061004267289e-01
1	 1.471989930343493e+00	 7.992938414436775e-01	 7.545557821744731e-01
1	 1.455450886590253e+00	 8.290281760760296e-01	 5.380127186301731e-01
1	 1.438263471694619e+00	 8.585005451336220e-01	 2.895395394219828e-01
1	 1.420433454645002e+00	 8.876901491693581e-01	 8.971263775857885e-03
1	 1.401967481313083e+00	 9.165763368912295e-01	-3.037827842462992e-01
1	 1.563206581156950e+00	 6.188592304428004e-01	 1.289108069590107e+00
1	 1.550583145740257e+00	 6.498411118335709e-01	 1.266938485823336e+00
1	 1.537292504249342e+00	 6.806859179289186e-01	 1.214593493213483e+00
1	 1.523335247872960e+00	 7.113728172202480e-01	 1.131355629617432e+00
1	 1.508712811563763e+00	 7.418808628874262e-01	 1.016566492544579e+00
1	 1.493427486494174e+00	 7.721890345513140e-01	 8.696305543074654e-01
1	 1.477482430081382e+00	 8.022762811526275e-01	 6.900187868606957e-01
1	 1.460881673477968e+00	 8.321215647948442e-01	 4.772720681616287e-01
1	 1.443630126436850e+00	 8.617039053787966e-01	 2.310043426962149e-01
1	 1.425733579472517e+00	 8.910024258475109e-01	-4.909449007722677e-02
1	 1.407198703254676e+00	 9.199963978519178e-01	-3.632559842138960e-01
1	 1.569017758038443e+00	 6.211598223794863e-01	 1.180101554184112e+00
1	 1.556347395352019e+00	 6.522568780507497e-01	 1.167633648453175e+00
1	 1.543007346271411e+00	 6.832163488529666e-01	 1.124326331034868e+00
1	 1.528998204183102e+00	 7.140173258369891e-01	 1.049306638353486e+00
1	 1.514321409374140e+00	 7.446387843134632e-01	 9.417608673584428e-01
1	 1.498979261534318e+00	 7.750596257605761e-01	 8.009390439589104e-01
1	 1.482974929818439e+00	 8.052587208623178e-01	 6.261592136060186e-01
1	 1.466312460364777e+00	 8.352149535143715e-01	 4.168115217930211e-01
1	 1.448996781178123e+00	 8.649072656246355e-01	 1.723620528592411e-01
1	 1.431033704299042e+00	 8.943147025262583e-01	-1.076436035688533e-01
1	 1.412429925195270e+00	 9.234164588131116e-01	-4.235770878845853e-01
1	 1.360117705744333e+00	 8.892158492239139e-01	 1.403042615784611e-01
1	 1.341593277873824e+00	 9.169255568236596e-01	-1.051411945305487e+00
1	 1.322467308601402e+00	 9.443014442826372e-01	-2.296058036056976e+00
1	 1.302748766656399e+00	 9.713241739857011e-01	-3.593654129387881e+00
1	 1.282447441671250e+00	 9.979747288102582e-01	-4.944034347175206e+00
1	 1.261573929826626e+00	 1.024234455373163e+00	-6.346843847026204e+00
1	 1.240139616777278e+00	 1.050085106498359e+00	-7.801536805028496e+00
1	 1.218156657908895e+00	 1.075508882706573e+00	-9.307375377218170e+00
1	 1.195637955992831e+00	 1.100488472532229e+00	-1.086342966053864e+01
1	 1.172597136321760e+00	 1.125007091478085e+00	-1.246857866597309e+01
1	 1.149048519425000e+00	 1.149048519425000e+00	-1.412151230821080e+01
1	 1.365348927693926e+00	 8.926359101805599e-01	 8.796964613142344e-02
1	 1.346753252023566e+00	 9.204521935795263e-01	-1.106445957894215e+00
1	 1.327553721330546e+00	 9.479333729140336e-01	-2.350893266551100e+00
1	 1.307759338839313e+00	 9.750600361934927e-01	-3.645173466400699e+00
1	 1.287379931834733e+00	 1.001813093152530e+00	-4.988911260839822e+00
1	 1.266426137252021e+00	 1.028173818664219e+00	-6.381552904158148e+00
1	 1.244909384536906e+00	 1.054123895371055e+00	-7.822365141203239e+00
1	 1.222841875826560e+00	 1.079645455334231e+00	-9.310435074190607e+00
1	 1.200236563518384e+00	 1.104721120505608e+00	-1.084467097078176e+01
1	 1.177107125310022e+00	 1.129334041832186e+00	-1.242380401988617e+01
1	 1.153467936809750e+00	 1.153467936809750e+00	-1.404639103380637e+01
1	 1.370580149642520e+00	 8.960559711377108e-01	 3.470674377405092e-02
1	 1.351913226172313e+00	 9.239788303357978e-01	-1.161770252246408e+00
1	 1.332640134058710e+00	 9.515653015457344e-01	-2.405402863217004e+00
1	 1.312769911021271e+00	 9.787958984014881e-01	-3.695774640113896e+00
1	 1.292312421997296e+00	 1.005651457494905e+00	-5.032302114850042e+00
1	 1.271278344676540e+00	 1.032113181955278e+00	-6.414233830915435e+00
1	 1.249679152295714e+00	 1.058162684243653e+00	-7.840650235259732e+00
1	 1.227527093743471e+00	 1.083782027961689e+00	-9.310464445988416e+00
1	 1.204835171043257e+00	 1.108953768478686e+00	-1.082242390338135e+01
1	 1.181617114297689e+00	 1.133660992185886e+00	-1.237511290448531e+01
1	 1.157887354194000e+00	 1.157887354194000e+00	-1.396695601418905e+01
1	 1.375811371590114e+00	 8.994760320953675e-01	-1.947385666882484e-02
1	 1.357073200320065e+00	 9.275054670924751e-01	-1.217381517162961e+00
1	 1.337726546785893e+00	 9.551972301777403e-01	-2.459590540509092e+00
1	 1.317780483202274e+00	 9.825317606096879e-01	-3.745468123873603e+00
1	 1.297244912158939e+00	 1.009489821837384e+00	-5.074223860457273e+00
1	 1.276130552100184e+00	 1.036052545246339e+00	-6.444909761866193e+00
1	 1.254448920053700e+00	 1.062201473116154e+00	-7.856421097565333e+00
1	 1.232212311659627e+00	 1.087918600588949e+00	-9.307498059059730e+00
1	 1.209433778567449e+00	 1.113186416451465e+00	-1.079672824971861e+01
1	 1.186127103284760e+00	 1.137987942539187e+00	-1.232254999432659e+01
1	 1.162306771577750e+00	 1.162306771577750e+00	-1.388325645557898e+01
1	 1.381042593536707e+00	 9.028960930535290e-01	-7.456172680904349e-02
1	 1.362233174466821e+00	 9.310321038495566e-01	-1.273276491614327e+00
1	 1.342812959512097e+00	 9.588291588100507e-01	-2.513459956602189e+00
1	 1.322791055382322e+00	 9.862676228180917e-01	-3.794264232338675e+00
1	 1.302177402319661e+00	 1.013328186179966e+00	-5.114693192076122e+00
1	 1.280982759522953e+00	 1.039991908537403e+00	-6.473603481054520e+00
1	 1.259218687810867e+00	 1.066240261988556e+00	-7.869706298936565e+00
1	 1.236897529575027e+00	 1.092055173216009e+00	-9.301569956118321e+00
1	 1.214032386090963e+00	 1.117419064423946e+00	-1.076762319827480e+01
1	 1.190637092271236e+00	 1.142314892892088e+00	-1.226615928707840e+01
1	 1.166726188961000e+00	 1.166726188961000e+00	-1.379534081864717e+01
1	 1.386273815482302e+00	 9.063161540121963e-01	-1.305465956680778e-01
1	 1.367393148612583e+00	 9.345587406070441e-01	-1.329451963794159e+00
1	 1.347899372237320e+00	 9.624610874426662e-01	-2.567014714453349e+00
1	 1.327801627561415e+00	 9.900034850267000e-01	-3.842173124475330e+00
1	 1.307109892479464e+00	 1.017166550522652e+00	-5.153726552129655e+00
1	 1.285834966944846e+00	 1.043931271828469e+00	-6.500337428614480e+00
1	 1.263988455567214e+00	 1.070279050860860e+00	-7.880533978932052e+00
1	 1.241582747489673e+00	 1.096191745842871e+00	-9.292713666025865e+00
1	 1.218630993613795e+00	 1.121651712396126e+00	-1.073514734600699e+01
1	 1.195147081257118e+00	 1.146641843244589e+00	-1.220598411629391e+01
1	 1.171145606343750e+00	 1.171145606343750e+00	-1.370325683258281e+01
1	 1.391505037426895e+00	 9.097362149713689e-01	-1.874183467182999e-01
1	 1.372553122757349e+00	 9.380853773649360e-01	-1.385904770193982e+00
1	 1.352985784961564e+00	 9.660930160755863e-01	-2.620258362839825e+00
1	 1.332812199739552e+00	 9.937393472355119e-01	-3.889204806482980e+00
1	 1.312042382638345e+00	 1.021004914865441e+00	-5.191340135786715e+00
1	 1.290687174365864e+00	 1.047870635119539e+00	-6.525133707234500e+00
1	 1.268758223322740e+00	 1.074317839733066e+00	-7.888931853959512e+00
1	 1.246267965403562e+00	 1.100328318469534e+00	-9.280962213450465e+00
1	 1.223229601135948e+00	 1.125884360368007e+00	-1.069933870946675e+01
1	 1.199657070242404e+00	 1.150968793596690e+00	-1.214206716389331e+01
1	 1.175565023726000e+00	 1.175565023726000e+00	-1.360705150884279e+01
1	 1.396736259370489e+00	 9.131562759310466e-01	-2.451670149904768e-01
1	 1.377713096901120e+00	 9.416120141232338e-01	-1.442631794698545e+00
1	 1.358072197684827e+00	 9.697249447088112e-01	-2.673194397373614e+00
1	 1.337822771916734e+00	 9.974752094445286e-01	-3.935369134655700e+00
1	 1.316974872796307e+00	 1.024843279208334e+00	-5.227549895591458e+00
1	 1.295539381786007e+00	 1.051809998410611e+00	-6.548014088476450e+00
1	 1.273527991077446e+00	 1.078356628605173e+00	-7.894927225199015e+00
1	 1.250953183316696e+00	 1.104464891095998e+00	-9.266348128308472e+00
1	 1.227828208657420e+00	 1.130117008339588e+00	-1.066023473566910e+01
1	 1.204167059227095e+00	 1.155295743948392e+00	-1.207445047236723e+01
1	 1.179984441107750e+00	 1.179984441107750e+00	-1.350677115459238e+01
1	 1.401967481313083e+00	 9.165763368912295e-01	-3.037827842462992e-01
1	 1.382873071043897e+00	 9.451386508819365e-01	-1.499629967701992e+00
1	 1.363158610407110e+00	 9.733568733423409e-01	-2.725826261493475e+00
1	 1.342833344092961e+00	 1.001211071653749e+00	-3.980675818178603e+00
1	 1.321907362953348e+00	 1.028681643551330e+00	-5.262371545990785e+00
1	 1.300391589205275e+00	 1.055749361701685e+00	-6.569000018953698e+00
1	 1.278297758831332e+00	 1.082395417477183e+00	-7.898546986350632e+00
1	 1.255638401229076e+00	 1.108601463722264e+00	-9.248903454995320e+00
1	 1.232426816178213e+00	 1.134349656310871e+00	-1.061787231271866e+01
1	 1.208677048211191e+00	 1.159622694299693e+00	-1.200317545670661e+01
1	 1.184403858489000e+00	 1.184403858489000e+00	-1.340246138584491e+01
1	 1.407198703254676e+00	 9.199963978519178e-01	-3.632559842138960e-01
1	 1.388033045185679e+00	 9.486652876410443e-01	-1.556896265243015e+00
1	 1.368245023128413e+00	 9.769888019761754e-01	-2.778157347434584e+00
1	 1.347843916268233e+00	 1.004946933863174e+00	-4.025134421862198e+00
1	 1.326839853109469e+00	 1.032520007894430e+00	-5.295820567759291e+00
1	 1.305243796623667e+00	 1.059688724992762e+00	-6.588112626370437e+00
1	 1.283067526584397e+00	 1.086434206349094e+00	-7.899817631207991e+00
1	 1.260323619140700e+00	 1.112738036348330e+00	-9.228659761409526e+00
1	 1.237025423698325e+00	 1.138582304281854e+00	-1.057228778019760e+01
1	 1.213187037194693e+00	 1.163949644650594e+00	-1.192828291606576e+01
1	 1.188823275869750e+00	 1.188823275869750e+00	-1.329416714030903e+01
1	 1.412429925195270e+00	 9.234164588131116e-01	-4.235770878845853e-01
1	 1.393193019326465e+00	 9.521919244005576e-01	-1.614427708159833e+00
1	 1.373331435848735e+00	 9.806207306103145e-01	-2.830190997176685e+00
1	 1.352854488442549e+00	 1.008682796072803e+00	-4.068754368816281e+00
1	 1.331772343264670e+00	 1.036358372237633e+00	-5.327912212326746e+00
1	 1.310096004041184e+00	 1.063628088283842e+00	-6.605372725428193e+00
1	 1.287837294336642e+00	 1.090472995220908e+00	-7.898765261063883e+00
1	 1.265008837051568e+00	 1.116874608974198e+00	-9.205648147777000e+00
1	 1.241624031217757e+00	 1.142814952252537e+00	-1.052351693932403e+01
1	 1.217697026177599e+00	 1.168276595001096e+00	-1.184981304516731e+01
1	 1.193242693250000e+00	 1.193242693250000e+00	-1.318193268994895e+01
1	 1.149048519425000e+00	 1.149048519425000e+00	-1.412151230821080e+01
1	 1.125007091478085e+00	 1.172597136321760e+00	-1.594101336105964e+01
1	 1.100488472532229e+00	 1.195637955992831e+00	-1.764006399842510e+01
1	 1.075508882706574e+00	 1.218156657908895e+00	-1.921103993333417e+01
1	 1.050085106498359e+00	 1.240139616777278e+00	-2.064679639510076e+01
1	 1.024234455373164e+00	 1.261573929826626e+00	-2.194069487363626e+01
1	 9.979747288102585e-01	 1.282447441671249e+00	-2.308662708328193e+01
1	 9.713241739857018e-01	 1.302748766656399e+00	-2.407903600661071e+01
1	 9.443014442826381e-01	 1.322467308601402e+00	-2.491293390388391e+01
1	 9.169255568236604e-01	 1.341593277873824e+00	-2.558391719999000e+01
1	 8.892158492239141e-01	 1.360117705744333e+00	-2.608817818740050e+01
1	 1.153467936809750e+00	 1.153467936809750e+00	-1.404639103380637e+01
1	 1.129334041832186e+00	 1.177107125310022e+00	-1.581554655783051e+01
1	 1.104721120505608e+00	 1.200236563518384e+00	-1.746708605022639e+01
1	 1.079645455334231e+00	 1.222841875826560e+00	-1.899358890766331e+01
1	 1.054123895371056e+00	 1.244909384536906e+00	-2.038810254939599e+01
1	 1.028173818664220e+00	 1.266426137252021e+00	-2.164416844050034e+01
1	 1.001813093152530e+00	 1.287379931834733e+00	-2.275584540210545e+01
1	 9.750600361934932e-01	 1.307759338839313e+00	-2.371773007292019e+01
1	 9.479333729140343e-01	 1.327553721330545e+00	-2.452497441097168e+01
1	 9.204521935795271e-01	 1.346753252023566e+00	-2.517330014996306e+01
1	 8.926359101805597e-01	 1.365348927693926e+00	-2.565901015071240e+01
1	 1.157887354194000e+00	 1.157887354194000e+00	-1.396695601418905e+01
1	 1.133660992185886e+00	 1.181617114297689e+00	-1.568638676874871e+01
1	 1.108953768478686e+00	 1.204835171043257e+00	-1.729101231538039e+01
1	 1.083782027961689e+00	 1.227527093743472e+00	-1.877361460583660e+01
1	 1.058162684243654e+00	 1.249679152295714e+00	-2.012743218641440e+01
1	 1.032113181955278e+00	 1.271278344676540e+00	-2.134618550369871e+01
1	 1.005651457494906e+00	 1.292312421997296e+00	-2.242409956442819e+01
1	 9.787958984014886e-01	 1.312769911021270e+00	-2.335592381761485e+01
1	 9.515653015457353e-01	 1.332640134058710e+00	-2.413694915104714e+01
1	 9.239788303357988e-01	 1.351913226172312e+00	-2.476302191916225e+01
1	 8.960559711377111e-01	 1.370580149642521e+00	-2.523055494465469e+01
1	 1.162306771577750e+00	 1.162306771577750e+00	-1.388325645557898e+01
1	 1.137987942539187e+00	 1.186127103284760e+00	-1.555357611912848e+01
1	 1.113186416451466e+00	 1.209433778567450e+00	-1.711187810704269e+01
1	 1.087918600588948e+00	 1.232212311659627e+00	-1.855114581047149e+01
1	 1.062201473116154e+00	 1.254448920053700e+00	-1.986480785197984e+01
1	 1.036052545246339e+00	 1.276130552100184e+00	-2.104676267734113e+01
1	 1.009489821837385e+00	 1.297244912158939e+00	-2.209140056823289e+01
1	 9.825317606096885e-01	 1.317780483202274e+00	-2.299362294778448e+01
1	 9.551972301777408e-01	 1.337726546785893e+00	-2.374885887430391e+01
1	 9.275054670924758e-01	 1.357073200320064e+00	-2.435307864272965e+01
1	 8.994760320953675e-01	 1.375811371590114e+00	-2.480280443807944e+01
1	 1.166726188961000e+00	 1.166726188961000e+00	-1.379534081864717e+01
1	 1.142314892892088e+00	 1.190637092271236e+00	-1.541715609602142e+01
1	 1.117419064423946e+00	 1.214032386090963e+00	-1.692971820332088e+01
1	 1.092055173216009e+00	 1.236897529575027e+00	-1.832621086808481e+01
1	 1.066240261988556e+00	 1.259218687810868e+00	-1.960025175031300e+01
1	 1.039991908537403e+00	 1.280982759522953e+00	-2.074591632380792e+01
1	 1.013328186179967e+00	 1.302177402319661e+00	-2.175775924486521e+01
1	 9.862676228180922e-01	 1.322791055382321e+00	-2.263083308404821e+01
1	 9.588291588100516e-01	 1.342812959512097e+00	-2.336070431956905e+01
1	 9.310321038495578e-01	 1.362233174466821e+00	-2.394346651436507e+01
1	 9.028960930535292e-01	 1.381042593536708e+00	-2.437575062303813e+01
1	 1.171145606343750e+00	 1.171145606343750e+00	-1.370325683258281e+01
1	 1.146641843244589e+00	 1.195147081257118e+00	-1.527716756025990e+01
1	 1.121651712396126e+00	 1.218630993613795e+00	-1.674456685737007e+01
1	 1.096191745842871e+00	 1.241582747489672e+00	-1.809883769732192e+01
1	 1.070279050860860e+00	 1.263988455567214e+00	-1.933378575047576e+01
1	 1.043931271828470e+00	 1.285834966944846e+00	-2.044366255850062e+01
1	 1.017166550522653e+00	 1.307109892479463e+00	-2.142318626217938e+01
1	 9.900034850267007e-01	 1.327801627561414e+00	-2.226755976218536e+01
1	 9.624610874426672e-01	 1.347899372237320e+00	-2.297248621451736e+01
1	 9.345587406070448e-01	 1.367393148612582e+00	-2.353418178522210e+01
1	 9.063161540121963e-01	 1.386273815482302e+00	-2.394938561245650e+01
1	 1.175565023726000e+00	 1.175565023726000e+00	-1.360705150884279e+01
1	 1.150968793596690e+00	 1.199657070242404e+00	-1.513365075822712e+01
1	 1.125884360368007e+00	 1.223229601135948e+00	-1.655645780726029e+01
1	 1.100328318469534e+00	 1.246267965403562e+00	-1.786905379699828e+01
1	 1.074317839733066e+00	 1.268758223322740e+00	-1.906543139267274e+01
1	 1.047870635119539e+00	 1.290687174365865e+00	-2.014001725448346e+01
1	 1.021004914865442e+00	 1.312042382638345e+00	-2.108769212761041e+01
1	 9.937393472355127e-01	 1.332812199739552e+00	-2.190380843473050e+01
1	 9.660930160755871e-01	 1.352985784961563e+00	-2.258420527588138e+01
1	 9.380853773649371e-01	 1.372553122757349e+00	-2.312522076282806e+01
1	 9.097362149713688e-01	 1.391505037426895e+00	-2.352370163786349e+01
1	 1.179984441107750e+00	 1.179984441107750e+00	-1.350677115459238e+01
1	 1.155295743948391e+00	 1.204167059227096e+00	-1.498664533336424e+01
1	 1.130117008339588e+00	 1.227828208657420e+00	-1.636542428562214e+01
1	 1.104464891095998e+00	 1.250953183316696e+00	-1.763688625396237e+01
1	 1.078356628605173e+00	 1.273527991077446e+00	-1.879520989440824e+01
1	 1.051809998410611e+00	 1.295539381786007e+00	-1.983499604702189e+01
1	 1.024843279208334e+00	 1.316974872796307e+00	-2.075128719117876e+01
1	 9.974752094445288e-01	 1.337822771916733e+00	-2.153958447253226e+01
1	 9.697249447088119e-01	 1.358072197684826e+00	-2.219586220965556e+01
1	 9.416120141232347e-01	 1.377713096901120e+00	-2.271657981002861e+01
1	 9.131562759310466e-01	 1.396736259370489e+00	-2.309869104716912e+01
1	 1.184403858489000e+00	 1.184403858489000e+00	-1.340246138584491e+01
1	 1.159622694299693e+00	 1.208677048211191e+00	-1.483619033741940e+01
1	 1.134349656310871e+00	 1.232426816178213e+00	-1.617149902907673e+01
1	 1.108601463722264e+00	 1.255638401229076e+00	-1.740236175078129e+01
1	 1.082395417477183e+00	 1.278297758831331e+00	-1.852314215650787e+01
1	 1.055749361701686e+00	 1.300391589205274e+00	-1.952861433801964e+01
1	 1.028681643551331e+00	 1.321907362953348e+00	-2.041398164842687e+01
1	 1.001211071653750e+00	 1.342833344092961e+00	-2.117489316627761e+01
1	 9.733568733423418e-01	 1.363158610407109e+00	-2.180745771129788e+01
1	 9.451386508819374e-01	 1.382873071043896e+00	-2.230825534395419e+01
1	 9.165763368912295e-01	 1.401967481313083e+00	-2.267434630249402e+01
1	 1.188823275869750e+00	 1.188823275869750e+00	-1.329416714030903e+01
1	 1.163949644650594e+00	 1.213187037194693e+00	-1.468232424144523e+01
1	 1.138582304281854e+00	 1.237025423698325e+00	-1.597471428745530e+01
1	 1.112738036348330e+00	 1.260323619140700e+00	-1.716550657325523e+01
1	 1.086434206349094e+00	 1.283067526584397e+00	-1.824924876900354e+01
1	 1.059688724992763e+00	 1.305243796623667e+00	-1.922088730035536e+01
1	 1.032520007894430e+00	 1.326839853109469e+00	-2.007578554329081e+01
1	 1.004946933863175e+00	 1.347843916268232e+00	-2.080973972798110e+01
1	 9.769888019761761e-01	 1.368245023128412e+00	-2.141899246592440e+01
1	 9.486652876410454e-01	 1.388033045185678e+00	-2.190024383501320e+01
1	 9.199963978519178e-01	 1.407198703254676e+00	-2.225065997804615e+01
1	 1.193242693250000e+00	 1.193242693250000e+00	-1.318193268994895e+01
1	 1.168276595001096e+00	 1.217697026177599e+00	-1.452508494655307e+01
1	 1.142814952252537e+00	 1.241624031217757e+00	-1.577510183281391e+01
1	 1.116874608974198e+00	 1.265008837051569e+00	-1.692634661776497e+01
1	 1.090472995220908e+00	 1.287837294336642e+00	-1.797355001689011e+01
1	 1.063628088283843e+00	 1.310096004041184e+00	-1.891182988212449e+01
1	 1.036358372237633e+00	 1.331772343264670e+00	-1.973670877090701e+01
1	 1.008682796072804e+00	 1.352854488442549e+00	-2.044412929244270e+01
1	 9.806207306103155e-01	 1.373331435848735e+00	-2.103046714850160e+01
1	 9.521919244005584e-01	 1.393193019326464e+00	-2.149254180590384e+01
1	 9.234164588131116e-01	 1.412429925195270e+00	-2.182762475804526e+01
1	 8.892158492239141e-01	 1.360117705744333e+00	-2.608817818740050e+01
1	 8.611919357655553e-01	 1.378032455989265e+00	-2.593810115447108e+01
1	 8.328736631961249e-01	 1.395330233722280e+00	-2.582475399511406e+01
1	 8.042810663511559e-01	 1.412004591455920e+00	-2.575045479638951e+01
1	 7.754343237987309e-01	 1.428049932410381e+00	-2.571731885641928e+01
1	 7.463537137016183e-01	 1.443461511099561e+00	-2.572725364715155e+01
1	 7.170595700862009e-01	 1.458235431242151e+00	-2.578195497808663e+01
1	 6.875722397012348e-01	 1.472368641059446e+00	-2.588290435705606e+01
1	 6.579120396418046e-01	 1.485858926035341e+00	-2.603136753450609e+01
1	 6.280992159050719e-01	 1.498704899226743e+00	-2.622839420853259e+01
1	 5.981539030346663e-01	 1.510905989224438e+00	-2.647481885924013e+01
1	 8.926359101805597e-01	 1.365348927693926e+00	-2.565901015071240e+01
1	 8.645042124389483e-01	 1.383332580824695e+00	-2.551160910820042e+01
1	 8.360770234359883e-01	 1.400696888472176e+00	-2.540044643741842e+01
1	 8.073744550642719e-01	 1.417435378350882e+00	-2.532778642133464e+01
1	 7.784167635017579e-01	 1.433542432154935e+00	-2.529569336263596e+01
1	 7.492243049041478e-01	 1.449013286146367e+00	-2.530602670920070e+01
1	 7.198174915056166e-01	 1.463844029058171e+00	-2.536043736187170e+01
1	 6.902167483116450e-01	 1.478031597374035e+00	-2.546036516011935e+01
1	 6.604424705599888e-01	 1.491573768060485e+00	-2.560703753171173e+01
1	 6.305149821170289e-01	 1.504469148840036e+00	-2.580146928347019e+01
1	 6.004544949669445e-01	 1.516717166105746e+00	-2.604446350167484e+01
1	 8.960559711377111e-01	 1.370580149642521e+00	-2.523055494465469e+01
1	 8.678164891129363e-01	 1.388632705659136e+00	-2.508562359683445e+01
1	 8.392803836765155e-01	 1.406063543221113e+00	-2.497644466672970e+01
1	 8.104678437781005e-01	 1.422866165244939e+00	-2.490522896989823e+01
1	 7.813992032055257e-01	 1.439034931898658e+00	-2.487399013154213e+01
1	 7.520948961074254e-01	 1.454565061192434e+00	-2.488453987386410e+01
1	 7.225754129257681e-01	 1.469452626873565e+00	-2.493848446717357e+01
1	 6.928612569227585e-01	 1.483694553688130e+00	-2.503722233982932e+01
1	 6.629729014788250e-01	 1.497288610085289e+00	-2.518194283280130e+01
1	 6.329307483295660e-01	 1.510233398453158e+00	-2.537362607576021e+01
1	 6.027550868997125e-01	 1.522528342987074e+00	-2.561304395325560e+01
1	 8.994760320953675e-01	 1.375811371590114e+00	-2.480280443807944e+01
1	 8.711287657875193e-01	 1.393932830492588e+00	-2.466013884240869e+01
1	 8.424837439177072e-01	 1.411430197969092e+00	-2.455274519498332e+01
1	 8.135612324926411e-01	 1.428296952138089e+00	-2.448278117679281e+01
1	 7.843816429100336e-01	 1.444527431641547e+00	-2.445221004987662e+01
1	 7.549654873114510e-01	 1.460116836237760e+00	-2.446279610575182e+01
1	 7.253333343466550e-01	 1.475061224688332e+00	-2.451610125914693e+01
1	 6.955057655345755e-01	 1.489357510001731e+00	-2.461348278162479e+01
1	 6.655033323983124e-01	 1.503003452109750e+00	-2.475609216054575e+01
1	 6.353465145426834e-01	 1.515997648066111e+00	-2.494487506011194e+01
1	 6.050556788329702e-01	 1.528339519868424e+00	-2.518057235304390e+01
1	 9.028960930535292e-01	 1.381042593536708e+00	-2.437575062303813e+01
1	 8.744410424626970e-01	 1.399232955325050e+00	-2.423514915450378e+01
1	 8.456871041595623e-01	 1.416796852716114e+00	-2.412934458696444e+01
1	 8.166546212078944e-01	 1.433727739030334e+00	-2.406044179590175e+01
1	 7.873640826152819e-01	 1.450019931383602e+00	-2.403035399094183e+01
1	 7.578360785162251e-01	 1.465668611282346e+00	-2.404079832455544e+01
1	 7.280912557682777e-01	 1.480669822502471e+00	-2.409329262771753e+01
1	 6.981502741470955e-01	 1.495020466314838e+00	-2.418915326662018e+01
1	 6.680337633184514e-01	 1.508718294133869e+00	-2.432949410555336e+01
1	 6.377622807563811e-01	 1.521761897678893e+00	-2.451522655252661e+01
1	 6.073562707667176e-01	 1.534150696749793e+00	-2.474706065617596e+01
1	 9.063161540121963e-01	 1.386273815482302e+00	-2.394938561245650e+01
1	 8.777533191384701e-01	 1.404533080156522e+00	-2.381064892859311e+01
1	 8.488904644020812e-01	 1.422163507462178e+00	-2.370623945931083e+01
1	 8.197480099238597e-01	 1.439158525921673e+00	-2.363820959991714e+01
1	 7.903465223212706e-01	 1.455512431124824e+00	-2.360842281485886e+01
1	 7.607066697217468e-01	 1.471220386326192e+00	-2.361854940589586e+01
1	 7.308491771906361e-01	 1.486278420315983e+00	-2.367006338900026e+01
1	 7.007947827603194e-01	 1.500683422627451e+00	-2.376424047357296e+01
1	 6.705641942392422e-01	 1.514433136157647e+00	-2.390215712876229e+01
1	 6.401780469706588e-01	 1.527526147291506e+00	-2.408469071329246e+01
1	 6.096568627009548e-01	 1.539961873631183e+00	-2.431252063733373e+01
1	 9.097362149713688e-01	 1.391505037426895e+00	-2.352370163786349e+01
1	 8.810655958148377e-01	 1.409833204987005e+00	-2.338663264442907e+01
1	 8.520938246452641e-01	 1.427530162207282e+00	-2.328342647953726e+01
1	 8.228413986405373e-01	 1.444589312812105e+00	-2.321608337998774e+01
1	 7.933289620279993e-01	 1.461004930865214e+00	-2.318641736881444e+01
1	 7.635772609280168e-01	 1.476772161369298e+00	-2.319605218215165e+01
1	 7.336070986137304e-01	 1.491887018128869e+00	-2.324641828668811e+01
1	 7.034392913742465e-01	 1.506346378939569e+00	-2.333875098080859e+01
1	 6.730946251606840e-01	 1.520147978181083e+00	-2.347408956387888e+01
1	 6.425938131855167e-01	 1.533290396903949e+00	-2.365327754991119e+01
1	 6.119574546356817e-01	 1.545773050512594e+00	-2.387696389413556e+01
1	 9.131562759310466e-01	 1.396736259370489e+00	-2.309869104716912e+01
1	 8.843778724918004e-01	 1.415133329816498e+00	-2.296309486446386e+01
1	 8.552971848891112e-01	 1.432896816951430e+00	-2.286090236508422e+01
1	 8.259347873579275e-01	 1.450020099701632e+00	-2.279406194537187e+01
1	 7.963114017354684e-01	 1.466497430604770e+00	-2.276433848730339e+01
1	 7.664478521350345e-01	 1.482323936411663e+00	-2.277330944326864e+01
1	 7.363650200375601e-01	 1.497495615941127e+00	-2.282236199340664e+01
1	 7.060837999888770e-01	 1.512009335251193e+00	-2.291269126810055e+01
1	 6.756250560827777e-01	 1.525862820204178e+00	-2.304529961976011e+01
1	 6.450095794009549e-01	 1.539054646516221e+00	-2.322099691996000e+01
1	 6.142580465708982e-01	 1.551584227394026e+00	-2.344040185045325e+01
1	 9.165763368912295e-01	 1.401967481313083e+00	-2.267434630249402e+01
1	 8.876901491693577e-01	 1.420433454645002e+00	-2.254003023230777e+01
1	 8.585005451336221e-01	 1.438263471694619e+00	-2.243866388238469e+01
1	 8.290281760760296e-01	 1.455450886590253e+00	-2.237214412310044e+01
1	 7.992938414436781e-01	 1.471989930343493e+00	-2.234218699236531e+01
1	 7.693184433428004e-01	 1.487875711453288e+00	-2.235032393755169e+01
1	 7.391229414621255e-01	 1.503104213752758e+00	-2.239789911204133e+01
1	 7.087283086042114e-01	 1.517672291562324e+00	-2.248606771850984e+01
1	 6.781554870055228e-01	 1.531577662226930e+00	-2.261579538274224e+01
1	 6.474253456169733e-01	 1.544818896128324e+00	-2.278785853388731e+01
1	 6.165586385066044e-01	 1.557395404275478e+00	-2.300284575965273e+01
1	 9.199963978519178e-01	 1.407198703254676e+00	-2.225065997804615e+01
1	 8.910024258475104e-01	 1.425733579472517e+00	-2.211743347121948e+01
1	 8.617039053787966e-01	 1.443630126436850e+00	-2.201670784595513e+01
1	 8.321215647948442e-01	 1.460881673477967e+00	-2.195032875764581e+01
1	 8.022762811526276e-01	 1.477482430081382e+00	-2.191996369381634e+01
1	 7.721890345513144e-01	 1.493427486494173e+00	-2.192709837243863e+01
1	 7.418808628874268e-01	 1.508712811563762e+00	-2.197303417703331e+01
1	 7.113728172202488e-01	 1.523335247872960e+00	-2.205888662018132e+01
1	 6.806859179289194e-01	 1.537292504249342e+00	-2.218558481891890e+01
1	 6.498411118335717e-01	 1.550583145740256e+00	-2.235387195774871e+01
1	 6.188592304428006e-01	 1.563206581156950e+00	-2.256430670776419e+01
1	 9.234164588131116e-01	 1.412429925195270e+00	-2.182762475804526e+01
1	 8.943147025262583e-01	 1.431033704299042e+00	-2.169529938263189e+01
1	 8.649072656246355e-01	 1.448996781178123e+00	-2.159503111750394e+01
1	 8.352149535143714e-01	 1.466312460364777e+00	-2.152861471059993e+01
1	 8.052587208623180e-01	 1.482974929818439e+00	-2.149766938947523e+01
1	 7.750596257605765e-01	 1.498979261534318e+00	-2.150363541525739e+01
1	 7.446387843134635e-01	 1.514321409374140e+00	-2.154777165564609e+01
1	 7.140173258369897e-01	 1.528998204183102e+00	-2.163115416810261e+01
1	 6.832163488529674e-01	 1.543007346271411e+00	-2.175467577636781e+01
1	 6.522568780507507e-01	 1.556347395352019e+00	-2.191904661588060e+01
1	 6.211598223794863e-01	 1.569017758038443e+00	-2.212479561657969e+01
1	 5.981539030346663e-01	 1.510905989224438e+00	-2.647481885924013e+01
1	 5.680960850001697e-01	 1.522462425874857e+00	-2.655223555174525e+01
1	 5.379455574460040e-01	 1.533375223883753e+00	-2.662305436598955e+01
1	 5.077218914329505e-01	 1.543646164429884e+00	-2.668714919118288e+01
1	 4.774443987833440e-01	 1.553277774923845e+00	-2.674442067573410e+01
1	 4.471320991271145e-01	 1.562273307054313e+00	-2.679479575794842e+01
1	 4.168036887336734e-01	 1.570636713267633e+00	-2.683822708415988e+01
1	 3.864775112014002e-01	 1.578372621830225e+00	-2.687469232238151e+01
1	 3.561715300634783e-01	 1.585486310625523e+00	-2.690419338001414e+01
1	 3.259033033559553e-01	 1.591983679838119e+00	-2.692675553447826e+01
1	 2.956899601812942e-01	 1.597871223677692e+00	-2.694242648588673e+01
1	 6.004544949669445e-01	 1.516717166105746e+00	-2.604446350167484e+01
1	 5.702810699406512e-01	 1.528318050588254e+00	-2.611419298590046e+01
1	 5.400145788195776e-01	 1.539272820896208e+00	-2.617902965947929e+01
1	 5.096746679378160e-01	 1.549583265059052e+00	-2.623890162762478e+01
1	 4.792807233939410e-01	 1.559251920208185e+00	-2.629375636709777e+01
1	 4.488518379703058e-01	 1.568282050538780e+00	-2.634356028988422e+01
1	 4.184067798450501e-01	 1.576677623698894e+00	-2.638829822941665e+01
1	 3.879639631688556e-01	 1.584443285755970e+00	-2.642797285564717e+01
1	 3.575414205654178e-01	 1.591584334892991e+00	-2.646260402554714e+01
1	 3.271567776016927e-01	 1.598106693987561e+00	-2.649222807579597e+01
1	 2.968272292613070e-01	 1.604016882227088e+00	-2.651689706453289e+01
1	 6.027550868997125e-01	 1.522528342987074e+00	-2.561304395325560e+01
1	 5.724660548815224e-01	 1.534173675301857e+00	-2.567534081612383e+01
1	 5.420836001934404e-01	 1.545170417909021e+00	-2.573443684157460e+01
1	 5.116274444428703e-01	 1.555520365688698e+00	-2.579031409503298e+01
1	 4.811170480046262e-01	 1.565226065493095e+00	-2.584296666313570e+01
1	 4.505715768134845e-01	 1.574290794023875e+00	-2.589240025013522e+01
1	 4.200098709563136e-01	 1.582718534130813e+00	-2.593863173179990e+01
1	 3.894504151360970e-01	 1.590513949682374e+00	-2.598168867134687e+01
1	 3.589113110670430e-01	 1.597682359161087e+00	-2.602160880203305e+01
1	 3.284102518470154e-01	 1.604229708137575e+00	-2.605843948106460e+01
1	 2.979644983408051e-01	 1.610162540776969e+00	-2.609223711947578e+01
1	 6.050556788329702e-01	 1.528339519868424e+00	-2.518057235304390e+01
1	 5.746510398227829e-01	 1.540029300015663e+00	-2.523568827744300e+01
1	 5.441526215675925e-01	 1.551068014922191e+00	-2.528928239263532e+01
1	 5.135802209481134e-01	 1.561457466318822e+00	-2.534139047138305e+01
1	 4.829533726153996e-01	 1.571200210778572e+00	-2.539205299421425e+01
1	 4.522913156566505e-01	 1.580299537509599e+00	-2.544131477830373e+01
1	 4.216129620674638e-01	 1.588759444563391e+00	-2.548922459864369e+01
1	 3.909368671031247e-01	 1.596584613609435e+00	-2.553583480428237e+01
1	 3.602812015683537e-01	 1.603780383429812e+00	-2.558120093231255e+01
1	 3.296637260919236e-01	 1.610352722288160e+00	-2.562538132217749e+01
1	 2.991017674197885e-01	 1.616308199327335e+00	-2.566843673273410e+01
1	 6.073562707667176e-01	 1.534150696749793e+00	-2.474706065617596e+01
1	 5.768360247644333e-01	 1.545884924729676e+00	-2.479524446496169e+01
1	 5.462216429420340e-01	 1.556965611935718e+00	-2.484357269483463e+01
1	 5.155329974535452e-01	 1.567394566949424e+00	-2.489213457589314e+01
1	 4.847896972262609e-01	 1.577174356064618e+00	-2.494101676902768e+01
1	 4.540110544998041e-01	 1.586308280995951e+00	-2.499030302702816e+01
1	 4.232160531785009e-01	 1.594800354996627e+00	-2.504007388262508e+01
1	 3.924233190699384e-01	 1.602655277537155e+00	-2.509040636448520e+01
1	 3.616510920693503e-01	 1.609878407699167e+00	-2.514137374191052e+01
1	 3.309172003364172e-01	 1.616475736439316e+00	-2.519304529872678e+01
1	 3.002390364982573e-01	 1.622453857878187e+00	-2.524548613659793e+01
1	 6.096568627009548e-01	 1.539961873631183e+00	-2.431252063733373e+01
1	 5.790210097064733e-01	 1.551740549443892e+00	-2.435401833649880e+01
1	 5.482906643167648e-01	 1.562863208949603e+00	-2.439731403401069e+01
1	 5.174857739591655e-01	 1.573331667580505e+00	-2.444255017013330e+01
1	 4.866260218372105e-01	 1.583148501351233e+00	-2.448985937500700e+01
1	 4.557307933429451e-01	 1.592317024482932e+00	-2.453936416173708e+01
1	 4.248191442894248e-01	 1.600841265430521e+00	-2.459117668090908e+01
1	 3.939097710365385e-01	 1.608725941465533e+00	-2.464539853579789e+01
1	 3.630209825700325e-01	 1.615976431969152e+00	-2.470212065709851e+01
1	 3.321706745804961e-01	 1.622598750591043e+00	-2.476142323559348e+01
1	 3.013763055762114e-01	 1.628599516429524e+00	-2.482337571079566e+01
1	 6.119574546356817e-01	 1.545773050512594e+00	-2.387696389413556e+01
1	 5.812059946489028e-01	 1.557596174158313e+00	-2.391201871516918e+01
1	 5.503596856917846e-01	 1.568760805963843e+00	-2.395051260147779e+01
1	 5.194385504649748e-01	 1.579268768212063e+00	-2.399264095910829e+01
1	 4.884623464482482e-01	 1.589122646638416e+00	-2.403858217871913e+01
1	 4.574505321860734e-01	 1.598325767970541e+00	-2.408849736040914e+01
1	 4.264222354002353e-01	 1.606882175865073e+00	-2.414253013431270e+01
1	 3.953962230029244e-01	 1.614796605394570e+00	-2.420080657448617e+01
1	 3.643908730704004e-01	 1.622074456239764e+00	-2.426343520300131e+01
1	 3.334241488241605e-01	 1.628721764743343e+00	-2.433050708059287e+01
1	 3.025135746536508e-01	 1.634745174981347e+00	-2.440209597972056e+01
1	 6.142580465708982e-01	 1.551584227394026e+00	-2.344040185045325e+01
1	 5.833909795917219e-01	 1.563451798872938e+00	-2.346925429190625e+01
1	 5.524287070670939e-01	 1.574658402978441e+00	-2.350317449579658e+01
1	 5.213913269709730e-01	 1.585205868844101e+00	-2.354241059231728e+01
1	 4.902986710593740e-01	 1.595096791926168e+00	-2.358718652625837e+01
1	 4.591702710291893e-01	 1.604334511458779e+00	-2.363770181333820e+01
1	 4.280253265109326e-01	 1.612923086300283e+00	-2.369413142648692e+01
1	 3.968826749690968e-01	 1.620867269324265e+00	-2.375662580788339e+01
1	 3.657607635704538e-01	 1.628172480511006e+00	-2.382531100174532e+01
1	 3.346776230674101e-01	 1.634844778896212e+00	-2.390028890217238e+01
1	 3.036508437305756e-01	 1.640890833533655e+00	-2.398163760972306e+01
1	 6.165586385066044e-01	 1.557395404275478e+00	-2.300284575965273e+01
1	 5.855759645349308e-01	 1.569307423587768e+00	-2.302573362792783e+01
1	 5.544977284426924e-01	 1.580555999993397e+00	-2.305530572450447e+01
1	 5.233441034771597e-01	 1.591142969476616e+00	-2.309186266478928e+01
1	 4.921349956705878e-01	 1.601070937214489e+00	-2.313567374362868e+01
1	 4.608900098722927e-01	 1.610343254947645e+00	-2.318697672290273e+01
1	 4.296284176215167e-01	 1.618963996736152e+00	-2.324597778311749e+01
1	 3.983691269350552e-01	 1.626937933254618e+00	-2.331285163306347e+01
1	 3.671306540701930e-01	 1.634270504782878e+00	-2.338774177064923e+01
1	 3.359310973102453e-01	 1.640967793049654e+00	-2.347076088716037e+01
1	 3.047881128069858e-01	 1.647036492086448e+00	-2.356199140646130e+01
1	 6.188592304428006e-01	 1.563206581156950e+00	-2.256430670776419e+01
1	 5.877609494785291e-01	 1.575163048302803e+00	-2.258146515714782e+01
1	 5.565667498185800e-01	 1.586453597008709e+00	-2.260691220580725e+01
1	 5.252968799835352e-01	 1.597080070109610e+00	-2.264100071809559e+01
1	 4.939713202818898e-01	 1.607045082503378e+00	-2.268404513711508e+01
1	 4.626097487153834e-01	 1.616351998437140e+00	-2.273632130334213e+01
1	 4.312315087319875e-01	 1.625004907172679e+00	-2.279806647114458e+01
1	 3.998555789007996e-01	 1.633008597185629e+00	-2.286947951554626e+01
1	 3.685005445696179e-01	 1.640368529055378e+00	-2.295072132045459e+01
1	 3.371845715526657e-01	 1.647090807203667e+00	-2.304191533856656e+01
1	 3.059253818828811e-01	 1.653182150639726e+00	-2.314314831231287e+01
1	 6.211598223794863e-01	 1.569017758038443e+00	-2.212479561657969e+01
1	 5.899459344225172e-01	 1.581018673018042e+00	-2.213645718853295e+01
1	 5.586357711947575e-01	 1.592351194024379e+00	-2.215799977023379e+01
1	 5.272496564900997e-01	 1.603017170743082e+00	-2.218982824133974e+01
1	 4.958076448932801e-01	 1.613019227792837e+00	-2.223230199365163e+01
1	 4.643294875584616e-01	 1.622360741927263e+00	-2.228573478053658e+01
1	 4.328345998423452e-01	 1.631045817609864e+00	-2.235039479799725e+01
1	 4.013420308663305e-01	 1.639079261117299e+00	-2.242650498802801e+01
1	 3.698704350687285e-01	 1.646466553328508e+00	-2.251424355359536e+01
1	 3.384380457946716e-01	 1.653213821358251e+00	-2.261374467343010e+01
1	 3.070626509582619e-01	 1.659327809193490e+00	-2.272509940384170e+01
1	 2.956899601812942e-01	 1.597871223677692e+00	-2.694242648588673e+01
1	 2.655481792878333e-01	 1.603156001294210e+00	-2.700564546532976e+01
1	 2.354941696761790e-01	 1.607845607033304e+00	-2.708804411199132e+01
1	 2.055436532290555e-01	 1.611948140178152e+00	-2.718927598443183e+01
1	 1.757118493506961e-01	 1.615472174320238e+00	-2.730894929245530e+01
1	 1.460134615946999e-01	 1.618426726496131e+00	-2.744662999249583e+01
1	 1.164626662474424e-01	 1.620821226222415e+00	-2.760184493874796e+01
1	 8.707310282611766e-02	 1.622665484554890e+00	-2.777408506906157e+01
1	 5.785786644259735e-02	 1.623969663291593e+00	-2.796280860557550e+01
1	 2.882950197718375e-02	 1.624744244432313e+00	-2.816744425112715e+01
1	 0.000000000000000e+00	 1.625000000000000e+00	-2.838739436364363e+01
1	 2.968272292613070e-01	 1.604016882227088e+00	-2.651689706453289e+01
1	 2.665695184415892e-01	 1.609321985911987e+00	-2.659120169341259e+01
1	 2.363999164854154e-01	 1.614029628596787e+00	-2.668611072322586e+01
1	 2.063342057442913e-01	 1.618147940715754e+00	-2.680122410407668e+01
1	 1.763876641586224e-01	 1.621685528835727e+00	-2.693609376315536e+01
1	 1.465750518341391e-01	 1.624651444674184e+00	-2.709022700604599e+01
1	 1.169105995813979e-01	 1.627055154015083e+00	-2.726308997113904e+01
1	 8.740799937727638e-02	 1.628906505649055e+00	-2.745411111453463e+01
1	 5.808039669946360e-02	 1.630215700457977e+00	-2.766268470391154e+01
1	 2.894038467780381e-02	 1.630993260757022e+00	-2.788817430102858e+01
1	 0.000000000000000e+00	 1.631250000000000e+00	-2.812991621382230e+01
1	 2.979644983408051e-01	 1.610162540776969e+00	-2.609223711947578e+01
1	 2.675908575947467e-01	 1.615487970530155e+00	-2.617756075878149e+01
1	 2.373056632940009e-01	 1.620213650160576e+00	-2.628490428920788e+01
1	 2.071247582588548e-01	 1.624347741253588e+00	-2.641381434285648e+01
1	 1.770634789658858e-01	 1.627898883351386e+00	-2.656378686663339e+01
1	 1.471366420729549e-01	 1.630876162852356e+00	-2.673427082811367e+01
1	 1.173585329147985e-01	 1.633289081807827e+00	-2.692467197187571e+01
1	 8.774289592797750e-02	 1.635147526743263e+00	-2.713435660207939e+01
1	 5.830292695599756e-02	 1.636461737624380e+00	-2.736265536826346e+01
1	 2.905126737824433e-02	 1.637242277081736e+00	-2.760886703266308e+01
1	 0.000000000000000e+00	 1.637500000000000e+00	-2.787226219877557e+01
1	 2.991017674197885e-01	 1.616308199327335e+00	-2.566843673273410e+01
1	 2.686121967473054e-01	 1.621653955148714e+00	-2.576471350359519e+01
1	 2.382114101019355e-01	 1.626397671724672e+00	-2.588441651767694e+01
1	 2.079153107727464e-01	 1.630547541791658e+00	-2.602703937621665e+01
1	 1.777392937724865e-01	 1.634112237867216e+00	-2.619202234471974e+01
1	 1.476982323111471e-01	 1.637100881030644e+00	-2.637875636202285e+01
1	 1.178064662476441e-01	 1.639523009600644e+00	-2.658658709721153e+01
1	 8.807779247822094e-02	 1.641388547837511e+00	-2.681481902855360e+01
1	 5.852545721219923e-02	 1.642707774790801e+00	-2.706271951993137e+01
1	 2.916215007850534e-02	 1.643491293406455e+00	-2.732952287171384e+01
1	 0.000000000000000e+00	 1.643750000000000e+00	-2.761443432457076e+01
1	 3.002390364982573e-01	 1.622453857878187e+00	-2.524548613659793e+01
1	 2.696335358992656e-01	 1.627819939767663e+00	-2.535265090876828e+01
1	 2.391171569092192e-01	 1.632581693289076e+00	-2.548463924201259e+01
1	 2.087058632859658e-01	 1.636747342329960e+00	-2.564089199058150e+01
1	 1.784151085784243e-01	 1.640325592383216e+00	-2.582079403406540e+01
1	 1.482598225487158e-01	 1.643325599209050e+00	-2.602367858831937e+01
1	 1.182543995799348e-01	 1.645756937393537e+00	-2.624883156163888e+01
1	 8.841268902800672e-02	 1.647629568931802e+00	-2.649549592874164e+01
1	 5.874798746806859e-02	 1.648953811957240e+00	-2.676287609655832e+01
1	 2.927303277858682e-02	 1.649740309731178e+00	-2.705014223741450e+01
1	 0.000000000000000e+00	 1.650000000000000e+00	-2.735643456688046e+01
1	 3.013763055762114e-01	 1.628599516429524e+00	-2.482337571079566e+01
1	 2.706548750506272e-01	 1.633985924387004e+00	-2.494136409135195e+01
1	 2.400229037158520e-01	 1.638765714853786e+00	-2.508556441886435e+01
1	 2.094964157985132e-01	 1.642947142868496e+00	-2.525536508125888e+01
1	 1.790909233836995e-01	 1.646538946899387e+00	-2.545009586435280e+01
1	 1.488214127856610e-01	 1.649550317387573e+00	-2.566903256331490e+01
1	 1.187023329116705e-01	 1.651990865186505e+00	-2.591140163678930e+01
1	 8.874758557733488e-02	 1.653870590026135e+00	-2.617638487463784e+01
1	 5.897051772360567e-02	 1.655199849123698e+00	-2.646312405182364e+01
1	 2.938391547848877e-02	 1.655989326055905e+00	-2.677072554267063e+01
1	 0.000000000000000e+00	 1.656250000000000e+00	-2.709826487155537e+01
1	 3.025135746536508e-01	 1.634745174981347e+00	-2.440209597972056e+01
1	 2.716762142013902e-01	 1.640151909006734e+00	-2.453084430197579e+01
1	 2.409286505218340e-01	 1.644949736418803e+00	-2.468718412583397e+01
1	 2.102869683103885e-01	 1.649146943407266e+00	-2.487045165039460e+01
1	 1.797667381883118e-01	 1.652752301415727e+00	-2.507992185654789e+01
1	 1.493830030219827e-01	 1.655775035566215e+00	-2.531481341766200e+01
1	 1.191502662428514e-01	 1.658224792979547e+00	-2.557429365036060e+01
1	 8.908248212620537e-02	 1.660111611120509e+00	-2.585748347474864e+01
1	 5.919304797881043e-02	 1.661445886290174e+00	-2.616346235514041e+01
1	 2.949479817821121e-02	 1.662238342380638e+00	-2.649127319417861e+01
1	 0.000000000000000e+00	 1.662500000000000e+00	-2.683992715518534e+01
1	 3.036508437305756e-01	 1.640890833533655e+00	-2.398163760972306e+01
1	 2.726975533515546e-01	 1.646317893626857e+00	-2.412108292234590e+01
1	 2.418343973271651e-01	 1.651133757984127e+00	-2.428949055921126e+01
1	 2.110775208215916e-01	 1.655346743946270e+00	-2.448614480497134e+01
1	 1.804425529922614e-01	 1.658965655932239e+00	-2.471026612118972e+01
1	 1.499445932576808e-01	 1.661999753744974e+00	-2.496101635496242e+01
1	 1.195981995734772e-01	 1.664458720772664e+00	-2.523750398506631e+01
1	 8.941737867461820e-02	 1.666352632214925e+00	-2.553878937340798e+01
1	 5.941557823368290e-02	 1.667691923456669e+00	-2.586388999136150e+01
1	 2.960568087775412e-02	 1.668487358705375e+00	-2.621178559254217e+01
1	 0.000000000000000e+00	 1.668750000000000e+00	-2.658142330564759e+01
1	 3.047881128069858e-01	 1.647036492086448e+00	-2.356199140646130e+01
1	 2.737188925011204e-01	 1.652483878247369e+00	-2.371207146279998e+01
1	 2.427401441318452e-01	 1.657317779549757e+00	-2.389247603175896e+01
1	 2.118680733321227e-01	 1.661546544485506e+00	-2.410243775485194e+01
1	 1.811183677955482e-01	 1.665179010448920e+00	-2.434112285671977e+01
1	 1.505061834927555e-01	 1.668224471923850e+00	-2.460763665040586e+01
1	 1.200461329035482e-01	 1.670692648565856e+00	-2.490102907760877e+01
1	 8.975227522257340e-02	 1.672593653309383e+00	-2.522030025010868e+01
1	 5.963810848822310e-02	 1.673937960623182e+00	-2.556440596049107e+01
1	 2.971656357711749e-02	 1.674736375030116e+00	-2.593226313238541e+01
1	 0.000000000000000e+00	 1.675000000000000e+00	-2.632275518264172e+01
1	 3.059253818828811e-01	 1.653182150639726e+00	-2.314314831231287e+01
1	 2.747402316500878e-01	 1.658649862868273e+00	-2.330380155991555e+01
1	 2.436458909358746e-01	 1.663501801115695e+00	-2.349613297054863e+01
1	 2.126586258419818e-01	 1.667746345024976e+00	-2.371932381086854e+01
1	 1.817941825981722e-01	 1.671392364965773e+00	-2.397248634784834e+01
1	 1.510677737272065e-01	 1.674449190102844e+00	-2.425466964943929e+01
1	 1.204940662330642e-01	 1.676926576359123e+00	-2.456486541767676e+01
1	 9.008717177007092e-02	 1.678834674403883e+00	-2.490201381884949e+01
1	 5.986063874243096e-02	 1.680183997789714e+00	-2.526500927740311e+01
1	 2.982744627630135e-02	 1.680985391354862e+00	-2.565270620246498e+01
1	 0.000000000000000e+00	 1.681250000000000e+00	-2.606392461821397e+01
1	 3.070626509582619e-01	 1.659327809193490e+00	-2.272509940384170e+01
1	 2.757615707984564e-01	 1.664815847489567e+00	-2.289626497417323e+01
1	 2.445516377392530e-01	 1.669685822681940e+00	-2.310045391484260e+01
1	 2.134491783511687e-01	 1.673946145564679e+00	-2.333679638295172e+01
1	 1.824699974001335e-01	 1.677605719482796e+00	-2.360435096395656e+01
1	 1.516293639610341e-01	 1.680673908281956e+00	-2.390211076646632e+01
1	 1.209419995620252e-01	 1.683160504152465e+00	-2.422900954696328e+01
1	 9.042206831711083e-02	 1.685075695498425e+00	-2.458392782749573e+01
1	 6.008316899630656e-02	 1.686430034956264e+00	-2.496569897156643e+01
1	 2.993832897530568e-02	 1.687234407679612e+00	-2.537311518577810e+01
1	 0.000000000000000e+00	 1.687500000000000e+00	-2.580493341726885e+01
1	 1.687500000000000e+00	 0.000000000000000e+00	 7.000207065470812e+00
1	 1.687234407679612e+00	 2.993832897530472e-02	 6.777506140307217e+00
1	 1.686430034956264e+00	 6.008316899630570e-02	 6.540815056557824e+00
1	 1.685075695498425e+00	 9.042206831711008e-02	 6.290750397010942e+00
1	 1.683160504152464e+00	 1.209419995620246e-01	 6.027981818515548e+00
1	 1.680673908281956e+00	 1.516293639610336e-01	 5.753231846945751e+00
1	 1.677605719482796e+00	 1.824699974001331e-01	 5.467275420546848e+00
1	 1.673946145564679e+00	 2.134491783511683e-01	 5.170939170365279e+00
1	 1.669685822681940e+00	 2.445516377392528e-01	 4.865100427719526e+00
1	 1.664815847489567e+00	 2.757615707984563e-01	 4.550685950105381e+00
1	 1.659327809193490e+00	 3.070626509582619e-01	 4.228670358540338e+00
1	 1.693750000000000e+00	 0.000000000000000e+00	 6.874703897956005e+00
1	 1.693483424004365e+00	 3.004921167430905e-02	 6.648660639501164e+00
1	 1.692676072122824e+00	 6.030569925018127e-02	 6.409308157341835e+00
1	 1.691316716592987e+00	 9.075696486414997e-02	 6.157283113035426e+00
1	 1.689394431945843e+00	 1.213899328909856e-01	 5.893273945430986e+00
1	 1.686898626461127e+00	 1.521909541948612e-01	 5.618020539921686e+00
1	 1.683819073999904e+00	 1.831458122020943e-01	 5.332313646206297e+00
1	 1.680145946104500e+00	 2.142397308603553e-01	 5.036994034016232e+00
1	 1.675869844248338e+00	 2.454573845426312e-01	 4.732951377563030e+00
1	 1.670981832111057e+00	 2.767829099468250e-01	 4.421122860933962e+00
1	 1.665473467747497e+00	 3.081999200336427e-01	 4.102491498307440e+00
1	 1.700000000000000e+00	 0.000000000000000e+00	 6.751157889913836e+00
1	 1.699732440329118e+00	 3.016009437349289e-02	 6.521780222307596e+00
1	 1.698922109289383e+00	 6.052822950438915e-02	 6.279770020682507e+00
1	 1.697557737687550e+00	 9.109186141164750e-02	 6.025783928058313e+00
1	 1.695628359739222e+00	 1.218378662205016e-01	 5.760529074335959e+00
1	 1.693123344640297e+00	 1.527525444293123e-01	 5.484762620386751e+00
1	 1.690032428517012e+00	 1.838216270047183e-01	 5.199291050775082e+00
1	 1.686345746644320e+00	 2.150302833702142e-01	 4.904969205322372e+00
1	 1.682053865814736e+00	 2.463631313466605e-01	 4.602699041061724e+00
1	 1.677147816732546e+00	 2.778042490957921e-01	 4.293428117641143e+00
1	 1.671619126301503e+00	 3.093371891095381e-01	 3.978147800910453e+00
1	 1.706250000000000e+00	 0.000000000000000e+00	 6.629547534099350e+00
1	 1.705981456653871e+00	 3.027097707285627e-02	 6.396843294402959e+00
1	 1.705168146455942e+00	 6.075075975892932e-02	 6.152179011828013e+00
1	 1.703798758782112e+00	 9.142675795960269e-02	 5.896231214619350e+00
1	 1.701862287532601e+00	 1.222857995505725e-01	 5.629725633781013e+00
1	 1.699348062819467e+00	 1.533141346643870e-01	 5.353436622545075e+00
1	 1.696245783034120e+00	 1.844974418080051e-01	 5.068186324595214e+00
1	 1.692545547184140e+00	 2.158208358807454e-01	 4.774843582001896e+00
1	 1.688237887381133e+00	 2.472688781513406e-01	 4.474322575208371e+00
1	 1.683313801354036e+00	 2.788255882453579e-01	 4.167581188953205e+00
1	 1.677764784855510e+00	 3.104744581859482e-01	 3.855619099724347e+00
1	 1.712500000000000e+00	 0.000000000000000e+00	 6.509851637241863e+00
1	 1.712230472978624e+00	 3.038185977239917e-02	 6.273828576709101e+00
1	 1.711414183622501e+00	 6.097329001380181e-02	 6.026513811862207e+00
1	 1.710039779876674e+00	 9.176165450801552e-02	 5.768603660987537e+00
1	 1.708096215325980e+00	 1.227337328811984e-01	 5.500842367228297e+00
1	 1.705572780998638e+00	 1.538757249000851e-01	 5.224021393969963e+00
1	 1.702459137551228e+00	 1.851732566119547e-01	 4.938978469098674e+00
1	 1.698745347723960e+00	 2.166113883919485e-01	 4.646596369835553e+00
1	 1.694421908947532e+00	 2.481746249566718e-01	 4.347801441273114e+00
1	 1.689479785975525e+00	 2.798469273955224e-01	 4.043561843323164e+00
1	 1.683910443409516e+00	 3.116117272628728e-01	 3.734885522527379e+00
1	 1.718750000000000e+00	 0.000000000000000e+00	 6.392049314336427e+00
1	 1.718479489303377e+00	 3.049274247212160e-02	 6.152715099661705e+00
1	 1.717660220789061e+00	 6.119582026900659e-02	 5.902753411962255e+00
1	 1.716280800971236e+00	 9.209655105688599e-02	 5.642880265420660e+00
1	 1.714330143119358e+00	 1.231816662123792e-01	 5.373858327325989e+00
1	 1.711797499177809e+00	 1.544373151364067e-01	 5.096496089906481e+00
1	 1.708672492068336e+00	 1.858490714165671e-01	 4.811646791151080e+00
1	 1.704945148263781e+00	 2.174019409038238e-01	 4.520207077065439e+00
1	 1.700605930513929e+00	 2.490803717626537e-01	 4.223115399271370e+00
1	 1.695645770597015e+00	 2.808682665462853e-01	 3.921350143480983e+00
1	 1.690056101963523e+00	 3.127489963403123e-01	 3.615927486148380e+00
1	 1.725000000000000e+00	 0.000000000000000e+00	 6.276119983059249e+00
1	 1.724728505628130e+00	 3.060362517202355e-02	 6.033482197603156e+00
1	 1.723906257955620e+00	 6.141835052454363e-02	 5.780877107780978e+00
1	 1.722521822065799e+00	 9.243144760621412e-02	 5.519040330549576e+00
1	 1.720564070912737e+00	 1.236295995441150e-01	 5.248752870306985e+00
1	 1.718022217356979e+00	 1.549989053733518e-01	 4.970840167697464e+00
1	 1.714885846585444e+00	 1.865248862218422e-01	 4.686170897518651e+00
1	 1.711144948803601e+00	 2.181924934163711e-01	 4.395655508915651e+00
1	 1.706789952080327e+00	 2.499861185692865e-01	 4.100244502551585e+00
1	 1.701811755218505e+00	 2.818896056976470e-01	 3.800926441102705e+00
1	 1.696201760517529e+00	 3.138862654182665e-01	 3.498725691230245e+00
1	 1.731250000000000e+00	 0.000000000000000e+00	 6.162043358304091e+00
1	 1.730977521952883e+00	 3.071450787210503e-02	 5.916109503296784e+00
1	 1.730152295122179e+00	 6.164088078041300e-02	 5.660864493950829e+00
1	 1.728762843160361e+00	 9.276634415599994e-02	 5.397063457884046e+00
1	 1.726797998706116e+00	 1.240775328764057e-01	 5.125505650509159e+00
1	 1.724246935536150e+00	 1.555604956109206e-01	 4.847033381330659e+00
1	 1.721099201102552e+00	 1.872007010277801e-01	 4.562530689454591e+00
1	 1.717344749343422e+00	 2.189830459295906e-01	 4.272921762231636e+00
1	 1.712973973646725e+00	 2.508918653765703e-01	 3.979169092500614e+00
1	 1.707977739839994e+00	 2.829109448496073e-01	 3.682271371594616e+00
1	 1.702347419071536e+00	 3.150235344967352e-01	 3.383261117107013e+00
1	 1.737500000000000e+00	 0.000000000000000e+00	 6.049799446836718e+00
1	 1.737226538277636e+00	 3.082539057236603e-02	 5.800576942559663e+00
1	 1.736398332288739e+00	 6.186341103661466e-02	 5.542695458706672e+00
1	 1.735003864254923e+00	 9.310124070624338e-02	 5.276929542437267e+00
1	 1.733031926499494e+00	 1.245254662092513e-01	 5.004096615013612e+00
1	 1.730471653715320e+00	 1.561220858491128e-01	 4.725055776103322e+00
1	 1.727312555619660e+00	 1.878765158343807e-01	 4.440706357402842e+00
1	 1.723544549883241e+00	 2.197735984434821e-01	 4.151986220235114e+00
1	 1.719157995213124e+00	 2.517976121845049e-01	 3.859869793362973e+00
1	 1.714143724461484e+00	 2.839322840021660e-01	 3.565365848990349e+00
1	 1.708493077625542e+00	 3.161608035757187e-01	 3.269515016791374e+00
1	 1.743750000000000e+00	 0.000000000000000e+00	 5.939368542064154e+00
1	 1.743475554602388e+00	 3.093627327280654e-02	 5.686864729010658e+00
1	 1.742644369455298e+00	 6.208594129314861e-02	 5.426350178624045e+00
1	 1.741244885349486e+00	 9.343613725694445e-02	 5.158618767465929e+00
1	 1.739265854292874e+00	 1.249733995426519e-01	 4.884505998398552e+00
1	 1.736696371894490e+00	 1.566836760879286e-01	 4.604887683401603e+00
1	 1.733525910136768e+00	 1.885523306416441e-01	 4.320678375815159e+00
1	 1.729744350423062e+00	 2.205641509580457e-01	 4.032829547391982e+00
1	 1.725342016779521e+00	 2.527033589930904e-01	 3.742327507171865e+00
1	 1.720309709082974e+00	 2.849536231553233e-01	 3.450191060957402e+00
1	 1.714638736179549e+00	 3.172980726552168e-01	 3.157468912070073e+00
1	 1.750000000000000e+00	 0.000000000000000e+00	 5.830731218916158e+00
1	 1.749724570927141e+00	 3.104715597342660e-02	 5.574953358931217e+00
1	 1.748890406621857e+00	 6.230847155001487e-02	 5.311809113470213e+00
1	 1.747485906444048e+00	 9.377103380810323e-02	 5.042111599323027e+00
1	 1.745499782086252e+00	 1.254213328766073e-01	 4.766714317605204e+00
1	 1.742921090073661e+00	 1.572452663273678e-01	 4.486509715591833e+00
1	 1.739739264653876e+00	 1.892281454495704e-01	 4.202427498079820e+00
1	 1.735944150962882e+00	 2.213547034732815e-01	 3.915432684390040e+00
1	 1.731526038345920e+00	 2.536091058023268e-01	 3.626523408788517e+00
1	 1.726475693704463e+00	 2.859749623090794e-01	 3.336728463910936e+00
1	 1.720784394733555e+00	 3.184353417352296e-01	 3.047104588704378e+00
1	 1.659327809193490e+00	 3.070626509582619e-01	 4.228670358540338e+00
1	 1.653213821358251e+00	 3.384380457946705e-01	 4.031390173892541e+00
1	 1.646466553328508e+00	 3.698704350687277e-01	 3.813967298817293e+00
1	 1.639079261117299e+00	 4.013420308663297e-01	 3.574959167734218e+00
1	 1.631045817609864e+00	 4.328345998423445e-01	 3.312933644598261e+00
1	 1.622360741927263e+00	 4.643294875584612e-01	 3.026475120977544e+00
1	 1.613019227792837e+00	 4.958076448932799e-01	 2.714190799530092e+00
1	 1.603017170743082e+00	 5.272496564900995e-01	 2.374717131669478e+00
1	 1.592351194024379e+00	 5.586357711947575e-01	 2.006726375377755e+00
1	 1.581018673018042e+00	 5.899459344225172e-01	 1.608933236470415e+00
1	 1.569017758038443e+00	 6.211598223794863e-01	 1.180101554184112e+00
1	 1.665473467747497e+00	 3.081999200336427e-01	 4.102491498307440e+00
1	 1.659336835513121e+00	 3.396915200366789e-01	 3.902040601716784e+00
1	 1.652564577601952e+00	 3.712403255678477e-01	 3.682560548388511e+00
1	 1.645149925049297e+00	 4.028284828318817e-01	 3.442678432852341e+00
1	 1.637086728047378e+00	 4.344376909527403e-01	 3.181030342293415e+00
1	 1.628369485417700e+00	 4.660492264015991e-01	 2.896267136641435e+00
1	 1.618993373082579e+00	 4.976439695047564e-01	 2.587060409586356e+00
1	 1.608954271376793e+00	 5.292024329967823e-01	 2.252108601144242e+00
1	 1.598248791040227e+00	 5.607047925710897e-01	 1.890143229678307e+00
1	 1.586874297733384e+00	 5.921309193667030e-01	 1.499935208725894e+00
1	 1.574828934919947e+00	 6.234604143164172e-01	 1.080301211632801e+00
1	 1.671619126301503e+00	 3.093371891095381e-01	 3.978147800910453e+00
1	 1.665459849667991e+00	 3.409449942791063e-01	 3.774712909801787e+00
1	 1.658662601875397e+00	 3.726102160673008e-01	 3.553356384006903e+00
1	 1.651220588981296e+00	 4.043149347976904e-01	 3.312774569746237e+00
1	 1.643127638484892e+00	 4.360407820633255e-01	 3.051671373588691e+00
1	 1.634378228908138e+00	 4.677689652448694e-01	 2.768763726048309e+00
1	 1.624967518372321e+00	 4.994802941163183e-01	 2.462787221663534e+00
1	 1.614891372010504e+00	 5.311552095035129e-01	 2.132501908008805e+00
1	 1.604146388056075e+00	 5.627738139474437e-01	 1.776698193482021e+00
1	 1.592729922448725e+00	 5.943159043108938e-01	 1.394202841255177e+00
1	 1.580640111801450e+00	 6.257610062533474e-01	 9.838850145113442e-01
1	 1.677764784855510e+00	 3.104744581859482e-01	 3.855619099724347e+00
1	 1.671582863822860e+00	 3.421984685219530e-01	 3.649384879682600e+00
1	 1.664760626148841e+00	 3.739801065670871e-01	 3.426330601429728e+00
1	 1.657291252913295e+00	 4.058013867637552e-01	 3.185221458945383e+00
1	 1.649168548922406e+00	 4.376438731741000e-01	 2.924828778773781e+00
1	 1.640386972398575e+00	 4.694887040882719e-01	 2.643935168607245e+00
1	 1.630941663662064e+00	 5.013166187279652e-01	 2.341339837936900e+00
1	 1.620828472644215e+00	 5.331079860102919e-01	 2.015864065038856e+00
1	 1.610043985071923e+00	 5.648428353238190e-01	 1.666356782068880e+00
1	 1.598585547164067e+00	 5.965008892550900e-01	 1.291700247681450e+00
1	 1.586451288682954e+00	 6.280615981902781e-01	 8.908157744082932e-01
1	 1.683910443409516e+00	 3.116117272628728e-01	 3.734885522527379e+00
1	 1.677705877977730e+00	 3.434519427652192e-01	 3.526034617251570e+00
1	 1.670858650422285e+00	 3.753499970672065e-01	 3.301459349760859e+00
1	 1.663361916845294e+00	 4.072878387300768e-01	 3.059993362285429e+00
1	 1.655209459359920e+00	 4.392469642850639e-01	 2.800475006309374e+00
1	 1.646395715889012e+00	 4.712084429318064e-01	 2.521752177604561e+00
1	 1.636915808951806e+00	 5.031529433396970e-01	 2.222687318944178e+00
1	 1.626765573277927e+00	 5.350607625171188e-01	 1.902162566575410e+00
1	 1.615941582087771e+00	 5.669118567002158e-01	 1.559085014145431e+00
1	 1.604441171879408e+00	 5.986858741992918e-01	 1.192392065516632e+00
1	 1.592262465564457e+00	 6.303621901272086e-01	 8.010568458086997e-01
1	 1.690056101963523e+00	 3.127489963403123e-01	 3.615927486148380e+00
1	 1.683828892132600e+00	 3.447054170089046e-01	 3.404640546860782e+00
1	 1.676956674695729e+00	 3.767198875676593e-01	 3.178719125026407e+00
1	 1.669432580777292e+00	 4.087742906966546e-01	 2.937064915975393e+00
1	 1.661250369797434e+00	 4.408500553962175e-01	 2.678582905405849e+00
1	 1.652404459379449e+00	 4.729281817754734e-01	 2.402185892315166e+00
1	 1.642889954241548e+00	 5.049892679515139e-01	 2.106799175251639e+00
1	 1.632702673911639e+00	 5.370135390239938e-01	 1.791365379769081e+00
1	 1.621839179103619e+00	 5.689808780766341e-01	 1.454849402691626e+00
1	 1.610296796594750e+00	 6.008708591434987e-01	 1.096243446636107e+00
1	 1.598073642445961e+00	 6.326627820641393e-01	 7.145721162232657e-01
1	 1.696201760517529e+00	 3.138862654182665e-01	 3.498725691230245e+00
1	 1.689951906287470e+00	 3.459588912530093e-01	 3.285181405552875e+00
1	 1.683054698969174e+00	 3.780897780684451e-01	 3.058086763889691e+00
1	 1.675503244709291e+00	 4.102607426634892e-01	 2.816411123815442e+00
1	 1.667291280234948e+00	 4.424531465075602e-01	 2.559125718763324e+00
1	 1.658413202869887e+00	 4.746479206192725e-01	 2.285207870285361e+00
1	 1.648864099531290e+00	 5.068255925634159e-01	 1.993645359301446e+00
1	 1.638639774545350e+00	 5.389663155309168e-01	 1.683440936014702e+00
1	 1.627736776119467e+00	 5.710498994530739e-01	 1.353616946006532e+00
1	 1.616152421310091e+00	 6.030558440877112e-01	 1.003220047960545e+00
1	 1.603884819327464e+00	 6.349633740010698e-01	 6.313259965321536e-01
1	 1.702347419071536e+00	 3.150235344967352e-01	 3.383261117107013e+00
1	 1.696074920442340e+00	 3.472123654975333e-01	 3.167636237416862e+00
1	 1.689152723242617e+00	 3.794596685695640e-01	 2.939539437502770e+00
1	 1.681573908641289e+00	 4.117471946305799e-01	 2.698007350561776e+00
1	 1.673332190672463e+00	 4.440562376190926e-01	 2.442077075468916e+00
1	 1.664421946360324e+00	 4.763676594632039e-01	 2.170790079782871e+00
1	 1.654838244821033e+00	 5.086619171754030e-01	 1.883196257435513e+00
1	 1.644576875179060e+00	 5.409190920378879e-01	 1.578358122571453e+00
1	 1.633634373135315e+00	 5.731189208295351e-01	 1.255355118948088e+00
1	 1.622008046025433e+00	 6.052408290319289e-01	 9.132880223395945e-01
1	 1.609695996208967e+00	 6.372639659380004e-01	 5.512834115378162e-01
1	 1.708493077625542e+00	 3.161608035757187e-01	 3.269515016791374e+00
1	 1.702197934597209e+00	 3.484658397424765e-01	 3.051984388065704e+00
1	 1.695250747516062e+00	 3.808295590710161e-01	 2.823054645490365e+00
1	 1.687644572573288e+00	 4.132336465979274e-01	 2.581829315434542e+00
1	 1.679373101109977e+00	 4.456593287308143e-01	 2.327410984047396e+00
1	 1.670430689850761e+00	 4.780873983072674e-01	 2.058904892409672e+00
1	 1.660812390110775e+00	 5.104982417874748e-01	 1.775422682091587e+00
1	 1.650513975812772e+00	 5.428718685449071e-01	 1.476086274363877e+00
1	 1.639531970151163e+00	 5.751879422060177e-01	 1.160031864361926e+00
1	 1.627863670740774e+00	 6.074258139761523e-01	 8.264140096322246e-01
1	 1.615507173090471e+00	 6.395645578749311e-01	 4.744097907217857e-01
1	 1.714638736179549e+00	 3.172980726552168e-01	 3.157468912070073e+00
1	 1.708320948752080e+00	 3.497193139878392e-01	 2.938205499232604e+00
1	 1.701348771789506e+00	 3.821994495728015e-01	 2.708610210063200e+00
1	 1.693715236505286e+00	 4.147200985655312e-01	 2.467853085765445e+00
1	 1.685414011547490e+00	 4.472624198427255e-01	 2.215101825661179e+00
1	 1.676439433341198e+00	 4.798071371514632e-01	 1.949525075873841e+00
1	 1.666786535400517e+00	 5.123345663996319e-01	 1.670295864167104e+00
1	 1.656451076446484e+00	 5.448246450519744e-01	 1.376595165959185e+00
1	 1.645429567167011e+00	 5.772569635825219e-01	 1.067615584694426e+00
1	 1.633719295456116e+00	 6.096107989203808e-01	 7.425651279790311e-01
1	 1.621318349971974e+00	 6.418651498118615e-01	 4.006710592002998e-01
1	 1.720784394733555e+00	 3.184353417352296e-01	 3.047104588704378e+00
1	 1.714443962906949e+00	 3.509727882336210e-01	 2.826279503483192e+00
1	 1.707446796062951e+00	 3.835693400749202e-01	 2.596184270257622e+00
1	 1.699785900437286e+00	 4.162065505333916e-01	 2.356055070781478e+00
1	 1.691454921985004e+00	 4.488655109548259e-01	 2.105124347456108e+00
1	 1.682448176831636e+00	 4.815268759957912e-01	 1.842623786916227e+00
1	 1.672760680690260e+00	 5.141708910118742e-01	 1.567787445546696e+00
1	 1.662388177080195e+00	 5.467774215590896e-01	 1.279855003716481e+00
1	 1.651327164182859e+00	 5.793259849590476e-01	 9.780751337856441e-01
1	 1.639574920171458e+00	 6.117957838646149e-01	 6.617089652614676e-01
1	 1.627129526853477e+00	 6.441657417487924e-01	 3.300336288736427e-01
1	 1.569017758038443e+00	 6.211598223794863e-01	 1.180101554184112e+00
1	 1.556347395352019e+00	 6.522568780507497e-01	 1.167633648453175e+00
1	 1.543007346271411e+00	 6.832163488529666e-01	 1.124326331034868e+00
1	 1.528998204183102e+00	 7.140173258369891e-01	 1.049306638353486e+00
1	 1.514321409374140e+00	 7.446387843134632e-01	 9.417608673584428e-01
1	 1.498979261534318e+00	 7.750596257605761e-01	 8.009390439589104e-01
1	 1.482974929818439e+00	 8.052587208623178e-01	 6.261592136060186e-01
1	 1.466312460364777e+00	 8.352149535143715e-01	 4.168115217930211e-01
1	 1.448996781178123e+00	 8.649072656246355e-01	 1.723620528592411e-01
1	 1.431033704299042e+00	 8.943147025262583e-01	-1.076436035688533e-01
1	 1.412429925195270e+00	 9.234164588131116e-01	-4.235770878845853e-01
1	 1.574828934919947e+00	 6.234604143164172e-01	 1.080301211632801e+00
1	 1.562111644963699e+00	 6.546726442682187e-01	 1.078701119313606e+00
1	 1.548722188293320e+00	 6.857467797773404e-01	 1.045615651402161e+00
1	 1.534661160493019e+00	 7.166618344540818e-01	 9.800182321341264e-01
1	 1.519930007184242e+00	 7.473967057398677e-01	 8.809417950288292e-01
1	 1.504531036574154e+00	 7.779302169702121e-01	 7.474838970508255e-01
1	 1.488467429555166e+00	 8.082411605723778e-01	 5.788116668679884e-01
1	 1.471743247251253e+00	 8.383083422342548e-01	 3.741665509524481e-01
1	 1.454363435919075e+00	 8.681106258708061e-01	 1.328688216951419e-01
1	 1.436333829125271e+00	 8.976269792053031e-01	-1.456781875016859e-01
1	 1.417661147135611e+00	 9.268365197745579e-01	-4.619841540233751e-01
1	 1.580640111801450e+00	 6.257610062533474e-01	 9.838850145113442e-01
1	 1.567875894575384e+00	 6.570884104856876e-01	 9.927276672348613e-01
1	 1.554437030315247e+00	 6.882772107017143e-01	 9.694440600669545e-01
1	 1.540324116802979e+00	 7.193063430711742e-01	 9.128548313341074e-01
1	 1.525538604994423e+00	 7.501546271662722e-01	 8.218403771603586e-01
1	 1.510082811614113e+00	 7.808008081798481e-01	 6.953466084703461e-01
1	 1.493959929292071e+00	 8.112236002824381e-01	 5.323905539807283e-01
1	 1.477174034137970e+00	 8.414017309541375e-01	 3.320657689201429e-01
1	 1.459730090660341e+00	 8.713139861169762e-01	 9.354750945034640e-02
1	 1.441633953951901e+00	 9.009392558843483e-01	-1.839023665979234e-01
1	 1.422892369076447e+00	 9.302565807360041e-01	-5.009308110094215e-01
1	 1.586451288682954e+00	 6.280615981902781e-01	 8.908157744082932e-01
1	 1.573640144187073e+00	 6.595041767031560e-01	 9.096807748862787e-01
1	 1.560151872337194e+00	 6.908076416260881e-01	 8.957836549595446e-01
1	 1.545987073112983e+00	 7.219508516882670e-01	 8.477930842447945e-01
1	 1.531147202804681e+00	 7.529125485926770e-01	 7.644377384284635e-01
1	 1.515634586654192e+00	 7.836713993894840e-01	 6.445126962567447e-01
1	 1.499452429029151e+00	 8.142060399924984e-01	 4.868856943511042e-01
1	 1.482604821024928e+00	 8.444951196740208e-01	 2.905031955977162e-01
1	 1.465096745401923e+00	 8.745173463631473e-01	 5.439622690417401e-02
1	 1.446934078778931e+00	 9.042515325633931e-01	-2.223140573962081e-01
1	 1.428123591017778e+00	 9.336766416974505e-01	-5.404111292751388e-01
1	 1.592262465564457e+00	 6.303621901272086e-01	 8.010568458086997e-01
1	 1.579404393798768e+00	 6.619199429206251e-01	 8.295283996427789e-01
1	 1.565866714359160e+00	 6.933380725504621e-01	 8.246069413397379e-01
1	 1.551650029423031e+00	 7.245953603053595e-01	 7.848099800584822e-01
1	 1.536755800615017e+00	 7.556704700190813e-01	 7.087152790605842e-01
1	 1.521186361694394e+00	 7.865419905991201e-01	 5.949678898647057e-01
1	 1.504944928766408e+00	 8.171884797025586e-01	 4.422870560077987e-01
1	 1.488035607912126e+00	 8.475885083939039e-01	 2.494729381874325e-01
1	 1.470463400143821e+00	 8.777207066093177e-01	 1.541311241579435e-02
1	 1.452234203606361e+00	 9.075638092424382e-01	-2.609112068507518e-01
1	 1.433354812959603e+00	 9.370967026588966e-01	-5.804192658162250e-01
1	 1.598073642445961e+00	 6.326627820641393e-01	 7.145721162232657e-01
1	 1.585168643410467e+00	 6.643357091380938e-01	 7.522389649538155e-01
1	 1.571581556381145e+00	 6.958685034748359e-01	 7.558868243908166e-01
1	 1.557312985733122e+00	 7.272398689224522e-01	 7.238828426700894e-01
1	 1.542364398425431e+00	 7.584283914454862e-01	 6.546546698264817e-01
1	 1.526738136734718e+00	 7.894125818087561e-01	 5.466981263205830e-01
1	 1.510437428503841e+00	 8.201709194126190e-01	 3.985847528991093e-01
1	 1.493466394799565e+00	 8.506818971137871e-01	 2.089691896051684e-01
1	 1.475830054886032e+00	 8.809240668554883e-01	-2.340366857729248e-02
1	 1.457534328434190e+00	 9.108760859214829e-01	-2.996917917783317e-01
1	 1.438586034901923e+00	 9.405167636203430e-01	-6.209494626173240e-01
1	 1.603884819327464e+00	 6.349633740010698e-01	 6.313259965321536e-01
1	 1.590932893022171e+00	 6.667514753555628e-01	 6.777813519000349e-01
1	 1.577296398403151e+00	 6.983989343992100e-01	 6.895966019746016e-01
1	 1.562975942043257e+00	 7.298843775395447e-01	 6.649893246137504e-01
1	 1.547972996235923e+00	 7.611863128718909e-01	 6.022378471368302e-01
1	 1.532289911775165e+00	 7.922831730183922e-01	 4.996895464618425e-01
1	 1.515929928241450e+00	 8.231533591226792e-01	 3.557690422493682e-01
1	 1.498897181687245e+00	 8.537752858336700e-01	 1.689862269272686e-01
1	 1.481196709628559e+00	 8.841274271016587e-01	-6.205592404956728e-02
1	 1.462834453262419e+00	 9.141883626005282e-01	-3.386538183171171e-01
1	 1.443817256844737e+00	 9.439368245817894e-01	-6.619960451126881e-01
1	 1.609695996208967e+00	 6.372639659380004e-01	 5.512834115378162e-01
1	 1.596697142633879e+00	 6.691672415730315e-01	 6.061248909327319e-01
1	 1.583011240425175e+00	 7.009293653235837e-01	 6.257099575433063e-01
1	 1.568638898353435e+00	 7.325288861566372e-01	 6.081074011307102e-01
1	 1.553581594046492e+00	 7.639442342982955e-01	 5.514470082484282e-01
1	 1.537841686815733e+00	 7.951537642280282e-01	 4.539284912583201e-01
1	 1.521422427979236e+00	 8.261357988327395e-01	 3.138303219729794e-01
1	 1.504327968575165e+00	 8.568686745535533e-01	 1.295184098716329e-01
1	 1.486563364371402e+00	 8.873307873478292e-01	-1.005454358677118e-01
1	 1.468134578091048e+00	 9.175006392795729e-01	-3.777953213974268e-01
1	 1.449048478788046e+00	 9.473568855432356e-01	-7.035534206797256e-01
1	 1.615507173090471e+00	 6.395645578749311e-01	 4.744097907217857e-01
1	 1.602461392245594e+00	 6.715830077905004e-01	 5.372393537916973e-01
1	 1.588726082447218e+00	 7.034597962479575e-01	 5.642009532045933e-01
1	 1.574301854663658e+00	 7.351733947737300e-01	 5.532153643651927e-01
1	 1.559190191857140e+00	 7.667021557247001e-01	 5.022646065726304e-01
1	 1.543393461856423e+00	 7.980243554376641e-01	 4.094014982126783e-01
1	 1.526914927717198e+00	 8.291182385427995e-01	 2.727591281436361e-01
1	 1.509758755463326e+00	 8.599620632734364e-01	 9.056017931131999e-02
1	 1.491930019114559e+00	 8.905341475940000e-01	-1.388739602598983e-01
1	 1.473434702920077e+00	 9.208129159586179e-01	-4.171143642241399e-01
1	 1.454279700731850e+00	 9.507769465046818e-01	-7.456160771652622e-01
1	 1.621318349971974e+00	 6.418651498118615e-01	 4.006710592002998e-01
1	 1.608225641857312e+00	 6.739987740079694e-01	 4.710949455967999e-01
1	 1.594440924469281e+00	 7.059902271723314e-01	 5.050440229354582e-01
1	 1.579964810973923e+00	 7.378179033908225e-01	 5.002918176851903e-01
1	 1.564798789667865e+00	 7.694600771511048e-01	 4.546733470847852e-01
1	 1.548945236897236e+00	 8.008949466473003e-01	 3.660952978383005e-01
1	 1.532407427455336e+00	 8.321006782528598e-01	 2.325461325187435e-01
1	 1.515189542351727e+00	 8.630554519933195e-01	 5.210605582013361e-02
1	 1.497296673858032e+00	 8.937375078401704e-01	-1.770432282755865e-01
1	 1.478734827749506e+00	 9.241251926376630e-01	-4.566090377698089e-01
1	 1.459510922676149e+00	 9.541970074661282e-01	-7.881785814433873e-01
1	 1.627129526853477e+00	 6.441657417487924e-01	 3.300336288736427e-01
1	 1.613989891469035e+00	 6.764145402254380e-01	 4.076622971090544e-01
1	 1.600155766491363e+00	 7.085206580967054e-01	 4.482139659418642e-01
1	 1.585627767284233e+00	 7.404624120079152e-01	 4.493156701248644e-01
1	 1.570407387478669e+00	 7.722179985775096e-01	 4.086561818320253e-01
1	 1.554497011938170e+00	 8.037655378569362e-01	 3.239968102126218e-01
1	 1.537899927193651e+00	 8.350831179629202e-01	 1.931821401162261e-01
1	 1.520620329240370e+00	 8.661488407132028e-01	 1.415063824935769e-02
1	 1.502663328601820e+00	 8.969408680863411e-01	-2.150549462347935e-01
1	 1.484034952579334e+00	 9.274374693167079e-01	-4.962774602785887e-01
1	 1.464742144620942e+00	 9.576170684275744e-01	-8.312355780043008e-01
1	 1.412429925195270e+00	 9.234164588131116e-01	-4.235770878845853e-01
1	 1.393193019326465e+00	 9.521919244005576e-01	-1.614427708159833e+00
1	 1.373331435848735e+00	 9.806207306103145e-01	-2.830190997176685e+00
1	 1.352854488442549e+00	 1.008682796072803e+00	-4.068754368816281e+00
1	 1.331772343264670e+00	 1.036358372237633e+00	-5.327912212326746e+00
1	 1.310096004041184e+00	 1.063628088283842e+00	-6.605372725428193e+00
1	 1.287837294336642e+00	 1.090472995220908e+00	-7.898765261063883e+00
1	 1.265008837051568e+00	 1.116874608974198e+00	-9.205648147777000e+00
1	 1.241624031217757e+00	 1.142814952252537e+00	-1.052351693932403e+01
1	 1.217697026177599e+00	 1.168276595001096e+00	-1.184981304516731e+01
1	 1.193242693250000e+00	 1.193242693250000e+00	-1.318193268994895e+01
1	 1.417661147135611e+00	 9.268365197745579e-01	-4.619841540233751e-01
1	 1.398352993467046e+00	 9.557185611602756e-01	-1.648015521202548e+00
1	 1.378417848568896e+00	 9.842526592446160e-01	-2.856786905752840e+00
1	 1.357865060616741e+00	 1.012418658282557e+00	-4.086032559860214e+00
1	 1.336704833419778e+00	 1.040196736580927e+00	-5.333401132163869e+00
1	 1.314948211458636e+00	 1.067567451574986e+00	-6.596463217116514e+00
1	 1.292607062088847e+00	 1.094511784092762e+00	-7.872719382639104e+00
1	 1.269694054962415e+00	 1.121011181600089e+00	-9.159608630998752e+00
1	 1.246222638737179e+00	 1.147047600223230e+00	-1.045451724375621e+01
1	 1.222207015160503e+00	 1.172603545351601e+00	-1.175478795798695e+01
1	 1.197662110630250e+00	 1.197662110630250e+00	-1.305772941781908e+01
1	 1.422892369076447e+00	 9.302565807360041e-01	-5.009308110094215e-01
1	 1.403512967608213e+00	 9.592451979199987e-01	-1.681721140392706e+00
1	 1.383504261289712e+00	 9.878845878789374e-01	-2.883094996452886e+00
1	 1.362875632791640e+00	 1.016154520492355e+00	-4.102634332334928e+00
1	 1.341637323575625e+00	 1.044035100924302e+00	-5.337842881993311e+00
1	 1.319800418876838e+00	 1.071506814866254e+00	-6.586154422520164e+00
1	 1.297376829841789e+00	 1.098550572964796e+00	-7.844941479573254e+00
1	 1.274379272873970e+00	 1.125147754226224e+00	-9.111524425805751e+00
1	 1.250821246257260e+00	 1.151280248194243e+00	-1.038318091840036e+01
1	 1.226717004143997e+00	 1.176930495702510e+00	-1.165715561848763e+01
1	 1.202081528011000e+00	 1.202081528011000e+00	-1.293067013245725e+01
1	 1.428123591017778e+00	 9.336766416974505e-01	-5.404111292751388e-01
1	 1.408672941749964e+00	 9.627718346797269e-01	-1.715543271159087e+00
1	 1.388590674011183e+00	 9.915165165132788e-01	-2.909118432112037e+00
1	 1.367886204967244e+00	 1.019890382702198e+00	-4.118567119412488e+00
1	 1.346569813732208e+00	 1.047873465267756e+00	-5.341248969178272e+00
1	 1.324652626295787e+00	 1.075446178157647e+00	-6.574461718411751e+00
1	 1.302146597595471e+00	 1.102589361837009e+00	-7.815450585103846e+00
1	 1.279064490786234e+00	 1.129284326852604e+00	-9.061418001301345e+00
1	 1.255419853778001e+00	 1.155512896165577e+00	-1.030953364050641e+01
1	 1.231226993128080e+00	 1.181257446053824e+00	-1.155694467779334e+01
1	 1.206500945392250e+00	 1.206500945392250e+00	-1.280078621862368e+01
1	 1.433354812959603e+00	 9.370967026588966e-01	-5.804192658162250e-01
1	 1.413832915892299e+00	 9.662984714394596e-01	-1.749480637829200e+00
1	 1.393677086733310e+00	 9.951484451476398e-01	-2.934860329392611e+00
1	 1.372896777143555e+00	 1.023626244912085e+00	-4.133838245751287e+00
1	 1.351502303889529e+00	 1.051711829611290e+00	-5.343630733091477e+00
1	 1.329504833715484e+00	 1.079385541449165e+00	-6.561400257085168e+00
1	 1.306916365349891e+00	 1.106628150709402e+00	-7.784265454611139e+00
1	 1.283749708699208e+00	 1.133420899479229e+00	-9.009311498572318e+00
1	 1.260018461299403e+00	 1.159745544137230e+00	-1.023360071247384e+01
1	 1.235736982112754e+00	 1.185584396405543e+00	-1.145418336876311e+01
1	 1.210920362774000e+00	 1.210920362774000e+00	-1.266810860290695e+01
1	 1.438586034901923e+00	 9.405167636203430e-01	-6.209494626173240e-01
1	 1.418992890035221e+00	 9.698251081991978e-01	-1.783531983286006e+00
1	 1.398763499456092e+00	 9.987803737820208e-01	-2.960323759623800e+00
1	 1.377907349320572e+00	 1.027362107122018e+00	-4.148454929469539e+00
1	 1.356434794047587e+00	 1.055550193954903e+00	-5.344999348168986e+00
1	 1.334357041135929e+00	 1.083324904740807e+00	-6.546984970437721e+00
1	 1.311686133105050e+00	 1.110666939581975e+00	-7.751404570669822e+00
1	 1.288434926612891e+00	 1.137557472106099e+00	-8.955226736653611e+00
1	 1.264617068821463e+00	 1.163978192109203e+00	-1.015540706866745e+01
1	 1.240246971098017e+00	 1.189911346757668e+00	-1.134889951359670e+01
1	 1.215339780156250e+00	 1.215339780156250e+00	-1.253266776205451e+01
1	 1.443817256844737e+00	 9.439368245817894e-01	-6.619960451126881e-01
1	 1.424152864178726e+00	 9.733517449589402e-01	-1.817696068631382e+00
1	 1.403849912179530e+00	 1.002412302416422e+00	-2.985511749622674e+00
1	 1.382917921498295e+00	 1.031097969331995e+00	-4.162424284074780e+00
1	 1.361367284206381e+00	 1.059388558298596e+00	-5.345365826898830e+00
1	 1.339209248557122e+00	 1.087264268032574e+00	-6.531230573962157e+00
1	 1.316455900860948e+00	 1.114705728454728e+00	-7.716886147991354e+00
1	 1.293120144527284e+00	 1.141694044733213e+00	-8.899185218362216e+00
1	 1.269215676344183e+00	 1.168210840081495e+00	-1.007497728208428e+01
1	 1.244756960083870e+00	 1.194238297110197e+00	-1.124112053127329e+01
1	 1.219759197539000e+00	 1.219759197539000e+00	-1.239449373112180e+01
1	 1.449048478788046e+00	 9.473568855432356e-01	-7.035534206797256e-01
1	 1.429312838322817e+00	 9.768783817186882e-01	-1.851971672857471e+00
1	 1.408936324903624e+00	 1.006044231050842e+00	-3.010427282497702e+00
1	 1.387928493676725e+00	 1.034833831542017e+00	-4.175753320352657e+00
1	 1.366299774365914e+00	 1.063226922642369e+00	-5.344741022743614e+00
1	 1.344061455979063e+00	 1.091203631324466e+00	-6.514151570653170e+00
1	 1.321225668617584e+00	 1.118744517327660e+00	-7.680728138258567e+00
1	 1.297805362442385e+00	 1.145830617360572e+00	-8.841208136005079e+00
1	 1.273814283867563e+00	 1.172443488054108e+00	-9.992335570876772e+00
1	 1.249266949070313e+00	 1.198565247463130e+00	-1.113087344483022e+01
1	 1.224178614922250e+00	 1.224178614922250e+00	-1.225361611144507e+01
1	 1.454279700731850e+00	 9.507769465046818e-01	-7.456160771652622e-01
1	 1.434472812467493e+00	 9.804050184784409e-01	-1.886357592524907e+00
1	 1.414022737628372e+00	 1.009676159685283e+00	-3.035073298435096e+00
1	 1.392939065855861e+00	 1.038569693752084e+00	-4.188448948214014e+00
1	 1.371232264526183e+00	 1.067065286986221e+00	-5.343135633001347e+00
1	 1.348913663401752e+00	 1.095142994616482e+00	-6.495762254829424e+00
1	 1.325995436374960e+00	 1.122783306200772e+00	-7.642948234856972e+00
1	 1.302490580358196e+00	 1.149967189988176e+00	-8.781316376964030e+00
1	 1.278412891391603e+00	 1.176676136027041e+00	-9.907505804734747e+00
1	 1.253776938057347e+00	 1.202892197816469e+00	-1.101818488848427e+01
1	 1.228598032306000e+00	 1.228598032306000e+00	-1.211006407844222e+01
1	 1.459510922676149e+00	 9.541970074661282e-01	-7.881785814433873e-01
1	 1.439632786612753e+00	 9.839316552381987e-01	-1.920852641447916e+00
1	 1.419109150353777e+00	 1.013308088319743e+00	-3.059452695467731e+00
1	 1.397949638035703e+00	 1.042305555962196e+00	-4.200517978502960e+00
1	 1.376164754687189e+00	 1.070903651330153e+00	-5.340560201603521e+00
1	 1.353765870825189e+00	 1.099082357908623e+00	-6.476076715872947e+00
1	 1.330765204133074e+00	 1.126822095074064e+00	-7.603563877503394e+00
1	 1.307175798274717e+00	 1.154103762616025e+00	-8.719530529160188e+00
1	 1.283011498916303e+00	 1.180908784000293e+00	-9.820511511130386e+00
1	 1.258286927044970e+00	 1.207219148170213e+00	-1.090308111459974e+01
1	 1.233017449690250e+00	 1.233017449690250e+00	-1.196386638924571e+01
1	 1.464742144620942e+00	 9.576170684275744e-01	-8.312355780043008e-01
1	 1.444792760758599e+00	 9.874582919979615e-01	-1.955455650386336e+00
1	 1.424195563079837e+00	 1.016940016954224e+00	-3.083568330228011e+00
1	 1.402960210216252e+00	 1.046041418172352e+00	-4.211967124765847e+00
1	 1.381097244848933e+00	 1.074742015674165e+00	-5.337025121854206e+00
1	 1.358618078249374e+00	 1.103021721200889e+00	-6.455108841888996e+00
1	 1.335534971891927e+00	 1.130860883947535e+00	-7.562592256775885e+00
1	 1.311861016191946e+00	 1.158240335244118e+00	-8.655870886401503e+00
1	 1.287610106441662e+00	 1.185141431973865e+00	-9.731375881428976e+00
1	 1.262796916033183e+00	 1.211546098524362e+00	-1.078558800050719e+01
1	 1.237436867075000e+00	 1.237436867075000e+00	-1.181505139017175e+01
1	 1.193242693250000e+00	 1.193242693250000e+00	-1.318193268994895e+01
1	 1.168276595001096e+00	 1.217697026177599e+00	-1.452508494655307e+01
1	 1.142814952252537e+00	 1.241624031217757e+00	-1.577510183281391e+01
1	 1.116874608974198e+00	 1.265008837051569e+00	-1.692634661776497e+01
1	 1.090472995220908e+00	 1.287837294336642e+00	-1.797355001689011e+01
1	 1.063628088283843e+00	 1.310096004041184e+00	-1.891182988212449e+01
1	 1.036358372237633e+00	 1.331772343264670e+00	-1.973670877090701e+01
1	 1.008682796072804e+00	 1.352854488442549e+00	-2.044412929244270e+01
1	 9.806207306103155e-01	 1.373331435848735e+00	-2.103046714850160e+01
1	 9.521919244005584e-01	 1.393193019326464e+00	-2.149254180590384e+01
1	 9.234164588131116e-01	 1.412429925195270e+00	-2.182762475804526e+01
1	 1.197662110630250e+00	 1.197662110630250e+00	-1.305772941781908e+01
1	 1.172603545351600e+00	 1.222207015160503e+00	-1.436159335701330e+01
1	 1.147047600223230e+00	 1.246222638737179e+00	-1.557467179731203e+01
1	 1.121011181600089e+00	 1.269694054962414e+00	-1.669146314844587e+01
1	 1.094511784092762e+00	 1.292607062088846e+00	-1.770682396851390e+01
1	 1.067567451574987e+00	 1.314948211458636e+00	-1.861598819521893e+01
1	 1.040196736580928e+00	 1.336704833419778e+00	-1.941458430948052e+01
1	 1.012418658282557e+00	 1.357865060616741e+00	-2.009865033188230e+01
1	 9.842526592446170e-01	 1.378417848568895e+00	-2.066464657110598e+01
1	 9.557185611602764e-01	 1.398352993467045e+00	-2.110946606282597e+01
1	 9.268365197745579e-01	 1.417661147135611e+00	-2.143044265725420e+01
1	 1.202081528011000e+00	 1.202081528011000e+00	-1.293067013245725e+01
1	 1.176930495702510e+00	 1.226717004143996e+00	-1.419564079053972e+01
1	 1.151280248194243e+00	 1.250821246257260e+00	-1.537215744800723e+01
1	 1.125147754226224e+00	 1.274379272873969e+00	-1.645485294687288e+01
1	 1.098550572964796e+00	 1.297376829841789e+00	-1.743870902985784e+01
1	 1.071506814866255e+00	 1.319800418876837e+00	-1.831907511504727e+01
1	 1.044035100924302e+00	 1.341637323575625e+00	-1.909168505598891e+01
1	 1.016154520492355e+00	 1.362875632791639e+00	-1.975267178997915e+01
1	 9.878845878789382e-01	 1.383504261289711e+00	-2.029857979549980e+01
1	 9.592451979199997e-01	 1.403512967608212e+00	-2.072637529860863e+01
1	 9.302565807360044e-01	 1.422892369076447e+00	-2.103345418729637e+01
1	 1.206500945392250e+00	 1.206500945392250e+00	-1.280078621862368e+01
1	 1.181257446053824e+00	 1.231226993128080e+00	-1.402725429083496e+01
1	 1.155512896165577e+00	 1.255419853778001e+00	-1.516758168944691e+01
1	 1.129284326852604e+00	 1.279064490786233e+00	-1.621653498812628e+01
1	 1.102589361837009e+00	 1.302146597595471e+00	-1.716922046345303e+01
1	 1.075446178157647e+00	 1.324652626295786e+00	-1.802110241516235e+01
1	 1.047873465267757e+00	 1.346569813732209e+00	-1.876801952463134e+01
1	 1.019890382702198e+00	 1.367886204967244e+00	-1.940619915663783e+01
1	 9.915165165132793e-01	 1.388590674011182e+00	-1.993226952715737e+01
1	 9.627718346797278e-01	 1.408672941749963e+00	-2.034326967831890e+01
1	 9.336766416974506e-01	 1.428123591017778e+00	-2.063665722035882e+01
1	 1.210920362774000e+00	 1.210920362774000e+00	-1.266810860290695e+01
1	 1.185584396405543e+00	 1.235736982112754e+00	-1.385646050680268e+01
1	 1.159745544137230e+00	 1.260018461299402e+00	-1.496096709180579e+01
1	 1.133420899479229e+00	 1.283749708699208e+00	-1.597652797027750e+01
1	 1.106628150709403e+00	 1.306916365349891e+00	-1.689837330901979e+01
1	 1.079385541449165e+00	 1.329504833715484e+00	-1.772208169723981e+01
1	 1.051711829611290e+00	 1.351502303889528e+00	-1.844359610531129e+01
1	 1.023626244912086e+00	 1.372896777143555e+00	-1.905923784161882e+01
1	 9.951484451476403e-01	 1.393677086733309e+00	-1.956571843205717e+01
1	 9.662984714394607e-01	 1.413832915892299e+00	-1.996014936461320e+01
1	 9.370967026588967e-01	 1.433354812959603e+00	-2.024004965969221e+01
1	 1.215339780156250e+00	 1.215339780156250e+00	-1.253266776205451e+01
1	 1.189911346757667e+00	 1.240246971098017e+00	-1.368328569972681e+01
1	 1.163978192109203e+00	 1.264617068821463e+00	-1.475233589696492e+01
1	 1.137557472106099e+00	 1.288434926612891e+00	-1.573485031942654e+01
1	 1.110666939581975e+00	 1.311686133105050e+00	-1.662618238751859e+01
1	 1.083324904740808e+00	 1.334357041135929e+00	-1.742202439420445e+01
1	 1.055550193954903e+00	 1.356434794047586e+00	-1.811842306589767e+01
1	 1.027362107122019e+00	 1.377907349320572e+00	-1.871179317599453e+01
1	 9.987803737820216e-01	 1.398763499456092e+00	-1.919892913739960e+01
1	 9.698251081991983e-01	 1.418992890035219e+00	-1.957701451778264e+01
1	 9.405167636203430e-01	 1.438586034901923e+00	-1.984362943904484e+01
1	 1.219759197539000e+00	 1.219759197539000e+00	-1.239449373112180e+01
1	 1.194238297110196e+00	 1.244756960083870e+00	-1.350775575029244e+01
1	 1.168210840081495e+00	 1.269215676344183e+00	-1.454171002445962e+01
1	 1.141694044733213e+00	 1.293120144527284e+00	-1.549152019462806e+01
1	 1.114705728454728e+00	 1.316455900860948e+00	-1.635266230511404e+01
1	 1.087264268032574e+00	 1.339209248557122e+00	-1.712094177328600e+01
1	 1.059388558298596e+00	 1.361367284206381e+00	-1.779250855443519e+01
1	 1.031097969331996e+00	 1.382917921498295e+00	-1.836387041357593e+01
1	 1.002412302416422e+00	 1.403849912179530e+00	-1.883190423230991e+01
1	 9.733517449589413e-01	 1.424152864178725e+00	-1.919386529579516e+01
1	 9.439368245817893e-01	 1.443817256844737e+00	-1.944739452211095e+01
1	 1.224178614922250e+00	 1.224178614922250e+00	-1.225361611144507e+01
1	 1.198565247463131e+00	 1.249266949070313e+00	-1.332989616545665e+01
1	 1.172443488054108e+00	 1.273814283867563e+00	-1.432911107729720e+01
1	 1.145830617360573e+00	 1.297805362442386e+00	-1.524655549271233e+01
1	 1.118744517327660e+00	 1.321225668617585e+00	-1.607782745705089e+01
1	 1.091203631324466e+00	 1.344061455979062e+00	-1.681884493901051e+01
1	 1.063226922642369e+00	 1.366299774365913e+00	-1.746586060130710e+01
1	 1.034833831542018e+00	 1.387928493676724e+00	-1.801547473230645e+01
1	 1.006044231050843e+00	 1.408936324903623e+00	-1.846464626852501e+01
1	 9.768783817186892e-01	 1.429312838322816e+00	-1.881070185433775e+01
1	 9.473568855432356e-01	 1.449048478788046e+00	-1.905134290198984e+01
1	 1.228598032306000e+00	 1.228598032306000e+00	-1.211006407844222e+01
1	 1.202892197816469e+00	 1.253776938057346e+00	-1.314973208517005e+01
1	 1.176676136027041e+00	 1.278412891391603e+00	-1.411456034765071e+01
1	 1.149967189988176e+00	 1.302490580358197e+00	-1.499997385300127e+01
1	 1.122783306200772e+00	 1.325995436374960e+00	-1.580169203144841e+01
1	 1.095142994616482e+00	 1.348913663401752e+00	-1.651574483612690e+01
1	 1.067065286986222e+00	 1.371232264526182e+00	-1.713848712135178e+01
1	 1.038569693752085e+00	 1.392939065855860e+00	-1.766661123562676e+01
1	 1.009676159685284e+00	 1.414022737628372e+00	-1.809715776106662e+01
1	 9.804050184784417e-01	 1.434472812467492e+00	-1.842752434685650e+01
1	 9.507769465046820e-01	 1.454279700731850e+00	-1.865547260065713e+01
1	 1.233017449690250e+00	 1.233017449690250e+00	-1.196386638924571e+01
1	 1.207219148170213e+00	 1.258286927044970e+00	-1.296728828895366e+01
1	 1.180908784000293e+00	 1.283011498916303e+00	-1.389807882242900e+01
1	 1.154103762616025e+00	 1.307175798274717e+00	-1.475179266192330e+01
1	 1.126822095074064e+00	 1.330765204133074e+00	-1.552427001301156e+01
1	 1.099082357908623e+00	 1.353765870825189e+00	-1.621165225247008e+01
1	 1.070903651330154e+00	 1.376164754687188e+00	-1.681039591593309e+01
1	 1.042305555962197e+00	 1.397949638035703e+00	-1.731728495380996e+01
1	 1.013308088319744e+00	 1.419109150353776e+00	-1.772944118889820e+01
1	 9.839316552381997e-01	 1.439632786612753e+00	-1.804433292459867e+01
1	 9.541970074661282e-01	 1.459510922676149e+00	-1.825978166844708e+01
1	 1.237436867075000e+00	 1.237436867075000e+00	-1.181505139017175e+01
1	 1.211546098524362e+00	 1.262796916033183e+00	-1.278258920233574e+01
1	 1.185141431973866e+00	 1.287610106441662e+00	-1.367968718872812e+01
1	 1.158240335244119e+00	 1.311861016191947e+00	-1.450202905752933e+01
1	 1.130860883947535e+00	 1.335534971891926e+00	-1.524557518666416e+01
1	 1.103021721200889e+00	 1.358618078249374e+00	-1.590657782176298e+01
1	 1.074742015674166e+00	 1.381097244848932e+00	-1.648159467496689e+01
1	 1.046041418172353e+00	 1.402960210216252e+00	-1.696750084526833e+01
1	 1.016940016954224e+00	 1.424195563079836e+00	-1.736149899557000e+01
1	 9.874582919979624e-01	 1.444792760758598e+00	-1.766112773664999e+01
1	 9.576170684275744e-01	 1.464742144620942e+00	-1.786426818354659e+01
1	 9.234164588131116e-01	 1.412429925195270e+00	-2.182762475804526e+01
1	 8.943147025262583e-01	 1.431033704299042e+00	-2.169529938263189e+01
1	 8.649072656246355e-01	 1.448996781178123e+00	-2.159503111750394e+01
1	 8.352149535143714e-01	 1.466312460364777e+00	-2.152861471059993e+01
1	 8.052587208623180e-01	 1.482974929818439e+00	-2.149766938947523e+01
1	 7.750596257605765e-01	 1.498979261534318e+00	-2.150363541525739e+01
1	 7.446387843134635e-01	 1.514321409374140e+00	-2.154777165564609e+01
1	 7.140173258369897e-01	 1.528998204183102e+00	-2.163115416810261e+01
1	 6.832163488529674e-01	 1.543007346271411e+00	-2.175467577636781e+01
1	 6.522568780507507e-01	 1.556347395352019e+00	-2.191904661588060e+01
1	 6.211598223794863e-01	 1.569017758038443e+00	-2.212479561657969e+01
1	 9.268365197745579e-01	 1.417661147135611e+00	-2.143044265725420e+01
1	 8.976269792053030e-01	 1.436333829125271e+00	-2.129925961207920e+01
1	 8.681106258708061e-01	 1.454363435919075e+00	-2.119931376638390e+01
1	 8.383083422342547e-01	 1.471743247251253e+00	-2.113236638762706e+01
1	 8.082411605723779e-01	 1.488467429555166e+00	-2.110000684253350e+01
1	 7.779302169702126e-01	 1.504531036574154e+00	-2.110364921448875e+01
1	 7.473967057398683e-01	 1.519930007184242e+00	-2.114452991961736e+01
1	 7.166618344540825e-01	 1.534661160493018e+00	-2.122370631287093e+01
1	 6.857467797773414e-01	 1.548722188293320e+00	-2.134205626762012e+01
1	 6.546726442682196e-01	 1.562111644963699e+00	-2.150027870481709e+01
1	 6.234604143164172e-01	 1.574828934919947e+00	-2.169889504084794e+01
1	 9.302565807360044e-01	 1.422892369076447e+00	-2.103345418729637e+01
1	 9.009392558843482e-01	 1.441633953951901e+00	-2.090326925745067e+01
1	 8.713139861169762e-01	 1.459730090660341e+00	-2.080350885747211e+01
1	 8.414017309541378e-01	 1.477174034137971e+00	-2.073590097895415e+01
1	 8.112236002824385e-01	 1.493959929292071e+00	-2.070200531130116e+01
1	 7.808008081798483e-01	 1.510082811614112e+00	-2.070320992224708e+01
1	 7.501546271662729e-01	 1.525538604994423e+00	-2.074072891679731e+01
1	 7.193063430711750e-01	 1.540324116802979e+00	-2.081560106611335e+01
1	 6.882772107017152e-01	 1.554437030315246e+00	-2.092868939017469e+01
1	 6.570884104856882e-01	 1.567875894575384e+00	-2.108068167078385e+01
1	 6.257610062533474e-01	 1.580640111801450e+00	-2.127209186466678e+01
1	 9.336766416974506e-01	 1.428123591017778e+00	-2.063665722035882e+01
1	 9.042515325633931e-01	 1.446934078778931e+00	-2.050732777571299e+01
1	 8.745173463631472e-01	 1.465096745401923e+00	-2.040761735294115e+01
1	 8.444951196740210e-01	 1.482604821024928e+00	-2.033922087013731e+01
1	 8.142060399924985e-01	 1.499452429029151e+00	-2.030366852088005e+01
1	 7.836713993894844e-01	 1.515634586654192e+00	-2.030232251755895e+01
1	 7.529125485926775e-01	 1.531147202804680e+00	-2.033637479297450e+01
1	 7.219508516882679e-01	 1.545987073112983e+00	-2.040684565191219e+01
1	 6.908076416260890e-01	 1.560151872337194e+00	-2.051458335687412e+01
1	 6.595041767031573e-01	 1.573640144187073e+00	-2.066026462502259e+01
1	 6.280615981902781e-01	 1.586451288682954e+00	-2.084439600672232e+01
1	 9.370967026588967e-01	 1.433354812959603e+00	-2.024004965969221e+01
1	 9.075638092424378e-01	 1.452234203606361e+00	-2.011143463176054e+01
1	 8.777207066093177e-01	 1.470463400143821e+00	-2.001164020091701e+01
1	 8.475885083939039e-01	 1.488035607912126e+00	-1.994232841190739e+01
1	 8.171884797025589e-01	 1.504944928766408e+00	-1.990500014199021e+01
1	 7.865419905991206e-01	 1.521186361694394e+00	-1.990099190676434e+01
1	 7.556704700190821e-01	 1.536755800615016e+00	-1.993147360421775e+01
1	 7.245953603053601e-01	 1.551650029423030e+00	-1.999744718888900e+01
1	 6.933380725504629e-01	 1.565866714359160e+00	-2.009974626066558e+01
1	 6.619199429206262e-01	 1.579404393798768e+00	-2.023903654576351e+01
1	 6.303621901272087e-01	 1.592262465564457e+00	-2.041581724090253e+01
1	 9.405167636203430e-01	 1.438586034901923e+00	-1.984362943904484e+01
1	 9.108760859214828e-01	 1.457534328434190e+00	-1.971558929827090e+01
1	 8.809240668554882e-01	 1.475830054886032e+00	-1.961557833573525e+01
1	 8.506818971137872e-01	 1.493466394799565e+00	-1.954522592080224e+01
1	 8.201709194126190e-01	 1.510437428503840e+00	-1.950600379195962e+01
1	 7.894125818087568e-01	 1.526738136734719e+00	-1.949922292483845e+01
1	 7.584283914454867e-01	 1.542364398425430e+00	-1.952603131850751e+01
1	 7.272398689224527e-01	 1.557312985733121e+00	-1.958741269212117e+01
1	 6.958685034748369e-01	 1.571581556381145e+00	-1.968418607678055e+01
1	 6.643357091380949e-01	 1.585168643410467e+00	-1.981700628064483e+01
1	 6.326627820641393e-01	 1.598073642445961e+00	-1.998636519892990e+01
1	 9.439368245817893e-01	 1.443817256844737e+00	-1.944739452211095e+01
1	 9.141883626005279e-01	 1.462834453262419e+00	-1.931979125556400e+01
1	 8.841274271016587e-01	 1.481196709628559e+00	-1.921943267819006e+01
1	 8.537752858336701e-01	 1.498897181687245e+00	-1.914791567978728e+01
1	 8.231533591226793e-01	 1.515929928241450e+00	-1.910668303569144e+01
1	 7.922831730183926e-01	 1.532289911775164e+00	-1.909702033668399e+01
1	 7.611863128718915e-01	 1.547972996235922e+00	-1.912005381733232e+01
1	 7.298843775395454e-01	 1.562975942043256e+00	-1.917674907501882e+01
1	 6.983989343992109e-01	 1.577296398403150e+00	-1.926791066486729e+01
1	 6.667514753555638e-01	 1.590932893022171e+00	-1.939418254907780e+01
1	 6.349633740010698e-01	 1.603884819327464e+00	-1.955604937293643e+01
1	 9.473568855432356e-01	 1.449048478788046e+00	-1.905134290198984e+01
1	 9.175006392795728e-01	 1.468134578091048e+00	-1.892403999146404e+01
1	 8.873307873478292e-01	 1.486563364371402e+00	-1.882320413577892e+01
1	 8.568686745535535e-01	 1.504327968575165e+00	-1.875039993886071e+01
1	 8.261357988327398e-01	 1.521422427979236e+00	-1.870704138660989e+01
1	 7.951537642280284e-01	 1.537841686815733e+00	-1.869438883839717e+01
1	 7.639442342982959e-01	 1.553581594046492e+00	-1.871354689724859e+01
1	 7.325288861566380e-01	 1.568638898353435e+00	-1.876546315115894e+01
1	 7.009293653235847e-01	 1.583011240425174e+00	-1.885092777107768e+01
1	 6.691672415730326e-01	 1.596697142633879e+00	-1.897057394456207e+01
1	 6.372639659380005e-01	 1.609695996208968e+00	-1.912487911798385e+01
1	 9.507769465046820e-01	 1.454279700731850e+00	-1.865547260065713e+01
1	 9.208129159586177e-01	 1.473434702920077e+00	-1.852833500116493e+01
1	 8.905341475940000e-01	 1.491930019114559e+00	-1.842689360294191e+01
1	 8.599620632734365e-01	 1.509758755463326e+00	-1.835268091564660e+01
1	 8.291182385428000e-01	 1.526914927717198e+00	-1.830708230758611e+01
1	 7.980243554376647e-01	 1.543393461856423e+00	-1.829133305850366e+01
1	 7.667021557247008e-01	 1.559190191857140e+00	-1.830651627140982e+01
1	 7.351733947737308e-01	 1.574301854663657e+00	-1.835356163608220e+01
1	 7.034597962479584e-01	 1.588726082447218e+00	-1.843324503010790e+01
1	 6.715830077905014e-01	 1.602461392245593e+00	-1.854618893694919e+01
1	 6.395645578749309e-01	 1.615507173090471e+00	-1.869286365452847e+01
1	 9.541970074661282e-01	 1.459510922676149e+00	-1.825978166844708e+01
1	 9.241251926376627e-01	 1.478734827749506e+00	-1.813267578709792e+01
1	 8.937375078401703e-01	 1.497296673858032e+00	-1.803050196129547e+01
1	 8.630554519933197e-01	 1.515189542351727e+00	-1.795476079597504e+01
1	 8.321006782528602e-01	 1.532407427455336e+00	-1.790680921184477e+01
1	 8.008949466473005e-01	 1.548945236897235e+00	-1.788785755917065e+01
1	 7.694600771511054e-01	 1.564798789667865e+00	-1.789896757106026e+01
1	 7.378179033908233e-01	 1.579964810973923e+00	-1.794105114904835e+01
1	 7.059902271723324e-01	 1.594440924469281e+00	-1.801486996719627e+01
1	 6.739987740079703e-01	 1.608225641857311e+00	-1.812103587465963e+01
1	 6.418651498118616e-01	 1.621318349971974e+00	-1.826001207083388e+01
1	 9.576170684275744e-01	 1.464742144620942e+00	-1.786426818354659e+01
1	 9.274374693167078e-01	 1.484034952579334e+00	-1.773706185880209e+01
1	 8.969408680863411e-01	 1.502663328601820e+00	-1.763403007986172e+01
1	 8.661488407132029e-01	 1.520620329240370e+00	-1.755664173445032e+01
1	 8.350831179629206e-01	 1.537899927193651e+00	-1.750622546385003e+01
1	 8.037655378569367e-01	 1.554497011938170e+00	-1.748396683739186e+01
1	 7.722179985775099e-01	 1.570407387478668e+00	-1.749090634699755e+01
1	 7.404624120079160e-01	 1.585627767284233e+00	-1.752793821475636e+01
1	 7.085206580967062e-01	 1.600155766491363e+00	-1.759581000007765e+01
1	 6.764145402254393e-01	 1.613989891469035e+00	-1.769512298685040e+01
1	 6.441657417487924e-01	 1.627129526853478e+00	-1.782633332533114e+01
1	 6.211598223794863e-01	 1.569017758038443e+00	-2.212479561657969e+01
1	 5.899459344225172e-01	 1.581018673018042e+00	-2.213645718853295e+01
1	 5.586357711947575e-01	 1.592351194024379e+00	-2.215799977023379e+01
1	 5.272496564900997e-01	 1.603017170743082e+00	-2.218982824133974e+01
1	 4.958076448932801e-01	 1.613019227792837e+00	-2.223230199365163e+01
1	 4.643294875584616e-01	 1.622360741927263e+00	-2.228573478053658e+01
1	 4.328345998423452e-01	 1.631045817609864e+00	-2.235039479799725e+01
1	 4.013420308663305e-01	 1.639079261117299e+00	-2.242650498802801e+01
1	 3.698704350687285e-01	 1.646466553328508e+00	-2.251424355359536e+01
1	 3.384380457946716e-01	 1.653213821358251e+00	-2.261374467343010e+01
1	 3.070626509582619e-01	 1.659327809193490e+00	-2.272509940384170e+01
1	 6.234604143164172e-01	 1.574828934919947e+00	-2.169889504084794e+01
1	 5.921309193667026e-01	 1.586874297733384e+00	-2.170279466452723e+01
1	 5.607047925710898e-01	 1.598248791040227e+00	-2.171809542945437e+01
1	 5.292024329967824e-01	 1.608954271376793e+00	-2.174524354522266e+01
1	 4.976439695047568e-01	 1.618993373082579e+00	-2.178463325911598e+01
1	 4.660492264015995e-01	 1.628369485417700e+00	-2.183660676182333e+01
1	 4.344376909527409e-01	 1.637086728047378e+00	-2.190145435453168e+01
1	 4.028284828318824e-01	 1.645149925049298e+00	-2.197941486634975e+01
1	 3.712403255678485e-01	 1.652564577601952e+00	-2.207067630956577e+01
1	 3.396915200366797e-01	 1.659336835513121e+00	-2.217537675897574e+01
1	 3.081999200336427e-01	 1.665473467747497e+00	-2.229360544045260e+01
1	 6.257610062533474e-01	 1.580640111801450e+00	-2.127209186466678e+01
1	 5.943159043108935e-01	 1.592729922448725e+00	-2.126841580421145e+01
1	 5.627738139474436e-01	 1.604146388056075e+00	-2.127764998957795e+01
1	 5.311552095035132e-01	 1.614891372010505e+00	-2.130028179464256e+01
1	 4.994802941163187e-01	 1.624967518372322e+00	-2.133674018679677e+01
1	 4.677689652448698e-01	 1.634378228908138e+00	-2.138739568860651e+01
1	 4.360407820633261e-01	 1.643127638484892e+00	-2.145256063046277e+01
1	 4.043149347976909e-01	 1.651220588981296e+00	-2.153248968148700e+01
1	 3.726102160673017e-01	 1.658662601875397e+00	-2.162738064437432e+01
1	 3.409449942791072e-01	 1.665459849667990e+00	-2.173737549846682e+01
1	 3.093371891095380e-01	 1.671619126301503e+00	-2.186256167419156e+01
1	 6.280615981902781e-01	 1.586451288682954e+00	-2.084439600672232e+01
1	 5.965008892550897e-01	 1.598585547164066e+00	-2.083332847941278e+01
1	 5.648428353238192e-01	 1.610043985071923e+00	-2.083666939674833e+01
1	 5.331079860102921e-01	 1.620828472644216e+00	-2.085494713305572e+01
1	 5.013166187279654e-01	 1.630941663662063e+00	-2.088862524194463e+01
1	 4.694887040882723e-01	 1.640386972398575e+00	-2.093810247357363e+01
1	 4.376438731741006e-01	 1.649168548922406e+00	-2.100371311239110e+01
1	 4.058013867637560e-01	 1.657291252913295e+00	-2.108572762094790e+01
1	 3.739801065670880e-01	 1.664760626148841e+00	-2.118435357363906e+01
1	 3.421984685219540e-01	 1.671582863822860e+00	-2.129973686273952e+01
1	 3.104744581859482e-01	 1.677764784855510e+00	-2.143196315783846e+01
1	 6.303621901272087e-01	 1.592262465564457e+00	-2.041581724090253e+01
1	 5.986858741992914e-01	 1.604441171879408e+00	-2.039754044704193e+01
1	 5.669118567002159e-01	 1.615941582087771e+00	-2.039515951030482e+01
1	 5.350607625171189e-01	 1.626765573277927e+00	-2.040924364342904e+01
1	 5.031529433396973e-01	 1.636915808951806e+00	-2.044029085382112e+01
1	 4.712084429318067e-01	 1.646395715889012e+00	-2.048872801608768e+01
1	 4.392469642850647e-01	 1.655209459359920e+00	-2.055491129441197e+01
1	 4.072878387300774e-01	 1.663361916845293e+00	-2.063912689869992e+01
1	 3.753499970672075e-01	 1.670858650422285e+00	-2.074159215654530e+01
1	 3.434519427652201e-01	 1.677705877977730e+00	-2.086245688145048e+01
1	 3.116117272628729e-01	 1.683910443409516e+00	-2.100180501639493e+01
1	 6.326627820641393e-01	 1.598073642445961e+00	-1.998636519892990e+01
1	 6.008708591434987e-01	 1.610296796594750e+00	-1.996105935118171e+01
1	 5.689808780766343e-01	 1.621839179103619e+00	-1.995312610435946e+01
1	 5.370135390239940e-01	 1.632702673911638e+00	-1.996317534934170e+01
1	 5.049892679515141e-01	 1.642889954241548e+00	-1.999173941635322e+01
1	 4.729281817754737e-01	 1.652404459379449e+00	-2.003927320243034e+01
1	 4.408500553962180e-01	 1.661250369797434e+00	-2.010615467797912e+01
1	 4.087742906966554e-01	 1.669432580777292e+00	-2.019268575468971e+01
1	 3.767198875676602e-01	 1.676956674695729e+00	-2.029909349505359e+01
1	 3.447054170089054e-01	 1.683828892132599e+00	-2.042553164200628e+01
1	 3.127489963403123e-01	 1.690056101963523e+00	-2.057208244577201e+01
1	 6.349633740010698e-01	 1.603884819327464e+00	-1.955604937293643e+01
1	 6.030558440877111e-01	 1.616152421310091e+00	-1.952389272513079e+01
1	 5.710498994530738e-01	 1.627736776119467e+00	-1.951057486934193e+01
1	 5.389663155309170e-01	 1.638639774545350e+00	-1.951674621605957e+01
1	 5.068255925634162e-01	 1.648864099531291e+00	-1.954297328877293e+01
1	 4.746479206192728e-01	 1.658413202869886e+00	-1.958973890603844e+01
1	 4.424531465075608e-01	 1.667291280234948e+00	-1.965744277177202e+01
1	 4.102607426634898e-01	 1.675503244709290e+00	-1.974640245437136e+01
1	 3.780897780684459e-01	 1.683054698969173e+00	-1.985685473312570e+01
1	 3.459588912530103e-01	 1.689951906287470e+00	-1.998895728851805e+01
1	 3.138862654182665e-01	 1.696201760517529e+00	-2.014279071150498e+01
1	 6.372639659380005e-01	 1.609695996208968e+00	-1.912487911798385e+01
1	 6.052408290319290e-01	 1.622008046025433e+00	-1.908604799340411e+01
1	 5.731189208295351e-01	 1.633634373135315e+00	-1.906751141350940e+01
1	 5.409190920378881e-01	 1.644576875179061e+00	-1.906996015158848e+01
1	 5.086619171754031e-01	 1.654838244821033e+00	-1.909399479624403e+01
1	 4.763676594632043e-01	 1.664421946360323e+00	-1.914012598773634e+01
1	 4.440562376190931e-01	 1.673332190672462e+00	-1.920877509156452e+01
1	 4.117471946305807e-01	 1.681573908641290e+00	-1.930027528824733e+01
1	 3.794596685695649e-01	 1.689152723242617e+00	-1.941487305596523e+01
1	 3.472123654975343e-01	 1.696074920442339e+00	-1.955273002077765e+01
1	 3.150235344967352e-01	 1.702347419071536e+00	-1.971392514749714e+01
1	 6.395645578749309e-01	 1.615507173090471e+00	-1.869286365452847e+01
1	 6.074258139761521e-01	 1.627863670740775e+00	-1.864753247368874e+01
1	 5.751879422060177e-01	 1.639531970151163e+00	-1.862394126442484e+01
1	 5.428718685449073e-01	 1.650513975812772e+00	-1.862282100770428e+01
1	 5.104982417874752e-01	 1.660812390110775e+00	-1.864480623047539e+01
1	 4.780873983072679e-01	 1.670430689850761e+00	-1.869043529596189e+01
1	 4.456593287308149e-01	 1.679373101109976e+00	-1.876015116009804e+01
1	 4.132336465979282e-01	 1.687644572573288e+00	-1.885430257141601e+01
1	 3.808295590710171e-01	 1.695250747516061e+00	-1.897314568927681e+01
1	 3.484658397424776e-01	 1.702197934597209e+00	-1.911684609325609e+01
1	 3.161608035757187e-01	 1.708493077625542e+00	-1.928548115478946e+01
1	 6.418651498118616e-01	 1.621318349971974e+00	-1.826001207083388e+01
1	 6.096107989203805e-01	 1.633719295456116e+00	-1.820835337875900e+01
1	 5.772569635825218e-01	 1.645429567167011e+00	-1.817986987040256e+01
1	 5.448246450519745e-01	 1.656451076446484e+00	-1.817533258095967e+01
1	 5.123345663996322e-01	 1.666786535400517e+00	-1.819540985031865e+01
1	 4.798071371514636e-01	 1.676439433341198e+00	-1.824066766698953e+01
1	 4.472624198427259e-01	 1.685414011547490e+00	-1.831157050695642e+01
1	 4.147200985655319e-01	 1.693715236505287e+00	-1.840848264313337e+01
1	 3.821994495728024e-01	 1.701348771789506e+00	-1.853166989853972e+01
1	 3.497193139878401e-01	 1.708320948752079e+00	-1.868130181412378e+01
1	 3.172980726552168e-01	 1.714638736179549e+00	-1.885745420035825e+01
1	 6.441657417487924e-01	 1.627129526853478e+00	-1.782633332533114e+01
1	 6.117957838646149e-01	 1.639574920171458e+00	-1.776851781834930e+01
1	 5.793259849590476e-01	 1.651327164182859e+00	-1.773530260192457e+01
1	 5.467774215590897e-01	 1.662388177080194e+00	-1.772749861367135e+01
1	 5.141708910118744e-01	 1.672760680690260e+00	-1.774580788235713e+01
1	 4.815268759957916e-01	 1.682448176831636e+00	-1.779082392514662e+01
1	 4.488655109548266e-01	 1.691454921985005e+00	-1.786303266844385e+01
1	 4.162065505333923e-01	 1.699785900437285e+00	-1.796281386637936e+01
1	 3.835693400749209e-01	 1.707446796062950e+00	-1.809044298829782e+01
1	 3.509727882336220e-01	 1.714443962906949e+00	-1.824609354429140e+01
1	 3.184353417352296e-01	 1.720784394733555e+00	-1.842983981593717e+01
1	 3.070626509582619e-01	 1.659327809193490e+00	-2.272509940384170e+01
1	 2.757615707984564e-01	 1.664815847489567e+00	-2.289626497417323e+01
1	 2.445516377392530e-01	 1.669685822681940e+00	-2.310045391484260e+01
1	 2.134491783511687e-01	 1.673946145564679e+00	-2.333679638295172e+01
1	 1.824699974001335e-01	 1.677605719482796e+00	-2.360435096395656e+01
1	 1.516293639610341e-01	 1.680673908281956e+00	-2.390211076646632e+01
1	 1.209419995620252e-01	 1.683160504152465e+00	-2.422900954696328e+01
1	 9.042206831711083e-02	 1.685075695498425e+00	-2.458392782749573e+01
1	 6.008316899630656e-02	 1.686430034956264e+00	-2.496569897156643e+01
1	 2.993832897530568e-02	 1.687234407679612e+00	-2.537311518577810e+01
1	 0.000000000000000e+00	 1.687500000000000e+00	-2.580493341726885e+01
1	 3.081999200336427e-01	 1.665473467747497e+00	-2.229360544045260e+01
1	 2.767829099468250e-01	 1.670981832111057e+00	-2.247244600133012e+01
1	 2.454573845426315e-01	 1.675869844248338e+00	-2.268682932570274e+01
1	 2.142397308603556e-01	 1.680145946104500e+00	-2.293583758200668e+01
1	 1.831458122020947e-01	 1.683819073999904e+00	-2.321847465457295e+01
1	 1.521909541948618e-01	 1.686898626461127e+00	-2.353367270636396e+01
1	 1.213899328909863e-01	 1.689394431945843e+00	-2.388029877963951e+01
1	 9.075696486415070e-02	 1.691316716592987e+00	-2.425716139440293e+01
1	 6.030569925018214e-02	 1.692676072122823e+00	-2.466301710679673e+01
1	 3.004921167431000e-02	 1.693483424004365e+00	-2.509657699212981e+01
1	 0.000000000000000e+00	 1.693750000000000e+00	-2.555651301986588e+01
1	 3.093371891095380e-01	 1.671619126301503e+00	-2.186256167419156e+01
1	 2.778042490957923e-01	 1.677147816732546e+00	-2.204910938050127e+01
1	 2.463631313466607e-01	 1.682053865814735e+00	-2.227370173963181e+01
1	 2.150302833702146e-01	 1.686345746644320e+00	-2.253537322525896e+01
1	 1.838216270047188e-01	 1.690032428517012e+00	-2.283307334480710e+01
1	 1.527525444293128e-01	 1.693123344640297e+00	-2.316567366802681e+01
1	 1.218378662205023e-01	 1.695628359739222e+00	-2.353197490148128e+01
1	 9.109186141164824e-02	 1.697557737687550e+00	-2.393071396560006e+01
1	 6.052822950439003e-02	 1.698922109289383e+00	-2.436057103343718e+01
1	 3.016009437349386e-02	 1.699732440329118e+00	-2.482017649294088e+01
1	 0.000000000000000e+00	 1.700000000000000e+00	-2.530811779737571e+01
1	 3.104744581859482e-01	 1.677764784855510e+00	-2.143196315783846e+01
1	 2.788255882453581e-01	 1.683313801354035e+00	-2.162624981111569e+01
1	 2.472688781513409e-01	 1.688237887381133e+00	-2.186106569505884e+01
1	 2.158208358807457e-01	 1.692545547184140e+00	-2.213539787925710e+01
1	 1.844974418080056e-01	 1.696245783034120e+00	-2.244814181488395e+01
1	 1.533141346643875e-01	 1.699348062819468e+00	-2.279810882704133e+01
1	 1.222857995505732e-01	 1.701862287532601e+00	-2.318403366096051e+01
1	 9.142675795960345e-02	 1.703798758782112e+00	-2.360458203554626e+01
1	 6.075075975893020e-02	 1.705168146455942e+00	-2.405835816037394e+01
1	 3.027097707285725e-02	 1.705981456653871e+00	-2.454391217508534e+01
1	 0.000000000000000e+00	 1.706250000000000e+00	-2.505974747315084e+01
1	 3.116117272628729e-01	 1.683910443409516e+00	-2.100180501639493e+01
1	 2.798469273955225e-01	 1.689479785975525e+00	-2.120386206998372e+01
1	 2.481746249566721e-01	 1.694421908947531e+00	-2.144891581014323e+01
1	 2.166113883919488e-01	 1.698745347723960e+00	-2.173590618986960e+01
1	 1.851732566119552e-01	 1.702459137551228e+00	-2.206367492122998e+01
1	 1.538757249000856e-01	 1.705572780998639e+00	-2.243097342942314e+01
1	 1.227337328811991e-01	 1.708096215325980e+00	-2.283647086861496e+01
1	 9.176165450801628e-02	 1.710039779876674e+00	-2.327876214987690e+01
1	 6.097329001380267e-02	 1.711414183622501e+00	-2.375637593431988e+01
1	 3.038185977240015e-02	 1.712230472978624e+00	-2.426778254752742e+01
1	 0.000000000000000e+00	 1.712500000000000e+00	-2.481140177458227e+01
1	 3.127489963403123e-01	 1.690056101963523e+00	-2.057208244577201e+01
1	 2.808682665462856e-01	 1.695645770597015e+00	-2.078194100988872e+01
1	 2.490803717626540e-01	 1.700605930513930e+00	-2.103724678132667e+01
1	 2.174019409038241e-01	 1.704945148263781e+00	-2.133689288084364e+01
1	 1.858490714165675e-01	 1.708672492068336e+00	-2.167966759508672e+01
1	 1.544373151364073e-01	 1.711797499177808e+00	-2.206426279033654e+01
1	 1.231816662123799e-01	 1.714330143119358e+00	-2.248928239592052e+01
1	 9.209655105688676e-02	 1.716280800971236e+00	-2.295325090447238e+01
1	 6.119582026900745e-02	 1.717660220789061e+00	-2.345462183912666e+01
1	 3.049274247212257e-02	 1.718479489303377e+00	-2.399178614091884e+01
1	 0.000000000000000e+00	 1.718750000000000e+00	-2.456308043302655e+01
1	 3.138862654182665e-01	 1.696201760517529e+00	-2.014279071150498e+01
1	 2.818896056976471e-01	 1.701811755218504e+00	-2.036048155821171e+01
1	 2.499861185692868e-01	 1.706789952080327e+00	-2.062605338191302e+01
1	 2.181924934163715e-01	 1.711144948803601e+00	-2.093835275239397e+01
1	 1.865248862218426e-01	 1.714885846585444e+00	-2.129611484115679e+01
1	 1.549989053733525e-01	 1.718022217356979e+00	-2.169797229284224e+01
1	 1.236295995441156e-01	 1.720564070912737e+00	-2.214246417418646e+01
1	 9.243144760621491e-02	 1.722521822065799e+00	-2.262804494454814e+01
1	 6.141835052454450e-02	 1.723906257955620e+00	-2.315309339511162e+01
1	 3.060362517202453e-02	 1.724728505628129e+00	-2.371592150720619e+01
1	 0.000000000000000e+00	 1.725000000000000e+00	-2.431478318373355e+01
1	 3.150235344967352e-01	 1.702347419071536e+00	-1.971392514749714e+01
1	 2.829109448496074e-01	 1.707977739839994e+00	-1.993947871558441e+01
1	 2.508918653765705e-01	 1.712973973646726e+00	-2.021533046068257e+01
1	 2.189830459295909e-01	 1.717344749343421e+00	-2.054028067982237e+01
1	 1.872007010277805e-01	 1.721099201102551e+00	-2.091301173627629e+01
1	 1.555604956109212e-01	 1.724246935536149e+00	-2.133209738667156e+01
1	 1.240775328764063e-01	 1.726797998706116e+00	-2.179601219347564e+01
1	 9.276634415600067e-02	 1.728762843160361e+00	-2.230314096376442e+01
1	 6.164088078041387e-02	 1.730152295122179e+00	-2.285178815840016e+01
1	 3.071450787210601e-02	 1.730977521952883e+00	-2.344018721924652e+01
1	 0.000000000000000e+00	 1.731250000000000e+00	-2.406650976577602e+01
1	 3.161608035757187e-01	 1.708493077625542e+00	-1.928548115478946e+01
1	 2.839322840021661e-01	 1.714143724461484e+00	-1.951892755457207e+01
1	 2.517976121845051e-01	 1.719157995213123e+00	-1.980507294053360e+01
1	 2.197735984434824e-01	 1.723544549883241e+00	-2.014267161216726e+01
1	 1.878765158343812e-01	 1.727312555619659e+00	-2.053035342811855e+01
1	 1.561220858491134e-01	 1.730471653715320e+00	-2.096663358702727e+01
1	 1.245254662092519e-01	 1.733031926499494e+00	-2.144992250154791e+01
1	 9.310124070624412e-02	 1.735003864254923e+00	-2.197853570335444e+01
1	 6.186341103661554e-02	 1.736398332288739e+00	-2.255070372028099e+01
1	 3.082539057236702e-02	 1.737226538277635e+00	-2.316458187043153e+01
1	 0.000000000000000e+00	 1.737500000000000e+00	-2.381825992198130e+01
1	 3.172980726552168e-01	 1.714638736179549e+00	-1.885745420035825e+01
1	 2.849536231553236e-01	 1.720309709082974e+00	-1.909882321838393e+01
1	 2.527033589930906e-01	 1.725342016779521e+00	-1.939527581715451e+01
1	 2.205641509580461e-01	 1.729744350423062e+00	-1.974552057088192e+01
1	 1.885523306416446e-01	 1.733525910136767e+00	-2.014813513392433e+01
1	 1.566836760879291e-01	 1.736696371894490e+00	-2.060157647340984e+01
1	 1.249733995426525e-01	 1.739265854292873e+00	-2.110419120282604e+01
1	 9.343613725694523e-02	 1.741244885349486e+00	-2.165422595127201e+01
1	 6.208594129314950e-02	 1.742644369455297e+00	-2.224983770657652e+01
1	 3.093627327280755e-02	 1.743475554602389e+00	-2.288910407431896e+01
1	 0.000000000000000e+00	 1.743750000000000e+00	-2.357003339886355e+01
1	 3.184353417352296e-01	 1.720784394733555e+00	-1.842983981593717e+01
1	 2.859749623090795e-01	 1.726475693704463e+00	-1.867916091961236e+01
1	 2.536091058023270e-01	 1.731526038345919e+00	-1.898593415772348e+01
1	 2.213547034732818e-01	 1.735944150962883e+00	-1.934882264854255e+01
1	 1.892281454495708e-01	 1.739739264653876e+00	-1.976635213925960e+01
1	 1.572452663273684e-01	 1.742921090073661e+00	-2.023692168847064e+01
1	 1.254213328766080e-01	 1.745499782086253e+00	-2.075881445738418e+01
1	 9.377103380810400e-02	 1.747485906444048e+00	-2.133020854135749e+01
1	 6.230847155001575e-02	 1.748890406621857e+00	-2.194918777702586e+01
1	 3.104715597342760e-02	 1.749724570927141e+00	-2.261375246427333e+01
1	 0.000000000000000e+00	 1.750000000000000e+00	-2.332182994655859e+01
1	 1.750000000000000e+00	 0.000000000000000e+00	 5.830731218916158e+00
1	 1.749724570927141e+00	 3.104715597342660e-02	 5.574953358931217e+00
1	 1.748890406621857e+00	 6.230847155001487e-02	 5.311809113470213e+00
1	 1.747485906444048e+00	 9.377103380810323e-02	 5.042111599323027e+00
1	 1.745499782086252e+00	 1.254213328766073e-01	 4.766714317605204e+00
1	 1.742921090073661e+00	 1.572452663273678e-01	 4.486509715591833e+00
1	 1.739739264653876e+00	 1.892281454495704e-01	 4.202427498079820e+00
1	 1.735944150962882e+00	 2.213547034732815e-01	 3.915432684390040e+00
1	 1.731526038345920e+00	 2.536091058023268e-01	 3.626523408788517e+00
1	 1.726475693704463e+00	 2.859749623090794e-01	 3.336728463910936e+00
1	 1.720784394733555e+00	 3.184353417352296e-01	 3.047104588704378e+00
1	 1.756250000000000e+00	 0.000000000000000e+00	 5.722935755444444e+00
1	 1.755973587251892e+00	 3.115803867404666e-02	 5.463738626634133e+00
1	 1.755136443788407e+00	 6.253100180688112e-02	 5.197874534302742e+00
1	 1.753726927538590e+00	 9.410593035926200e-02	 4.926176552296627e+00
1	 1.751733709879594e+00	 1.258692662105629e-01	 4.649516751697473e+00
1	 1.749145808252773e+00	 1.578068565668071e-01	 4.368804632961546e+00
1	 1.745952619170899e+00	 1.899039602574965e-01	 4.084985307960506e+00
1	 1.742143951502586e+00	 2.221452559885172e-01	 3.799037428828886e+00
1	 1.737710059912165e+00	 2.545148526115631e-01	 3.511970862233442e+00
1	 1.732641678325758e+00	 2.869963014628353e-01	 3.224824109522293e+00
1	 1.726930053287319e+00	 3.195726108152424e-01	 2.938661475172958e+00
1	 1.762500000000000e+00	 0.000000000000000e+00	 5.617004937484145e+00
1	 1.762222603576638e+00	 3.126892137448718e-02	 5.354394112960828e+00
1	 1.761382480954939e+00	 6.275353206341507e-02	 5.085811573454793e+00
1	 1.759967948633089e+00	 9.444082690996308e-02	 4.812110257597604e+00
1	 1.757967637672860e+00	 1.263171995439634e-01	 4.534180720522077e+00
1	 1.755370526431766e+00	 1.583684468056228e-01	 4.252949436839661e+00
1	 1.752165973687751e+00	 1.905797750647600e-01	 3.969376853889020e+00
1	 1.748343752042055e+00	 2.229358085030808e-01	 3.684455192951508e+00
1	 1.743894081478101e+00	 2.554205994201487e-01	 3.399205997881393e+00
1	 1.738807662946661e+00	 2.880176406159928e-01	 3.114677432478477e+00
1	 1.733075711840597e+00	 3.207098798947405e-01	 2.831941329924434e+00
1	 1.768750000000000e+00	 0.000000000000000e+00	 5.512918998473528e+00
1	 1.768471619901379e+00	 3.137980407474818e-02	 5.246899992270911e+00
1	 1.767628518121452e+00	 6.297606231961674e-02	 4.975600390448340e+00
1	 1.766208969727548e+00	 9.477572346020650e-02	 4.699892905129704e+00
1	 1.764201565466052e+00	 1.267651328768090e-01	 4.420686490494645e+00
1	 1.761595244610644e+00	 1.589300370438151e-01	 4.138924517121441e+00
1	 1.758379328204433e+00	 1.912555898713607e-01	 3.855582696967173e+00
1	 1.754543552581293e+00	 2.237263610169724e-01	 3.571666757468149e+00
1	 1.750078103043732e+00	 2.563263462280832e-01	 3.288209865038126e+00
1	 1.744973647567174e+00	 2.890389797685515e-01	 3.006269800158163e+00
1	 1.739221370393391e+00	 3.218471489737239e-01	 2.726925888278345e+00
1	 1.775000000000000e+00	 0.000000000000000e+00	 5.410658450253246e+00
1	 1.774720636226116e+00	 3.149068677482966e-02	 5.141236718158246e+00
1	 1.773874555287947e+00	 6.319859257548609e-02	 4.867221424248710e+00
1	 1.772449990821964e+00	 9.511062000999231e-02	 4.589504963812075e+00
1	 1.770435493259169e+00	 1.272130662090997e-01	 4.309014605968567e+00
1	 1.767819962789402e+00	 1.594916272813838e-01	 4.026710539900868e+00
1	 1.764592682720944e+00	 1.919314046772986e-01	 3.743583672084180e+00
1	 1.760743353120295e+00	 2.245169135301917e-01	 3.460653173783306e+00
1	 1.756262124609056e+00	 2.572320930353669e-01	 3.178963779920526e+00
1	 1.751139632187295e+00	 2.900603189205118e-01	 2.899582842371370e+00
1	 1.745367028945698e+00	 3.229844180521926e-01	 2.623597142803174e+00
1	 1.781250000000000e+00	 0.000000000000000e+00	 5.310204078181984e+00
1	 1.780969652550848e+00	 3.160156947473162e-02	 5.037385018552365e+00
1	 1.780120592454423e+00	 6.342112283102316e-02	 4.760655388362149e+00
1	 1.778691011916338e+00	 9.544551655932045e-02	 4.480927176684479e+00
1	 1.776669421052212e+00	 1.276609995408355e-01	 4.199145884359054e+00
1	 1.774044680968043e+00	 1.600532175183290e-01	 3.916288442624984e+00
1	 1.770806037237285e+00	 1.926072194825737e-01	 3.633360883113206e+00
1	 1.766943153659065e+00	 2.253074660427391e-01	 3.351395759246619e+00
1	 1.762446146174073e+00	 2.581378398419998e-01	 3.071449320974038e+00
1	 1.757305616807026e+00	 2.910816580718733e-01	 2.794598446755234e+00
1	 1.751512687497521e+00	 3.241216871301467e-01	 2.521937338803309e+00
1	 1.787500000000000e+00	 0.000000000000000e+00	 5.211536936354745e+00
1	 1.787218668875576e+00	 3.171245217445404e-02	 4.935325890922324e+00
1	 1.786366629620881e+00	 6.364365308622792e-02	 4.655883266036104e+00
1	 1.784932033010671e+00	 9.578041310819092e-02	 4.374140556114705e+00
1	 1.782903348845179e+00	 1.281089328720163e-01	 4.091061411369207e+00
1	 1.780269399146567e+00	 1.606148077546506e-01	 3.807639429349983e+00
1	 1.777019391753456e+00	 1.932830342871860e-01	 3.524895698208960e+00
1	 1.773142954197601e+00	 2.260980185546144e-01	 3.243876092503577e+00
1	 1.768630167738783e+00	 2.590435866479818e-01	 2.965648324288176e+00
1	 1.763471601426367e+00	 2.921029972226363e-01	 2.691298754266656e+00
1	 1.757658346048858e+00	 3.252589562075862e-01	 2.421928969900486e+00
1	 1.793750000000000e+00	 0.000000000000000e+00	 5.114638342921058e+00
1	 1.793467685200299e+00	 3.182333487399695e-02	 4.835040597580837e+00
1	 1.792612666787321e+00	 6.386618334110040e-02	 4.552886305559928e+00
1	 1.791173054104962e+00	 9.611530965660378e-02	 4.269126379106607e+00
1	 1.789137276638072e+00	 1.285568662026422e-01	 3.984742536316033e+00
1	 1.786494117324974e+00	 1.611763979903488e-01	 3.700744966096436e+00
1	 1.783232746269456e+00	 1.939588490911356e-01	 3.418169745203426e+00
1	 1.779342754735904e+00	 2.268885710658175e-01	 3.138076008943273e+00
1	 1.774814189303186e+00	 2.599493334533128e-01	 2.861542879108042e+00
1	 1.769637586045316e+00	 2.931243363728007e-01	 2.589666154769047e+00
1	 1.763804004599710e+00	 3.263962252845110e-01	 2.323554773707740e+00
1	 1.800000000000000e+00	 0.000000000000000e+00	 5.019489875500634e+00
1	 1.799716701525018e+00	 3.193421757336032e-02	 4.736510661086260e+00
1	 1.798858703953742e+00	 6.408871359564058e-02	 4.451646015663440e+00
1	 1.797414075199210e+00	 9.645020620455896e-02	 4.165866182705722e+00
1	 1.795371204430890e+00	 1.290047995327131e-01	 3.880170867553816e+00
1	 1.792718835503261e+00	 1.617379882254234e-01	 3.595586776301346e+00
1	 1.789446100785286e+00	 1.946346638944224e-01	 3.313164907097579e+00
1	 1.785542555273972e+00	 2.276791235763486e-01	 3.033977596241041e+00
1	 1.780998210867283e+00	 2.608550802579930e-01	 2.759115323439135e+00
1	 1.775803570663875e+00	 2.941456755223666e-01	 2.489683282711034e+00
1	 1.769949663150077e+00	 3.275334943609210e-01	 2.226797727593494e+00
1	 1.806250000000000e+00	 0.000000000000000e+00	 4.926073366694306e+00
1	 1.805965717849731e+00	 3.204510027254416e-02	 4.639717859740314e+00
1	 1.805104741120144e+00	 6.431124384984846e-02	 4.352144161011062e+00
1	 1.803655096293418e+00	 9.678510275205648e-02	 4.064341759500168e+00
1	 1.801605132223634e+00	 1.294527328622291e-01	 3.777328267992607e+00
1	 1.798943553681433e+00	 1.622995784598745e-01	 3.492146836364493e+00
1	 1.795659455300944e+00	 1.953104786970464e-01	 3.209863317646729e+00
1	 1.791742355811808e+00	 2.284696760862076e-01	 2.931563189993668e+00
1	 1.787182232431072e+00	 2.617608270620223e-01	 2.658348239743703e+00
1	 1.781969555282043e+00	 2.951670146713338e-01	 2.391333012894826e+00
1	 1.776095321699958e+00	 3.286707634368164e-01	 2.131641044533415e+00
1	 1.812500000000000e+00	 0.000000000000000e+00	 4.834370899687728e+00
1	 1.812214734174441e+00	 3.215598297154849e-02	 4.544644223178397e+00
1	 1.811350778286529e+00	 6.453377410372405e-02	 4.254362757789109e+00
1	 1.809896117387584e+00	 9.711999929909639e-02	 3.964535153214920e+00
1	 1.807839060016302e+00	 1.299006661911901e-01	 3.676196850709096e+00
1	 1.805168271859486e+00	 1.628611686937021e-01	 3.390407371287115e+00
1	 1.801872809816433e+00	 1.959862934990077e-01	 3.108247357037156e+00
1	 1.797942156349410e+00	 2.292602285953946e-01	 2.830815369444895e+00
1	 1.793366253994555e+00	 2.626665738654008e-01	 2.559224450725782e+00
1	 1.788135539899820e+00	 2.961883538197025e-01	 2.294598456332270e+00
1	 1.782240980249354e+00	 3.298080325121973e-01	 2.038068169048370e+00
1	 1.720784394733555e+00	 3.184353417352296e-01	 3.047104588704378e+00
1	 1.714443962906949e+00	 3.509727882336210e-01	 2.826279503483192e+00
1	 1.707446796062951e+00	 3.835693400749202e-01	 2.596184270257622e+00
1	 1.699785900437286e+00	 4.162065505333916e-01	 2.356055070781478e+00
1	 1.691454921985004e+00	 4.488655109548259e-01	 2.105124347456108e+00
1	 1.682448176831636e+00	 4.815268759957912e-01	 1.842623786916227e+00
1	 1.672760680690260e+00	 5.141708910118742e-01	 1.567787445546696e+00
1	 1.662388177080195e+00	 5.467774215590896e-01	 1.279855003716481e+00
1	 1.651327164182859e+00	 5.793259849590476e-01	 9.780751337856441e-01
1	 1.639574920171458e+00	 6.117957838646149e-01	 6.617089652614676e-01
1	 1.627129526853477e+00	 6.441657417487924e-01	 3.300336288736427e-01
1	 1.726930053287319e+00	 3.195726108152424e-01	 2.938661475172958e+00
1	 1.720566977061533e+00	 3.522262624794006e-01	 2.716892414020253e+00
1	 1.713544820336080e+00	 3.849392305770292e-01	 2.486966532923998e+00
1	 1.705856564368955e+00	 4.176930025012306e-01	 2.248181879287679e+00
1	 1.697495832422190e+00	 4.504686020668884e-01	 1.999831063548636e+00
1	 1.688456920321759e+00	 4.832466148400593e-01	 1.741203944418009e+00
1	 1.678734825979717e+00	 5.160072156240295e-01	 1.471590453563387e+00
1	 1.668325277713667e+00	 5.487301980660866e-01	 1.190283548311389e+00
1	 1.657224761198529e+00	 5.813950063354179e-01	 8.965822793125018e-01
1	 1.645430544886697e+00	 6.139807688086515e-01	 5.897949585124012e-01
1	 1.632940703734971e+00	 6.464663336854780e-01	 2.692424112343528e-01
1	 1.733075711840597e+00	 3.207098798947405e-01	 2.831941329924434e+00
1	 1.726689991215546e+00	 3.534797367247562e-01	 2.609381455281551e+00
1	 1.719642844608581e+00	 3.863091210787862e-01	 2.379772271646419e+00
1	 1.711927228299967e+00	 4.191794544687705e-01	 2.142473343487941e+00
1	 1.703536742858716e+00	 4.520716931786853e-01	 1.896837106225115e+00
1	 1.694465663811254e+00	 4.849663536840757e-01	 1.642211254445063e+00
1	 1.684708971268607e+00	 5.178435402359270e-01	 1.377941267093957e+00
1	 1.674262378346661e+00	 5.506829745727986e-01	 1.103373060002298e+00
1	 1.663122358213840e+00	 5.834640277114557e-01	 8.178557545656673e-01
1	 1.651286169601731e+00	 6.161657537522875e-01	 5.207445498849015e-01
1	 1.638751880616444e+00	 6.487669256216739e-01	 2.114036841970170e-01
1	 1.739221370393391e+00	 3.218471489737239e-01	 2.726925888278345e+00
1	 1.732813005368987e+00	 3.547332109696877e-01	 2.503726738956265e+00
1	 1.725740868880452e+00	 3.876790115801912e-01	 2.274580036149187e+00
1	 1.717997892230319e+00	 4.206659064360111e-01	 2.038906516502278e+00
1	 1.709577653294585e+00	 4.536747842902166e-01	 1.796118100998605e+00
1	 1.700474407300119e+00	 4.866860925278401e-01	 1.545619987464724e+00
1	 1.690683116556928e+00	 5.196798648475660e-01	 1.286812877598309e+00
1	 1.680199478979176e+00	 5.526357510792256e-01	 1.019095330655905e+00
1	 1.669019955228796e+00	 5.855330490871615e-01	 7.418662344929812e-01
1	 1.657141794316562e+00	 6.183507386955233e-01	 4.545273832125254e-01
1	 1.644563057497895e+00	 6.510675175573803e-01	 1.564861492715717e-01
1	 1.745367028945698e+00	 3.229844180521926e-01	 2.623597142803174e+00
1	 1.738936019521857e+00	 3.559866852141954e-01	 2.399908656850628e+00
1	 1.731838893151694e+00	 3.890489020812443e-01	 2.171368678273092e+00
1	 1.724068556160014e+00	 4.221523584029530e-01	 1.937458774646206e+00
1	 1.715618563729795e+00	 4.552778754014821e-01	 1.697650016684781e+00
1	 1.706483150788357e+00	 4.884058313713526e-01	 1.451404776332093e+00
1	 1.696657261844680e+00	 5.215161894589470e-01	 1.198178656938353e+00
1	 1.686136579611213e+00	 5.545885275853678e-01	 9.374225494365660e-01
1	 1.674917552243394e+00	 5.876020704625352e-01	 6.685848070712035e-01
1	 1.662997419031187e+00	 6.205357236383587e-01	 3.911135298805533e-01
1	 1.650374234379327e+00	 6.533681094925969e-01	 1.044589487918337e-01
1	 1.751512687497521e+00	 3.241216871301467e-01	 2.521937338803309e+00
1	 1.745059033674157e+00	 3.572401594582790e-01	 2.297907875973564e+00
1	 1.737936917422307e+00	 3.904187925819453e-01	 2.070117346675231e+00
1	 1.730139220089050e+00	 4.236388103695954e-01	 1.838107811760610e+00
1	 1.721659474164347e+00	 4.568809665124822e-01	 1.601409159379093e+00
1	 1.712491894275967e+00	 4.901255702146132e-01	 1.359540609932373e+00
1	 1.702631407131863e+00	 5.233525140700698e-01	 1.112012350704264e+00
1	 1.692073680242773e+00	 5.565413040912253e-01	 8.583272958361898e-01
1	 1.680815149257635e+00	 5.896710918375766e-01	 5.979829660599516e-01
1	 1.668853043745608e+00	 6.227207085807935e-01	 3.304734813250485e-01
1	 1.656185411260738e+00	 6.556687014273237e-01	 5.529165818174997e-02
1	 1.757658346048858e+00	 3.252589562075862e-01	 2.421928969900486e+00
1	 1.751182047825884e+00	 3.584936337019386e-01	 2.197705333725410e+00
1	 1.744034941692291e+00	 3.917886830822943e-01	 1.970805481639788e+00
1	 1.736209884017429e+00	 4.251252623359390e-01	 1.740831633660607e+00
1	 1.727700384598241e+00	 4.584840576232165e-01	 1.507372166560282e+00
1	 1.718500637762947e+00	 4.918453090576220e-01	 1.270002826956597e+00
1	 1.708605552418479e+00	 5.251888386809342e-01	 1.028288071680784e+00
1	 1.698010780873853e+00	 5.584940805967976e-01	 7.817825328503420e-01
1	 1.686712746271519e+00	 5.917401132122858e-01	 5.300326039075449e-01
1	 1.674708668459824e+00	 6.249056935228279e-01	 2.725781416893385e-01
1	 1.661996588142128e+00	 6.579692933615608e-01	 8.954278383901171e-03
1	 1.763804004599710e+00	 3.263962252845110e-01	 2.323554773707740e+00
1	 1.757305061977040e+00	 3.597471079451743e-01	 2.099282233187353e+00
1	 1.750132965961646e+00	 3.931585735822912e-01	 1.873412809997528e+00
1	 1.742280547945149e+00	 4.266117143019832e-01	 1.645608552700471e+00
1	 1.733741295031477e+00	 4.600871487336852e-01	 1.415516001317092e+00
1	 1.724509381249300e+00	 4.935650479003789e-01	 1.182767109807414e+00
1	 1.714579697704524e+00	 5.270251632915406e-01	 9.469802934500778e-01
1	 1.703947881504455e+00	 5.604468571020852e-01	 7.077616002969567e-01
1	 1.692610343285047e+00	 5.938091345866627e-01	 4.647060048052378e-01
1	 1.680564293173836e+00	 6.270906784644620e-01	 2.173988206339728e-01
1	 1.667807765023498e+00	 6.602698852953083e-01	-3.458277155373168e-02
1	 1.769949663150077e+00	 3.275334943609210e-01	 2.226797727593494e+00
1	 1.763428076127625e+00	 3.610005821879859e-01	 2.002620038508832e+00
1	 1.756230990230371e+00	 3.945284640819363e-01	 1.777919340150983e+00
1	 1.748351211872210e+00	 4.280981662677285e-01	 1.552417182451746e+00
1	 1.739782205464054e+00	 4.616902398438882e-01	 1.325817946695398e+00
1	 1.730518124735023e+00	 4.952847867428838e-01	 1.097809478631886e+00
1	 1.720553842990002e+00	 5.288614879018886e-01	 8.680638441279258e-01
1	 1.709884982134579e+00	 5.623996336070879e-01	 6.362382082743172e-01
1	 1.698507940298216e+00	 5.958781559607078e-01	 4.019758378861160e-01
1	 1.686419917887642e+00	 6.292756634056959e-01	 1.649072262964866e-01
1	 1.673618941904847e+00	 6.625704772285660e-01	-7.534866173652577e-02
1	 1.776095321699958e+00	 3.286707634368164e-01	 2.131641044533415e+00
1	 1.769551090277639e+00	 3.622540564303737e-01	 1.907700470390841e+00
1	 1.762329014498468e+00	 3.958983545812292e-01	 1.684305357202963e+00
1	 1.754421875798614e+00	 4.295846182331746e-01	 1.461236432491904e+00
1	 1.745823115895974e+00	 4.632933309538260e-01	 1.238255600162563e+00
1	 1.736526868220119e+00	 4.970045255851370e-01	 1.015106285478138e+00
1	 1.726527988274911e+00	 5.306978125119785e-01	 7.915139002298953e-01
1	 1.715822082764225e+00	 5.643524101118058e-01	 5.671864307548089e-01
1	 1.704405537311030e+00	 5.979471773344204e-01	 3.418151505652023e-01
1	 1.692275542601245e+00	 6.314606483465293e-01	 1.150754583973488e-01
1	 1.679430118786176e+00	 6.648710691613339e-01	-1.133721585313148e-01
1	 1.782240980249354e+00	 3.298080325121973e-01	 2.038068169048370e+00
1	 1.775674104427081e+00	 3.635075306723373e-01	 1.814505501662613e+00
1	 1.768427038765936e+00	 3.972682450801703e-01	 1.592551418185856e+00
1	 1.760492539724359e+00	 4.310710701983217e-01	 1.372045503300776e+00
1	 1.751864026327236e+00	 4.648964220634977e-01	 1.152806868186388e+00
1	 1.742535611704586e+00	 4.987242644271382e-01	 9.346342085729664e-01
1	 1.732502133559251e+00	 5.325341371218103e-01	 7.173059806644551e-01
1	 1.721759183393393e+00	 5.663051866162386e-01	 5.005806993112034e-01
1	 1.710303134323486e+00	 6.000161987078011e-01	 2.841973620173390e-01
1	 1.698131167314643e+00	 6.336456332869622e-01	 6.787600148854134e-02
1	 1.685241295667484e+00	 6.671716610936123e-01	-1.486816315273698e-01
1	 1.627129526853477e+00	 6.441657417487924e-01	 3.300336288736427e-01
1	 1.613989891469035e+00	 6.764145402254380e-01	 4.076622971090544e-01
1	 1.600155766491363e+00	 7.085206580967054e-01	 4.482139659418642e-01
1	 1.585627767284233e+00	 7.404624120079152e-01	 4.493156701248644e-01
1	 1.570407387478669e+00	 7.722179985775096e-01	 4.086561818320253e-01
1	 1.554497011938170e+00	 8.037655378569362e-01	 3.239968102126218e-01
1	 1.537899927193651e+00	 8.350831179629202e-01	 1.931821401162261e-01
1	 1.520620329240370e+00	 8.661488407132028e-01	 1.415063824935769e-02
1	 1.502663328601820e+00	 8.969408680863411e-01	-2.150549462347935e-01
1	 1.484034952579334e+00	 9.274374693167079e-01	-4.962774602785887e-01
1	 1.464742144620942e+00	 9.576170684275744e-01	-8.312355780043008e-01
1	 1.632940703734971e+00	 6.464663336854780e-01	 2.692424112343528e-01
1	 1.619754141080844e+00	 6.788303064426171e-01	 3.545404979045552e-01
1	 1.605870608513617e+00	 7.110510890207534e-01	 4.021818974327942e-01
1	 1.591290723594789e+00	 7.431069206246562e-01	 4.096725625172231e-01
1	 1.576015985289785e+00	 7.749759200035463e-01	 3.745808486124222e-01
1	 1.560048786979474e+00	 8.066361290661981e-01	 2.945488358411688e-01
1	 1.543392426932382e+00	 8.380655576726103e-01	 1.673035971591090e-01
1	 1.526051116129465e+00	 8.692422294327300e-01	-9.331662291951703e-03
1	 1.508029983346087e+00	 9.001442283321798e-01	-2.374266710999386e-01
1	 1.489335077409657e+00	 9.307497459954553e-01	-5.189334398959731e-01
1	 1.469973366566236e+00	 9.610371293887680e-01	-8.556759691094937e-01
1	 1.638751880616444e+00	 6.487669256216739e-01	 2.114036841970170e-01
1	 1.625518390692817e+00	 6.812460726592154e-01	 3.040632546434821e-01
1	 1.611585450536192e+00	 7.135815199441501e-01	 3.584911623608731e-01
1	 1.596953679905796e+00	 7.457514292406936e-01	 3.720728866083154e-01
1	 1.581624583101451e+00	 7.777338414288473e-01	 3.422569721364805e-01
1	 1.565600562021397e+00	 8.095067202747122e-01	 2.665668712880298e-01
1	 1.548884926671770e+00	 8.410479973815600e-01	 1.426127394020111e-01
1	 1.531481903019225e+00	 8.723356181515441e-01	-3.189689485401370e-02
1	 1.513396638090996e+00	 9.033475885773545e-01	-2.591436641286791e-01
1	 1.494635202240570e+00	 9.340620226736079e-01	-5.411881826855418e-01
1	 1.475204588512034e+00	 9.644571903494563e-01	-8.799592330195820e-01
1	 1.644563057497895e+00	 6.510675175573803e-01	 1.564861492715717e-01
1	 1.631282640304955e+00	 6.836618388752337e-01	 2.562025331611886e-01
1	 1.617300292559089e+00	 7.161119508668949e-01	 3.171169409347558e-01
1	 1.602616636217254e+00	 7.483959378560275e-01	 3.364949805762207e-01
1	 1.587233180913666e+00	 7.804917628534128e-01	 3.116659857236288e-01
1	 1.571152337063938e+00	 8.123773114824782e-01	 2.400353758122007e-01
1	 1.554377426411815e+00	 8.440304370897695e-01	 1.190969765421308e-01
1	 1.536912689909651e+00	 8.754290068696466e-01	-5.355478100536004e-02
1	 1.518763292836549e+00	 9.065509488218652e-01	-2.802128659405481e-01
1	 1.499935327072073e+00	 9.373742993511657e-01	-5.630459420399376e-01
1	 1.480435810458338e+00	 9.678772513096394e-01	-9.040870353921791e-01
1	 1.650374234379327e+00	 6.533681094925969e-01	 1.044589487918337e-01
1	 1.637046889917259e+00	 6.860776050906721e-01	 2.109306941404610e-01
1	 1.623015134582309e+00	 7.186423817889885e-01	 2.780347629376605e-01
1	 1.608279592529162e+00	 7.510404464706582e-01	 3.029174876951397e-01
1	 1.592841778726431e+00	 7.832496842772426e-01	 2.827895841958312e-01
1	 1.576704112107097e+00	 8.152479026894961e-01	 2.149390275564362e-01
1	 1.559869926152517e+00	 8.470128767972385e-01	 9.674389560484675e-02
1	 1.542343476800742e+00	 8.785223955870369e-01	-7.431490539104368e-02
1	 1.524129947582745e+00	 9.097543090657123e-01	-3.006411193998688e-01
1	 1.505235451904165e+00	 9.406865760281283e-01	-5.845109114449869e-01
1	 1.485667032405147e+00	 9.712973122693169e-01	-9.280610184249218e-01
1	 1.656185411260738e+00	 6.556687014273237e-01	 5.529165818174997e-02
1	 1.642811139529729e+00	 6.884933713055299e-01	 1.682204861844239e-01
1	 1.628729976605851e+00	 7.211728127104307e-01	 2.412205015944933e-01
1	 1.613942548841521e+00	 7.536849550845854e-01	 2.713193509827876e-01
1	 1.598450376539745e+00	 7.860076057003369e-01	 2.556097192898805e-01
1	 1.582255887150873e+00	 8.181184938957657e-01	 1.912627197070849e-01
1	 1.565362425893876e+00	 8.499953165039678e-01	 7.554125783276877e-02
1	 1.547774263692498e+00	 8.816157843037145e-01	-9.418671813472002e-02
1	 1.529496602329584e+00	 9.129576693088951e-01	-3.204351713307516e-01
1	 1.510535576736846e+00	 9.439988527044959e-01	-6.055872255306691e-01
1	 1.490898254352462e+00	 9.747173732284895e-01	-9.518828012670151e-01
1	 1.661996588142128e+00	 6.579692933615608e-01	 8.954278383901171e-03
1	 1.648575389142363e+00	 6.909091375198078e-01	 1.280450390346428e-01
1	 1.634444818629717e+00	 7.237032436312213e-01	 2.066503675676341e-01
1	 1.619605505154330e+00	 7.563294636978091e-01	 2.416798079602140e-01
1	 1.604058974353607e+00	 7.887655271226950e-01	 2.301085951658082e-01
1	 1.587807662195269e+00	 8.209890851012879e-01	 1.689915567345910e-01
1	 1.570854925635891e+00	 8.529777562099562e-01	 5.547699563986175e-02
1	 1.553205050584919e+00	 8.847091730196798e-01	-1.131795371905413e-01
1	 1.534863257077065e+00	 9.161610295514143e-01	-3.396016741961463e-01
1	 1.515835701570118e+00	 9.473111293802687e-01	-6.262789610998103e-01
1	 1.496129476300282e+00	 9.781374341871568e-01	-9.755539804222717e-01
1	 1.667807765023498e+00	 6.602698852953083e-01	-3.458277155373168e-02
1	 1.654339638755162e+00	 6.933249037335053e-01	 9.037785693115219e-02
1	 1.640159660653904e+00	 7.262336745513602e-01	 1.743009030781766e-01
1	 1.625268461467589e+00	 7.589739723103295e-01	 2.139783855209512e-01
1	 1.609667572168019e+00	 7.915234485443178e-01	 2.062686640093441e-01
1	 1.593359437240282e+00	 8.238596763060615e-01	 1.481108507126170e-01
1	 1.576347425378564e+00	 8.559601959152042e-01	 3.653920962954293e-02
1	 1.558635837478006e+00	 8.878025617349329e-01	-1.313025506457501e-01
1	 1.540229911825189e+00	 9.193643897932694e-01	-3.581471877417735e-01
1	 1.521135826403979e+00	 9.506234060554466e-01	-6.465901381357495e-01
1	 1.501360698248607e+00	 9.815574951453184e-01	-9.990761301435769e-01
1	 1.673618941904847e+00	 6.625704772285660e-01	-7.534866173652577e-02
1	 1.660103888368127e+00	 6.957406699466228e-01	 5.519281211066840e-02
1	 1.645874502678413e+00	 7.287641054708478e-01	 1.441489761497883e-01
1	 1.630931417781299e+00	 7.616184809221465e-01	 1.881948949073142e-01
1	 1.615276169982980e+00	 7.942813699652049e-01	 1.840726217258664e-01
1	 1.598911212285913e+00	 8.267302675100872e-01	 1.286061177138196e-01
1	 1.581839925121894e+00	 8.589426356197122e-01	 1.871616567451828e-02
1	 1.564066624371758e+00	 8.908959504494737e-01	-1.485648189751934e-01
1	 1.545596566573957e+00	 9.225677500344607e-01	-3.760781806057167e-01
1	 1.526435951238430e+00	 9.539356827300297e-01	-6.665247207887701e-01
1	 1.506591920197438e+00	 9.849775561029749e-01	-1.022450802819180e+00
1	 1.679430118786176e+00	 6.648710691613339e-01	-1.133721585313148e-01
1	 1.665868137981257e+00	 6.981564361591599e-01	 2.246413843994688e-02
1	 1.651589344703245e+00	 7.312945363896837e-01	 1.161717749718862e-01
1	 1.636594374095460e+00	 7.642629895332601e-01	 1.643094267908181e-01
1	 1.620884767798491e+00	 7.970392913853563e-01	 1.635034037237806e-01
1	 1.604462987332163e+00	 8.296008587133651e-01	 1.104630742804347e-01
1	 1.587332424865880e+00	 8.619250753234798e-01	 1.996292057667715e-03
1	 1.569497411266175e+00	 8.939893391633021e-01	-1.649752772492645e-01
1	 1.550963221323367e+00	 9.257711102749879e-01	-3.934010318948384e-01
1	 1.531736076073471e+00	 9.572479594040176e-01	-6.860866183420387e-01
1	 1.511823142146774e+00	 9.883976170601261e-01	-1.045679529350973e+00
1	 1.685241295667484e+00	 6.671716610936123e-01	-1.486816315273698e-01
1	 1.671632387594552e+00	 7.005722023711169e-01	-7.833574819282596e-03
1	 1.657304186728400e+00	 7.338249673078681e-01	 9.034680237963877e-02
1	 1.642257330410071e+00	 7.669074981436702e-01	 1.423023464543820e-01
1	 1.626493365614551e+00	 7.997972128047722e-01	 1.445441807852168e-01
1	 1.610014762379030e+00	 8.324714499158945e-01	 9.366763396788835e-02
1	 1.592824924610524e+00	 8.649075150265071e-01	-1.363182332832236e-02
1	 1.574928198161258e+00	 8.970827278764184e-01	-1.805427372959727e-01
1	 1.556329876073421e+00	 9.289744705148517e-01	-4.101220327282435e-01
1	 1.537036200909101e+00	 9.605602360774108e-01	-7.052796861574422e-01
1	 1.517054364096615e+00	 9.918176780167721e-01	-1.068763819525024e+00
1	 1.464742144620942e+00	 9.576170684275744e-01	-8.312355780043008e-01
1	 1.444792760758599e+00	 9.874582919979615e-01	-1.955455650386336e+00
1	 1.424195563079837e+00	 1.016940016954224e+00	-3.083568330228011e+00
1	 1.402960210216252e+00	 1.046041418172352e+00	-4.211967124765847e+00
1	 1.381097244848933e+00	 1.074742015674165e+00	-5.337025121854206e+00
1	 1.358618078249374e+00	 1.103021721200889e+00	-6.455108841888996e+00
1	 1.335534971891927e+00	 1.130860883947535e+00	-7.562592256775885e+00
1	 1.311861016191946e+00	 1.158240335244118e+00	-8.655870886401503e+00
1	 1.287610106441662e+00	 1.185141431973865e+00	-9.731375881428976e+00
1	 1.262796916033183e+00	 1.211546098524362e+00	-1.078558800050719e+01
1	 1.237436867075000e+00	 1.237436867075000e+00	-1.181505139017175e+01
1	 1.469973366566236e+00	 9.610371293887680e-01	-8.556759691094937e-01
1	 1.449952734904942e+00	 9.909849287575220e-01	-1.969160508522351e+00
1	 1.429281975806387e+00	 1.020571945588552e+00	-3.084650483810270e+00
1	 1.407970782397278e+00	 1.049777280382406e+00	-4.198434184562811e+00
1	 1.386029735011136e+00	 1.078580380018125e+00	-5.306786182028670e+00
1	 1.363470285673997e+00	 1.106961084493153e+00	-6.405981695105286e+00
1	 1.340304739651190e+00	 1.134899672821056e+00	-7.492311090606139e+00
1	 1.316546234109554e+00	 1.162376907872312e+00	-8.562094424581124e+00
1	 1.292208713967361e+00	 1.189374079947587e+00	-9.611695930085769e+00
1	 1.267306905021693e+00	 1.215873048878712e+00	-1.063753835636697e+01
1	 1.241856284460000e+00	 1.241856284460000e+00	-1.163611706495339e+01
1	 1.475204588512034e+00	 9.644571903494563e-01	-8.799592330195820e-01
1	 1.455112709051695e+00	 9.945115655166717e-01	-1.982436631430415e+00
1	 1.434368388533261e+00	 1.024203874222555e+00	-3.085045645063161e+00
1	 1.412981354578553e+00	 1.053513142592212e+00	-4.183969911756726e+00
1	 1.390962225173523e+00	 1.082418744361902e+00	-5.275386020912439e+00
1	 1.368322493098747e+00	 1.110900447785290e+00	-6.355478391350325e+00
1	 1.345074507410534e+00	 1.138938461694494e+00	-7.420454250817254e+00
1	 1.321231452027207e+00	 1.166513480500458e+00	-8.466558620247080e+00
1	 1.296807321493081e+00	 1.193606727921289e+00	-9.490089204763100e+00
1	 1.271816894010209e+00	 1.220199999233055e+00	-1.048741109327550e+01
1	 1.246275701845000e+00	 1.246275701844999e+00	-1.145497116938731e+01
1	 1.480435810458338e+00	 9.678772513096394e-01	-9.040870353921791e-01
1	 1.460272683198859e+00	 9.980382022754115e-01	-1.995288564005407e+00
1	 1.439454801260461e+00	 1.027835802856233e+00	-3.084761096589506e+00
1	 1.417991926760077e+00	 1.057249004801768e+00	-4.168584179130469e+00
1	 1.395894715336092e+00	 1.086257108705496e+00	-5.242836948270838e+00
1	 1.373174700523625e+00	 1.114839811077299e+00	-6.303613518859977e+00
1	 1.349844275169960e+00	 1.142977250567851e+00	-7.347038440662604e+00
1	 1.325916669944907e+00	 1.170650053128560e+00	-8.369282123673102e+00
1	 1.301405929018821e+00	 1.197839375894970e+00	-9.366576130626745e+00
1	 1.276326882998730e+00	 1.224526949587394e+00	-1.033522823546216e+01
1	 1.250695119230000e+00	 1.250695119230000e+00	-1.127163714768222e+01
1	 1.485667032405147e+00	 9.712973122693169e-01	-9.280610184249218e-01
1	 1.465432657346432e+00	 1.001564839033741e+00	-2.007720787129485e+00
1	 1.444541213987985e+00	 1.031467731489587e+00	-3.083804018420354e+00
1	 1.423002498941851e+00	 1.060984867011076e+00	-4.152286720413284e+00
1	 1.400827205498846e+00	 1.090095473048907e+00	-5.209151100492430e+00
1	 1.378026907948629e+00	 1.118779174369182e+00	-6.250401460401736e+00
1	 1.354614042929468e+00	 1.147016039441127e+00	-7.272080128138443e+00
1	 1.330601887862652e+00	 1.174786625756615e+00	-8.270283322452967e+00
1	 1.306004536544582e+00	 1.202072023868631e+00	-9.241176845163910e+00
1	 1.280836871987256e+00	 1.228853899941728e+00	-1.018101149695535e+01
1	 1.255114536615000e+00	 1.255114536615000e+00	-1.108613811384657e+01
1	 1.490898254352462e+00	 9.747173732284895e-01	-9.518828012670151e-01
1	 1.470592631494415e+00	 1.005091475791661e+00	-2.019737718795469e+00
1	 1.449627626715833e+00	 1.035099660122617e+00	-3.082181489814316e+00
1	 1.428013071123873e+00	 1.064720729220134e+00	-4.135087132720903e+00
1	 1.405759695661782e+00	 1.093933837392134e+00	-5.174340443630343e+00
1	 1.382879115373761e+00	 1.122718537660937e+00	-6.195856396879955e+00
1	 1.359383810689057e+00	 1.151054828314322e+00	-7.195595550111300e+00
1	 1.335287105780443e+00	 1.178923198384624e+00	-8.169580346108820e+00
1	 1.310603144070363e+00	 1.206304671842271e+00	-9.113911203230582e+00
1	 1.285346860975787e+00	 1.233180850296056e+00	-1.002478228702582e+01
1	 1.259533954000000e+00	 1.259533954000000e+00	-1.089849685748187e+01
1	 1.496129476300282e+00	 9.781374341871568e-01	-9.755539804222717e-01
1	 1.475752605642808e+00	 1.008618112549170e+00	-2.031343715205922e+00
1	 1.454714039444006e+00	 1.038731588755321e+00	-3.079900491019509e+00
1	 1.433023643306143e+00	 1.068456591428943e+00	-4.116994878943511e+00
1	 1.410692185824901e+00	 1.097772201735178e+00	-5.138416776380451e+00
1	 1.387731322799021e+00	 1.126657900952564e+00	-6.139992310864508e+00
1	 1.364153578448728e+00	 1.155093617187434e+00	-7.117600716358975e+00
1	 1.339972323698279e+00	 1.183059771012588e+00	-8.067191070603350e+00
1	 1.315201751596165e+00	 1.210537319815891e+00	-8.984798781992382e+00
1	 1.289856849964323e+00	 1.237507800650379e+00	-9.866561715513422e+00
1	 1.263953371385000e+00	 1.263953371385000e+00	-1.070873584945378e+01
1	 1.501360698248607e+00	 9.815574951453184e-01	-9.990761301435769e-01
1	 1.480912579791613e+00	 1.012144749306270e+00	-2.042543071849808e+00
1	 1.459800452172504e+00	 1.042363517387702e+00	-3.076967904998227e+00
1	 1.438034215488664e+00	 1.072192453637504e+00	-4.098019290084509e+00
1	 1.415624675988204e+00	 1.101610566078040e+00	-5.101391732996693e+00
1	 1.392583530224407e+00	 1.130597264244064e+00	-6.082822990046310e+00
1	 1.368923346208480e+00	 1.159132406060465e+00	-7.038111413525892e+00
1	 1.344657541616162e+00	 1.187196343640505e+00	-7.963133122756728e+00
1	 1.319800359121986e+00	 1.214769967789490e+00	-8.853858885762419e+00
1	 1.294366838952864e+00	 1.241834751004697e+00	-9.706370598044444e+00
1	 1.268372788770000e+00	 1.268372788770000e+00	-1.051687724744519e+01
1	 1.506591920197438e+00	 9.849775561029749e-01	-1.022450802819180e+00
1	 1.486072553940827e+00	 1.015671386062959e+00	-2.053340024556602e+00
1	 1.464886864901326e+00	 1.045995446019757e+00	-3.073390519116219e+00
1	 1.443044787671432e+00	 1.075928315845815e+00	-4.078169567549880e+00
1	 1.420557166151689e+00	 1.105448930420718e+00	-5.063276786146401e+00
1	 1.397435737649922e+00	 1.134536627535437e+00	-6.024362030620688e+00
1	 1.373693113968314e+00	 1.163171194933414e+00	-6.957143208998061e+00
1	 1.349342759534091e+00	 1.191332916268376e+00	-7.857423884572230e+00
1	 1.324398966647829e+00	 1.219002615763069e+00	-8.721110550738437e+00
1	 1.298876827941411e+00	 1.246161701359010e+00	-9.544229461139244e+00
1	 1.272792206155000e+00	 1.272792206155000e+00	-1.032294290139340e+01
1	 1.511823142146774e+00	 9.883976170601261e-01	-1.045679529350973e+00
1	 1.491232528090451e+00	 1.019198022819238e+00	-2.063738750528389e+00
1	 1.469973277630474e+00	 1.049627374651488e+00	-3.069175026796390e+00
1	 1.448055359854450e+00	 1.079664178053878e+00	-4.057454785390679e+00
1	 1.425489656315358e+00	 1.109287294763213e+00	-5.024083249705586e+00
1	 1.402287945075563e+00	 1.138475990826683e+00	-5.964622840600131e+00
1	 1.378462881728230e+00	 1.167209983806282e+00	-6.874711454695706e+00
1	 1.354027977452066e+00	 1.195469488896202e+00	-7.750080497471765e+00
1	 1.328997574173691e+00	 1.223235263736628e+00	-8.586572549641300e+00
1	 1.303386816929962e+00	 1.250488651713318e+00	-9.380158547214087e+00
1	 1.277211623540000e+00	 1.277211623540000e+00	-1.012695435881462e+01
1	 1.517054364096615e+00	 9.918176780167721e-01	-1.068763819525024e+00
1	 1.496392502240485e+00	 1.022724659575107e+00	-2.073743369350516e+00
1	 1.475059690359945e+00	 1.053259303282894e+00	-3.064328029138605e+00
1	 1.453065932037716e+00	 1.083400040261692e+00	-4.035883892498525e+00
1	 1.430422146479210e+00	 1.113125659105525e+00	-4.983822281496814e+00
1	 1.407140152501332e+00	 1.142415354117801e+00	-5.903618643059247e+00
1	 1.383232649488227e+00	 1.171248772679068e+00	-6.790831290788490e+00
1	 1.358713195370086e+00	 1.199606061523981e+00	-7.641119866443867e+00
1	 1.333596181699575e+00	 1.227467911710166e+00	-8.450263396257858e+00
1	 1.307896805918519e+00	 1.254815602067621e+00	-9.214177819479552e+00
1	 1.281631040925000e+00	 1.281631040925000e+00	-9.928932870017604e+00
1	 1.237436867075000e+00	 1.237436867075000e+00	-1.181505139017175e+01
1	 1.211546098524362e+00	 1.262796916033183e+00	-1.278258920233574e+01
1	 1.185141431973866e+00	 1.287610106441662e+00	-1.367968718872812e+01
1	 1.158240335244119e+00	 1.311861016191947e+00	-1.450202905752933e+01
1	 1.130860883947535e+00	 1.335534971891926e+00	-1.524557518666416e+01
1	 1.103021721200889e+00	 1.358618078249374e+00	-1.590657782176298e+01
1	 1.074742015674166e+00	 1.381097244848932e+00	-1.648159467496689e+01
1	 1.046041418172353e+00	 1.402960210216252e+00	-1.696750084526833e+01
1	 1.016940016954224e+00	 1.424195563079836e+00	-1.736149899557000e+01
1	 9.874582919979624e-01	 1.444792760758598e+00	-1.766112773664999e+01
1	 9.576170684275744e-01	 1.464742144620942e+00	-1.786426818354659e+01
1	 1.241856284460000e+00	 1.241856284460000e+00	-1.163611706495339e+01
1	 1.215873048878711e+00	 1.267306905021694e+00	-1.256929280554116e+01
1	 1.189374079947587e+00	 1.292208713967361e+00	-1.343481162416644e+01
1	 1.162376907872312e+00	 1.316546234109554e+00	-1.422849596169929e+01
1	 1.134899672821056e+00	 1.340304739651190e+00	-1.494643385488133e+01
1	 1.106961084493153e+00	 1.363470285673997e+00	-1.558499366627961e+01
1	 1.078580380018126e+00	 1.386029735011135e+00	-1.614083727810287e+01
1	 1.049777280382407e+00	 1.407970782397278e+00	-1.661093167282495e+01
1	 1.020571945588552e+00	 1.429281975806386e+00	-1.699255883749532e+01
1	 9.909849287575228e-01	 1.449952734904941e+00	-1.728332394304794e+01
1	 9.610371293887680e-01	 1.469973366566236e+00	-1.748116176467125e+01
1	 1.246275701845000e+00	 1.246275701844999e+00	-1.145497116938731e+01
1	 1.220199999233055e+00	 1.271816894010209e+00	-1.235417632336610e+01
1	 1.193606727921289e+00	 1.296807321493081e+00	-1.318848707038508e+01
1	 1.166513480500459e+00	 1.321231452027207e+00	-1.395386388826535e+01
1	 1.138938461694495e+00	 1.345074507410534e+00	-1.464652183236669e+01
1	 1.110900447785290e+00	 1.368322493098747e+00	-1.526294479964157e+01
1	 1.082418744361902e+00	 1.390962225173522e+00	-1.579989831928418e+01
1	 1.053513142592212e+00	 1.412981354578553e+00	-1.625444079516363e+01
1	 1.024203874222555e+00	 1.434368388533261e+00	-1.662393313860667e+01
1	 9.945115655166725e-01	 1.455112709051694e+00	-1.690604674396502e+01
1	 9.644571903494564e-01	 1.475204588512035e+00	-1.709876977357653e+01
1	 1.250695119230000e+00	 1.250695119230000e+00	-1.127163714768222e+01
1	 1.224526949587394e+00	 1.276326882998730e+00	-1.213725905000177e+01
1	 1.197839375894970e+00	 1.301405929018821e+00	-1.294072888769380e+01
1	 1.170650053128560e+00	 1.325916669944906e+00	-1.367814448716704e+01
1	 1.142977250567852e+00	 1.349844275169960e+00	-1.434584728898697e+01
1	 1.114839811077299e+00	 1.373174700523624e+00	-1.494043614811595e+01
1	 1.086257108705497e+00	 1.395894715336092e+00	-1.545877972319683e+01
1	 1.057249004801769e+00	 1.417991926760077e+00	-1.589802738230515e+01
1	 1.027835802856234e+00	 1.439454801260460e+00	-1.625561856541513e+01
1	 9.980382022754126e-01	 1.460272683198858e+00	-1.652929055712836e+01
1	 9.678772513096395e-01	 1.480435810458338e+00	-1.671708463682369e+01
1	 1.255114536615000e+00	 1.255114536615000e+00	-1.108613811384657e+01
1	 1.228853899941727e+00	 1.280836871987256e+00	-1.191856000789035e+01
1	 1.202072023868631e+00	 1.306004536544582e+00	-1.269155222005990e+01
1	 1.174786625756615e+00	 1.330601887862652e+00	-1.340134924425979e+01
1	 1.147016039441128e+00	 1.354614042929468e+00	-1.404441827954019e+01
1	 1.118779174369182e+00	 1.378026907948629e+00	-1.461747256858541e+01
1	 1.090095473048907e+00	 1.400827205498845e+00	-1.511748338741771e+01
1	 1.060984867011076e+00	 1.423002498941850e+00	-1.554169061595996e+01
1	 1.031467731489588e+00	 1.444541213987984e+00	-1.588761183138226e+01
1	 1.001564839033742e+00	 1.465432657346431e+00	-1.615304987888801e+01
1	 9.712973122693170e-01	 1.485667032405148e+00	-1.633609888764244e+01
1	 1.259533954000000e+00	 1.259533954000000e+00	-1.089849685748187e+01
1	 1.233180850296056e+00	 1.285346860975787e+00	-1.169809795249247e+01
1	 1.206304671842271e+00	 1.310603144070363e+00	-1.244097199890382e+01
1	 1.178923198384624e+00	 1.335287105780442e+00	-1.312348948419453e+01
1	 1.151054828314322e+00	 1.359383810689057e+00	-1.374224274577442e+01
1	 1.122718537660937e+00	 1.382879115373761e+00	-1.429405884976642e+01
1	 1.093933837392135e+00	 1.405759695661781e+00	-1.477601118289148e+01
1	 1.064720729220135e+00	 1.428013071123872e+00	-1.518542968932302e+01
1	 1.035099660122618e+00	 1.449627626715832e+00	-1.551990969609642e+01
1	 1.005091475791662e+00	 1.470592631494415e+00	-1.577731928283830e+01
1	 9.747173732284895e-01	 1.490898254352462e+00	-1.595580516405899e+01
1	 1.263953371385000e+00	 1.263953371385000e+00	-1.070873584945378e+01
1	 1.237507800650379e+00	 1.289856849964323e+00	-1.147589137695427e+01
1	 1.210537319815891e+00	 1.315201751596164e+00	-1.218900294681523e+01
1	 1.183059771012587e+00	 1.339972323698280e+00	-1.284457637323522e+01
1	 1.155093617187434e+00	 1.364153578448728e+00	-1.343932851836489e+01
1	 1.126657900952565e+00	 1.387731322799020e+00	-1.397019971339991e+01
1	 1.097772201735179e+00	 1.410692185824901e+00	-1.443436495439557e+01
1	 1.068456591428944e+00	 1.433023643306143e+00	-1.482924380687359e+01
1	 1.038731588755322e+00	 1.454714039444006e+00	-1.515250896446675e+01
1	 1.008618112549171e+00	 1.475752605642809e+00	-1.540209341846756e+01
1	 9.781374341871567e-01	 1.496129476300282e+00	-1.557619620706440e+01
1	 1.268372788770000e+00	 1.268372788770000e+00	-1.051687724744519e+01
1	 1.241834751004697e+00	 1.294366838952864e+00	-1.125195851667805e+01
1	 1.214769967789490e+00	 1.319800359121986e+00	-1.193565958119044e+01
1	 1.187196343640505e+00	 1.344657541616162e+00	-1.256462092201843e+01
1	 1.159132406060465e+00	 1.368923346208480e+00	-1.313568331884791e+01
1	 1.130597264244065e+00	 1.392583530224407e+00	-1.364589981541877e+01
1	 1.101610566078040e+00	 1.415624675988203e+00	-1.409254652099634e+01
1	 1.072192453637504e+00	 1.438034215488663e+00	-1.447313218417819e+01
1	 1.042363517387702e+00	 1.459800452172503e+00	-1.478540648593276e+01
1	 1.012144749306271e+00	 1.480912579791612e+00	-1.502736700983582e+01
1	 9.815574951453184e-01	 1.501360698248607e+00	-1.519726485882041e+01
1	 1.272792206155000e+00	 1.272792206155000e+00	-1.032294290139340e+01
1	 1.246161701359010e+00	 1.298876827941411e+00	-1.102631735379658e+01
1	 1.219002615763069e+00	 1.324398966647828e+00	-1.168095621779564e+01
1	 1.191332916268376e+00	 1.349342759534091e+00	-1.228363398825539e+01
1	 1.163171194933414e+00	 1.373693113968314e+00	-1.283131476151670e+01
1	 1.134536627535437e+00	 1.397435737649921e+00	-1.332116374709018e+01
1	 1.105448930420718e+00	 1.420557166151689e+00	-1.375055767649539e+01
1	 1.075928315845816e+00	 1.443044787671432e+00	-1.411709404769823e+01
1	 1.045995446019758e+00	 1.464886864901326e+00	-1.441859915369220e+01
1	 1.015671386062960e+00	 1.486072553940826e+00	-1.465313485427946e+01
1	 9.849775561029749e-01	 1.506591920197438e+00	-1.481900406090327e+01
1	 1.277211623540000e+00	 1.277211623540000e+00	-1.012695435881462e+01
1	 1.250488651713318e+00	 1.303386816929962e+00	-1.079898562155481e+01
1	 1.223235263736627e+00	 1.328997574173691e+00	-1.142490697425466e+01
1	 1.195469488896202e+00	 1.354027977452066e+00	-1.200162627937746e+01
1	 1.167209983806282e+00	 1.378462881728230e+00	-1.252623035527592e+01
1	 1.138475990826683e+00	 1.402287945075563e+00	-1.299599603613437e+01
1	 1.109287294763213e+00	 1.425489656315358e+00	-1.340840018986657e+01
1	 1.079664178053879e+00	 1.448055359854449e+00	-1.376112863460162e+01
1	 1.049627374651488e+00	 1.469973277630473e+00	-1.405208390394332e+01
1	 1.019198022819239e+00	 1.491232528090450e+00	-1.427939182114458e+01
1	 9.883976170601261e-01	 1.511823142146774e+00	-1.444140685258357e+01
1	 1.281631040925000e+00	 1.281631040925000e+00	-9.928932870017604e+00
1	 1.254815602067621e+00	 1.307896805918519e+00	-1.056998080860133e+01
1	 1.227467911710166e+00	 1.333596181699575e+00	-1.116752577346588e+01
1	 1.199606061523981e+00	 1.358713195370086e+00	-1.171860835512734e+01
1	 1.171248772679068e+00	 1.383232649488227e+00	-1.222043750545933e+01
1	 1.142415354117801e+00	 1.407140152501331e+00	-1.267040114782018e+01
1	 1.113125659105525e+00	 1.430422146479210e+00	-1.306607580568392e+01
1	 1.083400040261693e+00	 1.453065932037716e+00	-1.340523519257803e+01
1	 1.053259303282895e+00	 1.475059690359944e+00	-1.368585771514365e+01
1	 1.022724659575108e+00	 1.496392502240484e+00	-1.390613285054473e+01
1	 9.918176780167723e-01	 1.517054364096615e+00	-1.406446636914206e+01
1	 9.576170684275744e-01	 1.464742144620942e+00	-1.786426818354659e+01
1	 9.274374693167078e-01	 1.484034952579334e+00	-1.773706185880209e+01
1	 8.969408680863411e-01	 1.502663328601820e+00	-1.763403007986172e+01
1	 8.661488407132029e-01	 1.520620329240370e+00	-1.755664173445032e+01
1	 8.350831179629206e-01	 1.537899927193651e+00	-1.750622546385003e+01
1	 8.037655378569367e-01	 1.554497011938170e+00	-1.748396683739186e+01
1	 7.722179985775099e-01	 1.570407387478668e+00	-1.749090634699755e+01
1	 7.404624120079160e-01	 1.585627767284233e+00	-1.752793821475636e+01
1	 7.085206580967062e-01	 1.600155766491363e+00	-1.759581000007765e+01
1	 6.764145402254393e-01	 1.613989891469035e+00	-1.769512298685040e+01
1	 6.441657417487924e-01	 1.627129526853478e+00	-1.782633332533114e+01
1	 9.610371293887680e-01	 1.469973366566236e+00	-1.748116176467125e+01
1	 9.307497459954552e-01	 1.489335077409657e+00	-1.736019828295370e+01
1	 9.001442283321800e-01	 1.508029983346088e+00	-1.726145814451197e+01
1	 8.692422294327299e-01	 1.526051116129465e+00	-1.718634154390564e+01
1	 8.380655576726104e-01	 1.543392426932381e+00	-1.713611709605358e+01
1	 8.066361290661985e-01	 1.560048786979474e+00	-1.711191910771047e+01
1	 7.749759200035468e-01	 1.576015985289785e+00	-1.711474562144652e+01
1	 7.431069206246569e-01	 1.591290723594789e+00	-1.714545722590587e+01
1	 7.110510890207544e-01	 1.605870608513616e+00	-1.720477662004228e+01
1	 6.788303064426181e-01	 1.619754141080843e+00	-1.729328891324603e+01
1	 6.464663336854781e-01	 1.632940703734971e+00	-1.741144263788182e+01
1	 9.644571903494564e-01	 1.475204588512035e+00	-1.709876977357653e+01
1	 9.340620226736078e-01	 1.494635202240570e+00	-1.698378990225820e+01
1	 9.033475885773545e-01	 1.513396638090996e+00	-1.688909766525569e+01
1	 8.723356181515446e-01	 1.531481903019225e+00	-1.681602490911661e+01
1	 8.410479973815603e-01	 1.548884926671770e+00	-1.676578052371441e+01
1	 8.095067202747127e-01	 1.565600562021396e+00	-1.673944781033088e+01
1	 7.777338414288482e-01	 1.581624583101451e+00	-1.673798257490411e+01
1	 7.457514292406943e-01	 1.596953679905796e+00	-1.676221194101656e+01
1	 7.135815199441510e-01	 1.611585450536191e+00	-1.681283387146001e+01
1	 6.812460726592166e-01	 1.625518390692817e+00	-1.689041738177868e+01
1	 6.487669256216740e-01	 1.638751880616444e+00	-1.699540342409674e+01
1	 9.678772513096395e-01	 1.480435810458338e+00	-1.671708463682369e+01
1	 9.373742993511653e-01	 1.499935327072073e+00	-1.660783189132547e+01
1	 9.065509488218652e-01	 1.518763292836549e+00	-1.651694640050923e+01
1	 8.754290068696468e-01	 1.536912689909651e+00	-1.644569200440384e+01
1	 8.440304370897697e-01	 1.554377426411815e+00	-1.639521816596228e+01
1	 8.123773114824784e-01	 1.571152337063937e+00	-1.636655743536953e+01
1	 7.804917628534136e-01	 1.587233180913666e+00	-1.636062359239816e+01
1	 7.483959378560285e-01	 1.602616636217254e+00	-1.637821046216591e+01
1	 7.161119508668959e-01	 1.617300292559089e+00	-1.641999139427888e+01
1	 6.836618388752349e-01	 1.631282640304956e+00	-1.648651939023358e+01
1	 6.510675175573802e-01	 1.644563057497895e+00	-1.657822785916464e+01
1	 9.712973122693170e-01	 1.485667032405148e+00	-1.633609888764244e+01
1	 9.406865760281281e-01	 1.505235451904165e+00	-1.623231949272910e+01
1	 9.097543090657123e-01	 1.524129947582745e+00	-1.614500214026009e+01
1	 8.785223955870370e-01	 1.542343476800742e+00	-1.607534300163299e+01
1	 8.470128767972389e-01	 1.559869926152517e+00	-1.602443240785388e+01
1	 8.152479026894964e-01	 1.576704112107096e+00	-1.599325240970198e+01
1	 7.832496842772432e-01	 1.592841778726430e+00	-1.598267496902649e+01
1	 7.510404464706590e-01	 1.608279592529161e+00	-1.599346077731781e+01
1	 7.186423817889896e-01	 1.623015134582309e+00	-1.602625869267346e+01
1	 6.860776050906732e-01	 1.637046889917259e+00	-1.608160578149714e+01
1	 6.533681094925968e-01	 1.650374234379327e+00	-1.615992794679270e+01
1	 9.747173732284895e-01	 1.490898254352462e+00	-1.595580516405899e+01
1	 9.439988527044957e-01	 1.510535576736846e+00	-1.585724801581338e+01
1	 9.129576693088952e-01	 1.529496602329584e+00	-1.577326270551420e+01
1	 8.816157843037147e-01	 1.547774263692498e+00	-1.570497807025705e+01
1	 8.499953165039679e-01	 1.565362425893875e+00	-1.565342560097186e+01
1	 8.181184938957664e-01	 1.582255887150873e+00	-1.561953709807243e+01
1	 7.860076057003373e-01	 1.598450376539744e+00	-1.560414291153428e+01
1	 7.536849550845862e-01	 1.613942548841520e+00	-1.560797076232373e+01
1	 7.211728127104318e-01	 1.628729976605852e+00	-1.563164513742572e+01
1	 6.884933713055310e-01	 1.642811139529728e+00	-1.567568724627518e+01
1	 6.556687014273237e-01	 1.656185411260738e+00	-1.574051552221525e+01
1	 9.781374341871567e-01	 1.496129476300282e+00	-1.557619620706440e+01
1	 9.473111293802686e-01	 1.515835701570118e+00	-1.548261283552620e+01
1	 9.161610295514143e-01	 1.534863257077065e+00	-1.540172594775222e+01
1	 8.847091730196800e-01	 1.553205050584919e+00	-1.533459737735956e+01
1	 8.529777562099562e-01	 1.570854925635891e+00	-1.528220006400962e+01
1	 8.209890851012881e-01	 1.587807662195268e+00	-1.524541580417918e+01
1	 7.887655271226959e-01	 1.604058974353607e+00	-1.522503353985960e+01
1	 7.563294636978098e-01	 1.619605505154330e+00	-1.522174818288397e+01
1	 7.237032436312221e-01	 1.634444818629716e+00	-1.523615996825825e+01
1	 6.909091375198089e-01	 1.648575389142362e+00	-1.526877432575308e+01
1	 6.579692933615608e-01	 1.661996588142128e+00	-1.532000225513845e+01
1	 9.815574951453184e-01	 1.501360698248607e+00	-1.519726485882041e+01
1	 9.506234060554466e-01	 1.521135826403979e+00	-1.510840939127596e+01
1	 9.193643897932694e-01	 1.540229911825189e+00	-1.503038974839999e+01
1	 8.878025617349331e-01	 1.558635837478006e+00	-1.496420108769510e+01
1	 8.559601959152047e-01	 1.576347425378564e+00	-1.491075808334430e+01
1	 8.238596763060617e-01	 1.593359437240281e+00	-1.487089277173932e+01
1	 7.915234485443184e-01	 1.609667572168019e+00	-1.484535288864487e+01
1	 7.589739723103301e-01	 1.625268461467589e+00	-1.483480069646566e+01
1	 7.262336745513612e-01	 1.640159660653904e+00	-1.483981229611689e+01
1	 6.933249037335062e-01	 1.654339638755162e+00	-1.486087741420079e+01
1	 6.602698852953084e-01	 1.667807765023497e+00	-1.489839965262474e+01
1	 9.849775561029749e-01	 1.506591920197438e+00	-1.481900406090327e+01
1	 9.539356827300294e-01	 1.526435951238430e+00	-1.473463318581285e+01
1	 9.225677500344607e-01	 1.545596566573957e+00	-1.465925201830734e+01
1	 8.908959504494738e-01	 1.564066624371758e+00	-1.459378936373020e+01
1	 8.589426356197126e-01	 1.581839925121894e+00	-1.453910191359745e+01
1	 8.267302675100876e-01	 1.598911212285913e+00	-1.449597218552879e+01
1	 7.942813699652056e-01	 1.615276169982980e+00	-1.446510690871818e+01
1	 7.616184809221475e-01	 1.630931417781299e+00	-1.444713585418264e+01
1	 7.287641054708485e-01	 1.645874502678413e+00	-1.444261110540633e+01
1	 6.957406699466238e-01	 1.660103888368127e+00	-1.445200676152317e+01
1	 6.625704772285660e-01	 1.673618941904847e+00	-1.447571906191598e+01
1	 9.883976170601261e-01	 1.511823142146774e+00	-1.444140685258357e+01
1	 9.572479594040174e-01	 1.531736076073471e+00	-1.436127978413252e+01
1	 9.257711102749879e-01	 1.550963221323367e+00	-1.428831069724004e+01
1	 8.939893391633021e-01	 1.569497411266175e+00	-1.422336236568234e+01
1	 8.619250753234802e-01	 1.587332424865880e+00	-1.416723377818523e+01
1	 8.296008587133652e-01	 1.604462987332162e+00	-1.412065817240340e+01
1	 7.970392913853571e-01	 1.620884767798491e+00	-1.408430146854307e+01
1	 7.642629895332607e-01	 1.636594374095460e+00	-1.405876110263464e+01
1	 7.312945363896846e-01	 1.651589344703245e+00	-1.404456525617988e+01
1	 6.981564361591609e-01	 1.665868137981257e+00	-1.404217247575799e+01
1	 6.648710691613339e-01	 1.679430118786176e+00	-1.405197167319906e+01
1	 9.918176780167723e-01	 1.517054364096615e+00	-1.406446636914206e+01
1	 9.605602360774108e-01	 1.537036200909102e+00	-1.398834481240321e+01
1	 9.289744705148517e-01	 1.556329876073421e+00	-1.391756375338105e+01
1	 8.970827278764184e-01	 1.574928198161258e+00	-1.385292025155959e+01
1	 8.649075150265074e-01	 1.592824924610523e+00	-1.379515586985569e+01
1	 8.324714499158948e-01	 1.610014762379030e+00	-1.374495480229622e+01
1	 7.997972128047728e-01	 1.626493365614551e+00	-1.370294235563902e+01
1	 7.669074981436709e-01	 1.642257330410071e+00	-1.366968378570972e+01
1	 7.338249673078692e-01	 1.657304186728399e+00	-1.364568348628293e+01
1	 7.005722023711179e-01	 1.671632387594552e+00	-1.363138452552183e+01
1	 6.671716610936123e-01	 1.685241295667484e+00	-1.362716852231308e+01
1	 6.441657417487924e-01	 1.627129526853478e+00	-1.782633332533114e+01
1	 6.117957838646149e-01	 1.639574920171458e+00	-1.776851781834930e+01
1	 5.793259849590476e-01	 1.651327164182859e+00	-1.773530260192457e+01
1	 5.467774215590897e-01	 1.662388177080194e+00	-1.772749861367135e+01
1	 5.141708910118744e-01	 1.672760680690260e+00	-1.774580788235713e+01
1	 4.815268759957916e-01	 1.682448176831636e+00	-1.779082392514662e+01
1	 4.488655109548266e-01	 1.691454921985005e+00	-1.786303266844385e+01
1	 4.162065505333923e-01	 1.699785900437285e+00	-1.796281386637936e+01
1	 3.835693400749209e-01	 1.707446796062950e+00	-1.809044298829782e+01
1	 3.509727882336220e-01	 1.714443962906949e+00	-1.824609354429140e+01
1	 3.184353417352296e-01	 1.720784394733555e+00	-1.842983981593717e+01
1	 6.464663336854781e-01	 1.632940703734971e+00	-1.741144263788182e+01
1	 6.139807688086512e-01	 1.645430544886697e+00	-1.734211734985808e+01
1	 5.813950063354179e-01	 1.657224761198529e+00	-1.729947268175233e+01
1	 5.487301980660868e-01	 1.668325277713667e+00	-1.728436897905436e+01
1	 5.160072156240300e-01	 1.678734825979718e+00	-1.729754879303783e+01
1	 4.832466148400598e-01	 1.688456920321759e+00	-1.733963738928413e+01
1	 4.504686020668891e-01	 1.697495832422189e+00	-1.741114381941205e+01
1	 4.176930025012313e-01	 1.705856564368955e+00	-1.751246252757277e+01
1	 3.849392305770300e-01	 1.713544820336080e+00	-1.764387546038843e+01
1	 3.522262624794016e-01	 1.720566977061533e+00	-1.780555464657567e+01
1	 3.195726108152424e-01	 1.726930053287319e+00	-1.799756521048819e+01
1	 6.487669256216740e-01	 1.638751880616444e+00	-1.699540342409674e+01
1	 6.161657537522873e-01	 1.651286169601732e+00	-1.691478747253309e+01
1	 5.834640277114557e-01	 1.663122358213840e+00	-1.686291754146773e+01
1	 5.506829745727987e-01	 1.674262378346661e+00	-1.684070321846961e+01
1	 5.178435402359274e-01	 1.684708971268607e+00	-1.684892745116420e+01
1	 4.849663536840761e-01	 1.694465663811254e+00	-1.688824716641497e+01
1	 4.520716931786860e-01	 1.703536742858716e+00	-1.695919449216503e+01
1	 4.191794544687711e-01	 1.711927228299966e+00	-1.706217855101500e+01
1	 3.863091210787871e-01	 1.719642844608581e+00	-1.719748779155916e+01
1	 3.534797367247572e-01	 1.726689991215546e+00	-1.736529282091917e+01
1	 3.207098798947405e-01	 1.733075711840597e+00	-1.756564969980127e+01
1	 6.510675175573802e-01	 1.644563057497895e+00	-1.657822785916464e+01
1	 6.183507386955230e-01	 1.657141794316561e+00	-1.648653803876231e+01
1	 5.855330490871615e-01	 1.669019955228796e+00	-1.642564486891438e+01
1	 5.526357510792258e-01	 1.680199478979176e+00	-1.639650701522940e+01
1	 5.196798648475665e-01	 1.690683116556928e+00	-1.639994769686742e+01
1	 4.866860925278405e-01	 1.700474407300119e+00	-1.643665541576386e+01
1	 4.536747842902172e-01	 1.709577653294584e+00	-1.650718532781303e+01
1	 4.206659064360120e-01	 1.717997892230319e+00	-1.661196122261742e+01
1	 3.876790115801922e-01	 1.725740868880452e+00	-1.675127807517588e+01
1	 3.547332109696887e-01	 1.732813005368987e+00	-1.692530513016132e+01
1	 3.218471489737239e-01	 1.739221370393391e+00	-1.713408947721748e+01
1	 6.533681094925968e-01	 1.650374234379327e+00	-1.615992794679270e+01
1	 6.205357236383585e-01	 1.662997419031187e+00	-1.605737876216835e+01
1	 5.876020704625352e-01	 1.674917552243394e+00	-1.598766224365655e+01
1	 5.545885275853680e-01	 1.686136579611213e+00	-1.595178597259912e+01
1	 5.215161894589473e-01	 1.696657261844680e+00	-1.595061331619248e+01
1	 4.884058313713530e-01	 1.706483150788357e+00	-1.598486426614387e+01
1	 4.552778754014828e-01	 1.715618563729795e+00	-1.605511695843682e+01
1	 4.221523584029536e-01	 1.724068556160014e+00	-1.616180983834900e+01
1	 3.890489020812452e-01	 1.731838893151694e+00	-1.630524443145828e+01
1	 3.559866852141964e-01	 1.738936019521858e+00	-1.648558867851019e+01
1	 3.229844180521926e-01	 1.745367028945698e+00	-1.670288078969244e+01
1	 6.556687014273237e-01	 1.656185411260738e+00	-1.574051552221525e+01
1	 6.227207085807933e-01	 1.668853043745608e+00	-1.562731922004186e+01
1	 5.896710918375767e-01	 1.680815149257636e+00	-1.554897713887842e+01
1	 5.565413040912253e-01	 1.692073680242772e+00	-1.550654561520204e+01
1	 5.233525140700700e-01	 1.702631407131864e+00	-1.550092804204687e+01
1	 4.901255702146137e-01	 1.712491894275966e+00	-1.553287581648983e+01
1	 4.568809665124828e-01	 1.721659474164347e+00	-1.560299000724575e+01
1	 4.236388103695963e-01	 1.730139220089051e+00	-1.571172370405991e+01
1	 3.904187925819462e-01	 1.737936917422307e+00	-1.585938500700857e+01
1	 3.572401594582800e-01	 1.745059033674156e+00	-1.604614061081627e+01
1	 3.241216871301467e-01	 1.751512687497521e+00	-1.627201993685662e+01
1	 6.579692933615608e-01	 1.661996588142128e+00	-1.532000225513845e+01
1	 6.249056935228279e-01	 1.674708668459824e+00	-1.519636885572539e+01
1	 5.917401132122858e-01	 1.686712746271519e+00	-1.510959692324421e+01
1	 5.584940805967978e-01	 1.698010780873852e+00	-1.506079139039400e+01
1	 5.251888386809346e-01	 1.708605552418478e+00	-1.505089555512952e+01
1	 4.918453090576224e-01	 1.718500637762947e+00	-1.508069213638099e+01
1	 4.584840576232170e-01	 1.727700384598241e+00	-1.515080508873323e+01
1	 4.251252623359397e-01	 1.736209884017428e+00	-1.526170213530861e+01
1	 3.917886830822951e-01	 1.744034941692291e+00	-1.541369797435144e+01
1	 3.584936337019397e-01	 1.751182047825884e+00	-1.560695811186256e+01
1	 3.252589562075862e-01	 1.757658346048858e+00	-1.584150327009354e+01
1	 6.602698852953084e-01	 1.667807765023497e+00	-1.489839965262474e+01
1	 6.270906784644620e-01	 1.680564293173836e+00	-1.476453698094712e+01
1	 5.938091345866630e-01	 1.692610343285047e+00	-1.466952886271907e+01
1	 5.604468571020855e-01	 1.703947881504455e+00	-1.461452866960922e+01
1	 5.270251632915408e-01	 1.714579697704524e+00	-1.460051948484030e+01
1	 4.935650479003793e-01	 1.724509381249299e+00	-1.462831526655240e+01
1	 4.600871487336858e-01	 1.733741295031477e+00	-1.469856280882793e+01
1	 4.266117143019840e-01	 1.742280547945149e+00	-1.481174445719297e+01
1	 3.931585735822921e-01	 1.750132965961646e+00	-1.496818153148076e+01
1	 3.597471079451753e-01	 1.757305061977040e+00	-1.516803840566832e+01
1	 3.263962252845110e-01	 1.763804004599710e+00	-1.541132719163859e+01
1	 6.625704772285660e-01	 1.673618941904847e+00	-1.447571906191598e+01
1	 6.292756634056957e-01	 1.686419917887643e+00	-1.433183277810543e+01
1	 5.958781559607076e-01	 1.698507940298217e+00	-1.422878012235174e+01
1	 5.623996336070880e-01	 1.709884982134579e+00	-1.416776274967911e+01
1	 5.288614879018888e-01	 1.720553842990002e+00	-1.414980341017132e+01
1	 4.952847867428843e-01	 1.730518124735024e+00	-1.417574721939518e+01
1	 4.616902398438889e-01	 1.739782205464055e+00	-1.424626376504321e+01
1	 4.280981662677294e-01	 1.748351211872211e+00	-1.436185000418418e+01
1	 3.945284640819371e-01	 1.756230990230371e+00	-1.452283390141877e+01
1	 3.610005821879869e-01	 1.763428076127625e+00	-1.472937875480805e+01
1	 3.275334943609210e-01	 1.769949663150077e+00	-1.498148815369607e+01
1	 6.648710691613339e-01	 1.679430118786176e+00	-1.405197167319906e+01
1	 6.314606483465289e-01	 1.692275542601245e+00	-1.389826530250680e+01
1	 5.979471773344205e-01	 1.704405537311030e+00	-1.378735776802096e+01
1	 5.643524101118058e-01	 1.715822082764225e+00	-1.372049885412190e+01
1	 5.306978125119788e-01	 1.726527988274911e+00	-1.369875086057759e+01
1	 4.970045255851375e-01	 1.736526868220118e+00	-1.372298997944763e+01
1	 4.632933309538264e-01	 1.745823115895974e+00	-1.379390854662195e+01
1	 4.295846182331754e-01	 1.754421875798614e+00	-1.391201811996535e+01
1	 3.958983545812301e-01	 1.762329014498468e+00	-1.407765333178233e+01
1	 3.622540564303746e-01	 1.769551090277638e+00	-1.429097645974456e+01
1	 3.286707634368164e-01	 1.776095321699958e+00	-1.455198265757473e+01
1	 6.671716610936123e-01	 1.685241295667484e+00	-1.362716852231308e+01
1	 6.336456332869622e-01	 1.698131167314644e+00	-1.346384348455700e+01
1	 6.000161987078009e-01	 1.710303134323486e+00	-1.334526876814487e+01
1	 5.663051866162389e-01	 1.721759183393393e+00	-1.327274213440802e+01
1	 5.325341371218105e-01	 1.732502133559251e+00	-1.324736531683274e+01
1	 4.987242644271387e-01	 1.742535611704585e+00	-1.327004550387506e+01
1	 4.648964220634984e-01	 1.751864026327236e+00	-1.334149773467964e+01
1	 4.310710701983224e-01	 1.760492539724359e+00	-1.346224815727176e+01
1	 3.972682450801711e-01	 1.768427038765935e+00	-1.363263809435895e+01
1	 3.635075306723383e-01	 1.775674104427080e+00	-1.385282885817571e+01
1	 3.298080325121973e-01	 1.782240980249354e+00	-1.412280725284121e+01
1	 3.184353417352296e-01	 1.720784394733555e+00	-1.842983981593717e+01
1	 2.859749623090795e-01	 1.726475693704463e+00	-1.867916091961236e+01
1	 2.536091058023270e-01	 1.731526038345919e+00	-1.898593415772348e+01
1	 2.213547034732818e-01	 1.735944150962883e+00	-1.934882264854255e+01
1	 1.892281454495708e-01	 1.739739264653876e+00	-1.976635213925960e+01
1	 1.572452663273684e-01	 1.742921090073661e+00	-2.023692168847064e+01
1	 1.254213328766080e-01	 1.745499782086253e+00	-2.075881445738418e+01
1	 9.377103380810400e-02	 1.747485906444048e+00	-2.133020854135749e+01
1	 6.230847155001575e-02	 1.748890406621857e+00	-2.194918777702586e+01
1	 3.104715597342760e-02	 1.749724570927141e+00	-2.261375246427333e+01
1	 0.000000000000000e+00	 1.750000000000000e+00	-2.332182994655859e+01
1	 3.195726108152424e-01	 1.726930053287319e+00	-1.799756521048819e+01
1	 2.869963014628354e-01	 1.732641678325757e+00	-1.825572883459740e+01
1	 2.545148526115634e-01	 1.737710059912164e+00	-1.857356047037705e+01
1	 2.221452559885176e-01	 1.742143951502586e+00	-1.894968467964680e+01
1	 1.899039602574970e-01	 1.745952619170899e+00	-1.938258241921688e+01
1	 1.578068565668077e-01	 1.749145808252773e+00	-1.987060213741748e+01
1	 1.258692662105635e-01	 1.751733709879594e+00	-2.041197098794309e+01
1	 9.410593035926275e-02	 1.753726927538590e+00	-2.100480608968860e+01
1	 6.253100180688201e-02	 1.755136443788407e+00	-2.164712576504111e+01
1	 3.115803867404765e-02	 1.755973587251892e+00	-2.233686069322549e+01
1	 0.000000000000000e+00	 1.756250000000000e+00	-2.307186491972002e+01
1	 3.207098798947405e-01	 1.733075711840597e+00	-1.756564969980127e+01
1	 2.880176406159930e-01	 1.738807662946661e+00	-1.783269938260016e+01
1	 2.554205994201488e-01	 1.743894081478101e+00	-1.816161808809108e+01
1	 2.229358085030811e-01	 1.748343752042055e+00	-1.855099204501107e+01
1	 1.905797750647605e-01	 1.752165973687751e+00	-1.899925766970490e+01
1	 1.583684468056234e-01	 1.755370526431767e+00	-1.950471307497044e+01
1	 1.263171995439641e-01	 1.757967637672860e+00	-2.006552970477766e+01
1	 9.444082690996386e-02	 1.759967948633090e+00	-2.067976402062324e+01
1	 6.275353206341597e-02	 1.761382480954939e+00	-2.134536916919647e+01
1	 3.126892137448819e-02	 1.762222603576638e+00	-2.206020656531223e+01
1	 0.000000000000000e+00	 1.762500000000000e+00	-2.282205732863662e+01
1	 3.218471489737239e-01	 1.739221370393391e+00	-1.713408947721748e+01
1	 2.890389797685517e-01	 1.744973647567173e+00	-1.741006829542493e+01
1	 2.563263462280835e-01	 1.750078103043732e+00	-1.775010243872653e+01
1	 2.237263610169727e-01	 1.754543552581292e+00	-1.815274002377611e+01
1	 1.912555898713611e-01	 1.758379328204433e+00	-1.861637317372007e+01
1	 1.589300370438156e-01	 1.761595244610643e+00	-1.913924993764465e+01
1	 1.267651328768097e-01	 1.764201565466052e+00	-1.971948634442793e+01
1	 9.477572346020728e-02	 1.766208969727547e+00	-2.035507851384991e+01
1	 6.297606231961764e-02	 1.767628518121452e+00	-2.104391475186443e+01
1	 3.137980407474919e-02	 1.768471619901379e+00	-2.178378756134758e+01
1	 0.000000000000000e+00	 1.768750000000000e+00	-2.257240550437824e+01
1	 3.229844180521926e-01	 1.745367028945698e+00	-1.670288078969244e+01
1	 2.900603189205119e-01	 1.751139632187295e+00	-1.698783136499203e+01
1	 2.572320930353673e-01	 1.756262124609057e+00	-1.733900901454022e+01
1	 2.245169135301921e-01	 1.760743353120295e+00	-1.775492396157399e+01
1	 1.919314046772990e-01	 1.764592682720944e+00	-1.823392428069596e+01
1	 1.594916272813844e-01	 1.767819962789402e+00	-1.877420822623045e+01
1	 1.272130662091004e-01	 1.770435493259169e+00	-1.937383670348272e+01
1	 9.511062000999307e-02	 1.772449990821963e+00	-2.003074580286468e+01
1	 6.319859257548699e-02	 1.773874555287947e+00	-2.074275932101752e+01
1	 3.149068677483068e-02	 1.774720636226116e+00	-2.150760119762763e+01
1	 0.000000000000000e+00	 1.775000000000000e+00	-2.232290780152091e+01
1	 3.241216871301467e-01	 1.751512687497521e+00	-1.627201993685662e+01
1	 2.910816580718735e-01	 1.757305616807026e+00	-1.656598444228207e+01
1	 2.581378398420001e-01	 1.762446146174073e+00	-1.692833337105566e+01
1	 2.253074660427395e-01	 1.766943153659065e+00	-1.735753926936104e+01
1	 1.926072194825741e-01	 1.770806037237285e+00	-1.785190640533700e+01
1	 1.600532175183295e-01	 1.774044680968043e+00	-1.840958350466406e+01
1	 1.276609995408362e-01	 1.776669421052211e+00	-1.902857663752614e+01
1	 9.544551655932124e-02	 1.778691011916338e+00	-1.970676217402674e+01
1	 6.342112283102407e-02	 1.780120592454423e+00	-2.044189972942914e+01
1	 3.160156947473262e-02	 1.780969652550848e+00	-2.123164502530742e+01
1	 0.000000000000000e+00	 1.781250000000000e+00	-2.207356259773407e+01
1	 3.252589562075862e-01	 1.757658346048858e+00	-1.584150327009354e+01
1	 2.921029972226365e-01	 1.763471601426366e+00	-1.614452343630411e+01
1	 2.590435866479820e-01	 1.768630167738783e+00	-1.651807112595662e+01
1	 2.260980185546148e-01	 1.773142954197601e+00	-1.696058142227638e+01
1	 1.932830342871865e-01	 1.777019391753456e+00	-1.747031502647792e+01
1	 1.606148077546511e-01	 1.780269399146567e+00	-1.804537139892500e+01
1	 1.281089328720170e-01	 1.782903348845179e+00	-1.868370206010644e+01
1	 9.578041310819174e-02	 1.784932033010671e+00	-1.938312396563429e+01
1	 6.364365308622884e-02	 1.786366629620881e+00	-2.014133287388916e+01
1	 3.171245217445506e-02	 1.787218668875576e+00	-2.095591662979131e+01
1	 0.000000000000000e+00	 1.787500000000000e+00	-2.182436829337709e+01
1	 3.263962252845110e-01	 1.763804004599710e+00	-1.541132719163859e+01
1	 2.931243363728009e-01	 1.769637586045316e+00	-1.572344431308441e+01
1	 2.599493334533131e-01	 1.774814189303186e+00	-1.610821795800492e+01
1	 2.268885710658179e-01	 1.779342754735904e+00	-1.656404595852320e+01
1	 1.939588490911360e-01	 1.783232746269456e+00	-1.708914568596618e+01
1	 1.611763979903493e-01	 1.786494117324973e+00	-1.768156759595499e+01
1	 1.285568662026429e-01	 1.789137276638072e+00	-1.833920894172546e+01
1	 9.611530965660454e-02	 1.791173054104961e+00	-1.905982756701977e+01
1	 6.386618334110131e-02	 1.792612666787321e+00	-1.984105569443858e+01
1	 3.182333487399797e-02	 1.793467685200299e+00	-2.068041363013703e+01
1	 0.000000000000000e+00	 1.793750000000000e+00	-2.157532331110425e+01
1	 3.275334943609210e-01	 1.769949663150077e+00	-1.498148815369607e+01
1	 2.941456755223667e-01	 1.775803570663875e+00	-1.530274309467684e+01
1	 2.608550802579933e-01	 1.780998210867283e+00	-1.569876960597913e+01
1	 2.276791235763490e-01	 1.785542555273972e+00	-1.616792847827405e+01
1	 1.946346638944229e-01	 1.789446100785285e+00	-1.670839398756761e+01
1	 1.617379882254240e-01	 1.792718835503262e+00	-1.731816784259893e+01
1	 1.290047995327138e-01	 1.795371204430890e+00	-1.799509330885066e+01
1	 9.645020620455973e-02	 1.797414075199210e+00	-1.873686941766385e+01
1	 6.408871359564150e-02	 1.798858703953742e+00	-1.954106517361735e+01
1	 3.193421757336135e-02	 1.799716701525018e+00	-2.040513367847030e+01
1	 0.000000000000000e+00	 1.800000000000000e+00	-2.132642609547720e+01
1	 3.286707634368164e-01	 1.776095321699958e+00	-1.455198265757473e+01
1	 2.951670146713340e-01	 1.781969555282043e+00	-1.488241585819302e+01
1	 2.617608270620226e-01	 1.787182232431072e+00	-1.528972186763699e+01
1	 2.284696760862081e-01	 1.791742355811808e+00	-1.577222464259857e+01
1	 1.953104786970469e-01	 1.795659455300944e+00	-1.632805559589588e+01
1	 1.622995784598751e-01	 1.798943553681433e+00	-1.695516794456873e+01
1	 1.294527328622298e-01	 1.801605132223633e+00	-1.765135124294597e+01
1	 9.678510275205729e-02	 1.803655096293418e+00	-1.841424600632751e+01
1	 6.431124384984938e-02	 1.805104741120144e+00	-1.924135833572951e+01
1	 3.204510027254520e-02	 1.805965717849732e+00	-2.013007445941375e+01
1	 0.000000000000000e+00	 1.806250000000000e+00	-2.107767511258630e+01
1	 3.298080325121973e-01	 1.782240980249354e+00	-1.412280725284121e+01
1	 2.961883538197027e-01	 1.788135539899820e+00	-1.446245873485378e+01
1	 2.626665738654010e-01	 1.793366253994555e+00	-1.488107059869783e+01
1	 2.292602285953950e-01	 1.797942156349410e+00	-1.537693017241433e+01
1	 1.959862934990082e-01	 1.801872809816433e+00	-1.594812623536324e+01
1	 1.628611686937027e-01	 1.805168271859486e+00	-1.659256376542958e+01
1	 1.299006661911909e-01	 1.807839060016302e+00	-1.730797887952486e+01
1	 9.711999929909720e-02	 1.809896117387584e+00	-1.809195387020269e+01
1	 6.453377410372496e-02	 1.811350778286528e+00	-1.894193224612371e+01
1	 3.215598297154953e-02	 1.812214734174441e+00	-1.985523368952644e+01
1	 0.000000000000000e+00	 1.812500000000000e+00	-2.082906884967899e+01
1	 1.812500000000000e+00	 0.000000000000000e+00	 4.834370899687728e+00
1	 1.812214734174441e+00	 3.215598297154849e-02	 4.544644223178397e+00
1	 1.811350778286529e+00	 6.453377410372405e-02	 4.254362757789109e+00
1	 1.809896117387584e+00	 9.711999929909639e-02	 3.964535153214920e+00
1	 1.807839060016302e+00	 1.299006661911901e-01	 3.676196850709096e+00
1	 1.805168271859486e+00	 1.628611686937021e-01	 3.390407371287115e+00
1	 1.801872809816433e+00	 1.959862934990077e-01	 3.108247357037156e+00
1	 1.797942156349410e+00	 2.292602285953946e-01	 2.830815369444895e+00
1	 1.793366253994555e+00	 2.626665738654008e-01	 2.559224450725782e+00
1	 1.788135539899820e+00	 2.961883538197025e-01	 2.294598456332270e+00
1	 1.782240980249354e+00	 3.298080325121973e-01	 2.038068169048370e+00
1	 1.818750000000000e+00	 0.000000000000000e+00	 4.749342528904176e+00
1	 1.818463750499151e+00	 3.226686567055283e-02	 4.452221179939050e+00
1	 1.817596815452913e+00	 6.475630435759962e-02	 4.155888158464701e+00
1	 1.816137138481750e+00	 9.745489584613629e-02	 3.861392157668500e+00
1	 1.814072987808971e+00	 1.303485995201512e-01	 3.569805820644306e+00
1	 1.811392990037540e+00	 1.634227589275297e-01	 3.282222760250919e+00
1	 1.808086164331922e+00	 1.966621083009689e-01	 2.999754332795176e+00
1	 1.804141956887013e+00	 2.300507811045816e-01	 2.723526171102134e+00
1	 1.799550275558037e+00	 2.635723206687792e-01	 2.454674484709301e+00
1	 1.794301524517598e+00	 2.972096929680711e-01	 2.194342137174635e+00
1	 1.788386638798750e+00	 3.309453015875781e-01	 1.943674512801216e+00
1	 1.825000000000000e+00	 0.000000000000000e+00	 4.666222537738372e+00
1	 1.824712766823865e+00	 3.237774836973667e-02	 4.361731409706709e+00
1	 1.823842852619315e+00	 6.497883461180749e-02	 4.059363387562935e+00
1	 1.822378159575957e+00	 9.778979239363381e-02	 3.760207002601383e+00
1	 1.820306915601714e+00	 1.307965328496672e-01	 3.465371906417475e+00
1	 1.817617708215711e+00	 1.639843491619808e-01	 3.175985623525909e+00
1	 1.814299518847581e+00	 1.973379231035930e-01	 2.893190058519580e+00
1	 1.810341757424848e+00	 2.308413336144405e-01	 2.618137764979586e+00
1	 1.805734297121826e+00	 2.644780674728084e-01	 2.351987985610230e+00
1	 1.800467509135765e+00	 2.982310321170383e-01	 2.095902475404227e+00
1	 1.794532297348631e+00	 3.320825706634735e-01	 1.851041122024160e+00
1	 1.831250000000000e+00	 0.000000000000000e+00	 4.584991386468465e+00
1	 1.830961783148583e+00	 3.248863106910005e-02	 4.273155117878409e+00
1	 1.830088889785736e+00	 6.520136486634766e-02	 3.964768480971232e+00
1	 1.828619180670206e+00	 9.812468894158899e-02	 3.660959641866125e+00
1	 1.826540843394532e+00	 1.312444661797381e-01	 3.362875069300477e+00
1	 1.823842426393999e+00	 1.645459393970554e-01	 3.071676021102391e+00
1	 1.820512873363410e+00	 1.980137379068798e-01	 2.788534785917210e+00
1	 1.816541557962917e+00	 2.316318861249716e-01	 2.514630689040580e+00
1	 1.811918318685923e+00	 2.653838142774887e-01	 2.251145873561947e+00
1	 1.806633493754324e+00	 2.992523712666042e-01	 1.999260870432655e+00
1	 1.800677955898997e+00	 3.332198397398835e-01	 1.760149973520236e+00
1	 1.837500000000000e+00	 0.000000000000000e+00	 4.505629801219075e+00
1	 1.837210799473306e+00	 3.259951376864296e-02	 4.186472779165386e+00
1	 1.836334926952176e+00	 6.542389512122014e-02	 3.872083746197635e+00
1	 1.834860201764497e+00	 9.845958549000183e-02	 3.563630302051921e+00
1	 1.832774771187425e+00	 1.316923995103640e-01	 3.262295543200861e+00
1	 1.830067144572405e+00	 1.651075296327535e-01	 2.969274284263263e+00
1	 1.826726227879410e+00	 1.986895527108294e-01	 2.685769035379182e+00
1	 1.822741358501220e+00	 2.324224386361748e-01	 2.412985746038074e+00
1	 1.818102340250326e+00	 2.662895610828197e-01	 2.152129328287897e+00
1	 1.812799478373273e+00	 3.002737104167686e-01	 1.904398974740802e+00
1	 1.806823614449849e+00	 3.343571088168083e-01	 1.670983289306082e+00
1	 1.843750000000000e+00	 0.000000000000000e+00	 4.428118769455476e+00
1	 1.843459815798034e+00	 3.271039646836538e-02	 4.101665133028440e+00
1	 1.842580964118634e+00	 6.564642537642493e-02	 3.781289757766882e+00
1	 1.841101222858829e+00	 9.879448203887231e-02	 3.468199477862046e+00
1	 1.839008698980393e+00	 1.321403328415448e-01	 3.163613830041038e+00
1	 1.836291862750929e+00	 1.656691198690752e-01	 2.868761010985940e+00
1	 1.832939582395581e+00	 1.993653675154417e-01	 2.584873591426870e+00
1	 1.828941159039756e+00	 2.332129911480501e-01	 2.313183999026704e+00
1	 1.824286361815036e+00	 2.671953078888017e-01	 2.054919784701718e+00
1	 1.818965462992614e+00	 3.012950495675316e-01	 1.811298689589459e+00
1	 1.812969273001186e+00	 3.354943778942477e-01	 1.583523532455777e+00
1	 1.850000000000000e+00	 0.000000000000000e+00	 4.352439535569019e+00
1	 1.849708832122766e+00	 3.282127916826733e-02	 4.018713179206018e+00
1	 1.848827001285110e+00	 6.586895563196198e-02	 3.692367352710148e+00
1	 1.847342243953203e+00	 9.912937858820044e-02	 3.374647927584747e+00
1	 1.845242626773435e+00	 1.325882661732805e-01	 3.066810695230901e+00
1	 1.842516580929570e+00	 1.662307101060204e-01	 2.770117061437266e+00
1	 1.839152936911922e+00	 2.000411823207169e-01	 2.485829498250302e+00
1	 1.835140959578525e+00	 2.340035436605974e-01	 2.215206766965764e+00
1	 1.830470383380053e+00	 2.681010546954345e-01	 1.959498928596611e+00
1	 1.825131447612345e+00	 3.023163887188933e-01	 1.719942160817032e+00
1	 1.819114931553009e+00	 3.366316469722018e-01	 1.497753403028908e+00
1	 1.856250000000000e+00	 0.000000000000000e+00	 4.278573596551747e+00
1	 1.855957848447503e+00	 3.293216186834880e-02	 3.937598173332120e+00
1	 1.855073038451605e+00	 6.609148588783136e-02	 3.605297626145684e+00
1	 1.853583265047620e+00	 9.946427513798624e-02	 3.282956668655915e+00
1	 1.851476554566552e+00	 1.330361995055713e-01	 2.971867163232004e+00
1	 1.848741299108329e+00	 1.667923003435891e-01	 2.673323553559618e+00
1	 1.845366291428434e+00	 2.007169971266548e-01	 2.388618055336593e+00
1	 1.841340760117528e+00	 2.347940961738168e-01	 2.119035620411053e+00
1	 1.836654404945377e+00	 2.690068015027183e-01	 1.865848692421792e+00
1	 1.831297432232466e+00	 3.033377278708534e-01	 1.630311774722011e+00
1	 1.825260590105317e+00	 3.377689160506706e-01	 1.413655834080936e+00
1	 1.862500000000000e+00	 0.000000000000000e+00	 4.206502697758191e+00
1	 1.862206864772244e+00	 3.304304456860981e-02	 3.858301622643059e+00
1	 1.861319075618118e+00	 6.631401614403300e-02	 3.520061926948434e+00
1	 1.859824286142078e+00	 9.979917168822970e-02	 3.193106973310922e+00
1	 1.857710482359744e+00	 1.334841328384169e-01	 2.878764513211113e+00
1	 1.854966017287205e+00	 1.673538905817814e-01	 2.578361858745803e+00
1	 1.851579645945115e+00	 2.013928119332554e-01	 2.293220813186428e+00
1	 1.847540560656764e+00	 2.355846486877083e-01	 2.024652377293488e+00
1	 1.842838426511008e+00	 2.699125483106529e-01	 1.773951251143923e+00
1	 1.837463416852979e+00	 3.043590670234123e-01	 1.542390154028477e+00
1	 1.831406248658110e+00	 3.389061851296540e-01	 1.331213987753860e+00
1	 1.868750000000000e+00	 0.000000000000000e+00	 4.136208828752101e+00
1	 1.868455881096990e+00	 3.315392726905033e-02	 3.780805281769814e+00
1	 1.867565112784650e+00	 6.653654640056696e-02	 3.436641853506774e+00
1	 1.866065307236577e+00	 1.001340682389308e-01	 3.105080364323730e+00
1	 1.863944410153010e+00	 1.339320661718174e-01	 2.787484274780909e+00
1	 1.861190735466199e+00	 1.679154808205970e-01	 2.485213597600691e+00
1	 1.857793000461968e+00	 2.020686267405188e-01	 2.199619569116570e+00
1	 1.853740361196235e+00	 2.363752012022720e-01	 1.932039098782353e+00
1	 1.849022448076945e+00	 2.708182951192383e-01	 1.683789018191703e+00
1	 1.843629401473883e+00	 3.053804061765696e-01	 1.456160153932411e+00
1	 1.837551907211388e+00	 3.400434542091521e-01	 1.250411251445330e+00
1	 1.875000000000000e+00	 0.000000000000000e+00	 4.067674219236364e+00
1	 1.874704897421741e+00	 3.326480996967039e-02	 3.705091148615009e+00
1	 1.873811149951200e+00	 6.675907665743322e-02	 3.355019249563789e+00
1	 1.872306328331119e+00	 1.004689647900895e-01	 3.018858610831313e+00
1	 1.870178337946352e+00	 1.343799995057729e-01	 2.698008223825838e+00
1	 1.867415453645311e+00	 1.684770710600363e-01	 2.393860635787852e+00
1	 1.864006354978990e+00	 2.027444415484450e-01	 2.107796363146161e+00
1	 1.859940161735938e+00	 2.371657537175077e-01	 1.841178085231331e+00
1	 1.855206469643190e+00	 2.717240419284747e-01	 1.595344641481402e+00
1	 1.849795386095177e+00	 3.064017453303257e-01	 1.371604858227211e+00
1	 1.843697565765152e+00	 3.411807232891650e-01	 1.171231234054396e+00
1	 1.782240980249354e+00	 3.298080325121973e-01	 2.038068169048370e+00
1	 1.775674104427081e+00	 3.635075306723373e-01	 1.814505501662613e+00
1	 1.768427038765936e+00	 3.972682450801703e-01	 1.592551418185856e+00
1	 1.760492539724359e+00	 4.310710701983217e-01	 1.372045503300776e+00
1	 1.751864026327236e+00	 4.648964220634977e-01	 1.152806868186388e+00
1	 1.742535611704586e+00	 4.987242644271382e-01	 9.346342085729664e-01
1	 1.732502133559251e+00	 5.325341371218103e-01	 7.173059806644551e-01
1	 1.721759183393393e+00	 5.663051866162386e-01	 5.005806993112034e-01
1	 1.710303134323486e+00	 6.000161987078011e-01	 2.841973620173390e-01
1	 1.698131167314643e+00	 6.336456332869622e-01	 6.787600148854134e-02
1	 1.685241295667484e+00	 6.671716610936123e-01	-1.486816315273698e-01
1	 1.788386638798750e+00	 3.309453015875781e-01	 1.943674512801216e+00
1	 1.781797118576522e+00	 3.647610049143010e-01	 1.723574544211446e+00
1	 1.774525063033403e+00	 3.986381355791112e-01	 1.505790308147894e+00
1	 1.766563203650104e+00	 4.325575221634688e-01	 1.290188926924802e+00
1	 1.757904936758497e+00	 4.664995131731696e-01	 1.076615797625042e+00
1	 1.748544355189052e+00	 5.004440032691393e-01	 8.648945007489492e-01
1	 1.738476278843591e+00	 5.343704617316418e-01	 6.548268272582115e-01
1	 1.727696284022560e+00	 5.682579631206718e-01	 4.461929293579563e-01
1	 1.716200731335942e+00	 6.020852200811815e-01	 2.387515995985361e-01
1	 1.703986792028042e+00	 6.358306182273954e-01	 3.224068202905261e-02
1	 1.691052472548792e+00	 6.694722530258906e-01	-1.736223817982685e-01
1	 1.794532297348631e+00	 3.320825706634735e-01	 1.851041122024160e+00
1	 1.787920132726536e+00	 3.660144791566886e-01	 1.634466413998722e+00
1	 1.780623087301499e+00	 4.000080260784041e-01	 1.420911531529107e+00
1	 1.772633867576509e+00	 4.340439741289149e-01	 1.210270981773297e+00
1	 1.763945847190417e+00	 4.681026042831071e-01	 1.002416298553512e+00
1	 1.754553098674148e+00	 5.021637421113926e-01	 7.971958022139004e-01
1	 1.744450424128500e+00	 5.362067863417318e-01	 5.944344784046934e-01
1	 1.733633384652205e+00	 5.702107396253894e-01	 3.939339820928225e-01
1	 1.722098328348754e+00	 6.041542414548942e-01	 1.954727723740912e-01
1	 1.709842416741643e+00	 6.380156031682285e-01	-1.193617158869342e-03
1	 1.696863649430120e+00	 6.717728449586584e-01	-1.963321686508304e-01
1	 1.800677955898997e+00	 3.332198397398835e-01	 1.760149973520236e+00
1	 1.794043146877121e+00	 3.672679533995003e-01	 1.547162447263534e+00
1	 1.786721111570225e+00	 4.013779165780492e-01	 1.337895815290582e+00
1	 1.778704531503570e+00	 4.355304260946600e-01	 1.132271818379637e+00
1	 1.769986757622994e+00	 4.697056953933103e-01	 9.301879794550642e-01
1	 1.760561842159872e+00	 5.038834809538976e-01	 7.315172152624269e-01
1	 1.750424569413978e+00	 5.380431109520798e-01	 5.361075675054303e-01
1	 1.739570485282330e+00	 5.721635161303921e-01	 3.437820606979625e-01
1	 1.727995925361924e+00	 6.062232628289389e-01	 1.543386932961874e-01
1	 1.715698041455451e+00	 6.402005881094623e-01	-3.244943211654716e-02
1	 1.702674826311470e+00	 6.740734368919162e-01	-2.168338347110221e-01
1	 1.806823614449849e+00	 3.343571088168083e-01	 1.670983289306082e+00
1	 1.800166161028277e+00	 3.685214276427360e-01	 1.461644234173763e+00
1	 1.792819135839580e+00	 4.027478070780460e-01	 1.256724148611674e+00
1	 1.784775195431290e+00	 4.370168780607045e-01	 1.056171857338017e+00
1	 1.776027668056230e+00	 4.713087865037789e-01	 8.599107262485687e-01
1	 1.766570585646224e+00	 5.056032197966543e-01	 6.678381265116341e-01
1	 1.756398714700025e+00	 5.398794355626861e-01	 4.798250186639584e-01
1	 1.745507585912932e+00	 5.741162926356796e-01	 2.957156649108608e-01
1	 1.733893522375451e+00	 6.082922842033158e-01	 1.153274771815602e-01
1	 1.721553666169462e+00	 6.423855730510967e-01	-6.154899227254162e-02
1	 1.708486003192839e+00	 6.763740288256637e-01	-2.351499118208522e-01
1	 1.812969273001186e+00	 3.354943778942477e-01	 1.583523532455777e+00
1	 1.806289175180005e+00	 3.697749018863957e-01	 1.377893614522124e+00
1	 1.798917160109563e+00	 4.041176975783952e-01	 1.177377778445587e+00
1	 1.790845859359668e+00	 4.385033300270479e-01	 9.819517847261074e-01
1	 1.782068578490124e+00	 4.729118776145134e-01	 7.915646975862198e-01
1	 1.772579329133205e+00	 5.073229586396631e-01	 6.061382020821288e-01
1	 1.762372859986639e+00	 5.417157601735507e-01	 4.255660417586742e-01
1	 1.751444686544013e+00	 5.760690691412522e-01	 2.497135859979553e-01
1	 1.739791119389335e+00	 6.103613055780250e-01	 7.841753559517151e-02
1	 1.727409290883678e+00	 6.445705579931309e-01	-8.851422563947864e-02
1	 1.714297180074229e+00	 6.786746207599007e-01	-2.513026263059066e-01
1	 1.819114931553009e+00	 3.366316469722018e-01	 1.497753403028908e+00
1	 1.812412189332304e+00	 3.710283761304792e-01	 1.295892673509600e+00
1	 1.805015184380177e+00	 4.054875880790962e-01	 1.099838205165091e+00
1	 1.796916523288705e+00	 4.399897819936905e-01	 9.095925476205211e-01
1	 1.788109488924676e+00	 4.745149687255134e-01	 7.251303202465216e-01
1	 1.778588072620814e+00	 5.090426974829237e-01	 5.463973828766685e-01
1	 1.768347005273822e+00	 5.435520847846733e-01	 3.733101276155504e-01
1	 1.757381787175571e+00	 5.780218456471096e-01	 2.057549018301748e-01
1	 1.745688716403577e+00	 6.124303269530667e-01	 4.358757183754403e-02
1	 1.733264915598099e+00	 6.467555429355658e-01	-1.133667639055393e-01
1	 1.720108356955640e+00	 6.809752126946277e-01	-2.653139041360508e-01
1	 1.825260590105317e+00	 3.377689160506706e-01	 1.413655834080936e+00
1	 1.818535203485174e+00	 3.722818503749868e-01	 1.215623737613925e+00
1	 1.811113208651418e+00	 4.068574785801491e-01	 1.024087178296224e+00
1	 1.802987187218399e+00	 4.414762339606322e-01	 8.390753497029453e-01
1	 1.794150399359887e+00	 4.761180598367789e-01	 6.605882846203982e-01
1	 1.784596816109052e+00	 5.107624363264364e-01	 4.885958799542074e-01
1	 1.774321150561575e+00	 5.453884093960544e-01	 3.230370432783739e-01
1	 1.763318887807608e+00	 5.799746221532518e-01	 1.638189720579335e-01
1	 1.751586313418175e+00	 6.144993483284402e-01	 1.081657603339869e-02
1	 1.739120540312725e+00	 6.489405278784011e-01	-1.361279474230841e-01
1	 1.725919533837072e+00	 6.832758046298443e-01	-2.772053759819759e-01
1	 1.831406248658110e+00	 3.389061851296540e-01	 1.331213987753860e+00
1	 1.824658217638615e+00	 3.735353246199183e-01	 1.137069370541373e+00
1	 1.817211232923290e+00	 4.082273690815543e-01	 9.501066923378408e-01
1	 1.809057851148752e+00	 4.429626859278729e-01	 7.703816469546407e-01
1	 1.800191309795755e+00	 4.777211509483101e-01	 5.979195402881807e-01
1	 1.790605559597918e+00	 5.124821751702008e-01	 4.327141699970571e-01
1	 1.780295295849896e+00	 5.472247340076934e-01	 2.747268273742279e-01
1	 1.769255988440124e+00	 5.819273986596788e-01	 1.238854333832995e-01
1	 1.757483910433130e+00	 6.165683697041460e-01	-1.991617968081716e-02
1	 1.744976165027555e+00	 6.511255128216370e-01	-1.568188300968354e-01
1	 1.731730710718524e+00	 6.855763965655506e-01	-2.869983821698388e-01
1	 1.837551907211388e+00	 3.400434542091521e-01	 1.250411251445330e+00
1	 1.830781231792628e+00	 3.747887988652740e-01	 1.060212369259680e+00
1	 1.823309257195791e+00	 4.095972595833112e-01	 8.778789826650920e-01
1	 1.815128515079763e+00	 4.444491378954128e-01	 7.034931434374002e-01
1	 1.806232220232282e+00	 4.793242420601070e-01	 5.371052916852953e-01
1	 1.796614303087412e+00	 5.142019140142170e-01	 3.787329908690342e-01
1	 1.786269441138785e+00	 5.490610586195906e-01	 2.283597855719592e-01
1	 1.775193089073118e+00	 5.838801751663909e-01	 8.593419492702248e-02
1	 1.763381507448442e+00	 6.186373910801840e-01	-4.863114587286188e-02
1	 1.750831789742589e+00	 6.533104977652731e-01	-1.754601841739720e-01
1	 1.737541887599996e+00	 6.878769885017465e-01	-2.947139775365530e-01
1	 1.843697565765152e+00	 3.411807232891650e-01	 1.171231234054396e+00
1	 1.836904245947212e+00	 3.760422731110535e-01	 9.850357601104043e-01
1	 1.829407281468921e+00	 4.109671500854205e-01	 8.073865215147924e-01
1	 1.821199179011433e+00	 4.459355898632519e-01	 6.383917871588645e-01
1	 1.812273130669467e+00	 4.809273331721696e-01	 4.781269938547112e-01
1	 1.802623046577536e+00	 5.159216528584852e-01	 3.266333372624356e-01
1	 1.792243586428243e+00	 5.508973832317464e-01	 1.839164861314886e-01
1	 1.781130189706590e+00	 5.858329516733878e-01	 4.994543368821069e-02
1	 1.769279104464112e+00	 6.207064124565543e-01	-7.534850043629360e-02
1	 1.756687414457829e+00	 6.554954827093096e-01	-1.920725049384190e-01
1	 1.743353064481490e+00	 6.901775804384325e-01	-3.003729361879262e-01
1	 1.685241295667484e+00	 6.671716610936123e-01	-1.486816315273698e-01
1	 1.671632387594552e+00	 7.005722023711169e-01	-7.833574819282596e-03
1	 1.657304186728400e+00	 7.338249673078681e-01	 9.034680237963877e-02
1	 1.642257330410071e+00	 7.669074981436702e-01	 1.423023464543820e-01
1	 1.626493365614551e+00	 7.997972128047722e-01	 1.445441807852168e-01
1	 1.610014762379030e+00	 8.324714499158945e-01	 9.366763396788835e-02
1	 1.592824924610524e+00	 8.649075150265071e-01	-1.363182332832236e-02
1	 1.574928198161258e+00	 8.970827278764184e-01	-1.805427372959727e-01
1	 1.556329876073421e+00	 9.289744705148517e-01	-4.101220327282435e-01
1	 1.537036200909101e+00	 9.605602360774108e-01	-7.052796861574422e-01
1	 1.517054364096615e+00	 9.918176780167721e-01	-1.068763819525024e+00
1	 1.691052472548792e+00	 6.694722530258906e-01	-1.736223817982685e-01
1	 1.677396637207845e+00	 7.029879685830717e-01	-2.934982847097034e-02
1	 1.663019028753545e+00	 7.363553982260429e-01	 7.210436367201445e-02
1	 1.647920286724661e+00	 7.695520067540583e-01	 1.271191499714652e-01
1	 1.632101963430572e+00	 8.025551342241490e-01	 1.321418609027152e-01
1	 1.615566537425837e+00	 8.353420411183631e-01	 8.370440526026734e-02
1	 1.598317424355079e+00	 8.678899547294463e-01	-2.156051324929087e-02
1	 1.580358985056221e+00	 9.001761165894143e-01	-1.869032721786401e-01
1	 1.561696530823317e+00	 9.321778307545576e-01	-4.154414081053772e-01
1	 1.542336325744532e+00	 9.638725127506039e-01	-7.101440064701288e-01
1	 1.522285586046208e+00	 9.952377389731706e-01	-1.073816514546679e+00
1	 1.696863649430120e+00	 6.717728449586584e-01	-1.963321686508304e-01
1	 1.683160886820968e+00	 7.054037347956016e-01	-4.877827849948435e-02
1	 1.668733870778347e+00	 7.388858291448498e-01	 5.580842063338221e-02
1	 1.653583243038756e+00	 7.721965153651064e-01	 1.137432726991605e-01
1	 1.637710561245965e+00	 8.053130556441837e-01	 1.214100945095291e-01
1	 1.621118312471904e+00	 8.382126323214577e-01	 7.527765290298682e-02
1	 1.603809924098801e+00	 8.708723944329494e-01	-2.808383992770436e-02
1	 1.585789771950277e+00	 9.032695053028814e-01	-1.919863208550334e-01
1	 1.567063185572253e+00	 9.353811909946120e-01	-4.196076706273746e-01
1	 1.547636450578973e+00	 9.671847894239924e-01	-7.139758214245993e-01
1	 1.527516807994802e+00	 9.986577999295797e-01	-1.077953290139478e+00
1	 1.702674826311470e+00	 6.740734368919162e-01	-2.168338347110221e-01
1	 1.688925136433920e+00	 7.078195010087068e-01	-6.614030173101004e-02
1	 1.674448712802809e+00	 7.414162600642891e-01	 4.143904327650660e-02
1	 1.659246199352357e+00	 7.748410239768142e-01	 1.021562096649535e-01
1	 1.643319159060731e+00	 8.080709770648760e-01	 1.123317769645844e-01
1	 1.626670087517230e+00	 8.410832235251786e-01	 6.837164505824433e-02
1	 1.609302423841690e+00	 8.738548341370166e-01	-3.321619274653620e-02
1	 1.591220558843427e+00	 9.063628940168208e-01	-1.958049633871937e-01
1	 1.572429840320234e+00	 9.385845512350157e-01	-4.226326269092342e-01
1	 1.552936575412424e+00	 9.704970660975756e-01	-7.167857027470290e-01
1	 1.532748029942396e+00	 1.002077860885999e+00	-1.081183524317284e+00
1	 1.708486003192839e+00	 6.763740288256637e-01	-2.351499118208522e-01
1	 1.694689386046702e+00	 7.102352672223876e-01	-8.145698415059988e-02
1	 1.680163554826928e+00	 7.439466909843603e-01	 2.897657277039500e-02
1	 1.664909155665463e+00	 7.774855325891817e-01	 9.233970766465704e-02
1	 1.648927756874871e+00	 8.108288984862261e-01	 1.048900363429737e-01
1	 1.632221862561816e+00	 8.439538147295249e-01	 6.297086392681694e-02
1	 1.614794923583745e+00	 8.768372738416478e-01	-3.697176531490620e-02
1	 1.596651345735672e+00	 9.094562827312315e-01	-1.983721018771258e-01
1	 1.577796495067255e+00	 9.417879114757681e-01	-4.245279229317083e-01
1	 1.558236700244886e+00	 9.738093427713544e-01	-7.185840783306089e-01
1	 1.537979251888989e+00	 1.005497921842430e+00	-1.083516467502013e+00
1	 1.714297180074229e+00	 6.786746207599007e-01	-2.513026263059066e-01
1	 1.700453635659315e+00	 7.126510334366438e-01	-9.474912583172346e-02
1	 1.685878396850706e+00	 7.464771219050640e-01	 1.840161684444142e-02
1	 1.670572111978077e+00	 7.801300412022091e-01	 8.427576099513878e-02
1	 1.654536354688384e+00	 8.135868199082344e-01	 9.906822949168093e-02
1	 1.637773637605661e+00	 8.468244059344975e-01	 5.906000212034557e-02
1	 1.620287423324968e+00	 8.798197135468433e-01	-3.936455878613643e-02
1	 1.602082132627010e+00	 9.125496714461142e-01	-1.997004634830128e-01
1	 1.583163149813319e+00	 9.449912717168690e-01	-4.253050467639632e-01
1	 1.563536825076358e+00	 9.771216194453278e-01	-7.193812346733365e-01
1	 1.543210473834583e+00	 1.008917982798871e+00	-1.084961244685930e+00
1	 1.720108356955640e+00	 6.809752126946277e-01	-2.653139041360508e-01
1	 1.706217885271757e+00	 7.150667996514753e-01	-1.060372457657810e-01
1	 1.691593238874142e+00	 7.490075528263999e-01	 9.695045285736059e-03
1	 1.676235068290194e+00	 7.827745498158960e-01	 7.794660727355396e-02
1	 1.660144952501269e+00	 8.163447413309002e-01	 9.484993816512377e-02
1	 1.643325412648767e+00	 8.496949971400961e-01	 5.662395910705564e-02
1	 1.625779923065357e+00	 8.828021532526024e-01	-4.040838510881861e-02
1	 1.607512919517443e+00	 9.156430601614681e-01	-1.998026033744851e-01
1	 1.588529804558424e+00	 9.481946319583185e-01	-4.249753312309098e-01
1	 1.568836949906841e+00	 9.804338961194968e-01	-7.191873192664364e-01
1	 1.548441695779177e+00	 1.012338043755323e+00	-1.085526857550745e+00
1	 1.725919533837072e+00	 6.832758046298443e-01	-2.772053759819759e-01
1	 1.711982134884030e+00	 7.174825658668821e-01	-1.153415865941907e-01
1	 1.697308080897236e+00	 7.515379837483674e-01	 2.837985527273101e-03
1	 1.681898024601818e+00	 7.854190584302428e-01	 7.333472334105262e-02
1	 1.665753550313527e+00	 8.191026627542237e-01	 9.221896523888162e-02
1	 1.648877187691133e+00	 8.525655883463207e-01	 5.564783772931348e-02
1	 1.631272422804913e+00	 8.857845929589255e-01	-4.011687021198940e-02
1	 1.612943706406970e+00	 9.187364488772942e-01	-1.986909076279304e-01
1	 1.593896459302571e+00	 9.513979922001172e-01	-4.235499565268663e-01
1	 1.574137074736334e+00	 9.837461727938606e-01	-7.180123429345545e-01
1	 1.553672917722771e+00	 1.015758104711785e+00	-1.085222186543253e+00
1	 1.731730710718524e+00	 6.855763965655506e-01	-2.869983821698388e-01
1	 1.717746384496133e+00	 7.198983320828645e-01	-1.226821192451022e-01
1	 1.703022922919989e+00	 7.540684146709677e-01	-2.188181674907197e-03
1	 1.687560980912949e+00	 7.880635670452498e-01	 7.042282124893839e-02
1	 1.671362148125159e+00	 8.218605841782054e-01	 9.115933099958029e-02
1	 1.654428962732758e+00	 8.554361795531710e-01	 5.611694079137841e-02
1	 1.636764922543635e+00	 8.887670326658127e-01	-3.850345712636116e-02
1	 1.618374493295590e+00	 9.218298375935916e-01	-1.963775960636497e-01
1	 1.599263114045760e+00	 9.546013524422646e-01	-4.210399527763211e-01
1	 1.579437199564838e+00	 9.870584494684195e-01	-7.158661821288866e-01
1	 1.558904139665364e+00	 1.019178165668257e+00	-1.084055992909675e+00
1	 1.737541887599996e+00	 6.878769885017465e-01	-2.947139775365530e-01
1	 1.723510634108066e+00	 7.223140982994221e-01	-1.280785474770938e-01
1	 1.708737764942400e+00	 7.565988455942002e-01	-5.401826477949401e-03
1	 1.693223937223585e+00	 7.907080756609162e-01	 6.919384432542419e-02
1	 1.676970745936163e+00	 8.246185056028446e-01	 9.165526950925607e-02
1	 1.659980737773643e+00	 8.583067707606478e-01	 5.801676771549880e-02
1	 1.642257422281525e+00	 8.917494723732642e-01	-3.558140904269780e-02
1	 1.623805280183305e+00	 9.249232263103609e-01	-1.928747250260757e-01
1	 1.604629768787991e+00	 9.578047126847604e-01	-4.174562025436518e-01
1	 1.584737324392353e+00	 9.903707261431738e-01	-7.127585811741218e-01
1	 1.564135361606958e+00	 1.022598226624741e+00	-1.082036920688869e+00
1	 1.743353064481490e+00	 6.901775804384325e-01	-3.003729361879262e-01
1	 1.729274883719828e+00	 7.247298645165551e-01	-1.315503123320168e-01
1	 1.714452606964470e+00	 7.591292765180647e-01	-6.821074103576574e-03
1	 1.698886893533727e+00	 7.933525842772426e-01	 6.963096332095975e-02
1	 1.682579343746540e+00	 8.273764270281420e-01	 9.369122504246474e-02
1	 1.665532512813788e+00	 8.611773619687499e-01	 6.133301126490276e-02
1	 1.647749922018582e+00	 8.947319120812797e-01	-3.136381230926610e-02
1	 1.629236067070115e+00	 9.280166150276020e-01	-1.881941901084047e-01
1	 1.609996423529265e+00	 9.610080729276056e-01	-4.128094432923205e-01
1	 1.590037449218878e+00	 9.936830028181232e-01	-7.086991544705930e-01
1	 1.569366583547552e+00	 1.026018287581235e+00	-1.079173498665811e+00
1	 1.517054364096615e+00	 9.918176780167721e-01	-1.068763819525024e+00
1	 1.496392502240485e+00	 1.022724659575107e+00	-2.073743369350516e+00
1	 1.475059690359945e+00	 1.053259303282894e+00	-3.064328029138605e+00
1	 1.453065932037716e+00	 1.083400040261692e+00	-4.035883892498525e+00
1	 1.430422146479210e+00	 1.113125659105525e+00	-4.983822281496814e+00
1	 1.407140152501332e+00	 1.142415354117801e+00	-5.903618643059247e+00
1	 1.383232649488227e+00	 1.171248772679068e+00	-6.790831290788490e+00
1	 1.358713195370086e+00	 1.199606061523981e+00	-7.641119866443867e+00
1	 1.333596181699575e+00	 1.227467911710166e+00	-8.450263396257858e+00
1	 1.307896805918519e+00	 1.254815602067621e+00	-9.214177819479552e+00
1	 1.281631040925000e+00	 1.281631040925000e+00	-9.928932870017604e+00
1	 1.522285586046208e+00	 9.952377389731706e-01	-1.073816514546679e+00
1	 1.501552476390225e+00	 1.026251296330681e+00	-2.061840072585922e+00
1	 1.480146103089079e+00	 1.056891231913963e+00	-3.034797127313237e+00
1	 1.458076504220608e+00	 1.087135902469130e+00	-3.988055427653301e+00
1	 1.435354636642654e+00	 1.116964023447428e+00	-4.917030740351718e+00
1	 1.411992359926664e+00	 1.146354717408483e+00	-5.817205783355123e+00
1	 1.388002417247765e+00	 1.175287561551395e+00	-6.684148989825202e+00
1	 1.363398413287630e+00	 1.203742634151284e+00	-7.513532976649515e+00
1	 1.338194789224968e+00	 1.231700559683214e+00	-8.301152592360847e+00
1	 1.312406794906578e+00	 1.259142552421427e+00	-9.042942421721907e+00
1	 1.286050458309500e+00	 1.286050458309500e+00	-9.734993627843647e+00
1	 1.527516807994802e+00	 9.986577999295797e-01	-1.077953290139478e+00
1	 1.506712450538963e+00	 1.029777933086076e+00	-2.049036531018695e+00
1	 1.485232515817213e+00	 1.060523160544680e+00	-3.004386299409123e+00
1	 1.463087076402499e+00	 1.090871764676066e+00	-3.939371986001358e+00
1	 1.440287126805097e+00	 1.120802387788697e+00	-4.849413776700406e+00
1	 1.416844567350996e+00	 1.150294080698419e+00	-5.730001622961620e+00
1	 1.392772185006303e+00	 1.179326350422886e+00	-6.576714028039245e+00
1	 1.368083631204173e+00	 1.207879206777678e+00	-7.385236522621052e+00
1	 1.342793396749361e+00	 1.235933207655303e+00	-8.151379704504112e+00
1	 1.316916783893637e+00	 1.263469502774243e+00	-8.871096719430039e+00
1	 1.290469875693000e+00	 1.290469875693000e+00	-9.540500063944998e+00
1	 1.532748029942396e+00	 1.002077860885999e+00	-1.081183524317284e+00
1	 1.511872424686703e+00	 1.033304569841290e+00	-2.035341962171568e+00
1	 1.490318928544347e+00	 1.064155089175047e+00	-2.973104554907148e+00
1	 1.468097648583390e+00	 1.094607626882500e+00	-3.889842321570351e+00
1	 1.445219616966541e+00	 1.124640752129334e+00	-4.780979841966349e+00
1	 1.421696774774329e+00	 1.154233443987611e+00	-5.642014263932349e+00
1	 1.397541952763841e+00	 1.183365139293539e+00	-6.468534111854023e+00
1	 1.372768849119717e+00	 1.212015779403165e+00	-7.256237769519950e+00
1	 1.347392004272754e+00	 1.240165855626433e+00	-8.000951511703104e+00
1	 1.321426772879696e+00	 1.267796453126068e+00	-8.698646961454799e+00
1	 1.294889293075500e+00	 1.294889293075500e+00	-9.345457853969593e+00
1	 1.537979251888989e+00	 1.005497921842430e+00	-1.083516467502013e+00
1	 1.517032398833442e+00	 1.036831206596325e+00	-2.020765458158605e+00
1	 1.495405341270482e+00	 1.067787017805064e+00	-2.940960780710311e+00
1	 1.473108220763281e+00	 1.098343489088432e+00	-3.839475069285252e+00
1	 1.450152107126984e+00	 1.128479116469336e+00	-4.711737272588102e+00
1	 1.426548982196661e+00	 1.158172807276057e+00	-5.553251698088634e+00
1	 1.402311720520379e+00	 1.187403928163355e+00	-6.359616842843675e+00
1	 1.377454067034261e+00	 1.216152352027743e+00	-7.126543883661916e+00
1	 1.351990611795148e+00	 1.244398503596604e+00	-7.849874700741610e+00
1	 1.325936761864755e+00	 1.272123403476905e+00	-8.525599311628325e+00
1	 1.299308710457000e+00	 1.299308710457000e+00	-9.149872596345888e+00
1	 1.543210473834583e+00	 1.008917982798871e+00	-1.084961244685930e+00
1	 1.522192372979182e+00	 1.040357843351180e+00	-2.005315987811091e+00
1	 1.500491753995615e+00	 1.071418946434729e+00	-2.907963743221195e+00
1	 1.478118792942173e+00	 1.102079351293862e+00	-3.788278746987492e+00
1	 1.455084597286428e+00	 1.132317480808704e+00	-4.641694291967335e+00
1	 1.431401189617994e+00	 1.162112170563757e+00	-5.463721808888348e+00
1	 1.407081488275916e+00	 1.191442717032335e+00	-6.249969719510080e+00
1	 1.382139284947804e+00	 1.220288924651413e+00	-6.996161934192319e+00
1	 1.356589219316541e+00	 1.248631151565816e+00	-7.698155867735342e+00
1	 1.330446750848815e+00	 1.276450353826751e+00	-8.351959850205789e+00
1	 1.303728127837500e+00	 1.303728127837500e+00	-8.953749813591296e+00
1	 1.548441695779177e+00	 1.012338043755323e+00	-1.085526857550745e+00
1	 1.527352347123920e+00	 1.043884480105855e+00	-1.989002398759792e+00
1	 1.505578166719749e+00	 1.075050875064044e+00	-2.874122090377458e+00
1	 1.483129365120063e+00	 1.105815213498790e+00	-3.736261757412372e+00
1	 1.460017087444871e+00	 1.136155845147439e+00	-4.570859012378969e+00
1	 1.436253397038326e+00	 1.166051533850713e+00	-5.373432373255993e+00
1	 1.411851256030454e+00	 1.195481505900478e+00	-6.139600139024230e+00
1	 1.386824502860348e+00	 1.224425497274175e+00	-6.865098894727525e+00
1	 1.361187826836934e+00	 1.252863799534069e+00	-7.545801519663168e+00
1	 1.334956739831873e+00	 1.280777304175607e+00	-8.177734575276521e+00
1	 1.308147545217000e+00	 1.308147545217000e+00	-8.757094953594745e+00
1	 1.553672917722771e+00	 1.015758104711785e+00	-1.085222186543253e+00
1	 1.532512321267659e+00	 1.047411116860351e+00	-1.971833419475472e+00
1	 1.510664579442883e+00	 1.078682803693008e+00	-2.839444353646126e+00
1	 1.488139937296955e+00	 1.109551075703215e+00	-3.683432390127150e+00
1	 1.464949577602315e+00	 1.139994209485540e+00	-4.499239436841405e+00
1	 1.441105604457659e+00	 1.169990897136922e+00	-5.282391063376320e+00
1	 1.416621023783992e+00	 1.199520294767784e+00	-6.028515398931545e+00
1	 1.391509720771891e+00	 1.228562069896028e+00	-6.733361644962985e+00
1	 1.365786434356328e+00	 1.257096447501362e+00	-7.392818075867865e+00
1	 1.339466728813933e+00	 1.285104254523474e+00	-8.002929404147404e+00
1	 1.312566962595500e+00	 1.312566962595500e+00	-8.559913390872758e+00
1	 1.558904139665364e+00	 1.019178165668257e+00	-1.084055992909675e+00
1	 1.537672295410399e+00	 1.050937753614667e+00	-1.953817661268200e+00
1	 1.515750992165017e+00	 1.082314732321622e+00	-2.803938949978007e+00
1	 1.493150509472846e+00	 1.113286937907139e+00	-3.629798823429665e+00
1	 1.469882067758758e+00	 1.143832573823008e+00	-4.426843460950214e+00
1	 1.445957811875991e+00	 1.173930260422387e+00	-5.190605448451893e+00
1	 1.421390791536530e+00	 1.203559083634253e+00	-5.916722698824064e+00
1	 1.396194938682435e+00	 1.232698642516974e+00	-6.600956972249480e+00
1	 1.370385041874721e+00	 1.261329095467697e+00	-7.239211869526708e+00
1	 1.343976717794992e+00	 1.289431204870351e+00	-7.827550174698548e+00
1	 1.316986379973000e+00	 1.316986379973000e+00	-8.362210427800782e+00
1	 1.564135361606958e+00	 1.022598226624741e+00	-1.082036920688869e+00
1	 1.542832269552138e+00	 1.054464390368803e+00	-1.934963620246528e+00
1	 1.520837404886151e+00	 1.085946660949884e+00	-2.767614183722415e+00
1	 1.498161081647737e+00	 1.117022800110560e+00	-3.575369126209007e+00
1	 1.474814557914202e+00	 1.147670938159842e+00	-4.353678874674078e+00
1	 1.450810019293323e+00	 1.177869623707106e+00	-5.098082996424842e+00
1	 1.426160559288068e+00	 1.207597872499885e+00	-5.804229141978158e+00
1	 1.400880156591978e+00	 1.236835215137011e+00	-6.467891573136949e+00
1	 1.374983649392114e+00	 1.265561743433072e+00	-7.084989149091934e+00
1	 1.348486706775051e+00	 1.293758155216238e+00	-7.651602646711268e+00
1	 1.321405797349500e+00	 1.321405797349500e+00	-8.163991295819560e+00
1	 1.569366583547552e+00	 1.026018287581235e+00	-1.079173498665811e+00
1	 1.547992243692877e+00	 1.057991027122759e+00	-1.915279679237549e+00
1	 1.525923817606285e+00	 1.089578589577796e+00	-2.730478248504062e+00
1	 1.503171653821628e+00	 1.120758662313480e+00	-3.520151259769253e+00
1	 1.479747048068646e+00	 1.151509302496042e+00	-4.279753364115560e+00
1	 1.455662226709656e+00	 1.181808986991081e+00	-5.004831075664828e+00
1	 1.430930327038606e+00	 1.211636661364681e+00	-5.691041736959817e+00
1	 1.405565374500522e+00	 1.240971787756141e+00	-6.334172054887978e+00
1	 1.379582256908508e+00	 1.269794391397488e+00	-6.930156079703291e+00
1	 1.352996695754110e+00	 1.298085105561136e+00	-7.475092503169831e+00
1	 1.325825214725000e+00	 1.325825214725000e+00	-7.965261156617137e+00
1	 1.281631040925000e+00	 1.281631040925000e+00	-9.928932870017604e+00
1	 1.254815602067621e+00	 1.307896805918519e+00	-1.056998080860133e+01
1	 1.227467911710166e+00	 1.333596181699575e+00	-1.116752577346588e+01
1	 1.199606061523981e+00	 1.358713195370086e+00	-1.171860835512734e+01
1	 1.171248772679068e+00	 1.383232649488227e+00	-1.222043750545933e+01
1	 1.142415354117801e+00	 1.407140152501331e+00	-1.267040114782018e+01
1	 1.113125659105525e+00	 1.430422146479210e+00	-1.306607580568392e+01
1	 1.083400040261693e+00	 1.453065932037716e+00	-1.340523519257803e+01
1	 1.053259303282895e+00	 1.475059690359944e+00	-1.368585771514365e+01
1	 1.022724659575108e+00	 1.496392502240484e+00	-1.390613285054473e+01
1	 9.918176780167723e-01	 1.517054364096615e+00	-1.406446636914206e+01
1	 1.286050458309500e+00	 1.286050458309500e+00	-9.734993627843647e+00
1	 1.259142552421427e+00	 1.312406794906578e+00	-1.035496838434477e+01
1	 1.231700559683214e+00	 1.338194789224968e+00	-1.093277922758644e+01
1	 1.203742634151284e+00	 1.363398413287630e+00	-1.146549751803225e+01
1	 1.175287561551396e+00	 1.388002417247764e+00	-1.195035815715566e+01
1	 1.146354717408483e+00	 1.411992359926664e+00	-1.238477012803905e+01
1	 1.116964023447429e+00	 1.435354636642654e+00	-1.276632608022319e+01
1	 1.087135902469131e+00	 1.458076504220607e+00	-1.309281090169536e+01
1	 1.056891231913963e+00	 1.480146103089079e+00	-1.336220922970648e+01
1	 1.026251296330682e+00	 1.501552476390223e+00	-1.357271186130628e+01
1	 9.952377389731706e-01	 1.522285586046208e+00	-1.372272103397428e+01
1	 1.290469875693000e+00	 1.290469875693000e+00	-9.540500063944998e+00
1	 1.263469502774243e+00	 1.316916783893637e+00	-1.013948599427501e+01
1	 1.235933207655303e+00	 1.342793396749361e+00	-1.069763827660784e+01
1	 1.207879206777679e+00	 1.368083631204174e+00	-1.121205890416801e+01
1	 1.179326350422886e+00	 1.392772185006302e+00	-1.168000861405662e+01
1	 1.150294080698420e+00	 1.416844567350996e+00	-1.209891735865624e+01
1	 1.120802387788698e+00	 1.440287126805097e+00	-1.246639384691755e+01
1	 1.090871764676067e+00	 1.463087076402499e+00	-1.278023409850189e+01
1	 1.060523160544681e+00	 1.485232515817213e+00	-1.303842896234352e+01
1	 1.029777933086077e+00	 1.506712450538963e+00	-1.323917056018649e+01
1	 9.986577999295800e-01	 1.527516807994802e+00	-1.338085762493526e+01
1	 1.294889293075500e+00	 1.294889293075500e+00	-9.345457853969593e+00
1	 1.267796453126068e+00	 1.321426772879696e+00	-9.923538450328005e+00
1	 1.240165855626434e+00	 1.347392004272755e+00	-1.046210695880698e+01
1	 1.212015779403165e+00	 1.372768849119717e+00	-1.095829586961039e+01
1	 1.183365139293539e+00	 1.397541952763840e+00	-1.140939164266163e+01
1	 1.154233443987611e+00	 1.421696774774328e+00	-1.181284511014564e+01
1	 1.124640752129334e+00	 1.445219616966541e+00	-1.216628097444838e+01
1	 1.094607626882501e+00	 1.468097648583389e+00	-1.246750634455730e+01
1	 1.064155089175048e+00	 1.490318928544346e+00	-1.271451826235799e+01
1	 1.033304569841291e+00	 1.511872424686703e+00	-1.290551017904824e+01
1	 1.002077860886000e+00	 1.532748029942396e+00	-1.303887735097279e+01
1	 1.299308710457000e+00	 1.299308710457000e+00	-9.149872596345888e+00
1	 1.272123403476904e+00	 1.325936761864755e+00	-9.707130498971010e+00
1	 1.244398503596604e+00	 1.351990611795148e+00	-1.022618925751818e+01
1	 1.216152352027743e+00	 1.377454067034261e+00	-1.070421172477400e+01
1	 1.187403928163356e+00	 1.402311720520379e+00	-1.113850997183070e+01
1	 1.158172807276057e+00	 1.426548982196661e+00	-1.152655562208986e+01
1	 1.128479116469336e+00	 1.450152107126984e+00	-1.186598930607216e+01
1	 1.098343489088433e+00	 1.473108220763280e+00	-1.215462918017543e+01
1	 1.067787017805064e+00	 1.495405341270480e+00	-1.239047846069530e+01
1	 1.036831206596326e+00	 1.517032398833442e+00	-1.257173193299373e+01
1	 1.005497921842430e+00	 1.537979251888989e+00	-1.269678140458664e+01
1	 1.303728127837500e+00	 1.303728127837500e+00	-8.953749813591296e+00
1	 1.276450353826750e+00	 1.330446750848814e+00	-9.490266822312684e+00
1	 1.248631151565816e+00	 1.356589219316541e+00	-9.989889102064437e+00
1	 1.220288924651413e+00	 1.382139284947804e+00	-1.044980973518693e+01
1	 1.191442717032335e+00	 1.407081488275916e+00	-1.086736629342202e+01
1	 1.162112170563758e+00	 1.431401189617994e+00	-1.124005110370463e+01
1	 1.132317480808705e+00	 1.455084597286428e+00	-1.156552066005239e+01
1	 1.102079351293863e+00	 1.478118792942172e+00	-1.184160412478451e+01
1	 1.071418946434730e+00	 1.500491753995615e+00	-1.206631087025386e+01
1	 1.040357843351181e+00	 1.522192372979180e+00	-1.223783702064964e+01
1	 1.008917982798871e+00	 1.543210473834583e+00	-1.235457096210671e+01
1	 1.308147545217000e+00	 1.308147545217000e+00	-8.757094953594745e+00
1	 1.280777304175607e+00	 1.334956739831874e+00	-9.272952039189621e+00
1	 1.252863799534069e+00	 1.361187826836934e+00	-9.753210368669988e+00
1	 1.224425497274175e+00	 1.386824502860348e+00	-1.019509312224822e+01
1	 1.195481505900478e+00	 1.411851256030454e+00	-1.059596326291775e+01
1	 1.166051533850713e+00	 1.436253397038326e+00	-1.095333373435113e+01
1	 1.136155845147440e+00	 1.460017087444871e+00	-1.126487683008142e+01
1	 1.105815213498791e+00	 1.483129365120063e+00	-1.152843267727996e+01
1	 1.075050875064045e+00	 1.505578166719749e+00	-1.174201678619057e+01
1	 1.043884480105856e+00	 1.527352347123920e+00	-1.190382662444477e+01
1	 1.012338043755322e+00	 1.548441695779177e+00	-1.201224718396694e+01
1	 1.312566962595500e+00	 1.312566962595500e+00	-8.559913390872758e+00
1	 1.285104254523474e+00	 1.339466728813933e+00	-9.055190706232047e+00
1	 1.257096447501362e+00	 1.365786434356328e+00	-9.516156881353629e+00
1	 1.228562069896028e+00	 1.391509720771891e+00	-9.940065063970991e+00
1	 1.199520294767784e+00	 1.416621023783992e+00	-1.032430350003564e+01
1	 1.169990897136923e+00	 1.441105604457658e+00	-1.066640566403908e+01
1	 1.139994209485541e+00	 1.464949577602314e+00	-1.096405958569397e+01
1	 1.109551075703216e+00	 1.488139937296954e+00	-1.121511631637011e+01
1	 1.078682803693009e+00	 1.510664579442883e+00	-1.141759748621873e+01
1	 1.047411116860352e+00	 1.532512321267659e+00	-1.156970191088329e+01
1	 1.015758104711785e+00	 1.553672917722771e+00	-1.166981121497222e+01
1	 1.316986379973000e+00	 1.316986379973000e+00	-8.362210427800782e+00
1	 1.289431204870351e+00	 1.343976717794992e+00	-8.836987318907433e+00
1	 1.261329095467697e+00	 1.370385041874721e+00	-9.278732412805404e+00
1	 1.232698642516974e+00	 1.396194938682435e+00	-9.684728695710795e+00
1	 1.203559083634253e+00	 1.421390791536530e+00	-1.005238958932974e+01
1	 1.173930260422388e+00	 1.445957811875990e+00	-1.037926901391891e+01
1	 1.143832573823008e+00	 1.469882067758758e+00	-1.066307067267288e+01
1	 1.113286937907140e+00	 1.493150509472845e+00	-1.090165650091485e+01
1	 1.082314732321622e+00	 1.515750992165017e+00	-1.109305423090165e+01
1	 1.050937753614668e+00	 1.537672295410398e+00	-1.123546403081091e+01
1	 1.019178165668257e+00	 1.558904139665364e+00	-1.132726418456112e+01
1	 1.321405797349500e+00	 1.321405797349500e+00	-8.163991295819560e+00
1	 1.293758155216238e+00	 1.348486706775051e+00	-8.618346312542950e+00
1	 1.265561743433071e+00	 1.374983649392114e+00	-9.040940685244399e+00
1	 1.236835215137012e+00	 1.400880156591978e+00	-9.429087110878202e+00
1	 1.207597872499885e+00	 1.426160559288068e+00	-9.780224080777646e+00
1	 1.177869623707107e+00	 1.450810019293323e+00	-1.009192587676449e+01
1	 1.147670938159842e+00	 1.474814557914202e+00	-1.036191181344588e+01
1	 1.117022800110561e+00	 1.498161081647737e+00	-1.058805467025737e+01
1	 1.085946660949885e+00	 1.520837404886151e+00	-1.076838826393836e+01
1	 1.054464390368804e+00	 1.542832269552137e+00	-1.090111411967811e+01
1	 1.022598226624741e+00	 1.564135361606958e+00	-1.098460720706248e+01
1	 1.325825214725000e+00	 1.325825214725000e+00	-7.965261156617137e+00
1	 1.298085105561136e+00	 1.352996695754110e+00	-8.399272063328340e+00
1	 1.269794391397488e+00	 1.379582256908508e+00	-8.802785371260331e+00
1	 1.240971787756141e+00	 1.405565374500522e+00	-9.173143361638692e+00
1	 1.211636661364681e+00	 1.430930327038606e+00	-9.507809490357737e+00
1	 1.181808986991081e+00	 1.455662226709656e+00	-9.804378317446067e+00
1	 1.151509302496042e+00	 1.479747048068645e+00	-1.006058470747480e+01
1	 1.120758662313480e+00	 1.503171653821628e+00	-1.027431224454993e+01
1	 1.089578589577797e+00	 1.525923817606285e+00	-1.044360081244561e+01
1	 1.057991027122760e+00	 1.547992243692877e+00	-1.056665329779572e+01
1	 1.026018287581235e+00	 1.569366583547552e+00	-1.064184138194765e+01
1	 9.918176780167723e-01	 1.517054364096615e+00	-1.406446636914206e+01
1	 9.605602360774108e-01	 1.537036200909102e+00	-1.398834481240321e+01
1	 9.289744705148517e-01	 1.556329876073421e+00	-1.391756375338105e+01
1	 8.970827278764184e-01	 1.574928198161258e+00	-1.385292025155959e+01
1	 8.649075150265074e-01	 1.592824924610523e+00	-1.379515586985569e+01
1	 8.324714499158948e-01	 1.610014762379030e+00	-1.374495480229622e+01
1	 7.997972128047728e-01	 1.626493365614551e+00	-1.370294235563902e+01
1	 7.669074981436709e-01	 1.642257330410071e+00	-1.366968378570972e+01
1	 7.338249673078692e-01	 1.657304186728399e+00	-1.364568348628293e+01
1	 7.005722023711179e-01	 1.671632387594552e+00	-1.363138452552183e+01
1	 6.671716610936123e-01	 1.685241295667484e+00	-1.362716852231308e+01
1	 9.952377389731706e-01	 1.522285586046208e+00	-1.372272103397428e+01
1	 9.638725127506038e-01	 1.542336325744532e+00	-1.364505553324168e+01
1	 9.321778307545576e-01	 1.561696530823317e+00	-1.357157467500494e+01
1	 9.001761165894141e-01	 1.580358985056220e+00	-1.350305477982214e+01
1	 8.678899547294464e-01	 1.598317424355078e+00	-1.344022149725773e+01
1	 8.353420411183636e-01	 1.615566537425836e+00	-1.338374792050859e+01
1	 8.025551342241495e-01	 1.632101963430571e+00	-1.333425303004569e+01
1	 7.695520067540592e-01	 1.647920286724660e+00	-1.329230046786227e+01
1	 7.363553982260438e-01	 1.663019028753544e+00	-1.325839764116071e+01
1	 7.029879685830729e-01	 1.677396637207844e+00	-1.323299515164759e+01
1	 6.694722530258906e-01	 1.691052472548792e+00	-1.321648654407052e+01
1	 9.986577999295800e-01	 1.527516807994802e+00	-1.338085762493526e+01
1	 9.671847894239922e-01	 1.547636450578973e+00	-1.330154739284684e+01
1	 9.353811909946120e-01	 1.567063185572253e+00	-1.322527462769227e+01
1	 9.032695053028820e-01	 1.585789771950277e+00	-1.315279502101152e+01
1	 8.708723944329498e-01	 1.603809924098801e+00	-1.308481839555681e+01
1	 8.382126323214583e-01	 1.621118312471904e+00	-1.302200680692435e+01
1	 8.053130556441842e-01	 1.637710561245965e+00	-1.296497294937677e+01
1	 7.721965153651070e-01	 1.653583243038755e+00	-1.291427886827370e+01
1	 7.388858291448508e-01	 1.668733870778347e+00	-1.287043497893178e+01
1	 7.054037347956026e-01	 1.683160886820967e+00	-1.283389938923859e+01
1	 6.717728449586586e-01	 1.696863649430120e+00	-1.280507752094933e+01
1	 1.002077860886000e+00	 1.532748029942396e+00	-1.303887735097279e+01
1	 9.704970660975755e-01	 1.552936575412424e+00	-1.295782263211905e+01
1	 9.385845512350157e-01	 1.572429840320234e+00	-1.287866679542597e+01
1	 9.063628940168208e-01	 1.591220558843427e+00	-1.280214501219732e+01
1	 8.738548341370168e-01	 1.609302423841689e+00	-1.272895136402806e+01
1	 8.410832235251787e-01	 1.626670087517230e+00	-1.265973693149427e+01
1	 8.080709770648766e-01	 1.643319159060731e+00	-1.259510816232007e+01
1	 7.748410239768150e-01	 1.659246199352357e+00	-1.253562552225328e+01
1	 7.414162600642901e-01	 1.674448712802808e+00	-1.248180242946537e+01
1	 7.078195010087081e-01	 1.688925136433920e+00	-1.243410447094387e+01
1	 6.740734368919161e-01	 1.702674826311469e+00	-1.239294889709701e+01
1	 1.005497921842430e+00	 1.537979251888989e+00	-1.269678140458664e+01
1	 9.738093427713542e-01	 1.558236700244886e+00	-1.261388346147042e+01
1	 9.417879114757680e-01	 1.577796495067255e+00	-1.253175431886921e+01
1	 9.094562827312316e-01	 1.596651345735672e+00	-1.245110873552306e+01
1	 8.768372738416481e-01	 1.614794923583745e+00	-1.237262513664986e+01
1	 8.439538147295255e-01	 1.632221862561815e+00	-1.229694368974835e+01
1	 8.108288984862270e-01	 1.648927756874871e+00	-1.222466463526820e+01
1	 7.774855325891824e-01	 1.664909155665463e+00	-1.215634687619435e+01
1	 7.439466909843615e-01	 1.680163554826928e+00	-1.209250682834710e+01
1	 7.102352672223888e-01	 1.694689386046702e+00	-1.203361753100881e+01
1	 6.763740288256636e-01	 1.708486003192839e+00	-1.198010801538027e+01
1	 1.008917982798871e+00	 1.543210473834583e+00	-1.235457096210671e+01
1	 9.771216194453277e-01	 1.563536825076358e+00	-1.226973206134131e+01
1	 9.449912717168690e-01	 1.583163149813319e+00	-1.218454029610022e+01
1	 9.125496714461142e-01	 1.602082132627010e+00	-1.209969011913700e+01
1	 8.798197135468434e-01	 1.620287423324967e+00	-1.201584438321124e+01
1	 8.468244059344980e-01	 1.637773637605661e+00	-1.193363240405672e+01
1	 8.135868199082349e-01	 1.654536354688384e+00	-1.185364825371355e+01
1	 7.801300412022097e-01	 1.670572111978076e+00	-1.177644928908134e+01
1	 7.464771219050649e-01	 1.685878396850706e+00	-1.170255491847642e+01
1	 7.126510334366450e-01	 1.700453635659315e+00	-1.163244560694332e+01
1	 6.786746207599007e-01	 1.714297180074229e+00	-1.156656211910160e+01
1	 1.012338043755322e+00	 1.548441695779177e+00	-1.201224718396694e+01
1	 9.804338961194966e-01	 1.568836949906841e+00	-1.192537058270670e+01
1	 9.481946319583185e-01	 1.588529804558423e+00	-1.183702778333106e+01
1	 9.156430601614683e-01	 1.607512919517443e+00	-1.174789303810460e+01
1	 8.828021532526026e-01	 1.625779923065356e+00	-1.165861371039599e+01
1	 8.496949971400968e-01	 1.643325412648767e+00	-1.156980832486551e+01
1	 8.163447413309008e-01	 1.660144952501269e+00	-1.148206482361499e+01
1	 7.827745498158967e-01	 1.676235068290194e+00	-1.139593903396684e+01
1	 7.490075528264006e-01	 1.691593238874142e+00	-1.131195335163262e+01
1	 7.150667996514761e-01	 1.706217885271758e+00	-1.123059564115572e+01
1	 6.809752126946277e-01	 1.720108356955640e+00	-1.115231835368088e+01
1	 1.015758104711785e+00	 1.553672917722771e+00	-1.166981121497222e+01
1	 9.837461727938606e-01	 1.574137074736334e+00	-1.158080114757197e+01
1	 9.513979922001172e-01	 1.593896459302571e+00	-1.148921979561288e+01
1	 9.187364488772943e-01	 1.612943706406970e+00	-1.139572131530153e+01
1	 8.857845929589260e-01	 1.631272422804912e+00	-1.130093766284504e+01
1	 8.525655883463210e-01	 1.648877187691132e+00	-1.120547663190804e+01
1	 8.191026627542245e-01	 1.665753550313527e+00	-1.110992007273655e+01
1	 7.854190584302437e-01	 1.681898024601818e+00	-1.101482229941745e+01
1	 7.515379837483687e-01	 1.697308080897237e+00	-1.092070869000889e+01
1	 7.174825658668833e-01	 1.711982134884030e+00	-1.082807448255432e+01
1	 6.832758046298443e-01	 1.725919533837072e+00	-1.073738376830352e+01
1	 1.019178165668257e+00	 1.558904139665364e+00	-1.132726418456112e+01
1	 9.870584494684193e-01	 1.579437199564838e+00	-1.123602584945957e+01
1	 9.546013524422646e-01	 1.599263114045760e+00	-1.114111930752610e+01
1	 9.218298375935920e-01	 1.618374493295591e+00	-1.104317872228995e+01
1	 8.887670326658134e-01	 1.636764922543636e+00	-1.094282072419731e+01
1	 8.554361795531716e-01	 1.654428962732758e+00	-1.084064243539060e+01
1	 8.218605841782060e-01	 1.671362148125159e+00	-1.073721965195954e+01
1	 7.880635670452506e-01	 1.687560980912949e+00	-1.063310519093227e+01
1	 7.540684146709687e-01	 1.703022922919989e+00	-1.052882740771500e+01
1	 7.198983320828656e-01	 1.717746384496133e+00	-1.042488888811519e+01
1	 6.855763965655506e-01	 1.731730710718524e+00	-1.032176531753492e+01
1	 1.022598226624741e+00	 1.564135361606958e+00	-1.098460720706248e+01
1	 9.903707261431737e-01	 1.584737324392353e+00	-1.089104675388472e+01
1	 9.578047126847604e-01	 1.604629768787991e+00	-1.079272925385760e+01
1	 9.249232263103609e-01	 1.623805280183305e+00	-1.069026898017621e+01
1	 8.917494723732645e-01	 1.642257422281525e+00	-1.058426731810994e+01
1	 8.583067707606482e-01	 1.659980737773643e+00	-1.047531077715592e+01
1	 8.246185056028454e-01	 1.676970745936163e+00	-1.036396913656816e+01
1	 7.907080756609171e-01	 1.693223937223585e+00	-1.025079373233113e+01
1	 7.565988455942011e-01	 1.708737764942400e+00	-1.013631589225085e+01
1	 7.223140982994231e-01	 1.723510634108065e+00	-1.002104552442053e+01
1	 6.878769885017465e-01	 1.737541887599996e+00	-9.905469862903027e+00
1	 1.026018287581235e+00	 1.569366583547552e+00	-1.064184138194765e+01
1	 9.936830028181231e-01	 1.590037449218878e+00	-1.054586589882240e+01
1	 9.610080729276056e-01	 1.609996423529265e+00	-1.044405253026375e+01
1	 9.280166150276021e-01	 1.629236067070115e+00	-1.033699576045190e+01
1	 8.947319120812797e-01	 1.647749922018582e+00	-1.022528180925817e+01
1	 8.611773619687507e-01	 1.665532512813788e+00	-1.010948663182205e+01
1	 8.273764270281423e-01	 1.682579343746540e+00	-9.990174027509610e+00
1	 7.933525842772433e-01	 1.698886893533727e+00	-9.867893867116228e+00
1	 7.591292765180656e-01	 1.714452606964470e+00	-9.743180445949553e+00
1	 7.247298645165563e-01	 1.729274883719828e+00	-9.616550969164640e+00
1	 6.901775804384324e-01	 1.743353064481490e+00	-9.488504174448474e+00
1	 6.671716610936123e-01	 1.685241295667484e+00	-1.362716852231308e+01
1	 6.336456332869622e-01	 1.698131167314644e+00	-1.346384348455700e+01
1	 6.000161987078009e-01	 1.710303134323486e+00	-1.334526876814487e+01
1	 5.663051866162389e-01	 1.721759183393393e+00	-1.327274213440802e+01
1	 5.325341371218105e-01	 1.732502133559251e+00	-1.324736531683274e+01
1	 4.987242644271387e-01	 1.742535611704585e+00	-1.327004550387506e+01
1	 4.648964220634984e-01	 1.751864026327236e+00	-1.334149773467964e+01
1	 4.310710701983224e-01	 1.760492539724359e+00	-1.346224815727176e+01
1	 3.972682450801711e-01	 1.768427038765935e+00	-1.363263809435895e+01
1	 3.635075306723383e-01	 1.775674104427080e+00	-1.385282885817571e+01
1	 3.298080325121973e-01	 1.782240980249354e+00	-1.412280725284121e+01
1	 6.694722530258906e-01	 1.691052472548792e+00	-1.321648654407052e+01
1	 6.358306182273950e-01	 1.703986792028041e+00	-1.304523193212901e+01
1	 6.020852200811814e-01	 1.716200731335942e+00	-1.291928215263385e+01
1	 5.682579631206719e-01	 1.727696284022560e+00	-1.283995789714765e+01
1	 5.343704617316423e-01	 1.738476278843592e+00	-1.280838109130173e+01
1	 5.004440032691398e-01	 1.748544355189052e+00	-1.282547638773809e+01
1	 4.664995131731703e-01	 1.757904936758497e+00	-1.289197358503989e+01
1	 4.325575221634695e-01	 1.766563203650104e+00	-1.300841092155481e+01
1	 3.986381355791121e-01	 1.774525063033403e+00	-1.317513918850905e+01
1	 3.647610049143020e-01	 1.781797118576522e+00	-1.339232660305858e+01
1	 3.309453015875780e-01	 1.788386638798750e+00	-1.365996437891003e+01
1	 6.717728449586586e-01	 1.696863649430120e+00	-1.280507752094933e+01
1	 6.380156031682285e-01	 1.709842416741644e+00	-1.262595399149272e+01
1	 6.041542414548939e-01	 1.722098328348754e+00	-1.249268647167564e+01
1	 5.702107396253896e-01	 1.733633384652206e+00	-1.240661852552897e+01
1	 5.362067863417321e-01	 1.744450424128501e+00	-1.236889222239777e+01
1	 5.021637421113929e-01	 1.754553098674148e+00	-1.238044963992411e+01
1	 4.681026042831078e-01	 1.763945847190417e+00	-1.244203530606956e+01
1	 4.340439741289156e-01	 1.772633867576508e+00	-1.255419952840797e+01
1	 4.000080260784050e-01	 1.780623087301499e+00	-1.271730255435979e+01
1	 3.660144791566897e-01	 1.787920132726536e+00	-1.293151950222320e+01
1	 3.320825706634735e-01	 1.794532297348631e+00	-1.319684599980386e+01
1	 6.740734368919161e-01	 1.702674826311469e+00	-1.239294889709701e+01
1	 6.402005881094620e-01	 1.715698041455450e+00	-1.220601648573727e+01
1	 6.062232628289389e-01	 1.727995925361924e+00	-1.206548796143694e+01
1	 5.721635161303924e-01	 1.739570485282329e+00	-1.197272970352366e+01
1	 5.380431109520802e-01	 1.750424569413978e+00	-1.192890387711937e+01
1	 5.038834809538980e-01	 1.760561842159872e+00	-1.193496994608328e+01
1	 4.697056953933108e-01	 1.769986757622994e+00	-1.199168713800202e+01
1	 4.355304260946609e-01	 1.778704531503570e+00	-1.209961780879591e+01
1	 4.013779165780501e-01	 1.786721111570225e+00	-1.225913164988101e+01
1	 3.672679533995013e-01	 1.794043146877121e+00	-1.247041067695733e+01
1	 3.332198397398835e-01	 1.800677955898997e+00	-1.273345493639518e+01
1	 6.763740288256636e-01	 1.708486003192839e+00	-1.198010801538027e+01
1	 6.423855730510963e-01	 1.721553666169462e+00	-1.178542614512118e+01
1	 6.082922842033158e-01	 1.733893522375451e+00	-1.163769277323909e+01
1	 5.741162926356800e-01	 1.745507585912932e+00	-1.153829703776983e+01
1	 5.398794355626865e-01	 1.756398714700024e+00	-1.148842115216584e+01
1	 5.056032197966548e-01	 1.766570585646224e+00	-1.148904192811525e+01
1	 4.713087865037796e-01	 1.776027668056229e+00	-1.154093326338024e+01
1	 4.370168780607052e-01	 1.784775195431289e+00	-1.164466954156102e+01
1	 4.027478070780471e-01	 1.792819135839580e+00	-1.180062988599526e+01
1	 3.685214276427370e-01	 1.800166161028277e+00	-1.200900320608236e+01
1	 3.343571088168084e-01	 1.806823614449849e+00	-1.226979397117723e+01
1	 6.786746207599007e-01	 1.714297180074229e+00	-1.156656211910160e+01
1	 6.445705579931308e-01	 1.727409290883678e+00	-1.136418960864507e+01
1	 6.103613055780253e-01	 1.739791119389336e+00	-1.120930697499531e+01
1	 5.760690691412522e-01	 1.751444686544012e+00	-1.110332605888385e+01
1	 5.417157601735511e-01	 1.762372859986639e+00	-1.104744907512885e+01
1	 5.073229586396636e-01	 1.772579329133204e+00	-1.104267014524976e+01
1	 4.729118776145140e-01	 1.782068578490123e+00	-1.108977780803479e+01
1	 4.385033300270487e-01	 1.790845859359668e+00	-1.118935845430734e+01
1	 4.041176975783961e-01	 1.798917160109564e+00	-1.134180062737520e+01
1	 3.697749018863967e-01	 1.806289175180004e+00	-1.154730012667279e+01
1	 3.354943778942477e-01	 1.812969273001186e+00	-1.180586584891452e+01
1	 6.809752126946277e-01	 1.720108356955640e+00	-1.115231835368088e+01
1	 6.467555429355656e-01	 1.733264915598099e+00	-1.094231342559334e+01
1	 6.124303269530665e-01	 1.745688716403577e+00	-1.078033655262023e+01
1	 5.780218456471096e-01	 1.757381787175571e+00	-1.066782222274380e+01
1	 5.435520847846738e-01	 1.768347005273823e+00	-1.060599260565953e+01
1	 5.090426974829243e-01	 1.778588072620814e+00	-1.059585909510555e+01
1	 4.745149687255139e-01	 1.788109488924676e+00	-1.063822484204198e+01
1	 4.399897819936912e-01	 1.796916523288704e+00	-1.073368822426583e+01
1	 4.054875880790970e-01	 1.805015184380176e+00	-1.088264719322513e+01
1	 3.710283761304803e-01	 1.812412189332303e+00	-1.108530443476165e+01
1	 3.366316469722018e-01	 1.819114931553009e+00	-1.134167327728008e+01
1	 6.832758046298443e-01	 1.725919533837072e+00	-1.073738376830352e+01
1	 6.489405278784010e-01	 1.739120540312725e+00	-1.051980405704452e+01
1	 6.144993483284402e-01	 1.751586313418174e+00	-1.035078741141003e+01
1	 5.799746221532519e-01	 1.763318887807608e+00	-1.023179091174794e+01
1	 5.453884093960546e-01	 1.774321150561575e+00	-1.016405663661215e+01
1	 5.107624363264367e-01	 1.784596816109052e+00	-1.014861321472742e+01
1	 4.761180598367796e-01	 1.794150399359887e+00	-1.018627838066204e+01
1	 4.414762339606330e-01	 1.802987187218399e+00	-1.027766247914252e+01
1	 4.068574785801500e-01	 1.811113208651418e+00	-1.042317285804606e+01
1	 3.722818503749878e-01	 1.818535203485173e+00	-1.062301908603142e+01
1	 3.377689160506706e-01	 1.825260590105316e+00	-1.087721892748012e+01
1	 6.855763965655506e-01	 1.731730710718524e+00	-1.032176531753492e+01
1	 6.511255128216368e-01	 1.744976165027555e+00	-1.009666787735134e+01
1	 6.165683697041461e-01	 1.757483910433130e+00	-9.920665377395261e+00
1	 5.819273986596790e-01	 1.769255988440124e+00	-9.795237436047699e+00
1	 5.472247340076937e-01	 1.780295295849896e+00	-9.721645995165609e+00
1	 5.124821751702011e-01	 1.790605559597918e+00	-9.700936881602104e+00
1	 4.777211509483107e-01	 1.800191309795755e+00	-9.733942385259171e+00
1	 4.429626859278737e-01	 1.809057851148753e+00	-9.821284797949087e+00
1	 4.082273690815551e-01	 1.817211232923290e+00	-9.963380852386154e+00
1	 3.735353246199194e-01	 1.824658217638615e+00	-1.016044699649072e+01
1	 3.389061851296541e-01	 1.831406248658110e+00	-1.041250543486550e+01
1	 6.878769885017465e-01	 1.737541887599996e+00	-9.905469862903027e+00
1	 6.533104977652731e-01	 1.750831789742589e+00	-9.672911175590869e+00
1	 6.186373910801841e-01	 1.763381507448442e+00	-9.489976198666076e+00
1	 5.838801751663910e-01	 1.775193089073118e+00	-9.358167034755549e+00
1	 5.490610586195909e-01	 1.786269441138784e+00	-9.278765443920669e+00
1	 5.142019140142174e-01	 1.796614303087412e+00	-9.252834414655101e+00
1	 4.793242420601077e-01	 1.806232220232282e+00	-9.281220764202743e+00
1	 4.444491378954136e-01	 1.815128515079763e+00	-9.364558711817878e+00
1	 4.095972595833122e-01	 1.823309257195791e+00	-9.503274363575400e+00
1	 3.747887988652751e-01	 1.830781231792628e+00	-9.697591043138361e+00
1	 3.400434542091521e-01	 1.837551907211388e+00	-9.947535399531757e+00
1	 6.901775804384324e-01	 1.743353064481490e+00	-9.488504174448474e+00
1	 6.554954827093095e-01	 1.756687414457829e+00	-9.248540156985866e+00
1	 6.207064124565543e-01	 1.769279104464112e+00	-9.058725546671697e+00
1	 5.858329516733880e-01	 1.781130189706590e+00	-8.920584877129262e+00
1	 5.508973832317466e-01	 1.792243586428243e+00	-8.835419681976930e+00
1	 5.159216528584857e-01	 1.802623046577535e+00	-8.804310075226104e+00
1	 4.809273331721702e-01	 1.812273130669467e+00	-8.828117373750475e+00
1	 4.459355898632527e-01	 1.821199179011433e+00	-8.907487704799280e+00
1	 4.109671500854213e-01	 1.829407281468920e+00	-9.042856536445887e+00
1	 3.760422731110546e-01	 1.836904245947212e+00	-9.234454064612956e+00
1	 3.411807232891650e-01	 1.843697565765152e+00	-9.482311386906348e+00
1	 3.298080325121973e-01	 1.782240980249354e+00	-1.412280725284121e+01
1	 2.961883538197027e-01	 1.788135539899820e+00	-1.446245873485378e+01
1	 2.626665738654010e-01	 1.793366253994555e+00	-1.488107059869783e+01
1	 2.292602285953950e-01	 1.797942156349410e+00	-1.537693017241433e+01
1	 1.959862934990082e-01	 1.801872809816433e+00	-1.594812623536324e+01
1	 1.628611686937027e-01	 1.805168271859486e+00	-1.659256376542958e+01
1	 1.299006661911909e-01	 1.807839060016302e+00	-1.730797887952486e+01
1	 9.711999929909720e-02	 1.809896117387584e+00	-1.809195387020269e+01
1	 6.453377410372496e-02	 1.811350778286528e+00	-1.894193224612371e+01
1	 3.215598297154953e-02	 1.812214734174441e+00	-1.985523368952644e+01
1	 0.000000000000000e+00	 1.812500000000000e+00	-2.082906884967899e+01
1	 3.309453015875780e-01	 1.788386638798750e+00	-1.365996437891003e+01
1	 2.972096929680713e-01	 1.794301524517597e+00	-1.399876679141816e+01
1	 2.635723206687794e-01	 1.799550275558037e+00	-1.442232544885340e+01
1	 2.300507811045819e-01	 1.804141956887013e+00	-1.492888059621521e+01
1	 1.966621083009694e-01	 1.808086164331921e+00	-1.551645573603924e+01
1	 1.634227589275303e-01	 1.811392990037540e+00	-1.618287336033177e+01
1	 1.303485995201519e-01	 1.814072987808971e+00	-1.692577091129273e+01
1	 9.745489584613706e-02	 1.816137138481749e+00	-1.774261686579335e+01
1	 6.475630435760055e-02	 1.817596815452913e+00	-1.863072684375851e+01
1	 3.226686567055386e-02	 1.818463750499150e+00	-1.958727964632756e+01
1	 0.000000000000000e+00	 1.818750000000000e+00	-2.060933313583760e+01
1	 3.320825706634735e-01	 1.794532297348631e+00	-1.319684599980386e+01
1	 2.982310321170386e-01	 1.800467509135765e+00	-1.353503961643186e+01
1	 2.644780674728088e-01	 1.805734297121826e+00	-1.396374549387968e+01
1	 2.308413336144408e-01	 1.810341757424848e+00	-1.448115719295050e+01
1	 1.973379231035935e-01	 1.814299518847581e+00	-1.508523341546153e+01
1	 1.639843491619814e-01	 1.817617708215711e+00	-1.577371471665743e+01
1	 1.307965328496679e-01	 1.820306915601714e+00	-1.654414048177687e+01
1	 9.778979239363461e-02	 1.822378159575957e+00	-1.739386605392045e+01
1	 6.497883461180844e-02	 1.823842852619315e+00	-1.832007990581173e+01
1	 3.237774836973772e-02	 1.824712766823864e+00	-1.931982075406999e+01
1	 0.000000000000000e+00	 1.825000000000000e+00	-2.038999452113680e+01
1	 3.332198397398835e-01	 1.800677955898997e+00	-1.273345493639518e+01
1	 2.992523712666044e-01	 1.806633493754324e+00	-1.307127757062779e+01
1	 2.653838142774890e-01	 1.811918318685923e+00	-1.350532904236222e+01
1	 2.316318861249720e-01	 1.816541557962917e+00	-1.403375662296647e+01
1	 1.980137379068803e-01	 1.820512873363411e+00	-1.465445468477048e+01
1	 1.645459393970560e-01	 1.823842426393999e+00	-1.536508238975198e+01
1	 1.312444661797388e-01	 1.826540843394532e+00	-1.616308167761319e+01
1	 9.812468894158978e-02	 1.828619180670206e+00	-1.704569543261408e+01
1	 6.520136486634860e-02	 1.830088889785737e+00	-1.800998571421880e+01
1	 3.248863106910110e-02	 1.830961783148583e+00	-1.905285194294946e+01
1	 0.000000000000000e+00	 1.831250000000000e+00	-2.017104893971497e+01
1	 3.343571088168084e-01	 1.806823614449849e+00	-1.226979397117723e+01
1	 3.002737104167688e-01	 1.812799478373273e+00	-1.260748100983123e+01
1	 2.662895610828201e-01	 1.818102340250326e+00	-1.304707442589926e+01
1	 2.324224386361751e-01	 1.822741358501219e+00	-1.358667559204700e+01
1	 1.986895527108298e-01	 1.826726227879411e+00	-1.422411501754008e+01
1	 1.651075296327542e-01	 1.830067144572405e+00	-1.495697100903742e+01
1	 1.316923995103647e-01	 1.832774771187425e+00	-1.578258866589149e+01
1	 9.845958549000262e-02	 1.834860201764497e+00	-1.669809908156396e+01
1	 6.542389512122110e-02	 1.836334926952176e+00	-1.770043862871186e+01
1	 3.259951376864401e-02	 1.837210799473306e+00	-1.878636821213896e+01
1	 0.000000000000000e+00	 1.837500000000000e+00	-1.995249238102819e+01
1	 3.354943778942477e-01	 1.812969273001186e+00	-1.180586584891452e+01
1	 3.012950495675319e-01	 1.818965462992614e+00	-1.214365028504257e+01
1	 2.671953078888020e-01	 1.824286361815036e+00	-1.258897999871130e+01
1	 2.332129911480504e-01	 1.828941159039756e+00	-1.313991085064298e+01
1	 1.993653675154421e-01	 1.832939582395581e+00	-1.379420994871917e+01
1	 1.656691198690758e-01	 1.836291862750929e+00	-1.454937527675741e+01
1	 1.321403328415455e-01	 1.839008698980392e+00	-1.540265569279167e+01
1	 9.879448203887313e-02	 1.841101222858829e+00	-1.635107116073479e+01
1	 6.564642537642587e-02	 1.842580964118634e+00	-1.739143308550151e+01
1	 3.271039646836642e-02	 1.843459815798034e+00	-1.852036462861873e+01
1	 0.000000000000000e+00	 1.843750000000000e+00	-1.973432088891308e+01
1	 3.366316469722018e-01	 1.819114931553009e+00	-1.134167327728008e+01
1	 3.023163887188934e-01	 1.825131447612345e+00	-1.167978574251893e+01
1	 2.681010546954348e-01	 1.830470383380053e+00	-1.213104413725897e+01
1	 2.340035436605978e-01	 1.835140959578525e+00	-1.269345919311880e+01
1	 2.000411823207173e-01	 1.839152936911922e+00	-1.336473507359556e+01
1	 1.662307101060210e-01	 1.842516580929570e+00	-1.414228996674667e+01
1	 1.325882661732813e-01	 1.845242626773435e+00	-1.502327708224821e+01
1	 9.912937858820127e-02	 1.847342243953204e+00	-1.600460590901093e+01
1	 6.586895563196292e-02	 1.848827001285110e+00	-1.708296359598427e+01
1	 3.282127916826838e-02	 1.849708832122766e+00	-1.825483632603200e+01
1	 0.000000000000000e+00	 1.850000000000000e+00	-1.951653056066781e+01
1	 3.377689160506706e-01	 1.825260590105316e+00	-1.087721892748012e+01
1	 3.033377278708537e-01	 1.831297432232466e+00	-1.121588772385405e+01
1	 2.690068015027186e-01	 1.836654404945377e+00	-1.167326523986902e+01
1	 2.347940961738172e-01	 1.841340760117528e+00	-1.224731745701182e+01
1	 2.007169971266552e-01	 1.845366291428433e+00	-1.293568604677955e+01
1	 1.667923003435897e-01	 1.848741299108329e+00	-1.373570992322618e+01
1	 1.330361995055720e-01	 1.851476554566552e+00	-1.464444723464093e+01
1	 9.946427513798704e-02	 1.853583265047620e+00	-1.565869764286763e+01
1	 6.609148588783229e-02	 1.855073038451605e+00	-1.677502474547785e+01
1	 3.293216186834987e-02	 1.855957848447503e+00	-1.798977850356177e+01
1	 0.000000000000000e+00	 1.856250000000000e+00	-1.929911754615208e+01
1	 3.389061851296541e-01	 1.831406248658110e+00	-1.041250543486550e+01
1	 3.043590670234124e-01	 1.837463416852979e+00	-1.075195656605655e+01
1	 2.699125483106531e-01	 1.842838426511007e+00	-1.121564172636692e+01
1	 2.355846486877087e-01	 1.847540560656764e+00	-1.180148252230880e+01
1	 2.013928119332558e-01	 1.851579645945115e+00	-1.250705858120883e+01
1	 1.673538905817820e-01	 1.854966017287206e+00	-1.332963005962191e+01
1	 1.334841328384176e-01	 1.857710482359744e+00	-1.426616062551198e+01
1	 9.979917168823051e-02	 1.859824286142078e+00	-1.531334075506872e+01
1	 6.631401614403395e-02	 1.861319075618118e+00	-1.646761119197976e+01
1	 3.304304456861087e-02	 1.862206864772245e+00	-1.772518642483177e+01
1	 0.000000000000000e+00	 1.862500000000000e+00	-1.908207804690542e+01
1	 3.400434542091521e-01	 1.837551907211388e+00	-9.947535399531757e+00
1	 3.053804061765699e-01	 1.843629401473883e+00	-1.028799260162662e+01
1	 2.708182951192387e-01	 1.849022448076945e+00	-1.075817203771791e+01
1	 2.363752012022724e-01	 1.853740361196235e+00	-1.135595131073551e+01
1	 2.020686267405193e-01	 1.857793000461968e+00	-1.207884844717305e+01
1	 1.679154808205977e-01	 1.861190735466199e+00	-1.292404535740761e+01
1	 1.339320661718181e-01	 1.863944410153010e+00	-1.388841180430958e+01
1	 1.001340682389316e-01	 1.866065307236577e+00	-1.496852971339135e+01
1	 6.653654640056790e-02	 1.867565112784649e+00	-1.616071766495246e+01
1	 3.315392726905140e-02	 1.868455881096990e+00	-1.746105541682817e+01
1	 0.000000000000000e+00	 1.868750000000000e+00	-1.886540831528274e+01
1	 3.411807232891650e-01	 1.843697565765152e+00	-9.482311386906348e+00
1	 3.064017453303258e-01	 1.849795386095177e+00	-9.823996158631001e+00
1	 2.717240419284750e-01	 1.855206469643190e+00	-1.030085463567381e+01
1	 2.371657537175081e-01	 1.859940161735939e+00	-1.091072078506200e+01
1	 2.027444415484455e-01	 1.864006354978991e+00	-1.165105147135820e+01
1	 1.684770710600370e-01	 1.867415453645311e+00	-1.251895086497077e+01
1	 1.343799995057737e-01	 1.870178337946352e+00	-1.351119539315598e+01
1	 1.004689647900904e-01	 1.872306328331119e+00	-1.462425905937574e+01
1	 6.675907665743416e-02	 1.873811149951200e+00	-1.585433896413241e+01
1	 3.326480996967145e-02	 1.874704897421741e+00	-1.719738086884463e+01
1	 0.000000000000000e+00	 1.875000000000000e+00	-1.864910465360785e+01
1	 1.875000000000000e+00	 0.000000000000000e+00	 4.067674219236364e+00
1	 1.874704897421741e+00	 3.326480996967039e-02	 3.705091148615009e+00
1	 1.873811149951200e+00	 6.675907665743322e-02	 3.355019249563789e+00
1	 1.872306328331119e+00	 1.004689647900895e-01	 3.018858610831313e+00
1	 1.870178337946352e+00	 1.343799995057729e-01	 2.698008223825838e+00
1	 1.867415453645311e+00	 1.684770710600363e-01	 2.393860635787852e+00
1	 1.864006354978990e+00	 2.027444415484450e-01	 2.107796363146161e+00
1	 1.859940161735938e+00	 2.371657537175077e-01	 1.841178085231331e+00
1	 1.855206469643190e+00	 2.717240419284747e-01	 1.595344641481402e+00
1	 1.849795386095177e+00	 3.064017453303257e-01	 1.371604858227211e+00
1	 1.843697565765152e+00	 3.411807232891650e-01	 1.171231234054396e+00
1	 1.881250000000000e+00	 0.000000000000000e+00	 3.999845118604152e+00
1	 1.880953913746494e+00	 3.337569267029044e-02	 3.640329716829343e+00
1	 1.880057187117759e+00	 6.698160691429947e-02	 3.292879069367113e+00
1	 1.878547349425682e+00	 1.008038613412483e-01	 2.958919941731540e+00
1	 1.876412265739731e+00	 1.348279328397284e-01	 2.639880688124760e+00
1	 1.873640171824482e+00	 1.690386612994756e-01	 2.337185920864161e+00
1	 1.870219709496098e+00	 2.034202563563713e-01	 2.052250927809711e+00
1	 1.866139962275759e+00	 2.379563062327434e-01	 1.786475857215079e+00
1	 1.861390491209588e+00	 2.726297887377112e-01	 1.541239692435579e+00
1	 1.855961370716666e+00	 3.074230844840817e-01	 1.317894041938988e+00
1	 1.849843224319159e+00	 3.423179923691777e-01	 1.117756773043870e+00
1	 1.887500000000000e+00	 0.000000000000000e+00	 3.932862415837965e+00
1	 1.887202930071246e+00	 3.348657537073096e-02	 3.576528672034518e+00
1	 1.886303224284318e+00	 6.720413717083341e-02	 3.231817682193648e+00
1	 1.884788370520244e+00	 1.011387578919494e-01	 2.900182802931123e+00
1	 1.882646193533109e+00	 1.352758661731290e-01	 2.583081653166021e+00
1	 1.879864890003652e+00	 1.696002515382913e-01	 2.281970799595506e+00
1	 1.876433064013207e+00	 2.040960711636347e-01	 1.998300178030958e+00
1	 1.872339762815579e+00	 2.387468587473070e-01	 1.733507269271266e+00
1	 1.867574512775986e+00	 2.735355355462966e-01	 1.489011051248470e+00
1	 1.862127355338156e+00	 3.084444236372391e-01	 1.266205752252837e+00
1	 1.855988882873165e+00	 3.434552614486758e-01	 1.066454433093138e+00
1	 1.893750000000000e+00	 0.000000000000000e+00	 3.866717730760124e+00
1	 1.893451946396000e+00	 3.359745807099197e-02	 3.513678505447817e+00
1	 1.892549261450878e+00	 6.742666742703507e-02	 3.171824406923803e+00
1	 1.891029391614806e+00	 1.014736544421928e-01	 2.842635298090069e+00
1	 1.888880121326488e+00	 1.357237995059746e-01	 2.527597965476597e+00
1	 1.886089608182823e+00	 1.701618417764836e-01	 2.228200820559290e+00
1	 1.882646418530314e+00	 2.047718859702353e-01	 1.945928324843750e+00
1	 1.878539563355399e+00	 2.395374112611985e-01	 1.682255156646544e+00
1	 1.873758534342384e+00	 2.744412823542313e-01	 1.438640140614424e+00
1	 1.868293339959646e+00	 3.094657627897978e-01	 1.216519964152783e+00
1	 1.862134541427172e+00	 3.445925305276593e-01	 1.017302708052985e+00
1	 1.900000000000000e+00	 0.000000000000000e+00	 3.801402793458501e+00
1	 1.899700962720752e+00	 3.370834077107344e-02	 3.451769833402140e+00
1	 1.898795298617437e+00	 6.764919768290445e-02	 3.112888702979118e+00
1	 1.897270412709369e+00	 1.018085509919786e-01	 2.786265687399164e+00
1	 1.895114049119867e+00	 1.361717328382653e-01	 2.473416644655480e+00
1	 1.892314326361993e+00	 1.707234320140523e-01	 2.175861722483265e+00
1	 1.888859773047423e+00	 2.054477007761732e-01	 1.895119787031577e+00
1	 1.884739363895219e+00	 2.403279637744180e-01	 1.632702580439588e+00
1	 1.879942555908781e+00	 2.753470291615150e-01	 1.390108627665989e+00
1	 1.874459324581135e+00	 3.104871019417580e-01	 1.168816916109902e+00
1	 1.868280199981178e+00	 3.457297996061280e-01	 9.702803747497992e-01
1	 1.906250000000000e+00	 0.000000000000000e+00	 3.736909442478818e+00
1	 1.905949979045505e+00	 3.381922347097539e-02	 3.390793395294799e+00
1	 1.905041335783997e+00	 6.787172793844151e-02	 3.055000168018242e+00
1	 1.903511433803931e+00	 1.021434475413067e-01	 2.731062385013966e+00
1	 1.901347976913246e+00	 1.366196661700011e-01	 2.420524880536490e+00
1	 1.898539044541164e+00	 1.712850222509975e-01	 2.124939431128231e+00
1	 1.895073127564530e+00	 2.061235155814483e-01	 1.845859187721667e+00
1	 1.890939164435040e+00	 2.411185162869653e-01	 1.584832823898594e+00
1	 1.886126577475180e+00	 2.762527759681478e-01	 1.343398419966770e+00
1	 1.880625309202625e+00	 3.115084410931195e-01	 1.123077105762800e+00
1	 1.874425858535184e+00	 3.468670686840821e-01	 9.253664883466460e-01
1	 1.912500000000000e+00	 0.000000000000000e+00	 3.673229623052504e+00
1	 1.912198995370258e+00	 3.393010617069783e-02	 3.330740051576861e+00
1	 1.911287372950556e+00	 6.809425819364628e-02	 2.998148535678138e+00
1	 1.909752454898493e+00	 1.024783440901772e-01	 2.677013956538972e+00
1	 1.907581904706625e+00	 1.370675995011819e-01	 2.368910030406592e+00
1	 1.904763762720334e+00	 1.718466124873191e-01	 2.075420056232026e+00
1	 1.901286482081638e+00	 2.067993303860607e-01	 1.798131351046209e+00
1	 1.897138964974860e+00	 2.419090687988406e-01	 1.538629388791370e+00
1	 1.892310599041577e+00	 2.771585227741298e-01	 1.298491661582785e+00
1	 1.886791293824114e+00	 3.125297802438826e-01	 1.079281285682915e+00
1	 1.880571517089191e+00	 3.480043377615216e-01	 8.825403777952661e-01
1	 1.918750000000000e+00	 0.000000000000000e+00	 3.610355385359163e+00
1	 1.918448011695011e+00	 3.404098887024072e-02	 3.271600781781505e+00
1	 1.917533410117115e+00	 6.831678844851877e-02	 2.942323673359510e+00
1	 1.915993475993056e+00	 1.028132406385901e-01	 2.624109116561096e+00
1	 1.913815832500003e+00	 1.375155328318078e-01	 2.318559616278683e+00
1	 1.910988480899505e+00	 1.724082027230172e-01	 2.027289888513097e+00
1	 1.907499836598747e+00	 2.074751451900103e-01	 1.751921298868535e+00
1	 1.903338765514680e+00	 2.426996213100438e-01	 1.494075991846425e+00
1	 1.898494620607976e+00	 2.780642695794608e-01	 1.255370729230672e+00
1	 1.892957278445604e+00	 3.135511193940470e-01	 1.037410459222485e+00
1	 1.886717175643197e+00	 3.491416068384464e-01	 8.417816413769870e-01
1	 1.925000000000000e+00	 0.000000000000000e+00	 3.548278882822863e+00
1	 1.924697028019764e+00	 3.415187156960411e-02	 3.213366682590741e+00
1	 1.923779447283674e+00	 6.853931870305895e-02	 2.887515580055279e+00
1	 1.922234497087618e+00	 1.031481371865453e-01	 2.572336726231028e+00
1	 1.920049760293382e+00	 1.379634661618787e-01	 2.269461322217456e+00
1	 1.917213199078675e+00	 1.729697929580918e-01	 1.980535396732513e+00
1	 1.913713191115854e+00	 2.081509599932970e-01	 1.707214247573238e+00
1	 1.909538566054500e+00	 2.434901738205749e-01	 1.451156561263306e+00
1	 1.904678642174374e+00	 2.789700163841410e-01	 1.214018228500844e+00
1	 1.899123263067094e+00	 3.145724585436129e-01	 9.974458764434553e-01
1	 1.892862834197204e+00	 3.502788759148564e-01	 8.030701423305000e-01
1	 1.931249999999999e+00	 0.000000000000000e+00	 3.486992370441453e+00
1	 1.930946044344516e+00	 3.426275426878794e-02	 3.156028965940039e+00
1	 1.930025484450233e+00	 6.876184895726682e-02	 2.833714384221277e+00
1	 1.928475518182180e+00	 1.034830337340428e-01	 2.521685790891725e+00
1	 1.926283688086761e+00	 1.384113994913947e-01	 2.221602991717197e+00
1	 1.923437917257845e+00	 1.735313831925430e-01	 1.935143224813043e+00
1	 1.919926545632962e+00	 2.088267747959211e-01	 1.663995604918590e+00
1	 1.915738366594320e+00	 2.442807263304339e-01	 1.409855233290782e+00
1	 1.910862663740771e+00	 2.798757631881704e-01	 1.174416990154059e+00
1	 1.905289247688583e+00	 3.155937976925801e-01	 9.593690301253561e-01
1	 1.899008492751210e+00	 3.514161449907519e-01	 7.663860045644959e-01
1	 1.937500000000000e+00	 0.000000000000000e+00	 3.426488203148313e+00
1	 1.937195060669269e+00	 3.437363696779228e-02	 3.099578957159196e+00
1	 1.936271521616793e+00	 6.898437921114241e-02	 2.780910341688102e+00
1	 1.934716539276743e+00	 1.038179302810827e-01	 2.472145457752730e+00
1	 1.932517615880140e+00	 1.388593328203557e-01	 2.174972625130353e+00
1	 1.929662635437016e+00	 1.740929734263706e-01	 1.891100189013927e+00
1	 1.926139900150070e+00	 2.095025895978823e-01	 1.622250966949854e+00
1	 1.921938167134141e+00	 2.450712788396208e-01	 1.370156348871169e+00
1	 1.917046685307170e+00	 2.807815099915488e-01	 1.136550066489629e+00
1	 1.911455232310073e+00	 3.166151368409488e-01	 9.231616518505772e-01
1	 1.905154151305217e+00	 3.525534140661327e-01	 7.317096084533370e-01
1	 1.843697565765152e+00	 3.411807232891650e-01	 1.171231234054396e+00
1	 1.836904245947212e+00	 3.760422731110535e-01	 9.850357601104043e-01
1	 1.829407281468921e+00	 4.109671500854205e-01	 8.073865215147924e-01
1	 1.821199179011433e+00	 4.459355898632519e-01	 6.383917871588645e-01
1	 1.812273130669467e+00	 4.809273331721696e-01	 4.781269938547112e-01
1	 1.802623046577536e+00	 5.159216528584852e-01	 3.266333372624356e-01
1	 1.792243586428243e+00	 5.508973832317464e-01	 1.839164861314886e-01
1	 1.781130189706590e+00	 5.858329516733878e-01	 4.994543368821069e-02
1	 1.769279104464112e+00	 6.207064124565543e-01	-7.534850043629360e-02
1	 1.756687414457829e+00	 6.554954827093096e-01	-1.920725049384190e-01
1	 1.743353064481490e+00	 6.901775804384325e-01	-3.003729361879262e-01
1	 1.849843224319159e+00	 3.423179923691777e-01	 1.117756773043870e+00
1	 1.843027260102082e+00	 3.772957473568355e-01	 9.300117921064999e-01
1	 1.835505305742365e+00	 4.123370405875389e-01	 7.522681496169810e-01
1	 1.827269842943432e+00	 4.474220418311122e-01	 5.846765573849981e-01
1	 1.818314041106981e+00	 4.825304242842701e-01	 4.273514058301825e-01
1	 1.808631790067972e+00	 5.176413917028131e-01	 2.803690762747693e-01
1	 1.798217731717985e+00	 5.527337078439885e-01	 1.437663838376776e-01
1	 1.787067290340301e+00	 5.877857281805031e-01	 1.753916680745760e-02
1	 1.775176701479960e+00	 6.227754338330799e-01	-9.835896203909167e-02
1	 1.762543039173170e+00	 6.576804676535437e-01	-2.040176872917990e-01
1	 1.749164241362994e+00	 6.924781723753630e-01	-2.995708718191076e-01
1	 1.855988882873165e+00	 3.434552614486758e-01	 1.066454433093138e+00
1	 1.849150274256951e+00	 3.785492216021981e-01	 8.772222291523462e-01
1	 1.841603330015809e+00	 4.137069310893243e-01	 6.994387618472520e-01
1	 1.833340506875431e+00	 4.489084937987162e-01	 5.332969624085540e-01
1	 1.824354951544495e+00	 4.841335153961813e-01	 3.789499643364446e-01
1	 1.814640533558410e+00	 5.193611305470091e-01	 2.365091381799856e-01
1	 1.804191877007728e+00	 5.545700324561454e-01	 1.060422641834179e-01
1	 1.793004390974013e+00	 5.897385046875703e-01	-1.242813928532494e-02
1	 1.781074298495808e+00	 6.248444552095840e-01	-1.189263139919160e-01
1	 1.768398663888512e+00	 6.598654525977723e-01	-2.135245698244254e-01
1	 1.754975418244496e+00	 6.947787643122935e-01	-2.963443863350365e-01
1	 1.862134541427172e+00	 3.445925305276593e-01	 1.017302708052985e+00
1	 1.855273288411821e+00	 3.798026958471413e-01	 8.266449484255605e-01
1	 1.847701354289253e+00	 4.150768215907763e-01	 6.488756949963497e-01
1	 1.839411170807429e+00	 4.503949457660634e-01	 4.842298771324642e-01
1	 1.830395861982009e+00	 4.857366065079031e-01	 3.328991629721317e-01
1	 1.820649277048847e+00	 5.210808693910727e-01	 1.950297178008488e-01
1	 1.810166022297470e+00	 5.564063570682174e-01	 7.072010753851121e-02
1	 1.798941491607724e+00	 5.916912811945895e-01	-3.998063271687124e-02
1	 1.786971895511656e+00	 6.269134765860667e-01	-1.370747454993481e-01
1	 1.774254288603854e+00	 6.620504375419956e-01	-2.206172941188072e-01
1	 1.760786595126000e+00	 6.970793562492242e-01	-2.907174839052626e-01
1	 1.868280199981178e+00	 3.457297996061280e-01	 9.702803747497992e-01
1	 1.861396302566691e+00	 3.810561700916653e-01	 7.782581181935500e-01
1	 1.853799378562697e+00	 4.164467120918953e-01	 6.005565840551117e-01
1	 1.845481834739428e+00	 4.518813977331543e-01	 4.374524807372297e-01
1	 1.836436772419523e+00	 4.873396976194352e-01	 2.891758046306068e-01
1	 1.826658020539285e+00	 5.228006082350038e-01	 1.559073231861059e-01
1	 1.816140167587212e+00	 5.582426816802045e-01	 3.777621032050582e-02
1	 1.804878592241435e+00	 5.936440577015606e-01	-6.514214387541639e-02
1	 1.792869492527504e+00	 6.289824979625277e-01	-1.528281274869696e-01
1	 1.780109913319195e+00	 6.642354224862134e-01	-2.253196841050508e-01
1	 1.766597772007503e+00	 6.993799481861547e-01	-2.827138528550086e-01
1	 1.874425858535184e+00	 3.468670686840821e-01	 9.253664883466460e-01
1	 1.867519316721562e+00	 3.823096443357701e-01	 7.320401930414631e-01
1	 1.859897402836141e+00	 4.178166025926812e-01	 5.544593573259546e-01
1	 1.851552498671426e+00	 4.533678496999888e-01	 3.929422516927663e-01
1	 1.842477682857037e+00	 4.889427887307781e-01	 2.477569964295655e-01
1	 1.832666764029722e+00	 5.245203470788029e-01	 1.191187704756571e-01
1	 1.822114312876954e+00	 5.600790062921066e-01	 7.187179813592737e-03
1	 1.810815692875146e+00	 5.955968342084837e-01	-8.793619061952540e-02
1	 1.798767089543352e+00	 6.310515193389675e-01	-1.662100178190503e-01
1	 1.785965538034537e+00	 6.664204074304259e-01	-2.276552512682775e-01
1	 1.772408948889007e+00	 7.016805401230853e-01	-2.723568708429293e-01
1	 1.880571517089191e+00	 3.480043377615216e-01	 8.825403777952661e-01
1	 1.873642330876431e+00	 3.835631185794554e-01	 6.879699091938252e-01
1	 1.865995427109586e+00	 4.191864930931339e-01	 5.105622316301681e-01
1	 1.857623162603425e+00	 4.548543016665667e-01	 3.506769628680372e-01
1	 1.848518593294551e+00	 4.905458798419314e-01	 2.086201447400435e-01
1	 1.838675507520159e+00	 5.262400859224698e-01	 8.464117886637179e-02
1	 1.828088458166697e+00	 5.619153309039234e-01	-2.107007091091251e-02
1	 1.816752793508858e+00	 5.975496107153585e-01	-1.083859833847837e-01
1	 1.804664686559200e+00	 6.331205407153858e-01	-1.772436664139286e-01
1	 1.791821162749878e+00	 6.686053923746327e-01	-2.276471997539413e-01
1	 1.778220125770510e+00	 7.039811320600159e-01	-2.596696099373735e-01
1	 1.886717175643197e+00	 3.491416068384464e-01	 8.417816413769870e-01
1	 1.879765345031301e+00	 3.848165928227216e-01	 6.460262799275908e-01
1	 1.872093451383029e+00	 4.205563835932533e-01	 4.688437076089458e-01
1	 1.863693826535424e+00	 4.563407536328881e-01	 3.106346767363047e-01
1	 1.854559503732065e+00	 4.921489709528956e-01	 1.717429503125766e-01
1	 1.844684251010597e+00	 5.279598247660047e-01	 5.245196567632487e-02
1	 1.834062603456440e+00	 5.637516555156553e-01	-4.701832797482774e-02
1	 1.822689894142569e+00	 5.995023872221856e-01	-1.265144301906899e-01
1	 1.810562283575048e+00	 6.351895620917827e-01	-1.859520202594149e-01
1	 1.797676787465220e+00	 6.707903773188345e-01	-2.253184313733542e-01
1	 1.784031302652014e+00	 7.062817239969464e-01	-2.446748415934167e-01
1	 1.892862834197204e+00	 3.502788759148564e-01	 8.030701423305000e-01
1	 1.885888359186170e+00	 3.860700670655682e-01	 6.061885910745247e-01
1	 1.878191475656474e+00	 4.219262740930396e-01	 4.292825651159046e-01
1	 1.869764490467422e+00	 4.578272055989531e-01	 2.727937406737491e-01
1	 1.860600414169579e+00	 4.937520620636701e-01	 1.371034034983336e-01
1	 1.850692994501034e+00	 5.296795636094069e-01	 2.252884150514883e-02
1	 1.840036748746182e+00	 5.655879801273022e-01	-7.068008157632205e-02
1	 1.828626994776280e+00	 6.014551637289643e-01	-1.423441415500083e-01
1	 1.816459880590896e+00	 6.372585834681580e-01	-1.923577283304985e-01
1	 1.803532412180561e+00	 6.729753622630306e-01	-2.206915505117102e-01
1	 1.789842479533517e+00	 7.085823159338770e-01	-2.273950415329522e-01
1	 1.899008492751210e+00	 3.514161449907519e-01	 7.663860045644959e-01
1	 1.892011373341041e+00	 3.873235413079958e-01	 5.684363966109338e-01
1	 1.884289499929918e+00	 4.232961645924927e-01	 3.918578586990824e-01
1	 1.875835154399421e+00	 4.593136575647616e-01	 2.371327823493893e-01
1	 1.866641324607093e+00	 4.953551531742553e-01	 1.046797795630021e-01
1	 1.856701737991471e+00	 5.313993024526771e-01	-5.150194511611472e-03
1	 1.846010894035924e+00	 5.674243047388638e-01	-9.207753077832620e-02
1	 1.834564095409992e+00	 6.034079402356953e-01	-1.558974352827859e-01
1	 1.822357477606744e+00	 6.393276048445120e-01	-1.964831464115641e-01
1	 1.809388036895903e+00	 6.751603472072217e-01	-2.137888689408043e-01
1	 1.795653656415020e+00	 7.108829078708077e-01	-2.078523945300143e-01
1	 1.905154151305217e+00	 3.525534140661327e-01	 7.317096084533370e-01
1	 1.898134387495910e+00	 3.885770155500040e-01	 5.327495143327526e-01
1	 1.890387524203363e+00	 4.246660550916128e-01	 3.565489131703813e-01
1	 1.881905818331420e+00	 4.608001095303136e-01	 2.036307052042287e-01
1	 1.872682235044607e+00	 4.969582442846509e-01	 7.445063409140590e-02
1	 1.862710481481908e+00	 5.331190412958152e-01	-3.060685935630736e-02
1	 1.851985039325666e+00	 5.692606293503407e-01	-1.112325882042632e-01
1	 1.840501196043703e+00	 6.053607167423780e-01	-1.671963412372157e-01
1	 1.828255074622592e+00	 6.413966262208445e-01	-1.983503418252632e-01
1	 1.815243661611244e+00	 6.773453321514071e-01	-2.046324105386036e-01
1	 1.801464833296524e+00	 7.131834998077383e-01	-1.860687991034888e-01
1	 1.743353064481490e+00	 6.901775804384325e-01	-3.003729361879262e-01
1	 1.729274883719828e+00	 7.247298645165551e-01	-1.315503123320168e-01
1	 1.714452606964470e+00	 7.591292765180647e-01	-6.821074103576574e-03
1	 1.698886893533727e+00	 7.933525842772426e-01	 6.963096332095975e-02
1	 1.682579343746540e+00	 8.273764270281420e-01	 9.369122504246474e-02
1	 1.665532512813788e+00	 8.611773619687499e-01	 6.133301126490276e-02
1	 1.647749922018582e+00	 8.947319120812797e-01	-3.136381230926610e-02
1	 1.629236067070115e+00	 9.280166150276020e-01	-1.881941901084047e-01
1	 1.609996423529265e+00	 9.610080729276056e-01	-4.128094432923205e-01
1	 1.590037449218878e+00	 9.936830028181232e-01	-7.086991544705930e-01
1	 1.569366583547552e+00	 1.026018287581235e+00	-1.079173498665811e+00
1	 1.749164241362994e+00	 6.924781723753630e-01	-2.995708718191076e-01
1	 1.735039133331508e+00	 7.271456307339783e-01	-1.267042918363546e-01
1	 1.720167448986379e+00	 7.616597074422550e-01	 1.610590745600327e-03
1	 1.704549849843644e+00	 7.959970928939205e-01	 8.107061932774673e-02
1	 1.688187941556643e+00	 8.301343484538067e-01	 1.074421501550942e-01
1	 1.671084287853624e+00	 8.640479531772267e-01	 7.658019906473224e-02
1	 1.653242421755309e+00	 8.977143517896650e-01	-1.555234723586341e-02
1	 1.634666853956591e+00	 9.311100037451990e-01	-1.728655801777065e-01
1	 1.615363078270216e+00	 9.642114331707824e-01	-3.991236069436550e-01
1	 1.595337574045107e+00	 9.969952794933697e-01	-6.979259073226340e-01
1	 1.574597805487893e+00	 1.029438348537982e+00	-1.072689141507236e+00
1	 1.754975418244496e+00	 6.947787643122935e-01	-2.963443863350365e-01
1	 1.740803382943193e+00	 7.295613969514062e-01	-1.197114860762265e-01
1	 1.725882291008306e+00	 7.641901383664642e-01	 1.191489325842843e-02
1	 1.710212806153604e+00	 7.986416015106421e-01	 9.411279499267777e-02
1	 1.693796539366823e+00	 8.328922698795495e-01	 1.225300473011530e-01
1	 1.676636062893582e+00	 8.669185443858251e-01	 9.290391998190861e-02
1	 1.658734921492213e+00	 9.006967914982268e-01	 1.080854684592403e-03
1	 1.640097640843308e+00	 9.342033924630367e-01	-1.569638594350672e-01
1	 1.620729733011482e+00	 9.674147934142741e-01	-3.851065963114270e-01
1	 1.600637698871738e+00	 1.000307556169016e+00	-6.870562239292515e-01
1	 1.579829027428729e+00	 1.032858409495223e+00	-1.066335390914767e+00
1	 1.760786595126000e+00	 6.970793562492242e-01	-2.907174839052626e-01
1	 1.746567632554882e+00	 7.319771631688389e-01	-1.105931503515588e-01
1	 1.731597133030253e+00	 7.667205692906933e-01	 2.407329246745193e-02
1	 1.715875762463608e+00	 8.012861101274074e-01	 1.087416237837581e-01
1	 1.699405137177081e+00	 8.356501913053702e-01	 1.389416791328097e-01
1	 1.682187837933662e+00	 8.697891355945461e-01	 1.102935152714655e-01
1	 1.664227421229294e+00	 9.036792312069647e-01	 1.852765744223539e-02
1	 1.645528427730266e+00	 9.372967811811150e-01	-1.404947022467582e-01
1	 1.626096387753065e+00	 9.706181536580812e-01	-3.707616903509493e-01
1	 1.605937823698767e+00	 1.003619832845063e+00	-6.760910591069831e-01
1	 1.585060249370059e+00	 1.036278470452959e+00	-1.060110953756498e+00
1	 1.766597772007503e+00	 6.993799481861547e-01	-2.827138528550086e-01
1	 1.752331882166577e+00	 7.343929293862763e-01	-9.937026028728391e-02
1	 1.737311975052219e+00	 7.692510002149416e-01	 3.806749136530752e-02
1	 1.721538718773656e+00	 8.039306187442162e-01	 1.249414479391456e-01
1	 1.705013734987417e+00	 8.384081127312688e-01	 1.566639824778283e-01
1	 1.687739612973864e+00	 8.726597268033887e-01	 1.287384664350517e-01
1	 1.669719920966550e+00	 9.066616709158788e-01	 3.678003207991853e-02
1	 1.650959214617464e+00	 9.403901698994340e-01	-1.234637083162986e-01
1	 1.631463042494962e+00	 9.738215139022037e-01	-3.560921248734177e-01
1	 1.611237948526197e+00	 1.006932109521509e+00	-6.650313551090237e-01
1	 1.590291471311884e+00	 1.039698531411190e+00	-1.054014553915596e+00
1	 1.772408948889007e+00	 7.016805401230853e-01	-2.723568708429293e-01
1	 1.758096131778276e+00	 7.368086956037189e-01	-8.606351641817134e-02
1	 1.743026817074204e+00	 7.717814311392092e-01	 5.387943290537667e-02
1	 1.727201675083747e+00	 8.065751273610690e-01	 1.426968150446930e-01
1	 1.710622332797831e+00	 8.411660341572453e-01	 1.756840654842882e-01
1	 1.693291388014188e+00	 8.755303180123531e-01	 1.482283929218622e-01
1	 1.675212420703984e+00	 9.096441106249700e-01	 5.583005493830717e-02
1	 1.656390001504903e+00	 9.434835586179938e-01	-1.058764039084762e-01
1	 1.636829697237174e+00	 9.770248741466409e-01	-3.411010932531491e-01
1	 1.616538073354026e+00	 1.010244386198355e+00	-6.538780418312163e-01
1	 1.595522693254205e+00	 1.043118592369915e+00	-1.048044932011020e+00
1	 1.778220125770510e+00	 7.039811320600159e-01	-2.596696099373735e-01
1	 1.763860381389980e+00	 7.392244618211660e-01	-7.069334868376531e-02
1	 1.748741659096210e+00	 7.743118620634962e-01	 7.149129608087634e-02
1	 1.732864631393882e+00	 8.092196359779650e-01	 1.619924746785936e-01
1	 1.716230930608322e+00	 8.439239555832994e-01	 1.959892048211991e-01
1	 1.698843163054634e+00	 8.784009092214400e-01	 1.687530498745391e-01
1	 1.680704920441593e+00	 9.126265503342367e-01	 7.566990593530143e-02
1	 1.661820788392582e+00	 9.465769473367939e-01	-8.773824304936739e-02
1	 1.642196351979700e+00	 9.802282343913934e-01	-3.257917471209940e-01
1	 1.621838198182256e+00	 1.013556662875601e+00	-6.426320370138151e-01
1	 1.600753915197019e+00	 1.046538653329136e+00	-1.042200845124300e+00
1	 1.784031302652014e+00	 7.062817239969464e-01	-2.446748415934167e-01
1	 1.769624631001689e+00	 7.416402280386180e-01	-5.327992083547362e-02
1	 1.754456501118233e+00	 7.768422929878022e-01	 9.088549208053565e-02
1	 1.738527587704060e+00	 8.118641445949047e-01	 1.828133751215979e-01
1	 1.721839528418892e+00	 8.466818770094314e-01	 2.175668429338578e-01
1	 1.704394938095203e+00	 8.812715004306488e-01	 1.903023259192202e-01
1	 1.686197420179379e+00	 9.156089900436801e-01	 9.629186687913682e-02
1	 1.667251575280503e+00	 9.496703360558350e-01	-6.905460870278002e-02
1	 1.647563006722544e+00	 9.834315946364610e-01	-3.101671970442500e-01
1	 1.627138323010884e+00	 1.016868939553246e+00	-6.312942464395773e-01
1	 1.605985137140328e+00	 1.049958714288851e+00	-1.036481066531370e+00
1	 1.789842479533517e+00	 7.085823159338770e-01	-2.273950415329522e-01
1	 1.775388880613403e+00	 7.440559942560749e-01	-3.384313475780398e-02
1	 1.760171343140277e+00	 7.793727239121279e-01	 1.120446605192078e-01
1	 1.744190544014283e+00	 8.145086532118884e-01	 2.051446601313268e-01
1	 1.727448126229540e+00	 8.494397984356417e-01	 2.404045853526940e-01
1	 1.709946713135892e+00	 8.841420916399795e-01	 2.128662409985774e-01
1	 1.691689919917341e+00	 9.185914297532995e-01	 1.176883198142771e-01
1	 1.672682362168664e+00	 9.527637247751163e-01	-4.983081392392286e-02
1	 1.652929661465701e+00	 9.866349548818437e-01	-2.942305131931742e-01
1	 1.632438447839913e+00	 1.020181216231292e+00	-6.198655641278703e-01
1	 1.611216359084132e+00	 1.053378775249060e+00	-1.030884385439608e+00
1	 1.795653656415020e+00	 7.108829078708077e-01	-2.078523945300143e-01
1	 1.781153130225120e+00	 7.464717604735366e-01	-1.240263470569025e-02
1	 1.765886185162340e+00	 7.819031548364728e-01	 1.349516657416500e-01
1	 1.749853500324549e+00	 8.171531618289156e-01	 2.289716657792180e-01
1	 1.733056724040265e+00	 8.521977198619295e-01	 2.644901980543362e-01
1	 1.715498488176705e+00	 8.870126828494326e-01	 2.364349442469614e-01
1	 1.697182419655479e+00	 9.215738694630954e-01	 1.398517453994977e-01
1	 1.678113149057065e+00	 9.558571134946384e-01	-3.007210299058638e-02
1	 1.658296316209173e+00	 9.898383151275415e-01	-2.779847259947865e-01
1	 1.637738572669342e+00	 1.023493492909737e+00	-6.083468725249889e-01
1	 1.616447581028430e+00	 1.056798836209764e+00	-1.025409606730028e+00
1	 1.801464833296524e+00	 7.131834998077383e-01	-1.860687991034888e-01
1	 1.786917379836844e+00	 7.488875266910028e-01	 1.102218854018999e-02
1	 1.771601027184422e+00	 7.844335857608368e-01	 1.595895931978460e-01
1	 1.755516456634858e+00	 8.197976704459864e-01	 2.542799173486879e-01
1	 1.738665321851069e+00	 8.549556412882953e-01	 2.898116048737803e-01
1	 1.721050263217639e+00	 8.898832740590076e-01	 2.609987119066574e-01
1	 1.702674919393794e+00	 9.245563091730674e-01	 1.627747213173530e-01
1	 1.683543935945708e+00	 9.589505022144015e-01	-9.783652512459051e-03
1	 1.663662970952961e+00	 9.930416753735546e-01	-2.614328267737848e-01
1	 1.643038697499170e+00	 1.026805769588582e+00	-5.967390426907621e-01
1	 1.621678802973224e+00	 1.060218897170963e+00	-1.020055550704658e+00
1	 1.569366583547552e+00	 1.026018287581235e+00	-1.079173498665811e+00
1	 1.547992243692877e+00	 1.057991027122759e+00	-1.915279679237549e+00
1	 1.525923817606285e+00	 1.089578589577796e+00	-2.730478248504062e+00
1	 1.503171653821628e+00	 1.120758662313480e+00	-3.520151259769253e+00
1	 1.479747048068646e+00	 1.151509302496042e+00	-4.279753364115560e+00
1	 1.455662226709656e+00	 1.181808986991081e+00	-5.004831075664828e+00
1	 1.430930327038606e+00	 1.211636661364681e+00	-5.691041736959817e+00
1	 1.405565374500522e+00	 1.240971787756141e+00	-6.334172054887978e+00
1	 1.379582256908508e+00	 1.269794391397488e+00	-6.930156079703291e+00
1	 1.352996695754110e+00	 1.298085105561136e+00	-7.475092503169831e+00
1	 1.325825214725000e+00	 1.325825214725000e+00	-7.965261156617137e+00
1	 1.574597805487893e+00	 1.029438348537982e+00	-1.072689141507236e+00
1	 1.553152217833412e+00	 1.061517663876921e+00	-1.895318128327030e+00
1	 1.531010230326257e+00	 1.093210518205870e+00	-2.696471991046643e+00
1	 1.508182225995395e+00	 1.124494524516523e+00	-3.471501846248604e+00
1	 1.484679538222997e+00	 1.155347666832333e+00	-4.215833924636796e+00
1	 1.460514434125924e+00	 1.185748350275118e+00	-4.924989007812690e+00
1	 1.435700094789103e+00	 1.215675450229516e+00	-5.594601552297355e+00
1	 1.410250592409043e+00	 1.245108360375293e+00	-6.220438369940753e+00
1	 1.384180864424891e+00	 1.274027039361914e+00	-6.798416736102642e+00
1	 1.357506684733166e+00	 1.302412055906035e+00	-7.324621800573639e+00
1	 1.330244632100500e+00	 1.330244632100500e+00	-7.795323181101539e+00
1	 1.579829027428729e+00	 1.032858409495223e+00	-1.066335390914767e+00
1	 1.558312191974536e+00	 1.065044300631672e+00	-1.875421411436717e+00
1	 1.536096643046904e+00	 1.096842446834620e+00	-2.662469228456116e+00
1	 1.513192798169912e+00	 1.128230386720318e+00	-3.422799163107598e+00
1	 1.489612028378167e+00	 1.159186031169442e+00	-4.151809156397231e+00
1	 1.465366641543066e+00	 1.189687713560029e+00	-4.844994376929304e+00
1	 1.440469862540519e+00	 1.219714239095272e+00	-5.497966503051533e+00
1	 1.414935810318517e+00	 1.249244932995399e+00	-6.106472547284508e+00
1	 1.388779471942253e+00	 1.278259687327319e+00	-6.666413093251750e+00
1	 1.362016673713218e+00	 1.306739006251930e+00	-7.173859819025204e+00
1	 1.334664049477000e+00	 1.334664049477000e+00	-7.625072185831937e+00
1	 1.585060249370059e+00	 1.036278470452959e+00	-1.060110953756498e+00
1	 1.563472166116250e+00	 1.068570937387013e+00	-1.855588886647877e+00
1	 1.541183055768226e+00	 1.100474375464045e+00	-2.628469926131983e+00
1	 1.518203370345182e+00	 1.131966248924864e+00	-3.374043737770245e+00
1	 1.494544518534152e+00	 1.163024395507367e+00	-4.087680102257623e+00
1	 1.470218848961080e+00	 1.193627076845812e+00	-4.764848693541356e+00
1	 1.445239630292853e+00	 1.223753027961944e+00	-5.401138518576066e+00
1	 1.419621028228946e+00	 1.253381505616459e+00	-5.992276885313836e+00
1	 1.393378079460596e+00	 1.282492335293705e+00	-6.534147767976081e+00
1	 1.366526662694264e+00	 1.311065956598820e+00	-7.022809442475651e+00
1	 1.339083466854500e+00	 1.339083466854500e+00	-7.454511270014760e+00
1	 1.590291471311884e+00	 1.039698531411190e+00	-1.054014553915596e+00
1	 1.568632140258553e+00	 1.072097574142944e+00	-1.835819920488130e+00
1	 1.546269468490224e+00	 1.104106304094145e+00	-2.594474049929004e+00
1	 1.523213942521202e+00	 1.135702111130161e+00	-3.325236090720631e+00
1	 1.499477008690954e+00	 1.166862759846109e+00	-4.023447791357096e+00
1	 1.475071056379967e+00	 1.197566440132467e+00	-4.684553448300147e+00
1	 1.450009398046105e+00	 1.227791816829535e+00	-5.304119502838543e+00
1	 1.424306246140329e+00	 1.257518078238474e+00	-5.877853652181122e+00
1	 1.397976686979918e+00	 1.286724983261070e+00	-6.401623342669064e+00
1	 1.371036651676306e+00	 1.315392906946705e+00	-6.871473516929134e+00
1	 1.343502884233000e+00	 1.343502884233000e+00	-7.283643492077271e+00
1	 1.595522693254205e+00	 1.043118592369915e+00	-1.048044932011020e+00
1	 1.573792114401447e+00	 1.075624210899465e+00	-1.816113887792924e+00
1	 1.551355881212897e+00	 1.107738232724921e+00	-2.560481566149753e+00
1	 1.528224514697972e+00	 1.139437973336209e+00	-3.276376735616995e+00
1	 1.504409498848574e+00	 1.170701124185668e+00	-3.959113239337630e+00
1	 1.479923263799726e+00	 1.201505803419995e+00	-4.604110112307614e+00
1	 1.454779165800276e+00	 1.231830605698046e+00	-5.206911334836463e+00
1	 1.428991464052666e+00	 1.261654650861442e+00	-5.763205086292600e+00
1	 1.402575294500219e+00	 1.290957631229414e+00	-6.268842365856878e+00
1	 1.375546640659342e+00	 1.319719857295584e+00	-6.719854851065547e+00
1	 1.347922301612500e+00	 1.347922301612499e+00	-7.112471870336201e+00
1	 1.600753915197019e+00	 1.046538653329136e+00	-1.042200845124300e+00
1	 1.578952088544930e+00	 1.079150847656575e+00	-1.796470171569825e+00
1	 1.556442293936245e+00	 1.111370161356372e+00	-2.526492441537344e+00
1	 1.533235086875494e+00	 1.143173835543007e+00	-3.227466179402918e+00
1	 1.509341989007010e+00	 1.174539488526044e+00	-3.894677448564994e+00
1	 1.484775471220358e+00	 1.205445166708396e+00	-4.523520137435435e+00
1	 1.459548933555365e+00	 1.235869394567474e+00	-5.109515869005372e+00
1	 1.433676681965957e+00	 1.265791223485364e+00	-5.648333396794257e+00
1	 1.407173902021500e+00	 1.295190279198738e+00	-6.135807352751486e+00
1	 1.380056629643373e+00	 1.324046807645458e+00	-6.567956216849673e+00
1	 1.352341718993000e+00	 1.352341718993000e+00	-6.940999383653305e+00
1	 1.605985137140328e+00	 1.049958714288851e+00	-1.036481066531370e+00
1	 1.584112062689004e+00	 1.082677484414276e+00	-1.776888162865361e+00
1	 1.561528706660269e+00	 1.115002089988499e+00	-2.492506643268082e+00
1	 1.538245659053767e+00	 1.146909697750558e+00	-3.178504922416964e+00
1	 1.514274479166263e+00	 1.178377852867237e+00	-3.830141408344673e+00
1	 1.489627678641863e+00	 1.209384529997670e+00	-4.442784956638465e+00
1	 1.464318701311373e+00	 1.239908183437820e+00	-5.011934935618571e+00
1	 1.438361899880201e+00	 1.269927796110241e+00	-5.533240764048391e+00
1	 1.411772509543760e+00	 1.299422927169041e+00	-6.002520785793329e+00
1	 1.384566618628399e+00	 1.328373757996328e+00	-6.415780350129532e+00
1	 1.356761136374500e+00	 1.356761136374500e+00	-6.769228972077620e+00
1	 1.611216359084132e+00	 1.053378775249060e+00	-1.030884385439608e+00
1	 1.589272036833667e+00	 1.086204121172566e+00	-1.757367260634533e+00
1	 1.566615119384969e+00	 1.118634018621301e+00	-2.458524138944680e+00
1	 1.543256231232791e+00	 1.150645559958859e+00	-3.129493458499769e+00
1	 1.519206969326333e+00	 1.182216217209246e+00	-3.765506095134174e+00
1	 1.494479886064241e+00	 1.213323893287817e+00	-4.361905984261836e+00
1	 1.469088469068299e+00	 1.243946972309086e+00	-4.914170341179743e+00
1	 1.443047117795401e+00	 1.274064368736072e+00	-5.417929340101003e+00
1	 1.416371117067001e+00	 1.303655575140325e+00	-5.868985115183504e+00
1	 1.389076607614419e+00	 1.332700708348192e+00	-6.263329951222788e+00
1	 1.361180553757000e+00	 1.361180553757000e+00	-6.597163537475864e+00
1	 1.616447581028430e+00	 1.056798836209764e+00	-1.025409606730028e+00
1	 1.594432010978921e+00	 1.089730757931447e+00	-1.737906871612879e+00
1	 1.571701532110344e+00	 1.122265947254778e+00	-2.424544896589196e+00
1	 1.548266803412566e+00	 1.154381422167911e+00	-3.080432275099220e+00
1	 1.524139459487220e+00	 1.186054581552073e+00	-3.700772472750659e+00
1	 1.499332093487491e+00	 1.217263256578835e+00	-4.280884616341862e+00
1	 1.473858236826143e+00	 1.247985761181269e+00	-4.816223868807389e+00
1	 1.447732335711554e+00	 1.278200941362856e+00	-5.302401249139752e+00
1	 1.420969724591221e+00	 1.307888223112588e+00	-5.735202759405203e+00
1	 1.393586596601435e+00	 1.337027658701051e+00	-6.110607685491433e+00
1	 1.365599971140500e+00	 1.365599971140500e+00	-6.424805944150046e+00
1	 1.621678802973224e+00	 1.060218897170963e+00	-1.020055550704658e+00
1	 1.599591985124764e+00	 1.093257394690917e+00	-1.718506410190977e+00
1	 1.576787944836393e+00	 1.125897875888930e+00	-2.390568884636234e+00
1	 1.553277375593093e+00	 1.158117284377714e+00	-3.031321853373502e+00
1	 1.529071949648924e+00	 1.189892945895716e+00	-3.635941492575044e+00
1	 1.504184300911613e+00	 1.221202619870727e+00	-4.199722230901509e+00
1	 1.478628004584906e+00	 1.252024550054371e+00	-4.718097278611948e+00
1	 1.452417553628661e+00	 1.282337513990595e+00	-5.186658587943491e+00
1	 1.425568332116420e+00	 1.312120871085830e+00	-5.601176105735332e+00
1	 1.398096585589446e+00	 1.341354609054905e+00	-5.957616183905769e+00
1	 1.370019388525000e+00	 1.370019388525000e+00	-6.252159019443506e+00
1	 1.325825214725000e+00	 1.325825214725000e+00	-7.965261156617137e+00
1	 1.298085105561136e+00	 1.352996695754110e+00	-8.399272063328340e+00
1	 1.269794391397488e+00	 1.379582256908508e+00	-8.802785371260331e+00
1	 1.240971787756141e+00	 1.405565374500522e+00	-9.173143361638692e+00
1	 1.211636661364681e+00	 1.430930327038606e+00	-9.507809490357737e+00
1	 1.181808986991081e+00	 1.455662226709656e+00	-9.804378317446067e+00
1	 1.151509302496042e+00	 1.479747048068645e+00	-1.006058470747480e+01
1	 1.120758662313480e+00	 1.503171653821628e+00	-1.027431224454993e+01
1	 1.089578589577797e+00	 1.525923817606285e+00	-1.044360081244561e+01
1	 1.057991027122760e+00	 1.547992243692877e+00	-1.056665329779572e+01
1	 1.026018287581235e+00	 1.569366583547552e+00	-1.064184138194765e+01
1	 1.330244632100500e+00	 1.330244632100500e+00	-7.795323181101539e+00
1	 1.302412055906035e+00	 1.357506684733167e+00	-8.211575301135127e+00
1	 1.274027039361914e+00	 1.384180864424891e+00	-8.598374203279167e+00
1	 1.245108360375293e+00	 1.410250592409042e+00	-8.953074653910722e+00
1	 1.215675450229517e+00	 1.435700094789103e+00	-9.273148910922050e+00
1	 1.185748350275119e+00	 1.460514434125925e+00	-9.556196649415687e+00
1	 1.155347666832334e+00	 1.484679538222997e+00	-9.799954177504784e+00
1	 1.124494524516524e+00	 1.508182225995395e+00	-1.000230288559263e+01
1	 1.093210518205872e+00	 1.531010230326256e+00	-1.016127687927743e+01
1	 1.061517663876921e+00	 1.553152217833411e+00	-1.027506975322899e+01
1	 1.029438348537982e+00	 1.574597805487893e+00	-1.034204047094189e+01
1	 1.334664049477000e+00	 1.334664049477000e+00	-7.625072185831937e+00
1	 1.306739006251931e+00	 1.362016673713218e+00	-8.023599918500445e+00
1	 1.278259687327319e+00	 1.388779471942253e+00	-8.393712302829094e+00
1	 1.249244932995399e+00	 1.414935810318518e+00	-8.732776542861359e+00
1	 1.219714239095272e+00	 1.440469862540518e+00	-9.038273667941091e+00
1	 1.189687713560029e+00	 1.465366641543066e+00	-9.307808454694475e+00
1	 1.159186031169442e+00	 1.489612028378166e+00	-9.539118658195175e+00
1	 1.128230386720319e+00	 1.513192798169912e+00	-9.730083495425957e+00
1	 1.096842446834621e+00	 1.536096643046904e+00	-9.878731330765206e+00
1	 1.065044300631673e+00	 1.558312191974535e+00	-9.983246520285784e+00
1	 1.032858409495223e+00	 1.579829027428729e+00	-1.004197537906633e+01
1	 1.339083466854500e+00	 1.339083466854500e+00	-7.454511270014760e+00
1	 1.311065956598820e+00	 1.366526662694264e+00	-7.835348674043148e+00
1	 1.282492335293705e+00	 1.393378079460596e+00	-8.188802152410425e+00
1	 1.253381505616459e+00	 1.419621028228945e+00	-8.512251299810950e+00
1	 1.223753027961944e+00	 1.445239630292852e+00	-8.803185886796676e+00
1	 1.193627076845812e+00	 1.470218848961080e+00	-9.059215778101134e+00
1	 1.163024395507368e+00	 1.494544518534152e+00	-9.278080179143508e+00
1	 1.131966248924865e+00	 1.518203370345181e+00	-9.457656153566351e+00
1	 1.100474375464046e+00	 1.541183055768225e+00	-9.595966361119610e+00
1	 1.068570937387014e+00	 1.563472166116249e+00	-9.691185972117692e+00
1	 1.036278470452959e+00	 1.585060249370060e+00	-9.741648721971906e+00
1	 1.343502884233000e+00	 1.343502884233000e+00	-7.283643492077271e+00
1	 1.315392906946705e+00	 1.371036651676306e+00	-7.646824290084461e+00
1	 1.286724983261070e+00	 1.397976686979918e+00	-7.983646201858773e+00
1	 1.257518078238473e+00	 1.424306246140329e+00	-8.291501166193893e+00
1	 1.227791816829536e+00	 1.450009398046105e+00	-8.567887664905097e+00
1	 1.197566440132468e+00	 1.475071056379966e+00	-8.810420637548656e+00
1	 1.166862759846110e+00	 1.499477008690954e+00	-9.016840743241465e+00
1	 1.135702111130161e+00	 1.523213942521201e+00	-9.185022912168312e+00
1	 1.104106304094146e+00	 1.546269468490223e+00	-9.312984135680200e+00
1	 1.072097574142945e+00	 1.568632140258553e+00	-9.398890450650338e+00
1	 1.039698531411190e+00	 1.590291471311884e+00	-9.441063080893512e+00
1	 1.347922301612500e+00	 1.347922301612499e+00	-7.112471870336201e+00
1	 1.319719857295584e+00	 1.375546640659342e+00	-7.458029453243235e+00
1	 1.290957631229414e+00	 1.402575294500219e+00	-7.778246868880863e+00
1	 1.261654650861442e+00	 1.428991464052666e+00	-8.070528354049067e+00
1	 1.231830605698046e+00	 1.454779165800276e+00	-8.332381072175295e+00
1	 1.201505803419996e+00	 1.479923263799726e+00	-8.561425024485903e+00
1	 1.170701124185669e+00	 1.504409498848574e+00	-8.755402327113627e+00
1	 1.139437973336209e+00	 1.528224514697972e+00	-8.912185796472688e+00
1	 1.107738232724922e+00	 1.551355881212896e+00	-9.029786791388508e+00
1	 1.075624210899465e+00	 1.573792114401447e+00	-9.106362267095635e+00
1	 1.043118592369915e+00	 1.595522693254204e+00	-9.140221003213384e+00
1	 1.352341718993000e+00	 1.352341718993000e+00	-6.940999383653305e+00
1	 1.324046807645458e+00	 1.380056629643373e+00	-7.268966815018867e+00
1	 1.295190279198738e+00	 1.407173902021500e+00	-7.572606539579495e+00
1	 1.265791223485365e+00	 1.433676681965957e+00	-7.849335046499450e+00
1	 1.235869394567474e+00	 1.459548933555365e+00	-8.096668151458935e+00
1	 1.205445166708397e+00	 1.484775471220358e+00	-8.312230904329509e+00
1	 1.174539488526045e+00	 1.509341989007009e+00	-8.493766881546364e+00
1	 1.143173835543009e+00	 1.533235086875494e+00	-8.639146805246705e+00
1	 1.111370161356373e+00	 1.556442293936245e+00	-8.746376437252328e+00
1	 1.079150847656576e+00	 1.578952088544930e+00	-8.813603702453605e+00
1	 1.046538653329136e+00	 1.600753915197019e+00	-8.839125003014853e+00
1	 1.356761136374500e+00	 1.356761136374500e+00	-6.769228972077620e+00
1	 1.328373757996328e+00	 1.384566618628399e+00	-7.079638992363679e+00
1	 1.299422927169041e+00	 1.411772509543760e+00	-7.366727568967916e+00
1	 1.269927796110242e+00	 1.438361899880202e+00	-7.627923398223621e+00
1	 1.239908183437821e+00	 1.464318701311372e+00	-7.860750918990409e+00
1	 1.209384529997671e+00	 1.489627678641863e+00	-8.062840216888130e+00
1	 1.178377852867237e+00	 1.514274479166263e+00	-8.231936331908397e+00
1	 1.146909697750558e+00	 1.538245659053767e+00	-8.365907911214951e+00
1	 1.115002089988500e+00	 1.561528706660269e+00	-8.462755154800304e+00
1	 1.082677484414277e+00	 1.584112062689003e+00	-8.520617008004550e+00
1	 1.049958714288851e+00	 1.605985137140328e+00	-8.537777561624500e+00
1	 1.361180553757000e+00	 1.361180553757000e+00	-6.597163537475864e+00
1	 1.332700708348191e+00	 1.389076607614420e+00	-6.890048568243589e+00
1	 1.303655575140325e+00	 1.416371117067001e+00	-7.160612281475084e+00
1	 1.274064368736072e+00	 1.443047117795401e+00	-7.406295535917244e+00
1	 1.243946972309086e+00	 1.469088469068298e+00	-7.624631364819519e+00
1	 1.213323893287817e+00	 1.494479886064240e+00	-7.813254876778173e+00
1	 1.182216217209247e+00	 1.519206969326333e+00	-7.969912578563920e+00
1	 1.150645559958859e+00	 1.543256231232791e+00	-8.092471061482273e+00
1	 1.118634018621301e+00	 1.566615119384968e+00	-8.178924998528579e+00
1	 1.086204121172567e+00	 1.589272036833667e+00	-8.227404405791026e+00
1	 1.053378775249060e+00	 1.611216359084132e+00	-8.236181128143766e+00
1	 1.365599971140500e+00	 1.365599971140500e+00	-6.424805944150046e+00
1	 1.337027658701051e+00	 1.393586596601436e+00	-6.700198092187984e+00
1	 1.307888223112588e+00	 1.420969724591221e+00	-6.954262971440055e+00
1	 1.278200941362857e+00	 1.447732335711554e+00	-7.184453558746024e+00
1	 1.247985761181269e+00	 1.473858236826143e+00	-7.388311453234613e+00
1	 1.217263256578836e+00	 1.499332093487490e+00	-7.563476773831289e+00
1	 1.186054581552073e+00	 1.524139459487219e+00	-7.707697497276856e+00
1	 1.154381422167912e+00	 1.548266803412566e+00	-7.818838177948201e+00
1	 1.122265947254778e+00	 1.571701532110343e+00	-7.894887996337593e+00
1	 1.089730757931448e+00	 1.594432010978920e+00	-7.933968089091555e+00
1	 1.056798836209764e+00	 1.616447581028431e+00	-7.934338119970452e+00
1	 1.370019388525000e+00	 1.370019388525000e+00	-6.252159019443506e+00
1	 1.341354609054905e+00	 1.398096585589446e+00	-6.510090080829187e+00
1	 1.312120871085830e+00	 1.425568332116420e+00	-6.747681903597701e+00
1	 1.282337513990595e+00	 1.452417553628662e+00	-6.962399538789517e+00
1	 1.252024550054371e+00	 1.478628004584906e+00	-7.151793123178534e+00
1	 1.221202619870727e+00	 1.504184300911613e+00	-7.313507773494299e+00
1	 1.189892945895717e+00	 1.529071949648923e+00	-7.445292939607556e+00
1	 1.158117284377715e+00	 1.553277375593092e+00	-7.545011157713692e+00
1	 1.125897875888931e+00	 1.576787944836393e+00	-7.610646149961421e+00
1	 1.093257394690918e+00	 1.599591985124763e+00	-7.640310222884242e+00
1	 1.060218897170963e+00	 1.621678802973224e+00	-7.632250923310391e+00
1	 1.026018287581235e+00	 1.569366583547552e+00	-1.064184138194765e+01
1	 9.936830028181231e-01	 1.590037449218878e+00	-1.054586589882240e+01
1	 9.610080729276056e-01	 1.609996423529265e+00	-1.044405253026375e+01
1	 9.280166150276021e-01	 1.629236067070115e+00	-1.033699576045190e+01
1	 8.947319120812797e-01	 1.647749922018582e+00	-1.022528180925817e+01
1	 8.611773619687507e-01	 1.665532512813788e+00	-1.010948663182205e+01
1	 8.273764270281423e-01	 1.682579343746540e+00	-9.990174027509610e+00
1	 7.933525842772433e-01	 1.698886893533727e+00	-9.867893867116228e+00
1	 7.591292765180656e-01	 1.714452606964470e+00	-9.743180445949553e+00
1	 7.247298645165563e-01	 1.729274883719828e+00	-9.616550969164640e+00
1	 6.901775804384324e-01	 1.743353064481490e+00	-9.488504174448474e+00
1	 1.029438348537982e+00	 1.574597805487893e+00	-1.034204047094189e+01
1	 9.969952794933697e-01	 1.595337574045108e+00	-1.024299715004484e+01
1	 9.642114331707825e-01	 1.615363078270216e+00	-1.013612766438760e+01
1	 9.311100037451990e-01	 1.634666853956591e+00	-1.002198062761281e+01
1	 8.977143517896651e-01	 1.653242421755309e+00	-9.901104809447558e+00
1	 8.640479531772270e-01	 1.671084287853624e+00	-9.774047154077699e+00
1	 8.301343484538072e-01	 1.688187941556642e+00	-9.641350863411263e+00
1	 7.959970928939213e-01	 1.704549849843644e+00	-9.503553555286599e+00
1	 7.616597074422556e-01	 1.720167448986378e+00	-9.361185505774024e+00
1	 7.271456307339794e-01	 1.735039133331508e+00	-9.214767983751749e+00
1	 6.924781723753631e-01	 1.749164241362994e+00	-9.064811684927513e+00
1	 1.032858409495223e+00	 1.579829027428729e+00	-1.004197537906633e+01
1	 1.000307556169016e+00	 1.600637698871738e+00	-9.939677604535635e+00
1	 9.674147934142741e-01	 1.620729733011482e+00	-9.827579192584706e+00
1	 9.342033924630371e-01	 1.640097640843308e+00	-9.706183110525952e+00
1	 9.006967914982269e-01	 1.658734921492213e+00	-9.576000864276351e+00
1	 8.669185443858256e-01	 1.676636062893581e+00	-9.437550535457177e+00
1	 8.328922698795500e-01	 1.693796539366822e+00	-9.291354839069800e+00
1	 7.986416015106429e-01	 1.710212806153604e+00	-9.137939212992185e+00
1	 7.641901383664652e-01	 1.725882291008305e+00	-8.977829949950163e+00
1	 7.295613969514073e-01	 1.740803382943193e+00	-8.811552381946266e+00
1	 6.947787643122936e-01	 1.754975418244497e+00	-8.639629126385346e+00
1	 1.036278470452959e+00	 1.585060249370060e+00	-9.741648721971906e+00
1	 1.003619832845063e+00	 1.605937823698767e+00	-9.635911725627656e+00
1	 9.706181536580814e-01	 1.626096387753065e+00	-9.518413289170098e+00
1	 9.372967811811151e-01	 1.645528427730266e+00	-9.389610955569196e+00
1	 9.036792312069651e-01	 1.664227421229294e+00	-9.249979151420852e+00
1	 8.697891355945462e-01	 1.682187837933661e+00	-9.100007242701215e+00
1	 8.356501913053709e-01	 1.699405137177081e+00	-8.940197566962334e+00
1	 8.012861101274084e-01	 1.715875762463608e+00	-8.771063454395572e+00
1	 7.667205692906942e-01	 1.731597133030252e+00	-8.593127249919741e+00
1	 7.319771631688402e-01	 1.746567632554882e+00	-8.406918348068917e+00
1	 6.970793562492242e-01	 1.760786595126000e+00	-8.212971251980555e+00
1	 1.039698531411190e+00	 1.590291471311884e+00	-9.441063080893512e+00
1	 1.006932109521509e+00	 1.611237948526197e+00	-9.331703917925868e+00
1	 9.738215139022037e-01	 1.631463042494962e+00	-9.208636047217986e+00
1	 9.403901698994342e-01	 1.650959214617464e+00	-9.072271807194403e+00
1	 9.066616709158793e-01	 1.669719920966551e+00	-8.923048727798079e+00
1	 8.726597268033890e-01	 1.687739612973863e+00	-8.761427604830166e+00
1	 8.384081127312694e-01	 1.705013734987417e+00	-8.587890506770162e+00
1	 8.039306187442171e-01	 1.721538718773655e+00	-8.402938727683678e+00
1	 7.692510002149425e-01	 1.737311975052219e+00	-8.207090699868800e+00
1	 7.343929293862776e-01	 1.752331882166576e+00	-8.000879879804332e+00
1	 6.993799481861548e-01	 1.766597772007503e+00	-7.784852620751380e+00
1	 1.043118592369915e+00	 1.595522693254204e+00	-9.140221003213384e+00
1	 1.010244386198355e+00	 1.616538073354026e+00	-9.027058528269894e+00
1	 9.770248741466410e-01	 1.636829697237174e+00	-8.898253479893484e+00
1	 9.434835586179938e-01	 1.656390001504903e+00	-8.754173209598182e+00
1	 9.096441106249700e-01	 1.675212420703983e+00	-8.595218531545985e+00
1	 8.755303180123537e-01	 1.693291388014188e+00	-8.421821815401923e+00
1	 8.411660341572458e-01	 1.710622332797830e+00	-8.234444967883732e+00
1	 8.065751273610696e-01	 1.727201675083747e+00	-8.033577317788195e+00
1	 7.717814311392101e-01	 1.743026817074204e+00	-7.819733419633288e+00
1	 7.368086956037200e-01	 1.758096131778275e+00	-7.593450791261241e+00
1	 7.016805401230853e-01	 1.772408948889007e+00	-7.355287600797775e+00
1	 1.046538653329136e+00	 1.600753915197019e+00	-8.839125003014853e+00
1	 1.013556662875601e+00	 1.621838198182255e+00	-8.721979846677979e+00
1	 9.802282343913934e-01	 1.642196351979701e+00	-8.587271521758028e+00
1	 9.465769473367940e-01	 1.661820788392583e+00	-8.435322608360387e+00
1	 9.126265503342368e-01	 1.680704920441593e+00	-8.266497383964198e+00
1	 8.784009092214405e-01	 1.698843163054634e+00	-8.081199934725200e+00
1	 8.439239555833000e-01	 1.716230930608323e+00	-7.879872111858456e+00
1	 8.092196359779656e-01	 1.732864631393881e+00	-7.662991349053808e+00
1	 7.743118620634970e-01	 1.748741659096209e+00	-7.431068357548078e+00
1	 7.392244618211672e-01	 1.763860381389979e+00	-7.184644715971654e+00
1	 7.039811320600158e-01	 1.778220125770510e+00	-6.924290372401426e+00
1	 1.049958714288851e+00	 1.605985137140328e+00	-8.537777561624500e+00
1	 1.016868939553246e+00	 1.627138323010885e+00	-8.416472107272106e+00
1	 9.834315946364612e-01	 1.647563006722544e+00	-8.275696030050124e+00
1	 9.496703360558351e-01	 1.667251575280503e+00	-8.115727352049905e+00
1	 9.156089900436801e-01	 1.686197420179379e+00	-7.936893991416725e+00
1	 8.812715004306494e-01	 1.704394938095202e+00	-7.739571892029872e+00
1	 8.466818770094322e-01	 1.721839528418892e+00	-7.524182954822097e+00
1	 8.118641445949056e-01	 1.738527587704060e+00	-7.291192787853010e+00
1	 7.768422929878033e-01	 1.754456501118233e+00	-7.041108293240183e+00
1	 7.416402280386193e-01	 1.769624631001688e+00	-6.774475109832099e+00
1	 7.062817239969467e-01	 1.784031302652014e+00	-6.491874931084614e+00
1	 1.053378775249060e+00	 1.611216359084132e+00	-8.236181128143766e+00
1	 1.020181216231292e+00	 1.632438447839913e+00	-8.110539489186085e+00
1	 9.866349548818437e-01	 1.652929661465701e+00	-7.963532785939804e+00
1	 9.527637247751165e-01	 1.672682362168664e+00	-7.795394693799853e+00
1	 9.185914297532997e-01	 1.691689919917341e+00	-7.606416947197882e+00
1	 8.841420916399799e-01	 1.709946713135892e+00	-7.396947487594607e+00
1	 8.494397984356421e-01	 1.727448126229540e+00	-7.167388369835983e+00
1	 8.145086532118893e-01	 1.744190544014283e+00	-6.918193445151115e+00
1	 7.793727239121288e-01	 1.760171343140276e+00	-6.649865840367309e+00
1	 7.440559942560760e-01	 1.775388880613402e+00	-6.362955253986978e+00
1	 7.085823159338770e-01	 1.789842479533517e+00	-6.058055090609600e+00
1	 1.056798836209764e+00	 1.616447581028431e+00	-7.934338119970452e+00
1	 1.023493492909737e+00	 1.637738572669342e+00	-7.804186117454568e+00
1	 9.898383151275414e-01	 1.658296316209173e+00	-7.650787495760294e+00
1	 9.558571134946384e-01	 1.678113149057065e+00	-7.474331792851456e+00
1	 9.215738694630955e-01	 1.697182419655479e+00	-7.275074733362080e+00
1	 8.870126828494330e-01	 1.715498488176704e+00	-7.053336394833817e+00
1	 8.521977198619303e-01	 1.733056724040265e+00	-6.809499089209809e+00
1	 8.171531618289163e-01	 1.749853500324548e+00	-6.544004979020542e+00
1	 7.819031548364739e-01	 1.765886185162340e+00	-6.257353449303613e+00
1	 7.464717604735375e-01	 1.781153130225120e+00	-5.950098257656709e+00
1	 7.108829078708077e-01	 1.795653656415020e+00	-5.622844485919783e+00
1	 1.060218897170963e+00	 1.621678802973224e+00	-7.632250923310391e+00
1	 1.026805769588582e+00	 1.643038697499170e+00	-7.497416063886073e+00
1	 9.930416753735546e-01	 1.663662970952961e+00	-7.337465792214566e+00
1	 9.589505022144016e-01	 1.683543935945708e+00	-7.152545716068745e+00
1	 9.245563091730679e-01	 1.702674919393794e+00	-6.942875722517817e+00
1	 8.898832740590080e-01	 1.721050263217639e+00	-6.708748162343558e+00
1	 8.549556412882957e-01	 1.738665321851068e+00	-6.450525706771804e+00
1	 8.197976704459873e-01	 1.755516456634858e+00	-6.168638897106870e+00
1	 7.844335857608379e-01	 1.771601027184422e+00	-5.863583409773296e+00
1	 7.488875266910041e-01	 1.786917379836844e+00	-5.535917060910339e+00
1	 7.131834998077382e-01	 1.801464833296524e+00	-5.186256576023637e+00
1	 6.901775804384324e-01	 1.743353064481490e+00	-9.488504174448474e+00
1	 6.554954827093095e-01	 1.756687414457829e+00	-9.248540156985866e+00
1	 6.207064124565543e-01	 1.769279104464112e+00	-9.058725546671697e+00
1	 5.858329516733880e-01	 1.781130189706590e+00	-8.920584877129262e+00
1	 5.508973832317466e-01	 1.792243586428243e+00	-8.835419681976930e+00
1	 5.159216528584857e-01	 1.802623046577535e+00	-8.804310075226104e+00
1	 4.809273331721702e-01	 1.812273130669467e+00	-8.828117373750475e+00
1	 4.459355898632527e-01	 1.821199179011433e+00	-8.907487704799280e+00
1	 4.109671500854213e-01	 1.829407281468920e+00	-9.042856536445887e+00
1	 3.760422731110546e-01	 1.836904245947212e+00	-9.234454064612956e+00
1	 3.411807232891650e-01	 1.843697565765152e+00	-9.482311386906348e+00
1	 6.924781723753631e-01	 1.749164241362994e+00	-9.064811684927513e+00
1	 6.576804676535433e-01	 1.762543039173170e+00	-8.810317593448707e+00
1	 6.227754338330800e-01	 1.775176701479960e+00	-8.611610913425656e+00
1	 5.877857281805032e-01	 1.787067290340301e+00	-8.470289074994252e+00
1	 5.527337078439887e-01	 1.798217731717985e+00	-8.387703771753269e+00
1	 5.176413917028136e-01	 1.808631790067972e+00	-8.364963028959318e+00
1	 4.825304242842708e-01	 1.818314041106981e+00	-8.402934407916433e+00
1	 4.474220418311129e-01	 1.827269842943432e+00	-8.502249282216928e+00
1	 4.123370405875398e-01	 1.835505305742364e+00	-8.663308116055289e+00
1	 3.772957473568365e-01	 1.843027260102081e+00	-8.886286670334250e+00
1	 3.423179923691778e-01	 1.849843224319159e+00	-9.171143058695066e+00
1	 6.947787643122936e-01	 1.754975418244497e+00	-8.639629126385346e+00
1	 6.598654525977720e-01	 1.768398663888512e+00	-8.371026481503369e+00
1	 6.248444552095840e-01	 1.781074298495808e+00	-8.163810658548185e+00
1	 5.897385046875706e-01	 1.793004390974013e+00	-8.019651811932661e+00
1	 5.545700324561459e-01	 1.804191877007728e+00	-7.939951719573702e+00
1	 5.193611305470094e-01	 1.814640533558410e+00	-7.925846336596132e+00
1	 4.841335153961819e-01	 1.824354951544495e+00	-7.978209579006311e+00
1	 4.489084937987169e-01	 1.833340506875430e+00	-8.097658265700261e+00
1	 4.137069310893252e-01	 1.841603330015809e+00	-8.284558141392857e+00
1	 3.785492216021991e-01	 1.849150274256952e+00	-8.539030898290367e+00
1	 3.434552614486758e-01	 1.855988882873165e+00	-8.860962110572775e+00
1	 6.970793562492242e-01	 1.760786595126000e+00	-8.212971251980555e+00
1	 6.620504375419951e-01	 1.774254288603853e+00	-7.930677400837004e+00
1	 6.269134765860668e-01	 1.786971895511656e+00	-7.715331570372015e+00
1	 5.916912811945897e-01	 1.798941491607724e+00	-7.568676468745617e+00
1	 5.564063570682178e-01	 1.810166022297470e+00	-7.492163883279132e+00
1	 5.210808693910731e-01	 1.820649277048847e+00	-7.486957717404572e+00
1	 4.857366065079035e-01	 1.830395861982009e+00	-7.553938351010468e+00
1	 4.503949457660643e-01	 1.839411170807429e+00	-7.693708245287607e+00
1	 4.150768215907774e-01	 1.847701354289253e+00	-7.906598707054287e+00
1	 3.798026958471424e-01	 1.855273288411821e+00	-8.192677722516880e+00
1	 3.445925305276593e-01	 1.862134541427171e+00	-8.551758766497080e+00
1	 6.993799481861548e-01	 1.766597772007503e+00	-7.784852620751380e+00
1	 6.642354224862130e-01	 1.780109913319195e+00	-7.489280791930402e+00
1	 6.289824979625277e-01	 1.792869492527504e+00	-7.266180347910094e+00
1	 5.936440577015607e-01	 1.804878592241435e+00	-7.117366381750013e+00
1	 5.582426816802049e-01	 1.816140167587212e+00	-7.044340616001991e+00
1	 5.228006082350044e-01	 1.826658020539285e+00	-7.048294920662197e+00
1	 4.873396976194359e-01	 1.836436772419523e+00	-7.130116247603516e+00
1	 4.518813977331551e-01	 1.845481834739427e+00	-7.290392895358685e+00
1	 4.164467120918964e-01	 1.853799378562697e+00	-7.529422011653784e+00
1	 3.810561700916664e-01	 1.861396302566691e+00	-7.847218235812461e+00
1	 3.457297996061280e-01	 1.868280199981178e+00	-8.243523379057455e+00
1	 7.016805401230853e-01	 1.772408948889007e+00	-7.355287600797775e+00
1	 6.664204074304255e-01	 1.785965538034536e+00	-7.046846958340044e+00
1	 6.310515193389676e-01	 1.798767089543353e+00	-6.816363602319236e+00
1	 5.955968342084837e-01	 1.810815692875146e+00	-6.665724843507804e+00
1	 5.600790062921068e-01	 1.822114312876954e+00	-6.596482266243659e+00
1	 5.245203470788035e-01	 1.832666764029722e+00	-6.609855725164244e+00
1	 4.889427887307788e-01	 1.842477682857037e+00	-6.706738851165996e+00
1	 4.533678496999896e-01	 1.851552498671427e+00	-6.887705973252303e+00
1	 4.178166025926822e-01	 1.859897402836141e+00	-7.153020356118606e+00
1	 3.823096443357710e-01	 1.867519316721560e+00	-7.502643647791183e+00
1	 3.468670686840821e-01	 1.874425858535184e+00	-7.936246427367018e+00
1	 7.039811320600158e-01	 1.778220125770510e+00	-6.924290372401426e+00
1	 6.686053923746326e-01	 1.791821162749878e+00	-6.603386068935412e+00
1	 6.331205407153857e-01	 1.804664686559200e+00	-6.365887858335880e+00
1	 5.975496107153589e-01	 1.816752793508858e+00	-6.213755103540924e+00
1	 5.619153309039238e-01	 1.828088458166697e+00	-6.148589177949807e+00
1	 5.262400859224703e-01	 1.838675507520159e+00	-6.171637938741317e+00
1	 4.905458798419322e-01	 1.848518593294551e+00	-6.283801801825314e+00
1	 4.548543016665674e-01	 1.857623162603425e+00	-6.485641317910545e+00
1	 4.191864930931347e-01	 1.865995427109586e+00	-6.777386142017767e+00
1	 3.835631185794566e-01	 1.873642330876431e+00	-7.158945282974296e+00
1	 3.480043377615216e-01	 1.880571517089191e+00	-7.629918514994741e+00
1	 7.062817239969467e-01	 1.784031302652014e+00	-6.491874931084614e+00
1	 6.707903773188344e-01	 1.797676787465220e+00	-6.158908160092540e+00
1	 6.351895620917827e-01	 1.810562283575048e+00	-5.914759555683760e+00
1	 5.995023872221856e-01	 1.822689894142569e+00	-5.761460369032217e+00
1	 5.637516555156555e-01	 1.834062603456439e+00	-5.700661690584680e+00
1	 5.279598247660050e-01	 1.844684251010596e+00	-5.733639397786571e+00
1	 4.921489709528961e-01	 1.854559503732065e+00	-5.861300796514744e+00
1	 4.563407536328890e-01	 1.863693826535424e+00	-6.084192848550041e+00
1	 4.205563835932543e-01	 1.872093451383029e+00	-6.402511869922362e+00
1	 3.848165928227226e-01	 1.879765345031300e+00	-6.816114578918531e+00
1	 3.491416068384463e-01	 1.886717175643198e+00	-7.324530367938732e+00
1	 7.085823159338770e-01	 1.789842479533517e+00	-6.058055090609600e+00
1	 6.729753622630306e-01	 1.803532412180561e+00	-5.713423137844895e+00
1	 6.372585834681581e-01	 1.816459880590896e+00	-5.462985050453797e+00
1	 6.014551637289645e-01	 1.828626994776280e+00	-5.308843805512850e+00
1	 5.655879801273024e-01	 1.840036748746181e+00	-5.252700139204085e+00
1	 5.296795636094075e-01	 1.850692994501034e+00	-5.295857966791688e+00
1	 4.937520620636707e-01	 1.860600414169579e+00	-5.439231588051580e+00
1	 4.578272055989540e-01	 1.869764490467423e+00	-5.683354563358313e+00
1	 4.219262740930406e-01	 1.878191475656473e+00	-6.028390137798836e+00
1	 3.860700670655695e-01	 1.885888359186170e+00	-6.474143084381143e+00
1	 3.502788759148564e-01	 1.892862834197204e+00	-7.020072832638643e+00
1	 7.108829078708077e-01	 1.795653656415020e+00	-5.622844485919783e+00
1	 6.751603472072215e-01	 1.809388036895903e+00	-5.266940779992584e+00
1	 6.393276048445120e-01	 1.822357477606744e+00	-5.010570616457305e+00
1	 6.034079402356953e-01	 1.834564095409991e+00	-4.855908537536195e+00
1	 5.674243047388642e-01	 1.846010894035924e+00	-4.804704854526300e+00
1	 5.313993024526776e-01	 1.856701737991471e+00	-4.858291537892860e+00
1	 4.953551531742559e-01	 1.866641324607093e+00	-5.017589984233051e+00
1	 4.593136575647624e-01	 1.875835154399421e+00	-5.283120538216625e+00
1	 4.232961645924937e-01	 1.884289499929918e+00	-5.655013639432683e+00
1	 3.873235413079969e-01	 1.892011373341040e+00	-6.133022457520606e+00
1	 3.514161449907519e-01	 1.899008492751210e+00	-6.716536874026841e+00
1	 7.131834998077382e-01	 1.801464833296524e+00	-5.186256576023637e+00
1	 6.773453321514072e-01	 1.815243661611245e+00	-4.819470738170502e+00
1	 6.413966262208445e-01	 1.828255074622592e+00	-4.557522446553328e+00
1	 6.053607167423782e-01	 1.840501196043703e+00	-4.402657649338845e+00
1	 5.692606293503408e-01	 1.851985039325666e+00	-4.356676163002456e+00
1	 5.331190412958158e-01	 1.862710481481908e+00	-4.420938030424153e+00
1	 4.969582442846516e-01	 1.872682235044607e+00	-4.596371846949044e+00
1	 4.608001095303144e-01	 1.881905818331420e+00	-4.883484925446175e+00
1	 4.246660550916136e-01	 1.890387524203362e+00	-5.282375162883137e+00
1	 3.885770155500051e-01	 1.898134387495910e+00	-5.792744464132100e+00
1	 3.525534140661327e-01	 1.905154151305217e+00	-6.413913573617082e+00
1	 3.411807232891650e-01	 1.843697565765152e+00	-9.482311386906348e+00
1	 3.064017453303258e-01	 1.849795386095177e+00	-9.823996158631001e+00
1	 2.717240419284750e-01	 1.855206469643190e+00	-1.030085463567381e+01
1	 2.371657537175081e-01	 1.859940161735939e+00	-1.091072078506200e+01
1	 2.027444415484455e-01	 1.864006354978991e+00	-1.165105147135820e+01
1	 1.684770710600370e-01	 1.867415453645311e+00	-1.251895086497077e+01
1	 1.343799995057737e-01	 1.870178337946352e+00	-1.351119539315598e+01
1	 1.004689647900904e-01	 1.872306328331119e+00	-1.462425905937574e+01
1	 6.675907665743416e-02	 1.873811149951200e+00	-1.585433896413241e+01
1	 3.326480996967145e-02	 1.874704897421741e+00	-1.719738086884463e+01
1	 0.000000000000000e+00	 1.875000000000000e+00	-1.864910465360785e+01
1	 3.423179923691778e-01	 1.849843224319159e+00	-9.171143058695066e+00
1	 3.074230844840818e-01	 1.855961370716666e+00	-9.550075067353497e+00
1	 2.726297887377115e-01	 1.861390491209588e+00	-1.005865047017430e+01
1	 2.379563062327438e-01	 1.866139962275759e+00	-1.069474413033898e+01
1	 2.034202563563717e-01	 1.870219709496098e+00	-1.145586997405099e+01
1	 1.690386612994762e-01	 1.873640171824482e+00	-1.233920451635689e+01
1	 1.348279328397292e-01	 1.876412265739731e+00	-1.334161090008197e+01
1	 1.008038613412491e-01	 1.878547349425681e+00	-1.445966328040890e+01
1	 6.698160691430041e-02	 1.880057187117759e+00	-1.568967139484575e+01
1	 3.337569267029151e-02	 1.880953913746494e+00	-1.702770516649635e+01
1	 0.000000000000000e+00	 1.881250000000000e+00	-1.846961919749765e+01
1	 3.434552614486758e-01	 1.855988882873165e+00	-8.860962110572775e+00
1	 3.084444236372392e-01	 1.862127355338156e+00	-9.276967177524959e+00
1	 2.735355355462969e-01	 1.867574512775985e+00	-9.817122895500422e+00
1	 2.387468587473074e-01	 1.872339762815578e+00	-1.047934456313074e+01
1	 2.040960711636352e-01	 1.876433064013207e+00	-1.126120263729847e+01
1	 1.696002515382919e-01	 1.879864890003653e+00	-1.215994538064316e+01
1	 1.352758661731298e-01	 1.882646193533110e+00	-1.317252199270125e+01
1	 1.011387578919502e-01	 1.884788370520244e+00	-1.429560606404884e+01
1	 6.720413717083439e-02	 1.886303224284319e+00	-1.552561919979281e+01
1	 3.348657537073204e-02	 1.887202930071247e+00	-1.685875466664110e+01
1	 0.000000000000000e+00	 1.887500000000000e+00	-1.829100092641751e+01
1	 3.445925305276593e-01	 1.862134541427171e+00	-8.551758766497080e+00
1	 3.094657627897980e-01	 1.868293339959645e+00	-9.004664437643893e+00
1	 2.744412823542315e-01	 1.873758534342383e+00	-9.576265212731498e+00
1	 2.395374112611989e-01	 1.878539563355399e+00	-1.026451636969788e+01
1	 2.047718859702358e-01	 1.882646418530314e+00	-1.106704437040105e+01
1	 1.701618417764841e-01	 1.886089608182823e+00	-1.198116863393886e+01
1	 1.357237995059753e-01	 1.888880121326488e+00	-1.300392376422431e+01
1	 1.014736544421937e-01	 1.891029391614806e+00	-1.413208207799227e+01
1	 6.742666742703604e-02	 1.892549261450878e+00	-1.536217628615948e+01
1	 3.359745807099305e-02	 1.893451946395999e+00	-1.669052218905593e+01
1	 0.000000000000000e+00	 1.893750000000000e+00	-1.811324125437718e+01
1	 3.457297996061280e-01	 1.868280199981178e+00	-8.243523379057455e+00
1	 3.104871019417582e-01	 1.874459324581135e+00	-8.733158902149805e+00
1	 2.753470291615153e-01	 1.879942555908782e+00	-9.336070811090222e+00
1	 2.403279637744184e-01	 1.884739363895219e+00	-1.005025391148216e+01
1	 2.054477007761737e-01	 1.888859773047422e+00	-1.087339014964207e+01
1	 1.707234320140529e-01	 1.892314326361993e+00	-1.180286951582558e+01
1	 1.361717328382661e-01	 1.895114049119867e+00	-1.283581137242478e+01
1	 1.018085509919795e-01	 1.897270412709368e+00	-1.396908606009828e+01
1	 6.764919768290541e-02	 1.898795298617437e+00	-1.519933664130026e+01
1	 3.370834077107453e-02	 1.899700962720752e+00	-1.652300064799548e+01
1	 0.000000000000000e+00	 1.900000000000000e+00	-1.793633170836014e+01
1	 3.468670686840821e-01	 1.874425858535184e+00	-7.936246427367018e+00
1	 3.115084410931198e-01	 1.880625309202625e+00	-8.462442729685952e+00
1	 2.762527759681481e-01	 1.886126577475180e+00	-9.096533166498400e+00
1	 2.411185162869658e-01	 1.890939164435040e+00	-9.836551623873168e+00
1	 2.061235155814488e-01	 1.895073127564531e+00	-1.068023501718930e+01
1	 1.712850222509980e-01	 1.898539044541163e+00	-1.162504332831633e+01
1	 1.366196661700018e-01	 1.901347976913246e+00	-1.266818003858093e+01
1	 1.021434475413076e-01	 1.903511433803931e+00	-1.380661281723727e+01
1	 6.787172793844248e-02	 1.905041335783996e+00	-1.503709433142423e+01
1	 3.381922347097648e-02	 1.905949979045505e+00	-1.635618305064141e+01
1	 0.000000000000000e+00	 1.906250000000000e+00	-1.776026392647116e+01
1	 3.480043377615216e-01	 1.880571517089191e+00	-7.629918514994741e+00
1	 3.125297802438828e-01	 1.886791293824114e+00	-8.192508181397145e+00
1	 2.771585227741301e-01	 1.892310599041578e+00	-8.857645840159476e+00
1	 2.419090687988410e-01	 1.897138964974860e+00	-9.623404015000926e+00
1	 2.067993303860612e-01	 1.901286482081638e+00	-1.048757408001933e+01
1	 1.718466124873197e-01	 1.904763762720334e+00	-1.144768543483598e+01
1	 1.370675995011826e-01	 1.907581904706625e+00	-1.250102504643799e+01
1	 1.024783440901781e-01	 1.909752454898493e+00	-1.364465722416374e+01
1	 6.809425819364724e-02	 1.911287372950555e+00	-1.487544350030615e+01
1	 3.393010617069891e-02	 1.912198995370258e+00	-1.619006249558525e+01
1	 0.000000000000000e+00	 1.912500000000000e+00	-1.758502965612093e+01
1	 3.491416068384463e-01	 1.886717175643198e+00	-7.324530367938732e+00
1	 3.135511193940472e-01	 1.892957278445604e+00	-7.923347619260086e+00
1	 2.780642695794611e-01	 1.898494620607976e+00	-8.619402477170311e+00
1	 2.426996213100442e-01	 1.903338765514680e+00	-9.410805664550658e+00
1	 2.074751451900107e-01	 1.907499836598746e+00	-1.029540250886126e+01
1	 1.724082027230179e-01	 1.910988480899505e+00	-1.127079125922055e+01
1	 1.375155328318085e-01	 1.913815832500004e+00	-1.233434174119085e+01
1	 1.028132406385909e-01	 1.915993475993055e+00	-1.348321422241083e+01
1	 6.831678844851972e-02	 1.917533410117115e+00	-1.471437836802362e+01
1	 3.404098887024182e-02	 1.918448011695011e+00	-1.602463217133919e+01
1	 0.000000000000000e+00	 1.918750000000000e+00	-1.741062075224581e+01
1	 3.502788759148564e-01	 1.892862834197204e+00	-7.020072832638643e+00
1	 3.145724585436130e-01	 1.899123263067094e+00	-7.654953504446770e+00
1	 2.789700163841413e-01	 1.904678642174373e+00	-8.381796805158839e+00
1	 2.434901738205753e-01	 1.909538566054500e+00	-9.198751222601190e+00
1	 2.081509599932975e-01	 1.913713191115854e+00	-1.010371553716168e+01
1	 1.729697929580925e-01	 1.917213199078675e+00	-1.109435628473720e+01
1	 1.379634661618794e-01	 1.920049760293382e+00	-1.216812552848624e+01
1	 1.031481371865461e-01	 1.922234497087618e+00	-1.332227881920592e+01
1	 6.853931870305990e-02	 1.923779447283674e+00	-1.455389322971829e+01
1	 3.415187156960520e-02	 1.924697028019764e+00	-1.585988535487598e+01
1	 0.000000000000000e+00	 1.925000000000000e+00	-1.723702917556239e+01
1	 3.514161449907519e-01	 1.899008492751210e+00	-6.716536874026841e+00
1	 3.155937976925804e-01	 1.905289247688583e+00	-7.387318395719014e+00
1	 2.798757631881706e-01	 1.910862663740771e+00	-8.144822632948772e+00
1	 2.442807263304344e-01	 1.915738366594321e+00	-8.987235408485976e+00
1	 2.088267747959216e-01	 1.919926545632962e+00	-9.912508460070654e+00
1	 1.735313831925436e-01	 1.923437917257845e+00	-1.091837605312158e+01
1	 1.384113994913954e-01	 1.926283688086761e+00	-1.200237187344479e+01
1	 1.034830337340436e-01	 1.928475518182180e+00	-1.316184608640791e+01
1	 6.876184895726777e-02	 1.930025484450233e+00	-1.439398245438053e+01
1	 3.426275426878905e-02	 1.930946044344517e+00	-1.569581541019806e+01
1	 0.000000000000000e+00	 1.931249999999999e+00	-1.706424699085540e+01
1	 3.525534140661327e-01	 1.905154151305217e+00	-6.413913573617082e+00
1	 3.166151368409489e-01	 1.911455232310073e+00	-7.120434947854679e+00
1	 2.807815099915490e-01	 1.917046685307169e+00	-7.908473849249864e+00
1	 2.450712788396212e-01	 1.921938167134141e+00	-8.776253009676280e+00
1	 2.095025895978829e-01	 1.926139900150070e+00	-9.721776633445810e+00
1	 1.740929734263712e-01	 1.929662635437016e+00	-1.074284616363570e+01
1	 1.388593328203565e-01	 1.932517615880140e+00	-1.183707629970181e+01
1	 1.038179302810835e-01	 1.934716539276743e+00	-1.300191115946424e+01
1	 6.898437921114338e-02	 1.936271521616793e+00	-1.423464048365955e+01
1	 3.437363696779339e-02	 1.937195060669269e+00	-1.553241578693391e+01
1	 0.000000000000000e+00	 1.937500000000000e+00	-1.689226636529947e+01
1	 1.937500000000000e+00	 0.000000000000000e+00	 3.426488203148313e+00
1	 1.937195060669269e+00	 3.437363696779228e-02	 3.099578957159196e+00
1	 1.936271521616793e+00	 6.898437921114241e-02	 2.780910341688102e+00
1	 1.934716539276743e+00	 1.038179302810827e-01	 2.472145457752730e+00
1	 1.932517615880140e+00	 1.388593328203557e-01	 2.174972625130353e+00
1	 1.929662635437016e+00	 1.740929734263706e-01	 1.891100189013927e+00
1	 1.926139900150070e+00	 2.095025895978823e-01	 1.622250966949854e+00
1	 1.921938167134141e+00	 2.450712788396208e-01	 1.370156348871169e+00
1	 1.917046685307170e+00	 2.807815099915488e-01	 1.136550066489629e+00
1	 1.911455232310073e+00	 3.166151368409488e-01	 9.231616518505772e-01
1	 1.905154151305217e+00	 3.525534140661327e-01	 7.317096084533370e-01
1	 1.943750000000000e+00	 0.000000000000000e+00	 3.363319654978807e+00
1	 1.943444076994022e+00	 3.448451966688636e-02	 3.041936221055215e+00
1	 1.942517558783352e+00	 6.920690946518412e-02	 2.729178812850885e+00
1	 1.940957560371305e+00	 1.041528268283514e-01	 2.426566167999498e+00
1	 1.938751543673519e+00	 1.393072661495943e-01	 2.135635650875199e+00
1	 1.935887353616187e+00	 1.746545636605100e-01	 1.857938324013196e+00
1	 1.932353254667178e+00	 2.101784044001750e-01	 1.595033703947901e+00
1	 1.928137967673961e+00	 2.458618313491438e-01	 1.348484215003865e+00
1	 1.923230706873568e+00	 2.816872567952527e-01	 1.119849357730006e+00
1	 1.917621216931563e+00	 3.176364759896168e-01	 9.106796118902520e-01
1	 1.911299809859223e+00	 3.536906831417707e-01	 7.225100971800766e-01
1	 1.950000000000000e+00	 0.000000000000000e+00	 3.303456827817194e+00
1	 1.949693093318775e+00	 3.459540236633951e-02	 2.987095667028725e+00
1	 1.948763595949912e+00	 6.942943971989045e-02	 2.679741791949719e+00
1	 1.947198581465867e+00	 1.044877233765354e-01	 2.382770263801686e+00
1	 1.944985471466897e+00	 1.397551994799427e-01	 2.097568208970988e+00
1	 1.942112071795357e+00	 1.752161538958963e-01	 1.825530154204588e+00
1	 1.938566609184286e+00	 2.108542192037932e-01	 1.568053090185374e+00
1	 1.934337768213782e+00	 2.466523838600110e-01	 1.326531277739438e+00
1	 1.929414728439965e+00	 2.825930036002584e-01	 1.102350813791943e+00
1	 1.923787201553052e+00	 3.186578151394818e-01	 8.968839770922199e-01
1	 1.917445468413230e+00	 3.548279522184382e-01	 7.114833766450398e-01
1	 1.956250000000000e+00	 0.000000000000000e+00	 3.246868037437757e+00
1	 1.955942109643528e+00	 3.470628506615170e-02	 2.935030437105463e+00
1	 1.955009633116471e+00	 6.965196997526137e-02	 2.632577286896223e+00
1	 1.953439602560430e+00	 1.048226199256347e-01	 2.340740652007263e+00
1	 1.951219399260276e+00	 1.402031328114009e-01	 2.060758131376051e+00
1	 1.948336789974528e+00	 1.757777441325298e-01	 1.793868455672509e+00
1	 1.944779963701394e+00	 2.115300340087369e-01	 1.541306857458620e+00
1	 1.940537568753602e+00	 2.474429363722222e-01	 1.304300228484183e+00
1	 1.935598750006363e+00	 2.834987504065657e-01	 1.084062081657996e+00
1	 1.929953186174542e+00	 3.196791542905442e-01	 8.817873378224862e-01
1	 1.923591126967236e+00	 3.559652212961348e-01	 6.986469600363240e-01
1	 1.962500000000000e+00	 0.000000000000000e+00	 3.193522003235243e+00
1	 1.962191125968281e+00	 3.481716776632295e-02	 2.885714015450654e+00
1	 1.961255670283030e+00	 6.987450023129686e-02	 2.587663585756050e+00
1	 1.959680623654992e+00	 1.051575164756493e-01	 2.300460457211286e+00
1	 1.957453327053655e+00	 1.406510661439691e-01	 2.025193405055658e+00
1	 1.954561508153698e+00	 1.763393343704102e-01	 1.762946096525714e+00
1	 1.950993318218502e+00	 2.122058488150062e-01	 1.514792766458295e+00
1	 1.946737369293422e+00	 2.482334888857777e-01	 1.281793724358979e+00
1	 1.941782771572761e+00	 2.844044972141748e-01	 1.064990710896935e+00
1	 1.936119170796031e+00	 3.207004934428037e-01	 8.654021240602031e-01
1	 1.929736785521243e+00	 3.571024903748611e-01	 6.840181374440291e-01
1	 1.968750000000000e+00	 0.000000000000000e+00	 3.143387841818237e+00
1	 1.968440142293034e+00	 3.492805046685322e-02	 2.839120222938487e+00
1	 1.967501707449589e+00	 7.009703048799699e-02	 2.544979252301748e+00
1	 1.965921644749554e+00	 1.054924130265792e-01	 2.261913018299638e+00
1	 1.963687254847034e+00	 1.410989994776471e-01	 1.990862169521478e+00
1	 1.960786226332869e+00	 1.769009246095377e-01	 1.732756035436673e+00
1	 1.957206672735610e+00	 2.128816636226010e-01	 1.488508606310730e+00
1	 1.952937169833243e+00	 2.490240414006774e-01	 1.259014388743478e+00
1	 1.947966793139159e+00	 2.853102440230858e-01	 1.045144155209971e+00
1	 1.942285155417521e+00	 3.217218325962603e-01	 8.477406079434823e-01
1	 1.935882444075249e+00	 3.582397594546164e-01	 6.676139794015091e-01
1	 1.975000000000000e+00	 0.000000000000000e+00	 3.096435060724113e+00
1	 1.974689158617787e+00	 3.503893316774256e-02	 2.795223211824259e+00
1	 1.973747744616148e+00	 7.031956074536168e-02	 2.504503121650389e+00
1	 1.972162665844116e+00	 1.058273095784245e-01	 2.225081885058304e+00
1	 1.969921182640413e+00	 1.415469328124351e-01	 1.957752714417928e+00
1	 1.967010944512039e+00	 1.774625148499123e-01	 1.703291320208551e+00
1	 1.963420027252718e+00	 2.135574784315214e-01	 1.462452194127964e+00
1	 1.959136970373063e+00	 2.498145939169212e-01	 1.235964811809980e+00
1	 1.954150814705557e+00	 2.862159908332985e-01	 1.024529773947666e+00
1	 1.948451140039011e+00	 3.227431717509142e-01	 8.288149062668908e-01
1	 1.942028102629256e+00	 3.593770285354013e-01	 6.494513403593501e-01
1	 1.981250000000000e+00	 0.000000000000000e+00	 3.052633552252976e+00
1	 1.980938174942539e+00	 3.514981586899095e-02	 2.753997460517760e+00
1	 1.979993781782708e+00	 7.054209100339096e-02	 2.466214295983782e+00
1	 1.978403686938679e+00	 1.061622061311850e-01	 2.189950814846898e+00
1	 1.976155110433791e+00	 1.419948661483328e-01	 1.925853477154114e+00
1	 1.973235662691210e+00	 1.780241050915339e-01	 1.674545086369395e+00
1	 1.969633381769826e+00	 2.142332932417672e-01	 1.436621374566451e+00
1	 1.965336770912883e+00	 2.506051464345093e-01	 1.212647551047255e+00
1	 1.960334836271955e+00	 2.871217376448129e-01	 1.003154833598109e+00
1	 1.954617124660500e+00	 3.237645109067652e-01	 8.086369829316649e-01
1	 1.948173761183262e+00	 3.605142976172153e-01	 6.295468620936318e-01
1	 1.987500000000000e+00	 0.000000000000000e+00	 3.011953587417930e+00
1	 1.987187191267293e+00	 3.526069857059839e-02	 2.715417768454693e+00
1	 1.986239818949267e+00	 7.076462126208484e-02	 2.430092140349243e+00
1	 1.984644708033241e+00	 1.064971026848608e-01	 2.156503769334868e+00
1	 1.982389038227170e+00	 1.424427994853405e-01	 1.895153040580545e+00
1	 1.979460380870380e+00	 1.785856953344024e-01	 1.646510555792760e+00
1	 1.975846736286934e+00	 2.149091080533387e-01	 1.411014019393772e+00
1	 1.971536571452703e+00	 2.513956989534414e-01	 1.189065131774383e+00
1	 1.966518857838353e+00	 2.880274844576291e-01	 9.810265092469885e-01
1	 1.960783109281990e+00	 3.247858500638134e-01	 7.872186513496826e-01
1	 1.954319419737269e+00	 3.616515667000588e-01	 6.079169770498646e-01
1	 1.993750000000000e+00	 0.000000000000000e+00	 2.974365810009149e+00
1	 1.993436207592045e+00	 3.537158127256488e-02	 2.679459251065428e+00
1	 1.992485856115826e+00	 7.098715152144332e-02	 2.396116278539502e+00
1	 1.990885729127804e+00	 1.068319992394520e-01	 2.124724911299239e+00
1	 1.988622966020549e+00	 1.428907328234580e-01	 1.865640130709416e+00
1	 1.985685099049550e+00	 1.791472855785181e-01	 1.619181035344452e+00
1	 1.982060090804042e+00	 2.155849228662357e-01	 1.385628027063896e+00
1	 1.977736371992524e+00	 2.521862514737178e-01	 1.165220047645022e+00
1	 1.972702879404751e+00	 2.889332312717472e-01	 9.581518860103136e-01
1	 1.966949093903479e+00	 3.258071892220589e-01	 7.645715768022542e-01
1	 1.960465078291275e+00	 3.627888357839316e-01	 5.845779116240315e-01
1	 2.000000000000000e+00	 0.000000000000000e+00	 2.939841230769230e+00
1	 1.999685223916798e+00	 3.548246397489042e-02	 2.646097334837100e+00
1	 1.998731893282386e+00	 7.120968178146642e-02	 2.364266589049725e+00
1	 1.997126750222366e+00	 1.071668957949584e-01	 2.094598601482236e+00
1	 1.994856893813928e+00	 1.433386661626855e-01	 1.837303614477716e+00
1	 1.991909817228721e+00	 1.797088758238808e-01	 1.592549915554343e+00
1	 1.988273445321150e+00	 2.162607376804582e-01	 1.360461322300018e+00
1	 1.983936172532344e+00	 2.529768039953384e-01	 1.141114761142120e+00
1	 1.978886900971149e+00	 2.898389780871670e-01	 9.345379604400765e-01
1	 1.973115078524969e+00	 3.268285283815016e-01	 7.407072787546360e-01
1	 1.966610736845282e+00	 3.639261048688338e-01	 5.595456893821276e-01
1	 1.905154151305217e+00	 3.525534140661327e-01	 7.317096084533370e-01
1	 1.898134387495910e+00	 3.885770155500040e-01	 5.327495143327526e-01
1	 1.890387524203363e+00	 4.246660550916128e-01	 3.565489131703813e-01
1	 1.881905818331420e+00	 4.608001095303136e-01	 2.036307052042287e-01
1	 1.872682235044607e+00	 4.969582442846509e-01	 7.445063409140590e-02
1	 1.862710481481908e+00	 5.331190412958152e-01	-3.060685935630736e-02
1	 1.851985039325666e+00	 5.692606293503407e-01	-1.112325882042632e-01
1	 1.840501196043703e+00	 6.053607167423780e-01	-1.671963412372157e-01
1	 1.828255074622592e+00	 6.413966262208445e-01	-1.983503418252632e-01
1	 1.815243661611244e+00	 6.773453321514071e-01	-2.046324105386036e-01
1	 1.801464833296524e+00	 7.131834998077383e-01	-1.860687991034888e-01
1	 1.911299809859223e+00	 3.536906831417707e-01	 7.225100971800766e-01
1	 1.904257401650780e+00	 3.898304897922171e-01	 5.236668684595162e-01
1	 1.896485548476807e+00	 4.260359455908806e-01	 3.476239804461125e-01
1	 1.887976482263419e+00	 4.622865614959513e-01	 1.951685177499256e-01
1	 1.878723145482122e+00	 4.985613353950653e-01	 6.702801127953484e-02
1	 1.868719224972345e+00	 5.348387801388996e-01	-3.613452665414940e-02
1	 1.857959184615408e+00	 5.710969539616868e-01	-1.137254400210473e-01
1	 1.846438296677414e+00	 6.073134932488479e-01	-1.652251029842743e-01
1	 1.834152671638440e+00	 6.434656475968770e-01	-1.901923930001620e-01
1	 1.821099286326586e+00	 6.795303170952005e-01	-1.882689259192055e-01
1	 1.807276010178027e+00	 7.154840917441793e-01	-1.591830161158421e-01
1	 1.917445468413230e+00	 3.548279522184382e-01	 7.114833766450398e-01
1	 1.910380415805650e+00	 3.910839640352596e-01	 5.135217072949082e-01
1	 1.902583572750251e+00	 4.274058360907768e-01	 3.384046236679603e-01
1	 1.894047146195417e+00	 4.637730134620167e-01	 1.871821510246265e-01
1	 1.884764055919635e+00	 5.001644265057059e-01	 6.085232627207027e-02
1	 1.874727968462783e+00	 5.365585189820093e-01	-3.964458249602659e-02
1	 1.863933329905151e+00	 5.729332785728566e-01	-1.134317969941274e-01
1	 1.852375397311125e+00	 6.092662697549402e-01	-1.597016511235707e-01
1	 1.840050268654288e+00	 6.455346689723308e-01	-1.777210744498087e-01
1	 1.826954911041928e+00	 6.817153020382143e-01	-1.668368956927583e-01
1	 1.813087187059531e+00	 7.177846836796407e-01	-1.264809247091643e-01
1	 1.923591126967236e+00	 3.559652212961348e-01	 6.986469600363240e-01
1	 1.916503429960519e+00	 3.923374382791311e-01	 5.023242146918039e-01
1	 1.908681597023695e+00	 4.287757265913020e-01	 3.288936647919148e-01
1	 1.900117810127416e+00	 4.652594654285097e-01	 1.796670444464487e-01
1	 1.890804966357150e+00	 5.017675176165729e-01	 5.591162758866774e-02
1	 1.880736711953220e+00	 5.382782578251440e-01	-4.115636501064085e-02
1	 1.869907475194893e+00	 5.747696031838503e-01	-1.103783667414321e-01
1	 1.858312497944836e+00	 6.112190462606552e-01	-1.506600324303274e-01
1	 1.845947865670136e+00	 6.476036903472060e-01	-1.609777283752081e-01
1	 1.832810535757269e+00	 6.839002869804490e-01	-1.403849001674014e-01
1	 1.818898363941034e+00	 7.200852756141226e-01	-8.801827224684716e-02
1	 1.929736785521243e+00	 3.571024903748611e-01	 6.840181374440291e-01
1	 1.922626444115389e+00	 3.935909125238320e-01	 4.900844447724383e-01
1	 1.914779621297139e+00	 4.301456170924555e-01	 3.190938898254759e-01
1	 1.906188474059415e+00	 4.667459173954304e-01	 1.726186955301162e-01
1	 1.896845876794663e+00	 5.033706087276667e-01	 5.219411599717172e-02
1	 1.886745455443657e+00	 5.399979966683037e-01	-4.068896598104826e-02
1	 1.875881620484636e+00	 5.766059277946676e-01	-1.045915166563714e-01
1	 1.864249598578547e+00	 6.131718227659926e-01	-1.381338599627819e-01
1	 1.851845462685984e+00	 6.496727117215030e-01	-1.400031703249970e-01
1	 1.838666160472610e+00	 6.860852719219048e-01	-1.089609007937036e-01
1	 1.824709540822537e+00	 7.223858675476251e-01	-4.385009593462103e-02
1	 1.935882444075249e+00	 3.582397594546164e-01	 6.676139794015091e-01
1	 1.928749458270259e+00	 3.948443867693622e-01	 4.768123239876126e-01
1	 1.920877645570583e+00	 4.315155075942379e-01	 3.090080493982613e-01
1	 1.912259137991413e+00	 4.682323693627788e-01	 1.660326589647764e-01
1	 1.902886787232178e+00	 5.049736998389868e-01	 4.968814209698919e-02
1	 1.892754198934094e+00	 5.417177355114888e-01	-3.826123475490395e-02
1	 1.881855765774378e+00	 5.784422524053087e-01	-9.609727930822948e-02
1	 1.870186699212259e+00	 6.151245992709524e-01	-1.221563199465812e-01
1	 1.857743059701832e+00	 6.517417330952211e-01	-1.148376975550057e-01
1	 1.844521785187952e+00	 6.882702568625808e-01	-7.261224998779367e-02
1	 1.830520717704041e+00	 7.246864594801484e-01	 5.969265907105670e-03
1	 1.942028102629256e+00	 3.593770285354013e-01	 6.494513403593501e-01
1	 1.934872472425128e+00	 3.960978610157214e-01	 4.625176531368177e-01
1	 1.926975669844028e+00	 4.328853980966488e-01	 2.986388593217831e-01
1	 1.918329801923412e+00	 4.697188213305548e-01	 1.599045457093578e-01
1	 1.908927697669691e+00	 5.065767909505333e-01	 4.838220394832482e-02
1	 1.898762942424532e+00	 5.434374743546988e-01	-3.389178208046342e-02
1	 1.887829911064120e+00	 5.802785770157736e-01	-8.492135774001824e-02
1	 1.876123799845970e+00	 6.170773757755349e-01	-1.027601785284654e-01
1	 1.863640656717680e+00	 6.538107544683608e-01	-8.552109722909923e-02
1	 1.850377409903294e+00	 6.904552418024777e-01	-3.138570076798697e-02
1	 1.836331894585544e+00	 7.269870514116921e-01	 6.138616278491874e-02
1	 1.948173761183262e+00	 3.605142976172153e-01	 6.295468620936318e-01
1	 1.940995486579999e+00	 3.973513352629100e-01	 4.472101093501402e-01
1	 1.933073694117472e+00	 4.342552885996884e-01	 2.879890011386325e-01
1	 1.924400465855411e+00	 4.712052732987587e-01	 1.542300221050173e-01
1	 1.914968608107205e+00	 5.081798820623066e-01	 4.826494474631379e-02
1	 1.904771685914969e+00	 5.451572131979341e-01	-2.759898386998877e-02
1	 1.893804056353862e+00	 5.821149016260623e-01	-7.108913066605121e-02
1	 1.882060900479681e+00	 6.190301522797398e-01	-7.997778840212180e-02
1	 1.869538253733528e+00	 6.558797758409221e-01	-5.209265446478964e-02
1	 1.856233034618636e+00	 6.926402267415958e-01	 1.467258379098310e-02
1	 1.842143071467048e+00	 7.292876433422565e-01	 1.223476211833918e-01
1	 1.954319419737269e+00	 3.616515667000588e-01	 6.079169770498646e-01
1	 1.947118500734868e+00	 3.986048095109278e-01	 4.308992480326952e-01
1	 1.939171718390916e+00	 4.356251791033567e-01	 2.770611226612876e-01
1	 1.930471129787409e+00	 4.726917252673901e-01	 1.490048090043580e-01
1	 1.921009518544720e+00	 5.097829731743061e-01	 4.932515053901024e-02
1	 1.910780429405406e+00	 5.468769520411942e-01	-1.940098489213213e-02
1	 1.899778201643604e+00	 5.839512262361745e-01	-5.462565757145460e-02
1	 1.887998001113392e+00	 6.209829287835670e-01	-5.384109530901598e-02
1	 1.875435850749376e+00	 6.579487972129047e-01	-1.459116022705258e-02
1	 1.862088659333976e+00	 6.948252116799342e-01	 6.551702128213048e-02
1	 1.847954248348551e+00	 7.315882352718412e-01	 1.888013339207849e-01
1	 1.960465078291275e+00	 3.627888357839316e-01	 5.845779116240315e-01
1	 1.953241514889738e+00	 3.998582837597748e-01	 4.135945047726016e-01
1	 1.945269742664360e+00	 4.369950696076534e-01	 2.658578385008209e-01
1	 1.936541793719408e+00	 4.741781772364493e-01	 1.442246809170200e-01
1	 1.927050428982233e+00	 5.113860642865321e-01	 5.155174798832787e-02
1	 1.916789172895843e+00	 5.485966908844798e-01	-9.315702394880249e-03
1	 1.905752346933347e+00	 5.857875508461107e-01	-3.555568371575921e-02
1	 1.893935101747103e+00	 6.229357052870169e-01	-2.438164441695820e-02
1	 1.881333447765223e+00	 6.600178185843085e-01	 2.694508092633589e-02
1	 1.867944284049318e+00	 6.970101966174935e-01	 1.211026008648320e-01
1	 1.853765425230054e+00	 7.338888272004463e-01	 2.606956497049324e-01
1	 1.966610736845282e+00	 3.639261048688338e-01	 5.595456893821276e-01
1	 1.959364529044608e+00	 4.011117580094511e-01	 3.953051972130938e-01
1	 1.951367766937805e+00	 4.383649601125791e-01	 2.543817305856471e-01
1	 1.942612457651407e+00	 4.756646292059362e-01	 1.398854651712830e-01
1	 1.933091339419748e+00	 5.129891553989847e-01	 5.493380217293464e-02
1	 1.922797916386281e+00	 5.503164297277904e-01	 2.639170339433922e-03
1	 1.911726492223089e+00	 5.876238754558706e-01	-1.390364504267647e-02
1	 1.899872202380815e+00	 6.248884817900893e-01	 8.369413420934349e-03
1	 1.887231044781072e+00	 6.620868399551341e-01	 7.247824324468859e-02
1	 1.873799908764660e+00	 6.991951815542736e-01	 1.813848743341047e-01
1	 1.859576602111558e+00	 7.361894191280726e-01	 3.379795628849793e-01
1	 1.801464833296524e+00	 7.131834998077383e-01	-1.860687991034888e-01
1	 1.786917379836844e+00	 7.488875266910028e-01	 1.102218854018999e-02
1	 1.771601027184422e+00	 7.844335857608368e-01	 1.595895931978460e-01
1	 1.755516456634858e+00	 8.197976704459864e-01	 2.542799173486879e-01
1	 1.738665321851069e+00	 8.549556412882953e-01	 2.898116048737803e-01
1	 1.721050263217639e+00	 8.898832740590076e-01	 2.609987119066574e-01
1	 1.702674919393794e+00	 9.245563091730674e-01	 1.627747213173530e-01
1	 1.683543935945708e+00	 9.589505022144015e-01	-9.783652512459051e-03
1	 1.663662970952961e+00	 9.930416753735546e-01	-2.614328267737848e-01
1	 1.643038697499170e+00	 1.026805769588582e+00	-5.967390426907621e-01
1	 1.621678802973224e+00	 1.060218897170963e+00	-1.020055550704658e+00
1	 1.807276010178027e+00	 7.154840917441793e-01	-1.591830161158421e-01
1	 1.792681629448569e+00	 7.513032929078940e-01	 3.763295908470188e-02
1	 1.777315869206514e+00	 7.869640166845691e-01	 1.865675219248910e-01
1	 1.761179412945189e+00	 8.224421790623974e-01	 2.819889584254427e-01
1	 1.744273919661911e+00	 8.577135627140031e-01	 3.183314603017073e-01
1	 1.726602038258635e+00	 8.927538652679566e-01	 2.901198593826161e-01
1	 1.708167419132196e+00	 9.275387488824756e-01	 1.919945591620805e-01
1	 1.688974722834470e+00	 9.620438909336927e-01	 1.873650422503359e-02
1	 1.669029625696907e+00	 9.962450356192188e-01	-2.347079770968939e-01
1	 1.648338822329198e+00	 1.030118046267232e+00	-5.732026253832211e-01
1	 1.626910024918265e+00	 1.063638958132152e+00	-1.001397168947351e+00
1	 1.813087187059531e+00	 7.177846836796407e-01	-1.264809247091643e-01
1	 1.798445879060296e+00	 7.537190591236296e-01	 6.934466505796549e-02
1	 1.783030711228606e+00	 7.894944476070173e-01	 2.179279919858378e-01
1	 1.766842369255521e+00	 8.250866876774451e-01	 3.133604038309883e-01
1	 1.749882517472753e+00	 8.604714841383175e-01	 3.497931450821395e-01
1	 1.732153813299630e+00	 8.956244564755316e-01	 3.214631509689745e-01
1	 1.713659918870599e+00	 9.305211885905793e-01	 2.227190918965851e-01
1	 1.694405509723232e+00	 9.651372796517999e-01	 4.804750315260120e-02
1	 1.674396280440852e+00	 9.994483958638706e-01	-2.079011712300791e-01
1	 1.653638947159227e+00	 1.033430322945092e+00	-5.502867960004988e-01
1	 1.632141246863306e+00	 1.067059019092824e+00	-9.840542019357316e-01
1	 1.818898363941034e+00	 7.200852756141226e-01	-8.801827224684716e-02
1	 1.804210128672022e+00	 7.561348253382095e-01	 1.061084157066375e-01
1	 1.788745553250698e+00	 7.920248785281819e-01	 2.536289981935942e-01
1	 1.772505325565852e+00	 8.277311962911299e-01	 3.483591506496050e-01
1	 1.755491115283595e+00	 8.632294055612384e-01	 3.841684627684742e-01
1	 1.737705588340625e+00	 8.984950476817326e-01	 3.550072881603920e-01
1	 1.719152418609001e+00	 9.335036282973785e-01	 2.549338975252372e-01
1	 1.699836296611995e+00	 9.682306683687227e-01	 7.814176431287895e-02
1	 1.679762935184798e+00	 1.002651756107509e+00	-1.810131946965511e-01
1	 1.658939071989255e+00	 1.036742599622162e+00	-5.279856064163635e-01
1	 1.637372468808346e+00	 1.070479080052980e+00	-9.680140418617402e-01
1	 1.824709540822537e+00	 7.223858675476251e-01	-4.385009593462103e-02
1	 1.809974378283746e+00	 7.585505915516338e-01	 1.478759430896268e-01
1	 1.794460395272789e+00	 7.945553094480627e-01	 2.936290704590440e-01
1	 1.778168281876184e+00	 8.303757049034513e-01	 3.869505431365017e-01
1	 1.761099713094437e+00	 8.659873269827660e-01	 4.214295761045170e-01
1	 1.743257363381620e+00	 9.013656388865593e-01	 3.907312437700530e-01
1	 1.724644918347405e+00	 9.364860680028737e-01	 2.886247377720794e-01
1	 1.705267083500758e+00	 9.713240570844620e-01	 1.090118043084755e-01
1	 1.685129589928743e+00	 1.005855116350135e+00	-1.540448230128293e-01
1	 1.664239196819284e+00	 1.040054876298442e+00	-5.062931842769063e-01
1	 1.642603690753387e+00	 1.073899141012621e+00	-9.532642415262684e-01
1	 1.830520717704041e+00	 7.246864594801484e-01	 5.969265907105670e-03
1	 1.815738627895473e+00	 7.609663577639028e-01	 1.945995921921880e-01
1	 1.800175237294881e+00	 7.970857403666599e-01	 3.378872652974486e-01
1	 1.783831238186514e+00	 8.330202135144094e-01	 4.291003656198623e-01
1	 1.766708310905279e+00	 8.687452484028998e-01	 4.615490013230385e-01
1	 1.748809138422616e+00	 9.042362300900124e-01	 4.286142576230252e-01
1	 1.730137418085807e+00	 9.394685077070646e-01	 3.237775551646471e-01
1	 1.710697870389520e+00	 9.744174457990171e-01	 1.406502347692342e-01
1	 1.690496244672688e+00	 1.009058476591749e+00	-1.269968218476351e-01
1	 1.669539321649312e+00	 1.043367152973931e+00	-4.852037317977602e-01
1	 1.647834912698428e+00	 1.077319201971746e+00	-9.397925117898340e-01
1	 1.836331894585544e+00	 7.269870514116921e-01	 6.138616278491874e-02
1	 1.821502877507198e+00	 7.633821239750157e-01	 2.462323112277155e-01
1	 1.805890079316973e+00	 7.996161712839734e-01	 3.863631574960912e-01
1	 1.789494194496846e+00	 8.356647221240044e-01	 4.747748355376794e-01
1	 1.772316908716121e+00	 8.715031698216402e-01	 5.044996025526032e-01
1	 1.754360913463612e+00	 9.071068212920912e-01	 4.686358323313930e-01
1	 1.735629917824210e+00	 9.424509474099512e-01	 3.603784701731427e-01
1	 1.716128657278282e+00	 9.775108345123882e-01	 1.730497608486639e-01
1	 1.695862899416633e+00	 1.012261836832350e+00	-9.986994717764691e-02
1	 1.674839446479340e+00	 1.046679429648631e+00	-4.647115245842163e-01
1	 1.653066134643468e+00	 1.080739262930354e+00	-9.275867190716089e-01
1	 1.842143071467048e+00	 7.292876433422565e-01	 1.223476211833918e-01
1	 1.827267127118924e+00	 7.657978901849734e-01	 3.027276421231079e-01
1	 1.811604921339065e+00	 8.021466022000032e-01	 4.390168319396258e-01
1	 1.795157150807177e+00	 8.383092307322362e-01	 5.239405966063488e-01
1	 1.777925506526964e+00	 8.742610912389873e-01	 5.502545863302484e-01
1	 1.759912688504607e+00	 9.099774124927964e-01	 5.107757291493418e-01
1	 1.741122417562612e+00	 9.454333871115331e-01	 3.984137784037720e-01
1	 1.721559444167045e+00	 9.806042232245752e-01	 2.062031797487978e-01
1	 1.701229554160579e+00	 1.015465197071938e+00	-7.266494544043839e-02
1	 1.680139571309368e+00	 1.049991706322541e+00	-4.448109104736677e-01
1	 1.658297356588509e+00	 1.084159323888447e+00	-9.166348828958784e-01
1	 1.847954248348551e+00	 7.315882352718412e-01	 1.888013339207849e-01
1	 1.833031376730649e+00	 7.682136563937753e-01	 3.640397111836358e-01
1	 1.817319763361157e+00	 8.046770331147494e-01	 4.958088755896926e-01
1	 1.800820107117509e+00	 8.409537393391046e-01	 5.765647121181638e-01
1	 1.783534104337806e+00	 8.770190126549408e-01	 5.987874962177153e-01
1	 1.765464463545602e+00	 9.128480036921272e-01	 5.550139639064655e-01
1	 1.746614917301015e+00	 9.484158268118108e-01	 4.378699478450392e-01
1	 1.726990231055807e+00	 9.836976119355786e-01	 2.401033792728824e-01
1	 1.706596208904524e+00	 1.018668557310514e+00	-4.538255368441263e-02
1	 1.685439696139396e+00	 1.053303982995660e+00	-4.254963083998519e-01
1	 1.663528578533549e+00	 1.087579384846024e+00	-9.069251734846879e-01
1	 1.853765425230054e+00	 7.338888272004463e-01	 2.606956497049324e-01
1	 1.838795626342375e+00	 7.706294226014219e-01	 4.301232199334066e-01
1	 1.823034605383248e+00	 8.072074640282115e-01	 5.567003696153637e-01
1	 1.806483063427840e+00	 8.435982479446100e-01	 6.326146583649523e-01
1	 1.789142702148648e+00	 8.797769340695007e-01	 6.500722075188913e-01
1	 1.771016238586598e+00	 9.157185948900839e-01	 6.013308030175586e-01
1	 1.752107417039418e+00	 9.513982665107843e-01	 4.787336161658289e-01
1	 1.732421017944570e+00	 9.867910006453979e-01	 2.747433364053078e-01
1	 1.711962863648470e+00	 1.021871917548076e+00	-1.802349971600103e-02
1	 1.690739820969425e+00	 1.056616259667989e+00	-4.067622072785339e-01
1	 1.668759800478590e+00	 1.090999445803085e+00	-8.984459093957773e-01
1	 1.859576602111558e+00	 7.361894191280726e-01	 3.379795628849793e-01
1	 1.844559875954101e+00	 7.730451888079128e-01	 5.009334361275889e-01
1	 1.828749447405340e+00	 8.097378949403902e-01	 6.216528816711901e-01
1	 1.812146019738172e+00	 8.462427565487523e-01	 6.920583181849297e-01
1	 1.794751299959490e+00	 8.825348554826673e-01	 7.040829220964073e-01
1	 1.776568013627593e+00	 9.185891860866668e-01	 6.497067595672104e-01
1	 1.757599916777820e+00	 9.543807062084535e-01	 5.209915880641367e-01
1	 1.737851804833333e+00	 9.898843893540332e-01	 3.101161159181398e-01
1	 1.717329518392415e+00	 1.025075277784627e+00	 9.411497755948323e-03
1	 1.696039945799453e+00	 1.059928536339529e+00	-3.886031649139953e-01
1	 1.673991022423631e+00	 1.094419506759630e+00	-8.911855552049115e-01
1	 1.621678802973224e+00	 1.060218897170963e+00	-1.020055550704658e+00
1	 1.599591985124764e+00	 1.093257394690917e+00	-1.718506410190977e+00
1	 1.576787944836393e+00	 1.125897875888930e+00	-2.390568884636234e+00
1	 1.553277375593093e+00	 1.158117284377714e+00	-3.031321853373502e+00
1	 1.529071949648924e+00	 1.189892945895716e+00	-3.635941492575044e+00
1	 1.504184300911613e+00	 1.221202619870727e+00	-4.199722230901509e+00
1	 1.478628004584906e+00	 1.252024550054371e+00	-4.718097278611948e+00
1	 1.452417553628661e+00	 1.282337513990595e+00	-5.186658587943491e+00
1	 1.425568332116420e+00	 1.312120871085830e+00	-5.601176105735332e+00
1	 1.398096585589446e+00	 1.341354609054905e+00	-5.957616183905769e+00
1	 1.370019388525000e+00	 1.370019388525000e+00	-6.252159019443506e+00
1	 1.626910024918265e+00	 1.063638958132152e+00	-1.001397168947351e+00
1	 1.604751959270904e+00	 1.096784031450565e+00	-1.684904487685604e+00
1	 1.581874357562790e+00	 1.129529804523423e+00	-2.342905997838920e+00
1	 1.558287947774017e+00	 1.161853146587997e+00	-2.970487700013182e+00
1	 1.534004439811075e+00	 1.193731310239953e+00	-3.562830596235390e+00
1	 1.509036508336235e+00	 1.225141983163302e+00	-4.115231624104561e+00
1	 1.483397772344218e+00	 1.256063338928220e+00	-4.623124175567045e+00
1	 1.457102771546368e+00	 1.286474086619120e+00	-5.082098058267299e+00
1	 1.430166939642268e+00	 1.316353519059871e+00	-5.487918760502923e+00
1	 1.402606574578156e+00	 1.345681559409546e+00	-5.836545885354152e+00
1	 1.374438805910250e+00	 1.374438805910250e+00	-6.124150625519798e+00
1	 1.632141246863306e+00	 1.067059019092824e+00	-9.840542019357316e-01
1	 1.609911933417050e+00	 1.100310668209977e+00	-1.652640223675872e+00
1	 1.586960770289209e+00	 1.133161733157923e+00	-2.296599277888057e+00
1	 1.563298519954986e+00	 1.165589008798488e+00	-2.911024430781823e+00
1	 1.538936929973306e+00	 1.197569674584561e+00	-3.491101463837411e+00
1	 1.513888715760980e+00	 1.229081346456369e+00	-4.032129786711001e+00
1	 1.488167540103710e+00	 1.260102127802645e+00	-4.529542945883908e+00
1	 1.461787989464320e+00	 1.290610659248262e+00	-4.978928587148623e+00
1	 1.434765547168438e+00	 1.320586167034532e+00	-5.376047733012016e+00
1	 1.407116563567272e+00	 1.350008509764767e+00	-5.716853240547271e+00
1	 1.378858223296000e+00	 1.378858223296000e+00	-5.997507311095672e+00
1	 1.637372468808346e+00	 1.070479080052980e+00	-9.680140418617402e-01
1	 1.615071907563200e+00	 1.103837304969154e+00	-1.621700797154994e+00
1	 1.592047183015646e+00	 1.136793661792429e+00	-2.251635726380756e+00
1	 1.568309092136000e+00	 1.169324871009188e+00	-2.852918906216364e+00
1	 1.543869420135618e+00	 1.201408038929540e+00	-3.420740851638722e+00
1	 1.518740923185852e+00	 1.233020709749930e+00	-3.950403407833334e+00
1	 1.492937307863381e+00	 1.264140916677645e+00	-4.437340248924545e+00
1	 1.466473207382516e+00	 1.294747231878022e+00	-4.877136841758906e+00
1	 1.439364154694926e+00	 1.324818815009812e+00	-5.265549735873033e+00
1	 1.411626552556793e+00	 1.354335460120568e+00	-5.598525045136904e+00
1	 1.383277640682250e+00	 1.383277640682250e+00	-5.872215992342698e+00
1	 1.642603690753387e+00	 1.073899141012621e+00	-9.532642415262684e-01
1	 1.620231881709356e+00	 1.107363941728095e+00	-1.592073550441143e+00
1	 1.597133595742103e+00	 1.140425590426941e+00	-2.208002510498746e+00
1	 1.573319664317058e+00	 1.173060733220096e+00	-2.796158154235346e+00
1	 1.548801910298009e+00	 1.205246403274890e+00	-3.351735684606861e+00
1	 1.523593130610847e+00	 1.236960073043985e+00	-3.870039346149468e+00
1	 1.497707075623232e+00	 1.268179705553220e+00	-4.346502913995361e+00
1	 1.471158425300957e+00	 1.298883804508399e+00	-4.776709659114559e+00
1	 1.443962762221735e+00	 1.329051462985710e+00	-5.156411650962559e+00
1	 1.416136541546718e+00	 1.358662410476948e+00	-5.481548262982937e+00
1	 1.387697058069000e+00	 1.387697058069000e+00	-5.748263752105182e+00
1	 1.647834912698428e+00	 1.077319201971746e+00	-9.397925117898340e-01
1	 1.625391855855516e+00	 1.110890578486802e+00	-1.563745986584897e+00
1	 1.602220008468580e+00	 1.144057519061459e+00	-2.165686960380264e+00
1	 1.578330236498161e+00	 1.176796595431213e+00	-2.740729367482205e+00
1	 1.553734400460479e+00	 1.209084767620610e+00	-3.284073053741710e+00
1	 1.528445338035967e+00	 1.240899436338533e+00	-3.791024627211231e+00
1	 1.502476843383263e+00	 1.272218494429372e+00	-4.257017937649598e+00
1	 1.475843643219643e+00	 1.303020377139393e+00	-4.677634043381006e+00
1	 1.448561369748863e+00	 1.333284110962227e+00	-5.048620526736395e+00
1	 1.420646530537048e+00	 1.362989360833909e+00	-5.365910023483805e+00
1	 1.392116475456250e+00	 1.392116475456250e+00	-5.625637837254995e+00
1	 1.653066134643468e+00	 1.080739262930354e+00	-9.275867190716089e-01
1	 1.630551830001681e+00	 1.114417215245272e+00	-1.536705766826038e+00
1	 1.607306421195076e+00	 1.147689447695984e+00	-2.124676566541390e+00
1	 1.583340808679309e+00	 1.180532457642537e+00	-2.686619900718736e+00
1	 1.558666890623030e+00	 1.212923131966702e+00	-3.217740213448029e+00
1	 1.533297545461211e+00	 1.244838799633574e+00	-3.713346440804036e+00
1	 1.507246611143473e+00	 1.276257283306099e+00	-4.168872481041236e+00
1	 1.480528861138573e+00	 1.307156949771005e+00	-4.579897163227939e+00
1	 1.453159977276312e+00	 1.337516758939363e+00	-4.942163575594080e+00
1	 1.425156519527784e+00	 1.367316311191448e+00	-5.251597618956815e+00
1	 1.396535892844000e+00	 1.396535892844000e+00	-5.504325656095912e+00
1	 1.658297356588509e+00	 1.084159323888447e+00	-9.166348828958784e-01
1	 1.635711804147851e+00	 1.117943852003508e+00	-1.510940708098392e+00
1	 1.612392833921593e+00	 1.151321376330514e+00	-2.084958977346605e+00
1	 1.588351380860501e+00	 1.184268319854071e+00	-2.633817268268053e+00
1	 1.563599380785660e+00	 1.216761496313164e+00	-3.152724578958273e+00
1	 1.538149752886581e+00	 1.248778162929109e+00	-3.636992138356257e+00
1	 1.512016378903863e+00	 1.280296072183401e+00	-4.082053867328577e+00
1	 1.485214079057749e+00	 1.311293522403235e+00	-4.483486349234475e+00
1	 1.457758584804080e+00	 1.341749406917118e+00	-4.837028171292967e+00
1	 1.429666508518924e+00	 1.371643261549568e+00	-5.138598502068561e+00
1	 1.400955310232250e+00	 1.400955310232250e+00	-5.384314775817654e+00
1	 1.663528578533549e+00	 1.087579384846024e+00	-9.069251734846879e-01
1	 1.640871778294026e+00	 1.121470488761508e+00	-1.486438780581886e+00
1	 1.617479246648130e+00	 1.154953304965052e+00	-2.046521996526888e+00
1	 1.593361953041739e+00	 1.188004182065812e+00	-2.582309141505904e+00
1	 1.568531870948370e+00	 1.220599860659997e+00	-3.089013723803946e+00
1	 1.543001960312075e+00	 1.252717526225136e+00	-3.561949230397931e+00
1	 1.516786146664433e+00	 1.284334861061279e+00	-3.996549579126897e+00
1	 1.489899296977169e+00	 1.315430095036082e+00	-4.388389091343655e+00
1	 1.462357192332169e+00	 1.345982054895491e+00	-4.733201846410775e+00
1	 1.434176497510469e+00	 1.375970211908267e+00	-5.026900283313712e+00
1	 1.405374727621000e+00	 1.405374727621000e+00	-5.265592919997452e+00
1	 1.668759800478590e+00	 1.090999445803085e+00	-8.984459093957773e-01
1	 1.646031752440207e+00	 1.124997125519273e+00	-1.463188105300629e+00
1	 1.622565659374687e+00	 1.158585233599594e+00	-2.009353580744387e+00
1	 1.598372525223021e+00	 1.191740044277763e+00	-2.532083346398786e+00
1	 1.573464361111159e+00	 1.224438225007201e+00	-3.026595377334224e+00
1	 1.547854167737693e+00	 1.256656889521658e+00	-3.488205384066663e+00
1	 1.521555914425183e+00	 1.288373649939733e+00	-3.912347256009405e+00
1	 1.494584514896834e+00	 1.319566667669546e+00	-4.294593036364390e+00
1	 1.466955799860576e+00	 1.350214702874484e+00	-4.630672289856891e+00
1	 1.438686486502419e+00	 1.380297162267546e+00	-4.916490728541533e+00
1	 1.409794145010250e+00	 1.409794145010250e+00	-5.148147966148855e+00
1	 1.673991022423631e+00	 1.094419506759630e+00	-8.911855552049115e-01
1	 1.651191726586392e+00	 1.128523762276803e+00	-1.441176951765802e+00
1	 1.627652072101263e+00	 1.162217162234144e+00	-1.973441837202963e+00
1	 1.603383097404348e+00	 1.195475906489921e+00	-2.483127861088628e+00
1	 1.578396851274028e+00	 1.228276589354776e+00	-2.965457422281488e+00
1	 1.552706375163437e+00	 1.260596252818672e+00	-3.415748420661050e+00
1	 1.526325682186112e+00	 1.292412438818762e+00	-3.829434692054730e+00
1	 1.499269732816743e+00	 1.323703240303628e+00	-4.202085985520376e+00
1	 1.471554407389304e+00	 1.354447350854096e+00	-4.529427344429205e+00
1	 1.443196475494775e+00	 1.384624112627405e+00	-4.807357756527996e+00
1	 1.414213562400000e+00	 1.414213562400000e+00	-5.031967943316499e+00
1	 1.370019388525000e+00	 1.370019388525000e+00	-6.252159019443506e+00
1	 1.341354609054905e+00	 1.398096585589446e+00	-6.510090080829187e+00
1	 1.312120871085830e+00	 1.425568332116420e+00	-6.747681903597701e+00
1	 1.282337513990595e+00	 1.452417553628662e+00	-6.962399538789517e+00
1	 1.252024550054371e+00	 1.478628004584906e+00	-7.151793123178534e+00
1	 1.221202619870727e+00	 1.504184300911613e+00	-7.313507773494299e+00
1	 1.189892945895717e+00	 1.529071949648923e+00	-7.445292939607556e+00
1	 1.158117284377715e+00	 1.553277375593092e+00	-7.545011157713692e+00
1	 1.125897875888931e+00	 1.576787944836393e+00	-7.610646149961421e+00
1	 1.093257394690918e+00	 1.599591985124763e+00	-7.640310222884242e+00
1	 1.060218897170963e+00	 1.621678802973224e+00	-7.632250923310391e+00
1	 1.374438805910250e+00	 1.374438805910250e+00	-6.124150625519798e+00
1	 1.345681559409546e+00	 1.402606574578157e+00	-6.376523080943836e+00
1	 1.316353519059871e+00	 1.430166939642268e+00	-6.606673415913388e+00
1	 1.286474086619120e+00	 1.457102771546368e+00	-6.811857007234354e+00
1	 1.256063338928221e+00	 1.483397772344218e+00	-6.989423368832306e+00
1	 1.225141983163302e+00	 1.509036508336234e+00	-7.136826883824650e+00
1	 1.193731310239954e+00	 1.534004439811075e+00	-7.251636938394353e+00
1	 1.161853146587998e+00	 1.558287947774016e+00	-7.331547393580975e+00
1	 1.129529804523424e+00	 1.581874357562790e+00	-7.374385337078230e+00
1	 1.096784031450566e+00	 1.604751959270904e+00	-7.378119063631337e+00
1	 1.063638958132152e+00	 1.626910024918265e+00	-7.340865239576353e+00
1	 1.378858223296000e+00	 1.378858223296000e+00	-5.997507311095672e+00
1	 1.350008509764767e+00	 1.407116563567272e+00	-6.243788538679570e+00
1	 1.320586167034532e+00	 1.434765547168438e+00	-6.465978111331787e+00
1	 1.290610659248262e+00	 1.461787989464320e+00	-6.661122719805676e+00
1	 1.260102127802645e+00	 1.488167540103709e+00	-6.826372204569896e+00
1	 1.229081346456370e+00	 1.513888715760980e+00	-6.958991122468223e+00
1	 1.197569674584562e+00	 1.538936929973306e+00	-7.056369658235819e+00
1	 1.165589008798489e+00	 1.563298519954986e+00	-7.116033812086886e+00
1	 1.133161733157924e+00	 1.586960770289208e+00	-7.135654801119889e+00
1	 1.100310668209978e+00	 1.609911933417049e+00	-7.113057619383115e+00
1	 1.067059019092824e+00	 1.632141246863306e+00	-7.046228709022094e+00
1	 1.383277640682250e+00	 1.383277640682250e+00	-5.872215992342698e+00
1	 1.354335460120567e+00	 1.411626552556793e+00	-6.111878475209673e+00
1	 1.324818815009812e+00	 1.439364154694926e+00	-6.325592988097788e+00
1	 1.294747231878022e+00	 1.466473207382516e+00	-6.510198514418924e+00
1	 1.264140916677645e+00	 1.492937307863381e+00	-6.662646161476268e+00
1	 1.233020709749931e+00	 1.518740923185851e+00	-6.780011558482122e+00
1	 1.201408038929541e+00	 1.543869420135618e+00	-6.859506542699303e+00
1	 1.169324871009189e+00	 1.568309092135999e+00	-6.898490060042360e+00
1	 1.136793661792430e+00	 1.592047183015645e+00	-6.894478213552538e+00
1	 1.103837304969155e+00	 1.615071907563200e+00	-6.845153400857706e+00
1	 1.070479080052980e+00	 1.637372468808346e+00	-6.748372489923259e+00
1	 1.387697058069000e+00	 1.387697058069000e+00	-5.748263752105182e+00
1	 1.358662410476948e+00	 1.416136541546718e+00	-5.980785013348360e+00
1	 1.329051462985710e+00	 1.443962762221735e+00	-6.185515082695339e+00
1	 1.298883804508399e+00	 1.471158425300957e+00	-6.359086205576471e+00
1	 1.268179705553221e+00	 1.497707075623232e+00	-6.498251687437872e+00
1	 1.236960073043986e+00	 1.523593130610847e+00	-6.599899119916132e+00
1	 1.205246403274890e+00	 1.548801910298009e+00	-6.661062838618823e+00
1	 1.173060733220097e+00	 1.573319664317057e+00	-6.678935533980265e+00
1	 1.140425590426942e+00	 1.597133595742102e+00	-6.650878944295204e+00
1	 1.107363941728096e+00	 1.620231881709355e+00	-6.574433568318033e+00
1	 1.073899141012621e+00	 1.642603690753387e+00	-6.447327343634953e+00
1	 1.392116475456250e+00	 1.392116475456250e+00	-5.625637837254995e+00
1	 1.362989360833908e+00	 1.420646530537048e+00	-5.850500375937690e+00
1	 1.333284110962227e+00	 1.448561369748863e+00	-6.045741469240246e+00
1	 1.303020377139394e+00	 1.475843643219643e+00	-6.207787584739630e+00
1	 1.272218494429372e+00	 1.502476843383263e+00	-6.333195148463133e+00
1	 1.240899436338533e+00	 1.528445338035967e+00	-6.418664596051301e+00
1	 1.209084767620611e+00	 1.553734400460479e+00	-6.461053599217748e+00
1	 1.176796595431213e+00	 1.578330236498160e+00	-6.457389384128476e+00
1	 1.144057519061460e+00	 1.602220008468579e+00	-6.404880066505878e+00
1	 1.110890578486802e+00	 1.625391855855515e+00	-6.300924937134997e+00
1	 1.077319201971746e+00	 1.647834912698428e+00	-6.143123640891817e+00
1	 1.396535892844000e+00	 1.396535892844000e+00	-5.504325656095912e+00
1	 1.367316311191448e+00	 1.425156519527784e+00	-5.721016884264856e+00
1	 1.337516758939363e+00	 1.453159977276312e+00	-5.906269258884933e+00
1	 1.307156949771005e+00	 1.480528861138573e+00	-6.056304420692821e+00
1	 1.276257283306099e+00	 1.507246611143473e+00	-6.167482829978244e+00
1	 1.244838799633575e+00	 1.533297545461211e+00	-6.236318639595474e+00
1	 1.212923131966702e+00	 1.558666890623029e+00	-6.259493687172327e+00
1	 1.180532457642538e+00	 1.583340808679309e+00	-6.233870518307071e+00
1	 1.147689447695985e+00	 1.607306421195076e+00	-6.156504361277634e+00
1	 1.114417215245273e+00	 1.630551830001680e+00	-6.024653983244443e+00
1	 1.080739262930354e+00	 1.653066134643468e+00	-5.835791367989142e+00
1	 1.400955310232250e+00	 1.400955310232250e+00	-5.384314775817654e+00
1	 1.371643261549568e+00	 1.429666508518924e+00	-5.592326956509083e+00
1	 1.341749406917117e+00	 1.457758584804080e+00	-5.767095599234049e+00
1	 1.311293522403234e+00	 1.485214079057749e+00	-5.904638459901467e+00
1	 1.280296072183401e+00	 1.512016378903863e+00	-6.001120938097910e+00
1	 1.248778162929109e+00	 1.538149752886580e+00	-6.052871768837555e+00
1	 1.216761496313165e+00	 1.563599380785660e+00	-6.056397777617299e+00
1	 1.184268319854072e+00	 1.588351380860501e+00	-6.008397605751414e+00
1	 1.151321376330515e+00	 1.612392833921592e+00	-5.905774322244608e+00
1	 1.117943852003509e+00	 1.635711804147850e+00	-5.745646848501384e+00
1	 1.084159323888447e+00	 1.658297356588509e+00	-5.525360132846249e+00
1	 1.405374727621000e+00	 1.405374727621000e+00	-5.265592919997452e+00
1	 1.375970211908267e+00	 1.434176497510469e+00	-5.464423106218783e+00
1	 1.345982054895491e+00	 1.462357192332168e+00	-5.628217673771492e+00
1	 1.315430095036082e+00	 1.489899296977169e+00	-5.752791426862910e+00
1	 1.284334861061280e+00	 1.516786146664433e+00	-5.834115600872385e+00
1	 1.252717526225137e+00	 1.543001960312074e+00	-5.868334369760878e+00
1	 1.220599860659997e+00	 1.568531870948369e+00	-5.851780361094472e+00
1	 1.188004182065814e+00	 1.593361953041738e+00	-5.780989080864074e+00
1	 1.154953304965052e+00	 1.617479246648130e+00	-5.652712160102586e+00
1	 1.121470488761509e+00	 1.640871778294025e+00	-5.463929345931986e+00
1	 1.087579384846024e+00	 1.663528578533549e+00	-5.211859170955977e+00
1	 1.409794145010250e+00	 1.409794145010250e+00	-5.148147966148855e+00
1	 1.380297162267546e+00	 1.438686486502419e+00	-5.337297940816141e+00
1	 1.350214702874484e+00	 1.466955799860576e+00	-5.489632701298010e+00
1	 1.319566667669546e+00	 1.494584514896834e+00	-5.600765024450659e+00
1	 1.288373649939733e+00	 1.521555914425182e+00	-5.666472869511609e+00
1	 1.256656889521658e+00	 1.547854167737693e+00	-5.682716698116859e+00
1	 1.224438225007201e+00	 1.573464361111159e+00	-5.645655746446052e+00
1	 1.191740044277763e+00	 1.598372525223020e+00	-5.551663146895018e+00
1	 1.158585233599595e+00	 1.622565659374686e+00	-5.397339807043157e+00
1	 1.124997125519274e+00	 1.646031752440205e+00	-5.179526964888707e+00
1	 1.090999445803085e+00	 1.668759800478590e+00	-4.895317351221915e+00
1	 1.414213562400000e+00	 1.414213562400000e+00	-5.031967943316499e+00
1	 1.384624112627405e+00	 1.443196475494774e+00	-5.210944160130543e+00
1	 1.354447350854096e+00	 1.471554407389304e+00	-5.351337935379251e+00
1	 1.323703240303628e+00	 1.499269732816743e+00	-5.448560934252143e+00
1	 1.292412438818763e+00	 1.526325682186112e+00	-5.498198719584854e+00
1	 1.260596252818672e+00	 1.552706375163436e+00	-5.496028881460384e+00
1	 1.228276589354776e+00	 1.578396851274027e+00	-5.438038063653712e+00
1	 1.195475906489922e+00	 1.603383097404348e+00	-5.320437779553560e+00
1	 1.162217162234145e+00	 1.627652072101262e+00	-5.139678921105623e+00
1	 1.128523762276804e+00	 1.651191726586391e+00	-4.892464876106865e+00
1	 1.094419506759630e+00	 1.673991022423631e+00	-4.575763181686600e+00
1	 1.060218897170963e+00	 1.621678802973224e+00	-7.632250923310391e+00
1	 1.026805769588582e+00	 1.643038697499170e+00	-7.497416063886073e+00
1	 9.930416753735546e-01	 1.663662970952961e+00	-7.337465792214566e+00
1	 9.589505022144016e-01	 1.683543935945708e+00	-7.152545716068745e+00
1	 9.245563091730679e-01	 1.702674919393794e+00	-6.942875722517817e+00
1	 8.898832740590080e-01	 1.721050263217639e+00	-6.708748162343558e+00
1	 8.549556412882957e-01	 1.738665321851068e+00	-6.450525706771804e+00
1	 8.197976704459873e-01	 1.755516456634858e+00	-6.168638897106870e+00
1	 7.844335857608379e-01	 1.771601027184422e+00	-5.863583409773296e+00
1	 7.488875266910041e-01	 1.786917379836844e+00	-5.535917060910339e+00
1	 7.131834998077382e-01	 1.801464833296524e+00	-5.186256576023637e+00
1	 1.063638958132152e+00	 1.626910024918265e+00	-7.340865239576353e+00
1	 1.030118046267232e+00	 1.648338822329198e+00	-7.181817240899481e+00
1	 9.962450356192190e-01	 1.669029625696907e+00	-7.001831099974399e+00
1	 9.620438909336927e-01	 1.688974722834470e+00	-6.801301075944129e+00
1	 9.275387488824757e-01	 1.708167419132196e+00	-6.580675178954334e+00
1	 8.927538652679571e-01	 1.726602038258635e+00	-6.340452779378915e+00
1	 8.577135627140037e-01	 1.744273919661910e+00	-6.081182010602883e+00
1	 8.224421790623984e-01	 1.761179412945189e+00	-5.803456986041558e+00
1	 7.869640166845701e-01	 1.777315869206514e+00	-5.507914852008470e+00
1	 7.513032929078951e-01	 1.792681629448569e+00	-5.195232698739962e+00
1	 7.154840917441793e-01	 1.807276010178027e+00	-4.866124352344998e+00
1	 1.067059019092824e+00	 1.632141246863306e+00	-7.046228709022094e+00
1	 1.033430322945092e+00	 1.653638947159227e+00	-6.863682407137288e+00
1	 9.994483958638706e-01	 1.674396280440852e+00	-6.664345539663239e+00
1	 9.651372796517996e-01	 1.694405509723232e+00	-6.448859946205181e+00
1	 9.305211885905795e-01	 1.713659918870599e+00	-6.217900778922218e+00
1	 8.956244564755320e-01	 1.732153813299629e+00	-5.972173538608300e+00
1	 8.604714841383184e-01	 1.749882517472753e+00	-5.712411025103169e+00
1	 8.250866876774460e-01	 1.766842369255521e+00	-5.439370222806496e+00
1	 7.894944476070181e-01	 1.783030711228605e+00	-5.153829142017215e+00
1	 7.537190591236307e-01	 1.798445879060295e+00	-4.856583636577482e+00
1	 7.177846836796407e-01	 1.813087187059531e+00	-4.548444217866097e+00
1	 1.070479080052980e+00	 1.637372468808346e+00	-6.748372489923259e+00
1	 1.036742599622162e+00	 1.658939071989255e+00	-6.543035869411531e+00
1	 1.002651756107509e+00	 1.679762935184797e+00	-6.325026851230062e+00
1	 9.682306683687230e-01	 1.699836296611995e+00	-6.095233794802982e+00
1	 9.335036282973791e-01	 1.719152418609001e+00	-5.854558022642825e+00
1	 8.984950476817329e-01	 1.737705588340626e+00	-5.603910285313344e+00
1	 8.632294055612392e-01	 1.755491115283595e+00	-5.344207261031878e+00
1	 8.277311962911307e-01	 1.772505325565852e+00	-5.076368110775737e+00
1	 7.920248785281830e-01	 1.788745553250697e+00	-4.801311108732976e+00
1	 7.561348253382103e-01	 1.804210128672021e+00	-4.519950366753405e+00
1	 7.200852756141227e-01	 1.818898363941034e+00	-4.233192670132496e+00
1	 1.073899141012621e+00	 1.642603690753387e+00	-6.447327343634953e+00
1	 1.040054876298441e+00	 1.664239196819284e+00	-6.219901624893558e+00
1	 1.005855116350136e+00	 1.685129589928743e+00	-5.983892548637640e+00
1	 9.713240570844623e-01	 1.705267083500758e+00	-5.740433943600244e+00
1	 9.364860680028740e-01	 1.724644918347404e+00	-5.490652340270722e+00
1	 9.013656388865601e-01	 1.743257363381621e+00	-5.235662866746710e+00
1	 8.659873269827665e-01	 1.761099713094437e+00	-4.976565299074974e+00
1	 8.303757049034521e-01	 1.778168281876183e+00	-4.714440287038406e+00
1	 7.945553094480639e-01	 1.794460395272789e+00	-4.450345774351294e+00
1	 7.585505915516348e-01	 1.809974378283746e+00	-4.185313630103412e+00
1	 7.223858675476252e-01	 1.824709540822538e+00	-3.920346506084262e+00
1	 1.077319201971746e+00	 1.647834912698428e+00	-6.143123640891817e+00
1	 1.043367152973931e+00	 1.669539321649312e+00	-5.894303366028682e+00
1	 1.009058476591749e+00	 1.690496244672688e+00	-5.640959923449015e+00
1	 9.744174457990175e-01	 1.710697870389520e+00	-5.384471570689884e+00
1	 9.394685077070648e-01	 1.730137418085806e+00	-5.126189093006142e+00
1	 9.042362300900129e-01	 1.748809138422616e+00	-4.867431132100688e+00
1	 8.687452484029006e-01	 1.766708310905279e+00	-4.609479788735083e+00
1	 8.330202135144101e-01	 1.783831238186514e+00	-4.353576520276006e+00
1	 7.970857403666609e-01	 1.800175237294881e+00	-4.100918351261895e+00
1	 7.609663577639038e-01	 1.815738627895472e+00	-3.852654412024089e+00
1	 7.246864594801484e-01	 1.830520717704041e+00	-3.609882817303646e+00
1	 1.080739262930354e+00	 1.653066134643468e+00	-5.835791367989142e+00
1	 1.046679429648631e+00	 1.674839446479340e+00	-5.566264485357968e+00
1	 1.012261836832350e+00	 1.695862899416633e+00	-5.296246048346890e+00
1	 9.775108345123885e-01	 1.716128657278282e+00	-5.027357712670030e+00
1	 9.424509474099513e-01	 1.735629917824209e+00	-4.761173574186335e+00
1	 9.071068212920917e-01	 1.754360913463611e+00	-4.499214932476478e+00
1	 8.715031698216408e-01	 1.772316908716121e+00	-4.242945447242565e+00
1	 8.356647221240052e-01	 1.789494194496846e+00	-3.993766708680589e+00
1	 7.996161712839743e-01	 1.805890079316973e+00	-3.753014239039640e+00
1	 7.633821239750168e-01	 1.821502877507198e+00	-3.521953938603263e+00
1	 7.269870514116920e-01	 1.836331894585544e+00	-3.301778985352798e+00
1	 1.084159323888447e+00	 1.658297356588509e+00	-5.525360132846249e+00
1	 1.049991706322540e+00	 1.680139571309368e+00	-5.235808080248604e+00
1	 1.015465197071938e+00	 1.701229554160579e+00	-4.949767780585761e+00
1	 9.806042232245756e-01	 1.721559444167045e+00	-4.669103266875791e+00
1	 9.454333871115334e-01	 1.741122417562612e+00	-4.395611010355299e+00
1	 9.099774124927966e-01	 1.759912688504607e+00	-4.131014120854246e+00
1	 8.742610912389879e-01	 1.777925506526964e+00	-3.876957058487516e+00
1	 8.383092307322371e-01	 1.795157150807177e+00	-3.635000877911633e+00
1	 8.021466022000041e-01	 1.811604921339064e+00	-3.406619021491798e+00
1	 7.657978901849745e-01	 1.827267127118923e+00	-3.193193672823639e+00
1	 7.292876433422564e-01	 1.842143071467048e+00	-2.996012677200138e+00
1	 1.087579384846024e+00	 1.663528578533549e+00	-5.211859170955977e+00
1	 1.053303982995660e+00	 1.685439696139397e+00	-4.902956957534694e+00
1	 1.018668557310514e+00	 1.706596208904524e+00	-4.601541765379154e+00
1	 9.836976119355786e-01	 1.726990231055807e+00	-4.309718993568899e+00
1	 9.484158268118111e-01	 1.746614917301015e+00	-4.029506562314632e+00
1	 9.128480036921276e-01	 1.765464463545602e+00	-3.762828552063260e+00
1	 8.770190126549415e-01	 1.783534104337806e+00	-3.511509471971301e+00
1	 8.409537393391054e-01	 1.800820107117508e+00	-3.277269179092202e+00
1	 8.046770331147501e-01	 1.817319763361156e+00	-3.061718463761528e+00
1	 7.682136563937766e-01	 1.833031376730649e+00	-2.866355310837858e+00
1	 7.315882352718411e-01	 1.847954248348551e+00	-2.692561840732798e+00
1	 1.090999445803085e+00	 1.668759800478590e+00	-4.895317351221915e+00
1	 1.056616259667989e+00	 1.690739820969425e+00	-4.567733638071627e+00
1	 1.021871917548077e+00	 1.711962863648470e+00	-4.251584439223451e+00
1	 9.867910006453979e-01	 1.732421017944569e+00	-3.949215518086103e+00
1	 9.513982665107844e-01	 1.752107417039417e+00	-3.662865326153443e+00
1	 9.157185948900844e-01	 1.771016238586598e+00	-3.394658082753373e+00
1	 8.797769340695013e-01	 1.789142702148648e+00	-3.146597601778446e+00
1	 8.435982479446109e-01	 1.806483063427840e+00	-2.920561886842215e+00
1	 8.072074640282126e-01	 1.823034605383248e+00	-2.718298509485336e+00
1	 7.706294226014232e-01	 1.838795626342375e+00	-2.541420778314095e+00
1	 7.338888272004465e-01	 1.853765425230055e+00	-2.391404700353495e+00
1	 1.094419506759630e+00	 1.673991022423631e+00	-4.575763181686600e+00
1	 1.059928536339529e+00	 1.696039945799453e+00	-4.230160361203951e+00
1	 1.025075277784627e+00	 1.717329518392415e+00	-3.899912033158650e+00
1	 9.898843893540332e-01	 1.737851804833332e+00	-3.587603332947540e+00
1	 9.543807062084537e-01	 1.757599916777820e+00	-3.295692334259970e+00
1	 9.185891860866674e-01	 1.776568013627593e+00	-3.026502571366108e+00
1	 8.825348554826680e-01	 1.794751299959490e+00	-2.782216425567352e+00
1	 8.462427565487531e-01	 1.812146019738171e+00	-2.564869397348607e+00
1	 8.097378949403913e-01	 1.828749447405340e+00	-2.376345278004475e+00
1	 7.730451888079141e-01	 1.844559875954101e+00	-2.218372226849560e+00
1	 7.361894191280726e-01	 1.859576602111558e+00	-2.092519752660005e+00
1	 7.131834998077382e-01	 1.801464833296524e+00	-5.186256576023637e+00
1	 6.773453321514072e-01	 1.815243661611245e+00	-4.819470738170502e+00
1	 6.413966262208445e-01	 1.828255074622592e+00	-4.557522446553328e+00
1	 6.053607167423782e-01	 1.840501196043703e+00	-4.402657649338845e+00
1	 5.692606293503408e-01	 1.851985039325666e+00	-4.356676163002456e+00
1	 5.331190412958158e-01	 1.862710481481908e+00	-4.420938030424153e+00
1	 4.969582442846516e-01	 1.872682235044607e+00	-4.596371846949044e+00
1	 4.608001095303144e-01	 1.881905818331420e+00	-4.883484925446175e+00
1	 4.246660550916136e-01	 1.890387524203362e+00	-5.282375162883137e+00
1	 3.885770155500051e-01	 1.898134387495910e+00	-5.792744464132100e+00
1	 3.525534140661327e-01	 1.905154151305217e+00	-6.413913573617082e+00
1	 7.154840917441793e-01	 1.807276010178027e+00	-4.866124352344998e+00
1	 6.795303170952004e-01	 1.821099286326586e+00	-4.531425761431633e+00
1	 6.434656475968770e-01	 1.834152671638440e+00	-4.299560825483719e+00
1	 6.073134932488481e-01	 1.846438296677414e+00	-4.172626931836882e+00
1	 5.710969539616871e-01	 1.857959184615408e+00	-4.152286426772143e+00
1	 5.348387801389002e-01	 1.868719224972345e+00	-4.239773167498921e+00
1	 4.985613353950658e-01	 1.878723145482121e+00	-4.435900980432385e+00
1	 4.622865614959522e-01	 1.887976482263419e+00	-4.741073898393838e+00
1	 4.260359455908815e-01	 1.896485548476807e+00	-5.155298041235462e+00
1	 3.898304897922183e-01	 1.904257401650780e+00	-5.678194997941317e+00
1	 3.536906831417707e-01	 1.911299809859224e+00	-6.309016563463504e+00
1	 7.177846836796407e-01	 1.813087187059531e+00	-4.548444217866097e+00
1	 6.817153020382142e-01	 1.826954911041928e+00	-4.245354419296750e+00
1	 6.455346689723309e-01	 1.840050268654288e+00	-4.043110447409672e+00
1	 6.092662697549404e-01	 1.852375397311125e+00	-3.943661736391371e+00
1	 5.729332785728569e-01	 1.863933329905151e+00	-3.948533717459743e+00
1	 5.365585189820097e-01	 1.874727968462782e+00	-4.058834564266276e+00
1	 5.001644265057066e-01	 1.884764055919635e+00	-4.275263783175758e+00
1	 4.637730134620175e-01	 1.894047146195417e+00	-4.598122522636855e+00
1	 4.274058360907779e-01	 1.902583572750251e+00	-5.027325468121240e+00
1	 3.910839640352607e-01	 1.910380415805650e+00	-5.562414183007529e+00
1	 3.548279522184382e-01	 1.917445468413230e+00	-6.202571751305352e+00
1	 7.200852756141227e-01	 1.818898363941034e+00	-4.233192670132496e+00
1	 6.839002869804489e-01	 1.832810535757269e+00	-3.961237795138775e+00
1	 6.476036903472060e-01	 1.845947865670136e+00	-3.788156827573085e+00
1	 6.112190462606555e-01	 1.858312497944836e+00	-3.715751850330455e+00
1	 5.747696031838505e-01	 1.869907475194893e+00	-3.745411929375937e+00
1	 5.382782578251445e-01	 1.880736711953220e+00	-3.878120052103408e+00
1	 5.017675176165737e-01	 1.890804966357149e+00	-4.114461849404214e+00
1	 4.652594654285104e-01	 1.900117810127416e+00	-4.454635977237271e+00
1	 4.287757265913029e-01	 1.908681597023695e+00	-4.898466026143661e+00
1	 3.923374382791323e-01	 1.916503429960519e+00	-5.445413821396508e+00
1	 3.559652212961349e-01	 1.923591126967236e+00	-6.094593972306914e+00
1	 7.223858675476252e-01	 1.824709540822538e+00	-3.920346506084262e+00
1	 6.860852719219046e-01	 1.838666160472611e+00	-3.679057213307004e+00
1	 6.496727117215030e-01	 1.851845462685984e+00	-3.534685665735214e+00
1	 6.131718227659927e-01	 1.864249598578548e+00	-3.488887191079997e+00
1	 5.766059277946679e-01	 1.875881620484635e+00	-3.542915034610883e+00
1	 5.399979966683043e-01	 1.886745455443657e+00	-3.697627490013207e+00
1	 5.033706087276673e-01	 1.896845876794663e+00	-3.953496753034190e+00
1	 4.667459173954313e-01	 1.906188474059414e+00	-4.310619375281773e+00
1	 4.301456170924566e-01	 1.914779621297139e+00	-4.768728188573166e+00
1	 3.935909125238332e-01	 1.922626444115389e+00	-5.327205564829400e+00
1	 3.571024903748610e-01	 1.929736785521243e+00	-5.985097872649339e+00
1	 7.246864594801484e-01	 1.830520717704041e+00	-3.609882817303646e+00
1	 6.882702568625807e-01	 1.844521785187952e+00	-3.398794235301784e+00
1	 6.517417330952211e-01	 1.857743059701832e+00	-3.282682843247704e+00
1	 6.151245992709528e-01	 1.870186699212259e+00	-3.263057804098607e+00
1	 5.784422524053089e-01	 1.881855765774378e+00	-3.341037081799757e+00
1	 5.417177355114892e-01	 1.892754198934094e+00	-3.517354764185806e+00
1	 5.049736998389875e-01	 1.902886787232177e+00	-3.792370047995957e+00
1	 4.682323693627796e-01	 1.912259137991413e+00	-4.166077764928964e+00
1	 4.315155075942388e-01	 1.920877645570583e+00	-4.638120321083041e+00
1	 3.948443867693633e-01	 1.928749458270259e+00	-5.207800917068766e+00
1	 3.582397594546164e-01	 1.935882444075250e+00	-5.874097912530608e+00
1	 7.269870514116920e-01	 1.836331894585544e+00	-3.301778985352798e+00
1	 6.904552418024776e-01	 1.850377409903293e+00	-3.120430656022287e+00
1	 6.538107544683609e-01	 1.863640656717680e+00	-3.032134420179248e+00
1	 6.170773757755350e-01	 1.876123799845970e+00	-3.038253860851759e+00
1	 5.802785770157739e-01	 1.887829911064120e+00	-3.139772194911391e+00
1	 5.434374743546992e-01	 1.898762942424531e+00	-3.337299787568573e+00
1	 5.065767909505342e-01	 1.908927697669692e+00	-3.631083268549560e+00
1	 4.697188213305556e-01	 1.918329801923412e+00	-4.021016130436569e+00
1	 4.328853980966498e-01	 1.926975669844027e+00	-4.506650683452169e+00
1	 3.960978610157225e-01	 1.934872472425128e+00	-5.087211236259993e+00
1	 3.593770285354013e-01	 1.942028102629256e+00	-5.761608369108004e+00
1	 7.292876433422564e-01	 1.842143071467048e+00	-2.996012677200138e+00
1	 6.926402267415954e-01	 1.856233034618636e+00	-2.843948500085055e+00
1	 6.558797758409219e-01	 1.869538253733528e+00	-2.783026632496740e+00
1	 6.190301522797400e-01	 1.882060900479681e+00	-2.814465656824305e+00
1	 5.821149016260625e-01	 1.893804056353862e+00	-2.939114572060172e+00
1	 5.451572131979345e-01	 1.904771685914969e+00	-3.157460499443706e+00
1	 5.081798820623071e-01	 1.914968608107205e+00	-3.469637929595521e+00
1	 4.712052732987594e-01	 1.924400465855410e+00	-3.875439393169736e+00
1	 4.342552885996893e-01	 1.933073694117472e+00	-4.374327431234813e+00
1	 3.973513352629112e-01	 1.940995486579998e+00	-4.965447737227933e+00
1	 3.605142976172154e-01	 1.948173761183262e+00	-5.647643339385596e+00
1	 7.315882352718411e-01	 1.847954248348551e+00	-2.692561840732798e+00
1	 6.948252116799341e-01	 1.862088659333976e+00	-2.569330018212204e+00
1	 6.579487972129046e-01	 1.875435850749376e+00	-2.535345889299690e+00
1	 6.209829287835672e-01	 1.887998001113393e+00	-2.591683609570562e+00
1	 5.839512262361748e-01	 1.899778201643604e+00	-2.739058484340150e+00
1	 5.468769520411948e-01	 1.910780429405406e+00	-2.977834865014641e+00
1	 5.097829731743068e-01	 1.921009518544719e+00	-3.308035526978888e+00
1	 4.726917252673908e-01	 1.930471129787409e+00	-3.729352412589341e+00
1	 4.356251791033576e-01	 1.939171718390916e+00	-4.241158617399913e+00
1	 3.986048095109289e-01	 1.947118500734868e+00	-4.842521493730463e+00
1	 3.616515667000588e-01	 1.954319419737269e+00	-5.532216743046328e+00
1	 7.338888272004465e-01	 1.853765425230055e+00	-2.391404700353495e+00
1	 6.970101966174933e-01	 1.867944284049318e+00	-2.296557683687423e+00
1	 6.600178185843085e-01	 1.881333447765224e+00	-2.289078770106450e+00
1	 6.229357052870170e-01	 1.893935101747104e+00	-2.369898256800916e+00
1	 5.857875508461109e-01	 1.905752346933347e+00	-2.539598274681294e+00
1	 5.485966908844803e-01	 1.916789172895843e+00	-2.798420874999267e+00
1	 5.113860642865328e-01	 1.927050428982233e+00	-3.146277537788092e+00
1	 4.741781772364501e-01	 1.936541793719408e+00	-3.582759987222579e+00
1	 4.369950696076544e-01	 1.945269742664360e+00	-4.107152193938362e+00
1	 3.998582837597759e-01	 1.953241514889738e+00	-4.718443440669442e+00
1	 3.627888357839316e-01	 1.960465078291275e+00	-5.415342325231799e+00
1	 7.361894191280726e-01	 1.859576602111558e+00	-2.092519752660005e+00
1	 6.991951815542736e-01	 1.873799908764660e+00	-2.025614188878238e+00
1	 6.620868399551343e-01	 1.887231044781072e+00	-2.044212022191385e+00
1	 6.248884817900895e-01	 1.899872202380815e+00	-2.149100254504292e+00
1	 5.876238754558710e-01	 1.911726492223089e+00	-2.340728356726910e+00
1	 5.503164297277909e-01	 1.922797916386281e+00	-2.619216545231673e+00
1	 5.129891553989854e-01	 1.933091339419748e+00	-2.984365420647793e+00
1	 4.756646292059370e-01	 1.942612457651407e+00	-3.435666855615313e+00
1	 4.383649601125800e-01	 1.951367766937804e+00	-3.972316013441411e+00
1	 4.011117580094523e-01	 1.959364529044608e+00	-4.593224376260531e+00
1	 3.639261048688338e-01	 1.966610736845282e+00	-5.297033659269371e+00
1	 3.525534140661327e-01	 1.905154151305217e+00	-6.413913573617082e+00
1	 3.166151368409489e-01	 1.911455232310073e+00	-7.120434947854679e+00
1	 2.807815099915490e-01	 1.917046685307169e+00	-7.908473849249864e+00
1	 2.450712788396212e-01	 1.921938167134141e+00	-8.776253009676280e+00
1	 2.095025895978829e-01	 1.926139900150070e+00	-9.721776633445810e+00
1	 1.740929734263712e-01	 1.929662635437016e+00	-1.074284616363570e+01
1	 1.388593328203565e-01	 1.932517615880140e+00	-1.183707629970181e+01
1	 1.038179302810835e-01	 1.934716539276743e+00	-1.300191115946424e+01
1	 6.898437921114338e-02	 1.936271521616793e+00	-1.423464048365955e+01
1	 3.437363696779339e-02	 1.937195060669269e+00	-1.553241578693391e+01
1	 0.000000000000000e+00	 1.937500000000000e+00	-1.689226636529947e+01
1	 3.536906831417707e-01	 1.911299809859224e+00	-6.309016563463504e+00
1	 3.176364759896169e-01	 1.917621216931563e+00	-7.019996132924909e+00
1	 2.816872567952530e-01	 1.923230706873567e+00	-7.808575981883531e+00
1	 2.458618313491441e-01	 1.928137967673961e+00	-8.673170356905038e+00
1	 2.101784044001755e-01	 1.932353254667178e+00	-9.611980167789449e+00
1	 1.746545636605106e-01	 1.935887353616187e+00	-1.062300781317557e+01
1	 1.393072661495950e-01	 1.938751543673519e+00	-1.170407228113593e+01
1	 1.041528268283523e-01	 1.940957560371305e+00	-1.285282442196092e+01
1	 6.920690946518510e-02	 1.942517558783352e+00	-1.406676229499619e+01
1	 3.448451966688747e-02	 1.943444076994022e+00	-1.534324649663482e+01
1	 0.000000000000000e+00	 1.943750000000000e+00	-1.667951538226620e+01
1	 3.548279522184382e-01	 1.917445468413230e+00	-6.202571751305352e+00
1	 3.186578151394820e-01	 1.923787201553052e+00	-6.918356631055569e+00
1	 2.825930036002586e-01	 1.929414728439965e+00	-7.707846986897479e+00
1	 2.466523838600113e-01	 1.934337768213781e+00	-8.569647575120497e+00
1	 2.108542192037936e-01	 1.938566609184286e+00	-9.502154986353890e+00
1	 1.752161538958969e-01	 1.942112071795357e+00	-1.050357153435756e+01
1	 1.397551994799434e-01	 1.944985471466897e+00	-1.157191944340691e+01
1	 1.044877233765363e-01	 1.947198581465867e+00	-1.270505523556617e+01
1	 6.942943971989146e-02	 1.948763595949912e+00	-1.390068422337415e+01
1	 3.459540236634062e-02	 1.949693093318776e+00	-1.515637501825188e+01
1	 0.000000000000000e+00	 1.950000000000000e+00	-1.646957397021139e+01
1	 3.559652212961349e-01	 1.923591126967236e+00	-6.094593972306914e+00
1	 3.196791542905443e-01	 1.929953186174542e+00	-6.815527950429052e+00
1	 2.834987504065660e-01	 1.935598750006363e+00	-7.606294830371405e+00
1	 2.474429363722227e-01	 1.940537568753602e+00	-8.465688882811097e+00
1	 2.115300340087374e-01	 1.944779963701394e+00	-9.392301364369194e+00
1	 1.757777441325304e-01	 1.948336789974527e+00	-1.038453347345870e+01
1	 1.402031328114017e-01	 1.951219399260276e+00	-1.144060962823014e+01
1	 1.048226199256356e-01	 1.953439602560430e+00	-1.255859097199298e+01
1	 6.965196997526236e-02	 1.955009633116471e+00	-1.373638901527366e+01
1	 3.470628506615281e-02	 1.955942109643528e+00	-1.497177932802745e+01
1	 0.000000000000000e+00	 1.956250000000000e+00	-1.626241520033918e+01
1	 3.571024903748610e-01	 1.929736785521243e+00	-5.985097872649339e+00
1	 3.207004934428038e-01	 1.936119170796031e+00	-6.711521452626751e+00
1	 2.844044972141750e-01	 1.941782771572761e+00	-7.503927376906185e+00
1	 2.482334888857781e-01	 1.946737369293422e+00	-8.361298444726927e+00
1	 2.122058488150067e-01	 1.950993318218502e+00	-9.282419573559793e+00
1	 1.763393343704108e-01	 1.954561508153698e+00	-1.026588982584788e+01
1	 1.406510661439699e-01	 1.957453327053655e+00	-1.131013478124887e+01
1	 1.051575164756502e-01	 1.959680623654992e+00	-1.241341916382417e+01
1	 6.987450023129788e-02	 1.961255670283030e+00	-1.357385963696530e+01
1	 3.481716776632405e-02	 1.962191125968281e+00	-1.478943768276148e+01
1	 0.000000000000000e+00	 1.962500000000000e+00	-1.605801248689536e+01
1	 3.582397594546164e-01	 1.935882444075250e+00	-5.874097912530608e+00
1	 3.217218325962605e-01	 1.942285155417521e+00	-6.606348354955636e+00
1	 2.853102440230860e-01	 1.947966793139159e+00	-7.400752391235000e+00
1	 2.490240414006778e-01	 1.952937169833242e+00	-8.256480372732092e+00
1	 2.128816636226015e-01	 1.957206672735610e+00	-9.172509882199238e+00
1	 1.769009246095384e-01	 1.960786226332869e+00	-1.014763683520681e+01
1	 1.410989994776479e-01	 1.963687254847033e+00	-1.118048695038307e+01
1	 1.054924130265801e-01	 1.965921644749554e+00	-1.226952750195873e+01
1	 7.009703048799798e-02	 1.967501707449589e+00	-1.341307927102057e+01
1	 3.492805046685434e-02	 1.968440142293034e+00	-1.460932861535747e+01
1	 0.000000000000000e+00	 1.968750000000000e+00	-1.585633958172253e+01
1	 3.593770285354013e-01	 1.942028102629256e+00	-5.761608369108004e+00
1	 3.227431717509144e-01	 1.948451140039011e+00	-6.500019732731828e+00
1	 2.862159908332987e-01	 1.954150814705557e+00	-7.296777539803029e+00
1	 2.498145939169217e-01	 1.959136970373063e+00	-8.151238726641981e+00
1	 2.135574784315219e-01	 1.963420027252718e+00	-9.062572555165387e+00
1	 1.774625148499129e-01	 1.967010944512039e+00	-1.002977079276548e+01
1	 1.415469328124358e-01	 1.969921182640412e+00	-1.105165828421269e+01
1	 1.058273095784254e-01	 1.972162665844117e+00	-1.212690383310736e+01
1	 7.031956074536268e-02	 1.973747744616148e+00	-1.325403131289006e+01
1	 3.503893316774369e-02	 1.974689158617787e+00	-1.443143093045443e+01
1	 0.000000000000000e+00	 1.975000000000000e+00	-1.565737056891822e+01
1	 3.605142976172154e-01	 1.948173761183262e+00	-5.647643339385596e+00
1	 3.237645109067654e-01	 1.954617124660500e+00	-6.392546521519457e+00
1	 2.871217376448132e-01	 1.960334836271955e+00	-7.192010392318100e+00
1	 2.506051464345096e-01	 1.965336770912883e+00	-8.045577515044023e+00
1	 2.142332932417677e-01	 1.969633381769826e+00	-8.952607853993952e+00
1	 1.780241050915345e-01	 1.973235662691209e+00	-9.912288036552548e+00
1	 1.419948661483336e-01	 1.976155110433791e+00	-1.092364103038873e+01
1	 1.061622061311859e-01	 1.978403686938679e+00	-1.198553615733446e+01
1	 7.054209100339198e-02	 1.979993781782708e+00	-1.309669936754546e+01
1	 3.514981586899208e-02	 1.980938174942540e+00	-1.425572370014053e+01
1	 0.000000000000000e+00	 1.981250000000000e+00	-1.546107985959436e+01
1	 3.616515667000588e-01	 1.954319419737269e+00	-5.532216743046328e+00
1	 3.247858500638137e-01	 1.960783109281990e+00	-6.283939519328841e+00
1	 2.880274844576294e-01	 1.966518857838353e+00	-7.086458423271363e+00
1	 2.513956989534418e-01	 1.971536571452704e+00	-7.939500696103114e+00
1	 2.149091080533392e-01	 1.975846736286934e+00	-8.842616036930362e+00
1	 1.785856953344031e-01	 1.979460380870380e+00	-9.795184950658566e+00
1	 1.424427994853412e-01	 1.982389038227170e+00	-1.079642753407596e+01
1	 1.064971026848617e-01	 1.984644708033241e+00	-1.184541262564652e+01
1	 7.076462126208585e-02	 1.986239818949267e+00	-1.294106724618479e+01
1	 3.526069857059952e-02	 1.987187191267292e+00	-1.408218625974805e+01
1	 0.000000000000000e+00	 1.987500000000000e+00	-1.526744218673548e+01
1	 3.627888357839316e-01	 1.960465078291275e+00	-5.415342325231799e+00
1	 3.258071892220591e-01	 1.966949093903479e+00	-6.174209388771454e+00
1	 2.889332312717475e-01	 1.972702879404751e+00	-6.980129013430209e+00
1	 2.521862514737182e-01	 1.977736371992524e+00	-7.833012178352061e+00
1	 2.155849228662362e-01	 1.982060090804042e+00	-8.732597358982705e+00
1	 1.791472855785187e-01	 1.985685099049550e+00	-9.678457964515271e+00
1	 1.428907328234588e-01	 1.988622966020549e+00	-1.067001023642460e+01
1	 1.068319992394529e-01	 1.990885729127804e+00	-1.170652153762731e+01
1	 7.098715152144433e-02	 1.992485856115826e+00	-1.278711896300043e+01
1	 3.537158127256602e-02	 1.993436207592045e+00	-1.391079820372718e+01
1	 0.000000000000000e+00	 1.993750000000000e+00	-1.507643260015374e+01
1	 3.639261048688338e-01	 1.966610736845282e+00	-5.297033659269371e+00
1	 3.268285283815017e-01	 1.973115078524969e+00	-6.063366659176409e+00
1	 2.898389780871672e-01	 1.978886900971149e+00	-6.873029451302033e+00
1	 2.529768039953388e-01	 1.983936172532344e+00	-7.726115821466690e+00
1	 2.162607376804587e-01	 1.988273445321150e+00	-8.622552071970524e+00
1	 1.797088758238815e-01	 1.991909817228721e+00	-9.562103552186157e+00
1	 1.433386661626862e-01	 1.994856893813928e+00	-1.054438167307092e+01
1	 1.071668957949593e-01	 1.997126750222366e+00	-1.156885133911549e+01
1	 7.120968178146743e-02	 1.998731893282386e+00	-1.263483873200750e+01
1	 3.548246397489156e-02	 1.999685223916798e+00	-1.374153938159740e+01
1	 0.000000000000000e+00	 2.000000000000000e+00	-1.488802646153846e+01
