label=Stress xy
num_items=882

0:6.5222257577039729e-03
1:9.3087233690905616e-02
2:3.2456973582653370e-02
3:-1.2483108818887277e-01
4:-6.4428952909033041e-02
5:-1.5648521227108213e-02
6:-8.4886767967819590e-02
7:-7.7921912536336901e-02
8:-2.8695085840920117e-02
9:-1.3597546172095373e-03
10:-1.1481254009647073e-02
11:4.2504258969361663e-03
12:3.2641402984832338e-03
13:1.5559576855906379e-02
14:9.9528438898490862e-03
15:-4.0326400658788767e-03
16:1.0279467424137439e-02
17:4.7380193736404229e-03
18:9.0595342042717273e-03
19:5.9224882181118091e-03
20:-1.2487899247780711e-03
21:3.0350316194397626e-03
22:-1.4353773810280889e-03
23:7.3337506800877524e-04
24:5.8982209929126991e-04
25:4.6170239542278054e-04
26:3.5710336419428322e-03
27:-2.9504219180321906e-03
28:-1.7263441497767024e-03
29:8.4901552640620210e-04
30:2.7442308587845416e-03
31:3.1798498628012872e-03
32:1.3402341768875936e-03
33:4.0343321294353798e-03
34:2.4354026370978191e-03
35:5.2954398994834275e-04
36:1.3810992989146623e-03
37:8.5586650889642115e-04
38:-6.7256276046990599e-05
39:2.4132112503856952e-04
40:-1.4752132420472146e-04
41:4.7629632480014524e-04
42:3.7503717598434336e-04
43:9.8946130922593399e-04
44:1.3982056192747344e-03
45:-2.3024215573093259e-04
46:-8.1549916909818052e-05
47:1.1874689184812568e-04
48:7.9298059015987961e-04
49:6.9128620528483497e-04
50:2.5064431497018286e-04
51:1.0831455936269106e-03
52:4.1188347178500363e-04
53:2.0539800585353006e-04
54:8.9887832262294375e-05
55:2.9694824077795570e-05
56:4.8835369522505520e-05
57:9.1762974101055873e-05
58:1.3765954318813997e-04
59:1.6138547119832244e-04
60:4.5400570050189331e-04
61:5.5705265653385608e-04
62:-1.9922726549056333e-04
63:-4.0215426009252146e-02
64:-4.9864283735180162e-02
65:-2.7989794594554238e-02
66:-2.3291877136942729e-03
67:-1.8304435351991589e-02
68:-2.3881710791451734e-02
69:1.0209267000718071e-03
70:-9.6915474813846301e-03
71:-1.8148445951529160e-02
72:-1.3242747974669277e-02
73:-1.0031793232265546e-03
74:1.1740917872330291e-03
75:-2.0483396406493500e-02
76:-1.1211955566830452e-02
77:-2.0669654651964790e-03
78:-1.7636182420758217e-02
79:-1.1327392867122388e-02
80:-3.8213494653835385e-03
81:1.5486962878688440e-03
82:3.1559387676588888e-03
83:3.6935044995102411e-03
84:1.6256220666672715e-03
85:3.5583533475682665e-03
86:1.9322185689525585e-03
87:-1.1160473477643455e-03
88:1.6294313785430434e-04
89:-3.3002732491527225e-04
90:2.6164849955316312e-03
91:8.6686026278093721e-04
92:4.7660435572020079e-04
93:5.1485049379826949e-04
94:-2.1907602661545372e-05
95:1.0459140925075708e-03
96:-3.1499798746140238e-04
97:5.5026920094303569e-04
98:1.4076151414030838e-03
99:1.1135912853499010e-03
100:1.8574110258472627e-03
101:1.5783249354743472e-03
102:1.8079884538073231e-03
103:2.0093781386964845e-03
104:1.2512036433467418e-03
105:1.4534128115916060e-03
106:1.0859167625979385e-03
107:7.3679959003488369e-04
108:9.0231019063708091e-04
109:1.9227295929326297e-04
110:3.0723237138525789e-04
111:6.9793413191966507e-04
112:3.8521875917904531e-04
113:6.1397163371899432e-04
114:7.5300299422713152e-04
115:8.7728878921308436e-04
116:8.0941502046983401e-04
117:6.9656902750590789e-04
118:6.9778906593685481e-04
119:-3.0555002298018582e-04
120:7.8798021645590927e-04
121:5.7168359316851867e-04
122:-6.7815810939722519e-05
123:5.8807434305735862e-04
124:2.8480645178095994e-04
125:3.1229033648593645e-04
126:-2.7477826297475933e-03
127:-1.1278901812879839e-02
128:-1.4735529270268085e-02
129:-4.0858074685102257e-03
130:-1.1387813561813056e-02
131:-1.0432753065260088e-02
132:-1.0618733197653659e-03
133:-7.3671720475068205e-03
134:-7.5015748251969026e-03
135:-1.3349690226929747e-02
136:-9.1388580193813417e-03
137:-5.1329481510530069e-03
138:-8.7252570831519854e-03
139:-7.3550355402626274e-03
140:-6.7917528888770951e-03
141:-7.0895790306272945e-03
142:-7.2178912923109182e-03
143:-6.9224390900295800e-03
144:-3.7103606758163801e-03
145:-2.2623799203858475e-03
146:-1.0875722406290338e-03
147:-6.1345147873827889e-03
148:-4.0167092611545809e-03
149:-1.5302151941261146e-03
150:-5.9119439774701198e-03
151:-3.6383277204368055e-03
152:-1.7518746579528544e-03
153:-2.0021777603300152e-04
154:8.9732733033444931e-04
155:1.1124123375705279e-03
156:-3.7660285297464358e-04
157:3.7854681735968574e-04
158:1.7171486317675894e-04
159:-1.2174772750833843e-03
160:-8.8878505180211632e-04
161:-6.7668902042740441e-04
162:8.0425781291326129e-04
163:4.7980498419761470e-04
164:6.1330060265333988e-04
165:-3.9727669796890349e-05
166:1.1701119554929282e-04
167:6.2140897266992567e-04
168:-3.7198973295802964e-04
169:2.1700234557008106e-04
170:5.5866850694342854e-04
171:8.8506999085592036e-04
172:1.0546050671751733e-03
173:7.6524399097107308e-04
174:8.7326533778152456e-04
175:8.7326881626206734e-04
176:5.4858496158067161e-04
177:5.3444210771138635e-04
178:3.8971412974149033e-04
179:3.3782836519348025e-04
180:4.3211613807041119e-04
181:1.9530485805598693e-04
182:4.0435386611882134e-04
183:3.5085009919161682e-04
184:2.5569897456675174e-04
185:2.2602039589109940e-04
186:4.1012612941880973e-04
187:3.7407644236662639e-04
188:-7.7416883513139472e-05
189:9.0309591440757443e-04
190:-3.8667141457395119e-03
191:-6.0750631403468933e-03
192:1.0212669005611604e-03
193:-8.3170076736752293e-04
194:-4.2333581681784646e-03
195:-1.0265548022697060e-03
196:-1.1259115382819844e-03
197:-3.1713402749962744e-03
198:-6.7718666989462859e-03
199:-7.1332465203516543e-03
200:-6.1417116779035261e-03
201:-5.6418576724187779e-03
202:-5.9833527649907660e-03
203:-4.7063217149412228e-03
204:-4.0764178357313371e-03
205:-4.3134753502485019e-03
206:-3.7797367081653602e-03
207:-4.9121652330142490e-03
208:-3.1134968971199013e-03
209:-2.1156778608098447e-03
210:-3.7805263097164103e-03
211:-2.9835283933288075e-03
212:-2.7758858653140987e-03
213:-3.5430830526366904e-03
214:-3.3741675103780193e-03
215:-3.0581594735602747e-03
216:-1.9408173709424606e-03
217:-1.5651681805509668e-03
218:-8.8901277386481804e-04
219:-2.6477159317971578e-03
220:-1.9480513375524147e-03
221:-9.6674375682125253e-04
222:-2.6259814437672242e-03
223:-1.7441618866567356e-03
224:-1.0294456554052098e-03
225:-3.5440957048432626e-04
226:2.4417876870712460e-04
227:3.5512791189660906e-04
228:-4.6415221158183231e-04
229:-8.5287284649753772e-05
230:-9.2494937503297174e-05
231:-8.1338618870555859e-04
232:-6.2156559672826460e-04
233:-4.3715362530929238e-04
234:2.2663581991885600e-04
235:1.4126332121502382e-04
236:2.8517600050411232e-04
237:-1.3299232630222538e-04
238:-9.3764808839298918e-07
239:2.3633532006673370e-04
240:-2.5674911561177446e-04
241:2.7832592666841541e-05
242:1.3846555182277484e-04
243:4.3987709434370866e-04
244:3.6907146682584784e-04
245:-1.6289513357623081e-04
246:3.2609659332120478e-04
247:2.1432750047207608e-04
248:-5.4829077108618190e-05
249:8.3891105555619082e-05
250:1.5800553189039177e-05
251:1.3809874430958298e-04
252:-1.9970030267496340e-03
253:-2.1284885134778796e-03
254:-2.8663932153858659e-03
255:-1.4864859281880410e-03
256:-2.5560683138464543e-03
257:-2.4777622217122264e-03
258:1.8912729538642233e-04
259:-1.6328340292200802e-03
260:-2.0884330515549719e-03
261:-3.2297311911506882e-03
262:-3.5190228238618543e-03
263:-3.6287404537537708e-03
264:-2.4603764693010024e-03
265:-2.8911658156018883e-03
266:-3.4562147585245565e-03
267:-2.2435944541472903e-03
268:-2.7175110408567470e-03
269:-3.0630265494588920e-03
270:-3.7017410617087442e-03
271:-3.5390544925419337e-03
272:-2.9154806946367988e-03
273:-3.6118525612541729e-03
274:-3.2826187747503096e-03
275:-2.5165733175791334e-03
276:-3.0243561008360849e-03
277:-2.6549484405716775e-03
278:-2.1972408568863917e-03
279:-2.3559984510913620e-03
280:-1.5937651171784477e-03
281:-1.1844116759504285e-03
282:-2.0556601051775958e-03
283:-1.6229299792382031e-03
284:-1.4532934193692108e-03
285:-2.0111152545977729e-03
286:-1.7949098441324167e-03
287:-1.5335603008602451e-03
288:-1.0973690260224639e-03
289:-8.7564016780063831e-04
290:-5.0993245569559524e-04
291:-1.3537079653165843e-03
292:-9.8750341844833309e-04
293:-5.2245905568398105e-04
294:-1.2936794000718386e-03
295:-8.5835543239061105e-04
296:-5.2700247683925758e-04
297:-2.4694799012764059e-04
298:1.9649155582360618e-05
299:2.7337593326338442e-05
300:-2.9483733154456686e-04
301:-1.3122023563036424e-04
302:-1.4033582091466887e-04
303:-4.2719131730448553e-04
304:-3.2426174316971653e-04
305:-2.1085207069973527e-04
306:-5.9859660478256204e-05
307:-5.3968391874098101e-05
308:1.7375397302875540e-04
309:-1.5399156629634044e-04
310:-5.8323516981451067e-05
311:6.0402290024110625e-05
312:-1.1061573415812501e-04
313:-1.0421011821878692e-05
314:-9.7879280599812946e-05
315:8.1476661545503413e-04
316:-8.4952442162236240e-04
317:-1.8114877126972973e-03
318:3.9659462071636080e-04
319:-3.0973760438424147e-04
320:-1.3340164838613543e-03
321:-6.0522380115302196e-04
322:-5.0227705756068373e-04
323:-9.5380354609702126e-04
324:-2.1723863420253166e-03
325:-2.5776856795700401e-03
326:-2.6501668172668668e-03
327:-1.7889522978712196e-03
328:-2.0789782484430808e-03
329:-1.9976129024536680e-03
330:-1.2467764136821497e-03
331:-1.4946950532078679e-03
332:-1.5700063730665860e-03
333:-2.5253692983589373e-03
334:-2.2971588393653516e-03
335:-2.1289736042070014e-03
336:-1.9156837349390580e-03
337:-1.9283974307712224e-03
338:-1.9766894504636119e-03
339:-1.6152722083942947e-03
340:-1.6830335800568220e-03
341:-1.6295188322410403e-03
342:-2.0633705913232353e-03
343:-1.8325663670211963e-03
344:-1.4341563612078963e-03
345:-1.9301972485211332e-03
346:-1.6249746565100826e-03
347:-1.1851034018378326e-03
348:-1.5023650331506904e-03
349:-1.2228958720889773e-03
350:-9.6245724613556191e-04
351:-1.1439058333389009e-03
352:-7.6954161437073050e-04
353:-5.7106117952088263e-04
354:-9.5038784088094324e-04
355:-7.2247545071156159e-04
356:-6.1252007898760115e-04
357:-8.5345705227532812e-04
358:-7.0014827476350214e-04
359:-5.2859481741605321e-04
360:-5.2005951964283442e-04
361:-3.8776750064748475e-04
362:-1.9064723669624074e-04
363:-5.4308730350555938e-04
364:-3.4752493964442248e-04
365:-1.3993932176062173e-04
366:-4.0105498722343497e-04
367:-2.1474808067713550e-04
368:-1.1495308788835937e-04
369:-6.4447892638165778e-05
370:-3.2321343593748360e-06
371:-1.2731918173312104e-04
372:-5.9840192347681365e-05
373:-3.7115921665767753e-05
374:-4.3016895915024341e-05
375:-1.0469048159694748e-04
376:-6.1381494560206251e-05
377:6.6613895847436334e-05
378:-7.8082293565168593e-04
379:-7.0005115793857534e-04
380:-8.1156723997456877e-04
381:-8.4921357838736299e-05
382:-5.1806481559262950e-04
383:-5.8785766924380068e-04
384:2.1695138751733620e-04
385:2.9238880364132643e-06
386:-1.7897073253030703e-04
387:-9.6385857604658885e-04
388:-1.2274334424853747e-03
389:-1.4394518311896260e-03
390:-6.2814797694468022e-04
391:-8.1297121548729620e-04
392:-9.9414511637434992e-04
393:-2.3153866756824010e-04
394:-2.0412641314146549e-04
395:-1.2773194799828877e-04
396:-1.5176101871901299e-03
397:-1.4899085521864522e-03
398:-1.3018220862654423e-03
399:-1.0246166687599867e-03
400:-9.2228494534544873e-04
401:-7.4719235977188712e-04
402:-1.1335560480783592e-04
403:-1.9917049363212043e-04
404:-3.0530103657629403e-04
405:-1.1545219480091913e-03
406:-9.8199946596885519e-04
407:-8.7652858956815559e-04
408:-6.7181088932613292e-04
409:-6.3143828866088914e-04
410:-6.0171541988502427e-04
411:-3.1503898258367161e-04
412:-2.0738242032866815e-04
413:-5.4915724361069213e-05
414:-8.1570395301103118e-04
415:-6.3694531690793282e-04
416:-4.0224713690371769e-04
417:-5.4130486837534791e-04
418:-3.7450111597194430e-04
419:-2.0529053257746995e-04
420:-3.6710620338941332e-06
421:-4.2318389748827000e-05
422:-1.2286250109533556e-04
423:-2.6886248014020784e-04
424:-1.4636930371616884e-04
425:-1.2113801616555506e-04
426:-1.4050113985082768e-04
427:-9.9445223246007883e-05
428:-8.0491795048919602e-05
429:-1.2895854338590643e-04
430:-4.3837607687103641e-05
431:5.4676863261702773e-05
432:-1.2014229522897312e-04
433:-4.2070822216299747e-05
434:7.2826506314150081e-05
435:-4.9830358018388782e-05
436:8.0038522049683022e-06
437:-1.2058137678025859e-05
438:6.5134405587249553e-05
439:-5.6004744783158797e-06
440:-2.6882891979980257e-06
441:0.0000000000000000e+00
442:0.0000000000000000e+00
443:0.0000000000000000e+00
444:0.0000000000000000e+00
445:0.0000000000000000e+00
446:0.0000000000000000e+00
447:0.0000000000000000e+00
448:0.0000000000000000e+00
449:0.0000000000000000e+00
450:0.0000000000000000e+00
451:0.0000000000000000e+00
452:0.0000000000000000e+00
453:0.0000000000000000e+00
454:0.0000000000000000e+00
455:0.0000000000000000e+00
456:0.0000000000000000e+00
457:0.0000000000000000e+00
458:0.0000000000000000e+00
459:0.0000000000000000e+00
460:0.0000000000000000e+00
461:0.0000000000000000e+00
462:0.0000000000000000e+00
463:0.0000000000000000e+00
464:0.0000000000000000e+00
465:0.0000000000000000e+00
466:0.0000000000000000e+00
467:0.0000000000000000e+00
468:0.0000000000000000e+00
469:0.0000000000000000e+00
470:0.0000000000000000e+00
471:0.0000000000000000e+00
472:0.0000000000000000e+00
473:0.0000000000000000e+00
474:0.0000000000000000e+00
475:0.0000000000000000e+00
476:0.0000000000000000e+00
477:0.0000000000000000e+00
478:0.0000000000000000e+00
479:0.0000000000000000e+00
480:0.0000000000000000e+00
481:0.0000000000000000e+00
482:0.0000000000000000e+00
483:0.0000000000000000e+00
484:0.0000000000000000e+00
485:0.0000000000000000e+00
486:0.0000000000000000e+00
487:0.0000000000000000e+00
488:0.0000000000000000e+00
489:0.0000000000000000e+00
490:0.0000000000000000e+00
491:0.0000000000000000e+00
492:0.0000000000000000e+00
493:0.0000000000000000e+00
494:0.0000000000000000e+00
495:0.0000000000000000e+00
496:0.0000000000000000e+00
497:0.0000000000000000e+00
498:0.0000000000000000e+00
499:0.0000000000000000e+00
500:0.0000000000000000e+00
501:0.0000000000000000e+00
502:0.0000000000000000e+00
503:0.0000000000000000e+00
504:0.0000000000000000e+00
505:0.0000000000000000e+00
506:0.0000000000000000e+00
507:0.0000000000000000e+00
508:0.0000000000000000e+00
509:0.0000000000000000e+00
510:0.0000000000000000e+00
511:0.0000000000000000e+00
512:0.0000000000000000e+00
513:0.0000000000000000e+00
514:0.0000000000000000e+00
515:0.0000000000000000e+00
516:0.0000000000000000e+00
517:0.0000000000000000e+00
518:0.0000000000000000e+00
519:0.0000000000000000e+00
520:0.0000000000000000e+00
521:0.0000000000000000e+00
522:0.0000000000000000e+00
523:0.0000000000000000e+00
524:0.0000000000000000e+00
525:0.0000000000000000e+00
526:0.0000000000000000e+00
527:0.0000000000000000e+00
528:0.0000000000000000e+00
529:0.0000000000000000e+00
530:0.0000000000000000e+00
531:0.0000000000000000e+00
532:0.0000000000000000e+00
533:0.0000000000000000e+00
534:0.0000000000000000e+00
535:0.0000000000000000e+00
536:0.0000000000000000e+00
537:0.0000000000000000e+00
538:0.0000000000000000e+00
539:0.0000000000000000e+00
540:0.0000000000000000e+00
541:0.0000000000000000e+00
542:0.0000000000000000e+00
543:0.0000000000000000e+00
544:0.0000000000000000e+00
545:0.0000000000000000e+00
546:0.0000000000000000e+00
547:0.0000000000000000e+00
548:0.0000000000000000e+00
549:0.0000000000000000e+00
550:0.0000000000000000e+00
551:0.0000000000000000e+00
552:0.0000000000000000e+00
553:0.0000000000000000e+00
554:0.0000000000000000e+00
555:0.0000000000000000e+00
556:0.0000000000000000e+00
557:0.0000000000000000e+00
558:0.0000000000000000e+00
559:0.0000000000000000e+00
560:0.0000000000000000e+00
561:0.0000000000000000e+00
562:0.0000000000000000e+00
563:0.0000000000000000e+00
564:0.0000000000000000e+00
565:0.0000000000000000e+00
566:0.0000000000000000e+00
567:0.0000000000000000e+00
568:0.0000000000000000e+00
569:0.0000000000000000e+00
570:0.0000000000000000e+00
571:0.0000000000000000e+00
572:0.0000000000000000e+00
573:0.0000000000000000e+00
574:0.0000000000000000e+00
575:0.0000000000000000e+00
576:0.0000000000000000e+00
577:0.0000000000000000e+00
578:0.0000000000000000e+00
579:0.0000000000000000e+00
580:0.0000000000000000e+00
581:0.0000000000000000e+00
582:0.0000000000000000e+00
583:0.0000000000000000e+00
584:0.0000000000000000e+00
585:0.0000000000000000e+00
586:0.0000000000000000e+00
587:0.0000000000000000e+00
588:0.0000000000000000e+00
589:0.0000000000000000e+00
590:0.0000000000000000e+00
591:0.0000000000000000e+00
592:0.0000000000000000e+00
593:0.0000000000000000e+00
594:0.0000000000000000e+00
595:0.0000000000000000e+00
596:0.0000000000000000e+00
597:0.0000000000000000e+00
598:0.0000000000000000e+00
599:0.0000000000000000e+00
600:0.0000000000000000e+00
601:0.0000000000000000e+00
602:0.0000000000000000e+00
603:0.0000000000000000e+00
604:0.0000000000000000e+00
605:0.0000000000000000e+00
606:0.0000000000000000e+00
607:0.0000000000000000e+00
608:0.0000000000000000e+00
609:0.0000000000000000e+00
610:0.0000000000000000e+00
611:0.0000000000000000e+00
612:0.0000000000000000e+00
613:0.0000000000000000e+00
614:0.0000000000000000e+00
615:0.0000000000000000e+00
616:0.0000000000000000e+00
617:0.0000000000000000e+00
618:0.0000000000000000e+00
619:0.0000000000000000e+00
620:0.0000000000000000e+00
621:0.0000000000000000e+00
622:0.0000000000000000e+00
623:0.0000000000000000e+00
624:0.0000000000000000e+00
625:0.0000000000000000e+00
626:0.0000000000000000e+00
627:0.0000000000000000e+00
628:0.0000000000000000e+00
629:0.0000000000000000e+00
630:0.0000000000000000e+00
631:0.0000000000000000e+00
632:0.0000000000000000e+00
633:0.0000000000000000e+00
634:0.0000000000000000e+00
635:0.0000000000000000e+00
636:0.0000000000000000e+00
637:0.0000000000000000e+00
638:0.0000000000000000e+00
639:0.0000000000000000e+00
640:0.0000000000000000e+00
641:0.0000000000000000e+00
642:0.0000000000000000e+00
643:0.0000000000000000e+00
644:0.0000000000000000e+00
645:0.0000000000000000e+00
646:0.0000000000000000e+00
647:0.0000000000000000e+00
648:0.0000000000000000e+00
649:0.0000000000000000e+00
650:0.0000000000000000e+00
651:0.0000000000000000e+00
652:0.0000000000000000e+00
653:0.0000000000000000e+00
654:0.0000000000000000e+00
655:0.0000000000000000e+00
656:0.0000000000000000e+00
657:0.0000000000000000e+00
658:0.0000000000000000e+00
659:0.0000000000000000e+00
660:0.0000000000000000e+00
661:0.0000000000000000e+00
662:0.0000000000000000e+00
663:0.0000000000000000e+00
664:0.0000000000000000e+00
665:0.0000000000000000e+00
666:0.0000000000000000e+00
667:0.0000000000000000e+00
668:0.0000000000000000e+00
669:0.0000000000000000e+00
670:0.0000000000000000e+00
671:0.0000000000000000e+00
672:0.0000000000000000e+00
673:0.0000000000000000e+00
674:0.0000000000000000e+00
675:0.0000000000000000e+00
676:0.0000000000000000e+00
677:0.0000000000000000e+00
678:0.0000000000000000e+00
679:0.0000000000000000e+00
680:0.0000000000000000e+00
681:0.0000000000000000e+00
682:0.0000000000000000e+00
683:0.0000000000000000e+00
684:0.0000000000000000e+00
685:0.0000000000000000e+00
686:0.0000000000000000e+00
687:0.0000000000000000e+00
688:0.0000000000000000e+00
689:0.0000000000000000e+00
690:0.0000000000000000e+00
691:0.0000000000000000e+00
692:0.0000000000000000e+00
693:0.0000000000000000e+00
694:0.0000000000000000e+00
695:0.0000000000000000e+00
696:0.0000000000000000e+00
697:0.0000000000000000e+00
698:0.0000000000000000e+00
699:0.0000000000000000e+00
700:0.0000000000000000e+00
701:0.0000000000000000e+00
702:0.0000000000000000e+00
703:0.0000000000000000e+00
704:0.0000000000000000e+00
705:0.0000000000000000e+00
706:0.0000000000000000e+00
707:0.0000000000000000e+00
708:0.0000000000000000e+00
709:0.0000000000000000e+00
710:0.0000000000000000e+00
711:0.0000000000000000e+00
712:0.0000000000000000e+00
713:0.0000000000000000e+00
714:0.0000000000000000e+00
715:0.0000000000000000e+00
716:0.0000000000000000e+00
717:0.0000000000000000e+00
718:0.0000000000000000e+00
719:0.0000000000000000e+00
720:0.0000000000000000e+00
721:0.0000000000000000e+00
722:0.0000000000000000e+00
723:0.0000000000000000e+00
724:0.0000000000000000e+00
725:0.0000000000000000e+00
726:0.0000000000000000e+00
727:0.0000000000000000e+00
728:0.0000000000000000e+00
729:0.0000000000000000e+00
730:0.0000000000000000e+00
731:0.0000000000000000e+00
732:0.0000000000000000e+00
733:0.0000000000000000e+00
734:0.0000000000000000e+00
735:0.0000000000000000e+00
736:0.0000000000000000e+00
737:0.0000000000000000e+00
738:0.0000000000000000e+00
739:0.0000000000000000e+00
740:0.0000000000000000e+00
741:0.0000000000000000e+00
742:0.0000000000000000e+00
743:0.0000000000000000e+00
744:0.0000000000000000e+00
745:0.0000000000000000e+00
746:0.0000000000000000e+00
747:0.0000000000000000e+00
748:0.0000000000000000e+00
749:0.0000000000000000e+00
750:0.0000000000000000e+00
751:0.0000000000000000e+00
752:0.0000000000000000e+00
753:0.0000000000000000e+00
754:0.0000000000000000e+00
755:0.0000000000000000e+00
756:0.0000000000000000e+00
757:0.0000000000000000e+00
758:0.0000000000000000e+00
759:0.0000000000000000e+00
760:0.0000000000000000e+00
761:0.0000000000000000e+00
762:0.0000000000000000e+00
763:0.0000000000000000e+00
764:0.0000000000000000e+00
765:0.0000000000000000e+00
766:0.0000000000000000e+00
767:0.0000000000000000e+00
768:0.0000000000000000e+00
769:0.0000000000000000e+00
770:0.0000000000000000e+00
771:0.0000000000000000e+00
772:0.0000000000000000e+00
773:0.0000000000000000e+00
774:0.0000000000000000e+00
775:0.0000000000000000e+00
776:0.0000000000000000e+00
777:0.0000000000000000e+00
778:0.0000000000000000e+00
779:0.0000000000000000e+00
780:0.0000000000000000e+00
781:0.0000000000000000e+00
782:0.0000000000000000e+00
783:0.0000000000000000e+00
784:0.0000000000000000e+00
785:0.0000000000000000e+00
786:0.0000000000000000e+00
787:0.0000000000000000e+00
788:0.0000000000000000e+00
789:0.0000000000000000e+00
790:0.0000000000000000e+00
791:0.0000000000000000e+00
792:0.0000000000000000e+00
793:0.0000000000000000e+00
794:0.0000000000000000e+00
795:0.0000000000000000e+00
796:0.0000000000000000e+00
797:0.0000000000000000e+00
798:0.0000000000000000e+00
799:0.0000000000000000e+00
800:0.0000000000000000e+00
801:0.0000000000000000e+00
802:0.0000000000000000e+00
803:0.0000000000000000e+00
804:0.0000000000000000e+00
805:0.0000000000000000e+00
806:0.0000000000000000e+00
807:0.0000000000000000e+00
808:0.0000000000000000e+00
809:0.0000000000000000e+00
810:0.0000000000000000e+00
811:0.0000000000000000e+00
812:0.0000000000000000e+00
813:0.0000000000000000e+00
814:0.0000000000000000e+00
815:0.0000000000000000e+00
816:0.0000000000000000e+00
817:0.0000000000000000e+00
818:0.0000000000000000e+00
819:0.0000000000000000e+00
820:0.0000000000000000e+00
821:0.0000000000000000e+00
822:0.0000000000000000e+00
823:0.0000000000000000e+00
824:0.0000000000000000e+00
825:0.0000000000000000e+00
826:0.0000000000000000e+00
827:0.0000000000000000e+00
828:0.0000000000000000e+00
829:0.0000000000000000e+00
830:0.0000000000000000e+00
831:0.0000000000000000e+00
832:0.0000000000000000e+00
833:0.0000000000000000e+00
834:0.0000000000000000e+00
835:0.0000000000000000e+00
836:0.0000000000000000e+00
837:0.0000000000000000e+00
838:0.0000000000000000e+00
839:0.0000000000000000e+00
840:0.0000000000000000e+00
841:0.0000000000000000e+00
842:0.0000000000000000e+00
843:0.0000000000000000e+00
844:0.0000000000000000e+00
845:0.0000000000000000e+00
846:0.0000000000000000e+00
847:0.0000000000000000e+00
848:0.0000000000000000e+00
849:0.0000000000000000e+00
850:0.0000000000000000e+00
851:0.0000000000000000e+00
852:0.0000000000000000e+00
853:0.0000000000000000e+00
854:0.0000000000000000e+00
855:0.0000000000000000e+00
856:0.0000000000000000e+00
857:0.0000000000000000e+00
858:0.0000000000000000e+00
859:0.0000000000000000e+00
860:0.0000000000000000e+00
861:0.0000000000000000e+00
862:0.0000000000000000e+00
863:0.0000000000000000e+00
864:0.0000000000000000e+00
865:0.0000000000000000e+00
866:0.0000000000000000e+00
867:0.0000000000000000e+00
868:0.0000000000000000e+00
869:0.0000000000000000e+00
870:0.0000000000000000e+00
871:0.0000000000000000e+00
872:0.0000000000000000e+00
873:0.0000000000000000e+00
874:0.0000000000000000e+00
875:0.0000000000000000e+00
876:0.0000000000000000e+00
877:0.0000000000000000e+00
878:0.0000000000000000e+00
879:0.0000000000000000e+00
880:0.0000000000000000e+00
881:0.0000000000000000e+00
