x	y	stress_xx
 1.0000000000e+00	 0.0000000000e+00	 3.0779109396e-01
 9.9984261196e-01	 1.7741231987e-02	 3.0872331145e-01
 9.9936594664e-01	 3.5604840891e-02	 3.2208287550e-01
 9.9856337511e-01	 5.3583447897e-02	 3.4825681426e-01
 9.9742844690e-01	 7.1669333081e-02	 3.8759260363e-01
 9.9595490861e-01	 8.9854437912e-02	 4.4039463565e-01
 9.9413672265e-01	 1.0813036884e-01	 5.0692070725e-01
 9.9196808625e-01	 1.2648840200e-01	 5.8737855249e-01
 9.8944345047e-01	 1.4491948904e-01	 6.8192244276e-01
 9.8655753924e-01	 1.6341426419e-01	 7.9064988054e-01
 9.8330536840e-01	 1.8196305243e-01	 9.1359841315e-01
 1.0125000000e+00	 0.0000000000e+00	 3.8710792224e-01
 1.0123406446e+00	 1.7962997385e-02	 3.8928811158e-01
 1.0118580210e+00	 3.6049901398e-02	 4.0244875070e-01
 1.0110454173e+00	 5.4253240991e-02	 4.2693853346e-01
 1.0098963025e+00	 7.2565199739e-02	 4.6306981152e-01
 1.0084043450e+00	 9.0977618379e-02	 5.1111534645e-01
 1.0065634317e+00	 1.0948199844e-01	 5.7130508045e-01
 1.0043676873e+00	 1.2806950702e-01	 6.4382294732e-01
 1.0018114936e+00	 1.4673098265e-01	 7.2880374619e-01
 9.9888950849e-01	 1.6545694249e-01	 8.2633010166e-01
 9.9559668551e-01	 1.8423759058e-01	 9.3642953468e-01
 1.0250000000e+00	 0.0000000000e+00	 4.8485464256e-01
 1.0248386773e+00	 1.8184762783e-02	 4.8813492797e-01
 1.0243500953e+00	 3.6494961906e-02	 5.0098659147e-01
 1.0235274595e+00	 5.4923034086e-02	 5.2372097776e-01
 1.0223641581e+00	 7.3461066397e-02	 5.5661624652e-01
 1.0208537813e+00	 9.2100798847e-02	 5.9991440294e-01
 1.0189901407e+00	 1.1083362805e-01	 6.5381834533e-01
 1.0167672884e+00	 1.2965061203e-01	 7.1848894975e-01
 1.0141795367e+00	 1.4854247626e-01	 7.9404221226e-01
 1.0112214777e+00	 1.6749962078e-01	 8.8054647045e-01
 1.0078880026e+00	 1.8651212874e-01	 9.7801972662e-01
 1.0375000000e+00	 0.0000000000e+00	 6.0036522053e-01
 1.0373367099e+00	 1.8406528182e-02	 6.0460306775e-01
 1.0368421696e+00	 3.6940022414e-02	 6.1703967917e-01
 1.0360095017e+00	 5.5592827180e-02	 6.3794999993e-01
 1.0348320137e+00	 7.4356933056e-02	 6.6757889628e-01
 1.0333032177e+00	 9.3223979316e-02	 7.0613845947e-01
 1.0314168498e+00	 1.1218525765e-01	 7.5380532552e-01
 1.0291668895e+00	 1.3123171705e-01	 8.1071802845e-01
 1.0265475799e+00	 1.5035396986e-01	 8.7697440623e-01
 1.0235534470e+00	 1.6954229908e-01	 9.5262907892e-01
 1.0201793197e+00	 1.8878666689e-01	 1.0376910196e+00
 1.0500000000e+00	 0.0000000000e+00	 7.3300533770e-01
 1.0498347426e+00	 1.8628293580e-02	 7.3806329958e-01
 1.0493342440e+00	 3.7385082923e-02	 7.4998256743e-01
 1.0484915439e+00	 5.6262620276e-02	 7.6900260256e-01
 1.0472998693e+00	 7.5252799715e-02	 7.9533584414e-01
 1.0457526540e+00	 9.4347159785e-02	 8.2916528198e-01
 1.0438435588e+00	 1.1353688726e-01	 8.7064204341e-01
 1.0415664906e+00	 1.3281282207e-01	 9.1988301058e-01
 1.0389156230e+00	 1.5216546347e-01	 9.7696848530e-01
 1.0358854162e+00	 1.7158497738e-01	 1.0419399193e+00
 1.0324706368e+00	 1.9106120504e-01	 1.1147977285e+00
 1.0625000000e+00	 0.0000000000e+00	 8.8217052588e-01
 1.0623327752e+00	 1.8850058979e-02	 8.8791600298e-01
 1.0618263183e+00	 3.7830143432e-02	 8.9921924263e-01
 1.0609735861e+00	 5.6932413371e-02	 9.1628510566e-01
 1.0597677248e+00	 7.6148666375e-02	 9.3929444006e-01
 1.0582020904e+00	 9.5470340255e-02	 9.6840191792e-01
 1.0562702678e+00	 1.1488851686e-01	 1.0037338849e+00
 1.0539660917e+00	 1.3439392709e-01	 1.0453862372e+00
 1.0512836661e+00	 1.5397695708e-01	 1.0934223403e+00
 1.0482173855e+00	 1.7362765568e-01	 1.1478710076e+00
 1.0447619539e+00	 1.9333574319e-01	 1.2087245529e+00
 1.0750000000e+00	 0.0000000000e+00	 1.0472844317e+00
 1.0748308079e+00	 1.9071824378e-02	 1.0535894468e+00
 1.0743183926e+00	 3.8275203941e-02	 1.0641814126e+00
 1.0734556282e+00	 5.7602206467e-02	 1.0792314422e+00
 1.0722355804e+00	 7.7044533036e-02	 1.0988895990e+00
 1.0706515268e+00	 9.6593520725e-02	 1.1232829938e+00
 1.0686969769e+00	 1.1624014647e-01	 1.1525138924e+00
 1.0663656927e+00	 1.3597503212e-01	 1.1866578473e+00
 1.0636517093e+00	 1.5578845069e-01	 1.2257618671e+00
 1.0605493547e+00	 1.7567033398e-01	 1.2698426380e+00
 1.0570532710e+00	 1.9561028135e-01	 1.3188848110e+00
 1.0875000000e+00	 0.0000000000e+00	 1.2277972007e+00
 1.0873288405e+00	 1.9293589777e-02	 1.2345381862e+00
 1.0868104670e+00	 3.8720264451e-02	 1.2443269137e+00
 1.0859376704e+00	 5.8271999564e-02	 1.2573015712e+00
 1.0847034360e+00	 7.7940399697e-02	 1.2735822168e+00
 1.0831009631e+00	 9.7716701196e-02	 1.2932691303e+00
 1.0811236859e+00	 1.1759177608e-01	 1.3164411749e+00
 1.0787652938e+00	 1.3755613714e-01	 1.3431541802e+00
 1.0760197524e+00	 1.5759994430e-01	 1.3734393569e+00
 1.0728813239e+00	 1.7771301228e-01	 1.4073017575e+00
 1.0693445882e+00	 1.9788481950e-01	 1.4447187949e+00
 1.1000000000e+00	 0.0000000000e+00	 1.4231839720e+00
 1.0998268732e+00	 1.9515355176e-02	 1.4302415696e+00
 1.0993025413e+00	 3.9165324961e-02	 1.4391382257e+00
 1.0984197126e+00	 5.8941792661e-02	 1.4499799989e+00
 1.0971712916e+00	 7.8836266358e-02	 1.4628576939e+00
 1.0955503995e+00	 9.8839881668e-02	 1.4778454650e+00
 1.0935503949e+00	 1.1894340569e-01	 1.4949994275e+00
 1.0911648949e+00	 1.3913724216e-01	 1.5143562871e+00
 1.0883877955e+00	 1.5941143791e-01	 1.5359319966e+00
 1.0852132932e+00	 1.7975569058e-01	 1.5597204520e+00
 1.0816359053e+00	 2.0015935765e-01	 1.5856922374e+00
 1.1125000000e+00	 0.0000000000e+00	 1.6329434738e+00
 1.1123249058e+00	 1.9737120575e-02	 1.6402023450e+00
 1.1117946156e+00	 3.9610385471e-02	 1.6481210880e+00
 1.1109017548e+00	 5.9611585759e-02	 1.6567743997e+00
 1.1096391472e+00	 7.9732133020e-02	 1.6662245588e+00
 1.1079998358e+00	 9.9963062140e-02	 1.6765202756e+00
 1.1059771040e+00	 1.2029503530e-01	 1.6876955498e+00
 1.1035644960e+00	 1.4071834718e-01	 1.6997685424e+00
 1.1007558387e+00	 1.6122293152e-01	 1.7127404702e+00
 1.0975452624e+00	 1.8179836888e-01	 1.7265945334e+00
 1.0939272224e+00	 2.0243389581e-01	 1.7412948835e+00
 1.1250000000e+00	 0.0000000000e+00	 1.8565967131e+00
 1.1248229385e+00	 1.9958885975e-02	 1.8639453610e+00
 1.1242866900e+00	 4.0055445982e-02	 1.8708032069e+00
 1.1233837970e+00	 6.0281378857e-02	 1.8772143292e+00
 1.1221070028e+00	 8.0627999683e-02	 1.8832131830e+00
 1.1204492722e+00	 1.0108624261e-01	 1.8888236938e+00
 1.1184038130e+00	 1.2164666491e-01	 1.8940583569e+00
 1.1159640971e+00	 1.4229945221e-01	 1.8989173483e+00
 1.1131238818e+00	 1.6303442514e-01	 1.9033876534e+00
 1.1098772317e+00	 1.8384104718e-01	 1.9074422220e+00
 1.1062185395e+00	 2.0470843396e-01	 1.9110391559e+00
 9.8330536840e-01	 1.8196305243e-01	 9.1359841315e-01
 9.7968226449e-01	 2.0055587900e-01	 1.0316018858e+00
 9.7568388344e-01	 2.1918248006e-01	 1.1561403768e+00
 9.7130622879e-01	 2.3783231460e-01	 1.2874137166e+00
 9.6654566967e-01	 2.5649457770e-01	 1.4255885965e+00
 9.6139895816e-01	 2.7515821486e-01	 1.5707962256e+00
 9.5586324607e-01	 2.9381193773e-01	 1.7231300770e+00
 9.4993610115e-01	 3.1244424090e-01	 1.8826437421e+00
 9.4361552236e-01	 3.3104341998e-01	 2.0493489126e+00
 9.3689995435e-01	 3.4959759078e-01	 2.2232135106e+00
 9.2978830103e-01	 3.6809470956e-01	 2.4041599853e+00
 9.9559668551e-01	 1.8423759058e-01	 9.3642953468e-01
 9.9192829280e-01	 2.0306282749e-01	 1.0450861208e+00
 9.8787993198e-01	 2.2192226105e-01	 1.1591738010e+00
 9.8344755666e-01	 2.4080521853e-01	 1.2788757143e+00
 9.7862749055e-01	 2.5970075992e-01	 1.4043452082e+00
 9.7341644514e-01	 2.7859769255e-01	 1.5357036855e+00
 9.6781153666e-01	 2.9748458695e-01	 1.6730385292e+00
 9.6181030243e-01	 3.1634979391e-01	 1.8164011250e+00
 9.5541071639e-01	 3.3518146273e-01	 1.9658049981e+00
 9.4861120379e-01	 3.5396756067e-01	 2.1212240843e+00
 9.4141065480e-01	 3.7269589344e-01	 2.2825911507e+00
 1.0078880026e+00	 1.8651212874e-01	 9.7801972662e-01
 1.0041743211e+00	 2.0556977597e-01	 1.0772310879e+00
 1.0000759805e+00	 2.2466204205e-01	 1.1807993715e+00
 9.9558888452e-01	 2.4377812247e-01	 1.2888916471e+00
 9.9070931143e-01	 2.6290694214e-01	 1.4016484850e+00
 9.8543393212e-01	 2.8203717024e-01	 1.5191819882e+00
 9.7975982724e-01	 3.0115723617e-01	 1.6415738936e+00
 9.7368450370e-01	 3.2025534692e-01	 1.7688737581e+00
 9.6720591043e-01	 3.3931950548e-01	 1.9010972486e+00
 9.6032245323e-01	 3.5833753055e-01	 2.0382245492e+00
 9.5303300857e-01	 3.7729707731e-01	 2.1801989047e+00
 1.0201793197e+00	 1.8878666689e-01	 1.0376910196e+00
 1.0164203494e+00	 2.0807672446e-01	 1.1273623681e+00
 1.0122720291e+00	 2.2740182305e-01	 1.2203451444e+00
 1.0077302124e+00	 2.4675102640e-01	 1.3167909483e+00
 1.0027911323e+00	 2.6611312436e-01	 1.4168281189e+00
 9.9745141910e-01	 2.8547664792e-01	 1.5205599479e+00
 9.9170811782e-01	 3.0482988540e-01	 1.6280629535e+00
 9.8555870497e-01	 3.2416089993e-01	 1.7393852282e+00
 9.7900110447e-01	 3.4345754823e-01	 1.8545448764e+00
 9.7203370266e-01	 3.6270750044e-01	 1.9735285572e+00
 9.6465536234e-01	 3.8189826118e-01	 2.0962901469e+00
 1.0324706368e+00	 1.9106120504e-01	 1.1147977285e+00
 1.0286663777e+00	 2.1058367294e-01	 1.1948376575e+00
 1.0244680776e+00	 2.3014160405e-01	 1.2771711730e+00
 1.0198715402e+00	 2.4972393033e-01	 1.3619349828e+00
 1.0148729532e+00	 2.6931930658e-01	 1.4492457211e+00
 1.0094689061e+00	 2.8891612561e-01	 1.5391983396e+00
 1.0036564084e+00	 3.0850253462e-01	 1.6318645503e+00
 9.9743290624e-01	 3.2806645295e-01	 1.7272913316e+00
 9.9079629850e-01	 3.4759559099e-01	 1.8254995116e+00
 9.8374495210e-01	 3.6707747033e-01	 1.9264824431e+00
 9.7627771611e-01	 3.8649944506e-01	 2.0302047815e+00
 1.0447619539e+00	 1.9333574319e-01	 1.2087245529e+00
 1.0409124060e+00	 2.1309062143e-01	 1.2790448782e+00
 1.0366641262e+00	 2.3288138505e-01	 1.3506676254e+00
 1.0320128681e+00	 2.5269683426e-01	 1.4237151686e+00
 1.0269547741e+00	 2.7252548880e-01	 1.4982929446e+00
 1.0214863931e+00	 2.9235560329e-01	 1.5744880195e+00
 1.0156046990e+00	 3.1217518384e-01	 1.6523676972e+00
 1.0093071075e+00	 3.3197200596e-01	 1.7319781801e+00
 1.0025914925e+00	 3.5173363374e-01	 1.8133432963e+00
 9.9545620154e-01	 3.7144744021e-01	 1.8964633022e+00
 9.8790006988e-01	 3.9110062893e-01	 1.9813137761e+00
 1.0570532710e+00	 1.9561028135e-01	 1.3188848110e+00
 1.0531584344e+00	 2.1559756991e-01	 1.3794004207e+00
 1.0488601747e+00	 2.3562116605e-01	 1.4402530340e+00
 1.0441541960e+00	 2.5566973819e-01	 1.5015512297e+00
 1.0390365949e+00	 2.7573167103e-01	 1.5633897373e+00
 1.0335038801e+00	 2.9579508098e-01	 1.6258481760e+00
 1.0275529896e+00	 3.1584783306e-01	 1.6889898252e+00
 1.0211813088e+00	 3.3587755897e-01	 1.7528604384e+00
 1.0143866866e+00	 3.5587167649e-01	 1.8174871093e+00
 1.0071674510e+00	 3.7581741010e-01	 1.8828772020e+00
 9.9952242365e-01	 3.9570181280e-01	 1.9490173552e+00
 1.0693445882e+00	 1.9788481950e-01	 1.4447187949e+00
 1.0654044627e+00	 2.1810451840e-01	 1.4953475080e+00
 1.0610562233e+00	 2.3836094705e-01	 1.5453726652e+00
 1.0562955238e+00	 2.5864264212e-01	 1.5948895693e+00
 1.0511184158e+00	 2.7893785325e-01	 1.6439827161e+00
 1.0455213670e+00	 2.9923455867e-01	 1.6927247009e+00
 1.0395012801e+00	 3.1952048229e-01	 1.7411751500e+00
 1.0330555100e+00	 3.3978311198e-01	 1.7893796828e+00
 1.0261818806e+00	 3.6000971924e-01	 1.8373689159e+00
 1.0188787004e+00	 3.8018737999e-01	 1.8851575171e+00
 1.0111447774e+00	 4.0030299667e-01	 1.9327433192e+00
 1.0816359053e+00	 2.0015935765e-01	 1.5856922374e+00
 1.0776504910e+00	 2.2061146689e-01	 1.6263546711e+00
 1.0732522718e+00	 2.4110072805e-01	 1.6654970001e+00
 1.0684368517e+00	 2.6161554606e-01	 1.7032017539e+00
 1.0632002367e+00	 2.8214403547e-01	 1.7395436512e+00
 1.0575388540e+00	 3.0267403635e-01	 1.7745886729e+00
 1.0514495707e+00	 3.2319313151e-01	 1.8083931499e+00
 1.0449297113e+00	 3.4368866500e-01	 1.8410028723e+00
 1.0379770746e+00	 3.6414776199e-01	 1.8724522278e+00
 1.0305899498e+00	 3.8455734987e-01	 1.9027633775e+00
 1.0227671312e+00	 4.0490418054e-01	 1.9319454772e+00
 1.0939272224e+00	 2.0243389581e-01	 1.7412948835e+00
 1.0898965193e+00	 2.2311841537e-01	 1.7719143268e+00
 1.0854483204e+00	 2.4384050905e-01	 1.8001203185e+00
 1.0805781796e+00	 2.6458844999e-01	 1.8259830997e+00
 1.0752820576e+00	 2.8535021769e-01	 1.8495680537e+00
 1.0695563410e+00	 3.0611351404e-01	 1.8709349421e+00
 1.0633978613e+00	 3.2686578073e-01	 1.8901371469e+00
 1.0568039126e+00	 3.4759421801e-01	 1.9072209227e+00
 1.0497722687e+00	 3.6828580474e-01	 1.9222246685e+00
 1.0423011993e+00	 3.8892731976e-01	 1.9351782221e+00
 1.0343894849e+00	 4.0950536441e-01	 1.9461021862e+00
 1.1062185395e+00	 2.0470843396e-01	 1.9110391559e+00
 1.1021425476e+00	 2.2562536386e-01	 1.9315414512e+00
 1.0976443689e+00	 2.4658029005e-01	 1.9487593763e+00
 1.0927195074e+00	 2.6756135392e-01	 1.9627513529e+00
 1.0873638784e+00	 2.8855639991e-01	 1.9735738558e+00
 1.0815738280e+00	 3.0955299173e-01	 1.9812808097e+00
 1.0753461519e+00	 3.3053842995e-01	 1.9859229815e+00
 1.0686781139e+00	 3.5149977102e-01	 1.9875473756e+00
 1.0615674627e+00	 3.7242384749e-01	 1.9861966337e+00
 1.0540124487e+00	 3.9329728964e-01	 1.9819084475e+00
 1.0460118387e+00	 4.1410654828e-01	 1.9747149873e+00
 9.2978830103e-01	 3.6809470956e-01	 2.4041599853e+00
 9.2227993796e-01	 3.8652259440e-01	 2.5658992528e+00
 9.1437472369e-01	 4.0486894747e-01	 2.7186278375e+00
 9.0607300986e-01	 4.2312137827e-01	 2.8626310193e+00
 8.9737564997e-01	 4.4126742774e-01	 2.9982120779e+00
 8.8828400681e-01	 4.5929459304e-01	 3.1256910121e+00
 8.7879995838e-01	 4.7719035310e-01	 3.2454031513e+00
 8.6892590241e-01	 4.9494219468e-01	 3.3576976680e+00
 8.5866475920e-01	 5.1253763889e-01	 3.4629359990e+00
 8.4801997290e-01	 5.2996426817e-01	 3.5614901853e+00
 8.3699551121e-01	 5.4720975338e-01	 3.6537411398e+00
 9.4141065480e-01	 3.7269589344e-01	 2.2825911507e+00
 9.3380843719e-01	 3.9135412684e-01	 2.4302596551e+00
 9.2580440774e-01	 4.0992980932e-01	 2.5689611217e+00
 9.1739892249e-01	 4.2841039551e-01	 2.6989727793e+00
 9.0859284561e-01	 4.4678327059e-01	 2.8205900599e+00
 8.9938755690e-01	 4.6503577546e-01	 2.9341253807e+00
 8.8978495788e-01	 4.8315523252e-01	 3.0399068184e+00
 8.7978747621e-01	 5.0112897212e-01	 3.1382766841e+00
 8.6939806870e-01	 5.1894435938e-01	 3.2295900064e+00
 8.5862022257e-01	 5.3658882153e-01	 3.3142129308e+00
 8.4745795511e-01	 5.5404987530e-01	 3.3925210463e+00
 9.5303300857e-01	 3.7729707731e-01	 2.1801989047e+00
 9.4533693642e-01	 3.9618565927e-01	 2.3135574848e+00
 9.3723409180e-01	 4.1499067117e-01	 2.4379964156e+00
 9.2872483512e-01	 4.3369941274e-01	 2.5537853479e+00
 9.1981004124e-01	 4.5229911345e-01	 2.6612123373e+00
 9.1049110700e-01	 4.7077695788e-01	 2.7605826867e+00
 9.0076995736e-01	 4.8912011194e-01	 2.8522176817e+00
 8.9064904999e-01	 5.0731574955e-01	 2.9364532265e+00
 8.8013137819e-01	 5.2535107988e-01	 3.0136383862e+00
 8.6922047224e-01	 5.4321337488e-01	 3.0841338454e+00
 8.5792039901e-01	 5.6088999722e-01	 3.1483102913e+00
 9.6465536234e-01	 3.8189826118e-01	 2.0962901469e+00
 9.5686543566e-01	 4.0101719171e-01	 2.2151082821e+00
 9.4866377585e-01	 4.2005153301e-01	 2.3250577643e+00
 9.4005074775e-01	 4.3898842997e-01	 2.4264011230e+00
 9.3102723687e-01	 4.5781495630e-01	 2.5194194914e+00
 9.2159465709e-01	 4.7651814030e-01	 2.6044115084e+00
 9.1175495685e-01	 4.9508499136e-01	 2.6816921136e+00
 9.0151062378e-01	 5.1350252699e-01	 2.7515912419e+00
 8.9086468769e-01	 5.3175780036e-01	 2.8144524242e+00
 8.7982072191e-01	 5.4983792824e-01	 2.8706313029e+00
 8.6838284291e-01	 5.6773011914e-01	 2.9204940700e+00
 9.7627771611e-01	 3.8649944506e-01	 2.0302047815e+00
 9.6839393489e-01	 4.0584872414e-01	 2.1342601801e+00
 9.6009345990e-01	 4.2511239486e-01	 2.2295014013e+00
 9.5137666038e-01	 4.4427744721e-01	 2.3161842930e+00
 9.4224443250e-01	 4.6333079915e-01	 2.3945835041e+00
 9.3269820718e-01	 4.8225932271e-01	 2.4649914440e+00
 9.2273995634e-01	 5.0104987078e-01	 2.5277171350e+00
 9.1237219757e-01	 5.1968930443e-01	 2.5830849652e+00
 9.0159799719e-01	 5.3816452085e-01	 2.6314333450e+00
 8.9042097157e-01	 5.5646248159e-01	 2.6731132783e+00
 8.7884528680e-01	 5.7457024106e-01	 2.7084868541e+00
 9.8790006988e-01	 3.9110062893e-01	 1.9813137761e+00
 9.7992243412e-01	 4.1068025657e-01	 2.0703919881e+00
 9.7152314396e-01	 4.3017325671e-01	 2.1507138545e+00
 9.6270257301e-01	 4.4956646444e-01	 2.2225289666e+00
 9.5346162813e-01	 4.6884664200e-01	 2.2861059112e+00
 9.4380175727e-01	 4.8800050513e-01	 2.3417312869e+00
 9.3372495582e-01	 5.0701475019e-01	 2.3897086131e+00
 9.2323377135e-01	 5.2587608186e-01	 2.4303571379e+00
 9.1233130668e-01	 5.4457124134e-01	 2.4640105508e+00
 9.0102122124e-01	 5.6308703495e-01	 2.4910156067e+00
 8.8930773069e-01	 5.8141036298e-01	 2.5117306695e+00
 9.9952242365e-01	 3.9570181280e-01	 1.9490173552e+00
 9.9145093335e-01	 4.1551178900e-01	 2.0229114075e+00
 9.8295282801e-01	 4.3523411855e-01	 2.0881101857e+00
 9.7402848564e-01	 4.5485548167e-01	 2.1448574334e+00
 9.6467882376e-01	 4.7436248484e-01	 2.1934160836e+00
 9.5490530736e-01	 4.9374168754e-01	 2.2340673284e+00
 9.4470995530e-01	 5.1297962961e-01	 2.2671095836e+00
 9.3409534513e-01	 5.3206285930e-01	 2.2928573508e+00
 9.2306461617e-01	 5.5097796183e-01	 2.3116399834e+00
 9.1162147090e-01	 5.6971158830e-01	 2.3238003632e+00
 8.9977017459e-01	 5.8825048490e-01	 2.3296934944e+00
 1.0111447774e+00	 4.0030299667e-01	 1.9327433192e+00
 1.0029794326e+00	 4.2034332143e-01	 1.9912533720e+00
 9.9438251205e-01	 4.4029498039e-01	 2.0411323498e+00
 9.8535439826e-01	 4.6014449890e-01	 2.0826185444e+00
 9.7589601939e-01	 4.7987832769e-01	 2.1159696282e+00
 9.6600885745e-01	 4.9948286996e-01	 2.1414617775e+00
 9.5569495479e-01	 5.1894450902e-01	 2.1593886902e+00
 9.4495691892e-01	 5.3824963673e-01	 2.1700605006e+00
 9.3379792566e-01	 5.5738468231e-01	 2.1738025984e+00
 9.2222172056e-01	 5.7633614165e-01	 2.1709543552e+00
 9.1023261848e-01	 5.9509060682e-01	 2.1618677678e+00
 1.0227671312e+00	 4.0490418054e-01	 1.9319454772e+00
 1.0145079318e+00	 4.2517485386e-01	 1.9748784999e+00
 1.0058121961e+00	 4.4535584224e-01	 2.0092476675e+00
 9.9668031089e-01	 4.6543351612e-01	 2.0352862025e+00
 9.8711321501e-01	 4.8539417054e-01	 2.0532468969e+00
 9.7711240753e-01	 5.0522405237e-01	 2.0634012880e+00
 9.6667995426e-01	 5.2490938844e-01	 2.0660387285e+00
 9.5581849270e-01	 5.4443641416e-01	 2.0614653524e+00
 9.4453123515e-01	 5.6379140280e-01	 2.0500029446e+00
 9.3282197022e-01	 5.8296069500e-01	 2.0319877169e+00
 9.2069506237e-01	 6.0193072873e-01	 2.0077689997e+00
 1.0343894849e+00	 4.0950536441e-01	 1.9461021862e+00
 1.0260364310e+00	 4.3000638629e-01	 1.9732716510e+00
 1.0172418801e+00	 4.5041670408e-01	 1.9919474001e+00
 1.0080062235e+00	 4.7072253335e-01	 2.0023579554e+00
 9.9833041064e-01	 4.9091001338e-01	 2.0047515962e+00
 9.8821595761e-01	 5.1096523478e-01	 1.9993955854e+00
 9.7766495374e-01	 5.3087426785e-01	 1.9865752902e+00
 9.6668006647e-01	 5.5062319160e-01	 1.9665931987e+00
 9.5526454464e-01	 5.7019812328e-01	 1.9397678379e+00
 9.4342221988e-01	 5.8958524835e-01	 1.9064325992e+00
 9.3115750625e-01	 6.0877085065e-01	 1.8669344747e+00
 1.0460118387e+00	 4.1410654828e-01	 1.9747149873e+00
 1.0375649302e+00	 4.3483791872e-01	 1.9859405803e+00
 1.0286715642e+00	 4.5547756592e-01	 1.9887454191e+00
 1.0193321361e+00	 4.7601155058e-01	 1.9833536819e+00
 1.0095476063e+00	 4.9642585623e-01	 1.9700094902e+00
 9.9931950770e-01	 5.1670641719e-01	 1.9489761850e+00
 9.8864995322e-01	 5.3683914726e-01	 1.9205354960e+00
 9.7754164025e-01	 5.5680996903e-01	 1.8849866075e+00
 9.6599785412e-01	 5.7660484377e-01	 1.8426451249e+00
 9.5402246954e-01	 5.9620980170e-01	 1.7938419459e+00
 9.4161995014e-01	 6.1561097256e-01	 1.7389220430e+00
 8.3699551121e-01	 5.4720975338e-01	 3.6537411398e+00
 8.2559586329e-01	 5.6426188114e-01	 3.7120788283e+00
 8.1382603605e-01	 5.8110858112e-01	 3.7460142311e+00
 8.0169154870e-01	 5.9773795324e-01	 3.7565768940e+00
 7.8919842564e-01	 6.1413829468e-01	 3.7448736986e+00
 7.7635318758e-01	 6.3029812641e-01	 3.7120848141e+00
 7.6316284109e-01	 6.4620621941e-01	 3.6594592341e+00
 7.4963486641e-01	 6.6185162015e-01	 3.5883099243e+00
 7.3577720369e-01	 6.7722367543e-01	 3.5000086102e+00
 7.2159823775e-01	 6.9231205631e-01	 3.3959802368e+00
 7.0710678120e-01	 7.0710678120e-01	 3.2776971360e+00
 8.4745795511e-01	 5.5404987530e-01	 3.3925210463e+00
 8.3591581159e-01	 5.7131515466e-01	 3.4435889599e+00
 8.2399886151e-01	 5.8837243839e-01	 3.4715666577e+00
 8.1171269307e-01	 6.0520967766e-01	 3.4774403481e+00
 7.9906340596e-01	 6.2181502336e-01	 3.4622695151e+00
 7.8605760243e-01	 6.3817685299e-01	 3.4271830415e+00
 7.7270237661e-01	 6.5428379716e-01	 3.3733749412e+00
 7.5900530224e-01	 6.7012476541e-01	 3.3020997205e+00
 7.4497441875e-01	 6.8568897137e-01	 3.2146673998e+00
 7.3061821572e-01	 7.0096595702e-01	 3.1124382251e+00
 7.1594561597e-01	 7.1594561597e-01	 2.9968171029e+00
 8.5792039901e-01	 5.6088999722e-01	 3.1483102913e+00
 8.4623575989e-01	 5.7836842818e-01	 3.1914741505e+00
 8.3417168697e-01	 5.9563629565e-01	 3.2128347225e+00
 8.2173383743e-01	 6.1268140208e-01	 3.2133360014e+00
 8.0892838629e-01	 6.2949175205e-01	 3.1939912662e+00
 7.9576201728e-01	 6.4605557958e-01	 3.1558793738e+00
 7.8224191213e-01	 6.6236137490e-01	 3.1001406809e+00
 7.6837573808e-01	 6.7839791066e-01	 3.0279726160e+00
 7.5417163380e-01	 6.9415426732e-01	 2.9406249302e+00
 7.3963819370e-01	 7.0961985773e-01	 2.8393946552e+00
 7.2478445074e-01	 7.2478445074e-01	 2.7256208006e+00
 8.6838284291e-01	 5.6773011914e-01	 2.9204940700e+00
 8.5655570819e-01	 5.8542170169e-01	 2.9551425172e+00
 8.4434451242e-01	 6.0290015292e-01	 2.9692503736e+00
 8.3175498180e-01	 6.2015312650e-01	 2.9637205008e+00
 8.1879336662e-01	 6.3716848074e-01	 2.9395211230e+00
 8.0546643213e-01	 6.5393430616e-01	 2.8976822854e+00
 7.9178144765e-01	 6.7043895265e-01	 2.8392919627e+00
 7.7774617391e-01	 6.8667105592e-01	 2.7654918373e+00
 7.6336884885e-01	 7.0261956326e-01	 2.6774727746e+00
 7.4865817167e-01	 7.1827375844e-01	 2.5764700231e+00
 7.3362328551e-01	 7.3362328551e-01	 2.4637581691e+00
 8.7884528680e-01	 5.7457024106e-01	 2.7084868541e+00
 8.6687565648e-01	 5.9247497521e-01	 2.7340303622e+00
 8.5451733788e-01	 6.1016401018e-01	 2.7402726092e+00
 8.4177612616e-01	 6.2762485092e-01	 2.7280763674e+00
 8.2865834694e-01	 6.4484520942e-01	 2.6983659150e+00
 8.1517084698e-01	 6.6181303274e-01	 2.6521236569e+00
 8.0132098316e-01	 6.7851653039e-01	 2.5903864150e+00
 7.8711660974e-01	 6.9494420117e-01	 2.5142414098e+00
 7.7256606389e-01	 7.1108485921e-01	 2.4248219555e+00
 7.5767814965e-01	 7.2692765914e-01	 2.3233028970e+00
 7.4246212027e-01	 7.4246212027e-01	 2.2108958183e+00
 8.8930773069e-01	 5.8141036298e-01	 2.5117306695e+00
 8.7719560478e-01	 5.9952824872e-01	 2.5276005148e+00
 8.6469016333e-01	 6.1742786745e-01	 2.5253858864e+00
 8.5179727052e-01	 6.3509657533e-01	 2.5059104742e+00
 8.3852332726e-01	 6.5252193811e-01	 2.4700556801e+00
 8.2487526183e-01	 6.6969175932e-01	 2.4187573980e+00
 8.1086051868e-01	 6.8659410813e-01	 2.3530024839e+00
 7.9648704558e-01	 7.0321734642e-01	 2.2738249346e+00
 7.8176327894e-01	 7.1955015515e-01	 2.1823018002e+00
 7.6669812762e-01	 7.3558155984e-01	 2.0795488538e+00
 7.5130095504e-01	 7.5130095504e-01	 1.9667160474e+00
 8.9977017459e-01	 5.8825048490e-01	 2.3296934944e+00
 8.8751555307e-01	 6.0658152224e-01	 2.3353407888e+00
 8.7486298878e-01	 6.2469172471e-01	 2.3240986412e+00
 8.6181841488e-01	 6.4256829975e-01	 2.2967526305e+00
 8.4838830758e-01	 6.6019866679e-01	 2.2541423147e+00
 8.3457967667e-01	 6.7757048590e-01	 2.1971581673e+00
 8.2040005419e-01	 6.9467168587e-01	 2.1267382226e+00
 8.0585748141e-01	 7.1149049167e-01	 2.0438644498e+00
 7.9096049399e-01	 7.2801545109e-01	 1.9495588771e+00
 7.7571810559e-01	 7.4423546055e-01	 1.8448794903e+00
 7.6013978980e-01	 7.6013978980e-01	 1.7309159325e+00
 9.1023261848e-01	 5.9509060682e-01	 2.1618677678e+00
 8.9783550136e-01	 6.1363479575e-01	 2.1567625469e+00
 8.8503581423e-01	 6.3195558198e-01	 2.1359419103e+00
 8.7183955924e-01	 6.5004002416e-01	 2.1001542636e+00
 8.5825328790e-01	 6.6787539547e-01	 2.0501983180e+00
 8.4428409152e-01	 6.8544921248e-01	 1.9869201791e+00
 8.2993958971e-01	 7.0274926361e-01	 1.9112101651e+00
 8.1522791724e-01	 7.1976363692e-01	 1.8239993715e+00
 8.0015770903e-01	 7.3648074703e-01	 1.7262560042e+00
 7.8473808356e-01	 7.5288936125e-01	 1.6189815025e+00
 7.6897862457e-01	 7.6897862457e-01	 1.5032064776e+00
 9.2069506237e-01	 6.0193072873e-01	 2.0077689997e+00
 9.0815544965e-01	 6.2068806926e-01	 1.9913993627e+00
 8.9520863968e-01	 6.3921943924e-01	 1.9604680468e+00
 8.8186070360e-01	 6.5751174858e-01	 1.9156871906e+00
 8.6811826822e-01	 6.7555212415e-01	 1.8578156210e+00
 8.5398850636e-01	 6.9332793905e-01	 1.7876560927e+00
 8.3947912522e-01	 7.1082684135e-01	 1.7060522754e+00
 8.2459835306e-01	 7.2803678217e-01	 1.6138855060e+00
 8.0935492408e-01	 7.4494604297e-01	 1.5120713265e+00
 7.9375806153e-01	 7.6154326195e-01	 1.4015558277e+00
 7.7781745933e-01	 7.7781745933e-01	 1.2833118231e+00
 9.3115750625e-01	 6.0877085065e-01	 1.8669344747e+00
 9.1847539794e-01	 6.2774134277e-01	 1.8388057726e+00
 9.0538146513e-01	 6.4648329650e-01	 1.7972495230e+00
 8.9188184795e-01	 6.6498347299e-01	 1.7429424727e+00
 8.7798324854e-01	 6.8322885283e-01	 1.6766044951e+00
 8.6369292120e-01	 7.0120666563e-01	 1.5989959763e+00
 8.4901866073e-01	 7.1890441909e-01	 1.5109149691e+00
 8.3396878889e-01	 7.3630992742e-01	 1.4131941292e+00
 8.1855213912e-01	 7.5341133891e-01	 1.3066974543e+00
 8.0277803950e-01	 7.7019716265e-01	 1.1923168446e+00
 7.8665629409e-01	 7.8665629409e-01	 1.0709685077e+00
 9.4161995014e-01	 6.1561097256e-01	 1.7389220430e+00
 9.2879534623e-01	 6.3479461628e-01	 1.6985561116e+00
 9.1555429058e-01	 6.5374715376e-01	 1.6458778123e+00
 9.0190299231e-01	 6.7245519740e-01	 1.5815293465e+00
 8.8784822886e-01	 6.9090558151e-01	 1.5061925330e+00
 8.7339733604e-01	 7.0908539221e-01	 1.4205863394e+00
 8.5855819624e-01	 7.2698199683e-01	 1.3254641988e+00
 8.4333922472e-01	 7.4458307267e-01	 1.2216111272e+00
 8.2774935416e-01	 7.6187663485e-01	 1.1098406601e+00
 8.1179801747e-01	 7.7885106335e-01	 9.9099162619e-01
 7.9549512885e-01	 7.9549512885e-01	 8.6592477988e-01
 7.0710678120e-01	 7.0710678120e-01	 3.2776971360e+00
 6.9231205631e-01	 7.2159823775e-01	 3.1253232985e+00
 6.7722367543e-01	 7.3577720369e-01	 2.9455117777e+00
 6.6185162015e-01	 7.4963486641e-01	 2.7403519580e+00
 6.4620621941e-01	 7.6316284109e-01	 2.5120137526e+00
 6.3029812641e-01	 7.7635318758e-01	 2.2627383412e+00
 6.1413829468e-01	 7.8919842564e-01	 1.9948285812e+00
 5.9773795324e-01	 8.0169154870e-01	 1.7106391583e+00
 5.8110858112e-01	 8.1382603605e-01	 1.4125665434e+00
 5.6426188114e-01	 8.2559586329e-01	 1.1030388237e+00
 5.4720975338e-01	 8.3699551121e-01	 7.8450547727e-01
 7.1594561597e-01	 7.1594561597e-01	 2.9968171029e+00
 7.0096595702e-01	 7.3061821572e-01	 2.8523310982e+00
 6.8568897137e-01	 7.4497441875e-01	 2.6822590942e+00
 6.7012476541e-01	 7.5900530224e-01	 2.4885835287e+00
 6.5428379716e-01	 7.7270237661e-01	 2.2733621228e+00
 6.3817685299e-01	 7.8605760243e-01	 2.0387190993e+00
 6.2181502336e-01	 7.9906340596e-01	 1.7868360962e+00
 6.0520967766e-01	 8.1171269307e-01	 1.5199428387e+00
 5.8837243839e-01	 8.2399886151e-01	 1.2403076321e+00
 5.7131515466e-01	 8.3591581159e-01	 9.5022773984e-01
 5.5404987530e-01	 8.4745795511e-01	 6.5201971362e-01
 7.2478445074e-01	 7.2478445074e-01	 2.7256208006e+00
 7.0961985773e-01	 7.3963819370e-01	 2.5878991010e+00
 6.9415426732e-01	 7.5417163380e-01	 2.4264041269e+00
 6.7839791066e-01	 7.6837573808e-01	 2.2430136478e+00
 6.6236137490e-01	 7.8224191213e-01	 2.0396755610e+00
 6.4605557958e-01	 7.9576201728e-01	 1.8183995811e+00
 6.2949175205e-01	 8.0892838629e-01	 1.5812486479e+00
 6.1268140208e-01	 8.2173383743e-01	 1.3303301094e+00
 5.9563629565e-01	 8.3417168697e-01	 1.0677867413e+00
 5.7836842818e-01	 8.4623575989e-01	 7.9578766318e-01
 5.6088999722e-01	 8.5792039901e-01	 5.1651921291e-01
 7.3362328551e-01	 7.3362328551e-01	 2.4637581691e+00
 7.1827375844e-01	 7.4865817167e-01	 2.3317178529e+00
 7.0261956326e-01	 7.6336884885e-01	 2.1776794359e+00
 6.8667105592e-01	 7.7774617391e-01	 2.0034182156e+00
 6.7043895265e-01	 7.9178144765e-01	 1.8107745476e+00
 6.5393430616e-01	 8.0546643213e-01	 1.6016459991e+00
 6.3716848074e-01	 8.1879336662e-01	 1.3779792412e+00
 6.2015312650e-01	 8.3175498180e-01	 1.1417617348e+00
 6.0290015292e-01	 8.4434451242e-01	 8.9501326722e-01
 5.8542170169e-01	 8.5655570819e-01	 6.3977739656e-01
 5.6773011914e-01	 8.6838284291e-01	 3.7811286174e-01
 7.4246212027e-01	 7.4246212027e-01	 2.2108958183e+00
 7.2692765914e-01	 7.5767814965e-01	 2.0834926362e+00
 7.1108485921e-01	 7.7256606389e-01	 1.9358303171e+00
 6.9494420117e-01	 7.8711660974e-01	 1.7695838039e+00
 6.7851653039e-01	 8.0132098316e-01	 1.5864881118e+00
 6.6181303274e-01	 8.1517084698e-01	 1.3883309365e+00
 6.4484520942e-01	 8.2865834694e-01	 1.1769450237e+00
 6.2762485092e-01	 8.4177612616e-01	 9.5420034809e-01
 6.1016401018e-01	 8.5451733788e-01	 7.2199615889e-01
 5.9247497521e-01	 8.6687565648e-01	 4.8225294313e-01
 5.7457024106e-01	 8.7884528680e-01	 2.3690436212e-01
 7.5130095504e-01	 7.5130095504e-01	 1.9667160474e+00
 7.3558155984e-01	 7.6669812762e-01	 1.8429426025e+00
 7.1955015515e-01	 7.8176327894e-01	 1.7006140525e+00
 7.0321734642e-01	 7.9648704558e-01	 1.5413070287e+00
 6.8659410813e-01	 8.1086051868e-01	 1.3666533288e+00
 6.6969175932e-01	 8.2487526183e-01	 1.1783329734e+00
 6.5252193811e-01	 8.3852332726e-01	 9.7806704257e-01
 6.3509657533e-01	 8.5179727052e-01	 7.6761034141e-01
 6.1742786745e-01	 8.6469016333e-01	 5.4874394475e-01
 5.9952824872e-01	 8.7719560478e-01	 3.2326767107e-01
 5.8141036298e-01	 8.8930773069e-01	 9.2992536433e-02
 7.6013978980e-01	 7.6013978980e-01	 1.7309159325e+00
 7.4423546055e-01	 7.7571810559e-01	 1.6097999664e+00
 7.2801545109e-01	 7.9096049399e-01	 1.4717992137e+00
 7.1149049167e-01	 8.0585748141e-01	 1.3183939658e+00
 6.9467168587e-01	 8.2040005419e-01	 1.1511148523e+00
 6.7757048590e-01	 8.3457967667e-01	 9.7153633749e-01
 6.6019866679e-01	 8.4838830758e-01	 7.8127001755e-01
 6.4256829975e-01	 8.6181841488e-01	 5.8195776345e-01
 6.2469172471e-01	 8.7486298878e-01	 3.7526475699e-01
 6.0658152224e-01	 8.8751555307e-01	 1.6287246678e-01
 5.8825048490e-01	 8.9977017459e-01	-5.3528388868e-02
 7.6897862457e-01	 7.6897862457e-01	 1.5032064776e+00
 7.5288936125e-01	 7.8473808356e-01	 1.3838092547e+00
 7.3648074703e-01	 8.0015770903e-01	 1.2491650132e+00
 7.1976363692e-01	 8.1522791724e-01	 1.1006596078e+00
 7.0274926361e-01	 8.2993958971e-01	 9.3972447847e-01
 6.8544921248e-01	 8.4428409152e-01	 7.6783057972e-01
 6.6787539547e-01	 8.5825328790e-01	 5.8648212991e-01
 6.5004002416e-01	 8.7183955924e-01	 3.9721022428e-01
 6.3195558198e-01	 8.8503581423e-01	 2.0156635431e-01
 6.1363479575e-01	 8.9783550136e-01	 1.1158774668e-03
 5.9509060682e-01	 9.1023261848e-01	-2.0256851913e-01
 7.7781745933e-01	 7.7781745933e-01	 1.2833118231e+00
 7.6154326195e-01	 7.9375806153e-01	 1.1647266072e+00
 7.4494604297e-01	 8.0935492408e-01	 1.0325006993e+00
 7.2803678217e-01	 8.2459835306e-01	 8.8792735656e-01
 7.1082684135e-01	 8.3947912522e-01	 7.3234074047e-01
 6.9332793905e-01	 8.5398850636e-01	 5.6711027186e-01
 6.7555212415e-01	 8.6811826822e-01	 3.9363482580e-01
 6.5751174858e-01	 8.8186070360e-01	 2.1333680666e-01
 6.3921943924e-01	 8.9520863968e-01	 2.7656143190e-02
 6.2068806926e-01	 9.0815544965e-01	-1.6195575589e-01
 6.0193072873e-01	 9.2069506237e-01	-3.5404204535e-01
 7.8665629409e-01	 7.8665629409e-01	 1.0709685077e+00
 7.7019716265e-01	 8.0277803950e-01	 9.5231912350e-01
 7.5341133891e-01	 8.1855213912e-01	 8.2160499280e-01
 7.3630992742e-01	 8.3396878889e-01	 6.8002855165e-01
 7.1890441909e-01	 8.4901866073e-01	 5.2882852985e-01
 7.0120666563e-01	 8.6369292120e-01	 3.6927472437e-01
 6.8322885283e-01	 8.7798324854e-01	 2.0266263282e-01
 6.6498347299e-01	 8.9188184795e-01	 3.0307983295e-02
 6.4648329650e-01	 9.0538146513e-01	-1.4645880236e-01
 6.2774134277e-01	 9.1847539794e-01	-3.2629817464e-01
 6.0877085065e-01	 9.3115750625e-01	-5.0786701470e-01
 7.9549512885e-01	 7.9549512885e-01	 8.6592477988e-01
 7.7885106335e-01	 8.1179801747e-01	 7.4636425499e-01
 7.6187663485e-01	 8.2774935416e-01	 6.1628556041e-01
 7.4458307267e-01	 8.4333922472e-01	 4.7680202881e-01
 7.2698199683e-01	 8.5855819624e-01	 3.2905874330e-01
 7.0908539221e-01	 8.7339733604e-01	 1.7422772316e-01
 6.9090558151e-01	 8.8784822886e-01	 1.3502988849e-02
 6.7245519740e-01	 9.0190299231e-01	-1.5190446041e-01
 6.5374715376e-01	 9.1555429058e-01	-3.2077172233e-01
 6.3479461628e-01	 9.2879534623e-01	-4.9186908673e-01
 6.1561097256e-01	 9.4161995014e-01	-6.6396511622e-01
 5.4720975338e-01	 8.3699551121e-01	 7.8450547727e-01
 5.2996426817e-01	 8.4801997290e-01	 4.5454716382e-01
 5.1253763889e-01	 8.5866475920e-01	 1.1004034344e-01
 4.9494219468e-01	 8.6892590241e-01	-2.4650647967e-01
 4.7719035310e-01	 8.7879995838e-01	-6.1256587571e-01
 4.5929459304e-01	 8.8828400681e-01	-9.8560201812e-01
 4.4126742774e-01	 8.9737564997e-01	-1.3630810611e+00
 4.2312137827e-01	 9.0607300986e-01	-1.7424813023e+00
 4.0486894747e-01	 9.1437472369e-01	-2.1213030691e+00
 3.8652259440e-01	 9.2227993796e-01	-2.4970782738e+00
 3.6809470956e-01	 9.2978830103e-01	-2.8673795838e+00
 5.5404987530e-01	 8.4745795511e-01	 6.5201971362e-01
 5.3658882153e-01	 8.5862022257e-01	 3.4283948624e-01
 5.1894435938e-01	 8.6939806870e-01	 2.0462589155e-02
 5.0112897212e-01	 8.7978747621e-01	-3.1274362658e-01
 4.8315523252e-01	 8.8978495788e-01	-6.5439518008e-01
 4.6503577546e-01	 8.9938755690e-01	-1.0021013815e+00
 4.4678327059e-01	 9.0859284561e-01	-1.3534746049e+00
 4.2841039551e-01	 9.1739892249e-01	-1.7061398526e+00
 4.0992980932e-01	 9.2580440774e-01	-2.0577440553e+00
 3.9135412684e-01	 9.3380843719e-01	-2.4059650533e+00
 3.7269589344e-01	 9.4141065480e-01	-2.7485202110e+00
 5.6088999722e-01	 8.5792039901e-01	 5.1651921291e-01
 5.4321337488e-01	 8.6922047224e-01	 2.2674131229e-01
 5.2535107988e-01	 8.8013137819e-01	-7.4912855881e-02
 5.0731574955e-01	 8.9064904999e-01	-3.8621422281e-01
 4.8912011194e-01	 9.0076995736e-01	-7.0491934757e-01
 4.7077695788e-01	 9.1049110700e-01	-1.0287797408e+00
 4.5229911345e-01	 9.1981004124e-01	-1.3555510432e+00
 4.3369941274e-01	 9.2872483512e-01	-1.6830020030e+00
 4.1499067117e-01	 9.3723409180e-01	-2.0089231988e+00
 3.9618565927e-01	 9.4533693642e-01	-2.3311354579e+00
 3.7729707731e-01	 9.5303300857e-01	-2.6474979253e+00
 5.6773011914e-01	 8.6838284291e-01	 3.7811286174e-01
 5.4983792824e-01	 8.7982072191e-01	 1.0641125147e-01
 5.3175780036e-01	 8.9086468769e-01	-1.7587652310e-01
 5.1350252699e-01	 9.0151062378e-01	-4.6665690825e-01
 4.9508499136e-01	 9.1175495685e-01	-7.6382419921e-01
 4.7651814030e-01	 9.2159465709e-01	-1.0652692769e+00
 4.5781495630e-01	 9.3102723687e-01	-1.3688882025e+00
 4.3898842997e-01	 9.4005074775e-01	-1.6725906179e+00
 4.2005153301e-01	 9.4866377585e-01	-1.9743079014e+00
 4.0101719171e-01	 9.5686543566e-01	-2.2720010327e+00
 3.8189826118e-01	 9.6465536234e-01	-2.5636681256e+00
 5.7457024106e-01	 8.7884528680e-01	 2.3690436212e-01
 5.5646248159e-01	 8.9042097157e-01	-1.7999639094e-02
 5.3816452085e-01	 9.0159799719e-01	-2.8222891811e-01
 5.1968930443e-01	 9.1237219757e-01	-5.5382276799e-01
 5.0104987078e-01	 9.2273995634e-01	-8.3081051642e-01
 4.8225932271e-01	 9.3269820718e-01	-1.1112196855e+00
 4.6333079915e-01	 9.4224443250e-01	-1.3930840124e+00
 4.4427744721e-01	 9.5137666038e-01	-1.6744512822e+00
 4.2511239486e-01	 9.6009345990e-01	-1.9533909262e+00
 4.0584872414e-01	 9.6839393489e-01	-2.2280013434e+00
 3.8649944506e-01	 9.7627771611e-01	-2.4964169053e+00
 5.8141036298e-01	 8.8930773069e-01	 9.2992536433e-02
 5.6308703495e-01	 9.0102122124e-01	-1.4634741036e-01
 5.4457124134e-01	 9.1233130668e-01	-3.9377993403e-01
 5.2587608186e-01	 9.2323377135e-01	-6.4747460027e-01
 5.0701475019e-01	 9.3372495582e-01	-9.0559316098e-01
 4.8800050513e-01	 9.4380175727e-01	-1.1662971467e+00
 4.6884664200e-01	 9.5346162813e-01	-1.4277553228e+00
 4.4956646444e-01	 9.6270257301e-01	-1.6881509642e+00
 4.3017325671e-01	 9.7152314396e-01	-1.9456889059e+00
 4.1068025657e-01	 9.7992243412e-01	-2.1986023291e+00
 3.9110062893e-01	 9.8790006988e-01	-2.4451592473e+00
 5.8825048490e-01	 8.9977017459e-01	-5.3528388868e-02
 5.6971158830e-01	 9.1162147090e-01	-2.7849480810e-01
 5.5097796183e-01	 9.2306461617e-01	-5.1034830566e-01
 5.3206285930e-01	 9.3409534513e-01	-7.4738623549e-01
 5.1297962961e-01	 9.4470995530e-01	-9.8790025642e-01
 4.9374168754e-01	 9.5490530736e-01	-1.2301833665e+00
 4.7436248484e-01	 9.6467882376e-01	-1.4725368040e+00
 4.5485548167e-01	 9.7402848564e-01	-1.7132767730e+00
 4.3523411855e-01	 9.8295282801e-01	-1.9507409548e+00
 4.1551178900e-01	 9.9145093335e-01	-2.1832947680e+00
 3.9570181280e-01	 9.9952242365e-01	-2.4093373440e+00
 5.9509060682e-01	 9.1023261848e-01	-2.0256851913e-01
 5.7633614165e-01	 9.2222172056e-01	-4.1431088818e-01
 5.5738468231e-01	 9.3379792566e-01	-6.3176110135e-01
 5.3824963673e-01	 9.4495691892e-01	-8.5334190213e-01
 5.1894450902e-01	 9.5569495479e-01	-1.0774724259e+00
 4.9948286996e-01	 9.6600885745e-01	-1.3025746848e+00
 4.7987832769e-01	 9.7589601939e-01	-1.5270799227e+00
 4.6014449890e-01	 9.8535439826e-01	-1.7494348005e+00
 4.4029498039e-01	 9.9438251205e-01	-1.9681073768e+00
 4.2034332143e-01	 1.0029794326e+00	-2.1815928505e+00
 4.0030299667e-01	 1.0111447774e+00	-2.3884190336e+00
 6.0193072873e-01	 9.2069506237e-01	-3.5404204535e-01
 5.8296069500e-01	 9.3282197022e-01	-5.5367065800e-01
 5.6379140280e-01	 9.4453123515e-01	-7.5785324950e-01
 5.4443641416e-01	 9.5581849270e-01	-9.6513563603e-01
 5.2490938844e-01	 9.6667995426e-01	-1.1740620818e+00
 5.0522405237e-01	 9.7711240753e-01	-1.3831812435e+00
 4.8539417054e-01	 9.8711321501e-01	-1.5910519874e+00
 4.6543351612e-01	 9.9668031089e-01	-1.7962490431e+00
 4.4535584224e-01	 1.0058121961e+00	-1.9973684617e+00
 4.2517485386e-01	 1.0145079318e+00	-2.1930328488e+00
 4.0490418054e-01	 1.0227671312e+00	-2.3818963431e+00
 6.0877085065e-01	 9.3115750625e-01	-5.0786701470e-01
 5.8958524835e-01	 9.4342221988e-01	-6.9645474215e-01
 5.7019812328e-01	 9.5526454464e-01	-8.8846709702e-01
 5.5062319160e-01	 9.6668006647e-01	-1.0825707293e+00
 5.3087426785e-01	 9.7766495374e-01	-1.2774327637e+00
 5.1096523478e-01	 9.8821595761e-01	-1.4717262115e+00
 4.9091001338e-01	 9.9833041064e-01	-1.6641352587e+00
 4.7072253335e-01	 1.0080062235e+00	-1.8533603957e+00
 4.5041670408e-01	 1.0172418801e+00	-2.0381233619e+00
 4.3000638629e-01	 1.0260364310e+00	-2.2171718762e+00
 4.0950536441e-01	 1.0343894849e+00	-2.3892841291e+00
 6.1561097256e-01	 9.4161995014e-01	-6.6396511622e-01
 5.9620980170e-01	 9.5402246954e-01	-8.4254907033e-01
 5.7660484377e-01	 9.6599785412e-01	-1.0234519971e+00
 5.5680996903e-01	 9.7754164025e-01	-1.2054592163e+00
 5.3683914726e-01	 9.8864995322e-01	-1.3873585199e+00
 5.1670641719e-01	 9.9931950770e-01	-1.5679450608e+00
 4.9642585623e-01	 1.0095476063e+00	-1.7460261183e+00
 4.7601155058e-01	 1.0193321361e+00	-1.9204257131e+00
 4.5547756592e-01	 1.0286715642e+00	-2.0899890451e+00
 4.3483791872e-01	 1.0375649302e+00	-2.2535867295e+00
 4.1410654828e-01	 1.0460118387e+00	-2.4101188099e+00
 3.6809470956e-01	 9.2978830103e-01	-2.8673795838e+00
 3.4959759078e-01	 9.3689995435e-01	-3.2134821106e+00
 3.3104341998e-01	 9.4361552236e-01	-3.5546887716e+00
 3.1244424090e-01	 9.4993610115e-01	-3.8892607257e+00
 2.9381193773e-01	 9.5586324607e-01	-4.2154984822e+00
 2.7515821486e-01	 9.6139895816e-01	-4.5317475917e+00
 2.5649457770e-01	 9.6654566967e-01	-4.8364039490e+00
 2.3783231460e-01	 9.7130622879e-01	-5.1279186853e+00
 2.1918248006e-01	 9.7568388344e-01	-5.4048026388e+00
 2.0055587900e-01	 9.7968226449e-01	-5.6656303895e+00
 1.8196305243e-01	 9.8330536840e-01	-5.9090438519e+00
 3.7269589344e-01	 9.4141065480e-01	-2.7485202110e+00
 3.5396756067e-01	 9.4861120379e-01	-3.0728586233e+00
 3.3518146273e-01	 9.5541071639e-01	-3.3919846947e+00
 3.1634979391e-01	 9.6181030243e-01	-3.7042659319e+00
 2.9748458695e-01	 9.6781153666e-01	-4.0081081262e+00
 2.7859769255e-01	 9.7341644514e-01	-4.3019606675e+00
 2.5970075992e-01	 9.7862749055e-01	-4.5843214861e+00
 2.4080521853e-01	 9.8344755666e-01	-4.8537416079e+00
 2.2192226105e-01	 9.8787993198e-01	-5.1088293063e+00
 2.0306282749e-01	 9.9192829280e-01	-5.3482538432e+00
 1.8423759058e-01	 9.9559668551e-01	-5.5707487911e+00
 3.7729707731e-01	 9.5303300857e-01	-2.6474979253e+00
 3.5833753055e-01	 9.6032245323e-01	-2.9511947798e+00
 3.3931950548e-01	 9.6720591043e-01	-3.2493760597e+00
 3.2025534692e-01	 9.7368450370e-01	-3.5405134371e+00
 3.0115723617e-01	 9.7975982724e-01	-3.8231158218e+00
 2.8203717024e-01	 9.8543393212e-01	-4.0957343038e+00
 2.6290694214e-01	 9.9070931143e-01	-4.3569667427e+00
 2.4377812247e-01	 9.9558888452e-01	-4.6054619893e+00
 2.2466204205e-01	 1.0000759805e+00	-4.8399237265e+00
 2.0556977597e-01	 1.0041743211e+00	-5.0591139211e+00
 1.8651212874e-01	 1.0078880026e+00	-5.2618558797e+00
 3.8189826118e-01	 9.6465536234e-01	-2.5636681256e+00
 3.6270750044e-01	 9.7203370266e-01	-2.8478054076e+00
 3.4345754823e-01	 9.7900110447e-01	-3.1261366444e+00
 3.2416089993e-01	 9.8555870497e-01	-3.3972355696e+00
 3.0482988540e-01	 9.9170811782e-01	-3.6597121260e+00
 2.8547664792e-01	 9.9745141910e-01	-3.9122170425e+00
 2.6611312436e-01	 1.0027911323e+00	-4.1534460770e+00
 2.4675102640e-01	 1.0077302124e+00	-4.3821439110e+00
 2.2740182305e-01	 1.0122720291e+00	-4.5971076842e+00
 2.0807672446e-01	 1.0164203494e+00	-4.7971901623e+00
 1.8878666689e-01	 1.0201793197e+00	-4.9813025320e+00
 3.8649944506e-01	 9.7627771611e-01	-2.4964169053e+00
 3.6707747033e-01	 9.8374495210e-01	-2.7620379613e+00
 3.4759559099e-01	 9.9079629850e-01	-3.0215748082e+00
 3.2806645295e-01	 9.9743290624e-01	-3.2737012131e+00
 3.0850253462e-01	 1.0036564084e+00	-3.5171261405e+00
 2.8891612561e-01	 1.0094689061e+00	-3.7505979706e+00
 2.6931930658e-01	 1.0148729532e+00	-3.9729084013e+00
 2.4972393033e-01	 1.0198715402e+00	-4.1828960215e+00
 2.3014160405e-01	 1.0244680776e+00	-4.3794495450e+00
 2.1058367294e-01	 1.0286663777e+00	-4.5615106987e+00
 1.9106120504e-01	 1.0324706368e+00	-4.7280767612e+00
 3.9110062893e-01	 9.8790006988e-01	-2.4451592473e+00
 3.7144744021e-01	 9.9545620154e-01	-2.6932706027e+00
 3.5173363374e-01	 1.0025914925e+00	-2.9350314577e+00
 3.3197200596e-01	 1.0093071075e+00	-3.1692136560e+00
 3.1217518384e-01	 1.0156046990e+00	-3.3946232438e+00
 2.9235560329e-01	 1.0214863931e+00	-3.6101043350e+00
 2.7252548880e-01	 1.0269547741e+00	-3.8145426785e+00
 2.5269683426e-01	 1.0320128681e+00	-4.0068689151e+00
 2.3288138505e-01	 1.0366641262e+00	-4.1860615161e+00
 2.1309062143e-01	 1.0409124060e+00	-4.3511493968e+00
 1.9333574319e-01	 1.0447619539e+00	-4.5012142031e+00
 3.9570181280e-01	 9.9952242365e-01	-2.4093373440e+00
 3.7581741010e-01	 1.0071674510e+00	-2.6409104160e+00
 3.5587167649e-01	 1.0143866866e+00	-2.8658781546e+00
 3.3587755897e-01	 1.0211813088e+00	-3.0831085918e+00
 3.1584783306e-01	 1.0275529896e+00	-3.2915029828e+00
 2.9579508098e-01	 1.0335038801e+00	-3.4899993246e+00
 2.7573167103e-01	 1.0390365949e+00	-3.6775755938e+00
 2.5566973819e-01	 1.0441541960e+00	-3.8532526927e+00
 2.3562116605e-01	 1.0488601747e+00	-4.0160970968e+00
 2.1559756991e-01	 1.0531584344e+00	-4.1652231990e+00
 1.9561028135e-01	 1.0570532710e+00	-4.2997953475e+00
 4.0030299667e-01	 1.0111447774e+00	-2.3884190336e+00
 3.8018737999e-01	 1.0188787004e+00	-2.6043917452e+00
 3.6000971924e-01	 1.0261818806e+00	-2.8135153539e+00
 3.3978311198e-01	 1.0330555100e+00	-3.0147522561e+00
 3.1952048229e-01	 1.0395012801e+00	-3.2070971083e+00
 2.9923455867e-01	 1.0455213670e+00	-3.3895800040e+00
 2.7893785325e-01	 1.0511184158e+00	-3.5612693868e+00
 2.5864264212e-01	 1.0562955238e+00	-3.7212746916e+00
 2.3836094705e-01	 1.0610562233e+00	-3.8687487057e+00
 2.1810451840e-01	 1.0654044627e+00	-4.0028896473e+00
 1.9788481950e-01	 1.0693445882e+00	-4.1229429599e+00
 4.0490418054e-01	 1.0227671312e+00	-2.3818963431e+00
 3.8455734987e-01	 1.0305899498e+00	-2.5831746459e+00
 3.6414776199e-01	 1.0379770746e+00	-2.7773707620e+00
 3.4368866500e-01	 1.0449297113e+00	-2.9635396917e+00
 3.2319313151e-01	 1.0514495707e+00	-3.1407677460e+00
 3.0267403635e-01	 1.0575388540e+00	-3.3081753889e+00
 2.8214403547e-01	 1.0632002367e+00	-3.4649198311e+00
 2.6161554606e-01	 1.0684368517e+00	-3.6101973698e+00
 2.4110072805e-01	 1.0732522718e+00	-3.7432454693e+00
 2.2061146689e-01	 1.0776504910e+00	-3.8633445773e+00
 2.0015935765e-01	 1.0816359053e+00	-3.9698196800e+00
 4.0950536441e-01	 1.0343894849e+00	-2.3892841291e+00
 3.8892731976e-01	 1.0423011993e+00	-2.5767434399e+00
 3.6828580474e-01	 1.0497722687e+00	-2.7568978062e+00
 3.4759421801e-01	 1.0568039126e+00	-2.9288931298e+00
 3.2686578073e-01	 1.0633978613e+00	-3.0919056894e+00
 3.0611351404e-01	 1.0695563410e+00	-3.2451446514e+00
 2.8535021769e-01	 1.0752820576e+00	-3.3878543506e+00
 2.6458844999e-01	 1.0805781796e+00	-3.5193163330e+00
 2.4384050905e-01	 1.0854483204e+00	-3.6388511597e+00
 2.2311841537e-01	 1.0898965193e+00	-3.7458199663e+00
 2.0243389581e-01	 1.0939272224e+00	-3.8396257814e+00
 4.1410654828e-01	 1.0460118387e+00	-2.4101188099e+00
 3.9329728964e-01	 1.0540124487e+00	-2.5846053678e+00
 3.7242384749e-01	 1.0615674627e+00	-2.7515742051e+00
 3.5149977102e-01	 1.0686781139e+00	-2.9102604800e+00
 3.3053842995e-01	 1.0753461519e+00	-3.0599288074e+00
 3.0955299173e-01	 1.0815738280e+00	-3.1998754444e+00
 2.8855639991e-01	 1.0873638784e+00	-3.3294302611e+00
 2.6756135392e-01	 1.0927195074e+00	-3.4479584927e+00
 2.4658029005e-01	 1.0976443689e+00	-3.5548622698e+00
 2.2562536386e-01	 1.1021425476e+00	-3.6495819256e+00
 2.0470843396e-01	 1.1062185395e+00	-3.7315970807e+00
 1.8196305243e-01	 9.8330536840e-01	-5.9090438519e+00
 1.6341426419e-01	 9.8655753924e-01	-6.1038944089e+00
 1.4491948904e-01	 9.8944345047e-01	-6.2810819336e+00
 1.2648840200e-01	 9.9196808625e-01	-6.4402678343e+00
 1.0813036884e-01	 9.9413672265e-01	-6.5811529198e+00
 8.9854437912e-02	 9.9595490861e-01	-6.7034774541e+00
 7.1669333081e-02	 9.9742844690e-01	-6.8070210396e+00
 5.3583447897e-02	 9.9856337511e-01	-6.8916023378e+00
 3.5604840891e-02	 9.9936594664e-01	-6.9570786361e+00
 1.7741231987e-02	 9.9984261196e-01	-7.0033452698e+00
 0.0000000000e+00	 1.0000000000e+00	-7.0303349088e+00
 1.8423759058e-01	 9.9559668551e-01	-5.5707487911e+00
 1.6545694249e-01	 9.9888950849e-01	-5.7548659538e+00
 1.4673098265e-01	 1.0018114936e+00	-5.9217786216e+00
 1.2806950702e-01	 1.0043676873e+00	-6.0711774658e+00
 1.0948199844e-01	 1.0065634317e+00	-6.2027911510e+00
 9.0977618379e-02	 1.0084043450e+00	-6.3163863243e+00
 7.2565199739e-02	 1.0098963025e+00	-6.4117674440e+00
 5.4253240991e-02	 1.0110454173e+00	-6.4887764540e+00
 3.6049901398e-02	 1.0118580210e+00	-6.5472923133e+00
 1.7962997385e-02	 1.0123406446e+00	-6.5872303894e+00
 0.0000000000e+00	 1.0125000000e+00	-6.6085417246e+00
 1.8651212874e-01	 1.0078880026e+00	-5.2618558797e+00
 1.6749962078e-01	 1.0112214777e+00	-5.4356889481e+00
 1.4854247626e-01	 1.0141795367e+00	-5.5927764380e+00
 1.2965061203e-01	 1.0167672884e+00	-5.7328375500e+00
 1.1083362805e-01	 1.0189901407e+00	-5.8556280913e+00
 9.2100798847e-02	 1.0208537813e+00	-5.9609404027e+00
 7.3461066397e-02	 1.0223641581e+00	-6.0486031331e+00
 5.4923034086e-02	 1.0235274595e+00	-6.1184808689e+00
 3.6494961906e-02	 1.0243500953e+00	-6.1704736275e+00
 1.8184762783e-02	 1.0248386773e+00	-6.2045162221e+00
 0.0000000000e+00	 1.0250000000e+00	-6.2205775095e+00
 1.8878666689e-01	 1.0201793197e+00	-4.9813025320e+00
 1.6954229908e-01	 1.0235534470e+00	-5.1452845688e+00
 1.5035396986e-01	 1.0265475799e+00	-5.2929803092e+00
 1.3123171705e-01	 1.0291668895e+00	-5.4241367750e+00
 1.1218525765e-01	 1.0314168498e+00	-5.5385362292e+00
 9.3223979316e-02	 1.0333032177e+00	-5.6359960417e+00
 7.4356933056e-02	 1.0348320137e+00	-5.7163684106e+00
 5.5592827180e-02	 1.0360095017e+00	-5.7795399482e+00
 3.6940022414e-02	 1.0368421696e+00	-5.8254311387e+00
 1.8406528182e-02	 1.0373367099e+00	-5.8539956766e+00
 0.0000000000e+00	 1.0375000000e+00	-5.8652196948e+00
 1.9106120504e-01	 1.0324706368e+00	-4.7280767612e+00
 1.7158497738e-01	 1.0358854162e+00	-4.8826253654e+00
 1.5216546347e-01	 1.0389156230e+00	-5.0213473075e+00
 1.3281282207e-01	 1.0415664906e+00	-5.1440167482e+00
 1.1353688726e-01	 1.0438435588e+00	-5.2504417441e+00
 9.4347159785e-02	 1.0457526540e+00	-5.3404640529e+00
 7.5252799715e-02	 1.0472998693e+00	-5.4139588037e+00
 5.6262620276e-02	 1.0484915439e+00	-5.4708340399e+00
 3.7385082923e-02	 1.0493342440e+00	-5.5110301425e+00
 1.8628293580e-02	 1.0498347426e+00	-5.5345191422e+00
 0.0000000000e+00	 1.0500000000e+00	-5.5413039297e+00
 1.9333574319e-01	 1.0447619539e+00	-4.5012142031e+00
 1.7362765568e-01	 1.0482173855e+00	-4.6467322376e+00
 1.5397695708e-01	 1.0512836661e+00	-4.7768835841e+00
 1.3439392709e-01	 1.0539660917e+00	-4.8914688838e+00
 1.1488851686e-01	 1.0562702678e+00	-4.9903213479e+00
 9.5470340255e-02	 1.0582020904e+00	-5.0733065036e+00
 7.6148666375e-02	 1.0597677248e+00	-5.1403218144e+00
 5.6932413371e-02	 1.0609735861e+00	-5.1912961812e+00
 3.7830143432e-02	 1.0618263183e+00	-5.2261893317e+00
 1.8850058979e-02	 1.0623327752e+00	-5.2449911075e+00
 0.0000000000e+00	 1.0625000000e+00	-5.2477206561e+00
 1.9561028135e-01	 1.0570532710e+00	-4.2997953475e+00
 1.7567033398e-01	 1.0605493547e+00	-4.4366716244e+00
 1.5578845069e-01	 1.0636517093e+00	-4.5586415152e+00
 1.3597503212e-01	 1.0663656927e+00	-4.6655315065e+00
 1.1624014647e-01	 1.0686969769e+00	-4.7571993471e+00
 9.6593520725e-02	 1.0706515268e+00	-4.8335337370e+00
 7.7044533036e-02	 1.0722355804e+00	-4.8944538983e+00
 5.7602206467e-02	 1.0734556282e+00	-4.9399090357e+00
 3.8275203941e-02	 1.0743183926e+00	-4.9698776929e+00
 1.9071824378e-02	 1.0748308079e+00	-4.9843670148e+00
 0.0000000000e+00	 1.0750000000e+00	-4.9834119233e+00
 1.9788481950e-01	 1.0693445882e+00	-4.1229429599e+00
 1.7771301228e-01	 1.0728813239e+00	-4.2515528867e+00
 1.5759994430e-01	 1.0760197524e+00	-4.3657170458e+00
 1.3755613714e-01	 1.0787652938e+00	-4.4652871557e+00
 1.1759177608e-01	 1.0811236859e+00	-4.5501449073e+00
 9.7716701196e-02	 1.0831009631e+00	-4.6202015973e+00
 7.7940399697e-02	 1.0847034360e+00	-4.6753976507e+00
 5.8271999564e-02	 1.0859376704e+00	-4.7157020409e+00
 3.8720264451e-02	 1.0868104670e+00	-4.7411116152e+00
 1.9293589777e-02	 1.0873288405e+00	-4.7516503325e+00
 0.0000000000e+00	 1.0875000000e+00	-4.7473684220e+00
 2.0015935765e-01	 1.0816359053e+00	-3.9698196800e+00
 1.7975569058e-01	 1.0852132932e+00	-4.0905258689e+00
 1.5941143791e-01	 1.0883877955e+00	-4.1972472141e+00
 1.3913724216e-01	 1.0911648949e+00	-4.2898600733e+00
 1.1894340569e-01	 1.0935503949e+00	-4.3682695048e+00
 9.8839881668e-02	 1.0955503995e+00	-4.4324088451e+00
 7.8836266358e-02	 1.0971712916e+00	-4.4822391849e+00
 5.8941792661e-02	 1.0984197126e+00	-4.5177487505e+00
 3.9165324961e-02	 1.0993025413e+00	-4.5389521974e+00
 1.9515355176e-02	 1.0998268732e+00	-4.5458898253e+00
 0.0000000000e+00	 1.1000000000e+00	-4.5386267207e+00
 2.0243389581e-01	 1.0939272224e+00	-3.8396257814e+00
 1.8179836888e-01	 1.0975452624e+00	-3.9527786241e+00
 1.6122293152e-01	 1.1007558387e+00	-4.0524078426e+00
 1.4071834718e-01	 1.1035644960e+00	-4.1384138612e+00
 1.2029503530e-01	 1.1059771040e+00	-4.2107245493e+00
 9.9963062140e-02	 1.1079998358e+00	-4.2692947456e+00
 7.9732133020e-02	 1.1096391472e+00	-4.3141056880e+00
 5.9611585759e-02	 1.1109017548e+00	-4.3451643563e+00
 3.9610385471e-02	 1.1117946156e+00	-4.3625027360e+00
 1.9737120575e-02	 1.1123249058e+00	-4.3661770105e+00
 0.0000000000e+00	 1.1125000000e+00	-4.3562666881e+00
 2.0470843396e-01	 1.1062185395e+00	-3.7315970807e+00
 1.8384104718e-01	 1.1098772317e+00	-3.8375352921e+00
 1.6303442514e-01	 1.1131238818e+00	-3.9304113840e+00
 1.4229945221e-01	 1.1159640971e+00	-4.0101492938e+00
 1.2164666491e-01	 1.1184038130e+00	-4.0766991652e+00
 1.0108624261e-01	 1.1204492722e+00	-4.1300368190e+00
 8.0627999683e-02	 1.1221070028e+00	-4.1701631385e+00
 6.0281378857e-02	 1.1233837970e+00	-4.1971033747e+00
 4.0055445982e-02	 1.1242866900e+00	-4.2109063808e+00
 1.9958885975e-02	 1.1248229385e+00	-4.2116437820e+00
 0.0000000000e+00	 1.1250000000e+00	-4.1994090876e+00
 1.1250000000e+00	 0.0000000000e+00	 1.8565967131e+00
 1.1248229385e+00	 1.9958885975e-02	 1.8639453610e+00
 1.1242866900e+00	 4.0055445982e-02	 1.8708032069e+00
 1.1233837970e+00	 6.0281378857e-02	 1.8772143292e+00
 1.1221070028e+00	 8.0627999683e-02	 1.8832131830e+00
 1.1204492722e+00	 1.0108624261e-01	 1.8888236938e+00
 1.1184038130e+00	 1.2164666491e-01	 1.8940583569e+00
 1.1159640971e+00	 1.4229945221e-01	 1.8989173483e+00
 1.1131238818e+00	 1.6303442514e-01	 1.9033876534e+00
 1.1098772317e+00	 1.8384104718e-01	 1.9074422220e+00
 1.1062185395e+00	 2.0470843396e-01	 1.9110391559e+00
 1.1375000000e+00	 0.0000000000e+00	 1.8754650969e+00
 1.1373209711e+00	 2.0180651374e-02	 1.8832714788e+00
 1.1367787643e+00	 4.0500506492e-02	 1.8899471957e+00
 1.1358658392e+00	 6.0951171955e-02	 1.8955189552e+00
 1.1345748584e+00	 8.1523866346e-02	 1.9000053866e+00
 1.1328987086e+00	 1.0220942309e-01	 1.9034162707e+00
 1.1308305220e+00	 1.2299829452e-01	 1.9057517743e+00
 1.1283636981e+00	 1.4388055723e-01	 1.9070016946e+00
 1.1254919249e+00	 1.6484591875e-01	 1.9071447189e+00
 1.1222092009e+00	 1.8588372548e-01	 1.9061477068e+00
 1.1185098566e+00	 2.0698297212e-01	 1.9039650010e+00
 1.1500000000e+00	 0.0000000000e+00	 1.9035650212e+00
 1.1498190038e+00	 2.0402416774e-02	 1.9117652723e+00
 1.1492708386e+00	 4.0945567004e-02	 1.9182106256e+00
 1.1483478814e+00	 6.1620965054e-02	 1.9229108292e+00
 1.1470427139e+00	 8.2419733010e-02	 1.9258690759e+00
 1.1453481449e+00	 1.0333260356e-01	 1.9270813678e+00
 1.1432572311e+00	 1.2434992413e-01	 1.9265358827e+00
 1.1407632992e+00	 1.4546166226e-01	 1.9242123505e+00
 1.1378599681e+00	 1.6665741236e-01	 1.9200814419e+00
 1.1345411702e+00	 1.8792640379e-01	 1.9141041753e+00
 1.1308011737e+00	 2.0925751027e-01	 1.9062313490e+00
 1.1625000000e+00	 0.0000000000e+00	 1.9405987894e+00
 1.1623170364e+00	 2.0624182174e-02	 1.9491311018e+00
 1.1617629130e+00	 4.1390627515e-02	 1.9552994094e+00
 1.1608299236e+00	 6.2290758153e-02	 1.9590968988e+00
 1.1595105695e+00	 8.3315599674e-02	 1.9605117038e+00
 1.1577975813e+00	 1.0445578404e-01	 1.9595264010e+00
 1.1556839401e+00	 1.2570155374e-01	 1.9561175084e+00
 1.1531629003e+00	 1.4704276728e-01	 1.9502549900e+00
 1.1502280112e+00	 1.6846890598e-01	 1.9419017719e+00
 1.1468731394e+00	 1.8996908209e-01	 1.9310132726e+00
 1.1430924908e+00	 2.1153204843e-01	 1.9175369536e+00
 1.1750000000e+00	 0.0000000000e+00	 1.9862813725e+00
 1.1748150691e+00	 2.0845947575e-02	 1.9950859078e+00
 1.1742549873e+00	 4.1835688027e-02	 2.0009319742e+00
 1.1733119658e+00	 6.2960551253e-02	 2.0037965824e+00
 1.1719784251e+00	 8.4211466338e-02	 2.0036531719e+00
 1.1702470176e+00	 1.0557896451e-01	 2.0004712369e+00
 1.1681106491e+00	 1.2705318335e-01	 1.9942159533e+00
 1.1655625014e+00	 1.4862387231e-01	 1.9848478115e+00
 1.1625960543e+00	 1.7028039959e-01	 1.9723222563e+00
 1.1592051086e+00	 1.9201176039e-01	 1.9565893395e+00
 1.1553838079e+00	 2.1380658658e-01	 1.9375933874e+00
 1.1875000000e+00	 0.0000000000e+00	 2.0403397429e+00
 1.1873131017e+00	 2.1067712975e-02	 2.0493585489e+00
 1.1867470616e+00	 4.2280748539e-02	 2.0548386027e+00
 1.1857940079e+00	 6.3630344353e-02	 2.0567411119e+00
 1.1844462807e+00	 8.5107333003e-02	 2.0550251755e+00
 1.1826964540e+00	 1.0670214499e-01	 2.0496475368e+00
 1.1805373582e+00	 1.2840481296e-01	 2.0405623381e+00
 1.1779621024e+00	 1.5020497734e-01	 2.0277208784e+00
 1.1749640975e+00	 1.7209189320e-01	 2.0110713769e+00
 1.1715370779e+00	 1.9405443870e-01	 1.9905587447e+00
 1.1676751250e+00	 2.1608112474e-01	 1.9661243672e+00
 1.2000000000e+00	 0.0000000000e+00	 2.1025122492e+00
 1.1998111344e+00	 2.1289478376e-02	 2.1116891816e+00
 1.1992391360e+00	 4.2725809052e-02	 2.1167608157e+00
 1.1982760501e+00	 6.4300137453e-02	 2.1176729180e+00
 1.1969141363e+00	 8.6003199669e-02	 2.1143705890e+00
 1.1951458903e+00	 1.0782532546e-01	 2.1067981427e+00
 1.1929640672e+00	 1.2975644257e-01	 2.0948989864e+00
 1.1903617035e+00	 1.5178608236e-01	 2.0786155016e+00
 1.1873321406e+00	 1.7390338682e-01	 2.0578889290e+00
 1.1838690471e+00	 1.9609711700e-01	 2.0326592577e+00
 1.1799664421e+00	 2.1835566290e-01	 2.0028651214e+00
 1.2125000000e+00	 0.0000000000e+00	 2.1725480297e+00
 1.2123091670e+00	 2.1511243776e-02	 2.1818286774e+00
 1.2117312103e+00	 4.3170869564e-02	 2.1864507932e+00
 1.2107580923e+00	 6.4969930554e-02	 2.1863450527e+00
 1.2093819919e+00	 8.6899066335e-02	 2.1814428900e+00
 1.2075953267e+00	 1.0894850594e-01	 2.1716765012e+00
 1.2053907762e+00	 1.3110807219e-01	 2.1569788478e+00
 1.2027613046e+00	 1.5336718739e-01	 2.1372836593e+00
 1.1997001837e+00	 1.7571488043e-01	 2.1125254375e+00
 1.1962010164e+00	 1.9813979530e-01	 2.0826394616e+00
 1.1922577592e+00	 2.2063020105e-01	 2.0475617967e+00
 1.2250000000e+00	 0.0000000000e+00	 2.2502064618e+00
 1.2248071996e+00	 2.1733009177e-02	 2.2595380762e+00
 1.2242232846e+00	 4.3615930078e-02	 2.2636708300e+00
 1.2232401345e+00	 6.5639723655e-02	 2.2625206476e+00
 1.2218498475e+00	 8.7794933001e-02	 2.2560056181e+00
 1.2200447631e+00	 1.1007168642e-01	 2.2440461221e+00
 1.2178174853e+00	 1.3245970180e-01	 2.2265649554e+00
 1.2151609057e+00	 1.5494829242e-01	 2.2034874530e+00
 1.2120682269e+00	 1.7752637405e-01	 2.1747416100e+00
 1.2085329856e+00	 2.0018247361e-01	 2.1402582015e+00
 1.2045490763e+00	 2.2290473921e-01	 2.0999709010e+00
 1.2375000000e+00	 0.0000000000e+00	 2.3352566453e+00
 1.2373052323e+00	 2.1954774578e-02	 2.3445880730e+00
 1.2367153590e+00	 4.4060990591e-02	 2.3481928252e+00
 1.2357221767e+00	 6.6309516757e-02	 2.3459724043e+00
 1.2343177030e+00	 8.8690799668e-02	 2.3378318668e+00
 1.2324941994e+00	 1.1119486689e-01	 2.3236800700e+00
 1.2302441943e+00	 1.3381133141e-01	 2.3034299166e+00
 1.2275605068e+00	 1.5652939745e-01	 2.2769985961e+00
 1.2244362700e+00	 1.7933786766e-01	 2.2443078223e+00
 1.2208649548e+00	 2.0222515191e-01	 2.2052840658e+00
 1.2168403934e+00	 2.2517927736e-01	 2.1598587801e+00
 1.2500000000e+00	 0.0000000000e+00	 2.4274769158e+00
 1.2498032649e+00	 2.2176539980e-02	 2.4367585349e+00
 1.2492074333e+00	 4.4506051105e-02	 2.4397978018e+00
 1.2482042189e+00	 6.6979309859e-02	 2.4364821167e+00
 1.2467855586e+00	 8.9586666336e-02	 2.4267038057e+00
 1.2449436358e+00	 1.1231804737e-01	 2.4103604873e+00
 1.2426709033e+00	 1.3516296103e-01	 2.3873554345e+00
 1.2399601078e+00	 1.5811050247e-01	 2.3575979335e+00
 1.2368043131e+00	 1.8114936128e-01	 2.3210036353e+00
 1.2331969241e+00	 2.0426783021e-01	 2.2774948991e+00
 1.2291317105e+00	 2.2745381552e-01	 2.2270011258e+00
 1.1062185395e+00	 2.0470843396e-01	 1.9110391559e+00
 1.1021425476e+00	 2.2562536386e-01	 1.9315414512e+00
 1.0976443689e+00	 2.4658029005e-01	 1.9487593763e+00
 1.0927195074e+00	 2.6756135392e-01	 1.9627513529e+00
 1.0873638784e+00	 2.8855639991e-01	 1.9735738558e+00
 1.0815738280e+00	 3.0955299173e-01	 1.9812808097e+00
 1.0753461519e+00	 3.3053842995e-01	 1.9859229815e+00
 1.0686781139e+00	 3.5149977102e-01	 1.9875473756e+00
 1.0615674627e+00	 3.7242384749e-01	 1.9861966337e+00
 1.0540124487e+00	 3.9329728964e-01	 1.9819084475e+00
 1.0460118387e+00	 4.1410654828e-01	 1.9747149873e+00
 1.1185098566e+00	 2.0698297212e-01	 1.9039650010e+00
 1.1143885759e+00	 2.2813231235e-01	 1.9199492579e+00
 1.1098404175e+00	 2.4932007105e-01	 1.9321837509e+00
 1.1048608353e+00	 2.7053425785e-01	 1.9407188945e+00
 1.0994456993e+00	 2.9176258213e-01	 1.9456047038e+00
 1.0935913150e+00	 3.1299246941e-01	 1.9468902822e+00
 1.0872944425e+00	 3.3421107917e-01	 1.9446233025e+00
 1.0805523151e+00	 3.5540532403e-01	 1.9388494827e+00
 1.0733626567e+00	 3.7656189024e-01	 1.9296120635e+00
 1.0657236981e+00	 3.9766725953e-01	 1.9169512896e+00
 1.0576341925e+00	 4.1870773215e-01	 1.9009039003e+00
 1.1308011737e+00	 2.0925751027e-01	 1.9062313490e+00
 1.1266346042e+00	 2.3063926084e-01	 1.9176415429e+00
 1.1220364660e+00	 2.5205985205e-01	 1.9248485994e+00
 1.1170021632e+00	 2.7350716179e-01	 1.9278952048e+00
 1.1115275202e+00	 2.9496876435e-01	 1.9268251714e+00
 1.1056088019e+00	 3.1643194710e-01	 1.9216830152e+00
 1.0992427330e+00	 3.3788372839e-01	 1.9125135229e+00
 1.0924265164e+00	 3.5931087704e-01	 1.8993613088e+00
 1.0851578508e+00	 3.8069993299e-01	 1.8822703667e+00
 1.0774349476e+00	 4.0203722941e-01	 1.8612836196e+00
 1.0692565462e+00	 4.2330891602e-01	 1.8364424706e+00
 1.1430924908e+00	 2.1153204843e-01	 1.9175369536e+00
 1.1388806325e+00	 2.3314620932e-01	 1.9243188635e+00
 1.1342325145e+00	 2.5479963305e-01	 1.9264558951e+00
 1.1291434910e+00	 2.7648006572e-01	 1.9239832764e+00
 1.1236093411e+00	 2.9817494657e-01	 1.9169388653e+00
 1.1176262889e+00	 3.1987142478e-01	 1.9053628167e+00
 1.1111910236e+00	 3.4155637762e-01	 1.8892972332e+00
 1.1043007177e+00	 3.6321643005e-01	 1.8687858014e+00
 1.0969530448e+00	 3.8483797574e-01	 1.8438734178e+00
 1.0891461970e+00	 4.0640719929e-01	 1.8146058046e+00
 1.0808789000e+00	 4.2791009988e-01	 1.7810291209e+00
 1.1553838079e+00	 2.1380658658e-01	 1.9375933874e+00
 1.1511266608e+00	 2.3565315781e-01	 1.9396945194e+00
 1.1464285631e+00	 2.5753941405e-01	 1.9367202933e+00
 1.1412848189e+00	 2.7945296965e-01	 1.9286987401e+00
 1.1356911619e+00	 3.0138112879e-01	 1.9156620044e+00
 1.1296437759e+00	 3.2331090247e-01	 1.8976460986e+00
 1.1231393142e+00	 3.4522902683e-01	 1.8746906366e+00
 1.1161749189e+00	 3.6712198306e-01	 1.8468385484e+00
 1.1087482388e+00	 3.8897601848e-01	 1.8141357772e+00
 1.1008574464e+00	 4.1077716917e-01	 1.7766309621e+00
 1.0925012538e+00	 4.3251128375e-01	 1.7343751069e+00
 1.1676751250e+00	 2.1608112474e-01	 1.9661243672e+00
 1.1633726891e+00	 2.3816010630e-01	 1.9634938815e+00
 1.1586246116e+00	 2.6027919505e-01	 1.9553684633e+00
 1.1534261467e+00	 2.8242587358e-01	 1.9417692001e+00
 1.1477729828e+00	 3.0458731101e-01	 1.9227227560e+00
 1.1416612629e+00	 3.2675038015e-01	 1.8982612132e+00
 1.1350876048e+00	 3.4890167605e-01	 1.8684218859e+00
 1.1280491202e+00	 3.7102753607e-01	 1.8332471126e+00
 1.1205434329e+00	 3.9311406123e-01	 1.7927840238e+00
 1.1125686958e+00	 4.1514713906e-01	 1.7470842887e+00
 1.1041236075e+00	 4.3711246762e-01	 1.6962038420e+00
 1.1799664421e+00	 2.1835566290e-01	 2.0028651214e+00
 1.1756187174e+00	 2.4066705479e-01	 1.9954537633e+00
 1.1708206602e+00	 2.6301897605e-01	 1.9821384634e+00
 1.1655674746e+00	 2.8539877751e-01	 1.9629336102e+00
 1.1598548037e+00	 3.0779349323e-01	 1.9378606139e+00
 1.1536787499e+00	 3.3018985783e-01	 1.9069478311e+00
 1.1470358954e+00	 3.5257432527e-01	 1.8702304603e+00
 1.1399233214e+00	 3.7493308908e-01	 1.8277504084e+00
 1.1323386269e+00	 3.9725210398e-01	 1.7795561287e+00
 1.1242799453e+00	 4.1951710894e-01	 1.7257024308e+00
 1.1157459613e+00	 4.4171365148e-01	 1.6662502636e+00
 1.1922577592e+00	 2.2063020105e-01	 2.0475617967e+00
 1.1878647457e+00	 2.4317400327e-01	 2.0353218315e+00
 1.1830167087e+00	 2.6575875705e-01	 2.0167791531e+00
 1.1777088025e+00	 2.8837168144e-01	 1.9919416889e+00
 1.1719366245e+00	 3.1099967545e-01	 1.9608258138e+00
 1.1656962368e+00	 3.3362933551e-01	 1.9234563582e+00
 1.1589841859e+00	 3.5624697449e-01	 1.8798665821e+00
 1.1517975227e+00	 3.7883864208e-01	 1.8300981163e+00
 1.1441338209e+00	 4.0139014672e-01	 1.7742008683e+00
 1.1359911947e+00	 4.2388707882e-01	 1.7122328948e+00
 1.1273683150e+00	 4.4631483535e-01	 1.6442602395e+00
 1.2045490763e+00	 2.2290473921e-01	 2.0999709010e+00
 1.2001107741e+00	 2.4568095176e-01	 2.0828560518e+00
 1.1952127573e+00	 2.6849853805e-01	 2.0590496426e+00
 1.1898501303e+00	 2.9134458537e-01	 2.0285533700e+00
 1.1840184454e+00	 3.1420585767e-01	 1.9913787861e+00
 1.1777137238e+00	 3.3706881320e-01	 1.9475473875e+00
 1.1709324765e+00	 3.5991962371e-01	 1.8970906686e+00
 1.1636717240e+00	 3.8274419509e-01	 1.8400501340e+00
 1.1559290149e+00	 4.0552818947e-01	 1.7764772730e+00
 1.1477024441e+00	 4.2825704870e-01	 1.7064334927e+00
 1.1389906688e+00	 4.5091601921e-01	 1.6299900102e+00
 1.2168403934e+00	 2.2517927736e-01	 2.1598587801e+00
 1.2123568024e+00	 2.4818790024e-01	 2.1378241689e+00
 1.2074088058e+00	 2.7123831905e-01	 2.1087187748e+00
 1.2019914582e+00	 2.9431748930e-01	 2.0725382870e+00
 1.1961002663e+00	 3.1741203988e-01	 2.0292896403e+00
 1.1897312108e+00	 3.4050829088e-01	 1.9789911852e+00
 1.1828807671e+00	 3.6359227292e-01	 1.9216728167e+00
 1.1755459252e+00	 3.8664974809e-01	 1.8573760597e+00
 1.1677242090e+00	 4.0966623221e-01	 1.7861541088e+00
 1.1594136936e+00	 4.3262701858e-01	 1.7080718216e+00
 1.1506130226e+00	 4.5551720308e-01	 1.6232056648e+00
 1.2291317105e+00	 2.2745381552e-01	 2.2270011258e+00
 1.2246028307e+00	 2.5069484873e-01	 2.2000032176e+00
 1.2196048543e+00	 2.7397810005e-01	 2.1655646388e+00
 1.2141327860e+00	 2.9729039323e-01	 2.1236752877e+00
 1.2081820871e+00	 3.2061822210e-01	 2.0743376817e+00
 1.2017486978e+00	 3.4394776856e-01	 2.0175672063e+00
 1.1948290577e+00	 3.6726492214e-01	 1.9533923197e+00
 1.1874201265e+00	 3.9055530110e-01	 1.8818547080e+00
 1.1795194030e+00	 4.1380427495e-01	 1.8030093912e+00
 1.1711249430e+00	 4.3699698846e-01	 1.7169247749e+00
 1.1622353763e+00	 4.6011838694e-01	 1.6236826487e+00
 1.0460118387e+00	 4.1410654828e-01	 1.9747149873e+00
 1.0375649302e+00	 4.3483791872e-01	 1.9859405803e+00
 1.0286715642e+00	 4.5547756592e-01	 1.9887454191e+00
 1.0193321361e+00	 4.7601155058e-01	 1.9833536819e+00
 1.0095476063e+00	 4.9642585623e-01	 1.9700094902e+00
 9.9931950770e-01	 5.1670641719e-01	 1.9489761850e+00
 9.8864995322e-01	 5.3683914726e-01	 1.9205354960e+00
 9.7754164025e-01	 5.5680996903e-01	 1.8849866075e+00
 9.6599785412e-01	 5.7660484377e-01	 1.8426451249e+00
 9.5402246954e-01	 5.9620980170e-01	 1.7938419459e+00
 9.4161995014e-01	 6.1561097256e-01	 1.7389220430e+00
 1.0576341925e+00	 4.1870773215e-01	 1.9009039003e+00
 1.0490934295e+00	 4.3966945115e-01	 1.9053892310e+00
 1.0401012482e+00	 4.6053842777e-01	 1.9015464603e+00
 1.0306580488e+00	 4.8130056781e-01	 1.8895942079e+00
 1.0207648019e+00	 5.0194169907e-01	 1.8697709776e+00
 1.0104230578e+00	 5.2244759960e-01	 1.8423344691e+00
 9.9963495269e-01	 5.4280402667e-01	 1.8075607840e+00
 9.8840321402e-01	 5.6299674646e-01	 1.7657435286e+00
 9.7673116361e-01	 5.8301156425e-01	 1.7171928177e+00
 9.6462271920e-01	 6.0283435505e-01	 1.6622341835e+00
 9.5208239402e-01	 6.2245109447e-01	 1.6012073955e+00
 1.0692565462e+00	 4.2330891602e-01	 1.8364424706e+00
 1.0606219287e+00	 4.4450098358e-01	 1.8340575710e+00
 1.0515309323e+00	 4.6559928961e-01	 1.8234380251e+00
 1.0419839614e+00	 4.8658958503e-01	 1.8047971390e+00
 1.0319819975e+00	 5.0745754192e-01	 1.7783680458e+00
 1.0215266079e+00	 5.2818878201e-01	 1.7444030519e+00
 1.0106199522e+00	 5.4876890608e-01	 1.7031728783e+00
 9.9926478780e-01	 5.6918352389e-01	 1.6549658003e+00
 9.8746447310e-01	 5.8941828473e-01	 1.6000866872e+00
 9.7522296885e-01	 6.0945890840e-01	 1.5388559483e+00
 9.6254483791e-01	 6.2929121639e-01	 1.4716083890e+00
 1.0808789000e+00	 4.2791009988e-01	 1.7810291209e+00
 1.0721504279e+00	 4.4933251601e-01	 1.7716482122e+00
 1.0629606163e+00	 4.7066015145e-01	 1.7541268885e+00
 1.0533098740e+00	 4.9187860226e-01	 1.7286733798e+00
 1.0431991931e+00	 5.1297338476e-01	 1.6955156873e+00
 1.0326301579e+00	 5.3392996442e-01	 1.6549009637e+00
 1.0216049516e+00	 5.5473378549e-01	 1.6070947896e+00
 1.0101263616e+00	 5.7537030132e-01	 1.5523803479e+00
 9.9819778258e-01	 5.9582500522e-01	 1.4910574998e+00
 9.8582321851e-01	 6.1608346175e-01	 1.4234417664e+00
 9.7300728180e-01	 6.3613133830e-01	 1.3498632201e+00
 1.0925012538e+00	 4.3251128375e-01	 1.7343751069e+00
 1.0836789271e+00	 4.5416404844e-01	 1.7178764212e+00
 1.0743903004e+00	 4.7572101329e-01	 1.6933323032e+00
 1.0646357866e+00	 4.9716761948e-01	 1.6609461366e+00
 1.0544163887e+00	 5.1848922761e-01	 1.6209410222e+00
 1.0437337080e+00	 5.3967114683e-01	 1.5735591911e+00
 1.0325899511e+00	 5.6069866490e-01	 1.5190613153e+00
 1.0209879354e+00	 5.8155707875e-01	 1.4577257169e+00
 1.0089310921e+00	 6.0223172570e-01	 1.3898474787e+00
 9.9642346817e-01	 6.2270801510e-01	 1.3157374607e+00
 9.8346972568e-01	 6.4297146021e-01	 1.2357212263e+00
 1.1041236075e+00	 4.3711246762e-01	 1.6962038420e+00
 1.0952074264e+00	 4.5899558086e-01	 1.6724694531e+00
 1.0858199844e+00	 4.8078187513e-01	 1.6407853425e+00
 1.0759616992e+00	 5.0245663671e-01	 1.6013502702e+00
 1.0656335844e+00	 5.2400507045e-01	 1.5543826602e+00
 1.0548372581e+00	 5.4541232925e-01	 1.5001200471e+00
 1.0435749506e+00	 5.6666354432e-01	 1.4388184191e+00
 1.0318495091e+00	 5.8774385618e-01	 1.3707514614e+00
 1.0196644016e+00	 6.0863844618e-01	 1.2962097008e+00
 1.0070237178e+00	 6.2933256845e-01	 1.2154995563e+00
 9.9393216957e-01	 6.4981158213e-01	 1.1289422991e+00
 1.1157459613e+00	 4.4171365148e-01	 1.6662502636e+00
 1.1067359256e+00	 4.6382711329e-01	 1.6351659273e+00
 1.0972496685e+00	 4.8584273697e-01	 1.5962282852e+00
 1.0872876119e+00	 5.0774565394e-01	 1.5496316886e+00
 1.0768507800e+00	 5.2952091329e-01	 1.4955901023e+00
 1.0659408082e+00	 5.5115351166e-01	 1.4343365818e+00
 1.0545599501e+00	 5.7262842373e-01	 1.3661226495e+00
 1.0427110829e+00	 5.9393063361e-01	 1.2912175706e+00
 1.0303977110e+00	 6.1504516667e-01	 1.2099075315e+00
 1.0176239675e+00	 6.3595712180e-01	 1.1224947231e+00
 1.0043946135e+00	 6.5665170405e-01	 1.0292963346e+00
 1.1273683150e+00	 4.4631483535e-01	 1.6442602395e+00
 1.1182644248e+00	 4.6865864572e-01	 1.6057152418e+00
 1.1086793525e+00	 4.9090359881e-01	 1.5594140372e+00
 1.0986135245e+00	 5.1303467116e-01	 1.5055467778e+00
 1.0880679756e+00	 5.3503675614e-01	 1.4443231792e+00
 1.0770443583e+00	 5.5689469407e-01	 1.3759720288e+00
 1.0655449496e+00	 5.7859330314e-01	 1.3007405942e+00
 1.0535726567e+00	 6.0011741104e-01	 1.2188939312e+00
 1.0411310205e+00	 6.2145188715e-01	 1.1307140942e+00
 1.0282242171e+00	 6.4258167515e-01	 1.0364992528e+00
 1.0148570573e+00	 6.6349182596e-01	 9.3656271776e-01
 1.1389906688e+00	 4.5091601921e-01	 1.6299900102e+00
 1.1297929240e+00	 4.7349017814e-01	 1.5838770228e+00
 1.1201090366e+00	 4.9596446065e-01	 1.5301055901e+00
 1.1099394371e+00	 5.1832368839e-01	 1.4688618672e+00
 1.0992851712e+00	 5.4055259898e-01	 1.4003515241e+00
 1.0881479084e+00	 5.6263587648e-01	 1.3247992853e+00
 1.0765299490e+00	 5.8455818255e-01	 1.2424483679e+00
 1.0644342305e+00	 6.0630418848e-01	 1.1535598219e+00
 1.0518643300e+00	 6.2785860764e-01	 1.0584117725e+00
 1.0388244668e+00	 6.4920622850e-01	 9.5729856815e-01
 1.0253195012e+00	 6.7033194788e-01	 8.5052983820e-01
 1.1506130226e+00	 4.5551720308e-01	 1.6232056648e+00
 1.1413214233e+00	 4.7832171057e-01	 1.5694206087e+00
 1.1315387206e+00	 5.0102532249e-01	 1.5080755113e+00
 1.1212653497e+00	 5.2361270561e-01	 1.4393527270e+00
 1.1105023669e+00	 5.4606844183e-01	 1.3634540783e+00
 1.0992514584e+00	 5.6837705889e-01	 1.2806004245e+00
 1.0875149485e+00	 5.9052306196e-01	 1.1910311310e+00
 1.0752958043e+00	 6.1249096591e-01	 1.0950034397e+00
 1.0625976395e+00	 6.3426532812e-01	 9.9279174265e-01
 1.0494247165e+00	 6.5583078185e-01	 8.8468676146e-01
 1.0357819451e+00	 6.7717206979e-01	 7.7099463549e-01
 1.1622353763e+00	 4.6011838694e-01	 1.6236826487e+00
 1.1528499225e+00	 4.8315324299e-01	 1.5621245642e+00
 1.1429684046e+00	 5.0608618433e-01	 1.4931054654e+00
 1.1325912624e+00	 5.2890172284e-01	 1.4168040968e+00
 1.1217195625e+00	 5.5158428467e-01	 1.3334186249e+00
 1.1103550085e+00	 5.7411824130e-01	 1.2431662365e+00
 1.0984999480e+00	 5.9648794137e-01	 1.1462826375e+00
 1.0861573780e+00	 6.1867774334e-01	 1.0430214534e+00
 1.0733309490e+00	 6.4067204861e-01	 9.3365353377e-01
 1.0600249661e+00	 6.6245533520e-01	 8.1846616149e-01
 1.0462443890e+00	 6.8401219171e-01	 6.9776217157e-01
 9.4161995014e-01	 6.1561097256e-01	 1.7389220430e+00
 9.2879534623e-01	 6.3479461628e-01	 1.6985561116e+00
 9.1555429058e-01	 6.5374715376e-01	 1.6458778123e+00
 9.0190299231e-01	 6.7245519740e-01	 1.5815293465e+00
 8.8784822886e-01	 6.9090558151e-01	 1.5061925330e+00
 8.7339733604e-01	 7.0908539221e-01	 1.4205863394e+00
 8.5855819624e-01	 7.2698199683e-01	 1.3254641988e+00
 8.4333922472e-01	 7.4458307267e-01	 1.2216111272e+00
 8.2774935416e-01	 7.6187663485e-01	 1.1098406601e+00
 8.1179801747e-01	 7.7885106335e-01	 9.9099162619e-01
 7.9549512885e-01	 7.9549512885e-01	 8.6592477988e-01
 9.5208239402e-01	 6.2245109447e-01	 1.6012073955e+00
 9.3911529451e-01	 6.4184788979e-01	 1.5574509334e+00
 9.2572711602e-01	 6.6101101102e-01	 1.5020926385e+00
 9.1192413666e-01	 6.7992692181e-01	 1.4357489335e+00
 8.9771320917e-01	 6.9858231019e-01	 1.3590736399e+00
 8.8310175088e-01	 7.1696411878e-01	 1.2727556120e+00
 8.6809773175e-01	 7.3505957457e-01	 1.1775161674e+00
 8.5270966054e-01	 7.5285621791e-01	 1.0741063305e+00
 8.3694656920e-01	 7.7034193079e-01	 9.6330390439e-01
 8.2081799544e-01	 7.8750496405e-01	 8.4591039084e-01
 8.0433396361e-01	 8.0433396361e-01	 7.2274777609e-01
 9.6254483791e-01	 6.2929121639e-01	 1.4716083890e+00
 9.4943524280e-01	 6.4890116330e-01	 1.4241422814e+00
 9.3589994147e-01	 6.6827486828e-01	 1.3657730779e+00
 9.2194528102e-01	 6.8739864622e-01	 1.2970919901e+00
 9.0757818949e-01	 7.0625903887e-01	 1.2187254432e+00
 8.9280616572e-01	 7.2484284536e-01	 1.1313328104e+00
 8.7763726726e-01	 7.4313715231e-01	 1.0356039560e+00
 8.6208009637e-01	 7.6112936316e-01	 9.3225660186e-01
 8.4614378425e-01	 7.7880722673e-01	 8.2203353318e-01
 8.2983797340e-01	 7.9615886475e-01	 7.0569966126e-01
 8.1317279837e-01	 8.1317279837e-01	 5.8403896107e-01
 9.7300728180e-01	 6.3613133830e-01	 1.3498632201e+00
 9.5975519109e-01	 6.5595443681e-01	 1.2983786435e+00
 9.4607276692e-01	 6.7553872554e-01	 1.2366782899e+00
 9.3196642537e-01	 6.9487037063e-01	 1.1653287094e+00
 9.1744316981e-01	 7.1393576755e-01	 1.0849295127e+00
 9.0251058056e-01	 7.3272157193e-01	 9.9611120381e-01
 8.8717680277e-01	 7.5121473005e-01	 8.9953283425e-01
 8.7145053220e-01	 7.6940250841e-01	 7.9587949036e-01
 8.5534099929e-01	 7.8727252267e-01	 6.8585963067e-01
 8.3885795137e-01	 8.0481276545e-01	 5.7020228902e-01
 8.2201163313e-01	 8.2201163313e-01	 4.4965416148e-01
 9.8346972568e-01	 6.4297146021e-01	 1.2357212263e+00
 9.7007513938e-01	 6.6300771033e-01	 1.1799192099e+00
 9.5624559236e-01	 6.8280258280e-01	 1.1145776822e+00
 9.4198756973e-01	 7.0234209505e-01	 1.0402390637e+00
 9.2730815012e-01	 7.2161249623e-01	 9.5747671317e-01
 9.1221499541e-01	 7.4060029851e-01	 8.6689285844e-01
 8.9671633828e-01	 7.5929230779e-01	 7.6911635819e-01
 8.8082096802e-01	 7.7767565366e-01	 6.6480030899e-01
 8.6453821433e-01	 7.9573781861e-01	 5.5461951173e-01
 8.4787792934e-01	 8.1346666615e-01	 4.3926781312e-01
 8.3085046789e-01	 8.3085046789e-01	 3.1945533927e-01
 9.9393216957e-01	 6.4981158213e-01	 1.1289422991e+00
 9.8039508766e-01	 6.7006098384e-01	 1.0685333104e+00
 9.6641841781e-01	 6.9006644006e-01	 9.9925037197e-01
 9.5200871408e-01	 7.0981381946e-01	 9.2161228943e-01
 9.3717313044e-01	 7.2928922491e-01	 8.3616671534e-01
 9.2191941025e-01	 7.4847902509e-01	 7.4348817483e-01
 9.0625587379e-01	 7.6736988553e-01	 6.4417593439e-01
 8.9019140385e-01	 7.8594879891e-01	 5.3885172614e-01
 8.7373542937e-01	 8.0420311455e-01	 4.2815734132e-01
 8.5689790731e-01	 8.2212056685e-01	 3.1275210793e-01
 8.3968930266e-01	 8.3968930266e-01	 1.9331026872e-01
 1.0043946135e+00	 6.5665170405e-01	 1.0292963346e+00
 9.9071503595e-01	 6.7711425735e-01	 9.6399988610e-01
 9.7659124326e-01	 6.9733029732e-01	 8.9048467961e-01
 9.6202985844e-01	 7.1728554387e-01	 8.0924640511e-01
 9.4703811076e-01	 7.3696595359e-01	 7.2080753697e-01
 9.3162382509e-01	 7.5635775167e-01	 6.2571545355e-01
 9.1579540930e-01	 7.7544746327e-01	 5.2454041094e-01
 8.9956183968e-01	 7.9422194416e-01	 4.1787338255e-01
 8.8293264442e-01	 8.1266841049e-01	 3.0632377771e-01
 8.6591788528e-01	 8.3077446755e-01	 1.9051705328e-01
 8.4852813742e-01	 8.4852813742e-01	 7.1092233789e-02
 1.0148570573e+00	 6.6349182596e-01	 9.3656271776e-01
 1.0010349842e+00	 6.8416753086e-01	 8.6610699386e-01
 9.8676406871e-01	 7.0459415459e-01	 7.8807765480e-01
 9.7205100279e-01	 7.2475726829e-01	 7.0294775841e-01
 9.5690309108e-01	 7.4464268227e-01	 6.1121511274e-01
 9.4132823993e-01	 7.6423647825e-01	 5.1340048807e-01
 9.2533494481e-01	 7.8352504101e-01	 4.1004569386e-01
 9.0893227550e-01	 8.0249508941e-01	 3.0171153186e-01
 8.9212985946e-01	 8.2113370643e-01	 1.8897563778e-01
 8.7493786325e-01	 8.3942836826e-01	 7.2430224892e-02
 8.5736697218e-01	 8.5736697218e-01	-4.7320255955e-02
 1.0253195012e+00	 6.7033194788e-01	 8.5052983820e-01
 1.0113549325e+00	 6.9122080438e-01	 7.7465134136e-01
 9.9693689416e-01	 7.1185801185e-01	 6.9183463090e-01
 9.8207214715e-01	 7.3222899270e-01	 6.0253060122e-01
 9.6676807139e-01	 7.5231941096e-01	 5.0721289027e-01
 9.5103265477e-01	 7.7211520483e-01	 4.0637618242e-01
 9.3487448032e-01	 7.9160261875e-01	 3.0053438703e-01
 9.1830271133e-01	 8.1076823466e-01	 1.9021870323e-01
 9.0132707451e-01	 8.2959900237e-01	 7.5975582805e-02
 8.8395784122e-01	 8.4808226896e-01	-4.1635396234e-02
 8.6620580695e-01	 8.6620580695e-01	-1.6204373191e-01
 1.0357819451e+00	 6.7717206979e-01	 7.7099463549e-01
 1.0216748808e+00	 6.9827407789e-01	 6.8943785012e-01
 1.0071097196e+00	 7.1912186911e-01	 6.0156880665e-01
 9.9209329151e-01	 7.3970071712e-01	 5.0781669052e-01
 9.7663305171e-01	 7.5999613964e-01	 4.0863145072e-01
 9.6073706962e-01	 7.7999393141e-01	 3.0448219213e-01
 9.4441401583e-01	 7.9968019649e-01	 1.9585545391e-01
 9.2767314716e-01	 8.1904137991e-01	 8.3253384391e-02
 9.1052428955e-01	 8.3806429832e-01	-3.2808176714e-02
 8.9297781919e-01	 8.5673616966e-01	-1.5180169682e-01
 8.7504464171e-01	 8.7504464171e-01	-2.7319001692e-01
 1.0462443890e+00	 6.8401219171e-01	 6.9776217157e-01
 1.0319948291e+00	 7.0532735141e-01	 6.1027924485e-01
 1.0172825451e+00	 7.2638572638e-01	 5.1710085288e-01
 1.0021144359e+00	 7.4717244154e-01	 4.1863491303e-01
 9.8649803203e-01	 7.6767286833e-01	 3.1530815210e-01
 9.7044148446e-01	 7.8787265799e-01	 2.0756458659e-01
 9.5395355135e-01	 8.0775777424e-01	 9.5863899541e-02
 9.3704358299e-01	 8.2731452517e-01	-1.9320276255e-02
 9.1972150459e-01	 8.4652959426e-01	-1.3750215852e-01
 9.0199779716e-01	 8.6539007037e-01	-2.5818568791e-01
 8.8388347647e-01	 8.8388347647e-01	-3.8086646067e-01
 7.9549512885e-01	 7.9549512885e-01	 8.6592477988e-01
 7.7885106335e-01	 8.1179801747e-01	 7.4636425499e-01
 7.6187663485e-01	 8.2774935416e-01	 6.1628556041e-01
 7.4458307267e-01	 8.4333922472e-01	 4.7680202881e-01
 7.2698199683e-01	 8.5855819624e-01	 3.2905874330e-01
 7.0908539221e-01	 8.7339733604e-01	 1.7422772316e-01
 6.9090558151e-01	 8.8784822886e-01	 1.3502988849e-02
 6.7245519740e-01	 9.0190299231e-01	-1.5190446041e-01
 6.5374715376e-01	 9.1555429058e-01	-3.2077172233e-01
 6.3479461628e-01	 9.2879534623e-01	-4.9186908673e-01
 6.1561097256e-01	 9.4161995014e-01	-6.6396511622e-01
 8.0433396361e-01	 8.0433396361e-01	 7.2274777609e-01
 7.8750496405e-01	 8.2081799544e-01	 6.0727434150e-01
 7.7034193079e-01	 8.3694656920e-01	 4.8222693588e-01
 7.5285621791e-01	 8.5270966054e-01	 3.4865959930e-01
 7.3505957457e-01	 8.6809773175e-01	 2.0765540979e-01
 7.1696411878e-01	 8.8310175088e-01	 6.0321934776e-02
 6.9858231019e-01	 8.9771320917e-01	-9.2213426900e-02
 6.7992692181e-01	 9.1192413666e-01	-2.4880818095e-01
 6.6101101102e-01	 9.2572711602e-01	-4.0830951955e-01
 6.4184788979e-01	 9.3911529451e-01	-5.6955911726e-01
 6.2245109447e-01	 9.5208239402e-01	-7.3139790907e-01
 8.1317279837e-01	 8.1317279837e-01	 5.8403896107e-01
 7.9615886475e-01	 8.2983797340e-01	 4.7211077076e-01
 7.7880722673e-01	 8.4614378425e-01	 3.5153532734e-01
 7.6112936316e-01	 8.6208009637e-01	 2.2330847322e-01
 7.4313715231e-01	 8.7763726726e-01	 8.8452416151e-02
 7.2484284536e-01	 8.9280616572e-01	-5.1988557740e-02
 7.0625903887e-01	 9.0757818949e-01	-1.9695246925e-01
 6.8739864622e-01	 9.2194528102e-01	-3.4536410010e-01
 6.6827486828e-01	 9.3589994147e-01	-4.9613948559e-01
 6.4890116330e-01	 9.4943524280e-01	-6.4819041584e-01
 6.2929121639e-01	 9.6254483791e-01	-8.0042891589e-01
 8.2201163313e-01	 8.2201163313e-01	 4.4965416148e-01
 8.0481276545e-01	 8.3885795137e-01	 3.4074684545e-01
 7.8727252267e-01	 8.5534099929e-01	 2.2410207742e-01
 7.6940250841e-01	 8.7145053220e-01	 1.0065856169e-01
 7.5121473005e-01	 8.8717680277e-01	-2.8621266034e-02
 7.3272157193e-01	 9.0251058056e-01	-1.6275526812e-01
 7.1393576755e-01	 9.1744316981e-01	-3.0074572182e-01
 6.9487037063e-01	 9.3196642537e-01	-4.4158349558e-01
 6.7553872554e-01	 9.4607276692e-01	-5.8425225683e-01
 6.5595443681e-01	 9.5975519109e-01	-7.2773268304e-01
 6.3613133830e-01	 9.7300728180e-01	-8.7100664834e-01
 8.3085046789e-01	 8.3085046789e-01	 3.1945533927e-01
 8.1346666615e-01	 8.4787792934e-01	 2.1306125991e-01
 7.9573781861e-01	 8.6453821433e-01	 9.9823152707e-02
 7.7767565366e-01	 8.8082096802e-01	-1.9376390324e-02
 7.5929230779e-01	 8.9671633828e-01	-1.4363364237e-01
 7.4060029851e-01	 9.1221499541e-01	-2.7202751767e-01
 7.2161249623e-01	 9.2730815012e-01	-4.0362342387e-01
 7.0234209505e-01	 9.4198756973e-01	-5.3747716481e-01
 6.8280258280e-01	 9.5624559236e-01	-6.7263886771e-01
 6.6300771033e-01	 9.7007513938e-01	-8.0815690836e-01
 6.4297146021e-01	 9.8346972568e-01	-9.4308180865e-01
 8.3968930266e-01	 8.3968930266e-01	 1.9331026872e-01
 8.2212056685e-01	 8.5689790731e-01	 8.8937816311e-02
 8.0420311455e-01	 8.7373542937e-01	-2.1401099545e-02
 7.8594879891e-01	 8.9019140385e-01	-1.3687900573e-01
 7.6736988553e-01	 9.0625587379e-01	-2.5664985475e-01
 7.4847902509e-01	 9.2191941025e-01	-3.7985255069e-01
 7.2928922491e-01	 9.3717313044e-01	-5.0561454108e-01
 7.0981381946e-01	 9.5200871408e-01	-6.3305545021e-01
 6.9006644006e-01	 9.6641841781e-01	-7.6129072977e-01
 6.7006098384e-01	 9.8039508766e-01	-8.8943530240e-01
 6.4981158213e-01	 9.9393216957e-01	-1.0166071743e+00
 8.4852813742e-01	 8.4852813742e-01	 7.1092233789e-02
 8.3077446755e-01	 8.6591788528e-01	-3.1734841327e-02
 8.1266841049e-01	 8.8293264442e-01	-1.3966617962e-01
 7.9422194416e-01	 8.9956183968e-01	-2.5192846455e-01
 7.7544746327e-01	 9.1579540930e-01	-3.6773233049e-01
 7.5635775167e-01	 9.3162382509e-01	-4.8627564261e-01
 7.3696595359e-01	 9.4703811076e-01	-6.0674683187e-01
 7.1728554387e-01	 9.6202985844e-01	-7.2832826290e-01
 6.9733029732e-01	 9.7659124326e-01	-8.5019961202e-01
 6.7711425735e-01	 9.9071503595e-01	-9.7154123324e-01
 6.5665170405e-01	 1.0043946135e+00	-1.0915374900e+00
 8.5736697218e-01	 8.5736697218e-01	-4.7320255955e-02
 8.3942836826e-01	 8.7493786325e-01	-1.4906347673e-01
 8.2113370643e-01	 8.9212985946e-01	-2.5506364937e-01
 8.0249508941e-01	 9.0893227550e-01	-3.6460068131e-01
 7.8352504101e-01	 9.2533494481e-01	-4.7694092228e-01
 7.6423647825e-01	 9.4132823993e-01	-5.9134020150e-01
 7.4464268227e-01	 9.5690309108e-01	-7.0704690964e-01
 7.2475726829e-01	 9.7205100279e-01	-8.2330510492e-01
 7.0459415459e-01	 9.8676406871e-01	-9.3935762250e-01
 6.8416753086e-01	 1.0010349842e+00	-1.0544491668e+00
 6.6349182596e-01	 1.0148570573e+00	-1.1678293663e+00
 8.6620580695e-01	 8.6620580695e-01	-1.6204373191e-01
 8.4808226896e-01	 8.8395784122e-01	-2.6315049568e-01
 8.2959900237e-01	 9.0132707451e-01	-3.6768133316e-01
 8.1076823466e-01	 9.1830271133e-01	-4.7496847175e-01
 7.9160261875e-01	 9.3487448032e-01	-5.8433303954e-01
 7.7211520483e-01	 9.5103265477e-01	-6.9508786335e-01
 7.5231941096e-01	 9.6676807139e-01	-8.0654030116e-01
 7.3222899270e-01	 9.8207214715e-01	-9.1799509011e-01
 7.1185801185e-01	 9.9693689416e-01	-1.0287571910e+00
 6.9122080438e-01	 1.0113549325e+00	-1.1381346108e+00
 6.7033194788e-01	 1.0253195012e+00	-1.2454411841e+00
 8.7504464171e-01	 8.7504464171e-01	-2.7319001692e-01
 8.5673616966e-01	 8.9297781919e-01	-3.7409416610e-01
 8.3806429832e-01	 9.1052428955e-01	-4.7760350661e-01
 8.1904137991e-01	 9.2767314716e-01	-5.8310170921e-01
 7.9968019649e-01	 9.4441401583e-01	-6.8996377179e-01
 7.7999393141e-01	 9.6073706962e-01	-7.9755858156e-01
 7.5999613964e-01	 9.7663305171e-01	-9.0525150149e-01
 7.3970071712e-01	 9.9209329151e-01	-1.0124069637e+00
 7.1912186911e-01	 1.0071097196e+00	-1.1183910528e+00
 6.9827407789e-01	 1.0216748808e+00	-1.2225740621e+00
 6.7717206979e-01	 1.0357819451e+00	-1.3243330059e+00
 8.8388347647e-01	 8.8388347647e-01	-3.8086646067e-01
 8.6539007037e-01	 9.0199779716e-01	-4.8198882494e-01
 8.4652959426e-01	 9.1972150459e-01	-5.8491107408e-01
 8.2731452517e-01	 9.3704358299e-01	-6.8906747186e-01
 8.0775777424e-01	 9.5395355135e-01	-7.9388600467e-01
 7.8787265799e-01	 9.7044148446e-01	-8.9879071107e-01
 7.6767286833e-01	 9.8649803203e-01	-1.0032040255e+00
 7.4717244154e-01	 1.0021144359e+00	-1.1065491208e+00
 7.2638572638e-01	 1.0172825451e+00	-1.2082522335e+00
 7.0532735141e-01	 1.0319948291e+00	-1.3077449574e+00
 6.8401219171e-01	 1.0462443890e+00	-1.4044664908e+00
 6.1561097256e-01	 9.4161995014e-01	-6.6396511622e-01
 5.9620980170e-01	 9.5402246954e-01	-8.4254907033e-01
 5.7660484377e-01	 9.6599785412e-01	-1.0234519971e+00
 5.5680996903e-01	 9.7754164025e-01	-1.2054592163e+00
 5.3683914726e-01	 9.8864995322e-01	-1.3873585199e+00
 5.1670641719e-01	 9.9931950770e-01	-1.5679450608e+00
 4.9642585623e-01	 1.0095476063e+00	-1.7460261183e+00
 4.7601155058e-01	 1.0193321361e+00	-1.9204257131e+00
 4.5547756592e-01	 1.0286715642e+00	-2.0899890451e+00
 4.3483791872e-01	 1.0375649302e+00	-2.2535867295e+00
 4.1410654828e-01	 1.0460118387e+00	-2.4101188099e+00
 6.2245109447e-01	 9.5208239402e-01	-7.3139790907e-01
 6.0283435505e-01	 9.6462271920e-01	-8.9956526907e-01
 5.8301156425e-01	 9.7673116361e-01	-1.0694197131e+00
 5.6299674646e-01	 9.8840321402e-01	-1.2398213907e+00
 5.4280402667e-01	 9.9963495269e-01	-1.4096339633e+00
 5.2244759960e-01	 1.0104230578e+00	-1.5777291713e+00
 5.0194169907e-01	 1.0207648019e+00	-1.7429912824e+00
 4.8130056781e-01	 1.0306580488e+00	-1.9043213921e+00
 4.6053842777e-01	 1.0401012482e+00	-2.0606415539e+00
 4.3966945115e-01	 1.0490934295e+00	-2.2108987165e+00
 4.1870773215e-01	 1.0576341925e+00	-2.3540684474e+00
 6.2929121639e-01	 9.6254483791e-01	-8.0042891589e-01
 6.0945890840e-01	 9.7522296885e-01	-9.5881971090e-01
 5.8941828473e-01	 9.8746447310e-01	-1.1182790159e+00
 5.6918352389e-01	 9.9926478780e-01	-1.2777404868e+00
 5.4876890608e-01	 1.0106199522e+00	-1.4361423159e+00
 5.2818878201e-01	 1.0215266079e+00	-1.5924314840e+00
 5.0745754192e-01	 1.0319819975e+00	-1.7455678939e+00
 4.8658958503e-01	 1.0419839614e+00	-1.8945283630e+00
 4.6559928961e-01	 1.0515309323e+00	-2.0383104506e+00
 4.4450098358e-01	 1.0606219287e+00	-2.1759360996e+00
 4.2330891602e-01	 1.0692565462e+00	-2.3064550754e+00
 6.3613133830e-01	 9.7300728180e-01	-8.7100664834e-01
 6.1608346175e-01	 9.8582321851e-01	-1.0202402643e+00
 5.9582500522e-01	 9.9819778258e-01	-1.1699367012e+00
 5.7537030132e-01	 1.0101263616e+00	-1.3191018407e+00
 5.5473378549e-01	 1.0216049516e+00	-1.4667471110e+00
 5.3392996442e-01	 1.0326301579e+00	-1.6118934285e+00
 5.1297338476e-01	 1.0431991931e+00	-1.7535750225e+00
 4.9187860226e-01	 1.0533098740e+00	-1.8908431232e+00
 4.7066015145e-01	 1.0629606163e+00	-2.0227694903e+00
 4.4933251601e-01	 1.0721504279e+00	-2.1484497654e+00
 4.2791009988e-01	 1.0808789000e+00	-2.2670066290e+00
 6.4297146021e-01	 9.8346972568e-01	-9.4308180865e-01
 6.2270801510e-01	 9.9642346817e-01	-1.0837578666e+00
 6.0223172570e-01	 1.0089310921e+00	-1.2243035306e+00
 5.8155707875e-01	 1.0209879354e+00	-1.3637956675e+00
 5.6069866490e-01	 1.0325899511e+00	-1.5013176882e+00
 5.3967114683e-01	 1.0437337080e+00	-1.6359631819e+00
 5.1848922761e-01	 1.0544163887e+00	-1.7668394370e+00
 4.9716761948e-01	 1.0646357866e+00	-1.8930708290e+00
 4.7572101329e-01	 1.0743903004e+00	-2.0138020553e+00
 4.5416404844e-01	 1.0836789271e+00	-2.1282012011e+00
 4.3251128375e-01	 1.0925012538e+00	-2.2354626201e+00
 6.4981158213e-01	 9.9393216957e-01	-1.0166071743e+00
 6.2933256845e-01	 1.0070237178e+00	-1.1493063628e+00
 6.0863844618e-01	 1.0196644016e+00	-1.2812940223e+00
 5.8774385618e-01	 1.0318495091e+00	-1.4117168044e+00
 5.6666354432e-01	 1.0435749506e+00	-1.5397288883e+00
 5.4541232925e-01	 1.0548372581e+00	-1.6644953132e+00
 5.2400507045e-01	 1.0656335844e+00	-1.7851951994e+00
 5.0245663671e-01	 1.0759616992e+00	-1.9010248404e+00
 4.8078187513e-01	 1.0858199844e+00	-2.0112006478e+00
 4.5899558086e-01	 1.0952074264e+00	-2.1149619357e+00
 4.3711246762e-01	 1.1041236075e+00	-2.2115735281e+00
 6.5665170405e-01	 1.0043946135e+00	-1.0915374900e+00
 6.3595712180e-01	 1.0176239675e+00	-1.2168223539e+00
 6.1504516667e-01	 1.0303977110e+00	-1.3408262562e+00
 5.9393063361e-01	 1.0427110829e+00	-1.4627644699e+00
 5.7262842373e-01	 1.0545599501e+00	-1.5818607666e+00
 5.5115351166e-01	 1.0659408082e+00	-1.6973504507e+00
 5.2952091329e-01	 1.0768507800e+00	-1.8084832856e+00
 5.0774565394e-01	 1.0872876119e+00	-1.9145262935e+00
 4.8584273697e-01	 1.0972496685e+00	-2.0147664156e+00
 4.6382711329e-01	 1.1067359256e+00	-2.1085130175e+00
 4.4171365148e-01	 1.1157459613e+00	-2.1951002284e+00
 6.6349182596e-01	 1.0148570573e+00	-1.1678293663e+00
 6.4258167515e-01	 1.0282242171e+00	-1.2862450547e+00
 6.2145188715e-01	 1.0411310205e+00	-1.4028216896e+00
 6.0011741104e-01	 1.0535726567e+00	-1.5168420380e+00
 5.7859330314e-01	 1.0655449496e+00	-1.6275983240e+00
 5.5689469407e-01	 1.0770443583e+00	-1.7343949696e+00
 5.3503675614e-01	 1.0880679756e+00	-1.8365512286e+00
 5.1303467116e-01	 1.0986135245e+00	-1.9334037000e+00
 4.9090359881e-01	 1.1086793525e+00	-2.0243087060e+00
 4.6865864572e-01	 1.1182644248e+00	-2.1086445233e+00
 4.4631483535e-01	 1.1273683150e+00	-2.1858134570e+00
 6.7033194788e-01	 1.0253195012e+00	-1.2454411841e+00
 6.4920622850e-01	 1.0388244668e+00	-1.3575161607e+00
 6.2785860764e-01	 1.0518643300e+00	-1.4672049854e+00
 6.0630418848e-01	 1.0644342305e+00	-1.5738568262e+00
 5.8455818255e-01	 1.0765299490e+00	-1.6768312551e+00
 5.6263587648e-01	 1.0881479084e+00	-1.7755006984e+00
 5.4055259898e-01	 1.0992851712e+00	-1.8692527840e+00
 5.1832368839e-01	 1.1099394371e+00	-1.9574925704e+00
 4.9596446065e-01	 1.1201090366e+00	-2.0396446476e+00
 4.7349017814e-01	 1.1297929240e+00	-2.1151550977e+00
 4.5091601921e-01	 1.1389906688e+00	-2.1834933073e+00
 6.7717206979e-01	 1.0357819451e+00	-1.3243330059e+00
 6.5583078185e-01	 1.0494247165e+00	-1.4305797229e+00
 6.3426532812e-01	 1.0625976395e+00	-1.5339038498e+00
 6.1249096591e-01	 1.0752958043e+00	-1.6337198964e+00
 5.9052306196e-01	 1.0875149485e+00	-1.7294537106e+00
 5.6837705889e-01	 1.0992514584e+00	-1.8205446442e+00
 5.4606844183e-01	 1.1105023669e+00	-1.9064476160e+00
 5.2361270561e-01	 1.1212653497e+00	-1.9866350610e+00
 5.0102532249e-01	 1.1315387206e+00	-2.0605987574e+00
 4.7832171057e-01	 1.1413214233e+00	-2.1278515206e+00
 4.5551720308e-01	 1.1506130226e+00	-2.1879287570e+00
 6.8401219171e-01	 1.0462443890e+00	-1.4044664908e+00
 6.6245533520e-01	 1.0600249661e+00	-1.5053820296e+00
 6.4067204861e-01	 1.0733309490e+00	-1.6028488807e+00
 6.1867774334e-01	 1.0861573780e+00	-1.6963458673e+00
 5.9648794137e-01	 1.0984999480e+00	-1.7853640747e+00
 5.7411824130e-01	 1.1103550085e+00	-1.8694087332e+00
 5.5158428467e-01	 1.1217195625e+00	-1.9480010017e+00
 5.2890172284e-01	 1.1325912624e+00	-2.0206796412e+00
 5.0608618433e-01	 1.1429684046e+00	-2.0870025713e+00
 4.8315324299e-01	 1.1528499225e+00	-2.1465483001e+00
 4.6011838694e-01	 1.1622353763e+00	-2.1989172246e+00
 4.1410654828e-01	 1.0460118387e+00	-2.4101188099e+00
 3.9329728964e-01	 1.0540124487e+00	-2.5846053678e+00
 3.7242384749e-01	 1.0615674627e+00	-2.7515742051e+00
 3.5149977102e-01	 1.0686781139e+00	-2.9102604800e+00
 3.3053842995e-01	 1.0753461519e+00	-3.0599288074e+00
 3.0955299173e-01	 1.0815738280e+00	-3.1998754444e+00
 2.8855639991e-01	 1.0873638784e+00	-3.3294302611e+00
 2.6756135392e-01	 1.0927195074e+00	-3.4479584927e+00
 2.4658029005e-01	 1.0976443689e+00	-3.5548622698e+00
 2.2562536386e-01	 1.1021425476e+00	-3.6495819256e+00
 2.0470843396e-01	 1.1062185395e+00	-3.7315970807e+00
 4.1870773215e-01	 1.0576341925e+00	-2.3540684474e+00
 3.9766725953e-01	 1.0657236981e+00	-2.5176575082e+00
 3.7656189024e-01	 1.0733626567e+00	-2.6736648441e+00
 3.5540532403e-01	 1.0805523151e+00	-2.8213799729e+00
 3.3421107917e-01	 1.0872944425e+00	-2.9601211237e+00
 3.1299246941e-01	 1.0935913150e+00	-3.0892372327e+00
 2.9176258213e-01	 1.0994456993e+00	-3.2081097357e+00
 2.7053425785e-01	 1.1048608353e+00	-3.3161541520e+00
 2.4932007105e-01	 1.1098404175e+00	-3.4128214588e+00
 2.2813231235e-01	 1.1143885759e+00	-3.4975992548e+00
 2.0698297212e-01	 1.1185098566e+00	-3.5700127133e+00
 4.2330891602e-01	 1.0692565462e+00	-2.3064550754e+00
 4.0203722941e-01	 1.0774349476e+00	-2.4596575187e+00
 3.8069993299e-01	 1.0851578508e+00	-2.6052188756e+00
 3.5931087704e-01	 1.0924265164e+00	-2.7424820511e+00
 3.3788372839e-01	 1.0992427330e+00	-2.8708179270e+00
 3.1643194710e-01	 1.1056088019e+00	-2.9896271717e+00
 2.9496876435e-01	 1.1115275202e+00	-3.0983418561e+00
 2.7350716179e-01	 1.1170021632e+00	-3.1964268731e+00
 2.5205985205e-01	 1.1220364660e+00	-3.2833811577e+00
 2.3063926084e-01	 1.1266346042e+00	-3.3587387091e+00
 2.0925751027e-01	 1.1308011737e+00	-3.4220694155e+00
 4.2791009988e-01	 1.0808789000e+00	-2.2670066290e+00
 4.0640719929e-01	 1.0891461970e+00	-2.4103168573e+00
 3.8483797574e-01	 1.0969530448e+00	-2.5459311308e+00
 3.6321643005e-01	 1.1043007177e+00	-2.6732448006e+00
 3.4155637762e-01	 1.1111910236e+00	-2.7916804707e+00
 3.1987142478e-01	 1.1176262889e+00	-2.9006896250e+00
 2.9817494657e-01	 1.1236093411e+00	-2.9997540697e+00
 2.7648006572e-01	 1.1291434910e+00	-3.0883871894e+00
 2.5479963305e-01	 1.1342325145e+00	-3.1661350171e+00
 2.3314620932e-01	 1.1388806325e+00	-3.2325771158e+00
 2.1153204843e-01	 1.1430924908e+00	-3.2873272769e+00
 4.3251128375e-01	 1.0925012538e+00	-2.2354626201e+00
 4.1077716917e-01	 1.1008574464e+00	-2.3693592598e+00
 3.8897601848e-01	 1.1087482388e+00	-2.4955094263e+00
 3.6712198306e-01	 1.1161749189e+00	-2.6133600051e+00
 3.4522902683e-01	 1.1231393142e+00	-2.7223844222e+00
 3.2331090247e-01	 1.1296437759e+00	-2.8220840895e+00
 3.0138112879e-01	 1.1356911619e+00	-2.9119896766e+00
 2.7945296965e-01	 1.1412848189e+00	-2.9916622072e+00
 2.5753941405e-01	 1.1464285631e+00	-3.0606939790e+00
 2.3565315781e-01	 1.1511266608e+00	-3.1187093092e+00
 2.1380658658e-01	 1.1553838079e+00	-3.1653651065e+00
 4.3711246762e-01	 1.1041236075e+00	-2.2115735281e+00
 4.1514713906e-01	 1.1125686958e+00	-2.3365200940e+00
 3.9311406123e-01	 1.1205434329e+00	-2.4536738808e+00
 3.7102753607e-01	 1.1280491202e+00	-2.5625324259e+00
 3.4890167605e-01	 1.1350876048e+00	-2.6626191049e+00
 3.2675038015e-01	 1.1416612629e+00	-2.7534843984e+00
 3.0458731101e-01	 1.1477729828e+00	-2.8347069958e+00
 2.8242587358e-01	 1.1534261467e+00	-2.9058947330e+00
 2.6027919505e-01	 1.1586246116e+00	-2.9666853664e+00
 2.3816010630e-01	 1.1633726891e+00	-3.0167471827e+00
 2.1608112474e-01	 1.1676751250e+00	-3.0557794475e+00
 4.4171365148e-01	 1.1157459613e+00	-2.1951002284e+00
 4.1951710894e-01	 1.1242799453e+00	-2.3115457535e+00
 3.9725210398e-01	 1.1323386269e+00	-2.4201562742e+00
 3.7493308908e-01	 1.1399233214e+00	-2.5204791251e+00
 3.5257432527e-01	 1.1470358954e+00	-2.6120867864e+00
 3.3018985783e-01	 1.1536787499e+00	-2.6945779751e+00
 3.0779349323e-01	 1.1598548037e+00	-2.7675785822e+00
 2.8539877751e-01	 1.1655674746e+00	-2.8307424560e+00
 2.6301897605e-01	 1.1708206602e+00	-2.8837520302e+00
 2.4066705479e-01	 1.1756187174e+00	-2.9263188007e+00
 2.1835566290e-01	 1.1799664421e+00	-2.9581836534e+00
 4.4631483535e-01	 1.1273683150e+00	-2.1858134570e+00
 4.2388707882e-01	 1.1359911947e+00	-2.2941930894e+00
 4.0139014672e-01	 1.1441338209e+00	-2.3946994466e+00
 3.7883864208e-01	 1.1517975227e+00	-2.4869288321e+00
 3.5624697449e-01	 1.1589841859e+00	-2.5705020117e+00
 3.3362933551e-01	 1.1656962368e+00	-2.6450651320e+00
 3.1099967545e-01	 1.1719366245e+00	-2.7102904937e+00
 2.8837168144e-01	 1.1777088025e+00	-2.7658771812e+00
 2.6575875705e-01	 1.1830167087e+00	-2.8115515486e+00
 2.4317400327e-01	 1.1878647457e+00	-2.8470675649e+00
 2.2063020105e-01	 1.1922577592e+00	-2.8722070215e+00
 4.5091601921e-01	 1.1389906688e+00	-2.1834933073e+00
 4.2825704870e-01	 1.1477024441e+00	-2.2842288769e+00
 4.0552818947e-01	 1.1559290149e+00	-2.3770567341e+00
 3.8274419509e-01	 1.1636717240e+00	-2.4616213481e+00
 3.5991962371e-01	 1.1709324765e+00	-2.5375909766e+00
 3.3706881320e-01	 1.1777137238e+00	-2.6046584137e+00
 3.1420585767e-01	 1.1840184454e+00	-2.6625416015e+00
 2.9134458537e-01	 1.1898501303e+00	-2.7109841087e+00
 2.6849853805e-01	 1.1952127573e+00	-2.7497554760e+00
 2.4568095176e-01	 1.2001107741e+00	-2.7786514314e+00
 2.2290473921e-01	 1.2045490763e+00	-2.7974939799e+00
 4.5551720308e-01	 1.1506130226e+00	-2.1879287570e+00
 4.3262701858e-01	 1.1594136936e+00	-2.2814293140e+00
 4.0966623221e-01	 1.1677242090e+00	-2.3669914386e+00
 3.8664974809e-01	 1.1755459252e+00	-2.4443069870e+00
 3.6359227292e-01	 1.1828807671e+00	-2.5130909393e+00
 3.4050829088e-01	 1.1897312108e+00	-2.5730819784e+00
 3.1741203988e-01	 1.1961002663e+00	-2.6240429433e+00
 2.9431748930e-01	 1.2019914582e+00	-2.6657611577e+00
 2.7123831905e-01	 1.2074088058e+00	-2.6980486371e+00
 2.4818790024e-01	 1.2123568024e+00	-2.7207421763e+00
 2.2517927736e-01	 1.2168403934e+00	-2.7337033224e+00
 4.6011838694e-01	 1.1622353763e+00	-2.1989172246e+00
 4.3699698846e-01	 1.1711249430e+00	-2.2855795502e+00
 4.1380427495e-01	 1.1795194030e+00	-2.3642763294e+00
 3.9055530110e-01	 1.1874201265e+00	-2.4347460498e+00
 3.6726492214e-01	 1.1948290577e+00	-2.4967496672e+00
 3.4394776856e-01	 1.2017486978e+00	-2.5500710179e+00
 3.2061822210e-01	 1.2081820871e+00	-2.5945171149e+00
 2.9729039323e-01	 1.2141327860e+00	-2.6299183300e+00
 2.7397810005e-01	 1.2196048543e+00	-2.6561284631e+00
 2.5069484873e-01	 1.2246028307e+00	-2.6730247042e+00
 2.2745381552e-01	 1.2291317105e+00	-2.6805074914e+00
 2.0470843396e-01	 1.1062185395e+00	-3.7315970807e+00
 1.8384104718e-01	 1.1098772317e+00	-3.8375352921e+00
 1.6303442514e-01	 1.1131238818e+00	-3.9304113840e+00
 1.4229945221e-01	 1.1159640971e+00	-4.0101492938e+00
 1.2164666491e-01	 1.1184038130e+00	-4.0766991652e+00
 1.0108624261e-01	 1.1204492722e+00	-4.1300368190e+00
 8.0627999683e-02	 1.1221070028e+00	-4.1701631385e+00
 6.0281378857e-02	 1.1233837970e+00	-4.1971033747e+00
 4.0055445982e-02	 1.1242866900e+00	-4.2109063808e+00
 1.9958885975e-02	 1.1248229385e+00	-4.2116437820e+00
 0.0000000000e+00	 1.1250000000e+00	-4.1994090876e+00
 2.0698297212e-01	 1.1185098566e+00	-3.5700127133e+00
 1.8588372548e-01	 1.1222092009e+00	-3.6703743582e+00
 1.6484591875e-01	 1.1254919249e+00	-3.7580185420e+00
 1.4388055723e-01	 1.1283636981e+00	-3.8328818963e+00
 1.2299829452e-01	 1.1308305220e+00	-3.8949263839e+00
 1.0220942309e-01	 1.1328987086e+00	-3.9441387491e+00
 8.1523866346e-02	 1.1345748584e+00	-3.9805298872e+00
 6.0951171955e-02	 1.1358658392e+00	-4.0041341395e+00
 4.0500506492e-02	 1.1367787643e+00	-4.0150085211e+00
 2.0180651374e-02	 1.1373209711e+00	-4.0132318883e+00
 0.0000000000e+00	 1.1375000000e+00	-3.9989040529e+00
 2.0925751027e-01	 1.1308011737e+00	-3.4220694155e+00
 1.8792640379e-01	 1.1345411702e+00	-3.5170511786e+00
 1.6665741236e-01	 1.1378599681e+00	-3.5996589099e+00
 1.4546166226e-01	 1.1407632992e+00	-3.6698416419e+00
 1.2434992413e-01	 1.1432572311e+00	-3.7275728740e+00
 1.0333260356e-01	 1.1453481449e+00	-3.7728500039e+00
 8.2419733010e-02	 1.1470427139e+00	-3.8056936818e+00
 6.1620965054e-02	 1.1483478814e+00	-3.8261470949e+00
 4.0945567004e-02	 1.1492708386e+00	-3.8342751885e+00
 2.0402416774e-02	 1.1498190038e+00	-3.8301638323e+00
 0.0000000000e+00	 1.1500000000e+00	-3.8139189362e+00
 2.1153204843e-01	 1.1430924908e+00	-3.2873272769e+00
 1.8996908209e-01	 1.1468731394e+00	-3.3771195009e+00
 1.6846890598e-01	 1.1502280112e+00	-3.4548799332e+00
 1.4704276728e-01	 1.1531629003e+00	-3.5205697225e+00
 1.2570155374e-01	 1.1556839401e+00	-3.5741736321e+00
 1.0445578404e-01	 1.1577975813e+00	-3.6156994517e+00
 8.3315599674e-02	 1.1595105695e+00	-3.6451773375e+00
 6.2290758153e-02	 1.1608299236e+00	-3.6626590855e+00
 4.1390627515e-02	 1.1617629130e+00	-3.6682173481e+00
 2.0624182174e-02	 1.1623170364e+00	-3.6619447969e+00
 0.0000000000e+00	 1.1625000000e+00	-3.6439532422e+00
 2.1380658658e-01	 1.1553838079e+00	-3.1653651065e+00
 1.9201176039e-01	 1.1592051086e+00	-3.2501520619e+00
 1.7028039959e-01	 1.1625960543e+00	-3.3232483144e+00
 1.4862387231e-01	 1.1655625014e+00	-3.3846268535e+00
 1.2705318335e-01	 1.1681106491e+00	-3.4342834419e+00
 1.0557896451e-01	 1.1702470176e+00	-3.4722360088e+00
 8.4211466338e-02	 1.1719784251e+00	-3.4985239747e+00
 6.2960551253e-02	 1.1733119658e+00	-3.5132075161e+00
 4.1835688027e-02	 1.1742549873e+00	-3.5163667750e+00
 2.0845947575e-02	 1.1748150691e+00	-3.5081010213e+00
 0.0000000000e+00	 1.1750000000e+00	-3.4885277737e+00
 2.1608112474e-01	 1.1676751250e+00	-3.0557794475e+00
 1.9405443870e-01	 1.1715370779e+00	-3.1357395884e+00
 1.7209189320e-01	 1.1749640975e+00	-3.2043490000e+00
 1.5020497734e-01	 1.1779621024e+00	-3.2615922462e+00
 1.2840481296e-01	 1.1805373582e+00	-3.3074758332e+00
 1.0670214499e-01	 1.1826964540e+00	-3.3420275842e+00
 8.5107333003e-02	 1.1844462807e+00	-3.3652959512e+00
 6.3630344353e-02	 1.1857940079e+00	-3.3773492687e+00
 4.2280748539e-02	 1.1867470616e+00	-3.3782749589e+00
 2.1067712975e-02	 1.1873131017e+00	-3.3681786921e+00
 0.0000000000e+00	 1.1875000000e+00	-3.3471835101e+00
 2.1835566290e-01	 1.1799664421e+00	-2.9581836534e+00
 1.9609711700e-01	 1.1838690471e+00	-3.0334898597e+00
 1.7390338682e-01	 1.1873321406e+00	-3.0977842303e+00
 1.5178608236e-01	 1.1903617035e+00	-3.1510626447e+00
 1.2975644257e-01	 1.1929640672e+00	-3.1933421047e+00
 1.0782532546e-01	 1.1951458903e+00	-3.2246600907e+00
 8.6003199669e-02	 1.1969141363e+00	-3.2450738592e+00
 6.4300137453e-02	 1.1982760501e+00	-3.2546596886e+00
 4.2725809052e-02	 1.1992391360e+00	-3.2535120775e+00
 2.1289478376e-02	 1.1998111344e+00	-3.2417429051e+00
 0.0000000000e+00	 1.2000000000e+00	-3.2194805564e+00
 2.2063020105e-01	 1.1922577592e+00	-2.8722070215e+00
 1.9813979530e-01	 1.1962010164e+00	-2.9430268292e+00
 1.7571488043e-01	 1.1997001837e+00	-3.0031726475e+00
 1.5336718739e-01	 1.2027613046e+00	-3.0526514218e+00
 1.3110807219e-01	 1.2053907762e+00	-3.0914904090e+00
 1.0894850594e-01	 1.2075953267e+00	-3.1197365165e+00
 8.6899066335e-02	 1.2093819919e+00	-3.1374555865e+00
 6.4969930554e-02	 1.2107580923e+00	-3.1447316324e+00
 4.3170869564e-02	 1.2117312103e+00	-3.1416660329e+00
 2.1511243776e-02	 1.2123091670e+00	-3.1283766901e+00
 0.0000000000e+00	 1.2125000000e+00	-3.1049971580e+00
 2.2290473921e-01	 1.2045490763e+00	-2.7974939799e+00
 2.0018247361e-01	 1.2085329856e+00	-2.8639897985e+00
 1.7752637405e-01	 1.2120682269e+00	-2.9201484595e+00
 1.5494829242e-01	 1.2151609057e+00	-2.9659877310e+00
 1.3245970180e-01	 1.2178174853e+00	-3.0015448921e+00
 1.1007168642e-01	 1.2200447631e+00	-3.0268760543e+00
 8.7794933001e-02	 1.2218498475e+00	-3.0420554331e+00
 6.5639723655e-02	 1.2232401345e+00	-3.0471745751e+00
 4.3615930078e-02	 1.2242232846e+00	-3.0423415476e+00
 2.1733009177e-02	 1.2248071996e+00	-3.0276800960e+00
 0.0000000000e+00	 1.2250000000e+00	-3.0033287745e+00
 2.2517927736e-01	 1.2168403934e+00	-2.7337033224e+00
 2.0222515191e-01	 1.2208649548e+00	-2.7960326430e+00
 1.7933786766e-01	 1.2244362700e+00	-2.8483606532e+00
 1.5652939745e-01	 1.2275605068e+00	-2.8907157091e+00
 1.3381133141e-01	 1.2302441943e+00	-2.9231448858e+00
 1.1119486689e-01	 1.2324941994e+00	-2.9457132829e+00
 8.8690799668e-02	 1.2343177030e+00	-2.9585032828e+00
 6.6309516757e-02	 1.2357221767e+00	-2.9616137699e+00
 4.4060990591e-02	 1.2367153590e+00	-2.9551593148e+00
 2.1954774578e-02	 1.2373052323e+00	-2.9392693314e+00
 0.0000000000e+00	 1.2375000000e+00	-2.9140872107e+00
 2.2745381552e-01	 1.2291317105e+00	-2.6805074914e+00
 2.0426783021e-01	 1.2331969241e+00	-2.7388230825e+00
 1.8114936128e-01	 1.2368043131e+00	-2.7874722560e+00
 1.5811050247e-01	 1.2399601078e+00	-2.8264937273e+00
 1.3516296103e-01	 1.2426709033e+00	-2.8559441486e+00
 1.1231804737e-01	 1.2449436358e+00	-2.8758973977e+00
 8.9586666336e-02	 1.2467855586e+00	-2.8864438242e+00
 6.6979309859e-02	 1.2482042189e+00	-2.8876894600e+00
 4.4506051105e-02	 1.2492074333e+00	-2.8797551998e+00
 2.2176539980e-02	 1.2498032649e+00	-2.8627759566e+00
 0.0000000000e+00	 1.2500000000e+00	-2.8368997991e+00
 1.2500000000e+00	 0.0000000000e+00	 2.4274769158e+00
 1.2498032649e+00	 2.2176539980e-02	 2.4367585349e+00
 1.2492074333e+00	 4.4506051105e-02	 2.4397978018e+00
 1.2482042189e+00	 6.6979309859e-02	 2.4364821167e+00
 1.2467855586e+00	 8.9586666336e-02	 2.4267038057e+00
 1.2449436358e+00	 1.1231804737e-01	 2.4103604873e+00
 1.2426709033e+00	 1.3516296103e-01	 2.3873554345e+00
 1.2399601078e+00	 1.5811050247e-01	 2.3575979335e+00
 1.2368043131e+00	 1.8114936128e-01	 2.3210036353e+00
 1.2331969241e+00	 2.0426783021e-01	 2.2774948991e+00
 1.2291317105e+00	 2.2745381552e-01	 2.2270011258e+00
 1.2625000000e+00	 0.0000000000e+00	 2.4249908662e+00
 1.2623012976e+00	 2.2398305381e-02	 2.4343213816e+00
 1.2616995076e+00	 4.4951111618e-02	 2.4371417877e+00
 1.2606862611e+00	 6.7649102962e-02	 2.4333316404e+00
 1.2592534142e+00	 9.0482533003e-02	 2.4227761732e+00
 1.2573930721e+00	 1.1344122785e-01	 2.4053667288e+00
 1.2550976124e+00	 1.3651459064e-01	 2.3810011894e+00
 1.2523597089e+00	 1.5969160750e-01	 2.3495843995e+00
 1.2491723562e+00	 1.8296085490e-01	 2.3110285830e+00
 1.2455288933e+00	 2.0631050852e-01	 2.2652537484e+00
 1.2414230276e+00	 2.2972835367e-01	 2.2121880832e+00
 1.2750000000e+00	 0.0000000000e+00	 2.4275797161e+00
 1.2747993302e+00	 2.2620070782e-02	 2.4369280533e+00
 1.2741915820e+00	 4.5396172132e-02	 2.4395050180e+00
 1.2731683033e+00	 6.8318896063e-02	 2.4351825005e+00
 1.2717212698e+00	 9.1378399670e-02	 2.4238388098e+00
 1.2698425085e+00	 1.1456440833e-01	 2.4053591731e+00
 1.2675243214e+00	 1.3786622026e-01	 2.3796362295e+00
 1.2647593100e+00	 1.6127271253e-01	 2.3465705198e+00
 1.2615403994e+00	 1.8477234851e-01	 2.3060709649e+00
 1.2578608626e+00	 2.0835318682e-01	 2.2580553346e+00
 1.2537143447e+00	 2.3200289183e-01	 2.2024507001e+00
 1.2875000000e+00	 0.0000000000e+00	 2.4350957385e+00
 1.2872973629e+00	 2.2841836183e-02	 2.4444317248e+00
 1.2866836563e+00	 4.5841232645e-02	 2.4467413807e+00
 1.2856503455e+00	 6.8988689165e-02	 2.4418891030e+00
 1.2841891254e+00	 9.2274266337e-02	 2.4297464410e+00
 1.2822919448e+00	 1.1568758880e-01	 2.4101926603e+00
 1.2799510304e+00	 1.3921784987e-01	 2.3831153023e+00
 1.2771589111e+00	 1.6285381756e-01	 2.3484107363e+00
 1.2739084425e+00	 1.8658384213e-01	 2.3059847020e+00
 1.2701928318e+00	 2.1039586513e-01	 2.2557528382e+00
 1.2660056618e+00	 2.3427742998e-01	 2.1976411947e+00
 1.3000000000e+00	 0.0000000000e+00	 2.4473968883e+00
 1.2997953955e+00	 2.3063601584e-02	 2.4566912183e+00
 1.2991757306e+00	 4.6286293158e-02	 2.4587103831e+00
 1.2981323876e+00	 6.9658482265e-02	 2.4533114537e+00
 1.2966569810e+00	 9.3170133003e-02	 2.4403593792e+00
 1.2947413812e+00	 1.1681076928e-01	 2.4197276140e+00
 1.2923777395e+00	 1.4056947948e-01	 2.3912987415e+00
 1.2895585121e+00	 1.6443492259e-01	 2.3549650893e+00
 1.2862764856e+00	 1.8839533574e-01	 2.3106293333e+00
 1.2825248010e+00	 2.1243854343e-01	 2.2582050866e+00
 1.2782969789e+00	 2.3655196814e-01	 2.1976174692e+00
 1.3125000000e+00	 0.0000000000e+00	 2.4643465316e+00
 1.3122934282e+00	 2.3285366984e-02	 2.4735707341e+00
 1.3116678050e+00	 4.6731353670e-02	 2.4752768846e+00
 1.3106144298e+00	 7.0328275366e-02	 2.4693148916e+00
 1.3091248366e+00	 9.4065999669e-02	 2.4555432586e+00
 1.3071908176e+00	 1.1793394976e-01	 2.4338297747e+00
 1.3048044485e+00	 1.4192110910e-01	 2.4040522016e+00
 1.3019581132e+00	 1.6601602761e-01	 2.3660989508e+00
 1.2986445288e+00	 1.9020682936e-01	 2.3198697488e+00
 1.2948567703e+00	 2.1448122173e-01	 2.2652762849e+00
 1.2905882961e+00	 2.3882650630e-01	 2.2022428387e+00
 1.3250000000e+00	 0.0000000000e+00	 2.4858131905e+00
 1.3247914608e+00	 2.3507132385e-02	 2.4949395969e+00
 1.3241598793e+00	 4.7176414182e-02	 2.4963108444e+00
 1.3230964720e+00	 7.0998068466e-02	 2.4897698371e+00
 1.3215926922e+00	 9.4961866334e-02	 2.4751687834e+00
 1.3196402539e+00	 1.1905713023e-01	 2.4523699491e+00
 1.3172311575e+00	 1.4327273871e-01	 2.4212464064e+00
 1.3143577143e+00	 1.6759713264e-01	 2.3816827729e+00
 1.3110125719e+00	 1.9201832297e-01	 2.3335759367e+00
 1.3071887395e+00	 2.1652390004e-01	 2.2768357626e+00
 1.3028796132e+00	 2.4110104445e-01	 2.2113857763e+00
 1.3375000000e+00	 0.0000000000e+00	 2.5116703021e+00
 1.3372894935e+00	 2.3728897785e-02	 2.5206720165e+00
 1.3366519536e+00	 4.7621474694e-02	 2.5216870828e+00
 1.3355785142e+00	 7.1667861566e-02	 2.5145515547e+00
 1.3340605477e+00	 9.5857732998e-02	 2.4991114914e+00
 1.3320896903e+00	 1.2018031071e-01	 2.4752237736e+00
 1.3296578666e+00	 1.4462436832e-01	 2.4427569126e+00
 1.3267573154e+00	 1.6917823767e-01	 2.4015918507e+00
 1.3233806150e+00	 1.9382981658e-01	 2.3516227454e+00
 1.3195207088e+00	 2.1856657834e-01	 2.2927577338e+00
 1.3151709303e+00	 2.4337558261e-01	 2.2249196716e+00
 1.3500000000e+00	 0.0000000000e+00	 2.5417959910e+00
 1.3497875261e+00	 2.3950663185e-02	 2.5506468617e+00
 1.3491440280e+00	 4.8066535206e-02	 2.5512850565e+00
 1.3480605564e+00	 7.2337654665e-02	 2.5435399284e+00
 1.3465284033e+00	 9.6753599662e-02	 2.5272515301e+00
 1.3445391266e+00	 1.2130349118e-01	 2.5022714906e+00
 1.3420845756e+00	 1.4597599793e-01	 2.4684638857e+00
 1.3391569165e+00	 1.7075934269e-01	 2.4257060977e+00
 1.3357486581e+00	 1.9564131020e-01	 2.3738896586e+00
 1.3318526780e+00	 2.2060925664e-01	 2.3129210713e+00
 1.3274622474e+00	 2.4565012076e-01	 2.2427226036e+00
 1.3625000000e+00	 0.0000000000e+00	 2.5760728543e+00
 1.3622855588e+00	 2.4172428585e-02	 2.5847474461e+00
 1.3616361023e+00	 4.8511595717e-02	 2.5849886456e+00
 1.3605425986e+00	 7.3007447764e-02	 2.5766192505e+00
 1.3589962589e+00	 9.7649466326e-02	 2.5594734451e+00
 1.3569885630e+00	 1.2242667166e-01	 2.5333977372e+00
 1.3545112846e+00	 1.4732762754e-01	 2.4982518887e+00
 1.3515565175e+00	 1.7234044772e-01	 2.4539098342e+00
 1.3481167013e+00	 1.9745280381e-01	 2.4002605822e+00
 1.3441846472e+00	 2.2265193494e-01	 2.3372090926e+00
 1.3397535645e+00	 2.4792465892e-01	 2.2646771252e+00
 1.3750000000e+00	 0.0000000000e+00	 2.6143877585e+00
 1.3747835914e+00	 2.4394193985e-02	 2.6228613270e+00
 1.3741281766e+00	 4.8956656228e-02	 2.6226859530e+00
 1.3730246408e+00	 7.3677240862e-02	 2.6136780205e+00
 1.3714641145e+00	 9.8545332989e-02	 2.5956659802e+00
 1.3694379993e+00	 1.2354985213e-01	 2.5684913453e+00
 1.3669379937e+00	 1.4867925715e-01	 2.5320096822e+00
 1.3639561186e+00	 1.7392155274e-01	 2.4860915869e+00
 1.3604847444e+00	 1.9926429742e-01	 2.4306236437e+00
 1.3565166165e+00	 2.2469461325e-01	 2.3655093584e+00
 1.3520448816e+00	 2.5019919707e-01	 2.2906700599e+00
 1.2291317105e+00	 2.2745381552e-01	 2.2270011258e+00
 1.2246028307e+00	 2.5069484873e-01	 2.2000032176e+00
 1.2196048543e+00	 2.7397810005e-01	 2.1655646388e+00
 1.2141327860e+00	 2.9729039323e-01	 2.1236752877e+00
 1.2081820871e+00	 3.2061822210e-01	 2.0743376817e+00
 1.2017486978e+00	 3.4394776856e-01	 2.0175672063e+00
 1.1948290577e+00	 3.6726492214e-01	 1.9533923197e+00
 1.1874201265e+00	 3.9055530110e-01	 1.8818547080e+00
 1.1795194030e+00	 4.1380427495e-01	 1.8030093912e+00
 1.1711249430e+00	 4.3699698846e-01	 1.7169247749e+00
 1.1622353763e+00	 4.6011838694e-01	 1.6236826487e+00
 1.2414230276e+00	 2.2972835367e-01	 2.2121880832e+00
 1.2368488590e+00	 2.5320179722e-01	 2.1828559000e+00
 1.2318009029e+00	 2.7671788104e-01	 2.1458993919e+00
 1.2262741139e+00	 3.0026329716e-01	 2.1013044642e+00
 1.2202639080e+00	 3.2382440432e-01	 2.0490703789e+00
 1.2137661847e+00	 3.4738724624e-01	 1.9892100518e+00
 1.2067773482e+00	 3.7093757136e-01	 1.9217503009e+00
 1.1992943278e+00	 3.9446085410e-01	 1.8467320459e+00
 1.1913145970e+00	 4.1794231770e-01	 1.7642104527e+00
 1.1828361924e+00	 4.4136695834e-01	 1.6742550229e+00
 1.1738577301e+00	 4.6471957081e-01	 1.5769496241e+00
 1.2537143447e+00	 2.3200289183e-01	 2.2024507001e+00
 1.2490948873e+00	 2.5570874570e-01	 2.1707494936e+00
 1.2439969514e+00	 2.7945766204e-01	 2.1312452871e+00
 1.2384154418e+00	 3.0323620109e-01	 2.0839201282e+00
 1.2323457289e+00	 3.2703058654e-01	 2.0287701501e+00
 1.2257836717e+00	 3.5082672392e-01	 1.9658059155e+00
 1.2187256388e+00	 3.7461022057e-01	 1.8950527099e+00
 1.2111685290e+00	 3.9836640711e-01	 1.8165507828e+00
 1.2031097911e+00	 4.2208036044e-01	 1.7303555315e+00
 1.1945474419e+00	 4.4573692822e-01	 1.6365376265e+00
 1.1854800839e+00	 4.6932075467e-01	 1.5351830744e+00
 1.2660056618e+00	 2.3427742998e-01	 2.1976411947e+00
 1.2613409156e+00	 2.5821569419e-01	 2.1635372253e+00
 1.2561930000e+00	 2.8219744304e-01	 2.1214564154e+00
 1.2505567696e+00	 3.0620910502e-01	 2.0713770855e+00
 1.2444275498e+00	 3.3023676875e-01	 2.0132923631e+00
 1.2378011587e+00	 3.5426620160e-01	 1.9472105714e+00
 1.2306739294e+00	 3.7828286979e-01	 1.8731555678e+00
 1.2230427303e+00	 4.0227196012e-01	 1.7911670248e+00
 1.2149049851e+00	 4.2621840319e-01	 1.7013006542e+00
 1.2062586913e+00	 4.5010689810e-01	 1.6036283664e+00
 1.1971024376e+00	 4.7392193854e-01	 1.4982383661e+00
 1.2782969789e+00	 2.3655196814e-01	 2.1976174692e+00
 1.2735869439e+00	 2.6072264268e-01	 2.1610779674e+00
 1.2683890485e+00	 2.8493722404e-01	 2.1163924792e+00
 1.2626980975e+00	 3.0918200895e-01	 2.0635357259e+00
 1.2565093706e+00	 3.3344295097e-01	 2.0024979482e+00
 1.2498186457e+00	 3.5770567928e-01	 1.9332853406e+00
 1.2426222199e+00	 3.8195551901e-01	 1.8559204328e+00
 1.2349169316e+00	 4.0617751313e-01	 1.7704424121e+00
 1.2267001791e+00	 4.3035644594e-01	 1.6769073845e+00
 1.2179699407e+00	 4.5447686798e-01	 1.5753885697e+00
 1.2087247914e+00	 4.7852312241e-01	 1.4659764279e+00
 1.2905882961e+00	 2.3882650630e-01	 2.2022428387e+00
 1.2858329722e+00	 2.6322959116e-01	 2.1632359679e+00
 1.2805850970e+00	 2.8767700504e-01	 2.1159185258e+00
 1.2748394253e+00	 3.1215491288e-01	 2.0602617577e+00
 1.2685911915e+00	 3.3664913319e-01	 1.9962531336e+00
 1.2618361326e+00	 3.6114515697e-01	 1.9238968268e+00
 1.2545705105e+00	 3.8562816823e-01	 1.8432141374e+00
 1.2467911328e+00	 4.1008306613e-01	 1.7542438557e+00
 1.2384953731e+00	 4.3449448868e-01	 1.6570425600e+00
 1.2296811901e+00	 4.5884683786e-01	 1.5516848467e+00
 1.2203471452e+00	 4.8312430627e-01	 1.4382634868e+00
 1.3028796132e+00	 2.4110104445e-01	 2.2113857763e+00
 1.2980790005e+00	 2.6573653965e-01	 2.1698805978e+00
 1.2927811456e+00	 2.9041678604e-01	 2.1199046945e+00
 1.2869807532e+00	 3.1512781681e-01	 2.0614259565e+00
 1.2806730124e+00	 3.3985531541e-01	 1.9944291954e+00
 1.2738536196e+00	 3.6458463465e-01	 1.9189166674e+00
 1.2665188011e+00	 3.8930081745e-01	 1.8349085388e+00
 1.2586653341e+00	 4.1398861914e-01	 1.7424432884e+00
 1.2502905672e+00	 4.3863253143e-01	 1.6415780430e+00
 1.2413924396e+00	 4.6321680775e-01	 1.5323888405e+00
 1.2319694989e+00	 4.8772549014e-01	 1.4149708175e+00
 1.3151709303e+00	 2.4337558261e-01	 2.2249196716e+00
 1.3103250288e+00	 2.6824348814e-01	 2.1808861108e+00
 1.3049771941e+00	 2.9315656704e-01	 2.1282259793e+00
 1.2991220810e+00	 3.1810072074e-01	 2.0669039287e+00
 1.2927548332e+00	 3.4306149763e-01	 1.9969022216e+00
 1.2858711066e+00	 3.6802411234e-01	 1.9182212985e+00
 1.2784670917e+00	 3.9297346667e-01	 1.8308802845e+00
 1.2705395353e+00	 4.1789417216e-01	 1.7349174306e+00
 1.2620857612e+00	 4.4277057418e-01	 1.6303904858e+00
 1.2531036890e+00	 4.6758677763e-01	 1.5173769930e+00
 1.2435918527e+00	 4.9232667401e-01	 1.3959745065e+00
 1.3274622474e+00	 2.4565012076e-01	 2.2427226036e+00
 1.3225710571e+00	 2.7075043663e-01	 2.1961314181e+00
 1.3171732427e+00	 2.9589634804e-01	 2.1407620039e+00
 1.3112634089e+00	 3.2107362467e-01	 2.0765758875e+00
 1.3048366541e+00	 3.4626767985e-01	 2.0035528892e+00
 1.2978885936e+00	 3.7146359002e-01	 1.9216917322e+00
 1.2904153822e+00	 3.9664611589e-01	 1.8310105905e+00
 1.2824137366e+00	 4.2179972517e-01	 1.7315475686e+00
 1.2738809552e+00	 4.4690861693e-01	 1.6233611092e+00
 1.2648149384e+00	 4.7195674752e-01	 1.5065303219e+00
 1.2552142064e+00	 4.9692785789e-01	 1.3811552300e+00
 1.3397535645e+00	 2.4792465892e-01	 2.2646771252e+00
 1.3348170854e+00	 2.7325738511e-01	 2.2154998744e+00
 1.3293692912e+00	 2.9863612904e-01	 2.1573968094e+00
 1.3234047368e+00	 3.2404652861e-01	 2.0903264422e+00
 1.3169184750e+00	 3.4947386207e-01	 2.0142662541e+00
 1.3099060805e+00	 3.7490306771e-01	 1.9292133472e+00
 1.3023636728e+00	 4.0031876511e-01	 1.8351850318e+00
 1.2942879379e+00	 4.2570527818e-01	 1.7322193449e+00
 1.2856761493e+00	 4.5104665968e-01	 1.6203754924e+00
 1.2765261879e+00	 4.7632671740e-01	 1.4997342110e+00
 1.2668365602e+00	 5.0152904176e-01	 1.3703980425e+00
 1.3520448816e+00	 2.5019919707e-01	 2.2906700599e+00
 1.3470631137e+00	 2.7576433360e-01	 2.2388790756e+00
 1.3415653398e+00	 3.0137591004e-01	 2.1780186531e+00
 1.3355460646e+00	 3.2701943254e-01	 2.1080443976e+00
 1.3290002958e+00	 3.5268004430e-01	 2.0289315518e+00
 1.3219235675e+00	 3.7834254540e-01	 1.9406756899e+00
 1.3143119634e+00	 4.0399141433e-01	 1.8432933439e+00
 1.3061621391e+00	 4.2961083119e-01	 1.7368225601e+00
 1.2974713433e+00	 4.5518470244e-01	 1.6213233756e+00
 1.2882374373e+00	 4.8069668729e-01	 1.4968782121e+00
 1.2784589140e+00	 5.0613022563e-01	 1.3635921786e+00
 1.1622353763e+00	 4.6011838694e-01	 1.6236826487e+00
 1.1528499225e+00	 4.8315324299e-01	 1.5621245642e+00
 1.1429684046e+00	 5.0608618433e-01	 1.4931054654e+00
 1.1325912624e+00	 5.2890172284e-01	 1.4168040968e+00
 1.1217195625e+00	 5.5158428467e-01	 1.3334186249e+00
 1.1103550085e+00	 5.7411824130e-01	 1.2431662365e+00
 1.0984999480e+00	 5.9648794137e-01	 1.1462826375e+00
 1.0861573780e+00	 6.1867774334e-01	 1.0430214534e+00
 1.0733309490e+00	 6.4067204861e-01	 9.3365353377e-01
 1.0600249661e+00	 6.6245533520e-01	 8.1846616149e-01
 1.0462443890e+00	 6.8401219171e-01	 6.9776217157e-01
 1.1738577301e+00	 4.6471957081e-01	 1.5769496241e+00
 1.1643784217e+00	 4.8798477542e-01	 1.5119016758e+00
 1.1543980887e+00	 5.1114704617e-01	 1.4395000762e+00
 1.1439171750e+00	 5.3419074006e-01	 1.3599195776e+00
 1.1329367581e+00	 5.5710012751e-01	 1.2733541893e+00
 1.1214585586e+00	 5.7985942371e-01	 1.1800167969e+00
 1.1094849475e+00	 6.0245282079e-01	 1.0801386841e+00
 1.0970189518e+00	 6.2486452077e-01	 9.7396895686e-01
 1.0840642585e+00	 6.4707876909e-01	 8.6177387213e-01
 1.0706252158e+00	 6.6907988855e-01	 7.4383607278e-01
 1.0567068329e+00	 6.9085231363e-01	 6.2045373174e-01
 1.1854800839e+00	 4.6932075467e-01	 1.5351830744e+00
 1.1759069209e+00	 4.9281630785e-01	 1.4665679131e+00
 1.1658277727e+00	 5.1620790801e-01	 1.3907061962e+00
 1.1552430876e+00	 5.3947975729e-01	 1.3077688227e+00
 1.1441539537e+00	 5.6261597036e-01	 1.2179457859e+00
 1.1325621087e+00	 5.8560060612e-01	 1.1214458142e+00
 1.1204699470e+00	 6.0841770020e-01	 1.0184959143e+00
 1.1078805256e+00	 6.3105129820e-01	 9.0934081981e-01
 1.0947975680e+00	 6.5348548958e-01	 7.9424234291e-01
 1.0812254655e+00	 6.7570444191e-01	 6.7347863454e-01
 1.0671692768e+00	 6.9769243555e-01	 5.4734335362e-01
 1.1971024376e+00	 4.7392193854e-01	 1.4982383661e+00
 1.1874354202e+00	 4.9764784027e-01	 1.4259808921e+00
 1.1772574568e+00	 5.2126876985e-01	 1.3465836991e+00
 1.1665690002e+00	 5.4476877451e-01	 1.2602139672e+00
 1.1553711494e+00	 5.6813181320e-01	 1.1670578111e+00
 1.1436656588e+00	 5.9134178853e-01	 1.0673199412e+00
 1.1314549464e+00	 6.1438257961e-01	 9.6122322903e-01
 1.1187420994e+00	 6.3723807564e-01	 8.4900817801e-01
 1.1055308775e+00	 6.5989221007e-01	 7.3093229930e-01
 1.0918257151e+00	 6.8232899526e-01	 6.0726939577e-01
 1.0776317207e+00	 7.0453255747e-01	 4.7830875609e-01
 1.2087247914e+00	 4.7852312241e-01	 1.4659764279e+00
 1.1989639194e+00	 5.0247937270e-01	 1.3900037052e+00
 1.1886871408e+00	 5.2632963169e-01	 1.3069978481e+00
 1.1778949129e+00	 5.5005779174e-01	 1.2171224488e+00
 1.1665883450e+00	 5.7364765605e-01	 1.1205598767e+00
 1.1547692089e+00	 5.9708297095e-01	 1.0175109597e+00
 1.1424399459e+00	 6.2034745903e-01	 9.0819457132e-01
 1.1296036732e+00	 6.4342485307e-01	 7.9284712345e-01
 1.1162641870e+00	 6.6629893055e-01	 6.7172196552e-01
 1.1024259648e+00	 6.8895354861e-01	 5.4508869208e-01
 1.0880941646e+00	 7.1137267938e-01	 4.1323236112e-01
 1.2203471452e+00	 4.8312430627e-01	 1.4382634868e+00
 1.2104924186e+00	 5.0731090513e-01	 1.3585046601e+00
 1.2001168249e+00	 5.3139049354e-01	 1.2718190391e+00
 1.1892208255e+00	 5.5534680897e-01	 1.1783667551e+00
 1.1778055406e+00	 5.7916349890e-01	 1.0783265616e+00
 1.1658727590e+00	 6.0282415336e-01	 9.7189553581e-01
 1.1534249454e+00	 6.2631233844e-01	 8.5928868640e-01
 1.1404652469e+00	 6.4961163051e-01	 7.4073846838e-01
 1.1269974965e+00	 6.7270565104e-01	 6.1649420482e-01
 1.1130262144e+00	 6.9557810197e-01	 4.8682141768e-01
 1.0985566085e+00	 7.1821280130e-01	 3.5200106990e-01
 1.2319694989e+00	 4.8772549014e-01	 1.4149708175e+00
 1.2220209178e+00	 5.1214243756e-01	 1.3313570339e+00
 1.2115465089e+00	 5.3645135538e-01	 1.2409225586e+00
 1.2005467381e+00	 5.6063582620e-01	 1.1438241854e+00
 1.1890227363e+00	 5.8467934175e-01	 1.0402371776e+00
 1.1769763091e+00	 6.0856533577e-01	 9.3035498969e-01
 1.1644099449e+00	 6.3227721786e-01	 8.1438889508e-01
 1.1513268207e+00	 6.5579840794e-01	 6.9256752266e-01
 1.1377308060e+00	 6.7911237153e-01	 5.6513630067e-01
 1.1236264641e+00	 7.0220265532e-01	 4.3235681039e-01
 1.1090190524e+00	 7.2505292322e-01	 2.9450605145e-01
 1.2435918527e+00	 4.9232667401e-01	 1.3959745065e+00
 1.2335494171e+00	 5.1697396999e-01	 1.3084388408e+00
 1.2229761930e+00	 5.4151221723e-01	 1.2141883552e+00
 1.2118726507e+00	 5.6592484343e-01	 1.1133766256e+00
 1.2002399319e+00	 5.9019518460e-01	 1.0061755480e+00
 1.1880798591e+00	 6.1430651819e-01	 8.9277507803e-01
 1.1753949444e+00	 6.3824209727e-01	 7.7338287994e-01
 1.1621883945e+00	 6.6198518538e-01	 6.4822388358e-01
 1.1484641155e+00	 6.8551909201e-01	 5.1753975022e-01
 1.1342267138e+00	 7.0882720867e-01	 3.8158824866e-01
 1.1194814963e+00	 7.3189304514e-01	 2.4064254330e-01
 1.2552142064e+00	 4.9692785789e-01	 1.3811552300e+00
 1.2450779163e+00	 5.2180550243e-01	 1.2896326131e+00
 1.2344058770e+00	 5.4657307907e-01	 1.1915008236e+00
 1.2231985634e+00	 5.7121386066e-01	 1.0869103364e+00
 1.2114571275e+00	 5.9571102745e-01	 9.7602979880e-01
 1.1991834092e+00	 6.2004770061e-01	 8.5904578867e-01
 1.1863799439e+00	 6.4420697669e-01	 7.3616248340e-01
 1.1730499683e+00	 6.6817196281e-01	 6.0760123735e-01
 1.1591974249e+00	 6.9192581250e-01	 4.7360006921e-01
 1.1448269634e+00	 7.1545176203e-01	 3.3441305987e-01
 1.1299439402e+00	 7.3873316706e-01	 1.9030966303e-01
 1.2668365602e+00	 5.0152904176e-01	 1.3703980425e+00
 1.2566064155e+00	 5.2663703486e-01	 1.2748251935e+00
 1.2458355611e+00	 5.5163394092e-01	 1.1727486009e+00
 1.2345244760e+00	 5.7650287789e-01	 1.0643157522e+00
 1.2226743231e+00	 6.0122687030e-01	 9.4969216148e-01
 1.2102869593e+00	 6.2578888302e-01	 8.2906114654e-01
 1.1973649433e+00	 6.5017185611e-01	 7.0262351688e-01
 1.1839115421e+00	 6.7435874025e-01	 5.7059717160e-01
 1.1699307344e+00	 6.9833253299e-01	 4.3321660763e-01
 1.1554272131e+00	 7.2207631538e-01	 2.9073233919e-01
 1.1404063840e+00	 7.4557328897e-01	 1.4341023034e-01
 1.2784589140e+00	 5.0613022563e-01	 1.3635921786e+00
 1.2681349147e+00	 5.3146856729e-01	 1.2639075394e+00
 1.2572652451e+00	 5.5669480277e-01	 1.1578243736e+00
 1.2458503886e+00	 5.8179189513e-01	 1.0454872914e+00
 1.2338915188e+00	 6.0674271315e-01	 9.2705878625e-01
 1.2213905094e+00	 6.3153006544e-01	 8.0271903011e-01
 1.2083499428e+00	 6.5613673552e-01	 6.7266558045e-01
 1.1947731159e+00	 6.8054551769e-01	 5.3711299797e-01
 1.1806640439e+00	 7.0473925348e-01	 3.9629237544e-01
 1.1660274628e+00	 7.2870086873e-01	 2.5045077831e-01
 1.1508688279e+00	 7.5241341089e-01	 9.9850598788e-02
 1.0462443890e+00	 6.8401219171e-01	 6.9776217157e-01
 1.0319948291e+00	 7.0532735141e-01	 6.1027924485e-01
 1.0172825451e+00	 7.2638572638e-01	 5.1710085288e-01
 1.0021144359e+00	 7.4717244154e-01	 4.1863491303e-01
 9.8649803203e-01	 7.6767286833e-01	 3.1530815210e-01
 9.7044148446e-01	 7.8787265799e-01	 2.0756458659e-01
 9.5395355135e-01	 8.0775777424e-01	 9.5863899541e-02
 9.3704358299e-01	 8.2731452517e-01	-1.9320276255e-02
 9.1972150459e-01	 8.4652959426e-01	-1.3750215852e-01
 9.0199779716e-01	 8.6539007037e-01	-2.5818568791e-01
 8.8388347647e-01	 8.8388347647e-01	-3.8086646067e-01
 1.0567068329e+00	 6.9085231363e-01	 6.2045373174e-01
 1.0423147774e+00	 7.1238062492e-01	 5.3115190100e-01
 1.0274553705e+00	 7.3364958364e-01	 4.3657346671e-01
 1.0121355802e+00	 7.5464416595e-01	 3.3710976520e-01
 9.9636301235e-01	 7.7534959701e-01	 2.3316961788e-01
 9.8014589930e-01	 7.9575138457e-01	 1.2517787739e-01
 9.6349308686e-01	 8.1583535198e-01	 1.3573877606e-02
 9.4641401882e-01	 8.3558767042e-01	-1.0119020348e-01
 9.2891871964e-01	 8.5499489020e-01	-2.1865105804e-01
 9.1101777513e-01	 8.7404397107e-01	-3.3833602923e-01
 8.9272231124e-01	 8.9272231124e-01	-4.5976494719e-01
 1.0671692768e+00	 6.9769243555e-01	 5.4734335362e-01
 1.0526347257e+00	 7.1943389844e-01	 4.5604766272e-01
 1.0376281960e+00	 7.4091344091e-01	 3.5988819338e-01
 1.0221567246e+00	 7.6211589037e-01	 2.5924001357e-01
 1.0062279927e+00	 7.8302632570e-01	 1.5449436911e-01
 9.8985031415e-01	 8.0363011115e-01	 4.6057294750e-02
 9.7303262237e-01	 8.2391292973e-01	-6.5651863813e-02
 9.5578445465e-01	 8.4386081567e-01	-1.8020200852e-01
 9.3811593468e-01	 8.6346018615e-01	-2.9715191856e-01
 9.2003775310e-01	 8.8269787178e-01	-4.1605194088e-01
 9.0156114600e-01	 9.0156114600e-01	-5.3644573096e-01
 1.0776317207e+00	 7.0453255747e-01	 4.7830875609e-01
 1.0629546740e+00	 7.2648717195e-01	 3.8484934209e-01
 1.0478010214e+00	 7.4817729817e-01	 2.8693311403e-01
 1.0321778689e+00	 7.6958761479e-01	 1.8491917509e-01
 1.0160929730e+00	 7.9070305438e-01	 7.9181515676e-02
 9.9955472899e-01	 8.1150883773e-01	-2.9892311433e-02
 9.8257215788e-01	 8.3199050747e-01	-1.4190259826e-01
 9.6515489048e-01	 8.5213396092e-01	-2.5643896275e-01
 9.4731314973e-01	 8.7192548209e-01	-3.7308189494e-01
 9.2905773107e-01	 8.9135177248e-01	-4.9140435852e-01
 9.1039998077e-01	 9.1039998077e-01	-6.1097343760e-01
 1.0880941646e+00	 7.1137267938e-01	 4.1323236112e-01
 1.0732746223e+00	 7.3354044547e-01	 3.1744425842e-01
 1.0579738469e+00	 7.5544115544e-01	 2.1760061441e-01
 1.0421990133e+00	 7.7705933920e-01	 1.1404486226e-01
 1.0259579533e+00	 7.9837978306e-01	 7.1340479566e-03
 1.0092591438e+00	 8.1938756431e-01	-1.0276243152e-01
 9.9211169340e-01	 8.4006808521e-01	-2.1526416554e-01
 9.7452532631e-01	 8.6040710618e-01	-3.2998113462e-01
 9.5651036478e-01	 8.8039077803e-01	-4.4651517438e-01
 9.3807770905e-01	 9.0000567318e-01	-5.6446148929e-01
 9.1923881553e-01	 9.1923881553e-01	-6.8341020690e-01
 1.0985566085e+00	 7.1821280130e-01	 3.5200106990e-01
 1.0835945706e+00	 7.4059371898e-01	 2.5372402368e-01
 1.0681466723e+00	 7.6270501270e-01	 1.5178717992e-01
 1.0522201577e+00	 7.8453106362e-01	 4.6518588140e-02
 1.0358229336e+00	 8.0605651175e-01	-6.1741347987e-02
 1.0189635587e+00	 8.2726629089e-01	-1.7264107043e-01
 1.0016512289e+00	 8.4814566296e-01	-2.8581913526e-01
 9.8389576214e-01	 8.6868025143e-01	-4.0090554225e-01
 9.6570757982e-01	 8.8885607398e-01	-5.1752311772e-01
 9.4709768702e-01	 9.0865957389e-01	-6.3528894179e-01
 9.2807765030e-01	 9.2807765030e-01	-7.5381581120e-01
 1.1090190524e+00	 7.2505292322e-01	 2.9450605145e-01
 1.0939145189e+00	 7.4764699250e-01	 1.9358433995e-01
 1.0783194978e+00	 7.6996886997e-01	 8.9393202188e-02
 1.0622413020e+00	 7.9200278803e-01	-1.7754417659e-02
 1.0456879140e+00	 8.1373324043e-01	-1.2753446472e-01
 1.0286679735e+00	 8.3514501747e-01	-2.3961291202e-01
 1.0111907644e+00	 8.5622324070e-01	-3.5364696104e-01
 9.9326619797e-01	 8.7695339668e-01	-4.6928629723e-01
 9.7490479487e-01	 8.9732136992e-01	-5.8617439278e-01
 9.5611766499e-01	 9.1731347459e-01	-7.0394984862e-01
 9.3691648507e-01	 9.3691648507e-01	-8.2224776710e-01
 1.1194814963e+00	 7.3189304514e-01	 2.4064254330e-01
 1.1042344672e+00	 7.5470026601e-01	 1.3692480832e-01
 1.0884923232e+00	 7.7723272723e-01	 3.0322796585e-02
 1.0722624464e+00	 7.9947451245e-01	-7.8865382649e-02
 1.0555528943e+00	 8.2140996911e-01	-1.9033173801e-01
 1.0383723884e+00	 8.4302374405e-01	-3.0375947431e-01
 1.0207302999e+00	 8.6430081844e-01	-4.1882412618e-01
 1.0026366338e+00	 8.8522654193e-01	-5.3519474049e-01
 9.8410200992e-01	 9.0578666586e-01	-6.5253510018e-01
 9.6513764296e-01	 9.2596737530e-01	-7.7050498212e-01
 9.4575531983e-01	 9.4575531983e-01	-8.8876144081e-01
 1.1299439402e+00	 7.3873316706e-01	 1.9030966303e-01
 1.1145544155e+00	 7.6175353953e-01	 8.3648748403e-02
 1.0986651487e+00	 7.8449658449e-01	-2.5516370201e-02
 1.0822835907e+00	 8.0694623686e-01	-1.3690215548e-01
 1.0654178746e+00	 8.2908669779e-01	-2.5021640220e-01
 1.0480768032e+00	 8.5090247063e-01	-3.6515925600e-01
 1.0302698355e+00	 8.7237839618e-01	-4.8142428111e-01
 1.0120070696e+00	 8.9349968718e-01	-5.9869957055e-01
 9.9329922497e-01	 9.1425196180e-01	-7.1666889221e-01
 9.7415762093e-01	 9.3462127600e-01	-8.3501286358e-01
 9.5459415459e-01	 9.5459415459e-01	-9.5341014773e-01
 1.1404063840e+00	 7.4557328897e-01	 1.4341023034e-01
 1.1248743638e+00	 7.6880681304e-01	 3.3663027715e-02
 1.1088379741e+00	 7.9176044176e-01	-7.8213243061e-02
 1.0923047351e+00	 8.1441796128e-01	-1.9194936094e-01
 1.0752828549e+00	 8.3676342648e-01	-3.0726863707e-01
 1.0577812181e+00	 8.5878119721e-01	-4.2388787503e-01
 1.0398093710e+00	 8.8045597392e-01	-5.4151837337e-01
 1.0213775055e+00	 9.0177283243e-01	-6.5986696475e-01
 1.0024964400e+00	 9.2271725774e-01	-7.7863708513e-01
 9.8317759891e-01	 9.4327517670e-01	-8.9752986655e-01
 9.6343298936e-01	 9.6343298936e-01	-1.0162452465e+00
 1.1508688279e+00	 7.5241341089e-01	 9.9850598788e-02
 1.1351943120e+00	 7.7586008655e-01	-1.3122099555e-02
 1.1190107996e+00	 7.9902429902e-01	-1.2785353248e-01
 1.1023258795e+00	 8.2188968569e-01	-2.4408854647e-01
 1.0851478353e+00	 8.4444015516e-01	-3.6156570672e-01
 1.0674856329e+00	 8.6665992379e-01	-4.8001819948e-01
 1.0493489065e+00	 8.8853355166e-01	-5.9917477049e-01
 1.0307479413e+00	 9.1004597768e-01	-7.1876069383e-01
 1.0116936551e+00	 9.3118255368e-01	-8.3849876534e-01
 9.9219757688e-01	 9.5192907740e-01	-9.5811031446e-01
 9.7227182412e-01	 9.7227182412e-01	-1.0773162281e+00
 8.8388347647e-01	 8.8388347647e-01	-3.8086646067e-01
 8.6539007037e-01	 9.0199779716e-01	-4.8198882494e-01
 8.4652959426e-01	 9.1972150459e-01	-5.8491107408e-01
 8.2731452517e-01	 9.3704358299e-01	-6.8906747186e-01
 8.0775777424e-01	 9.5395355135e-01	-7.9388600467e-01
 7.8787265799e-01	 9.7044148446e-01	-8.9879071107e-01
 7.6767286833e-01	 9.8649803203e-01	-1.0032040255e+00
 7.4717244154e-01	 1.0021144359e+00	-1.1065491208e+00
 7.2638572638e-01	 1.0172825451e+00	-1.2082522335e+00
 7.0532735141e-01	 1.0319948291e+00	-1.3077449574e+00
 6.8401219171e-01	 1.0462443890e+00	-1.4044664908e+00
 8.9272231124e-01	 8.9272231124e-01	-4.5976494719e-01
 8.7404397107e-01	 9.1101777513e-01	-5.5886342607e-01
 8.5499489020e-01	 9.2891871964e-01	-6.5925433660e-01
 8.3558767042e-01	 9.4641401882e-01	-7.6040741627e-01
 8.1583535198e-01	 9.6349308686e-01	-8.6178761340e-01
 7.9575138457e-01	 9.8014589930e-01	-9.6285725789e-01
 7.7534959701e-01	 9.9636301235e-01	-1.0630782400e+00
 7.5464416595e-01	 1.0121355802e+00	-1.1619141826e+00
 7.3364958364e-01	 1.0274553705e+00	-1.2588325934e+00
 7.1238062492e-01	 1.0423147774e+00	-1.3533069813e+00
 6.9085231363e-01	 1.0567068329e+00	-1.4448189263e+00
 9.0156114600e-01	 9.0156114600e-01	-5.3644573096e-01
 8.8269787178e-01	 9.2003775310e-01	-6.3380316934e-01
 8.6346018615e-01	 9.3811593468e-01	-7.3195387539e-01
 8.4386081567e-01	 9.5578445465e-01	-8.3040249131e-01
 8.2391292973e-01	 9.7303262237e-01	-9.2865033963e-01
 8.0363011115e-01	 9.8985031415e-01	-1.0261974373e+00
 7.8302632570e-01	 1.0062279927e+00	-1.1225445118e+00
 7.6211589037e-01	 1.0221567246e+00	-1.2171950056e+00
 7.4091344091e-01	 1.0376281960e+00	-1.3096570569e+00
 7.1943389844e-01	 1.0526347257e+00	-1.3994454422e+00
 6.9769243555e-01	 1.0671692768e+00	-1.4860834703e+00
 9.1039998077e-01	 9.1039998077e-01	-6.1097343760e-01
 8.9135177248e-01	 9.2905773107e-01	-7.0686444456e-01
 8.7192548209e-01	 9.4731314973e-01	-8.0305760302e-01
 8.5213396092e-01	 9.6515489048e-01	-8.9909190745e-01
 8.3199050747e-01	 9.8257215788e-01	-9.9450448398e-01
 8.1150883773e-01	 9.9955472899e-01	-1.0888324500e+00
 7.9070305438e-01	 1.0160929730e+00	-1.1816147695e+00
 7.6958761479e-01	 1.0321778689e+00	-1.2723940924e+00
 7.4817729817e-01	 1.0478010214e+00	-1.3607185658e+00
 7.2648717195e-01	 1.0629546740e+00	-1.4461436048e+00
 7.0453255747e-01	 1.0776317207e+00	-1.5282336132e+00
 9.1923881553e-01	 9.1923881553e-01	-6.8341020690e-01
 9.0000567318e-01	 9.3807770905e-01	-7.7810147245e-01
 8.8039077803e-01	 9.5651036478e-01	-8.7261158901e-01
 8.6040710618e-01	 9.7452532631e-01	-9.6651336678e-01
 8.4006808521e-01	 9.9211169340e-01	-1.0593791814e+00
 8.1938756431e-01	 1.0092591438e+00	-1.1507826809e+00
 7.9837978306e-01	 1.0259579533e+00	-1.2403004826e+00
 7.7705933920e-01	 1.0421990133e+00	-1.3275138493e+00
 7.5544115544e-01	 1.0579738469e+00	-1.4120103331e+00
 7.3354044547e-01	 1.0732746223e+00	-1.4933853770e+00
 7.1137267938e-01	 1.0880941646e+00	-1.5712438645e+00
 9.2807765030e-01	 9.2807765030e-01	-7.5381581120e-01
 9.0865957389e-01	 9.4709768702e-01	-8.4756640797e-01
 8.8885607398e-01	 9.6570757982e-01	-9.4066014760e-01
 8.6868025143e-01	 9.8389576214e-01	-1.0327031349e+00
 8.4814566296e-01	 1.0016512289e+00	-1.1233024566e+00
 8.2726629089e-01	 1.0189635587e+00	-1.2120677380e+00
 8.0605651175e-01	 1.0358229336e+00	-1.2986126833e+00
 7.8453106362e-01	 1.0522201577e+00	-1.3825565903e+00
 7.6270501270e-01	 1.0681466723e+00	-1.4635258298e+00
 7.4059371898e-01	 1.0835945706e+00	-1.5411552795e+00
 7.1821280130e-01	 1.0985566085e+00	-1.6150897045e+00
 9.3691648507e-01	 9.3691648507e-01	-8.2224776710e-01
 9.1731347459e-01	 9.5611766499e-01	-9.1530943771e-01
 8.9732136992e-01	 9.7490479487e-01	-1.0072459205e+00
 8.7695339668e-01	 9.9326619797e-01	-1.0976961085e+00
 8.5622324070e-01	 1.0111907644e+00	-1.1863012765e+00
 8.3514501747e-01	 1.0286679735e+00	-1.2727064892e+00
 8.1373324043e-01	 1.0456879140e+00	-1.3565619871e+00
 7.9200278803e-01	 1.0622413020e+00	-1.4375245420e+00
 7.6996886997e-01	 1.0783194978e+00	-1.5152587732e+00
 7.4764699250e-01	 1.0939145189e+00	-1.5894384166e+00
 7.2505292322e-01	 1.1090190524e+00	-1.6597475383e+00
 9.4575531983e-01	 9.4575531983e-01	-8.8876144081e-01
 9.2596737530e-01	 9.6513764296e-01	-9.8137887191e-01
 9.0578666586e-01	 9.8410200992e-01	-1.0724099552e+00
 8.8522654193e-01	 1.0026366338e+00	-1.1615258796e+00
 8.6430081844e-01	 1.0207302999e+00	-1.2484015996e+00
 8.4302374405e-01	 1.0383723884e+00	-1.3327170967e+00
 8.2140996911e-01	 1.0555528943e+00	-1.4141586125e+00
 7.9947451245e-01	 1.0722624464e+00	-1.4924198472e+00
 7.7723272723e-01	 1.0884923232e+00	-1.5672031149e+00
 7.5470026601e-01	 1.1042344672e+00	-1.6382204493e+00
 7.3189304514e-01	 1.1194814963e+00	-1.7051946527e+00
 9.5459415459e-01	 9.5459415459e-01	-9.5341014773e-01
 9.3462127600e-01	 9.7415762093e-01	-1.0458212313e+00
 9.1425196180e-01	 9.9329922497e-01	-1.1361917786e+00
 8.9349968718e-01	 1.0120070696e+00	-1.2242247957e+00
 8.7237839618e-01	 1.0302698355e+00	-1.3096284227e+00
 8.5090247063e-01	 1.0480768032e+00	-1.3921170497e+00
 8.2908669779e-01	 1.0654178746e+00	-1.4714123991e+00
 8.0694623686e-01	 1.0822835907e+00	-1.5472445691e+00
 7.8449658449e-01	 1.0986651487e+00	-1.6193530302e+00
 7.6175353953e-01	 1.1145544155e+00	-1.6874875692e+00
 7.3873316706e-01	 1.1299439402e+00	-1.7514091754e+00
 9.6343298936e-01	 9.6343298936e-01	-1.0162452465e+00
 9.4327517670e-01	 9.8317759891e-01	-1.1086813293e+00
 9.2271725774e-01	 1.0024964400e+00	-1.1986294667e+00
 9.0177283243e-01	 1.0213775055e+00	-1.2858240170e+00
 8.8045597392e-01	 1.0398093710e+00	-1.3700058251e+00
 8.5878119721e-01	 1.0577812181e+00	-1.4509231952e+00
 8.3676342648e-01	 1.0752828549e+00	-1.5283328250e+00
 8.1441796128e-01	 1.0923047351e+00	-1.6020006950e+00
 7.9176044176e-01	 1.1088379741e+00	-1.6717029080e+00
 7.6880681304e-01	 1.1248743638e+00	-1.7372264742e+00
 7.4557328897e-01	 1.1404063840e+00	-1.7983700363e+00
 9.7227182412e-01	 9.7227182412e-01	-1.0773162281e+00
 9.5192907740e-01	 9.9219757688e-01	-1.1700023493e+00
 9.3118255368e-01	 1.0116936551e+00	-1.2597597109e+00
 9.1004597768e-01	 1.0307479413e+00	-1.3463535704e+00
 8.8853355166e-01	 1.0493489065e+00	-1.4295570100e+00
 8.6665992379e-01	 1.0674856329e+00	-1.5091517675e+00
 8.4444015516e-01	 1.0851478353e+00	-1.5849290236e+00
 8.2188968569e-01	 1.1023258795e+00	-1.6566901393e+00
 7.9902429902e-01	 1.1190107996e+00	-1.7242473406e+00
 7.7586008655e-01	 1.1351943120e+00	-1.7874243457e+00
 7.5241341089e-01	 1.1508688279e+00	-1.8460569313e+00
 6.8401219171e-01	 1.0462443890e+00	-1.4044664908e+00
 6.6245533520e-01	 1.0600249661e+00	-1.5053820296e+00
 6.4067204861e-01	 1.0733309490e+00	-1.6028488807e+00
 6.1867774334e-01	 1.0861573780e+00	-1.6963458673e+00
 5.9648794137e-01	 1.0984999480e+00	-1.7853640747e+00
 5.7411824130e-01	 1.1103550085e+00	-1.8694087332e+00
 5.5158428467e-01	 1.1217195625e+00	-1.9480010017e+00
 5.2890172284e-01	 1.1325912624e+00	-2.0206796412e+00
 5.0608618433e-01	 1.1429684046e+00	-2.0870025713e+00
 4.8315324299e-01	 1.1528499225e+00	-2.1465483001e+00
 4.6011838694e-01	 1.1622353763e+00	-2.1989172246e+00
 6.9085231363e-01	 1.0567068329e+00	-1.4448189263e+00
 6.6907988855e-01	 1.0706252158e+00	-1.5404036985e+00
 6.4707876909e-01	 1.0840642585e+00	-1.6322421192e+00
 6.2486452077e-01	 1.0970189518e+00	-1.7198556970e+00
 6.0245282079e-01	 1.1094849475e+00	-1.8027786630e+00
 5.7985942371e-01	 1.1214585586e+00	-1.8805596725e+00
 5.5710012751e-01	 1.1329367581e+00	-1.9527634080e+00
 5.3419074006e-01	 1.1439171750e+00	-2.0189720764e+00
 5.1114704617e-01	 1.1543980887e+00	-2.0787867918e+00
 4.8798477542e-01	 1.1643784217e+00	-2.1318288390e+00
 4.6471957081e-01	 1.1738577301e+00	-2.1777408113e+00
 6.9769243555e-01	 1.0671692768e+00	-1.4860834703e+00
 6.7570444191e-01	 1.0812254655e+00	-1.5766591279e+00
 6.5348548958e-01	 1.0947975680e+00	-1.6631965857e+00
 6.3105129820e-01	 1.1078805256e+00	-1.7452593805e+00
 6.0841770020e-01	 1.1204699470e+00	-1.8224242272e+00
 5.8560060612e-01	 1.1325621087e+00	-1.8942825406e+00
 5.6261597036e-01	 1.1441539537e+00	-1.9604418615e+00
 5.3947975729e-01	 1.1552430876e+00	-2.0205271782e+00
 5.1620790801e-01	 1.1658277727e+00	-2.0741821400e+00
 4.9281630785e-01	 1.1759069209e+00	-2.1210701542e+00
 4.6932075467e-01	 1.1854800839e+00	-2.1608753657e+00
 7.0453255747e-01	 1.0776317207e+00	-1.5282336132e+00
 6.8232899526e-01	 1.0918257151e+00	-1.6141124422e+00
 6.5989221007e-01	 1.1055308775e+00	-1.6956668693e+00
 6.3723807564e-01	 1.1187420994e+00	-1.7725018215e+00
 6.1438257961e-01	 1.1314549464e+00	-1.8442358543e+00
 5.9134178853e-01	 1.1436656588e+00	-1.9105024966e+00
 5.6813181320e-01	 1.1553711494e+00	-1.9709515006e+00
 5.4476877451e-01	 1.1665690002e+00	-2.0252499921e+00
 5.2126876985e-01	 1.1772574568e+00	-2.0730835145e+00
 4.9764784027e-01	 1.1874354202e+00	-2.1141569634e+00
 4.7392193854e-01	 1.1971024376e+00	-2.1481954084e+00
 7.1137267938e-01	 1.0880941646e+00	-1.5712438645e+00
 6.8895354861e-01	 1.1024259648e+00	-1.6527291451e+00
 6.6629893055e-01	 1.1162641870e+00	-1.7296093050e+00
 6.4342485307e-01	 1.1296036732e+00	-1.8015300418e+00
 6.2034745903e-01	 1.1424399459e+00	-1.8681511274e+00
 5.9708297095e-01	 1.1547692089e+00	-1.9291475772e+00
 5.7364765605e-01	 1.1665883450e+00	-1.9842107275e+00
 5.5005779174e-01	 1.1778949129e+00	-2.0330492153e+00
 5.2632963169e-01	 1.1886871408e+00	-2.0753898560e+00
 5.0247937270e-01	 1.1989639194e+00	-2.1109784175e+00
 4.7852312241e-01	 1.2087247914e+00	-2.1395802855e+00
 7.1821280130e-01	 1.0985566085e+00	-1.6150897045e+00
 6.9557810197e-01	 1.1130262144e+00	-1.6924760541e+00
 6.7270565104e-01	 1.1269974965e+00	-1.7649818910e+00
 6.4961163051e-01	 1.1404652469e+00	-1.8322930815e+00
 6.2631233844e-01	 1.1534249454e+00	-1.8941100070e+00
 6.0282415336e-01	 1.1658727590e+00	-1.9501485603e+00
 5.7916349890e-01	 1.1778055406e+00	-2.0001410522e+00
 5.5534680897e-01	 1.1892208255e+00	-2.0438370226e+00
 5.3139049354e-01	 1.2001168249e+00	-2.0810039549e+00
 5.0731090513e-01	 1.2104924186e+00	-2.1114278900e+00
 4.8312430627e-01	 1.2203471452e+00	-2.1349139390e+00
 7.2505292322e-01	 1.1090190524e+00	-1.6597475383e+00
 7.0220265532e-01	 1.1236264641e+00	-1.7333212387e+00
 6.7911237153e-01	 1.1377308060e+00	-1.8017442101e+00
 6.5579840794e-01	 1.1513268207e+00	-1.8647419030e+00
 6.3227721786e-01	 1.1644099449e+00	-1.9220547187e+00
 6.0856533577e-01	 1.1769763091e+00	-1.9734388357e+00
 5.8467934175e-01	 1.1890227363e+00	-2.0186669464e+00
 5.6063582620e-01	 1.2005467381e+00	-2.0575289028e+00
 5.3645135538e-01	 1.2115465089e+00	-2.0898322691e+00
 5.1214243756e-01	 1.2220209178e+00	-2.1154027775e+00
 4.8772549014e-01	 1.2319694989e+00	-2.1340846903e+00
 7.3189304514e-01	 1.1194814963e+00	-1.7051946527e+00
 7.0882720867e-01	 1.1342267138e+00	-1.7752339612e+00
 6.8551909201e-01	 1.1484641155e+00	-1.8398573555e+00
 6.6198518538e-01	 1.1621883945e+00	-1.8988293015e+00
 6.3824209727e-01	 1.1753949444e+00	-1.9519296479e+00
 6.1430651819e-01	 1.1880798591e+00	-1.9989542828e+00
 5.9019518460e-01	 1.2002399319e+00	-2.0397157046e+00
 5.6592484343e-01	 1.2118726507e+00	-2.0740435036e+00
 5.4151221723e-01	 1.2229761930e+00	-2.1017847532e+00
 5.1697396999e-01	 1.2335494171e+00	-2.1228043121e+00
 4.9232667401e-01	 1.2435918527e+00	-2.1369850351e+00
 7.3873316706e-01	 1.1299439402e+00	-1.7514091754e+00
 7.1545176203e-01	 1.1448269634e+00	-1.8181846225e+00
 6.9192581250e-01	 1.1591974249e+00	-1.8792838611e+00
 6.6817196281e-01	 1.1730499683e+00	-1.9345098204e+00
 6.4420697669e-01	 1.1863799439e+00	-1.9836812388e+00
 6.2004770061e-01	 1.1991834092e+00	-2.0266331552e+00
 5.9571102745e-01	 1.2114571275e+00	-2.0632173141e+00
 5.7121386066e-01	 1.2231985634e+00	-2.0933024850e+00
 5.4657307907e-01	 1.2344058770e+00	-2.1167746964e+00
 5.2180550243e-01	 1.2450779163e+00	-2.1335373832e+00
 4.9692785789e-01	 1.2552142064e+00	-2.1435114505e+00
 7.4557328897e-01	 1.1404063840e+00	-1.7983700363e+00
 7.2207631538e-01	 1.1554272131e+00	-1.8621447090e+00
 6.9833253299e-01	 1.1699307344e+00	-1.9199876355e+00
 6.7435874025e-01	 1.1839115421e+00	-1.9717396705e+00
 6.5017185611e-01	 1.1973649433e+00	-2.0172579011e+00
 6.2578888302e-01	 1.2102869593e+00	-2.0564159725e+00
 6.0122687030e-01	 1.2226743231e+00	-2.0891043306e+00
 5.7650287789e-01	 1.2345244760e+00	-2.1152303818e+00
 5.5163394092e-01	 1.2458355611e+00	-2.1347185695e+00
 5.2663703486e-01	 1.2566064155e+00	-2.1475103704e+00
 5.0152904176e-01	 1.2668365602e+00	-2.1535642120e+00
 7.5241341089e-01	 1.1508688279e+00	-1.8460569313e+00
 7.2870086873e-01	 1.1660274628e+00	-1.9070867435e+00
 7.0473925348e-01	 1.1806640439e+00	-1.9619338989e+00
 6.8054551769e-01	 1.1947731159e+00	-2.0104766549e+00
 6.5613673552e-01	 1.2083499428e+00	-2.0526099198e+00
 6.3153006544e-01	 1.2213905094e+00	-2.0882454163e+00
 6.0674271315e-01	 1.2338915188e+00	-2.1173117624e+00
 5.8179189513e-01	 1.2458503886e+00	-2.1397544725e+00
 5.5669480277e-01	 1.2572652451e+00	-2.1555358803e+00
 5.3146856729e-01	 1.2681349147e+00	-2.1646349845e+00
 5.0613022563e-01	 1.2784589140e+00	-2.1670472212e+00
 4.6011838694e-01	 1.1622353763e+00	-2.1989172246e+00
 4.3699698846e-01	 1.1711249430e+00	-2.2855795502e+00
 4.1380427495e-01	 1.1795194030e+00	-2.3642763294e+00
 3.9055530110e-01	 1.1874201265e+00	-2.4347460498e+00
 3.6726492214e-01	 1.1948290577e+00	-2.4967496672e+00
 3.4394776856e-01	 1.2017486978e+00	-2.5500710179e+00
 3.2061822210e-01	 1.2081820871e+00	-2.5945171149e+00
 2.9729039323e-01	 1.2141327860e+00	-2.6299183300e+00
 2.7397810005e-01	 1.2196048543e+00	-2.6561284631e+00
 2.5069484873e-01	 1.2246028307e+00	-2.6730247042e+00
 2.2745381552e-01	 1.2291317105e+00	-2.6805074914e+00
 4.6471957081e-01	 1.1738577301e+00	-2.1777408113e+00
 4.4136695834e-01	 1.1828361924e+00	-2.2587394728e+00
 4.1794231770e-01	 1.1913145970e+00	-2.3318041910e+00
 3.9446085410e-01	 1.1992943278e+00	-2.3967034461e+00
 3.7093757136e-01	 1.2067773482e+00	-2.4532276429e+00
 3.4738724624e-01	 1.2137661847e+00	-2.5011894210e+00
 3.2382440432e-01	 1.2202639080e+00	-2.5404238556e+00
 3.0026329716e-01	 1.2262741139e+00	-2.5707885492e+00
 2.7671788104e-01	 1.2318009029e+00	-2.5921636196e+00
 2.5320179722e-01	 1.2368488590e+00	-2.6044515859e+00
 2.2972835367e-01	 1.2414230276e+00	-2.6075771592e+00
 4.6932075467e-01	 1.1854800839e+00	-2.1608753657e+00
 4.4573692822e-01	 1.1945474419e+00	-2.2364625878e+00
 4.2208036044e-01	 1.2031097911e+00	-2.3041489560e+00
 3.9836640711e-01	 1.2111685290e+00	-2.3637324752e+00
 3.7461022057e-01	 1.2187256388e+00	-2.4150325380e+00
 3.5082672392e-01	 1.2257836717e+00	-2.4578901352e+00
 3.2703058654e-01	 1.2323457289e+00	-2.4921679610e+00
 3.0323620109e-01	 1.2384154418e+00	-2.5177504176e+00
 2.7945766204e-01	 1.2439969514e+00	-2.5345435208e+00
 2.5570874570e-01	 1.2490948873e+00	-2.5424747129e+00
 2.3200289183e-01	 1.2537143447e+00	-2.5414925852e+00
 4.7392193854e-01	 1.1971024376e+00	-2.1481954084e+00
 4.5010689810e-01	 1.2062586913e+00	-2.2186160719e+00
 4.2621840319e-01	 1.2149049851e+00	-2.2811704144e+00
 4.0227196012e-01	 1.2230427303e+00	-2.3356855103e+00
 3.7828286979e-01	 1.2306739294e+00	-2.3820092929e+00
 3.5426620160e-01	 1.2378011587e+00	-2.4200106647e+00
 3.3023676875e-01	 1.2444275498e+00	-2.4495795096e+00
 3.0620910502e-01	 1.2505567696e+00	-2.4706266100e+00
 2.8219744304e-01	 1.2561930000e+00	-2.4830834727e+00
 2.5821569419e-01	 1.2613409156e+00	-2.4869020684e+00
 2.3427742998e-01	 1.2660056618e+00	-2.4820544879e+00
 4.7852312241e-01	 1.2087247914e+00	-2.1395802855e+00
 4.5447686798e-01	 1.2179699407e+00	-2.2050722101e+00
 4.3035644594e-01	 1.2267001791e+00	-2.2627337482e+00
 4.0617751313e-01	 1.2349169316e+00	-2.3124206023e+00
 3.8195551901e-01	 1.2426222199e+00	-2.3540088117e+00
 3.5770567928e-01	 1.2498186457e+00	-2.3873947639e+00
 3.3344295097e-01	 1.2565093706e+00	-2.4124951150e+00
 3.0918200895e-01	 1.2626980975e+00	-2.4292466211e+00
 2.8493722404e-01	 1.2683890485e+00	-2.4376058844e+00
 2.6072264268e-01	 1.2735869439e+00	-2.4375490206e+00
 2.3655196814e-01	 1.2782969789e+00	-2.4290712502e+00
 4.8312430627e-01	 1.2203471452e+00	-2.1349139390e+00
 4.5884683786e-01	 1.2296811901e+00	-2.1957081524e+00
 4.3449448868e-01	 1.2384953731e+00	-2.2487092752e+00
 4.1008306613e-01	 1.2467911328e+00	-2.2938012093e+00
 3.8562816823e-01	 1.2545705105e+00	-2.3308876776e+00
 3.6114515697e-01	 1.2618361326e+00	-2.3598921384e+00
 3.3664913319e-01	 1.2685911915e+00	-2.3807576148e+00
 3.1215491288e-01	 1.2748394253e+00	-2.3934464408e+00
 2.8767700504e-01	 1.2805850970e+00	-2.3979399300e+00
 2.6322959116e-01	 1.2858329722e+00	-2.3942379710e+00
 2.3882650630e-01	 1.2905882961e+00	-2.3823585544e+00
 4.8772549014e-01	 1.2319694989e+00	-2.1340846903e+00
 4.6321680775e-01	 1.2413924396e+00	-2.1904056842e+00
 4.3863253143e-01	 1.2502905672e+00	-2.2389722063e+00
 4.1398861914e-01	 1.2586653341e+00	-2.2796959415e+00
 3.8930081745e-01	 1.2665188011e+00	-2.3125078856e+00
 3.6458463465e-01	 1.2738536196e+00	-2.3373581654e+00
 3.3985531541e-01	 1.2806730124e+00	-2.3542157768e+00
 3.1512781681e-01	 1.2869807532e+00	-2.3630682477e+00
 2.9041678604e-01	 1.2927811456e+00	-2.3639212297e+00
 2.6573653965e-01	 1.2980790005e+00	-2.3567980226e+00
 2.4110104445e-01	 1.3028796132e+00	-2.3417390379e+00
 4.9232667401e-01	 1.2435918527e+00	-2.1369850351e+00
 4.6758677763e-01	 1.2531036890e+00	-2.1890510097e+00
 4.4277057418e-01	 1.2620857612e+00	-2.2334024173e+00
 4.1789417216e-01	 1.2705395353e+00	-2.2699783203e+00
 3.9297346667e-01	 1.2784670917e+00	-2.2987365895e+00
 3.6802411234e-01	 1.2858711066e+00	-2.3196536281e+00
 3.4306149763e-01	 1.2927548332e+00	-2.3327240220e+00
 3.1810072074e-01	 1.2991220810e+00	-2.3379601200e+00
 2.9315656704e-01	 1.3049771941e+00	-2.3353915484e+00
 2.6824348814e-01	 1.3103250288e+00	-2.3250646669e+00
 2.4337558261e-01	 1.3151709303e+00	-2.3070419683e+00
 4.9692785789e-01	 1.2552142064e+00	-2.1435114505e+00
 4.7195674752e-01	 1.2648149384e+00	-2.1915345473e+00
 4.4690861693e-01	 1.2738809552e+00	-2.2318842322e+00
 4.2179972517e-01	 1.2824137366e+00	-2.2645265516e+00
 3.9664611589e-01	 1.2904153822e+00	-2.2894458628e+00
 3.7146359002e-01	 1.2978885936e+00	-2.3066444653e+00
 3.4626767985e-01	 1.3048366541e+00	-2.3161421630e+00
 3.2107362467e-01	 1.3112634089e+00	-2.3179757621e+00
 2.9589634804e-01	 1.3171732427e+00	-2.3121985113e+00
 2.7075043663e-01	 1.3225710571e+00	-2.2988794879e+00
 2.4565012076e-01	 1.3274622474e+00	-2.2781029362e+00
 5.0152904176e-01	 1.2668365602e+00	-2.1535642120e+00
 4.7632671740e-01	 1.2765261879e+00	-2.1977507366e+00
 4.5104665968e-01	 1.2856761493e+00	-2.2343062201e+00
 4.2570527818e-01	 1.2942879379e+00	-2.2632233099e+00
 4.0031876511e-01	 1.3023636728e+00	-2.2845124732e+00
 3.7490306771e-01	 1.3099060805e+00	-2.2982015355e+00
 3.4947386207e-01	 1.3169184750e+00	-2.3043351565e+00
 3.2404652861e-01	 1.3234047368e+00	-2.3029742471e+00
 2.9863612904e-01	 1.3293692912e+00	-2.2941953349e+00
 2.7325738511e-01	 1.3348170854e+00	-2.2780898828e+00
 2.4792465892e-01	 1.3397535645e+00	-2.2547635656e+00
 5.0613022563e-01	 1.2784589140e+00	-2.1670472212e+00
 4.8069668729e-01	 1.2882374373e+00	-2.2075978551e+00
 4.5518470244e-01	 1.2974713433e+00	-2.2405610015e+00
 4.2961083119e-01	 1.3061621391e+00	-2.2659555362e+00
 4.0399141433e-01	 1.3143119634e+00	-2.2838176693e+00
 3.7834254540e-01	 1.3219235675e+00	-2.2942003927e+00
 3.5268004430e-01	 1.3290002958e+00	-2.2971728695e+00
 3.2701943254e-01	 1.3355460646e+00	-2.2928197720e+00
 3.0137591004e-01	 1.3415653398e+00	-2.2812405732e+00
 2.7576433360e-01	 1.3470631137e+00	-2.2625487978e+00
 2.5019919707e-01	 1.3520448816e+00	-2.2368712391e+00
 2.2745381552e-01	 1.2291317105e+00	-2.6805074914e+00
 2.0426783021e-01	 1.2331969241e+00	-2.7388230825e+00
 1.8114936128e-01	 1.2368043131e+00	-2.7874722560e+00
 1.5811050247e-01	 1.2399601078e+00	-2.8264937273e+00
 1.3516296103e-01	 1.2426709033e+00	-2.8559441486e+00
 1.1231804737e-01	 1.2449436358e+00	-2.8758973977e+00
 8.9586666336e-02	 1.2467855586e+00	-2.8864438242e+00
 6.6979309859e-02	 1.2482042189e+00	-2.8876894600e+00
 4.4506051105e-02	 1.2492074333e+00	-2.8797551998e+00
 2.2176539980e-02	 1.2498032649e+00	-2.8627759566e+00
 0.0000000000e+00	 1.2500000000e+00	-2.8368997991e+00
 2.2972835367e-01	 1.2414230276e+00	-2.6075771592e+00
 2.0631050852e-01	 1.2455288933e+00	-2.6627341241e+00
 1.8296085490e-01	 1.2491723562e+00	-2.7084943408e+00
 1.5969160750e-01	 1.2523597089e+00	-2.7449029274e+00
 1.3651459064e-01	 1.2550976124e+00	-2.7720223043e+00
 1.1344122785e-01	 1.2573930721e+00	-2.7899314782e+00
 9.0482533003e-02	 1.2592534142e+00	-2.7987252873e+00
 6.7649102962e-02	 1.2606862611e+00	-2.7985136136e+00
 4.4951111618e-02	 1.2616995076e+00	-2.7894205671e+00
 2.2398305381e-02	 1.2623012976e+00	-2.7715836489e+00
 0.0000000000e+00	 1.2625000000e+00	-2.7451528972e+00
 2.3200289183e-01	 1.2537143447e+00	-2.5414925852e+00
 2.0835318682e-01	 1.2578608626e+00	-2.5935929788e+00
 1.8477234851e-01	 1.2615403994e+00	-2.6365647604e+00
 1.6127271253e-01	 1.2647593100e+00	-2.6704593165e+00
 1.3786622026e-01	 1.2675243214e+00	-2.6953447081e+00
 1.1456440833e-01	 1.2698425085e+00	-2.7113049513e+00
 9.1378399670e-02	 1.2717212698e+00	-2.7184392612e+00
 6.8318896063e-02	 1.2731683033e+00	-2.7168612655e+00
 4.5396172132e-02	 1.2741915820e+00	-2.7066981939e+00
 2.2620070782e-02	 1.2747993302e+00	-2.6880900470e+00
 0.0000000000e+00	 1.2750000000e+00	-2.6611887520e+00
 2.3427742998e-01	 1.2660056618e+00	-2.4820544879e+00
 2.1039586513e-01	 1.2701928318e+00	-2.5311973952e+00
 1.8658384213e-01	 1.2739084425e+00	-2.5714783384e+00
 1.6285381756e-01	 1.2771589111e+00	-2.6029548413e+00
 1.3921784987e-01	 1.2799510304e+00	-2.6257004822e+00
 1.1568758880e-01	 1.2822919448e+00	-2.6398041704e+00
 9.2274266337e-02	 1.2841891254e+00	-2.6453693892e+00
 6.8988689165e-02	 1.2856503455e+00	-2.6425134115e+00
 4.5841232645e-02	 1.2866836563e+00	-2.6313664928e+00
 2.2841836183e-02	 1.2872973629e+00	-2.6120710478e+00
 0.0000000000e+00	 1.2875000000e+00	-2.5847808144e+00
 2.3655196814e-01	 1.2782969789e+00	-2.4290712502e+00
 2.1243854343e-01	 1.2825248010e+00	-2.4753529004e+00
 1.8839533574e-01	 1.2862764856e+00	-2.5130377891e+00
 1.6443492259e-01	 1.2895585121e+00	-2.5421894501e+00
 1.4056947948e-01	 1.2923777395e+00	-2.5628868591e+00
 1.1681076928e-01	 1.2947413812e+00	-2.5752237058e+00
 9.3170133003e-02	 1.2966569810e+00	-2.5793076362e+00
 6.9658482265e-02	 1.2981323876e+00	-2.5752594703e+00
 4.6286293158e-02	 1.2991757306e+00	-2.5632123990e+00
 2.3063601584e-02	 1.2997953955e+00	-2.5433111676e+00
 0.0000000000e+00	 1.3000000000e+00	-2.5157112487e+00
 2.3882650630e-01	 1.2905882961e+00	-2.3823585544e+00
 2.1448122173e-01	 1.2948567703e+00	-2.4258724301e+00
 1.9020682936e-01	 1.2986445288e+00	-2.4610533425e+00
 1.6601602761e-01	 1.3019581132e+00	-2.4879707123e+00
 1.4192110910e-01	 1.3048044485e+00	-2.5067087958e+00
 1.1793394976e-01	 1.3071908176e+00	-2.5173659535e+00
 9.4065999669e-02	 1.3091248366e+00	-2.5200538920e+00
 7.0328275366e-02	 1.3106144298e+00	-2.5148968828e+00
 4.6731353670e-02	 1.3116678050e+00	-2.5020309643e+00
 2.3285366984e-02	 1.3122934282e+00	-2.4816031313e+00
 0.0000000000e+00	 1.3125000000e+00	-2.4537705178e+00
 2.4110104445e-01	 1.3028796132e+00	-2.3417390379e+00
 2.1652390004e-01	 1.3071887395e+00	-2.3825759784e+00
 1.9201832297e-01	 1.3110125719e+00	-2.4153423894e+00
 1.6759713264e-01	 1.3143577143e+00	-2.4401134585e+00
 1.4327273871e-01	 1.3172311575e+00	-2.4569786091e+00
 1.1905713023e-01	 1.3196402539e+00	-2.4660407663e+00
 9.4961866334e-02	 1.3215926922e+00	-2.4674155976e+00
 7.0998068466e-02	 1.3230964720e+00	-2.4612307336e+00
 4.7176414182e-02	 1.3241598793e+00	-2.4476249743e+00
 2.3507132385e-02	 1.3247914608e+00	-2.4267474859e+00
 0.0000000000e+00	 1.3250000000e+00	-2.3987569916e+00
 2.4337558261e-01	 1.3151709303e+00	-2.3070419683e+00
 2.1856657834e-01	 1.3195207088e+00	-2.3452902686e+00
 1.9382981658e-01	 1.3233806150e+00	-2.3757291471e+00
 1.6917823767e-01	 1.3267573154e+00	-2.3984394413e+00
 1.4462436832e-01	 1.3296578666e+00	-2.4135156319e+00
 1.2018031071e-01	 1.3320896903e+00	-2.4210651051e+00
 9.5857732998e-02	 1.3340605477e+00	-2.4212073923e+00
 7.1667861566e-02	 1.3355785142e+00	-2.4140733935e+00
 4.7621474694e-02	 1.3366519536e+00	-2.3998045873e+00
 2.3728897785e-02	 1.3372894935e+00	-2.3785522343e+00
 0.0000000000e+00	 1.3375000000e+00	-2.3504765776e+00
 2.4565012076e-01	 1.3274622474e+00	-2.2781029362e+00
 2.2060925664e-01	 1.3318526780e+00	-2.3138484413e+00
 1.9564131020e-01	 1.3357486581e+00	-2.3420443429e+00
 1.7075934269e-01	 1.3391569165e+00	-2.3627770149e+00
 1.4597599793e-01	 1.3420845756e+00	-2.3761458883e+00
 1.2130349118e-01	 1.3445391266e+00	-2.3822627097e+00
 9.6753599662e-02	 1.3465284033e+00	-2.3812507808e+00
 7.2337654665e-02	 1.3480605564e+00	-2.3732441829e+00
 4.8066535206e-02	 1.3491440280e+00	-2.3583869923e+00
 2.3950663185e-02	 1.3497875261e+00	-2.3368324903e+00
 0.0000000000e+00	 1.3500000000e+00	-2.3087423718e+00
 2.4792465892e-01	 1.3397535645e+00	-2.2547635656e+00
 2.2265193494e-01	 1.3441846472e+00	-2.2880897604e+00
 1.9745280381e-01	 1.3481167013e+00	-2.3141249158e+00
 1.7234044772e-01	 1.3515565175e+00	-2.3329608322e+00
 1.4732762754e-01	 1.3545112846e+00	-2.3447017867e+00
 1.2242667166e-01	 1.3569885630e+00	-2.3494637884e+00
 9.7649466326e-02	 1.3589962589e+00	-2.3473738175e+00
 7.3007447764e-02	 1.3605425986e+00	-2.3385690520e+00
 4.8511595717e-02	 1.3616361023e+00	-2.3231960874e+00
 2.4172428585e-02	 1.3622855588e+00	-2.3014101527e+00
 0.0000000000e+00	 1.3625000000e+00	-2.2733743292e+00
 2.5019919707e-01	 1.3520448816e+00	-2.2368712391e+00
 2.2469461325e-01	 1.3565166165e+00	-2.2678593341e+00
 1.9926429742e-01	 1.3604847444e+00	-2.2918137341e+00
 1.7392155274e-01	 1.3639561186e+00	-2.3088315587e+00
 1.4867925715e-01	 1.3669379937e+00	-2.3190218296e+00
 1.2354985213e-01	 1.3694379993e+00	-2.3225047233e+00
 9.8545332989e-02	 1.3714641145e+00	-2.3194108096e+00
 7.3677240862e-02	 1.3730246408e+00	-2.3098802806e+00
 4.8956656228e-02	 1.3741281766e+00	-2.2940621739e+00
 2.4394193985e-02	 1.3747835914e+00	-2.2721135966e+00
 0.0000000000e+00	 1.3750000000e+00	-2.2441989518e+00
 1.3750000000e+00	 0.0000000000e+00	 2.6143877585e+00
 1.3747835914e+00	 2.4394193985e-02	 2.6228613270e+00
 1.3741281766e+00	 4.8956656228e-02	 2.6226859530e+00
 1.3730246408e+00	 7.3677240862e-02	 2.6136780205e+00
 1.3714641145e+00	 9.8545332989e-02	 2.5956659802e+00
 1.3694379993e+00	 1.2354985213e-01	 2.5684913453e+00
 1.3669379937e+00	 1.4867925715e-01	 2.5320096822e+00
 1.3639561186e+00	 1.7392155274e-01	 2.4860915869e+00
 1.3604847444e+00	 1.9926429742e-01	 2.4306236437e+00
 1.3565166165e+00	 2.2469461325e-01	 2.3655093584e+00
 1.3520448816e+00	 2.5019919707e-01	 2.2906700599e+00
 1.3875000000e+00	 0.0000000000e+00	 2.6005665584e+00
 1.3872816241e+00	 2.4615959384e-02	 2.6089498304e+00
 1.3866202510e+00	 4.9401716739e-02	 2.6085985927e+00
 1.3855066830e+00	 7.4347033960e-02	 2.5993259054e+00
 1.3839319701e+00	 9.9441199652e-02	 2.5809572391e+00
 1.3818874357e+00	 1.2467303260e-01	 2.5533315048e+00
 1.3793647027e+00	 1.5003088676e-01	 2.5163020750e+00
 1.3763557197e+00	 1.7550265777e-01	 2.4697377937e+00
 1.3728527875e+00	 2.0107579104e-01	 2.4135239654e+00
 1.3688485857e+00	 2.2673729155e-01	 2.3475633192e+00
 1.3643361987e+00	 2.5247373523e-01	 2.2717769405e+00
 1.4000000000e+00	 0.0000000000e+00	 2.5897153282e+00
 1.3997796567e+00	 2.4837724784e-02	 2.5979909343e+00
 1.3991123253e+00	 4.9846777249e-02	 2.5974489561e+00
 1.3979887252e+00	 7.5016827059e-02	 2.5878992060e+00
 1.3963998257e+00	 1.0033706631e-01	 2.5691642488e+00
 1.3943368721e+00	 1.2579621308e-01	 2.5410804625e+00
 1.3917914117e+00	 1.5138251637e-01	 2.5034990926e+00
 1.3887553208e+00	 1.7708376279e-01	 2.4562872923e+00
 1.3852208307e+00	 2.0288728465e-01	 2.3993291438e+00
 1.3811805550e+00	 2.2877996985e-01	 2.3325266523e+00
 1.3766275158e+00	 2.5474827338e-01	 2.2558007063e+00
 1.4125000000e+00	 0.0000000000e+00	 2.5817552972e+00
 1.4122776894e+00	 2.5059490184e-02	 2.5899063261e+00
 1.4116043996e+00	 5.0291837760e-02	 2.5891591224e+00
 1.4104707673e+00	 7.5686620157e-02	 2.5793203255e+00
 1.4088676813e+00	 1.0123293298e-01	 2.5602096657e+00
 1.4067863084e+00	 1.2691939355e-01	 2.5316610565e+00
 1.4042181208e+00	 1.5273414598e-01	 2.4935236803e+00
 1.4011549218e+00	 1.7866486781e-01	 2.4456630604e+00
 1.3975888738e+00	 2.0469877826e-01	 2.3879621123e+00
 1.3935125242e+00	 2.3082264815e-01	 2.3203221679e+00
 1.3889188329e+00	 2.5702281154e-01	 2.2426639650e+00
 1.4250000000e+00	 0.0000000000e+00	 2.5766104587e+00
 1.4247757220e+00	 2.5281255583e-02	 2.5846204411e+00
 1.4240964740e+00	 5.0736898271e-02	 2.5836539049e+00
 1.4229528095e+00	 7.6356413255e-02	 2.5735143895e+00
 1.4213355368e+00	 1.0212879964e-01	 2.5540188601e+00
 1.4192357448e+00	 1.2804257402e-01	 2.5249988321e+00
 1.4166448298e+00	 1.5408577559e-01	 2.4863014876e+00
 1.4135545229e+00	 1.8024597284e-01	 2.4377907784e+00
 1.4099569169e+00	 2.0651027187e-01	 2.3793485079e+00
 1.4058444934e+00	 2.3286532645e-01	 2.3108753844e+00
 1.4012101500e+00	 2.5929734969e-01	 2.2322920395e+00
 1.4375000000e+00	 0.0000000000e+00	 2.5742074496e+00
 1.4372737547e+00	 2.5503020983e-02	 2.5820603426e+00
 1.4365885483e+00	 5.1181958781e-02	 2.5808607321e+00
 1.4354348517e+00	 7.7026206353e-02	 2.5704091278e+00
 1.4338033924e+00	 1.0302466630e-01	 2.5505197978e+00
 1.4316851811e+00	 1.2916575450e-01	 2.5210219241e+00
 1.4290715388e+00	 1.5543740520e-01	 2.4817607495e+00
 1.4259541240e+00	 1.8182707786e-01	 2.4325987115e+00
 1.4223249601e+00	 2.0832176549e-01	 2.3734165542e+00
 1.4181764627e+00	 2.3490800476e-01	 2.3041144108e+00
 1.4135014671e+00	 2.6157188785e-01	 2.2246128502e+00
 1.4500000000e+00	 0.0000000000e+00	 2.5744754364e+00
 1.4497717873e+00	 2.5724786382e-02	 2.5821556094e+00
 1.4490806226e+00	 5.1627019292e-02	 2.5807095350e+00
 1.4479168939e+00	 7.7695999451e-02	 2.5699347624e+00
 1.4462712480e+00	 1.0392053297e-01	 2.5496429288e+00
 1.4441346175e+00	 1.3028893497e-01	 2.5196609456e+00
 1.4414982479e+00	 1.5678903481e-01	 2.4798321758e+00
 1.4383537251e+00	 1.8340818289e-01	 2.4300175985e+00
 1.4346930032e+00	 2.1013325910e-01	 2.3700969498e+00
 1.4305084319e+00	 2.3695068306e-01	 2.2999698351e+00
 1.4257927842e+00	 2.6384642601e-01	 2.2195568029e+00
 1.4625000000e+00	 0.0000000000e+00	 2.5773460075e+00
 1.4622698200e+00	 2.5946551782e-02	 2.5848382274e+00
 1.4615726970e+00	 5.2072079803e-02	 2.5831326399e+00
 1.4603989361e+00	 7.8365792550e-02	 2.5720239007e+00
 1.4587391036e+00	 1.0481639963e-01	 2.5513210806e+00
 1.4565840538e+00	 1.3141211544e-01	 2.5208488816e+00
 1.4539249569e+00	 1.5814066442e-01	 2.4804488452e+00
 1.4507533262e+00	 1.8498928791e-01	 2.4299805459e+00
 1.4470610463e+00	 2.1194475271e-01	 2.3693227625e+00
 1.4428404012e+00	 2.3899336136e-01	 2.2983746182e+00
 1.4380841013e+00	 2.6612096416e-01	 2.2170566825e+00
 1.4750000000e+00	 0.0000000000e+00	 2.5827530703e+00
 1.4747678526e+00	 2.6168317182e-02	 2.5900424884e+00
 1.4740647713e+00	 5.2517140314e-02	 2.5880646672e+00
 1.4728809783e+00	 7.9035585648e-02	 2.5766114347e+00
 1.4712069592e+00	 1.0571226629e-01	 2.5554893578e+00
 1.4690334902e+00	 1.3253529592e-01	 2.5245209890e+00
 1.4663516659e+00	 1.5949229403e-01	 2.4835461045e+00
 1.4631529272e+00	 1.8657039294e-01	 2.4324229277e+00
 1.4594290895e+00	 2.1375624632e-01	 2.3710293286e+00
 1.4551723704e+00	 2.4103603966e-01	 2.2992639933e+00
 1.4503754184e+00	 2.6839550232e-01	 2.2170475522e+00
 1.4875000000e+00	 0.0000000000e+00	 2.5906327537e+00
 1.4872658853e+00	 2.6390082581e-02	 2.5977048926e+00
 1.4865568456e+00	 5.2962200824e-02	 2.5954424350e+00
 1.4853630205e+00	 7.9705378746e-02	 2.5836344447e+00
 1.4836748148e+00	 1.0660813296e-01	 2.5620850460e+00
 1.4814829266e+00	 1.3365847639e-01	 2.5306147005e+00
 1.4787783750e+00	 1.6084392364e-01	 2.4890614740e+00
 1.4755525283e+00	 1.8815149796e-01	 2.4372822901e+00
 1.4717971326e+00	 2.1556773994e-01	 2.3751541582e+00
 1.4675043396e+00	 2.4307871796e-01	 2.3025753705e+00
 1.4626667355e+00	 2.7067004047e-01	 2.2194666579e+00
 1.5000000000e+00	 0.0000000000e+00	 2.6009233157e+00
 1.4997639179e+00	 2.6611847981e-02	 2.6077640570e+00
 1.4990489200e+00	 5.3407261335e-02	 2.6052048673e+00
 1.4978450627e+00	 8.0375171844e-02	 2.5930321083e+00
 1.4961426704e+00	 1.0750399962e-01	 2.5710475217e+00
 1.4939323629e+00	 1.3478165686e-01	 2.5390695345e+00
 1.4912050840e+00	 1.6219555325e-01	 2.4969345564e+00
 1.4879521294e+00	 1.8973260298e-01	 2.4444982612e+00
 1.4841651757e+00	 2.1737923355e-01	 2.3816368441e+00
 1.4798363089e+00	 2.4512139627e-01	 2.3082482463e+00
 1.4749580526e+00	 2.7294457863e-01	 2.2242533373e+00
 1.3520448816e+00	 2.5019919707e-01	 2.2906700599e+00
 1.3470631137e+00	 2.7576433360e-01	 2.2388790756e+00
 1.3415653398e+00	 3.0137591004e-01	 2.1780186531e+00
 1.3355460646e+00	 3.2701943254e-01	 2.1080443976e+00
 1.3290002958e+00	 3.5268004430e-01	 2.0289315518e+00
 1.3219235675e+00	 3.7834254540e-01	 1.9406756899e+00
 1.3143119634e+00	 4.0399141433e-01	 1.8432933439e+00
 1.3061621391e+00	 4.2961083119e-01	 1.7368225601e+00
 1.2974713433e+00	 4.5518470244e-01	 1.6213233756e+00
 1.2882374373e+00	 4.8069668729e-01	 1.4968782121e+00
 1.2784589140e+00	 5.0613022563e-01	 1.3635921786e+00
 1.3643361987e+00	 2.5247373523e-01	 2.2717769405e+00
 1.3593091420e+00	 2.7827128209e-01	 2.2188064234e+00
 1.3537613883e+00	 3.0411569104e-01	 2.1567184686e+00
 1.3476873925e+00	 3.2999233647e-01	 2.0854667731e+00
 1.3410821167e+00	 3.5588622652e-01	 2.0050250118e+00
 1.3339410545e+00	 3.8178202308e-01	 1.9153875552e+00
 1.3262602540e+00	 4.0766406356e-01	 1.8165701209e+00
 1.3180363404e+00	 4.3351638421e-01	 1.7086103513e+00
 1.3092665373e+00	 4.5932274519e-01	 1.5915683119e+00
 1.2999486867e+00	 4.8506665718e-01	 1.4655269043e+00
 1.2900812677e+00	 5.1073140950e-01	 1.3305921876e+00
 1.3766275158e+00	 2.5474827338e-01	 2.2558007063e+00
 1.3715551703e+00	 2.8077823058e-01	 2.2016283852e+00
 1.3659574368e+00	 3.0685547204e-01	 2.1382925544e+00
 1.3598287203e+00	 3.3296524041e-01	 2.0657450699e+00
 1.3531639376e+00	 3.5909240874e-01	 1.9839581026e+00
 1.3459585415e+00	 3.8522150077e-01	 1.8929248809e+00
 1.3382085445e+00	 4.1133671278e-01	 1.7926603649e+00
 1.3299105417e+00	 4.3742193722e-01	 1.6832018465e+00
 1.3210617313e+00	 4.6346078794e-01	 1.5646094690e+00
 1.3116599361e+00	 4.8943662707e-01	 1.4369666587e+00
 1.3017036215e+00	 5.1533259338e-01	 1.3003804644e+00
 1.3889188329e+00	 2.5702281154e-01	 2.2426639650e+00
 1.3838011986e+00	 2.8328517906e-01	 2.1872681569e+00
 1.3781534854e+00	 3.0959525305e-01	 2.1226646434e+00
 1.3719700482e+00	 3.3593814434e-01	 2.0488035048e+00
 1.3652457584e+00	 3.6229859096e-01	 1.9656554707e+00
 1.3579760284e+00	 3.8866097846e-01	 1.8732126867e+00
 1.3501568351e+00	 4.1500936201e-01	 1.7714894110e+00
 1.3417847429e+00	 4.4132749023e-01	 1.6605226373e+00
 1.3328569254e+00	 4.6759883069e-01	 1.5403726342e+00
 1.3233711856e+00	 4.9380659695e-01	 1.4111233967e+00
 1.3133259753e+00	 5.1993377725e-01	 1.2728830019e+00
 1.4012101500e+00	 2.5929734969e-01	 2.2322920395e+00
 1.3960472269e+00	 2.8579212755e-01	 2.1756516290e+00
 1.3903495339e+00	 3.1233503405e-01	 2.1097611443e+00
 1.3841113761e+00	 3.3891104827e-01	 2.0345689537e+00
 1.3773275793e+00	 3.6550477318e-01	 1.9500444065e+00
 1.3699935154e+00	 3.9210045614e-01	 1.8561786230e+00
 1.3621051257e+00	 4.1868201123e-01	 1.7529852141e+00
 1.3536589442e+00	 4.4523304325e-01	 1.6405009258e+00
 1.3446521194e+00	 4.7173687344e-01	 1.5187861989e+00
 1.3350824350e+00	 4.9817656684e-01	 1.3879256390e+00
 1.3249483290e+00	 5.2453496112e-01	 1.2480283898e+00
 1.4135014671e+00	 2.6157188785e-01	 2.2246128502e+00
 1.4082932552e+00	 2.8829907604e-01	 2.1667072698e+00
 1.4025455825e+00	 3.1507481505e-01	 2.0995110255e+00
 1.3962527039e+00	 3.4188395221e-01	 2.0229708359e+00
 1.3894094002e+00	 3.6871095541e-01	 1.9370547292e+00
 1.3820110024e+00	 3.9553993383e-01	 1.8417528566e+00
 1.3740534163e+00	 4.2235466045e-01	 1.7370782348e+00
 1.3655331454e+00	 4.4913859626e-01	 1.6230674114e+00
 1.3564473134e+00	 4.7587491620e-01	 1.4997810446e+00
 1.3467936844e+00	 5.0254653673e-01	 1.3673043922e+00
 1.3365706828e+00	 5.2913614499e-01	 1.2257477013e+00
 1.4257927842e+00	 2.6384642601e-01	 2.2195568029e+00
 1.4205392835e+00	 2.9080602453e-01	 2.1603660138e+00
 1.4147416310e+00	 3.1781459605e-01	 2.0918457045e+00
 1.4083940318e+00	 3.4485685614e-01	 2.0139410042e+00
 1.4014912211e+00	 3.7191713763e-01	 1.9266186778e+00
 1.3940284894e+00	 3.9897941152e-01	 1.8298679623e+00
 1.3860017068e+00	 4.2602730967e-01	 1.7237013317e+00
 1.3774073467e+00	 4.5304414927e-01	 1.6081551829e+00
 1.3682425075e+00	 4.8001295895e-01	 1.4832904364e+00
 1.3585049339e+00	 5.0691650661e-01	 1.3491930420e+00
 1.3481930365e+00	 5.3373732887e-01	 1.2059743864e+00
 1.4380841013e+00	 2.6612096416e-01	 2.2170566825e+00
 1.4327853118e+00	 2.9331297302e-01	 2.1565611568e+00
 1.4269376796e+00	 3.2055437705e-01	 2.0866989435e+00
 1.4205353596e+00	 3.4782976007e-01	 2.0074136412e+00
 1.4135730419e+00	 3.7512331985e-01	 1.9186708079e+00
 1.4060459763e+00	 4.0241888921e-01	 1.8204588198e+00
 1.3979499974e+00	 4.2969995890e-01	 1.7127896583e+00
 1.3892815480e+00	 4.5694970228e-01	 1.5956996168e+00
 1.3800377015e+00	 4.8415100170e-01	 1.4692499208e+00
 1.3702161833e+00	 5.1128647650e-01	 1.3335272516e+00
 1.3598153903e+00	 5.3833851274e-01	 1.1886441701e+00
 1.4503754184e+00	 2.6839550232e-01	 2.2170475522e+00
 1.4450313402e+00	 2.9581992150e-01	 2.1552282555e+00
 1.4391337281e+00	 3.2329415805e-01	 2.0840067497e+00
 1.4326766875e+00	 3.5080266401e-01	 2.0033251604e+00
 1.4256548628e+00	 3.7832950207e-01	 1.9131478934e+00
 1.4180634633e+00	 4.0585836689e-01	 1.8134625161e+00
 1.4098982880e+00	 4.3337260812e-01	 1.7042805664e+00
 1.4011557492e+00	 4.6085525530e-01	 1.5856382799e+00
 1.3918328955e+00	 4.8828904445e-01	 1.4575972288e+00
 1.3819274327e+00	 5.1565644639e-01	 1.3202448645e+00
 1.3714377441e+00	 5.4293969661e-01	 1.1736949561e+00
 1.4626667355e+00	 2.7067004047e-01	 2.2194666579e+00
 1.4572773685e+00	 2.9832686999e-01	 2.1563050327e+00
 1.4513297766e+00	 3.2603393905e-01	 2.0837072814e+00
 1.4448180154e+00	 3.5377556794e-01	 2.0016141125e+00
 1.4377366837e+00	 3.8153568429e-01	 1.9099888332e+00
 1.4300809503e+00	 4.0929784458e-01	 1.8088182528e+00
 1.4218465786e+00	 4.3704525734e-01	 1.6981135135e+00
 1.4130299505e+00	 4.6476080831e-01	 1.5779108374e+00
 1.4036280896e+00	 4.9242708720e-01	 1.4482721847e+00
 1.3936386821e+00	 5.2002641627e-01	 1.3092858137e+00
 1.3830600978e+00	 5.4754088048e-01	 1.1610667354e+00
 1.4749580526e+00	 2.7294457863e-01	 2.2242533373e+00
 1.4695233968e+00	 3.0083381848e-01	 2.1597312871e+00
 1.4635258252e+00	 3.2877372005e-01	 2.0857407581e+00
 1.4569593432e+00	 3.5674847187e-01	 2.0022210965e+00
 1.4498185046e+00	 3.8474186652e-01	 1.9091345628e+00
 1.4420984373e+00	 4.1273732226e-01	 1.8064672581e+00
 1.4337948692e+00	 4.4071790656e-01	 1.6942299750e+00
 1.4249041518e+00	 4.6866636132e-01	 1.5724589656e+00
 1.4154232836e+00	 4.9656512995e-01	 1.4412166181e+00
 1.4053499316e+00	 5.2439638616e-01	 1.3005920342e+00
 1.3946824516e+00	 5.5214206435e-01	 1.1507014990e+00
 1.2784589140e+00	 5.0613022563e-01	 1.3635921786e+00
 1.2681349147e+00	 5.3146856729e-01	 1.2639075394e+00
 1.2572652451e+00	 5.5669480277e-01	 1.1578243736e+00
 1.2458503886e+00	 5.8179189513e-01	 1.0454872914e+00
 1.2338915188e+00	 6.0674271315e-01	 9.2705878625e-01
 1.2213905094e+00	 6.3153006544e-01	 8.0271903011e-01
 1.2083499428e+00	 6.5613673552e-01	 6.7266558045e-01
 1.1947731159e+00	 6.8054551769e-01	 5.3711299797e-01
 1.1806640439e+00	 7.0473925348e-01	 3.9629237544e-01
 1.1660274628e+00	 7.2870086873e-01	 2.5045077831e-01
 1.1508688279e+00	 7.5241341089e-01	 9.9850598788e-02
 1.2900812677e+00	 5.1073140950e-01	 1.3305921876e+00
 1.2796634140e+00	 5.3630009973e-01	 1.2290845082e+00
 1.2686949292e+00	 5.6175566461e-01	 1.1212881174e+00
 1.2571763012e+00	 5.8708091236e-01	 1.0073445994e+00
 1.2451087144e+00	 6.1225855600e-01	 8.8741321085e-01
 1.2324940595e+00	 6.3727124786e-01	 7.6167068994e-01
 1.2193349423e+00	 6.6210161494e-01	 6.3031097814e-01
 1.2056346896e+00	 6.8673229512e-01	 4.9354485417e-01
 1.1913973534e+00	 7.1114597397e-01	 3.5159947986e-01
 1.1766277124e+00	 7.3532542209e-01	 2.0471785892e-01
 1.1613312718e+00	 7.5925353281e-01	 5.3158209857e-02
 1.3017036215e+00	 5.1533259338e-01	 1.3003804644e+00
 1.2911919132e+00	 5.4113163216e-01	 1.1970004461e+00
 1.2801246132e+00	 5.6681652646e-01	 1.0874408795e+00
 1.2685022139e+00	 5.9236992959e-01	 9.7184040663e-01
 1.2563259100e+00	 6.1777439885e-01	 8.5035513374e-01
 1.2435976096e+00	 6.4301243028e-01	 7.2315845432e-01
 1.2303199418e+00	 6.6806649436e-01	 5.9044078542e-01
 1.2164962634e+00	 6.9291907256e-01	 4.5240921737e-01
 1.2021306629e+00	 7.1755269446e-01	 3.0928707654e-01
 1.1872279621e+00	 7.4194997544e-01	 1.6131340178e-01
 1.1717937157e+00	 7.6609365473e-01	 8.7423360187e-03
 1.3133259753e+00	 5.1993377725e-01	 1.2728830019e+00
 1.3027204124e+00	 5.4596316460e-01	 1.1675826522e+00
 1.2915542973e+00	 5.7187738831e-01	 1.0562112827e+00
 1.2798281265e+00	 5.9765894683e-01	 9.3890467439e-01
 1.2675431056e+00	 6.2329024170e-01	 8.1581586761e-01
 1.2547011597e+00	 6.4875361269e-01	 6.8711499790e-01
 1.2413049413e+00	 6.7403137378e-01	 5.5298904694e-01
 1.2273578372e+00	 6.9910585000e-01	 4.1364150782e-01
 1.2128639724e+00	 7.2395941495e-01	 2.6929196429e-01
 1.1978282118e+00	 7.4857452879e-01	 1.2017558476e-01
 1.1822561596e+00	 7.7293377665e-01	-3.3457467961e-02
 1.3249483290e+00	 5.2453496112e-01	 1.2480283898e+00
 1.3142489116e+00	 5.5079469703e-01	 1.1407609763e+00
 1.3029839813e+00	 5.7693825016e-01	 1.0275304537e+00
 1.2911540391e+00	 6.0294796406e-01	 9.0846982125e-01
 1.2787603013e+00	 6.2880608455e-01	 7.8372913515e-01
 1.2658047098e+00	 6.5449479511e-01	 6.5347535754e-01
 1.2522899408e+00	 6.7999625319e-01	 5.1789212152e-01
 1.2382194110e+00	 7.0529262743e-01	 3.7717941164e-01
 1.2235972819e+00	 7.3036613543e-01	 2.3155315951e-01
 1.2084284614e+00	 7.5519908215e-01	 8.1244754908e-02
 1.1927186035e+00	 7.7977389856e-01	-7.3499526429e-02
 1.3365706828e+00	 5.2913614499e-01	 1.2257477013e+00
 1.3257774109e+00	 5.5562622946e-01	 1.1164677084e+00
 1.3144136654e+00	 5.8199911200e-01	 1.0013319151e+00
 1.3024799517e+00	 6.0823698129e-01	 8.8047061641e-01
 1.2899774969e+00	 6.3432192740e-01	 7.5403096426e-01
 1.2769082598e+00	 6.6023597752e-01	 6.2217682965e-01
 1.2632749402e+00	 6.8596113261e-01	 4.8508858154e-01
 1.2490809848e+00	 7.1147940487e-01	 3.4296278238e-01
 1.2343305914e+00	 7.3677285592e-01	 1.9601179971e-01
 1.2190287111e+00	 7.6182363550e-01	 4.4463334163e-02
 1.2031810474e+00	 7.8661402048e-01	-1.1144013505e-01
 1.3481930365e+00	 5.3373732887e-01	 1.2059743864e+00
 1.3373059101e+00	 5.6045776189e-01	 1.0946374727e+00
 1.3258433494e+00	 5.8705997385e-01	 9.7755148152e-01
 1.3138058643e+00	 6.1352599852e-01	 8.5484407828e-01
 1.3011946925e+00	 6.3983777025e-01	 7.2665958868e-01
 1.2880118099e+00	 6.6597715994e-01	 5.9315887271e-01
 1.2742599397e+00	 6.9192601202e-01	 4.5451911749e-01
 1.2599425586e+00	 7.1766618230e-01	 3.1093354754e-01
 1.2450639009e+00	 7.4317957641e-01	 1.6261105212e-01
 1.2296289607e+00	 7.6844818885e-01	 9.7757298905e-03
 1.2136434913e+00	 7.9345414240e-01	-1.4733364827e-01
 1.3598153903e+00	 5.3833851274e-01	 1.1886441701e+00
 1.3488344093e+00	 5.6528929432e-01	 1.0752071289e+00
 1.3372730334e+00	 5.9212083569e-01	 9.5612716179e-01
 1.3251317770e+00	 6.1881501575e-01	 8.3152937840e-01
 1.3124118881e+00	 6.4535361310e-01	 7.0155535375e-01
 1.2991153600e+00	 6.7171834235e-01	 5.6636301497e-01
 1.2852449392e+00	 6.9789089144e-01	 4.2612644750e-01
 1.2708041323e+00	 7.2385295974e-01	 2.8103561996e-01
 1.2557972104e+00	 7.4958629690e-01	 1.3129602695e-01
 1.2402292104e+00	 7.7507274221e-01	-2.2871749953e-02
 1.2241059352e+00	 8.0029426432e-01	-1.8123256223e-01
 1.3714377441e+00	 5.4293969661e-01	 1.1736949561e+00
 1.3603629085e+00	 5.7012082675e-01	 1.0581156765e+00
 1.3487027175e+00	 5.9718169753e-01	 9.3699906615e-01
 1.3364576896e+00	 6.2410403298e-01	 8.1046775019e-01
 1.3236290838e+00	 6.5086945594e-01	 6.7866062691e-01
 1.3102189101e+00	 6.7745952476e-01	 5.4173276667e-01
 1.2962299387e+00	 7.0385577085e-01	 3.9985523139e-01
 1.2816657061e+00	 7.3003973717e-01	 2.5321481371e-01
 1.2665305199e+00	 7.5599301738e-01	 1.0201369504e-01
 1.2508294601e+00	 7.8169729556e-01	-5.3530977353e-02
 1.2345683791e+00	 8.0713438623e-01	-2.1318759357e-01
 1.3830600978e+00	 5.4754088048e-01	 1.1610667354e+00
 1.3718914078e+00	 5.7495235918e-01	 1.0433041656e+00
 1.3601324015e+00	 6.0224255938e-01	 9.2010931779e-01
 1.3477836022e+00	 6.2939305020e-01	 7.9160240233e-01
 1.3348462794e+00	 6.5638529879e-01	 6.5791971275e-01
 1.3213224602e+00	 6.8320070718e-01	 5.1921353680e-01
 1.3072149381e+00	 7.0982065027e-01	 3.7565198909e-01
 1.2925272799e+00	 7.3622651460e-01	 2.2741876418e-01
 1.2772638293e+00	 7.6239973787e-01	 7.4712809710e-02
 1.2614297097e+00	 7.8832184891e-01	-8.2252080714e-02
 1.2450308230e+00	 8.1397450815e-01	-2.4324775414e-01
 1.3946824516e+00	 5.5214206435e-01	 1.1507014990e+00
 1.3834199070e+00	 5.7978389161e-01	 1.0307156109e+00
 1.3715620856e+00	 6.0730342122e-01	 9.0540196903e-01
 1.3591095148e+00	 6.3468206743e-01	 7.7487843646e-01
 1.3460634750e+00	 6.6190114164e-01	 6.3927877227e-01
 1.3324260103e+00	 6.8894188959e-01	 4.9875255400e-01
 1.3181999376e+00	 7.1578552968e-01	 3.5346502315e-01
 1.3033888537e+00	 7.4241329204e-01	 2.0359685221e-01
 1.2879971388e+00	 7.6880645835e-01	 4.9343832458e-02
 1.2720299594e+00	 7.9494640226e-01	-1.0908351750e-01
 1.2554932668e+00	 8.2081463007e-01	-2.7146042207e-01
 1.1508688279e+00	 7.5241341089e-01	 9.9850598788e-02
 1.1351943120e+00	 7.7586008655e-01	-1.3122099555e-02
 1.1190107996e+00	 7.9902429902e-01	-1.2785353248e-01
 1.1023258795e+00	 8.2188968569e-01	-2.4408854647e-01
 1.0851478353e+00	 8.4444015516e-01	-3.6156570672e-01
 1.0674856329e+00	 8.6665992379e-01	-4.8001819948e-01
 1.0493489065e+00	 8.8853355166e-01	-5.9917477049e-01
 1.0307479413e+00	 9.1004597768e-01	-7.1876069383e-01
 1.0116936551e+00	 9.3118255368e-01	-8.3849876534e-01
 9.9219757688e-01	 9.5192907740e-01	-9.5811031446e-01
 9.7227182412e-01	 9.7227182412e-01	-1.0773162281e+00
 1.1613312718e+00	 7.5925353281e-01	 5.3158209857e-02
 1.1455142603e+00	 7.8291336007e-01	-6.0838993207e-02
 1.1291836250e+00	 8.0628815628e-01	-1.7633326131e-01
 1.1123470238e+00	 8.2936141010e-01	-2.9308082285e-01
 1.0950128156e+00	 8.5211688384e-01	-4.1083246602e-01
 1.0771900478e+00	 8.7453865036e-01	-5.2933439581e-01
 1.0588884420e+00	 8.9661112940e-01	-6.4832912260e-01
 1.0401183771e+00	 9.1831912293e-01	-7.6755637685e-01
 1.0208908701e+00	 9.3964784962e-01	-8.8675404450e-01
 1.0012175549e+00	 9.6058297811e-01	-1.0056591172e+00
 9.8111065889e-01	 9.8111065889e-01	-1.1240086514e+00
 1.1717937157e+00	 7.6609365473e-01	 8.7423360187e-03
 1.1558342086e+00	 7.8996663358e-01	-1.0638142567e-01
 1.1393564505e+00	 8.1355201354e-01	-2.2274383796e-01
 1.1223681682e+00	 8.3683313452e-01	-3.4011232791e-01
 1.1048777959e+00	 8.5979361252e-01	-4.5824971418e-01
 1.0868944626e+00	 8.8241737694e-01	-5.7691501924e-01
 1.0684279775e+00	 9.0468870714e-01	-6.9586430874e-01
 1.0494888130e+00	 9.2659226818e-01	-8.1485155278e-01
 1.0300880852e+00	 9.4811314557e-01	-9.3362950399e-01
 1.0102375328e+00	 9.6923687881e-01	-1.0519505869e+00
 9.8994949365e-01	 9.8994949365e-01	-1.1695677933e+00
 1.1822561596e+00	 7.7293377665e-01	-3.3457467961e-02
 1.1661541569e+00	 7.9701990710e-01	-1.4980713499e-01
 1.1495292759e+00	 8.2081587081e-01	-2.6714020678e-01
 1.1323893126e+00	 8.4430485893e-01	-3.8523513077e-01
 1.1147427762e+00	 8.6747034120e-01	-5.0386656861e-01
 1.0965988775e+00	 8.9029610352e-01	-6.2280616434e-01
 1.0779675130e+00	 9.1276628488e-01	-7.4182333507e-01
 1.0588592488e+00	 9.3486541343e-01	-8.6068607957e-01
 1.0392853002e+00	 9.5657844151e-01	-9.7916179967e-01
 1.0192575108e+00	 9.7789077951e-01	-1.0970181297e+00
 9.9878832842e-01	 9.9878832842e-01	-1.2140237682e+00
 1.1927186035e+00	 7.7977389856e-01	-7.3499526429e-02
 1.1764741052e+00	 8.0407318061e-01	-1.9117183327e-01
 1.1597021014e+00	 8.2807972807e-01	-3.0957538426e-01
 1.1424104569e+00	 8.5177658335e-01	-4.2849947352e-01
 1.1246077565e+00	 8.7514706988e-01	-5.4773042323e-01
 1.1063032923e+00	 8.9817483010e-01	-6.6705230822e-01
 1.0875070486e+00	 9.2084386262e-01	-7.8624769865e-01
 1.0682296846e+00	 9.4313855868e-01	-9.0509841649e-01
 1.0484825153e+00	 9.6504373745e-01	-1.0233863011e+00
 1.0282774888e+00	 9.8654468022e-01	-1.1408939791e+00
 1.0076271632e+00	 1.0076271632e+00	-1.2574056340e+00
 1.2031810474e+00	 7.8661402048e-01	-1.1144013505e-01
 1.1867940535e+00	 8.1112645412e-01	-2.3052929480e-01
 1.1698749268e+00	 8.3534358534e-01	-3.5010054276e-01
 1.1524316013e+00	 8.5924830776e-01	-4.6995385063e-01
 1.1344727369e+00	 8.8282379857e-01	-5.8988702339e-01
 1.1160077072e+00	 9.0605355668e-01	-7.0969638086e-01
 1.0970465841e+00	 9.2892144036e-01	-8.2917745302e-01
 1.0776001205e+00	 9.5141170393e-01	-9.4812568499e-01
 1.0576797303e+00	 9.7350903339e-01	-1.0663371474e+00
 1.0372974667e+00	 9.9519858092e-01	-1.1836092475e+00
 1.0164659980e+00	 1.0164659980e+00	-1.2997414376e+00
 1.2136434913e+00	 7.9345414240e-01	-1.4733364827e-01
 1.1971140018e+00	 8.1817972764e-01	-2.6793143954e-01
 1.1800477523e+00	 8.4260744260e-01	-3.8876509005e-01
 1.1624527456e+00	 8.6672003218e-01	-5.0964508429e-01
 1.1443377172e+00	 8.9050052725e-01	-6.3038053694e-01
 1.1257121220e+00	 9.1393228326e-01	-7.5077983182e-01
 1.1065861196e+00	 9.3699901811e-01	-8.7065127049e-01
 1.0869705563e+00	 9.5968484918e-01	-9.8980372630e-01
 1.0668769453e+00	 9.8197432933e-01	-1.1080473003e+00
 1.0463174447e+00	 1.0038524816e+00	-1.2251939744e+00
 1.0253048327e+00	 1.0253048327e+00	-1.3410582584e+00
 1.2241059352e+00	 8.0029426432e-01	-1.8123256223e-01
 1.2074339501e+00	 8.2523300115e-01	-3.0342841242e-01
 1.1902205777e+00	 8.4987129986e-01	-4.2561674470e-01
 1.1724738900e+00	 8.7419175659e-01	-5.4761839589e-01
 1.1542026975e+00	 8.9817725593e-01	-6.6925362164e-01
 1.1354165368e+00	 9.2181100984e-01	-7.9034269347e-01
 1.1161256551e+00	 9.4507659585e-01	-9.1070650108e-01
 1.0963409921e+00	 9.6795799444e-01	-1.0301671562e+00
 1.0760741604e+00	 9.9043962528e-01	-1.1485485946e+00
 1.0553374227e+00	 1.0125063823e+00	-1.2656771717e+00
 1.0341436675e+00	 1.0341436675e+00	-1.3813822500e+00
 1.2345683791e+00	 8.0713438623e-01	-2.1318759357e-01
 1.2177538984e+00	 8.3228627467e-01	-3.3706865849e-01
 1.2003934032e+00	 8.5713515713e-01	-4.6070160766e-01
 1.1824950344e+00	 8.8166348101e-01	-5.8391747380e-01
 1.1640676778e+00	 9.0585398462e-01	-7.0654748914e-01
 1.1451209517e+00	 9.2968973642e-01	-8.2842364106e-01
 1.1256651906e+00	 9.5315417359e-01	-9.4937922863e-01
 1.1057114279e+00	 9.7623113969e-01	-1.0692494170e+00
 1.0852713754e+00	 9.9890492122e-01	-1.1878717856e+00
 1.0643574007e+00	 1.0211602830e+00	-1.3050868682e+00
 1.0429825022e+00	 1.0429825022e+00	-1.4207386792e+00
 1.2450308230e+00	 8.1397450815e-01	-2.4324775414e-01
 1.2280738467e+00	 8.3933954818e-01	-3.6889899438e-01
 1.2105662286e+00	 8.6439901439e-01	-4.9406423025e-01
 1.1925161787e+00	 8.8913520543e-01	-6.1858453785e-01
 1.1739326581e+00	 9.1353071330e-01	-7.4230196577e-01
 1.1548253665e+00	 9.3756846300e-01	-8.6506004971e-01
 1.1352047261e+00	 9.6123175134e-01	-9.8670432395e-01
 1.1150818638e+00	 9.8450428494e-01	-1.1070828265e+00
 1.0944685905e+00	 1.0073702172e+00	-1.2260465949e+00
 1.0733773786e+00	 1.0298141837e+00	-1.3434501499e+00
 1.0518213370e+00	 1.0518213370e+00	-1.4591519632e+00
 1.2554932668e+00	 8.2081463007e-01	-2.7146042207e-01
 1.2383937950e+00	 8.4639282170e-01	-3.9896467616e-01
 1.2207390541e+00	 8.7166287166e-01	-5.2574767867e-01
 1.2025373231e+00	 8.9660692984e-01	-6.5166040046e-01
 1.1837976385e+00	 9.2120744199e-01	-7.7655555021e-01
 1.1645297814e+00	 9.4544718958e-01	-9.0028804866e-01
 1.1447442616e+00	 9.6930932908e-01	-1.0227154954e+00
 1.1244522996e+00	 9.9277743019e-01	-1.1436986254e+00
 1.1036658055e+00	 1.0158355131e+00	-1.2631017531e+00
 1.0823973566e+00	 1.0384680844e+00	-1.3807932001e+00
 1.0606601718e+00	 1.0606601718e+00	-1.4966457054e+00
 9.7227182412e-01	 9.7227182412e-01	-1.0773162281e+00
 9.5192907740e-01	 9.9219757688e-01	-1.1700023493e+00
 9.3118255368e-01	 1.0116936551e+00	-1.2597597109e+00
 9.1004597768e-01	 1.0307479413e+00	-1.3463535704e+00
 8.8853355166e-01	 1.0493489065e+00	-1.4295570100e+00
 8.6665992379e-01	 1.0674856329e+00	-1.5091517675e+00
 8.4444015516e-01	 1.0851478353e+00	-1.5849290236e+00
 8.2188968569e-01	 1.1023258795e+00	-1.6566901393e+00
 7.9902429902e-01	 1.1190107996e+00	-1.7242473406e+00
 7.7586008655e-01	 1.1351943120e+00	-1.7874243457e+00
 7.5241341089e-01	 1.1508688279e+00	-1.8460569313e+00
 9.8111065889e-01	 9.8111065889e-01	-1.1240086514e+00
 9.6058297811e-01	 1.0012175549e+00	-1.2157584888e+00
 9.3964784962e-01	 1.0208908701e+00	-1.3043027336e+00
 9.1831912293e-01	 1.0401183771e+00	-1.3894291712e+00
 8.9661112940e-01	 1.0588884420e+00	-1.4709342489e+00
 8.7453865036e-01	 1.0771900478e+00	-1.5486238063e+00
 8.5211688384e-01	 1.0950128156e+00	-1.6223137584e+00
 8.2936141010e-01	 1.1123470238e+00	-1.6918307259e+00
 8.0628815628e-01	 1.1291836250e+00	-1.7570126117e+00
 7.8291336007e-01	 1.1455142603e+00	-1.8177091177e+00
 7.5925353281e-01	 1.1613312718e+00	-1.8737822007e+00
 9.8994949365e-01	 9.8994949365e-01	-1.1695677933e+00
 9.6923687881e-01	 1.0102375328e+00	-1.2605373593e+00
 9.4811314557e-01	 1.0300880852e+00	-1.3480284732e+00
 9.2659226818e-01	 1.0494888130e+00	-1.4318511360e+00
 9.0468870714e-01	 1.0684279775e+00	-1.5118248394e+00
 8.8241737694e-01	 1.0868944626e+00	-1.5877791963e+00
 8.5979361252e-01	 1.1048777959e+00	-1.6595545210e+00
 8.3683313452e-01	 1.1223681682e+00	-1.7270023543e+00
 8.1355201354e-01	 1.1393564505e+00	-1.7899859317e+00
 7.8996663358e-01	 1.1558342086e+00	-1.8483805922e+00
 7.6609365473e-01	 1.1717937157e+00	-1.9020741246e+00
 9.9878832842e-01	 9.9878832842e-01	-1.2140237682e+00
 9.7789077951e-01	 1.0192575108e+00	-1.3043649357e+00
 9.5657844151e-01	 1.0392853002e+00	-1.3909586591e+00
 9.3486541343e-01	 1.0588592488e+00	-1.4736368516e+00
 9.1276628488e-01	 1.0779675130e+00	-1.5522417368e+00
 8.9029610352e-01	 1.0965988775e+00	-1.6266263816e+00
 8.6747034120e-01	 1.1147427762e+00	-1.6966551734e+00
 8.4430485893e-01	 1.1323893126e+00	-1.7622042420e+00
 8.2081587081e-01	 1.1495292759e+00	-1.8231618209e+00
 7.9701990710e-01	 1.1661541569e+00	-1.8794285485e+00
 7.7293377665e-01	 1.1822561596e+00	-1.9309177072e+00
 1.0076271632e+00	 1.0076271632e+00	-1.2574056340e+00
 9.8654468022e-01	 1.0282774888e+00	-1.3472662809e+00
 9.6504373745e-01	 1.0484825153e+00	-1.4331142579e+00
 9.4313855868e-01	 1.0682296846e+00	-1.5148030943e+00
 9.2084386262e-01	 1.0875070486e+00	-1.5921974419e+00
 8.9817483010e-01	 1.1063032923e+00	-1.6651735098e+00
 8.7514706988e-01	 1.1246077565e+00	-1.7336194416e+00
 8.5177658335e-01	 1.1424104569e+00	-1.7974356337e+00
 8.2807972807e-01	 1.1597021014e+00	-1.8565349916e+00
 8.0407318061e-01	 1.1764741052e+00	-1.9108431246e+00
 7.7977389856e-01	 1.1927186035e+00	-1.9602984783e+00
 1.0164659980e+00	 1.0164659980e+00	-1.2997414376e+00
 9.9519858092e-01	 1.0372974667e+00	-1.3892655861e+00
 9.7350903339e-01	 1.0576797303e+00	-1.4745155066e+00
 9.5141170393e-01	 1.0776001205e+00	-1.5553660566e+00
 9.2892144036e-01	 1.0970465841e+00	-1.6317040199e+00
 9.0605355668e-01	 1.1160077072e+00	-1.7034284447e+00
 8.8282379857e-01	 1.1344727369e+00	-1.7704509218e+00
 8.5924830776e-01	 1.1524316013e+00	-1.8326958001e+00
 8.3534358534e-01	 1.1698749268e+00	-1.8901003396e+00
 8.1112645412e-01	 1.1867940535e+00	-1.9426148007e+00
 7.8661402048e-01	 1.2031810474e+00	-1.9902024709e+00
 1.0253048327e+00	 1.0253048327e+00	-1.3410582584e+00
 1.0038524816e+00	 1.0463174447e+00	-1.4303862080e+00
 9.8197432933e-01	 1.0668769453e+00	-1.5151819442e+00
 9.5968484918e-01	 1.0869705563e+00	-1.5953413725e+00
 9.3699901811e-01	 1.1065861196e+00	-1.6707731200e+00
 9.1393228326e-01	 1.1257121220e+00	-1.7413987789e+00
 8.9050052725e-01	 1.1443377172e+00	-1.8071530858e+00
 8.6672003218e-01	 1.1624527456e+00	-1.8679840367e+00
 8.4260744260e-01	 1.1800477523e+00	-1.9238529366e+00
 8.1817972764e-01	 1.1971140018e+00	-1.9747343853e+00
 7.9345414240e-01	 1.2136434913e+00	-2.0206161992e+00
 1.0341436675e+00	 1.0341436675e+00	-1.3813822500e+00
 1.0125063823e+00	 1.0553374227e+00	-1.4706507044e+00
 9.9043962528e-01	 1.0760741604e+00	-1.5551324416e+00
 9.6795799444e-01	 1.0963409921e+00	-1.6347441413e+00
 9.4507659585e-01	 1.1161256551e+00	-1.7094159929e+00
 9.2181100984e-01	 1.1354165368e+00	-1.7790918449e+00
 8.9817725593e-01	 1.1542026975e+00	-1.8437292864e+00
 8.7419175659e-01	 1.1724738900e+00	-1.9032996626e+00
 8.4987129986e-01	 1.1902205777e+00	-1.9577880223e+00
 8.2523300115e-01	 1.2074339501e+00	-2.0071930007e+00
 8.0029426432e-01	 1.2241059352e+00	-2.0515266381e+00
 1.0429825022e+00	 1.0429825022e+00	-1.4207386792e+00
 1.0211602830e+00	 1.0643574007e+00	-1.5100808686e+00
 9.9890492122e-01	 1.0852713754e+00	-1.5943852296e+00
 9.7623113969e-01	 1.1057114279e+00	-1.6735889500e+00
 9.5315417359e-01	 1.1256651906e+00	-1.7476435076e+00
 9.2968973642e-01	 1.1451209517e+00	-1.8165147265e+00
 9.0585398462e-01	 1.1640676778e+00	-1.8801827627e+00
 8.8166348101e-01	 1.1824950344e+00	-1.9386420201e+00
 8.5713515713e-01	 1.2003934032e+00	-1.9919009975e+00
 8.3228627467e-01	 1.2177538984e+00	-2.0399820697e+00
 8.0713438623e-01	 1.2345683791e+00	-2.0829212037e+00
 1.0518213370e+00	 1.0518213370e+00	-1.4591519632e+00
 1.0298141837e+00	 1.0733773786e+00	-1.5486977608e+00
 1.0073702172e+00	 1.0944685905e+00	-1.6329579262e+00
 9.8450428494e-01	 1.1150818638e+00	-1.7118898952e+00
 9.6123175134e-01	 1.1352047261e+00	-1.7854661674e+00
 9.3756846300e-01	 1.1548253665e+00	-1.8536742691e+00
 9.1353071330e-01	 1.1739326581e+00	-1.9165166444e+00
 8.8913520543e-01	 1.1925161787e+00	-1.9740104729e+00
 8.6439901439e-01	 1.2105662286e+00	-2.0261874172e+00
 8.3933954818e-01	 1.2280738467e+00	-2.0730933032e+00
 8.1397450815e-01	 1.2450308230e+00	-2.1147877348e+00
 1.0606601718e+00	 1.0606601718e+00	-1.4966457054e+00
 1.0384680844e+00	 1.0823973566e+00	-1.5865217392e+00
 1.0158355131e+00	 1.1036658055e+00	-1.6708675616e+00
 9.9277743019e-01	 1.1244522996e+00	-1.7496606034e+00
 9.6930932908e-01	 1.1447442616e+00	-1.8228941253e+00
 9.4544718958e-01	 1.1645297814e+00	-1.8905770896e+00
 9.2120744199e-01	 1.1837976385e+00	-1.9527339566e+00
 8.9660692984e-01	 1.2025373231e+00	-2.0094044058e+00
 8.7166287166e-01	 1.2207390541e+00	-2.0606429845e+00
 8.4639282170e-01	 1.2383937950e+00	-2.1065186882e+00
 8.2081463007e-01	 1.2554932668e+00	-2.1471144752e+00
 7.5241341089e-01	 1.1508688279e+00	-1.8460569313e+00
 7.2870086873e-01	 1.1660274628e+00	-1.9070867435e+00
 7.0473925348e-01	 1.1806640439e+00	-1.9619338989e+00
 6.8054551769e-01	 1.1947731159e+00	-2.0104766549e+00
 6.5613673552e-01	 1.2083499428e+00	-2.0526099198e+00
 6.3153006544e-01	 1.2213905094e+00	-2.0882454163e+00
 6.0674271315e-01	 1.2338915188e+00	-2.1173117624e+00
 5.8179189513e-01	 1.2458503886e+00	-2.1397544725e+00
 5.5669480277e-01	 1.2572652451e+00	-2.1555358803e+00
 5.3146856729e-01	 1.2681349147e+00	-2.1646349845e+00
 5.0613022563e-01	 1.2784589140e+00	-2.1670472212e+00
 7.5925353281e-01	 1.1613312718e+00	-1.8737822007e+00
 7.3532542209e-01	 1.1766277124e+00	-1.9321103486e+00
 7.1114597397e-01	 1.1913973534e+00	-1.9841298846e+00
 6.8673229512e-01	 1.2056346896e+00	-2.0297446197e+00
 6.6210161494e-01	 1.2193349423e+00	-2.0688751795e+00
 6.3727124786e-01	 1.2324940595e+00	-2.1014590588e+00
 6.1225855600e-01	 1.2451087144e+00	-2.1274505967e+00
 5.8708091236e-01	 1.2571763012e+00	-2.1468208738e+00
 5.6175566461e-01	 1.2686949292e+00	-2.1595575335e+00
 5.3630009973e-01	 1.2796634140e+00	-2.1656645306e+00
 5.1073140950e-01	 1.2900812677e+00	-2.1651618103e+00
 7.6609365473e-01	 1.1717937157e+00	-1.9020741246e+00
 7.4194997544e-01	 1.1872279621e+00	-1.9578698825e+00
 7.1755269446e-01	 1.2021306629e+00	-2.0072334734e+00
 6.9291907256e-01	 1.2164962634e+00	-2.0500939225e+00
 6.6806649436e-01	 1.2303199418e+00	-2.0863972314e+00
 6.4301243028e-01	 1.2435976096e+00	-2.1161063263e+00
 6.1777439885e-01	 1.2563259100e+00	-2.1392009278e+00
 5.9236992959e-01	 1.2685022139e+00	-2.1556773453e+00
 5.6681652646e-01	 1.2801246132e+00	-2.1655481981e+00
 5.4113163216e-01	 1.2911919132e+00	-2.1688420678e+00
 5.1533259338e-01	 1.3017036215e+00	-2.1656030846e+00
 7.7293377665e-01	 1.1822561596e+00	-1.9309177072e+00
 7.4857452879e-01	 1.1978282118e+00	-1.9843458575e+00
 7.2395941495e-01	 1.2128639724e+00	-2.0312206222e+00
 6.9910585000e-01	 1.2273578372e+00	-2.0714959098e+00
 6.7403137378e-01	 1.2413049413e+00	-2.1051427663e+00
 6.4875361269e-01	 1.2547011597e+00	-2.1321492173e+00
 6.2329024170e-01	 1.2675431056e+00	-2.1525200344e+00
 5.9765894683e-01	 1.2798281265e+00	-2.1662764271e+00
 5.7187738831e-01	 1.2915542973e+00	-2.1734556660e+00
 5.4596316460e-01	 1.3027204124e+00	-2.1741106387e+00
 5.1993377725e-01	 1.3133259753e+00	-2.1683093453e+00
 7.7977389856e-01	 1.1927186035e+00	-1.9602984783e+00
 7.5519908215e-01	 1.2084284614e+00	-2.0115194693e+00
 7.3036613543e-01	 1.2235972819e+00	-2.0560681310e+00
 7.0529262743e-01	 1.2382194110e+00	-2.0939229334e+00
 6.7999625319e-01	 1.2522899408e+00	-2.1250796434e+00
 6.5449479511e-01	 1.2658047098e+00	-2.1495510634e+00
 6.2880608455e-01	 1.2787603013e+00	-2.1673666937e+00
 6.0294796406e-01	 1.2911540391e+00	-2.1785723245e+00
 5.7693825016e-01	 1.3029839813e+00	-2.1832295608e+00
 5.5079469703e-01	 1.3142489116e+00	-2.1814152842e+00
 5.2453496112e-01	 1.3249483290e+00	-2.1732210580e+00
 7.8661402048e-01	 1.2031810474e+00	-1.9902024709e+00
 7.6182363550e-01	 1.2190287111e+00	-2.0393725675e+00
 7.3677285592e-01	 1.2343305914e+00	-2.0817536067e+00
 7.1147940487e-01	 1.2490809848e+00	-2.1173483062e+00
 6.8596113261e-01	 1.2632749402e+00	-2.1461768396e+00
 6.6023597752e-01	 1.2769082598e+00	-2.1682764712e+00
 6.3432192740e-01	 1.2899774969e+00	-2.1837011164e+00
 6.0823698129e-01	 1.3024799517e+00	-2.1925208348e+00
 5.8199911200e-01	 1.3144136654e+00	-2.1948212576e+00
 5.5562622946e-01	 1.3257774109e+00	-2.1907029564e+00
 5.2913614499e-01	 1.3365706828e+00	-2.1802807587e+00
 7.9345414240e-01	 1.2136434913e+00	-2.0206161992e+00
 7.6844818885e-01	 1.2296289607e+00	-2.0678876270e+00
 7.4317957641e-01	 1.2450639009e+00	-2.1082554275e+00
 7.1766618230e-01	 1.2599425586e+00	-2.1417462610e+00
 6.9192601202e-01	 1.2742599397e+00	-2.1684044012e+00
 6.6597715994e-01	 1.2880118099e+00	-2.1882912673e+00
 6.3983777025e-01	 1.3011946925e+00	-2.2014848850e+00
 6.1352599852e-01	 1.3138058643e+00	-2.2080792795e+00
 5.8705997385e-01	 1.3258433494e+00	-2.2081838081e+00
 5.6045776189e-01	 1.3373059101e+00	-2.2019224363e+00
 5.3373732887e-01	 1.3481930365e+00	-2.1894329647e+00
 8.0029426432e-01	 1.2241059352e+00	-2.0515266381e+00
 7.7507274221e-01	 1.2402292104e+00	-2.0970477215e+00
 7.4958629690e-01	 1.2557972104e+00	-2.1355527109e+00
 7.2385295974e-01	 1.2708041323e+00	-2.1670919114e+00
 6.9789089144e-01	 1.2852449392e+00	-2.1917333979e+00
 6.7171834235e-01	 1.2991153600e+00	-2.2095624465e+00
 6.4535361310e-01	 1.3124118881e+00	-2.2206808948e+00
 6.1881501575e-01	 1.3251317770e+00	-2.2252064386e+00
 5.9212083569e-01	 1.3372730334e+00	-2.2232718686e+00
 5.6528929432e-01	 1.3488344093e+00	-2.2150242557e+00
 5.3833851274e-01	 1.3598153903e+00	-2.2006240896e+00
 8.0713438623e-01	 1.2345683791e+00	-2.0829212037e+00
 7.8169729556e-01	 1.2508294601e+00	-2.1268364983e+00
 7.5599301738e-01	 1.2665305199e+00	-2.1636252818e+00
 7.3003973717e-01	 1.2816657061e+00	-2.1933612140e+00
 7.0385577085e-01	 1.2962299387e+00	-2.2161358801e+00
 6.7745952476e-01	 1.3102189101e+00	-2.2320581217e+00
 6.5086945594e-01	 1.3236290838e+00	-2.2412532988e+00
 6.2410403298e-01	 1.3364576896e+00	-2.2438624893e+00
 5.9718169753e-01	 1.3487027175e+00	-2.2400416322e+00
 5.7012082675e-01	 1.3603629085e+00	-2.2299606227e+00
 5.4293969661e-01	 1.3714377441e+00	-2.2138023633e+00
 8.1397450815e-01	 1.2450308230e+00	-2.1147877348e+00
 7.8832184891e-01	 1.2614297097e+00	-2.1572381539e+00
 7.6239973787e-01	 1.2772638293e+00	-2.1924536429e+00
 7.3622651460e-01	 1.2925272799e+00	-2.2205309333e+00
 7.0982065027e-01	 1.3072149381e+00	-2.2415848371e+00
 6.8320070718e-01	 1.3213224602e+00	-2.2557474776e+00
 6.5638529879e-01	 1.3348462794e+00	-2.2631674544e+00
 6.2939305020e-01	 1.3477836022e+00	-2.2640089466e+00
 6.0224255938e-01	 1.3601324015e+00	-2.2584507641e+00
 5.7495235918e-01	 1.3718914078e+00	-2.2466853516e+00
 5.4754088048e-01	 1.3830600978e+00	-2.2289177552e+00
 8.2081463007e-01	 1.2554932668e+00	-2.1471144752e+00
 7.9494640226e-01	 1.2720299594e+00	-2.1882374113e+00
 7.6880645835e-01	 1.2879971388e+00	-2.2220189463e+00
 7.4241329204e-01	 1.3033888537e+00	-2.2485786080e+00
 7.1578552968e-01	 1.3181999376e+00	-2.2680541582e+00
 6.8894188959e-01	 1.3324260103e+00	-2.2806007256e+00
 6.6190114164e-01	 1.3460634750e+00	-2.2863898733e+00
 6.3468206743e-01	 1.3591095148e+00	-2.2856086084e+00
 6.0730342122e-01	 1.3715620856e+00	-2.2784583401e+00
 5.7978389161e-01	 1.3834199070e+00	-2.2651537959e+00
 5.5214206435e-01	 1.3946824516e+00	-2.2459219024e+00
 5.0613022563e-01	 1.2784589140e+00	-2.1670472212e+00
 4.8069668729e-01	 1.2882374373e+00	-2.2075978551e+00
 4.5518470244e-01	 1.2974713433e+00	-2.2405610015e+00
 4.2961083119e-01	 1.3061621391e+00	-2.2659555362e+00
 4.0399141433e-01	 1.3143119634e+00	-2.2838176693e+00
 3.7834254540e-01	 1.3219235675e+00	-2.2942003927e+00
 3.5268004430e-01	 1.3290002958e+00	-2.2971728695e+00
 3.2701943254e-01	 1.3355460646e+00	-2.2928197720e+00
 3.0137591004e-01	 1.3415653398e+00	-2.2812405732e+00
 2.7576433360e-01	 1.3470631137e+00	-2.2625487978e+00
 2.5019919707e-01	 1.3520448816e+00	-2.2368712391e+00
 5.1073140950e-01	 1.2900812677e+00	-2.1651618103e+00
 4.8506665718e-01	 1.2999486867e+00	-2.2027640705e+00
 4.5932274519e-01	 1.3092665373e+00	-2.2328506938e+00
 4.3351638421e-01	 1.3180363404e+00	-2.2554572980e+00
 4.0766406356e-01	 1.3262602540e+00	-2.2706364333e+00
 3.8178202308e-01	 1.3339410545e+00	-2.2784569742e+00
 3.5588622652e-01	 1.3410821167e+00	-2.2790034568e+00
 3.2999233647e-01	 1.3476873925e+00	-2.2723753699e+00
 3.0411569104e-01	 1.3537613883e+00	-2.2586864021e+00
 2.7827128209e-01	 1.3593091420e+00	-2.2380636549e+00
 2.5247373523e-01	 1.3643361987e+00	-2.2106468237e+00
 5.1533259338e-01	 1.3017036215e+00	-2.1656030846e+00
 4.8943662707e-01	 1.3116599361e+00	-2.2003831414e+00
 4.6346078794e-01	 1.3210617313e+00	-2.2277196305e+00
 4.3742193722e-01	 1.3299105417e+00	-2.2476646856e+00
 4.1133671278e-01	 1.3382085445e+00	-2.2602869755e+00
 3.8522150077e-01	 1.3459585415e+00	-2.2656710403e+00
 3.5909240874e-01	 1.3531639376e+00	-2.2639165792e+00
 3.3296524041e-01	 1.3598287203e+00	-2.2551376928e+00
 3.0685547204e-01	 1.3659574368e+00	-2.2394620886e+00
 2.8077823058e-01	 1.3715551703e+00	-2.2170302544e+00
 2.5474827338e-01	 1.3766275158e+00	-2.1879946059e+00
 5.1993377725e-01	 1.3133259753e+00	-2.1683093453e+00
 4.9380659695e-01	 1.3233711856e+00	-2.2003900216e+00
 4.6759883069e-01	 1.3328569254e+00	-2.2250994127e+00
 4.4132749023e-01	 1.3417847429e+00	-2.2425059476e+00
 4.1500936201e-01	 1.3501568351e+00	-2.2526941975e+00
 3.8866097846e-01	 1.3579760284e+00	-2.2557641582e+00
 3.6229859096e-01	 1.3652457584e+00	-2.2518304864e+00
 3.3593814434e-01	 1.3719700482e+00	-2.2410216961e+00
 3.0959525305e-01	 1.3781534854e+00	-2.2234793215e+00
 2.8328517906e-01	 1.3838011986e+00	-2.1993570520e+00
 2.5702281154e-01	 1.3889188329e+00	-2.1688198459e+00
 5.2453496112e-01	 1.3249483290e+00	-2.1732210580e+00
 4.9817656684e-01	 1.3350824350e+00	-2.2027219473e+00
 4.7173687344e-01	 1.3446521194e+00	-2.2249240412e+00
 4.4523304325e-01	 1.3536589442e+00	-2.2399118495e+00
 4.1868201123e-01	 1.3621051257e+00	-2.2477856360e+00
 3.9210045614e-01	 1.3699935154e+00	-2.2486606466e+00
 3.6550477318e-01	 1.3773275793e+00	-2.2426662962e+00
 3.3891104827e-01	 1.3841113761e+00	-2.2299453187e+00
 3.1233503405e-01	 1.3903495339e+00	-2.2106528880e+00
 2.8579212755e-01	 1.3960472269e+00	-2.1849557150e+00
 2.5929734969e-01	 1.4012101500e+00	-2.1530311279e+00
 5.2913614499e-01	 1.3365706828e+00	-2.1802807587e+00
 5.0254653673e-01	 1.3467936844e+00	-2.2073183370e+00
 4.7587491620e-01	 1.3564473134e+00	-2.2271298118e+00
 4.4913859626e-01	 1.3655331454e+00	-2.2398155649e+00
 4.2235466045e-01	 1.3740534163e+00	-2.2454913475e+00
 3.9553993383e-01	 1.3820110024e+00	-2.2442874564e+00
 3.6871095541e-01	 1.3894094002e+00	-2.2363478700e+00
 3.4188395221e-01	 1.3962527039e+00	-2.2218293537e+00
 3.1507481505e-01	 1.4025455825e+00	-2.2009005389e+00
 2.8829907604e-01	 1.4082932552e+00	-2.1737409829e+00
 2.6157188785e-01	 1.4135014671e+00	-2.1405402155e+00
 5.3373732887e-01	 1.3481930365e+00	-2.1894329647e+00
 5.0691650661e-01	 1.3585049339e+00	-2.2141206982e+00
 4.8001295895e-01	 1.3682425075e+00	-2.2316552170e+00
 4.5304414927e-01	 1.3774073467e+00	-2.2421525711e+00
 4.2602730967e-01	 1.3860017068e+00	-2.2457438003e+00
 3.9897941152e-01	 1.3940284894e+00	-2.2425740569e+00
 3.7191713763e-01	 1.4014912211e+00	-2.2328016940e+00
 3.4485685614e-01	 1.4083940318e+00	-2.2165973249e+00
 3.1781459605e-01	 1.4147416310e+00	-2.1941428610e+00
 2.9080602453e-01	 1.4205392835e+00	-2.1656305352e+00
 2.6384642601e-01	 1.4257927842e+00	-2.1312619149e+00
 5.3833851274e-01	 1.3598153903e+00	-2.2006240896e+00
 5.1128647650e-01	 1.3702161833e+00	-2.2230725376e+00
 4.8415100170e-01	 1.3800377015e+00	-2.2384408514e+00
 4.5694970228e-01	 1.3892815480e+00	-2.2468605512e+00
 4.2969995890e-01	 1.3979499974e+00	-2.2484777708e+00
 4.0241888921e-01	 1.4060459763e+00	-2.2434523287e+00
 3.7512331985e-01	 1.4135730419e+00	-2.2319567679e+00
 3.4782976007e-01	 1.4205353596e+00	-2.2141753707e+00
 3.2055437705e-01	 1.4269376796e+00	-2.1903031559e+00
 2.9331297302e-01	 1.4327853118e+00	-2.1605448652e+00
 2.6612096416e-01	 1.4380841013e+00	-2.1251139442e+00
 5.4293969661e-01	 1.3714377441e+00	-2.2138023633e+00
 5.1565644639e-01	 1.3819274327e+00	-2.2341192765e+00
 4.8828904445e-01	 1.3918328955e+00	-2.2474293234e+00
 4.6085525530e-01	 1.4011557492e+00	-2.2538793005e+00
 4.3337260812e-01	 1.4098982880e+00	-2.2536302463e+00
 4.0585836689e-01	 1.4180634633e+00	-2.2468564609e+00
 3.7832950207e-01	 1.4256548628e+00	-2.2337444974e+00
 3.5080266401e-01	 1.4326766875e+00	-2.2144921327e+00
 3.2329415805e-01	 1.4391337281e+00	-2.1893073246e+00
 2.9581992150e-01	 1.4450313402e+00	-2.1584071613e+00
 2.6839550232e-01	 1.4503754184e+00	-2.1220168110e+00
 5.4754088048e-01	 1.3830600978e+00	-2.2289177552e+00
 5.2002641627e-01	 1.3936386821e+00	-2.2472081707e+00
 4.9242708720e-01	 1.4036280896e+00	-2.2585651698e+00
 4.6476080831e-01	 1.4130299505e+00	-2.2631506373e+00
 4.3704525734e-01	 1.4218465786e+00	-2.2611403318e+00
 4.0929784458e-01	 1.4300809503e+00	-2.2527228547e+00
 3.8153568429e-01	 1.4377366837e+00	-2.2380985939e+00
 3.5377556794e-01	 1.4448180154e+00	-2.2174786512e+00
 3.2603393905e-01	 1.4513297766e+00	-2.1910837587e+00
 2.9832686999e-01	 1.4572773685e+00	-2.1591431935e+00
 2.7067004047e-01	 1.4626667355e+00	-2.1218936944e+00
 5.5214206435e-01	 1.3946824516e+00	-2.2459219024e+00
 5.2439638616e-01	 1.4053499316e+00	-2.2622882335e+00
 4.9656512995e-01	 1.4154232836e+00	-2.2717947761e+00
 4.6866636132e-01	 1.4249041518e+00	-2.2746183191e+00
 4.4071790656e-01	 1.4337948692e+00	-2.2709491617e+00
 4.1273732226e-01	 1.4420984373e+00	-2.2609900307e+00
 3.8474186652e-01	 1.4498185046e+00	-2.2449549781e+00
 3.5674847187e-01	 1.4569593432e+00	-2.2230682644e+00
 3.2877372005e-01	 1.4635258252e+00	-2.1955632365e+00
 3.0083381848e-01	 1.4695233968e+00	-2.1626812059e+00
 2.7294457863e-01	 1.4749580526e+00	-2.1246703340e+00
 2.5019919707e-01	 1.3520448816e+00	-2.2368712391e+00
 2.2469461325e-01	 1.3565166165e+00	-2.2678593341e+00
 1.9926429742e-01	 1.3604847444e+00	-2.2918137341e+00
 1.7392155274e-01	 1.3639561186e+00	-2.3088315587e+00
 1.4867925715e-01	 1.3669379937e+00	-2.3190218296e+00
 1.2354985213e-01	 1.3694379993e+00	-2.3225047233e+00
 9.8545332989e-02	 1.3714641145e+00	-2.3194108096e+00
 7.3677240862e-02	 1.3730246408e+00	-2.3098802806e+00
 4.8956656228e-02	 1.3741281766e+00	-2.2940621739e+00
 2.4394193985e-02	 1.3747835914e+00	-2.2721135966e+00
 0.0000000000e+00	 1.3750000000e+00	-2.2441989518e+00
 2.5247373523e-01	 1.3643361987e+00	-2.2106468237e+00
 2.2673729155e-01	 1.3688485857e+00	-2.2397757978e+00
 2.0107579104e-01	 1.3728527875e+00	-2.2620831858e+00
 1.7550265777e-01	 1.3763557197e+00	-2.2776700048e+00
 1.5003088676e-01	 1.3793647027e+00	-2.2866486797e+00
 1.2467303260e-01	 1.3818874357e+00	-2.2891422971e+00
 9.9441199652e-02	 1.3839319701e+00	-2.2852838464e+00
 7.4347033960e-02	 1.3855066830e+00	-2.2752154540e+00
 4.9401716739e-02	 1.3866202510e+00	-2.2590876139e+00
 2.4615959384e-02	 1.3872816241e+00	-2.2370584198e+00
 0.0000000000e+00	 1.3875000000e+00	-2.2092928023e+00
 2.5474827338e-01	 1.3766275158e+00	-2.1879946059e+00
 2.2877996985e-01	 1.3811805550e+00	-2.2153252649e+00
 2.0288728465e-01	 1.3852208307e+00	-2.2360450738e+00
 1.7708376279e-01	 1.3887553208e+00	-2.2502588758e+00
 1.5138251637e-01	 1.3917914117e+00	-2.2580824332e+00
 1.2579621308e-01	 1.3943368721e+00	-2.2596416816e+00
 1.0033706631e-01	 1.3963998257e+00	-2.2550719746e+00
 7.5016827059e-02	 1.3979887252e+00	-2.2445173230e+00
 4.9846777249e-02	 1.3991123253e+00	-2.2281296318e+00
 2.4837724784e-02	 1.3997796567e+00	-2.2060679416e+00
 0.0000000000e+00	 1.4000000000e+00	-2.1784976756e+00
 2.5702281154e-01	 1.3889188329e+00	-2.1688198459e+00
 2.3082264815e-01	 1.3935125242e+00	-2.1944113841e+00
 2.0469877826e-01	 1.3975888738e+00	-2.2136014713e+00
 1.7866486781e-01	 1.4011549218e+00	-2.2264987080e+00
 1.5273414598e-01	 1.4042181208e+00	-2.2332221292e+00
 1.2691939355e-01	 1.4067863084e+00	-2.2339004607e+00
 1.0123293298e-01	 1.4088676813e+00	-2.2286713662e+00
 7.5686620157e-02	 1.4104707673e+00	-2.2176806917e+00
 5.0291837760e-02	 1.4116043996e+00	-2.2010817098e+00
 2.5059490184e-02	 1.4122776894e+00	-2.1790343690e+00
 0.0000000000e+00	 1.4125000000e+00	-2.1517045509e+00
 2.5929734969e-01	 1.4012101500e+00	-2.1530311279e+00
 2.3286532645e-01	 1.4058444934e+00	-2.1769411841e+00
 2.0651027187e-01	 1.4099569169e+00	-2.1946578874e+00
 1.8024597284e-01	 1.4135545229e+00	-2.2062935272e+00
 1.5408577559e-01	 1.4166448298e+00	-2.2119703493e+00
 1.2804257402e-01	 1.4192357448e+00	-2.2118198117e+00
 1.0212879964e-01	 1.4213355368e+00	-2.2059818358e+00
 7.6356413255e-02	 1.4229528095e+00	-2.1946040553e+00
 5.0736898271e-02	 1.4240964740e+00	-2.1778410676e+00
 2.5281255583e-02	 1.4247757220e+00	-2.1558536910e+00
 0.0000000000e+00	 1.4250000000e+00	-2.1288082328e+00
 2.6157188785e-01	 1.4135014671e+00	-2.1405402155e+00
 2.3490800476e-01	 1.4181764627e+00	-2.1628249278e+00
 2.0832176549e-01	 1.4223249601e+00	-2.1791231173e+00
 1.8182707786e-01	 1.4259541240e+00	-2.1895506975e+00
 1.5543740520e-01	 1.4290715388e+00	-2.1942330633e+00
 1.2916575450e-01	 1.4316851811e+00	-2.1933043492e+00
 1.0302466630e-01	 1.4338033924e+00	-2.1869066829e+00
 7.7026206353e-02	 1.4354348517e+00	-2.1751894395e+00
 5.1181958781e-02	 1.4365885483e+00	-2.1583084994e+00
 2.5503020983e-02	 1.4372737547e+00	-2.1364255143e+00
 0.0000000000e+00	 1.4375000000e+00	-2.1097071846e+00
 2.6384642601e-01	 1.4257927842e+00	-2.1312619149e+00
 2.3695068306e-01	 1.4305084319e+00	-2.1519759716e+00
 2.1013325910e-01	 1.4346930032e+00	-2.1669091014e+00
 1.8340818289e-01	 1.4383537251e+00	-2.1761807770e+00
 1.5678903481e-01	 1.4414982479e+00	-2.1799194833e+00
 1.3028893497e-01	 1.4441346175e+00	-2.1782619767e+00
 1.0392053297e-01	 1.4462712480e+00	-2.1713525413e+00
 7.7695999451e-02	 1.4479168939e+00	-2.1593422484e+00
 5.1627019292e-02	 1.4490806226e+00	-2.1423882207e+00
 2.5724786382e-02	 1.4497717873e+00	-2.1206529075e+00
 0.0000000000e+00	 1.4500000000e+00	-2.0943033711e+00
 2.6612096416e-01	 1.4380841013e+00	-2.1251139442e+00
 2.3899336136e-01	 1.4428404012e+00	-2.1443106345e+00
 2.1194475271e-01	 1.4470610463e+00	-2.1579307903e+00
 1.8498928791e-01	 1.4507533262e+00	-2.1660973815e+00
 1.5814066442e-01	 1.4539249569e+00	-2.1689419253e+00
 1.3141211544e-01	 1.4565840538e+00	-2.1666037463e+00
 1.0481639963e-01	 1.4587391036e+00	-2.1592292367e+00
 7.8365792550e-02	 1.4603989361e+00	-2.1469711198e+00
 5.2072079803e-02	 1.4615726970e+00	-2.1299877214e+00
 2.5946551782e-02	 1.4622698200e+00	-2.1084422530e+00
 0.0000000000e+00	 1.4625000000e+00	-2.0825021086e+00
 2.6839550232e-01	 1.4503754184e+00	-2.1220168110e+00
 2.4103603966e-01	 1.4551723704e+00	-2.1397480714e+00
 2.1375624632e-01	 1.4594290895e+00	-2.1521060174e+00
 1.8657039294e-01	 1.4631529272e+00	-2.1592170550e+00
 1.5949229403e-01	 1.4663516659e+00	-2.1612156771e+00
 1.3253529592e-01	 1.4690334902e+00	-2.1582437251e+00
 1.0571226629e-01	 1.4712069592e+00	-2.1504496515e+00
 7.9035585648e-02	 1.4728809783e+00	-2.1379877887e+00
 5.2517140314e-02	 1.4740647713e+00	-2.1210176273e+00
 2.6168317182e-02	 1.4747678526e+00	-2.0997031068e+00
 0.0000000000e+00	 1.4750000000e+00	-2.0742119230e+00
 2.7067004047e-01	 1.4626667355e+00	-2.1218936944e+00
 2.4307871796e-01	 1.4675043396e+00	-2.1382101548e+00
 2.1556773994e-01	 1.4717971326e+00	-2.1493553779e+00
 1.8815149796e-01	 1.4755525283e+00	-2.1554591464e+00
 1.6084392364e-01	 1.4787783750e+00	-2.1566588742e+00
 1.3365847639e-01	 1.4814829266e+00	-2.1530988685e+00
 1.0660813296e-01	 1.4836748148e+00	-2.1449295962e+00
 7.9705378746e-02	 1.4853630205e+00	-2.1323069569e+00
 5.2962200824e-02	 1.4865568456e+00	-2.1153915683e+00
 2.6390082581e-02	 1.4872658853e+00	-2.0943480649e+00
 0.0000000000e+00	 1.4875000000e+00	-2.0693444150e+00
 2.7294457863e-01	 1.4749580526e+00	-2.1246703340e+00
 2.4512139627e-01	 1.4798363089e+00	-2.1396213611e+00
 2.1737923355e-01	 1.4841651757e+00	-2.1496021135e+00
 1.8973260298e-01	 1.4879521294e+00	-2.1547456930e+00
 1.6219555325e-01	 1.4912050840e+00	-2.1551923806e+00
 1.3478165686e-01	 1.4939323629e+00	-2.1510889001e+00
 1.0750399962e-01	 1.4961426704e+00	-2.1425876875e+00
 8.0375171844e-02	 1.4978450627e+00	-2.1298461692e+00
 5.3407261335e-02	 1.4990489200e+00	-2.1130260533e+00
 2.6611847981e-02	 1.4997639179e+00	-2.0922926367e+00
 0.0000000000e+00	 1.5000000000e+00	-2.0678141320e+00
 1.5000000000e+00	 0.0000000000e+00	 2.6009233157e+00
 1.4997639179e+00	 2.6611847981e-02	 2.6077640570e+00
 1.4990489200e+00	 5.3407261335e-02	 2.6052048673e+00
 1.4978450627e+00	 8.0375171844e-02	 2.5930321083e+00
 1.4961426704e+00	 1.0750399962e-01	 2.5710475217e+00
 1.4939323629e+00	 1.3478165686e-01	 2.5390695345e+00
 1.4912050840e+00	 1.6219555325e-01	 2.4969345564e+00
 1.4879521294e+00	 1.8973260298e-01	 2.4444982612e+00
 1.4841651757e+00	 2.1737923355e-01	 2.3816368441e+00
 1.4798363089e+00	 2.4512139627e-01	 2.3082482463e+00
 1.4749580526e+00	 2.7294457863e-01	 2.2242533373e+00
 1.5125000000e+00	 0.0000000000e+00	 2.5825025548e+00
 1.5122619506e+00	 2.6833613381e-02	 2.5893115367e+00
 1.5115409943e+00	 5.3852321846e-02	 2.5867116707e+00
 1.5103271049e+00	 8.1044964942e-02	 2.5744876667e+00
 1.5086105259e+00	 1.0839986628e-01	 2.5524397753e+00
 1.5063817993e+00	 1.3590483734e-01	 2.5203851119e+00
 1.5036317930e+00	 1.6354718286e-01	 2.4781589715e+00
 1.5003517305e+00	 1.9131370801e-01	 2.4256161287e+00
 1.4965332189e+00	 2.1919072716e-01	 2.3626321126e+00
 1.4921682781e+00	 2.4716407457e-01	 2.2891044486e+00
 1.4872493697e+00	 2.7521911678e-01	 2.2049538587e+00
 1.5250000000e+00	 0.0000000000e+00	 2.5659348887e+00
 1.5247599832e+00	 2.7055378780e-02	 2.5726993562e+00
 1.5240330686e+00	 5.4297382357e-02	 2.5700469981e+00
 1.5228091470e+00	 8.1714758041e-02	 2.5577609107e+00
 1.5210783815e+00	 1.0929573294e-01	 2.5356398914e+00
 1.5188312356e+00	 1.3702801781e-01	 2.5034997800e+00
 1.5160585021e+00	 1.6489881247e-01	 2.4611747924e+00
 1.5127513316e+00	 1.9289481303e-01	 2.4085188376e+00
 1.5089012620e+00	 2.2100222078e-01	 2.3454068110e+00
 1.5045002474e+00	 2.4920675287e-01	 2.2717358533e+00
 1.4995406868e+00	 2.7749365494e-01	 2.1874265676e+00
 1.5375000000e+00	 0.0000000000e+00	 2.5511751918e+00
 1.5372580159e+00	 2.7277144180e-02	 2.5578826980e+00
 1.5365251430e+00	 5.4742442867e-02	 2.5551663172e+00
 1.5352911892e+00	 8.2384551139e-02	 2.5428075695e+00
 1.5335462371e+00	 1.1019159961e-01	 2.5206038355e+00
 1.5312806720e+00	 1.3815119828e-01	 2.4883697153e+00
 1.5284852111e+00	 1.6625044208e-01	 2.4459383799e+00
 1.5251509326e+00	 1.9447591806e-01	 2.3931629060e+00
 1.5212693051e+00	 2.2281371439e-01	 2.3299175867e+00
 1.5168322166e+00	 2.5124943117e-01	 2.2560992079e+00
 1.5118320039e+00	 2.7976819309e-01	 2.1716282819e+00
 1.5500000000e+00	 0.0000000000e+00	 2.5381797940e+00
 1.5497560485e+00	 2.7498909579e-02	 2.5448181903e+00
 1.5490172173e+00	 5.5187503378e-02	 2.5420265322e+00
 1.5477732314e+00	 8.3054344237e-02	 2.5295848001e+00
 1.5460140927e+00	 1.1108746627e-01	 2.5072889937e+00
 1.5437301084e+00	 1.3927437876e-01	 2.4749525081e+00
 1.5409119201e+00	 1.6760207169e-01	 2.4324075027e+00
 1.5375505337e+00	 1.9605702308e-01	 2.3795062545e+00
 1.5336373482e+00	 2.2462520800e-01	 2.3161224851e+00
 1.5291641859e+00	 2.5329210948e-01	 2.2421526548e+00
 1.5241233210e+00	 2.8204273125e-01	 2.1575172125e+00
 1.5625000000e+00	 0.0000000000e+00	 2.5269064228e+00
 1.5622540812e+00	 2.7720674979e-02	 2.5334638491e+00
 1.5615092916e+00	 5.5632563889e-02	 2.5305859261e+00
 1.5602552736e+00	 8.3724137335e-02	 2.5180511305e+00
 1.5584819483e+00	 1.1198333293e-01	 2.4956541156e+00
 1.5561795447e+00	 1.4039755923e-01	 2.4632071054e+00
 1.5533386292e+00	 1.6895370130e-01	 2.4205412809e+00
 1.5499501348e+00	 1.9763812811e-01	 2.3675081504e+00
 1.5460053914e+00	 2.2643670161e-01	 2.3039808943e+00
 1.5414961551e+00	 2.5533478778e-01	 2.2298556758e+00
 1.5364146382e+00	 2.8431726940e-01	 2.1450529073e+00
 1.5750000000e+00	 0.0000000000e+00	 2.5173141474e+00
 1.5747521138e+00	 2.7942440379e-02	 2.5237790232e+00
 1.5740013660e+00	 5.6077624400e-02	 2.5208041066e+00
 1.5727373158e+00	 8.4393930433e-02	 2.5081664053e+00
 1.5709498039e+00	 1.1287919960e-01	 2.4856592603e+00
 1.5686289811e+00	 1.4152073970e-01	 2.4530937578e+00
 1.5657653382e+00	 1.7030533091e-01	 2.4103001321e+00
 1.5623497359e+00	 1.9921923313e-01	 2.3571291539e+00
 1.5583734345e+00	 2.2824819523e-01	 2.2934534915e+00
 1.5538281243e+00	 2.5737746608e-01	 2.2191690389e+00
 1.5487059553e+00	 2.8659180756e-01	 2.1341961984e+00
 1.5875000000e+00	 0.0000000000e+00	 2.5093633264e+00
 1.5872501465e+00	 2.8164205778e-02	 2.5157243418e+00
 1.5864934403e+00	 5.6522684910e-02	 2.5126419533e+00
 1.5852193580e+00	 8.5063723532e-02	 2.4998917335e+00
 1.5834176595e+00	 1.1377506626e-01	 2.4772657448e+00
 1.5810784174e+00	 1.4264392017e-01	 2.4445739674e+00
 1.5781920472e+00	 1.7165696052e-01	 2.4016457206e+00
 1.5747493369e+00	 2.0080033816e-01	 2.3483310671e+00
 1.5707414776e+00	 2.3005968884e-01	 2.2845021922e+00
 1.5661600936e+00	 2.5942014438e-01	 2.2100547477e+00
 1.5609972724e+00	 2.8886634572e-01	 2.1249091513e+00
 1.6000000000e+00	 0.0000000000e+00	 2.5030155571e+00
 1.5997481791e+00	 2.8385971178e-02	 2.5092616644e+00
 1.5989855146e+00	 5.6967745421e-02	 2.5060615683e+00
 1.5977014002e+00	 8.5733516630e-02	 2.4931894399e+00
 1.5958855151e+00	 1.1467093292e-01	 2.4704360950e+00
 1.5935278538e+00	 1.4376710065e-01	 2.4376104397e+00
 1.5906187563e+00	 1.7300859013e-01	 2.3945409086e+00
 1.5871489380e+00	 2.0238144318e-01	 2.3410768859e+00
 1.5831095208e+00	 2.3187118245e-01	 2.2770901020e+00
 1.5784920628e+00	 2.6146282268e-01	 2.2024759930e+00
 1.5732885895e+00	 2.9114088387e-01	 2.1171550169e+00
 1.6125000000e+00	 0.0000000000e+00	 2.4982336277e+00
 1.6122462118e+00	 2.8607736578e-02	 2.5043540330e+00
 1.6114775890e+00	 5.7412805932e-02	 2.5010262289e+00
 1.6101834424e+00	 8.6403309728e-02	 2.4880230170e+00
 1.6083533706e+00	 1.1556679958e-01	 2.4651339985e+00
 1.6059772901e+00	 1.4489028112e-01	 2.4321670362e+00
 1.6030454653e+00	 1.7436021974e-01	 2.3889497097e+00
 1.5995485391e+00	 2.0396254820e-01	 2.3353307537e+00
 1.5954775639e+00	 2.3368267606e-01	 2.2711814705e+00
 1.5908240321e+00	 2.6350550099e-01	 2.1963971070e+00
 1.5855799066e+00	 2.9341542203e-01	 2.1108981855e+00
 1.6250000000e+00	 0.0000000000e+00	 2.4949814712e+00
 1.6247442444e+00	 2.8829501977e-02	 2.5009656271e+00
 1.6239696633e+00	 5.7857866443e-02	 2.4975003423e+00
 1.6226654846e+00	 8.7073102826e-02	 2.4843570809e+00
 1.6208212262e+00	 1.1646266625e-01	 2.4613242604e+00
 1.6184267265e+00	 1.4601346159e-01	 2.4282087305e+00
 1.6154721743e+00	 1.7571184935e-01	 2.3848372448e+00
 1.6119481402e+00	 2.0554365323e-01	 2.3310579166e+00
 1.6078456070e+00	 2.3549416968e-01	 2.2667416471e+00
 1.6031560013e+00	 2.6554817929e-01	 2.1917835189e+00
 1.5978712237e+00	 2.9568996018e-01	 2.1061041430e+00
 1.4749580526e+00	 2.7294457863e-01	 2.2242533373e+00
 1.4695233968e+00	 3.0083381848e-01	 2.1597312871e+00
 1.4635258252e+00	 3.2877372005e-01	 2.0857407581e+00
 1.4569593432e+00	 3.5674847187e-01	 2.0022210965e+00
 1.4498185046e+00	 3.8474186652e-01	 1.9091345628e+00
 1.4420984373e+00	 4.1273732226e-01	 1.8064672581e+00
 1.4337948692e+00	 4.4071790656e-01	 1.6942299750e+00
 1.4249041518e+00	 4.6866636132e-01	 1.5724589656e+00
 1.4154232836e+00	 4.9656512995e-01	 1.4412166181e+00
 1.4053499316e+00	 5.2439638616e-01	 1.3005920342e+00
 1.3946824516e+00	 5.5214206435e-01	 1.1507014990e+00
 1.4872493697e+00	 2.7521911678e-01	 2.2049538587e+00
 1.4817694251e+00	 3.0334076697e-01	 2.1398357598e+00
 1.4757218737e+00	 3.3151350105e-01	 2.0652629791e+00
 1.4691006711e+00	 3.5972137580e-01	 1.9811742045e+00
 1.4619003254e+00	 3.8794804874e-01	 1.8875311986e+00
 1.4541159243e+00	 4.1617679995e-01	 1.7843197370e+00
 1.4457431597e+00	 4.4439055579e-01	 1.6715504725e+00
 1.4367783530e+00	 4.7257191433e-01	 1.5492597142e+00
 1.4272184776e+00	 5.0070317270e-01	 1.4175101158e+00
 1.4170611810e+00	 5.2876635604e-01	 1.2763912625e+00
 1.4063048054e+00	 5.5674324821e-01	 1.1260201516e+00
 1.4995406868e+00	 2.7749365494e-01	 2.1874265676e+00
 1.4940154534e+00	 3.0584771545e-01	 2.1216989032e+00
 1.4879179223e+00	 3.3425328206e-01	 2.0465310080e+00
 1.4812419989e+00	 3.6269427974e-01	 1.9618609446e+00
 1.4739821463e+00	 3.9115423096e-01	 1.8676500095e+00
 1.4661334112e+00	 4.1961627764e-01	 1.7638836843e+00
 1.4576914503e+00	 4.4806320501e-01	 1.6505725119e+00
 1.4486525543e+00	 4.7647746734e-01	 1.5277528876e+00
 1.4390136716e+00	 5.0484121545e-01	 1.3954877578e+00
 1.4287724304e+00	 5.3313632592e-01	 1.2538672181e+00
 1.4179271591e+00	 5.6134443208e-01	 1.1030090018e+00
 1.5118320039e+00	 2.7976819309e-01	 2.1716282819e+00
 1.5062614817e+00	 3.0835466394e-01	 2.1052778621e+00
 1.5001139708e+00	 3.3699306306e-01	 2.0295023005e+00
 1.4933833268e+00	 3.6566718367e-01	 1.9442390666e+00
 1.4860639672e+00	 3.9436041318e-01	 1.8494490220e+00
 1.4781508982e+00	 4.2305575532e-01	 1.7451173849e+00
 1.4696397409e+00	 4.5173585423e-01	 1.6312546176e+00
 1.4605267556e+00	 4.8038302035e-01	 1.5078972297e+00
 1.4508088657e+00	 5.0897925820e-01	 1.3751084877e+00
 1.4404836799e+00	 5.3750629581e-01	 1.2329790226e+00
 1.4295495129e+00	 5.6594561595e-01	 1.0816273283e+00
 1.5241233210e+00	 2.8204273125e-01	 2.1575172125e+00
 1.5185075100e+00	 3.1086161243e-01	 2.0905311636e+00
 1.5123100194e+00	 3.3973284406e-01	 2.0141356846e+00
 1.5055246547e+00	 3.6864008760e-01	 1.9282676831e+00
 1.4981457880e+00	 3.9756659540e-01	 1.8328876166e+00
 1.4901683852e+00	 4.2649523301e-01	 1.7279804692e+00
 1.4815880315e+00	 4.5540850345e-01	 1.6135566517e+00
 1.4724009568e+00	 4.8428857336e-01	 1.4896528154e+00
 1.4626040597e+00	 5.1311730095e-01	 1.3563325731e+00
 1.4521949293e+00	 5.4187626569e-01	 1.2136871165e+00
 1.4411718666e+00	 5.7054679982e-01	 1.0618357231e+00
 1.5364146382e+00	 2.8431726940e-01	 2.1450529073e+00
 1.5307535383e+00	 3.1336856092e-01	 2.0774186617e+00
 1.5245060679e+00	 3.4247262506e-01	 2.0003913055e+00
 1.5176659825e+00	 3.7161299154e-01	 1.9139072149e+00
 1.5102276089e+00	 4.0077277763e-01	 1.8179264731e+00
 1.5021858722e+00	 4.2993471070e-01	 1.7124338593e+00
 1.4935363220e+00	 4.5908115267e-01	 1.5974397605e+00
 1.4842751581e+00	 4.8819412638e-01	 1.4729809969e+00
 1.4743992537e+00	 5.1725534370e-01	 1.3391215532e+00
 1.4639061787e+00	 5.4624623558e-01	 1.1959532058e+00
 1.4527942204e+00	 5.7514798369e-01	 1.0435960394e+00
 1.5487059553e+00	 2.8659180756e-01	 2.1341961984e+00
 1.5429995666e+00	 3.1587550940e-01	 2.0659014849e+00
 1.5367021165e+00	 3.4521240606e-01	 1.9882305736e+00
 1.5298073104e+00	 3.7458589547e-01	 1.9011193392e+00
 1.5223094298e+00	 4.0397895985e-01	 1.8045275197e+00
 1.5142033592e+00	 4.3337418838e-01	 1.6984397177e+00
 1.5054846126e+00	 4.6275380190e-01	 1.5828663237e+00
 1.4961493594e+00	 4.9209967939e-01	 1.4578443532e+00
 1.4861944478e+00	 5.2139338645e-01	 1.3234381877e+00
 1.4756174282e+00	 5.5061620546e-01	 1.1797402124e+00
 1.4644165742e+00	 5.7974916756e-01	 1.0268713410e+00
 1.5609972724e+00	 2.8886634572e-01	 2.1249091513e+00
 1.5552455949e+00	 3.1838245789e-01	 2.0559419858e+00
 1.5488981650e+00	 3.4795218706e-01	 1.9776161146e+00
 1.5419486383e+00	 3.7755879940e-01	 1.8898669400e+00
 1.5343912507e+00	 4.0718514207e-01	 1.7926538835e+00
 1.5262208461e+00	 4.3681366607e-01	 1.6859613985e+00
 1.5174329032e+00	 4.6642645112e-01	 1.5697999059e+00
 1.5080235606e+00	 4.9600523240e-01	 1.4442066417e+00
 1.4979896418e+00	 5.2553142920e-01	 1.3092464093e+00
 1.4873286776e+00	 5.5498617535e-01	 1.1650122256e+00
 1.4760389279e+00	 5.8435035143e-01	 1.0116258552e+00
 1.5732885895e+00	 2.9114088387e-01	 2.1171550169e+00
 1.5674916232e+00	 3.2088940638e-01	 2.0475036933e+00
 1.5610942135e+00	 3.5069196806e-01	 1.9685117219e+00
 1.5540899661e+00	 3.8053170334e-01	 1.8801140613e+00
 1.5464730715e+00	 4.1039132429e-01	 1.7822698438e+00
 1.5382383331e+00	 4.4025314375e-01	 1.6749634009e+00
 1.5293811938e+00	 4.7009910034e-01	 1.5582052098e+00
 1.5198977619e+00	 4.9991078541e-01	 1.4320327526e+00
 1.5097848358e+00	 5.2966947195e-01	 1.2965112777e+00
 1.4990399270e+00	 5.5935614523e-01	 1.1517344569e+00
 1.4876612817e+00	 5.8895153530e-01	 9.9782492689e-01
 1.5855799066e+00	 2.9341542203e-01	 2.1108981855e+00
 1.5797376515e+00	 3.2339635487e-01	 2.0405512672e+00
 1.5732902621e+00	 3.5343174906e-01	 1.9608823118e+00
 1.5662312940e+00	 3.8350460727e-01	 1.8718258616e+00
 1.5585548924e+00	 4.1359750651e-01	 1.7733407873e+00
 1.5502558201e+00	 4.4369262144e-01	 1.6654113247e+00
 1.5413294843e+00	 4.7377174956e-01	 1.5480480329e+00
 1.5317719632e+00	 5.0381633842e-01	 1.4212886641e+00
 1.5215800299e+00	 5.3380751470e-01	 1.2851989359e+00
 1.5107511764e+00	 5.6372611512e-01	 1.1398731964e+00
 1.4992836355e+00	 5.9355271917e-01	 9.8543497550e-01
 1.5978712237e+00	 2.9568996018e-01	 2.1061041430e+00
 1.5919836798e+00	 3.2590330336e-01	 2.0350504545e+00
 1.5854863106e+00	 3.5617153006e-01	 1.9546938795e+00
 1.5783726218e+00	 3.8647751120e-01	 1.8649685715e+00
 1.5706367133e+00	 4.1680368873e-01	 1.7658331657e+00
 1.5622733071e+00	 4.4713209913e-01	 1.6572718282e+00
 1.5532777749e+00	 4.7744439878e-01	 1.5392952247e+00
 1.5436461644e+00	 5.0772189143e-01	 1.4119414017e+00
 1.5333752239e+00	 5.3794555745e-01	 1.2752765684e+00
 1.5224624259e+00	 5.6809608500e-01	 1.1293957713e+00
 1.5109059892e+00	 5.9815390303e-01	 9.7442345360e-01
 1.3946824516e+00	 5.5214206435e-01	 1.1507014990e+00
 1.3834199070e+00	 5.7978389161e-01	 1.0307156109e+00
 1.3715620856e+00	 6.0730342122e-01	 9.0540196903e-01
 1.3591095148e+00	 6.3468206743e-01	 7.7487843646e-01
 1.3460634750e+00	 6.6190114164e-01	 6.3927877227e-01
 1.3324260103e+00	 6.8894188959e-01	 4.9875255400e-01
 1.3181999376e+00	 7.1578552968e-01	 3.5346502315e-01
 1.3033888537e+00	 7.4241329204e-01	 2.0359685221e-01
 1.2879971388e+00	 7.6880645835e-01	 4.9343832458e-02
 1.2720299594e+00	 7.9494640226e-01	-1.0908351750e-01
 1.2554932668e+00	 8.2081463007e-01	-2.7146042207e-01
 1.4063048054e+00	 5.5674324821e-01	 1.1260201516e+00
 1.3949484062e+00	 5.8461542404e-01	 1.0049946539e+00
 1.3829917696e+00	 6.1236428306e-01	 8.7875102626e-01
 1.3704354275e+00	 6.3997108466e-01	 7.4740468055e-01
 1.3572806706e+00	 6.6741698448e-01	 6.1108668815e-01
 1.3435295603e+00	 6.9468307200e-01	 4.6994371204e-01
 1.3291849371e+00	 7.2175040909e-01	 3.2413786277e-01
 1.3142504274e+00	 7.4860006947e-01	 1.7384647737e-01
 1.2987304483e+00	 7.7521317884e-01	 1.9261820107e-02
 1.2826302090e+00	 8.0157095562e-01	-1.3940929488e-01
 1.2659557107e+00	 8.2765475199e-01	-3.0194595881e-01
 1.4179271591e+00	 5.6134443208e-01	 1.1030090018e+00
 1.4064769054e+00	 5.8944695647e-01	 9.8090970094e-01
 1.3944214537e+00	 6.1742514490e-01	 8.5370110715e-01
 1.3817613401e+00	 6.4526010189e-01	 7.2149623558e-01
 1.3684978662e+00	 6.7293282733e-01	 5.8442352747e-01
 1.3546331104e+00	 7.0042425441e-01	 4.4262679133e-01
 1.3401699366e+00	 7.2771528851e-01	 2.9626506938e-01
 1.3251120012e+00	 7.5478684690e-01	 1.4551242806e-01
 1.3094637578e+00	 7.8161989933e-01	-9.4423283632e-03
 1.2932304587e+00	 8.0819550897e-01	-1.6839602129e-01
 1.2764181546e+00	 8.3449487391e-01	-3.3113153810e-01
 1.4295495129e+00	 5.6594561595e-01	 1.0816273283e+00
 1.4180054047e+00	 5.9427848890e-01	 9.5842086237e-01
 1.4058511377e+00	 6.2248600675e-01	 8.3021317279e-01
 1.3930872527e+00	 6.5054911911e-01	 6.9711493140e-01
 1.3797150619e+00	 6.7844867017e-01	 5.5925200536e-01
 1.3657366605e+00	 7.0616543683e-01	 4.1676540735e-01
 1.3511549360e+00	 7.3368016792e-01	 2.6981117230e-01
 1.3359735750e+00	 7.6097362433e-01	 1.1856015939e-01
 1.3201970673e+00	 7.8802661981e-01	-3.6802221745e-02
 1.3038307084e+00	 8.1482006232e-01	-1.9607636080e-01
 1.2868805985e+00	 8.4133499582e-01	-3.5904887242e-01
 1.4411718666e+00	 5.7054679982e-01	 1.0618357231e+00
 1.4295339039e+00	 5.9911002133e-01	 9.3748953504e-01
 1.4172808218e+00	 6.2754686859e-01	 8.0824944347e-01
 1.4044131653e+00	 6.5583813634e-01	 6.7422382905e-01
 1.3909322575e+00	 6.8396451302e-01	 5.3553603959e-01
 1.3768402106e+00	 7.1190661924e-01	 3.9232434916e-01
 1.3621399355e+00	 7.3964504733e-01	 2.4474184500e-01
 1.3468351488e+00	 7.6716040177e-01	 9.2956240776e-02
 1.3309303768e+00	 7.9443334030e-01	-6.2850384704e-02
 1.3144309580e+00	 8.2144461567e-01	-2.2248192382e-01
 1.2973430424e+00	 8.4817511774e-01	-3.8572865124e-01
 1.4527942204e+00	 5.7514798369e-01	 1.0435960394e+00
 1.4410624031e+00	 6.0394155376e-01	 9.1807835103e-01
 1.4287105058e+00	 6.3260773043e-01	 7.8777334832e-01
 1.4157390779e+00	 6.6112715357e-01	 6.5278717153e-01
 1.4021494531e+00	 6.8948035586e-01	 5.1324070250e-01
 1.3879437607e+00	 7.1764780165e-01	 3.6926953254e-01
 1.3731249350e+00	 7.4560992674e-01	 2.2102385934e-01
 1.3576967225e+00	 7.7334717920e-01	 6.8668311377e-02
 1.3416636863e+00	 8.0084006078e-01	-8.7618301141e-02
 1.3250312077e+00	 8.2806916902e-01	-2.4764330924e-01
 1.3078054863e+00	 8.5501523966e-01	-4.1120058199e-01
 1.4644165742e+00	 5.7974916756e-01	 1.0268713410e+00
 1.4525909023e+00	 6.0877308619e-01	 9.0015112858e-01
 1.4401401898e+00	 6.3766859227e-01	 7.6874947738e-01
 1.4270649906e+00	 6.6641617079e-01	 6.3277033689e-01
 1.4133666487e+00	 6.9499619871e-01	 4.9233217514e-01
 1.3990473108e+00	 7.2338898406e-01	 3.4756795522e-01
 1.3841099345e+00	 7.5157480616e-01	 1.9862504201e-01
 1.3685582963e+00	 7.7953395663e-01	 4.5665037639e-02
 1.3523969957e+00	 8.0724678127e-01	-1.1113645550e-01
 1.3356314573e+00	 8.3469372238e-01	-2.7159014456e-01
 1.3182679302e+00	 8.6185536158e-01	-4.3549342897e-01
 1.4760389279e+00	 5.8435035143e-01	 1.0116258552e+00
 1.4641194016e+00	 6.1360461862e-01	 8.8367282543e-01
 1.4515698739e+00	 6.4272945412e-01	 7.5114353583e-01
 1.4383909032e+00	 6.7170518802e-01	 6.1413979355e-01
 1.4245838444e+00	 7.0051204155e-01	 4.7277770368e-01
 1.4101508608e+00	 7.2913016647e-01	 3.2718765431e-01
 1.3950949340e+00	 7.5753968557e-01	 1.7751423296e-01
 1.3794198701e+00	 7.8572073407e-01	 2.3916072847e-02
 1.3631303052e+00	 8.1365350175e-01	-1.3343437210e-01
 1.3462317070e+00	 8.4131827573e-01	-2.9435112414e-01
 1.3287303741e+00	 8.6869548350e-01	-4.5863505055e-01
 1.4876612817e+00	 5.8895153530e-01	 9.9782492689e-01
 1.4756479008e+00	 6.1843615105e-01	 8.6860949427e-01
 1.4629995579e+00	 6.4779031596e-01	 7.3492230050e-01
 1.4497168158e+00	 6.7699420525e-01	 5.9686305770e-01
 1.4358010400e+00	 7.0602788440e-01	 4.5454555774e-01
 1.4212544109e+00	 7.3487134888e-01	 3.0809766570e-01
 1.4060799334e+00	 7.6350456498e-01	 1.5766124583e-01
 1.3902814439e+00	 7.9190751150e-01	 3.3920185832e-03
 1.3738636147e+00	 8.2006022224e-01	-1.5454065266e-01
 1.3568319566e+00	 8.4794282908e-01	-3.1595404568e-01
 1.3391928179e+00	 8.7553560541e-01	-4.8065243448e-01
 1.4992836355e+00	 5.9355271917e-01	 9.8543497550e-01
 1.4871764000e+00	 6.2326768348e-01	 8.5492824032e-01
 1.4744292420e+00	 6.5285117780e-01	 7.2005357828e-01
 1.4610427284e+00	 6.8228322248e-01	 5.8090865270e-01
 1.4470182356e+00	 7.1154372724e-01	 4.3760499078e-01
 1.4323579610e+00	 7.4061253130e-01	 2.9026798534e-01
 1.4170649329e+00	 7.6946944439e-01	 1.3903683025e-01
 1.4011430177e+00	 7.9809428893e-01	-1.5935612032e-02
 1.3845969242e+00	 8.2646694273e-01	-1.7448301206e-01
 1.3674322063e+00	 8.5456738243e-01	-3.3642584492e-01
 1.3496552618e+00	 8.8237572733e-01	-5.0157173173e-01
 1.5109059892e+00	 5.9815390303e-01	 9.7442345360e-01
 1.4987048992e+00	 6.2809921591e-01	 8.4259718085e-01
 1.4858589260e+00	 6.5791203964e-01	 7.0650616654e-01
 1.4723686411e+00	 6.8757223970e-01	 5.6624607033e-01
 1.4582354312e+00	 7.1705957009e-01	 4.2192620221e-01
 1.4434615111e+00	 7.4635371371e-01	 2.7366953231e-01
 1.4280499324e+00	 7.7543432381e-01	 1.2161263577e-01
 1.4120045914e+00	 8.0428106636e-01	-3.4094429398e-02
 1.3953302337e+00	 8.3287366321e-01	-1.9328831242e-01
 1.3780324560e+00	 8.6119193579e-01	-3.5579262882e-01
 1.3601177057e+00	 8.8921584925e-01	-5.2141828856e-01
 1.2554932668e+00	 8.2081463007e-01	-2.7146042207e-01
 1.2383937950e+00	 8.4639282170e-01	-3.9896467616e-01
 1.2207390541e+00	 8.7166287166e-01	-5.2574767867e-01
 1.2025373231e+00	 8.9660692984e-01	-6.5166040046e-01
 1.1837976385e+00	 9.2120744199e-01	-7.7655555021e-01
 1.1645297814e+00	 9.4544718958e-01	-9.0028804866e-01
 1.1447442616e+00	 9.6930932908e-01	-1.0227154954e+00
 1.1244522996e+00	 9.9277743019e-01	-1.1436986254e+00
 1.1036658055e+00	 1.0158355131e+00	-1.2631017531e+00
 1.0823973566e+00	 1.0384680844e+00	-1.3807932001e+00
 1.0606601718e+00	 1.0606601718e+00	-1.4966457054e+00
 1.2659557107e+00	 8.2765475199e-01	-3.0194595881e-01
 1.2487137432e+00	 8.5344609521e-01	-4.3014245255e-01
 1.2309118795e+00	 8.7892672892e-01	-5.5744294620e-01
 1.2125584674e+00	 9.0407865426e-01	-6.8370674306e-01
 1.1936626188e+00	 9.2888417067e-01	-8.0879545717e-01
 1.1742341962e+00	 9.5332591617e-01	-9.3257345412e-01
 1.1542837971e+00	 9.7738690683e-01	-1.0549082814e+00
 1.1338227354e+00	 1.0010505754e+00	-1.1756710859e+00
 1.1128630206e+00	 1.0243008091e+00	-1.2947370153e+00
 1.0914173346e+00	 1.0471219851e+00	-1.4119856021e+00
 1.0694990065e+00	 1.0694990065e+00	-1.5273011267e+00
 1.2764181546e+00	 8.3449487391e-01	-3.3113153810e-01
 1.2590336915e+00	 8.6049936873e-01	-4.6008372988e-01
 1.2410847050e+00	 8.8619058619e-01	-5.8796702568e-01
 1.2225796118e+00	 9.1155037868e-01	-7.1464894686e-01
 1.2035275991e+00	 9.3656089936e-01	-8.3999989297e-01
 1.1839386111e+00	 9.6120464275e-01	-9.6389354973e-01
 1.1638233327e+00	 9.8546448457e-01	-1.0862072833e+00
 1.1431931713e+00	 1.0093237207e+00	-1.2068225186e+00
 1.1220602356e+00	 1.0327661050e+00	-1.3256250996e+00
 1.1004373125e+00	 1.0557758859e+00	-1.4425056293e+00
 1.0783378413e+00	 1.0783378413e+00	-1.5573597863e+00
 1.2868805985e+00	 8.4133499582e-01	-3.5904887242e-01
 1.2693536398e+00	 8.6755264225e-01	-4.8881867468e-01
 1.2512575304e+00	 8.9345444346e-01	-6.1734849252e-01
 1.2326007561e+00	 9.1902210310e-01	-7.4451395367e-01
 1.2133925794e+00	 9.4423762804e-01	-8.7019412638e-01
 1.1936430259e+00	 9.6908336933e-01	-9.9427189471e-01
 1.1733628682e+00	 9.9354206231e-01	-1.1166343172e+00
 1.1525636071e+00	 1.0175968660e+00	-1.2371729669e+00
 1.1312574507e+00	 1.0412314009e+00	-1.3557842500e+00
 1.1094572905e+00	 1.0644297866e+00	-1.4723697028e+00
 1.0871766761e+00	 1.0871766761e+00	-1.5868362627e+00
 1.2973430424e+00	 8.4817511774e-01	-3.8572865124e-01
 1.2796735881e+00	 8.7460591576e-01	-5.1637648039e-01
 1.2614303559e+00	 9.0071830072e-01	-6.4561500031e-01
 1.2426219005e+00	 9.2649382751e-01	-7.7332783620e-01
 1.2232575597e+00	 9.5191435673e-01	-8.9940261095e-01
 1.2033474407e+00	 9.7696209591e-01	-1.0237312882e+00
 1.1829024037e+00	 1.0016196401e+00	-1.1462104958e+00
 1.1619340429e+00	 1.0258700112e+00	-1.2667418276e+00
 1.1404546657e+00	 1.0496966969e+00	-1.3852321217e+00
 1.1184772685e+00	 1.0730836873e+00	-1.5015937139e+00
 1.0960155108e+00	 1.0960155108e+00	-1.6157446642e+00
 1.3078054863e+00	 8.5501523966e-01	-4.1120058199e-01
 1.2899935364e+00	 8.8165918928e-01	-5.4278540621e-01
 1.2716031813e+00	 9.0798215799e-01	-6.7279331767e-01
 1.2526430448e+00	 9.3396555193e-01	-8.0111583274e-01
 1.2331225400e+00	 9.5959108542e-01	-9.2764901766e-01
 1.2130518556e+00	 9.8484082249e-01	-1.0522937998e+00
 1.1924419392e+00	 1.0096972178e+00	-1.1749562560e+00
 1.1713044787e+00	 1.0341431565e+00	-1.2955478769e+00
 1.1496518808e+00	 1.0581619928e+00	-1.4139858050e+00
 1.1274972465e+00	 1.0817375880e+00	-1.5301930453e+00
 1.1048543456e+00	 1.1048543456e+00	-1.6440986471e+00
 1.3182679302e+00	 8.6185536158e-01	-4.3549342897e-01
 1.3003134847e+00	 8.8871246279e-01	-5.6807281420e-01
 1.2817760068e+00	 9.1524601525e-01	-6.9890936342e-01
 1.2626641892e+00	 9.4143727635e-01	-8.2790238035e-01
 1.2429875204e+00	 9.6726781410e-01	-9.5495626597e-01
 1.2227562704e+00	 9.9271954908e-01	-1.0799807981e+00
 1.2019814747e+00	 1.0177747955e+00	-1.2028913855e+00
 1.1806749146e+00	 1.0424163017e+00	-1.3236092944e+00
 1.1588490958e+00	 1.0666272888e+00	-1.4420618474e+00
 1.1365172244e+00	 1.0903914887e+00	-1.5581825910e+00
 1.1136931804e+00	 1.1136931804e+00	-1.6719114343e+00
 1.3287303741e+00	 8.6869548350e-01	-4.5863505055e-01
 1.3106334330e+00	 8.9576573631e-01	-5.9226520463e-01
 1.2919488322e+00	 9.2250987252e-01	-7.2398823996e-01
 1.2726853336e+00	 9.4890900077e-01	-8.5371114633e-01
 1.2528525007e+00	 9.7494454279e-01	-9.8134655337e-01
 1.2324606853e+00	 1.0005982757e+00	-1.1068129789e+00
 1.2115210102e+00	 1.0258523733e+00	-1.2300350489e+00
 1.1900453504e+00	 1.0506894470e+00	-1.3509436874e+00
 1.1680463108e+00	 1.0750925847e+00	-1.4694762749e+00
 1.1455372024e+00	 1.0990453894e+00	-1.5855767758e+00
 1.1225320151e+00	 1.1225320151e+00	-1.6991958318e+00
 1.3391928179e+00	 8.7553560541e-01	-4.8065243448e-01
 1.3209533813e+00	 9.0281900982e-01	-6.1538824958e-01
 1.3021216577e+00	 9.2977372978e-01	-7.4805426523e-01
 1.2827064779e+00	 9.5638072518e-01	-8.7856505835e-01
 1.2627174810e+00	 9.8262127147e-01	-1.0068413836e+00
 1.2421651001e+00	 1.0084770022e+00	-1.1328103910e+00
 1.2210605457e+00	 1.0339299510e+00	-1.2564058120e+00
 1.1994157862e+00	 1.0589625922e+00	-1.3775681125e+00
 1.1772435259e+00	 1.0835578807e+00	-1.4962446129e+00
 1.1545571804e+00	 1.1076992901e+00	-1.6123895737e+00
 1.1313708499e+00	 1.1313708499e+00	-1.7259642455e+00
 1.3496552618e+00	 8.8237572733e-01	-5.0157173173e-01
 1.3312733296e+00	 9.0987228334e-01	-6.3746682512e-01
 1.3122944831e+00	 9.3703758705e-01	-7.7113100310e-01
 1.2927276223e+00	 9.6385244960e-01	-9.0248633307e-01
 1.2725824613e+00	 9.9029800016e-01	-1.0314615936e+00
 1.2518695150e+00	 1.0163557288e+00	-1.1579924615e+00
 1.2306000812e+00	 1.0420075288e+00	-1.2820216643e+00
 1.2087862221e+00	 1.0672357375e+00	-1.4034990974e+00
 1.1864407409e+00	 1.0920231766e+00	-1.5223819051e+00
 1.1635771583e+00	 1.1163531908e+00	-1.6386345251e+00
 1.1402096847e+00	 1.1402096847e+00	-1.7522286963e+00
 1.3601177057e+00	 8.8921584925e-01	-5.2141828856e-01
 1.3415932778e+00	 9.1692555685e-01	-6.5852504184e-01
 1.3224673086e+00	 9.4430144431e-01	-7.9324129233e-01
 1.3027487666e+00	 9.7132417402e-01	-9.2549650352e-01
 1.2824474416e+00	 9.9797472884e-01	-1.0552273791e+00
 1.2615739298e+00	 1.0242344554e+00	-1.1823780197e+00
 1.2401396167e+00	 1.0500851065e+00	-1.3069000422e+00
 1.2181566579e+00	 1.0755088827e+00	-1.4287526613e+00
 1.1956379560e+00	 1.1004884725e+00	-1.5479027320e+00
 1.1725971363e+00	 1.1250070915e+00	-1.6643247536e+00
 1.1490485194e+00	 1.1490485194e+00	-1.7780008350e+00
 1.0606601718e+00	 1.0606601718e+00	-1.4966457054e+00
 1.0384680844e+00	 1.0823973566e+00	-1.5865217392e+00
 1.0158355131e+00	 1.1036658055e+00	-1.6708675616e+00
 9.9277743019e-01	 1.1244522996e+00	-1.7496606034e+00
 9.6930932908e-01	 1.1447442616e+00	-1.8228941253e+00
 9.4544718958e-01	 1.1645297814e+00	-1.8905770896e+00
 9.2120744199e-01	 1.1837976385e+00	-1.9527339566e+00
 8.9660692984e-01	 1.2025373231e+00	-2.0094044058e+00
 8.7166287166e-01	 1.2207390541e+00	-2.0606429845e+00
 8.4639282170e-01	 1.2383937950e+00	-2.1065186882e+00
 8.2081463007e-01	 1.2554932668e+00	-2.1471144752e+00
 1.0694990065e+00	 1.0694990065e+00	-1.5273011267e+00
 1.0471219851e+00	 1.0914173346e+00	-1.6169053553e+00
 1.0243008091e+00	 1.1128630206e+00	-1.7008239642e+00
 1.0010505754e+00	 1.1338227354e+00	-1.7790497069e+00
 9.7738690683e-01	 1.1542837971e+00	-1.8515916600e+00
 9.5332591617e-01	 1.1742341962e+00	-1.9184750281e+00
 9.2888417067e-01	 1.1936626188e+00	-1.9797408684e+00
 9.0407865426e-01	 1.2125584674e+00	-2.0354457402e+00
 8.7892672892e-01	 1.2309118795e+00	-2.0856612804e+00
 8.5344609521e-01	 1.2487137432e+00	-2.1304737107e+00
 8.2765475199e-01	 1.2659557107e+00	-2.1699832782e+00
 1.0783378413e+00	 1.0783378413e+00	-1.5573597863e+00
 1.0557758859e+00	 1.1004373125e+00	-1.6467836045e+00
 1.0327661050e+00	 1.1220602356e+00	-1.7303683236e+00
 1.0093237207e+00	 1.1431931713e+00	-1.8081218376e+00
 9.8546448457e-01	 1.1638233327e+00	-1.8800688541e+00
 9.6120464275e-01	 1.1839386111e+00	-1.9462506304e+00
 9.3656089936e-01	 1.2035275991e+00	-2.0067246289e+00
 9.1155037868e-01	 1.2225796118e+00	-2.0615640947e+00
 8.8619058619e-01	 1.2410847050e+00	-2.1108575591e+00
 8.6049936873e-01	 1.2590336915e+00	-2.1547082738e+00
 8.3449487391e-01	 1.2764181546e+00	-2.1932335790e+00
 1.0871766761e+00	 1.0871766761e+00	-1.5868362627e+00
 1.0644297866e+00	 1.1094572905e+00	-1.6761688380e+00
 1.0412314009e+00	 1.1312574507e+00	-1.7595107162e+00
 1.0175968660e+00	 1.1525636071e+00	-1.8368847551e+00
 9.9354206231e-01	 1.1733628682e+00	-1.9083311118e+00
 9.6908336933e-01	 1.1936430259e+00	-1.9739069122e+00
 9.4423762804e-01	 1.2133925794e+00	-2.0336858364e+00
 9.1902210310e-01	 1.2326007561e+00	-2.0877576261e+00
 8.9345444346e-01	 1.2512575304e+00	-2.1362275166e+00
 8.6755264225e-01	 1.2693536398e+00	-2.1792155986e+00
 8.4133499582e-01	 1.2868805985e+00	-2.2168561137e+00
 1.0960155108e+00	 1.0960155108e+00	-1.6157446642e+00
 1.0730836873e+00	 1.1184772685e+00	-1.7050730083e+00
 1.0496966969e+00	 1.1404546657e+00	-1.7882608935e+00
 1.0258700112e+00	 1.1619340429e+00	-1.8653459683e+00
 1.0016196401e+00	 1.1829024037e+00	-1.9363836630e+00
 9.7696209591e-01	 1.2033474407e+00	-2.0014467915e+00
 9.5191435673e-01	 1.2232575597e+00	-2.0606250694e+00
 9.2649382751e-01	 1.2426219005e+00	-2.1140245504e+00
 9.0071830072e-01	 1.2614303559e+00	-2.1617669878e+00
 8.7460591576e-01	 1.2796735881e+00	-2.2039891242e+00
 8.4817511774e-01	 1.2973430424e+00	-2.2408419170e+00
 1.1048543456e+00	 1.1048543456e+00	-1.6440986471e+00
 1.0817375880e+00	 1.1274972465e+00	-1.7335076851e+00
 1.0581619928e+00	 1.1496518808e+00	-1.8166282944e+00
 1.0341431565e+00	 1.1713044787e+00	-1.8935127456e+00
 1.0096972178e+00	 1.1924419392e+00	-1.9642315696e+00
 9.8484082249e-01	 1.2130518556e+00	-2.0288730929e+00
 9.5959108542e-01	 1.2331225400e+00	-2.0875428880e+00
 9.3396555193e-01	 1.2526430448e+00	-2.1403631406e+00
 9.0798215799e-01	 1.2716031813e+00	-2.1874719402e+00
 8.8165918928e-01	 1.2899935364e+00	-2.2290224998e+00
 8.5501523966e-01	 1.3078054863e+00	-2.2651823099e+00
 1.1136931804e+00	 1.1136931804e+00	-1.6719114343e+00
 1.0903914887e+00	 1.1365172244e+00	-1.7614840708e+00
 1.0666272888e+00	 1.1588490958e+00	-1.8446220581e+00
 1.0424163017e+00	 1.1806749146e+00	-1.9213921246e+00
 1.0177747955e+00	 1.2019814747e+00	-1.9918797329e+00
 9.9271954908e-01	 1.2227562704e+00	-2.0561885509e+00
 9.6726781410e-01	 1.2429875204e+00	-2.1144398340e+00
 9.4143727635e-01	 1.2626641892e+00	-2.1667717238e+00
 9.1524601525e-01	 1.2817760068e+00	-2.2133384692e+00
 8.8871246279e-01	 1.3003134847e+00	-2.2543095756e+00
 8.6185536158e-01	 1.3182679302e+00	-2.2898688890e+00
 1.1225320151e+00	 1.1225320151e+00	-1.6991958318e+00
 1.0990453894e+00	 1.1455372024e+00	-1.7890130147e+00
 1.0750925847e+00	 1.1680463108e+00	-1.8722510359e+00
 1.0506894470e+00	 1.1900453504e+00	-1.9489909207e+00
 1.0258523733e+00	 1.2115210102e+00	-2.0193328994e+00
 1.0005982757e+00	 1.2324606853e+00	-2.0833958137e+00
 9.7494454279e-01	 1.2528525007e+00	-2.1413164319e+00
 9.4890900077e-01	 1.2726853336e+00	-2.1932486799e+00
 9.2250987252e-01	 1.2919488322e+00	-2.2393627929e+00
 8.9576573631e-01	 1.3106334330e+00	-2.2798443953e+00
 8.6869548350e-01	 1.3287303741e+00	-2.3148935149e+00
 1.1313708499e+00	 1.1313708499e+00	-1.7259642455e+00
 1.1076992901e+00	 1.1545571804e+00	-1.8161050268e+00
 1.0835578807e+00	 1.1772435259e+00	-1.8995238021e+00
 1.0589625922e+00	 1.1994157862e+00	-1.9763157363e+00
 1.0339299510e+00	 1.2210605457e+00	-2.0465956672e+00
 1.0084770022e+00	 1.2421651001e+00	-2.1104974465e+00
 9.8262127147e-01	 1.2627174810e+00	-2.1681731896e+00
 9.5638072518e-01	 1.2827064779e+00	-2.2197924390e+00
 9.2977372978e-01	 1.3021216577e+00	-2.2655412473e+00
 9.0281900982e-01	 1.3209533813e+00	-2.3056211884e+00
 8.7553560541e-01	 1.3391928179e+00	-2.3402483025e+00
 1.1402096847e+00	 1.1402096847e+00	-1.7522286963e+00
 1.1163531908e+00	 1.1635771583e+00	-1.8427702911e+00
 1.0920231766e+00	 1.1864407409e+00	-1.9264486648e+00
 1.0672357375e+00	 1.2087862221e+00	-2.0033729689e+00
 1.0420075288e+00	 1.2306000812e+00	-2.0736724914e+00
 1.0163557288e+00	 1.2518695150e+00	-2.1374959346e+00
 9.9029800016e-01	 1.2725824613e+00	-2.1950105990e+00
 9.6385244960e-01	 1.2927276223e+00	-2.2464014796e+00
 9.3703758705e-01	 1.3122944831e+00	-2.2918702817e+00
 9.0987228334e-01	 1.3312733296e+00	-2.3316343630e+00
 8.8237572733e-01	 1.3496552618e+00	-2.3659256108e+00
 1.1490485194e+00	 1.1490485194e+00	-1.7780008350e+00
 1.1250070915e+00	 1.1725971363e+00	-1.8690186781e+00
 1.1004884725e+00	 1.1956379560e+00	-1.9530336766e+00
 1.0755088827e+00	 1.2181566579e+00	-2.0301688188e+00
 1.0500851065e+00	 1.2401396167e+00	-2.1005676899e+00
 1.0242344554e+00	 1.2615739298e+00	-2.1643936867e+00
 9.9797472884e-01	 1.2824474416e+00	-2.2218291364e+00
 9.7132417402e-01	 1.3027487666e+00	-2.2730743268e+00
 9.4430144431e-01	 1.3224673086e+00	-2.3183464544e+00
 9.1692555685e-01	 1.3415932778e+00	-2.3578784991e+00
 8.8921584925e-01	 1.3601177057e+00	-2.3919180335e+00
 8.2081463007e-01	 1.2554932668e+00	-2.1471144752e+00
 7.9494640226e-01	 1.2720299594e+00	-2.1882374113e+00
 7.6880645835e-01	 1.2879971388e+00	-2.2220189463e+00
 7.4241329204e-01	 1.3033888537e+00	-2.2485786080e+00
 7.1578552968e-01	 1.3181999376e+00	-2.2680541582e+00
 6.8894188959e-01	 1.3324260103e+00	-2.2806007256e+00
 6.6190114164e-01	 1.3460634750e+00	-2.2863898733e+00
 6.3468206743e-01	 1.3591095148e+00	-2.2856086084e+00
 6.0730342122e-01	 1.3715620856e+00	-2.2784583401e+00
 5.7978389161e-01	 1.3834199070e+00	-2.2651537959e+00
 5.5214206435e-01	 1.3946824516e+00	-2.2459219024e+00
 8.2765475199e-01	 1.2659557107e+00	-2.1699832782e+00
 8.0157095562e-01	 1.2826302090e+00	-2.2098394861e+00
 7.7521317884e-01	 1.2987304483e+00	-2.2423147993e+00
 7.4860006947e-01	 1.3142504274e+00	-2.2675455095e+00
 7.2175040909e-01	 1.3291849371e+00	-2.2856861518e+00
 6.9468307200e-01	 1.3435295603e+00	-2.2969085673e+00
 6.6741698448e-01	 1.3572806706e+00	-2.3014009027e+00
 6.3997108466e-01	 1.3704354275e+00	-2.2993665525e+00
 6.1236428306e-01	 1.3829917696e+00	-2.2910230533e+00
 5.8461542404e-01	 1.3949484062e+00	-2.2766009384e+00
 5.5674324821e-01	 1.4063048054e+00	-2.2563425600e+00
 8.3449487391e-01	 1.2764181546e+00	-2.1932335790e+00
 8.0819550897e-01	 1.2932304587e+00	-2.2319200516e+00
 7.8161989933e-01	 1.3094637578e+00	-2.2631869955e+00
 7.5478684690e-01	 1.3251120012e+00	-2.2871872765e+00
 7.2771528851e-01	 1.3401699366e+00	-2.3040920134e+00
 7.0042425441e-01	 1.3546331104e+00	-2.3140895720e+00
 6.7293282733e-01	 1.3684978662e+00	-2.3173844960e+00
 6.4526010189e-01	 1.3817613401e+00	-2.3141963835e+00
 6.1742514490e-01	 1.3944214537e+00	-2.3047587178e+00
 5.8944695647e-01	 1.4064769054e+00	-2.2893176606e+00
 5.6134443208e-01	 1.4179271591e+00	-2.2681308165e+00
 8.4133499582e-01	 1.2868805985e+00	-2.2168561137e+00
 8.1482006232e-01	 1.3038307084e+00	-2.2544674802e+00
 7.8802661981e-01	 1.3201970673e+00	-2.2846215227e+00
 7.6097362433e-01	 1.3359735750e+00	-2.3074874956e+00
 7.3368016792e-01	 1.3511549360e+00	-2.3232529171e+00
 7.0616543683e-01	 1.3657366605e+00	-2.3321224940e+00
 6.7844867017e-01	 1.3797150619e+00	-2.3343169852e+00
 6.5054911911e-01	 1.3930872527e+00	-2.3300720132e+00
 6.2248600675e-01	 1.4058511377e+00	-2.3196368314e+00
 5.9427848890e-01	 1.4180054047e+00	-2.3032730571e+00
 5.6594561595e-01	 1.4295495129e+00	-2.2812533781e+00
 8.4817511774e-01	 1.2973430424e+00	-2.2408419170e+00
 8.2144461567e-01	 1.3144309580e+00	-2.2774705189e+00
 7.9443334030e-01	 1.3309303768e+00	-2.3066048200e+00
 7.6716040177e-01	 1.3468351488e+00	-2.3284302827e+00
 7.3964504733e-01	 1.3621399355e+00	-2.3431506440e+00
 7.1190661924e-01	 1.3768402106e+00	-2.3509867727e+00
 6.8396451302e-01	 1.3909322575e+00	-2.3521754657e+00
 6.5583813634e-01	 1.4044131653e+00	-2.3469681947e+00
 6.2754686859e-01	 1.4172808218e+00	-2.3356298112e+00
 5.9911002133e-01	 1.4295339039e+00	-2.3184372189e+00
 5.7054679982e-01	 1.4411718666e+00	-2.2956780246e+00
 8.5501523966e-01	 1.3078054863e+00	-2.2651823099e+00
 8.2806916902e-01	 1.3250312077e+00	-2.3009182747e+00
 8.0084006078e-01	 1.3416636863e+00	-2.3291237606e+00
 7.7334717920e-01	 1.3576967225e+00	-2.3500002615e+00
 7.4560992674e-01	 1.3731249350e+00	-2.3637675578e+00
 7.1764780165e-01	 1.3879437607e+00	-2.3706625051e+00
 6.8948035586e-01	 1.4021494531e+00	-2.3709377653e+00
 6.6112715357e-01	 1.4157390779e+00	-2.3648604886e+00
 6.3260773043e-01	 1.4287105058e+00	-2.3527109562e+00
 6.0394155376e-01	 1.4410624031e+00	-2.3347811941e+00
 5.7514798369e-01	 1.4527942204e+00	-2.3113735666e+00
 8.6185536158e-01	 1.3182679302e+00	-2.2898688890e+00
 8.3469372238e-01	 1.3356314573e+00	-2.3248001999e+00
 8.0724678127e-01	 1.3523969957e+00	-2.3521656337e+00
 7.7953395663e-01	 1.3685582963e+00	-2.3721825437e+00
 7.5157480616e-01	 1.3841099345e+00	-2.3850865816e+00
 7.2338898406e-01	 1.3990473108e+00	-2.3911304196e+00
 6.9499619871e-01	 1.4133666487e+00	-2.3905824155e+00
 6.6641617079e-01	 1.4270649906e+00	-2.3837252309e+00
 6.3766859227e-01	 1.4401401898e+00	-2.3708544131e+00
 6.0877308619e-01	 1.4525909023e+00	-2.3522769494e+00
 5.7974916756e-01	 1.4644165742e+00	-2.3283098045e+00
 8.6869548350e-01	 1.3287303741e+00	-2.3148935149e+00
 8.4131827573e-01	 1.3462317070e+00	-2.3491060788e+00
 8.1365350175e-01	 1.3631303052e+00	-2.3757181288e+00
 7.8572073407e-01	 1.3794198701e+00	-2.3949627094e+00
 7.5753968557e-01	 1.3950949340e+00	-2.4070911763e+00
 7.2913016647e-01	 1.4101508608e+00	-2.4123718513e+00
 7.0051204155e-01	 1.4245838444e+00	-2.4110886233e+00
 6.7170518802e-01	 1.4383909032e+00	-2.4035395027e+00
 6.4272945412e-01	 1.4515698739e+00	-2.3900351424e+00
 6.1360461862e-01	 1.4641194016e+00	-2.3708973340e+00
 5.8435035143e-01	 1.4760389279e+00	-2.3464574895e+00
 8.7553560541e-01	 1.3391928179e+00	-2.3402483025e+00
 8.4794282908e-01	 1.3568319566e+00	-2.3738260146e+00
 8.2006022224e-01	 1.3738636147e+00	-2.3997693195e+00
 7.9190751150e-01	 1.3902814439e+00	-2.4183267892e+00
 7.6350456498e-01	 1.4060799334e+00	-2.4297653190e+00
 7.3487134888e-01	 1.4212544109e+00	-2.4343687183e+00
 7.0602788440e-01	 1.4358010400e+00	-2.4324362455e+00
 6.7699420525e-01	 1.4497168158e+00	-2.4242811009e+00
 6.4779031596e-01	 1.4629995579e+00	-2.4102288867e+00
 6.1843615105e-01	 1.4756479008e+00	-2.3906160454e+00
 5.8895153530e-01	 1.4876612817e+00	-2.3657882865e+00
 8.8237572733e-01	 1.3496552618e+00	-2.3659256108e+00
 8.5456738243e-01	 1.3674322063e+00	-2.3989504169e+00
 8.2646694273e-01	 1.3845969242e+00	-2.4243076492e+00
 7.9809428893e-01	 1.4011430177e+00	-2.4422612462e+00
 7.6946944439e-01	 1.4170649329e+00	-2.4530934837e+00
 7.4061253130e-01	 1.4323579610e+00	-2.4571034990e+00
 7.1154372724e-01	 1.4470182356e+00	-2.4546057630e+00
 6.8228322248e-01	 1.4610427284e+00	-2.4459285105e+00
 6.5285117780e-01	 1.4744292420e+00	-2.4314121404e+00
 6.2326768348e-01	 1.4871764000e+00	-2.4114075961e+00
 5.9355271917e-01	 1.4992836355e+00	-2.3862747385e+00
 8.8921584925e-01	 1.3601177057e+00	-2.3919180335e+00
 8.6119193579e-01	 1.3780324560e+00	-2.4244699904e+00
 8.3287366321e-01	 1.3953302337e+00	-2.4493219164e+00
 8.0428106636e-01	 1.4120045914e+00	-2.4667529601e+00
 7.7543432381e-01	 1.4280499324e+00	-2.4770606213e+00
 7.4635371371e-01	 1.4434615111e+00	-2.4805592104e+00
 7.1705957009e-01	 1.4582354312e+00	-2.4775782570e+00
 6.8757223970e-01	 1.4723686411e+00	-2.4684608784e+00
 6.5791203964e-01	 1.4858589260e+00	-2.4535621209e+00
 6.2809921591e-01	 1.4987048992e+00	-2.4332472829e+00
 5.9815390303e-01	 1.5109059892e+00	-2.4078902334e+00
 5.5214206435e-01	 1.3946824516e+00	-2.2459219024e+00
 5.2439638616e-01	 1.4053499316e+00	-2.2622882335e+00
 4.9656512995e-01	 1.4154232836e+00	-2.2717947761e+00
 4.6866636132e-01	 1.4249041518e+00	-2.2746183191e+00
 4.4071790656e-01	 1.4337948692e+00	-2.2709491617e+00
 4.1273732226e-01	 1.4420984373e+00	-2.2609900307e+00
 3.8474186652e-01	 1.4498185046e+00	-2.2449549781e+00
 3.5674847187e-01	 1.4569593432e+00	-2.2230682644e+00
 3.2877372005e-01	 1.4635258252e+00	-2.1955632365e+00
 3.0083381848e-01	 1.4695233968e+00	-2.1626812059e+00
 2.7294457863e-01	 1.4749580526e+00	-2.1246703340e+00
 5.5674324821e-01	 1.4063048054e+00	-2.2563425600e+00
 5.2876635604e-01	 1.4170611810e+00	-2.2711989540e+00
 5.0070317270e-01	 1.4272184776e+00	-2.2792873798e+00
 4.7257191433e-01	 1.4367783530e+00	-2.2807933001e+00
 4.4439055579e-01	 1.4457431597e+00	-2.2759153903e+00
 4.1617679995e-01	 1.4541159243e+00	-2.2648644285e+00
 3.8794804874e-01	 1.4619003254e+00	-2.2478621675e+00
 3.5972137580e-01	 1.4691006711e+00	-2.2251401959e+00
 3.3151350105e-01	 1.4757218737e+00	-2.1969387950e+00
 3.0334076697e-01	 1.4817694251e+00	-2.1635057995e+00
 2.7521911678e-01	 1.4872493697e+00	-2.1250954681e+00
 5.6134443208e-01	 1.4179271591e+00	-2.2681308165e+00
 5.3313632592e-01	 1.4287724304e+00	-2.2815356658e+00
 5.0484121545e-01	 1.4390136716e+00	-2.2882640682e+00
 4.7647746734e-01	 1.4486525543e+00	-2.2885100616e+00
 4.4806320501e-01	 1.4576914503e+00	-2.2824806017e+00
 4.1961627764e-01	 1.4661334112e+00	-2.2703944252e+00
 3.9115423096e-01	 1.4739821463e+00	-2.2524808968e+00
 3.6269427974e-01	 1.4812419989e+00	-2.2289788473e+00
 3.3425328206e-01	 1.4879179223e+00	-2.2001354110e+00
 3.0584771545e-01	 1.4940154534e+00	-2.1662048683e+00
 2.7749365494e-01	 1.4995406868e+00	-2.1274475008e+00
 5.6594561595e-01	 1.4295495129e+00	-2.2812533781e+00
 5.3750629581e-01	 1.4404836799e+00	-2.2932636532e+00
 5.0897925820e-01	 1.4508088657e+00	-2.2986887112e+00
 4.8038302035e-01	 1.4605267556e+00	-2.2977310686e+00
 4.5173585423e-01	 1.4696397409e+00	-2.2906058682e+00
 4.2305575532e-01	 1.4781508982e+00	-2.2775397148e+00
 3.9436041318e-01	 1.4860639672e+00	-2.2587694979e+00
 3.6566718367e-01	 1.4933833268e+00	-2.2345412074e+00
 3.3699306306e-01	 1.5001139708e+00	-2.2051087506e+00
 3.0835466394e-01	 1.5062614817e+00	-2.1707327777e+00
 2.7976819309e-01	 1.5118320039e+00	-2.1316795219e+00
 5.7054679982e-01	 1.4411718666e+00	-2.2956780246e+00
 5.4187626569e-01	 1.4521949293e+00	-2.3063493201e+00
 5.1311730095e-01	 1.4626040597e+00	-2.3105263438e+00
 4.8428857336e-01	 1.4724009568e+00	-2.3084199968e+00
 4.5540850345e-01	 1.4815880315e+00	-2.3002535176e+00
 4.2649523301e-01	 1.4901683852e+00	-2.2862612912e+00
 3.9756659540e-01	 1.4981457880e+00	-2.2666876469e+00
 3.6864008760e-01	 1.5055246547e+00	-2.2417856522e+00
 3.3973284406e-01	 1.5123100194e+00	-2.2118159097e+00
 3.1086161243e-01	 1.5185075100e+00	-2.1770453655e+00
 2.8204273125e-01	 1.5241233210e+00	-2.1377461338e+00
 5.7514798369e-01	 1.4527942204e+00	-2.3113735666e+00
 5.4624623558e-01	 1.4639061787e+00	-2.3207601451e+00
 5.1725534370e-01	 1.4743992537e+00	-2.3237431196e+00
 4.8819412638e-01	 1.4842751581e+00	-2.3205416838e+00
 4.5908115267e-01	 1.4935363220e+00	-2.3113870829e+00
 4.2993471070e-01	 1.5021858722e+00	-2.2965213961e+00
 4.0077277763e-01	 1.5102276089e+00	-2.2761963098e+00
 3.7161299154e-01	 1.5176659825e+00	-2.2506718894e+00
 3.4247262506e-01	 1.5245060679e+00	-2.2202153569e+00
 3.1336856092e-01	 1.5307535383e+00	-2.1850998820e+00
 2.8431726940e-01	 1.5364146382e+00	-2.1456033919e+00
 5.7974916756e-01	 1.4644165742e+00	-2.3283098045e+00
 5.5061620546e-01	 1.4756174282e+00	-2.3364646390e+00
 5.2139338645e-01	 1.4861944478e+00	-2.3383062663e+00
 4.9209967939e-01	 1.4961493594e+00	-2.3340620832e+00
 4.6275380190e-01	 1.5054846126e+00	-2.3239712546e+00
 4.3337418838e-01	 1.5142033592e+00	-2.3082834698e+00
 4.0397895985e-01	 1.5223094298e+00	-2.2872576915e+00
 3.7458589547e-01	 1.5298073104e+00	-2.2611609054e+00
 3.4521240606e-01	 1.5367021165e+00	-2.2302668790e+00
 3.1587550940e-01	 1.5429995666e+00	-2.1948549347e+00
 2.8659180756e-01	 1.5487059553e+00	-2.1552087460e+00
 5.8435035143e-01	 1.4760389279e+00	-2.3464574895e+00
 5.5498617535e-01	 1.4873286776e+00	-2.3534323040e+00
 5.2553142920e-01	 1.4979896418e+00	-2.3541840435e+00
 4.9600523240e-01	 1.5080235606e+00	-2.3489482205e+00
 4.6642645112e-01	 1.5174329032e+00	-2.3379718348e+00
 4.3681366607e-01	 1.5262208461e+00	-2.3215121037e+00
 4.0718514207e-01	 1.5343912507e+00	-2.2998351870e+00
 3.7755879940e-01	 1.5419486383e+00	-2.2732149153e+00
 3.4795218706e-01	 1.5488981650e+00	-2.2419315289e+00
 3.1838245789e-01	 1.5552455949e+00	-2.2062704344e+00
 2.8886634572e-01	 1.5609972724e+00	-2.1665209861e+00
 5.8895153530e-01	 1.4876612817e+00	-2.3657882865e+00
 5.5935614523e-01	 1.4990399270e+00	-2.3716335950e+00
 5.2966947195e-01	 1.5097848358e+00	-2.3713457025e+00
 4.9991078541e-01	 1.5198977619e+00	-2.3651681516e+00
 4.7009910034e-01	 1.5293811938e+00	-2.3533556941e+00
 4.4025314375e-01	 1.5382383331e+00	-2.3361729953e+00
 4.1039132429e-01	 1.5464730715e+00	-2.3138933350e+00
 3.8053170334e-01	 1.5540899661e+00	-2.2867973146e+00
 3.5069196806e-01	 1.5610942135e+00	-2.2551715766e+00
 3.2088940638e-01	 1.5674916232e+00	-2.2193075446e+00
 2.9114088387e-01	 1.5732885895e+00	-2.1795001898e+00
 5.9355271917e-01	 1.4992836355e+00	-2.3862747385e+00
 5.6372611512e-01	 1.5107511764e+00	-2.3910398826e+00
 5.3380751470e-01	 1.5215800299e+00	-2.3897614475e+00
 5.0381633842e-01	 1.5317719632e+00	-2.3826909223e+00
 4.7377174956e-01	 1.5413294843e+00	-2.3700907301e+00
 4.4369262144e-01	 1.5502558201e+00	-2.3522329056e+00
 4.1359750651e-01	 1.5585548924e+00	-2.3293977735e+00
 3.8350460727e-01	 1.5662312940e+00	-2.3018726337e+00
 3.5343174906e-01	 1.5732902621e+00	-2.2699504618e+00
 3.2339635487e-01	 1.5797376515e+00	-2.2339286326e+00
 2.9341542203e-01	 1.5855799066e+00	-2.1941076722e+00
 5.9815390303e-01	 1.5109059892e+00	-2.4078902334e+00
 5.6809608500e-01	 1.5224624259e+00	-2.4116234183e+00
 5.3794555745e-01	 1.5333752239e+00	-2.4094023993e+00
 5.0772189143e-01	 1.5436461644e+00	-2.4014865309e+00
 4.7744439878e-01	 1.5532777749e+00	-2.3881458277e+00
 4.4713209913e-01	 1.5622733071e+00	-2.3696596180e+00
 4.1680368873e-01	 1.5706367133e+00	-2.3463151975e+00
 3.8647751120e-01	 1.5783726218e+00	-2.3184064939e+00
 3.5617153006e-01	 1.5854863106e+00	-2.2862327487e+00
 3.2590330336e-01	 1.5919836798e+00	-2.2500972236e+00
 2.9568996018e-01	 1.5978712237e+00	-2.2103059387e+00
 2.7294457863e-01	 1.4749580526e+00	-2.1246703340e+00
 2.4512139627e-01	 1.4798363089e+00	-2.1396213611e+00
 2.1737923355e-01	 1.4841651757e+00	-2.1496021135e+00
 1.8973260298e-01	 1.4879521294e+00	-2.1547456930e+00
 1.6219555325e-01	 1.4912050840e+00	-2.1551923806e+00
 1.3478165686e-01	 1.4939323629e+00	-2.1510889001e+00
 1.0750399962e-01	 1.4961426704e+00	-2.1425876875e+00
 8.0375171844e-02	 1.4978450627e+00	-2.1298461692e+00
 5.3407261335e-02	 1.4990489200e+00	-2.1130260533e+00
 2.6611847981e-02	 1.4997639179e+00	-2.0922926367e+00
 0.0000000000e+00	 1.5000000000e+00	-2.0678141320e+00
 2.7521911678e-01	 1.4872493697e+00	-2.1250954681e+00
 2.4716407457e-01	 1.4921682781e+00	-2.1389768019e+00
 2.1919072716e-01	 1.4965332189e+00	-2.1480441487e+00
 1.9131370801e-01	 1.5003517305e+00	-2.1524339888e+00
 1.6354718286e-01	 1.5036317930e+00	-2.1522896041e+00
 1.3590483734e-01	 1.5063817993e+00	-2.1477603406e+00
 1.0839986628e-01	 1.5086105259e+00	-2.1390008783e+00
 8.1044964942e-02	 1.5103271049e+00	-2.1261705121e+00
 5.3852321846e-02	 1.5115409943e+00	-2.1094324464e+00
 2.6833613381e-02	 1.5122619506e+00	-2.0889531080e+00
 0.0000000000e+00	 1.5125000000e+00	-2.0649014790e+00
 2.7749365494e-01	 1.4995406868e+00	-2.1274475008e+00
 2.4920675287e-01	 1.5045002474e+00	-2.1403015853e+00
 2.2100222078e-01	 1.5089012620e+00	-2.1484970610e+00
 1.9289481303e-01	 1.5127513316e+00	-2.1521737362e+00
 1.6489881247e-01	 1.5160585021e+00	-2.1514778464e+00
 1.3702801781e-01	 1.5188312356e+00	-2.1465613164e+00
 1.0929573294e-01	 1.5210783815e+00	-2.1375810302e+00
 8.1714758041e-02	 1.5228091470e+00	-2.1246981148e+00
 5.4297382357e-02	 1.5240330686e+00	-2.1080772381e+00
 2.7055378780e-02	 1.5247599832e+00	-2.0878859277e+00
 0.0000000000e+00	 1.5250000000e+00	-2.0642939095e+00
 2.7976819309e-01	 1.5118320039e+00	-2.1316795219e+00
 2.5124943117e-01	 1.5168322166e+00	-2.1435477682e+00
 2.2281371439e-01	 1.5212693051e+00	-2.1509118970e+00
 1.9447591806e-01	 1.5251509326e+00	-2.1539149946e+00
 1.6625044208e-01	 1.5284852111e+00	-2.1527062045e+00
 1.3815119828e-01	 1.5312806720e+00	-2.1474399874e+00
 1.1019159961e-01	 1.5335462371e+00	-2.1382753927e+00
 8.2384551139e-02	 1.5352911892e+00	-2.1253753438e+00
 5.4742442867e-02	 1.5365251430e+00	-2.1089059405e+00
 2.7277144180e-02	 1.5372580159e+00	-2.0890357821e+00
 0.0000000000e+00	 1.5375000000e+00	-2.0659353134e+00
 2.8204273125e-01	 1.5241233210e+00	-2.1377461338e+00
 2.5329210948e-01	 1.5291641859e+00	-2.1486689540e+00
 2.2462520800e-01	 1.5336373482e+00	-2.1552412820e+00
 1.9605702308e-01	 1.5375505337e+00	-2.1576094342e+00
 1.6760207169e-01	 1.5409119201e+00	-2.1559254169e+00
 1.3927437876e-01	 1.5437301084e+00	-2.1503461856e+00
 1.1108746627e-01	 1.5460140927e+00	-2.1410329168e+00
 8.3054344237e-02	 1.5477732314e+00	-2.1281502958e+00
 5.5187503378e-02	 1.5490172173e+00	-2.1118658228e+00
 2.7498909579e-02	 1.5497560485e+00	-2.0923491414e+00
 0.0000000000e+00	 1.5500000000e+00	-2.0697713907e+00
 2.8431726940e-01	 1.5364146382e+00	-2.1456033919e+00
 2.5533478778e-01	 1.5414961551e+00	-2.1556202304e+00
 2.2643670161e-01	 1.5460053914e+00	-2.1614393572e+00
 1.9763812811e-01	 1.5499501348e+00	-2.1632102716e+00
 1.6895370130e-01	 1.5533386292e+00	-2.1610877987e+00
 1.4039755923e-01	 1.5561795447e+00	-2.1552313483e+00
 1.1198333293e-01	 1.5584819483e+00	-2.1458041869e+00
 8.3724137335e-02	 1.5602552736e+00	-2.1329727281e+00
 5.5632563889e-02	 1.5615092916e+00	-2.1169058420e+00
 2.7720674979e-02	 1.5622540812e+00	-2.0977741892e+00
 0.0000000000e+00	 1.5625000000e+00	-2.0757495789e+00
 2.8659180756e-01	 1.5487059553e+00	-2.1552087460e+00
 2.5737746608e-01	 1.5538281243e+00	-2.1643581108e+00
 2.2824819523e-01	 1.5583734345e+00	-2.1694617196e+00
 1.9921923313e-01	 1.5623497359e+00	-2.1706722083e+00
 1.7030533091e-01	 1.5657653382e+00	-2.1681471783e+00
 1.4152073970e-01	 1.5686289811e+00	-2.1620484542e+00
 1.1287919960e-01	 1.5709498039e+00	-2.1525413562e+00
 8.4393930433e-02	 1.5727373158e+00	-2.1397939930e+00
 5.6077624400e-02	 1.5740013660e+00	-2.1239765752e+00
 2.7942440379e-02	 1.5747521138e+00	-2.1052607535e+00
 0.0000000000e+00	 1.5750000000e+00	-2.0838189843e+00
 2.8886634572e-01	 1.5609972724e+00	-2.1665209861e+00
 2.5942014438e-01	 1.5661600936e+00	-2.1748404782e+00
 2.3005968884e-01	 1.5707414776e+00	-2.1792653643e+00
 2.0080033816e-01	 1.5747493369e+00	-2.1799513725e+00
 1.7165696052e-01	 1.5781920472e+00	-2.1770588385e+00
 1.4264392017e-01	 1.5810784174e+00	-2.1707519630e+00
 1.1377506626e-01	 1.5834176595e+00	-2.1611980847e+00
 8.5063723532e-02	 1.5852193580e+00	-2.1485669751e+00
 5.6522684910e-02	 1.5864934403e+00	-2.1330301561e+00
 2.8164205778e-02	 1.5872501465e+00	-2.1147602430e+00
 0.0000000000e+00	 1.5875000000e+00	-2.0939303160e+00
 2.9114088387e-01	 1.5732885895e+00	-2.1795001898e+00
 2.6146282268e-01	 1.5784920628e+00	-2.1870265311e+00
 2.3187118245e-01	 1.5831095208e+00	-2.1908086303e+00
 2.0238144318e-01	 1.5871489380e+00	-2.1910052632e+00
 1.7300859013e-01	 1.5906187563e+00	-2.1877794593e+00
 1.4376710065e-01	 1.5935278538e+00	-2.1812977574e+00
 1.1467093292e-01	 1.5958855151e+00	-2.1717294803e+00
 8.5733516630e-02	 1.5977014002e+00	-2.1592460311e+00
 5.6967745421e-02	 1.5989855146e+00	-2.1440202143e+00
 2.8385971178e-02	 1.5997481791e+00	-2.1262255844e+00
 0.0000000000e+00	 1.6000000000e+00	-2.1060358236e+00
 2.9341542203e-01	 1.5855799066e+00	-2.1941076722e+00
 2.6350550099e-01	 1.5908240321e+00	-2.2008767335e+00
 2.3368267606e-01	 1.5954775639e+00	-2.2040511482e+00
 2.0396254820e-01	 1.5995485391e+00	-2.2037926971e+00
 1.7436021974e-01	 1.6030454653e+00	-2.2002670635e+00
 1.4489028112e-01	 1.6059772901e+00	-2.1936430880e+00
 1.1556679958e-01	 1.6083533706e+00	-2.1840920432e+00
 8.6403309728e-02	 1.6101834424e+00	-2.1717869330e+00
 5.7412805932e-02	 1.6114775890e+00	-2.1569018171e+00
 2.8607736578e-02	 1.6122462118e+00	-2.1396111644e+00
 0.0000000000e+00	 1.6125000000e+00	-2.1200892370e+00
 2.9568996018e-01	 1.5978712237e+00	-2.2103059387e+00
 2.6554817929e-01	 1.6031560013e+00	-2.2163527654e+00
 2.3549416968e-01	 1.6078456070e+00	-2.2189537904e+00
 2.0554365323e-01	 1.6119481402e+00	-2.2182737579e+00
 1.7571184935e-01	 1.6154721743e+00	-2.2144809659e+00
 1.4601346159e-01	 1.6184267265e+00	-2.2077465205e+00
 1.1646266625e-01	 1.6208212262e+00	-2.1982436115e+00
 8.7073102826e-02	 1.6226654846e+00	-2.1861468136e+00
 5.7857866443e-02	 1.6239696633e+00	-2.1716314143e+00
 2.8829501977e-02	 1.6247442444e+00	-2.1548727730e+00
 0.0000000000e+00	 1.6250000000e+00	-2.1360457103e+00
 1.6250000000e+00	 0.0000000000e+00	 2.4949814712e+00
 1.6247442444e+00	 2.8829501977e-02	 2.5009656271e+00
 1.6239696633e+00	 5.7857866443e-02	 2.4975003423e+00
 1.6226654846e+00	 8.7073102826e-02	 2.4843570809e+00
 1.6208212262e+00	 1.1646266625e-01	 2.4613242604e+00
 1.6184267265e+00	 1.4601346159e-01	 2.4282087305e+00
 1.6154721743e+00	 1.7571184935e-01	 2.3848372448e+00
 1.6119481402e+00	 2.0554365323e-01	 2.3310579166e+00
 1.6078456070e+00	 2.3549416968e-01	 2.2667416471e+00
 1.6031560013e+00	 2.6554817929e-01	 2.1917835189e+00
 1.5978712237e+00	 2.9568996018e-01	 2.1061041430e+00
 1.6375000000e+00	 0.0000000000e+00	 2.4742183654e+00
 1.6372422771e+00	 2.9051267377e-02	 2.4804809231e+00
 1.6364617376e+00	 5.8302926953e-02	 2.4772893061e+00
 1.6351475267e+00	 8.7742895924e-02	 2.4644131127e+00
 1.6332890818e+00	 1.1735853291e-01	 2.4416390396e+00
 1.6308761629e+00	 1.4713664207e-01	 2.4087723787e+00
 1.6278988834e+00	 1.7706347896e-01	 2.3656385071e+00
 1.6243477413e+00	 2.0712475825e-01	 2.3120843602e+00
 1.6202136502e+00	 2.3730566329e-01	 2.2479798789e+00
 1.6154879705e+00	 2.6759085759e-01	 2.1732194203e+00
 1.6101625408e+00	 2.9796449834e-01	 2.0877231220e+00
 1.6500000000e+00	 0.0000000000e+00	 2.4546711556e+00
 1.6497403097e+00	 2.9273032776e-02	 2.4612002064e+00
 1.6489538120e+00	 5.8747987464e-02	 2.4582711169e+00
 1.6476295689e+00	 8.8412689023e-02	 2.4456516533e+00
 1.6457569374e+00	 1.1825439957e-01	 2.4231268245e+00
 1.6433255992e+00	 1.4825982254e-01	 2.3905003969e+00
 1.6403255924e+00	 1.7841510857e-01	 2.3475964022e+00
 1.6367473423e+00	 2.0870586328e-01	 2.2942606284e+00
 1.6325816933e+00	 2.3911715690e-01	 2.2303620851e+00
 1.6278199398e+00	 2.6963353589e-01	 2.1557944314e+00
 1.6224538579e+00	 3.0023903649e-01	 2.0704773579e+00
 1.6625000000e+00	 0.0000000000e+00	 2.4363124818e+00
 1.6622383424e+00	 2.9494798176e-02	 2.4430963828e+00
 1.6614458863e+00	 5.9193047975e-02	 2.4404189288e+00
 1.6601116111e+00	 8.9082482121e-02	 2.4280460871e+00
 1.6582247930e+00	 1.1915026624e-01	 2.4057612111e+00
 1.6557750356e+00	 1.4938300301e-01	 2.3733665730e+00
 1.6527523014e+00	 1.7976673818e-01	 2.3306848897e+00
 1.6491469434e+00	 2.1028696830e-01	 2.2775608315e+00
 1.6449497364e+00	 2.4092865051e-01	 2.2138625050e+00
 1.6401519090e+00	 2.7167621419e-01	 2.1394828986e+00
 1.6347451750e+00	 3.0251357465e-01	 2.0543412812e+00
 1.6750000000e+00	 0.0000000000e+00	 2.4191158008e+00
 1.6747363750e+00	 2.9716563576e-02	 2.4261431669e+00
 1.6739379606e+00	 5.9638108486e-02	 2.4237066976e+00
 1.6725936533e+00	 8.9752275219e-02	 2.4115705933e+00
 1.6706926486e+00	 1.2004613290e-01	 2.3895165835e+00
 1.6682244719e+00	 1.5050618349e-01	 2.3573454772e+00
 1.6651790105e+00	 1.8111836779e-01	 2.3148787064e+00
 1.6615465445e+00	 2.1186807333e-01	 2.2619598526e+00
 1.6573177796e+00	 2.4274014413e-01	 2.1984561470e+00
 1.6524838783e+00	 2.7371889250e-01	 2.1242599339e+00
 1.6470364921e+00	 3.0478811280e-01	 2.0392900857e+00
 1.6875000000e+00	 0.0000000000e+00	 2.4030553560e+00
 1.6872344077e+00	 2.9938328975e-02	 2.4103150521e+00
 1.6864300350e+00	 6.0083168996e-02	 2.4081091504e+00
 1.6850756955e+00	 9.0422068317e-02	 2.3962001158e+00
 1.6831605042e+00	 1.2094199956e-01	 2.3743680848e+00
 1.6806739083e+00	 1.5162936396e-01	 2.3424124333e+00
 1.6776057195e+00	 1.8246999740e-01	 2.3001533376e+00
 1.6739461456e+00	 2.1344917835e-01	 2.2474333188e+00
 1.6696858227e+00	 2.4455163774e-01	 2.1841187598e+00
 1.6648158475e+00	 2.7576157080e-01	 2.1101013866e+00
 1.6593278092e+00	 3.0706265096e-01	 2.0252996998e+00
 1.7000000000e+00	 0.0000000000e+00	 2.3881061481e+00
 1.6997324403e+00	 3.0160094375e-02	 2.3955872820e+00
 1.6989221093e+00	 6.0528229507e-02	 2.3936017578e+00
 1.6975577377e+00	 9.1091861415e-02	 2.3819103356e+00
 1.6956283597e+00	 1.2183786622e-01	 2.3602915891e+00
 1.6931233446e+00	 1.5275254443e-01	 2.3285434906e+00
 1.6900324285e+00	 1.8382162701e-01	 2.2864849896e+00
 1.6863457466e+00	 2.1503028338e-01	 2.2339575739e+00
 1.6820538658e+00	 2.4636313135e-01	 2.1708268053e+00
 1.6771478167e+00	 2.7780424910e-01	 2.0969838164e+00
 1.6716191263e+00	 3.0933718911e-01	 2.0123467601e+00
 1.7125000000e+00	 0.0000000000e+00	 2.3742439079e+00
 1.7122304730e+00	 3.0381859775e-02	 2.3819358230e+00
 1.7114141836e+00	 6.0973290018e-02	 2.3801607063e+00
 1.7100397799e+00	 9.1761654514e-02	 2.3686776434e+00
 1.7080962153e+00	 1.2273373289e-01	 2.3472636748e+00
 1.7055727810e+00	 1.5387572491e-01	 2.3157153979e+00
 1.7024591376e+00	 1.8517325662e-01	 2.2738505631e+00
 1.6987453477e+00	 2.1661138840e-01	 2.2215096526e+00
 1.6944219089e+00	 2.4817462496e-01	 2.1585574324e+00
 1.6894797860e+00	 2.7984692740e-01	 2.0848844670e+00
 1.6839104434e+00	 3.1161172727e-01	 2.0004085848e+00
 1.7250000000e+00	 0.0000000000e+00	 2.3614450695e+00
 1.7247285056e+00	 3.0603625174e-02	 2.3693373381e+00
 1.7239062580e+00	 6.1418350529e-02	 2.3677628730e+00
 1.7225218221e+00	 9.2431447612e-02	 2.3564791147e+00
 1.7205640709e+00	 1.2362959955e-01	 2.3352615992e+00
 1.7180222174e+00	 1.5499890538e-01	 2.3039055776e+00
 1.7148858466e+00	 1.8652488623e-01	 2.2622276286e+00
 1.7111449488e+00	 2.1819249342e-01	 2.2100672549e+00
 1.7067899521e+00	 2.4998611858e-01	 2.1472884525e+00
 1.7018117552e+00	 2.8188960570e-01	 2.0737812419e+00
 1.6962017605e+00	 3.1388626542e-01	 1.9894631500e+00
 1.7375000000e+00	 0.0000000000e+00	 2.3496867454e+00
 1.7372265383e+00	 3.0825390574e-02	 2.3577691619e+00
 1.7363983323e+00	 6.1863411039e-02	 2.3563858000e+00
 1.7350038643e+00	 9.3101240710e-02	 2.3452924841e+00
 1.7330319265e+00	 1.2452546621e-01	 2.3242632741e+00
 1.7304716537e+00	 1.5612208585e-01	 2.2930921019e+00
 1.7273125556e+00	 1.8787651584e-01	 2.2515944017e+00
 1.7235445499e+00	 2.1977359845e-01	 2.1996087225e+00
 1.7191579952e+00	 2.5179761219e-01	 2.1369983153e+00
 1.7141437245e+00	 2.8393228401e-01	 2.0636526802e+00
 1.7084930776e+00	 3.1616080358e-01	 1.9794890649e+00
 1.7500000000e+00	 0.0000000000e+00	 2.3389467017e+00
 1.7497245709e+00	 3.1047155973e-02	 2.3472092765e+00
 1.7488904066e+00	 6.2308471550e-02	 2.3460076714e+00
 1.7474859064e+00	 9.3771033808e-02	 2.3350961227e+00
 1.7454997821e+00	 1.2542133288e-01	 2.3142472421e+00
 1.7429210901e+00	 1.5724526633e-01	 2.2832536695e+00
 1.7397392647e+00	 1.8922814545e-01	 2.2419297204e+00
 1.7359441510e+00	 2.2135470347e-01	 2.1901130160e+00
 1.7315260383e+00	 2.5360910580e-01	 2.1276660862e+00
 1.7264756937e+00	 2.8597496231e-01	 2.0544779340e+00
 1.7207843947e+00	 3.1843534174e-01	 1.9704655503e+00
 1.5978712237e+00	 2.9568996018e-01	 2.1061041430e+00
 1.5919836798e+00	 3.2590330336e-01	 2.0350504545e+00
 1.5854863106e+00	 3.5617153006e-01	 1.9546938795e+00
 1.5783726218e+00	 3.8647751120e-01	 1.8649685715e+00
 1.5706367133e+00	 4.1680368873e-01	 1.7658331657e+00
 1.5622733071e+00	 4.4713209913e-01	 1.6572718282e+00
 1.5532777749e+00	 4.7744439878e-01	 1.5392952247e+00
 1.5436461644e+00	 5.0772189143e-01	 1.4119414017e+00
 1.5333752239e+00	 5.3794555745e-01	 1.2752765684e+00
 1.5224624259e+00	 5.6809608500e-01	 1.1293957713e+00
 1.5109059892e+00	 5.9815390303e-01	 9.7442345360e-01
 1.6101625408e+00	 2.9796449834e-01	 2.0877231220e+00
 1.6042297081e+00	 3.2841025184e-01	 2.0163291879e+00
 1.5976823592e+00	 3.5891131106e-01	 1.9356791810e+00
 1.5905139497e+00	 3.8945041513e-01	 1.8457076020e+00
 1.5827185341e+00	 4.2000987096e-01	 1.7463735016e+00
 1.5742907940e+00	 4.5057157681e-01	 1.6376615340e+00
 1.5652260655e+00	 4.8111704801e-01	 1.5195829317e+00
 1.5555203657e+00	 5.1162744444e-01	 1.3921763907e+00
 1.5451704179e+00	 5.4208360020e-01	 1.2555088566e+00
 1.5341736753e+00	 5.7246605488e-01	 1.1096762040e+00
 1.5225283430e+00	 6.0275508690e-01	 9.5480379814e-01
 1.6224538579e+00	 3.0023903649e-01	 2.0704773579e+00
 1.6164757364e+00	 3.3091720033e-01	 1.9987363346e+00
 1.6098784077e+00	 3.6165109207e-01	 1.9177861027e+00
 1.6026552775e+00	 3.9242331907e-01	 1.8275615228e+00
 1.5948003550e+00	 4.2321605318e-01	 1.7280220732e+00
 1.5863082810e+00	 4.5401105450e-01	 1.6191529092e+00
 1.5771743561e+00	 4.8478969723e-01	 1.5009658427e+00
 1.5673945670e+00	 5.1553299746e-01	 1.3735002317e+00
 1.5569656119e+00	 5.4622164295e-01	 1.2368237714e+00
 1.5458849247e+00	 5.7683602477e-01	 1.0910331768e+00
 1.5341506968e+00	 6.0735627077e-01	 9.3625474801e-01
 1.6347451750e+00	 3.0251357465e-01	 2.0543412812e+00
 1.6287217648e+00	 3.3342414882e-01	 1.9822464766e+00
 1.6220744563e+00	 3.6439087307e-01	 1.9009893773e+00
 1.6147966054e+00	 3.9539622300e-01	 1.8105052156e+00
 1.6068821759e+00	 4.2642223540e-01	 1.7107539100e+00
 1.5983257680e+00	 4.5745053219e-01	 1.6017211289e+00
 1.5891226466e+00	 4.8846234645e-01	 1.4834192760e+00
 1.5792687682e+00	 5.1943855047e-01	 1.3558883839e+00
 1.5687608060e+00	 5.5035968570e-01	 1.2191969100e+00
 1.5575961742e+00	 5.8120599466e-01	 1.0734424219e+00
 1.5457730505e+00	 6.1195745464e-01	 9.1875216714e-01
 1.6470364921e+00	 3.0478811280e-01	 2.0392900857e+00
 1.6409677931e+00	 3.3593109731e-01	 1.9668349548e+00
 1.6342705048e+00	 3.6713065407e-01	 1.8852644916e+00
 1.6269379333e+00	 3.9836912693e-01	 1.7945143121e+00
 1.6189639967e+00	 4.2962841762e-01	 1.6945447865e+00
 1.6103432550e+00	 4.6089000987e-01	 1.5853421089e+00
 1.6010709372e+00	 4.9213499567e-01	 1.4669192865e+00
 1.5911429695e+00	 5.2334410348e-01	 1.3393170391e+00
 1.5805560000e+00	 5.5449772845e-01	 1.2026045980e+00
 1.5693074236e+00	 5.8557596454e-01	 1.0568803961e+00
 1.5573954043e+00	 6.1655863851e-01	 9.0227263987e-01
 1.6593278092e+00	 3.0706265096e-01	 2.0252996998e+00
 1.6532138214e+00	 3.3843804579e-01	 1.9524778405e+00
 1.6464665533e+00	 3.6987043507e-01	 1.8705876587e+00
 1.6390792611e+00	 4.0134203087e-01	 1.7795651657e+00
 1.6310458176e+00	 4.3283459984e-01	 1.6793711952e+00
 1.6223607419e+00	 4.6432948756e-01	 1.5699924785e+00
 1.6130192278e+00	 4.9580764490e-01	 1.4514426387e+00
 1.6030171708e+00	 5.2724965649e-01	 1.3237630943e+00
 1.5923511940e+00	 5.5863577120e-01	 1.1870238625e+00
 1.5810186730e+00	 5.8994593443e-01	 1.0413242533e+00
 1.5690177580e+00	 6.2115982239e-01	 8.8679344420e-01
 1.6716191263e+00	 3.0933718911e-01	 2.0123467601e+00
 1.6654598497e+00	 3.4094499428e-01	 1.9391519086e+00
 1.6586626019e+00	 3.7261021607e-01	 1.8569357911e+00
 1.6512205890e+00	 4.0431493480e-01	 1.7656348251e+00
 1.6431276385e+00	 4.3604078207e-01	 1.6652103196e+00
 1.6343782289e+00	 4.6776896525e-01	 1.5556495544e+00
 1.6249675184e+00	 4.9948029412e-01	 1.4369667801e+00
 1.6148913720e+00	 5.3115520951e-01	 1.3092041256e+00
 1.6041463881e+00	 5.6277381395e-01	 1.1724324059e+00
 1.5927299225e+00	 5.9431590431e-01	 1.0267518194e+00
 1.5806401118e+00	 6.2576100626e-01	 8.7229252635e-01
 1.6839104434e+00	 3.1161172727e-01	 2.0004085848e+00
 1.6777058780e+00	 3.4345194277e-01	 1.9268346121e+00
 1.6708586504e+00	 3.7534999707e-01	 1.8442864752e+00
 1.6633619168e+00	 4.0728783873e-01	 1.7527010093e+00
 1.6552094594e+00	 4.3924696429e-01	 1.6520400093e+00
 1.6463957159e+00	 4.7120844293e-01	 1.5422913154e+00
 1.6369158090e+00	 5.0315294334e-01	 1.4234698168e+00
 1.6267655733e+00	 5.3506076252e-01	 1.2956183641e+00
 1.6159415821e+00	 5.6691185670e-01	 1.1588085816e+00
 1.6044411719e+00	 5.9868587420e-01	 1.0131415676e+00
 1.5922624656e+00	 6.3036219013e-01	 8.5874847631e-01
 1.6962017605e+00	 3.1388626542e-01	 1.9894631500e+00
 1.6899519063e+00	 3.4595889126e-01	 1.9155040574e+00
 1.6830546990e+00	 3.7808977807e-01	 1.8326179472e+00
 1.6755032447e+00	 4.1026074267e-01	 1.7407420827e+00
 1.6672912802e+00	 4.4245314651e-01	 1.6398387561e+00
 1.6584132029e+00	 4.7464792062e-01	 1.5298963785e+00
 1.6488640995e+00	 5.0682559256e-01	 1.4109304891e+00
 1.6386397746e+00	 5.3896631553e-01	 1.2829846716e+00
 1.6277367761e+00	 5.7104989945e-01	 1.1461313705e+00
 1.6161524213e+00	 6.0305584409e-01	 1.0004725951e+00
 1.6038848193e+00	 6.3496337400e-01	 8.4614050457e-01
 1.7084930776e+00	 3.1616080358e-01	 1.9794890649e+00
 1.7021979346e+00	 3.4846583975e-01	 1.9051389808e+00
 1.6952507475e+00	 3.8082955907e-01	 1.8219090692e+00
 1.6876445726e+00	 4.1323364660e-01	 1.7297370323e+00
 1.6793731011e+00	 4.4565932873e-01	 1.6285856701e+00
 1.6704306899e+00	 4.7808739831e-01	 1.5184439758e+00
 1.6608123901e+00	 5.1049824179e-01	 1.3993281492e+00
 1.6505139758e+00	 5.4287186855e-01	 1.2712825181e+00
 1.6395319702e+00	 5.7518794221e-01	 1.1343803580e+00
 1.6278636708e+00	 6.0742581398e-01	 9.8872460020e-01
 1.6155071731e+00	 6.3956455788e-01	 8.3444841976e-01
 1.7207843947e+00	 3.1843534174e-01	 1.9704655503e+00
 1.7144439629e+00	 3.5097278823e-01	 1.8957187261e+00
 1.7074467961e+00	 3.8356934007e-01	 1.8121393073e+00
 1.6997859004e+00	 4.1620655053e-01	 1.7196654453e+00
 1.6914549220e+00	 4.4886551095e-01	 1.6182604586e+00
 1.6824481768e+00	 4.8152687600e-01	 1.5079139329e+00
 1.6727606807e+00	 5.1417089101e-01	 1.3886427391e+00
 1.6623881771e+00	 5.4677742156e-01	 1.2604919600e+00
 1.6513271642e+00	 5.7932598496e-01	 1.1235357127e+00
 1.6395749202e+00	 6.1179578386e-01	 9.7787786141e-01
 1.6271295269e+00	 6.4416574175e-01	 8.2365260732e-01
 1.5109059892e+00	 5.9815390303e-01	 9.7442345360e-01
 1.4987048992e+00	 6.2809921591e-01	 8.4259718085e-01
 1.4858589260e+00	 6.5791203964e-01	 7.0650616654e-01
 1.4723686411e+00	 6.8757223970e-01	 5.6624607033e-01
 1.4582354312e+00	 7.1705957009e-01	 4.2192620221e-01
 1.4434615111e+00	 7.4635371371e-01	 2.7366953231e-01
 1.4280499324e+00	 7.7543432381e-01	 1.2161263577e-01
 1.4120045914e+00	 8.0428106636e-01	-3.4094429398e-02
 1.3953302337e+00	 8.3287366321e-01	-1.9328831242e-01
 1.3780324560e+00	 8.6119193579e-01	-3.5579262882e-01
 1.3601177057e+00	 8.8921584925e-01	-5.2141828856e-01
 1.5225283430e+00	 6.0275508690e-01	 9.5480379814e-01
 1.5102333985e+00	 6.3293074833e-01	 8.2228908965e-01
 1.4972886101e+00	 6.6297290149e-01	 6.8561919655e-01
 1.4836945537e+00	 6.9286125693e-01	 5.4488751893e-01
 1.4694526269e+00	 7.2257541294e-01	 4.0020084936e-01
 1.4545650612e+00	 7.5209489612e-01	 2.5167939014e-01
 1.4390349319e+00	 7.8139920322e-01	 9.9456706708e-02
 1.4228661652e+00	 8.1046784380e-01	-5.6320384410e-02
 1.4060635432e+00	 8.3928038370e-01	-2.1549199447e-01
 1.3886327056e+00	 8.6781648914e-01	-3.7788540903e-01
 1.3705801496e+00	 8.9605597117e-01	-5.4331540239e-01
 1.5341506968e+00	 6.0735627077e-01	 9.3625474801e-01
 1.5217618977e+00	 6.3776228076e-01	 8.0302506160e-01
 1.5087182941e+00	 6.6803376333e-01	 6.6574892118e-01
 1.4950204663e+00	 6.9815027416e-01	 5.2451750755e-01
 1.4806698225e+00	 7.2809125578e-01	 3.7943513888e-01
 1.4656686113e+00	 7.5783607853e-01	 2.3061929514e-01
 1.4500199314e+00	 7.8736408263e-01	 7.8200580079e-02
 1.4337277390e+00	 8.1665462123e-01	-7.7677380931e-02
 1.4167968527e+00	 8.4568710418e-01	-2.3685810865e-01
 1.3992329553e+00	 8.7444104249e-01	-3.9917250408e-01
 1.3810425935e+00	 9.0289609308e-01	-5.6443914939e-01
 1.5457730505e+00	 6.1195745464e-01	 9.1875216714e-01
 1.5332903969e+00	 6.4259381320e-01	 7.8478155721e-01
 1.5201479782e+00	 6.7309462517e-01	 6.4687241618e-01
 1.5063463789e+00	 7.0343929139e-01	 5.0511374500e-01
 1.4918870181e+00	 7.3360709863e-01	 3.5960742944e-01
 1.4767721614e+00	 7.6357726095e-01	 2.1046827165e-01
 1.4610049308e+00	 7.9332896205e-01	 5.7823960623e-02
 1.4445893128e+00	 8.2284139866e-01	-9.8185020256e-02
 1.4275301622e+00	 8.5209382467e-01	-2.5740554990e-01
 1.4098332050e+00	 8.8106559584e-01	-4.1967209140e-01
 1.3915050374e+00	 9.0973621500e-01	-5.8480697960e-01
 1.5573954043e+00	 6.1655863851e-01	 9.0227263987e-01
 1.5448188961e+00	 6.4742534563e-01	 7.6753573955e-01
 1.5315776622e+00	 6.7815548702e-01	 6.2896744152e-01
 1.5176722916e+00	 7.0872830862e-01	 4.8665460541e-01
 1.5031042137e+00	 7.3912294148e-01	 3.4069672565e-01
 1.4878757114e+00	 7.6931844336e-01	 1.9120597011e-01
 1.4719899303e+00	 7.9929384146e-01	 3.8307158860e-02
 1.4554508866e+00	 8.2902817610e-01	-1.1786231860e-01
 1.4382634717e+00	 8.5850054516e-01	-2.7715264915e-01
 1.4204334546e+00	 8.8769014920e-01	-4.3940180583e-01
 1.4019674813e+00	 9.1657633692e-01	-6.0443582218e-01
 1.5690177580e+00	 6.2115982239e-01	 8.8679344420e-01
 1.5563473954e+00	 6.5225687806e-01	 7.5126544823e-01
 1.5430073463e+00	 6.8321634886e-01	 6.1201241603e-01
 1.5289982042e+00	 7.1401732585e-01	 4.6911910358e-01
 1.5143214094e+00	 7.4463878433e-01	 3.2268265416e-01
 1.4989792615e+00	 7.7505962577e-01	 1.7281264384e-01
 1.4829749298e+00	 8.0525872088e-01	 1.9631068650e-02
 1.4663124604e+00	 8.3521495353e-01	-1.3672772878e-01
 1.4489967812e+00	 8.6490726564e-01	-2.9611719422e-01
 1.4310337043e+00	 8.9431470255e-01	-4.5837875969e-01
 1.4124299252e+00	 9.2341645884e-01	-6.2334210467e-01
 1.5806401118e+00	 6.2576100626e-01	 8.7229252635e-01
 1.5678758946e+00	 6.5708841049e-01	 7.3594917455e-01
 1.5544370303e+00	 6.8827721071e-01	 5.9598639320e-01
 1.5403241168e+00	 7.1930634308e-01	 4.5248687147e-01
 1.5255386050e+00	 7.5015462717e-01	 3.0554544071e-01
 1.5100828116e+00	 7.8080080819e-01	 1.5526912688e-01
 1.4939599293e+00	 8.1122360029e-01	 1.7771457507e-03
 1.4771740341e+00	 8.4140173097e-01	-1.5479916092e-01
 1.4597300907e+00	 8.7131398613e-01	-3.1431644981e-01
 1.4416339539e+00	 9.0093925590e-01	-4.7661956204e-01
 1.4228923691e+00	 9.3025658076e-01	-6.4154177145e-01
 1.5922624656e+00	 6.3036219013e-01	 8.5874847631e-01
 1.5794043938e+00	 6.6191994292e-01	 7.2156603770e-01
 1.5658667144e+00	 6.9333807255e-01	 5.8086903800e-01
 1.5516500294e+00	 7.2459536031e-01	 4.3673813561e-01
 1.5367558006e+00	 7.5567047002e-01	 2.8926588837e-01
 1.5211863617e+00	 7.8654199061e-01	 1.3855681280e-01
 1.5049449288e+00	 8.1718847971e-01	-1.5272612695e-02
 1.4880356079e+00	 8.4758850840e-01	-1.7209400226e-01
 1.4704634002e+00	 8.7772070662e-01	-3.3176717653e-01
 1.4522342036e+00	 9.0756380926e-01	-4.9414033698e-01
 1.4333548130e+00	 9.3709670267e-01	-6.5905030137e-01
 1.6038848193e+00	 6.3496337400e-01	 8.4614050457e-01
 1.5909328930e+00	 6.6675147536e-01	 7.0809576201e-01
 1.5772963984e+00	 6.9839893440e-01	 5.6664060474e-01
 1.5629759421e+00	 7.2988437754e-01	 4.2185369561e-01
 1.5479729963e+00	 7.6118631287e-01	 2.7382535655e-01
 1.5322899118e+00	 7.9228317302e-01	 1.2265763441e-01
 1.5159299283e+00	 8.2315335913e-01	-3.1535687772e-02
 1.4988971817e+00	 8.5377528584e-01	-1.8862913608e-01
 1.4811967096e+00	 8.8412742711e-01	-3.4848564921e-01
 1.4628344533e+00	 9.1418836261e-01	-5.1095674127e-01
 1.4438172569e+00	 9.4393682459e-01	-6.7588272459e-01
 1.6155071731e+00	 6.3956455788e-01	 8.3444841976e-01
 1.6024613923e+00	 6.7158300779e-01	 6.9551865520e-01
 1.5887260825e+00	 7.0345979625e-01	 5.5328191585e-01
 1.5743018547e+00	 7.3517339477e-01	 4.0781490354e-01
 1.5591901919e+00	 7.6670215573e-01	 2.5920574101e-01
 1.5433934619e+00	 7.9802435544e-01	 1.0755404441e-01
 1.5269149277e+00	 8.2911823854e-01	-4.7029057560e-02
 1.5097587555e+00	 8.5996206328e-01	-2.0442095987e-01
 1.4919300191e+00	 8.9053414760e-01	-3.6448767437e-01
 1.4734347029e+00	 9.2081291596e-01	-5.2708398114e-01
 1.4542797008e+00	 9.5077694651e-01	-6.9205363879e-01
 1.6271295269e+00	 6.4416574175e-01	 8.2365260732e-01
 1.6139898915e+00	 6.7641454023e-01	 6.8381558752e-01
 1.6001557665e+00	 7.0852065810e-01	 5.4077434161e-01
 1.5856277673e+00	 7.4046241201e-01	 3.9460364416e-01
 1.5704073875e+00	 7.7221799858e-01	 2.4538945469e-01
 1.5544970120e+00	 8.0376553786e-01	 9.3228996764e-02
 1.5378999272e+00	 8.3508311796e-01	-6.1769215102e-02
 1.5206203293e+00	 8.6614884071e-01	-2.1948540266e-01
 1.5026633286e+00	 8.9694086809e-01	-3.7978860695e-01
 1.4840349526e+00	 9.2743746932e-01	-5.4253682835e-01
 1.4647421446e+00	 9.5761706843e-01	-7.0757722451e-01
 1.3601177057e+00	 8.8921584925e-01	-5.2141828856e-01
 1.3415932778e+00	 9.1692555685e-01	-6.5852504184e-01
 1.3224673086e+00	 9.4430144431e-01	-7.9324129233e-01
 1.3027487666e+00	 9.7132417402e-01	-9.2549650352e-01
 1.2824474416e+00	 9.9797472884e-01	-1.0552273791e+00
 1.2615739298e+00	 1.0242344554e+00	-1.1823780197e+00
 1.2401396167e+00	 1.0500851065e+00	-1.3069000422e+00
 1.2181566579e+00	 1.0755088827e+00	-1.4287526613e+00
 1.1956379560e+00	 1.1004884725e+00	-1.5479027320e+00
 1.1725971363e+00	 1.1250070915e+00	-1.6643247536e+00
 1.1490485194e+00	 1.1490485194e+00	-1.7780008350e+00
 1.3705801496e+00	 8.9605597117e-01	-5.4331540239e-01
 1.3519132261e+00	 9.2397883037e-01	-6.8098897155e-01
 1.3326401340e+00	 9.5156530158e-01	-8.1614824545e-01
 1.3127699110e+00	 9.7879589844e-01	-9.4872910399e-01
 1.2923124220e+00	 1.0056514575e+00	-1.0786750815e+00
 1.2712783446e+00	 1.0321131820e+00	-1.2059374974e+00
 1.2496791523e+00	 1.0581626843e+00	-1.3304755480e+00
 1.2275270937e+00	 1.0837820280e+00	-1.4522563571e+00
 1.2048351710e+00	 1.1089537685e+00	-1.5712549866e+00
 1.1816171143e+00	 1.1336609922e+00	-1.6874544068e+00
 1.1578873542e+00	 1.1578873542e+00	-1.8008454263e+00
 1.3810425935e+00	 9.0289609308e-01	-5.6443914939e-01
 1.3622331744e+00	 9.3103210388e-01	-7.0272102225e-01
 1.3428129595e+00	 9.5882915884e-01	-8.3836590223e-01
 1.3227910553e+00	 9.8626762285e-01	-9.7131601051e-01
 1.3021774023e+00	 1.0133281862e+00	-1.1015216336e+00
 1.2809827595e+00	 1.0399919086e+00	-1.2289412289e+00
 1.2592186878e+00	 1.0662402620e+00	-1.3535414876e+00
 1.2368975295e+00	 1.0920551732e+00	-1.4752973564e+00
 1.2140323861e+00	 1.1174190644e+00	-1.5941920157e+00
 1.1906370923e+00	 1.1423148929e+00	-1.7102168165e+00
 1.1667261890e+00	 1.1667261890e+00	-1.8233711751e+00
 1.3915050374e+00	 9.0973621500e-01	-5.8480697960e-01
 1.3725531227e+00	 9.3808537740e-01	-7.2373770973e-01
 1.3529857849e+00	 9.6609301611e-01	-8.5990981946e-01
 1.3328121997e+00	 9.9373934727e-01	-9.9327179782e-01
 1.3120423826e+00	 1.0210049149e+00	-1.1237806071e+00
 1.2906871743e+00	 1.0478706351e+00	-1.2514017628e+00
 1.2687582233e+00	 1.0743178398e+00	-1.3761093694e+00
 1.2462679654e+00	 1.1003283185e+00	-1.4978861118e+00
 1.2232296011e+00	 1.1258843604e+00	-1.6167232025e+00
 1.1996570702e+00	 1.1509687936e+00	-1.7326202849e+00
 1.1755650237e+00	 1.1755650237e+00	-1.8455852932e+00
 1.4019674813e+00	 9.1657633692e-01	-6.0443582218e-01
 1.3828730710e+00	 9.4513865091e-01	-7.4405505676e-01
 1.3631586104e+00	 9.7335687337e-01	-8.8079508952e-01
 1.3428333441e+00	 1.0012110717e+00	-1.0146106056e+00
 1.3219073629e+00	 1.0286816436e+00	-1.1454651682e+00
 1.3003915892e+00	 1.0557493617e+00	-1.2733312733e+00
 1.2782977588e+00	 1.0823954175e+00	-1.3981903583e+00
 1.2556384012e+00	 1.1086014637e+00	-1.5200327639e+00
 1.2324268162e+00	 1.1343496563e+00	-1.6388576502e+00
 1.2086770482e+00	 1.1596226943e+00	-1.7546728664e+00
 1.1844038585e+00	 1.1844038585e+00	-1.8674947772e+00
 1.4124299252e+00	 9.2341645884e-01	-6.2334210467e-01
 1.3931930193e+00	 9.5219192443e-01	-7.6368861133e-01
 1.3733314358e+00	 9.8062073064e-01	-9.0103635757e-01
 1.3528544884e+00	 1.0086827961e+00	-1.0353461544e+00
 1.3317723432e+00	 1.0363583723e+00	-1.1665880928e+00
 1.3100960040e+00	 1.0636280883e+00	-1.2947415735e+00
 1.2878372943e+00	 1.0904729952e+00	-1.4197952881e+00
 1.2650088370e+00	 1.1168746090e+00	-1.5417471526e+00
 1.2416240312e+00	 1.1428149523e+00	-1.6606041917e+00
 1.2176970262e+00	 1.1682765950e+00	-1.7763823764e+00
 1.1932426932e+00	 1.1932426932e+00	-1.8891064160e+00
 1.4228923691e+00	 9.3025658076e-01	-6.4154177145e-01
 1.4035129676e+00	 9.5924519794e-01	-7.8265346413e-01
 1.3835042613e+00	 9.8788458790e-01	-9.2064783800e-01
 1.3628756328e+00	 1.0161545205e+00	-1.0554917614e+00
 1.3416373236e+00	 1.0440351009e+00	-1.1871617814e+00
 1.3198004189e+00	 1.0715068149e+00	-1.3156441292e+00
 1.2973768298e+00	 1.0985505730e+00	-1.4409346741e+00
 1.2743792729e+00	 1.1251477542e+00	-1.5630388283e+00
 1.2508212463e+00	 1.1512802482e+00	-1.6819714004e+00
 1.2267170041e+00	 1.1769304957e+00	-1.7977564006e+00
 1.2020815280e+00	 1.2020815280e+00	-1.9104267988e+00
 1.4333548130e+00	 9.3709670267e-01	-6.5905030137e-01
 1.4138329159e+00	 9.6629847146e-01	-8.0096426522e-01
 1.3936770867e+00	 9.9514844517e-01	-9.3964333015e-01
 1.3728967771e+00	 1.0236262449e+00	-1.0750603547e+00
 1.3515023039e+00	 1.0517118296e+00	-1.2071982721e+00
 1.3295048337e+00	 1.0793855415e+00	-1.3360500712e+00
 1.3069163653e+00	 1.1066281507e+00	-1.4616187243e+00
 1.2837497087e+00	 1.1334208995e+00	-1.5839170624e+00
 1.2600184613e+00	 1.1597455441e+00	-1.7029675990e+00
 1.2357369821e+00	 1.1855843964e+00	-1.8188023027e+00
 1.2109203628e+00	 1.2109203628e+00	-1.9314623221e+00
 1.4438172569e+00	 9.4393682459e-01	-6.7588272459e-01
 1.4241528642e+00	 9.7335174497e-01	-8.1863524002e-01
 1.4038499122e+00	 1.0024123024e+00	-9.5803623335e-01
 1.3829179215e+00	 1.0310979693e+00	-1.0940644876e+00
 1.3613672842e+00	 1.0593885583e+00	-1.2267092540e+00
 1.3392092486e+00	 1.0872642680e+00	-1.3559702079e+00
 1.3164559009e+00	 1.1147057285e+00	-1.4818573509e+00
 1.2931201445e+00	 1.1416940447e+00	-1.6043908576e+00
 1.2692156763e+00	 1.1682108401e+00	-1.7236008689e+00
 1.2447569601e+00	 1.1942382971e+00	-1.8395272331e+00
 1.2197591975e+00	 1.2197591975e+00	-1.9522191972e+00
 1.4542797008e+00	 9.5077694651e-01	-6.9205363879e-01
 1.4344728125e+00	 9.8040501848e-01	-8.3568020453e-01
 1.4140227376e+00	 1.0096761597e+00	-9.7583956128e-01
 1.3929390659e+00	 1.0385696938e+00	-1.1125163524e+00
 1.3712322645e+00	 1.0670652870e+00	-1.2457060797e+00
 1.3489136634e+00	 1.0951429946e+00	-1.3754150361e+00
 1.3259954364e+00	 1.1227833062e+00	-1.5016601805e+00
 1.3024905804e+00	 1.1499671900e+00	-1.6244689571e+00
 1.2784128914e+00	 1.1766761360e+00	-1.7438790588e+00
 1.2537769381e+00	 1.2028921978e+00	-1.8599381362e+00
 1.2285980323e+00	 1.2285980323e+00	-1.9727034560e+00
 1.4647421446e+00	 9.5761706843e-01	-7.0757722451e-01
 1.4447927608e+00	 9.8745829200e-01	-8.5211258002e-01
 1.4241955631e+00	 1.0169400170e+00	-9.9306595578e-01
 1.4029602102e+00	 1.0460414182e+00	-1.1304277926e+00
 1.3810972449e+00	 1.0747420157e+00	-1.2641997777e+00
 1.3586180783e+00	 1.1030217212e+00	-1.3943947529e+00
 1.3355349719e+00	 1.1308608839e+00	-1.5210365647e+00
 1.3118610162e+00	 1.1582403352e+00	-1.6441598546e+00
 1.2876101064e+00	 1.1851414320e+00	-1.7638097931e+00
 1.2627969160e+00	 1.2115460985e+00	-1.8800417577e+00
 1.2374368671e+00	 1.2374368671e+00	-1.9929209582e+00
 1.1490485194e+00	 1.1490485194e+00	-1.7780008350e+00
 1.1250070915e+00	 1.1725971363e+00	-1.8690186781e+00
 1.1004884725e+00	 1.1956379560e+00	-1.9530336766e+00
 1.0755088827e+00	 1.2181566579e+00	-2.0301688188e+00
 1.0500851065e+00	 1.2401396167e+00	-2.1005676899e+00
 1.0242344554e+00	 1.2615739298e+00	-2.1643936867e+00
 9.9797472884e-01	 1.2824474416e+00	-2.2218291364e+00
 9.7132417402e-01	 1.3027487666e+00	-2.2730743268e+00
 9.4430144431e-01	 1.3224673086e+00	-2.3183464544e+00
 9.1692555685e-01	 1.3415932778e+00	-2.3578784991e+00
 8.8921584925e-01	 1.3601177057e+00	-2.3919180335e+00
 1.1578873542e+00	 1.1578873542e+00	-1.8008454263e+00
 1.1336609922e+00	 1.1816171143e+00	-1.8920198529e+00
 1.1089537685e+00	 1.2048351710e+00	-1.9761020359e+00
 1.0837820280e+00	 1.2275270937e+00	-2.0532259952e+00
 1.0581626843e+00	 1.2496791523e+00	-2.1235466552e+00
 1.0321131820e+00	 1.2712783446e+00	-2.1872390099e+00
 1.0056514575e+00	 1.2923124220e+00	-2.2444971911e+00
 9.7879589844e-01	 1.3127699110e+00	-2.2955334467e+00
 9.5156530158e-01	 1.3326401340e+00	-2.3405770366e+00
 9.2397883037e-01	 1.3519132261e+00	-2.3798730551e+00
 8.9605597117e-01	 1.3705801496e+00	-2.4136811881e+00
 1.1667261890e+00	 1.1667261890e+00	-1.8233711751e+00
 1.1423148929e+00	 1.1906370923e+00	-1.9147581754e+00
 1.1174190644e+00	 1.2140323861e+00	-1.9989644559e+00
 1.0920551732e+00	 1.2368975295e+00	-2.0761349577e+00
 1.0662402620e+00	 1.2592186878e+00	-2.1464358323e+00
 1.0399919086e+00	 1.2809827595e+00	-2.2100535572e+00
 1.0133281862e+00	 1.3021774023e+00	-2.2671939543e+00
 9.8626762285e-01	 1.3227910553e+00	-2.3180811158e+00
 9.5882915884e-01	 1.3428129595e+00	-2.3629562495e+00
 9.3103210388e-01	 1.3622331744e+00	-2.4020764488e+00
 9.0289609308e-01	 1.3810425935e+00	-2.4357133982e+00
 1.1755650237e+00	 1.1755650237e+00	-1.8455852932e+00
 1.1509687936e+00	 1.1996570702e+00	-1.9372395958e+00
 1.1258843604e+00	 1.2232296011e+00	-2.0216256045e+00
 1.1003283185e+00	 1.2462679654e+00	-2.0988990736e+00
 1.0743178398e+00	 1.2687582233e+00	-2.1692372721e+00
 1.0478706351e+00	 1.2906871743e+00	-2.2328380500e+00
 1.0210049149e+00	 1.3120423826e+00	-2.2899188068e+00
 9.9373934727e-01	 1.3328121997e+00	-2.3407153667e+00
 9.6609301611e-01	 1.3529857849e+00	-2.3854807723e+00
 9.3808537740e-01	 1.3725531227e+00	-2.4244840031e+00
 9.0973621500e-01	 1.3915050374e+00	-2.4580086299e+00
 1.1844038585e+00	 1.1844038585e+00	-1.8674947772e+00
 1.1596226943e+00	 1.2086770482e+00	-1.9594698867e+00
 1.1343496563e+00	 1.2324268162e+00	-2.0440900101e+00
 1.1086014637e+00	 1.2556384012e+00	-2.1215216095e+00
 1.0823954175e+00	 1.2782977588e+00	-2.1919529640e+00
 1.0557493617e+00	 1.3003915892e+00	-2.2555931877e+00
 1.0286816436e+00	 1.3219073629e+00	-2.3126711478e+00
 1.0012110717e+00	 1.3428333441e+00	-2.3634342906e+00
 9.7335687337e-01	 1.3631586104e+00	-2.4081473827e+00
 9.4513865091e-01	 1.3828730710e+00	-2.4470911797e+00
 9.1657633692e-01	 1.4019674813e+00	-2.4805610288e+00
 1.1932426932e+00	 1.1932426932e+00	-1.8891064160e+00
 1.1682765950e+00	 1.2176970262e+00	-1.9814546495e+00
 1.1428149523e+00	 1.2416240312e+00	-2.0663620668e+00
 1.1168746090e+00	 1.2650088370e+00	-2.1440057349e+00
 1.0904729952e+00	 1.2878372943e+00	-2.2145848382e+00
 1.0636280883e+00	 1.3100960040e+00	-2.2783196486e+00
 1.0363583723e+00	 1.3317723432e+00	-2.3354503942e+00
 1.0086827961e+00	 1.3528544884e+00	-2.3862360349e+00
 9.8062073064e-01	 1.3733314358e+00	-2.4309529539e+00
 9.5219192443e-01	 1.3931930193e+00	-2.4698935747e+00
 9.2341645884e-01	 1.4124299252e+00	-2.5033649140e+00
 1.2020815280e+00	 1.2020815280e+00	-1.9104267988e+00
 1.1769304957e+00	 1.2267170041e+00	-2.0031993205e+00
 1.1512802482e+00	 1.2508212463e+00	-2.0884460392e+00
 1.1251477542e+00	 1.2743792729e+00	-2.1663545261e+00
 1.0985505730e+00	 1.2973768298e+00	-2.2371347681e+00
 1.0715068149e+00	 1.3198004189e+00	-2.3010180912e+00
 1.0440351009e+00	 1.3416373236e+00	-2.3582559794e+00
 1.0161545205e+00	 1.3628756328e+00	-2.4091188013e+00
 9.8788458790e-01	 1.3835042613e+00	-2.4538944506e+00
 9.5924519794e-01	 1.4035129676e+00	-2.4928869135e+00
 9.3025658076e-01	 1.4228923691e+00	-2.5264147711e+00
 1.2109203628e+00	 1.2109203628e+00	-1.9314623221e+00
 1.1855843964e+00	 1.2357369821e+00	-2.0247091772e+00
 1.1597455441e+00	 1.2600184613e+00	-2.1103460673e+00
 1.1334208995e+00	 1.2837497087e+00	-2.1885709690e+00
 1.1066281507e+00	 1.3069163653e+00	-2.2596045719e+00
 1.0793855415e+00	 1.3295048337e+00	-2.3236891542e+00
 1.0517118296e+00	 1.3515023039e+00	-2.3810873535e+00
 1.0236262449e+00	 1.3728967771e+00	-2.4320808436e+00
 9.9514844517e-01	 1.3936770867e+00	-2.4769689259e+00
 9.6629847146e-01	 1.4138329159e+00	-2.5160670460e+00
 9.3709670267e-01	 1.4333548130e+00	-2.5497052466e+00
 1.2197591975e+00	 1.2197591975e+00	-1.9522191972e+00
 1.1942382971e+00	 1.2447569601e+00	-2.0459893441e+00
 1.1682108401e+00	 1.2692156763e+00	-2.1320661709e+00
 1.1416940447e+00	 1.2931201445e+00	-2.2106579632e+00
 1.1147057285e+00	 1.3164559009e+00	-2.2819960151e+00
 1.0872642680e+00	 1.3392092486e+00	-2.3463334577e+00
 1.0593885583e+00	 1.3613672842e+00	-2.4039439820e+00
 1.0310979693e+00	 1.3829179215e+00	-2.4551204663e+00
 1.0024123024e+00	 1.4038499122e+00	-2.5001735182e+00
 9.7335174497e-01	 1.4241528642e+00	-2.5394299420e+00
 9.4393682459e-01	 1.4438172569e+00	-2.5732311418e+00
 1.2285980323e+00	 1.2285980323e+00	-1.9727034560e+00
 1.2028921978e+00	 1.2537769381e+00	-2.0670447977e+00
 1.1766761360e+00	 1.2784128914e+00	-2.1536102537e+00
 1.1499671900e+00	 1.3024905804e+00	-2.2326183242e+00
 1.1227833062e+00	 1.3259954364e+00	-2.3043108120e+00
 1.0951429946e+00	 1.3489136634e+00	-2.3689516038e+00
 1.0670652870e+00	 1.3712322645e+00	-2.4268253457e+00
 1.0385696938e+00	 1.3929390659e+00	-2.4782360220e+00
 1.0096761597e+00	 1.4140227376e+00	-2.5235054477e+00
 9.8040501848e-01	 1.4344728125e+00	-2.5629716871e+00
 9.5077694651e-01	 1.4542797008e+00	-2.5969874074e+00
 1.2374368671e+00	 1.2374368671e+00	-1.9929209582e+00
 1.2115460985e+00	 1.2627969160e+00	-2.0878803724e+00
 1.1851414320e+00	 1.2876101064e+00	-2.1749821080e+00
 1.1582403352e+00	 1.3118610162e+00	-2.2544547873e+00
 1.1308608839e+00	 1.3355349719e+00	-2.3265506278e+00
 1.1030217212e+00	 1.3586180783e+00	-2.3915441769e+00
 1.0747420157e+00	 1.3810972449e+00	-2.4497309399e+00
 1.0460414182e+00	 1.4029602102e+00	-2.5014259103e+00
 1.0169400170e+00	 1.4241955631e+00	-2.5469620140e+00
 9.8745829200e-01	 1.4447927608e+00	-2.5866884785e+00
 9.5761706843e-01	 1.4647421446e+00	-2.6209691380e+00
 8.8921584925e-01	 1.3601177057e+00	-2.3919180335e+00
 8.6119193579e-01	 1.3780324560e+00	-2.4244699904e+00
 8.3287366321e-01	 1.3953302337e+00	-2.4493219164e+00
 8.0428106636e-01	 1.4120045914e+00	-2.4667529601e+00
 7.7543432381e-01	 1.4280499324e+00	-2.4770606213e+00
 7.4635371371e-01	 1.4434615111e+00	-2.4805592104e+00
 7.1705957009e-01	 1.4582354312e+00	-2.4775782570e+00
 6.8757223970e-01	 1.4723686411e+00	-2.4684608784e+00
 6.5791203964e-01	 1.4858589260e+00	-2.4535621209e+00
 6.2809921591e-01	 1.4987048992e+00	-2.4332472829e+00
 5.9815390303e-01	 1.5109059892e+00	-2.4078902334e+00
 8.9605597117e-01	 1.3705801496e+00	-2.4136811881e+00
 8.6781648914e-01	 1.3886327056e+00	-2.4458083726e+00
 8.3928038370e-01	 1.4060635432e+00	-2.4702353586e+00
 8.1046784380e-01	 1.4228661652e+00	-2.4872540881e+00
 7.8139920322e-01	 1.4390349319e+00	-2.4971747889e+00
 7.5209489612e-01	 1.4545650612e+00	-2.5003243805e+00
 7.2257541294e-01	 1.4694526269e+00	-2.4970448314e+00
 6.9286125693e-01	 1.4836945537e+00	-2.4876914782e+00
 6.6297290149e-01	 1.4972886101e+00	-2.4726313180e+00
 6.3293074833e-01	 1.5102333985e+00	-2.4522412876e+00
 6.0275508690e-01	 1.5225283430e+00	-2.4269065387e+00
 9.0289609308e-01	 1.3810425935e+00	-2.4357133982e+00
 8.7444104249e-01	 1.3992329553e+00	-2.4674804041e+00
 8.4568710418e-01	 1.4167968527e+00	-2.4915472633e+00
 8.1665462123e-01	 1.4337277390e+00	-2.5082185882e+00
 7.8736408263e-01	 1.4500199314e+00	-2.5178172126e+00
 7.5783607853e-01	 1.4656686113e+00	-2.5206825451e+00
 7.2809125578e-01	 1.4806698225e+00	-2.5171688747e+00
 6.9815027416e-01	 1.4950204663e+00	-2.5076436407e+00
 6.6803376333e-01	 1.5087182941e+00	-2.4924856783e+00
 6.3776228076e-01	 1.5217618977e+00	-2.4720834524e+00
 6.0735627077e-01	 1.5341506968e+00	-2.4468332905e+00
 9.0973621500e-01	 1.3915050374e+00	-2.4580086299e+00
 8.8106559584e-01	 1.4098332050e+00	-2.4894785955e+00
 8.5209382467e-01	 1.4275301622e+00	-2.5132486808e+00
 8.2284139866e-01	 1.4445893128e+00	-2.5296360485e+00
 7.9332896205e-01	 1.4610049308e+00	-2.5389760192e+00
 7.6357726095e-01	 1.4767721614e+00	-2.5416203725e+00
 7.3360709863e-01	 1.4918870181e+00	-2.5379356025e+00
 7.0343929139e-01	 1.5063463789e+00	-2.5283011381e+00
 6.7309462517e-01	 1.5201479782e+00	-2.5131075416e+00
 6.4259381320e-01	 1.5332903969e+00	-2.4927546982e+00
 6.1195745464e-01	 1.5457730505e+00	-2.4676500069e+00
 9.1657633692e-01	 1.4019674813e+00	-2.4805610288e+00
 8.8769014920e-01	 1.4204334546e+00	-2.5117956806e+00
 8.5850054516e-01	 1.4382634717e+00	-2.5353309285e+00
 8.2902817610e-01	 1.4554508866e+00	-2.5514963677e+00
 7.9929384146e-01	 1.4719899303e+00	-2.5606396890e+00
 7.6931844336e-01	 1.4878757114e+00	-2.5631249284e+00
 7.3912294148e-01	 1.5031042137e+00	-2.5593306717e+00
 7.0872830862e-01	 1.5176722916e+00	-2.5496482265e+00
 6.7815548702e-01	 1.5315776622e+00	-2.5344797742e+00
 6.4742534563e-01	 1.5448188961e+00	-2.5142365149e+00
 6.1655863851e-01	 1.5573954043e+00	-2.4893368168e+00
 9.2341645884e-01	 1.4124299252e+00	-2.5033649140e+00
 8.9431470255e-01	 1.4310337043e+00	-2.5344246084e+00
 8.6490726564e-01	 1.4489967812e+00	-2.5577855807e+00
 8.3521495353e-01	 1.4663124604e+00	-2.5737897434e+00
 8.0525872088e-01	 1.4829749298e+00	-2.5827970437e+00
 7.7505962577e-01	 1.4989792615e+00	-2.5851836615e+00
 7.4463878433e-01	 1.5143214094e+00	-2.5813401637e+00
 7.1401732585e-01	 1.5289982042e+00	-2.5716696283e+00
 6.8321634886e-01	 1.5430073463e+00	-2.5565857499e+00
 6.5225687806e-01	 1.5563473954e+00	-2.5365109406e+00
 6.2115982239e-01	 1.5690177580e+00	-2.5118744379e+00
 9.3025658076e-01	 1.4228923691e+00	-2.5264147711e+00
 9.0093925590e-01	 1.4416339539e+00	-2.5573585349e+00
 8.7131398613e-01	 1.4597300907e+00	-2.5806044591e+00
 8.4140173097e-01	 1.4771740341e+00	-2.5965066612e+00
 8.1122360029e-01	 1.4939599293e+00	-2.6054372333e+00
 7.8080080819e-01	 1.5100828116e+00	-2.6077843892e+00
 7.5015462717e-01	 1.5255386050e+00	-2.6039505691e+00
 7.1930634308e-01	 1.5403241168e+00	-2.5943505150e+00
 6.8827721071e-01	 1.5544370303e+00	-2.5794093313e+00
 6.5708841049e-01	 1.5678758946e+00	-2.5595605413e+00
 6.2576100626e-01	 1.5806401118e+00	-2.5352441545e+00
 9.3709670267e-01	 1.4333548130e+00	-2.5497052466e+00
 9.0756380926e-01	 1.4522342036e+00	-2.5805908155e+00
 8.7772070662e-01	 1.4704634002e+00	-2.6037796239e+00
 8.4758850840e-01	 1.4880356079e+00	-2.6196378841e+00
 8.1718847971e-01	 1.5049449288e+00	-2.6285497243e+00
 7.8654199061e-01	 1.5211863617e+00	-2.6309152846e+00
 7.5567047002e-01	 1.5367558006e+00	-2.6271487724e+00
 7.2459536031e-01	 1.5516500294e+00	-2.6176764905e+00
 6.9333807255e-01	 1.5658667144e+00	-2.6029348516e+00
 6.6191994292e-01	 1.5794043938e+00	-2.5833683919e+00
 6.3036219013e-01	 1.5922624656e+00	-2.5594277972e+00
 9.4393682459e-01	 1.4438172569e+00	-2.5732311418e+00
 9.1418836261e-01	 1.4628344533e+00	-2.6041149981e+00
 8.8412742711e-01	 1.4811967096e+00	-2.6273033652e+00
 8.5377528584e-01	 1.4988971817e+00	-2.6431744428e+00
 8.2315335913e-01	 1.5159299283e+00	-2.6521242883e+00
 7.9228317302e-01	 1.5322899118e+00	-2.6545648630e+00
 7.6118631287e-01	 1.5479729963e+00	-2.6509220381e+00
 7.2988437754e-01	 1.5629759421e+00	-2.6416335757e+00
 6.9839893440e-01	 1.5772963984e+00	-2.6271470980e+00
 6.6675147536e-01	 1.5909328930e+00	-2.6079180575e+00
 6.3496337400e-01	 1.6038848193e+00	-2.5844077227e+00
 9.5077694651e-01	 1.4542797008e+00	-2.5969874074e+00
 9.2081291596e-01	 1.4734347029e+00	-2.6279248159e+00
 8.9053414760e-01	 1.4919300191e+00	-2.6511681947e+00
 8.5996206328e-01	 1.5097587555e+00	-2.6671076255e+00
 8.2911823854e-01	 1.5269149277e+00	-2.6761509907e+00
 7.9802435544e-01	 1.5433934619e+00	-2.6787219699e+00
 7.6670215573e-01	 1.5591901919e+00	-2.6752579968e+00
 7.3517339477e-01	 1.5743018547e+00	-2.6662081937e+00
 7.0345979625e-01	 1.5887260825e+00	-2.6520312950e+00
 6.7158300779e-01	 1.6024613923e+00	-2.6331935756e+00
 6.3956455788e-01	 1.6155071731e+00	-2.6101667954e+00
 9.5761706843e-01	 1.4647421446e+00	-2.6209691380e+00
 9.2743746932e-01	 1.4840349526e+00	-2.6520141807e+00
 8.9694086809e-01	 1.5026633286e+00	-2.6753668377e+00
 8.6614884071e-01	 1.5206203293e+00	-2.6914289692e+00
 8.3508311796e-01	 1.5378999272e+00	-2.7006201808e+00
 8.0376553786e-01	 1.5544970120e+00	-2.7033757694e+00
 7.7221799858e-01	 1.5704073875e+00	-2.7001446324e+00
 7.4046241201e-01	 1.5856277673e+00	-2.6913871550e+00
 7.0852065810e-01	 1.6001557665e+00	-2.6775730892e+00
 6.7641454023e-01	 1.6139898915e+00	-2.6591794398e+00
 6.4416574175e-01	 1.6271295269e+00	-2.6366883687e+00
 5.9815390303e-01	 1.5109059892e+00	-2.4078902334e+00
 5.6809608500e-01	 1.5224624259e+00	-2.4116234183e+00
 5.3794555745e-01	 1.5333752239e+00	-2.4094023993e+00
 5.0772189143e-01	 1.5436461644e+00	-2.4014865309e+00
 4.7744439878e-01	 1.5532777749e+00	-2.3881458277e+00
 4.4713209913e-01	 1.5622733071e+00	-2.3696596180e+00
 4.1680368873e-01	 1.5706367133e+00	-2.3463151975e+00
 3.8647751120e-01	 1.5783726218e+00	-2.3184064939e+00
 3.5617153006e-01	 1.5854863106e+00	-2.2862327487e+00
 3.2590330336e-01	 1.5919836798e+00	-2.2500972236e+00
 2.9568996018e-01	 1.5978712237e+00	-2.2103059387e+00
 6.0275508690e-01	 1.5225283430e+00	-2.4269065387e+00
 5.7246605488e-01	 1.5341736753e+00	-2.4298346862e+00
 5.4208360020e-01	 1.5451704179e+00	-2.4269207295e+00
 5.1162744444e-01	 1.5555203657e+00	-2.4184272501e+00
 4.8111704801e-01	 1.5652260655e+00	-2.4046272470e+00
 4.5057157681e-01	 1.5742907940e+00	-2.3858027810e+00
 4.2000987096e-01	 1.5827185341e+00	-2.3622436231e+00
 3.8945041513e-01	 1.5905139497e+00	-2.3342459133e+00
 3.5891131106e-01	 1.5976823592e+00	-2.3021108385e+00
 3.2841025184e-01	 1.6042297081e+00	-2.2661433366e+00
 2.9796449834e-01	 1.6101625408e+00	-2.2266508333e+00
 6.0735627077e-01	 1.5341506968e+00	-2.4468332905e+00
 5.7683602477e-01	 1.5458849247e+00	-2.4489759187e+00
 5.4622164295e-01	 1.5569656119e+00	-2.4453879286e+00
 5.1553299746e-01	 1.5673945670e+00	-2.4363351039e+00
 4.8478969723e-01	 1.5771743561e+00	-2.4220934039e+00
 4.5401105450e-01	 1.5863082810e+00	-2.4029476014e+00
 4.2321605318e-01	 1.5948003550e+00	-2.3791899232e+00
 3.9242331907e-01	 1.6026552775e+00	-2.3511187044e+00
 3.6165109207e-01	 1.6098784077e+00	-2.3190370625e+00
 3.3091720033e-01	 1.6164757364e+00	-2.2832515987e+00
 3.0023903649e-01	 1.6224538579e+00	-2.2440711333e+00
 6.1195745464e-01	 1.5457730505e+00	-2.4676500069e+00
 5.8120599466e-01	 1.5575961742e+00	-2.4690261956e+00
 5.5035968570e-01	 1.5687608060e+00	-2.4647826525e+00
 5.1943855047e-01	 1.5792687682e+00	-2.4551883382e+00
 4.8846234645e-01	 1.5891226466e+00	-2.4405221500e+00
 4.5745053219e-01	 1.5983257680e+00	-2.4210715514e+00
 4.2642223540e-01	 1.6068821759e+00	-2.3971312065e+00
 3.9539622300e-01	 1.6147966054e+00	-2.3690016290e+00
 3.6439087307e-01	 1.6220744563e+00	-2.3369878521e+00
 3.3342414882e-01	 1.6287217648e+00	-2.3013981277e+00
 3.0251357465e-01	 1.6347451750e+00	-2.2625426600e+00
 6.1655863851e-01	 1.5573954043e+00	-2.4893368168e+00
 5.8557596454e-01	 1.5693074236e+00	-2.4899652213e+00
 5.5449772845e-01	 1.5805560000e+00	-2.4850841940e+00
 5.2334410348e-01	 1.5911429695e+00	-2.4749658484e+00
 4.9213499567e-01	 1.6010709372e+00	-2.4598919977e+00
 4.6089000987e-01	 1.6103432550e+00	-2.4401527755e+00
 4.2962841762e-01	 1.6189639967e+00	-2.4160452652e+00
 3.9836912693e-01	 1.6269379333e+00	-2.3878721423e+00
 3.6713065407e-01	 1.6342705048e+00	-2.3559403419e+00
 3.3593109731e-01	 1.6409677931e+00	-2.3205597539e+00
 3.0478811280e-01	 1.6470364921e+00	-2.2820419562e+00
 6.2115982239e-01	 1.5690177580e+00	-2.5118744379e+00
 5.8994593443e-01	 1.5810186730e+00	-2.5117733008e+00
 5.5863577120e-01	 1.5923511940e+00	-2.5062724589e+00
 5.2724965649e-01	 1.6030171708e+00	-2.4956471549e+00
 4.9580764490e-01	 1.6130192278e+00	-2.4801820956e+00
 4.6432948756e-01	 1.6223607419e+00	-2.4601700656e+00
 4.3283459984e-01	 1.6310458176e+00	-2.4359105489e+00
 4.0134203087e-01	 1.6390792611e+00	-2.4077083675e+00
 3.6987043507e-01	 1.6464665533e+00	-2.3758723439e+00
 3.3843804579e-01	 1.6532138214e+00	-2.3407139940e+00
 3.0706265096e-01	 1.6593278092e+00	-2.3025462594e+00
 6.2576100626e-01	 1.5806401118e+00	-2.5352441545e+00
 5.9431590431e-01	 1.5927299225e+00	-2.5344313184e+00
 5.6277381395e-01	 1.6041463881e+00	-2.5283279440e+00
 5.3115520951e-01	 1.6148913720e+00	-2.5172123800e+00
 4.9948029412e-01	 1.6249675184e+00	-2.5013722057e+00
 4.6776896525e-01	 1.6343782289e+00	-2.4811028368e+00
 4.3604078207e-01	 1.6431276385e+00	-2.4567061410e+00
 4.0431493480e-01	 1.6512205890e+00	-2.4284890708e+00
 3.7261021607e-01	 1.6586626019e+00	-2.3967623223e+00
 3.4094499428e-01	 1.6654598497e+00	-2.3618390259e+00
 3.0933718911e-01	 1.6716191263e+00	-2.3240334767e+00
 6.3036219013e-01	 1.5922624656e+00	-2.5594277972e+00
 5.9868587420e-01	 1.6044411719e+00	-2.5579207161e+00
 5.6691185670e-01	 1.6159415821e+00	-2.5512317150e+00
 5.3506076252e-01	 1.6267655733e+00	-2.5396422261e+00
 5.0315294334e-01	 1.6369158090e+00	-2.5234426802e+00
 4.7120844293e-01	 1.6463957159e+00	-2.5029311052e+00
 4.3924696429e-01	 1.6552094594e+00	-2.4784117352e+00
 4.0728783873e-01	 1.6633619168e+00	-2.4501936379e+00
 3.7534999707e-01	 1.6708586504e+00	-2.4185893699e+00
 3.4345194277e-01	 1.6777058780e+00	-2.3839136643e+00
 3.1161172727e-01	 1.6839104434e+00	-2.3464821597e+00
 6.3496337400e-01	 1.6038848193e+00	-2.5844077227e+00
 6.0305584409e-01	 1.6161524213e+00	-2.5822234734e+00
 5.7104989945e-01	 1.6277367761e+00	-2.5749653864e+00
 5.3896631553e-01	 1.6386397746e+00	-2.5629179548e+00
 5.0682559256e-01	 1.6488640995e+00	-2.5463744408e+00
 4.7464792062e-01	 1.6584132029e+00	-2.5256354659e+00
 4.4245314651e-01	 1.6672912802e+00	-2.5010076136e+00
 4.1026074267e-01	 1.6755032447e+00	-2.4728020522e+00
 3.7808977807e-01	 1.6830546990e+00	-2.4413331853e+00
 3.4595889126e-01	 1.6899519063e+00	-2.4069173375e+00
 3.1388626542e-01	 1.6962017605e+00	-2.3698714816e+00
 6.3956455788e-01	 1.6155071731e+00	-2.6101667954e+00
 6.0742581398e-01	 1.6278636708e+00	-2.6073220882e+00
 5.7518794221e-01	 1.6395319702e+00	-2.5995111011e+00
 5.4287186855e-01	 1.6505139758e+00	-2.5870213665e+00
 5.1049824179e-01	 1.6608123901e+00	-2.5701489578e+00
 4.7808739831e-01	 1.6704306899e+00	-2.5491970719e+00
 4.4565932873e-01	 1.6793731011e+00	-2.5244746256e+00
 4.1323364660e-01	 1.6876445726e+00	-2.4962948727e+00
 3.8082955907e-01	 1.6952507475e+00	-2.4649740512e+00
 3.4846583975e-01	 1.7021979346e+00	-2.4308300661e+00
 3.1616080358e-01	 1.7084930776e+00	-2.3941812149e+00
 6.4416574175e-01	 1.6271295269e+00	-2.6366883687e+00
 6.1179578386e-01	 1.6395749202e+00	-2.6331995583e+00
 5.7932598496e-01	 1.6513271642e+00	-2.6248515122e+00
 5.4677742156e-01	 1.6623881771e+00	-2.6119347813e+00
 5.1417089101e-01	 1.6727606807e+00	-2.5947482306e+00
 4.8152687600e-01	 1.6824481768e+00	-2.5735976146e+00
 4.4886551095e-01	 1.6914549220e+00	-2.5487941671e+00
 4.1620655053e-01	 1.6997859004e+00	-2.5206532134e+00
 3.8356934007e-01	 1.7074467961e+00	-2.4894928132e+00
 3.5097278823e-01	 1.7144439629e+00	-2.4556324408e+00
 3.1843534174e-01	 1.7207843947e+00	-2.4193917097e+00
 2.9568996018e-01	 1.5978712237e+00	-2.2103059387e+00
 2.6554817929e-01	 1.6031560013e+00	-2.2163527654e+00
 2.3549416968e-01	 1.6078456070e+00	-2.2189537904e+00
 2.0554365323e-01	 1.6119481402e+00	-2.2182737579e+00
 1.7571184935e-01	 1.6154721743e+00	-2.2144809659e+00
 1.4601346159e-01	 1.6184267265e+00	-2.2077465205e+00
 1.1646266625e-01	 1.6208212262e+00	-2.1982436115e+00
 8.7073102826e-02	 1.6226654846e+00	-2.1861468136e+00
 5.7857866443e-02	 1.6239696633e+00	-2.1716314143e+00
 2.8829501977e-02	 1.6247442444e+00	-2.1548727730e+00
 0.0000000000e+00	 1.6250000000e+00	-2.1360457103e+00
 2.9796449834e-01	 1.6101625408e+00	-2.2266508333e+00
 2.6759085759e-01	 1.6154879705e+00	-2.2322098588e+00
 2.3730566329e-01	 1.6202136502e+00	-2.2344128850e+00
 2.0712475825e-01	 1.6243477413e+00	-2.2334274332e+00
 1.7706347896e-01	 1.6278988834e+00	-2.2294243928e+00
 1.4713664207e-01	 1.6308761629e+00	-2.2225772688e+00
 1.1735853291e-01	 1.6332890818e+00	-2.2130614522e+00
 8.7742895924e-02	 1.6351475267e+00	-2.2010535164e+00
 5.8302926953e-02	 1.6364617376e+00	-2.1867305427e+00
 2.9051267377e-02	 1.6372422771e+00	-2.1702694758e+00
 0.0000000000e+00	 1.6375000000e+00	-2.1518465132e+00
 3.0023903649e-01	 1.6224538579e+00	-2.2440711333e+00
 2.6963353589e-01	 1.6278199398e+00	-2.2491670977e+00
 2.3911715690e-01	 1.6325816933e+00	-2.2509967511e+00
 2.0870586328e-01	 1.6367473423e+00	-2.2497303539e+00
 1.7841510857e-01	 1.6403255924e+00	-2.2455413506e+00
 1.4825982254e-01	 1.6433255992e+00	-2.2386056102e+00
 1.1825439957e-01	 1.6457569374e+00	-2.2291006913e+00
 8.8412689023e-02	 1.6476295689e+00	-2.2172051346e+00
 5.8747987464e-02	 1.6489538120e+00	-2.2030977844e+00
 2.9273032776e-02	 1.6497403097e+00	-2.1869571424e+00
 0.0000000000e+00	 1.6500000000e+00	-2.1689607559e+00
 3.0251357465e-01	 1.6347451750e+00	-2.2625426600e+00
 2.7167621419e-01	 1.6401519090e+00	-2.2671997479e+00
 2.4092865051e-01	 1.6449497364e+00	-2.2686801014e+00
 2.1028696830e-01	 1.6491469434e+00	-2.2671566833e+00
 1.7976673818e-01	 1.6527523014e+00	-2.2628054573e+00
 1.4938300301e-01	 1.6557750356e+00	-2.2558046224e+00
 1.1915026624e-01	 1.6582247930e+00	-2.2463338722e+00
 8.9082482121e-02	 1.6601116111e+00	-2.2345736834e+00
 5.9193047975e-02	 1.6614458863e+00	-2.2207046337e+00
 2.9494798176e-02	 1.6622383424e+00	-2.2049067540e+00
 0.0000000000e+00	 1.6625000000e+00	-2.1873589150e+00
 3.0478811280e-01	 1.6470364921e+00	-2.2820419562e+00
 2.7371889250e-01	 1.6524838783e+00	-2.2862838132e+00
 2.4274014413e-01	 1.6573177796e+00	-2.2874384033e+00
 2.1186807333e-01	 1.6615465445e+00	-2.2856813557e+00
 1.8111836779e-01	 1.6651790105e+00	-2.2811911183e+00
 1.5050618349e-01	 1.6682244719e+00	-2.2741481867e+00
 1.2004613290e-01	 1.6706926486e+00	-2.2647343577e+00
 8.9752275219e-02	 1.6725936533e+00	-2.2531320132e+00
 5.9638108486e-02	 1.6739379606e+00	-2.2395234358e+00
 2.9716563576e-02	 1.6747363750e+00	-2.2240901583e+00
 0.0000000000e+00	 1.6750000000e+00	-2.2070123486e+00
 3.0706265096e-01	 1.6593278092e+00	-2.3025462594e+00
 2.7576157080e-01	 1.6648158475e+00	-2.3063960083e+00
 2.4455163774e-01	 1.6696858227e+00	-2.3072478512e+00
 2.1344917835e-01	 1.6739461456e+00	-2.3052800480e+00
 1.8246999740e-01	 1.6776057195e+00	-2.3006734972e+00
 1.5162936396e-01	 1.6806739083e+00	-2.2936109582e+00
 1.2094199956e-01	 1.6831605042e+00	-2.2842762995e+00
 9.0422068317e-02	 1.6850756955e+00	-2.2728537790e+00
 6.0083168996e-02	 1.6864300350e+00	-2.2595273555e+00
 2.9938328975e-02	 1.6872344077e+00	-2.2444800367e+00
 0.0000000000e+00	 1.6875000000e+00	-2.2278932633e+00
 3.0933718911e-01	 1.6716191263e+00	-2.3240334767e+00
 2.7780424910e-01	 1.6771478167e+00	-2.3275137326e+00
 2.4636313135e-01	 1.6820538658e+00	-2.3280853391e+00
 2.1503028338e-01	 1.6863457466e+00	-2.3259291523e+00
 1.8382162701e-01	 1.6900324285e+00	-2.3212284880e+00
 1.5275254443e-01	 1.6931233446e+00	-2.3141683371e+00
 1.2183786622e-01	 1.6956283597e+00	-2.3049346098e+00
 9.1091861415e-02	 1.6975577377e+00	-2.2937134104e+00
 6.0528229507e-02	 1.6989221093e+00	-2.2806903464e+00
 3.0160094375e-02	 1.6997324403e+00	-2.2660498745e+00
 0.0000000000e+00	 1.7000000000e+00	-2.2499746830e+00
 3.1161172727e-01	 1.6839104434e+00	-2.3464821597e+00
 2.7984692740e-01	 1.6894797860e+00	-2.3496150451e+00
 2.4817462496e-01	 1.6944219089e+00	-2.3499284358e+00
 2.1661138840e-01	 1.6987453477e+00	-2.3476057500e+00
 1.8517325662e-01	 1.7024591376e+00	-2.3428326882e+00
 1.5387572491e-01	 1.7055727810e+00	-2.3357964421e+00
 1.2273373289e-01	 1.7080962153e+00	-2.3266849331e+00
 9.1761654514e-02	 1.7100397799e+00	-2.3156860836e+00
 6.0973290018e-02	 1.7114141836e+00	-2.3029871229e+00
 3.0381859775e-02	 1.7122304730e+00	-2.2887739309e+00
 0.0000000000e+00	 1.7125000000e+00	-2.2732304194e+00
 3.1388626542e-01	 1.6962017605e+00	-2.3698714816e+00
 2.8188960570e-01	 1.7018117552e+00	-2.3726786407e+00
 2.4998611858e-01	 1.7067899521e+00	-2.3727553597e+00
 2.1819249342e-01	 1.7111449488e+00	-2.3702875863e+00
 1.8652488623e-01	 1.7148858466e+00	-2.3654633738e+00
 1.5499890538e-01	 1.7180222174e+00	-2.3584720837e+00
 1.2362959955e-01	 1.7205640709e+00	-2.3495036196e+00
 9.2431447612e-02	 1.7225218221e+00	-2.3387476942e+00
 6.1418350529e-02	 1.7239062580e+00	-2.3263931321e+00
 3.0603625174e-02	 1.7247285056e+00	-2.3126272111e+00
 0.0000000000e+00	 1.7250000000e+00	-2.2976350434e+00
 3.1616080358e-01	 1.7084930776e+00	-2.3941812149e+00
 2.8393228401e-01	 1.7141437245e+00	-2.3966838272e+00
 2.5179761219e-01	 1.7191579952e+00	-2.3965449564e+00
 2.1977359845e-01	 1.7235445499e+00	-2.3939530471e+00
 1.8787651584e-01	 1.7273125556e+00	-2.3890984743e+00
 1.5612208585e-01	 1.7304716537e+00	-2.3821727397e+00
 1.2452546621e-01	 1.7330319265e+00	-2.3733677002e+00
 9.3101240710e-02	 1.7350038643e+00	-2.3628748315e+00
 6.1863411039e-02	 1.7363983323e+00	-2.3508845275e+00
 3.0825390574e-02	 1.7372265383e+00	-2.3375854398e+00
 0.0000000000e+00	 1.7375000000e+00	-2.3231638574e+00
 3.1843534174e-01	 1.7207843947e+00	-2.4193917097e+00
 2.8597496231e-01	 1.7264756937e+00	-2.4216105032e+00
 2.5360910580e-01	 1.7315260383e+00	-2.4212766752e+00
 2.2135470347e-01	 1.7359441510e+00	-2.4185811355e+00
 1.8922814545e-01	 1.7397392647e+00	-2.4137165500e+00
 1.5724526633e-01	 1.7429210901e+00	-2.4068765313e+00
 1.2542133288e-01	 1.7454997821e+00	-2.3982548619e+00
 9.3771033808e-02	 1.7474859064e+00	-2.3880447535e+00
 6.2308471550e-02	 1.7488904066e+00	-2.3764381442e+00
 3.1047155973e-02	 1.7497245709e+00	-2.3636250351e+00
 0.0000000000e+00	 1.7500000000e+00	-2.3497928697e+00
 1.7500000000e+00	 0.0000000000e+00	 2.3389467017e+00
 1.7497245709e+00	 3.1047155973e-02	 2.3472092765e+00
 1.7488904066e+00	 6.2308471550e-02	 2.3460076714e+00
 1.7474859064e+00	 9.3771033808e-02	 2.3350961227e+00
 1.7454997821e+00	 1.2542133288e-01	 2.3142472421e+00
 1.7429210901e+00	 1.5724526633e-01	 2.2832536695e+00
 1.7397392647e+00	 1.8922814545e-01	 2.2419297204e+00
 1.7359441510e+00	 2.2135470347e-01	 2.1901130160e+00
 1.7315260383e+00	 2.5360910580e-01	 2.1276660862e+00
 1.7264756937e+00	 2.8597496231e-01	 2.0544779340e+00
 1.7207843947e+00	 3.1843534174e-01	 1.9704655503e+00
 1.7625000000e+00	 0.0000000000e+00	 2.3159742389e+00
 1.7622226036e+00	 3.1268921373e-02	 2.3253294829e+00
 1.7613824810e+00	 6.2753532061e-02	 2.3251310181e+00
 1.7599679486e+00	 9.4440826906e-02	 2.3151294705e+00
 1.7579676377e+00	 1.2631719954e-01	 2.2950942202e+00
 1.7553705264e+00	 1.5836844680e-01	 2.2648150899e+00
 1.7521659737e+00	 1.9057977506e-01	 2.2241040257e+00
 1.7483437520e+00	 2.2293580850e-01	 2.1727967613e+00
 1.7438940815e+00	 2.5542059941e-01	 2.1107544542e+00
 1.7388076629e+00	 2.8801764061e-01	 2.0378652823e+00
 1.7330757118e+00	 3.2070987989e-01	 1.9540459897e+00
 1.7750000000e+00	 0.0000000000e+00	 2.2937927112e+00
 1.7747206362e+00	 3.1490686773e-02	 2.3042325916e+00
 1.7738745553e+00	 6.3198592571e-02	 2.3050311852e+00
 1.7724499908e+00	 9.5110620005e-02	 2.2959355589e+00
 1.7704354933e+00	 1.2721306620e-01	 2.2767119104e+00
 1.7678199628e+00	 1.5949162727e-01	 2.2471472906e+00
 1.7645926827e+00	 1.9193140467e-01	 2.2070513189e+00
 1.7607433531e+00	 2.2451691352e-01	 2.1562578805e+00
 1.7562621246e+00	 2.5723209303e-01	 2.0946267958e+00
 1.7511396322e+00	 2.9006031891e-01	 2.0220454488e+00
 1.7453670289e+00	 3.2298441805e-01	 1.9384303635e+00
 1.7875000000e+00	 0.0000000000e+00	 2.2723855874e+00
 1.7872186689e+00	 3.1712452172e-02	 2.2839022371e+00
 1.7863666296e+00	 6.3643653082e-02	 2.2856919318e+00
 1.7849320330e+00	 9.5780413103e-02	 2.2774982298e+00
 1.7829033488e+00	 1.2810893287e-01	 2.2590841942e+00
 1.7802693991e+00	 1.6061480775e-01	 2.2302341490e+00
 1.7770193918e+00	 1.9328303428e-01	 2.1907554283e+00
 1.7731429542e+00	 2.2609801855e-01	 2.1404801072e+00
 1.7686301677e+00	 2.5904358664e-01	 2.0792667034e+00
 1.7634716014e+00	 2.9210299722e-01	 2.0070018376e+00
 1.7576583461e+00	 3.2525895620e-01	 1.9236018401e+00
 1.8000000000e+00	 0.0000000000e+00	 2.2517367952e+00
 1.7997167015e+00	 3.1934217572e-02	 2.2643225082e+00
 1.7988587040e+00	 6.4088713593e-02	 2.2670974681e+00
 1.7974140752e+00	 9.6450206201e-02	 2.2598017740e+00
 1.7953712044e+00	 1.2900479953e-01	 2.2421954011e+00
 1.7927188355e+00	 1.6173798822e-01	 2.2140599903e+00
 1.7894461008e+00	 1.9463466389e-01	 2.1752006315e+00
 1.7855425553e+00	 2.2767912357e-01	 2.1254476269e+00
 1.7809982109e+00	 2.6085508025e-01	 2.0646582253e+00
 1.7758035707e+00	 2.9414567552e-01	 1.9927183139e+00
 1.7699496632e+00	 3.2753349436e-01	 1.9095440553e+00
 1.8125000000e+00	 0.0000000000e+00	 2.2318307060e+00
 1.8122147342e+00	 3.2155982972e-02	 2.2454779327e+00
 1.8113507783e+00	 6.4533774104e-02	 2.2492324399e+00
 1.8098961174e+00	 9.7119999299e-02	 2.2428309155e+00
 1.8078390600e+00	 1.2990066619e-01	 2.2260302925e+00
 1.8051682719e+00	 1.6286116869e-01	 2.1986095722e+00
 1.8018728098e+00	 1.9598629350e-01	 2.1603716396e+00
 1.7979421564e+00	 2.2926022860e-01	 2.1111450610e+00
 1.7933662540e+00	 2.6266657387e-01	 2.0507858494e+00
 1.7881355399e+00	 2.9618835382e-01	 1.9791791878e+00
 1.7822409803e+00	 3.2980803251e-01	 1.8962410963e+00
 1.8250000000e+00	 0.0000000000e+00	 2.2126521189e+00
 1.8247127668e+00	 3.2377748371e-02	 2.2273534625e+00
 1.8238428526e+00	 6.4978834614e-02	 2.2320819135e+00
 1.8223781596e+00	 9.7789792397e-02	 2.2265707967e+00
 1.8203069156e+00	 1.3079653285e-01	 2.2105740476e+00
 1.8176177082e+00	 1.6398434917e-01	 2.1838680696e+00
 1.8142995189e+00	 1.9733792311e-01	 2.1462535825e+00
 1.8103417574e+00	 2.3084133362e-01	 2.0975574523e+00
 1.8057342971e+00	 2.6447806748e-01	 2.0376344887e+00
 1.8004675092e+00	 2.9823103212e-01	 1.9663691992e+00
 1.7945322974e+00	 3.3208257067e-01	 1.8836774861e+00
 1.8375000000e+00	 0.0000000000e+00	 2.1941862472e+00
 1.8372107995e+00	 3.2599513771e-02	 2.2099344586e+00
 1.8363349270e+00	 6.5423895125e-02	 2.2156313619e+00
 1.8348602018e+00	 9.8459585495e-02	 2.2110069644e+00
 1.8327747712e+00	 1.3169239952e-01	 2.1958122485e+00
 1.8300671446e+00	 1.6510752964e-01	 2.1698210610e+00
 1.8267262279e+00	 1.9868955272e-01	 2.1328319948e+00
 1.8227413585e+00	 2.3242243864e-01	 2.0846702506e+00
 1.8181023403e+00	 2.6628956109e-01	 2.0251894666e+00
 1.8127994784e+00	 3.0027371042e-01	 1.9542735031e+00
 1.8068236145e+00	 3.3435710882e-01	 1.8718381688e+00
 1.8500000000e+00	 0.0000000000e+00	 2.1764187035e+00
 1.8497088321e+00	 3.2821279170e-02	 2.1932066780e+00
 1.8488270013e+00	 6.5868955636e-02	 2.1998666502e+00
 1.8473422440e+00	 9.9129378594e-02	 2.1961253559e+00
 1.8452426268e+00	 1.3258826618e-01	 2.1817308672e+00
 1.8425165809e+00	 1.6623071011e-01	 2.1564545147e+00
 1.8391529369e+00	 2.0004118233e-01	 2.1200928019e+00
 1.8351409596e+00	 2.3400354367e-01	 2.0724692988e+00
 1.8304703834e+00	 2.6810105470e-01	 2.0134365032e+00
 1.8251314476e+00	 3.0231638873e-01	 1.9428776557e+00
 1.8191149316e+00	 3.3663164698e-01	 1.8607084951e+00
 1.8625000000e+00	 0.0000000000e+00	 2.1593354866e+00
 1.8622068648e+00	 3.3043044570e-02	 2.1771562598e+00
 1.8613190756e+00	 6.6314016147e-02	 2.1847740234e+00
 1.8598242861e+00	 9.9799171692e-02	 2.1819122861e+00
 1.8577104824e+00	 1.3348413284e-01	 2.1683162521e+00
 1.8549660173e+00	 1.6735389059e-01	 2.1437547753e+00
 1.8515796460e+00	 2.0139281194e-01	 2.1080223068e+00
 1.8475405607e+00	 2.3558464869e-01	 2.0609408196e+00
 1.8428384265e+00	 2.6991254832e-01	 2.0023617017e+00
 1.8374634169e+00	 3.0435906703e-01	 1.9321676008e+00
 1.8314062487e+00	 3.3890618513e-01	 1.8502742093e+00
 1.8750000000e+00	 0.0000000000e+00	 2.1429229689e+00
 1.8747048974e+00	 3.3264809970e-02	 2.1617697127e+00
 1.8738111500e+00	 6.6759076657e-02	 2.1703400928e+00
 1.8723063283e+00	 1.0046896479e-01	 2.1683544347e+00
 1.8701783380e+00	 1.3437999951e-01	 2.1555551155e+00
 1.8674154537e+00	 1.6847707106e-01	 2.1317085518e+00
 1.8640063550e+00	 2.0274444155e-01	 2.0966071780e+00
 1.8599401617e+00	 2.3716575372e-01	 2.0500714034e+00
 1.8552064697e+00	 2.7172404193e-01	 1.9919515359e+00
 1.8497953861e+00	 3.0640174533e-01	 1.9221296569e+00
 1.8436975658e+00	 3.4118072329e-01	 1.8405214353e+00
 1.7207843947e+00	 3.1843534174e-01	 1.9704655503e+00
 1.7144439629e+00	 3.5097278823e-01	 1.8957187261e+00
 1.7074467961e+00	 3.8356934007e-01	 1.8121393073e+00
 1.6997859004e+00	 4.1620655053e-01	 1.7196654453e+00
 1.6914549220e+00	 4.4886551095e-01	 1.6182604586e+00
 1.6824481768e+00	 4.8152687600e-01	 1.5079139329e+00
 1.6727606807e+00	 5.1417089101e-01	 1.3886427391e+00
 1.6623881771e+00	 5.4677742156e-01	 1.2604919600e+00
 1.6513271642e+00	 5.7932598496e-01	 1.1235357127e+00
 1.6395749202e+00	 6.1179578386e-01	 9.7787786141e-01
 1.6271295269e+00	 6.4416574175e-01	 8.2365260732e-01
 1.7330757118e+00	 3.2070987989e-01	 1.9540459897e+00
 1.7266899912e+00	 3.5347973672e-01	 1.8789027923e+00
 1.7196428446e+00	 3.8630912108e-01	 1.7950115224e+00
 1.7119272283e+00	 4.1917945447e-01	 1.7023113571e+00
 1.7035367429e+00	 4.5207169318e-01	 1.6007665869e+00
 1.6944656638e+00	 4.8496635368e-01	 1.4903677151e+00
 1.6847089713e+00	 5.1784354024e-01	 1.3711324739e+00
 1.6742623784e+00	 5.5068297457e-01	 1.2431067494e+00
 1.6631223582e+00	 5.8346402771e-01	 1.1063654037e+00
 1.6512861696e+00	 6.1616575375e-01	 9.6101298551e-01
 1.6387518806e+00	 6.4876692562e-01	 8.0718431977e-01
 1.7453670289e+00	 3.2298441805e-01	 1.9384303635e+00
 1.7389360195e+00	 3.5598668521e-01	 1.8628855753e+00
 1.7318388932e+00	 3.8904890208e-01	 1.7786767197e+00
 1.7240685562e+00	 4.2215235840e-01	 1.6857440003e+00
 1.7156185637e+00	 4.5527787540e-01	 1.5840526821e+00
 1.7064831508e+00	 4.8840583137e-01	 1.4735941890e+00
 1.6966572619e+00	 5.2151618946e-01	 1.3543871194e+00
 1.6861365796e+00	 5.5458852759e-01	 1.2264781687e+00
 1.6749175523e+00	 5.8760207046e-01	 1.0899429513e+00
 1.6629974191e+00	 6.2053572364e-01	 9.4488670906e-01
 1.6503742344e+00	 6.5336810950e-01	 7.9144490075e-01
 1.7576583461e+00	 3.2525895620e-01	 1.9236018401e+00
 1.7511820478e+00	 3.5849363370e-01	 1.8476503503e+00
 1.7440349417e+00	 3.9178868308e-01	 1.7631182921e+00
 1.7362098840e+00	 4.2512526233e-01	 1.6699468966e+00
 1.7277003846e+00	 4.5848405762e-01	 1.5681024053e+00
 1.7185006378e+00	 4.9184530906e-01	 1.4575771662e+00
 1.7086055524e+00	 5.2518883868e-01	 1.3383906481e+00
 1.6980107809e+00	 5.5849408060e-01	 1.2105903620e+00
 1.6867127463e+00	 5.9174011322e-01	 1.0742526813e+00
 1.6747086685e+00	 6.2490569353e-01	 9.2948355003e-01
 1.6619965882e+00	 6.5796929337e-01	 7.7641907033e-01
 1.7699496632e+00	 3.2753349436e-01	 1.9095440553e+00
 1.7634280761e+00	 3.6100058218e-01	 1.8331808570e+00
 1.7562309902e+00	 3.9452846408e-01	 1.7483200940e+00
 1.7483512119e+00	 4.2809816627e-01	 1.6549040254e+00
 1.7397822055e+00	 4.6169023984e-01	 1.5528998714e+00
 1.7305181248e+00	 4.9528478674e-01	 1.4423009076e+00
 1.7205538430e+00	 5.2886148791e-01	 1.3231274774e+00
 1.7098849822e+00	 5.6239963361e-01	 1.1954279133e+00
 1.6985079403e+00	 5.9587815597e-01	 1.0592793548e+00
 1.6864199179e+00	 6.2927566342e-01	 9.1478845630e-01
 1.6736189419e+00	 6.6257047724e-01	 7.6209197295e-01
 1.7822409803e+00	 3.2980803251e-01	 1.8962410963e+00
 1.7756741044e+00	 3.6350753067e-01	 1.8194612836e+00
 1.7684270388e+00	 3.9726824508e-01	 1.7342664247e+00
 1.7604925398e+00	 4.3107107020e-01	 1.6405998078e+00
 1.7518640264e+00	 4.6489642207e-01	 1.5384296336e+00
 1.7425356117e+00	 4.9872426443e-01	 1.4277501083e+00
 1.7325021336e+00	 5.3253413713e-01	 1.3085824548e+00
 1.7217591834e+00	 5.6630518663e-01	 1.1809758322e+00
 1.7103031344e+00	 6.0001619872e-01	 1.0450081533e+00
 1.6981311674e+00	 6.3364563330e-01	 9.0078679091e-01
 1.6852412957e+00	 6.6717166111e-01	 7.4844916275e-01
 1.7945322974e+00	 3.3208257067e-01	 1.8836774861e+00
 1.7879201328e+00	 3.6601447916e-01	 1.8064762514e+00
 1.7806230873e+00	 4.0000802608e-01	 1.7209420139e+00
 1.7726338676e+00	 4.3404397413e-01	 1.6270190917e+00
 1.7639458472e+00	 4.6810260429e-01	 1.5246766680e+00
 1.7545530987e+00	 5.0216374212e-01	 1.4139098827e+00
 1.7444504242e+00	 5.3620678635e-01	 1.2947408423e+00
 1.7336333847e+00	 5.7021073964e-01	 1.1672195385e+00
 1.7220983284e+00	 6.0415424147e-01	 1.0314246640e+00
 1.7098424168e+00	 6.3801560319e-01	 8.8746431780e-01
 1.6968636495e+00	 6.7177284498e-01	 7.3547658955e-01
 1.8068236145e+00	 3.3435710882e-01	 1.8718381688e+00
 1.8001661611e+00	 3.6852142765e-01	 1.7942108000e+00
 1.7928191359e+00	 4.0274780708e-01	 1.7083320065e+00
 1.7847751955e+00	 4.3701687807e-01	 1.6141471371e+00
 1.7760276681e+00	 4.7130878651e-01	 1.5116263593e+00
 1.7665705857e+00	 5.0560321981e-01	 1.4007657499e+00
 1.7563987147e+00	 5.3987943557e-01	 1.2815883034e+00
 1.7455075860e+00	 5.7411629265e-01	 1.1541448491e+00
 1.7338935224e+00	 6.0829228422e-01	 1.0185148663e+00
 1.7215536662e+00	 6.4238557307e-01	 8.7480718818e-01
 1.7084860032e+00	 6.7637402885e-01	 7.2316058539e-01
 1.8191149316e+00	 3.3663164698e-01	 1.8607084951e+00
 1.8124121894e+00	 3.7102837614e-01	 1.7826503734e+00
 1.8050151844e+00	 4.0548758808e-01	 1.6964219490e+00
 1.7969165233e+00	 4.3998978200e-01	 1.6019696023e+00
 1.7881094890e+00	 4.7451496873e-01	 1.4992644873e+00
 1.7785880727e+00	 5.0904269749e-01	 1.3883036205e+00
 1.7683470053e+00	 5.4355208480e-01	 1.2691108884e+00
 1.7573817872e+00	 5.7802184566e-01	 1.1417379636e+00
 1.7456887164e+00	 6.1243032697e-01	 1.0062651182e+00
 1.7332649156e+00	 6.4675554296e-01	 8.6280192745e-01
 1.7201083570e+00	 6.8097521272e-01	 7.1148785161e-01
 1.8314062487e+00	 3.3890618513e-01	 1.8502742093e+00
 1.8246582177e+00	 3.7353532462e-01	 1.7717808059e+00
 1.8172112330e+00	 4.0822736909e-01	 1.6851977755e+00
 1.8090578512e+00	 4.4296268593e-01	 1.5904725306e+00
 1.8001913098e+00	 4.7772115095e-01	 1.4875772133e+00
 1.7906055596e+00	 5.1248217518e-01	 1.3765097831e+00
 1.7802952959e+00	 5.4722473402e-01	 1.2572950225e+00
 1.7692559885e+00	 5.8192739867e-01	 1.1299854523e+00
 1.7574839105e+00	 6.1656836972e-01	 9.9466214414e-01
 1.7449761651e+00	 6.5112551284e-01	 8.5143542264e-01
 1.7317307107e+00	 6.8557639659e-01	 7.0044544648e-01
 1.8436975658e+00	 3.4118072329e-01	 1.8405214353e+00
 1.8369042460e+00	 3.7604227311e-01	 1.7615883100e+00
 1.8294072815e+00	 4.1096715009e-01	 1.6746457953e+00
 1.8211991790e+00	 4.4593558987e-01	 1.5796423372e+00
 1.8122731307e+00	 4.8092733318e-01	 1.4765510677e+00
 1.8026230466e+00	 5.1592165286e-01	 1.3653708918e+00
 1.7922435865e+00	 5.5089738324e-01	 1.2461274923e+00
 1.7811301897e+00	 5.8583295169e-01	 1.1188742434e+00
 1.7692791045e+00	 6.2070641247e-01	 9.8369302230e-01
 1.7566874145e+00	 6.5549548273e-01	 8.4069491037e-01
 1.7433530645e+00	 6.9017758046e-01	 6.9002077328e-01
 1.6271295269e+00	 6.4416574175e-01	 8.2365260732e-01
 1.6139898915e+00	 6.7641454023e-01	 6.8381558752e-01
 1.6001557665e+00	 7.0852065810e-01	 5.4077434161e-01
 1.5856277673e+00	 7.4046241201e-01	 3.9460364416e-01
 1.5704073875e+00	 7.7221799858e-01	 2.4538945469e-01
 1.5544970120e+00	 8.0376553786e-01	 9.3228996764e-02
 1.5378999272e+00	 8.3508311796e-01	-6.1769215102e-02
 1.5206203293e+00	 8.6614884071e-01	-2.1948540266e-01
 1.5026633286e+00	 8.9694086809e-01	-3.7978860695e-01
 1.4840349526e+00	 9.2743746932e-01	-5.4253682835e-01
 1.4647421446e+00	 9.5761706843e-01	-7.0757722451e-01
 1.6387518806e+00	 6.4876692562e-01	 8.0718431977e-01
 1.6255183907e+00	 6.8124607266e-01	 6.6679352381e-01
 1.6115854506e+00	 7.1358151994e-01	 5.2330719938e-01
 1.5969536799e+00	 7.4575142924e-01	 3.7679796645e-01
 1.5816245831e+00	 7.7773384143e-01	 2.2734935886e-01
 1.5656005621e+00	 8.0950672027e-01	 7.5055909636e-02
 1.5488849267e+00	 8.4104799738e-01	-7.9976814517e-02
 1.5314819031e+00	 8.7233561815e-01	-2.3763223138e-01
 1.5133966381e+00	 9.0334758858e-01	-3.9778281588e-01
 1.4946352023e+00	 9.3406202267e-01	-5.6029022840e-01
 1.4752045885e+00	 9.6445719035e-01	-7.2500549972e-01
 1.6503742344e+00	 6.5336810950e-01	 7.9144490075e-01
 1.6370468900e+00	 6.8607760509e-01	 6.5047859460e-01
 1.6230151346e+00	 7.1864238179e-01	 5.0652465106e-01
 1.6082795926e+00	 7.5104044647e-01	 3.5965356720e-01
 1.5928417788e+00	 7.8324968428e-01	 2.0994648539e-01
 1.5767041122e+00	 8.1524790269e-01	 5.7495284674e-02
 1.5598699262e+00	 8.4701287680e-01	-9.7597377088e-02
 1.5423434768e+00	 8.7852239559e-01	-2.5521807255e-01
 1.5241299476e+00	 9.0975430906e-01	-4.1524266721e-01
 1.5052354519e+00	 9.4068657602e-01	-5.7753643613e-01
 1.4856670324e+00	 9.7129731226e-01	-7.4195423603e-01
 1.6619965882e+00	 6.5796929337e-01	 7.7641907033e-01
 1.6485753892e+00	 6.9090913753e-01	 6.3485597401e-01
 1.6344448187e+00	 7.2370324364e-01	 4.9041234178e-01
 1.6196055052e+00	 7.5632946371e-01	 3.4315657889e-01
 1.6040589744e+00	 7.8876552713e-01	 1.9316746968e-01
 1.5878076622e+00	 8.2098908511e-01	 4.0534275093e-02
 1.5708549257e+00	 8.5297775622e-01	-1.1464321779e-01
 1.5532050506e+00	 8.8470917302e-01	-2.7225469618e-01
 1.5348632571e+00	 9.1616102955e-01	-4.3217937374e-01
 1.5158357016e+00	 9.4731112938e-01	-5.9428609586e-01
 1.4961294763e+00	 9.7813743418e-01	-7.5843349894e-01
 1.6736189419e+00	 6.6257047724e-01	 7.6209197295e-01
 1.6601038884e+00	 6.9574066996e-01	 6.1991124788e-01
 1.6458745027e+00	 7.2876410549e-01	 4.7495631534e-01
 1.6309314178e+00	 7.6161848094e-01	 3.2729351912e-01
 1.6152761700e+00	 7.9428136998e-01	 1.7699931835e-01
 1.5989112123e+00	 8.2673026752e-01	 2.4160390903e-02
 1.5818399252e+00	 8.5894263563e-01	-1.3112630956e-01
 1.5640666244e+00	 8.9089595046e-01	-2.8875354536e-01
 1.5455965666e+00	 9.2256775004e-01	-4.4860383682e-01
 1.5264359513e+00	 9.5393568273e-01	-6.1054955620e-01
 1.5065919202e+00	 9.8497755610e-01	-7.7445307437e-01
 1.6852412957e+00	 6.6717166111e-01	 7.4844916275e-01
 1.6716323876e+00	 7.0057220239e-01	 6.0563039961e-01
 1.6573041868e+00	 7.3382496733e-01	 4.6014300043e-01
 1.6422573304e+00	 7.6690749817e-01	 3.1205127735e-01
 1.6264933656e+00	 7.9979721283e-01	 1.6142939634e-01
 1.6100147624e+00	 8.3247144994e-01	 8.3614866090e-03
 1.5928249246e+00	 8.6490751505e-01	-1.4705829510e-01
 1.5749281982e+00	 8.9708272789e-01	-3.0472574755e-01
 1.5563298761e+00	 9.2897447053e-01	-4.6452665711e-01
 1.5370362009e+00	 9.6056023608e-01	-6.2633688035e-01
 1.5170543641e+00	 9.9181767802e-01	-7.9002247828e-01
 1.6968636495e+00	 6.7177284498e-01	 7.3547658955e-01
 1.6831608869e+00	 7.0540373482e-01	 5.9199979650e-01
 1.6687338708e+00	 7.3888582918e-01	 4.4595919748e-01
 1.6535832431e+00	 7.7219651540e-01	 2.9741710214e-01
 1.6377105613e+00	 8.0531305568e-01	 1.4644541472e-01
 1.6211183125e+00	 8.3821263235e-01	-6.8742505889e-03
 1.6038099241e+00	 8.7087239446e-01	-1.6245049817e-01
 1.5857897720e+00	 9.0326950533e-01	-3.2018212539e-01
 1.5670631856e+00	 9.3538119102e-01	-4.7995814484e-01
 1.5476364506e+00	 9.6718478944e-01	-6.4165785576e-01
 1.5275168080e+00	 9.9865779994e-01	-8.0515096590e-01
 1.7084860032e+00	 6.7637402885e-01	 7.2316058539e-01
 1.6946893861e+00	 7.1023526726e-01	 5.7900617673e-01
 1.6801635549e+00	 7.4394669102e-01	 4.3239206602e-01
 1.6649091557e+00	 7.7748553263e-01	 2.8337858897e-01
 1.6489277569e+00	 8.1082889853e-01	 1.3203541889e-01
 1.6322218626e+00	 8.4395381477e-01	-2.1558312112e-02
 1.6147949236e+00	 8.7683727388e-01	-1.7731393446e-01
 1.5966513457e+00	 9.0945628276e-01	-3.3513320707e-01
 1.5777964951e+00	 9.4178791150e-01	-4.9490832975e-01
 1.5582367002e+00	 9.7380934279e-01	-6.5652200361e-01
 1.5379792519e+00	 1.0054979219e+00	-8.1984754063e-01
 1.7201083570e+00	 6.8097521272e-01	 7.1148785161e-01
 1.7062178853e+00	 7.1506679969e-01	 5.6663663682e-01
 1.6915932389e+00	 7.4900755286e-01	 4.1942911252e-01
 1.6762350683e+00	 7.8277454986e-01	 2.6992366848e-01
 1.6601449525e+00	 8.1634474137e-01	 1.1818777724e-01
 1.6433254127e+00	 8.4969499718e-01	-3.5701878858e-02
 1.6257799231e+00	 8.8280215329e-01	-1.9165932197e-01
 1.6075129195e+00	 9.1564306020e-01	-3.4958923624e-01
 1.5885298046e+00	 9.4819463199e-01	-5.0938697049e-01
 1.5688369499e+00	 9.8043389614e-01	-6.7093858772e-01
 1.5484416958e+00	 1.0123380438e+00	-8.3412096252e-01
 1.7317307107e+00	 6.8557639659e-01	 7.0044544648e-01
 1.7177463845e+00	 7.1989833212e-01	 5.5487861958e-01
 1.7030229229e+00	 7.5406841471e-01	 4.0705817877e-01
 1.6875609809e+00	 7.8806356708e-01	 2.5704059526e-01
 1.6713621481e+00	 8.2186058422e-01	 1.0489117040e-01
 1.6544289627e+00	 8.5543617959e-01	-4.9315831625e-02
 1.6367649225e+00	 8.8876703271e-01	-2.0549709104e-01
 1.6183744933e+00	 9.2182983763e-01	-3.6356018161e-01
 1.5992631140e+00	 9.5460135247e-01	-5.2340356378e-01
 1.5794371996e+00	 9.8705844950e-01	-6.8491662327e-01
 1.5589041397e+00	 1.0191781657e+00	-8.4797975645e-01
 1.7433530645e+00	 6.9017758046e-01	 6.9002077328e-01
 1.7292748837e+00	 7.2472986455e-01	 5.4371990263e-01
 1.7144526070e+00	 7.5912927655e-01	 3.9526743070e-01
 1.6988868935e+00	 7.9335258431e-01	 2.4471793704e-01
 1.6825793438e+00	 8.2737642706e-01	 9.2134580759e-02
 1.6655325128e+00	 8.6117736201e-01	-6.2410761111e-02
 1.6477499220e+00	 8.9473191212e-01	-2.1883739387e-01
 1.6292360671e+00	 9.2801661506e-01	-3.7705574608e-01
 1.6099964235e+00	 9.6100807296e-01	-5.3696735312e-01
 1.5900374492e+00	 9.9368300285e-01	-6.9846488502e-01
 1.5693665835e+00	 1.0260182876e+00	-8.6143221997e-01
 1.4647421446e+00	 9.5761706843e-01	-7.0757722451e-01
 1.4447927608e+00	 9.8745829200e-01	-8.5211258002e-01
 1.4241955631e+00	 1.0169400170e+00	-9.9306595578e-01
 1.4029602102e+00	 1.0460414182e+00	-1.1304277926e+00
 1.3810972449e+00	 1.0747420157e+00	-1.2641997777e+00
 1.3586180783e+00	 1.1030217212e+00	-1.3943947529e+00
 1.3355349719e+00	 1.1308608839e+00	-1.5210365647e+00
 1.3118610162e+00	 1.1582403352e+00	-1.6441598546e+00
 1.2876101064e+00	 1.1851414320e+00	-1.7638097931e+00
 1.2627969160e+00	 1.2115460985e+00	-1.8800417577e+00
 1.2374368671e+00	 1.2374368671e+00	-1.9929209582e+00
 1.4752045885e+00	 9.6445719035e-01	-7.2500549972e-01
 1.4551127091e+00	 9.9451156551e-01	-8.7006931187e-01
 1.4343683886e+00	 1.0242038742e+00	-1.0114621202e+00
 1.4129813546e+00	 1.0535131426e+00	-1.1491796812e+00
 1.3909622252e+00	 1.0824187444e+00	-1.2832293005e+00
 1.3683224931e+00	 1.1109004478e+00	-1.4136297194e+00
 1.3450745074e+00	 1.1389384617e+00	-1.5404109411e+00
 1.3212314520e+00	 1.1665134805e+00	-1.6636139967e+00
 1.2968073215e+00	 1.1936067279e+00	-1.7832906522e+00
 1.2718168940e+00	 1.2201999992e+00	-1.8995030594e+00
 1.2462757018e+00	 1.2462757018e+00	-2.0123233521e+00
 1.4856670324e+00	 9.7129731226e-01	-7.4195423603e-01
 1.4654326574e+00	 1.0015648390e+00	-8.8757560883e-01
 1.4445412140e+00	 1.0314677315e+00	-1.0294375659e+00
 1.4230024990e+00	 1.0609848670e+00	-1.1675411263e+00
 1.4008272055e+00	 1.0900954730e+00	-1.3018991591e+00
 1.3780269080e+00	 1.1187791744e+00	-1.4325362482e+00
 1.3546140429e+00	 1.1470160394e+00	-1.5594884957e+00
 1.3306018879e+00	 1.1747866257e+00	-1.6828032625e+00
 1.3060045365e+00	 1.2020720239e+00	-1.8025388497e+00
 1.2808368720e+00	 1.2288538999e+00	-1.9187641219e+00
 1.2551145366e+00	 1.2551145366e+00	-2.0315580752e+00
 1.4961294763e+00	 9.7813743418e-01	-7.5843349894e-01
 1.4757526057e+00	 1.0086181125e+00	-9.0464092714e-01
 1.4547140395e+00	 1.0387315887e+00	-1.0470011269e+00
 1.4330236433e+00	 1.0684565914e+00	-1.1855203281e+00
 1.4106921858e+00	 1.0977722017e+00	-1.3202169090e+00
 1.3877313228e+00	 1.1266579009e+00	-1.4511212410e+00
 1.3641535784e+00	 1.1550936172e+00	-1.5782754679e+00
 1.3399723237e+00	 1.1830597710e+00	-1.7017332224e+00
 1.3152017516e+00	 1.2105373198e+00	-1.8215592813e+00
 1.2898568500e+00	 1.2375078006e+00	-1.9378291620e+00
 1.2639533714e+00	 1.2639533714e+00	-2.0506286619e+00
 1.5065919202e+00	 9.8497755610e-01	-7.7445307437e-01
 1.4860725540e+00	 1.0156713861e+00	-9.2127446037e-01
 1.4648868649e+00	 1.0459954460e+00	-1.0641613921e+00
 1.4430447877e+00	 1.0759283158e+00	-1.2031252589e+00
 1.4205571662e+00	 1.1054489304e+00	-1.3381898960e+00
 1.3974357376e+00	 1.1345366275e+00	-1.4693914078e+00
 1.3736931140e+00	 1.1631711949e+00	-1.5967779240e+00
 1.3493427595e+00	 1.1913329162e+00	-1.7204092920e+00
 1.3243989666e+00	 1.2190026157e+00	-1.8403567067e+00
 1.2988768279e+00	 1.2461617013e+00	-1.9567022791e+00
 1.2727922061e+00	 1.2727922061e+00	-2.0695385485e+00
 1.5170543641e+00	 9.9181767802e-01	-7.9002247828e-01
 1.4963925022e+00	 1.0227246596e+00	-9.3748514843e-01
 1.4750596904e+00	 1.0532593033e+00	-1.0809267130e+00
 1.4530659320e+00	 1.0834000402e+00	-1.2203636710e+00
 1.4304221465e+00	 1.1131256591e+00	-1.3558252631e+00
 1.4071401525e+00	 1.1424153541e+00	-1.4873532732e+00
 1.3832326495e+00	 1.1712487727e+00	-1.6150017626e+00
 1.3587131954e+00	 1.1996060615e+00	-1.7388367376e+00
 1.3335961817e+00	 1.2274679117e+00	-1.8589357541e+00
 1.3078968059e+00	 1.2548156020e+00	-1.9753874594e+00
 1.2816310409e+00	 1.2816310409e+00	-2.0882910763e+00
 1.5275168080e+00	 9.9865779994e-01	-8.0515096590e-01
 1.5067124505e+00	 1.0297779331e+00	-9.5328168629e-01
 1.4852325158e+00	 1.0605231605e+00	-1.0973052125e+00
 1.4630870764e+00	 1.0908717647e+00	-1.2372431045e+00
 1.4402871268e+00	 1.1208023878e+00	-1.3731299576e+00
 1.4168445673e+00	 1.1502940807e+00	-1.5050131832e+00
 1.3927721850e+00	 1.1793263504e+00	-1.6329527207e+00
 1.3680836312e+00	 1.2078792067e+00	-1.7570206809e+00
 1.3427933967e+00	 1.2359332076e+00	-1.8773009249e+00
 1.3169167839e+00	 1.2634695027e+00	-1.9938885798e+00
 1.2904698757e+00	 1.2904698757e+00	-2.1068894950e+00
 1.5379792519e+00	 1.0054979219e+00	-8.1984754063e-01
 1.5170323988e+00	 1.0368312066e+00	-9.6867253232e-01
 1.4954053413e+00	 1.0677870178e+00	-1.1133047924e+00
 1.4731082208e+00	 1.0983434891e+00	-1.2537708940e+00
 1.4501521071e+00	 1.1284791165e+00	-1.3901107374e+00
 1.4265489822e+00	 1.1581728073e+00	-1.5223773109e+00
 1.4023117205e+00	 1.1874039281e+00	-1.6506363792e+00
 1.3774540670e+00	 1.2161523520e+00	-1.7749661042e+00
 1.3519906118e+00	 1.2443985036e+00	-1.8954565978e+00
 1.3259367618e+00	 1.2721234034e+00	-2.0122094115e+00
 1.2993087104e+00	 1.2993087104e+00	-2.1253369655e+00
 1.5484416958e+00	 1.0123380438e+00	-8.3412096252e-01
 1.5273523471e+00	 1.0438844801e+00	-9.8366591624e-01
 1.5055781667e+00	 1.0750508751e+00	-1.1289331410e+00
 1.4831293651e+00	 1.1058152135e+00	-1.2699541759e+00
 1.4600170874e+00	 1.1361558451e+00	-1.4067741781e+00
 1.4362533970e+00	 1.1660515338e+00	-1.5394516624e+00
 1.4118512560e+00	 1.1954815059e+00	-1.6680581680e+00
 1.3868245028e+00	 1.2244254973e+00	-1.7926778551e+00
 1.3611878268e+00	 1.2528637995e+00	-1.9134070330e+00
 1.3349567398e+00	 1.2807773042e+00	-2.0303536236e+00
 1.3081475452e+00	 1.3081475452e+00	-2.1436365632e+00
 1.5589041397e+00	 1.0191781657e+00	-8.4797975645e-01
 1.5376722954e+00	 1.0509377536e+00	-9.9826984685e-01
 1.5157509922e+00	 1.0823147323e+00	-1.1441977399e+00
 1.4931505095e+00	 1.1132869379e+00	-1.2857998951e+00
 1.4698820678e+00	 1.1438325738e+00	-1.4231266785e+00
 1.4459578119e+00	 1.1739302604e+00	-1.5562420828e+00
 1.4213907915e+00	 1.2035590836e+00	-1.6852233711e+00
 1.3961949387e+00	 1.2326986425e+00	-1.8101606508e+00
 1.3703850419e+00	 1.2613290955e+00	-1.9311563763e+00
 1.3439767178e+00	 1.2894312049e+00	-2.0483247869e+00
 1.3169863800e+00	 1.3169863800e+00	-2.1617912810e+00
 1.5693665835e+00	 1.0260182876e+00	-8.6143221997e-01
 1.5479922437e+00	 1.0579910271e+00	-1.0124921194e+00
 1.5259238176e+00	 1.0895785896e+00	-1.1591058715e+00
 1.5031716538e+00	 1.1207586623e+00	-1.3013148110e+00
 1.4797470481e+00	 1.1515093025e+00	-1.4391744668e+00
 1.4556622267e+00	 1.1818089870e+00	-1.5727542609e+00
 1.4309303270e+00	 1.2116366614e+00	-1.7021371315e+00
 1.4055653745e+00	 1.2409717878e+00	-1.8274190827e+00
 1.3795822569e+00	 1.2697943914e+00	-1.9487086628e+00
 1.3529966958e+00	 1.2980851056e+00	-2.0661263763e+00
 1.3258252147e+00	 1.3258252147e+00	-2.1798040316e+00
 1.2374368671e+00	 1.2374368671e+00	-1.9929209582e+00
 1.2115460985e+00	 1.2627969160e+00	-2.0878803724e+00
 1.1851414320e+00	 1.2876101064e+00	-2.1749821080e+00
 1.1582403352e+00	 1.3118610162e+00	-2.2544547873e+00
 1.1308608839e+00	 1.3355349719e+00	-2.3265506278e+00
 1.1030217212e+00	 1.3586180783e+00	-2.3915441769e+00
 1.0747420157e+00	 1.3810972449e+00	-2.4497309399e+00
 1.0460414182e+00	 1.4029602102e+00	-2.5014259103e+00
 1.0169400170e+00	 1.4241955631e+00	-2.5469620140e+00
 9.8745829200e-01	 1.4447927608e+00	-2.5866884785e+00
 9.5761706843e-01	 1.4647421446e+00	-2.6209691380e+00
 1.2462757018e+00	 1.2462757018e+00	-2.0123233521e+00
 1.2201999992e+00	 1.2718168940e+00	-2.1077547187e+00
 1.1936067279e+00	 1.2968073215e+00	-2.1952727591e+00
 1.1665134805e+00	 1.3212314520e+00	-2.2751141734e+00
 1.1389384617e+00	 1.3450745074e+00	-2.3475394735e+00
 1.1109004478e+00	 1.3683224931e+00	-2.4128316815e+00
 1.0824187444e+00	 1.3909622252e+00	-2.4712949198e+00
 1.0535131426e+00	 1.4129813546e+00	-2.5232529030e+00
 1.0242038742e+00	 1.4343683886e+00	-2.5690473437e+00
 9.9451156551e-01	 1.4551127091e+00	-2.6090362823e+00
 9.6445719035e-01	 1.4752045885e+00	-2.6435923547e+00
 1.2551145366e+00	 1.2551145366e+00	-2.0315580752e+00
 1.2288538999e+00	 1.2808368720e+00	-2.1274954666e+00
 1.2020720239e+00	 1.3060045365e+00	-2.2154643413e+00
 1.1747866257e+00	 1.3306018879e+00	-2.2957094098e+00
 1.1470160394e+00	 1.3546140429e+00	-2.3684994113e+00
 1.1187791744e+00	 1.3780269080e+00	-2.4341257742e+00
 1.0900954730e+00	 1.4008272055e+00	-2.4929011694e+00
 1.0609848670e+00	 1.4230024990e+00	-2.5451579639e+00
 1.0314677315e+00	 1.4445412140e+00	-2.5912465880e+00
 1.0015648390e+00	 1.4654326574e+00	-2.6315338273e+00
 9.7129731226e-01	 1.4856670324e+00	-2.6664010513e+00
 1.2639533714e+00	 1.2639533714e+00	-2.0506286619e+00
 1.2375078006e+00	 1.2898568500e+00	-2.1471054372e+00
 1.2105373198e+00	 1.3152017516e+00	-2.2355589521e+00
 1.1830597710e+00	 1.3399723237e+00	-2.3162418630e+00
 1.1550936172e+00	 1.3641535784e+00	-2.3894310694e+00
 1.1266579009e+00	 1.3877313228e+00	-2.4554263398e+00
 1.0977722017e+00	 1.4106921858e+00	-2.5145488261e+00
 1.0684565914e+00	 1.4330236433e+00	-2.5671394806e+00
 1.0387315887e+00	 1.4547140395e+00	-2.6135573842e+00
 1.0086181125e+00	 1.4757526057e+00	-2.6541780005e+00
 9.7813743418e-01	 1.4961294763e+00	-2.6893913664e+00
 1.2727922061e+00	 1.2727922061e+00	-2.0695385485e+00
 1.2461617013e+00	 1.2988768279e+00	-2.1665873728e+00
 1.2190026157e+00	 1.3243989666e+00	-2.2555586309e+00
 1.1913329162e+00	 1.3493427595e+00	-2.3367128608e+00
 1.1631711949e+00	 1.3736931140e+00	-2.4103350583e+00
 1.1345366275e+00	 1.3974357376e+00	-2.4767332658e+00
 1.1054489304e+00	 1.4205571662e+00	-2.5362370511e+00
 1.0759283158e+00	 1.4430447877e+00	-2.5891958853e+00
 1.0459954460e+00	 1.4648868649e+00	-2.6359774344e+00
 1.0156713861e+00	 1.4860725540e+00	-2.6769657746e+00
 9.8497755610e-01	 1.5065919202e+00	-2.7125595454e+00
 1.2816310409e+00	 1.2816310409e+00	-2.0882910763e+00
 1.2548156020e+00	 1.3078968059e+00	-2.1859439399e+00
 1.2274679117e+00	 1.3335961817e+00	-2.2754653604e+00
 1.1996060615e+00	 1.3587131954e+00	-2.3571236948e+00
 1.1712487727e+00	 1.3832326495e+00	-2.4312119713e+00
 1.1424153541e+00	 1.4071401525e+00	-2.4980464429e+00
 1.1131256591e+00	 1.4304221465e+00	-2.5579650281e+00
 1.0834000402e+00	 1.4530659320e+00	-2.6113256531e+00
 1.0532593033e+00	 1.4750596904e+00	-2.6585045042e+00
 1.0227246596e+00	 1.4963925022e+00	-2.6998942060e+00
 9.9181767802e-01	 1.5170543641e+00	-2.7359019369e+00
 1.2904698757e+00	 1.2904698757e+00	-2.1068894950e+00
 1.2634695027e+00	 1.3169167839e+00	-2.2051777318e+00
 1.2359332076e+00	 1.3427933967e+00	-2.2952810688e+00
 1.2078792067e+00	 1.3680836312e+00	-2.3774756204e+00
 1.1793263504e+00	 1.3927721850e+00	-2.4520623854e+00
 1.1502940807e+00	 1.4168445673e+00	-2.5193657641e+00
 1.1208023878e+00	 1.4402871268e+00	-2.5797319635e+00
 1.0908717647e+00	 1.4630870764e+00	-2.6335273009e+00
 1.0605231605e+00	 1.4852325158e+00	-2.6811364201e+00
 1.0297779331e+00	 1.5067124505e+00	-2.7229604313e+00
 9.9865779994e-01	 1.5275168080e+00	-2.7594149896e+00
 1.2993087104e+00	 1.2993087104e+00	-2.1253369655e+00
 1.2721234034e+00	 1.3259367618e+00	-2.2242912712e+00
 1.2443985036e+00	 1.3519906118e+00	-2.3150076317e+00
 1.2161523520e+00	 1.3774540670e+00	-2.3977698590e+00
 1.1874039281e+00	 1.4023117205e+00	-2.4728868615e+00
 1.1581728073e+00	 1.4265489822e+00	-2.5406911257e+00
 1.1284791165e+00	 1.4501521071e+00	-2.6015370846e+00
 1.0983434891e+00	 1.4731082208e+00	-2.6557993854e+00
 1.0677870178e+00	 1.4954053413e+00	-2.7038710672e+00
 1.0368312066e+00	 1.5170323988e+00	-2.7461616646e+00
 1.0054979219e+00	 1.5379792519e+00	-2.7830952484e+00
 1.3081475452e+00	 1.3081475452e+00	-2.1436365632e+00
 1.2807773042e+00	 1.3349567398e+00	-2.2432870123e+00
 1.2528637995e+00	 1.3611878268e+00	-2.3346468740e+00
 1.2244254973e+00	 1.3868245028e+00	-2.4180075989e+00
 1.1954815059e+00	 1.4118512560e+00	-2.4936859454e+00
 1.1660515338e+00	 1.4362533970e+00	-2.5620224260e+00
 1.1361558451e+00	 1.4600170874e+00	-2.6233796396e+00
 1.1058152135e+00	 1.4831293651e+00	-2.6781405022e+00
 1.0750508751e+00	 1.5055781667e+00	-2.7267063880e+00
 1.0438844801e+00	 1.5273523471e+00	-2.7694951954e+00
 1.0123380438e+00	 1.5484416958e+00	-2.8069393511e+00
 1.3169863800e+00	 1.3169863800e+00	-2.1617912810e+00
 1.2894312049e+00	 1.3439767178e+00	-2.2621673434e+00
 1.2613290955e+00	 1.3703850419e+00	-2.3542005710e+00
 1.2326986425e+00	 1.3961949387e+00	-2.4381899959e+00
 1.2035590836e+00	 1.4213907915e+00	-2.5144601678e+00
 1.1739302604e+00	 1.4459578119e+00	-2.5833595662e+00
 1.1438325738e+00	 1.4698820678e+00	-2.6452588966e+00
 1.1132869379e+00	 1.4931505095e+00	-2.7005492844e+00
 1.0823147323e+00	 1.5157509922e+00	-2.7496403795e+00
 1.0509377536e+00	 1.5376722954e+00	-2.7929583853e+00
 1.0191781657e+00	 1.5589041397e+00	-2.8309440258e+00
 1.3258252147e+00	 1.3258252147e+00	-2.1798040316e+00
 1.2980851056e+00	 1.3529966958e+00	-2.2809345886e+00
 1.2697943914e+00	 1.3795822569e+00	-2.3736704510e+00
 1.2409717878e+00	 1.4055653745e+00	-2.4583181751e+00
 1.2116366614e+00	 1.4309303270e+00	-2.5352100451e+00
 1.1818089870e+00	 1.4556622267e+00	-2.6047024498e+00
 1.1515093025e+00	 1.4797470481e+00	-2.6671741429e+00
 1.1207586623e+00	 1.5031716538e+00	-2.7230244013e+00
 1.0895785896e+00	 1.5259238176e+00	-2.7726710923e+00
 1.0579910271e+00	 1.5479922437e+00	-2.8165486663e+00
 1.0260182876e+00	 1.5693665835e+00	-2.8551060875e+00
 9.5761706843e-01	 1.4647421446e+00	-2.6209691380e+00
 9.2743746932e-01	 1.4840349526e+00	-2.6520141807e+00
 8.9694086809e-01	 1.5026633286e+00	-2.6753668377e+00
 8.6614884071e-01	 1.5206203293e+00	-2.6914289692e+00
 8.3508311796e-01	 1.5378999272e+00	-2.7006201808e+00
 8.0376553786e-01	 1.5544970120e+00	-2.7033757694e+00
 7.7221799858e-01	 1.5704073875e+00	-2.7001446324e+00
 7.4046241201e-01	 1.5856277673e+00	-2.6913871550e+00
 7.0852065810e-01	 1.6001557665e+00	-2.6775730892e+00
 6.7641454023e-01	 1.6139898915e+00	-2.6591794398e+00
 6.4416574175e-01	 1.6271295269e+00	-2.6366883687e+00
 9.6445719035e-01	 1.4752045885e+00	-2.6435923547e+00
 9.3406202267e-01	 1.4946352023e+00	-2.6747735612e+00
 9.0334758858e-01	 1.5133966381e+00	-2.6982742908e+00
 8.7233561815e-01	 1.5314819031e+00	-2.7145078408e+00
 8.4104799738e-01	 1.5488849267e+00	-2.7239051623e+00
 8.0950672027e-01	 1.5656005621e+00	-2.7269127587e+00
 7.7773384143e-01	 1.5816245831e+00	-2.7239905487e+00
 7.4575142924e-01	 1.5969536799e+00	-2.7156097095e+00
 7.1358151994e-01	 1.6115854506e+00	-2.7022505137e+00
 6.8124607266e-01	 1.6255183907e+00	-2.6844001749e+00
 6.4876692562e-01	 1.6387518806e+00	-2.6625507151e+00
 9.7129731226e-01	 1.4856670324e+00	-2.6664010513e+00
 9.4068657602e-01	 1.5052354519e+00	-2.6977693986e+00
 9.0975430906e-01	 1.5241299476e+00	-2.7214691980e+00
 8.7852239559e-01	 1.5423434768e+00	-2.7379250881e+00
 8.4701287680e-01	 1.5598699262e+00	-2.7475792713e+00
 8.1524790269e-01	 1.5767041122e+00	-2.7508893644e+00
 7.8324968428e-01	 1.5928417788e+00	-2.7483262167e+00
 7.5104044647e-01	 1.6082795926e+00	-2.7403717086e+00
 7.1864238179e-01	 1.6230151346e+00	-2.7275165469e+00
 6.8607760509e-01	 1.6370468900e+00	-2.7102580707e+00
 6.5336810950e-01	 1.6503742344e+00	-2.6890980816e+00
 9.7813743418e-01	 1.4961294763e+00	-2.6893913664e+00
 9.4731112938e-01	 1.5158357016e+00	-2.7209967634e+00
 9.1616102955e-01	 1.5348632571e+00	-2.7449455615e+00
 8.8470917302e-01	 1.5532050506e+00	-2.7616736467e+00
 8.5297775622e-01	 1.5708549257e+00	-2.7716343801e+00
 8.2098908511e-01	 1.5878076622e+00	-2.7752964015e+00
 7.8876552713e-01	 1.6040589744e+00	-2.7731414014e+00
 7.5632946371e-01	 1.6196055052e+00	-2.7656618767e+00
 7.2370324364e-01	 1.6344448187e+00	-2.7533588840e+00
 6.9090913753e-01	 1.6485753892e+00	-2.7367398060e+00
 6.5796929337e-01	 1.6619965882e+00	-2.7163161445e+00
 9.8497755610e-01	 1.5065919202e+00	-2.7125595454e+00
 9.5393568273e-01	 1.5264359513e+00	-2.7444508628e+00
 9.2256775004e-01	 1.5455965666e+00	-2.7686975497e+00
 8.9089595046e-01	 1.5640666244e+00	-2.7857466481e+00
 8.5894263563e-01	 1.5818399252e+00	-2.7960625870e+00
 8.2673026752e-01	 1.5989112123e+00	-2.8001249400e+00
 7.9428136998e-01	 1.6152761700e+00	-2.7984261521e+00
 7.6161848094e-01	 1.6309314178e+00	-2.7914692514e+00
 7.2876410549e-01	 1.6458745027e+00	-2.7797655616e+00
 6.9574066996e-01	 1.6601038884e+00	-2.7638324289e+00
 6.6257047724e-01	 1.6736189419e+00	-2.7441909783e+00
 9.9181767802e-01	 1.5170543641e+00	-2.7359019369e+00
 9.6056023608e-01	 1.5370362009e+00	-2.7681270359e+00
 9.2897447053e-01	 1.5563298761e+00	-2.7927194920e+00
 8.9708272789e-01	 1.5749281982e+00	-2.8101374130e+00
 8.6490751505e-01	 1.5928249246e+00	-2.8208562076e+00
 8.3247144994e-01	 1.6100147624e+00	-2.8253662960e+00
 7.9979721283e-01	 1.6264933656e+00	-2.8241707921e+00
 7.6690749817e-01	 1.6422573304e+00	-2.8177831722e+00
 7.3382496733e-01	 1.6573041868e+00	-2.8067249460e+00
 7.0057220239e-01	 1.6716323876e+00	-2.7915233447e+00
 6.6717166111e-01	 1.6852412957e+00	-2.7727090407e+00
 9.9865779994e-01	 1.5275168080e+00	-2.7594149896e+00
 9.6718478944e-01	 1.5476364506e+00	-2.7920207492e+00
 9.3538119102e-01	 1.5670631856e+00	-2.8170058724e+00
 9.0326950533e-01	 1.5857897720e+00	-2.8348394448e+00
 8.7087239446e-01	 1.6038099241e+00	-2.8460077678e+00
 8.3821263235e-01	 1.6211183125e+00	-2.8510120229e+00
 8.0531305568e-01	 1.6377105613e+00	-2.8503659096e+00
 7.7219651540e-01	 1.6535832431e+00	-2.8445932705e+00
 7.3888582918e-01	 1.6687338708e+00	-2.8342257220e+00
 7.0540373482e-01	 1.6831608869e+00	-2.8198003034e+00
 6.7177284498e-01	 1.6968636495e+00	-2.8018571607e+00
 1.0054979219e+00	 1.5379792519e+00	-2.7830952484e+00
 9.7380934279e-01	 1.5582367002e+00	-2.8161275924e+00
 9.4178791150e-01	 1.5777964951e+00	-2.8415513250e+00
 9.0945628276e-01	 1.5966513457e+00	-2.8598464234e+00
 8.7683727388e-01	 1.6147949236e+00	-2.8715099967e+00
 8.4395381477e-01	 1.6322218626e+00	-2.8770539041e+00
 8.1082889853e-01	 1.6489277569e+00	-2.8770023485e+00
 7.7748553263e-01	 1.6649091557e+00	-2.8718894593e+00
 7.4394669102e-01	 1.6801635549e+00	-2.8622568818e+00
 7.1023526726e-01	 1.6946893861e+00	-2.8486513881e+00
 6.7637402885e-01	 1.7084860032e+00	-2.8316225249e+00
 1.0123380438e+00	 1.5484416958e+00	-2.8069393511e+00
 9.8043389614e-01	 1.5688369499e+00	-2.8404432740e+00
 9.4819463199e-01	 1.5885298046e+00	-2.8663506285e+00
 9.1564306020e-01	 1.6075129195e+00	-2.8851521993e+00
 8.8280215329e-01	 1.6257799231e+00	-2.8973558195e+00
 8.4969499718e-01	 1.6433254127e+00	-2.9034839444e+00
 8.1634474137e-01	 1.6601449525e+00	-2.9040712002e+00
 7.8277454986e-01	 1.6762350683e+00	-2.8996619243e+00
 7.4900755286e-01	 1.6915932389e+00	-2.8908077151e+00
 7.1506679969e-01	 1.7062178853e+00	-2.8780650038e+00
 6.8097521272e-01	 1.7201083570e+00	-2.8619926664e+00
 1.0191781657e+00	 1.5589041397e+00	-2.8309440258e+00
 9.8705844950e-01	 1.5794371996e+00	-2.8649636175e+00
 9.5460135247e-01	 1.5992631140e+00	-2.8913987017e+00
 9.2182983763e-01	 1.6183744933e+00	-2.9107507876e+00
 8.8876703271e-01	 1.6367649225e+00	-2.9235383512e+00
 8.5543617959e-01	 1.6544289627e+00	-2.9302943632e+00
 8.2186058422e-01	 1.6713621481e+00	-2.9315637944e+00
 7.8806356708e-01	 1.6875609809e+00	-2.9279011141e+00
 7.5406841471e-01	 1.7030229229e+00	-2.9198677986e+00
 7.1989833212e-01	 1.7177463845e+00	-2.9080298661e+00
 6.8557639659e-01	 1.7317307107e+00	-2.8929554524e+00
 1.0260182876e+00	 1.5693665835e+00	-2.8551060875e+00
 9.9368300285e-01	 1.5900374492e+00	-2.8896845573e+00
 9.6100807296e-01	 1.6099964235e+00	-2.9166905983e+00
 9.2801661506e-01	 1.6292360671e+00	-2.9366363630e+00
 8.9473191212e-01	 1.6477499220e+00	-2.9500508899e+00
 8.6117736201e-01	 1.6655325128e+00	-2.9574775869e+00
 8.2737642706e-01	 1.6825793438e+00	-2.9594716923e+00
 7.9335258431e-01	 1.6988868935e+00	-2.9565977318e+00
 7.5912927655e-01	 1.7144526070e+00	-2.9494269868e+00
 7.2472986455e-01	 1.7292748837e+00	-2.9385349916e+00
 6.9017758046e-01	 1.7433530645e+00	-2.9244990734e+00
 6.4416574175e-01	 1.6271295269e+00	-2.6366883687e+00
 6.1179578386e-01	 1.6395749202e+00	-2.6331995583e+00
 5.7932598496e-01	 1.6513271642e+00	-2.6248515122e+00
 5.4677742156e-01	 1.6623881771e+00	-2.6119347813e+00
 5.1417089101e-01	 1.6727606807e+00	-2.5947482306e+00
 4.8152687600e-01	 1.6824481768e+00	-2.5735976146e+00
 4.4886551095e-01	 1.6914549220e+00	-2.5487941671e+00
 4.1620655053e-01	 1.6997859004e+00	-2.5206532134e+00
 3.8356934007e-01	 1.7074467961e+00	-2.4894928132e+00
 3.5097278823e-01	 1.7144439629e+00	-2.4556324408e+00
 3.1843534174e-01	 1.7207843947e+00	-2.4193917097e+00
 6.4876692562e-01	 1.6387518806e+00	-2.6625507151e+00
 6.1616575375e-01	 1.6512861696e+00	-2.6585068408e+00
 5.8346402771e-01	 1.6631223582e+00	-2.6497405794e+00
 5.5068297457e-01	 1.6742623784e+00	-2.6365442821e+00
 5.1784354024e-01	 1.6847089713e+00	-2.6192183082e+00
 4.8496635368e-01	 1.6944656638e+00	-2.5980695998e+00
 4.5207169318e-01	 1.7035367429e+00	-2.5734102734e+00
 4.1917945447e-01	 1.7119272283e+00	-2.5455562343e+00
 3.8630912108e-01	 1.7196428446e+00	-2.5148258234e+00
 3.5347973672e-01	 1.7266899912e+00	-2.4815385028e+00
 3.2070987989e-01	 1.7330757118e+00	-2.4460135856e+00
 6.5336810950e-01	 1.6503742344e+00	-2.6890980816e+00
 6.2053572364e-01	 1.6629974191e+00	-2.6845108008e+00
 5.8760207046e-01	 1.6749175523e+00	-2.6753370441e+00
 5.5458852759e-01	 1.6861365796e+00	-2.6618709564e+00
 5.2151618946e-01	 1.6966572619e+00	-2.6444143867e+00
 4.8840583137e-01	 1.7064831508e+00	-2.6232754632e+00
 4.5527787540e-01	 1.7156185637e+00	-2.5987671852e+00
 4.2215235840e-01	 1.7240685562e+00	-2.5712060408e+00
 3.8904890208e-01	 1.7318388932e+00	-2.5409106568e+00
 3.5598668521e-01	 1.7389360195e+00	-2.5082004896e+00
 3.2298441805e-01	 1.7453670289e+00	-2.4733945609e+00
 6.5796929337e-01	 1.6619965882e+00	-2.7163161445e+00
 6.2490569353e-01	 1.6747086685e+00	-2.7111968725e+00
 5.9174011322e-01	 1.6867127463e+00	-2.7016261179e+00
 5.5849408060e-01	 1.6980107809e+00	-2.6878998128e+00
 5.2518883868e-01	 1.7086055524e+00	-2.6703212920e+00
 4.9184530906e-01	 1.7185006378e+00	-2.6491998677e+00
 4.5848405762e-01	 1.7277003846e+00	-2.6248494226e+00
 4.2512526233e-01	 1.7362098840e+00	-2.5975870298e+00
 3.9178868308e-01	 1.7440349417e+00	-2.5677316069e+00
 3.5849363370e-01	 1.7511820478e+00	-2.5356026111e+00
 3.2525895620e-01	 1.7576583461e+00	-2.5015187816e+00
 6.6257047724e-01	 1.6736189419e+00	-2.7441909783e+00
 6.2927566342e-01	 1.6864199179e+00	-2.7385508944e+00
 5.9587815597e-01	 1.6985079403e+00	-2.7285934226e+00
 5.6239963361e-01	 1.7098849822e+00	-2.7146162760e+00
 5.2886148791e-01	 1.7205538430e+00	-2.6969242710e+00
 4.9528478674e-01	 1.7305181248e+00	-2.6758279019e+00
 4.6169023984e-01	 1.7397822055e+00	-2.6516419351e+00
 4.2809816627e-01	 1.7483512119e+00	-2.6246840313e+00
 3.9452846408e-01	 1.7562309902e+00	-2.5952734034e+00
 3.6100058218e-01	 1.7634280761e+00	-2.5637295159e+00
 3.2753349436e-01	 1.7699496632e+00	-2.5303708337e+00
 6.6717166111e-01	 1.6852412957e+00	-2.7727090407e+00
 6.3364563330e-01	 1.6981311674e+00	-2.7665590952e+00
 6.0001619872e-01	 1.7103031344e+00	-2.7562249766e+00
 5.6630518663e-01	 1.7217591834e+00	-2.7420061726e+00
 5.3253413713e-01	 1.7325021336e+00	-2.7242089773e+00
 4.9872426443e-01	 1.7425356117e+00	-2.7031450654e+00
 4.6489642207e-01	 1.7518640264e+00	-2.6791300872e+00
 4.3107107020e-01	 1.7604925398e+00	-2.6524822936e+00
 3.9726824508e-01	 1.7684270388e+00	-2.6235211969e+00
 3.6350753067e-01	 1.7756741044e+00	-2.5925662756e+00
 3.2980803251e-01	 1.7822409803e+00	-2.5599357285e+00
 6.7177284498e-01	 1.6968636495e+00	-2.8018571607e+00
 6.3801560319e-01	 1.7098424168e+00	-2.7952080809e+00
 6.0415424147e-01	 1.7220983284e+00	-2.7845071810e+00
 5.7021073964e-01	 1.7336333847e+00	-2.7700557172e+00
 5.3620678635e-01	 1.7444504242e+00	-2.7521614575e+00
 5.0216374212e-01	 1.7545530987e+00	-2.7311372549e+00
 4.6810260429e-01	 1.7639458472e+00	-2.7072996443e+00
 4.3404397413e-01	 1.7726338676e+00	-2.6809674688e+00
 4.0000802608e-01	 1.7806230873e+00	-2.6524605448e+00
 3.6601447916e-01	 1.7879201328e+00	-2.6220983708e+00
 3.3208257067e-01	 1.7945322974e+00	-2.5901988875e+00
 6.7637402885e-01	 1.7084860032e+00	-2.8316225249e+00
 6.4238557307e-01	 1.7215536662e+00	-2.8244848214e+00
 6.0829228422e-01	 1.7338935224e+00	-2.8134268066e+00
 5.7411629265e-01	 1.7455075860e+00	-2.7987514993e+00
 5.3987943557e-01	 1.7563987147e+00	-2.7807681374e+00
 5.0560321981e-01	 1.7665705857e+00	-2.7597907507e+00
 4.7130878651e-01	 1.7760276681e+00	-2.7361367587e+00
 4.3701687807e-01	 1.7847751955e+00	-2.7101255993e+00
 4.0274780708e-01	 1.7928191359e+00	-2.6820773971e+00
 3.6852142765e-01	 1.8001661611e+00	-2.6523116768e+00
 3.3435710882e-01	 1.8068236145e+00	-2.6211461289e+00
 6.8097521272e-01	 1.7201083570e+00	-2.8619926664e+00
 6.4675554296e-01	 1.7332649156e+00	-2.8543766386e+00
 6.1243032697e-01	 1.7456887164e+00	-2.8429709815e+00
 5.7802184566e-01	 1.7573817872e+00	-2.8280804705e+00
 5.4355208480e-01	 1.7683470053e+00	-2.8100158095e+00
 5.0904269749e-01	 1.7785880727e+00	-2.7890922034e+00
 4.7451496873e-01	 1.7881094890e+00	-2.7656279568e+00
 4.3998978200e-01	 1.7969165233e+00	-2.7399431045e+00
 4.0548758808e-01	 1.8050151844e+00	-2.7123580835e+00
 3.7102837614e-01	 1.8124121894e+00	-2.6831924505e+00
 3.3663164698e-01	 1.8191149316e+00	-2.6527636537e+00
 6.8557639659e-01	 1.7317307107e+00	-2.8929554524e+00
 6.5112551284e-01	 1.7449761651e+00	-2.8848711947e+00
 6.1656836972e-01	 1.7574839105e+00	-2.8731271792e+00
 5.8192739867e-01	 1.7692559885e+00	-2.8580299324e+00
 5.4722473402e-01	 1.7802952959e+00	-2.8398916205e+00
 5.1248217518e-01	 1.7906055596e+00	-2.8190286219e+00
 4.7772115095e-01	 1.8001913098e+00	-2.7957601264e+00
 4.4296268593e-01	 1.8090578512e+00	-2.7704067681e+00
 4.0822736909e-01	 1.8172112330e+00	-2.7432893002e+00
 3.7353532462e-01	 1.8246582177e+00	-2.7147273177e+00
 3.3890618513e-01	 1.8314062487e+00	-2.6850380336e+00
 6.9017758046e-01	 1.7433530645e+00	-2.9244990734e+00
 6.5549548273e-01	 1.7566874145e+00	-2.9159564802e+00
 6.2070641247e-01	 1.7692791045e+00	-2.9038832069e+00
 5.8583295169e-01	 1.7811301897e+00	-2.8885875251e+00
 5.5089738324e-01	 1.7922435865e+00	-2.8703830598e+00
 5.1592165286e-01	 1.8026230466e+00	-2.8495873614e+00
 4.8092733318e-01	 1.8122731307e+00	-2.8265205049e+00
 4.4593558987e-01	 1.8211991790e+00	-2.8015037261e+00
 4.1096715009e-01	 1.8294072815e+00	-2.7748580983e+00
 3.7604227311e-01	 1.8369042460e+00	-2.7469032604e+00
 3.4118072329e-01	 1.8436975658e+00	-2.7179561978e+00
 3.1843534174e-01	 1.7207843947e+00	-2.4193917097e+00
 2.8597496231e-01	 1.7264756937e+00	-2.4216105032e+00
 2.5360910580e-01	 1.7315260383e+00	-2.4212766752e+00
 2.2135470347e-01	 1.7359441510e+00	-2.4185811355e+00
 1.8922814545e-01	 1.7397392647e+00	-2.4137165500e+00
 1.5724526633e-01	 1.7429210901e+00	-2.4068765313e+00
 1.2542133288e-01	 1.7454997821e+00	-2.3982548619e+00
 9.3771033808e-02	 1.7474859064e+00	-2.3880447535e+00
 6.2308471550e-02	 1.7488904066e+00	-2.3764381442e+00
 3.1047155973e-02	 1.7497245709e+00	-2.3636250351e+00
 0.0000000000e+00	 1.7500000000e+00	-2.3497928697e+00
 3.2070987989e-01	 1.7330757118e+00	-2.4460135856e+00
 2.8801764061e-01	 1.7388076629e+00	-2.4482098812e+00
 2.5542059941e-01	 1.7438940815e+00	-2.4478526583e+00
 2.2293580850e-01	 1.7483437520e+00	-2.4451295862e+00
 1.9057977506e-01	 1.7521659737e+00	-2.4402304265e+00
 1.5836844680e-01	 1.7553705264e+00	-2.4333462166e+00
 1.2631719954e-01	 1.7579676377e+00	-2.4246684849e+00
 9.4440826906e-02	 1.7599679486e+00	-2.4143885007e+00
 6.2753532061e-02	 1.7613824810e+00	-2.4026965608e+00
 3.1268921373e-02	 1.7622226036e+00	-2.3897813152e+00
 0.0000000000e+00	 1.7625000000e+00	-2.3758291340e+00
 3.2298441805e-01	 1.7453670289e+00	-2.4733945609e+00
 2.9006031891e-01	 1.7511396322e+00	-2.4755381761e+00
 2.5723209303e-01	 1.7562621246e+00	-2.4751287145e+00
 2.2451691352e-01	 1.7607433531e+00	-2.4723506270e+00
 1.9193140467e-01	 1.7645926827e+00	-2.4673907897e+00
 1.5949162727e-01	 1.7678199628e+00	-2.4604376795e+00
 1.2721306620e-01	 1.7704354933e+00	-2.4516805825e+00
 9.5110620005e-02	 1.7724499908e+00	-2.4413088335e+00
 6.3198592571e-02	 1.7738745553e+00	-2.4295110927e+00
 3.1490686773e-02	 1.7747206362e+00	-2.4164746603e+00
 0.0000000000e+00	 1.7750000000e+00	-2.4023848316e+00
 3.2525895620e-01	 1.7576583461e+00	-2.5015187816e+00
 2.9210299722e-01	 1.7634716014e+00	-2.5035801697e+00
 2.5904358664e-01	 1.7686301677e+00	-2.5030902330e+00
 2.2609801855e-01	 1.7731429542e+00	-2.5002302264e+00
 1.9328303428e-01	 1.7770193918e+00	-2.4951841580e+00
 1.6061480775e-01	 1.7802693991e+00	-2.4881379595e+00
 1.2810893287e-01	 1.7829033488e+00	-2.4792786856e+00
 9.5780413103e-02	 1.7849320330e+00	-2.4687937443e+00
 6.3643653082e-02	 1.7863666296e+00	-2.4568701641e+00
 3.1712452172e-02	 1.7872186689e+00	-2.4436938969e+00
 0.0000000000e+00	 1.7875000000e+00	-2.4294491613e+00
 3.2753349436e-01	 1.7699496632e+00	-2.5303708337e+00
 2.9414567552e-01	 1.7758035707e+00	-2.5323210661e+00
 2.6085508025e-01	 1.7809982109e+00	-2.5317230089e+00
 2.2767912357e-01	 1.7855425553e+00	-2.5287547421e+00
 1.9463466389e-01	 1.7894461008e+00	-2.5235974243e+00
 1.6173798822e-01	 1.7927188355e+00	-2.5164344559e+00
 1.2900479953e-01	 1.7953712044e+00	-2.5074506711e+00
 9.6450206201e-02	 1.7974140752e+00	-2.4968315591e+00
 6.4088713593e-02	 1.7988587040e+00	-2.4847625209e+00
 3.1934217572e-02	 1.7997167015e+00	-2.4714281617e+00
 0.0000000000e+00	 1.8000000000e+00	-2.4570116217e+00
 3.2980803251e-01	 1.7822409803e+00	-2.5599357285e+00
 2.9618835382e-01	 1.7881355399e+00	-2.5617464774e+00
 2.6266657387e-01	 1.7933662540e+00	-2.5610132288e+00
 2.2926022860e-01	 1.7979421564e+00	-2.5579109086e+00
 1.9598629350e-01	 1.8018728098e+00	-2.5526178429e+00
 1.6286116869e-01	 1.8051682719e+00	-2.5453149155e+00
 1.2990066619e-01	 1.8078390600e+00	-2.5361847505e+00
 9.7119999299e-02	 1.8098961174e+00	-2.5254109258e+00
 6.4533774104e-02	 1.8113507783e+00	-2.5131772195e+00
 3.2155982972e-02	 1.8122147342e+00	-2.4996668911e+00
 0.0000000000e+00	 1.8125000000e+00	-2.4850620012e+00
 3.3208257067e-01	 1.7945322974e+00	-2.5901988875e+00
 2.9823103212e-01	 1.8004675092e+00	-2.5918424099e+00
 2.6447806748e-01	 1.8057342971e+00	-2.5909474577e+00
 2.3084133362e-01	 1.8103417574e+00	-2.5876858231e+00
 1.9733792311e-01	 1.8142995189e+00	-2.5822330174e+00
 1.6398434917e-01	 1.8176177082e+00	-2.5747674206e+00
 1.3079653285e-01	 1.8203069156e+00	-2.5654694580e+00
 9.7789792397e-02	 1.8223781596e+00	-2.5545208033e+00
 6.4978834614e-02	 1.8238428526e+00	-2.5421036159e+00
 3.2377748371e-02	 1.8247127668e+00	-2.5283998110e+00
 0.0000000000e+00	 1.8250000000e+00	-2.5135903682e+00
 3.3435710882e-01	 1.8068236145e+00	-2.6211461289e+00
 3.0027371042e-01	 1.8127994784e+00	-2.6225952503e+00
 2.6628956109e-01	 1.8181023403e+00	-2.6215126259e+00
 2.3242243864e-01	 1.8227413585e+00	-2.6180669343e+00
 1.9868955272e-01	 1.8267262279e+00	-2.6124308881e+00
 1.6510752964e-01	 1.8300671446e+00	-2.6047803780e+00
 1.3169239952e-01	 1.8327747712e+00	-2.5952936398e+00
 9.8459585495e-02	 1.8348602018e+00	-2.5841504508e+00
 6.5423895125e-02	 1.8363349270e+00	-2.5715313556e+00
 3.2599513771e-02	 1.8372107995e+00	-2.5576169267e+00
 0.0000000000e+00	 1.8375000000e+00	-2.5425870610e+00
 3.3663164698e-01	 1.8191149316e+00	-2.6527636537e+00
 3.0231638873e-01	 1.8251314476e+00	-2.6539917532e+00
 2.6810105470e-01	 1.8304703834e+00	-2.6526960169e+00
 2.3400354367e-01	 1.8351409596e+00	-2.6490420295e+00
 2.0004118233e-01	 1.8391529369e+00	-2.6431997217e+00
 1.6623071011e-01	 1.8425165809e+00	-2.6353425073e+00
 1.3258826618e-01	 1.8452426268e+00	-2.6256464436e+00
 9.9129378594e-02	 1.8473422440e+00	-2.6142894178e+00
 6.5868955636e-02	 1.8488270013e+00	-2.6014503643e+00
 3.2821279170e-02	 1.8497088321e+00	-2.5873085138e+00
 0.0000000000e+00	 1.8500000000e+00	-2.5720426792e+00
 3.3890618513e-01	 1.8314062487e+00	-2.6850380336e+00
 3.0435906703e-01	 1.8374634169e+00	-2.6860190286e+00
 2.6991254832e-01	 1.8428384265e+00	-2.6844852553e+00
 2.3558464869e-01	 1.8475405607e+00	-2.6805992240e+00
 2.0139281194e-01	 1.8515796460e+00	-2.6745280993e+00
 1.6735389059e-01	 1.8549660173e+00	-2.6664428312e+00
 1.3348413284e-01	 1.8577104824e+00	-2.6565173080e+00
 9.9799171692e-02	 1.8598242861e+00	-2.6449275342e+00
 6.6314016147e-02	 1.8613190756e+00	-2.6318508377e+00
 3.3043044570e-02	 1.8622068648e+00	-2.6174651087e+00
 0.0000000000e+00	 1.8625000000e+00	-2.6019480748e+00
 3.4118072329e-01	 1.8436975658e+00	-2.7179561978e+00
 3.0640174533e-01	 1.8497953861e+00	-2.7186645299e+00
 2.7172404193e-01	 1.8552064697e+00	-2.7168682958e+00
 2.3716575372e-01	 1.8599401617e+00	-2.7127269499e+00
 2.0274444155e-01	 1.8640063550e+00	-2.7064049066e+00
 1.6847707106e-01	 1.8674154537e+00	-2.6980706648e+00
 1.3437999951e-01	 1.8701783380e+00	-2.6878959536e+00
 1.0046896479e-01	 1.8723063283e+00	-2.6760549012e+00
 6.6759076657e-02	 1.8738111500e+00	-2.6627232330e+00
 3.3264809970e-02	 1.8747048974e+00	-2.6480775004e+00
 0.0000000000e+00	 1.8750000000e+00	-2.6322943436e+00
 1.8750000000e+00	 0.0000000000e+00	 2.1429229689e+00
 1.8747048974e+00	 3.3264809970e-02	 2.1617697127e+00
 1.8738111500e+00	 6.6759076657e-02	 2.1703400928e+00
 1.8723063283e+00	 1.0046896479e-01	 2.1683544347e+00
 1.8701783380e+00	 1.3437999951e-01	 2.1555551155e+00
 1.8674154537e+00	 1.6847707106e-01	 2.1317085518e+00
 1.8640063550e+00	 2.0274444155e-01	 2.0966071780e+00
 1.8599401617e+00	 2.3716575372e-01	 2.0500714034e+00
 1.8552064697e+00	 2.7172404193e-01	 1.9919515359e+00
 1.8497953861e+00	 3.0640174533e-01	 1.9221296569e+00
 1.8436975658e+00	 3.4118072329e-01	 1.8405214353e+00
 1.8875000000e+00	 0.0000000000e+00	 2.1186911221e+00
 1.8872029301e+00	 3.3486575369e-02	 2.1396919963e+00
 1.8863032243e+00	 6.7204137168e-02	 2.1501572748e+00
 1.8847883705e+00	 1.0113875789e-01	 2.1498064057e+00
 1.8826461935e+00	 1.3527586617e-01	 2.1383819692e+00
 1.8798648900e+00	 1.6960025153e-01	 2.1156517193e+00
 1.8764330640e+00	 2.0409607116e-01	 2.0814106140e+00
 1.8723397628e+00	 2.3874685874e-01	 2.0354828211e+00
 1.8675745128e+00	 2.7353553554e-01	 1.9777236868e+00
 1.8621273554e+00	 3.0844442363e-01	 1.9080216516e+00
 1.8559888829e+00	 3.4345526144e-01	 1.8263001002e+00
 1.9000000000e+00	 0.0000000000e+00	 2.0947224351e+00
 1.8997009627e+00	 3.3708340769e-02	 2.1179145234e+00
 1.8987952986e+00	 6.7649197680e-02	 2.1303160762e+00
 1.8972704127e+00	 1.0180855099e-01	 2.1316456938e+00
 1.8951140491e+00	 1.3617173283e-01	 2.1216461801e+00
 1.8923143264e+00	 1.7072343201e-01	 2.1000866385e+00
 1.8888597731e+00	 2.0544770077e-01	 2.0667645531e+00
 1.8847393639e+00	 2.4032796377e-01	 2.0215078432e+00
 1.8799425559e+00	 2.7534702916e-01	 1.9641768757e+00
 1.8744593246e+00	 3.1048710194e-01	 1.8946664223e+00
 1.8682802000e+00	 3.4572979960e-01	 1.8129075448e+00
 1.9125000000e+00	 0.0000000000e+00	 2.0710118054e+00
 1.9121989954e+00	 3.3930106169e-02	 2.0964314619e+00
 1.9112873730e+00	 6.8094258191e-02	 2.1108098509e+00
 1.9097524549e+00	 1.0247834409e-01	 2.1138647539e+00
 1.9075819047e+00	 1.3706759950e-01	 2.1053392192e+00
 1.9047637627e+00	 1.7184661248e-01	 2.0850037112e+00
 1.9012864821e+00	 2.0679933038e-01	 2.0526582427e+00
 1.8971389650e+00	 2.4190906879e-01	 2.0081344770e+00
 1.8923105990e+00	 2.7715852277e-01	 1.9512977850e+00
 1.8867912938e+00	 3.1252978024e-01	 1.8820492422e+00
 1.8805715171e+00	 3.4800433776e-01	 1.8003275498e+00
 1.9250000000e+00	 0.0000000000e+00	 2.0475542634e+00
 1.9246970280e+00	 3.4151871570e-02	 2.0752371309e+00
 1.9237794473e+00	 6.8539318703e-02	 2.0916321251e+00
 1.9222344971e+00	 1.0314813719e-01	 2.0964562369e+00
 1.9200497603e+00	 1.3796346616e-01	 2.0894527790e+00
 1.9172131991e+00	 1.7296979296e-01	 2.0703935884e+00
 1.9137131911e+00	 2.0815095999e-01	 2.0390812089e+00
 1.9095385661e+00	 2.4349017382e-01	 1.9953510410e+00
 1.9046786422e+00	 2.7897001638e-01	 1.9390734428e+00
 1.8991232631e+00	 3.1457245854e-01	 1.8701557668e+00
 1.8928628342e+00	 3.5027887591e-01	 1.7885443165e+00
 1.9375000000e+00	 0.0000000000e+00	 2.0243449674e+00
 1.9371950607e+00	 3.4373636970e-02	 2.0543259963e+00
 1.9362715216e+00	 6.8984379215e-02	 2.0727765922e+00
 1.9347165393e+00	 1.0381793029e-01	 2.0794129833e+00
 1.9325176159e+00	 1.3885933283e-01	 2.0739787664e+00
 1.9296626354e+00	 1.7409297343e-01	 2.0562471622e+00
 1.9261399002e+00	 2.0950258961e-01	 2.0260232482e+00
 1.9219381671e+00	 2.4507127885e-01	 1.9831461552e+00
 1.9170466853e+00	 2.8078151000e-01	 1.9274912120e+00
 1.9114552323e+00	 3.1661513685e-01	 1.8589720219e+00
 1.9051541513e+00	 3.5255341407e-01	 1.7775424541e+00
 1.9500000000e+00	 0.0000000000e+00	 2.0013792000e+00
 1.9496930933e+00	 3.4595402371e-02	 2.0336926658e+00
 1.9487635960e+00	 6.9429439728e-02	 2.0542371072e+00
 1.9471985815e+00	 1.0448772339e-01	 2.0627280170e+00
 1.9449854715e+00	 1.3975519949e-01	 2.0589092956e+00
 1.9421120718e+00	 1.7521615391e-01	 2.0425555585e+00
 1.9385666092e+00	 2.1085421922e-01	 2.0134744189e+00
 1.9343377682e+00	 2.4665238388e-01	 1.9715087314e+00
 1.9294147284e+00	 2.8259300362e-01	 1.9165387794e+00
 1.9237872016e+00	 3.1865781515e-01	 1.8484843912e+00
 1.9174454684e+00	 3.5482795223e-01	 1.7673069664e+00
 1.9625000000e+00	 0.0000000000e+00	 1.9786523640e+00
 1.9621911260e+00	 3.4817167771e-02	 2.0133318845e+00
 1.9612556703e+00	 6.9874500241e-02	 2.0360076818e+00
 1.9596806237e+00	 1.0515751649e-01	 2.0463945399e+00
 1.9574533271e+00	 1.4065106616e-01	 2.0442366819e+00
 1.9545615082e+00	 1.7633933439e-01	 2.0293101289e+00
 1.9509933182e+00	 2.1220584883e-01	 2.0014250322e+00
 1.9467373693e+00	 2.4823348890e-01	 1.9604279636e+00
 1.9417827716e+00	 2.8440449723e-01	 1.9062041454e+00
 1.9361191708e+00	 3.2070049346e-01	 1.8386796056e+00
 1.9297367855e+00	 3.5710249039e-01	 1.7578232391e+00
 1.9750000000e+00	 0.0000000000e+00	 1.9561599785e+00
 1.9746891586e+00	 3.5038933172e-02	 1.9932385305e+00
 1.9737477446e+00	 7.0319560754e-02	 2.0180824790e+00
 1.9721626658e+00	 1.0582730959e-01	 2.0304059258e+00
 1.9699211826e+00	 1.4154693283e-01	 2.0299534350e+00
 1.9670109445e+00	 1.7746251487e-01	 2.0165024440e+00
 1.9634200273e+00	 2.1355747845e-01	 1.9898656447e+00
 1.9591369704e+00	 2.4981459393e-01	 1.9498933194e+00
 1.9541508147e+00	 2.8621599085e-01	 1.8964756141e+00
 1.9484511400e+00	 3.2274317177e-01	 1.8295447316e+00
 1.9420281026e+00	 3.5937702855e-01	 1.7490770277e+00
 1.9875000000e+00	 0.0000000000e+00	 1.9338976754e+00
 1.9871871913e+00	 3.5260698574e-02	 1.9734076107e+00
 1.9862398189e+00	 7.0764621268e-02	 2.0004558088e+00
 1.9846447080e+00	 1.0649710269e-01	 2.0147557150e+00
 1.9823890382e+00	 1.4244279949e-01	 2.0160522529e+00
 1.9794603809e+00	 1.7858569534e-01	 2.0041242865e+00
 1.9758467363e+00	 2.1490910806e-01	 1.9787870505e+00
 1.9715365715e+00	 2.5139569896e-01	 1.9398945315e+00
 1.9665188578e+00	 2.8802748447e-01	 1.8873417837e+00
 1.9607831093e+00	 3.2478585007e-01	 1.8210671611e+00
 1.9543194197e+00	 3.6165156671e-01	 1.7410544461e+00
 2.0000000000e+00	 0.0000000000e+00	 1.9118611958e+00
 1.9996852239e+00	 3.5482463975e-02	 1.9538342569e+00
 1.9987318933e+00	 7.1209681781e-02	 1.9831221235e+00
 1.9971267502e+00	 1.0716689579e-01	 1.9994376096e+00
 1.9948568938e+00	 1.4333866616e-01	 2.0025260162e+00
 1.9919098172e+00	 1.7970887582e-01	 1.9921676444e+00
 1.9882734453e+00	 2.1626073768e-01	 1.9681802737e+00
 1.9839361725e+00	 2.5297680400e-01	 1.9304215888e+00
 1.9788869010e+00	 2.8983897809e-01	 1.8787915377e+00
 1.9731150785e+00	 3.2682852838e-01	 1.8132346009e+00
 1.9666107368e+00	 3.6392610487e-01	 1.7337419552e+00
 1.8436975658e+00	 3.4118072329e-01	 1.8405214353e+00
 1.8369042460e+00	 3.7604227311e-01	 1.7615883100e+00
 1.8294072815e+00	 4.1096715009e-01	 1.6746457953e+00
 1.8211991790e+00	 4.4593558987e-01	 1.5796423372e+00
 1.8122731307e+00	 4.8092733318e-01	 1.4765510677e+00
 1.8026230466e+00	 5.1592165286e-01	 1.3653708918e+00
 1.7922435865e+00	 5.5089738324e-01	 1.2461274923e+00
 1.7811301897e+00	 5.8583295169e-01	 1.1188742434e+00
 1.7692791045e+00	 6.2070641247e-01	 9.8369302230e-01
 1.7566874145e+00	 6.5549548273e-01	 8.4069491037e-01
 1.7433530645e+00	 6.9017758046e-01	 6.9002077328e-01
 1.8559888829e+00	 3.4345526144e-01	 1.8263001002e+00
 1.8491502743e+00	 3.7854922160e-01	 1.7464556855e+00
 1.8416033300e+00	 4.1370693109e-01	 1.6588012323e+00
 1.8333405069e+00	 4.4890849380e-01	 1.5632833027e+00
 1.8243549516e+00	 4.8413351540e-01	 1.4598725954e+00
 1.8146405336e+00	 5.1936113055e-01	 1.3485650262e+00
 1.8041918770e+00	 5.5457003246e-01	 1.2293827301e+00
 1.7930043910e+00	 5.8973850470e-01	 1.1023749733e+00
 1.7810742985e+00	 6.2484445522e-01	 9.6761896832e-01
 1.7683986639e+00	 6.5986545261e-01	 8.2522057851e-01
 1.7549754183e+00	 6.9477876433e-01	 6.7531490673e-01
 1.8682802000e+00	 3.4572979960e-01	 1.8129075448e+00
 1.8613963026e+00	 3.8105617009e-01	 1.7321184060e+00
 1.8537993786e+00	 4.1644671209e-01	 1.6437165163e+00
 1.8454818348e+00	 4.5188139773e-01	 1.5476465795e+00
 1.8364367724e+00	 4.8733969762e-01	 1.4438768912e+00
 1.8266580206e+00	 5.2280060824e-01	 1.3324004142e+00
 1.8161401676e+00	 5.5824268168e-01	 1.2132357769e+00
 1.8048785923e+00	 5.9364405771e-01	 1.0864281855e+00
 1.7928694925e+00	 6.2898249797e-01	 9.5205024011e-01
 1.7801099133e+00	 6.6423542250e-01	 8.1020264487e-01
 1.7665977720e+00	 6.9937994820e-01	 6.6101480383e-01
 1.8805715171e+00	 3.4800433776e-01	 1.8003275498e+00
 1.8736423309e+00	 3.8356311858e-01	 1.7185609050e+00
 1.8659954271e+00	 4.1918649309e-01	 1.6293767746e+00
 1.8576231626e+00	 4.5485430167e-01	 1.5327180284e+00
 1.8485185933e+00	 4.9054587984e-01	 1.4285505889e+00
 1.8386755075e+00	 5.2624008592e-01	 1.3168645012e+00
 1.8280884582e+00	 5.6191533091e-01	 1.1976749282e+00
 1.8167527935e+00	 5.9754961072e-01	 1.0710230620e+00
 1.8046646866e+00	 6.3312054072e-01	 9.3697694244e-01
 1.7918211628e+00	 6.6860539238e-01	 7.9563217167e-01
 1.7782201258e+00	 7.0398113207e-01	 6.4711251782e-01
 1.8928628342e+00	 3.5027887591e-01	 1.7885443165e+00
 1.8858883592e+00	 3.8607006707e-01	 1.7057680202e+00
 1.8781914757e+00	 4.2192627409e-01	 1.6157675206e+00
 1.8697644905e+00	 4.5782720560e-01	 1.5184838774e+00
 1.8606004142e+00	 4.9375206206e-01	 1.4138806696e+00
 1.8506929945e+00	 5.2967956361e-01	 1.3019450591e+00
 1.8400367488e+00	 5.6558798013e-01	 1.1826887833e+00
 1.8286269948e+00	 6.0145516373e-01	 1.0561490659e+00
 1.8164598806e+00	 6.3725858347e-01	 9.2238943697e-01
 1.8035324122e+00	 6.7297536226e-01	 7.8150045320e-01
 1.7898424795e+00	 7.0858231593e-01	 6.3360030823e-01
 1.9051541513e+00	 3.5255341407e-01	 1.7775424541e+00
 1.8981343875e+00	 3.8857701556e-01	 1.6937249805e+00
 1.8903875242e+00	 4.2466605510e-01	 1.6028746412e+00
 1.8819058183e+00	 4.6080010953e-01	 1.5049307097e+00
 1.8726822351e+00	 4.9695824429e-01	 1.3998544500e+00
 1.8627104815e+00	 5.3311904130e-01	 1.2876301750e+00
 1.8519850393e+00	 5.6926062935e-01	 1.1682662357e+00
 1.8405011961e+00	 6.0536071674e-01	 1.0417959318e+00
 1.8282550746e+00	 6.4139662622e-01	 9.0827833403e-01
 1.8152436616e+00	 6.7734533215e-01	 7.6779900828e-01
 1.8014648333e+00	 7.1318349980e-01	 6.2047063429e-01
 1.9174454684e+00	 3.5482795223e-01	 1.7673069664e+00
 1.9103804158e+00	 3.9108396405e-01	 1.6824173935e+00
 1.9025835728e+00	 4.2740583610e-01	 1.5906843853e+00
 1.8940471462e+00	 4.6377301347e-01	 1.4920454524e+00
 1.8847640559e+00	 5.0016442651e-01	 1.3864595721e+00
 1.8747279685e+00	 5.3655851898e-01	 1.2739082413e+00
 1.8639333299e+00	 5.7293327857e-01	 1.1543964634e+00
 1.8523753973e+00	 6.0926626975e-01	 1.0279536579e+00
 1.8400502687e+00	 6.4553466897e-01	 8.9463448459e-01
 1.8269549110e+00	 6.8171530203e-01	 7.5451957313e-01
 1.8130871871e+00	 7.1778468367e-01	 6.0771614844e-01
 1.9297367855e+00	 3.5710249039e-01	 1.7578232391e+00
 1.9226264441e+00	 3.9359091254e-01	 1.6718312332e+00
 1.9147796213e+00	 4.3014561710e-01	 1.5791833520e+00
 1.9061884741e+00	 4.6674591740e-01	 1.4798153658e+00
 1.8968458768e+00	 5.0337060873e-01	 1.3736839925e+00
 1.8867454554e+00	 5.3999799667e-01	 1.2607679462e+00
 1.8758816205e+00	 5.7660592779e-01	 1.1410689202e+00
 1.8642495986e+00	 6.1317182276e-01	 1.0146124966e+00
 1.8518454627e+00	 6.4967271171e-01	 8.8144897261e-01
 1.8386661605e+00	 6.8608527191e-01	 7.4165409440e-01
 1.8247095408e+00	 7.2238586753e-01	 5.9532969028e-01
 1.9420281026e+00	 3.5937702855e-01	 1.7490770277e+00
 1.9348724724e+00	 3.9609786103e-01	 1.6619528289e+00
 1.9269756698e+00	 4.3288539810e-01	 1.5683584797e+00
 1.9183298019e+00	 4.6971882134e-01	 1.4682280323e+00
 1.9089276977e+00	 5.0657679095e-01	 1.3615159727e+00
 1.8987629424e+00	 5.4343747436e-01	 1.2481982640e+00
 1.8878299111e+00	 5.8027857701e-01	 1.1282733266e+00
 1.8761237998e+00	 6.1707737577e-01	 1.0017629473e+00
 1.8636406567e+00	 6.5381075446e-01	 8.6871310768e-01
 1.8503774099e+00	 6.9045524179e-01	 7.2919472254e-01
 1.8363318946e+00	 7.2698705140e-01	 5.8330428055e-01
 1.9543194197e+00	 3.6165156671e-01	 1.7410544461e+00
 1.9471185007e+00	 3.9860480952e-01	 1.6527688534e+00
 1.9391717184e+00	 4.3562517911e-01	 1.5581970350e+00
 1.9304711298e+00	 4.7269172527e-01	 1.4572713467e+00
 1.9210095185e+00	 5.0978297318e-01	 1.3499440693e+00
 1.9107804294e+00	 5.4687695204e-01	 1.2361884463e+00
 1.8997782016e+00	 5.8395122623e-01	 1.1159996617e+00
 1.8879980011e+00	 6.2098292878e-01	 9.8939574826e-01
 1.8754358507e+00	 6.5794879721e-01	 8.5641841792e-01
 1.8620886593e+00	 6.9482521167e-01	 7.1713380537e-01
 1.8479542483e+00	 7.3158823526e-01	 5.7163311551e-01
 1.9666107368e+00	 3.6392610487e-01	 1.7337419552e+00
 1.9593645290e+00	 4.0111175801e-01	 1.6442663129e+00
 1.9513677669e+00	 4.3836496011e-01	 1.5486866030e+00
 1.9426124577e+00	 4.7566462921e-01	 1.4469335064e+00
 1.9330913394e+00	 5.1298915540e-01	 1.3389571250e+00
 1.9227979164e+00	 5.5031642973e-01	 1.2247280136e+00
 1.9117264922e+00	 5.8762387546e-01	 1.1042381552e+00
 1.8998722024e+00	 6.2488848179e-01	 9.7750186908e-01
 1.8872310448e+00	 6.6208683996e-01	 8.4455664316e-01
 1.8737999088e+00	 6.9919518155e-01	 7.0546388192e-01
 1.8595766021e+00	 7.3618941913e-01	 5.6030956142e-01
 1.7433530645e+00	 6.9017758046e-01	 6.9002077328e-01
 1.7292748837e+00	 7.2472986455e-01	 5.4371990263e-01
 1.7144526070e+00	 7.5912927655e-01	 3.9526743070e-01
 1.6988868935e+00	 7.9335258431e-01	 2.4471793704e-01
 1.6825793438e+00	 8.2737642706e-01	 9.2134580759e-02
 1.6655325128e+00	 8.6117736201e-01	-6.2410761111e-02
 1.6477499220e+00	 8.9473191212e-01	-2.1883739387e-01
 1.6292360671e+00	 9.2801661506e-01	-3.7705574608e-01
 1.6099964235e+00	 9.6100807296e-01	-5.3696735312e-01
 1.5900374492e+00	 9.9368300285e-01	-6.9846488502e-01
 1.5693665835e+00	 1.0260182876e+00	-8.6143221997e-01
 1.7549754183e+00	 6.9477876433e-01	 6.7531490673e-01
 1.7408033830e+00	 7.2956139697e-01	 5.2876320999e-01
 1.7258822910e+00	 7.6419013839e-01	 3.8010895639e-01
 1.7102128062e+00	 7.9864160154e-01	 2.2940654307e-01
 1.6937965394e+00	 8.3289226991e-01	 7.6718913200e-02
 1.6766360629e+00	 8.6691854442e-01	-7.7882303466e-02
 1.6587349215e+00	 9.0069679153e-01	-2.3431668851e-01
 1.6400976408e+00	 9.3420339250e-01	-3.9249497337e-01
 1.6207297330e+00	 9.6741479345e-01	-5.5231902052e-01
 1.6006376989e+00	 1.0003075562e+00	-7.1368184876e-01
 1.5798290274e+00	 1.0328584095e+00	-8.7646770427e-01
 1.7665977720e+00	 6.9937994820e-01	 6.6101480383e-01
 1.7523318822e+00	 7.3439292940e-01	 5.1420790103e-01
 1.7373119751e+00	 7.6925100023e-01	 3.6534747894e-01
 1.7215387188e+00	 8.0393061877e-01	 2.1448776005e-01
 1.7050137350e+00	 8.3840811275e-01	 6.1691479459e-02
 1.6877396130e+00	 8.7265972683e-01	-9.2969972367e-02
 1.6697199210e+00	 9.0666167094e-01	-2.4941644525e-01
 1.6509592146e+00	 9.4039016993e-01	-4.0755896545e-01
 1.6314630425e+00	 9.7382151393e-01	-5.6729971441e-01
 1.6112379485e+00	 1.0069321096e+00	-7.2853205161e-01
 1.5902914713e+00	 1.0396985314e+00	-8.9114058316e-01
 1.7782201258e+00	 7.0398113207e-01	 6.4711251782e-01
 1.7638603814e+00	 7.3922446183e-01	 5.0004611309e-01
 1.7487416591e+00	 7.7431186207e-01	 3.5097522003e-01
 1.7328646314e+00	 8.0921963599e-01	 1.9995389406e-01
 1.7162309306e+00	 8.4392395560e-01	 4.7044669943e-02
 1.6988431631e+00	 8.7840090924e-01	-1.0768129336e-01
 1.6807049204e+00	 9.1262655035e-01	-2.6414410602e-01
 1.6618207884e+00	 9.4657694736e-01	-4.2225508119e-01
 1.6421963520e+00	 9.8022823441e-01	-5.8191671133e-01
 1.6218381982e+00	 1.0135566629e+00	-7.4302268871e-01
 1.6007539152e+00	 1.0465386534e+00	-9.0545797143e-01
 1.7898424795e+00	 7.0858231593e-01	 6.3360030823e-01
 1.7753888806e+00	 7.4405599426e-01	 4.8627018769e-01
 1.7601713431e+00	 7.7937272391e-01	 3.3698460333e-01
 1.7441905440e+00	 8.1450865322e-01	 1.8579745099e-01
 1.7274481262e+00	 8.4943979844e-01	 3.2771072647e-02
 1.7099467131e+00	 8.8414209165e-01	-1.2202359657e-01
 1.6916899199e+00	 9.1859142976e-01	-2.7850691947e-01
 1.6726823622e+00	 9.5276372479e-01	-4.3659048833e-01
 1.6529296615e+00	 9.8663495490e-01	-5.9617709887e-01
 1.6324384478e+00	 1.0201812163e+00	-7.5716076831e-01
 1.6112163591e+00	 1.0533787753e+00	-9.1942679908e-01
 1.8014648333e+00	 7.1318349980e-01	 6.2047063429e-01
 1.7869173798e+00	 7.4888752668e-01	 4.7287266385e-01
 1.7716010272e+00	 7.8443358575e-01	 3.2336824793e-01
 1.7555164566e+00	 8.1979767044e-01	 1.7201113004e-01
 1.7386653219e+00	 8.5495564128e-01	 1.8863466778e-02
 1.7210502632e+00	 8.8988327406e-01	-1.3600402303e-01
 1.7026749194e+00	 9.2455630917e-01	-2.9251194726e-01
 1.6835439359e+00	 9.5895050222e-01	-4.5057216970e-01
 1.6636629710e+00	 9.9304167538e-01	-6.1008778169e-01
 1.6430386975e+00	 1.0268057696e+00	-7.7095311783e-01
 1.6216788030e+00	 1.0602188972e+00	-9.3305381725e-01
 1.8130871871e+00	 7.1778468367e-01	 6.0771614844e-01
 1.7984458791e+00	 7.5371905911e-01	 4.5984627187e-01
 1.7830307112e+00	 7.8949444759e-01	 3.1011896210e-01
 1.7668423693e+00	 8.2508668766e-01	 1.5858781752e-01
 1.7498825175e+00	 8.6047148412e-01	 5.3148166292e-03
 1.7321538133e+00	 8.9562445646e-01	-1.4962953071e-01
 1.7136599189e+00	 9.3052118858e-01	-3.0616607000e-01
 1.6944055097e+00	 9.6513727965e-01	-4.6420692909e-01
 1.6743962804e+00	 9.9944839586e-01	-6.2365548747e-01
 1.6536389472e+00	 1.0334303230e+00	-7.8440638962e-01
 1.6321412469e+00	 1.0670590191e+00	-9.4634560398e-01
 1.8247095408e+00	 7.2238586753e-01	 5.9532969028e-01
 1.8099743783e+00	 7.5855059154e-01	 4.4718392713e-01
 1.7944603953e+00	 7.9455530943e-01	 2.9722973725e-01
 1.7781682819e+00	 8.3037570489e-01	 1.4552058093e-01
 1.7610997131e+00	 8.6598732697e-01	-7.8817343144e-03
 1.7432573634e+00	 9.0136563887e-01	-1.6290690036e-01
 1.7246449183e+00	 9.3648606799e-01	-3.1947599306e-01
 1.7052670835e+00	 9.7132405707e-01	-4.7750139700e-01
 1.6851295899e+00	 1.0058551163e+00	-6.3688677248e-01
 1.6642391968e+00	 1.0400548763e+00	-7.9752706658e-01
 1.6426036908e+00	 1.0738991410e+00	-9.5930856971e-01
 1.8363318946e+00	 7.2698705140e-01	 5.8330428055e-01
 1.8215028775e+00	 7.6338212396e-01	 4.3487872432e-01
 1.8058900793e+00	 7.9961617127e-01	 2.8469374217e-01
 1.7894941945e+00	 8.3566472211e-01	 1.3280266320e-01
 1.7723169087e+00	 8.7150316981e-01	-2.0732869049e-02
 1.7543609135e+00	 9.0710682128e-01	-1.7584274111e-01
 1.7356299178e+00	 9.4245094740e-01	-3.3244825208e-01
 1.7161286573e+00	 9.7751083450e-01	-4.9046203608e-01
 1.6958628994e+00	 1.0122618368e+00	-6.4978802705e-01
 1.6748394465e+00	 1.0466794296e+00	-8.1032146745e-01
 1.6530661346e+00	 1.0807392629e+00	-9.7194896259e-01
 1.8479542483e+00	 7.3158823526e-01	 5.7163311551e-01
 1.8330313767e+00	 7.6821365638e-01	 4.2292393172e-01
 1.8173197634e+00	 8.0467703310e-01	 2.7250431740e-01
 1.8008201071e+00	 8.4095373933e-01	 1.2042747717e-01
 1.7835341043e+00	 8.7701901264e-01	-3.3245102507e-02
 1.7654644635e+00	 9.1284800368e-01	-1.8844349591e-01
 1.7466149173e+00	 9.4841582680e-01	-3.4508921834e-01
 1.7269902311e+00	 9.8369761193e-01	-5.0309514644e-01
 1.7065962089e+00	 1.0186685573e+00	-6.6236548074e-01
 1.6854396961e+00	 1.0533039830e+00	-8.2279575207e-01
 1.6635285785e+00	 1.0875793848e+00	-9.8427287358e-01
 1.8595766021e+00	 7.3618941913e-01	 5.6030956142e-01
 1.8445598760e+00	 7.7304518881e-01	 4.1131298587e-01
 1.8287494474e+00	 8.0973789494e-01	 2.6065496990e-01
 1.8121460197e+00	 8.4624275655e-01	 1.0838860031e-01
 1.7947513000e+00	 8.8253485548e-01	-4.5424786810e-02
 1.7765680136e+00	 9.1858918609e-01	-2.0071544665e-01
 1.7575999168e+00	 9.5438070621e-01	-3.5740510387e-01
 1.7378518048e+00	 9.8988438935e-01	-5.1540687074e-01
 1.7173295184e+00	 1.0250752778e+00	-6.7462520743e-01
 1.6960399458e+00	 1.0599285363e+00	-8.3495592625e-01
 1.6739910224e+00	 1.0944195068e+00	-9.9628624136e-01
 1.5693665835e+00	 1.0260182876e+00	-8.6143221997e-01
 1.5479922437e+00	 1.0579910271e+00	-1.0124921194e+00
 1.5259238176e+00	 1.0895785896e+00	-1.1591058715e+00
 1.5031716538e+00	 1.1207586623e+00	-1.3013148110e+00
 1.4797470481e+00	 1.1515093025e+00	-1.4391744668e+00
 1.4556622267e+00	 1.1818089870e+00	-1.5727542609e+00
 1.4309303270e+00	 1.2116366614e+00	-1.7021371315e+00
 1.4055653745e+00	 1.2409717878e+00	-1.8274190827e+00
 1.3795822569e+00	 1.2697943914e+00	-1.9487086628e+00
 1.3529966958e+00	 1.2980851056e+00	-2.0661263763e+00
 1.3258252147e+00	 1.3258252147e+00	-2.1798040316e+00
 1.5798290274e+00	 1.0328584095e+00	-8.7646770427e-01
 1.5583121920e+00	 1.0650443007e+00	-1.0282343812e+00
 1.5360966431e+00	 1.0968424469e+00	-1.1754653306e+00
 1.5131927982e+00	 1.1282303867e+00	-1.3182066086e+00
 1.4896120284e+00	 1.1591860312e+00	-1.4565187760e+00
 1.4653666416e+00	 1.1896877136e+00	-1.5904765784e+00
 1.4404698626e+00	 1.2197142391e+00	-1.7201685476e+00
 1.4149358103e+00	 1.2492449330e+00	-1.8456965284e+00
 1.3887794720e+00	 1.2782596873e+00	-1.9671751338e+00
 1.3620166737e+00	 1.3067390063e+00	-2.0847311306e+00
 1.3346640495e+00	 1.3346640495e+00	-2.1985027607e+00
 1.5902914713e+00	 1.0396985314e+00	-8.9114058316e-01
 1.5686321403e+00	 1.0720975742e+00	-1.0436369531e+00
 1.5462694685e+00	 1.1041063041e+00	-1.1915086027e+00
 1.5232139425e+00	 1.1357021112e+00	-1.3348062681e+00
 1.4994770087e+00	 1.1668627599e+00	-1.4735954995e+00
 1.4750710564e+00	 1.1975664402e+00	-1.6079563207e+00
 1.4500093981e+00	 1.2277918169e+00	-1.7379828111e+00
 1.4243062462e+00	 1.2575180783e+00	-1.8637826091e+00
 1.3979766870e+00	 1.2867249833e+00	-1.9854763435e+00
 1.3710366517e+00	 1.3153929070e+00	-2.1031969938e+00
 1.3435028843e+00	 1.3435028843e+00	-2.2170891855e+00
 1.6007539152e+00	 1.0465386534e+00	-9.0545797143e-01
 1.5789520886e+00	 1.0791508477e+00	-1.0587065015e+00
 1.5564422939e+00	 1.1113701614e+00	-1.2072418944e+00
 1.5332350869e+00	 1.1431738356e+00	-1.3511195259e+00
 1.5093419890e+00	 1.1745394886e+00	-1.4904098929e+00
 1.4847754712e+00	 1.2054451667e+00	-1.6251982540e+00
 1.4595489336e+00	 1.2358693946e+00	-1.7555841908e+00
 1.4336766820e+00	 1.2657912235e+00	-1.8816810887e+00
 1.4071739020e+00	 1.2951902792e+00	-2.0036155448e+00
 1.3800566297e+00	 1.3240468077e+00	-2.1215267028e+00
 1.3523417190e+00	 1.3523417190e+00	-2.2355655225e+00
 1.6112163591e+00	 1.0533787753e+00	-9.1942679908e-01
 1.5892720368e+00	 1.0862041212e+00	-1.0734495198e+00
 1.5666151194e+00	 1.1186340187e+00	-1.2226712513e+00
 1.5432562312e+00	 1.1506455600e+00	-1.3671519691e+00
 1.5192069693e+00	 1.1822162172e+00	-1.5069670754e+00
 1.4944798861e+00	 1.2133238933e+00	-1.6422070208e+00
 1.4690884691e+00	 1.2439469723e+00	-1.7729768444e+00
 1.4430471178e+00	 1.2740643688e+00	-1.8993956334e+00
 1.4163711171e+00	 1.3036555752e+00	-2.0215959062e+00
 1.3890766076e+00	 1.3327007084e+00	-2.1397229235e+00
 1.3611805538e+00	 1.3611805538e+00	-2.2539339305e+00
 1.6216788030e+00	 1.0602188972e+00	-9.3305381725e-01
 1.5995919851e+00	 1.0932573947e+00	-1.0878723337e+00
 1.5767879448e+00	 1.1258978759e+00	-1.2378025628e+00
 1.5532773756e+00	 1.1581172844e+00	-1.3829090407e+00
 1.5290719497e+00	 1.1898929459e+00	-1.5232720341e+00
 1.5041843009e+00	 1.2212026199e+00	-1.6589871435e+00
 1.4786280046e+00	 1.2520245501e+00	-1.7901648223e+00
 1.4524175536e+00	 1.2823375140e+00	-1.9169298145e+00
 1.4255683321e+00	 1.3121208711e+00	-2.0394205143e+00
 1.3980965856e+00	 1.3413546091e+00	-2.1577882523e+00
 1.3700193886e+00	 1.3700193886e+00	-2.2721965123e+00
 1.6321412469e+00	 1.0670590191e+00	-9.4634560398e-01
 1.6099119334e+00	 1.1003106682e+00	-1.1019811070e+00
 1.5869607703e+00	 1.1331617332e+00	-1.2526415674e+00
 1.5632985200e+00	 1.1655890088e+00	-1.3983960439e+00
 1.5389369300e+00	 1.1975696746e+00	-1.5393296280e+00
 1.5138887158e+00	 1.2290813465e+00	-1.6755430287e+00
 1.4881675401e+00	 1.2601021278e+00	-1.8071520710e+00
 1.4617879895e+00	 1.2906106593e+00	-1.9342871118e+00
 1.4347655472e+00	 1.3205861671e+00	-2.0570923764e+00
 1.4071165636e+00	 1.3500085098e+00	-2.1757252195e+00
 1.3788582233e+00	 1.3788582233e+00	-2.2903553168e+00
 1.6426036908e+00	 1.0738991410e+00	-9.5930856971e-01
 1.6202318817e+00	 1.1073639417e+00	-1.1157818460e+00
 1.5971335957e+00	 1.1404255904e+00	-1.2671938572e+00
 1.5733196643e+00	 1.1730607332e+00	-1.4136181469e+00
 1.5488019103e+00	 1.2052464033e+00	-1.5551445924e+00
 1.5235931306e+00	 1.2369600731e+00	-1.6918789706e+00
 1.4977070756e+00	 1.2681797056e+00	-1.8239424362e+00
 1.4711584253e+00	 1.2988838045e+00	-1.9514709164e+00
 1.4439627622e+00	 1.3290514630e+00	-2.0746144230e+00
 1.4161365416e+00	 1.3586624105e+00	-2.1935362905e+00
 1.3876970581e+00	 1.3876970581e+00	-2.3084123405e+00
 1.6530661346e+00	 1.0807392629e+00	-9.7194896259e-01
 1.6305518300e+00	 1.1144172153e+00	-1.1292804053e+00
 1.6073064212e+00	 1.1476894477e+00	-1.2814648829e+00
 1.5833408087e+00	 1.1805324577e+00	-1.4285803871e+00
 1.5586668906e+00	 1.2129231320e+00	-1.5707215426e+00
 1.5332975455e+00	 1.2448387997e+00	-1.7079991545e+00
 1.5072466112e+00	 1.2762572833e+00	-1.8405396664e+00
 1.4805288611e+00	 1.3071569498e+00	-1.9684845331e+00
 1.4531599773e+00	 1.3375167590e+00	-2.0919895105e+00
 1.4251565195e+00	 1.3673163112e+00	-2.2112238681e+00
 1.3965358929e+00	 1.3965358929e+00	-2.3263695292e+00
 1.6635285785e+00	 1.0875793848e+00	-9.8427287358e-01
 1.6408717783e+00	 1.1214704888e+00	-1.1424824920e+00
 1.6174792466e+00	 1.1549533050e+00	-1.2954599578e+00
 1.5933619530e+00	 1.1880041821e+00	-1.4432876749e+00
 1.5685318710e+00	 1.2205998607e+00	-1.5860649777e+00
 1.5430019603e+00	 1.2527175262e+00	-1.7239076604e+00
 1.5167861467e+00	 1.2843348611e+00	-1.8569474154e+00
 1.4898992970e+00	 1.3154300950e+00	-1.9853311839e+00
 1.4623571923e+00	 1.3459820549e+00	-2.1092204231e+00
 1.4341764975e+00	 1.3759702119e+00	-2.2287902946e+00
 1.4053747276e+00	 1.4053747276e+00	-2.3442287796e+00
 1.6739910224e+00	 1.0944195068e+00	-9.9628624136e-01
 1.6511917266e+00	 1.1285237623e+00	-1.1553936706e+00
 1.6276520721e+00	 1.1622171622e+00	-1.3091842626e+00
 1.6033830974e+00	 1.1954759065e+00	-1.4577447980e+00
 1.5783968513e+00	 1.2282765894e+00	-1.6011792842e+00
 1.5527063752e+00	 1.2605962528e+00	-1.7396084664e+00
 1.5263256822e+00	 1.2924124388e+00	-1.8731692459e+00
 1.4992697328e+00	 1.3237032403e+00	-2.0020140098e+00
 1.4715544074e+00	 1.3544473509e+00	-2.1263098753e+00
 1.4431964755e+00	 1.3846241126e+00	-2.2462378538e+00
 1.4142135624e+00	 1.4142135624e+00	-2.3619919410e+00
 1.3258252147e+00	 1.3258252147e+00	-2.1798040316e+00
 1.2980851056e+00	 1.3529966958e+00	-2.2809345886e+00
 1.2697943914e+00	 1.3795822569e+00	-2.3736704510e+00
 1.2409717878e+00	 1.4055653745e+00	-2.4583181751e+00
 1.2116366614e+00	 1.4309303270e+00	-2.5352100451e+00
 1.1818089870e+00	 1.4556622267e+00	-2.6047024498e+00
 1.1515093025e+00	 1.4797470481e+00	-2.6671741429e+00
 1.1207586623e+00	 1.5031716538e+00	-2.7230244013e+00
 1.0895785896e+00	 1.5259238176e+00	-2.7726710923e+00
 1.0579910271e+00	 1.5479922437e+00	-2.8165486663e+00
 1.0260182876e+00	 1.5693665835e+00	-2.8551060875e+00
 1.3346640495e+00	 1.3346640495e+00	-2.1985027607e+00
 1.3067390063e+00	 1.3620166737e+00	-2.3002740370e+00
 1.2782596873e+00	 1.3887794720e+00	-2.3936006630e+00
 1.2492449330e+00	 1.4149358103e+00	-2.4787987973e+00
 1.2197142391e+00	 1.4404698626e+00	-2.5562105231e+00
 1.1896877136e+00	 1.4653666416e+00	-2.6262021812e+00
 1.1591860312e+00	 1.4896120284e+00	-2.6891625865e+00
 1.1282303867e+00	 1.5131927982e+00	-2.7455011411e+00
 1.0968424469e+00	 1.5360966431e+00	-2.7956458575e+00
 1.0650443007e+00	 1.5583121920e+00	-2.8400413063e+00
 1.0328584095e+00	 1.5798290274e+00	-2.8791465033e+00
 1.3435028843e+00	 1.3435028843e+00	-2.2170891855e+00
 1.3153929070e+00	 1.3710366517e+00	-2.3195393587e+00
 1.2867249833e+00	 1.3979766870e+00	-2.4134953021e+00
 1.2575180783e+00	 1.4243062462e+00	-2.4992827021e+00
 1.2277918169e+00	 1.4500093981e+00	-2.5772533660e+00
 1.1975664402e+00	 1.4750710564e+00	-2.6477835113e+00
 1.1668627599e+00	 1.4994770087e+00	-2.7112719383e+00
 1.1357021112e+00	 1.5232139425e+00	-2.7681380993e+00
 1.1041063041e+00	 1.5462694685e+00	-2.8188200770e+00
 1.0720975742e+00	 1.5686321403e+00	-2.8637724882e+00
 1.0396985314e+00	 1.5902914713e+00	-2.9034643269e+00
 1.3523417190e+00	 1.3523417190e+00	-2.2355655225e+00
 1.3240468077e+00	 1.3800566297e+00	-2.3387320226e+00
 1.2951902792e+00	 1.4071739020e+00	-2.4333550821e+00
 1.2657912235e+00	 1.4336766820e+00	-2.5197698425e+00
 1.2358693946e+00	 1.4595489336e+00	-2.5983377614e+00
 1.2054451667e+00	 1.4847754712e+00	-2.6694448592e+00
 1.1745394886e+00	 1.5093419890e+00	-2.7334998479e+00
 1.1431738356e+00	 1.5332350869e+00	-2.7909321559e+00
 1.1113701614e+00	 1.5564422939e+00	-2.8421898626e+00
 1.0791508477e+00	 1.5789520886e+00	-2.8877375585e+00
 1.0465386534e+00	 1.6007539152e+00	-2.9280541442e+00
 1.3611805538e+00	 1.3611805538e+00	-2.2539339305e+00
 1.3327007084e+00	 1.3890766076e+00	-2.3578534591e+00
 1.3036555752e+00	 1.4163711171e+00	-2.4531806980e+00
 1.2740643688e+00	 1.4430471178e+00	-2.5402601723e+00
 1.2439469723e+00	 1.4690884691e+00	-2.6194629178e+00
 1.2133238933e+00	 1.4944798861e+00	-2.6911846852e+00
 1.1822162172e+00	 1.5192069693e+00	-2.7558440256e+00
 1.1506455600e+00	 1.5432562312e+00	-2.8138802714e+00
 1.1186340187e+00	 1.5666151194e+00	-2.8657514269e+00
 1.0862041212e+00	 1.5892720368e+00	-2.9119319845e+00
 1.0533787753e+00	 1.6112163591e+00	-2.9529106813e+00
 1.3700193886e+00	 1.3700193886e+00	-2.2721965123e+00
 1.3413546091e+00	 1.3980965856e+00	-2.3769050616e+00
 1.3121208711e+00	 1.4255683321e+00	-2.4729728269e+00
 1.2823375140e+00	 1.4524175536e+00	-2.5607536465e+00
 1.2520245501e+00	 1.4786280046e+00	-2.6406280638e+00
 1.2212026199e+00	 1.5041843009e+00	-2.7130014889e+00
 1.1898929459e+00	 1.5290719497e+00	-2.7783022408e+00
 1.1581172844e+00	 1.5532773756e+00	-2.8369794848e+00
 1.1258978759e+00	 1.5767879448e+00	-2.8895010797e+00
 1.0932573947e+00	 1.5995919851e+00	-2.9363513500e+00
 1.0602188972e+00	 1.6216788030e+00	-2.9780288001e+00
 1.3788582233e+00	 1.3788582233e+00	-2.2903553168e+00
 1.3500085098e+00	 1.4071165636e+00	-2.3958881878e+00
 1.3205861671e+00	 1.4347655472e+00	-2.4927321282e+00
 1.2906106593e+00	 1.4617879895e+00	-2.5812502209e+00
 1.2601021278e+00	 1.4881675401e+00	-2.6618324476e+00
 1.2290813465e+00	 1.5138887158e+00	-2.7348938081e+00
 1.1975696746e+00	 1.5389369300e+00	-2.8008723196e+00
 1.1655890088e+00	 1.5632985200e+00	-2.8602269108e+00
 1.1331617332e+00	 1.5869607703e+00	-2.9134352254e+00
 1.1003106682e+00	 1.6099119334e+00	-2.9609913518e+00
 1.0670590191e+00	 1.6321412469e+00	-3.0034034940e+00
 1.3876970581e+00	 1.3876970581e+00	-2.3084123405e+00
 1.3586624105e+00	 1.4161365416e+00	-2.4148041605e+00
 1.3290514630e+00	 1.4439627622e+00	-2.5124592444e+00
 1.2988838045e+00	 1.4711584253e+00	-2.6017498524e+00
 1.2681797056e+00	 1.4977070756e+00	-2.6830753365e+00
 1.2369600731e+00	 1.5235931306e+00	-2.7568602179e+00
 1.2052464033e+00	 1.5488019103e+00	-2.8235521436e+00
 1.1730607332e+00	 1.5733196643e+00	-2.8836197372e+00
 1.1404255904e+00	 1.5971335957e+00	-2.9375503598e+00
 1.1073639417e+00	 1.6202318817e+00	-2.9858477963e+00
 1.0738991410e+00	 1.6426036908e+00	-3.0290298838e+00
 1.3965358929e+00	 1.3965358929e+00	-2.3263695292e+00
 1.3673163112e+00	 1.4251565195e+00	-2.4336542687e+00
 1.3375167590e+00	 1.4531599773e+00	-2.5321548014e+00
 1.3071569498e+00	 1.4805288611e+00	-2.6222524987e+00
 1.2762572833e+00	 1.5072466112e+00	-2.7043560161e+00
 1.2448387997e+00	 1.5332975455e+00	-2.7788993292e+00
 1.2129231320e+00	 1.5586668906e+00	-2.8463396475e+00
 1.1805324577e+00	 1.5833408087e+00	-2.9071552229e+00
 1.1476894477e+00	 1.6073064212e+00	-2.9618430672e+00
 1.1144172153e+00	 1.6305518300e+00	-3.0109165956e+00
 1.0807392629e+00	 1.6530661346e+00	-3.0549032136e+00
 1.4053747276e+00	 1.4053747276e+00	-2.3442287796e+00
 1.3759702119e+00	 1.4341764975e+00	-2.4524397690e+00
 1.3459820549e+00	 1.4623571923e+00	-2.5518194095e+00
 1.3154300950e+00	 1.4898992970e+00	-2.6427581185e+00
 1.2843348611e+00	 1.5167861467e+00	-2.7256737897e+00
 1.2527175262e+00	 1.5430019603e+00	-2.8010097874e+00
 1.2205998607e+00	 1.5685318710e+00	-2.8692328179e+00
 1.1880041821e+00	 1.5933619530e+00	-2.9308306955e+00
 1.1549533050e+00	 1.6174792466e+00	-2.9863100173e+00
 1.1214704888e+00	 1.6408717783e+00	-3.0361937646e+00
 1.0875793848e+00	 1.6635285785e+00	-3.0810188467e+00
 1.4142135624e+00	 1.4142135624e+00	-2.3619919410e+00
 1.3846241126e+00	 1.4431964755e+00	-2.4711618865e+00
 1.3544473509e+00	 1.4715544074e+00	-2.5714536633e+00
 1.3237032403e+00	 1.4992697328e+00	-2.6632666712e+00
 1.2924124388e+00	 1.5263256822e+00	-2.7470279780e+00
 1.2605962528e+00	 1.5527063752e+00	-2.8231902719e+00
 1.2282765894e+00	 1.5783968513e+00	-2.8922296916e+00
 1.1954759065e+00	 1.6033830974e+00	-2.9546435492e+00
 1.1622171622e+00	 1.6276520721e+00	-3.0109479633e+00
 1.1285237623e+00	 1.6511917266e+00	-3.0616754172e+00
 1.0944195068e+00	 1.6739910224e+00	-3.1073722623e+00
 1.0260182876e+00	 1.5693665835e+00	-2.8551060875e+00
 9.9368300285e-01	 1.5900374492e+00	-2.8896845573e+00
 9.6100807296e-01	 1.6099964235e+00	-2.9166905983e+00
 9.2801661506e-01	 1.6292360671e+00	-2.9366363630e+00
 8.9473191212e-01	 1.6477499220e+00	-2.9500508899e+00
 8.6117736201e-01	 1.6655325128e+00	-2.9574775869e+00
 8.2737642706e-01	 1.6825793438e+00	-2.9594716923e+00
 7.9335258431e-01	 1.6988868935e+00	-2.9565977318e+00
 7.5912927655e-01	 1.7144526070e+00	-2.9494269868e+00
 7.2472986455e-01	 1.7292748837e+00	-2.9385349916e+00
 6.9017758046e-01	 1.7433530645e+00	-2.9244990734e+00
 1.0328584095e+00	 1.5798290274e+00	-2.8791465033e+00
 1.0003075562e+00	 1.6006376989e+00	-2.9142789242e+00
 9.6741479345e-01	 1.6207297330e+00	-2.9418994954e+00
 9.3420339250e-01	 1.6400976408e+00	-2.9625207740e+00
 9.0069679153e-01	 1.6587349215e+00	-2.9766721356e+00
 8.6691854442e-01	 1.6766360629e+00	-2.9848972553e+00
 8.3289226991e-01	 1.6937965394e+00	-2.9877515661e+00
 7.9864160154e-01	 1.7102128062e+00	-2.9857997140e+00
 7.6419013839e-01	 1.7258822910e+00	-2.9796130248e+00
 7.2956139697e-01	 1.7408033830e+00	-2.9697669993e+00
 6.9477876433e-01	 1.7549754183e+00	-2.9568388527e+00
 1.0396985314e+00	 1.5902914713e+00	-2.9034643269e+00
 1.0069321096e+00	 1.6112379485e+00	-2.9391410625e+00
 9.7382151393e-01	 1.6314630425e+00	-2.9673660921e+00
 9.4039016993e-01	 1.6509592146e+00	-2.9886523995e+00
 9.0666167094e-01	 1.6697199210e+00	-3.0035297207e+00
 8.7265972683e-01	 1.6877396130e+00	-3.0125420213e+00
 8.3840811275e-01	 1.7050137350e+00	-3.0162449536e+00
 8.0393061877e-01	 1.7215387188e+00	-3.0152033088e+00
 7.6925100023e-01	 1.7373119751e+00	-3.0099884819e+00
 7.3439292940e-01	 1.7523318822e+00	-3.0011759660e+00
 6.9937994820e-01	 1.7665977720e+00	-2.9893428897e+00
 1.0465386534e+00	 1.6007539152e+00	-2.9280541442e+00
 1.0135566629e+00	 1.6218381982e+00	-2.9642657483e+00
 9.8022823441e-01	 1.6421963520e+00	-2.9930853633e+00
 9.4657694736e-01	 1.6618207884e+00	-3.0150264215e+00
 9.1262655035e-01	 1.6807049204e+00	-3.0306190417e+00
 8.7840090924e-01	 1.6988431631e+00	-3.0404075037e+00
 8.4392395560e-01	 1.7162309306e+00	-3.0449477026e+00
 8.0921963599e-01	 1.7328646314e+00	-3.0448045989e+00
 7.7431186207e-01	 1.7487416591e+00	-3.0405496819e+00
 7.3922446183e-01	 1.7638603814e+00	-3.0327584616e+00
 7.0398113207e-01	 1.7782201258e+00	-3.0220080055e+00
 1.0533787753e+00	 1.6112163591e+00	-2.9529106813e+00
 1.0201812163e+00	 1.6324384478e+00	-2.9896478931e+00
 9.8663495490e-01	 1.6529296615e+00	-3.0190524142e+00
 9.5276372479e-01	 1.6726823622e+00	-3.0416381470e+00
 9.1859142976e-01	 1.6916899199e+00	-3.0579356150e+00
 8.8414209165e-01	 1.7099467131e+00	-3.0684894349e+00
 8.4943979844e-01	 1.7274481262e+00	-3.0738557682e+00
 8.1450865322e-01	 1.7441905440e+00	-3.0745997687e+00
 7.7937272391e-01	 1.7601713431e+00	-3.0712930438e+00
 7.4405599426e-01	 1.7753888806e+00	-3.0645111450e+00
 7.0858231593e-01	 1.7898424795e+00	-3.0548311034e+00
 1.0602188972e+00	 1.6216788030e+00	-2.9780288001e+00
 1.0268057696e+00	 1.6430386975e+00	-3.0152825394e+00
 9.9304167538e-01	 1.6636629710e+00	-3.0452624761e+00
 9.5895050222e-01	 1.6835439359e+00	-3.0684830035e+00
 9.2455630917e-01	 1.7026749194e+00	-3.0854750719e+00
 8.8988327406e-01	 1.7210502632e+00	-3.0967836572e+00
 8.5495564128e-01	 1.7386653219e+00	-3.1029652099e+00
 8.1979767044e-01	 1.7555164566e+00	-3.1045851005e+00
 7.8443358575e-01	 1.7716010272e+00	-3.1022150785e+00
 7.4888752668e-01	 1.7869173798e+00	-3.0964307609e+00
 7.1318349980e-01	 1.8014648333e+00	-3.0878091663e+00
 1.0670590191e+00	 1.6321412469e+00	-3.0034034940e+00
 1.0334303230e+00	 1.6536389472e+00	-3.0411648566e+00
 9.9944839586e-01	 1.6743962804e+00	-3.0717109022e+00
 9.6513727965e-01	 1.6944055097e+00	-3.0955565359e+00
 9.3052118858e-01	 1.7136599189e+00	-3.1132331557e+00
 8.9562445646e-01	 1.7321538133e+00	-3.1252861190e+00
 8.6047148412e-01	 1.7498825175e+00	-3.1322721877e+00
 8.2508668766e-01	 1.7668423693e+00	-3.1347569720e+00
 7.8949444759e-01	 1.7830307112e+00	-3.1333123865e+00
 7.5371905911e-01	 1.7984458791e+00	-3.1285141372e+00
 7.1778468367e-01	 1.8130871871e+00	-3.1209392541e+00
 1.0738991410e+00	 1.6426036908e+00	-3.0290298838e+00
 1.0400548763e+00	 1.6642391968e+00	-3.0672901368e+00
 1.0058551163e+00	 1.6851295899e+00	-3.0983931639e+00
 9.7132405707e-01	 1.7052670835e+00	-3.1228544020e+00
 9.3648606799e-01	 1.7246449183e+00	-3.1412057180e+00
 9.0136563887e-01	 1.7432573634e+00	-3.1539928719e+00
 8.6598732697e-01	 1.7610997131e+00	-3.1617729594e+00
 8.3037570489e-01	 1.7781682819e+00	-3.1651118526e+00
 7.9455530943e-01	 1.7944603953e+00	-3.1645816542e+00
 7.5855059154e-01	 1.8099743783e+00	-3.1607581824e+00
 7.2238586753e-01	 1.8247095408e+00	-3.1542185017e+00
 1.0807392629e+00	 1.6530661346e+00	-3.0549032136e+00
 1.0466794296e+00	 1.6748394465e+00	-3.0936537912e+00
 1.0122618368e+00	 1.6958628994e+00	-3.1253048470e+00
 9.7751083450e-01	 1.7161286573e+00	-3.1503723694e+00
 9.4245094740e-01	 1.7356299178e+00	-3.1693887148e+00
 9.0710682128e-01	 1.7543609135e+00	-3.1829000671e+00
 8.7150316981e-01	 1.7723169087e+00	-3.1914638771e+00
 8.3566472211e-01	 1.7894941945e+00	-3.1956463010e+00
 7.9961617127e-01	 1.8058900793e+00	-3.1960196519e+00
 7.6338212396e-01	 1.8215028775e+00	-3.1931598829e+00
 7.2698705140e-01	 1.8363318946e+00	-3.1876441158e+00
 1.0875793848e+00	 1.6635285785e+00	-3.0810188467e+00
 1.0533039830e+00	 1.6854396961e+00	-3.1202513461e+00
 1.0186685573e+00	 1.7065962089e+00	-3.1524416479e+00
 9.8369761193e-01	 1.7269902311e+00	-3.1781063119e+00
 9.4841582680e-01	 1.7466149173e+00	-3.1977782040e+00
 9.1284800368e-01	 1.7654644635e+00	-3.2120039523e+00
 8.7701901264e-01	 1.7835341043e+00	-3.2213413844e+00
 8.4095373933e-01	 1.8008201071e+00	-3.2263569621e+00
 8.0467703310e-01	 1.8173197634e+00	-3.2276232308e+00
 7.6821365638e-01	 1.8330313767e+00	-3.2257163007e+00
 7.3158823526e-01	 1.8479542483e+00	-3.2212133735e+00
 1.0944195068e+00	 1.6739910224e+00	-3.1073722623e+00
 1.0599285363e+00	 1.6960399458e+00	-3.1470784394e+00
 1.0250752778e+00	 1.7173295184e+00	-3.1797993707e+00
 9.8988438935e-01	 1.7378518048e+00	-3.2060522063e+00
 9.5438070621e-01	 1.7575999168e+00	-3.2263703413e+00
 9.1858918609e-01	 1.7765680136e+00	-3.2413008688e+00
 8.8253485548e-01	 1.7947513000e+00	-3.2514020136e+00
 8.4624275655e-01	 1.8121460197e+00	-3.2572405644e+00
 8.0973789494e-01	 1.8287494474e+00	-3.2593893206e+00
 7.7304518881e-01	 1.8445598760e+00	-3.2584245711e+00
 7.3618941913e-01	 1.8595766021e+00	-3.2549236194e+00
 6.9017758046e-01	 1.7433530645e+00	-2.9244990734e+00
 6.5549548273e-01	 1.7566874145e+00	-2.9159564802e+00
 6.2070641247e-01	 1.7692791045e+00	-2.9038832069e+00
 5.8583295169e-01	 1.7811301897e+00	-2.8885875251e+00
 5.5089738324e-01	 1.7922435865e+00	-2.8703830598e+00
 5.1592165286e-01	 1.8026230466e+00	-2.8495873614e+00
 4.8092733318e-01	 1.8122731307e+00	-2.8265205049e+00
 4.4593558987e-01	 1.8211991790e+00	-2.8015037261e+00
 4.1096715009e-01	 1.8294072815e+00	-2.7748580983e+00
 3.7604227311e-01	 1.8369042460e+00	-2.7469032604e+00
 3.4118072329e-01	 1.8436975658e+00	-2.7179561978e+00
 6.9477876433e-01	 1.7549754183e+00	-2.9568388527e+00
 6.5986545261e-01	 1.7683986639e+00	-2.9479100423e+00
 6.2484445522e-01	 1.7810742985e+00	-2.9355092898e+00
 5.8973850470e-01	 1.7930043910e+00	-2.9199713320e+00
 5.5457003246e-01	 1.8041918770e+00	-2.9016354642e+00
 5.1936113055e-01	 1.8146405336e+00	-2.8808440299e+00
 4.8413351540e-01	 1.8243549516e+00	-2.8579409456e+00
 4.4890849380e-01	 1.8333405069e+00	-2.8332702682e+00
 4.1370693109e-01	 1.8416033300e+00	-2.8071748126e+00
 3.7854922160e-01	 1.8491502743e+00	-2.7799948257e+00
 3.4345526144e-01	 1.8559888829e+00	-2.7520667225e+00
 6.9937994820e-01	 1.7665977720e+00	-2.9893428897e+00
 6.6423542250e-01	 1.7801099133e+00	-2.9801718362e+00
 6.2898249797e-01	 1.7928694925e+00	-2.9675869444e+00
 5.9364405771e-01	 1.8048785923e+00	-2.9519491713e+00
 5.5824268168e-01	 1.8161401676e+00	-2.9336232445e+00
 5.2280060824e-01	 1.8266580206e+00	-2.9129760704e+00
 4.8733969762e-01	 1.8364367724e+00	-2.8903751848e+00
 4.5188139773e-01	 1.8454818348e+00	-2.8661872529e+00
 4.1644671209e-01	 1.8537993786e+00	-2.8407766270e+00
 3.8105617009e-01	 1.8613963026e+00	-2.8145039677e+00
 3.4572979960e-01	 1.8682802000e+00	-2.7877249358e+00
 7.0398113207e-01	 1.7782201258e+00	-3.0220080055e+00
 6.6860539238e-01	 1.7918211628e+00	-3.0127358618e+00
 6.3312054072e-01	 1.8046646866e+00	-3.0001073622e+00
 5.9754961072e-01	 1.8167527935e+00	-2.9845094434e+00
 5.6191533091e-01	 1.8280884582e+00	-2.9663320319e+00
 5.2624008592e-01	 1.8386755075e+00	-2.9459663714e+00
 4.9054587984e-01	 1.8485185933e+00	-2.9238033991e+00
 4.5485430167e-01	 1.8576231626e+00	-2.9002321798e+00
 4.1918649309e-01	 1.8659954271e+00	-2.8756384030e+00
 3.8356311858e-01	 1.8736423309e+00	-2.8504029530e+00
 3.4800433776e-01	 1.8805715171e+00	-2.8249005552e+00
 7.0858231593e-01	 1.7898424795e+00	-3.0548311034e+00
 6.7297536226e-01	 1.8035324122e+00	-3.0455962747e+00
 6.3725858347e-01	 1.8164598806e+00	-3.0330619632e+00
 6.0145516373e-01	 1.8286269948e+00	-3.0176408497e+00
 5.6558798013e-01	 1.8400367488e+00	-2.9997478306e+00
 5.2967956361e-01	 1.8506929945e+00	-2.9797982653e+00
 4.9375206206e-01	 1.8606004142e+00	-2.9582062797e+00
 4.5782720560e-01	 1.8697644905e+00	-2.9353831325e+00
 4.2192627409e-01	 1.8781914757e+00	-2.9117356551e+00
 3.8607006707e-01	 1.8858883592e+00	-2.8876647683e+00
 3.5027887591e-01	 1.8928628342e+00	-2.8635640851e+00
 7.1318349980e-01	 1.8014648333e+00	-3.0878091663e+00
 6.7734533215e-01	 1.8152436616e+00	-3.0787473811e+00
 6.4139662622e-01	 1.8282550746e+00	-3.0664423888e+00
 6.0536071674e-01	 1.8405011961e+00	-3.0513323829e+00
 5.6926062935e-01	 1.8519850393e+00	-3.0338570055e+00
 5.3311904130e-01	 1.8627104815e+00	-3.0144555149e+00
 4.9695824429e-01	 1.8726822351e+00	-2.9935650157e+00
 4.6080010953e-01	 1.8819058183e+00	-2.9716187603e+00
 4.2466605510e-01	 1.8903875242e+00	-2.9490445293e+00
 3.8857701556e-01	 1.8981343875e+00	-2.9262630972e+00
 3.5255341407e-01	 1.9051541513e+00	-2.9036867905e+00
 7.1778468367e-01	 1.8130871871e+00	-3.1209392541e+00
 6.8171530203e-01	 1.8269549110e+00	-3.1121836329e+00
 6.4553466897e-01	 1.8400502687e+00	-3.1002404942e+00
 6.0926626975e-01	 1.8523753973e+00	-3.0855733177e+00
 5.7293327857e-01	 1.8639333299e+00	-3.0686462711e+00
 5.3655851898e-01	 1.8747279685e+00	-3.0499222985e+00
 5.0016442651e-01	 1.8847640559e+00	-3.0298612784e+00
 4.6377301347e-01	 1.8940471462e+00	-3.0089182596e+00
 4.2740583610e-01	 1.9025835728e+00	-2.9875417831e+00
 3.9108396405e-01	 1.9103804158e+00	-2.9661722977e+00
 3.5482795223e-01	 1.9174454684e+00	-2.9452406732e+00
 7.2238586753e-01	 1.8247095408e+00	-3.1542185017e+00
 6.8608527191e-01	 1.8386661605e+00	-3.1458996230e+00
 6.4967271171e-01	 1.8518454627e+00	-3.1344483418e+00
 6.1317182276e-01	 1.8642495986e+00	-3.1203532018e+00
 5.7660592779e-01	 1.8758816205e+00	-3.1041026801e+00
 5.3999799667e-01	 1.8867454554e+00	-3.0861831979e+00
 5.0337060873e-01	 1.8968458768e+00	-3.0670772060e+00
 4.6674591740e-01	 1.9061884741e+00	-3.0472613565e+00
 4.3014561710e-01	 1.9147796213e+00	-3.0272047661e+00
 3.9359091254e-01	 1.9226264441e+00	-3.0073673814e+00
 3.5710249039e-01	 1.9297367855e+00	-2.9881984482e+00
 7.2698705140e-01	 1.8363318946e+00	-3.1876441158e+00
 6.9045524179e-01	 1.8503774099e+00	-3.1798900809e+00
 6.5381075446e-01	 1.8636406567e+00	-3.1690581950e+00
 6.1707737577e-01	 1.8761237998e+00	-3.1556618473e+00
 5.8027857701e-01	 1.8878299111e+00	-3.1402136127e+00
 5.4343747436e-01	 1.8987629424e+00	-3.1232231845e+00
 5.0657679095e-01	 1.9089276977e+00	-3.1051953886e+00
 4.6971882134e-01	 1.9183298019e+00	-3.0866282903e+00
 4.3288539810e-01	 1.9269756698e+00	-3.0680114009e+00
 3.9609786103e-01	 1.9348724724e+00	-3.0498239917e+00
 3.5937702855e-01	 1.9420281026e+00	-3.0325335210e+00
 7.3158823526e-01	 1.8479542483e+00	-3.2212133735e+00
 6.9482521167e-01	 1.8620886593e+00	-3.2141498687e+00
 6.5794879721e-01	 1.8754358507e+00	-3.2040625114e+00
 6.2098292878e-01	 1.8879980011e+00	-3.1914893222e+00
 5.8395122623e-01	 1.8997782016e+00	-3.1769667662e+00
 5.4687695204e-01	 1.9107804294e+00	-3.1610276077e+00
 5.0978297318e-01	 1.9210095185e+00	-3.1441988538e+00
 4.7269172527e-01	 1.9304711298e+00	-3.1269997971e+00
 4.3562517911e-01	 1.9391717184e+00	-3.1099401654e+00
 3.9860480952e-01	 1.9471185007e+00	-3.0935183852e+00
 3.6165156671e-01	 1.9543194197e+00	-3.0782199659e+00
 7.3618941913e-01	 1.8595766021e+00	-3.2549236194e+00
 6.9919518155e-01	 1.8737999088e+00	-3.2486739764e+00
 6.6208683996e-01	 1.8872310448e+00	-3.2394539369e+00
 6.2488848179e-01	 1.8998722024e+00	-3.2278259428e+00
 5.8762387546e-01	 1.9117264922e+00	-3.2143501455e+00
 5.5031642973e-01	 1.9227979164e+00	-3.1995821830e+00
 5.1298915540e-01	 1.9330913394e+00	-3.1840710536e+00
 4.7566462921e-01	 1.9426124577e+00	-3.1683570946e+00
 4.3836496011e-01	 1.9513677669e+00	-3.1529700753e+00
 4.0111175801e-01	 1.9593645290e+00	-3.1384274113e+00
 3.6392610487e-01	 1.9666107368e+00	-3.1252325053e+00
 3.4118072329e-01	 1.8436975658e+00	-2.7179561978e+00
 3.0640174533e-01	 1.8497953861e+00	-2.7186645299e+00
 2.7172404193e-01	 1.8552064697e+00	-2.7168682958e+00
 2.3716575372e-01	 1.8599401617e+00	-2.7127269499e+00
 2.0274444155e-01	 1.8640063550e+00	-2.7064049066e+00
 1.6847707106e-01	 1.8674154537e+00	-2.6980706648e+00
 1.3437999951e-01	 1.8701783380e+00	-2.6878959536e+00
 1.0046896479e-01	 1.8723063283e+00	-2.6760549012e+00
 6.6759076657e-02	 1.8738111500e+00	-2.6627232330e+00
 3.3264809970e-02	 1.8747048974e+00	-2.6480775004e+00
 0.0000000000e+00	 1.8750000000e+00	-2.6322943436e+00
 3.4345526144e-01	 1.8559888829e+00	-2.7520667225e+00
 3.0844442363e-01	 1.8621273554e+00	-2.7526483313e+00
 2.7353553554e-01	 1.8675745128e+00	-2.7507812552e+00
 2.3874685874e-01	 1.8723397628e+00	-2.7465782568e+00
 2.0409607116e-01	 1.8764330640e+00	-2.7401589851e+00
 1.6960025153e-01	 1.8798648900e+00	-2.7316491859e+00
 1.3527586617e-01	 1.8826461935e+00	-2.7211799181e+00
 1.0113875789e-01	 1.8847883705e+00	-2.7088867824e+00
 6.7204137168e-02	 1.8863032243e+00	-2.6949091643e+00
 3.3486575369e-02	 1.8872029301e+00	-2.6793894968e+00
 0.0000000000e+00	 1.8875000000e+00	-2.6624725449e+00
 3.4572979960e-01	 1.8682802000e+00	-2.7877249358e+00
 3.1048710194e-01	 1.8744593246e+00	-2.7878847593e+00
 2.7534702916e-01	 1.8799425559e+00	-2.7856543593e+00
 2.4032796377e-01	 1.8847393639e+00	-2.7811002327e+00
 2.0544770077e-01	 1.8888597731e+00	-2.7742976706e+00
 1.7072343201e-01	 1.8923143264e+00	-2.7653300532e+00
 1.3617173283e-01	 1.8951140491e+00	-2.7542881377e+00
 1.0180855099e-01	 1.8972704127e+00	-2.7412693448e+00
 6.7649197680e-02	 1.8987952986e+00	-2.7263770474e+00
 3.3708340769e-02	 1.8997009627e+00	-2.7097198665e+00
 0.0000000000e+00	 1.9000000000e+00	-2.6914109773e+00
 3.4800433776e-01	 1.8805715171e+00	-2.8249005552e+00
 3.1252978024e-01	 1.8867912938e+00	-2.8243493197e+00
 2.7715852277e-01	 1.8923105990e+00	-2.8214688514e+00
 2.4190906879e-01	 1.8971389650e+00	-2.8162797995e+00
 2.0679933038e-01	 1.9012864821e+00	-2.8088134964e+00
 1.7184661248e-01	 1.9047637627e+00	-2.7991113372e+00
 1.3706759950e-01	 1.9075819047e+00	-2.7872241382e+00
 1.0247834409e-01	 1.9097524549e+00	-2.7732114809e+00
 6.8094258191e-02	 1.9112873730e+00	-2.7571410465e+00
 3.3930106169e-02	 1.9121989954e+00	-2.7390879443e+00
 0.0000000000e+00	 1.9125000000e+00	-2.7191340396e+00
 3.5027887591e-01	 1.8928628342e+00	-2.8635640851e+00
 3.1457245854e-01	 1.8991232631e+00	-2.8620181544e+00
 2.7897001638e-01	 1.9046786422e+00	-2.8582064619e+00
 2.4349017382e-01	 1.9095385661e+00	-2.8521042185e+00
 2.0815095999e-01	 1.9137131911e+00	-2.8436991897e+00
 1.7296979296e-01	 1.9172131991e+00	-2.8329911584e+00
 1.3796346616e-01	 1.9200497603e+00	-2.8199913536e+00
 1.0314813719e-01	 1.9222344971e+00	-2.8047218521e+00
 6.8539318703e-02	 1.9237794473e+00	-2.7872149578e+00
 3.4151871570e-02	 1.9246970280e+00	-2.7675125628e+00
 0.0000000000e+00	 1.9250000000e+00	-2.7456654970e+00
 3.5255341407e-01	 1.9051541513e+00	-2.9036867905e+00
 3.1661513685e-01	 1.9114552323e+00	-2.9008680207e+00
 2.8078151000e-01	 1.9170466853e+00	-2.8958493924e+00
 2.4507127885e-01	 1.9219381671e+00	-2.8885610796e+00
 2.0950258961e-01	 1.9261399002e+00	-2.8789476652e+00
 1.7409297343e-01	 1.9296626354e+00	-2.8669676855e+00
 1.3885933283e-01	 1.9325176159e+00	-2.8525931293e+00
 1.0381793029e-01	 1.9347165393e+00	-2.8358088963e+00
 6.8984379215e-02	 1.9362715216e+00	-2.8166122213e+00
 3.4373636970e-02	 1.9371950607e+00	-2.7950120685e+00
 0.0000000000e+00	 1.9375000000e+00	-2.7710285011e+00
 3.5482795223e-01	 1.9174454684e+00	-2.9452406732e+00
 3.1865781515e-01	 1.9237872016e+00	-2.9408762720e+00
 2.8259300362e-01	 1.9294147284e+00	-2.9343803006e+00
 2.4665238388e-01	 1.9343377682e+00	-2.9256382910e+00
 2.1085421922e-01	 1.9385666092e+00	-2.9145520194e+00
 1.7521615391e-01	 1.9421120718e+00	-2.9010391344e+00
 1.3975519949e-01	 1.9449854715e+00	-2.8850327247e+00
 1.0448772339e-01	 1.9471985815e+00	-2.8664808347e+00
 6.9429439728e-02	 1.9487635960e+00	-2.8453459326e+00
 3.4595402371e-02	 1.9496930933e+00	-2.8216043375e+00
 0.0000000000e+00	 1.9500000000e+00	-2.7952456103e+00
 3.5710249039e-01	 1.9297367855e+00	-2.9881984482e+00
 3.2070049346e-01	 1.9361191708e+00	-2.9820208381e+00
 2.8440449723e-01	 1.9417827716e+00	-2.9737822863e+00
 2.4823348890e-01	 1.9467373693e+00	-2.9633240685e+00
 2.1220584883e-01	 1.9509933182e+00	-2.9505055243e+00
 1.7633933439e-01	 1.9545615082e+00	-2.9352037662e+00
 1.4065106616e-01	 1.9574533271e+00	-2.9173133164e+00
 1.0515751649e-01	 1.9596806237e+00	-2.8967456793e+00
 6.9874500241e-02	 1.9612556703e+00	-2.8734288534e+00
 3.4817167771e-02	 1.9621911260e+00	-2.8473067904e+00
 0.0000000000e+00	 1.9625000000e+00	-2.8183388078e+00
 3.5937702855e-01	 1.9420281026e+00	-3.0325335210e+00
 3.2274317177e-01	 1.9484511400e+00	-3.0242802077e+00
 2.8621599085e-01	 1.9541508147e+00	-3.0140388765e+00
 2.4981459393e-01	 1.9591369704e+00	-3.0016069264e+00
 2.1355747845e-01	 1.9634200273e+00	-2.9868016223e+00
 1.7746251487e-01	 1.9670109445e+00	-2.9694598857e+00
 1.4154693283e-01	 1.9699211826e+00	-2.9494380002e+00
 1.0582730959e-01	 1.9721626658e+00	-2.9266112392e+00
 7.0319560754e-02	 1.9737477446e+00	-2.9008734223e+00
 3.5038933172e-02	 1.9746891586e+00	-2.8721364068e+00
 0.0000000000e+00	 1.9750000000e+00	-2.8403295207e+00
 3.6165156671e-01	 1.9543194197e+00	-3.0782199659e+00
 3.2478585007e-01	 1.9607831093e+00	-3.0676334104e+00
 2.8802748447e-01	 1.9665188578e+00	-3.0551340130e+00
 2.5139569896e-01	 1.9715365715e+00	-3.0404756677e+00
 2.1490910806e-01	 1.9758467363e+00	-3.0234339205e+00
 1.7858569534e-01	 1.9794603809e+00	-3.0038058406e+00
 1.4244279949e-01	 1.9823890382e+00	-2.9814097939e+00
 1.0649710269e-01	 1.9846447080e+00	-2.9560851267e+00
 7.0764621268e-02	 1.9862398189e+00	-2.9276917651e+00
 3.5260698574e-02	 1.9871871913e+00	-2.8961097392e+00
 0.0000000000e+00	 1.9875000000e+00	-2.8612386367e+00
 3.6392610487e-01	 1.9666107368e+00	-3.1252325053e+00
 3.2682852838e-01	 1.9731150785e+00	-3.1120599998e+00
 2.8983897809e-01	 1.9788869010e+00	-3.0970520384e+00
 2.5297680400e-01	 1.9839361725e+00	-3.0799193751e+00
 2.1626073768e-01	 1.9882734453e+00	-3.0603961859e+00
 1.7970887582e-01	 1.9919098172e+00	-3.0382400197e+00
 1.4333866616e-01	 1.9948568938e+00	-3.0132316402e+00
 1.0716689579e-01	 1.9971267502e+00	-2.9851747639e+00
 7.1209681781e-02	 1.9987318933e+00	-2.9538957042e+00
 3.5482463975e-02	 1.9996852239e+00	-2.9192429261e+00
 0.0000000000e+00	 2.0000000000e+00	-2.8810865216e+00
