x	y	stress_yy
 1.000000000000000e+00	 0.000000000000000e+00	 2.029963070642428e+01
 9.998426119581704e-01	 1.774123198744521e-02	 2.026973253609145e+01
 9.993659466402713e-01	 3.560484089073321e-02	 2.021252865971552e+01
 9.985633751090949e-01	 5.358344789747921e-02	 2.012790675071609e+01
 9.974284469032259e-01	 7.166933308134273e-02	 2.001580407736473e+01
 9.959549086084808e-01	 8.985443791194039e-02	 1.987620926792486e+01
 9.941367226520526e-01	 1.081303688402291e-01	 1.970916393560416e+01
 9.919680862544972e-01	 1.264884019976692e-01	 1.951476414728439e+01
 9.894434504702301e-01	 1.449194890435835e-01	 1.929316172018919e+01
 9.865575392429453e-01	 1.634142641907508e-01	 1.904456533099735e+01
 9.833053683983746e-01	 1.819630524344169e-01	 1.876924142242044e+01
 1.012500000000000e+00	 0.000000000000000e+00	 1.970375524419267e+01
 1.012340644607676e+00	 1.796299738536411e-02	 1.967933221602391e+01
 1.011858020973390e+00	 3.604990139831822e-02	 1.962842842453315e+01
 1.011045417298220e+00	 5.425324099133014e-02	 1.955091888289358e+01
 1.009896302489983e+00	 7.256519973898737e-02	 1.944672633938925e+01
 1.008404344966822e+00	 9.097761837928382e-02	 1.931582303610403e+01
 1.006563431686269e+00	 1.094819984438203e-01	 1.915823233544915e+01
 1.004367687334138e+00	 1.280695070157070e-01	 1.897403019888619e+01
 1.001811493603026e+00	 1.467309826500149e-01	 1.876334650235501e+01
 9.988895084859243e-01	 1.654569424871888e-01	 1.852636617321993e+01
 9.955966855063876e-01	 1.842375905849211e-01	 1.826333013400591e+01
 1.025000000000000e+00	 0.000000000000000e+00	 1.915088286339815e+01
 1.024838677257182e+00	 1.818476278346252e-02	 1.913153642892926e+01
 1.024350095306508e+00	 3.649496190623553e-02	 1.908652605521921e+01
 1.023527459487344e+00	 5.492303408563875e-02	 1.901571454178152e+01
 1.022364158076741e+00	 7.346106639718697e-02	 1.891901059528316e+01
 1.020853781325163e+00	 9.210079884725078e-02	 1.879637058159812e+01
 1.018990140720485e+00	 1.108336280480742e-01	 1.864780015358236e+01
 1.016767288413778e+00	 1.296506120344168e-01	 1.847335573931016e+01
 1.014179536735822e+00	 1.485424762570972e-01	 1.827314587562764e+01
 1.011221477728904e+00	 1.674996207842254e-01	 1.804733237213565e+01
 1.007888002614400e+00	 1.865121287359399e-01	 1.779613129112446e+01
 1.037500000000000e+00	 0.000000000000000e+00	 1.863945948380643e+01
 1.037336709906687e+00	 1.840652818174046e-02	 1.862480550718459e+01
 1.036842169639627e+00	 3.694002241448514e-02	 1.858529659009974e+01
 1.036009501676469e+00	 5.559282718040499e-02	 1.852078374884202e+01
 1.034832013663499e+00	 7.435693305594146e-02	 1.843116210953228e+01
 1.033303217683504e+00	 9.322397931584123e-02	 1.831637265336296e+01
 1.031416849754700e+00	 1.121852576529908e-01	 1.817640384530350e+01
 1.029166889493419e+00	 1.312317170537988e-01	 1.801129313138890e+01
 1.026547579868618e+00	 1.503539698648304e-01	 1.782112828978613e+01
 1.023553446971883e+00	 1.695422990818606e-01	 1.760604862104723e+01
 1.020179319722413e+00	 1.887866668874734e-01	 1.736624596331621e+01
 1.050000000000000e+00	 0.000000000000000e+00	 1.816800502900078e+01
 1.049834742556193e+00	 1.862829358019793e-02	 1.815767310061328e+01
 1.049334243972746e+00	 3.738508292306705e-02	 1.812328768460763e+01
 1.048491543865594e+00	 5.626262027562888e-02	 1.806468842910570e+01
 1.047299869250256e+00	 7.525279971525092e-02	 1.798175732427769e+01
 1.045752654041845e+00	 9.434715978505519e-02	 1.787442044059939e+01
 1.043843558788917e+00	 1.135368872585703e-01	 1.774264955818280e+01
 1.041566490573060e+00	 1.328128220738529e-01	 1.758646367267146e+01
 1.038915623001414e+00	 1.521654634732144e-01	 1.740593036322983e+01
 1.035885416214862e+00	 1.715849773800943e-01	 1.720116700832654e+01
 1.032470636830427e+00	 1.910612050395216e-01	 1.697234183532123e+01
 1.062500000000000e+00	 0.000000000000000e+00	 1.773510907321645e+01
 1.062332775205699e+00	 1.885005897883492e-02	 1.772874186369416e+01
 1.061826318305864e+00	 3.783014343198125e-02	 1.769911533968826e+01
 1.060973586054718e+00	 5.693241337131042e-02	 1.764605818155010e+01
 1.059767724837014e+00	 7.614866637511535e-02	 1.756943967239477e+01
 1.058202090400185e+00	 9.547034025489266e-02	 1.746917142920960e+01
 1.056270267823133e+00	 1.148885168648125e-01	 1.734520903251561e+01
 1.053966091652700e+00	 1.343939270945790e-01	 1.719755354044008e+01
 1.051283666134210e+00	 1.539769570822494e-01	 1.702625287305937e+01
 1.048217385457841e+00	 1.736276556789267e-01	 1.683140305299882e+01
 1.044761953938439e+00	 1.933357431920845e-01	 1.661314928853850e+01
 1.075000000000000e+00	 0.000000000000000e+00	 1.733942679188429e+01
 1.074830807855204e+00	 1.907182437765143e-02	 1.733667944366317e+01
 1.074318392638983e+00	 3.827520394122774e-02	 1.731145992822330e+01
 1.073455628243843e+00	 5.760220646744962e-02	 1.726358634456798e+01
 1.072235580423771e+00	 7.704453303553466e-02	 1.719291568268310e+01
 1.070651526758527e+00	 9.659352072535370e-02	 1.709934554733768e+01
 1.068696976857348e+00	 1.162401464717175e-01	 1.698281578779196e+01
 1.066365692732341e+00	 1.359750321159773e-01	 1.684331001963264e+01
 1.063651709267006e+00	 1.557884506919352e-01	 1.668085702491960e+01
 1.060549354700821e+00	 1.756703339783577e-01	 1.649553201691387e+01
 1.057053271046452e+00	 1.956102813451620e-01	 1.628745775587098e+01
 1.087500000000000e+00	 0.000000000000000e+00	 1.697967519144731e+01
 1.087328840504711e+00	 1.929358977664748e-02	 1.698021474529740e+01
 1.086810466972101e+00	 3.872026445080654e-02	 1.695906249549423e+01
 1.085937670432968e+00	 5.827199956404649e-02	 1.691602633278266e+01
 1.084703436010529e+00	 7.794039969650891e-02	 1.685095135366408e+01
 1.083100963116868e+00	 9.771670119643823e-02	 1.676372157673518e+01
 1.081123685891564e+00	 1.175917760792853e-01	 1.665426157216812e+01
 1.078765293811981e+00	 1.375561371380476e-01	 1.652253799090841e+01
 1.076019752399802e+00	 1.575999443022719e-01	 1.636856098009480e+01
 1.072881323943800e+00	 1.777130122783873e-01	 1.619238547125035e+01
 1.069344588154466e+00	 1.978848194987542e-01	 1.599411232796116e+01
 1.100000000000000e+00	 0.000000000000000e+00	 1.665462959623510e+01
 1.099826873154216e+00	 1.951535517582304e-02	 1.665813445037331e+01
 1.099302541305220e+00	 3.916532496071764e-02	 1.664072131188704e+01
 1.098419712622092e+00	 5.894179266110097e-02	 1.660218822362585e+01
 1.097171291597287e+00	 7.883626635803816e-02	 1.654236877461946e+01
 1.095550399475209e+00	 9.883988166814628e-02	 1.646113380880605e+01
 1.093550394925780e+00	 1.189434056875159e-01	 1.635839305401965e+01
 1.091164894891622e+00	 1.391372421607900e-01	 1.623409665816389e+01
 1.088387795532598e+00	 1.594114379132595e-01	 1.608823661939271e+01
 1.085213293186779e+00	 1.797556905790154e-01	 1.592084809712211e+01
 1.081635905262479e+00	 2.001593576528611e-01	 1.573201059081927e+01
 1.112500000000000e+00	 0.000000000000000e+00	 1.636312037217822e+01
 1.112324905803722e+00	 1.973712057517813e-02	 1.636927977176783e+01
 1.111794615638338e+00	 3.961038547096103e-02	 1.635528865799873e+01
 1.110901754811217e+00	 5.961158575861313e-02	 1.632093557403395e+01
 1.109639147184044e+00	 7.973213302012230e-02	 1.626604297442511e+01
 1.107999835833550e+00	 9.996306214047786e-02	 1.619046892608699e+01
 1.105977103959996e+00	 1.202950352964092e-01	 1.609410873653587e+01
 1.103564495971262e+00	 1.407183471842045e-01	 1.597689649666557e+01
 1.100755838665393e+00	 1.612229315248979e-01	 1.583880652519377e+01
 1.097545262429758e+00	 1.817983688802421e-01	 1.567985470187384e+01
 1.093927222370492e+00	 2.024338958074826e-01	 1.550009967664541e+01
 1.125000000000000e+00	 0.000000000000000e+00	 1.610402986894153e+01
 1.124822938453228e+00	 1.995888597471274e-02	 1.611254342395295e+01
 1.124286689971457e+00	 4.005544598153672e-02	 1.610166782407023e+01
 1.123383797000342e+00	 6.028137885658293e-02	 1.607118244936444e+01
 1.122107002770802e+00	 8.062799968276138e-02	 1.602089898046247e+01
 1.120449272191891e+00	 1.010862426134330e-01	 1.595066309162895e+01
 1.118403812994212e+00	 1.216466649059652e-01	 1.586035607800797e+01
 1.115964097050903e+00	 1.422994522082910e-01	 1.574989640464044e+01
 1.113123881798189e+00	 1.630344251371873e-01	 1.561924116469705e+01
 1.109877231672737e+00	 1.838410471820675e-01	 1.546838743429049e+01
 1.106218539478505e+00	 2.047084339626188e-01	 1.529737351126330e+01
 9.833053683983746e-01	 1.819630524344169e-01	 1.876924142242044e+01
 9.796822644935034e-01	 2.005558790047255e-01	 1.843695007272004e+01
 9.756838834365029e-01	 2.191824800562895e-01	 1.807817964357661e+01
 9.713062287906588e-01	 2.378323146029681e-01	 1.769425214113114e+01
 9.665456696731551e-01	 2.564945776994924e-01	 1.728657753084159e+01
 9.613989581557346e-01	 2.751582148638952e-01	 1.685665089495183e+01
 9.558632460744549e-01	 2.938119377279353e-01	 1.640604908007878e+01
 9.499361011546518e-01	 3.124442408950446e-01	 1.593642683517691e+01
 9.436155223571460e-01	 3.310434199775670e-01	 1.544951244416648e+01
 9.368999543523497e-01	 3.495975907771368e-01	 1.494710286170238e+01
 9.297883010302649e-01	 3.680947095640363e-01	 1.443105836487202e+01
 9.955966855063876e-01	 1.842375905849211e-01	 1.826333013400591e+01
 9.919282928033321e-01	 2.030628274885299e-01	 1.795345078716228e+01
 9.878799319837496e-01	 2.219222610543536e-01	 1.761778478648615e+01
 9.834475566554662e-01	 2.408052185339226e-01	 1.725756653645587e+01
 9.786274905496307e-01	 2.597007599201509e-01	 1.687411499426338e+01
 9.734164451388825e-01	 2.785976925500452e-01	 1.646883107135988e+01
 9.678115366572296e-01	 2.974845869507597e-01	 1.604319454952313e+01
 9.618103024265737e-01	 3.163497939082676e-01	 1.559876051104194e+01
 9.554107163947458e-01	 3.351814627300659e-01	 1.513715528641983e+01
 9.486112037905381e-01	 3.539675606653077e-01	 1.466007192696869e+01
 9.414106548025766e-01	 3.726958934376526e-01	 1.416926521375379e+01
 1.007888002614400e+00	 1.865121287359399e-01	 1.779613129112446e+01
 1.004174321113151e+00	 2.055697759727489e-01	 1.750751134826677e+01
 1.000075980530958e+00	 2.246620420527318e-01	 1.719379002719288e+01
 9.955888845201883e-01	 2.437781224650910e-01	 1.685611597433270e+01
 9.907093114259543e-01	 2.629069421409228e-01	 1.649571904286613e+01
 9.854339321217915e-01	 2.820371702362078e-01	 1.611390793394200e+01
 9.797598272396584e-01	 3.011572361734960e-01	 1.571206737640141e+01
 9.736845036980223e-01	 3.202553469213019e-01	 1.529165484394681e+01
 9.672059104317243e-01	 3.393195054822754e-01	 1.485419681228994e+01
 9.603224532279363e-01	 3.583375305530889e-01	 1.440128456256153e+01
 9.530330085739085e-01	 3.772970773107793e-01	 1.393456954113777e+01
 1.020179319722413e+00	 1.887866668874734e-01	 1.736624596331621e+01
 1.016420349422961e+00	 2.080767244573826e-01	 1.709777449154447e+01
 1.012272029078130e+00	 2.274018230514244e-01	 1.680488002541197e+01
 1.007730212384825e+00	 2.467510263964731e-01	 1.648862723026797e+01
 1.002791132302125e+00	 2.661131243618078e-01	 1.615015869069583e+01
 9.974514191044608e-01	 2.854766479223831e-01	 1.579069278716126e+01
 9.917081178217403e-01	 3.048298853961441e-01	 1.541152113474162e+01
 9.855587049689970e-01	 3.241608999341473e-01	 1.501400558223387e+01
 9.790011044680813e-01	 3.434575482341956e-01	 1.459957477331900e+01
 9.720337026645446e-01	 3.627075004404805e-01	 1.416972027499576e+01
 9.646553623442610e-01	 3.818982611834161e-01	 1.372599228215368e+01
 1.032470636830427e+00	 1.910612050395216e-01	 1.697234183532123e+01
 1.028666377732762e+00	 2.105836729424308e-01	 1.672294758356524e+01
 1.024468077625263e+00	 2.301416040504314e-01	 1.644980207548148e+01
 1.019871540249377e+00	 2.497239303280692e-01	 1.615388770883362e+01
 1.014872953178144e+00	 2.693193065828061e-01	 1.583626156946369e+01
 1.009468906086891e+00	 2.889161256085709e-01	 1.549805353927741e+01
 1.003656408403476e+00	 3.085025346187041e-01	 1.514046398949538e+01
 9.974329062394982e-01	 3.280664529468040e-01	 1.476476105683416e+01
 9.907962985038169e-01	 3.475955909858267e-01	 1.437227750345362e+01
 9.837449521003627e-01	 3.670774703274826e-01	 1.396440716482961e+01
 9.762777161136343e-01	 3.864994450555633e-01	 1.354260099315725e+01
 1.044761953938439e+00	 1.933357431920845e-01	 1.661314928853850e+01
 1.040912406042553e+00	 2.130906214278937e-01	 1.638179882013087e+01
 1.036664126172359e+00	 2.328813850497527e-01	 1.612736242197274e+01
 1.032012868113843e+00	 2.526968342598790e-01	 1.585074187725149e+01
 1.026954774054010e+00	 2.725254888039177e-01	 1.555291048044813e+01
 1.021486393069082e+00	 2.923556032947711e-01	 1.523491137271182e+01
 1.015604698984865e+00	 3.121751838411760e-01	 1.489785548530694e+01
 1.009307107509526e+00	 3.319720059592721e-01	 1.454291908817378e+01
 1.002591492538931e+00	 3.517336337371683e-01	 1.417134094360942e+01
 9.954562015353910e-01	 3.714474402140948e-01	 1.378441906819169e+01
 9.879000698820278e-01	 3.911006289272207e-01	 1.338350710930535e+01
 1.057053271046452e+00	 1.956102813451620e-01	 1.628745775587098e+01
 1.053158434352335e+00	 2.155975699137711e-01	 1.607315368969173e+01
 1.048860174719417e+00	 2.356211660493882e-01	 1.583642283235107e+01
 1.044154195978224e+00	 2.556697381919028e-01	 1.557808794779729e+01
 1.039036594929724e+00	 2.757316710251425e-01	 1.529904018696176e+01
 1.033503880051033e+00	 2.957950809809841e-01	 1.500023764671236e+01
 1.027552989565909e+00	 3.158478330635599e-01	 1.468270355932182e+01
 1.021181308779080e+00	 3.358775589715513e-01	 1.434752410887763e+01
 1.014386686573424e+00	 3.558716764882207e-01	 1.399584587382387e+01
 1.007167450969629e+00	 3.758174101003176e-01	 1.362887289773612e+01
 9.995224236494423e-01	 3.957018127983884e-01	 1.324786339346271e+01
 1.069344588154466e+00	 1.978848194987542e-01	 1.599411232796116e+01
 1.065404462662107e+00	 2.181045184000633e-01	 1.579589168066572e+01
 1.061056223266437e+00	 2.383609470493381e-01	 1.557589740600492e+01
 1.056295523842520e+00	 2.586426421241405e-01	 1.533487478900451e+01
 1.051118415805285e+00	 2.789378532464805e-01	 1.507363442802752e+01
 1.045521367032745e+00	 2.992345586672095e-01	 1.479305101362778e+01
 1.039501280146605e+00	 3.195204822858554e-01	 1.449406176000847e+01
 1.033055510048160e+00	 3.397831119836419e-01	 1.417766448490750e+01
 1.026181880607295e+00	 3.600097192389838e-01	 1.384491533629531e+01
 1.018878700403077e+00	 3.801873799861507e-01	 1.349692616698018e+01
 1.011144777415877e+00	 4.003029966690664e-01	 1.313486156104639e+01
 1.081635905262479e+00	 2.001593576528611e-01	 1.573201059081927e+01
 1.077650490971870e+00	 2.206114668867699e-01	 1.554894321325833e+01
 1.073252271813420e+00	 2.411007280496023e-01	 1.534474960084099e+01
 1.068436851706730e+00	 2.616155460565918e-01	 1.512009904746772e+01
 1.063200236680694e+00	 2.821440354679318e-01	 1.487572313566783e+01
 1.057538854014219e+00	 3.026740363534475e-01	 1.461241473179962e+01
 1.051449570726956e+00	 3.231931315080629e-01	 1.433102665560584e+01
 1.044929711316766e+00	 3.436886649955435e-01	 1.403247001934957e+01
 1.037977074640545e+00	 3.641477619894577e-01	 1.371771223412367e+01
 1.030589949835735e+00	 3.845573498715942e-01	 1.338777468343702e+01
 1.022767131181332e+00	 4.049041805392548e-01	 1.304373006681255e+01
 1.093927222370492e+00	 2.024338958074826e-01	 1.550009967664541e+01
 1.089896519281624e+00	 2.231184153738912e-01	 1.533128677812611e+01
 1.085448320360364e+00	 2.438405090501808e-01	 1.514198946033376e+01
 1.080578179570856e+00	 2.645884499892571e-01	 1.493280246368192e+01
 1.075282057555951e+00	 2.853502176894963e-01	 1.470437983979223e+01
 1.069556340995452e+00	 3.061135140396980e-01	 1.445743415960761e+01
 1.063397861306960e+00	 3.268657807301824e-01	 1.419273541728235e+01
 1.056803912584899e+00	 3.475942180072564e-01	 1.391110962448620e+01
 1.049772268673173e+00	 3.682858047396423e-01	 1.361343709193414e+01
 1.042301199267603e+00	 3.889273197566481e-01	 1.330065039726760e+01
 1.034389484945809e+00	 4.095053644089534e-01	 1.297373204084862e+01
 1.106218539478505e+00	 2.047084339626188e-01	 1.529737351126330e+01
 1.102142547591368e+00	 2.256253638614272e-01	 1.514194626579607e+01
 1.097644368907272e+00	 2.465802900510737e-01	 1.496667102543838e+01
 1.092719507434896e+00	 2.675613539221362e-01	 1.477206936682576e+01
 1.087363878431055e+00	 2.885563999111739e-01	 1.455871924609248e+01
 1.081573827976446e+00	 3.095529917259612e-01	 1.432725441657852e+01
 1.075346151886618e+00	 3.305384299522137e-01	 1.407836356341746e+01
 1.068678113852559e+00	 3.514997710187806e-01	 1.381278914906267e+01
 1.061567462705179e+00	 3.724238474895377e-01	 1.353132596579229e+01
 1.054012448698681e+00	 3.932972896413123e-01	 1.323481939335576e+01
 1.046011838709305e+00	 4.141065482781622e-01	 1.292416336216594e+01
 9.297883010302649e-01	 3.680947095640363e-01	 1.443105836487202e+01
 9.222799379563009e-01	 3.865225944039564e-01	 1.388094432008242e+01
 9.143747236862125e-01	 4.048689474701951e-01	 1.331723141016466e+01
 9.060730098564396e-01	 4.231213782743761e-01	 1.274255916945292e+01
 8.973756499704220e-01	 4.412674277413337e-01	 1.215963134845603e+01
 8.882840068073012e-01	 4.592945930433334e-01	 1.157120645076563e+01
 8.787999583847406e-01	 4.771903531042267e-01	 1.098008776918626e+01
 8.689259024143142e-01	 4.949421946770166e-01	 1.038911297262280e+01
 8.586647591951593e-01	 5.125376388923134e-01	 9.801143300475296e+00
 8.480199728994641e-01	 5.299642681697645e-01	 9.219052426098820e+00
 8.369955112118155e-01	 5.472097533798151e-01	 8.645715055218760e+00
 9.414106548025766e-01	 3.726958934376526e-01	 1.416926521375379e+01
 9.338084371907733e-01	 3.913541268386016e-01	 1.365072566295299e+01
 9.258044077427657e-01	 4.099298093186076e-01	 1.311858838147481e+01
 9.173989224904455e-01	 4.284103955081879e-01	 1.257534507374881e+01
 9.085928456060454e-01	 4.467832705937361e-01	 1.202354991517128e+01
 8.993875569034437e-01	 4.650357754621704e-01	 1.146581064516919e+01
 8.897849578755234e-01	 4.831552325238889e-01	 1.090477917925924e+01
 8.797874762052527e-01	 5.011289721163065e-01	 1.034314178843150e+01
 8.693980686955066e-01	 5.189443593841651e-01	 9.783608899165882e+00
 8.586202225706245e-01	 5.365888215273571e-01	 9.228904571991258e+00
 8.474579551112504e-01	 5.540498753022077e-01	 8.681755720655511e+00
 9.530330085739085e-01	 3.772970773107793e-01	 1.393456954113777e+01
 9.453369364240809e-01	 3.961856592726618e-01	 1.344600229186260e+01
 9.372340917979960e-01	 4.149906711663489e-01	 1.294384297795067e+01
 9.287248351230007e-01	 4.336994127412525e-01	 1.243043844638355e+01
 9.198100412401194e-01	 4.522991134453253e-01	 1.190819630327261e+01
 9.104911069979682e-01	 4.707769578801373e-01	 1.137957655330980e+01
 9.007699573646499e-01	 4.891201119426346e-01	 1.084708277763553e+01
 8.906490499945261e-01	 5.073157495546431e-01	 1.031325289529773e+01
 8.801313781942111e-01	 5.253510798750376e-01	 9.780649558227189e+00
 8.692204722401954e-01	 5.432133748839548e-01	 9.251850234051398e+00
 8.579203990091799e-01	 5.608899972236004e-01	 8.729437035056042e+00
 9.646553623442610e-01	 3.818982611834161e-01	 1.372599228215368e+01
 9.568654356562231e-01	 4.010171917061370e-01	 1.326585305582554e+01
 9.486637758519040e-01	 4.200515330134196e-01	 1.279213179839731e+01
 9.400507477541058e-01	 4.389884299735700e-01	 1.230703336441118e+01
 9.310272368726441e-01	 4.578149562961006e-01	 1.181282168786671e+01
 9.215946570908742e-01	 4.765181402972340e-01	 1.131181195864363e+01
 9.117549568521194e-01	 4.950849913604636e-01	 1.080636235642295e+01
 9.015106237821341e-01	 5.135025269920270e-01	 1.029886538417845e+01
 8.908646876912724e-01	 5.317578003649310e-01	 9.791738847832963e+00
 8.798207219081765e-01	 5.498379282395579e-01	 9.287416532874632e+00
 8.683828429056041e-01	 5.677301191439930e-01	 8.788338632542475e+00
 9.762777161136343e-01	 3.864994450555633e-01	 1.354260099315725e+01
 9.683939348872000e-01	 4.058487241390272e-01	 1.310940066725476e+01
 9.600934599044899e-01	 4.251123948598194e-01	 1.266263255500816e+01
 9.513766603837601e-01	 4.442774472051405e-01	 1.220436228119719e+01
 9.422444325036197e-01	 4.633307991460626e-01	 1.173671290140283e+01
 9.326982071821625e-01	 4.822593227134609e-01	 1.126185760632248e+01
 9.227399563379315e-01	 5.010498707773759e-01	 1.078201200233832e+01
 9.123721975680773e-01	 5.196893044284582e-01	 1.029942600735607e+01
 9.015979971866909e-01	 5.381645208538457e-01	 9.816375405232101e+00
 8.904209715745676e-01	 5.564624815941661e-01	 9.335153106112417e+00
 8.788452868005231e-01	 5.745702410633855e-01	 8.858060163653324e+00
 9.879000698820278e-01	 3.911006289272207e-01	 1.338350710930535e+01
 9.799224341170119e-01	 4.106802565713322e-01	 1.297580912176221e+01
 9.715231439557533e-01	 4.301732567055483e-01	 1.255456165493055e+01
 9.627025730119644e-01	 4.495664644359640e-01	 1.212169376898887e+01
 9.534616281330460e-01	 4.688466419952109e-01	 1.167919033618202e+01
 9.438017572718324e-01	 4.880005051288175e-01	 1.122908526427048e+01
 9.337249558220870e-01	 5.070147501933717e-01	 1.077345431467147e+01
 9.232337713523547e-01	 5.258760818639360e-01	 1.031440755130160e+01
 9.123313066804664e-01	 5.445712413417811e-01	 9.854081460214694e+00
 9.010212212393695e-01	 5.630870349477797e-01	 9.394630783939812e+00
 8.893077306939365e-01	 5.814103629817780e-01	 8.938220117907072e+00
 9.995224236494423e-01	 3.957018127983884e-01	 1.324786339346271e+01
 9.914509333456585e-01	 4.155117890030526e-01	 1.286428129797265e+01
 9.829528280056942e-01	 4.352341185506064e-01	 1.246717195055902e+01
 9.740284856387178e-01	 4.548554816660403e-01	 1.205833041898001e+01
 9.646788237609235e-01	 4.743624848435458e-01	 1.163960599320290e+01
 9.549053073598841e-01	 4.937416875433039e-01	 1.121289591953467e+01
 9.447099553045856e-01	 5.129796296084510e-01	 1.078013874757761e+01
 9.340953451349669e-01	 5.320628592984610e-01	 1.034330732305899e+01
 9.230646161725991e-01	 5.509779618287377e-01	 9.904401463452755e+00
 9.116214709025816e-01	 5.697115883003986e-01	 9.465440356931877e+00
 8.997701745858451e-01	 5.882504848991706e-01	 9.028454728512697e+00
 1.011144777415877e+00	 4.003029966690664e-01	 1.313486156104639e+01
 1.002979432573140e+00	 4.203433214341877e-01	 1.277405672286786e+01
 9.943825120543131e-01	 4.402949803949937e-01	 1.239975064498088e+01
 9.853543982640206e-01	 4.601444988953695e-01	 1.201360688619909e+01
 9.758960193872512e-01	 4.798783276910670e-01	 1.161734166556991e+01
 9.660088574463180e-01	 4.994828699569205e-01	 1.121271809902491e+01
 9.556949547854272e-01	 5.189445090226136e-01	 1.080154006669421e+01
 9.449569189159139e-01	 5.382496367320331e-01	 1.038564574101697e+01
 9.337979256630885e-01	 5.573846823147149e-01	 9.966900809438012e+00
 9.222217205642039e-01	 5.763361416520226e-01	 9.547191428914237e+00
 9.102326184762480e-01	 5.950906068155633e-01	 9.128416952617318e+00
 1.022767131181332e+00	 4.049041805392548e-01	 1.304373006681255e+01
 1.014507931799456e+00	 4.251748538647378e-01	 1.270440948949352e+01
 1.005812196101609e+00	 4.453558422387101e-01	 1.235161734023230e+01
 9.966803108878730e-01	 4.654335161239517e-01	 1.198688806770058e+01
 9.871132150120300e-01	 4.853941705377748e-01	 1.161180724575999e+01
 9.771124075311334e-01	 5.052240523696667e-01	 1.122800630474907e+01
 9.666799542646118e-01	 5.249093884358594e-01	 1.083715691098867e+01
 9.558184926951958e-01	 5.444364141646523e-01	 1.044096502176423e+01
 9.445312351519353e-01	 5.637914027997134e-01	 1.004116464649215e+01
 9.328219702242366e-01	 5.829606950026520e-01	 9.639511348028378e+00
 9.206950623651458e-01	 6.019307287309560e-01	 9.237775521082378e+00
 1.034389484945809e+00	 4.095053644089534e-01	 1.297373204084862e+01
 1.026036431024607e+00	 4.300063862947030e-01	 1.265464631504563e+01
 1.017241880147583e+00	 4.504167040817556e-01	 1.232212221713267e+01
 1.008006223510275e+00	 4.707225333517867e-01	 1.197756740357462e+01
 9.983304106352595e-01	 4.909100133836690e-01	 1.162243914700612e+01
 9.882159576143311e-01	 5.109652347815431e-01	 1.125823955453772e+01
 9.776649537421397e-01	 5.308742678481889e-01	 1.088651045155996e+01
 9.666800664728121e-01	 5.506231915963183e-01	 1.050882795547160e+01
 9.552645446391390e-01	 5.701981232837328e-01	 1.012679676700100e+01
 9.434222198826796e-01	 5.895852483522865e-01	 9.742044209860008e+00
 9.311575062525380e-01	 6.087708506453484e-01	 9.356214052319988e+00
 1.046011838709305e+00	 4.141065482781622e-01	 1.292416336216594e+01
 1.037564930248593e+00	 4.348379187240830e-01	 1.262410472841754e+01
 1.028671564192235e+00	 4.554775659241303e-01	 1.231064433646323e+01
 1.019332136131226e+00	 4.760115505788748e-01	 1.198506529122283e+01
 1.009547606256940e+00	 4.964258562287497e-01	 1.164869882992206e+01
 9.993195076959104e-01	 5.167064171925492e-01	 1.130292002005408e+01
 9.886499532180107e-01	 5.368391472596017e-01	 1.094914313985349e+01
 9.775416402487633e-01	 5.568099690270316e-01	 1.058881676291519e+01
 9.659978541247000e-01	 5.766048437667730e-01	 1.022341857163331e+01
 9.540224695395332e-01	 5.962098017009265e-01	 9.854449927025472e+00
 9.416199501384250e-01	 6.156109725587411e-01	 9.483430225206710e+00
 8.369955112118155e-01	 5.472097533798151e-01	 8.645715055218760e+00
 8.255958632931958e-01	 5.642618811384013e-01	 8.076042009649841e+00
 8.138260360506314e-01	 5.811085811170719e-01	 7.510748315116103e+00
 8.016915487021741e-01	 5.977379532449607e-01	 6.952741043667835e+00
 7.891984256370140e-01	 6.141382946773878e-01	 6.404920106208893e+00
 7.763531875817183e-01	 6.302981264093361e-01	 5.870166481512777e+00
 7.631628410930560e-01	 6.462062194093811e-01	 5.351330425290473e+00
 7.496348664083717e-01	 6.618516201518141e-01	 4.851219737137429e+00
 7.357772036946522e-01	 6.772236754270479e-01	 4.372588163595392e+00
 7.215982377473873e-01	 6.923120563137026e-01	 3.918124015182103e+00
 7.071067811999999e-01	 7.071067811999999e-01	 3.490439074061921e+00
 8.474579551112504e-01	 5.540498753022077e-01	 8.681755720655511e+00
 8.359158115929692e-01	 5.713151546574315e-01	 8.138285866451387e+00
 8.239988615092374e-01	 5.883724383855524e-01	 7.598422847567540e+00
 8.117126930683318e-01	 6.052096776648181e-01	 7.064929825509975e+00
 7.990634059643095e-01	 6.218150233649912e-01	 6.540564602174660e+00
 7.860576024328196e-01	 6.381768529934919e-01	 6.028068441461975e+00
 7.727023766125910e-01	 6.542837971560034e-01	 5.530154864987737e+00
 7.590053022439359e-01	 6.701247654077456e-01	 5.049498495764105e+00
 7.449744187459286e-01	 6.856889713740123e-01	 4.588724024170686e+00
 7.306182157240029e-01	 7.009659570219055e-01	 4.150395370225438e+00
 7.159456159695000e-01	 7.159456159695000e-01	 3.737005115102626e+00
 8.579203990091799e-01	 5.608899972236004e-01	 8.729437035056042e+00
 8.462357598913327e-01	 5.783684281754621e-01	 8.210674688071572e+00
 8.341716869665182e-01	 5.956362956530330e-01	 7.694763669994226e+00
 8.217338374332409e-01	 6.126814020836755e-01	 7.184326148483711e+00
 8.089283862904220e-01	 6.294917520515947e-01	 6.681980705335392e+00
 7.957620172827934e-01	 6.460555795766478e-01	 6.190331740133885e+00
 7.822419121310444e-01	 6.623613749016258e-01	 5.711958842123595e+00
 7.683757380784541e-01	 6.783979106626776e-01	 5.249406200282957e+00
 7.541716337961848e-01	 6.941542673199765e-01	 4.805172122072338e+00
 7.396381936996136e-01	 7.096198577291084e-01	 4.381698731089206e+00
 7.247844507379998e-01	 7.247844507379999e-01	 3.981361912913502e+00
 8.683828429056041e-01	 5.677301191439930e-01	 8.788338632542475e+00
 8.565557081882860e-01	 5.854217016924925e-01	 8.292842169378979e+00
 8.443445124224748e-01	 6.029001529195133e-01	 7.799457922824187e+00
 8.317549817969009e-01	 6.201531265015331e-01	 7.310669877959484e+00
 8.187933666153511e-01	 6.371684807371980e-01	 6.828960180961507e+00
 8.054664321316400e-01	 6.539343061588038e-01	 6.356799114618084e+00
 7.917814476484165e-01	 6.704389526462485e-01	 5.896635036252861e+00
 7.777461739119264e-01	 6.866710559166093e-01	 5.450884344226444e+00
 7.633688488454204e-01	 7.026195632649410e-01	 5.021921539695330e+00
 7.486581716742190e-01	 7.182737584353109e-01	 4.612069450149793e+00
 7.336232855055000e-01	 7.336232855055000e-01	 4.223589680412232e+00
 8.788452868005231e-01	 5.745702410633855e-01	 8.858060163653324e+00
 8.668756564838288e-01	 5.924749752085229e-01	 8.384439447344286e+00
 8.545173378771065e-01	 6.101640101849937e-01	 7.912207643571055e+00
 8.417761261593122e-01	 6.276248509183908e-01	 7.443713265694684e+00
 8.286583469390975e-01	 6.448452094218015e-01	 6.981304709302465e+00
 8.151708469793590e-01	 6.618130327399596e-01	 6.527320789771718e+00
 8.013209831647067e-01	 6.785165303898708e-01	 6.084081236505811e+00
 7.871166097443530e-01	 6.949442011695413e-01	 5.653877206250570e+00
 7.725660638936355e-01	 7.110848592089053e-01	 5.238961878447173e+00
 7.576781496478195e-01	 7.269276591405139e-01	 4.841541195491462e+00
 7.424621202719999e-01	 7.424621202720001e-01	 4.463764810037507e+00
 8.893077306939365e-01	 5.814103629817780e-01	 8.938220117907072e+00
 8.771956047779617e-01	 5.995282487235530e-01	 8.485134075034290e+00
 8.646901633304135e-01	 6.174278674494742e-01	 8.032728890534798e+00
 8.517972705204740e-01	 6.350965753342479e-01	 7.583220221222684e+00
 8.385233272616601e-01	 6.525219381054047e-01	 7.138825302352068e+00
 8.248752618259512e-01	 6.696917593201157e-01	 6.701754037762370e+00
 8.108605186799150e-01	 6.865941081324930e-01	 6.274200041025211e+00
 7.964870455757337e-01	 7.032173464214730e-01	 5.858331686304240e+00
 7.817632789408300e-01	 7.195501551518694e-01	 5.456283228218131e+00
 7.666981276204146e-01	 7.355815598447166e-01	 5.070146049982257e+00
 7.513009550375001e-01	 7.513009550375001e-01	 4.701960098482973e+00
 8.997701745858451e-01	 5.882504848991706e-01	 9.028454728512697e+00
 8.875155530706845e-01	 6.065815222375835e-01	 8.594609067187799e+00
 8.748629887823961e-01	 6.246917247129546e-01	 8.160750927639905e+00
 8.618184148803874e-01	 6.425682997491056e-01	 7.728965634074862e+00
 8.483883075830400e-01	 6.601986667880082e-01	 7.301341761305682e+00
 8.345796766714155e-01	 6.775704858992714e-01	 6.879962768341046e+00
 8.204000541940423e-01	 6.946716858741154e-01	 6.466898577372451e+00
 8.058574814060682e-01	 7.114904916724046e-01	 6.064197153228545e+00
 7.909604939870044e-01	 7.280154510938338e-01	 5.673876138980839e+00
 7.757181055920049e-01	 7.442354605479196e-01	 5.297914603437730e+00
 7.601397898020000e-01	 7.601397898019999e-01	 4.938244955752295e+00
 9.102326184762480e-01	 5.950906068155633e-01	 9.128416952617318e+00
 8.978355013619972e-01	 6.136347957506137e-01	 8.712562011613651e+00
 8.850358142330540e-01	 6.319555819754350e-01	 8.296015465491211e+00
 8.718395592390517e-01	 6.500400241629630e-01	 7.880734742746735e+00
 8.582532879032364e-01	 6.678753954696115e-01	 7.468682171433473e+00
 8.442840915157530e-01	 6.854492124774274e-01	 7.061817147371594e+00
 8.299395897070877e-01	 7.027492636147378e-01	 6.662088242216058e+00
 8.152279172353567e-01	 7.197636369223365e-01	 6.271425302866294e+00
 8.001577090321583e-01	 7.364807470347983e-01	 5.891731594348924e+00
 7.847380835625897e-01	 7.528893612501224e-01	 5.524876038428685e+00
 7.689786245654999e-01	 7.689786245654999e-01	 5.172685599796443e+00
 9.206950623651458e-01	 6.019307287309560e-01	 9.237775521082378e+00
 9.081554496518998e-01	 6.206880692626442e-01	 8.838704241175408e+00
 8.952086396823874e-01	 6.392194392369155e-01	 8.438275954176341e+00
 8.818607035964670e-01	 6.575117485758205e-01	 8.038322546688155e+00
 8.681182682222500e-01	 6.755521241502151e-01	 7.640682431394395e+00
 8.539885063589624e-01	 6.933279390545832e-01	 7.247193241369746e+00
 8.394791252190520e-01	 7.108268413543603e-01	 6.859684458768928e+00
 8.245983530635995e-01	 7.280367821712683e-01	 6.479970025846074e+00
 8.093549240762918e-01	 7.449460429747625e-01	 6.109840986938148e+00
 7.937580615321697e-01	 7.615432619513252e-01	 5.751058210238051e+00
 7.778174593279999e-01	 7.778174593279999e-01	 5.405345237880284e+00
 9.311575062525380e-01	 6.087708506453484e-01	 9.356214052319988e+00
 9.184753979403921e-01	 6.277413427736747e-01	 8.972760061597398e+00
 9.053814651303959e-01	 6.464832964973959e-01	 8.587296923744097e+00
 8.918818479526330e-01	 6.649834729876779e-01	 8.201533257935390e+00
 8.779832485400803e-01	 6.832288528298185e-01	 7.817185814281714e+00
 8.636929212010450e-01	 7.012066656307392e-01	 7.435972686005993e+00
 8.490186607299344e-01	 7.189044190929826e-01	 7.059606450577876e+00
 8.339687888907961e-01	 7.363099274192001e-01	 6.689787284279577e+00
 8.185521391194046e-01	 7.534113389137267e-01	 6.328196095388999e+00
 8.027780395007446e-01	 7.701971626515282e-01	 5.976487721427793e+00
 7.866562940895000e-01	 7.866562940895000e-01	 5.636284235722353e+00
 9.416199501384250e-01	 6.156109725587411e-01	 9.483430225206710e+00
 9.287953462274744e-01	 6.347946162837050e-01	 9.114466030750016e+00
 9.155542905770797e-01	 6.537471537568762e-01	 8.742853368651090e+00
 9.019029923075504e-01	 6.724551973985354e-01	 8.370179789300536e+00
 8.878482288567273e-01	 6.909055815084219e-01	 7.998042557932342e+00
 8.733973360420002e-01	 7.090853922058951e-01	 7.628042376707932e+00
 8.585581962397351e-01	 7.269819968306050e-01	 7.261777030394018e+00
 8.433392247169470e-01	 7.445830726661317e-01	 6.900834996679420e+00
 8.277493541614975e-01	 7.618766348516912e-01	 6.546789062920652e+00
 8.117980174683143e-01	 7.788510633507310e-01	 6.201189991434431e+00
 7.954951288500001e-01	 7.954951288500001e-01	 5.865560275358468e+00
 7.071067811999999e-01	 7.071067811999999e-01	 3.490439074061921e+00
 6.923120563137025e-01	 7.215982377473872e-01	 3.094219983434361e+00
 6.772236754270478e-01	 7.357772036946522e-01	 2.712887152222093e+00
 6.618516201518141e-01	 7.496348664083716e-01	 2.348465818362030e+00
 6.462062194093813e-01	 7.631628410930559e-01	 2.002929378463093e+00
 6.302981264093362e-01	 7.763531875817182e-01	 1.678191602533205e+00
 6.141382946773881e-01	 7.891984256370137e-01	 1.376099181027083e+00
 5.977379532449610e-01	 8.016915487021739e-01	 1.098424651335818e+00
 5.811085811170723e-01	 8.138260360506312e-01	 8.468597473938544e-01
 5.642618811384018e-01	 8.255958632931955e-01	 6.230092122278877e-01
 5.472097533798151e-01	 8.369955112118155e-01	 4.283851090623295e-01
 7.159456159695000e-01	 7.159456159695000e-01	 3.737005115102626e+00
 7.009659570219053e-01	 7.306182157240030e-01	 3.350120234256527e+00
 6.856889713740122e-01	 7.449744187459286e-01	 2.977229316855639e+00
 6.701247654077458e-01	 7.590053022439357e-01	 2.620276109477596e+00
 6.542837971560036e-01	 7.727023766125908e-01	 2.281155425723085e+00
 6.381768529934920e-01	 7.860576024328195e-01	 1.961705678232923e+00
 6.218150233649915e-01	 7.990634059643091e-01	 1.663701725510536e+00
 6.052096776648186e-01	 8.117126930683318e-01	 1.388848078773997e+00
 5.883724383855530e-01	 8.239988615092370e-01	 1.138772510792349e+00
 5.713151546574324e-01	 8.359158115929688e-01	 9.150201049939214e-01
 5.540498753022077e-01	 8.474579551112504e-01	 7.190477791292836e-01
 7.247844507379998e-01	 7.247844507379999e-01	 3.981361912913502e+00
 7.096198577291083e-01	 7.396381936996136e-01	 3.602858726681420e+00
 6.941542673199766e-01	 7.541716337961849e-01	 3.237472475481122e+00
 6.783979106626776e-01	 7.683757380784542e-01	 2.887067206417445e+00
 6.623613749016261e-01	 7.822419121310443e-01	 2.553460894573805e+00
 6.460555795766482e-01	 7.957620172827933e-01	 2.238418286251585e+00
 6.294917520515949e-01	 8.089283862904216e-01	 1.943644039782990e+00
 6.126814020836757e-01	 8.217338374332406e-01	 1.670776207281159e+00
 5.956362956530332e-01	 8.341716869665180e-01	 1.421380097589105e+00
 5.783684281754625e-01	 8.462357598913323e-01	 1.196942557211482e+00
 5.608899972236003e-01	 8.579203990091798e-01	 9.988667022023907e-01
 7.336232855055000e-01	 7.336232855055000e-01	 4.223589680412232e+00
 7.182737584353108e-01	 7.486581716742190e-01	 3.852550097565389e+00
 7.026195632649409e-01	 7.633688488454202e-01	 3.493765136614734e+00
 6.866710559166094e-01	 7.777461739119265e-01	 3.149020872311676e+00
 6.704389526462485e-01	 7.917814476484162e-01	 2.820060122659878e+00
 6.539343061588040e-01	 8.054664321316398e-01	 2.508575597528767e+00
 6.371684807371982e-01	 8.187933666153508e-01	 2.216203327882408e+00
 6.201531265015334e-01	 8.317549817969007e-01	 1.944516417159017e+00
 6.029001529195136e-01	 8.443445124224743e-01	 1.695019153402897e+00
 5.854217016924929e-01	 8.565557081882855e-01	 1.469141517453325e+00
 5.677301191439930e-01	 8.683828429056042e-01	 1.268234118881322e+00
 7.424621202719999e-01	 7.424621202720001e-01	 4.463764810037507e+00
 7.269276591405137e-01	 7.576781496478194e-01	 4.099303524081747e+00
 7.110848592089053e-01	 7.725660638936355e-01	 3.746248736186183e+00
 6.949442011695413e-01	 7.871166097443529e-01	 3.406310214185007e+00
 6.785165303898705e-01	 8.013209831647063e-01	 3.081157240388436e+00
 6.618130327399598e-01	 8.151708469793592e-01	 2.772412059931824e+00
 6.448452094218017e-01	 8.286583469390970e-01	 2.481643593044723e+00
 6.276248509183910e-01	 8.417761261593117e-01	 2.210361450980191e+00
 6.101640101849942e-01	 8.545173378771063e-01	 1.960010292574859e+00
 5.924749752085233e-01	 8.668756564838282e-01	 1.731964555292980e+00
 5.745702410633855e-01	 8.788452868005230e-01	 1.527523591184928e+00
 7.513009550375001e-01	 7.513009550375001e-01	 4.701960098482973e+00
 7.355815598447167e-01	 7.666981276204147e-01	 4.343223044878507e+00
 7.195501551518695e-01	 7.817632789408299e-01	 3.995058053573330e+00
 7.032173464214733e-01	 7.964870455757336e-01	 3.659100192139385e+00
 6.865941081324931e-01	 8.108605186799150e-01	 3.336946771354758e+00
 6.696917593201157e-01	 8.248752618259508e-01	 3.030151087848098e+00
 6.525219381054053e-01	 8.385233272616602e-01	 2.740216414221771e+00
 6.350965753342483e-01	 8.517972705204742e-01	 2.468590274630937e+00
 6.174278674494746e-01	 8.646901633304133e-01	 2.216659041184942e+00
 5.995282487235538e-01	 8.771956047779614e-01	 1.985742883599133e+00
 5.814103629817781e-01	 8.893077306939365e-01	 1.777091101290818e+00
 7.601397898020000e-01	 7.601397898019999e-01	 4.938244955752295e+00
 7.442354605479196e-01	 7.757181055920047e-01	 4.584407858829969e+00
 7.280154510938339e-01	 7.909604939870044e-01	 4.240321598610730e+00
 7.114904916724047e-01	 8.058574814060682e-01	 3.907548093012242e+00
 6.946716858741158e-01	 8.204000541940424e-01	 3.587614190878003e+00
 6.775704858992717e-01	 8.345796766714155e-01	 3.282005703666336e+00
 6.601986667880085e-01	 8.483883075830395e-01	 2.992161668423366e+00
 6.425682997491058e-01	 8.618184148803871e-01	 2.719468878281536e+00
 6.246917247129552e-01	 8.748629887823960e-01	 2.465256714276279e+00
 6.065815222375840e-01	 8.875155530706840e-01	 2.230792309506764e+00
 5.882504848991708e-01	 8.997701745858451e-01	 2.017276073619687e+00
 7.689786245654999e-01	 7.689786245654999e-01	 5.172685599796443e+00
 7.528893612501225e-01	 7.847380835625901e-01	 4.822952603184564e+00
 7.364807470347983e-01	 8.001577090321584e-01	 4.482161971908336e+00
 7.197636369223366e-01	 8.152279172353567e-01	 4.151803971368800e+00
 7.027492636147382e-01	 8.299395897070879e-01	 3.833336446016936e+00
 6.854492124774276e-01	 8.442840915157526e-01	 3.528179135018213e+00
 6.678753954696118e-01	 8.582532879032362e-01	 3.237708203242647e+00
 6.500400241629634e-01	 8.718395592390513e-01	 2.963251022116851e+00
 6.319555819754356e-01	 8.850358142330536e-01	 2.706081232581619e+00
 6.136347957506144e-01	 8.978355013619969e-01	 2.467414119804157e+00
 5.950906068155634e-01	 9.102326184762480e-01	 2.248402326430057e+00
 7.778174593279999e-01	 7.778174593279999e-01	 5.405345237880284e+00
 7.615432619513252e-01	 7.937580615321698e-01	 5.058947612748247e+00
 7.449460429747624e-01	 8.093549240762917e-01	 4.720696200602877e+00
 7.280367821712684e-01	 8.245983530635994e-01	 4.392011060426440e+00
 7.108268413543607e-01	 8.394791252190520e-01	 4.074282440130246e+00
 6.933279390545833e-01	 8.539885063589621e-01	 3.768865371298417e+00
 6.755521241502154e-01	 8.681182682222498e-01	 3.477074463527682e+00
 6.575117485758207e-01	 8.818607035964664e-01	 3.200178931222082e+00
 6.392194392369160e-01	 8.952086396823867e-01	 2.939397883563465e+00
 6.206880692626449e-01	 9.081554496518994e-01	 2.695895905952589e+00
 6.019307287309560e-01	 9.206950623651458e-01	 2.470778958532356e+00
 7.866562940895000e-01	 7.866562940895000e-01	 5.636284235722353e+00
 7.701971626515279e-01	 8.027780395007448e-01	 5.292479161594506e+00
 7.534113389137267e-01	 8.185521391194046e-01	 4.956036051474406e+00
 7.363099274192003e-01	 8.339687888907965e-01	 4.628306155276794e+00
 7.189044190929827e-01	 8.490186607299340e-01	 4.310613484769844e+00
 7.012066656307393e-01	 8.636929212010448e-01	 4.004249682666774e+00
 6.832288528298186e-01	 8.779832485400799e-01	 3.710469075805009e+00
 6.649834729876783e-01	 8.918818479526329e-01	 3.430483943621797e+00
 6.464832964973964e-01	 9.053814651303955e-01	 3.165460031148561e+00
 6.277413427736752e-01	 9.184753979403918e-01	 2.916512333486668e+00
 6.087708506453484e-01	 9.311575062525379e-01	 2.684701176224100e+00
 7.954951288500001e-01	 7.954951288500001e-01	 5.865560275358468e+00
 7.788510633507308e-01	 8.117980174683144e-01	 5.523629688660897e+00
 7.618766348516911e-01	 8.277493541614976e-01	 5.188288323188243e+00
 7.445830726661320e-01	 8.433392247169471e-01	 4.860819970559106e+00
 7.269819968306053e-01	 8.585581962397351e-01	 4.542483721447874e+00
 7.090853922058953e-01	 8.733973360420000e-01	 4.234509104450169e+00
 6.909055815084221e-01	 8.878482288567272e-01	 3.938091393742240e+00
 6.724551973985359e-01	 9.019029923075501e-01	 3.654387115117031e+00
 6.537471537568769e-01	 9.155542905770793e-01	 3.384509778146390e+00
 6.347946162837055e-01	 9.287953462274742e-01	 3.129525860121530e+00
 6.156109725587411e-01	 9.416199501384250e-01	 2.890451065096080e+00
 5.472097533798151e-01	 8.369955112118155e-01	 4.283851090623295e-01
 5.299642681697644e-01	 8.480199728994640e-01	 2.703599531387961e-01
 5.125376388923134e-01	 8.586647591951594e-01	 1.243367711591358e-01
 4.949421946770166e-01	 8.689259024143141e-01	-8.857028717418447e-03
 4.771903531042269e-01	 8.787999583847403e-01	-1.284238474932279e-01
 4.592945930433337e-01	 8.882840068073012e-01	-2.335988066865623e-01
 4.412674277413340e-01	 8.973756499704219e-01	-3.236524618038020e-01
 4.231213782743766e-01	 9.060730098564395e-01	-3.978933040402811e-01
 4.048689474701956e-01	 9.143747236862123e-01	-4.556700383184493e-01
 3.865225944039570e-01	 9.222799379563006e-01	-4.963736278358188e-01
 3.680947095640363e-01	 9.297883010302649e-01	-5.194390973935862e-01
 5.540498753022077e-01	 8.474579551112504e-01	 7.190477791292836e-01
 5.365888215273570e-01	 8.586202225706244e-01	 5.530204849644876e-01
 5.189443593841651e-01	 8.693980686955066e-01	 3.988598491210500e-01
 5.011289721163066e-01	 8.797874762052528e-01	 2.573762759993768e-01
 4.831552325238891e-01	 8.897849578755235e-01	 1.293503639331714e-01
 4.650357754621707e-01	 8.993875569034435e-01	 1.553008302516945e-02
 4.467832705937365e-01	 9.085928456060449e-01	-8.337185079293352e-02
 4.284103955081883e-01	 9.173989224904452e-01	-1.666803921726231e-01
 4.099298093186080e-01	 9.258044077427652e-01	-2.337603618915157e-01
 3.913541268386022e-01	 9.338084371907733e-01	-2.840184122155708e-01
 3.726958934376526e-01	 9.414106548025766e-01	-3.169047548226678e-01
 5.608899972236003e-01	 8.579203990091798e-01	 9.988667022023907e-01
 5.432133748839548e-01	 8.692204722401957e-01	 8.245163028937748e-01
 5.253510798750377e-01	 8.801313781942111e-01	 6.618928878056831e-01
 5.073157495546432e-01	 8.906490499945261e-01	 5.117904999850096e-01
 4.891201119426348e-01	 9.007699573646497e-01	 3.749733813004100e-01
 4.707769578801375e-01	 9.104911069979682e-01	 2.521732371987586e-01
 4.522991134453255e-01	 9.198100412401192e-01	 1.440866960712898e-01
 4.336994127412528e-01	 9.287248351230004e-01	 5.137297596382107e-02
 4.149906711663495e-01	 9.372340917979960e-01	-2.534823057151958e-02
 3.961856592726625e-01	 9.453369364240807e-01	-8.549864467064494e-02
 3.772970773107793e-01	 9.530330085739084e-01	-1.285430556045424e-01
 5.677301191439930e-01	 8.683828429056042e-01	 1.268234118881322e+00
 5.498379282395577e-01	 8.798207219081762e-01	 1.085251240124702e+00
 5.317578003649310e-01	 8.908646876912723e-01	 9.138514701469653e-01
 5.135025269920271e-01	 9.015106237821341e-01	 7.548131098374073e-01
 4.950849913604638e-01	 9.117549568521192e-01	 6.088846655252623e-01
 4.765181402972344e-01	 9.215946570908742e-01	 4.767821984690127e-01
 4.578149562961010e-01	 9.310272368726438e-01	 3.591868673852795e-01
 4.389884299735704e-01	 9.400507477541058e-01	 2.567426761902150e-01
 4.200515330134201e-01	 9.486637758519038e-01	 1.700544372242536e-01
 4.010171917061375e-01	 9.568654356562227e-01	 9.968595827912896e-02
 3.818982611834161e-01	 9.646553623442610e-01	 4.615845976803534e-02
 5.745702410633855e-01	 8.788452868005230e-01	 1.527523591184928e+00
 5.564624815941662e-01	 8.904209715745679e-01	 1.335609899283930e+00
 5.381645208538457e-01	 9.015979971866910e-01	 1.155131389033969e+00
 5.196893044284583e-01	 9.123721975680770e-01	 9.868512162579585e-01
 5.010498707773762e-01	 9.227399563379314e-01	 8.315027505058817e-01
 4.822593227134611e-01	 9.326982071821623e-01	 6.897870071681149e-01
 4.633307991460628e-01	 9.422444325036196e-01	 5.623702710977333e-01
 4.442774472051409e-01	 9.513766603837600e-01	 4.498819233691818e-01
 4.251123948598199e-01	 9.600934599044898e-01	 3.529124809250206e-01
 4.058487241390278e-01	 9.683939348871998e-01	 2.720118569473922e-01
 3.864994450555633e-01	 9.762777161136343e-01	 2.076878478534137e-01
 5.814103629817781e-01	 8.893077306939365e-01	 1.777091101290818e+00
 5.630870349477796e-01	 9.010212212393696e-01	 1.575958783636757e+00
 5.445712413417813e-01	 9.123313066804662e-01	 1.386109811431193e+00
 5.258760818639362e-01	 9.232337713523550e-01	 1.208292771457147e+00
 5.070147501933719e-01	 9.337249558220868e-01	 1.043226474123729e+00
 4.880005051288177e-01	 9.438017572718324e-01	 8.915974661668604e-01
 4.688466419952113e-01	 9.534616281330459e-01	 7.540577333714903e-01
 4.495664644359644e-01	 9.627025730119640e-01	 6.312226044024944e-01
 4.301732567055489e-01	 9.715231439557529e-01	 5.236688649918535e-01
 4.106802565713329e-01	 9.799224341170115e-01	 4.319330898446492e-01
 3.911006289272207e-01	 9.879000698820278e-01	 3.565101977292551e-01
 5.882504848991708e-01	 8.997701745858451e-01	 2.017276073619687e+00
 5.697115883003985e-01	 9.116214709025819e-01	 1.806647349375689e+00
 5.509779618287376e-01	 9.230646161725989e-01	 1.607146361281002e+00
 5.320628592984612e-01	 9.340953451349671e-01	 1.419507683020510e+00
 5.129796296084511e-01	 9.447099553045852e-01	 1.244436123360110e+00
 4.937416875433043e-01	 9.549053073598841e-01	 1.082604317471449e+00
 4.743624848435461e-01	 9.646788237609232e-01	 9.346505068270439e-01
 4.548554816660406e-01	 9.740284856387172e-01	 8.011765182288404e-01
 4.352341185506070e-01	 9.829528280056942e-01	 6.827459507184610e-01
 4.155117890030531e-01	 9.914509333456581e-01	 5.798825772709848e-01
 3.957018127983884e-01	 9.995224236494423e-01	 4.930689663107033e-01
 5.950906068155634e-01	 9.102326184762480e-01	 2.248402326430057e+00
 5.763361416520227e-01	 9.222217205642042e-01	 2.028008985337149e+00
 5.573846823147151e-01	 9.337979256630887e-01	 1.818584127723368e+00
 5.382496367320332e-01	 9.449569189159140e-01	 1.620848850955778e+00
 5.189445090226138e-01	 9.556949547854271e-01	 1.435494500440519e+00
 4.994828699569208e-01	 9.660088574463179e-01	 1.263180337675284e+00
 4.798783276910674e-01	 9.758960193872510e-01	 1.104531395458748e+00
 4.601444988953700e-01	 9.853543982640203e-01	 9.601365303043858e-01
 4.402949803949942e-01	 9.943825120543127e-01	 8.305466803209367e-01
 4.203433214341882e-01	 1.002979432573140e+00	 7.162733350065498e-01
 4.003029966690664e-01	 1.011144777415877e+00	 6.177872215783484e-01
 6.019307287309560e-01	 9.206950623651458e-01	 2.470778958532356e+00
 5.829606950026519e-01	 9.328219702242370e-01	 2.240361925919491e+00
 5.637914027997134e-01	 9.445312351519353e-01	 2.020750604573413e+00
 5.444364141646524e-01	 9.558184926951957e-01	 1.812653134032642e+00
 5.249093884358597e-01	 9.666799542646118e-01	 1.616747916286059e+00
 5.052240523696671e-01	 9.771124075311334e-01	 1.433681358721098e+00
 4.853941705377752e-01	 9.871132150120299e-01	 1.264065802851952e+00
 4.654335161239521e-01	 9.966803108878728e-01	 1.108477648368915e+00
 4.453558422387106e-01	 1.005812196101609e+00	 9.674556802948149e-01
 4.251748538647384e-01	 1.014507931799456e+00	 8.414996052502342e-01
 4.049041805392548e-01	 1.022767131181332e+00	 7.310688010403008e-01
 6.087708506453484e-01	 9.311575062525379e-01	 2.684701176224100e+00
 5.895852483522863e-01	 9.434222198826796e-01	 2.444010102455841e+00
 5.701981232837326e-01	 9.552645446391391e-01	 2.213958566463136e+00
 5.506231915963185e-01	 9.666800664728121e-01	 1.995242250976073e+00
 5.308742678481890e-01	 9.776649537421396e-01	 1.788527116991622e+00
 5.109652347815433e-01	 9.882159576143307e-01	 1.594447219847730e+00
 4.909100133836695e-01	 9.983304106352595e-01	 1.413602709734352e+00
 4.707225333517872e-01	 1.008006223510275e+00	 1.246558025688146e+00
 4.504167040817562e-01	 1.017241880147583e+00	 1.093840290387673e+00
 4.300063862947036e-01	 1.026036431024607e+00	 9.559379113151627e-01
 4.095053644089534e-01	 1.034389484945808e+00	 8.332993920959044e-01
 6.156109725587411e-01	 9.416199501384250e-01	 2.890451065096080e+00
 5.962098017009264e-01	 9.540224695395332e-01	 2.639243937829088e+00
 5.766048437667730e-01	 9.659978541247000e-01	 2.398506886573829e+00
 5.568099690270316e-01	 9.775416402487633e-01	 2.168923621579541e+00
 5.368391472596018e-01	 9.886499532180105e-01	 1.951148148538268e+00
 5.167064171925495e-01	 9.993195076959103e-01	 1.745802656073456e+00
 4.964258562287501e-01	 1.009547606256940e+00	 1.553475586356902e+00
 4.760115505788752e-01	 1.019332136131226e+00	 1.374719897413718e+00
 4.554775659241308e-01	 1.028671564192235e+00	 1.210051523974492e+00
 4.348379187240837e-01	 1.037564930248593e+00	 1.059948042011222e+00
 4.141065482781622e-01	 1.046011838709305e+00	 9.248475403750762e-01
 3.680947095640363e-01	 9.297883010302649e-01	-5.194390973935862e-01
 3.495975907771368e-01	 9.368999543523497e-01	-5.163979514299477e-01
 3.310434199775671e-01	 9.436155223571460e-01	-5.117342961697207e-01
 3.124442408950447e-01	 9.499361011546517e-01	-5.053195694328942e-01
 2.938119377279355e-01	 9.558632460744549e-01	-4.970051060275933e-01
 2.751582148638955e-01	 9.613989581557346e-01	-4.866237951572998e-01
 2.564945776994927e-01	 9.665456696731550e-01	-4.739917927149060e-01
 2.378323146029685e-01	 9.713062287906586e-01	-4.589102741133861e-01
 2.191824800562900e-01	 9.756838834365028e-01	-4.411672136123754e-01
 2.005558790047262e-01	 9.796822644935033e-01	-4.205391765278268e-01
 1.819630524344169e-01	 9.833053683983746e-01	-3.967931112568861e-01
 3.726958934376526e-01	 9.414106548025766e-01	-3.169047548226678e-01
 3.539675606653077e-01	 9.486112037905382e-01	-3.294214811170333e-01
 3.351814627300657e-01	 9.554107163947457e-01	-3.393710737883024e-01
 3.163497939082678e-01	 9.618103024265738e-01	-3.466205485561107e-01
 2.974845869507599e-01	 9.678115366572296e-01	-3.510205276413632e-01
 2.785976925500455e-01	 9.734164451388825e-01	-3.524067696400912e-01
 2.597007599201513e-01	 9.786274905496308e-01	-3.506017410661839e-01
 2.408052185339230e-01	 9.834475566554659e-01	-3.454162166398262e-01
 2.219222610543540e-01	 9.878799319837492e-01	-3.366508957326086e-01
 2.030628274885305e-01	 9.919282928033322e-01	-3.240980228238421e-01
 1.842375905849211e-01	 9.955966855063876e-01	-3.075430003584319e-01
 3.772970773107793e-01	 9.530330085739084e-01	-1.285430556045424e-01
 3.583375305530888e-01	 9.603224532279364e-01	-1.565263212038897e-01
 3.393195054822754e-01	 9.672059104317243e-01	-1.810272237090016e-01
 3.202553469213020e-01	 9.736845036980224e-01	-2.019080817142203e-01
 3.011572361734961e-01	 9.797598272396583e-01	-2.190184656289755e-01
 2.820371702362082e-01	 9.854339321217914e-01	-2.321966028379294e-01
 2.629069421409231e-01	 9.907093114259542e-01	-2.412708114948607e-01
 2.437781224650914e-01	 9.955888845201885e-01	-2.460609514341257e-01
 2.246620420527323e-01	 1.000075980530958e+00	-2.463798810374889e-01
 2.055697759727496e-01	 1.004174321113151e+00	-2.420349093503167e-01
 1.865121287359399e-01	 1.007888002614400e+00	-2.328292332765778e-01
 3.818982611834161e-01	 9.646553623442610e-01	 4.615845976803534e-02
 3.627075004404804e-01	 9.720337026645445e-01	 2.796674599929494e-03
 3.434575482341956e-01	 9.790011044680814e-01	-3.619585064973707e-02
 3.241608999341474e-01	 9.855587049689971e-01	-7.067647234603225e-02
 3.048298853961442e-01	 9.917081178217401e-01	-1.004933821057916e-01
 2.854766479223834e-01	 9.974514191044608e-01	-1.254868899574733e-01
 2.661131243618082e-01	 1.002791132302125e+00	-1.454907232833169e-01
 2.467510263964736e-01	 1.007730212384825e+00	-1.603333314037143e-01
 2.274018230514250e-01	 1.012272029078129e+00	-1.698391860489119e-01
 2.080767244573832e-01	 1.016420349422961e+00	-1.738300684264535e-01
 1.887866668874734e-01	 1.020179319722413e+00	-1.721263341300578e-01
 3.864994450555633e-01	 9.762777161136343e-01	 2.076878478534137e-01
 3.670774703274824e-01	 9.837449521003626e-01	 1.490324074349787e-01
 3.475955909858267e-01	 9.907962985038169e-01	 9.560580273774044e-02
 3.280664529468041e-01	 9.974329062394982e-01	 4.755589527961979e-02
 3.085025346187044e-01	 1.003656408403476e+00	 5.036187559723571e-03
 2.889161256085711e-01	 1.009468906086891e+00	-3.179534072151569e-02
 2.693193065828065e-01	 1.014872953178144e+00	-6.277739954342421e-02
 2.497239303280696e-01	 1.019871540249376e+00	-8.774654976550567e-02
 2.301416040504319e-01	 1.024468077625263e+00	-1.065383502717494e-01
 2.105836729424314e-01	 1.028666377732761e+00	-1.189884831646526e-01
 1.910612050395216e-01	 1.032470636830427e+00	-1.249338496430408e-01
 3.911006289272207e-01	 9.879000698820278e-01	 3.565101977292551e-01
 3.714474402140946e-01	 9.954562015353907e-01	 2.826429594772135e-01
 3.517336337371683e-01	 1.002591492538931e+00	 2.148377757454685e-01
 3.319720059592722e-01	 1.009307107509526e+00	 1.532479725838869e-01
 3.121751838411762e-01	 1.015604698984865e+00	 9.802905081976743e-02
 2.923556032947714e-01	 1.021486393069082e+00	 4.933763913214984e-02
 2.725254888039181e-01	 1.026954774054010e+00	 7.330456537524288e-03
 2.526968342598795e-01	 1.032012868113843e+00	-2.783670826345475e-02
 2.328813850497531e-01	 1.036664126172358e+00	-5.600999366579718e-02
 2.130906214278943e-01	 1.040912406042553e+00	-7.703843154134304e-02
 1.933357431920845e-01	 1.044761953938439e+00	-9.077487722683397e-02
 3.957018127983884e-01	 9.995224236494423e-01	 4.930689663107033e-01
 3.758174101003174e-01	 1.007167450969629e+00	 4.040689206221753e-01
 3.558716764882207e-01	 1.014386686573424e+00	 3.219387104271942e-01
 3.358775589715515e-01	 1.021181308779080e+00	 2.468373643699504e-01
 3.158478330635600e-01	 1.027552989565908e+00	 1.789226752249802e-01
 2.957950809809843e-01	 1.033503880051033e+00	 1.183502673861807e-01
 2.757316710251428e-01	 1.039036594929724e+00	 6.527268612072201e-02
 2.556697381919033e-01	 1.044154195978224e+00	 1.983851472275955e-02
 2.356211660493888e-01	 1.048860174719417e+00	-1.780847475892822e-02
 2.155975699137717e-01	 1.053158434352334e+00	-4.753013204464329e-02
 1.956102813451620e-01	 1.057053271046452e+00	-6.919469575431991e-02
 4.003029966690664e-01	 1.011144777415877e+00	 6.177872215783484e-01
 3.801873799861506e-01	 1.018878700403077e+00	 5.137306236734345e-01
 3.600097192389839e-01	 1.026181880607295e+00	 4.173270813243004e-01
 3.397831119836419e-01	 1.033055510048160e+00	 3.287415556404605e-01
 3.195204822858556e-01	 1.039501280146605e+00	 2.481344148555842e-01
 2.992345586672098e-01	 1.045521367032745e+00	 1.756606138772789e-01
 2.789378532464808e-01	 1.051118415805285e+00	 1.114689077985551e-01
 2.586426421241408e-01	 1.056295523842520e+00	 5.570110421417374e-02
 2.383609470493386e-01	 1.061056223266437e+00	 8.491358696337326e-03
 2.181045184000638e-01	 1.065404462662107e+00	-3.003448272521458e-02
 1.978848194987542e-01	 1.069344588154466e+00	-5.975949076305787e-02
 4.049041805392548e-01	 1.022767131181332e+00	 7.310688010403008e-01
 3.845573498715942e-01	 1.030589949835736e+00	 6.120292953136992e-01
 3.641477619894577e-01	 1.037977074640545e+00	 5.014023413472473e-01
 3.436886649955436e-01	 1.044929711316767e+00	 3.993590547677015e-01
 3.231931315080631e-01	 1.051449570726956e+00	 3.060626531323933e-01
 3.026740363534478e-01	 1.057538854014218e+00	 2.216677452658369e-01
 2.821440354679321e-01	 1.063200236680694e+00	 1.463196666046565e-01
 2.616155460565923e-01	 1.068436851706730e+00	 8.015386412131797e-02
 2.411007280496028e-01	 1.073252271813419e+00	 2.329533388300975e-02
 2.206114668867706e-01	 1.077650490971870e+00	-2.414188622121727e-02
 2.001593576528611e-01	 1.081635905262479e+00	-6.205516657653298e-02
 4.095053644089534e-01	 1.034389484945808e+00	 8.332993920959044e-01
 3.889273197566479e-01	 1.042301199267603e+00	 6.993481294823094e-01
 3.682858047396424e-01	 1.049772268673173e+00	 5.745459904068251e-01
 3.475942180072565e-01	 1.056803912584900e+00	 4.590704595967177e-01
 3.268657807301825e-01	 1.063397861306960e+00	 3.530878685839087e-01
 3.061135140396982e-01	 1.069556340995452e+00	 2.567527926299336e-01
 2.853502176894966e-01	 1.075282057555951e+00	 1.702075055618686e-01
 2.645884499892575e-01	 1.080578179570855e+00	 9.358149483471889e-02
 2.438405090501814e-01	 1.085448320360364e+00	 2.699103859751295e-02
 2.231184153738919e-01	 1.089896519281624e+00	-2.946115399483373e-02
 2.024338958074826e-01	 1.093927222370491e+00	-7.568623850725498e-02
 4.141065482781622e-01	 1.046011838709305e+00	 9.248475403750762e-01
 3.932972896413123e-01	 1.054012448698682e+00	 7.760532891945806e-01
 3.724238474895377e-01	 1.061567462705179e+00	 6.371225728026884e-01
 3.514997710187807e-01	 1.068678113852559e+00	 5.082394524744998e-01
 3.305384299522138e-01	 1.075346151886617e+00	 3.895736295628263e-01
 3.095529917259615e-01	 1.081573827976446e+00	 2.812799478868515e-01
 2.885563999111744e-01	 1.087363878431055e+00	 1.834979657941616e-01
 2.675613539221366e-01	 1.092719507434895e+00	 9.635159897571688e-02
 2.465802900510743e-01	 1.097644368907271e+00	 1.994883454900553e-02
 2.256253638614278e-01	 1.102142547591368e+00	-4.561848361997267e-02
 2.047084339626188e-01	 1.106218539478505e+00	-1.002747989129873e-01
 1.819630524344169e-01	 9.833053683983746e-01	-3.967931112568861e-01
 1.634142641907509e-01	 9.865575392429453e-01	-3.587312260077771e-01
 1.449194890435836e-01	 9.894434504702300e-01	-3.256317466780922e-01
 1.264884019976694e-01	 9.919680862544974e-01	-2.974953173251751e-01
 1.081303688402294e-01	 9.941367226520524e-01	-2.742815627536004e-01
 8.985443791194073e-02	 9.959549086084808e-01	-2.559114419870667e-01
 7.166933308134309e-02	 9.974284469032259e-01	-2.422696813043208e-01
 5.358344789747966e-02	 9.985633751090948e-01	-2.332072671121446e-01
 3.560484089073371e-02	 9.993659466402712e-01	-2.285439796831521e-01
 1.774123198744578e-02	 9.998426119581703e-01	-2.280709496664293e-01
 0.000000000000000e+00	 1.000000000000000e+00	-2.315532202604929e-01
 1.842375905849211e-01	 9.955966855063876e-01	-3.075430003584319e-01
 1.654569424871889e-01	 9.988895084859244e-01	-2.805370514490275e-01
 1.467309826500151e-01	 1.001811493603026e+00	-2.570285032844417e-01
 1.280695070157072e-01	 1.004367687334138e+00	-2.370279879717634e-01
 1.094819984438205e-01	 1.006563431686268e+00	-2.205095810325473e-01
 9.097761837928414e-02	 1.008404344966822e+00	-2.074129119457351e-01
 7.256519973898776e-02	 1.009896302489984e+00	-1.976453460294962e-01
 5.425324099133060e-02	 1.011045417298220e+00	-1.910842198385674e-01
 3.604990139831873e-02	 1.011858020973390e+00	-1.875791129410280e-01
 1.796299738536468e-02	 1.012340644607676e+00	-1.869541397433951e-01
 0.000000000000000e+00	 1.012500000000000e+00	-1.890102459227658e-01
 1.865121287359399e-01	 1.007888002614400e+00	-2.328292332765778e-01
 1.674996207842255e-01	 1.011221477728904e+00	-2.166999039627684e-01
 1.485424762570973e-01	 1.014179536735822e+00	-2.026436675491592e-01
 1.296506120344171e-01	 1.016767288413778e+00	-1.906806299941119e-01
 1.108336280480745e-01	 1.018990140720485e+00	-1.807987276814416e-01
 9.210079884725111e-02	 1.020853781325163e+00	-1.729555995849643e-01
 7.346106639718736e-02	 1.022364158076741e+00	-1.670805226507341e-01
 5.492303408563919e-02	 1.023527459487344e+00	-1.630763944461506e-01
 3.649496190623605e-02	 1.024350095306508e+00	-1.608217477513745e-01
 1.818476278346310e-02	 1.024838677257182e+00	-1.601727824881762e-01
 0.000000000000000e+00	 1.025000000000000e+00	-1.609654011930535e-01
 1.887866668874734e-01	 1.020179319722413e+00	-1.721263341300578e-01
 1.695422990818606e-01	 1.023553446971883e+00	-1.667008026863783e-01
 1.503539698648305e-01	 1.026547579868618e+00	-1.619632826915303e-01
 1.312317170537990e-01	 1.029166889493419e+00	-1.579428583204590e-01
 1.121852576529911e-01	 1.031416849754700e+00	-1.546407582641338e-01
 9.322397931584156e-02	 1.033303217683504e+00	-1.520319938998815e-01
 7.435693305594188e-02	 1.034832013663499e+00	-1.500670526605417e-01
 5.559282718040544e-02	 1.036009501676469e+00	-1.486736324946158e-01
 3.694002241448566e-02	 1.036842169639627e+00	-1.477584038713271e-01
 1.840652818174105e-02	 1.037336709906688e+00	-1.472087864331564e-01
 0.000000000000000e+00	 1.037500000000000e+00	-1.468947281167519e-01
 1.910612050395216e-01	 1.032470636830427e+00	-1.249338496430408e-01
 1.715849773800944e-01	 1.035885416214862e+00	-1.300454800711055e-01
 1.521654634732146e-01	 1.038915623001414e+00	-1.344978660003626e-01
 1.328128220738531e-01	 1.041566490573059e+00	-1.383285918676926e-01
 1.135368872585706e-01	 1.043843558788917e+00	-1.415516304002176e-01
 9.434715978505553e-02	 1.045752654041845e+00	-1.441587510201439e-01
 7.525279971525133e-02	 1.047299869250256e+00	-1.461209755267121e-01
 5.626262027562935e-02	 1.048491543865594e+00	-1.473900687622094e-01
 3.738508292306758e-02	 1.049334243972746e+00	-1.479000524690419e-01
 1.862829358019852e-02	 1.049834742556193e+00	-1.475687311170892e-01
 0.000000000000000e+00	 1.050000000000000e+00	-1.462992191170747e-01
 1.933357431920845e-01	 1.044761953938439e+00	-9.077487722683397e-02
 1.736276556789268e-01	 1.048217385457841e+00	-1.062629281581549e-01
 1.539769570822495e-01	 1.051283666134210e+00	-1.197809691830471e-01
 1.343939270945792e-01	 1.053966091652700e+00	-1.313746238943239e-01
 1.148885168648128e-01	 1.056270267823132e+00	-1.410700801142699e-01
 9.547034025489304e-02	 1.058202090400186e+00	-1.488752726140143e-01
 7.614866637511571e-02	 1.059767724837014e+00	-1.547811052814230e-01
 5.693241337131089e-02	 1.060973586054718e+00	-1.587627022334570e-01
 3.783014343198180e-02	 1.061826318305864e+00	-1.607806778054282e-01
 1.885005897883552e-02	 1.062332775205699e+00	-1.607824158490678e-01
 0.000000000000000e+00	 1.062500000000000e+00	-1.587033493257195e-01
 1.956102813451620e-01	 1.057053271046452e+00	-6.919469575431991e-02
 1.756703339783578e-01	 1.060549354700821e+00	-9.490404627645432e-02
 1.557884506919354e-01	 1.063651709267005e+00	-1.173678391551429e-01
 1.359750321159775e-01	 1.066365692732341e+00	-1.366392920972341e-01
 1.162401464717178e-01	 1.068696976857348e+00	-1.527562975103418e-01
 9.659352072535407e-02	 1.070651526758527e+00	-1.657423834734937e-01
 7.704453303553507e-02	 1.072235580423771e+00	-1.756077064191430e-01
 5.760220646745011e-02	 1.073455628243843e+00	-1.823500667843692e-01
 3.827520394122830e-02	 1.074318392638983e+00	-1.859559392633559e-01
 1.907182437765204e-02	 1.074830807855205e+00	-1.864015097222547e-01
 0.000000000000000e+00	 1.075000000000000e+00	-1.836537113091552e-01
 1.978848194987542e-01	 1.069344588154466e+00	-5.975949076305787e-02
 1.777130122783873e-01	 1.072881323943800e+00	-9.554038200340687e-02
 1.575999443022721e-01	 1.076019752399801e+00	-1.268341711892162e-01
 1.375561371380478e-01	 1.078765293811981e+00	-1.537012404254869e-01
 1.175917760792856e-01	 1.081123685891564e+00	-1.761906937786408e-01
 9.771670119643860e-02	 1.083100963116868e+00	-1.943411002999795e-01
 7.794039969650934e-02	 1.084703436010529e+00	-2.081812611111671e-01
 5.827199956404695e-02	 1.085937670432968e+00	-2.177309935452563e-01
 3.872026445080710e-02	 1.086810466972101e+00	-2.230019256514590e-01
 1.929358977664810e-02	 1.087328840504710e+00	-2.239982947295980e-01
 0.000000000000000e+00	 1.087500000000000e+00	-2.207177439518464e-01
 2.001593576528611e-01	 1.081635905262479e+00	-6.205516657653298e-02
 1.797556905790155e-01	 1.085213293186779e+00	-1.077629579688208e-01
 1.594114379132596e-01	 1.088387795532598e+00	-1.477749470765031e-01
 1.391372421607902e-01	 1.091164894891622e+00	-1.821582653159304e-01
 1.189434056875161e-01	 1.093550394925780e+00	-2.109727522702158e-01
 9.883988166814665e-02	 1.095550399475209e+00	-2.342714844370084e-01
 7.883626635803856e-02	 1.097171291597286e+00	-2.521013204742464e-01
 5.894179266110147e-02	 1.098419712622093e+00	-2.645034576477063e-01
 3.916532496071819e-02	 1.099302541305220e+00	-2.715139944411042e-01
 1.951535517582367e-02	 1.099826873154216e+00	-2.731644945763785e-01
 0.000000000000000e+00	 1.100000000000000e+00	-2.694825480062817e-01
 2.024338958074826e-01	 1.093927222370491e+00	-7.568623850725498e-02
 1.817983688802422e-01	 1.097545262429758e+00	-1.311811777508185e-01
 1.612229315248981e-01	 1.100755838665393e+00	-1.798033516144648e-01
 1.407183471842047e-01	 1.103564495971262e+00	-2.216262397108961e-01
 1.202950352964094e-01	 1.105977103959997e+00	-2.567199570273895e-01
 9.996306214047822e-02	 1.107999835833549e+00	-2.851515719463766e-01
 7.973213302012272e-02	 1.109639147184044e+00	-3.069854332813291e-01
 5.961158575861362e-02	 1.110901754811217e+00	-3.222835027188082e-01
 3.961038547096159e-02	 1.111794615638339e+00	-3.311056892572579e-01
 1.973712057517876e-02	 1.112324905803722e+00	-3.335101824493441e-01
 0.000000000000000e+00	 1.112500000000000e+00	-3.295537814938032e-01
 2.047084339626188e-01	 1.106218539478505e+00	-1.002747989129873e-01
 1.838410471820675e-01	 1.109877231672737e+00	-1.654218047120997e-01
 1.630344251371875e-01	 1.113123881798189e+00	-2.225497613287328e-01
 1.422994522082913e-01	 1.115964097050903e+00	-2.717381088076989e-01
 1.216466649059655e-01	 1.118403812994212e+00	-3.130667927452659e-01
 1.010862426134333e-01	 1.120449272191891e+00	-3.466163750128424e-01
 8.062799968276181e-02	 1.122107002770802e+00	-3.724681460918344e-01
 6.028137885658343e-02	 1.123383797000342e+00	-3.907042370758689e-01
 4.005544598153728e-02	 1.124286689971457e+00	-4.014077295367438e-01
 1.995888597471339e-02	 1.124822938453228e+00	-4.046627616009537e-01
 0.000000000000000e+00	 1.125000000000000e+00	-4.005546287451862e-01
 1.125000000000000e+00	 0.000000000000000e+00	 1.610402986894153e+01
 1.124822938453228e+00	 1.995888597471274e-02	 1.611254342395295e+01
 1.124286689971457e+00	 4.005544598153672e-02	 1.610166782407023e+01
 1.123383797000342e+00	 6.028137885658293e-02	 1.607118244936444e+01
 1.122107002770802e+00	 8.062799968276138e-02	 1.602089898046247e+01
 1.120449272191891e+00	 1.010862426134330e-01	 1.595066309162895e+01
 1.118403812994212e+00	 1.216466649059652e-01	 1.586035607800797e+01
 1.115964097050903e+00	 1.422994522082910e-01	 1.574989640464044e+01
 1.113123881798189e+00	 1.630344251371873e-01	 1.561924116469705e+01
 1.109877231672737e+00	 1.838410471820675e-01	 1.546838743429049e+01
 1.106218539478505e+00	 2.047084339626188e-01	 1.529737351126330e+01
 1.137500000000000e+00	 0.000000000000000e+00	 1.577909983115446e+01
 1.137320971102731e+00	 2.018065137442460e-02	 1.578972050052566e+01
 1.136778764304567e+00	 4.050050649243549e-02	 1.578149949653070e+01
 1.135865839189446e+00	 6.095117195498952e-02	 1.575421299951224e+01
 1.134574858357522e+00	 8.152386634591800e-02	 1.570766838498029e+01
 1.132898708550173e+00	 1.022094230869528e-01	 1.564170589804805e+01
 1.130830522028343e+00	 1.229982945160989e-01	 1.555620026610810e+01
 1.128363698130427e+00	 1.438805572329329e-01	 1.545106223764796e+01
 1.125491924930832e+00	 1.648459187499742e-01	 1.532624003491197e+01
 1.122209200915521e+00	 1.858837254842960e-01	 1.518172070802138e+01
 1.118509856586275e+00	 2.069829721180270e-01	 1.501753137817460e+01
 1.150000000000000e+00	 0.000000000000000e+00	 1.547571005468163e+01
 1.149819003752230e+00	 2.040241677431140e-02	 1.548826852290374e+01
 1.149270838637657e+00	 4.094556700364810e-02	 1.548252746548000e+01
 1.148347881378508e+00	 6.162096505381197e-02	 1.545826001499006e+01
 1.147042713944167e+00	 8.241973300955485e-02	 1.541526941028578e+01
 1.145348144908337e+00	 1.033326035609785e-01	 1.535339065243537e+01
 1.143257231062303e+00	 1.243499241267248e-01	 1.527249210292486e+01
 1.140763299209717e+00	 1.454616622580135e-01	 1.517247701229455e+01
 1.137859968063168e+00	 1.666574123631049e-01	 1.505328496718084e+01
 1.134541170157914e+00	 1.879264037867323e-01	 1.491489324362027e+01
 1.130801173693560e+00	 2.092575102734646e-01	 1.475731805445930e+01
 1.162500000000000e+00	 0.000000000000000e+00	 1.519316591370496e+01
 1.162317036401724e+00	 2.062418217437315e-02	 1.520749833301479e+01
 1.161762912970730e+00	 4.139062751517460e-02	 1.520406821255669e+01
 1.160829923567528e+00	 6.229075815305031e-02	 1.518264578420420e+01
 1.159510569530738e+00	 8.331559967367190e-02	 1.514303031316895e+01
 1.157797581266385e+00	 1.044557840355102e-01	 1.508505173560283e+01
 1.155683940096093e+00	 1.257015537378430e-01	 1.500857224241233e+01
 1.153162900288774e+00	 1.470427672835326e-01	 1.491348779773798e+01
 1.150228011195196e+00	 1.684689059765797e-01	 1.479972958032891e+01
 1.146873139399917e+00	 1.899690820893765e-01	 1.466726533591047e+01
 1.143092490800359e+00	 2.115320484289315e-01	 1.451610062860768e+01
 1.175000000000000e+00	 0.000000000000000e+00	 1.493080234095073e+01
 1.174815069051214e+00	 2.084594757460985e-02	 1.494675009861007e+01
 1.174254987303784e+00	 4.183568802701497e-02	 1.494546730518501e+01
 1.173311965756507e+00	 6.296055125270457e-02	 1.492672143420013e+01
 1.171978425117234e+00	 8.421146633826908e-02	 1.489030793503579e+01
 1.170247017624314e+00	 1.055789645105478e-01	 1.483605185233283e+01
 1.168110649129713e+00	 1.270531833494537e-01	 1.476380939550484e+01
 1.165562501367597e+00	 1.486238723094903e-01	 1.467346944708186e+01
 1.162596054326918e+00	 1.702803995903985e-01	 1.456495499837200e+01
 1.159205108641529e+00	 1.920117603922284e-01	 1.443822450077612e+01
 1.155383807906674e+00	 2.138065865844276e-01	 1.429327312103526e+01
 1.187500000000000e+00	 0.000000000000000e+00	 1.468798227197675e+01
 1.187313101700699e+00	 2.106771297502151e-02	 1.470539176980017e+01
 1.186747061636820e+00	 4.228074853916918e-02	 1.470609786574393e+01
 1.185794007945443e+00	 6.363034435277468e-02	 1.468986541283936e+01
 1.184446280703655e+00	 8.510733300334646e-02	 1.465648619745475e+01
 1.182696453982126e+00	 1.067021449860912e-01	 1.460578054064295e+01
 1.180537358163162e+00	 1.284048129615565e-01	 1.453759885343377e+01
 1.177962102446187e+00	 1.502049773358866e-01	 1.445182313506268e+01
 1.174964097458333e+00	 1.720918932045612e-01	 1.434836840287489e+01
 1.171537077882749e+00	 1.940544386952882e-01	 1.422718404247473e+01
 1.167675125012503e+00	 2.160811247399532e-01	 1.408825506661297e+01
 1.200000000000000e+00	 0.000000000000000e+00	 1.446409518669156e+01
 1.199811134350180e+00	 2.128947837560811e-02	 1.448281763205712e+01
 1.199239135969837e+00	 4.272580905163728e-02	 1.448535913641346e+01
 1.198276050134338e+00	 6.430013745326070e-02	 1.447148206584030e+01
 1.196914136290001e+00	 8.600319966890399e-02	 1.444097469173159e+01
 1.195145890339820e+00	 1.078253254621407e-01	 1.439365277422159e+01
 1.192964067196440e+00	 1.297564425741518e-01	 1.432936110333715e+01
 1.190361703524544e+00	 1.517860823627215e-01	 1.424797498713139e+01
 1.187332140589441e+00	 1.739033868190680e-01	 1.414940167578733e+01
 1.183869047123579e+00	 1.960971169985557e-01	 1.403358171049272e+01
 1.179966442117847e+00	 2.183556628955082e-01	 1.390049018578923e+01
 1.212500000000000e+00	 0.000000000000000e+00	 1.425855574108906e+01
 1.212309166999656e+00	 2.151124377636965e-02	 1.427844694872164e+01
 1.211731210302836e+00	 4.317086956441923e-02	 1.428267513279303e+01
 1.210758092323192e+00	 6.496993055416259e-02	 1.427100030183719e+01
 1.209381991876273e+00	 8.689906633494171e-02	 1.424320735572712e+01
 1.207595326697396e+00	 1.089485059386960e-01	 1.419910765131098e+01
 1.205390776229548e+00	 1.311080721872393e-01	 1.413854052950151e+01
 1.202761304602666e+00	 1.533671873899949e-01	 1.406137479333411e+01
 1.199700183720242e+00	 1.757148804339188e-01	 1.396751012622826e+01
 1.196201016364018e+00	 1.981397953020310e-01	 1.385687843948203e+01
 1.192257759222705e+00	 2.206302010510924e-01	 1.372944513791067e+01
 1.225000000000000e+00	 0.000000000000000e+00	 1.407080248275432e+01
 1.224807199649127e+00	 2.173300917730615e-02	 1.409172268662208e+01
 1.224223284635816e+00	 4.361593007751505e-02	 1.409749337995167e+01
 1.223240134512003e+00	 6.563972365548039e-02	 1.408787233917018e+01
 1.221849847462470e+00	 8.779493300145964e-02	 1.406264123168598e+01
 1.220044763054855e+00	 1.100716864157573e-01	 1.402160716386253e+01
 1.217817485262486e+00	 1.324597018008191e-01	 1.396460419411964e+01
 1.215160905680556e+00	 1.549482924177070e-01	 1.389149480093482e+01
 1.212068226850737e+00	 1.775263740491136e-01	 1.380217129522204e+01
 1.208532985604066e+00	 2.001824736057143e-01	 1.369655716634350e+01
 1.204549076327078e+00	 2.229047392067060e-01	 1.357460835087014e+01
 1.237500000000000e+00	 0.000000000000000e+00	 1.390029664421772e+01
 1.237305232298594e+00	 2.195477457841760e-02	 1.392211031892863e+01
 1.236715358968778e+00	 4.406099059092473e-02	 1.392928372508100e+01
 1.235722176700773e+00	 6.630951675721405e-02	 1.392157252862739e+01
 1.234317703048592e+00	 8.869079966845773e-02	 1.389875529934862e+01
 1.232494199412197e+00	 1.111948668933245e-01	 1.386063504128895e+01
 1.230244194295253e+00	 1.338113314148913e-01	 1.380704069194176e+01
 1.227560506758211e+00	 1.565293974458576e-01	 1.373782858021235e+01
 1.224436269980924e+00	 1.793378676646523e-01	 1.365288383287494e+01
 1.220864954843724e+00	 2.022251519096052e-01	 1.355212171900213e+01
 1.216840393430966e+00	 2.251792773623488e-01	 1.343548892168511e+01
 1.250000000000000e+00	 0.000000000000000e+00	 1.374652100870756e+01
 1.249803264948056e+00	 2.217653997970400e-02	 1.376909669983622e+01
 1.249207433301722e+00	 4.450605110464827e-02	 1.377753722138917e+01
 1.248204218889501e+00	 6.697930985936361e-02	 1.377159624682259e+01
 1.246785558634639e+00	 8.958666633593600e-02	 1.375104937907651e+01
 1.244943635769421e+00	 1.123180473713976e-01	 1.371569566359118e+01
 1.242670903327850e+00	 1.351629610294558e-01	 1.366535907364767e+01
 1.239960107835634e+00	 1.581105024744469e-01	 1.359988995830975e+01
 1.236804313110804e+00	 1.811493612805350e-01	 1.351916644292107e+01
 1.233196924082991e+00	 2.042678302137040e-01	 1.342309577185584e+01
 1.229131710534368e+00	 2.274538155180211e-01	 1.331161558304147e+01
 1.106218539478505e+00	 2.047084339626188e-01	 1.529737351126330e+01
 1.102142547591368e+00	 2.256253638614272e-01	 1.514194626579607e+01
 1.097644368907272e+00	 2.465802900510737e-01	 1.496667102543838e+01
 1.092719507434896e+00	 2.675613539221362e-01	 1.477206936682576e+01
 1.087363878431055e+00	 2.885563999111739e-01	 1.455871924609248e+01
 1.081573827976446e+00	 3.095529917259612e-01	 1.432725441657852e+01
 1.075346151886618e+00	 3.305384299522137e-01	 1.407836356341746e+01
 1.068678113852559e+00	 3.514997710187806e-01	 1.381278914906267e+01
 1.061567462705179e+00	 3.724238474895377e-01	 1.353132596579229e+01
 1.054012448698681e+00	 3.932972896413123e-01	 1.323481939335576e+01
 1.046011838709305e+00	 4.141065482781622e-01	 1.292416336216594e+01
 1.118509856586275e+00	 2.069829721180270e-01	 1.501753137817460e+01
 1.114388575900822e+00	 2.281323123490921e-01	 1.487300195746701e+01
 1.109840417453845e+00	 2.493200710519664e-01	 1.470911517860936e+01
 1.104860835298564e+00	 2.705342578549000e-01	 1.452634836597733e+01
 1.099445699305754e+00	 2.917625821326358e-01	 1.432523318845822e+01
 1.093591314957006e+00	 3.129924694119225e-01	 1.410635519386578e+01
 1.087294442465818e+00	 3.342110791738725e-01	 1.387035307380817e+01
 1.080552315119742e+00	 3.554053240298770e-01	 1.361791765281043e+01
 1.073362656736697e+00	 3.765618902389651e-01	 1.334979059735878e+01
 1.065723698129263e+00	 3.976672595254847e-01	 1.306676284253628e+01
 1.057634192472302e+00	 4.187077321468711e-01	 1.276967273604007e+01
 1.130801173693560e+00	 2.092575102734646e-01	 1.475731805445930e+01
 1.126634604209704e+00	 2.306392608366003e-01	 1.462315830395804e+01
 1.122036465999790e+00	 2.520598520525441e-01	 1.447012667190695e+01
 1.117002163161574e+00	 2.735071617872195e-01	 1.429865704642004e+01
 1.111527520179795e+00	 2.949687643535529e-01	 1.410923565670198e+01
 1.105608801936938e+00	 3.164319470972682e-01	 1.390240072235828e+01
 1.099242733044450e+00	 3.378837283948746e-01	 1.367874184652732e+01
 1.092426516386447e+00	 3.593108770403062e-01	 1.343889914638307e+01
 1.085157850767857e+00	 3.806999329877463e-01	 1.318356211630763e+01
 1.077434947559639e+00	 4.020372294090629e-01	 1.291346822091653e+01
 1.069256546235278e+00	 4.233089160150696e-01	 1.262940121712190e+01
 1.143092490800359e+00	 2.115320484289315e-01	 1.451610062860768e+01
 1.138880632518016e+00	 2.331462093239517e-01	 1.439179943572663e+01
 1.134232514545106e+00	 2.547996330528071e-01	 1.424910684404922e+01
 1.129143491023926e+00	 2.764800657190944e-01	 1.408841409509602e+01
 1.123609341053178e+00	 2.981749465739247e-01	 1.391016279860501e+01
 1.117626288916241e+00	 3.198714247819978e-01	 1.371484469498311e+01
 1.111191023622513e+00	 3.415563776152200e-01	 1.350300117475143e+01
 1.104300717652674e+00	 3.632164300500684e-01	 1.327522254828358e+01
 1.096953044798661e+00	 3.848379757358811e-01	 1.303214706077313e+01
 1.089146196989810e+00	 4.064071992920468e-01	 1.277445964913310e+01
 1.080878899998233e+00	 4.279100998827580e-01	 1.250289043941522e+01
 1.155383807906674e+00	 2.138065865844276e-01	 1.429327312103526e+01
 1.151126660825756e+00	 2.356531578111465e-01	 1.417833568992310e+01
 1.146428563089792e+00	 2.575394140527553e-01	 1.404548250814011e+01
 1.141284818885619e+00	 2.794529696505251e-01	 1.389506293507213e+01
 1.135691161925902e+00	 3.013811287937518e-01	 1.372747475502189e+01
 1.129643775894916e+00	 3.233109024661115e-01	 1.354316405110385e+01
 1.123139314200007e+00	 3.452290268349085e-01	 1.334262484911389e+01
 1.116174918918422e+00	 3.671219830591637e-01	 1.312639852442730e+01
 1.108748238829107e+00	 3.889760184833697e-01	 1.289507296650213e+01
 1.100857446419777e+00	 4.107771691744366e-01	 1.264928149721760e+01
 1.092501253761168e+00	 4.325112837499361e-01	 1.238970154104591e+01
 1.167675125012503e+00	 2.160811247399532e-01	 1.408825506661297e+01
 1.163372689132924e+00	 2.381601062981845e-01	 1.398220223109100e+01
 1.158624611633849e+00	 2.602791950523886e-01	 1.385870461091227e+01
 1.153426146746654e+00	 2.824258735815113e-01	 1.371807042363868e+01
 1.147772982797968e+00	 3.045873110130340e-01	 1.356065439708726e+01
 1.141661262872963e+00	 3.267503801496095e-01	 1.338685775302384e+01
 1.135087604776933e+00	 3.489016760539403e-01	 1.319712797362826e+01
 1.128049120183692e+00	 3.710275360675916e-01	 1.299195834354127e+01
 1.120543432859196e+00	 3.931140612302118e-01	 1.277188726171650e+01
 1.112568695849540e+00	 4.151471390562321e-01	 1.253749731883918e+01
 1.104123607524082e+00	 4.371124676166038e-01	 1.228941413772916e+01
 1.179966442117847e+00	 2.183556628955082e-01	 1.390049018578923e+01
 1.175618717439522e+00	 2.406670547850658e-01	 1.380285775807370e+01
 1.170820660177278e+00	 2.630189760517072e-01	 1.368824697576717e+01
 1.165567474607031e+00	 2.853987775120529e-01	 1.355692563177684e+01
 1.159854803669377e+00	 3.077934932317711e-01	 1.340920614234693e+01
 1.153678749850381e+00	 3.301898578324914e-01	 1.324544563895812e+01
 1.147035895353290e+00	 3.525743252723154e-01	 1.306604585561637e+01
 1.139923321448485e+00	 3.749330890753527e-01	 1.287145280410119e+01
 1.132338626888928e+00	 3.972521039764076e-01	 1.266215623104677e+01
 1.124279945279097e+00	 4.195171089374333e-01	 1.243868885215667e+01
 1.115745961286976e+00	 4.417136514827613e-01	 1.220162536039511e+01
 1.192257759222705e+00	 2.206302010510924e-01	 1.372944513791067e+01
 1.187864745745548e+00	 2.431740032717905e-01	 1.363978329090608e+01
 1.183016708720077e+00	 2.657587570507109e-01	 1.353360512356540e+01
 1.177708802466750e+00	 2.883716814421504e-01	 1.341113869912314e+01
 1.171936624540126e+00	 3.109996754499633e-01	 1.327265484411824e+01
 1.165696236827171e+00	 3.336293355147576e-01	 1.311846734695545e+01
 1.158984185929078e+00	 3.562469744900338e-01	 1.294893296430069e+01
 1.151797522712798e+00	 3.788386420824467e-01	 1.276445122764320e+01
 1.144133820918304e+00	 4.013901467219569e-01	 1.256546404355224e+01
 1.135991194708451e+00	 4.238870788180404e-01	 1.235245508247372e+01
 1.127368315049849e+00	 4.463148353484084e-01	 1.212594895234258e+01
 1.204549076327078e+00	 2.229047392067060e-01	 1.357460835087014e+01
 1.200110774051002e+00	 2.456809517583584e-01	 1.349248103197819e+01
 1.195212757262247e+00	 2.684985380493998e-01	 1.339429516561332e+01
 1.189850130325810e+00	 2.913445853718033e-01	 1.328023975903792e+01
 1.184018445410218e+00	 3.142058576676106e-01	 1.315054474884855e+01
 1.177713723803332e+00	 3.370688131964078e-01	 1.300548130470271e+01
 1.170932476504299e+00	 3.599196237070955e-01	 1.284536195315632e+01
 1.163671723976633e+00	 3.827441950888736e-01	 1.267054051370989e+01
 1.155929014947322e+00	 4.055281894668601e-01	 1.248141184025019e+01
 1.147702444137599e+00	 4.282570486980532e-01	 1.227841136228249e+01
 1.138990668812702e+00	 4.509160192135453e-01	 1.206201442166939e+01
 1.216840393430966e+00	 2.251792773623488e-01	 1.343548892168511e+01
 1.212356802355885e+00	 2.481879002447696e-01	 1.336047329621934e+01
 1.207408805803788e+00	 2.712383190477738e-01	 1.326985276374164e+01
 1.201991458184212e+00	 2.943174893010117e-01	 1.316377792882137e+01
 1.196100266279652e+00	 3.174120398847128e-01	 1.304243851666424e+01
 1.189731210778864e+00	 3.405082908774421e-01	 1.290606378055329e+01
 1.182880767078950e+00	 3.635922729235002e-01	 1.275492274151437e+01
 1.175545925239990e+00	 3.866497480946335e-01	 1.258932425207214e+01
 1.167724208975982e+00	 4.096662322111168e-01	 1.240961687694621e+01
 1.159413693566543e+00	 4.326270185774718e-01	 1.221618858463789e+01
 1.150613022575534e+00	 4.555172030781720e-01	 1.200946624507029e+01
 1.229131710534368e+00	 2.274538155180211e-01	 1.331161558304147e+01
 1.224602830660197e+00	 2.506948487310240e-01	 1.324330150547111e+01
 1.219604854344699e+00	 2.739781000458331e-01	 1.315983215277913e+01
 1.214132786041956e+00	 2.972903932297759e-01	 1.306132036051650e+01
 1.208182087148427e+00	 3.206182221012702e-01	 1.294791630068678e+01
 1.201748697753769e+00	 3.439477685578606e-01	 1.281980799149374e+01
 1.194829057653032e+00	 3.672649221392482e-01	 1.267722165126916e+01
 1.187420126502869e+00	 3.905553010997262e-01	 1.252042188821769e+01
 1.179519403004286e+00	 4.138042749547273e-01	 1.234971171849488e+01
 1.171124942995283e+00	 4.369969884562962e-01	 1.216543240612959e+01
 1.162235376338345e+00	 4.601183869422883e-01	 1.196796311940721e+01
 1.046011838709305e+00	 4.141065482781622e-01	 1.292416336216594e+01
 1.037564930248593e+00	 4.348379187240830e-01	 1.262410472841754e+01
 1.028671564192235e+00	 4.554775659241303e-01	 1.231064433646323e+01
 1.019332136131226e+00	 4.760115505788748e-01	 1.198506529122283e+01
 1.009547606256940e+00	 4.964258562287497e-01	 1.164869882992206e+01
 9.993195076959104e-01	 5.167064171925492e-01	 1.130292002005408e+01
 9.886499532180107e-01	 5.368391472596017e-01	 1.094914313985349e+01
 9.775416402487633e-01	 5.568099690270316e-01	 1.058881676291519e+01
 9.659978541247000e-01	 5.766048437667730e-01	 1.022341857163331e+01
 9.540224695395332e-01	 5.962098017009265e-01	 9.854449927025472e+00
 9.416199501384250e-01	 6.156109725587411e-01	 9.483430225206710e+00
 1.057634192472302e+00	 4.187077321468711e-01	 1.276967273604007e+01
 1.049093429472079e+00	 4.396694511529656e-01	 1.248575558514027e+01
 1.040101248236386e+00	 4.605384277660148e-01	 1.218855229556105e+01
 1.030658048751678e+00	 4.813005678054846e-01	 1.187926746760270e+01
 1.020764801878120e+00	 5.019416990733694e-01	 1.155915263952261e+01
 1.010423057776990e+00	 5.224475996031163e-01	 1.122950227795956e+01
 9.996349526933814e-01	 5.428040266706026e-01	 1.089164946258114e+01
 9.884032140242147e-01	 5.629967464573652e-01	 1.054696128492228e+01
 9.767311636097610e-01	 5.830115642494709e-01	 1.019683398429243e+01
 9.646227191958864e-01	 6.028343550492662e-01	 9.842687846400135e+00
 9.520823940238123e-01	 6.224510944718811e-01	 9.485961892940525e+00
 1.069256546235278e+00	 4.233089160150696e-01	 1.262940121712190e+01
 1.060621928695730e+00	 4.445009835814379e-01	 1.236087555914531e+01
 1.051530932280860e+00	 4.655992896075891e-01	 1.207917971508783e+01
 1.041983961372580e+00	 4.865895850318852e-01	 1.178544115465827e+01
 1.031981997499850e+00	 5.074575419178803e-01	 1.148083311098481e+01
 1.021526607858687e+00	 5.281887820136757e-01	 1.116657085906497e+01
 1.010619952169409e+00	 5.487689060816964e-01	 1.084390769996730e+01
 9.992647878003310e-01	 5.691835238878922e-01	 1.051413066911207e+01
 9.874644730954648e-01	 5.894182847324629e-01	 1.017855598973594e+01
 9.752229688528294e-01	 6.094589083980005e-01	 9.838524295301410e+00
 9.625448379097046e-01	 6.292912163855157e-01	 9.495395647104720e+00
 1.080878899998233e+00	 4.279100998827580e-01	 1.250289043941522e+01
 1.072150427919546e+00	 4.493325160095001e-01	 1.224903048040929e+01
 1.062960616325657e+00	 4.706601514488539e-01	 1.198211661000680e+01
 1.053309873993932e+00	 4.918786022580766e-01	 1.170320049702129e+01
 1.043199193122128e+00	 5.129733847622828e-01	 1.141337841831983e+01
 1.032630157941003e+00	 5.339299644242272e-01	 1.111378782100478e+01
 1.021604951646094e+00	 5.547337854928831e-01	 1.080560360169985e+01
 1.010126361577113e+00	 5.753703013186130e-01	 1.049003411964912e+01
 9.981977825818115e-01	 5.958250052157493e-01	 1.016831696298774e+01
 9.858232185103620e-01	 6.160834617471294e-01	 9.841714490081403e+00
 9.730072817961023e-01	 6.361313382996451e-01	 9.511509170226903e+00
 1.092501253761168e+00	 4.325112837499361e-01	 1.238970154104591e+01
 1.083678927143527e+00	 4.541640484371521e-01	 1.214980465339428e+01
 1.074390300370775e+00	 4.757210132898089e-01	 1.189697044060016e+01
 1.064635786615735e+00	 4.971676194840585e-01	 1.163217605783256e+01
 1.054416388744956e+00	 5.184892276065766e-01	 1.135644213150828e+01
 1.043733708023937e+00	 5.396711468347709e-01	 1.107082960104856e+01
 1.032589951123436e+00	 5.606986649041628e-01	 1.077643628892192e+01
 1.020987935354560e+00	 5.815570787495272e-01	 1.047439321408612e+01
 1.008931092068801e+00	 6.022317256993295e-01	 1.016586066646397e+01
 9.964234681684848e-01	 6.227080150966529e-01	 9.852024062514129e+00
 9.834697256830054e-01	 6.429714602142690e-01	 9.534089604252914e+00
 1.104123607524082e+00	 4.371124676166038e-01	 1.228941413772916e+01
 1.095207426367674e+00	 4.589955808643940e-01	 1.206279988470644e+01
 1.085819984416216e+00	 4.807818751304540e-01	 1.182336519429430e+01
 1.075961699237989e+00	 5.024566367098313e-01	 1.157201395460990e+01
 1.065633584368334e+00	 5.240050704507618e-01	 1.130969240618618e+01
 1.054837258107488e+00	 5.454123292453066e-01	 1.103738625927802e+01
 1.043574950601434e+00	 5.666635443155353e-01	 1.075611755047125e+01
 1.031849509132672e+00	 5.877438561806352e-01	 1.046694125213276e+01
 1.019664401556434e+00	 6.086384461832040e-01	 1.017094165063664e+01
 1.007023717827197e+00	 6.293325684465709e-01	 9.869228511615358e+00
 9.939321695704136e-01	 6.498115821293877e-01	 9.562933052682661e+00
 1.115745961286976e+00	 4.417136514827613e-01	 1.220162536039511e+01
 1.106735925591986e+00	 4.638271132912256e-01	 1.198763457152599e+01
 1.097249668461980e+00	 4.858427369707892e-01	 1.176094052487111e+01
 1.087287611860693e+00	 5.077456539353947e-01	 1.152237504912424e+01
 1.076850779992260e+00	 5.295209132948384e-01	 1.127281122397520e+01
 1.065940808191658e+00	 5.511535116558346e-01	 1.101316076906563e+01
 1.054559950080090e+00	 5.726284237270007e-01	 1.074437118310439e+01
 1.042711082911450e+00	 5.939306336119368e-01	 1.046742264512689e+01
 1.030397711044709e+00	 6.150451666673727e-01	 1.018332469215578e+01
 1.017623967486499e+00	 6.359571217968834e-01	 9.893112689723932e+00
 1.004394613458327e+00	 6.566517040450012e-01	 9.597844113822489e+00
 1.127368315049849e+00	 4.463148353484084e-01	 1.212594895234258e+01
 1.118264424816463e+00	 4.686586457176470e-01	 1.192394284642307e+01
 1.108679352508066e+00	 4.909035988108147e-01	 1.170935094492387e+01
 1.098613524483847e+00	 5.130346711607490e-01	 1.148293418738670e+01
 1.088067975616736e+00	 5.350367561388065e-01	 1.124549367980321e+01
 1.077044358276446e+00	 5.568946940663547e-01	 1.099786835144105e+01
 1.065544949559402e+00	 5.785933031385589e-01	 1.074093237253177e+01
 1.053572656690893e+00	 6.001174110434317e-01	 1.047559234327006e+01
 1.041131020533627e+00	 6.214518871518355e-01	 1.020278426672681e+01
 1.028224217146390e+00	 6.425816751475903e-01	 9.923470320371592e+00
 1.014857057346746e+00	 6.634918259611092e-01	 9.638635442908690e+00
 1.138990668812702e+00	 4.509160192135453e-01	 1.206201442166939e+01
 1.129792924041105e+00	 4.734901781436583e-01	 1.187137377453166e+01
 1.120109036554474e+00	 4.959644606505302e-01	 1.166826506775460e+01
 1.109939437107452e+00	 5.183236883858939e-01	 1.145337948616693e+01
 1.099285171241760e+00	 5.405525989826659e-01	 1.122744731285789e+01
 1.088147908361853e+00	 5.626358764768669e-01	 1.099123585021066e+01
 1.076529949039371e+00	 5.845581825502102e-01	 1.074554711234869e+01
 1.064434230471001e+00	 6.063041884751205e-01	 1.049121529793047e+01
 1.051864330023189e+00	 6.278586076365928e-01	 1.022910405426075e+01
 1.038824466806871e+00	 6.492062284986921e-01	 9.960103545671180e+00
 1.025319501235670e+00	 6.703319478777121e-01	 9.685127341039516e+00
 1.150613022575534e+00	 4.555172030781720e-01	 1.200946624507029e+01
 1.141321423265912e+00	 4.783217105692595e-01	 1.182959059937970e+01
 1.131538720601204e+00	 5.010253224899361e-01	 1.163736489521714e+01
 1.121265349731507e+00	 5.236127056108295e-01	 1.143341166275270e+01
 1.110502366867334e+00	 5.460684418264167e-01	 1.121839147808888e+01
 1.099251458447877e+00	 5.683770588873712e-01	 1.099300114494869e+01
 1.087514948519997e+00	 5.905230619619543e-01	 1.075797165818255e+01
 1.075295804251774e+00	 6.124909659070027e-01	 1.051406595653359e+01
 1.062597639513394e+00	 6.342653281216439e-01	 1.026207647401550e+01
 1.049424716467942e+00	 6.558307818501883e-01	 1.000282250113574e+01
 1.035781945125100e+00	 6.771720697948095e-01	 9.737147369020651e+00
 1.162235376338345e+00	 4.601183869422883e-01	 1.196796311940721e+01
 1.152849922490885e+00	 4.831532429944503e-01	 1.179827003396940e+01
 1.142968404648257e+00	 5.060861843290319e-01	 1.161634514828947e+01
 1.132591262356013e+00	 5.289017228355558e-01	 1.142274340492412e+01
 1.121719562493458e+00	 5.515842846700590e-01	 1.121805675541957e+01
 1.110355008534519e+00	 5.741182412978676e-01	 1.100291259920875e+01
 1.098499948001281e+00	 5.964879413737912e-01	 1.077797201459120e+01
 1.086157378033213e+00	 6.186777433390787e-01	 1.054392778775915e+01
 1.073330949004241e+00	 6.406720486069893e-01	 1.030150224762835e+01
 1.060024966129602e+00	 6.624553352020790e-01	 1.005144491600855e+01
 1.046244389015035e+00	 6.840121917124017e-01	 9.794529984379787e+00
 9.416199501384250e-01	 6.156109725587411e-01	 9.483430225206710e+00
 9.287953462274744e-01	 6.347946162837050e-01	 9.114466030750016e+00
 9.155542905770797e-01	 6.537471537568762e-01	 8.742853368651090e+00
 9.019029923075504e-01	 6.724551973985354e-01	 8.370179789300536e+00
 8.878482288567273e-01	 6.909055815084219e-01	 7.998042557932342e+00
 8.733973360420002e-01	 7.090853922058951e-01	 7.628042376707932e+00
 8.585581962397351e-01	 7.269819968306050e-01	 7.261777030394018e+00
 8.433392247169470e-01	 7.445830726661317e-01	 6.900834996679420e+00
 8.277493541614975e-01	 7.618766348516912e-01	 6.546789062920652e+00
 8.117980174683143e-01	 7.788510633507310e-01	 6.201189991434431e+00
 7.954951288500001e-01	 7.954951288500001e-01	 5.865560275358468e+00
 9.520823940238123e-01	 6.224510944718811e-01	 9.485961892940525e+00
 9.391152945140595e-01	 6.418478897935279e-01	 9.131304271944927e+00
 9.257271160232740e-01	 6.610110110161846e-01	 8.773665703427509e+00
 9.119241366619902e-01	 6.799269218092460e-01	 8.414553900077424e+00
 8.977132091729143e-01	 6.985823101868938e-01	 8.055487050211411e+00
 8.831017508825175e-01	 7.169641187809249e-01	 7.697987867847187e+00
 8.680977317491259e-01	 7.350595745680968e-01	 7.343577564204573e+00
 8.527096605427205e-01	 7.528562179129182e-01	 6.993769779495437e+00
 8.369465692032501e-01	 7.703419307894854e-01	 6.650064514618979e+00
 8.208179954355866e-01	 7.875049640497287e-01	 6.313942102738846e+00
 8.043339636102501e-01	 8.043339636102501e-01	 5.986857260677025e+00
 9.625448379097046e-01	 6.292912163855157e-01	 9.495395647104720e+00
 9.494352428010591e-01	 6.489011633039358e-01	 9.154320943387026e+00
 9.358999414698121e-01	 6.682748682761483e-01	 8.809939448129432e+00
 9.219452810167237e-01	 6.873986462206629e-01	 8.463680441796541e+00
 9.075781894893646e-01	 7.062590388661032e-01	 8.116984431864656e+00
 8.928061657232872e-01	 7.248428453567026e-01	 7.771297525819390e+00
 8.776372672587778e-01	 7.431371523063274e-01	 7.428065723432784e+00
 8.620800963687846e-01	 7.611293631604144e-01	 7.088729165028684e+00
 8.461437842453429e-01	 7.788072267279392e-01	 6.754716373210533e+00
 8.298379734032688e-01	 7.961588647493163e-01	 6.427438525919396e+00
 8.131727983709998e-01	 8.131727983709998e-01	 6.108283798701542e+00
 9.730072817961023e-01	 6.361313382996451e-01	 9.511509170226903e+00
 9.597551910884740e-01	 6.559544368149283e-01	 9.183317071301831e+00
 9.460727669166951e-01	 6.755387255367674e-01	 8.851498758296019e+00
 9.319664253717509e-01	 6.948703706327861e-01	 8.517406439581203e+00
 9.174431698060769e-01	 7.139357675460493e-01	 8.182404292828139e+00
 9.025105805643084e-01	 7.327215719332285e-01	 7.847863156027244e+00
 8.871768027686909e-01	 7.512147300452967e-01	 7.515155135657112e+00
 8.714505321951391e-01	 7.694025084086192e-01	 7.185648166588301e+00
 8.553409992877762e-01	 7.872725226670531e-01	 6.860700559086093e+00
 8.388579513713611e-01	 8.048127654494942e-01	 6.541655568700416e+00
 8.220116331322499e-01	 8.220116331322499e-01	 6.229836024897328e+00
 9.834697256830054e-01	 6.429714602142690e-01	 9.534089604252914e+00
 9.700751393763041e-01	 6.630077103265059e-01	 9.218102147990610e+00
 9.562455923639225e-01	 6.828025827980423e-01	 8.898175271325123e+00
 9.419875697270718e-01	 7.023420950456155e-01	 8.575585427251205e+00
 9.273081501230523e-01	 7.216124962267327e-01	 8.251621771543752e+00
 9.122149954055820e-01	 7.406002985105027e-01	 7.927581167056719e+00
 8.967163382788652e-01	 7.592923077850046e-01	 7.604763103054454e+00
 8.808209680217846e-01	 7.776756536575339e-01	 7.284464562071547e+00
 8.645382143305497e-01	 7.957378186068262e-01	 6.967974867584311e+00
 8.478779293398637e-01	 8.134666661502616e-01	 6.656570546232341e+00
 8.308504678940001e-01	 8.308504678940001e-01	 6.351510238448485e+00
 9.939321695704136e-01	 6.498115821293877e-01	 9.562933052682661e+00
 9.803950876645493e-01	 6.700609838386684e-01	 9.258493686247551e+00
 9.664184178114943e-01	 6.900664400599723e-01	 8.949807712691394e+00
 9.520087140826864e-01	 7.098138194591513e-01	 8.638077104759937e+00
 9.371731304402908e-01	 7.292892249081534e-01	 8.324517262932467e+00
 9.219194102471076e-01	 7.484790250885244e-01	 8.010352328404048e+00
 9.062558737893012e-01	 7.673698855254514e-01	 7.696810409000305e+00
 8.901914038487204e-01	 7.859487989071573e-01	 7.385118748459151e+00
 8.737354293736630e-01	 8.042031145472591e-01	 7.076498870310101e+00
 8.568979073087760e-01	 8.221205668516193e-01	 6.772161728069531e+00
 8.396893026562502e-01	 8.396893026562502e-01	 6.473302893641203e+00
 1.004394613458327e+00	 6.566517040450012e-01	 9.597844113822489e+00
 9.907150359532092e-01	 6.771142573514157e-01	 9.304316801625712e+00
 9.765912432594107e-01	 6.973302973225582e-01	 9.006241526775520e+00
 9.620298584385946e-01	 7.172855438733935e-01	 8.704747017041555e+00
 9.470381107577920e-01	 7.369659535903109e-01	 8.400976144619491e+00
 9.316238250888850e-01	 7.563577516672941e-01	 8.096081543345043e+00
 9.157954092999983e-01	 7.754474632666368e-01	 7.791221136756319e+00
 8.995618396759473e-01	 7.942219441574904e-01	 7.487553605404707e+00
 8.829326444171172e-01	 8.126684104883521e-01	 7.186233822620843e+00
 8.659178852780987e-01	 8.307744675535668e-01	 6.888408288461488e+00
 8.485281374190000e-01	 8.485281374190000e-01	 6.595210591785465e+00
 1.014857057346746e+00	 6.634918259611092e-01	 9.638635442908690e+00
 1.001034984242285e+00	 6.841675308647481e-01	 9.355403820542248e+00
 9.867640687076716e-01	 7.045941545857993e-01	 9.067328530528876e+00
 9.720510027947967e-01	 7.247572682883416e-01	 8.775466252723406e+00
 9.569030910755562e-01	 7.446426822732061e-01	 8.480888520093815e+00
 9.413282399309146e-01	 7.642364782468121e-01	 8.184677635853673e+00
 9.253349448109566e-01	 7.835250410085610e-01	 7.887922499373051e+00
 9.089322755034644e-01	 8.024950894085326e-01	 7.591714367261879e+00
 8.921298594609115e-01	 8.211337064301045e-01	 7.297142576834950e+00
 8.749378632478313e-01	 8.394283682561041e-01	 7.005290259719310e+00
 8.573669721822499e-01	 8.573669721822500e-01	 6.717230073636565e+00
 1.025319501235670e+00	 6.703319478777121e-01	 9.685127341039516e+00
 1.011354932531775e+00	 6.912208043786654e-01	 9.411593912377210e+00
 9.969368941562768e-01	 7.118580118496960e-01	 9.132926588342398e+00
 9.820721471512923e-01	 7.322289927039963e-01	 8.850111161284371e+00
 9.667680713935828e-01	 7.523194109568380e-01	 8.564148977592687e+00
 9.510326547731961e-01	 7.721152048270781e-01	 8.276053150566442e+00
 9.348744803221760e-01	 7.916026187512237e-01	 7.986844680006946e+00
 9.183027113312726e-01	 8.107682346602844e-01	 7.697548502946630e+00
 9.013270745050462e-01	 8.295990023725169e-01	 7.409189500754364e+00
 8.839578412179739e-01	 8.480822689592314e-01	 7.122788488436837e+00
 8.662058069460000e-01	 8.662058069460000e-01	 6.839358212280496e+00
 1.035781945125100e+00	 6.771720697948095e-01	 9.737147369020651e+00
 1.021674880821681e+00	 6.982740778931678e-01	 9.472732743869317e+00
 1.007109719605227e+00	 7.191218691142480e-01	 9.202899306620411e+00
 9.920932915080820e-01	 7.397007171203575e-01	 8.928563087355499e+00
 9.766330517118729e-01	 7.599961396412075e-01	 8.650656363599170e+00
 9.607370696157297e-01	 7.799939314080919e-01	 8.370124164870187e+00
 9.444140158336568e-01	 7.996801964946254e-01	 8.087920681914815e+00
 9.276731471593713e-01	 8.190413799127453e-01	 7.805005603080521e+00
 9.105242895495208e-01	 8.380642983155886e-01	 7.522340401124867e+00
 8.929778191885266e-01	 8.567361696629487e-01	 7.240884594365439e+00
 8.750446417102501e-01	 8.750446417102501e-01	 6.961592006450593e+00
 1.046244389015035e+00	 6.840121917124017e-01	 9.794529984379787e+00
 1.031994829112001e+00	 7.053273514082546e-01	 9.538672154248086e+00
 1.017282545054521e+00	 7.263857263794559e-01	 9.277115746679771e+00
 1.002114435865165e+00	 7.471724415374245e-01	 9.010708120962221e+00
 9.864980320304253e-01	 7.676728683263137e-01	 8.740313569929921e+00
 9.704414844585151e-01	 7.878726579898537e-01	 8.466810112264415e+00
 9.539535513453987e-01	 8.077577742387658e-01	 8.191086187449008e+00
 9.370435829877606e-01	 8.273145251659155e-01	 7.914037273905462e+00
 9.197215045943361e-01	 8.465295942593203e-01	 7.636562451688965e+00
 9.019977971594894e-01	 8.653900703672559e-01	 7.359560931755970e+00
 8.838834764750000e-01	 8.838834764750000e-01	 7.083928574245250e+00
 7.954951288500001e-01	 7.954951288500001e-01	 5.865560275358468e+00
 7.788510633507308e-01	 8.117980174683144e-01	 5.523629688660897e+00
 7.618766348516911e-01	 8.277493541614976e-01	 5.188288323188243e+00
 7.445830726661320e-01	 8.433392247169471e-01	 4.860819970559106e+00
 7.269819968306053e-01	 8.585581962397351e-01	 4.542483721447874e+00
 7.090853922058953e-01	 8.733973360420000e-01	 4.234509104450169e+00
 6.909055815084221e-01	 8.878482288567272e-01	 3.938091393742240e+00
 6.724551973985359e-01	 9.019029923075501e-01	 3.654387115117031e+00
 6.537471537568769e-01	 9.155542905770793e-01	 3.384509778146390e+00
 6.347946162837055e-01	 9.287953462274742e-01	 3.129525860121530e+00
 6.156109725587411e-01	 9.416199501384250e-01	 2.890451065096080e+00
 8.043339636102501e-01	 8.043339636102501e-01	 5.986857260677025e+00
 7.875049640497286e-01	 8.208179954355866e-01	 5.651391570869438e+00
 7.703419307894857e-01	 8.369465692032504e-01	 5.322055179791058e+00
 7.528562179129183e-01	 8.527096605427203e-01	 5.000083832200414e+00
 7.350595745680969e-01	 8.680977317491256e-01	 4.686690100810864e+00
 7.169641187809250e-01	 8.831017508825173e-01	 4.383058712077776e+00
 6.985823101868941e-01	 8.977132091729141e-01	 4.090342031378658e+00
 6.799269218092464e-01	 9.119241366619899e-01	 3.809655736045508e+00
 6.610110110161852e-01	 9.257271160232733e-01	 3.542074702967842e+00
 6.418478897935284e-01	 9.391152945140590e-01	 3.288629135492584e+00
 6.224510944718810e-01	 9.520823940238121e-01	 3.050300952130488e+00
 8.131727983709998e-01	 8.131727983709998e-01	 6.108283798701542e+00
 7.961588647493163e-01	 8.298379734032689e-01	 5.778800253655230e+00
 7.788072267279395e-01	 8.461437842453429e-01	 5.454992799550999e+00
 7.611293631604142e-01	 8.620800963687844e-01	 5.138050045279796e+00
 7.431371523063276e-01	 8.776372672587778e-01	 4.829138935178072e+00
 7.248428453567030e-01	 8.928061657232867e-01	 4.529400258633856e+00
 7.062590388661033e-01	 9.075781894893641e-01	 4.239944309817390e+00
 6.873986462206633e-01	 9.219452810167234e-01	 3.961846724888302e+00
 6.682748682761487e-01	 9.358999414698115e-01	 3.696144522383844e+00
 6.489011633039364e-01	 9.494352428010588e-01	 3.443832370603690e+00
 6.292912163855158e-01	 9.625448379097047e-01	 3.205859103699150e+00
 8.220116331322499e-01	 8.220116331322499e-01	 6.229836024897328e+00
 8.048127654494940e-01	 8.388579513713611e-01	 5.905867441558278e+00
 7.872725226670528e-01	 8.553409992877761e-01	 5.587128239101261e+00
 7.694025084086196e-01	 8.714505321951391e-01	 5.274760772153481e+00
 7.512147300452968e-01	 8.871768027686908e-01	 4.969887217560742e+00
 7.327215719332288e-01	 9.025105805643083e-01	 4.673605264810853e+00
 7.139357675460497e-01	 9.174431698060764e-01	 4.386983947439786e+00
 6.948703706327866e-01	 9.319664253717506e-01	 4.111059641682958e+00
 6.755387255367677e-01	 9.460727669166946e-01	 3.846832257079530e+00
 6.559544368149288e-01	 9.597551910884736e-01	 3.595261641946605e+00
 6.361313382996451e-01	 9.730072817961023e-01	 3.357264224645055e+00
 8.308504678940001e-01	 8.308504678940001e-01	 6.351510238448485e+00
 8.134666661502615e-01	 8.478779293398638e-01	 6.032604340351449e+00
 7.957378186068262e-01	 8.645382143305497e-01	 5.718487403056663e+00
 7.776756536575337e-01	 8.808209680217844e-01	 5.410256380392873e+00
 7.592923077850048e-01	 8.967163382788653e-01	 5.108989515125220e+00
 7.406002985105028e-01	 9.122149954055819e-01	 4.815742207289722e+00
 7.216124962267330e-01	 9.273081501230521e-01	 4.531543014491774e+00
 7.023420950456158e-01	 9.419875697270713e-01	 4.257389809358806e+00
 6.828025827980426e-01	 9.562455923639220e-01	 3.994246117872230e+00
 6.630077103265065e-01	 9.700751393763041e-01	 3.743037660613436e+00
 6.429714602142689e-01	 9.834697256830051e-01	 3.504649117069132e+00
 8.396893026562502e-01	 8.396893026562502e-01	 6.473302893641203e+00
 8.221205668516191e-01	 8.568979073087760e-01	 6.159021683291362e+00
 8.042031145472591e-01	 8.737354293736630e-01	 5.849095104646121e+00
 7.859487989071573e-01	 8.901914038487202e-01	 5.544575537247168e+00
 7.673698855254515e-01	 9.062558737893011e-01	 5.246498096869175e+00
 7.484790250885247e-01	 9.219194102471072e-01	 4.955876678950982e+00
 7.292892249081535e-01	 9.371731304402904e-01	 4.673700125091133e+00
 7.098138194591518e-01	 9.520087140826861e-01	 4.400928536742517e+00
 6.900664400599729e-01	 9.664184178114940e-01	 4.138489758862565e+00
 6.700609838386691e-01	 9.803950876645489e-01	 3.887276054685962e+00
 6.498115821293877e-01	 9.939321695704137e-01	 3.648140991000891e+00
 8.485281374190000e-01	 8.485281374190000e-01	 6.595210591785465e+00
 8.307744675535665e-01	 8.659178852780989e-01	 6.285129755728637e+00
 8.126684104883521e-01	 8.829326444171173e-01	 5.978975122555617e+00
 7.942219441574904e-01	 8.995618396759469e-01	 5.677755298201586e+00
 7.754474632666368e-01	 9.157954092999980e-01	 5.382463053317744e+00
 7.563577516672944e-01	 9.316238250888849e-01	 5.094071539072547e+00
 7.369659535903115e-01	 9.470381107577917e-01	 4.813530617234036e+00
 7.172855438733938e-01	 9.620298584385945e-01	 4.541763327626011e+00
 6.973302973225586e-01	 9.765912432594104e-01	 4.279662514763340e+00
 6.771142573514164e-01	 9.907150359532090e-01	 4.028087633975941e+00
 6.566517040450012e-01	 1.004394613458327e+00	 3.787861755652017e+00
 8.573669721822499e-01	 8.573669721822500e-01	 6.717230073636565e+00
 8.394283682561042e-01	 8.749378632478314e-01	 6.410938418195784e+00
 8.211337064301045e-01	 8.921298594609115e-01	 6.108150254255214e+00
 8.024950894085328e-01	 9.089322755034644e-01	 5.809831190058126e+00
 7.835250410085610e-01	 9.253349448109562e-01	 5.516932408815891e+00
 7.642364782468123e-01	 9.413282399309145e-01	 5.230387054237314e+00
 7.446426822732063e-01	 9.569030910755558e-01	 4.951106721667323e+00
 7.247572682883421e-01	 9.720510027947962e-01	 4.679978076902282e+00
 7.045941545857998e-01	 9.867640687076713e-01	 4.417859623548400e+00
 6.841675308647487e-01	 1.001034984242284e+00	 4.165578638389348e+00
 6.634918259611091e-01	 1.014857057346746e+00	 3.923928292654555e+00
 8.662058069460000e-01	 8.662058069460000e-01	 6.839358212280496e+00
 8.480822689592312e-01	 8.839578412179739e-01	 6.536457128081634e+00
 8.295990023725168e-01	 9.013270745050461e-01	 6.236642366061047e+00
 8.107682346602842e-01	 9.183027113312724e-01	 5.940837288929570e+00
 7.916026187512240e-01	 9.348744803221758e-01	 5.649952226945876e+00
 7.721152048270784e-01	 9.510326547731961e-01	 5.364881030613263e+00
 7.523194109568384e-01	 9.667680713935827e-01	 5.086497720421622e+00
 7.322289927039969e-01	 9.820721471512921e-01	 4.815653254692920e+00
 7.118580118496967e-01	 9.969368941562767e-01	 4.553172435469965e+00
 6.912208043786661e-01	 1.011354932531775e+00	 4.299850971085021e+00
 6.703319478777120e-01	 1.025319501235670e+00	 4.056452712570017e+00
 8.750446417102501e-01	 8.750446417102501e-01	 6.961592006450593e+00
 8.567361696629487e-01	 8.929778191885266e-01	 6.661694959992119e+00
 8.380642983155886e-01	 9.105242895495208e-01	 6.364472440163372e+00
 8.190413799127454e-01	 9.276731471593713e-01	 6.070806293506491e+00
 7.996801964946257e-01	 9.444140158336568e-01	 5.781566709555706e+00
 7.799939314080920e-01	 9.607370696157294e-01	 5.497608938217042e+00
 7.599961396412075e-01	 9.766330517118722e-01	 5.219770095736506e+00
 7.397007171203579e-01	 9.920932915080817e-01	 4.948866079316238e+00
 7.191218691142488e-01	 1.007109719605227e+00	 4.685688609408122e+00
 6.982740778931683e-01	 1.021674880821680e+00	 4.431002417502012e+00
 6.771720697948095e-01	 1.035781945125100e+00	 4.185542595852482e+00
 8.838834764750000e-01	 8.838834764750000e-01	 7.083928574245250e+00
 8.653900703672558e-01	 9.019977971594894e-01	 6.786660624889428e+00
 8.465295942593203e-01	 9.197215045943362e-01	 6.491660618832709e+00
 8.273145251659157e-01	 9.370435829877607e-01	 6.199769593928632e+00
 8.077577742387659e-01	 9.539535513453987e-01	 5.911818289845623e+00
 7.878726579898540e-01	 9.704414844585149e-01	 5.628624027721392e+00
 7.676728683263140e-01	 9.864980320304252e-01	 5.350987670049896e+00
 7.471724415374250e-01	 1.002114435865165e+00	 5.079690679877553e+00
 7.263857263794565e-01	 1.017282545054521e+00	 4.815492297439532e+00
 7.053273514082554e-01	 1.031994829112000e+00	 4.559126851245932e+00
 6.840121917124017e-01	 1.046244389015035e+00	 4.311301219353979e+00
 6.156109725587411e-01	 9.416199501384250e-01	 2.890451065096080e+00
 5.962098017009264e-01	 9.540224695395332e-01	 2.639243937829088e+00
 5.766048437667730e-01	 9.659978541247000e-01	 2.398506886573829e+00
 5.568099690270316e-01	 9.775416402487633e-01	 2.168923621579541e+00
 5.368391472596018e-01	 9.886499532180105e-01	 1.951148148538268e+00
 5.167064171925495e-01	 9.993195076959103e-01	 1.745802656073456e+00
 4.964258562287501e-01	 1.009547606256940e+00	 1.553475586356902e+00
 4.760115505788752e-01	 1.019332136131226e+00	 1.374719897413718e+00
 4.554775659241308e-01	 1.028671564192235e+00	 1.210051523974492e+00
 4.348379187240837e-01	 1.037564930248593e+00	 1.059948042011222e+00
 4.141065482781622e-01	 1.046011838709305e+00	 9.248475403750762e-01
 6.224510944718810e-01	 9.520823940238121e-01	 3.050300952130488e+00
 6.028343550492661e-01	 9.646227191958865e-01	 2.797082636742034e+00
 5.830115642494710e-01	 9.767311636097610e-01	 2.554197867027273e+00
 5.629967464573653e-01	 9.884032140242146e-01	 2.322317715713712e+00
 5.428040266706029e-01	 9.996349526933817e-01	 2.102083724324016e+00
 5.224475996031166e-01	 1.010423057776989e+00	 1.894105847877333e+00
 5.019416990733697e-01	 1.020764801878120e+00	 1.698960580860646e+00
 4.813005678054852e-01	 1.030658048751678e+00	 1.517189272685165e+00
 4.605384277660153e-01	 1.040101248236386e+00	 1.349296639167055e+00
 4.396694511529662e-01	 1.049093429472078e+00	 1.195749474878465e+00
 4.187077321468711e-01	 1.057634192472302e+00	 1.056975569526856e+00
 6.292912163855158e-01	 9.625448379097047e-01	 3.205859103699150e+00
 6.094589083980003e-01	 9.752229688528293e-01	 2.950441909427314e+00
 5.894182847324629e-01	 9.874644730954647e-01	 2.705220481518373e+00
 5.691835238878924e-01	 9.992647878003311e-01	 2.470853618840976e+00
 5.487689060816965e-01	 1.010619952169409e+00	 2.247970760368557e+00
 5.281887820136760e-01	 1.021526607858687e+00	 2.037169985866230e+00
 5.074575419178806e-01	 1.031981997499849e+00	 1.839016196027709e+00
 4.865895850318857e-01	 1.041983961372579e+00	 1.654039479938645e+00
 4.655992896075897e-01	 1.051530932280860e+00	 1.482733676091981e+00
 4.445009835814387e-01	 1.060621928695729e+00	 1.325555131516367e+00
 4.233089160150698e-01	 1.069256546235278e+00	 1.182921661919686e+00
 6.361313382996451e-01	 9.730072817961023e-01	 3.357264224645055e+00
 6.160834617471291e-01	 9.858232185103623e-01	 3.099466507927009e+00
 5.958250052157492e-01	 9.981977825818114e-01	 2.851725569219134e+00
 5.753703013186131e-01	 1.010126361577113e+00	 2.614688285470016e+00
 5.547337854928833e-01	 1.021604951646094e+00	 2.388972343067036e+00
 5.339299644242276e-01	 1.032630157941003e+00	 2.175164293320963e+00
 5.129733847622833e-01	 1.043199193122128e+00	 1.973817785617966e+00
 4.918786022580771e-01	 1.053309873993932e+00	 1.785451985782295e+00
 4.706601514488546e-01	 1.062960616325656e+00	 1.610550185567830e+00
 4.493325160095007e-01	 1.072150427919546e+00	 1.449558607559121e+00
 4.279100998827580e-01	 1.080878899998233e+00	 1.302885408133620e+00
 6.429714602142689e-01	 9.834697256830051e-01	 3.504649117069132e+00
 6.227080150966526e-01	 9.964234681684844e-01	 3.244295024247514e+00
 6.022317256993296e-01	 1.008931092068801e+00	 2.993857550272685e+00
 5.815570787495273e-01	 1.020987935354560e+00	 2.753971990886770e+00
 5.606986649041629e-01	 1.032589951123436e+00	 2.525244618693012e+00
 5.396711468347712e-01	 1.043733708023936e+00	 2.308250792288394e+00
 5.184892276065770e-01	 1.054416388744956e+00	 2.103533241316564e+00
 4.971676194840591e-01	 1.064635786615735e+00	 1.911600534657884e+00
 4.757210132898095e-01	 1.074390300370775e+00	 1.732925737372367e+00
 4.541640484371527e-01	 1.083678927143527e+00	 1.567945260400861e+00
 4.325112837499361e-01	 1.092501253761168e+00	 1.417057905429973e+00
 6.498115821293877e-01	 9.939321695704137e-01	 3.648140991000891e+00
 6.293325684465706e-01	 1.007023717827196e+00	 3.385060214572111e+00
 6.086384461832042e-01	 1.019664401556434e+00	 3.131754763637079e+00
 5.877438561806352e-01	 1.031849509132672e+00	 2.888848682692529e+00
 5.666635443155355e-01	 1.043574950601434e+00	 2.656937158668111e+00
 5.454123292453070e-01	 1.054837258107488e+00	 2.436584682593733e+00
 5.240050704507622e-01	 1.065633584368333e+00	 2.228323385474637e+00
 5.024566367098319e-01	 1.075961699237989e+00	 2.032651555270610e+00
 4.807818751304545e-01	 1.085819984416216e+00	 1.850032340297552e+00
 4.589955808643948e-01	 1.095207426367674e+00	 1.680892642787211e+00
 4.371124676166038e-01	 1.104123607524082e+00	 1.525622204768125e+00
 6.566517040450012e-01	 1.004394613458327e+00	 3.787861755652017e+00
 6.359571217968834e-01	 1.017623967486498e+00	 3.521889303209739e+00
 6.150451666673726e-01	 1.030397711044709e+00	 3.265549783813610e+00
 5.939306336119369e-01	 1.042711082911450e+00	 3.019456310370857e+00
 5.726284237270008e-01	 1.054559950080089e+00	 2.784193302002127e+00
 5.511535116558349e-01	 1.065940808191658e+00	 2.560314697164506e+00
 5.295209132948389e-01	 1.076850779992260e+00	 2.348342339303824e+00
 5.077456539353953e-01	 1.087287611860692e+00	 2.148764541616873e+00
 4.858427369707898e-01	 1.097249668461979e+00	 1.962034835950617e+00
 4.638271132912263e-01	 1.106735925591985e+00	 1.788570909307518e+00
 4.417136514827614e-01	 1.115745961286976e+00	 1.628753729883638e+00
 6.634918259611091e-01	 1.014857057346746e+00	 3.923928292654555e+00
 6.425816751475903e-01	 1.028224217146390e+00	 3.654904267743543e+00
 6.214518871518357e-01	 1.041131020533627e+00	 3.395369717983654e+00
 6.001174110434320e-01	 1.053572656690893e+00	 3.145927134468810e+00
 5.785933031385591e-01	 1.065544949559402e+00	 2.907150476551402e+00
 5.568946940663551e-01	 1.077044358276446e+00	 2.679583435375943e+00
 5.350367561388070e-01	 1.088067975616736e+00	 2.463737868295796e+00
 5.130346711607495e-01	 1.098613524483847e+00	 2.260092410443768e+00
 4.909035988108152e-01	 1.108679352508065e+00	 2.069091268196710e+00
 4.686586457176479e-01	 1.118264424816463e+00	 1.891143197742938e+00
 4.463148353484084e-01	 1.127368315049849e+00	 1.726620670444270e+00
 6.703319478777120e-01	 1.025319501235670e+00	 4.056452712570017e+00
 6.492062284986920e-01	 1.038824466806871e+00	 3.784222106720603e+00
 6.278586076365926e-01	 1.051864330023189e+00	 3.521336484953712e+00
 6.063041884751207e-01	 1.064434230471001e+00	 3.268388016848932e+00
 5.845581825502105e-01	 1.076529949039371e+00	 3.025940500608272e+00
 5.626358764768672e-01	 1.088147908361853e+00	 2.794527675987155e+00
 5.405525989826665e-01	 1.099285171241760e+00	 2.574651706493694e+00
 5.183236883858944e-01	 1.109939437107452e+00	 2.366781836822712e+00
 4.959644606505308e-01	 1.120109036554474e+00	 2.171353229982492e+00
 4.734901781436591e-01	 1.129792924041105e+00	 1.988765987067020e+00
 4.509160192135453e-01	 1.138990668812702e+00	 1.819384351134936e+00
 6.771720697948095e-01	 1.035781945125100e+00	 4.185542595852482e+00
 6.558307818501883e-01	 1.049424716467942e+00	 3.909955091118679e+00
 6.342653281216438e-01	 1.062597639513393e+00	 3.643567077194498e+00
 6.124909659070029e-01	 1.075295804251774e+00	 3.386960693350008e+00
 5.905230619619546e-01	 1.087514948519997e+00	 3.140689866212420e+00
 5.683770588873716e-01	 1.099251458447877e+00	 2.905278671111791e+00
 5.460684418264172e-01	 1.110502366867334e+00	 2.681219861110864e+00
 5.236127056108301e-01	 1.121265349731507e+00	 2.468973569385891e+00
 5.010253224899366e-01	 1.131538720601204e+00	 2.268966189140105e+00
 4.783217105692602e-01	 1.141321423265912e+00	 2.081589433749039e+00
 4.555172030781719e-01	 1.150613022575534e+00	 1.907199578374137e+00
 6.840121917124017e-01	 1.046244389015035e+00	 4.311301219353979e+00
 6.624553352020789e-01	 1.060024966129602e+00	 4.032211000724481e+00
 6.406720486069893e-01	 1.073330949004241e+00	 3.762173807157620e+00
 6.186777433390788e-01	 1.086157378033213e+00	 3.501762030088182e+00
 5.964879413737916e-01	 1.098499948001280e+00	 3.251520005463436e+00
 5.741182412978680e-01	 1.110355008534519e+00	 3.011962422550196e+00
 5.515842846700593e-01	 1.121719562493458e+00	 2.783572898872028e+00
 5.289017228355563e-01	 1.132591262356013e+00	 2.566802726647973e+00
 5.060861843290325e-01	 1.142968404648257e+00	 2.362069794642744e+00
 4.831532429944511e-01	 1.152849922490885e+00	 2.169757687879235e+00
 4.601183869422882e-01	 1.162235376338345e+00	 1.990214966227084e+00
 4.141065482781622e-01	 1.046011838709305e+00	 9.248475403750762e-01
 3.932972896413123e-01	 1.054012448698682e+00	 7.760532891945806e-01
 3.724238474895377e-01	 1.061567462705179e+00	 6.371225728026884e-01
 3.514997710187807e-01	 1.068678113852559e+00	 5.082394524744998e-01
 3.305384299522138e-01	 1.075346151886617e+00	 3.895736295628263e-01
 3.095529917259615e-01	 1.081573827976446e+00	 2.812799478868515e-01
 2.885563999111744e-01	 1.087363878431055e+00	 1.834979657941616e-01
 2.675613539221366e-01	 1.092719507434895e+00	 9.635159897571688e-02
 2.465802900510743e-01	 1.097644368907271e+00	 1.994883454900553e-02
 2.256253638614278e-01	 1.102142547591368e+00	-4.561848361997267e-02
 2.047084339626188e-01	 1.106218539478505e+00	-1.002747989129873e-01
 4.187077321468711e-01	 1.057634192472302e+00	 1.056975569526856e+00
 3.976672595254846e-01	 1.065723698129262e+00	 9.022271481320534e-01
 3.765618902389651e-01	 1.073362656736697e+00	 7.576927902844468e-01
 3.554053240298771e-01	 1.080552315119742e+00	 6.235574784004083e-01
 3.342110791738727e-01	 1.087294442465818e+00	 4.999902135127379e-01
 3.129924694119229e-01	 1.093591314957006e+00	 3.871435804613632e-01
 2.917625821326362e-01	 1.099445699305754e+00	 2.851533884473472e-01
 2.705342578549005e-01	 1.104860835298564e+00	 1.941383873535594e-01
 2.493200710519669e-01	 1.109840417453845e+00	 1.142000596647952e-01
 2.281323123490928e-01	 1.114388575900822e+00	 4.542248727150899e-02
 2.069829721180270e-01	 1.118509856586275e+00	-1.212770807944508e-02
 4.233089160150698e-01	 1.069256546235278e+00	 1.182921661919686e+00
 4.020372294090627e-01	 1.077434947559639e+00	 1.022225830636632e+00
 3.806999329877463e-01	 1.085157850767857e+00	 8.720832010872408e-01
 3.593108770403063e-01	 1.092426516386447e+00	 7.326798339505787e-01
 3.378837283948748e-01	 1.099242733044450e+00	 6.041842107786792e-01
 3.164319470972685e-01	 1.105608801936938e+00	 4.867468607635532e-01
 2.949687643535532e-01	 1.111527520179795e+00	 3.805000684952087e-01
 2.735071617872199e-01	 1.117002163161573e+00	 2.855576624482619e-01
 2.520598520525447e-01	 1.122036465999790e+00	 2.020148833562743e-01
 2.306392608366009e-01	 1.126634604209704e+00	 1.299483310817973e-01
 2.092575102734646e-01	 1.130801173693560e+00	 6.941598807606075e-02
 4.279100998827580e-01	 1.080878899998233e+00	 1.302885408133620e+00
 4.064071992920467e-01	 1.089146196989810e+00	 1.136248698718760e+00
 3.848379757358810e-01	 1.096953044798660e+00	 9.804933058441403e-01
 3.632164300500685e-01	 1.104300717652674e+00	 8.358065205205056e-01
 3.415563776152200e-01	 1.111191023622512e+00	 7.023564798411073e-01
 3.198714247819980e-01	 1.117626288916241e+00	 5.802918541394402e-01
 2.981749465739252e-01	 1.123609341053177e+00	 4.697416207043206e-01
 2.764800657190950e-01	 1.129143491023926e+00	 3.708149231359794e-01
 2.547996330528077e-01	 1.134232514545106e+00	 2.836010148364068e-01
 2.331462093239524e-01	 1.138880632518015e+00	 2.081692845762484e-01
 2.115320484289314e-01	 1.143092490800359e+00	 1.445693615706736e-01
 4.325112837499361e-01	 1.092501253761168e+00	 1.417057905429973e+00
 4.107771691744364e-01	 1.100857446419777e+00	 1.244486630820140e+00
 3.889760184833697e-01	 1.108748238829107e+00	 1.083114115742859e+00
 3.671219830591637e-01	 1.116174918918422e+00	 9.331290287713285e-01
 3.452290268349087e-01	 1.123139314200007e+00	 7.946993319929949e-01
 3.233109024661119e-01	 1.129643775894916e+00	 6.679720274080079e-01
 3.013811287937522e-01	 1.135691161925902e+00	 5.530729953958553e-01
 2.794529696505255e-01	 1.141284818885619e+00	 4.501069236849562e-01
 2.575394140527559e-01	 1.146428563089792e+00	 3.591573246637605e-01
 2.356531578111472e-01	 1.151126660825756e+00	 2.802866383185152e-01
 2.138065865844276e-01	 1.155383807906674e+00	 2.135364175771137e-01
 4.371124676166038e-01	 1.104123607524082e+00	 1.525622204768125e+00
 4.151471390562320e-01	 1.112568695849540e+00	 1.347122468317653e+00
 3.931140612302117e-01	 1.120543432859196e+00	 1.180128599338455e+00
 3.710275360675918e-01	 1.128049120183693e+00	 1.024830786563579e+00
 3.489016760539405e-01	 1.135087604776933e+00	 8.813969811917153e-01
 3.267503801496099e-01	 1.141661262872963e+00	 7.499727014151454e-01
 3.045873110130343e-01	 1.147772982797968e+00	 6.306809344688846e-01
 2.824258735815118e-01	 1.153426146746654e+00	 5.236221339979998e-01
 2.602791950523892e-01	 1.158624611633849e+00	 4.288743099348440e-01
 2.381601062981852e-01	 1.163372689132924e+00	 3.464932075234584e-01
 2.160811247399532e-01	 1.167675125012503e+00	 2.765125716259946e-01
 4.417136514827614e-01	 1.115745961286976e+00	 1.628753729883638e+00
 4.195171089374332e-01	 1.124279945279097e+00	 1.444331434120079e+00
 3.972521039764076e-01	 1.132338626888928e+00	 1.271712101440734e+00
 3.749330890753527e-01	 1.139923321448485e+00	 1.111087578894421e+00
 3.525743252723156e-01	 1.147035895353290e+00	 9.626259657953644e-01
 3.301898578324918e-01	 1.153678749850381e+00	 8.264714753032310e-01
 3.077934932317715e-01	 1.159854803669376e+00	 7.027443989226125e-01
 2.853987775120535e-01	 1.165567474607031e+00	 5.915411710900138e-01
 2.630189760517078e-01	 1.170820660177278e+00	 4.929345304018793e-01
 2.406670547850666e-01	 1.175618717439521e+00	 4.069737734814201e-01
 2.183556628955082e-01	 1.179966442117847e+00	 3.336850969829825e-01
 4.463148353484084e-01	 1.127368315049849e+00	 1.726620670444270e+00
 4.238870788180403e-01	 1.135991194708451e+00	 1.536281525372963e+00
 4.013901467219571e-01	 1.144133820918303e+00	 1.358032736090705e+00
 3.788386420824468e-01	 1.151797522712798e+00	 1.192067941859696e+00
 3.562469744900341e-01	 1.158984185929079e+00	 1.038555544212073e+00
 3.336293355147580e-01	 1.165696236827171e+00	 8.976386245370089e-01
 3.109996754499638e-01	 1.171936624540127e+00	 7.694349699336069e-01
 2.883716814421509e-01	 1.177708802466749e+00	 6.540372038759188e-01
 2.657587570507115e-01	 1.183016708720077e+00	 5.515130176143237e-01
 2.431740032717912e-01	 1.187864745745547e+00	 4.619054976782417e-01
 2.206302010510924e-01	 1.192257759222705e+00	 3.852335443531525e-01
 4.509160192135453e-01	 1.138990668812702e+00	 1.819384351134936e+00
 4.282570486980531e-01	 1.147702444137599e+00	 1.623133882119952e+00
 4.055281894668601e-01	 1.155929014947321e+00	 1.439251755477187e+00
 3.827441950888737e-01	 1.163671723976633e+00	 1.267933532496055e+00
 3.599196237070956e-01	 1.170932476504298e+00	 1.109348066326286e+00
 3.370688131964081e-01	 1.177713723803332e+00	 9.636374745606204e-01
 3.142058576676110e-01	 1.184018445410219e+00	 8.309172253772066e-01
 2.913445853718038e-01	 1.189850130325810e+00	 7.112763331759124e-01
 2.684985380494003e-01	 1.195212757262246e+00	 6.047776590107974e-01
 2.456809517583592e-01	 1.200110774051002e+00	 5.114583105606012e-01
 2.229047392067060e-01	 1.204549076327078e+00	 4.313301358894464e-01
 4.555172030781719e-01	 1.150613022575534e+00	 1.907199578374137e+00
 4.326270185774718e-01	 1.159413693566544e+00	 1.705043133620946e+00
 4.096662322111168e-01	 1.167724208975982e+00	 1.515523896495323e+00
 3.866497480946336e-01	 1.175545925239990e+00	 1.338839476207884e+00
 3.635922729235004e-01	 1.182880767078950e+00	 1.175159322413781e+00
 3.405082908774424e-01	 1.189731210778864e+00	 1.024624751808729e+00
 3.174120398847132e-01	 1.196100266279651e+00	 8.873490935298518e-01
 2.943174893010123e-01	 1.201991458184212e+00	 7.634179486896897e-01
 2.712383190477745e-01	 1.207408805803788e+00	 6.528895587327970e-01
 2.481879002447703e-01	 1.212356802355885e+00	 5.557952767401193e-01
 2.251792773623489e-01	 1.216840393430966e+00	 4.721401353212058e-01
 4.601183869422882e-01	 1.162235376338345e+00	 1.990214966227084e+00
 4.369969884562961e-01	 1.171124942995283e+00	 1.782157723891379e+00
 4.138042749547273e-01	 1.179519403004286e+00	 1.586997706510981e+00
 3.905553010997264e-01	 1.187420126502869e+00	 1.404934693349169e+00
 3.672649221392484e-01	 1.194829057653032e+00	 1.236138871122312e+00
 3.439477685578608e-01	 1.201748697753768e+00	 1.080750913657123e+00
 3.206182221012706e-01	 1.208182087148427e+00	 9.388821855489076e-01
 2.972903932297764e-01	 1.214132786041956e+00	 8.106150645527745e-01
 2.739781000458337e-01	 1.219604854344699e+00	 6.960033767896241e-01
 2.506948487310247e-01	 1.224602830660197e+00	 5.950729382851256e-01
 2.274538155180211e-01	 1.229131710534368e+00	 5.078221958756559e-01
 2.047084339626188e-01	 1.106218539478505e+00	-1.002747989129873e-01
 1.838410471820675e-01	 1.109877231672737e+00	-1.654218047120997e-01
 1.630344251371875e-01	 1.113123881798189e+00	-2.225497613287328e-01
 1.422994522082913e-01	 1.115964097050903e+00	-2.717381088076989e-01
 1.216466649059655e-01	 1.118403812994212e+00	-3.130667927452659e-01
 1.010862426134333e-01	 1.120449272191891e+00	-3.466163750128424e-01
 8.062799968276181e-02	 1.122107002770802e+00	-3.724681460918344e-01
 6.028137885658343e-02	 1.123383797000342e+00	-3.907042370758689e-01
 4.005544598153728e-02	 1.124286689971457e+00	-4.014077295367438e-01
 1.995888597471339e-02	 1.124822938453228e+00	-4.046627616009537e-01
 0.000000000000000e+00	 1.125000000000000e+00	-4.005546287451862e-01
 2.069829721180270e-01	 1.118509856586275e+00	-1.212770807944508e-02
 1.858837254842960e-01	 1.122209200915521e+00	-8.163631472441457e-02
 1.648459187499743e-01	 1.125491924930832e+00	-1.425489420291342e-01
 1.438805572329332e-01	 1.128363698130427e+00	-1.949483637668379e-01
 1.229982945160992e-01	 1.130830522028343e+00	-2.389198602132920e-01
 1.022094230869531e-01	 1.132898708550173e+00	-2.745512200762423e-01
 8.152386634591845e-02	 1.134574858357522e+00	-3.019327402509806e-01
 6.095117195499002e-02	 1.135865839189446e+00	-3.211572223287831e-01
 4.050050649243606e-02	 1.136778764304567e+00	-3.323199648929998e-01
 2.018065137442525e-02	 1.137320971102731e+00	-3.355187507550068e-01
 0.000000000000000e+00	 1.137500000000000e+00	-3.308538283994937e-01
 2.092575102734646e-01	 1.130801173693560e+00	 6.941598807606075e-02
 1.879264037867324e-01	 1.134541170157915e+00	-4.391523036972211e-03
 1.666574123631051e-01	 1.137859968063168e+00	-6.904180408539107e-02
 1.454616622580137e-01	 1.140763299209717e+00	-1.246207541605004e-01
 1.243499241267251e-01	 1.143257231062304e+00	-1.712187509678720e-01
 1.033326035609789e-01	 1.145348144908337e+00	-2.089305457356661e-01
 8.241973300955530e-02	 1.147042713944167e+00	-2.378551522027474e-01
 6.162096505381248e-02	 1.148347881378508e+00	-2.580957294703865e-01
 4.094556700364869e-02	 1.149270838637658e+00	-2.697594585820229e-01
 2.040241677431206e-02	 1.149819003752230e+00	-2.729574127751289e-01
 0.000000000000000e+00	 1.150000000000000e+00	-2.678044214286415e-01
 2.115320484289314e-01	 1.143092490800359e+00	 1.445693615706736e-01
 1.899690820893766e-01	 1.146873139399917e+00	 6.652360772761456e-02
 1.684689059765799e-01	 1.150228011195196e+00	-1.818839038671083e-03
 1.470427672835328e-01	 1.153162900288774e+00	-6.054680143073021e-02
 1.257015537378434e-01	 1.155683940096093e+00	-1.097555249682858e-01
 1.044557840355105e-01	 1.157797581266385e+00	-1.495464675916067e-01
 8.331559967367232e-02	 1.159510569530738e+00	-1.800270796345638e-01
 6.229075815305083e-02	 1.160829923567528e+00	-2.013105747985402e-01
 4.139062751517519e-02	 1.161762912970730e+00	-2.135156928090511e-01
 2.062418217437382e-02	 1.162317036401724e+00	-2.167664544810048e-01
 0.000000000000000e+00	 1.162500000000000e+00	-2.111919099595030e-01
 2.138065865844276e-01	 1.155383807906674e+00	 2.135364175771137e-01
 1.920117603922285e-01	 1.159205108641528e+00	 1.313111346868152e-01
 1.702803995903987e-01	 1.162596054326918e+00	 5.932054637245932e-02
 1.486238723094905e-01	 1.165562501367597e+00	-2.526898391415511e-03
 1.270531833494540e-01	 1.168110649129712e+00	-5.433109063242680e-02
 1.055789645105481e-01	 1.170247017624314e+00	-9.619994733943948e-02
 8.421146633826952e-02	 1.171978425117234e+00	-1.282490841182660e-01
 6.296055125270505e-02	 1.173311965756507e+00	-1.506014760095715e-01
 4.183568802701556e-02	 1.174254987303784e+00	-1.633871079579425e-01
 2.084594757461052e-02	 1.174815069051214e+00	-1.667426164308621e-01
 0.000000000000000e+00	 1.175000000000000e+00	-1.608109236877215e-01
 2.160811247399532e-01	 1.167675125012503e+00	 2.765125716259946e-01
 1.940544386952883e-01	 1.171537077882749e+00	 1.901646073434149e-01
 1.720918932045614e-01	 1.174964097458333e+00	 1.145684994328204e-01
 1.502049773358868e-01	 1.177962102446187e+00	 4.963015768571188e-02
 1.284048129615569e-01	 1.180537358163162e+00	-4.754739128136620e-03
 1.067021449860916e-01	 1.182696453982126e+00	-4.870032718531681e-02
 8.510733300334690e-02	 1.184446280703655e+00	-8.233012459004518e-02
 6.363034435277519e-02	 1.185794007945443e+00	-1.057765837036717e-01
 4.228074853916980e-02	 1.186747061636820e+00	-1.191806311076902e-01
 2.106771297502218e-02	 1.187313101700699e+00	-1.226911974614620e-01
 0.000000000000000e+00	 1.187500000000000e+00	-1.164647394792546e-01
 2.183556628955082e-01	 1.179966442117847e+00	 3.336850969829825e-01
 1.960971169985559e-01	 1.183869047123579e+00	 2.432695106905400e-01
 1.739033868190682e-01	 1.187332140589441e+00	 1.641091613451855e-01
 1.517860823627217e-01	 1.190361703524544e+00	 9.610760280361053e-02
 1.297564425741521e-01	 1.192964067196440e+00	 3.915629222812056e-02
 1.078253254621411e-01	 1.195145890339820e+00	-6.864893361532731e-03
 8.600319966890443e-02	 1.196914136290001e+00	-4.208711998771508e-02
 6.430013745326123e-02	 1.198276050134339e+00	-6.665204217121090e-02
 4.272580905163788e-02	 1.199239135969837e+00	-8.071123401732505e-02
 2.128947837560878e-02	 1.199811134350180e+00	-8.442560894443685e-02
 0.000000000000000e+00	 1.200000000000000e+00	-7.796483099704421e-02
 2.206302010510924e-01	 1.192257759222705e+00	 3.852335443531525e-01
 1.981397953020312e-01	 1.196201016364018e+00	 2.908036809080223e-01
 1.757148804339190e-01	 1.199700183720243e+00	 2.081190799151780e-01
 1.533671873899952e-01	 1.202761304602666e+00	 1.370811168955985e-01
 1.311080721872396e-01	 1.205390776229548e+00	 7.757722956664703e-02
 1.089485059386964e-01	 1.207595326697396e+00	 2.948153335950288e-02
 8.689906633494215e-02	 1.209381991876273e+00	-7.344538941170375e-03
 6.496993055416314e-02	 1.210758092323192e+00	-3.305157734682118e-02
 4.317086956441985e-02	 1.211731210302836e+00	-4.780151845148306e-02
 2.151124377637034e-02	 1.212309166999656e+00	-5.176695661453978e-02
 0.000000000000000e+00	 1.212500000000000e+00	-4.513044618568740e-02
 2.229047392067060e-01	 1.204549076327078e+00	 4.313301358894464e-01
 2.001824736057144e-01	 1.208532985604066e+00	 3.329376956079044e-01
 1.775263740491137e-01	 1.212068226850737e+00	 2.467675969692011e-01
 1.549482924177072e-01	 1.215160905680556e+00	 1.727192093392664e-01
 1.324597018008195e-01	 1.217817485262486e+00	 1.106761469824795e-01
 1.100716864157577e-01	 1.220044763054856e+00	 6.050698208072025e-02
 8.779493300146010e-02	 1.221849847462470e+00	 2.206598541571969e-02
 6.563972365548093e-02	 1.223240134512003e+00	-4.806109990726615e-03
 4.361593007751567e-02	 1.224223284635816e+00	-2.028132689465845e-02
 2.173300917730685e-02	 1.224807199649127e+00	-2.454364799980202e-02
 0.000000000000000e+00	 1.225000000000000e+00	-1.778821062444180e-02
 2.251792773623489e-01	 1.216840393430966e+00	 4.721401353212058e-01
 2.022251519096053e-01	 1.220864954843724e+00	 3.698352404288425e-01
 1.793378676646525e-01	 1.224436269980924e+00	 2.802172122929918e-01
 1.565293974458579e-01	 1.227560506758212e+00	 2.031835811056797e-01
 1.338113314148917e-01	 1.230244194295253e+00	 1.386143277494094e-01
 1.111948668933249e-01	 1.232494199412197e+00	 8.637269289754967e-02
 8.869079966845822e-02	 1.234317703048592e+00	 4.630601728893624e-02
 6.630951675721461e-02	 1.235722176700773e+00	 1.824660768607456e-02
 4.406099059092536e-02	 1.236715358968778e+00	 2.012623141924408e-03
 2.195477457841831e-02	 1.237305232298594e+00	-2.591023644546997e-03
 0.000000000000000e+00	 1.237500000000000e+00	 4.228245080636128e-03
 2.274538155180211e-01	 1.229131710534368e+00	 5.078221958756559e-01
 2.042678302137041e-01	 1.233196924082991e+00	 4.016534536348026e-01
 1.811493612805352e-01	 1.236804313110804e+00	 3.086239257336394e-01
 1.581105024744471e-01	 1.239960107835634e+00	 2.286294651798342e-01
 1.351629610294562e-01	 1.242670903327850e+00	 1.615466038609510e-01
 1.123180473713980e-01	 1.244943635769421e+00	 1.072334563483319e-01
 8.958666633593650e-02	 1.246785558634639e+00	 6.553065835721483e-02
 6.697930985936418e-02	 1.248204218889501e+00	 3.626233359454423e-02
 4.450605110464890e-02	 1.249207433301722e+00	 1.923708287157755e-02
 2.217653997970472e-02	 1.249803264948056e+00	 1.424898954186427e-02
 0.000000000000000e+00	 1.250000000000000e+00	 2.107863554793754e-02
 1.250000000000000e+00	 0.000000000000000e+00	 1.374652100870756e+01
 1.249803264948056e+00	 2.217653997970400e-02	 1.376909669983622e+01
 1.249207433301722e+00	 4.450605110464827e-02	 1.377753722138917e+01
 1.248204218889501e+00	 6.697930985936361e-02	 1.377159624682259e+01
 1.246785558634639e+00	 8.958666633593600e-02	 1.375104937907651e+01
 1.244943635769421e+00	 1.123180473713976e-01	 1.371569566359118e+01
 1.242670903327850e+00	 1.351629610294558e-01	 1.366535907364767e+01
 1.239960107835634e+00	 1.581105024744469e-01	 1.359988995830975e+01
 1.236804313110804e+00	 1.811493612805350e-01	 1.351916644292107e+01
 1.233196924082991e+00	 2.042678302137040e-01	 1.342309577185584e+01
 1.229131710534368e+00	 2.274538155180211e-01	 1.331161558304147e+01
 1.262500000000000e+00	 0.000000000000000e+00	 1.356377893389421e+01
 1.262301297597516e+00	 2.239830538099040e-02	 1.358696732921190e+01
 1.261699507634656e+00	 4.495111161837182e-02	 1.359641732271242e+01
 1.260686261078208e+00	 6.764910296151318e-02	 1.359188277740685e+01
 1.259253414220649e+00	 9.048253300341427e-02	 1.357313873576024e+01
 1.257393072126586e+00	 1.134412278494708e-01	 1.353998291170959e+01
 1.255097612360361e+00	 1.365145906440204e-01	 1.349223715739625e+01
 1.252359708912939e+00	 1.596916075030361e-01	 1.342974889511270e+01
 1.249172356240532e+00	 1.829608548964178e-01	 1.335239250463349e+01
 1.245528893322062e+00	 2.063105085178028e-01	 1.326007065583654e+01
 1.241423027637528e+00	 2.297283536736933e-01	 1.315271557632953e+01
 1.275000000000000e+00	 0.000000000000000e+00	 1.339287829131812e+01
 1.274799330246976e+00	 2.262007078210185e-02	 1.341659829783158e+01
 1.274191581967590e+00	 4.539617213178149e-02	 1.342697289987967e+01
 1.273168303266915e+00	 6.831889606324687e-02	 1.342375619847883e+01
 1.271721269806660e+00	 9.137839967041235e-02	 1.340672273389862e+01
 1.269842508483751e+00	 1.145644083270380e-01	 1.337566895690486e+01
 1.267524321392873e+00	 1.378662202580925e-01	 1.333041467707584e+01
 1.264759309990245e+00	 1.612727125311867e-01	 1.327080447891055e+01
 1.261540399370259e+00	 1.847723485119565e-01	 1.319670909611239e+01
 1.257860862561133e+00	 2.083531868216938e-01	 1.310802673415914e+01
 1.253714344740687e+00	 2.320028918293363e-01	 1.300468433106867e+01
 1.287500000000000e+00	 0.000000000000000e+00	 1.323347438471163e+01
 1.287297362896436e+00	 2.284183618303835e-02	 1.325764727627551e+01
 1.286683656300524e+00	 4.584123264487731e-02	 1.326886410005514e+01
 1.285650345455622e+00	 6.898868916456465e-02	 1.326687924210705e+01
 1.284189125392670e+00	 9.227426633693030e-02	 1.325146679708245e+01
 1.282291944840916e+00	 1.156875888040993e-01	 1.322242201891304e+01
 1.279951030425384e+00	 1.392178498716724e-01	 1.317956275089717e+01
 1.277158911067551e+00	 1.628538175588988e-01	 1.312273082612161e+01
 1.273908442499985e+00	 1.865838421271512e-01	 1.305179342881343e+01
 1.270192831800205e+00	 2.103958651253769e-01	 1.296664440693475e+01
 1.266005661843847e+00	 2.342774299849499e-01	 1.286720552612185e+01
 1.300000000000000e+00	 0.000000000000000e+00	 1.308523577535651e+01
 1.299795395545896e+00	 2.306360158379989e-02	 1.310978510159465e+01
 1.299175730633459e+00	 4.628629315765927e-02	 1.312176414157475e+01
 1.298132387644330e+00	 6.965848226546656e-02	 1.312092761206679e+01
 1.296656980978680e+00	 9.317013300296803e-02	 1.310704921704417e+01
 1.294741381198081e+00	 1.168107692806546e-01	 1.307992307802337e+01
 1.292377739457895e+00	 1.405694794847599e-01	 1.303936514610067e+01
 1.289558512144857e+00	 1.644349225861723e-01	 1.298521458683541e+01
 1.286276485629712e+00	 1.883953357420020e-01	 1.291733512878184e+01
 1.282524801039276e+00	 2.124385434288523e-01	 1.283561636618272e+01
 1.278296978947007e+00	 2.365519681405341e-01	 1.273997500611486e+01
 1.312500000000000e+00	 0.000000000000000e+00	 1.294784365077203e+01
 1.312293428195356e+00	 2.328536698438650e-02	 1.297269515033584e+01
 1.311667804966393e+00	 4.673135367012735e-02	 1.298535869150925e+01
 1.310614429833036e+00	 7.032827536595254e-02	 1.298558936613972e+01
 1.309124836564690e+00	 9.406599966852559e-02	 1.297316054088926e+01
 1.307190817555246e+00	 1.179339497567040e-01	 1.294786526743293e+01
 1.304804448490407e+00	 1.419211090973551e-01	 1.290951767662183e+01
 1.301958113222162e+00	 1.660160276130072e-01	 1.285795434797124e+01
 1.298644528759440e+00	 1.902068293565088e-01	 1.279303564548143e+01
 1.294856770278347e+00	 2.144812217321199e-01	 1.271464701050161e+01
 1.290588296050166e+00	 2.388265062960890e-01	 1.262270020211438e+01
 1.325000000000000e+00	 0.000000000000000e+00	 1.282099122913770e+01
 1.324791460844817e+00	 2.350713238479816e-02	 1.284607274705613e+01
 1.324159879299327e+00	 4.717641418228159e-02	 1.285934527845977e+01
 1.323096472021744e+00	 7.099806846602269e-02	 1.286056433337779e+01
 1.321592692150699e+00	 9.496186633360294e-02	 1.284950299301254e+01
 1.319640253912411e+00	 1.190571302322476e-01	 1.282595329999624e+01
 1.317231157522919e+00	 1.432727387094580e-01	 1.278972763485079e+01
 1.314357714299468e+00	 1.675971326394035e-01	 1.274066007022020e+01
 1.311012571889166e+00	 1.920183229706716e-01	 1.267860769408620e+01
 1.307188739517419e+00	 2.165239000351796e-01	 1.260345189287217e+01
 1.302879613153326e+00	 2.411010444516146e-01	 1.251509958509768e+01
 1.337500000000000e+00	 0.000000000000000e+00	 1.270438319711283e+01
 1.337289493494276e+00	 2.372889778503485e-02	 1.272962460600455e+01
 1.336651953632262e+00	 4.762147469412194e-02	 1.274343273828072e+01
 1.335578514210450e+00	 7.166786156567692e-02	 1.274556356404384e+01
 1.334060547736709e+00	 9.585773299820013e-02	 1.273578992943049e+01
 1.332089690269576e+00	 1.201803107072851e-01	 1.271390292711980e+01
 1.329657866555430e+00	 1.446243683210686e-01	 1.267971325525599e+01
 1.326757315376773e+00	 1.691782376653612e-01	 1.263305255656054e+01
 1.323380615018894e+00	 1.938298165844904e-01	 1.257377472904538e+01
 1.319520708756490e+00	 2.185665783380315e-01	 1.250175719942449e+01
 1.315170930256486e+00	 2.433755826071108e-01	 1.241690215006907e+01
 1.350000000000000e+00	 0.000000000000000e+00	 1.259773517888842e+01
 1.349787526143736e+00	 2.395066318509660e-02	 1.262306830382149e+01
 1.349144027965196e+00	 4.806653520564843e-02	 1.263734069059574e+01
 1.348060556399157e+00	 7.233765466491528e-02	 1.264030881011105e+01
 1.346528403322719e+00	 9.675359966231714e-02	 1.263174532242832e+01
 1.344539126626741e+00	 1.213034911818168e-01	 1.261144042771800e+01
 1.342084575587941e+00	 1.459759979321868e-01	 1.257920320780646e+01
 1.339156916454079e+00	 1.707593426908803e-01	 1.253486295029988e+01
 1.335748658148621e+00	 1.956413101979651e-01	 1.247827044689461e+01
 1.331852677995562e+00	 2.206092566406757e-01	 1.240929925716257e+01
 1.327462247359646e+00	 2.456501207625777e-01	 1.232784692883637e+01
 1.362500000000000e+00	 0.000000000000000e+00	 1.250077323446544e+01
 1.362285558793196e+00	 2.417242858498341e-02	 1.252613178126387e+01
 1.361636102298130e+00	 4.851159571686106e-02	 1.254079904412944e+01
 1.360542598587865e+00	 7.300744776373773e-02	 1.254453203435885e+01
 1.358996258908729e+00	 9.764946632595396e-02	 1.253710327357526e+01
 1.356988562983906e+00	 1.224266716558425e-01	 1.251830212529989e+01
 1.354511284620453e+00	 1.473276275428128e-01	 1.248793611927918e+01
 1.351556517531384e+00	 1.723404477159608e-01	 1.244583226074820e+01
 1.348116701278348e+00	 1.974528038110959e-01	 1.239183831643564e+01
 1.344184647234633e+00	 2.226519349431120e-01	 1.232582406878671e+01
 1.339753564462805e+00	 2.479246589180152e-01	 1.224768252960716e+01
 1.375000000000000e+00	 0.000000000000000e+00	 1.241323338529984e+01
 1.374783591442656e+00	 2.439419398469526e-02	 1.243855287210893e+01
 1.374128176631064e+00	 4.895665622775984e-02	 1.245354752902097e+01
 1.373024640776572e+00	 7.367724086214431e-02	 1.245797494624532e+01
 1.371464114494739e+00	 9.854533298911061e-02	 1.245160755330243e+01
 1.369437999341071e+00	 1.235498521293624e-01	 1.243423393139675e+01
 1.366937993652964e+00	 1.486792571529464e-01	 1.240566012067685e+01
 1.363956118608690e+00	 1.739215527406027e-01	 1.236571091476326e+01
 1.360484744408075e+00	 1.992642974238827e-01	 1.231423113454234e+01
 1.356516616473704e+00	 2.246946132453406e-01	 1.225108687288908e+01
 1.352044881565965e+00	 2.501991970734234e-01	 1.217616670169783e+01
 1.229131710534368e+00	 2.274538155180211e-01	 1.331161558304147e+01
 1.224602830660197e+00	 2.506948487310240e-01	 1.324330150547111e+01
 1.219604854344699e+00	 2.739781000458331e-01	 1.315983215277913e+01
 1.214132786041956e+00	 2.972903932297759e-01	 1.306132036051650e+01
 1.208182087148427e+00	 3.206182221012702e-01	 1.294791630068678e+01
 1.201748697753769e+00	 3.439477685578606e-01	 1.281980799149374e+01
 1.194829057653032e+00	 3.672649221392482e-01	 1.267722165126916e+01
 1.187420126502869e+00	 3.905553010997262e-01	 1.252042188821769e+01
 1.179519403004286e+00	 4.138042749547273e-01	 1.234971171849488e+01
 1.171124942995283e+00	 4.369969884562962e-01	 1.216543240612959e+01
 1.162235376338345e+00	 4.601183869422883e-01	 1.196796311940721e+01
 1.241423027637528e+00	 2.297283536736933e-01	 1.315271557632953e+01
 1.236848858964224e+00	 2.532017972172809e-01	 1.308979401958693e+01
 1.231800902885296e+00	 2.767178810439017e-01	 1.301208228992975e+01
 1.226274113899371e+00	 3.002632971585613e-01	 1.291966929548857e+01
 1.220263908016873e+00	 3.238244043178657e-01	 1.281267996075032e+01
 1.213766184728358e+00	 3.473872462383388e-01	 1.269127579512604e+01
 1.206777348226831e+00	 3.709375713550829e-01	 1.255565531392287e+01
 1.199294327765508e+00	 3.944608541049375e-01	 1.240605430327263e+01
 1.191314597032411e+00	 4.179423176984929e-01	 1.224274592138007e+01
 1.182836192423920e+00	 4.413669583353181e-01	 1.206604062937864e+01
 1.173857730101146e+00	 4.647195708066494e-01	 1.187628594611537e+01
 1.253714344740687e+00	 2.320028918293363e-01	 1.300468433106867e+01
 1.249094887268250e+00	 2.557087457036991e-01	 1.294689344020327e+01
 1.243996951425893e+00	 2.794576620423040e-01	 1.287467378151915e+01
 1.238415441756786e+00	 3.032362010878337e-01	 1.278809072290046e+01
 1.232345728885320e+00	 3.270305865350823e-01	 1.268724434642488e+01
 1.225783671702949e+00	 3.508267239195527e-01	 1.257227007497657e+01
 1.218725638800629e+00	 3.746102205717475e-01	 1.244333915938049e+01
 1.211168529028148e+00	 3.983664071110527e-01	 1.230065901752618e+01
 1.203109791060537e+00	 4.220803604432159e-01	 1.214447341769302e+01
 1.194547441852557e+00	 4.457369282153292e-01	 1.197506249914347e+01
 1.185480083863948e+00	 4.693207546720106e-01	 1.179274262401454e+01
 1.266005661843847e+00	 2.342774299849499e-01	 1.286720552612185e+01
 1.261340915572276e+00	 2.582156941902787e-01	 1.281429107690540e+01
 1.256192999966490e+00	 2.821974430410401e-01	 1.274730567540606e+01
 1.250556769614201e+00	 3.062091050175934e-01	 1.266629152515294e+01
 1.244427549753766e+00	 3.302367687529200e-01	 1.257132425911685e+01
 1.237801158677538e+00	 3.542662016015020e-01	 1.246251362361610e+01
 1.230673929374427e+00	 3.782828697892420e-01	 1.234000403075677e+01
 1.223042730290788e+00	 4.022719601180717e-01	 1.220397497079219e+01
 1.214904985088662e+00	 4.262184031888958e-01	 1.205464127646352e+01
 1.206258691281194e+00	 4.501068980963296e-01	 1.189225323216972e+01
 1.197102437626749e+00	 4.739219385383718e-01	 1.171709652170824e+01
 1.278296978947007e+00	 2.365519681405341e-01	 1.273997500611486e+01
 1.273586943876303e+00	 2.607226426770197e-01	 1.269169011151422e+01
 1.268389048507087e+00	 2.849372240401096e-01	 1.262968859402237e+01
 1.262698097471615e+00	 3.091820089478399e-01	 1.255398985785647e+01
 1.256509370622212e+00	 3.334429509713790e-01	 1.246464546883196e+01
 1.249818645652128e+00	 3.577056792841868e-01	 1.236173989483082e+01
 1.242622219948226e+00	 3.819555190075664e-01	 1.224539112271606e+01
 1.234916931553427e+00	 4.061775131259946e-01	 1.211575114299497e+01
 1.226700179116788e+00	 4.303564459355328e-01	 1.197300629414425e+01
 1.217969940709831e+00	 4.544768679783192e-01	 1.181737745922903e+01
 1.208724791389550e+00	 4.785231224057330e-01	 1.164912010827199e+01
 1.290588296050166e+00	 2.388265062960890e-01	 1.262270020211438e+01
 1.285832972180329e+00	 2.632295911639221e-01	 1.257880503274162e+01
 1.280585097047684e+00	 2.876770050395130e-01	 1.252154418320301e+01
 1.274839425329030e+00	 3.121549128785735e-01	 1.245091461301170e+01
 1.268591191490658e+00	 3.366491331904589e-01	 1.236694419186103e+01
 1.261836132626718e+00	 3.611451569676073e-01	 1.226969249594541e+01
 1.254570510522024e+00	 3.856281682267207e-01	 1.215925148854133e+01
 1.246791132816067e+00	 4.100830661348213e-01	 1.203574607606892e+01
 1.238495373144913e+00	 4.344944886831269e-01	 1.189933453140021e+01
 1.229681190138469e+00	 4.588468378612980e-01	 1.175020877683205e+01
 1.220347145152352e+00	 4.831243062740942e-01	 1.158859451989743e+01
 1.302879613153326e+00	 2.411010444516146e-01	 1.251509958509768e+01
 1.298079000484355e+00	 2.657365396509859e-01	 1.247536110284666e+01
 1.292781145588281e+00	 2.904167860392501e-01	 1.242260459221414e+01
 1.286980753186445e+00	 3.151278168097941e-01	 1.235680491257603e+01
 1.280673012359105e+00	 3.398553154101601e-01	 1.227796659803066e+01
 1.273853619601308e+00	 3.645846346517633e-01	 1.218612470888258e+01
 1.266518801095822e+00	 3.893008174467049e-01	 1.208134557510505e+01
 1.258665334078706e+00	 4.139886191445518e-01	 1.196372742292025e+01
 1.250290567173038e+00	 4.386325314316781e-01	 1.183340087611761e+01
 1.241392439567106e+00	 4.632168077452660e-01	 1.169052932431627e+01
 1.231969498915152e+00	 4.877254901434555e-01	 1.153530915106606e+01
 1.315170930256486e+00	 2.433755826071108e-01	 1.241690215006907e+01
 1.310325028788382e+00	 2.682434881382111e-01	 1.238109385419877e+01
 1.304977194128878e+00	 2.931565670393207e-01	 1.233261198293857e+01
 1.299122081043860e+00	 3.181007207415019e-01	 1.227140963042821e+01
 1.292754833227551e+00	 3.430614976304824e-01	 1.219746834558477e+01
 1.285871106575899e+00	 3.680241123366550e-01	 1.211079903807901e+01
 1.278467091669621e+00	 3.929734666675191e-01	 1.201144278391636e+01
 1.270539535341346e+00	 4.178941721551863e-01	 1.189947152168066e+01
 1.262085761201164e+00	 4.427705741811864e-01	 1.177498863091684e+01
 1.253103688995743e+00	 4.675867776302233e-01	 1.163812938464841e+01
 1.243591852677954e+00	 4.923266740138165e-01	 1.148906126864798e+01
 1.327462247359646e+00	 2.456501207625777e-01	 1.232784692883637e+01
 1.322571057092408e+00	 2.707504366255978e-01	 1.229574861380974e+01
 1.317173242669475e+00	 2.958963480397251e-01	 1.225131806632875e+01
 1.311263408901274e+00	 3.210736246736966e-01	 1.219448694089054e+01
 1.304836654095997e+00	 3.462676798514259e-01	 1.212521414190604e+01
 1.297888593550488e+00	 3.714635900222821e-01	 1.204348678351720e+01
 1.290415382243419e+00	 3.966461158891632e-01	 1.194932105655462e+01
 1.282413736603985e+00	 4.217997251667246e-01	 1.184276299361360e+01
 1.273880955229289e+00	 4.469086169316517e-01	 1.172388912358150e+01
 1.264814938424380e+00	 4.719567475161698e-01	 1.159280700740467e+01
 1.255214206440755e+00	 4.969278578851778e-01	 1.144965564743926e+01
 1.339753564462805e+00	 2.479246589180152e-01	 1.224768252960716e+01
 1.334817085396434e+00	 2.732573851131458e-01	 1.221908005403816e+01
 1.329369291210072e+00	 2.986361290404630e-01	 1.217848366437608e+01
 1.323404736758689e+00	 3.240465286063783e-01	 1.212580389210304e+01
 1.316918474964443e+00	 3.494738620729904e-01	 1.206097732841779e+01
 1.309906080525078e+00	 3.749030677086448e-01	 1.198396763725998e+01
 1.302363672817217e+00	 4.003187651116372e-01	 1.189476648292304e+01
 1.294287937866625e+00	 4.257052781791670e-01	 1.179339436315405e+01
 1.285676149257414e+00	 4.510466596830741e-01	 1.167990133893161e+01
 1.276526187853017e+00	 4.763267174031054e-01	 1.155436765250412e+01
 1.266836560203556e+00	 5.015290417575390e-01	 1.141690422576185e+01
 1.352044881565965e+00	 2.501991970734234e-01	 1.217616670169783e+01
 1.347063113700461e+00	 2.757643336008552e-01	 1.215085176780099e+01
 1.341565339750669e+00	 3.013759100415347e-01	 1.211387829597274e+01
 1.335546064616104e+00	 3.270194325395472e-01	 1.206513600266809e+01
 1.329000295832889e+00	 3.526800442951761e-01	 1.200453948812762e+01
 1.321923567499668e+00	 3.783425453957430e-01	 1.193202930199241e+01
 1.314311963391016e+00	 4.039914143349411e-01	 1.184757293087035e+01
 1.306162139129264e+00	 4.296108311925129e-01	 1.175116569867350e+01
 1.297471343285539e+00	 4.551847024354536e-01	 1.164283157077653e+01
 1.288237437281654e+00	 4.806966872910303e-01	 1.152262385337507e+01
 1.278458913966357e+00	 5.061302256309002e-01	 1.139062577984863e+01
 1.162235376338345e+00	 4.601183869422883e-01	 1.196796311940721e+01
 1.152849922490885e+00	 4.831532429944503e-01	 1.179827003396940e+01
 1.142968404648257e+00	 5.060861843290319e-01	 1.161634514828947e+01
 1.132591262356013e+00	 5.289017228355558e-01	 1.142274340492412e+01
 1.121719562493458e+00	 5.515842846700590e-01	 1.121805675541957e+01
 1.110355008534519e+00	 5.741182412978676e-01	 1.100291259920875e+01
 1.098499948001281e+00	 5.964879413737912e-01	 1.077797201459120e+01
 1.086157378033213e+00	 6.186777433390787e-01	 1.054392778775915e+01
 1.073330949004241e+00	 6.406720486069893e-01	 1.030150224762835e+01
 1.060024966129602e+00	 6.624553352020790e-01	 1.005144491600855e+01
 1.046244389015035e+00	 6.840121917124017e-01	 9.794529984379787e+00
 1.173857730101146e+00	 4.647195708066494e-01	 1.187628594611537e+01
 1.164378421715943e+00	 4.879847754199314e-01	 1.171513763973047e+01
 1.154398088695481e+00	 5.111470461684536e-01	 1.154190491556033e+01
 1.143917174980766e+00	 5.341907400606339e-01	 1.135709780053753e+01
 1.132936758119894e+00	 5.571001275140689e-01	 1.116126245894605e+01
 1.121458558621532e+00	 5.798594237087382e-01	 1.095497979696053e+01
 1.109484947482980e+00	 6.024528207859984e-01	 1.073886386683214e+01
 1.097018951815104e+00	 6.248645207715108e-01	 1.051356007575542e+01
 1.084064258495567e+00	 6.470787690926668e-01	 1.027974320616591e+01
 1.070625215791757e+00	 6.690798885542671e-01	 1.003811525591735e+01
 1.056706832905469e+00	 6.908523136302467e-01	 9.789403108454318e+00
 1.185480083863948e+00	 4.693207546720106e-01	 1.179274262401454e+01
 1.175906920941005e+00	 4.928163078464028e-01	 1.163975915107034e+01
 1.165827772742723e+00	 5.162079080088365e-01	 1.147483768424767e+01
 1.155243087605563e+00	 5.394797572866247e-01	 1.129844401997264e+01
 1.144153953746409e+00	 5.626159703589233e-01	 1.111107923305955e+01
 1.132562108708666e+00	 5.856006061203647e-01	 1.091327844473004e+01
 1.120469946964856e+00	 6.084177001988529e-01	 1.070560939773901e+01
 1.107880525597237e+00	 6.310512982044613e-01	 1.048867084272563e+01
 1.094797567987208e+00	 6.534854895787139e-01	 1.026309074154056e+01
 1.081225465454313e+00	 6.757044419066560e-01	 1.002952429492739e+01
 1.067169276796399e+00	 6.976924355481020e-01	 9.788651803536149e+00
 1.197102437626749e+00	 4.739219385383718e-01	 1.171709652170824e+01
 1.187435420166073e+00	 4.976478402738645e-01	 1.157190900526141e+01
 1.177257456789986e+00	 5.212687698501810e-01	 1.141492898801703e+01
 1.166569000230403e+00	 5.447687745135282e-01	 1.124657870105048e+01
 1.155371149373001e+00	 5.681318132046219e-01	 1.106731480716775e+01
 1.143665658795923e+00	 5.913417885327469e-01	 1.087762733030491e+01
 1.131454946446909e+00	 6.143825796123552e-01	 1.067803839939504e+01
 1.118742099379610e+00	 6.372380756379310e-01	 1.046910080991451e+01
 1.105530877479165e+00	 6.598922100651305e-01	 1.025139640787456e+01
 1.091825715117267e+00	 6.823289952592448e-01	 1.002553430257631e+01
 1.077631720687823e+00	 7.045325574659680e-01	 9.792148915985168e+00
 1.208724791389550e+00	 4.785231224057330e-01	 1.164912010827199e+01
 1.198963919391144e+00	 5.024793727023167e-01	 1.151137031431119e+01
 1.188687140837268e+00	 5.263296316924868e-01	 1.136197260846842e+01
 1.177894912855287e+00	 5.500577917413444e-01	 1.120130630242978e+01
 1.166588344999672e+00	 5.736476560511649e-01	 1.102978430490492e+01
 1.154769208883302e+00	 5.970829709458854e-01	 1.084785221036818e+01
 1.142439945929137e+00	 6.203474590265043e-01	 1.065598720953014e+01
 1.129603673162223e+00	 6.434248530719191e-01	 1.045469682385724e+01
 1.116264186971437e+00	 6.662989305519170e-01	 1.024451746792970e+01
 1.102425964780622e+00	 6.889535486120343e-01	 1.002601284491094e+01
 1.088094164579742e+00	 7.113726793838446e-01	 9.799772181873021e+00
 1.220347145152352e+00	 4.831243062740942e-01	 1.158859451989743e+01
 1.210492418616221e+00	 5.073109051317592e-01	 1.145793445187982e+01
 1.200116824884569e+00	 5.313904935357540e-01	 1.131577018237756e+01
 1.189220825480215e+00	 5.553468089700732e-01	 1.116243873118601e+01
 1.177805540626420e+00	 5.791634988985520e-01	 1.099830989202604e+01
 1.165872758970802e+00	 6.028241533597791e-01	 1.082378547864603e+01
 1.153424945411542e+00	 6.263123384413013e-01	 1.063929839982349e+01
 1.140465246945077e+00	 6.496116305064259e-01	 1.044531156469868e+01
 1.126997496464023e+00	 6.727056510390734e-01	 1.024231662126757e+01
 1.113026214444376e+00	 6.955781019650239e-01	 1.003083253227262e+01
 1.098556608472156e+00	 7.182128013017320e-01	 9.811403994139733e+00
 1.231969498915152e+00	 4.877254901434555e-01	 1.153530915106606e+01
 1.222020917841303e+00	 5.121424375621921e-01	 1.141140066357937e+01
 1.211546508931890e+00	 5.364513553799823e-01	 1.127613083116867e+01
 1.200546738105186e+00	 5.606358261997149e-01	 1.112979499147105e+01
 1.189022736253246e+00	 5.846793417467834e-01	 1.097272044423115e+01
 1.176976309058426e+00	 6.085653357744293e-01	 1.080526585283976e+01
 1.164409944894123e+00	 6.322772178567456e-01	 1.062782048184925e+01
 1.151326820728172e+00	 6.557984079414517e-01	 1.044080327102334e+01
 1.137730805956926e+00	 6.791123715265995e-01	 1.024466174779651e+01
 1.123626464108531e+00	 7.022026553182141e-01	 1.003987078135881e+01
 1.109019052365064e+00	 7.250529232196299e-01	 9.826931182930057e+00
 1.243591852677954e+00	 4.923266740138165e-01	 1.148906126864798e+01
 1.233549417066389e+00	 5.169739699936152e-01	 1.137157569912566e+01
 1.222976192979229e+00	 5.415122172251722e-01	 1.124287081116465e+01
 1.211872650730201e+00	 5.659248434302693e-01	 1.110320085287405e+01
 1.200239931880150e+00	 5.901951845958592e-01	 1.095285123361658e+01
 1.188079859146171e+00	 6.143065181898351e-01	 1.079213807911294e+01
 1.175394944376881e+00	 6.382420972728371e-01	 1.062140762951141e+01
 1.162188394511508e+00	 6.619851853769962e-01	 1.044103548011499e+01
 1.148464115450142e+00	 6.855190920144951e-01	 1.025142566569944e+01
 1.134226713773085e+00	 7.088272086716045e-01	 1.005300959062693e+01
 1.119481496258467e+00	 7.318930451375384e-01	 9.846244808247461e+00
 1.255214206440755e+00	 4.969278578851778e-01	 1.144965564743926e+01
 1.245077916291481e+00	 5.218055024260289e-01	 1.133827346492606e+01
 1.234405877026588e+00	 5.465730790713230e-01	 1.121581318326752e+01
 1.223198563355260e+00	 5.712138606617362e-01	 1.108248853720676e+01
 1.211457127507132e+00	 5.957110274457791e-01	 1.093854363254552e+01
 1.199183409234037e+00	 6.200477006059969e-01	 1.078425265299586e+01
 1.186379943859815e+00	 6.442069766895762e-01	 1.061991941689887e+01
 1.173049968295084e+00	 6.681719628130592e-01	 1.044587678264670e+01
 1.159197424943675e+00	 6.919258125027606e-01	 1.026248590281002e+01
 1.144826963438039e+00	 7.154517620251954e-01	 1.007013532817587e+01
 1.129943940152365e+00	 7.387331670554576e-01	 9.869239964127328e+00
 1.266836560203556e+00	 5.015290417575390e-01	 1.141690422576185e+01
 1.256606415516577e+00	 5.266370348594331e-01	 1.131131469579082e+01
 1.245835561073966e+00	 5.516339409184358e-01	 1.119478750082192e+01
 1.234524475980362e+00	 5.765028778941159e-01	 1.106749642253002e+01
 1.222674323134192e+00	 6.012268702965434e-01	 1.092964483381919e+01
 1.210286959322027e+00	 6.257888830229146e-01	 1.078146555565318e+01
 1.197364943342925e+00	 6.501718561069625e-01	 1.062322057057055e+01
 1.183911542078901e+00	 6.743587402496409e-01	 1.045520059087379e+01
 1.169930734437522e+00	 6.983325329913959e-01	 1.027772448057360e+01
 1.155427213103392e+00	 7.220763153789866e-01	 1.009113853130372e+01
 1.140406384046757e+00	 7.455732889733871e-01	 9.895815593589619e+00
 1.278458913966357e+00	 5.061302256309002e-01	 1.139062577984863e+01
 1.268134914741677e+00	 5.314685672938273e-01	 1.129052664455122e+01
 1.257265245121364e+00	 5.566948027665093e-01	 1.117962951450402e+01
 1.245850388605507e+00	 5.817918951274083e-01	 1.105806876332422e+01
 1.233891518761329e+00	 6.067427131481519e-01	 1.092600758611147e+01
 1.221390509410137e+00	 6.315300654405880e-01	 1.078363800453684e+01
 1.208349942826211e+00	 6.561367355249965e-01	 1.063118073535215e+01
 1.194773115862958e+00	 6.805455176867415e-01	 1.046888491947115e+01
 1.180664043931685e+00	 7.047392534804008e-01	 1.029702770979210e+01
 1.166027462769146e+00	 7.287008687329783e-01	 1.011591371699868e+01
 1.150868827941644e+00	 7.524134108913275e-01	 9.925874313685007e+00
 1.046244389015035e+00	 6.840121917124017e-01	 9.794529984379787e+00
 1.031994829112001e+00	 7.053273514082546e-01	 9.538672154248086e+00
 1.017282545054521e+00	 7.263857263794559e-01	 9.277115746679771e+00
 1.002114435865165e+00	 7.471724415374245e-01	 9.010708120962221e+00
 9.864980320304253e-01	 7.676728683263137e-01	 8.740313569929921e+00
 9.704414844585151e-01	 7.878726579898537e-01	 8.466810112264415e+00
 9.539535513453987e-01	 8.077577742387658e-01	 8.191086187449008e+00
 9.370435829877606e-01	 8.273145251659155e-01	 7.914037273905462e+00
 9.197215045943361e-01	 8.465295942593203e-01	 7.636562451688965e+00
 9.019977971594894e-01	 8.653900703672559e-01	 7.359560931755970e+00
 8.838834764750000e-01	 8.838834764750000e-01	 7.083928574245250e+00
 1.056706832905469e+00	 6.908523136302467e-01	 9.789403108454318e+00
 1.042314777402819e+00	 7.123806249235496e-01	 9.541698501918004e+00
 1.027455370504306e+00	 7.336495836448358e-01	 9.288160985034489e+00
 1.012135580222726e+00	 7.546441659546386e-01	 9.029590109595699e+00
 9.963630123494379e-01	 7.753495970115514e-01	 8.766802657112230e+00
 9.801458993017382e-01	 7.957513845717418e-01	 8.500629627374728e+00
 9.634930868575512e-01	 8.158353519830368e-01	 8.231913129135208e+00
 9.464140188165280e-01	 8.355876704192311e-01	 7.961503192130873e+00
 9.289187196394912e-01	 8.549948902032221e-01	 7.690254520520458e+00
 9.110177751307498e-01	 8.740439710717682e-01	 7.419023208456297e+00
 8.927223112400001e-01	 8.927223112400001e-01	 7.148663438966905e+00
 1.067169276796399e+00	 6.976924355481020e-01	 9.788651803536149e+00
 1.052634725694217e+00	 7.194338984386744e-01	 9.548721138593997e+00
 1.037628195954726e+00	 7.409134409099047e-01	 9.302825729117963e+00
 1.022156724580948e+00	 7.621158903714401e-01	 9.051718052500313e+00
 1.006227992669108e+00	 7.830263256963153e-01	 8.796168109579892e+00
 9.898503141455847e-01	 8.036301111531332e-01	 8.536960606837260e+00
 9.730326223702622e-01	 8.239129297268302e-01	 8.274892040173043e+00
 9.557844546457592e-01	 8.438608156721282e-01	 8.010767698202640e+00
 9.381159346849866e-01	 8.634601861468045e-01	 7.745398603848373e+00
 9.200377531021950e-01	 8.826978717761008e-01	 7.479598413677247e+00
 9.015611460049998e-01	 9.015611460049998e-01	 7.214180294909717e+00
 1.077631720687823e+00	 7.045325574659680e-01	 9.792148915985168e+00
 1.062954673986195e+00	 7.264871719536292e-01	 9.559623957699868e+00
 1.047801021405781e+00	 7.481772981746628e-01	 9.321004846370368e+00
 1.032177868939832e+00	 7.695876147878290e-01	 9.076997696725584e+00
 1.016092972989436e+00	 7.907030543806040e-01	 8.828326438296294e+00
 9.995547289900544e-01	 8.115088377340292e-01	 8.575730188693585e+00
 9.825721578835327e-01	 8.319905074701464e-01	 8.319960527930814e+00
 9.651548904754556e-01	 8.521339609246066e-01	 8.061778690449341e+00
 9.473131497308213e-01	 8.719254820900676e-01	 7.801952692356418e+00
 9.290577310738252e-01	 8.913517724802531e-01	 7.541254412063890e+00
 9.103999807700000e-01	 9.103999807700000e-01	 7.280456643020027e+00
 1.088094164579742e+00	 7.113726793838446e-01	 9.799772181873021e+00
 1.073274622278753e+00	 7.335404454684142e-01	 9.574295317489813e+00
 1.057973846857473e+00	 7.554411554391099e-01	 9.342597246992886e+00
 1.042199013299377e+00	 7.770593392038053e-01	 9.105338413645864e+00
 1.025957953310421e+00	 7.983797830644190e-01	 8.863197364565604e+00
 1.009259143835148e+00	 8.193875643144291e-01	 8.616868312607012e+00
 9.921116933973619e-01	 8.400680852129850e-01	 8.367058598748866e+00
 9.745253263056164e-01	 8.604071061766666e-01	 8.114486070384176e+00
 9.565103647769959e-01	 8.803907780330110e-01	 7.859876391765906e+00
 9.380777090456406e-01	 9.000056731842258e-01	 7.603960303553331e+00
 9.192388155350000e-01	 9.192388155350000e-01	 7.347470848932987e+00
 1.098556608472156e+00	 7.182128013017320e-01	 9.811403994139733e+00
 1.083594570571891e+00	 7.405937189830295e-01	 9.592627828437546e+00
 1.068146672309800e+00	 7.627050127032456e-01	 9.367505691435227e+00
 1.052220157659584e+00	 7.845310636193691e-01	 9.136653026373363e+00
 1.035822933632064e+00	 8.060565117477595e-01	 8.900703667159323e+00
 1.018963558680864e+00	 8.272662908943328e-01	 8.660307586451967e+00
 1.001651228911751e+00	 8.481456629553464e-01	 8.416128543702868e+00
 9.838957621362415e-01	 8.686802514283076e-01	 8.168841647315189e+00
 9.657075798235105e-01	 8.888560739756349e-01	 7.919130845929211e+00
 9.470976870176407e-01	 9.086595738880187e-01	 7.667686364551317e+00
 9.280776503000001e-01	 9.280776503000001e-01	 7.415202101797073e+00
 1.109019052365064e+00	 7.250529232196299e-01	 9.826931182930057e+00
 1.093914518865609e+00	 7.476469924974751e-01	 9.614518152659802e+00
 1.078319497762762e+00	 7.699688699670706e-01	 9.395636608780119e+00
 1.062241302020453e+00	 7.920027880345202e-01	 9.170857646940467e+00
 1.045687913954364e+00	 8.137332404306257e-01	 8.940771038096170e+00
 1.028667973527204e+00	 8.351450174737410e-01	 8.705983160454995e+00
 1.011190764426698e+00	 8.562232406972299e-01	 8.467114830833241e+00
 9.932661979673315e-01	 8.769533966795300e-01	 8.224799048354928e+00
 9.749047948703654e-01	 8.973213699179398e-01	 7.979678664276427e+00
 9.561176649898260e-01	 9.173134745916315e-01	 7.732403992438451e+00
 9.369164850650002e-01	 9.369164850650001e-01	 7.483630375428863e+00
 1.119481496258467e+00	 7.318930451375384e-01	 9.846244808247461e+00
 1.104234467159906e+00	 7.547002660117507e-01	 9.639866814587242e+00
 1.088492323216361e+00	 7.772327272305846e-01	 9.426899925311879e+00
 1.072262446381982e+00	 7.994745124492590e-01	 9.207871522611802e+00
 1.055552894277321e+00	 8.214099691130178e-01	 8.983327946509064e+00
 1.038372388374167e+00	 8.430237440526529e-01	 8.753832608393287e+00
 1.020730299942205e+00	 8.643008184386362e-01	 8.519964003417783e+00
 1.002636633798886e+00	 8.852265419303337e-01	 8.282313633476388e+00
 9.841020099175596e-01	 9.057866658599246e-01	 8.041483853330341e+00
 9.651376429621962e-01	 9.259673752950645e-01	 7.798085653188153e+00
 9.457553198299999e-01	 9.457553198299999e-01	 7.552736391646512e+00
 1.129943940152365e+00	 7.387331670554576e-01	 9.869239964127328e+00
 1.114554415454784e+00	 7.617535395258563e-01	 9.668578022153653e+00
 1.098665148670595e+00	 7.844965844937873e-01	 9.461208902608885e+00
 1.082283590744174e+00	 8.069462368635849e-01	 9.247616890734529e+00
 1.065417874600936e+00	 8.290866977949353e-01	 9.028305510074931e+00
 1.048076803221754e+00	 8.509024706310688e-01	 8.803795815393237e+00
 1.030269835458270e+00	 8.723783961795647e-01	 8.574624583896053e+00
 1.012007069630905e+00	 8.934996871807190e-01	 8.341342415287901e+00
 9.932992249650937e-01	 9.142519618015905e-01	 8.104511752026390e+00
 9.741576209347511e-01	 9.346212759983175e-01	 7.864704831894793e+00
 9.545941545949999e-01	 9.545941545949999e-01	 7.622501585639955e+00
 1.140406384046757e+00	 7.455732889733871e-01	 9.895815593589619e+00
 1.124874363750242e+00	 7.688068130397925e-01	 9.700559497827856e+00
 1.108837974125464e+00	 7.917604417566795e-01	 9.498479984548503e+00
 1.092304735107027e+00	 8.144179612774985e-01	 9.290018841578737e+00
 1.075282854925209e+00	 8.367634264763789e-01	 9.075637373521962e+00
 1.057781218069964e+00	 8.587811972089886e-01	 8.855814871905260e+00
 1.039809370974894e+00	 8.804559739200161e-01	 8.631046983081877e+00
 1.021377505463388e+00	 9.017728324306855e-01	 8.401843983224207e+00
 1.002496440012967e+00	 9.227172577429366e-01	 8.168728970592625e+00
 9.831775989074915e-01	 9.432751767013908e-01	 7.932235986025000e+00
 9.634329893600002e-01	 9.634329893600002e-01	 7.692908073247468e+00
 1.150868827941644e+00	 7.524134108913275e-01	 9.925874313685007e+00
 1.135194312046280e+00	 7.758600865535584e-01	 9.735722318862136e+00
 1.119010799580969e+00	 7.990242990192602e-01	 9.538632652657054e+00
 1.102325879470541e+00	 8.218896856909992e-01	 9.335005188659009e+00
 1.085147835250138e+00	 8.444401551573477e-01	 9.125259593763580e+00
 1.067485632918797e+00	 8.666599237864125e-01	 8.909833973461726e+00
 1.049348906492078e+00	 8.885335516599897e-01	 8.689183414328378e+00
 1.030747941296336e+00	 9.100459776802332e-01	 8.463778431872615e+00
 1.011693655061181e+00	 9.311825536839639e-01	 8.234103332763851e+00
 9.921975768804164e-01	 9.519290774042841e-01	 8.000654501218989e+00
 9.722718241249999e-01	 9.722718241249999e-01	 7.763938620017096e+00
 8.838834764750000e-01	 8.838834764750000e-01	 7.083928574245250e+00
 8.653900703672558e-01	 9.019977971594894e-01	 6.786660624889428e+00
 8.465295942593203e-01	 9.197215045943362e-01	 6.491660618832709e+00
 8.273145251659157e-01	 9.370435829877607e-01	 6.199769593928632e+00
 8.077577742387659e-01	 9.539535513453987e-01	 5.911818289845623e+00
 7.878726579898540e-01	 9.704414844585149e-01	 5.628624027721392e+00
 7.676728683263140e-01	 9.864980320304252e-01	 5.350987670049896e+00
 7.471724415374250e-01	 1.002114435865165e+00	 5.079690679877553e+00
 7.263857263794565e-01	 1.017282545054521e+00	 4.815492297439532e+00
 7.053273514082554e-01	 1.031994829112000e+00	 4.559126851245932e+00
 6.840121917124017e-01	 1.046244389015035e+00	 4.311301219353979e+00
 8.927223112400001e-01	 8.927223112400001e-01	 7.148663438966905e+00
 8.740439710717682e-01	 9.110177751307497e-01	 6.855936047044726e+00
 8.549948902032222e-01	 9.289187196394916e-01	 6.565218161898478e+00
 8.355876704192313e-01	 9.464140188165279e-01	 6.277320067432381e+00
 8.158353519830368e-01	 9.634930868575508e-01	 5.993042631054529e+00
 7.957513845717418e-01	 9.801458993017379e-01	 5.713174303029513e+00
 7.753495970115517e-01	 9.963630123494376e-01	 5.438488190521992e+00
 7.546441659546392e-01	 1.012135580222726e+00	 5.169739224684163e+00
 7.336495836448365e-01	 1.027455370504305e+00	 4.907661438249297e+00
 7.123806249235501e-01	 1.042314777402819e+00	 4.652965370037023e+00
 6.908523136302465e-01	 1.056706832905469e+00	 4.406335611568353e+00
 9.015611460049998e-01	 9.015611460049998e-01	 7.214180294909717e+00
 8.826978717761006e-01	 9.200377531021950e-01	 6.925726015473428e+00
 8.634601861468045e-01	 9.381159346849864e-01	 6.639026016888798e+00
 8.438608156721283e-01	 9.557844546457592e-01	 6.354860335145472e+00
 8.239129297268304e-01	 9.730326223702622e-01	 6.074000460865314e+00
 8.036301111531335e-01	 9.898503141455844e-01	 5.797206456621317e+00
 7.830263256963154e-01	 1.006227992669108e+00	 5.525224143473102e+00
 7.621158903714405e-01	 1.022156724580948e+00	 5.258782374357414e+00
 7.409134409099053e-01	 1.037628195954725e+00	 4.998590411137158e+00
 7.194338984386750e-01	 1.052634725694217e+00	 4.745335421118037e+00
 6.976924355481020e-01	 1.067169276796399e+00	 4.499680107701953e+00
 9.103999807700000e-01	 9.103999807700000e-01	 7.280456643020027e+00
 8.913517724802530e-01	 9.290577310738252e-01	 6.996015817806136e+00
 8.719254820900674e-01	 9.473131497308210e-01	 6.713077164277625e+00
 8.521339609246068e-01	 9.651548904754556e-01	 6.432390961802182e+00
 8.319905074701465e-01	 9.825721578835326e-01	 6.154699805255472e+00
 8.115088377340296e-01	 9.995547289900545e-01	 5.880735838625216e+00
 7.907030543806044e-01	 1.016092972989435e+00	 5.611218052422381e+00
 7.695876147878296e-01	 1.032177868939832e+00	 5.346849661832734e+00
 7.481772981746633e-01	 1.047801021405781e+00	 5.088315581763164e+00
 7.264871719536298e-01	 1.062954673986194e+00	 4.836280014003494e+00
 7.045325574659680e-01	 1.077631720687823e+00	 4.591384160651243e+00
 9.192388155350000e-01	 9.192388155350000e-01	 7.347470848932987e+00
 9.000056731842259e-01	 9.380777090456406e-01	 7.066791306899638e+00
 8.803907780330109e-01	 9.565103647769959e-01	 6.787364853912961e+00
 8.604071061766667e-01	 9.745253263056164e-01	 6.509912489836047e+00
 8.400680852129850e-01	 9.921116933973620e-01	 6.235148380959375e+00
 8.193875643144292e-01	 1.009259143835148e+00	 5.963777208257802e+00
 7.983797830644193e-01	 1.025957953310421e+00	 5.696491574107521e+00
 7.770593392038057e-01	 1.042199013299377e+00	 5.433969483701480e+00
 7.554411554391103e-01	 1.057973846857472e+00	 5.176871916676943e+00
 7.335404454684151e-01	 1.073274622278753e+00	 4.925840503595587e+00
 7.113726793838446e-01	 1.088094164579742e+00	 4.681495320909029e+00
 9.280776503000001e-01	 9.280776503000001e-01	 7.415202101797073e+00
 9.086595738880183e-01	 9.470976870176407e-01	 7.138038873921380e+00
 8.888560739756349e-01	 9.657075798235105e-01	 6.861882592189609e+00
 8.686802514283077e-01	 9.838957621362414e-01	 6.587425440441895e+00
 8.481456629553463e-01	 1.001651228911750e+00	 6.315353610194267e+00
 8.272662908943332e-01	 1.018963558680864e+00	 6.046344761962477e+00
 8.060565117477597e-01	 1.035822933632063e+00	 5.781065539759949e+00
 7.845310636193695e-01	 1.052220157659584e+00	 5.520169154322682e+00
 7.627050127032463e-01	 1.068146672309799e+00	 5.264293049942244e+00
 7.405937189830302e-01	 1.083594570571890e+00	 5.014056668975244e+00
 7.182128013017320e-01	 1.098556608472156e+00	 4.770059327154989e+00
 9.369164850650002e-01	 9.369164850650001e-01	 7.483630375428863e+00
 9.173134745916314e-01	 9.561176649898259e-01	 7.209745422957487e+00
 8.973213699179396e-01	 9.749047948703653e-01	 6.936624129947759e+00
 8.769533966795300e-01	 9.932661979673313e-01	 6.664930314577596e+00
 8.562232406972300e-01	 1.011190764426698e+00	 6.395322634552495e+00
 8.351450174737411e-01	 1.028667973527204e+00	 6.128452159955355e+00
 8.137332404306261e-01	 1.045687913954363e+00	 5.864959994043902e+00
 7.920027880345210e-01	 1.062241302020452e+00	 5.605474956871644e+00
 7.699688699670710e-01	 1.078319497762762e+00	 5.350611345989711e+00
 7.476469924974758e-01	 1.093914518865608e+00	 5.100966787733433e+00
 7.250529232196300e-01	 1.109019052365064e+00	 4.857120191718487e+00
 9.457553198299999e-01	 9.457553198299999e-01	 7.552736391646512e+00
 9.259673752950643e-01	 9.651376429621963e-01	 7.281898347044562e+00
 9.057866658599246e-01	 9.841020099175595e-01	 7.011583451050460e+00
 8.852265419303337e-01	 1.002636633798885e+00	 6.742427593909761e+00
 8.643008184386362e-01	 1.020730299942204e+00	 6.475062328114827e+00
 8.430237440526532e-01	 1.038372388374167e+00	 6.210112551282625e+00
 8.214099691130180e-01	 1.055552894277321e+00	 5.948194231811845e+00
 7.994745124492595e-01	 1.072262446381982e+00	 5.689912191526105e+00
 7.772327272305850e-01	 1.088492323216360e+00	 5.435857958945814e+00
 7.547002660117512e-01	 1.104234467159906e+00	 5.186607706134115e+00
 7.318930451375383e-01	 1.119481496258467e+00	 4.942720281249344e+00
 9.545941545949999e-01	 9.545941545949999e-01	 7.622501585639955e+00
 9.346212759983176e-01	 9.741576209347513e-01	 7.354485505533062e+00
 9.142519618015904e-01	 9.932992249650935e-01	 7.086754761595328e+00
 8.934996871807190e-01	 1.012007069630904e+00	 6.819917741706850e+00
 8.723783961795650e-01	 1.030269835458270e+00	 6.554579309835226e+00
 8.509024706310692e-01	 1.048076803221754e+00	 6.291338597485828e+00
 8.290866977949357e-01	 1.065417874600936e+00	 6.030786832817945e+00
 8.069462368635854e-01	 1.082283590744173e+00	 5.773505220975515e+00
 7.844965844937880e-01	 1.098665148670594e+00	 5.520062888665328e+00
 7.617535395258571e-01	 1.114554415454784e+00	 5.271014905379523e+00
 7.387331670554576e-01	 1.129943940152365e+00	 5.026900392906573e+00
 9.634329893600002e-01	 9.634329893600002e-01	 7.692908073247468e+00
 9.432751767013909e-01	 9.831775989074915e-01	 7.427495202696853e+00
 9.227172577429366e-01	 1.002496440012967e+00	 7.162132479720542e+00
 9.017728324306855e-01	 1.021377505463388e+00	 6.897401203683049e+00
 8.804559739200162e-01	 1.039809370974894e+00	 6.633879955244057e+00
 8.587811972089889e-01	 1.057781218069964e+00	 6.372142494964447e+00
 8.367634264763789e-01	 1.075282854925208e+00	 6.112755694520878e+00
 8.144179612774990e-01	 1.092304735107027e+00	 5.856277513424924e+00
 7.917604417566800e-01	 1.108837974125464e+00	 5.603255033679572e+00
 7.688068130397931e-01	 1.124874363750241e+00	 5.354222564227475e+00
 7.455732889733871e-01	 1.140406384046757e+00	 5.109699826353404e+00
 9.722718241249999e-01	 9.722718241249999e-01	 7.763938620017096e+00
 9.519290774042841e-01	 9.921975768804165e-01	 7.500916167509333e+00
 9.311825536839636e-01	 1.011693655061181e+00	 7.237711225966396e+00
 9.100459776802337e-01	 1.030747941296336e+00	 6.974878408796362e+00
 8.885335516599900e-01	 1.049348906492078e+00	 6.712970407512582e+00
 8.666599237864129e-01	 1.067485632918797e+00	 6.452535996118655e+00
 8.444401551573482e-01	 1.085147835250138e+00	 6.194118063097108e+00
 8.218896856909996e-01	 1.102325879470541e+00	 5.938251683253388e+00
 7.990242990192610e-01	 1.119010799580969e+00	 5.685462241256622e+00
 7.758600865535591e-01	 1.135194312046279e+00	 5.436263618193649e+00
 7.524134108913274e-01	 1.150868827941644e+00	 5.191156451825277e+00
 6.840121917124017e-01	 1.046244389015035e+00	 4.311301219353979e+00
 6.624553352020789e-01	 1.060024966129602e+00	 4.032211000724481e+00
 6.406720486069893e-01	 1.073330949004241e+00	 3.762173807157620e+00
 6.186777433390788e-01	 1.086157378033213e+00	 3.501762030088182e+00
 5.964879413737916e-01	 1.098499948001280e+00	 3.251520005463436e+00
 5.741182412978680e-01	 1.110355008534519e+00	 3.011962422550196e+00
 5.515842846700593e-01	 1.121719562493458e+00	 2.783572898872028e+00
 5.289017228355563e-01	 1.132591262356013e+00	 2.566802726647973e+00
 5.060861843290325e-01	 1.142968404648257e+00	 2.362069794642744e+00
 4.831532429944511e-01	 1.152849922490885e+00	 2.169757687879235e+00
 4.601183869422882e-01	 1.162235376338345e+00	 1.990214966227084e+00
 6.908523136302465e-01	 1.056706832905469e+00	 4.406335611568353e+00
 6.690798885542670e-01	 1.070625215791757e+00	 4.127545108929682e+00
 6.470787690926667e-01	 1.084064258495567e+00	 3.857675127884809e+00
 6.248645207715108e-01	 1.097018951815105e+00	 3.597288349601020e+00
 6.024528207859987e-01	 1.109484947482980e+00	 3.346919644986091e+00
 5.798594237087384e-01	 1.121458558621532e+00	 3.107074522625288e+00
 5.571001275140695e-01	 1.132936758119894e+00	 2.878227740983743e+00
 5.341907400606344e-01	 1.143917174980766e+00	 2.660822090029936e+00
 5.111470461684543e-01	 1.154398088695481e+00	 2.455267345995444e+00
 4.879847754199321e-01	 1.164378421715942e+00	 2.261939401550812e+00
 4.647195708066494e-01	 1.173857730101146e+00	 2.081179572263979e+00
 6.976924355481020e-01	 1.067169276796399e+00	 4.499680107701953e+00
 6.757044419066557e-01	 1.081225465454312e+00	 4.221069649201005e+00
 6.534854895787137e-01	 1.094797567987208e+00	 3.951247213169006e+00
 6.310512982044615e-01	 1.107880525597236e+00	 3.690765994947929e+00
 6.084177001988532e-01	 1.120469946964856e+00	 3.440151621642375e+00
 5.856006061203651e-01	 1.132562108708666e+00	 3.199900638466294e+00
 5.626159703589236e-01	 1.144153953746409e+00	 2.970479157521815e+00
 5.394797572866252e-01	 1.155243087605563e+00	 2.752321673953806e+00
 5.162079080088372e-01	 1.165827772742723e+00	 2.545830053004242e+00
 4.928163078464036e-01	 1.175906920941005e+00	 2.351372690077675e+00
 4.693207546720107e-01	 1.185480083863948e+00	 2.169283844539311e+00
 7.045325574659680e-01	 1.077631720687823e+00	 4.591384160651243e+00
 6.823289952592447e-01	 1.091825715117267e+00	 4.312837553704066e+00
 6.598922100651304e-01	 1.105530877479165e+00	 4.042946473991471e+00
 6.372380756379310e-01	 1.118742099379610e+00	 3.782254848939822e+00
 6.143825796123554e-01	 1.131454946446909e+00	 3.531279276649173e+00
 5.913417885327474e-01	 1.143665658795923e+00	 3.290507549949774e+00
 5.681318132046224e-01	 1.155371149373001e+00	 3.060397341088777e+00
 5.447687745135287e-01	 1.166569000230403e+00	 2.841375051781426e+00
 5.212687698501816e-01	 1.177257456789986e+00	 2.633834831963052e+00
 4.976478402738654e-01	 1.187435420166072e+00	 2.438137769186646e+00
 4.739219385383718e-01	 1.197102437626749e+00	 2.254611249246337e+00
 7.113726793838446e-01	 1.088094164579742e+00	 4.681495320909029e+00
 6.889535486120340e-01	 1.102425964780622e+00	 4.402899718413435e+00
 6.662989305519171e-01	 1.116264186971437e+00	 4.132827151372156e+00
 6.434248530719193e-01	 1.129603673162223e+00	 3.871812490924528e+00
 6.203474590265048e-01	 1.142439945929137e+00	 3.620363514774057e+00
 5.970829709458856e-01	 1.154769208883302e+00	 3.378959468275412e+00
 5.736476560511651e-01	 1.166588344999672e+00	 3.148049784379345e+00
 5.500577917413448e-01	 1.177894912855286e+00	 2.928052966964385e+00
 5.263296316924875e-01	 1.188687140837267e+00	 2.719355640706606e+00
 5.024793727023174e-01	 1.198963919391144e+00	 2.522311769268573e+00
 4.785231224057330e-01	 1.208724791389550e+00	 2.337242042247423e+00
 7.182128013017320e-01	 1.098556608472156e+00	 4.770059327154989e+00
 6.955781019650238e-01	 1.113026214444376e+00	 4.491305100074234e+00
 6.727056510390736e-01	 1.126997496464024e+00	 4.220941419701403e+00
 6.496116305064261e-01	 1.140465246945077e+00	 3.959494306475493e+00
 6.263123384413014e-01	 1.153424945411542e+00	 3.707462920356708e+00
 6.028241533597797e-01	 1.165872758970803e+00	 3.465318158284059e+00
 5.791634988985525e-01	 1.177805540626420e+00	 3.233501408747436e+00
 5.553468089700738e-01	 1.189220825480215e+00	 3.012423467801599e+00
 5.313904935357544e-01	 1.200116824884568e+00	 2.802463619489867e+00
 5.073109051317600e-01	 1.210492418616221e+00	 2.603968882299126e+00
 4.831243062740943e-01	 1.220347145152352e+00	 2.417253421946875e+00
 7.250529232196300e-01	 1.109019052365064e+00	 4.857120191718487e+00
 7.022026553182140e-01	 1.123626464108531e+00	 4.578100807675030e+00
 6.791123715265995e-01	 1.137730805956926e+00	 4.307339484222450e+00
 6.557984079414519e-01	 1.151326820728172e+00	 4.045353590871769e+00
 6.322772178567455e-01	 1.164409944894123e+00	 3.792633866763110e+00
 6.085653357744295e-01	 1.176976309058425e+00	 3.549643053851972e+00
 5.846793417467839e-01	 1.189022736253246e+00	 3.316814685496018e+00
 5.606358261997154e-01	 1.200546738105186e+00	 3.094552034569155e+00
 5.364513553799830e-01	 1.211546508931889e+00	 2.883227223892356e+00
 5.121424375621928e-01	 1.222020917841302e+00	 2.683180500443261e+00
 4.877254901434555e-01	 1.231969498915153e+00	 2.494719673510648e+00
 7.318930451375383e-01	 1.119481496258467e+00	 4.942720281249344e+00
 7.088272086716046e-01	 1.134226713773085e+00	 4.663332188791775e+00
 6.855190920144951e-01	 1.148464115450143e+00	 4.392069673047520e+00
 6.619851853769962e-01	 1.162188394511507e+00	 4.129441646775255e+00
 6.382420972728374e-01	 1.175394944376881e+00	 3.875930619701881e+00
 6.143065181898355e-01	 1.188079859146170e+00	 3.631991366814383e+00
 5.901951845958594e-01	 1.200239931880150e+00	 3.398049750365220e+00
 5.659248434302697e-01	 1.211872650730201e+00	 3.174501699521519e+00
 5.415122172251726e-01	 1.222976192979229e+00	 2.961712350270398e+00
 5.169739699936161e-01	 1.233549417066389e+00	 2.760015346887459e+00
 4.923266740138165e-01	 1.243591852677954e+00	 2.569712304999128e+00
 7.387331670554576e-01	 1.129943940152365e+00	 5.026900392906573e+00
 7.154517620251952e-01	 1.144826963438039e+00	 4.747042911134498e+00
 6.919258125027606e-01	 1.159197424943675e+00	 4.475178524062184e+00
 6.681719628130595e-01	 1.173049968295084e+00	 4.211807876481582e+00
 6.442069766895764e-01	 1.186379943859815e+00	 3.957405434801242e+00
 6.200477006059973e-01	 1.199183409234037e+00	 3.712418189837796e+00
 5.957110274457796e-01	 1.211457127507132e+00	 3.477264511660433e+00
 5.712138606617366e-01	 1.223198563355260e+00	 3.252333160225646e+00
 5.465730790713239e-01	 1.234405877026588e+00	 3.037982454239844e+00
 5.218055024260299e-01	 1.245077916291480e+00	 2.834539599403663e+00
 4.969278578851778e-01	 1.255214206440755e+00	 2.642300175936597e+00
 7.455732889733871e-01	 1.140406384046757e+00	 5.109699826353404e+00
 7.220763153789865e-01	 1.155427213103392e+00	 4.829275039605701e+00
 6.983325329913959e-01	 1.169930734437522e+00	 4.556710867045843e+00
 6.743587402496412e-01	 1.183911542078901e+00	 4.292499869092794e+00
 6.501718561069627e-01	 1.197364943342925e+00	 4.037108649814426e+00
 6.257888830229149e-01	 1.210286959322026e+00	 3.790976593629571e+00
 6.012268702965438e-01	 1.222674323134191e+00	 3.554514752428173e+00
 5.765028778941165e-01	 1.234524475980362e+00	 3.328104886656983e+00
 5.516339409184363e-01	 1.245835561073966e+00	 3.112098662636420e+00
 5.266370348594338e-01	 1.256606415516577e+00	 2.906817007111337e+00
 5.015290417575390e-01	 1.266836560203556e+00	 2.712549618803919e+00
 7.524134108913274e-01	 1.150868827941644e+00	 5.191156451825277e+00
 7.287008687329781e-01	 1.166027462769146e+00	 4.910069109154819e+00
 7.047392534804007e-01	 1.180664043931685e+00	 4.636709901312848e+00
 6.805455176867415e-01	 1.194773115862958e+00	 4.371563482935217e+00
 6.561367355249966e-01	 1.208349942826211e+00	 4.115088771795797e+00
 6.315300654405884e-01	 1.221390509410137e+00	 3.867717718845100e+00
 6.067427131481523e-01	 1.233891518761329e+00	 3.629854227058665e+00
 5.817918951274087e-01	 1.245850388605507e+00	 3.401873222453407e+00
 5.566948027665101e-01	 1.257265245121364e+00	 3.184119879369452e+00
 5.314685672938282e-01	 1.268134914741677e+00	 2.976909000870755e+00
 5.061302256309000e-01	 1.278458913966357e+00	 2.780524553903969e+00
 4.601183869422882e-01	 1.162235376338345e+00	 1.990214966227084e+00
 4.369969884562961e-01	 1.171124942995283e+00	 1.782157723891379e+00
 4.138042749547273e-01	 1.179519403004286e+00	 1.586997706510981e+00
 3.905553010997264e-01	 1.187420126502869e+00	 1.404934693349169e+00
 3.672649221392484e-01	 1.194829057653032e+00	 1.236138871122312e+00
 3.439477685578608e-01	 1.201748697753768e+00	 1.080750913657123e+00
 3.206182221012706e-01	 1.208182087148427e+00	 9.388821855489076e-01
 2.972903932297764e-01	 1.214132786041956e+00	 8.106150645527745e-01
 2.739781000458337e-01	 1.219604854344699e+00	 6.960033767896241e-01
 2.506948487310247e-01	 1.224602830660197e+00	 5.950729382851256e-01
 2.274538155180211e-01	 1.229131710534368e+00	 5.078221958756559e-01
 4.647195708066494e-01	 1.173857730101146e+00	 2.081179572263979e+00
 4.413669583353180e-01	 1.182836192423920e+00	 1.871210182495997e+00
 4.179423176984929e-01	 1.191314597032411e+00	 1.674237810156890e+00
 3.944608541049377e-01	 1.199294327765508e+00	 1.490461884753709e+00
 3.709375713550830e-01	 1.206777348226831e+00	 1.320051530507351e+00
 3.473872462383391e-01	 1.213766184728358e+00	 1.163145679236049e+00
 3.238244043178661e-01	 1.220263908016873e+00	 1.019853309681114e+00
 3.002632971585618e-01	 1.226274113899371e+00	 8.902538076668662e-01
 2.767178810439023e-01	 1.231800902885296e+00	 7.743974408373187e-01
 2.532017972172816e-01	 1.236848858964223e+00	 6.723059411482450e-01
 2.297283536736934e-01	 1.241423027637528e+00	 5.839731878166414e-01
 4.693207546720107e-01	 1.185480083863948e+00	 2.169283844539311e+00
 4.457369282153291e-01	 1.194547441852557e+00	 1.957384007015045e+00
 4.220803604432159e-01	 1.203109791060537e+00	 1.758576553609434e+00
 3.983664071110528e-01	 1.211168529028148e+00	 1.573060662032558e+00
 3.746102205717478e-01	 1.218725638800630e+00	 1.401004500340582e+00
 3.508267239195530e-01	 1.225783671702948e+00	 1.242545372471336e+00
 3.270305865350828e-01	 1.232345728885319e+00	 1.097789992646793e+00
 3.032362010878344e-01	 1.238415441756786e+00	 9.668148826980274e-01
 2.794576620423047e-01	 1.243996951425893e+00	 8.496668857201144e-01
 2.557087457036998e-01	 1.249094887268250e+00	 7.463637889002639e-01
 2.320028918293363e-01	 1.253714344740687e+00	 6.568950478923143e-01
 4.739219385383718e-01	 1.197102437626749e+00	 2.254611249246337e+00
 4.501068980963295e-01	 1.206258691281194e+00	 2.040763187403329e+00
 4.262184031888958e-01	 1.214904985088661e+00	 1.840098579253721e+00
 4.022719601180718e-01	 1.223042730290787e+00	 1.652816445830499e+00
 3.782828697892422e-01	 1.230673929374427e+00	 1.479084102272767e+00
 3.542662016015024e-01	 1.237801158677538e+00	 1.319037335456980e+00
 3.302367687529205e-01	 1.244427549753766e+00	 1.172780712901377e+00
 3.062091050175939e-01	 1.250556769614200e+00	 1.040388016670926e+00
 2.821974430410407e-01	 1.256192999966490e+00	 9.219027953552055e-01
 2.582156941902795e-01	 1.261340915572276e+00	 8.173390266334681e-01
 2.342774299849499e-01	 1.266005661843847e+00	 7.266818824736649e-01
 4.785231224057330e-01	 1.208724791389550e+00	 2.337242042247423e+00
 4.544768679783190e-01	 1.217969940709831e+00	 2.121428483161296e+00
 4.303564459355328e-01	 1.226700179116788e+00	 1.918885273947203e+00
 4.061775131259946e-01	 1.234916931553427e+00	 1.729811371349786e+00
 3.819555190075666e-01	 1.242622219948226e+00	 1.554373337875011e+00
 3.577056792841872e-01	 1.249818645652129e+00	 1.392705550974187e+00
 3.334429509713793e-01	 1.256509370622212e+00	 1.244910545894502e+00
 3.091820089478404e-01	 1.262698097471615e+00	 1.111059485593870e+00
 2.849372240401104e-01	 1.268389048507087e+00	 9.911927504646485e-01
 2.607226426770205e-01	 1.273586943876302e+00	 8.853206400534421e-01
 2.365519681405341e-01	 1.278296978947007e+00	 7.934241785014735e-01
 4.831243062740943e-01	 1.220347145152352e+00	 2.417253421946875e+00
 4.588468378612978e-01	 1.229681190138469e+00	 2.199457577166673e+00
 4.344944886831269e-01	 1.238495373144913e+00	 1.995014924044732e+00
 4.100830661348214e-01	 1.246791132816067e+00	 1.804124444800170e+00
 3.856281682267209e-01	 1.254570510522024e+00	 1.626952046737549e+00
 3.611451569676077e-01	 1.261836132626718e+00	 1.463630802458787e+00
 3.366491331904594e-01	 1.268591191490658e+00	 1.314261326117854e+00
 3.121549128785740e-01	 1.274839425329030e+00	 1.178912278792772e+00
 2.876770050395138e-01	 1.280585097047684e+00	 1.057620995394055e+00
 2.632295911639229e-01	 1.285832972180329e+00	 9.503942249736472e-01
 2.388265062960890e-01	 1.290588296050166e+00	 8.572089758399655e-01
 4.877254901434555e-01	 1.231969498915153e+00	 2.494719673510648e+00
 4.632168077452659e-01	 1.241392439567105e+00	 2.274925220797773e+00
 4.386325314316782e-01	 1.250290567173038e+00	 2.068562861648908e+00
 4.139886191445520e-01	 1.258665334078706e+00	 1.875831690992602e+00
 3.893008174467052e-01	 1.266518801095822e+00	 1.696897055619993e+00
 3.645846346517638e-01	 1.273853619601308e+00	 1.531890824913708e+00
 3.398553154101606e-01	 1.280673012359104e+00	 1.380911799980620e+00
 3.151278168097947e-01	 1.286980753186445e+00	 1.244026253943477e+00
 2.904167860392506e-01	 1.292781145588281e+00	 1.121268595488936e+00
 2.657365396509867e-01	 1.298079000484355e+00	 1.012642147215889e+00
 2.411010444516146e-01	 1.302879613153326e+00	 9.181200298748429e-01
 4.923266740138165e-01	 1.243591852677954e+00	 2.569712304999128e+00
 4.675867776302232e-01	 1.253103688995743e+00	 2.347903370919679e+00
 4.427705741811864e-01	 1.262085761201164e+00	 2.139601602659138e+00
 4.178941721551864e-01	 1.270539535341346e+00	 1.945006292656929e+00
 3.929734666675194e-01	 1.278467091669621e+00	 1.764282319237644e+00
 3.680241123366553e-01	 1.285871106575899e+00	 1.597560447359113e+00
 3.430614976304829e-01	 1.292754833227551e+00	 1.444937770112397e+00
 3.181007207415024e-01	 1.299122081043860e+00	 1.306478283410470e+00
 2.931565670393215e-01	 1.304977194128878e+00	 1.182213585646062e+00
 2.682434881382119e-01	 1.310325028788381e+00	 1.072143693544815e+00
 2.433755826071108e-01	 1.315170930256486e+00	 9.762379649935509e-01
 4.969278578851778e-01	 1.255214206440755e+00	 2.642300175936597e+00
 4.719567475161696e-01	 1.264814938424380e+00	 2.418461319259869e+00
 4.469086169316517e-01	 1.273880955229289e+00	 2.208200977151242e+00
 4.217997251667246e-01	 1.282413736603985e+00	 2.011718722019981e+00
 3.966461158891635e-01	 1.290415382243419e+00	 1.829179053226684e+00
 3.714635900222824e-01	 1.297888593550488e+00	 1.660711727368637e+00
 3.462676798514263e-01	 1.304836654095997e+00	 1.506412231649191e+00
 3.210736246736973e-01	 1.311263408901275e+00	 1.366342392455806e+00
 2.958963480397257e-01	 1.317173242669475e+00	 1.240531110612006e+00
 2.707504366255986e-01	 1.322571057092408e+00	 1.128975214216394e+00
 2.456501207625777e-01	 1.327462247359646e+00	 1.031640419539001e+00
 5.015290417575390e-01	 1.266836560203556e+00	 2.712549618803919e+00
 4.763267174031054e-01	 1.276526187853017e+00	 2.486665814662075e+00
 4.510466596830741e-01	 1.285676149257414e+00	 2.274428252580735e+00
 4.257052781791671e-01	 1.294287937866625e+00	 2.076036865140251e+00
 4.003187651116374e-01	 1.302363672817217e+00	 1.891655859789827e+00
 3.749030677086451e-01	 1.309906080525078e+00	 1.721414078199913e+00
 3.494738620729909e-01	 1.316918474964443e+00	 1.565405501017598e+00
 3.240465286063789e-01	 1.323404736758689e+00	 1.423689889839956e+00
 2.986361290404637e-01	 1.329369291210072e+00	 1.296293557558826e+00
 2.732573851131466e-01	 1.334817085396434e+00	 1.183210257680487e+00
 2.479246589180153e-01	 1.339753564462806e+00	 1.084402182783852e+00
 5.061302256309000e-01	 1.278458913966357e+00	 2.780524553903969e+00
 4.806966872910303e-01	 1.288237437281654e+00	 2.552581178672012e+00
 4.551847024354536e-01	 1.297471343285539e+00	 2.338348250265196e+00
 4.296108311925131e-01	 1.306162139129264e+00	 2.138026139461175e+00
 4.039914143349413e-01	 1.314311963391015e+00	 1.951778846488843e+00
 3.783425453957433e-01	 1.321923567499668e+00	 1.779734388990836e+00
 3.526800442951766e-01	 1.329000295832889e+00	 1.621985337694360e+00
 3.270194325395477e-01	 1.335546064616104e+00	 1.478589491299330e+00
 3.013759100415353e-01	 1.341565339750669e+00	 1.349570681428382e+00
 2.757643336008559e-01	 1.347063113700460e+00	 1.234919697935504e+00
 2.501991970734234e-01	 1.352044881565965e+00	 1.134595324433947e+00
 2.274538155180211e-01	 1.229131710534368e+00	 5.078221958756559e-01
 2.042678302137041e-01	 1.233196924082991e+00	 4.016534536348026e-01
 1.811493612805352e-01	 1.236804313110804e+00	 3.086239257336394e-01
 1.581105024744471e-01	 1.239960107835634e+00	 2.286294651798342e-01
 1.351629610294562e-01	 1.242670903327850e+00	 1.615466038609510e-01
 1.123180473713980e-01	 1.244943635769421e+00	 1.072334563483319e-01
 8.958666633593650e-02	 1.246785558634639e+00	 6.553065835721483e-02
 6.697930985936418e-02	 1.248204218889501e+00	 3.626233359454423e-02
 4.450605110464890e-02	 1.249207433301722e+00	 1.923708287157755e-02
 2.217653997970472e-02	 1.249803264948056e+00	 1.424898954186427e-02
 0.000000000000000e+00	 1.250000000000000e+00	 2.107863554793754e-02
 2.297283536736934e-01	 1.241423027637528e+00	 5.839731878166414e-01
 2.063105085178029e-01	 1.245528893322062e+00	 4.763406433149358e-01
 1.829608548964180e-01	 1.249172356240531e+00	 3.820339146750771e-01
 1.596916075030363e-01	 1.252359708912939e+00	 3.009479608901446e-01
 1.365145906440207e-01	 1.255097612360361e+00	 2.329575539018445e-01
 1.134412278494712e-01	 1.257393072126586e+00	 1.779182310640988e-01
 9.048253300341476e-02	 1.259253414220649e+00	 1.356672838952737e-01
 6.764910296151375e-02	 1.260686261078208e+00	 1.060247764535664e-01
 4.495111161837246e-02	 1.261699507634656e+00	 8.879458683376185e-02
 2.239830538099112e-02	 1.262301297597516e+00	 8.376546548163155e-02
 0.000000000000000e+00	 1.262500000000000e+00	 9.071210426527077e-02
 2.320028918293363e-01	 1.253714344740687e+00	 6.568950478923143e-01
 2.083531868216939e-01	 1.257860862561134e+00	 5.478128115895380e-01
 1.847723485119567e-01	 1.261540399370259e+00	 4.522372062972491e-01
 1.612727125311870e-01	 1.264759309990245e+00	 3.700623884756493e-01
 1.378662202580929e-01	 1.267524321392872e+00	 3.011614718070337e-01
 1.145644083270384e-01	 1.269842508483751e+00	 2.453875276368707e-01
 9.137839967041286e-02	 1.271721269806659e+00	 2.025746233226606e-01
 6.831889606324743e-02	 1.273168303266915e+00	 1.725388914378614e-01
 4.539617213178213e-02	 1.274191581967590e+00	 1.550796229489260e-01
 2.262007078210258e-02	 1.274799330246976e+00	 1.499803777047959e-01
 0.000000000000000e+00	 1.275000000000000e+00	 1.570101058364703e-01
 2.342774299849499e-01	 1.266005661843847e+00	 7.266818824736649e-01
 2.103958651253771e-01	 1.270192831800205e+00	 6.161636428890416e-01
 1.865838421271515e-01	 1.273908442499986e+00	 5.193272315456434e-01
 1.628538175588991e-01	 1.277158911067550e+00	 4.360660912053607e-01
 1.392178498716727e-01	 1.279951030425384e+00	 3.662517760337649e-01
 1.156875888040997e-01	 1.282291944840916e+00	 3.097349993544327e-01
 9.227426633693080e-02	 1.284189125392670e+00	 2.663467209220238e-01
 6.898868916456520e-02	 1.285650345455622e+00	 2.358992662732562e-01
 4.584123264487796e-02	 1.286683656300524e+00	 2.181874709023923e-01
 2.284183618303908e-02	 1.287297362896436e+00	 2.129898422442957e-01
 0.000000000000000e+00	 1.287500000000000e+00	 2.200697327260994e-01
 2.365519681405341e-01	 1.278296978947007e+00	 7.934241785014735e-01
 2.124385434288524e-01	 1.282524801039276e+00	 6.814832184457531e-01
 1.883953357420022e-01	 1.286276485629713e+00	 5.833938279187052e-01
 1.644349225861726e-01	 1.289558512144856e+00	 4.990488222735330e-01
 1.405694794847602e-01	 1.292377739457896e+00	 4.283182920703128e-01
 1.168107692806550e-01	 1.294741381198081e+00	 3.710506975001699e-01
 9.317013300296850e-02	 1.296656980978679e+00	 3.270740039276236e-01
 6.965848226546710e-02	 1.298132387644329e+00	 2.961968507281052e-01
 4.628629315765993e-02	 1.299175730633459e+00	 2.782097457989532e-01
 2.306360158380064e-02	 1.299795395545896e+00	 2.728862783745474e-01
 0.000000000000000e+00	 1.300000000000000e+00	 2.799843430730147e-01
 2.388265062960890e-01	 1.290588296050166e+00	 8.572089758399655e-01
 2.144812217321199e-01	 1.294856770278347e+00	 7.438581878745993e-01
 1.902068293565090e-01	 1.298644528759439e+00	 6.445234105845461e-01
 1.660160276130074e-01	 1.301958113222162e+00	 5.590969157553138e-01
 1.419211090973555e-01	 1.304804448490407e+00	 4.874474235300477e-01
 1.179339497567045e-01	 1.307190817555246e+00	 4.294212428769952e-01
 9.406599966852608e-02	 1.309124836564689e+00	 3.848434547656989e-01
 7.032827536595314e-02	 1.310614429833036e+00	 3.535191298494105e-01
 4.673135367012803e-02	 1.311667804966393e+00	 3.352345726670307e-01
 2.328536698438725e-02	 1.312293428195356e+00	 3.297585846478841e-01
 0.000000000000000e+00	 1.312500000000000e+00	 3.368437385153173e-01
 2.411010444516146e-01	 1.302879613153326e+00	 9.181200298748429e-01
 2.165239000351797e-01	 1.307188739517419e+00	 8.033719310420346e-01
 1.920183229706717e-01	 1.311012571889167e+00	 7.027991338113559e-01
 1.675971326394038e-01	 1.314357714299468e+00	 6.162934478861470e-01
 1.432727387094584e-01	 1.317231157522919e+00	 5.437223135604574e-01
 1.190571302322480e-01	 1.319640253912411e+00	 4.849299876222650e-01
 9.496186633360344e-02	 1.321592692150699e+00	 4.397387735453806e-01
 7.099806846602327e-02	 1.323096472021744e+00	 4.079502873929119e-01
 4.717641418228224e-02	 1.324159879299327e+00	 3.893467510845610e-01
 2.350713238479890e-02	 1.324791460844816e+00	 3.836923049660685e-01
 0.000000000000000e+00	 1.325000000000000e+00	 3.907343319499097e-01
 2.433755826071108e-01	 1.315170930256486e+00	 9.762379649935509e-01
 2.185665783380317e-01	 1.319520708756490e+00	 8.601047108578808e-01
 1.938298165844906e-01	 1.323380615018894e+00	 7.583010433461208e-01
 1.691782376653614e-01	 1.326757315376773e+00	 6.707183892971316e-01
 1.446243683210689e-01	 1.329657866555430e+00	 5.972229972014187e-01
 1.201803107072856e-01	 1.332089690269576e+00	 5.376571679493785e-01
 9.585773299820063e-02	 1.334060547736709e+00	 4.918405314379959e-01
 7.166786156567753e-02	 1.335578514210451e+00	 4.595713600892235e-01
 4.762147469412262e-02	 1.336651953632262e+00	 4.406279105741946e-01
 2.372889778503561e-02	 1.337289493494276e+00	 4.347697853399433e-01
 0.000000000000000e+00	 1.337500000000000e+00	 4.417393058848735e-01
 2.456501207625777e-01	 1.327462247359646e+00	 1.031640419539001e+00
 2.206092566406758e-01	 1.331852677995562e+00	 9.141338175789127e-01
 1.956413101979653e-01	 1.335748658148621e+00	 8.111062203275778e-01
 1.707593426908806e-01	 1.339156916454079e+00	 7.224487487929685e-01
 1.459759979321872e-01	 1.342084575587941e+00	 6.480265452790728e-01
 1.213034911818173e-01	 1.344539126626741e+00	 5.876800484034037e-01
 9.675359966231767e-02	 1.346528403322719e+00	 5.412263155353996e-01
 7.233765466491589e-02	 1.348060556399157e+00	 5.084603833394559e-01
 4.806653520564912e-02	 1.349144027965196e+00	 4.891566573649238e-01
 2.395066318509738e-02	 1.349787526143736e+00	 4.830703219397927e-01
 0.000000000000000e+00	 1.350000000000000e+00	 4.899387619945021e-01
 2.479246589180153e-01	 1.339753564462806e+00	 1.084402182783852e+00
 2.226519349431121e-01	 1.344184647234633e+00	 9.655337051691311e-01
 1.974528038110961e-01	 1.348116701278348e+00	 8.612889172772795e-01
 1.723404477159611e-01	 1.351556517531384e+00	 7.715587092157750e-01
 1.473276275428132e-01	 1.354511284620453e+00	 6.962072003789175e-01
 1.224266716558430e-01	 1.356988562983906e+00	 6.350730581762585e-01
 9.764946632595450e-02	 1.358996258908729e+00	 5.879708657341673e-01
 7.300744776373835e-02	 1.360542598587865e+00	 5.546925288906277e-01
 4.851159571686176e-02	 1.361636102298130e+00	 5.350087130753340e-01
 2.417242858498419e-02	 1.362285558793196e+00	 5.286703009962133e-01
 0.000000000000000e+00	 1.362500000000000e+00	 5.354098624419801e-01
 2.501991970734234e-01	 1.352044881565965e+00	 1.134595324433947e+00
 2.246946132453406e-01	 1.356516616473704e+00	 1.014376120222024e+00
 1.992642974238829e-01	 1.360484744408075e+00	 9.089206866733213e-01
 1.739215527406030e-01	 1.363956118608690e+00	 8.181197558976601e-01
 1.486792571529468e-01	 1.366937993652964e+00	 7.418365054021656e-01
 1.235498521293628e-01	 1.369437999341071e+00	 6.799079199862397e-01
 9.854533298911115e-02	 1.371464114494739e+00	 6.321462041537194e-01
 7.367724086214492e-02	 1.373024640776572e+00	 5.983402350021019e-01
 4.895665622776053e-02	 1.374128176631064e+00	 5.782570458323983e-01
 2.439419398469604e-02	 1.374783591442656e+00	 5.716433310705451e-01
 0.000000000000000e+00	 1.375000000000000e+00	 5.782269634934898e-01
 1.375000000000000e+00	 0.000000000000000e+00	 1.241323338529984e+01
 1.374783591442656e+00	 2.439419398469526e-02	 1.243855287210893e+01
 1.374128176631064e+00	 4.895665622775984e-02	 1.245354752902097e+01
 1.373024640776572e+00	 7.367724086214431e-02	 1.245797494624532e+01
 1.371464114494739e+00	 9.854533298911061e-02	 1.245160755330243e+01
 1.369437999341071e+00	 1.235498521293624e-01	 1.243423393139675e+01
 1.366937993652964e+00	 1.486792571529464e-01	 1.240566012067685e+01
 1.363956118608690e+00	 1.739215527406027e-01	 1.236571091476326e+01
 1.360484744408075e+00	 1.992642974238827e-01	 1.231423113454234e+01
 1.356516616473704e+00	 2.246946132453406e-01	 1.225108687288908e+01
 1.352044881565965e+00	 2.501991970734234e-01	 1.217616670169783e+01
 1.387500000000000e+00	 0.000000000000000e+00	 1.231000529265268e+01
 1.387281624092118e+00	 2.461595938431963e-02	 1.233523108349126e+01
 1.386620250964008e+00	 4.940171673850166e-02	 1.235043402431233e+01
 1.385506682965300e+00	 7.434703396034295e-02	 1.235537300891350e+01
 1.383931970080787e+00	 9.944119965202716e-02	 1.234982121766366e+01
 1.381887435698295e+00	 1.246730326026292e-01	 1.233356741020671e+01
 1.379364702685561e+00	 1.500308867628339e-01	 1.230641721463115e+01
 1.376355719686112e+00	 1.755026577650253e-01	 1.226819440566556e+01
 1.372852787537955e+00	 2.010757910364976e-01	 1.221874216407622e+01
 1.368848585712971e+00	 2.267372915474652e-01	 1.215792430910310e+01
 1.364336198669367e+00	 2.524737352288170e-01	 1.208562649548116e+01
 1.400000000000000e+00	 0.000000000000000e+00	 1.221370712988483e+01
 1.399779656741585e+00	 2.483772478394402e-02	 1.223879631693541e+01
 1.399112325296970e+00	 4.984677724924350e-02	 1.225416189170514e+01
 1.397988725154069e+00	 7.501682705854158e-02	 1.225956406228765e+01
 1.396399825666909e+00	 1.003370663149437e-01	 1.225477677699460e+01
 1.394336872055636e+00	 1.257962130758961e-01	 1.223958899760080e+01
 1.391791411718328e+00	 1.513825163727214e-01	 1.221380597061551e+01
 1.388755320763768e+00	 1.770837627894480e-01	 1.217725048931800e+01
 1.385220830668143e+00	 2.028872846491123e-01	 1.212976413890899e+01
 1.381180554952629e+00	 2.287799698495898e-01	 1.207120851678570e+01
 1.376627515773255e+00	 2.547482733842105e-01	 1.200146641965343e+01
 1.412500000000000e+00	 0.000000000000000e+00	 1.212415509869806e+01
 1.412277689391056e+00	 2.505949018356840e-02	 1.214906591734537e+01
 1.411604399629950e+00	 5.029183775998533e-02	 1.216454969203373e+01
 1.410470767342881e+00	 7.568662015674019e-02	 1.217036795557306e+01
 1.408867681253106e+00	 1.012329329778603e-01	 1.216629544085514e+01
 1.406786308413095e+00	 1.269193935491629e-01	 1.215212133484486e+01
 1.404218120751266e+00	 1.527341459826088e-01	 1.212765053214059e+01
 1.401154921841658e+00	 1.786648678138706e-01	 1.209270488101753e+01
 1.397588873798637e+00	 2.046987782617271e-01	 1.204712441447901e+01
 1.393512524192677e+00	 2.308226481517144e-01	 1.199076855849326e+01
 1.388918832877628e+00	 2.570228115396040e-01	 1.192351730929220e+01
 1.425000000000000e+00	 0.000000000000000e+00	 1.204117184985720e+01
 1.424775722040532e+00	 2.528125558319277e-02	 1.206586363853393e+01
 1.424096473962949e+00	 5.073689827072717e-02	 1.208142235233531e+01
 1.422952809531734e+00	 7.635641325493886e-02	 1.208761085893056e+01
 1.421335536839377e+00	 1.021287996407769e-01	 1.208420469198801e+01
 1.419235744770672e+00	 1.280425740224298e-01	 1.207099328611189e+01
 1.416644829784374e+00	 1.540857755924963e-01	 1.204778121287415e+01
 1.413554522919780e+00	 1.802459728382932e-01	 1.201438941102880e+01
 1.409956916929438e+00	 2.065102718743419e-01	 1.197065640360548e+01
 1.405844493433116e+00	 2.328653264538391e-01	 1.191643949422710e+01
 1.401210149982486e+00	 2.592973496949976e-01	 1.185161593469034e+01
 1.437500000000000e+00	 0.000000000000000e+00	 1.196458620279617e+01
 1.437273754690013e+00	 2.550302098281715e-02	 1.198901936457447e+01
 1.436588548295966e+00	 5.118195878146901e-02	 1.200461088905851e+01
 1.435434851720629e+00	 7.702620635313746e-02	 1.201112498865228e+01
 1.433803392425724e+00	 1.030246663036934e-01	 1.200833801357165e+01
 1.431685181128366e+00	 1.291657544956966e-01	 1.199603966792084e+01
 1.429071538817652e+00	 1.554374052023837e-01	 1.197403422837330e+01
 1.425954123998137e+00	 1.818270778627159e-01	 1.194214175871609e+01
 1.422324960060546e+00	 2.083217654869567e-01	 1.190019931312411e+01
 1.418176462673946e+00	 2.349080047559637e-01	 1.184806212067496e+01
 1.413501467087830e+00	 2.615718878503911e-01	 1.178560474330313e+01
 1.450000000000000e+00	 0.000000000000000e+00	 1.189423287972696e+01
 1.449771787339498e+00	 2.572478638244153e-02	 1.191836884556561e+01
 1.449080622629002e+00	 5.162701929221086e-02	 1.193395214558879e+01
 1.447916893909566e+00	 7.769599945133610e-02	 1.194074834655263e+01
 1.446271248012145e+00	 1.039205329666100e-01	 1.193853463058080e+01
 1.444134617486178e+00	 1.302889349689635e-01	 1.192710099256998e+01
 1.441498247851101e+00	 1.567890348122712e-01	 1.190625144169275e+01
 1.438353725076727e+00	 1.834081828871385e-01	 1.187580520042681e+01
 1.434693003191961e+00	 2.101332590995715e-01	 1.183559789414496e+01
 1.430508431915167e+00	 2.369506830580883e-01	 1.178548272394015e+01
 1.425792784193659e+00	 2.638464260057847e-01	 1.172533161504303e+01
 1.462500000000000e+00	 0.000000000000000e+00	 1.182995225338428e+01
 1.462269819988988e+00	 2.594655178206591e-02	 1.185375344694634e+01
 1.461572696962056e+00	 5.207207980295267e-02	 1.186928854323404e+01
 1.460398936098544e+00	 7.836579254953473e-02	 1.187632447272368e+01
 1.458739103598641e+00	 1.048163996295265e-01	 1.187463926441052e+01
 1.456584053844107e+00	 1.314121154422303e-01	 1.186402322472754e+01
 1.453924956884720e+00	 1.581406644221587e-01	 1.184428012203874e+01
 1.450753326155549e+00	 1.849892879115611e-01	 1.181522837030432e+01
 1.447061046323683e+00	 2.119447527121864e-01	 1.177670220511766e+01
 1.442840401156778e+00	 2.389933613602129e-01	 1.172855284495097e+01
 1.438084101299973e+00	 2.661209641611783e-01	 1.167064963012336e+01
 1.475000000000000e+00	 0.000000000000000e+00	 1.177159010759653e+01
 1.474767852638482e+00	 2.616831718169029e-02	 1.179501991155790e+01
 1.474064771295128e+00	 5.251714031369450e-02	 1.181046784487191e+01
 1.472880978287565e+00	 7.903558564773337e-02	 1.181770221086244e+01
 1.471206959185211e+00	 1.057122662924431e-01	 1.181650189997712e+01
 1.469033490202154e+00	 1.325352959154971e-01	 1.180665755039905e+01
 1.466351665918510e+00	 1.594922940320462e-01	 1.178797271569483e+01
 1.463152927234607e+00	 1.865703929359837e-01	 1.176026503326259e+01
 1.459429089455712e+00	 2.137562463248012e-01	 1.172336738694418e+01
 1.455172370398780e+00	 2.410360396623376e-01	 1.167712905679878e+01
 1.450375418406773e+00	 2.683955023165718e-01	 1.162141684870658e+01
 1.487500000000000e+00	 0.000000000000000e+00	 1.171899740992899e+01
 1.487265885287981e+00	 2.639008258131467e-02	 1.174202013370246e+01
 1.486556845628220e+00	 5.296220082443635e-02	 1.175734293051413e+01
 1.485363020476627e+00	 7.970537874593198e-02	 1.176473548543027e+01
 1.483674814771857e+00	 1.066081329553596e-01	 1.176397756456170e+01
 1.481482926560319e+00	 1.336584763887640e-01	 1.175486015754345e+01
 1.478778374952471e+00	 1.608439236419336e-01	 1.173718662849764e+01
 1.475552528313897e+00	 1.881514979604064e-01	 1.171077386940762e+01
 1.471797132588047e+00	 2.155677399374159e-01	 1.167545344943035e+01
 1.467504339641173e+00	 2.430787179644622e-01	 1.163107275330250e+01
 1.462666735514058e+00	 2.706700404719652e-01	 1.157749610166275e+01
 1.500000000000000e+00	 0.000000000000000e+00	 1.167203009569475e+01
 1.499763917937484e+00	 2.661184798093904e-02	 1.169461094449899e+01
 1.499048919961329e+00	 5.340726133517817e-02	 1.170977158409260e+01
 1.497845062665731e+00	 8.037517184413061e-02	 1.171728308995441e+01
 1.496142670358577e+00	 1.075039996182762e-01	 1.171692611771168e+01
 1.493932362918601e+00	 1.347816568620308e-01	 1.170849202765837e+01
 1.491205083986601e+00	 1.621955532518211e-01	 1.169178401918880e+01
 1.487952129393420e+00	 1.897326029848289e-01	 1.166661826923784e+01
 1.484165175720690e+00	 2.173792335500308e-01	 1.163282506841492e+01
 1.479836308883957e+00	 2.451213962665869e-01	 1.159024994814499e+01
 1.474958052621828e+00	 2.729445786273588e-01	 1.153875479178998e+01
 1.352044881565965e+00	 2.501991970734234e-01	 1.217616670169783e+01
 1.347063113700461e+00	 2.757643336008552e-01	 1.215085176780099e+01
 1.341565339750669e+00	 3.013759100415347e-01	 1.211387829597274e+01
 1.335546064616104e+00	 3.270194325395472e-01	 1.206513600266809e+01
 1.329000295832889e+00	 3.526800442951761e-01	 1.200453948812762e+01
 1.321923567499668e+00	 3.783425453957430e-01	 1.193202930199241e+01
 1.314311963391016e+00	 4.039914143349411e-01	 1.184757293087035e+01
 1.306162139129264e+00	 4.296108311925129e-01	 1.175116569867350e+01
 1.297471343285539e+00	 4.551847024354536e-01	 1.164283157077653e+01
 1.288237437281654e+00	 4.806966872910303e-01	 1.152262385337507e+01
 1.278458913966357e+00	 5.061302256309002e-01	 1.139062577984863e+01
 1.364336198669367e+00	 2.524737352288170e-01	 1.208562649548116e+01
 1.359309142004773e+00	 2.782712820886430e-01	 1.206285406230794e+01
 1.353761388291581e+00	 3.041156910427638e-01	 1.202870514374193e+01
 1.347687392473848e+00	 3.299923364729382e-01	 1.198305632321760e+01
 1.341082116701665e+00	 3.558862265176344e-01	 1.192580816741376e+01
 1.333941054474572e+00	 3.817820230831492e-01	 1.185688632085065e+01
 1.326260253965098e+00	 4.076640635585734e-01	 1.177624252766327e+01
 1.318036340392143e+00	 4.335163842061925e-01	 1.168385557136555e+01
 1.309266537313843e+00	 4.593227451881562e-01	 1.157973212360997e+01
 1.299948686710394e+00	 4.850666571792523e-01	 1.146390749323185e+01
 1.290081267729169e+00	 5.107314095045163e-01	 1.133644626724978e+01
 1.376627515773255e+00	 2.547482733842105e-01	 1.200146641965343e+01
 1.371555170309656e+00	 2.807782305764259e-01	 1.198110300359594e+01
 1.365957436833121e+00	 3.068554720439740e-01	 1.194964247876226e+01
 1.359828720332250e+00	 3.329652404062867e-01	 1.190694848086383e+01
 1.353163937571098e+00	 3.590924087400163e-01	 1.185290773904202e+01
 1.345958541450105e+00	 3.852215007704358e-01	 1.178743119913841e+01
 1.338208544539750e+00	 4.113367127820325e-01	 1.171045507930673e+01
 1.329910541655500e+00	 4.374219372196355e-01	 1.162194184877663e+01
 1.321061731342504e+00	 4.634607879405481e-01	 1.152188112072777e+01
 1.311659936139337e+00	 4.894366270670794e-01	 1.141029045047495e+01
 1.301703621492001e+00	 5.153325933776431e-01	 1.128721603050337e+01
 1.388918832877628e+00	 2.570228115396040e-01	 1.192351730929220e+01
 1.383801198615110e+00	 2.832851790642043e-01	 1.190543297374185e+01
 1.378153485375291e+00	 3.095952530451653e-01	 1.187652830104552e+01
 1.371970048191311e+00	 3.359381443395925e-01	 1.183665415956562e+01
 1.365245758441190e+00	 3.622985909623221e-01	 1.178568363172217e+01
 1.357976028426266e+00	 3.886609784576026e-01	 1.172351316563501e+01
 1.350156835114969e+00	 4.150093620053185e-01	 1.165006366421614e+01
 1.341784742919335e+00	 4.413274902328413e-01	 1.156528150251699e+01
 1.332856925371522e+00	 4.675988306926294e-01	 1.146913946424325e+01
 1.323371185568486e+00	 4.938065969545113e-01	 1.136163758855020e+01
 1.313325975254853e+00	 5.199337772502799e-01	 1.124280391852606e+01
 1.401210149982486e+00	 2.592973496949976e-01	 1.185161593469034e+01
 1.396047226921136e+00	 2.857921275519781e-01	 1.183568416554700e+01
 1.390349533918090e+00	 3.123350340463378e-01	 1.180920629434948e+01
 1.384111376051029e+00	 3.389110482728556e-01	 1.177202059773466e+01
 1.377327579311940e+00	 3.655047731845517e-01	 1.172398669719164e+01
 1.369993515403056e+00	 3.921004561446497e-01	 1.166498673878291e+01
 1.362105125690758e+00	 4.186820112284312e-01	 1.159492651536813e+01
 1.353658944183649e+00	 4.452330432458106e-01	 1.151373652212961e+01
 1.344652119400897e+00	 4.717368734443999e-01	 1.142137293626681e+01
 1.335082434997839e+00	 4.981765668415484e-01	 1.131781851188505e+01
 1.324948329017727e+00	 5.245349611224271e-01	 1.120308338135578e+01
 1.413501467087830e+00	 2.615718878503911e-01	 1.178560474330313e+01
 1.408293255227734e+00	 2.882990760397471e-01	 1.177170232989697e+01
 1.402545582461518e+00	 3.150748150474914e-01	 1.174752557905858e+01
 1.396252703911406e+00	 3.418839522060762e-01	 1.171290034673747e+01
 1.389409400183348e+00	 3.687109554067051e-01	 1.166767297443167e+01
 1.382011002380474e+00	 3.955399338315773e-01	 1.161171149670238e+01
 1.374053416267115e+00	 4.223546604513709e-01	 1.154490679618916e+01
 1.365533145448441e+00	 4.491385962585428e-01	 1.146717369691917e+01
 1.356447313430629e+00	 4.758749161958595e-01	 1.137845198673208e+01
 1.346793684427397e+00	 5.025465367281904e-01	 1.127870735975896e+01
 1.336570682780620e+00	 5.291361449940847e-01	 1.116793227010309e+01
 1.425792784193659e+00	 2.638464260057847e-01	 1.172533161504303e+01
 1.420539283534902e+00	 2.908060245275114e-01	 1.171333853618906e+01
 1.414741631005576e+00	 3.178145960486264e-01	 1.169134047784648e+01
 1.408394031772441e+00	 3.448568561392540e-01	 1.165915104188871e+01
 1.401491221055414e+00	 3.719171376287824e-01	 1.161660346607929e+01
 1.394028489358520e+00	 3.989794115183852e-01	 1.156355185910193e+01
 1.386001706844041e+00	 4.260273096741372e-01	 1.149987238803615e+01
 1.377407346713711e+00	 4.530441492710384e-01	 1.142546440906579e+01
 1.368242507460718e+00	 4.800129589470085e-01	 1.134025153219670e+01
 1.358504933857160e+00	 5.069165066144373e-01	 1.124418261083566e+01
 1.348193036543535e+00	 5.337373288652523e-01	 1.113723264724968e+01
 1.438084101299973e+00	 2.661209641611783e-01	 1.167064963012336e+01
 1.432785311842642e+00	 2.933129730152711e-01	 1.166044894504537e+01
 1.426937679550262e+00	 3.205543770497423e-01	 1.164051029335611e+01
 1.420535359634135e+00	 3.478297600723892e-01	 1.161063518518852e+01
 1.413573041928139e+00	 3.751233198507835e-01	 1.157064392630518e+01
 1.406045976337195e+00	 4.024188892050735e-01	 1.152037688037279e+01
 1.397949997421535e+00	 4.296999588967306e-01	 1.145969568857550e+01
 1.389281547979460e+00	 4.569497022832971e-01	 1.138848443734825e+01
 1.380037701491165e+00	 4.841510016978469e-01	 1.130665076496090e+01
 1.370216183287127e+00	 5.112864765002894e-01	 1.121412689771933e+01
 1.359815390306469e+00	 5.383385127359304e-01	 1.111087060667531e+01
 1.450375418406773e+00	 2.683955023165718e-01	 1.162141684870658e+01
 1.445031340150954e+00	 2.958199215030261e-01	 1.161289459258299e+01
 1.439133728095578e+00	 3.232941580508395e-01	 1.159489909718391e+01
 1.432676687496486e+00	 3.508026640054819e-01	 1.156721993910695e+01
 1.425654862801522e+00	 3.783295020727082e-01	 1.152966465947758e+01
 1.418063463316499e+00	 4.058583668916420e-01	 1.148206005320407e+01
 1.409898287999598e+00	 4.333726081191508e-01	 1.142425342041405e+01
 1.401155749245687e+00	 4.608552552953189e-01	 1.135611377084753e+01
 1.391832895521968e+00	 4.882890444483744e-01	 1.127753297189201e+01
 1.381927432717298e+00	 5.156564463857464e-01	 1.118842683094020e+01
 1.371437744069425e+00	 5.429396966061187e-01	 1.108873610283580e+01
 1.462666735514058e+00	 2.706700404719652e-01	 1.157749610166275e+01
 1.457277368459836e+00	 2.983268699907763e-01	 1.157054118556127e+01
 1.451329776641522e+00	 3.260339390519178e-01	 1.155437552950374e+01
 1.444818015359496e+00	 3.537755679385318e-01	 1.152877693076592e+01
 1.437736683675562e+00	 3.815356842945568e-01	 1.149354032897748e+01
 1.430080950296430e+00	 4.092978445780909e-01	 1.144847912209971e+01
 1.421846578578230e+00	 4.370452573413978e-01	 1.139342644937891e+01
 1.413029950512391e+00	 4.647608083071040e-01	 1.132823643204329e+01
 1.403628089553128e+00	 4.924270871985911e-01	 1.125278536238378e+01
 1.393638682147674e+00	 5.200264162708083e-01	 1.116697283181479e+01
 1.383060097832401e+00	 5.475408804758173e-01	 1.107072278855403e+01
 1.474958052621828e+00	 2.729445786273588e-01	 1.153875479178998e+01
 1.469523396769290e+00	 3.008338184785218e-01	 1.153325890677169e+01
 1.463525825188096e+00	 3.287737200529772e-01	 1.151881260870938e+01
 1.456959343223164e+00	 3.567484718715391e-01	 1.149518206591208e+01
 1.449818504550261e+00	 3.847418665163292e-01	 1.146214977557307e+01
 1.442098437276991e+00	 4.127373222644202e-01	 1.141951590621942e+01
 1.433794869157430e+00	 4.407179065634715e-01	 1.136709961188325e+01
 1.424904151779575e+00	 4.686663613186522e-01	 1.130474030875554e+01
 1.415423283584646e+00	 4.965651299484973e-01	 1.123229890491782e+01
 1.405349931578255e+00	 5.243963861554752e-01	 1.114965897366317e+01
 1.394682451595397e+00	 5.521420643450261e-01	 1.105672786092120e+01
 1.278458913966357e+00	 5.061302256309002e-01	 1.139062577984863e+01
 1.268134914741677e+00	 5.314685672938273e-01	 1.129052664455122e+01
 1.257265245121364e+00	 5.566948027665093e-01	 1.117962951450402e+01
 1.245850388605507e+00	 5.817918951274083e-01	 1.105806876332422e+01
 1.233891518761329e+00	 6.067427131481519e-01	 1.092600758611147e+01
 1.221390509410137e+00	 6.315300654405880e-01	 1.078363800453684e+01
 1.208349942826211e+00	 6.561367355249965e-01	 1.063118073535215e+01
 1.194773115862958e+00	 6.805455176867415e-01	 1.046888491947115e+01
 1.180664043931685e+00	 7.047392534804008e-01	 1.029702770979210e+01
 1.166027462769146e+00	 7.287008687329783e-01	 1.011591371699868e+01
 1.150868827941644e+00	 7.524134108913275e-01	 9.925874313685007e+00
 1.290081267729169e+00	 5.107314095045163e-01	 1.133644626724978e+01
 1.279663413966696e+00	 5.363000997284292e-01	 1.124085689599802e+01
 1.268694929168601e+00	 5.617556646147478e-01	 1.113462148570530e+01
 1.257176301230428e+00	 5.870809123608272e-01	 1.101784753430938e+01
 1.245108714388191e+00	 6.122585559998535e-01	 1.089067069162600e+01
 1.232494059497939e+00	 6.372712478583265e-01	 1.075325486229958e+01
 1.219334942309169e+00	 6.621016149430717e-01	 1.060579217738217e+01
 1.205634689646682e+00	 6.867322951238657e-01	 1.044850283115582e+01
 1.191397353425526e+00	 7.111459739694163e-01	 1.028163478077678e+01
 1.176627712434604e+00	 7.353254220869723e-01	 1.010546330733807e+01
 1.161331271836279e+00	 7.592535328092679e-01	 9.920290438010023e+00
 1.301703621492001e+00	 5.153325933776431e-01	 1.128721603050337e+01
 1.291191913191545e+00	 5.411316321624557e-01	 1.119593520848003e+01
 1.280124613215495e+00	 5.668165264623538e-01	 1.109415899618441e+01
 1.268502213854855e+00	 5.923699295935861e-01	 1.098196837092495e+01
 1.256325910014428e+00	 6.177743988508976e-01	 1.085947180086440e+01
 1.243597609585001e+00	 6.430124302754390e-01	 1.072680544474774e+01
 1.230319941791294e+00	 6.680664943605835e-01	 1.058413322540392e+01
 1.216496263429501e+00	 6.929190725605179e-01	 1.043164677310569e+01
 1.202130662918409e+00	 7.175526944580828e-01	 1.026956523578125e+01
 1.187227962099074e+00	 7.419499754407718e-01	 1.009813495404010e+01
 1.171793715729913e+00	 7.660936547271976e-01	 9.917628999993438e+00
 1.313325975254853e+00	 5.199337772502799e-01	 1.124280391852606e+01
 1.302720412416223e+00	 5.459631645959069e-01	 1.115563577481683e+01
 1.291554297262048e+00	 5.718773883093278e-01	 1.105812161720585e+01
 1.279828126478787e+00	 5.976589468256857e-01	 1.095031624798999e+01
 1.267543105640037e+00	 6.232902417012837e-01	 1.083230130764985e+01
 1.254701159671323e+00	 6.487536126919254e-01	 1.070418557029873e+01
 1.241304941272585e+00	 6.740313737775310e-01	 1.056610511799099e+01
 1.227357837211414e+00	 6.991058499966986e-01	 1.041822338944756e+01
 1.212863972410334e+00	 7.239594149464007e-01	 1.026073109961425e+01
 1.197828211762553e+00	 7.485745287943757e-01	 1.009384602738664e+01
 1.182256159622547e+00	 7.729337766451166e-01	 9.917812669810687e+00
 1.324948329017727e+00	 5.245349611224271e-01	 1.120308338135578e+01
 1.314248911640731e+00	 5.507946970287825e-01	 1.111983720142690e+01
 1.302983981308260e+00	 5.769382501556699e-01	 1.102639314490060e+01
 1.291154039102225e+00	 6.029479640571251e-01	 1.092278017557891e+01
 1.278760301265018e+00	 6.288060845510121e-01	 1.080905345090978e+01
 1.265804709756905e+00	 6.544947951077862e-01	 1.068529471212937e+01
 1.252289940753044e+00	 6.799962531939144e-01	 1.055161255828948e+01
 1.238219410992422e+00	 7.052926274324078e-01	 1.040814259920858e+01
 1.223597281901301e+00	 7.303661354343699e-01	 1.025504748318748e+01
 1.208428461425044e+00	 7.551990821477844e-01	 1.009251679620296e+01
 1.192718603514182e+00	 7.797738985630251e-01	 9.920766830222545e+00
 1.336570682780620e+00	 5.291361449940847e-01	 1.116793227010309e+01
 1.325777410865070e+00	 5.556262294610830e-01	 1.108842231643190e+01
 1.314413665354130e+00	 5.819991120013793e-01	 1.099886141657628e+01
 1.302479951725169e+00	 6.082369812879048e-01	 1.089925302357551e+01
 1.289977496889373e+00	 6.343219274000825e-01	 1.078962614749759e+01
 1.276908259841745e+00	 6.602359775230207e-01	 1.067003583927327e+01
 1.263274940232669e+00	 6.859611326097342e-01	 1.054056356338445e+01
 1.249080984772522e+00	 7.114794048676448e-01	 1.040131745392917e+01
 1.234330591391309e+00	 7.367728559219902e-01	 1.025243244933731e+01
 1.219028711086545e+00	 7.618236355009983e-01	 1.009407030183414e+01
 1.203181047404816e+00	 7.866140204809229e-01	 9.926419458636619e+00
 1.348193036543535e+00	 5.337373288652523e-01	 1.113723264724968e+01
 1.337305910089237e+00	 5.604577618928078e-01	 1.106127798768674e+01
 1.325843349399657e+00	 5.870599738464568e-01	 1.097541813652849e+01
 1.313805864347619e+00	 6.135259985180249e-01	 1.087963135530194e+01
 1.301194692513100e+00	 6.398377702484953e-01	 1.077392083366112e+01
 1.288011809925847e+00	 6.659771599376293e-01	 1.065831526593742e+01
 1.274259939711461e+00	 6.919260120249896e-01	 1.053286932145767e+01
 1.259942558551717e+00	 7.176661823024106e-01	 1.039766400264102e+01
 1.245063900880360e+00	 7.431795764092617e-01	 1.025280688558667e+01
 1.229628960747055e+00	 7.684481888540168e-01	 1.009843223863990e+01
 1.213643491294451e+00	 7.934541423988104e-01	 9.934701015269152e+00
 1.359815390306469e+00	 5.383385127359304e-01	 1.111087060667531e+01
 1.348834409313236e+00	 5.652892943239575e-01	 1.103829495014145e+01
 1.337273033444844e+00	 5.921208356909020e-01	 1.095595871078493e+01
 1.325131776969575e+00	 6.188150157474851e-01	 1.086381526967948e+01
 1.312411888136201e+00	 6.453536130962503e-01	 1.076184231464138e+01
 1.299115360009208e+00	 6.717183423516120e-01	 1.065004250854603e+01
 1.285244939189419e+00	 6.978908914396811e-01	 1.052844405627072e+01
 1.270804132330007e+00	 7.238529597367049e-01	 1.039710116376908e+01
 1.255797210368453e+00	 7.495862968961844e-01	 1.025609438343184e+01
 1.240229210406577e+00	 7.750727422068403e-01	 1.010553084061788e+01
 1.224105935183085e+00	 8.002942643166867e-01	 9.945544337042078e+00
 1.371437744069425e+00	 5.429396966061187e-01	 1.108873610283580e+01
 1.360362908537064e+00	 5.701208267545316e-01	 1.101936764198112e+01
 1.348702717489688e+00	 5.971816975347151e-01	 1.094038209025236e+01
 1.336457689591036e+00	 6.241040329762855e-01	 1.085170825141495e+01
 1.323629083758674e+00	 6.508694559433473e-01	 1.075329862191852e+01
 1.310218910091828e+00	 6.774595247649685e-01	 1.064513015005334e+01
 1.296229938666545e+00	 7.038557708538085e-01	 1.052720489853871e+01
 1.281665706107390e+00	 7.300397371705269e-01	 1.039955060354714e+01
 1.266530519855588e+00	 7.559930173827586e-01	 1.026222112376741e+01
 1.250829460065109e+00	 7.816972955594688e-01	 1.011529677379196e+01
 1.234568379070720e+00	 8.071343862345530e-01	 9.958884536875129e+00
 1.383060097832401e+00	 5.475408804758173e-01	 1.107072278855403e+01
 1.371891407760723e+00	 5.749523591845306e-01	 1.100439404902791e+01
 1.360132401534192e+00	 6.022425593778959e-01	 1.092859062177206e+01
 1.347783602212004e+00	 6.293930502044260e-01	 1.084321702874085e+01
 1.334846279380521e+00	 6.563852987897866e-01	 1.074820087765556e+01
 1.321322460173709e+00	 6.832007071776993e-01	 1.064349371109788e+01
 1.307214938142837e+00	 7.098206502673718e-01	 1.052907176378936e+01
 1.292527279883867e+00	 7.362265146038777e-01	 1.040493662056369e+01
 1.277263829341764e+00	 7.623997378689840e-01	 1.027111576808803e+01
 1.261429709722652e+00	 7.883218489119022e-01	 1.012766303402617e+01
 1.245030822957354e+00	 8.139745081524086e-01	 9.974658908055755e+00
 1.394682451595397e+00	 5.521420643450261e-01	 1.105672786092120e+01
 1.383419906984210e+00	 5.797838916139538e-01	 1.099327555692273e+01
 1.371562085578352e+00	 6.073034212204445e-01	 1.092048990662259e+01
 1.359109514832477e+00	 6.346820674319068e-01	 1.083825143826847e+01
 1.346063475001740e+00	 6.619011416355681e-01	 1.074646316591999e+01
 1.332426010254849e+00	 6.889418895898038e-01	 1.064505152759893e+01
 1.318199937618296e+00	 7.157855296803712e-01	 1.053396723632918e+01
 1.303388853659439e+00	 7.424132920367565e-01	 1.041318603608043e+01
 1.287997138826982e+00	 7.688064583548604e-01	 1.028270935513001e+01
 1.272029959379205e+00	 7.949464022641402e-01	 1.014256484994809e+01
 1.255493266842989e+00	 8.208146300702533e-01	 9.992806833390395e+00
 1.150868827941644e+00	 7.524134108913275e-01	 9.925874313685007e+00
 1.135194312046280e+00	 7.758600865535584e-01	 9.735722318862136e+00
 1.119010799580969e+00	 7.990242990192602e-01	 9.538632652657054e+00
 1.102325879470541e+00	 8.218896856909992e-01	 9.335005188659009e+00
 1.085147835250138e+00	 8.444401551573477e-01	 9.125259593763580e+00
 1.067485632918797e+00	 8.666599237864125e-01	 8.909833973461726e+00
 1.049348906492078e+00	 8.885335516599897e-01	 8.689183414328378e+00
 1.030747941296336e+00	 9.100459776802332e-01	 8.463778431872615e+00
 1.011693655061181e+00	 9.311825536839639e-01	 8.234103332763851e+00
 9.921975768804164e-01	 9.519290774042841e-01	 8.000654501218989e+00
 9.722718241249999e-01	 9.722718241249999e-01	 7.763938620017096e+00
 1.161331271836279e+00	 7.592535328092679e-01	 9.920290438010023e+00
 1.145514260342112e+00	 7.829133600673248e-01	 9.734907523276254e+00
 1.129183625036312e+00	 8.062881562818414e-01	 9.542550603975014e+00
 1.112347023833931e+00	 8.293614101044999e-01	 9.343589360503234e+00
 1.095012815574977e+00	 8.521168838383165e-01	 9.138413334330808e+00
 1.077190047767566e+00	 8.745386503638365e-01	 8.927430697236016e+00
 1.058888442009220e+00	 8.966111293999636e-01	 8.711066917974874e+00
 1.040118377129261e+00	 9.183191229297812e-01	 8.489763333723230e+00
 1.020890870109385e+00	 9.396478496249905e-01	 8.263975634477344e+00
 1.001217554853339e+00	 9.605829781071776e-01	 8.034172269373750e+00
 9.811106588900002e-01	 9.811106588899999e-01	 7.800832784583074e+00
 1.171793715729913e+00	 7.660936547271976e-01	 9.917628999993438e+00
 1.155834208636955e+00	 7.899666335812606e-01	 9.736805935861005e+00
 1.139356450490695e+00	 8.135520135447331e-01	 9.548973240213694e+00
 1.122368168196411e+00	 8.368331345184133e-01	 9.354470802204693e+00
 1.104877795898975e+00	 8.597936125197603e-01	 9.153658440180699e+00
 1.086894462615585e+00	 8.824173769417563e-01	 8.946914793433265e+00
 1.068427977525723e+00	 9.046887071404149e-01	 8.734636111609023e+00
 1.049488812961676e+00	 9.265922681797479e-01	 8.517234948303098e+00
 1.030088085157229e+00	 9.481131455663370e-01	 8.295138766202037e+00
 1.010237532826072e+00	 9.692368788102509e-01	 8.068788461922047e+00
 9.899494936549997e-01	 9.899494936549997e-01	 7.838636819394068e+00
 1.182256159622547e+00	 7.729337766451166e-01	 9.917812669810687e+00
 1.166154156930807e+00	 7.970199070953664e-01	 9.741345781622831e+00
 1.149529275944117e+00	 8.208158708079358e-01	 9.557834322237344e+00
 1.132389312557980e+00	 8.443048589327393e-01	 9.367588780833787e+00
 1.114742776222132e+00	 8.674703412016775e-01	 9.170939644250389e+00
 1.096598877462853e+00	 8.902961035201722e-01	 8.968236409858784e+00
 1.077967513041584e+00	 9.127662848813437e-01	 8.759846496313624e+00
 1.058859248793580e+00	 9.348654134301332e-01	 8.546154057894865e+00
 1.039285300204712e+00	 9.565784415080028e-01	 8.327558708999311e+00
 1.019257510798614e+00	 9.778907795135040e-01	 8.104474166120177e+00
 9.987883284199998e-01	 9.987883284199998e-01	 7.877326815372649e+00
 1.192718603514182e+00	 7.797738985630251e-01	 9.920766830222545e+00
 1.176474105223669e+00	 8.040731806096418e-01	 9.748457803252485e+00
 1.159702101396579e+00	 8.280797280714499e-01	 9.569069934361336e+00
 1.142410456918639e+00	 8.517765833474782e-01	 9.382884693721392e+00
 1.124607756544448e+00	 8.751470698840697e-01	 9.190203617964210e+00
 1.106303292309371e+00	 8.981748300990842e-01	 8.991347442823232e+00
 1.087507048556805e+00	 9.208438626227500e-01	 8.786655133857813e+00
 1.068229684624973e+00	 9.431385586809372e-01	 8.576482820179418e+00
 1.048482515251834e+00	 9.650437374499877e-01	 8.361202636934157e+00
 1.028277488770966e+00	 9.865446802169371e-01	 8.141201483083586e+00
 1.007627163185000e+00	 1.007627163185000e+00	 7.916879701754928e+00
 1.203181047404816e+00	 7.866140204809229e-01	 9.926419458636619e+00
 1.186794053515542e+00	 8.111264541240873e-01	 9.758075151660460e+00
 1.169874926848081e+00	 8.353435853352749e-01	 9.582618383332591e+00
 1.152431601278387e+00	 8.592483077626292e-01	 9.400301975838810e+00
 1.134472736865924e+00	 8.828237985669359e-01	 9.211398886951677e+00
 1.116007707155137e+00	 9.060535566784921e-01	 9.016201461120566e+00
 1.097046584071386e+00	 9.289214403646335e-01	 8.815020578841191e+00
 1.077600120455857e+00	 9.514117039321597e-01	 8.608184708435846e+00
 1.057679730298597e+00	 9.735090333922922e-01	 8.396038865205512e+00
 1.037297466743129e+00	 9.951985809205499e-01	 8.178943483705993e+00
 1.016465997950000e+00	 1.016465997950000e+00	 7.957273209642208e+00
 1.213643491294451e+00	 7.934541423988104e-01	 9.934701015269152e+00
 1.197114001806424e+00	 8.181797276387025e-01	 9.770133282174459e+00
 1.180047752298623e+00	 8.426074425994110e-01	 9.598420102535059e+00
 1.162452745637224e+00	 8.667200321781930e-01	 9.419786011968441e+00
 1.144337717186559e+00	 8.905005272502764e-01	 9.234475751124805e+00
 1.125712122000154e+00	 9.139322832583960e-01	 9.042753633938345e+00
 1.106586119585325e+00	 9.369990181069947e-01	 8.844902814347606e+00
 1.086970556286230e+00	 9.596848491838008e-01	 8.641224454834685e+00
 1.066876945345000e+00	 9.819743293349166e-01	 8.432036800959334e+00
 1.046317444715101e+00	 1.003852481624343e+00	 8.217674166858657e+00
 1.025304832715000e+00	 1.025304832715000e+00	 7.998485837437753e+00
 1.224105935183085e+00	 8.002942643166867e-01	 9.945544337042078e+00
 1.207433950096316e+00	 8.252330011534879e-01	 9.784569856060020e+00
 1.190220577748204e+00	 8.498712998638577e-01	 9.616417561107816e+00
 1.172473889995152e+00	 8.741917565941695e-01	 9.441284053378554e+00
 1.154202697506354e+00	 8.981772559340911e-01	 9.259386208854099e+00
 1.135416536844419e+00	 9.218110098387959e-01	 9.070960662464731e+00
 1.116125655098625e+00	 9.450765958498334e-01	 8.876263190898820e+00
 1.096340992116092e+00	 9.679579944358603e-01	 8.675567996639142e+00
 1.076074160391042e+00	 9.904396252778599e-01	 8.469166896624291e+00
 1.055337422686883e+00	 1.012506382328315e+00	 8.257368419733199e+00
 1.034143667480000e+00	 1.034143667480000e+00	 8.040496818056177e+00
 1.234568379070720e+00	 8.071343862345530e-01	 9.958884536875129e+00
 1.217753898385218e+00	 8.322862746684426e-01	 9.801324647048553e+00
 1.200393403196825e+00	 8.571351571286158e-01	 9.636555177684279e+00
 1.182495034352168e+00	 8.816634810105580e-01	 9.464745138734834e+00
 1.164067677825308e+00	 9.058539846183804e-01	 9.286083884999927e+00
 1.145120951687934e+00	 9.296897364196918e-01	 9.100780714973277e+00
 1.125665190611283e+00	 9.531541735931494e-01	 8.909064368512340e+00
 1.105711427945443e+00	 9.762311396883390e-01	 8.711182425141807e+00
 1.085271375436723e+00	 9.989049212211228e-01	 8.507400605620081e+00
 1.064357400658475e+00	 1.021160283032468e+00	 8.298001980200862e+00
 1.042982502245000e+00	 1.042982502245000e+00	 8.083286087800014e+00
 1.245030822957354e+00	 8.139745081524086e-01	 9.974658908055755e+00
 1.228073846673131e+00	 8.393395481835675e-01	 9.820339452578281e+00
 1.210566228644485e+00	 8.643990143936846e-01	 9.658779238480660e+00
 1.192516178708275e+00	 8.891352054273600e-01	 9.490120018999729e+00
 1.173932658143422e+00	 9.135307133031441e-01	 9.314523962572673e+00
 1.154825366530698e+00	 9.375684630010837e-01	 9.132173365180687e+00
 1.135204726123301e+00	 9.612317513369427e-01	 8.943270261680414e+00
 1.115081863774285e+00	 9.845042849412358e-01	 8.748035937176013e+00
 1.094468590482045e+00	 1.007370217164705e+00	 8.546710340298956e+00
 1.073377378629877e+00	 1.029814183736800e+00	 8.339551401069752e+00
 1.051821337010000e+00	 1.051821337010000e+00	 8.126834256805671e+00
 1.255493266842989e+00	 8.208146300702533e-01	 9.992806833390395e+00
 1.238393794960052e+00	 8.463928216988620e-01	 9.841558009473125e+00
 1.220739054091186e+00	 8.716628716590645e-01	 9.683037819480013e+00
 1.202537323063470e+00	 8.966069298445739e-01	 9.517361086086703e+00
 1.183797638460694e+00	 9.212074419883817e-01	 9.344663117809795e+00
 1.164529781372711e+00	 9.454471895829715e-01	 9.165099533686648e+00
 1.144744261634678e+00	 9.693093290812137e-01	 8.978845987100376e+00
 1.124452299602615e+00	 9.927774301945512e-01	 8.786097789051702e+00
 1.103665805527006e+00	 1.015835513108607e+00	 8.587069431990280e+00
 1.082397356601088e+00	 1.038468084441313e+00	 8.381994016129058e+00
 1.060660171775000e+00	 1.060660171775000e+00	 8.171122580966930e+00
 9.722718241249999e-01	 9.722718241249999e-01	 7.763938620017096e+00
 9.519290774042841e-01	 9.921975768804165e-01	 7.500916167509333e+00
 9.311825536839636e-01	 1.011693655061181e+00	 7.237711225966396e+00
 9.100459776802337e-01	 1.030747941296336e+00	 6.974878408796362e+00
 8.885335516599900e-01	 1.049348906492078e+00	 6.712970407512582e+00
 8.666599237864129e-01	 1.067485632918797e+00	 6.452535996118655e+00
 8.444401551573482e-01	 1.085147835250138e+00	 6.194118063097108e+00
 8.218896856909996e-01	 1.102325879470541e+00	 5.938251683253388e+00
 7.990242990192610e-01	 1.119010799580969e+00	 5.685462241256622e+00
 7.758600865535591e-01	 1.135194312046279e+00	 5.436263618193649e+00
 7.524134108913274e-01	 1.150868827941644e+00	 5.191156451825277e+00
 9.811106588900002e-01	 9.811106588899999e-01	 7.800832784583074e+00
 9.605829781071776e-01	 1.001217554853339e+00	 7.541123962507816e+00
 9.396478496249905e-01	 1.020890870109385e+00	 7.281079509553992e+00
 9.183191229297815e-01	 1.040118377129261e+00	 7.021233026844524e+00
 8.966111293999636e-01	 1.058888442009220e+00	 6.762116735179582e+00
 8.745386503638366e-01	 1.077190047767566e+00	 6.504259561293884e+00
 8.521168838383170e-01	 1.095012815574976e+00	 6.248185248225799e+00
 8.293614101045006e-01	 1.112347023833931e+00	 5.994410501552151e+00
 8.062881562818418e-01	 1.129183625036312e+00	 5.743443182867356e+00
 7.829133600673254e-01	 1.145514260342112e+00	 5.495780561402804e+00
 7.592535328092677e-01	 1.161331271836278e+00	 5.251907634097629e+00
 9.899494936549997e-01	 9.899494936549997e-01	 7.838636819394068e+00
 9.692368788102508e-01	 1.010237532826071e+00	 7.582083360896736e+00
 9.481131455663370e-01	 1.030088085157229e+00	 7.325042728423677e+00
 9.265922681797482e-01	 1.049488812961676e+00	 7.068027811011491e+00
 9.046887071404153e-01	 1.068427977525723e+00	 6.811550653463986e+00
 8.824173769417565e-01	 1.086894462615585e+00	 6.556120623449781e+00
 8.597936125197605e-01	 1.104877795898974e+00	 6.302242599255873e+00
 8.368331345184140e-01	 1.122368168196410e+00	 6.050415189459000e+00
 8.135520135447336e-01	 1.139356450490694e+00	 5.801128995436461e+00
 7.899666335812616e-01	 1.155834208636955e+00	 5.554864927196824e+00
 7.660936547271977e-01	 1.171793715729913e+00	 5.312092582468898e+00
 9.987883284199998e-01	 9.987883284199998e-01	 7.877326815372649e+00
 9.778907795135039e-01	 1.019257510798614e+00	 7.623774652895323e+00
 9.565784415080025e-01	 1.039285300204712e+00	 7.369585329359174e+00
 9.348654134301334e-01	 1.058859248793580e+00	 7.115251313938797e+00
 9.127662848813437e-01	 1.077967513041584e+00	 6.861264762330316e+00
 8.902961035201726e-01	 1.096598877462853e+00	 6.608115763684399e+00
 8.674703412016779e-01	 1.114742776222131e+00	 6.356290604775024e+00
 8.443048589327401e-01	 1.132389312557980e+00	 6.106270062178046e+00
 8.208158708079366e-01	 1.149529275944116e+00	 5.858527732931657e+00
 7.970199070953669e-01	 1.166154156930806e+00	 5.613528413746758e+00
 7.729337766451166e-01	 1.182256159622547e+00	 5.371726538339351e+00
 1.007627163185000e+00	 1.007627163185000e+00	 7.916879701754928e+00
 9.865446802169368e-01	 1.028277488770966e+00	 7.666178819715631e+00
 9.650437374499879e-01	 1.048482515251834e+00	 7.414692304316636e+00
 9.431385586809371e-01	 1.068229684624974e+00	 7.162892489400416e+00
 9.208438626227501e-01	 1.087507048556805e+00	 6.911251920890230e+00
 8.981748300990846e-01	 1.106303292309370e+00	 6.660241682580920e+00
 8.751470698840700e-01	 1.124607756544448e+00	 6.410329735778405e+00
 8.517765833474784e-01	 1.142410456918638e+00	 6.161979283081410e+00
 8.280797280714506e-01	 1.159702101396579e+00	 5.915647166331942e+00
 8.040731806096427e-01	 1.176474105223669e+00	 5.671782308396567e+00
 7.797738985630250e-01	 1.192718603514182e+00	 5.430824207986553e+00
 1.016465997950000e+00	 1.016465997950000e+00	 7.957273209642208e+00
 9.951985809205498e-01	 1.037297466743129e+00	 7.709277503519299e+00
 9.735090333922922e-01	 1.057679730298597e+00	 7.460349166721672e+00
 9.514117039321597e-01	 1.077600120455857e+00	 7.210940674862232e+00
 9.289214403646335e-01	 1.097046584071385e+00	 6.961505236135291e+00
 9.060535566784923e-01	 1.116007707155137e+00	 6.712495195012508e+00
 8.828237985669360e-01	 1.134472736865924e+00	 6.464360446433538e+00
 8.592483077626301e-01	 1.152431601278386e+00	 6.217546870310561e+00
 8.353435853352754e-01	 1.169874926848081e+00	 5.972494795931734e+00
 8.111264541240881e-01	 1.186794053515541e+00	 5.729637505524982e+00
 7.866140204809230e-01	 1.203181047404816e+00	 5.489399785831477e+00
 1.025304832715000e+00	 1.025304832715000e+00	 7.998485837437753e+00
 1.003852481624343e+00	 1.046317444715101e+00	 7.753052978928396e+00
 9.819743293349165e-01	 1.066876945345000e+00	 7.506541928992046e+00
 9.596848491838006e-01	 1.086970556286229e+00	 7.259385574943597e+00
 9.369990181069949e-01	 1.106586119585325e+00	 7.012018052252476e+00
 9.139322832583963e-01	 1.125712122000153e+00	 6.764873225215933e+00
 8.905005272502765e-01	 1.144337717186559e+00	 6.518383174805569e+00
 8.667200321781937e-01	 1.162452745637224e+00	 6.272976703036310e+00
 8.426074425994116e-01	 1.180047752298622e+00	 6.029077863007979e+00
 8.181797276387035e-01	 1.197114001806424e+00	 5.787104523483867e+00
 7.934541423988104e-01	 1.213643491294451e+00	 5.547466976501297e+00
 1.034143667480000e+00	 1.034143667480000e+00	 8.040496818056177e+00
 1.012506382328315e+00	 1.055337422686883e+00	 7.797488125997137e+00
 9.904396252778600e-01	 1.076074160391042e+00	 7.553257081213358e+00
 9.679579944358603e-01	 1.096340992116092e+00	 7.308217245727030e+00
 9.450765958498334e-01	 1.116125655098624e+00	 7.062783940487550e+00
 9.218110098387960e-01	 1.135416536844419e+00	 6.817372802118085e+00
 8.981772559340918e-01	 1.154202697506354e+00	 6.572398343545469e+00
 8.741917565941700e-01	 1.172473889995151e+00	 6.328272527397676e+00
 8.498712998638585e-01	 1.190220577748203e+00	 6.085403360889488e+00
 8.252330011534884e-01	 1.207433950096316e+00	 5.844193520667590e+00
 8.002942643166867e-01	 1.224105935183085e+00	 5.605039015760777e+00
 1.042982502245000e+00	 1.042982502245000e+00	 8.083286087800014e+00
 1.021160283032468e+00	 1.064357400658475e+00	 7.842566404558037e+00
 9.989049212211227e-01	 1.085271375436723e+00	 7.600481570898796e+00
 9.762311396883389e-01	 1.105711427945443e+00	 7.357426079865682e+00
 9.531541735931496e-01	 1.125665190611283e+00	 7.113796689523978e+00
 9.296897364196920e-01	 1.145120951687934e+00	 6.869991054899867e+00
 9.058539846183808e-01	 1.164067677825307e+00	 6.626406360543120e+00
 8.816634810105588e-01	 1.182495034352168e+00	 6.383437962138915e+00
 8.571351571286164e-01	 1.200393403196824e+00	 6.141478045463170e+00
 8.322862746684434e-01	 1.217753898385218e+00	 5.900914310765571e+00
 8.071343862345530e-01	 1.234568379070720e+00	 5.662128690379329e+00
 1.051821337010000e+00	 1.051821337010000e+00	 8.126834256805671e+00
 1.029814183736800e+00	 1.073377378629877e+00	 7.888271829861417e+00
 1.007370217164705e+00	 1.094468590482045e+00	 7.648202783769540e+00
 9.845042849412359e-01	 1.115081863774285e+00	 7.407002792441734e+00
 9.612317513369429e-01	 1.135204726123301e+00	 7.165050296346958e+00
 9.375684630010840e-01	 1.154825366530698e+00	 6.922725208783834e+00
 9.135307133031443e-01	 1.173932658143421e+00	 6.680407619547592e+00
 8.891352054273607e-01	 1.192516178708274e+00	 6.438476503962119e+00
 8.643990143936855e-01	 1.210566228644485e+00	 6.197308445150492e+00
 8.393395481835683e-01	 1.228073846673130e+00	 5.957276377245519e+00
 8.139745081524083e-01	 1.245030822957354e+00	 5.718748356996318e+00
 1.060660171775000e+00	 1.060660171775000e+00	 8.171122580966930e+00
 1.038468084441312e+00	 1.082397356601088e+00	 7.934588949433054e+00
 1.015835513108607e+00	 1.103665805527006e+00	 7.696408525496024e+00
 9.927774301945514e-01	 1.124452299602615e+00	 7.456938407531878e+00
 9.693093290812139e-01	 1.144744261634678e+00	 7.216538957564067e+00
 9.454471895829717e-01	 1.164529781372711e+00	 6.975572581032434e+00
 9.212074419883821e-01	 1.183797638460694e+00	 6.734402500756291e+00
 8.966069298445744e-01	 1.202537323063470e+00	 6.493391532612369e+00
 8.716628716590653e-01	 1.220739054091185e+00	 6.252900870385339e+00
 8.463928216988629e-01	 1.238393794960052e+00	 6.013288887112916e+00
 8.208146300702533e-01	 1.255493266842989e+00	 5.774909960043186e+00
 7.524134108913274e-01	 1.150868827941644e+00	 5.191156451825277e+00
 7.287008687329781e-01	 1.166027462769146e+00	 4.910069109154819e+00
 7.047392534804007e-01	 1.180664043931685e+00	 4.636709901312848e+00
 6.805455176867415e-01	 1.194773115862958e+00	 4.371563482935217e+00
 6.561367355249966e-01	 1.208349942826211e+00	 4.115088771795797e+00
 6.315300654405884e-01	 1.221390509410137e+00	 3.867717718845100e+00
 6.067427131481523e-01	 1.233891518761329e+00	 3.629854227058665e+00
 5.817918951274087e-01	 1.245850388605507e+00	 3.401873222453407e+00
 5.566948027665101e-01	 1.257265245121364e+00	 3.184119879369452e+00
 5.314685672938282e-01	 1.268134914741677e+00	 2.976909000870755e+00
 5.061302256309000e-01	 1.278458913966357e+00	 2.780524553903969e+00
 7.592535328092677e-01	 1.161331271836278e+00	 5.251907634097629e+00
 7.353254220869722e-01	 1.176627712434605e+00	 4.972102705833624e+00
 7.111459739694163e-01	 1.191397353425526e+00	 4.699899817097637e+00
 6.867322951238658e-01	 1.205634689646682e+00	 4.435775847976720e+00
 6.621016149430722e-01	 1.219334942309169e+00	 4.180182216677265e+00
 6.372712478583268e-01	 1.232494059497939e+00	 3.933543677862607e+00
 6.122585559998541e-01	 1.245108714388192e+00	 3.696257267988807e+00
 5.870809123608277e-01	 1.257176301230428e+00	 3.468691400856228e+00
 5.617556646147485e-01	 1.268694929168600e+00	 3.251185115351827e+00
 5.363000997284300e-01	 1.279663413966696e+00	 3.044047476132557e+00
 5.107314095045163e-01	 1.290081267729169e+00	 2.847557126806805e+00
 7.660936547271977e-01	 1.171793715729913e+00	 5.312092582468898e+00
 7.419499754407716e-01	 1.187227962099074e+00	 5.033488591363788e+00
 7.175526944580827e-01	 1.202130662918409e+00	 4.762361059499858e+00
 6.929190725605181e-01	 1.216496263429501e+00	 4.499179240435847e+00
 6.680664943605837e-01	 1.230319941791294e+00	 4.244387197432404e+00
 6.430124302754393e-01	 1.243597609585001e+00	 3.998402629638343e+00
 6.177743988508980e-01	 1.256325910014428e+00	 3.761615843489408e+00
 5.923699295935869e-01	 1.268502213854855e+00	 3.534388872398936e+00
 5.668165264623545e-01	 1.280124613215495e+00	 3.317054746594824e+00
 5.411316321624565e-01	 1.291191913191544e+00	 3.109916913751574e+00
 5.153325933776431e-01	 1.301703621492001e+00	 2.913248809892684e+00
 7.729337766451166e-01	 1.182256159622547e+00	 5.371726538339351e+00
 7.485745287943755e-01	 1.197828211762553e+00	 5.094244164781244e+00
 7.239594149464007e-01	 1.212863972410334e+00	 4.824113171217393e+00
 6.991058499966988e-01	 1.227357837211414e+00	 4.561795328771568e+00
 6.740313737775313e-01	 1.241304941272586e+00	 4.307727486545261e+00
 6.487536126919259e-01	 1.254701159671323e+00	 4.062320425212899e+00
 6.232902417012843e-01	 1.267543105640036e+00	 3.825957854070976e+00
 5.976589468256861e-01	 1.279828126478787e+00	 3.598995554482120e+00
 5.718773883093287e-01	 1.291554297262048e+00	 3.381760671450598e+00
 5.459631645959077e-01	 1.302720412416223e+00	 3.174551153877667e+00
 5.199337772502799e-01	 1.313325975254853e+00	 2.977635342891573e+00
 7.797738985630250e-01	 1.192718603514182e+00	 5.430824207986553e+00
 7.551990821477842e-01	 1.208428461425044e+00	 5.154386214320745e+00
 7.303661354343698e-01	 1.223597281901301e+00	 4.885175008958242e+00
 7.052926274324078e-01	 1.238219410992421e+00	 4.623645020892461e+00
 6.799962531939148e-01	 1.252289940753043e+00	 4.370226022150829e+00
 6.544947951077865e-01	 1.265804709756905e+00	 4.125322008372206e+00
 6.288060845510125e-01	 1.278760301265018e+00	 3.889310221103436e+00
 6.029479640571257e-01	 1.291154039102225e+00	 3.662540314621974e+00
 5.769382501556705e-01	 1.302983981308259e+00	 3.445333668903062e+00
 5.507946970287833e-01	 1.314248911640731e+00	 3.237982849181486e+00
 5.245349611224271e-01	 1.324948329017727e+00	 3.040751211423232e+00
 7.866140204809230e-01	 1.203181047404816e+00	 5.489399785831477e+00
 7.618236355009980e-01	 1.219028711086544e+00	 5.213930943972503e+00
 7.367728559219902e-01	 1.234330591391309e+00	 4.945564773266575e+00
 7.114794048676450e-01	 1.249080984772522e+00	 4.684748497224106e+00
 6.859611326097343e-01	 1.263274940232669e+00	 4.431904944311215e+00
 6.602359775230212e-01	 1.276908259841746e+00	 4.187431455093266e+00
 6.343219274000830e-01	 1.289977496889372e+00	 3.951698929387327e+00
 6.082369812879054e-01	 1.302479951725169e+00	 3.725051016097579e+00
 5.819991120013801e-01	 1.314413665354129e+00	 3.507803447236352e+00
 5.556262294610839e-01	 1.325777410865069e+00	 3.300243516483981e+00
 5.291361449940846e-01	 1.336570682780620e+00	 3.102629701523692e+00
 7.934541423988104e-01	 1.213643491294451e+00	 5.547466976501297e+00
 7.684481888540168e-01	 1.229628960747055e+00	 5.272893998664896e+00
 7.431795764092617e-01	 1.245063900880360e+00	 5.005300036805522e+00
 7.176661823024110e-01	 1.259942558551717e+00	 4.745125242066212e+00
 6.919260120249895e-01	 1.274259939711460e+00	 4.492785629415229e+00
 6.659771599376296e-01	 1.288011809925846e+00	 4.248672010949827e+00
 6.398377702484958e-01	 1.301194692513100e+00	 4.013149067523290e+00
 6.135259985180255e-01	 1.313805864347619e+00	 3.786554561236718e+00
 5.870599738464576e-01	 1.325843349399657e+00	 3.569198690185400e+00
 5.604577618928086e-01	 1.337305910089237e+00	 3.361363585715508e+00
 5.337373288652524e-01	 1.348193036543535e+00	 3.163302951351517e+00
 8.002942643166867e-01	 1.224105935183085e+00	 5.605039015760777e+00
 7.750727422068404e-01	 1.240229210406577e+00	 5.331290488156302e+00
 7.495862968961846e-01	 1.255797210368453e+00	 5.064397771189554e+00
 7.238529597367048e-01	 1.270804132330007e+00	 4.804794073341460e+00
 6.978908914396812e-01	 1.285244939189419e+00	 4.552888722813963e+00
 6.717183423516123e-01	 1.299115360009208e+00	 4.309066126599657e+00
 6.453536130962506e-01	 1.312411888136201e+00	 4.073684866211108e+00
 6.188150157474855e-01	 1.325131776969574e+00	 3.847076932482507e+00
 5.921208356909027e-01	 1.337273033444843e+00	 3.629547100720197e+00
 5.652892943239584e-01	 1.348834409313236e+00	 3.421372446364017e+00
 5.383385127359304e-01	 1.359815390306469e+00	 3.222802000242380e+00
 8.071343862345530e-01	 1.234568379070720e+00	 5.662128690379329e+00
 7.816972955594687e-01	 1.250829460065110e+00	 5.389135009711521e+00
 7.559930173827586e-01	 1.266530519855587e+00	 5.122874372452917e+00
 7.300397371705273e-01	 1.281665706107390e+00	 4.863773170831895e+00
 7.038557708538088e-01	 1.296229938666545e+00	 4.612234169797047e+00
 6.774595247649688e-01	 1.310218910091828e+00	 4.368635491467336e+00
 6.508694559433478e-01	 1.323629083758674e+00	 4.133329734601478e+00
 6.241040329762860e-01	 1.336457689591036e+00	 3.906643231371234e+00
 5.971816975347158e-01	 1.348702717489688e+00	 3.688875442603727e+00
 5.701208267545327e-01	 1.360362908537064e+00	 3.480298491561759e+00
 5.429396966061187e-01	 1.371437744069425e+00	 3.281156835269328e+00
 8.139745081524083e-01	 1.245030822957354e+00	 5.718748356996318e+00
 7.883218489119019e-01	 1.261429709722652e+00	 5.446441669635373e+00
 7.623997378689837e-01	 1.277263829341764e+00	 5.180745685233443e+00
 7.362265146038778e-01	 1.292527279883868e+00	 4.922080102991561e+00
 7.098206502673721e-01	 1.307214938142837e+00	 4.670841245007008e+00
 6.832007071776995e-01	 1.321322460173709e+00	 4.427401065729024e+00
 6.563852987897871e-01	 1.334846279380521e+00	 4.192106294814979e+00
 6.293930502044267e-01	 1.347783602212004e+00	 3.965277715545521e+00
 6.022425593778966e-01	 1.360132401534191e+00	 3.747209579854322e+00
 5.749523591845315e-01	 1.371891407760722e+00	 3.538169159948893e+00
 5.475408804758173e-01	 1.383060097832401e+00	 3.338396435455567e+00
 8.208146300702533e-01	 1.255493266842989e+00	 5.774909960043186e+00
 7.949464022641402e-01	 1.272029959379205e+00	 5.503224103729115e+00
 7.688064583548604e-01	 1.287997138826982e+00	 5.238027025747503e+00
 7.424132920367567e-01	 1.303388853659439e+00	 4.979731852418418e+00
 7.157855296803717e-01	 1.318199937618296e+00	 4.728728580382789e+00
 6.889418895898042e-01	 1.332426010254849e+00	 4.485383110697646e+00
 6.619011416355685e-01	 1.346063475001740e+00	 4.250036414734761e+00
 6.346820674319077e-01	 1.359109514832477e+00	 4.023003833916328e+00
 6.073034212204453e-01	 1.371562085578352e+00	 3.804574514234945e+00
 5.797838916139548e-01	 1.383419906984210e+00	 3.595010975443936e+00
 5.521420643450261e-01	 1.394682451595397e+00	 3.394548813776390e+00
 5.061302256309000e-01	 1.278458913966357e+00	 2.780524553903969e+00
 4.806966872910303e-01	 1.288237437281654e+00	 2.552581178672012e+00
 4.551847024354536e-01	 1.297471343285539e+00	 2.338348250265196e+00
 4.296108311925131e-01	 1.306162139129264e+00	 2.138026139461175e+00
 4.039914143349413e-01	 1.314311963391015e+00	 1.951778846488843e+00
 3.783425453957433e-01	 1.321923567499668e+00	 1.779734388990836e+00
 3.526800442951766e-01	 1.329000295832889e+00	 1.621985337694360e+00
 3.270194325395477e-01	 1.335546064616104e+00	 1.478589491299330e+00
 3.013759100415353e-01	 1.341565339750669e+00	 1.349570681428382e+00
 2.757643336008559e-01	 1.347063113700460e+00	 1.234919697935504e+00
 2.501991970734234e-01	 1.352044881565965e+00	 1.134595324433947e+00
 5.107314095045163e-01	 1.290081267729169e+00	 2.847557126806805e+00
 4.850666571792522e-01	 1.299948686710393e+00	 2.619594637577153e+00
 4.593227451881562e-01	 1.309266537313843e+00	 2.405330743775709e+00
 4.335163842061927e-01	 1.318036340392143e+00	 2.204965236383471e+00
 4.076640635585735e-01	 1.326260253965098e+00	 2.018661239059043e+00
 3.817820230831497e-01	 1.333941054474572e+00	 1.846545613990892e+00
 3.558862265176348e-01	 1.341082116701665e+00	 1.688709516468826e+00
 3.299923364729388e-01	 1.347687392473848e+00	 1.545209089507686e+00
 3.041156910427644e-01	 1.353761388291580e+00	 1.416066289194446e+00
 2.782712820886437e-01	 1.359309142004772e+00	 1.301269830882938e+00
 2.524737352288170e-01	 1.364336198669367e+00	 1.200776245930190e+00
 5.153325933776431e-01	 1.301703621492001e+00	 2.913248809892684e+00
 4.894366270670793e-01	 1.311659936139338e+00	 2.685245138944744e+00
 4.634607879405481e-01	 1.321061731342504e+00	 2.470926663884459e+00
 4.374219372196355e-01	 1.329910541655500e+00	 2.270492657750621e+00
 4.113367127820329e-01	 1.338208544539750e+00	 2.084105431786370e+00
 3.852215007704361e-01	 1.345958541450105e+00	 1.911890758907050e+00
 3.590924087400167e-01	 1.353163937571098e+00	 1.753938446897887e+00
 3.329652404062873e-01	 1.359828720332250e+00	 1.610303052500438e+00
 3.068554720439746e-01	 1.365957436833121e+00	 1.481004726885807e+00
 2.807782305764268e-01	 1.371555170309656e+00	 1.366030182469400e+00
 2.547482733842105e-01	 1.376627515773255e+00	 1.265333770594884e+00
 5.199337772502799e-01	 1.313325975254853e+00	 2.977635342891573e+00
 4.938065969545112e-01	 1.323371185568486e+00	 2.749569000133127e+00
 4.675988306926293e-01	 1.332856925371522e+00	 2.535172946448500e+00
 4.413274902328415e-01	 1.341784742919335e+00	 2.334645997158606e+00
 4.150093620053187e-01	 1.350156835114969e+00	 2.148149713554739e+00
 3.886609784576029e-01	 1.357976028426266e+00	 1.975808843716109e+00
 3.622985909623225e-01	 1.365245758441190e+00	 1.817711914066239e+00
 3.359381443395930e-01	 1.371970048191310e+00	 1.673911962656214e+00
 3.095952530451660e-01	 1.378153485375291e+00	 1.544427404500947e+00
 2.832851790642052e-01	 1.383801198615110e+00	 1.429243018754216e+00
 2.570228115396040e-01	 1.388918832877628e+00	 1.328311047086490e+00
 5.245349611224271e-01	 1.324948329017727e+00	 3.040751211423232e+00
 4.981765668415482e-01	 1.335082434997839e+00	 2.812601264142088e+00
 4.717368734443999e-01	 1.344652119400897e+00	 2.598105231283144e+00
 4.452330432458106e-01	 1.353658944183649e+00	 2.397461529099672e+00
 4.186820112284315e-01	 1.362105125690758e+00	 2.210831029763568e+00
 3.921004561446502e-01	 1.369993515403056e+00	 2.038337519271570e+00
 3.655047731845522e-01	 1.377327579311940e+00	 1.880068307101235e+00
 3.389110482728562e-01	 1.384111376051029e+00	 1.736074978431463e+00
 3.123350340463384e-01	 1.390349533918090e+00	 1.606374279085433e+00
 2.857921275519789e-01	 1.396047226921136e+00	 1.490949122813374e+00
 2.592973496949976e-01	 1.401210149982486e+00	 1.389749710116811e+00
 5.291361449940846e-01	 1.336570682780620e+00	 3.102629701523692e+00
 5.025465367281904e-01	 1.346793684427397e+00	 2.874375755020260e+00
 4.758749161958596e-01	 1.356447313430629e+00	 2.659757918511383e+00
 4.491385962585430e-01	 1.365533145448441e+00	 2.458974266314866e+00
 4.223546604513710e-01	 1.374053416267115e+00	 2.272185040739978e+00
 3.955399338315778e-01	 1.382011002380474e+00	 2.099513126830638e+00
 3.687109554067056e-01	 1.389409400183348e+00	 1.941044679866699e+00
 3.418839522060768e-01	 1.396252703911406e+00	 1.796829896270010e+00
 3.150748150474922e-01	 1.402545582461518e+00	 1.666883917903644e+00
 2.882990760397479e-01	 1.408293255227734e+00	 1.551187859216996e+00
 2.615718878503911e-01	 1.413501467087830e+00	 1.449689946274751e+00
 5.337373288652524e-01	 1.348193036543535e+00	 3.163302951351517e+00
 5.069165066144372e-01	 1.358504933857160e+00	 2.934925130405750e+00
 4.800129589470085e-01	 1.368242507460719e+00	 2.720164221999261e+00
 4.530441492710384e-01	 1.377407346713711e+00	 2.519218014179715e+00
 4.260273096741375e-01	 1.386001706844041e+00	 2.332246177130092e+00
 3.989794115183856e-01	 1.394028489358520e+00	 2.159370754502440e+00
 3.719171376287828e-01	 1.401491221055414e+00	 2.000676808517475e+00
 3.448568561392546e-01	 1.408394031772441e+00	 1.856213209310467e+00
 3.178145960486270e-01	 1.414741631005575e+00	 1.725993558343313e+00
 2.908060245275123e-01	 1.420539283534902e+00	 1.609997235171832e+00
 2.638464260057847e-01	 1.425792784193659e+00	 1.508170556445408e+00
 5.383385127359304e-01	 1.359815390306469e+00	 3.222802000242380e+00
 5.112864765002892e-01	 1.370216183287127e+00	 2.994280931372893e+00
 4.841510016978469e-01	 1.380037701491165e+00	 2.779356220050364e+00
 4.569497022832972e-01	 1.389281547979459e+00	 2.578225422301015e+00
 4.296999588967309e-01	 1.397949997421536e+00	 2.391047692449346e+00
 4.024188892050738e-01	 1.406045976337196e+00	 2.217944290801296e+00
 3.751233198507839e-01	 1.413573041928139e+00	 2.058999246102387e+00
 3.478297600723899e-01	 1.420535359634134e+00	 1.914260163083220e+00
 3.205543770497430e-01	 1.426937679550262e+00	 1.783739164747673e+00
 2.933129730152719e-01	 1.432785311842642e+00	 1.667413958528419e+00
 2.661209641611783e-01	 1.438084101299974e+00	 1.565229015028176e+00
 5.429396966061187e-01	 1.371437744069425e+00	 3.281156835269328e+00
 5.156564463857463e-01	 1.381927432717298e+00	 3.052473629744338e+00
 4.882890444483744e-01	 1.391832895521968e+00	 2.837364903522866e+00
 4.608552552953190e-01	 1.401155749245686e+00	 2.636028033490355e+00
 4.333726081191510e-01	 1.409898287999599e+00	 2.448621712960968e+00
 4.058583668916424e-01	 1.418063463316499e+00	 2.275266475477047e+00
 3.783295020727088e-01	 1.425654862801521e+00	 2.116045374390549e+00
 3.508026640054825e-01	 1.432676687496486e+00	 1.971004808374986e+00
 3.232941580508401e-01	 1.439133728095577e+00	 1.840155482358124e+00
 2.958199215030269e-01	 1.445031340150954e+00	 1.723473492838230e+00
 2.683955023165718e-01	 1.450375418406773e+00	 1.620901526143829e+00
 5.475408804758173e-01	 1.383060097832401e+00	 3.338396435455567e+00
 5.200264162708083e-01	 1.393638682147674e+00	 3.109532673017484e+00
 4.924270871985911e-01	 1.403628089553128e+00	 2.894220221520704e+00
 4.647608083071041e-01	 1.413029950512392e+00	 2.692656330267722e+00
 4.370452573413979e-01	 1.421846578578230e+00	 2.504999285039504e+00
 4.092978445780913e-01	 1.430080950296430e+00	 2.331368947782442e+00
 3.815356842945573e-01	 1.437736683675562e+00	 2.171847453085097e+00
 3.537755679385325e-01	 1.444818015359496e+00	 2.026480051428230e+00
 3.260339390519186e-01	 1.451329776641522e+00	 1.895276088536955e+00
 2.983268699907771e-01	 1.457277368459836e+00	 1.778210109635428e+00
 2.706700404719653e-01	 1.462666735514058e+00	 1.675223077007473e+00
 5.521420643450261e-01	 1.394682451595397e+00	 3.394548813776390e+00
 5.243963861554752e-01	 1.405349931578255e+00	 3.165486527044675e+00
 4.965651299484972e-01	 1.415423283584646e+00	 2.949951124799785e+00
 4.686663613186524e-01	 1.424904151779574e+00	 2.748139779040637e+00
 4.407179065634718e-01	 1.433794869157430e+00	 2.560210420166136e+00
 4.127373222644204e-01	 1.442098437276991e+00	 2.386282292327290e+00
 3.847418665163297e-01	 1.449818504550261e+00	 2.226436666575723e+00
 3.567484718715399e-01	 1.456959343223164e+00	 2.080717701630507e+00
 3.287737200529779e-01	 1.463525825188096e+00	 1.949133441429044e+00
 3.008338184785227e-01	 1.469523396769290e+00	 1.831656938104092e+00
 2.729445786273588e-01	 1.474958052621828e+00	 1.728227488633071e+00
 2.501991970734234e-01	 1.352044881565965e+00	 1.134595324433947e+00
 2.246946132453406e-01	 1.356516616473704e+00	 1.014376120222024e+00
 1.992642974238829e-01	 1.360484744408075e+00	 9.089206866733213e-01
 1.739215527406030e-01	 1.363956118608690e+00	 8.181197558976601e-01
 1.486792571529468e-01	 1.366937993652964e+00	 7.418365054021656e-01
 1.235498521293628e-01	 1.369437999341071e+00	 6.799079199862397e-01
 9.854533298911115e-02	 1.371464114494739e+00	 6.321462041537194e-01
 7.367724086214492e-02	 1.373024640776572e+00	 5.983402350021019e-01
 4.895665622776053e-02	 1.374128176631064e+00	 5.782570458323983e-01
 2.439419398469604e-02	 1.374783591442656e+00	 5.716433310705451e-01
 0.000000000000000e+00	 1.375000000000000e+00	 5.782269634934898e-01
 2.524737352288170e-01	 1.364336198669367e+00	 1.200776245930190e+00
 2.267372915474652e-01	 1.368848585712971e+00	 1.080494669796308e+00
 2.010757910364978e-01	 1.372852787537955e+00	 9.749878367886382e-01
 1.755026577650256e-01	 1.376355719686112e+00	 8.841462825748003e-01
 1.500308867628343e-01	 1.379364702685561e+00	 8.078326698302285e-01
 1.246730326026296e-01	 1.381887435698295e+00	 7.458831710696814e-01
 9.944119965202770e-02	 1.383931970080786e+00	 6.981089025154021e-01
 7.434703396034356e-02	 1.385506682965300e+00	 6.642973987937606e-01
 4.940171673850238e-02	 1.386620250964008e+00	 6.442141185446362e-01
 2.461595938432043e-02	 1.387281624092119e+00	 6.376039713808921e-01
 0.000000000000000e+00	 1.387500000000000e+00	 6.441928570506985e-01
 2.547482733842105e-01	 1.376627515773255e+00	 1.265333770594884e+00
 2.287799698495900e-01	 1.381180554952629e+00	 1.144983165697698e+00
 2.028872846491126e-01	 1.385220830668143e+00	 1.039416548513205e+00
 1.770837627894483e-01	 1.388755320763768e+00	 9.485243031282677e-01
 1.513825163727218e-01	 1.391791411718328e+00	 8.721686247682976e-01
 1.257962130758965e-01	 1.394336872055636e+00	 8.101849233264846e-01
 1.003370663149443e-01	 1.396399825666909e+00	 7.623832784495281e-01
 7.501682705854221e-02	 1.397988725154069e+00	 7.285499358066589e-01
 4.984677724924420e-02	 1.399112325296969e+00	 7.084488344644508e-01
 2.483772478394482e-02	 1.399779656741585e+00	 7.018231556563126e-01
 0.000000000000000e+00	 1.400000000000000e+00	 7.083968836560608e-01
 2.570228115396040e-01	 1.388918832877628e+00	 1.328311047086490e+00
 2.308226481517145e-01	 1.393512524192677e+00	 1.207884923361922e+00
 2.046987782617274e-01	 1.397588873798637e+00	 1.102250349842846e+00
 1.786648678138709e-01	 1.401154921841657e+00	 1.011297602722000e+00
 1.527341459826092e-01	 1.404218120751266e+00	 9.348884559146684e-01
 1.269193935491633e-01	 1.406786308413095e+00	 8.728576050528767e-01
 1.012329329778609e-01	 1.408867681253106e+00	 8.250141435578846e-01
 7.568662015674081e-02	 1.410470767342880e+00	 7.911430802508712e-01
 5.029183775998605e-02	 1.411604399629950e+00	 7.710068882667078e-01
 2.505949018356920e-02	 1.412277689391056e+00	 7.643470754100736e-01
 0.000000000000000e+00	 1.412500000000000e+00	 7.708857665230620e-01
 2.592973496949976e-01	 1.401210149982486e+00	 1.389749710116811e+00
 2.328653264538391e-01	 1.405844493433116e+00	 1.269241738429589e+00
 2.065102718743421e-01	 1.409956916929438e+00	 1.163531241521635e+00
 1.802459728382935e-01	 1.413554522919780e+00	 1.072508430244674e+00
 1.540857755924967e-01	 1.416644829784374e+00	 9.960347021453062e-01
 1.280425740224302e-01	 1.419235744770672e+00	 9.339440856986070e-01
 1.021287996407774e-01	 1.421335536839377e+00	 8.860447371414197e-01
 7.635641325493947e-02	 1.422952809531733e+00	 8.521204792005812e-01
 5.073689827072789e-02	 1.424096473962949e+00	 8.319323713252107e-01
 2.528125558319359e-02	 1.424775722040532e+00	 8.252203014119859e-01
 0.000000000000000e+00	 1.425000000000000e+00	 8.317045894541648e-01
 2.615718878503911e-01	 1.413501467087830e+00	 1.449689946274751e+00
 2.349080047559638e-01	 1.418176462673946e+00	 1.329093952824165e+00
 2.083217654869569e-01	 1.422324960060546e+00	 1.223299763444248e+00
 1.818270778627161e-01	 1.425954123998136e+00	 1.132197565104256e+00
 1.554374052023842e-01	 1.429071538817652e+00	 1.055648422767363e+00
 1.291657544956971e-01	 1.431685181128366e+00	 9.934857436429179e-01
 1.030246663036940e-01	 1.433803392425723e+00	 9.455167945608884e-01
 7.702620635313809e-02	 1.435434851720629e+00	 9.115242615998023e-01
 5.118195878146975e-02	 1.436588548295966e+00	 8.912678414216770e-01
 2.550302098281797e-02	 1.437273754690013e+00	 8.844858541552247e-01
 0.000000000000000e+00	 1.437500000000000e+00	 8.908968681196205e-01
 2.638464260057847e-01	 1.425792784193659e+00	 1.508170556445408e+00
 2.369506830580884e-01	 1.430508431915166e+00	 1.387480517412306e+00
 2.101332590995718e-01	 1.434693003191961e+00	 1.281595057623401e+00
 1.834081828871388e-01	 1.438353725076726e+00	 1.190404380567728e+00
 1.567890348122716e-01	 1.441498247851101e+00	 1.113769261293435e+00
 1.302889349689639e-01	 1.444134617486177e+00	 1.051522530464587e+00
 1.039205329666105e-01	 1.446271248012144e+00	 1.003470612062074e+00
 7.769599945133675e-02	 1.447916893909566e+00	 9.693951036991200e-01
 5.162701929221158e-02	 1.449080622629002e+00	 9.490543888486662e-01
 2.572478638244236e-02	 1.449771787339498e+00	 9.421852706787870e-01
 0.000000000000000e+00	 1.450000000000000e+00	 9.485046176493133e-01
 2.661209641611783e-01	 1.438084101299974e+00	 1.565229015028176e+00
 2.389933613602131e-01	 1.442840401156778e+00	 1.444439051450683e+00
 2.119447527121866e-01	 1.447061046323683e+00	 1.338454927928655e+00
 1.849892879115614e-01	 1.450753326155550e+00	 1.247166903852555e+00
 1.581406644221591e-01	 1.453924956884721e+00	 1.170435505945779e+00
 1.314121154422308e-01	 1.456584053844107e+00	 1.108093031916462e+00
 1.048163996295271e-01	 1.458739103598640e+00	 1.059945108276356e+00
 7.836579254953538e-02	 1.460398936098545e+00	 1.025772291136493e+00
 5.207207980295342e-02	 1.461572696962056e+00	 1.005331699122924e+00
 2.594655178206674e-02	 1.462269819988988e+00	 9.983586679628458e-01
 0.000000000000000e+00	 1.462500000000000e+00	 1.004568416758403e+00
 2.683955023165718e-01	 1.450375418406773e+00	 1.620901526143829e+00
 2.410360396623377e-01	 1.455172370398780e+00	 1.500005899010139e+00
 2.137562463248014e-01	 1.459429089455712e+00	 1.393915896787155e+00
 1.865703929359840e-01	 1.463152927234606e+00	 1.302521873162671e+00
 1.594922940320465e-01	 1.466351665918511e+00	 1.225684147083762e+00
 1.325352959154976e-01	 1.469033490202154e+00	 1.163234525799410e+00
 1.057122662924437e-01	 1.471206959185211e+00	 1.114977882594190e+00
 7.903558564773400e-02	 1.472880978287564e+00	 1.080693777861693e+00
 5.251714031369526e-02	 1.474064771295128e+00	 1.060138112509621e+00
 2.616831718169113e-02	 1.474767852638482e+00	 1.053044803100848e+00
 0.000000000000000e+00	 1.475000000000000e+00	 1.059127468612420e+00
 2.706700404719653e-01	 1.462666735514058e+00	 1.675223077007473e+00
 2.430787179644623e-01	 1.467504339641174e+00	 1.554216182554907e+00
 2.155677399374162e-01	 1.471797132588047e+00	 1.448013259025827e+00
 1.881514979604067e-01	 1.475552528313897e+00	 1.356504791848755e+00
 1.608439236419340e-01	 1.478778374952471e+00	 1.279550931735970e+00
 1.336584763887645e-01	 1.481482926560319e+00	 1.216983036918403e+00
 1.066081329553602e-01	 1.483674814771857e+00	 1.168605270595338e+00
 7.970537874593264e-02	 1.485363020476627e+00	 1.134196242089387e+00
 5.296220082443710e-02	 1.486556845628219e+00	 1.113510680545693e+00
 2.639008258131552e-02	 1.487265885287981e+00	 1.106281130437409e+00
 0.000000000000000e+00	 1.487500000000000e+00	 1.112219658623429e+00
 2.729445786273588e-01	 1.474958052621828e+00	 1.728227488633071e+00
 2.451213962665869e-01	 1.479836308883957e+00	 1.607103853842905e+00
 2.173792335500309e-01	 1.484165175720690e+00	 1.500781133021544e+00
 1.897326029848293e-01	 1.487952129393421e+00	 1.409149979860475e+00
 1.621955532518215e-01	 1.491205083986602e+00	 1.332070415405621e+00
 1.347816568620313e-01	 1.493932362918601e+00	 1.269373389290330e+00
 1.075039996182768e-01	 1.496142670358577e+00	 1.220862396707797e+00
 8.037517184413129e-02	 1.497845062665731e+00	 1.186315139454933e+00
 5.340726133517893e-02	 1.499048919961328e+00	 1.165485219736799e+00
 2.661184798093990e-02	 1.499763917937484e+00	 1.158103855849882e+00
 0.000000000000000e+00	 1.500000000000000e+00	 1.163881609356411e+00
 1.500000000000000e+00	 0.000000000000000e+00	 1.167203009569475e+01
 1.499763917937484e+00	 2.661184798093904e-02	 1.169461094449899e+01
 1.499048919961329e+00	 5.340726133517817e-02	 1.170977158409260e+01
 1.497845062665731e+00	 8.037517184413061e-02	 1.171728308995441e+01
 1.496142670358577e+00	 1.075039996182762e-01	 1.171692611771168e+01
 1.493932362918601e+00	 1.347816568620308e-01	 1.170849202765837e+01
 1.491205083986601e+00	 1.621955532518211e-01	 1.169178401918880e+01
 1.487952129393420e+00	 1.897326029848289e-01	 1.166661826923784e+01
 1.484165175720690e+00	 2.173792335500308e-01	 1.163282506841492e+01
 1.479836308883957e+00	 2.451213962665869e-01	 1.159024994814499e+01
 1.474958052621828e+00	 2.729445786273588e-01	 1.153875479178998e+01
 1.512500000000000e+00	 0.000000000000000e+00	 1.161681000218955e+01
 1.512261950586988e+00	 2.683361338056342e-02	 1.163897686747019e+01
 1.511540994294438e+00	 5.385232184592000e-02	 1.165395944555939e+01
 1.510327104854835e+00	 8.104496494232924e-02	 1.166152999026750e+01
 1.508610525945297e+00	 1.083998662811928e-01	 1.166146990216397e+01
 1.506381799276883e+00	 1.359048373352977e-01	 1.165357083722250e+01
 1.503631793020732e+00	 1.635471828617086e-01	 1.163763582661037e+01
 1.500351730472945e+00	 1.913137080092516e-01	 1.161348040185693e+01
 1.496533218853332e+00	 2.191907271626456e-01	 1.158093371923035e+01
 1.492168278126741e+00	 2.471640745687115e-01	 1.153983967677462e+01
 1.487249369729599e+00	 2.752191167827523e-01	 1.149005801711522e+01
 1.525000000000000e+00	 0.000000000000000e+00	 1.156591379675995e+01
 1.524759983236486e+00	 2.705537878018779e-02	 1.158763926071459e+01
 1.524033068627529e+00	 5.429738235666183e-02	 1.160241438561671e+01
 1.522809147043897e+00	 8.171475804052787e-02	 1.161001260605861e+01
 1.521078381531942e+00	 1.092957329441093e-01	 1.161021607443582e+01
 1.518831235635048e+00	 1.370280178085645e-01	 1.160281675388033e+01
 1.516058502054693e+00	 1.648988124715960e-01	 1.158761752355550e+01
 1.512751331552235e+00	 1.928948130336742e-01	 1.156443329068893e+01
 1.508901261985667e+00	 2.210022207752603e-01	 1.153309210331357e+01
 1.504500247369134e+00	 2.492067528708361e-01	 1.149343625730597e+01
 1.499540686836884e+00	 2.774936549381459e-01	 1.144532339096338e+01
 1.537500000000000e+00	 0.000000000000000e+00	 1.151923618605390e+01
 1.537258015885981e+00	 2.727714417981218e-02	 1.154049350294530e+01
 1.536525142960601e+00	 5.474244286740368e-02	 1.155503250312201e+01
 1.535291189232917e+00	 8.238455113872650e-02	 1.156262780434712e+01
 1.533546237118513e+00	 1.101915996070258e-01	 1.156306231755620e+01
 1.531280671993095e+00	 1.381511982818314e-01	 1.155612832423627e+01
 1.528485211088482e+00	 1.662504420814835e-01	 1.154162856737208e+01
 1.525150932631292e+00	 1.944759180580968e-01	 1.151937735047665e+01
 1.521269305117696e+00	 2.228137143878751e-01	 1.148920163881488e+01
 1.516832216611136e+00	 2.512494311729607e-01	 1.145094215654582e+01
 1.511832003943683e+00	 2.797681930935394e-01	 1.140445447315650e+01
 1.550000000000000e+00	 0.000000000000000e+00	 1.147667527327911e+01
 1.549756048535470e+00	 2.749890957943656e-02	 1.149743834771710e+01
 1.549017217293655e+00	 5.518750337814550e-02	 1.151171324850566e+01
 1.547773231421895e+00	 8.305434423692513e-02	 1.151927577890784e+01
 1.546014092705009e+00	 1.110874662699424e-01	 1.151990961494898e+01
 1.543730108351024e+00	 1.392743787550982e-01	 1.151340736739514e+01
 1.540911920122102e+00	 1.676020716913709e-01	 1.149957165849318e+01
 1.537550533710115e+00	 1.960570230825194e-01	 1.147821620812853e+01
 1.533637348249418e+00	 2.246252080004899e-01	 1.144916692364720e+01
 1.529164185852748e+00	 2.532921094750853e-01	 1.141226298720191e+01
 1.524123321049998e+00	 2.820427312489329e-01	 1.136735793412599e+01
 1.562500000000000e+00	 0.000000000000000e+00	 1.143813242234065e+01
 1.562254081184955e+00	 2.772067497906093e-02	 1.145837578843278e+01
 1.561509291626691e+00	 5.563256388888735e-02	 1.147235928970793e+01
 1.560255273610832e+00	 8.372413733512374e-02	 1.147985991720072e+01
 1.558481948291430e+00	 1.119833329328590e-01	 1.148066211841710e+01
 1.556179544708835e+00	 1.403975592283651e-01	 1.147455884406229e+01
 1.553338629155550e+00	 1.689537013012584e-01	 1.146135261071356e+01
 1.549950134788705e+00	 1.976381281069421e-01	 1.144085657423200e+01
 1.546005391380833e+00	 2.264367016131047e-01	 1.141289560829556e+01
 1.541496155093968e+00	 2.553347877772099e-01	 1.137730738204687e+01
 1.536414638155826e+00	 2.843172694043264e-01	 1.133394343048821e+01
 1.575000000000000e+00	 0.000000000000000e+00	 1.140351212844815e+01
 1.574752113834436e+00	 2.794244037868531e-02	 1.142321092977774e+01
 1.574001365959708e+00	 5.607762439962918e-02	 1.143687638450012e+01
 1.572737315799726e+00	 8.439393043332238e-02	 1.144428667363740e+01
 1.570949803877776e+00	 1.128791995957756e-01	 1.144522702241327e+01
 1.568628981066530e+00	 1.415207397016319e-01	 1.143949073187678e+01
 1.565765338188829e+00	 1.703053309111458e-01	 1.142688022764361e+01
 1.562349735867061e+00	 1.992192331313647e-01	 1.140720812068526e+01
 1.558373434511941e+00	 2.282481952257195e-01	 1.138029827468333e+01
 1.553828124334798e+00	 2.573774660793345e-01	 1.134598687407439e+01
 1.548705955261170e+00	 2.865918075597200e-01	 1.130412348654512e+01
 1.587500000000000e+00	 0.000000000000000e+00	 1.137272189483616e+01
 1.587250146483912e+00	 2.816420577830969e-02	 1.139185186522853e+01
 1.586493440292707e+00	 5.652268491037100e-02	 1.140517325883758e+01
 1.585219357988580e+00	 8.506372353152102e-02	 1.141246544883502e+01
 1.583417659464048e+00	 1.137750662586921e-01	 1.141351444425057e+01
 1.581078417424106e+00	 1.426439201748988e-01	 1.140811390663456e+01
 1.578192047221937e+00	 1.716569605210333e-01	 1.139606618500006e+01
 1.574749336945184e+00	 2.008003381557873e-01	 1.137718336411022e+01
 1.570741477642742e+00	 2.300596888383343e-01	 1.135128832076125e+01
 1.566160093575237e+00	 2.594201443814592e-01	 1.131821578231729e+01
 1.560997272366028e+00	 2.888663457151135e-01	 1.127781338138319e+01
 1.600000000000000e+00	 0.000000000000000e+00	 1.134567211526314e+01
 1.599748179133383e+00	 2.838597117793407e-02	 1.136420956030322e+01
 1.598985514625687e+00	 5.696774542111284e-02	 1.137716149091509e+01
 1.597701400177391e+00	 8.573351662971965e-02	 1.138430847453010e+01
 1.595885515050245e+00	 1.146709329216086e-01	 1.138543730992824e+01
 1.593527853781565e+00	 1.437671006481656e-01	 1.138034202907913e+01
 1.590618756254874e+00	 1.730085901309208e-01	 1.136882491841432e+01
 1.587148938023073e+00	 2.023814431802099e-01	 1.135069755473051e+01
 1.583109520773236e+00	 2.318711824509491e-01	 1.132578185050631e+01
 1.578492062815286e+00	 2.614628226835838e-01	 1.129391110301787e+01
 1.573288589470401e+00	 2.911408838705071e-01	 1.125493104126475e+01
 1.612500000000000e+00	 0.000000000000000e+00	 1.132227596197565e+01
 1.612246211782850e+00	 2.860773657755843e-02	 1.134019774124199e+01
 1.611477588958649e+00	 5.741280593185468e-02	 1.135275540061494e+01
 1.610183442366161e+00	 8.640330972791826e-02	 1.135973070384522e+01
 1.608353370636367e+00	 1.155667995845252e-01	 1.136091124526790e+01
 1.605977290138907e+00	 1.448902811214324e-01	 1.135609143695791e+01
 1.603045465287642e+00	 1.743602197408082e-01	 1.134507351645904e+01
 1.599548539100729e+00	 2.039625482046325e-01	 1.132766857041792e+01
 1.595477563903424e+00	 2.336826760635639e-01	 1.130369756903709e+01
 1.590824032054943e+00	 2.635055009857084e-01	 1.127299240586006e+01
 1.585579906574289e+00	 2.934154220259006e-01	 1.123539693702414e+01
 1.625000000000000e+00	 0.000000000000000e+00	 1.130244927884345e+01
 1.624744244432312e+00	 2.882950197718282e-02	 1.131973278882542e+01
 1.623969663291593e+00	 5.785786644259652e-02	 1.133187194405733e+01
 1.622665484554890e+00	 8.707310282611692e-02	 1.133864970662033e+01
 1.620821226222414e+00	 1.164626662474418e-01	 1.133985447207415e+01
 1.618426726496131e+00	 1.460134615946994e-01	 1.133528104206053e+01
 1.615472174320238e+00	 1.757118493506957e-01	 1.132473161861194e+01
 1.611948140178151e+00	 2.055436532290552e-01	 1.130801681562903e+01
 1.607845607033305e+00	 2.354941696761788e-01	 1.128495668256978e+01
 1.603156001294210e+00	 2.655481792878331e-01	 1.125538173499098e+01
 1.597871223677692e+00	 2.956899601812942e-01	 1.121913398619966e+01
 1.474958052621828e+00	 2.729445786273588e-01	 1.153875479178998e+01
 1.469523396769290e+00	 3.008338184785218e-01	 1.153325890677169e+01
 1.463525825188096e+00	 3.287737200529772e-01	 1.151881260870938e+01
 1.456959343223164e+00	 3.567484718715391e-01	 1.149518206591208e+01
 1.449818504550261e+00	 3.847418665163292e-01	 1.146214977557307e+01
 1.442098437276991e+00	 4.127373222644202e-01	 1.141951590621942e+01
 1.433794869157430e+00	 4.407179065634715e-01	 1.136709961188325e+01
 1.424904151779575e+00	 4.686663613186522e-01	 1.130474030875554e+01
 1.415423283584646e+00	 4.965651299484973e-01	 1.123229890491782e+01
 1.405349931578255e+00	 5.243963861554752e-01	 1.114965897366317e+01
 1.394682451595397e+00	 5.521420643450261e-01	 1.105672786092120e+01
 1.487249369729599e+00	 2.752191167827523e-01	 1.149005801711522e+01
 1.481769425078744e+00	 3.033407669662652e-01	 1.148557633384315e+01
 1.475721873734670e+00	 3.315135010540273e-01	 1.147236972292462e+01
 1.469100671086833e+00	 3.597213758045253e-01	 1.145019731780591e+01
 1.461900325424960e+00	 3.879480487380636e-01	 1.141883394405498e+01
 1.454115924257551e+00	 4.161767999506894e-01	 1.137807147459086e+01
 1.445743159736630e+00	 4.443905557854587e-01	 1.132772016005605e+01
 1.436778353046758e+00	 4.725719143300821e-01	 1.126760992512543e+01
 1.427218477616163e+00	 5.007031726982478e-01	 1.119759162135422e+01
 1.417061181008836e+00	 5.287663560399447e-01	 1.111753822705648e+01
 1.406304805358394e+00	 5.567432482139901e-01	 1.102734598468051e+01
 1.499540686836884e+00	 2.774936549381459e-01	 1.144532339096338e+01
 1.494015453387626e+00	 3.058477154540085e-01	 1.144178833129594e+01
 1.487917922280615e+00	 3.342532820550773e-01	 1.142975187996130e+01
 1.481241998949843e+00	 3.626942797375113e-01	 1.140896622029734e+01
 1.473982146299001e+00	 3.911542309597980e-01	 1.137919859762170e+01
 1.466133411237483e+00	 4.196162776369589e-01	 1.134023268714887e+01
 1.457691450315262e+00	 4.480632050074460e-01	 1.129186994043832e+01
 1.448652554313463e+00	 4.764774673415118e-01	 1.123393090119938e+01
 1.439013671647323e+00	 5.048412154479985e-01	 1.116625648106217e+01
 1.428772430439212e+00	 5.331363259244142e-01	 1.108870918578581e+01
 1.417927159121370e+00	 5.613444320829541e-01	 1.100117428232214e+01
 1.511832003943683e+00	 2.797681930935394e-01	 1.140445447315650e+01
 1.506261481695937e+00	 3.083546639417515e-01	 1.140180010980510e+01
 1.500113970825930e+00	 3.369930630561272e-01	 1.139086598880868e+01
 1.493383326812194e+00	 3.656671836704973e-01	 1.137139742608107e+01
 1.486063967172383e+00	 3.943604131815324e-01	 1.134315417583308e+01
 1.478150898216786e+00	 4.230557553232283e-01	 1.130591181108717e+01
 1.469639740893325e+00	 4.517358542294331e-01	 1.125946308607897e+01
 1.460526755579689e+00	 4.803830203529415e-01	 1.120361927140294e+01
 1.450808865678127e+00	 5.089792581977491e-01	 1.113821145251754e+01
 1.440483679869384e+00	 5.375062958088838e-01	 1.106309178206101e+01
 1.429549512884325e+00	 5.659456159519182e-01	 1.097813467634772e+01
 1.524123321049998e+00	 2.820427312489329e-01	 1.136735793412599e+01
 1.518507510003678e+00	 3.108616124294948e-01	 1.136551993736984e+01
 1.512310019370616e+00	 3.397328440571772e-01	 1.135562196096510e+01
 1.505524654673888e+00	 3.686400876034834e-01	 1.133740253408299e+01
 1.498145788045108e+00	 3.975665954032666e-01	 1.131061400681145e+01
 1.490168385195461e+00	 4.264952330094976e-01	 1.127502394317962e+01
 1.481588031470819e+00	 4.554085034514203e-01	 1.123041649939339e+01
 1.472400956845438e+00	 4.842885733643713e-01	 1.117659377817026e+01
 1.462604059708573e+00	 5.131173009474997e-01	 1.111337714979471e+01
 1.452194929299351e+00	 5.418762656933532e-01	 1.104060853032463e+01
 1.441171866647260e+00	 5.705467998208821e-01	 1.095815160727092e+01
 1.536414638155826e+00	 2.843172694043264e-01	 1.133394343048821e+01
 1.530753538310847e+00	 3.133685609172381e-01	 1.133285901702047e+01
 1.524506067914674e+00	 3.424726250582273e-01	 1.132393259033769e+01
 1.517665982534923e+00	 3.716129915364694e-01	 1.130689597161098e+01
 1.510227608917174e+00	 4.007727776250010e-01	 1.128149419169912e+01
 1.502185872173508e+00	 4.299347106957671e-01	 1.124748689659700e+01
 1.493536322047746e+00	 4.590811526734075e-01	 1.120464974138874e+01
 1.484275158110709e+00	 4.881941263758013e-01	 1.115277576362372e+01
 1.474399253738662e+00	 5.172553436972505e-01	 1.109167672674257e+01
 1.463906178729113e+00	 5.462462355778226e-01	 1.102118442396260e+01
 1.452794220410174e+00	 5.751479836898462e-01	 1.094115193289699e+01
 1.548705955261170e+00	 2.865918075597200e-01	 1.130412348654512e+01
 1.542999566617443e+00	 3.158755094049813e-01	 1.130373137034902e+01
 1.536702116458102e+00	 3.452124060592773e-01	 1.129571343886101e+01
 1.529807310395300e+00	 3.745858954694554e-01	 1.127979488211747e+01
 1.522309429788582e+00	 4.039789598467353e-01	 1.125571349461788e+01
 1.514203359150925e+00	 4.333741883820365e-01	 1.122322109311351e+01
 1.505484612624103e+00	 4.627538018953948e-01	 1.118208492616430e+01
 1.496149359375500e+00	 4.920996793872311e-01	 1.113208906641171e+01
 1.486194447768395e+00	 5.213933864470012e-01	 1.107303577619988e+01
 1.475617428158671e+00	 5.506162054622920e-01	 1.100474683693341e+01
 1.464416574173068e+00	 5.797491675588102e-01	 1.092706483239848e+01
 1.560997272366028e+00	 2.888663457151135e-01	 1.127781338138319e+01
 1.555245594923469e+00	 3.183824578927246e-01	 1.127805372654213e+01
 1.548898165000901e+00	 3.479521870603273e-01	 1.127088272751962e+01
 1.541948638255018e+00	 3.775587994024414e-01	 1.125601901826468e+01
 1.534391250659332e+00	 4.071851420684697e-01	 1.123319323782733e+01
 1.526220846127715e+00	 4.368136660683060e-01	 1.120214946040582e+01
 1.517432903199891e+00	 4.664264511173821e-01	 1.116264662039601e+01
 1.508023560639813e+00	 4.960052323986609e-01	 1.111445992342021e+01
 1.497989641797769e+00	 5.255314291967518e-01	 1.105738223397201e+01
 1.487328677588024e+00	 5.549861753467614e-01	 1.099122543004487e+01
 1.476038927935941e+00	 5.843503514277741e-01	 1.091582171492281e+01
 1.573288589470401e+00	 2.911408838705071e-01	 1.125493104126475e+01
 1.567491623228924e+00	 3.208894063804678e-01	 1.125574541661574e+01
 1.561094213543070e+00	 3.506919680613774e-01	 1.124936123247893e+01
 1.554089966114079e+00	 3.805317033354274e-01	 1.123549064000229e+01
 1.546473071529424e+00	 4.103913242902040e-01	 1.121385720179760e+01
 1.538238333103876e+00	 4.402531437545753e-01	 1.118419733416626e+01
 1.529381193775111e+00	 4.700991003393692e-01	 1.114626174753274e+01
 1.519897761903649e+00	 4.999107854100907e-01	 1.109981687609161e+01
 1.509784835826787e+00	 5.296694719465024e-01	 1.104464628730882e+01
 1.499039927017173e+00	 5.593561452312309e-01	 1.098055206162395e+01
 1.487661281698794e+00	 5.889515352967382e-01	 1.090735613248390e+01
 1.585579906574289e+00	 2.934154220259006e-01	 1.123539693702414e+01
 1.579737651533808e+00	 3.233963548682111e-01	 1.123672827256892e+01
 1.573290262084611e+00	 3.534317490624274e-01	 1.123107218604721e+01
 1.566231293972480e+00	 3.835046072684134e-01	 1.121813441738582e+01
 1.558554892398857e+00	 4.135975065119385e-01	 1.119763152992988e+01
 1.550255820079409e+00	 4.436926214408446e-01	 1.116929236476888e+01
 1.541329484349762e+00	 4.737717495613564e-01	 1.113285949644845e+01
 1.531771963167006e+00	 5.038163384215205e-01	 1.108809068110085e+01
 1.521580029855448e+00	 5.338075146962531e-01	 1.103476028763936e+01
 1.510751176446117e+00	 5.637261151157004e-01	 1.097266070234171e+01
 1.499283635461626e+00	 5.935527191657022e-01	 1.090160369690530e+01
 1.597871223677692e+00	 2.956899601812942e-01	 1.121913398619966e+01
 1.591983679838119e+00	 3.259033033559543e-01	 1.122092653119227e+01
 1.585486310625523e+00	 3.561715300634776e-01	 1.121594118220849e+01
 1.578372621830225e+00	 3.864775112013996e-01	 1.120387733788025e+01
 1.570636713267633e+00	 4.168036887336729e-01	 1.118444463767442e+01
 1.562273307054313e+00	 4.471320991271141e-01	 1.115736442824325e+01
 1.553277774923845e+00	 4.774443987833438e-01	 1.112237123431050e+01
 1.543646164429884e+00	 5.077218914329503e-01	 1.107921422515414e+01
 1.533375223883753e+00	 5.379455574460040e-01	 1.102765866733421e+01
 1.522462425874856e+00	 5.680960850001699e-01	 1.096748735396926e+01
 1.510905989224438e+00	 5.981539030346663e-01	 1.089850200059677e+01
 1.394682451595397e+00	 5.521420643450261e-01	 1.105672786092120e+01
 1.383419906984210e+00	 5.797838916139538e-01	 1.099327555692273e+01
 1.371562085578352e+00	 6.073034212204445e-01	 1.092048990662259e+01
 1.359109514832477e+00	 6.346820674319068e-01	 1.083825143826847e+01
 1.346063475001740e+00	 6.619011416355681e-01	 1.074646316591999e+01
 1.332426010254849e+00	 6.889418895898038e-01	 1.064505152759893e+01
 1.318199937618296e+00	 7.157855296803712e-01	 1.053396723632918e+01
 1.303388853659439e+00	 7.424132920367565e-01	 1.041318603608043e+01
 1.287997138826982e+00	 7.688064583548604e-01	 1.028270935513001e+01
 1.272029959379205e+00	 7.949464022641402e-01	 1.014256484994809e+01
 1.255493266842989e+00	 8.208146300702533e-01	 9.992806833390395e+00
 1.406304805358394e+00	 5.567432482139901e-01	 1.102734598468051e+01
 1.394948406207697e+00	 5.846154240430896e-01	 1.096615961043716e+01
 1.382991769622504e+00	 6.123642830626772e-01	 1.089578619755477e+01
 1.370435427452928e+00	 6.399710846590581e-01	 1.081608904778551e+01
 1.357280670622920e+00	 6.674169844810206e-01	 1.072695340489505e+01
 1.343529560335928e+00	 6.946830720015954e-01	 1.062828745475822e+01
 1.329184937093667e+00	 7.217504090930887e-01	 1.052002324221962e+01
 1.314250427434890e+00	 7.486000694693998e-01	 1.040211749640273e+01
 1.298730448312043e+00	 7.752131788405625e-01	 1.027455235661196e+01
 1.282630209035559e+00	 8.015709556162806e-01	 1.013733599152739e+01
 1.265955710728375e+00	 8.276547519880928e-01	 9.990503105036943e+00
 1.417927159121370e+00	 5.613444320829541e-01	 1.100117428232214e+01
 1.406476905431348e+00	 5.894469564722256e-01	 1.094214044453996e+01
 1.394421453666978e+00	 6.174251449049096e-01	 1.087406457159036e+01
 1.381761340073830e+00	 6.452601018862087e-01	 1.079679293328586e+01
 1.368497866244649e+00	 6.729328273264731e-01	 1.071019320381439e+01
 1.354633110417626e+00	 7.004242544133872e-01	 1.061415552321213e+01
 1.340169936569694e+00	 7.277152885058061e-01	 1.050859347943603e+01
 1.325112001211006e+00	 7.547868469020427e-01	 1.039344500239166e+01
 1.309463757797747e+00	 7.816198993262644e-01	 1.026867316169450e+01
 1.293230458692502e+00	 8.081955089684213e-01	 1.013426686046173e+01
 1.276418154614268e+00	 8.344948739059324e-01	 9.990241418043732e+00
 1.429549512884325e+00	 5.659456159519182e-01	 1.097813467634772e+01
 1.418005404655163e+00	 5.942784889013609e-01	 1.092114274902536e+01
 1.405851137711774e+00	 6.224860067471424e-01	 1.085525251750297e+01
 1.393087252695183e+00	 6.505491191133597e-01	 1.078029340945875e+01
 1.379715061866928e+00	 6.784486701719254e-01	 1.069611572531818e+01
 1.365736660499942e+00	 7.061654368251790e-01	 1.060259176054945e+01
 1.351154936046379e+00	 7.336801679185235e-01	 1.049961685235397e+01
 1.335973574987789e+00	 7.609736243346858e-01	 1.038711034178238e+01
 1.320197067284093e+00	 7.880266198119669e-01	 1.026501644269037e+01
 1.303830708350034e+00	 8.148200623205618e-01	 1.013330500943247e+01
 1.286880598500666e+00	 8.413349958237717e-01	 9.991972195770996e+00
 1.441171866647260e+00	 5.705467998208821e-01	 1.095815160727092e+01
 1.429533903879145e+00	 5.991100213304970e-01	 1.090309364241645e+01
 1.417280821756893e+00	 6.275468685893746e-01	 1.083927986249162e+01
 1.404413165316985e+00	 6.558381363405106e-01	 1.076652303824853e+01
 1.390932257489756e+00	 6.839645130173780e-01	 1.068465628742263e+01
 1.376840210582875e+00	 7.119066192369704e-01	 1.059353425730968e+01
 1.362139935523721e+00	 7.396450473312408e-01	 1.049303423549477e+01
 1.346835148765235e+00	 7.671604017673291e-01	 1.038305717944085e+01
 1.330930376771083e+00	 7.944333402976689e-01	 1.026352865599084e+01
 1.314430958008157e+00	 8.214446156727025e-01	 1.013439968228512e+01
 1.297343042387568e+00	 8.481751177416111e-01	 9.995647460143484e+00
 1.452794220410174e+00	 5.751479836898462e-01	 1.094115193289699e+01
 1.441062403103291e+00	 6.039415537596327e-01	 1.088792257481594e+01
 1.428710505802334e+00	 6.326077304316072e-01	 1.082607867864370e+01
 1.415739077939239e+00	 6.611271535676618e-01	 1.075541653896443e+01
 1.402149453113134e+00	 6.894803558628307e-01	 1.067575227730497e+01
 1.387943760666427e+00	 7.176478016487620e-01	 1.058692308446514e+01
 1.373124935001719e+00	 7.456099267439583e-01	 1.048878839471961e+01
 1.357696722543348e+00	 7.733471791999721e-01	 1.038123098227848e+01
 1.341663686258716e+00	 8.008400607833710e-01	 1.026415797070260e+01
 1.325031207666869e+00	 8.280691690248431e-01	 1.013750174638290e+01
 1.307805486274977e+00	 8.550152396594507e-01	 1.000122076770786e+01
 1.464416574173068e+00	 5.797491675588102e-01	 1.092706483239848e+01
 1.452590902327603e+00	 6.087730861887682e-01	 1.087556123538323e+01
 1.440140189848097e+00	 6.376685922738400e-01	 1.081558319385212e+01
 1.427064990561943e+00	 6.664161707948125e-01	 1.074691070267088e+01
 1.413366648737060e+00	 6.949961987082831e-01	 1.066934306919389e+01
 1.399047310750597e+00	 7.233889840605537e-01	 1.058270021483225e+01
 1.384109934480375e+00	 7.515748061566756e-01	 1.048682391217644e+01
 1.368558296322125e+00	 7.795339566326149e-01	 1.038157894774249e+01
 1.352396995746991e+00	 8.072467812690729e-01	 1.026685420068284e+01
 1.335631457326171e+00	 8.346937223769836e-01	 1.014256362818132e+01
 1.318267930162891e+00	 8.618553615772905e-01	 1.000864714873503e+01
 1.476038927935941e+00	 5.843503514277741e-01	 1.091582171492281e+01
 1.464119401552080e+00	 6.136046186179041e-01	 1.086594346418251e+01
 1.451569873894183e+00	 6.427294541160723e-01	 1.080772970694106e+01
 1.438390903185097e+00	 6.717051880219633e-01	 1.074094431062234e+01
 1.424583844361535e+00	 7.005120415537357e-01	 1.066536994613916e+01
 1.410150860835385e+00	 7.291301664723454e-01	 1.058080944819585e+01
 1.395094933959687e+00	 7.575396855693931e-01	 1.048708711479255e+01
 1.379419870101568e+00	 7.857207340652584e-01	 1.038404993568451e+01
 1.363130305235910e+00	 8.136535017547750e-01	 1.027156873978533e+01
 1.346231706986062e+00	 8.413182757291240e-01	 1.014953925184673e+01
 1.328730374051309e+00	 8.686954834951300e-01	 1.001788304919949e+01
 1.487661281698794e+00	 5.889515352967382e-01	 1.090735613248390e+01
 1.475647900776722e+00	 6.184361510470401e-01	 1.085900516816305e+01
 1.462999557940591e+00	 6.477903159583051e-01	 1.080245650677023e+01
 1.449716815808702e+00	 6.769942052491146e-01	 1.073745805652148e+01
 1.435801039986560e+00	 7.060278843991882e-01	 1.066377602544831e+01
 1.421254410920791e+00	 7.348713488841370e-01	 1.058119633994323e+01
 1.406079933439656e+00	 7.635045649821103e-01	 1.048952600611916e+01
 1.390281443881676e+00	 7.919075114979012e-01	 1.038859440342293e+01
 1.373863614725471e+00	 8.200602222404771e-01	 1.027825450014176e+01
 1.356831956646543e+00	 8.479428290812646e-01	 1.015838398075180e+01
 1.339192817940233e+00	 8.755356054129694e-01	 1.002888627547837e+01
 1.499283635461626e+00	 5.935527191657022e-01	 1.090160369690530e+01
 1.487176400001530e+00	 6.232676834761757e-01	 1.085468424104742e+01
 1.474429241987322e+00	 6.528511778005376e-01	 1.079970379510168e+01
 1.461042728432757e+00	 6.822832224762654e-01	 1.073639447239329e+01
 1.447018235612134e+00	 7.115437272446408e-01	 1.066450618759139e+01
 1.432357961006815e+00	 7.406125312959287e-01	 1.058380813301752e+01
 1.417064932920283e+00	 7.694694443948278e-01	 1.049409020134602e+01
 1.401143017662449e+00	 7.980942889305445e-01	 1.039516434382560e+01
 1.384596924215675e+00	 8.264669427261790e-01	 1.028686585331380e+01
 1.367432206307614e+00	 8.545673824334052e-01	 1.016905456169252e+01
 1.349655261829663e+00	 8.823757273308089e-01	 1.004161594162275e+01
 1.510905989224438e+00	 5.981539030346663e-01	 1.089850200059677e+01
 1.498704899226502e+00	 6.280992159053116e-01	 1.085292048691705e+01
 1.485858926034374e+00	 6.579120396427700e-01	 1.079941361302671e+01
 1.472368641057263e+00	 6.875722397034166e-01	 1.073769785788040e+01
 1.458235431238258e+00	 7.170595700900936e-01	 1.066750700838696e+01
 1.443461511093458e+00	 7.463537137077204e-01	 1.058859369301166e+01
 1.428049932401566e+00	 7.754343238075454e-01	 1.050073086531526e+01
 1.412004591443889e+00	 8.042810663631879e-01	 1.040371322625021e+01
 1.395330233706523e+00	 8.328736632118814e-01	 1.029735857416111e+01
 1.378032455969274e+00	 8.611919357855460e-01	 1.018150907167953e+01
 1.360117705719598e+00	 8.892158492486488e-01	 1.005603241906241e+01
 1.255493266842989e+00	 8.208146300702533e-01	 9.992806833390395e+00
 1.238393794960052e+00	 8.463928216988620e-01	 9.841558009473125e+00
 1.220739054091186e+00	 8.716628716590645e-01	 9.683037819480013e+00
 1.202537323063470e+00	 8.966069298445739e-01	 9.517361086086703e+00
 1.183797638460694e+00	 9.212074419883817e-01	 9.344663117809795e+00
 1.164529781372711e+00	 9.454471895829715e-01	 9.165099533686648e+00
 1.144744261634678e+00	 9.693093290812137e-01	 8.978845987100376e+00
 1.124452299602615e+00	 9.927774301945512e-01	 8.786097789051702e+00
 1.103665805527006e+00	 1.015835513108607e+00	 8.587069431990280e+00
 1.082397356601088e+00	 1.038468084441313e+00	 8.381994016129058e+00
 1.060660171775000e+00	 1.060660171775000e+00	 8.171122580966930e+00
 1.265955710728375e+00	 8.276547519880928e-01	 9.990503105036943e+00
 1.248713743246684e+00	 8.534460952142418e-01	 9.842046908277460e+00
 1.230911879537568e+00	 8.789267289246001e-01	 9.686329200155924e+00
 1.212558467418335e+00	 9.040786542619943e-01	 9.523444468414310e+00
 1.193662618777638e+00	 9.288841706738568e-01	 9.353507649702035e+00
 1.174234196214413e+00	 9.533259161651070e-01	 9.176654037962695e+00
 1.154283797145776e+00	 9.773869068257236e-01	 8.993039092520220e+00
 1.133822735430714e+00	 1.001050575448077e+00	 8.802838145609549e+00
 1.112863020571797e+00	 1.024300809052669e+00	 8.606246009902069e+00
 1.091417334572207e+00	 1.047121985145915e+00	 8.403476487386206e+00
 1.069499006540000e+00	 1.069499006540000e+00	 8.194761781770708e+00
 1.276418154614268e+00	 8.344948739059324e-01	 9.990241418043732e+00
 1.259033691533726e+00	 8.604993687296211e-01	 9.844455558467308e+00
 1.241084704984276e+00	 8.861905861901355e-01	 9.691418010036610e+00
 1.222579611773449e+00	 9.115503786794145e-01	 9.531203158829440e+00
 1.203527599094765e+00	 9.365608993593316e-01	 9.363905804228471e+00
 1.183938611056242e+00	 9.612046427472428e-01	 9.189641150191884e+00
 1.163823332656955e+00	 9.854644845702333e-01	 9.008544696766085e+00
 1.143193171258858e+00	 1.009323720701601e+00	 8.820772031035517e+00
 1.122060235616609e+00	 1.032766104996730e+00	 8.626498517501542e+00
 1.100437312543332e+00	 1.055775885850517e+00	 8.425918888693698e+00
 1.078337841305000e+00	 1.078337841305000e+00	 8.219246737627792e+00
 1.286880598500666e+00	 8.413349958237717e-01	 9.991972195770996e+00
 1.269353639821178e+00	 8.675526422450008e-01	 9.848737366195015e+00
 1.251257530431308e+00	 8.934544434556709e-01	 9.698260638666508e+00
 1.232600756128812e+00	 9.190221030968349e-01	 9.540596525171811e+00
 1.213392579412076e+00	 9.442376280448065e-01	 9.375819916698296e+00
 1.193643025898199e+00	 9.690833693293788e-01	 9.204026156585231e+00
 1.173362868168216e+00	 9.935420623147427e-01	 9.025331014649790e+00
 1.152563607087049e+00	 1.017596865955126e+00	 8.839870560736060e+00
 1.131257450661441e+00	 1.041231400940791e+00	 8.647800937127782e+00
 1.109457290514461e+00	 1.064429786555119e+00	 8.449298030074782e+00
 1.087176676070000e+00	 1.087176676070000e+00	 8.244557041500570e+00
 1.297343042387568e+00	 8.481751177416111e-01	 9.995647460143484e+00
 1.279673588109040e+00	 8.746059157603802e-01	 9.854847239963194e+00
 1.261430355878664e+00	 9.007183007212065e-01	 9.706814881708651e+00
 1.242621900484424e+00	 9.264938275142550e-01	 9.551585245334556e+00
 1.223257559729569e+00	 9.519143567302811e-01	 9.389213536759772e+00
 1.203347440740282e+00	 9.769620959115145e-01	 9.219775462514946e+00
 1.182902403679558e+00	 1.001619640059252e+00	 9.043367285687367e+00
 1.161934042915285e+00	 1.025870011208651e+00	 8.860105781269999e+00
 1.140454665706294e+00	 1.049696696884853e+00	 8.670128089807722e+00
 1.118477268485596e+00	 1.073083687259721e+00	 8.473591469043619e+00
 1.096015510835000e+00	 1.096015510835000e+00	 8.270672944090030e+00
 1.307805486274977e+00	 8.550152396594507e-01	 1.000122076770786e+01
 1.289993536397313e+00	 8.816591892757599e-01	 9.862741530530688e+00
 1.271603181326345e+00	 9.079821579867418e-01	 9.717039884700000e+00
 1.252643044840285e+00	 9.339655519316756e-01	 9.564131254861980e+00
 1.233122540047246e+00	 9.595910854157564e-01	 9.404051379826765e+00
 1.213051855582494e+00	 9.848408224936503e-01	 9.236856547747845e+00
 1.192441939190983e+00	 1.009697217803762e+00	 9.062623733110909e+00
 1.171304478743568e+00	 1.034143156462176e+00	 8.881450633102379e+00
 1.149651880751167e+00	 1.058161992828914e+00	 8.693455601708628e+00
 1.127497246456736e+00	 1.081737587964323e+00	 8.498777480705535e+00
 1.104854345600000e+00	 1.104854345600000e+00	 8.297575327526165e+00
 1.318267930162891e+00	 8.618553615772905e-01	 1.000864714873503e+01
 1.300313484685995e+00	 8.887124627911391e-01	 9.872377973680216e+00
 1.281776006774351e+00	 9.152460152522772e-01	 9.728896089484962e+00
 1.262664189196394e+00	 9.414372763490958e-01	 9.578197697042812e+00
 1.242987520365106e+00	 9.672678141012309e-01	 9.420299280818142e+00
 1.222756270424832e+00	 9.927195490757862e-01	 9.255237923810764e+00
 1.201981474702488e+00	 1.017774795548272e+00	 9.083071524832164e+00
 1.180674914571895e+00	 1.042416301715701e+00	 8.903878915132053e+00
 1.158849095796060e+00	 1.066627288772976e+00	 8.717759872188122e+00
 1.136517224427881e+00	 1.090391488668925e+00	 8.524835029281290e+00
 1.113693180365000e+00	 1.113693180365000e+00	 8.325245680311264e+00
 1.328730374051309e+00	 8.686954834951300e-01	 1.001788304919949e+01
 1.310633432975088e+00	 8.957657363065190e-01	 9.883715635689864e+00
 1.291948832222681e+00	 9.225098725178128e-01	 9.742345183179696e+00
 1.272685333552753e+00	 9.489090007665163e-01	 9.593748875361193e+00
 1.252852500683149e+00	 9.749445427867061e-01	 9.437924150082805e+00
 1.232460685267298e+00	 1.000598275657922e+00	 9.274889093370014e+00
 1.211521010214075e+00	 1.025852373292782e+00	 9.104682736250524e+00
 1.190045350400269e+00	 1.050689446969226e+00	 8.927365250895031e+00
 1.168046310840973e+00	 1.075092584717037e+00	 8.743018043353571e+00
 1.145537202399030e+00	 1.099045389373528e+00	 8.551743740976523e+00
 1.122532015130000e+00	 1.122532015130000e+00	 8.353666073447030e+00
 1.339192817940233e+00	 8.755356054129694e-01	 1.002888627547837e+01
 1.320953381264590e+00	 9.028190098218986e-01	 9.896714861360598e+00
 1.302121657671336e+00	 9.297737297833478e-01	 9.757350049528675e+00
 1.282706477909361e+00	 9.563807251839367e-01	 9.610750208176567e+00
 1.262717481001375e+00	 9.826212714721810e-01	 9.456893931390676e+00
 1.242165100109891e+00	 1.008477002240058e+00	 9.295780511515005e+00
 1.221060545725744e+00	 1.033929951037291e+00	 9.127430314804174e+00
 1.199415786228689e+00	 1.058962592222751e+00	 8.951885056352097e+00
 1.177243525885908e+00	 1.083557880661099e+00	 8.769207971048466e+00
 1.154557180370186e+00	 1.107699290078130e+00	 8.579483878122907e+00
 1.131370849895000e+00	 1.131370849895000e+00	 8.382819137680645e+00
 1.349655261829663e+00	 8.823757273308089e-01	 1.004161594162275e+01
 1.331273329554503e+00	 9.098722833372782e-01	 9.911337224461118e+00
 1.312294483120316e+00	 9.370375870488835e-01	 9.773874722523729e+00
 1.292727622266217e+00	 9.638524496013569e-01	 9.629168185511434e+00
 1.272582461319784e+00	 9.902980001576561e-01	 9.477177561877626e+00
 1.251869514952611e+00	 1.016355728822194e+00	 9.317883548842683e+00
 1.230600081237495e+00	 1.042007528781801e+00	 9.151288046170231e+00
 1.208786222057155e+00	 1.067235737476276e+00	 8.977414509174722e+00
 1.186440740930863e+00	 1.092023176605160e+00	 8.796308197188196e+00
 1.163577158341345e+00	 1.116353190782732e+00	 8.608036314522156e+00
 1.140209684660000e+00	 1.140209684660000e+00	 8.412688041809252e+00
 1.360117705719598e+00	 8.892158492486488e-01	 1.005603241906241e+01
 1.341593277844827e+00	 9.169255568526578e-01	 9.927545480459880e+00
 1.322467308569620e+00	 9.443014443144191e-01	 9.791884342163804e+00
 1.302748766623323e+00	 9.713241740187775e-01	 9.648970327833556e+00
 1.282447441638377e+00	 9.979747288431313e-01	 9.498744933839115e+00
 1.261573929795459e+00	 1.024234455404330e+00	 9.341170456245610e+00
 1.240139616749326e+00	 1.050085106526311e+00	 9.176230522024731e+00
 1.218156657885667e+00	 1.075508882729801e+00	 9.003930519448419e+00
 1.195637955975838e+00	 1.100488472549222e+00	 8.824297923372704e+00
 1.172597136312511e+00	 1.125007091487334e+00	 8.637382511927946e+00
 1.149048519425000e+00	 1.149048519425000e+00	 8.443256471985709e+00
 1.060660171775000e+00	 1.060660171775000e+00	 8.171122580966930e+00
 1.038468084441312e+00	 1.082397356601088e+00	 7.934588949433054e+00
 1.015835513108607e+00	 1.103665805527006e+00	 7.696408525496024e+00
 9.927774301945514e-01	 1.124452299602615e+00	 7.456938407531878e+00
 9.693093290812139e-01	 1.144744261634678e+00	 7.216538957564067e+00
 9.454471895829717e-01	 1.164529781372711e+00	 6.975572581032434e+00
 9.212074419883821e-01	 1.183797638460694e+00	 6.734402500756291e+00
 8.966069298445744e-01	 1.202537323063470e+00	 6.493391532612369e+00
 8.716628716590653e-01	 1.220739054091185e+00	 6.252900870385339e+00
 8.463928216988629e-01	 1.238393794960052e+00	 6.013288887112916e+00
 8.208146300702533e-01	 1.255493266842989e+00	 5.774909960043186e+00
 1.069499006540000e+00	 1.069499006540000e+00	 8.194761781770708e+00
 1.047121985145914e+00	 1.091417334572208e+00	 7.960652494107856e+00
 1.024300809052668e+00	 1.112863020571797e+00	 7.724800119644351e+00
 1.001050575448077e+00	 1.133822735430714e+00	 7.487546507905364e+00
 9.773869068257237e-01	 1.154283797145776e+00	 7.249237127174118e+00
 9.533259161651076e-01	 1.174234196214413e+00	 7.010219903893120e+00
 9.288841706738570e-01	 1.193662618777638e+00	 6.770844053905566e+00
 9.040786542619949e-01	 1.212558467418335e+00	 6.531458912693251e+00
 8.789267289246008e-01	 1.230911879537568e+00	 6.292412771727779e+00
 8.534460952142426e-01	 1.248713743246684e+00	 6.054051727945539e+00
 8.276547519880928e-01	 1.265955710728375e+00	 5.816718553182543e+00
 1.078337841305000e+00	 1.078337841305000e+00	 8.219246737627792e+00
 1.055775885850517e+00	 1.100437312543332e+00	 7.987462195390993e+00
 1.032766104996730e+00	 1.122060235616609e+00	 7.753839087206892e+00
 1.009323720701601e+00	 1.143193171258858e+00	 7.518704203088690e+00
 9.854644845702336e-01	 1.163823332656955e+00	 7.282388303954404e+00
 9.612046427472433e-01	 1.183938611056242e+00	 7.045225020006377e+00
 9.365608993593318e-01	 1.203527599094765e+00	 6.807549738617750e+00
 9.115503786794150e-01	 1.222579611773449e+00	 6.569698488520929e+00
 8.861905861901361e-01	 1.241084704984275e+00	 6.332006827078166e+00
 8.604993687296220e-01	 1.259033691533725e+00	 6.094808737335633e+00
 8.344948739059326e-01	 1.276418154614268e+00	 5.858435541419886e+00
 1.087176676070000e+00	 1.087176676070000e+00	 8.244557041500570e+00
 1.064429786555119e+00	 1.109457290514461e+00	 8.015000073410649e+00
 1.041231400940791e+00	 1.131257450661441e+00	 7.783509855339872e+00
 1.017596865955126e+00	 1.152563607087049e+00	 7.550398302505105e+00
 9.935420623147430e-01	 1.173362868168216e+00	 7.315981650283563e+00
 9.690833693293790e-01	 1.193643025898198e+00	 7.080579410932730e+00
 9.442376280448070e-01	 1.213392579412075e+00	 6.844513317504322e+00
 9.190221030968353e-01	 1.232600756128811e+00	 6.608106261388645e+00
 8.934544434556715e-01	 1.251257530431307e+00	 6.371681229937119e+00
 8.675526422450017e-01	 1.269353639821178e+00	 6.135560250559010e+00
 8.413349958237718e-01	 1.286880598500666e+00	 5.900063347575514e+00
 1.096015510835000e+00	 1.096015510835000e+00	 8.270672944090030e+00
 1.073083687259721e+00	 1.118477268485596e+00	 8.043248727759035e+00
 1.049696696884853e+00	 1.140454665706294e+00	 7.813797353039671e+00
 1.025870011208651e+00	 1.161934042915285e+00	 7.582616040593789e+00
 1.001619640059253e+00	 1.182902403679558e+00	 7.350006677678193e+00
 9.769620959115149e-01	 1.203347440740282e+00	 7.116274832583082e+00
 9.519143567302818e-01	 1.223257559729569e+00	 6.881728753970043e+00
 9.264938275142555e-01	 1.242621900484423e+00	 6.646678361192738e+00
 9.007183007212070e-01	 1.261430355878663e+00	 6.411434231717951e+00
 8.746059157603812e-01	 1.279673588109040e+00	 6.176306591740608e+00
 8.481751177416113e-01	 1.297343042387569e+00	 5.941604316004486e+00
 1.104854345600000e+00	 1.104854345600000e+00	 8.297575327526165e+00
 1.081737587964323e+00	 1.127497246456736e+00	 8.072191314313748e+00
 1.058161992828914e+00	 1.149651880751166e+00	 7.844686991069132e+00
 1.034143156462176e+00	 1.171304478743567e+00	 7.615345059809121e+00
 1.009697217803762e+00	 1.192441939190982e+00	 7.384453232827541e+00
 9.848408224936508e-01	 1.213051855582493e+00	 7.152303304244612e+00
 9.595910854157568e-01	 1.233122540047245e+00	 6.919190204181000e+00
 9.339655519316761e-01	 1.252643044840284e+00	 6.685411041288669e+00
 9.079821579867426e-01	 1.271603181326344e+00	 6.451264139430069e+00
 8.816591892757606e-01	 1.289993536397312e+00	 6.217048074300420e+00
 8.550152396594509e-01	 1.307805486274977e+00	 5.983060715735443e+00
 1.113693180365000e+00	 1.113693180365000e+00	 8.325245680311264e+00
 1.090391488668925e+00	 1.136517224427881e+00	 8.101811523163041e+00
 1.066627288772976e+00	 1.158849095796060e+00	 7.876164642839903e+00
 1.042416301715701e+00	 1.180674914571895e+00	 7.648573394429743e+00
 1.017774795548272e+00	 1.201981474702488e+00	 7.419311484292760e+00
 9.927195490757867e-01	 1.222756270424832e+00	 7.188657098129331e+00
 9.672678141012316e-01	 1.242987520365105e+00	 6.956892009415547e+00
 9.414372763490964e-01	 1.262664189196394e+00	 6.724300673591761e+00
 9.152460152522779e-01	 1.281776006774350e+00	 6.491169313472775e+00
 8.887124627911401e-01	 1.300313484685995e+00	 6.257785001378354e+00
 8.618553615772904e-01	 1.318267930162891e+00	 6.024434743459537e+00
 1.122532015130000e+00	 1.122532015130000e+00	 8.353666073447030e+00
 1.099045389373527e+00	 1.145537202399030e+00	 8.132093557573869e+00
 1.075092584717037e+00	 1.168046310840974e+00	 7.908216626197905e+00
 1.050689446969226e+00	 1.190045350400269e+00	 7.682289455132256e+00
 1.025852373292782e+00	 1.211521010214075e+00	 7.454571909834954e+00
 1.000598275657922e+00	 1.232460685267297e+00	 7.225328729416496e+00
 9.749445427867065e-01	 1.252852500683148e+00	 6.994828688776293e+00
 9.489090007665166e-01	 1.272685333552752e+00	 6.763343743909475e+00
 9.225098725178134e-01	 1.291948832222681e+00	 6.531148165533427e+00
 8.957657363065197e-01	 1.310633432975087e+00	 6.298517666238855e+00
 8.686954834951300e-01	 1.328730374051309e+00	 6.065728526378512e+00
 1.131370849895000e+00	 1.131370849895000e+00	 8.382819137680645e+00
 1.107699290078130e+00	 1.154557180370186e+00	 8.163022113945846e+00
 1.083557880661099e+00	 1.177243525885908e+00	 7.940829686062617e+00
 1.058962592222751e+00	 1.199415786228689e+00	 7.716482014288299e+00
 1.033929951037292e+00	 1.221060545725744e+00	 7.490225284336948e+00
 1.008477002240058e+00	 1.242165100109890e+00	 7.262310946761623e+00
 9.826212714721815e-01	 1.262717481001375e+00	 7.032994932243871e+00
 9.563807251839371e-01	 1.282706477909361e+00	 6.802536847492563e+00
 9.297737297833488e-01	 1.302121657671336e+00	 6.571199156583752e+00
 9.028190098218994e-01	 1.320953381264590e+00	 6.339246352656860e+00
 8.755356054129694e-01	 1.339192817940233e+00	 6.106944124919065e+00
 1.140209684660000e+00	 1.140209684660000e+00	 8.412688041809252e+00
 1.116353190782732e+00	 1.163577158341346e+00	 8.194582362697599e+00
 1.092023176605160e+00	 1.186440740930862e+00	 7.973990977873820e+00
 1.067235737476276e+00	 1.208786222057155e+00	 7.751140191945293e+00
 1.042007528781801e+00	 1.230600081237494e+00	 7.526262668287080e+00
 1.016355728822194e+00	 1.251869514952611e+00	 7.299596723247010e+00
 9.902980001576563e-01	 1.272582461319784e+00	 7.071385594053750e+00
 9.638524496013575e-01	 1.292727622266217e+00	 6.841876684793039e+00
 9.370375870488843e-01	 1.312294483120315e+00	 6.611320794969861e+00
 9.098722833372790e-01	 1.331273329554503e+00	 6.379971335285408e+00
 8.823757273308089e-01	 1.349655261829663e+00	 6.148083535321063e+00
 1.149048519425000e+00	 1.149048519425000e+00	 8.443256471985709e+00
 1.125007091487334e+00	 1.172597136312511e+00	 8.226759930035227e+00
 1.100488472549222e+00	 1.195637955975838e+00	 8.007688051802370e+00
 1.075508882729801e+00	 1.218156657885667e+00	 7.786253442454301e+00
 1.050085106526311e+00	 1.240139616749326e+00	 7.562675396794204e+00
 1.024234455404330e+00	 1.261573929795459e+00	 7.337179247750022e+00
 9.979747288431317e-01	 1.282447441638376e+00	 7.109995686378859e+00
 9.713241740187781e-01	 1.302748766623323e+00	 6.881360057417957e+00
 9.443014443144199e-01	 1.322467308569620e+00	 6.651511634590022e+00
 9.169255568526588e-01	 1.341593277844826e+00	 6.420692880006575e+00
 8.892158492486486e-01	 1.360117705719598e+00	 6.189148692106222e+00
 8.208146300702533e-01	 1.255493266842989e+00	 5.774909960043186e+00
 7.949464022641402e-01	 1.272029959379205e+00	 5.503224103729115e+00
 7.688064583548604e-01	 1.287997138826982e+00	 5.238027025747503e+00
 7.424132920367567e-01	 1.303388853659439e+00	 4.979731852418418e+00
 7.157855296803717e-01	 1.318199937618296e+00	 4.728728580382789e+00
 6.889418895898042e-01	 1.332426010254849e+00	 4.485383110697646e+00
 6.619011416355685e-01	 1.346063475001740e+00	 4.250036414734761e+00
 6.346820674319077e-01	 1.359109514832477e+00	 4.023003833916328e+00
 6.073034212204453e-01	 1.371562085578352e+00	 3.804574514234945e+00
 5.797838916139548e-01	 1.383419906984210e+00	 3.595010975443936e+00
 5.521420643450261e-01	 1.394682451595397e+00	 3.394548813776390e+00
 8.276547519880928e-01	 1.265955710728375e+00	 5.816718553182543e+00
 8.015709556162803e-01	 1.282630209035559e+00	 5.546615171410278e+00
 7.752131788405626e-01	 1.298730448312043e+00	 5.282877778529727e+00
 7.486000694693997e-01	 1.314250427434890e+00	 5.025912766059122e+00
 7.217504090930887e-01	 1.329184937093667e+00	 4.776103697652063e+00
 6.946830720015958e-01	 1.343529560335928e+00	 4.533810365653604e+00
 6.674169844810209e-01	 1.357280670622919e+00	 4.299367977607270e+00
 6.399710846590586e-01	 1.370435427452928e+00	 4.073086474647821e+00
 6.123642830626780e-01	 1.382991769622504e+00	 3.855249982646268e+00
 5.846154240430909e-01	 1.394948406207696e+00	 3.646116395929293e+00
 5.567432482139901e-01	 1.406304805358394e+00	 3.445917092387990e+00
 8.344948739059326e-01	 1.276418154614268e+00	 5.858435541419886e+00
 8.081955089684212e-01	 1.293230458692502e+00	 5.589853686461073e+00
 7.816198993262644e-01	 1.309463757797747e+00	 5.327515783466994e+00
 7.547868469020430e-01	 1.325112001211007e+00	 5.071821596424457e+00
 7.277152885058064e-01	 1.340169936569694e+00	 4.823148359856367e+00
 7.004242544133874e-01	 1.354633110417626e+00	 4.581849857530321e+00
 6.729328273264735e-01	 1.368497866244649e+00	 4.348255629288674e+00
 6.452601018862094e-01	 1.381761340073830e+00	 4.122670307837307e+00
 6.174251449049104e-01	 1.394421453666977e+00	 3.905373086279715e+00
 5.894469564722263e-01	 1.406476905431347e+00	 3.696617316156702e+00
 5.613444320829541e-01	 1.417927159121370e+00	 3.496630234761370e+00
 8.413349958237718e-01	 1.286880598500666e+00	 5.900063347575514e+00
 8.148200623205618e-01	 1.303830708350034e+00	 5.632943553460914e+00
 7.880266198119669e-01	 1.320197067284093e+00	 5.371946408264726e+00
 7.609736243346860e-01	 1.335973574987789e+00	 5.117465153097720e+00
 7.336801679185236e-01	 1.351154936046379e+00	 4.869870794678185e+00
 7.061654368251792e-01	 1.365736660499941e+00	 4.629511205891886e+00
 6.784486701719261e-01	 1.379715061866928e+00	 4.396710352666575e+00
 6.505491191133607e-01	 1.393087252695183e+00	 4.171767648902214e+00
 6.224860067471428e-01	 1.405851137711774e+00	 3.954957440164454e+00
 5.942784889013624e-01	 1.418005404655163e+00	 3.746528615839880e+00
 5.659456159519182e-01	 1.429549512884325e+00	 3.546704348479374e+00
 8.481751177416113e-01	 1.297343042387569e+00	 5.941604316004486e+00
 8.214446156727022e-01	 1.314430958008157e+00	 5.675888550751191e+00
 7.944333402976689e-01	 1.330930376771083e+00	 5.416174847218162e+00
 7.671604017673291e-01	 1.346835148765235e+00	 5.162850025765058e+00
 7.396450473312413e-01	 1.362139935523721e+00	 4.916278964182482e+00
 7.119066192369707e-01	 1.376840210582875e+00	 4.676803719809385e+00
 6.839645130173785e-01	 1.390932257489756e+00	 4.444742776180524e+00
 6.558381363405112e-01	 1.404413165316985e+00	 4.220390415849621e+00
 6.275468685893755e-01	 1.417280821756893e+00	 4.004016220017764e+00
 5.991100213304978e-01	 1.429533903879145e+00	 3.795864694604965e+00
 5.705467998208821e-01	 1.441171866647260e+00	 3.596155021447649e+00
 8.550152396594509e-01	 1.307805486274977e+00	 5.983060715735443e+00
 8.280691690248427e-01	 1.325031207666869e+00	 5.718692335484808e+00
 8.008400607833710e-01	 1.341663686258716e+00	 5.460206128148900e+00
 7.733471791999721e-01	 1.357696722543348e+00	 5.207982593011467e+00
 7.456099267439583e-01	 1.373124935001719e+00	 4.962380575441295e+00
 7.176478016487626e-01	 1.387943760666427e+00	 4.723736410280587e+00
 6.894803558628312e-01	 1.402149453113133e+00	 4.492363188000136e+00
 6.611271535676622e-01	 1.415739077939239e+00	 4.268550145172707e+00
 6.326077304316081e-01	 1.428710505802333e+00	 4.052562179817578e+00
 6.039415537596337e-01	 1.441062403103291e+00	 3.844639491193726e+00
 5.751479836898462e-01	 1.452794220410174e+00	 3.644997342681628e+00
 8.618553615772904e-01	 1.318267930162891e+00	 6.024434743459537e+00
 8.346937223769834e-01	 1.335631457326171e+00	 5.761358448435209e+00
 8.072467812690728e-01	 1.352396995746991e+00	 5.504045119010939e+00
 7.795339566326152e-01	 1.368558296322125e+00	 5.252869030697631e+00
 7.515748061566757e-01	 1.384109934480375e+00	 5.008183090652444e+00
 7.233889840605542e-01	 1.399047310750597e+00	 4.770318002058319e+00
 6.949961987082838e-01	 1.413366648737060e+00	 4.539581549527732e+00
 6.664161707948132e-01	 1.427064990561942e+00	 4.316258006989999e+00
 6.376685922738407e-01	 1.440140189848097e+00	 4.100607668537968e+00
 6.087730861887695e-01	 1.452590902327603e+00	 3.892866501752705e+00
 5.797491675588102e-01	 1.464416574173068e+00	 3.693245922103952e+00
 8.686954834951300e-01	 1.328730374051309e+00	 6.065728526378512e+00
 8.413182757291239e-01	 1.346231706986062e+00	 5.803890318578357e+00
 8.136535017547751e-01	 1.363130305235910e+00	 5.547696534184714e+00
 7.857207340652586e-01	 1.379419870101568e+00	 5.297515319941373e+00
 7.575396855693932e-01	 1.395094933959687e+00	 5.053693736780394e+00
 7.291301664723457e-01	 1.410150860835385e+00	 4.816556944919800e+00
 7.005120415537363e-01	 1.424583844361535e+00	 4.586407508263258e+00
 6.717051880219642e-01	 1.438390903185097e+00	 4.363524819469863e+00
 6.427294541160733e-01	 1.451569873894183e+00	 4.148164646094367e+00
 6.136046186179049e-01	 1.464119401552080e+00	 3.940558797258193e+00
 5.843503514277741e-01	 1.476038927935941e+00	 3.740914909406166e+00
 8.755356054129694e-01	 1.339192817940233e+00	 6.106944124919065e+00
 8.479428290812644e-01	 1.356831956646543e+00	 5.846291267459661e+00
 8.200602222404771e-01	 1.373863614725471e+00	 5.591164940476109e+00
 7.919075114979014e-01	 1.390281443881676e+00	 5.341927254724732e+00
 7.635045649821107e-01	 1.406079933439657e+00	 5.098919514745013e+00
 7.348713488841375e-01	 1.421254410920791e+00	 4.862461424408116e+00
 7.060278843991887e-01	 1.435801039986560e+00	 4.632850410066071e+00
 6.769942052491154e-01	 1.449716815808702e+00	 4.410361062578176e+00
 6.477903159583056e-01	 1.462999557940591e+00	 4.195244698541126e+00
 6.184361510470409e-01	 1.475647900776722e+00	 3.987729040124557e+00
 5.889515352967382e-01	 1.487661281698794e+00	 3.788018012026677e+00
 8.823757273308089e-01	 1.349655261829663e+00	 6.148083535321063e+00
 8.545673824334050e-01	 1.367432206307614e+00	 5.888564513358089e+00
 8.264669427261790e-01	 1.384596924215675e+00	 5.634454762836246e+00
 7.980942889305445e-01	 1.401143017662449e+00	 5.386110449147306e+00
 7.694694443948279e-01	 1.417064932920282e+00	 5.143867208182868e+00
 7.406125312959290e-01	 1.432357961006815e+00	 4.908039372073601e+00
 7.115437272446413e-01	 1.447018235612134e+00	 4.678919310846434e+00
 6.822832224762662e-01	 1.461042728432757e+00	 4.456776891187378e+00
 6.528511778005384e-01	 1.474429241987322e+00	 4.241859052562194e+00
 6.232676834761766e-01	 1.487176400001529e+00	 4.034389500039846e+00
 5.935527191657022e-01	 1.499283635461626e+00	 3.834568512292175e+00
 8.892158492486486e-01	 1.360117705719598e+00	 6.189148692106222e+00
 8.611919357855461e-01	 1.378032455969275e+00	 5.930713175257896e+00
 8.328736632118816e-01	 1.395330233706523e+00	 5.677570289817601e+00
 8.042810663631879e-01	 1.412004591443889e+00	 5.430070344344696e+00
 7.754343238075456e-01	 1.428049932401566e+00	 5.188543391804417e+00
 7.463537137077207e-01	 1.443461511093458e+00	 4.953298475242942e+00
 7.170595700900940e-01	 1.458235431238257e+00	 4.724622987717467e+00
 6.875722397034173e-01	 1.472368641057263e+00	 4.502782147579769e+00
 6.579120396427711e-01	 1.485858926034374e+00	 4.288018589293126e+00
 6.280992159053126e-01	 1.498704899226502e+00	 4.080552069070716e+00
 5.981539030346663e-01	 1.510905989224438e+00	 3.880579283768306e+00
 5.521420643450261e-01	 1.394682451595397e+00	 3.394548813776390e+00
 5.243963861554752e-01	 1.405349931578255e+00	 3.165486527044675e+00
 4.965651299484972e-01	 1.415423283584646e+00	 2.949951124799785e+00
 4.686663613186524e-01	 1.424904151779574e+00	 2.748139779040637e+00
 4.407179065634718e-01	 1.433794869157430e+00	 2.560210420166136e+00
 4.127373222644204e-01	 1.442098437276991e+00	 2.386282292327290e+00
 3.847418665163297e-01	 1.449818504550261e+00	 2.226436666575723e+00
 3.567484718715399e-01	 1.456959343223164e+00	 2.080717701630507e+00
 3.287737200529779e-01	 1.463525825188096e+00	 1.949133441429044e+00
 3.008338184785227e-01	 1.469523396769290e+00	 1.831656938104092e+00
 2.729445786273588e-01	 1.474958052621828e+00	 1.728227488633071e+00
 5.567432482139901e-01	 1.406304805358394e+00	 3.445917092387990e+00
 5.287663560399445e-01	 1.417061181008836e+00	 3.217628287010604e+00
 5.007031726982477e-01	 1.427218477616163e+00	 3.002807976523738e+00
 4.725719143300822e-01	 1.436778353046758e+00	 2.801653374125225e+00
 4.443905557854591e-01	 1.445743159736631e+00	 2.614322320673133e+00
 4.161767999506898e-01	 1.454115924257551e+00	 2.440933848692875e+00
 3.879480487380641e-01	 1.461900325424960e+00	 2.281568904734558e+00
 3.597213758045257e-01	 1.469100671086833e+00	 2.136271219805582e+00
 3.315135010540280e-01	 1.475721873734670e+00	 2.005048316951840e+00
 3.033407669662659e-01	 1.481769425078743e+00	 1.887872644534333e+00
 2.752191167827523e-01	 1.487249369729599e+00	 1.784682823357753e+00
 5.613444320829541e-01	 1.417927159121370e+00	 3.496630234761370e+00
 5.331363259244141e-01	 1.428772430439212e+00	 3.269098597996932e+00
 5.048412154479984e-01	 1.439013671647323e+00	 3.054976650506112e+00
 4.764774673415119e-01	 1.448652554313463e+00	 2.854461681524375e+00
 4.480632050074462e-01	 1.457691450315262e+00	 2.667711477414906e+00
 4.196162776369592e-01	 1.466133411237483e+00	 2.494844894209678e+00
 3.911542309597985e-01	 1.473982146299001e+00	 2.335942589056101e+00
 3.626942797375119e-01	 1.481241998949842e+00	 2.191047900202086e+00
 3.342532820550780e-01	 1.487917922280614e+00	 2.060167864496601e+00
 3.058477154540093e-01	 1.494015453387626e+00	 1.943274360861434e+00
 2.774936549381459e-01	 1.499540686836884e+00	 1.840305367799406e+00
 5.659456159519182e-01	 1.429549512884325e+00	 3.546704348479374e+00
 5.375062958088834e-01	 1.440483679869384e+00	 3.319913958068975e+00
 5.089792581977491e-01	 1.450808865678127e+00	 3.106474045216717e+00
 4.803830203529417e-01	 1.460526755579689e+00	 2.906582009194423e+00
 4.517358542294334e-01	 1.469639740893325e+00	 2.720395616072806e+00
 4.230557553232287e-01	 1.478150898216786e+00	 2.548033579676480e+00
 3.943604131815328e-01	 1.486063967172383e+00	 2.389576302005355e+00
 3.656671836704979e-01	 1.493383326812194e+00	 2.245066762659745e+00
 3.369930630561280e-01	 1.500113970825930e+00	 2.114511546153392e+00
 3.083546639417524e-01	 1.506261481695937e+00	 1.997881995477637e+00
 2.797681930935394e-01	 1.511832003943683e+00	 1.895115479891628e+00
 5.705467998208821e-01	 1.441171866647260e+00	 3.596155021447649e+00
 5.418762656933529e-01	 1.452194929299350e+00	 3.370090333036603e+00
 5.131173009474997e-01	 1.462604059708573e+00	 3.157316513970249e+00
 4.842885733643716e-01	 1.472400956845438e+00	 2.958031106743079e+00
 4.554085034514207e-01	 1.481588031470819e+00	 2.772391890518300e+00
 4.264952330094980e-01	 1.490168385195461e+00	 2.600517470381329e+00
 3.975665954032672e-01	 1.498145788045108e+00	 2.442488026622696e+00
 3.686400876034840e-01	 1.505524654673887e+00	 2.298346213494293e+00
 3.397328440571781e-01	 1.512310019370616e+00	 2.168098196229931e+00
 3.108616124294957e-01	 1.518507510003677e+00	 2.051714814602009e+00
 2.820427312489330e-01	 1.524123321049998e+00	 1.949132860898621e+00
 5.751479836898462e-01	 1.452794220410174e+00	 3.644997342681628e+00
 5.462462355778224e-01	 1.463906178729113e+00	 3.419643177744461e+00
 5.172553436972506e-01	 1.474399253738663e+00	 3.207519886732734e+00
 4.881941263758014e-01	 1.484275158110708e+00	 3.008825187763051e+00
 4.590811526734078e-01	 1.493536322047745e+00	 2.823716905685342e+00
 4.299347106957674e-01	 1.502185872173508e+00	 2.652313569521817e+00
 4.007727776250016e-01	 1.510227608917174e+00	 2.494695170500950e+00
 3.716129915364700e-01	 1.517665982534923e+00	 2.350904070038380e+00
 3.424726250582280e-01	 1.524506067914673e+00	 2.220946046363028e+00
 3.133685609172390e-01	 1.530753538310846e+00	 2.104791467967920e+00
 2.843172694043264e-01	 1.536414638155826e+00	 2.002376581681824e+00
 5.797491675588102e-01	 1.464416574173068e+00	 3.693245922103952e+00
 5.506162054622918e-01	 1.475617428158671e+00	 3.468587456348445e+00
 5.213933864470012e-01	 1.486194447768394e+00	 3.257099490889294e+00
 4.920996793872311e-01	 1.496149359375500e+00	 3.058979951102599e+00
 4.627538018953951e-01	 1.505484612624103e+00	 2.874386739353656e+00
 4.333741883820368e-01	 1.514203359150925e+00	 2.703438340510271e+00
 4.039789598467358e-01	 1.522309429788582e+00	 2.546214588620441e+00
 3.745858954694560e-01	 1.529807310395299e+00	 2.402757584013987e+00
 3.452124060592781e-01	 1.536702116458102e+00	 2.273072749433890e+00
 3.158755094049823e-01	 1.542999566617443e+00	 2.157130013286379e+00
 2.865918075597200e-01	 1.548705955261170e+00	 2.054865107715928e+00
 5.843503514277741e-01	 1.476038927935941e+00	 3.740914909406166e+00
 5.549861753467613e-01	 1.487328677588024e+00	 3.516937661634089e+00
 5.255314291967518e-01	 1.497989641797769e+00	 3.306070171030649e+00
 4.960052323986610e-01	 1.508023560639814e+00	 3.108510601131092e+00
 4.664264511173823e-01	 1.517432903199891e+00	 2.924416962902848e+00
 4.368136660683061e-01	 1.526220846127715e+00	 2.753907728225119e+00
 4.071851420684702e-01	 1.534391250659332e+00	 2.597062605105539e+00
 3.775587994024420e-01	 1.541948638255018e+00	 2.453923463800392e+00
 3.479521870603281e-01	 1.548898165000901e+00	 2.324495402353976e+00
 3.183824578927254e-01	 1.555245594923469e+00	 2.208747939554213e+00
 2.888663457151135e-01	 1.560997272366028e+00	 2.106616322922971e+00
 5.889515352967382e-01	 1.487661281698794e+00	 3.788018012026677e+00
 5.593561452312308e-01	 1.499039927017173e+00	 3.564707833429503e+00
 5.296694719465024e-01	 1.509784835826787e+00	 3.354446307812433e+00
 4.999107854100908e-01	 1.519897761903649e+00	 3.157431867054542e+00
 4.700991003393695e-01	 1.529381193775111e+00	 2.973822661093510e+00
 4.402531437545756e-01	 1.538238333103876e+00	 2.803737179266268e+00
 4.103913242902046e-01	 1.546473071529423e+00	 2.647255033961226e+00
 3.805317033354282e-01	 1.554089966114078e+00	 2.504417895658777e+00
 3.506919680613781e-01	 1.561094213543070e+00	 2.375230567782401e+00
 3.208894063804688e-01	 1.567491623228924e+00	 2.259662189269436e+00
 2.911408838705071e-01	 1.573288589470401e+00	 2.157647552389345e+00
 5.935527191657022e-01	 1.499283635461626e+00	 3.834568512292175e+00
 5.637261151157001e-01	 1.510751176446117e+00	 3.611911576161801e+00
 5.338075146962531e-01	 1.521580029855448e+00	 3.402241835937160e+00
 5.038163384215206e-01	 1.531771963167005e+00	 3.205758021332862e+00
 4.737717495613566e-01	 1.541329484349762e+00	 3.022618450928701e+00
 4.436926214408450e-01	 1.550255820079409e+00	 2.852941661267968e+00
 4.135975065119389e-01	 1.558554892398857e+00	 2.696807198845065e+00
 3.835046072684140e-01	 1.566231293972480e+00	 2.554256563969006e+00
 3.534317490624282e-01	 1.573290262084611e+00	 2.425294294833551e+00
 3.233963548682120e-01	 1.579737651533807e+00	 2.309889179613213e+00
 2.934154220259006e-01	 1.585579906574289e+00	 2.207975584025961e+00
 5.981539030346663e-01	 1.510905989224438e+00	 3.880579283768306e+00
 5.680960850001699e-01	 1.522462425874857e+00	 3.658562075603363e+00
 5.379455574460040e-01	 1.533375223883753e+00	 3.449470261306085e+00
 5.077218914329504e-01	 1.543646164429884e+00	 3.253502897246835e+00
 4.774443987833440e-01	 1.553277774923845e+00	 3.070818499644361e+00
 4.471320991271144e-01	 1.562273307054313e+00	 2.901535681320741e+00
 4.168036887336734e-01	 1.570636713267633e+00	 2.745733951926755e+00
 3.864775112014002e-01	 1.578372621830225e+00	 2.603454670533110e+00
 3.561715300634782e-01	 1.585486310625523e+00	 2.474702138828609e+00
 3.259033033559552e-01	 1.591983679838119e+00	 2.359444822654623e+00
 2.956899601812942e-01	 1.597871223677692e+00	 2.257616689228922e+00
 2.729445786273588e-01	 1.474958052621828e+00	 1.728227488633071e+00
 2.451213962665869e-01	 1.479836308883957e+00	 1.607103853842905e+00
 2.173792335500309e-01	 1.484165175720690e+00	 1.500781133021544e+00
 1.897326029848293e-01	 1.487952129393421e+00	 1.409149979860475e+00
 1.621955532518215e-01	 1.491205083986602e+00	 1.332070415405621e+00
 1.347816568620313e-01	 1.493932362918601e+00	 1.269373389290330e+00
 1.075039996182768e-01	 1.496142670358577e+00	 1.220862396707797e+00
 8.037517184413129e-02	 1.497845062665731e+00	 1.186315139454933e+00
 5.340726133517893e-02	 1.499048919961328e+00	 1.165485219736799e+00
 2.661184798093990e-02	 1.499763917937484e+00	 1.158103855849882e+00
 0.000000000000000e+00	 1.500000000000000e+00	 1.163881609356411e+00
 2.752191167827523e-01	 1.487249369729599e+00	 1.784682823357753e+00
 2.471640745687116e-01	 1.492168278126741e+00	 1.664108342234325e+00
 2.191907271626458e-01	 1.496533218853332e+00	 1.558298942525641e+00
 1.913137080092519e-01	 1.500351730472944e+00	 1.467144747109478e+00
 1.635471828617090e-01	 1.503631793020732e+00	 1.390505106181826e+00
 1.359048373352982e-01	 1.506381799276883e+00	 1.328210172059444e+00
 1.083998662811933e-01	 1.508610525945297e+00	 1.280062529795247e+00
 8.104496494232989e-02	 1.510327104854834e+00	 1.245838871840897e+00
 5.385232184592077e-02	 1.511540994294438e+00	 1.225291705353916e+00
 2.683361338056428e-02	 1.512261950586988e+00	 1.218151081181375e+00
 0.000000000000000e+00	 1.512500000000000e+00	 1.224126334055127e+00
 2.774936549381459e-01	 1.499540686836884e+00	 1.840305367799406e+00
 2.492067528708362e-01	 1.504500247369135e+00	 1.720266720943325e+00
 2.210022207752605e-01	 1.508901261985668e+00	 1.614956747696729e+00
 1.928948130336745e-01	 1.512751331552235e+00	 1.524265072978371e+00
 1.648988124715964e-01	 1.516058502054692e+00	 1.448050409289551e+00
 1.370280178085651e-01	 1.518831235635048e+00	 1.386142144971268e+00
 1.092957329441099e-01	 1.521078381531942e+00	 1.338341988352108e+00
 8.171475804052857e-02	 1.522809147043897e+00	 1.304425655923691e+00
 5.429738235666262e-02	 1.524033068627529e+00	 1.284144593048651e+00
 2.705537878018867e-02	 1.524759983236486e+00	 1.277227716149070e+00
 0.000000000000000e+00	 1.525000000000000e+00	 1.283383165831815e+00
 2.797681930935394e-01	 1.511832003943683e+00	 1.895115479891628e+00
 2.512494311729608e-01	 1.516832216611136e+00	 1.775599663654479e+00
 2.228137143878753e-01	 1.521269305117696e+00	 1.670775551902004e+00
 1.944759180580971e-01	 1.525150932631291e+00	 1.580532303662362e+00
 1.662504420814838e-01	 1.528485211088482e+00	 1.504728026103800e+00
 1.381511982818319e-01	 1.531280671993094e+00	 1.443191376134257e+00
 1.101915996070264e-01	 1.533546237118513e+00	 1.395723217974225e+00
 8.238455113872716e-02	 1.535291189232917e+00	 1.362098324741175e+00
 5.474244286740446e-02	 1.536525142960601e+00	 1.342067112459752e+00
 2.727714417981305e-02	 1.537258015885981e+00	 1.335357395361122e+00
 0.000000000000000e+00	 1.537500000000000e+00	 1.341676151849362e+00
 2.820427312489330e-01	 1.524123321049998e+00	 1.949132860898621e+00
 2.532921094750855e-01	 1.529164185852748e+00	 1.830127177200332e+00
 2.246252080004902e-01	 1.533637348249418e+00	 1.725775681023346e+00
 1.960570230825197e-01	 1.537550533710115e+00	 1.635967096812405e+00
 1.676020716913713e-01	 1.540911920122102e+00	 1.560558957996155e+00
 1.392743787550988e-01	 1.543730108351024e+00	 1.499379221820139e+00
 1.110874662699430e-01	 1.546014092705009e+00	 1.452227940238897e+00
 8.305434423692580e-02	 1.547773231421895e+00	 1.418878974808420e+00
 5.518750337814630e-02	 1.549017217293655e+00	 1.399081743902114e+00
 2.749890957943743e-02	 1.549756048535470e+00	 1.392562991029136e+00
 0.000000000000000e+00	 1.550000000000000e+00	 1.399028563555721e+00
 2.843172694043264e-01	 1.536414638155826e+00	 2.002376581681824e+00
 2.553347877772101e-01	 1.541496155093969e+00	 1.883868628235631e+00
 2.264367016131050e-01	 1.546005391380833e+00	 1.779976810556633e+00
 1.976381281069424e-01	 1.549950134788705e+00	 1.690589449076692e+00
 1.689537013012588e-01	 1.553338629155550e+00	 1.615563534334916e+00
 1.403975592283656e-01	 1.556179544708835e+00	 1.554726354937401e+00
 1.119833329328596e-01	 1.558481948291430e+00	 1.507877181665807e+00
 8.372413733512445e-02	 1.560255273610832e+00	 1.474788995578764e+00
 5.563256388888813e-02	 1.561509291626691e+00	 1.455210248339620e+00
 2.772067497906182e-02	 1.562254081184955e+00	 1.448866643464194e+00
 0.000000000000000e+00	 1.562500000000000e+00	 1.455462927712561e+00
 2.865918075597200e-01	 1.548705955261170e+00	 2.054865107715928e+00
 2.573774660793346e-01	 1.553828124334798e+00	 1.936842768641193e+00
 2.282481952257197e-01	 1.558373434511941e+00	 1.833397991420891e+00
 1.992192331313650e-01	 1.562349735867061e+00	 1.744418722331134e+00
 1.703053309111463e-01	 1.565765338188829e+00	 1.669761439151814e+00
 1.415207397016324e-01	 1.568628981066530e+00	 1.609252792148846e+00
 1.128791995957761e-01	 1.570949803877776e+00	 1.562691301298488e+00
 8.439393043332308e-02	 1.572737315799727e+00	 1.529849097501699e+00
 5.607762439962997e-02	 1.574001365959708e+00	 1.510473695930963e+00
 2.794244037868620e-02	 1.574752113834436e+00	 1.504289790120595e+00
 0.000000000000000e+00	 1.575000000000000e+00	 1.511001055946226e+00
 2.888663457151135e-01	 1.560997272366028e+00	 2.106616322922971e+00
 2.594201443814593e-01	 1.566160093575237e+00	 1.989067759727526e+00
 2.300596888383345e-01	 1.570741477642742e+00	 1.886057674547666e+00
 2.008003381557876e-01	 1.574749336945183e+00	 1.797473668670229e+00
 1.716569605210337e-01	 1.578192047221936e+00	 1.723171736548980e+00
 1.426439201748993e-01	 1.581078417424107e+00	 1.662977919708034e+00
 1.137750662586927e-01	 1.583417659464048e+00	 1.616690016983124e+00
 8.506372353152170e-02	 1.585219357988580e+00	 1.584079338755278e+00
 5.652268491037181e-02	 1.586493440292707e+00	 1.564892493226576e+00
 2.816420577831059e-02	 1.587250146483912e+00	 1.558853193267275e+00
 0.000000000000000e+00	 1.587500000000000e+00	 1.565664072902712e+00
 2.911408838705071e-01	 1.573288589470401e+00	 2.157647552389345e+00
 2.614628226835839e-01	 1.578492062815286e+00	 2.040561195304028e+00
 2.318711824509493e-01	 1.583109520773236e+00	 1.937973734318368e+00
 2.023814431802102e-01	 1.587148938023073e+00	 1.849772454226844e+00
 1.730085901309212e-01	 1.590618756254874e+00	 1.775812894915184e+00
 1.437671006481662e-01	 1.593527853781566e+00	 1.715920518084526e+00
 1.146709329216093e-01	 1.595885515050245e+00	 1.669892430415182e+00
 8.573351662972034e-02	 1.597701400177391e+00	 1.637499150725646e+00
 5.696774542111365e-02	 1.598985514625687e+00	 1.618486409090873e+00
 2.838597117793497e-02	 1.599748179133383e+00	 1.612576966362140e+00
 0.000000000000000e+00	 1.600000000000000e+00	 1.619472443082818e+00
 2.934154220259006e-01	 1.585579906574289e+00	 2.207975584025961e+00
 2.635055009857086e-01	 1.590824032054943e+00	 2.091340123675177e+00
 2.336826760635642e-01	 1.595477563903424e+00	 1.989163490910817e+00
 2.039625482046329e-01	 1.599548539100729e+00	 1.901332681883783e+00
 1.743602197408086e-01	 1.603045465287642e+00	 1.827702810015066e+00
 1.448902811214330e-01	 1.605977290138907e+00	 1.768098785444324e+00
 1.155667995845258e-01	 1.608353370636367e+00	 1.722317051021246e+00
 8.640330972791899e-02	 1.610183442366161e+00	 1.690127362301157e+00
 5.741280593185549e-02	 1.611477588958649e+00	 1.671274599418782e+00
 2.860773657755936e-02	 1.612246211782850e+00	 1.665480599200101e+00
 0.000000000000000e+00	 1.612500000000000e+00	 1.672445996429191e+00
 2.956899601812942e-01	 1.597871223677692e+00	 2.257616689228922e+00
 2.655481792878332e-01	 1.603156001294210e+00	 2.141421068621395e+00
 2.354941696761790e-01	 1.607845607033304e+00	 2.039643731615139e+00
 2.055436532290555e-01	 1.611948140178152e+00	 1.952171412937245e+00
 1.757118493506961e-01	 1.615472174320239e+00	 1.878858827013442e+00
 1.460134615946999e-01	 1.618426726496131e+00	 1.819530360045544e+00
 1.164626662474424e-01	 1.620821226222415e+00	 1.773981818738574e+00
 8.707310282611763e-02	 1.622665484554889e+00	 1.741982223045358e+00
 5.785786644259734e-02	 1.623969663291593e+00	 1.723275630711558e+00
 2.882950197718375e-02	 1.624744244432313e+00	 1.717582981899781e+00
 0.000000000000000e+00	 1.625000000000000e+00	 1.724603952732396e+00
 1.625000000000000e+00	 0.000000000000000e+00	 1.130244927884345e+01
 1.624744244432312e+00	 2.882950197718282e-02	 1.131973278882542e+01
 1.623969663291593e+00	 5.785786644259652e-02	 1.133187194405733e+01
 1.622665484554890e+00	 8.707310282611692e-02	 1.133864970662033e+01
 1.620821226222414e+00	 1.164626662474418e-01	 1.133985447207415e+01
 1.618426726496131e+00	 1.460134615946994e-01	 1.133528104206053e+01
 1.615472174320238e+00	 1.757118493506957e-01	 1.132473161861194e+01
 1.611948140178151e+00	 2.055436532290552e-01	 1.130801681562903e+01
 1.607845607033305e+00	 2.354941696761788e-01	 1.128495668256978e+01
 1.603156001294210e+00	 2.655481792878331e-01	 1.125538173499098e+01
 1.597871223677692e+00	 2.956899601812942e-01	 1.121913398619966e+01
 1.637500000000000e+00	 0.000000000000000e+00	 1.127772822696681e+01
 1.637242277081775e+00	 2.905126737680721e-02	 1.129451543311253e+01
 1.636461737624536e+00	 5.830292695333835e-02	 1.130633550859872e+01
 1.635147526743617e+00	 8.774289592431556e-02	 1.131297195874774e+01
 1.633289081808462e+00	 1.173585329103583e-01	 1.131421340195069e+01
 1.630876162853355e+00	 1.471366420679662e-01	 1.130985453250637e+01
 1.627898883352835e+00	 1.770634789605832e-01	 1.129969710617062e+01
 1.624347741255574e+00	 2.071247582534779e-01	 1.128355094397679e+01
 1.620213650163185e+00	 2.373056632887935e-01	 1.126123494946637e+01
 1.615487970533477e+00	 2.675908575899578e-01	 1.123257813406161e+01
 1.610162540781094e+00	 2.979644983366877e-01	 1.119742064492603e+01
 1.650000000000000e+00	 0.000000000000000e+00	 1.125584426559448e+01
 1.649740309731242e+00	 2.927303277643158e-02	 1.127211557423897e+01
 1.648953811957498e+00	 5.874798746408018e-02	 1.128359574592467e+01
 1.647629568932387e+00	 8.841268902251417e-02	 1.129006883463305e+01
 1.645756937394584e+00	 1.182543995732749e-01	 1.129132368988738e+01
 1.643325599210696e+00	 1.482598225412330e-01	 1.128715490992002e+01
 1.640325592385603e+00	 1.784151085704706e-01	 1.127736381854675e+01
 1.636747342333229e+00	 2.087058632779004e-01	 1.126175946140579e+01
 1.632581693293372e+00	 2.391171569014083e-01	 1.124015961679480e+01
 1.627819939773135e+00	 2.696335358920823e-01	 1.121239181592918e+01
 1.622453857884982e+00	 3.002390364920812e-01	 1.117829436705367e+01
 1.662500000000000e+00	 0.000000000000000e+00	 1.123673355495509e+01
 1.662238342380713e+00	 2.949479817605596e-02	 1.125246981712362e+01
 1.661445886290478e+00	 5.919304797482201e-02	 1.126358973333994e+01
 1.660111611121198e+00	 8.908248212071281e-02	 1.126987791153949e+01
 1.658224792980781e+00	 1.191502662361914e-01	 1.127112344049042e+01
 1.655775035568156e+00	 1.493830030144999e-01	 1.126712083337991e+01
 1.652752301418540e+00	 1.797667381803581e-01	 1.125767099609614e+01
 1.649146943411119e+00	 2.102869683023231e-01	 1.124258221595922e+01
 1.644949736423866e+00	 2.409286505140231e-01	 1.122167116622852e+01
 1.640151909013183e+00	 2.716762141942070e-01	 1.119476392129936e+01
 1.634745174989355e+00	 3.025135746474747e-01	 1.116169697710725e+01
 1.675000000000000e+00	 0.000000000000000e+00	 1.122033416094208e+01
 1.674736375030189e+00	 2.971656357568033e-02	 1.123551665904016e+01
 1.673937960623477e+00	 5.963810848556386e-02	 1.124625642636753e+01
 1.672593653310052e+00	 8.975227521891144e-02	 1.125233862998916e+01
 1.670692648567052e+00	 1.200461328991080e-01	 1.125355260584845e+01
 1.668224471925732e+00	 1.505061834877667e-01	 1.124969279286125e+01
 1.665179010451648e+00	 1.811183677902456e-01	 1.124055969268598e+01
 1.661546544489242e+00	 2.118680733267457e-01	 1.122596085101863e+01
 1.657317779554668e+00	 2.427401441266379e-01	 1.120571185583252e+01
 1.652483878253622e+00	 2.737188924963316e-01	 1.117963734756528e+01
 1.647036492094213e+00	 3.047881128028683e-01	 1.114757203585586e+01
 1.687500000000000e+00	 0.000000000000000e+00	 1.120658598453354e+01
 1.687234407679670e+00	 2.993832897530471e-02	 1.122119641952985e+01
 1.686430034956494e+00	 6.008316899630568e-02	 1.123153658918508e+01
 1.685075695498947e+00	 9.042206831711005e-02	 1.123739222475355e+01
 1.683160504153399e+00	 1.209419995620246e-01	 1.123855291710743e+01
 1.680673908283426e+00	 1.516293639610336e-01	 1.123481304142497e+01
 1.677605719484926e+00	 1.824699974001330e-01	 1.122597270852772e+01
 1.673946145567598e+00	 2.134491783511683e-01	 1.121183873880985e+01
 1.669685822685775e+00	 2.445516377392527e-01	 1.119222565427118e+01
 1.664815847494452e+00	 2.757615707984562e-01	 1.116695668374505e+01
 1.659327809199556e+00	 3.070626509582619e-01	 1.113586477600762e+01
 1.700000000000000e+00	 0.000000000000000e+00	 1.119543069432586e+01
 1.699732440329154e+00	 3.016009437492909e-02	 1.120945117340644e+01
 1.698922109289530e+00	 6.052822950704752e-02	 1.121937272813016e+01
 1.697557737687883e+00	 9.109186141530867e-02	 1.122498165888837e+01
 1.695628359739820e+00	 1.218378662249411e-01	 1.122606781906397e+01
 1.693123344641237e+00	 1.527525444343004e-01	 1.122242553039843e+01
 1.690032428518375e+00	 1.838216270100204e-01	 1.121385452597331e+01
 1.686345746646188e+00	 2.150302833755909e-01	 1.120016091684257e+01
 1.682053865817190e+00	 2.463631313518675e-01	 1.118115817791849e+01
 1.677147816735672e+00	 2.778042491005809e-01	 1.115666814828970e+01
 1.671619126305386e+00	 3.093371891136554e-01	 1.112652204074140e+01
 1.712500000000000e+00	 0.000000000000000e+00	 1.118681166202206e+01
 1.712230472978644e+00	 3.038185977455347e-02	 1.120022468669508e+01
 1.711414183622584e+00	 6.097329001778935e-02	 1.120970902811783e+01
 1.710039779876862e+00	 9.176165451350732e-02	 1.121505156065760e+01
 1.708096215326316e+00	 1.227337328878577e-01	 1.121604240762343e+01
 1.705572780999167e+00	 1.538757249075673e-01	 1.121247584739488e+01
 1.702459137551995e+00	 1.851732566199080e-01	 1.120415124812314e+01
 1.698745347725011e+00	 2.166113884000136e-01	 1.119087402713359e+01
 1.694421908948913e+00	 2.481746249644823e-01	 1.117245663072273e+01
 1.689479785977284e+00	 2.798469274027054e-01	 1.114871952961477e+01
 1.683910443411700e+00	 3.116117272690490e-01	 1.111949222493045e+01
 1.725000000000000e+00	 0.000000000000000e+00	 1.118067390072511e+01
 1.724728505628139e+00	 3.060362517417785e-02	 1.119346235535658e+01
 1.723906257955657e+00	 6.141835052853120e-02	 1.120249129182263e+01
 1.722521822065882e+00	 9.243144761170595e-02	 1.120754816319976e+01
 1.720564070912886e+00	 1.236295995507742e-01	 1.120842336997711e+01
 1.718022217357214e+00	 1.549989053808341e-01	 1.120491115702774e+01
 1.714885846585785e+00	 1.865248862297954e-01	 1.119681054010329e+01
 1.711144948804068e+00	 2.181924934244362e-01	 1.118392625807243e+01
 1.706789952080941e+00	 2.499861185770972e-01	 1.116606974668561e+01
 1.701811755219286e+00	 2.818896057048301e-01	 1.114306012921760e+01
 1.696201760518499e+00	 3.138862654244425e-01	 1.111472521892166e+01
 1.737499999999999e+00	 0.000000000000000e+00	 1.117696400589472e+01
 1.737226538277637e+00	 3.082539057380222e-02	 1.118911114665663e+01
 1.736398332288748e+00	 6.186341103927302e-02	 1.119766688148575e+01
 1.735003864254944e+00	 9.310124070990457e-02	 1.120241924679867e+01
 1.733031926499532e+00	 1.245254662136908e-01	 1.120315892736171e+01
 1.730471653715378e+00	 1.561220858541010e-01	 1.119968014418398e+01
 1.727312555619745e+00	 1.878765158396829e-01	 1.119178157287760e+01
 1.723544549883358e+00	 2.197735984488587e-01	 1.117926728879644e+01
 1.719157995213276e+00	 2.517976121897119e-01	 1.116194773482440e+01
 1.714143724461679e+00	 2.839322840069546e-01	 1.113964070724986e+01
 1.708493077625785e+00	 3.161608035798360e-01	 1.111217235474145e+01
 1.750000000000000e+00	 0.000000000000000e+00	 1.117563009883459e+01
 1.749724570927141e+00	 3.104715597342660e-02	 1.118711954304773e+01
 1.748890406621857e+00	 6.230847155001488e-02	 1.119518466321624e+01
 1.747485906444049e+00	 9.377103380810323e-02	 1.119961408362825e+01
 1.745499782086252e+00	 1.254213328766073e-01	 1.120019878027207e+01
 1.742921090073661e+00	 1.572452663273678e-01	 1.119673295972861e+01
 1.739739264653876e+00	 1.892281454495704e-01	 1.118901496946767e+01
 1.735944150962882e+00	 2.213547034732815e-01	 1.117684823594987e+01
 1.731526038345919e+00	 2.536091058023268e-01	 1.116004222649281e+01
 1.726475693704463e+00	 2.859749623090794e-01	 1.113841343042281e+01
 1.720784394733555e+00	 3.184353417352296e-01	 1.111178635460732e+01
 1.597871223677692e+00	 2.956899601812942e-01	 1.121913398619966e+01
 1.591983679838119e+00	 3.259033033559543e-01	 1.122092653119227e+01
 1.585486310625523e+00	 3.561715300634776e-01	 1.121594118220849e+01
 1.578372621830225e+00	 3.864775112013996e-01	 1.120387733788025e+01
 1.570636713267633e+00	 4.168036887336729e-01	 1.118444463767442e+01
 1.562273307054313e+00	 4.471320991271141e-01	 1.115736442824325e+01
 1.553277774923845e+00	 4.774443987833438e-01	 1.112237123431050e+01
 1.543646164429884e+00	 5.077218914329503e-01	 1.107921422515414e+01
 1.533375223883753e+00	 5.379455574460040e-01	 1.102765866733421e+01
 1.522462425874856e+00	 5.680960850001699e-01	 1.096748735396926e+01
 1.510905989224438e+00	 5.981539030346663e-01	 1.089850200059677e+01
 1.610162540781094e+00	 2.979644983366877e-01	 1.119742064492603e+01
 1.604229708142434e+00	 3.284102518436999e-01	 1.119937507041941e+01
 1.597682359166444e+00	 3.589113110645371e-01	 1.119474102216990e+01
 1.590513949687990e+00	 3.894504151344069e-01	 1.118321475462279e+01
 1.582718534136446e+00	 4.200098709554452e-01	 1.116450229615524e+01
 1.574290794029277e+00	 4.505715768134433e-01	 1.113832091780119e+01
 1.565226065498014e+00	 4.811170480054174e-01	 1.110440060876758e+01
 1.555520365692882e+00	 5.116274444444987e-01	 1.106248554985985e+01
 1.545170417912212e+00	 5.420836001959101e-01	 1.101233557550610e+01
 1.534173675303793e+00	 5.724660548848370e-01	 1.095372761470799e+01
 1.522528342987494e+00	 6.027550869038752e-01	 1.088645710096048e+01
 1.622453857884982e+00	 3.002390364920812e-01	 1.117829436705367e+01
 1.616475736447324e+00	 3.309172003314502e-01	 1.118037997770985e+01
 1.609878407708013e+00	 3.616510920656152e-01	 1.117606505871318e+01
 1.602655277546456e+00	 3.924233190674569e-01	 1.116504274983403e+01
 1.594800355005993e+00	 4.232160531772940e-01	 1.114701550206023e+01
 1.586308281004989e+00	 4.540110544998922e-01	 1.112169654871810e+01
 1.577174356072925e+00	 4.847896972276646e-01	 1.108881138562248e+01
 1.567394566956594e+00	 5.155329974562836e-01	 1.104809925142938e+01
 1.556965611941338e+00	 5.462216429461266e-01	 1.099931459892122e+01
 1.545884924733330e+00	 5.768360247698988e-01	 1.094222854757657e+01
 1.534150696751060e+00	 6.073562707735738e-01	 1.087663030747273e+01
 1.634745174989355e+00	 3.025135746474747e-01	 1.116169697710725e+01
 1.628721764752790e+00	 3.334241488192052e-01	 1.116388377207682e+01
 1.622074456250230e+00	 3.643908730667124e-01	 1.115985653856890e+01
 1.614796605405623e+00	 3.953962230005494e-01	 1.114930533052345e+01
 1.606882175876277e+00	 4.264222353992188e-01	 1.113192905447730e+01
 1.598325767981450e+00	 4.574505321864608e-01	 1.110743694310276e+01
 1.589122646648578e+00	 4.884623464500846e-01	 1.107555003999480e+01
 1.579268768221021e+00	 5.194385504683054e-01	 1.103600268693570e+01
 1.568760805971133e+00	 5.503596856966543e-01	 1.098854400440683e+01
 1.557596174163466e+00	 5.812059946553559e-01	 1.093293935572289e+01
 1.545773050515137e+00	 6.119574546437619e-01	 1.086897178484266e+01
 1.647036492094213e+00	 3.047881128028683e-01	 1.114757203585586e+01
 1.640967793058833e+00	 3.359310973069648e-01	 1.114983068801738e+01
 1.634270504793095e+00	 3.671306540678284e-01	 1.114606040220018e+01
 1.626937933265491e+00	 3.983691269336848e-01	 1.113594817471100e+01
 1.618963996747293e+00	 4.296284176212197e-01	 1.111918939983491e+01
 1.610343254958658e+00	 4.608900098731490e-01	 1.109548934581226e+01
 1.601070937224973e+00	 4.921349956726779e-01	 1.106456464426647e+01
 1.591142969486164e+00	 5.233441034805641e-01	 1.102614478436568e+01
 1.580556000001596e+00	 5.544977284474926e-01	 1.097997360252745e+01
 1.569307423594202e+00	 5.855759645412079e-01	 1.092581075806418e+01
 1.557395404279724e+00	 6.165586385144400e-01	 1.086343318482906e+01
 1.659327809199556e+00	 3.070626509582619e-01	 1.113586477600762e+01
 1.653213821365451e+00	 3.384380457947292e-01	 1.113816661197606e+01
 1.646466553336608e+00	 3.698704350689632e-01	 1.113462322107194e+01
 1.639079261126060e+00	 4.013420308668626e-01	 1.112491856953794e+01
 1.631045817619043e+00	 4.328345998432970e-01	 1.110874457088945e+01
 1.622360741936615e+00	 4.643294875599568e-01	 1.108580256435021e+01
 1.613019227802109e+00	 4.958076448954443e-01	 1.105580480892386e+01
 1.603017170752021e+00	 5.272496564930599e-01	 1.101847598443817e+01
 1.592351194032726e+00	 5.586357711986414e-01	 1.097355469040948e+01
 1.581018673025537e+00	 5.899459344274548e-01	 1.092079493314738e+01
 1.569017758044822e+00	 6.211598223856076e-01	 1.085996759116443e+01
 1.671619126305386e+00	 3.093371891136554e-01	 1.112652204074140e+01
 1.665459849672645e+00	 3.409449942824981e-01	 1.112883902161147e+01
 1.658662601880769e+00	 3.726102160701169e-01	 1.112549313768749e+01
 1.651220588987329e+00	 4.043149348000832e-01	 1.111616535210785e+01
 1.643127638491529e+00	 4.360407820654503e-01	 1.110054412840436e+01
 1.634378228915319e+00	 4.677689652468843e-01	 1.107832691141650e+01
 1.624967518379987e+00	 4.994802941183839e-01	 1.104922162600989e+01
 1.614891372018594e+00	 5.311552095057921e-01	 1.101294818498881e+01
 1.604146388064525e+00	 5.627738139501012e-01	 1.096923999708811e+01
 1.592729922457472e+00	 5.943159043140966e-01	 1.091784546548629e+01
 1.580640111810430e+00	 6.257610062572652e-01	 1.085852946690896e+01
 1.683910443411700e+00	 3.116117272690490e-01	 1.111949222493045e+01
 1.677705877980416e+00	 3.434519427702719e-01	 1.112179692772277e+01
 1.670858650425578e+00	 3.753499970712894e-01	 1.111861980825146e+01
 1.663361916849300e+00	 4.072878387333462e-01	 1.110963885291875e+01
 1.655209459364748e+00	 4.392469642876800e-01	 1.109453910538345e+01
 1.646395715894772e+00	 4.712084429339317e-01	 1.107301414997311e+01
 1.636915808958608e+00	 5.031529433414967e-01	 1.104476761505252e+01
 1.626765573285881e+00	 5.350607625187611e-01	 1.100951468779059e+01
 1.615941582096990e+00	 5.669118567018717e-01	 1.096698363124800e+01
 1.604441171890006e+00	 5.986858742011337e-01	 1.091691729424892e+01
 1.592262465576548e+00	 6.303621901294124e-01	 1.085907460410998e+01
 1.696201760518499e+00	 3.138862654244425e-01	 1.111472521892166e+01
 1.689951906288762e+00	 3.459588912580502e-01	 1.111699081870113e+01
 1.683054698971034e+00	 3.780897780724807e-01	 1.111395434782547e+01
 1.675503244711972e+00	 4.102607426666521e-01	 1.110529084175458e+01
 1.667291280238703e+00	 4.424531465099858e-01	 1.109068195372887e+01
 1.658413202874972e+00	 4.746479206210985e-01	 1.106981744069842e+01
 1.648864099537969e+00	 5.068255925647827e-01	 1.104239667134438e+01
 1.638639774553884e+00	 5.389663155319671e-01	 1.100813014768655e+01
 1.627736776130124e+00	 5.710498994539528e-01	 1.096674103123584e+01
 1.616152421323140e+00	 6.030558440885657e-01	 1.091796666417582e+01
 1.603884819343176e+00	 6.349633740020493e-01	 1.086156007565038e+01
 1.708493077625785e+00	 3.161608035798360e-01	 1.111217235474145e+01
 1.702197934597685e+00	 3.484658397458333e-01	 1.111437260737894e+01
 1.695250747517139e+00	 3.808295590736910e-01	 1.111144927785134e+01
 1.687644572575343e+00	 4.132336466000003e-01	 1.110307447591229e+01
 1.679373101113391e+00	 4.456593287323678e-01	 1.108892649320157e+01
 1.670430689855921e+00	 4.780873983083849e-01	 1.106869129170959e+01
 1.660812390118072e+00	 5.104982417882418e-01	 1.104206401645478e+01
 1.650513975822603e+00	 5.428718685454100e-01	 1.100875052391825e+01
 1.639531970163926e+00	 5.751879422063448e-01	 1.096846891723087e+01
 1.627863670756874e+00	 6.074258139763927e-01	 1.092095107861702e+01
 1.615507173110314e+00	 6.395645578751757e-01	 1.086594418917534e+01
 1.720784394733555e+00	 3.184353417352296e-01	 1.111178635460732e+01
 1.714443962907183e+00	 3.509727882336210e-01	 1.111389558015687e+01
 1.707446796063893e+00	 3.835693400749201e-01	 1.111105847592312e+01
 1.699785900439417e+00	 4.162065505333916e-01	 1.110294425064785e+01
 1.691454921988814e+00	 4.488655109548259e-01	 1.108922786256924e+01
 1.682448176837619e+00	 4.815268759957912e-01	 1.106959151043984e+01
 1.672760680698918e+00	 5.141708910118742e-01	 1.104372615086270e+01
 1.662388177092036e+00	 5.467774215590895e-01	 1.101133303354001e+01
 1.651327164198396e+00	 5.793259849590476e-01	 1.097212524546514e+01
 1.639574920191208e+00	 6.117957838646149e-01	 1.092582925458173e+01
 1.627129526877964e+00	 6.441657417487923e-01	 1.087218644299363e+01
 1.510905989224438e+00	 5.981539030346663e-01	 1.089850200059677e+01
 1.498704899226502e+00	 6.280992159053116e-01	 1.085292048691705e+01
 1.485858926034374e+00	 6.579120396427700e-01	 1.079941361302671e+01
 1.472368641057263e+00	 6.875722397034166e-01	 1.073769785788040e+01
 1.458235431238258e+00	 7.170595700900936e-01	 1.066750700838696e+01
 1.443461511093458e+00	 7.463537137077204e-01	 1.058859369301166e+01
 1.428049932401566e+00	 7.754343238075454e-01	 1.050073086531526e+01
 1.412004591443889e+00	 8.042810663631879e-01	 1.040371322625021e+01
 1.395330233706523e+00	 8.328736632118814e-01	 1.029735857416111e+01
 1.378032455969274e+00	 8.611919357855460e-01	 1.018150907167953e+01
 1.360117705719598e+00	 8.892158492486488e-01	 1.005603241906241e+01
 1.522528342987494e+00	 6.027550869038752e-01	 1.088645710096048e+01
 1.510233398451768e+00	 6.329307483347351e-01	 1.084183595560796e+01
 1.497288610081763e+00	 6.629729014853188e-01	 1.078942699917794e+01
 1.483694553682143e+00	 6.928612569308974e-01	 1.072893446168004e+01
 1.469452626864788e+00	 7.225754129358748e-01	 1.066007941429793e+01
 1.454565061180536e+00	 7.520948961198251e-01	 1.058260134674464e+01
 1.439034931883308e+00	 7.813992032205446e-01	 1.049625969769794e+01
 1.422866165225804e+00	 8.104678437960667e-01	 1.040083532690844e+01
 1.406063543197860e+00	 8.392803836977581e-01	 1.029613191766925e+01
 1.388632705631432e+00	 8.678164891377840e-01	 1.018197729854967e+01
 1.370580149610033e+00	 8.960559711664935e-01	 1.005822467362798e+01
 1.534150696751060e+00	 6.073562707735738e-01	 1.087663030747273e+01
 1.521761897677453e+00	 6.377622807647338e-01	 1.083289925927873e+01
 1.508718294129500e+00	 6.680337633284998e-01	 1.078151676742901e+01
 1.495020466307320e+00	 6.981502741590380e-01	 1.072217492991330e+01
 1.480669822491582e+00	 7.280912557823142e-01	 1.065458222380225e+01
 1.465668611267865e+00	 7.578360785325557e-01	 1.057846512603156e+01
 1.450019931365309e+00	 7.873640826341082e-01	 1.049356969038122e+01
 1.433727739008006e+00	 8.166546212294172e-01	 1.039966306901573e+01
 1.416796852689532e+00	 8.456871041839829e-01	 1.029653496701761e+01
 1.399232955293995e+00	 8.744410424902175e-01	 1.018399901853128e+01
 1.381042593500962e+00	 9.028960930843489e-01	 1.006189407344001e+01
 1.545773050515137e+00	 6.119574546437619e-01	 1.086897178484266e+01
 1.533290396903557e+00	 6.425938131953080e-01	 1.082606214903739e+01
 1.520147978177585e+00	 6.730946251723129e-01	 1.077563628184688e+01
 1.506346378932792e+00	 7.034392913878383e-01	 1.071737426352433e+01
 1.491887018118640e+00	 7.336070986294112e-01	 1.065097209589157e+01
 1.476772161355447e+00	 7.635772609459125e-01	 1.057614336623538e+01
 1.461004930847569e+00	 7.933289620482357e-01	 1.049262087048571e+01
 1.444589312790497e+00	 8.228413986632396e-01	 1.040015818381700e+01
 1.427530162181541e+00	 8.520938246705574e-01	 1.029853116684950e+01
 1.409833204956963e+00	 8.810655958428456e-01	 1.018753939578415e+01
 1.391505037392386e+00	 9.097362150022149e-01	 1.006700750508351e+01
 1.557395404279724e+00	 6.165586385144400e-01	 1.086343318482906e+01
 1.544818896130082e+00	 6.474253456264577e-01	 1.082127781567189e+01
 1.531577662226018e+00	 6.781554870167580e-01	 1.077174029801769e+01
 1.517672291558561e+00	 7.087283086172986e-01	 1.071448880610361e+01
 1.503104213745963e+00	 7.391229414771657e-01	 1.064920698270107e+01
 1.487875711443280e+00	 7.693184433598950e-01	 1.057559564581459e+01
 1.471989930330090e+00	 7.992938414629270e-01	 1.049337445772221e+01
 1.455450886573275e+00	 8.290281760975334e-01	 1.040228354427491e+01
 1.438263471673887e+00	 8.585005451574800e-01	 1.030208505237861e+01
 1.420433454620336e+00	 8.876901491956692e-01	 1.019256463371024e+01
 1.401967481284305e+00	 9.165763369200914e-01	 1.007353284297269e+01
 1.569017758044822e+00	 6.211598223856076e-01	 1.085996759116443e+01
 1.556347395357026e+00	 6.522568780581823e-01	 1.081850083632859e+01
 1.543007346274800e+00	 6.832163488618352e-01	 1.076978491150900e+01
 1.528998204184627e+00	 7.140173258474188e-01	 1.071347619416033e+01
 1.514321409373551e+00	 7.446387843255788e-01	 1.064924608161513e+01
 1.498979261531365e+00	 7.750596257745035e-01	 1.057678274028264e+01
 1.482974929812870e+00	 8.052587208781824e-01	 1.049579282022178e+01
 1.466312460356341e+00	 8.352149535322990e-01	 1.040600312278404e+01
 1.448996781166568e+00	 8.649072656447517e-01	 1.030716220899742e+01
 1.431033704284114e+00	 8.943147025486877e-01	 1.019904193646331e+01
 1.412429925176719e+00	 9.234164588379790e-01	 1.008143891276463e+01
 1.580640111810430e+00	 6.257610062572652e-01	 1.085852946690896e+01
 1.567875894584390e+00	 6.570884104904827e-01	 1.081768712354321e+01
 1.554437030323932e+00	 6.882772107075451e-01	 1.076972750860581e+01
 1.540324116810989e+00	 7.193063430781983e-01	 1.071429530958858e+01
 1.525538605001402e+00	 7.501546271746492e-01	 1.065104978948619e+01
 1.510082811619702e+00	 7.808008081897383e-01	 1.057966657819855e+01
 1.493959929295910e+00	 8.112236002940020e-01	 1.049983943231439e+01
 1.477174034139694e+00	 8.414017309675366e-01	 1.041128195075054e+01
 1.459730090659585e+00	 8.713139861323719e-01	 1.031372923366776e+01
 1.441633953948298e+00	 9.009392559019015e-01	 1.020693947215654e+01
 1.422892369069628e+00	 9.302565807558768e-01	 1.009069545638717e+01
 1.592262465576548e+00	 6.303621901294124e-01	 1.085907460410998e+01
 1.579404393812174e+00	 6.619199429233585e-01	 1.081879387650401e+01
 1.565866714373410e+00	 6.933380725538867e-01	 1.077152671920399e+01
 1.551650029437647e+00	 7.245953603096378e-01	 1.071690623421537e+01
 1.536755800629518e+00	 7.556704700243774e-01	 1.065457965885850e+01
 1.521186361708292e+00	 7.865419906055987e-01	 1.058421019908495e+01
 1.504944928779209e+00	 8.171884797103856e-01	 1.050547883415664e+01
 1.488035607923336e+00	 8.475885084032455e-01	 1.041808607994211e+01
 1.470463400152938e+00	 8.777207066203410e-01	 1.032175369800218e+01
 1.452234203612885e+00	 9.075638092553103e-01	 1.021622633768149e+01
 1.433354812963030e+00	 9.370967026737852e-01	 1.010127309859837e+01
 1.603884819343176e+00	 6.349633740020493e-01	 1.086156007565038e+01
 1.590932893040378e+00	 6.667514753568098e-01	 1.082177953443398e+01
 1.577296398423238e+00	 6.983989344008606e-01	 1.077514237175202e+01
 1.562975942064603e+00	 7.298843775417372e-01	 1.072127020632482e+01
 1.547972996257898e+00	 7.611863128747637e-01	 1.065979835609526e+01
 1.532289911797133e+00	 7.922831730220851e-01	 1.059037771317581e+01
 1.515929928262769e+00	 8.231533591273329e-01	 1.051267659311492e+01
 1.498897181707264e+00	 8.537752858394262e-01	 1.042638254551838e+01
 1.481196709646628e+00	 8.841274271086590e-01	 1.033120411295051e+01
 1.462834453277879e+00	 9.141883626089145e-01	 1.022687252505680e+01
 1.443817256856928e+00	 9.439368245917042e-01	 1.011314331499983e+01
 1.615507173110314e+00	 6.395645578751757e-01	 1.086594418917534e+01
 1.602461392269001e+00	 6.715830077908362e-01	 1.082660373198518e+01
 1.588726082473415e+00	 7.034597962484670e-01	 1.078053545013753e+01
 1.574301854691855e+00	 7.351733947744963e-01	 1.072734957905896e+01
 1.559190191886543e+00	 7.667021557258078e-01	 1.066666962131317e+01
 1.543393461886226e+00	 7.980243554391976e-01	 1.059813426290161e+01
 1.526914927746587e+00	 8.291182385448446e-01	 1.052139926681539e+01
 1.509758755491481e+00	 8.599620632760784e-01	 1.043613933065706e+01
 1.491930019140653e+00	 8.905341475973255e-01	 1.034204989501078e+01
 1.473434702943277e+00	 9.208129159627136e-01	 1.023884888922926e+01
 1.454279700751320e+00	 9.507769465096340e-01	 1.012627840143091e+01
 1.627129526877964e+00	 6.441657417487923e-01	 1.087218644299363e+01
 1.613989891498045e+00	 6.764145402254381e-01	 1.083322725654491e+01
 1.600155766523939e+00	 7.085206580967053e-01	 1.078766805242162e+01
 1.585627767319404e+00	 7.404624120079153e-01	 1.073510778060133e+01
 1.570407387515452e+00	 7.722179985775097e-01	 1.067515823003409e+01
 1.554497011975571e+00	 8.037655378569363e-01	 1.060744598602518e+01
 1.537899927230667e+00	 8.350831179629202e-01	 1.053161436777756e+01
 1.520620329275986e+00	 8.661488407132029e-01	 1.044732533269622e+01
 1.502663328635016e+00	 8.969408680863412e-01	 1.035426133388819e+01
 1.484034952609081e+00	 9.274374693167079e-01	 1.025212711725505e+01
 1.464742144646208e+00	 9.576170684275745e-01	 1.014065144467445e+01
 1.360117705719598e+00	 8.892158492486488e-01	 1.005603241906241e+01
 1.341593277844827e+00	 9.169255568526578e-01	 9.927545480459880e+00
 1.322467308569620e+00	 9.443014443144191e-01	 9.791884342163804e+00
 1.302748766623323e+00	 9.713241740187775e-01	 9.648970327833556e+00
 1.282447441638377e+00	 9.979747288431313e-01	 9.498744933839115e+00
 1.261573929795459e+00	 1.024234455404330e+00	 9.341170456245610e+00
 1.240139616749326e+00	 1.050085106526311e+00	 9.176230522024731e+00
 1.218156657885667e+00	 1.075508882729801e+00	 9.003930519448419e+00
 1.195637955975838e+00	 1.100488472549222e+00	 8.824297923372704e+00
 1.172597136312511e+00	 1.125007091487334e+00	 8.637382511927946e+00
 1.149048519425000e+00	 1.149048519425000e+00	 8.443256471985709e+00
 1.370580149610033e+00	 8.960559711664935e-01	 1.005822467362798e+01
 1.351913226135645e+00	 9.239788303679526e-01	 9.931315315238168e+00
 1.332640134019405e+00	 9.515653015797990e-01	 9.797262588382985e+00
 1.312769910980884e+00	 9.787958984359916e-01	 9.655973308172463e+00
 1.292312421957389e+00	 1.005651457528369e+00	 9.507374380708256e+00
 1.271278344638683e+00	 1.032113181986217e+00	 9.351413490148499e+00
 1.249679152261479e+00	 1.058162684270582e+00	 9.188059690660157e+00
 1.227527093714434e+00	 1.083782027983117e+00	 9.017303897814207e+00
 1.204835171020993e+00	 1.108953768493124e+00	 8.839159274725414e+00
 1.181617114283771e+00	 1.133660992191846e+00	 8.653661509044026e+00
 1.157887354190000e+00	 1.157887354190000e+00	 8.460868977762122e+00
 1.381042593500962e+00	 9.028960930843489e-01	 1.006189407344001e+01
 1.362233174427042e+00	 9.310321038830772e-01	 9.936487336202569e+00
 1.342812959469824e+00	 9.588291588448681e-01	 9.803967743436086e+00
 1.322791055339106e+00	 9.862676228527927e-01	 9.664227743541655e+00
 1.302177402277060e+00	 1.013328186213132e+00	 9.517179795760715e+00
 1.280982759482529e+00	 1.039991908567609e+00	 9.362757116824268e+00
 1.259218687774190e+00	 1.066240262014375e+00	 9.200914333139837e+00
 1.236897529543666e+00	 1.092055173236013e+00	 9.031628032675004e+00
 1.214032386066488e+00	 1.117419064436706e+00	 8.854897211435787e+00
 1.190637092255217e+00	 1.142314892896179e+00	 8.670743610241734e+00
 1.166726188955000e+00	 1.166726188955000e+00	 8.479211938356253e+00
 1.391505037392386e+00	 9.097362150022149e-01	 1.006700750508351e+01
 1.372553122719020e+00	 9.380853773980324e-01	 9.943030120891162e+00
 1.352985784920880e+00	 9.660930161096258e-01	 9.811970082840515e+00
 1.332812199697990e+00	 9.937393472691818e-01	 9.673705611257613e+00
 1.312042382597387e+00	 1.021004914897422e+00	 9.528134858689754e+00
 1.290687174326999e+00	 1.047870635148505e+00	 9.375176715654238e+00
 1.268758223287460e+00	 1.074317839757692e+00	 9.214771522565421e+00
 1.246267965373361e+00	 1.100328318488492e+00	 9.046881681604770e+00
 1.223229601112323e+00	 1.125884360379969e+00	 8.871492163032396e+00
 1.199657070226847e+00	 1.150968793600331e+00	 8.688610901239091e+00
 1.175565023720000e+00	 1.175565023720000e+00	 8.498269076697079e+00
 1.401967481284305e+00	 9.165763369200914e-01	 1.007353284297269e+01
 1.382873071011578e+00	 9.451386509128173e-01	 9.950913184199447e+00
 1.363158610372572e+00	 9.733568733740730e-01	 9.821240768791483e+00
 1.342833344057535e+00	 1.001211071685158e+00	 9.684379724522755e+00
 1.321907362918373e+00	 1.028681643581236e+00	 9.540214034267088e+00
 1.300391589172092e+00	 1.055749361728905e+00	 9.388648400372727e+00
 1.278297758801289e+00	 1.082395417500530e+00	 9.229609015845774e+00
 1.255638401203523e+00	 1.108601463740551e+00	 9.063044235716458e+00
 1.232426816158497e+00	 1.134349656322913e+00	 8.888925142689580e+00
 1.208677048198662e+00	 1.159622694304304e+00	 8.707246001978703e+00
 1.184403858485000e+00	 1.184403858485000e+00	 8.518024601084598e+00
 1.412429925176719e+00	 9.234164588379790e-01	 1.008143891276463e+01
 1.393193019304716e+00	 9.521919244274326e-01	 9.960106943663416e+00
 1.373331435824899e+00	 9.806207306382088e-01	 9.831751817322072e+00
 1.352854488417742e+00	 1.008682796100722e+00	 9.696223701466634e+00
 1.331772343240015e+00	 1.036358372264577e+00	 9.553392543265943e+00
 1.310096004017809e+00	 1.063628088308809e+00	 9.403148991868745e+00
 1.287837294315678e+00	 1.090472995242892e+00	 9.245405228370727e+00
 1.265008837034148e+00	 1.116874608992193e+00	 9.080095696197517e+00
 1.241624031205012e+00	 1.142814952265537e+00	 8.907177725610952e+00
 1.217697026170662e+00	 1.168276595008097e+00	 8.726632046841500e+00
 1.193242693250000e+00	 1.193242693250000e+00	 8.538463187213011e+00
 1.422892369069628e+00	 9.302565807558768e-01	 1.009069545638717e+01
 1.403512967598433e+00	 9.592451979418776e-01	 9.970582686274261e+00
 1.383504261277862e+00	 9.878845879020337e-01	 9.843476066912160e+00
 1.362875632778610e+00	 1.016154520515873e+00	 9.709211935553066e+00
 1.341637323562315e+00	 1.044035100947443e+00	 9.567646334666868e+00
 1.319800418864149e+00	 1.071506814888217e+00	 9.418655992187702e+00
 1.297376829830625e+00	 1.098550572984775e+00	 9.262139209802243e+00
 1.274379272865238e+00	 1.125147754243415e+00	 9.098016651880743e+00
 1.250821246251867e+00	 1.151280248207841e+00	 8.926232028366547e+00
 1.226717004142848e+00	 1.176930495711709e+00	 8.746752665733727e+00
 1.202081528015000e+00	 1.202081528015000e+00	 8.559569960987263e+00
 1.433354812963030e+00	 9.370967026737852e-01	 1.010127309859837e+01
 1.413832915892732e+00	 9.662984714561537e-01	 9.982312536746420e+00
 1.393677086731460e+00	 9.951484451655477e-01	 9.856387148472056e+00
 1.372896777140140e+00	 1.023626244930612e+00	 9.723319567283255e+00
 1.351502303885272e+00	 1.051711829629835e+00	 9.582952059080867e+00
 1.329504833711112e+00	 1.079385541467129e+00	 9.435147559671675e+00
 1.306916365346132e+00	 1.106628150726181e+00	 9.279790620925819e+00
 1.283749708696792e+00	 1.133420899494219e+00	 9.116788257797365e+00
 1.260018461299061e+00	 1.159745544149826e+00	 8.946070689134945e+00
 1.235736982115218e+00	 1.185584396415142e+00	 8.767591966001994e+00
 1.210920362780000e+00	 1.210920362780000e+00	 8.581330482091868e+00
 1.443817256856928e+00	 9.439368245917042e-01	 1.011314331499983e+01
 1.424152864187609e+00	 9.733517449702592e-01	 9.995269427165265e+00
 1.403849912185693e+00	 1.002412302428751e+00	 9.870459456631329e+00
 1.382917921502332e+00	 1.031097969344938e+00	 9.738522457129209e+00
 1.361367284208887e+00	 1.059388558311753e+00	 9.599287043327928e+00
 1.339209248558698e+00	 1.087264268045545e+00	 9.452602485180488e+00
 1.316455900862197e+00	 1.114705728467110e+00	 9.298339711508298e+00
 1.293120144528811e+00	 1.141694044744604e+00	 9.136392214662557e+00
 1.269215676346595e+00	 1.168210840091492e+00	 8.966676848804356e+00
 1.244756960087773e+00	 1.194238297118396e+00	 8.789134515134707e+00
 1.219759197545000e+00	 1.219759197545000e+00	 8.603730728274325e+00
 1.454279700751320e+00	 9.507769465096340e-01	 1.012627840143091e+01
 1.434472812483067e+00	 9.804050184841950e-01	 1.000942706794500e+01
 1.414022737640563e+00	 1.009676159691643e+00	 9.885668122266829e+00
 1.392939065865185e+00	 1.038569693758851e+00	 9.754797159635531e+00
 1.371232264533160e+00	 1.067065286993196e+00	 9.616629266113021e+00
 1.348913663406908e+00	 1.095142994623464e+00	 9.471000169339378e+00
 1.325995436378822e+00	 1.122783306207561e+00	 9.317767299111491e+00
 1.302490580361295e+00	 1.149967189994570e+00	 9.156810749246597e+00
 1.278412891394469e+00	 1.176676136032838e+00	 8.988034132889601e+00
 1.253776938060513e+00	 1.202892197821469e+00	 8.811365324210239e+00
 1.228598032310000e+00	 1.228598032310000e+00	 8.626757080306849e+00
 1.464742144646208e+00	 9.576170684275745e-01	 1.014065144467445e+01
 1.444792760779105e+00	 9.874582919979614e-01	 1.002475992003120e+01
 1.424195563096069e+00	 1.016940016954224e+00	 9.901988986208186e+00
 1.402960210228699e+00	 1.046041418172352e+00	 9.772120898631071e+00
 1.381097244858090e+00	 1.074742015674165e+00	 9.634957334744456e+00
 1.358618078255741e+00	 1.103021721200889e+00	 9.490320600761583e+00
 1.335534971896006e+00	 1.130860883947535e+00	 9.338054748813821e+00
 1.311861016194242e+00	 1.158240335244118e+00	 9.178026595587138e+00
 1.287610106442683e+00	 1.185141431973866e+00	 9.010126634224010e+00
 1.262796916033438e+00	 1.211546098524362e+00	 8.834269832054426e+00
 1.237436867075000e+00	 1.237436867075000e+00	 8.650396307592656e+00
 1.149048519425000e+00	 1.149048519425000e+00	 8.443256471985709e+00
 1.125007091487334e+00	 1.172597136312511e+00	 8.226759930035227e+00
 1.100488472549222e+00	 1.195637955975838e+00	 8.007688051802370e+00
 1.075508882729801e+00	 1.218156657885667e+00	 7.786253442454301e+00
 1.050085106526311e+00	 1.240139616749326e+00	 7.562675396794204e+00
 1.024234455404330e+00	 1.261573929795459e+00	 7.337179247750022e+00
 9.979747288431317e-01	 1.282447441638376e+00	 7.109995686378859e+00
 9.713241740187781e-01	 1.302748766623323e+00	 6.881360057417957e+00
 9.443014443144199e-01	 1.322467308569620e+00	 6.651511634590022e+00
 9.169255568526588e-01	 1.341593277844826e+00	 6.420692880006575e+00
 8.892158492486486e-01	 1.360117705719598e+00	 6.189148692106222e+00
 1.157887354190000e+00	 1.157887354190000e+00	 8.460868977762122e+00
 1.133660992191846e+00	 1.181617114283772e+00	 8.246140201626355e+00
 1.108953768493124e+00	 1.204835171020993e+00	 8.028772969376478e+00
 1.083782027983116e+00	 1.227527093714434e+00	 7.808968339417151e+00
 1.058162684270582e+00	 1.249679152261479e+00	 7.586934302601604e+00
 1.032113181986218e+00	 1.271278344638683e+00	 7.362885176147838e+00
 1.005651457528369e+00	 1.292312421957389e+00	 7.137040967412504e+00
 9.787958984359921e-01	 1.312769910980883e+00	 6.909626711273440e+00
 9.515653015798000e-01	 1.332640134019404e+00	 6.680871785066163e+00
 9.239788303679534e-01	 1.351913226135644e+00	 6.451009205176577e+00
 8.960559711664935e-01	 1.370580149610033e+00	 6.220274909507439e+00
 1.166726188955000e+00	 1.166726188955000e+00	 8.479211938356253e+00
 1.142314892896179e+00	 1.190637092255217e+00	 8.266185560508607e+00
 1.117419064436706e+00	 1.214032386066488e+00	 8.050458003918651e+00
 1.092055173236014e+00	 1.236897529543666e+00	 7.832218904761245e+00
 1.066240262014376e+00	 1.259218687774190e+00	 7.611665072877361e+00
 1.039991908567610e+00	 1.280982759482529e+00	 7.388999930685958e+00
 1.013328186213133e+00	 1.302177402277059e+00	 7.164432920307148e+00
 9.862676228527935e-01	 1.322791055339106e+00	 6.938178882370251e+00
 9.588291588448689e-01	 1.342812959469824e+00	 6.710457410192424e+00
 9.310321038830781e-01	 1.362233174427042e+00	 6.481492183189945e+00
 9.028960930843491e-01	 1.381042593500963e+00	 6.251510283523848e+00
 1.175565023720000e+00	 1.175565023720000e+00	 8.498269076697079e+00
 1.150968793600331e+00	 1.199657070226847e+00	 8.286881202353646e+00
 1.125884360379969e+00	 1.223229601112323e+00	 8.072729814659258e+00
 1.100328318488492e+00	 1.246267965373361e+00	 7.855993249276485e+00
 1.074317839757692e+00	 1.268758223287460e+00	 7.636857255193110e+00
 1.047870635148505e+00	 1.290687174326999e+00	 7.415514478207330e+00
 1.021004914897422e+00	 1.312042382597387e+00	 7.192163910989860e+00
 9.937393472691824e-01	 1.332812199697989e+00	 6.967010312920648e+00
 9.660930161096266e-01	 1.352985784920880e+00	 6.740263603128904e+00
 9.380853773980332e-01	 1.372553122719020e+00	 6.512138230361536e+00
 9.097362150022150e-01	 1.391505037392387e+00	 6.282852523466022e+00
 1.184403858485000e+00	 1.184403858485000e+00	 8.518024601084598e+00
 1.159622694304304e+00	 1.208677048198662e+00	 8.308212764261231e+00
 1.134349656322913e+00	 1.232426816158497e+00	 8.095575458588915e+00
 1.108601463740551e+00	 1.255638401203522e+00	 7.880279838204349e+00
 1.082395417500531e+00	 1.278297758801290e+00	 7.662500708705116e+00
 1.055749361728906e+00	 1.300391589172092e+00	 7.442420054796086e+00
 1.028681643581237e+00	 1.321907362918372e+00	 7.220226532888507e+00
 1.001211071685159e+00	 1.342833344057535e+00	 6.996114931577998e+00
 9.733568733740733e-01	 1.363158610372571e+00	 6.770285603174024e+00
 9.451386509128182e-01	 1.382873071011578e+00	 6.542943869671371e+00
 9.165763369200917e-01	 1.401967481284305e+00	 6.314299406736805e+00
 1.193242693250000e+00	 1.193242693250000e+00	 8.538463187213011e+00
 1.168276595008097e+00	 1.217697026170663e+00	 8.330166308409950e+00
 1.142814952265537e+00	 1.241624031205012e+00	 8.118982375726656e+00
 1.116874608992193e+00	 1.265008837034148e+00	 7.905067478109917e+00
 1.090472995242892e+00	 1.287837294315678e+00	 7.688585592614212e+00
 1.063628088308809e+00	 1.310096004017808e+00	 7.469708155805516e+00
 1.036358372264577e+00	 1.331772343240015e+00	 7.248613598505620e+00
 1.008682796100723e+00	 1.352854488417742e+00	 7.025486846531702e+00
 9.806207306382095e-01	 1.373331435824898e+00	 6.800518790351919e+00
 9.521919244274334e-01	 1.393193019304715e+00	 6.573905726814020e+00
 9.234164588379790e-01	 1.412429925176719e+00	 6.345848776309386e+00
 1.202081528015000e+00	 1.202081528015000e+00	 8.559569960987263e+00
 1.176930495711710e+00	 1.226717004142848e+00	 8.352728306429363e+00
 1.151280248207841e+00	 1.250821246251867e+00	 8.142938375037948e+00
 1.125147754243415e+00	 1.274379272865238e+00	 7.930345304333379e+00
 1.098550572984775e+00	 1.297376829830625e+00	 7.715102355134581e+00
 1.071506814888217e+00	 1.319800418864148e+00	 7.497370526326228e+00
 1.044035100947444e+00	 1.341637323562315e+00	 7.277318131364250e+00
 1.016154520515874e+00	 1.362875632778610e+00	 7.055120338906469e+00
 9.878845879020346e-01	 1.383504261277861e+00	 6.830958680238727e+00
 9.592451979418788e-01	 1.403512967598433e+00	 6.605020526422368e+00
 9.302565807558767e-01	 1.422892369069627e+00	 6.377498538316543e+00
 1.210920362780000e+00	 1.210920362780000e+00	 8.581330482091868e+00
 1.185584396415142e+00	 1.235736982115218e+00	 8.375885624456552e+00
 1.159745544149826e+00	 1.260018461299061e+00	 8.167431620969603e+00
 1.133420899494219e+00	 1.283749708696792e+00	 7.956102768990800e+00
 1.106628150726181e+00	 1.306916365346132e+00	 7.742041722945940e+00
 1.079385541467129e+00	 1.329504833711111e+00	 7.525399152071575e+00
 1.051711829629836e+00	 1.351502303885272e+00	 7.306333358306480e+00
 1.023626244930612e+00	 1.372896777140139e+00	 7.085009856450906e+00
 9.951484451655483e-01	 1.393677086731459e+00	 6.861600919015451e+00
 9.662984714561544e-01	 1.413832915892731e+00	 6.636285088456635e+00
 9.370967026737852e-01	 1.433354812963030e+00	 6.409246659745627e+00
 1.219759197545000e+00	 1.219759197545000e+00	 8.603730728274325e+00
 1.194238297118396e+00	 1.244756960087773e+00	 8.399625508842334e+00
 1.168210840091492e+00	 1.269215676346595e+00	 8.192450620569884e+00
 1.141694044744604e+00	 1.293120144528811e+00	 7.982329629496824e+00
 1.114705728467110e+00	 1.316455900862197e+00	 7.769394691104171e+00
 1.087264268045545e+00	 1.339209248558698e+00	 7.553786250659443e+00
 1.059388558311753e+00	 1.361367284208887e+00	 7.335652702126781e+00
 1.031097969344938e+00	 1.382917921502331e+00	 7.115150007500347e+00
 1.002412302428751e+00	 1.403849912185693e+00	 6.892441278735848e+00
 9.733517449702599e-01	 1.424152864187609e+00	 6.667696324750672e+00
 9.439368245917042e-01	 1.443817256856928e+00	 6.441091166233664e+00
 1.228598032310000e+00	 1.228598032310000e+00	 8.626757080306849e+00
 1.202892197821469e+00	 1.253776938060513e+00	 8.423935572474541e+00
 1.176676136032838e+00	 1.278412891394469e+00	 8.217984211164836e+00
 1.149967189994570e+00	 1.302490580361294e+00	 8.009015937582650e+00
 1.122783306207561e+00	 1.325995436378822e+00	 7.797152513387552e+00
 1.095142994623465e+00	 1.348913663406907e+00	 7.582524263270392e+00
 1.067065286993196e+00	 1.371232264533159e+00	 7.365269774523373e+00
 1.038569693758852e+00	 1.392939065865184e+00	 7.145535555200407e+00
 1.009676159691643e+00	 1.414022737640563e+00	 6.923475652798705e+00
 9.804050184841961e-01	 1.434472812483067e+00	 6.699251235706957e+00
 9.507769465096340e-01	 1.454279700751320e+00	 6.473030139957629e+00
 1.237436867075000e+00	 1.237436867075000e+00	 8.650396307592656e+00
 1.211546098524362e+00	 1.262796916033438e+00	 8.448803781687371e+00
 1.185141431973866e+00	 1.287610106442683e+00	 8.244021548562531e+00
 1.158240335244119e+00	 1.311861016194243e+00	 8.036152028784777e+00
 1.130860883947535e+00	 1.335534971896005e+00	 7.825306693056579e+00
 1.103021721200889e+00	 1.358618078255741e+00	 7.611605846663277e+00
 1.074742015674166e+00	 1.381097244858090e+00	 7.395178369351680e+00
 1.046041418172353e+00	 1.402960210228699e+00	 7.176161411977992e+00
 1.016940016954224e+00	 1.424195563096068e+00	 6.954700051613994e+00
 9.874582919979624e-01	 1.444792760779105e+00	 6.730946907133527e+00
 9.576170684275745e-01	 1.464742144646208e+00	 6.505061717615193e+00
 8.892158492486486e-01	 1.360117705719598e+00	 6.189148692106222e+00
 8.611919357855461e-01	 1.378032455969275e+00	 5.930713175257896e+00
 8.328736632118816e-01	 1.395330233706523e+00	 5.677570289817601e+00
 8.042810663631879e-01	 1.412004591443889e+00	 5.430070344344696e+00
 7.754343238075456e-01	 1.428049932401566e+00	 5.188543391804417e+00
 7.463537137077207e-01	 1.443461511093458e+00	 4.953298475242942e+00
 7.170595700900940e-01	 1.458235431238257e+00	 4.724622987717467e+00
 6.875722397034173e-01	 1.472368641057263e+00	 4.502782147579769e+00
 6.579120396427711e-01	 1.485858926034374e+00	 4.288018589293126e+00
 6.280992159053126e-01	 1.498704899226502e+00	 4.080552069070716e+00
 5.981539030346663e-01	 1.510905989224438e+00	 3.880579283768306e+00
 8.960559711664935e-01	 1.370580149610033e+00	 6.220274909507439e+00
 8.678164891377838e-01	 1.388632705631433e+00	 5.963420555808662e+00
 8.392803836977581e-01	 1.406063543197860e+00	 5.711738336623054e+00
 8.104678437960666e-01	 1.422866165225804e+00	 5.465572047214458e+00
 7.813992032205448e-01	 1.439034931883307e+00	 5.225245557293970e+00
 7.520948961198254e-01	 1.454565061180535e+00	 4.991062077266246e+00
 7.225754129358753e-01	 1.469452626864787e+00	 4.763303536740756e+00
 6.928612569308982e-01	 1.483694553682143e+00	 4.542230076326280e+00
 6.629729014853196e-01	 1.497288610081763e+00	 4.328079652825325e+00
 6.329307483347361e-01	 1.510233398451768e+00	 4.121067757072687e+00
 6.027550869038751e-01	 1.522528342987494e+00	 3.921387242825328e+00
 9.028960930843491e-01	 1.381042593500963e+00	 6.251510283523848e+00
 8.744410424902173e-01	 1.399232955293995e+00	 5.996186140989268e+00
 8.456871041839830e-01	 1.416796852689532e+00	 5.745914490003264e+00
 8.166546212294176e-01	 1.433727739008007e+00	 5.501032700080400e+00
 7.873640826341083e-01	 1.450019931365309e+00	 5.261858541837164e+00
 7.578360785325561e-01	 1.465668611267865e+00	 5.028689473569038e+00
 7.280912557823146e-01	 1.480669822491582e+00	 4.801802038124604e+00
 6.981502741590386e-01	 1.495020466307319e+00	 4.581451371013791e+00
 6.680337633285006e-01	 1.508718294129499e+00	 4.367870819806456e+00
 6.377622807647348e-01	 1.521761897677452e+00	 4.161271674020869e+00
 6.073562707735738e-01	 1.534150696751061e+00	 3.961843003884065e+00
 9.097362150022150e-01	 1.391505037392387e+00	 6.282852523466022e+00
 8.810655958428457e-01	 1.409833204956963e+00	 6.029008785231762e+00
 8.520938246705574e-01	 1.427530162181541e+00	 5.780098729989423e+00
 8.228413986632397e-01	 1.444589312790497e+00	 5.536453387076054e+00
 7.933289620482358e-01	 1.461004930847569e+00	 5.298384510275712e+00
 7.635772609459127e-01	 1.476772161355446e+00	 5.066183884492851e+00
 7.336070986294119e-01	 1.491887018118641e+00	 4.840122740774656e+00
 7.034392913878393e-01	 1.506346378932792e+00	 4.620451280541547e+00
 6.730946251723136e-01	 1.520147978177585e+00	 4.407398309019809e+00
 6.425938131953089e-01	 1.533290396903557e+00	 4.201170977033425e+00
 6.119574546437619e-01	 1.545773050515137e+00	 4.001954629511164e+00
 9.165763369200917e-01	 1.401967481284305e+00	 6.314299406736805e+00
 8.876901491956691e-01	 1.420433454620336e+00	 6.061887376901550e+00
 8.585005451574801e-01	 1.438263471673887e+00	 5.814291036969767e+00
 8.290281760975334e-01	 1.455450886573275e+00	 5.571835159756944e+00
 7.992938414629273e-01	 1.471989930330090e+00	 5.334825562636433e+00
 7.693184433598954e-01	 1.487875711443280e+00	 5.103548434078901e+00
 7.391229414771665e-01	 1.503104213745964e+00	 4.878269766614348e+00
 7.087283086172992e-01	 1.517672291558560e+00	 4.659234896996681e+00
 6.781554870167587e-01	 1.531577662226018e+00	 4.446668153504693e+00
 6.474253456264587e-01	 1.544818896130081e+00	 4.240772609493503e+00
 6.165586385144400e-01	 1.557395404279724e+00	 4.041729941527554e+00
 9.234164588379790e-01	 1.412429925176719e+00	 6.345848776309386e+00
 8.943147025486875e-01	 1.431033704284114e+00	 6.094820837040672e+00
 8.649072656447517e-01	 1.448996781166568e+00	 5.848491391676305e+00
 8.352149535322991e-01	 1.466312460356341e+00	 5.607179038307363e+00
 8.052587208781826e-01	 1.482974929812870e+00	 5.371183736531548e+00
 7.750596257745040e-01	 1.498979261531365e+00	 5.140786153634773e+00
 7.446387843255793e-01	 1.514321409373550e+00	 4.916247115287971e+00
 7.140173258474193e-01	 1.528998204184626e+00	 4.697807161462247e+00
 6.832163488618361e-01	 1.543007346274800e+00	 4.485686207435895e+00
 6.522568780581836e-01	 1.556347395357025e+00	 4.280083308965217e+00
 6.211598223856076e-01	 1.569017758044822e+00	 4.081176529925097e+00
 9.302565807558767e-01	 1.422892369069627e+00	 6.377498538316543e+00
 9.009392559019015e-01	 1.441633953948297e+00	 6.127808118166412e+00
 8.713139861323717e-01	 1.459730090659585e+00	 5.882699775172327e+00
 8.414017309675366e-01	 1.477174034139694e+00	 5.642486012693476e+00
 8.112236002940023e-01	 1.493959929295910e+00	 5.407461009453371e+00
 7.808008081897385e-01	 1.510082811619702e+00	 5.177899985143683e+00
 7.501546271746498e-01	 1.525538605001402e+00	 4.954058668656137e+00
 7.193063430781990e-01	 1.540324116810988e+00	 4.736172869568616e+00
 6.882772107075457e-01	 1.554437030323931e+00	 4.524458152699522e+00
 6.570884104904839e-01	 1.567875894584390e+00	 4.319109614760640e+00
 6.257610062572652e-01	 1.580640111810430e+00	 4.120301761389732e+00
 9.370967026737852e-01	 1.433354812963030e+00	 6.409246659745627e+00
 9.075638092553103e-01	 1.452234203612885e+00	 6.160848203122631e+00
 8.777207066203410e-01	 1.470463400152938e+00	 5.916916168840202e+00
 8.475885084032457e-01	 1.488035607923335e+00	 5.677757043766436e+00
 8.171884797103856e-01	 1.504944928779209e+00	 5.443659300968541e+00
 7.865419906055990e-01	 1.521186361708291e+00	 5.214892784524563e+00
 7.556704700243780e-01	 1.536755800629518e+00	 4.991708195094615e+00
 7.245953603096386e-01	 1.551650029437648e+00	 4.774336676802200e+00
 6.933380725538877e-01	 1.565866714373410e+00	 4.562989505180909e+00
 6.619199429233596e-01	 1.579404393812174e+00	 4.357857875175105e+00
 6.303621901294124e-01	 1.592262465576548e+00	 4.159112787451267e+00
 9.439368245917042e-01	 1.443817256856928e+00	 6.441091166233664e+00
 9.141883626089141e-01	 1.462834453277879e+00	 6.193940103980891e+00
 8.841274271086591e-01	 1.481196709646628e+00	 5.951140554369856e+00
 8.537752858394263e-01	 1.498897181707264e+00	 5.712993064317059e+00
 8.231533591273332e-01	 1.515929928262769e+00	 5.479780474816731e+00
 7.922831730220854e-01	 1.532289911797133e+00	 5.251767324750324e+00
 7.611863128747642e-01	 1.547972996257898e+00	 5.029199353605914e+00
 7.298843775417380e-01	 1.562975942064603e+00	 4.812303103582904e+00
 6.983989344008616e-01	 1.577296398423238e+00	 4.601285620779240e+00
 6.667514753568107e-01	 1.590932893040377e+00	 4.396334254408346e+00
 6.349633740020493e-01	 1.603884819343176e+00	 4.197616552278927e+00
 9.507769465096340e-01	 1.454279700751320e+00	 6.473030139957629e+00
 9.208129159627132e-01	 1.473434702943277e+00	 6.227082860989146e+00
 8.905341475973253e-01	 1.491930019140653e+00	 5.985372913747744e+00
 8.599620632760784e-01	 1.509758755491480e+00	 5.748194980085353e+00
 8.291182385448447e-01	 1.526914927746587e+00	 5.515826340918814e+00
 7.980243554391980e-01	 1.543393461886226e+00	 5.288526298831477e+00
 7.667021557258082e-01	 1.559190191886543e+00	 5.066535697753700e+00
 7.351733947744968e-01	 1.574301854691855e+00	 4.850076540122819e+00
 7.034597962484678e-01	 1.588726082473414e+00	 4.639351701162282e+00
 6.715830077908371e-01	 1.602461392269001e+00	 4.434544739186451e+00
 6.395645578751757e-01	 1.615507173110314e+00	 4.235819800140296e+00
 9.576170684275745e-01	 1.464742144646208e+00	 6.505061717615193e+00
 9.274374693167079e-01	 1.484034952609081e+00	 6.260275541565484e+00
 8.969408680863412e-01	 1.502663328635016e+00	 6.019613229246154e+00
 8.661488407132029e-01	 1.520620329275986e+00	 5.783363670726478e+00
 8.350831179629206e-01	 1.537899927230666e+00	 5.551798657298916e+00
 8.037655378569366e-01	 1.554497011975572e+00	 5.325172322671959e+00
 7.722179985775102e-01	 1.570407387515452e+00	 5.103720679428479e+00
 7.404624120079161e-01	 1.585627767319404e+00	 4.887661251076482e+00
 7.085206580967063e-01	 1.600155766523939e+00	 4.677192799274811e+00
 6.764145402254393e-01	 1.613989891498045e+00	 4.472495145100234e+00
 6.441657417487923e-01	 1.627129526877964e+00	 4.273729082540841e+00
 5.981539030346663e-01	 1.510905989224438e+00	 3.880579283768306e+00
 5.680960850001699e-01	 1.522462425874857e+00	 3.658562075603363e+00
 5.379455574460040e-01	 1.533375223883753e+00	 3.449470261306085e+00
 5.077218914329504e-01	 1.543646164429884e+00	 3.253502897246835e+00
 4.774443987833440e-01	 1.553277774923845e+00	 3.070818499644361e+00
 4.471320991271144e-01	 1.562273307054313e+00	 2.901535681320741e+00
 4.168036887336734e-01	 1.570636713267633e+00	 2.745733951926755e+00
 3.864775112014002e-01	 1.578372621830225e+00	 2.603454670533110e+00
 3.561715300634782e-01	 1.585486310625523e+00	 2.474702138828609e+00
 3.259033033559552e-01	 1.591983679838119e+00	 2.359444822654623e+00
 2.956899601812942e-01	 1.597871223677692e+00	 2.257616689228922e+00
 6.027550869038751e-01	 1.522528342987494e+00	 3.921387242825328e+00
 5.724660548848367e-01	 1.534173675303793e+00	 3.700464937850360e+00
 5.420836001959101e-01	 1.545170417912212e+00	 3.492378818858368e+00
 5.116274444444988e-01	 1.555520365692882e+00	 3.297328941768016e+00
 4.811170480054178e-01	 1.565226065498014e+00	 3.115474789102139e+00
 4.505715768134437e-01	 1.574290794029277e+00	 2.946935907699893e+00
 4.200098709554459e-01	 1.582718534136446e+00	 2.791792710265109e+00
 3.894504151344075e-01	 1.590513949687990e+00	 2.650087429608743e+00
 3.589113110645378e-01	 1.597682359166444e+00	 2.521825213788745e+00
 3.284102518437008e-01	 1.604229708142433e+00	 2.406975349836872e+00
 2.979644983366877e-01	 1.610162540781094e+00	 2.305472603386804e+00
 6.073562707735738e-01	 1.534150696751061e+00	 3.961843003884065e+00
 5.768360247698988e-01	 1.545884924733330e+00	 3.742005799904141e+00
 5.462216429461266e-01	 1.556965611941338e+00	 3.534915766506069e+00
 5.155329974562838e-01	 1.567394566956594e+00	 3.340773973422501e+00
 4.847896972276649e-01	 1.577174356072925e+00	 3.159740882968857e+00
 4.540110544998927e-01	 1.586308281004989e+00	 2.991936988688574e+00
 4.232160531772945e-01	 1.594800355005994e+00	 2.837443618204451e+00
 3.924233190674576e-01	 1.602655277546456e+00	 2.696303889097089e+00
 3.616510920656160e-01	 1.609878407708013e+00	 2.568523805974624e+00
 3.309172003314512e-01	 1.616475736447324e+00	 2.454073486384947e+00
 3.002390364920813e-01	 1.622453857884982e+00	 2.352888502844497e+00
 6.119574546437619e-01	 1.545773050515137e+00	 4.001954629511164e+00
 5.812059946553556e-01	 1.557596174163466e+00	 3.783192938767974e+00
 5.503596856966543e-01	 1.568760805971133e+00	 3.577089591127342e+00
 5.194385504683057e-01	 1.579268768221021e+00	 3.383846684088439e+00
 4.884623464500848e-01	 1.589122646648578e+00	 3.203625672952936e+00
 4.574505321864613e-01	 1.598325767981450e+00	 3.036548010379410e+00
 4.264222353992193e-01	 1.606882175876276e+00	 2.882695950518809e+00
 3.953962230005502e-01	 1.614796605405623e+00	 2.742113506513152e+00
 3.643908730667133e-01	 1.622074456250230e+00	 2.614807549484255e+00
 3.334241488192061e-01	 1.628721764752790e+00	 2.500749036623661e+00
 3.025135746474747e-01	 1.634745174989355e+00	 2.399874355619254e+00
 6.165586385144400e-01	 1.557395404279724e+00	 4.041729941527554e+00
 5.855759645412076e-01	 1.569307423594202e+00	 3.824034384315066e+00
 5.544977284474925e-01	 1.580556000001596e+00	 3.618908526220870e+00
 5.233441034805644e-01	 1.591142969486163e+00	 3.426555506159423e+00
 4.921349956726781e-01	 1.601070937224973e+00	 3.247137785325907e+00
 4.608900098731494e-01	 1.610343254958658e+00	 3.080777787637316e+00
 4.296284176212204e-01	 1.618963996747293e+00	 2.927558705132387e+00
 3.983691269336854e-01	 1.626937933265491e+00	 2.787525457075948e+00
 3.671306540678292e-01	 1.634270504793095e+00	 2.660685790855549e+00
 3.359310973069657e-01	 1.640967793058833e+00	 2.547011512242144e+00
 3.047881128028683e-01	 1.647036492094213e+00	 2.446439832210835e+00
 6.211598223856076e-01	 1.569017758044822e+00	 4.081176529925097e+00
 5.899459344274547e-01	 1.581018673025537e+00	 3.864537928441543e+00
 5.586357711986415e-01	 1.592351194032726e+00	 3.660380561290359e+00
 5.272496564930597e-01	 1.603017170752021e+00	 3.468908622154885e+00
 4.958076448954447e-01	 1.613019227802109e+00	 3.290285590753581e+00
 4.643294875599572e-01	 1.622360741936614e+00	 3.124634874144885e+00
 4.328345998432976e-01	 1.631045817619043e+00	 2.972040613373119e+00
 4.013420308668634e-01	 1.639079261126060e+00	 2.832548644163724e+00
 3.698704350689641e-01	 1.646466553336608e+00	 2.706167599716991e+00
 3.384380457947301e-01	 1.653213821365451e+00	 2.592870143132430e+00
 3.070626509582619e-01	 1.659327809199556e+00	 2.492594316620493e+00
 6.257610062572652e-01	 1.580640111810430e+00	 4.120301761389732e+00
 5.943159043140965e-01	 1.592729922457472e+00	 3.904711133815711e+00
 5.627738139501012e-01	 1.604146388064524e+00	 3.701513450814815e+00
 5.311552095057922e-01	 1.614891372018594e+00	 3.510913973906691e+00
 4.994802941183842e-01	 1.624967518379987e+00	 3.333077213693146e+00
 4.677689652468848e-01	 1.634378228915318e+00	 3.168127572004685e+00
 4.360407820654509e-01	 1.643127638491529e+00	 3.016150149774057e+00
 4.043149348000838e-01	 1.651220588987329e+00	 2.877191709308136e+00
 3.726102160701177e-01	 1.658662601880768e+00	 2.751261778967786e+00
 3.409449942824992e-01	 1.665459849672645e+00	 2.638333887749486e+00
 3.093371891136554e-01	 1.671619126305386e+00	 2.538346916884201e+00
 6.303621901294124e-01	 1.592262465576548e+00	 4.159112787451267e+00
 5.986858742011336e-01	 1.604441171890006e+00	 3.944561342243933e+00
 5.669118567018716e-01	 1.615941582096991e+00	 3.742314722826211e+00
 5.350607625187613e-01	 1.626765573285882e+00	 3.552579271343421e+00
 5.031529433414970e-01	 1.636915808958607e+00	 3.375520541379030e+00
 4.712084429339320e-01	 1.646395715894772e+00	 3.211263940921016e+00
 4.392469642876805e-01	 1.655209459364748e+00	 3.059895541445538e+00
 4.072878387333470e-01	 1.663361916849300e+00	 2.921463041750698e+00
 3.753499970712901e-01	 1.670858650425577e+00	 2.795976874512786e+00
 3.434519427702728e-01	 1.677705877980415e+00	 2.683411443017715e+00
 3.116117272690490e-01	 1.683910443411700e+00	 2.583706475144297e+00
 6.349633740020493e-01	 1.603884819343176e+00	 4.197616552278927e+00
 6.030558440885656e-01	 1.616152421323141e+00	 3.984095682672925e+00
 5.710498994539527e-01	 1.627736776130124e+00	 3.782791687114031e+00
 5.389663155319673e-01	 1.638639774553884e+00	 3.593912000892575e+00
 5.068255925647830e-01	 1.648864099537968e+00	 3.417623232417725e+00
 4.746479206210989e-01	 1.658413202874972e+00	 3.254051806982534e+00
 4.424531465099864e-01	 1.667291280238702e+00	 3.103284777039654e+00
 4.102607426666527e-01	 1.675503244711971e+00	 2.965370787583828e+00
 3.780897780724816e-01	 1.683054698971034e+00	 2.840321184573722e+00
 3.459588912580512e-01	 1.689951906288762e+00	 2.728111253806760e+00
 3.138862654244425e-01	 1.696201760518499e+00	 2.628681577283252e+00
 6.395645578751757e-01	 1.615507173110314e+00	 4.235819800140296e+00
 6.074258139763925e-01	 1.627863670756874e+00	 4.023321078846518e+00
 5.751879422063448e-01	 1.639531970163926e+00	 3.822951443075735e+00
 5.428718685454100e-01	 1.650513975822602e+00	 3.634919433520301e+00
 5.104982417882420e-01	 1.660812390118072e+00	 3.459392725012141e+00
 4.780873983083853e-01	 1.670430689855921e+00	 3.296498771065539e+00
 4.456593287323683e-01	 1.679373101113391e+00	 3.146325615327882e+00
 4.132336466000011e-01	 1.687644572575344e+00	 3.008922858497065e+00
 3.808295590736919e-01	 1.695250747517139e+00	 2.884302768598724e+00
 3.484658397458342e-01	 1.702197934597684e+00	 2.772441521998122e+00
 3.161608035798359e-01	 1.708493077625785e+00	 2.673280562141735e+00
 6.441657417487923e-01	 1.627129526877964e+00	 4.273729082540841e+00
 6.117957838646149e-01	 1.639574920191208e+00	 4.062244256634436e+00
 5.793259849590476e-01	 1.651327164198396e+00	 3.862800887230704e+00
 5.467774215590897e-01	 1.662388177092036e+00	 3.675608632426280e+00
 5.141708910118744e-01	 1.672760680698918e+00	 3.500836244832810e+00
 4.815268759957917e-01	 1.682448176837619e+00	 3.338612216877392e+00
 4.488655109548267e-01	 1.691454921988814e+00	 3.189025593411281e+00
 4.162065505333923e-01	 1.699785900439417e+00	 3.052126940148690e+00
 3.835693400749210e-01	 1.707446796063892e+00	 2.927929455789949e+00
 3.509727882336220e-01	 1.714443962907183e+00	 2.816410215163371e+00
 3.184353417352296e-01	 1.720784394733555e+00	 2.717511530341516e+00
 2.956899601812942e-01	 1.597871223677692e+00	 2.257616689228922e+00
 2.655481792878332e-01	 1.603156001294210e+00	 2.141421068621395e+00
 2.354941696761790e-01	 1.607845607033304e+00	 2.039643731615139e+00
 2.055436532290555e-01	 1.611948140178152e+00	 1.952171412937245e+00
 1.757118493506961e-01	 1.615472174320239e+00	 1.878858827013442e+00
 1.460134615946999e-01	 1.618426726496131e+00	 1.819530360045544e+00
 1.164626662474424e-01	 1.620821226222415e+00	 1.773981818738574e+00
 8.707310282611763e-02	 1.622665484554889e+00	 1.741982223045358e+00
 5.785786644259734e-02	 1.623969663291593e+00	 1.723275630711558e+00
 2.882950197718375e-02	 1.624744244432313e+00	 1.717582981899781e+00
 0.000000000000000e+00	 1.625000000000000e+00	 1.724603952732396e+00
 2.979644983366877e-01	 1.610162540781094e+00	 2.305472603386804e+00
 2.675908575899578e-01	 1.615487970533476e+00	 2.189980489181586e+00
 2.373056632887938e-01	 1.620213650163185e+00	 2.088926208378065e+00
 2.071247582534782e-01	 1.624347741255574e+00	 2.002195338175134e+00
 1.770634789605836e-01	 1.627898883352835e+00	 1.929641142118880e+00
 1.471366420679667e-01	 1.630876162853355e+00	 1.871086284459085e+00
 1.173585329103589e-01	 1.633289081808462e+00	 1.826324601507637e+00
 8.774289592431626e-02	 1.635147526743617e+00	 1.795122917202274e+00
 5.830292695333918e-02	 1.636461737624537e+00	 1.777222890502742e+00
 2.905126737680813e-02	 1.637242277081775e+00	 1.772342882750430e+00
 0.000000000000000e+00	 1.637500000000000e+00	 1.780179833695698e+00
 3.002390364920813e-01	 1.622453857884982e+00	 2.352888502844497e+00
 2.696335358920826e-01	 1.627819939773135e+00	 2.238092797268449e+00
 2.391171569014086e-01	 1.632581693293372e+00	 2.137753217560150e+00
 2.087058632779007e-01	 1.636747342333230e+00	 2.051754219656813e+00
 1.784151085704711e-01	 1.640325592385602e+00	 1.979947654219943e+00
 1.482598225412336e-01	 1.643325599210697e+00	 1.922154503089388e+00
 1.182543995732755e-01	 1.645756937394584e+00	 1.878166673093808e+00
 8.841268902251494e-02	 1.647629568932387e+00	 1.847748834255885e+00
 5.874798746408103e-02	 1.648953811957498e+00	 1.830640289864705e+00
 2.927303277643252e-02	 1.649740309731242e+00	 1.826556866400516e+00
 0.000000000000000e+00	 1.650000000000000e+00	 1.835192811879803e+00
 3.025135746474747e-01	 1.634745174989355e+00	 2.399874355619254e+00
 2.716762141942071e-01	 1.640151909013182e+00	 2.285768112600793e+00
 2.409286505140234e-01	 1.644949736423866e+00	 2.186135058836520e+00
 2.102869683023234e-01	 1.649146943411119e+00	 2.100858564464480e+00
 1.797667381803585e-01	 1.652752301418539e+00	 2.029789104413439e+00
 1.493830030145004e-01	 1.655775035568155e+00	 1.972746016777921e+00
 1.191502662361921e-01	 1.658224792980780e+00	 1.929519318904755e+00
 8.908248212071354e-02	 1.660111611121198e+00	 1.899871568066275e+00
 5.919304797482287e-02	 1.661445886290479e+00	 1.883539754038098e+00
 2.949479817605690e-02	 1.662238342380713e+00	 1.880237211422186e+00
 0.000000000000000e+00	 1.662500000000000e+00	 1.889655540146456e+00
 3.047881128028683e-01	 1.647036492094213e+00	 2.446439832210835e+00
 2.737188924963317e-01	 1.652483878253622e+00	 2.333016252854319e+00
 2.427401441266382e-01	 1.657317779554668e+00	 2.234081724468783e+00
 2.118680733267460e-01	 1.661546544489241e+00	 2.149518566075406e+00
 1.811183677902460e-01	 1.665179010451648e+00	 2.079175913204314e+00
 1.505061834877673e-01	 1.668224471925732e+00	 2.022871498017749e+00
 1.200461328991086e-01	 1.670692648567053e+00	 1.980393487500853e+00
 8.975227521891216e-02	 1.672593653310051e+00	 1.951502366432943e+00
 5.963810848556471e-02	 1.673937960623477e+00	 1.935932852304176e+00
 2.971656357568129e-02	 1.674736375030189e+00	 1.933395829872599e+00
 0.000000000000000e+00	 1.675000000000000e+00	 1.943580293660053e+00
 3.070626509582619e-01	 1.659327809199556e+00	 2.492594316620493e+00
 2.757615707984564e-01	 1.664815847494451e+00	 2.379846744848376e+00
 2.445516377392530e-01	 1.669685822685776e+00	 2.281602910690714e+00
 2.134491783511686e-01	 1.673946145567598e+00	 2.197744115977068e+00
 1.824699974001335e-01	 1.677605719484926e+00	 2.128118192379410e+00
 1.516293639610341e-01	 1.680673908283426e+00	 2.072541303114601e+00
 1.209419995620252e-01	 1.683160504153399e+00	 2.030799803071054e+00
 9.042206831711082e-02	 1.685075695498947e+00	 2.002652143912218e+00
 6.008316899630655e-02	 1.686430034956494e+00	 1.987830811168363e+00
 2.993832897530567e-02	 1.687234407679669e+00	 1.986044280868505e+00
 0.000000000000000e+00	 1.687500000000000e+00	 1.996978983876351e+00
 3.093371891136554e-01	 1.671619126305386e+00	 2.538346916884201e+00
 2.778042491005809e-01	 1.677147816735672e+00	 2.426268835239308e+00
 2.463631313518678e-01	 1.682053865817191e+00	 2.328708028591632e+00
 2.150302833755913e-01	 1.686345746646188e+00	 2.245544814769477e+00
 1.838216270100210e-01	 1.690032428518376e+00	 2.176625756357297e+00
 1.527525444343010e-01	 1.693123344641238e+00	 2.121765483811324e+00
 1.218378662249418e-01	 1.695628359739820e+00	 2.080748577358317e+00
 9.109186141530945e-02	 1.697557737687884e+00	 2.053331494068361e+00
 6.052822950704838e-02	 1.698922109289530e+00	 2.039244526962363e+00
 3.016009437493006e-02	 1.699732440329154e+00	 2.038193783562037e+00
 0.000000000000000e+00	 1.700000000000000e+00	 2.049863171914228e+00
 3.116117272690490e-01	 1.683910443411700e+00	 2.583706475144297e+00
 2.798469274027056e-01	 1.689479785977283e+00	 2.472291500745259e+00
 2.481746249644826e-01	 1.694421908948912e+00	 2.375406214522982e+00
 2.166113884000138e-01	 1.698745347725011e+00	 2.292929982781813e+00
 1.851732566199084e-01	 1.702459137551994e+00	 2.224708133041208e+00
 1.538757249075678e-01	 1.705572780999167e+00	 2.170553798403452e+00
 1.227337328878583e-01	 1.708096215326316e+00	 2.130249821062642e+00
 9.176165451350807e-02	 1.710039779876861e+00	 2.103550701188876e+00
 6.097329001779021e-02	 1.711414183622584e+00	 2.090184577894175e+00
 3.038185977455445e-02	 1.712230472978645e+00	 2.089855229548272e+00
 0.000000000000000e+00	 1.712500000000000e+00	 2.102244081341619e+00
 3.138862654244425e-01	 1.696201760518499e+00	 2.628681577283252e+00
 2.818896057048302e-01	 1.701811755219286e+00	 2.517923457926555e+00
 2.499861185770973e-01	 1.706789952080941e+00	 2.421706340052855e+00
 2.181924934244365e-01	 1.711144948804068e+00	 2.339908670226885e+00
 1.865248862297958e-01	 1.714885846585784e+00	 2.272374574200124e+00
 1.549989053808347e-01	 1.718022217357214e+00	 2.218915722371107e+00
 1.236295995507749e-01	 1.720564070912886e+00	 2.179313254748634e+00
 9.243144761170670e-02	 1.722521822065882e+00	 2.153319751490151e+00
 6.141835052853206e-02	 1.723906257955657e+00	 2.140661235574528e+00
 3.060362517417883e-02	 1.724728505628139e+00	 2.141039194733026e+00
 0.000000000000000e+00	 1.725000000000000e+00	 2.154132610405662e+00
 3.161608035798359e-01	 1.708493077625785e+00	 2.673280562141735e+00
 2.839322840069549e-01	 1.714143724461679e+00	 2.563173172544062e+00
 2.517976121897121e-01	 1.719157995213276e+00	 2.467617021490353e+00
 2.197735984488592e-01	 1.723544549883358e+00	 2.386489666917914e+00
 1.878765158396833e-01	 1.727312555619745e+00	 2.319634065401466e+00
 1.561220858541015e-01	 1.730471653715379e+00	 2.266860458552621e+00
 1.245254662136915e-01	 1.733031926499532e+00	 2.227948319281769e+00
 9.310124070990533e-02	 1.735003864254944e+00	 2.202648343839429e+00
 6.186341103927389e-02	 1.736398332288747e+00	 2.190684476045393e+00
 3.082539057380321e-02	 1.737226538277638e+00	 2.191755950688789e+00
 0.000000000000000e+00	 1.737499999999999e+00	 2.205539343734864e+00
 3.184353417352296e-01	 1.720784394733555e+00	 2.717511530341516e+00
 2.859749623090795e-01	 1.726475693704463e+00	 2.608048868516025e+00
 2.536091058023270e-01	 1.731526038345919e+00	 2.513146629002255e+00
 2.213547034732818e-01	 1.735944150962882e+00	 2.432681511567925e+00
 1.892281454495708e-01	 1.739739264653876e+00	 2.366495335518375e+00
 1.572452663273684e-01	 1.742921090073661e+00	 2.314396946881331e+00
 1.254213328766080e-01	 1.745499782086253e+00	 2.276164185817799e+00
 9.377103380810400e-02	 1.747485906444048e+00	 2.251545900017233e+00
 6.230847155001576e-02	 1.748890406621857e+00	 2.240263990336047e+00
 3.104715597342760e-02	 1.749724570927141e+00	 2.242015475523670e+00
 0.000000000000000e+00	 1.750000000000000e+00	 2.256474563539787e+00
 1.750000000000000e+00	 0.000000000000000e+00	 1.117563009883459e+01
 1.749724570927141e+00	 3.104715597342660e-02	 1.118711954304773e+01
 1.748890406621857e+00	 6.230847155001488e-02	 1.119518466321624e+01
 1.747485906444049e+00	 9.377103380810323e-02	 1.119961408362825e+01
 1.745499782086252e+00	 1.254213328766073e-01	 1.120019878027207e+01
 1.742921090073661e+00	 1.572452663273678e-01	 1.119673295972861e+01
 1.739739264653876e+00	 1.892281454495704e-01	 1.118901496946767e+01
 1.735944150962882e+00	 2.213547034732815e-01	 1.117684823594987e+01
 1.731526038345919e+00	 2.536091058023268e-01	 1.116004222649281e+01
 1.726475693704463e+00	 2.859749623090794e-01	 1.113841343042281e+01
 1.720784394733555e+00	 3.184353417352296e-01	 1.111178635460732e+01
 1.762500000000000e+00	 0.000000000000000e+00	 1.117077369582347e+01
 1.762222603576645e+00	 3.126892137305098e-02	 1.118197663533634e+01
 1.761382480954966e+00	 6.275353206075669e-02	 1.118985204105620e+01
 1.759967948633153e+00	 9.444082690630186e-02	 1.119418969958898e+01
 1.757967637672972e+00	 1.263171995395239e-01	 1.119478168765346e+01
 1.755370526431943e+00	 1.583684468006347e-01	 1.119142324918478e+01
 1.752165973688007e+00	 1.905797750594578e-01	 1.118391370400054e+01
 1.748343752042406e+00	 2.229358084977041e-01	 1.117205738443812e+01
 1.743894081478562e+00	 2.554205994149417e-01	 1.115566459592739e+01
 1.738807662947248e+00	 2.880176406112040e-01	 1.113455259702442e+01
 1.733075711841326e+00	 3.207098798906232e-01	 1.110854659400444e+01
 1.775000000000000e+00	 0.000000000000000e+00	 1.116776280823949e+01
 1.774720636226143e+00	 3.149068677267536e-02	 1.117867893841706e+01
 1.773874555288057e+00	 6.319859257149853e-02	 1.118636422123192e+01
 1.772449990822214e+00	 9.511062000450050e-02	 1.119060960414963e+01
 1.770435493259618e+00	 1.272130662024405e-01	 1.119120826334235e+01
 1.767819962790108e+00	 1.594916272739015e-01	 1.118795647901419e+01
 1.764592682721967e+00	 1.919314046693453e-01	 1.118065454244756e+01
 1.760743353121696e+00	 2.245169135221267e-01	 1.116910769118593e+01
 1.756262124610897e+00	 2.572320930275563e-01	 1.115312706832275e+01
 1.751139632189640e+00	 2.900603189133286e-01	 1.113253070142625e+01
 1.745367028948611e+00	 3.229844180460166e-01	 1.110714449620126e+01
 1.787500000000000e+00	 0.000000000000000e+00	 1.116655886290529e+01
 1.787218668875638e+00	 3.171245217229974e-02	 1.117718788770633e+01
 1.786366629621130e+00	 6.364365308224038e-02	 1.118468264988000e+01
 1.784932033011234e+00	 9.578041310269911e-02	 1.118883525632399e+01
 1.782903348846188e+00	 1.281089328653570e-01	 1.118943998141363e+01
 1.780269399148155e+00	 1.606148077471684e-01	 1.118629414055960e+01
 1.777019391755757e+00	 1.932830342792328e-01	 1.117919899564477e+01
 1.773142954200753e+00	 2.260980185465493e-01	 1.116796068876220e+01
 1.768630167742926e+00	 2.590435866401711e-01	 1.115239120022967e+01
 1.763471601431642e+00	 2.921029972154534e-01	 1.113230932641439e+01
 1.757658346055410e+00	 3.252589562014102e-01	 1.110754167247201e+01
 1.800000000000000e+00	 0.000000000000000e+00	 1.116712435812064e+01
 1.799716701525128e+00	 3.193421757192412e-02	 1.117746598982583e+01
 1.798858703954184e+00	 6.408871359298220e-02	 1.118476984401150e+01
 1.797414075200213e+00	 9.645020620089774e-02	 1.118882918560984e+01
 1.795371204432684e+00	 1.290047995282736e-01	 1.118943938597541e+01
 1.792718835506084e+00	 1.617379882204352e-01	 1.118639879468538e+01
 1.789446100789376e+00	 1.946346638891202e-01	 1.117950964337689e+01
 1.785542555279577e+00	 2.276791235709719e-01	 1.116857897804997e+01
 1.780998210874648e+00	 2.608550802527859e-01	 1.115341961581670e+01
 1.775803570673254e+00	 2.941456755175779e-01	 1.113385112163464e+01
 1.769949663161724e+00	 3.275334943568037e-01	 1.110970080013089e+01
 1.812500000000000e+00	 0.000000000000000e+00	 1.116942282671500e+01
 1.812214734174612e+00	 3.215598297154849e-02	 1.117947678566439e+01
 1.811350778287220e+00	 6.453377410372405e-02	 1.118658935458519e+01
 1.809896117389150e+00	 9.711999929909636e-02	 1.119055495507570e+01
 1.807839060019105e+00	 1.299006661911902e-01	 1.119117005427128e+01
 1.805168271863896e+00	 1.628611686937021e-01	 1.118823403489737e+01
 1.801872809822825e+00	 1.959862934990077e-01	 1.118155009751697e+01
 1.797942156358166e+00	 2.292602285953945e-01	 1.117092619140796e+01
 1.793366254006062e+00	 2.626665738654007e-01	 1.115617597005584e+01
 1.788135539914474e+00	 2.961883538197025e-01	 1.113711976680422e+01
 1.782240980267553e+00	 3.298080325121973e-01	 1.111358558577198e+01
 1.825000000000000e+00	 0.000000000000000e+00	 1.117341880061834e+01
 1.824712766824093e+00	 3.237774837117288e-02	 1.118318481495782e+01
 1.823842852620237e+00	 6.497883461446587e-02	 1.119010573109844e+01
 1.822378159578045e+00	 9.778979239729499e-02	 1.119397712596457e+01
 1.820306915605452e+00	 1.307965328541067e-01	 1.119459656129900e+01
 1.817617708221590e+00	 1.639843491669689e-01	 1.119176445197848e+01
 1.814299518856104e+00	 1.973379231088951e-01	 1.118528496668088e+01
 1.810341757436523e+00	 2.308413336198172e-01	 1.117496695734605e+01
 1.805734297137171e+00	 2.644780674780155e-01	 1.116062491342097e+01
 1.800467509155304e+00	 2.982310321218272e-01	 1.114207993643544e+01
 1.794532297372897e+00	 3.320825706675907e-01	 1.111916073002003e+01
 1.837500000000000e+00	 0.000000000000000e+00	 1.117907777687824e+01
 1.837210799473569e+00	 3.259951377079726e-02	 1.118855558231459e+01
 1.836334926953235e+00	 6.542389512520771e-02	 1.119528448762325e+01
 1.834860201766898e+00	 9.845958549549363e-02	 1.119906122374239e+01
 1.832774771191723e+00	 1.316923995170233e-01	 1.119968444587327e+01
 1.830067144579166e+00	 1.651075296402358e-01	 1.119695560006770e+01
 1.826726227889211e+00	 1.986895527187826e-01	 1.119067982232451e+01
 1.822741358514645e+00	 2.324224386442398e-01	 1.118066686664264e+01
 1.818102340267972e+00	 2.662895610906304e-01	 1.116673205802732e+01
 1.812799478395743e+00	 3.002737104239518e-01	 1.114869726599904e+01
 1.806823614477755e+00	 3.343571088229843e-01	 1.112639189371982e+01
 1.850000000000000e+00	 0.000000000000000e+00	 1.118636618505445e+01
 1.849708832123041e+00	 3.282127917042164e-02	 1.119555552461874e+01
 1.848827001286216e+00	 6.586895563594955e-02	 1.120209207021931e+01
 1.847342243955709e+00	 9.912937859369225e-02	 1.120577370552302e+01
 1.845242626777920e+00	 1.325882661799398e-01	 1.120640017806432e+01
 1.842516580936625e+00	 1.662307101135026e-01	 1.120377396411434e+01
 1.839152936922149e+00	 2.000411823286701e-01	 1.119770116621544e+01
 1.835140959592534e+00	 2.340035436686624e-01	 1.118799243983553e+01
 1.830470383398466e+00	 2.681010547032451e-01	 1.117446394514351e+01
 1.825131447635792e+00	 3.023163887260764e-01	 1.115693831945947e+01
 1.819114931582128e+00	 3.366316469783779e-01	 1.113524566549636e+01
 1.862500000000000e+00	 0.000000000000000e+00	 1.119525135592666e+01
 1.862206864772507e+00	 3.304304457004600e-02	 1.120415197974548e+01
 1.861319075619178e+00	 6.631401614669137e-02	 1.121049582565926e+01
 1.859824286144479e+00	 9.979917169189090e-02	 1.121408192880478e+01
 1.857710482364042e+00	 1.334841328428564e-01	 1.121471112794777e+01
 1.854966017293967e+00	 1.673538905867695e-01	 1.121218692864269e+01
 1.851579645954916e+00	 2.013928119385575e-01	 1.120631639921434e+01
 1.847540560670190e+00	 2.355846486930850e-01	 1.119691109602194e+01
 1.842838426528654e+00	 2.699125483158599e-01	 1.118378801401199e+01
 1.837463416875449e+00	 3.043590670282010e-01	 1.116677055811725e+01
 1.831406248686016e+00	 3.389061851337714e-01	 1.114568953062125e+01
 1.875000000000000e+00	 0.000000000000000e+00	 1.120570149145369e+01
 1.874704897421970e+00	 3.326480996967039e-02	 1.121431315652815e+01
 1.873811149952121e+00	 6.675907665743323e-02	 1.122046397140490e+01
 1.872306328333207e+00	 1.004689647900895e-01	 1.122395412145771e+01
 1.870178337950090e+00	 1.343799995057729e-01	 1.122458553560442e+01
 1.867415453651191e+00	 1.684770710600364e-01	 1.122216274776624e+01
 1.864006354987513e+00	 2.027444415484450e-01	 1.121649379130526e+01
 1.859940161747613e+00	 2.371657537175077e-01	 1.120739112290657e+01
 1.855206469658534e+00	 2.717240419284748e-01	 1.119467257191648e+01
 1.849795386114716e+00	 3.064017453303257e-01	 1.117816231069792e+01
 1.843697565789419e+00	 3.411807232891650e-01	 1.115769184112452e+01
 1.720784394733555e+00	 3.184353417352296e-01	 1.111178635460732e+01
 1.714443962907183e+00	 3.509727882336210e-01	 1.111389558015687e+01
 1.707446796063893e+00	 3.835693400749201e-01	 1.111105847592312e+01
 1.699785900439417e+00	 4.162065505333916e-01	 1.110294425064785e+01
 1.691454921988814e+00	 4.488655109548259e-01	 1.108922786256924e+01
 1.682448176837619e+00	 4.815268759957912e-01	 1.106959151043984e+01
 1.672760680698918e+00	 5.141708910118742e-01	 1.104372615086270e+01
 1.662388177092036e+00	 5.467774215590895e-01	 1.101133303354001e+01
 1.651327164198396e+00	 5.793259849590476e-01	 1.097212524546514e+01
 1.639574920191208e+00	 6.117957838646149e-01	 1.092582925458173e+01
 1.627129526877964e+00	 6.441657417487923e-01	 1.087218644299363e+01
 1.733075711841326e+00	 3.207098798906232e-01	 1.110854659400444e+01
 1.726689991216679e+00	 3.534797367214088e-01	 1.111030794102854e+01
 1.719642844610636e+00	 3.863091210761491e-01	 1.110729908900036e+01
 1.711927228303469e+00	 4.191794544667827e-01	 1.109918773895558e+01
 1.703536742864199e+00	 4.520716931772842e-01	 1.108564692740166e+01
 1.694465663819255e+00	 4.849663536831973e-01	 1.106635651468086e+01
 1.684708971279676e+00	 5.178435402355064e-01	 1.104100470149876e+01
 1.674262378361351e+00	 5.506829745727694e-01	 1.100928956528713e+01
 1.663122358232710e+00	 5.834640277117502e-01	 1.097092060749498e+01
 1.651286169625344e+00	 6.161657537528370e-01	 1.092562030238154e+01
 1.638751880645368e+00	 6.487669256224087e-01	 1.087312563743118e+01
 1.745367028948611e+00	 3.229844180460166e-01	 1.110714449620126e+01
 1.738936019525595e+00	 3.559866852091919e-01	 1.110854134158273e+01
 1.731838893156713e+00	 3.890489020773594e-01	 1.110534281780830e+01
 1.724068556166777e+00	 4.221523584001311e-01	 1.109721512656621e+01
 1.715618563738773e+00	 4.552778753996662e-01	 1.108382939426262e+01
 1.706483150800026e+00	 4.884058313704840e-01	 1.106486315779557e+01
 1.696657261859521e+00	 5.215161894589655e-01	 1.104000188032911e+01
 1.686136579629713e+00	 5.545885275862120e-01	 1.100894048881013e+01
 1.674917552266045e+00	 5.876020704641420e-01	 1.097138492438384e+01
 1.662997419058485e+00	 6.205357236406640e-01	 1.092705369633110e+01
 1.650374234411771e+00	 6.533681094955353e-01	 1.087567942968308e+01
 1.757658346055410e+00	 3.252589562014102e-01	 1.110754167247201e+01
 1.751182047833929e+00	 3.584936336969702e-01	 1.110855774351839e+01
 1.744034941702122e+00	 3.917886830785507e-01	 1.110515200170862e+01
 1.736209884029342e+00	 4.251252623334367e-01	 1.109698915756610e+01
 1.727700384612536e+00	 4.584840576219720e-01	 1.108373843878026e+01
 1.718500637779927e+00	 4.918453090576508e-01	 1.106507507345593e+01
 1.708605552438449e+00	 5.251888386822515e-01	 1.104068180518509e+01
 1.698010780897124e+00	 5.584940805994180e-01	 1.101025043175663e+01
 1.686712746298402e+00	 5.917401132162234e-01	 1.097348335872105e+01
 1.674708668490632e+00	 6.249056935280959e-01	 1.093009515848231e+01
 1.661996588177176e+00	 6.579692933681721e-01	 1.087981412510722e+01
 1.769949663161724e+00	 3.275334943568037e-01	 1.110970080013089e+01
 1.763428076141683e+00	 3.610005821847440e-01	 1.111032016481299e+01
 1.756230990246865e+00	 3.945284640797232e-01	 1.110669002582444e+01
 1.748351211891164e+00	 4.280981662666999e-01	 1.109847361053539e+01
 1.739782205485490e+00	 4.616902398442015e-01	 1.108533825906517e+01
 1.730518124758961e+00	 4.952847867446978e-01	 1.106695690507016e+01
 1.720553843016463e+00	 5.288614879053642e-01	 1.104300959016411e+01
 1.709884982163583e+00	 5.623996336123871e-01	 1.101318500385884e+01
 1.698507940329780e+00	 5.958781559679937e-01	 1.097718204030257e+01
 1.686419917921784e+00	 6.292756634151330e-01	 1.093471136253625e+01
 1.673618941941580e+00	 6.625704772403191e-01	 1.088549696449251e+01
 1.782240980267553e+00	 3.298080325121973e-01	 1.111358558577198e+01
 1.775674104448857e+00	 3.635075306725129e-01	 1.111379264329899e+01
 1.768427038790941e+00	 3.972682450808769e-01	 1.110992128497950e+01
 1.760492539752241e+00	 4.310710701999204e-01	 1.110163326287580e+01
 1.751864026357632e+00	 4.648964220663550e-01	 1.108859404045243e+01
 1.742535611737127e+00	 4.987242644316255e-01	 1.107047427096429e+01
 1.732502133593562e+00	 5.325341371283038e-01	 1.104695131127558e+01
 1.721759183429090e+00	 5.663051866251195e-01	 1.101771076306850e+01
 1.710303134360180e+00	 6.000161987194534e-01	 1.098244803277907e+01
 1.698131167351941e+00	 6.336456333017750e-01	 1.094086990102768e+01
 1.685241295704983e+00	 6.671716611119766e-01	 1.089269609180265e+01
 1.794532297372897e+00	 3.320825706675907e-01	 1.111916073002003e+01
 1.787920132755449e+00	 3.660144791602774e-01	 1.111894020173737e+01
 1.780623087334351e+00	 4.000080260820117e-01	 1.111481114911945e+01
 1.772633867612575e+00	 4.340439741330983e-01	 1.110643385660440e+01
 1.763945847228964e+00	 4.681026042884321e-01	 1.109347192169243e+01
 1.754553098714425e+00	 5.021637421184332e-01	 1.107559373099451e+01
 1.744450424169746e+00	 5.362067863510702e-01	 1.105247397349879e+01
 1.733633384693645e+00	 5.702107396376150e-01	 1.102379518308367e+01
 1.722098328389602e+00	 6.041542414706025e-01	 1.098924930167461e+01
 1.709842416781103e+00	 6.380156031880218e-01	 1.094853925385817e+01
 1.696863649467388e+00	 6.717728449831445e-01	 1.090138052324549e+01
 1.806823614477755e+00	 3.343571088229843e-01	 1.112639189371982e+01
 1.800166161061462e+00	 3.685214276480370e-01	 1.112572881431667e+01
 1.792819135877093e+00	 4.027478070831276e-01	 1.112132593014436e+01
 1.784775195472166e+00	 4.370168780662335e-01	 1.111284206554360e+01
 1.776027668099485e+00	 4.713087865104332e-01	 1.109993896252193e+01
 1.766570585690856e+00	 5.056032198051217e-01	 1.108228275452242e+01
 1.756398714745015e+00	 5.398794355736636e-01	 1.105954547918522e+01
 1.745507585957248e+00	 5.741162926498736e-01	 1.103140662220088e+01
 1.733893522418045e+00	 6.082922842214408e-01	 1.099755468371064e+01
 1.721553666209272e+00	 6.423855730738739e-01	 1.095768875811353e+01
 1.708486003228792e+00	 6.763740288538224e-01	 1.091152011760481e+01
 1.819114931582128e+00	 3.366316469783779e-01	 1.113524566549636e+01
 1.812412189366892e+00	 3.710283761357918e-01	 1.113412537451010e+01
 1.805015184419169e+00	 4.054875880842249e-01	 1.112943285008600e+01
 1.796916523331014e+00	 4.399897819993261e-01	 1.112082546384118e+01
 1.788109488969196e+00	 4.745149687323580e-01	 1.110796311254954e+01
 1.778588072666419e+00	 5.090426974916901e-01	 1.109050968968839e+01
 1.768347005319369e+00	 5.435520847960839e-01	 1.106813459774200e+01
 1.757381787219899e+00	 5.780218456618955e-01	 1.104051429343003e+01
 1.745688716445509e+00	 6.124303269719682e-01	 1.100733385737368e+01
 1.733264915636445e+00	 6.467555429593308e-01	 1.096828857910487e+01
 1.720108356989195e+00	 6.809752127240108e-01	 1.092308554777500e+01
 1.831406248686016e+00	 3.389061851337714e-01	 1.114568953062125e+01
 1.824658217671743e+00	 3.735353246235422e-01	 1.114409766422713e+01
 1.817211232960577e+00	 4.082273690853030e-01	 1.113910001056650e+01
 1.809057851189117e+00	 4.429626859323761e-01	 1.113035249575810e+01
 1.800191309838096e+00	 4.777211509542068e-01	 1.111751318139431e+01
 1.790605559641113e+00	 5.124821751781390e-01	 1.110024373392241e+01
 1.780295295892808e+00	 5.472247340183306e-01	 1.107821093653600e+01
 1.769255988481599e+00	 5.819273986736807e-01	 1.105108823581273e+01
 1.757483910471995e+00	 6.165683697221850e-01	 1.101855731466815e+01
 1.744976165062624e+00	 6.511255128443929e-01	 1.098030968257584e+01
 1.731730710748600e+00	 6.855763965937093e-01	 1.093604827344183e+01
 1.843697565789419e+00	 3.411807232891650e-01	 1.115769184112452e+01
 1.836904245976013e+00	 3.760422731112877e-01	 1.115561432419895e+01
 1.829407281501320e+00	 4.109671500863628e-01	 1.115029636347863e+01
 1.821199179046478e+00	 4.459355898653836e-01	 1.114139244666466e+01
 1.812273130706186e+00	 4.809273331759791e-01	 1.112855881001867e+01
 1.802623046614941e+00	 5.159216528644683e-01	 1.111145490563441e+01
 1.792243586465333e+00	 5.508973832404047e-01	 1.108974491296190e+01
 1.781130189742346e+00	 5.858329516852289e-01	 1.106309928688796e+01
 1.769279104497502e+00	 6.207064124720912e-01	 1.103119633399914e+01
 1.756687414487809e+00	 6.554954827290598e-01	 1.099372380802150e+01
 1.743353064507004e+00	 6.901775804629183e-01	 1.095038051485613e+01
 1.627129526877964e+00	 6.441657417487923e-01	 1.087218644299363e+01
 1.613989891498045e+00	 6.764145402254381e-01	 1.083322725654491e+01
 1.600155766523939e+00	 7.085206580967053e-01	 1.078766805242162e+01
 1.585627767319404e+00	 7.404624120079153e-01	 1.073510778060133e+01
 1.570407387515452e+00	 7.722179985775097e-01	 1.067515823003409e+01
 1.554497011975571e+00	 8.037655378569363e-01	 1.060744598602518e+01
 1.537899927230667e+00	 8.350831179629202e-01	 1.053161436777756e+01
 1.520620329275986e+00	 8.661488407132029e-01	 1.044732533269622e+01
 1.502663328635016e+00	 8.969408680863412e-01	 1.035426133388819e+01
 1.484034952609081e+00	 9.274374693167079e-01	 1.025212711725505e+01
 1.464742144646208e+00	 9.576170684275745e-01	 1.014065144467445e+01
 1.638751880645368e+00	 6.487669256224087e-01	 1.087312563743118e+01
 1.625518390726798e+00	 6.812460726600401e-01	 1.083431718802846e+01
 1.611585450574138e+00	 7.135815199449438e-01	 1.078903772109359e+01
 1.596953679946601e+00	 7.457514292413342e-01	 1.073687670676292e+01
 1.581624583143993e+00	 7.777338414292114e-01	 1.067743603816784e+01
 1.565600562064543e+00	 8.095067202746747e-01	 1.061033202265851e+01
 1.548884926714374e+00	 8.410479973809957e-01	 1.053519735589307e+01
 1.531481903060134e+00	 8.723356181503270e-01	 1.045168306522238e+01
 1.513396638129045e+00	 9.033475885753565e-01	 1.035946040860541e+01
 1.494635202274586e+00	 9.340620226707022e-01	 1.025822271522907e+01
 1.475204588540842e+00	 9.644571903455147e-01	 1.014768715408258e+01
 1.650374234411771e+00	 6.533681094955353e-01	 1.087567942968308e+01
 1.637046889954552e+00	 6.860776050940667e-01	 1.083697466341699e+01
 1.623015134623337e+00	 7.186423817925500e-01	 1.079192684259538e+01
 1.608279592572798e+00	 7.510404464740931e-01	 1.074011603340424e+01
 1.592841778771534e+00	 7.832496842802550e-01	 1.068113431275564e+01
 1.576704112152514e+00	 8.152479026917873e-01	 1.061458779315386e+01
 1.559869926197083e+00	 8.470128767985073e-01	 1.054009863311154e+01
 1.542343476843282e+00	 8.785223955869790e-01	 1.045730701937421e+01
 1.524129947622075e+00	 9.097543090640229e-01	 1.036587310699091e+01
 1.505235451939092e+00	 9.406865760245012e-01	 1.026547890318250e+01
 1.485667032434476e+00	 9.712973122634445e-01	 1.015583008101303e+01
 1.661996588177176e+00	 6.579692933681721e-01	 1.087981412510722e+01
 1.648575389181304e+00	 6.909091375275175e-01	 1.084116697631861e+01
 1.634444818671535e+00	 7.237032436395238e-01	 1.079630372047290e+01
 1.619605505197995e+00	 7.563294637061926e-01	 1.074479509410063e+01
 1.604058974398076e+00	 7.887655271306413e-01	 1.068622343581983e+01
 1.587807662239485e+00	 8.209890851082737e-01	 1.062018474465008e+01
 1.570854925678792e+00	 8.529777562154547e-01	 1.054629072654033e+01
 1.553205050625430e+00	 8.847091730231600e-01	 1.046417081519777e+01
 1.534863257114104e+00	 9.161610295523409e-01	 1.037347415305886e+01
 1.515835701602599e+00	 9.473111293781052e-01	 1.027387151813333e+01
 1.496129476327111e+00	 9.781374341813636e-01	 1.016505718248279e+01
 1.673618941941580e+00	 6.625704772403191e-01	 1.088549696449251e+01
 1.660103888407058e+00	 6.957406699603933e-01	 1.084686232830756e+01
 1.645874502718734e+00	 7.287641054858656e-01	 1.080213753817246e+01
 1.630931417822192e+00	 7.616184809376318e-01	 1.075088407370580e+01
 1.615276170023616e+00	 7.942813699803695e-01	 1.069267461152927e+01
 1.598911212325456e+00	 8.267302675241344e-01	 1.062709511683943e+01
 1.581839925159500e+00	 8.589426356318381e-01	 1.055374692583639e+01
 1.564066624406578e+00	 8.908959504588688e-01	 1.047224880492637e+01
 1.545596566605134e+00	 9.225677500403102e-01	 1.038223897234380e+01
 1.526435951265105e+00	 9.539356827315140e-01	 1.028337706770382e+01
 1.506591920218745e+00	 9.849775560992717e-01	 1.017534605500447e+01
 1.685241295704983e+00	 6.671716611119766e-01	 1.089269609180265e+01
 1.671632387631811e+00	 7.005722023926938e-01	 1.085402979761492e+01
 1.657304186764933e+00	 7.338249673315752e-01	 1.080939832869937e+01
 1.642257330445389e+00	 7.669074981684119e-01	 1.075835397899741e+01
 1.626493365648157e+00	 7.997972128294403e-01	 1.070045983784949e+01
 1.610014762410427e+00	 8.324714499393688e-01	 1.063529191463823e+01
 1.592824924639209e+00	 8.649075150476579e-01	 1.056244125691144e+01
 1.574928198186726e+00	 8.970827278941063e-01	 1.048151604773273e+01
 1.556329876095164e+00	 9.289744705279305e-01	 1.039214366771026e+01
 1.537036200926610e+00	 9.605602360847276e-01	 1.029397270699621e+01
 1.517054364109380e+00	 9.918176780171698e-01	 1.018667491253472e+01
 1.696863649467388e+00	 6.717728449831445e-01	 1.090138052324549e+01
 1.683160886855564e+00	 7.054037348244186e-01	 1.086263930910621e+01
 1.668733870810132e+00	 7.388858291766527e-01	 1.081805694552348e+01
 1.653583243067586e+00	 7.721965153985318e-01	 1.076717661052898e+01
 1.637710561271698e+00	 8.053130556778525e-01	 1.070955187935782e+01
 1.621118312494399e+00	 8.382126323539776e-01	 1.064474888198041e+01
 1.603809924117917e+00	 8.708723944629133e-01	 1.057234845671776e+01
 1.585789771965874e+00	 9.032695053288717e-01	 1.049194828551874e+01
 1.567063185584193e+00	 9.353811910152019e-01	 1.040316499615655e+01
 1.547636450587117e+00	 9.671847894377464e-01	 1.030563621641873e+01
 1.527516807999014e+00	 9.986577999350574e-01	 1.019902256532890e+01
 1.708486003228792e+00	 6.763740288538224e-01	 1.091152011760481e+01
 1.694689386078318e+00	 7.102352672555683e-01	 1.087266160548425e+01
 1.680163554854331e+00	 7.439466910210980e-01	 1.082808503467219e+01
 1.664909155688782e+00	 7.774855326279917e-01	 1.077732453563075e+01
 1.648927756894240e+00	 8.108288985256076e-01	 1.071992424116822e+01
 1.632221862577370e+00	 8.439538147679603e-01	 1.065544047668104e+01
 1.614794923595626e+00	 8.768372738776048e-01	 1.058344394906313e+01
 1.596651345744023e+00	 9.094562827631659e-01	 1.050352191969339e+01
 1.577796495072223e+00	 9.417879115021248e-01	 1.041528034656531e+01
 1.558236700246622e+00	 9.738093427905699e-01	 1.031834598041674e+01
 1.537979251887649e+00	 1.005497921852934e+00	 1.021236839965882e+01
 1.720108356989195e+00	 6.809752127240108e-01	 1.092308554777500e+01
 1.706217885300071e+00	 7.150667996861424e-01	 1.088406821965954e+01
 1.691593238897530e+00	 7.490075528649108e-01	 1.083945500795489e+01
 1.676235068308979e+00	 7.827745498567924e-01	 1.078877106250499e+01
 1.660144952515781e+00	 8.163447413727047e-01	 1.073155114391310e+01
 1.643325412659340e+00	 8.496949971813165e-01	 1.066734184631856e+01
 1.625779923072334e+00	 8.828021532917318e-01	 1.059570382140627e+01
 1.607512919521170e+00	 9.156430601969879e-01	 1.051621398889209e+01
 1.588529804559253e+00	 9.481946319886988e-01	 1.042846771835606e+01
 1.568836949905128e+00	 9.804338961431981e-01	 1.033208096706600e+01
 1.548441695775283e+00	 1.012338043770800e+00	 1.022669235835268e+01
 1.731730710748600e+00	 6.855763965937093e-01	 1.093604827344183e+01
 1.717746384520824e+00	 7.198983321161414e-01	 1.089683144823318e+01
 1.703022922939729e+00	 7.540684147080918e-01	 1.085214001726555e+01
 1.687560980928176e+00	 7.880635670849330e-01	 1.080149021536461e+01
 1.671362148136322e+00	 8.218605842191440e-01	 1.074440749973266e+01
 1.654428962740312e+00	 8.554361795940472e-01	 1.068042880508846e+01
 1.636764922548042e+00	 8.887670327052954e-01	 1.060910480258669e+01
 1.618374493297319e+00	 9.218298376303385e-01	 1.053000214759326e+01
 1.599263114045282e+00	 9.546013524749239e-01	 1.044270570099736e+01
 1.579437199562634e+00	 9.870584494956315e-01	 1.034682070848780e+01
 1.558904139661917e+00	 1.019178165688655e+00	 1.024197492211875e+01
 1.743353064507004e+00	 6.901775804629183e-01	 1.095038051485613e+01
 1.729274883740578e+00	 7.247298645455649e-01	 1.091092432604060e+01
 1.714452606980928e+00	 7.591292765506406e-01	 1.086611392991323e+01
 1.698886893546374e+00	 7.933525843124138e-01	 1.081545671056607e+01
 1.682579343755863e+00	 8.273764270649256e-01	 1.075846888922463e+01
 1.665532512820283e+00	 8.611773620061519e-01	 1.069467781158268e+01
 1.647749922022751e+00	 8.947319121182951e-01	 1.062362424144526e+01
 1.629236067072467e+00	 9.280166150632179e-01	 1.054486464559024e+01
 1.609996423530313e+00	 9.610080729608007e-01	 1.045797345433856e+01
 1.590037449219140e+00	 9.936830028478698e-01	 1.036254528204746e+01
 1.569366583547552e+00	 1.026018287606500e+00	 1.025819709161597e+01
 1.464742144646208e+00	 9.576170684275745e-01	 1.014065144467445e+01
 1.444792760779105e+00	 9.874582919979614e-01	 1.002475992003120e+01
 1.424195563096069e+00	 1.016940016954224e+00	 9.901988986208186e+00
 1.402960210228699e+00	 1.046041418172352e+00	 9.772120898631071e+00
 1.381097244858090e+00	 1.074742015674165e+00	 9.634957334744456e+00
 1.358618078255741e+00	 1.103021721200889e+00	 9.490320600761583e+00
 1.335534971896006e+00	 1.130860883947535e+00	 9.338054748813821e+00
 1.311861016194242e+00	 1.158240335244118e+00	 9.178026595587138e+00
 1.287610106442683e+00	 1.185141431973866e+00	 9.010126634224010e+00
 1.262796916033438e+00	 1.211546098524362e+00	 8.834269832054426e+00
 1.237436867075000e+00	 1.237436867075000e+00	 8.650396307592656e+00
 1.475204588540842e+00	 9.644571903455147e-01	 1.014768715408258e+01
 1.455112709074938e+00	 9.945115655117275e-01	 1.003261345400223e+01
 1.434368388551411e+00	 1.024203874216805e+00	 9.910694041359852e+00
 1.412981354592089e+00	 1.053513142585853e+00	 9.781699742969003e+00
 1.390962225182928e+00	 1.082418744355134e+00	 9.645420729042973e+00
 1.368322493104510e+00	 1.110900447778312e+00	 9.501667767867865e+00
 1.345074507413148e+00	 1.138938461687509e+00	 9.350273391457387e+00
 1.321231452027168e+00	 1.166513480493667e+00	 9.191092962956088e+00
 1.296807321490887e+00	 1.193606727914892e+00	 9.024005637243292e+00
 1.271816894006361e+00	 1.220199999227256e+00	 8.848915206973354e+00
 1.246275701840000e+00	 1.246275701840000e+00	 8.665750827160991e+00
 1.485667032434476e+00	 9.712973122634445e-01	 1.015583008101303e+01
 1.465432657369780e+00	 1.001564839025664e+00	 1.004152364660804e+01
 1.444541214005794e+00	 1.031467731479696e+00	 9.920404866690395e+00
 1.423002498954569e+00	 1.060984866999766e+00	 9.792233234641060e+00
 1.400827205506926e+00	 1.090095473036578e+00	 9.656787509964142e+00
 1.378026907952530e+00	 1.118779174356233e+00	 9.513867020552622e+00
 1.354614042929651e+00	 1.147016039427960e+00	 9.363292876509290e+00
 1.330601887859582e+00	 1.174786625743633e+00	 9.204909085971504e+00
 1.306004536538730e+00	 1.202072023856238e+00	 9.038583564067963e+00
 1.280836871979093e+00	 1.228853899930329e+00	 8.864209026916924e+00
 1.255114536605000e+00	 1.255114536605000e+00	 8.681703763449278e+00
 1.496129476327111e+00	 9.781374341813636e-01	 1.016505718248279e+01
 1.475752605663633e+00	 1.008618112539770e+00	 1.005146851572018e+01
 1.454714039459216e+00	 1.038731588742899e+00	 9.931100547714617e+00
 1.433023643316138e+00	 1.068456591414092e+00	 9.803701531590004e+00
 1.410692185830083e+00	 1.097772201718495e+00	 9.669038910631173e+00
 1.387731322799798e+00	 1.126657900934648e+00	 9.526900667818312e+00
 1.364153578445512e+00	 1.155093617168889e+00	 9.377096587482185e+00
 1.339972323691486e+00	 1.183059770994018e+00	 9.219459419212406e+00
 1.315201751586213e+00	 1.210537319797904e+00	 9.053845934825230e+00
 1.289856849951636e+00	 1.237507800633582e+00	 8.880137869975870e+00
 1.263953371370000e+00	 1.263953371370000e+00	 8.698242742876031e+00
 1.506591920218745e+00	 9.849775560992717e-01	 1.017534605500447e+01
 1.486072553956495e+00	 1.015671386054045e+00	 1.006242668924186e+01
 1.464886864911678e+00	 1.045995446006413e+00	 9.942760750328073e+00
 1.443044787676797e+00	 1.075928315828831e+00	 9.816085342357226e+00
 1.420557166152399e+00	 1.105448930400887e+00	 9.682156684908922e+00
 1.397435737646315e+00	 1.134536627513560e+00	 9.540751509534193e+00
 1.373693113960733e+00	 1.163171194910295e+00	 9.391668368920147e+00
 1.349342759522880e+00	 1.191332916244822e+00	 9.234728848550922e+00
 1.324398966633336e+00	 1.219002615739889e+00	 9.069778671351646e+00
 1.298876827923988e+00	 1.246161701337016e+00	 8.896688686578500e+00
 1.272792206135000e+00	 1.272792206135000e+00	 8.715355735094230e+00
 1.517054364109380e+00	 9.918176780171698e-01	 1.018667491253472e+01
 1.496392502248367e+00	 1.022724659568490e+00	 1.007437738407233e+01
 1.475059690363180e+00	 1.053259303270238e+00	 9.955365700793946e+00
 1.453065932036545e+00	 1.083400040243982e+00	 9.829365907096609e+00
 1.430422146473876e+00	 1.113125659083753e+00	 9.696123089447266e+00
 1.407140152492082e+00	 1.142415354092968e+00	 9.555402819509828e+00
 1.383232649475314e+00	 1.171248772652179e+00	 9.406992510501031e+00
 1.358713195353763e+00	 1.199606061496045e+00	 9.250702676280067e+00
 1.333596181680099e+00	 1.227467911682194e+00	 9.086368083341075e+00
 1.307896805896150e+00	 1.254815602040628e+00	 8.913848786651315e+00
 1.281631040900000e+00	 1.281631040900000e+00	 8.733031041155606e+00
 1.527516807999014e+00	 9.986577999350574e-01	 1.019902256532890e+01
 1.506712450539249e+00	 1.029777933083105e+00	 1.008730038593580e+01
 1.485232515813721e+00	 1.060523160534374e+00	 9.968896166552391e+00
 1.463087076395382e+00	 1.090871764659546e+00	 9.843524979368597e+00
 1.440287126794510e+00	 1.120802387767094e+00	 9.710920866462448e+00
 1.416844567337098e+00	 1.150294080672872e+00	 9.570838329264294e+00
 1.392772184989253e+00	 1.179326350394540e+00	 9.423053731792109e+00
 1.368083631184136e+00	 1.207879206747686e+00	 9.267366606852761e+00
 1.342793396726501e+00	 1.235933207624818e+00	 9.103600855061885e+00
 1.316916783868122e+00	 1.263469502744421e+00	 8.931605827307598e+00
 1.290469875665000e+00	 1.290469875665000e+00	 8.751257282161410e+00
 1.537979251887649e+00	 1.005497921852934e+00	 1.021236839965882e+01
 1.517032398829141e+00	 1.036831206597890e+00	 1.010117603003364e+01
 1.495405341263303e+00	 1.067787017798821e+00	 9.983333437813119e+00
 1.473108220753309e+00	 1.098343489075522e+00	 9.858544808677369e+00
 1.450152107114305e+00	 1.128479116450908e+00	 9.726533227221260e+00
 1.426548982181364e+00	 1.158172807253272e+00	 9.587042212457833e+00
 1.402311720502552e+00	 1.187403928137378e+00	 9.439837167628092e+00
 1.377454067013998e+00	 1.216152351999745e+00	 9.284706733202956e+00
 1.351990611772543e+00	 1.244398503567761e+00	 9.121464032616341e+00
 1.325936761839904e+00	 1.272123403448393e+00	 8.949947801038228e+00
 1.299308710430000e+00	 1.299308710430000e+00	 8.770023388376380e+00
 1.548441695775283e+00	 1.012338043770800e+00	 1.022669235835268e+01
 1.527352347118043e+00	 1.043884480112846e+00	 1.011598518248099e+01
 1.505578166711924e+00	 1.075050875063579e+00	 9.998659309894311e+00
 1.483129365110326e+00	 1.105815213491911e+00	 9.874408123716035e+00
 1.460017087433259e+00	 1.136155845135198e+00	 9.742943836194643e+00
 1.436253397024878e+00	 1.166051533834168e+00	 9.603999069954620e+00
 1.411851256015211e+00	 1.195481505880694e+00	 9.457328354081701e+00
 1.386824502843350e+00	 1.224425497252223e+00	 9.302709523621241e+00
 1.361187826818225e+00	 1.252863799511024e+00	 9.139945011716454e+00
 1.334956739811496e+00	 1.280777304152546e+00	 8.968863024381388e+00
 1.308147545195000e+00	 1.308147545195000e+00	 8.789318588784001e+00
 1.558904139661917e+00	 1.019178165688655e+00	 1.024197492211875e+01
 1.537672295405955e+00	 1.050937753627970e+00	 1.013170922249084e+01
 1.515750992159585e+00	 1.082314732328648e+00	 1.001485606627263e+01
 1.493150509466432e+00	 1.113286937908712e+00	 9.891098116286427e+00
 1.469882067751373e+00	 1.143832573819961e+00	 9.760136795849581e+00
 1.445957811867642e+00	 1.173930260415559e+00	 9.621693915487086e+00
 1.421390791527228e+00	 1.203559083624488e+00	 9.475513214999401e+00
 1.396194938672191e+00	 1.232698642505121e+00	 9.321361809158983e+00
 1.370385041863546e+00	 1.261329095454607e+00	 9.159031525952145e+00
 1.343976717782898e+00	 1.289431204856878e+00	 8.988340127048470e+00
 1.316986379960000e+00	 1.316986379960000e+00	 8.809132401062396e+00
 1.569366583547552e+00	 1.026018287606500e+00	 1.025819709161597e+01
 1.547992243692877e+00	 1.057991027143265e+00	 1.014833002527077e+01
 1.525923817606285e+00	 1.089578589594028e+00	 1.003190646231128e+01
 1.503171653821628e+00	 1.120758662325927e+00	 9.908598425862166e+00
 1.479747048068645e+00	 1.151509302505199e+00	 9.778096632049207e+00
 1.455662226709656e+00	 1.181808986997448e+00	 9.640112161893645e+00
 1.430930327038606e+00	 1.211636661368759e+00	 9.494378049075538e+00
 1.405565374500522e+00	 1.240971787758436e+00	 9.340650771536328e+00
 1.379582256908508e+00	 1.269794391398509e+00	 9.178711635528638e+00
 1.352996695754110e+00	 1.298085105561391e+00	 9.008368041485021e+00
 1.325825214725000e+00	 1.325825214725000e+00	 8.829454621961158e+00
 1.237436867075000e+00	 1.237436867075000e+00	 8.650396307592656e+00
 1.211546098524362e+00	 1.262796916033438e+00	 8.448803781687371e+00
 1.185141431973866e+00	 1.287610106442683e+00	 8.244021548562531e+00
 1.158240335244119e+00	 1.311861016194243e+00	 8.036152028784777e+00
 1.130860883947535e+00	 1.335534971896005e+00	 7.825306693056579e+00
 1.103021721200889e+00	 1.358618078255741e+00	 7.611605846663277e+00
 1.074742015674166e+00	 1.381097244858090e+00	 7.395178369351680e+00
 1.046041418172353e+00	 1.402960210228699e+00	 7.176161411977992e+00
 1.016940016954224e+00	 1.424195563096068e+00	 6.954700051613994e+00
 9.874582919979624e-01	 1.444792760779105e+00	 6.730946907133527e+00
 9.576170684275745e-01	 1.464742144646208e+00	 6.505061717615193e+00
 1.246275701840000e+00	 1.246275701840000e+00	 8.665750827160991e+00
 1.220199999227256e+00	 1.271816894006361e+00	 8.465390109370608e+00
 1.193606727914892e+00	 1.296807321490887e+00	 8.261802816956415e+00
 1.166513480493667e+00	 1.321231452027167e+00	 8.055082868187549e+00
 1.138938461687509e+00	 1.345074507413148e+00	 7.845333374743755e+00
 1.110900447778313e+00	 1.368322493104510e+00	 7.632666459984497e+00
 1.082418744355135e+00	 1.390962225182927e+00	 7.417203031613184e+00
 1.053513142585854e+00	 1.412981354592089e+00	 7.199072509863104e+00
 1.024203874216806e+00	 1.434368388551411e+00	 6.978412512693616e+00
 9.945115655117286e-01	 1.455112709074937e+00	 6.755368499833567e+00
 9.644571903455147e-01	 1.475204588540842e+00	 6.530093377836478e+00
 1.255114536605000e+00	 1.255114536605000e+00	 8.681703763449278e+00
 1.228853899930329e+00	 1.280836871979093e+00	 8.482533528468172e+00
 1.202072023856238e+00	 1.306004536538730e+00	 8.280099918678857e+00
 1.174786625743633e+00	 1.330601887859582e+00	 8.074488429166284e+00
 1.147016039427960e+00	 1.354614042929651e+00	 7.865793891160205e+00
 1.118779174356233e+00	 1.378026907952529e+00	 7.654120323849345e+00
 1.090095473036578e+00	 1.400827205506926e+00	 7.439580739559567e+00
 1.060984866999767e+00	 1.423002498954568e+00	 7.222296903212641e+00
 1.031467731479697e+00	 1.444541214005793e+00	 7.002399047356325e+00
 1.001564839025664e+00	 1.465432657369779e+00	 6.780025544417844e+00
 9.712973122634446e-01	 1.485667032434477e+00	 6.555322538176444e+00
 1.263953371370000e+00	 1.263953371370000e+00	 8.698242742876031e+00
 1.237507800633582e+00	 1.289856849951636e+00	 8.500222530953698e+00
 1.210537319797904e+00	 1.315201751586213e+00	 8.298902209648764e+00
 1.183059770994018e+00	 1.339972323691486e+00	 8.094358928308852e+00
 1.155093617168889e+00	 1.364153578445512e+00	 7.886679314631657e+00
 1.126657900934648e+00	 1.387731322799797e+00	 7.675959359753020e+00
 1.097772201718496e+00	 1.410692185830083e+00	 7.462304255673207e+00
 1.068456591414093e+00	 1.433023643316137e+00	 7.245828185729049e+00
 1.038731588742900e+00	 1.454714039459216e+00	 7.026654069206763e+00
 1.008618112539770e+00	 1.475752605663632e+00	 6.804913261564320e+00
 9.781374341813637e-01	 1.496129476327111e+00	 6.580745212091218e+00
 1.272792206135000e+00	 1.272792206135000e+00	 8.715355735094230e+00
 1.246161701337015e+00	 1.298876827923988e+00	 8.518445928010266e+00
 1.219002615739890e+00	 1.324398966633336e+00	 8.318199341015118e+00
 1.191332916244822e+00	 1.349342759522880e+00	 8.114684853545645e+00
 1.163171194910296e+00	 1.373693113960733e+00	 7.907980965076381e+00
 1.134536627513560e+00	 1.397435737646315e+00	 7.698175713216488e+00
 1.105448930400887e+00	 1.420557166152399e+00	 7.485366543123209e+00
 1.075928315828831e+00	 1.443044787676796e+00	 7.269660128733925e+00
 1.045995446006414e+00	 1.464886864911678e+00	 7.051172146715890e+00
 1.015671386054046e+00	 1.486072553956495e+00	 6.830027004420981e+00
 9.849775560992720e-01	 1.506591920218745e+00	 6.606357523507574e+00
 1.281631040900000e+00	 1.281631040900000e+00	 8.733031041155606e+00
 1.254815602040628e+00	 1.307896805896150e+00	 8.537192839023129e+00
 1.227467911682194e+00	 1.333596181680099e+00	 8.337981248976579e+00
 1.199606061496045e+00	 1.358713195353763e+00	 8.135456954792806e+00
 1.171248772652179e+00	 1.383232649475313e+00	 7.929690401467610e+00
 1.142415354092968e+00	 1.407140152492081e+00	 7.720761746061322e+00
 1.113125659083754e+00	 1.430422146473875e+00	 7.508760758844945e+00
 1.083400040243983e+00	 1.453065932036545e+00	 7.293786675043258e+00
 1.053259303270239e+00	 1.475059690363180e+00	 7.075947997880747e+00
 1.022724659568491e+00	 1.496392502248366e+00	 6.855362254037798e+00
 9.918176780171699e-01	 1.517054364109380e+00	 6.632155703013687e+00
 1.290469875665000e+00	 1.290469875665000e+00	 8.751257282161410e+00
 1.263469502744421e+00	 1.316916783868122e+00	 8.556452681024908e+00
 1.235933207624818e+00	 1.342793396726501e+00	 8.358238145019506e+00
 1.207879206747686e+00	 1.368083631184136e+00	 8.156666234980255e+00
 1.179326350394540e+00	 1.392772184989253e+00	 7.951799413646571e+00
 1.150294080672872e+00	 1.416844567337098e+00	 7.743710029002253e+00
 1.120802387767094e+00	 1.440287126794510e+00	 7.532480246904382e+00
 1.090871764659547e+00	 1.463087076395382e+00	 7.318201933094219e+00
 1.060523160534375e+00	 1.485232515813721e+00	 7.100976485103728e+00
 1.029777933083107e+00	 1.506712450539249e+00	 6.880914614986608e+00
 9.986577999350573e-01	 1.527516807999014e+00	 6.658136084206244e+00
 1.299308710430000e+00	 1.299308710430000e+00	 8.770023388376380e+00
 1.272123403448393e+00	 1.325936761839904e+00	 8.576215158571495e+00
 1.244398503567761e+00	 1.351990611772543e+00	 8.378960506554479e+00
 1.216152351999746e+00	 1.377454067013998e+00	 8.178303941445694e+00
 1.187403928137379e+00	 1.402311720502552e+00	 7.974300014469988e+00
 1.158172807253272e+00	 1.426548982181363e+00	 7.767013334541922e+00
 1.128479116450909e+00	 1.450152107114305e+00	 7.556518532133004e+00
 1.098343489075523e+00	 1.473108220753309e+00	 7.342900171311891e+00
 1.067787017798822e+00	 1.495405341263302e+00	 7.126252610280835e+00
 1.036831206597892e+00	 1.517032398829141e+00	 6.906679811159528e+00
 1.005497921852934e+00	 1.537979251887649e+00	 6.684295100186834e+00
 1.308147545195000e+00	 1.308147545195000e+00	 8.789318588784001e+00
 1.280777304152546e+00	 1.334956739811497e+00	 8.596470254028416e+00
 1.252863799511024e+00	 1.361187826818225e+00	 8.400139067932310e+00
 1.224425497252224e+00	 1.386824502843349e+00	 8.200361557677594e+00
 1.195481505880695e+00	 1.411851256015210e+00	 7.997184432275644e+00
 1.166051533834168e+00	 1.436253397024877e+00	 7.790664630153728e+00
 1.136155845135198e+00	 1.460017087433259e+00	 7.580869314020895e+00
 1.105815213491912e+00	 1.483129365110326e+00	 7.367875812704226e+00
 1.075050875063580e+00	 1.505578166711923e+00	 7.151771510088981e+00
 1.043884480112846e+00	 1.527352347118043e+00	 6.932653681738116e+00
 1.012338043770800e+00	 1.548441695775283e+00	 6.710629280200228e+00
 1.316986379960000e+00	 1.316986379960000e+00	 8.809132401062396e+00
 1.289431204856878e+00	 1.343976717782898e+00	 8.617208218248408e+00
 1.261329095454607e+00	 1.370385041863546e+00	 8.421764811821944e+00
 1.232698642505121e+00	 1.396194938672191e+00	 8.222830795390708e+00
 1.203559083624488e+00	 1.421390791527228e+00	 8.020445103651589e+00
 1.173930260415560e+00	 1.445957811867642e+00	 7.814657071739145e+00
 1.143832573819962e+00	 1.469882067751372e+00	 7.605526460855714e+00
 1.113286937908713e+00	 1.493150509466432e+00	 7.393123429674725e+00
 1.082314732328649e+00	 1.515750992159584e+00	 7.177528451463258e+00
 1.050937753627971e+00	 1.537672295405955e+00	 6.958832177324379e+00
 1.019178165688655e+00	 1.558904139661917e+00	 6.737135246408193e+00
 1.325825214725000e+00	 1.325825214725000e+00	 8.829454621961158e+00
 1.298085105561391e+00	 1.352996695754110e+00	 8.638419561621774e+00
 1.269794391398509e+00	 1.379582256908508e+00	 8.443828960933129e+00
 1.240971787758436e+00	 1.405565374500522e+00	 8.245703586918481e+00
 1.211636661368759e+00	 1.430930327038606e+00	 8.044074666494371e+00
 1.181808986997448e+00	 1.455662226709656e+00	 7.838983997346879e+00
 1.151509302505200e+00	 1.479747048068645e+00	 7.630484004096129e+00
 1.120758662325928e+00	 1.503171653821628e+00	 7.418637739042556e+00
 1.089578589594029e+00	 1.525923817606285e+00	 7.203518827254916e+00
 1.057991027143266e+00	 1.547992243692877e+00	 6.985211356226811e+00
 1.026018287606500e+00	 1.569366583547552e+00	 6.763809710792112e+00
 9.576170684275745e-01	 1.464742144646208e+00	 6.505061717615193e+00
 9.274374693167079e-01	 1.484034952609081e+00	 6.260275541565484e+00
 8.969408680863412e-01	 1.502663328635016e+00	 6.019613229246154e+00
 8.661488407132029e-01	 1.520620329275986e+00	 5.783363670726478e+00
 8.350831179629206e-01	 1.537899927230666e+00	 5.551798657298916e+00
 8.037655378569366e-01	 1.554497011975572e+00	 5.325172322671959e+00
 7.722179985775102e-01	 1.570407387515452e+00	 5.103720679428479e+00
 7.404624120079161e-01	 1.585627767319404e+00	 4.887661251076482e+00
 7.085206580967063e-01	 1.600155766523939e+00	 4.677192799274811e+00
 6.764145402254393e-01	 1.613989891498045e+00	 4.472495145100234e+00
 6.441657417487923e-01	 1.627129526877964e+00	 4.273729082540841e+00
 9.644571903455147e-01	 1.475204588540842e+00	 6.530093377836478e+00
 9.340620226707020e-01	 1.494635202274587e+00	 6.286758205095828e+00
 9.033475885753567e-01	 1.513396638129045e+00	 6.047431545914804e+00
 8.723356181503269e-01	 1.531481903060134e+00	 5.812395509343725e+00
 8.410479973809958e-01	 1.548884926714374e+00	 5.581915452958809e+00
 8.095067202746751e-01	 1.565600562064542e+00	 5.356239445264846e+00
 7.777338414292119e-01	 1.581624583143993e+00	 5.135597821235720e+00
 7.457514292413349e-01	 1.596953679946601e+00	 4.920202831239853e+00
 7.135815199449446e-01	 1.611585450574138e+00	 4.710248382872266e+00
 6.812460726600413e-01	 1.625518390726798e+00	 4.505909874518569e+00
 6.487669256224087e-01	 1.638751880645368e+00	 4.307344118814152e+00
 9.712973122634446e-01	 1.485667032434477e+00	 6.555322538176444e+00
 9.406865760245010e-01	 1.505235451939093e+00	 6.313392398086988e+00
 9.097543090640229e-01	 1.524129947622075e+00	 6.075356268193145e+00
 8.785223955869794e-01	 1.542343476843282e+00	 5.841489554757919e+00
 8.470128767985073e-01	 1.559869926197083e+00	 5.612051256637304e+00
 8.152479026917877e-01	 1.576704112152514e+00	 5.387283448682137e+00
 7.832496842802557e-01	 1.592841778771534e+00	 5.167410856170455e+00
 7.510404464740938e-01	 1.608279592572798e+00	 4.952640520437533e+00
 7.186423817925509e-01	 1.623015134623336e+00	 4.743161555165836e+00
 6.860776050940676e-01	 1.637046889954551e+00	 4.539144992118901e+00
 6.533681094955354e-01	 1.650374234411771e+00	 4.340743714461272e+00
 9.781374341813637e-01	 1.496129476327111e+00	 6.580745212091218e+00
 9.473111293781052e-01	 1.515835701602599e+00	 6.340175094758164e+00
 9.161610295523410e-01	 1.534863257114104e+00	 6.103385313053556e+00
 8.847091730231601e-01	 1.553205050625430e+00	 5.870644647042567e+00
 8.529777562154551e-01	 1.570854925678792e+00	 5.642205810283492e+00
 8.209890851082741e-01	 1.587807662239485e+00	 5.418304954022922e+00
 7.887655271306419e-01	 1.604058974398075e+00	 5.199161260332916e+00
 7.563294637061935e-01	 1.619605505197995e+00	 4.984976624279609e+00
 7.237032436395248e-01	 1.634444818671535e+00	 4.775935424525487e+00
 6.909091375275186e-01	 1.648575389181304e+00	 4.572204381109138e+00
 6.579692933681720e-01	 1.661996588177175e+00	 4.373932498522752e+00
 9.849775560992720e-01	 1.506591920218745e+00	 6.606357523507574e+00
 9.539356827315137e-01	 1.526435951265105e+00	 6.367103353133563e+00
 9.225677500403102e-01	 1.545596566605134e+00	 6.131516655107847e+00
 8.908959504588690e-01	 1.564066624406578e+00	 5.899859658290497e+00
 8.589426356318386e-01	 1.581839925159500e+00	 5.672378862835096e+00
 8.267302675241348e-01	 1.598911212325456e+00	 5.449304564974719e+00
 7.942813699803704e-01	 1.615276170023616e+00	 5.230850468681679e+00
 7.616184809376328e-01	 1.630931417822191e+00	 5.017213384211767e+00
 7.287641054858667e-01	 1.645874502718734e+00	 4.808573012876493e+00
 6.957406699603945e-01	 1.660103888407058e+00	 4.605091816746816e+00
 6.625704772403191e-01	 1.673618941941579e+00	 4.406914971387600e+00
 9.918176780171699e-01	 1.517054364109380e+00	 6.632155703013687e+00
 9.605602360847276e-01	 1.537036200926611e+00	 6.394174312152687e+00
 9.289744705279306e-01	 1.556329876095164e+00	 6.159748324619683e+00
 8.970827278941061e-01	 1.574928198186726e+00	 5.929133491509960e+00
 8.649075150476579e-01	 1.592824924639208e+00	 5.702570169977366e+00
 8.324714499393694e-01	 1.610014762410427e+00	 5.480282868413775e+00
 7.997972128294406e-01	 1.626493365648157e+00	 5.262479876452380e+00
 7.669074981684126e-01	 1.642257330445388e+00	 5.049352979728086e+00
 7.338249673315762e-01	 1.657304186764933e+00	 4.841077258680281e+00
 7.005722023926947e-01	 1.671632387631810e+00	 4.637810970061462e+00
 6.671716611119766e-01	 1.685241295704983e+00	 4.439695509229783e+00
 9.986577999350573e-01	 1.527516807999014e+00	 6.658136084206244e+00
 9.671847894377462e-01	 1.547636450587116e+00	 6.421385188899102e+00
 9.353811910152018e-01	 1.567063185584193e+00	 6.188078405598786e+00
 9.032695053288720e-01	 1.585789771965874e+00	 5.958465079565697e+00
 8.708723944629133e-01	 1.603809924117917e+00	 5.732779493911980e+00
 8.382126323539778e-01	 1.621118312494398e+00	 5.511240434980876e+00
 8.053130556778535e-01	 1.637710561271698e+00	 5.294050840518079e+00
 7.721965153985323e-01	 1.653583243067585e+00	 5.081397530492501e+00
 7.388858291766537e-01	 1.668733870810132e+00	 4.873451019792776e+00
 7.054037348244198e-01	 1.683160886855564e+00	 4.670365411423997e+00
 6.717728449831446e-01	 1.696863649467388e+00	 4.472278368261945e+00
 1.005497921852934e+00	 1.537979251887649e+00	 6.684295100186834e+00
 9.738093427905699e-01	 1.558236700246622e+00	 6.448733275942647e+00
 9.417879115021248e-01	 1.577796495072223e+00	 6.216505033972732e+00
 9.094562827631661e-01	 1.596651345744022e+00	 5.987853384163463e+00
 8.768372738776050e-01	 1.614794923595625e+00	 5.763006603135495e+00
 8.439538147679604e-01	 1.632221862577369e+00	 5.542177819633473e+00
 8.108288985256082e-01	 1.648927756894240e+00	 5.325564680694093e+00
 7.774855326279926e-01	 1.664909155688782e+00	 5.113349098373934e+00
 7.439466910210989e-01	 1.680163554854331e+00	 4.905697076206017e+00
 7.102352672555692e-01	 1.694689386078317e+00	 4.702758613970603e+00
 6.763740288538225e-01	 1.708486003228792e+00	 4.504667688815822e+00
 1.012338043770800e+00	 1.548441695775283e+00	 6.710629280200228e+00
 9.804338961431978e-01	 1.568836949905128e+00	 6.476215938789058e+00
 9.481946319886988e-01	 1.588529804559253e+00	 6.245026395833092e+00
 9.156430601969882e-01	 1.607512919521170e+00	 6.017297394875728e+00
 8.828021532917325e-01	 1.625779923072334e+00	 5.793251272226598e+00
 8.496949971813170e-01	 1.643325412659341e+00	 5.573095562175691e+00
 8.163447413727055e-01	 1.660144952515780e+00	 5.357022680989964e+00
 7.827745498567932e-01	 1.676235068308980e+00	 5.145209689398731e+00
 7.490075528649117e-01	 1.691593238897529e+00	 4.937818132678872e+00
 7.150667996861435e-01	 1.706217885300070e+00	 4.734993956887584e+00
 6.809752127240106e-01	 1.720108356989195e+00	 4.536867499257154e+00
 1.019178165688655e+00	 1.558904139661917e+00	 6.737135246408193e+00
 9.870584494956313e-01	 1.579437199562634e+00	 6.503830613432557e+00
 9.546013524749237e-01	 1.599263114045282e+00	 6.273640725751964e+00
 9.218298376303387e-01	 1.618374493297318e+00	 6.046796128206539e+00
 8.887670327052957e-01	 1.636764922548042e+00	 5.823513281642076e+00
 8.554361795940475e-01	 1.654428962740311e+00	 5.603994187766620e+00
 8.218605842191447e-01	 1.671362148136321e+00	 5.388426090811024e+00
 7.880635670849336e-01	 1.687560980928176e+00	 5.176981255624657e+00
 7.540684147080928e-01	 1.703022922939728e+00	 4.969816821261391e+00
 7.198983321161423e-01	 1.717746384520824e+00	 4.767074728564147e+00
 6.855763965937093e-01	 1.731730710748600e+00	 4.568881719742882e+00
 1.026018287606500e+00	 1.569366583547552e+00	 6.763809710792112e+00
 9.936830028478698e-01	 1.590037449219140e+00	 6.531574804006251e+00
 9.610080729608007e-01	 1.609996423530313e+00	 6.302346305166001e+00
 9.280166150632180e-01	 1.629236067072467e+00	 6.076348626693684e+00
 8.947319121182953e-01	 1.647749922022751e+00	 5.853792417520765e+00
 8.611773620061525e-01	 1.665532512820283e+00	 5.634874207408636e+00
 8.273764270649263e-01	 1.682579343755863e+00	 5.419776126111793e+00
 7.933525843124147e-01	 1.698886893546373e+00	 5.208665696939878e+00
 7.591292765506416e-01	 1.714452606980927e+00	 5.001695703718669e+00
 7.247298645455660e-01	 1.729274883740578e+00	 4.799004129618901e+00
 6.901775804629183e-01	 1.743353064507004e+00	 4.600714165828146e+00
 6.441657417487923e-01	 1.627129526877964e+00	 4.273729082540841e+00
 6.117957838646149e-01	 1.639574920191208e+00	 4.062244256634436e+00
 5.793259849590476e-01	 1.651327164198396e+00	 3.862800887230704e+00
 5.467774215590897e-01	 1.662388177092036e+00	 3.675608632426280e+00
 5.141708910118744e-01	 1.672760680698918e+00	 3.500836244832810e+00
 4.815268759957917e-01	 1.682448176837619e+00	 3.338612216877392e+00
 4.488655109548267e-01	 1.691454921988814e+00	 3.189025593411281e+00
 4.162065505333923e-01	 1.699785900439417e+00	 3.052126940148690e+00
 3.835693400749210e-01	 1.707446796063892e+00	 2.927929455789949e+00
 3.509727882336220e-01	 1.714443962907183e+00	 2.816410215163371e+00
 3.184353417352296e-01	 1.720784394733555e+00	 2.717511530341516e+00
 6.487669256224087e-01	 1.638751880645368e+00	 4.307344118814152e+00
 6.161657537528369e-01	 1.651286169625344e+00	 4.097103061354177e+00
 5.834640277117503e-01	 1.663122358232710e+00	 3.898756975313649e+00
 5.506829745727695e-01	 1.674262378361350e+00	 3.712516243199148e+00
 5.178435402355067e-01	 1.684708971279677e+00	 3.538550535574907e+00
 4.849663536831978e-01	 1.694465663819255e+00	 3.376989450496076e+00
 4.520716931772849e-01	 1.703536742864199e+00	 3.227923319747318e+00
 4.191794544667834e-01	 1.711927228303469e+00	 3.091404170453021e+00
 3.863091210761500e-01	 1.719642844610636e+00	 2.967446829960747e+00
 3.534797367214098e-01	 1.726689991216679e+00	 2.856030161378984e+00
 3.207098798906232e-01	 1.733075711841326e+00	 2.757098416773892e+00
 6.533681094955354e-01	 1.650374234411771e+00	 4.340743714461272e+00
 6.205357236406640e-01	 1.662997419058485e+00	 4.131731130835405e+00
 5.876020704641420e-01	 1.674917552266045e+00	 3.934468101378930e+00
 5.545885275862121e-01	 1.686136579629713e+00	 3.749165743968112e+00
 5.215161894589658e-01	 1.696657261859521e+00	 3.575994655279196e+00
 4.884058313704844e-01	 1.706483150800025e+00	 3.415085544401498e+00
 4.552778753996668e-01	 1.715618563738773e+00	 3.266530032763299e+00
 4.221523584001318e-01	 1.724068556166777e+00	 3.130381608981465e+00
 3.890489020773603e-01	 1.731838893156712e+00	 3.006656726581791e+00
 3.559866852091929e-01	 1.738936019525595e+00	 2.895336032018463e+00
 3.229844180460166e-01	 1.745367028948611e+00	 2.796365710044016e+00
 6.579692933681720e-01	 1.661996588177175e+00	 4.373932498522752e+00
 6.249056935280957e-01	 1.674708668490631e+00	 4.166133408941617e+00
 5.917401132162232e-01	 1.686712746298402e+00	 3.969939501494981e+00
 5.584940805994181e-01	 1.698010780897124e+00	 3.785562640166054e+00
 5.251888386822519e-01	 1.708605552438449e+00	 3.613174355739672e+00
 4.918453090576513e-01	 1.718500637779927e+00	 3.452906473640822e+00
 4.584840576219726e-01	 1.727700384612536e+00	 3.304851907604544e+00
 4.251252623334376e-01	 1.736209884029342e+00	 3.169065607830798e+00
 3.917886830785516e-01	 1.744034941702122e+00	 3.045565651617328e+00
 3.584936336969712e-01	 1.751182047833929e+00	 2.934334463944301e+00
 3.252589562014102e-01	 1.757658346055410e+00	 2.835320155108559e+00
 6.625704772403191e-01	 1.673618941941579e+00	 4.406914971387600e+00
 6.292756634151327e-01	 1.686419917921784e+00	 4.200314702155197e+00
 5.958781559679939e-01	 1.698507940329780e+00	 4.005176266246696e+00
 5.623996336123873e-01	 1.709884982163583e+00	 3.821712284273389e+00
 5.288614879053646e-01	 1.720553843016463e+00	 3.650095228966526e+00
 4.952847867446983e-01	 1.730518124758960e+00	 3.490458047286803e+00
 4.616902398442022e-01	 1.739782205485489e+00	 3.342894947892967e+00
 4.280981662667007e-01	 1.748351211891163e+00	 3.207462342667117e+00
 3.945284640797241e-01	 1.756230990246865e+00	 3.084179930333502e+00
 3.610005821847450e-01	 1.763428076141683e+00	 2.973031909690325e+00
 3.275334943568037e-01	 1.769949663161724e+00	 2.873968309597032e+00
 6.671716611119766e-01	 1.685241295704983e+00	 4.439695509229783e+00
 6.336456333017748e-01	 1.698131167351941e+00	 4.234279684314807e+00
 6.000161987194534e-01	 1.710303134360181e+00	 4.040183345752364e+00
 5.663051866251195e-01	 1.721759183429090e+00	 3.857619881092197e+00
 5.325341371283041e-01	 1.732502133593562e+00	 3.686762712695848e+00
 4.987242644316259e-01	 1.742535611737127e+00	 3.527745914160768e+00
 4.648964220663556e-01	 1.751864026357632e+00	 3.380664991641725e+00
 4.310710701999212e-01	 1.760492539752242e+00	 3.245577818809824e+00
 3.972682450808779e-01	 1.768427038790942e+00	 3.122505713529696e+00
 3.635075306725140e-01	 1.775674104448856e+00	 3.011434643817950e+00
 3.298080325121973e-01	 1.782240980267553e+00	 2.912316550271365e+00
 6.717728449831446e-01	 1.696863649467388e+00	 4.472278368261945e+00
 6.380156031880218e-01	 1.709842416781104e+00	 4.268032901158058e+00
 6.041542414706024e-01	 1.722098328389602e+00	 4.074965554473986e+00
 5.702107396376153e-01	 1.733633384693645e+00	 3.893290492803763e+00
 5.362067863510706e-01	 1.744450424169746e+00	 3.723182095673010e+00
 5.021637421184337e-01	 1.754553098714425e+00	 3.564775568320778e+00
 4.681026042884328e-01	 1.763945847228964e+00	 3.418167716926561e+00
 4.340439741330990e-01	 1.772633867612575e+00	 3.283417877065290e+00
 4.000080260820126e-01	 1.780623087334350e+00	 3.160548983513026e+00
 3.660144791602783e-01	 1.787920132755449e+00	 3.049548769011109e+00
 3.320825706675907e-01	 1.794532297372897e+00	 2.950371079219990e+00
 6.763740288538225e-01	 1.708486003228792e+00	 4.504667688815822e+00
 6.423855730738738e-01	 1.721553666209272e+00	 4.301578774678547e+00
 6.082922842214408e-01	 1.733893522418045e+00	 4.109527575831554e+00
 5.741162926498737e-01	 1.745507585957248e+00	 3.928729043819601e+00
 5.398794355736638e-01	 1.756398714745015e+00	 3.759358522720423e+00
 5.056032198051220e-01	 1.766570585690856e+00	 3.601552354325702e+00
 4.713087865104338e-01	 1.776027668099485e+00	 3.455408647326125e+00
 4.370168780662343e-01	 1.784775195472166e+00	 3.320988199322503e+00
 4.027478070831286e-01	 1.792819135877093e+00	 3.198315559829696e+00
 3.685214276480380e-01	 1.800166161061461e+00	 3.087380221922465e+00
 3.343571088229843e-01	 1.806823614477755e+00	 2.988137929799061e+00
 6.809752127240106e-01	 1.720108356989195e+00	 4.536867499257154e+00
 6.467555429593308e-01	 1.733264915636446e+00	 4.334921607306502e+00
 6.124303269719683e-01	 1.745688716445509e+00	 4.143873966630003e+00
 5.780218456618959e-01	 1.757381787219899e+00	 3.963940325435922e+00
 5.435520847960841e-01	 1.768347005319369e+00	 3.795296999599647e+00
 5.090426974916905e-01	 1.778588072666419e+00	 3.638081472285867e+00
 4.745149687323587e-01	 1.788109488969196e+00	 3.492393157141222e+00
 4.399897819993270e-01	 1.796916523331014e+00	 3.358294313922082e+00
 4.054875880842257e-01	 1.805015184419168e+00	 3.235811104763482e+00
 3.710283761357929e-01	 1.812412189366892e+00	 3.124934778782545e+00
 3.366316469783779e-01	 1.819114931582128e+00	 3.025622972332949e+00
 6.855763965937093e-01	 1.731730710748600e+00	 4.568881719742882e+00
 6.511255128443928e-01	 1.744976165062624e+00	 4.368065585920919e+00
 6.165683697221850e-01	 1.757483910471994e+00	 4.178009161308222e+00
 5.819273986736807e-01	 1.769255988481598e+00	 3.998929000300425e+00
 5.472247340183309e-01	 1.780295295892808e+00	 3.831002397678142e+00
 5.124821751781393e-01	 1.790605559641113e+00	 3.674367982710248e+00
 4.777211509542074e-01	 1.800191309838096e+00	 3.529126476404297e+00
 4.429626859323769e-01	 1.809057851189117e+00	 3.395341600808663e+00
 4.082273690853040e-01	 1.817211232960577e+00	 3.273041128613078e+00
 3.735353246235432e-01	 1.824658217671742e+00	 3.162218060782935e+00
 3.389061851337714e-01	 1.831406248686016e+00	 3.062831919585084e+00
 6.901775804629183e-01	 1.743353064507004e+00	 4.600714165828146e+00
 6.554954827290597e-01	 1.756687414487810e+00	 4.401014785701291e+00
 6.207064124720911e-01	 1.769279104497503e+00	 4.211937476017761e+00
 5.858329516852290e-01	 1.781130189742346e+00	 4.033699606700704e+00
 5.508973832404049e-01	 1.792243586465333e+00	 3.866479458408750e+00
 5.159216528644688e-01	 1.802623046614941e+00	 3.710416811159944e+00
 4.809273331759799e-01	 1.812273130706186e+00	 3.565613695688337e+00
 4.459355898653843e-01	 1.821199179046478e+00	 3.432135296477628e+00
 4.109671500863636e-01	 1.829407281501319e+00	 3.310010994758273e+00
 3.760422731112888e-01	 1.836904245976013e+00	 3.199235539244493e+00
 3.411807232891650e-01	 1.843697565789419e+00	 3.099770332009971e+00
 3.184353417352296e-01	 1.720784394733555e+00	 2.717511530341516e+00
 2.859749623090795e-01	 1.726475693704463e+00	 2.608048868516025e+00
 2.536091058023270e-01	 1.731526038345919e+00	 2.513146629002255e+00
 2.213547034732818e-01	 1.735944150962882e+00	 2.432681511567925e+00
 1.892281454495708e-01	 1.739739264653876e+00	 2.366495335518375e+00
 1.572452663273684e-01	 1.742921090073661e+00	 2.314396946881331e+00
 1.254213328766080e-01	 1.745499782086253e+00	 2.276164185817799e+00
 9.377103380810400e-02	 1.747485906444048e+00	 2.251545900017233e+00
 6.230847155001576e-02	 1.748890406621857e+00	 2.240263990336047e+00
 3.104715597342760e-02	 1.749724570927141e+00	 2.242015475523670e+00
 0.000000000000000e+00	 1.750000000000000e+00	 2.256474563539787e+00
 3.207098798906232e-01	 1.733075711841326e+00	 2.757098416773892e+00
 2.880176406112042e-01	 1.738807662947247e+00	 2.648082150554161e+00
 2.554205994149419e-01	 1.743894081478562e+00	 2.553849225424928e+00
 2.229358084977045e-01	 1.748343752042406e+00	 2.474276113945627e+00
 1.905797750594583e-01	 1.752165973688006e+00	 2.409203382569947e+00
 1.583684468006353e-01	 1.755370526431943e+00	 2.358437650156825e+00
 1.263171995395246e-01	 1.757967637672972e+00	 2.321753609014718e+00
 9.444082690630262e-02	 1.759967948633152e+00	 2.298896093789394e+00
 6.275353206075759e-02	 1.761382480954967e+00	 2.289582184018915e+00
 3.126892137305198e-02	 1.762222603576644e+00	 2.293503326779656e+00
 0.000000000000000e+00	 1.762500000000000e+00	 2.310327466526935e+00
 3.229844180460166e-01	 1.745367028948611e+00	 2.796365710044016e+00
 2.900603189133288e-01	 1.751139632189640e+00	 2.687823608515805e+00
 2.572320930275566e-01	 1.756262124610897e+00	 2.594283616489779e+00
 2.245169135221270e-01	 1.760743353121696e+00	 2.515622016357535e+00
 1.919314046693457e-01	 1.764592682721967e+00	 2.451678166961322e+00
 1.594916272739021e-01	 1.767819962790108e+00	 2.402256512995715e+00
 1.272130662024412e-01	 1.770435493259618e+00	 2.367128659236283e+00
 9.511062000450128e-02	 1.772449990822214e+00	 2.346035494460422e+00
 6.319859257149944e-02	 1.773874555288057e+00	 2.338689350450523e+00
 3.149068677267637e-02	 1.774720636226143e+00	 2.344776182087146e+00
 0.000000000000000e+00	 1.775000000000000e+00	 2.363957755237786e+00
 3.252589562014102e-01	 1.757658346055410e+00	 2.835320155108559e+00
 2.921029972154534e-01	 1.763471601431642e+00	 2.727279397005047e+00
 2.590435866401714e-01	 1.768630167742926e+00	 2.634455453406277e+00
 2.260980185465497e-01	 1.773142954200753e+00	 2.556724452812727e+00
 1.932830342792332e-01	 1.777019391755757e+00	 2.493924590759376e+00
 1.606148077471690e-01	 1.780269399148155e+00	 2.445858189682189e+00
 1.281089328653577e-01	 1.782903348846188e+00	 2.412293825891948e+00
 9.578041310269989e-02	 1.784932033011234e+00	 2.392968508077305e+00
 6.364365308224128e-02	 1.786366629621130e+00	 2.387589892298024e+00
 3.171245217230076e-02	 1.787218668875638e+00	 2.395838519062456e+00
 0.000000000000000e+00	 1.787500000000000e+00	 2.417370058798909e+00
 3.275334943568037e-01	 1.769949663161724e+00	 2.873968309597032e+00
 2.941456755175780e-01	 1.775803570673254e+00	 2.766455499700074e+00
 2.608550802527862e-01	 1.780998210874648e+00	 2.674370230442610e+00
 2.276791235709723e-01	 1.785542555279576e+00	 2.597588511967792e+00
 1.946346638891207e-01	 1.789446100789376e+00	 2.535947419897607e+00
 1.617379882204359e-01	 1.792718835506084e+00	 2.489247205247398e+00
 1.290047995282743e-01	 1.795371204432684e+00	 2.457253473713952e+00
 9.645020620089854e-02	 1.797414075200213e+00	 2.439699418320007e+00
 6.408871359298313e-02	 1.798858703954184e+00	 2.436288089948891e+00
 3.193421757192514e-02	 1.799716701525127e+00	 2.446694690952518e+00
 0.000000000000000e+00	 1.800000000000000e+00	 2.470568877750039e+00
 3.298080325121973e-01	 1.782240980267553e+00	 2.912316550271365e+00
 2.961883538197027e-01	 1.788135539914474e+00	 2.805357735247295e+00
 2.626665738654010e-01	 1.793366254006063e+00	 2.714033290337378e+00
 2.292602285953949e-01	 1.797942156358166e+00	 2.638219142138976e+00
 1.959862934990082e-01	 1.801872809822824e+00	 2.577751288870599e+00
 1.628611686937026e-01	 1.805168271863896e+00	 2.532427959926241e+00
 1.299006661911908e-01	 1.807839060019105e+00	 2.502011847056309e+00
 9.711999929909716e-02	 1.809896117389149e+00	 2.486232390721034e+00
 6.453377410372496e-02	 1.811350778287220e+00	 2.484788105727404e+00
 3.215598297154953e-02	 1.812214734174612e+00	 2.497348930923494e+00
 0.000000000000000e+00	 1.812500000000000e+00	 2.523558588478116e+00
 3.320825706675907e-01	 1.794532297372897e+00	 2.950371079219990e+00
 2.982310321218273e-01	 1.800467509155304e+00	 2.843991762913029e+00
 2.644780674780159e-01	 1.805734297137171e+00	 2.753449829489063e+00
 2.308413336198176e-01	 1.810341757436522e+00	 2.678621156108344e+00
 1.973379231088956e-01	 1.814299518856103e+00	 2.619340705235063e+00
 1.639843491669695e-01	 1.817617708221590e+00	 2.575404733431327e+00
 1.307965328541074e-01	 1.820306915605452e+00	 2.546573074017419e+00
 9.778979239729581e-02	 1.822378159578045e+00	 2.532571476711524e+00
 6.497883461446680e-02	 1.823842852620236e+00	 2.533093987938005e+00
 3.237774837117391e-02	 1.824712766824093e+00	 2.547805356173237e+00
 0.000000000000000e+00	 1.825000000000000e+00	 2.576343447469043e+00
 3.343571088229843e-01	 1.806823614477755e+00	 2.988137929799061e+00
 3.002737104239519e-01	 1.812799478395743e+00	 2.882363088004741e+00
 2.662895610906306e-01	 1.818102340267972e+00	 2.792624902933389e+00
 2.324224386442401e-01	 1.822741358514645e+00	 2.718799235733743e+00
 1.986895527187831e-01	 1.826726227889211e+00	 2.660720053927732e+00
 1.651075296402364e-01	 1.830067144579166e+00	 2.618181689052291e+00
 1.316923995170240e-01	 1.832774771191723e+00	 2.590941170394332e+00
 9.845958549549444e-02	 1.834860201766898e+00	 2.578720617502220e+00
 6.542389512520864e-02	 1.836334926953235e+00	 2.581209674743399e+00
 3.259951377079830e-02	 1.837210799473569e+00	 2.598067971875632e+00
 0.000000000000000e+00	 1.837500000000000e+00	 2.628927595385997e+00
 3.366316469783779e-01	 1.819114931582128e+00	 3.025622972332949e+00
 3.023163887260765e-01	 1.825131447635791e+00	 2.920477067072149e+00
 2.681010547032454e-01	 1.830470383398466e+00	 2.831563429119323e+00
 2.340035436686628e-01	 1.835140959592535e+00	 2.758757936372042e+00
 2.000411823286705e-01	 1.839152936922148e+00	 2.701893601407794e+00
 1.662307101135032e-01	 1.842516580936626e+00	 2.660762877589004e+00
 1.325882661799405e-01	 1.845242626777920e+00	 2.635120043476820e+00
 9.912937859369306e-02	 1.847342243955709e+00	 2.624683647807232e+00
 6.586895563595048e-02	 1.848827001286216e+00	 2.629138997885614e+00
 3.282127917042268e-02	 1.849708832123040e+00	 2.648140674965252e+00
 0.000000000000000e+00	 1.850000000000000e+00	 2.681315060982311e+00
 3.389061851337714e-01	 1.831406248686016e+00	 3.062831919585084e+00
 3.043590670282013e-01	 1.837463416875449e+00	 2.958338912899262e+00
 2.699125483158602e-01	 1.842838426528653e+00	 2.870270194492288e+00
 2.355846486930855e-01	 1.847540560670190e+00	 2.798501691124051e+00
 2.013928119385580e-01	 1.851579645954916e+00	 2.742865499632611e+00
 1.673538905867701e-01	 1.854966017293967e+00	 2.703152241126561e+00
 1.334841328428570e-01	 1.857710482364042e+00	 2.679113495688397e+00
 9.979917169189172e-02	 1.859824286144479e+00	 2.670464299417704e+00
 6.631401614669230e-02	 1.861319075619177e+00	 2.676885686257302e+00
 3.304304457004707e-02	 1.862206864772507e+00	 2.698027257769649e+00
 0.000000000000000e+00	 1.862500000000000e+00	 2.733509764856899e+00
 3.411807232891650e-01	 1.843697565789419e+00	 3.099770332009971e+00
 3.064017453303258e-01	 1.849795386114716e+00	 2.995953699296488e+00
 2.717240419284751e-01	 1.855206469658534e+00	 2.908749857894512e+00
 2.371657537175081e-01	 1.859940161747613e+00	 2.838034814909698e+00
 2.027444415484455e-01	 1.864006354987513e+00	 2.783639789874528e+00
 1.684770710600370e-01	 1.867415453651191e+00	 2.745353616658851e+00
 1.343799995057737e-01	 1.870178337950090e+00	 2.722925228081889e+00
 1.004689647900904e-01	 1.872306328333207e+00	 2.716066204632565e+00
 6.675907665743416e-02	 1.873811149952121e+00	 2.724453369329789e+00
 3.326480996967145e-02	 1.874704897421970e+00	 2.747731411496115e+00
 0.000000000000000e+00	 1.875000000000000e+00	 2.785515523059349e+00
 1.875000000000000e+00	 0.000000000000000e+00	 1.120570149145369e+01
 1.874704897421970e+00	 3.326480996967039e-02	 1.121431315652815e+01
 1.873811149952121e+00	 6.675907665743323e-02	 1.122046397140490e+01
 1.872306328333207e+00	 1.004689647900895e-01	 1.122395412145771e+01
 1.870178337950090e+00	 1.343799995057729e-01	 1.122458553560442e+01
 1.867415453651191e+00	 1.684770710600364e-01	 1.122216274776624e+01
 1.864006354987513e+00	 2.027444415484450e-01	 1.121649379130526e+01
 1.859940161747613e+00	 2.371657537175077e-01	 1.120739112290657e+01
 1.855206469658534e+00	 2.717240419284748e-01	 1.119467257191648e+01
 1.849795386114716e+00	 3.064017453303257e-01	 1.117816231069792e+01
 1.843697565789419e+00	 3.411807232891650e-01	 1.115769184112452e+01
 1.887500000000000e+00	 0.000000000000000e+00	 1.121368470027677e+01
 1.887202930071432e+00	 3.348657536938452e-02	 1.122250958116617e+01
 1.886303224285065e+00	 6.720413716834120e-02	 1.122883274486713e+01
 1.884788370521935e+00	 1.011387578885170e-01	 1.123246964988921e+01
 1.882646193536138e+00	 1.352758661689670e-01	 1.123323841267176e+01
 1.879864890008415e+00	 1.696002515336150e-01	 1.123096065477234e+01
 1.876433064020110e+00	 2.040960711586639e-01	 1.122546237791278e+01
 1.872339762825035e+00	 2.387468587422663e-01	 1.121657486315426e+01
 1.867574512788415e+00	 2.735355355414151e-01	 1.120413559004541e+01
 1.862127355353983e+00	 3.084444236327496e-01	 1.118798917116765e+01
 1.855988882892821e+00	 3.434552614448158e-01	 1.116798829709733e+01
 1.900000000000000e+00	 0.000000000000000e+00	 1.122228194850169e+01
 1.899700962720899e+00	 3.370834076927819e-02	 1.123143467599341e+01
 1.898795298618027e+00	 6.764919767958150e-02	 1.123804692657653e+01
 1.897270412710705e+00	 1.018085509874021e-01	 1.124194929907400e+01
 1.895114049122259e+00	 1.361717328327159e-01	 1.124297595584651e+01
 1.892314326365756e+00	 1.707234320078171e-01	 1.124096545578960e+01
 1.888859773052877e+00	 2.054477007695455e-01	 1.123576161010905e+01
 1.884739363902691e+00	 2.403279637676972e-01	 1.122721435695268e+01
 1.879942555918602e+00	 2.753470291550062e-01	 1.121518065057581e+01
 1.874459324593640e+00	 3.104871019357721e-01	 1.119952536032978e+01
 1.868280199996709e+00	 3.457297996009814e-01	 1.118012217439145e+01
 1.912500000000000e+00	 0.000000000000000e+00	 1.123148133066203e+01
 1.912198995370370e+00	 3.393010616935138e-02	 1.124107428962750e+01
 1.911287372951007e+00	 6.809425819115406e-02	 1.124809007786899e+01
 1.909752454899517e+00	 1.024783440867449e-01	 1.125237430430581e+01
 1.907581904708456e+00	 1.370675994970198e-01	 1.125377703839710e+01
 1.904763762723215e+00	 1.718466124826427e-01	 1.125215362902597e+01
 1.901286482085814e+00	 2.067993303810899e-01	 1.124736554112261e+01
 1.897138964980580e+00	 2.419090687937999e-01	 1.123928120591297e+01
 1.892310599049096e+00	 2.771585227692481e-01	 1.122777688030548e+01
 1.886791293833689e+00	 3.125297802393932e-01	 1.121273751057068e+01
 1.880571517101082e+00	 3.480043377576615e-01	 1.119405759513142e+01
 1.925000000000000e+00	 0.000000000000000e+00	 1.124127125052425e+01
 1.924697028019846e+00	 3.415187156960411e-02	 1.125141463822340e+01
 1.923779447284006e+00	 6.853931870305893e-02	 1.125894618699686e+01
 1.922234497088370e+00	 1.031481371865453e-01	 1.126372638818078e+01
 1.920049760294728e+00	 1.379634661618787e-01	 1.126562108221537e+01
 1.917213199080792e+00	 1.729697929580919e-01	 1.126450226349231e+01
 1.913713191118923e+00	 2.081509599932970e-01	 1.126024889794189e+01
 1.909538566058704e+00	 2.434901738205749e-01	 1.125274774905576e+01
 1.904678642179897e+00	 2.789700163841410e-01	 1.124189420769446e+01
 1.899123263074128e+00	 3.145724585436129e-01	 1.122759312070141e+01
 1.892862834205940e+00	 3.502788759148565e-01	 1.120975961304154e+01
 1.937500000000000e+00	 0.000000000000000e+00	 1.125164041111244e+01
 1.937195060669326e+00	 3.437363697003634e-02	 1.126244229361731e+01
 1.936271521617023e+00	 6.898437921529610e-02	 1.127059965535725e+01
 1.934716539277264e+00	 1.038179302868033e-01	 1.127598774487805e+01
 1.932517615881075e+00	 1.388593328272925e-01	 1.127848804011904e+01
 1.929662635438486e+00	 1.740929734341646e-01	 1.127798903929902e+01
 1.926139900152201e+00	 2.095025896061670e-01	 1.127438705958111e+01
 1.921938167137059e+00	 2.450712788480219e-01	 1.126758703902378e+01
 1.917046685311006e+00	 2.807815099996848e-01	 1.125750333700489e+01
 1.911455232314958e+00	 3.166151368484312e-01	 1.124406052800855e+01
 1.905154151311284e+00	 3.525534140725660e-01	 1.122719418339417e+01
 1.950000000000000e+00	 0.000000000000000e+00	 1.126257780511672e+01
 1.949693093318812e+00	 3.459540237064810e-02	 1.127414417192669e+01
 1.948763595950059e+00	 6.942943972786557e-02	 1.128303528425039e+01
 1.947198581466201e+00	 1.044877233875190e-01	 1.128914102504488e+01
 1.944985471467495e+00	 1.397551994932612e-01	 1.129235837883486e+01
 1.942112071796298e+00	 1.752161539108608e-01	 1.129259220871055e+01
 1.938566609185650e+00	 2.108542192196997e-01	 1.128975603618198e+01
 1.934337768215650e+00	 2.466523838761410e-01	 1.128377281920935e+01
 1.929414728442420e+00	 2.825930036158795e-01	 1.127457572343560e+01
 1.923787201556179e+00	 3.186578151538481e-01	 1.126210888137995e+01
 1.917445468417113e+00	 3.548279522307903e-01	 1.124632813411403e+01
 1.962499999999999e+00	 0.000000000000000e+00	 1.127407270566817e+01
 1.962191125968301e+00	 3.481716777143939e-02	 1.128650752258586e+01
 1.961255670283113e+00	 6.987450024076731e-02	 1.129623826214373e+01
 1.959680623655179e+00	 1.051575164886924e-01	 1.130316932125946e+01
 1.957453327053991e+00	 1.406510661597848e-01	 1.130721306263204e+01
 1.954561508154227e+00	 1.763393343881805e-01	 1.130829057792396e+01
 1.950993318219269e+00	 2.122058488338951e-01	 1.130633244891414e+01
 1.946737369294472e+00	 2.482334889049322e-01	 1.130127950175602e+01
 1.941782771574142e+00	 2.844044972327250e-01	 1.129308354920693e+01
 1.936119170797790e+00	 3.207004934598635e-01	 1.128170811545760e+01
 1.929736785523427e+00	 3.571024903895291e-01	 1.126712913798671e+01
 1.975000000000000e+00	 0.000000000000000e+00	 1.128611465746420e+01
 1.974689158617796e+00	 3.503893317241022e-02	 1.129951991779799e+01
 1.973747744616185e+00	 7.031956075400138e-02	 1.131019415241987e+01
 1.972162665844200e+00	 1.058273095903234e-01	 1.131805615404575e+01
 1.969921182640562e+00	 1.415469328268634e-01	 1.132303353757735e+01
 1.967010944512274e+00	 1.774625148661237e-01	 1.132506348953937e+01
 1.963420027253059e+00	 2.135574784487534e-01	 1.132409351063875e+01
 1.959136970373529e+00	 2.498145939343955e-01	 1.132008214639550e+01
 1.954150814706171e+00	 2.862159908502214e-01	 1.131299970055369e+01
 1.948451140039792e+00	 3.227431717664775e-01	 1.130282892577197e+01
 1.942028102630227e+00	 3.593770285487826e-01	 1.128956568592252e+01
 1.987500000000000e+00	 0.000000000000000e+00	 1.129869346822866e+01
 1.987187191267294e+00	 3.526069857356055e-02	 1.131316924238516e+01
 1.986239818949276e+00	 7.076462126756775e-02	 1.132488888158681e+01
 1.984644708033262e+00	 1.064971026924121e-01	 1.133378545841610e+01
 1.982389038227208e+00	 1.424427994944970e-01	 1.133980171638409e+01
 1.979460380870438e+00	 1.785856953446905e-01	 1.134289080569200e+01
 1.975846736287019e+00	 2.149091080642744e-01	 1.134301700730192e+01
 1.971536571452820e+00	 2.513956989645308e-01	 1.134015644008326e+01
 1.966518857838506e+00	 2.880274844683688e-01	 1.133429774558636e+01
 1.960783109282185e+00	 3.247858500736903e-01	 1.132544274481468e+01
 1.954319419737511e+00	 3.616515667085508e-01	 1.131360706122933e+01
 2.000000000000000e+00	 0.000000000000000e+00	 1.131179920049231e+01
 1.999685223916798e+00	 3.548246397489042e-02	 1.132744368401901e+01
 1.998731893282386e+00	 7.120968178146642e-02	 1.134030872793021e+01
 1.997126750222366e+00	 1.071668957949584e-01	 1.135034157091844e+01
 1.994856893813928e+00	 1.433386661626855e-01	 1.135749996382951e+01
 1.991909817228721e+00	 1.797088758238808e-01	 1.136175289181662e+01
 1.988273445321150e+00	 2.162607376804582e-01	 1.136308128002577e+01
 1.983936172532344e+00	 2.529768039953384e-01	 1.136147867739787e+01
 1.978886900971149e+00	 2.898389780871670e-01	 1.135695191298250e+01
 1.973115078524969e+00	 3.268285283815016e-01	 1.134952171900851e+01
 1.966610736845282e+00	 3.639261048688338e-01	 1.133922331485018e+01
 1.843697565789419e+00	 3.411807232891650e-01	 1.115769184112452e+01
 1.836904245976013e+00	 3.760422731112877e-01	 1.115561432419895e+01
 1.829407281501320e+00	 4.109671500863628e-01	 1.115029636347863e+01
 1.821199179046478e+00	 4.459355898653836e-01	 1.114139244666466e+01
 1.812273130706186e+00	 4.809273331759791e-01	 1.112855881001867e+01
 1.802623046614941e+00	 5.159216528644683e-01	 1.111145490563441e+01
 1.792243586465333e+00	 5.508973832404047e-01	 1.108974491296190e+01
 1.781130189742346e+00	 5.858329516852289e-01	 1.106309928688796e+01
 1.769279104497502e+00	 6.207064124720912e-01	 1.103119633399914e+01
 1.756687414487809e+00	 6.554954827290598e-01	 1.099372380802150e+01
 1.743353064507004e+00	 6.901775804629183e-01	 1.095038051485613e+01
 1.855988882892821e+00	 3.434552614448158e-01	 1.116798829709733e+01
 1.849150274280280e+00	 3.785492215992383e-01	 1.116521172730321e+01
 1.841603330042052e+00	 4.137069310875700e-01	 1.115940773472114e+01
 1.833340506903817e+00	 4.489084937984764e-01	 1.115022030332996e+01
 1.824354951574237e+00	 4.841335153977702e-01	 1.113729435918428e+01
 1.814640533588709e+00	 5.193611305507440e-01	 1.112027725891901e+01
 1.804191877037770e+00	 5.545700324623478e-01	 1.109882032720800e+01
 1.793004391002975e+00	 5.897385046965644e-01	 1.107258043551222e+01
 1.781074298522854e+00	 6.248444552216972e-01	 1.104122161373926e+01
 1.768398663912796e+00	 6.598654526133346e-01	 1.100441668576573e+01
 1.754975418265163e+00	 6.947787643316375e-01	 1.096184891915932e+01
 1.868280199996709e+00	 3.457297996009814e-01	 1.118012217439145e+01
 1.861396302585124e+00	 3.810561700876036e-01	 1.117657412123863e+01
 1.853799378583433e+00	 4.164467120890913e-01	 1.117020983471771e+01
 1.845481834761856e+00	 4.518813977317833e-01	 1.116066288988842e+01
 1.836436772443023e+00	 4.873396976196745e-01	 1.114756700397861e+01
 1.826658020563224e+00	 5.228006082370322e-01	 1.113055754599448e+01
 1.816140167610950e+00	 5.582426816842028e-01	 1.110927309995239e+01
 1.804878592264319e+00	 5.936440577077110e-01	 1.108335707409888e+01
 1.792869492548874e+00	 6.289824979710139e-01	 1.105245934773600e+01
 1.780109913338382e+00	 6.642354224972196e-01	 1.101623794656105e+01
 1.766597772023832e+00	 6.993799481998669e-01	 1.097436073677505e+01
 1.880571517101082e+00	 3.480043377576615e-01	 1.119405759513142e+01
 1.873642330890543e+00	 3.835631185763834e-01	 1.118966704965460e+01
 1.865995427125461e+00	 4.191864930909272e-01	 1.118266966451718e+01
 1.857623162620597e+00	 4.548543016653039e-01	 1.117268869880422e+01
 1.848518593312543e+00	 4.905458798416917e-01	 1.115934676030917e+01
 1.838675507538488e+00	 5.262400859233329e-01	 1.114226733612508e+01
 1.828088458184871e+00	 5.619153309059697e-01	 1.112107638149125e+01
 1.816752793526378e+00	 5.975496107186689e-01	 1.109540395929319e+01
 1.804664686575561e+00	 6.331205407200413e-01	 1.106488592182769e+01
 1.791821162764569e+00	 6.686053923807149e-01	 1.102916562569943e+01
 1.778220125783012e+00	 7.039811320676065e-01	 1.098789567002199e+01
 1.892862834205940e+00	 3.502788759148565e-01	 1.120975961304154e+01
 1.885888359196539e+00	 3.860700670655777e-01	 1.120445695085182e+01
 1.878191475668137e+00	 4.219262740930773e-01	 1.119675508194043e+01
 1.869764490480039e+00	 4.578272055990384e-01	 1.118626704055189e+01
 1.860600414182798e+00	 4.937520620638225e-01	 1.117260442250141e+01
 1.850692994514499e+00	 5.296795636096463e-01	 1.115537893662474e+01
 1.840036748759534e+00	 5.655879801276484e-01	 1.113420401908467e+01
 1.828626994789152e+00	 6.014551637294382e-01	 1.110869650296242e+01
 1.816459880602917e+00	 6.372585834687796e-01	 1.107847833474073e+01
 1.803532412191354e+00	 6.729753622638208e-01	 1.104317832850223e+01
 1.789842479542702e+00	 7.085823159348567e-01	 1.100243394793450e+01
 1.905154151311284e+00	 3.525534140725660e-01	 1.122719418339417e+01
 1.898134387503110e+00	 3.885770155551868e-01	 1.122091112892256e+01
 1.890387524211462e+00	 4.246660550955419e-01	 1.121243477394261e+01
 1.881905818340181e+00	 4.608001095329867e-01	 1.120136801722887e+01
 1.872682235053787e+00	 4.969582442860664e-01	 1.118731153818840e+01
 1.862710481491260e+00	 5.331190412959723e-01	 1.116986536904910e+01
 1.851985039334939e+00	 5.692606293492392e-01	 1.114863053447403e+01
 1.840501196052641e+00	 6.053607167400185e-01	 1.112321075105958e+01
 1.828255074630939e+00	 6.413966262172286e-01	 1.109321417831896e+01
 1.815243661618739e+00	 6.773453321465369e-01	 1.105825521193210e+01
 1.801464833302902e+00	 7.131834998016169e-01	 1.101795630927191e+01
 1.917445468417113e+00	 3.548279522307903e-01	 1.124632813411403e+01
 1.910380415810258e+00	 3.910839640452103e-01	 1.123899772600090e+01
 1.902583572755435e+00	 4.274058360983207e-01	 1.122967823003830e+01
 1.894047146201024e+00	 4.637730134671488e-01	 1.121796249718307e+01
 1.884764055925510e+00	 5.001644265084235e-01	 1.120344038416641e+01
 1.874727968468767e+00	 5.365585189823108e-01	 1.118570034630307e+01
 1.863933329911085e+00	 5.729332785707417e-01	 1.116433110226401e+01
 1.852375397316846e+00	 6.092662697504101e-01	 1.113892336330027e+01
 1.840050268659630e+00	 6.455346689653881e-01	 1.110907161851357e+01
 1.826954911046724e+00	 6.817153020288634e-01	 1.107437596691220e+01
 1.813087187063613e+00	 7.177846836678874e-01	 1.103444398618104e+01
 1.929736785523427e+00	 3.571024903895291e-01	 1.126712913798671e+01
 1.922626444117981e+00	 3.935909125356485e-01	 1.125868569557358e+01
 1.914779621300055e+00	 4.301456171014137e-01	 1.124845571674230e+01
 1.906188474062569e+00	 4.667459174015250e-01	 1.123602209060987e+01
 1.896845876797968e+00	 5.033706087308940e-01	 1.122096394317318e+01
 1.886745455447024e+00	 5.399979966686618e-01	 1.120285825062339e+01
 1.875881620487973e+00	 5.766059277921560e-01	 1.118128152913067e+01
 1.864249598581766e+00	 6.131718227606131e-01	 1.115581159361597e+01
 1.851845462688989e+00	 6.496727117132586e-01	 1.112602937709935e+01
 1.838666160475309e+00	 6.860852719108005e-01	 1.109152080132107e+01
 1.824709540824834e+00	 7.223858675336682e-01	 1.105187868848333e+01
 1.942028102630227e+00	 3.593770285487826e-01	 1.128956568592252e+01
 1.934872472426280e+00	 3.960978610265014e-01	 1.127994477680422e+01
 1.926975669845323e+00	 4.328853981048212e-01	 1.126873825298099e+01
 1.918329801924813e+00	 4.697188213361148e-01	 1.125551912607600e+01
 1.908927697671160e+00	 5.065767909534776e-01	 1.123985588154791e+01
 1.898762942426027e+00	 5.434374743550253e-01	 1.122131411239721e+01
 1.887829911065603e+00	 5.802785770134823e-01	 1.119945823381934e+01
 1.876123799847400e+00	 6.170773757706272e-01	 1.117385327134986e+01
 1.863640656719016e+00	 6.538107544608398e-01	 1.114406671408536e+01
 1.850377409904492e+00	 6.904552417923476e-01	 1.110967042363329e+01
 1.836331894586565e+00	 7.269870513989594e-01	 1.107024258855850e+01
 1.954319419737511e+00	 3.616515667085508e-01	 1.131360706122933e+01
 1.947118500735156e+00	 3.986048095177688e-01	 1.130274546982650e+01
 1.939171718391239e+00	 4.356251791085429e-01	 1.129049758643166e+01
 1.930471129787760e+00	 4.726917252709185e-01	 1.127642662792925e+01
 1.921009518545086e+00	 5.097829731761744e-01	 1.126009052773443e+01
 1.910780429405780e+00	 5.468769520414016e-01	 1.124104358978002e+01
 1.899778201643975e+00	 5.839512262347204e-01	 1.121883822789699e+01
 1.887998001113750e+00	 6.209829287804526e-01	 1.119302678316203e+01
 1.875435850749710e+00	 6.579487972081314e-01	 1.116316341078934e+01
 1.862088659334276e+00	 6.948252116735054e-01	 1.112880602717749e+01
 1.847954248348806e+00	 7.315882352637606e-01	 1.108951830679872e+01
 1.966610736845282e+00	 3.639261048688338e-01	 1.133922331485018e+01
 1.959364529044608e+00	 4.011117580094511e-01	 1.132705901196389e+01
 1.951367766937805e+00	 4.383649601125791e-01	 1.131370617074893e+01
 1.942612457651407e+00	 4.756646292059362e-01	 1.129871829455525e+01
 1.933091339419748e+00	 5.129891553989847e-01	 1.128164285159041e+01
 1.922797916386281e+00	 5.503164297277904e-01	 1.126202294907788e+01
 1.911726492223089e+00	 5.876238754558706e-01	 1.123939909722673e+01
 1.899872202380815e+00	 6.248884817900893e-01	 1.121331105561340e+01
 1.887231044781072e+00	 6.620868399551341e-01	 1.118329975354680e+01
 1.873799908764660e+00	 6.991951815542736e-01	 1.114890927498459e+01
 1.859576602111558e+00	 7.361894191280726e-01	 1.110968889760819e+01
 1.743353064507004e+00	 6.901775804629183e-01	 1.095038051485613e+01
 1.729274883740578e+00	 7.247298645455649e-01	 1.091092432604060e+01
 1.714452606980928e+00	 7.591292765506406e-01	 1.086611392991323e+01
 1.698886893546374e+00	 7.933525843124138e-01	 1.081545671056607e+01
 1.682579343755863e+00	 8.273764270649256e-01	 1.075846888922463e+01
 1.665532512820283e+00	 8.611773620061519e-01	 1.069467781158268e+01
 1.647749922022751e+00	 8.947319121182951e-01	 1.062362424144526e+01
 1.629236067072467e+00	 9.280166150632179e-01	 1.054486464559024e+01
 1.609996423530313e+00	 9.610080729608007e-01	 1.045797345433856e+01
 1.590037449219140e+00	 9.936830028478698e-01	 1.036254528204746e+01
 1.569366583547552e+00	 1.026018287606500e+00	 1.025819709161597e+01
 1.754975418265163e+00	 6.947787643316375e-01	 1.096184891915932e+01
 1.740803382960041e+00	 7.295613969744104e-01	 1.092200811384434e+01
 1.725882291021801e+00	 7.641901383925472e-01	 1.087691411916780e+01
 1.710212806164218e+00	 7.986416015392133e-01	 1.082607035467258e+01
 1.693796539375036e+00	 8.328922699100104e-01	 1.076898882546721e+01
 1.676636062899880e+00	 8.669185444175695e-01	 1.070519242382198e+01
 1.658734921497089e+00	 9.006967915306421e-01	 1.063421723853873e+01
 1.640097640847259e+00	 9.342033924955047e-01	 1.055561485693437e+01
 1.620729733015010e+00	 9.674147934461709e-01	 1.046895464384470e+01
 1.600637698875349e+00	 1.000307556199713e+00	 1.037382598176590e+01
 1.579829027432933e+00	 1.032858409524087e+00	 1.026984045611454e+01
 1.766597772023832e+00	 6.993799481998669e-01	 1.097436073677505e+01
 1.752331882179924e+00	 7.343929294026761e-01	 1.093412385901094e+01
 1.737311975063022e+00	 7.692510002338026e-01	 1.088873413332766e+01
 1.721538718782361e+00	 8.039306187653088e-01	 1.083769102904569e+01
 1.705013734994474e+00	 8.384081127543593e-01	 1.078050235136593e+01
 1.687739612979730e+00	 8.726597268282392e-01	 1.071668655721063e+01
 1.669719920971688e+00	 9.066616709422494e-01	 1.064577508029432e+01
 1.650959214622339e+00	 9.403901699270792e-01	 1.056731465019438e+01
 1.631463042500044e+00	 9.738215139308771e-01	 1.048086958974425e+01
 1.611237948531963e+00	 1.006932109550961e+00	 1.038602407476998e+01
 1.590291471318810e+00	 1.039698531441169e+00	 1.028238434004210e+01
 1.778220125783012e+00	 7.039811320676065e-01	 1.098789567002199e+01
 1.763860381400227e+00	 7.392244618303614e-01	 1.094725148939091e+01
 1.748741659104592e+00	 7.743118620744064e-01	 1.090155413898962e+01
 1.732864631400799e+00	 8.092196359907015e-01	 1.085029915195883e+01
 1.716230930614176e+00	 8.439239555979724e-01	 1.079299014947970e+01
 1.698843163059831e+00	 8.784009092381607e-01	 1.072914117084343e+01
 1.680704920446545e+00	 9.126265503531157e-01	 1.065827901419810e+01
 1.661820788397706e+00	 9.465769473579415e-01	 1.057994557267216e+01
 1.642196351985415e+00	 9.802282344149192e-01	 1.049370015011372e+01
 1.621838198188981e+00	 1.013556662901614e+00	 1.039912174036988e+01
 1.600753915205181e+00	 1.046538653357745e+00	 1.029581125386932e+01
 1.789842479542702e+00	 7.085823159348567e-01	 1.100243394793450e+01
 1.775388880620949e+00	 7.440559942574663e-01	 1.096137145367987e+01
 1.760171343146511e+00	 7.793727239143585e-01	 1.091535481738332e+01
 1.744190544019534e+00	 8.145086532153905e-01	 1.086387564977175e+01
 1.727448126234142e+00	 8.494397984408504e-01	 1.080643340358143e+01
 1.709946713140184e+00	 8.841420916473343e-01	 1.074253771784030e+01
 1.691689919921663e+00	 9.185914297632422e-01	 1.067171077426615e+01
 1.672682362173361e+00	 9.527637247880916e-01	 1.059348965040948e+01
 1.652929661471120e+00	 9.866349548982979e-01	 1.050742865369639e+01
 1.632438447846405e+00	 1.020181216251673e+00	 1.041310162019947e+01
 1.611216359092047e+00	 1.053378775273816e+00	 1.031010416179127e+01
 1.801464833302902e+00	 7.131834998016169e-01	 1.101795630927191e+01
 1.786917379842092e+00	 7.488875266839913e-01	 1.097646470461706e+01
 1.771601027188778e+00	 7.844335857536594e-01	 1.093011734777016e+01
 1.755516456638565e+00	 8.197976704393758e-01	 1.087840194054066e+01
 1.738665321854372e+00	 8.549556412829922e-01	 1.082081378248982e+01
 1.721050263220789e+00	 8.898832740557597e-01	 1.075685812941001e+01
 1.702674919397040e+00	 9.245563091726281e-01	 1.068605256535012e+01
 1.683543935949303e+00	 9.589505022175293e-01	 1.060792937274480e+01
 1.663662970957163e+00	 9.930416753810126e-01	 1.052203788471952e+01
 1.643038697504234e+00	 1.026805769601136e+00	 1.042794680330267e+01
 1.621678802979408e+00	 1.060218897189382e+00	 1.032524646709113e+01
 1.813087187063613e+00	 7.177846836678874e-01	 1.103444398618104e+01
 1.798445879063653e+00	 7.537190591099358e-01	 1.099251268283010e+01
 1.783030711231393e+00	 7.894944475923085e-01	 1.094582339148071e+01
 1.766842369257893e+00	 8.250866876626581e-01	 1.089385991825871e+01
 1.749882517474867e+00	 8.604714841243986e-01	 1.083611342452303e+01
 1.732153813301645e+00	 8.956244564634370e-01	 1.077208479952683e+01
 1.713659918872676e+00	 9.305211885812739e-01	 1.070128704804627e+01
 1.694405509725534e+00	 9.651372796462546e-01	 1.062324767746401e+01
 1.674396280443541e+00	 9.994483958630631e-01	 1.053751106829554e+01
 1.653638947162468e+00	 1.033430322950004e+00	 1.044364081179336e+01
 1.632141246867263e+00	 1.067059019104442e+00	 1.034122199806692e+01
 1.824709540824834e+00	 7.223858675336682e-01	 1.105187868848333e+01
 1.809974378285636e+00	 7.585505915353004e-01	 1.100949730129717e+01
 1.794460395274358e+00	 7.945553094303062e-01	 1.096245507656224e+01
 1.778168281877518e+00	 8.303757048852366e-01	 1.091023193769875e+01
 1.761099713095627e+00	 8.659873269650693e-01	 1.085231492254646e+01
 1.743257363382755e+00	 9.013656388703668e-01	 1.078820057019274e+01
 1.724644918348573e+00	 9.364860679891791e-01	 1.071739732418136e+01
 1.705267083502052e+00	 9.713240570742675e-01	 1.063942793651864e+01
 1.685129589930255e+00	 1.005855116344450e+00	 1.055383185638106e+01
 1.664239196821106e+00	 1.040054876298278e+00	 1.046016758706329e+01
 1.642603690755613e+00	 1.073899141018997e+00	 1.035801499449591e+01
 1.836331894586565e+00	 7.269870513989594e-01	 1.107024258855850e+01
 1.821502877508037e+00	 7.633821239600846e-01	 1.102740093039918e+01
 1.805890079317670e+00	 7.996161712676525e-01	 1.097999498300919e+01
 1.789494194497439e+00	 8.356647221071117e-01	 1.092750079983171e+01
 1.772316908716650e+00	 8.715031698050042e-01	 1.086940130958838e+01
 1.754360913464116e+00	 9.071068212765480e-01	 1.080518871725939e+01
 1.735629917824729e+00	 9.424509473963442e-01	 1.073436692284965e+01
 1.716128657278858e+00	 9.775108345015684e-01	 1.065645394228643e+01
 1.695862899417306e+00	 1.012261836825173e+00	 1.057098431426922e+01
 1.674839446480150e+00	 1.046679429645957e+00	 1.047751147651392e+01
 1.653066134644457e+00	 1.080739262933047e+00	 1.037561009461320e+01
 1.847954248348806e+00	 7.315882352637606e-01	 1.108951830679872e+01
 1.833031376730859e+00	 7.682136563842887e-01	 1.104620638353604e+01
 1.817319763361331e+00	 8.046770331043469e-01	 1.099842612855097e+01
 1.800820107117657e+00	 8.409537393282837e-01	 1.094564973779523e+01
 1.783534104337938e+00	 8.770190126442036e-01	 1.088735604499825e+01
 1.765464463545728e+00	 9.128480036819814e-01	 1.082303293678495e+01
 1.746614917301145e+00	 9.484158268027688e-01	 1.075217978697678e+01
 1.726990231055951e+00	 9.836976119281569e-01	 1.067430989435048e+01
 1.706596208904692e+00	 1.018668557305231e+00	 1.058895290759161e+01
 1.685439696139599e+00	 1.053303982993040e+00	 1.049565722078868e+01
 1.663528578533797e+00	 1.087579384846591e+00	 1.039399232258157e+01
 1.859576602111558e+00	 7.361894191280726e-01	 1.110968889760819e+01
 1.844559875954101e+00	 7.730451888079128e-01	 1.106589690328233e+01
 1.828749447405340e+00	 8.097378949403902e-01	 1.101773195497278e+01
 1.812146019738172e+00	 8.462427565487523e-01	 1.096466240338842e+01
 1.794751299959490e+00	 8.825348554826673e-01	 1.090616300112427e+01
 1.776568013627593e+00	 9.185891860866668e-01	 1.084171733190276e+01
 1.757599916777820e+00	 9.543807062084535e-01	 1.077082026038760e+01
 1.737851804833333e+00	 9.898843893540332e-01	 1.069298038677394e+01
 1.717329518392415e+00	 1.025075277784627e+00	 1.060772248980775e+01
 1.696039945799453e+00	 1.059928536339529e+00	 1.051458994148425e+01
 1.673991022423631e+00	 1.094419506759630e+00	 1.041314707643120e+01
 1.569366583547552e+00	 1.026018287606500e+00	 1.025819709161597e+01
 1.547992243692877e+00	 1.057991027143265e+00	 1.014833002527077e+01
 1.525923817606285e+00	 1.089578589594028e+00	 1.003190646231128e+01
 1.503171653821628e+00	 1.120758662325927e+00	 9.908598425862166e+00
 1.479747048068645e+00	 1.151509302505199e+00	 9.778096632049207e+00
 1.455662226709656e+00	 1.181808986997448e+00	 9.640112161893645e+00
 1.430930327038606e+00	 1.211636661368759e+00	 9.494378049075538e+00
 1.405565374500522e+00	 1.240971787758436e+00	 9.340650771536328e+00
 1.379582256908508e+00	 1.269794391398509e+00	 9.178711635528638e+00
 1.352996695754110e+00	 1.298085105561391e+00	 9.008368041485021e+00
 1.325825214725000e+00	 1.325825214725000e+00	 8.829454621961158e+00
 1.579829027432933e+00	 1.032858409524087e+00	 1.026984045611454e+01
 1.558312191979597e+00	 1.065044300658442e+00	 1.016024974817768e+01
 1.536096643052833e+00	 1.096842446859411e+00	 1.004414993316541e+01
 1.513192798176722e+00	 1.128230386743245e+00	 9.921203561008808e+00
 1.489612028385866e+00	 1.159186031190622e+00	 9.791091757745237e+00
 1.465366641551668e+00	 1.189687713579582e+00	 9.653515937439812e+00
 1.440469862550032e+00	 1.219714239113318e+00	 9.508199430717013e+00
 1.414935810328952e+00	 1.249244933012061e+00	 9.354889017604913e+00
 1.388779471953618e+00	 1.278259687342719e+00	 9.193356353025102e+00
 1.362016673725522e+00	 1.306739006266193e+00	 9.023399274021523e+00
 1.334664049490250e+00	 1.334664049490250e+00	 8.844842978703316e+00
 1.590291471318810e+00	 1.039698531441169e+00	 1.028238434004210e+01
 1.568632140266901e+00	 1.072097574173214e+00	 1.017303394258609e+01
 1.546269468500037e+00	 1.104106304124489e+00	 1.005722137932728e+01
 1.523213942532522e+00	 1.135702111160359e+00	 9.934599794031410e+00
 1.499477008703824e+00	 1.166862759875942e+00	 9.804840791168775e+00
 1.475071056394428e+00	 1.197566440161714e+00	 9.667636187633242e+00
 1.450009398062197e+00	 1.227791816857975e+00	 9.522699681804223e+00
 1.424306246158092e+00	 1.257518078265884e+00	 9.369768427387596e+00
 1.397976686999389e+00	 1.286724983287230e+00	 9.208604500095435e+00
 1.371036651697523e+00	 1.315392906971395e+00	 9.038996245980453e+00
 1.343502884256000e+00	 1.343502884256000e+00	 8.860759501121846e+00
 1.600753915205181e+00	 1.046538653357745e+00	 1.029581125386932e+01
 1.578952088554790e+00	 1.079150847687581e+00	 1.018666582599531e+01
 1.556442293947896e+00	 1.111370161389263e+00	 1.007110473401319e+01
 1.533235086889028e+00	 1.143173835577269e+00	 9.948771781230192e+00
 1.509341989022520e+00	 1.174539488561158e+00	 9.819329117719965e+00
 1.484775471237937e+00	 1.205445166743843e+00	 9.682459031614131e+00
 1.459548933575101e+00	 1.235869394602729e+00	 9.537865658461335e+00
 1.433676681987940e+00	 1.265791223519906e+00	 9.385276595824848e+00
 1.407173902045819e+00	 1.295190279232040e+00	 9.224444410906628e+00
 1.380056629670115e+00	 1.324046807676997e+00	 9.055148029738035e+00
 1.352341719022250e+00	 1.352341719022250e+00	 8.877193997357216e+00
 1.611216359092047e+00	 1.053378775273816e+00	 1.031010416179127e+01
 1.589272036843264e+00	 1.086204121201542e+00	 1.020112905126858e+01
 1.566615119396410e+00	 1.118634018653731e+00	 1.008578434721879e+01
 1.543256231246241e+00	 1.150645559993975e+00	 9.963704576910372e+00
 1.519206969341953e+00	 1.182216217246272e+00	 9.834542501874864e+00
 1.494479886082193e+00	 1.213323893325969e+00	 9.697970948550372e+00
 1.469088469088744e+00	 1.243946972347583e+00	 9.553684557709119e+00
 1.443047117818499e+00	 1.274064368774127e+00	 9.401401439576318e+00
 1.416371117092909e+00	 1.303655575177150e+00	 9.240864722157982e+00
 1.389076607643296e+00	 1.332700708382998e+00	 9.071843981043642e+00
 1.361180553789000e+00	 1.361180553789000e+00	 8.894136539828253e+00
 1.621678802979408e+00	 1.060218897189382e+00	 1.032524646709113e+01
 1.599591985132323e+00	 1.093257394715098e+00	 1.021640769258907e+01
 1.576787944845580e+00	 1.125897875917895e+00	 1.010124497227464e+01
 1.553277375604159e+00	 1.158117284410476e+00	 9.979383620543318e+00
 1.529071949662122e+00	 1.189892945931280e+00	 9.850467074957143e+00
 1.504184300927196e+00	 1.221202619908093e+00	 9.714158766023727e+00
 1.478628004603125e+00	 1.252024550092534e+00	 9.570143906468239e+00
 1.452417553649766e+00	 1.282337514028546e+00	 9.418131186642778e+00
 1.425568332140659e+00	 1.312120871122559e+00	 9.257854363322096e+00
 1.398096585617068e+00	 1.341354609089400e+00	 9.089073729878590e+00
 1.370019388556250e+00	 1.370019388556250e+00	 8.911577456707056e+00
 1.632141246867263e+00	 1.067059019104442e+00	 1.034122199806692e+01
 1.609911933421967e+00	 1.100310668228250e+00	 1.023248623195604e+01
 1.586960770295406e+00	 1.133161733181755e+00	 1.011747175291876e+01
 1.563298519962784e+00	 1.165589008826773e+00	 9.995794724421504e+00
 1.538936929983029e+00	 1.197569674616187e+00	 9.867089323380180e+00
 1.513888715772949e+00	 1.229081346490214e+00	 9.731009648862738e+00
 1.488167540118244e+00	 1.260102127837583e+00	 9.587231550985564e+00
 1.461787989481743e+00	 1.290610659283165e+00	 9.435454366387281e+00
 1.434765547189069e+00	 1.320586167068268e+00	 9.275402547261038e+00
 1.407116563591429e+00	 1.350008509796201e+00	 9.106827171666765e+00
 1.378858223324000e+00	 1.378858223324000e+00	 8.929507323721745e+00
 1.642603690755613e+00	 1.073899141018997e+00	 1.035801499449591e+01
 1.620231881712195e+00	 1.107363941740996e+00	 1.024934954619710e+01
 1.597133595745887e+00	 1.140425590445309e+00	 1.013445021086332e+01
 1.573319664322116e+00	 1.173060733242866e+00	 1.001292406178517e+01
 1.548801910304673e+00	 1.205246403300989e+00	 9.884396077338488e+00
 1.523593130619449e+00	 1.236960073072333e+00	 9.748511088402370e+00
 1.497707075634103e+00	 1.268179705582731e+00	 9.604935646664529e+00
 1.471158425314429e+00	 1.298883804537982e+00	 9.453359799937630e+00
 1.443962762238138e+00	 1.329051463014275e+00	 9.293498761201199e+00
 1.416136541566381e+00	 1.358662410503402e+00	 9.125094458820984e+00
 1.387697058092250e+00	 1.387697058092250e+00	 8.947916956272520e+00
 1.653066134644457e+00	 1.080739262933047e+00	 1.037561009461320e+01
 1.630551830003009e+00	 1.114417215253336e+00	 1.026698289447358e+01
 1.607306421197023e+00	 1.147689447708559e+00	 1.015216623383337e+01
 1.583340808682154e+00	 1.180532457658756e+00	 1.003075815539997e+01
 1.558666890627054e+00	 1.212923131985688e+00	 9.902374499928515e+00
 1.533297545466696e+00	 1.244838799654449e+00	 9.766650892151524e+00
 1.507246611150701e+00	 1.276257283327976e+00	 9.623244648281736e+00
 1.480528861147824e+00	 1.307156949792999e+00	 9.471836590953270e+00
 1.453159977287867e+00	 1.337516758960583e+00	 9.312132758050932e+00
 1.425156519541922e+00	 1.367316311211003e+00	 9.143865992610447e+00
 1.396535892861000e+00	 1.396535892861000e+00	 8.966797401847113e+00
 1.663528578533797e+00	 1.087579384846591e+00	 1.039399232258157e+01
 1.640871778294408e+00	 1.121470488765272e+00	 1.028537190625748e+01
 1.617479246648815e+00	 1.154953304971504e+00	 1.017060606405707e+01
 1.593361953042898e+00	 1.188004182074440e+00	 1.004928386656557e+01
 1.568531870950172e+00	 1.220599860670283e+00	 9.921012076680078e+00
 1.543001960314693e+00	 1.252717526236562e+00	 9.785417173850504e+00
 1.516786146668037e+00	 1.284334861073320e+00	 9.642147300572645e+00
 1.489899296981929e+00	 1.315430095048214e+00	 9.490874116740695e+00
 1.462357192338255e+00	 1.345982054907189e+00	 9.331294548045701e+00
 1.434176497518053e+00	 1.375970211919004e+00	 9.163132415335038e+00
 1.405374727630250e+00	 1.405374727630250e+00	 8.986139932722446e+00
 1.673991022423631e+00	 1.094419506759630e+00	 1.041314707643120e+01
 1.651191726586392e+00	 1.128523762276803e+00	 1.030450256975932e+01
 1.627652072101263e+00	 1.162217162234144e+00	 1.018975628718743e+01
 1.603383097404348e+00	 1.195475906489921e+00	 1.006848838453653e+01
 1.578396851274028e+00	 1.228276589354776e+00	 9.940296605480281e+00
 1.552706375163437e+00	 1.260596252818672e+00	 9.804798343901238e+00
 1.526325682186112e+00	 1.292412438818762e+00	 9.661632629170398e+00
 1.499269732816743e+00	 1.323703240303628e+00	 9.510462019701974e+00
 1.471554407389304e+00	 1.354447350854096e+00	 9.350974390706664e+00
 1.443196475494775e+00	 1.384624112627405e+00	 9.182884602793166e+00
 1.414213562400000e+00	 1.414213562400000e+00	 9.005936038939966e+00
 1.325825214725000e+00	 1.325825214725000e+00	 8.829454621961158e+00
 1.298085105561391e+00	 1.352996695754110e+00	 8.638419561621774e+00
 1.269794391398509e+00	 1.379582256908508e+00	 8.443828960933129e+00
 1.240971787758436e+00	 1.405565374500522e+00	 8.245703586918481e+00
 1.211636661368759e+00	 1.430930327038606e+00	 8.044074666494371e+00
 1.181808986997448e+00	 1.455662226709656e+00	 7.838983997346879e+00
 1.151509302505200e+00	 1.479747048068645e+00	 7.630484004096129e+00
 1.120758662325928e+00	 1.503171653821628e+00	 7.418637739042556e+00
 1.089578589594029e+00	 1.525923817606285e+00	 7.203518827254916e+00
 1.057991027143266e+00	 1.547992243692877e+00	 6.985211356226811e+00
 1.026018287606500e+00	 1.569366583547552e+00	 6.763809710792112e+00
 1.334664049490250e+00	 1.334664049490250e+00	 8.844842978703316e+00
 1.306739006266193e+00	 1.362016673725522e+00	 8.654763499493422e+00
 1.278259687342720e+00	 1.388779471953618e+00	 8.461075361573219e+00
 1.249244933012061e+00	 1.414935810328952e+00	 8.263789069185332e+00
 1.219714239113318e+00	 1.440469862550032e+00	 8.062925813905800e+00
 1.189687713579582e+00	 1.465366641551668e+00	 7.858517626628807e+00
 1.159186031190623e+00	 1.489612028385866e+00	 7.650607473269250e+00
 1.128230386743246e+00	 1.513192798176721e+00	 7.439249293222312e+00
 1.096842446859412e+00	 1.536096643052833e+00	 7.224507980102131e+00
 1.065044300658443e+00	 1.558312191979596e+00	 7.006459304768645e+00
 1.032858409524087e+00	 1.579829027432933e+00	 6.785189781135448e+00
 1.343502884256000e+00	 1.343502884256000e+00	 8.860759501121846e+00
 1.315392906971395e+00	 1.371036651697524e+00	 8.671589195542051e+00
 1.286724983287230e+00	 1.397976686999389e+00	 8.478757443283682e+00
 1.257518078265884e+00	 1.424306246158092e+00	 8.282264573932977e+00
 1.227791816857975e+00	 1.450009398062197e+00	 8.082121830591579e+00
 1.197566440161714e+00	 1.475071056394428e+00	 7.878351562665597e+00
 1.166862759875943e+00	 1.499477008703824e+00	 7.670987360810980e+00
 1.135702111160360e+00	 1.523213942532522e+00	 7.460074132821606e+00
 1.104106304124490e+00	 1.546269468500036e+00	 7.245668119746566e+00
 1.072097574173215e+00	 1.568632140266900e+00	 7.027836852028750e+00
 1.039698531441169e+00	 1.590291471318810e+00	 6.806659045962317e+00
 1.352341719022250e+00	 1.352341719022250e+00	 8.877193997357216e+00
 1.324046807676997e+00	 1.380056629670115e+00	 8.688887366712725e+00
 1.295190279232041e+00	 1.407173902045819e+00	 8.496866825157969e+00
 1.265791223519906e+00	 1.433676681987940e+00	 8.301122614011721e+00
 1.235869394602730e+00	 1.459548933575101e+00	 8.101656113057075e+00
 1.205445166743843e+00	 1.484775471237936e+00	 7.898480073836570e+00
 1.174539488561159e+00	 1.509341989022520e+00	 7.691618793550983e+00
 1.143173835577269e+00	 1.533235086889027e+00	 7.481108228096930e+00
 1.111370161389264e+00	 1.556442293947895e+00	 7.266996043295862e+00
 1.079150847687582e+00	 1.578952088554790e+00	 7.049341603891177e+00
 1.046538653357745e+00	 1.600753915205181e+00	 6.828215900417176e+00
 1.361180553789000e+00	 1.361180553789000e+00	 8.894136539828253e+00
 1.332700708382998e+00	 1.389076607643297e+00	 8.706648970640588e+00
 1.303655575177150e+00	 1.416371117092909e+00	 8.515395343564997e+00
 1.274064368774127e+00	 1.443047117818499e+00	 8.320355896351526e+00
 1.243946972347583e+00	 1.469088469088743e+00	 8.121522228954476e+00
 1.213323893325970e+00	 1.494479886082192e+00	 7.918897577041597e+00
 1.182216217246271e+00	 1.519206969341952e+00	 7.712497024562330e+00
 1.150645559993975e+00	 1.543256231246240e+00	 7.502347653661550e+00
 1.118634018653732e+00	 1.566615119396410e+00	 7.288488630758547e+00
 1.086204121201543e+00	 1.589272036843264e+00	 7.070971228154574e+00
 1.053378775273816e+00	 1.611216359092047e+00	 6.849858781079625e+00
 1.370019388556250e+00	 1.370019388556250e+00	 8.911577456707056e+00
 1.341354609089400e+00	 1.398096585617068e+00	 8.724865197886608e+00
 1.312120871122559e+00	 1.425568332140659e+00	 8.534335045140310e+00
 1.282337514028547e+00	 1.452417553649766e+00	 8.339957315701312e+00
 1.252024550092534e+00	 1.478628004603124e+00	 8.141713911561936e+00
 1.221202619908093e+00	 1.504184300927196e+00	 7.939598632910109e+00
 1.189892945931281e+00	 1.529071949662122e+00	 7.733617429089078e+00
 1.158117284410477e+00	 1.553277375604159e+00	 7.523788585119117e+00
 1.125897875917896e+00	 1.576787944845579e+00	 7.310142842369869e+00
 1.093257394715099e+00	 1.599591985132322e+00	 7.092723452534962e+00
 1.060218897189382e+00	 1.621678802979408e+00	 6.871586164627942e+00
 1.378858223324000e+00	 1.378858223324000e+00	 8.929507323721745e+00
 1.350008509796201e+00	 1.407116563591429e+00	 8.743527464472036e+00
 1.320586167068267e+00	 1.434765547189069e+00	 8.553678180046706e+00
 1.290610659283165e+00	 1.461787989481743e+00	 8.359919948609202e+00
 1.260102127837583e+00	 1.488167540118244e+00	 8.162225054474998e+00
 1.229081346490215e+00	 1.513888715772948e+00	 7.960577941194341e+00
 1.197569674616187e+00	 1.538936929983029e+00	 7.754975500630588e+00
 1.165589008826774e+00	 1.563298519962784e+00	 7.545427295826807e+00
 1.133161733181756e+00	 1.586960770295405e+00	 7.331955716020261e+00
 1.100310668228251e+00	 1.609911933421966e+00	 7.114596062745290e+00
 1.067059019104442e+00	 1.632141246867263e+00	 6.893396566553765e+00
 1.387697058092250e+00	 1.387697058092250e+00	 8.947916956272520e+00
 1.358662410503402e+00	 1.416136541566380e+00	 8.762627404698190e+00
 1.329051463014275e+00	 1.443962762238138e+00	 8.573417195492503e+00
 1.298883804537982e+00	 1.471158425314429e+00	 8.380237047632660e+00
 1.268179705582731e+00	 1.497707075634103e+00	 8.183049706501011e+00
 1.236960073072333e+00	 1.523593130619448e+00	 7.981830336338787e+00
 1.205246403300989e+00	 1.548801910304673e+00	 7.776566847175363e+00
 1.173060733242868e+00	 1.573319664322116e+00	 7.567260153782197e+00
 1.140425590445310e+00	 1.597133595745886e+00	 7.353924364782506e+00
 1.107363941740996e+00	 1.620231881712195e+00	 7.136586900648384e+00
 1.073899141018997e+00	 1.642603690755613e+00	 6.915288539926050e+00
 1.396535892861000e+00	 1.396535892861000e+00	 8.966797401847113e+00
 1.367316311211003e+00	 1.425156519541922e+00	 8.782156864238727e+00
 1.337516758960583e+00	 1.453159977287867e+00	 8.593544729495946e+00
 1.307156949792999e+00	 1.480528861147824e+00	 8.400902035768620e+00
 1.276257283327977e+00	 1.507246611150701e+00	 8.204182066747325e+00
 1.244838799654449e+00	 1.533297545466696e+00	 8.003350783217599e+00
 1.212923131985688e+00	 1.558666890627054e+00	 7.798387187578028e+00
 1.180532457658757e+00	 1.583340808682153e+00	 7.589283618628263e+00
 1.147689447708560e+00	 1.607306421197023e+00	 7.376045974532261e+00
 1.114417215253337e+00	 1.630551830003009e+00	 7.158693862480113e+00
 1.080739262933047e+00	 1.653066134644457e+00	 6.937260674201874e+00
 1.405374727630250e+00	 1.405374727630250e+00	 8.986139932722446e+00
 1.375970211919004e+00	 1.434176497518053e+00	 8.802107893492868e+00
 1.345982054907189e+00	 1.462357192338255e+00	 8.614053604884838e+00
 1.315430095048214e+00	 1.489899296981929e+00	 8.421908501093728e+00
 1.284334861073321e+00	 1.516786146668037e+00	 8.225616479894857e+00
 1.252717526236562e+00	 1.543001960314692e+00	 8.025134373033234e+00
 1.220599860670284e+00	 1.568531870950172e+00	 7.820432348072965e+00
 1.188004182074441e+00	 1.593361953042897e+00	 7.611494238771481e+00
 1.154953304971505e+00	 1.617479246648815e+00	 7.398317801658912e+00
 1.121470488765273e+00	 1.640871778294407e+00	 7.180914897139477e+00
 1.087579384846591e+00	 1.663528578533797e+00	 6.959311594082264e+00
 1.414213562400000e+00	 1.414213562400000e+00	 9.005936038939966e+00
 1.384624112627405e+00	 1.443196475494774e+00	 8.822472741187610e+00
 1.354447350854096e+00	 1.471554407389304e+00	 8.634936823521322e+00
 1.323703240303628e+00	 1.499269732816743e+00	 8.443250191605642e+00
 1.292412438818763e+00	 1.526325682186112e+00	 8.247347431648986e+00
 1.260596252818672e+00	 1.552706375163436e+00	 8.047176319368537e+00
 1.228276589354776e+00	 1.578396851274027e+00	 7.842698258918688e+00
 1.195475906489922e+00	 1.603383097404348e+00	 7.633888648607965e+00
 1.162217162234145e+00	 1.627652072101262e+00	 7.420737170861866e+00
 1.128523762276804e+00	 1.651191726586391e+00	 7.203248004542935e+00
 1.094419506759630e+00	 1.673991022423631e+00	 6.981439958410618e+00
 1.026018287606500e+00	 1.569366583547552e+00	 6.763809710792112e+00
 9.936830028478698e-01	 1.590037449219140e+00	 6.531574804006251e+00
 9.610080729608007e-01	 1.609996423530313e+00	 6.302346305166001e+00
 9.280166150632180e-01	 1.629236067072467e+00	 6.076348626693684e+00
 8.947319121182953e-01	 1.647749922022751e+00	 5.853792417520765e+00
 8.611773620061525e-01	 1.665532512820283e+00	 5.634874207408636e+00
 8.273764270649263e-01	 1.682579343755863e+00	 5.419776126111793e+00
 7.933525843124147e-01	 1.698886893546373e+00	 5.208665696939878e+00
 7.591292765506416e-01	 1.714452606980927e+00	 5.001695703718669e+00
 7.247298645455660e-01	 1.729274883740578e+00	 4.799004129618901e+00
 6.901775804629183e-01	 1.743353064507004e+00	 4.600714165828146e+00
 1.032858409524087e+00	 1.579829027432933e+00	 6.785189781135448e+00
 1.000307556199713e+00	 1.600637698875349e+00	 6.553894014154139e+00
 9.674147934461709e-01	 1.620729733015011e+00	 6.325564798532337e+00
 9.342033924955050e-01	 1.640097640847259e+00	 6.100427392006070e+00
 9.006967915306425e-01	 1.658734921497089e+00	 5.878693226654244e+00
 8.669185444175702e-01	 1.676636062899880e+00	 5.660559551689058e+00
 8.328922699100108e-01	 1.693796539375036e+00	 5.446209151644299e+00
 7.986416015392142e-01	 1.710212806164218e+00	 5.235810139507162e+00
 7.641901383925483e-01	 1.725882291021801e+00	 5.029515823775574e+00
 7.295613969744115e-01	 1.740803382960041e+00	 4.827464647890938e+00
 6.947787643316375e-01	 1.754975418265163e+00	 4.629780199995411e+00
 1.039698531441169e+00	 1.590291471318810e+00	 6.806659045962317e+00
 1.006932109550961e+00	 1.611237948531963e+00	 6.576304825870848e+00
 9.738215139308771e-01	 1.631463042500044e+00	 6.348877008544621e+00
 9.403901699270795e-01	 1.650959214622338e+00	 6.124601694802408e+00
 9.066616709422495e-01	 1.669719920971687e+00	 5.903691098411707e+00
 8.726597268282396e-01	 1.687739612979729e+00	 5.686343187343263e+00
 8.384081127543602e-01	 1.705013734994474e+00	 5.472741400975995e+00
 8.039306187653098e-01	 1.721538718782360e+00	 5.263054442785482e+00
 7.692510002338034e-01	 1.737311975063022e+00	 5.057436147482562e+00
 7.343929294026771e-01	 1.752331882179924e+00	 4.856025421030733e+00
 6.993799481998668e-01	 1.766597772023833e+00	 4.658946251467292e+00
 1.046538653357745e+00	 1.600753915205181e+00	 6.828215900417176e+00
 1.013556662901614e+00	 1.621838198188981e+00	 6.598805583894908e+00
 9.802282344149195e-01	 1.642196351985414e+00	 6.372281235030259e+00
 9.465769473579416e-01	 1.661820788397706e+00	 6.148869795535572e+00
 9.126265503531162e-01	 1.680704920446545e+00	 5.928784259435579e+00
 8.784009092381612e-01	 1.698843163059831e+00	 5.712223312780914e+00
 8.439239555979734e-01	 1.716230930614175e+00	 5.499371049860484e+00
 8.092196359907021e-01	 1.732864631400798e+00	 5.290396765434762e+00
 7.743118620744075e-01	 1.748741659104592e+00	 5.085454821940179e+00
 7.392244618303623e-01	 1.763860381400226e+00	 4.884684590072760e+00
 7.039811320676067e-01	 1.778220125783012e+00	 4.688210460652071e+00
 1.053378775273816e+00	 1.611216359092047e+00	 6.849858781079625e+00
 1.020181216251672e+00	 1.632438447846405e+00	 6.621394675730109e+00
 9.866349548982980e-01	 1.652929661471120e+00	 6.395775821768984e+00
 9.527637247880920e-01	 1.672682362173361e+00	 6.173229999653705e+00
 9.185914297632424e-01	 1.691689919921662e+00	 5.953970982261739e+00
 8.841420916473348e-01	 1.709946713140184e+00	 5.738198173057686e+00
 8.494397984408509e-01	 1.727448126234142e+00	 5.526096321304529e+00
 8.145086532153912e-01	 1.744190544019534e+00	 5.317835313830011e+00
 7.793727239143596e-01	 1.760171343146511e+00	 5.113570042281582e+00
 7.440559942574673e-01	 1.775388880620949e+00	 4.913440344258238e+00
 7.085823159348565e-01	 1.789842479542702e+00	 4.717571016196471e+00
 1.060218897189382e+00	 1.621678802979408e+00	 6.871586164627942e+00
 1.026805769601136e+00	 1.643038697504233e+00	 6.644070530265950e+00
 9.930416753810124e-01	 1.663662970957163e+00	 6.419359155075014e+00
 9.589505022175296e-01	 1.683543935949304e+00	 6.197680656148858e+00
 9.245563091726284e-01	 1.702674919397039e+00	 5.979249583839008e+00
 8.898832740557604e-01	 1.721050263220789e+00	 5.764266058370486e+00
 8.549556412829928e-01	 1.738665321854372e+00	 5.552915484043835e+00
 8.197976704393767e-01	 1.755516456638565e+00	 5.345368340522403e+00
 7.844335857536603e-01	 1.771601027188778e+00	 5.141780050123336e+00
 7.488875266839924e-01	 1.786917379842091e+00	 4.942290919480108e+00
 7.131834998016169e-01	 1.801464833302902e+00	 4.747026153429532e+00
 1.067059019104442e+00	 1.632141246867263e+00	 6.893396566553765e+00
 1.033430322950004e+00	 1.653638947162467e+00	 6.666831616451228e+00
 9.994483958630631e-01	 1.674396280443540e+00	 6.443029662433870e+00
 9.651372796462548e-01	 1.694405509725534e+00	 6.222220156161257e+00
 9.305211885812740e-01	 1.713659918872676e+00	 6.004618424105516e+00
 8.956244564634376e-01	 1.732153813301645e+00	 5.790425302610734e+00
 8.604714841243993e-01	 1.749882517474867e+00	 5.579826851077272e+00
 8.250866876626589e-01	 1.766842369257893e+00	 5.372994142758953e+00
 7.894944475923095e-01	 1.783030711231393e+00	 5.170083132075372e+00
 7.537190591099371e-01	 1.798445879063653e+00	 4.971234596787585e+00
 7.177846836678873e-01	 1.813087187063613e+00	 4.776574152866550e+00
 1.073899141018997e+00	 1.642603690755613e+00	 6.915288539926050e+00
 1.040054876298278e+00	 1.664239196821106e+00	 6.689676442018190e+00
 1.005855116344450e+00	 1.685129589930255e+00	 6.466785811191118e+00
 9.713240570742678e-01	 1.705267083502052e+00	 6.246846931637129e+00
 9.364860679891795e-01	 1.724644918348573e+00	 6.030075904619866e+00
 9.013656388703671e-01	 1.743257363382755e+00	 5.816674281972686e+00
 8.659873269650699e-01	 1.761099713095627e+00	 5.606828778257356e+00
 8.303757048852374e-01	 1.778168281877517e+00	 5.400711061059443e+00
 7.945553094303071e-01	 1.794460395274357e+00	 5.198477618308184e+00
 7.585505915353016e-01	 1.809974378285635e+00	 5.000269700948223e+00
 7.223858675336681e-01	 1.824709540824833e+00	 4.806213338769876e+00
 1.080739262933047e+00	 1.653066134644457e+00	 6.937260674201874e+00
 1.046679429645956e+00	 1.674839446480151e+00	 6.712603552255342e+00
 1.012261836825172e+00	 1.695862899417306e+00	 6.490626107291051e+00
 9.775108345015685e-01	 1.716128657278857e+00	 6.271559454037170e+00
 9.424509473963443e-01	 1.735629917824729e+00	 6.055620467243772e+00
 9.071068212765485e-01	 1.754360913464115e+00	 5.843011413614905e+00
 8.715031698050051e-01	 1.772316908716650e+00	 5.633919662933957e+00
 8.356647221071125e-01	 1.789494194497438e+00	 5.428517477846674e+00
 7.996161712676533e-01	 1.805890079317670e+00	 5.226961881174205e+00
 7.633821239600858e-01	 1.821502877508038e+00	 5.029394599064472e+00
 7.269870513989594e-01	 1.836331894586565e+00	 4.835942077764550e+00
 1.087579384846591e+00	 1.663528578533797e+00	 6.959311594082264e+00
 1.053303982993040e+00	 1.685439696139599e+00	 6.735611528826238e+00
 1.018668557305232e+00	 1.706596208904692e+00	 6.514549094062684e+00
 9.836976119281569e-01	 1.726990231055951e+00	 6.296356233094217e+00
 9.484158268027693e-01	 1.746614917301144e+00	 6.081250592874891e+00
 9.128480036819818e-01	 1.765464463545728e+00	 5.869435154371919e+00
 8.770190126442042e-01	 1.783534104337938e+00	 5.661097942649497e+00
 8.409537393282845e-01	 1.800820107117657e+00	 5.456411816129027e+00
 8.046770331043480e-01	 1.817319763361330e+00	 5.255534333881533e+00
 7.682136563842901e-01	 1.833031376730859e+00	 5.058607699242188e+00
 7.315882352637607e-01	 1.847954248348806e+00	 4.865758777506166e+00
 1.094419506759630e+00	 1.673991022423631e+00	 6.981439958410618e+00
 1.059928536339529e+00	 1.696039945799453e+00	 6.758698988632950e+00
 1.025075277784627e+00	 1.717329518392415e+00	 6.538553351051760e+00
 9.898843893540332e-01	 1.737851804833332e+00	 6.321235815617039e+00
 9.543807062084537e-01	 1.757599916777820e+00	 6.106964800226825e+00
 9.185891860866674e-01	 1.776568013627593e+00	 5.895943999514380e+00
 8.825348554826680e-01	 1.794751299959490e+00	 5.688362093882919e+00
 8.462427565487531e-01	 1.812146019738171e+00	 5.484392538232157e+00
 8.097378949403913e-01	 1.828749447405340e+00	 5.284193429216987e+00
 7.730451888079141e-01	 1.844559875954101e+00	 5.087907449309420e+00
 7.361894191280726e-01	 1.859576602111558e+00	 4.895661885398611e+00
 6.901775804629183e-01	 1.743353064507004e+00	 4.600714165828146e+00
 6.554954827290597e-01	 1.756687414487810e+00	 4.401014785701291e+00
 6.207064124720911e-01	 1.769279104497503e+00	 4.211937476017761e+00
 5.858329516852290e-01	 1.781130189742346e+00	 4.033699606700704e+00
 5.508973832404049e-01	 1.792243586465333e+00	 3.866479458408750e+00
 5.159216528644688e-01	 1.802623046614941e+00	 3.710416811159944e+00
 4.809273331759799e-01	 1.812273130706186e+00	 3.565613695688337e+00
 4.459355898653843e-01	 1.821199179046478e+00	 3.432135296477628e+00
 4.109671500863636e-01	 1.829407281501319e+00	 3.310010994758273e+00
 3.760422731112888e-01	 1.836904245976013e+00	 3.199235539244493e+00
 3.411807232891650e-01	 1.843697565789419e+00	 3.099770332009971e+00
 6.947787643316375e-01	 1.754975418265163e+00	 4.629780199995411e+00
 6.598654526133345e-01	 1.768398663912796e+00	 4.431844973670854e+00
 6.248444552216971e-01	 1.781074298522854e+00	 4.244244978915394e+00
 5.897385046965644e-01	 1.793004391002975e+00	 4.067185246533285e+00
 5.545700324623483e-01	 1.804191877037771e+00	 3.900832836392825e+00
 5.193611305507445e-01	 1.814640533588709e+00	 3.745317440462886e+00
 4.841335153977708e-01	 1.824354951574237e+00	 3.600732142668876e+00
 4.489084937984773e-01	 1.833340506903816e+00	 3.467134324676092e+00
 4.137069310875708e-01	 1.841603330042052e+00	 3.344546706089600e+00
 3.785492215992395e-01	 1.849150274280280e+00	 3.232958507081149e+00
 3.434552614448158e-01	 1.855988882892821e+00	 3.132326721107189e+00
 6.993799481998668e-01	 1.766597772023833e+00	 4.658946251467292e+00
 6.642354224972193e-01	 1.780109913338382e+00	 4.462676453051737e+00
 6.289824979710141e-01	 1.792869492548873e+00	 4.276458380862714e+00
 5.936440577077111e-01	 1.804878592264319e+00	 4.100484851447858e+00
 5.582426816842031e-01	 1.816140167610950e+00	 3.934911817885488e+00
 5.228006082370326e-01	 1.826658020563224e+00	 3.779858987140798e+00
 4.873396976196750e-01	 1.836436772443023e+00	 3.635410588379136e+00
 4.518813977317842e-01	 1.845481834761856e+00	 3.501616281507628e+00
 4.164467120890923e-01	 1.853799378583433e+00	 3.378492194634624e+00
 3.810561700876046e-01	 1.861396302585124e+00	 3.266022078689585e+00
 3.457297996009814e-01	 1.868280199996709e+00	 3.164158567129996e+00
 7.039811320676067e-01	 1.778220125783012e+00	 4.688210460652071e+00
 6.686053923807149e-01	 1.791821162764569e+00	 4.493509294552034e+00
 6.331205407200413e-01	 1.804664686575561e+00	 4.308579617292112e+00
 5.975496107186692e-01	 1.816752793526378e+00	 4.133602153583446e+00
 5.619153309059700e-01	 1.828088458184871e+00	 3.968721861486960e+00
 5.262400859233336e-01	 1.838675507538488e+00	 3.814048563997077e+00
 4.905458798416924e-01	 1.848518593312543e+00	 3.669657725771291e+00
 4.548543016653047e-01	 1.857623162620597e+00	 3.535591364438642e+00
 4.191864930909281e-01	 1.865995427125461e+00	 3.411859085374308e+00
 3.835631185763844e-01	 1.873642330890543e+00	 3.298439228413484e+00
 3.480043377576615e-01	 1.880571517101082e+00	 3.195280114690550e+00
 7.085823159348565e-01	 1.789842479542702e+00	 4.717571016196471e+00
 6.729753622638208e-01	 1.803532412191355e+00	 4.524343566995121e+00
 6.372585834687796e-01	 1.816459880602917e+00	 4.340610573330255e+00
 6.014551637294383e-01	 1.828626994789152e+00	 4.166540788118201e+00
 5.655879801276489e-01	 1.840036748759533e+00	 4.002268284004755e+00
 5.296795636096469e-01	 1.850692994514499e+00	 3.847893099086039e+00
 4.937520620638231e-01	 1.860600414182798e+00	 3.703482022014364e+00
 4.578272055990393e-01	 1.869764490480038e+00	 3.569069506081696e+00
 4.219262740930783e-01	 1.878191475668138e+00	 3.444658701363894e+00
 3.860700670655788e-01	 1.885888359196539e+00	 3.330222593627427e+00
 3.502788759148565e-01	 1.892862834205940e+00	 3.225705238441726e+00
 7.131834998016169e-01	 1.801464833302902e+00	 4.747026153429532e+00
 6.773453321465368e-01	 1.815243661618740e+00	 4.555179337380462e+00
 6.413966262172285e-01	 1.828255074630939e+00	 4.372553085420947e+00
 6.053607167400187e-01	 1.840501196052642e+00	 4.199304296397037e+00
 5.692606293492394e-01	 1.851985039334938e+00	 4.035556265027362e+00
 5.331190412959727e-01	 1.862710481491259e+00	 3.881399341672421e+00
 4.969582442860671e-01	 1.872682235053787e+00	 3.736891725777547e+00
 4.608001095329875e-01	 1.881905818340180e+00	 3.602060382739237e+00
 4.246660550955427e-01	 1.890387524211462e+00	 3.476902073472414e+00
 3.885770155551879e-01	 1.898134387503110e+00	 3.361384485606950e+00
 3.525534140725660e-01	 1.905154151311284e+00	 3.255447455011183e+00
 7.177846836678873e-01	 1.813087187063613e+00	 4.776574152866550e+00
 6.817153020288633e-01	 1.826954911046724e+00	 4.586016670942170e+00
 6.455346689653881e-01	 1.840050268659631e+00	 4.404408942885491e+00
 6.092662697504103e-01	 1.852375397316846e+00	 4.231896128939290e+00
 5.729332785707419e-01	 1.863933329911085e+00	 4.068590851322445e+00
 5.365585189823112e-01	 1.874727968468767e+00	 3.914573867961970e+00
 5.001644265084243e-01	 1.884764055925510e+00	 3.769894874233542e+00
 4.637730134671497e-01	 1.894047146201024e+00	 3.634573422618664e+00
 4.274058360983216e-01	 1.902583572755435e+00	 3.508599949747495e+00
 3.910839640452114e-01	 1.910380415810258e+00	 3.391936899980178e+00
 3.548279522307902e-01	 1.917445468417113e+00	 3.284519934476754e+00
 7.223858675336681e-01	 1.824709540824833e+00	 4.806213338769876e+00
 6.860852719108003e-01	 1.838666160475309e+00	 4.616855631205121e+00
 6.496727117132584e-01	 1.851845462688989e+00	 4.436179889423510e+00
 6.131718227606133e-01	 1.864249598581766e+00	 4.264319648330952e+00
 5.766059277921564e-01	 1.875881620487973e+00	 4.101376961066782e+00
 5.399979966686622e-01	 1.886745455447023e+00	 3.947423086612832e+00
 5.033706087308947e-01	 1.896845876797968e+00	 3.802499299793938e+00
 4.667459174015257e-01	 1.906188474062568e+00	 3.666617813733361e+00
 4.301456171014146e-01	 1.914779621300055e+00	 3.539762804422660e+00
 3.935909125356498e-01	 1.922626444117981e+00	 3.421891526780688e+00
 3.571024903895291e-01	 1.929736785523427e+00	 3.312935511402673e+00
 7.269870513989594e-01	 1.836331894586565e+00	 4.835942077764550e+00
 6.904552417923476e-01	 1.850377409904493e+00	 4.647696280039009e+00
 6.538107544608396e-01	 1.863640656719015e+00	 4.467867624556458e+00
 6.170773757706274e-01	 1.876123799847400e+00	 4.296578132007687e+00
 5.802785770134827e-01	 1.887829911065603e+00	 4.133919387915617e+00
 5.434374743550259e-01	 1.898762942426027e+00	 3.979953244037612e+00
 5.065767909534783e-01	 1.908927697671160e+00	 3.834712636589009e+00
 4.697188213361155e-01	 1.918329801924813e+00	 3.698202511503767e+00
 4.328853981048221e-01	 1.926975669845323e+00	 3.570400846581999e+00
 3.960978610265026e-01	 1.934872472426280e+00	 3.451259760117753e+00
 3.593770285487826e-01	 1.942028102630226e+00	 3.340706695457605e+00
 7.315882352637607e-01	 1.847954248348806e+00	 4.865758777506166e+00
 6.948252116735053e-01	 1.862088659334276e+00	 4.678538677710508e+00
 6.579487972081315e-01	 1.875435850749710e+00	 4.499473805016949e+00
 6.209829287804527e-01	 1.887998001113750e+00	 4.328674774932288e+00
 5.839512262347207e-01	 1.899778201643975e+00	 4.166222804918328e+00
 5.468769520414020e-01	 1.910780429405780e+00	 4.012170429505630e+00
 5.097829731761752e-01	 1.921009518545087e+00	 3.866542326703218e+00
 4.726917252709194e-01	 1.930471129787759e+00	 3.729336246072017e+00
 4.356251791085438e-01	 1.939171718391240e+00	 3.600524028498568e+00
 3.986048095177700e-01	 1.947118500735156e+00	 3.480052707482529e+00
 3.616515667085508e-01	 1.954319419737511e+00	 3.367845681631001e+00
 7.361894191280726e-01	 1.859576602111558e+00	 4.895661885398611e+00
 6.991951815542736e-01	 1.873799908764660e+00	 4.709382882933351e+00
 6.620868399551343e-01	 1.887231044781072e+00	 4.531000046086088e+00
 6.248884817900895e-01	 1.899872202380815e+00	 4.360612692172095e+00
 5.876238754558710e-01	 1.911726492223089e+00	 4.198291768287431e+00
 5.503164297277909e-01	 1.922797916386281e+00	 4.044080580053396e+00
 5.129891553989854e-01	 1.933091339419748e+00	 3.897995626176328e+00
 4.756646292059370e-01	 1.942612457651407e+00	 3.760027529341023e+00
 4.383649601125800e-01	 1.951367766937804e+00	 3.630142053659537e+00
 4.011117580094523e-01	 1.959364529044608e+00	 3.508281198704707e+00
 3.639261048688338e-01	 1.966610736845282e+00	 3.394364360067065e+00
 3.411807232891650e-01	 1.843697565789419e+00	 3.099770332009971e+00
 3.064017453303258e-01	 1.849795386114716e+00	 2.995953699296488e+00
 2.717240419284751e-01	 1.855206469658534e+00	 2.908749857894512e+00
 2.371657537175081e-01	 1.859940161747613e+00	 2.838034814909698e+00
 2.027444415484455e-01	 1.864006354987513e+00	 2.783639789874528e+00
 1.684770710600370e-01	 1.867415453651191e+00	 2.745353616658851e+00
 1.343799995057737e-01	 1.870178337950090e+00	 2.722925228081889e+00
 1.004689647900904e-01	 1.872306328333207e+00	 2.716066204632565e+00
 6.675907665743416e-02	 1.873811149952121e+00	 2.724453369329789e+00
 3.326480996967145e-02	 1.874704897421970e+00	 2.747731411496115e+00
 0.000000000000000e+00	 1.875000000000000e+00	 2.785515523059349e+00
 3.434552614448158e-01	 1.855988882892821e+00	 3.132326721107189e+00
 3.084444236327498e-01	 1.862127355353983e+00	 3.028238512887329e+00
 2.735355355414154e-01	 1.867574512788415e+00	 2.941212872744016e+00
 2.387468587422667e-01	 1.872339762825035e+00	 2.871142913247669e+00
 2.040960711586644e-01	 1.876433064020110e+00	 2.817874420674499e+00
 1.696002515336156e-01	 1.879864890008415e+00	 2.781208311576681e+00
 1.352758661689677e-01	 1.882646193536137e+00	 2.760903181288774e+00
 1.011387578885178e-01	 1.884788370521935e+00	 2.756677924903496e+00
 6.720413716834214e-02	 1.886303224285065e+00	 2.768214411867053e+00
 3.348657536938560e-02	 1.887202930071432e+00	 2.795160196081994e+00
 0.000000000000000e+00	 1.887500000000000e+00	 2.837131244257923e+00
 3.457297996009814e-01	 1.868280199996709e+00	 3.164158567129996e+00
 3.104871019357723e-01	 1.874459324593641e+00	 3.059960466690516e+00
 2.753470291550064e-01	 1.879942555918602e+00	 2.973266880252898e+00
 2.403279637676975e-01	 1.884739363902691e+00	 2.903987919029381e+00
 2.054477007695459e-01	 1.888859773052877e+00	 2.851983850071778e+00
 1.707234320078177e-01	 1.892314326365756e+00	 2.817067607023828e+00
 1.361717328327167e-01	 1.895114049122259e+00	 2.799007401979713e+00
 1.018085509874029e-01	 1.897270412710705e+00	 2.797529418114423e+00
 6.764919767958245e-02	 1.898795298618027e+00	 2.812320563358366e+00
 3.370834076927928e-02	 1.899700962720899e+00	 2.843031266129424e+00
 0.000000000000000e+00	 1.900000000000000e+00	 2.889278294990254e+00
 3.480043377576615e-01	 1.880571517101082e+00	 3.195280114690550e+00
 3.125297802393933e-01	 1.886791293833689e+00	 3.091130627807273e+00
 2.771585227692485e-01	 1.892310599049096e+00	 3.004919923439081e+00
 2.419090687938004e-01	 1.897138964980581e+00	 2.936575006724330e+00
 2.067993303810904e-01	 1.901286482085814e+00	 2.885970541220197e+00
 1.718466124826434e-01	 1.904763762723215e+00	 2.852931413370028e+00
 1.370675994970205e-01	 1.907581904708456e+00	 2.837235407182338e+00
 1.024783440867457e-01	 1.909752454899516e+00	 2.838615967925394e+00
 6.809425819115501e-02	 1.911287372951007e+00	 2.856765034240211e+00
 3.393010616935248e-02	 1.912198995370370e+00	 2.891335918813367e+00
 0.000000000000000e+00	 1.912500000000000e+00	 2.941946218614155e+00
 3.502788759148565e-01	 1.892862834205940e+00	 3.225705238441726e+00
 3.145724585436130e-01	 1.899123263074128e+00	 3.121759775914569e+00
 2.789700163841413e-01	 1.904678642179897e+00	 3.036179836445422e+00
 2.434901738205753e-01	 1.909538566058704e+00	 2.968909216434473e+00
 2.081509599932976e-01	 1.913713191118922e+00	 2.919836893328390e+00
 1.729697929580925e-01	 1.917213199080792e+00	 2.888799643343412e+00
 1.379634661618794e-01	 1.920049760294728e+00	 2.875584778443390e+00
 1.031481371865461e-01	 1.922234497088370e+00	 2.879932980520506e+00
 6.853931870305990e-02	 1.923779447284006e+00	 2.901541211316871e+00
 3.415187156960520e-02	 1.924697028019846e+00	 2.940065677364398e+00
 0.000000000000000e+00	 1.925000000000000e+00	 2.995124830088511e+00
 3.525534140725660e-01	 1.905154151311284e+00	 3.255447455011183e+00
 3.166151368484313e-01	 1.911455232314958e+00	 3.151858412537310e+00
 2.807815099996850e-01	 1.917046685311005e+00	 3.067054251277297e+00
 2.450712788480224e-01	 1.921938167137059e+00	 3.000995458228735e+00
 2.095025896061675e-01	 1.926139900152201e+00	 2.953585243722842e+00
 1.740929734341652e-01	 1.929662635438486e+00	 2.924672211954527e+00
 1.388593328272932e-01	 1.932517615881074e+00	 2.914053159747990e+00
 1.038179302868042e-01	 1.934716539277265e+00	 2.921475980655423e+00
 6.898437921529707e-02	 1.936271521617023e+00	 2.946642652071173e+00
 3.437363697003744e-02	 1.937195060669326e+00	 2.989212283776717e+00
 0.000000000000000e+00	 1.937500000000000e+00	 3.048804207211957e+00
 3.548279522307902e-01	 1.917445468417113e+00	 3.284519934476754e+00
 3.186578151538482e-01	 1.923787201556179e+00	 3.181436769962960e+00
 2.825930036158798e-01	 1.929414728442421e+00	 3.097550604281573e+00
 2.466523838761414e-01	 1.934337768215650e+00	 3.032838516310427e+00
 2.108542192197002e-01	 1.938566609185649e+00	 2.987217869830820e+00
 1.752161539108614e-01	 1.942112071796298e+00	 2.960549036423236e+00
 1.397551994932619e-01	 1.944985471467495e+00	 2.952638255517913e+00
 1.044877233875199e-01	 1.947198581466201e+00	 2.963240607856962e+00
 6.942943972786655e-02	 1.948763595950059e+00	 2.992063079193994e+00
 3.459540237064921e-02	 1.949693093318812e+00	 3.038767691796448e+00
 0.000000000000000e+00	 1.950000000000000e+00	 3.102974682198536e+00
 3.571024903895291e-01	 1.929736785523427e+00	 3.312935511402673e+00
 3.207004934598637e-01	 1.936119170797790e+00	 3.210504819816519e+00
 2.844044972327253e-01	 1.941782771574142e+00	 3.127676142377732e+00
 2.482334889049326e-01	 1.946737369294472e+00	 3.064443053026124e+00
 2.122058488338956e-01	 1.950993318219269e+00	 3.020736991088624e+00
 1.763393343881811e-01	 1.954561508154227e+00	 2.996430036107979e+00
 1.406510661597856e-01	 1.957453327053991e+00	 2.991337828687305e+00
 1.051575164886933e-01	 1.959680623655180e+00	 3.005222612768099e+00
 6.987450024076833e-02	 1.961255670283113e+00	 3.037796375322797e+00
 3.481716777144051e-02	 1.962191125968301e+00	 3.088724060177948e+00
 0.000000000000000e+00	 1.962499999999999e+00	 3.157626833575297e+00
 3.593770285487826e-01	 1.942028102630226e+00	 3.340706695457605e+00
 3.227431717664778e-01	 1.948451140039792e+00	 3.239072281308701e+00
 2.862159908502217e-01	 1.954150814706171e+00	 3.157437929052398e+00
 2.498145939343959e-01	 1.959136970373530e+00	 3.095813612721685e+00
 2.135574784487539e-01	 1.963420027253059e+00	 3.054144770776140e+00
 1.774625148661244e-01	 1.967010944512274e+00	 3.032315132438655e+00
 1.415469328268642e-01	 1.969921182640562e+00	 3.030149698850757e+00
 1.058273095903243e-01	 1.972162665844200e+00	 3.047417853631597e+00
 7.031956075400238e-02	 1.973747744616185e+00	 3.083836577980386e+00
 3.503893317241133e-02	 1.974689158617795e+00	 3.139073746196222e+00
 0.000000000000000e+00	 1.975000000000000e+00	 3.212751478387565e+00
 3.616515667085508e-01	 1.954319419737511e+00	 3.367845681631001e+00
 3.247858500736904e-01	 1.960783109282185e+00	 3.267148629174094e+00
 2.880274844683691e-01	 1.966518857838506e+00	 3.186842850127595e+00
 2.513956989645312e-01	 1.971536571452820e+00	 3.126954625452939e+00
 2.149091080642749e-01	 1.975846736287019e+00	 3.087443317783124e+00
 1.785856953446911e-01	 1.979460380870439e+00	 3.068204248851029e+00
 1.424427994944977e-01	 1.982389038227207e+00	 3.069071740481548e+00
 1.064971026924130e-01	 1.984644708033262e+00	 3.089822292906228e+00
 7.076462126756874e-02	 1.986239818949276e+00	 3.130177874703760e+00
 3.526069857356168e-02	 1.987187191267294e+00	 3.189809299404057e+00
 0.000000000000000e+00	 1.987500000000000e+00	 3.268339664698392e+00
 3.639261048688338e-01	 1.966610736845282e+00	 3.394364360067065e+00
 3.268285283815017e-01	 1.973115078524969e+00	 3.294743101310814e+00
 2.898389780871672e-01	 1.978886900971149e+00	 3.215897619313009e+00
 2.529768039953388e-01	 1.983936172532344e+00	 3.157870410557254e+00
 2.162607376804587e-01	 1.988273445321150e+00	 3.120634688308780e+00
 1.797088758238815e-01	 1.991909817228721e+00	 3.104097310724277e+00
 1.433386661626862e-01	 1.994856893813928e+00	 3.108101881216812e+00
 1.071668957949593e-01	 1.997126750222366e+00	 3.132431994010255e+00
 7.120968178146743e-02	 1.998731893282386e+00	 3.176814598356594e+00
 3.548246397489156e-02	 1.999685223916798e+00	 3.240923455623498e+00
 0.000000000000000e+00	 2.000000000000000e+00	 3.324382664369232e+00
